    1C
    1UUSER                                                              
    1UDATE              27.october.2022                                 
    1UTIME              00:16:05                                        
    1UHOST                                                              
    1UPGM               CalculiX                                        
    1UVERSION           Version 2.17                             
    1UCOMPILETIME       Thu Jul 23 21:43:50 CEST 2020                    
    1UDIR                                                               
    1UDBN                                                               
    1UMAT    1SOLIDMATERIAL                                             
    2C                          4404                                     1
 -1         1 1.70005E+01 2.27285E+01 0.00000E+00
 -1         2 1.99536E+01 1.70169E+01 0.00000E+00
 -1         3 1.50000E+02 0.00000E+00 0.00000E+00
 -1         4 1.50000E+02 5.00000E+01 0.00000E+00
 -1         5 0.00000E+00 0.00000E+00 0.00000E+00
 -1         6 0.00000E+00 5.00000E+01 0.00000E+00
 -1         7 0.00000E+00 4.69500E+01 0.00000E+00
 -1         8 0.00000E+00 4.39000E+01 0.00000E+00
 -1         9 0.00000E+00 4.08500E+01 0.00000E+00
 -1        10 0.00000E+00 3.78000E+01 0.00000E+00
 -1        11 0.00000E+00 3.47500E+01 0.00000E+00
 -1        12 0.00000E+00 3.17000E+01 0.00000E+00
 -1        13 0.00000E+00 2.86500E+01 0.00000E+00
 -1        14 0.00000E+00 2.58500E+01 0.00000E+00
 -1        15 0.00000E+00 2.31000E+01 0.00000E+00
 -1        16 0.00000E+00 2.03500E+01 0.00000E+00
 -1        17 0.00000E+00 1.79000E+01 0.00000E+00
 -1        18 0.00000E+00 1.58000E+01 0.00000E+00
 -1        19 0.00000E+00 1.34500E+01 0.00000E+00
 -1        20 0.00000E+00 1.11500E+01 0.00000E+00
 -1        21 0.00000E+00 8.75000E+00 0.00000E+00
 -1        22 0.00000E+00 6.05000E+00 0.00000E+00
 -1        23 0.00000E+00 3.00000E+00 0.00000E+00
 -1        24 3.15000E+00 5.00000E+01 0.00000E+00
 -1        25 6.15000E+00 5.00000E+01 0.00000E+00
 -1        26 9.15000E+00 5.00000E+01 0.00000E+00
 -1        27 1.21500E+01 5.00000E+01 0.00000E+00
 -1        28 1.51500E+01 5.00000E+01 0.00000E+00
 -1        29 1.81500E+01 5.00000E+01 0.00000E+00
 -1        30 2.11500E+01 5.00000E+01 0.00000E+00
 -1        31 2.41500E+01 5.00000E+01 0.00000E+00
 -1        32 2.71500E+01 5.00000E+01 0.00000E+00
 -1        33 3.01500E+01 5.00000E+01 0.00000E+00
 -1        34 3.31500E+01 5.00000E+01 0.00000E+00
 -1        35 3.61500E+01 5.00000E+01 0.00000E+00
 -1        36 3.91500E+01 5.00000E+01 0.00000E+00
 -1        37 4.21500E+01 5.00000E+01 0.00000E+00
 -1        38 4.51500E+01 5.00000E+01 0.00000E+00
 -1        39 4.81500E+01 5.00000E+01 0.00000E+00
 -1        40 5.11500E+01 5.00000E+01 0.00000E+00
 -1        41 5.41500E+01 5.00000E+01 0.00000E+00
 -1        42 5.71500E+01 5.00000E+01 0.00000E+00
 -1        43 6.01500E+01 5.00000E+01 0.00000E+00
 -1        44 6.31500E+01 5.00000E+01 0.00000E+00
 -1        45 6.61500E+01 5.00000E+01 0.00000E+00
 -1        46 6.91500E+01 5.00000E+01 0.00000E+00
 -1        47 7.21500E+01 5.00000E+01 0.00000E+00
 -1        48 7.51500E+01 5.00000E+01 0.00000E+00
 -1        49 7.81500E+01 5.00000E+01 0.00000E+00
 -1        50 8.11500E+01 5.00000E+01 0.00000E+00
 -1        51 8.41500E+01 5.00000E+01 0.00000E+00
 -1        52 8.71500E+01 5.00000E+01 0.00000E+00
 -1        53 9.01500E+01 5.00000E+01 0.00000E+00
 -1        54 9.31500E+01 5.00000E+01 0.00000E+00
 -1        55 9.61500E+01 5.00000E+01 0.00000E+00
 -1        56 9.91500E+01 5.00000E+01 0.00000E+00
 -1        57 1.02150E+02 5.00000E+01 0.00000E+00
 -1        58 1.05150E+02 5.00000E+01 0.00000E+00
 -1        59 1.08150E+02 5.00000E+01 0.00000E+00
 -1        60 1.11150E+02 5.00000E+01 0.00000E+00
 -1        61 1.14150E+02 5.00000E+01 0.00000E+00
 -1        62 1.17150E+02 5.00000E+01 0.00000E+00
 -1        63 1.20150E+02 5.00000E+01 0.00000E+00
 -1        64 1.23150E+02 5.00000E+01 0.00000E+00
 -1        65 1.26150E+02 5.00000E+01 0.00000E+00
 -1        66 1.29150E+02 5.00000E+01 0.00000E+00
 -1        67 1.32150E+02 5.00000E+01 0.00000E+00
 -1        68 1.35150E+02 5.00000E+01 0.00000E+00
 -1        69 1.38150E+02 5.00000E+01 0.00000E+00
 -1        70 1.41150E+02 5.00000E+01 0.00000E+00
 -1        71 1.44150E+02 5.00000E+01 0.00000E+00
 -1        72 1.47150E+02 5.00000E+01 0.00000E+00
 -1        73 3.15000E+00 0.00000E+00 0.00000E+00
 -1        74 6.00000E+00 0.00000E+00 0.00000E+00
 -1        75 8.70000E+00 0.00000E+00 0.00000E+00
 -1        76 1.15500E+01 0.00000E+00 0.00000E+00
 -1        77 1.45500E+01 0.00000E+00 0.00000E+00
 -1        78 1.75500E+01 0.00000E+00 0.00000E+00
 -1        79 2.05500E+01 0.00000E+00 0.00000E+00
 -1        80 2.35500E+01 0.00000E+00 0.00000E+00
 -1        81 2.67000E+01 0.00000E+00 0.00000E+00
 -1        82 2.97000E+01 0.00000E+00 0.00000E+00
 -1        83 3.27000E+01 0.00000E+00 0.00000E+00
 -1        84 3.57000E+01 0.00000E+00 0.00000E+00
 -1        85 3.87000E+01 0.00000E+00 0.00000E+00
 -1        86 4.17000E+01 0.00000E+00 0.00000E+00
 -1        87 4.47000E+01 0.00000E+00 0.00000E+00
 -1        88 4.77000E+01 0.00000E+00 0.00000E+00
 -1        89 5.07000E+01 0.00000E+00 0.00000E+00
 -1        90 5.37000E+01 0.00000E+00 0.00000E+00
 -1        91 5.67000E+01 0.00000E+00 0.00000E+00
 -1        92 5.97000E+01 0.00000E+00 0.00000E+00
 -1        93 6.27000E+01 0.00000E+00 0.00000E+00
 -1        94 6.57000E+01 0.00000E+00 0.00000E+00
 -1        95 6.88500E+01 0.00000E+00 0.00000E+00
 -1        96 7.18500E+01 0.00000E+00 0.00000E+00
 -1        97 7.48500E+01 0.00000E+00 0.00000E+00
 -1        98 7.78500E+01 0.00000E+00 0.00000E+00
 -1        99 8.08500E+01 0.00000E+00 0.00000E+00
 -1       100 8.38500E+01 0.00000E+00 0.00000E+00
 -1       101 8.68500E+01 0.00000E+00 0.00000E+00
 -1       102 8.98500E+01 0.00000E+00 0.00000E+00
 -1       103 9.28500E+01 0.00000E+00 0.00000E+00
 -1       104 9.58500E+01 0.00000E+00 0.00000E+00
 -1       105 9.88500E+01 0.00000E+00 0.00000E+00
 -1       106 1.01850E+02 0.00000E+00 0.00000E+00
 -1       107 1.04850E+02 0.00000E+00 0.00000E+00
 -1       108 1.07850E+02 0.00000E+00 0.00000E+00
 -1       109 1.11000E+02 0.00000E+00 0.00000E+00
 -1       110 1.14000E+02 0.00000E+00 0.00000E+00
 -1       111 1.17000E+02 0.00000E+00 0.00000E+00
 -1       112 1.20000E+02 0.00000E+00 0.00000E+00
 -1       113 1.23000E+02 0.00000E+00 0.00000E+00
 -1       114 1.26000E+02 0.00000E+00 0.00000E+00
 -1       115 1.29000E+02 0.00000E+00 0.00000E+00
 -1       116 1.32000E+02 0.00000E+00 0.00000E+00
 -1       117 1.35000E+02 0.00000E+00 0.00000E+00
 -1       118 1.38000E+02 0.00000E+00 0.00000E+00
 -1       119 1.41000E+02 0.00000E+00 0.00000E+00
 -1       120 1.44000E+02 0.00000E+00 0.00000E+00
 -1       121 1.47000E+02 0.00000E+00 0.00000E+00
 -1       122 1.50000E+02 2.95000E+00 0.00000E+00
 -1       123 1.50000E+02 5.90000E+00 0.00000E+00
 -1       124 1.50000E+02 8.85000E+00 0.00000E+00
 -1       125 1.50000E+02 1.18000E+01 0.00000E+00
 -1       126 1.50000E+02 1.47500E+01 0.00000E+00
 -1       127 1.50000E+02 1.76500E+01 0.00000E+00
 -1       128 1.50000E+02 2.06000E+01 0.00000E+00
 -1       129 1.50000E+02 2.35500E+01 0.00000E+00
 -1       130 1.50000E+02 2.65000E+01 0.00000E+00
 -1       131 1.50000E+02 2.94500E+01 0.00000E+00
 -1       132 1.50000E+02 3.24000E+01 0.00000E+00
 -1       133 1.50000E+02 3.53000E+01 0.00000E+00
 -1       134 1.50000E+02 3.82500E+01 0.00000E+00
 -1       135 1.50000E+02 4.12000E+01 0.00000E+00
 -1       136 1.50000E+02 4.41500E+01 0.00000E+00
 -1       137 1.50000E+02 4.71000E+01 0.00000E+00
 -1       138 1.97517E+01 1.53480E+01 0.00000E+00
 -1       139 1.92411E+01 1.39401E+01 0.00000E+00
 -1       140 1.83526E+01 1.25614E+01 0.00000E+00
 -1       141 1.73101E+01 1.15378E+01 0.00000E+00
 -1       142 1.60866E+01 1.07572E+01 0.00000E+00
 -1       143 1.47122E+01 1.02414E+01 0.00000E+00
 -1       144 1.31898E+01 1.00209E+01 0.00000E+00
 -1       145 1.14738E+01 1.01751E+01 0.00000E+00
 -1       146 9.95275E+00 1.06927E+01 0.00000E+00
 -1       147 8.52633E+00 1.15948E+01 0.00000E+00
 -1       148 7.39244E+00 1.27656E+01 0.00000E+00
 -1       149 6.61697E+00 1.40424E+01 0.00000E+00
 -1       150 6.09616E+00 1.56113E+01 0.00000E+00
 -1       151 5.95360E+00 1.70305E+01 0.00000E+00
 -1       152 6.12910E+00 1.85745E+01 0.00000E+00
 -1       153 6.61502E+00 1.99872E+01 0.00000E+00
 -1       154 7.47580E+00 2.13751E+01 0.00000E+00
 -1       155 8.52228E+00 2.24357E+01 0.00000E+00
 -1       156 9.76479E+00 2.32484E+01 0.00000E+00
 -1       157 1.11727E+01 2.37866E+01 0.00000E+00
 -1       158 1.26494E+01 2.40103E+01 0.00000E+00
 -1       159 1.42395E+01 2.38978E+01 0.00000E+00
 -1       160 1.56326E+01 2.34839E+01 0.00000E+00
 -1       161 1.79996E+01 2.18684E+01 0.00000E+00
 -1       162 1.88115E+01 2.08489E+01 0.00000E+00
 -1       163 1.94214E+01 1.96940E+01 0.00000E+00
 -1       164 1.98112E+01 1.84214E+01 0.00000E+00
 -1       165 2.59800E+00 4.54250E+01 0.00000E+00
 -1       166 2.59800E+00 4.23750E+01 0.00000E+00
 -1       167 2.59800E+00 3.93250E+01 0.00000E+00
 -1       168 2.59800E+00 3.62750E+01 0.00000E+00
 -1       169 2.59800E+00 3.32250E+01 0.00000E+00
 -1       170 2.59800E+00 3.01750E+01 0.00000E+00
 -1       171 2.59800E+00 2.73750E+01 0.00000E+00
 -1       172 2.59800E+00 2.46250E+01 0.00000E+00
 -1       173 2.59800E+00 2.18750E+01 0.00000E+00
 -1       174 1.71510E+00 1.68500E+01 0.00000E+00
 -1       175 1.71510E+00 1.45000E+01 0.00000E+00
 -1       176 1.71510E+00 1.22000E+01 0.00000E+00
 -1       177 1.71510E+00 9.80000E+00 0.00000E+00
 -1       178 1.71510E+00 7.10000E+00 0.00000E+00
 -1       179 1.71510E+00 4.05000E+00 0.00000E+00
 -1       180 2.43255E+00 2.02500E+00 0.00000E+00
 -1       181 4.65000E+00 4.74020E+01 0.00000E+00
 -1       182 7.65000E+00 4.74020E+01 0.00000E+00
 -1       183 1.06500E+01 4.74020E+01 0.00000E+00
 -1       184 1.36500E+01 4.74020E+01 0.00000E+00
 -1       185 1.66500E+01 4.74020E+01 0.00000E+00
 -1       186 1.96500E+01 4.74020E+01 0.00000E+00
 -1       187 2.26500E+01 4.74020E+01 0.00000E+00
 -1       188 2.56500E+01 4.74020E+01 0.00000E+00
 -1       189 2.86500E+01 4.74020E+01 0.00000E+00
 -1       190 3.16500E+01 4.74020E+01 0.00000E+00
 -1       191 3.46500E+01 4.74020E+01 0.00000E+00
 -1       192 3.76500E+01 4.74020E+01 0.00000E+00
 -1       193 4.06500E+01 4.74020E+01 0.00000E+00
 -1       194 4.36500E+01 4.74020E+01 0.00000E+00
 -1       195 4.66500E+01 4.74020E+01 0.00000E+00
 -1       196 4.96500E+01 4.74020E+01 0.00000E+00
 -1       197 5.26500E+01 4.74020E+01 0.00000E+00
 -1       198 5.56500E+01 4.74020E+01 0.00000E+00
 -1       199 5.86500E+01 4.74020E+01 0.00000E+00
 -1       200 6.16500E+01 4.74020E+01 0.00000E+00
 -1       201 6.46500E+01 4.74020E+01 0.00000E+00
 -1       202 6.76500E+01 4.74020E+01 0.00000E+00
 -1       203 7.06500E+01 4.74020E+01 0.00000E+00
 -1       204 7.36500E+01 4.74020E+01 0.00000E+00
 -1       205 7.66500E+01 4.74020E+01 0.00000E+00
 -1       206 7.96500E+01 4.74020E+01 0.00000E+00
 -1       207 8.26500E+01 4.74020E+01 0.00000E+00
 -1       208 8.56500E+01 4.74020E+01 0.00000E+00
 -1       209 8.86500E+01 4.74020E+01 0.00000E+00
 -1       210 9.16500E+01 4.74020E+01 0.00000E+00
 -1       211 9.46500E+01 4.74020E+01 0.00000E+00
 -1       212 9.76500E+01 4.74020E+01 0.00000E+00
 -1       213 1.00650E+02 4.74020E+01 0.00000E+00
 -1       214 1.03650E+02 4.74020E+01 0.00000E+00
 -1       215 1.06650E+02 4.74020E+01 0.00000E+00
 -1       216 1.09650E+02 4.74020E+01 0.00000E+00
 -1       217 1.12650E+02 4.74020E+01 0.00000E+00
 -1       218 1.15650E+02 4.74020E+01 0.00000E+00
 -1       219 1.18650E+02 4.74020E+01 0.00000E+00
 -1       220 1.21650E+02 4.74020E+01 0.00000E+00
 -1       221 1.24650E+02 4.74020E+01 0.00000E+00
 -1       222 1.27650E+02 4.74020E+01 0.00000E+00
 -1       223 1.30650E+02 4.74020E+01 0.00000E+00
 -1       224 1.33650E+02 4.74020E+01 0.00000E+00
 -1       225 1.36650E+02 4.74020E+01 0.00000E+00
 -1       226 1.39650E+02 4.74020E+01 0.00000E+00
 -1       227 1.42650E+02 4.74020E+01 0.00000E+00
 -1       228 1.45650E+02 4.74020E+01 0.00000E+00
 -1       229 5.28255E+00 2.02500E+00 0.00000E+00
 -1       230 7.98255E+00 2.02500E+00 0.00000E+00
 -1       231 1.08326E+01 2.02500E+00 0.00000E+00
 -1       232 1.38326E+01 2.02500E+00 0.00000E+00
 -1       233 1.68326E+01 2.02500E+00 0.00000E+00
 -1       234 1.98326E+01 2.02500E+00 0.00000E+00
 -1       235 2.28326E+01 2.02500E+00 0.00000E+00
 -1       236 2.59826E+01 2.02500E+00 0.00000E+00
 -1       237 2.89826E+01 2.02500E+00 0.00000E+00
 -1       238 3.19826E+01 2.02500E+00 0.00000E+00
 -1       239 3.49826E+01 2.02500E+00 0.00000E+00
 -1       240 3.79826E+01 2.02500E+00 0.00000E+00
 -1       241 4.09826E+01 2.02500E+00 0.00000E+00
 -1       242 4.39826E+01 2.02500E+00 0.00000E+00
 -1       243 4.69826E+01 2.02500E+00 0.00000E+00
 -1       244 4.99826E+01 2.02500E+00 0.00000E+00
 -1       245 5.29826E+01 2.02500E+00 0.00000E+00
 -1       246 5.59826E+01 2.02500E+00 0.00000E+00
 -1       247 5.89826E+01 2.02500E+00 0.00000E+00
 -1       248 6.19826E+01 2.02500E+00 0.00000E+00
 -1       249 6.49826E+01 2.02500E+00 0.00000E+00
 -1       250 6.81326E+01 2.02500E+00 0.00000E+00
 -1       251 7.11326E+01 2.02500E+00 0.00000E+00
 -1       252 7.41326E+01 2.02500E+00 0.00000E+00
 -1       253 7.71326E+01 2.02500E+00 0.00000E+00
 -1       254 8.01326E+01 2.02500E+00 0.00000E+00
 -1       255 8.31326E+01 2.02500E+00 0.00000E+00
 -1       256 8.61326E+01 2.02500E+00 0.00000E+00
 -1       257 8.91326E+01 2.02500E+00 0.00000E+00
 -1       258 9.21326E+01 2.02500E+00 0.00000E+00
 -1       259 9.51326E+01 2.02500E+00 0.00000E+00
 -1       260 9.81326E+01 2.02500E+00 0.00000E+00
 -1       261 1.01133E+02 2.02500E+00 0.00000E+00
 -1       262 1.04133E+02 2.02500E+00 0.00000E+00
 -1       263 1.07133E+02 2.02500E+00 0.00000E+00
 -1       264 1.10283E+02 2.02500E+00 0.00000E+00
 -1       265 1.13283E+02 2.02500E+00 0.00000E+00
 -1       266 1.16283E+02 2.02500E+00 0.00000E+00
 -1       267 1.19283E+02 2.02500E+00 0.00000E+00
 -1       268 1.22283E+02 2.02500E+00 0.00000E+00
 -1       269 1.25283E+02 2.02500E+00 0.00000E+00
 -1       270 1.28283E+02 2.02500E+00 0.00000E+00
 -1       271 1.31283E+02 2.02500E+00 0.00000E+00
 -1       272 1.34283E+02 2.02500E+00 0.00000E+00
 -1       273 1.37283E+02 2.02500E+00 0.00000E+00
 -1       274 1.40283E+02 2.02500E+00 0.00000E+00
 -1       275 1.43283E+02 2.02500E+00 0.00000E+00
 -1       276 1.46283E+02 2.02500E+00 0.00000E+00
 -1       277 1.47402E+02 4.42500E+00 0.00000E+00
 -1       278 1.47402E+02 7.37500E+00 0.00000E+00
 -1       279 1.47402E+02 1.03250E+01 0.00000E+00
 -1       280 1.47402E+02 1.32750E+01 0.00000E+00
 -1       281 1.47402E+02 1.61750E+01 0.00000E+00
 -1       282 1.47402E+02 1.91250E+01 0.00000E+00
 -1       283 1.47402E+02 2.20750E+01 0.00000E+00
 -1       284 1.47402E+02 2.50250E+01 0.00000E+00
 -1       285 1.47402E+02 2.79750E+01 0.00000E+00
 -1       286 1.47402E+02 3.09250E+01 0.00000E+00
 -1       287 1.47402E+02 3.38250E+01 0.00000E+00
 -1       288 1.47402E+02 3.67750E+01 0.00000E+00
 -1       289 1.47402E+02 3.97250E+01 0.00000E+00
 -1       290 1.47402E+02 4.26750E+01 0.00000E+00
 -1       291 1.46526E+02 4.50385E+01 0.00000E+00
 -1       292 2.13058E+01 1.60067E+01 0.00000E+00
 -1       293 2.07150E+01 1.42021E+01 0.00000E+00
 -1       294 2.00272E+01 1.24578E+01 0.00000E+00
 -1       295 1.86808E+01 1.11845E+01 0.00000E+00
 -1       296 1.73505E+01 1.01254E+01 0.00000E+00
 -1       297 1.58254E+01 9.36418E+00 0.00000E+00
 -1       298 1.41368E+01 8.84834E+00 0.00000E+00
 -1       299 1.22008E+01 8.64011E+00 0.00000E+00
 -1       300 1.03227E+01 9.28616E+00 0.00000E+00
 -1       301 8.50198E+00 9.97742E+00 0.00000E+00
 -1       302 6.84772E+00 1.11036E+01 0.00000E+00
 -1       303 5.89683E+00 1.27312E+01 0.00000E+00
 -1       304 4.88785E+00 1.43393E+01 0.00000E+00
 -1       305 4.81855E+00 1.61997E+01 0.00000E+00
 -1       306 4.67020E+00 1.79584E+01 0.00000E+00
 -1       307 5.22558E+00 1.96752E+01 0.00000E+00
 -1       308 5.80146E+00 2.14526E+01 0.00000E+00
 -1       309 7.07637E+00 2.28158E+01 0.00000E+00
 -1       310 8.47989E+00 2.38567E+01 0.00000E+00
 -1       311 1.00060E+01 2.47282E+01 0.00000E+00
 -1       312 1.17169E+01 2.51800E+01 0.00000E+00
 -1       313 1.35418E+01 2.53305E+01 0.00000E+00
 -1       314 1.52813E+01 2.48531E+01 0.00000E+00
 -1       315 1.69432E+01 2.42409E+01 0.00000E+00
 -1       316 1.82910E+01 2.32173E+01 0.00000E+00
 -1       317 1.93540E+01 2.21140E+01 0.00000E+00
 -1       318 2.01886E+01 2.08376E+01 0.00000E+00
 -1       319 2.07756E+01 1.94128E+01 0.00000E+00
 -1       320 2.11720E+01 1.78498E+01 0.00000E+00
 -1       321 2.21781E+00 1.91250E+01 0.00000E+00
 -1       322 3.38220E+00 4.66086E+01 0.00000E+00
 -1       323 5.19600E+00 4.08500E+01 0.00000E+00
 -1       324 5.19600E+00 4.39000E+01 0.00000E+00
 -1       325 5.19600E+00 3.47500E+01 0.00000E+00
 -1       326 5.19600E+00 3.17000E+01 0.00000E+00
 -1       327 5.19600E+00 2.89000E+01 0.00000E+00
 -1       328 4.64824E+00 2.32500E+01 0.00000E+00
 -1       329 3.43021E+00 1.33500E+01 0.00000E+00
 -1       330 1.89274E+01 9.50982E+00 0.00000E+00
 -1       331 3.76535E+00 8.45000E+00 0.00000E+00
 -1       332 3.93292E+00 5.57500E+00 0.00000E+00
 -1       333 4.60774E+00 3.80000E+00 0.00000E+00
 -1       334 7.30774E+00 3.80000E+00 0.00000E+00
 -1       335 9.15000E+00 4.48040E+01 0.00000E+00
 -1       336 1.21500E+01 4.48040E+01 0.00000E+00
 -1       337 1.51500E+01 4.48040E+01 0.00000E+00
 -1       338 1.81500E+01 4.48040E+01 0.00000E+00
 -1       339 2.11500E+01 4.48040E+01 0.00000E+00
 -1       340 2.41500E+01 4.48040E+01 0.00000E+00
 -1       341 2.71500E+01 4.48040E+01 0.00000E+00
 -1       342 3.01500E+01 4.48040E+01 0.00000E+00
 -1       343 3.31500E+01 4.48040E+01 0.00000E+00
 -1       344 3.61500E+01 4.48040E+01 0.00000E+00
 -1       345 3.91500E+01 4.48040E+01 0.00000E+00
 -1       346 4.21500E+01 4.48040E+01 0.00000E+00
 -1       347 4.51500E+01 4.48040E+01 0.00000E+00
 -1       348 4.81500E+01 4.48040E+01 0.00000E+00
 -1       349 5.11500E+01 4.48040E+01 0.00000E+00
 -1       350 5.41500E+01 4.48040E+01 0.00000E+00
 -1       351 5.71500E+01 4.48040E+01 0.00000E+00
 -1       352 6.01500E+01 4.48040E+01 0.00000E+00
 -1       353 6.31500E+01 4.48040E+01 0.00000E+00
 -1       354 6.61500E+01 4.48040E+01 0.00000E+00
 -1       355 6.91500E+01 4.48040E+01 0.00000E+00
 -1       356 7.21500E+01 4.48040E+01 0.00000E+00
 -1       357 7.51500E+01 4.48040E+01 0.00000E+00
 -1       358 7.81500E+01 4.48040E+01 0.00000E+00
 -1       359 8.11500E+01 4.48040E+01 0.00000E+00
 -1       360 8.41500E+01 4.48040E+01 0.00000E+00
 -1       361 8.71500E+01 4.48040E+01 0.00000E+00
 -1       362 9.01500E+01 4.48040E+01 0.00000E+00
 -1       363 9.31500E+01 4.48040E+01 0.00000E+00
 -1       364 9.61500E+01 4.48040E+01 0.00000E+00
 -1       365 9.91500E+01 4.48040E+01 0.00000E+00
 -1       366 1.02150E+02 4.48040E+01 0.00000E+00
 -1       367 1.05150E+02 4.48040E+01 0.00000E+00
 -1       368 1.08150E+02 4.48040E+01 0.00000E+00
 -1       369 1.11150E+02 4.48040E+01 0.00000E+00
 -1       370 1.14150E+02 4.48040E+01 0.00000E+00
 -1       371 1.17150E+02 4.48040E+01 0.00000E+00
 -1       372 1.20150E+02 4.48040E+01 0.00000E+00
 -1       373 1.23150E+02 4.48040E+01 0.00000E+00
 -1       374 1.26150E+02 4.48040E+01 0.00000E+00
 -1       375 1.29150E+02 4.48040E+01 0.00000E+00
 -1       376 1.32150E+02 4.48040E+01 0.00000E+00
 -1       377 1.35150E+02 4.48040E+01 0.00000E+00
 -1       378 1.38150E+02 4.48040E+01 0.00000E+00
 -1       379 1.41150E+02 4.48040E+01 0.00000E+00
 -1       380 1.43838E+02 4.49212E+01 0.00000E+00
 -1       381 1.01577E+01 3.80000E+00 0.00000E+00
 -1       382 1.31577E+01 3.80000E+00 0.00000E+00
 -1       383 1.61577E+01 3.80000E+00 0.00000E+00
 -1       384 1.91577E+01 3.80000E+00 0.00000E+00
 -1       385 2.21577E+01 3.80000E+00 0.00000E+00
 -1       386 2.53077E+01 3.80000E+00 0.00000E+00
 -1       387 2.83077E+01 3.80000E+00 0.00000E+00
 -1       388 3.13077E+01 3.80000E+00 0.00000E+00
 -1       389 3.43077E+01 3.80000E+00 0.00000E+00
 -1       390 3.73077E+01 3.80000E+00 0.00000E+00
 -1       391 4.03077E+01 3.80000E+00 0.00000E+00
 -1       392 4.33077E+01 3.80000E+00 0.00000E+00
 -1       393 4.63077E+01 3.80000E+00 0.00000E+00
 -1       394 4.93077E+01 3.80000E+00 0.00000E+00
 -1       395 5.23077E+01 3.80000E+00 0.00000E+00
 -1       396 5.53077E+01 3.80000E+00 0.00000E+00
 -1       397 5.83077E+01 3.80000E+00 0.00000E+00
 -1       398 6.13077E+01 3.80000E+00 0.00000E+00
 -1       399 6.43077E+01 3.80000E+00 0.00000E+00
 -1       400 6.74577E+01 3.80000E+00 0.00000E+00
 -1       401 7.04577E+01 3.80000E+00 0.00000E+00
 -1       402 7.34577E+01 3.80000E+00 0.00000E+00
 -1       403 7.64577E+01 3.80000E+00 0.00000E+00
 -1       404 7.94577E+01 3.80000E+00 0.00000E+00
 -1       405 8.24577E+01 3.80000E+00 0.00000E+00
 -1       406 8.54577E+01 3.80000E+00 0.00000E+00
 -1       407 8.84577E+01 3.80000E+00 0.00000E+00
 -1       408 9.14577E+01 3.80000E+00 0.00000E+00
 -1       409 9.44577E+01 3.80000E+00 0.00000E+00
 -1       410 9.74577E+01 3.80000E+00 0.00000E+00
 -1       411 1.00458E+02 3.80000E+00 0.00000E+00
 -1       412 1.03458E+02 3.80000E+00 0.00000E+00
 -1       413 1.06458E+02 3.80000E+00 0.00000E+00
 -1       414 1.09608E+02 3.80000E+00 0.00000E+00
 -1       415 1.12608E+02 3.80000E+00 0.00000E+00
 -1       416 1.15608E+02 3.80000E+00 0.00000E+00
 -1       417 1.18608E+02 3.80000E+00 0.00000E+00
 -1       418 1.21608E+02 3.80000E+00 0.00000E+00
 -1       419 1.24608E+02 3.80000E+00 0.00000E+00
 -1       420 1.27608E+02 3.80000E+00 0.00000E+00
 -1       421 1.30608E+02 3.80000E+00 0.00000E+00
 -1       422 1.33608E+02 3.80000E+00 0.00000E+00
 -1       423 1.36608E+02 3.80000E+00 0.00000E+00
 -1       424 1.39608E+02 3.80000E+00 0.00000E+00
 -1       425 1.42608E+02 3.80000E+00 0.00000E+00
 -1       426 1.44804E+02 1.18000E+01 0.00000E+00
 -1       427 1.44804E+02 8.85000E+00 0.00000E+00
 -1       428 2.22422E+01 1.47011E+01 0.00000E+00
 -1       429 1.44804E+02 5.90000E+00 0.00000E+00
 -1       430 1.44804E+02 1.47000E+01 0.00000E+00
 -1       431 1.44804E+02 1.76500E+01 0.00000E+00
 -1       432 1.44804E+02 2.06000E+01 0.00000E+00
 -1       433 1.44804E+02 2.35500E+01 0.00000E+00
 -1       434 1.44804E+02 2.65000E+01 0.00000E+00
 -1       435 1.44804E+02 2.94500E+01 0.00000E+00
 -1       436 1.44804E+02 3.23500E+01 0.00000E+00
 -1       437 1.44804E+02 3.53000E+01 0.00000E+00
 -1       438 1.44804E+02 3.82500E+01 0.00000E+00
 -1       439 1.44804E+02 4.12000E+01 0.00000E+00
 -1       440 2.18108E+01 1.27623E+01 0.00000E+00
 -1       441 2.26988E+01 1.70343E+01 0.00000E+00
 -1       442 2.02738E+01 1.07831E+01 0.00000E+00
 -1       443 5.19600E+00 3.78000E+01 0.00000E+00
 -1       444 3.76535E+00 1.08500E+01 0.00000E+00
 -1       445 1.53598E+01 7.86664E+00 0.00000E+00
 -1       446 1.33253E+01 7.28887E+00 0.00000E+00
 -1       447 1.07311E+01 7.42052E+00 0.00000E+00
 -1       448 8.91040E+00 8.11179E+00 0.00000E+00
 -1       449 6.85114E+00 9.33050E+00 0.00000E+00
 -1       450 5.25310E+00 1.12635E+01 0.00000E+00
 -1       451 4.29438E+00 1.28463E+01 0.00000E+00
 -1       452 3.39045E+00 1.52150E+01 0.00000E+00
 -1       453 3.55520E+00 1.92673E+01 0.00000E+00
 -1       454 5.49224E+00 2.30196E+01 0.00000E+00
 -1       455 6.95608E+00 2.44446E+01 0.00000E+00
 -1       456 8.39235E+00 2.57818E+01 0.00000E+00
 -1       457 1.04877E+01 2.63693E+01 0.00000E+00
 -1       458 1.24745E+01 2.71316E+01 0.00000E+00
 -1       459 1.48212E+01 2.65841E+01 0.00000E+00
 -1       460 1.64831E+01 2.59719E+01 0.00000E+00
 -1       461 1.84517E+01 2.48281E+01 0.00000E+00
 -1       462 1.98163E+01 2.36231E+01 0.00000E+00
 -1       463 2.10665E+01 2.23227E+01 0.00000E+00
 -1       464 2.17580E+01 2.06509E+01 0.00000E+00
 -1       465 2.22302E+01 1.89500E+01 0.00000E+00
 -1       466 1.72042E+01 8.51006E+00 0.00000E+00
 -1       467 4.64825E+00 2.60000E+01 0.00000E+00
 -1       468 2.36352E+01 1.57287E+01 0.00000E+00
 -1       469 1.44783E+02 4.62300E+00 0.00000E+00
 -1       470 3.51818E+00 1.76624E+01 0.00000E+00
 -1       471 2.20573E+01 1.10876E+01 0.00000E+00
 -1       472 3.88192E+00 2.10926E+01 0.00000E+00
 -1       473 7.58139E+00 3.03000E+01 0.00000E+00
 -1       474 7.58139E+00 3.33500E+01 0.00000E+00
 -1       475 7.79400E+00 3.93250E+01 0.00000E+00
 -1       476 9.15000E+00 4.17540E+01 0.00000E+00
 -1       477 5.72863E+00 7.12205E+00 0.00000E+00
 -1       478 6.51818E+00 5.46102E+00 0.00000E+00
 -1       479 1.36500E+01 4.22060E+01 0.00000E+00
 -1       480 1.66500E+01 4.22060E+01 0.00000E+00
 -1       481 1.96500E+01 4.22060E+01 0.00000E+00
 -1       482 2.26500E+01 4.22060E+01 0.00000E+00
 -1       483 2.56500E+01 4.22060E+01 0.00000E+00
 -1       484 2.86500E+01 4.22060E+01 0.00000E+00
 -1       485 3.16500E+01 4.22060E+01 0.00000E+00
 -1       486 3.46500E+01 4.22060E+01 0.00000E+00
 -1       487 3.76500E+01 4.22060E+01 0.00000E+00
 -1       488 4.06500E+01 4.22060E+01 0.00000E+00
 -1       489 4.36500E+01 4.22060E+01 0.00000E+00
 -1       490 4.66500E+01 4.22060E+01 0.00000E+00
 -1       491 4.96500E+01 4.22060E+01 0.00000E+00
 -1       492 5.26500E+01 4.22060E+01 0.00000E+00
 -1       493 5.56500E+01 4.22060E+01 0.00000E+00
 -1       494 5.86500E+01 4.22060E+01 0.00000E+00
 -1       495 6.16500E+01 4.22060E+01 0.00000E+00
 -1       496 6.46500E+01 4.22060E+01 0.00000E+00
 -1       497 6.76500E+01 4.22060E+01 0.00000E+00
 -1       498 7.06500E+01 4.22060E+01 0.00000E+00
 -1       499 7.36500E+01 4.22060E+01 0.00000E+00
 -1       500 7.66500E+01 4.22060E+01 0.00000E+00
 -1       501 7.96500E+01 4.22060E+01 0.00000E+00
 -1       502 8.26500E+01 4.22060E+01 0.00000E+00
 -1       503 8.56500E+01 4.22060E+01 0.00000E+00
 -1       504 8.86500E+01 4.22060E+01 0.00000E+00
 -1       505 9.16500E+01 4.22060E+01 0.00000E+00
 -1       506 9.46500E+01 4.22060E+01 0.00000E+00
 -1       507 9.76500E+01 4.22060E+01 0.00000E+00
 -1       508 1.00650E+02 4.22060E+01 0.00000E+00
 -1       509 1.03650E+02 4.22060E+01 0.00000E+00
 -1       510 1.06650E+02 4.22060E+01 0.00000E+00
 -1       511 1.09650E+02 4.22060E+01 0.00000E+00
 -1       512 1.12650E+02 4.22060E+01 0.00000E+00
 -1       513 1.15650E+02 4.22060E+01 0.00000E+00
 -1       514 1.18650E+02 4.22060E+01 0.00000E+00
 -1       515 1.21650E+02 4.22060E+01 0.00000E+00
 -1       516 1.24650E+02 4.22060E+01 0.00000E+00
 -1       517 1.27650E+02 4.22060E+01 0.00000E+00
 -1       518 1.30650E+02 4.22060E+01 0.00000E+00
 -1       519 1.33650E+02 4.22060E+01 0.00000E+00
 -1       520 1.36650E+02 4.22060E+01 0.00000E+00
 -1       521 1.39650E+02 4.22060E+01 0.00000E+00
 -1       522 1.42206E+02 1.03250E+01 0.00000E+00
 -1       523 1.76577E+01 5.68268E+00 0.00000E+00
 -1       524 2.06577E+01 6.01782E+00 0.00000E+00
 -1       525 2.37327E+01 6.35296E+00 0.00000E+00
 -1       526 2.67327E+01 6.35296E+00 0.00000E+00
 -1       527 2.97327E+01 6.35296E+00 0.00000E+00
 -1       528 3.27327E+01 6.35296E+00 0.00000E+00
 -1       529 3.57327E+01 6.35296E+00 0.00000E+00
 -1       530 3.87327E+01 6.35296E+00 0.00000E+00
 -1       531 4.17327E+01 6.35296E+00 0.00000E+00
 -1       532 4.47327E+01 6.35296E+00 0.00000E+00
 -1       533 4.77327E+01 6.35296E+00 0.00000E+00
 -1       534 5.07327E+01 6.35296E+00 0.00000E+00
 -1       535 5.37327E+01 6.35296E+00 0.00000E+00
 -1       536 5.67327E+01 6.35296E+00 0.00000E+00
 -1       537 5.97327E+01 6.35296E+00 0.00000E+00
 -1       538 6.27327E+01 6.35296E+00 0.00000E+00
 -1       539 6.58827E+01 6.35296E+00 0.00000E+00
 -1       540 6.88827E+01 6.35296E+00 0.00000E+00
 -1       541 7.18827E+01 6.35296E+00 0.00000E+00
 -1       542 7.48827E+01 6.35296E+00 0.00000E+00
 -1       543 7.78827E+01 6.35296E+00 0.00000E+00
 -1       544 8.08827E+01 6.35296E+00 0.00000E+00
 -1       545 8.38827E+01 6.35296E+00 0.00000E+00
 -1       546 8.68827E+01 6.35296E+00 0.00000E+00
 -1       547 8.98827E+01 6.35296E+00 0.00000E+00
 -1       548 9.28827E+01 6.35296E+00 0.00000E+00
 -1       549 9.58827E+01 6.35296E+00 0.00000E+00
 -1       550 9.88827E+01 6.35296E+00 0.00000E+00
 -1       551 1.01883E+02 6.35296E+00 0.00000E+00
 -1       552 1.04883E+02 6.35296E+00 0.00000E+00
 -1       553 1.08033E+02 6.35296E+00 0.00000E+00
 -1       554 1.11033E+02 6.35296E+00 0.00000E+00
 -1       555 1.14033E+02 6.35296E+00 0.00000E+00
 -1       556 1.17033E+02 6.35296E+00 0.00000E+00
 -1       557 1.20033E+02 6.35296E+00 0.00000E+00
 -1       558 1.23033E+02 6.35296E+00 0.00000E+00
 -1       559 1.26033E+02 6.35296E+00 0.00000E+00
 -1       560 1.29033E+02 6.35296E+00 0.00000E+00
 -1       561 1.32033E+02 6.35296E+00 0.00000E+00
 -1       562 1.35033E+02 6.35296E+00 0.00000E+00
 -1       563 1.38033E+02 6.35296E+00 0.00000E+00
 -1       564 1.41033E+02 6.35296E+00 0.00000E+00
 -1       565 1.88845E+01 7.59891E+00 0.00000E+00
 -1       566 1.42206E+02 1.61750E+01 0.00000E+00
 -1       567 1.42206E+02 1.32500E+01 0.00000E+00
 -1       568 1.42206E+02 1.91250E+01 0.00000E+00
 -1       569 1.42206E+02 2.20750E+01 0.00000E+00
 -1       570 1.42206E+02 2.50250E+01 0.00000E+00
 -1       571 1.42206E+02 2.79750E+01 0.00000E+00
 -1       572 1.42206E+02 3.08750E+01 0.00000E+00
 -1       573 1.42206E+02 3.38250E+01 0.00000E+00
 -1       574 1.42206E+02 3.67750E+01 0.00000E+00
 -1       575 1.42206E+02 3.97250E+01 0.00000E+00
 -1       576 1.46577E+01 6.01782E+00 0.00000E+00
 -1       577 2.36467E+01 2.02592E+01 0.00000E+00
 -1       578 2.41153E+01 1.83435E+01 0.00000E+00
 -1       579 7.68770E+00 3.63375E+01 0.00000E+00
 -1       580 1.40756E+01 2.86913E+01 0.00000E+00
 -1       581 2.34553E+01 1.34137E+01 0.00000E+00
 -1       582 1.19413E+01 5.64179E+00 0.00000E+00
 -1       583 2.06639E+01 9.02203E+00 0.00000E+00
 -1       584 4.85939E+00 9.31098E+00 0.00000E+00
 -1       585 9.24169E+00 6.24106E+00 0.00000E+00
 -1       586 7.09259E+00 7.38936E+00 0.00000E+00
 -1       587 2.02692E+01 2.55112E+01 0.00000E+00
 -1       588 6.50553E+00 2.63685E+01 0.00000E+00
 -1       589 8.97698E+00 2.77270E+01 0.00000E+00
 -1       590 1.09638E+01 2.84892E+01 0.00000E+00
 -1       591 1.62450E+01 2.78874E+01 0.00000E+00
 -1       592 1.82449E+01 2.67381E+01 0.00000E+00
 -1       593 2.15194E+01 2.42109E+01 0.00000E+00
 -1       594 2.27648E+01 2.20463E+01 0.00000E+00
 -1       595 1.67641E+01 6.80628E+00 0.00000E+00
 -1       596 1.25648E+01 3.00489E+01 0.00000E+00
 -1       597 2.50517E+01 1.70379E+01 0.00000E+00
 -1       598 1.41678E+02 4.22645E+01 0.00000E+00
 -1       599 2.37019E+01 1.17390E+01 0.00000E+00
 -1       600 3.12327E+01 8.95096E+00 0.00000E+00
 -1       601 2.82327E+01 8.95096E+00 0.00000E+00
 -1       602 1.51500E+01 3.96080E+01 0.00000E+00
 -1       603 9.79922E+00 3.18250E+01 0.00000E+00
 -1       604 1.82665E+01 2.90903E+01 0.00000E+00
 -1       605 1.39206E+02 1.03250E+01 0.00000E+00
 -1       606 2.50882E+01 1.44513E+01 0.00000E+00
 -1       607 1.81500E+01 3.96080E+01 0.00000E+00
 -1       608 2.11500E+01 3.96080E+01 0.00000E+00
 -1       609 2.41500E+01 3.96080E+01 0.00000E+00
 -1       610 2.71500E+01 3.96080E+01 0.00000E+00
 -1       611 3.01500E+01 3.96080E+01 0.00000E+00
 -1       612 3.31500E+01 3.96080E+01 0.00000E+00
 -1       613 3.61500E+01 3.96080E+01 0.00000E+00
 -1       614 3.91500E+01 3.96080E+01 0.00000E+00
 -1       615 4.21500E+01 3.96080E+01 0.00000E+00
 -1       616 4.51500E+01 3.96080E+01 0.00000E+00
 -1       617 4.81500E+01 3.96080E+01 0.00000E+00
 -1       618 5.11500E+01 3.96080E+01 0.00000E+00
 -1       619 5.41500E+01 3.96080E+01 0.00000E+00
 -1       620 5.71500E+01 3.96080E+01 0.00000E+00
 -1       621 6.01500E+01 3.96080E+01 0.00000E+00
 -1       622 6.31500E+01 3.96080E+01 0.00000E+00
 -1       623 6.61500E+01 3.96080E+01 0.00000E+00
 -1       624 6.91500E+01 3.96080E+01 0.00000E+00
 -1       625 7.21500E+01 3.96080E+01 0.00000E+00
 -1       626 7.51500E+01 3.96080E+01 0.00000E+00
 -1       627 7.81500E+01 3.96080E+01 0.00000E+00
 -1       628 8.11500E+01 3.96080E+01 0.00000E+00
 -1       629 8.41500E+01 3.96080E+01 0.00000E+00
 -1       630 8.71500E+01 3.96080E+01 0.00000E+00
 -1       631 9.01500E+01 3.96080E+01 0.00000E+00
 -1       632 9.31500E+01 3.96080E+01 0.00000E+00
 -1       633 9.61500E+01 3.96080E+01 0.00000E+00
 -1       634 9.91500E+01 3.96080E+01 0.00000E+00
 -1       635 1.02150E+02 3.96080E+01 0.00000E+00
 -1       636 1.05150E+02 3.96080E+01 0.00000E+00
 -1       637 1.08150E+02 3.96080E+01 0.00000E+00
 -1       638 1.11150E+02 3.96080E+01 0.00000E+00
 -1       639 1.14150E+02 3.96080E+01 0.00000E+00
 -1       640 1.17150E+02 3.96080E+01 0.00000E+00
 -1       641 1.20150E+02 3.96080E+01 0.00000E+00
 -1       642 1.23150E+02 3.96080E+01 0.00000E+00
 -1       643 1.26150E+02 3.96080E+01 0.00000E+00
 -1       644 1.29150E+02 3.96080E+01 0.00000E+00
 -1       645 1.32150E+02 3.96080E+01 0.00000E+00
 -1       646 1.35150E+02 3.96080E+01 0.00000E+00
 -1       647 1.38150E+02 3.96080E+01 0.00000E+00
 -1       648 1.39608E+02 2.35500E+01 0.00000E+00
 -1       649 2.27824E+01 9.09563E+00 0.00000E+00
 -1       650 1.16596E+01 3.93950E+01 0.00000E+00
 -1       651 2.55076E+01 9.02330E+00 0.00000E+00
 -1       652 3.42327E+01 8.95096E+00 0.00000E+00
 -1       653 3.72327E+01 8.95096E+00 0.00000E+00
 -1       654 4.02327E+01 8.95096E+00 0.00000E+00
 -1       655 4.32327E+01 8.95096E+00 0.00000E+00
 -1       656 4.62327E+01 8.95096E+00 0.00000E+00
 -1       657 4.92327E+01 8.95096E+00 0.00000E+00
 -1       658 5.22327E+01 8.95096E+00 0.00000E+00
 -1       659 5.52327E+01 8.95096E+00 0.00000E+00
 -1       660 5.82327E+01 8.95096E+00 0.00000E+00
 -1       661 6.12327E+01 8.95096E+00 0.00000E+00
 -1       662 6.43827E+01 8.95096E+00 0.00000E+00
 -1       663 6.73827E+01 8.95096E+00 0.00000E+00
 -1       664 7.03827E+01 8.95096E+00 0.00000E+00
 -1       665 7.33827E+01 8.95096E+00 0.00000E+00
 -1       666 7.63827E+01 8.95096E+00 0.00000E+00
 -1       667 7.93827E+01 8.95096E+00 0.00000E+00
 -1       668 8.23827E+01 8.95096E+00 0.00000E+00
 -1       669 8.53827E+01 8.95096E+00 0.00000E+00
 -1       670 8.83827E+01 8.95096E+00 0.00000E+00
 -1       671 9.13827E+01 8.95096E+00 0.00000E+00
 -1       672 9.43827E+01 8.95096E+00 0.00000E+00
 -1       673 9.73827E+01 8.95096E+00 0.00000E+00
 -1       674 1.00383E+02 8.95096E+00 0.00000E+00
 -1       675 1.03383E+02 8.95096E+00 0.00000E+00
 -1       676 1.06533E+02 8.95096E+00 0.00000E+00
 -1       677 1.09533E+02 8.95096E+00 0.00000E+00
 -1       678 1.12533E+02 8.95096E+00 0.00000E+00
 -1       679 1.15533E+02 8.95096E+00 0.00000E+00
 -1       680 1.18533E+02 8.95096E+00 0.00000E+00
 -1       681 1.21533E+02 8.95096E+00 0.00000E+00
 -1       682 1.24533E+02 8.95096E+00 0.00000E+00
 -1       683 1.27533E+02 8.95096E+00 0.00000E+00
 -1       684 1.30533E+02 8.95096E+00 0.00000E+00
 -1       685 1.33533E+02 8.95096E+00 0.00000E+00
 -1       686 1.36369E+02 9.63798E+00 0.00000E+00
 -1       687 2.02909E+01 2.78635E+01 0.00000E+00
 -1       688 1.39608E+02 1.76500E+01 0.00000E+00
 -1       689 1.39608E+02 2.65000E+01 0.00000E+00
 -1       690 1.39608E+02 2.94000E+01 0.00000E+00
 -1       691 1.39608E+02 3.23500E+01 0.00000E+00
 -1       692 1.39608E+02 3.53000E+01 0.00000E+00
 -1       693 2.55470E+01 1.97089E+01 0.00000E+00
 -1       694 2.45935E+01 2.18376E+01 0.00000E+00
 -1       695 1.59309E+01 3.03690E+01 0.00000E+00
 -1       696 2.35561E+01 2.39421E+01 0.00000E+00
 -1       697 1.03815E+01 3.01571E+01 0.00000E+00
 -1       698 1.40178E+02 3.96665E+01 0.00000E+00
 -1       699 5.20312E+00 2.47809E+01 0.00000E+00
 -1       700 2.23723E+01 2.62820E+01 0.00000E+00
 -1       701 1.39608E+02 2.06000E+01 0.00000E+00
 -1       702 9.90552E+00 3.48125E+01 0.00000E+00
 -1       703 2.53347E+01 1.27765E+01 0.00000E+00
 -1       704 2.64834E+01 1.84033E+01 0.00000E+00
 -1       705 1.39608E+02 1.47250E+01 0.00000E+00
 -1       706 1.07826E+01 3.71038E+01 0.00000E+00
 -1       707 1.44201E+01 3.17266E+01 0.00000E+00
 -1       708 1.38879E+02 3.74540E+01 0.00000E+00
 -1       709 3.57327E+01 1.15490E+01 0.00000E+00
 -1       710 3.27327E+01 1.15490E+01 0.00000E+00
 -1       711 2.02545E+01 3.00870E+01 0.00000E+00
 -1       712 1.96500E+01 3.70100E+01 0.00000E+00
 -1       713 2.26500E+01 3.70100E+01 0.00000E+00
 -1       714 2.56500E+01 3.70100E+01 0.00000E+00
 -1       715 2.86500E+01 3.70100E+01 0.00000E+00
 -1       716 3.16500E+01 3.70100E+01 0.00000E+00
 -1       717 3.46500E+01 3.70100E+01 0.00000E+00
 -1       718 3.76500E+01 3.70100E+01 0.00000E+00
 -1       719 4.06500E+01 3.70100E+01 0.00000E+00
 -1       720 4.36500E+01 3.70100E+01 0.00000E+00
 -1       721 4.66500E+01 3.70100E+01 0.00000E+00
 -1       722 4.96500E+01 3.70100E+01 0.00000E+00
 -1       723 5.26500E+01 3.70100E+01 0.00000E+00
 -1       724 5.56500E+01 3.70100E+01 0.00000E+00
 -1       725 5.86500E+01 3.70100E+01 0.00000E+00
 -1       726 6.16500E+01 3.70100E+01 0.00000E+00
 -1       727 6.46500E+01 3.70100E+01 0.00000E+00
 -1       728 6.76500E+01 3.70100E+01 0.00000E+00
 -1       729 7.06500E+01 3.70100E+01 0.00000E+00
 -1       730 7.36500E+01 3.70100E+01 0.00000E+00
 -1       731 7.66500E+01 3.70100E+01 0.00000E+00
 -1       732 7.96500E+01 3.70100E+01 0.00000E+00
 -1       733 8.26500E+01 3.70100E+01 0.00000E+00
 -1       734 8.56500E+01 3.70100E+01 0.00000E+00
 -1       735 8.86500E+01 3.70100E+01 0.00000E+00
 -1       736 9.16500E+01 3.70100E+01 0.00000E+00
 -1       737 9.46500E+01 3.70100E+01 0.00000E+00
 -1       738 9.76500E+01 3.70100E+01 0.00000E+00
 -1       739 1.00650E+02 3.70100E+01 0.00000E+00
 -1       740 1.03650E+02 3.70100E+01 0.00000E+00
 -1       741 1.06650E+02 3.70100E+01 0.00000E+00
 -1       742 1.09650E+02 3.70100E+01 0.00000E+00
 -1       743 1.12650E+02 3.70100E+01 0.00000E+00
 -1       744 1.15650E+02 3.70100E+01 0.00000E+00
 -1       745 1.18650E+02 3.70100E+01 0.00000E+00
 -1       746 1.21650E+02 3.70100E+01 0.00000E+00
 -1       747 1.24650E+02 3.70100E+01 0.00000E+00
 -1       748 1.27650E+02 3.70100E+01 0.00000E+00
 -1       749 1.30650E+02 3.70100E+01 0.00000E+00
 -1       750 1.33650E+02 3.70100E+01 0.00000E+00
 -1       751 1.36264E+02 3.72320E+01 0.00000E+00
 -1       752 1.37010E+02 2.79500E+01 0.00000E+00
 -1       753 3.87327E+01 1.15490E+01 0.00000E+00
 -1       754 4.17327E+01 1.15490E+01 0.00000E+00
 -1       755 4.47327E+01 1.15490E+01 0.00000E+00
 -1       756 4.77327E+01 1.15490E+01 0.00000E+00
 -1       757 5.07327E+01 1.15490E+01 0.00000E+00
 -1       758 5.37327E+01 1.15490E+01 0.00000E+00
 -1       759 5.67327E+01 1.15490E+01 0.00000E+00
 -1       760 5.97327E+01 1.15490E+01 0.00000E+00
 -1       761 6.28827E+01 1.15490E+01 0.00000E+00
 -1       762 6.58827E+01 1.15490E+01 0.00000E+00
 -1       763 6.88827E+01 1.15490E+01 0.00000E+00
 -1       764 7.18827E+01 1.15490E+01 0.00000E+00
 -1       765 7.48827E+01 1.15490E+01 0.00000E+00
 -1       766 7.78827E+01 1.15490E+01 0.00000E+00
 -1       767 8.08827E+01 1.15490E+01 0.00000E+00
 -1       768 8.38827E+01 1.15490E+01 0.00000E+00
 -1       769 8.68827E+01 1.15490E+01 0.00000E+00
 -1       770 8.98827E+01 1.15490E+01 0.00000E+00
 -1       771 9.28827E+01 1.15490E+01 0.00000E+00
 -1       772 9.58827E+01 1.15490E+01 0.00000E+00
 -1       773 9.88827E+01 1.15490E+01 0.00000E+00
 -1       774 1.01883E+02 1.15490E+01 0.00000E+00
 -1       775 1.05033E+02 1.15490E+01 0.00000E+00
 -1       776 1.08033E+02 1.15490E+01 0.00000E+00
 -1       777 1.11033E+02 1.15490E+01 0.00000E+00
 -1       778 1.14033E+02 1.15490E+01 0.00000E+00
 -1       779 1.17033E+02 1.15490E+01 0.00000E+00
 -1       780 1.20033E+02 1.15490E+01 0.00000E+00
 -1       781 1.23033E+02 1.15490E+01 0.00000E+00
 -1       782 1.26033E+02 1.15490E+01 0.00000E+00
 -1       783 1.29033E+02 1.15490E+01 0.00000E+00
 -1       784 1.32033E+02 1.15490E+01 0.00000E+00
 -1       785 1.37010E+02 3.09000E+01 0.00000E+00
 -1       786 1.37010E+02 2.50000E+01 0.00000E+00
 -1       787 1.37010E+02 3.38500E+01 0.00000E+00
 -1       788 2.24706E+01 2.85718E+01 0.00000E+00
 -1       789 1.42729E+01 3.73167E+01 0.00000E+00
 -1       790 1.81637E+01 3.16750E+01 0.00000E+00
 -1       791 1.19825E+01 3.17168E+01 0.00000E+00
 -1       792 2.67849E+01 1.57687E+01 0.00000E+00
 -1       793 2.56132E+01 2.36482E+01 0.00000E+00
 -1       794 1.69615E+01 3.71634E+01 0.00000E+00
 -1       795 2.65666E+01 2.15195E+01 0.00000E+00
 -1       796 2.97327E+01 1.15490E+01 0.00000E+00
 -1       797 2.46441E+01 2.59620E+01 0.00000E+00
 -1       798 2.47424E+01 2.82518E+01 0.00000E+00
 -1       799 2.75030E+01 2.02139E+01 0.00000E+00
 -1       800 1.36637E+02 3.55410E+01 0.00000E+00
 -1       801 1.34869E+02 1.22360E+01 0.00000E+00
 -1       802 1.37239E+02 1.34805E+01 0.00000E+00
 -1       803 1.37239E+02 1.64055E+01 0.00000E+00
 -1       804 1.66530E+01 3.30327E+01 0.00000E+00
 -1       805 2.70315E+01 1.40940E+01 0.00000E+00
 -1       806 1.37010E+02 2.20500E+01 0.00000E+00
 -1       807 1.37124E+02 1.92277E+01 0.00000E+00
 -1       808 1.34412E+02 3.23750E+01 0.00000E+00
 -1       809 2.41500E+01 3.44120E+01 0.00000E+00
 -1       810 2.71500E+01 3.44120E+01 0.00000E+00
 -1       811 3.01500E+01 3.44120E+01 0.00000E+00
 -1       812 3.31500E+01 3.44120E+01 0.00000E+00
 -1       813 3.61500E+01 3.44120E+01 0.00000E+00
 -1       814 3.91500E+01 3.44120E+01 0.00000E+00
 -1       815 4.21500E+01 3.44120E+01 0.00000E+00
 -1       816 4.51500E+01 3.44120E+01 0.00000E+00
 -1       817 4.81500E+01 3.44120E+01 0.00000E+00
 -1       818 5.11500E+01 3.44120E+01 0.00000E+00
 -1       819 5.41500E+01 3.44120E+01 0.00000E+00
 -1       820 5.71500E+01 3.44120E+01 0.00000E+00
 -1       821 6.01500E+01 3.44120E+01 0.00000E+00
 -1       822 6.31500E+01 3.44120E+01 0.00000E+00
 -1       823 6.61500E+01 3.44120E+01 0.00000E+00
 -1       824 6.91500E+01 3.44120E+01 0.00000E+00
 -1       825 7.21500E+01 3.44120E+01 0.00000E+00
 -1       826 7.51500E+01 3.44120E+01 0.00000E+00
 -1       827 7.81500E+01 3.44120E+01 0.00000E+00
 -1       828 8.11500E+01 3.44120E+01 0.00000E+00
 -1       829 8.41500E+01 3.44120E+01 0.00000E+00
 -1       830 8.71500E+01 3.44120E+01 0.00000E+00
 -1       831 9.01500E+01 3.44120E+01 0.00000E+00
 -1       832 9.31500E+01 3.44120E+01 0.00000E+00
 -1       833 9.61500E+01 3.44120E+01 0.00000E+00
 -1       834 9.91500E+01 3.44120E+01 0.00000E+00
 -1       835 1.02150E+02 3.44120E+01 0.00000E+00
 -1       836 1.05150E+02 3.44120E+01 0.00000E+00
 -1       837 1.08150E+02 3.44120E+01 0.00000E+00
 -1       838 1.11150E+02 3.44120E+01 0.00000E+00
 -1       839 1.14150E+02 3.44120E+01 0.00000E+00
 -1       840 1.17150E+02 3.44120E+01 0.00000E+00
 -1       841 1.20150E+02 3.44120E+01 0.00000E+00
 -1       842 1.23150E+02 3.44120E+01 0.00000E+00
 -1       843 1.26150E+02 3.44120E+01 0.00000E+00
 -1       844 1.29150E+02 3.44120E+01 0.00000E+00
 -1       845 1.32150E+02 3.44120E+01 0.00000E+00
 -1       846 2.04492E+01 3.25137E+01 0.00000E+00
 -1       847 1.33959E+01 3.50255E+01 0.00000E+00
 -1       848 4.62327E+01 1.41470E+01 0.00000E+00
 -1       849 4.92327E+01 1.41470E+01 0.00000E+00
 -1       850 5.22327E+01 1.41470E+01 0.00000E+00
 -1       851 5.52327E+01 1.41470E+01 0.00000E+00
 -1       852 5.82327E+01 1.41470E+01 0.00000E+00
 -1       853 6.13827E+01 1.41470E+01 0.00000E+00
 -1       854 6.43827E+01 1.41470E+01 0.00000E+00
 -1       855 6.73827E+01 1.41470E+01 0.00000E+00
 -1       856 7.03827E+01 1.41470E+01 0.00000E+00
 -1       857 7.33827E+01 1.41470E+01 0.00000E+00
 -1       858 7.63827E+01 1.41470E+01 0.00000E+00
 -1       859 7.93827E+01 1.41470E+01 0.00000E+00
 -1       860 8.23827E+01 1.41470E+01 0.00000E+00
 -1       861 8.53827E+01 1.41470E+01 0.00000E+00
 -1       862 8.83827E+01 1.41470E+01 0.00000E+00
 -1       863 9.13827E+01 1.41470E+01 0.00000E+00
 -1       864 9.43827E+01 1.41470E+01 0.00000E+00
 -1       865 9.73827E+01 1.41470E+01 0.00000E+00
 -1       866 1.00383E+02 1.41470E+01 0.00000E+00
 -1       867 1.03533E+02 1.41470E+01 0.00000E+00
 -1       868 1.06533E+02 1.41470E+01 0.00000E+00
 -1       869 1.09533E+02 1.41470E+01 0.00000E+00
 -1       870 1.12533E+02 1.41470E+01 0.00000E+00
 -1       871 1.15533E+02 1.41470E+01 0.00000E+00
 -1       872 1.18533E+02 1.41470E+01 0.00000E+00
 -1       873 1.21533E+02 1.41470E+01 0.00000E+00
 -1       874 1.24533E+02 1.41470E+01 0.00000E+00
 -1       875 1.27533E+02 1.41470E+01 0.00000E+00
 -1       876 1.30533E+02 1.41470E+01 0.00000E+00
 -1       877 1.34412E+02 2.94250E+01 0.00000E+00
 -1       878 1.34412E+02 2.64750E+01 0.00000E+00
 -1       879 2.78081E+01 2.33534E+01 0.00000E+00
 -1       880 3.42327E+01 1.41470E+01 0.00000E+00
 -1       881 2.68390E+01 2.56673E+01 0.00000E+00
 -1       882 3.12327E+01 1.41470E+01 0.00000E+00
 -1       883 4.32327E+01 1.41470E+01 0.00000E+00
 -1       884 2.26653E+01 3.09985E+01 0.00000E+00
 -1       885 3.72327E+01 1.41470E+01 0.00000E+00
 -1       886 4.02327E+01 1.41470E+01 0.00000E+00
 -1       887 2.88376E+01 1.73382E+01 0.00000E+00
 -1       888 1.34586E+02 1.77114E+01 0.00000E+00
 -1       889 1.34394E+02 3.49765E+01 0.00000E+00
 -1       890 1.34412E+02 2.35250E+01 0.00000E+00
 -1       891 2.87445E+01 2.20478E+01 0.00000E+00
 -1       892 2.69373E+01 2.79570E+01 0.00000E+00
 -1       893 1.33886E+02 1.38137E+01 0.00000E+00
 -1       894 2.49371E+01 3.06785E+01 0.00000E+00
 -1       895 1.34471E+02 2.05337E+01 0.00000E+00
 -1       896 1.85425E+01 3.41764E+01 0.00000E+00
 -1       897 2.86500E+01 3.18140E+01 0.00000E+00
 -1       898 3.16500E+01 3.18140E+01 0.00000E+00
 -1       899 3.46500E+01 3.18140E+01 0.00000E+00
 -1       900 3.76500E+01 3.18140E+01 0.00000E+00
 -1       901 4.06500E+01 3.18140E+01 0.00000E+00
 -1       902 4.36500E+01 3.18140E+01 0.00000E+00
 -1       903 4.66500E+01 3.18140E+01 0.00000E+00
 -1       904 4.96500E+01 3.18140E+01 0.00000E+00
 -1       905 5.26500E+01 3.18140E+01 0.00000E+00
 -1       906 5.56500E+01 3.18140E+01 0.00000E+00
 -1       907 5.86500E+01 3.18140E+01 0.00000E+00
 -1       908 6.16500E+01 3.18140E+01 0.00000E+00
 -1       909 6.46500E+01 3.18140E+01 0.00000E+00
 -1       910 6.76500E+01 3.18140E+01 0.00000E+00
 -1       911 7.06500E+01 3.18140E+01 0.00000E+00
 -1       912 7.36500E+01 3.18140E+01 0.00000E+00
 -1       913 7.66500E+01 3.18140E+01 0.00000E+00
 -1       914 7.96500E+01 3.18140E+01 0.00000E+00
 -1       915 8.26500E+01 3.18140E+01 0.00000E+00
 -1       916 8.56500E+01 3.18140E+01 0.00000E+00
 -1       917 8.86500E+01 3.18140E+01 0.00000E+00
 -1       918 9.16500E+01 3.18140E+01 0.00000E+00
 -1       919 9.46500E+01 3.18140E+01 0.00000E+00
 -1       920 9.76500E+01 3.18140E+01 0.00000E+00
 -1       921 1.00650E+02 3.18140E+01 0.00000E+00
 -1       922 1.03650E+02 3.18140E+01 0.00000E+00
 -1       923 1.06650E+02 3.18140E+01 0.00000E+00
 -1       924 1.09650E+02 3.18140E+01 0.00000E+00
 -1       925 1.12650E+02 3.18140E+01 0.00000E+00
 -1       926 1.15650E+02 3.18140E+01 0.00000E+00
 -1       927 1.18650E+02 3.18140E+01 0.00000E+00
 -1       928 1.21650E+02 3.18140E+01 0.00000E+00
 -1       929 1.24650E+02 3.18140E+01 0.00000E+00
 -1       930 1.27650E+02 3.18140E+01 0.00000E+00
 -1       931 1.30650E+02 3.18140E+01 0.00000E+00
 -1       932 5.07327E+01 1.67450E+01 0.00000E+00
 -1       933 4.77327E+01 1.67450E+01 0.00000E+00
 -1       934 5.67327E+01 1.67450E+01 0.00000E+00
 -1       935 5.98827E+01 1.67450E+01 0.00000E+00
 -1       936 6.28827E+01 1.67450E+01 0.00000E+00
 -1       937 6.58827E+01 1.67450E+01 0.00000E+00
 -1       938 6.88827E+01 1.67450E+01 0.00000E+00
 -1       939 7.18827E+01 1.67450E+01 0.00000E+00
 -1       940 7.48827E+01 1.67450E+01 0.00000E+00
 -1       941 7.78827E+01 1.67450E+01 0.00000E+00
 -1       942 8.08827E+01 1.67450E+01 0.00000E+00
 -1       943 8.38827E+01 1.67450E+01 0.00000E+00
 -1       944 8.68827E+01 1.67450E+01 0.00000E+00
 -1       945 8.98827E+01 1.67450E+01 0.00000E+00
 -1       946 9.28827E+01 1.67450E+01 0.00000E+00
 -1       947 9.58827E+01 1.67450E+01 0.00000E+00
 -1       948 9.88827E+01 1.67450E+01 0.00000E+00
 -1       949 1.02033E+02 1.67450E+01 0.00000E+00
 -1       950 1.05033E+02 1.67450E+01 0.00000E+00
 -1       951 1.08033E+02 1.67450E+01 0.00000E+00
 -1       952 1.11033E+02 1.67450E+01 0.00000E+00
 -1       953 1.14033E+02 1.67450E+01 0.00000E+00
 -1       954 1.17033E+02 1.67450E+01 0.00000E+00
 -1       955 1.20033E+02 1.67450E+01 0.00000E+00
 -1       956 1.23033E+02 1.67450E+01 0.00000E+00
 -1       957 1.26033E+02 1.67450E+01 0.00000E+00
 -1       958 1.29033E+02 1.67450E+01 0.00000E+00
 -1       959 1.31814E+02 2.79500E+01 0.00000E+00
 -1       960 3.87327E+01 1.67450E+01 0.00000E+00
 -1       961 3.27327E+01 1.66999E+01 0.00000E+00
 -1       962 1.31809E+02 1.72282E+01 0.00000E+00
 -1       963 2.96783E+01 2.54966E+01 0.00000E+00
 -1       964 4.47327E+01 1.67450E+01 0.00000E+00
 -1       965 5.37327E+01 1.67450E+01 0.00000E+00
 -1       966 3.57327E+01 1.67450E+01 0.00000E+00
 -1       967 4.17327E+01 1.67450E+01 0.00000E+00
 -1       968 2.91583E+01 1.47916E+01 0.00000E+00
 -1       969 3.00300E+01 1.96391E+01 0.00000E+00
 -1       970 3.03508E+01 1.70925E+01 0.00000E+00
 -1       971 1.31814E+02 2.50000E+01 0.00000E+00
 -1       972 3.06147E+01 2.41910E+01 0.00000E+00
 -1       973 2.97766E+01 2.77864E+01 0.00000E+00
 -1       974 1.31695E+02 2.00505E+01 0.00000E+00
 -1       975 3.41937E+01 1.93202E+01 0.00000E+00
 -1       976 3.31500E+01 2.92160E+01 0.00000E+00
 -1       977 3.61500E+01 2.92160E+01 0.00000E+00
 -1       978 3.91500E+01 2.92160E+01 0.00000E+00
 -1       979 4.21500E+01 2.92160E+01 0.00000E+00
 -1       980 4.51500E+01 2.92160E+01 0.00000E+00
 -1       981 4.81500E+01 2.92160E+01 0.00000E+00
 -1       982 5.11500E+01 2.92160E+01 0.00000E+00
 -1       983 5.41500E+01 2.92160E+01 0.00000E+00
 -1       984 5.71500E+01 2.92160E+01 0.00000E+00
 -1       985 6.01500E+01 2.92160E+01 0.00000E+00
 -1       986 6.31500E+01 2.92160E+01 0.00000E+00
 -1       987 6.61500E+01 2.92160E+01 0.00000E+00
 -1       988 6.91500E+01 2.92160E+01 0.00000E+00
 -1       989 7.21500E+01 2.92160E+01 0.00000E+00
 -1       990 7.51500E+01 2.92160E+01 0.00000E+00
 -1       991 7.81500E+01 2.92160E+01 0.00000E+00
 -1       992 8.11500E+01 2.92160E+01 0.00000E+00
 -1       993 8.41500E+01 2.92160E+01 0.00000E+00
 -1       994 8.71500E+01 2.92160E+01 0.00000E+00
 -1       995 9.01500E+01 2.92160E+01 0.00000E+00
 -1       996 9.31500E+01 2.92160E+01 0.00000E+00
 -1       997 9.61500E+01 2.92160E+01 0.00000E+00
 -1       998 9.91500E+01 2.92160E+01 0.00000E+00
 -1       999 1.02150E+02 2.92160E+01 0.00000E+00
 -1      1000 1.05150E+02 2.92160E+01 0.00000E+00
 -1      1001 1.08150E+02 2.92160E+01 0.00000E+00
 -1      1002 1.11150E+02 2.92160E+01 0.00000E+00
 -1      1003 1.14150E+02 2.92160E+01 0.00000E+00
 -1      1004 1.17150E+02 2.92160E+01 0.00000E+00
 -1      1005 1.20150E+02 2.92160E+01 0.00000E+00
 -1      1006 1.23150E+02 2.92160E+01 0.00000E+00
 -1      1007 1.26150E+02 2.92160E+01 0.00000E+00
 -1      1008 1.28982E+02 2.85830E+01 0.00000E+00
 -1      1009 6.43827E+01 1.93430E+01 0.00000E+00
 -1      1010 4.92327E+01 1.93430E+01 0.00000E+00
 -1      1011 6.13827E+01 1.93430E+01 0.00000E+00
 -1      1012 5.82327E+01 1.93430E+01 0.00000E+00
 -1      1013 6.73827E+01 1.93430E+01 0.00000E+00
 -1      1014 7.03827E+01 1.93430E+01 0.00000E+00
 -1      1015 7.33827E+01 1.93430E+01 0.00000E+00
 -1      1016 7.63827E+01 1.93430E+01 0.00000E+00
 -1      1017 7.93827E+01 1.93430E+01 0.00000E+00
 -1      1018 8.23827E+01 1.93430E+01 0.00000E+00
 -1      1019 8.53827E+01 1.93430E+01 0.00000E+00
 -1      1020 8.83827E+01 1.93430E+01 0.00000E+00
 -1      1021 9.13827E+01 1.93430E+01 0.00000E+00
 -1      1022 9.43827E+01 1.93430E+01 0.00000E+00
 -1      1023 9.73827E+01 1.93430E+01 0.00000E+00
 -1      1024 1.00533E+02 1.93430E+01 0.00000E+00
 -1      1025 1.03533E+02 1.93430E+01 0.00000E+00
 -1      1026 1.06533E+02 1.93430E+01 0.00000E+00
 -1      1027 1.09533E+02 1.93430E+01 0.00000E+00
 -1      1028 1.12533E+02 1.93430E+01 0.00000E+00
 -1      1029 1.15533E+02 1.93430E+01 0.00000E+00
 -1      1030 1.18533E+02 1.93430E+01 0.00000E+00
 -1      1031 1.21533E+02 1.93430E+01 0.00000E+00
 -1      1032 1.24533E+02 1.93430E+01 0.00000E+00
 -1      1033 1.27533E+02 1.93430E+01 0.00000E+00
 -1      1034 1.31754E+02 2.25252E+01 0.00000E+00
 -1      1035 3.21119E+01 1.94796E+01 0.00000E+00
 -1      1036 1.29614E+02 1.96967E+01 0.00000E+00
 -1      1037 4.62327E+01 1.93430E+01 0.00000E+00
 -1      1038 3.71937E+01 1.93202E+01 0.00000E+00
 -1      1039 5.22327E+01 1.93430E+01 0.00000E+00
 -1      1040 3.13633E+01 2.18353E+01 0.00000E+00
 -1      1041 5.52327E+01 1.93430E+01 0.00000E+00
 -1      1042 1.28982E+02 2.56330E+01 0.00000E+00
 -1      1043 3.30517E+01 2.69262E+01 0.00000E+00
 -1      1044 4.01937E+01 1.93202E+01 0.00000E+00
 -1      1045 4.32327E+01 1.93430E+01 0.00000E+00
 -1      1046 5.67327E+01 2.19410E+01 0.00000E+00
 -1      1047 3.76500E+01 2.66180E+01 0.00000E+00
 -1      1048 4.06500E+01 2.66180E+01 0.00000E+00
 -1      1049 4.36500E+01 2.66180E+01 0.00000E+00
 -1      1050 4.66500E+01 2.66180E+01 0.00000E+00
 -1      1051 4.96500E+01 2.66180E+01 0.00000E+00
 -1      1052 5.26500E+01 2.66180E+01 0.00000E+00
 -1      1053 5.56500E+01 2.66180E+01 0.00000E+00
 -1      1054 5.86500E+01 2.66180E+01 0.00000E+00
 -1      1055 6.16500E+01 2.66180E+01 0.00000E+00
 -1      1056 6.46500E+01 2.66180E+01 0.00000E+00
 -1      1057 6.76500E+01 2.66180E+01 0.00000E+00
 -1      1058 7.06500E+01 2.66180E+01 0.00000E+00
 -1      1059 7.36500E+01 2.66180E+01 0.00000E+00
 -1      1060 7.66500E+01 2.66180E+01 0.00000E+00
 -1      1061 7.96500E+01 2.66180E+01 0.00000E+00
 -1      1062 8.26500E+01 2.66180E+01 0.00000E+00
 -1      1063 8.56500E+01 2.66180E+01 0.00000E+00
 -1      1064 8.86500E+01 2.66180E+01 0.00000E+00
 -1      1065 9.16500E+01 2.66180E+01 0.00000E+00
 -1      1066 9.46500E+01 2.66180E+01 0.00000E+00
 -1      1067 9.76500E+01 2.66180E+01 0.00000E+00
 -1      1068 1.00650E+02 2.66180E+01 0.00000E+00
 -1      1069 1.03650E+02 2.66180E+01 0.00000E+00
 -1      1070 1.06650E+02 2.66180E+01 0.00000E+00
 -1      1071 1.09650E+02 2.66180E+01 0.00000E+00
 -1      1072 1.12650E+02 2.66180E+01 0.00000E+00
 -1      1073 1.15650E+02 2.66180E+01 0.00000E+00
 -1      1074 1.18650E+02 2.66180E+01 0.00000E+00
 -1      1075 1.21650E+02 2.66180E+01 0.00000E+00
 -1      1076 1.24650E+02 2.66180E+01 0.00000E+00
 -1      1077 1.26816E+02 2.61255E+01 0.00000E+00
 -1      1078 6.58827E+01 2.19410E+01 0.00000E+00
 -1      1079 5.98827E+01 2.19410E+01 0.00000E+00
 -1      1080 7.18827E+01 2.19410E+01 0.00000E+00
 -1      1081 7.48827E+01 2.19410E+01 0.00000E+00
 -1      1082 7.78827E+01 2.19410E+01 0.00000E+00
 -1      1083 8.08827E+01 2.19410E+01 0.00000E+00
 -1      1084 8.38827E+01 2.19410E+01 0.00000E+00
 -1      1085 8.68827E+01 2.19410E+01 0.00000E+00
 -1      1086 8.98827E+01 2.19410E+01 0.00000E+00
 -1      1087 9.28827E+01 2.19410E+01 0.00000E+00
 -1      1088 9.58827E+01 2.19410E+01 0.00000E+00
 -1      1089 9.90327E+01 2.19410E+01 0.00000E+00
 -1      1090 1.02033E+02 2.19410E+01 0.00000E+00
 -1      1091 1.05033E+02 2.19410E+01 0.00000E+00
 -1      1092 1.08033E+02 2.19410E+01 0.00000E+00
 -1      1093 1.11033E+02 2.19410E+01 0.00000E+00
 -1      1094 1.14033E+02 2.19410E+01 0.00000E+00
 -1      1095 1.17033E+02 2.19410E+01 0.00000E+00
 -1      1096 1.20033E+02 2.19410E+01 0.00000E+00
 -1      1097 1.23033E+02 2.19410E+01 0.00000E+00
 -1      1098 1.26033E+02 2.19410E+01 0.00000E+00
 -1      1099 4.77327E+01 2.19410E+01 0.00000E+00
 -1      1100 6.28827E+01 2.19410E+01 0.00000E+00
 -1      1101 3.53508E+01 2.67721E+01 0.00000E+00
 -1      1102 3.34452E+01 2.16758E+01 0.00000E+00
 -1      1103 6.88827E+01 2.19410E+01 0.00000E+00
 -1      1104 5.07327E+01 2.19410E+01 0.00000E+00
 -1      1105 3.64452E+01 2.16758E+01 0.00000E+00
 -1      1106 3.37730E+01 2.38303E+01 0.00000E+00
 -1      1107 5.37327E+01 2.19410E+01 0.00000E+00
 -1      1108 3.94452E+01 2.16758E+01 0.00000E+00
 -1      1109 1.29673E+02 2.21715E+01 0.00000E+00
 -1      1110 4.47327E+01 2.19410E+01 0.00000E+00
 -1      1111 1.29328E+02 2.39022E+01 0.00000E+00
 -1      1112 1.27853E+02 2.20562E+01 0.00000E+00
 -1      1113 4.92327E+01 2.45390E+01 0.00000E+00
 -1      1114 7.93827E+01 2.45390E+01 0.00000E+00
 -1      1115 4.21500E+01 2.40200E+01 0.00000E+00
 -1      1116 5.22327E+01 2.45390E+01 0.00000E+00
 -1      1117 5.52327E+01 2.45390E+01 0.00000E+00
 -1      1118 5.82327E+01 2.45390E+01 0.00000E+00
 -1      1119 6.12327E+01 2.45390E+01 0.00000E+00
 -1      1120 6.42327E+01 2.45390E+01 0.00000E+00
 -1      1121 6.72327E+01 2.45390E+01 0.00000E+00
 -1      1122 7.02327E+01 2.45390E+01 0.00000E+00
 -1      1123 7.32327E+01 2.45390E+01 0.00000E+00
 -1      1124 8.23827E+01 2.45390E+01 0.00000E+00
 -1      1125 8.53827E+01 2.45390E+01 0.00000E+00
 -1      1126 8.83827E+01 2.45390E+01 0.00000E+00
 -1      1127 9.13827E+01 2.45390E+01 0.00000E+00
 -1      1128 9.43827E+01 2.45390E+01 0.00000E+00
 -1      1129 9.73827E+01 2.45390E+01 0.00000E+00
 -1      1130 1.00383E+02 2.45390E+01 0.00000E+00
 -1      1131 1.03383E+02 2.45390E+01 0.00000E+00
 -1      1132 1.06383E+02 2.45390E+01 0.00000E+00
 -1      1133 1.09383E+02 2.45390E+01 0.00000E+00
 -1      1134 1.12383E+02 2.45390E+01 0.00000E+00
 -1      1135 1.15383E+02 2.45390E+01 0.00000E+00
 -1      1136 1.18383E+02 2.45390E+01 0.00000E+00
 -1      1137 1.21383E+02 2.45390E+01 0.00000E+00
 -1      1138 1.24383E+02 2.45390E+01 0.00000E+00
 -1      1139 4.20889E+01 2.18084E+01 0.00000E+00
 -1      1140 7.57664E+01 2.42795E+01 0.00000E+00
 -1      1141 1.27162E+02 2.43947E+01 0.00000E+00
 -1      1142 3.68514E+01 2.40732E+01 0.00000E+00
 -1      1143 0.00000E+00 4.84750E+01 0.00000E+00
 -1      1144 0.00000E+00 4.54250E+01 0.00000E+00
 -1      1145 0.00000E+00 4.23750E+01 0.00000E+00
 -1      1146 0.00000E+00 3.93250E+01 0.00000E+00
 -1      1147 0.00000E+00 3.62750E+01 0.00000E+00
 -1      1148 0.00000E+00 3.32250E+01 0.00000E+00
 -1      1149 0.00000E+00 3.01750E+01 0.00000E+00
 -1      1150 0.00000E+00 2.72500E+01 0.00000E+00
 -1      1151 0.00000E+00 2.44750E+01 0.00000E+00
 -1      1152 0.00000E+00 2.17250E+01 0.00000E+00
 -1      1153 0.00000E+00 1.91250E+01 0.00000E+00
 -1      1154 0.00000E+00 1.68500E+01 0.00000E+00
 -1      1155 0.00000E+00 1.46250E+01 0.00000E+00
 -1      1156 0.00000E+00 1.23000E+01 0.00000E+00
 -1      1157 0.00000E+00 9.95000E+00 0.00000E+00
 -1      1158 0.00000E+00 7.40000E+00 0.00000E+00
 -1      1159 0.00000E+00 4.52500E+00 0.00000E+00
 -1      1160 0.00000E+00 1.50000E+00 0.00000E+00
 -1      1161 1.57500E+00 5.00000E+01 0.00000E+00
 -1      1162 4.65000E+00 5.00000E+01 0.00000E+00
 -1      1163 7.65000E+00 5.00000E+01 0.00000E+00
 -1      1164 1.06500E+01 5.00000E+01 0.00000E+00
 -1      1165 1.36500E+01 5.00000E+01 0.00000E+00
 -1      1166 1.66500E+01 5.00000E+01 0.00000E+00
 -1      1167 1.96500E+01 5.00000E+01 0.00000E+00
 -1      1168 2.26500E+01 5.00000E+01 0.00000E+00
 -1      1169 2.56500E+01 5.00000E+01 0.00000E+00
 -1      1170 2.86500E+01 5.00000E+01 0.00000E+00
 -1      1171 3.16500E+01 5.00000E+01 0.00000E+00
 -1      1172 3.46500E+01 5.00000E+01 0.00000E+00
 -1      1173 3.76500E+01 5.00000E+01 0.00000E+00
 -1      1174 4.06500E+01 5.00000E+01 0.00000E+00
 -1      1175 4.36500E+01 5.00000E+01 0.00000E+00
 -1      1176 4.66500E+01 5.00000E+01 0.00000E+00
 -1      1177 4.96500E+01 5.00000E+01 0.00000E+00
 -1      1178 5.26500E+01 5.00000E+01 0.00000E+00
 -1      1179 5.56500E+01 5.00000E+01 0.00000E+00
 -1      1180 5.86500E+01 5.00000E+01 0.00000E+00
 -1      1181 6.16500E+01 5.00000E+01 0.00000E+00
 -1      1182 6.46500E+01 5.00000E+01 0.00000E+00
 -1      1183 6.76500E+01 5.00000E+01 0.00000E+00
 -1      1184 7.06500E+01 5.00000E+01 0.00000E+00
 -1      1185 7.36500E+01 5.00000E+01 0.00000E+00
 -1      1186 7.66500E+01 5.00000E+01 0.00000E+00
 -1      1187 7.96500E+01 5.00000E+01 0.00000E+00
 -1      1188 8.26500E+01 5.00000E+01 0.00000E+00
 -1      1189 8.56500E+01 5.00000E+01 0.00000E+00
 -1      1190 8.86500E+01 5.00000E+01 0.00000E+00
 -1      1191 9.16500E+01 5.00000E+01 0.00000E+00
 -1      1192 9.46500E+01 5.00000E+01 0.00000E+00
 -1      1193 9.76500E+01 5.00000E+01 0.00000E+00
 -1      1194 1.00650E+02 5.00000E+01 0.00000E+00
 -1      1195 1.03650E+02 5.00000E+01 0.00000E+00
 -1      1196 1.06650E+02 5.00000E+01 0.00000E+00
 -1      1197 1.09650E+02 5.00000E+01 0.00000E+00
 -1      1198 1.12650E+02 5.00000E+01 0.00000E+00
 -1      1199 1.15650E+02 5.00000E+01 0.00000E+00
 -1      1200 1.18650E+02 5.00000E+01 0.00000E+00
 -1      1201 1.21650E+02 5.00000E+01 0.00000E+00
 -1      1202 1.24650E+02 5.00000E+01 0.00000E+00
 -1      1203 1.27650E+02 5.00000E+01 0.00000E+00
 -1      1204 1.30650E+02 5.00000E+01 0.00000E+00
 -1      1205 1.33650E+02 5.00000E+01 0.00000E+00
 -1      1206 1.36650E+02 5.00000E+01 0.00000E+00
 -1      1207 1.39650E+02 5.00000E+01 0.00000E+00
 -1      1208 1.42650E+02 5.00000E+01 0.00000E+00
 -1      1209 1.45650E+02 5.00000E+01 0.00000E+00
 -1      1210 1.48575E+02 5.00000E+01 0.00000E+00
 -1      1211 1.57500E+00 0.00000E+00 0.00000E+00
 -1      1212 4.57500E+00 0.00000E+00 0.00000E+00
 -1      1213 7.35000E+00 0.00000E+00 0.00000E+00
 -1      1214 1.01250E+01 0.00000E+00 0.00000E+00
 -1      1215 1.30500E+01 0.00000E+00 0.00000E+00
 -1      1216 1.60500E+01 0.00000E+00 0.00000E+00
 -1      1217 1.90500E+01 0.00000E+00 0.00000E+00
 -1      1218 2.20500E+01 0.00000E+00 0.00000E+00
 -1      1219 2.51250E+01 0.00000E+00 0.00000E+00
 -1      1220 2.82000E+01 0.00000E+00 0.00000E+00
 -1      1221 3.12000E+01 0.00000E+00 0.00000E+00
 -1      1222 3.42000E+01 0.00000E+00 0.00000E+00
 -1      1223 3.72000E+01 0.00000E+00 0.00000E+00
 -1      1224 4.02000E+01 0.00000E+00 0.00000E+00
 -1      1225 4.32000E+01 0.00000E+00 0.00000E+00
 -1      1226 4.62000E+01 0.00000E+00 0.00000E+00
 -1      1227 4.92000E+01 0.00000E+00 0.00000E+00
 -1      1228 5.22000E+01 0.00000E+00 0.00000E+00
 -1      1229 5.52000E+01 0.00000E+00 0.00000E+00
 -1      1230 5.82000E+01 0.00000E+00 0.00000E+00
 -1      1231 6.12000E+01 0.00000E+00 0.00000E+00
 -1      1232 6.42000E+01 0.00000E+00 0.00000E+00
 -1      1233 6.72750E+01 0.00000E+00 0.00000E+00
 -1      1234 7.03500E+01 0.00000E+00 0.00000E+00
 -1      1235 7.33500E+01 0.00000E+00 0.00000E+00
 -1      1236 7.63500E+01 0.00000E+00 0.00000E+00
 -1      1237 7.93500E+01 0.00000E+00 0.00000E+00
 -1      1238 8.23500E+01 0.00000E+00 0.00000E+00
 -1      1239 8.53500E+01 0.00000E+00 0.00000E+00
 -1      1240 8.83500E+01 0.00000E+00 0.00000E+00
 -1      1241 9.13500E+01 0.00000E+00 0.00000E+00
 -1      1242 9.43500E+01 0.00000E+00 0.00000E+00
 -1      1243 9.73500E+01 0.00000E+00 0.00000E+00
 -1      1244 1.00350E+02 0.00000E+00 0.00000E+00
 -1      1245 1.03350E+02 0.00000E+00 0.00000E+00
 -1      1246 1.06350E+02 0.00000E+00 0.00000E+00
 -1      1247 1.09425E+02 0.00000E+00 0.00000E+00
 -1      1248 1.12500E+02 0.00000E+00 0.00000E+00
 -1      1249 1.15500E+02 0.00000E+00 0.00000E+00
 -1      1250 1.18500E+02 0.00000E+00 0.00000E+00
 -1      1251 1.21500E+02 0.00000E+00 0.00000E+00
 -1      1252 1.24500E+02 0.00000E+00 0.00000E+00
 -1      1253 1.27500E+02 0.00000E+00 0.00000E+00
 -1      1254 1.30500E+02 0.00000E+00 0.00000E+00
 -1      1255 1.33500E+02 0.00000E+00 0.00000E+00
 -1      1256 1.36500E+02 0.00000E+00 0.00000E+00
 -1      1257 1.39500E+02 0.00000E+00 0.00000E+00
 -1      1258 1.42500E+02 0.00000E+00 0.00000E+00
 -1      1259 1.45500E+02 0.00000E+00 0.00000E+00
 -1      1260 1.48500E+02 0.00000E+00 0.00000E+00
 -1      1261 1.50000E+02 1.47500E+00 0.00000E+00
 -1      1262 1.50000E+02 4.42500E+00 0.00000E+00
 -1      1263 1.50000E+02 7.37500E+00 0.00000E+00
 -1      1264 1.50000E+02 1.03250E+01 0.00000E+00
 -1      1265 1.50000E+02 1.32750E+01 0.00000E+00
 -1      1266 1.50000E+02 1.62000E+01 0.00000E+00
 -1      1267 1.50000E+02 1.91250E+01 0.00000E+00
 -1      1268 1.50000E+02 2.20750E+01 0.00000E+00
 -1      1269 1.50000E+02 2.50250E+01 0.00000E+00
 -1      1270 1.50000E+02 2.79750E+01 0.00000E+00
 -1      1271 1.50000E+02 3.09250E+01 0.00000E+00
 -1      1272 1.50000E+02 3.38500E+01 0.00000E+00
 -1      1273 1.50000E+02 3.67750E+01 0.00000E+00
 -1      1274 1.50000E+02 3.97250E+01 0.00000E+00
 -1      1275 1.50000E+02 4.26750E+01 0.00000E+00
 -1      1276 1.50000E+02 4.56250E+01 0.00000E+00
 -1      1277 1.50000E+02 4.85500E+01 0.00000E+00
 -1      1278 1.99029E+01 1.61764E+01 0.00000E+00
 -1      1279 1.95342E+01 1.46304E+01 0.00000E+00
 -1      1280 1.88374E+01 1.32246E+01 0.00000E+00
 -1      1281 1.78581E+01 1.20223E+01 0.00000E+00
 -1      1282 1.67186E+01 1.11157E+01 0.00000E+00
 -1      1283 1.54130E+01 1.04632E+01 0.00000E+00
 -1      1284 1.39571E+01 1.00892E+01 0.00000E+00
 -1      1285 1.23270E+01 1.00450E+01 0.00000E+00
 -1      1286 1.06984E+01 1.03901E+01 0.00000E+00
 -1      1287 9.21226E+00 1.11006E+01 0.00000E+00
 -1      1288 7.92519E+00 1.21471E+01 0.00000E+00
 -1      1289 6.97054E+00 1.33833E+01 0.00000E+00
 -1      1290 6.31009E+00 1.48114E+01 0.00000E+00
 -1      1291 5.98864E+00 1.63173E+01 0.00000E+00
 -1      1292 5.99837E+00 1.78074E+01 0.00000E+00
 -1      1293 6.33426E+00 1.92938E+01 0.00000E+00
 -1      1294 7.00479E+00 2.07063E+01 0.00000E+00
 -1      1295 7.97074E+00 2.19333E+01 0.00000E+00
 -1      1296 9.12193E+00 2.28751E+01 0.00000E+00
 -1      1297 1.04542E+01 2.35555E+01 0.00000E+00
 -1      1298 1.19051E+01 2.39379E+01 0.00000E+00
 -1      1299 1.34476E+01 2.39994E+01 0.00000E+00
 -1      1300 1.49468E+01 2.37271E+01 0.00000E+00
 -1      1301 1.63377E+01 2.31445E+01 0.00000E+00
 -1      1302 1.75203E+01 2.23221E+01 0.00000E+00
 -1      1303 1.84293E+01 2.13776E+01 0.00000E+00
 -1      1304 1.91435E+01 2.02857E+01 0.00000E+00
 -1      1305 1.96466E+01 1.90670E+01 0.00000E+00
 -1      1306 1.99179E+01 1.77227E+01 0.00000E+00
 -1      1307 1.57500E+00 4.84750E+01 0.00000E+00
 -1      1308 1.29900E+00 4.46625E+01 0.00000E+00
 -1      1309 1.29900E+00 4.61875E+01 0.00000E+00
 -1      1310 1.29900E+00 4.16125E+01 0.00000E+00
 -1      1311 1.29900E+00 4.31375E+01 0.00000E+00
 -1      1312 2.59800E+00 4.39000E+01 0.00000E+00
 -1      1313 1.29900E+00 3.85625E+01 0.00000E+00
 -1      1314 1.29900E+00 4.00875E+01 0.00000E+00
 -1      1315 2.59800E+00 4.08500E+01 0.00000E+00
 -1      1316 1.29900E+00 3.55125E+01 0.00000E+00
 -1      1317 1.29900E+00 3.70375E+01 0.00000E+00
 -1      1318 2.59800E+00 3.78000E+01 0.00000E+00
 -1      1319 1.29900E+00 3.24625E+01 0.00000E+00
 -1      1320 1.29900E+00 3.39875E+01 0.00000E+00
 -1      1321 2.59800E+00 3.47500E+01 0.00000E+00
 -1      1322 1.29900E+00 2.94125E+01 0.00000E+00
 -1      1323 1.29900E+00 3.09375E+01 0.00000E+00
 -1      1324 2.59800E+00 3.17000E+01 0.00000E+00
 -1      1325 1.29900E+00 2.66125E+01 0.00000E+00
 -1      1326 1.29900E+00 2.80125E+01 0.00000E+00
 -1      1327 2.59800E+00 2.87750E+01 0.00000E+00
 -1      1328 1.29900E+00 2.38625E+01 0.00000E+00
 -1      1329 1.29900E+00 2.52375E+01 0.00000E+00
 -1      1330 2.59800E+00 2.60000E+01 0.00000E+00
 -1      1331 1.29900E+00 2.11125E+01 0.00000E+00
 -1      1332 1.29900E+00 2.24875E+01 0.00000E+00
 -1      1333 2.59800E+00 2.32500E+01 0.00000E+00
 -1      1334 8.57552E-01 1.63250E+01 0.00000E+00
 -1      1335 8.57552E-01 1.73750E+01 0.00000E+00
 -1      1336 8.57552E-01 1.39750E+01 0.00000E+00
 -1      1337 8.57552E-01 1.51500E+01 0.00000E+00
 -1      1338 1.71510E+00 1.56750E+01 0.00000E+00
 -1      1339 8.57552E-01 1.16750E+01 0.00000E+00
 -1      1340 8.57552E-01 1.28250E+01 0.00000E+00
 -1      1341 1.71510E+00 1.33500E+01 0.00000E+00
 -1      1342 8.57552E-01 9.27500E+00 0.00000E+00
 -1      1343 8.57552E-01 1.04750E+01 0.00000E+00
 -1      1344 1.71510E+00 1.10000E+01 0.00000E+00
 -1      1345 8.57552E-01 6.57500E+00 0.00000E+00
 -1      1346 8.57552E-01 7.92500E+00 0.00000E+00
 -1      1347 1.71510E+00 8.45000E+00 0.00000E+00
 -1      1348 8.57552E-01 3.52500E+00 0.00000E+00
 -1      1349 8.57552E-01 5.05000E+00 0.00000E+00
 -1      1350 1.71510E+00 5.57500E+00 0.00000E+00
 -1      1351 1.21628E+00 1.01250E+00 0.00000E+00
 -1      1352 1.21628E+00 2.51250E+00 0.00000E+00
 -1      1353 2.07383E+00 3.03750E+00 0.00000E+00
 -1      1354 2.79128E+00 1.01250E+00 0.00000E+00
 -1      1355 3.90000E+00 4.87010E+01 0.00000E+00
 -1      1356 5.40000E+00 4.87010E+01 0.00000E+00
 -1      1357 6.90000E+00 4.87010E+01 0.00000E+00
 -1      1358 8.40000E+00 4.87010E+01 0.00000E+00
 -1      1359 6.15000E+00 4.74020E+01 0.00000E+00
 -1      1360 9.90000E+00 4.87010E+01 0.00000E+00
 -1      1361 1.14000E+01 4.87010E+01 0.00000E+00
 -1      1362 9.15000E+00 4.74020E+01 0.00000E+00
 -1      1363 1.29000E+01 4.87010E+01 0.00000E+00
 -1      1364 1.44000E+01 4.87010E+01 0.00000E+00
 -1      1365 1.21500E+01 4.74020E+01 0.00000E+00
 -1      1366 1.59000E+01 4.87010E+01 0.00000E+00
 -1      1367 1.74000E+01 4.87010E+01 0.00000E+00
 -1      1368 1.51500E+01 4.74020E+01 0.00000E+00
 -1      1369 1.89000E+01 4.87010E+01 0.00000E+00
 -1      1370 2.04000E+01 4.87010E+01 0.00000E+00
 -1      1371 1.81500E+01 4.74020E+01 0.00000E+00
 -1      1372 2.19000E+01 4.87010E+01 0.00000E+00
 -1      1373 2.34000E+01 4.87010E+01 0.00000E+00
 -1      1374 2.11500E+01 4.74020E+01 0.00000E+00
 -1      1375 2.49000E+01 4.87010E+01 0.00000E+00
 -1      1376 2.64000E+01 4.87010E+01 0.00000E+00
 -1      1377 2.41500E+01 4.74020E+01 0.00000E+00
 -1      1378 2.79000E+01 4.87010E+01 0.00000E+00
 -1      1379 2.94000E+01 4.87010E+01 0.00000E+00
 -1      1380 2.71500E+01 4.74020E+01 0.00000E+00
 -1      1381 3.09000E+01 4.87010E+01 0.00000E+00
 -1      1382 3.24000E+01 4.87010E+01 0.00000E+00
 -1      1383 3.01500E+01 4.74020E+01 0.00000E+00
 -1      1384 3.39000E+01 4.87010E+01 0.00000E+00
 -1      1385 3.54000E+01 4.87010E+01 0.00000E+00
 -1      1386 3.31500E+01 4.74020E+01 0.00000E+00
 -1      1387 3.69000E+01 4.87010E+01 0.00000E+00
 -1      1388 3.84000E+01 4.87010E+01 0.00000E+00
 -1      1389 3.61500E+01 4.74020E+01 0.00000E+00
 -1      1390 3.99000E+01 4.87010E+01 0.00000E+00
 -1      1391 4.14000E+01 4.87010E+01 0.00000E+00
 -1      1392 3.91500E+01 4.74020E+01 0.00000E+00
 -1      1393 4.29000E+01 4.87010E+01 0.00000E+00
 -1      1394 4.44000E+01 4.87010E+01 0.00000E+00
 -1      1395 4.21500E+01 4.74020E+01 0.00000E+00
 -1      1396 4.59000E+01 4.87010E+01 0.00000E+00
 -1      1397 4.74000E+01 4.87010E+01 0.00000E+00
 -1      1398 4.51500E+01 4.74020E+01 0.00000E+00
 -1      1399 4.89000E+01 4.87010E+01 0.00000E+00
 -1      1400 5.04000E+01 4.87010E+01 0.00000E+00
 -1      1401 4.81500E+01 4.74020E+01 0.00000E+00
 -1      1402 5.19000E+01 4.87010E+01 0.00000E+00
 -1      1403 5.34000E+01 4.87010E+01 0.00000E+00
 -1      1404 5.11500E+01 4.74020E+01 0.00000E+00
 -1      1405 5.49000E+01 4.87010E+01 0.00000E+00
 -1      1406 5.64000E+01 4.87010E+01 0.00000E+00
 -1      1407 5.41500E+01 4.74020E+01 0.00000E+00
 -1      1408 5.79000E+01 4.87010E+01 0.00000E+00
 -1      1409 5.94000E+01 4.87010E+01 0.00000E+00
 -1      1410 5.71500E+01 4.74020E+01 0.00000E+00
 -1      1411 6.09000E+01 4.87010E+01 0.00000E+00
 -1      1412 6.24000E+01 4.87010E+01 0.00000E+00
 -1      1413 6.01500E+01 4.74020E+01 0.00000E+00
 -1      1414 6.39000E+01 4.87010E+01 0.00000E+00
 -1      1415 6.54000E+01 4.87010E+01 0.00000E+00
 -1      1416 6.31500E+01 4.74020E+01 0.00000E+00
 -1      1417 6.69000E+01 4.87010E+01 0.00000E+00
 -1      1418 6.84000E+01 4.87010E+01 0.00000E+00
 -1      1419 6.61500E+01 4.74020E+01 0.00000E+00
 -1      1420 6.99000E+01 4.87010E+01 0.00000E+00
 -1      1421 7.14000E+01 4.87010E+01 0.00000E+00
 -1      1422 6.91500E+01 4.74020E+01 0.00000E+00
 -1      1423 7.29000E+01 4.87010E+01 0.00000E+00
 -1      1424 7.44000E+01 4.87010E+01 0.00000E+00
 -1      1425 7.21500E+01 4.74020E+01 0.00000E+00
 -1      1426 7.59000E+01 4.87010E+01 0.00000E+00
 -1      1427 7.74000E+01 4.87010E+01 0.00000E+00
 -1      1428 7.51500E+01 4.74020E+01 0.00000E+00
 -1      1429 7.89000E+01 4.87010E+01 0.00000E+00
 -1      1430 8.04000E+01 4.87010E+01 0.00000E+00
 -1      1431 7.81500E+01 4.74020E+01 0.00000E+00
 -1      1432 8.19000E+01 4.87010E+01 0.00000E+00
 -1      1433 8.34000E+01 4.87010E+01 0.00000E+00
 -1      1434 8.11500E+01 4.74020E+01 0.00000E+00
 -1      1435 8.49000E+01 4.87010E+01 0.00000E+00
 -1      1436 8.64000E+01 4.87010E+01 0.00000E+00
 -1      1437 8.41500E+01 4.74020E+01 0.00000E+00
 -1      1438 8.79000E+01 4.87010E+01 0.00000E+00
 -1      1439 8.94000E+01 4.87010E+01 0.00000E+00
 -1      1440 8.71500E+01 4.74020E+01 0.00000E+00
 -1      1441 9.09000E+01 4.87010E+01 0.00000E+00
 -1      1442 9.24000E+01 4.87010E+01 0.00000E+00
 -1      1443 9.01500E+01 4.74020E+01 0.00000E+00
 -1      1444 9.39000E+01 4.87010E+01 0.00000E+00
 -1      1445 9.54000E+01 4.87010E+01 0.00000E+00
 -1      1446 9.31500E+01 4.74020E+01 0.00000E+00
 -1      1447 9.69000E+01 4.87010E+01 0.00000E+00
 -1      1448 9.84000E+01 4.87010E+01 0.00000E+00
 -1      1449 9.61500E+01 4.74020E+01 0.00000E+00
 -1      1450 9.99000E+01 4.87010E+01 0.00000E+00
 -1      1451 1.01400E+02 4.87010E+01 0.00000E+00
 -1      1452 9.91500E+01 4.74020E+01 0.00000E+00
 -1      1453 1.02900E+02 4.87010E+01 0.00000E+00
 -1      1454 1.04400E+02 4.87010E+01 0.00000E+00
 -1      1455 1.02150E+02 4.74020E+01 0.00000E+00
 -1      1456 1.05900E+02 4.87010E+01 0.00000E+00
 -1      1457 1.07400E+02 4.87010E+01 0.00000E+00
 -1      1458 1.05150E+02 4.74020E+01 0.00000E+00
 -1      1459 1.08900E+02 4.87010E+01 0.00000E+00
 -1      1460 1.10400E+02 4.87010E+01 0.00000E+00
 -1      1461 1.08150E+02 4.74020E+01 0.00000E+00
 -1      1462 1.11900E+02 4.87010E+01 0.00000E+00
 -1      1463 1.13400E+02 4.87010E+01 0.00000E+00
 -1      1464 1.11150E+02 4.74020E+01 0.00000E+00
 -1      1465 1.14900E+02 4.87010E+01 0.00000E+00
 -1      1466 1.16400E+02 4.87010E+01 0.00000E+00
 -1      1467 1.14150E+02 4.74020E+01 0.00000E+00
 -1      1468 1.17900E+02 4.87010E+01 0.00000E+00
 -1      1469 1.19400E+02 4.87010E+01 0.00000E+00
 -1      1470 1.17150E+02 4.74020E+01 0.00000E+00
 -1      1471 1.20900E+02 4.87010E+01 0.00000E+00
 -1      1472 1.22400E+02 4.87010E+01 0.00000E+00
 -1      1473 1.20150E+02 4.74020E+01 0.00000E+00
 -1      1474 1.23900E+02 4.87010E+01 0.00000E+00
 -1      1475 1.25400E+02 4.87010E+01 0.00000E+00
 -1      1476 1.23150E+02 4.74020E+01 0.00000E+00
 -1      1477 1.26900E+02 4.87010E+01 0.00000E+00
 -1      1478 1.28400E+02 4.87010E+01 0.00000E+00
 -1      1479 1.26150E+02 4.74020E+01 0.00000E+00
 -1      1480 1.29900E+02 4.87010E+01 0.00000E+00
 -1      1481 1.31400E+02 4.87010E+01 0.00000E+00
 -1      1482 1.29150E+02 4.74020E+01 0.00000E+00
 -1      1483 1.32900E+02 4.87010E+01 0.00000E+00
 -1      1484 1.34400E+02 4.87010E+01 0.00000E+00
 -1      1485 1.32150E+02 4.74020E+01 0.00000E+00
 -1      1486 1.35900E+02 4.87010E+01 0.00000E+00
 -1      1487 1.37400E+02 4.87010E+01 0.00000E+00
 -1      1488 1.35150E+02 4.74020E+01 0.00000E+00
 -1      1489 1.38900E+02 4.87010E+01 0.00000E+00
 -1      1490 1.40400E+02 4.87010E+01 0.00000E+00
 -1      1491 1.38150E+02 4.74020E+01 0.00000E+00
 -1      1492 1.41900E+02 4.87010E+01 0.00000E+00
 -1      1493 1.43400E+02 4.87010E+01 0.00000E+00
 -1      1494 1.41150E+02 4.74020E+01 0.00000E+00
 -1      1495 1.44900E+02 4.87010E+01 0.00000E+00
 -1      1496 1.46400E+02 4.87010E+01 0.00000E+00
 -1      1497 1.44150E+02 4.74020E+01 0.00000E+00
 -1      1498 1.48575E+02 4.85500E+01 0.00000E+00
 -1      1499 1.47825E+02 4.72510E+01 0.00000E+00
 -1      1500 5.64128E+00 1.01250E+00 0.00000E+00
 -1      1501 4.21628E+00 1.01250E+00 0.00000E+00
 -1      1502 3.85755E+00 2.02500E+00 0.00000E+00
 -1      1503 8.34128E+00 1.01250E+00 0.00000E+00
 -1      1504 6.99128E+00 1.01250E+00 0.00000E+00
 -1      1505 6.63255E+00 2.02500E+00 0.00000E+00
 -1      1506 1.11913E+01 1.01250E+00 0.00000E+00
 -1      1507 9.76628E+00 1.01250E+00 0.00000E+00
 -1      1508 9.40755E+00 2.02500E+00 0.00000E+00
 -1      1509 1.41913E+01 1.01250E+00 0.00000E+00
 -1      1510 1.26913E+01 1.01250E+00 0.00000E+00
 -1      1511 1.23326E+01 2.02500E+00 0.00000E+00
 -1      1512 1.71913E+01 1.01250E+00 0.00000E+00
 -1      1513 1.56913E+01 1.01250E+00 0.00000E+00
 -1      1514 1.53326E+01 2.02500E+00 0.00000E+00
 -1      1515 2.01913E+01 1.01250E+00 0.00000E+00
 -1      1516 1.86913E+01 1.01250E+00 0.00000E+00
 -1      1517 1.83326E+01 2.02500E+00 0.00000E+00
 -1      1518 2.31913E+01 1.01250E+00 0.00000E+00
 -1      1519 2.16913E+01 1.01250E+00 0.00000E+00
 -1      1520 2.13326E+01 2.02500E+00 0.00000E+00
 -1      1521 2.63413E+01 1.01250E+00 0.00000E+00
 -1      1522 2.47663E+01 1.01250E+00 0.00000E+00
 -1      1523 2.44076E+01 2.02500E+00 0.00000E+00
 -1      1524 2.93413E+01 1.01250E+00 0.00000E+00
 -1      1525 2.78413E+01 1.01250E+00 0.00000E+00
 -1      1526 2.74826E+01 2.02500E+00 0.00000E+00
 -1      1527 3.23413E+01 1.01250E+00 0.00000E+00
 -1      1528 3.08413E+01 1.01250E+00 0.00000E+00
 -1      1529 3.04826E+01 2.02500E+00 0.00000E+00
 -1      1530 3.53413E+01 1.01250E+00 0.00000E+00
 -1      1531 3.38413E+01 1.01250E+00 0.00000E+00
 -1      1532 3.34826E+01 2.02500E+00 0.00000E+00
 -1      1533 3.83413E+01 1.01250E+00 0.00000E+00
 -1      1534 3.68413E+01 1.01250E+00 0.00000E+00
 -1      1535 3.64826E+01 2.02500E+00 0.00000E+00
 -1      1536 4.13413E+01 1.01250E+00 0.00000E+00
 -1      1537 3.98413E+01 1.01250E+00 0.00000E+00
 -1      1538 3.94826E+01 2.02500E+00 0.00000E+00
 -1      1539 4.43413E+01 1.01250E+00 0.00000E+00
 -1      1540 4.28413E+01 1.01250E+00 0.00000E+00
 -1      1541 4.24826E+01 2.02500E+00 0.00000E+00
 -1      1542 4.73413E+01 1.01250E+00 0.00000E+00
 -1      1543 4.58413E+01 1.01250E+00 0.00000E+00
 -1      1544 4.54826E+01 2.02500E+00 0.00000E+00
 -1      1545 5.03413E+01 1.01250E+00 0.00000E+00
 -1      1546 4.88413E+01 1.01250E+00 0.00000E+00
 -1      1547 4.84826E+01 2.02500E+00 0.00000E+00
 -1      1548 5.33413E+01 1.01250E+00 0.00000E+00
 -1      1549 5.18413E+01 1.01250E+00 0.00000E+00
 -1      1550 5.14826E+01 2.02500E+00 0.00000E+00
 -1      1551 5.63413E+01 1.01250E+00 0.00000E+00
 -1      1552 5.48413E+01 1.01250E+00 0.00000E+00
 -1      1553 5.44826E+01 2.02500E+00 0.00000E+00
 -1      1554 5.93413E+01 1.01250E+00 0.00000E+00
 -1      1555 5.78413E+01 1.01250E+00 0.00000E+00
 -1      1556 5.74826E+01 2.02500E+00 0.00000E+00
 -1      1557 6.23413E+01 1.01250E+00 0.00000E+00
 -1      1558 6.08413E+01 1.01250E+00 0.00000E+00
 -1      1559 6.04826E+01 2.02500E+00 0.00000E+00
 -1      1560 6.53413E+01 1.01250E+00 0.00000E+00
 -1      1561 6.38413E+01 1.01250E+00 0.00000E+00
 -1      1562 6.34826E+01 2.02500E+00 0.00000E+00
 -1      1563 6.84913E+01 1.01250E+00 0.00000E+00
 -1      1564 6.69163E+01 1.01250E+00 0.00000E+00
 -1      1565 6.65575E+01 2.02500E+00 0.00000E+00
 -1      1566 7.14913E+01 1.01250E+00 0.00000E+00
 -1      1567 6.99913E+01 1.01250E+00 0.00000E+00
 -1      1568 6.96326E+01 2.02500E+00 0.00000E+00
 -1      1569 7.44913E+01 1.01250E+00 0.00000E+00
 -1      1570 7.29913E+01 1.01250E+00 0.00000E+00
 -1      1571 7.26326E+01 2.02500E+00 0.00000E+00
 -1      1572 7.74913E+01 1.01250E+00 0.00000E+00
 -1      1573 7.59913E+01 1.01250E+00 0.00000E+00
 -1      1574 7.56326E+01 2.02500E+00 0.00000E+00
 -1      1575 8.04913E+01 1.01250E+00 0.00000E+00
 -1      1576 7.89913E+01 1.01250E+00 0.00000E+00
 -1      1577 7.86326E+01 2.02500E+00 0.00000E+00
 -1      1578 8.34913E+01 1.01250E+00 0.00000E+00
 -1      1579 8.19913E+01 1.01250E+00 0.00000E+00
 -1      1580 8.16326E+01 2.02500E+00 0.00000E+00
 -1      1581 8.64913E+01 1.01250E+00 0.00000E+00
 -1      1582 8.49913E+01 1.01250E+00 0.00000E+00
 -1      1583 8.46326E+01 2.02500E+00 0.00000E+00
 -1      1584 8.94913E+01 1.01250E+00 0.00000E+00
 -1      1585 8.79913E+01 1.01250E+00 0.00000E+00
 -1      1586 8.76326E+01 2.02500E+00 0.00000E+00
 -1      1587 9.24913E+01 1.01250E+00 0.00000E+00
 -1      1588 9.09913E+01 1.01250E+00 0.00000E+00
 -1      1589 9.06326E+01 2.02500E+00 0.00000E+00
 -1      1590 9.54913E+01 1.01250E+00 0.00000E+00
 -1      1591 9.39913E+01 1.01250E+00 0.00000E+00
 -1      1592 9.36326E+01 2.02500E+00 0.00000E+00
 -1      1593 9.84913E+01 1.01250E+00 0.00000E+00
 -1      1594 9.69913E+01 1.01250E+00 0.00000E+00
 -1      1595 9.66326E+01 2.02500E+00 0.00000E+00
 -1      1596 1.01491E+02 1.01250E+00 0.00000E+00
 -1      1597 9.99913E+01 1.01250E+00 0.00000E+00
 -1      1598 9.96326E+01 2.02500E+00 0.00000E+00
 -1      1599 1.04491E+02 1.01250E+00 0.00000E+00
 -1      1600 1.02991E+02 1.01250E+00 0.00000E+00
 -1      1601 1.02633E+02 2.02500E+00 0.00000E+00
 -1      1602 1.07491E+02 1.01250E+00 0.00000E+00
 -1      1603 1.05991E+02 1.01250E+00 0.00000E+00
 -1      1604 1.05633E+02 2.02500E+00 0.00000E+00
 -1      1605 1.10641E+02 1.01250E+00 0.00000E+00
 -1      1606 1.09066E+02 1.01250E+00 0.00000E+00
 -1      1607 1.08708E+02 2.02500E+00 0.00000E+00
 -1      1608 1.13641E+02 1.01250E+00 0.00000E+00
 -1      1609 1.12141E+02 1.01250E+00 0.00000E+00
 -1      1610 1.11783E+02 2.02500E+00 0.00000E+00
 -1      1611 1.16641E+02 1.01250E+00 0.00000E+00
 -1      1612 1.15141E+02 1.01250E+00 0.00000E+00
 -1      1613 1.14783E+02 2.02500E+00 0.00000E+00
 -1      1614 1.19641E+02 1.01250E+00 0.00000E+00
 -1      1615 1.18141E+02 1.01250E+00 0.00000E+00
 -1      1616 1.17783E+02 2.02500E+00 0.00000E+00
 -1      1617 1.22641E+02 1.01250E+00 0.00000E+00
 -1      1618 1.21141E+02 1.01250E+00 0.00000E+00
 -1      1619 1.20783E+02 2.02500E+00 0.00000E+00
 -1      1620 1.25641E+02 1.01250E+00 0.00000E+00
 -1      1621 1.24141E+02 1.01250E+00 0.00000E+00
 -1      1622 1.23783E+02 2.02500E+00 0.00000E+00
 -1      1623 1.28641E+02 1.01250E+00 0.00000E+00
 -1      1624 1.27141E+02 1.01250E+00 0.00000E+00
 -1      1625 1.26783E+02 2.02500E+00 0.00000E+00
 -1      1626 1.31641E+02 1.01250E+00 0.00000E+00
 -1      1627 1.30141E+02 1.01250E+00 0.00000E+00
 -1      1628 1.29783E+02 2.02500E+00 0.00000E+00
 -1      1629 1.34641E+02 1.01250E+00 0.00000E+00
 -1      1630 1.33141E+02 1.01250E+00 0.00000E+00
 -1      1631 1.32783E+02 2.02500E+00 0.00000E+00
 -1      1632 1.37641E+02 1.01250E+00 0.00000E+00
 -1      1633 1.36141E+02 1.01250E+00 0.00000E+00
 -1      1634 1.35783E+02 2.02500E+00 0.00000E+00
 -1      1635 1.40641E+02 1.01250E+00 0.00000E+00
 -1      1636 1.39141E+02 1.01250E+00 0.00000E+00
 -1      1637 1.38783E+02 2.02500E+00 0.00000E+00
 -1      1638 1.43641E+02 1.01250E+00 0.00000E+00
 -1      1639 1.42141E+02 1.01250E+00 0.00000E+00
 -1      1640 1.41783E+02 2.02500E+00 0.00000E+00
 -1      1641 1.46641E+02 1.01250E+00 0.00000E+00
 -1      1642 1.45141E+02 1.01250E+00 0.00000E+00
 -1      1643 1.44783E+02 2.02500E+00 0.00000E+00
 -1      1644 1.48500E+02 1.47500E+00 0.00000E+00
 -1      1645 1.48701E+02 5.16250E+00 0.00000E+00
 -1      1646 1.48701E+02 3.68750E+00 0.00000E+00
 -1      1647 1.48701E+02 8.11250E+00 0.00000E+00
 -1      1648 1.48701E+02 6.63750E+00 0.00000E+00
 -1      1649 1.47402E+02 5.90000E+00 0.00000E+00
 -1      1650 1.48701E+02 1.10625E+01 0.00000E+00
 -1      1651 1.48701E+02 9.58750E+00 0.00000E+00
 -1      1652 1.47402E+02 8.85000E+00 0.00000E+00
 -1      1653 1.48701E+02 1.40125E+01 0.00000E+00
 -1      1654 1.48701E+02 1.25375E+01 0.00000E+00
 -1      1655 1.47402E+02 1.18000E+01 0.00000E+00
 -1      1656 1.48701E+02 1.69125E+01 0.00000E+00
 -1      1657 1.48701E+02 1.54625E+01 0.00000E+00
 -1      1658 1.47402E+02 1.47250E+01 0.00000E+00
 -1      1659 1.48701E+02 1.98625E+01 0.00000E+00
 -1      1660 1.48701E+02 1.83875E+01 0.00000E+00
 -1      1661 1.47402E+02 1.76500E+01 0.00000E+00
 -1      1662 1.48701E+02 2.28125E+01 0.00000E+00
 -1      1663 1.48701E+02 2.13375E+01 0.00000E+00
 -1      1664 1.47402E+02 2.06000E+01 0.00000E+00
 -1      1665 1.48701E+02 2.57625E+01 0.00000E+00
 -1      1666 1.48701E+02 2.42875E+01 0.00000E+00
 -1      1667 1.47402E+02 2.35500E+01 0.00000E+00
 -1      1668 1.48701E+02 2.87125E+01 0.00000E+00
 -1      1669 1.48701E+02 2.72375E+01 0.00000E+00
 -1      1670 1.47402E+02 2.65000E+01 0.00000E+00
 -1      1671 1.48701E+02 3.16625E+01 0.00000E+00
 -1      1672 1.48701E+02 3.01875E+01 0.00000E+00
 -1      1673 1.47402E+02 2.94500E+01 0.00000E+00
 -1      1674 1.48701E+02 3.45625E+01 0.00000E+00
 -1      1675 1.48701E+02 3.31125E+01 0.00000E+00
 -1      1676 1.47402E+02 3.23750E+01 0.00000E+00
 -1      1677 1.48701E+02 3.75125E+01 0.00000E+00
 -1      1678 1.48701E+02 3.60375E+01 0.00000E+00
 -1      1679 1.47402E+02 3.53000E+01 0.00000E+00
 -1      1680 1.48701E+02 4.04625E+01 0.00000E+00
 -1      1681 1.48701E+02 3.89875E+01 0.00000E+00
 -1      1682 1.47402E+02 3.82500E+01 0.00000E+00
 -1      1683 1.48701E+02 4.34125E+01 0.00000E+00
 -1      1684 1.48701E+02 4.19375E+01 0.00000E+00
 -1      1685 1.47402E+02 4.12000E+01 0.00000E+00
 -1      1686 1.48263E+02 4.60692E+01 0.00000E+00
 -1      1687 1.48263E+02 4.45942E+01 0.00000E+00
 -1      1688 1.46964E+02 4.38568E+01 0.00000E+00
 -1      1689 1.46088E+02 4.62202E+01 0.00000E+00
 -1      1690 2.05288E+01 1.56774E+01 0.00000E+00
 -1      1691 2.06297E+01 1.65118E+01 0.00000E+00
 -1      1692 1.99781E+01 1.40711E+01 0.00000E+00
 -1      1693 2.02334E+01 1.47751E+01 0.00000E+00
 -1      1694 1.91899E+01 1.25096E+01 0.00000E+00
 -1      1695 1.96342E+01 1.31989E+01 0.00000E+00
 -1      1696 1.79954E+01 1.13611E+01 0.00000E+00
 -1      1697 1.85167E+01 1.18730E+01 0.00000E+00
 -1      1698 1.67186E+01 1.04413E+01 0.00000E+00
 -1      1699 1.73303E+01 1.08316E+01 0.00000E+00
 -1      1700 1.52688E+01 9.80279E+00 0.00000E+00
 -1      1701 1.59560E+01 1.00607E+01 0.00000E+00
 -1      1702 1.36633E+01 9.43461E+00 0.00000E+00
 -1      1703 1.44245E+01 9.54487E+00 0.00000E+00
 -1      1704 1.18373E+01 9.40760E+00 0.00000E+00
 -1      1705 1.26953E+01 9.33049E+00 0.00000E+00
 -1      1706 1.01377E+01 9.98944E+00 0.00000E+00
 -1      1707 1.08982E+01 9.73062E+00 0.00000E+00
 -1      1708 8.51416E+00 1.07861E+01 0.00000E+00
 -1      1709 9.22737E+00 1.03351E+01 0.00000E+00
 -1      1710 7.12008E+00 1.19346E+01 0.00000E+00
 -1      1711 7.68703E+00 1.13492E+01 0.00000E+00
 -1      1712 6.25690E+00 1.33868E+01 0.00000E+00
 -1      1713 6.64464E+00 1.27484E+01 0.00000E+00
 -1      1714 5.49201E+00 1.49753E+01 0.00000E+00
 -1      1715 5.75241E+00 1.41909E+01 0.00000E+00
 -1      1716 5.38608E+00 1.66151E+01 0.00000E+00
 -1      1717 5.45736E+00 1.59055E+01 0.00000E+00
 -1      1718 5.39965E+00 1.82665E+01 0.00000E+00
 -1      1719 5.31190E+00 1.74944E+01 0.00000E+00
 -1      1720 5.92030E+00 1.98312E+01 0.00000E+00
 -1      1721 5.67734E+00 1.91249E+01 0.00000E+00
 -1      1722 6.63863E+00 2.14138E+01 0.00000E+00
 -1      1723 6.20824E+00 2.07199E+01 0.00000E+00
 -1      1724 7.79932E+00 2.26257E+01 0.00000E+00
 -1      1725 7.27608E+00 2.20954E+01 0.00000E+00
 -1      1726 9.12234E+00 2.35525E+01 0.00000E+00
 -1      1727 8.50108E+00 2.31462E+01 0.00000E+00
 -1      1728 1.05893E+01 2.42574E+01 0.00000E+00
 -1      1729 9.88537E+00 2.39883E+01 0.00000E+00
 -1      1730 1.21831E+01 2.45951E+01 0.00000E+00
 -1      1731 1.14448E+01 2.44833E+01 0.00000E+00
 -1      1732 1.38906E+01 2.46142E+01 0.00000E+00
 -1      1733 1.30956E+01 2.46704E+01 0.00000E+00
 -1      1734 1.54570E+01 2.41685E+01 0.00000E+00
 -1      1735 1.47604E+01 2.43754E+01 0.00000E+00
 -1      1736 1.69718E+01 2.34847E+01 0.00000E+00
 -1      1737 1.62879E+01 2.38624E+01 0.00000E+00
 -1      1738 1.81453E+01 2.25429E+01 0.00000E+00
 -1      1739 1.76457E+01 2.29729E+01 0.00000E+00
 -1      1740 1.90827E+01 2.14815E+01 0.00000E+00
 -1      1741 1.86768E+01 2.19912E+01 0.00000E+00
 -1      1742 1.98050E+01 2.02658E+01 0.00000E+00
 -1      1743 1.95000E+01 2.08433E+01 0.00000E+00
 -1      1744 2.02934E+01 1.89171E+01 0.00000E+00
 -1      1745 2.00985E+01 1.95534E+01 0.00000E+00
 -1      1746 2.05628E+01 1.74334E+01 0.00000E+00
 -1      1747 2.04916E+01 1.81356E+01 0.00000E+00
 -1      1748 1.10891E+00 1.85125E+01 0.00000E+00
 -1      1749 1.10891E+00 1.97375E+01 0.00000E+00
 -1      1750 1.80156E+01 1.06550E+01 0.00000E+00
 -1      1751 1.93540E+01 1.18212E+01 0.00000E+00
 -1      1752 1.47201E+02 2.21250E+00 0.00000E+00
 -1      1753 2.10104E+01 1.51044E+01 0.00000E+00
 -1      1754 2.03711E+01 1.33300E+01 0.00000E+00
 -1      1755 2.12389E+01 1.69283E+01 0.00000E+00
 -1      1756 1.65879E+01 9.74478E+00 0.00000E+00
 -1      1757 1.49811E+01 9.10626E+00 0.00000E+00
 -1      1758 1.31688E+01 8.74422E+00 0.00000E+00
 -1      1759 1.12617E+01 8.96313E+00 0.00000E+00
 -1      1760 9.41232E+00 9.63179E+00 0.00000E+00
 -1      1761 7.67485E+00 1.05405E+01 0.00000E+00
 -1      1762 6.37228E+00 1.19174E+01 0.00000E+00
 -1      1763 5.39234E+00 1.35352E+01 0.00000E+00
 -1      1764 4.85320E+00 1.52695E+01 0.00000E+00
 -1      1765 4.74438E+00 1.70790E+01 0.00000E+00
 -1      1766 4.94789E+00 1.88168E+01 0.00000E+00
 -1      1767 5.51352E+00 2.05639E+01 0.00000E+00
 -1      1768 6.43891E+00 2.21342E+01 0.00000E+00
 -1      1769 7.77813E+00 2.33362E+01 0.00000E+00
 -1      1770 9.24292E+00 2.42924E+01 0.00000E+00
 -1      1771 1.08614E+01 2.49541E+01 0.00000E+00
 -1      1772 1.26293E+01 2.52553E+01 0.00000E+00
 -1      1773 1.44115E+01 2.50918E+01 0.00000E+00
 -1      1774 1.61122E+01 2.45470E+01 0.00000E+00
 -1      1775 1.76171E+01 2.37291E+01 0.00000E+00
 -1      1776 1.88225E+01 2.26656E+01 0.00000E+00
 -1      1777 1.97713E+01 2.14758E+01 0.00000E+00
 -1      1778 2.04821E+01 2.01252E+01 0.00000E+00
 -1      1779 2.09738E+01 1.86313E+01 0.00000E+00
 -1      1780 2.40791E+00 2.05000E+01 0.00000E+00
 -1      1781 1.69110E+00 4.67793E+01 0.00000E+00
 -1      1782 3.26610E+00 4.83043E+01 0.00000E+00
 -1      1783 1.96646E+00 1.79875E+01 0.00000E+00
 -1      1784 3.89700E+00 4.00875E+01 0.00000E+00
 -1      1785 3.89700E+00 4.16125E+01 0.00000E+00
 -1      1786 3.89700E+00 4.31375E+01 0.00000E+00
 -1      1787 3.89700E+00 4.46625E+01 0.00000E+00
 -1      1788 5.19600E+00 4.23750E+01 0.00000E+00
 -1      1789 3.89700E+00 3.39875E+01 0.00000E+00
 -1      1790 3.89700E+00 3.55125E+01 0.00000E+00
 -1      1791 3.89700E+00 3.09375E+01 0.00000E+00
 -1      1792 3.89700E+00 3.24625E+01 0.00000E+00
 -1      1793 5.19600E+00 3.32250E+01 0.00000E+00
 -1      1794 3.89700E+00 2.81375E+01 0.00000E+00
 -1      1795 3.89700E+00 2.95375E+01 0.00000E+00
 -1      1796 5.19600E+00 3.03000E+01 0.00000E+00
 -1      1797 3.62312E+00 2.25625E+01 0.00000E+00
 -1      1798 3.62312E+00 2.39375E+01 0.00000E+00
 -1      1799 4.01610E+00 4.70053E+01 0.00000E+00
 -1      1800 2.57266E+00 1.27750E+01 0.00000E+00
 -1      1801 2.57266E+00 1.39250E+01 0.00000E+00
 -1      1802 1.81389E+01 9.81760E+00 0.00000E+00
 -1      1803 1.88041E+01 1.03472E+01 0.00000E+00
 -1      1804 2.74023E+00 7.77500E+00 0.00000E+00
 -1      1805 2.74023E+00 9.12500E+00 0.00000E+00
 -1      1806 2.82401E+00 4.81250E+00 0.00000E+00
 -1      1807 2.82401E+00 6.33750E+00 0.00000E+00
 -1      1808 3.52015E+00 2.91250E+00 0.00000E+00
 -1      1809 3.16142E+00 3.92500E+00 0.00000E+00
 -1      1810 4.27033E+00 4.68750E+00 0.00000E+00
 -1      1811 4.94515E+00 2.91250E+00 0.00000E+00
 -1      1812 7.64514E+00 2.91250E+00 0.00000E+00
 -1      1813 6.29515E+00 2.91250E+00 0.00000E+00
 -1      1814 5.95774E+00 3.80000E+00 0.00000E+00
 -1      1815 8.40000E+00 4.61030E+01 0.00000E+00
 -1      1816 9.90000E+00 4.61030E+01 0.00000E+00
 -1      1817 1.14000E+01 4.61030E+01 0.00000E+00
 -1      1818 1.29000E+01 4.61030E+01 0.00000E+00
 -1      1819 1.06500E+01 4.48040E+01 0.00000E+00
 -1      1820 1.44000E+01 4.61030E+01 0.00000E+00
 -1      1821 1.59000E+01 4.61030E+01 0.00000E+00
 -1      1822 1.36500E+01 4.48040E+01 0.00000E+00
 -1      1823 1.74000E+01 4.61030E+01 0.00000E+00
 -1      1824 1.89000E+01 4.61030E+01 0.00000E+00
 -1      1825 1.66500E+01 4.48040E+01 0.00000E+00
 -1      1826 2.04000E+01 4.61030E+01 0.00000E+00
 -1      1827 2.19000E+01 4.61030E+01 0.00000E+00
 -1      1828 1.96500E+01 4.48040E+01 0.00000E+00
 -1      1829 2.34000E+01 4.61030E+01 0.00000E+00
 -1      1830 2.49000E+01 4.61030E+01 0.00000E+00
 -1      1831 2.26500E+01 4.48040E+01 0.00000E+00
 -1      1832 2.64000E+01 4.61030E+01 0.00000E+00
 -1      1833 2.79000E+01 4.61030E+01 0.00000E+00
 -1      1834 2.56500E+01 4.48040E+01 0.00000E+00
 -1      1835 2.94000E+01 4.61030E+01 0.00000E+00
 -1      1836 3.09000E+01 4.61030E+01 0.00000E+00
 -1      1837 2.86500E+01 4.48040E+01 0.00000E+00
 -1      1838 3.24000E+01 4.61030E+01 0.00000E+00
 -1      1839 3.39000E+01 4.61030E+01 0.00000E+00
 -1      1840 3.16500E+01 4.48040E+01 0.00000E+00
 -1      1841 3.54000E+01 4.61030E+01 0.00000E+00
 -1      1842 3.69000E+01 4.61030E+01 0.00000E+00
 -1      1843 3.46500E+01 4.48040E+01 0.00000E+00
 -1      1844 3.84000E+01 4.61030E+01 0.00000E+00
 -1      1845 3.99000E+01 4.61030E+01 0.00000E+00
 -1      1846 3.76500E+01 4.48040E+01 0.00000E+00
 -1      1847 4.14000E+01 4.61030E+01 0.00000E+00
 -1      1848 4.29000E+01 4.61030E+01 0.00000E+00
 -1      1849 4.06500E+01 4.48040E+01 0.00000E+00
 -1      1850 4.44000E+01 4.61030E+01 0.00000E+00
 -1      1851 4.59000E+01 4.61030E+01 0.00000E+00
 -1      1852 4.36500E+01 4.48040E+01 0.00000E+00
 -1      1853 4.74000E+01 4.61030E+01 0.00000E+00
 -1      1854 4.89000E+01 4.61030E+01 0.00000E+00
 -1      1855 4.66500E+01 4.48040E+01 0.00000E+00
 -1      1856 5.04000E+01 4.61030E+01 0.00000E+00
 -1      1857 5.19000E+01 4.61030E+01 0.00000E+00
 -1      1858 4.96500E+01 4.48040E+01 0.00000E+00
 -1      1859 5.34000E+01 4.61030E+01 0.00000E+00
 -1      1860 5.49000E+01 4.61030E+01 0.00000E+00
 -1      1861 5.26500E+01 4.48040E+01 0.00000E+00
 -1      1862 5.64000E+01 4.61030E+01 0.00000E+00
 -1      1863 5.79000E+01 4.61030E+01 0.00000E+00
 -1      1864 5.56500E+01 4.48040E+01 0.00000E+00
 -1      1865 5.94000E+01 4.61030E+01 0.00000E+00
 -1      1866 6.09000E+01 4.61030E+01 0.00000E+00
 -1      1867 5.86500E+01 4.48040E+01 0.00000E+00
 -1      1868 6.24000E+01 4.61030E+01 0.00000E+00
 -1      1869 6.39000E+01 4.61030E+01 0.00000E+00
 -1      1870 6.16500E+01 4.48040E+01 0.00000E+00
 -1      1871 6.54000E+01 4.61030E+01 0.00000E+00
 -1      1872 6.69000E+01 4.61030E+01 0.00000E+00
 -1      1873 6.46500E+01 4.48040E+01 0.00000E+00
 -1      1874 6.84000E+01 4.61030E+01 0.00000E+00
 -1      1875 6.99000E+01 4.61030E+01 0.00000E+00
 -1      1876 6.76500E+01 4.48040E+01 0.00000E+00
 -1      1877 7.14000E+01 4.61030E+01 0.00000E+00
 -1      1878 7.29000E+01 4.61030E+01 0.00000E+00
 -1      1879 7.06500E+01 4.48040E+01 0.00000E+00
 -1      1880 7.44000E+01 4.61030E+01 0.00000E+00
 -1      1881 7.59000E+01 4.61030E+01 0.00000E+00
 -1      1882 7.36500E+01 4.48040E+01 0.00000E+00
 -1      1883 7.74000E+01 4.61030E+01 0.00000E+00
 -1      1884 7.89000E+01 4.61030E+01 0.00000E+00
 -1      1885 7.66500E+01 4.48040E+01 0.00000E+00
 -1      1886 8.04000E+01 4.61030E+01 0.00000E+00
 -1      1887 8.19000E+01 4.61030E+01 0.00000E+00
 -1      1888 7.96500E+01 4.48040E+01 0.00000E+00
 -1      1889 8.34000E+01 4.61030E+01 0.00000E+00
 -1      1890 8.49000E+01 4.61030E+01 0.00000E+00
 -1      1891 8.26500E+01 4.48040E+01 0.00000E+00
 -1      1892 8.64000E+01 4.61030E+01 0.00000E+00
 -1      1893 8.79000E+01 4.61030E+01 0.00000E+00
 -1      1894 8.56500E+01 4.48040E+01 0.00000E+00
 -1      1895 8.94000E+01 4.61030E+01 0.00000E+00
 -1      1896 9.09000E+01 4.61030E+01 0.00000E+00
 -1      1897 8.86500E+01 4.48040E+01 0.00000E+00
 -1      1898 9.24000E+01 4.61030E+01 0.00000E+00
 -1      1899 9.39000E+01 4.61030E+01 0.00000E+00
 -1      1900 9.16500E+01 4.48040E+01 0.00000E+00
 -1      1901 9.54000E+01 4.61030E+01 0.00000E+00
 -1      1902 9.69000E+01 4.61030E+01 0.00000E+00
 -1      1903 9.46500E+01 4.48040E+01 0.00000E+00
 -1      1904 9.84000E+01 4.61030E+01 0.00000E+00
 -1      1905 9.99000E+01 4.61030E+01 0.00000E+00
 -1      1906 9.76500E+01 4.48040E+01 0.00000E+00
 -1      1907 1.01400E+02 4.61030E+01 0.00000E+00
 -1      1908 1.02900E+02 4.61030E+01 0.00000E+00
 -1      1909 1.00650E+02 4.48040E+01 0.00000E+00
 -1      1910 1.04400E+02 4.61030E+01 0.00000E+00
 -1      1911 1.05900E+02 4.61030E+01 0.00000E+00
 -1      1912 1.03650E+02 4.48040E+01 0.00000E+00
 -1      1913 1.07400E+02 4.61030E+01 0.00000E+00
 -1      1914 1.08900E+02 4.61030E+01 0.00000E+00
 -1      1915 1.06650E+02 4.48040E+01 0.00000E+00
 -1      1916 1.10400E+02 4.61030E+01 0.00000E+00
 -1      1917 1.11900E+02 4.61030E+01 0.00000E+00
 -1      1918 1.09650E+02 4.48040E+01 0.00000E+00
 -1      1919 1.13400E+02 4.61030E+01 0.00000E+00
 -1      1920 1.14900E+02 4.61030E+01 0.00000E+00
 -1      1921 1.12650E+02 4.48040E+01 0.00000E+00
 -1      1922 1.16400E+02 4.61030E+01 0.00000E+00
 -1      1923 1.17900E+02 4.61030E+01 0.00000E+00
 -1      1924 1.15650E+02 4.48040E+01 0.00000E+00
 -1      1925 1.19400E+02 4.61030E+01 0.00000E+00
 -1      1926 1.20900E+02 4.61030E+01 0.00000E+00
 -1      1927 1.18650E+02 4.48040E+01 0.00000E+00
 -1      1928 1.22400E+02 4.61030E+01 0.00000E+00
 -1      1929 1.23900E+02 4.61030E+01 0.00000E+00
 -1      1930 1.21650E+02 4.48040E+01 0.00000E+00
 -1      1931 1.25400E+02 4.61030E+01 0.00000E+00
 -1      1932 1.26900E+02 4.61030E+01 0.00000E+00
 -1      1933 1.24650E+02 4.48040E+01 0.00000E+00
 -1      1934 1.28400E+02 4.61030E+01 0.00000E+00
 -1      1935 1.29900E+02 4.61030E+01 0.00000E+00
 -1      1936 1.27650E+02 4.48040E+01 0.00000E+00
 -1      1937 1.31400E+02 4.61030E+01 0.00000E+00
 -1      1938 1.32900E+02 4.61030E+01 0.00000E+00
 -1      1939 1.30650E+02 4.48040E+01 0.00000E+00
 -1      1940 1.34400E+02 4.61030E+01 0.00000E+00
 -1      1941 1.35900E+02 4.61030E+01 0.00000E+00
 -1      1942 1.33650E+02 4.48040E+01 0.00000E+00
 -1      1943 1.37400E+02 4.61030E+01 0.00000E+00
 -1      1944 1.38900E+02 4.61030E+01 0.00000E+00
 -1      1945 1.36650E+02 4.48040E+01 0.00000E+00
 -1      1946 1.40400E+02 4.61030E+01 0.00000E+00
 -1      1947 1.41900E+02 4.61030E+01 0.00000E+00
 -1      1948 1.39650E+02 4.48040E+01 0.00000E+00
 -1      1949 1.43244E+02 4.61616E+01 0.00000E+00
 -1      1950 1.44744E+02 4.61616E+01 0.00000E+00
 -1      1951 1.45182E+02 4.49799E+01 0.00000E+00
 -1      1952 1.42494E+02 4.48626E+01 0.00000E+00
 -1      1953 1.04951E+01 2.91250E+00 0.00000E+00
 -1      1954 9.07015E+00 2.91250E+00 0.00000E+00
 -1      1955 8.73274E+00 3.80000E+00 0.00000E+00
 -1      1956 1.34951E+01 2.91250E+00 0.00000E+00
 -1      1957 1.19951E+01 2.91250E+00 0.00000E+00
 -1      1958 1.16577E+01 3.80000E+00 0.00000E+00
 -1      1959 1.64951E+01 2.91250E+00 0.00000E+00
 -1      1960 1.49951E+01 2.91250E+00 0.00000E+00
 -1      1961 1.46577E+01 3.80000E+00 0.00000E+00
 -1      1962 1.94951E+01 2.91250E+00 0.00000E+00
 -1      1963 1.79951E+01 2.91250E+00 0.00000E+00
 -1      1964 1.76577E+01 3.80000E+00 0.00000E+00
 -1      1965 2.24951E+01 2.91250E+00 0.00000E+00
 -1      1966 2.09951E+01 2.91250E+00 0.00000E+00
 -1      1967 2.06577E+01 3.80000E+00 0.00000E+00
 -1      1968 2.56451E+01 2.91250E+00 0.00000E+00
 -1      1969 2.40701E+01 2.91250E+00 0.00000E+00
 -1      1970 2.37327E+01 3.80000E+00 0.00000E+00
 -1      1971 2.86451E+01 2.91250E+00 0.00000E+00
 -1      1972 2.71451E+01 2.91250E+00 0.00000E+00
 -1      1973 2.68077E+01 3.80000E+00 0.00000E+00
 -1      1974 3.16451E+01 2.91250E+00 0.00000E+00
 -1      1975 3.01451E+01 2.91250E+00 0.00000E+00
 -1      1976 2.98077E+01 3.80000E+00 0.00000E+00
 -1      1977 3.46451E+01 2.91250E+00 0.00000E+00
 -1      1978 3.31451E+01 2.91250E+00 0.00000E+00
 -1      1979 3.28077E+01 3.80000E+00 0.00000E+00
 -1      1980 3.76451E+01 2.91250E+00 0.00000E+00
 -1      1981 3.61451E+01 2.91250E+00 0.00000E+00
 -1      1982 3.58077E+01 3.80000E+00 0.00000E+00
 -1      1983 4.06451E+01 2.91250E+00 0.00000E+00
 -1      1984 3.91451E+01 2.91250E+00 0.00000E+00
 -1      1985 3.88077E+01 3.80000E+00 0.00000E+00
 -1      1986 4.36451E+01 2.91250E+00 0.00000E+00
 -1      1987 4.21451E+01 2.91250E+00 0.00000E+00
 -1      1988 4.18077E+01 3.80000E+00 0.00000E+00
 -1      1989 4.66451E+01 2.91250E+00 0.00000E+00
 -1      1990 4.51451E+01 2.91250E+00 0.00000E+00
 -1      1991 4.48077E+01 3.80000E+00 0.00000E+00
 -1      1992 4.96451E+01 2.91250E+00 0.00000E+00
 -1      1993 4.81451E+01 2.91250E+00 0.00000E+00
 -1      1994 4.78077E+01 3.80000E+00 0.00000E+00
 -1      1995 5.26451E+01 2.91250E+00 0.00000E+00
 -1      1996 5.11451E+01 2.91250E+00 0.00000E+00
 -1      1997 5.08077E+01 3.80000E+00 0.00000E+00
 -1      1998 5.56451E+01 2.91250E+00 0.00000E+00
 -1      1999 5.41451E+01 2.91250E+00 0.00000E+00
 -1      2000 5.38077E+01 3.80000E+00 0.00000E+00
 -1      2001 5.86451E+01 2.91250E+00 0.00000E+00
 -1      2002 5.71451E+01 2.91250E+00 0.00000E+00
 -1      2003 5.68077E+01 3.80000E+00 0.00000E+00
 -1      2004 6.16451E+01 2.91250E+00 0.00000E+00
 -1      2005 6.01451E+01 2.91250E+00 0.00000E+00
 -1      2006 5.98077E+01 3.80000E+00 0.00000E+00
 -1      2007 6.46451E+01 2.91250E+00 0.00000E+00
 -1      2008 6.31451E+01 2.91250E+00 0.00000E+00
 -1      2009 6.28077E+01 3.80000E+00 0.00000E+00
 -1      2010 6.77951E+01 2.91250E+00 0.00000E+00
 -1      2011 6.62201E+01 2.91250E+00 0.00000E+00
 -1      2012 6.58827E+01 3.80000E+00 0.00000E+00
 -1      2013 7.07951E+01 2.91250E+00 0.00000E+00
 -1      2014 6.92951E+01 2.91250E+00 0.00000E+00
 -1      2015 6.89577E+01 3.80000E+00 0.00000E+00
 -1      2016 7.37951E+01 2.91250E+00 0.00000E+00
 -1      2017 7.22951E+01 2.91250E+00 0.00000E+00
 -1      2018 7.19577E+01 3.80000E+00 0.00000E+00
 -1      2019 7.67951E+01 2.91250E+00 0.00000E+00
 -1      2020 7.52951E+01 2.91250E+00 0.00000E+00
 -1      2021 7.49577E+01 3.80000E+00 0.00000E+00
 -1      2022 7.97951E+01 2.91250E+00 0.00000E+00
 -1      2023 7.82951E+01 2.91250E+00 0.00000E+00
 -1      2024 7.79577E+01 3.80000E+00 0.00000E+00
 -1      2025 8.27951E+01 2.91250E+00 0.00000E+00
 -1      2026 8.12951E+01 2.91250E+00 0.00000E+00
 -1      2027 8.09577E+01 3.80000E+00 0.00000E+00
 -1      2028 8.57951E+01 2.91250E+00 0.00000E+00
 -1      2029 8.42951E+01 2.91250E+00 0.00000E+00
 -1      2030 8.39577E+01 3.80000E+00 0.00000E+00
 -1      2031 8.87951E+01 2.91250E+00 0.00000E+00
 -1      2032 8.72951E+01 2.91250E+00 0.00000E+00
 -1      2033 8.69577E+01 3.80000E+00 0.00000E+00
 -1      2034 9.17951E+01 2.91250E+00 0.00000E+00
 -1      2035 9.02951E+01 2.91250E+00 0.00000E+00
 -1      2036 8.99577E+01 3.80000E+00 0.00000E+00
 -1      2037 9.47951E+01 2.91250E+00 0.00000E+00
 -1      2038 9.32951E+01 2.91250E+00 0.00000E+00
 -1      2039 9.29577E+01 3.80000E+00 0.00000E+00
 -1      2040 9.77951E+01 2.91250E+00 0.00000E+00
 -1      2041 9.62951E+01 2.91250E+00 0.00000E+00
 -1      2042 9.59577E+01 3.80000E+00 0.00000E+00
 -1      2043 1.00795E+02 2.91250E+00 0.00000E+00
 -1      2044 9.92951E+01 2.91250E+00 0.00000E+00
 -1      2045 9.89577E+01 3.80000E+00 0.00000E+00
 -1      2046 1.03795E+02 2.91250E+00 0.00000E+00
 -1      2047 1.02295E+02 2.91250E+00 0.00000E+00
 -1      2048 1.01958E+02 3.80000E+00 0.00000E+00
 -1      2049 1.06795E+02 2.91250E+00 0.00000E+00
 -1      2050 1.05295E+02 2.91250E+00 0.00000E+00
 -1      2051 1.04958E+02 3.80000E+00 0.00000E+00
 -1      2052 1.09945E+02 2.91250E+00 0.00000E+00
 -1      2053 1.08370E+02 2.91250E+00 0.00000E+00
 -1      2054 1.08033E+02 3.80000E+00 0.00000E+00
 -1      2055 1.12945E+02 2.91250E+00 0.00000E+00
 -1      2056 1.11445E+02 2.91250E+00 0.00000E+00
 -1      2057 1.11108E+02 3.80000E+00 0.00000E+00
 -1      2058 1.15945E+02 2.91250E+00 0.00000E+00
 -1      2059 1.14445E+02 2.91250E+00 0.00000E+00
 -1      2060 1.14108E+02 3.80000E+00 0.00000E+00
 -1      2061 1.18945E+02 2.91250E+00 0.00000E+00
 -1      2062 1.17445E+02 2.91250E+00 0.00000E+00
 -1      2063 1.17108E+02 3.80000E+00 0.00000E+00
 -1      2064 1.21945E+02 2.91250E+00 0.00000E+00
 -1      2065 1.20445E+02 2.91250E+00 0.00000E+00
 -1      2066 1.20108E+02 3.80000E+00 0.00000E+00
 -1      2067 1.24945E+02 2.91250E+00 0.00000E+00
 -1      2068 1.23445E+02 2.91250E+00 0.00000E+00
 -1      2069 1.23108E+02 3.80000E+00 0.00000E+00
 -1      2070 1.27945E+02 2.91250E+00 0.00000E+00
 -1      2071 1.26445E+02 2.91250E+00 0.00000E+00
 -1      2072 1.26108E+02 3.80000E+00 0.00000E+00
 -1      2073 1.30945E+02 2.91250E+00 0.00000E+00
 -1      2074 1.29445E+02 2.91250E+00 0.00000E+00
 -1      2075 1.29108E+02 3.80000E+00 0.00000E+00
 -1      2076 1.33945E+02 2.91250E+00 0.00000E+00
 -1      2077 1.32445E+02 2.91250E+00 0.00000E+00
 -1      2078 1.32108E+02 3.80000E+00 0.00000E+00
 -1      2079 1.36945E+02 2.91250E+00 0.00000E+00
 -1      2080 1.35445E+02 2.91250E+00 0.00000E+00
 -1      2081 1.35108E+02 3.80000E+00 0.00000E+00
 -1      2082 1.39945E+02 2.91250E+00 0.00000E+00
 -1      2083 1.38445E+02 2.91250E+00 0.00000E+00
 -1      2084 1.38108E+02 3.80000E+00 0.00000E+00
 -1      2085 1.42945E+02 2.91250E+00 0.00000E+00
 -1      2086 1.41445E+02 2.91250E+00 0.00000E+00
 -1      2087 1.41108E+02 3.80000E+00 0.00000E+00
 -1      2088 1.46103E+02 1.25375E+01 0.00000E+00
 -1      2089 1.46103E+02 1.10625E+01 0.00000E+00
 -1      2090 1.46103E+02 9.58750E+00 0.00000E+00
 -1      2091 1.46103E+02 8.11250E+00 0.00000E+00
 -1      2092 1.44804E+02 1.03250E+01 0.00000E+00
 -1      2093 2.14786E+01 1.44516E+01 0.00000E+00
 -1      2094 2.17740E+01 1.53539E+01 0.00000E+00
 -1      2095 1.46103E+02 6.63750E+00 0.00000E+00
 -1      2096 1.46103E+02 5.16250E+00 0.00000E+00
 -1      2097 1.44804E+02 7.37500E+00 0.00000E+00
 -1      2098 1.46103E+02 1.54375E+01 0.00000E+00
 -1      2099 1.46103E+02 1.39875E+01 0.00000E+00
 -1      2100 1.44804E+02 1.32500E+01 0.00000E+00
 -1      2101 1.46103E+02 1.83875E+01 0.00000E+00
 -1      2102 1.46103E+02 1.69125E+01 0.00000E+00
 -1      2103 1.44804E+02 1.61750E+01 0.00000E+00
 -1      2104 1.46103E+02 2.13375E+01 0.00000E+00
 -1      2105 1.46103E+02 1.98625E+01 0.00000E+00
 -1      2106 1.44804E+02 1.91250E+01 0.00000E+00
 -1      2107 1.46103E+02 2.42875E+01 0.00000E+00
 -1      2108 1.46103E+02 2.28125E+01 0.00000E+00
 -1      2109 1.44804E+02 2.20750E+01 0.00000E+00
 -1      2110 1.46103E+02 2.72375E+01 0.00000E+00
 -1      2111 1.46103E+02 2.57625E+01 0.00000E+00
 -1      2112 1.44804E+02 2.50250E+01 0.00000E+00
 -1      2113 1.46103E+02 3.01875E+01 0.00000E+00
 -1      2114 1.46103E+02 2.87125E+01 0.00000E+00
 -1      2115 1.44804E+02 2.79750E+01 0.00000E+00
 -1      2116 1.46103E+02 3.30875E+01 0.00000E+00
 -1      2117 1.46103E+02 3.16375E+01 0.00000E+00
 -1      2118 1.44804E+02 3.09000E+01 0.00000E+00
 -1      2119 1.46103E+02 3.60375E+01 0.00000E+00
 -1      2120 1.46103E+02 3.45625E+01 0.00000E+00
 -1      2121 1.44804E+02 3.38250E+01 0.00000E+00
 -1      2122 1.46103E+02 3.89875E+01 0.00000E+00
 -1      2123 1.46103E+02 3.75125E+01 0.00000E+00
 -1      2124 1.44804E+02 3.67750E+01 0.00000E+00
 -1      2125 1.46103E+02 4.19375E+01 0.00000E+00
 -1      2126 1.46103E+02 4.04625E+01 0.00000E+00
 -1      2127 1.44804E+02 3.97250E+01 0.00000E+00
 -1      2128 2.09190E+01 1.26100E+01 0.00000E+00
 -1      2129 2.12629E+01 1.34822E+01 0.00000E+00
 -1      2130 2.20023E+01 1.65205E+01 0.00000E+00
 -1      2131 2.19354E+01 1.74421E+01 0.00000E+00
 -1      2132 1.94773E+01 1.09838E+01 0.00000E+00
 -1      2133 2.01505E+01 1.16204E+01 0.00000E+00
 -1      2134 1.96006E+01 1.01464E+01 0.00000E+00
 -1      2135 3.89700E+00 3.70375E+01 0.00000E+00
 -1      2136 3.89700E+00 3.85625E+01 0.00000E+00
 -1      2137 5.19600E+00 3.62750E+01 0.00000E+00
 -1      2138 2.74023E+00 1.03250E+01 0.00000E+00
 -1      2139 2.74023E+00 1.15250E+01 0.00000E+00
 -1      2140 3.76535E+00 9.65000E+00 0.00000E+00
 -1      2141 1.47483E+01 8.35749E+00 0.00000E+00
 -1      2142 1.55926E+01 8.61541E+00 0.00000E+00
 -1      2143 1.27630E+01 7.96449E+00 0.00000E+00
 -1      2144 1.37311E+01 8.06860E+00 0.00000E+00
 -1      2145 1.05269E+01 8.35334E+00 0.00000E+00
 -1      2146 1.14659E+01 8.03032E+00 0.00000E+00
 -1      2147 8.70619E+00 9.04460E+00 0.00000E+00
 -1      2148 9.61653E+00 8.69897E+00 0.00000E+00
 -1      2149 9.82073E+00 7.76616E+00 0.00000E+00
 -1      2150 6.84943E+00 1.02170E+01 0.00000E+00
 -1      2151 7.67656E+00 9.65396E+00 0.00000E+00
 -1      2152 5.57497E+00 1.19974E+01 0.00000E+00
 -1      2153 6.05041E+00 1.11835E+01 0.00000E+00
 -1      2154 4.59111E+00 1.35928E+01 0.00000E+00
 -1      2155 5.09561E+00 1.27888E+01 0.00000E+00
 -1      2156 4.10450E+00 1.57074E+01 0.00000E+00
 -1      2157 4.13915E+00 1.47772E+01 0.00000E+00
 -1      2158 4.39039E+00 1.94713E+01 0.00000E+00
 -1      2159 4.11270E+00 1.86128E+01 0.00000E+00
 -1      2160 6.28430E+00 2.29177E+01 0.00000E+00
 -1      2161 5.64685E+00 2.22361E+01 0.00000E+00
 -1      2162 7.71798E+00 2.41506E+01 0.00000E+00
 -1      2163 7.01622E+00 2.36302E+01 0.00000E+00
 -1      2164 9.19915E+00 2.52550E+01 0.00000E+00
 -1      2165 8.43612E+00 2.48192E+01 0.00000E+00
 -1      2166 1.11023E+01 2.57747E+01 0.00000E+00
 -1      2167 1.02468E+01 2.55488E+01 0.00000E+00
 -1      2168 1.30082E+01 2.62311E+01 0.00000E+00
 -1      2169 1.20957E+01 2.61558E+01 0.00000E+00
 -1      2170 1.50512E+01 2.57186E+01 0.00000E+00
 -1      2171 1.41815E+01 2.59573E+01 0.00000E+00
 -1      2172 1.67131E+01 2.51064E+01 0.00000E+00
 -1      2173 1.58822E+01 2.54125E+01 0.00000E+00
 -1      2174 1.56521E+01 2.62780E+01 0.00000E+00
 -1      2175 1.83713E+01 2.40227E+01 0.00000E+00
 -1      2176 1.76974E+01 2.45345E+01 0.00000E+00
 -1      2177 1.95851E+01 2.28685E+01 0.00000E+00
 -1      2178 1.90536E+01 2.34202E+01 0.00000E+00
 -1      2179 2.06275E+01 2.15802E+01 0.00000E+00
 -1      2180 2.02102E+01 2.22184E+01 0.00000E+00
 -1      2181 2.12668E+01 2.00318E+01 0.00000E+00
 -1      2182 2.09733E+01 2.07443E+01 0.00000E+00
 -1      2183 2.17011E+01 1.83999E+01 0.00000E+00
 -1      2184 2.15029E+01 1.91814E+01 0.00000E+00
 -1      2185 1.65148E+01 8.93712E+00 0.00000E+00
 -1      2186 1.72773E+01 9.31771E+00 0.00000E+00
 -1      2187 3.62313E+00 2.53125E+01 0.00000E+00
 -1      2188 3.62313E+00 2.66875E+01 0.00000E+00
 -1      2189 3.59778E+00 1.21000E+01 0.00000E+00
 -1      2190 5.19600E+00 3.93250E+01 0.00000E+00
 -1      2191 1.62820E+01 8.18835E+00 0.00000E+00
 -1      2192 2.55278E+00 1.48575E+01 0.00000E+00
 -1      2193 2.55278E+00 1.60325E+01 0.00000E+00
 -1      2194 3.84914E+00 7.01250E+00 0.00000E+00
 -1      2195 3.41033E+00 1.42825E+01 0.00000E+00
 -1      2196 6.42300E+00 4.56510E+01 0.00000E+00
 -1      2197 7.17300E+00 4.43520E+01 0.00000E+00
 -1      2198 4.92300E+00 4.56510E+01 0.00000E+00
 -1      2199 2.99010E+00 4.60168E+01 0.00000E+00
 -1      2200 4.64825E+00 2.46250E+01 0.00000E+00
 -1      2201 2.29387E+01 1.52149E+01 0.00000E+00
 -1      2202 2.24705E+01 1.58677E+01 0.00000E+00
 -1      2203 2.31670E+01 1.63815E+01 0.00000E+00
 -1      2204 1.45533E+02 3.32400E+00 0.00000E+00
 -1      2205 1.44033E+02 3.32400E+00 0.00000E+00
 -1      2206 3.45432E+00 1.64387E+01 0.00000E+00
 -1      2207 2.61664E+00 1.72562E+01 0.00000E+00
 -1      2208 2.86800E+00 1.83937E+01 0.00000E+00
 -1      2209 4.16837E+00 1.69310E+01 0.00000E+00
 -1      2210 2.20265E+01 1.37317E+01 0.00000E+00
 -1      2211 1.45665E+02 4.31193E+01 0.00000E+00
 -1      2212 2.10423E+01 1.17727E+01 0.00000E+00
 -1      2213 2.19340E+01 1.19250E+01 0.00000E+00
 -1      2214 2.11655E+01 1.09353E+01 0.00000E+00
 -1      2215 2.24645E+01 1.79921E+01 0.00000E+00
 -1      2216 2.19941E+01 1.98004E+01 0.00000E+00
 -1      2217 2.14122E+01 2.14868E+01 0.00000E+00
 -1      2218 2.04414E+01 2.29729E+01 0.00000E+00
 -1      2219 1.74674E+01 2.54000E+01 0.00000E+00
 -1      2220 1.36479E+01 2.68579E+01 0.00000E+00
 -1      2221 1.14811E+01 2.67505E+01 0.00000E+00
 -1      2222 9.44005E+00 2.60756E+01 0.00000E+00
 -1      2223 7.67422E+00 2.51132E+01 0.00000E+00
 -1      2224 6.22416E+00 2.37321E+01 0.00000E+00
 -1      2225 4.77374E+00 1.20549E+01 0.00000E+00
 -1      2226 7.88077E+00 8.72114E+00 0.00000E+00
 -1      2227 1.20282E+01 7.35470E+00 0.00000E+00
 -1      2228 1.43695E+02 4.21150E+00 0.00000E+00
 -1      2229 1.80658E+01 9.00994E+00 0.00000E+00
 -1      2230 1.43426E+01 7.57775E+00 0.00000E+00
 -1      2231 6.05212E+00 1.02970E+01 0.00000E+00
 -1      2232 3.53669E+00 1.84648E+01 0.00000E+00
 -1      2233 4.09419E+00 1.78104E+01 0.00000E+00
 -1      2234 4.84169E+00 2.12726E+01 0.00000E+00
 -1      2235 4.55375E+00 2.03839E+01 0.00000E+00
 -1      2236 1.91340E+01 2.42256E+01 0.00000E+00
 -1      2237 3.04987E+00 2.01088E+01 0.00000E+00
 -1      2238 3.23996E+00 2.14838E+01 0.00000E+00
 -1      2239 4.92213E+00 2.74500E+01 0.00000E+00
 -1      2240 4.28910E+00 4.52543E+01 0.00000E+00
 -1      2241 4.68708E+00 2.20561E+01 0.00000E+00
 -1      2242 6.38870E+00 2.96000E+01 0.00000E+00
 -1      2243 6.38870E+00 3.10000E+01 0.00000E+00
 -1      2244 6.38870E+00 3.25250E+01 0.00000E+00
 -1      2245 6.38870E+00 3.40500E+01 0.00000E+00
 -1      2246 7.58139E+00 3.18250E+01 0.00000E+00
 -1      2247 4.26508E+00 2.21713E+01 0.00000E+00
 -1      2248 6.49500E+00 3.85625E+01 0.00000E+00
 -1      2249 6.49500E+00 4.00875E+01 0.00000E+00
 -1      2250 7.17300E+00 4.28270E+01 0.00000E+00
 -1      2251 9.15000E+00 4.32790E+01 0.00000E+00
 -1      2252 7.17300E+00 4.13020E+01 0.00000E+00
 -1      2253 4.83078E+00 6.34852E+00 0.00000E+00
 -1      2254 4.74699E+00 7.78602E+00 0.00000E+00
 -1      2255 5.56296E+00 4.63051E+00 0.00000E+00
 -1      2256 5.22555E+00 5.51801E+00 0.00000E+00
 -1      2257 6.12341E+00 6.29153E+00 0.00000E+00
 -1      2258 6.91296E+00 4.63051E+00 0.00000E+00
 -1      2259 1.06500E+01 4.32790E+01 0.00000E+00
 -1      2260 3.71856E+00 2.01799E+01 0.00000E+00
 -1      2261 1.29000E+01 4.35050E+01 0.00000E+00
 -1      2262 1.44000E+01 4.35050E+01 0.00000E+00
 -1      2263 1.59000E+01 4.35050E+01 0.00000E+00
 -1      2264 1.74000E+01 4.35050E+01 0.00000E+00
 -1      2265 1.51500E+01 4.22060E+01 0.00000E+00
 -1      2266 1.89000E+01 4.35050E+01 0.00000E+00
 -1      2267 2.04000E+01 4.35050E+01 0.00000E+00
 -1      2268 1.81500E+01 4.22060E+01 0.00000E+00
 -1      2269 2.19000E+01 4.35050E+01 0.00000E+00
 -1      2270 2.34000E+01 4.35050E+01 0.00000E+00
 -1      2271 2.11500E+01 4.22060E+01 0.00000E+00
 -1      2272 2.49000E+01 4.35050E+01 0.00000E+00
 -1      2273 2.64000E+01 4.35050E+01 0.00000E+00
 -1      2274 2.41500E+01 4.22060E+01 0.00000E+00
 -1      2275 2.79000E+01 4.35050E+01 0.00000E+00
 -1      2276 2.94000E+01 4.35050E+01 0.00000E+00
 -1      2277 2.71500E+01 4.22060E+01 0.00000E+00
 -1      2278 3.09000E+01 4.35050E+01 0.00000E+00
 -1      2279 3.24000E+01 4.35050E+01 0.00000E+00
 -1      2280 3.01500E+01 4.22060E+01 0.00000E+00
 -1      2281 3.39000E+01 4.35050E+01 0.00000E+00
 -1      2282 3.54000E+01 4.35050E+01 0.00000E+00
 -1      2283 3.31500E+01 4.22060E+01 0.00000E+00
 -1      2284 3.69000E+01 4.35050E+01 0.00000E+00
 -1      2285 3.84000E+01 4.35050E+01 0.00000E+00
 -1      2286 3.61500E+01 4.22060E+01 0.00000E+00
 -1      2287 3.99000E+01 4.35050E+01 0.00000E+00
 -1      2288 4.14000E+01 4.35050E+01 0.00000E+00
 -1      2289 3.91500E+01 4.22060E+01 0.00000E+00
 -1      2290 4.29000E+01 4.35050E+01 0.00000E+00
 -1      2291 4.44000E+01 4.35050E+01 0.00000E+00
 -1      2292 4.21500E+01 4.22060E+01 0.00000E+00
 -1      2293 4.59000E+01 4.35050E+01 0.00000E+00
 -1      2294 4.74000E+01 4.35050E+01 0.00000E+00
 -1      2295 4.51500E+01 4.22060E+01 0.00000E+00
 -1      2296 4.89000E+01 4.35050E+01 0.00000E+00
 -1      2297 5.04000E+01 4.35050E+01 0.00000E+00
 -1      2298 4.81500E+01 4.22060E+01 0.00000E+00
 -1      2299 5.19000E+01 4.35050E+01 0.00000E+00
 -1      2300 5.34000E+01 4.35050E+01 0.00000E+00
 -1      2301 5.11500E+01 4.22060E+01 0.00000E+00
 -1      2302 5.49000E+01 4.35050E+01 0.00000E+00
 -1      2303 5.64000E+01 4.35050E+01 0.00000E+00
 -1      2304 5.41500E+01 4.22060E+01 0.00000E+00
 -1      2305 5.79000E+01 4.35050E+01 0.00000E+00
 -1      2306 5.94000E+01 4.35050E+01 0.00000E+00
 -1      2307 5.71500E+01 4.22060E+01 0.00000E+00
 -1      2308 6.09000E+01 4.35050E+01 0.00000E+00
 -1      2309 6.24000E+01 4.35050E+01 0.00000E+00
 -1      2310 6.01500E+01 4.22060E+01 0.00000E+00
 -1      2311 6.39000E+01 4.35050E+01 0.00000E+00
 -1      2312 6.54000E+01 4.35050E+01 0.00000E+00
 -1      2313 6.31500E+01 4.22060E+01 0.00000E+00
 -1      2314 6.69000E+01 4.35050E+01 0.00000E+00
 -1      2315 6.84000E+01 4.35050E+01 0.00000E+00
 -1      2316 6.61500E+01 4.22060E+01 0.00000E+00
 -1      2317 6.99000E+01 4.35050E+01 0.00000E+00
 -1      2318 7.14000E+01 4.35050E+01 0.00000E+00
 -1      2319 6.91500E+01 4.22060E+01 0.00000E+00
 -1      2320 7.29000E+01 4.35050E+01 0.00000E+00
 -1      2321 7.44000E+01 4.35050E+01 0.00000E+00
 -1      2322 7.21500E+01 4.22060E+01 0.00000E+00
 -1      2323 7.59000E+01 4.35050E+01 0.00000E+00
 -1      2324 7.74000E+01 4.35050E+01 0.00000E+00
 -1      2325 7.51500E+01 4.22060E+01 0.00000E+00
 -1      2326 7.89000E+01 4.35050E+01 0.00000E+00
 -1      2327 8.04000E+01 4.35050E+01 0.00000E+00
 -1      2328 7.81500E+01 4.22060E+01 0.00000E+00
 -1      2329 8.19000E+01 4.35050E+01 0.00000E+00
 -1      2330 8.34000E+01 4.35050E+01 0.00000E+00
 -1      2331 8.11500E+01 4.22060E+01 0.00000E+00
 -1      2332 8.49000E+01 4.35050E+01 0.00000E+00
 -1      2333 8.64000E+01 4.35050E+01 0.00000E+00
 -1      2334 8.41500E+01 4.22060E+01 0.00000E+00
 -1      2335 8.79000E+01 4.35050E+01 0.00000E+00
 -1      2336 8.94000E+01 4.35050E+01 0.00000E+00
 -1      2337 8.71500E+01 4.22060E+01 0.00000E+00
 -1      2338 9.09000E+01 4.35050E+01 0.00000E+00
 -1      2339 9.24000E+01 4.35050E+01 0.00000E+00
 -1      2340 9.01500E+01 4.22060E+01 0.00000E+00
 -1      2341 9.39000E+01 4.35050E+01 0.00000E+00
 -1      2342 9.54000E+01 4.35050E+01 0.00000E+00
 -1      2343 9.31500E+01 4.22060E+01 0.00000E+00
 -1      2344 9.69000E+01 4.35050E+01 0.00000E+00
 -1      2345 9.84000E+01 4.35050E+01 0.00000E+00
 -1      2346 9.61500E+01 4.22060E+01 0.00000E+00
 -1      2347 9.99000E+01 4.35050E+01 0.00000E+00
 -1      2348 1.01400E+02 4.35050E+01 0.00000E+00
 -1      2349 9.91500E+01 4.22060E+01 0.00000E+00
 -1      2350 1.02900E+02 4.35050E+01 0.00000E+00
 -1      2351 1.04400E+02 4.35050E+01 0.00000E+00
 -1      2352 1.02150E+02 4.22060E+01 0.00000E+00
 -1      2353 1.05900E+02 4.35050E+01 0.00000E+00
 -1      2354 1.07400E+02 4.35050E+01 0.00000E+00
 -1      2355 1.05150E+02 4.22060E+01 0.00000E+00
 -1      2356 1.08900E+02 4.35050E+01 0.00000E+00
 -1      2357 1.10400E+02 4.35050E+01 0.00000E+00
 -1      2358 1.08150E+02 4.22060E+01 0.00000E+00
 -1      2359 1.11900E+02 4.35050E+01 0.00000E+00
 -1      2360 1.13400E+02 4.35050E+01 0.00000E+00
 -1      2361 1.11150E+02 4.22060E+01 0.00000E+00
 -1      2362 1.14900E+02 4.35050E+01 0.00000E+00
 -1      2363 1.16400E+02 4.35050E+01 0.00000E+00
 -1      2364 1.14150E+02 4.22060E+01 0.00000E+00
 -1      2365 1.17900E+02 4.35050E+01 0.00000E+00
 -1      2366 1.19400E+02 4.35050E+01 0.00000E+00
 -1      2367 1.17150E+02 4.22060E+01 0.00000E+00
 -1      2368 1.20900E+02 4.35050E+01 0.00000E+00
 -1      2369 1.22400E+02 4.35050E+01 0.00000E+00
 -1      2370 1.20150E+02 4.22060E+01 0.00000E+00
 -1      2371 1.23900E+02 4.35050E+01 0.00000E+00
 -1      2372 1.25400E+02 4.35050E+01 0.00000E+00
 -1      2373 1.23150E+02 4.22060E+01 0.00000E+00
 -1      2374 1.26900E+02 4.35050E+01 0.00000E+00
 -1      2375 1.28400E+02 4.35050E+01 0.00000E+00
 -1      2376 1.26150E+02 4.22060E+01 0.00000E+00
 -1      2377 1.29900E+02 4.35050E+01 0.00000E+00
 -1      2378 1.31400E+02 4.35050E+01 0.00000E+00
 -1      2379 1.29150E+02 4.22060E+01 0.00000E+00
 -1      2380 1.32900E+02 4.35050E+01 0.00000E+00
 -1      2381 1.34400E+02 4.35050E+01 0.00000E+00
 -1      2382 1.32150E+02 4.22060E+01 0.00000E+00
 -1      2383 1.35900E+02 4.35050E+01 0.00000E+00
 -1      2384 1.37400E+02 4.35050E+01 0.00000E+00
 -1      2385 1.35150E+02 4.22060E+01 0.00000E+00
 -1      2386 1.38900E+02 4.35050E+01 0.00000E+00
 -1      2387 1.40400E+02 4.35050E+01 0.00000E+00
 -1      2388 1.38150E+02 4.22060E+01 0.00000E+00
 -1      2389 1.43505E+02 1.10625E+01 0.00000E+00
 -1      2390 1.43505E+02 9.58750E+00 0.00000E+00
 -1      2391 1.84077E+01 4.74134E+00 0.00000E+00
 -1      2392 1.69077E+01 4.74134E+00 0.00000E+00
 -1      2393 2.14077E+01 4.90891E+00 0.00000E+00
 -1      2394 1.99077E+01 4.90891E+00 0.00000E+00
 -1      2395 2.45202E+01 5.07648E+00 0.00000E+00
 -1      2396 2.29452E+01 5.07648E+00 0.00000E+00
 -1      2397 2.75202E+01 5.07648E+00 0.00000E+00
 -1      2398 2.60202E+01 5.07648E+00 0.00000E+00
 -1      2399 2.52327E+01 6.35296E+00 0.00000E+00
 -1      2400 3.05202E+01 5.07648E+00 0.00000E+00
 -1      2401 2.90202E+01 5.07648E+00 0.00000E+00
 -1      2402 2.82327E+01 6.35296E+00 0.00000E+00
 -1      2403 3.35202E+01 5.07648E+00 0.00000E+00
 -1      2404 3.20202E+01 5.07648E+00 0.00000E+00
 -1      2405 3.12327E+01 6.35296E+00 0.00000E+00
 -1      2406 3.65202E+01 5.07648E+00 0.00000E+00
 -1      2407 3.50202E+01 5.07648E+00 0.00000E+00
 -1      2408 3.42327E+01 6.35296E+00 0.00000E+00
 -1      2409 3.95202E+01 5.07648E+00 0.00000E+00
 -1      2410 3.80202E+01 5.07648E+00 0.00000E+00
 -1      2411 3.72327E+01 6.35296E+00 0.00000E+00
 -1      2412 4.25202E+01 5.07648E+00 0.00000E+00
 -1      2413 4.10202E+01 5.07648E+00 0.00000E+00
 -1      2414 4.02327E+01 6.35296E+00 0.00000E+00
 -1      2415 4.55202E+01 5.07648E+00 0.00000E+00
 -1      2416 4.40202E+01 5.07648E+00 0.00000E+00
 -1      2417 4.32327E+01 6.35296E+00 0.00000E+00
 -1      2418 4.85202E+01 5.07648E+00 0.00000E+00
 -1      2419 4.70202E+01 5.07648E+00 0.00000E+00
 -1      2420 4.62327E+01 6.35296E+00 0.00000E+00
 -1      2421 5.15202E+01 5.07648E+00 0.00000E+00
 -1      2422 5.00202E+01 5.07648E+00 0.00000E+00
 -1      2423 4.92327E+01 6.35296E+00 0.00000E+00
 -1      2424 5.45202E+01 5.07648E+00 0.00000E+00
 -1      2425 5.30202E+01 5.07648E+00 0.00000E+00
 -1      2426 5.22327E+01 6.35296E+00 0.00000E+00
 -1      2427 5.75202E+01 5.07648E+00 0.00000E+00
 -1      2428 5.60202E+01 5.07648E+00 0.00000E+00
 -1      2429 5.52327E+01 6.35296E+00 0.00000E+00
 -1      2430 6.05202E+01 5.07648E+00 0.00000E+00
 -1      2431 5.90202E+01 5.07648E+00 0.00000E+00
 -1      2432 5.82327E+01 6.35296E+00 0.00000E+00
 -1      2433 6.35202E+01 5.07648E+00 0.00000E+00
 -1      2434 6.20202E+01 5.07648E+00 0.00000E+00
 -1      2435 6.12327E+01 6.35296E+00 0.00000E+00
 -1      2436 6.66702E+01 5.07648E+00 0.00000E+00
 -1      2437 6.50952E+01 5.07648E+00 0.00000E+00
 -1      2438 6.43077E+01 6.35296E+00 0.00000E+00
 -1      2439 6.96702E+01 5.07648E+00 0.00000E+00
 -1      2440 6.81702E+01 5.07648E+00 0.00000E+00
 -1      2441 6.73827E+01 6.35296E+00 0.00000E+00
 -1      2442 7.26702E+01 5.07648E+00 0.00000E+00
 -1      2443 7.11702E+01 5.07648E+00 0.00000E+00
 -1      2444 7.03827E+01 6.35296E+00 0.00000E+00
 -1      2445 7.56702E+01 5.07648E+00 0.00000E+00
 -1      2446 7.41702E+01 5.07648E+00 0.00000E+00
 -1      2447 7.33827E+01 6.35296E+00 0.00000E+00
 -1      2448 7.86702E+01 5.07648E+00 0.00000E+00
 -1      2449 7.71702E+01 5.07648E+00 0.00000E+00
 -1      2450 7.63827E+01 6.35296E+00 0.00000E+00
 -1      2451 8.16702E+01 5.07648E+00 0.00000E+00
 -1      2452 8.01702E+01 5.07648E+00 0.00000E+00
 -1      2453 7.93827E+01 6.35296E+00 0.00000E+00
 -1      2454 8.46702E+01 5.07648E+00 0.00000E+00
 -1      2455 8.31702E+01 5.07648E+00 0.00000E+00
 -1      2456 8.23827E+01 6.35296E+00 0.00000E+00
 -1      2457 8.76702E+01 5.07648E+00 0.00000E+00
 -1      2458 8.61702E+01 5.07648E+00 0.00000E+00
 -1      2459 8.53827E+01 6.35296E+00 0.00000E+00
 -1      2460 9.06702E+01 5.07648E+00 0.00000E+00
 -1      2461 8.91702E+01 5.07648E+00 0.00000E+00
 -1      2462 8.83827E+01 6.35296E+00 0.00000E+00
 -1      2463 9.36702E+01 5.07648E+00 0.00000E+00
 -1      2464 9.21702E+01 5.07648E+00 0.00000E+00
 -1      2465 9.13827E+01 6.35296E+00 0.00000E+00
 -1      2466 9.66702E+01 5.07648E+00 0.00000E+00
 -1      2467 9.51702E+01 5.07648E+00 0.00000E+00
 -1      2468 9.43827E+01 6.35296E+00 0.00000E+00
 -1      2469 9.96702E+01 5.07648E+00 0.00000E+00
 -1      2470 9.81702E+01 5.07648E+00 0.00000E+00
 -1      2471 9.73827E+01 6.35296E+00 0.00000E+00
 -1      2472 1.02670E+02 5.07648E+00 0.00000E+00
 -1      2473 1.01170E+02 5.07648E+00 0.00000E+00
 -1      2474 1.00383E+02 6.35296E+00 0.00000E+00
 -1      2475 1.05670E+02 5.07648E+00 0.00000E+00
 -1      2476 1.04170E+02 5.07648E+00 0.00000E+00
 -1      2477 1.03383E+02 6.35296E+00 0.00000E+00
 -1      2478 1.08820E+02 5.07648E+00 0.00000E+00
 -1      2479 1.07245E+02 5.07648E+00 0.00000E+00
 -1      2480 1.06458E+02 6.35296E+00 0.00000E+00
 -1      2481 1.11820E+02 5.07648E+00 0.00000E+00
 -1      2482 1.10320E+02 5.07648E+00 0.00000E+00
 -1      2483 1.09533E+02 6.35296E+00 0.00000E+00
 -1      2484 1.14820E+02 5.07648E+00 0.00000E+00
 -1      2485 1.13320E+02 5.07648E+00 0.00000E+00
 -1      2486 1.12533E+02 6.35296E+00 0.00000E+00
 -1      2487 1.17820E+02 5.07648E+00 0.00000E+00
 -1      2488 1.16320E+02 5.07648E+00 0.00000E+00
 -1      2489 1.15533E+02 6.35296E+00 0.00000E+00
 -1      2490 1.20820E+02 5.07648E+00 0.00000E+00
 -1      2491 1.19320E+02 5.07648E+00 0.00000E+00
 -1      2492 1.18533E+02 6.35296E+00 0.00000E+00
 -1      2493 1.23820E+02 5.07648E+00 0.00000E+00
 -1      2494 1.22320E+02 5.07648E+00 0.00000E+00
 -1      2495 1.21533E+02 6.35296E+00 0.00000E+00
 -1      2496 1.26820E+02 5.07648E+00 0.00000E+00
 -1      2497 1.25320E+02 5.07648E+00 0.00000E+00
 -1      2498 1.24533E+02 6.35296E+00 0.00000E+00
 -1      2499 1.29820E+02 5.07648E+00 0.00000E+00
 -1      2500 1.28320E+02 5.07648E+00 0.00000E+00
 -1      2501 1.27533E+02 6.35296E+00 0.00000E+00
 -1      2502 1.32820E+02 5.07648E+00 0.00000E+00
 -1      2503 1.31320E+02 5.07648E+00 0.00000E+00
 -1      2504 1.30533E+02 6.35296E+00 0.00000E+00
 -1      2505 1.35820E+02 5.07648E+00 0.00000E+00
 -1      2506 1.34320E+02 5.07648E+00 0.00000E+00
 -1      2507 1.33533E+02 6.35296E+00 0.00000E+00
 -1      2508 1.38820E+02 5.07648E+00 0.00000E+00
 -1      2509 1.37320E+02 5.07648E+00 0.00000E+00
 -1      2510 1.36533E+02 6.35296E+00 0.00000E+00
 -1      2511 1.41820E+02 5.07648E+00 0.00000E+00
 -1      2512 1.40320E+02 5.07648E+00 0.00000E+00
 -1      2513 1.39533E+02 6.35296E+00 0.00000E+00
 -1      2514 1.80443E+01 8.05448E+00 0.00000E+00
 -1      2515 1.89059E+01 8.55437E+00 0.00000E+00
 -1      2516 1.43505E+02 1.69125E+01 0.00000E+00
 -1      2517 1.43505E+02 1.54375E+01 0.00000E+00
 -1      2518 2.88651E+00 1.91962E+01 0.00000E+00
 -1      2519 1.43505E+02 1.39750E+01 0.00000E+00
 -1      2520 1.43505E+02 1.25250E+01 0.00000E+00
 -1      2521 1.42206E+02 1.17875E+01 0.00000E+00
 -1      2522 1.42206E+02 1.47125E+01 0.00000E+00
 -1      2523 1.43505E+02 1.98625E+01 0.00000E+00
 -1      2524 1.43505E+02 1.83875E+01 0.00000E+00
 -1      2525 1.42206E+02 1.76500E+01 0.00000E+00
 -1      2526 1.43505E+02 2.28125E+01 0.00000E+00
 -1      2527 1.43505E+02 2.13375E+01 0.00000E+00
 -1      2528 1.42206E+02 2.06000E+01 0.00000E+00
 -1      2529 1.43505E+02 2.57625E+01 0.00000E+00
 -1      2530 1.43505E+02 2.42875E+01 0.00000E+00
 -1      2531 1.42206E+02 2.35500E+01 0.00000E+00
 -1      2532 1.43505E+02 2.87125E+01 0.00000E+00
 -1      2533 1.43505E+02 2.72375E+01 0.00000E+00
 -1      2534 1.42206E+02 2.65000E+01 0.00000E+00
 -1      2535 1.43505E+02 3.16125E+01 0.00000E+00
 -1      2536 1.43505E+02 3.01625E+01 0.00000E+00
 -1      2537 1.42206E+02 2.94250E+01 0.00000E+00
 -1      2538 1.43505E+02 3.45625E+01 0.00000E+00
 -1      2539 1.43505E+02 3.30875E+01 0.00000E+00
 -1      2540 1.42206E+02 3.23500E+01 0.00000E+00
 -1      2541 1.43505E+02 3.75125E+01 0.00000E+00
 -1      2542 1.43505E+02 3.60375E+01 0.00000E+00
 -1      2543 1.42206E+02 3.53000E+01 0.00000E+00
 -1      2544 1.43505E+02 4.04625E+01 0.00000E+00
 -1      2545 1.43505E+02 3.89875E+01 0.00000E+00
 -1      2546 1.42206E+02 3.82500E+01 0.00000E+00
 -1      2547 1.44321E+02 4.30606E+01 0.00000E+00
 -1      2548 1.54077E+01 4.90891E+00 0.00000E+00
 -1      2549 1.39077E+01 4.90891E+00 0.00000E+00
 -1      2550 2.29384E+01 1.96046E+01 0.00000E+00
 -1      2551 2.27023E+01 2.04550E+01 0.00000E+00
 -1      2552 2.34071E+01 1.76889E+01 0.00000E+00
 -1      2553 2.31728E+01 1.86467E+01 0.00000E+00
 -1      2554 2.38810E+01 1.93014E+01 0.00000E+00
 -1      2555 6.44185E+00 3.55438E+01 0.00000E+00
 -1      2556 6.44185E+00 3.70687E+01 0.00000E+00
 -1      2557 7.74085E+00 3.78312E+01 0.00000E+00
 -1      2558 7.63454E+00 3.48438E+01 0.00000E+00
 -1      2559 1.44484E+01 2.76377E+01 0.00000E+00
 -1      2560 1.32751E+01 2.79114E+01 0.00000E+00
 -1      2561 2.26330E+01 1.30880E+01 0.00000E+00
 -1      2562 2.28488E+01 1.40574E+01 0.00000E+00
 -1      2563 4.15903E+00 1.38446E+01 0.00000E+00
 -1      2564 3.86229E+00 1.30982E+01 0.00000E+00
 -1      2565 1.13362E+01 6.53116E+00 0.00000E+00
 -1      2566 1.26333E+01 6.46533E+00 0.00000E+00
 -1      2567 1.97956E+01 9.26593E+00 0.00000E+00
 -1      2568 2.04688E+01 9.90254E+00 0.00000E+00
 -1      2569 1.25495E+01 4.72090E+00 0.00000E+00
 -1      2570 1.10495E+01 4.72090E+00 0.00000E+00
 -1      2571 5.05624E+00 1.02873E+01 0.00000E+00
 -1      2572 5.85527E+00 9.32074E+00 0.00000E+00
 -1      2573 9.07605E+00 7.17642E+00 0.00000E+00
 -1      2574 9.98638E+00 6.83079E+00 0.00000E+00
 -1      2575 6.97187E+00 8.35993E+00 0.00000E+00
 -1      2576 8.00149E+00 7.75057E+00 0.00000E+00
 -1      2577 2.00428E+01 2.45671E+01 0.00000E+00
 -1      2578 1.93604E+01 2.51696E+01 0.00000E+00
 -1      2579 7.44894E+00 2.60751E+01 0.00000E+00
 -1      2580 6.73081E+00 2.54066E+01 0.00000E+00
 -1      2581 9.73236E+00 2.70482E+01 0.00000E+00
 -1      2582 8.68467E+00 2.67544E+01 0.00000E+00
 -1      2583 1.17192E+01 2.78104E+01 0.00000E+00
 -1      2584 1.07258E+01 2.74293E+01 0.00000E+00
 -1      2585 9.97038E+00 2.81081E+01 0.00000E+00
 -1      2586 1.63640E+01 2.69297E+01 0.00000E+00
 -1      2587 1.55331E+01 2.72358E+01 0.00000E+00
 -1      2588 1.83483E+01 2.57831E+01 0.00000E+00
 -1      2589 1.73640E+01 2.63550E+01 0.00000E+00
 -1      2590 2.12929E+01 2.32668E+01 0.00000E+00
 -1      2591 2.06679E+01 2.39170E+01 0.00000E+00
 -1      2592 2.08943E+01 2.48610E+01 0.00000E+00
 -1      2593 2.22614E+01 2.13486E+01 0.00000E+00
 -1      2594 2.19157E+01 2.21845E+01 0.00000E+00
 -1      2595 1.39915E+01 6.65334E+00 0.00000E+00
 -1      2596 1.50088E+01 6.94223E+00 0.00000E+00
 -1      2597 5.57689E+00 2.61843E+01 0.00000E+00
 -1      2598 5.85077E+00 2.76343E+01 0.00000E+00
 -1      2599 1.60620E+01 7.33646E+00 0.00000E+00
 -1      2600 1.69842E+01 7.65817E+00 0.00000E+00
 -1      2601 1.33202E+01 2.93701E+01 0.00000E+00
 -1      2602 1.25197E+01 2.85903E+01 0.00000E+00
 -1      2603 1.17643E+01 2.92691E+01 0.00000E+00
 -1      2604 1.51603E+01 2.82894E+01 0.00000E+00
 -1      2605 8.47200E+00 4.05395E+01 0.00000E+00
 -1      2606 1.72449E+01 2.73127E+01 0.00000E+00
 -1      2607 1.91577E+01 5.85025E+00 0.00000E+00
 -1      2608 2.21952E+01 6.18539E+00 0.00000E+00
 -1      2609 1.14000E+01 4.19800E+01 0.00000E+00
 -1      2610 1.32995E+01 5.82981E+00 0.00000E+00
 -1      2611 1.41619E+02 8.33898E+00 0.00000E+00
 -1      2612 1.42918E+02 7.60148E+00 0.00000E+00
 -1      2613 2.35453E+01 1.45712E+01 0.00000E+00
 -1      2614 1.97742E+01 8.31047E+00 0.00000E+00
 -1      2615 1.78243E+01 7.20260E+00 0.00000E+00
 -1      2616 1.46842E+02 3.22500E+00 0.00000E+00
 -1      2617 1.46092E+02 4.52400E+00 0.00000E+00
 -1      2618 1.92570E+01 2.61246E+01 0.00000E+00
 -1      2619 2.38753E+01 1.70361E+01 0.00000E+00
 -1      2620 2.45835E+01 1.76907E+01 0.00000E+00
 -1      2621 2.43435E+01 1.63833E+01 0.00000E+00
 -1      2622 1.44793E+02 5.26150E+00 0.00000E+00
 -1      2623 1.42758E+02 4.35929E+01 0.00000E+00
 -1      2624 1.43241E+02 4.17323E+01 0.00000E+00
 -1      2625 1.41942E+02 4.09948E+01 0.00000E+00
 -1      2626 1.41414E+02 4.35342E+01 0.00000E+00
 -1      2627 2.13606E+01 1.00548E+01 0.00000E+00
 -1      2628 2.28796E+01 1.14133E+01 0.00000E+00
 -1      2629 2.27563E+01 1.22507E+01 0.00000E+00
 -1      2630 2.35786E+01 1.25764E+01 0.00000E+00
 -1      2631 2.32058E+01 2.11527E+01 0.00000E+00
 -1      2632 1.57109E+01 6.41205E+00 0.00000E+00
 -1      2633 5.80217E+00 2.52223E+01 0.00000E+00
 -1      2634 1.40664E+02 4.22352E+01 0.00000E+00
 -1      2635 7.74126E+00 2.70477E+01 0.00000E+00
 -1      2636 1.05915E+01 5.94142E+00 0.00000E+00
 -1      2637 9.69972E+00 5.02053E+00 0.00000E+00
 -1      2638 2.21421E+01 2.31286E+01 0.00000E+00
 -1      2639 1.42918E+02 6.12648E+00 0.00000E+00
 -1      2640 8.27472E+00 5.02053E+00 0.00000E+00
 -1      2641 5.97599E+00 8.35017E+00 0.00000E+00
 -1      2642 8.16714E+00 6.81521E+00 0.00000E+00
 -1      2643 4.31237E+00 8.88049E+00 0.00000E+00
 -1      2644 4.31237E+00 1.00805E+01 0.00000E+00
 -1      2645 1.42908E+02 5.48798E+00 0.00000E+00
 -1      2646 4.50923E+00 1.10568E+01 0.00000E+00
 -1      2647 7.08649E+00 2.83135E+01 0.00000E+00
 -1      2648 8.27919E+00 2.90135E+01 0.00000E+00
 -1      2649 4.02987E+00 1.18482E+01 0.00000E+00
 -1      2650 5.29401E+00 8.21651E+00 0.00000E+00
 -1      2651 5.07024E+00 2.31348E+01 0.00000E+00
 -1      2652 3.19827E+01 7.65196E+00 0.00000E+00
 -1      2653 3.04827E+01 7.65196E+00 0.00000E+00
 -1      2654 2.89827E+01 7.65196E+00 0.00000E+00
 -1      2655 2.74827E+01 7.65196E+00 0.00000E+00
 -1      2656 2.97327E+01 8.95096E+00 0.00000E+00
 -1      2657 1.44000E+01 4.09070E+01 0.00000E+00
 -1      2658 1.59000E+01 4.09070E+01 0.00000E+00
 -1      2659 8.69030E+00 3.10625E+01 0.00000E+00
 -1      2660 8.69030E+00 3.25875E+01 0.00000E+00
 -1      2661 1.82557E+01 2.79142E+01 0.00000E+00
 -1      2662 1.72558E+01 2.84889E+01 0.00000E+00
 -1      2663 1.40706E+02 1.03250E+01 0.00000E+00
 -1      2664 1.40119E+02 8.33898E+00 0.00000E+00
 -1      2665 1.38619E+02 8.33898E+00 0.00000E+00
 -1      2666 2.42717E+01 1.39325E+01 0.00000E+00
 -1      2667 2.43617E+01 1.50900E+01 0.00000E+00
 -1      2668 1.74000E+01 4.09070E+01 0.00000E+00
 -1      2669 1.89000E+01 4.09070E+01 0.00000E+00
 -1      2670 1.66500E+01 3.96080E+01 0.00000E+00
 -1      2671 2.04000E+01 4.09070E+01 0.00000E+00
 -1      2672 2.19000E+01 4.09070E+01 0.00000E+00
 -1      2673 1.96500E+01 3.96080E+01 0.00000E+00
 -1      2674 2.34000E+01 4.09070E+01 0.00000E+00
 -1      2675 2.49000E+01 4.09070E+01 0.00000E+00
 -1      2676 2.26500E+01 3.96080E+01 0.00000E+00
 -1      2677 2.64000E+01 4.09070E+01 0.00000E+00
 -1      2678 2.79000E+01 4.09070E+01 0.00000E+00
 -1      2679 2.56500E+01 3.96080E+01 0.00000E+00
 -1      2680 2.94000E+01 4.09070E+01 0.00000E+00
 -1      2681 3.09000E+01 4.09070E+01 0.00000E+00
 -1      2682 2.86500E+01 3.96080E+01 0.00000E+00
 -1      2683 3.24000E+01 4.09070E+01 0.00000E+00
 -1      2684 3.39000E+01 4.09070E+01 0.00000E+00
 -1      2685 3.16500E+01 3.96080E+01 0.00000E+00
 -1      2686 3.54000E+01 4.09070E+01 0.00000E+00
 -1      2687 3.69000E+01 4.09070E+01 0.00000E+00
 -1      2688 3.46500E+01 3.96080E+01 0.00000E+00
 -1      2689 3.84000E+01 4.09070E+01 0.00000E+00
 -1      2690 3.99000E+01 4.09070E+01 0.00000E+00
 -1      2691 3.76500E+01 3.96080E+01 0.00000E+00
 -1      2692 4.14000E+01 4.09070E+01 0.00000E+00
 -1      2693 4.29000E+01 4.09070E+01 0.00000E+00
 -1      2694 4.06500E+01 3.96080E+01 0.00000E+00
 -1      2695 4.44000E+01 4.09070E+01 0.00000E+00
 -1      2696 4.59000E+01 4.09070E+01 0.00000E+00
 -1      2697 4.36500E+01 3.96080E+01 0.00000E+00
 -1      2698 4.74000E+01 4.09070E+01 0.00000E+00
 -1      2699 4.89000E+01 4.09070E+01 0.00000E+00
 -1      2700 4.66500E+01 3.96080E+01 0.00000E+00
 -1      2701 5.04000E+01 4.09070E+01 0.00000E+00
 -1      2702 5.19000E+01 4.09070E+01 0.00000E+00
 -1      2703 4.96500E+01 3.96080E+01 0.00000E+00
 -1      2704 5.34000E+01 4.09070E+01 0.00000E+00
 -1      2705 5.49000E+01 4.09070E+01 0.00000E+00
 -1      2706 5.26500E+01 3.96080E+01 0.00000E+00
 -1      2707 5.64000E+01 4.09070E+01 0.00000E+00
 -1      2708 5.79000E+01 4.09070E+01 0.00000E+00
 -1      2709 5.56500E+01 3.96080E+01 0.00000E+00
 -1      2710 5.94000E+01 4.09070E+01 0.00000E+00
 -1      2711 6.09000E+01 4.09070E+01 0.00000E+00
 -1      2712 5.86500E+01 3.96080E+01 0.00000E+00
 -1      2713 6.24000E+01 4.09070E+01 0.00000E+00
 -1      2714 6.39000E+01 4.09070E+01 0.00000E+00
 -1      2715 6.16500E+01 3.96080E+01 0.00000E+00
 -1      2716 6.54000E+01 4.09070E+01 0.00000E+00
 -1      2717 6.69000E+01 4.09070E+01 0.00000E+00
 -1      2718 6.46500E+01 3.96080E+01 0.00000E+00
 -1      2719 6.84000E+01 4.09070E+01 0.00000E+00
 -1      2720 6.99000E+01 4.09070E+01 0.00000E+00
 -1      2721 6.76500E+01 3.96080E+01 0.00000E+00
 -1      2722 7.14000E+01 4.09070E+01 0.00000E+00
 -1      2723 7.29000E+01 4.09070E+01 0.00000E+00
 -1      2724 7.06500E+01 3.96080E+01 0.00000E+00
 -1      2725 7.44000E+01 4.09070E+01 0.00000E+00
 -1      2726 7.59000E+01 4.09070E+01 0.00000E+00
 -1      2727 7.36500E+01 3.96080E+01 0.00000E+00
 -1      2728 7.74000E+01 4.09070E+01 0.00000E+00
 -1      2729 7.89000E+01 4.09070E+01 0.00000E+00
 -1      2730 7.66500E+01 3.96080E+01 0.00000E+00
 -1      2731 8.04000E+01 4.09070E+01 0.00000E+00
 -1      2732 8.19000E+01 4.09070E+01 0.00000E+00
 -1      2733 7.96500E+01 3.96080E+01 0.00000E+00
 -1      2734 8.34000E+01 4.09070E+01 0.00000E+00
 -1      2735 8.49000E+01 4.09070E+01 0.00000E+00
 -1      2736 8.26500E+01 3.96080E+01 0.00000E+00
 -1      2737 8.64000E+01 4.09070E+01 0.00000E+00
 -1      2738 8.79000E+01 4.09070E+01 0.00000E+00
 -1      2739 8.56500E+01 3.96080E+01 0.00000E+00
 -1      2740 8.94000E+01 4.09070E+01 0.00000E+00
 -1      2741 9.09000E+01 4.09070E+01 0.00000E+00
 -1      2742 8.86500E+01 3.96080E+01 0.00000E+00
 -1      2743 9.24000E+01 4.09070E+01 0.00000E+00
 -1      2744 9.39000E+01 4.09070E+01 0.00000E+00
 -1      2745 9.16500E+01 3.96080E+01 0.00000E+00
 -1      2746 9.54000E+01 4.09070E+01 0.00000E+00
 -1      2747 9.69000E+01 4.09070E+01 0.00000E+00
 -1      2748 9.46500E+01 3.96080E+01 0.00000E+00
 -1      2749 9.84000E+01 4.09070E+01 0.00000E+00
 -1      2750 9.99000E+01 4.09070E+01 0.00000E+00
 -1      2751 9.76500E+01 3.96080E+01 0.00000E+00
 -1      2752 1.01400E+02 4.09070E+01 0.00000E+00
 -1      2753 1.02900E+02 4.09070E+01 0.00000E+00
 -1      2754 1.00650E+02 3.96080E+01 0.00000E+00
 -1      2755 1.04400E+02 4.09070E+01 0.00000E+00
 -1      2756 1.05900E+02 4.09070E+01 0.00000E+00
 -1      2757 1.03650E+02 3.96080E+01 0.00000E+00
 -1      2758 1.07400E+02 4.09070E+01 0.00000E+00
 -1      2759 1.08900E+02 4.09070E+01 0.00000E+00
 -1      2760 1.06650E+02 3.96080E+01 0.00000E+00
 -1      2761 1.10400E+02 4.09070E+01 0.00000E+00
 -1      2762 1.11900E+02 4.09070E+01 0.00000E+00
 -1      2763 1.09650E+02 3.96080E+01 0.00000E+00
 -1      2764 1.13400E+02 4.09070E+01 0.00000E+00
 -1      2765 1.14900E+02 4.09070E+01 0.00000E+00
 -1      2766 1.12650E+02 3.96080E+01 0.00000E+00
 -1      2767 1.16400E+02 4.09070E+01 0.00000E+00
 -1      2768 1.17900E+02 4.09070E+01 0.00000E+00
 -1      2769 1.15650E+02 3.96080E+01 0.00000E+00
 -1      2770 1.19400E+02 4.09070E+01 0.00000E+00
 -1      2771 1.20900E+02 4.09070E+01 0.00000E+00
 -1      2772 1.18650E+02 3.96080E+01 0.00000E+00
 -1      2773 1.22400E+02 4.09070E+01 0.00000E+00
 -1      2774 1.23900E+02 4.09070E+01 0.00000E+00
 -1      2775 1.21650E+02 3.96080E+01 0.00000E+00
 -1      2776 1.25400E+02 4.09070E+01 0.00000E+00
 -1      2777 1.26900E+02 4.09070E+01 0.00000E+00
 -1      2778 1.24650E+02 3.96080E+01 0.00000E+00
 -1      2779 1.28400E+02 4.09070E+01 0.00000E+00
 -1      2780 1.29900E+02 4.09070E+01 0.00000E+00
 -1      2781 1.27650E+02 3.96080E+01 0.00000E+00
 -1      2782 1.31400E+02 4.09070E+01 0.00000E+00
 -1      2783 1.32900E+02 4.09070E+01 0.00000E+00
 -1      2784 1.30650E+02 3.96080E+01 0.00000E+00
 -1      2785 1.34400E+02 4.09070E+01 0.00000E+00
 -1      2786 1.35900E+02 4.09070E+01 0.00000E+00
 -1      2787 1.33650E+02 3.96080E+01 0.00000E+00
 -1      2788 1.37400E+02 4.09070E+01 0.00000E+00
 -1      2789 1.38900E+02 4.09070E+01 0.00000E+00
 -1      2790 1.36650E+02 3.96080E+01 0.00000E+00
 -1      2791 1.40907E+02 2.42875E+01 0.00000E+00
 -1      2792 1.40907E+02 2.28125E+01 0.00000E+00
 -1      2793 2.17231E+01 9.05883E+00 0.00000E+00
 -1      2794 2.24199E+01 1.00916E+01 0.00000E+00
 -1      2795 1.61577E+01 5.85025E+00 0.00000E+00
 -1      2796 2.32576E+01 7.72430E+00 0.00000E+00
 -1      2797 2.17201E+01 7.55673E+00 0.00000E+00
 -1      2798 1.04048E+01 4.05745E+01 0.00000E+00
 -1      2799 1.26548E+01 4.08005E+01 0.00000E+00
 -1      2800 2.61202E+01 7.68813E+00 0.00000E+00
 -1      2801 2.46202E+01 7.68813E+00 0.00000E+00
 -1      2802 2.41450E+01 9.05946E+00 0.00000E+00
 -1      2803 2.68702E+01 8.98713E+00 0.00000E+00
 -1      2804 3.49827E+01 7.65196E+00 0.00000E+00
 -1      2805 3.34827E+01 7.65196E+00 0.00000E+00
 -1      2806 3.27327E+01 8.95096E+00 0.00000E+00
 -1      2807 3.79827E+01 7.65196E+00 0.00000E+00
 -1      2808 3.64827E+01 7.65196E+00 0.00000E+00
 -1      2809 3.57327E+01 8.95096E+00 0.00000E+00
 -1      2810 4.09827E+01 7.65196E+00 0.00000E+00
 -1      2811 3.94827E+01 7.65196E+00 0.00000E+00
 -1      2812 3.87327E+01 8.95096E+00 0.00000E+00
 -1      2813 4.39827E+01 7.65196E+00 0.00000E+00
 -1      2814 4.24827E+01 7.65196E+00 0.00000E+00
 -1      2815 4.17327E+01 8.95096E+00 0.00000E+00
 -1      2816 4.69827E+01 7.65196E+00 0.00000E+00
 -1      2817 4.54827E+01 7.65196E+00 0.00000E+00
 -1      2818 4.47327E+01 8.95096E+00 0.00000E+00
 -1      2819 4.99827E+01 7.65196E+00 0.00000E+00
 -1      2820 4.84827E+01 7.65196E+00 0.00000E+00
 -1      2821 4.77327E+01 8.95096E+00 0.00000E+00
 -1      2822 5.29827E+01 7.65196E+00 0.00000E+00
 -1      2823 5.14827E+01 7.65196E+00 0.00000E+00
 -1      2824 5.07327E+01 8.95096E+00 0.00000E+00
 -1      2825 5.59827E+01 7.65196E+00 0.00000E+00
 -1      2826 5.44827E+01 7.65196E+00 0.00000E+00
 -1      2827 5.37327E+01 8.95096E+00 0.00000E+00
 -1      2828 5.89827E+01 7.65196E+00 0.00000E+00
 -1      2829 5.74827E+01 7.65196E+00 0.00000E+00
 -1      2830 5.67327E+01 8.95096E+00 0.00000E+00
 -1      2831 6.19827E+01 7.65196E+00 0.00000E+00
 -1      2832 6.04827E+01 7.65196E+00 0.00000E+00
 -1      2833 5.97327E+01 8.95096E+00 0.00000E+00
 -1      2834 6.51327E+01 7.65196E+00 0.00000E+00
 -1      2835 6.35577E+01 7.65196E+00 0.00000E+00
 -1      2836 6.28077E+01 8.95096E+00 0.00000E+00
 -1      2837 6.81327E+01 7.65196E+00 0.00000E+00
 -1      2838 6.66327E+01 7.65196E+00 0.00000E+00
 -1      2839 6.58827E+01 8.95096E+00 0.00000E+00
 -1      2840 7.11327E+01 7.65196E+00 0.00000E+00
 -1      2841 6.96327E+01 7.65196E+00 0.00000E+00
 -1      2842 6.88827E+01 8.95096E+00 0.00000E+00
 -1      2843 7.41327E+01 7.65196E+00 0.00000E+00
 -1      2844 7.26327E+01 7.65196E+00 0.00000E+00
 -1      2845 7.18827E+01 8.95096E+00 0.00000E+00
 -1      2846 7.71327E+01 7.65196E+00 0.00000E+00
 -1      2847 7.56327E+01 7.65196E+00 0.00000E+00
 -1      2848 7.48827E+01 8.95096E+00 0.00000E+00
 -1      2849 8.01327E+01 7.65196E+00 0.00000E+00
 -1      2850 7.86327E+01 7.65196E+00 0.00000E+00
 -1      2851 7.78827E+01 8.95096E+00 0.00000E+00
 -1      2852 8.31327E+01 7.65196E+00 0.00000E+00
 -1      2853 8.16327E+01 7.65196E+00 0.00000E+00
 -1      2854 8.08827E+01 8.95096E+00 0.00000E+00
 -1      2855 8.61327E+01 7.65196E+00 0.00000E+00
 -1      2856 8.46327E+01 7.65196E+00 0.00000E+00
 -1      2857 8.38827E+01 8.95096E+00 0.00000E+00
 -1      2858 8.91327E+01 7.65196E+00 0.00000E+00
 -1      2859 8.76327E+01 7.65196E+00 0.00000E+00
 -1      2860 8.68827E+01 8.95096E+00 0.00000E+00
 -1      2861 9.21327E+01 7.65196E+00 0.00000E+00
 -1      2862 9.06327E+01 7.65196E+00 0.00000E+00
 -1      2863 8.98827E+01 8.95096E+00 0.00000E+00
 -1      2864 9.51327E+01 7.65196E+00 0.00000E+00
 -1      2865 9.36327E+01 7.65196E+00 0.00000E+00
 -1      2866 9.28827E+01 8.95096E+00 0.00000E+00
 -1      2867 9.81327E+01 7.65196E+00 0.00000E+00
 -1      2868 9.66327E+01 7.65196E+00 0.00000E+00
 -1      2869 9.58827E+01 8.95096E+00 0.00000E+00
 -1      2870 1.01133E+02 7.65196E+00 0.00000E+00
 -1      2871 9.96327E+01 7.65196E+00 0.00000E+00
 -1      2872 9.88827E+01 8.95096E+00 0.00000E+00
 -1      2873 1.04133E+02 7.65196E+00 0.00000E+00
 -1      2874 1.02633E+02 7.65196E+00 0.00000E+00
 -1      2875 1.01883E+02 8.95096E+00 0.00000E+00
 -1      2876 1.07283E+02 7.65196E+00 0.00000E+00
 -1      2877 1.05708E+02 7.65196E+00 0.00000E+00
 -1      2878 1.04958E+02 8.95096E+00 0.00000E+00
 -1      2879 1.10283E+02 7.65196E+00 0.00000E+00
 -1      2880 1.08783E+02 7.65196E+00 0.00000E+00
 -1      2881 1.08033E+02 8.95096E+00 0.00000E+00
 -1      2882 1.13283E+02 7.65196E+00 0.00000E+00
 -1      2883 1.11783E+02 7.65196E+00 0.00000E+00
 -1      2884 1.11033E+02 8.95096E+00 0.00000E+00
 -1      2885 1.16283E+02 7.65196E+00 0.00000E+00
 -1      2886 1.14783E+02 7.65196E+00 0.00000E+00
 -1      2887 1.14033E+02 8.95096E+00 0.00000E+00
 -1      2888 1.19283E+02 7.65196E+00 0.00000E+00
 -1      2889 1.17783E+02 7.65196E+00 0.00000E+00
 -1      2890 1.17033E+02 8.95096E+00 0.00000E+00
 -1      2891 1.22283E+02 7.65196E+00 0.00000E+00
 -1      2892 1.20783E+02 7.65196E+00 0.00000E+00
 -1      2893 1.20033E+02 8.95096E+00 0.00000E+00
 -1      2894 1.25283E+02 7.65196E+00 0.00000E+00
 -1      2895 1.23783E+02 7.65196E+00 0.00000E+00
 -1      2896 1.23033E+02 8.95096E+00 0.00000E+00
 -1      2897 1.28283E+02 7.65196E+00 0.00000E+00
 -1      2898 1.26783E+02 7.65196E+00 0.00000E+00
 -1      2899 1.26033E+02 8.95096E+00 0.00000E+00
 -1      2900 1.31283E+02 7.65196E+00 0.00000E+00
 -1      2901 1.29783E+02 7.65196E+00 0.00000E+00
 -1      2902 1.29033E+02 8.95096E+00 0.00000E+00
 -1      2903 1.34283E+02 7.65196E+00 0.00000E+00
 -1      2904 1.32783E+02 7.65196E+00 0.00000E+00
 -1      2905 1.32033E+02 8.95096E+00 0.00000E+00
 -1      2906 1.37201E+02 7.99547E+00 0.00000E+00
 -1      2907 1.35701E+02 7.99547E+00 0.00000E+00
 -1      2908 1.34951E+02 9.29447E+00 0.00000E+00
 -1      2909 1.37788E+02 9.98149E+00 0.00000E+00
 -1      2910 2.02801E+01 2.66873E+01 0.00000E+00
 -1      2911 1.92679E+01 2.73008E+01 0.00000E+00
 -1      2912 1.92787E+01 2.84769E+01 0.00000E+00
 -1      2913 1.40907E+02 1.83875E+01 0.00000E+00
 -1      2914 1.40907E+02 1.69125E+01 0.00000E+00
 -1      2915 1.40907E+02 2.72375E+01 0.00000E+00
 -1      2916 1.40907E+02 2.57625E+01 0.00000E+00
 -1      2917 1.39608E+02 2.50250E+01 0.00000E+00
 -1      2918 1.40907E+02 3.01375E+01 0.00000E+00
 -1      2919 1.40907E+02 2.86875E+01 0.00000E+00
 -1      2920 1.39608E+02 2.79500E+01 0.00000E+00
 -1      2921 1.40907E+02 3.30875E+01 0.00000E+00
 -1      2922 1.40907E+02 3.16125E+01 0.00000E+00
 -1      2923 1.39608E+02 3.08750E+01 0.00000E+00
 -1      2924 1.40907E+02 3.60375E+01 0.00000E+00
 -1      2925 1.40907E+02 3.45625E+01 0.00000E+00
 -1      2926 1.39608E+02 3.38250E+01 0.00000E+00
 -1      2927 2.48312E+01 1.90262E+01 0.00000E+00
 -1      2928 2.45968E+01 1.99841E+01 0.00000E+00
 -1      2929 2.41201E+01 2.10484E+01 0.00000E+00
 -1      2930 2.36792E+01 2.19419E+01 0.00000E+00
 -1      2931 1.60879E+01 2.91282E+01 0.00000E+00
 -1      2932 1.50032E+01 2.95301E+01 0.00000E+00
 -1      2933 9.72682E+00 3.93600E+01 0.00000E+00
 -1      2934 2.31605E+01 2.29942E+01 0.00000E+00
 -1      2935 2.25378E+01 2.40765E+01 0.00000E+00
 -1      2936 9.67924E+00 2.89420E+01 0.00000E+00
 -1      2937 8.98145E+00 3.02286E+01 0.00000E+00
 -1      2938 1.00904E+01 3.09911E+01 0.00000E+00
 -1      2939 1.06726E+01 2.93232E+01 0.00000E+00
 -1      2940 1.39914E+02 4.09362E+01 0.00000E+00
 -1      2941 1.40928E+02 4.09655E+01 0.00000E+00
 -1      2942 1.39164E+02 3.96372E+01 0.00000E+00
 -1      2943 6.07960E+00 2.46128E+01 0.00000E+00
 -1      2944 5.34768E+00 2.39002E+01 0.00000E+00
 -1      2945 4.92568E+00 2.40155E+01 0.00000E+00
 -1      2946 7.87994E+00 5.85104E+00 0.00000E+00
 -1      2947 2.19459E+01 2.52464E+01 0.00000E+00
 -1      2948 2.13208E+01 2.58966E+01 0.00000E+00
 -1      2949 1.41192E+02 3.96958E+01 0.00000E+00
 -1      2950 1.40907E+02 2.13375E+01 0.00000E+00
 -1      2951 1.40907E+02 1.98625E+01 0.00000E+00
 -1      2952 1.39608E+02 1.91250E+01 0.00000E+00
 -1      2953 1.39608E+02 2.20750E+01 0.00000E+00
 -1      2954 1.40706E+02 1.17875E+01 0.00000E+00
 -1      2955 6.80539E+00 6.42519E+00 0.00000E+00
 -1      2956 6.41061E+00 7.25570E+00 0.00000E+00
 -1      2957 9.85237E+00 3.33187E+01 0.00000E+00
 -1      2958 8.74346E+00 3.40812E+01 0.00000E+00
 -1      2959 8.79661E+00 3.55750E+01 0.00000E+00
 -1      2960 1.70987E+01 2.97297E+01 0.00000E+00
 -1      2961 2.43950E+01 1.30951E+01 0.00000E+00
 -1      2962 2.52114E+01 1.36139E+01 0.00000E+00
 -1      2963 2.45183E+01 1.22578E+01 0.00000E+00
 -1      2964 2.32421E+01 1.04173E+01 0.00000E+00
 -1      2965 1.34048E+01 3.95015E+01 0.00000E+00
 -1      2966 2.50703E+01 2.07732E+01 0.00000E+00
 -1      2967 2.13316E+01 2.70727E+01 0.00000E+00
 -1      2968 2.50699E+01 1.57446E+01 0.00000E+00
 -1      2969 2.57676E+01 1.77206E+01 0.00000E+00
 -1      2970 2.52994E+01 1.83734E+01 0.00000E+00
 -1      2971 2.60152E+01 1.90561E+01 0.00000E+00
 -1      2972 1.40907E+02 1.54500E+01 0.00000E+00
 -1      2973 1.40907E+02 1.39875E+01 0.00000E+00
 -1      2974 1.39608E+02 1.61875E+01 0.00000E+00
 -1      2975 1.41192E+02 3.82207E+01 0.00000E+00
 -1      2976 9.23514E+00 3.67206E+01 0.00000E+00
 -1      2977 9.28829E+00 3.82144E+01 0.00000E+00
 -1      2978 1.12211E+01 3.82494E+01 0.00000E+00
 -1      2979 1.03441E+01 3.59581E+01 0.00000E+00
 -1      2980 2.06608E+01 7.51993E+00 0.00000E+00
 -1      2981 2.40748E+01 2.28898E+01 0.00000E+00
 -1      2982 1.51755E+01 3.10478E+01 0.00000E+00
 -1      2983 1.42479E+01 3.02090E+01 0.00000E+00
 -1      2984 1.34925E+01 3.08878E+01 0.00000E+00
 -1      2985 1.97711E+01 6.80837E+00 0.00000E+00
 -1      2986 1.82711E+01 6.64079E+00 0.00000E+00
 -1      2987 1.14732E+01 3.01030E+01 0.00000E+00
 -1      2988 2.29642E+01 2.51121E+01 0.00000E+00
 -1      2989 1.72109E+01 6.24448E+00 0.00000E+00
 -1      2990 1.39529E+02 3.85602E+01 0.00000E+00
 -1      2991 1.40542E+02 3.71145E+01 0.00000E+00
 -1      2992 1.39243E+02 3.63770E+01 0.00000E+00
 -1      2993 1.38514E+02 3.85310E+01 0.00000E+00
 -1      2994 4.92568E+00 2.53905E+01 0.00000E+00
 -1      2995 3.64827E+01 1.02500E+01 0.00000E+00
 -1      2996 3.49827E+01 1.02500E+01 0.00000E+00
 -1      2997 3.34827E+01 1.02500E+01 0.00000E+00
 -1      2998 3.19827E+01 1.02500E+01 0.00000E+00
 -1      2999 3.42327E+01 1.15490E+01 0.00000E+00
 -1      3000 2.46047E+01 1.03811E+01 0.00000E+00
 -1      3001 2.02727E+01 2.89752E+01 0.00000E+00
 -1      3002 1.92605E+01 2.95886E+01 0.00000E+00
 -1      3003 1.89000E+01 3.83090E+01 0.00000E+00
 -1      3004 2.04000E+01 3.83090E+01 0.00000E+00
 -1      3005 2.19000E+01 3.83090E+01 0.00000E+00
 -1      3006 2.34000E+01 3.83090E+01 0.00000E+00
 -1      3007 2.11500E+01 3.70100E+01 0.00000E+00
 -1      3008 2.49000E+01 3.83090E+01 0.00000E+00
 -1      3009 2.64000E+01 3.83090E+01 0.00000E+00
 -1      3010 2.41500E+01 3.70100E+01 0.00000E+00
 -1      3011 2.79000E+01 3.83090E+01 0.00000E+00
 -1      3012 2.94000E+01 3.83090E+01 0.00000E+00
 -1      3013 2.71500E+01 3.70100E+01 0.00000E+00
 -1      3014 3.09000E+01 3.83090E+01 0.00000E+00
 -1      3015 3.24000E+01 3.83090E+01 0.00000E+00
 -1      3016 3.01500E+01 3.70100E+01 0.00000E+00
 -1      3017 3.39000E+01 3.83090E+01 0.00000E+00
 -1      3018 3.54000E+01 3.83090E+01 0.00000E+00
 -1      3019 3.31500E+01 3.70100E+01 0.00000E+00
 -1      3020 3.69000E+01 3.83090E+01 0.00000E+00
 -1      3021 3.84000E+01 3.83090E+01 0.00000E+00
 -1      3022 3.61500E+01 3.70100E+01 0.00000E+00
 -1      3023 3.99000E+01 3.83090E+01 0.00000E+00
 -1      3024 4.14000E+01 3.83090E+01 0.00000E+00
 -1      3025 3.91500E+01 3.70100E+01 0.00000E+00
 -1      3026 4.29000E+01 3.83090E+01 0.00000E+00
 -1      3027 4.44000E+01 3.83090E+01 0.00000E+00
 -1      3028 4.21500E+01 3.70100E+01 0.00000E+00
 -1      3029 4.59000E+01 3.83090E+01 0.00000E+00
 -1      3030 4.74000E+01 3.83090E+01 0.00000E+00
 -1      3031 4.51500E+01 3.70100E+01 0.00000E+00
 -1      3032 4.89000E+01 3.83090E+01 0.00000E+00
 -1      3033 5.04000E+01 3.83090E+01 0.00000E+00
 -1      3034 4.81500E+01 3.70100E+01 0.00000E+00
 -1      3035 5.19000E+01 3.83090E+01 0.00000E+00
 -1      3036 5.34000E+01 3.83090E+01 0.00000E+00
 -1      3037 5.11500E+01 3.70100E+01 0.00000E+00
 -1      3038 5.49000E+01 3.83090E+01 0.00000E+00
 -1      3039 5.64000E+01 3.83090E+01 0.00000E+00
 -1      3040 5.41500E+01 3.70100E+01 0.00000E+00
 -1      3041 5.79000E+01 3.83090E+01 0.00000E+00
 -1      3042 5.94000E+01 3.83090E+01 0.00000E+00
 -1      3043 5.71500E+01 3.70100E+01 0.00000E+00
 -1      3044 6.09000E+01 3.83090E+01 0.00000E+00
 -1      3045 6.24000E+01 3.83090E+01 0.00000E+00
 -1      3046 6.01500E+01 3.70100E+01 0.00000E+00
 -1      3047 6.39000E+01 3.83090E+01 0.00000E+00
 -1      3048 6.54000E+01 3.83090E+01 0.00000E+00
 -1      3049 6.31500E+01 3.70100E+01 0.00000E+00
 -1      3050 6.69000E+01 3.83090E+01 0.00000E+00
 -1      3051 6.84000E+01 3.83090E+01 0.00000E+00
 -1      3052 6.61500E+01 3.70100E+01 0.00000E+00
 -1      3053 6.99000E+01 3.83090E+01 0.00000E+00
 -1      3054 7.14000E+01 3.83090E+01 0.00000E+00
 -1      3055 6.91500E+01 3.70100E+01 0.00000E+00
 -1      3056 7.29000E+01 3.83090E+01 0.00000E+00
 -1      3057 7.44000E+01 3.83090E+01 0.00000E+00
 -1      3058 7.21500E+01 3.70100E+01 0.00000E+00
 -1      3059 7.59000E+01 3.83090E+01 0.00000E+00
 -1      3060 7.74000E+01 3.83090E+01 0.00000E+00
 -1      3061 7.51500E+01 3.70100E+01 0.00000E+00
 -1      3062 7.89000E+01 3.83090E+01 0.00000E+00
 -1      3063 8.04000E+01 3.83090E+01 0.00000E+00
 -1      3064 7.81500E+01 3.70100E+01 0.00000E+00
 -1      3065 8.19000E+01 3.83090E+01 0.00000E+00
 -1      3066 8.34000E+01 3.83090E+01 0.00000E+00
 -1      3067 8.11500E+01 3.70100E+01 0.00000E+00
 -1      3068 8.49000E+01 3.83090E+01 0.00000E+00
 -1      3069 8.64000E+01 3.83090E+01 0.00000E+00
 -1      3070 8.41500E+01 3.70100E+01 0.00000E+00
 -1      3071 8.79000E+01 3.83090E+01 0.00000E+00
 -1      3072 8.94000E+01 3.83090E+01 0.00000E+00
 -1      3073 8.71500E+01 3.70100E+01 0.00000E+00
 -1      3074 9.09000E+01 3.83090E+01 0.00000E+00
 -1      3075 9.24000E+01 3.83090E+01 0.00000E+00
 -1      3076 9.01500E+01 3.70100E+01 0.00000E+00
 -1      3077 9.39000E+01 3.83090E+01 0.00000E+00
 -1      3078 9.54000E+01 3.83090E+01 0.00000E+00
 -1      3079 9.31500E+01 3.70100E+01 0.00000E+00
 -1      3080 9.69000E+01 3.83090E+01 0.00000E+00
 -1      3081 9.84000E+01 3.83090E+01 0.00000E+00
 -1      3082 9.61500E+01 3.70100E+01 0.00000E+00
 -1      3083 9.99000E+01 3.83090E+01 0.00000E+00
 -1      3084 1.01400E+02 3.83090E+01 0.00000E+00
 -1      3085 9.91500E+01 3.70100E+01 0.00000E+00
 -1      3086 1.02900E+02 3.83090E+01 0.00000E+00
 -1      3087 1.04400E+02 3.83090E+01 0.00000E+00
 -1      3088 1.02150E+02 3.70100E+01 0.00000E+00
 -1      3089 1.05900E+02 3.83090E+01 0.00000E+00
 -1      3090 1.07400E+02 3.83090E+01 0.00000E+00
 -1      3091 1.05150E+02 3.70100E+01 0.00000E+00
 -1      3092 1.08900E+02 3.83090E+01 0.00000E+00
 -1      3093 1.10400E+02 3.83090E+01 0.00000E+00
 -1      3094 1.08150E+02 3.70100E+01 0.00000E+00
 -1      3095 1.11900E+02 3.83090E+01 0.00000E+00
 -1      3096 1.13400E+02 3.83090E+01 0.00000E+00
 -1      3097 1.11150E+02 3.70100E+01 0.00000E+00
 -1      3098 1.14900E+02 3.83090E+01 0.00000E+00
 -1      3099 1.16400E+02 3.83090E+01 0.00000E+00
 -1      3100 1.14150E+02 3.70100E+01 0.00000E+00
 -1      3101 1.17900E+02 3.83090E+01 0.00000E+00
 -1      3102 1.19400E+02 3.83090E+01 0.00000E+00
 -1      3103 1.17150E+02 3.70100E+01 0.00000E+00
 -1      3104 1.20900E+02 3.83090E+01 0.00000E+00
 -1      3105 1.22400E+02 3.83090E+01 0.00000E+00
 -1      3106 1.20150E+02 3.70100E+01 0.00000E+00
 -1      3107 1.23900E+02 3.83090E+01 0.00000E+00
 -1      3108 1.25400E+02 3.83090E+01 0.00000E+00
 -1      3109 1.23150E+02 3.70100E+01 0.00000E+00
 -1      3110 1.26900E+02 3.83090E+01 0.00000E+00
 -1      3111 1.28400E+02 3.83090E+01 0.00000E+00
 -1      3112 1.26150E+02 3.70100E+01 0.00000E+00
 -1      3113 1.29900E+02 3.83090E+01 0.00000E+00
 -1      3114 1.31400E+02 3.83090E+01 0.00000E+00
 -1      3115 1.29150E+02 3.70100E+01 0.00000E+00
 -1      3116 1.32900E+02 3.83090E+01 0.00000E+00
 -1      3117 1.34400E+02 3.83090E+01 0.00000E+00
 -1      3118 1.32150E+02 3.70100E+01 0.00000E+00
 -1      3119 1.35707E+02 3.84200E+01 0.00000E+00
 -1      3120 1.37207E+02 3.84200E+01 0.00000E+00
 -1      3121 1.37572E+02 3.73430E+01 0.00000E+00
 -1      3122 1.34957E+02 3.71210E+01 0.00000E+00
 -1      3123 1.38309E+02 2.86750E+01 0.00000E+00
 -1      3124 1.38309E+02 2.72250E+01 0.00000E+00
 -1      3125 3.94827E+01 1.02500E+01 0.00000E+00
 -1      3126 3.79827E+01 1.02500E+01 0.00000E+00
 -1      3127 3.72327E+01 1.15490E+01 0.00000E+00
 -1      3128 4.24827E+01 1.02500E+01 0.00000E+00
 -1      3129 4.09827E+01 1.02500E+01 0.00000E+00
 -1      3130 4.02327E+01 1.15490E+01 0.00000E+00
 -1      3131 4.54827E+01 1.02500E+01 0.00000E+00
 -1      3132 4.39827E+01 1.02500E+01 0.00000E+00
 -1      3133 4.32327E+01 1.15490E+01 0.00000E+00
 -1      3134 4.84827E+01 1.02500E+01 0.00000E+00
 -1      3135 4.69827E+01 1.02500E+01 0.00000E+00
 -1      3136 4.62327E+01 1.15490E+01 0.00000E+00
 -1      3137 5.14827E+01 1.02500E+01 0.00000E+00
 -1      3138 4.99827E+01 1.02500E+01 0.00000E+00
 -1      3139 4.92327E+01 1.15490E+01 0.00000E+00
 -1      3140 5.44827E+01 1.02500E+01 0.00000E+00
 -1      3141 5.29827E+01 1.02500E+01 0.00000E+00
 -1      3142 5.22327E+01 1.15490E+01 0.00000E+00
 -1      3143 5.74827E+01 1.02500E+01 0.00000E+00
 -1      3144 5.59827E+01 1.02500E+01 0.00000E+00
 -1      3145 5.52327E+01 1.15490E+01 0.00000E+00
 -1      3146 6.04827E+01 1.02500E+01 0.00000E+00
 -1      3147 5.89827E+01 1.02500E+01 0.00000E+00
 -1      3148 5.82327E+01 1.15490E+01 0.00000E+00
 -1      3149 6.36327E+01 1.02500E+01 0.00000E+00
 -1      3150 6.20577E+01 1.02500E+01 0.00000E+00
 -1      3151 6.13077E+01 1.15490E+01 0.00000E+00
 -1      3152 6.66327E+01 1.02500E+01 0.00000E+00
 -1      3153 6.51327E+01 1.02500E+01 0.00000E+00
 -1      3154 6.43827E+01 1.15490E+01 0.00000E+00
 -1      3155 6.96327E+01 1.02500E+01 0.00000E+00
 -1      3156 6.81327E+01 1.02500E+01 0.00000E+00
 -1      3157 6.73827E+01 1.15490E+01 0.00000E+00
 -1      3158 7.26327E+01 1.02500E+01 0.00000E+00
 -1      3159 7.11327E+01 1.02500E+01 0.00000E+00
 -1      3160 7.03827E+01 1.15490E+01 0.00000E+00
 -1      3161 7.56327E+01 1.02500E+01 0.00000E+00
 -1      3162 7.41327E+01 1.02500E+01 0.00000E+00
 -1      3163 7.33827E+01 1.15490E+01 0.00000E+00
 -1      3164 7.86327E+01 1.02500E+01 0.00000E+00
 -1      3165 7.71327E+01 1.02500E+01 0.00000E+00
 -1      3166 7.63827E+01 1.15490E+01 0.00000E+00
 -1      3167 8.16327E+01 1.02500E+01 0.00000E+00
 -1      3168 8.01327E+01 1.02500E+01 0.00000E+00
 -1      3169 7.93827E+01 1.15490E+01 0.00000E+00
 -1      3170 8.46327E+01 1.02500E+01 0.00000E+00
 -1      3171 8.31327E+01 1.02500E+01 0.00000E+00
 -1      3172 8.23827E+01 1.15490E+01 0.00000E+00
 -1      3173 8.76327E+01 1.02500E+01 0.00000E+00
 -1      3174 8.61327E+01 1.02500E+01 0.00000E+00
 -1      3175 8.53827E+01 1.15490E+01 0.00000E+00
 -1      3176 9.06327E+01 1.02500E+01 0.00000E+00
 -1      3177 8.91327E+01 1.02500E+01 0.00000E+00
 -1      3178 8.83827E+01 1.15490E+01 0.00000E+00
 -1      3179 9.36327E+01 1.02500E+01 0.00000E+00
 -1      3180 9.21327E+01 1.02500E+01 0.00000E+00
 -1      3181 9.13827E+01 1.15490E+01 0.00000E+00
 -1      3182 9.66327E+01 1.02500E+01 0.00000E+00
 -1      3183 9.51327E+01 1.02500E+01 0.00000E+00
 -1      3184 9.43827E+01 1.15490E+01 0.00000E+00
 -1      3185 9.96327E+01 1.02500E+01 0.00000E+00
 -1      3186 9.81327E+01 1.02500E+01 0.00000E+00
 -1      3187 9.73827E+01 1.15490E+01 0.00000E+00
 -1      3188 1.02633E+02 1.02500E+01 0.00000E+00
 -1      3189 1.01133E+02 1.02500E+01 0.00000E+00
 -1      3190 1.00383E+02 1.15490E+01 0.00000E+00
 -1      3191 1.05783E+02 1.02500E+01 0.00000E+00
 -1      3192 1.04208E+02 1.02500E+01 0.00000E+00
 -1      3193 1.03458E+02 1.15490E+01 0.00000E+00
 -1      3194 1.08783E+02 1.02500E+01 0.00000E+00
 -1      3195 1.07283E+02 1.02500E+01 0.00000E+00
 -1      3196 1.06533E+02 1.15490E+01 0.00000E+00
 -1      3197 1.11783E+02 1.02500E+01 0.00000E+00
 -1      3198 1.10283E+02 1.02500E+01 0.00000E+00
 -1      3199 1.09533E+02 1.15490E+01 0.00000E+00
 -1      3200 1.14783E+02 1.02500E+01 0.00000E+00
 -1      3201 1.13283E+02 1.02500E+01 0.00000E+00
 -1      3202 1.12533E+02 1.15490E+01 0.00000E+00
 -1      3203 1.17783E+02 1.02500E+01 0.00000E+00
 -1      3204 1.16283E+02 1.02500E+01 0.00000E+00
 -1      3205 1.15533E+02 1.15490E+01 0.00000E+00
 -1      3206 1.20783E+02 1.02500E+01 0.00000E+00
 -1      3207 1.19283E+02 1.02500E+01 0.00000E+00
 -1      3208 1.18533E+02 1.15490E+01 0.00000E+00
 -1      3209 1.23783E+02 1.02500E+01 0.00000E+00
 -1      3210 1.22283E+02 1.02500E+01 0.00000E+00
 -1      3211 1.21533E+02 1.15490E+01 0.00000E+00
 -1      3212 1.26783E+02 1.02500E+01 0.00000E+00
 -1      3213 1.25283E+02 1.02500E+01 0.00000E+00
 -1      3214 1.24533E+02 1.15490E+01 0.00000E+00
 -1      3215 1.29783E+02 1.02500E+01 0.00000E+00
 -1      3216 1.28283E+02 1.02500E+01 0.00000E+00
 -1      3217 1.27533E+02 1.15490E+01 0.00000E+00
 -1      3218 1.32783E+02 1.02500E+01 0.00000E+00
 -1      3219 1.31283E+02 1.02500E+01 0.00000E+00
 -1      3220 1.30533E+02 1.15490E+01 0.00000E+00
 -1      3221 1.38309E+02 3.16250E+01 0.00000E+00
 -1      3222 1.38309E+02 3.01500E+01 0.00000E+00
 -1      3223 1.37010E+02 2.94250E+01 0.00000E+00
 -1      3224 1.38309E+02 2.57500E+01 0.00000E+00
 -1      3225 1.38309E+02 2.42750E+01 0.00000E+00
 -1      3226 1.37010E+02 2.64750E+01 0.00000E+00
 -1      3227 1.38309E+02 3.45750E+01 0.00000E+00
 -1      3228 1.38309E+02 3.31000E+01 0.00000E+00
 -1      3229 1.37010E+02 3.23750E+01 0.00000E+00
 -1      3230 2.24214E+01 2.74269E+01 0.00000E+00
 -1      3231 2.13807E+01 2.82176E+01 0.00000E+00
 -1      3232 1.29663E+01 3.83559E+01 0.00000E+00
 -1      3233 1.47115E+01 3.84624E+01 0.00000E+00
 -1      3234 1.25278E+01 3.72103E+01 0.00000E+00
 -1      3235 1.82151E+01 3.03827E+01 0.00000E+00
 -1      3236 1.70473E+01 3.10220E+01 0.00000E+00
 -1      3237 1.39407E+02 1.25250E+01 0.00000E+00
 -1      3238 1.11820E+01 3.09370E+01 0.00000E+00
 -1      3239 1.08909E+01 3.17709E+01 0.00000E+00
 -1      3240 1.22737E+01 3.08829E+01 0.00000E+00
 -1      3241 2.59365E+01 1.51100E+01 0.00000E+00
 -1      3242 2.59183E+01 1.64033E+01 0.00000E+00
 -1      3243 2.51034E+01 2.27429E+01 0.00000E+00
 -1      3244 2.45846E+01 2.37951E+01 0.00000E+00
 -1      3245 1.60557E+01 3.83857E+01 0.00000E+00
 -1      3246 1.75557E+01 3.83857E+01 0.00000E+00
 -1      3247 1.83057E+01 3.70867E+01 0.00000E+00
 -1      3248 1.56172E+01 3.72401E+01 0.00000E+00
 -1      3249 2.60568E+01 2.06142E+01 0.00000E+00
 -1      3250 2.55801E+01 2.16785E+01 0.00000E+00
 -1      3251 2.60899E+01 2.25838E+01 0.00000E+00
 -1      3252 3.04827E+01 1.02500E+01 0.00000E+00
 -1      3253 2.89827E+01 1.02500E+01 0.00000E+00
 -1      3254 3.12327E+01 1.15490E+01 0.00000E+00
 -1      3255 2.41001E+01 2.49520E+01 0.00000E+00
 -1      3256 2.35082E+01 2.61220E+01 0.00000E+00
 -1      3257 2.46933E+01 2.71069E+01 0.00000E+00
 -1      3258 2.35573E+01 2.72669E+01 0.00000E+00
 -1      3259 2.36065E+01 2.84118E+01 0.00000E+00
 -1      3260 2.65250E+01 1.99614E+01 0.00000E+00
 -1      3261 2.70348E+01 2.08667E+01 0.00000E+00
 -1      3262 2.69932E+01 1.93086E+01 0.00000E+00
 -1      3263 2.13625E+01 2.93294E+01 0.00000E+00
 -1      3264 1.37758E+02 3.64975E+01 0.00000E+00
 -1      3265 1.38123E+02 3.54205E+01 0.00000E+00
 -1      3266 1.36824E+02 3.46955E+01 0.00000E+00
 -1      3267 1.36451E+02 3.63865E+01 0.00000E+00
 -1      3268 2.75337E+01 1.21628E+01 0.00000E+00
 -1      3269 2.67837E+01 1.08638E+01 0.00000E+00
 -1      3270 1.92091E+01 3.08810E+01 0.00000E+00
 -1      3271 1.34201E+02 1.05935E+01 0.00000E+00
 -1      3272 1.33451E+02 1.18925E+01 0.00000E+00
 -1      3273 1.35619E+02 1.09370E+01 0.00000E+00
 -1      3274 1.38222E+02 1.19027E+01 0.00000E+00
 -1      3275 1.36804E+02 1.15592E+01 0.00000E+00
 -1      3276 1.36054E+02 1.28582E+01 0.00000E+00
 -1      3277 1.38423E+02 1.41027E+01 0.00000E+00
 -1      3278 1.38423E+02 1.70277E+01 0.00000E+00
 -1      3279 1.38423E+02 1.55652E+01 0.00000E+00
 -1      3280 1.37239E+02 1.49430E+01 0.00000E+00
 -1      3281 1.09440E+01 3.32647E+01 0.00000E+00
 -1      3282 1.62919E+01 3.17008E+01 0.00000E+00
 -1      3283 1.55365E+01 3.23797E+01 0.00000E+00
 -1      3284 1.74083E+01 3.23539E+01 0.00000E+00
 -1      3285 1.32013E+01 3.17217E+01 0.00000E+00
 -1      3286 2.60598E+01 1.42726E+01 0.00000E+00
 -1      3287 2.69082E+01 1.49314E+01 0.00000E+00
 -1      3288 2.61831E+01 1.34353E+01 0.00000E+00
 -1      3289 2.51286E+01 2.48051E+01 0.00000E+00
 -1      3290 1.37010E+02 2.35250E+01 0.00000E+00
 -1      3291 1.38309E+02 2.28000E+01 0.00000E+00
 -1      3292 1.38309E+02 2.13250E+01 0.00000E+00
 -1      3293 2.66341E+01 1.70860E+01 0.00000E+00
 -1      3294 2.54211E+01 1.08999E+01 0.00000E+00
 -1      3295 1.38366E+02 1.99139E+01 0.00000E+00
 -1      3296 1.38366E+02 1.84389E+01 0.00000E+00
 -1      3297 1.37182E+02 1.78166E+01 0.00000E+00
 -1      3298 1.37067E+02 2.06389E+01 0.00000E+00
 -1      3299 1.35711E+02 3.31125E+01 0.00000E+00
 -1      3300 1.35711E+02 3.16375E+01 0.00000E+00
 -1      3301 2.34000E+01 3.57110E+01 0.00000E+00
 -1      3302 2.49000E+01 3.57110E+01 0.00000E+00
 -1      3303 2.64000E+01 3.57110E+01 0.00000E+00
 -1      3304 2.79000E+01 3.57110E+01 0.00000E+00
 -1      3305 2.56500E+01 3.44120E+01 0.00000E+00
 -1      3306 2.94000E+01 3.57110E+01 0.00000E+00
 -1      3307 3.09000E+01 3.57110E+01 0.00000E+00
 -1      3308 2.86500E+01 3.44120E+01 0.00000E+00
 -1      3309 3.24000E+01 3.57110E+01 0.00000E+00
 -1      3310 3.39000E+01 3.57110E+01 0.00000E+00
 -1      3311 3.16500E+01 3.44120E+01 0.00000E+00
 -1      3312 3.54000E+01 3.57110E+01 0.00000E+00
 -1      3313 3.69000E+01 3.57110E+01 0.00000E+00
 -1      3314 3.46500E+01 3.44120E+01 0.00000E+00
 -1      3315 3.84000E+01 3.57110E+01 0.00000E+00
 -1      3316 3.99000E+01 3.57110E+01 0.00000E+00
 -1      3317 3.76500E+01 3.44120E+01 0.00000E+00
 -1      3318 4.14000E+01 3.57110E+01 0.00000E+00
 -1      3319 4.29000E+01 3.57110E+01 0.00000E+00
 -1      3320 4.06500E+01 3.44120E+01 0.00000E+00
 -1      3321 4.44000E+01 3.57110E+01 0.00000E+00
 -1      3322 4.59000E+01 3.57110E+01 0.00000E+00
 -1      3323 4.36500E+01 3.44120E+01 0.00000E+00
 -1      3324 4.74000E+01 3.57110E+01 0.00000E+00
 -1      3325 4.89000E+01 3.57110E+01 0.00000E+00
 -1      3326 4.66500E+01 3.44120E+01 0.00000E+00
 -1      3327 5.04000E+01 3.57110E+01 0.00000E+00
 -1      3328 5.19000E+01 3.57110E+01 0.00000E+00
 -1      3329 4.96500E+01 3.44120E+01 0.00000E+00
 -1      3330 5.34000E+01 3.57110E+01 0.00000E+00
 -1      3331 5.49000E+01 3.57110E+01 0.00000E+00
 -1      3332 5.26500E+01 3.44120E+01 0.00000E+00
 -1      3333 5.64000E+01 3.57110E+01 0.00000E+00
 -1      3334 5.79000E+01 3.57110E+01 0.00000E+00
 -1      3335 5.56500E+01 3.44120E+01 0.00000E+00
 -1      3336 5.94000E+01 3.57110E+01 0.00000E+00
 -1      3337 6.09000E+01 3.57110E+01 0.00000E+00
 -1      3338 5.86500E+01 3.44120E+01 0.00000E+00
 -1      3339 6.24000E+01 3.57110E+01 0.00000E+00
 -1      3340 6.39000E+01 3.57110E+01 0.00000E+00
 -1      3341 6.16500E+01 3.44120E+01 0.00000E+00
 -1      3342 6.54000E+01 3.57110E+01 0.00000E+00
 -1      3343 6.69000E+01 3.57110E+01 0.00000E+00
 -1      3344 6.46500E+01 3.44120E+01 0.00000E+00
 -1      3345 6.84000E+01 3.57110E+01 0.00000E+00
 -1      3346 6.99000E+01 3.57110E+01 0.00000E+00
 -1      3347 6.76500E+01 3.44120E+01 0.00000E+00
 -1      3348 7.14000E+01 3.57110E+01 0.00000E+00
 -1      3349 7.29000E+01 3.57110E+01 0.00000E+00
 -1      3350 7.06500E+01 3.44120E+01 0.00000E+00
 -1      3351 7.44000E+01 3.57110E+01 0.00000E+00
 -1      3352 7.59000E+01 3.57110E+01 0.00000E+00
 -1      3353 7.36500E+01 3.44120E+01 0.00000E+00
 -1      3354 7.74000E+01 3.57110E+01 0.00000E+00
 -1      3355 7.89000E+01 3.57110E+01 0.00000E+00
 -1      3356 7.66500E+01 3.44120E+01 0.00000E+00
 -1      3357 8.04000E+01 3.57110E+01 0.00000E+00
 -1      3358 8.19000E+01 3.57110E+01 0.00000E+00
 -1      3359 7.96500E+01 3.44120E+01 0.00000E+00
 -1      3360 8.34000E+01 3.57110E+01 0.00000E+00
 -1      3361 8.49000E+01 3.57110E+01 0.00000E+00
 -1      3362 8.26500E+01 3.44120E+01 0.00000E+00
 -1      3363 8.64000E+01 3.57110E+01 0.00000E+00
 -1      3364 8.79000E+01 3.57110E+01 0.00000E+00
 -1      3365 8.56500E+01 3.44120E+01 0.00000E+00
 -1      3366 8.94000E+01 3.57110E+01 0.00000E+00
 -1      3367 9.09000E+01 3.57110E+01 0.00000E+00
 -1      3368 8.86500E+01 3.44120E+01 0.00000E+00
 -1      3369 9.24000E+01 3.57110E+01 0.00000E+00
 -1      3370 9.39000E+01 3.57110E+01 0.00000E+00
 -1      3371 9.16500E+01 3.44120E+01 0.00000E+00
 -1      3372 9.54000E+01 3.57110E+01 0.00000E+00
 -1      3373 9.69000E+01 3.57110E+01 0.00000E+00
 -1      3374 9.46500E+01 3.44120E+01 0.00000E+00
 -1      3375 9.84000E+01 3.57110E+01 0.00000E+00
 -1      3376 9.99000E+01 3.57110E+01 0.00000E+00
 -1      3377 9.76500E+01 3.44120E+01 0.00000E+00
 -1      3378 1.01400E+02 3.57110E+01 0.00000E+00
 -1      3379 1.02900E+02 3.57110E+01 0.00000E+00
 -1      3380 1.00650E+02 3.44120E+01 0.00000E+00
 -1      3381 1.04400E+02 3.57110E+01 0.00000E+00
 -1      3382 1.05900E+02 3.57110E+01 0.00000E+00
 -1      3383 1.03650E+02 3.44120E+01 0.00000E+00
 -1      3384 1.07400E+02 3.57110E+01 0.00000E+00
 -1      3385 1.08900E+02 3.57110E+01 0.00000E+00
 -1      3386 1.06650E+02 3.44120E+01 0.00000E+00
 -1      3387 1.10400E+02 3.57110E+01 0.00000E+00
 -1      3388 1.11900E+02 3.57110E+01 0.00000E+00
 -1      3389 1.09650E+02 3.44120E+01 0.00000E+00
 -1      3390 1.13400E+02 3.57110E+01 0.00000E+00
 -1      3391 1.14900E+02 3.57110E+01 0.00000E+00
 -1      3392 1.12650E+02 3.44120E+01 0.00000E+00
 -1      3393 1.16400E+02 3.57110E+01 0.00000E+00
 -1      3394 1.17900E+02 3.57110E+01 0.00000E+00
 -1      3395 1.15650E+02 3.44120E+01 0.00000E+00
 -1      3396 1.19400E+02 3.57110E+01 0.00000E+00
 -1      3397 1.20900E+02 3.57110E+01 0.00000E+00
 -1      3398 1.18650E+02 3.44120E+01 0.00000E+00
 -1      3399 1.22400E+02 3.57110E+01 0.00000E+00
 -1      3400 1.23900E+02 3.57110E+01 0.00000E+00
 -1      3401 1.21650E+02 3.44120E+01 0.00000E+00
 -1      3402 1.25400E+02 3.57110E+01 0.00000E+00
 -1      3403 1.26900E+02 3.57110E+01 0.00000E+00
 -1      3404 1.24650E+02 3.44120E+01 0.00000E+00
 -1      3405 1.28400E+02 3.57110E+01 0.00000E+00
 -1      3406 1.29900E+02 3.57110E+01 0.00000E+00
 -1      3407 1.27650E+02 3.44120E+01 0.00000E+00
 -1      3408 1.31400E+02 3.57110E+01 0.00000E+00
 -1      3409 1.32900E+02 3.57110E+01 0.00000E+00
 -1      3410 1.30650E+02 3.44120E+01 0.00000E+00
 -1      3411 2.03519E+01 3.13003E+01 0.00000E+00
 -1      3412 1.93065E+01 3.20944E+01 0.00000E+00
 -1      3413 1.20892E+01 3.60646E+01 0.00000E+00
 -1      3414 1.38344E+01 3.61711E+01 0.00000E+00
 -1      3415 1.16507E+01 3.49190E+01 0.00000E+00
 -1      3416 4.69827E+01 1.28480E+01 0.00000E+00
 -1      3417 4.54827E+01 1.28480E+01 0.00000E+00
 -1      3418 4.99827E+01 1.28480E+01 0.00000E+00
 -1      3419 4.84827E+01 1.28480E+01 0.00000E+00
 -1      3420 4.77327E+01 1.41470E+01 0.00000E+00
 -1      3421 5.29827E+01 1.28480E+01 0.00000E+00
 -1      3422 5.14827E+01 1.28480E+01 0.00000E+00
 -1      3423 5.07327E+01 1.41470E+01 0.00000E+00
 -1      3424 5.59827E+01 1.28480E+01 0.00000E+00
 -1      3425 5.44827E+01 1.28480E+01 0.00000E+00
 -1      3426 5.37327E+01 1.41470E+01 0.00000E+00
 -1      3427 5.89827E+01 1.28480E+01 0.00000E+00
 -1      3428 5.74827E+01 1.28480E+01 0.00000E+00
 -1      3429 5.67327E+01 1.41470E+01 0.00000E+00
 -1      3430 6.21327E+01 1.28480E+01 0.00000E+00
 -1      3431 6.05577E+01 1.28480E+01 0.00000E+00
 -1      3432 5.98077E+01 1.41470E+01 0.00000E+00
 -1      3433 6.51327E+01 1.28480E+01 0.00000E+00
 -1      3434 6.36327E+01 1.28480E+01 0.00000E+00
 -1      3435 6.28827E+01 1.41470E+01 0.00000E+00
 -1      3436 6.81327E+01 1.28480E+01 0.00000E+00
 -1      3437 6.66327E+01 1.28480E+01 0.00000E+00
 -1      3438 6.58827E+01 1.41470E+01 0.00000E+00
 -1      3439 7.11327E+01 1.28480E+01 0.00000E+00
 -1      3440 6.96327E+01 1.28480E+01 0.00000E+00
 -1      3441 6.88827E+01 1.41470E+01 0.00000E+00
 -1      3442 7.41327E+01 1.28480E+01 0.00000E+00
 -1      3443 7.26327E+01 1.28480E+01 0.00000E+00
 -1      3444 7.18827E+01 1.41470E+01 0.00000E+00
 -1      3445 7.71327E+01 1.28480E+01 0.00000E+00
 -1      3446 7.56327E+01 1.28480E+01 0.00000E+00
 -1      3447 7.48827E+01 1.41470E+01 0.00000E+00
 -1      3448 8.01327E+01 1.28480E+01 0.00000E+00
 -1      3449 7.86327E+01 1.28480E+01 0.00000E+00
 -1      3450 7.78827E+01 1.41470E+01 0.00000E+00
 -1      3451 8.31327E+01 1.28480E+01 0.00000E+00
 -1      3452 8.16327E+01 1.28480E+01 0.00000E+00
 -1      3453 8.08827E+01 1.41470E+01 0.00000E+00
 -1      3454 8.61327E+01 1.28480E+01 0.00000E+00
 -1      3455 8.46327E+01 1.28480E+01 0.00000E+00
 -1      3456 8.38827E+01 1.41470E+01 0.00000E+00
 -1      3457 8.91327E+01 1.28480E+01 0.00000E+00
 -1      3458 8.76327E+01 1.28480E+01 0.00000E+00
 -1      3459 8.68827E+01 1.41470E+01 0.00000E+00
 -1      3460 9.21327E+01 1.28480E+01 0.00000E+00
 -1      3461 9.06327E+01 1.28480E+01 0.00000E+00
 -1      3462 8.98827E+01 1.41470E+01 0.00000E+00
 -1      3463 9.51327E+01 1.28480E+01 0.00000E+00
 -1      3464 9.36327E+01 1.28480E+01 0.00000E+00
 -1      3465 9.28827E+01 1.41470E+01 0.00000E+00
 -1      3466 9.81327E+01 1.28480E+01 0.00000E+00
 -1      3467 9.66327E+01 1.28480E+01 0.00000E+00
 -1      3468 9.58827E+01 1.41470E+01 0.00000E+00
 -1      3469 1.01133E+02 1.28480E+01 0.00000E+00
 -1      3470 9.96327E+01 1.28480E+01 0.00000E+00
 -1      3471 9.88827E+01 1.41470E+01 0.00000E+00
 -1      3472 1.04283E+02 1.28480E+01 0.00000E+00
 -1      3473 1.02708E+02 1.28480E+01 0.00000E+00
 -1      3474 1.01958E+02 1.41470E+01 0.00000E+00
 -1      3475 1.07283E+02 1.28480E+01 0.00000E+00
 -1      3476 1.05783E+02 1.28480E+01 0.00000E+00
 -1      3477 1.05033E+02 1.41470E+01 0.00000E+00
 -1      3478 1.10283E+02 1.28480E+01 0.00000E+00
 -1      3479 1.08783E+02 1.28480E+01 0.00000E+00
 -1      3480 1.08033E+02 1.41470E+01 0.00000E+00
 -1      3481 1.13283E+02 1.28480E+01 0.00000E+00
 -1      3482 1.11783E+02 1.28480E+01 0.00000E+00
 -1      3483 1.11033E+02 1.41470E+01 0.00000E+00
 -1      3484 1.16283E+02 1.28480E+01 0.00000E+00
 -1      3485 1.14783E+02 1.28480E+01 0.00000E+00
 -1      3486 1.14033E+02 1.41470E+01 0.00000E+00
 -1      3487 1.19283E+02 1.28480E+01 0.00000E+00
 -1      3488 1.17783E+02 1.28480E+01 0.00000E+00
 -1      3489 1.17033E+02 1.41470E+01 0.00000E+00
 -1      3490 1.22283E+02 1.28480E+01 0.00000E+00
 -1      3491 1.20783E+02 1.28480E+01 0.00000E+00
 -1      3492 1.20033E+02 1.41470E+01 0.00000E+00
 -1      3493 1.25283E+02 1.28480E+01 0.00000E+00
 -1      3494 1.23783E+02 1.28480E+01 0.00000E+00
 -1      3495 1.23033E+02 1.41470E+01 0.00000E+00
 -1      3496 1.28283E+02 1.28480E+01 0.00000E+00
 -1      3497 1.26783E+02 1.28480E+01 0.00000E+00
 -1      3498 1.26033E+02 1.41470E+01 0.00000E+00
 -1      3499 1.31283E+02 1.28480E+01 0.00000E+00
 -1      3500 1.29783E+02 1.28480E+01 0.00000E+00
 -1      3501 1.29033E+02 1.41470E+01 0.00000E+00
 -1      3502 1.35711E+02 3.01625E+01 0.00000E+00
 -1      3503 1.35711E+02 2.86875E+01 0.00000E+00
 -1      3504 1.34412E+02 3.09000E+01 0.00000E+00
 -1      3505 1.26892E+01 3.33712E+01 0.00000E+00
 -1      3506 1.35711E+02 2.72125E+01 0.00000E+00
 -1      3507 1.35711E+02 2.57375E+01 0.00000E+00
 -1      3508 1.34412E+02 2.79500E+01 0.00000E+00
 -1      3509 2.71874E+01 2.24365E+01 0.00000E+00
 -1      3510 2.67106E+01 2.35008E+01 0.00000E+00
 -1      3511 3.49827E+01 1.28480E+01 0.00000E+00
 -1      3512 3.34827E+01 1.28480E+01 0.00000E+00
 -1      3513 2.62261E+01 2.46577E+01 0.00000E+00
 -1      3514 2.57416E+01 2.58146E+01 0.00000E+00
 -1      3515 2.73236E+01 2.45103E+01 0.00000E+00
 -1      3516 3.19827E+01 1.28480E+01 0.00000E+00
 -1      3517 3.04827E+01 1.28480E+01 0.00000E+00
 -1      3518 3.27327E+01 1.41470E+01 0.00000E+00
 -1      3519 4.39827E+01 1.28480E+01 0.00000E+00
 -1      3520 4.24827E+01 1.28480E+01 0.00000E+00
 -1      3521 4.47327E+01 1.41470E+01 0.00000E+00
 -1      3522 2.00496E+01 3.47618E+01 0.00000E+00
 -1      3523 2.15496E+01 3.47618E+01 0.00000E+00
 -1      3524 2.25679E+01 2.97851E+01 0.00000E+00
 -1      3525 2.14599E+01 3.05427E+01 0.00000E+00
 -1      3526 2.15573E+01 3.17561E+01 0.00000E+00
 -1      3527 1.39080E+01 3.33761E+01 0.00000E+00
 -1      3528 3.79827E+01 1.28480E+01 0.00000E+00
 -1      3529 3.64827E+01 1.28480E+01 0.00000E+00
 -1      3530 3.57327E+01 1.41470E+01 0.00000E+00
 -1      3531 4.09827E+01 1.28480E+01 0.00000E+00
 -1      3532 3.94827E+01 1.28480E+01 0.00000E+00
 -1      3533 4.17327E+01 1.41470E+01 0.00000E+00
 -1      3534 2.78112E+01 1.65534E+01 0.00000E+00
 -1      3535 2.76605E+01 1.78707E+01 0.00000E+00
 -1      3536 2.81703E+01 1.87760E+01 0.00000E+00
 -1      3537 1.68072E+01 3.50980E+01 0.00000E+00
 -1      3538 1.81515E+01 3.50213E+01 0.00000E+00
 -1      3539 2.22996E+01 3.34628E+01 0.00000E+00
 -1      3540 1.35855E+02 1.84696E+01 0.00000E+00
 -1      3541 1.35912E+02 1.70585E+01 0.00000E+00
 -1      3542 1.50244E+01 3.40291E+01 0.00000E+00
 -1      3543 1.34022E+02 3.59933E+01 0.00000E+00
 -1      3544 1.35329E+02 3.61043E+01 0.00000E+00
 -1      3545 1.35515E+02 3.52588E+01 0.00000E+00
 -1      3546 1.33272E+02 3.46942E+01 0.00000E+00
 -1      3547 1.34412E+02 2.50000E+01 0.00000E+00
 -1      3548 1.35711E+02 2.42625E+01 0.00000E+00
 -1      3549 1.35711E+02 2.27875E+01 0.00000E+00
 -1      3550 3.87327E+01 1.41470E+01 0.00000E+00
 -1      3551 1.35702E+02 3.44132E+01 0.00000E+00
 -1      3552 2.76556E+01 2.17837E+01 0.00000E+00
 -1      3553 2.82763E+01 2.27006E+01 0.00000E+00
 -1      3554 2.81238E+01 2.11309E+01 0.00000E+00
 -1      3555 2.83821E+01 1.28215E+01 0.00000E+00
 -1      3556 2.91321E+01 1.41205E+01 0.00000E+00
 -1      3557 2.68882E+01 2.68122E+01 0.00000E+00
 -1      3558 2.57907E+01 2.69595E+01 0.00000E+00
 -1      3559 2.58399E+01 2.81044E+01 0.00000E+00
 -1      3560 1.34378E+02 1.30249E+01 0.00000E+00
 -1      3561 1.32959E+02 1.26813E+01 0.00000E+00
 -1      3562 1.32209E+02 1.39803E+01 0.00000E+00
 -1      3563 1.35562E+02 1.36471E+01 0.00000E+00
 -1      3564 1.35562E+02 1.51096E+01 0.00000E+00
 -1      3565 2.37038E+01 2.96251E+01 0.00000E+00
 -1      3566 2.38012E+01 3.08385E+01 0.00000E+00
 -1      3567 2.48398E+01 2.94651E+01 0.00000E+00
 -1      3568 1.34403E+02 3.36758E+01 0.00000E+00
 -1      3569 1.34236E+02 1.57626E+01 0.00000E+00
 -1      3570 2.34076E+01 3.27052E+01 0.00000E+00
 -1      3571 1.35798E+02 1.98807E+01 0.00000E+00
 -1      3572 1.34528E+02 1.91226E+01 0.00000E+00
 -1      3573 1.35741E+02 2.12919E+01 0.00000E+00
 -1      3574 1.94958E+01 3.33451E+01 0.00000E+00
 -1      3575 1.83531E+01 3.29257E+01 0.00000E+00
 -1      3576 2.79000E+01 3.31130E+01 0.00000E+00
 -1      3577 2.94000E+01 3.31130E+01 0.00000E+00
 -1      3578 3.09000E+01 3.31130E+01 0.00000E+00
 -1      3579 3.24000E+01 3.31130E+01 0.00000E+00
 -1      3580 3.01500E+01 3.18140E+01 0.00000E+00
 -1      3581 3.39000E+01 3.31130E+01 0.00000E+00
 -1      3582 3.54000E+01 3.31130E+01 0.00000E+00
 -1      3583 3.31500E+01 3.18140E+01 0.00000E+00
 -1      3584 3.69000E+01 3.31130E+01 0.00000E+00
 -1      3585 3.84000E+01 3.31130E+01 0.00000E+00
 -1      3586 3.61500E+01 3.18140E+01 0.00000E+00
 -1      3587 3.99000E+01 3.31130E+01 0.00000E+00
 -1      3588 4.14000E+01 3.31130E+01 0.00000E+00
 -1      3589 3.91500E+01 3.18140E+01 0.00000E+00
 -1      3590 4.29000E+01 3.31130E+01 0.00000E+00
 -1      3591 4.44000E+01 3.31130E+01 0.00000E+00
 -1      3592 4.21500E+01 3.18140E+01 0.00000E+00
 -1      3593 4.59000E+01 3.31130E+01 0.00000E+00
 -1      3594 4.74000E+01 3.31130E+01 0.00000E+00
 -1      3595 4.51500E+01 3.18140E+01 0.00000E+00
 -1      3596 4.89000E+01 3.31130E+01 0.00000E+00
 -1      3597 5.04000E+01 3.31130E+01 0.00000E+00
 -1      3598 4.81500E+01 3.18140E+01 0.00000E+00
 -1      3599 5.19000E+01 3.31130E+01 0.00000E+00
 -1      3600 5.34000E+01 3.31130E+01 0.00000E+00
 -1      3601 5.11500E+01 3.18140E+01 0.00000E+00
 -1      3602 5.49000E+01 3.31130E+01 0.00000E+00
 -1      3603 5.64000E+01 3.31130E+01 0.00000E+00
 -1      3604 5.41500E+01 3.18140E+01 0.00000E+00
 -1      3605 5.79000E+01 3.31130E+01 0.00000E+00
 -1      3606 5.94000E+01 3.31130E+01 0.00000E+00
 -1      3607 5.71500E+01 3.18140E+01 0.00000E+00
 -1      3608 6.09000E+01 3.31130E+01 0.00000E+00
 -1      3609 6.24000E+01 3.31130E+01 0.00000E+00
 -1      3610 6.01500E+01 3.18140E+01 0.00000E+00
 -1      3611 6.39000E+01 3.31130E+01 0.00000E+00
 -1      3612 6.54000E+01 3.31130E+01 0.00000E+00
 -1      3613 6.31500E+01 3.18140E+01 0.00000E+00
 -1      3614 6.69000E+01 3.31130E+01 0.00000E+00
 -1      3615 6.84000E+01 3.31130E+01 0.00000E+00
 -1      3616 6.61500E+01 3.18140E+01 0.00000E+00
 -1      3617 6.99000E+01 3.31130E+01 0.00000E+00
 -1      3618 7.14000E+01 3.31130E+01 0.00000E+00
 -1      3619 6.91500E+01 3.18140E+01 0.00000E+00
 -1      3620 7.29000E+01 3.31130E+01 0.00000E+00
 -1      3621 7.44000E+01 3.31130E+01 0.00000E+00
 -1      3622 7.21500E+01 3.18140E+01 0.00000E+00
 -1      3623 7.59000E+01 3.31130E+01 0.00000E+00
 -1      3624 7.74000E+01 3.31130E+01 0.00000E+00
 -1      3625 7.51500E+01 3.18140E+01 0.00000E+00
 -1      3626 7.89000E+01 3.31130E+01 0.00000E+00
 -1      3627 8.04000E+01 3.31130E+01 0.00000E+00
 -1      3628 7.81500E+01 3.18140E+01 0.00000E+00
 -1      3629 8.19000E+01 3.31130E+01 0.00000E+00
 -1      3630 8.34000E+01 3.31130E+01 0.00000E+00
 -1      3631 8.11500E+01 3.18140E+01 0.00000E+00
 -1      3632 8.49000E+01 3.31130E+01 0.00000E+00
 -1      3633 8.64000E+01 3.31130E+01 0.00000E+00
 -1      3634 8.41500E+01 3.18140E+01 0.00000E+00
 -1      3635 8.79000E+01 3.31130E+01 0.00000E+00
 -1      3636 8.94000E+01 3.31130E+01 0.00000E+00
 -1      3637 8.71500E+01 3.18140E+01 0.00000E+00
 -1      3638 9.09000E+01 3.31130E+01 0.00000E+00
 -1      3639 9.24000E+01 3.31130E+01 0.00000E+00
 -1      3640 9.01500E+01 3.18140E+01 0.00000E+00
 -1      3641 9.39000E+01 3.31130E+01 0.00000E+00
 -1      3642 9.54000E+01 3.31130E+01 0.00000E+00
 -1      3643 9.31500E+01 3.18140E+01 0.00000E+00
 -1      3644 9.69000E+01 3.31130E+01 0.00000E+00
 -1      3645 9.84000E+01 3.31130E+01 0.00000E+00
 -1      3646 9.61500E+01 3.18140E+01 0.00000E+00
 -1      3647 9.99000E+01 3.31130E+01 0.00000E+00
 -1      3648 1.01400E+02 3.31130E+01 0.00000E+00
 -1      3649 9.91500E+01 3.18140E+01 0.00000E+00
 -1      3650 1.02900E+02 3.31130E+01 0.00000E+00
 -1      3651 1.04400E+02 3.31130E+01 0.00000E+00
 -1      3652 1.02150E+02 3.18140E+01 0.00000E+00
 -1      3653 1.05900E+02 3.31130E+01 0.00000E+00
 -1      3654 1.07400E+02 3.31130E+01 0.00000E+00
 -1      3655 1.05150E+02 3.18140E+01 0.00000E+00
 -1      3656 1.08900E+02 3.31130E+01 0.00000E+00
 -1      3657 1.10400E+02 3.31130E+01 0.00000E+00
 -1      3658 1.08150E+02 3.18140E+01 0.00000E+00
 -1      3659 1.11900E+02 3.31130E+01 0.00000E+00
 -1      3660 1.13400E+02 3.31130E+01 0.00000E+00
 -1      3661 1.11150E+02 3.18140E+01 0.00000E+00
 -1      3662 1.14900E+02 3.31130E+01 0.00000E+00
 -1      3663 1.16400E+02 3.31130E+01 0.00000E+00
 -1      3664 1.14150E+02 3.18140E+01 0.00000E+00
 -1      3665 1.17900E+02 3.31130E+01 0.00000E+00
 -1      3666 1.19400E+02 3.31130E+01 0.00000E+00
 -1      3667 1.17150E+02 3.18140E+01 0.00000E+00
 -1      3668 1.20900E+02 3.31130E+01 0.00000E+00
 -1      3669 1.22400E+02 3.31130E+01 0.00000E+00
 -1      3670 1.20150E+02 3.18140E+01 0.00000E+00
 -1      3671 1.23900E+02 3.31130E+01 0.00000E+00
 -1      3672 1.25400E+02 3.31130E+01 0.00000E+00
 -1      3673 1.23150E+02 3.18140E+01 0.00000E+00
 -1      3674 1.26900E+02 3.31130E+01 0.00000E+00
 -1      3675 1.28400E+02 3.31130E+01 0.00000E+00
 -1      3676 1.26150E+02 3.18140E+01 0.00000E+00
 -1      3677 1.29900E+02 3.31130E+01 0.00000E+00
 -1      3678 1.31400E+02 3.31130E+01 0.00000E+00
 -1      3679 1.29150E+02 3.18140E+01 0.00000E+00
 -1      3680 1.33281E+02 3.33935E+01 0.00000E+00
 -1      3681 1.54629E+01 3.51747E+01 0.00000E+00
 -1      3682 5.14827E+01 1.54460E+01 0.00000E+00
 -1      3683 4.99827E+01 1.54460E+01 0.00000E+00
 -1      3684 4.84827E+01 1.54460E+01 0.00000E+00
 -1      3685 4.69827E+01 1.54460E+01 0.00000E+00
 -1      3686 4.92327E+01 1.67450E+01 0.00000E+00
 -1      3687 5.74827E+01 1.54460E+01 0.00000E+00
 -1      3688 5.59827E+01 1.54460E+01 0.00000E+00
 -1      3689 6.06327E+01 1.54460E+01 0.00000E+00
 -1      3690 5.90577E+01 1.54460E+01 0.00000E+00
 -1      3691 5.83077E+01 1.67450E+01 0.00000E+00
 -1      3692 6.36327E+01 1.54460E+01 0.00000E+00
 -1      3693 6.21327E+01 1.54460E+01 0.00000E+00
 -1      3694 6.13827E+01 1.67450E+01 0.00000E+00
 -1      3695 6.66327E+01 1.54460E+01 0.00000E+00
 -1      3696 6.51327E+01 1.54460E+01 0.00000E+00
 -1      3697 6.43827E+01 1.67450E+01 0.00000E+00
 -1      3698 6.96327E+01 1.54460E+01 0.00000E+00
 -1      3699 6.81327E+01 1.54460E+01 0.00000E+00
 -1      3700 6.73827E+01 1.67450E+01 0.00000E+00
 -1      3701 7.26327E+01 1.54460E+01 0.00000E+00
 -1      3702 7.11327E+01 1.54460E+01 0.00000E+00
 -1      3703 7.03827E+01 1.67450E+01 0.00000E+00
 -1      3704 7.56327E+01 1.54460E+01 0.00000E+00
 -1      3705 7.41327E+01 1.54460E+01 0.00000E+00
 -1      3706 7.33827E+01 1.67450E+01 0.00000E+00
 -1      3707 7.86327E+01 1.54460E+01 0.00000E+00
 -1      3708 7.71327E+01 1.54460E+01 0.00000E+00
 -1      3709 7.63827E+01 1.67450E+01 0.00000E+00
 -1      3710 8.16327E+01 1.54460E+01 0.00000E+00
 -1      3711 8.01327E+01 1.54460E+01 0.00000E+00
 -1      3712 7.93827E+01 1.67450E+01 0.00000E+00
 -1      3713 8.46327E+01 1.54460E+01 0.00000E+00
 -1      3714 8.31327E+01 1.54460E+01 0.00000E+00
 -1      3715 8.23827E+01 1.67450E+01 0.00000E+00
 -1      3716 8.76327E+01 1.54460E+01 0.00000E+00
 -1      3717 8.61327E+01 1.54460E+01 0.00000E+00
 -1      3718 8.53827E+01 1.67450E+01 0.00000E+00
 -1      3719 9.06327E+01 1.54460E+01 0.00000E+00
 -1      3720 8.91327E+01 1.54460E+01 0.00000E+00
 -1      3721 8.83827E+01 1.67450E+01 0.00000E+00
 -1      3722 9.36327E+01 1.54460E+01 0.00000E+00
 -1      3723 9.21327E+01 1.54460E+01 0.00000E+00
 -1      3724 9.13827E+01 1.67450E+01 0.00000E+00
 -1      3725 9.66327E+01 1.54460E+01 0.00000E+00
 -1      3726 9.51327E+01 1.54460E+01 0.00000E+00
 -1      3727 9.43827E+01 1.67450E+01 0.00000E+00
 -1      3728 9.96327E+01 1.54460E+01 0.00000E+00
 -1      3729 9.81327E+01 1.54460E+01 0.00000E+00
 -1      3730 9.73827E+01 1.67450E+01 0.00000E+00
 -1      3731 1.02783E+02 1.54460E+01 0.00000E+00
 -1      3732 1.01208E+02 1.54460E+01 0.00000E+00
 -1      3733 1.00458E+02 1.67450E+01 0.00000E+00
 -1      3734 1.05783E+02 1.54460E+01 0.00000E+00
 -1      3735 1.04283E+02 1.54460E+01 0.00000E+00
 -1      3736 1.03533E+02 1.67450E+01 0.00000E+00
 -1      3737 1.08783E+02 1.54460E+01 0.00000E+00
 -1      3738 1.07283E+02 1.54460E+01 0.00000E+00
 -1      3739 1.06533E+02 1.67450E+01 0.00000E+00
 -1      3740 1.11783E+02 1.54460E+01 0.00000E+00
 -1      3741 1.10283E+02 1.54460E+01 0.00000E+00
 -1      3742 1.09533E+02 1.67450E+01 0.00000E+00
 -1      3743 1.14783E+02 1.54460E+01 0.00000E+00
 -1      3744 1.13283E+02 1.54460E+01 0.00000E+00
 -1      3745 1.12533E+02 1.67450E+01 0.00000E+00
 -1      3746 1.17783E+02 1.54460E+01 0.00000E+00
 -1      3747 1.16283E+02 1.54460E+01 0.00000E+00
 -1      3748 1.15533E+02 1.67450E+01 0.00000E+00
 -1      3749 1.20783E+02 1.54460E+01 0.00000E+00
 -1      3750 1.19283E+02 1.54460E+01 0.00000E+00
 -1      3751 1.18533E+02 1.67450E+01 0.00000E+00
 -1      3752 1.23783E+02 1.54460E+01 0.00000E+00
 -1      3753 1.22283E+02 1.54460E+01 0.00000E+00
 -1      3754 1.21533E+02 1.67450E+01 0.00000E+00
 -1      3755 1.26783E+02 1.54460E+01 0.00000E+00
 -1      3756 1.25283E+02 1.54460E+01 0.00000E+00
 -1      3757 1.24533E+02 1.67450E+01 0.00000E+00
 -1      3758 1.29783E+02 1.54460E+01 0.00000E+00
 -1      3759 1.28283E+02 1.54460E+01 0.00000E+00
 -1      3760 1.27533E+02 1.67450E+01 0.00000E+00
 -1      3761 1.33113E+02 2.86875E+01 0.00000E+00
 -1      3762 1.33113E+02 2.72125E+01 0.00000E+00
 -1      3763 1.75977E+01 3.36046E+01 0.00000E+00
 -1      3764 2.45436E+01 3.25452E+01 0.00000E+00
 -1      3765 3.94827E+01 1.54460E+01 0.00000E+00
 -1      3766 3.79827E+01 1.54460E+01 0.00000E+00
 -1      3767 3.34827E+01 1.54234E+01 0.00000E+00
 -1      3768 3.19827E+01 1.54234E+01 0.00000E+00
 -1      3769 1.32847E+02 1.55210E+01 0.00000E+00
 -1      3770 1.31171E+02 1.56876E+01 0.00000E+00
 -1      3771 1.30421E+02 1.69866E+01 0.00000E+00
 -1      3772 1.33197E+02 1.74698E+01 0.00000E+00
 -1      3773 2.87432E+01 2.44250E+01 0.00000E+00
 -1      3774 2.82587E+01 2.55819E+01 0.00000E+00
 -1      3775 4.54827E+01 1.54460E+01 0.00000E+00
 -1      3776 4.39827E+01 1.54460E+01 0.00000E+00
 -1      3777 4.62327E+01 1.67450E+01 0.00000E+00
 -1      3778 5.44827E+01 1.54460E+01 0.00000E+00
 -1      3779 5.29827E+01 1.54460E+01 0.00000E+00
 -1      3780 5.52327E+01 1.67450E+01 0.00000E+00
 -1      3781 3.64827E+01 1.54460E+01 0.00000E+00
 -1      3782 3.49827E+01 1.54460E+01 0.00000E+00
 -1      3783 3.72327E+01 1.67450E+01 0.00000E+00
 -1      3784 4.24827E+01 1.54460E+01 0.00000E+00
 -1      3785 4.09827E+01 1.54460E+01 0.00000E+00
 -1      3786 4.02327E+01 1.67450E+01 0.00000E+00
 -1      3787 4.32327E+01 1.67450E+01 0.00000E+00
 -1      3788 2.79716E+01 1.52802E+01 0.00000E+00
 -1      3789 2.89979E+01 1.60649E+01 0.00000E+00
 -1      3790 2.60436E+01 3.25452E+01 0.00000E+00
 -1      3791 2.94338E+01 1.84886E+01 0.00000E+00
 -1      3792 2.87665E+01 1.99265E+01 0.00000E+00
 -1      3793 1.32531E+02 3.20945E+01 0.00000E+00
 -1      3794 2.97545E+01 1.59421E+01 0.00000E+00
 -1      3795 2.95942E+01 1.72153E+01 0.00000E+00
 -1      3796 3.01904E+01 1.83658E+01 0.00000E+00
 -1      3797 5.22327E+01 1.67450E+01 0.00000E+00
 -1      3798 1.33113E+02 2.57375E+01 0.00000E+00
 -1      3799 1.33113E+02 2.42625E+01 0.00000E+00
 -1      3800 1.31814E+02 2.64750E+01 0.00000E+00
 -1      3801 1.34442E+02 2.20294E+01 0.00000E+00
 -1      3802 3.42327E+01 1.67224E+01 0.00000E+00
 -1      3803 2.92114E+01 2.37722E+01 0.00000E+00
 -1      3804 3.01465E+01 2.48438E+01 0.00000E+00
 -1      3805 2.96796E+01 2.31194E+01 0.00000E+00
 -1      3806 2.59372E+01 2.93178E+01 0.00000E+00
 -1      3807 1.32531E+02 3.06195E+01 0.00000E+00
 -1      3808 2.93873E+01 2.08434E+01 0.00000E+00
 -1      3809 2.67936E+01 3.12462E+01 0.00000E+00
 -1      3810 2.83078E+01 2.67268E+01 0.00000E+00
 -1      3811 2.83570E+01 2.78717E+01 0.00000E+00
 -1      3812 2.97275E+01 2.66415E+01 0.00000E+00
 -1      3813 2.80949E+01 1.44428E+01 0.00000E+00
 -1      3814 1.31232E+02 2.98820E+01 0.00000E+00
 -1      3815 3.15418E+01 1.68962E+01 0.00000E+00
 -1      3816 3.07918E+01 1.56197E+01 0.00000E+00
 -1      3817 1.33140E+02 1.88810E+01 0.00000E+00
 -1      3818 1.31752E+02 1.86393E+01 0.00000E+00
 -1      3819 1.33083E+02 2.02921E+01 0.00000E+00
 -1      3820 3.49632E+01 1.80326E+01 0.00000E+00
 -1      3821 3.34632E+01 1.80100E+01 0.00000E+00
 -1      3822 3.24000E+01 3.05150E+01 0.00000E+00
 -1      3823 3.39000E+01 3.05150E+01 0.00000E+00
 -1      3824 3.54000E+01 3.05150E+01 0.00000E+00
 -1      3825 3.69000E+01 3.05150E+01 0.00000E+00
 -1      3826 3.46500E+01 2.92160E+01 0.00000E+00
 -1      3827 3.84000E+01 3.05150E+01 0.00000E+00
 -1      3828 3.99000E+01 3.05150E+01 0.00000E+00
 -1      3829 3.76500E+01 2.92160E+01 0.00000E+00
 -1      3830 4.14000E+01 3.05150E+01 0.00000E+00
 -1      3831 4.29000E+01 3.05150E+01 0.00000E+00
 -1      3832 4.06500E+01 2.92160E+01 0.00000E+00
 -1      3833 4.44000E+01 3.05150E+01 0.00000E+00
 -1      3834 4.59000E+01 3.05150E+01 0.00000E+00
 -1      3835 4.36500E+01 2.92160E+01 0.00000E+00
 -1      3836 4.74000E+01 3.05150E+01 0.00000E+00
 -1      3837 4.89000E+01 3.05150E+01 0.00000E+00
 -1      3838 4.66500E+01 2.92160E+01 0.00000E+00
 -1      3839 5.04000E+01 3.05150E+01 0.00000E+00
 -1      3840 5.19000E+01 3.05150E+01 0.00000E+00
 -1      3841 4.96500E+01 2.92160E+01 0.00000E+00
 -1      3842 5.34000E+01 3.05150E+01 0.00000E+00
 -1      3843 5.49000E+01 3.05150E+01 0.00000E+00
 -1      3844 5.26500E+01 2.92160E+01 0.00000E+00
 -1      3845 5.64000E+01 3.05150E+01 0.00000E+00
 -1      3846 5.79000E+01 3.05150E+01 0.00000E+00
 -1      3847 5.56500E+01 2.92160E+01 0.00000E+00
 -1      3848 5.94000E+01 3.05150E+01 0.00000E+00
 -1      3849 6.09000E+01 3.05150E+01 0.00000E+00
 -1      3850 5.86500E+01 2.92160E+01 0.00000E+00
 -1      3851 6.24000E+01 3.05150E+01 0.00000E+00
 -1      3852 6.39000E+01 3.05150E+01 0.00000E+00
 -1      3853 6.16500E+01 2.92160E+01 0.00000E+00
 -1      3854 6.54000E+01 3.05150E+01 0.00000E+00
 -1      3855 6.69000E+01 3.05150E+01 0.00000E+00
 -1      3856 6.46500E+01 2.92160E+01 0.00000E+00
 -1      3857 6.84000E+01 3.05150E+01 0.00000E+00
 -1      3858 6.99000E+01 3.05150E+01 0.00000E+00
 -1      3859 6.76500E+01 2.92160E+01 0.00000E+00
 -1      3860 7.14000E+01 3.05150E+01 0.00000E+00
 -1      3861 7.29000E+01 3.05150E+01 0.00000E+00
 -1      3862 7.06500E+01 2.92160E+01 0.00000E+00
 -1      3863 7.44000E+01 3.05150E+01 0.00000E+00
 -1      3864 7.59000E+01 3.05150E+01 0.00000E+00
 -1      3865 7.36500E+01 2.92160E+01 0.00000E+00
 -1      3866 7.74000E+01 3.05150E+01 0.00000E+00
 -1      3867 7.89000E+01 3.05150E+01 0.00000E+00
 -1      3868 7.66500E+01 2.92160E+01 0.00000E+00
 -1      3869 8.04000E+01 3.05150E+01 0.00000E+00
 -1      3870 8.19000E+01 3.05150E+01 0.00000E+00
 -1      3871 7.96500E+01 2.92160E+01 0.00000E+00
 -1      3872 8.34000E+01 3.05150E+01 0.00000E+00
 -1      3873 8.49000E+01 3.05150E+01 0.00000E+00
 -1      3874 8.26500E+01 2.92160E+01 0.00000E+00
 -1      3875 8.64000E+01 3.05150E+01 0.00000E+00
 -1      3876 8.79000E+01 3.05150E+01 0.00000E+00
 -1      3877 8.56500E+01 2.92160E+01 0.00000E+00
 -1      3878 8.94000E+01 3.05150E+01 0.00000E+00
 -1      3879 9.09000E+01 3.05150E+01 0.00000E+00
 -1      3880 8.86500E+01 2.92160E+01 0.00000E+00
 -1      3881 9.24000E+01 3.05150E+01 0.00000E+00
 -1      3882 9.39000E+01 3.05150E+01 0.00000E+00
 -1      3883 9.16500E+01 2.92160E+01 0.00000E+00
 -1      3884 9.54000E+01 3.05150E+01 0.00000E+00
 -1      3885 9.69000E+01 3.05150E+01 0.00000E+00
 -1      3886 9.46500E+01 2.92160E+01 0.00000E+00
 -1      3887 9.84000E+01 3.05150E+01 0.00000E+00
 -1      3888 9.99000E+01 3.05150E+01 0.00000E+00
 -1      3889 9.76500E+01 2.92160E+01 0.00000E+00
 -1      3890 1.01400E+02 3.05150E+01 0.00000E+00
 -1      3891 1.02900E+02 3.05150E+01 0.00000E+00
 -1      3892 1.00650E+02 2.92160E+01 0.00000E+00
 -1      3893 1.04400E+02 3.05150E+01 0.00000E+00
 -1      3894 1.05900E+02 3.05150E+01 0.00000E+00
 -1      3895 1.03650E+02 2.92160E+01 0.00000E+00
 -1      3896 1.07400E+02 3.05150E+01 0.00000E+00
 -1      3897 1.08900E+02 3.05150E+01 0.00000E+00
 -1      3898 1.06650E+02 2.92160E+01 0.00000E+00
 -1      3899 1.10400E+02 3.05150E+01 0.00000E+00
 -1      3900 1.11900E+02 3.05150E+01 0.00000E+00
 -1      3901 1.09650E+02 2.92160E+01 0.00000E+00
 -1      3902 1.13400E+02 3.05150E+01 0.00000E+00
 -1      3903 1.14900E+02 3.05150E+01 0.00000E+00
 -1      3904 1.12650E+02 2.92160E+01 0.00000E+00
 -1      3905 1.16400E+02 3.05150E+01 0.00000E+00
 -1      3906 1.17900E+02 3.05150E+01 0.00000E+00
 -1      3907 1.15650E+02 2.92160E+01 0.00000E+00
 -1      3908 1.19400E+02 3.05150E+01 0.00000E+00
 -1      3909 1.20900E+02 3.05150E+01 0.00000E+00
 -1      3910 1.18650E+02 2.92160E+01 0.00000E+00
 -1      3911 1.22400E+02 3.05150E+01 0.00000E+00
 -1      3912 1.23900E+02 3.05150E+01 0.00000E+00
 -1      3913 1.21650E+02 2.92160E+01 0.00000E+00
 -1      3914 1.25400E+02 3.05150E+01 0.00000E+00
 -1      3915 1.26900E+02 3.05150E+01 0.00000E+00
 -1      3916 1.24650E+02 2.92160E+01 0.00000E+00
 -1      3917 1.28316E+02 3.01985E+01 0.00000E+00
 -1      3918 1.29816E+02 3.01985E+01 0.00000E+00
 -1      3919 1.30398E+02 2.82665E+01 0.00000E+00
 -1      3920 1.27566E+02 2.88995E+01 0.00000E+00
 -1      3921 6.51327E+01 1.80440E+01 0.00000E+00
 -1      3922 6.36327E+01 1.80440E+01 0.00000E+00
 -1      3923 4.99827E+01 1.80440E+01 0.00000E+00
 -1      3924 4.84827E+01 1.80440E+01 0.00000E+00
 -1      3925 6.21327E+01 1.80440E+01 0.00000E+00
 -1      3926 6.06327E+01 1.80440E+01 0.00000E+00
 -1      3927 6.28827E+01 1.93430E+01 0.00000E+00
 -1      3928 5.90577E+01 1.80440E+01 0.00000E+00
 -1      3929 5.74827E+01 1.80440E+01 0.00000E+00
 -1      3930 5.98077E+01 1.93430E+01 0.00000E+00
 -1      3931 6.81327E+01 1.80440E+01 0.00000E+00
 -1      3932 6.66327E+01 1.80440E+01 0.00000E+00
 -1      3933 6.58827E+01 1.93430E+01 0.00000E+00
 -1      3934 7.11327E+01 1.80440E+01 0.00000E+00
 -1      3935 6.96327E+01 1.80440E+01 0.00000E+00
 -1      3936 6.88827E+01 1.93430E+01 0.00000E+00
 -1      3937 7.41327E+01 1.80440E+01 0.00000E+00
 -1      3938 7.26327E+01 1.80440E+01 0.00000E+00
 -1      3939 7.18827E+01 1.93430E+01 0.00000E+00
 -1      3940 7.71327E+01 1.80440E+01 0.00000E+00
 -1      3941 7.56327E+01 1.80440E+01 0.00000E+00
 -1      3942 7.48827E+01 1.93430E+01 0.00000E+00
 -1      3943 8.01327E+01 1.80440E+01 0.00000E+00
 -1      3944 7.86327E+01 1.80440E+01 0.00000E+00
 -1      3945 7.78827E+01 1.93430E+01 0.00000E+00
 -1      3946 8.31327E+01 1.80440E+01 0.00000E+00
 -1      3947 8.16327E+01 1.80440E+01 0.00000E+00
 -1      3948 8.08827E+01 1.93430E+01 0.00000E+00
 -1      3949 8.61327E+01 1.80440E+01 0.00000E+00
 -1      3950 8.46327E+01 1.80440E+01 0.00000E+00
 -1      3951 8.38827E+01 1.93430E+01 0.00000E+00
 -1      3952 8.91327E+01 1.80440E+01 0.00000E+00
 -1      3953 8.76327E+01 1.80440E+01 0.00000E+00
 -1      3954 8.68827E+01 1.93430E+01 0.00000E+00
 -1      3955 9.21327E+01 1.80440E+01 0.00000E+00
 -1      3956 9.06327E+01 1.80440E+01 0.00000E+00
 -1      3957 8.98827E+01 1.93430E+01 0.00000E+00
 -1      3958 9.51327E+01 1.80440E+01 0.00000E+00
 -1      3959 9.36327E+01 1.80440E+01 0.00000E+00
 -1      3960 9.28827E+01 1.93430E+01 0.00000E+00
 -1      3961 9.81327E+01 1.80440E+01 0.00000E+00
 -1      3962 9.66327E+01 1.80440E+01 0.00000E+00
 -1      3963 9.58827E+01 1.93430E+01 0.00000E+00
 -1      3964 1.01283E+02 1.80440E+01 0.00000E+00
 -1      3965 9.97077E+01 1.80440E+01 0.00000E+00
 -1      3966 9.89577E+01 1.93430E+01 0.00000E+00
 -1      3967 1.04283E+02 1.80440E+01 0.00000E+00
 -1      3968 1.02783E+02 1.80440E+01 0.00000E+00
 -1      3969 1.02033E+02 1.93430E+01 0.00000E+00
 -1      3970 1.07283E+02 1.80440E+01 0.00000E+00
 -1      3971 1.05783E+02 1.80440E+01 0.00000E+00
 -1      3972 1.05033E+02 1.93430E+01 0.00000E+00
 -1      3973 1.10283E+02 1.80440E+01 0.00000E+00
 -1      3974 1.08783E+02 1.80440E+01 0.00000E+00
 -1      3975 1.08033E+02 1.93430E+01 0.00000E+00
 -1      3976 1.13283E+02 1.80440E+01 0.00000E+00
 -1      3977 1.11783E+02 1.80440E+01 0.00000E+00
 -1      3978 1.11033E+02 1.93430E+01 0.00000E+00
 -1      3979 1.16283E+02 1.80440E+01 0.00000E+00
 -1      3980 1.14783E+02 1.80440E+01 0.00000E+00
 -1      3981 1.14033E+02 1.93430E+01 0.00000E+00
 -1      3982 1.19283E+02 1.80440E+01 0.00000E+00
 -1      3983 1.17783E+02 1.80440E+01 0.00000E+00
 -1      3984 1.17033E+02 1.93430E+01 0.00000E+00
 -1      3985 1.22283E+02 1.80440E+01 0.00000E+00
 -1      3986 1.20783E+02 1.80440E+01 0.00000E+00
 -1      3987 1.20033E+02 1.93430E+01 0.00000E+00
 -1      3988 1.25283E+02 1.80440E+01 0.00000E+00
 -1      3989 1.23783E+02 1.80440E+01 0.00000E+00
 -1      3990 1.23033E+02 1.93430E+01 0.00000E+00
 -1      3991 1.28283E+02 1.80440E+01 0.00000E+00
 -1      3992 1.26783E+02 1.80440E+01 0.00000E+00
 -1      3993 1.26033E+02 1.93430E+01 0.00000E+00
 -1      3994 1.33083E+02 2.30251E+01 0.00000E+00
 -1      3995 1.33113E+02 2.15295E+01 0.00000E+00
 -1      3996 1.31725E+02 2.12878E+01 0.00000E+00
 -1      3997 1.31784E+02 2.37626E+01 0.00000E+00
 -1      3998 2.77937E+01 2.98855E+01 0.00000E+00
 -1      3999 3.24223E+01 1.80898E+01 0.00000E+00
 -1      4000 3.12313E+01 1.82861E+01 0.00000E+00
 -1      4001 3.10710E+01 1.95593E+01 0.00000E+00
 -1      4002 3.31528E+01 1.93999E+01 0.00000E+00
 -1      4003 1.30711E+02 1.84625E+01 0.00000E+00
 -1      4004 1.29323E+02 1.82208E+01 0.00000E+00
 -1      4005 1.28573E+02 1.95198E+01 0.00000E+00
 -1      4006 1.30654E+02 1.98736E+01 0.00000E+00
 -1      4007 4.69827E+01 1.80440E+01 0.00000E+00
 -1      4008 4.54827E+01 1.80440E+01 0.00000E+00
 -1      4009 4.77327E+01 1.93430E+01 0.00000E+00
 -1      4010 1.90962E+01 3.55932E+01 0.00000E+00
 -1      4011 2.92133E+01 2.98002E+01 0.00000E+00
 -1      4012 3.07133E+01 2.98002E+01 0.00000E+00
 -1      4013 3.79632E+01 1.80326E+01 0.00000E+00
 -1      4014 3.64632E+01 1.80326E+01 0.00000E+00
 -1      4015 3.56937E+01 1.93202E+01 0.00000E+00
 -1      4016 5.29827E+01 1.80440E+01 0.00000E+00
 -1      4017 5.14827E+01 1.80440E+01 0.00000E+00
 -1      4018 5.07327E+01 1.93430E+01 0.00000E+00
 -1      4019 3.06967E+01 2.07372E+01 0.00000E+00
 -1      4020 3.00539E+01 2.19415E+01 0.00000E+00
 -1      4021 3.09890E+01 2.30131E+01 0.00000E+00
 -1      4022 3.17376E+01 2.06574E+01 0.00000E+00
 -1      4023 5.59827E+01 1.80440E+01 0.00000E+00
 -1      4024 5.44827E+01 1.80440E+01 0.00000E+00
 -1      4025 5.67327E+01 1.93430E+01 0.00000E+00
 -1      4026 1.30398E+02 2.67915E+01 0.00000E+00
 -1      4027 1.30398E+02 2.53165E+01 0.00000E+00
 -1      4028 1.28982E+02 2.71080E+01 0.00000E+00
 -1      4029 3.14633E+01 2.85012E+01 0.00000E+00
 -1      4030 3.13650E+01 2.62114E+01 0.00000E+00
 -1      4031 3.14142E+01 2.73563E+01 0.00000E+00
 -1      4032 3.31008E+01 2.80711E+01 0.00000E+00
 -1      4033 4.09632E+01 1.80326E+01 0.00000E+00
 -1      4034 3.94632E+01 1.80326E+01 0.00000E+00
 -1      4035 3.86937E+01 1.93202E+01 0.00000E+00
 -1      4036 4.47327E+01 1.93430E+01 0.00000E+00
 -1      4037 4.39827E+01 1.80440E+01 0.00000E+00
 -1      4038 4.24827E+01 1.80440E+01 0.00000E+00
 -1      4039 5.37327E+01 1.93430E+01 0.00000E+00
 -1      4040 3.18332E+01 2.55586E+01 0.00000E+00
 -1      4041 5.74827E+01 2.06420E+01 0.00000E+00
 -1      4042 5.59827E+01 2.06420E+01 0.00000E+00
 -1      4043 3.01955E+01 1.44693E+01 0.00000E+00
 -1      4044 3.69000E+01 2.79170E+01 0.00000E+00
 -1      4045 3.84000E+01 2.79170E+01 0.00000E+00
 -1      4046 3.99000E+01 2.79170E+01 0.00000E+00
 -1      4047 4.14000E+01 2.79170E+01 0.00000E+00
 -1      4048 3.91500E+01 2.66180E+01 0.00000E+00
 -1      4049 4.29000E+01 2.79170E+01 0.00000E+00
 -1      4050 4.44000E+01 2.79170E+01 0.00000E+00
 -1      4051 4.21500E+01 2.66180E+01 0.00000E+00
 -1      4052 4.59000E+01 2.79170E+01 0.00000E+00
 -1      4053 4.74000E+01 2.79170E+01 0.00000E+00
 -1      4054 4.51500E+01 2.66180E+01 0.00000E+00
 -1      4055 4.89000E+01 2.79170E+01 0.00000E+00
 -1      4056 5.04000E+01 2.79170E+01 0.00000E+00
 -1      4057 4.81500E+01 2.66180E+01 0.00000E+00
 -1      4058 5.19000E+01 2.79170E+01 0.00000E+00
 -1      4059 5.34000E+01 2.79170E+01 0.00000E+00
 -1      4060 5.11500E+01 2.66180E+01 0.00000E+00
 -1      4061 5.49000E+01 2.79170E+01 0.00000E+00
 -1      4062 5.64000E+01 2.79170E+01 0.00000E+00
 -1      4063 5.41500E+01 2.66180E+01 0.00000E+00
 -1      4064 5.79000E+01 2.79170E+01 0.00000E+00
 -1      4065 5.94000E+01 2.79170E+01 0.00000E+00
 -1      4066 5.71500E+01 2.66180E+01 0.00000E+00
 -1      4067 6.09000E+01 2.79170E+01 0.00000E+00
 -1      4068 6.24000E+01 2.79170E+01 0.00000E+00
 -1      4069 6.01500E+01 2.66180E+01 0.00000E+00
 -1      4070 6.39000E+01 2.79170E+01 0.00000E+00
 -1      4071 6.54000E+01 2.79170E+01 0.00000E+00
 -1      4072 6.31500E+01 2.66180E+01 0.00000E+00
 -1      4073 6.69000E+01 2.79170E+01 0.00000E+00
 -1      4074 6.84000E+01 2.79170E+01 0.00000E+00
 -1      4075 6.61500E+01 2.66180E+01 0.00000E+00
 -1      4076 6.99000E+01 2.79170E+01 0.00000E+00
 -1      4077 7.14000E+01 2.79170E+01 0.00000E+00
 -1      4078 6.91500E+01 2.66180E+01 0.00000E+00
 -1      4079 7.29000E+01 2.79170E+01 0.00000E+00
 -1      4080 7.44000E+01 2.79170E+01 0.00000E+00
 -1      4081 7.21500E+01 2.66180E+01 0.00000E+00
 -1      4082 7.59000E+01 2.79170E+01 0.00000E+00
 -1      4083 7.74000E+01 2.79170E+01 0.00000E+00
 -1      4084 7.51500E+01 2.66180E+01 0.00000E+00
 -1      4085 7.89000E+01 2.79170E+01 0.00000E+00
 -1      4086 8.04000E+01 2.79170E+01 0.00000E+00
 -1      4087 7.81500E+01 2.66180E+01 0.00000E+00
 -1      4088 8.19000E+01 2.79170E+01 0.00000E+00
 -1      4089 8.34000E+01 2.79170E+01 0.00000E+00
 -1      4090 8.11500E+01 2.66180E+01 0.00000E+00
 -1      4091 8.49000E+01 2.79170E+01 0.00000E+00
 -1      4092 8.64000E+01 2.79170E+01 0.00000E+00
 -1      4093 8.41500E+01 2.66180E+01 0.00000E+00
 -1      4094 8.79000E+01 2.79170E+01 0.00000E+00
 -1      4095 8.94000E+01 2.79170E+01 0.00000E+00
 -1      4096 8.71500E+01 2.66180E+01 0.00000E+00
 -1      4097 9.09000E+01 2.79170E+01 0.00000E+00
 -1      4098 9.24000E+01 2.79170E+01 0.00000E+00
 -1      4099 9.01500E+01 2.66180E+01 0.00000E+00
 -1      4100 9.39000E+01 2.79170E+01 0.00000E+00
 -1      4101 9.54000E+01 2.79170E+01 0.00000E+00
 -1      4102 9.31500E+01 2.66180E+01 0.00000E+00
 -1      4103 9.69000E+01 2.79170E+01 0.00000E+00
 -1      4104 9.84000E+01 2.79170E+01 0.00000E+00
 -1      4105 9.61500E+01 2.66180E+01 0.00000E+00
 -1      4106 9.99000E+01 2.79170E+01 0.00000E+00
 -1      4107 1.01400E+02 2.79170E+01 0.00000E+00
 -1      4108 9.91500E+01 2.66180E+01 0.00000E+00
 -1      4109 1.02900E+02 2.79170E+01 0.00000E+00
 -1      4110 1.04400E+02 2.79170E+01 0.00000E+00
 -1      4111 1.02150E+02 2.66180E+01 0.00000E+00
 -1      4112 1.05900E+02 2.79170E+01 0.00000E+00
 -1      4113 1.07400E+02 2.79170E+01 0.00000E+00
 -1      4114 1.05150E+02 2.66180E+01 0.00000E+00
 -1      4115 1.08900E+02 2.79170E+01 0.00000E+00
 -1      4116 1.10400E+02 2.79170E+01 0.00000E+00
 -1      4117 1.08150E+02 2.66180E+01 0.00000E+00
 -1      4118 1.11900E+02 2.79170E+01 0.00000E+00
 -1      4119 1.13400E+02 2.79170E+01 0.00000E+00
 -1      4120 1.11150E+02 2.66180E+01 0.00000E+00
 -1      4121 1.14900E+02 2.79170E+01 0.00000E+00
 -1      4122 1.16400E+02 2.79170E+01 0.00000E+00
 -1      4123 1.14150E+02 2.66180E+01 0.00000E+00
 -1      4124 1.17900E+02 2.79170E+01 0.00000E+00
 -1      4125 1.19400E+02 2.79170E+01 0.00000E+00
 -1      4126 1.17150E+02 2.66180E+01 0.00000E+00
 -1      4127 1.20900E+02 2.79170E+01 0.00000E+00
 -1      4128 1.22400E+02 2.79170E+01 0.00000E+00
 -1      4129 1.20150E+02 2.66180E+01 0.00000E+00
 -1      4130 1.23900E+02 2.79170E+01 0.00000E+00
 -1      4131 1.25400E+02 2.79170E+01 0.00000E+00
 -1      4132 1.23150E+02 2.66180E+01 0.00000E+00
 -1      4133 1.26483E+02 2.76707E+01 0.00000E+00
 -1      4134 1.27899E+02 2.73542E+01 0.00000E+00
 -1      4135 1.27899E+02 2.58792E+01 0.00000E+00
 -1      4136 1.25733E+02 2.63717E+01 0.00000E+00
 -1      4137 6.66327E+01 2.06420E+01 0.00000E+00
 -1      4138 6.51327E+01 2.06420E+01 0.00000E+00
 -1      4139 6.06327E+01 2.06420E+01 0.00000E+00
 -1      4140 5.90577E+01 2.06420E+01 0.00000E+00
 -1      4141 5.83077E+01 2.19410E+01 0.00000E+00
 -1      4142 7.26327E+01 2.06420E+01 0.00000E+00
 -1      4143 7.11327E+01 2.06420E+01 0.00000E+00
 -1      4144 7.56327E+01 2.06420E+01 0.00000E+00
 -1      4145 7.41327E+01 2.06420E+01 0.00000E+00
 -1      4146 7.33827E+01 2.19410E+01 0.00000E+00
 -1      4147 7.86327E+01 2.06420E+01 0.00000E+00
 -1      4148 7.71327E+01 2.06420E+01 0.00000E+00
 -1      4149 7.63827E+01 2.19410E+01 0.00000E+00
 -1      4150 8.16327E+01 2.06420E+01 0.00000E+00
 -1      4151 8.01327E+01 2.06420E+01 0.00000E+00
 -1      4152 7.93827E+01 2.19410E+01 0.00000E+00
 -1      4153 8.46327E+01 2.06420E+01 0.00000E+00
 -1      4154 8.31327E+01 2.06420E+01 0.00000E+00
 -1      4155 8.23827E+01 2.19410E+01 0.00000E+00
 -1      4156 8.76327E+01 2.06420E+01 0.00000E+00
 -1      4157 8.61327E+01 2.06420E+01 0.00000E+00
 -1      4158 8.53827E+01 2.19410E+01 0.00000E+00
 -1      4159 9.06327E+01 2.06420E+01 0.00000E+00
 -1      4160 8.91327E+01 2.06420E+01 0.00000E+00
 -1      4161 8.83827E+01 2.19410E+01 0.00000E+00
 -1      4162 9.36327E+01 2.06420E+01 0.00000E+00
 -1      4163 9.21327E+01 2.06420E+01 0.00000E+00
 -1      4164 9.13827E+01 2.19410E+01 0.00000E+00
 -1      4165 9.66327E+01 2.06420E+01 0.00000E+00
 -1      4166 9.51327E+01 2.06420E+01 0.00000E+00
 -1      4167 9.43827E+01 2.19410E+01 0.00000E+00
 -1      4168 9.97827E+01 2.06420E+01 0.00000E+00
 -1      4169 9.82077E+01 2.06420E+01 0.00000E+00
 -1      4170 9.74577E+01 2.19410E+01 0.00000E+00
 -1      4171 1.02783E+02 2.06420E+01 0.00000E+00
 -1      4172 1.01283E+02 2.06420E+01 0.00000E+00
 -1      4173 1.00533E+02 2.19410E+01 0.00000E+00
 -1      4174 1.05783E+02 2.06420E+01 0.00000E+00
 -1      4175 1.04283E+02 2.06420E+01 0.00000E+00
 -1      4176 1.03533E+02 2.19410E+01 0.00000E+00
 -1      4177 1.08783E+02 2.06420E+01 0.00000E+00
 -1      4178 1.07283E+02 2.06420E+01 0.00000E+00
 -1      4179 1.06533E+02 2.19410E+01 0.00000E+00
 -1      4180 1.11783E+02 2.06420E+01 0.00000E+00
 -1      4181 1.10283E+02 2.06420E+01 0.00000E+00
 -1      4182 1.09533E+02 2.19410E+01 0.00000E+00
 -1      4183 1.14783E+02 2.06420E+01 0.00000E+00
 -1      4184 1.13283E+02 2.06420E+01 0.00000E+00
 -1      4185 1.12533E+02 2.19410E+01 0.00000E+00
 -1      4186 1.17783E+02 2.06420E+01 0.00000E+00
 -1      4187 1.16283E+02 2.06420E+01 0.00000E+00
 -1      4188 1.15533E+02 2.19410E+01 0.00000E+00
 -1      4189 1.20783E+02 2.06420E+01 0.00000E+00
 -1      4190 1.19283E+02 2.06420E+01 0.00000E+00
 -1      4191 1.18533E+02 2.19410E+01 0.00000E+00
 -1      4192 1.23783E+02 2.06420E+01 0.00000E+00
 -1      4193 1.22283E+02 2.06420E+01 0.00000E+00
 -1      4194 1.21533E+02 2.19410E+01 0.00000E+00
 -1      4195 1.26783E+02 2.06420E+01 0.00000E+00
 -1      4196 1.25283E+02 2.06420E+01 0.00000E+00
 -1      4197 1.24533E+02 2.19410E+01 0.00000E+00
 -1      4198 4.84827E+01 2.06420E+01 0.00000E+00
 -1      4199 4.69827E+01 2.06420E+01 0.00000E+00
 -1      4200 6.36327E+01 2.06420E+01 0.00000E+00
 -1      4201 6.21327E+01 2.06420E+01 0.00000E+00
 -1      4202 6.43827E+01 2.19410E+01 0.00000E+00
 -1      4203 3.42504E+01 2.79941E+01 0.00000E+00
 -1      4204 3.57504E+01 2.79941E+01 0.00000E+00
 -1      4205 3.65004E+01 2.66951E+01 0.00000E+00
 -1      4206 3.42013E+01 2.68492E+01 0.00000E+00
 -1      4207 3.38195E+01 2.04980E+01 0.00000E+00
 -1      4208 3.27785E+01 2.05777E+01 0.00000E+00
 -1      4209 3.24042E+01 2.17556E+01 0.00000E+00
 -1      4210 6.96327E+01 2.06420E+01 0.00000E+00
 -1      4211 6.81327E+01 2.06420E+01 0.00000E+00
 -1      4212 6.73827E+01 2.19410E+01 0.00000E+00
 -1      4213 7.03827E+01 2.19410E+01 0.00000E+00
 -1      4214 5.14827E+01 2.06420E+01 0.00000E+00
 -1      4215 4.99827E+01 2.06420E+01 0.00000E+00
 -1      4216 4.92327E+01 2.19410E+01 0.00000E+00
 -1      4217 3.68195E+01 2.04980E+01 0.00000E+00
 -1      4218 3.53195E+01 2.04980E+01 0.00000E+00
 -1      4219 3.49452E+01 2.16758E+01 0.00000E+00
 -1      4220 3.21939E+01 2.40106E+01 0.00000E+00
 -1      4221 3.34123E+01 2.53783E+01 0.00000E+00
 -1      4222 5.44827E+01 2.06420E+01 0.00000E+00
 -1      4223 5.29827E+01 2.06420E+01 0.00000E+00
 -1      4224 5.22327E+01 2.19410E+01 0.00000E+00
 -1      4225 5.52327E+01 2.19410E+01 0.00000E+00
 -1      4226 3.98195E+01 2.04980E+01 0.00000E+00
 -1      4227 3.83195E+01 2.04980E+01 0.00000E+00
 -1      4228 3.79452E+01 2.16758E+01 0.00000E+00
 -1      4229 1.30684E+02 2.11110E+01 0.00000E+00
 -1      4230 1.29644E+02 2.09341E+01 0.00000E+00
 -1      4231 1.30714E+02 2.23484E+01 0.00000E+00
 -1      4232 3.45619E+01 2.53012E+01 0.00000E+00
 -1      4233 3.25682E+01 2.28328E+01 0.00000E+00
 -1      4234 6.13827E+01 2.19410E+01 0.00000E+00
 -1      4235 4.62327E+01 2.19410E+01 0.00000E+00
 -1      4236 4.54827E+01 2.06420E+01 0.00000E+00
 -1      4237 4.39827E+01 2.06420E+01 0.00000E+00
 -1      4238 1.30571E+02 2.44511E+01 0.00000E+00
 -1      4239 1.30541E+02 2.32137E+01 0.00000E+00
 -1      4240 1.29501E+02 2.30369E+01 0.00000E+00
 -1      4241 1.29155E+02 2.47676E+01 0.00000E+00
 -1      4242 4.17132E+01 1.93316E+01 0.00000E+00
 -1      4243 1.28733E+02 2.08765E+01 0.00000E+00
 -1      4244 1.27693E+02 2.06996E+01 0.00000E+00
 -1      4245 1.26943E+02 2.19986E+01 0.00000E+00
 -1      4246 1.28763E+02 2.21139E+01 0.00000E+00
 -1      4247 4.99827E+01 2.32400E+01 0.00000E+00
 -1      4248 4.84827E+01 2.32400E+01 0.00000E+00
 -1      4249 8.01327E+01 2.32400E+01 0.00000E+00
 -1      4250 7.86327E+01 2.32400E+01 0.00000E+00
 -1      4251 4.14000E+01 2.53190E+01 0.00000E+00
 -1      4252 4.29000E+01 2.53190E+01 0.00000E+00
 -1      4253 4.41914E+01 2.42795E+01 0.00000E+00
 -1      4254 4.56914E+01 2.42795E+01 0.00000E+00
 -1      4255 4.79414E+01 2.55785E+01 0.00000E+00
 -1      4256 4.94414E+01 2.55785E+01 0.00000E+00
 -1      4257 5.09414E+01 2.55785E+01 0.00000E+00
 -1      4258 5.24414E+01 2.55785E+01 0.00000E+00
 -1      4259 5.07327E+01 2.45390E+01 0.00000E+00
 -1      4260 5.39414E+01 2.55785E+01 0.00000E+00
 -1      4261 5.54414E+01 2.55785E+01 0.00000E+00
 -1      4262 5.37327E+01 2.45390E+01 0.00000E+00
 -1      4263 5.69414E+01 2.55785E+01 0.00000E+00
 -1      4264 5.84414E+01 2.55785E+01 0.00000E+00
 -1      4265 5.67327E+01 2.45390E+01 0.00000E+00
 -1      4266 5.99414E+01 2.55785E+01 0.00000E+00
 -1      4267 6.14414E+01 2.55785E+01 0.00000E+00
 -1      4268 5.97327E+01 2.45390E+01 0.00000E+00
 -1      4269 6.29414E+01 2.55785E+01 0.00000E+00
 -1      4270 6.44414E+01 2.55785E+01 0.00000E+00
 -1      4271 6.27327E+01 2.45390E+01 0.00000E+00
 -1      4272 6.59414E+01 2.55785E+01 0.00000E+00
 -1      4273 6.74414E+01 2.55785E+01 0.00000E+00
 -1      4274 6.57327E+01 2.45390E+01 0.00000E+00
 -1      4275 6.89414E+01 2.55785E+01 0.00000E+00
 -1      4276 7.04414E+01 2.55785E+01 0.00000E+00
 -1      4277 6.87327E+01 2.45390E+01 0.00000E+00
 -1      4278 7.19414E+01 2.55785E+01 0.00000E+00
 -1      4279 7.34414E+01 2.55785E+01 0.00000E+00
 -1      4280 7.17327E+01 2.45390E+01 0.00000E+00
 -1      4281 7.80164E+01 2.55785E+01 0.00000E+00
 -1      4282 7.95164E+01 2.55785E+01 0.00000E+00
 -1      4283 8.10164E+01 2.55785E+01 0.00000E+00
 -1      4284 8.25164E+01 2.55785E+01 0.00000E+00
 -1      4285 8.08827E+01 2.45390E+01 0.00000E+00
 -1      4286 8.40164E+01 2.55785E+01 0.00000E+00
 -1      4287 8.55164E+01 2.55785E+01 0.00000E+00
 -1      4288 8.38827E+01 2.45390E+01 0.00000E+00
 -1      4289 8.70164E+01 2.55785E+01 0.00000E+00
 -1      4290 8.85164E+01 2.55785E+01 0.00000E+00
 -1      4291 8.68827E+01 2.45390E+01 0.00000E+00
 -1      4292 9.00164E+01 2.55785E+01 0.00000E+00
 -1      4293 9.15164E+01 2.55785E+01 0.00000E+00
 -1      4294 8.98827E+01 2.45390E+01 0.00000E+00
 -1      4295 9.30164E+01 2.55785E+01 0.00000E+00
 -1      4296 9.45164E+01 2.55785E+01 0.00000E+00
 -1      4297 9.28827E+01 2.45390E+01 0.00000E+00
 -1      4298 9.60164E+01 2.55785E+01 0.00000E+00
 -1      4299 9.75164E+01 2.55785E+01 0.00000E+00
 -1      4300 9.58827E+01 2.45390E+01 0.00000E+00
 -1      4301 9.90164E+01 2.55785E+01 0.00000E+00
 -1      4302 1.00516E+02 2.55785E+01 0.00000E+00
 -1      4303 9.88827E+01 2.45390E+01 0.00000E+00
 -1      4304 1.02016E+02 2.55785E+01 0.00000E+00
 -1      4305 1.03516E+02 2.55785E+01 0.00000E+00
 -1      4306 1.01883E+02 2.45390E+01 0.00000E+00
 -1      4307 1.05016E+02 2.55785E+01 0.00000E+00
 -1      4308 1.06516E+02 2.55785E+01 0.00000E+00
 -1      4309 1.04883E+02 2.45390E+01 0.00000E+00
 -1      4310 1.08016E+02 2.55785E+01 0.00000E+00
 -1      4311 1.09516E+02 2.55785E+01 0.00000E+00
 -1      4312 1.07883E+02 2.45390E+01 0.00000E+00
 -1      4313 1.11016E+02 2.55785E+01 0.00000E+00
 -1      4314 1.12516E+02 2.55785E+01 0.00000E+00
 -1      4315 1.10883E+02 2.45390E+01 0.00000E+00
 -1      4316 1.14016E+02 2.55785E+01 0.00000E+00
 -1      4317 1.15516E+02 2.55785E+01 0.00000E+00
 -1      4318 1.13883E+02 2.45390E+01 0.00000E+00
 -1      4319 1.17016E+02 2.55785E+01 0.00000E+00
 -1      4320 1.18516E+02 2.55785E+01 0.00000E+00
 -1      4321 1.16883E+02 2.45390E+01 0.00000E+00
 -1      4322 1.20016E+02 2.55785E+01 0.00000E+00
 -1      4323 1.21516E+02 2.55785E+01 0.00000E+00
 -1      4324 1.19883E+02 2.45390E+01 0.00000E+00
 -1      4325 1.23016E+02 2.55785E+01 0.00000E+00
 -1      4326 1.24516E+02 2.55785E+01 0.00000E+00
 -1      4327 1.22883E+02 2.45390E+01 0.00000E+00
 -1      4328 5.90577E+01 2.32400E+01 0.00000E+00
 -1      4329 5.74827E+01 2.32400E+01 0.00000E+00
 -1      4330 7.40577E+01 2.32400E+01 0.00000E+00
 -1      4331 7.25577E+01 2.32400E+01 0.00000E+00
 -1      4332 8.31327E+01 2.32400E+01 0.00000E+00
 -1      4333 8.16327E+01 2.32400E+01 0.00000E+00
 -1      4334 8.61327E+01 2.32400E+01 0.00000E+00
 -1      4335 8.46327E+01 2.32400E+01 0.00000E+00
 -1      4336 8.91327E+01 2.32400E+01 0.00000E+00
 -1      4337 8.76327E+01 2.32400E+01 0.00000E+00
 -1      4338 9.21327E+01 2.32400E+01 0.00000E+00
 -1      4339 9.06327E+01 2.32400E+01 0.00000E+00
 -1      4340 9.51327E+01 2.32400E+01 0.00000E+00
 -1      4341 9.36327E+01 2.32400E+01 0.00000E+00
 -1      4342 9.82077E+01 2.32400E+01 0.00000E+00
 -1      4343 9.66327E+01 2.32400E+01 0.00000E+00
 -1      4344 1.01208E+02 2.32400E+01 0.00000E+00
 -1      4345 9.97077E+01 2.32400E+01 0.00000E+00
 -1      4346 1.04208E+02 2.32400E+01 0.00000E+00
 -1      4347 1.02708E+02 2.32400E+01 0.00000E+00
 -1      4348 1.07208E+02 2.32400E+01 0.00000E+00
 -1      4349 1.05708E+02 2.32400E+01 0.00000E+00
 -1      4350 1.10208E+02 2.32400E+01 0.00000E+00
 -1      4351 1.08708E+02 2.32400E+01 0.00000E+00
 -1      4352 1.13208E+02 2.32400E+01 0.00000E+00
 -1      4353 1.11708E+02 2.32400E+01 0.00000E+00
 -1      4354 1.16208E+02 2.32400E+01 0.00000E+00
 -1      4355 1.14708E+02 2.32400E+01 0.00000E+00
 -1      4356 1.19208E+02 2.32400E+01 0.00000E+00
 -1      4357 1.17708E+02 2.32400E+01 0.00000E+00
 -1      4358 1.22208E+02 2.32400E+01 0.00000E+00
 -1      4359 1.20708E+02 2.32400E+01 0.00000E+00
 -1      4360 1.25208E+02 2.32400E+01 0.00000E+00
 -1      4361 1.23708E+02 2.32400E+01 0.00000E+00
 -1      4362 3.36091E+01 2.27531E+01 0.00000E+00
 -1      4363 4.26608E+01 2.05757E+01 0.00000E+00
 -1      4364 4.11413E+01 2.05643E+01 0.00000E+00
 -1      4365 4.07671E+01 2.17421E+01 0.00000E+00
 -1      4366 4.34108E+01 2.18747E+01 0.00000E+00
 -1      4367 6.20577E+01 2.32400E+01 0.00000E+00
 -1      4368 6.05577E+01 2.32400E+01 0.00000E+00
 -1      4369 3.85476E+01 2.41469E+01 0.00000E+00
 -1      4370 4.00476E+01 2.41469E+01 0.00000E+00
 -1      4371 6.50577E+01 2.32400E+01 0.00000E+00
 -1      4372 6.35577E+01 2.32400E+01 0.00000E+00
 -1      4373 3.51091E+01 2.27531E+01 0.00000E+00
 -1      4374 7.75746E+01 2.44092E+01 0.00000E+00
 -1      4375 7.68246E+01 2.31102E+01 0.00000E+00
 -1      4376 7.53246E+01 2.31102E+01 0.00000E+00
 -1      4377 7.62082E+01 2.54487E+01 0.00000E+00
 -1      4378 7.44996E+01 2.44092E+01 0.00000E+00
 -1      4379 7.47082E+01 2.54487E+01 0.00000E+00
 -1      4380 5.59827E+01 2.32400E+01 0.00000E+00
 -1      4381 1.25599E+02 2.53322E+01 0.00000E+00
 -1      4382 5.44827E+01 2.32400E+01 0.00000E+00
 -1      4383 4.71914E+01 2.42795E+01 0.00000E+00
 -1      4384 7.10577E+01 2.32400E+01 0.00000E+00
 -1      4385 1.28072E+02 2.50139E+01 0.00000E+00
 -1      4386 1.28245E+02 2.41485E+01 0.00000E+00
 -1      4387 1.26989E+02 2.52601E+01 0.00000E+00
 -1      4388 5.14827E+01 2.32400E+01 0.00000E+00
 -1      4389 3.53122E+01 2.39518E+01 0.00000E+00
 -1      4390 3.61011E+01 2.54227E+01 0.00000E+00
 -1      4391 5.29827E+01 2.32400E+01 0.00000E+00
 -1      4392 6.65577E+01 2.32400E+01 0.00000E+00
 -1      4393 3.72507E+01 2.53456E+01 0.00000E+00
 -1      4394 6.95577E+01 2.32400E+01 0.00000E+00
 -1      4395 1.27507E+02 2.32255E+01 0.00000E+00
 -1      4396 1.26597E+02 2.31679E+01 0.00000E+00
 -1      4397 6.80577E+01 2.32400E+01 0.00000E+00
 -1      4398 3.66483E+01 2.28745E+01 0.00000E+00
 -1      4399 4.34414E+01 2.29805E+01 0.00000E+00
 -1      4400 1.25772E+02 2.44669E+01 0.00000E+00
 -1      4401 4.21195E+01 2.29142E+01 0.00000E+00
 -1      4402 1.28590E+02 2.29792E+01 0.00000E+00
 -1      4403 3.81483E+01 2.28745E+01 0.00000E+00
 -1      4404 4.07976E+01 2.28479E+01 0.00000E+00
 -3
    3C                          2120                                     1
 -1       165    8    0    1
 -2         6         7        24      1143      1307      1161
 -1       166    8    0    1
 -2         7         8       165      1144      1308      1309
 -1       167    8    0    1
 -2         8         9       166      1145      1310      1311
 -1       168    8    0    1
 -2         8       166       165      1311      1312      1308
 -1       169    8    0    1
 -2         9        10       167      1146      1313      1314
 -1       170    8    0    1
 -2         9       167       166      1314      1315      1310
 -1       171    8    0    1
 -2        10        11       168      1147      1316      1317
 -1       172    8    0    1
 -2        10       168       167      1317      1318      1313
 -1       173    8    0    1
 -2        11        12       169      1148      1319      1320
 -1       174    8    0    1
 -2        11       169       168      1320      1321      1316
 -1       175    8    0    1
 -2        12        13       170      1149      1322      1323
 -1       176    8    0    1
 -2        12       170       169      1323      1324      1319
 -1       177    8    0    1
 -2        13        14       171      1150      1325      1326
 -1       178    8    0    1
 -2        13       171       170      1326      1327      1322
 -1       179    8    0    1
 -2        14        15       172      1151      1328      1329
 -1       180    8    0    1
 -2        14       172       171      1329      1330      1325
 -1       181    8    0    1
 -2        15        16       173      1152      1331      1332
 -1       182    8    0    1
 -2        15       173       172      1332      1333      1328
 -1       183    8    0    1
 -2        17        18       174      1154      1334      1335
 -1       184    8    0    1
 -2        18        19       175      1155      1336      1337
 -1       185    8    0    1
 -2        18       175       174      1337      1338      1334
 -1       186    8    0    1
 -2        19        20       176      1156      1339      1340
 -1       187    8    0    1
 -2        19       176       175      1340      1341      1336
 -1       188    8    0    1
 -2        20        21       177      1157      1342      1343
 -1       189    8    0    1
 -2        20       177       176      1343      1344      1339
 -1       190    8    0    1
 -2        21        22       178      1158      1345      1346
 -1       191    8    0    1
 -2        21       178       177      1346      1347      1342
 -1       192    8    0    1
 -2        22        23       179      1159      1348      1349
 -1       193    8    0    1
 -2        22       179       178      1349      1350      1345
 -1       194    8    0    1
 -2        23         5       180      1160      1351      1352
 -1       195    8    0    1
 -2       179        23       180      1348      1352      1353
 -1       196    8    0    1
 -2         5        73       180      1211      1354      1351
 -1       197    8    0    1
 -2        25        24       181      1162      1355      1356
 -1       198    8    0    1
 -2        26        25       182      1163      1357      1358
 -1       199    8    0    1
 -2        25       181       182      1356      1359      1357
 -1       200    8    0    1
 -2        27        26       183      1164      1360      1361
 -1       201    8    0    1
 -2        26       182       183      1358      1362      1360
 -1       202    8    0    1
 -2        28        27       184      1165      1363      1364
 -1       203    8    0    1
 -2        27       183       184      1361      1365      1363
 -1       204    8    0    1
 -2        29        28       185      1166      1366      1367
 -1       205    8    0    1
 -2        28       184       185      1364      1368      1366
 -1       206    8    0    1
 -2        30        29       186      1167      1369      1370
 -1       207    8    0    1
 -2        29       185       186      1367      1371      1369
 -1       208    8    0    1
 -2        31        30       187      1168      1372      1373
 -1       209    8    0    1
 -2        30       186       187      1370      1374      1372
 -1       210    8    0    1
 -2        32        31       188      1169      1375      1376
 -1       211    8    0    1
 -2        31       187       188      1373      1377      1375
 -1       212    8    0    1
 -2        33        32       189      1170      1378      1379
 -1       213    8    0    1
 -2        32       188       189      1376      1380      1378
 -1       214    8    0    1
 -2        34        33       190      1171      1381      1382
 -1       215    8    0    1
 -2        33       189       190      1379      1383      1381
 -1       216    8    0    1
 -2        35        34       191      1172      1384      1385
 -1       217    8    0    1
 -2        34       190       191      1382      1386      1384
 -1       218    8    0    1
 -2        36        35       192      1173      1387      1388
 -1       219    8    0    1
 -2        35       191       192      1385      1389      1387
 -1       220    8    0    1
 -2        37        36       193      1174      1390      1391
 -1       221    8    0    1
 -2        36       192       193      1388      1392      1390
 -1       222    8    0    1
 -2        38        37       194      1175      1393      1394
 -1       223    8    0    1
 -2        37       193       194      1391      1395      1393
 -1       224    8    0    1
 -2        39        38       195      1176      1396      1397
 -1       225    8    0    1
 -2        38       194       195      1394      1398      1396
 -1       226    8    0    1
 -2        40        39       196      1177      1399      1400
 -1       227    8    0    1
 -2        39       195       196      1397      1401      1399
 -1       228    8    0    1
 -2        41        40       197      1178      1402      1403
 -1       229    8    0    1
 -2        40       196       197      1400      1404      1402
 -1       230    8    0    1
 -2        42        41       198      1179      1405      1406
 -1       231    8    0    1
 -2        41       197       198      1403      1407      1405
 -1       232    8    0    1
 -2        43        42       199      1180      1408      1409
 -1       233    8    0    1
 -2        42       198       199      1406      1410      1408
 -1       234    8    0    1
 -2        44        43       200      1181      1411      1412
 -1       235    8    0    1
 -2        43       199       200      1409      1413      1411
 -1       236    8    0    1
 -2        45        44       201      1182      1414      1415
 -1       237    8    0    1
 -2        44       200       201      1412      1416      1414
 -1       238    8    0    1
 -2        46        45       202      1183      1417      1418
 -1       239    8    0    1
 -2        45       201       202      1415      1419      1417
 -1       240    8    0    1
 -2        47        46       203      1184      1420      1421
 -1       241    8    0    1
 -2        46       202       203      1418      1422      1420
 -1       242    8    0    1
 -2        48        47       204      1185      1423      1424
 -1       243    8    0    1
 -2        47       203       204      1421      1425      1423
 -1       244    8    0    1
 -2        49        48       205      1186      1426      1427
 -1       245    8    0    1
 -2        48       204       205      1424      1428      1426
 -1       246    8    0    1
 -2        50        49       206      1187      1429      1430
 -1       247    8    0    1
 -2        49       205       206      1427      1431      1429
 -1       248    8    0    1
 -2        51        50       207      1188      1432      1433
 -1       249    8    0    1
 -2        50       206       207      1430      1434      1432
 -1       250    8    0    1
 -2        52        51       208      1189      1435      1436
 -1       251    8    0    1
 -2        51       207       208      1433      1437      1435
 -1       252    8    0    1
 -2        53        52       209      1190      1438      1439
 -1       253    8    0    1
 -2        52       208       209      1436      1440      1438
 -1       254    8    0    1
 -2        54        53       210      1191      1441      1442
 -1       255    8    0    1
 -2        53       209       210      1439      1443      1441
 -1       256    8    0    1
 -2        55        54       211      1192      1444      1445
 -1       257    8    0    1
 -2        54       210       211      1442      1446      1444
 -1       258    8    0    1
 -2        56        55       212      1193      1447      1448
 -1       259    8    0    1
 -2        55       211       212      1445      1449      1447
 -1       260    8    0    1
 -2        57        56       213      1194      1450      1451
 -1       261    8    0    1
 -2        56       212       213      1448      1452      1450
 -1       262    8    0    1
 -2        58        57       214      1195      1453      1454
 -1       263    8    0    1
 -2        57       213       214      1451      1455      1453
 -1       264    8    0    1
 -2        59        58       215      1196      1456      1457
 -1       265    8    0    1
 -2        58       214       215      1454      1458      1456
 -1       266    8    0    1
 -2        60        59       216      1197      1459      1460
 -1       267    8    0    1
 -2        59       215       216      1457      1461      1459
 -1       268    8    0    1
 -2        61        60       217      1198      1462      1463
 -1       269    8    0    1
 -2        60       216       217      1460      1464      1462
 -1       270    8    0    1
 -2        62        61       218      1199      1465      1466
 -1       271    8    0    1
 -2        61       217       218      1463      1467      1465
 -1       272    8    0    1
 -2        63        62       219      1200      1468      1469
 -1       273    8    0    1
 -2        62       218       219      1466      1470      1468
 -1       274    8    0    1
 -2        64        63       220      1201      1471      1472
 -1       275    8    0    1
 -2        63       219       220      1469      1473      1471
 -1       276    8    0    1
 -2        65        64       221      1202      1474      1475
 -1       277    8    0    1
 -2        64       220       221      1472      1476      1474
 -1       278    8    0    1
 -2        66        65       222      1203      1477      1478
 -1       279    8    0    1
 -2        65       221       222      1475      1479      1477
 -1       280    8    0    1
 -2        67        66       223      1204      1480      1481
 -1       281    8    0    1
 -2        66       222       223      1478      1482      1480
 -1       282    8    0    1
 -2        68        67       224      1205      1483      1484
 -1       283    8    0    1
 -2        67       223       224      1481      1485      1483
 -1       284    8    0    1
 -2        69        68       225      1206      1486      1487
 -1       285    8    0    1
 -2        68       224       225      1484      1488      1486
 -1       286    8    0    1
 -2        70        69       226      1207      1489      1490
 -1       287    8    0    1
 -2        69       225       226      1487      1491      1489
 -1       288    8    0    1
 -2        71        70       227      1208      1492      1493
 -1       289    8    0    1
 -2        70       226       227      1490      1494      1492
 -1       290    8    0    1
 -2        72        71       228      1209      1495      1496
 -1       291    8    0    1
 -2        71       227       228      1493      1497      1495
 -1       292    8    0    1
 -2         4        72       137      1210      1498      1277
 -1       293    8    0    1
 -2       137        72       228      1498      1496      1499
 -1       294    8    0    1
 -2        73        74       229      1212      1500      1501
 -1       295    8    0    1
 -2        73       229       180      1501      1502      1354
 -1       296    8    0    1
 -2        74        75       230      1213      1503      1504
 -1       297    8    0    1
 -2        74       230       229      1504      1505      1500
 -1       298    8    0    1
 -2        75        76       231      1214      1506      1507
 -1       299    8    0    1
 -2        75       231       230      1507      1508      1503
 -1       300    8    0    1
 -2        76        77       232      1215      1509      1510
 -1       301    8    0    1
 -2        76       232       231      1510      1511      1506
 -1       302    8    0    1
 -2        77        78       233      1216      1512      1513
 -1       303    8    0    1
 -2        77       233       232      1513      1514      1509
 -1       304    8    0    1
 -2        78        79       234      1217      1515      1516
 -1       305    8    0    1
 -2        78       234       233      1516      1517      1512
 -1       306    8    0    1
 -2        79        80       235      1218      1518      1519
 -1       307    8    0    1
 -2        79       235       234      1519      1520      1515
 -1       308    8    0    1
 -2        80        81       236      1219      1521      1522
 -1       309    8    0    1
 -2        80       236       235      1522      1523      1518
 -1       310    8    0    1
 -2        81        82       237      1220      1524      1525
 -1       311    8    0    1
 -2        81       237       236      1525      1526      1521
 -1       312    8    0    1
 -2        82        83       238      1221      1527      1528
 -1       313    8    0    1
 -2        82       238       237      1528      1529      1524
 -1       314    8    0    1
 -2        83        84       239      1222      1530      1531
 -1       315    8    0    1
 -2        83       239       238      1531      1532      1527
 -1       316    8    0    1
 -2        84        85       240      1223      1533      1534
 -1       317    8    0    1
 -2        84       240       239      1534      1535      1530
 -1       318    8    0    1
 -2        85        86       241      1224      1536      1537
 -1       319    8    0    1
 -2        85       241       240      1537      1538      1533
 -1       320    8    0    1
 -2        86        87       242      1225      1539      1540
 -1       321    8    0    1
 -2        86       242       241      1540      1541      1536
 -1       322    8    0    1
 -2        87        88       243      1226      1542      1543
 -1       323    8    0    1
 -2        87       243       242      1543      1544      1539
 -1       324    8    0    1
 -2        88        89       244      1227      1545      1546
 -1       325    8    0    1
 -2        88       244       243      1546      1547      1542
 -1       326    8    0    1
 -2        89        90       245      1228      1548      1549
 -1       327    8    0    1
 -2        89       245       244      1549      1550      1545
 -1       328    8    0    1
 -2        90        91       246      1229      1551      1552
 -1       329    8    0    1
 -2        90       246       245      1552      1553      1548
 -1       330    8    0    1
 -2        91        92       247      1230      1554      1555
 -1       331    8    0    1
 -2        91       247       246      1555      1556      1551
 -1       332    8    0    1
 -2        92        93       248      1231      1557      1558
 -1       333    8    0    1
 -2        92       248       247      1558      1559      1554
 -1       334    8    0    1
 -2        93        94       249      1232      1560      1561
 -1       335    8    0    1
 -2        93       249       248      1561      1562      1557
 -1       336    8    0    1
 -2        94        95       250      1233      1563      1564
 -1       337    8    0    1
 -2        94       250       249      1564      1565      1560
 -1       338    8    0    1
 -2        95        96       251      1234      1566      1567
 -1       339    8    0    1
 -2        95       251       250      1567      1568      1563
 -1       340    8    0    1
 -2        96        97       252      1235      1569      1570
 -1       341    8    0    1
 -2        96       252       251      1570      1571      1566
 -1       342    8    0    1
 -2        97        98       253      1236      1572      1573
 -1       343    8    0    1
 -2        97       253       252      1573      1574      1569
 -1       344    8    0    1
 -2        98        99       254      1237      1575      1576
 -1       345    8    0    1
 -2        98       254       253      1576      1577      1572
 -1       346    8    0    1
 -2        99       100       255      1238      1578      1579
 -1       347    8    0    1
 -2        99       255       254      1579      1580      1575
 -1       348    8    0    1
 -2       100       101       256      1239      1581      1582
 -1       349    8    0    1
 -2       100       256       255      1582      1583      1578
 -1       350    8    0    1
 -2       101       102       257      1240      1584      1585
 -1       351    8    0    1
 -2       101       257       256      1585      1586      1581
 -1       352    8    0    1
 -2       102       103       258      1241      1587      1588
 -1       353    8    0    1
 -2       102       258       257      1588      1589      1584
 -1       354    8    0    1
 -2       103       104       259      1242      1590      1591
 -1       355    8    0    1
 -2       103       259       258      1591      1592      1587
 -1       356    8    0    1
 -2       104       105       260      1243      1593      1594
 -1       357    8    0    1
 -2       104       260       259      1594      1595      1590
 -1       358    8    0    1
 -2       105       106       261      1244      1596      1597
 -1       359    8    0    1
 -2       105       261       260      1597      1598      1593
 -1       360    8    0    1
 -2       106       107       262      1245      1599      1600
 -1       361    8    0    1
 -2       106       262       261      1600      1601      1596
 -1       362    8    0    1
 -2       107       108       263      1246      1602      1603
 -1       363    8    0    1
 -2       107       263       262      1603      1604      1599
 -1       364    8    0    1
 -2       108       109       264      1247      1605      1606
 -1       365    8    0    1
 -2       108       264       263      1606      1607      1602
 -1       366    8    0    1
 -2       109       110       265      1248      1608      1609
 -1       367    8    0    1
 -2       109       265       264      1609      1610      1605
 -1       368    8    0    1
 -2       110       111       266      1249      1611      1612
 -1       369    8    0    1
 -2       110       266       265      1612      1613      1608
 -1       370    8    0    1
 -2       111       112       267      1250      1614      1615
 -1       371    8    0    1
 -2       111       267       266      1615      1616      1611
 -1       372    8    0    1
 -2       112       113       268      1251      1617      1618
 -1       373    8    0    1
 -2       112       268       267      1618      1619      1614
 -1       374    8    0    1
 -2       113       114       269      1252      1620      1621
 -1       375    8    0    1
 -2       113       269       268      1621      1622      1617
 -1       376    8    0    1
 -2       114       115       270      1253      1623      1624
 -1       377    8    0    1
 -2       114       270       269      1624      1625      1620
 -1       378    8    0    1
 -2       115       116       271      1254      1626      1627
 -1       379    8    0    1
 -2       115       271       270      1627      1628      1623
 -1       380    8    0    1
 -2       116       117       272      1255      1629      1630
 -1       381    8    0    1
 -2       116       272       271      1630      1631      1626
 -1       382    8    0    1
 -2       117       118       273      1256      1632      1633
 -1       383    8    0    1
 -2       117       273       272      1633      1634      1629
 -1       384    8    0    1
 -2       118       119       274      1257      1635      1636
 -1       385    8    0    1
 -2       118       274       273      1636      1637      1632
 -1       386    8    0    1
 -2       119       120       275      1258      1638      1639
 -1       387    8    0    1
 -2       119       275       274      1639      1640      1635
 -1       388    8    0    1
 -2       120       121       276      1259      1641      1642
 -1       389    8    0    1
 -2       120       276       275      1642      1643      1638
 -1       390    8    0    1
 -2       121         3       122      1260      1261      1644
 -1       391    8    0    1
 -2       122       123       277      1262      1645      1646
 -1       392    8    0    1
 -2       123       124       278      1263      1647      1648
 -1       393    8    0    1
 -2       123       278       277      1648      1649      1645
 -1       394    8    0    1
 -2       124       125       279      1264      1650      1651
 -1       395    8    0    1
 -2       124       279       278      1651      1652      1647
 -1       396    8    0    1
 -2       125       126       280      1265      1653      1654
 -1       397    8    0    1
 -2       125       280       279      1654      1655      1650
 -1       398    8    0    1
 -2       126       127       281      1266      1656      1657
 -1       399    8    0    1
 -2       126       281       280      1657      1658      1653
 -1       400    8    0    1
 -2       127       128       282      1267      1659      1660
 -1       401    8    0    1
 -2       127       282       281      1660      1661      1656
 -1       402    8    0    1
 -2       128       129       283      1268      1662      1663
 -1       403    8    0    1
 -2       128       283       282      1663      1664      1659
 -1       404    8    0    1
 -2       129       130       284      1269      1665      1666
 -1       405    8    0    1
 -2       129       284       283      1666      1667      1662
 -1       406    8    0    1
 -2       130       131       285      1270      1668      1669
 -1       407    8    0    1
 -2       130       285       284      1669      1670      1665
 -1       408    8    0    1
 -2       131       132       286      1271      1671      1672
 -1       409    8    0    1
 -2       131       286       285      1672      1673      1668
 -1       410    8    0    1
 -2       132       133       287      1272      1674      1675
 -1       411    8    0    1
 -2       132       287       286      1675      1676      1671
 -1       412    8    0    1
 -2       133       134       288      1273      1677      1678
 -1       413    8    0    1
 -2       133       288       287      1678      1679      1674
 -1       414    8    0    1
 -2       134       135       289      1274      1680      1681
 -1       415    8    0    1
 -2       134       289       288      1681      1682      1677
 -1       416    8    0    1
 -2       135       136       290      1275      1683      1684
 -1       417    8    0    1
 -2       135       290       289      1684      1685      1680
 -1       418    8    0    1
 -2       136       137       291      1276      1686      1687
 -1       419    8    0    1
 -2       290       136       291      1683      1687      1688
 -1       420    8    0    1
 -2       137       228       291      1499      1689      1686
 -1       421    8    0    1
 -2         2       138       292      1278      1690      1691
 -1       422    8    0    1
 -2       138       139       293      1279      1692      1693
 -1       423    8    0    1
 -2       139       140       294      1280      1694      1695
 -1       424    8    0    1
 -2       140       141       295      1281      1696      1697
 -1       425    8    0    1
 -2       141       142       296      1282      1698      1699
 -1       426    8    0    1
 -2       142       143       297      1283      1700      1701
 -1       427    8    0    1
 -2       143       144       298      1284      1702      1703
 -1       428    8    0    1
 -2       144       145       299      1285      1704      1705
 -1       429    8    0    1
 -2       145       146       300      1286      1706      1707
 -1       430    8    0    1
 -2       146       147       301      1287      1708      1709
 -1       431    8    0    1
 -2       147       148       302      1288      1710      1711
 -1       432    8    0    1
 -2       148       149       303      1289      1712      1713
 -1       433    8    0    1
 -2       149       150       304      1290      1714      1715
 -1       434    8    0    1
 -2       150       151       305      1291      1716      1717
 -1       435    8    0    1
 -2       151       152       306      1292      1718      1719
 -1       436    8    0    1
 -2       152       153       307      1293      1720      1721
 -1       437    8    0    1
 -2       153       154       308      1294      1722      1723
 -1       438    8    0    1
 -2       154       155       309      1295      1724      1725
 -1       439    8    0    1
 -2       155       156       310      1296      1726      1727
 -1       440    8    0    1
 -2       156       157       311      1297      1728      1729
 -1       441    8    0    1
 -2       157       158       312      1298      1730      1731
 -1       442    8    0    1
 -2       158       159       313      1299      1732      1733
 -1       443    8    0    1
 -2       159       160       314      1300      1734      1735
 -1       444    8    0    1
 -2       160         1       315      1301      1736      1737
 -1       445    8    0    1
 -2         1       161       316      1302      1738      1739
 -1       446    8    0    1
 -2       161       162       317      1303      1740      1741
 -1       447    8    0    1
 -2       162       163       318      1304      1742      1743
 -1       448    8    0    1
 -2       163       164       319      1305      1744      1745
 -1       449    8    0    1
 -2       164         2       320      1306      1746      1747
 -1       450    8    0    1
 -2        16        17       321      1153      1748      1749
 -1       451    8    0    1
 -2       295       141       296      1696      1699      1750
 -1       452    8    0    1
 -2       294       140       295      1694      1697      1751
 -1       453    8    0    1
 -2       121       122       277      1644      1646      1752
 -1       454    8    0    1
 -2       292       138       293      1690      1693      1753
 -1       455    8    0    1
 -2       293       139       294      1692      1695      1754
 -1       456    8    0    1
 -2         2       292       320      1691      1755      1746
 -1       457    8    0    1
 -2       142       297       296      1701      1756      1698
 -1       458    8    0    1
 -2       143       298       297      1703      1757      1700
 -1       459    8    0    1
 -2       144       299       298      1705      1758      1702
 -1       460    8    0    1
 -2       145       300       299      1707      1759      1704
 -1       461    8    0    1
 -2       146       301       300      1709      1760      1706
 -1       462    8    0    1
 -2       147       302       301      1711      1761      1708
 -1       463    8    0    1
 -2       148       303       302      1713      1762      1710
 -1       464    8    0    1
 -2       149       304       303      1715      1763      1712
 -1       465    8    0    1
 -2       150       305       304      1717      1764      1714
 -1       466    8    0    1
 -2       151       306       305      1719      1765      1716
 -1       467    8    0    1
 -2       152       307       306      1721      1766      1718
 -1       468    8    0    1
 -2       153       308       307      1723      1767      1720
 -1       469    8    0    1
 -2       154       309       308      1725      1768      1722
 -1       470    8    0    1
 -2       155       310       309      1727      1769      1724
 -1       471    8    0    1
 -2       156       311       310      1729      1770      1726
 -1       472    8    0    1
 -2       157       312       311      1731      1771      1728
 -1       473    8    0    1
 -2       158       313       312      1733      1772      1730
 -1       474    8    0    1
 -2       159       314       313      1735      1773      1732
 -1       475    8    0    1
 -2       160       315       314      1737      1774      1734
 -1       476    8    0    1
 -2         1       316       315      1739      1775      1736
 -1       477    8    0    1
 -2       161       317       316      1741      1776      1738
 -1       478    8    0    1
 -2       162       318       317      1743      1777      1740
 -1       479    8    0    1
 -2       163       319       318      1745      1778      1742
 -1       480    8    0    1
 -2       164       320       319      1747      1779      1744
 -1       481    8    0    1
 -2        16       321       173      1749      1780      1331
 -1       482    8    0    1
 -2        24         7       322      1307      1781      1782
 -1       483    8    0    1
 -2       321        17       174      1748      1335      1783
 -1       484    8    0    1
 -2       166       167       323      1315      1784      1785
 -1       485    8    0    1
 -2       165       166       324      1312      1786      1787
 -1       486    8    0    1
 -2       166       323       324      1785      1788      1786
 -1       487    8    0    1
 -2       168       169       325      1321      1789      1790
 -1       488    8    0    1
 -2       169       170       326      1324      1791      1792
 -1       489    8    0    1
 -2       169       326       325      1792      1793      1789
 -1       490    8    0    1
 -2       170       171       327      1327      1794      1795
 -1       491    8    0    1
 -2       170       327       326      1795      1796      1791
 -1       492    8    0    1
 -2       172       173       328      1333      1797      1798
 -1       493    8    0    1
 -2        24       322       181      1782      1799      1355
 -1       494    8    0    1
 -2       175       176       329      1341      1800      1801
 -1       495    8    0    1
 -2       295       296       330      1750      1802      1803
 -1       496    8    0    1
 -2       177       178       331      1347      1804      1805
 -1       497    8    0    1
 -2       178       179       332      1350      1806      1807
 -1       498    8    0    1
 -2       179       180       333      1353      1808      1809
 -1       499    8    0    1
 -2       332       179       333      1806      1809      1810
 -1       500    8    0    1
 -2       180       229       333      1502      1811      1808
 -1       501    8    0    1
 -2       229       230       334      1505      1812      1813
 -1       502    8    0    1
 -2       229       334       333      1813      1814      1811
 -1       503    8    0    1
 -2       183       182       335      1362      1815      1816
 -1       504    8    0    1
 -2       184       183       336      1365      1817      1818
 -1       505    8    0    1
 -2       183       335       336      1816      1819      1817
 -1       506    8    0    1
 -2       185       184       337      1368      1820      1821
 -1       507    8    0    1
 -2       184       336       337      1818      1822      1820
 -1       508    8    0    1
 -2       186       185       338      1371      1823      1824
 -1       509    8    0    1
 -2       185       337       338      1821      1825      1823
 -1       510    8    0    1
 -2       187       186       339      1374      1826      1827
 -1       511    8    0    1
 -2       186       338       339      1824      1828      1826
 -1       512    8    0    1
 -2       188       187       340      1377      1829      1830
 -1       513    8    0    1
 -2       187       339       340      1827      1831      1829
 -1       514    8    0    1
 -2       189       188       341      1380      1832      1833
 -1       515    8    0    1
 -2       188       340       341      1830      1834      1832
 -1       516    8    0    1
 -2       190       189       342      1383      1835      1836
 -1       517    8    0    1
 -2       189       341       342      1833      1837      1835
 -1       518    8    0    1
 -2       191       190       343      1386      1838      1839
 -1       519    8    0    1
 -2       190       342       343      1836      1840      1838
 -1       520    8    0    1
 -2       192       191       344      1389      1841      1842
 -1       521    8    0    1
 -2       191       343       344      1839      1843      1841
 -1       522    8    0    1
 -2       193       192       345      1392      1844      1845
 -1       523    8    0    1
 -2       192       344       345      1842      1846      1844
 -1       524    8    0    1
 -2       194       193       346      1395      1847      1848
 -1       525    8    0    1
 -2       193       345       346      1845      1849      1847
 -1       526    8    0    1
 -2       195       194       347      1398      1850      1851
 -1       527    8    0    1
 -2       194       346       347      1848      1852      1850
 -1       528    8    0    1
 -2       196       195       348      1401      1853      1854
 -1       529    8    0    1
 -2       195       347       348      1851      1855      1853
 -1       530    8    0    1
 -2       197       196       349      1404      1856      1857
 -1       531    8    0    1
 -2       196       348       349      1854      1858      1856
 -1       532    8    0    1
 -2       198       197       350      1407      1859      1860
 -1       533    8    0    1
 -2       197       349       350      1857      1861      1859
 -1       534    8    0    1
 -2       199       198       351      1410      1862      1863
 -1       535    8    0    1
 -2       198       350       351      1860      1864      1862
 -1       536    8    0    1
 -2       200       199       352      1413      1865      1866
 -1       537    8    0    1
 -2       199       351       352      1863      1867      1865
 -1       538    8    0    1
 -2       201       200       353      1416      1868      1869
 -1       539    8    0    1
 -2       200       352       353      1866      1870      1868
 -1       540    8    0    1
 -2       202       201       354      1419      1871      1872
 -1       541    8    0    1
 -2       201       353       354      1869      1873      1871
 -1       542    8    0    1
 -2       203       202       355      1422      1874      1875
 -1       543    8    0    1
 -2       202       354       355      1872      1876      1874
 -1       544    8    0    1
 -2       204       203       356      1425      1877      1878
 -1       545    8    0    1
 -2       203       355       356      1875      1879      1877
 -1       546    8    0    1
 -2       205       204       357      1428      1880      1881
 -1       547    8    0    1
 -2       204       356       357      1878      1882      1880
 -1       548    8    0    1
 -2       206       205       358      1431      1883      1884
 -1       549    8    0    1
 -2       205       357       358      1881      1885      1883
 -1       550    8    0    1
 -2       207       206       359      1434      1886      1887
 -1       551    8    0    1
 -2       206       358       359      1884      1888      1886
 -1       552    8    0    1
 -2       208       207       360      1437      1889      1890
 -1       553    8    0    1
 -2       207       359       360      1887      1891      1889
 -1       554    8    0    1
 -2       209       208       361      1440      1892      1893
 -1       555    8    0    1
 -2       208       360       361      1890      1894      1892
 -1       556    8    0    1
 -2       210       209       362      1443      1895      1896
 -1       557    8    0    1
 -2       209       361       362      1893      1897      1895
 -1       558    8    0    1
 -2       211       210       363      1446      1898      1899
 -1       559    8    0    1
 -2       210       362       363      1896      1900      1898
 -1       560    8    0    1
 -2       212       211       364      1449      1901      1902
 -1       561    8    0    1
 -2       211       363       364      1899      1903      1901
 -1       562    8    0    1
 -2       213       212       365      1452      1904      1905
 -1       563    8    0    1
 -2       212       364       365      1902      1906      1904
 -1       564    8    0    1
 -2       214       213       366      1455      1907      1908
 -1       565    8    0    1
 -2       213       365       366      1905      1909      1907
 -1       566    8    0    1
 -2       215       214       367      1458      1910      1911
 -1       567    8    0    1
 -2       214       366       367      1908      1912      1910
 -1       568    8    0    1
 -2       216       215       368      1461      1913      1914
 -1       569    8    0    1
 -2       215       367       368      1911      1915      1913
 -1       570    8    0    1
 -2       217       216       369      1464      1916      1917
 -1       571    8    0    1
 -2       216       368       369      1914      1918      1916
 -1       572    8    0    1
 -2       218       217       370      1467      1919      1920
 -1       573    8    0    1
 -2       217       369       370      1917      1921      1919
 -1       574    8    0    1
 -2       219       218       371      1470      1922      1923
 -1       575    8    0    1
 -2       218       370       371      1920      1924      1922
 -1       576    8    0    1
 -2       220       219       372      1473      1925      1926
 -1       577    8    0    1
 -2       219       371       372      1923      1927      1925
 -1       578    8    0    1
 -2       221       220       373      1476      1928      1929
 -1       579    8    0    1
 -2       220       372       373      1926      1930      1928
 -1       580    8    0    1
 -2       222       221       374      1479      1931      1932
 -1       581    8    0    1
 -2       221       373       374      1929      1933      1931
 -1       582    8    0    1
 -2       223       222       375      1482      1934      1935
 -1       583    8    0    1
 -2       222       374       375      1932      1936      1934
 -1       584    8    0    1
 -2       224       223       376      1485      1937      1938
 -1       585    8    0    1
 -2       223       375       376      1935      1939      1937
 -1       586    8    0    1
 -2       225       224       377      1488      1940      1941
 -1       587    8    0    1
 -2       224       376       377      1938      1942      1940
 -1       588    8    0    1
 -2       226       225       378      1491      1943      1944
 -1       589    8    0    1
 -2       225       377       378      1941      1945      1943
 -1       590    8    0    1
 -2       227       226       379      1494      1946      1947
 -1       591    8    0    1
 -2       226       378       379      1944      1948      1946
 -1       592    8    0    1
 -2       228       227       380      1497      1949      1950
 -1       593    8    0    1
 -2       291       228       380      1689      1950      1951
 -1       594    8    0    1
 -2       227       379       380      1947      1952      1949
 -1       595    8    0    1
 -2       230       231       381      1508      1953      1954
 -1       596    8    0    1
 -2       230       381       334      1954      1955      1812
 -1       597    8    0    1
 -2       231       232       382      1511      1956      1957
 -1       598    8    0    1
 -2       231       382       381      1957      1958      1953
 -1       599    8    0    1
 -2       232       233       383      1514      1959      1960
 -1       600    8    0    1
 -2       232       383       382      1960      1961      1956
 -1       601    8    0    1
 -2       233       234       384      1517      1962      1963
 -1       602    8    0    1
 -2       233       384       383      1963      1964      1959
 -1       603    8    0    1
 -2       234       235       385      1520      1965      1966
 -1       604    8    0    1
 -2       234       385       384      1966      1967      1962
 -1       605    8    0    1
 -2       235       236       386      1523      1968      1969
 -1       606    8    0    1
 -2       235       386       385      1969      1970      1965
 -1       607    8    0    1
 -2       236       237       387      1526      1971      1972
 -1       608    8    0    1
 -2       236       387       386      1972      1973      1968
 -1       609    8    0    1
 -2       237       238       388      1529      1974      1975
 -1       610    8    0    1
 -2       237       388       387      1975      1976      1971
 -1       611    8    0    1
 -2       238       239       389      1532      1977      1978
 -1       612    8    0    1
 -2       238       389       388      1978      1979      1974
 -1       613    8    0    1
 -2       239       240       390      1535      1980      1981
 -1       614    8    0    1
 -2       239       390       389      1981      1982      1977
 -1       615    8    0    1
 -2       240       241       391      1538      1983      1984
 -1       616    8    0    1
 -2       240       391       390      1984      1985      1980
 -1       617    8    0    1
 -2       241       242       392      1541      1986      1987
 -1       618    8    0    1
 -2       241       392       391      1987      1988      1983
 -1       619    8    0    1
 -2       242       243       393      1544      1989      1990
 -1       620    8    0    1
 -2       242       393       392      1990      1991      1986
 -1       621    8    0    1
 -2       243       244       394      1547      1992      1993
 -1       622    8    0    1
 -2       243       394       393      1993      1994      1989
 -1       623    8    0    1
 -2       244       245       395      1550      1995      1996
 -1       624    8    0    1
 -2       244       395       394      1996      1997      1992
 -1       625    8    0    1
 -2       245       246       396      1553      1998      1999
 -1       626    8    0    1
 -2       245       396       395      1999      2000      1995
 -1       627    8    0    1
 -2       246       247       397      1556      2001      2002
 -1       628    8    0    1
 -2       246       397       396      2002      2003      1998
 -1       629    8    0    1
 -2       247       248       398      1559      2004      2005
 -1       630    8    0    1
 -2       247       398       397      2005      2006      2001
 -1       631    8    0    1
 -2       248       249       399      1562      2007      2008
 -1       632    8    0    1
 -2       248       399       398      2008      2009      2004
 -1       633    8    0    1
 -2       249       250       400      1565      2010      2011
 -1       634    8    0    1
 -2       249       400       399      2011      2012      2007
 -1       635    8    0    1
 -2       250       251       401      1568      2013      2014
 -1       636    8    0    1
 -2       250       401       400      2014      2015      2010
 -1       637    8    0    1
 -2       251       252       402      1571      2016      2017
 -1       638    8    0    1
 -2       251       402       401      2017      2018      2013
 -1       639    8    0    1
 -2       252       253       403      1574      2019      2020
 -1       640    8    0    1
 -2       252       403       402      2020      2021      2016
 -1       641    8    0    1
 -2       253       254       404      1577      2022      2023
 -1       642    8    0    1
 -2       253       404       403      2023      2024      2019
 -1       643    8    0    1
 -2       254       255       405      1580      2025      2026
 -1       644    8    0    1
 -2       254       405       404      2026      2027      2022
 -1       645    8    0    1
 -2       255       256       406      1583      2028      2029
 -1       646    8    0    1
 -2       255       406       405      2029      2030      2025
 -1       647    8    0    1
 -2       256       257       407      1586      2031      2032
 -1       648    8    0    1
 -2       256       407       406      2032      2033      2028
 -1       649    8    0    1
 -2       257       258       408      1589      2034      2035
 -1       650    8    0    1
 -2       257       408       407      2035      2036      2031
 -1       651    8    0    1
 -2       258       259       409      1592      2037      2038
 -1       652    8    0    1
 -2       258       409       408      2038      2039      2034
 -1       653    8    0    1
 -2       259       260       410      1595      2040      2041
 -1       654    8    0    1
 -2       259       410       409      2041      2042      2037
 -1       655    8    0    1
 -2       260       261       411      1598      2043      2044
 -1       656    8    0    1
 -2       260       411       410      2044      2045      2040
 -1       657    8    0    1
 -2       261       262       412      1601      2046      2047
 -1       658    8    0    1
 -2       261       412       411      2047      2048      2043
 -1       659    8    0    1
 -2       262       263       413      1604      2049      2050
 -1       660    8    0    1
 -2       262       413       412      2050      2051      2046
 -1       661    8    0    1
 -2       263       264       414      1607      2052      2053
 -1       662    8    0    1
 -2       263       414       413      2053      2054      2049
 -1       663    8    0    1
 -2       264       265       415      1610      2055      2056
 -1       664    8    0    1
 -2       264       415       414      2056      2057      2052
 -1       665    8    0    1
 -2       265       266       416      1613      2058      2059
 -1       666    8    0    1
 -2       265       416       415      2059      2060      2055
 -1       667    8    0    1
 -2       266       267       417      1616      2061      2062
 -1       668    8    0    1
 -2       266       417       416      2062      2063      2058
 -1       669    8    0    1
 -2       267       268       418      1619      2064      2065
 -1       670    8    0    1
 -2       267       418       417      2065      2066      2061
 -1       671    8    0    1
 -2       268       269       419      1622      2067      2068
 -1       672    8    0    1
 -2       268       419       418      2068      2069      2064
 -1       673    8    0    1
 -2       269       270       420      1625      2070      2071
 -1       674    8    0    1
 -2       269       420       419      2071      2072      2067
 -1       675    8    0    1
 -2       270       271       421      1628      2073      2074
 -1       676    8    0    1
 -2       270       421       420      2074      2075      2070
 -1       677    8    0    1
 -2       271       272       422      1631      2076      2077
 -1       678    8    0    1
 -2       271       422       421      2077      2078      2073
 -1       679    8    0    1
 -2       272       273       423      1634      2079      2080
 -1       680    8    0    1
 -2       272       423       422      2080      2081      2076
 -1       681    8    0    1
 -2       273       274       424      1637      2082      2083
 -1       682    8    0    1
 -2       273       424       423      2083      2084      2079
 -1       683    8    0    1
 -2       274       275       425      1640      2085      2086
 -1       684    8    0    1
 -2       274       425       424      2086      2087      2082
 -1       685    8    0    1
 -2       279       280       426      1655      2088      2089
 -1       686    8    0    1
 -2       278       279       427      1652      2090      2091
 -1       687    8    0    1
 -2       279       426       427      2089      2092      2090
 -1       688    8    0    1
 -2       292       293       428      1753      2093      2094
 -1       689    8    0    1
 -2       277       278       429      1649      2095      2096
 -1       690    8    0    1
 -2       278       427       429      2091      2097      2095
 -1       691    8    0    1
 -2       280       281       430      1658      2098      2099
 -1       692    8    0    1
 -2       280       430       426      2099      2100      2088
 -1       693    8    0    1
 -2       281       282       431      1661      2101      2102
 -1       694    8    0    1
 -2       281       431       430      2102      2103      2098
 -1       695    8    0    1
 -2       282       283       432      1664      2104      2105
 -1       696    8    0    1
 -2       282       432       431      2105      2106      2101
 -1       697    8    0    1
 -2       283       284       433      1667      2107      2108
 -1       698    8    0    1
 -2       283       433       432      2108      2109      2104
 -1       699    8    0    1
 -2       284       285       434      1670      2110      2111
 -1       700    8    0    1
 -2       284       434       433      2111      2112      2107
 -1       701    8    0    1
 -2       285       286       435      1673      2113      2114
 -1       702    8    0    1
 -2       285       435       434      2114      2115      2110
 -1       703    8    0    1
 -2       286       287       436      1676      2116      2117
 -1       704    8    0    1
 -2       286       436       435      2117      2118      2113
 -1       705    8    0    1
 -2       287       288       437      1679      2119      2120
 -1       706    8    0    1
 -2       287       437       436      2120      2121      2116
 -1       707    8    0    1
 -2       288       289       438      1682      2122      2123
 -1       708    8    0    1
 -2       288       438       437      2123      2124      2119
 -1       709    8    0    1
 -2       289       290       439      1685      2125      2126
 -1       710    8    0    1
 -2       289       439       438      2126      2127      2122
 -1       711    8    0    1
 -2       293       294       440      1754      2128      2129
 -1       712    8    0    1
 -2       320       292       441      1755      2130      2131
 -1       713    8    0    1
 -2       294       295       442      1751      2132      2133
 -1       714    8    0    1
 -2       295       330       442      1803      2134      2132
 -1       715    8    0    1
 -2       167       168       443      1318      2135      2136
 -1       716    8    0    1
 -2       168       325       443      1790      2137      2135
 -1       717    8    0    1
 -2       176       177       444      1344      2138      2139
 -1       718    8    0    1
 -2       177       331       444      1805      2140      2138
 -1       719    8    0    1
 -2       297       298       445      1757      2141      2142
 -1       720    8    0    1
 -2       298       299       446      1758      2143      2144
 -1       721    8    0    1
 -2       299       300       447      1759      2145      2146
 -1       722    8    0    1
 -2       300       301       448      1760      2147      2148
 -1       723    8    0    1
 -2       300       448       447      2148      2149      2145
 -1       724    8    0    1
 -2       301       302       449      1761      2150      2151
 -1       725    8    0    1
 -2       302       303       450      1762      2152      2153
 -1       726    8    0    1
 -2       303       304       451      1763      2154      2155
 -1       727    8    0    1
 -2       304       305       452      1764      2156      2157
 -1       728    8    0    1
 -2       306       307       453      1766      2158      2159
 -1       729    8    0    1
 -2       308       309       454      1768      2160      2161
 -1       730    8    0    1
 -2       309       310       455      1769      2162      2163
 -1       731    8    0    1
 -2       310       311       456      1770      2164      2165
 -1       732    8    0    1
 -2       311       312       457      1771      2166      2167
 -1       733    8    0    1
 -2       312       313       458      1772      2168      2169
 -1       734    8    0    1
 -2       313       314       459      1773      2170      2171
 -1       735    8    0    1
 -2       314       315       460      1774      2172      2173
 -1       736    8    0    1
 -2       314       460       459      2173      2174      2170
 -1       737    8    0    1
 -2       315       316       461      1775      2175      2176
 -1       738    8    0    1
 -2       316       317       462      1776      2177      2178
 -1       739    8    0    1
 -2       317       318       463      1777      2179      2180
 -1       740    8    0    1
 -2       318       319       464      1778      2181      2182
 -1       741    8    0    1
 -2       319       320       465      1779      2183      2184
 -1       742    8    0    1
 -2       296       297       466      1756      2185      2186
 -1       743    8    0    1
 -2       171       172       467      1330      2187      2188
 -1       744    8    0    1
 -2       176       444       329      2139      2189      1800
 -1       745    8    0    1
 -2       167       443       323      2136      2190      1784
 -1       746    8    0    1
 -2       297       445       466      2142      2191      2185
 -1       747    8    0    1
 -2       174       175       452      1338      2192      2193
 -1       748    8    0    1
 -2       178       332       331      1807      2194      1804
 -1       749    8    0    1
 -2       175       329       452      1801      2195      2192
 -1       750    8    0    1
 -2       335       182       324      1815      2196      2197
 -1       751    8    0    1
 -2       182       181       324      1359      2198      2196
 -1       752    8    0    1
 -2         7       165       322      1309      2199      1781
 -1       753    8    0    1
 -2       467       172       328      2187      1798      2200
 -1       754    8    0    1
 -2       292       428       468      2094      2201      2202
 -1       755    8    0    1
 -2       292       468       441      2202      2203      2130
 -1       756    8    0    1
 -2       275       276       469      1643      2204      2205
 -1       757    8    0    1
 -2       174       452       470      2193      2206      2207
 -1       758    8    0    1
 -2       321       174       470      1783      2207      2208
 -1       759    8    0    1
 -2       452       305       470      2156      2209      2206
 -1       760    8    0    1
 -2       428       293       440      2093      2129      2210
 -1       761    8    0    1
 -2       439       290       291      2125      1688      2211
 -1       762    8    0    1
 -2       440       294       471      2128      2212      2213
 -1       763    8    0    1
 -2       294       442       471      2133      2214      2212
 -1       764    8    0    1
 -2       465       320       441      2183      2131      2215
 -1       765    8    0    1
 -2       464       319       465      2181      2184      2216
 -1       766    8    0    1
 -2       463       318       464      2179      2182      2217
 -1       767    8    0    1
 -2       462       317       463      2177      2180      2218
 -1       768    8    0    1
 -2       460       315       461      2172      2176      2219
 -1       769    8    0    1
 -2       458       313       459      2168      2171      2220
 -1       770    8    0    1
 -2       457       312       458      2166      2169      2221
 -1       771    8    0    1
 -2       456       311       457      2164      2167      2222
 -1       772    8    0    1
 -2       455       310       456      2162      2165      2223
 -1       773    8    0    1
 -2       454       309       455      2160      2163      2224
 -1       774    8    0    1
 -2       450       303       451      2152      2155      2225
 -1       775    8    0    1
 -2       448       301       449      2147      2151      2226
 -1       776    8    0    1
 -2       446       299       447      2143      2146      2227
 -1       777    8    0    1
 -2       275       469       425      2205      2228      2085
 -1       778    8    0    1
 -2       330       296       466      1802      2186      2229
 -1       779    8    0    1
 -2       445       298       446      2141      2144      2230
 -1       780    8    0    1
 -2       449       302       450      2150      2153      2231
 -1       781    8    0    1
 -2       306       453       470      2159      2232      2233
 -1       782    8    0    1
 -2       305       306       470      1765      2233      2209
 -1       783    8    0    1
 -2       307       308       472      1767      2234      2235
 -1       784    8    0    1
 -2       461       316       462      2175      2178      2236
 -1       785    8    0    1
 -2       173       321       472      1780      2237      2238
 -1       786    8    0    1
 -2       171       467       327      2188      2239      1794
 -1       787    8    0    1
 -2       322       165       324      2199      1787      2240
 -1       788    8    0    1
 -2       472       308       454      2234      2161      2241
 -1       789    8    0    1
 -2       326       327       473      1796      2242      2243
 -1       790    8    0    1
 -2       325       326       474      1793      2244      2245
 -1       791    8    0    1
 -2       326       473       474      2243      2246      2244
 -1       792    8    0    1
 -2       328       173       472      1797      2238      2247
 -1       793    8    0    1
 -2       181       322       324      1799      2240      2198
 -1       794    8    0    1
 -2       323       443       475      2190      2248      2249
 -1       795    8    0    1
 -2       335       324       476      2197      2250      2251
 -1       796    8    0    1
 -2       324       323       476      1788      2252      2250
 -1       797    8    0    1
 -2       331       332       477      2194      2253      2254
 -1       798    8    0    1
 -2       332       333       478      1810      2255      2256
 -1       799    8    0    1
 -2       477       332       478      2253      2256      2257
 -1       800    8    0    1
 -2       333       334       478      1814      2258      2255
 -1       801    8    0    1
 -2       336       335       476      1819      2251      2259
 -1       802    8    0    1
 -2       307       472       453      2235      2260      2158
 -1       803    8    0    1
 -2       337       336       479      1822      2261      2262
 -1       804    8    0    1
 -2       338       337       480      1825      2263      2264
 -1       805    8    0    1
 -2       337       479       480      2262      2265      2263
 -1       806    8    0    1
 -2       339       338       481      1828      2266      2267
 -1       807    8    0    1
 -2       338       480       481      2264      2268      2266
 -1       808    8    0    1
 -2       340       339       482      1831      2269      2270
 -1       809    8    0    1
 -2       339       481       482      2267      2271      2269
 -1       810    8    0    1
 -2       341       340       483      1834      2272      2273
 -1       811    8    0    1
 -2       340       482       483      2270      2274      2272
 -1       812    8    0    1
 -2       342       341       484      1837      2275      2276
 -1       813    8    0    1
 -2       341       483       484      2273      2277      2275
 -1       814    8    0    1
 -2       343       342       485      1840      2278      2279
 -1       815    8    0    1
 -2       342       484       485      2276      2280      2278
 -1       816    8    0    1
 -2       344       343       486      1843      2281      2282
 -1       817    8    0    1
 -2       343       485       486      2279      2283      2281
 -1       818    8    0    1
 -2       345       344       487      1846      2284      2285
 -1       819    8    0    1
 -2       344       486       487      2282      2286      2284
 -1       820    8    0    1
 -2       346       345       488      1849      2287      2288
 -1       821    8    0    1
 -2       345       487       488      2285      2289      2287
 -1       822    8    0    1
 -2       347       346       489      1852      2290      2291
 -1       823    8    0    1
 -2       346       488       489      2288      2292      2290
 -1       824    8    0    1
 -2       348       347       490      1855      2293      2294
 -1       825    8    0    1
 -2       347       489       490      2291      2295      2293
 -1       826    8    0    1
 -2       349       348       491      1858      2296      2297
 -1       827    8    0    1
 -2       348       490       491      2294      2298      2296
 -1       828    8    0    1
 -2       350       349       492      1861      2299      2300
 -1       829    8    0    1
 -2       349       491       492      2297      2301      2299
 -1       830    8    0    1
 -2       351       350       493      1864      2302      2303
 -1       831    8    0    1
 -2       350       492       493      2300      2304      2302
 -1       832    8    0    1
 -2       352       351       494      1867      2305      2306
 -1       833    8    0    1
 -2       351       493       494      2303      2307      2305
 -1       834    8    0    1
 -2       353       352       495      1870      2308      2309
 -1       835    8    0    1
 -2       352       494       495      2306      2310      2308
 -1       836    8    0    1
 -2       354       353       496      1873      2311      2312
 -1       837    8    0    1
 -2       353       495       496      2309      2313      2311
 -1       838    8    0    1
 -2       355       354       497      1876      2314      2315
 -1       839    8    0    1
 -2       354       496       497      2312      2316      2314
 -1       840    8    0    1
 -2       356       355       498      1879      2317      2318
 -1       841    8    0    1
 -2       355       497       498      2315      2319      2317
 -1       842    8    0    1
 -2       357       356       499      1882      2320      2321
 -1       843    8    0    1
 -2       356       498       499      2318      2322      2320
 -1       844    8    0    1
 -2       358       357       500      1885      2323      2324
 -1       845    8    0    1
 -2       357       499       500      2321      2325      2323
 -1       846    8    0    1
 -2       359       358       501      1888      2326      2327
 -1       847    8    0    1
 -2       358       500       501      2324      2328      2326
 -1       848    8    0    1
 -2       360       359       502      1891      2329      2330
 -1       849    8    0    1
 -2       359       501       502      2327      2331      2329
 -1       850    8    0    1
 -2       361       360       503      1894      2332      2333
 -1       851    8    0    1
 -2       360       502       503      2330      2334      2332
 -1       852    8    0    1
 -2       362       361       504      1897      2335      2336
 -1       853    8    0    1
 -2       361       503       504      2333      2337      2335
 -1       854    8    0    1
 -2       363       362       505      1900      2338      2339
 -1       855    8    0    1
 -2       362       504       505      2336      2340      2338
 -1       856    8    0    1
 -2       364       363       506      1903      2341      2342
 -1       857    8    0    1
 -2       363       505       506      2339      2343      2341
 -1       858    8    0    1
 -2       365       364       507      1906      2344      2345
 -1       859    8    0    1
 -2       364       506       507      2342      2346      2344
 -1       860    8    0    1
 -2       366       365       508      1909      2347      2348
 -1       861    8    0    1
 -2       365       507       508      2345      2349      2347
 -1       862    8    0    1
 -2       367       366       509      1912      2350      2351
 -1       863    8    0    1
 -2       366       508       509      2348      2352      2350
 -1       864    8    0    1
 -2       368       367       510      1915      2353      2354
 -1       865    8    0    1
 -2       367       509       510      2351      2355      2353
 -1       866    8    0    1
 -2       369       368       511      1918      2356      2357
 -1       867    8    0    1
 -2       368       510       511      2354      2358      2356
 -1       868    8    0    1
 -2       370       369       512      1921      2359      2360
 -1       869    8    0    1
 -2       369       511       512      2357      2361      2359
 -1       870    8    0    1
 -2       371       370       513      1924      2362      2363
 -1       871    8    0    1
 -2       370       512       513      2360      2364      2362
 -1       872    8    0    1
 -2       372       371       514      1927      2365      2366
 -1       873    8    0    1
 -2       371       513       514      2363      2367      2365
 -1       874    8    0    1
 -2       373       372       515      1930      2368      2369
 -1       875    8    0    1
 -2       372       514       515      2366      2370      2368
 -1       876    8    0    1
 -2       374       373       516      1933      2371      2372
 -1       877    8    0    1
 -2       373       515       516      2369      2373      2371
 -1       878    8    0    1
 -2       375       374       517      1936      2374      2375
 -1       879    8    0    1
 -2       374       516       517      2372      2376      2374
 -1       880    8    0    1
 -2       376       375       518      1939      2377      2378
 -1       881    8    0    1
 -2       375       517       518      2375      2379      2377
 -1       882    8    0    1
 -2       377       376       519      1942      2380      2381
 -1       883    8    0    1
 -2       376       518       519      2378      2382      2380
 -1       884    8    0    1
 -2       378       377       520      1945      2383      2384
 -1       885    8    0    1
 -2       377       519       520      2381      2385      2383
 -1       886    8    0    1
 -2       379       378       521      1948      2386      2387
 -1       887    8    0    1
 -2       378       520       521      2384      2388      2386
 -1       888    8    0    1
 -2       427       426       522      2092      2389      2390
 -1       889    8    0    1
 -2       383       384       523      1964      2391      2392
 -1       890    8    0    1
 -2       384       385       524      1967      2393      2394
 -1       891    8    0    1
 -2       385       386       525      1970      2395      2396
 -1       892    8    0    1
 -2       386       387       526      1973      2397      2398
 -1       893    8    0    1
 -2       386       526       525      2398      2399      2395
 -1       894    8    0    1
 -2       387       388       527      1976      2400      2401
 -1       895    8    0    1
 -2       387       527       526      2401      2402      2397
 -1       896    8    0    1
 -2       388       389       528      1979      2403      2404
 -1       897    8    0    1
 -2       388       528       527      2404      2405      2400
 -1       898    8    0    1
 -2       389       390       529      1982      2406      2407
 -1       899    8    0    1
 -2       389       529       528      2407      2408      2403
 -1       900    8    0    1
 -2       390       391       530      1985      2409      2410
 -1       901    8    0    1
 -2       390       530       529      2410      2411      2406
 -1       902    8    0    1
 -2       391       392       531      1988      2412      2413
 -1       903    8    0    1
 -2       391       531       530      2413      2414      2409
 -1       904    8    0    1
 -2       392       393       532      1991      2415      2416
 -1       905    8    0    1
 -2       392       532       531      2416      2417      2412
 -1       906    8    0    1
 -2       393       394       533      1994      2418      2419
 -1       907    8    0    1
 -2       393       533       532      2419      2420      2415
 -1       908    8    0    1
 -2       394       395       534      1997      2421      2422
 -1       909    8    0    1
 -2       394       534       533      2422      2423      2418
 -1       910    8    0    1
 -2       395       396       535      2000      2424      2425
 -1       911    8    0    1
 -2       395       535       534      2425      2426      2421
 -1       912    8    0    1
 -2       396       397       536      2003      2427      2428
 -1       913    8    0    1
 -2       396       536       535      2428      2429      2424
 -1       914    8    0    1
 -2       397       398       537      2006      2430      2431
 -1       915    8    0    1
 -2       397       537       536      2431      2432      2427
 -1       916    8    0    1
 -2       398       399       538      2009      2433      2434
 -1       917    8    0    1
 -2       398       538       537      2434      2435      2430
 -1       918    8    0    1
 -2       399       400       539      2012      2436      2437
 -1       919    8    0    1
 -2       399       539       538      2437      2438      2433
 -1       920    8    0    1
 -2       400       401       540      2015      2439      2440
 -1       921    8    0    1
 -2       400       540       539      2440      2441      2436
 -1       922    8    0    1
 -2       401       402       541      2018      2442      2443
 -1       923    8    0    1
 -2       401       541       540      2443      2444      2439
 -1       924    8    0    1
 -2       402       403       542      2021      2445      2446
 -1       925    8    0    1
 -2       402       542       541      2446      2447      2442
 -1       926    8    0    1
 -2       403       404       543      2024      2448      2449
 -1       927    8    0    1
 -2       403       543       542      2449      2450      2445
 -1       928    8    0    1
 -2       404       405       544      2027      2451      2452
 -1       929    8    0    1
 -2       404       544       543      2452      2453      2448
 -1       930    8    0    1
 -2       405       406       545      2030      2454      2455
 -1       931    8    0    1
 -2       405       545       544      2455      2456      2451
 -1       932    8    0    1
 -2       406       407       546      2033      2457      2458
 -1       933    8    0    1
 -2       406       546       545      2458      2459      2454
 -1       934    8    0    1
 -2       407       408       547      2036      2460      2461
 -1       935    8    0    1
 -2       407       547       546      2461      2462      2457
 -1       936    8    0    1
 -2       408       409       548      2039      2463      2464
 -1       937    8    0    1
 -2       408       548       547      2464      2465      2460
 -1       938    8    0    1
 -2       409       410       549      2042      2466      2467
 -1       939    8    0    1
 -2       409       549       548      2467      2468      2463
 -1       940    8    0    1
 -2       410       411       550      2045      2469      2470
 -1       941    8    0    1
 -2       410       550       549      2470      2471      2466
 -1       942    8    0    1
 -2       411       412       551      2048      2472      2473
 -1       943    8    0    1
 -2       411       551       550      2473      2474      2469
 -1       944    8    0    1
 -2       412       413       552      2051      2475      2476
 -1       945    8    0    1
 -2       412       552       551      2476      2477      2472
 -1       946    8    0    1
 -2       413       414       553      2054      2478      2479
 -1       947    8    0    1
 -2       413       553       552      2479      2480      2475
 -1       948    8    0    1
 -2       414       415       554      2057      2481      2482
 -1       949    8    0    1
 -2       414       554       553      2482      2483      2478
 -1       950    8    0    1
 -2       415       416       555      2060      2484      2485
 -1       951    8    0    1
 -2       415       555       554      2485      2486      2481
 -1       952    8    0    1
 -2       416       417       556      2063      2487      2488
 -1       953    8    0    1
 -2       416       556       555      2488      2489      2484
 -1       954    8    0    1
 -2       417       418       557      2066      2490      2491
 -1       955    8    0    1
 -2       417       557       556      2491      2492      2487
 -1       956    8    0    1
 -2       418       419       558      2069      2493      2494
 -1       957    8    0    1
 -2       418       558       557      2494      2495      2490
 -1       958    8    0    1
 -2       419       420       559      2072      2496      2497
 -1       959    8    0    1
 -2       419       559       558      2497      2498      2493
 -1       960    8    0    1
 -2       420       421       560      2075      2499      2500
 -1       961    8    0    1
 -2       420       560       559      2500      2501      2496
 -1       962    8    0    1
 -2       421       422       561      2078      2502      2503
 -1       963    8    0    1
 -2       421       561       560      2503      2504      2499
 -1       964    8    0    1
 -2       422       423       562      2081      2505      2506
 -1       965    8    0    1
 -2       422       562       561      2506      2507      2502
 -1       966    8    0    1
 -2       423       424       563      2084      2508      2509
 -1       967    8    0    1
 -2       423       563       562      2509      2510      2505
 -1       968    8    0    1
 -2       424       425       564      2087      2511      2512
 -1       969    8    0    1
 -2       424       564       563      2512      2513      2508
 -1       970    8    0    1
 -2       330       466       565      2229      2514      2515
 -1       971    8    0    1
 -2       430       431       566      2103      2516      2517
 -1       972    8    0    1
 -2       321       470       453      2208      2232      2518
 -1       973    8    0    1
 -2       426       430       567      2100      2519      2520
 -1       974    8    0    1
 -2       522       426       567      2389      2520      2521
 -1       975    8    0    1
 -2       430       566       567      2517      2522      2519
 -1       976    8    0    1
 -2       431       432       568      2106      2523      2524
 -1       977    8    0    1
 -2       431       568       566      2524      2525      2516
 -1       978    8    0    1
 -2       432       433       569      2109      2526      2527
 -1       979    8    0    1
 -2       432       569       568      2527      2528      2523
 -1       980    8    0    1
 -2       433       434       570      2112      2529      2530
 -1       981    8    0    1
 -2       433       570       569      2530      2531      2526
 -1       982    8    0    1
 -2       434       435       571      2115      2532      2533
 -1       983    8    0    1
 -2       434       571       570      2533      2534      2529
 -1       984    8    0    1
 -2       435       436       572      2118      2535      2536
 -1       985    8    0    1
 -2       435       572       571      2536      2537      2532
 -1       986    8    0    1
 -2       436       437       573      2121      2538      2539
 -1       987    8    0    1
 -2       436       573       572      2539      2540      2535
 -1       988    8    0    1
 -2       437       438       574      2124      2541      2542
 -1       989    8    0    1
 -2       437       574       573      2542      2543      2538
 -1       990    8    0    1
 -2       438       439       575      2127      2544      2545
 -1       991    8    0    1
 -2       438       575       574      2545      2546      2541
 -1       992    8    0    1
 -2       439       291       380      2211      1951      2547
 -1       993    8    0    1
 -2       382       383       576      1961      2548      2549
 -1       994    8    0    1
 -2       464       465       577      2216      2550      2551
 -1       995    8    0    1
 -2       465       441       578      2215      2552      2553
 -1       996    8    0    1
 -2       465       578       577      2553      2554      2550
 -1       997    8    0    1
 -2       443       325       579      2137      2555      2556
 -1       998    8    0    1
 -2       475       443       579      2248      2556      2557
 -1       999    8    0    1
 -2       325       474       579      2245      2558      2555
 -1      1000    8    0    1
 -2       458       459       580      2220      2559      2560
 -1      1001    8    0    1
 -2       428       440       581      2210      2561      2562
 -1      1002    8    0    1
 -2       451       304       329      2154      2563      2564
 -1      1003    8    0    1
 -2       446       447       582      2227      2565      2566
 -1      1004    8    0    1
 -2       442       330       583      2134      2567      2568
 -1      1005    8    0    1
 -2       381       382       582      1958      2569      2570
 -1      1006    8    0    1
 -2       452       329       304      2195      2563      2157
 -1      1007    8    0    1
 -2       449       450       584      2231      2571      2572
 -1      1008    8    0    1
 -2       447       448       585      2149      2573      2574
 -1      1009    8    0    1
 -2       448       449       586      2226      2575      2576
 -1      1010    8    0    1
 -2       461       462       587      2236      2577      2578
 -1      1011    8    0    1
 -2       455       456       588      2223      2579      2580
 -1      1012    8    0    1
 -2       456       457       589      2222      2581      2582
 -1      1013    8    0    1
 -2       457       458       590      2221      2583      2584
 -1      1014    8    0    1
 -2       457       590       589      2584      2585      2581
 -1      1015    8    0    1
 -2       459       460       591      2174      2586      2587
 -1      1016    8    0    1
 -2       472       321       453      2237      2518      2260
 -1      1017    8    0    1
 -2       460       461       592      2219      2588      2589
 -1      1018    8    0    1
 -2       462       463       593      2218      2590      2591
 -1      1019    8    0    1
 -2       462       593       587      2591      2592      2577
 -1      1020    8    0    1
 -2       463       464       594      2217      2593      2594
 -1      1021    8    0    1
 -2       445       446       576      2230      2595      2596
 -1      1022    8    0    1
 -2       327       467       588      2239      2597      2598
 -1      1023    8    0    1
 -2       466       445       595      2191      2599      2600
 -1      1024    8    0    1
 -2       458       580       596      2560      2601      2602
 -1      1025    8    0    1
 -2       458       596       590      2602      2603      2583
 -1      1026    8    0    1
 -2       580       459       591      2559      2587      2604
 -1      1027    8    0    1
 -2       476       323       475      2252      2249      2605
 -1      1028    8    0    1
 -2       460       592       591      2589      2606      2586
 -1      1029    8    0    1
 -2       523       384       524      2391      2394      2607
 -1      1030    8    0    1
 -2       524       385       525      2393      2396      2608
 -1      1031    8    0    1
 -2       479       336       476      2261      2259      2609
 -1      1032    8    0    1
 -2       382       576       582      2549      2610      2569
 -1      1033    8    0    1
 -2       427       522       564      2390      2611      2612
 -1      1034    8    0    1
 -2       468       428       581      2201      2562      2613
 -1      1035    8    0    1
 -2       330       565       583      2515      2614      2567
 -1      1036    8    0    1
 -2       565       466       595      2514      2600      2615
 -1      1037    8    0    1
 -2       469       276       277      2204      2616      2617
 -1      1038    8    0    1
 -2       592       461       587      2588      2578      2618
 -1      1039    8    0    1
 -2       276       121       277      1641      1752      2616
 -1      1040    8    0    1
 -2       578       441       597      2552      2619      2620
 -1      1041    8    0    1
 -2       441       468       597      2203      2621      2619
 -1      1042    8    0    1
 -2       277       429       469      2096      2622      2617
 -1      1043    8    0    1
 -2       439       380       598      2547      2623      2624
 -1      1044    8    0    1
 -2       575       439       598      2544      2624      2625
 -1      1045    8    0    1
 -2       380       379       598      1952      2626      2623
 -1      1046    8    0    1
 -2       471       442       583      2214      2568      2627
 -1      1047    8    0    1
 -2       440       471       599      2213      2628      2629
 -1      1048    8    0    1
 -2       440       599       581      2629      2630      2561
 -1      1049    8    0    1
 -2       464       577       594      2551      2631      2593
 -1      1050    8    0    1
 -2       595       445       576      2599      2596      2632
 -1      1051    8    0    1
 -2       588       467       455      2597      2633      2580
 -1      1052    8    0    1
 -2       379       521       598      2387      2634      2626
 -1      1053    8    0    1
 -2       446       582       576      2566      2610      2595
 -1      1054    8    0    1
 -2       588       456       589      2579      2582      2635
 -1      1055    8    0    1
 -2       381       582       585      2570      2636      2637
 -1      1056    8    0    1
 -2       463       594       593      2594      2638      2590
 -1      1057    8    0    1
 -2       429       427       564      2097      2612      2639
 -1      1058    8    0    1
 -2       334       381       585      1955      2637      2640
 -1      1059    8    0    1
 -2       586       449       584      2575      2572      2641
 -1      1060    8    0    1
 -2       585       448       586      2573      2576      2642
 -1      1061    8    0    1
 -2       444       331       584      2140      2643      2644
 -1      1062    8    0    1
 -2       447       585       582      2574      2636      2565
 -1      1063    8    0    1
 -2       425       469       564      2228      2645      2511
 -1      1064    8    0    1
 -2       444       584       450      2644      2571      2646
 -1      1065    8    0    1
 -2       473       327       589      2242      2647      2648
 -1      1066    8    0    1
 -2       450       451       444      2225      2649      2646
 -1      1067    8    0    1
 -2       584       331       477      2643      2254      2650
 -1      1068    8    0    1
 -2       589       327       588      2647      2598      2635
 -1      1069    8    0    1
 -2       472       454       328      2241      2651      2247
 -1      1070    8    0    1
 -2       527       528       600      2405      2652      2653
 -1      1071    8    0    1
 -2       526       527       601      2402      2654      2655
 -1      1072    8    0    1
 -2       527       600       601      2653      2656      2654
 -1      1073    8    0    1
 -2       329       444       451      2189      2649      2564
 -1      1074    8    0    1
 -2       480       479       602      2265      2657      2658
 -1      1075    8    0    1
 -2       474       473       603      2246      2659      2660
 -1      1076    8    0    1
 -2       591       592       604      2606      2661      2662
 -1      1077    8    0    1
 -2       564       522       605      2611      2663      2664
 -1      1078    8    0    1
 -2       564       605       563      2664      2665      2513
 -1      1079    8    0    1
 -2       468       581       606      2613      2666      2667
 -1      1080    8    0    1
 -2       481       480       607      2268      2668      2669
 -1      1081    8    0    1
 -2       480       602       607      2658      2670      2668
 -1      1082    8    0    1
 -2       482       481       608      2271      2671      2672
 -1      1083    8    0    1
 -2       481       607       608      2669      2673      2671
 -1      1084    8    0    1
 -2       483       482       609      2274      2674      2675
 -1      1085    8    0    1
 -2       482       608       609      2672      2676      2674
 -1      1086    8    0    1
 -2       484       483       610      2277      2677      2678
 -1      1087    8    0    1
 -2       483       609       610      2675      2679      2677
 -1      1088    8    0    1
 -2       485       484       611      2280      2680      2681
 -1      1089    8    0    1
 -2       484       610       611      2678      2682      2680
 -1      1090    8    0    1
 -2       486       485       612      2283      2683      2684
 -1      1091    8    0    1
 -2       485       611       612      2681      2685      2683
 -1      1092    8    0    1
 -2       487       486       613      2286      2686      2687
 -1      1093    8    0    1
 -2       486       612       613      2684      2688      2686
 -1      1094    8    0    1
 -2       488       487       614      2289      2689      2690
 -1      1095    8    0    1
 -2       487       613       614      2687      2691      2689
 -1      1096    8    0    1
 -2       489       488       615      2292      2692      2693
 -1      1097    8    0    1
 -2       488       614       615      2690      2694      2692
 -1      1098    8    0    1
 -2       490       489       616      2295      2695      2696
 -1      1099    8    0    1
 -2       489       615       616      2693      2697      2695
 -1      1100    8    0    1
 -2       491       490       617      2298      2698      2699
 -1      1101    8    0    1
 -2       490       616       617      2696      2700      2698
 -1      1102    8    0    1
 -2       492       491       618      2301      2701      2702
 -1      1103    8    0    1
 -2       491       617       618      2699      2703      2701
 -1      1104    8    0    1
 -2       493       492       619      2304      2704      2705
 -1      1105    8    0    1
 -2       492       618       619      2702      2706      2704
 -1      1106    8    0    1
 -2       494       493       620      2307      2707      2708
 -1      1107    8    0    1
 -2       493       619       620      2705      2709      2707
 -1      1108    8    0    1
 -2       495       494       621      2310      2710      2711
 -1      1109    8    0    1
 -2       494       620       621      2708      2712      2710
 -1      1110    8    0    1
 -2       496       495       622      2313      2713      2714
 -1      1111    8    0    1
 -2       495       621       622      2711      2715      2713
 -1      1112    8    0    1
 -2       497       496       623      2316      2716      2717
 -1      1113    8    0    1
 -2       496       622       623      2714      2718      2716
 -1      1114    8    0    1
 -2       498       497       624      2319      2719      2720
 -1      1115    8    0    1
 -2       497       623       624      2717      2721      2719
 -1      1116    8    0    1
 -2       499       498       625      2322      2722      2723
 -1      1117    8    0    1
 -2       498       624       625      2720      2724      2722
 -1      1118    8    0    1
 -2       500       499       626      2325      2725      2726
 -1      1119    8    0    1
 -2       499       625       626      2723      2727      2725
 -1      1120    8    0    1
 -2       501       500       627      2328      2728      2729
 -1      1121    8    0    1
 -2       500       626       627      2726      2730      2728
 -1      1122    8    0    1
 -2       502       501       628      2331      2731      2732
 -1      1123    8    0    1
 -2       501       627       628      2729      2733      2731
 -1      1124    8    0    1
 -2       503       502       629      2334      2734      2735
 -1      1125    8    0    1
 -2       502       628       629      2732      2736      2734
 -1      1126    8    0    1
 -2       504       503       630      2337      2737      2738
 -1      1127    8    0    1
 -2       503       629       630      2735      2739      2737
 -1      1128    8    0    1
 -2       505       504       631      2340      2740      2741
 -1      1129    8    0    1
 -2       504       630       631      2738      2742      2740
 -1      1130    8    0    1
 -2       506       505       632      2343      2743      2744
 -1      1131    8    0    1
 -2       505       631       632      2741      2745      2743
 -1      1132    8    0    1
 -2       507       506       633      2346      2746      2747
 -1      1133    8    0    1
 -2       506       632       633      2744      2748      2746
 -1      1134    8    0    1
 -2       508       507       634      2349      2749      2750
 -1      1135    8    0    1
 -2       507       633       634      2747      2751      2749
 -1      1136    8    0    1
 -2       509       508       635      2352      2752      2753
 -1      1137    8    0    1
 -2       508       634       635      2750      2754      2752
 -1      1138    8    0    1
 -2       510       509       636      2355      2755      2756
 -1      1139    8    0    1
 -2       509       635       636      2753      2757      2755
 -1      1140    8    0    1
 -2       511       510       637      2358      2758      2759
 -1      1141    8    0    1
 -2       510       636       637      2756      2760      2758
 -1      1142    8    0    1
 -2       512       511       638      2361      2761      2762
 -1      1143    8    0    1
 -2       511       637       638      2759      2763      2761
 -1      1144    8    0    1
 -2       513       512       639      2364      2764      2765
 -1      1145    8    0    1
 -2       512       638       639      2762      2766      2764
 -1      1146    8    0    1
 -2       514       513       640      2367      2767      2768
 -1      1147    8    0    1
 -2       513       639       640      2765      2769      2767
 -1      1148    8    0    1
 -2       515       514       641      2370      2770      2771
 -1      1149    8    0    1
 -2       514       640       641      2768      2772      2770
 -1      1150    8    0    1
 -2       516       515       642      2373      2773      2774
 -1      1151    8    0    1
 -2       515       641       642      2771      2775      2773
 -1      1152    8    0    1
 -2       517       516       643      2376      2776      2777
 -1      1153    8    0    1
 -2       516       642       643      2774      2778      2776
 -1      1154    8    0    1
 -2       518       517       644      2379      2779      2780
 -1      1155    8    0    1
 -2       517       643       644      2777      2781      2779
 -1      1156    8    0    1
 -2       519       518       645      2382      2782      2783
 -1      1157    8    0    1
 -2       518       644       645      2780      2784      2782
 -1      1158    8    0    1
 -2       520       519       646      2385      2785      2786
 -1      1159    8    0    1
 -2       519       645       646      2783      2787      2785
 -1      1160    8    0    1
 -2       521       520       647      2388      2788      2789
 -1      1161    8    0    1
 -2       520       646       647      2786      2790      2788
 -1      1162    8    0    1
 -2       569       570       648      2531      2791      2792
 -1      1163    8    0    1
 -2       471       583       649      2627      2793      2794
 -1      1164    8    0    1
 -2       383       523       576      2392      2795      2548
 -1      1165    8    0    1
 -2       524       525       649      2608      2796      2797
 -1      1166    8    0    1
 -2       479       476       650      2609      2798      2799
 -1      1167    8    0    1
 -2       525       526       651      2399      2800      2801
 -1      1168    8    0    1
 -2       649       525       651      2796      2801      2802
 -1      1169    8    0    1
 -2       526       601       651      2655      2803      2800
 -1      1170    8    0    1
 -2       528       529       652      2408      2804      2805
 -1      1171    8    0    1
 -2       528       652       600      2805      2806      2652
 -1      1172    8    0    1
 -2       529       530       653      2411      2807      2808
 -1      1173    8    0    1
 -2       529       653       652      2808      2809      2804
 -1      1174    8    0    1
 -2       530       531       654      2414      2810      2811
 -1      1175    8    0    1
 -2       530       654       653      2811      2812      2807
 -1      1176    8    0    1
 -2       531       532       655      2417      2813      2814
 -1      1177    8    0    1
 -2       531       655       654      2814      2815      2810
 -1      1178    8    0    1
 -2       532       533       656      2420      2816      2817
 -1      1179    8    0    1
 -2       532       656       655      2817      2818      2813
 -1      1180    8    0    1
 -2       533       534       657      2423      2819      2820
 -1      1181    8    0    1
 -2       533       657       656      2820      2821      2816
 -1      1182    8    0    1
 -2       534       535       658      2426      2822      2823
 -1      1183    8    0    1
 -2       534       658       657      2823      2824      2819
 -1      1184    8    0    1
 -2       535       536       659      2429      2825      2826
 -1      1185    8    0    1
 -2       535       659       658      2826      2827      2822
 -1      1186    8    0    1
 -2       536       537       660      2432      2828      2829
 -1      1187    8    0    1
 -2       536       660       659      2829      2830      2825
 -1      1188    8    0    1
 -2       537       538       661      2435      2831      2832
 -1      1189    8    0    1
 -2       537       661       660      2832      2833      2828
 -1      1190    8    0    1
 -2       538       539       662      2438      2834      2835
 -1      1191    8    0    1
 -2       538       662       661      2835      2836      2831
 -1      1192    8    0    1
 -2       539       540       663      2441      2837      2838
 -1      1193    8    0    1
 -2       539       663       662      2838      2839      2834
 -1      1194    8    0    1
 -2       540       541       664      2444      2840      2841
 -1      1195    8    0    1
 -2       540       664       663      2841      2842      2837
 -1      1196    8    0    1
 -2       541       542       665      2447      2843      2844
 -1      1197    8    0    1
 -2       541       665       664      2844      2845      2840
 -1      1198    8    0    1
 -2       542       543       666      2450      2846      2847
 -1      1199    8    0    1
 -2       542       666       665      2847      2848      2843
 -1      1200    8    0    1
 -2       543       544       667      2453      2849      2850
 -1      1201    8    0    1
 -2       543       667       666      2850      2851      2846
 -1      1202    8    0    1
 -2       544       545       668      2456      2852      2853
 -1      1203    8    0    1
 -2       544       668       667      2853      2854      2849
 -1      1204    8    0    1
 -2       545       546       669      2459      2855      2856
 -1      1205    8    0    1
 -2       545       669       668      2856      2857      2852
 -1      1206    8    0    1
 -2       546       547       670      2462      2858      2859
 -1      1207    8    0    1
 -2       546       670       669      2859      2860      2855
 -1      1208    8    0    1
 -2       547       548       671      2465      2861      2862
 -1      1209    8    0    1
 -2       547       671       670      2862      2863      2858
 -1      1210    8    0    1
 -2       548       549       672      2468      2864      2865
 -1      1211    8    0    1
 -2       548       672       671      2865      2866      2861
 -1      1212    8    0    1
 -2       549       550       673      2471      2867      2868
 -1      1213    8    0    1
 -2       549       673       672      2868      2869      2864
 -1      1214    8    0    1
 -2       550       551       674      2474      2870      2871
 -1      1215    8    0    1
 -2       550       674       673      2871      2872      2867
 -1      1216    8    0    1
 -2       551       552       675      2477      2873      2874
 -1      1217    8    0    1
 -2       551       675       674      2874      2875      2870
 -1      1218    8    0    1
 -2       552       553       676      2480      2876      2877
 -1      1219    8    0    1
 -2       552       676       675      2877      2878      2873
 -1      1220    8    0    1
 -2       553       554       677      2483      2879      2880
 -1      1221    8    0    1
 -2       553       677       676      2880      2881      2876
 -1      1222    8    0    1
 -2       554       555       678      2486      2882      2883
 -1      1223    8    0    1
 -2       554       678       677      2883      2884      2879
 -1      1224    8    0    1
 -2       555       556       679      2489      2885      2886
 -1      1225    8    0    1
 -2       555       679       678      2886      2887      2882
 -1      1226    8    0    1
 -2       556       557       680      2492      2888      2889
 -1      1227    8    0    1
 -2       556       680       679      2889      2890      2885
 -1      1228    8    0    1
 -2       557       558       681      2495      2891      2892
 -1      1229    8    0    1
 -2       557       681       680      2892      2893      2888
 -1      1230    8    0    1
 -2       558       559       682      2498      2894      2895
 -1      1231    8    0    1
 -2       558       682       681      2895      2896      2891
 -1      1232    8    0    1
 -2       559       560       683      2501      2897      2898
 -1      1233    8    0    1
 -2       559       683       682      2898      2899      2894
 -1      1234    8    0    1
 -2       560       561       684      2504      2900      2901
 -1      1235    8    0    1
 -2       560       684       683      2901      2902      2897
 -1      1236    8    0    1
 -2       561       562       685      2507      2903      2904
 -1      1237    8    0    1
 -2       561       685       684      2904      2905      2900
 -1      1238    8    0    1
 -2       562       563       686      2510      2906      2907
 -1      1239    8    0    1
 -2       685       562       686      2903      2907      2908
 -1      1240    8    0    1
 -2       563       605       686      2665      2909      2906
 -1      1241    8    0    1
 -2       592       587       687      2618      2910      2911
 -1      1242    8    0    1
 -2       592       687       604      2911      2912      2661
 -1      1243    8    0    1
 -2       566       568       688      2525      2913      2914
 -1      1244    8    0    1
 -2       570       571       689      2534      2915      2916
 -1      1245    8    0    1
 -2       570       689       648      2916      2917      2791
 -1      1246    8    0    1
 -2       571       572       690      2537      2918      2919
 -1      1247    8    0    1
 -2       571       690       689      2919      2920      2915
 -1      1248    8    0    1
 -2       572       573       691      2540      2921      2922
 -1      1249    8    0    1
 -2       572       691       690      2922      2923      2918
 -1      1250    8    0    1
 -2       573       574       692      2543      2924      2925
 -1      1251    8    0    1
 -2       573       692       691      2925      2926      2921
 -1      1252    8    0    1
 -2       577       578       693      2554      2927      2928
 -1      1253    8    0    1
 -2       594       577       694      2631      2929      2930
 -1      1254    8    0    1
 -2       580       591       695      2604      2931      2932
 -1      1255    8    0    1
 -2       476       475       650      2605      2933      2798
 -1      1256    8    0    1
 -2       593       594       696      2638      2934      2935
 -1      1257    8    0    1
 -2       473       589       697      2648      2936      2937
 -1      1258    8    0    1
 -2       603       473       697      2659      2937      2938
 -1      1259    8    0    1
 -2       589       590       697      2585      2939      2936
 -1      1260    8    0    1
 -2       598       521       698      2634      2940      2941
 -1      1261    8    0    1
 -2       521       647       698      2789      2942      2940
 -1      1262    8    0    1
 -2       454       455       699      2224      2943      2944
 -1      1263    8    0    1
 -2       328       454       699      2651      2944      2945
 -1      1264    8    0    1
 -2       478       334       585      2258      2640      2946
 -1      1265    8    0    1
 -2       587       593       700      2592      2947      2948
 -1      1266    8    0    1
 -2       575       598       698      2625      2941      2949
 -1      1267    8    0    1
 -2       568       569       701      2528      2950      2951
 -1      1268    8    0    1
 -2       688       568       701      2913      2951      2952
 -1      1269    8    0    1
 -2       569       648       701      2792      2953      2950
 -1      1270    8    0    1
 -2       605       522       567      2663      2521      2954
 -1      1271    8    0    1
 -2       477       478       586      2257      2955      2956
 -1      1272    8    0    1
 -2       474       603       702      2660      2957      2958
 -1      1273    8    0    1
 -2       474       702       579      2958      2959      2558
 -1      1274    8    0    1
 -2       591       604       695      2662      2960      2931
 -1      1275    8    0    1
 -2       606       581       703      2666      2961      2962
 -1      1276    8    0    1
 -2       581       599       703      2630      2963      2961
 -1      1277    8    0    1
 -2       478       585       586      2946      2642      2955
 -1      1278    8    0    1
 -2       471       649       599      2794      2964      2628
 -1      1279    8    0    1
 -2       479       650       602      2799      2965      2657
 -1      1280    8    0    1
 -2       694       577       693      2929      2928      2966
 -1      1281    8    0    1
 -2       687       587       700      2910      2948      2967
 -1      1282    8    0    1
 -2       468       606       597      2667      2968      2621
 -1      1283    8    0    1
 -2       584       477       586      2650      2956      2641
 -1      1284    8    0    1
 -2       578       597       704      2620      2969      2970
 -1      1285    8    0    1
 -2       578       704       693      2970      2971      2927
 -1      1286    8    0    1
 -2       567       566       705      2522      2972      2973
 -1      1287    8    0    1
 -2       566       688       705      2914      2974      2972
 -1      1288    8    0    1
 -2       574       575       698      2546      2949      2975
 -1      1289    8    0    1
 -2       475       579       706      2557      2976      2977
 -1      1290    8    0    1
 -2       650       475       706      2933      2977      2978
 -1      1291    8    0    1
 -2       579       702       706      2959      2979      2976
 -1      1292    8    0    1
 -2       524       649       583      2797      2793      2980
 -1      1293    8    0    1
 -2       594       694       696      2930      2981      2934
 -1      1294    8    0    1
 -2       580       695       707      2932      2982      2983
 -1      1295    8    0    1
 -2       580       707       596      2983      2984      2601
 -1      1296    8    0    1
 -2       583       565       524      2614      2985      2980
 -1      1297    8    0    1
 -2       524       565       523      2985      2986      2607
 -1      1298    8    0    1
 -2       697       590       596      2939      2603      2987
 -1      1299    8    0    1
 -2       593       696       700      2935      2988      2947
 -1      1300    8    0    1
 -2       469       429       564      2622      2639      2645
 -1      1301    8    0    1
 -2       565       595       523      2615      2989      2986
 -1      1302    8    0    1
 -2       574       698       708      2975      2990      2991
 -1      1303    8    0    1
 -2       692       574       708      2924      2991      2992
 -1      1304    8    0    1
 -2       698       647       708      2942      2993      2990
 -1      1305    8    0    1
 -2       455       467       699      2633      2994      2943
 -1      1306    8    0    1
 -2       652       653       709      2809      2995      2996
 -1      1307    8    0    1
 -2       600       652       710      2806      2997      2998
 -1      1308    8    0    1
 -2       652       709       710      2996      2999      2997
 -1      1309    8    0    1
 -2       599       649       651      2964      2802      3000
 -1      1310    8    0    1
 -2       604       687       711      2912      3001      3002
 -1      1311    8    0    1
 -2       608       607       712      2673      3003      3004
 -1      1312    8    0    1
 -2       609       608       713      2676      3005      3006
 -1      1313    8    0    1
 -2       608       712       713      3004      3007      3005
 -1      1314    8    0    1
 -2       610       609       714      2679      3008      3009
 -1      1315    8    0    1
 -2       609       713       714      3006      3010      3008
 -1      1316    8    0    1
 -2       611       610       715      2682      3011      3012
 -1      1317    8    0    1
 -2       610       714       715      3009      3013      3011
 -1      1318    8    0    1
 -2       612       611       716      2685      3014      3015
 -1      1319    8    0    1
 -2       611       715       716      3012      3016      3014
 -1      1320    8    0    1
 -2       613       612       717      2688      3017      3018
 -1      1321    8    0    1
 -2       612       716       717      3015      3019      3017
 -1      1322    8    0    1
 -2       614       613       718      2691      3020      3021
 -1      1323    8    0    1
 -2       613       717       718      3018      3022      3020
 -1      1324    8    0    1
 -2       615       614       719      2694      3023      3024
 -1      1325    8    0    1
 -2       614       718       719      3021      3025      3023
 -1      1326    8    0    1
 -2       616       615       720      2697      3026      3027
 -1      1327    8    0    1
 -2       615       719       720      3024      3028      3026
 -1      1328    8    0    1
 -2       617       616       721      2700      3029      3030
 -1      1329    8    0    1
 -2       616       720       721      3027      3031      3029
 -1      1330    8    0    1
 -2       618       617       722      2703      3032      3033
 -1      1331    8    0    1
 -2       617       721       722      3030      3034      3032
 -1      1332    8    0    1
 -2       619       618       723      2706      3035      3036
 -1      1333    8    0    1
 -2       618       722       723      3033      3037      3035
 -1      1334    8    0    1
 -2       620       619       724      2709      3038      3039
 -1      1335    8    0    1
 -2       619       723       724      3036      3040      3038
 -1      1336    8    0    1
 -2       621       620       725      2712      3041      3042
 -1      1337    8    0    1
 -2       620       724       725      3039      3043      3041
 -1      1338    8    0    1
 -2       622       621       726      2715      3044      3045
 -1      1339    8    0    1
 -2       621       725       726      3042      3046      3044
 -1      1340    8    0    1
 -2       623       622       727      2718      3047      3048
 -1      1341    8    0    1
 -2       622       726       727      3045      3049      3047
 -1      1342    8    0    1
 -2       624       623       728      2721      3050      3051
 -1      1343    8    0    1
 -2       623       727       728      3048      3052      3050
 -1      1344    8    0    1
 -2       625       624       729      2724      3053      3054
 -1      1345    8    0    1
 -2       624       728       729      3051      3055      3053
 -1      1346    8    0    1
 -2       626       625       730      2727      3056      3057
 -1      1347    8    0    1
 -2       625       729       730      3054      3058      3056
 -1      1348    8    0    1
 -2       627       626       731      2730      3059      3060
 -1      1349    8    0    1
 -2       626       730       731      3057      3061      3059
 -1      1350    8    0    1
 -2       628       627       732      2733      3062      3063
 -1      1351    8    0    1
 -2       627       731       732      3060      3064      3062
 -1      1352    8    0    1
 -2       629       628       733      2736      3065      3066
 -1      1353    8    0    1
 -2       628       732       733      3063      3067      3065
 -1      1354    8    0    1
 -2       630       629       734      2739      3068      3069
 -1      1355    8    0    1
 -2       629       733       734      3066      3070      3068
 -1      1356    8    0    1
 -2       631       630       735      2742      3071      3072
 -1      1357    8    0    1
 -2       630       734       735      3069      3073      3071
 -1      1358    8    0    1
 -2       632       631       736      2745      3074      3075
 -1      1359    8    0    1
 -2       631       735       736      3072      3076      3074
 -1      1360    8    0    1
 -2       633       632       737      2748      3077      3078
 -1      1361    8    0    1
 -2       632       736       737      3075      3079      3077
 -1      1362    8    0    1
 -2       634       633       738      2751      3080      3081
 -1      1363    8    0    1
 -2       633       737       738      3078      3082      3080
 -1      1364    8    0    1
 -2       635       634       739      2754      3083      3084
 -1      1365    8    0    1
 -2       634       738       739      3081      3085      3083
 -1      1366    8    0    1
 -2       636       635       740      2757      3086      3087
 -1      1367    8    0    1
 -2       635       739       740      3084      3088      3086
 -1      1368    8    0    1
 -2       637       636       741      2760      3089      3090
 -1      1369    8    0    1
 -2       636       740       741      3087      3091      3089
 -1      1370    8    0    1
 -2       638       637       742      2763      3092      3093
 -1      1371    8    0    1
 -2       637       741       742      3090      3094      3092
 -1      1372    8    0    1
 -2       639       638       743      2766      3095      3096
 -1      1373    8    0    1
 -2       638       742       743      3093      3097      3095
 -1      1374    8    0    1
 -2       640       639       744      2769      3098      3099
 -1      1375    8    0    1
 -2       639       743       744      3096      3100      3098
 -1      1376    8    0    1
 -2       641       640       745      2772      3101      3102
 -1      1377    8    0    1
 -2       640       744       745      3099      3103      3101
 -1      1378    8    0    1
 -2       642       641       746      2775      3104      3105
 -1      1379    8    0    1
 -2       641       745       746      3102      3106      3104
 -1      1380    8    0    1
 -2       643       642       747      2778      3107      3108
 -1      1381    8    0    1
 -2       642       746       747      3105      3109      3107
 -1      1382    8    0    1
 -2       644       643       748      2781      3110      3111
 -1      1383    8    0    1
 -2       643       747       748      3108      3112      3110
 -1      1384    8    0    1
 -2       645       644       749      2784      3113      3114
 -1      1385    8    0    1
 -2       644       748       749      3111      3115      3113
 -1      1386    8    0    1
 -2       646       645       750      2787      3116      3117
 -1      1387    8    0    1
 -2       645       749       750      3114      3118      3116
 -1      1388    8    0    1
 -2       647       646       751      2790      3119      3120
 -1      1389    8    0    1
 -2       708       647       751      2993      3120      3121
 -1      1390    8    0    1
 -2       646       750       751      3117      3122      3119
 -1      1391    8    0    1
 -2       689       690       752      2920      3123      3124
 -1      1392    8    0    1
 -2       576       523       595      2795      2989      2632
 -1      1393    8    0    1
 -2       653       654       753      2812      3125      3126
 -1      1394    8    0    1
 -2       653       753       709      3126      3127      2995
 -1      1395    8    0    1
 -2       654       655       754      2815      3128      3129
 -1      1396    8    0    1
 -2       654       754       753      3129      3130      3125
 -1      1397    8    0    1
 -2       655       656       755      2818      3131      3132
 -1      1398    8    0    1
 -2       655       755       754      3132      3133      3128
 -1      1399    8    0    1
 -2       656       657       756      2821      3134      3135
 -1      1400    8    0    1
 -2       656       756       755      3135      3136      3131
 -1      1401    8    0    1
 -2       657       658       757      2824      3137      3138
 -1      1402    8    0    1
 -2       657       757       756      3138      3139      3134
 -1      1403    8    0    1
 -2       658       659       758      2827      3140      3141
 -1      1404    8    0    1
 -2       658       758       757      3141      3142      3137
 -1      1405    8    0    1
 -2       659       660       759      2830      3143      3144
 -1      1406    8    0    1
 -2       659       759       758      3144      3145      3140
 -1      1407    8    0    1
 -2       660       661       760      2833      3146      3147
 -1      1408    8    0    1
 -2       660       760       759      3147      3148      3143
 -1      1409    8    0    1
 -2       661       662       761      2836      3149      3150
 -1      1410    8    0    1
 -2       661       761       760      3150      3151      3146
 -1      1411    8    0    1
 -2       662       663       762      2839      3152      3153
 -1      1412    8    0    1
 -2       662       762       761      3153      3154      3149
 -1      1413    8    0    1
 -2       663       664       763      2842      3155      3156
 -1      1414    8    0    1
 -2       663       763       762      3156      3157      3152
 -1      1415    8    0    1
 -2       664       665       764      2845      3158      3159
 -1      1416    8    0    1
 -2       664       764       763      3159      3160      3155
 -1      1417    8    0    1
 -2       665       666       765      2848      3161      3162
 -1      1418    8    0    1
 -2       665       765       764      3162      3163      3158
 -1      1419    8    0    1
 -2       666       667       766      2851      3164      3165
 -1      1420    8    0    1
 -2       666       766       765      3165      3166      3161
 -1      1421    8    0    1
 -2       667       668       767      2854      3167      3168
 -1      1422    8    0    1
 -2       667       767       766      3168      3169      3164
 -1      1423    8    0    1
 -2       668       669       768      2857      3170      3171
 -1      1424    8    0    1
 -2       668       768       767      3171      3172      3167
 -1      1425    8    0    1
 -2       669       670       769      2860      3173      3174
 -1      1426    8    0    1
 -2       669       769       768      3174      3175      3170
 -1      1427    8    0    1
 -2       670       671       770      2863      3176      3177
 -1      1428    8    0    1
 -2       670       770       769      3177      3178      3173
 -1      1429    8    0    1
 -2       671       672       771      2866      3179      3180
 -1      1430    8    0    1
 -2       671       771       770      3180      3181      3176
 -1      1431    8    0    1
 -2       672       673       772      2869      3182      3183
 -1      1432    8    0    1
 -2       672       772       771      3183      3184      3179
 -1      1433    8    0    1
 -2       673       674       773      2872      3185      3186
 -1      1434    8    0    1
 -2       673       773       772      3186      3187      3182
 -1      1435    8    0    1
 -2       674       675       774      2875      3188      3189
 -1      1436    8    0    1
 -2       674       774       773      3189      3190      3185
 -1      1437    8    0    1
 -2       675       676       775      2878      3191      3192
 -1      1438    8    0    1
 -2       675       775       774      3192      3193      3188
 -1      1439    8    0    1
 -2       676       677       776      2881      3194      3195
 -1      1440    8    0    1
 -2       676       776       775      3195      3196      3191
 -1      1441    8    0    1
 -2       677       678       777      2884      3197      3198
 -1      1442    8    0    1
 -2       677       777       776      3198      3199      3194
 -1      1443    8    0    1
 -2       678       679       778      2887      3200      3201
 -1      1444    8    0    1
 -2       678       778       777      3201      3202      3197
 -1      1445    8    0    1
 -2       679       680       779      2890      3203      3204
 -1      1446    8    0    1
 -2       679       779       778      3204      3205      3200
 -1      1447    8    0    1
 -2       680       681       780      2893      3206      3207
 -1      1448    8    0    1
 -2       680       780       779      3207      3208      3203
 -1      1449    8    0    1
 -2       681       682       781      2896      3209      3210
 -1      1450    8    0    1
 -2       681       781       780      3210      3211      3206
 -1      1451    8    0    1
 -2       682       683       782      2899      3212      3213
 -1      1452    8    0    1
 -2       682       782       781      3213      3214      3209
 -1      1453    8    0    1
 -2       683       684       783      2902      3215      3216
 -1      1454    8    0    1
 -2       683       783       782      3216      3217      3212
 -1      1455    8    0    1
 -2       684       685       784      2905      3218      3219
 -1      1456    8    0    1
 -2       684       784       783      3219      3220      3215
 -1      1457    8    0    1
 -2       690       691       785      2923      3221      3222
 -1      1458    8    0    1
 -2       690       785       752      3222      3223      3123
 -1      1459    8    0    1
 -2       648       689       786      2917      3224      3225
 -1      1460    8    0    1
 -2       689       752       786      3124      3226      3224
 -1      1461    8    0    1
 -2       691       692       787      2926      3227      3228
 -1      1462    8    0    1
 -2       691       787       785      3228      3229      3221
 -1      1463    8    0    1
 -2       687       700       788      2967      3230      3231
 -1      1464    8    0    1
 -2       602       650       789      2965      3232      3233
 -1      1465    8    0    1
 -2       650       706       789      2978      3234      3232
 -1      1466    8    0    1
 -2       695       604       790      2960      3235      3236
 -1      1467    8    0    1
 -2       605       567       705      2954      2973      3237
 -1      1468    8    0    1
 -2       603       697       791      2938      3238      3239
 -1      1469    8    0    1
 -2       697       596       791      2987      3240      3238
 -1      1470    8    0    1
 -2       597       606       792      2968      3241      3242
 -1      1471    8    0    1
 -2       696       694       793      2981      3243      3244
 -1      1472    8    0    1
 -2       467       328       699      2200      2945      2994
 -1      1473    8    0    1
 -2       607       602       794      2670      3245      3246
 -1      1474    8    0    1
 -2       712       607       794      3003      3246      3247
 -1      1475    8    0    1
 -2       602       789       794      3233      3248      3245
 -1      1476    8    0    1
 -2       694       693       795      2966      3249      3250
 -1      1477    8    0    1
 -2       694       795       793      3250      3251      3243
 -1      1478    8    0    1
 -2       601       600       796      2656      3252      3253
 -1      1479    8    0    1
 -2       600       710       796      2998      3254      3252
 -1      1480    8    0    1
 -2       700       696       797      2988      3255      3256
 -1      1481    8    0    1
 -2       700       797       798      3256      3257      3258
 -1      1482    8    0    1
 -2       700       798       788      3258      3259      3230
 -1      1483    8    0    1
 -2       795       693       799      3249      3260      3261
 -1      1484    8    0    1
 -2       693       704       799      2971      3262      3260
 -1      1485    8    0    1
 -2       711       687       788      3001      3231      3263
 -1      1486    8    0    1
 -2       692       708       800      2992      3264      3265
 -1      1487    8    0    1
 -2       787       692       800      3227      3265      3266
 -1      1488    8    0    1
 -2       708       751       800      3121      3267      3264
 -1      1489    8    0    1
 -2       601       796       703      3253      3268      3269
 -1      1490    8    0    1
 -2       604       711       790      3002      3270      3235
 -1      1491    8    0    1
 -2       784       685       801      3218      3271      3272
 -1      1492    8    0    1
 -2       685       686       801      2908      3273      3271
 -1      1493    8    0    1
 -2       686       605       802      2909      3274      3275
 -1      1494    8    0    1
 -2       801       686       802      3273      3275      3276
 -1      1495    8    0    1
 -2       605       705       802      3237      3277      3274
 -1      1496    8    0    1
 -2       705       688       803      2974      3278      3279
 -1      1497    8    0    1
 -2       705       803       802      3279      3280      3277
 -1      1498    8    0    1
 -2       702       603       791      2957      3239      3281
 -1      1499    8    0    1
 -2       707       695       804      2982      3282      3283
 -1      1500    8    0    1
 -2       695       790       804      3236      3284      3282
 -1      1501    8    0    1
 -2       791       596       707      3240      2984      3285
 -1      1502    8    0    1
 -2       792       606       805      3241      3286      3287
 -1      1503    8    0    1
 -2       606       703       805      2962      3288      3286
 -1      1504    8    0    1
 -2       696       793       797      3244      3289      3255
 -1      1505    8    0    1
 -2       648       786       806      3225      3290      3291
 -1      1506    8    0    1
 -2       648       806       701      3291      3292      2953
 -1      1507    8    0    1
 -2       704       597       792      2969      3242      3293
 -1      1508    8    0    1
 -2       651       601       703      2803      3269      3294
 -1      1509    8    0    1
 -2       688       701       807      2952      3295      3296
 -1      1510    8    0    1
 -2       803       688       807      3278      3296      3297
 -1      1511    8    0    1
 -2       701       806       807      3292      3298      3295
 -1      1512    8    0    1
 -2       703       599       651      2963      3000      3294
 -1      1513    8    0    1
 -2       785       787       808      3229      3299      3300
 -1      1514    8    0    1
 -2       714       713       809      3010      3301      3302
 -1      1515    8    0    1
 -2       715       714       810      3013      3303      3304
 -1      1516    8    0    1
 -2       714       809       810      3302      3305      3303
 -1      1517    8    0    1
 -2       716       715       811      3016      3306      3307
 -1      1518    8    0    1
 -2       715       810       811      3304      3308      3306
 -1      1519    8    0    1
 -2       717       716       812      3019      3309      3310
 -1      1520    8    0    1
 -2       716       811       812      3307      3311      3309
 -1      1521    8    0    1
 -2       718       717       813      3022      3312      3313
 -1      1522    8    0    1
 -2       717       812       813      3310      3314      3312
 -1      1523    8    0    1
 -2       719       718       814      3025      3315      3316
 -1      1524    8    0    1
 -2       718       813       814      3313      3317      3315
 -1      1525    8    0    1
 -2       720       719       815      3028      3318      3319
 -1      1526    8    0    1
 -2       719       814       815      3316      3320      3318
 -1      1527    8    0    1
 -2       721       720       816      3031      3321      3322
 -1      1528    8    0    1
 -2       720       815       816      3319      3323      3321
 -1      1529    8    0    1
 -2       722       721       817      3034      3324      3325
 -1      1530    8    0    1
 -2       721       816       817      3322      3326      3324
 -1      1531    8    0    1
 -2       723       722       818      3037      3327      3328
 -1      1532    8    0    1
 -2       722       817       818      3325      3329      3327
 -1      1533    8    0    1
 -2       724       723       819      3040      3330      3331
 -1      1534    8    0    1
 -2       723       818       819      3328      3332      3330
 -1      1535    8    0    1
 -2       725       724       820      3043      3333      3334
 -1      1536    8    0    1
 -2       724       819       820      3331      3335      3333
 -1      1537    8    0    1
 -2       726       725       821      3046      3336      3337
 -1      1538    8    0    1
 -2       725       820       821      3334      3338      3336
 -1      1539    8    0    1
 -2       727       726       822      3049      3339      3340
 -1      1540    8    0    1
 -2       726       821       822      3337      3341      3339
 -1      1541    8    0    1
 -2       728       727       823      3052      3342      3343
 -1      1542    8    0    1
 -2       727       822       823      3340      3344      3342
 -1      1543    8    0    1
 -2       729       728       824      3055      3345      3346
 -1      1544    8    0    1
 -2       728       823       824      3343      3347      3345
 -1      1545    8    0    1
 -2       730       729       825      3058      3348      3349
 -1      1546    8    0    1
 -2       729       824       825      3346      3350      3348
 -1      1547    8    0    1
 -2       731       730       826      3061      3351      3352
 -1      1548    8    0    1
 -2       730       825       826      3349      3353      3351
 -1      1549    8    0    1
 -2       732       731       827      3064      3354      3355
 -1      1550    8    0    1
 -2       731       826       827      3352      3356      3354
 -1      1551    8    0    1
 -2       733       732       828      3067      3357      3358
 -1      1552    8    0    1
 -2       732       827       828      3355      3359      3357
 -1      1553    8    0    1
 -2       734       733       829      3070      3360      3361
 -1      1554    8    0    1
 -2       733       828       829      3358      3362      3360
 -1      1555    8    0    1
 -2       735       734       830      3073      3363      3364
 -1      1556    8    0    1
 -2       734       829       830      3361      3365      3363
 -1      1557    8    0    1
 -2       736       735       831      3076      3366      3367
 -1      1558    8    0    1
 -2       735       830       831      3364      3368      3366
 -1      1559    8    0    1
 -2       737       736       832      3079      3369      3370
 -1      1560    8    0    1
 -2       736       831       832      3367      3371      3369
 -1      1561    8    0    1
 -2       738       737       833      3082      3372      3373
 -1      1562    8    0    1
 -2       737       832       833      3370      3374      3372
 -1      1563    8    0    1
 -2       739       738       834      3085      3375      3376
 -1      1564    8    0    1
 -2       738       833       834      3373      3377      3375
 -1      1565    8    0    1
 -2       740       739       835      3088      3378      3379
 -1      1566    8    0    1
 -2       739       834       835      3376      3380      3378
 -1      1567    8    0    1
 -2       741       740       836      3091      3381      3382
 -1      1568    8    0    1
 -2       740       835       836      3379      3383      3381
 -1      1569    8    0    1
 -2       742       741       837      3094      3384      3385
 -1      1570    8    0    1
 -2       741       836       837      3382      3386      3384
 -1      1571    8    0    1
 -2       743       742       838      3097      3387      3388
 -1      1572    8    0    1
 -2       742       837       838      3385      3389      3387
 -1      1573    8    0    1
 -2       744       743       839      3100      3390      3391
 -1      1574    8    0    1
 -2       743       838       839      3388      3392      3390
 -1      1575    8    0    1
 -2       745       744       840      3103      3393      3394
 -1      1576    8    0    1
 -2       744       839       840      3391      3395      3393
 -1      1577    8    0    1
 -2       746       745       841      3106      3396      3397
 -1      1578    8    0    1
 -2       745       840       841      3394      3398      3396
 -1      1579    8    0    1
 -2       747       746       842      3109      3399      3400
 -1      1580    8    0    1
 -2       746       841       842      3397      3401      3399
 -1      1581    8    0    1
 -2       748       747       843      3112      3402      3403
 -1      1582    8    0    1
 -2       747       842       843      3400      3404      3402
 -1      1583    8    0    1
 -2       749       748       844      3115      3405      3406
 -1      1584    8    0    1
 -2       748       843       844      3403      3407      3405
 -1      1585    8    0    1
 -2       750       749       845      3118      3408      3409
 -1      1586    8    0    1
 -2       749       844       845      3406      3410      3408
 -1      1587    8    0    1
 -2       790       711       846      3270      3411      3412
 -1      1588    8    0    1
 -2       789       706       847      3234      3413      3414
 -1      1589    8    0    1
 -2       706       702       847      2979      3415      3413
 -1      1590    8    0    1
 -2       755       756       848      3136      3416      3417
 -1      1591    8    0    1
 -2       756       757       849      3139      3418      3419
 -1      1592    8    0    1
 -2       756       849       848      3419      3420      3416
 -1      1593    8    0    1
 -2       757       758       850      3142      3421      3422
 -1      1594    8    0    1
 -2       757       850       849      3422      3423      3418
 -1      1595    8    0    1
 -2       758       759       851      3145      3424      3425
 -1      1596    8    0    1
 -2       758       851       850      3425      3426      3421
 -1      1597    8    0    1
 -2       759       760       852      3148      3427      3428
 -1      1598    8    0    1
 -2       759       852       851      3428      3429      3424
 -1      1599    8    0    1
 -2       760       761       853      3151      3430      3431
 -1      1600    8    0    1
 -2       760       853       852      3431      3432      3427
 -1      1601    8    0    1
 -2       761       762       854      3154      3433      3434
 -1      1602    8    0    1
 -2       761       854       853      3434      3435      3430
 -1      1603    8    0    1
 -2       762       763       855      3157      3436      3437
 -1      1604    8    0    1
 -2       762       855       854      3437      3438      3433
 -1      1605    8    0    1
 -2       763       764       856      3160      3439      3440
 -1      1606    8    0    1
 -2       763       856       855      3440      3441      3436
 -1      1607    8    0    1
 -2       764       765       857      3163      3442      3443
 -1      1608    8    0    1
 -2       764       857       856      3443      3444      3439
 -1      1609    8    0    1
 -2       765       766       858      3166      3445      3446
 -1      1610    8    0    1
 -2       765       858       857      3446      3447      3442
 -1      1611    8    0    1
 -2       766       767       859      3169      3448      3449
 -1      1612    8    0    1
 -2       766       859       858      3449      3450      3445
 -1      1613    8    0    1
 -2       767       768       860      3172      3451      3452
 -1      1614    8    0    1
 -2       767       860       859      3452      3453      3448
 -1      1615    8    0    1
 -2       768       769       861      3175      3454      3455
 -1      1616    8    0    1
 -2       768       861       860      3455      3456      3451
 -1      1617    8    0    1
 -2       769       770       862      3178      3457      3458
 -1      1618    8    0    1
 -2       769       862       861      3458      3459      3454
 -1      1619    8    0    1
 -2       770       771       863      3181      3460      3461
 -1      1620    8    0    1
 -2       770       863       862      3461      3462      3457
 -1      1621    8    0    1
 -2       771       772       864      3184      3463      3464
 -1      1622    8    0    1
 -2       771       864       863      3464      3465      3460
 -1      1623    8    0    1
 -2       772       773       865      3187      3466      3467
 -1      1624    8    0    1
 -2       772       865       864      3467      3468      3463
 -1      1625    8    0    1
 -2       773       774       866      3190      3469      3470
 -1      1626    8    0    1
 -2       773       866       865      3470      3471      3466
 -1      1627    8    0    1
 -2       774       775       867      3193      3472      3473
 -1      1628    8    0    1
 -2       774       867       866      3473      3474      3469
 -1      1629    8    0    1
 -2       775       776       868      3196      3475      3476
 -1      1630    8    0    1
 -2       775       868       867      3476      3477      3472
 -1      1631    8    0    1
 -2       776       777       869      3199      3478      3479
 -1      1632    8    0    1
 -2       776       869       868      3479      3480      3475
 -1      1633    8    0    1
 -2       777       778       870      3202      3481      3482
 -1      1634    8    0    1
 -2       777       870       869      3482      3483      3478
 -1      1635    8    0    1
 -2       778       779       871      3205      3484      3485
 -1      1636    8    0    1
 -2       778       871       870      3485      3486      3481
 -1      1637    8    0    1
 -2       779       780       872      3208      3487      3488
 -1      1638    8    0    1
 -2       779       872       871      3488      3489      3484
 -1      1639    8    0    1
 -2       780       781       873      3211      3490      3491
 -1      1640    8    0    1
 -2       780       873       872      3491      3492      3487
 -1      1641    8    0    1
 -2       781       782       874      3214      3493      3494
 -1      1642    8    0    1
 -2       781       874       873      3494      3495      3490
 -1      1643    8    0    1
 -2       782       783       875      3217      3496      3497
 -1      1644    8    0    1
 -2       782       875       874      3497      3498      3493
 -1      1645    8    0    1
 -2       783       784       876      3220      3499      3500
 -1      1646    8    0    1
 -2       783       876       875      3500      3501      3496
 -1      1647    8    0    1
 -2       752       785       877      3223      3502      3503
 -1      1648    8    0    1
 -2       785       808       877      3300      3504      3502
 -1      1649    8    0    1
 -2       702       791       847      3281      3505      3415
 -1      1650    8    0    1
 -2       786       752       878      3226      3506      3507
 -1      1651    8    0    1
 -2       752       877       878      3503      3508      3506
 -1      1652    8    0    1
 -2       793       795       879      3251      3509      3510
 -1      1653    8    0    1
 -2       710       709       880      2999      3511      3512
 -1      1654    8    0    1
 -2       797       793       881      3289      3513      3514
 -1      1655    8    0    1
 -2       793       879       881      3510      3515      3513
 -1      1656    8    0    1
 -2       796       710       882      3254      3516      3517
 -1      1657    8    0    1
 -2       710       880       882      3512      3518      3516
 -1      1658    8    0    1
 -2       754       755       883      3133      3519      3520
 -1      1659    8    0    1
 -2       755       848       883      3417      3521      3519
 -1      1660    8    0    1
 -2       713       712       846      3007      3522      3523
 -1      1661    8    0    1
 -2       711       788       884      3263      3524      3525
 -1      1662    8    0    1
 -2       711       884       846      3525      3526      3411
 -1      1663    8    0    1
 -2       791       707       847      3285      3527      3505
 -1      1664    8    0    1
 -2       709       753       885      3127      3528      3529
 -1      1665    8    0    1
 -2       709       885       880      3529      3530      3511
 -1      1666    8    0    1
 -2       753       754       886      3130      3531      3532
 -1      1667    8    0    1
 -2       754       883       886      3520      3533      3531
 -1      1668    8    0    1
 -2       704       792       887      3293      3534      3535
 -1      1669    8    0    1
 -2       799       704       887      3262      3535      3536
 -1      1670    8    0    1
 -2       712       794       804      3247      3537      3538
 -1      1671    8    0    1
 -2       809       713       846      3301      3523      3539
 -1      1672    8    0    1
 -2       803       807       888      3297      3540      3541
 -1      1673    8    0    1
 -2       847       707       804      3527      3283      3542
 -1      1674    8    0    1
 -2       751       750       889      3122      3543      3544
 -1      1675    8    0    1
 -2       800       751       889      3267      3544      3545
 -1      1676    8    0    1
 -2       750       845       889      3409      3546      3543
 -1      1677    8    0    1
 -2       786       878       890      3507      3547      3548
 -1      1678    8    0    1
 -2       786       890       806      3548      3549      3290
 -1      1679    8    0    1
 -2       753       886       885      3532      3550      3528
 -1      1680    8    0    1
 -2       787       800       889      3266      3545      3551
 -1      1681    8    0    1
 -2       879       795       891      3509      3552      3553
 -1      1682    8    0    1
 -2       795       799       891      3261      3554      3552
 -1      1683    8    0    1
 -2       703       796       805      3268      3555      3288
 -1      1684    8    0    1
 -2       805       796       882      3555      3517      3556
 -1      1685    8    0    1
 -2       797       881       892      3514      3557      3558
 -1      1686    8    0    1
 -2       797       892       798      3558      3559      3257
 -1      1687    8    0    1
 -2       784       801       893      3272      3560      3561
 -1      1688    8    0    1
 -2       876       784       893      3499      3561      3562
 -1      1689    8    0    1
 -2       801       802       893      3276      3563      3560
 -1      1690    8    0    1
 -2       802       803       893      3280      3564      3563
 -1      1691    8    0    1
 -2       884       788       894      3524      3565      3566
 -1      1692    8    0    1
 -2       788       798       894      3259      3567      3565
 -1      1693    8    0    1
 -2       808       787       889      3299      3551      3568
 -1      1694    8    0    1
 -2       893       803       888      3564      3541      3569
 -1      1695    8    0    1
 -2       809       846       884      3539      3526      3570
 -1      1696    8    0    1
 -2       888       807       895      3540      3571      3572
 -1      1697    8    0    1
 -2       807       806       895      3298      3573      3571
 -1      1698    8    0    1
 -2       790       846       896      3412      3574      3575
 -1      1699    8    0    1
 -2       811       810       897      3308      3576      3577
 -1      1700    8    0    1
 -2       812       811       898      3311      3578      3579
 -1      1701    8    0    1
 -2       811       897       898      3577      3580      3578
 -1      1702    8    0    1
 -2       813       812       899      3314      3581      3582
 -1      1703    8    0    1
 -2       812       898       899      3579      3583      3581
 -1      1704    8    0    1
 -2       814       813       900      3317      3584      3585
 -1      1705    8    0    1
 -2       813       899       900      3582      3586      3584
 -1      1706    8    0    1
 -2       815       814       901      3320      3587      3588
 -1      1707    8    0    1
 -2       814       900       901      3585      3589      3587
 -1      1708    8    0    1
 -2       816       815       902      3323      3590      3591
 -1      1709    8    0    1
 -2       815       901       902      3588      3592      3590
 -1      1710    8    0    1
 -2       817       816       903      3326      3593      3594
 -1      1711    8    0    1
 -2       816       902       903      3591      3595      3593
 -1      1712    8    0    1
 -2       818       817       904      3329      3596      3597
 -1      1713    8    0    1
 -2       817       903       904      3594      3598      3596
 -1      1714    8    0    1
 -2       819       818       905      3332      3599      3600
 -1      1715    8    0    1
 -2       818       904       905      3597      3601      3599
 -1      1716    8    0    1
 -2       820       819       906      3335      3602      3603
 -1      1717    8    0    1
 -2       819       905       906      3600      3604      3602
 -1      1718    8    0    1
 -2       821       820       907      3338      3605      3606
 -1      1719    8    0    1
 -2       820       906       907      3603      3607      3605
 -1      1720    8    0    1
 -2       822       821       908      3341      3608      3609
 -1      1721    8    0    1
 -2       821       907       908      3606      3610      3608
 -1      1722    8    0    1
 -2       823       822       909      3344      3611      3612
 -1      1723    8    0    1
 -2       822       908       909      3609      3613      3611
 -1      1724    8    0    1
 -2       824       823       910      3347      3614      3615
 -1      1725    8    0    1
 -2       823       909       910      3612      3616      3614
 -1      1726    8    0    1
 -2       825       824       911      3350      3617      3618
 -1      1727    8    0    1
 -2       824       910       911      3615      3619      3617
 -1      1728    8    0    1
 -2       826       825       912      3353      3620      3621
 -1      1729    8    0    1
 -2       825       911       912      3618      3622      3620
 -1      1730    8    0    1
 -2       827       826       913      3356      3623      3624
 -1      1731    8    0    1
 -2       826       912       913      3621      3625      3623
 -1      1732    8    0    1
 -2       828       827       914      3359      3626      3627
 -1      1733    8    0    1
 -2       827       913       914      3624      3628      3626
 -1      1734    8    0    1
 -2       829       828       915      3362      3629      3630
 -1      1735    8    0    1
 -2       828       914       915      3627      3631      3629
 -1      1736    8    0    1
 -2       830       829       916      3365      3632      3633
 -1      1737    8    0    1
 -2       829       915       916      3630      3634      3632
 -1      1738    8    0    1
 -2       831       830       917      3368      3635      3636
 -1      1739    8    0    1
 -2       830       916       917      3633      3637      3635
 -1      1740    8    0    1
 -2       832       831       918      3371      3638      3639
 -1      1741    8    0    1
 -2       831       917       918      3636      3640      3638
 -1      1742    8    0    1
 -2       833       832       919      3374      3641      3642
 -1      1743    8    0    1
 -2       832       918       919      3639      3643      3641
 -1      1744    8    0    1
 -2       834       833       920      3377      3644      3645
 -1      1745    8    0    1
 -2       833       919       920      3642      3646      3644
 -1      1746    8    0    1
 -2       835       834       921      3380      3647      3648
 -1      1747    8    0    1
 -2       834       920       921      3645      3649      3647
 -1      1748    8    0    1
 -2       836       835       922      3383      3650      3651
 -1      1749    8    0    1
 -2       835       921       922      3648      3652      3650
 -1      1750    8    0    1
 -2       837       836       923      3386      3653      3654
 -1      1751    8    0    1
 -2       836       922       923      3651      3655      3653
 -1      1752    8    0    1
 -2       838       837       924      3389      3656      3657
 -1      1753    8    0    1
 -2       837       923       924      3654      3658      3656
 -1      1754    8    0    1
 -2       839       838       925      3392      3659      3660
 -1      1755    8    0    1
 -2       838       924       925      3657      3661      3659
 -1      1756    8    0    1
 -2       840       839       926      3395      3662      3663
 -1      1757    8    0    1
 -2       839       925       926      3660      3664      3662
 -1      1758    8    0    1
 -2       841       840       927      3398      3665      3666
 -1      1759    8    0    1
 -2       840       926       927      3663      3667      3665
 -1      1760    8    0    1
 -2       842       841       928      3401      3668      3669
 -1      1761    8    0    1
 -2       841       927       928      3666      3670      3668
 -1      1762    8    0    1
 -2       843       842       929      3404      3671      3672
 -1      1763    8    0    1
 -2       842       928       929      3669      3673      3671
 -1      1764    8    0    1
 -2       844       843       930      3407      3674      3675
 -1      1765    8    0    1
 -2       843       929       930      3672      3676      3674
 -1      1766    8    0    1
 -2       845       844       931      3410      3677      3678
 -1      1767    8    0    1
 -2       844       930       931      3675      3679      3677
 -1      1768    8    0    1
 -2       889       845       808      3546      3680      3568
 -1      1769    8    0    1
 -2       789       847       804      3414      3542      3681
 -1      1770    8    0    1
 -2       849       850       932      3423      3682      3683
 -1      1771    8    0    1
 -2       848       849       933      3420      3684      3685
 -1      1772    8    0    1
 -2       849       932       933      3683      3686      3684
 -1      1773    8    0    1
 -2       851       852       934      3429      3687      3688
 -1      1774    8    0    1
 -2       852       853       935      3432      3689      3690
 -1      1775    8    0    1
 -2       852       935       934      3690      3691      3687
 -1      1776    8    0    1
 -2       853       854       936      3435      3692      3693
 -1      1777    8    0    1
 -2       853       936       935      3693      3694      3689
 -1      1778    8    0    1
 -2       854       855       937      3438      3695      3696
 -1      1779    8    0    1
 -2       854       937       936      3696      3697      3692
 -1      1780    8    0    1
 -2       855       856       938      3441      3698      3699
 -1      1781    8    0    1
 -2       855       938       937      3699      3700      3695
 -1      1782    8    0    1
 -2       856       857       939      3444      3701      3702
 -1      1783    8    0    1
 -2       856       939       938      3702      3703      3698
 -1      1784    8    0    1
 -2       857       858       940      3447      3704      3705
 -1      1785    8    0    1
 -2       857       940       939      3705      3706      3701
 -1      1786    8    0    1
 -2       858       859       941      3450      3707      3708
 -1      1787    8    0    1
 -2       858       941       940      3708      3709      3704
 -1      1788    8    0    1
 -2       859       860       942      3453      3710      3711
 -1      1789    8    0    1
 -2       859       942       941      3711      3712      3707
 -1      1790    8    0    1
 -2       860       861       943      3456      3713      3714
 -1      1791    8    0    1
 -2       860       943       942      3714      3715      3710
 -1      1792    8    0    1
 -2       861       862       944      3459      3716      3717
 -1      1793    8    0    1
 -2       861       944       943      3717      3718      3713
 -1      1794    8    0    1
 -2       862       863       945      3462      3719      3720
 -1      1795    8    0    1
 -2       862       945       944      3720      3721      3716
 -1      1796    8    0    1
 -2       863       864       946      3465      3722      3723
 -1      1797    8    0    1
 -2       863       946       945      3723      3724      3719
 -1      1798    8    0    1
 -2       864       865       947      3468      3725      3726
 -1      1799    8    0    1
 -2       864       947       946      3726      3727      3722
 -1      1800    8    0    1
 -2       865       866       948      3471      3728      3729
 -1      1801    8    0    1
 -2       865       948       947      3729      3730      3725
 -1      1802    8    0    1
 -2       866       867       949      3474      3731      3732
 -1      1803    8    0    1
 -2       866       949       948      3732      3733      3728
 -1      1804    8    0    1
 -2       867       868       950      3477      3734      3735
 -1      1805    8    0    1
 -2       867       950       949      3735      3736      3731
 -1      1806    8    0    1
 -2       868       869       951      3480      3737      3738
 -1      1807    8    0    1
 -2       868       951       950      3738      3739      3734
 -1      1808    8    0    1
 -2       869       870       952      3483      3740      3741
 -1      1809    8    0    1
 -2       869       952       951      3741      3742      3737
 -1      1810    8    0    1
 -2       870       871       953      3486      3743      3744
 -1      1811    8    0    1
 -2       870       953       952      3744      3745      3740
 -1      1812    8    0    1
 -2       871       872       954      3489      3746      3747
 -1      1813    8    0    1
 -2       871       954       953      3747      3748      3743
 -1      1814    8    0    1
 -2       872       873       955      3492      3749      3750
 -1      1815    8    0    1
 -2       872       955       954      3750      3751      3746
 -1      1816    8    0    1
 -2       873       874       956      3495      3752      3753
 -1      1817    8    0    1
 -2       873       956       955      3753      3754      3749
 -1      1818    8    0    1
 -2       874       875       957      3498      3755      3756
 -1      1819    8    0    1
 -2       874       957       956      3756      3757      3752
 -1      1820    8    0    1
 -2       875       876       958      3501      3758      3759
 -1      1821    8    0    1
 -2       875       958       957      3759      3760      3755
 -1      1822    8    0    1
 -2       878       877       959      3508      3761      3762
 -1      1823    8    0    1
 -2       804       790       896      3284      3575      3763
 -1      1824    8    0    1
 -2       809       884       894      3570      3566      3764
 -1      1825    8    0    1
 -2       885       886       960      3550      3765      3766
 -1      1826    8    0    1
 -2       882       880       961      3518      3767      3768
 -1      1827    8    0    1
 -2       876       893       962      3562      3769      3770
 -1      1828    8    0    1
 -2       958       876       962      3758      3770      3771
 -1      1829    8    0    1
 -2       893       888       962      3569      3772      3769
 -1      1830    8    0    1
 -2       881       879       963      3515      3773      3774
 -1      1831    8    0    1
 -2       883       848       964      3521      3775      3776
 -1      1832    8    0    1
 -2       848       933       964      3685      3777      3775
 -1      1833    8    0    1
 -2       794       789       804      3248      3681      3537
 -1      1834    8    0    1
 -2       850       851       965      3426      3778      3779
 -1      1835    8    0    1
 -2       851       934       965      3688      3780      3778
 -1      1836    8    0    1
 -2       880       885       966      3530      3781      3782
 -1      1837    8    0    1
 -2       885       960       966      3766      3783      3781
 -1      1838    8    0    1
 -2       886       883       967      3533      3784      3785
 -1      1839    8    0    1
 -2       960       886       967      3765      3785      3786
 -1      1840    8    0    1
 -2       883       964       967      3776      3787      3784
 -1      1841    8    0    1
 -2       887       792       968      3534      3788      3789
 -1      1842    8    0    1
 -2       810       809       894      3305      3764      3790
 -1      1843    8    0    1
 -2       799       887       969      3536      3791      3792
 -1      1844    8    0    1
 -2       808       845       931      3680      3678      3793
 -1      1845    8    0    1
 -2       887       968       970      3789      3794      3795
 -1      1846    8    0    1
 -2       887       970       969      3795      3796      3791
 -1      1847    8    0    1
 -2       850       965       932      3779      3797      3682
 -1      1848    8    0    1
 -2       890       878       971      3547      3798      3799
 -1      1849    8    0    1
 -2       878       959       971      3762      3800      3798
 -1      1850    8    0    1
 -2       895       806       890      3573      3549      3801
 -1      1851    8    0    1
 -2       880       966       961      3782      3802      3767
 -1      1852    8    0    1
 -2       963       879       972      3773      3803      3804
 -1      1853    8    0    1
 -2       879       891       972      3553      3805      3803
 -1      1854    8    0    1
 -2       798       892       894      3559      3806      3567
 -1      1855    8    0    1
 -2       877       808       931      3504      3793      3807
 -1      1856    8    0    1
 -2       891       799       969      3554      3792      3808
 -1      1857    8    0    1
 -2       897       810       894      3576      3790      3809
 -1      1858    8    0    1
 -2       892       881       973      3557      3810      3811
 -1      1859    8    0    1
 -2       881       963       973      3774      3812      3810
 -1      1860    8    0    1
 -2       968       792       805      3788      3287      3813
 -1      1861    8    0    1
 -2       877       931       959      3807      3814      3761
 -1      1862    8    0    1
 -2       882       961       970      3768      3815      3816
 -1      1863    8    0    1
 -2       962       888       974      3772      3817      3818
 -1      1864    8    0    1
 -2       888       895       974      3572      3819      3817
 -1      1865    8    0    1
 -2       961       966       975      3802      3820      3821
 -1      1866    8    0    1
 -2       899       898       976      3583      3822      3823
 -1      1867    8    0    1
 -2       900       899       977      3586      3824      3825
 -1      1868    8    0    1
 -2       899       976       977      3823      3826      3824
 -1      1869    8    0    1
 -2       901       900       978      3589      3827      3828
 -1      1870    8    0    1
 -2       900       977       978      3825      3829      3827
 -1      1871    8    0    1
 -2       902       901       979      3592      3830      3831
 -1      1872    8    0    1
 -2       901       978       979      3828      3832      3830
 -1      1873    8    0    1
 -2       903       902       980      3595      3833      3834
 -1      1874    8    0    1
 -2       902       979       980      3831      3835      3833
 -1      1875    8    0    1
 -2       904       903       981      3598      3836      3837
 -1      1876    8    0    1
 -2       903       980       981      3834      3838      3836
 -1      1877    8    0    1
 -2       905       904       982      3601      3839      3840
 -1      1878    8    0    1
 -2       904       981       982      3837      3841      3839
 -1      1879    8    0    1
 -2       906       905       983      3604      3842      3843
 -1      1880    8    0    1
 -2       905       982       983      3840      3844      3842
 -1      1881    8    0    1
 -2       907       906       984      3607      3845      3846
 -1      1882    8    0    1
 -2       906       983       984      3843      3847      3845
 -1      1883    8    0    1
 -2       908       907       985      3610      3848      3849
 -1      1884    8    0    1
 -2       907       984       985      3846      3850      3848
 -1      1885    8    0    1
 -2       909       908       986      3613      3851      3852
 -1      1886    8    0    1
 -2       908       985       986      3849      3853      3851
 -1      1887    8    0    1
 -2       910       909       987      3616      3854      3855
 -1      1888    8    0    1
 -2       909       986       987      3852      3856      3854
 -1      1889    8    0    1
 -2       911       910       988      3619      3857      3858
 -1      1890    8    0    1
 -2       910       987       988      3855      3859      3857
 -1      1891    8    0    1
 -2       912       911       989      3622      3860      3861
 -1      1892    8    0    1
 -2       911       988       989      3858      3862      3860
 -1      1893    8    0    1
 -2       913       912       990      3625      3863      3864
 -1      1894    8    0    1
 -2       912       989       990      3861      3865      3863
 -1      1895    8    0    1
 -2       914       913       991      3628      3866      3867
 -1      1896    8    0    1
 -2       913       990       991      3864      3868      3866
 -1      1897    8    0    1
 -2       915       914       992      3631      3869      3870
 -1      1898    8    0    1
 -2       914       991       992      3867      3871      3869
 -1      1899    8    0    1
 -2       916       915       993      3634      3872      3873
 -1      1900    8    0    1
 -2       915       992       993      3870      3874      3872
 -1      1901    8    0    1
 -2       917       916       994      3637      3875      3876
 -1      1902    8    0    1
 -2       916       993       994      3873      3877      3875
 -1      1903    8    0    1
 -2       918       917       995      3640      3878      3879
 -1      1904    8    0    1
 -2       917       994       995      3876      3880      3878
 -1      1905    8    0    1
 -2       919       918       996      3643      3881      3882
 -1      1906    8    0    1
 -2       918       995       996      3879      3883      3881
 -1      1907    8    0    1
 -2       920       919       997      3646      3884      3885
 -1      1908    8    0    1
 -2       919       996       997      3882      3886      3884
 -1      1909    8    0    1
 -2       921       920       998      3649      3887      3888
 -1      1910    8    0    1
 -2       920       997       998      3885      3889      3887
 -1      1911    8    0    1
 -2       922       921       999      3652      3890      3891
 -1      1912    8    0    1
 -2       921       998       999      3888      3892      3890
 -1      1913    8    0    1
 -2       923       922      1000      3655      3893      3894
 -1      1914    8    0    1
 -2       922       999      1000      3891      3895      3893
 -1      1915    8    0    1
 -2       924       923      1001      3658      3896      3897
 -1      1916    8    0    1
 -2       923      1000      1001      3894      3898      3896
 -1      1917    8    0    1
 -2       925       924      1002      3661      3899      3900
 -1      1918    8    0    1
 -2       924      1001      1002      3897      3901      3899
 -1      1919    8    0    1
 -2       926       925      1003      3664      3902      3903
 -1      1920    8    0    1
 -2       925      1002      1003      3900      3904      3902
 -1      1921    8    0    1
 -2       927       926      1004      3667      3905      3906
 -1      1922    8    0    1
 -2       926      1003      1004      3903      3907      3905
 -1      1923    8    0    1
 -2       928       927      1005      3670      3908      3909
 -1      1924    8    0    1
 -2       927      1004      1005      3906      3910      3908
 -1      1925    8    0    1
 -2       929       928      1006      3673      3911      3912
 -1      1926    8    0    1
 -2       928      1005      1006      3909      3913      3911
 -1      1927    8    0    1
 -2       930       929      1007      3676      3914      3915
 -1      1928    8    0    1
 -2       929      1006      1007      3912      3916      3914
 -1      1929    8    0    1
 -2       931       930      1008      3679      3917      3918
 -1      1930    8    0    1
 -2       959       931      1008      3814      3918      3919
 -1      1931    8    0    1
 -2       930      1007      1008      3915      3920      3917
 -1      1932    8    0    1
 -2       936       937      1009      3697      3921      3922
 -1      1933    8    0    1
 -2       933       932      1010      3686      3923      3924
 -1      1934    8    0    1
 -2       935       936      1011      3694      3925      3926
 -1      1935    8    0    1
 -2       936      1009      1011      3922      3927      3925
 -1      1936    8    0    1
 -2       934       935      1012      3691      3928      3929
 -1      1937    8    0    1
 -2       935      1011      1012      3926      3930      3928
 -1      1938    8    0    1
 -2       937       938      1013      3700      3931      3932
 -1      1939    8    0    1
 -2       937      1013      1009      3932      3933      3921
 -1      1940    8    0    1
 -2       938       939      1014      3703      3934      3935
 -1      1941    8    0    1
 -2       938      1014      1013      3935      3936      3931
 -1      1942    8    0    1
 -2       939       940      1015      3706      3937      3938
 -1      1943    8    0    1
 -2       939      1015      1014      3938      3939      3934
 -1      1944    8    0    1
 -2       940       941      1016      3709      3940      3941
 -1      1945    8    0    1
 -2       940      1016      1015      3941      3942      3937
 -1      1946    8    0    1
 -2       941       942      1017      3712      3943      3944
 -1      1947    8    0    1
 -2       941      1017      1016      3944      3945      3940
 -1      1948    8    0    1
 -2       942       943      1018      3715      3946      3947
 -1      1949    8    0    1
 -2       942      1018      1017      3947      3948      3943
 -1      1950    8    0    1
 -2       943       944      1019      3718      3949      3950
 -1      1951    8    0    1
 -2       943      1019      1018      3950      3951      3946
 -1      1952    8    0    1
 -2       944       945      1020      3721      3952      3953
 -1      1953    8    0    1
 -2       944      1020      1019      3953      3954      3949
 -1      1954    8    0    1
 -2       945       946      1021      3724      3955      3956
 -1      1955    8    0    1
 -2       945      1021      1020      3956      3957      3952
 -1      1956    8    0    1
 -2       946       947      1022      3727      3958      3959
 -1      1957    8    0    1
 -2       946      1022      1021      3959      3960      3955
 -1      1958    8    0    1
 -2       947       948      1023      3730      3961      3962
 -1      1959    8    0    1
 -2       947      1023      1022      3962      3963      3958
 -1      1960    8    0    1
 -2       948       949      1024      3733      3964      3965
 -1      1961    8    0    1
 -2       948      1024      1023      3965      3966      3961
 -1      1962    8    0    1
 -2       949       950      1025      3736      3967      3968
 -1      1963    8    0    1
 -2       949      1025      1024      3968      3969      3964
 -1      1964    8    0    1
 -2       950       951      1026      3739      3970      3971
 -1      1965    8    0    1
 -2       950      1026      1025      3971      3972      3967
 -1      1966    8    0    1
 -2       951       952      1027      3742      3973      3974
 -1      1967    8    0    1
 -2       951      1027      1026      3974      3975      3970
 -1      1968    8    0    1
 -2       952       953      1028      3745      3976      3977
 -1      1969    8    0    1
 -2       952      1028      1027      3977      3978      3973
 -1      1970    8    0    1
 -2       953       954      1029      3748      3979      3980
 -1      1971    8    0    1
 -2       953      1029      1028      3980      3981      3976
 -1      1972    8    0    1
 -2       954       955      1030      3751      3982      3983
 -1      1973    8    0    1
 -2       954      1030      1029      3983      3984      3979
 -1      1974    8    0    1
 -2       955       956      1031      3754      3985      3986
 -1      1975    8    0    1
 -2       955      1031      1030      3986      3987      3982
 -1      1976    8    0    1
 -2       956       957      1032      3757      3988      3989
 -1      1977    8    0    1
 -2       956      1032      1031      3989      3990      3985
 -1      1978    8    0    1
 -2       957       958      1033      3760      3991      3992
 -1      1979    8    0    1
 -2       957      1033      1032      3992      3993      3988
 -1      1980    8    0    1
 -2       895       890      1034      3801      3994      3995
 -1      1981    8    0    1
 -2       974       895      1034      3819      3995      3996
 -1      1982    8    0    1
 -2       890       971      1034      3799      3997      3994
 -1      1983    8    0    1
 -2       894       892       897      3806      3998      3809
 -1      1984    8    0    1
 -2       970       961      1035      3815      3999      4000
 -1      1985    8    0    1
 -2       969       970      1035      3796      4000      4001
 -1      1986    8    0    1
 -2       961       975      1035      3821      4002      3999
 -1      1987    8    0    1
 -2       958       962      1036      3771      4003      4004
 -1      1988    8    0    1
 -2      1033       958      1036      3991      4004      4005
 -1      1989    8    0    1
 -2       962       974      1036      3818      4006      4003
 -1      1990    8    0    1
 -2       964       933      1037      3777      4007      4008
 -1      1991    8    0    1
 -2       933      1010      1037      3924      4009      4007
 -1      1992    8    0    1
 -2       846       712       896      3522      4010      3574
 -1      1993    8    0    1
 -2       898       897       973      3580      4011      4012
 -1      1994    8    0    1
 -2       966       960      1038      3783      4013      4014
 -1      1995    8    0    1
 -2       966      1038       975      4014      4015      3820
 -1      1996    8    0    1
 -2       932       965      1039      3797      4016      4017
 -1      1997    8    0    1
 -2       932      1039      1010      4017      4018      3923
 -1      1998    8    0    1
 -2       891       969      1040      3808      4019      4020
 -1      1999    8    0    1
 -2       972       891      1040      3805      4020      4021
 -1      2000    8    0    1
 -2       969      1035      1040      4001      4022      4019
 -1      2001    8    0    1
 -2       965       934      1041      3780      4023      4024
 -1      2002    8    0    1
 -2       934      1012      1041      3929      4025      4023
 -1      2003    8    0    1
 -2       897       892       973      3998      3811      4011
 -1      2004    8    0    1
 -2       971       959      1042      3800      4026      4027
 -1      2005    8    0    1
 -2       959      1008      1042      3919      4028      4026
 -1      2006    8    0    1
 -2       898       973       976      4012      4029      3822
 -1      2007    8    0    1
 -2       973       963      1043      3812      4030      4031
 -1      2008    8    0    1
 -2       973      1043       976      4031      4032      4029
 -1      2009    8    0    1
 -2       960       967      1044      3786      4033      4034
 -1      2010    8    0    1
 -2       960      1044      1038      4034      4035      4013
 -1      2011    8    0    1
 -2       964      1037      1045      4008      4036      4037
 -1      2012    8    0    1
 -2       964      1045       967      4037      4038      3787
 -1      2013    8    0    1
 -2       965      1041      1039      4024      4039      4016
 -1      2014    8    0    1
 -2      1043       963       972      4030      3804      4040
 -1      2015    8    0    1
 -2      1041      1012      1046      4025      4041      4042
 -1      2016    8    0    1
 -2       970       968       882      3794      4043      3816
 -1      2017    8    0    1
 -2       978       977      1047      3829      4044      4045
 -1      2018    8    0    1
 -2       979       978      1048      3832      4046      4047
 -1      2019    8    0    1
 -2       978      1047      1048      4045      4048      4046
 -1      2020    8    0    1
 -2       980       979      1049      3835      4049      4050
 -1      2021    8    0    1
 -2       979      1048      1049      4047      4051      4049
 -1      2022    8    0    1
 -2       981       980      1050      3838      4052      4053
 -1      2023    8    0    1
 -2       980      1049      1050      4050      4054      4052
 -1      2024    8    0    1
 -2       982       981      1051      3841      4055      4056
 -1      2025    8    0    1
 -2       981      1050      1051      4053      4057      4055
 -1      2026    8    0    1
 -2       983       982      1052      3844      4058      4059
 -1      2027    8    0    1
 -2       982      1051      1052      4056      4060      4058
 -1      2028    8    0    1
 -2       984       983      1053      3847      4061      4062
 -1      2029    8    0    1
 -2       983      1052      1053      4059      4063      4061
 -1      2030    8    0    1
 -2       985       984      1054      3850      4064      4065
 -1      2031    8    0    1
 -2       984      1053      1054      4062      4066      4064
 -1      2032    8    0    1
 -2       986       985      1055      3853      4067      4068
 -1      2033    8    0    1
 -2       985      1054      1055      4065      4069      4067
 -1      2034    8    0    1
 -2       987       986      1056      3856      4070      4071
 -1      2035    8    0    1
 -2       986      1055      1056      4068      4072      4070
 -1      2036    8    0    1
 -2       988       987      1057      3859      4073      4074
 -1      2037    8    0    1
 -2       987      1056      1057      4071      4075      4073
 -1      2038    8    0    1
 -2       989       988      1058      3862      4076      4077
 -1      2039    8    0    1
 -2       988      1057      1058      4074      4078      4076
 -1      2040    8    0    1
 -2       990       989      1059      3865      4079      4080
 -1      2041    8    0    1
 -2       989      1058      1059      4077      4081      4079
 -1      2042    8    0    1
 -2       991       990      1060      3868      4082      4083
 -1      2043    8    0    1
 -2       990      1059      1060      4080      4084      4082
 -1      2044    8    0    1
 -2       992       991      1061      3871      4085      4086
 -1      2045    8    0    1
 -2       991      1060      1061      4083      4087      4085
 -1      2046    8    0    1
 -2       993       992      1062      3874      4088      4089
 -1      2047    8    0    1
 -2       992      1061      1062      4086      4090      4088
 -1      2048    8    0    1
 -2       994       993      1063      3877      4091      4092
 -1      2049    8    0    1
 -2       993      1062      1063      4089      4093      4091
 -1      2050    8    0    1
 -2       995       994      1064      3880      4094      4095
 -1      2051    8    0    1
 -2       994      1063      1064      4092      4096      4094
 -1      2052    8    0    1
 -2       996       995      1065      3883      4097      4098
 -1      2053    8    0    1
 -2       995      1064      1065      4095      4099      4097
 -1      2054    8    0    1
 -2       997       996      1066      3886      4100      4101
 -1      2055    8    0    1
 -2       996      1065      1066      4098      4102      4100
 -1      2056    8    0    1
 -2       998       997      1067      3889      4103      4104
 -1      2057    8    0    1
 -2       997      1066      1067      4101      4105      4103
 -1      2058    8    0    1
 -2       999       998      1068      3892      4106      4107
 -1      2059    8    0    1
 -2       998      1067      1068      4104      4108      4106
 -1      2060    8    0    1
 -2      1000       999      1069      3895      4109      4110
 -1      2061    8    0    1
 -2       999      1068      1069      4107      4111      4109
 -1      2062    8    0    1
 -2      1001      1000      1070      3898      4112      4113
 -1      2063    8    0    1
 -2      1000      1069      1070      4110      4114      4112
 -1      2064    8    0    1
 -2      1002      1001      1071      3901      4115      4116
 -1      2065    8    0    1
 -2      1001      1070      1071      4113      4117      4115
 -1      2066    8    0    1
 -2      1003      1002      1072      3904      4118      4119
 -1      2067    8    0    1
 -2      1002      1071      1072      4116      4120      4118
 -1      2068    8    0    1
 -2      1004      1003      1073      3907      4121      4122
 -1      2069    8    0    1
 -2      1003      1072      1073      4119      4123      4121
 -1      2070    8    0    1
 -2      1005      1004      1074      3910      4124      4125
 -1      2071    8    0    1
 -2      1004      1073      1074      4122      4126      4124
 -1      2072    8    0    1
 -2      1006      1005      1075      3913      4127      4128
 -1      2073    8    0    1
 -2      1005      1074      1075      4125      4129      4127
 -1      2074    8    0    1
 -2      1007      1006      1076      3916      4130      4131
 -1      2075    8    0    1
 -2      1006      1075      1076      4128      4132      4130
 -1      2076    8    0    1
 -2      1008      1007      1077      3920      4133      4134
 -1      2077    8    0    1
 -2      1042      1008      1077      4028      4134      4135
 -1      2078    8    0    1
 -2      1007      1076      1077      4131      4136      4133
 -1      2079    8    0    1
 -2       896       712       804      4010      3538      3763
 -1      2080    8    0    1
 -2      1009      1013      1078      3933      4137      4138
 -1      2081    8    0    1
 -2      1012      1011      1079      3930      4139      4140
 -1      2082    8    0    1
 -2      1012      1079      1046      4140      4141      4041
 -1      2083    8    0    1
 -2      1014      1015      1080      3939      4142      4143
 -1      2084    8    0    1
 -2      1015      1016      1081      3942      4144      4145
 -1      2085    8    0    1
 -2      1015      1081      1080      4145      4146      4142
 -1      2086    8    0    1
 -2      1016      1017      1082      3945      4147      4148
 -1      2087    8    0    1
 -2      1016      1082      1081      4148      4149      4144
 -1      2088    8    0    1
 -2      1017      1018      1083      3948      4150      4151
 -1      2089    8    0    1
 -2      1017      1083      1082      4151      4152      4147
 -1      2090    8    0    1
 -2      1018      1019      1084      3951      4153      4154
 -1      2091    8    0    1
 -2      1018      1084      1083      4154      4155      4150
 -1      2092    8    0    1
 -2      1019      1020      1085      3954      4156      4157
 -1      2093    8    0    1
 -2      1019      1085      1084      4157      4158      4153
 -1      2094    8    0    1
 -2      1020      1021      1086      3957      4159      4160
 -1      2095    8    0    1
 -2      1020      1086      1085      4160      4161      4156
 -1      2096    8    0    1
 -2      1021      1022      1087      3960      4162      4163
 -1      2097    8    0    1
 -2      1021      1087      1086      4163      4164      4159
 -1      2098    8    0    1
 -2      1022      1023      1088      3963      4165      4166
 -1      2099    8    0    1
 -2      1022      1088      1087      4166      4167      4162
 -1      2100    8    0    1
 -2      1023      1024      1089      3966      4168      4169
 -1      2101    8    0    1
 -2      1023      1089      1088      4169      4170      4165
 -1      2102    8    0    1
 -2      1024      1025      1090      3969      4171      4172
 -1      2103    8    0    1
 -2      1024      1090      1089      4172      4173      4168
 -1      2104    8    0    1
 -2      1025      1026      1091      3972      4174      4175
 -1      2105    8    0    1
 -2      1025      1091      1090      4175      4176      4171
 -1      2106    8    0    1
 -2      1026      1027      1092      3975      4177      4178
 -1      2107    8    0    1
 -2      1026      1092      1091      4178      4179      4174
 -1      2108    8    0    1
 -2      1027      1028      1093      3978      4180      4181
 -1      2109    8    0    1
 -2      1027      1093      1092      4181      4182      4177
 -1      2110    8    0    1
 -2      1028      1029      1094      3981      4183      4184
 -1      2111    8    0    1
 -2      1028      1094      1093      4184      4185      4180
 -1      2112    8    0    1
 -2      1029      1030      1095      3984      4186      4187
 -1      2113    8    0    1
 -2      1029      1095      1094      4187      4188      4183
 -1      2114    8    0    1
 -2      1030      1031      1096      3987      4189      4190
 -1      2115    8    0    1
 -2      1030      1096      1095      4190      4191      4186
 -1      2116    8    0    1
 -2      1031      1032      1097      3990      4192      4193
 -1      2117    8    0    1
 -2      1031      1097      1096      4193      4194      4189
 -1      2118    8    0    1
 -2      1032      1033      1098      3993      4195      4196
 -1      2119    8    0    1
 -2      1032      1098      1097      4196      4197      4192
 -1      2120    8    0    1
 -2      1037      1010      1099      4009      4198      4199
 -1      2121    8    0    1
 -2      1011      1009      1100      3927      4200      4201
 -1      2122    8    0    1
 -2      1009      1078      1100      4138      4202      4200
 -1      2123    8    0    1
 -2       977       976      1101      3826      4203      4204
 -1      2124    8    0    1
 -2      1047       977      1101      4044      4204      4205
 -1      2125    8    0    1
 -2       976      1043      1101      4032      4206      4203
 -1      2126    8    0    1
 -2      1035       975      1102      4002      4207      4208
 -1      2127    8    0    1
 -2      1035      1102      1040      4208      4209      4022
 -1      2128    8    0    1
 -2      1013      1014      1103      3936      4210      4211
 -1      2129    8    0    1
 -2      1078      1013      1103      4137      4211      4212
 -1      2130    8    0    1
 -2      1014      1080      1103      4143      4213      4210
 -1      2131    8    0    1
 -2      1010      1039      1104      4018      4214      4215
 -1      2132    8    0    1
 -2      1010      1104      1099      4215      4216      4198
 -1      2133    8    0    1
 -2       975      1038      1105      4015      4217      4218
 -1      2134    8    0    1
 -2       975      1105      1102      4218      4219      4207
 -1      2135    8    0    1
 -2      1043       972      1106      4040      4220      4221
 -1      2136    8    0    1
 -2      1039      1041      1107      4039      4222      4223
 -1      2137    8    0    1
 -2      1104      1039      1107      4214      4223      4224
 -1      2138    8    0    1
 -2      1041      1046      1107      4042      4225      4222
 -1      2139    8    0    1
 -2      1038      1044      1108      4035      4226      4227
 -1      2140    8    0    1
 -2      1038      1108      1105      4227      4228      4217
 -1      2141    8    0    1
 -2       882       968       805      4043      3813      3556
 -1      2142    8    0    1
 -2      1036       974      1109      4006      4229      4230
 -1      2143    8    0    1
 -2       974      1034      1109      3996      4231      4229
 -1      2144    8    0    1
 -2      1043      1106      1101      4221      4232      4206
 -1      2145    8    0    1
 -2       972      1040      1106      4021      4233      4220
 -1      2146    8    0    1
 -2      1079      1011      1100      4139      4201      4234
 -1      2147    8    0    1
 -2      1037      1099      1110      4199      4235      4236
 -1      2148    8    0    1
 -2      1037      1110      1045      4236      4237      4036
 -1      2149    8    0    1
 -2      1034       971      1111      3997      4238      4239
 -1      2150    8    0    1
 -2      1109      1034      1111      4231      4239      4240
 -1      2151    8    0    1
 -2       971      1042      1111      4027      4241      4238
 -1      2152    8    0    1
 -2      1044       967      1045      4033      4038      4242
 -1      2153    8    0    1
 -2      1033      1036      1112      4005      4243      4244
 -1      2154    8    0    1
 -2      1098      1033      1112      4195      4244      4245
 -1      2155    8    0    1
 -2      1036      1109      1112      4230      4246      4243
 -1      2156    8    0    1
 -2      1099      1104      1113      4216      4247      4248
 -1      2157    8    0    1
 -2      1082      1083      1114      4152      4249      4250
 -1      2158    8    0    1
 -2      1049      1048      1115      4051      4251      4252
 -1      2159    8    0    1
 -2      1050      1049      1110      4054      4253      4254
 -1      2160    8    0    1
 -2      1051      1050      1113      4057      4255      4256
 -1      2161    8    0    1
 -2      1052      1051      1116      4060      4257      4258
 -1      2162    8    0    1
 -2      1051      1113      1116      4256      4259      4257
 -1      2163    8    0    1
 -2      1053      1052      1117      4063      4260      4261
 -1      2164    8    0    1
 -2      1052      1116      1117      4258      4262      4260
 -1      2165    8    0    1
 -2      1054      1053      1118      4066      4263      4264
 -1      2166    8    0    1
 -2      1053      1117      1118      4261      4265      4263
 -1      2167    8    0    1
 -2      1055      1054      1119      4069      4266      4267
 -1      2168    8    0    1
 -2      1054      1118      1119      4264      4268      4266
 -1      2169    8    0    1
 -2      1056      1055      1120      4072      4269      4270
 -1      2170    8    0    1
 -2      1055      1119      1120      4267      4271      4269
 -1      2171    8    0    1
 -2      1057      1056      1121      4075      4272      4273
 -1      2172    8    0    1
 -2      1056      1120      1121      4270      4274      4272
 -1      2173    8    0    1
 -2      1058      1057      1122      4078      4275      4276
 -1      2174    8    0    1
 -2      1057      1121      1122      4273      4277      4275
 -1      2175    8    0    1
 -2      1059      1058      1123      4081      4278      4279
 -1      2176    8    0    1
 -2      1058      1122      1123      4276      4280      4278
 -1      2177    8    0    1
 -2      1061      1060      1114      4087      4281      4282
 -1      2178    8    0    1
 -2      1062      1061      1124      4090      4283      4284
 -1      2179    8    0    1
 -2      1061      1114      1124      4282      4285      4283
 -1      2180    8    0    1
 -2      1063      1062      1125      4093      4286      4287
 -1      2181    8    0    1
 -2      1062      1124      1125      4284      4288      4286
 -1      2182    8    0    1
 -2      1064      1063      1126      4096      4289      4290
 -1      2183    8    0    1
 -2      1063      1125      1126      4287      4291      4289
 -1      2184    8    0    1
 -2      1065      1064      1127      4099      4292      4293
 -1      2185    8    0    1
 -2      1064      1126      1127      4290      4294      4292
 -1      2186    8    0    1
 -2      1066      1065      1128      4102      4295      4296
 -1      2187    8    0    1
 -2      1065      1127      1128      4293      4297      4295
 -1      2188    8    0    1
 -2      1067      1066      1129      4105      4298      4299
 -1      2189    8    0    1
 -2      1066      1128      1129      4296      4300      4298
 -1      2190    8    0    1
 -2      1068      1067      1130      4108      4301      4302
 -1      2191    8    0    1
 -2      1067      1129      1130      4299      4303      4301
 -1      2192    8    0    1
 -2      1069      1068      1131      4111      4304      4305
 -1      2193    8    0    1
 -2      1068      1130      1131      4302      4306      4304
 -1      2194    8    0    1
 -2      1070      1069      1132      4114      4307      4308
 -1      2195    8    0    1
 -2      1069      1131      1132      4305      4309      4307
 -1      2196    8    0    1
 -2      1071      1070      1133      4117      4310      4311
 -1      2197    8    0    1
 -2      1070      1132      1133      4308      4312      4310
 -1      2198    8    0    1
 -2      1072      1071      1134      4120      4313      4314
 -1      2199    8    0    1
 -2      1071      1133      1134      4311      4315      4313
 -1      2200    8    0    1
 -2      1073      1072      1135      4123      4316      4317
 -1      2201    8    0    1
 -2      1072      1134      1135      4314      4318      4316
 -1      2202    8    0    1
 -2      1074      1073      1136      4126      4319      4320
 -1      2203    8    0    1
 -2      1073      1135      1136      4317      4321      4319
 -1      2204    8    0    1
 -2      1075      1074      1137      4129      4322      4323
 -1      2205    8    0    1
 -2      1074      1136      1137      4320      4324      4322
 -1      2206    8    0    1
 -2      1076      1075      1138      4132      4325      4326
 -1      2207    8    0    1
 -2      1075      1137      1138      4323      4327      4325
 -1      2208    8    0    1
 -2      1046      1079      1118      4141      4328      4329
 -1      2209    8    0    1
 -2      1080      1081      1123      4146      4330      4331
 -1      2210    8    0    1
 -2      1083      1084      1124      4155      4332      4333
 -1      2211    8    0    1
 -2      1084      1085      1125      4158      4334      4335
 -1      2212    8    0    1
 -2      1085      1086      1126      4161      4336      4337
 -1      2213    8    0    1
 -2      1086      1087      1127      4164      4338      4339
 -1      2214    8    0    1
 -2      1087      1088      1128      4167      4340      4341
 -1      2215    8    0    1
 -2      1088      1089      1129      4170      4342      4343
 -1      2216    8    0    1
 -2      1089      1090      1130      4173      4344      4345
 -1      2217    8    0    1
 -2      1090      1091      1131      4176      4346      4347
 -1      2218    8    0    1
 -2      1091      1092      1132      4179      4348      4349
 -1      2219    8    0    1
 -2      1092      1093      1133      4182      4350      4351
 -1      2220    8    0    1
 -2      1093      1094      1134      4185      4352      4353
 -1      2221    8    0    1
 -2      1094      1095      1135      4188      4354      4355
 -1      2222    8    0    1
 -2      1095      1096      1136      4191      4356      4357
 -1      2223    8    0    1
 -2      1096      1097      1137      4194      4358      4359
 -1      2224    8    0    1
 -2      1097      1098      1138      4197      4360      4361
 -1      2225    8    0    1
 -2      1106      1040      1102      4233      4209      4362
 -1      2226    8    0    1
 -2      1044      1045      1139      4242      4363      4364
 -1      2227    8    0    1
 -2      1108      1044      1139      4226      4364      4365
 -1      2228    8    0    1
 -2      1045      1110      1139      4237      4366      4363
 -1      2229    8    0    1
 -2      1079      1100      1119      4234      4367      4368
 -1      2230    8    0    1
 -2      1048      1047      1108      4048      4369      4370
 -1      2231    8    0    1
 -2      1100      1078      1120      4202      4371      4372
 -1      2232    8    0    1
 -2      1106      1102      1105      4362      4219      4373
 -1      2233    8    0    1
 -2      1130      1090      1131      4344      4347      4306
 -1      2234    8    0    1
 -2      1082      1114      1140      4250      4374      4375
 -1      2235    8    0    1
 -2      1081      1082      1140      4149      4375      4376
 -1      2236    8    0    1
 -2      1114      1060      1140      4281      4377      4374
 -1      2237    8    0    1
 -2      1125      1085      1126      4334      4337      4291
 -1      2238    8    0    1
 -2      1123      1081      1140      4330      4376      4378
 -1      2239    8    0    1
 -2      1132      1092      1133      4348      4351      4312
 -1      2240    8    0    1
 -2      1059      1123      1140      4279      4378      4379
 -1      2241    8    0    1
 -2      1046      1118      1117      4329      4265      4380
 -1      2242    8    0    1
 -2      1060      1059      1140      4084      4379      4377
 -1      2243    8    0    1
 -2      1076      1138      1077      4326      4381      4136
 -1      2244    8    0    1
 -2      1046      1117      1107      4380      4382      4225
 -1      2245    8    0    1
 -2      1118      1079      1119      4328      4368      4268
 -1      2246    8    0    1
 -2      1128      1088      1129      4340      4343      4300
 -1      2247    8    0    1
 -2      1113      1050      1099      4255      4383      4248
 -1      2248    8    0    1
 -2      1110      1099      1050      4235      4383      4254
 -1      2249    8    0    1
 -2      1080      1123      1122      4331      4280      4384
 -1      2250    8    0    1
 -2      1131      1091      1132      4346      4349      4309
 -1      2251    8    0    1
 -2      1083      1124      1114      4333      4285      4249
 -1      2252    8    0    1
 -2      1084      1125      1124      4335      4288      4332
 -1      2253    8    0    1
 -2      1086      1127      1126      4339      4294      4336
 -1      2254    8    0    1
 -2      1087      1128      1127      4341      4297      4338
 -1      2255    8    0    1
 -2      1089      1130      1129      4345      4303      4342
 -1      2256    8    0    1
 -2      1093      1134      1133      4353      4315      4350
 -1      2257    8    0    1
 -2      1094      1135      1134      4355      4318      4352
 -1      2258    8    0    1
 -2      1095      1136      1135      4357      4321      4354
 -1      2259    8    0    1
 -2      1096      1137      1136      4359      4324      4356
 -1      2260    8    0    1
 -2      1097      1138      1137      4361      4327      4358
 -1      2261    8    0    1
 -2      1111      1042      1141      4241      4385      4386
 -1      2262    8    0    1
 -2      1042      1077      1141      4135      4387      4385
 -1      2263    8    0    1
 -2      1113      1104      1116      4247      4388      4259
 -1      2264    8    0    1
 -2      1101      1106      1142      4232      4389      4390
 -1      2265    8    0    1
 -2      1116      1104      1107      4388      4224      4391
 -1      2266    8    0    1
 -2      1120      1078      1121      4371      4392      4274
 -1      2267    8    0    1
 -2      1047      1101      1142      4205      4390      4393
 -1      2268    8    0    1
 -2      1119      1100      1120      4367      4372      4271
 -1      2269    8    0    1
 -2      1103      1080      1122      4213      4384      4394
 -1      2270    8    0    1
 -2      1098      1112      1141      4245      4395      4396
 -1      2271    8    0    1
 -2      1121      1078      1103      4392      4212      4397
 -1      2272    8    0    1
 -2      1106      1105      1142      4373      4398      4389
 -1      2273    8    0    1
 -2      1049      1115      1110      4252      4399      4253
 -1      2274    8    0    1
 -2      1098      1141      1138      4396      4400      4360
 -1      2275    8    0    1
 -2      1117      1116      1107      4262      4391      4382
 -1      2276    8    0    1
 -2      1103      1122      1121      4394      4277      4397
 -1      2277    8    0    1
 -2      1141      1077      1138      4387      4381      4400
 -1      2278    8    0    1
 -2      1110      1115      1139      4399      4401      4366
 -1      2279    8    0    1
 -2      1112      1109      1111      4246      4240      4402
 -1      2280    8    0    1
 -2      1105      1108      1142      4228      4403      4398
 -1      2281    8    0    1
 -2      1141      1112      1111      4395      4402      4386
 -1      2282    8    0    1
 -2      1048      1108      1115      4370      4404      4251
 -1      2283    8    0    1
 -2      1115      1108      1139      4404      4365      4401
 -1      2284    8    0    1
 -2      1047      1142      1108      4393      4403      4369
 -3
    1PSTEP                         1           1           1          
  100CL  101 1.000000000        4404                     0    1           1
 -4  DISP        4    1
 -5  D1          1    2    1    0
 -5  D2          1    2    2    0
 -5  D3          1    2    3    0
 -5  ALL         1    2    0    0    1ALL
 -1         1 2.85157E-03 9.24630E-05-4.21680E-15
 -1         2 3.87745E-03 6.34409E-04-5.65892E-15
 -1         3 1.59515E-02 5.42076E-03-2.03804E-13
 -1         4 1.42339E-02 3.99216E-03-2.17210E-13
 -1         5 0.00000E+00 0.00000E+00 0.00000E+00
 -1         6 0.00000E+00 0.00000E+00 0.00000E+00
 -1         7 0.00000E+00 0.00000E+00 0.00000E+00
 -1         8 0.00000E+00 0.00000E+00 0.00000E+00
 -1         9 0.00000E+00 0.00000E+00 0.00000E+00
 -1        10 0.00000E+00 0.00000E+00 0.00000E+00
 -1        11 0.00000E+00 0.00000E+00 0.00000E+00
 -1        12 0.00000E+00 0.00000E+00 0.00000E+00
 -1        13 0.00000E+00 0.00000E+00 0.00000E+00
 -1        14 0.00000E+00 0.00000E+00 0.00000E+00
 -1        15 0.00000E+00 0.00000E+00 0.00000E+00
 -1        16 0.00000E+00 0.00000E+00 0.00000E+00
 -1        17 0.00000E+00 0.00000E+00 0.00000E+00
 -1        18 0.00000E+00 0.00000E+00 0.00000E+00
 -1        19 0.00000E+00 0.00000E+00 0.00000E+00
 -1        20 0.00000E+00 0.00000E+00 0.00000E+00
 -1        21 0.00000E+00 0.00000E+00 0.00000E+00
 -1        22 0.00000E+00 0.00000E+00 0.00000E+00
 -1        23 0.00000E+00 0.00000E+00 0.00000E+00
 -1        24 4.27790E-04-2.94913E-04 2.55601E-17
 -1        25 7.06109E-04-4.51260E-04-2.96360E-16
 -1        26 9.53677E-04-5.40392E-04-9.45102E-16
 -1        27 1.19074E-03-5.75571E-04-1.90497E-15
 -1        28 1.42677E-03-5.65866E-04-3.16167E-15
 -1        29 1.66836E-03-5.19091E-04-4.70229E-15
 -1        30 1.91980E-03-4.43585E-04-6.51515E-15
 -1        31 2.18303E-03-3.47994E-04-8.58772E-15
 -1        32 2.45779E-03-2.40353E-04-1.09103E-14
 -1        33 2.74217E-03-1.27185E-04-1.34682E-14
 -1        34 3.03346E-03-1.30541E-05-1.62473E-14
 -1        35 3.32887E-03 9.93761E-05-1.92313E-14
 -1        36 3.62605E-03 2.08948E-04-2.24116E-14
 -1        37 3.92327E-03 3.15515E-04-2.57792E-14
 -1        38 4.21945E-03 4.19487E-04-2.93250E-14
 -1        39 4.51404E-03 5.21504E-04-3.30409E-14
 -1        40 4.80687E-03 6.22227E-04-3.69184E-14
 -1        41 5.09801E-03 7.22228E-04-4.09497E-14
 -1        42 5.38767E-03 8.21954E-04-4.51272E-14
 -1        43 5.67611E-03 9.21715E-04-4.94467E-14
 -1        44 5.96357E-03 1.02171E-03-5.39071E-14
 -1        45 6.25031E-03 1.12206E-03-5.85026E-14
 -1        46 6.53653E-03 1.22279E-03-6.32275E-14
 -1        47 6.82240E-03 1.32392E-03-6.80754E-14
 -1        48 7.10803E-03 1.42541E-03-7.30415E-14
 -1        49 7.39352E-03 1.52723E-03-7.81204E-14
 -1        50 7.67895E-03 1.62932E-03-8.33075E-14
 -1        51 7.96435E-03 1.73165E-03-8.86063E-14
 -1        52 8.24975E-03 1.83417E-03-9.40187E-14
 -1        53 8.53518E-03 1.93684E-03-9.95290E-14
 -1        54 8.82064E-03 2.03962E-03-1.05118E-13
 -1        55 9.10614E-03 2.14248E-03-1.10781E-13
 -1        56 9.39167E-03 2.24542E-03-1.16501E-13
 -1        57 9.67724E-03 2.34840E-03-1.22256E-13
 -1        58 9.96284E-03 2.45141E-03-1.28037E-13
 -1        59 1.02485E-02 2.55445E-03-1.33845E-13
 -1        60 1.05341E-02 2.65750E-03-1.39670E-13
 -1        61 1.08198E-02 2.76056E-03-1.45513E-13
 -1        62 1.11054E-02 2.86362E-03-1.51391E-13
 -1        63 1.13911E-02 2.96669E-03-1.57314E-13
 -1        64 1.16768E-02 3.06976E-03-1.63287E-13
 -1        65 1.19625E-02 3.17283E-03-1.69291E-13
 -1        66 1.22482E-02 3.27589E-03-1.75315E-13
 -1        67 1.25339E-02 3.37896E-03-1.81357E-13
 -1        68 1.28196E-02 3.48202E-03-1.87406E-13
 -1        69 1.31054E-02 3.58508E-03-1.93445E-13
 -1        70 1.33911E-02 3.68814E-03-1.99464E-13
 -1        71 1.36768E-02 3.79120E-03-2.05465E-13
 -1        72 1.39625E-02 3.89426E-03-2.11479E-13
 -1        73 7.06063E-04 4.12658E-04 8.56994E-17
 -1        74 1.20312E-03 7.10895E-04-6.84335E-17
 -1        75 1.60934E-03 9.95908E-04-4.28402E-16
 -1        76 1.95932E-03 1.25833E-03-1.05707E-15
 -1        77 2.26533E-03 1.42149E-03-2.01754E-15
 -1        78 2.56843E-03 1.44742E-03-3.28694E-15
 -1        79 2.91610E-03 1.38897E-03-4.84985E-15
 -1        80 3.30942E-03 1.32073E-03-6.67815E-15
 -1        81 3.74223E-03 1.28810E-03-8.85745E-15
 -1        82 4.14689E-03 1.30469E-03-1.11533E-14
 -1        83 4.53127E-03 1.35945E-03-1.36487E-14
 -1        84 4.89293E-03 1.44006E-03-1.63364E-14
 -1        85 5.23443E-03 1.53625E-03-1.92228E-14
 -1        86 5.55990E-03 1.64094E-03-2.22975E-14
 -1        87 5.87337E-03 1.74976E-03-2.55438E-14
 -1        88 6.17812E-03 1.86017E-03-2.89589E-14
 -1        89 6.47668E-03 1.97080E-03-3.25365E-14
 -1        90 6.77088E-03 2.08093E-03-3.62712E-14
 -1        91 7.06207E-03 2.19025E-03-4.01595E-14
 -1        92 7.35118E-03 2.29867E-03-4.42000E-14
 -1        93 7.63888E-03 2.40621E-03-4.83822E-14
 -1        94 7.92564E-03 2.51292E-03-5.27044E-14
 -1        95 8.22608E-03 2.62421E-03-5.73721E-14
 -1        96 8.51183E-03 2.72957E-03-6.19494E-14
 -1        97 8.79736E-03 2.83442E-03-6.66271E-14
 -1        98 9.08277E-03 2.93886E-03-7.14006E-14
 -1        99 9.36813E-03 3.04296E-03-7.62758E-14
 -1       100 9.65348E-03 3.14679E-03-8.12618E-14
 -1       101 9.93885E-03 3.25042E-03-8.63508E-14
 -1       102 1.02242E-02 3.35388E-03-9.15231E-14
 -1       103 1.05097E-02 3.45722E-03-9.67686E-14
 -1       104 1.07952E-02 3.56047E-03-1.02101E-13
 -1       105 1.10807E-02 3.66365E-03-1.07500E-13
 -1       106 1.13663E-02 3.76678E-03-1.12956E-13
 -1       107 1.16519E-02 3.86988E-03-1.18474E-13
 -1       108 1.19375E-02 3.97295E-03-1.24039E-13
 -1       109 1.22374E-02 4.08116E-03-1.29926E-13
 -1       110 1.25231E-02 4.18421E-03-1.35574E-13
 -1       111 1.28087E-02 4.28725E-03-1.41252E-13
 -1       112 1.30944E-02 4.39029E-03-1.46948E-13
 -1       113 1.33801E-02 4.49333E-03-1.52663E-13
 -1       114 1.36658E-02 4.59638E-03-1.58403E-13
 -1       115 1.39515E-02 4.69942E-03-1.64109E-13
 -1       116 1.42372E-02 4.80246E-03-1.69802E-13
 -1       117 1.45229E-02 4.90551E-03-1.75481E-13
 -1       118 1.48086E-02 5.00856E-03-1.81137E-13
 -1       119 1.50944E-02 5.11160E-03-1.86788E-13
 -1       120 1.53801E-02 5.21465E-03-1.92456E-13
 -1       121 1.56658E-02 5.31771E-03-1.98127E-13
 -1       122 1.58502E-02 5.33647E-03-2.04565E-13
 -1       123 1.57488E-02 5.25219E-03-2.05345E-13
 -1       124 1.56475E-02 5.16790E-03-2.06134E-13
 -1       125 1.55462E-02 5.08361E-03-2.06912E-13
 -1       126 1.54448E-02 4.99933E-03-2.07689E-13
 -1       127 1.53452E-02 4.91647E-03-2.08472E-13
 -1       128 1.52439E-02 4.83218E-03-2.09258E-13
 -1       129 1.51425E-02 4.74789E-03-2.10039E-13
 -1       130 1.50412E-02 4.66360E-03-2.10833E-13
 -1       131 1.49399E-02 4.57931E-03-2.11653E-13
 -1       132 1.48385E-02 4.49502E-03-2.12479E-13
 -1       133 1.47389E-02 4.41217E-03-2.13311E-13
 -1       134 1.46376E-02 4.32788E-03-2.14136E-13
 -1       135 1.45362E-02 4.24359E-03-2.14930E-13
 -1       136 1.44349E-02 4.15931E-03-2.15714E-13
 -1       137 1.43335E-02 4.07502E-03-2.16474E-13
 -1       138 3.85288E-03 7.81283E-04-5.48419E-15
 -1       139 3.72299E-03 9.02731E-04-5.14697E-15
 -1       140 3.46684E-03 1.01376E-03-4.61610E-15
 -1       141 3.14671E-03 1.08593E-03-4.04666E-15
 -1       142 2.75565E-03 1.12111E-03-3.43500E-15
 -1       143 2.30531E-03 1.10848E-03-2.81269E-15
 -1       144 1.80476E-03 1.03473E-03-2.19636E-15
 -1       145 1.25913E-03 8.81709E-04-1.58455E-15
 -1       146 8.06306E-04 6.93178E-04-1.11230E-15
 -1       147 4.36619E-04 4.86030E-04-7.26087E-16
 -1       148 1.97800E-04 3.15192E-04-4.56119E-16
 -1       149 7.58107E-05 1.99946E-04-2.89932E-16
 -1       150 2.04128E-05 1.24810E-04-1.86318E-16
 -1       151 1.89492E-05 9.09832E-05-1.57516E-16
 -1       152 5.52813E-05 7.26358E-05-1.89141E-16
 -1       153 1.35350E-04 5.73863E-05-2.89445E-16
 -1       154 2.92467E-04 3.48618E-05-4.93397E-16
 -1       155 5.10902E-04 6.71980E-06-7.80151E-16
 -1       156 8.01332E-04-2.24653E-05-1.16744E-15
 -1       157 1.15963E-03-4.45401E-05-1.66120E-15
 -1       158 1.56112E-03-5.00138E-05-2.23594E-15
 -1       159 2.01461E-03-2.97994E-05-2.91329E-15
 -1       160 2.43023E-03 1.52068E-05-3.55314E-15
 -1       161 3.17038E-03 1.77926E-04-4.72024E-15
 -1       162 3.43890E-03 2.77139E-04-5.13491E-15
 -1       163 3.65127E-03 3.87209E-04-5.44277E-15
 -1       164 3.80052E-03 5.06152E-04-5.62493E-15
 -1       165 2.47152E-04-1.55209E-04-9.73952E-17
 -1       166 2.43618E-04-1.26661E-04-1.31202E-16
 -1       167 2.50323E-04-1.04650E-04-1.44998E-16
 -1       168 2.60609E-04-8.23617E-05-1.47025E-16
 -1       169 2.70694E-04-5.43911E-05-1.40906E-16
 -1       170 2.73748E-04-1.53109E-05-1.28580E-16
 -1       171 2.58259E-04 3.16629E-05-1.12445E-16
 -1       172 2.10518E-04 7.82056E-05-9.23164E-17
 -1       173 1.28986E-04 1.02132E-04-6.93076E-17
 -1       174 1.56517E-05 3.94681E-05-2.36517E-17
 -1       175 2.68043E-05 9.88666E-06-2.93226E-17
 -1       176 6.84814E-05-5.43362E-06-3.55534E-17
 -1       177 1.27191E-04 5.31143E-06-3.63648E-17
 -1       178 1.85810E-04 4.46937E-05-2.68543E-17
 -1       179 2.39656E-04 1.04283E-04-1.03677E-18
 -1       180 4.17749E-04 2.37147E-04 2.30528E-17
 -1       181 4.76169E-04-3.10257E-04-2.46398E-16
 -1       182 7.72078E-04-4.35167E-04-7.79528E-16
 -1       183 1.04863E-03-4.98469E-04-1.61189E-15
 -1       184 1.31646E-03-5.10939E-04-2.73735E-15
 -1       185 1.58223E-03-4.80808E-04-4.14607E-15
 -1       186 1.85063E-03-4.16632E-04-5.82814E-15
 -1       187 2.12446E-03-3.27558E-04-7.77132E-15
 -1       188 2.40474E-03-2.22595E-04-9.96400E-15
 -1       189 2.69104E-03-1.09496E-04-1.23947E-14
 -1       190 2.98206E-03 5.99871E-06-1.50509E-14
 -1       191 3.27613E-03 1.20303E-04-1.79174E-14
 -1       192 3.57170E-03 2.31668E-04-2.09821E-14
 -1       193 3.86749E-03 3.39646E-04-2.42384E-14
 -1       194 4.16264E-03 4.44558E-04-2.76768E-14
 -1       195 4.45664E-03 5.47073E-04-3.12880E-14
 -1       196 4.74927E-03 6.47941E-04-3.50637E-14
 -1       197 5.04051E-03 7.47839E-04-3.89973E-14
 -1       198 5.33046E-03 8.47304E-04-4.30805E-14
 -1       199 5.61930E-03 9.46725E-04-4.73089E-14
 -1       200 5.90723E-03 1.04636E-03-5.16789E-14
 -1       201 6.19443E-03 1.14634E-03-5.61854E-14
 -1       202 6.48108E-03 1.24675E-03-6.08220E-14
 -1       203 6.76733E-03 1.34759E-03-6.55846E-14
 -1       204 7.05329E-03 1.44885E-03-7.04686E-14
 -1       205 7.33906E-03 1.55047E-03-7.54660E-14
 -1       206 7.62471E-03 1.65242E-03-8.05740E-14
 -1       207 7.91028E-03 1.75463E-03-8.57910E-14
 -1       208 8.19582E-03 1.85705E-03-9.11184E-14
 -1       209 8.48136E-03 1.95965E-03-9.65471E-14
 -1       210 8.76689E-03 2.06239E-03-1.02067E-13
 -1       211 9.05245E-03 2.16522E-03-1.07657E-13
 -1       212 9.33802E-03 2.26813E-03-1.13313E-13
 -1       213 9.62361E-03 2.37110E-03-1.19020E-13
 -1       214 9.90922E-03 2.47410E-03-1.24767E-13
 -1       215 1.01949E-02 2.57713E-03-1.30544E-13
 -1       216 1.04805E-02 2.68018E-03-1.36346E-13
 -1       217 1.07662E-02 2.78324E-03-1.42168E-13
 -1       218 1.10518E-02 2.88631E-03-1.48014E-13
 -1       219 1.13375E-02 2.98938E-03-1.53895E-13
 -1       220 1.16232E-02 3.09245E-03-1.59816E-13
 -1       221 1.19089E-02 3.19552E-03-1.65779E-13
 -1       222 1.21946E-02 3.29859E-03-1.71766E-13
 -1       223 1.24803E-02 3.40165E-03-1.77773E-13
 -1       224 1.27660E-02 3.50472E-03-1.83793E-13
 -1       225 1.30517E-02 3.60778E-03-1.89811E-13
 -1       226 1.33375E-02 3.71084E-03-1.95823E-13
 -1       227 1.36232E-02 3.81390E-03-2.01822E-13
 -1       228 1.39089E-02 3.91696E-03-2.07820E-13
 -1       229 9.09217E-04 5.33621E-04-1.23545E-16
 -1       230 1.33558E-03 8.31821E-04-4.64608E-16
 -1       231 1.73841E-03 1.12602E-03-1.06248E-15
 -1       232 2.11864E-03 1.33121E-03-1.98092E-15
 -1       233 2.48232E-03 1.38446E-03-3.20463E-15
 -1       234 2.85659E-03 1.33035E-03-4.72297E-15
 -1       235 3.24588E-03 1.25307E-03-6.51018E-15
 -1       236 3.65828E-03 1.20891E-03-8.64783E-15
 -1       237 4.04180E-03 1.21793E-03-1.09085E-14
 -1       238 4.40962E-03 1.26892E-03-1.33705E-14
 -1       239 4.76036E-03 1.34847E-03-1.60266E-14
 -1       240 5.09553E-03 1.44509E-03-1.88745E-14
 -1       241 5.41780E-03 1.55087E-03-2.19119E-14
 -1       242 5.72998E-03 1.66096E-03-2.51247E-14
 -1       243 6.03454E-03 1.77259E-03-2.85076E-14
 -1       244 6.33346E-03 1.88428E-03-3.20572E-14
 -1       245 6.62828E-03 1.99531E-03-3.57626E-14
 -1       246 6.92017E-03 2.10536E-03-3.96206E-14
 -1       247 7.20996E-03 2.21436E-03-4.36301E-14
 -1       248 7.49828E-03 2.32234E-03-4.77825E-14
 -1       249 7.78559E-03 2.42941E-03-5.20709E-14
 -1       250 8.08651E-03 2.54098E-03-5.67106E-14
 -1       251 8.37264E-03 2.64654E-03-6.12562E-14
 -1       252 8.65848E-03 2.75155E-03-6.59108E-14
 -1       253 8.94413E-03 2.85610E-03-7.06651E-14
 -1       254 9.22968E-03 2.96029E-03-7.55242E-14
 -1       255 9.51519E-03 3.06418E-03-8.04875E-14
 -1       256 9.80067E-03 3.16785E-03-8.55522E-14
 -1       257 1.00862E-02 3.27134E-03-9.07063E-14
 -1       258 1.03717E-02 3.37470E-03-9.59416E-14
 -1       259 1.06572E-02 3.47796E-03-1.01256E-13
 -1       260 1.09428E-02 3.58115E-03-1.06641E-13
 -1       261 1.12283E-02 3.68429E-03-1.12089E-13
 -1       262 1.15140E-02 3.78739E-03-1.17596E-13
 -1       263 1.17996E-02 3.89046E-03-1.23154E-13
 -1       264 1.20995E-02 3.99867E-03-1.29034E-13
 -1       265 1.23852E-02 4.10172E-03-1.34666E-13
 -1       266 1.26708E-02 4.20476E-03-1.40338E-13
 -1       267 1.29565E-02 4.30780E-03-1.46034E-13
 -1       268 1.32422E-02 4.41084E-03-1.51745E-13
 -1       269 1.35279E-02 4.51388E-03-1.57474E-13
 -1       270 1.38136E-02 4.61692E-03-1.63194E-13
 -1       271 1.40993E-02 4.71996E-03-1.68900E-13
 -1       272 1.43850E-02 4.82301E-03-1.74596E-13
 -1       273 1.46708E-02 4.92605E-03-1.80269E-13
 -1       274 1.49565E-02 5.02910E-03-1.85935E-13
 -1       275 1.52422E-02 5.13215E-03-1.91602E-13
 -1       276 1.55279E-02 5.23520E-03-1.97278E-13
 -1       277 1.55521E-02 5.20509E-03-2.00013E-13
 -1       278 1.54507E-02 5.12080E-03-2.00783E-13
 -1       279 1.53494E-02 5.03651E-03-2.01557E-13
 -1       280 1.52481E-02 4.95223E-03-2.02327E-13
 -1       281 1.51484E-02 4.86937E-03-2.03082E-13
 -1       282 1.50471E-02 4.78508E-03-2.03855E-13
 -1       283 1.49458E-02 4.70079E-03-2.04634E-13
 -1       284 1.48444E-02 4.61650E-03-2.05412E-13
 -1       285 1.47431E-02 4.53221E-03-2.06197E-13
 -1       286 1.46418E-02 4.44792E-03-2.06991E-13
 -1       287 1.45421E-02 4.36506E-03-2.07781E-13
 -1       288 1.44408E-02 4.28078E-03-2.08575E-13
 -1       289 1.43395E-02 4.19649E-03-2.09359E-13
 -1       290 1.42381E-02 4.11220E-03-2.10123E-13
 -1       291 1.40735E-02 4.01458E-03-2.08975E-13
 -1       292 3.90125E-03 6.92514E-04-6.61499E-15
 -1       293 3.78180E-03 7.60462E-04-6.14119E-15
 -1       294 3.52669E-03 8.46379E-04-5.64315E-15
 -1       295 3.19559E-03 9.74793E-04-4.79458E-15
 -1       296 2.83059E-03 1.08697E-03-4.03844E-15
 -1       297 2.44955E-03 1.16302E-03-3.26724E-15
 -1       298 2.05819E-03 1.16279E-03-2.52103E-15
 -1       299 1.64613E-03 1.03962E-03-1.79791E-15
 -1       300 1.19300E-03 7.89949E-04-1.22932E-15
 -1       301 7.86482E-04 5.09844E-04-7.81168E-16
 -1       302 4.30957E-04 2.70048E-04-4.62629E-16
 -1       303 1.78540E-04 1.54903E-04-2.92687E-16
 -1       304 5.33839E-05 9.00245E-05-1.66860E-16
 -1       305 1.31858E-05 9.05335E-05-1.28422E-16
 -1       306 3.31825E-05 9.64737E-05-1.21371E-16
 -1       307 1.05374E-04 1.05535E-04-1.82695E-16
 -1       308 2.52815E-04 1.07952E-04-3.00185E-16
 -1       309 4.72377E-04 7.17423E-05-5.42291E-16
 -1       310 7.42350E-04 1.07781E-05-8.86871E-16
 -1       311 1.05706E-03-6.05407E-05-1.35213E-15
 -1       312 1.38894E-03-1.11469E-04-1.95490E-15
 -1       313 1.73814E-03-1.13825E-04-2.70060E-15
 -1       314 2.11047E-03-4.26150E-05-3.48271E-15
 -1       315 2.48325E-03 7.93609E-05-4.32021E-15
 -1       316 2.86046E-03 2.22183E-04-5.03344E-15
 -1       317 3.18750E-03 3.54260E-04-5.62323E-15
 -1       318 3.47903E-03 4.69107E-04-6.08950E-15
 -1       319 3.71244E-03 5.60089E-04-6.40422E-15
 -1       320 3.86377E-03 6.33040E-04-6.60010E-15
 -1       321 4.34803E-05 7.92981E-05-3.79793E-17
 -1       322 3.34480E-04-2.19233E-04-1.36901E-16
 -1       323 5.03475E-04-2.14821E-04-4.88237E-16
 -1       324 4.98573E-04-2.62316E-04-4.39600E-16
 -1       325 5.45076E-04-1.34672E-04-5.00556E-16
 -1       326 5.66660E-04-8.61572E-05-4.76453E-16
 -1       327 5.67832E-04-2.77639E-05-4.37916E-16
 -1       328 3.23220E-04 1.11133E-04-2.44196E-16
 -1       329 8.05424E-05 3.33988E-05-1.02764E-16
 -1       330 2.98204E-03 1.02220E-03-4.87158E-15
 -1       331 3.72908E-04 1.17062E-04-1.46218E-16
 -1       332 5.19692E-04 2.34950E-04-1.26086E-16
 -1       333 6.97208E-04 3.76586E-04-1.35668E-16
 -1       334 1.12483E-03 6.72184E-04-4.53691E-16
 -1       335 8.93776E-04-4.06976E-04-1.30209E-15
 -1       336 1.18494E-03-4.43221E-04-2.30496E-15
 -1       337 1.47118E-03-4.32436E-04-3.58816E-15
 -1       338 1.75643E-03-3.82375E-04-5.14356E-15
 -1       339 2.04350E-03-3.02145E-04-6.96210E-15
 -1       340 2.33381E-03-2.01638E-04-9.03144E-15
 -1       341 2.62734E-03-8.98987E-05-1.13392E-14
 -1       342 2.92320E-03 2.60550E-05-1.38745E-14
 -1       343 3.22017E-03 1.41638E-04-1.66252E-14
 -1       344 3.51720E-03 2.54442E-04-1.95777E-14
 -1       345 3.81350E-03 3.63660E-04-2.27218E-14
 -1       346 4.10861E-03 4.69461E-04-2.60521E-14
 -1       347 4.40231E-03 5.72500E-04-2.95599E-14
 -1       348 4.69459E-03 6.73573E-04-3.32357E-14
 -1       349 4.98555E-03 7.73434E-04-3.70696E-14
 -1       350 5.27532E-03 8.72699E-04-4.10584E-14
 -1       351 5.56410E-03 9.71825E-04-4.51952E-14
 -1       352 5.85205E-03 1.07112E-03-4.94752E-14
 -1       353 6.13935E-03 1.17076E-03-5.38947E-14
 -1       354 6.42615E-03 1.27085E-03-5.84450E-14
 -1       355 6.71256E-03 1.37140E-03-6.31228E-14
 -1       356 6.99869E-03 1.47241E-03-6.79227E-14
 -1       357 7.28463E-03 1.57382E-03-7.28385E-14
 -1       358 7.57043E-03 1.67560E-03-7.78670E-14
 -1       359 7.85614E-03 1.77768E-03-8.30044E-14
 -1       360 8.14180E-03 1.88000E-03-8.82518E-14
 -1       361 8.42743E-03 1.98252E-03-9.36035E-14
 -1       362 8.71305E-03 2.08519E-03-9.90466E-14
 -1       363 8.99866E-03 2.18799E-03-1.04570E-13
 -1       364 9.28428E-03 2.29087E-03-1.10162E-13
 -1       365 9.56991E-03 2.39381E-03-1.15817E-13
 -1       366 9.85556E-03 2.49680E-03-1.21520E-13
 -1       367 1.01412E-02 2.59983E-03-1.27263E-13
 -1       368 1.04269E-02 2.70287E-03-1.33034E-13
 -1       369 1.07125E-02 2.80593E-03-1.38831E-13
 -1       370 1.09982E-02 2.90900E-03-1.44656E-13
 -1       371 1.12839E-02 3.01207E-03-1.50499E-13
 -1       372 1.15696E-02 3.11514E-03-1.56377E-13
 -1       373 1.18553E-02 3.21821E-03-1.62299E-13
 -1       374 1.21410E-02 3.32128E-03-1.68250E-13
 -1       375 1.24267E-02 3.42435E-03-1.74224E-13
 -1       376 1.27124E-02 3.52741E-03-1.80210E-13
 -1       377 1.29981E-02 3.63048E-03-1.86203E-13
 -1       378 1.32839E-02 3.73354E-03-1.92191E-13
 -1       379 1.35696E-02 3.83660E-03-1.98179E-13
 -1       380 1.38215E-02 3.92559E-03-2.03573E-13
 -1       381 1.55534E-03 9.92138E-04-1.01809E-15
 -1       382 1.97550E-03 1.24291E-03-1.89502E-15
 -1       383 2.37613E-03 1.32700E-03-3.07737E-15
 -1       384 2.77826E-03 1.27745E-03-4.55671E-15
 -1       385 3.18127E-03 1.19278E-03-6.30935E-15
 -1       386 3.59227E-03 1.14020E-03-8.41240E-15
 -1       387 3.96481E-03 1.14361E-03-1.06399E-14
 -1       388 4.31899E-03 1.19127E-03-1.30709E-14
 -1       389 4.65753E-03 1.26923E-03-1.56958E-14
 -1       390 4.98345E-03 1.36543E-03-1.85100E-14
 -1       391 5.29937E-03 1.47148E-03-2.15118E-14
 -1       392 5.60751E-03 1.58218E-03-2.46935E-14
 -1       393 5.90967E-03 1.69455E-03-2.80467E-14
 -1       394 6.20727E-03 1.80697E-03-3.15676E-14
 -1       395 6.50147E-03 1.91866E-03-3.52459E-14
 -1       396 6.79313E-03 2.02928E-03-3.90752E-14
 -1       397 7.08294E-03 2.13876E-03-4.30553E-14
 -1       398 7.37141E-03 2.24714E-03-4.71805E-14
 -1       399 7.65891E-03 2.35452E-03-5.14407E-14
 -1       400 7.96007E-03 2.46635E-03-5.60519E-14
 -1       401 8.24640E-03 2.57211E-03-6.05717E-14
 -1       402 8.53243E-03 2.67726E-03-6.52015E-14
 -1       403 8.81825E-03 2.78193E-03-6.99400E-14
 -1       404 9.10394E-03 2.88620E-03-7.47782E-14
 -1       405 9.38956E-03 2.99016E-03-7.97246E-14
 -1       406 9.67514E-03 3.09387E-03-8.47698E-14
 -1       407 9.96070E-03 3.19740E-03-8.99049E-14
 -1       408 1.02463E-02 3.30078E-03-9.51267E-14
 -1       409 1.05318E-02 3.40406E-03-1.00427E-13
 -1       410 1.08174E-02 3.50726E-03-1.05800E-13
 -1       411 1.11031E-02 3.61040E-03-1.11237E-13
 -1       412 1.13887E-02 3.71350E-03-1.16737E-13
 -1       413 1.16743E-02 3.81658E-03-1.22288E-13
 -1       414 1.19743E-02 3.92479E-03-1.28161E-13
 -1       415 1.22599E-02 4.02783E-03-1.33783E-13
 -1       416 1.25456E-02 4.13087E-03-1.39447E-13
 -1       417 1.28313E-02 4.23391E-03-1.45143E-13
 -1       418 1.31170E-02 4.33695E-03-1.50852E-13
 -1       419 1.34027E-02 4.43999E-03-1.56579E-13
 -1       420 1.36884E-02 4.54303E-03-1.62302E-13
 -1       421 1.39741E-02 4.64607E-03-1.68021E-13
 -1       422 1.42598E-02 4.74912E-03-1.73727E-13
 -1       423 1.45455E-02 4.85216E-03-1.79417E-13
 -1       424 1.48312E-02 4.95521E-03-1.85093E-13
 -1       425 1.51169E-02 5.05826E-03-1.90765E-13
 -1       426 1.50513E-02 4.90513E-03-1.96971E-13
 -1       427 1.51526E-02 4.98941E-03-1.96210E-13
 -1       428 3.86647E-03 7.18315E-04-7.23039E-15
 -1       429 1.52540E-02 5.07370E-03-1.95455E-13
 -1       430 1.49517E-02 4.82227E-03-1.97718E-13
 -1       431 1.48503E-02 4.73798E-03-1.98473E-13
 -1       432 1.47490E-02 4.65369E-03-1.99231E-13
 -1       433 1.46477E-02 4.56940E-03-1.99993E-13
 -1       434 1.45463E-02 4.48511E-03-2.00760E-13
 -1       435 1.44450E-02 4.40082E-03-2.01526E-13
 -1       436 1.43454E-02 4.31796E-03-2.02282E-13
 -1       437 1.42440E-02 4.23367E-03-2.03049E-13
 -1       438 1.41427E-02 4.14939E-03-2.03811E-13
 -1       439 1.40414E-02 4.06510E-03-2.04562E-13
 -1       440 3.68539E-03 7.69559E-04-6.83510E-15
 -1       441 3.91671E-03 6.90535E-04-7.67940E-15
 -1       442 3.31153E-03 8.95677E-04-5.73583E-15
 -1       443 5.21276E-04-1.75050E-04-5.05543E-16
 -1       444 2.32895E-04 5.71819E-05-1.45544E-16
 -1       445 2.26695E-03 1.21323E-03-2.99415E-15
 -1       446 1.91376E-03 1.16825E-03-2.14874E-15
 -1       447 1.46457E-03 9.21049E-04-1.31616E-15
 -1       448 1.10266E-03 6.54337E-04-8.74971E-16
 -1       449 6.67649E-04 3.38639E-04-4.94223E-16
 -1       450 2.98572E-04 1.31093E-04-2.68042E-16
 -1       451 1.27141E-04 6.30990E-05-1.60952E-16
 -1       452 2.54663E-05 5.03891E-05-8.16557E-17
 -1       453 6.63208E-05 1.04708E-04-8.82524E-17
 -1       454 3.71668E-04 1.07224E-04-3.30709E-16
 -1       455 6.26919E-04 4.97864E-05-6.10223E-16
 -1       456 8.96667E-04-3.28574E-05-9.80383E-16
 -1       457 1.21869E-03-1.15785E-04-1.60517E-15
 -1       458 1.51189E-03-1.56767E-04-2.36765E-15
 -1       459 1.88010E-03-1.01736E-04-3.37213E-15
 -1       460 2.17781E-03 2.09544E-06-4.18786E-15
 -1       461 2.59900E-03 1.91233E-04-5.25193E-15
 -1       462 2.95306E-03 3.53251E-04-6.04248E-15
 -1       463 3.28546E-03 4.98303E-04-6.80964E-15
 -1       464 3.58264E-03 5.93276E-04-7.19686E-15
 -1       465 3.79711E-03 6.51691E-04-7.43968E-15
 -1       466 2.61671E-03 1.15003E-03-3.89557E-15
 -1       467 4.52159E-04 5.34968E-05-3.06023E-16
 -1       468 3.94145E-03 7.18725E-04-8.29680E-15
 -1       469 1.52958E-02 5.10945E-03-1.95088E-13
 -1       470 2.62746E-05 8.49042E-05-7.64405E-17
 -1       471 3.53684E-03 8.30588E-04-6.90660E-15
 -1       472 1.52730E-04 1.21168E-04-1.32318E-16
 -1       473 8.55338E-04-1.13550E-04-9.44543E-16
 -1       474 8.23808E-04-1.66267E-04-9.98984E-16
 -1       475 7.78464E-04-2.64157E-04-1.06622E-15
 -1       476 8.99702E-04-3.37337E-04-1.40363E-15
 -1       477 7.00843E-04 3.32237E-04-3.28439E-16
 -1       478 9.14119E-04 4.99810E-04-3.97380E-16
 -1       479 1.34880E-03-3.77641E-04-3.03014E-15
 -1       480 1.64770E-03-3.42931E-04-4.46280E-15
 -1       481 1.94728E-03-2.72468E-04-6.15975E-15
 -1       482 2.24897E-03-1.76878E-04-8.10969E-15
 -1       483 2.55254E-03-6.68002E-05-1.02995E-14
 -1       484 2.85669E-03 4.91950E-05-1.27182E-14
 -1       485 3.15997E-03 1.65457E-04-1.53536E-14
 -1       486 3.46128E-03 2.79014E-04-1.81950E-14
 -1       487 3.76013E-03 3.88822E-04-2.12308E-14
 -1       488 4.05645E-03 4.94988E-04-2.44529E-14
 -1       489 4.35049E-03 5.98177E-04-2.78546E-14
 -1       490 4.64259E-03 6.99226E-04-3.14304E-14
 -1       491 4.93311E-03 7.98933E-04-3.51674E-14
 -1       492 5.22239E-03 8.97957E-04-3.90611E-14
 -1       493 5.51071E-03 9.96791E-04-4.31061E-14
 -1       494 5.79831E-03 1.09577E-03-4.72959E-14
 -1       495 6.08535E-03 1.19511E-03-5.16276E-14
 -1       496 6.37199E-03 1.29490E-03-5.60940E-14
 -1       497 6.65832E-03 1.39520E-03-6.06892E-14
 -1       498 6.94444E-03 1.49597E-03-6.54068E-14
 -1       499 7.23040E-03 1.59720E-03-7.02414E-14
 -1       500 7.51625E-03 1.69881E-03-7.51891E-14
 -1       501 7.80203E-03 1.80076E-03-8.02479E-14
 -1       502 8.08776E-03 1.90298E-03-8.54163E-14
 -1       503 8.37346E-03 2.00542E-03-9.06915E-14
 -1       504 8.65914E-03 2.10803E-03-9.60613E-14
 -1       505 8.94482E-03 2.21078E-03-1.01515E-13
 -1       506 9.23049E-03 2.31362E-03-1.07046E-13
 -1       507 9.51616E-03 2.41655E-03-1.12642E-13
 -1       508 9.80184E-03 2.51952E-03-1.18298E-13
 -1       509 1.00875E-02 2.62253E-03-1.23998E-13
 -1       510 1.03732E-02 2.72557E-03-1.29737E-13
 -1       511 1.06589E-02 2.82863E-03-1.35505E-13
 -1       512 1.09446E-02 2.93169E-03-1.41302E-13
 -1       513 1.12303E-02 3.03476E-03-1.47124E-13
 -1       514 1.15160E-02 3.13783E-03-1.52966E-13
 -1       515 1.18017E-02 3.24090E-03-1.58848E-13
 -1       516 1.20874E-02 3.34397E-03-1.64763E-13
 -1       517 1.23731E-02 3.44704E-03-1.70700E-13
 -1       518 1.26588E-02 3.55011E-03-1.76653E-13
 -1       519 1.29445E-02 3.65318E-03-1.82618E-13
 -1       520 1.32302E-02 3.75624E-03-1.88585E-13
 -1       521 1.35160E-02 3.85930E-03-1.94547E-13
 -1       522 1.48545E-02 4.85803E-03-1.91632E-13
 -1       523 2.58257E-03 1.24277E-03-3.94465E-15
 -1       524 3.02176E-03 1.13038E-03-5.62708E-15
 -1       525 3.44822E-03 1.04197E-03-7.62500E-15
 -1       526 3.81562E-03 1.03225E-03-9.76952E-15
 -1       527 4.15350E-03 1.07146E-03-1.21176E-14
 -1       528 4.47318E-03 1.14348E-03-1.46613E-14
 -1       529 4.78233E-03 1.23580E-03-1.73911E-14
 -1       530 5.08525E-03 1.33967E-03-2.03073E-14
 -1       531 5.38409E-03 1.44945E-03-2.34061E-14
 -1       532 5.67996E-03 1.56172E-03-2.66822E-14
 -1       533 5.97351E-03 1.67452E-03-3.01289E-14
 -1       534 6.26520E-03 1.78684E-03-3.37345E-14
 -1       535 6.55541E-03 1.89816E-03-3.74962E-14
 -1       536 6.84443E-03 2.00834E-03-4.14075E-14
 -1       537 7.13254E-03 2.11735E-03-4.54641E-14
 -1       538 7.41993E-03 2.22529E-03-4.96590E-14
 -1       539 7.72112E-03 2.33761E-03-5.42051E-14
 -1       540 8.00757E-03 2.44376E-03-5.86619E-14
 -1       541 8.29374E-03 2.54923E-03-6.32367E-14
 -1       542 8.57972E-03 2.65415E-03-6.79228E-14
 -1       543 8.86555E-03 2.75861E-03-7.27151E-14
 -1       544 9.15131E-03 2.86272E-03-7.76140E-14
 -1       545 9.43700E-03 2.96655E-03-8.26142E-14
 -1       546 9.72266E-03 3.07017E-03-8.77076E-14
 -1       547 1.00083E-02 3.17361E-03-9.28876E-14
 -1       548 1.02940E-02 3.27694E-03-9.81549E-14
 -1       549 1.05796E-02 3.38017E-03-1.03498E-13
 -1       550 1.08652E-02 3.48333E-03-1.08904E-13
 -1       551 1.11509E-02 3.58645E-03-1.14382E-13
 -1       552 1.14366E-02 3.68953E-03-1.19914E-13
 -1       553 1.17365E-02 3.79775E-03-1.25769E-13
 -1       554 1.20222E-02 3.90080E-03-1.31378E-13
 -1       555 1.23079E-02 4.00384E-03-1.37022E-13
 -1       556 1.25936E-02 4.10688E-03-1.42706E-13
 -1       557 1.28793E-02 4.20992E-03-1.48415E-13
 -1       558 1.31650E-02 4.31295E-03-1.54135E-13
 -1       559 1.34507E-02 4.41599E-03-1.59868E-13
 -1       560 1.37364E-02 4.51903E-03-1.65595E-13
 -1       561 1.40221E-02 4.62208E-03-1.71317E-13
 -1       562 1.43078E-02 4.72512E-03-1.77028E-13
 -1       563 1.45935E-02 4.82817E-03-1.82721E-13
 -1       564 1.48792E-02 4.93122E-03-1.88412E-13
 -1       565 2.82466E-03 1.11751E-03-4.73339E-15
 -1       566 1.46536E-02 4.69088E-03-1.93105E-13
 -1       567 1.47541E-02 4.77445E-03-1.92368E-13
 -1       568 1.45522E-02 4.60659E-03-1.93845E-13
 -1       569 1.44509E-02 4.52230E-03-1.94591E-13
 -1       570 1.43496E-02 4.43801E-03-1.95337E-13
 -1       571 1.42482E-02 4.35372E-03-1.96078E-13
 -1       572 1.41486E-02 4.27086E-03-1.96805E-13
 -1       573 1.40473E-02 4.18657E-03-1.97544E-13
 -1       574 1.39459E-02 4.10228E-03-1.98281E-13
 -1       575 1.38446E-02 4.01799E-03-1.99016E-13
 -1       576 2.14206E-03 1.24974E-03-2.60124E-15
 -1       577 3.72143E-03 6.75872E-04-8.56321E-15
 -1       578 3.89304E-03 7.11776E-04-8.80791E-15
 -1       579 7.98226E-04-2.14203E-04-1.04810E-15
 -1       580 1.68023E-03-1.49315E-04-3.13642E-15
 -1       581 3.83891E-03 7.49797E-04-8.02535E-15
 -1       582 1.74410E-03 1.10396E-03-1.60817E-15
 -1       583 3.17933E-03 9.70666E-04-5.87350E-15
 -1       584 4.37516E-04 1.61338E-04-2.44732E-16
 -1       585 1.29665E-03 7.86392E-04-9.11441E-16
 -1       586 8.82940E-04 4.65463E-04-5.24164E-16
 -1       587 2.74790E-03 3.06002E-04-6.44996E-15
 -1       588 6.80077E-04 9.85512E-06-6.03386E-16
 -1       589 1.03011E-03-9.96288E-05-1.22129E-15
 -1       590 1.28790E-03-1.59004E-04-1.87385E-15
 -1       591 1.99824E-03-5.25417E-05-4.16890E-15
 -1       592 2.35292E-03 1.07431E-04-5.23877E-15
 -1       593 3.05715E-03 4.48283E-04-7.23227E-15
 -1       594 3.45999E-03 5.99128E-04-8.00776E-15
 -1       595 2.46766E-03 1.22564E-03-3.58308E-15
 -1       596 1.45525E-03-1.81299E-04-2.54382E-15
 -1       597 3.97539E-03 7.39082E-04-9.43989E-15
 -1       598 1.37071E-02 3.92730E-03-1.98598E-13
 -1       599 3.74082E-03 7.98662E-04-8.08666E-15
 -1       600 4.33305E-03 1.02724E-03-1.36922E-14
 -1       601 4.04177E-03 9.56417E-04-1.12225E-14
 -1       602 1.53362E-03-3.02390E-04-3.78896E-15
 -1       603 1.09789E-03-1.82663E-04-1.60040E-15
 -1       604 2.18878E-03 3.55552E-05-5.35657E-15
 -1       605 1.45688E-02 4.75498E-03-1.85910E-13
 -1       606 3.96984E-03 7.58727E-04-9.29655E-15
 -1       607 1.84316E-03-2.41786E-04-5.36536E-15
 -1       608 2.15555E-03-1.50150E-04-7.19749E-15
 -1       609 2.47015E-03-4.04890E-05-9.27327E-15
 -1       610 2.78469E-03 7.63364E-05-1.15791E-14
 -1       611 3.09667E-03 1.93302E-04-1.41032E-14
 -1       612 3.40445E-03 3.07024E-04-1.68348E-14
 -1       613 3.70750E-03 4.16538E-04-1.97621E-14
 -1       614 4.00614E-03 5.22167E-04-2.28786E-14
 -1       615 4.30108E-03 6.24749E-04-2.61753E-14
 -1       616 4.59318E-03 7.25221E-04-2.96479E-14
 -1       617 4.88319E-03 8.24417E-04-3.32886E-14
 -1       618 5.17173E-03 9.23001E-04-3.70879E-14
 -1       619 5.45927E-03 1.02146E-03-4.10403E-14
 -1       620 5.74615E-03 1.12012E-03-4.51408E-14
 -1       621 6.03261E-03 1.21917E-03-4.93848E-14
 -1       622 6.31878E-03 1.31873E-03-5.37691E-14
 -1       623 6.60479E-03 1.41881E-03-5.82820E-14
 -1       624 6.89068E-03 1.51941E-03-6.29185E-14
 -1       625 7.17651E-03 1.62048E-03-6.76720E-14
 -1       626 7.46229E-03 1.72197E-03-7.25392E-14
 -1       627 7.74805E-03 1.82381E-03-7.75203E-14
 -1       628 8.03378E-03 1.92595E-03-8.26114E-14
 -1       629 8.31951E-03 2.02832E-03-8.78091E-14
 -1       630 8.60523E-03 2.13088E-03-9.31085E-14
 -1       631 8.89095E-03 2.23358E-03-9.84951E-14
 -1       632 9.17666E-03 2.33640E-03-1.03961E-13
 -1       633 9.46237E-03 2.43930E-03-1.09497E-13
 -1       634 9.74808E-03 2.54225E-03-1.15100E-13
 -1       635 1.00338E-02 2.64525E-03-1.20758E-13
 -1       636 1.03195E-02 2.74828E-03-1.26457E-13
 -1       637 1.06052E-02 2.85133E-03-1.32196E-13
 -1       638 1.08909E-02 2.95439E-03-1.37962E-13
 -1       639 1.11766E-02 3.05746E-03-1.43757E-13
 -1       640 1.14623E-02 3.16053E-03-1.49575E-13
 -1       641 1.17481E-02 3.26360E-03-1.55420E-13
 -1       642 1.20338E-02 3.36667E-03-1.61303E-13
 -1       643 1.23195E-02 3.46974E-03-1.67207E-13
 -1       644 1.26052E-02 3.57281E-03-1.73127E-13
 -1       645 1.28909E-02 3.67587E-03-1.79061E-13
 -1       646 1.31766E-02 3.77894E-03-1.84999E-13
 -1       647 1.34623E-02 3.88200E-03-1.90941E-13
 -1       648 1.41528E-02 4.39091E-03-1.89930E-13
 -1       649 3.45810E-03 9.16565E-04-7.24488E-15
 -1       650 1.17726E-03-3.16040E-04-2.29341E-15
 -1       651 3.76288E-03 9.15276E-04-9.15306E-15
 -1       652 4.61745E-03 1.11692E-03-1.63473E-14
 -1       653 4.90058E-03 1.21773E-03-1.91860E-14
 -1       654 5.18445E-03 1.32494E-03-2.22053E-14
 -1       655 5.46944E-03 1.43542E-03-2.54059E-14
 -1       656 5.75534E-03 1.54717E-03-2.87806E-14
 -1       657 6.04178E-03 1.65898E-03-3.23190E-14
 -1       658 6.32846E-03 1.77018E-03-3.60147E-14
 -1       659 6.61517E-03 1.88044E-03-3.98630E-14
 -1       660 6.90179E-03 1.98968E-03-4.38561E-14
 -1       661 7.18826E-03 2.09789E-03-4.79901E-14
 -1       662 7.48889E-03 2.21050E-03-5.24755E-14
 -1       663 7.77505E-03 2.31690E-03-5.68766E-14
 -1       664 8.06109E-03 2.42260E-03-6.13969E-14
 -1       665 8.34703E-03 2.52771E-03-6.60338E-14
 -1       666 8.63289E-03 2.63234E-03-7.07797E-14
 -1       667 8.91869E-03 2.73658E-03-7.56334E-14
 -1       668 9.20445E-03 2.84051E-03-8.05919E-14
 -1       669 9.49018E-03 2.94421E-03-8.56442E-14
 -1       670 9.77589E-03 3.04772E-03-9.07879E-14
 -1       671 1.00616E-02 3.15108E-03-9.60177E-14
 -1       672 1.03473E-02 3.25435E-03-1.01330E-13
 -1       673 1.06330E-02 3.35754E-03-1.06716E-13
 -1       674 1.09187E-02 3.46067E-03-1.12170E-13
 -1       675 1.12044E-02 3.56377E-03-1.17680E-13
 -1       676 1.15044E-02 3.67199E-03-1.23518E-13
 -1       677 1.17901E-02 3.77505E-03-1.29119E-13
 -1       678 1.20758E-02 3.87809E-03-1.34749E-13
 -1       679 1.23615E-02 3.98113E-03-1.40417E-13
 -1       680 1.26472E-02 4.08417E-03-1.46121E-13
 -1       681 1.29329E-02 4.18720E-03-1.51843E-13
 -1       682 1.32186E-02 4.29024E-03-1.57578E-13
 -1       683 1.35043E-02 4.39328E-03-1.63315E-13
 -1       684 1.37900E-02 4.49632E-03-1.69046E-13
 -1       685 1.40757E-02 4.59937E-03-1.74770E-13
 -1       686 1.43223E-02 4.67717E-03-1.80337E-13
 -1       687 2.52853E-03 2.04285E-04-6.56715E-15
 -1       688 1.43555E-02 4.55949E-03-1.88478E-13
 -1       689 1.40515E-02 4.30662E-03-1.90653E-13
 -1       690 1.39519E-02 4.22376E-03-1.91356E-13
 -1       691 1.38505E-02 4.13947E-03-1.92072E-13
 -1       692 1.37492E-02 4.05518E-03-1.92786E-13
 -1       693 3.86191E-03 7.29640E-04-9.98002E-15
 -1       694 3.61766E-03 6.66354E-04-9.35953E-15
 -1       695 1.84329E-03-1.08164E-04-4.11071E-15
 -1       696 3.30168E-03 5.59796E-04-8.68021E-15
 -1       697 1.19309E-03-1.69812E-04-1.74183E-15
 -1       698 1.36535E-02 3.95000E-03-1.94975E-13
 -1       699 4.61040E-04 7.75409E-05-3.49676E-16
 -1       700 2.92554E-03 3.98744E-04-7.92141E-15
 -1       701 1.42541E-02 4.47520E-03-1.89205E-13
 -1       702 1.05910E-03-2.25381E-04-1.68399E-15
 -1       703 3.92361E-03 7.91882E-04-9.35641E-15
 -1       704 3.98352E-03 7.61312E-04-1.06363E-14
 -1       705 1.44560E-02 4.64307E-03-1.87755E-13
 -1       706 1.11686E-03-2.69119E-04-1.99104E-15
 -1       707 1.62416E-03-1.71819E-04-3.41077E-15
 -1       708 1.36058E-02 3.96859E-03-1.91868E-13
 -1       709 4.73421E-03 1.10713E-03-1.80591E-14
 -1       710 4.47672E-03 1.01045E-03-1.52961E-14
 -1       711 2.38092E-03 1.15971E-04-6.61473E-15
 -1       712 2.05918E-03-1.25495E-04-6.29666E-15
 -1       713 2.38476E-03-1.31579E-05-8.25958E-15
 -1       714 2.71095E-03 1.07102E-04-1.04563E-14
 -1       715 3.03332E-03 2.25938E-04-1.28728E-14
 -1       716 3.34900E-03 3.39696E-04-1.54972E-14
 -1       717 3.65724E-03 4.48032E-04-1.83189E-14
 -1       718 3.95870E-03 5.51983E-04-2.13292E-14
 -1       719 4.25472E-03 6.52890E-04-2.45224E-14
 -1       720 4.54672E-03 7.51939E-04-2.78924E-14
 -1       721 4.83597E-03 8.50032E-04-3.14341E-14
 -1       722 5.12345E-03 9.47813E-04-3.51382E-14
 -1       723 5.40985E-03 1.04571E-03-3.89974E-14
 -1       724 5.69567E-03 1.14397E-03-4.30077E-14
 -1       725 5.98121E-03 1.24276E-03-4.71654E-14
 -1       726 6.26663E-03 1.34213E-03-5.14651E-14
 -1       727 6.55206E-03 1.44207E-03-5.58981E-14
 -1       728 6.83752E-03 1.54257E-03-6.04543E-14
 -1       729 7.12304E-03 1.64356E-03-6.51301E-14
 -1       730 7.40862E-03 1.74498E-03-6.99195E-14
 -1       731 7.69426E-03 1.84676E-03-7.48212E-14
 -1       732 7.97993E-03 1.94885E-03-7.98369E-14
 -1       733 8.26563E-03 2.05118E-03-8.49588E-14
 -1       734 8.55135E-03 2.15370E-03-9.01828E-14
 -1       735 8.83708E-03 2.25638E-03-9.55029E-14
 -1       736 9.12282E-03 2.35917E-03-1.00905E-13
 -1       737 9.40857E-03 2.46205E-03-1.06384E-13
 -1       738 9.69431E-03 2.56500E-03-1.11934E-13
 -1       739 9.98005E-03 2.66798E-03-1.17543E-13
 -1       740 1.02658E-02 2.77100E-03-1.23199E-13
 -1       741 1.05515E-02 2.87405E-03-1.28902E-13
 -1       742 1.08372E-02 2.97710E-03-1.34642E-13
 -1       743 1.11230E-02 3.08016E-03-1.40405E-13
 -1       744 1.14087E-02 3.18323E-03-1.46194E-13
 -1       745 1.16944E-02 3.28630E-03-1.52013E-13
 -1       746 1.19801E-02 3.38937E-03-1.57861E-13
 -1       747 1.22659E-02 3.49244E-03-1.63739E-13
 -1       748 1.25516E-02 3.59551E-03-1.69631E-13
 -1       749 1.28373E-02 3.69857E-03-1.75529E-13
 -1       750 1.31230E-02 3.80164E-03-1.81442E-13
 -1       751 1.33644E-02 3.88511E-03-1.86651E-13
 -1       752 1.37542E-02 4.17594E-03-1.85939E-13
 -1       753 4.99906E-03 1.20990E-03-2.10038E-14
 -1       754 5.27008E-03 1.31657E-03-2.41257E-14
 -1       755 5.54582E-03 1.42544E-03-2.74258E-14
 -1       756 5.82498E-03 1.53525E-03-3.08946E-14
 -1       757 6.10650E-03 1.64515E-03-3.45227E-14
 -1       758 6.38962E-03 1.75465E-03-3.83084E-14
 -1       759 6.67376E-03 1.86346E-03-4.22437E-14
 -1       760 6.95856E-03 1.97148E-03-4.63170E-14
 -1       761 7.25804E-03 2.08405E-03-5.07426E-14
 -1       762 7.54350E-03 2.19048E-03-5.50886E-14
 -1       763 7.82910E-03 2.29626E-03-5.95553E-14
 -1       764 8.11478E-03 2.40145E-03-6.41397E-14
 -1       765 8.40050E-03 2.50617E-03-6.88385E-14
 -1       766 8.68624E-03 2.61050E-03-7.36487E-14
 -1       767 8.97198E-03 2.71450E-03-7.85642E-14
 -1       768 9.25773E-03 2.81825E-03-8.35784E-14
 -1       769 9.54348E-03 2.92181E-03-8.86836E-14
 -1       770 9.82922E-03 3.02522E-03-9.38773E-14
 -1       771 1.01150E-02 3.12851E-03-9.91548E-14
 -1       772 1.04007E-02 3.23173E-03-1.04516E-13
 -1       773 1.06864E-02 3.33488E-03-1.09946E-13
 -1       774 1.09721E-02 3.43799E-03-1.15441E-13
 -1       775 1.12722E-02 3.54622E-03-1.21262E-13
 -1       776 1.15579E-02 3.64928E-03-1.26850E-13
 -1       777 1.18436E-02 3.75233E-03-1.32470E-13
 -1       778 1.21293E-02 3.85537E-03-1.38126E-13
 -1       779 1.24150E-02 3.95841E-03-1.43822E-13
 -1       780 1.27008E-02 4.06145E-03-1.49542E-13
 -1       781 1.29865E-02 4.16449E-03-1.55278E-13
 -1       782 1.32722E-02 4.26753E-03-1.61026E-13
 -1       783 1.35579E-02 4.37057E-03-1.66769E-13
 -1       784 1.38436E-02 4.47361E-03-1.72502E-13
 -1       785 1.36529E-02 4.09165E-03-1.86636E-13
 -1       786 1.38556E-02 4.26023E-03-1.85241E-13
 -1       787 1.35516E-02 4.00736E-03-1.87330E-13
 -1       788 2.74854E-03 2.98337E-04-8.06566E-15
 -1       789 1.48061E-03-2.64297E-04-3.40601E-15
 -1       790 2.05667E-03-3.93628E-05-5.37492E-15
 -1       791 1.34877E-03-1.98074E-04-2.36781E-15
 -1       792 4.06488E-03 7.85083E-04-1.06976E-14
 -1       793 3.52266E-03 6.39081E-04-1.02251E-14
 -1       794 1.76726E-03-2.10748E-04-4.74686E-15
 -1       795 3.78415E-03 7.20846E-04-1.08764E-14
 -1       796 4.22616E-03 9.22814E-04-1.27139E-14
 -1       797 3.21321E-03 5.16086E-04-9.57095E-15
 -1       798 3.04023E-03 4.19232E-04-9.71377E-15
 -1       799 3.93797E-03 7.62956E-04-1.15585E-14
 -1       800 1.34580E-02 3.94624E-03-1.86991E-13
 -1       801 1.40902E-02 4.55142E-03-1.78085E-13
 -1       802 1.42731E-02 4.59724E-03-1.82914E-13
 -1       803 1.41726E-02 4.51367E-03-1.83621E-13
 -1       804 1.83733E-03-1.29804E-04-4.56011E-15
 -1       805 4.06903E-03 8.07792E-04-1.07635E-14
 -1       806 1.39569E-02 4.34453E-03-1.84540E-13
 -1       807 1.40647E-02 4.42910E-03-1.84084E-13
 -1       808 1.33548E-02 3.96025E-03-1.81890E-13
 -1       809 2.64070E-03 1.39916E-04-9.34959E-15
 -1       810 2.97476E-03 2.63415E-04-1.16613E-14
 -1       811 3.29907E-03 3.77788E-04-1.41810E-14
 -1       812 3.61255E-03 4.84168E-04-1.68983E-14
 -1       813 3.91640E-03 5.85139E-04-1.98057E-14
 -1       814 4.21284E-03 6.83071E-04-2.28942E-14
 -1       815 4.50408E-03 7.79629E-04-2.61624E-14
 -1       816 4.79193E-03 8.75853E-04-2.96045E-14
 -1       817 5.07778E-03 9.72338E-04-3.32132E-14
 -1       818 5.36256E-03 1.06939E-03-3.69808E-14
 -1       819 5.64690E-03 1.16716E-03-4.08995E-14
 -1       820 5.93116E-03 1.26567E-03-4.49679E-14
 -1       821 6.21555E-03 1.36490E-03-4.91833E-14
 -1       822 6.50014E-03 1.46480E-03-5.35348E-14
 -1       823 6.78498E-03 1.56528E-03-5.80124E-14
 -1       824 7.07004E-03 1.66628E-03-6.26124E-14
 -1       825 7.35530E-03 1.76772E-03-6.73243E-14
 -1       826 7.64071E-03 1.86951E-03-7.21476E-14
 -1       827 7.92624E-03 1.97161E-03-7.70860E-14
 -1       828 8.21186E-03 2.07395E-03-8.21359E-14
 -1       829 8.49754E-03 2.17647E-03-8.72870E-14
 -1       830 8.78326E-03 2.27914E-03-9.25385E-14
 -1       831 9.06901E-03 2.38193E-03-9.78779E-14
 -1       832 9.35476E-03 2.48480E-03-1.03298E-13
 -1       833 9.64053E-03 2.58774E-03-1.08791E-13
 -1       834 9.92629E-03 2.69072E-03-1.14352E-13
 -1       835 1.02121E-02 2.79373E-03-1.19964E-13
 -1       836 1.04978E-02 2.89677E-03-1.25627E-13
 -1       837 1.07836E-02 2.99982E-03-1.31333E-13
 -1       838 1.10693E-02 3.10288E-03-1.37068E-13
 -1       839 1.13550E-02 3.20594E-03-1.42829E-13
 -1       840 1.16408E-02 3.30901E-03-1.48619E-13
 -1       841 1.19265E-02 3.41208E-03-1.54439E-13
 -1       842 1.22122E-02 3.51515E-03-1.60284E-13
 -1       843 1.24980E-02 3.61821E-03-1.66151E-13
 -1       844 1.27837E-02 3.72128E-03-1.72025E-13
 -1       845 1.30694E-02 3.82434E-03-1.77911E-13
 -1       846 2.29109E-03 4.22912E-05-6.78865E-15
 -1       847 1.43139E-03-2.32999E-04-3.01054E-15
 -1       848 5.61292E-03 1.41692E-03-2.94627E-14
 -1       849 5.88843E-03 1.52418E-03-3.30241E-14
 -1       850 6.16718E-03 1.63184E-03-3.67448E-14
 -1       851 6.44817E-03 1.73942E-03-4.06205E-14
 -1       852 6.73073E-03 1.84665E-03-4.46398E-14
 -1       853 7.02857E-03 1.95870E-03-4.90051E-14
 -1       854 7.31297E-03 2.06484E-03-5.32947E-14
 -1       855 7.59784E-03 2.17045E-03-5.77102E-14
 -1       856 7.88305E-03 2.27557E-03-6.22427E-14
 -1       857 8.16847E-03 2.38025E-03-6.68939E-14
 -1       858 8.45402E-03 2.48457E-03-7.16584E-14
 -1       859 8.73967E-03 2.58859E-03-7.65307E-14
 -1       860 9.02538E-03 2.69236E-03-8.15043E-14
 -1       861 9.31111E-03 2.79594E-03-8.65746E-14
 -1       862 9.59687E-03 2.89937E-03-9.17349E-14
 -1       863 9.88263E-03 3.00268E-03-9.69776E-14
 -1       864 1.01684E-02 3.10591E-03-1.02308E-13
 -1       865 1.04541E-02 3.20908E-03-1.07717E-13
 -1       866 1.07399E-02 3.31220E-03-1.13191E-13
 -1       867 1.10399E-02 3.42044E-03-1.18998E-13
 -1       868 1.13257E-02 3.52351E-03-1.24573E-13
 -1       869 1.16114E-02 3.62656E-03-1.30187E-13
 -1       870 1.18972E-02 3.72961E-03-1.35831E-13
 -1       871 1.21829E-02 3.83265E-03-1.41511E-13
 -1       872 1.24686E-02 3.93569E-03-1.47229E-13
 -1       873 1.27543E-02 4.03873E-03-1.52967E-13
 -1       874 1.30401E-02 4.14177E-03-1.58722E-13
 -1       875 1.33258E-02 4.24481E-03-1.64480E-13
 -1       876 1.36115E-02 4.34786E-03-1.70228E-13
 -1       877 1.34561E-02 4.04455E-03-1.81217E-13
 -1       878 1.35575E-02 4.12884E-03-1.80539E-13
 -1       879 3.73540E-03 7.03530E-04-1.19630E-14
 -1       880 4.57751E-03 1.01026E-03-1.69274E-14
 -1       881 3.46463E-03 6.02182E-04-1.12677E-14
 -1       882 4.34961E-03 9.20366E-04-1.42379E-14
 -1       883 5.34195E-03 1.31079E-03-2.60666E-14
 -1       884 2.62367E-03 2.05098E-04-8.25646E-15
 -1       885 4.82146E-03 1.10616E-03-1.97959E-14
 -1       886 5.07734E-03 1.20679E-03-2.28430E-14
 -1       887 4.14582E-03 8.21720E-04-1.24685E-14
 -1       888 1.38750E-02 4.38522E-03-1.78837E-13
 -1       889 1.32637E-02 3.88529E-03-1.82447E-13
 -1       890 1.36588E-02 4.21314E-03-1.79859E-13
 -1       891 3.90281E-03 7.55926E-04-1.26763E-14
 -1       892 3.30451E-03 5.15480E-04-1.14150E-14
 -1       893 1.39423E-02 4.47255E-03-1.76572E-13
 -1       894 2.90750E-03 3.22297E-04-9.90984E-15
 -1       895 1.37672E-02 4.30065E-03-1.79279E-13
 -1       896 2.01525E-03-8.81677E-05-5.63469E-15
 -1       897 3.26102E-03 4.21687E-04-1.28869E-14
 -1       898 3.57856E-03 5.25288E-04-1.55014E-14
 -1       899 3.88277E-03 6.21832E-04-1.83066E-14
 -1       900 4.17777E-03 7.15322E-04-2.12924E-14
 -1       901 4.46662E-03 8.08198E-04-2.44584E-14
 -1       902 4.75181E-03 9.01710E-04-2.78003E-14
 -1       903 5.03506E-03 9.96364E-04-3.13133E-14
 -1       904 5.31750E-03 1.09229E-03-3.49877E-14
 -1       905 5.59983E-03 1.18944E-03-3.88168E-14
 -1       906 5.88242E-03 1.28767E-03-4.27953E-14
 -1       907 6.16545E-03 1.38684E-03-4.69223E-14
 -1       908 6.44900E-03 1.48679E-03-5.11923E-14
 -1       909 6.73303E-03 1.58739E-03-5.55916E-14
 -1       910 7.01749E-03 1.68851E-03-6.01130E-14
 -1       911 7.30230E-03 1.79007E-03-6.47518E-14
 -1       912 7.58741E-03 1.89198E-03-6.95008E-14
 -1       913 7.87273E-03 1.99416E-03-7.43632E-14
 -1       914 8.15822E-03 2.09656E-03-7.93373E-14
 -1       915 8.44382E-03 2.19913E-03-8.44177E-14
 -1       916 8.72950E-03 2.30184E-03-8.96015E-14
 -1       917 9.01523E-03 2.40465E-03-9.48770E-14
 -1       918 9.30099E-03 2.50753E-03-1.00237E-13
 -1       919 9.58676E-03 2.61047E-03-1.05676E-13
 -1       920 9.87254E-03 2.71346E-03-1.11183E-13
 -1       921 1.01583E-02 2.81647E-03-1.16753E-13
 -1       922 1.04441E-02 2.91950E-03-1.22377E-13
 -1       923 1.07299E-02 3.02255E-03-1.28042E-13
 -1       924 1.10156E-02 3.12560E-03-1.33746E-13
 -1       925 1.13014E-02 3.22866E-03-1.39476E-13
 -1       926 1.15871E-02 3.33173E-03-1.45236E-13
 -1       927 1.18729E-02 3.43479E-03-1.51027E-13
 -1       928 1.21586E-02 3.53786E-03-1.56849E-13
 -1       929 1.24443E-02 3.64092E-03-1.62687E-13
 -1       930 1.27301E-02 3.74398E-03-1.68539E-13
 -1       931 1.30158E-02 3.84705E-03-1.74404E-13
 -1       932 5.94647E-03 1.51257E-03-3.51737E-14
 -1       933 5.67211E-03 1.40780E-03-3.15198E-14
 -1       934 6.50427E-03 1.72383E-03-4.29483E-14
 -1       935 6.80022E-03 1.83482E-03-4.72575E-14
 -1       936 7.08332E-03 1.94028E-03-5.14948E-14
 -1       937 7.36728E-03 2.04543E-03-5.58580E-14
 -1       938 7.65184E-03 2.15025E-03-6.03414E-14
 -1       939 7.93682E-03 2.25473E-03-6.49416E-14
 -1       940 8.22209E-03 2.35893E-03-6.96624E-14
 -1       941 8.50756E-03 2.46287E-03-7.44907E-14
 -1       942 8.79315E-03 2.56659E-03-7.94242E-14
 -1       943 9.07884E-03 2.67015E-03-8.44590E-14
 -1       944 9.36457E-03 2.77356E-03-8.95863E-14
 -1       945 9.65033E-03 2.87687E-03-9.47976E-14
 -1       946 9.93610E-03 2.98010E-03-1.00096E-13
 -1       947 1.02219E-02 3.08327E-03-1.05480E-13
 -1       948 1.05077E-02 3.18640E-03-1.10932E-13
 -1       949 1.08077E-02 3.29465E-03-1.16719E-13
 -1       950 1.10935E-02 3.39772E-03-1.22284E-13
 -1       951 1.13792E-02 3.50078E-03-1.27889E-13
 -1       952 1.16650E-02 3.60383E-03-1.33527E-13
 -1       953 1.19507E-02 3.70688E-03-1.39198E-13
 -1       954 1.22365E-02 3.80992E-03-1.44906E-13
 -1       955 1.25222E-02 3.91297E-03-1.50641E-13
 -1       956 1.28079E-02 4.01601E-03-1.56403E-13
 -1       957 1.30937E-02 4.11905E-03-1.62173E-13
 -1       958 1.33794E-02 4.22210E-03-1.67939E-13
 -1       959 1.32594E-02 3.99745E-03-1.75820E-13
 -1       960 4.88409E-03 1.10632E-03-2.15552E-14
 -1       961 4.41650E-03 9.28661E-04-1.57863E-14
 -1       962 1.36272E-02 4.30366E-03-1.73385E-13
 -1       963 3.74799E-03 6.85547E-04-1.36132E-14
 -1       964 5.40234E-03 1.30449E-03-2.80290E-14
 -1       965 6.22417E-03 1.61807E-03-3.89859E-14
 -1       966 4.64130E-03 1.01400E-03-1.85836E-14
 -1       967 5.13888E-03 1.20359E-03-2.47046E-14
 -1       968 4.20454E-03 8.54331E-04-1.25369E-14
 -1       969 4.13070E-03 8.24076E-04-1.36262E-14
 -1       970 4.24461E-03 8.61060E-04-1.37246E-14
 -1       971 1.33607E-02 4.08174E-03-1.75160E-13
 -1       972 3.91554E-03 7.46320E-04-1.43711E-14
 -1       973 3.60988E-03 6.11572E-04-1.37702E-14
 -1       974 1.35194E-02 4.21909E-03-1.73810E-13
 -1       975 4.44233E-03 9.29833E-04-1.73290E-14
 -1       976 3.86256E-03 6.61673E-04-1.68307E-14
 -1       977 4.15247E-03 7.48994E-04-1.97163E-14
 -1       978 4.43604E-03 8.36983E-04-2.27798E-14
 -1       979 4.71644E-03 9.27018E-04-2.60209E-14
 -1       980 4.99562E-03 1.01941E-03-2.94355E-14
 -1       981 5.27471E-03 1.11400E-03-3.30153E-14
 -1       982 5.55434E-03 1.21048E-03-3.67549E-14
 -1       983 5.83480E-03 1.30849E-03-4.06461E-14
 -1       984 6.11619E-03 1.40771E-03-4.46852E-14
 -1       985 6.39846E-03 1.50785E-03-4.88696E-14
 -1       986 6.68154E-03 1.60871E-03-5.31888E-14
 -1       987 6.96529E-03 1.71011E-03-5.76324E-14
 -1       988 7.24959E-03 1.81193E-03-6.21972E-14
 -1       989 7.53432E-03 1.91405E-03-6.68757E-14
 -1       990 7.81939E-03 2.01642E-03-7.16654E-14
 -1       991 8.10470E-03 2.11896E-03-7.65649E-14
 -1       992 8.39019E-03 2.22164E-03-8.15741E-14
 -1       993 8.67581E-03 2.32443E-03-8.66875E-14
 -1       994 8.96150E-03 2.42730E-03-9.18990E-14
 -1       995 9.24725E-03 2.53022E-03-9.71994E-14
 -1       996 9.53302E-03 2.63318E-03-1.02581E-13
 -1       997 9.81881E-03 2.73618E-03-1.08035E-13
 -1       998 1.01046E-02 2.83920E-03-1.13558E-13
 -1       999 1.03904E-02 2.94224E-03-1.19141E-13
 -1      1000 1.06762E-02 3.04528E-03-1.24770E-13
 -1      1001 1.09619E-02 3.14834E-03-1.30437E-13
 -1      1002 1.12477E-02 3.25139E-03-1.36138E-13
 -1      1003 1.15335E-02 3.35445E-03-1.41868E-13
 -1      1004 1.18192E-02 3.45751E-03-1.47631E-13
 -1      1005 1.21050E-02 3.56057E-03-1.53423E-13
 -1      1006 1.23907E-02 3.66363E-03-1.59242E-13
 -1      1007 1.26764E-02 3.76670E-03-1.65073E-13
 -1      1008 1.29679E-02 3.88207E-03-1.70450E-13
 -1      1009 7.13720E-03 1.92139E-03-5.39963E-14
 -1      1010 5.72549E-03 1.39685E-03-3.35978E-14
 -1      1011 6.85421E-03 1.81701E-03-4.96818E-14
 -1      1012 6.55837E-03 1.70742E-03-4.52901E-14
 -1      1013 7.42104E-03 2.02565E-03-5.84315E-14
 -1      1014 7.70551E-03 2.12974E-03-6.29831E-14
 -1      1015 7.99042E-03 2.23366E-03-6.76571E-14
 -1      1016 8.27564E-03 2.33741E-03-7.24433E-14
 -1      1017 8.56108E-03 2.44101E-03-7.73356E-14
 -1      1018 8.84667E-03 2.54448E-03-8.23342E-14
 -1      1019 9.13234E-03 2.64784E-03-8.74266E-14
 -1      1020 9.41808E-03 2.75112E-03-9.26123E-14
 -1      1021 9.70385E-03 2.85433E-03-9.78809E-14
 -1      1022 9.98964E-03 2.95749E-03-1.03235E-13
 -1      1023 1.02754E-02 3.06061E-03-1.08665E-13
 -1      1024 1.05755E-02 3.16886E-03-1.14432E-13
 -1      1025 1.08613E-02 3.27193E-03-1.19981E-13
 -1      1026 1.11471E-02 3.37500E-03-1.25580E-13
 -1      1027 1.14328E-02 3.47805E-03-1.31212E-13
 -1      1028 1.17186E-02 3.58110E-03-1.36879E-13
 -1      1029 1.20043E-02 3.68415E-03-1.42574E-13
 -1      1030 1.22901E-02 3.78720E-03-1.48310E-13
 -1      1031 1.25758E-02 3.89024E-03-1.54072E-13
 -1      1032 1.28616E-02 3.99329E-03-1.59850E-13
 -1      1033 1.31473E-02 4.09634E-03-1.65631E-13
 -1      1034 1.34400E-02 4.15042E-03-1.74487E-13
 -1      1035 4.28201E-03 8.74636E-04-1.54366E-14
 -1      1036 1.33333E-02 4.15771E-03-1.69719E-13
 -1      1037 5.45455E-03 1.29581E-03-3.00122E-14
 -1      1038 4.67863E-03 1.01258E-03-2.02236E-14
 -1      1039 6.00040E-03 1.49955E-03-3.73453E-14
 -1      1040 4.11465E-03 8.17573E-04-1.49146E-14
 -1      1041 6.27828E-03 1.60323E-03-4.12458E-14
 -1      1042 1.30692E-02 3.96637E-03-1.69805E-13
 -1      1043 3.97592E-03 7.30258E-04-1.66702E-14
 -1      1044 4.92771E-03 1.10198E-03-2.32959E-14
 -1      1045 5.18890E-03 1.19739E-03-2.65896E-14
 -1      1046 6.33040E-03 1.58700E-03-4.35219E-14
 -1      1047 4.41389E-03 8.64495E-04-2.11255E-14
 -1      1048 4.68635E-03 9.50672E-04-2.42661E-14
 -1      1049 4.95953E-03 1.04059E-03-2.75803E-14
 -1      1050 5.23396E-03 1.13389E-03-3.10652E-14
 -1      1051 5.51012E-03 1.22982E-03-3.47110E-14
 -1      1052 5.78799E-03 1.32778E-03-3.85144E-14
 -1      1053 6.06744E-03 1.42725E-03-4.24686E-14
 -1      1054 6.34828E-03 1.52779E-03-4.65668E-14
 -1      1055 6.63030E-03 1.62911E-03-5.08037E-14
 -1      1056 6.91328E-03 1.73096E-03-5.51701E-14
 -1      1057 7.19703E-03 1.83318E-03-5.96573E-14
 -1      1058 7.48137E-03 1.93566E-03-6.42633E-14
 -1      1059 7.76617E-03 2.03832E-03-6.89854E-14
 -1      1060 8.05129E-03 2.14109E-03-7.38150E-14
 -1      1061 8.33666E-03 2.24396E-03-7.87528E-14
 -1      1062 8.62219E-03 2.34688E-03-8.37958E-14
 -1      1063 8.90784E-03 2.44985E-03-8.89407E-14
 -1      1064 9.19356E-03 2.55284E-03-9.41829E-14
 -1      1065 9.47932E-03 2.65585E-03-9.95059E-14
 -1      1066 9.76511E-03 2.75888E-03-1.04906E-13
 -1      1067 1.00509E-02 2.86192E-03-1.10378E-13
 -1      1068 1.03367E-02 2.96497E-03-1.15917E-13
 -1      1069 1.06225E-02 3.06802E-03-1.21508E-13
 -1      1070 1.09083E-02 3.17107E-03-1.27143E-13
 -1      1071 1.11941E-02 3.27413E-03-1.32811E-13
 -1      1072 1.14798E-02 3.37718E-03-1.38511E-13
 -1      1073 1.17656E-02 3.48024E-03-1.44245E-13
 -1      1074 1.20513E-02 3.58330E-03-1.50010E-13
 -1      1075 1.23371E-02 3.68635E-03-1.55802E-13
 -1      1076 1.26228E-02 3.78941E-03-1.61618E-13
 -1      1077 1.28460E-02 3.87789E-03-1.65714E-13
 -1      1078 7.19042E-03 1.90187E-03-5.65110E-14
 -1      1079 6.62512E-03 1.69510E-03-4.78576E-14
 -1      1080 7.75893E-03 2.10887E-03-6.56450E-14
 -1      1081 8.04389E-03 2.21231E-03-7.03885E-14
 -1      1082 8.32914E-03 2.31568E-03-7.52386E-14
 -1      1083 8.61461E-03 2.41899E-03-8.01967E-14
 -1      1084 8.90021E-03 2.52224E-03-8.52576E-14
 -1      1085 9.18590E-03 2.62544E-03-9.04116E-14
 -1      1086 9.47165E-03 2.72860E-03-9.56575E-14
 -1      1087 9.75743E-03 2.83173E-03-1.00983E-13
 -1      1088 1.00432E-02 2.93483E-03-1.06390E-13
 -1      1089 1.03433E-02 3.04307E-03-1.12138E-13
 -1      1090 1.06291E-02 3.14614E-03-1.17673E-13
 -1      1091 1.09149E-02 3.24921E-03-1.23259E-13
 -1      1092 1.12007E-02 3.35226E-03-1.28886E-13
 -1      1093 1.14864E-02 3.45532E-03-1.34548E-13
 -1      1094 1.17722E-02 3.55837E-03-1.40240E-13
 -1      1095 1.20579E-02 3.66142E-03-1.45965E-13
 -1      1096 1.23437E-02 3.76447E-03-1.51726E-13
 -1      1097 1.26294E-02 3.86752E-03-1.57512E-13
 -1      1098 1.29152E-02 3.97057E-03-1.63306E-13
 -1      1099 5.50183E-03 1.28401E-03-3.20195E-14
 -1      1100 6.90725E-03 1.79841E-03-5.21220E-14
 -1      1101 4.19672E-03 7.96832E-04-1.88460E-14
 -1      1102 4.28534E-03 8.69516E-04-1.67871E-14
 -1      1103 7.47439E-03 2.00538E-03-6.10183E-14
 -1      1104 5.77519E-03 1.38351E-03-3.56996E-14
 -1      1105 4.52815E-03 9.46661E-04-1.96511E-14
 -1      1106 4.20585E-03 8.31537E-04-1.72094E-14
 -1      1107 6.05160E-03 1.48471E-03-3.95367E-14
 -1      1108 4.78032E-03 1.03106E-03-2.26920E-14
 -1      1109 1.32540E-02 4.08904E-03-1.70385E-13
 -1      1110 5.23242E-03 1.18698E-03-2.85007E-14
 -1      1111 1.31616E-02 4.02771E-03-1.70097E-13
 -1      1112 1.30846E-02 4.02980E-03-1.66843E-13
 -1      1113 5.54692E-03 1.26907E-03-3.40494E-14
 -1      1114 8.38263E-03 2.29371E-03-7.80503E-14
 -1      1115 4.92594E-03 1.05863E-03-2.57499E-14
 -1      1116 5.82301E-03 1.36776E-03-3.78223E-14
 -1      1117 6.10130E-03 1.46801E-03-4.17461E-14
 -1      1118 6.38138E-03 1.56932E-03-4.58134E-14
 -1      1119 6.66289E-03 1.67133E-03-5.00210E-14
 -1      1120 6.94554E-03 1.77380E-03-5.43572E-14
 -1      1121 7.22907E-03 1.87654E-03-5.88143E-14
 -1      1122 7.51326E-03 1.97944E-03-6.33911E-14
 -1      1123 7.79796E-03 2.08244E-03-6.80862E-14
 -1      1124 8.66815E-03 2.39679E-03-8.30735E-14
 -1      1125 8.95379E-03 2.49987E-03-8.81967E-14
 -1      1126 9.23951E-03 2.60294E-03-9.34155E-14
 -1      1127 9.52527E-03 2.70601E-03-9.87184E-14
 -1      1128 9.81106E-03 2.80908E-03-1.04098E-13
 -1      1129 1.00969E-02 2.91214E-03-1.09554E-13
 -1      1130 1.03827E-02 3.01520E-03-1.15072E-13
 -1      1131 1.06684E-02 3.11826E-03-1.20646E-13
 -1      1132 1.09542E-02 3.22132E-03-1.26266E-13
 -1      1133 1.12400E-02 3.32437E-03-1.31922E-13
 -1      1134 1.15258E-02 3.42743E-03-1.37609E-13
 -1      1135 1.18115E-02 3.53048E-03-1.43327E-13
 -1      1136 1.20973E-02 3.63354E-03-1.49081E-13
 -1      1137 1.23830E-02 3.73659E-03-1.54863E-13
 -1      1138 1.26688E-02 3.83964E-03-1.60667E-13
 -1      1139 5.00377E-03 1.10740E-03-2.55286E-14
 -1      1140 8.04760E-03 2.17679E-03-7.21041E-14
 -1      1141 1.29384E-02 3.93923E-03-1.66012E-13
 -1      1142 4.45844E-03 9.05796E-04-2.01958E-14
 -1      1143 0.00000E+00 0.00000E+00 0.00000E+00
 -1      1144 0.00000E+00 0.00000E+00 0.00000E+00
 -1      1145 0.00000E+00 0.00000E+00 0.00000E+00
 -1      1146 0.00000E+00 0.00000E+00 0.00000E+00
 -1      1147 0.00000E+00 0.00000E+00 0.00000E+00
 -1      1148 0.00000E+00 0.00000E+00 0.00000E+00
 -1      1149 0.00000E+00 0.00000E+00 0.00000E+00
 -1      1150 0.00000E+00 0.00000E+00 0.00000E+00
 -1      1151 0.00000E+00 0.00000E+00 0.00000E+00
 -1      1152 0.00000E+00 0.00000E+00 0.00000E+00
 -1      1153 0.00000E+00 0.00000E+00 0.00000E+00
 -1      1154 0.00000E+00 0.00000E+00 0.00000E+00
 -1      1155 0.00000E+00 0.00000E+00 0.00000E+00
 -1      1156 0.00000E+00 0.00000E+00 0.00000E+00
 -1      1157 0.00000E+00 0.00000E+00 0.00000E+00
 -1      1158 0.00000E+00 0.00000E+00 0.00000E+00
 -1      1159 0.00000E+00 0.00000E+00 0.00000E+00
 -1      1160 0.00000E+00 0.00000E+00 0.00000E+00
 -1      1161 2.21378E-04-1.67651E-04 4.89246E-18
 -1      1162 5.60416E-04-3.86388E-04-1.83623E-16
 -1      1163 8.24223E-04-5.13611E-04-6.58124E-16
 -1      1164 1.06912E-03-5.75073E-04-1.46434E-15
 -1      1165 1.30732E-03-5.85716E-04-2.57342E-15
 -1      1166 1.54704E-03-5.54791E-04-3.97156E-15
 -1      1167 1.79403E-03-4.90726E-04-5.64711E-15
 -1      1168 2.05163E-03-4.02268E-04-7.58792E-15
 -1      1169 2.32075E-03-2.98058E-04-9.78411E-15
 -1      1170 2.60035E-03-1.85600E-04-1.22227E-14
 -1      1171 2.88814E-03-7.05260E-05-1.48897E-14
 -1      1172 3.18140E-03 4.35966E-05-1.77707E-14
 -1      1173 3.47758E-03 1.54982E-04-2.08504E-14
 -1      1174 3.77467E-03 2.63126E-04-2.41231E-14
 -1      1175 4.07129E-03 3.68293E-04-2.75782E-14
 -1      1176 4.36662E-03 4.71106E-04-3.12077E-14
 -1      1177 4.66031E-03 5.72281E-04-3.50038E-14
 -1      1178 4.95229E-03 6.72468E-04-3.89567E-14
 -1      1179 5.24270E-03 7.72192E-04-4.30598E-14
 -1      1180 5.53176E-03 8.71835E-04-4.73084E-14
 -1      1181 5.81973E-03 9.71648E-04-5.16984E-14
 -1      1182 6.10686E-03 1.07178E-03-5.62265E-14
 -1      1183 6.39336E-03 1.17230E-03-6.08857E-14
 -1      1184 6.67942E-03 1.27323E-03-6.56712E-14
 -1      1185 6.96518E-03 1.37454E-03-7.05772E-14
 -1      1186 7.25075E-03 1.47621E-03-7.55978E-14
 -1      1187 7.53622E-03 1.57818E-03-8.07286E-14
 -1      1188 7.82164E-03 1.68041E-03-8.59711E-14
 -1      1189 8.10704E-03 1.78285E-03-9.13269E-14
 -1      1190 8.39247E-03 1.88545E-03-9.67871E-14
 -1      1191 8.67791E-03 1.98819E-03-1.02333E-13
 -1      1192 8.96339E-03 2.09102E-03-1.07960E-13
 -1      1193 9.24891E-03 2.19393E-03-1.13651E-13
 -1      1194 9.53446E-03 2.29689E-03-1.19386E-13
 -1      1195 9.82004E-03 2.39989E-03-1.25149E-13
 -1      1196 1.01056E-02 2.50292E-03-1.30943E-13
 -1      1197 1.03913E-02 2.60597E-03-1.36761E-13
 -1      1198 1.06769E-02 2.70902E-03-1.42595E-13
 -1      1199 1.09626E-02 2.81209E-03-1.48458E-13
 -1      1200 1.12483E-02 2.91516E-03-1.54356E-13
 -1      1201 1.15340E-02 3.01822E-03-1.60305E-13
 -1      1202 1.18197E-02 3.12129E-03-1.66296E-13
 -1      1203 1.21054E-02 3.22436E-03-1.72308E-13
 -1      1204 1.23911E-02 3.32743E-03-1.78340E-13
 -1      1205 1.26768E-02 3.43049E-03-1.84384E-13
 -1      1206 1.29625E-02 3.53355E-03-1.90425E-13
 -1      1207 1.32482E-02 3.63661E-03-1.96457E-13
 -1      1208 1.35339E-02 3.73967E-03-2.02465E-13
 -1      1209 1.38196E-02 3.84273E-03-2.08472E-13
 -1      1210 1.40982E-02 3.94321E-03-2.14347E-13
 -1      1211 3.81945E-04 2.37408E-04 4.19315E-17
 -1      1212 9.47183E-04 5.50060E-04-2.96258E-17
 -1      1213 1.40293E-03 8.56051E-04-2.90566E-16
 -1      1214 1.78510E-03 1.15078E-03-7.83485E-16
 -1      1215 2.11103E-03 1.38004E-03-1.57434E-15
 -1      1216 2.41046E-03 1.47104E-03-2.68995E-15
 -1      1217 2.73496E-03 1.43544E-03-4.10609E-15
 -1      1218 3.10826E-03 1.35243E-03-5.80054E-15
 -1      1219 3.52406E-03 1.29068E-03-7.79913E-15
 -1      1220 3.94382E-03 1.28143E-03-1.00385E-14
 -1      1221 4.33825E-03 1.31977E-03-1.24325E-14
 -1      1222 4.71097E-03 1.39109E-03-1.50221E-14
 -1      1223 5.06241E-03 1.48263E-03-1.78059E-14
 -1      1224 5.39595E-03 1.58534E-03-2.07859E-14
 -1      1225 5.71558E-03 1.69358E-03-2.39471E-14
 -1      1226 6.02489E-03 1.80412E-03-2.72782E-14
 -1      1227 6.32673E-03 1.91518E-03-3.07714E-14
 -1      1228 6.62327E-03 2.02586E-03-3.44275E-14
 -1      1229 6.91610E-03 2.13574E-03-3.82385E-14
 -1      1230 7.20635E-03 2.24469E-03-4.22015E-14
 -1      1231 7.49483E-03 2.35268E-03-4.63108E-14
 -1      1232 7.78212E-03 2.45980E-03-5.05644E-14
 -1      1233 8.07577E-03 2.56879E-03-5.50551E-14
 -1      1234 8.36889E-03 2.67708E-03-5.96740E-14
 -1      1235 8.65455E-03 2.78216E-03-6.43049E-14
 -1      1236 8.94003E-03 2.88677E-03-6.90310E-14
 -1      1237 9.22543E-03 2.99102E-03-7.38544E-14
 -1      1238 9.51079E-03 3.09496E-03-7.87807E-14
 -1      1239 9.79615E-03 3.19868E-03-8.38208E-14
 -1      1240 1.00815E-02 3.30220E-03-8.89491E-14
 -1      1241 1.03670E-02 3.40559E-03-9.41569E-14
 -1      1242 1.06524E-02 3.50888E-03-9.94457E-14
 -1      1243 1.09379E-02 3.61208E-03-1.04809E-13
 -1      1244 1.12235E-02 3.71523E-03-1.10235E-13
 -1      1245 1.15091E-02 3.81834E-03-1.15725E-13
 -1      1246 1.17947E-02 3.92142E-03-1.21262E-13
 -1      1247 1.20874E-02 4.02706E-03-1.26984E-13
 -1      1248 1.23802E-02 4.13269E-03-1.32750E-13
 -1      1249 1.26659E-02 4.23573E-03-1.38420E-13
 -1      1250 1.29516E-02 4.33877E-03-1.44102E-13
 -1      1251 1.32373E-02 4.44181E-03-1.49806E-13
 -1      1252 1.35230E-02 4.54486E-03-1.55537E-13
 -1      1253 1.38087E-02 4.64790E-03-1.61261E-13
 -1      1254 1.40944E-02 4.75094E-03-1.66952E-13
 -1      1255 1.43801E-02 4.85398E-03-1.72640E-13
 -1      1256 1.46658E-02 4.95703E-03-1.78306E-13
 -1      1257 1.49515E-02 5.06008E-03-1.83956E-13
 -1      1258 1.52372E-02 5.16313E-03-1.89618E-13
 -1      1259 1.55229E-02 5.26618E-03-1.95293E-13
 -1      1260 1.58086E-02 5.36923E-03-2.00966E-13
 -1      1261 1.59008E-02 5.37861E-03-2.04180E-13
 -1      1262 1.57995E-02 5.29433E-03-2.04950E-13
 -1      1263 1.56982E-02 5.21004E-03-2.05743E-13
 -1      1264 1.55968E-02 5.12576E-03-2.06525E-13
 -1      1265 1.54955E-02 5.04147E-03-2.07299E-13
 -1      1266 1.53950E-02 4.95790E-03-2.08079E-13
 -1      1267 1.52945E-02 4.87432E-03-2.08871E-13
 -1      1268 1.51932E-02 4.79004E-03-2.09650E-13
 -1      1269 1.50919E-02 4.70575E-03-2.10435E-13
 -1      1270 1.49905E-02 4.62146E-03-2.11244E-13
 -1      1271 1.48892E-02 4.53717E-03-2.12061E-13
 -1      1272 1.47887E-02 4.45359E-03-2.12892E-13
 -1      1273 1.46882E-02 4.37002E-03-2.13726E-13
 -1      1274 1.45869E-02 4.28574E-03-2.14534E-13
 -1      1275 1.44856E-02 4.20145E-03-2.15320E-13
 -1      1276 1.43842E-02 4.11716E-03-2.16095E-13
 -1      1277 1.42837E-02 4.03359E-03-2.16850E-13
 -1      1278 3.91530E-03 6.93848E-04-5.61729E-15
 -1      1279 3.81852E-03 8.08427E-04-5.36598E-15
 -1      1280 3.60074E-03 9.21665E-04-4.94875E-15
 -1      1281 3.28565E-03 1.02789E-03-4.41152E-15
 -1      1282 2.91814E-03 1.10790E-03-3.83661E-15
 -1      1283 2.50200E-03 1.14624E-03-3.23271E-15
 -1      1284 2.04486E-03 1.11765E-03-2.61697E-15
 -1      1285 1.54286E-03 9.96756E-04-1.99100E-15
 -1      1286 1.05518E-03 7.97713E-04-1.43264E-15
 -1      1287 6.36922E-04 5.66174E-04-9.80092E-16
 -1      1288 3.16086E-04 3.56298E-04-6.31304E-16
 -1      1289 1.20580E-04 2.13786E-04-3.99196E-16
 -1      1290 2.24025E-05 1.32932E-04-2.54118E-16
 -1      1291-4.59448E-06 1.00876E-04-1.88302E-16
 -1      1292 1.61652E-05 9.45763E-05-1.92891E-16
 -1      1293 8.19430E-05 9.24952E-05-2.69441E-16
 -1      1294 2.10494E-04 7.92076E-05-4.35876E-16
 -1      1295 4.12629E-04 4.75974E-05-7.04054E-16
 -1      1296 6.76216E-04 2.82218E-06-1.06192E-15
 -1      1297 1.00095E-03-4.37698E-05-1.51973E-15
 -1      1298 1.37070E-03-7.49439E-05-2.06557E-15
 -1      1299 1.78004E-03-7.38248E-05-2.69340E-15
 -1      1300 2.19770E-03-3.28219E-05-3.34658E-15
 -1      1301 2.60933E-03 4.80860E-05-3.98610E-15
 -1      1302 2.98377E-03 1.51798E-04-4.54998E-15
 -1      1303 3.29343E-03 2.58816E-04-4.99056E-15
 -1      1304 3.55566E-03 3.68038E-04-5.33650E-15
 -1      1305 3.75774E-03 4.75069E-04-5.57115E-15
 -1      1306 3.88535E-03 5.80475E-04-5.67601E-15
 -1      1307 1.68389E-04-1.28765E-04-4.07796E-17
 -1      1308 1.17359E-04-7.55261E-05-8.38901E-17
 -1      1309 1.20462E-04-8.43480E-05-7.16387E-17
 -1      1310 1.19137E-04-6.36332E-05-1.00966E-16
 -1      1311 1.18151E-04-6.92916E-05-9.59654E-17
 -1      1312 2.38564E-04-1.42621E-04-2.28021E-16
 -1      1313 1.23708E-04-5.30839E-05-1.08271E-16
 -1      1314 1.21496E-04-5.84170E-05-1.06753E-16
 -1      1315 2.43490E-04-1.18896E-04-2.57444E-16
 -1      1316 1.28988E-04-4.04943E-05-1.09206E-16
 -1      1317 1.26532E-04-4.69510E-05-1.09830E-16
 -1      1318 2.53399E-04-9.70923E-05-2.68652E-16
 -1      1319 1.33155E-04-2.23965E-05-1.05262E-16
 -1      1320 1.31652E-04-3.15818E-05-1.07187E-16
 -1      1321 2.64945E-04-7.09701E-05-2.66849E-16
 -1      1322 1.32319E-04 4.69906E-06-9.76460E-17
 -1      1323 1.34179E-04-8.55232E-06-1.00628E-16
 -1      1324 2.73920E-04-3.40768E-05-2.54693E-16
 -1      1325 1.20989E-04 3.70360E-05-8.64516E-17
 -1      1326 1.28933E-04 2.24286E-05-8.97042E-17
 -1      1327 2.70927E-04 1.61814E-05-2.33212E-16
 -1      1328 9.39965E-05 6.63107E-05-7.17877E-17
 -1      1329 1.09773E-04 5.50599E-05-7.53521E-17
 -1      1330 2.42059E-04 7.35941E-05-2.02664E-16
 -1      1331 5.43737E-05 7.58372E-05-5.46031E-17
 -1      1332 7.40879E-05 7.52182E-05-5.78354E-17
 -1      1333 1.75515E-04 1.18877E-04-1.62793E-16
 -1      1334 8.56125E-06 1.73042E-05-2.72914E-17
 -1      1335 9.70544E-06 2.59662E-05-2.66172E-17
 -1      1336 1.72655E-05-8.35259E-06-3.11234E-17
 -1      1337 1.08832E-05-3.49269E-08-2.98088E-17
 -1      1338 1.39589E-05 1.88067E-05-6.41780E-17
 -1      1339 3.95556E-05-2.16189E-05-3.69713E-17
 -1      1340 2.75716E-05-1.95137E-05-3.64563E-17
 -1      1341 4.22716E-05-1.90152E-05-7.65786E-17
 -1      1342 6.75861E-05-1.54471E-05-4.04543E-17
 -1      1343 5.38975E-05-2.13389E-05-4.16334E-17
 -1      1344 9.62667E-05-2.96540E-05-8.98668E-17
 -1      1345 9.38450E-05 8.29270E-06-3.70391E-17
 -1      1346 8.11127E-05-3.92226E-06-4.09286E-17
 -1      1347 1.56887E-04-3.51642E-06-9.38241E-17
 -1      1348 1.18403E-04 4.27783E-05-2.30393E-17
 -1      1349 1.05191E-04 2.60968E-05-3.15232E-17
 -1      1350 2.09022E-04 5.15641E-05-8.04885E-17
 -1      1351 2.23127E-04 1.27710E-04 6.69495E-18
 -1      1352 1.83711E-04 8.71998E-05-1.53957E-17
 -1      1353 3.07755E-04 1.43363E-04-6.02816E-17
 -1      1354 5.29091E-04 3.04130E-04-1.97325E-17
 -1      1355 4.26119E-04-3.06384E-04-1.96254E-16
 -1      1356 5.77622E-04-3.91334E-04-3.59752E-16
 -1      1357 7.20493E-04-4.55230E-04-6.12954E-16
 -1      1358 8.57632E-04-5.01330E-04-9.46536E-16
 -1      1359 6.17553E-04-3.88886E-04-5.59557E-16
 -1      1360 9.90240E-04-5.32584E-04-1.35475E-15
 -1      1361 1.11982E-03-5.49998E-04-1.83898E-15
 -1      1362 9.06336E-04-4.83823E-04-1.23965E-15
 -1      1363 1.24765E-03-5.55472E-04-2.39662E-15
 -1      1364 1.37472E-03-5.49604E-04-3.02739E-15
 -1      1365 1.18072E-03-5.20411E-04-2.21756E-15
 -1      1366 1.50192E-03-5.33851E-04-3.72829E-15
 -1      1367 1.62989E-03-5.08984E-04-4.49857E-15
 -1      1368 1.44876E-03-5.09325E-04-3.48380E-15
 -1      1369 1.75922E-03-4.76317E-04-5.33707E-15
 -1      1370 1.89026E-03-4.36836E-04-6.24217E-15
 -1      1371 1.71649E-03-4.59453E-04-5.02742E-15
 -1      1372 2.02330E-03-3.91819E-04-7.21244E-15
 -1      1373 2.15845E-03-3.42304E-04-8.24652E-15
 -1      1374 1.98795E-03-3.79903E-04-6.83839E-15
 -1      1375 2.29575E-03-2.89424E-04-9.34273E-15
 -1      1376 2.43511E-03-2.34115E-04-1.05001E-14
 -1      1377 2.26517E-03-2.80109E-04-8.90466E-15
 -1      1378 2.57637E-03-1.77243E-04-1.17172E-14
 -1      1379 2.71934E-03-1.19536E-04-1.29911E-14
 -1      1380 2.54849E-03-1.68749E-04-1.12151E-14
 -1      1381 2.86376E-03-6.15422E-05-1.43203E-14
 -1      1382 3.00938E-03-3.74868E-06-1.57043E-14
 -1      1383 2.83707E-03-5.27360E-05-1.37566E-14
 -1      1384 3.15594E-03 5.35826E-05-1.71402E-14
 -1      1385 3.30318E-03 1.10177E-04-1.86266E-14
 -1      1386 3.12948E-03 6.32579E-05-1.65158E-14
 -1      1387 3.45089E-03 1.65985E-04-2.01625E-14
 -1      1388 3.59886E-03 2.20889E-04-2.17465E-14
 -1      1389 3.42414E-03 1.76666E-04-1.94799E-14
 -1      1390 3.74691E-03 2.74964E-04-2.33786E-14
 -1      1391 3.89492E-03 3.28196E-04-2.50567E-14
 -1      1392 3.71967E-03 2.86536E-04-2.26397E-14
 -1      1393 4.04276E-03 3.80712E-04-2.67787E-14
 -1      1394 4.19035E-03 4.32555E-04-2.85452E-14
 -1      1395 4.01502E-03 3.92947E-04-2.59851E-14
 -1      1396 4.33764E-03 4.83859E-04-3.03547E-14
 -1      1397 4.48457E-03 5.34690E-04-3.22068E-14
 -1      1398 4.30952E-03 4.96509E-04-2.95082E-14
 -1      1399 4.63114E-03 5.85163E-04-3.40993E-14
 -1      1400 4.77733E-03 6.35347E-04-3.60307E-14
 -1      1401 4.60279E-03 5.98011E-04-3.32007E-14
 -1      1402 4.92315E-03 6.85332E-04-3.80019E-14
 -1      1403 5.06861E-03 7.35176E-04-4.00112E-14
 -1      1404 4.89471E-03 6.98210E-04-3.70536E-14
 -1      1405 5.21373E-03 7.84942E-04-4.20577E-14
 -1      1406 5.35853E-03 8.34676E-04-4.41407E-14
 -1      1407 5.18532E-03 7.97737E-04-4.10614E-14
 -1      1408 5.50304E-03 8.84417E-04-4.62599E-14
 -1      1409 5.64728E-03 9.34199E-04-4.84148E-14
 -1      1410 5.47473E-03 8.97063E-04-4.52174E-14
 -1      1411 5.79129E-03 9.84042E-04-5.06037E-14
 -1      1412 5.93508E-03 1.03397E-03-5.28281E-14
 -1      1413 5.76314E-03 9.96508E-04-4.95156E-14
 -1      1414 6.07869E-03 1.08399E-03-5.50866E-14
 -1      1415 6.22214E-03 1.13411E-03-5.73774E-14
 -1      1416 6.05073E-03 1.09627E-03-5.39529E-14
 -1      1417 6.36546E-03 1.18434E-03-5.97014E-14
 -1      1418 6.50865E-03 1.23467E-03-6.20573E-14
 -1      1419 6.33768E-03 1.19644E-03-5.85246E-14
 -1      1420 6.65175E-03 1.28511E-03-6.44442E-14
 -1      1421 6.79476E-03 1.33566E-03-6.68608E-14
 -1      1422 6.62415E-03 1.29705E-03-6.32231E-14
 -1      1423 6.93771E-03 1.38630E-03-6.93078E-14
 -1      1424 7.08060E-03 1.43704E-03-7.17841E-14
 -1      1425 6.91027E-03 1.39810E-03-6.80459E-14
 -1      1426 7.22345E-03 1.48786E-03-7.42888E-14
 -1      1427 7.36626E-03 1.53877E-03-7.68194E-14
 -1      1428 7.19615E-03 1.49955E-03-7.29850E-14
 -1      1429 7.50905E-03 1.58975E-03-7.93794E-14
 -1      1430 7.65182E-03 1.64080E-03-8.19671E-14
 -1      1431 7.48186E-03 1.60135E-03-7.80368E-14
 -1      1432 7.79457E-03 1.69191E-03-8.45814E-14
 -1      1433 7.93732E-03 1.74308E-03-8.72254E-14
 -1      1434 7.76748E-03 1.70344E-03-8.31994E-14
 -1      1435 8.08006E-03 1.79430E-03-8.98953E-14
 -1      1436 8.22280E-03 1.84556E-03-9.25917E-14
 -1      1437 8.05305E-03 1.80577E-03-8.84710E-14
 -1      1438 8.36554E-03 1.89687E-03-9.53133E-14
 -1      1439 8.50829E-03 1.94821E-03-9.80573E-14
 -1      1440 8.33859E-03 1.90830E-03-9.38480E-14
 -1      1441 8.65103E-03 1.99958E-03-1.00823E-13
 -1      1442 8.79379E-03 2.05097E-03-1.03607E-13
 -1      1443 8.62413E-03 2.01098E-03-9.93195E-14
 -1      1444 8.93655E-03 2.10239E-03-1.06411E-13
 -1      1445 9.07931E-03 2.15383E-03-1.09234E-13
 -1      1446 8.90967E-03 2.11377E-03-1.04873E-13
 -1      1447 9.22208E-03 2.20529E-03-1.12068E-13
 -1      1448 9.36486E-03 2.25676E-03-1.14916E-13
 -1      1449 9.19523E-03 2.21665E-03-1.10496E-13
 -1      1450 9.50765E-03 2.30824E-03-1.17777E-13
 -1      1451 9.65044E-03 2.35974E-03-1.20647E-13
 -1      1452 9.48082E-03 2.31960E-03-1.16176E-13
 -1      1453 9.79324E-03 2.41124E-03-1.23523E-13
 -1      1454 9.93604E-03 2.46275E-03-1.26407E-13
 -1      1455 9.76642E-03 2.42259E-03-1.21901E-13
 -1      1456 1.00789E-02 2.51426E-03-1.29299E-13
 -1      1457 1.02217E-02 2.56578E-03-1.32199E-13
 -1      1458 1.00520E-02 2.52561E-03-1.27661E-13
 -1      1459 1.03645E-02 2.61731E-03-1.35101E-13
 -1      1460 1.05073E-02 2.66884E-03-1.38010E-13
 -1      1461 1.03377E-02 2.62865E-03-1.33448E-13
 -1      1462 1.06501E-02 2.72037E-03-1.40926E-13
 -1      1463 1.07930E-02 2.77190E-03-1.43849E-13
 -1      1464 1.06233E-02 2.73171E-03-1.39259E-13
 -1      1465 1.09358E-02 2.82343E-03-1.46776E-13
 -1      1466 1.10786E-02 2.87496E-03-1.49710E-13
 -1      1467 1.09090E-02 2.83477E-03-1.45096E-13
 -1      1468 1.12215E-02 2.92650E-03-1.52656E-13
 -1      1469 1.13643E-02 2.97803E-03-1.55613E-13
 -1      1470 1.11947E-02 2.93784E-03-1.50961E-13
 -1      1471 1.15072E-02 3.02957E-03-1.58581E-13
 -1      1472 1.16500E-02 3.08110E-03-1.61560E-13
 -1      1473 1.14804E-02 3.04091E-03-1.56863E-13
 -1      1474 1.17929E-02 3.13264E-03-1.64548E-13
 -1      1475 1.19357E-02 3.18417E-03-1.67540E-13
 -1      1476 1.17661E-02 3.14398E-03-1.62806E-13
 -1      1477 1.20786E-02 3.23571E-03-1.70539E-13
 -1      1478 1.22214E-02 3.28724E-03-1.73545E-13
 -1      1479 1.20518E-02 3.24705E-03-1.68780E-13
 -1      1480 1.23643E-02 3.33877E-03-1.76555E-13
 -1      1481 1.25071E-02 3.39031E-03-1.79566E-13
 -1      1482 1.23375E-02 3.35012E-03-1.74775E-13
 -1      1483 1.26500E-02 3.44184E-03-1.82580E-13
 -1      1484 1.27928E-02 3.49337E-03-1.85596E-13
 -1      1485 1.26232E-02 3.45319E-03-1.80785E-13
 -1      1486 1.29357E-02 3.54490E-03-1.88611E-13
 -1      1487 1.30786E-02 3.59643E-03-1.91623E-13
 -1      1488 1.29089E-02 3.55625E-03-1.86802E-13
 -1      1489 1.32214E-02 3.64796E-03-1.94633E-13
 -1      1490 1.33643E-02 3.69949E-03-1.97639E-13
 -1      1491 1.31946E-02 3.65931E-03-1.92816E-13
 -1      1492 1.35071E-02 3.75102E-03-2.00643E-13
 -1      1493 1.36500E-02 3.80255E-03-2.03643E-13
 -1      1494 1.34803E-02 3.76237E-03-1.98821E-13
 -1      1495 1.37928E-02 3.85408E-03-2.06646E-13
 -1      1496 1.39357E-02 3.90561E-03-2.09653E-13
 -1      1497 1.37660E-02 3.86543E-03-2.04821E-13
 -1      1498 1.41480E-02 3.98464E-03-2.13981E-13
 -1      1499 1.41212E-02 3.99599E-03-2.12145E-13
 -1      1500 1.03300E-03 6.14986E-04-1.68078E-16
 -1      1501 7.87741E-04 4.57137E-04-6.54587E-17
 -1      1502 6.54113E-04 3.68234E-04-9.30788E-17
 -1      1503 1.45515E-03 9.21565E-04-5.24090E-16
 -1      1504 1.25123E-03 7.68359E-04-3.19569E-16
 -1      1505 1.11557E-03 6.78127E-04-3.37092E-16
 -1      1506 1.83877E-03 1.21393E-03-1.14253E-15
 -1      1507 1.65455E-03 1.07640E-03-8.00765E-16
 -1      1508 1.53472E-03 9.96325E-04-8.05779E-16
 -1      1509 2.18998E-03 1.40389E-03-2.08287E-15
 -1      1510 2.01868E-03 1.32754E-03-1.57483E-15
 -1      1511 1.92696E-03 1.26826E-03-1.56166E-15
 -1      1512 2.52874E-03 1.43651E-03-3.32761E-15
 -1      1513 2.35809E-03 1.43754E-03-2.66714E-15
 -1      1514 2.29624E-03 1.39929E-03-2.63351E-15
 -1      1515 2.88997E-03 1.36645E-03-4.86202E-15
 -1      1516 2.70567E-03 1.40846E-03-4.05912E-15
 -1      1517 2.66488E-03 1.37992E-03-4.00316E-15
 -1      1518 3.27770E-03 1.28238E-03-6.66390E-15
 -1      1519 3.08131E-03 1.32194E-03-5.73077E-15
 -1      1520 3.04877E-03 1.29217E-03-5.65376E-15
 -1      1521 3.69607E-03 1.23856E-03-8.81616E-15
 -1      1522 3.48677E-03 1.25344E-03-7.70843E-15
 -1      1523 3.45135E-03 1.21789E-03-7.61125E-15
 -1      1524 4.08767E-03 1.25131E-03-1.10913E-14
 -1      1525 3.89348E-03 1.23889E-03-9.92788E-15
 -1      1526 3.84941E-03 1.19798E-03-9.81195E-15
 -1      1527 4.46315E-03 1.30621E-03-1.35672E-14
 -1      1528 4.27773E-03 1.27444E-03-1.23048E-14
 -1      1529 4.22451E-03 1.23030E-03-1.21717E-14
 -1      1530 4.81994E-03 1.38869E-03-1.62371E-14
 -1      1531 4.64388E-03 1.34480E-03-1.48783E-14
 -1      1532 4.58336E-03 1.29921E-03-1.47292E-14
 -1      1533 5.15942E-03 1.48709E-03-1.91025E-14
 -1      1534 4.99169E-03 1.43643E-03-1.76453E-14
 -1      1535 4.92621E-03 1.39058E-03-1.74791E-14
 -1      1536 5.48452E-03 1.59376E-03-2.21537E-14
 -1      1537 5.32357E-03 1.53972E-03-2.06052E-14
 -1      1538 5.25508E-03 1.49422E-03-2.04199E-14
 -1      1539 5.79843E-03 1.70417E-03-2.53844E-14
 -1      1540 5.64269E-03 1.64869E-03-2.37479E-14
 -1      1541 5.57258E-03 1.60380E-03-2.35447E-14
 -1      1542 6.10396E-03 1.81579E-03-2.87830E-14
 -1      1543 5.95209E-03 1.75993E-03-2.70628E-14
 -1      1544 5.88123E-03 1.71569E-03-2.68432E-14
 -1      1545 6.40337E-03 1.92731E-03-3.23409E-14
 -1      1546 6.25431E-03 1.87162E-03-3.05422E-14
 -1      1547 6.18322E-03 1.82798E-03-3.03077E-14
 -1      1548 6.69838E-03 2.03809E-03-3.60614E-14
 -1      1549 6.55133E-03 1.98282E-03-3.41810E-14
 -1      1550 6.48030E-03 1.93970E-03-3.39329E-14
 -1      1551 6.99028E-03 2.14789E-03-3.99330E-14
 -1      1552 6.84465E-03 2.09312E-03-3.79787E-14
 -1      1553 6.77381E-03 2.05043E-03-3.77139E-14
 -1      1554 7.27999E-03 2.25665E-03-4.39555E-14
 -1      1555 7.13536E-03 2.20240E-03-4.19260E-14
 -1      1556 7.06476E-03 2.16005E-03-4.16468E-14
 -1      1557 7.56819E-03 2.36443E-03-4.81203E-14
 -1      1558 7.42424E-03 2.31066E-03-4.60206E-14
 -1      1559 7.35391E-03 2.26857E-03-4.57265E-14
 -1      1560 7.85535E-03 2.47132E-03-5.24246E-14
 -1      1561 7.71187E-03 2.41798E-03-5.02555E-14
 -1      1562 7.64178E-03 2.37610E-03-4.99460E-14
 -1      1563 8.15613E-03 2.58273E-03-5.70742E-14
 -1      1564 8.00582E-03 2.52712E-03-5.47339E-14
 -1      1565 7.93595E-03 2.48542E-03-5.44067E-14
 -1      1566 8.44213E-03 2.68818E-03-6.16310E-14
 -1      1567 8.29918E-03 2.63553E-03-5.93371E-14
 -1      1568 8.22951E-03 2.59395E-03-5.89985E-14
 -1      1569 8.72786E-03 2.79309E-03-6.62989E-14
 -1      1570 8.58502E-03 2.74070E-03-6.39531E-14
 -1      1571 8.51551E-03 2.69921E-03-6.35990E-14
 -1      1572 9.01342E-03 2.89757E-03-7.10648E-14
 -1      1573 8.87065E-03 2.84538E-03-6.86682E-14
 -1      1574 8.80127E-03 2.80397E-03-6.83048E-14
 -1      1575 9.29889E-03 3.00170E-03-7.59293E-14
 -1      1576 9.15616E-03 2.94967E-03-7.34849E-14
 -1      1577 9.08689E-03 2.90831E-03-7.31106E-14
 -1      1578 9.58433E-03 3.10555E-03-8.09027E-14
 -1      1579 9.44162E-03 3.05365E-03-7.84009E-14
 -1      1580 9.37243E-03 3.01233E-03-7.80198E-14
 -1      1581 9.86977E-03 3.20918E-03-8.59769E-14
 -1      1582 9.72705E-03 3.15739E-03-8.34287E-14
 -1      1583 9.65792E-03 3.11609E-03-8.30343E-14
 -1      1584 1.01552E-02 3.31265E-03-9.11371E-14
 -1      1585 1.00125E-02 3.26093E-03-8.85472E-14
 -1      1586 9.94342E-03 3.21966E-03-8.81431E-14
 -1      1587 1.04407E-02 3.41599E-03-9.63788E-14
 -1      1588 1.02980E-02 3.36433E-03-9.37485E-14
 -1      1589 1.02289E-02 3.32307E-03-9.33376E-14
 -1      1590 1.07262E-02 3.51924E-03-1.01697E-13
 -1      1591 1.05834E-02 3.46762E-03-9.90277E-14
 -1      1592 1.05144E-02 3.42637E-03-9.86089E-14
 -1      1593 1.10117E-02 3.62242E-03-1.07087E-13
 -1      1594 1.08690E-02 3.57083E-03-1.04385E-13
 -1      1595 1.08000E-02 3.52958E-03-1.03958E-13
 -1      1596 1.12973E-02 3.72555E-03-1.12539E-13
 -1      1597 1.11545E-02 3.67399E-03-1.09805E-13
 -1      1598 1.10856E-02 3.63274E-03-1.09374E-13
 -1      1599 1.15829E-02 3.82864E-03-1.18050E-13
 -1      1600 1.14401E-02 3.77710E-03-1.15288E-13
 -1      1601 1.13712E-02 3.73585E-03-1.14850E-13
 -1      1602 1.18685E-02 3.93171E-03-1.23608E-13
 -1      1603 1.17257E-02 3.88018E-03-1.20824E-13
 -1      1604 1.16568E-02 3.83893E-03-1.20383E-13
 -1      1605 1.21685E-02 4.03992E-03-1.29486E-13
 -1      1606 1.20185E-02 3.98582E-03-1.26542E-13
 -1      1607 1.19495E-02 3.94457E-03-1.26098E-13
 -1      1608 1.24541E-02 4.14297E-03-1.35131E-13
 -1      1609 1.23113E-02 4.09144E-03-1.32303E-13
 -1      1610 1.22423E-02 4.05020E-03-1.31854E-13
 -1      1611 1.27398E-02 4.24601E-03-1.40803E-13
 -1      1612 1.25970E-02 4.19449E-03-1.37963E-13
 -1      1613 1.25280E-02 4.15324E-03-1.37508E-13
 -1      1614 1.30255E-02 4.34905E-03-1.46494E-13
 -1      1615 1.28826E-02 4.29753E-03-1.43646E-13
 -1      1616 1.28137E-02 4.25628E-03-1.43188E-13
 -1      1617 1.33112E-02 4.45209E-03-1.52209E-13
 -1      1618 1.31683E-02 4.40057E-03-1.49349E-13
 -1      1619 1.30994E-02 4.35932E-03-1.48891E-13
 -1      1620 1.35969E-02 4.55513E-03-1.57937E-13
 -1      1621 1.34540E-02 4.50361E-03-1.55073E-13
 -1      1622 1.33851E-02 4.46236E-03-1.54611E-13
 -1      1623 1.38826E-02 4.65817E-03-1.63652E-13
 -1      1624 1.37397E-02 4.60665E-03-1.60797E-13
 -1      1625 1.36708E-02 4.56540E-03-1.60335E-13
 -1      1626 1.41683E-02 4.76121E-03-1.69345E-13
 -1      1627 1.40254E-02 4.70969E-03-1.66500E-13
 -1      1628 1.39565E-02 4.66844E-03-1.66045E-13
 -1      1629 1.44540E-02 4.86426E-03-1.75034E-13
 -1      1630 1.43111E-02 4.81273E-03-1.72191E-13
 -1      1631 1.42422E-02 4.77148E-03-1.71745E-13
 -1      1632 1.47397E-02 4.96730E-03-1.80696E-13
 -1      1633 1.45968E-02 4.91578E-03-1.77869E-13
 -1      1634 1.45279E-02 4.87453E-03-1.77428E-13
 -1      1635 1.50254E-02 5.07035E-03-1.86360E-13
 -1      1636 1.48826E-02 5.01883E-03-1.83528E-13
 -1      1637 1.48136E-02 4.97758E-03-1.83099E-13
 -1      1638 1.53111E-02 5.17340E-03-1.92031E-13
 -1      1639 1.51683E-02 5.12188E-03-1.89195E-13
 -1      1640 1.50993E-02 5.08063E-03-1.88768E-13
 -1      1641 1.55968E-02 5.27645E-03-1.97710E-13
 -1      1642 1.54540E-02 5.22493E-03-1.94870E-13
 -1      1643 1.53850E-02 5.18368E-03-1.94445E-13
 -1      1644 1.57580E-02 5.32709E-03-2.01342E-13
 -1      1645 1.56505E-02 5.22864E-03-2.02684E-13
 -1      1646 1.57011E-02 5.27078E-03-2.02295E-13
 -1      1647 1.55491E-02 5.14435E-03-2.03461E-13
 -1      1648 1.55998E-02 5.18649E-03-2.03072E-13
 -1      1649 1.55014E-02 5.16294E-03-2.00406E-13
 -1      1650 1.54478E-02 5.06006E-03-2.04233E-13
 -1      1651 1.54984E-02 5.10221E-03-2.03846E-13
 -1      1652 1.54001E-02 5.07866E-03-2.01173E-13
 -1      1653 1.53464E-02 4.97578E-03-2.05003E-13
 -1      1654 1.53971E-02 5.01792E-03-2.04620E-13
 -1      1655 1.52987E-02 4.99437E-03-2.01940E-13
 -1      1656 1.52468E-02 4.89292E-03-2.05777E-13
 -1      1657 1.52966E-02 4.93435E-03-2.05388E-13
 -1      1658 1.51983E-02 4.91080E-03-2.02705E-13
 -1      1659 1.51455E-02 4.80863E-03-2.06559E-13
 -1      1660 1.51962E-02 4.85077E-03-2.06169E-13
 -1      1661 1.50978E-02 4.82722E-03-2.03473E-13
 -1      1662 1.50441E-02 4.72434E-03-2.07334E-13
 -1      1663 1.50948E-02 4.76649E-03-2.06946E-13
 -1      1664 1.49964E-02 4.74293E-03-2.04245E-13
 -1      1665 1.49428E-02 4.64005E-03-2.08119E-13
 -1      1666 1.49935E-02 4.68220E-03-2.07727E-13
 -1      1667 1.48951E-02 4.65865E-03-2.05018E-13
 -1      1668 1.48415E-02 4.55576E-03-2.08922E-13
 -1      1669 1.48921E-02 4.59791E-03-2.08519E-13
 -1      1670 1.47938E-02 4.57436E-03-2.05801E-13
 -1      1671 1.47401E-02 4.47147E-03-2.09729E-13
 -1      1672 1.47908E-02 4.51362E-03-2.09324E-13
 -1      1673 1.46924E-02 4.49007E-03-2.06592E-13
 -1      1674 1.46405E-02 4.38861E-03-2.10534E-13
 -1      1675 1.46903E-02 4.43004E-03-2.10131E-13
 -1      1676 1.45919E-02 4.40649E-03-2.07381E-13
 -1      1677 1.45392E-02 4.30433E-03-2.11348E-13
 -1      1678 1.45899E-02 4.34647E-03-2.10943E-13
 -1      1679 1.44915E-02 4.32292E-03-2.08173E-13
 -1      1680 1.44378E-02 4.22004E-03-2.12137E-13
 -1      1681 1.44885E-02 4.26218E-03-2.11748E-13
 -1      1682 1.43901E-02 4.23863E-03-2.08965E-13
 -1      1683 1.43365E-02 4.13575E-03-2.12915E-13
 -1      1684 1.43872E-02 4.17790E-03-2.12527E-13
 -1      1685 1.42888E-02 4.15435E-03-2.09742E-13
 -1      1686 1.42035E-02 4.04480E-03-2.12724E-13
 -1      1687 1.42542E-02 4.08694E-03-2.12344E-13
 -1      1688 1.41558E-02 4.06339E-03-2.09554E-13
 -1      1689 1.39912E-02 3.96577E-03-2.08403E-13
 -1      1690 3.91276E-03 6.95327E-04-6.06752E-15
 -1      1691 3.93428E-03 6.65638E-04-6.15899E-15
 -1      1692 3.76051E-03 7.73057E-04-5.67318E-15
 -1      1693 3.84569E-03 7.36850E-04-5.84737E-15
 -1      1694 3.46951E-03 8.73857E-04-5.17486E-15
 -1      1695 3.61912E-03 8.19652E-04-5.44847E-15
 -1      1696 3.12525E-03 1.00496E-03-4.48890E-15
 -1      1697 3.29038E-03 9.49033E-04-4.77781E-15
 -1      1698 2.74646E-03 1.11500E-03-3.82507E-15
 -1      1699 2.92407E-03 1.06679E-03-4.13309E-15
 -1      1700 2.35364E-03 1.17858E-03-3.14625E-15
 -1      1701 2.53602E-03 1.15735E-03-3.45739E-15
 -1      1702 1.94803E-03 1.15276E-03-2.47152E-15
 -1      1703 2.13562E-03 1.17952E-03-2.78011E-15
 -1      1704 1.51098E-03 9.93473E-04-1.79931E-15
 -1      1705 1.71769E-03 1.08708E-03-2.10173E-15
 -1      1706 1.05957E-03 7.35378E-04-1.26562E-15
 -1      1707 1.25671E-03 8.58514E-04-1.49758E-15
 -1      1708 6.54558E-04 4.56381E-04-8.29997E-16
 -1      1709 8.41975E-04 5.81988E-04-1.01561E-15
 -1      1710 3.26722E-04 2.40341E-04-5.16860E-16
 -1      1711 4.66366E-04 3.24017E-04-6.42031E-16
 -1      1712 1.12945E-04 1.40702E-04-3.30861E-16
 -1      1713 1.90558E-04 1.79735E-04-4.08331E-16
 -1      1714 1.39772E-05 9.43841E-05-2.08141E-16
 -1      1715 4.90878E-05 1.04795E-04-2.53396E-16
 -1      1716-4.11016E-06 9.78464E-05-1.69318E-16
 -1      1717-3.99601E-06 9.51427E-05-1.80971E-16
 -1      1718 3.07873E-05 1.10889E-04-1.85839E-16
 -1      1719 8.27727E-06 1.03240E-04-1.68804E-16
 -1      1720 1.17981E-04 1.19210E-04-2.76936E-16
 -1      1721 7.01430E-05 1.15776E-04-2.26480E-16
 -1      1722 2.88867E-04 1.13841E-04-4.54057E-16
 -1      1723 1.99696E-04 1.22288E-04-3.55293E-16
 -1      1724 5.22170E-04 6.82321E-05-7.39805E-16
 -1      1725 4.07550E-04 9.16928E-05-5.98791E-16
 -1      1726 8.06530E-04-4.48651E-07-1.12498E-15
 -1      1727 6.68484E-04 3.32499E-05-9.33783E-16
 -1      1728 1.13374E-03-7.33686E-05-1.61955E-15
 -1      1729 9.81196E-04-4.03359E-05-1.37550E-15
 -1      1730 1.47459E-03-1.18799E-04-2.21608E-15
 -1      1731 1.31700E-03-1.03162E-04-1.93110E-15
 -1      1732 1.84262E-03-1.09096E-04-2.92621E-15
 -1      1733 1.66993E-03-1.22756E-04-2.58829E-15
 -1      1734 2.21671E-03-3.18697E-05-3.62742E-15
 -1      1735 2.04866E-03-7.28749E-05-3.30796E-15
 -1      1736 2.60623E-03 9.84293E-05-4.36131E-15
 -1      1737 2.42009E-03 3.18118E-05-4.02727E-15
 -1      1738 2.96942E-03 2.35317E-04-4.94827E-15
 -1      1739 2.81235E-03 1.73261E-04-4.69613E-15
 -1      1740 3.29126E-03 3.63361E-04-5.43025E-15
 -1      1741 3.14625E-03 3.05708E-04-5.22259E-15
 -1      1742 3.57170E-03 4.73231E-04-5.80056E-15
 -1      1743 3.44849E-03 4.25258E-04-5.64676E-15
 -1      1744 3.78737E-03 5.60004E-04-6.03673E-15
 -1      1745 3.69718E-03 5.22903E-04-5.94651E-15
 -1      1746 3.91373E-03 6.30180E-04-6.14411E-15
 -1      1747 3.86828E-03 6.01545E-04-6.12995E-15
 -1      1748 1.88093E-05 5.01987E-05-3.59650E-17
 -1      1749 2.92605E-05 5.86356E-05-3.68425E-17
 -1      1750 2.97798E-03 1.01542E-03-4.48822E-15
 -1      1751 3.34876E-03 8.71969E-04-5.26959E-15
 -1      1752 1.56089E-02 5.26140E-03-1.99075E-13
 -1      1753 3.88386E-03 6.95731E-04-6.40098E-15
 -1      1754 3.67076E-03 7.60319E-04-5.93100E-15
 -1      1755 3.93335E-03 6.62323E-04-6.62514E-15
 -1      1756 2.60116E-03 1.14023E-03-3.73971E-15
 -1      1757 2.22757E-03 1.20400E-03-2.99050E-15
 -1      1758 1.85049E-03 1.14951E-03-2.25178E-15
 -1      1759 1.44939E-03 9.41579E-04-1.59993E-15
 -1      1760 1.01511E-03 6.38887E-04-1.07453E-15
 -1      1761 6.17740E-04 3.46407E-04-6.74008E-16
 -1      1762 2.94154E-04 1.63349E-04-4.20013E-16
 -1      1763 9.26404E-05 8.35483E-05-2.57296E-16
 -1      1764 8.93003E-06 7.69083E-05-1.73261E-16
 -1      1765 3.64791E-06 9.82262E-05-1.50110E-16
 -1      1766 5.37295E-05 1.23976E-04-1.83254E-16
 -1      1767 1.71201E-04 1.40424E-04-2.87110E-16
 -1      1768 3.66821E-04 1.25425E-04-4.79936E-16
 -1      1769 6.26024E-04 6.52648E-05-7.92416E-16
 -1      1770 9.27084E-04-2.04842E-05-1.21376E-15
 -1      1771 1.24421E-03-1.04338E-04-1.75681E-15
 -1      1772 1.56962E-03-1.45207E-04-2.43241E-15
 -1      1773 1.90439E-03-1.09730E-04-3.19265E-15
 -1      1774 2.26572E-03 2.32951E-06-3.98976E-15
 -1      1775 2.63651E-03 1.59701E-04-4.74961E-15
 -1      1776 2.99997E-03 3.17076E-04-5.38358E-15
 -1      1777 3.32918E-03 4.50918E-04-5.89542E-15
 -1      1778 3.61496E-03 5.51741E-04-6.27341E-15
 -1      1779 3.82716E-03 6.19889E-04-6.52018E-15
 -1      1780 8.02153E-05 1.16988E-04-1.10887E-16
 -1      1781 1.61236E-04-1.15329E-04-7.39832E-17
 -1      1782 3.44160E-04-2.51968E-04-1.68688E-16
 -1      1783 2.20533E-05 6.97242E-05-7.17606E-17
 -1      1784 3.73451E-04-1.63994E-04-4.01602E-16
 -1      1785 3.67838E-04-1.80259E-04-3.87738E-16
 -1      1786 3.64456E-04-1.98559E-04-3.67639E-16
 -1      1787 3.65406E-04-2.19262E-04-3.37634E-16
 -1      1788 4.93595E-04-2.42546E-04-5.64463E-16
 -1      1789 4.07964E-04-9.47979E-05-4.05221E-16
 -1      1790 3.98972E-04-1.14634E-04-4.11075E-16
 -1      1791 4.21811E-04-4.42103E-05-3.83482E-16
 -1      1792 4.16898E-04-7.18497E-05-3.96642E-16
 -1      1793 5.57968E-04-1.13804E-04-5.93384E-16
 -1      1794 4.14685E-04 1.93577E-05-3.49357E-16
 -1      1795 4.23045E-04-1.45496E-05-3.69184E-16
 -1      1796 5.76193E-04-5.60538E-05-5.59570E-16
 -1      1797 2.20825E-04 1.42962E-04-2.13486E-16
 -1      1798 2.82703E-04 1.24528E-04-2.45436E-16
 -1      1799 3.94282E-04-2.69487E-04-2.79575E-16
 -1      1800 7.75251E-05-1.57520E-05-1.10975E-16
 -1      1801 4.29512E-05-1.86447E-06-1.00045E-16
 -1      1802 2.86249E-03 1.04188E-03-4.52879E-15
 -1      1803 3.03590E-03 9.68877E-04-4.91233E-15
 -1      1804 2.85443E-04 4.98331E-05-1.38236E-16
 -1      1805 2.37600E-04 1.66102E-05-1.41515E-16
 -1      1806 3.79554E-04 1.49223E-04-1.12242E-16
 -1      1807 3.38017E-04 9.95824E-05-1.32395E-16
 -1      1808 5.51530E-04 2.89193E-04-1.06279E-16
 -1      1809 4.55541E-04 2.12172E-04-1.11429E-16
 -1      1810 5.99316E-04 2.83294E-04-2.00252E-16
 -1      1811 7.86466E-04 4.40282E-04-1.99710E-16
 -1      1812 1.22089E-03 7.53221E-04-5.34539E-16
 -1      1813 1.00737E-03 5.94056E-04-3.41442E-16
 -1      1814 9.06353E-04 5.10229E-04-3.39464E-16
 -1      1815 8.21831E-04-4.31611E-04-1.11926E-15
 -1      1816 9.67241E-04-4.63421E-04-1.54155E-15
 -1      1817 1.10940E-03-4.81769E-04-2.03555E-15
 -1      1818 1.25019E-03-4.87403E-04-2.60202E-15
 -1      1819 1.03645E-03-4.39997E-04-1.85180E-15
 -1      1820 1.38939E-03-4.81838E-04-3.23838E-15
 -1      1821 1.52828E-03-4.65650E-04-3.94431E-15
 -1      1822 1.32632E-03-4.51605E-04-2.99221E-15
 -1      1823 1.66695E-03-4.40331E-04-4.71820E-15
 -1      1824 1.80616E-03-4.06735E-04-5.55922E-15
 -1      1825 1.61269E-03-4.19085E-04-4.40923E-15
 -1      1826 1.94606E-03-3.66359E-04-6.46527E-15
 -1      1827 2.08696E-03-3.20200E-04-7.43597E-15
 -1      1828 1.89923E-03-3.51235E-04-6.09402E-15
 -1      1829 2.22899E-03-2.69667E-04-8.46945E-15
 -1      1830 2.37207E-03-2.15716E-04-9.56337E-15
 -1      1831 2.18824E-03-2.58064E-04-8.03592E-15
 -1      1832 2.51634E-03-1.59517E-04-1.07168E-14
 -1      1833 2.66145E-03-1.01831E-04-1.19291E-14
 -1      1834 2.48043E-03-1.49436E-04-1.02230E-14
 -1      1835 2.80755E-03-4.34873E-05-1.31978E-14
 -1      1836 2.95418E-03 1.50054E-05-1.45207E-14
 -1      1837 2.77532E-03-3.36342E-05-1.26427E-14
 -1      1838 3.10148E-03 7.31612E-05-1.58974E-14
 -1      1839 3.24900E-03 1.30705E-04-1.73253E-14
 -1      1840 3.07184E-03 8.34661E-05-1.52840E-14
 -1      1841 3.39687E-03 1.87432E-04-1.88035E-14
 -1      1842 3.54470E-03 2.43237E-04-2.03311E-14
 -1      1843 3.36885E-03 1.98435E-04-1.81332E-14
 -1      1844 3.69260E-03 2.98109E-04-2.19069E-14
 -1      1845 3.84030E-03 3.52047E-04-2.35298E-14
 -1      1846 3.66547E-03 3.09797E-04-2.11804E-14
 -1      1847 3.98787E-03 4.05145E-04-2.51978E-14
 -1      1848 4.13514E-03 4.57456E-04-2.69106E-14
 -1      1849 3.96110E-03 4.17378E-04-2.44162E-14
 -1      1850 4.28217E-03 5.09115E-04-2.86679E-14
 -1      1851 4.42886E-03 5.60192E-04-3.04680E-14
 -1      1852 4.25544E-03 5.21710E-04-2.78334E-14
 -1      1853 4.57524E-03 6.10823E-04-3.23084E-14
 -1      1854 4.72128E-03 6.61078E-04-3.41899E-14
 -1      1855 4.54838E-03 6.23607E-04-3.14231E-14
 -1      1856 4.86700E-03 7.11070E-04-3.61125E-14
 -1      1857 5.01241E-03 7.60860E-04-3.80727E-14
 -1      1858 4.83996E-03 7.23901E-04-3.51766E-14
 -1      1859 5.15751E-03 8.10533E-04-4.00711E-14
 -1      1860 5.30234E-03 8.60135E-04-4.21071E-14
 -1      1861 5.13031E-03 8.23307E-04-3.90878E-14
 -1      1862 5.44691E-03 9.09725E-04-4.41809E-14
 -1      1863 5.59124E-03 9.59334E-04-4.62903E-14
 -1      1864 5.41958E-03 9.22376E-04-4.31502E-14
 -1      1865 5.73535E-03 1.00900E-03-4.84341E-14
 -1      1866 5.87928E-03 1.05874E-03-5.06130E-14
 -1      1867 5.70796E-03 1.02149E-03-4.73583E-14
 -1      1868 6.02302E-03 1.10858E-03-5.28261E-14
 -1      1869 6.16661E-03 1.15852E-03-5.50736E-14
 -1      1870 5.99560E-03 1.12090E-03-5.17061E-14
 -1      1871 6.31007E-03 1.20857E-03-5.73547E-14
 -1      1872 6.45341E-03 1.25874E-03-5.96674E-14
 -1      1873 6.28266E-03 1.22072E-03-5.61912E-14
 -1      1874 6.59665E-03 1.30903E-03-6.20106E-14
 -1      1875 6.73980E-03 1.35943E-03-6.43856E-14
 -1      1876 6.56928E-03 1.32102E-03-6.08051E-14
 -1      1877 6.88288E-03 1.40994E-03-6.67899E-14
 -1      1878 7.02590E-03 1.46056E-03-6.92245E-14
 -1      1879 6.85557E-03 1.42180E-03-6.55422E-14
 -1      1880 7.16886E-03 1.51127E-03-7.16879E-14
 -1      1881 7.31179E-03 1.56208E-03-7.41795E-14
 -1      1882 7.14162E-03 1.52301E-03-7.03976E-14
 -1      1883 7.45467E-03 1.61297E-03-7.67003E-14
 -1      1884 7.59753E-03 1.66395E-03-7.92475E-14
 -1      1885 7.42750E-03 1.62462E-03-7.53703E-14
 -1      1886 7.74037E-03 1.71499E-03-8.18235E-14
 -1      1887 7.88320E-03 1.76610E-03-8.44256E-14
 -1      1888 7.71327E-03 1.72655E-03-8.04538E-14
 -1      1889 8.02601E-03 1.81726E-03-8.70546E-14
 -1      1890 8.16881E-03 1.86848E-03-8.97112E-14
 -1      1891 7.99896E-03 1.82877E-03-8.56452E-14
 -1      1892 8.31161E-03 1.91974E-03-9.23920E-14
 -1      1893 8.45440E-03 1.97105E-03-9.50966E-14
 -1      1894 8.28461E-03 1.93120E-03-9.09442E-14
 -1      1895 8.59719E-03 2.02239E-03-9.78250E-14
 -1      1896 8.73998E-03 2.07376E-03-1.00574E-13
 -1      1897 8.57023E-03 2.03381E-03-9.63387E-14
 -1      1898 8.88277E-03 2.12516E-03-1.03342E-13
 -1      1899 9.02557E-03 2.17658E-03-1.06129E-13
 -1      1900 8.85585E-03 2.13655E-03-1.01821E-13
 -1      1901 9.16836E-03 2.22802E-03-1.08933E-13
 -1      1902 9.31116E-03 2.27948E-03-1.11752E-13
 -1      1903 9.14147E-03 2.23940E-03-1.07378E-13
 -1      1904 9.45397E-03 2.33095E-03-1.14584E-13
 -1      1905 9.59677E-03 2.38244E-03-1.17430E-13
 -1      1906 9.42710E-03 2.34232E-03-1.13001E-13
 -1      1907 9.73959E-03 2.43394E-03-1.20286E-13
 -1      1908 9.88240E-03 2.48544E-03-1.23151E-13
 -1      1909 9.71274E-03 2.44529E-03-1.18678E-13
 -1      1910 1.00252E-02 2.53695E-03-1.26026E-13
 -1      1911 1.01680E-02 2.58847E-03-1.28909E-13
 -1      1912 9.99838E-03 2.54830E-03-1.24397E-13
 -1      1913 1.03109E-02 2.64000E-03-1.31799E-13
 -1      1914 1.04537E-02 2.69152E-03-1.34693E-13
 -1      1915 1.02840E-02 2.65134E-03-1.30153E-13
 -1      1916 1.05965E-02 2.74305E-03-1.37595E-13
 -1      1917 1.07394E-02 2.79458E-03-1.40506E-13
 -1      1918 1.05697E-02 2.75440E-03-1.35937E-13
 -1      1919 1.08822E-02 2.84612E-03-1.43419E-13
 -1      1920 1.10250E-02 2.89765E-03-1.46340E-13
 -1      1921 1.08554E-02 2.85746E-03-1.41746E-13
 -1      1922 1.11679E-02 2.94919E-03-1.49269E-13
 -1      1923 1.13107E-02 3.00072E-03-1.52204E-13
 -1      1924 1.11411E-02 2.96053E-03-1.47582E-13
 -1      1925 1.14536E-02 3.05226E-03-1.55151E-13
 -1      1926 1.15964E-02 3.10379E-03-1.58108E-13
 -1      1927 1.14268E-02 3.06360E-03-1.53444E-13
 -1      1928 1.17393E-02 3.15533E-03-1.61071E-13
 -1      1929 1.18821E-02 3.20686E-03-1.64046E-13
 -1      1930 1.17125E-02 3.16667E-03-1.59346E-13
 -1      1931 1.20250E-02 3.25840E-03-1.67027E-13
 -1      1932 1.21678E-02 3.30993E-03-1.70013E-13
 -1      1933 1.19982E-02 3.26974E-03-1.65280E-13
 -1      1934 1.23107E-02 3.36147E-03-1.73005E-13
 -1      1935 1.24535E-02 3.41300E-03-1.76000E-13
 -1      1936 1.22839E-02 3.37281E-03-1.71241E-13
 -1      1937 1.25964E-02 3.46453E-03-1.79000E-13
 -1      1938 1.27392E-02 3.51607E-03-1.82000E-13
 -1      1939 1.25696E-02 3.47588E-03-1.77219E-13
 -1      1940 1.28821E-02 3.56760E-03-1.85000E-13
 -1      1941 1.30249E-02 3.61913E-03-1.88002E-13
 -1      1942 1.28553E-02 3.57895E-03-1.83207E-13
 -1      1943 1.31678E-02 3.67066E-03-1.91004E-13
 -1      1944 1.33107E-02 3.72219E-03-1.94002E-13
 -1      1945 1.31410E-02 3.68201E-03-1.89195E-13
 -1      1946 1.34535E-02 3.77372E-03-1.97002E-13
 -1      1947 1.35964E-02 3.82525E-03-2.00001E-13
 -1      1948 1.34267E-02 3.78507E-03-1.95186E-13
 -1      1949 1.37224E-02 3.86975E-03-2.02700E-13
 -1      1950 1.38652E-02 3.92128E-03-2.05698E-13
 -1      1951 1.39475E-02 3.97009E-03-2.06275E-13
 -1      1952 1.36956E-02 3.88110E-03-2.00878E-13
 -1      1953 1.64276E-03 1.07632E-03-1.12197E-15
 -1      1954 1.43678E-03 9.20814E-04-7.96983E-16
 -1      1955 1.34230E-03 8.41170E-04-7.79663E-16
 -1      1956 2.04351E-03 1.31288E-03-2.02290E-15
 -1      1957 1.84617E-03 1.21369E-03-1.53481E-15
 -1      1958 1.76840E-03 1.15496E-03-1.49899E-15
 -1      1959 2.42442E-03 1.37674E-03-3.22417E-15
 -1      1960 2.23254E-03 1.36498E-03-2.58573E-15
 -1      1961 2.17087E-03 1.32980E-03-2.52974E-15
 -1      1962 2.81350E-03 1.31252E-03-4.71631E-15
 -1      1963 2.61710E-03 1.35399E-03-3.93435E-15
 -1      1964 2.56753E-03 1.32804E-03-3.85854E-15
 -1      1965 3.21037E-03 1.22044E-03-6.47975E-15
 -1      1966 3.01221E-03 1.26505E-03-5.56572E-15
 -1      1967 2.97332E-03 1.23724E-03-5.47166E-15
 -1      1968 3.62152E-03 1.16585E-03-8.59412E-15
 -1      1969 3.41816E-03 1.18617E-03-7.50500E-15
 -1      1970 3.38518E-03 1.15385E-03-7.39414E-15
 -1      1971 3.99838E-03 1.17108E-03-1.08350E-14
 -1      1972 3.81238E-03 1.16214E-03-9.68892E-15
 -1      1973 3.77848E-03 1.12638E-03-9.56091E-15
 -1      1974 4.35881E-03 1.22179E-03-1.32784E-14
 -1      1975 4.18083E-03 1.19178E-03-1.20316E-14
 -1      1976 4.14157E-03 1.15387E-03-1.18885E-14
 -1      1977 4.70363E-03 1.30265E-03-1.59165E-14
 -1      1978 4.53311E-03 1.25930E-03-1.45740E-14
 -1      1979 4.48731E-03 1.22013E-03-1.44150E-14
 -1      1980 5.03486E-03 1.40102E-03-1.87465E-14
 -1      1981 4.87078E-03 1.35021E-03-1.73079E-14
 -1      1982 4.81918E-03 1.31047E-03-1.71329E-14
 -1      1983 5.35483E-03 1.50845E-03-2.17629E-14
 -1      1984 5.19606E-03 1.45393E-03-2.02322E-14
 -1      1985 5.14006E-03 1.41411E-03-2.00401E-14
 -1      1986 5.66584E-03 1.61992E-03-2.49594E-14
 -1      1987 5.51128E-03 1.56386E-03-2.33389E-14
 -1      1988 5.45223E-03 1.52424E-03-2.31314E-14
 -1      1989 5.96992E-03 1.73263E-03-2.83269E-14
 -1      1990 5.81859E-03 1.67621E-03-2.66219E-14
 -1      1991 5.75759E-03 1.63693E-03-2.63977E-14
 -1      1992 6.26876E-03 1.84514E-03-3.18573E-14
 -1      1993 6.11987E-03 1.78895E-03-3.00716E-14
 -1      1994 6.05769E-03 1.75004E-03-2.98327E-14
 -1      1995 6.56371E-03 1.95677E-03-3.55467E-14
 -1      1996 6.41663E-03 1.90108E-03-3.36824E-14
 -1      1997 6.35377E-03 1.86253E-03-3.34295E-14
 -1      1998 6.85582E-03 2.06727E-03-3.93906E-14
 -1      1999 6.71005E-03 2.01217E-03-3.74503E-14
 -1      2000 6.64686E-03 1.97394E-03-3.71831E-14
 -1      2001 7.14586E-03 2.17660E-03-4.33826E-14
 -1      2002 7.00105E-03 2.12208E-03-4.13675E-14
 -1      2003 6.93771E-03 2.08412E-03-4.10864E-14
 -1      2004 7.43444E-03 2.28483E-03-4.75199E-14
 -1      2005 7.29030E-03 2.23085E-03-4.54344E-14
 -1      2006 7.22694E-03 2.19312E-03-4.51389E-14
 -1      2007 7.72197E-03 2.39207E-03-5.17913E-14
 -1      2008 7.57831E-03 2.33857E-03-4.96392E-14
 -1      2009 7.51499E-03 2.30102E-03-4.93304E-14
 -1      2010 8.02311E-03 2.50377E-03-5.64164E-14
 -1      2011 7.87262E-03 2.44803E-03-5.40870E-14
 -1      2012 7.80938E-03 2.41064E-03-5.37642E-14
 -1      2013 8.30940E-03 2.60943E-03-6.09443E-14
 -1      2014 8.16630E-03 2.55668E-03-5.86656E-14
 -1      2015 8.10315E-03 2.51940E-03-5.83301E-14
 -1      2016 8.59538E-03 2.71450E-03-6.55874E-14
 -1      2017 8.45242E-03 2.66203E-03-6.32518E-14
 -1      2018 8.38936E-03 2.62484E-03-6.29045E-14
 -1      2019 8.88115E-03 2.81910E-03-7.03326E-14
 -1      2020 8.73828E-03 2.76685E-03-6.79464E-14
 -1      2021 8.67530E-03 2.72973E-03-6.75875E-14
 -1      2022 9.16679E-03 2.92331E-03-7.51822E-14
 -1      2023 9.02398E-03 2.87125E-03-7.27454E-14
 -1      2024 8.96107E-03 2.83418E-03-7.23755E-14
 -1      2025 9.45236E-03 3.02723E-03-8.01345E-14
 -1      2026 9.30958E-03 2.97530E-03-7.76452E-14
 -1      2027 9.24673E-03 2.93827E-03-7.72688E-14
 -1      2028 9.73791E-03 3.13091E-03-8.51867E-14
 -1      2029 9.59514E-03 3.07909E-03-8.26480E-14
 -1      2030 9.53234E-03 3.04209E-03-8.22617E-14
 -1      2031 1.00234E-02 3.23441E-03-9.03301E-14
 -1      2032 9.88067E-03 3.18268E-03-8.77486E-14
 -1      2033 9.81792E-03 3.14569E-03-8.73514E-14
 -1      2034 1.03090E-02 3.33777E-03-9.55576E-14
 -1      2035 1.01662E-02 3.28610E-03-9.29333E-14
 -1      2036 1.01035E-02 3.24914E-03-9.25288E-14
 -1      2037 1.05945E-02 3.44103E-03-1.00862E-13
 -1      2038 1.04518E-02 3.38941E-03-9.82001E-14
 -1      2039 1.03891E-02 3.35245E-03-9.77885E-14
 -1      2040 1.08801E-02 3.54422E-03-1.06239E-13
 -1      2041 1.07373E-02 3.49263E-03-1.03543E-13
 -1      2042 1.06746E-02 3.45568E-03-1.03126E-13
 -1      2043 1.11657E-02 3.64736E-03-1.11681E-13
 -1      2044 1.10229E-02 3.59579E-03-1.08953E-13
 -1      2045 1.09602E-02 3.55885E-03-1.08529E-13
 -1      2046 1.14513E-02 3.75045E-03-1.17181E-13
 -1      2047 1.13085E-02 3.69891E-03-1.14422E-13
 -1      2048 1.12459E-02 3.66196E-03-1.13995E-13
 -1      2049 1.17370E-02 3.85352E-03-1.22733E-13
 -1      2050 1.15941E-02 3.80199E-03-1.19951E-13
 -1      2051 1.15315E-02 3.76505E-03-1.19519E-13
 -1      2052 1.20369E-02 3.96173E-03-1.28604E-13
 -1      2053 1.18869E-02 3.90763E-03-1.25665E-13
 -1      2054 1.18243E-02 3.87069E-03-1.25228E-13
 -1      2055 1.23226E-02 4.06478E-03-1.34237E-13
 -1      2056 1.21797E-02 4.01326E-03-1.31416E-13
 -1      2057 1.21171E-02 3.97631E-03-1.30977E-13
 -1      2058 1.26082E-02 4.16782E-03-1.39901E-13
 -1      2059 1.24654E-02 4.11630E-03-1.37065E-13
 -1      2060 1.24028E-02 4.07936E-03-1.36621E-13
 -1      2061 1.28939E-02 4.27086E-03-1.45592E-13
 -1      2062 1.27511E-02 4.21934E-03-1.42743E-13
 -1      2063 1.26884E-02 4.18240E-03-1.42299E-13
 -1      2064 1.31796E-02 4.37390E-03-1.51303E-13
 -1      2065 1.30368E-02 4.32238E-03-1.48446E-13
 -1      2066 1.29741E-02 4.28543E-03-1.48000E-13
 -1      2067 1.34653E-02 4.47693E-03-1.57026E-13
 -1      2068 1.33225E-02 4.42541E-03-1.54164E-13
 -1      2069 1.32598E-02 4.38847E-03-1.53716E-13
 -1      2070 1.37510E-02 4.57997E-03-1.62749E-13
 -1      2071 1.36082E-02 4.52845E-03-1.59890E-13
 -1      2072 1.35455E-02 4.49151E-03-1.59444E-13
 -1      2073 1.40367E-02 4.68302E-03-1.68458E-13
 -1      2074 1.38939E-02 4.63150E-03-1.65603E-13
 -1      2075 1.38312E-02 4.59455E-03-1.65161E-13
 -1      2076 1.43224E-02 4.78606E-03-1.74155E-13
 -1      2077 1.41796E-02 4.73454E-03-1.71307E-13
 -1      2078 1.41170E-02 4.69759E-03-1.70871E-13
 -1      2079 1.46081E-02 4.88911E-03-1.79836E-13
 -1      2080 1.44653E-02 4.83758E-03-1.76998E-13
 -1      2081 1.44027E-02 4.80064E-03-1.76566E-13
 -1      2082 1.48939E-02 4.99216E-03-1.85514E-13
 -1      2083 1.47510E-02 4.94063E-03-1.82677E-13
 -1      2084 1.46884E-02 4.90368E-03-1.82251E-13
 -1      2085 1.51796E-02 5.09521E-03-1.91188E-13
 -1      2086 1.50367E-02 5.04368E-03-1.88350E-13
 -1      2087 1.49741E-02 5.00673E-03-1.87931E-13
 -1      2088 1.51497E-02 4.92868E-03-1.99647E-13
 -1      2089 1.52004E-02 4.97082E-03-1.99266E-13
 -1      2090 1.52510E-02 5.01296E-03-1.98886E-13
 -1      2091 1.53017E-02 5.05511E-03-1.98505E-13
 -1      2092 1.51020E-02 4.94727E-03-1.96596E-13
 -1      2093 3.84321E-03 6.97639E-04-6.71513E-15
 -1      2094 3.91339E-03 6.85840E-04-6.95548E-15
 -1      2095 1.53524E-02 5.09725E-03-1.98124E-13
 -1      2096 1.54030E-02 5.13939E-03-1.97746E-13
 -1      2097 1.52033E-02 5.03156E-03-1.95842E-13
 -1      2098 1.50501E-02 4.84582E-03-2.00399E-13
 -1      2099 1.50999E-02 4.88725E-03-2.00021E-13
 -1      2100 1.50015E-02 4.86370E-03-1.97345E-13
 -1      2101 1.49487E-02 4.76153E-03-2.01166E-13
 -1      2102 1.49994E-02 4.80367E-03-2.00782E-13
 -1      2103 1.49010E-02 4.78012E-03-1.98095E-13
 -1      2104 1.48474E-02 4.67724E-03-2.01930E-13
 -1      2105 1.48981E-02 4.71938E-03-2.01549E-13
 -1      2106 1.47997E-02 4.69583E-03-1.98853E-13
 -1      2107 1.47461E-02 4.59295E-03-2.02700E-13
 -1      2108 1.47967E-02 4.63510E-03-2.02313E-13
 -1      2109 1.46983E-02 4.61155E-03-1.99612E-13
 -1      2110 1.46447E-02 4.50866E-03-2.03474E-13
 -1      2111 1.46954E-02 4.55081E-03-2.03085E-13
 -1      2112 1.45970E-02 4.52726E-03-2.00374E-13
 -1      2113 1.45434E-02 4.42437E-03-2.04254E-13
 -1      2114 1.45940E-02 4.46652E-03-2.03864E-13
 -1      2115 1.44957E-02 4.44297E-03-2.01138E-13
 -1      2116 1.44438E-02 4.34151E-03-2.05024E-13
 -1      2117 1.44936E-02 4.38294E-03-2.04639E-13
 -1      2118 1.43952E-02 4.35939E-03-2.01901E-13
 -1      2119 1.43424E-02 4.25722E-03-2.05806E-13
 -1      2120 1.43931E-02 4.29937E-03-2.05415E-13
 -1      2121 1.42947E-02 4.27582E-03-2.02662E-13
 -1      2122 1.42411E-02 4.17294E-03-2.06578E-13
 -1      2123 1.42918E-02 4.21508E-03-2.06192E-13
 -1      2124 1.41934E-02 4.19153E-03-2.03426E-13
 -1      2125 1.41397E-02 4.08865E-03-2.07341E-13
 -1      2126 1.41904E-02 4.13079E-03-2.06962E-13
 -1      2127 1.40920E-02 4.10724E-03-2.04185E-13
 -1      2128 3.60303E-03 7.57661E-04-6.27769E-15
 -1      2129 3.73769E-03 7.22506E-04-6.53385E-15
 -1      2130 3.94386E-03 6.77566E-04-7.17045E-15
 -1      2131 3.92310E-03 6.73570E-04-7.16452E-15
 -1      2132 3.21919E-03 8.95889E-04-5.32414E-15
 -1      2133 3.39478E-03 8.27804E-04-5.75164E-15
 -1      2134 3.11972E-03 9.32248E-04-5.36428E-15
 -1      2135 3.89377E-04-1.32009E-04-4.12227E-16
 -1      2136 3.80997E-04-1.48136E-04-4.09286E-16
 -1      2137 5.31297E-04-1.59474E-04-6.07980E-16
 -1      2138 1.87451E-04-5.86150E-06-1.38100E-16
 -1      2139 1.35929E-04-1.58334E-05-1.30606E-16
 -1      2140 3.08057E-04 4.86670E-05-2.06839E-16
 -1      2141 2.15301E-03 1.22822E-03-2.85769E-15
 -1      2142 2.31177E-03 1.21533E-03-3.23274E-15
 -1      2143 1.80366E-03 1.14254E-03-2.07248E-15
 -1      2144 1.96813E-03 1.20585E-03-2.43607E-15
 -1      2145 1.38152E-03 8.68228E-04-1.36902E-15
 -1      2146 1.57099E-03 1.00740E-03-1.64330E-15
 -1      2147 9.92706E-04 5.61874E-04-9.11055E-16
 -1      2148 1.18635E-03 7.19407E-04-1.12947E-15
 -1      2149 1.31067E-03 7.94908E-04-1.16855E-15
 -1      2150 5.74611E-04 2.61673E-04-5.43660E-16
 -1      2151 7.58732E-04 3.88541E-04-6.96952E-16
 -1      2152 2.42323E-04 9.92194E-05-3.29103E-16
 -1      2153 3.71929E-04 1.50935E-04-4.09076E-16
 -1      2154 7.82499E-05 4.79903E-05-2.02587E-16
 -1      2155 1.48042E-04 6.55915E-05-2.61462E-16
 -1      2156 5.13071E-06 6.58983E-05-1.36554E-16
 -1      2157 2.41658E-05 4.84703E-05-1.52408E-16
 -1      2158 8.09267E-05 1.36265E-04-1.75177E-16
 -1      2159 4.21990E-05 1.20068E-04-1.44077E-16
 -1      2160 4.41539E-04 1.23873E-04-5.07393E-16
 -1      2161 3.27513E-04 1.44181E-04-3.86518E-16
 -1      2162 7.14472E-04 4.91128E-05-8.36543E-16
 -1      2163 5.82068E-04 8.94792E-05-6.66039E-16
 -1      2164 1.00606E-03-4.82867E-05-1.26613E-15
 -1      2165 8.66854E-04 9.02575E-07-1.03982E-15
 -1      2166 1.31771E-03-1.36505E-04-1.89028E-15
 -1      2167 1.17872E-03-9.95066E-05-1.59183E-15
 -1      2168 1.61284E-03-1.67266E-04-2.64526E-15
 -1      2169 1.47643E-03-1.63788E-04-2.27574E-15
 -1      2170 1.95700E-03-9.68469E-05-3.53640E-15
 -1      2171 1.80690E-03-1.39075E-04-3.14210E-15
 -1      2172 2.27836E-03 3.60280E-05-4.35017E-15
 -1      2173 2.11631E-03-3.95477E-05-3.93300E-15
 -1      2174 2.00316E-03-7.17281E-05-3.86854E-15
 -1      2175 2.67966E-03 2.27514E-04-5.22172E-15
 -1      2176 2.50330E-03 1.41361E-04-4.86332E-15
 -1      2177 3.03565E-03 3.91374E-04-5.89359E-15
 -1      2178 2.87195E-03 3.17154E-04-5.59787E-15
 -1      2179 3.36869E-03 5.27945E-04-6.49493E-15
 -1      2180 3.21630E-03 4.71528E-04-6.25978E-15
 -1      2181 3.65939E-03 6.11897E-04-6.83291E-15
 -1      2182 3.53334E-03 5.77295E-04-6.67529E-15
 -1      2183 3.86037E-03 6.57033E-04-7.04295E-15
 -1      2184 3.77709E-03 6.40422E-04-6.94716E-15
 -1      2185 2.49752E-03 1.17555E-03-3.67206E-15
 -1      2186 2.66382E-03 1.11767E-03-4.05942E-15
 -1      2187 3.31572E-04 9.38751E-05-2.73002E-16
 -1      2188 3.64720E-04 5.95518E-05-2.98142E-16
 -1      2189 1.45063E-04 7.36984E-06-1.72381E-16
 -1      2190 5.08085E-04-1.99571E-04-6.00201E-16
 -1      2191 2.41017E-03 1.20951E-03-3.52301E-15
 -1      2192 2.22684E-05 1.61038E-05-9.04631E-17
 -1      2193 1.12167E-05 4.03674E-05-8.34903E-17
 -1      2194 4.50088E-04 1.45433E-04-2.05646E-16
 -1      2195 3.87725E-05 2.19005E-05-1.29996E-16
 -1      2196 6.22898E-04-3.55905E-04-6.95096E-16
 -1      2197 6.91922E-04-3.51673E-04-9.02517E-16
 -1      2198 4.71390E-04-2.89150E-04-4.39603E-16
 -1      2199 2.81689E-04-1.88662E-04-2.19361E-16
 -1      2200 4.09214E-04 1.09048E-04-3.60592E-16
 -1      2201 3.93038E-03 6.95358E-04-7.79643E-15
 -1      2202 3.94320E-03 6.87113E-04-7.48359E-15
 -1      2203 3.95832E-03 6.99232E-04-8.02444E-15
 -1      2204 1.54118E-02 5.17233E-03-1.96195E-13
 -1      2205 1.52690E-02 5.12080E-03-1.93351E-13
 -1      2206 6.79863E-06 6.77441E-05-1.11322E-16
 -1      2207 1.45247E-05 7.03486E-05-8.32464E-17
 -1      2208 3.13760E-05 9.84726E-05-9.83337E-17
 -1      2209 4.39982E-06 8.89784E-05-1.31380E-16
 -1      2210 3.79940E-03 7.09160E-04-7.07346E-15
 -1      2211 1.40574E-02 4.03984E-03-2.06769E-13
 -1      2212 3.50340E-03 7.85945E-04-6.32706E-15
 -1      2213 3.60460E-03 7.63742E-04-6.92567E-15
 -1      2214 3.41181E-03 8.23982E-04-6.36913E-15
 -1      2215 3.89840E-03 6.83820E-04-7.58895E-15
 -1      2216 3.71589E-03 6.51709E-04-7.34981E-15
 -1      2217 3.43966E-03 5.82172E-04-7.04314E-15
 -1      2218 3.10580E-03 4.59178E-04-6.47446E-15
 -1      2219 2.35358E-03 9.12507E-05-4.79062E-15
 -1      2220 1.68502E-03-1.63419E-04-2.95215E-15
 -1      2221 1.38305E-03-1.61946E-04-2.07687E-15
 -1      2222 1.07956E-03-8.11124E-05-1.37745E-15
 -1      2223 7.87455E-04 2.23544E-05-8.80670E-16
 -1      2224 5.11670E-04 1.08562E-04-5.40705E-16
 -1      2225 2.00725E-04 5.36394E-05-2.56732E-16
 -1      2226 9.02574E-04 4.68766E-04-7.42814E-16
 -1      2227 1.70173E-03 1.08806E-03-1.79736E-15
 -1      2228 1.52064E-02 5.08385E-03-1.92934E-13
 -1      2229 2.76273E-03 1.08536E-03-4.45240E-15
 -1      2230 2.07477E-03 1.23646E-03-2.65028E-15
 -1      2231 4.79397E-04 1.83823E-04-4.31147E-16
 -1      2232 3.62305E-05 1.11340E-04-1.21380E-16
 -1      2233 1.91640E-05 1.05945E-04-1.32484E-16
 -1      2234 2.05894E-04 1.53872E-04-2.66050E-16
 -1      2235 1.33381E-04 1.48227E-04-2.11460E-16
 -1      2236 2.74618E-03 2.90968E-04-5.70983E-15
 -1      2237 8.58304E-05 1.29262E-04-1.27997E-16
 -1      2238 1.46632E-04 1.42708E-04-1.64311E-16
 -1      2239 5.27786E-04 2.48899E-05-4.65733E-16
 -1      2240 4.05592E-04-2.48919E-04-3.69157E-16
 -1      2241 2.55726E-04 1.51945E-04-2.82990E-16
 -1      2242 7.20615E-04-6.92258E-05-7.65555E-16
 -1      2243 7.14098E-04-1.01443E-04-7.93433E-16
 -1      2244 6.99618E-04-1.29949E-04-8.15063E-16
 -1      2245 6.83074E-04-1.56342E-04-8.31190E-16
 -1      2246 8.46020E-04-1.45890E-04-1.07625E-15
 -1      2247 2.37767E-04 1.50517E-04-2.49719E-16
 -1      2248 6.47491E-04-2.26575E-04-8.60314E-16
 -1      2249 6.35591E-04-2.50205E-04-8.47426E-16
 -1      2250 6.91154E-04-3.18867E-04-9.48690E-16
 -1      2251 8.89677E-04-3.78877E-04-1.44871E-15
 -1      2252 6.97391E-04-2.89920E-04-9.82070E-16
 -1      2253 6.18226E-04 2.59949E-04-2.84874E-16
 -1      2254 5.33017E-04 1.85512E-04-2.92870E-16
 -1      2255 8.05456E-04 4.21810E-04-3.22252E-16
 -1      2256 7.13764E-04 3.41067E-04-3.09431E-16
 -1      2257 8.14154E-04 3.96376E-04-4.33437E-16
 -1      2258 1.01929E-03 5.77885E-04-4.98570E-16
 -1      2259 1.03991E-03-4.01908E-04-1.91930E-15
 -1      2260 1.03593E-04 1.40088E-04-1.59784E-16
 -1      2261 1.26132E-03-4.19907E-04-2.74547E-15
 -1      2262 1.40868E-03-4.13459E-04-3.38937E-15
 -1      2263 1.55523E-03-3.96460E-04-4.10097E-15
 -1      2264 1.70190E-03-3.69815E-04-4.87984E-15
 -1      2265 1.49600E-03-3.72720E-04-3.79370E-15
 -1      2266 1.84862E-03-3.34927E-04-5.72409E-15
 -1      2267 1.99592E-03-2.92950E-04-6.63290E-15
 -1      2268 1.79540E-03-3.17740E-04-5.35571E-15
 -1      2269 2.14377E-03-2.45359E-04-7.60477E-15
 -1      2270 2.29224E-03-1.93372E-04-8.63875E-15
 -1      2271 2.09635E-03-2.31861E-04-7.17632E-15
 -1      2272 2.44134E-03-1.38289E-04-9.73187E-15
 -1      2273 2.59081E-03-8.11031E-05-1.08835E-14
 -1      2274 2.39947E-03-1.26292E-04-9.24389E-15
 -1      2275 2.74072E-03-2.27950E-05-1.20922E-14
 -1      2276 2.89064E-03 3.59826E-05-1.33569E-14
 -1      2277 2.70388E-03-1.10509E-05-1.15463E-14
 -1      2278 3.04070E-03 9.46046E-05-1.46753E-14
 -1      2279 3.19048E-03 1.52740E-04-1.60460E-14
 -1      2280 3.00803E-03 1.06610E-04-1.40714E-14
 -1      2281 3.34014E-03 2.10070E-04-1.74680E-14
 -1      2282 3.48934E-03 2.66494E-04-1.89394E-14
 -1      2283 3.31061E-03 2.22435E-04-1.68082E-14
 -1      2284 3.63825E-03 3.21912E-04-2.04595E-14
 -1      2285 3.78664E-03 3.76355E-04-2.20275E-14
 -1      2286 3.61081E-03 3.34565E-04-1.97448E-14
 -1      2287 3.93465E-03 4.29860E-04-2.36413E-14
 -1      2288 4.08215E-03 4.82515E-04-2.53004E-14
 -1      2289 3.90842E-03 4.42688E-04-2.28721E-14
 -1      2290 4.22926E-03 5.34422E-04-2.70048E-14
 -1      2291 4.37590E-03 5.85685E-04-2.87531E-14
 -1      2292 4.20356E-03 5.47322E-04-2.61826E-14
 -1      2293 4.52217E-03 6.36423E-04-3.05438E-14
 -1      2294 4.66804E-03 6.86730E-04-3.23750E-14
 -1      2295 4.49657E-03 6.49310E-04-2.96692E-14
 -1      2296 4.81357E-03 7.36716E-04-3.42469E-14
 -1      2297 4.95878E-03 7.86458E-04-3.61597E-14
 -1      2298 4.78783E-03 7.49530E-04-3.33244E-14
 -1      2299 5.10370E-03 8.36044E-04-3.81109E-14
 -1      2300 5.24835E-03 8.85532E-04-4.00991E-14
 -1      2301 5.07769E-03 8.48742E-04-3.71390E-14
 -1      2302 5.39276E-03 9.34986E-04-4.21249E-14
 -1      2303 5.53696E-03 9.84443E-04-4.41891E-14
 -1      2304 5.36647E-03 9.47542E-04-4.11073E-14
 -1      2305 5.68097E-03 1.03395E-03-4.62880E-14
 -1      2306 5.82481E-03 1.08352E-03-4.84224E-14
 -1      2307 5.65442E-03 1.04635E-03-4.52233E-14
 -1      2308 5.96849E-03 1.13319E-03-5.05921E-14
 -1      2309 6.11205E-03 1.18296E-03-5.27953E-14
 -1      2310 5.94174E-03 1.14544E-03-4.94832E-14
 -1      2311 6.25549E-03 1.23286E-03-5.50331E-14
 -1      2312 6.39884E-03 1.28287E-03-5.73038E-14
 -1      2313 6.22858E-03 1.24496E-03-5.38820E-14
 -1      2314 6.54209E-03 1.33301E-03-5.96055E-14
 -1      2315 6.68527E-03 1.38327E-03-6.19381E-14
 -1      2316 6.51508E-03 1.34497E-03-5.84120E-14
 -1      2317 6.82838E-03 1.43365E-03-6.43022E-14
 -1      2318 6.97144E-03 1.48415E-03-6.66944E-14
 -1      2319 6.80132E-03 1.44550E-03-6.30675E-14
 -1      2320 7.11445E-03 1.53476E-03-6.91166E-14
 -1      2321 7.25743E-03 1.58547E-03-7.15677E-14
 -1      2322 7.08737E-03 1.54649E-03-6.78425E-14
 -1      2323 7.40037E-03 1.63627E-03-7.40474E-14
 -1      2324 7.54328E-03 1.68716E-03-7.65564E-14
 -1      2325 7.37329E-03 1.64792E-03-7.27331E-14
 -1      2326 7.68618E-03 1.73813E-03-7.90924E-14
 -1      2327 7.82905E-03 1.78917E-03-8.16555E-14
 -1      2328 7.65911E-03 1.74971E-03-7.77377E-14
 -1      2329 7.97191E-03 1.84028E-03-8.42452E-14
 -1      2330 8.11476E-03 1.89145E-03-8.68615E-14
 -1      2331 7.94488E-03 1.85180E-03-8.28514E-14
 -1      2332 8.25760E-03 1.94267E-03-8.95031E-14
 -1      2333 8.40044E-03 1.99393E-03-9.21708E-14
 -1      2334 8.23060E-03 1.95414E-03-8.80708E-14
 -1      2335 8.54327E-03 2.04524E-03-9.48612E-14
 -1      2336 8.68609E-03 2.09658E-03-9.75737E-14
 -1      2337 8.51629E-03 2.05668E-03-9.33920E-14
 -1      2338 8.82892E-03 2.14796E-03-1.00307E-13
 -1      2339 8.97174E-03 2.19936E-03-1.03059E-13
 -1      2340 8.80197E-03 2.15936E-03-9.88017E-14
 -1      2341 9.11457E-03 2.25078E-03-1.05831E-13
 -1      2342 9.25739E-03 2.30223E-03-1.08620E-13
 -1      2343 9.08765E-03 2.26217E-03-1.04292E-13
 -1      2344 9.40022E-03 2.35369E-03-1.11426E-13
 -1      2345 9.54304E-03 2.40516E-03-1.14244E-13
 -1      2346 9.37332E-03 2.36506E-03-1.09856E-13
 -1      2347 9.68587E-03 2.45665E-03-1.17075E-13
 -1      2348 9.82870E-03 2.50815E-03-1.19918E-13
 -1      2349 9.65900E-03 2.46802E-03-1.15480E-13
 -1      2350 9.97153E-03 2.55966E-03-1.22774E-13
 -1      2351 1.01144E-02 2.61117E-03-1.25638E-13
 -1      2352 9.94468E-03 2.57101E-03-1.21156E-13
 -1      2353 1.02572E-02 2.66269E-03-1.28511E-13
 -1      2354 1.04000E-02 2.71422E-03-1.31392E-13
 -1      2355 1.02304E-02 2.67404E-03-1.26874E-13
 -1      2356 1.05429E-02 2.76574E-03-1.34280E-13
 -1      2357 1.06857E-02 2.81727E-03-1.37175E-13
 -1      2358 1.05160E-02 2.77709E-03-1.32626E-13
 -1      2359 1.08286E-02 2.86881E-03-1.40074E-13
 -1      2360 1.09714E-02 2.92034E-03-1.42982E-13
 -1      2361 1.08017E-02 2.88015E-03-1.38407E-13
 -1      2362 1.11143E-02 2.97187E-03-1.45897E-13
 -1      2363 1.12571E-02 3.02341E-03-1.48816E-13
 -1      2364 1.10874E-02 2.98322E-03-1.44215E-13
 -1      2365 1.14000E-02 3.07495E-03-1.51745E-13
 -1      2366 1.15428E-02 3.12648E-03-1.54683E-13
 -1      2367 1.13731E-02 3.08629E-03-1.50050E-13
 -1      2368 1.16857E-02 3.17802E-03-1.57627E-13
 -1      2369 1.18285E-02 3.22955E-03-1.60580E-13
 -1      2370 1.16588E-02 3.18937E-03-1.55914E-13
 -1      2371 1.19714E-02 3.28109E-03-1.63542E-13
 -1      2372 1.21142E-02 3.33263E-03-1.66511E-13
 -1      2373 1.19445E-02 3.29244E-03-1.61812E-13
 -1      2374 1.22571E-02 3.38416E-03-1.69485E-13
 -1      2375 1.23999E-02 3.43570E-03-1.72463E-13
 -1      2376 1.22303E-02 3.39551E-03-1.67735E-13
 -1      2377 1.25428E-02 3.48723E-03-1.75448E-13
 -1      2378 1.26856E-02 3.53876E-03-1.78433E-13
 -1      2379 1.25160E-02 3.49858E-03-1.73681E-13
 -1      2380 1.28285E-02 3.59029E-03-1.81419E-13
 -1      2381 1.29713E-02 3.64183E-03-1.84406E-13
 -1      2382 1.28017E-02 3.60164E-03-1.79638E-13
 -1      2383 1.31142E-02 3.69336E-03-1.87394E-13
 -1      2384 1.32570E-02 3.74489E-03-1.90382E-13
 -1      2385 1.30874E-02 3.70471E-03-1.85599E-13
 -1      2386 1.33999E-02 3.79642E-03-1.93375E-13
 -1      2387 1.35428E-02 3.84795E-03-1.96365E-13
 -1      2388 1.33731E-02 3.80777E-03-1.91567E-13
 -1      2389 1.49529E-02 4.88158E-03-1.94302E-13
 -1      2390 1.50036E-02 4.92372E-03-1.93929E-13
 -1      2391 2.66748E-03 1.27064E-03-4.32777E-15
 -1      2392 2.45816E-03 1.30885E-03-3.58341E-15
 -1      2393 3.08911E-03 1.15883E-03-6.03941E-15
 -1      2394 2.88025E-03 1.21029E-03-5.15732E-15
 -1      2395 3.51036E-03 1.08188E-03-8.08369E-15
 -1      2396 3.30430E-03 1.10902E-03-7.02631E-15
 -1      2397 3.88210E-03 1.07746E-03-1.02656E-14
 -1      2398 3.70056E-03 1.07306E-03-9.14773E-15
 -1      2399 3.63146E-03 1.01834E-03-8.73252E-15
 -1      2400 4.22894E-03 1.12178E-03-1.26512E-14
 -1      2401 4.05841E-03 1.09482E-03-1.14334E-14
 -1      2402 3.98551E-03 1.03627E-03-1.09767E-14
 -1      2403 4.55873E-03 1.19867E-03-1.52327E-14
 -1      2404 4.39560E-03 1.15714E-03-1.39183E-14
 -1      2405 4.31388E-03 1.09585E-03-1.34208E-14
 -1      2406 4.87715E-03 1.29493E-03-1.80047E-14
 -1      2407 4.71905E-03 1.24503E-03-1.65959E-14
 -1      2408 4.62757E-03 1.18160E-03-1.60574E-14
 -1      2409 5.18757E-03 1.40162E-03-2.09618E-14
 -1      2410 5.03313E-03 1.34738E-03-1.94605E-14
 -1      2411 4.93315E-03 1.28242E-03-1.88808E-14
 -1      2412 5.49204E-03 1.51320E-03-2.41005E-14
 -1      2413 5.34038E-03 1.45704E-03-2.25091E-14
 -1      2414 5.23386E-03 1.39120E-03-2.18877E-14
 -1      2415 5.79192E-03 1.62647E-03-2.74132E-14
 -1      2416 5.64243E-03 1.56976E-03-2.57343E-14
 -1      2417 5.53122E-03 1.50356E-03-2.50724E-14
 -1      2418 6.08822E-03 1.73975E-03-3.08927E-14
 -1      2419 5.94042E-03 1.68319E-03-2.91329E-14
 -1      2420 5.82602E-03 1.61698E-03-2.84317E-14
 -1      2421 6.38174E-03 1.85218E-03-3.45322E-14
 -1      2422 6.23526E-03 1.79611E-03-3.26931E-14
 -1      2423 6.11877E-03 1.73010E-03-3.19559E-14
 -1      2424 6.67311E-03 1.96343E-03-3.83268E-14
 -1      2425 6.52764E-03 1.90797E-03-3.64102E-14
 -1      2426 6.40984E-03 1.84226E-03-3.56379E-14
 -1      2427 6.96286E-03 2.07343E-03-4.22709E-14
 -1      2428 6.81815E-03 2.01860E-03-4.02812E-14
 -1      2429 6.69956E-03 1.95321E-03-3.94736E-14
 -1      2430 7.25138E-03 2.18223E-03-4.63596E-14
 -1      2431 7.10724E-03 2.12798E-03-4.42965E-14
 -1      2432 6.98821E-03 2.06292E-03-4.34560E-14
 -1      2433 7.53901E-03 2.28995E-03-5.05843E-14
 -1      2434 7.39529E-03 2.23622E-03-4.84560E-14
 -1      2435 7.27603E-03 2.17145E-03-4.75801E-14
 -1      2436 7.84032E-03 2.40205E-03-5.51623E-14
 -1      2437 7.68974E-03 2.34612E-03-5.28554E-14
 -1      2438 7.57038E-03 2.28162E-03-5.19490E-14
 -1      2439 8.12680E-03 2.50801E-03-5.96485E-14
 -1      2440 7.98361E-03 2.45513E-03-5.73910E-14
 -1      2441 7.86424E-03 2.39084E-03-5.64511E-14
 -1      2442 8.41297E-03 2.61333E-03-6.42499E-14
 -1      2443 8.26992E-03 2.56075E-03-6.19351E-14
 -1      2444 8.15058E-03 2.49664E-03-6.09675E-14
 -1      2445 8.69891E-03 2.71811E-03-6.89601E-14
 -1      2446 8.55596E-03 2.66578E-03-6.65915E-14
 -1      2447 8.43667E-03 2.60182E-03-6.55968E-14
 -1      2448 8.98471E-03 2.82247E-03-7.37780E-14
 -1      2449 8.84182E-03 2.77034E-03-7.13559E-14
 -1      2450 8.72260E-03 2.70649E-03-7.03361E-14
 -1      2451 9.27041E-03 2.92650E-03-7.86977E-14
 -1      2452 9.12757E-03 2.87452E-03-7.62253E-14
 -1      2453 9.00840E-03 2.81076E-03-7.51810E-14
 -1      2454 9.55606E-03 3.03026E-03-8.37169E-14
 -1      2455 9.41324E-03 2.97841E-03-8.11957E-14
 -1      2456 9.29414E-03 2.91472E-03-8.01293E-14
 -1      2457 9.84169E-03 3.13382E-03-8.88317E-14
 -1      2458 9.69888E-03 3.08206E-03-8.62636E-14
 -1      2459 9.57982E-03 3.01842E-03-8.51755E-14
 -1      2460 1.01273E-02 3.23723E-03-9.40308E-14
 -1      2461 9.98449E-03 3.18554E-03-9.14203E-14
 -1      2462 9.86548E-03 3.12194E-03-9.03119E-14
 -1      2463 1.04129E-02 3.34052E-03-9.93123E-14
 -1      2464 1.02701E-02 3.28889E-03-9.66616E-14
 -1      2465 1.01511E-02 3.22531E-03-9.55336E-14
 -1      2466 1.06985E-02 3.44373E-03-1.04667E-13
 -1      2467 1.05557E-02 3.39214E-03-1.01981E-13
 -1      2468 1.04368E-02 3.32858E-03-1.00837E-13
 -1      2469 1.09842E-02 3.54688E-03-1.10091E-13
 -1      2470 1.08413E-02 3.49531E-03-1.07372E-13
 -1      2471 1.07224E-02 3.43177E-03-1.06211E-13
 -1      2472 1.12698E-02 3.64999E-03-1.15574E-13
 -1      2473 1.11270E-02 3.59844E-03-1.12825E-13
 -1      2474 1.10081E-02 3.53491E-03-1.11653E-13
 -1      2475 1.15555E-02 3.75306E-03-1.21113E-13
 -1      2476 1.14126E-02 3.70153E-03-1.18337E-13
 -1      2477 1.12937E-02 3.63800E-03-1.17154E-13
 -1      2478 1.18554E-02 3.86127E-03-1.26971E-13
 -1      2479 1.17054E-02 3.80717E-03-1.24036E-13
 -1      2480 1.15865E-02 3.74365E-03-1.22844E-13
 -1      2481 1.21411E-02 3.96432E-03-1.32592E-13
 -1      2482 1.19982E-02 3.91280E-03-1.29778E-13
 -1      2483 1.18794E-02 3.84928E-03-1.28577E-13
 -1      2484 1.24268E-02 4.06736E-03-1.38246E-13
 -1      2485 1.22839E-02 4.01584E-03-1.35416E-13
 -1      2486 1.21651E-02 3.95232E-03-1.34207E-13
 -1      2487 1.27124E-02 4.17040E-03-1.43931E-13
 -1      2488 1.25696E-02 4.11888E-03-1.41085E-13
 -1      2489 1.24507E-02 4.05536E-03-1.39870E-13
 -1      2490 1.29981E-02 4.27343E-03-1.49637E-13
 -1      2491 1.28553E-02 4.22192E-03-1.46782E-13
 -1      2492 1.27364E-02 4.15840E-03-1.45564E-13
 -1      2493 1.32838E-02 4.37647E-03-1.55360E-13
 -1      2494 1.31410E-02 4.32495E-03-1.52498E-13
 -1      2495 1.30221E-02 4.26144E-03-1.51277E-13
 -1      2496 1.35695E-02 4.47951E-03-1.61087E-13
 -1      2497 1.34267E-02 4.42799E-03-1.58223E-13
 -1      2498 1.33078E-02 4.36447E-03-1.57003E-13
 -1      2499 1.38553E-02 4.58255E-03-1.66807E-13
 -1      2500 1.37124E-02 4.53103E-03-1.63948E-13
 -1      2501 1.35935E-02 4.46751E-03-1.62732E-13
 -1      2502 1.41410E-02 4.68560E-03-1.72517E-13
 -1      2503 1.39981E-02 4.63407E-03-1.69664E-13
 -1      2504 1.38793E-02 4.57055E-03-1.68453E-13
 -1      2505 1.44267E-02 4.78864E-03-1.78217E-13
 -1      2506 1.42838E-02 4.73712E-03-1.75370E-13
 -1      2507 1.41650E-02 4.67360E-03-1.74169E-13
 -1      2508 1.47124E-02 4.89169E-03-1.83907E-13
 -1      2509 1.45695E-02 4.84016E-03-1.81062E-13
 -1      2510 1.44507E-02 4.77664E-03-1.79870E-13
 -1      2511 1.49981E-02 4.99474E-03-1.89593E-13
 -1      2512 1.48552E-02 4.94321E-03-1.86751E-13
 -1      2513 1.47364E-02 4.87969E-03-1.85567E-13
 -1      2514 2.68827E-03 1.13585E-03-4.38984E-15
 -1      2515 2.85732E-03 1.06049E-03-4.88363E-15
 -1      2516 1.47520E-02 4.71443E-03-1.95789E-13
 -1      2517 1.48026E-02 4.75657E-03-1.95412E-13
 -1      2518 5.20248E-05 1.13813E-04-1.07333E-16
 -1      2519 1.48529E-02 4.79836E-03-1.95041E-13
 -1      2520 1.49027E-02 4.83979E-03-1.94672E-13
 -1      2521 1.48043E-02 4.81624E-03-1.92002E-13
 -1      2522 1.47038E-02 4.73267E-03-1.92736E-13
 -1      2523 1.46506E-02 4.63014E-03-1.96536E-13
 -1      2524 1.47013E-02 4.67229E-03-1.96162E-13
 -1      2525 1.46029E-02 4.64874E-03-1.93475E-13
 -1      2526 1.45493E-02 4.54585E-03-1.97287E-13
 -1      2527 1.46000E-02 4.58800E-03-1.96913E-13
 -1      2528 1.45016E-02 4.56445E-03-1.94216E-13
 -1      2529 1.44480E-02 4.46156E-03-1.98043E-13
 -1      2530 1.44986E-02 4.50371E-03-1.97666E-13
 -1      2531 1.44002E-02 4.48016E-03-1.94962E-13
 -1      2532 1.43466E-02 4.37727E-03-1.98799E-13
 -1      2533 1.43973E-02 4.41942E-03-1.98420E-13
 -1      2534 1.42989E-02 4.39587E-03-1.95707E-13
 -1      2535 1.42470E-02 4.29441E-03-1.99539E-13
 -1      2536 1.42968E-02 4.33584E-03-1.99169E-13
 -1      2537 1.41984E-02 4.31229E-03-1.96442E-13
 -1      2538 1.41457E-02 4.21012E-03-2.00293E-13
 -1      2539 1.41963E-02 4.25227E-03-1.99917E-13
 -1      2540 1.40979E-02 4.22871E-03-1.97177E-13
 -1      2541 1.40443E-02 4.12583E-03-2.01043E-13
 -1      2542 1.40950E-02 4.16798E-03-2.00669E-13
 -1      2543 1.39966E-02 4.14443E-03-1.97918E-13
 -1      2544 1.39430E-02 4.04155E-03-2.01789E-13
 -1      2545 1.39937E-02 4.08369E-03-2.01414E-13
 -1      2546 1.38953E-02 4.06014E-03-1.98655E-13
 -1      2547 1.39315E-02 3.99534E-03-2.04070E-13
 -1      2548 2.25201E-03 1.31467E-03-2.92538E-15
 -1      2549 2.04464E-03 1.27745E-03-2.32621E-15
 -1      2550 3.77387E-03 6.86050E-04-8.03500E-15
 -1      2551 3.66408E-03 6.67137E-04-7.91290E-15
 -1      2552 3.93139E-03 7.04238E-04-8.27541E-15
 -1      2553 3.86737E-03 7.00177E-04-8.15404E-15
 -1      2554 3.83532E-03 7.11098E-04-8.72620E-15
 -1      2555 6.71979E-04-1.80386E-04-8.51058E-16
 -1      2556 6.55977E-04-2.03220E-04-8.53552E-16
 -1      2557 7.84849E-04-2.44830E-04-1.15852E-15
 -1      2558 8.10807E-04-1.96207E-04-1.12646E-15
 -1      2559 1.75922E-03-1.48360E-04-3.35772E-15
 -1      2560 1.60091E-03-1.78587E-04-2.84622E-15
 -1      2561 3.77353E-03 7.23442E-04-7.46829E-15
 -1      2562 3.86465E-03 7.06676E-04-7.67096E-15
 -1      2563 5.98291E-05 3.51702E-05-1.71819E-16
 -1      2564 9.57687E-05 1.73097E-05-1.71460E-16
 -1      2565 1.62906E-03 1.03841E-03-1.55087E-15
 -1      2566 1.82693E-03 1.16736E-03-1.96222E-15
 -1      2567 3.05120E-03 9.74141E-04-5.43508E-15
 -1      2568 3.21172E-03 9.04310E-04-5.87423E-15
 -1      2569 1.86502E-03 1.20203E-03-1.83710E-15
 -1      2570 1.64970E-03 1.06776E-03-1.38314E-15
 -1      2571 3.82085E-04 1.05195E-04-3.15815E-16
 -1      2572 5.62090E-04 2.08190E-04-4.19302E-16
 -1      2573 1.23157E-03 7.19424E-04-9.77923E-16
 -1      2574 1.39966E-03 8.62494E-04-1.18934E-15
 -1      2575 8.01867E-04 3.74926E-04-5.82054E-16
 -1      2576 1.01504E-03 5.42233E-04-7.62425E-16
 -1      2577 2.81328E-03 3.52371E-04-6.31606E-15
 -1      2578 2.64328E-03 2.65513E-04-5.91619E-15
 -1      2579 8.08524E-04-1.59861E-06-8.79234E-16
 -1      2580 6.85548E-04 4.56750E-05-7.04298E-16
 -1      2581 1.14231E-03-1.17026E-04-1.51314E-15
 -1      2582 9.95356E-04-6.76682E-05-1.20333E-15
 -1      2583 1.40284E-03-1.78812E-04-2.21890E-15
 -1      2584 1.27840E-03-1.54088E-04-1.84786E-15
 -1      2585 1.17518E-03-1.43018E-04-1.63213E-15
 -1      2586 2.05367E-03-3.85600E-05-4.27607E-15
 -1      2587 1.92363E-03-9.60634E-05-3.86369E-15
 -1      2588 2.43269E-03 1.53951E-04-5.32963E-15
 -1      2589 2.23873E-03 4.95404E-05-4.79257E-15
 -1      2590 3.15008E-03 5.04610E-04-7.07732E-15
 -1      2591 2.98184E-03 4.31033E-04-6.69157E-15
 -1      2592 2.88310E-03 3.97376E-04-6.90016E-15
 -1      2593 3.52013E-03 6.28545E-04-7.64472E-15
 -1      2594 3.36987E-03 5.84734E-04-7.44921E-15
 -1      2595 2.02890E-03 1.24484E-03-2.46434E-15
 -1      2596 2.17769E-03 1.26232E-03-2.89105E-15
 -1      2597 5.77433E-04 4.92650E-05-5.34742E-16
 -1      2598 6.44743E-04-1.23565E-06-6.19405E-16
 -1      2599 2.34650E-03 1.24451E-03-3.37585E-15
 -1      2600 2.50015E-03 1.20203E-03-3.82878E-15
 -1      2601 1.56086E-03-1.85546E-04-2.93046E-15
 -1      2602 1.48767E-03-1.88596E-04-2.56563E-15
 -1      2603 1.38106E-03-1.89358E-04-2.29878E-15
 -1      2604 1.82214E-03-1.25737E-04-3.72936E-15
 -1      2605 8.34881E-04-3.07037E-04-1.32603E-15
 -1      2606 2.14727E-03 1.37719E-05-4.77621E-15
 -1      2607 2.78630E-03 1.19413E-03-4.82708E-15
 -1      2608 3.22902E-03 1.07072E-03-6.66155E-15
 -1      2609 1.12229E-03-3.77915E-04-2.22680E-15
 -1      2610 1.94073E-03 1.22430E-03-2.15995E-15
 -1      2611 1.48669E-02 4.89462E-03-1.90022E-13
 -1      2612 1.50159E-02 4.96031E-03-1.92308E-13
 -1      2613 3.92201E-03 7.11757E-04-8.20506E-15
 -1      2614 2.97522E-03 1.03270E-03-5.36206E-15
 -1      2615 2.61840E-03 1.18566E-03-4.22061E-15
 -1      2616 1.55400E-02 5.22014E-03-1.98653E-13
 -1      2617 1.54239E-02 5.15727E-03-1.97562E-13
 -1      2618 2.52338E-03 2.12449E-04-5.90541E-15
 -1      2619 3.96399E-03 7.13844E-04-8.58902E-15
 -1      2620 3.95948E-03 7.29574E-04-9.16504E-15
 -1      2621 3.98433E-03 7.21314E-04-8.90491E-15
 -1      2622 1.52749E-02 5.09157E-03-1.95285E-13
 -1      2623 1.37643E-02 3.92644E-03-2.01087E-13
 -1      2624 1.38742E-02 3.99620E-03-2.01584E-13
 -1      2625 1.37758E-02 3.97264E-03-1.98812E-13
 -1      2626 1.36383E-02 3.88195E-03-1.98393E-13
 -1      2627 3.34524E-03 8.69205E-04-6.44363E-15
 -1      2628 3.64081E-03 7.81827E-04-7.54183E-15
 -1      2629 3.70682E-03 7.48584E-04-7.50716E-15
 -1      2630 3.79665E-03 7.46884E-04-8.10752E-15
 -1      2631 3.60645E-03 6.65823E-04-8.32781E-15
 -1      2632 2.28356E-03 1.27297E-03-3.16004E-15
 -1      2633 5.65610E-04 7.55708E-05-5.39187E-16
 -1      2634 1.36115E-02 3.89330E-03-1.96577E-13
 -1      2635 8.74366E-04-4.16064E-05-9.82545E-16
 -1      2636 1.53578E-03 9.72223E-04-1.31527E-15
 -1      2637 1.43878E-03 9.02218E-04-1.05031E-15
 -1      2638 3.25664E-03 5.54739E-04-7.66843E-15
 -1      2639 1.50666E-02 5.00246E-03-1.91940E-13
 -1      2640 1.21701E-03 7.26419E-04-7.46568E-16
 -1      2641 6.60148E-04 2.70449E-04-4.36947E-16
 -1      2642 1.10587E-03 6.17441E-04-7.78823E-16
 -1      2643 4.13477E-04 1.04669E-04-2.54164E-16
 -1      2644 3.31587E-04 6.65084E-05-2.48906E-16
 -1      2645 1.50875E-02 5.02033E-03-1.91760E-13
 -1      2646 2.70455E-04 5.22918E-05-2.54117E-16
 -1      2647 8.06170E-04-5.70675E-05-8.80074E-16
 -1      2648 9.57758E-04-1.10123E-04-1.18463E-15
 -1      2649 1.80233E-04 2.26193E-05-2.03810E-16
 -1      2650 5.77972E-04 2.12188E-04-3.52515E-16
 -1      2651 3.60443E-04 1.39769E-04-3.61419E-16
 -1      2652 4.39860E-03 1.07647E-03-1.42324E-14
 -1      2653 4.24662E-03 1.03671E-03-1.29568E-14
 -1      2654 4.09109E-03 1.00251E-03-1.17283E-14
 -1      2655 3.93030E-03 9.77392E-04-1.05498E-14
 -1      2656 4.18963E-03 9.78751E-04-1.24898E-14
 -1      2657 1.43607E-03-3.48950E-04-3.48814E-15
 -1      2658 1.58834E-03-3.29641E-04-4.20580E-15
 -1      2659 9.84882E-04-1.58663E-04-1.35083E-15
 -1      2660 9.61603E-04-1.82890E-04-1.38243E-15
 -1      2661 2.23895E-03 6.71158E-05-5.38579E-15
 -1      2662 2.07626E-03-1.72739E-05-4.83847E-15
 -1      2663 1.47117E-02 4.80650E-03-1.88775E-13
 -1      2664 1.47240E-02 4.84310E-03-1.87167E-13
 -1      2665 1.45812E-02 4.79157E-03-1.84312E-13
 -1      2666 3.92346E-03 7.30968E-04-8.69935E-15
 -1      2667 3.97250E-03 7.24375E-04-8.83923E-15
 -1      2668 1.74047E-03-3.00455E-04-4.98925E-15
 -1      2669 1.89337E-03-2.62757E-04-5.83781E-15
 -1      2670 1.68506E-03-2.83507E-04-4.62506E-15
 -1      2671 2.04679E-03-2.17972E-04-6.75007E-15
 -1      2672 2.20089E-03-1.67749E-04-7.72449E-15
 -1      2673 1.99598E-03-2.04282E-04-6.32629E-15
 -1      2674 2.35552E-03-1.13495E-04-8.75939E-15
 -1      2675 2.51038E-03-5.66139E-05-9.85307E-15
 -1      2676 2.31007E-03-1.00450E-04-8.27775E-15
 -1      2677 2.66538E-03 1.80409E-06-1.10038E-14
 -1      2678 2.82002E-03 6.08482E-05-1.22111E-14
 -1      2679 2.62555E-03 1.54125E-05-1.04658E-14
 -1      2680 2.97432E-03 1.19810E-04-1.34727E-14
 -1      2681 3.12780E-03 1.78281E-04-1.47874E-14
 -1      2682 2.93970E-03 1.34073E-04-1.28786E-14
 -1      2683 3.28061E-03 2.35877E-04-1.61534E-14
 -1      2684 3.43240E-03 2.92521E-04-1.75699E-14
 -1      2685 3.25022E-03 2.50411E-04-1.55043E-14
 -1      2686 3.58339E-03 3.48059E-04-1.90356E-14
 -1      2687 3.73335E-03 4.02589E-04-2.05492E-14
 -1      2688 3.55600E-03 3.62482E-04-1.83321E-14
 -1      2689 3.88253E-03 4.56093E-04-2.21088E-14
 -1      2690 4.03081E-03 5.08732E-04-2.37150E-14
 -1      2691 3.85700E-03 4.70177E-04-2.13523E-14
 -1      2692 4.17841E-03 5.60562E-04-2.53666E-14
 -1      2693 4.32529E-03 6.11742E-04-2.70624E-14
 -1      2694 4.15381E-03 5.74228E-04-2.45569E-14
 -1      2695 4.47160E-03 6.62357E-04-2.88022E-14
 -1      2696 4.61738E-03 7.12540E-04-3.05839E-14
 -1      2697 4.44728E-03 6.75621E-04-2.79406E-14
 -1      2698 4.76272E-03 7.62379E-04-3.24071E-14
 -1      2699 4.90766E-03 8.11975E-04-3.42706E-14
 -1      2700 4.73826E-03 7.75298E-04-3.14962E-14
 -1      2701 5.05228E-03 8.61403E-04-3.61734E-14
 -1      2702 5.19661E-03 9.10733E-04-3.81157E-14
 -1      2703 5.02748E-03 8.74038E-04-3.52142E-14
 -1      2704 5.34070E-03 9.60025E-04-4.00953E-14
 -1      2705 5.48459E-03 1.00932E-03-4.21122E-14
 -1      2706 5.31547E-03 9.72432E-04-3.90889E-14
 -1      2707 5.62830E-03 1.05867E-03-4.41664E-14
 -1      2708 5.77188E-03 1.10809E-03-4.62563E-14
 -1      2709 5.60265E-03 1.07089E-03-4.31146E-14
 -1      2710 5.91533E-03 1.15760E-03-4.83814E-14
 -1      2711 6.05869E-03 1.20723E-03-5.05421E-14
 -1      2712 5.88930E-03 1.16967E-03-4.72859E-14
 -1      2713 6.20195E-03 1.25699E-03-5.27367E-14
 -1      2714 6.34515E-03 1.30687E-03-5.49652E-14
 -1      2715 6.17561E-03 1.26893E-03-5.15982E-14
 -1      2716 6.48828E-03 1.35688E-03-5.72259E-14
 -1      2717 6.63137E-03 1.40703E-03-5.95180E-14
 -1      2718 6.46171E-03 1.36872E-03-5.60456E-14
 -1      2719 6.77441E-03 1.45730E-03-6.18399E-14
 -1      2720 6.91742E-03 1.50769E-03-6.41925E-14
 -1      2721 6.74767E-03 1.46904E-03-6.06194E-14
 -1      2722 7.06039E-03 1.55820E-03-6.65751E-14
 -1      2723 7.20335E-03 1.60882E-03-6.89852E-14
 -1      2724 7.03353E-03 1.56987E-03-6.53133E-14
 -1      2725 7.34628E-03 1.65955E-03-7.14250E-14
 -1      2726 7.48919E-03 1.71037E-03-7.38928E-14
 -1      2727 7.31935E-03 1.67115E-03-7.01238E-14
 -1      2728 7.63209E-03 1.76127E-03-7.63901E-14
 -1      2729 7.77498E-03 1.81226E-03-7.89148E-14
 -1      2730 7.60513E-03 1.77282E-03-7.50494E-14
 -1      2731 7.91786E-03 1.86331E-03-8.14657E-14
 -1      2732 8.06074E-03 1.91443E-03-8.40433E-14
 -1      2733 7.89088E-03 1.87481E-03-8.00862E-14
 -1      2734 8.20360E-03 1.96561E-03-8.66467E-14
 -1      2735 8.34646E-03 2.01684E-03-8.92749E-14
 -1      2736 8.17662E-03 1.97708E-03-8.52292E-14
 -1      2737 8.48932E-03 2.06811E-03-9.19298E-14
 -1      2738 8.63217E-03 2.11943E-03-9.46071E-14
 -1      2739 8.46235E-03 2.07955E-03-9.04747E-14
 -1      2740 8.77503E-03 2.17078E-03-9.73063E-14
 -1      2741 8.91788E-03 2.22216E-03-1.00025E-13
 -1      2742 8.74808E-03 2.18219E-03-9.58171E-14
 -1      2743 9.06072E-03 2.27356E-03-1.02763E-13
 -1      2744 9.20357E-03 2.32499E-03-1.05520E-13
 -1      2745 9.03379E-03 2.28496E-03-1.01242E-13
 -1      2746 9.34642E-03 2.37644E-03-1.08294E-13
 -1      2747 9.48927E-03 2.42791E-03-1.11086E-13
 -1      2748 9.31951E-03 2.38782E-03-1.06742E-13
 -1      2749 9.63211E-03 2.47938E-03-1.13893E-13
 -1      2750 9.77496E-03 2.53087E-03-1.16712E-13
 -1      2751 9.60522E-03 2.49076E-03-1.12311E-13
 -1      2752 9.91781E-03 2.58237E-03-1.19544E-13
 -1      2753 1.00607E-02 2.63388E-03-1.22388E-13
 -1      2754 9.89094E-03 2.59374E-03-1.17939E-13
 -1      2755 1.02035E-02 2.68540E-03-1.25243E-13
 -1      2756 1.03464E-02 2.73692E-03-1.28106E-13
 -1      2757 1.01766E-02 2.69676E-03-1.23616E-13
 -1      2758 1.04892E-02 2.78844E-03-1.30976E-13
 -1      2759 1.06321E-02 2.83997E-03-1.33857E-13
 -1      2760 1.04624E-02 2.79980E-03-1.29333E-13
 -1      2761 1.07749E-02 2.89150E-03-1.36743E-13
 -1      2762 1.09178E-02 2.94304E-03-1.39636E-13
 -1      2763 1.07481E-02 2.90285E-03-1.35083E-13
 -1      2764 1.10606E-02 2.99457E-03-1.42537E-13
 -1      2765 1.12035E-02 3.04611E-03-1.45444E-13
 -1      2766 1.10338E-02 3.00592E-03-1.40863E-13
 -1      2767 1.13463E-02 3.09764E-03-1.48357E-13
 -1      2768 1.14892E-02 3.14918E-03-1.51279E-13
 -1      2769 1.13195E-02 3.10899E-03-1.46669E-13
 -1      2770 1.16320E-02 3.20071E-03-1.54207E-13
 -1      2771 1.17749E-02 3.25225E-03-1.57143E-13
 -1      2772 1.16052E-02 3.21206E-03-1.52502E-13
 -1      2773 1.19177E-02 3.30379E-03-1.60087E-13
 -1      2774 1.20606E-02 3.35532E-03-1.63037E-13
 -1      2775 1.18909E-02 3.31513E-03-1.58366E-13
 -1      2776 1.22034E-02 3.40686E-03-1.65994E-13
 -1      2777 1.23463E-02 3.45839E-03-1.68954E-13
 -1      2778 1.21766E-02 3.41820E-03-1.64258E-13
 -1      2779 1.24892E-02 3.50992E-03-1.71920E-13
 -1      2780 1.26320E-02 3.56146E-03-1.74892E-13
 -1      2781 1.24623E-02 3.52127E-03-1.70170E-13
 -1      2782 1.27749E-02 3.61299E-03-1.77866E-13
 -1      2783 1.29177E-02 3.66452E-03-1.80837E-13
 -1      2784 1.27481E-02 3.62434E-03-1.76097E-13
 -1      2785 1.30606E-02 3.71606E-03-1.83813E-13
 -1      2786 1.32034E-02 3.76759E-03-1.86788E-13
 -1      2787 1.30338E-02 3.72741E-03-1.82032E-13
 -1      2788 1.33463E-02 3.81912E-03-1.89765E-13
 -1      2789 1.34891E-02 3.87065E-03-1.92746E-13
 -1      2790 1.33195E-02 3.83047E-03-1.87974E-13
 -1      2791 1.42512E-02 4.41446E-03-1.92631E-13
 -1      2792 1.43019E-02 4.45661E-03-1.92264E-13
 -1      2793 3.30567E-03 9.18430E-04-6.60882E-15
 -1      2794 3.47840E-03 8.46416E-04-7.13892E-15
 -1      2795 2.35096E-03 1.28496E-03-3.32208E-15
 -1      2796 3.43156E-03 9.64436E-04-7.50458E-15
 -1      2797 3.21761E-03 1.00701E-03-6.48614E-15
 -1      2798 1.03260E-03-3.38400E-04-1.91513E-15
 -1      2799 1.26034E-03-3.55114E-04-2.74085E-15
 -1      2800 3.77867E-03 9.60391E-04-9.52493E-15
 -1      2801 3.60207E-03 9.57722E-04-8.44122E-15
 -1      2802 3.60837E-03 8.91609E-04-8.23835E-15
 -1      2803 3.90376E-03 9.17790E-04-1.02263E-14
 -1      2804 4.69616E-03 1.16958E-03-1.69243E-14
 -1      2805 4.54803E-03 1.12127E-03-1.55542E-14
 -1      2806 4.47645E-03 1.06339E-03-1.50513E-14
 -1      2807 4.98967E-03 1.27372E-03-1.98006E-14
 -1      2808 4.84311E-03 1.22063E-03-1.83394E-14
 -1      2809 4.75933E-03 1.16144E-03-1.77969E-14
 -1      2810 5.28148E-03 1.38367E-03-2.28587E-14
 -1      2811 5.13562E-03 1.32818E-03-2.13071E-14
 -1      2812 5.04228E-03 1.26743E-03-2.07257E-14
 -1      2813 5.57239E-03 1.49615E-03-2.60942E-14
 -1      2814 5.42696E-03 1.43971E-03-2.44550E-14
 -1      2815 5.32646E-03 1.37767E-03-2.38352E-14
 -1      2816 5.86256E-03 1.60924E-03-2.95011E-14
 -1      2817 5.71750E-03 1.55269E-03-2.77763E-14
 -1      2818 5.61184E-03 1.48974E-03-2.71206E-14
 -1      2819 6.15202E-03 1.72187E-03-3.30702E-14
 -1      2820 6.00734E-03 1.66565E-03-3.12658E-14
 -1      2821 5.89804E-03 1.60216E-03-3.05738E-14
 -1      2822 6.44080E-03 1.83352E-03-3.67969E-14
 -1      2823 6.29647E-03 1.77784E-03-3.49147E-14
 -1      2824 6.18467E-03 1.71409E-03-3.41889E-14
 -1      2825 6.72894E-03 1.94401E-03-4.06762E-14
 -1      2826 6.58493E-03 1.88892E-03-3.87178E-14
 -1      2827 6.47144E-03 1.82509E-03-3.79602E-14
 -1      2828 7.01652E-03 2.05330E-03-4.46986E-14
 -1      2829 6.87278E-03 1.99880E-03-4.26705E-14
 -1      2830 6.75818E-03 1.93500E-03-4.18810E-14
 -1      2831 7.30362E-03 2.16149E-03-4.88610E-14
 -1      2832 7.16012E-03 2.10753E-03-4.67628E-14
 -1      2833 7.04479E-03 2.04382E-03-4.59450E-14
 -1      2834 7.60467E-03 2.27403E-03-5.33743E-14
 -1      2835 7.45419E-03 2.21789E-03-5.10993E-14
 -1      2836 7.33840E-03 2.15429E-03-5.02505E-14
 -1      2837 7.89107E-03 2.38034E-03-5.78023E-14
 -1      2838 7.74790E-03 2.32728E-03-5.55734E-14
 -1      2839 7.63184E-03 2.26381E-03-5.46947E-14
 -1      2840 8.17725E-03 2.48595E-03-6.23490E-14
 -1      2841 8.03418E-03 2.43323E-03-6.00615E-14
 -1      2842 7.91797E-03 2.36987E-03-5.91547E-14
 -1      2843 8.46326E-03 2.59097E-03-6.70093E-14
 -1      2844 8.32027E-03 2.53853E-03-6.46656E-14
 -1      2845 8.20398E-03 2.47526E-03-6.37337E-14
 -1      2846 8.74915E-03 2.69552E-03-7.17785E-14
 -1      2847 8.60621E-03 2.64330E-03-6.93807E-14
 -1      2848 8.48990E-03 2.58012E-03-6.84243E-14
 -1      2849 9.03495E-03 2.79970E-03-7.66530E-14
 -1      2850 8.89206E-03 2.74765E-03-7.42025E-14
 -1      2851 8.77575E-03 2.68455E-03-7.32235E-14
 -1      2852 9.32070E-03 2.90357E-03-8.16292E-14
 -1      2853 9.17783E-03 2.85167E-03-7.91288E-14
 -1      2854 9.06154E-03 2.78862E-03-7.81279E-14
 -1      2855 9.60641E-03 3.00722E-03-8.67025E-14
 -1      2856 9.46356E-03 2.95542E-03-8.41542E-14
 -1      2857 9.34729E-03 2.89242E-03-8.31330E-14
 -1      2858 9.89210E-03 3.11069E-03-9.18626E-14
 -1      2859 9.74925E-03 3.05898E-03-8.92723E-14
 -1      2860 9.63302E-03 2.99601E-03-8.82304E-14
 -1      2861 1.01778E-02 3.21403E-03-9.71093E-14
 -1      2862 1.00349E-02 3.16238E-03-9.44753E-14
 -1      2863 9.91873E-03 3.09944E-03-9.34160E-14
 -1      2864 1.04634E-02 3.31728E-03-1.02433E-13
 -1      2865 1.03206E-02 3.26567E-03-9.97619E-14
 -1      2866 1.02044E-02 3.20275E-03-9.86851E-14
 -1      2867 1.07491E-02 3.42045E-03-1.07832E-13
 -1      2868 1.06063E-02 3.36887E-03-1.05123E-13
 -1      2869 1.04901E-02 3.30597E-03-1.04033E-13
 -1      2870 1.10348E-02 3.52357E-03-1.13292E-13
 -1      2871 1.08920E-02 3.47202E-03-1.10555E-13
 -1      2872 1.07758E-02 3.40912E-03-1.09452E-13
 -1      2873 1.13205E-02 3.62666E-03-1.18810E-13
 -1      2874 1.11776E-02 3.57512E-03-1.16044E-13
 -1      2875 1.10615E-02 3.51223E-03-1.14933E-13
 -1      2876 1.16204E-02 3.73488E-03-1.24651E-13
 -1      2877 1.14705E-02 3.68077E-03-1.21725E-13
 -1      2878 1.13544E-02 3.61789E-03-1.20604E-13
 -1      2879 1.19061E-02 3.83793E-03-1.30256E-13
 -1      2880 1.17633E-02 3.78640E-03-1.27448E-13
 -1      2881 1.16472E-02 3.72353E-03-1.26321E-13
 -1      2882 1.21918E-02 3.94097E-03-1.35899E-13
 -1      2883 1.20490E-02 3.88945E-03-1.33074E-13
 -1      2884 1.19329E-02 3.82657E-03-1.31938E-13
 -1      2885 1.24775E-02 4.04401E-03-1.41571E-13
 -1      2886 1.23347E-02 3.99249E-03-1.38730E-13
 -1      2887 1.22186E-02 3.92961E-03-1.37589E-13
 -1      2888 1.27632E-02 4.14704E-03-1.47272E-13
 -1      2889 1.26204E-02 4.09553E-03-1.44420E-13
 -1      2890 1.25043E-02 4.03265E-03-1.43274E-13
 -1      2891 1.30489E-02 4.25008E-03-1.52994E-13
 -1      2892 1.29061E-02 4.19856E-03-1.50131E-13
 -1      2893 1.27900E-02 4.13569E-03-1.48985E-13
 -1      2894 1.33346E-02 4.35312E-03-1.58724E-13
 -1      2895 1.31918E-02 4.30160E-03-1.55858E-13
 -1      2896 1.30757E-02 4.23872E-03-1.54711E-13
 -1      2897 1.36204E-02 4.45616E-03-1.64456E-13
 -1      2898 1.34775E-02 4.40464E-03-1.61591E-13
 -1      2899 1.33614E-02 4.34176E-03-1.60447E-13
 -1      2900 1.39061E-02 4.55920E-03-1.70179E-13
 -1      2901 1.37632E-02 4.50768E-03-1.67319E-13
 -1      2902 1.36472E-02 4.44480E-03-1.66182E-13
 -1      2903 1.41918E-02 4.66224E-03-1.75898E-13
 -1      2904 1.40489E-02 4.61072E-03-1.73039E-13
 -1      2905 1.39329E-02 4.54785E-03-1.71907E-13
 -1      2906 1.44579E-02 4.75267E-03-1.81532E-13
 -1      2907 1.43150E-02 4.70115E-03-1.78678E-13
 -1      2908 1.41990E-02 4.63827E-03-1.77554E-13
 -1      2909 1.44456E-02 4.71608E-03-1.83126E-13
 -1      2910 2.60555E-03 2.62913E-04-6.58516E-15
 -1      2911 2.41793E-03 1.61259E-04-5.97141E-15
 -1      2912 2.33689E-03 1.15845E-04-6.02619E-15
 -1      2913 1.44539E-02 4.58304E-03-1.91162E-13
 -1      2914 1.45045E-02 4.62519E-03-1.90794E-13
 -1      2915 1.41499E-02 4.33017E-03-1.93362E-13
 -1      2916 1.42005E-02 4.37232E-03-1.92998E-13
 -1      2917 1.41021E-02 4.34877E-03-1.90293E-13
 -1      2918 1.40502E-02 4.24731E-03-1.94079E-13
 -1      2919 1.41000E-02 4.28874E-03-1.93721E-13
 -1      2920 1.40017E-02 4.26519E-03-1.91005E-13
 -1      2921 1.39489E-02 4.16302E-03-1.94806E-13
 -1      2922 1.39996E-02 4.20516E-03-1.94442E-13
 -1      2923 1.39012E-02 4.18161E-03-1.91716E-13
 -1      2924 1.38476E-02 4.07873E-03-1.95535E-13
 -1      2925 1.38982E-02 4.12087E-03-1.95172E-13
 -1      2926 1.37999E-02 4.09732E-03-1.92433E-13
 -1      2927 3.89340E-03 7.31208E-04-9.43248E-15
 -1      2928 3.80659E-03 7.20396E-04-9.30800E-15
 -1      2929 3.67644E-03 6.92214E-04-9.00536E-15
 -1      2930 3.54343E-03 6.58680E-04-8.72369E-15
 -1      2931 1.89896E-03-9.45134E-05-4.23575E-15
 -1      2932 1.75497E-03-1.45521E-04-3.70691E-15
 -1      2933 9.74981E-04-3.05812E-04-1.71450E-15
 -1      2934 3.37179E-03 6.04621E-04-8.39587E-15
 -1      2935 3.17267E-03 5.30353E-04-8.00209E-15
 -1      2936 1.13276E-03-1.47689E-04-1.57514E-15
 -1      2937 1.03066E-03-1.52191E-04-1.41154E-15
 -1      2938 1.14971E-03-1.85878E-04-1.77129E-15
 -1      2939 1.24868E-03-1.76651E-04-1.91050E-15
 -1      2940 1.35847E-02 3.90465E-03-1.94769E-13
 -1      2941 1.36803E-02 3.93865E-03-1.96790E-13
 -1      2942 1.35579E-02 3.91600E-03-1.92965E-13
 -1      2943 5.62161E-04 8.79791E-05-5.58852E-16
 -1      2944 4.37858E-04 1.21377E-04-4.23693E-16
 -1      2945 4.04947E-04 1.22088E-04-3.75581E-16
 -1      2946 1.11383E-03 6.33749E-04-7.00828E-16
 -1      2947 2.96750E-03 4.42046E-04-7.64055E-15
 -1      2948 2.81809E-03 3.70220E-04-7.24186E-15
 -1      2949 1.37490E-02 3.98399E-03-1.97002E-13
 -1      2950 1.43525E-02 4.49875E-03-1.91897E-13
 -1      2951 1.44032E-02 4.54090E-03-1.91529E-13
 -1      2952 1.43048E-02 4.51735E-03-1.88845E-13
 -1      2953 1.42035E-02 4.43306E-03-1.89571E-13
 -1      2954 1.46614E-02 4.76472E-03-1.89132E-13
 -1      2955 9.13523E-04 4.67253E-04-5.33671E-16
 -1      2956 8.02845E-04 3.75456E-04-4.89571E-16
 -1      2957 1.07959E-03-2.12181E-04-1.74429E-15
 -1      2958 9.43745E-04-2.05512E-04-1.41793E-15
 -1      2959 9.26324E-04-2.29264E-04-1.44540E-15
 -1      2960 1.99689E-03-5.32016E-05-4.79915E-15
 -1      2961 3.88615E-03 7.47409E-04-8.73427E-15
 -1      2962 3.96106E-03 7.57314E-04-9.37793E-15
 -1      2963 3.84360E-03 7.70181E-04-8.76561E-15
 -1      2964 3.59779E-03 8.27884E-04-7.72146E-15
 -1      2965 1.35275E-03-3.24207E-04-3.08159E-15
 -1      2966 3.76000E-03 7.17092E-04-9.71573E-15
 -1      2967 2.70925E-03 3.10764E-04-7.29981E-15
 -1      2968 4.00662E-03 7.38730E-04-9.41604E-15
 -1      2969 3.99848E-03 7.52211E-04-1.00784E-14
 -1      2970 3.95124E-03 7.43043E-04-9.75436E-15
 -1      2971 3.94151E-03 7.53536E-04-1.03531E-14
 -1      2972 1.45548E-02 4.66697E-03-1.90430E-13
 -1      2973 1.46050E-02 4.70876E-03-1.90064E-13
 -1      2974 1.44057E-02 4.60128E-03-1.88121E-13
 -1      2975 1.37997E-02 4.02614E-03-1.96640E-13
 -1      2976 9.56590E-04-2.53440E-04-1.57819E-15
 -1      2977 9.42437E-04-2.79241E-04-1.58952E-15
 -1      2978 1.14396E-03-2.99511E-04-2.23355E-15
 -1      2979 1.08651E-03-2.54814E-04-1.93142E-15
 -1      2980 3.06292E-03 1.04050E-03-5.82874E-15
 -1      2981 3.46563E-03 6.37261E-04-9.06908E-15
 -1      2982 1.72323E-03-1.56203E-04-3.84287E-15
 -1      2983 1.64374E-03-1.74064E-04-3.37572E-15
 -1      2984 1.53894E-03-1.93260E-04-3.05959E-15
 -1      2985 2.89918E-03 1.11929E-03-5.25049E-15
 -1      2986 2.66998E-03 1.19081E-03-4.41303E-15
 -1      2987 1.32714E-03-1.93826E-04-2.22145E-15
 -1      2988 3.10275E-03 4.98802E-04-8.35707E-15
 -1      2989 2.50391E-03 1.24938E-03-3.84754E-15
 -1      2990 1.36296E-02 3.95929E-03-1.93428E-13
 -1      2991 1.37759E-02 4.03543E-03-1.95080E-13
 -1      2992 1.36775E-02 4.01188E-03-1.92334E-13
 -1      2993 1.35341E-02 3.92529E-03-1.91410E-13
 -1      2994 4.73006E-04 8.59610E-05-4.17472E-16
 -1      2995 4.81646E-03 1.15684E-03-1.86760E-14
 -1      2996 4.68075E-03 1.10552E-03-1.72530E-14
 -1      2997 4.54635E-03 1.05613E-03-1.58763E-14
 -1      2998 4.41212E-03 1.00902E-03-1.45454E-14
 -1      2999 4.60694E-03 1.05296E-03-1.67083E-14
 -1      3000 3.73800E-03 8.34819E-04-8.67889E-15
 -1      3001 2.43229E-03 1.59743E-04-6.67049E-15
 -1      3002 2.26982E-03 7.41333E-05-6.05456E-15
 -1      3003 1.94438E-03-1.91394E-04-5.90509E-15
 -1      3004 2.10357E-03-1.41935E-04-6.82139E-15
 -1      3005 2.26372E-03-8.73791E-05-7.79849E-15
 -1      3006 2.42430E-03-2.96808E-05-8.83607E-15
 -1      3007 2.21715E-03-7.51407E-05-7.32305E-15
 -1      3008 2.58509E-03 2.98734E-05-9.93135E-15
 -1      3009 2.74533E-03 8.99017E-05-1.10825E-14
 -1      3010 2.54446E-03 4.44811E-05-9.40018E-15
 -1      3011 2.90490E-03 1.49648E-04-1.22891E-14
 -1      3012 3.06311E-03 2.08579E-04-1.35493E-14
 -1      3013 2.87021E-03 1.66196E-04-1.17041E-14
 -1      3014 3.22007E-03 2.66320E-04-1.48604E-14
 -1      3015 3.37533E-03 3.22873E-04-1.62226E-14
 -1      3016 3.19036E-03 2.83529E-04-1.42221E-14
 -1      3017 3.52915E-03 3.78081E-04-1.76346E-14
 -1      3018 3.68134E-03 4.32177E-04-1.90947E-14
 -1      3019 3.50301E-03 3.94914E-04-1.69427E-14
 -1      3020 3.83217E-03 4.85126E-04-2.06014E-14
 -1      3021 3.98163E-03 5.37208E-04-2.21541E-14
 -1      3022 3.80819E-03 5.01040E-04-1.98568E-14
 -1      3023 4.12997E-03 5.88448E-04-2.37535E-14
 -1      3024 4.27727E-03 6.39088E-04-2.53974E-14
 -1      3025 4.10701E-03 6.03311E-04-2.29564E-14
 -1      3026 4.42372E-03 6.89179E-04-2.70852E-14
 -1      3027 4.56942E-03 7.38904E-04-2.88167E-14
 -1      3028 4.40099E-03 7.03096E-04-2.62372E-14
 -1      3029 4.71452E-03 7.88319E-04-3.05913E-14
 -1      3030 4.85912E-03 8.37552E-04-3.24062E-14
 -1      3031 4.69154E-03 8.01482E-04-2.96917E-14
 -1      3032 5.00331E-03 8.86652E-04-3.42601E-14
 -1      3033 5.14718E-03 9.35703E-04-3.61546E-14
 -1      3034 4.97982E-03 8.99261E-04-3.33133E-14
 -1      3035 5.29079E-03 9.84747E-04-3.80890E-14
 -1      3036 5.43421E-03 1.03383E-03-4.00603E-14
 -1      3037 5.26669E-03 9.96970E-04-3.70943E-14
 -1      3038 5.57746E-03 1.08299E-03-4.20679E-14
 -1      3039 5.72060E-03 1.13224E-03-4.41139E-14
 -1      3040 5.55274E-03 1.09495E-03-4.10284E-14
 -1      3041 5.86365E-03 1.18161E-03-4.61961E-14
 -1      3042 6.00664E-03 1.23111E-03-4.83130E-14
 -1      3043 5.83839E-03 1.19341E-03-4.51107E-14
 -1      3044 6.14958E-03 1.28075E-03-5.04650E-14
 -1      3045 6.29249E-03 1.33053E-03-5.26516E-14
 -1      3046 6.12385E-03 1.29244E-03-4.93374E-14
 -1      3047 6.43537E-03 1.38045E-03-5.48704E-14
 -1      3048 6.57824E-03 1.43051E-03-5.71220E-14
 -1      3049 6.40927E-03 1.39206E-03-5.37018E-14
 -1      3050 6.72110E-03 1.48070E-03-5.94056E-14
 -1      3051 6.86395E-03 1.53103E-03-6.17171E-14
 -1      3052 6.69471E-03 1.49226E-03-5.81954E-14
 -1      3053 7.00680E-03 1.58147E-03-6.40589E-14
 -1      3054 7.14966E-03 1.63204E-03-6.64303E-14
 -1      3055 6.98021E-03 1.59300E-03-6.28114E-14
 -1      3056 7.29251E-03 1.68271E-03-6.88295E-14
 -1      3057 7.43537E-03 1.73347E-03-7.12572E-14
 -1      3058 7.26577E-03 1.69420E-03-6.75420E-14
 -1      3059 7.57822E-03 1.78433E-03-7.37151E-14
 -1      3060 7.72108E-03 1.83528E-03-7.62010E-14
 -1      3061 7.55139E-03 1.79581E-03-7.23878E-14
 -1      3062 7.86394E-03 1.88630E-03-7.87128E-14
 -1      3063 8.00681E-03 1.93738E-03-8.12529E-14
 -1      3064 7.83705E-03 1.89775E-03-7.73466E-14
 -1      3065 8.14967E-03 1.98853E-03-8.38201E-14
 -1      3066 8.29253E-03 2.03973E-03-8.64108E-14
 -1      3067 8.12275E-03 1.99996E-03-8.24157E-14
 -1      3068 8.43540E-03 2.09098E-03-8.90278E-14
 -1      3069 8.57827E-03 2.14227E-03-9.16692E-14
 -1      3070 8.40846E-03 2.10240E-03-8.75877E-14
 -1      3071 8.72113E-03 2.19360E-03-9.43330E-14
 -1      3072 8.86400E-03 2.24496E-03-9.70199E-14
 -1      3073 8.69420E-03 2.20501E-03-9.28581E-14
 -1      3074 9.00687E-03 2.29635E-03-9.97268E-14
 -1      3075 9.14973E-03 2.34777E-03-1.02452E-13
 -1      3076 8.97994E-03 2.30775E-03-9.82177E-14
 -1      3077 9.29260E-03 2.39921E-03-1.05197E-13
 -1      3078 9.43546E-03 2.45066E-03-1.07958E-13
 -1      3079 9.26568E-03 2.41059E-03-1.03659E-13
 -1      3080 9.57833E-03 2.50213E-03-1.10737E-13
 -1      3081 9.72119E-03 2.55361E-03-1.13533E-13
 -1      3082 9.55143E-03 2.51351E-03-1.09171E-13
 -1      3083 9.86406E-03 2.60511E-03-1.16341E-13
 -1      3084 1.00069E-02 2.65661E-03-1.19160E-13
 -1      3085 9.83717E-03 2.61648E-03-1.14749E-13
 -1      3086 1.01498E-02 2.70812E-03-1.21994E-13
 -1      3087 1.02926E-02 2.75963E-03-1.24839E-13
 -1      3088 1.01229E-02 2.71948E-03-1.20378E-13
 -1      3089 1.04355E-02 2.81116E-03-1.27693E-13
 -1      3090 1.05784E-02 2.86268E-03-1.30555E-13
 -1      3091 1.04086E-02 2.82252E-03-1.26058E-13
 -1      3092 1.07212E-02 2.91421E-03-1.33428E-13
 -1      3093 1.08641E-02 2.96574E-03-1.36307E-13
 -1      3094 1.06944E-02 2.92557E-03-1.31777E-13
 -1      3095 1.10069E-02 3.01727E-03-1.39192E-13
 -1      3096 1.11498E-02 3.06881E-03-1.42085E-13
 -1      3097 1.09801E-02 3.02863E-03-1.37527E-13
 -1      3098 1.12927E-02 3.12034E-03-1.44983E-13
 -1      3099 1.14355E-02 3.17188E-03-1.47890E-13
 -1      3100 1.12658E-02 3.13170E-03-1.43302E-13
 -1      3101 1.15784E-02 3.22341E-03-1.50802E-13
 -1      3102 1.17212E-02 3.27495E-03-1.53724E-13
 -1      3103 1.15516E-02 3.23477E-03-1.49108E-13
 -1      3104 1.18641E-02 3.32648E-03-1.56652E-13
 -1      3105 1.20070E-02 3.37802E-03-1.59586E-13
 -1      3106 1.18373E-02 3.33784E-03-1.54940E-13
 -1      3107 1.21498E-02 3.42955E-03-1.62527E-13
 -1      3108 1.22927E-02 3.48109E-03-1.65474E-13
 -1      3109 1.21230E-02 3.44091E-03-1.60803E-13
 -1      3110 1.24355E-02 3.53262E-03-1.68423E-13
 -1      3111 1.25784E-02 3.58416E-03-1.71377E-13
 -1      3112 1.24087E-02 3.54397E-03-1.66684E-13
 -1      3113 1.27212E-02 3.63569E-03-1.74336E-13
 -1      3114 1.28641E-02 3.68722E-03-1.77296E-13
 -1      3115 1.26944E-02 3.64704E-03-1.72580E-13
 -1      3116 1.30070E-02 3.73876E-03-1.80258E-13
 -1      3117 1.31498E-02 3.79029E-03-1.83220E-13
 -1      3118 1.29802E-02 3.75011E-03-1.78488E-13
 -1      3119 1.32705E-02 3.83203E-03-1.85829E-13
 -1      3120 1.34134E-02 3.88356E-03-1.88796E-13
 -1      3121 1.34851E-02 3.92685E-03-1.89262E-13
 -1      3122 1.32437E-02 3.84338E-03-1.84050E-13
 -1      3123 1.38530E-02 4.19985E-03-1.88647E-13
 -1      3124 1.39029E-02 4.24128E-03-1.88299E-13
 -1      3125 5.09062E-03 1.26333E-03-2.16569E-14
 -1      3126 4.95292E-03 1.20948E-03-2.01441E-14
 -1      3127 4.86713E-03 1.15448E-03-1.95608E-14
 -1      3128 5.36855E-03 1.37306E-03-2.48178E-14
 -1      3129 5.22909E-03 1.31787E-03-2.32153E-14
 -1      3130 5.13452E-03 1.26049E-03-2.25941E-14
 -1      3131 5.64942E-03 1.48424E-03-2.81513E-14
 -1      3132 5.50862E-03 1.42852E-03-2.64632E-14
 -1      3133 5.40764E-03 1.36918E-03-2.58041E-14
 -1      3134 5.93234E-03 1.59569E-03-3.16505E-14
 -1      3135 5.79064E-03 1.53996E-03-2.98800E-14
 -1      3136 5.68500E-03 1.47918E-03-2.91856E-14
 -1      3137 6.21660E-03 1.70670E-03-3.53125E-14
 -1      3138 6.07431E-03 1.65127E-03-3.34626E-14
 -1      3139 5.96534E-03 1.58949E-03-3.27327E-14
 -1      3140 6.50167E-03 1.81691E-03-3.91273E-14
 -1      3141 6.35904E-03 1.76192E-03-3.72003E-14
 -1      3142 6.24769E-03 1.69950E-03-3.64393E-14
 -1      3143 6.78719E-03 1.92617E-03-4.30895E-14
 -1      3144 6.64437E-03 1.87166E-03-4.10899E-14
 -1      3145 6.53137E-03 1.80886E-03-4.02978E-14
 -1      3146 7.07296E-03 2.03444E-03-4.71921E-14
 -1      3147 6.93005E-03 1.98042E-03-4.51237E-14
 -1      3148 6.81590E-03 1.91741E-03-4.43011E-14
 -1      3149 7.37312E-03 2.14714E-03-5.16446E-14
 -1      3150 7.22302E-03 2.09091E-03-4.94009E-14
 -1      3151 7.10809E-03 2.02779E-03-4.85490E-14
 -1      3152 7.65902E-03 2.25362E-03-5.60161E-14
 -1      3153 7.51606E-03 2.20048E-03-5.38138E-14
 -1      3154 7.40060E-03 2.13732E-03-5.29342E-14
 -1      3155 7.94490E-03 2.35940E-03-6.05093E-14
 -1      3156 7.80196E-03 2.30660E-03-5.82484E-14
 -1      3157 7.68617E-03 2.24345E-03-5.73400E-14
 -1      3158 8.23076E-03 2.46458E-03-6.51192E-14
 -1      3159 8.08784E-03 2.41206E-03-6.28002E-14
 -1      3160 7.97184E-03 2.34894E-03-6.18662E-14
 -1      3161 8.51659E-03 2.56927E-03-6.98412E-14
 -1      3162 8.37368E-03 2.51698E-03-6.74661E-14
 -1      3163 8.25756E-03 2.45390E-03-6.65076E-14
 -1      3164 8.80239E-03 2.67356E-03-7.46715E-14
 -1      3165 8.65950E-03 2.62146E-03-7.22425E-14
 -1      3166 8.54331E-03 2.55841E-03-7.12607E-14
 -1      3167 9.08817E-03 2.77753E-03-7.96049E-14
 -1      3168 8.94528E-03 2.72558E-03-7.71257E-14
 -1      3169 8.82907E-03 2.66256E-03-7.61217E-14
 -1      3170 9.37392E-03 2.88126E-03-8.46370E-14
 -1      3171 9.23105E-03 2.82942E-03-8.21091E-14
 -1      3172 9.11483E-03 2.76643E-03-8.10849E-14
 -1      3173 9.65967E-03 2.98479E-03-8.97618E-14
 -1      3174 9.51680E-03 2.93304E-03-8.71891E-14
 -1      3175 9.40058E-03 2.87008E-03-8.61448E-14
 -1      3176 9.94540E-03 3.08817E-03-9.49725E-14
 -1      3177 9.80253E-03 3.03650E-03-9.23567E-14
 -1      3178 9.68633E-03 2.97355E-03-9.12958E-14
 -1      3179 1.02311E-02 3.19145E-03-1.00264E-13
 -1      3180 1.00883E-02 3.13982E-03-9.76086E-14
 -1      3181 9.97208E-03 3.07690E-03-9.65302E-14
 -1      3182 1.05168E-02 3.29465E-03-1.05637E-13
 -1      3183 1.03740E-02 3.24306E-03-1.02941E-13
 -1      3184 1.02578E-02 3.18015E-03-1.01849E-13
 -1      3185 1.08026E-02 3.39779E-03-1.11076E-13
 -1      3186 1.06597E-02 3.34622E-03-1.08348E-13
 -1      3187 1.05436E-02 3.28332E-03-1.07243E-13
 -1      3188 1.10883E-02 3.50089E-03-1.16574E-13
 -1      3189 1.09454E-02 3.44934E-03-1.13817E-13
 -1      3190 1.08293E-02 3.38645E-03-1.12701E-13
 -1      3191 1.13883E-02 3.60911E-03-1.22401E-13
 -1      3192 1.12383E-02 3.55500E-03-1.19482E-13
 -1      3193 1.11222E-02 3.49212E-03-1.18357E-13
 -1      3194 1.16740E-02 3.71217E-03-1.27992E-13
 -1      3195 1.15311E-02 3.66064E-03-1.25192E-13
 -1      3196 1.14150E-02 3.59776E-03-1.24060E-13
 -1      3197 1.19597E-02 3.81522E-03-1.33622E-13
 -1      3198 1.18168E-02 3.76369E-03-1.30801E-13
 -1      3199 1.17007E-02 3.70081E-03-1.29666E-13
 -1      3200 1.22454E-02 3.91826E-03-1.39284E-13
 -1      3201 1.21025E-02 3.86674E-03-1.36449E-13
 -1      3202 1.19865E-02 3.80386E-03-1.35304E-13
 -1      3203 1.25311E-02 4.02129E-03-1.44977E-13
 -1      3204 1.23882E-02 3.96977E-03-1.42127E-13
 -1      3205 1.22722E-02 3.90690E-03-1.40976E-13
 -1      3206 1.28168E-02 4.12433E-03-1.50698E-13
 -1      3207 1.26740E-02 4.07281E-03-1.47836E-13
 -1      3208 1.25579E-02 4.00993E-03-1.46684E-13
 -1      3209 1.31025E-02 4.22737E-03-1.56430E-13
 -1      3210 1.29597E-02 4.17585E-03-1.53562E-13
 -1      3211 1.28436E-02 4.11297E-03-1.52410E-13
 -1      3212 1.33882E-02 4.33041E-03-1.62171E-13
 -1      3213 1.32454E-02 4.27889E-03-1.59300E-13
 -1      3214 1.31293E-02 4.21601E-03-1.58151E-13
 -1      3215 1.36740E-02 4.43345E-03-1.67904E-13
 -1      3216 1.35311E-02 4.38193E-03-1.65038E-13
 -1      3217 1.34150E-02 4.31905E-03-1.63894E-13
 -1      3218 1.39597E-02 4.53649E-03-1.73636E-13
 -1      3219 1.38168E-02 4.48497E-03-1.70773E-13
 -1      3220 1.37008E-02 4.42209E-03-1.69634E-13
 -1      3221 1.37517E-02 4.11556E-03-1.89352E-13
 -1      3222 1.38024E-02 4.15770E-03-1.89000E-13
 -1      3223 1.37036E-02 4.13380E-03-1.86290E-13
 -1      3224 1.39535E-02 4.28343E-03-1.87942E-13
 -1      3225 1.40042E-02 4.32557E-03-1.87588E-13
 -1      3226 1.38049E-02 4.21809E-03-1.85592E-13
 -1      3227 1.36504E-02 4.03127E-03-1.90056E-13
 -1      3228 1.37010E-02 4.07341E-03-1.89703E-13
 -1      3229 1.36022E-02 4.04950E-03-1.86985E-13
 -1      3230 2.81687E-03 3.56205E-04-8.06310E-15
 -1      3231 2.62412E-03 2.58926E-04-7.37545E-15
 -1      3232 1.32374E-03-3.02824E-04-2.91275E-15
 -1      3233 1.50353E-03-2.90250E-04-3.68397E-15
 -1      3234 1.29628E-03-2.82532E-04-2.74136E-15
 -1      3235 2.10289E-03-9.35651E-06-5.45324E-15
 -1      3236 1.93994E-03-8.34477E-05-4.81276E-15
 -1      3237 1.45124E-02 4.69902E-03-1.86834E-13
 -1      3238 1.27645E-03-1.98700E-04-2.14255E-15
 -1      3239 1.22511E-03-2.04946E-04-2.06191E-15
 -1      3240 1.40096E-03-2.03118E-04-2.55339E-15
 -1      3241 4.03717E-03 7.60144E-04-1.00370E-14
 -1      3242 4.03702E-03 7.57376E-04-1.01110E-14
 -1      3243 3.56895E-03 6.70361E-04-9.84190E-15
 -1      3244 3.41285E-03 6.19285E-04-9.49622E-15
 -1      3245 1.64437E-03-2.66526E-04-4.34154E-15
 -1      3246 1.80139E-03-2.32111E-04-5.13639E-15
 -1      3247 1.90814E-03-1.77430E-04-5.57565E-15
 -1      3248 1.61973E-03-2.49742E-04-4.13347E-15
 -1      3249 3.83288E-03 7.37912E-04-1.04743E-14
 -1      3250 3.70878E-03 7.09805E-04-1.01580E-14
 -1      3251 3.66313E-03 6.96673E-04-1.06021E-14
 -1      3252 4.27884E-03 9.64774E-04-1.32588E-14
 -1      3253 4.14388E-03 9.24173E-04-1.20195E-14
 -1      3254 4.35470E-03 9.57992E-04-1.40364E-14
 -1      3255 3.24481E-03 5.54408E-04-9.18223E-15
 -1      3256 3.06329E-03 4.73914E-04-8.79384E-15
 -1      3257 3.11512E-03 4.77278E-04-9.70625E-15
 -1      3258 2.96812E-03 4.20825E-04-8.87017E-15
 -1      3259 2.88651E-03 3.67556E-04-8.94109E-15
 -1      3260 3.90864E-03 7.55440E-04-1.08075E-14
 -1      3261 3.87348E-03 7.52217E-04-1.12655E-14
 -1      3262 3.97520E-03 7.69286E-04-1.11432E-14
 -1      3263 2.54869E-03 2.08246E-04-7.39706E-15
 -1      3264 1.35319E-02 3.95741E-03-1.89430E-13
 -1      3265 1.36036E-02 4.00071E-03-1.89893E-13
 -1      3266 1.35048E-02 3.97680E-03-1.87163E-13
 -1      3267 1.34112E-02 3.91567E-03-1.86824E-13
 -1      3268 4.06994E-03 8.39967E-04-1.10469E-14
 -1      3269 3.96566E-03 8.54477E-04-1.03439E-14
 -1      3270 2.20201E-03 2.96578E-05-6.05912E-15
 -1      3271 1.40829E-02 4.57539E-03-1.76424E-13
 -1      3272 1.39669E-02 4.51252E-03-1.75294E-13
 -1      3273 1.42062E-02 4.61430E-03-1.79214E-13
 -1      3274 1.44209E-02 4.67611E-03-1.84418E-13
 -1      3275 1.42977E-02 4.63721E-03-1.81625E-13
 -1      3276 1.41816E-02 4.57433E-03-1.80501E-13
 -1      3277 1.43645E-02 4.62016E-03-1.85337E-13
 -1      3278 1.42640E-02 4.53658E-03-1.86050E-13
 -1      3279 1.43143E-02 4.57837E-03-1.85691E-13
 -1      3280 1.42228E-02 4.55545E-03-1.83268E-13
 -1      3281 1.20023E-03-2.23021E-04-2.11209E-15
 -1      3282 1.82930E-03-1.27597E-04-4.42645E-15
 -1      3283 1.72490E-03-1.63492E-04-4.05599E-15
 -1      3284 1.93560E-03-9.55876E-05-5.04268E-15
 -1      3285 1.48395E-03-2.03640E-04-2.95864E-15
 -1      3286 4.02907E-03 7.69581E-04-1.00709E-14
 -1      3287 4.08363E-03 7.86652E-04-1.07816E-14
 -1      3288 4.01239E-03 7.82969E-04-1.01031E-14
 -1      3289 3.36640E-03 5.94741E-04-9.95363E-15
 -1      3290 1.39062E-02 4.30238E-03-1.84888E-13
 -1      3291 1.40549E-02 4.36772E-03-1.87231E-13
 -1      3292 1.41055E-02 4.40987E-03-1.86875E-13
 -1      3293 4.05256E-03 7.72026E-04-1.07177E-14
 -1      3294 3.84495E-03 8.28843E-04-9.32014E-15
 -1      3295 1.41594E-02 4.45215E-03-1.86644E-13
 -1      3296 1.42101E-02 4.49430E-03-1.86284E-13
 -1      3297 1.41187E-02 4.47138E-03-1.83852E-13
 -1      3298 1.40108E-02 4.38681E-03-1.84310E-13
 -1      3299 1.34532E-02 3.98381E-03-1.84608E-13
 -1      3300 1.35038E-02 4.02595E-03-1.84268E-13
 -1      3301 2.50417E-03 5.94832E-05-8.87234E-15
 -1      3302 2.67074E-03 1.22283E-04-9.97012E-15
 -1      3303 2.83662E-03 1.83986E-04-1.11228E-14
 -1      3304 3.00028E-03 2.44116E-04-1.23298E-14
 -1      3305 2.80435E-03 2.02537E-04-1.05464E-14
 -1      3306 3.16208E-03 3.02287E-04-1.35880E-14
 -1      3307 3.32133E-03 3.58653E-04-1.48968E-14
 -1      3308 3.13554E-03 3.22407E-04-1.29592E-14
 -1      3309 3.47838E-03 4.13148E-04-1.62560E-14
 -1      3310 3.63302E-03 4.66272E-04-1.76636E-14
 -1      3311 3.45556E-03 4.32836E-04-1.55747E-14
 -1      3312 3.78563E-03 5.18017E-04-1.91185E-14
 -1      3313 3.93627E-03 5.68877E-04-2.06190E-14
 -1      3314 3.76475E-03 5.36161E-04-1.83856E-14
 -1      3315 4.08531E-03 6.18869E-04-2.21661E-14
 -1      3316 4.23290E-03 6.68367E-04-2.37581E-14
 -1      3317 4.06506E-03 6.35211E-04-2.13822E-14
 -1      3318 4.37933E-03 7.17390E-04-2.53954E-14
 -1      3319 4.52478E-03 7.66189E-04-2.70756E-14
 -1      3320 4.35888E-03 7.32120E-04-2.45595E-14
 -1      3321 4.66944E-03 8.14784E-04-2.87994E-14
 -1      3322 4.81349E-03 8.63331E-04-3.05659E-14
 -1      3323 4.64832E-03 8.28255E-04-2.79136E-14
 -1      3324 4.95705E-03 9.11848E-04-3.23713E-14
 -1      3325 5.10025E-03 9.60425E-04-3.42181E-14
 -1      3326 4.93506E-03 9.24422E-04-3.14367E-14
 -1      3327 5.24317E-03 1.00908E-03-3.61051E-14
 -1      3328 5.38591E-03 1.05785E-03-3.80308E-14
 -1      3329 5.22027E-03 1.02106E-03-3.51230E-14
 -1      3330 5.52850E-03 1.10675E-03-3.99943E-14
 -1      3331 5.67103E-03 1.15581E-03-4.19943E-14
 -1      3332 5.50476E-03 1.11838E-03-3.89658E-14
 -1      3333 5.81350E-03 1.20503E-03-4.40318E-14
 -1      3334 5.95596E-03 1.25441E-03-4.61062E-14
 -1      3335 5.78900E-03 1.21645E-03-4.29586E-14
 -1      3336 6.09842E-03 1.30395E-03-4.82157E-14
 -1      3337 6.24090E-03 1.35366E-03-5.03601E-14
 -1      3338 6.07329E-03 1.31528E-03-4.70988E-14
 -1      3339 6.38340E-03 1.40352E-03-5.25372E-14
 -1      3340 6.52594E-03 1.45354E-03-5.47475E-14
 -1      3341 6.35777E-03 1.41482E-03-5.13790E-14
 -1      3342 6.66850E-03 1.50370E-03-5.69910E-14
 -1      3343 6.81111E-03 1.55400E-03-5.92653E-14
 -1      3344 6.64248E-03 1.51499E-03-5.57920E-14
 -1      3345 6.95375E-03 1.60442E-03-6.15675E-14
 -1      3346 7.09643E-03 1.65496E-03-6.38996E-14
 -1      3347 6.92743E-03 1.61573E-03-6.03295E-14
 -1      3348 7.23913E-03 1.70562E-03-6.62617E-14
 -1      3349 7.38187E-03 1.75637E-03-6.86498E-14
 -1      3350 7.21260E-03 1.71694E-03-6.49853E-14
 -1      3351 7.52463E-03 1.80722E-03-7.10678E-14
 -1      3352 7.66741E-03 1.85815E-03-7.35143E-14
 -1      3353 7.49794E-03 1.81856E-03-6.97544E-14
 -1      3354 7.81021E-03 1.90916E-03-7.59887E-14
 -1      3355 7.95303E-03 1.96023E-03-7.84907E-14
 -1      3356 7.78342E-03 1.92051E-03-7.46360E-14
 -1      3357 8.09586E-03 2.01137E-03-8.10192E-14
 -1      3358 8.23870E-03 2.06256E-03-8.35746E-14
 -1      3359 8.06900E-03 2.02273E-03-7.96295E-14
 -1      3360 8.38155E-03 2.11380E-03-8.61546E-14
 -1      3361 8.52441E-03 2.16508E-03-8.87599E-14
 -1      3362 8.35466E-03 2.12517E-03-8.47275E-14
 -1      3363 8.66728E-03 2.21640E-03-9.13904E-14
 -1      3364 8.81015E-03 2.26775E-03-9.40421E-14
 -1      3365 8.64037E-03 2.22778E-03-8.99285E-14
 -1      3366 8.95302E-03 2.31913E-03-9.67159E-14
 -1      3367 9.09590E-03 2.37054E-03-9.94120E-14
 -1      3368 8.92611E-03 2.33051E-03-9.52224E-14
 -1      3369 9.23877E-03 2.42197E-03-1.02127E-13
 -1      3370 9.38165E-03 2.47342E-03-1.04860E-13
 -1      3371 9.21187E-03 2.43335E-03-1.00602E-13
 -1      3372 9.52453E-03 2.52488E-03-1.07610E-13
 -1      3373 9.66741E-03 2.57636E-03-1.10379E-13
 -1      3374 9.49764E-03 2.53625E-03-1.06057E-13
 -1      3375 9.81029E-03 2.62785E-03-1.13163E-13
 -1      3376 9.95316E-03 2.67934E-03-1.15960E-13
 -1      3377 9.78340E-03 2.63922E-03-1.11583E-13
 -1      3378 1.00960E-02 2.73085E-03-1.18771E-13
 -1      3379 1.02389E-02 2.78236E-03-1.21594E-13
 -1      3380 1.00692E-02 2.74222E-03-1.17169E-13
 -1      3381 1.03818E-02 2.83388E-03-1.24429E-13
 -1      3382 1.05247E-02 2.88540E-03-1.27275E-13
 -1      3383 1.03549E-02 2.84524E-03-1.22806E-13
 -1      3384 1.06675E-02 2.93693E-03-1.30129E-13
 -1      3385 1.08104E-02 2.98846E-03-1.32993E-13
 -1      3386 1.06407E-02 2.94829E-03-1.28488E-13
 -1      3387 1.09533E-02 3.03999E-03-1.35864E-13
 -1      3388 1.10961E-02 3.09152E-03-1.38741E-13
 -1      3389 1.09264E-02 3.05135E-03-1.34205E-13
 -1      3390 1.12390E-02 3.14305E-03-1.41626E-13
 -1      3391 1.13819E-02 3.19459E-03-1.44518E-13
 -1      3392 1.12122E-02 3.15441E-03-1.39952E-13
 -1      3393 1.15247E-02 3.24612E-03-1.47416E-13
 -1      3394 1.16676E-02 3.29765E-03-1.50322E-13
 -1      3395 1.14979E-02 3.25748E-03-1.45728E-13
 -1      3396 1.18105E-02 3.34919E-03-1.53234E-13
 -1      3397 1.19533E-02 3.40072E-03-1.56155E-13
 -1      3398 1.17836E-02 3.36054E-03-1.51532E-13
 -1      3399 1.20962E-02 3.45226E-03-1.59080E-13
 -1      3400 1.22390E-02 3.50379E-03-1.62012E-13
 -1      3401 1.20694E-02 3.46361E-03-1.57363E-13
 -1      3402 1.23819E-02 3.55533E-03-1.64949E-13
 -1      3403 1.25248E-02 3.60686E-03-1.67888E-13
 -1      3404 1.23551E-02 3.56668E-03-1.63217E-13
 -1      3405 1.26676E-02 3.65839E-03-1.70831E-13
 -1      3406 1.28105E-02 3.70992E-03-1.73778E-13
 -1      3407 1.26408E-02 3.66974E-03-1.69088E-13
 -1      3408 1.29533E-02 3.76146E-03-1.76726E-13
 -1      3409 1.30962E-02 3.81299E-03-1.79677E-13
 -1      3410 1.29265E-02 3.77281E-03-1.74970E-13
 -1      3411 2.32076E-03 7.60115E-05-6.78282E-15
 -1      3412 2.16451E-03-3.06490E-06-6.14472E-15
 -1      3413 1.26925E-03-2.64316E-04-2.56762E-15
 -1      3414 1.45208E-03-2.56393E-04-3.29728E-15
 -1      3415 1.24406E-03-2.46778E-04-2.39218E-15
 -1      3416 5.71861E-03 1.47445E-03-3.02251E-14
 -1      3417 5.58063E-03 1.42002E-03-2.84903E-14
 -1      3418 5.99703E-03 1.58350E-03-3.38190E-14
 -1      3419 5.85742E-03 1.52894E-03-3.20012E-14
 -1      3420 5.75037E-03 1.46969E-03-3.12704E-14
 -1      3421 6.27795E-03 1.69243E-03-3.75713E-14
 -1      3422 6.13722E-03 1.63799E-03-3.56766E-14
 -1      3423 6.02749E-03 1.57746E-03-3.49101E-14
 -1      3424 6.56055E-03 1.80089E-03-4.14723E-14
 -1      3425 6.41907E-03 1.74672E-03-3.95026E-14
 -1      3426 6.30738E-03 1.68531E-03-3.87064E-14
 -1      3427 6.84429E-03 1.90869E-03-4.55166E-14
 -1      3428 6.70230E-03 1.85487E-03-4.34761E-14
 -1      3429 6.58919E-03 1.79287E-03-4.26500E-14
 -1      3430 7.14301E-03 2.02114E-03-4.99103E-14
 -1      3431 6.99356E-03 1.96501E-03-4.76954E-14
 -1      3432 6.87942E-03 1.90262E-03-4.68398E-14
 -1      3433 7.42799E-03 2.12752E-03-5.42257E-14
 -1      3434 7.28545E-03 2.07441E-03-5.20530E-14
 -1      3435 7.17058E-03 2.01177E-03-5.11688E-14
 -1      3436 7.71328E-03 2.23327E-03-5.86657E-14
 -1      3437 7.57060E-03 2.18047E-03-5.64299E-14
 -1      3438 7.45526E-03 2.11768E-03-5.55203E-14
 -1      3439 7.99876E-03 2.33847E-03-6.32246E-14
 -1      3440 7.85600E-03 2.28593E-03-6.09312E-14
 -1      3441 7.74033E-03 2.22306E-03-5.99937E-14
 -1      3442 8.28437E-03 2.44320E-03-6.78994E-14
 -1      3443 8.14155E-03 2.39089E-03-6.55482E-14
 -1      3444 8.02566E-03 2.32797E-03-6.45869E-14
 -1      3445 8.57005E-03 2.54753E-03-7.26847E-14
 -1      3446 8.42720E-03 2.49541E-03-7.02781E-14
 -1      3447 8.31117E-03 2.43247E-03-6.92941E-14
 -1      3448 8.85577E-03 2.65155E-03-7.75760E-14
 -1      3449 8.71290E-03 2.59958E-03-7.51180E-14
 -1      3450 8.59679E-03 2.53664E-03-7.41122E-14
 -1      3451 9.14151E-03 2.75532E-03-8.25680E-14
 -1      3452 8.99864E-03 2.70347E-03-8.00595E-14
 -1      3453 8.88248E-03 2.64052E-03-7.90336E-14
 -1      3454 9.42726E-03 2.85889E-03-8.76556E-14
 -1      3455 9.28439E-03 2.80713E-03-8.50994E-14
 -1      3456 9.16821E-03 2.74419E-03-8.40541E-14
 -1      3457 9.71302E-03 2.96231E-03-9.28309E-14
 -1      3458 9.57014E-03 2.91062E-03-9.02330E-14
 -1      3459 9.45397E-03 2.84769E-03-8.91686E-14
 -1      3460 9.99878E-03 3.06561E-03-9.80926E-14
 -1      3461 9.85590E-03 3.01397E-03-9.54523E-14
 -1      3462 9.73973E-03 2.95105E-03-9.43708E-14
 -1      3463 1.02845E-02 3.16883E-03-1.03435E-13
 -1      3464 1.01417E-02 3.11723E-03-1.00753E-13
 -1      3465 1.00255E-02 3.05432E-03-9.96582E-14
 -1      3466 1.05703E-02 3.27199E-03-1.08851E-13
 -1      3467 1.04274E-02 3.22042E-03-1.06135E-13
 -1      3468 1.03113E-02 3.15751E-03-1.05026E-13
 -1      3469 1.08560E-02 3.37510E-03-1.14330E-13
 -1      3470 1.07132E-02 3.32355E-03-1.11584E-13
 -1      3471 1.05970E-02 3.26065E-03-1.10464E-13
 -1      3472 1.11561E-02 3.48334E-03-1.20141E-13
 -1      3473 1.10060E-02 3.42922E-03-1.17228E-13
 -1      3474 1.08899E-02 3.36633E-03-1.16099E-13
 -1      3475 1.14418E-02 3.58640E-03-1.25720E-13
 -1      3476 1.12989E-02 3.53487E-03-1.22926E-13
 -1      3477 1.11828E-02 3.47198E-03-1.21788E-13
 -1      3478 1.17275E-02 3.68945E-03-1.31338E-13
 -1      3479 1.15847E-02 3.63793E-03-1.28525E-13
 -1      3480 1.14686E-02 3.57504E-03-1.27383E-13
 -1      3481 1.20132E-02 3.79249E-03-1.36989E-13
 -1      3482 1.18704E-02 3.74097E-03-1.34159E-13
 -1      3483 1.17543E-02 3.67809E-03-1.33012E-13
 -1      3484 1.22990E-02 3.89553E-03-1.42674E-13
 -1      3485 1.21561E-02 3.84401E-03-1.39829E-13
 -1      3486 1.20400E-02 3.78113E-03-1.38675E-13
 -1      3487 1.25847E-02 3.99857E-03-1.48392E-13
 -1      3488 1.24418E-02 3.94705E-03-1.45530E-13
 -1      3489 1.23258E-02 3.88417E-03-1.44376E-13
 -1      3490 1.28704E-02 4.10161E-03-1.54127E-13
 -1      3491 1.27275E-02 4.05009E-03-1.51258E-13
 -1      3492 1.26115E-02 3.98721E-03-1.50102E-13
 -1      3493 1.31561E-02 4.20465E-03-1.59873E-13
 -1      3494 1.30133E-02 4.15313E-03-1.56998E-13
 -1      3495 1.28972E-02 4.09025E-03-1.55845E-13
 -1      3496 1.34418E-02 4.30769E-03-1.65620E-13
 -1      3497 1.32990E-02 4.25617E-03-1.62748E-13
 -1      3498 1.31829E-02 4.19329E-03-1.61597E-13
 -1      3499 1.37276E-02 4.41074E-03-1.71368E-13
 -1      3500 1.35847E-02 4.35921E-03-1.68494E-13
 -1      3501 1.34686E-02 4.29634E-03-1.67353E-13
 -1      3502 1.35545E-02 4.06810E-03-1.83927E-13
 -1      3503 1.36052E-02 4.11024E-03-1.83583E-13
 -1      3504 1.34055E-02 4.00240E-03-1.81557E-13
 -1      3505 1.38866E-03-2.25583E-04-2.78140E-15
 -1      3506 1.36558E-02 4.15239E-03-1.83237E-13
 -1      3507 1.37065E-02 4.19454E-03-1.82890E-13
 -1      3508 1.35068E-02 4.08669E-03-1.80878E-13
 -1      3509 3.76180E-03 7.23380E-04-1.14685E-14
 -1      3510 3.63294E-03 6.84278E-04-1.11356E-14
 -1      3511 4.65826E-03 1.05314E-03-1.75468E-14
 -1      3512 4.53584E-03 1.00450E-03-1.61619E-14
 -1      3513 3.48807E-03 6.32929E-04-1.07998E-14
 -1      3514 3.33807E-03 5.72476E-04-1.04650E-14
 -1      3515 3.60348E-03 6.65570E-04-1.16705E-14
 -1      3516 4.41733E-03 9.57877E-04-1.48211E-14
 -1      3517 4.30196E-03 9.12150E-04-1.35255E-14
 -1      3518 4.46643E-03 9.60461E-04-1.56127E-14
 -1      3519 5.44378E-03 1.36587E-03-2.67952E-14
 -1      3520 5.30813E-03 1.31195E-03-2.51449E-14
 -1      3521 5.47722E-03 1.36256E-03-2.77928E-14
 -1      3522 2.15930E-03-4.94515E-05-6.63052E-15
 -1      3523 2.32815E-03 1.34934E-05-7.59999E-15
 -1      3524 2.66983E-03 2.53485E-04-8.23494E-15
 -1      3525 2.49187E-03 1.62783E-04-7.49333E-15
 -1      3526 2.44543E-03 1.20723E-04-7.58089E-15
 -1      3527 1.51977E-03-2.13469E-04-3.30463E-15
 -1      3528 4.91142E-03 1.15392E-03-2.04520E-14
 -1      3529 4.78336E-03 1.10283E-03-1.89767E-14
 -1      3530 4.70081E-03 1.05462E-03-1.83917E-14
 -1      3531 5.17407E-03 1.25863E-03-2.35369E-14
 -1      3532 5.04165E-03 1.20579E-03-2.19725E-14
 -1      3533 5.20966E-03 1.25691E-03-2.44839E-14
 -1      3534 4.12020E-03 8.00363E-04-1.16213E-14
 -1      3535 4.07702E-03 7.92261E-04-1.15895E-14
 -1      3536 4.06537E-03 7.97017E-04-1.20640E-14
 -1      3537 1.79265E-03-1.75969E-04-4.74928E-15
 -1      3538 1.94148E-03-1.30738E-04-5.49325E-15
 -1      3539 2.46063E-03 9.20624E-05-8.10358E-15
 -1      3540 1.39699E-02 4.40716E-03-1.81456E-13
 -1      3541 1.40238E-02 4.44944E-03-1.81230E-13
 -1      3542 1.62498E-03-2.01314E-04-3.83349E-15
 -1      3543 1.31933E-02 3.84346E-03-1.81948E-13
 -1      3544 1.33140E-02 3.88520E-03-1.84547E-13
 -1      3545 1.33608E-02 3.91576E-03-1.84720E-13
 -1      3546 1.31665E-02 3.85481E-03-1.80180E-13
 -1      3547 1.36081E-02 4.17099E-03-1.80196E-13
 -1      3548 1.37572E-02 4.23669E-03-1.82545E-13
 -1      3549 1.38079E-02 4.27883E-03-1.82198E-13
 -1      3550 4.94987E-03 1.15386E-03-2.13491E-14
 -1      3551 1.34076E-02 3.94632E-03-1.84891E-13
 -1      3552 3.84753E-03 7.47505E-04-1.18155E-14
 -1      3553 3.82598E-03 7.38975E-04-1.23707E-14
 -1      3554 3.92719E-03 7.68023E-04-1.21645E-14
 -1      3555 4.14760E-03 8.51900E-04-1.17830E-14
 -1      3556 4.21216E-03 8.54176E-04-1.25097E-14
 -1      3557 3.37907E-03 5.67419E-04-1.14028E-14
 -1      3558 3.24947E-03 5.25298E-04-1.05419E-14
 -1      3559 3.16892E-03 4.75838E-04-1.06138E-14
 -1      3560 1.40162E-02 4.51198E-03-1.77331E-13
 -1      3561 1.38930E-02 4.47308E-03-1.74536E-13
 -1      3562 1.37769E-02 4.41020E-03-1.73401E-13
 -1      3563 1.41077E-02 4.53490E-03-1.79747E-13
 -1      3564 1.40574E-02 4.49311E-03-1.80094E-13
 -1      3565 2.81687E-03 3.16329E-04-9.04256E-15
 -1      3566 2.75849E-03 2.66989E-04-9.13711E-15
 -1      3567 2.96253E-03 3.74995E-04-9.88017E-15
 -1      3568 1.33092E-02 3.92277E-03-1.82170E-13
 -1      3569 1.39087E-02 4.42888E-03-1.77703E-13
 -1      3570 2.62039E-03 1.72303E-04-8.87575E-15
 -1      3571 1.39160E-02 4.36487E-03-1.81682E-13
 -1      3572 1.38211E-02 4.34293E-03-1.79056E-13
 -1      3573 1.38621E-02 4.32259E-03-1.81905E-13
 -1      3574 2.14229E-03-3.11319E-05-6.27829E-15
 -1      3575 2.02487E-03-6.98232E-05-5.59034E-15
 -1      3576 3.11204E-03 3.44254E-04-1.23357E-14
 -1      3577 3.27549E-03 4.00604E-04-1.35928E-14
 -1      3578 3.43578E-03 4.54040E-04-1.48998E-14
 -1      3579 3.59252E-03 5.05641E-04-1.62556E-14
 -1      3580 3.41940E-03 4.76938E-04-1.42308E-14
 -1      3581 3.74643E-03 5.55428E-04-1.76584E-14
 -1      3582 3.89770E-03 6.04289E-04-1.91081E-14
 -1      3583 3.73104E-03 5.75942E-04-1.69375E-14
 -1      3584 4.04683E-03 6.52257E-04-2.06039E-14
 -1      3585 4.19414E-03 6.99898E-04-2.21442E-14
 -1      3586 4.03089E-03 6.70097E-04-1.98314E-14
 -1      3587 4.33996E-03 7.47203E-04-2.37303E-14
 -1      3588 4.48463E-03 7.94518E-04-2.53603E-14
 -1      3589 4.32279E-03 7.62684E-04-2.29069E-14
 -1      3590 4.62836E-03 8.41820E-04-2.70329E-14
 -1      3591 4.77141E-03 8.89295E-04-2.87498E-14
 -1      3592 4.60967E-03 8.55489E-04-2.61593E-14
 -1      3593 4.91393E-03 9.36920E-04-3.05082E-14
 -1      3594 5.05611E-03 9.84783E-04-3.23067E-14
 -1      3595 4.89374E-03 9.49332E-04-2.95848E-14
 -1      3596 5.19802E-03 1.03287E-03-3.41464E-14
 -1      3597 5.33980E-03 1.08120E-03-3.60259E-14
 -1      3598 5.17645E-03 1.04448E-03-3.31761E-14
 -1      3599 5.48149E-03 1.12978E-03-3.79441E-14
 -1      3600 5.62318E-03 1.17859E-03-3.99000E-14
 -1      3601 5.45873E-03 1.14092E-03-3.69277E-14
 -1      3602 5.76487E-03 1.22764E-03-4.18930E-14
 -1      3603 5.90663E-03 1.27690E-03-4.39223E-14
 -1      3604 5.74111E-03 1.23856E-03-4.08321E-14
 -1      3605 6.04845E-03 1.32638E-03-4.59892E-14
 -1      3606 6.19036E-03 1.37605E-03-4.80915E-14
 -1      3607 6.02388E-03 1.33723E-03-4.48849E-14
 -1      3608 6.33235E-03 1.42591E-03-5.02266E-14
 -1      3609 6.47444E-03 1.47593E-03-5.23956E-14
 -1      3610 6.30715E-03 1.43677E-03-4.90797E-14
 -1      3611 6.61662E-03 1.52611E-03-5.45978E-14
 -1      3612 6.75889E-03 1.57643E-03-5.68325E-14
 -1      3613 6.59092E-03 1.53704E-03-5.34107E-14
 -1      3614 6.90124E-03 1.62689E-03-5.90971E-14
 -1      3615 7.04366E-03 1.67747E-03-6.13905E-14
 -1      3616 6.87516E-03 1.63790E-03-5.78684E-14
 -1      3617 7.18616E-03 1.72815E-03-6.37140E-14
 -1      3618 7.32871E-03 1.77894E-03-6.60663E-14
 -1      3619 7.15981E-03 1.73924E-03-6.24489E-14
 -1      3620 7.47132E-03 1.82982E-03-6.84468E-14
 -1      3621 7.61398E-03 1.88077E-03-7.08547E-14
 -1      3622 7.44478E-03 1.84098E-03-6.71435E-14
 -1      3623 7.75669E-03 1.93181E-03-7.32901E-14
 -1      3624 7.89942E-03 1.98290E-03-7.57543E-14
 -1      3625 7.73000E-03 1.94303E-03-7.19516E-14
 -1      3626 8.04219E-03 2.03406E-03-7.82462E-14
 -1      3627 8.18499E-03 2.08526E-03-8.07640E-14
 -1      3628 8.01542E-03 2.04532E-03-7.68684E-14
 -1      3629 8.32780E-03 2.13651E-03-8.33075E-14
 -1      3630 8.47064E-03 2.18780E-03-8.58778E-14
 -1      3631 8.30097E-03 2.14782E-03-8.18946E-14
 -1      3632 8.61349E-03 2.23913E-03-8.84740E-14
 -1      3633 8.75635E-03 2.29049E-03-9.10930E-14
 -1      3634 8.58662E-03 2.25046E-03-8.70247E-14
 -1      3635 8.89922E-03 2.34188E-03-9.37346E-14
 -1      3636 9.04209E-03 2.39329E-03-9.63976E-14
 -1      3637 8.87234E-03 2.35322E-03-9.22534E-14
 -1      3638 9.18497E-03 2.44471E-03-9.90826E-14
 -1      3639 9.32786E-03 2.49616E-03-1.01787E-13
 -1      3640 9.15809E-03 2.45607E-03-9.75697E-14
 -1      3641 9.47074E-03 2.54762E-03-1.04511E-13
 -1      3642 9.61363E-03 2.59910E-03-1.07252E-13
 -1      3643 9.44386E-03 2.55899E-03-1.02969E-13
 -1      3644 9.75652E-03 2.65059E-03-1.10009E-13
 -1      3645 9.89941E-03 2.70208E-03-1.12782E-13
 -1      3646 9.72964E-03 2.66195E-03-1.08441E-13
 -1      3647 1.00423E-02 2.75359E-03-1.15570E-13
 -1      3648 1.01852E-02 2.80510E-03-1.18374E-13
 -1      3649 1.00154E-02 2.76495E-03-1.13978E-13
 -1      3650 1.03281E-02 2.85661E-03-1.21187E-13
 -1      3651 1.04709E-02 2.90813E-03-1.24013E-13
 -1      3652 1.03012E-02 2.86798E-03-1.19573E-13
 -1      3653 1.06138E-02 2.95965E-03-1.26849E-13
 -1      3654 1.07567E-02 3.01118E-03-1.29694E-13
 -1      3655 1.05870E-02 2.97102E-03-1.25216E-13
 -1      3656 1.08996E-02 3.06271E-03-1.32550E-13
 -1      3657 1.10425E-02 3.11424E-03-1.35412E-13
 -1      3658 1.08727E-02 3.07407E-03-1.30899E-13
 -1      3659 1.11853E-02 3.16577E-03-1.38280E-13
 -1      3660 1.13282E-02 3.21730E-03-1.41158E-13
 -1      3661 1.11585E-02 3.17713E-03-1.36615E-13
 -1      3662 1.14711E-02 3.26883E-03-1.44042E-13
 -1      3663 1.16139E-02 3.32037E-03-1.46933E-13
 -1      3664 1.14442E-02 3.28019E-03-1.42358E-13
 -1      3665 1.17568E-02 3.37190E-03-1.49832E-13
 -1      3666 1.18997E-02 3.42343E-03-1.52739E-13
 -1      3667 1.17300E-02 3.38326E-03-1.48135E-13
 -1      3668 1.20425E-02 3.47497E-03-1.55651E-13
 -1      3669 1.21854E-02 3.52650E-03-1.58567E-13
 -1      3670 1.20157E-02 3.48632E-03-1.53941E-13
 -1      3671 1.23283E-02 3.57803E-03-1.61491E-13
 -1      3672 1.24711E-02 3.62957E-03-1.64418E-13
 -1      3673 1.23015E-02 3.58939E-03-1.59769E-13
 -1      3674 1.26140E-02 3.68110E-03-1.67350E-13
 -1      3675 1.27569E-02 3.73263E-03-1.70284E-13
 -1      3676 1.25872E-02 3.69245E-03-1.65617E-13
 -1      3677 1.28997E-02 3.78416E-03-1.73216E-13
 -1      3678 1.30426E-02 3.83569E-03-1.76157E-13
 -1      3679 1.28729E-02 3.79551E-03-1.71472E-13
 -1      3680 1.32121E-02 3.89230E-03-1.79906E-13
 -1      3681 1.64534E-03-2.11840E-04-4.05806E-15
 -1      3682 6.05678E-03 1.57133E-03-3.60063E-14
 -1      3683 5.91817E-03 1.51798E-03-3.41422E-14
 -1      3684 5.78044E-03 1.46481E-03-3.23183E-14
 -1      3685 5.64370E-03 1.41179E-03-3.05364E-14
 -1      3686 5.80906E-03 1.45956E-03-3.33735E-14
 -1      3687 6.61731E-03 1.78479E-03-4.38324E-14
 -1      3688 6.47645E-03 1.73147E-03-4.18210E-14
 -1      3689 6.91420E-03 1.89645E-03-4.81683E-14
 -1      3690 6.76559E-03 1.84067E-03-4.59812E-14
 -1      3691 6.65200E-03 1.77919E-03-4.51207E-14
 -1      3692 7.19796E-03 2.00235E-03-5.24297E-14
 -1      3693 7.05597E-03 1.94945E-03-5.02826E-14
 -1      3694 6.94158E-03 1.88749E-03-4.93938E-14
 -1      3695 7.48240E-03 2.10781E-03-5.68162E-14
 -1      3696 7.34011E-03 2.05513E-03-5.46078E-14
 -1      3697 7.22514E-03 1.99285E-03-5.36932E-14
 -1      3698 7.76731E-03 2.21282E-03-6.13248E-14
 -1      3699 7.62480E-03 2.16036E-03-5.90560E-14
 -1      3700 7.50942E-03 2.09786E-03-5.81168E-14
 -1      3701 8.05253E-03 2.31744E-03-6.59526E-14
 -1      3702 7.90989E-03 2.26518E-03-6.36240E-14
 -1      3703 7.79422E-03 2.20252E-03-6.26595E-14
 -1      3704 8.33797E-03 2.42172E-03-7.06924E-14
 -1      3705 8.19523E-03 2.36962E-03-6.83084E-14
 -1      3706 8.07937E-03 2.30687E-03-6.73205E-14
 -1      3707 8.62355E-03 2.52572E-03-7.55411E-14
 -1      3708 8.48074E-03 2.47375E-03-7.31034E-14
 -1      3709 8.36476E-03 2.41094E-03-7.20936E-14
 -1      3710 8.90921E-03 2.62947E-03-8.04933E-14
 -1      3711 8.76637E-03 2.57762E-03-7.80052E-14
 -1      3712 8.65030E-03 2.51477E-03-7.69743E-14
 -1      3713 9.19493E-03 2.73305E-03-8.55430E-14
 -1      3714 9.05207E-03 2.68128E-03-8.30066E-14
 -1      3715 8.93595E-03 2.61840E-03-8.19571E-14
 -1      3716 9.48069E-03 2.83647E-03-9.06843E-14
 -1      3717 9.33781E-03 2.78478E-03-8.81018E-14
 -1      3718 9.22167E-03 2.72188E-03-8.70353E-14
 -1      3719 9.76646E-03 2.93979E-03-9.59141E-14
 -1      3720 9.62357E-03 2.88814E-03-9.32891E-14
 -1      3721 9.50742E-03 2.82524E-03-9.22061E-14
 -1      3722 1.00522E-02 3.04302E-03-1.01228E-13
 -1      3723 9.90934E-03 2.99141E-03-9.85614E-14
 -1      3724 9.79320E-03 2.92851E-03-9.74618E-14
 -1      3725 1.03380E-02 3.14618E-03-1.06620E-13
 -1      3726 1.01951E-02 3.09461E-03-1.03914E-13
 -1      3727 1.00790E-02 3.03170E-03-1.02801E-13
 -1      3728 1.06238E-02 3.24931E-03-1.12077E-13
 -1      3729 1.04809E-02 3.19775E-03-1.09341E-13
 -1      3730 1.03648E-02 3.13485E-03-1.08216E-13
 -1      3731 1.09238E-02 3.35755E-03-1.17871E-13
 -1      3732 1.07738E-02 3.30343E-03-1.14969E-13
 -1      3733 1.06577E-02 3.24054E-03-1.13833E-13
 -1      3734 1.12096E-02 3.46062E-03-1.23440E-13
 -1      3735 1.10667E-02 3.40909E-03-1.20650E-13
 -1      3736 1.09506E-02 3.34619E-03-1.19508E-13
 -1      3737 1.14953E-02 3.56368E-03-1.29045E-13
 -1      3738 1.13525E-02 3.51215E-03-1.26237E-13
 -1      3739 1.12364E-02 3.44926E-03-1.25091E-13
 -1      3740 1.17811E-02 3.66673E-03-1.34688E-13
 -1      3741 1.16382E-02 3.61520E-03-1.31863E-13
 -1      3742 1.15221E-02 3.55231E-03-1.30711E-13
 -1      3743 1.20668E-02 3.76977E-03-1.40364E-13
 -1      3744 1.19240E-02 3.71825E-03-1.37521E-13
 -1      3745 1.18079E-02 3.65536E-03-1.36367E-13
 -1      3746 1.23526E-02 3.87281E-03-1.46076E-13
 -1      3747 1.22097E-02 3.82129E-03-1.43216E-13
 -1      3748 1.20936E-02 3.75840E-03-1.42055E-13
 -1      3749 1.26383E-02 3.97585E-03-1.51812E-13
 -1      3750 1.24954E-02 3.92433E-03-1.48941E-13
 -1      3751 1.23793E-02 3.86145E-03-1.47778E-13
 -1      3752 1.29240E-02 4.07889E-03-1.57563E-13
 -1      3753 1.27811E-02 4.02737E-03-1.54686E-13
 -1      3754 1.26651E-02 3.96449E-03-1.53524E-13
 -1      3755 1.32097E-02 4.18193E-03-1.63322E-13
 -1      3756 1.30669E-02 4.13041E-03-1.60442E-13
 -1      3757 1.29508E-02 4.06753E-03-1.59285E-13
 -1      3758 1.34954E-02 4.28498E-03-1.69084E-13
 -1      3759 1.33526E-02 4.23346E-03-1.66202E-13
 -1      3760 1.32365E-02 4.17058E-03-1.65052E-13
 -1      3761 1.33577E-02 4.02100E-03-1.78518E-13
 -1      3762 1.34084E-02 4.06314E-03-1.78180E-13
 -1      3763 1.91925E-03-1.16818E-04-5.16850E-15
 -1      3764 2.75987E-03 2.29665E-04-9.70351E-15
 -1      3765 4.98300E-03 1.15395E-03-2.22522E-14
 -1      3766 4.85755E-03 1.10464E-03-2.07247E-14
 -1      3767 4.50370E-03 9.65185E-04-1.64099E-14
 -1      3768 4.39527E-03 9.21095E-04-1.50613E-14
 -1      3769 1.37848E-02 4.38810E-03-1.74983E-13
 -1      3770 1.36194E-02 4.32576E-03-1.71805E-13
 -1      3771 1.35033E-02 4.26288E-03-1.70659E-13
 -1      3772 1.37511E-02 4.34444E-03-1.76109E-13
 -1      3773 3.73859E-03 7.02349E-04-1.28360E-14
 -1      3774 3.60849E-03 6.53095E-04-1.24775E-14
 -1      3775 5.50818E-03 1.35914E-03-2.87949E-14
 -1      3776 5.37405E-03 1.30682E-03-2.70945E-14
 -1      3777 5.53708E-03 1.35525E-03-2.98019E-14
 -1      3778 6.33602E-03 1.67811E-03-3.98450E-14
 -1      3779 6.19609E-03 1.62470E-03-3.79070E-14
 -1      3780 6.36397E-03 1.67070E-03-4.09891E-14
 -1      3781 4.73540E-03 1.05678E-03-1.92419E-14
 -1      3782 4.61699E-03 1.00985E-03-1.78049E-14
 -1      3783 4.76373E-03 1.05812E-03-2.00994E-14
 -1      3784 5.24163E-03 1.25516E-03-2.54367E-14
 -1      3785 5.11113E-03 1.20404E-03-2.38224E-14
 -1      3786 5.01187E-03 1.15332E-03-2.31600E-14
 -1      3787 5.27065E-03 1.25280E-03-2.63952E-14
 -1      3788 4.14242E-03 8.11908E-04-1.16563E-14
 -1      3789 4.19266E-03 8.33321E-04-1.25569E-14
 -1      3790 2.93126E-03 2.93503E-04-1.08464E-14
 -1      3791 4.15143E-03 8.25553E-04-1.30953E-14
 -1      3792 4.04259E-03 7.97709E-04-1.26274E-14
 -1      3793 1.31853E-02 3.90365E-03-1.78144E-13
 -1      3794 4.23977E-03 8.53640E-04-1.31802E-14
 -1      3795 4.20378E-03 8.39959E-04-1.31414E-14
 -1      3796 4.20247E-03 8.44020E-04-1.37299E-14
 -1      3797 6.08507E-03 1.56491E-03-3.71051E-14
 -1      3798 1.34591E-02 4.10529E-03-1.77846E-13
 -1      3799 1.35097E-02 4.14744E-03-1.77509E-13
 -1      3800 1.33100E-02 4.03960E-03-1.75490E-13
 -1      3801 1.37130E-02 4.25689E-03-1.79567E-13
 -1      3802 4.53109E-03 9.68863E-04-1.72147E-14
 -1      3803 3.82573E-03 7.31606E-04-1.32017E-14
 -1      3804 3.83475E-03 7.22359E-04-1.40475E-14
 -1      3805 3.90957E-03 7.58025E-04-1.35698E-14
 -1      3806 3.09896E-03 4.25824E-04-1.07186E-14
 -1      3807 1.32360E-02 3.94580E-03-1.77817E-13
 -1      3808 4.03082E-03 7.96946E-04-1.32024E-14
 -1      3809 3.08199E-03 3.77098E-04-1.14254E-14
 -1      3810 3.53103E-03 6.13444E-04-1.25567E-14
 -1      3811 3.45754E-03 5.70627E-04-1.26320E-14
 -1      3812 3.67736E-03 6.54930E-04-1.37527E-14
 -1      3813 4.14757E-03 8.21703E-04-1.16896E-14
 -1      3814 1.31376E-02 3.92225E-03-1.75115E-13
 -1      3815 4.33548E-03 8.92301E-04-1.47941E-14
 -1      3816 4.31093E-03 8.85848E-04-1.40379E-14
 -1      3817 1.36972E-02 4.30215E-03-1.76326E-13
 -1      3818 1.35733E-02 4.26137E-03-1.73598E-13
 -1      3819 1.36433E-02 4.25987E-03-1.76542E-13
 -1      3820 4.54867E-03 9.70574E-04-1.80090E-14
 -1      3821 4.43775E-03 9.29545E-04-1.66082E-14
 -1      3822 3.71968E-03 5.97420E-04-1.62231E-14
 -1      3823 3.87025E-03 6.43388E-04-1.76210E-14
 -1      3824 4.01800E-03 6.88427E-04-1.90653E-14
 -1      3825 4.16374E-03 7.33430E-04-2.05552E-14
 -1      3826 4.00856E-03 7.07329E-04-1.83061E-14
 -1      3827 4.30775E-03 7.78315E-04-2.20901E-14
 -1      3828 4.45059E-03 8.23553E-04-2.36695E-14
 -1      3829 4.29510E-03 7.94110E-04-2.12795E-14
 -1      3830 4.59246E-03 8.69069E-04-2.52922E-14
 -1      3831 4.73374E-03 9.15083E-04-2.69582E-14
 -1      3832 4.57686E-03 8.82549E-04-2.44305E-14
 -1      3833 4.87455E-03 9.61522E-04-2.86682E-14
 -1      3834 5.01514E-03 1.00844E-03-3.04196E-14
 -1      3835 4.85643E-03 9.73445E-04-2.77568E-14
 -1      3836 5.15556E-03 1.05579E-03-3.22112E-14
 -1      3837 5.29599E-03 1.10358E-03-3.40438E-14
 -1      3838 5.13539E-03 1.06677E-03-3.12524E-14
 -1      3839 5.43644E-03 1.15175E-03-3.59159E-14
 -1      3840 5.57700E-03 1.20030E-03-3.78269E-14
 -1      3841 5.41462E-03 1.16222E-03-3.49100E-14
 -1      3842 5.71768E-03 1.24917E-03-3.97755E-14
 -1      3843 5.85854E-03 1.29835E-03-4.17617E-14
 -1      3844 5.69458E-03 1.25943E-03-3.87244E-14
 -1      3845 5.99955E-03 1.34779E-03-4.37851E-14
 -1      3846 6.14075E-03 1.39748E-03-4.58443E-14
 -1      3847 5.97544E-03 1.35804E-03-4.26902E-14
 -1      3848 6.28211E-03 1.44738E-03-4.79385E-14
 -1      3849 6.42366E-03 1.49748E-03-5.00656E-14
 -1      3850 6.25724E-03 1.45772E-03-4.68005E-14
 -1      3851 6.56535E-03 1.54775E-03-5.22272E-14
 -1      3852 6.70720E-03 1.59817E-03-5.44211E-14
 -1      3853 6.53990E-03 1.55822E-03-5.10494E-14
 -1      3854 6.84919E-03 1.64873E-03-5.66458E-14
 -1      3855 6.99131E-03 1.69940E-03-5.89020E-14
 -1      3856 6.82331E-03 1.65936E-03-5.54279E-14
 -1      3857 7.13354E-03 1.75019E-03-6.11872E-14
 -1      3858 7.27587E-03 1.80106E-03-6.35015E-14
 -1      3859 7.10734E-03 1.76097E-03-5.99306E-14
 -1      3860 7.41830E-03 1.85202E-03-6.58451E-14
 -1      3861 7.56080E-03 1.90306E-03-6.82181E-14
 -1      3862 7.39187E-03 1.86295E-03-6.45519E-14
 -1      3863 7.70337E-03 1.95416E-03-7.06165E-14
 -1      3864 7.84600E-03 2.00532E-03-7.30426E-14
 -1      3865 7.67678E-03 1.96520E-03-6.92865E-14
 -1      3866 7.98868E-03 2.05653E-03-7.54974E-14
 -1      3867 8.13141E-03 2.10778E-03-7.79793E-14
 -1      3868 7.96198E-03 2.06766E-03-7.41311E-14
 -1      3869 8.27417E-03 2.15907E-03-8.04891E-14
 -1      3870 8.41696E-03 2.21040E-03-8.30219E-14
 -1      3871 8.24740E-03 2.17028E-03-7.90869E-14
 -1      3872 8.55978E-03 2.26176E-03-8.55826E-14
 -1      3873 8.70262E-03 2.31314E-03-8.81689E-14
 -1      3874 8.53296E-03 2.27302E-03-8.41473E-14
 -1      3875 8.84547E-03 2.36455E-03-9.07782E-14
 -1      3876 8.98834E-03 2.41597E-03-9.34102E-14
 -1      3877 8.81862E-03 2.37585E-03-8.93081E-14
 -1      3878 9.13121E-03 2.46742E-03-9.60633E-14
 -1      3879 9.27409E-03 2.51887E-03-9.87384E-14
 -1      3880 9.10435E-03 2.47874E-03-9.45631E-14
 -1      3881 9.41698E-03 2.57035E-03-1.01433E-13
 -1      3882 9.55987E-03 2.62183E-03-1.04147E-13
 -1      3883 9.39012E-03 2.58169E-03-9.99028E-14
 -1      3884 9.70277E-03 2.67332E-03-1.06879E-13
 -1      3885 9.84566E-03 2.72482E-03-1.09626E-13
 -1      3886 9.67590E-03 2.68467E-03-1.05320E-13
 -1      3887 9.98856E-03 2.77632E-03-1.12391E-13
 -1      3888 1.01315E-02 2.82783E-03-1.15170E-13
 -1      3889 9.96170E-03 2.78769E-03-1.10808E-13
 -1      3890 1.02743E-02 2.87935E-03-1.17962E-13
 -1      3891 1.04172E-02 2.93087E-03-1.20768E-13
 -1      3892 1.02475E-02 2.89071E-03-1.16356E-13
 -1      3893 1.05601E-02 2.98239E-03-1.23587E-13
 -1      3894 1.07030E-02 3.03391E-03-1.26413E-13
 -1      3895 1.05333E-02 2.99376E-03-1.21960E-13
 -1      3896 1.08459E-02 3.08544E-03-1.29250E-13
 -1      3897 1.09888E-02 3.13697E-03-1.32097E-13
 -1      3898 1.08191E-02 3.09681E-03-1.27606E-13
 -1      3899 1.11317E-02 3.18850E-03-1.34950E-13
 -1      3900 1.12745E-02 3.24003E-03-1.37811E-13
 -1      3901 1.11048E-02 3.19986E-03-1.33289E-13
 -1      3902 1.14174E-02 3.29156E-03-1.40681E-13
 -1      3903 1.15603E-02 3.34309E-03-1.43557E-13
 -1      3904 1.13906E-02 3.30292E-03-1.39006E-13
 -1      3905 1.17032E-02 3.39462E-03-1.46442E-13
 -1      3906 1.18460E-02 3.44615E-03-1.49334E-13
 -1      3907 1.16763E-02 3.40598E-03-1.44751E-13
 -1      3908 1.19889E-02 3.49768E-03-1.52234E-13
 -1      3909 1.21318E-02 3.54921E-03-1.55139E-13
 -1      3910 1.19621E-02 3.50904E-03-1.50528E-13
 -1      3911 1.22746E-02 3.60075E-03-1.58050E-13
 -1      3912 1.24175E-02 3.65228E-03-1.60965E-13
 -1      3913 1.22478E-02 3.61210E-03-1.56334E-13
 -1      3914 1.25604E-02 3.70381E-03-1.63885E-13
 -1      3915 1.27032E-02 3.75534E-03-1.66807E-13
 -1      3916 1.25336E-02 3.71516E-03-1.62158E-13
 -1      3917 1.28490E-02 3.81303E-03-1.69501E-13
 -1      3918 1.29918E-02 3.86456E-03-1.72424E-13
 -1      3919 1.31136E-02 3.93976E-03-1.73136E-13
 -1      3920 1.28222E-02 3.82438E-03-1.67762E-13
 -1      3921 7.25213E-03 1.98324E-03-5.49597E-14
 -1      3922 7.11029E-03 1.93085E-03-5.27763E-14
 -1      3923 5.83642E-03 1.45393E-03-3.44340E-14
 -1      3924 5.69974E-03 1.40216E-03-3.26031E-14
 -1      3925 6.96868E-03 1.87841E-03-5.06243E-14
 -1      3926 6.82731E-03 1.82591E-03-4.85031E-14
 -1      3927 6.99554E-03 1.86915E-03-5.18571E-14
 -1      3928 6.67922E-03 1.77076E-03-4.63105E-14
 -1      3929 6.53152E-03 1.71559E-03-4.41552E-14
 -1      3930 6.70609E-03 1.76211E-03-4.75045E-14
 -1      3931 7.53634E-03 2.08783E-03-5.94199E-14
 -1      3932 7.39416E-03 2.03556E-03-5.71750E-14
 -1      3933 7.27897E-03 1.97350E-03-5.62303E-14
 -1      3934 7.82107E-03 2.19216E-03-6.39970E-14
 -1      3935 7.67865E-03 2.14003E-03-6.16938E-14
 -1      3936 7.56315E-03 2.07770E-03-6.07253E-14
 -1      3937 8.10617E-03 2.29624E-03-6.86916E-14
 -1      3938 7.96358E-03 2.24423E-03-6.63292E-14
 -1      3939 7.84786E-03 2.18172E-03-6.53375E-14
 -1      3940 8.39153E-03 2.40011E-03-7.34977E-14
 -1      3941 8.24883E-03 2.34820E-03-7.10822E-14
 -1      3942 8.13295E-03 2.28556E-03-7.00675E-14
 -1      3943 8.67706E-03 2.50378E-03-7.84109E-14
 -1      3944 8.53428E-03 2.45197E-03-7.59415E-14
 -1      3945 8.41830E-03 2.38923E-03-7.49060E-14
 -1      3946 8.96270E-03 2.60730E-03-8.34228E-14
 -1      3947 8.81987E-03 2.55556E-03-8.09042E-14
 -1      3948 8.70382E-03 2.49277E-03-7.98501E-14
 -1      3949 9.24842E-03 2.71070E-03-8.85318E-14
 -1      3950 9.10556E-03 2.65902E-03-8.59671E-14
 -1      3951 8.98947E-03 2.59618E-03-8.48939E-14
 -1      3952 9.53418E-03 2.81400E-03-9.37313E-14
 -1      3953 9.39129E-03 2.76236E-03-9.11199E-14
 -1      3954 9.27518E-03 2.69950E-03-9.00333E-14
 -1      3955 9.81996E-03 2.91722E-03-9.90159E-14
 -1      3956 9.67706E-03 2.86562E-03-9.63628E-14
 -1      3957 9.56094E-03 2.80274E-03-9.52607E-14
 -1      3958 1.01057E-02 3.02038E-03-1.04379E-13
 -1      3959 9.96285E-03 2.96881E-03-1.01689E-13
 -1      3960 9.84673E-03 2.90592E-03-1.00573E-13
 -1      3961 1.03915E-02 3.12351E-03-1.09814E-13
 -1      3962 1.02486E-02 3.07195E-03-1.07088E-13
 -1      3963 1.01325E-02 3.00906E-03-1.05961E-13
 -1      3964 1.06916E-02 3.23176E-03-1.15590E-13
 -1      3965 1.05416E-02 3.17764E-03-1.12695E-13
 -1      3966 1.04255E-02 3.11474E-03-1.11555E-13
 -1      3967 1.09774E-02 3.33483E-03-1.21146E-13
 -1      3968 1.08345E-02 3.28330E-03-1.18364E-13
 -1      3969 1.07184E-02 3.22040E-03-1.17215E-13
 -1      3970 1.12632E-02 3.43789E-03-1.26742E-13
 -1      3971 1.11203E-02 3.38636E-03-1.23939E-13
 -1      3972 1.10042E-02 3.32347E-03-1.22787E-13
 -1      3973 1.15489E-02 3.54095E-03-1.32380E-13
 -1      3974 1.14060E-02 3.48942E-03-1.29556E-13
 -1      3975 1.12899E-02 3.42653E-03-1.28400E-13
 -1      3976 1.18347E-02 3.64399E-03-1.38047E-13
 -1      3977 1.16918E-02 3.59247E-03-1.35208E-13
 -1      3978 1.15757E-02 3.52958E-03-1.34049E-13
 -1      3979 1.21204E-02 3.74704E-03-1.43748E-13
 -1      3980 1.19775E-02 3.69552E-03-1.40894E-13
 -1      3981 1.18615E-02 3.63263E-03-1.39731E-13
 -1      3982 1.24061E-02 3.85008E-03-1.49485E-13
 -1      3983 1.22633E-02 3.79856E-03-1.46613E-13
 -1      3984 1.21472E-02 3.73567E-03-1.45446E-13
 -1      3985 1.26919E-02 3.95313E-03-1.55241E-13
 -1      3986 1.25490E-02 3.90160E-03-1.52361E-13
 -1      3987 1.24330E-02 3.83872E-03-1.51193E-13
 -1      3988 1.29776E-02 4.05617E-03-1.61010E-13
 -1      3989 1.28347E-02 4.00465E-03-1.58126E-13
 -1      3990 1.27187E-02 3.94177E-03-1.56961E-13
 -1      3991 1.32633E-02 4.15922E-03-1.66782E-13
 -1      3992 1.31205E-02 4.10770E-03-1.63896E-13
 -1      3993 1.30044E-02 4.04481E-03-1.62739E-13
 -1      3994 1.35494E-02 4.18178E-03-1.77168E-13
 -1      3995 1.36036E-02 4.22553E-03-1.76885E-13
 -1      3996 1.34797E-02 4.18475E-03-1.74147E-13
 -1      3997 1.34004E-02 4.11608E-03-1.74823E-13
 -1      3998 3.27098E-03 4.71483E-04-1.22121E-14
 -1      3999 4.36072E-03 9.01511E-04-1.56682E-14
 -1      4000 4.27299E-03 8.69154E-04-1.46260E-14
 -1      4001 4.21186E-03 8.50661E-04-1.45721E-14
 -1      4002 4.36609E-03 9.02299E-04-1.64248E-14
 -1      4003 1.34803E-02 4.23069E-03-1.71553E-13
 -1      4004 1.33564E-02 4.18990E-03-1.68825E-13
 -1      4005 1.32403E-02 4.12702E-03-1.67670E-13
 -1      4006 1.34264E-02 4.18840E-03-1.71761E-13
 -1      4007 5.56418E-03 1.35084E-03-3.08137E-14
 -1      4008 5.42990E-03 1.29995E-03-2.90666E-14
 -1      4009 5.58993E-03 1.34572E-03-3.18329E-14
 -1      4010 2.02995E-03-1.11185E-04-6.04706E-15
 -1      4011 3.42898E-03 5.22750E-04-1.33954E-14
 -1      4012 3.58560E-03 5.71007E-04-1.46931E-14
 -1      4013 4.78555E-03 1.05799E-03-2.09426E-14
 -1      4014 4.66521E-03 1.01325E-03-1.94533E-14
 -1      4015 4.56205E-03 9.70188E-04-1.88076E-14
 -1      4016 6.11246E-03 1.55820E-03-3.82098E-14
 -1      4017 5.97403E-03 1.50594E-03-3.63027E-14
 -1      4018 5.86277E-03 1.44776E-03-3.54979E-14
 -1      4019 4.12895E-03 8.25417E-04-1.43192E-14
 -1      4020 4.01351E-03 7.91451E-04-1.38313E-14
 -1      4021 4.02196E-03 7.88304E-04-1.46992E-14
 -1      4022 4.20781E-03 8.49636E-04-1.52306E-14
 -1      4023 6.39130E-03 1.66307E-03-4.21374E-14
 -1      4024 6.25158E-03 1.61058E-03-4.01556E-14
 -1      4025 6.41812E-03 1.65513E-03-4.32900E-14
 -1      4026 1.31643E-02 3.98191E-03-1.72810E-13
 -1      4027 1.32150E-02 4.02406E-03-1.72483E-13
 -1      4028 1.30186E-02 3.92422E-03-1.70130E-13
 -1      4029 3.73487E-03 6.39440E-04-1.53290E-14
 -1      4030 3.86015E-03 7.11690E-04-1.51689E-14
 -1      4031 3.79631E-03 6.76351E-04-1.52520E-14
 -1      4032 3.91884E-03 6.99494E-04-1.68095E-14
 -1      4033 5.03582E-03 1.15143E-03-2.40525E-14
 -1      4034 4.90930E-03 1.10395E-03-2.24760E-14
 -1      4035 4.80396E-03 1.05616E-03-2.17915E-14
 -1      4036 5.32178E-03 1.24580E-03-2.83298E-14
 -1      4037 5.29713E-03 1.24977E-03-2.73599E-14
 -1      4038 5.16612E-03 1.20026E-03-2.56950E-14
 -1      4039 6.13914E-03 1.55109E-03-3.93198E-14
 -1      4040 3.94259E-03 7.42533E-04-1.55626E-14
 -1      4041 6.44450E-03 1.64690E-03-4.44457E-14
 -1      4042 6.30460E-03 1.59516E-03-4.24221E-14
 -1      4043 4.28258E-03 8.80990E-04-1.34303E-14
 -1      4044 4.28521E-03 8.09558E-04-2.04748E-14
 -1      4045 4.42448E-03 8.52233E-04-2.20035E-14
 -1      4046 4.56295E-03 8.95575E-04-2.35760E-14
 -1      4047 4.70128E-03 9.39831E-04-2.51920E-14
 -1      4048 4.55088E-03 9.08050E-04-2.27272E-14
 -1      4049 4.83941E-03 9.84866E-04-2.68515E-14
 -1      4050 4.97761E-03 1.03072E-03-2.85542E-14
 -1      4051 4.82348E-03 9.95735E-04-2.59528E-14
 -1      4052 5.11587E-03 1.07726E-03-3.02992E-14
 -1      4053 5.25443E-03 1.12445E-03-3.20841E-14
 -1      4054 5.09701E-03 1.08717E-03-2.93504E-14
 -1      4055 5.39321E-03 1.17223E-03-3.39093E-14
 -1      4056 5.53232E-03 1.22052E-03-3.57746E-14
 -1      4057 5.37217E-03 1.18170E-03-3.29139E-14
 -1      4058 5.67172E-03 1.26928E-03-3.76780E-14
 -1      4059 5.81145E-03 1.31842E-03-3.96204E-14
 -1      4060 5.64907E-03 1.27865E-03-3.66372E-14
 -1      4061 5.95149E-03 1.36791E-03-4.15993E-14
 -1      4062 6.09184E-03 1.41769E-03-4.36159E-14
 -1      4063 5.92766E-03 1.37738E-03-4.05139E-14
 -1      4064 6.23247E-03 1.46774E-03-4.56687E-14
 -1      4065 6.37337E-03 1.51799E-03-4.77554E-14
 -1      4066 6.20776E-03 1.47741E-03-4.45399E-14
 -1      4067 6.51452E-03 1.56844E-03-4.98755E-14
 -1      4068 6.65590E-03 1.61904E-03-5.20286E-14
 -1      4069 6.48918E-03 1.57836E-03-4.87065E-14
 -1      4070 6.79748E-03 1.66978E-03-5.42144E-14
 -1      4071 6.93925E-03 1.72063E-03-5.64307E-14
 -1      4072 6.77168E-03 1.67997E-03-5.30057E-14
 -1      4073 7.08118E-03 1.77159E-03-5.86793E-14
 -1      4074 7.22326E-03 1.82263E-03-6.09558E-14
 -1      4075 7.05505E-03 1.78202E-03-5.74311E-14
 -1      4076 7.36547E-03 1.87374E-03-6.32619E-14
 -1      4077 7.50780E-03 1.92491E-03-6.55980E-14
 -1      4078 7.33910E-03 1.88438E-03-6.19769E-14
 -1      4079 7.65022E-03 1.97614E-03-6.79617E-14
 -1      4080 7.79273E-03 2.02741E-03-7.03525E-14
 -1      4081 7.62368E-03 1.98696E-03-6.66395E-14
 -1      4082 7.93531E-03 2.07872E-03-7.27711E-14
 -1      4083 8.07795E-03 2.13006E-03-7.52173E-14
 -1      4084 7.90865E-03 2.08969E-03-7.14153E-14
 -1      4085 8.22064E-03 2.18143E-03-7.76919E-14
 -1      4086 8.36338E-03 2.23282E-03-8.01915E-14
 -1      4087 8.19391E-03 2.19251E-03-7.63004E-14
 -1      4088 8.50616E-03 2.28424E-03-8.27165E-14
 -1      4089 8.64896E-03 2.33567E-03-8.52671E-14
 -1      4090 8.47937E-03 2.29541E-03-8.12919E-14
 -1      4091 8.79179E-03 2.38712E-03-8.78440E-14
 -1      4092 8.93464E-03 2.43858E-03-9.04440E-14
 -1      4093 8.76497E-03 2.39836E-03-8.63851E-14
 -1      4094 9.07750E-03 2.49005E-03-9.30657E-14
 -1      4095 9.22038E-03 2.54153E-03-9.57108E-14
 -1      4096 9.05067E-03 2.50134E-03-9.15764E-14
 -1      4097 9.36326E-03 2.59302E-03-9.83776E-14
 -1      4098 9.50615E-03 2.64452E-03-1.01063E-13
 -1      4099 9.33642E-03 2.60434E-03-9.68567E-14
 -1      4100 9.64905E-03 2.69602E-03-1.03769E-13
 -1      4101 9.79194E-03 2.74753E-03-1.06491E-13
 -1      4102 9.62220E-03 2.70736E-03-1.02220E-13
 -1      4103 9.93484E-03 2.79904E-03-1.09230E-13
 -1      4104 1.00777E-02 2.85056E-03-1.11986E-13
 -1      4105 9.90800E-03 2.81040E-03-1.07656E-13
 -1      4106 1.02206E-02 2.90208E-03-1.14755E-13
 -1      4107 1.03635E-02 2.95360E-03-1.17539E-13
 -1      4108 1.01938E-02 2.91344E-03-1.13158E-13
 -1      4109 1.05064E-02 3.00512E-03-1.20338E-13
 -1      4110 1.06493E-02 3.05665E-03-1.23148E-13
 -1      4111 1.04796E-02 3.01649E-03-1.18719E-13
 -1      4112 1.07922E-02 3.10817E-03-1.25966E-13
 -1      4113 1.09351E-02 3.15970E-03-1.28795E-13
 -1      4114 1.07654E-02 3.11954E-03-1.24329E-13
 -1      4115 1.10780E-02 3.21123E-03-1.31633E-13
 -1      4116 1.12209E-02 3.26276E-03-1.34478E-13
 -1      4117 1.10512E-02 3.22260E-03-1.29979E-13
 -1      4118 1.13638E-02 3.31429E-03-1.37333E-13
 -1      4119 1.15066E-02 3.36582E-03-1.40195E-13
 -1      4120 1.13369E-02 3.32565E-03-1.35663E-13
 -1      4121 1.16495E-02 3.41735E-03-1.43065E-13
 -1      4122 1.17924E-02 3.46887E-03-1.45943E-13
 -1      4123 1.16227E-02 3.42871E-03-1.41381E-13
 -1      4124 1.19353E-02 3.52040E-03-1.48829E-13
 -1      4125 1.20781E-02 3.57193E-03-1.51722E-13
 -1      4126 1.19085E-02 3.53177E-03-1.47131E-13
 -1      4127 1.22210E-02 3.62346E-03-1.54620E-13
 -1      4128 1.23639E-02 3.67499E-03-1.57525E-13
 -1      4129 1.21942E-02 3.63482E-03-1.52911E-13
 -1      4130 1.25067E-02 3.72652E-03-1.60432E-13
 -1      4131 1.26496E-02 3.77805E-03-1.63344E-13
 -1      4132 1.24799E-02 3.73788E-03-1.58712E-13
 -1      4133 1.27612E-02 3.82229E-03-1.65396E-13
 -1      4134 1.29070E-02 3.87998E-03-1.68079E-13
 -1      4135 1.29576E-02 3.92213E-03-1.67760E-13
 -1      4136 1.27344E-02 3.83365E-03-1.63666E-13
 -1      4137 7.30568E-03 1.96363E-03-5.75047E-14
 -1      4138 7.16383E-03 1.91168E-03-5.52836E-14
 -1      4139 6.73969E-03 1.75582E-03-4.88067E-14
 -1      4140 6.59189E-03 1.70132E-03-4.66073E-14
 -1      4141 6.47758E-03 1.64091E-03-4.57079E-14
 -1      4142 7.87461E-03 2.17120E-03-6.66832E-14
 -1      4143 7.73219E-03 2.11935E-03-6.43452E-14
 -1      4144 8.15970E-03 2.27481E-03-7.14473E-14
 -1      4145 8.01712E-03 2.22302E-03-6.90514E-14
 -1      4146 7.90132E-03 2.16059E-03-6.80338E-14
 -1      4147 8.44506E-03 2.37831E-03-7.63185E-14
 -1      4148 8.30235E-03 2.32658E-03-7.38695E-14
 -1      4149 8.18644E-03 2.26400E-03-7.28309E-14
 -1      4150 8.73059E-03 2.48171E-03-8.12935E-14
 -1      4151 8.58781E-03 2.43003E-03-7.87939E-14
 -1      4152 8.47181E-03 2.36734E-03-7.77333E-14
 -1      4153 9.01624E-03 2.58503E-03-8.63686E-14
 -1      4154 8.87340E-03 2.53338E-03-8.38180E-14
 -1      4155 8.75736E-03 2.47062E-03-8.27410E-14
 -1      4156 9.30196E-03 2.68827E-03-9.15385E-14
 -1      4157 9.15909E-03 2.63666E-03-8.89430E-14
 -1      4158 9.04302E-03 2.57385E-03-8.78474E-14
 -1      4159 9.58772E-03 2.79146E-03-9.67944E-14
 -1      4160 9.44484E-03 2.73987E-03-9.41543E-14
 -1      4161 9.32875E-03 2.67703E-03-9.30475E-14
 -1      4162 9.87351E-03 2.89461E-03-1.02134E-13
 -1      4163 9.73062E-03 2.84304E-03-9.94551E-14
 -1      4164 9.61452E-03 2.78017E-03-9.83320E-14
 -1      4165 1.01593E-02 2.99772E-03-1.07545E-13
 -1      4166 1.00164E-02 2.94617E-03-1.04831E-13
 -1      4167 9.90031E-03 2.88328E-03-1.03697E-13
 -1      4168 1.04594E-02 3.10597E-03-1.13300E-13
 -1      4169 1.03094E-02 3.05185E-03-1.10414E-13
 -1      4170 1.01933E-02 2.98895E-03-1.09271E-13
 -1      4171 1.07452E-02 3.20904E-03-1.18843E-13
 -1      4172 1.06023E-02 3.15750E-03-1.16065E-13
 -1      4173 1.04862E-02 3.09461E-03-1.14913E-13
 -1      4174 1.10310E-02 3.31210E-03-1.24431E-13
 -1      4175 1.08881E-02 3.26057E-03-1.21633E-13
 -1      4176 1.07720E-02 3.19768E-03-1.20474E-13
 -1      4177 1.13167E-02 3.41516E-03-1.30061E-13
 -1      4178 1.11739E-02 3.36363E-03-1.27240E-13
 -1      4179 1.10578E-02 3.30074E-03-1.26079E-13
 -1      4180 1.16025E-02 3.51821E-03-1.35721E-13
 -1      4181 1.14596E-02 3.46669E-03-1.32887E-13
 -1      4182 1.13436E-02 3.40379E-03-1.31722E-13
 -1      4183 1.18883E-02 3.62126E-03-1.41418E-13
 -1      4184 1.17454E-02 3.56974E-03-1.38567E-13
 -1      4185 1.16293E-02 3.50684E-03-1.37399E-13
 -1      4186 1.21740E-02 3.72431E-03-1.47148E-13
 -1      4187 1.20311E-02 3.67278E-03-1.44278E-13
 -1      4188 1.19151E-02 3.60989E-03-1.43109E-13
 -1      4189 1.24598E-02 3.82736E-03-1.52906E-13
 -1      4190 1.23169E-02 3.77583E-03-1.50025E-13
 -1      4191 1.22008E-02 3.71294E-03-1.48852E-13
 -1      4192 1.27455E-02 3.93040E-03-1.58683E-13
 -1      4193 1.26026E-02 3.87888E-03-1.55791E-13
 -1      4194 1.24866E-02 3.81599E-03-1.54620E-13
 -1      4195 1.30312E-02 4.03345E-03-1.64463E-13
 -1      4196 1.28884E-02 3.98193E-03-1.61572E-13
 -1      4197 1.27723E-02 3.91904E-03-1.60404E-13
 -1      4198 5.61457E-03 1.33992E-03-3.28575E-14
 -1      4199 5.47919E-03 1.29004E-03-3.10611E-14
 -1      4200 7.02220E-03 1.85972E-03-5.30935E-14
 -1      4201 6.88080E-03 1.80776E-03-5.09346E-14
 -1      4202 7.04869E-03 1.85009E-03-5.43351E-14
 -1      4203 4.03259E-03 7.33579E-04-1.78876E-14
 -1      4204 4.17416E-03 7.75244E-04-1.93365E-14
 -1      4205 4.30654E-03 8.32141E-04-2.00272E-14
 -1      4206 4.08770E-03 7.66137E-04-1.78006E-14
 -1      4207 4.37103E-03 9.01506E-04-1.71151E-14
 -1      4208 4.28882E-03 8.74805E-04-1.61623E-14
 -1      4209 4.20367E-03 8.45672E-04-1.58938E-14
 -1      4210 7.58988E-03 2.06747E-03-6.20351E-14
 -1      4211 7.44770E-03 2.01556E-03-5.97547E-14
 -1      4212 7.33228E-03 1.95360E-03-5.87815E-14
 -1      4213 7.61655E-03 2.05712E-03-6.33489E-14
 -1      4214 5.88831E-03 1.44107E-03-3.65676E-14
 -1      4215 5.75099E-03 1.39026E-03-3.46926E-14
 -1      4216 5.63847E-03 1.33336E-03-3.38866E-14
 -1      4217 4.60814E-03 9.80286E-04-1.99939E-14
 -1      4218 4.48804E-03 9.39782E-04-1.85317E-14
 -1      4219 4.40855E-03 9.08609E-04-1.82508E-14
 -1      4220 4.06401E-03 7.92297E-04-1.58214E-14
 -1      4221 4.09448E-03 7.86338E-04-1.70004E-14
 -1      4222 6.16521E-03 1.54359E-03-4.04342E-14
 -1      4223 6.02642E-03 1.49219E-03-3.84820E-14
 -1      4224 5.91328E-03 1.43381E-03-3.76430E-14
 -1      4225 6.19085E-03 1.53565E-03-4.15524E-14
 -1      4226 4.85709E-03 1.06659E-03-2.30493E-14
 -1      4227 4.73144E-03 1.02260E-03-2.14991E-14
 -1      4228 4.65526E-03 9.88715E-04-2.12027E-14
 -1      4229 1.33867E-02 4.15406E-03-1.72100E-13
 -1      4230 1.32937E-02 4.12337E-03-1.70051E-13
 -1      4231 1.33470E-02 4.11973E-03-1.72435E-13
 -1      4232 4.20092E-03 8.17519E-04-1.80794E-14
 -1      4233 4.16056E-03 8.27769E-04-1.61014E-14
 -1      4234 6.76603E-03 1.74667E-03-5.00083E-14
 -1      4235 5.36724E-03 1.23502E-03-3.02885E-14
 -1      4236 5.34495E-03 1.24090E-03-2.93054E-14
 -1      4237 5.21208E-03 1.19247E-03-2.75921E-14
 -1      4238 1.32612E-02 4.05472E-03-1.72629E-13
 -1      4239 1.33008E-02 4.08906E-03-1.72295E-13
 -1      4240 1.32078E-02 4.05837E-03-1.70245E-13
 -1      4241 1.31154E-02 3.99704E-03-1.69954E-13
 -1      4242 5.05861E-03 1.14867E-03-2.49728E-14
 -1      4243 1.32090E-02 4.09376E-03-1.68281E-13
 -1      4244 1.31159E-02 4.06307E-03-1.66233E-13
 -1      4245 1.29999E-02 4.00019E-03-1.65068E-13
 -1      4246 1.31693E-02 4.05942E-03-1.68612E-13
 -1      4247 5.66183E-03 1.32610E-03-3.49210E-14
 -1      4248 5.52492E-03 1.27684E-03-3.30790E-14
 -1      4249 8.49857E-03 2.35632E-03-7.91539E-14
 -1      4250 8.35585E-03 2.30472E-03-7.66729E-14
 -1      4251 4.80855E-03 1.00569E-03-2.50611E-14
 -1      4252 4.94334E-03 1.05048E-03-2.67135E-14
 -1      4253 5.09925E-03 1.11507E-03-2.81021E-14
 -1      4254 5.23442E-03 1.16188E-03-2.98313E-14
 -1      4255 5.39132E-03 1.20136E-03-3.25933E-14
 -1      4256 5.52896E-03 1.24968E-03-3.44274E-14
 -1      4257 5.66712E-03 1.29858E-03-3.63006E-14
 -1      4258 5.80581E-03 1.34791E-03-3.82123E-14
 -1      4259 5.68492E-03 1.31819E-03-3.59604E-14
 -1      4260 5.94496E-03 1.39766E-03-4.01622E-14
 -1      4261 6.08456E-03 1.44771E-03-4.21489E-14
 -1      4262 5.96206E-03 1.41770E-03-3.98069E-14
 -1      4263 6.22457E-03 1.49805E-03-4.41723E-14
 -1      4264 6.36494E-03 1.54861E-03-4.62317E-14
 -1      4265 6.24121E-03 1.51853E-03-4.38020E-14
 -1      4266 6.50565E-03 1.59936E-03-4.83245E-14
 -1      4267 6.64665E-03 1.65025E-03-5.04498E-14
 -1      4268 6.52199E-03 1.62023E-03-4.79380E-14
 -1      4269 6.78792E-03 1.70128E-03-5.26074E-14
 -1      4270 6.92942E-03 1.75240E-03-5.47969E-14
 -1      4271 6.80408E-03 1.72250E-03-5.22071E-14
 -1      4272 7.07114E-03 1.80360E-03-5.70193E-14
 -1      4273 7.21304E-03 1.85487E-03-5.92704E-14
 -1      4274 7.08718E-03 1.82512E-03-5.66033E-14
 -1      4275 7.35510E-03 1.90620E-03-6.15500E-14
 -1      4276 7.49729E-03 1.95756E-03-6.38598E-14
 -1      4277 7.37105E-03 1.92796E-03-6.11203E-14
 -1      4278 7.63961E-03 2.00896E-03-6.61988E-14
 -1      4279 7.78203E-03 2.06038E-03-6.85662E-14
 -1      4280 7.65552E-03 2.03092E-03-6.57550E-14
 -1      4281 8.21691E-03 2.21735E-03-7.59557E-14
 -1      4282 8.35961E-03 2.26884E-03-7.84343E-14
 -1      4283 8.50235E-03 2.32033E-03-8.09359E-14
 -1      4284 8.64514E-03 2.37184E-03-8.34643E-14
 -1      4285 8.52534E-03 2.34525E-03-8.05777E-14
 -1      4286 8.78795E-03 2.42334E-03-8.60190E-14
 -1      4287 8.93078E-03 2.47486E-03-8.85978E-14
 -1      4288 8.81093E-03 2.44833E-03-8.56500E-14
 -1      4289 9.07364E-03 2.52637E-03-9.11996E-14
 -1      4290 9.21651E-03 2.57789E-03-9.38221E-14
 -1      4291 9.09661E-03 2.55140E-03-9.08185E-14
 -1      4292 9.35939E-03 2.62941E-03-9.64679E-14
 -1      4293 9.50227E-03 2.68093E-03-9.91345E-14
 -1      4294 9.38236E-03 2.65448E-03-9.60782E-14
 -1      4295 9.64517E-03 2.73246E-03-1.01820E-13
 -1      4296 9.78807E-03 2.78398E-03-1.04525E-13
 -1      4297 9.66814E-03 2.75755E-03-1.01418E-13
 -1      4298 9.93097E-03 2.83551E-03-1.07246E-13
 -1      4299 1.00739E-02 2.88703E-03-1.09986E-13
 -1      4300 9.95394E-03 2.86061E-03-1.06835E-13
 -1      4301 1.02168E-02 2.93856E-03-1.12741E-13
 -1      4302 1.03597E-02 2.99008E-03-1.15509E-13
 -1      4303 1.02397E-02 2.96367E-03-1.12321E-13
 -1      4304 1.05026E-02 3.04161E-03-1.18293E-13
 -1      4305 1.06455E-02 3.09314E-03-1.21089E-13
 -1      4306 1.05255E-02 3.06673E-03-1.17866E-13
 -1      4307 1.07884E-02 3.14467E-03-1.23895E-13
 -1      4308 1.09313E-02 3.19619E-03-1.26713E-13
 -1      4309 1.08113E-02 3.16979E-03-1.23460E-13
 -1      4310 1.10741E-02 3.24772E-03-1.29539E-13
 -1      4311 1.12170E-02 3.29925E-03-1.32373E-13
 -1      4312 1.10971E-02 3.27285E-03-1.29097E-13
 -1      4313 1.13599E-02 3.35078E-03-1.35217E-13
 -1      4314 1.15028E-02 3.40231E-03-1.38067E-13
 -1      4315 1.13829E-02 3.37590E-03-1.34769E-13
 -1      4316 1.16457E-02 3.45383E-03-1.40927E-13
 -1      4317 1.17886E-02 3.50536E-03-1.43795E-13
 -1      4318 1.16687E-02 3.47896E-03-1.40472E-13
 -1      4319 1.19314E-02 3.55689E-03-1.46671E-13
 -1      4320 1.20743E-02 3.60842E-03-1.49553E-13
 -1      4321 1.19544E-02 3.58201E-03-1.46208E-13
 -1      4322 1.22172E-02 3.65994E-03-1.52442E-13
 -1      4323 1.23600E-02 3.71147E-03-1.55339E-13
 -1      4324 1.22402E-02 3.68506E-03-1.51974E-13
 -1      4325 1.25029E-02 3.76300E-03-1.58237E-13
 -1      4326 1.26458E-02 3.81453E-03-1.61139E-13
 -1      4327 1.25259E-02 3.78812E-03-1.57764E-13
 -1      4328 6.50339E-03 1.63201E-03-4.68735E-14
 -1      4329 6.35604E-03 1.57828E-03-4.47053E-14
 -1      4330 7.92088E-03 2.14731E-03-6.92679E-14
 -1      4331 7.77841E-03 2.09569E-03-6.68953E-14
 -1      4332 8.78414E-03 2.45949E-03-8.41928E-14
 -1      4333 8.64134E-03 2.40791E-03-8.16609E-14
 -1      4334 9.06981E-03 2.56264E-03-8.93324E-14
 -1      4335 8.92696E-03 2.51107E-03-8.67501E-14
 -1      4336 9.35555E-03 2.66576E-03-9.45597E-14
 -1      4337 9.21267E-03 2.61420E-03-9.19352E-14
 -1      4338 9.64133E-03 2.76887E-03-9.98742E-14
 -1      4339 9.49843E-03 2.71732E-03-9.72065E-14
 -1      4340 9.92712E-03 2.87195E-03-1.05265E-13
 -1      4341 9.78422E-03 2.82041E-03-1.02561E-13
 -1      4342 1.02201E-02 2.97761E-03-1.10863E-13
 -1      4343 1.00700E-02 2.92349E-03-1.07987E-13
 -1      4344 1.05059E-02 3.08067E-03-1.16390E-13
 -1      4345 1.03630E-02 3.02914E-03-1.13619E-13
 -1      4346 1.07917E-02 3.18373E-03-1.21967E-13
 -1      4347 1.06488E-02 3.13220E-03-1.19172E-13
 -1      4348 1.10774E-02 3.28679E-03-1.27587E-13
 -1      4349 1.09346E-02 3.23526E-03-1.24772E-13
 -1      4350 1.13632E-02 3.38985E-03-1.33243E-13
 -1      4351 1.12203E-02 3.33832E-03-1.30411E-13
 -1      4352 1.16490E-02 3.49290E-03-1.38934E-13
 -1      4353 1.15061E-02 3.44137E-03-1.36085E-13
 -1      4354 1.19347E-02 3.59595E-03-1.44658E-13
 -1      4355 1.17919E-02 3.54443E-03-1.41792E-13
 -1      4356 1.22205E-02 3.69900E-03-1.50412E-13
 -1      4357 1.20776E-02 3.64748E-03-1.47532E-13
 -1      4358 1.25062E-02 3.80206E-03-1.56192E-13
 -1      4359 1.23634E-02 3.75053E-03-1.53300E-13
 -1      4360 1.27920E-02 3.90511E-03-1.61982E-13
 -1      4361 1.26491E-02 3.85358E-03-1.59086E-13
 -1      4362 4.24933E-03 8.53816E-04-1.70553E-14
 -1      4363 5.09851E-03 1.15207E-03-2.61124E-14
 -1      4364 4.96750E-03 1.10513E-03-2.44579E-14
 -1      4365 4.89271E-03 1.06889E-03-2.41453E-14
 -1      4366 5.11848E-03 1.14681E-03-2.70489E-14
 -1      4367 6.78512E-03 1.73470E-03-5.11073E-14
 -1      4368 6.64409E-03 1.68330E-03-4.89741E-14
 -1      4369 4.60436E-03 9.51573E-04-2.19725E-14
 -1      4370 4.73605E-03 9.94047E-04-2.35395E-14
 -1      4371 7.06798E-03 1.83770E-03-5.54669E-14
 -1      4372 6.92643E-03 1.78617E-03-5.32712E-14
 -1      4373 4.37283E-03 8.90964E-04-1.84724E-14
 -1      4374 8.21504E-03 2.23525E-03-7.50866E-14
 -1      4375 8.18832E-03 2.24618E-03-7.36988E-14
 -1      4376 8.04571E-03 2.19456E-03-7.12763E-14
 -1      4377 8.04941E-03 2.15896E-03-7.29883E-14
 -1      4378 7.92271E-03 2.12960E-03-7.01147E-14
 -1      4379 7.90684E-03 2.10749E-03-7.05711E-14
 -1      4380 6.21614E-03 1.52730E-03-4.26747E-14
 -1      4381 1.27574E-02 3.85877E-03-1.63187E-13
 -1      4382 6.07670E-03 1.47652E-03-4.06809E-14
 -1      4383 5.37032E-03 1.20957E-03-3.16026E-14
 -1      4384 7.63605E-03 2.04407E-03-6.45516E-14
 -1      4385 1.30038E-02 3.95280E-03-1.67907E-13
 -1      4386 1.30500E-02 3.98347E-03-1.68056E-13
 -1      4387 1.28922E-02 3.90856E-03-1.65864E-13
 -1      4388 5.79949E-03 1.37585E-03-3.68025E-14
 -1      4389 4.33335E-03 8.69603E-04-1.87335E-14
 -1      4390 4.33148E-03 8.54466E-04-1.95756E-14
 -1      4391 5.93780E-03 1.42602E-03-3.87226E-14
 -1      4392 7.20975E-03 1.88926E-03-5.76946E-14
 -1      4393 4.43743E-03 8.87269E-04-2.07159E-14
 -1      4394 7.49381E-03 1.99246E-03-6.22353E-14
 -1      4395 1.30115E-02 3.98452E-03-1.66427E-13
 -1      4396 1.29268E-02 3.95490E-03-1.64654E-13
 -1      4397 7.35170E-03 1.94085E-03-5.99501E-14
 -1      4398 4.49627E-03 9.28198E-04-1.99797E-14
 -1      4399 5.08084E-03 1.12250E-03-2.71657E-14
 -1      4400 1.28036E-02 3.88944E-03-1.63338E-13
 -1      4401 4.96647E-03 1.08357E-03-2.56951E-14
 -1      4402 1.31231E-02 4.02875E-03-1.68469E-13
 -1      4403 4.62356E-03 9.69110E-04-2.14870E-14
 -1      4404 4.85328E-03 1.04558E-03-2.42562E-14
 -3
    1PSTEP                         2           1           1          
  100CL  101 1.000000000        4404                     0    1           1
 -4  STRESS      6    1
 -5  SXX         1    4    1    1
 -5  SYY         1    4    2    2
 -5  SZZ         1    4    3    3
 -5  SXY         1    4    1    2
 -5  SYZ         1    4    2    3
 -5  SZX         1    4    3    1
 -1         1 2.54908E+01 1.18206E+01 1.32044E+00-1.70578E+01-3.05006E-12 4.32332E-12
 -1         2-7.72801E-01-1.88588E+01-3.22004E+00-2.28127E-01 2.32779E-12 1.65243E-13
 -1         3 1.99998E+01 3.75979E-07-7.01922E-06 4.86628E-07 2.02628E-13 1.90229E-13
 -1         4 1.99998E+01 2.32846E-07-7.07764E-06-3.20317E-07 6.18043E-14 1.98292E-13
 -1         5 5.48318E+01 1.09849E+01 4.92324E+00 9.28314E+00-5.81479E-14 4.90852E-12
 -1         6 3.79355E+01 1.30829E+01 5.67388E+00-9.61457E+00-4.31932E-13 4.86244E-12
 -1         7 2.14772E+01 6.20314E+00-2.03019E-01-5.72164E+00-5.73985E-14 1.17791E-13
 -1         8 2.08626E+01 6.30750E+00-1.42720E-03-4.45894E+00-5.86099E-14-1.24046E-12
 -1         9 2.13177E+01 6.42368E+00 3.95604E-02-3.78791E+00-3.65194E-14-1.79472E-12
 -1        10 2.21144E+01 6.64177E+00 8.05359E-02-3.11773E+00-9.89833E-15-1.95258E-12
 -1        11 2.29357E+01 6.86133E+00 1.50685E-01-2.25274E+00 1.43149E-14-1.87763E-12
 -1        12 2.33682E+01 6.95481E+00 2.75685E-01-9.67062E-01 4.40446E-14-1.67999E-12
 -1        13 2.25824E+01 6.68493E+00 4.31058E-01 9.16607E-01 8.33639E-14-1.38539E-12
 -1        14 1.97360E+01 5.84864E+00 4.84447E-01 2.97837E+00 1.34281E-13-1.08605E-12
 -1        15 1.43597E+01 4.31834E+00 2.67978E-01 4.50488E+00 1.84325E-13-7.94287E-13
 -1        16 7.73967E+00 2.45439E+00-1.81422E-01 4.49667E+00 1.59400E-13-5.71549E-13
 -1        17 3.66819E+00 1.25716E+00-4.75639E-01 2.98057E+00 4.69486E-14-5.53288E-13
 -1        18 3.02409E+00 1.04915E+00-5.45621E-01 9.52491E-01-1.63133E-14-7.13027E-13
 -1        19 6.21069E+00 2.00144E+00-3.35446E-01-1.02803E+00-5.51781E-14-9.39173E-13
 -1        20 1.23501E+01 3.82165E+00 7.32863E-02-1.68364E+00-5.25691E-14-1.01423E-12
 -1        21 1.94745E+01 5.94190E+00 4.02442E-01-6.59754E-01-3.28626E-14-7.98014E-13
 -1        22 2.61509E+01 7.95132E+00 4.30549E-01 1.67852E+00-3.77476E-15-1.11963E-13
 -1        23 3.28760E+01 9.95356E+00 3.70821E-01 4.90677E+00-4.86278E-14 1.45056E-12
 -1        24 2.27214E+01-1.43072E+00-1.03329E+00-5.81027E-01-2.59421E-13 3.50278E-12
 -1        25 1.80941E+01-1.35470E-01-3.72399E-01 6.67091E-02-8.66876E-14 2.20752E-12
 -1        26 1.68906E+01-7.55266E-02-1.03944E-01 5.42574E-02-3.43441E-14 1.04031E-12
 -1        27 1.65112E+01-4.02096E-02-3.65374E-02 3.86211E-02 7.21862E-16 2.82564E-13
 -1        28 1.66814E+01-2.73217E-02-2.32516E-02 4.15557E-02-9.47224E-15-1.69521E-13
 -1        29 1.72352E+01-1.60767E-02-1.34122E-02 4.50037E-02-2.44488E-16-4.32295E-13
 -1        30 1.80110E+01-5.97948E-03-1.28652E-03 4.46225E-02-6.34009E-15-7.13546E-13
 -1        31 1.88436E+01 2.28687E-03 9.93838E-03 3.88253E-02-1.77467E-14-9.45646E-13
 -1        32 1.95937E+01 7.67343E-03 1.68887E-02 2.92843E-02-3.91690E-15-1.19672E-12
 -1        33 2.01746E+01 9.95612E-03 1.87392E-02 1.88222E-02-2.77227E-14-1.32424E-12
 -1        34 2.05574E+01 9.73584E-03 1.66878E-02 9.73576E-03 2.64286E-14-1.46950E-12
 -1        35 2.07576E+01 8.00048E-03 1.26482E-02 3.13500E-03 2.00296E-14-1.40091E-12
 -1        36 2.08147E+01 5.68493E-03 8.25457E-03-9.06004E-04-1.01319E-14-1.47697E-12
 -1        37 2.07747E+01 3.44280E-03 4.48474E-03-2.88733E-03 3.77210E-15-1.48856E-12
 -1        38 2.06790E+01 1.61562E-03 1.71297E-03-3.47354E-03-5.77301E-14-1.65445E-12
 -1        39 2.05594E+01 3.07102E-04-7.32156E-05-3.25594E-03 2.24763E-14-1.70651E-12
 -1        40 2.04374E+01-5.19497E-04-1.06496E-03-2.66568E-03-7.33047E-15-1.75612E-12
 -1        41 2.03258E+01-9.62618E-04-1.49511E-03-1.97455E-03-1.27971E-14-1.77524E-12
 -1        42 2.02308E+01-1.13279E-03-1.56977E-03-1.33077E-03 1.14928E-14-1.87705E-12
 -1        43 2.01543E+01-1.12756E-03-1.44522E-03-7.99752E-04 1.92667E-14-1.93551E-12
 -1        44 2.00954E+01-1.02248E-03-1.22818E-03-3.97634E-04-7.60051E-14-1.80776E-12
 -1        45 2.00521E+01-8.70855E-04-9.85245E-04-1.14850E-04 5.94146E-14-1.65399E-12
 -1        46 2.00216E+01-7.07199E-04-7.54013E-04 6.90782E-05-3.87800E-14-1.60617E-12
 -1        47 2.00013E+01-5.51874E-04-5.52784E-04 1.77096E-04 3.74914E-14-1.62230E-12
 -1        48 1.99887E+01-4.15323E-04-3.87913E-04 2.30340E-04 3.06384E-14-1.38797E-12
 -1        49 1.99816E+01-3.01528E-04-2.58947E-04 2.46376E-04-9.27201E-14-1.42657E-12
 -1        50 1.99784E+01-2.10571E-04-1.61995E-04 2.38830E-04 1.88362E-14-1.62449E-12
 -1        51 1.99779E+01-1.40408E-04-9.18045E-05 2.17713E-04-2.17855E-14-1.85314E-12
 -1        52 1.99790E+01-8.80410E-05-4.29566E-05 1.90023E-04 1.27437E-14-1.89524E-12
 -1        53 1.99809E+01-5.02281E-05-1.04930E-05 1.60398E-04 8.30301E-15-1.94192E-12
 -1        54 1.99834E+01-2.38941E-05 9.81582E-06 1.31719E-04-5.27135E-14-2.33097E-12
 -1        55 1.99859E+01-6.33016E-06 2.14052E-05 1.05618E-04 4.52627E-14-2.16208E-12
 -1        56 1.99883E+01 4.73133E-06 2.69618E-05 8.28656E-05 7.17128E-14-1.67882E-12
 -1        57 1.99905E+01 1.11171E-05 2.85199E-05 6.36789E-05 4.81609E-14-1.31808E-12
 -1        58 1.99924E+01 1.42525E-05 2.75744E-05 4.79313E-05-4.84534E-14-1.42257E-12
 -1        59 1.99941E+01 1.52185E-05 2.51908E-05 3.53066E-05 6.91230E-14-1.54770E-12
 -1        60 1.99954E+01 1.48127E-05 2.21037E-05 2.54004E-05 8.32685E-14-1.08928E-12
 -1        61 1.99965E+01 1.36074E-05 1.87998E-05 1.77858E-05-4.96009E-14-1.03787E-12
 -1        62 1.99974E+01 1.20006E-05 1.55851E-05 1.20526E-05 5.24258E-14-1.05655E-12
 -1        63 1.99981E+01 1.02595E-05 1.26378E-05 7.82922E-06-1.50916E-13-1.51485E-12
 -1        64 1.99986E+01 8.55503E-06 1.00490E-05 4.79226E-06-5.94059E-15-1.64999E-12
 -1        65 1.99990E+01 6.99017E-06 7.85454E-06 2.66765E-06-3.44829E-14-1.34211E-12
 -1        66 1.99993E+01 5.62105E-06 6.05898E-06 1.22626E-06 2.14400E-14-1.20393E-12
 -1        67 1.99995E+01 4.47228E-06 4.65622E-06 2.74484E-07 1.24498E-13-9.00589E-13
 -1        68 1.99997E+01 3.54582E-06 3.64440E-06-3.60615E-07-9.67326E-16-6.16949E-13
 -1        69 1.99997E+01 2.81854E-06 3.01622E-06-8.58334E-07 7.94932E-14-1.44473E-13
 -1        70 1.99998E+01 2.21506E-06 2.64975E-06-1.43651E-06 2.17029E-14 2.80449E-13
 -1        71 1.99998E+01 1.44532E-06 1.90461E-06-2.43326E-06 2.10977E-14 5.55544E-13
 -1        72 1.99998E+01-2.45077E-07-1.47697E-06-3.40607E-06-1.97771E-14 3.34686E-13
 -1        73 3.80981E+01-8.43120E-01-1.20857E+00-9.88405E-01 4.83502E-14 4.73310E-12
 -1        74 3.41539E+01-7.51306E-02-1.48728E-01 4.80996E-02 7.95154E-15 4.19463E-12
 -1        75 2.86234E+01-6.06065E-02-1.47533E-01 3.03250E-01 6.45859E-15 3.75193E-12
 -1        76 2.29019E+01-9.36638E-02-4.93347E-01 3.01952E-01-3.28756E-14 3.00575E-12
 -1        77 2.04684E+01-5.89563E-02-5.79464E-01 2.33419E-03 6.92658E-14 1.95267E-12
 -1        78 2.25775E+01-1.45414E-02-2.46526E-01-2.60007E-01 2.11510E-14 1.06309E-12
 -1        79 2.62964E+01 1.93704E-02 1.06144E-01-2.60230E-01-2.33398E-14 5.01169E-13
 -1        80 2.86472E+01 2.94425E-02 2.17857E-01-1.29031E-01 1.00176E-14 3.09759E-13
 -1        81 2.88409E+01 2.02669E-02 1.41656E-01-6.19572E-03 2.85436E-14 1.84958E-13
 -1        82 2.76769E+01 7.72838E-03 4.90844E-02 3.77108E-02-4.13973E-14 2.04564E-13
 -1        83 2.60773E+01-2.70087E-03-6.51951E-03 4.40782E-02-3.89632E-14 4.38306E-13
 -1        84 2.45461E+01-7.50522E-03-2.70787E-02 3.60665E-02 1.89216E-14 4.22072E-13
 -1        85 2.32812E+01-8.59828E-03-2.89188E-02 2.55973E-02 5.97740E-14 1.15241E-13
 -1        86 2.23119E+01-7.83471E-03-2.39209E-02 1.69427E-02-6.82803E-15-2.56514E-14
 -1        87 2.15995E+01-6.43426E-03-1.78421E-02 1.07852E-02-2.82500E-14 1.39260E-13
 -1        88 2.10885E+01-4.99981E-03-1.26919E-02 6.69189E-03 7.18929E-15 2.30108E-13
 -1        89 2.07275E+01-3.76448E-03-8.83427E-03 4.06183E-03 4.36745E-14 2.53556E-13
 -1        90 2.04754E+01-2.78176E-03-6.09130E-03 2.40185E-03-4.50167E-14 1.40959E-13
 -1        91 2.03011E+01-2.03163E-03-4.18290E-03 1.36508E-03 6.93604E-14 5.16351E-14
 -1        92 2.01820E+01-1.47105E-03-2.86452E-03 7.22790E-04-1.23375E-15 2.01935E-13
 -1        93 2.01018E+01-1.05705E-03-1.95715E-03 3.32951E-04 5.84872E-14 7.37737E-14
 -1        94 2.00488E+01-7.67123E-04-1.33886E-03 1.58573E-04-1.26667E-13 1.67437E-13
 -1        95 2.00135E+01-5.13992E-04-8.65121E-04-7.42256E-05 7.16549E-14 1.10141E-13
 -1        96 1.99933E+01-3.68937E-04-5.73684E-04-1.20446E-04-7.66841E-15-3.13417E-13
 -1        97 1.99818E+01-2.53620E-04-3.67476E-04-1.53164E-04 2.67583E-14-1.40568E-13
 -1        98 1.99762E+01-1.70980E-04-2.24630E-04-1.63021E-04-1.39322E-14-5.90272E-14
 -1        99 1.99744E+01-1.11854E-04-1.26974E-04-1.58627E-04-7.43542E-15-3.72693E-14
 -1       100 1.99749E+01-7.00188E-05-6.14713E-05-1.46189E-04-1.74530E-14-3.87508E-13
 -1       101 1.99769E+01-4.08684E-05-1.87479E-05-1.29750E-04-8.12051E-14 8.22794E-14
 -1       102 1.99795E+01-2.09799E-05 7.93735E-06-1.11906E-04-5.94418E-15 3.81881E-13
 -1       103 1.99823E+01-7.80152E-06 2.34583E-05-9.42824E-05 7.82126E-15-5.55531E-14
 -1       104 1.99852E+01 5.70217E-07 3.13478E-05-7.78444E-05 1.99238E-14-3.49535E-14
 -1       105 1.99878E+01 5.55208E-06 3.41599E-05-6.31093E-05-4.06498E-14 6.26115E-14
 -1       106 1.99902E+01 8.19019E-06 3.37289E-05-5.02950E-05 6.85545E-14-2.08521E-13
 -1       107 1.99922E+01 9.36082E-06 3.13841E-05-3.94573E-05-5.69589E-14-1.31834E-13
 -1       108 1.99939E+01 9.49757E-06 2.83195E-05-3.11753E-05 7.29626E-14-3.92995E-13
 -1       109 1.99954E+01 8.38091E-06 2.37665E-05-2.25022E-05 1.43968E-14-4.51926E-13
 -1       110 1.99965E+01 7.83866E-06 2.01878E-05-1.68510E-05-6.62085E-14-8.76237E-13
 -1       111 1.99974E+01 6.78731E-06 1.66151E-05-1.23053E-05 4.84307E-14-5.31553E-13
 -1       112 1.99981E+01 5.73359E-06 1.34089E-05-8.77276E-06-2.93867E-14-4.96328E-13
 -1       113 1.99986E+01 4.73899E-06 1.06272E-05-6.09698E-06 1.42894E-13-1.12325E-12
 -1       114 1.99990E+01 3.84842E-06 8.28851E-06-4.11084E-06-1.48424E-13-4.60991E-13
 -1       115 1.99993E+01 3.08490E-06 6.38397E-06-2.66976E-06 1.10816E-13 5.64645E-13
 -1       116 1.99995E+01 2.45419E-06 4.89711E-06-1.64415E-06 3.30989E-14 2.25390E-13
 -1       117 1.99997E+01 1.95370E-06 3.82361E-06-9.20228E-07-1.47648E-13 4.00955E-13
 -1       118 1.99997E+01 1.56251E-06 3.17604E-06-3.74882E-07 1.03498E-13 7.97282E-13
 -1       119 1.99998E+01 1.28642E-06 2.82504E-06 1.37818E-07-3.27328E-14 8.95642E-15
 -1       120 1.99998E+01 5.55577E-07 2.02408E-06 1.21027E-06-1.12801E-13-3.60089E-13
 -1       121 1.99998E+01 6.95202E-07-9.22527E-07 5.64924E-06 1.09190E-13 3.80047E-13
 -1       122 1.99998E+01 1.13843E-05-9.76178E-07 3.31322E-06-3.62938E-13-4.15379E-13
 -1       123 1.99998E+01 1.76093E-05 2.47251E-06 1.51740E-06-1.01120E-12 1.36014E-13
 -1       124 1.99998E+01-4.94638E-06 2.51480E-06-3.88926E-07-4.75856E-13 2.22221E-13
 -1       125 1.99998E+01-5.16597E-05 1.41445E-06-1.50838E-06-4.78520E-13 5.52962E-14
 -1       126 1.99998E+01-1.11283E-04 1.30170E-07-1.95319E-06-7.31604E-13-2.75572E-13
 -1       127 1.99998E+01-1.69886E-04-1.00582E-06-1.84248E-06-1.09200E-12 2.55148E-13
 -1       128 1.99998E+01-2.17358E-04-1.85029E-06-1.28620E-06-1.75734E-13-2.12096E-14
 -1       129 1.99998E+01-2.43485E-04-2.29642E-06-4.56954E-07-4.86686E-13 2.51991E-13
 -1       130 1.99998E+01-2.43350E-04-2.29404E-06 4.63821E-07-1.29758E-12 1.28582E-15
 -1       131 1.99998E+01-2.16979E-04-1.84375E-06 1.28996E-06-1.33890E-12 1.27411E-13
 -1       132 1.99998E+01-1.69349E-04-9.88831E-07 1.85485E-06-2.08639E-12-2.96958E-13
 -1       133 1.99998E+01-1.10697E-04 1.43626E-07 1.95299E-06-2.37962E-12 4.74648E-13
 -1       134 1.99998E+01-5.11457E-05 1.42287E-06 1.48932E-06-1.47890E-12-1.36444E-13
 -1       135 1.99998E+01-4.48080E-06 2.57045E-06 4.65416E-07-1.15990E-12 3.19694E-13
 -1       136 1.99998E+01 1.72496E-05 2.10448E-06-2.15158E-06-5.41634E-13-1.51360E-13
 -1       137 1.99998E+01 1.07437E-05-1.02841E-06-5.83456E-06-4.94329E-13-1.23925E-13
 -1       138-1.26159E+00-1.41366E+01-3.01532E+00-2.76408E+00 5.03253E-12 1.26404E-12
 -1       139-4.70032E-01-3.07696E+00-2.21678E+00-6.05338E-01 6.01164E-12 3.01342E-12
 -1       140 7.19308E+00 8.32656E+00-8.09948E-01 7.98602E+00 5.71221E-12 4.59138E-12
 -1       141 2.26377E+01 1.30146E+01 8.63997E-01 1.69874E+01 4.20225E-12 5.19751E-12
 -1       142 4.36653E+01 1.06045E+01 2.59755E+00 2.08405E+01 2.23019E-12 4.39998E-12
 -1       143 6.25581E+01 4.76101E+00 3.97155E+00 1.54696E+01 6.42750E-13 1.87977E-12
 -1       144 6.89054E+01 1.23083E+00 4.34072E+00 2.20552E+00 6.21794E-14-1.62070E-12
 -1       145 5.56405E+01 2.90930E+00 3.07762E+00-1.07256E+01 1.12998E-12-4.98190E-12
 -1       146 3.08818E+01 6.11516E+00 6.32676E-01-1.36016E+01 3.11284E-12-6.45428E-12
 -1       147 9.32670E+00 4.31004E+00-1.69115E+00-6.90760E+00 4.85745E-12-5.95907E-12
 -1       148-5.58767E-01-1.21941E+00-2.68977E+00 1.65002E-01 5.29579E-12-4.16259E-12
 -1       149-1.64954E+00-5.52978E+00-2.33750E+00 2.37408E+00 4.44714E-12-2.16938E-12
 -1       150-7.32289E-01-5.52436E+00-1.37850E+00 1.46752E+00 2.59313E-12-6.14491E-13
 -1       151-1.66538E-01-3.19474E+00-8.33695E-01 8.62022E-02 6.49827E-13-4.80171E-14
 -1       152-1.53290E-01-1.65228E-01-9.27398E-01 4.70398E-02-1.40891E-12-3.70301E-13
 -1       153 5.96239E-01 3.41004E+00-1.25785E+00 1.80628E+00-3.06200E-12-1.51379E-12
 -1       154 5.35652E+00 7.43230E+00-1.14838E+00 6.55533E+00-3.95145E-12-3.16988E-12
 -1       155 1.55914E+01 9.45747E+00-3.70258E-01 1.22109E+01-3.66290E-12-4.43312E-12
 -1       156 3.14525E+01 7.72970E+00 8.43149E-01 1.53094E+01-2.40905E-12-4.64206E-12
 -1       157 4.82173E+01 3.57460E+00 2.04919E+00 1.20101E+01-9.98701E-13-3.41271E-12
 -1       158 5.84729E+01 8.37434E-01 2.86128E+00 2.16757E+00-1.38674E-13-1.04970E-12
 -1       159 5.67537E+01 2.55714E+00 2.99586E+00-1.00894E+01-4.21710E-13 1.74818E-12
 -1       160 4.39856E+01 7.72533E+00 2.44057E+00-1.76263E+01-1.51455E-12 3.61505E-12
 -1       161 1.13786E+01 1.06921E+01 1.08543E-01-1.09883E+01-3.86940E-12 3.69615E-12
 -1       162 2.67573E+00 4.27205E+00-1.07105E+00-3.62853E+00-3.65746E-12 2.51632E-12
 -1       163-7.65551E-01-5.43779E+00-2.09657E+00 1.51896E+00-2.41840E-12 1.04450E-12
 -1       164-9.78993E-01-1.46403E+01-2.85173E+00 2.45983E+00-2.22877E-13 6.21968E-14
 -1       165 2.16401E+01 4.09100E+00-1.05174E-01-4.37475E+00-7.46580E-13-5.03559E-13
 -1       166 2.15989E+01 4.85461E+00-5.23795E-02-3.89379E+00-6.17267E-13-1.25280E-12
 -1       167 2.22455E+01 5.19708E+00-3.50957E-02-3.30834E+00-3.71932E-13-1.54334E-12
 -1       168 2.32041E+01 5.25224E+00-2.74048E-02-2.71393E+00-1.06799E-13-1.56584E-12
 -1       169 2.41927E+01 4.90200E+00-2.01052E-02-1.95309E+00 1.81724E-13-1.41102E-12
 -1       170 2.46368E+01 4.03350E+00-4.10876E-03-7.57147E-01 5.12531E-13-1.10404E-12
 -1       171 2.34759E+01 2.99190E+00 2.46355E-02 9.95562E-01 9.08208E-13-8.00925E-13
 -1       172 1.92512E+01 2.50821E+00 5.90271E-02 3.18350E+00 1.27175E-12-6.03767E-13
 -1       173 1.14893E+01 3.15927E+00 6.66270E-02 4.49169E+00 1.34066E-12-6.32001E-13
 -1       174 1.55746E+00 3.60482E+00-2.51029E-02 1.94747E+00 3.58874E-13-7.85601E-13
 -1       175 3.09075E+00 3.58125E+00-1.98128E-02 4.73850E-02-1.35843E-13-9.42531E-13
 -1       176 9.00546E+00 3.27167E+00 3.63884E-02-1.09815E+00-4.55538E-13-9.54611E-13
 -1       177 1.73250E+01 3.03026E+00 8.59815E-02-4.71831E-01-4.58494E-13-7.05790E-13
 -1       178 2.53466E+01 3.76472E+00 6.32044E-02 1.81976E+00-1.90042E-13-1.52472E-13
 -1       179 3.23657E+01 5.03166E+00 4.07489E-02 4.70359E+00 1.13548E-13 9.79133E-13
 -1       180 3.79013E+01 1.47843E+00-3.30315E-01 4.73193E+00 1.98709E-13 2.29330E-12
 -1       181 2.20437E+01 1.08941E+00 7.13292E-03-2.69693E+00-7.92730E-13 6.02129E-13
 -1       182 2.01485E+01 2.93399E-01-1.02461E-02-1.17762E+00-6.49588E-13 2.75317E-13
 -1       183 1.90975E+01 2.01722E-01 1.61105E-02-4.34192E-01-4.56133E-13-1.54590E-14
 -1       184 1.87008E+01 1.40644E-01 1.30920E-02 3.09290E-02-2.99522E-13-2.81504E-13
 -1       185 1.87092E+01 9.33757E-02 7.66227E-03 3.45063E-01-2.13324E-13-4.77740E-13
 -1       186 1.89844E+01 4.25748E-02 3.91663E-03 5.28904E-01-1.76464E-13-6.36777E-13
 -1       187 1.93945E+01-5.27654E-03 1.62725E-03 5.84150E-01-1.27503E-13-7.35627E-13
 -1       188 1.98263E+01-4.00108E-02 1.04644E-04 5.33070E-01-9.20942E-14-7.63405E-13
 -1       189 2.01990E+01-5.68865E-02-9.08460E-04 4.15562E-01-8.96489E-14-7.40450E-13
 -1       190 2.04699E+01-5.78849E-02-1.46777E-03 2.74328E-01-4.68681E-14-7.14192E-13
 -1       191 2.06295E+01-4.87031E-02-1.61812E-03 1.42218E-01 4.76951E-15-7.98380E-13
 -1       192 2.06912E+01-3.53134E-02-1.46283E-03 3.74990E-02-1.84531E-16-8.41227E-13
 -1       193 2.06786E+01-2.20256E-02-1.13457E-03-3.43626E-02-6.33103E-14-7.97712E-13
 -1       194 2.06176E+01-1.11166E-02-7.54140E-04-7.61457E-02-1.07517E-13-8.13525E-13
 -1       195 2.05307E+01-3.28983E-03-4.05077E-04-9.44387E-02-2.31620E-14-7.81879E-13
 -1       196 2.04349E+01 1.66818E-03-1.30041E-04-9.65536E-02-5.19177E-14-7.94278E-13
 -1       197 2.03419E+01 4.36056E-03 6.01007E-05-8.88777E-02-4.74575E-14-8.95612E-13
 -1       198 2.02583E+01 5.45735E-03 1.73665E-04-7.62694E-02-8.63445E-14-9.57922E-13
 -1       199 2.01875E+01 5.54017E-03 2.27419E-04-6.20512E-02-8.88811E-14-1.04612E-12
 -1       200 2.01300E+01 5.05131E-03 2.39465E-04-4.82702E-02 1.10608E-13-1.12870E-12
 -1       201 2.00853E+01 4.29684E-03 2.25565E-04-3.60288E-02 5.96882E-14-9.22868E-13
 -1       202 2.00517E+01 3.47137E-03 1.97808E-04-2.57886E-02-2.48441E-14-9.24876E-13
 -1       203 2.00275E+01 2.68735E-03 1.64604E-04-1.76126E-02 9.96560E-14-7.70759E-13
 -1       204 2.00106E+01 2.00110E-03 1.31290E-04-1.13399E-02 8.87921E-14-6.49155E-13
 -1       205 1.99996E+01 1.43325E-03 1.00892E-04-6.70399E-03-5.59238E-15-6.18925E-13
 -1       206 1.99928E+01 9.83372E-04 7.48330E-05-3.40660E-03-1.97762E-13-5.50154E-13
 -1       207 1.99890E+01 6.39965E-04 5.35105E-05-1.16069E-03-1.47670E-13-7.89093E-13
 -1       208 1.99875E+01 3.86782E-04 3.67159E-05 2.87949E-04 3.42560E-14-8.20577E-13
 -1       209 1.99873E+01 2.06628E-04 2.39286E-05 1.15216E-03-4.60523E-14-7.18390E-13
 -1       210 1.99880E+01 8.34348E-05 1.45051E-05 1.60282E-03-2.03990E-13-6.60533E-13
 -1       211 1.99891E+01 3.24433E-06 7.79275E-06 1.77240E-03 6.59548E-14-4.91850E-13
 -1       212 1.99905E+01-4.54832E-05 3.19250E-06 1.76040E-03 1.72079E-13-5.50379E-13
 -1       213 1.99920E+01-7.19300E-05 1.87868E-07 1.63930E-03 1.06933E-13-5.99977E-13
 -1       214 1.99934E+01-8.31727E-05-1.64708E-06 1.46021E-03 1.84207E-14-6.38914E-13
 -1       215 1.99946E+01-8.45096E-05-2.65136E-06 1.25781E-03 1.63640E-14-6.07830E-13
 -1       216 1.99957E+01-7.97964E-05-3.08680E-06 1.05456E-03 1.43439E-13-7.00887E-13
 -1       217 1.99966E+01-7.17560E-05-3.15007E-06 8.64036E-04 6.99389E-15-8.30387E-13
 -1       218 1.99974E+01-6.22468E-05-2.98492E-06 6.93565E-04-1.45657E-14-3.83793E-13
 -1       219 1.99980E+01-5.24850E-05-2.69347E-06 5.46229E-04-3.72006E-13-5.88911E-13
 -1       220 1.99985E+01-4.32234E-05-2.34602E-06 4.22343E-04-1.07671E-13-5.16349E-13
 -1       221 1.99989E+01-3.48913E-05-1.98908E-06 3.20516E-04 3.59446E-14-5.38713E-13
 -1       222 1.99991E+01-2.77033E-05-1.65166E-06 2.38393E-04 2.86062E-13-3.62212E-13
 -1       223 1.99994E+01-2.17407E-05-1.34910E-06 1.73142E-04 1.88393E-13 9.83085E-14
 -1       224 1.99995E+01-1.70085E-05-1.08388E-06 1.21758E-04 3.18539E-13 2.19819E-13
 -1       225 1.99996E+01-1.34711E-05-8.44489E-07 8.12659E-05 2.49298E-13 3.64207E-13
 -1       226 1.99997E+01-1.10197E-05-6.13841E-07 4.88771E-05 1.11695E-13 1.18447E-13
 -1       227 1.99998E+01-9.26212E-06-4.49627E-07 2.24885E-05 1.02736E-13 8.85804E-14
 -1       228 1.99998E+01-6.93921E-06-3.52994E-07 1.77807E-06-1.38427E-13 1.06409E-13
 -1       229 3.48044E+01-2.31849E-01-7.82874E-02 3.30038E+00 2.12171E-13 2.44155E-12
 -1       230 3.13905E+01-1.61575E-01-3.87080E-02 3.60103E+00 3.09534E-13 2.19418E-12
 -1       231 2.80135E+01 4.82859E-01-1.11844E-01 3.12130E+00 5.04961E-13 1.72040E-12
 -1       232 2.58310E+01 9.15577E-01-1.61386E-01 8.93227E-01 6.43270E-13 9.66171E-13
 -1       233 2.58225E+01 4.76075E-01-1.01673E-01-1.31965E+00 4.47534E-13 2.81240E-13
 -1       234 2.68649E+01-1.70361E-01-9.47160E-03-1.74395E+00 2.63517E-13-1.24900E-13
 -1       235 2.75061E+01-3.99234E-01 3.25138E-02-8.33967E-01 7.92083E-14-2.94638E-13
 -1       236 2.72153E+01-2.78988E-01 2.17623E-02 2.50585E-01-1.09010E-14-2.20755E-13
 -1       237 2.62898E+01-1.10243E-01 4.74230E-03 8.23726E-01-5.80603E-14-6.50261E-14
 -1       238 2.51238E+01-3.29235E-03-3.48666E-03 9.75993E-01-9.86526E-14 5.68903E-15
 -1       239 2.39779E+01 4.36351E-02-4.34158E-03 8.96940E-01 1.71482E-14 1.62760E-14
 -1       240 2.29855E+01 5.44460E-02-2.63341E-03 7.32818E-01 1.52400E-13 7.72182E-14
 -1       241 2.21864E+01 4.94471E-02-8.90901E-04 5.61997E-01 4.71823E-14 1.23506E-14
 -1       242 2.15711E+01 3.97239E-02 1.79272E-04 4.15526E-01-1.10891E-13-1.46492E-13
 -1       243 2.11109E+01 3.00584E-02 6.51450E-04 3.00458E-01-4.91707E-15-1.19869E-13
 -1       244 2.07734E+01 2.20356E-02 7.66839E-04 2.14085E-01 5.63351E-15-7.22907E-14
 -1       245 2.05292E+01 1.58777E-02 7.14125E-04 1.50851E-01 3.22908E-15-4.90346E-14
 -1       246 2.03547E+01 1.13300E-02 6.01647E-04 1.05209E-01 9.60072E-14-9.35386E-14
 -1       247 2.02312E+01 8.03564E-03 4.81321E-04 7.25428E-02-1.20381E-13-9.67287E-14
 -1       248 2.01449E+01 5.66645E-03 3.72975E-04 4.93047E-02 7.23411E-14 2.85124E-14
 -1       249 2.00855E+01 3.98832E-03 2.78793E-04 3.28549E-02-5.06709E-14-2.50523E-14
 -1       250 2.00438E+01 2.71909E-03 2.17295E-04 2.08462E-02 9.40774E-14-7.48319E-14
 -1       251 2.00180E+01 1.87234E-03 1.57332E-04 1.29325E-02 6.09143E-14-5.27855E-14
 -1       252 2.00016E+01 1.26628E-03 1.16391E-04 7.50892E-03 3.62190E-14-9.05766E-14
 -1       253 1.99919E+01 8.36324E-04 8.54482E-05 3.85334E-03-7.94770E-14-2.36621E-13
 -1       254 1.99866E+01 5.33102E-04 6.21767E-05 1.45543E-03-1.08165E-14-1.91027E-13
 -1       255 1.99843E+01 3.21582E-04 4.47260E-05-5.58719E-05 3.75943E-14 7.17525E-14
 -1       256 1.99840E+01 1.76433E-04 3.17167E-05-9.50173E-04-2.44107E-13 1.27897E-13
 -1       257 1.99848E+01 7.91526E-05 2.20878E-05-1.42299E-03-6.17243E-15-2.80403E-14
 -1       258 1.99862E+01 1.61524E-05 1.50231E-05-1.61539E-03 2.76285E-13-1.77883E-13
 -1       259 1.99880E+01-2.25799E-05 9.89602E-06-1.62823E-03-1.67360E-13-1.96733E-13
 -1       260 1.99898E+01-4.44180E-05 6.22541E-06-1.53270E-03-5.06676E-14-7.88589E-14
 -1       261 1.99915E+01-5.47692E-05 3.64096E-06-1.37809E-03 2.33999E-13-2.59954E-13
 -1       262 1.99931E+01-5.75827E-05 1.84809E-06-1.19767E-03-1.21668E-13-5.38098E-13
 -1       263 1.99944E+01-5.56510E-05 7.73949E-07-1.01314E-03 1.50805E-13-3.02512E-13
 -1       264 1.99957E+01-5.08266E-05-1.64204E-07-8.29577E-04 8.34352E-14-4.40509E-13
 -1       265 1.99966E+01-4.45017E-05-5.14148E-07-6.71239E-04 7.00042E-14-4.21279E-13
 -1       266 1.99974E+01-3.81059E-05-7.47231E-07-5.33370E-04-6.12877E-14-4.96801E-13
 -1       267 1.99980E+01-3.17812E-05-8.40163E-07-4.16424E-04 2.87983E-14-4.63256E-13
 -1       268 1.99985E+01-2.59605E-05-8.44889E-07-3.19454E-04 1.87919E-13-6.78827E-13
 -1       269 1.99989E+01-2.08279E-05-7.96583E-07-2.40624E-04-6.13439E-13-2.43476E-13
 -1       270 1.99992E+01-1.64650E-05-7.19324E-07-1.77604E-04-2.18589E-13 2.58992E-14
 -1       271 1.99994E+01-1.28964E-05-6.27388E-07-1.27863E-04 3.89905E-14 2.09120E-13
 -1       272 1.99996E+01-1.00929E-05-5.17382E-07-8.88425E-05-1.83731E-13 1.52676E-13
 -1       273 1.99997E+01-8.03583E-06-3.72950E-07-5.81211E-05-2.71377E-14-2.97608E-14
 -1       274 1.99997E+01-6.68457E-06-1.91592E-07-3.34241E-05 3.24748E-13-1.52477E-13
 -1       275 1.99998E+01-5.91293E-06-1.78773E-07-1.32046E-05 3.70572E-14-4.52546E-13
 -1       276 1.99998E+01-3.83560E-06-7.92901E-07 8.57740E-07-2.95081E-13-7.32133E-13
 -1       277 1.99998E+01-1.01060E-05-3.29707E-07-2.70542E-06-4.06121E-13-4.73289E-13
 -1       278 1.99998E+01-3.36562E-05-5.53318E-08-2.23295E-05-5.40389E-13 1.44293E-13
 -1       279 1.99998E+01-7.00126E-05-3.15083E-08-3.92625E-05-4.47237E-13 5.00177E-14
 -1       280 1.99998E+01-1.15233E-04 9.34277E-09-4.80559E-05-2.52432E-13-2.95067E-14
 -1       281 1.99998E+01-1.61434E-04 1.07381E-07-4.73018E-05-2.15451E-13-2.25982E-13
 -1       282 1.99998E+01-2.02308E-04 2.02313E-07-3.74182E-05-3.98259E-13 3.58344E-13
 -1       283 1.99998E+01-2.29944E-04 2.75671E-07-2.05286E-05-2.30265E-13-7.00735E-14
 -1       284 1.99998E+01-2.39634E-04 3.02107E-07 1.10760E-07-1.96817E-13-3.16036E-13
 -1       285 1.99998E+01-2.29723E-04 2.75831E-07 2.07282E-05-2.72330E-13-2.54419E-13
 -1       286 1.99998E+01-2.01894E-04 2.03582E-07 3.75600E-05-6.58844E-13-4.53495E-13
 -1       287 1.99998E+01-1.61711E-04 1.01907E-07 4.72715E-05-5.16665E-13 1.24107E-14
 -1       288 1.99998E+01-1.14688E-04 1.48023E-08 4.80359E-05-3.45399E-13 4.83537E-13
 -1       289 1.99998E+01-6.94092E-05-1.52848E-08 3.90027E-05-3.42994E-13 2.18877E-13
 -1       290 1.99998E+01-3.40737E-05-2.37333E-07 2.25025E-05-2.90963E-13 5.00928E-13
 -1       291 1.99998E+01-1.98118E-05-2.15418E-07 1.23394E-05-2.56736E-13-2.99869E-14
 -1       292 3.02973E-01-5.34352E+00-7.13435E-01 1.69287E+00 1.38906E-12 1.49308E-12
 -1       293 4.42174E+00-4.49897E+00-7.46484E-01 4.65380E+00 2.15755E-12 1.51306E-12
 -1       294 1.38088E+01-2.21649E+00-3.71569E-01 7.54085E+00 1.95249E-12 1.52049E-12
 -1       295 2.33663E+01 1.72912E+00-1.09410E-02 8.86555E+00 2.33419E-12 1.90273E-12
 -1       296 3.44294E+01 4.37747E+00 5.39928E-01 8.89361E+00 2.02759E-12 1.57269E-12
 -1       297 4.35282E+01 6.25027E+00 1.05116E+00 7.29697E+00 1.76562E-12 8.63642E-13
 -1       298 4.74979E+01 7.02493E+00 1.21766E+00 4.43484E+00 1.62209E-12-2.40356E-13
 -1       299 4.50855E+01 5.86880E+00 9.30242E-01 2.16209E+00 1.66367E-12-1.01125E-12
 -1       300 3.94188E+01 2.29180E+00 5.55161E-01-1.63666E+00 1.69687E-12-2.22783E-12
 -1       301 2.75344E+01-9.51384E-01-2.29054E-01-3.24046E+00 1.82612E-12-2.33932E-12
 -1       302 1.54833E+01-1.66226E+00-5.61163E-01-3.91187E+00 1.56547E-12-2.11181E-12
 -1       303 4.69654E+00-4.95174E-01-7.38374E-01-2.31654E+00 1.79379E-12-2.07704E-12
 -1       304 4.91423E-01 8.87349E-01-3.60500E-01-2.09007E-01 1.12962E-12-1.52407E-12
 -1       305-6.28786E-01 5.09972E-01-2.90143E-01 1.25326E+00 9.60891E-13-1.03560E-12
 -1       306 5.67590E-01 1.94176E+00-1.51619E-01 2.05365E+00 4.59667E-13-9.36064E-13
 -1       307 2.90036E+00 3.07900E+00-3.06853E-01 3.38191E+00-1.66117E-13-1.02016E-12
 -1       308 9.17797E+00 3.59527E+00-3.12999E-01 5.83315E+00-3.69052E-13-1.20459E-12
 -1       309 1.72174E+01 3.76845E+00-2.70324E-01 7.28033E+00-1.05443E-12-1.56997E-12
 -1       310 2.66392E+01 4.07499E+00 2.53747E-02 7.26821E+00-1.38253E-12-1.81014E-12
 -1       311 3.52606E+01 4.59967E+00 3.74030E-01 4.70147E+00-1.37415E-12-1.51437E-12
 -1       312 4.08469E+01 5.66734E+00 6.61898E-01 1.27779E+00-1.32276E-12-1.02562E-12
 -1       313 4.17475E+01 6.64541E+00 7.55906E-01-2.38042E+00-1.30816E-12-4.20796E-13
 -1       314 3.99948E+01 6.23697E+00 8.27336E-01-6.05728E+00-1.20080E-12 4.58078E-13
 -1       315 3.28337E+01 5.10541E+00 5.47712E-01-7.85130E+00-1.23200E-12 9.40581E-13
 -1       316 2.40734E+01 3.20015E+00 2.17515E-01-8.67918E+00-1.17886E-12 1.32483E-12
 -1       317 1.57548E+01 5.53919E-01-1.44039E-01-7.82107E+00-9.51406E-13 1.36288E-12
 -1       318 8.46365E+00-2.34352E+00-4.77437E-01-6.16394E+00-5.48867E-13 1.35452E-12
 -1       319 2.95291E+00-4.98834E+00-7.55035E-01-3.97666E+00 9.13158E-14 1.28425E-12
 -1       320-5.66278E-02-6.21411E+00-8.43339E-01-1.65490E+00 8.48016E-13 1.19438E-12
 -1       321 4.04300E+00 3.76014E+00 3.18567E-02 3.57878E+00 9.36431E-13-7.18668E-13
 -1       322 2.22224E+01 2.75655E+00-5.37843E-02-4.25688E+00-8.17856E-13 1.49762E-13
 -1       323 2.22400E+01 3.73903E+00-2.21681E-02-3.16095E+00-6.22733E-13-1.02896E-12
 -1       324 2.17892E+01 2.73880E+00-2.09948E-02-3.29722E+00-8.31595E-13-6.71803E-13
 -1       325 2.41718E+01 4.23091E+00-3.18478E-02-2.65468E+00-8.66624E-14-1.05373E-12
 -1       326 2.53390E+01 3.67318E+00-4.34441E-02-2.23007E+00 1.79719E-13-8.00250E-13
 -1       327 2.59562E+01 2.55287E+00-4.84705E-02-1.21256E+00 4.83341E-13-3.96583E-13
 -1       328 1.70532E+01 2.05582E+00-1.48199E-02 4.80089E+00 9.90714E-13-4.89965E-13
 -1       329 4.63852E+00 2.86315E+00 7.66259E-03-1.17005E+00-3.48888E-14-1.19536E-12
 -1       330 3.06315E+01-1.19436E+00 1.69833E-03 4.47264E+00 9.51919E-13-2.57017E-14
 -1       331 2.38506E+01 2.39409E-01 3.93840E-04 9.12498E-01-3.43628E-13-1.02737E-13
 -1       332 3.07643E+01 6.08171E-01-6.54042E-02 4.02886E+00-2.29400E-14 7.46105E-13
 -1       333 3.36709E+01 6.39995E-02-8.50902E-02 4.54040E+00 1.78195E-13 1.48211E-12
 -1       334 3.26181E+01-6.19772E-01-4.09179E-02 5.12490E+00 3.80649E-13 1.47235E-12
 -1       335 2.09916E+01 1.05850E+00 1.97782E-02-1.48883E+00-6.77900E-13-4.13152E-13
 -1       336 2.04289E+01 6.95034E-01 8.64097E-03-5.41715E-01-5.23124E-13-4.69827E-13
 -1       337 2.01413E+01 5.00832E-01 7.67631E-03 1.37857E-01-3.76308E-13-5.41233E-13
 -1       338 2.01119E+01 2.94298E-01 4.10763E-03 5.94467E-01-2.68507E-13-5.75658E-13
 -1       339 2.02389E+01 8.95635E-02 1.69001E-03 8.18124E-01-2.03085E-13-6.23670E-13
 -1       340 2.04230E+01-7.81080E-02-3.53055E-05 8.33215E-01-9.82317E-14-6.22573E-13
 -1       341 2.05884E+01-1.80918E-01-1.19709E-03 7.00532E-01-4.69333E-14-6.14772E-13
 -1       342 2.06958E+01-2.16155E-01-1.81484E-03 4.94955E-01-2.70489E-14-5.76032E-13
 -1       343 2.07371E+01-2.00727E-01-1.93458E-03 2.80443E-01-7.74813E-14-5.75923E-13
 -1       344 2.07219E+01-1.57939E-01-1.70316E-03 9.74927E-02-4.15543E-14-6.26514E-13
 -1       345 2.06668E+01-1.07494E-01-1.29378E-03-3.65822E-02-6.41962E-15-6.51323E-13
 -1       346 2.05882E+01-6.17468E-02-8.50304E-04-1.20936E-01-4.80632E-15-5.60400E-13
 -1       347 2.04995E+01-2.62327E-02-4.61286E-04-1.63587E-01-6.83024E-14-4.66283E-13
 -1       348 2.04105E+01-1.87822E-03-1.64973E-04-1.75617E-01-2.24662E-14-5.11534E-13
 -1       349 2.03273E+01 1.27975E-02 3.44362E-05-1.67712E-01-8.66525E-14-5.70870E-13
 -1       350 2.02536E+01 2.01337E-02 1.50940E-04-1.48591E-01-1.36019E-13-6.10879E-13
 -1       351 2.01909E+01 2.24546E-02 2.05158E-04-1.24606E-01-8.82237E-14-5.06603E-13
 -1       352 2.01394E+01 2.16850E-02 2.17285E-04-9.99463E-02-2.32953E-14-4.17573E-13
 -1       353 2.00983E+01 1.92504E-02 2.04001E-04-7.70933E-02 5.62918E-14-5.64495E-13
 -1       354 2.00665E+01 1.61197E-02 1.77607E-04-5.72910E-02 4.36123E-14-6.27415E-13
 -1       355 2.00426E+01 1.28979E-02 1.46389E-04-4.09634E-02 1.06048E-13-4.59900E-13
 -1       356 2.00251E+01 9.92593E-03 1.15438E-04-2.80343E-02 1.90523E-13-4.62952E-13
 -1       357 2.00127E+01 7.36583E-03 8.75320E-05-1.81566E-02 6.90116E-14-4.17825E-13
 -1       358 2.00043E+01 5.26693E-03 6.38995E-05-1.08651E-02 6.12968E-15-3.71581E-13
 -1       359 1.99988E+01 3.61301E-03 4.48039E-05-5.67236E-03-2.30176E-13-2.61678E-13
 -1       360 1.99955E+01 2.35421E-03 2.99625E-05-2.12196E-03-1.07858E-13-4.66686E-14
 -1       361 1.99938E+01 1.42729E-03 1.88261E-05 1.84321E-04 5.93670E-14-1.61225E-13
 -1       362 1.99932E+01 7.67713E-04 1.07542E-05 1.57755E-03-4.78587E-14-1.41469E-13
 -1       363 1.99932E+01 3.16164E-04 5.11771E-06 2.32269E-03-6.25552E-14-2.02613E-14
 -1       364 1.99936E+01 2.15420E-05 1.35143E-06 2.62504E-03 1.05433E-13-9.13976E-14
 -1       365 1.99943E+01-1.58221E-04-1.02329E-06 2.63905E-03 1.61056E-13 1.71758E-14
 -1       366 1.99950E+01-2.56542E-04-2.39499E-06 2.47754E-03-3.93378E-14-4.42295E-14
 -1       367 1.99958E+01-2.99169E-04-3.06835E-06 2.22041E-03-5.68104E-14-2.32650E-14
 -1       368 1.99965E+01-3.05395E-04-3.27521E-06 1.92223E-03 3.97962E-14-1.68930E-13
 -1       369 1.99971E+01-2.89282E-04-3.18700E-06 1.61863E-03-4.23754E-14-2.65883E-13
 -1       370 1.99977E+01-2.60784E-04-2.92690E-06 1.33144E-03 1.49016E-13-2.61822E-13
 -1       371 1.99982E+01-2.26719E-04-2.58067E-06 1.07274E-03-9.00465E-14-1.49336E-13
 -1       372 1.99986E+01-1.91570E-04-2.20590E-06 8.47902E-04-7.55426E-14 2.43729E-13
 -1       373 1.99989E+01-1.58130E-04-1.83948E-06 6.57902E-04-6.97971E-14 2.42965E-13
 -1       374 1.99991E+01-1.28014E-04-1.50364E-06 5.00970E-04 3.04029E-13 3.72113E-13
 -1       375 1.99993E+01-1.02047E-04-1.21064E-06 3.73751E-04 4.70399E-13 3.55746E-13
 -1       376 1.99995E+01-8.05452E-05-9.64724E-07 2.72090E-04 3.02310E-13 6.74862E-13
 -1       377 1.99996E+01-6.34868E-05-7.61844E-07 1.91567E-04 2.68755E-13 4.01536E-13
 -1       378 1.99997E+01-5.05611E-05-6.01953E-07 1.27973E-04-2.81221E-13 3.05631E-13
 -1       379 1.99997E+01-4.09658E-05-5.47259E-07 7.75245E-05-2.06558E-13-5.84974E-14
 -1       380 1.99998E+01-3.10661E-05-2.72697E-07 4.02933E-05-5.39438E-15-5.00353E-14
 -1       381 3.07876E+01 9.96108E-01-1.02655E-01 5.02153E+00 7.72396E-13 1.21630E-12
 -1       382 2.89887E+01 2.73658E+00-1.31686E-01 2.31617E+00 1.06013E-12 5.33552E-13
 -1       383 2.83883E+01 1.89259E+00-1.11983E-01-1.04798E+00 8.99572E-13-2.19548E-13
 -1       384 2.83334E+01-2.27752E-01-6.68986E-02-2.04185E+00 4.25340E-13-6.47845E-13
 -1       385 2.77488E+01-1.21513E+00-1.66995E-02-9.44146E-01 1.06627E-13-6.28847E-13
 -1       386 2.65225E+01-9.66410E-01-9.89571E-03 5.55737E-01-6.38196E-14-5.55127E-13
 -1       387 2.52844E+01-4.26500E-01-7.54122E-03 1.38472E+00-1.38139E-13-3.65885E-13
 -1       388 2.41829E+01-4.65888E-02-4.79509E-03 1.62050E+00-6.44723E-14-2.97836E-13
 -1       389 2.32529E+01 1.35500E-01-9.92551E-04 1.51003E+00-9.45221E-14-2.00094E-13
 -1       390 2.24885E+01 1.87698E-01 1.61065E-03 1.25841E+00 7.69066E-14-1.15700E-13
 -1       391 2.18734E+01 1.78026E-01 2.77104E-03 9.85210E-01 7.89301E-14-9.61587E-14
 -1       392 2.13889E+01 1.46980E-01 2.92848E-03 7.42884E-01 3.27485E-14-8.36987E-14
 -1       393 2.10147E+01 1.13438E-01 2.58089E-03 5.47017E-01-2.53924E-14-1.84593E-13
 -1       394 2.07306E+01 8.44413E-02 2.07507E-03 3.96398E-01-5.63051E-14-1.59894E-13
 -1       395 2.05180E+01 6.15996E-02 1.58551E-03 2.83827E-01 5.51590E-14-2.31465E-13
 -1       396 2.03609E+01 4.44148E-02 1.17657E-03 2.01103E-01-2.17455E-14-2.18719E-13
 -1       397 2.02462E+01 3.17895E-02 8.58358E-04 1.40948E-01 1.12928E-14-1.08886E-13
 -1       398 2.01635E+01 2.26261E-02 6.18780E-04 9.75225E-02-9.59340E-14-3.44556E-13
 -1       399 2.01046E+01 1.60179E-02 4.36523E-04 6.63848E-02 4.91721E-15-2.14289E-14
 -1       400 2.00617E+01 1.10465E-02 3.15959E-04 4.32540E-02 2.49430E-14-1.31747E-13
 -1       401 2.00340E+01 7.67213E-03 2.16678E-04 2.78621E-02 1.02734E-14-8.07764E-14
 -1       402 2.00155E+01 5.25447E-03 1.50869E-04 1.71095E-02 1.15289E-13-1.05039E-13
 -1       403 2.00035E+01 3.52411E-03 1.03552E-04 9.72085E-03 1.18637E-13-2.32892E-13
 -1       404 1.99962E+01 2.29420E-03 6.95920E-05 4.75268E-03-4.49554E-14-3.50704E-13
 -1       405 1.99920E+01 1.42861E-03 4.54140E-05 1.51296E-03-1.06768E-13-2.20385E-13
 -1       406 1.99901E+01 8.28112E-04 2.83834E-05-5.05989E-04-2.32338E-13-1.94218E-13
 -1       407 1.99896E+01 4.19926E-04 1.65631E-05-1.67596E-03 1.09500E-14-1.70304E-13
 -1       408 1.99899E+01 1.50385E-04 8.52359E-06-2.26798E-03 3.25138E-13-2.30461E-13
 -1       409 1.99907E+01-2.02080E-05 3.20809E-06-2.47812E-03-7.73766E-14-2.54301E-13
 -1       410 1.99918E+01-1.21219E-04-1.65818E-07-2.44662E-03 1.33830E-14-3.22371E-13
 -1       411 1.99930E+01-1.74293E-04-2.17667E-06-2.27221E-03 1.19197E-13-2.82722E-13
 -1       412 1.99941E+01-1.95253E-04-3.26648E-06-2.02298E-03 2.14446E-13-2.88674E-13
 -1       413 1.99952E+01-1.95478E-04-3.59978E-06-1.74453E-03-6.20775E-14-4.88264E-13
 -1       414 1.99962E+01-1.82781E-04-3.74242E-06-1.45237E-03 1.70981E-13-3.69936E-13
 -1       415 1.99969E+01-1.63484E-04-3.47255E-06-1.19254E-03-3.27362E-15-1.09903E-13
 -1       416 1.99976E+01-1.41572E-04-3.10986E-06-9.60168E-04 5.80383E-14-1.03122E-13
 -1       417 1.99981E+01-1.19419E-04-2.70409E-06-7.59109E-04 5.07605E-15-2.99746E-13
 -1       418 1.99986E+01-9.85123E-05-2.28793E-06-5.89628E-04 2.05753E-13-2.17938E-13
 -1       419 1.99989E+01-7.97349E-05-1.89475E-06-4.49852E-04-5.37923E-13-1.00331E-13
 -1       420 1.99992E+01-6.35186E-05-1.54228E-06-3.36676E-04-4.48218E-13-3.40368E-13
 -1       421 1.99994E+01-5.00289E-05-1.23923E-06-2.46381E-04-1.54560E-13-3.75307E-14
 -1       422 1.99995E+01-3.92288E-05-9.85688E-07-1.75005E-04-8.62479E-14 7.78594E-14
 -1       423 1.99996E+01-3.09420E-05-7.56985E-07-1.18740E-04 1.86279E-13-3.15406E-13
 -1       424 1.99997E+01-2.49630E-05-5.41359E-07-7.40856E-05 3.57601E-13-6.62474E-13
 -1       425 1.99998E+01-1.99909E-05-3.43976E-07-3.82519E-05 3.89345E-13-7.34222E-13
 -1       426 1.99998E+01-1.22544E-04-8.85979E-08-8.52805E-05-9.01247E-14 4.41192E-13
 -1       427 1.99998E+01-7.65865E-05-2.86744E-07-6.65927E-05-3.47580E-13 2.14657E-13
 -1       428 5.48451E+00-1.86847E+00-8.06514E-02 4.96519E+00 5.01682E-13 1.18845E-12
 -1       429 1.99998E+01-3.77480E-05-3.47402E-07-3.82406E-05-2.82100E-13-1.57233E-13
 -1       430 1.99998E+01-1.69191E-04 2.29680E-08-8.95359E-05 1.23173E-14-3.83193E-13
 -1       431 1.99998E+01-2.12031E-04 1.38426E-07-7.79455E-05-1.23952E-13 1.04060E-13
 -1       432 1.99998E+01-2.44329E-04 2.38603E-07-5.27571E-05-1.05257E-13 2.80198E-13
 -1       433 1.99998E+01-2.61636E-04 2.93888E-07-1.84993E-05-3.33372E-13-1.79749E-13
 -1       434 1.99998E+01-2.61514E-04 2.94352E-07 1.89127E-05-2.38484E-13-2.13557E-13
 -1       435 1.99998E+01-2.43969E-04 2.38987E-07 5.31010E-05-5.30193E-14-2.07805E-13
 -1       436 1.99998E+01-2.12151E-04 1.39356E-07 7.78330E-05 2.23671E-13-2.46464E-13
 -1       437 1.99998E+01-1.69342E-04 2.41145E-08 8.94952E-05 1.69897E-13 5.77858E-13
 -1       438 1.99998E+01-1.21901E-04-9.92551E-08 8.52664E-05 1.90924E-13 1.57923E-13
 -1       439 1.99998E+01-7.52343E-05-2.13568E-07 6.61181E-05 3.73906E-14 3.72223E-13
 -1       440 1.30992E+01-2.72744E+00-6.45834E-03 7.47388E+00 3.54800E-13 6.68056E-13
 -1       441 2.59850E+00-7.86648E-01-1.26410E-03-3.66764E-01 5.56198E-13 1.44679E-12
 -1       442 2.34756E+01-2.91931E+00-2.93886E-02 6.73894E+00 6.93584E-13 3.16705E-13
 -1       443 2.30717E+01 4.21558E+00-2.52817E-02-2.90854E+00-3.54528E-13-1.13791E-12
 -1       444 1.46535E+01 1.04779E+00 4.47835E-02-1.72712E+00-3.71314E-13-7.86829E-13
 -1       445 3.80684E+01 6.20754E+00 2.09697E-01 1.90978E+00 1.80905E-12-2.62249E-13
 -1       446 3.73365E+01 7.01110E+00 1.26504E-01 3.13622E+00 1.85474E-12-1.69212E-13
 -1       447 3.62907E+01 3.22215E+00 2.46399E-03 4.73043E+00 1.46215E-12 6.82787E-14
 -1       448 3.40458E+01-8.20881E-01-1.93472E-02 3.07995E+00 1.06325E-12-1.60455E-13
 -1       449 2.60706E+01-2.71345E+00-1.13076E-01-6.62880E-01 5.28536E-13-6.35977E-13
 -1       450 1.35746E+01-5.69973E-01-1.66114E-01-2.90400E+00 3.14193E-13-1.23447E-12
 -1       451 5.85180E+00 1.66857E+00-1.09533E-01-2.02798E+00 2.49190E-13-1.31076E-12
 -1       452 6.87067E-01 3.30134E+00 2.06968E-02 5.49173E-01 3.54800E-13-1.16002E-12
 -1       453 3.69451E+00 3.54608E+00 2.72740E-02 3.72123E+00 8.18547E-13-8.71615E-13
 -1       454 1.68051E+01 2.20780E+00-8.70906E-02 5.49105E+00 5.29812E-13-6.70589E-13
 -1       455 2.43410E+01 1.82382E+00-7.44026E-02 4.05542E+00-2.72352E-14-5.42316E-13
 -1       456 2.94288E+01 2.91113E+00-5.47416E-02 1.02788E+00-5.14967E-13-3.37980E-13
 -1       457 3.26881E+01 5.57089E+00-1.20032E-02-7.53855E-01-1.14286E-12-5.24816E-13
 -1       458 3.19122E+01 7.62045E+00-7.61092E-02-1.68785E+00-1.36860E-12-7.32112E-13
 -1       459 3.30679E+01 7.10590E+00 2.15151E-02-1.49260E+00-1.25283E-12-8.87942E-13
 -1       460 3.24513E+01 4.75500E+00 7.43915E-02-2.20320E+00-8.38510E-13-6.89032E-13
 -1       461 2.86575E+01 8.47426E-01 3.59628E-02-4.36882E+00-2.28116E-13-3.08004E-13
 -1       462 2.33149E+01-1.67351E+00 1.13402E-02-6.39106E+00 2.20157E-13 4.90996E-14
 -1       463 1.69332E+01-2.82520E+00-6.25951E-03-7.57696E+00 6.49134E-13 5.23435E-13
 -1       464 9.69231E+00-2.56007E+00-4.99521E-02-7.09978E+00 7.06477E-13 1.11622E-12
 -1       465 4.24610E+00-1.94950E+00-9.26038E-02-4.59109E+00 6.60694E-13 1.35306E-12
 -1       466 3.56814E+01 2.61232E+00 1.03206E-01 2.35046E+00 1.39184E-12-1.69836E-13
 -1       467 2.38503E+01 1.55301E+00-1.15331E-03 1.64115E+00 9.22753E-13-2.37003E-13
 -1       468 5.70931E+00 4.31397E-01 1.22269E-01 2.64286E+00 1.16917E-13 1.21596E-12
 -1       469 1.99998E+01-2.34592E-05-3.75492E-07-2.44179E-05-1.15646E-13-8.47227E-13
 -1       470 8.72217E-01 3.36974E+00 2.73267E-02 2.45813E+00 6.67050E-13-9.56436E-13
 -1       471 2.04103E+01-3.63009E+00 2.34172E-02 6.76965E+00-1.45578E-13-4.47819E-15
 -1       472 8.67209E+00 3.27764E+00-7.33084E-03 4.88470E+00 1.06235E-12-7.19654E-13
 -1       473 2.64087E+01 3.76525E+00-5.86845E-02-2.60209E+00-1.01582E-13-4.67279E-13
 -1       474 2.48333E+01 4.10854E+00-2.89208E-02-2.72591E+00-1.97736E-13-8.41663E-13
 -1       475 2.26886E+01 3.21787E+00-9.54183E-03-2.48665E+00-5.26655E-13-9.39831E-13
 -1       476 2.19753E+01 2.12112E+00 4.61110E-03-1.91825E+00-6.28262E-13-7.62243E-13
 -1       477 2.97125E+01-1.57071E+00-5.15867E-02 3.06648E+00 5.11570E-14 4.47622E-13
 -1       478 3.22446E+01-1.13214E+00-4.80805E-02 4.98200E+00 2.72432E-13 1.03237E-12
 -1       479 2.13508E+01 1.28006E+00 6.38453E-03-4.02012E-01-4.45720E-13-6.42867E-13
 -1       480 2.11904E+01 8.63397E-01 2.42757E-03 3.43857E-01-3.45542E-13-6.41055E-13
 -1       481 2.11731E+01 4.15234E-01 1.17825E-03 7.95984E-01-2.47138E-13-6.49410E-13
 -1       482 2.12084E+01 9.16113E-03 3.62820E-04 9.38568E-01-1.35665E-13-6.30963E-13
 -1       483 2.12157E+01-2.75081E-01-2.82919E-04 8.40992E-01-7.16339E-14-6.16116E-13
 -1       484 2.11602E+01-4.09975E-01-7.33269E-04 6.10631E-01-2.45843E-16-6.42014E-13
 -1       485 2.10482E+01-4.19810E-01-9.18869E-04 3.46115E-01-6.31385E-16-6.21930E-13
 -1       486 2.09045E+01-3.52869E-01-8.79503E-04 1.11582E-01-5.35440E-14-5.01238E-13
 -1       487 2.07533E+01-2.55001E-01-7.03402E-04-6.40724E-02-4.17899E-15-3.81408E-13
 -1       488 2.06112E+01-1.57785E-01-4.86135E-04-1.76589E-01 5.22320E-14-3.65626E-13
 -1       489 2.04864E+01-7.75630E-02-2.86042E-04-2.34860E-01 1.59354E-14-4.02280E-13
 -1       490 2.03811E+01-1.94661E-02-1.28380E-04-2.52515E-01-9.40280E-14-3.48397E-13
 -1       491 2.02946E+01 1.78138E-02-1.86090E-05-2.43106E-01-5.87582E-14-3.78988E-13
 -1       492 2.02248E+01 3.83844E-02 4.85795E-05-2.17930E-01-9.47079E-14-3.39487E-13
 -1       493 2.01691E+01 4.69424E-02 8.31252E-05-1.85407E-01-4.68639E-14-2.49994E-13
 -1       494 2.01252E+01 4.76705E-02 9.49867E-05-1.51259E-01-9.51327E-14-3.10190E-13
 -1       495 2.00910E+01 4.38371E-02 9.26864E-05-1.19006E-01-6.93293E-14-3.92073E-13
 -1       496 2.00647E+01 3.77709E-02 8.26501E-05-9.05339E-02 4.00601E-14-3.94911E-13
 -1       497 2.00447E+01 3.10031E-02 6.92810E-05-6.66083E-02 1.58574E-13-3.51498E-13
 -1       498 2.00298E+01 2.44552E-02 5.53530E-05-4.72793E-02 2.44016E-13-2.16242E-13
 -1       499 2.00189E+01 1.86173E-02 4.24425E-05-3.21862E-02 1.62109E-13-1.83579E-13
 -1       500 2.00110E+01 1.36946E-02 3.13084E-05-2.07673E-02 6.14385E-14-2.47322E-13
 -1       501 2.00056E+01 9.71675E-03 2.21907E-05-1.23957E-02-7.75151E-14-2.78216E-13
 -1       502 2.00019E+01 6.61483E-03 1.50278E-05-6.46205E-03 1.56812E-14-9.42960E-14
 -1       503 1.99995E+01 4.27283E-03 9.60229E-06-2.41821E-03-7.34172E-14 5.59159E-14
 -1       504 1.99981E+01 2.55969E-03 5.63391E-06 2.03143E-04-2.04744E-14 1.24731E-13
 -1       505 1.99973E+01 1.34794E-03 2.83607E-06 1.78496E-03-1.66368E-13 3.66524E-14
 -1       506 1.99970E+01 5.23422E-04 9.45086E-07 2.63089E-03 1.26122E-14-2.12694E-14
 -1       507 1.99970E+01-1.06821E-05-2.65653E-07 2.97482E-03 4.96007E-14-1.36475E-13
 -1       508 1.99972E+01-3.33275E-04-9.82139E-07 2.99204E-03 3.28155E-14-2.10685E-13
 -1       509 1.99974E+01-5.06583E-04-1.35151E-06 2.81033E-03-1.33395E-13-2.27033E-13
 -1       510 1.99978E+01-5.78303E-04-1.48655E-06 2.52009E-03-1.27550E-13-2.69338E-13
 -1       511 1.99981E+01-5.84024E-04-1.47124E-06 2.18305E-03-1.43556E-15-8.33293E-14
 -1       512 1.99984E+01-5.49599E-04-1.36633E-06 1.83955E-03 9.26267E-14-1.41975E-13
 -1       513 1.99987E+01-4.93266E-04-1.21444E-06 1.51432E-03-3.46067E-14-2.02464E-13
 -1       514 1.99989E+01-4.27475E-04-1.04442E-06 1.22107E-03 2.44548E-13-4.63596E-14
 -1       515 1.99991E+01-3.60378E-04-8.74952E-07 9.65936E-04 4.89183E-14 2.01778E-13
 -1       516 1.99993E+01-2.97029E-04-7.17269E-07 7.50081E-04 1.30172E-13 4.26453E-13
 -1       517 1.99994E+01-2.40320E-04-5.77485E-07 5.71545E-04 3.58106E-13 3.01438E-13
 -1       518 1.99995E+01-1.91686E-04-4.60292E-07 4.26590E-04 4.95994E-13 3.32415E-13
 -1       519 1.99996E+01-1.51612E-04-3.67459E-07 3.10599E-04-1.22208E-13 2.46633E-13
 -1       520 1.99997E+01-1.19732E-04-2.92544E-07 2.18763E-04 7.22753E-15-9.20733E-14
 -1       521 1.99997E+01-9.51219E-05-2.63661E-07 1.46574E-04-3.52367E-13-3.85972E-14
 -1       522 1.99998E+01-1.25071E-04-3.42143E-08-1.23140E-04-3.27730E-14 2.84027E-13
 -1       523 3.08316E+01 1.23461E+00-1.44746E-01-1.52615E+00 9.20174E-13-7.81403E-13
 -1       524 2.94249E+01-2.04313E+00-5.52401E-02-5.15755E-01 1.56407E-13-9.68742E-13
 -1       525 2.64892E+01-2.37387E+00-3.70973E-03 1.46357E+00-2.07546E-13-6.91614E-13
 -1       526 2.42196E+01-1.28085E+00-9.65512E-04 2.34004E+00-2.23941E-13-4.01344E-13
 -1       527 2.28252E+01-3.06426E-01-1.01577E-03 2.48289E+00-1.69449E-13-3.57746E-13
 -1       528 2.20097E+01 2.37910E-01 1.25070E-04 2.26643E+00-1.53426E-13-2.81444E-13
 -1       529 2.15187E+01 4.42485E-01 1.41461E-03 1.90078E+00-4.97219E-14-2.76042E-13
 -1       530 2.11843E+01 4.62244E-01 2.13036E-03 1.51734E+00-8.49613E-15-4.89125E-14
 -1       531 2.09304E+01 4.04021E-01 2.25834E-03 1.17242E+00 1.27824E-13 4.19327E-15
 -1       532 2.07259E+01 3.24576E-01 2.00449E-03 8.85728E-01 1.03363E-14-6.40946E-14
 -1       533 2.05588E+01 2.49095E-01 1.61542E-03 6.58312E-01-2.44169E-14-7.40223E-14
 -1       534 2.04231E+01 1.86196E-01 1.23254E-03 4.83126E-01 1.07372E-13-8.64537E-14
 -1       535 2.03147E+01 1.37006E-01 9.11505E-04 3.50719E-01 6.57384E-14-2.03210E-13
 -1       536 2.02296E+01 9.98129E-02 6.62162E-04 2.51923E-01-6.66694E-14-3.27676E-13
 -1       537 2.01641E+01 7.22016E-02 4.75705E-04 1.78887E-01 8.01786E-14-3.04309E-13
 -1       538 2.01143E+01 5.19187E-02 3.33384E-04 1.25288E-01-1.25077E-13-4.56803E-13
 -1       539 2.00758E+01 3.64447E-02 2.41457E-04 8.46512E-02-1.02834E-13-4.40600E-13
 -1       540 2.00493E+01 2.57832E-02 1.64127E-04 5.69279E-02 1.06062E-13-2.63653E-13
 -1       541 2.00303E+01 1.80367E-02 1.13987E-04 3.71158E-02 7.52709E-14-4.17007E-13
 -1       542 2.00170E+01 1.24210E-02 7.79881E-05 2.31284E-02 2.47663E-13-4.46351E-13
 -1       543 2.00080E+01 8.37145E-03 5.23284E-05 1.34176E-02-2.51041E-14-3.30622E-13
 -1       544 2.00021E+01 5.47375E-03 3.40992E-05 6.82224E-03-1.10142E-13-2.41818E-13
 -1       545 1.99984E+01 3.42322E-03 2.12851E-05 2.47543E-03-4.25732E-14-3.16673E-13
 -1       546 1.99963E+01 1.99440E-03 1.24079E-05-2.68392E-04-1.36954E-13-4.71539E-13
 -1       547 1.99953E+01 1.01968E-03 6.37961E-06-1.88794E-03 2.61626E-13-3.48415E-13
 -1       548 1.99949E+01 3.74066E-04 2.39849E-06-2.73581E-03 2.58328E-13-3.76345E-13
 -1       549 1.99951E+01-3.57554E-05-1.26128E-07-3.06929E-03 3.64488E-14-6.25658E-13
 -1       550 1.99954E+01-2.79275E-04-1.62950E-06-3.07377E-03 9.53897E-15-5.62185E-13
 -1       551 1.99960E+01-4.07968E-04-2.45387E-06-2.88069E-03 1.49707E-13-4.63985E-13
 -1       552 1.99965E+01-4.59750E-04-2.73634E-06-2.58104E-03 1.14095E-13-3.53941E-13
 -1       553 1.99971E+01-4.60910E-04-2.77984E-06-2.21903E-03 4.57148E-15-3.39009E-13
 -1       554 1.99976E+01-4.31782E-04-2.59967E-06-1.86938E-03-3.03435E-15-9.02726E-14
 -1       555 1.99980E+01-3.86888E-04-2.32637E-06-1.53989E-03 1.18531E-13-2.75426E-13
 -1       556 1.99984E+01-3.35300E-04-2.02198E-06-1.24336E-03 7.80231E-14-3.22155E-15
 -1       557 1.99987E+01-2.82976E-04-1.71078E-06-9.85484E-04 3.03323E-14-6.06135E-14
 -1       558 1.99990E+01-2.33601E-04-1.41545E-06-7.67231E-04-1.01791E-13 5.82856E-14
 -1       559 1.99992E+01-1.89289E-04-1.14989E-06-5.86567E-04-3.31536E-13-1.37028E-13
 -1       560 1.99994E+01-1.51080E-04-9.17278E-07-4.39753E-04-5.09983E-13-1.29449E-13
 -1       561 1.99995E+01-1.19335E-04-7.53389E-07-3.22307E-04 2.13428E-13-3.50299E-13
 -1       562 1.99996E+01-9.40962E-05-6.27184E-07-2.29679E-04 1.75778E-13-6.48611E-13
 -1       563 1.99997E+01-7.42413E-05-4.95575E-07-1.56305E-04 2.61036E-13-6.19541E-13
 -1       564 1.99997E+01-5.95721E-05-3.22316E-07-9.73563E-05 4.91143E-13-3.53728E-13
 -1       565 3.19139E+01-8.82547E-01-5.99952E-02 5.05264E-01 6.92512E-13-7.14886E-13
 -1       566 1.99998E+01-2.32026E-04 3.29079E-08-1.25429E-04 1.38347E-13-2.85762E-13
 -1       567 1.99998E+01-1.80206E-04-1.24128E-07-1.34357E-04-1.44323E-13 2.33500E-13
 -1       568 1.99998E+01-2.74471E-04 8.92525E-08-9.65322E-05 6.74284E-14 2.46085E-13
 -1       569 1.99999E+01-3.02084E-04 1.23931E-07-5.22374E-05-4.85341E-14-1.11078E-13
 -1       570 1.99999E+01-3.11544E-04 1.35773E-07 3.27661E-07-6.21571E-14-1.59366E-14
 -1       571 1.99999E+01-3.01763E-04 1.22391E-07 5.28479E-05 2.41045E-13 1.39250E-13
 -1       572 1.99998E+01-2.74528E-04 8.62516E-08 9.63803E-05 3.81372E-13-2.27228E-13
 -1       573 1.99998E+01-2.31996E-04 5.98283E-08 1.25397E-04 3.09922E-13-1.37811E-13
 -1       574 1.99998E+01-1.79675E-04 4.62904E-08 1.34392E-04 2.01525E-13 5.27399E-13
 -1       575 1.99998E+01-1.23994E-04-1.13244E-07 1.22142E-04 7.33485E-14-6.08260E-14
 -1       576 3.26328E+01 5.33613E+00-1.01031E-01 9.39562E-01 1.62771E-12-2.73177E-13
 -1       577 9.98361E+00-7.11794E-01 1.31131E-01-6.04759E+00 7.74630E-13 9.92519E-13
 -1       578 6.63412E+00 7.87805E-01 1.66879E-01-2.96246E+00 4.90063E-13 1.17144E-12
 -1       579 2.36275E+01 3.86157E+00-1.45479E-02-2.60381E+00-3.47895E-13-9.44497E-13
 -1       580 2.81646E+01 6.89066E+00-1.62178E-01-8.11290E-01-1.04450E-12-1.08042E-12
 -1       581 1.14248E+01-1.02435E+00 1.27468E-01 6.19546E+00-1.88953E-13 6.66189E-13
 -1       582 3.26244E+01 4.15113E+00-1.28556E-01 4.50775E+00 1.40885E-12 4.78083E-13
 -1       583 2.80422E+01-3.44411E+00-3.26531E-02 3.71301E+00 1.17593E-13-5.41414E-13
 -1       584 2.25018E+01-1.17298E+00-1.02017E-02-4.04365E-01-1.96676E-13-3.35542E-13
 -1       585 3.34648E+01 3.12777E-01-1.00377E-01 5.74693E+00 9.34204E-13 7.35918E-13
 -1       586 3.14046E+01-2.18624E+00-5.45357E-02 3.47556E+00 3.52846E-13 4.05662E-13
 -1       587 2.63301E+01-2.01399E+00-3.40121E-02-3.49802E+00 5.36248E-13-7.49539E-13
 -1       588 2.64257E+01 1.70951E+00-8.95614E-02 5.42795E-01 3.57887E-13-1.50324E-13
 -1       589 2.88496E+01 4.17529E+00-8.68012E-02-1.93299E+00-5.32914E-13-1.77428E-13
 -1       590 2.86011E+01 6.25790E+00-1.46818E-01-2.34428E+00-9.24309E-13-5.04430E-13
 -1       591 2.90366E+01 4.95231E+00-1.28726E-01-1.32734E-01-7.43981E-13-1.30627E-12
 -1       592 2.89794E+01 1.45007E+00-8.13478E-02-1.11552E+00-1.73830E-13-1.13731E-12
 -1       593 2.26306E+01-3.13076E+00 3.56777E-02-5.75158E+00 8.42895E-13-2.69007E-13
 -1       594 1.53327E+01-2.49025E+00 7.19305E-02-7.25808E+00 9.28264E-13 5.14481E-13
 -1       595 3.33222E+01 2.87323E+00-1.33946E-01-3.37933E-01 1.29081E-12-6.55836E-13
 -1       596 2.65458E+01 6.41235E+00-1.17069E-01-1.69664E+00-8.50993E-13-8.51113E-13
 -1       597 7.50779E+00 1.64776E+00 1.58911E-01-2.26392E-01 2.03009E-13 1.10216E-12
 -1       598 1.99997E+01-8.05162E-05-2.52934E-07 1.05722E-04-2.35954E-13 4.80375E-13
 -1       599 1.71556E+01-2.19124E+00 7.02472E-02 6.39605E+00-4.05738E-13 9.52780E-14
 -1       600 2.01594E+01 4.03619E-01 5.20568E-03 2.91672E+00-1.66752E-13-6.04985E-14
 -1       601 2.08258E+01-5.49573E-01 2.69690E-03 3.57651E+00-3.87166E-13-2.28852E-13
 -1       602 2.21278E+01 1.78860E+00-8.72993E-04-1.17983E-01-3.82444E-13-7.63919E-13
 -1       603 2.54821E+01 4.80292E+00-6.84833E-02-2.58249E+00-4.43545E-13-6.88308E-13
 -1       604 2.70289E+01 1.99888E+00-9.29127E-02 3.72751E-01-2.05627E-13-1.36433E-12
 -1       605 1.99997E+01-1.57333E-04-1.49445E-07-1.88677E-04 1.53446E-13 1.88704E-13
 -1       606 1.03452E+01 8.49331E-01 1.52482E-01 3.98540E+00-3.26881E-13 6.68736E-13
 -1       607 2.20763E+01 1.06675E+00-1.18283E-03 5.96109E-01-2.89727E-13-7.02446E-13
 -1       608 2.20712E+01 3.11265E-01-5.23001E-04 9.03068E-01-1.76401E-13-6.99989E-13
 -1       609 2.19882E+01-2.68355E-01-1.58629E-04 8.57414E-01-7.68898E-14-6.88366E-13
 -1       610 2.17942E+01-5.91156E-01-2.24541E-04 6.06270E-01-1.17758E-14-6.11385E-13
 -1       611 2.15154E+01-6.73886E-01-3.37330E-04 2.98824E-01 6.56482E-14-5.27663E-13
 -1       612 2.12091E+01-5.98853E-01-3.78329E-04 2.89811E-02 7.55256E-14-4.35205E-13
 -1       613 2.09224E+01-4.51066E-01-3.09872E-04-1.65863E-01 2.96821E-14-3.16486E-13
 -1       614 2.06810E+01-2.91601E-01-2.13709E-04-2.83389E-01-1.77183E-14-3.60473E-13
 -1       615 2.04917E+01-1.53947E-01-1.28426E-04-3.37439E-01 2.18029E-14-3.82622E-13
 -1       616 2.03504E+01-5.05846E-02-6.22270E-05-3.45965E-01-1.35138E-14-3.95112E-13
 -1       617 2.02482E+01 1.83719E-02-1.66712E-05-3.25343E-01-6.95606E-14-3.47120E-13
 -1       618 2.01757E+01 5.85771E-02 1.06255E-05-2.88502E-01-4.88872E-14-2.25105E-13
 -1       619 2.01248E+01 7.73848E-02 2.52186E-05-2.44743E-01-6.39442E-14-2.11754E-13
 -1       620 2.00891E+01 8.17229E-02 3.08622E-05-2.00242E-01-7.78914E-14-1.78036E-13
 -1       621 2.00639E+01 7.72185E-02 3.09374E-05-1.58741E-01-7.68065E-14-2.11717E-13
 -1       622 2.00460E+01 6.80207E-02 2.79924E-05-1.22211E-01 7.50000E-14-1.01048E-13
 -1       623 2.00331E+01 5.69566E-02 2.36904E-05-9.14170E-02 1.19829E-13-9.22611E-14
 -1       624 2.00238E+01 4.58032E-02 1.90680E-05-6.63521E-02 2.71549E-13-6.25740E-14
 -1       625 2.00169E+01 3.55691E-02 1.47144E-05-4.65628E-02 2.49868E-13-5.22249E-14
 -1       626 2.00118E+01 2.67364E-02 1.09231E-05-3.13726E-02 5.00402E-15-1.37588E-13
 -1       627 2.00081E+01 1.94499E-02 7.79547E-06-2.00302E-02-1.28824E-13-1.78658E-13
 -1       628 2.00053E+01 1.36547E-02 5.32266E-06-1.18015E-02-4.48700E-15-1.00583E-13
 -1       629 2.00034E+01 9.19066E-03 3.43897E-06-6.02039E-03-2.78691E-14-1.62601E-14
 -1       630 2.00019E+01 5.85417E-03 2.05291E-06-2.11235E-03-1.97066E-14-1.34089E-13
 -1       631 2.00009E+01 3.43551E-03 1.06985E-06 3.99610E-04-7.74600E-14 5.84928E-14
 -1       632 2.00003E+01 1.73980E-03 4.00043E-07 1.89924E-03-2.86116E-14 1.24855E-13
 -1       633 1.99998E+01 5.97173E-04-3.34436E-08 2.68695E-03-1.46912E-13 1.24672E-14
 -1       634 1.99995E+01-1.33988E-04-2.94217E-07 2.99198E-03-1.80293E-15 2.72680E-14
 -1       635 1.99994E+01-5.67658E-04-4.32917E-07 2.98495E-03-2.34772E-13-2.15407E-14
 -1       636 1.99993E+01-7.92912E-04-4.88574E-07 2.78954E-03-1.98469E-13-6.38145E-15
 -1       637 1.99993E+01-8.77524E-04-4.90388E-07 2.49284E-03-1.29588E-14-1.12247E-13
 -1       638 1.99993E+01-8.71755E-04-4.59603E-07 2.15406E-03-2.29722E-14-1.89916E-13
 -1       639 1.99994E+01-8.11897E-04-4.11204E-07 1.81168E-03-1.32198E-13-3.12366E-13
 -1       640 1.99994E+01-7.23405E-04-3.55417E-07 1.48913E-03 1.34049E-13-2.98726E-13
 -1       641 1.99995E+01-6.23533E-04-2.98956E-07 1.19927E-03 3.09368E-13-2.33864E-13
 -1       642 1.99995E+01-5.23485E-04-2.45828E-07 9.47661E-04 1.22369E-13-2.35200E-13
 -1       643 1.99996E+01-4.30113E-04-1.97322E-07 7.35138E-04 1.90457E-13-1.24889E-13
 -1       644 1.99996E+01-3.47247E-04-1.53798E-07 5.59596E-04 5.60437E-13-2.85740E-15
 -1       645 1.99997E+01-2.76668E-04-1.17842E-07 4.17291E-04 1.16755E-13-2.48298E-13
 -1       646 1.99997E+01-2.18706E-04-1.31054E-07 3.03613E-04-2.10561E-13-1.40266E-14
 -1       647 1.99997E+01-1.72410E-04-8.41722E-08 2.14123E-04-2.76521E-13-2.09097E-13
 -1       648 1.99999E+01-3.76872E-04 4.86858E-08-3.55698E-05 2.86654E-13-2.11222E-13
 -1       649 2.48552E+01-3.50408E+00 4.01595E-02 4.36003E+00-3.16393E-13-5.31447E-13
 -1       650 2.24172E+01 2.49574E+00 9.34519E-04-1.28009E+00-5.05741E-13-8.03251E-13
 -1       651 2.21978E+01-1.95052E+00 4.62667E-02 4.19417E+00-3.99783E-13-4.63901E-13
 -1       652 2.00414E+01 7.70277E-01 2.19248E-03 2.32040E+00-1.62203E-13-5.42155E-14
 -1       653 2.00718E+01 8.31198E-01 1.02754E-03 1.82912E+00-9.60606E-14-1.08802E-14
 -1       654 2.01293E+01 7.49146E-01 8.87522E-04 1.42555E+00 1.68067E-14-6.98898E-14
 -1       655 2.01686E+01 6.18908E-01 7.88255E-04 1.09806E+00 7.78488E-14-2.06279E-14
 -1       656 2.01819E+01 4.87011E-01 6.45466E-04 8.36070E-01 4.91725E-14-4.53431E-14
 -1       657 2.01749E+01 3.72210E-01 4.96329E-04 6.29592E-01 1.58507E-14-3.75667E-14
 -1       658 2.01558E+01 2.79346E-01 3.68313E-04 4.69071E-01 1.53240E-13-1.54652E-13
 -1       659 2.01312E+01 2.07177E-01 2.67986E-04 3.45746E-01 7.45049E-14-1.90914E-13
 -1       660 2.01059E+01 1.52356E-01 1.94281E-04 2.51955E-01-1.25336E-14-2.08521E-13
 -1       661 2.00824E+01 1.11270E-01 1.34570E-04 1.81228E-01 2.98455E-14-1.44357E-13
 -1       662 2.00612E+01 7.93826E-02 9.83325E-05 1.26206E-01-6.36418E-14-3.51351E-13
 -1       663 2.00448E+01 5.71036E-02 6.67124E-05 8.77470E-02-9.73603E-14-4.78451E-13
 -1       664 2.00317E+01 4.06612E-02 4.68289E-05 5.95604E-02 1.29595E-13-4.14384E-13
 -1       665 2.00216E+01 2.85797E-02 3.22752E-05 3.91635E-02 1.66763E-13-3.81246E-13
 -1       666 2.00141E+01 1.97458E-02 2.19099E-05 2.46165E-02 7.43482E-14-3.27779E-13
 -1       667 2.00086E+01 1.33308E-02 1.45003E-05 1.44270E-02-1.48197E-13-4.45565E-13
 -1       668 2.00047E+01 8.71631E-03 9.24893E-06 7.45275E-03-8.38891E-14-4.56598E-13
 -1       669 2.00021E+01 5.43887E-03 5.57963E-06 2.82347E-03-4.35246E-14-4.72209E-13
 -1       670 2.00003E+01 3.15027E-03 3.06285E-06-1.19711E-04-2.91677E-14-4.38943E-13
 -1       671 1.99993E+01 1.58808E-03 1.37720E-06-1.87195E-03 3.08930E-13-2.30466E-13
 -1       672 1.99987E+01 5.54381E-04 2.86780E-07-2.80186E-03 9.92772E-14 3.73174E-14
 -1       673 1.99984E+01-9.98009E-05-3.82990E-07-3.18066E-03-7.97636E-16 2.33206E-14
 -1       674 1.99983E+01-4.86098E-04-7.86849E-07-3.20509E-03 4.41786E-14-7.60482E-14
 -1       675 1.99983E+01-6.87738E-04-9.41040E-07-3.01513E-03 5.56307E-14 1.37969E-13
 -1       676 1.99985E+01-7.66743E-04-9.51121E-07-2.69151E-03-9.76045E-14 4.03415E-13
 -1       677 1.99986E+01-7.61883E-04-9.60626E-07-2.33277E-03-5.83794E-14 2.39730E-13
 -1       678 1.99988E+01-7.10664E-04-8.59665E-07-1.96799E-03 2.51110E-13 1.83042E-13
 -1       679 1.99990E+01-6.34695E-04-7.59090E-07-1.62283E-03 1.15720E-14 1.38539E-13
 -1       680 1.99991E+01-5.48639E-04-6.49557E-07-1.31140E-03 4.46656E-14 1.86112E-13
 -1       681 1.99993E+01-4.62055E-04-5.42422E-07-1.04009E-03 2.72330E-14 2.70973E-13
 -1       682 1.99994E+01-3.80837E-04-4.43930E-07-8.10133E-04-9.52154E-14 1.14461E-13
 -1       683 1.99995E+01-3.08317E-04-3.55141E-07-6.19523E-04-2.02086E-13-1.71410E-13
 -1       684 1.99996E+01-2.46059E-04-3.02274E-07-4.64539E-04-9.56502E-14-6.48638E-13
 -1       685 1.99996E+01-1.95137E-04-2.75069E-07-3.41011E-04 3.91292E-13-3.24903E-13
 -1       686 1.99997E+01-1.76325E-04-2.05537E-07-2.57922E-04 1.72034E-13 2.93999E-14
 -1       687 2.67632E+01-8.85625E-01-5.17404E-02-9.81390E-01 3.48269E-13-1.15822E-12
 -1       688 1.99999E+01-3.11795E-04 4.88612E-08-1.54757E-04-1.00781E-13-2.91758E-13
 -1       689 1.99999E+01-3.76633E-04 4.49223E-08 3.65531E-05 3.43645E-13 7.54482E-14
 -1       690 1.99999E+01-3.54401E-04 3.28637E-08 1.02305E-04 3.62750E-13-4.72329E-14
 -1       691 1.99999E+01-3.11677E-04 4.07798E-08 1.54264E-04 4.52815E-13-2.29362E-13
 -1       692 1.99998E+01-2.53167E-04 6.92560E-08 1.83203E-04 1.95326E-13 4.14204E-14
 -1       693 1.07530E+01 7.93690E-01 1.32475E-01-4.21239E+00 5.31599E-13 8.35040E-13
 -1       694 1.46285E+01-1.20244E+00 9.81178E-02-6.23422E+00 9.12097E-13 4.74641E-13
 -1       695 2.61388E+01 4.60776E+00-1.07164E-01 2.11409E-01-6.05127E-13-1.27257E-12
 -1       696 1.99421E+01-2.80835E+00 4.95409E-02-5.92141E+00 9.55045E-13-1.23785E-13
 -1       697 2.66465E+01 5.50357E+00-1.13598E-01-2.61084E+00-6.56405E-13-5.52646E-13
 -1       698 1.99997E+01-1.46192E-04-4.19101E-08 1.64629E-04 1.54250E-13-2.40517E-13
 -1       699 2.21995E+01 1.54421E+00-2.86071E-03 3.13205E+00 8.41965E-13-2.73309E-13
 -1       700 2.44894E+01-2.85951E+00-2.68186E-03-3.45365E+00 7.76516E-13-7.41997E-13
 -1       701 1.99999E+01-3.54442E-04 5.77511E-08-1.02618E-04-3.34837E-14 2.81733E-13
 -1       702 2.40110E+01 4.14326E+00-1.69065E-02-2.25485E+00-4.09099E-13-8.63515E-13
 -1       703 1.45791E+01-3.03735E-01 9.87887E-02 5.24028E+00-5.27592E-13 2.84866E-13
 -1       704 1.02998E+01 1.74144E+00 1.10400E-01-2.13930E+00 2.97849E-13 8.60215E-13
 -1       705 1.99998E+01-2.54338E-04 1.26215E-07-1.84410E-04-8.63366E-14 1.22193E-14
 -1       706 2.31638E+01 3.41452E+00-3.93101E-03-1.77256E+00-4.74343E-13-8.38477E-13
 -1       707 2.51208E+01 5.07125E+00-6.53097E-02-5.12967E-01-6.43569E-13-1.05956E-12
 -1       708 1.99998E+01-2.16653E-04 2.57770E-08 2.05343E-04-1.67939E-13 1.07598E-13
 -1       709 1.86407E+01 1.25700E+00 6.15937E-04 1.82699E+00-1.11063E-13-1.40055E-13
 -1       710 1.80785E+01 1.21216E+00 3.33050E-03 2.40849E+00-1.03072E-13-2.94870E-14
 -1       711 2.58612E+01 6.86323E-02-3.78072E-02 1.61657E-01 9.95454E-14-1.19576E-12
 -1       712 2.29214E+01 9.16723E-01-5.74991E-03 7.93608E-01-2.18916E-13-8.46276E-13
 -1       713 2.28684E+01-1.19894E-01 1.51014E-03 8.02428E-01-1.08648E-13-7.68409E-13
 -1       714 2.25572E+01-7.36572E-01-2.18110E-04 4.94132E-01 1.32701E-15-6.98206E-13
 -1       715 2.20931E+01-9.47626E-01-1.57269E-04 1.16666E-01 1.38021E-13-6.05794E-13
 -1       716 2.15907E+01-8.79619E-01-2.03604E-04-1.89207E-01 1.53611E-13-5.44690E-13
 -1       717 2.11349E+01-6.77963E-01-1.55697E-04-3.84017E-01 1.40520E-13-4.43914E-13
 -1       718 2.07674E+01-4.46224E-01-9.32680E-05-4.78125E-01 2.31596E-14-3.53195E-13
 -1       719 2.04954E+01-2.41498E-01-5.23078E-05-4.99452E-01 2.48128E-14-2.72778E-13
 -1       720 2.03064E+01-8.52853E-02-2.20070E-05-4.75227E-01 1.91450E-14-3.56945E-13
 -1       721 2.01821E+01 2.07782E-02-2.49695E-06-4.26104E-01-2.39384E-14-3.51391E-13
 -1       722 2.01042E+01 8.42138E-02 5.05606E-06-3.66190E-01-1.93047E-15-2.97154E-13
 -1       723 2.00578E+01 1.15399E-01 9.25908E-06-3.04449E-01-6.31414E-14-2.69785E-13
 -1       724 2.00315E+01 1.24349E-01 1.02585E-05-2.46170E-01-7.02970E-14-2.02882E-13
 -1       725 2.00176E+01 1.19351E-01 9.38056E-06-1.94145E-01-7.58677E-14-1.75300E-13
 -1       726 2.00108E+01 1.06629E-01 7.89951E-06-1.49538E-01 8.97517E-14-1.06916E-13
 -1       727 2.00078E+01 9.05196E-02 6.31978E-06-1.12495E-01 7.27155E-14-9.11622E-14
 -1       728 2.00066E+01 7.38221E-02 4.85695E-06-8.25561E-02 1.76291E-13-3.75388E-14
 -1       729 2.00062E+01 5.81882E-02 3.60644E-06-5.89440E-02 3.11881E-13-1.11905E-13
 -1       730 2.00060E+01 4.44636E-02 2.58526E-06-4.07484E-02 8.95977E-14-1.44869E-13
 -1       731 2.00057E+01 3.29627E-02 1.78534E-06-2.70466E-02-4.37103E-14-2.14850E-13
 -1       732 2.00053E+01 2.36742E-02 1.17666E-06-1.69750E-02-8.70991E-14-8.54971E-14
 -1       733 2.00048E+01 1.64058E-02 7.26155E-07-9.76604E-03-3.68141E-14-1.49306E-13
 -1       734 2.00042E+01 1.08804E-02 4.02714E-07-4.76366E-03-3.95527E-14 3.02117E-14
 -1       735 2.00036E+01 6.79796E-03 1.82798E-07-1.42426E-03 1.39040E-14 1.05447E-13
 -1       736 2.00029E+01 3.87045E-03 3.72234E-08 6.90999E-04-8.11515E-14 1.18658E-13
 -1       737 2.00024E+01 1.84097E-03-5.35774E-08 1.92808E-03-1.12438E-13 9.91552E-14
 -1       738 2.00019E+01 4.91153E-04-1.05142E-07 2.55369E-03-4.40575E-14 3.45076E-13
 -1       739 2.00014E+01-3.57808E-04-1.29557E-07 2.76901E-03-1.37565E-13 2.52054E-13
 -1       740 2.00010E+01-8.47975E-04-1.35965E-07 2.72231E-03-1.88974E-13 3.29317E-13
 -1       741 2.00007E+01-1.08922E-03-1.31037E-07 2.52019E-03-1.95951E-13 1.94185E-13
 -1       742 2.00005E+01-1.16444E-03-1.19598E-07 2.23713E-03-1.21908E-13 1.01008E-13
 -1       743 2.00003E+01-1.13461E-03-1.04991E-07 1.92333E-03-3.37559E-14-8.59954E-14
 -1       744 2.00001E+01-1.04343E-03-8.94492E-08 1.61108E-03 4.02863E-15 9.65377E-14
 -1       745 2.00000E+01-9.21299E-04-7.44759E-08 1.31979E-03 3.90382E-13 1.69323E-13
 -1       746 1.99999E+01-7.88619E-04-6.10927E-08 1.05977E-03 1.59439E-13 1.06158E-13
 -1       747 1.99999E+01-6.58469E-04-4.89024E-08 8.35207E-04 1.72120E-13 1.59678E-13
 -1       748 1.99998E+01-5.38660E-04-3.24939E-08 6.46318E-04 3.38024E-13-1.21506E-13
 -1       749 1.99998E+01-4.33394E-04-1.57001E-08 4.90845E-04 3.73298E-13-4.56761E-13
 -1       750 1.99998E+01-3.44233E-04-2.94940E-08 3.65669E-04 8.19129E-14-2.89137E-13
 -1       751 1.99998E+01-2.73093E-04-3.59843E-08 2.77436E-04-2.47406E-13-1.95721E-14
 -1       752 2.00000E+01-4.53011E-04 6.73846E-09 9.28801E-05 3.35883E-13 1.00082E-13
 -1       753 1.90930E+01 1.13335E+00 1.71404E-04 1.41954E+00-2.52429E-16-2.46128E-13
 -1       754 1.94265E+01 9.49766E-01 1.83681E-04 1.11221E+00 2.53948E-14-2.73874E-13
 -1       755 1.96575E+01 7.61709E-01 1.82947E-04 8.70027E-01 5.36899E-14-1.95937E-13
 -1       756 1.98096E+01 5.93936E-01 1.49859E-04 6.75674E-01 6.71554E-14-2.15368E-13
 -1       757 1.99052E+01 4.54546E-01 1.13043E-04 5.19487E-01 1.48390E-13-2.54102E-13
 -1       758 1.99622E+01 3.43400E-01 8.12373E-05 3.94827E-01 1.34633E-13-2.58031E-13
 -1       759 1.99941E+01 2.56963E-01 6.08561E-05 2.96346E-01-3.64942E-14-3.27141E-13
 -1       760 2.00103E+01 1.90755E-01 3.97059E-05 2.19352E-01-4.92262E-14-2.59940E-13
 -1       761 2.00174E+01 1.38402E-01 2.89928E-05 1.57416E-01 3.80647E-14-1.17187E-13
 -1       762 2.00189E+01 1.01158E-01 2.07417E-05 1.12771E-01-1.86695E-14-2.57104E-13
 -1       763 2.00177E+01 7.32271E-02 1.41122E-05 7.91038E-02 7.82994E-14-3.12978E-13
 -1       764 2.00153E+01 5.23952E-02 9.83986E-06 5.40791E-02 1.36508E-13-3.60719E-13
 -1       765 2.00126E+01 3.69412E-02 6.76879E-06 3.57505E-02 1.31625E-13-1.75155E-13
 -1       766 2.00100E+01 2.55544E-02 4.53635E-06 2.25525E-02 2.05932E-14-2.04841E-13
 -1       767 2.00077E+01 1.72378E-02 2.92958E-06 1.32389E-02-5.77060E-14-4.13646E-13
 -1       768 2.00057E+01 1.12321E-02 1.79169E-06 6.82852E-03-7.71201E-14-4.35676E-13
 -1       769 2.00042E+01 6.95777E-03 1.00862E-06 2.55693E-03-8.16139E-15-4.92761E-13
 -1       770 2.00029E+01 3.97249E-03 4.77720E-07-1.65210E-04-1.08416E-14-4.90671E-13
 -1       771 2.00020E+01 1.93838E-03 1.31654E-07-1.78694E-03 6.11950E-14-2.29619E-13
 -1       772 2.00013E+01 5.98041E-04-8.24422E-08-2.64601E-03-6.33252E-15-3.03475E-13
 -1       773 2.00008E+01-2.43735E-04-2.28233E-07-2.99286E-03 6.02688E-14-2.19430E-13
 -1       774 2.00004E+01-7.34290E-04-2.81725E-07-3.01005E-03-8.14636E-14-1.50113E-13
 -1       775 2.00001E+01-9.90064E-04-2.37681E-07-2.81529E-03-1.79405E-13-1.43858E-14
 -1       776 2.00000E+01-1.07045E-03-3.00520E-07-2.52105E-03-6.19929E-14-1.06845E-13
 -1       777 1.99998E+01-1.05105E-03-2.54035E-07-2.18284E-03-6.86689E-14 5.22964E-14
 -1       778 1.99998E+01-9.72568E-04-2.25939E-07-1.83975E-03-7.35799E-15 3.85008E-13
 -1       779 1.99997E+01-8.63462E-04-1.94730E-07-1.51559E-03 2.06463E-13 2.89601E-13
 -1       780 1.99997E+01-7.42904E-04-1.63270E-07-1.22351E-03 2.28094E-14 7.94639E-14
 -1       781 1.99997E+01-6.23282E-04-1.34251E-07-9.69360E-04 1.54225E-13 2.22539E-13
 -1       782 1.99997E+01-5.12153E-04-1.12040E-07-7.54217E-04 8.37326E-14 5.55297E-15
 -1       783 1.99997E+01-4.13822E-04-8.82591E-08-5.76101E-04 7.44701E-14-2.41393E-13
 -1       784 1.99997E+01-3.29810E-04-7.58235E-08-4.31109E-04-2.29517E-13-2.48662E-13
 -1       785 1.99999E+01-4.12324E-04 2.49103E-08 1.73310E-04 3.37081E-13-1.13507E-13
 -1       786 2.00000E+01-4.67157E-04 3.37628E-08-7.90036E-08 2.95504E-13-9.99422E-14
 -1       787 1.99999E+01-3.48664E-04 3.66914E-08 2.29233E-04 1.48668E-13-4.02683E-13
 -1       788 2.50973E+01-1.95312E+00-2.48499E-02-1.48280E+00 5.33954E-13-9.34058E-13
 -1       789 2.28449E+01 2.76393E+00-5.37445E-03-4.89222E-01-4.15208E-13-8.17000E-13
 -1       790 2.52538E+01 2.22666E+00-4.71489E-02 6.82963E-01-2.88658E-13-1.26773E-12
 -1       791 2.52918E+01 5.46906E+00-7.15885E-02-1.81847E+00-6.27044E-13-8.22636E-13
 -1       792 1.07685E+01 1.95265E+00 1.19643E-01 1.53230E+00-1.68558E-13 5.82819E-13
 -1       793 1.81877E+01-1.68055E+00 4.99279E-02-5.36208E+00 8.59765E-13-4.28685E-14
 -1       794 2.29005E+01 1.92666E+00 1.31252E-03 3.59044E-01-2.96772E-13-8.42886E-13
 -1       795 1.45056E+01-1.50041E-02 7.21961E-02-4.82171E+00 6.93374E-13 3.61194E-13
 -1       796 1.76047E+01 8.34968E-01 2.43661E-02 3.29727E+00-3.43704E-13-4.95064E-14
 -1       797 2.20408E+01-2.61617E+00 2.37972E-02-4.11390E+00 8.28569E-13-5.04188E-13
 -1       798 2.34581E+01-2.33316E+00-4.58391E-04-2.40004E+00 6.11788E-13-6.93878E-13
 -1       799 1.31335E+01 1.07939E+00 6.83728E-02-3.49776E+00 5.12095E-13 4.82036E-13
 -1       800 1.99998E+01-3.14638E-04-4.00448E-07 2.58184E-04-1.17971E-13-2.83314E-13
 -1       801 1.99998E+01-2.87729E-04 3.42383E-07-3.22803E-04-1.33238E-13 2.59895E-13
 -1       802 1.99998E+01-2.73112E-04 1.29839E-07-2.48463E-04 2.26521E-13-1.05973E-13
 -1       803 1.99999E+01-3.49397E-04-8.80086E-08-2.20408E-04-2.13495E-14-2.08245E-13
 -1       804 2.44453E+01 3.17961E+00-3.46766E-02 3.46301E-01-4.11701E-13-1.11948E-12
 -1       805 1.30874E+01 1.30126E+00 9.83641E-02 3.22714E+00-3.41127E-13 4.05689E-13
 -1       806 2.00000E+01-4.53136E-04 3.14600E-08-9.30409E-05 2.01908E-13 1.55448E-13
 -1       807 1.99999E+01-4.10835E-04 9.83830E-09-1.68267E-04 1.14828E-13-5.60837E-14
 -1       808 2.00000E+01-4.70370E-04-2.72204E-08 2.66300E-04 2.15124E-13-6.25633E-13
 -1       809 2.34203E+01-8.34300E-01-2.76063E-03 2.91329E-01 7.90722E-14-8.30869E-13
 -1       810 2.27523E+01-1.25496E+00-1.37576E-04-2.10941E-01 1.83387E-13-5.97056E-13
 -1       811 2.19943E+01-1.19166E+00 3.38826E-04-5.80570E-01 1.54747E-13-5.39088E-13
 -1       812 2.13291E+01-9.19166E-01-7.23506E-05-7.57613E-01 2.04932E-13-5.22906E-13
 -1       813 2.08151E+01-5.97698E-01-7.00137E-05-7.92342E-01 1.53940E-13-4.74434E-13
 -1       814 2.04552E+01-3.17102E-01-2.62514E-05-7.43452E-01 6.69564E-14-3.63064E-13
 -1       815 2.02202E+01-1.04687E-01-1.37998E-05-6.55006E-01 1.33491E-14-3.59553E-13
 -1       816 2.00782E+01 3.86901E-02 5.44192E-06-5.53957E-01-3.52410E-15-3.09954E-13
 -1       817 2.00000E+01 1.24262E-01 3.55195E-06-4.55097E-01 2.42476E-14-3.37991E-13
 -1       818 1.99629E+01 1.66308E-01 6.24871E-06-3.65540E-01-4.70505E-14-3.97416E-13
 -1       819 1.99506E+01 1.78329E-01 6.81724E-06-2.88076E-01 5.36669E-14-3.64378E-13
 -1       820 1.99518E+01 1.71402E-01 4.99744E-06-2.23108E-01-8.53351E-15-2.32486E-13
 -1       821 1.99595E+01 1.53843E-01 3.24378E-06-1.69868E-01 1.03382E-13-9.14990E-14
 -1       822 1.99693E+01 1.31483E-01 1.97719E-06-1.27071E-01 1.55164E-13-6.84327E-15
 -1       823 1.99789E+01 1.08135E-01 1.13548E-06-9.32599E-02 1.33497E-13-4.12794E-14
 -1       824 1.99872E+01 8.60918E-02 5.85070E-07-6.69843E-02 1.43359E-13-1.21616E-13
 -1       825 1.99937E+01 6.65650E-02 2.63504E-07-4.69003E-02 1.22269E-13-2.89593E-13
 -1       826 1.99984E+01 5.00416E-02 7.91453E-08-3.18127E-02 5.50648E-14-2.34556E-13
 -1       827 2.00016E+01 3.65552E-02-1.95501E-08-2.06903E-02-8.71794E-14-2.01210E-13
 -1       828 2.00035E+01 2.58795E-02-7.10982E-08-1.26628E-02-1.40487E-13-1.43571E-13
 -1       829 2.00045E+01 1.76592E-02-1.07220E-07-7.01141E-03 9.28773E-14-6.34526E-14
 -1       830 2.00049E+01 1.14959E-02-1.05317E-07-3.15295E-03-5.82442E-14-1.93870E-13
 -1       831 2.00048E+01 6.99919E-03-9.59845E-08-6.22155E-04 2.54595E-14-2.47500E-13
 -1       832 2.00044E+01 3.81487E-03-8.40816E-08 9.45956E-04-5.57777E-14-9.36532E-14
 -1       833 2.00039E+01 1.63740E-03-7.15553E-08 1.83283E-03-1.03919E-14-3.05415E-15
 -1       834 2.00033E+01 2.13172E-04-5.94801E-08 2.25176E-03-2.44578E-13-1.19372E-13
 -1       835 2.00027E+01-6.61955E-04-4.84593E-08 2.36134E-03 2.76141E-14 2.34427E-14
 -1       836 2.00022E+01-1.14801E-03-3.86557E-08 2.27709E-03-1.88152E-13 2.57718E-13
 -1       837 2.00017E+01-1.36741E-03-3.02590E-08 2.08115E-03-1.98318E-13 3.61478E-13
 -1       838 2.00013E+01-1.41163E-03-2.33290E-08 1.83027E-03-3.22603E-13 2.71297E-13
 -1       839 2.00009E+01-1.34733E-03-1.77867E-08 1.56223E-03-4.99515E-14 1.47935E-13
 -1       840 2.00007E+01-1.22186E-03-1.36236E-08 1.30093E-03 2.68389E-13 1.54136E-13
 -1       841 2.00004E+01-1.06778E-03-1.11260E-08 1.06039E-03 2.53070E-13 1.48268E-15
 -1       842 2.00003E+01-9.06666E-04-1.27170E-08 8.47742E-04 1.62637E-14-2.88074E-13
 -1       843 2.00001E+01-7.52178E-04-3.47105E-09 6.65451E-04 1.17593E-13-4.87765E-13
 -1       844 2.00000E+01-6.11884E-04-4.36239E-09 5.13221E-04 1.50206E-13-4.25045E-13
 -1       845 1.99999E+01-4.89714E-04 7.47845E-08 3.88446E-04 2.75846E-13-4.49448E-13
 -1       846 2.46591E+01 4.63778E-01-1.70442E-02 6.11418E-01-5.92087E-14-1.13709E-12
 -1       847 2.35967E+01 3.85311E+00-2.70870E-02-9.48655E-01-4.63673E-13-8.91085E-13
 -1       848 1.93810E+01 8.12683E-01-8.83718E-06 5.85245E-01 5.48123E-14-1.17701E-13
 -1       849 1.95983E+01 6.34740E-01 9.33034E-06 4.72901E-01 8.18195E-14-2.09827E-13
 -1       850 1.97448E+01 4.89259E-01 5.72257E-06 3.76092E-01 1.57910E-13-8.55895E-14
 -1       851 1.98421E+01 3.73190E-01 8.24562E-06 2.94068E-01 1.16430E-13 7.76537E-14
 -1       852 1.99058E+01 2.82086E-01 3.28680E-06 2.25841E-01-5.90073E-14 5.74961E-15
 -1       853 1.99482E+01 2.08422E-01 4.33908E-07 1.67983E-01-1.07027E-15-1.13777E-13
 -1       854 1.99734E+01 1.54894E-01 3.77745E-06 1.24304E-01 1.21492E-13-1.28554E-13
 -1       855 1.99888E+01 1.13994E-01 1.62378E-06 9.00523E-02 6.63933E-14-2.14670E-13
 -1       856 1.99979E+01 8.29595E-02 1.19081E-06 6.37063E-02 1.61814E-13-2.18277E-13
 -1       857 2.00029E+01 5.95629E-02 8.92936E-07 4.37985E-02 7.19280E-14-2.83003E-13
 -1       858 2.00055E+01 4.20544E-02 6.44839E-07 2.90337E-02 6.17395E-14-2.02996E-13
 -1       859 2.00064E+01 2.90690E-02 4.34516E-07 1.83040E-02 1.48742E-13-2.62618E-13
 -1       860 2.00065E+01 1.95428E-02 2.54045E-07 1.06838E-02-6.34121E-14-1.53855E-13
 -1       861 2.00061E+01 1.26465E-02 1.46866E-07 5.41931E-03-1.06808E-13-2.12753E-13
 -1       862 2.00054E+01 7.73653E-03 6.22891E-08 1.90733E-03 1.46075E-14-2.21766E-14
 -1       863 2.00046E+01 4.31327E-03 7.66128E-09-3.26657E-04 2.62701E-14-1.51146E-13
 -1       864 2.00038E+01 1.99046E-03-2.36331E-08-1.64936E-03 3.28729E-14-1.97294E-13
 -1       865 2.00031E+01 4.71144E-04-5.40519E-08-2.33944E-03-2.44923E-13-5.89631E-14
 -1       866 2.00024E+01-4.71907E-04-7.50728E-08-2.60513E-03 4.50723E-14 1.43942E-13
 -1       867 2.00019E+01-1.02713E-03 4.97803E-09-2.59235E-03-2.04933E-13 1.85542E-13
 -1       868 2.00014E+01-1.27413E-03-7.32980E-08-2.41522E-03-1.76301E-13 1.78016E-13
 -1       869 2.00010E+01-1.34222E-03-4.47059E-08-2.15401E-03-3.33213E-14 1.33244E-13
 -1       870 2.00007E+01-1.29781E-03-3.95785E-08-1.85881E-03-1.34640E-13 4.86020E-14
 -1       871 2.00005E+01-1.18844E-03-3.37919E-08-1.56204E-03 1.33851E-13 1.47806E-14
 -1       872 2.00003E+01-1.04693E-03-2.82034E-08-1.28334E-03 2.34605E-13 1.36694E-13
 -1       873 2.00001E+01-8.95187E-04-2.33245E-08-1.03336E-03-7.97799E-14 1.66890E-13
 -1       874 2.00000E+01-7.47210E-04-2.10967E-08-8.16677E-04 1.14141E-13 4.68344E-13
 -1       875 1.99999E+01-6.11302E-04-2.38392E-08-6.33884E-04 3.26873E-13 3.35134E-13
 -1       876 1.99999E+01-4.91876E-04-8.49410E-08-4.83483E-04-1.34484E-13 1.75334E-13
 -1       877 2.00001E+01-5.35862E-04 2.38220E-08 1.74511E-04 2.68932E-13-2.02972E-13
 -1       878 2.00001E+01-5.69573E-04 5.88862E-08 6.11765E-05 3.58870E-13 8.59640E-14
 -1       879 1.73469E+01-5.94909E-01 2.96028E-02-4.34751E+00 6.42548E-13-5.44131E-14
 -1       880 1.70213E+01 1.68915E+00 7.22119E-04 1.35656E+00-8.88872E-15 9.23703E-14
 -1       881 2.03139E+01-1.79787E+00 1.88302E-02-4.02871E+00 6.82803E-13-3.83698E-13
 -1       882 1.57028E+01 1.80323E+00 1.42192E-02 1.84633E+00-1.83327E-13 1.14410E-13
 -1       883 1.90633E+01 1.02240E+00-6.17956E-05 7.15099E-01-4.65964E-15-1.80999E-13
 -1       884 2.46756E+01-1.14827E+00-1.62505E-02-2.82849E-01 2.98750E-13-9.82389E-13
 -1       885 1.79504E+01 1.49235E+00-2.70511E-04 1.06609E+00 8.74562E-14-1.96940E-15
 -1       886 1.86048E+01 1.25584E+00-2.12910E-04 8.68878E-01 1.11265E-13-7.78924E-14
 -1       887 1.25889E+01 2.16813E+00 6.90095E-02-3.98778E-01 7.81602E-14 4.77715E-13
 -1       888 2.00000E+01-4.67146E-04 7.79592E-09-2.61535E-04-1.20428E-14-2.48762E-14
 -1       889 1.99999E+01-3.93831E-04-7.53986E-08 3.19567E-04 9.58714E-14-6.04163E-13
 -1       890 2.00001E+01-5.69535E-04 1.19285E-07-6.11546E-05 3.98718E-13 2.04151E-13
 -1       891 1.58787E+01 3.60805E-01 3.14864E-02-3.73665E+00 5.21777E-13 1.55415E-13
 -1       892 2.20360E+01-2.05337E+00-5.87230E-03-2.78639E+00 5.66512E-13-5.11769E-13
 -1       893 1.99998E+01-3.68915E-04-4.10948E-08-3.51969E-04-2.34148E-13-1.21673E-13
 -1       894 2.38026E+01-1.80966E+00 6.77386E-03-1.08961E+00 4.40720E-13-7.70200E-13
 -1       895 2.00000E+01-5.32391E-04 7.27836E-08-1.76560E-04 3.98694E-13 2.02176E-13
 -1       896 2.40430E+01 1.69265E+00-2.08065E-02 6.95073E-01-2.37993E-13-1.05950E-12
 -1       897 2.23627E+01-1.55120E+00 3.43483E-03-1.20385E+00 3.07276E-13-5.33459E-13
 -1       898 2.14094E+01-1.15322E+00-2.88434E-03-1.32067E+00 2.34694E-13-4.06520E-13
 -1       899 2.07368E+01-7.11409E-01 4.32218E-04-1.25035E+00 1.77302E-13-3.64683E-13
 -1       900 2.03048E+01-3.48573E-01-3.72168E-05-1.08203E+00 1.44182E-13-3.91917E-13
 -1       901 2.00454E+01-8.14362E-02-4.83364E-05-8.90000E-01 8.37220E-14-2.87522E-13
 -1       902 1.99070E+01 9.23923E-02 6.84687E-06-7.09238E-01 2.72521E-14-2.40427E-13
 -1       903 1.98457E+01 1.92520E-01-1.08228E-05-5.53524E-01 3.83249E-14-2.61273E-13
 -1       904 1.98311E+01 2.38786E-01 4.17894E-07-4.25272E-01-4.25397E-14-2.79168E-13
 -1       905 1.98422E+01 2.48569E-01 8.34800E-06-3.22774E-01-2.22647E-14-2.56751E-13
 -1       906 1.98654E+01 2.35755E-01 6.31968E-06-2.42335E-01 1.25495E-13-2.03283E-13
 -1       907 1.98925E+01 2.10472E-01 3.72187E-06-1.79997E-01 2.42986E-13 5.42714E-15
 -1       908 1.99188E+01 1.79765E-01 2.10181E-06-1.32167E-01 2.04919E-13 2.28171E-13
 -1       909 1.99419E+01 1.48225E-01 1.14433E-06-9.57886E-02 3.67554E-14-2.81598E-14
 -1       910 1.99609E+01 1.18614E-01 5.86167E-07-6.83549E-02 1.00028E-13-6.47960E-14
 -1       911 1.99757E+01 9.23860E-02 2.05613E-07-4.78569E-02 3.59181E-14-2.59394E-13
 -1       912 1.99866E+01 7.01252E-02 4.75295E-08-3.27018E-02 1.62926E-13-2.02929E-13
 -1       913 1.99944E+01 5.18573E-02-4.32472E-08-2.16357E-02 4.84045E-14-1.94461E-13
 -1       914 1.99996E+01 3.72944E-02 5.48444E-08-1.36789E-02-3.62330E-15-2.78827E-14
 -1       915 2.00029E+01 2.59804E-02-6.73961E-08-8.06203E-03-3.48613E-14-1.18739E-14
 -1       916 2.00047E+01 1.74058E-02-6.40909E-08-4.19058E-03-1.40893E-13-1.68029E-13
 -1       917 2.00056E+01 1.10681E-02-5.54589E-08-1.60410E-03 9.33925E-14-1.30016E-13
 -1       918 2.00057E+01 6.50727E-03-4.81365E-08 5.06933E-05 8.96800E-14-3.33441E-14
 -1       919 2.00054E+01 3.32365E-03-4.20999E-08 1.04245E-03-1.33859E-14-4.58617E-14
 -1       920 2.00049E+01 1.18238E-03-3.65941E-08 1.57325E-03-1.60136E-13-9.87663E-14
 -1       921 2.00042E+01-1.88627E-04-3.16212E-08 1.79316E-03-9.16368E-15 8.16617E-14
 -1       922 2.00035E+01-1.00485E-03-2.64928E-08 1.81190E-03 4.53418E-14 1.46774E-13
 -1       923 2.00029E+01-1.43300E-03-2.14889E-08 1.70818E-03-2.41100E-13 1.47187E-13
 -1       924 2.00023E+01-1.59913E-03-1.71529E-08 1.53715E-03-2.61597E-13 2.52222E-13
 -1       925 2.00018E+01-1.59644E-03-1.36290E-08 1.33635E-03-1.79478E-13 4.29827E-13
 -1       926 2.00013E+01-1.49217E-03-1.10631E-08 1.13032E-03-3.36974E-14 1.91738E-13
 -1       927 2.00010E+01-1.33349E-03-9.97018E-09 9.34200E-04 6.96733E-14-1.95183E-13
 -1       928 2.00007E+01-1.15244E-03-1.21791E-08 7.56537E-04-4.13547E-14-3.77093E-13
 -1       929 2.00004E+01-9.69849E-04-1.37985E-09 6.01322E-04 1.92512E-14-3.15457E-13
 -1       930 2.00003E+01-7.98875E-04 4.88296E-08 4.69741E-04 1.00330E-13-3.91010E-13
 -1       931 2.00001E+01-6.46453E-04 1.51340E-08 3.59876E-04 1.88631E-13-4.96663E-13
 -1       932 1.95158E+01 6.18477E-01-3.08875E-05 2.75659E-01 4.20983E-14-7.91118E-14
 -1       933 1.92897E+01 7.83471E-01-3.18041E-05 3.13830E-01 1.20921E-13-8.45520E-14
 -1       934 1.97843E+01 3.72408E-01-1.83466E-05 1.90531E-01 6.44122E-14 1.57020E-14
 -1       935 1.98632E+01 2.80905E-01-9.26089E-07 1.49599E-01 9.70968E-14-3.61295E-14
 -1       936 1.99140E+01 2.12611E-01 1.51771E-06 1.15651E-01 1.38202E-13-6.33081E-14
 -1       937 1.99483E+01 1.59235E-01-1.60237E-06 8.71529E-02 7.32470E-14-5.98508E-14
 -1       938 1.99711E+01 1.17891E-01-1.08762E-06 6.39881E-02 2.93255E-14-3.04107E-14
 -1       939 1.99859E+01 8.61317E-02-6.47343E-07 4.56746E-02 2.06278E-13-2.39053E-14
 -1       940 1.99953E+01 6.19513E-02-2.40327E-07 3.15563E-02 6.42215E-14 6.90273E-14
 -1       941 2.00010E+01 4.37166E-02-2.48349E-07 2.09365E-02 2.15102E-13-5.93869E-15
 -1       942 2.00042E+01 3.01272E-02-1.54659E-07 1.31427E-02-5.51023E-14 4.40973E-14
 -1       943 2.00058E+01 2.01267E-02-6.28145E-08 7.57425E-03-1.33881E-13 6.07970E-14
 -1       944 2.00063E+01 1.28823E-02-2.95599E-08 3.71847E-03 3.44864E-14-1.52329E-13
 -1       945 2.00061E+01 7.73249E-03-8.95144E-09 1.14918E-03 2.80570E-14-3.64484E-13
 -1       946 2.00057E+01 4.15615E-03 5.20292E-09-4.76048E-04-1.28600E-13-1.29111E-13
 -1       947 2.00050E+01 1.74622E-03 1.95868E-08-1.42615E-03-1.22266E-13 2.05806E-13
 -1       948 2.00043E+01 1.86210E-04-8.49176E-09-1.90813E-03-1.97285E-13 4.94002E-14
 -1       949 2.00035E+01-7.97924E-04 7.61491E-08-2.07773E-03-1.84330E-13 1.75243E-13
 -1       950 2.00028E+01-1.30208E-03-7.66923E-11-2.03715E-03-1.29233E-13 1.71965E-13
 -1       951 2.00022E+01-1.52340E-03 1.65082E-08-1.88211E-03 9.40624E-14-3.17225E-14
 -1       952 2.00017E+01-1.55962E-03 1.44734E-08-1.66787E-03 3.48634E-15-5.59535E-14
 -1       953 2.00013E+01-1.48202E-03 1.25347E-08-1.43176E-03-2.51608E-13-1.61735E-13
 -1       954 2.00009E+01-1.34080E-03 1.06395E-08-1.19769E-03 1.68883E-13 1.37777E-13
 -1       955 2.00006E+01-1.17033E-03 9.70891E-09-9.79925E-04-9.18188E-14 3.46968E-13
 -1       956 2.00004E+01-9.93321E-04 1.03081E-08-7.85979E-04-1.45016E-13 5.00643E-13
 -1       957 2.00002E+01-8.23996E-04 1.78394E-08-6.18903E-04 1.61515E-14 6.73001E-13
 -1       958 2.00001E+01-6.70890E-04 1.00602E-07-4.79440E-04 5.18436E-13 5.47444E-13
 -1       959 2.00002E+01-6.80153E-04-9.85588E-08 1.54348E-04 7.15650E-14 8.38622E-14
 -1       960 1.78672E+01 1.44933E+00-3.96009E-04 3.32311E-01 1.72431E-13-4.30176E-14
 -1       961 1.55686E+01 1.94779E+00 6.05328E-03 2.48464E-01-2.13581E-14 4.31151E-14
 -1       962 2.00000E+01-5.63420E-04-2.10140E-08-3.58745E-04 2.60826E-13-2.38568E-14
 -1       963 1.92208E+01-8.01719E-01 1.04602E-02-3.31043E+00 4.90683E-13-2.80582E-13
 -1       964 1.89684E+01 9.79135E-01-9.88236E-05 3.40843E-01 1.14296E-14-8.80692E-14
 -1       965 1.96742E+01 4.82475E-01-1.44719E-05 2.32934E-01 6.08159E-14 5.31812E-14
 -1       966 1.69378E+01 1.70547E+00 1.79155E-04 2.91122E-01 7.02009E-14-4.51527E-15
 -1       967 1.85137E+01 1.20296E+00-2.17547E-04 3.49336E-01 1.09542E-13-3.54953E-14
 -1       968 1.39015E+01 1.86203E+00 3.25492E-02 1.85038E+00-1.68482E-13 2.19059E-13
 -1       969 1.43852E+01 1.57449E+00 2.80074E-02-2.05030E+00 2.70188E-13 2.76215E-13
 -1       970 1.39480E+01 2.09690E+00 3.37812E-02-8.37720E-02-6.71165E-15 3.01596E-13
 -1       971 2.00002E+01-6.99872E-04 7.28380E-08 4.49830E-07 1.18778E-13 3.56721E-14
 -1       972 1.80975E+01-1.27257E-01 1.05633E-02-3.15298E+00 5.05569E-13-1.66005E-13
 -1       973 2.07169E+01-1.30117E+00 1.01405E-04-2.64834E+00 4.36830E-13-4.32994E-13
 -1       974 2.00001E+01-6.47894E-04-2.49313E-08-2.52254E-04 4.05411E-13 4.83869E-13
 -1       975 1.64215E+01 1.59121E+00 5.82176E-03-8.73838E-01 1.07911E-13 3.50399E-14
 -1       976 2.04044E+01-7.44071E-01 2.51580E-03-1.88282E+00 2.70166E-13-3.11189E-13
 -1       977 1.99432E+01-2.89066E-01-3.54071E-05-1.51110E+00 1.06887E-13-3.29641E-13
 -1       978 1.97179E+01 1.99089E-02-3.17129E-04-1.16667E+00 1.48007E-13-3.18254E-13
 -1       979 1.96290E+01 2.07903E-01 1.50965E-04-8.77989E-01 1.46359E-13-2.32954E-13
 -1       980 1.96193E+01 3.05507E-01-7.27915E-05-6.49256E-01-4.28105E-14-2.54050E-13
 -1       981 1.96508E+01 3.43682E-01 4.96098E-05-4.73993E-01-3.55675E-14-3.38790E-13
 -1       982 1.97015E+01 3.41215E-01 4.91728E-05-3.42786E-01 3.30448E-14-3.52402E-13
 -1       983 1.97574E+01 3.15435E-01 2.67945E-05-2.46046E-01 1.25754E-13-2.46389E-13
 -1       984 1.98109E+01 2.77555E-01 1.26455E-05-1.75390E-01 3.02697E-13-9.99611E-14
 -1       985 1.98581E+01 2.35233E-01 5.69319E-06-1.24184E-01 2.77298E-13-8.73902E-14
 -1       986 1.98976E+01 1.93351E-01 1.69523E-06-8.72525E-02 1.25753E-14-4.42879E-14
 -1       987 1.99292E+01 1.54765E-01-3.19152E-07-6.07186E-02 5.64105E-14-4.23935E-14
 -1       988 1.99535E+01 1.20913E-01-1.19714E-06-4.17233E-02-8.55430E-15-1.48082E-13
 -1       989 1.99717E+01 9.22930E-02-1.91641E-06-2.81837E-02 5.89180E-14-1.16460E-13
 -1       990 1.99848E+01 6.88187E-02-7.00301E-07-1.85839E-02 7.94024E-14-2.92026E-13
 -1       991 1.99938E+01 5.00385E-02-1.17949E-06-1.18444E-02 1.41841E-13-2.64967E-13
 -1       992 1.99997E+01 3.53858E-02-1.63770E-06-7.15411E-03-1.06385E-13-2.93899E-13
 -1       993 2.00034E+01 2.42015E-02-1.26332E-06-3.95028E-03-3.45558E-14-1.56261E-13
 -1       994 2.00054E+01 1.58581E-02-9.63526E-07-1.81037E-03-7.09935E-14-5.78321E-14
 -1       995 2.00062E+01 9.78217E-03-7.13533E-07-4.27557E-04 2.13939E-13-2.13406E-13
 -1       996 2.00064E+01 5.47531E-03-5.15046E-07 4.22333E-04 1.56430E-14-8.44327E-14
 -1       997 2.00060E+01 2.51858E-03-3.62759E-07 9.03121E-04-1.90582E-13 7.50863E-14
 -1       998 2.00054E+01 5.69753E-04-2.53432E-07 1.13395E-03-7.05092E-14-5.56397E-14
 -1       999 2.00047E+01-6.43865E-04-1.67065E-07 1.20089E-03 1.36443E-13 2.73626E-14
 -1      1000 2.00039E+01-1.33513E-03-1.01728E-07 1.16533E-03-1.80992E-13 7.22672E-14
 -1      1001 2.00032E+01-1.66648E-03-5.55325E-08 1.07036E-03-6.32337E-14 2.46612E-13
 -1      1002 2.00026E+01-1.75928E-03-2.42815E-08 9.45567E-04-2.15666E-13 2.11288E-13
 -1      1003 2.00020E+01-1.70225E-03-4.21373E-09 8.10610E-04-2.88153E-13 2.17477E-13
 -1      1004 2.00015E+01-1.55863E-03 7.44440E-09 6.78000E-04-1.80494E-13 5.37869E-14
 -1      1005 2.00011E+01-1.37220E-03 1.24466E-08 5.55151E-04-9.90878E-14-9.77603E-14
 -1      1006 2.00008E+01-1.17219E-03 3.64244E-08 4.45870E-04 4.62751E-14-9.80917E-14
 -1      1007 2.00005E+01-9.77285E-04 2.77243E-07 3.52462E-04 2.19056E-14 5.46312E-14
 -1      1008 2.00003E+01-8.23259E-04 4.16154E-08 2.40139E-04-1.81672E-13 2.43975E-13
 -1      1009 1.99027E+01 2.03495E-01-1.85122E-06 6.67433E-02 1.08017E-13-1.11083E-13
 -1      1010 1.93219E+01 7.01162E-01-1.36568E-04 9.42783E-02 6.65122E-14-1.39426E-13
 -1      1011 1.98506E+01 2.66389E-01-1.51533E-05 8.27531E-02 1.79459E-13-1.23264E-13
 -1      1012 1.97727E+01 3.49057E-01 1.35276E-05 9.86707E-02 1.73704E-13-2.46956E-14
 -1      1013 1.99391E+01 1.53442E-01-1.03630E-06 5.18002E-02 7.88366E-14-4.25692E-14
 -1      1014 1.99641E+01 1.14108E-01-7.56495E-07 3.88063E-02-3.09107E-14 1.20531E-14
 -1      1015 1.99811E+01 8.35455E-02-7.37316E-07 2.80660E-02 6.39524E-14 7.08861E-14
 -1      1016 1.99922E+01 6.00730E-02-4.79993E-07 1.95172E-02 1.63335E-13 8.41604E-14
 -1      1017 1.99992E+01 4.22822E-02 3.83728E-07 1.29716E-02 1.23472E-13 2.46600E-13
 -1      1018 2.00033E+01 2.89690E-02 5.67794E-08 8.09046E-03 5.98211E-16 1.06241E-13
 -1      1019 2.00056E+01 1.91632E-02 1.14671E-07 4.58042E-03 9.82037E-14-6.34948E-14
 -1      1020 2.00065E+01 1.20699E-02 1.11372E-07 2.14245E-03 1.22923E-13 1.11599E-13
 -1      1021 2.00067E+01 7.04611E-03 1.05677E-07 5.21057E-04-1.37939E-13 2.39139E-13
 -1      1022 2.00063E+01 3.58004E-03 9.85225E-08-4.96295E-04-2.19422E-13 9.67179E-14
 -1      1023 2.00056E+01 1.26609E-03 2.40995E-08-1.08151E-03-1.99624E-13 2.83380E-14
 -1      1024 2.00049E+01-2.61613E-04 1.01525E-07-1.37261E-03-1.57708E-13-1.59450E-13
 -1      1025 2.00041E+01-1.10804E-03 3.93012E-08-1.44701E-03-1.13783E-13-2.17655E-13
 -1      1026 2.00033E+01-1.54820E-03 4.03833E-08-1.39891E-03-9.65305E-14-2.51818E-13
 -1      1027 2.00027E+01-1.71455E-03 3.42909E-08-1.27965E-03-6.45810E-14 1.19627E-13
 -1      1028 2.00021E+01-1.70531E-03 2.85593E-08-1.12527E-03-1.70486E-13 1.84710E-13
 -1      1029 2.00016E+01-1.59087E-03 2.33391E-08-9.59755E-04-3.47714E-13 1.80848E-13
 -1      1030 2.00012E+01-1.42040E-03 1.99164E-08-7.98290E-04-9.83959E-14 3.46939E-13
 -1      1031 2.00008E+01-1.22721E-03 2.05386E-08-6.49728E-04-2.83664E-14 3.14340E-13
 -1      1032 2.00005E+01-1.03292E-03 3.67417E-08-5.18512E-04-2.41938E-13 2.42089E-13
 -1      1033 2.00003E+01-8.50849E-04 1.20243E-07-4.07439E-04 1.67685E-13 3.07839E-13
 -1      1034 2.00002E+01-6.88088E-04 1.01750E-07-1.31134E-04 3.19055E-13 6.23510E-14
 -1      1035 1.55123E+01 1.63128E+00 1.22516E-02-1.37438E+00 1.57281E-13 1.16490E-13
 -1      1036 2.00002E+01-7.46291E-04-3.54701E-08-3.22921E-04 5.70291E-13 3.82509E-13
 -1      1037 1.90479E+01 8.59633E-01-1.40991E-05 4.80445E-02 9.52969E-14-1.12878E-13
 -1      1038 1.74351E+01 1.41810E+00 6.76574E-04-4.65469E-01 1.19106E-13-7.34334E-14
 -1      1039 1.95227E+01 5.62815E-01-3.18878E-05 1.10716E-01 4.13800E-14-1.30758E-13
 -1      1040 1.64297E+01 8.65099E-01 1.17319E-02-2.56148E+00 3.62658E-13 5.04241E-15
 -1      1041 1.96679E+01 4.45957E-01-1.12778E-05 1.09548E-01 4.65594E-14-1.12470E-13
 -1      1042 2.00004E+01-8.57850E-04-1.27233E-07 4.49658E-05-2.99149E-13-3.09515E-14
 -1      1043 1.95211E+01-4.00087E-01-2.13902E-03-2.26382E+00 2.88460E-13-3.15133E-13
 -1      1044 1.81514E+01 1.22443E+00-5.95646E-04-2.05297E-01 1.72404E-13-5.36344E-14
 -1      1045 1.86708E+01 1.03722E+00-4.30674E-04-4.49389E-02 8.72211E-14-8.44664E-14
 -1      1046 1.97020E+01 3.92212E-01-2.16718E-06 1.40937E-02 9.28887E-14-1.24495E-13
 -1      1047 1.91515E+01 2.46510E-01 1.64593E-03-1.45616E+00 1.51663E-13-1.91746E-13
 -1      1048 1.92033E+01 4.04372E-01 1.01113E-04-1.03582E+00 1.36615E-13-1.41917E-13
 -1      1049 1.92950E+01 4.83345E-01 6.41007E-04-7.21449E-01 1.60794E-14-2.55692E-13
 -1      1050 1.94079E+01 4.92375E-01 5.79002E-04-4.97438E-01-5.20275E-14-2.03540E-13
 -1      1051 1.95261E+01 4.61090E-01 8.99779E-05-3.33144E-01 1.26944E-14-6.75778E-14
 -1      1052 1.96287E+01 4.12485E-01-4.28351E-05-2.23816E-01 1.65295E-13-7.20829E-14
 -1      1053 1.97174E+01 3.55342E-01-2.30563E-05-1.48731E-01 1.94982E-13-2.24246E-13
 -1      1054 1.97907E+01 2.97080E-01-1.67246E-05-9.79854E-02 2.55271E-13-3.02536E-13
 -1      1055 1.98494E+01 2.42204E-01-7.91446E-06-6.39737E-02 1.80037E-13-8.27895E-14
 -1      1056 1.98951E+01 1.93067E-01-2.50330E-06-4.13930E-02 5.03314E-14-1.95668E-13
 -1      1057 1.99299E+01 1.50702E-01 9.61624E-07-2.65033E-02-5.66059E-14-1.18781E-13
 -1      1058 1.99556E+01 1.15248E-01 2.13600E-06-1.67397E-02 2.92626E-14-2.84248E-13
 -1      1059 1.99741E+01 8.63362E-02-3.77987E-06-1.03960E-02-8.18335E-14-3.19785E-13
 -1      1060 1.99870E+01 6.32229E-02 3.22725E-06-6.25800E-03 4.72689E-14-3.68501E-13
 -1      1061 1.99957E+01 4.51942E-02 5.97077E-06-3.57636E-03 7.47320E-14-4.24682E-13
 -1      1062 2.00012E+01 3.13691E-02 3.62519E-06-1.88457E-03 6.01115E-14-4.36314E-13
 -1      1063 2.00045E+01 2.09995E-02 3.19063E-06-8.19603E-04 7.71211E-14-3.74343E-13
 -1      1064 2.00062E+01 1.33849E-02 2.68740E-06-1.67918E-04-4.62855E-14-4.01833E-13
 -1      1065 2.00068E+01 7.92624E-03 2.20305E-06 2.13600E-04 1.20047E-13-4.35799E-13
 -1      1066 2.00067E+01 4.12164E-03 1.80498E-06 4.19526E-04-2.35725E-14-3.75700E-13
 -1      1067 2.00062E+01 1.56023E-03 1.42517E-06 5.12804E-04-1.17763E-13 1.69137E-13
 -1      1068 2.00055E+01-8.53239E-05 1.11197E-06 5.35220E-04 2.97628E-14 3.62178E-13
 -1      1069 2.00047E+01-1.07285E-03 8.46992E-07 5.15053E-04-6.97741E-14 1.20313E-13
 -1      1070 2.00039E+01-1.59975E-03 6.31097E-07 4.70953E-04-1.20492E-14 1.12700E-13
 -1      1071 2.00032E+01-1.81490E-03 4.61157E-07 4.15317E-04-2.14086E-13-1.32184E-14
 -1      1072 2.00025E+01-1.82824E-03 3.29227E-07 3.56157E-04-5.18556E-14 9.74033E-14
 -1      1073 2.00019E+01-1.71907E-03 2.28345E-07 2.98472E-04-2.59885E-13 2.18146E-13
 -1      1074 2.00014E+01-1.54316E-03 1.51615E-07 2.45198E-04-3.49577E-13-5.44373E-14
 -1      1075 2.00011E+01-1.33843E-03 1.11782E-07 1.97918E-04 8.91253E-14-1.21756E-13
 -1      1076 2.00007E+01-1.12943E-03-1.56297E-07 1.58673E-04 2.67329E-13 6.93113E-14
 -1      1077 2.00005E+01-9.91726E-04-1.49068E-07 9.43195E-05-1.24980E-13-3.30073E-14
 -1      1078 1.99076E+01 1.84946E-01 1.37823E-06 2.57842E-02 4.70972E-14-1.86507E-13
 -1      1079 1.97953E+01 3.07614E-01-3.03228E-07 2.55508E-02 2.24274E-13-2.25125E-13
 -1      1080 1.99653E+01 1.04474E-01-1.31071E-06 1.71997E-02-9.84015E-14-1.60410E-13
 -1      1081 1.99816E+01 7.64829E-02-4.03023E-06 1.29329E-02 9.04664E-14 3.55258E-15
 -1      1082 1.99925E+01 5.48232E-02-3.71070E-06 9.19030E-03 8.72797E-14-3.46222E-14
 -1      1083 1.99994E+01 3.83938E-02 4.98098E-07 6.15277E-03 1.26336E-13-2.41039E-14
 -1      1084 2.00036E+01 2.60654E-02-1.13598E-06 3.85984E-03-1.58506E-14-5.28256E-14
 -1      1085 2.00058E+01 1.69979E-02-8.12025E-07 2.16685E-03 6.55375E-14 7.75297E-14
 -1      1086 2.00068E+01 1.04617E-02-6.07705E-07 9.76883E-04-5.94110E-14 5.95914E-14
 -1      1087 2.00069E+01 5.86170E-03-4.49722E-07 1.81611E-04-3.02007E-14-5.07833E-15
 -1      1088 2.00065E+01 2.71750E-03-2.17893E-07-3.16900E-04-2.85509E-14-1.24177E-13
 -1      1089 2.00058E+01 5.68355E-04-2.87818E-07-6.08251E-04-2.97196E-14-4.48737E-13
 -1      1090 2.00050E+01-6.82871E-04-2.06259E-07-7.33942E-04-1.97751E-13-5.18714E-13
 -1      1091 2.00042E+01-1.39468E-03-1.47061E-07-7.62451E-04-1.58489E-13-3.92698E-13
 -1      1092 2.00035E+01-1.73446E-03-9.48321E-08-7.29856E-04-2.03453E-13-1.75863E-13
 -1      1093 2.00028E+01-1.82833E-03-5.72539E-08-6.62591E-04-2.37646E-13-1.28524E-13
 -1      1094 2.00021E+01-1.76799E-03-3.10333E-08-5.78905E-04-1.88743E-13-1.25985E-13
 -1      1095 2.00016E+01-1.61860E-03-1.22730E-08-4.90874E-04-3.10755E-13-3.64703E-13
 -1      1096 2.00012E+01-1.42523E-03 5.66296E-09-4.06033E-04-6.15167E-14-1.34924E-13
 -1      1097 2.00008E+01-1.21788E-03 1.76138E-08-3.28689E-04-5.13247E-14-7.87415E-14
 -1      1098 2.00006E+01-1.01655E-03-1.56622E-07-2.61405E-04-1.21398E-13-1.98264E-13
 -1      1099 1.92124E+01 7.11130E-01 3.91235E-04-1.51752E-01 1.13713E-13-1.50159E-13
 -1      1100 1.98603E+01 2.40339E-01 5.22194E-06 2.78765E-02 1.25003E-13-1.63132E-13
 -1      1101 1.92581E+01-2.05413E-02-9.18311E-04-1.84283E+00 2.11489E-13-2.77361E-13
 -1      1102 1.69246E+01 1.04304E+00 7.39139E-04-1.85374E+00 2.24284E-13-1.07850E-13
 -1      1103 1.99415E+01 1.40147E-01 1.11523E-08 2.17563E-02-3.76243E-14-1.35994E-13
 -1      1104 1.94239E+01 5.92606E-01 1.16130E-05-6.16360E-02 8.10236E-15-1.84111E-13
 -1      1105 1.76489E+01 1.09860E+00 1.47425E-03-1.17213E+00 1.77161E-13-1.49651E-13
 -1      1106 1.80029E+01 4.84578E-01 3.56175E-03-2.14746E+00 2.28079E-13-1.05798E-13
 -1      1107 1.95821E+01 4.86482E-01 3.82115E-06-1.17249E-02 1.67838E-14-1.53339E-13
 -1      1108 1.82063E+01 1.04660E+00 1.07131E-03-7.42141E-01 1.58141E-13-2.22180E-13
 -1      1109 2.00003E+01-7.96435E-04-2.58955E-07-1.79157E-04 2.55873E-13-3.20310E-14
 -1      1110 1.89371E+01 8.31141E-01 6.63513E-04-2.97744E-01 9.50264E-14-1.67123E-13
 -1      1111 2.00004E+01-8.35127E-04-5.69958E-08-7.13678E-05-6.03230E-14-2.51502E-13
 -1      1112 2.00004E+01-9.02944E-04-3.24448E-07-2.17254E-04 2.68225E-13-2.86779E-13
 -1      1113 1.94004E+01 5.57468E-01-1.30287E-03-2.58593E-01 1.20294E-13-4.31886E-14
 -1      1114 1.99950E+01 4.72919E-02-3.30088E-06 1.34610E-03 7.88605E-14-2.16485E-13
 -1      1115 1.88751E+01 7.22650E-01-1.49841E-03-6.96207E-01 6.12895E-14-2.57991E-13
 -1      1116 1.95497E+01 4.82053E-01 9.91618E-05-1.57145E-01 3.74501E-14-9.92117E-14
 -1      1117 1.96659E+01 4.04247E-01 2.15498E-05-9.27077E-02 9.76415E-14-2.49218E-13
 -1      1118 1.97572E+01 3.31556E-01 1.63018E-05-5.22316E-02 2.71373E-13-3.14072E-13
 -1      1119 1.98278E+01 2.66416E-01 3.43843E-06-2.76861E-02 2.79276E-13-4.05819E-13
 -1      1120 1.98813E+01 2.10084E-01-1.67734E-06-1.33876E-02 4.55745E-14-4.01644E-13
 -1      1121 1.99211E+01 1.62684E-01-1.98329E-06-5.43652E-03-2.95506E-14-3.39453E-13
 -1      1122 1.99501E+01 1.23707E-01-1.84913E-06-1.31319E-03-6.57202E-15-3.09868E-13
 -1      1123 1.99708E+01 9.23567E-02 4.58842E-06 5.97331E-04-1.08076E-13-4.35265E-13
 -1      1124 2.00009E+01 3.28424E-02-2.39971E-06 1.16848E-03-2.88721E-14-8.15970E-14
 -1      1125 2.00044E+01 2.19997E-02-1.71494E-06 8.87423E-04 5.58241E-14-2.20260E-13
 -1      1126 2.00062E+01 1.40548E-02-1.55941E-06 6.12833E-04-5.86046E-14-1.04295E-13
 -1      1127 2.00069E+01 8.36521E-03-1.38322E-06 3.83265E-04 1.19951E-13-2.08301E-13
 -1      1128 2.00069E+01 4.39930E-03-1.18098E-06 2.08316E-04 4.34739E-14-2.09714E-13
 -1      1129 2.00064E+01 1.72468E-03-1.14907E-06 8.53240E-05 1.75939E-13-1.51201E-13
 -1      1130 2.00057E+01 4.39368E-06-7.26893E-07 3.85366E-06-1.24242E-14-1.00657E-13
 -1      1131 2.00049E+01-1.03443E-03-6.29753E-07-4.53415E-05-1.22057E-13-4.73272E-14
 -1      1132 2.00041E+01-1.59444E-03-4.97070E-07-7.10647E-05-1.68434E-13-1.65759E-13
 -1      1133 2.00033E+01-1.82995E-03-3.86107E-07-8.09456E-05-2.77318E-13-1.86472E-13
 -1      1134 2.00026E+01-1.85472E-03-2.95021E-07-8.07638E-05 3.14520E-14-4.49343E-13
 -1      1135 2.00020E+01-1.75088E-03-2.20986E-07-7.47210E-05-1.56617E-13-4.83742E-13
 -1      1136 2.00015E+01-1.57624E-03-1.59604E-07-6.57279E-05-3.83819E-13-4.28324E-13
 -1      1137 2.00011E+01-1.37036E-03-1.30257E-07-5.57623E-05 1.62224E-14-7.81354E-14
 -1      1138 2.00008E+01-1.15924E-03-5.27697E-09-4.47231E-05 1.80129E-13-4.97996E-13
 -1      1139 1.86335E+01 9.37844E-01 1.46605E-03-4.70564E-01 6.08772E-14-1.44026E-13
 -1      1140 1.99833E+01 7.09616E-02 5.37245E-06 2.29732E-03 1.58620E-13-3.41661E-13
 -1      1141 2.00005E+01-9.70752E-04 1.27888E-07-4.63904E-05-1.02282E-14-7.60767E-13
 -1      1142 1.83671E+01 6.39369E-01-5.01190E-03-1.46793E+00 1.98810E-13-2.49842E-13
 -1      1143 2.87194E+01 9.30150E+00 2.28542E+00-7.62041E+00-1.22569E-13 2.31176E-12
 -1      1144 2.13722E+01 6.44861E+00 1.23070E-01-4.95855E+00-4.86278E-14-4.67397E-13
 -1      1145 2.11187E+01 6.34808E+00 4.15249E-02-4.12475E+00-3.06075E-14-1.47871E-12
 -1      1146 2.17424E+01 6.54711E+00 8.12856E-02-3.46368E+00-1.42664E-14-1.83222E-12
 -1      1147 2.25720E+01 6.81747E+00 1.52843E-01-2.70797E+00 4.85723E-16-1.87949E-12
 -1      1148 2.32267E+01 7.05038E+00 2.74518E-01-1.64788E+00 1.20320E-14-1.73951E-12
 -1      1149 2.30712E+01 7.05184E+00 4.34903E-01-6.53877E-02 2.77278E-14-1.49856E-12
 -1      1150 2.12060E+01 6.52062E+00 5.29325E-01 1.93932E+00 4.78506E-14-1.19767E-12
 -1      1151 1.69945E+01 5.21535E+00 3.89934E-01 3.81276E+00 5.90639E-14-9.10572E-13
 -1      1152 1.09984E+01 3.30416E+00 1.54191E-02 4.63626E+00 5.80647E-14-6.58281E-13
 -1      1153 5.67145E+00 1.58221E+00-3.97374E-01 3.81451E+00 3.24185E-14-5.54234E-13
 -1      1154 3.31980E+00 8.16828E-01-5.96982E-01 1.98183E+00 5.82867E-15-6.39416E-13
 -1      1155 4.53042E+00 1.20124E+00-5.26219E-01-1.00595E-01-7.16094E-15-8.18109E-13
 -1      1156 9.20836E+00 2.70457E+00-1.93099E-01-1.45190E+00-1.67644E-14-9.63452E-13
 -1      1157 1.58057E+01 4.79986E+00 1.93803E-01-1.24806E+00-1.59872E-14-8.90291E-13
 -1      1158 2.28056E+01 6.96987E+00 4.27233E-01 4.95839E-01-1.33227E-14-4.31186E-13
 -1      1159 2.96664E+01 9.06039E+00 5.34786E-01 3.26495E+00-6.43929E-15 6.55925E-13
 -1      1160 4.10651E+01 1.30871E+01 2.55844E+00 7.55021E+00 5.70655E-14 3.03074E-12
 -1      1161 3.01723E+01 4.18814E+00 1.63733E+00-4.75635E+00-4.74232E-13 4.20464E-12
 -1      1162 1.91917E+01-2.80935E-01-7.78785E-01-4.91540E-02-1.56278E-13 3.07818E-12
 -1      1163 1.72314E+01-1.34315E-01-3.04604E-01 5.58296E-02-6.78312E-14 1.58598E-12
 -1      1164 1.65591E+01-8.20590E-02-1.11600E-01 3.97542E-02-3.30708E-14 6.43319E-13
 -1      1165 1.65005E+01-5.65038E-02-6.08769E-02 3.92179E-02-1.67028E-14 3.35912E-14
 -1      1166 1.68965E+01-3.70772E-02-3.86123E-02 4.29033E-02-1.19540E-14-2.95597E-13
 -1      1167 1.75939E+01-1.81184E-02-1.70818E-02 4.48310E-02-1.31019E-14-5.82930E-13
 -1      1168 1.84280E+01-9.64839E-04 4.21692E-03 4.19370E-02-1.43357E-14-8.36838E-13
 -1      1169 1.92413E+01 1.14721E-02 2.02750E-02 3.44046E-02-2.58835E-14-1.09385E-12
 -1      1170 1.99181E+01 1.78526E-02 2.81983E-02 2.44922E-02-4.01328E-15-1.27535E-12
 -1      1171 2.04014E+01 1.88394E-02 2.85570E-02 1.47486E-02-2.39023E-14-1.46195E-12
 -1      1172 2.06880E+01 1.62619E-02 2.39630E-02 6.87461E-03 3.28249E-14-1.42851E-12
 -1      1173 2.08087E+01 1.20689E-02 1.73093E-02 1.47784E-03-1.67885E-14-1.46535E-12
 -1      1174 2.08090E+01 7.71689E-03 1.07300E-02-1.63024E-03 1.35996E-14-1.52074E-12
 -1      1175 2.07343E+01 4.02388E-03 5.35885E-03-3.00944E-03-3.01098E-14-1.57130E-12
 -1      1176 2.06216E+01 1.29151E-03 1.53839E-03-3.27344E-03-1.83705E-14-1.73722E-12
 -1      1177 2.04976E+01-4.98002E-04-8.51754E-04-2.92793E-03-1.27503E-15-1.72584E-12
 -1      1178 2.03790E+01-1.51309E-03-2.12482E-03-2.32500E-03 6.31507E-16-1.78406E-12
 -1      1179 2.02749E+01-1.96301E-03-2.62190E-03-1.67848E-03-1.19655E-14-1.88676E-12
 -1      1180 2.01890E+01-2.04006E-03-2.63423E-03-1.09991E-03 1.84140E-14-1.93616E-12
 -1      1181 2.01216E+01-1.89691E-03-2.37959E-03-6.34365E-04-3.27768E-14-1.85744E-12
 -1      1182 2.00710E+01-1.64328E-03-2.00609E-03-2.88537E-04-3.90868E-15-1.77779E-12
 -1      1183 2.00346E+01-1.35175E-03-1.60602E-03-4.97800E-05-2.62407E-15-1.62624E-12
 -1      1184 2.00097E+01-1.06623E-03-1.23139E-03 1.02096E-04-2.76059E-14-1.62722E-12
 -1      1185 1.99936E+01-8.10308E-04-9.07227E-04 1.88258E-04 3.56803E-14-1.53840E-12
 -1      1186 1.99841E+01-5.94089E-04-6.41739E-04 2.27634E-04-3.41758E-14-1.37905E-12
 -1      1187 1.99793E+01-4.19398E-04-4.33484E-04 2.35681E-04-1.48721E-14-1.53275E-12
 -1      1188 1.99777E+01-2.83399E-04-2.76116E-04 2.24245E-04-1.33984E-14-1.80944E-12
 -1      1189 1.99781E+01-1.81014E-04-1.61353E-04 2.01939E-04-8.05494E-15-1.91600E-12
 -1      1190 1.99798E+01-1.06429E-04-8.07085E-05 1.74723E-04 2.01037E-14-1.92703E-12
 -1      1191 1.99821E+01-5.39680E-05-2.64071E-05 1.46499E-04-4.97929E-14-2.11169E-12
 -1      1192 1.99846E+01-1.85468E-05 8.20943E-06 1.19656E-04 2.67747E-14-2.41671E-12
 -1      1193 1.99871E+01 4.14352E-06 2.85797E-05 9.55011E-05 3.42261E-14-1.94521E-12
 -1      1194 1.99895E+01 1.76056E-05 3.89860E-05 7.46177E-05 9.51208E-14-1.45406E-12
 -1      1195 1.99915E+01 2.45934E-05 4.26954E-05 5.71162E-05 2.07890E-14-1.31557E-12
 -1      1196 1.99933E+01 2.72103E-05 4.21293E-05 4.28248E-05 2.10148E-14-1.58289E-12
 -1      1197 1.99948E+01 2.70190E-05 3.90309E-05 3.14177E-05 8.04741E-14-1.34309E-12
 -1      1198 1.99960E+01 2.51486E-05 3.46164E-05 2.25029E-05 2.93980E-14-1.03732E-12
 -1      1199 1.99970E+01 2.23911E-05 2.97034E-05 1.56768E-05 1.15473E-14-1.09302E-12
 -1      1200 1.99978E+01 1.92825E-05 2.48169E-05 1.05576E-05-6.92395E-14-1.33309E-12
 -1      1201 1.99984E+01 1.61705E-05 2.02727E-05 6.80231E-06-7.50867E-14-1.62103E-12
 -1      1202 1.99988E+01 1.32679E-05 1.62432E-05 4.11366E-06 1.89363E-15-1.46644E-12
 -1      1203 1.99992E+01 1.06938E-05 1.28080E-05 2.23975E-06-1.62986E-14-1.26854E-12
 -1      1204 1.99994E+01 8.50557E-06 9.99346E-06 9.67715E-07 6.16905E-14-9.95415E-13
 -1      1205 1.99996E+01 6.71949E-06 7.80176E-06 1.12467E-07 1.37447E-14-8.26741E-13
 -1      1206 1.99997E+01 5.32061E-06 6.22069E-06-5.02467E-07 6.57600E-14-3.81838E-13
 -1      1207 1.99998E+01 4.25469E-06 5.15658E-06-1.07253E-06 6.00540E-14 2.96069E-14
 -1      1208 1.99998E+01 3.31612E-06 4.17247E-06-1.82362E-06 2.53287E-14 4.67602E-13
 -1      1209 1.99998E+01 2.62542E-06 1.60882E-06-3.15362E-06-3.86011E-14 3.46566E-13
 -1      1210 1.99998E+01-1.90897E-06-4.61438E-06-1.68904E-06 6.51968E-14 3.52834E-13
 -1      1211 4.75079E+01 9.55002E-01 8.82377E-01 2.72513E+00-4.06897E-14 5.06323E-12
 -1      1212 3.65539E+01 6.62189E-02-3.85268E-01 6.85322E-02 2.49523E-14 4.49568E-12
 -1      1213 3.16039E+01 9.60536E-03-7.59342E-02 2.04731E-01-1.28439E-14 4.02112E-12
 -1      1214 2.56472E+01-1.76205E-01-3.74871E-01 3.05312E-01-8.59729E-15 3.42004E-12
 -1      1215 2.11568E+01-2.42057E-01-6.97656E-01 1.90563E-01-2.90740E-15 2.52472E-12
 -1      1216 2.10459E+01-8.74944E-02-5.29039E-01-7.78931E-02 2.52211E-14 1.48209E-12
 -1      1217 2.43418E+01 6.04765E-02-7.14330E-02-2.30770E-01 2.64706E-14 7.84317E-13
 -1      1218 2.76209E+01 9.00260E-02 2.12938E-01-1.95997E-01 1.24779E-14 4.26797E-13
 -1      1219 2.89259E+01 4.77820E-02 2.20073E-01-9.03149E-02 2.65135E-14 2.29372E-13
 -1      1220 2.83572E+01 1.54635E-02 1.13577E-01-2.47455E-03 7.73990E-15 2.04852E-13
 -1      1221 2.69089E+01-5.01666E-03 2.40520E-02 3.20425E-02-8.41303E-15 3.71578E-13
 -1      1222 2.53063E+01-1.31489E-02-2.10468E-02 3.85517E-02-3.69537E-14 4.94681E-13
 -1      1223 2.38935E+01-1.44622E-02-3.44093E-02 3.30962E-02 3.43653E-14 1.90480E-13
 -1      1224 2.27739E+01-1.28850E-02-3.27343E-02 2.48126E-02 3.87689E-14 5.76102E-14
 -1      1225 2.19355E+01-1.04688E-02-2.62785E-02 1.73744E-02-8.35085E-15 8.70241E-14
 -1      1226 2.13276E+01-8.10770E-03-1.95820E-02 1.17122E-02-1.25094E-14 1.67713E-13
 -1      1227 2.08953E+01-6.11261E-03-1.40909E-02 7.71423E-03 2.05973E-14 3.10084E-13
 -1      1228 2.05919E+01-4.53667E-03-9.97704E-03 4.99718E-03 3.21534E-14 1.57784E-13
 -1      1229 2.03812E+01-3.33456E-03-7.01363E-03 3.18735E-03 2.21595E-15 1.80213E-13
 -1      1230 2.02364E+01-2.43459E-03-4.91357E-03 1.99472E-03 3.10331E-14 8.16062E-14
 -1      1231 2.01381E+01-1.76726E-03-3.43437E-03 1.21566E-03 1.45968E-14 1.88878E-13
 -1      1232 2.00725E+01-1.30414E-03-2.40657E-03 7.12610E-04 2.51455E-14 2.23839E-14
 -1      1233 2.00291E+01-8.44798E-04-1.61465E-03 4.37808E-04-4.35498E-14 2.62103E-13
 -1      1234 2.00020E+01-6.36507E-04-1.10815E-03 1.62857E-04 6.54459E-14-2.16689E-13
 -1      1235 1.99866E+01-4.44931E-04-7.47701E-04 3.72798E-05-7.77195E-15-1.70818E-13
 -1      1236 1.99783E+01-3.05362E-04-4.91483E-04-3.74512E-05-1.02691E-14-1.37437E-13
 -1      1237 1.99748E+01-2.04383E-04-3.11054E-04-7.84858E-05-2.39351E-14 5.35956E-14
 -1      1238 1.99743E+01-1.32021E-04-1.85554E-04-9.75828E-05 5.72466E-14-2.82737E-13
 -1      1239 1.99757E+01-8.08613E-05-9.97098E-05-1.02735E-04-2.24621E-14-1.77294E-13
 -1      1240 1.99780E+01-4.53451E-05-4.23972E-05-9.93696E-05-6.36160E-14 2.62371E-13
 -1      1241 1.99808E+01-2.12913E-05-5.47824E-06-9.11555E-05-4.28352E-14 3.08946E-13
 -1      1242 1.99837E+01-5.55092E-06 1.70249E-05-8.05457E-05 1.68346E-14-1.20488E-13
 -1      1243 1.99865E+01 4.24356E-06 2.95073E-05-6.91441E-05-1.02440E-14-3.65880E-14
 -1      1244 1.99890E+01 9.86295E-06 3.51894E-05-5.79621E-05-2.42923E-14 5.09931E-14
 -1      1245 1.99912E+01 1.26356E-05 3.64223E-05-4.75988E-05 3.27150E-14-2.75148E-13
 -1      1246 1.99931E+01 1.34189E-05 3.49044E-05-3.85089E-05 1.80245E-14-1.78342E-13
 -1      1247 1.99947E+01 1.27058E-05 3.11711E-05-3.10931E-05 7.70413E-15-3.98830E-13
 -1      1248 1.99960E+01 1.20987E-05 2.77498E-05-2.32424E-05 1.45178E-14-7.11396E-13
 -1      1249 1.99970E+01 1.06531E-05 2.35799E-05-1.78451E-05-5.79035E-14-6.96805E-13
 -1      1250 1.99978E+01 9.13010E-06 1.96158E-05-1.34142E-05 1.63609E-14-5.08571E-13
 -1      1251 1.99984E+01 7.63907E-06 1.59829E-05-9.89663E-06 8.03853E-14-5.93495E-13
 -1      1252 1.99988E+01 6.26729E-06 1.27912E-05-7.16035E-06 4.79926E-14-1.01645E-12
 -1      1253 1.99992E+01 5.06683E-06 1.00891E-05-5.07335E-06-6.84723E-14 1.35186E-13
 -1      1254 1.99994E+01 4.06500E-06 7.89186E-06-3.51248E-06 7.20177E-14 5.52772E-13
 -1      1255 1.99996E+01 3.26583E-06 6.20187E-06-2.36275E-06 1.84494E-14 2.23363E-13
 -1      1256 1.99997E+01 2.66727E-06 5.03465E-06-1.50978E-06-5.75822E-14 7.00118E-13
 -1      1257 1.99998E+01 2.24455E-06 4.33479E-06-8.10538E-07 2.45581E-14 4.50449E-13
 -1      1258 1.99998E+01 1.79993E-06 3.67414E-06-4.37317E-08-3.58886E-14-3.45528E-13
 -1      1259 1.99998E+01 4.15536E-07 7.65472E-07 2.72500E-06-1.08678E-13 2.49969E-13
 -1      1260 1.99998E+01-1.47321E-06-4.16418E-06 2.26220E-06 1.62214E-13 4.10980E-13
 -1      1261 1.99998E+01 5.19591E-06-4.37195E-06 1.73215E-06-2.85141E-14-1.88618E-13
 -1      1262 1.99998E+01 1.83154E-05 2.19097E-06 2.74452E-06-8.57775E-13 1.45788E-14
 -1      1263 1.99998E+01 1.12103E-05 4.02475E-06 5.23123E-07-8.00911E-13 1.49928E-13
 -1      1264 1.99998E+01-2.48923E-05 2.98965E-06-9.18398E-07-4.48582E-13 9.82281E-14
 -1      1265 1.99998E+01-8.03959E-05 1.06675E-06-1.69137E-06-5.06929E-13-1.31481E-13
 -1      1266 1.99998E+01-1.41936E-04-9.07962E-07-1.85115E-06-1.27521E-12-1.09070E-13
 -1      1267 1.99998E+01-1.97043E-04-2.54759E-06-1.53958E-06-4.79263E-13 1.48508E-13
 -1      1268 1.99998E+01-2.35239E-04-3.63517E-06-8.57530E-07-1.53636E-13 5.23770E-15
 -1      1269 1.99998E+01-2.48716E-04-4.00895E-06 3.24314E-09-7.42924E-13 1.29502E-13
 -1      1270 1.99998E+01-2.34971E-04-3.62668E-06 8.63689E-07-1.67938E-12 2.90714E-14
 -1      1271 1.99998E+01-1.96568E-04-2.52985E-06 1.54027E-06-1.55931E-12-1.75363E-13
 -1      1272 1.99998E+01-1.41330E-04-8.88172E-07 1.86909E-06-2.43319E-12 2.76056E-14
 -1      1273 1.99998E+01-7.98123E-05 1.08765E-06 1.68787E-06-1.95578E-12 1.00474E-13
 -1      1274 1.99998E+01-2.44855E-05 2.99534E-06 9.09821E-07-1.23884E-12 5.16182E-14
 -1      1275 1.99998E+01 1.17195E-05 3.92617E-06-6.54688E-07-1.01361E-12 1.54601E-13
 -1      1276 1.99998E+01 1.68933E-05 1.35679E-06-4.18458E-06-4.23005E-13-2.14701E-13
 -1      1277 1.99998E+01 5.59188E-06-4.08427E-06-2.11333E-06-3.20186E-13 3.95157E-14
 -1      1278-1.05074E+00-1.82754E+01-3.57766E+00-1.81598E+00 3.84071E-12 7.59240E-13
 -1      1279-1.21113E+00-9.77284E+00-3.02658E+00-2.47771E+00 5.74008E-12 2.22156E-12
 -1      1280 2.71216E+00 2.55621E+00-1.69322E+00 3.15281E+00 6.04827E-12 3.98137E-12
 -1      1281 1.44868E+01 1.12980E+01 7.62278E-02 1.25956E+01 5.09726E-12 5.12923E-12
 -1      1282 3.36115E+01 1.26242E+01 2.08625E+00 1.96365E+01 3.29448E-12 5.00711E-12
 -1      1283 5.48955E+01 8.23023E+00 3.93036E+00 1.91444E+01 1.44984E-12 3.32379E-12
 -1      1284 6.88246E+01 3.16049E+00 5.05312E+00 9.37985E+00 2.54581E-13 1.97231E-13
 -1      1285 6.51520E+01 2.28644E+00 4.53743E+00-4.76803E+00 5.40137E-13-3.46212E-12
 -1      1286 4.45042E+01 4.97839E+00 2.33350E+00-1.32285E+01 2.13429E-12-6.00853E-12
 -1      1287 1.93386E+01 5.71991E+00-5.96538E-01-1.03943E+01 4.11204E-12-6.49636E-12
 -1      1288 3.30467E+00 1.27492E+00-2.53273E+00-2.70040E+00 5.24658E-12-5.27223E-12
 -1      1289-1.68747E+00-4.44327E+00-2.96084E+00 2.11381E+00 5.05740E-12-3.27149E-12
 -1      1290-1.28631E+00-6.32531E+00-2.08119E+00 2.20356E+00 3.58183E-12-1.43481E-12
 -1      1291-3.29633E-01-4.85489E+00-1.21414E+00 7.59597E-01 1.63652E-12-3.42122E-13
 -1      1292-1.47782E-01-1.90894E+00-9.31183E-01-5.68929E-02-3.98237E-13-2.44679E-13
 -1      1293 1.51888E-01 1.21947E+00-1.21621E+00 6.33551E-01-2.32875E-12-9.81715E-13
 -1      1294 2.58973E+00 5.22918E+00-1.34583E+00 3.80426E+00-3.62521E-12-2.44760E-12
 -1      1295 1.00174E+01 8.63017E+00-8.29683E-01 9.23488E+00-3.95795E-12-4.00702E-12
 -1      1296 2.35288E+01 9.10474E+00 3.91474E-01 1.40990E+01-3.11673E-12-4.74687E-12
 -1      1297 4.07448E+01 6.11875E+00 1.83488E+00 1.42973E+01-1.70175E-12-4.22329E-12
 -1      1298 5.52739E+01 2.41429E+00 3.05571E+00 7.56178E+00-5.20757E-13-2.33980E-12
 -1      1299 5.98260E+01 1.85014E+00 3.57342E+00-4.10519E+00-2.00055E-13 3.95656E-13
 -1      1300 5.22044E+01 5.44502E+00 3.31769E+00-1.45977E+01-9.44939E-13 2.83851E-12
 -1      1301 3.55024E+01 1.04698E+01 2.28093E+00-1.81107E+01-2.36522E-12 4.17888E-12
 -1      1302 1.84332E+01 1.19779E+01 9.30519E-01-1.43209E+01-3.56315E-12 4.21974E-12
 -1      1303 6.66171E+00 7.83360E+00-4.79820E-01-7.18831E+00-3.95284E-12 3.27216E-12
 -1      1304 5.32742E-01-8.26239E-01-1.76480E+00-6.05443E-01-3.17790E-12 1.86429E-12
 -1      1305-1.15189E+00-1.10231E+01-2.82395E+00 2.51913E+00-1.38123E-12 5.87252E-13
 -1      1306-9.61601E-01-1.84066E+01-3.51924E+00 1.40561E+00 1.04944E-12 1.12049E-13
 -1      1307 2.23773E+01 1.91297E+00-8.61546E-01-3.34394E+00-2.30094E-13 1.70586E-12
 -1      1308 2.12363E+01 5.19112E+00-8.64450E-02-4.42656E+00-4.04298E-13-9.79453E-13
 -1      1309 2.18714E+01 5.16962E+00 4.38149E-03-4.89194E+00-3.51524E-13-1.78121E-13
 -1      1310 2.14408E+01 5.64968E+00-2.08891E-02-3.83106E+00-3.22926E-13-1.65074E-12
 -1      1311 2.12332E+01 5.61336E+00-2.33275E-02-4.18808E+00-4.01985E-13-1.37565E-12
 -1      1312 2.16423E+01 4.51881E+00-4.53709E-02-4.15957E+00-6.76823E-13-8.40467E-13
 -1      1313 2.21784E+01 5.91570E+00 1.34007E-02-3.21800E+00-1.78919E-13-1.87861E-12
 -1      1314 2.17720E+01 5.81765E+00-4.21463E-03-3.54855E+00-2.44901E-13-1.79926E-12
 -1      1315 2.19298E+01 5.05754E+00-2.49919E-02-3.59494E+00-4.74767E-13-1.37502E-12
 -1      1316 2.30850E+01 6.03274E+00 5.30828E-02-2.49967E+00-2.59931E-14-1.85159E-12
 -1      1317 2.26243E+01 5.92367E+00 4.77413E-03-2.90024E+00-8.14140E-14-1.89295E-12
 -1      1318 2.27416E+01 5.28013E+00-7.50661E-03-3.01190E+00-2.32821E-13-1.53873E-12
 -1      1319 2.38106E+01 5.87182E+00 1.14563E-01-1.48856E+00 1.51481E-13-1.66892E-12
 -1      1320 2.34905E+01 5.81665E+00 2.14032E-02-2.06024E+00 8.95672E-14-1.77947E-12
 -1      1321 2.37344E+01 5.18109E+00 1.40408E-02-2.34344E+00 2.29886E-14-1.47066E-12
 -1      1322 2.36387E+01 5.25721E+00 1.85638E-01 5.05835E-02 3.52912E-13-1.36101E-12
 -1      1323 2.38937E+01 5.37791E+00 6.79887E-02-7.86385E-01 2.87825E-13-1.53004E-12
 -1      1324 2.44842E+01 4.62944E+00 4.04823E-02-1.38250E+00 3.18459E-13-1.24051E-12
 -1      1325 2.15555E+01 4.27813E+00 1.95721E-01 1.98114E+00 5.99909E-13-1.05702E-12
 -1      1326 2.29127E+01 4.68220E+00 1.54655E-01 1.04422E+00 5.25774E-13-1.23165E-12
 -1      1327 2.41367E+01 3.67663E+00 6.18417E-02 6.90717E-02 6.56433E-13-9.30041E-13
 -1      1328 1.66200E+01 3.30427E+00 8.07416E-02 3.83118E+00 8.19789E-13-7.91187E-13
 -1      1329 1.94887E+01 4.07554E+00 2.46241E-01 3.09818E+00 7.56506E-13-9.65956E-13
 -1      1330 2.14142E+01 2.81599E+00 4.74200E-02 2.07331E+00 1.00994E-12-6.75300E-13
 -1      1331 9.41303E+00 2.86514E+00-9.60376E-02 4.46228E+00 8.26672E-13-6.60548E-13
 -1      1332 1.31364E+01 3.77129E+00 2.24425E-01 4.43387E+00 8.56093E-13-7.96606E-13
 -1      1333 1.54278E+01 2.77782E+00 4.17213E-02 3.93174E+00 1.22835E-12-5.84914E-13
 -1      1334 2.39407E+00 2.50855E+00-2.19441E-01 1.54225E+00 1.52912E-13-7.82249E-13
 -1      1335 2.73071E+00 2.58837E+00-1.89734E-01 2.38355E+00 2.47802E-13-7.04381E-13
 -1      1336 4.83252E+00 2.96585E+00-8.90900E-02-4.14135E-01-1.20126E-13-9.87155E-13
 -1      1337 3.01170E+00 2.42505E+00-2.71116E-01 4.26220E-01-6.41709E-14-8.65086E-13
 -1      1338 2.14680E+00 3.40104E+00-8.40879E-02 9.64688E-01 1.31797E-13-8.64100E-13
 -1      1339 1.08938E+01 3.66935E+00 1.38986E-01-1.32626E+00-2.60902E-13-1.04926E-12
 -1      1340 7.47576E+00 2.68991E+00-1.82623E-01-1.09474E+00-2.66343E-13-1.00658E-12
 -1      1341 5.97716E+00 3.28788E+00-2.41681E-02-5.83727E-01-2.63789E-13-9.43787E-13
 -1      1342 1.85006E+01 4.52525E+00 2.78857E-01-5.56640E-01-2.32370E-13-8.31057E-13
 -1      1343 1.46731E+01 3.41239E+00 2.24550E-02-1.12129E+00-2.82885E-13-9.44370E-13
 -1      1344 1.30982E+01 3.02347E+00 1.59978E-02-8.67455E-01-4.28824E-13-8.15709E-13
 -1      1345 2.57321E+01 5.87771E+00 2.48103E-01 1.70593E+00-6.37268E-14-2.10040E-13
 -1      1346 2.23456E+01 4.83067E+00 1.97906E-01 5.19852E-01-1.43663E-13-5.64007E-13
 -1      1347 2.13418E+01 3.33106E+00 5.23662E-02 6.40893E-01-3.08087E-13-4.10741E-13
 -1      1348 3.24983E+01 7.46027E+00 1.62662E-01 4.78183E+00 4.47420E-14 1.10774E-12
 -1      1349 2.92097E+01 6.53700E+00 2.05650E-01 3.10864E+00 3.09752E-14 3.27405E-13
 -1      1350 2.88426E+01 4.53583E+00 8.11919E-02 3.23855E+00-2.45914E-14 4.18804E-13
 -1      1351 4.59758E+01 5.69910E+00 1.96553E+00 7.02299E+00 3.73590E-14 3.46223E-12
 -1      1352 3.56223E+01 5.63618E+00-3.99515E-02 5.11287E+00 4.99600E-15 1.82460E-12
 -1      1353 3.54983E+01 3.76493E+00 9.49322E-02 5.06536E+00 1.90625E-13 1.67155E-12
 -1      1354 3.75425E+01 1.17901E-02-1.01225E+00 1.54017E+00 1.80363E-13 3.47888E-12
 -1      1355 2.19324E+01 2.90586E-01-3.90413E-01-1.60306E+00-5.04999E-13 2.01711E-12
 -1      1356 2.02212E+01 3.67764E-01-1.70551E-01-1.18085E+00-4.47184E-13 1.39481E-12
 -1      1357 1.93538E+01 2.08416E-01-7.75666E-02-6.15352E-01-3.57808E-13 1.18009E-12
 -1      1358 1.86016E+01 1.39488E-01-2.11076E-02-5.28174E-01-3.20067E-13 6.69910E-13
 -1      1359 2.08519E+01 5.01788E-01-1.18190E-01-1.86265E+00-7.63584E-13 4.44776E-13
 -1      1360 1.81044E+01 1.12591E-01-6.64427E-04-2.22059E-01-2.61749E-13 4.93789E-13
 -1      1361 1.78594E+01 8.83194E-02 1.05065E-02-1.79769E-01-2.15333E-13 1.46185E-13
 -1      1362 1.94360E+01 2.17913E-01-5.04503E-02-7.83791E-01-5.62734E-13 1.52336E-13
 -1      1363 1.76715E+01 7.81561E-02 1.06686E-02 1.38291E-02-1.57149E-13-1.10398E-14
 -1      1364 1.77221E+01 6.06089E-02 9.31679E-03 4.77134E-02-1.43221E-13-2.32800E-13
 -1      1365 1.87981E+01 1.33845E-01-2.23571E-02-1.94234E-01-3.81448E-13-1.44272E-13
 -1      1366 1.77421E+01 5.37240E-02 6.72846E-03 1.77721E-01-1.13833E-13-3.21770E-13
 -1      1367 1.79861E+01 3.70471E-02 5.70108E-03 2.00916E-01-9.49588E-14-4.50681E-13
 -1      1368 1.86364E+01 9.02052E-02-1.48017E-02 1.93735E-01-2.58018E-13-3.75665E-13
 -1      1369 1.81409E+01 2.97190E-02 3.72503E-03 2.76799E-01-9.42363E-14-5.38698E-13
 -1      1370 1.84961E+01 1.26931E-02 4.35080E-03 2.87111E-01-8.38652E-14-6.66439E-13
 -1      1371 1.88062E+01 5.19819E-02-9.09409E-03 4.43805E-01-2.01713E-13-5.71379E-13
 -1      1372 1.87182E+01 6.11494E-03 2.76597E-03 3.09766E-01-6.72781E-14-7.16253E-13
 -1      1373 1.91054E+01-8.67127E-03 4.38796E-03 3.07614E-01-5.52728E-14-8.24677E-13
 -1      1374 1.91737E+01 1.34485E-02-2.57929E-03 5.63042E-01-1.56178E-13-6.86764E-13
 -1      1375 1.93364E+01-1.25113E-02 2.57140E-03 2.86107E-01-7.29662E-14-8.35203E-13
 -1      1376 1.96898E+01-2.28321E-02 4.39808E-03 2.74999E-01-5.21647E-14-9.59056E-13
 -1      1377 1.96146E+01-1.92045E-02 3.11846E-03 5.63478E-01-1.14215E-13-7.50324E-13
 -1      1378 1.98878E+01-2.32092E-02 2.21439E-03 2.25788E-01-5.66652E-14-9.53498E-13
 -1      1379 2.01653E+01-2.84851E-02 3.83037E-03 2.10556E-01-5.24732E-14-1.00677E-12
 -1      1380 2.00296E+01-3.98506E-02 6.57256E-03 4.76916E-01-9.46786E-14-7.72313E-13
 -1      1381 2.03086E+01-2.60977E-02 1.54119E-03 1.51381E-01-5.57796E-14-1.01350E-12
 -1      1382 2.04948E+01-2.72153E-02 2.80790E-03 1.36223E-01-3.08087E-15-1.07680E-12
 -1      1383 2.03566E+01-4.70945E-02 7.58532E-03 3.45508E-01-8.06772E-14-7.56095E-13
 -1      1384 2.05791E+01-2.34134E-02 7.68787E-04 8.08123E-02 1.41623E-14-1.10178E-12
 -1      1385 2.06793E+01-2.19036E-02 1.68955E-03 6.83110E-02 1.60406E-14-1.10342E-12
 -1      1386 2.05714E+01-4.38007E-02 6.82387E-03 2.07493E-01-1.13542E-14-7.47797E-13
 -1      1387 2.07120E+01-1.79308E-02 1.33852E-04 2.43378E-02-1.65319E-14-1.09773E-12
 -1      1388 2.07436E+01-1.52443E-02 7.60870E-04 1.54629E-02-2.25156E-14-1.12957E-12
 -1      1389 2.06781E+01-3.46074E-02 5.17946E-03 8.84684E-02-7.40033E-15-8.64592E-13
 -1      1390 2.07375E+01-1.18770E-02-2.53181E-04-1.47532E-02-2.92318E-14-1.11474E-12
 -1      1391 2.07215E+01-9.03551E-03 1.40459E-04-2.01440E-02-2.56843E-14-1.11995E-12
 -1      1392 2.06975E+01-2.36982E-02 3.36284E-03 1.02056E-04-2.37956E-14-8.35243E-13
 -1      1393 2.06903E+01-6.57830E-03-4.02157E-04-3.77503E-02-5.69875E-14-1.14698E-12
 -1      1394 2.06464E+01-4.13810E-03-1.86766E-04-4.03498E-02-7.67342E-14-1.21619E-12
 -1      1395 2.06557E+01-1.37868E-02 1.78615E-03-5.65028E-02-9.00820E-14-8.23060E-13
 -1      1396 2.06018E+01-2.57515E-03-3.84799E-04-4.81021E-02-5.96943E-14-1.20887E-12
 -1      1397 2.05452E+01-7.41566E-04-2.99436E-04-4.87433E-02 4.66055E-15-1.26099E-12
 -1      1398 2.05776E+01-6.11104E-03 6.08893E-04-8.62182E-02-7.75293E-14-7.93189E-13
 -1      1399 2.04962E+01 9.87867E-05-2.81872E-04-4.97071E-02-3.42672E-14-1.23331E-12
 -1      1400 2.04375E+01 1.32974E-03-2.84988E-04-4.91379E-02-4.06090E-14-1.27620E-12
 -1      1401 2.04833E+01-8.77293E-04-1.66169E-04-9.61066E-02-3.68585E-14-8.14818E-13
 -1      1402 2.03900E+01 1.65901E-03-1.55427E-04-4.59923E-02-2.43745E-14-1.33110E-12
 -1      1403 2.03357E+01 2.38877E-03-2.12517E-04-4.47885E-02-2.96188E-14-1.32527E-12
 -1      1404 2.03870E+01 2.25141E-03-6.09277E-04-9.30682E-02-4.67684E-14-8.74588E-13
 -1      1405 2.02932E+01 2.39690E-03-4.21699E-05-3.95713E-02-4.79901E-14-1.35101E-12
 -1      1406 2.02466E+01 2.75433E-03-1.26332E-04-3.81294E-02-3.17735E-14-1.39069E-12
 -1      1407 2.02977E+01 3.80124E-03-8.10296E-04-8.27385E-02-7.56582E-14-9.48063E-13
 -1      1408 2.02106E+01 2.58697E-03 4.21591E-05-3.22333E-02-3.17961E-14-1.44662E-12
 -1      1409 2.01727E+01 2.69206E-03-4.97872E-05-3.08001E-02-2.25478E-14-1.51851E-12
 -1      1410 2.02201E+01 4.28822E-03-8.51663E-04-6.92013E-02-9.90044E-14-1.02685E-12
 -1      1411 2.01437E+01 2.44918E-03 9.52632E-05-2.50825E-02 6.34585E-14-1.52945E-12
 -1      1412 2.01143E+01 2.39867E-03 7.96261E-06-2.37929E-02 1.50131E-14-1.47303E-12
 -1      1413 2.01560E+01 4.13270E-03-7.98376E-04-5.51279E-02 1.56962E-14-1.12394E-12
 -1      1414 2.00918E+01 2.14237E-03 1.21685E-04-1.87150E-02-1.69307E-14-1.35287E-12
 -1      1415 2.00700E+01 2.00727E-03 4.59164E-05-1.76286E-02 6.12550E-14-1.26768E-12
 -1      1416 2.01052E+01 3.64035E-03-6.96900E-04-4.20785E-02 7.81068E-14-1.07462E-12
 -1      1417 2.00532E+01 1.77189E-03 1.28346E-04-1.33832E-02 3.79393E-14-1.27851E-12
 -1      1418 2.00377E+01 1.60053E-03 6.69461E-05-1.25123E-02-2.27649E-14-1.27242E-12
 -1      1419 2.00664E+01 3.01435E-03-5.77902E-04-3.08232E-02 1.07337E-14-9.22617E-13
 -1      1420 2.00256E+01 1.40180E-03 1.22063E-04-9.12554E-03-4.24948E-15-1.19531E-12
 -1      1421 2.00151E+01 1.22471E-03 7.52009E-05-8.45585E-03 2.55856E-14-1.17775E-12
 -1      1422 2.00378E+01 2.37836E-03-4.60010E-04-2.16150E-02 3.95460E-14-8.61035E-13
 -1      1423 2.00068E+01 1.06685E-03 1.08445E-04-5.86033E-03 9.97195E-14-1.13082E-12
 -1      1424 2.00002E+01 9.01628E-04 7.47437E-05-5.36482E-03 7.89667E-14-1.03844E-12
 -1      1425 2.00177E+01 1.79962E-03-3.53359E-04-1.43984E-02 8.98407E-14-7.23116E-13
 -1      1426 1.99947E+01 7.82475E-04 9.16120E-05-3.44918E-03 2.11440E-14-1.00174E-12
 -1      1427 1.99909E+01 6.37862E-04 6.89603E-05-3.09657E-03-5.62665E-14-9.91123E-13
 -1      1428 2.00041E+01 1.30822E-03-2.62462E-04-8.95539E-03 4.48139E-14-6.73575E-13
 -1      1429 1.99876E+01 5.52152E-04 7.43084E-05-1.73642E-03-1.19104E-13-9.98969E-13
 -1      1430 1.99858E+01 4.31223E-04 6.04029E-05-1.49625E-03-8.50017E-14-1.09247E-12
 -1      1431 1.99954E+01 9.11504E-04-1.88351E-04-5.00089E-03-9.94240E-14-5.34829E-13
 -1      1432 1.99841E+01 3.72670E-04 5.81833E-05-5.71986E-04-4.14699E-14-1.19095E-12
 -1      1433 1.99836E+01 2.75099E-04 5.08468E-05-4.17125E-04-4.16455E-14-1.29440E-12
 -1      1434 1.99904E+01 6.04091E-04-1.30076E-04-2.24077E-03-1.94405E-13-6.69177E-13
 -1      1435 1.99829E+01 2.37549E-04 4.40863E-05 1.77054E-04-6.31809E-15-1.28520E-12
 -1      1436 1.99833E+01 1.61174E-04 4.14310E-05 2.69387E-04 3.61074E-14-1.33584E-12
 -1      1437 1.99879E+01 3.74468E-04-8.57042E-05-4.03640E-04-5.29564E-14-8.45704E-13
 -1      1438 1.99833E+01 1.39185E-04 3.23281E-05 6.21959E-04-6.00812E-14-1.25116E-12
 -1      1439 1.99841E+01 8.10221E-05 3.28154E-05 6.70067E-04-3.42568E-14-1.31044E-12
 -1      1440 1.99871E+01 2.09024E-04-5.29444E-05 7.44296E-04-3.93548E-15-7.70220E-13
 -1      1441 1.99845E+01 7.00854E-05 2.28851E-05 8.51983E-04-8.21097E-14-1.32072E-12
 -1      1442 1.99857E+01 2.69600E-05 2.53224E-05 8.70055E-04-1.13435E-13-1.43831E-12
 -1      1443 1.99875E+01 9.43704E-05-2.95192E-05 1.39490E-03-1.13069E-13-7.45938E-13
 -1      1444 1.99863E+01 2.35156E-05 1.55470E-05 9.36248E-04-8.19488E-15-1.35924E-12
 -1      1445 1.99875E+01-7.58595E-06 1.90515E-05 9.34938E-04 8.00797E-14-1.27315E-12
 -1      1446 1.99885E+01 1.85217E-05-1.33603E-05 1.69969E-03-1.03191E-13-5.93162E-13
 -1      1447 1.99882E+01-6.23757E-06 1.00171E-05 9.26619E-04 9.70651E-14-1.31417E-12
 -1      1448 1.99894E+01-2.79865E-05 1.39652E-05 9.13680E-04 1.28357E-13-1.13766E-12
 -1      1449 1.99898E+01-2.86289E-05-2.69508E-06 1.77444E-03 1.33708E-13-5.79168E-13
 -1      1450 1.99901E+01-2.38180E-05 5.97596E-06 8.60820E-04 7.89764E-14-1.10378E-12
 -1      1451 1.99912E+01-3.84747E-05 9.95031E-06 8.41713E-04 3.56497E-14-1.01589E-12
 -1      1452 1.99913E+01-5.52398E-05 3.93287E-06 1.70492E-03 1.75948E-13-5.42202E-13
 -1      1453 1.99919E+01-3.28741E-05 3.11902E-06 7.65401E-04 1.64252E-14-1.01696E-12
 -1      1454 1.99929E+01-4.22854E-05 6.85924E-06 7.43828E-04-8.76288E-15-1.05120E-12
 -1      1455 1.99927E+01-6.76699E-05 7.68122E-06 1.55269E-03 5.43969E-15-6.52024E-13
 -1      1456 1.99935E+01-3.61883E-05 1.17580E-06 6.58351E-04-6.99750E-14-1.00042E-12
 -1      1457 1.99943E+01-4.18206E-05 4.53640E-06 6.36703E-04 2.61326E-14-1.06083E-12
 -1      1458 1.99940E+01-7.07260E-05 9.44394E-06 1.36047E-03 1.27278E-14-6.55930E-13
 -1      1459 1.99949E+01-3.58244E-05-8.23552E-08 5.51278E-04 1.28608E-13-1.07403E-12
 -1      1460 1.99955E+01-3.88130E-05 2.83365E-06 5.30999E-04 1.31512E-13-8.93570E-13
 -1      1461 1.99952E+01-6.79372E-05 9.89338E-06 1.15666E-03 9.17529E-14-6.60724E-13
 -1      1462 1.99960E+01-3.32709E-05-8.41576E-07 4.51171E-04 7.65931E-14-9.34520E-13
 -1      1463 1.99965E+01-3.44747E-05 1.61856E-06 4.33039E-04-3.33099E-14-8.95806E-13
 -1      1464 1.99962E+01-6.18184E-05 9.52209E-06 9.59152E-04 1.07717E-13-8.09910E-13
 -1      1465 1.99969E+01-2.95690E-05-1.24876E-06 3.61774E-04-2.85653E-14-6.70514E-13
 -1      1466 1.99974E+01-2.96230E-05 7.77783E-07 3.46116E-04 3.03738E-14-7.48022E-13
 -1      1467 1.99970E+01-5.41030E-05 8.68105E-06 7.78289E-04-3.49212E-14-5.86515E-13
 -1      1468 1.99977E+01-2.54217E-05-1.41662E-06 2.84632E-04-1.42215E-13-8.15918E-13
 -1      1469 1.99980E+01-2.47845E-05 2.17503E-07 2.71477E-04-2.55180E-13-1.07975E-12
 -1      1470 1.99977E+01-4.59396E-05 7.61265E-06 6.19202E-04-1.83734E-13-5.05476E-13
 -1      1471 1.99983E+01-2.12833E-05-1.42934E-06 2.19856E-04-1.43616E-13-9.78643E-13
 -1      1472 1.99985E+01-2.02778E-05-1.37718E-07 2.09058E-04-6.16154E-14-1.13947E-12
 -1      1473 1.99982E+01-3.80507E-05 6.47810E-06 4.83527E-04-2.47819E-13-5.52462E-13
 -1      1474 1.99987E+01-1.74303E-05-1.34779E-06 1.66684E-04 3.56258E-14-1.07417E-12
 -1      1475 1.99989E+01-1.62778E-05-3.46703E-07 1.57994E-04 5.55530E-14-9.61877E-13
 -1      1476 1.99987E+01-3.08584E-05 5.37946E-06 3.70685E-04-4.44042E-14-5.52560E-13
 -1      1477 1.99991E+01-1.40178E-05-1.21383E-06 1.23860E-04 7.28551E-14-8.50757E-13
 -1      1478 1.99992E+01-1.28649E-05-4.52899E-07 1.16982E-04 1.21500E-13-8.00285E-13
 -1      1479 1.99990E+01-2.45823E-05 4.37715E-06 2.78772E-04 1.50202E-13-4.50909E-13
 -1      1480 1.99993E+01-1.11217E-05-1.05258E-06 8.98885E-05 9.79582E-14-5.49680E-13
 -1      1481 1.99994E+01-1.00616E-05-4.83921E-07 8.45079E-05 1.65171E-13-3.83215E-13
 -1      1482 1.99993E+01-1.93142E-05 3.50377E-06 2.05174E-04 2.56435E-13-1.23122E-13
 -1      1483 1.99995E+01-8.76999E-06-8.72046E-07 6.31898E-05 2.19105E-13-4.00297E-13
 -1      1484 1.99996E+01-7.85592E-06-4.49253E-07 5.89928E-05 1.58607E-13-2.15382E-13
 -1      1485 1.99995E+01-1.50712E-05 2.77550E-06 1.46959E-04 2.38067E-13 1.03010E-13
 -1      1486 1.99996E+01-6.96248E-06-6.60601E-07 4.21967E-05 1.66276E-13-1.26204E-13
 -1      1487 1.99997E+01-6.21378E-06-3.43028E-07 3.88767E-05 1.68656E-13 1.22828E-13
 -1      1488 1.99996E+01-1.18340E-05 2.19901E-06 1.01130E-04 2.58478E-13 2.89158E-13
 -1      1489 1.99997E+01-5.66812E-06-3.95648E-07 2.54286E-05 1.56642E-13 2.14314E-14
 -1      1490 1.99998E+01-5.04048E-06-1.79026E-07 2.26953E-05 1.23132E-13 1.98264E-13
 -1      1491 1.99997E+01-9.56009E-06 1.76628E-06 6.47949E-05 1.60578E-13 2.69360E-13
 -1      1492 1.99998E+01-4.71130E-06-1.07877E-07 1.17378E-05 1.05674E-13 1.74287E-13
 -1      1493 1.99998E+01-4.01332E-06-1.08593E-07 9.37286E-06 9.60231E-14 3.27756E-13
 -1      1494 1.99997E+01-8.05013E-06 1.40213E-06 3.54858E-05 1.13426E-13 6.66414E-14
 -1      1495 1.99998E+01-4.17601E-06-1.96520E-07 7.91068E-07-7.93844E-14 2.92950E-13
 -1      1496 1.99998E+01-2.31442E-06-8.55179E-07-1.29429E-06-1.02275E-13 2.19615E-13
 -1      1497 1.99998E+01-6.55006E-06 9.46783E-07 1.21449E-05-3.53824E-14 1.09160E-13
 -1      1498 1.99998E+01 2.10496E-06-2.10083E-06-3.67423E-06-2.71959E-13 1.84052E-13
 -1      1499 1.99998E+01 8.77000E-07-2.73019E-07-3.24271E-06-2.31070E-13 5.78725E-14
 -1      1500 3.45504E+01-1.28823E-01-1.11738E-01 1.65474E+00 1.49644E-13 3.28720E-12
 -1      1501 3.73118E+01 1.58342E-01-1.37218E-01 1.63006E+00 9.01362E-14 3.52540E-12
 -1      1502 3.63918E+01 7.21157E-01-9.83720E-02 3.82649E+00 2.27691E-13 2.51349E-12
 -1      1503 3.00793E+01 3.02583E-03-7.33707E-02 1.94342E+00 1.83398E-13 2.94867E-12
 -1      1504 3.27311E+01-1.05236E-01-6.92291E-02 1.80515E+00 1.23457E-13 3.14912E-12
 -1      1505 3.31340E+01-1.63370E-01-3.74652E-02 3.43838E+00 2.34916E-13 2.35341E-12
 -1      1506 2.56366E+01 2.52539E-01-2.53091E-01 1.62211E+00 2.62963E-13 2.33517E-12
 -1      1507 2.82525E+01 1.26279E-01-1.27685E-01 1.71580E+00 2.38566E-13 2.68705E-12
 -1      1508 2.97089E+01 9.48949E-02-9.22864E-02 3.44757E+00 4.00138E-13 1.99300E-12
 -1      1509 2.33300E+01 3.12295E-01-3.39615E-01 3.43781E-01 3.57242E-13 1.45210E-12
 -1      1510 2.44747E+01 4.13630E-01-2.54526E-01 7.03067E-01 2.78971E-13 1.94525E-12
 -1      1511 2.67468E+01 6.07381E-01-2.10333E-01 2.07497E+00 5.66450E-13 1.36041E-12
 -1      1512 2.42613E+01 7.11986E-02-1.74979E-01-8.32179E-01 1.97266E-13 6.63136E-13
 -1      1513 2.34042E+01 3.59888E-01-2.22629E-01-5.50352E-01 2.63303E-13 1.08077E-12
 -1      1514 2.56084E+01 6.68205E-01-2.02123E-01-2.63082E-01 5.75859E-13 6.34225E-13
 -1      1515 2.65272E+01-1.39692E-01 3.68359E-02-9.88224E-01 8.25763E-14 1.79134E-13
 -1      1516 2.49306E+01 6.17899E-02-5.61050E-02-9.66965E-01 1.53502E-13 4.56829E-13
 -1      1517 2.62353E+01 1.58904E-01-8.17832E-02-1.60747E+00 3.62405E-13 7.77781E-14
 -1      1518 2.79921E+01-1.58583E-01 1.20108E-01-4.48106E-01 3.93253E-14-1.07414E-14
 -1      1519 2.69532E+01-1.36260E-01 6.43293E-02-5.68080E-01 5.34434E-14 8.91232E-14
 -1      1520 2.71772E+01-2.72793E-01 1.61564E-02-1.31271E+00 1.73859E-13-1.95302E-13
 -1      1521 2.79759E+01-8.18487E-02 8.23547E-02 1.46443E-01 7.24334E-15-3.74527E-14
 -1      1522 2.78913E+01-1.51132E-01 7.90637E-02 2.48002E-02 1.37945E-14 4.65045E-14
 -1      1523 2.73967E+01-3.39310E-01 3.76092E-02-2.77118E-01 3.18356E-14-2.47014E-13
 -1      1524 2.69630E+01-1.83677E-02 2.82282E-02 4.41117E-01-6.17137E-14 5.08447E-14
 -1      1525 2.74989E+01-8.66569E-02 3.83865E-02 3.84003E-01-4.03150E-15 5.04614E-14
 -1      1526 2.67877E+01-1.89293E-01 2.53846E-02 5.54440E-01-1.84887E-14-1.56265E-13
 -1      1527 2.56034E+01 1.35634E-02-3.31739E-03 5.10501E-01-6.75251E-14 2.10755E-13
 -1      1528 2.63576E+01-2.56324E-02 6.68561E-03 4.96128E-01-6.21701E-14 1.02515E-13
 -1      1529 2.57280E+01-5.50479E-02 6.79853E-03 9.09817E-01-6.72839E-14-1.12965E-14
 -1      1530 2.42751E+01 2.36918E-02-1.41824E-02 4.62010E-01 2.11441E-14 2.12042E-13
 -1      1531 2.50091E+01 8.48849E-03-7.77593E-03 4.69481E-01-3.72653E-14 2.02630E-13
 -1      1532 2.45557E+01 1.85080E-02-3.24366E-03 9.41189E-01-6.87987E-14 2.72681E-14
 -1      1533 2.31488E+01 2.30973E-02-1.44634E-02 3.73141E-01 9.99149E-14 5.46681E-14
 -1      1534 2.37629E+01 2.17465E-02-1.03839E-02 3.88100E-01 1.05194E-13 2.15078E-13
 -1      1535 2.34761E+01 4.52822E-02-6.21588E-03 8.16803E-01 1.05892E-13 4.09776E-14
 -1      1536 2.22632E+01 1.88967E-02-1.12898E-02 2.83589E-01 2.82066E-15-3.58706E-14
 -1      1537 2.27385E+01 2.36027E-02-8.31439E-03 2.98944E-01 6.11733E-14 7.84130E-14
 -1      1538 2.25756E+01 4.74501E-02-5.90202E-03 6.48195E-01 9.99209E-14 4.82314E-14
 -1      1539 2.15968E+01 1.42880E-02-7.89684E-03 2.08150E-01-8.36102E-14-2.49106E-15
 -1      1540 2.19488E+01 2.07253E-02-5.47049E-03 2.21256E-01-4.62430E-14-7.38905E-14
 -1      1541 2.18675E+01 4.02512E-02-4.63520E-03 4.89159E-01-1.44147E-14-7.23180E-14
 -1      1542 2.11085E+01 1.03801E-02-5.25337E-03 1.49583E-01-1.80975E-15 2.56206E-14
 -1      1543 2.13625E+01 1.65849E-02-3.22298E-03 1.59896E-01-2.63114E-15-3.30378E-15
 -1      1544 2.13306E+01 3.11373E-02-3.39307E-03 3.58270E-01-5.13175E-14-1.30679E-13
 -1      1545 2.07570E+01 7.38400E-03-3.41707E-03 1.06002E-01 3.69713E-16 1.03532E-13
 -1      1546 2.09373E+01 1.26541E-02-1.75383E-03 1.13791E-01-7.08635E-16 9.33888E-14
 -1      1547 2.09334E+01 2.29846E-02-2.43118E-03 2.57508E-01-1.18408E-14-1.03778E-13
 -1      1548 2.05071E+01 5.19330E-03-2.20137E-03 7.43121E-02-3.77029E-14 1.75771E-14
 -1      1549 2.06336E+01 9.40748E-03-8.80372E-04 8.00680E-02 5.93002E-14 7.38877E-14
 -1      1550 2.06443E+01 1.65451E-02-1.74044E-03 1.82678E-01 7.09250E-14-2.61082E-14
 -1      1551 2.03314E+01 3.62814E-03-1.41115E-03 5.15641E-02 9.67821E-14-1.66233E-14
 -1      1552 2.04191E+01 6.89280E-03-3.89991E-04 5.57685E-02 1.48438E-14 3.06981E-14
 -1      1553 2.04364E+01 1.17459E-02-1.25328E-03 1.28211E-01-1.78581E-14-6.57032E-14
 -1      1554 2.02091E+01 2.52169E-03-8.99714E-04 3.53607E-02-8.97098E-14 5.66677E-14
 -1      1555 2.02693E+01 5.00738E-03-1.26525E-04 3.84117E-02-1.33282E-14-4.85563E-14
 -1      1556 2.02887E+01 8.27167E-03-9.08039E-04 8.90272E-02 3.52038E-14-1.10156E-13
 -1      1557 2.01251E+01 1.74074E-03-5.69048E-04 2.38849E-02 2.04891E-14 6.73394E-14
 -1      1558 2.01659E+01 3.61608E-03 8.20710E-06 2.60873E-02 1.66017E-14 1.15411E-13
 -1      1559 2.01849E+01 5.79036E-03-6.61033E-04 6.10455E-02-4.29583E-14-3.62685E-14
 -1      1560 2.00684E+01 1.16402E-03-3.78028E-04 1.57809E-02-8.66993E-14 8.58333E-14
 -1      1561 2.00955E+01 2.62043E-03 7.61796E-05 1.73782E-02 4.25401E-14 2.71541E-14
 -1      1562 2.01128E+01 4.02274E-03-4.88609E-04 4.11805E-02 4.64418E-14-2.22075E-14
 -1      1563 2.00295E+01 7.54405E-04-2.19215E-04 9.88552E-03 8.92526E-14 4.65493E-14
 -1      1564 2.00476E+01 1.84556E-03 1.00872E-04 1.11104E-02-2.16482E-14 8.67369E-14
 -1      1565 2.00628E+01 2.83167E-03-3.16535E-04 2.69411E-02-4.46435E-14-3.44083E-14
 -1      1566 2.00062E+01 5.26669E-04-1.16496E-04 6.05838E-03 3.84371E-15-2.30339E-13
 -1      1567 2.00168E+01 1.31404E-03 1.11097E-04 6.84912E-03 9.43492E-14-4.52994E-14
 -1      1568 2.00296E+01 1.85255E-03-2.55775E-04 1.69372E-02 1.39067E-13-7.20038E-14
 -1      1569 1.99921E+01 3.41092E-04-5.87367E-05 3.43099E-03 9.61700E-15-1.37860E-13
 -1      1570 1.99982E+01 9.07523E-04 9.64170E-05 3.98758E-03-1.77044E-14-1.84774E-13
 -1      1571 2.00088E+01 1.26150E-03-1.77904E-04 1.02604E-02 4.43924E-15-8.11353E-14
 -1      1572 1.99843E+01 2.11527E-04-2.15465E-05 1.67279E-03-4.33972E-14-1.80678E-13
 -1      1573 1.99874E+01 6.26558E-04 8.62676E-05 2.05797E-03-1.46136E-14-2.12629E-13
 -1      1574 1.99960E+01 8.30995E-04-1.25326E-04 5.70902E-03 5.41030E-15-1.48489E-13
 -1      1575 1.99807E+01 1.22462E-04 1.53626E-06 5.30546E-04-2.00442E-14-8.65795E-14
 -1      1576 1.99818E+01 4.23704E-04 7.51455E-05 7.91497E-04-1.83866E-14-1.41725E-13
 -1      1577 1.99887E+01 5.29161E-04-8.65389E-05 2.67365E-03-6.24689E-14-2.38466E-13
 -1      1578 1.99798E+01 6.23157E-05 1.50591E-05-1.79347E-04 1.13758E-14-1.93141E-13
 -1      1579 1.99797E+01 2.78188E-04 6.39807E-05-7.72350E-06 3.87343E-14-5.72411E-14
 -1      1580 1.99851E+01 3.19664E-04-5.81227E-05 7.12646E-04 6.00113E-15-4.03670E-14
 -1      1581 1.99805E+01 2.27644E-05 2.21910E-05-5.89940E-04-1.12813E-13 1.04261E-13
 -1      1582 1.99797E+01 1.74913E-04 5.34811E-05-4.81859E-04-1.26410E-13-6.26824E-14
 -1      1583 1.99839E+01 1.76405E-04-3.75539E-05-4.94812E-04-1.19586E-13 1.07054E-13
 -1      1584 1.99822E+01-2.22221E-06 2.51199E-05-7.97431E-04-8.63905E-15 1.64970E-13
 -1      1585 1.99810E+01 1.02711E-04 4.40087E-05-7.33869E-04-8.12265E-14 7.53530E-14
 -1      1586 1.99842E+01 8.05755E-05-2.28910E-05-1.18168E-03-1.14230E-13 5.98459E-14
 -1      1587 1.99843E+01-1.70300E-05 2.53620E-05-8.70997E-04 1.45325E-13-8.71215E-14
 -1      1588 1.99830E+01 5.32714E-05 3.57017E-05-8.37978E-04 1.08397E-13 6.53616E-14
 -1      1589 1.99854E+01 1.85258E-05-1.26483E-05-1.51659E-03 1.20348E-13-1.72268E-13
 -1      1590 1.99866E+01-2.48512E-05 2.39685E-05-8.59911E-04-5.26880E-14-1.70251E-13
 -1      1591 1.99852E+01 2.03800E-05 2.85706E-05-8.47246E-04-4.10741E-14-1.77017E-13
 -1      1592 1.99870E+01-1.97012E-05-5.68542E-06-1.62074E-03 7.88556E-14-1.08517E-13
 -1      1593 1.99888E+01-2.80011E-05 2.16631E-05-7.98773E-04-2.49198E-14-6.17593E-15
 -1      1594 1.99875E+01-6.14225E-07 2.25552E-05-7.99122E-04-4.04077E-15 1.18991E-15
 -1      1595 1.99888E+01-4.13806E-05-1.12715E-06-1.58039E-03-1.32633E-13-1.81059E-13
 -1      1596 1.99908E+01-2.81447E-05 1.89366E-05-7.11399E-04 1.28076E-13-1.97887E-13
 -1      1597 1.99897E+01-1.31865E-05 1.75582E-05-7.19553E-04 6.07379E-14-1.05469E-13
 -1      1598 1.99906E+01-5.18166E-05 1.69554E-06-1.45591E-03 8.46787E-14-1.88518E-13
 -1      1599 1.99926E+01-2.64891E-05 1.60889E-05-6.13730E-04-1.04329E-13-3.16063E-13
 -1      1600 1.99916E+01-1.99287E-05 1.34656E-05-6.26066E-04 2.87671E-14-3.77704E-13
 -1      1601 1.99923E+01-5.48611E-05 3.28797E-06-1.28871E-03 1.45586E-13-3.87250E-13
 -1      1602 1.99942E+01-2.37779E-05 1.37742E-05-5.16186E-04 1.31161E-13-3.89348E-13
 -1      1603 1.99933E+01-2.26543E-05 1.02047E-05-5.29938E-04 2.88492E-14-2.69614E-13
 -1      1604 1.99938E+01-5.33782E-05 4.06972E-06-1.10643E-03-2.96435E-14-4.63808E-13
 -1      1605 1.99955E+01-2.07312E-05 1.08562E-05-4.20211E-04-8.06738E-16-4.48304E-13
 -1      1606 1.99948E+01-2.24905E-05 7.77302E-06-4.35373E-04 1.08126E-14-4.64327E-13
 -1      1607 1.99951E+01-4.90142E-05 3.79459E-06-9.22431E-04 9.44414E-14-3.43914E-13
 -1      1608 1.99966E+01-1.73081E-05 8.66364E-06-3.38378E-04 1.84827E-14-6.15717E-13
 -1      1609 1.99960E+01-2.15458E-05 5.38126E-06-3.51663E-04 1.03587E-13-4.51984E-13
 -1      1610 1.99962E+01-4.29205E-05 4.14250E-06-7.51267E-04 1.55791E-13-4.44199E-13
 -1      1611 1.99974E+01-1.43223E-05 6.82803E-06-2.67724E-04-3.84013E-16-5.80669E-13
 -1      1612 1.99970E+01-1.94045E-05 3.85603E-06-2.79757E-04-6.58815E-14-6.74524E-13
 -1      1613 1.99970E+01-3.67243E-05 3.75792E-06-6.03129E-04-2.70811E-14-4.48521E-13
 -1      1614 1.99981E+01-1.16003E-05 5.27822E-06-2.08124E-04-6.00079E-15-5.05984E-13
 -1      1615 1.99977E+01-1.68517E-05 2.67714E-06-2.18589E-04 6.22302E-14-4.77581E-13
 -1      1616 1.99977E+01-3.07062E-05 3.29864E-06-4.75634E-04-4.27658E-14-4.86732E-13
 -1      1617 1.99986E+01-9.22828E-06 4.00750E-06-1.58969E-04 1.53354E-13-8.74657E-13
 -1      1618 1.99983E+01-1.42500E-05 1.79169E-06-1.67818E-04 9.44350E-14-5.77484E-13
 -1      1619 1.99983E+01-2.51199E-05 2.81495E-06-3.68562E-04 1.04214E-13-5.83341E-13
 -1      1620 1.99990E+01-7.22492E-06 2.98874E-06-1.19197E-04-3.87567E-13-3.53598E-13
 -1      1621 1.99988E+01-1.17880E-05 1.14244E-06-1.26518E-04-1.86345E-13-7.30405E-13
 -1      1622 1.99987E+01-2.01701E-05 2.34604E-06-2.80556E-04-1.65704E-13-4.87682E-13
 -1      1623 1.99992E+01-5.58247E-06 2.19230E-06-8.75368E-05-2.98368E-14 2.05525E-13
 -1      1624 1.99991E+01-9.58167E-06 6.78638E-07-9.34900E-05-2.53303E-13-1.88007E-13
 -1      1625 1.99991E+01-1.59356E-05 1.91992E-06-2.09541E-04-5.64537E-13-7.13027E-14
 -1      1626 1.99995E+01-4.28089E-06 1.59489E-06-6.26347E-05 4.86519E-14 2.40683E-13
 -1      1627 1.99993E+01-7.69823E-06 3.60601E-07-6.74270E-05 7.11967E-14 3.94213E-13
 -1      1628 1.99993E+01-1.24330E-05 1.55539E-06-1.53088E-04-6.24875E-14 1.26154E-13
 -1      1629 1.99996E+01-3.28317E-06 1.18876E-06-4.31486E-05-1.65314E-13 2.45430E-13
 -1      1630 1.99995E+01-6.16647E-06 1.65570E-07-4.70062E-05-7.90613E-14 6.25869E-14
 -1      1631 1.99995E+01-9.64205E-06 1.26882E-06-1.08654E-04-3.19594E-14 7.78106E-14
 -1      1632 1.99997E+01-2.55986E-06 9.86657E-07-2.78012E-05 4.14069E-14 3.60509E-13
 -1      1633 1.99997E+01-5.00263E-06 9.23203E-08-3.09700E-05-1.30637E-13 2.29067E-13
 -1      1634 1.99996E+01-7.52110E-06 1.07986E-06-7.37512E-05-1.39895E-13 1.87105E-13
 -1      1635 1.99998E+01-2.04644E-06 9.24100E-07-1.54143E-05 2.01754E-13-6.69546E-14
 -1      1636 1.99997E+01-4.19705E-06 1.47235E-07-1.81441E-05 1.96854E-13 2.58813E-13
 -1      1637 1.99997E+01-6.04131E-06 9.94631E-07-4.60308E-05 1.13417E-13-1.40382E-13
 -1      1638 1.99998E+01-1.66415E-06 7.13144E-07-4.90677E-06-3.70775E-14-3.73351E-13
 -1      1639 1.99998E+01-3.66964E-06 2.34714E-07-7.60034E-06 4.53140E-14-2.27458E-13
 -1      1640 1.99998E+01-5.21297E-06 9.28588E-07-2.36647E-05 3.02516E-13-3.04997E-13
 -1      1641 1.99998E+01-2.67448E-07-7.54873E-08 3.36490E-06-1.55936E-13-1.21108E-13
 -1      1642 1.99998E+01-3.10227E-06 5.46727E-08 8.43300E-08-2.50127E-13-4.49052E-13
 -1      1643 1.99998E+01-3.58579E-06 6.91606E-07-5.49361E-06-1.73625E-13-4.79694E-13
 -1      1644 1.99998E+01 3.43645E-06-2.03257E-06 3.74879E-06-5.65196E-14-1.35010E-13
 -1      1645 1.99998E+01 1.31042E-06 2.41683E-07-1.72050E-06-6.71738E-13-5.46375E-15
 -1      1646 1.99998E+01 5.74671E-07-4.92424E-07 8.30415E-07-3.53115E-13-3.99808E-13
 -1      1647 1.99998E+01-2.13993E-05 5.98707E-07-1.20409E-05-4.30190E-13 2.50863E-13
 -1      1648 1.99998E+01-1.00484E-05 3.98711E-07-9.74050E-06-6.47752E-13 1.67429E-13
 -1      1649 1.99998E+01-1.95394E-05 7.79476E-07-1.27958E-05-5.42467E-13-1.08682E-13
 -1      1650 1.99998E+01-6.17477E-05 4.04087E-07-2.06368E-05-4.49526E-13 3.33492E-14
 -1      1651 1.99998E+01-3.96102E-05 4.09050E-07-1.91363E-05-4.63834E-13 1.55191E-13
 -1      1652 1.99998E+01-4.94132E-05 9.53429E-07-3.11536E-05-5.01958E-13 9.75551E-14
 -1      1653 1.99998E+01-1.12883E-04 1.96618E-07-2.48600E-05-4.04588E-13-1.66991E-13
 -1      1654 1.99998E+01-8.48273E-05 2.36112E-07-2.43873E-05-3.80085E-13 1.20454E-14
 -1      1655 1.99998E+01-9.14471E-05 4.60212E-07-4.41187E-05-3.14243E-13-2.68971E-14
 -1      1656 1.99998E+01-1.64143E-04 6.74550E-08-2.40532E-05-6.74402E-13 2.81450E-14
 -1      1657 1.99998E+01-1.36607E-04 9.48657E-08-2.45944E-05-4.46816E-13-2.49632E-13
 -1      1658 1.99998E+01-1.38811E-04-1.15273E-07-4.81508E-05-2.59362E-13-2.02394E-13
 -1      1659 1.99998E+01-2.07542E-04-1.44079E-08-1.85676E-05-3.66262E-13 1.41638E-13
 -1      1660 1.99998E+01-1.85220E-04 3.12086E-09-1.99870E-05-5.97894E-13 3.56771E-13
 -1      1661 1.99998E+01-1.83976E-04-6.58688E-07-4.27804E-05-2.77029E-13 1.44964E-13
 -1      1662 1.99998E+01-2.34094E-04-5.25317E-08-9.58986E-06-2.96713E-13-6.09282E-14
 -1      1663 1.99998E+01-2.21804E-04-4.38148E-08-1.15762E-05-2.13246E-13-6.64443E-14
 -1      1664 1.99998E+01-2.19499E-04-1.06798E-06-2.92489E-05-3.56430E-13 2.15430E-13
 -1      1665 1.99998E+01-2.39035E-04-6.10871E-08 1.14760E-06-5.58361E-13-2.23200E-13
 -1      1666 1.99998E+01-2.39098E-04-6.08901E-08-1.03470E-06-3.49446E-13-2.39067E-14
 -1      1667 1.99998E+01-2.38853E-04-1.28547E-06-1.03043E-05-1.97138E-13-1.81261E-13
 -1      1668 1.99998E+01-2.21511E-04-4.18747E-08 1.16750E-05-8.62746E-13 7.05984E-14
 -1      1669 1.99998E+01-2.33919E-04-5.22775E-08 9.69399E-06-8.72082E-13-1.18682E-13
 -1      1670 1.99998E+01-2.38738E-04-1.28380E-06 1.05177E-05-2.57247E-13-4.39782E-13
 -1      1671 1.99998E+01-1.84750E-04 1.06204E-08 2.00488E-05-1.31479E-12-3.90989E-13
 -1      1672 1.99998E+01-2.07160E-04-1.79852E-08 1.86447E-05-9.46634E-13-1.11638E-13
 -1      1673 1.99998E+01-2.19178E-04-1.06104E-06 2.94226E-05-4.71750E-13-1.26986E-13
 -1      1674 1.99998E+01-1.36493E-04 9.42275E-08 2.45864E-05-1.35484E-12 2.92323E-13
 -1      1675 1.99998E+01-1.64043E-04 6.52269E-08 2.40498E-05-1.29541E-12-2.18268E-13
 -1      1676 1.99998E+01-1.83873E-04-6.63253E-07 4.28206E-05-7.42522E-13-4.30312E-13
 -1      1677 1.99998E+01-8.43087E-05 2.33846E-07 2.43601E-05-9.30272E-13 9.33944E-14
 -1      1678 1.99998E+01-1.12329E-04 2.03212E-07 2.48464E-05-1.31379E-12 5.30564E-13
 -1      1679 1.99998E+01-1.38674E-04-1.14289E-07 4.81439E-05-4.23597E-13 5.07037E-13
 -1      1680 1.99998E+01-3.90871E-05 4.57908E-07 1.90108E-05-7.30451E-13 2.63809E-13
 -1      1681 1.99998E+01-6.12429E-05 4.06824E-07 2.05273E-05-9.50725E-13 1.08237E-13
 -1      1682 1.99998E+01-9.08784E-05 4.71279E-07 4.40154E-05-4.31069E-13 2.77053E-13
 -1      1683 1.99998E+01-1.00214E-05 1.56791E-07 1.00045E-05-4.70092E-13 1.92813E-13
 -1      1684 1.99998E+01-2.12269E-05 6.43737E-07 1.22763E-05-7.66416E-13 4.49564E-13
 -1      1685 1.99998E+01-4.93426E-05 9.30600E-07 3.08626E-05-3.03827E-13 3.45666E-13
 -1      1686 1.99998E+01-3.60135E-06-6.21029E-07 2.41766E-06-3.56952E-13-1.38451E-13
 -1      1687 1.99998E+01-4.08140E-06 5.71686E-07 4.99290E-06-3.52675E-13-9.62934E-14
 -1      1688 1.99998E+01-2.65725E-05-5.96306E-08 1.75182E-05-2.61826E-13 3.04803E-13
 -1      1689 1.99998E+01-1.44018E-05-7.21146E-07 7.38022E-06-1.75765E-13-2.04109E-14
 -1      1690 1.74317E-02-9.25578E+00-1.52637E+00-1.92717E-01 3.08703E-12 1.28114E-12
 -1      1691-1.30646E-01-1.12612E+01-1.66716E+00 4.60068E-01 1.89182E-12 8.77798E-13
 -1      1692 2.57873E+00-3.54024E+00-1.18823E+00 2.10376E+00 4.04676E-12 2.12544E-12
 -1      1693 1.41535E+00-8.40988E+00-1.68449E+00 9.61893E-01 3.53684E-12 1.41837E-12
 -1      1694 1.09008E+01 2.98591E+00-4.17226E-01 7.43499E+00 3.82916E-12 2.86882E-12
 -1      1695 6.49522E+00-2.02658E+00-1.20961E+00 3.91370E+00 3.86402E-12 2.29111E-12
 -1      1696 2.27964E+01 7.54821E+00 4.66131E-01 1.25207E+01 3.30447E-12 3.42260E-12
 -1      1697 1.50949E+01 5.03357E+00-5.15825E-01 8.83065E+00 3.89688E-12 3.23597E-12
 -1      1698 3.81741E+01 7.61954E+00 1.38914E+00 1.45575E+01 2.20379E-12 2.92788E-12
 -1      1699 2.84395E+01 8.03918E+00 4.26867E-01 1.31070E+01 3.00038E-12 3.32756E-12
 -1      1700 5.16623E+01 5.50962E+00 2.12290E+00 1.14485E+01 1.26397E-12 1.39777E-12
 -1      1701 4.32806E+01 7.56416E+00 1.43398E+00 1.38173E+01 1.88957E-12 2.54674E-12
 -1      1702 5.67615E+01 3.76600E+00 2.23284E+00 3.84816E+00 8.26283E-13-8.25937E-13
 -1      1703 5.41833E+01 5.23005E+00 2.12619E+00 9.37430E+00 1.09171E-12 7.10709E-13
 -1      1704 4.97975E+01 3.60166E+00 1.54144E+00-3.62481E+00 1.32491E-12-2.82840E-12
 -1      1705 5.54726E+01 3.30377E+00 2.12381E+00 1.67515E+00 9.23595E-13-1.39982E-12
 -1      1706 3.50411E+01 3.62052E+00 3.34904E-01-7.75707E+00 2.27435E-12-4.28968E-12
 -1      1707 4.62055E+01 2.78839E+00 1.52011E+00-6.36102E+00 1.48950E-12-3.60512E-12
 -1      1708 1.86499E+01 1.64171E+00-9.60195E-01-5.58571E+00 3.19622E-12-4.09817E-12
 -1      1709 2.88441E+01 2.82669E+00 2.35734E-01-8.05587E+00 2.55684E-12-4.27525E-12
 -1      1710 7.64863E+00-1.01047E+00-1.47371E+00-2.44539E+00 3.27660E-12-3.14110E-12
 -1      1711 1.29866E+01 1.33321E+00-8.80111E-01-5.16241E+00 3.20133E-12-3.83071E-12
 -1      1712 1.37450E+00-2.45706E+00-1.42108E+00-1.34456E-01 3.07454E-12-2.12887E-12
 -1      1713 2.73470E+00-5.80182E-01-1.40788E+00-1.19311E+00 3.53184E-12-2.96810E-12
 -1      1714-1.70186E-01-1.97106E+00-7.66659E-01 6.65658E-01 1.85697E-12-1.10956E-12
 -1      1715-5.01501E-02-1.88224E+00-1.05019E+00 8.38932E-01 2.69176E-12-1.75461E-12
 -1      1716-2.27761E-01-1.17290E+00-4.61434E-01 7.31499E-01 8.28115E-13-5.22471E-13
 -1      1717-4.49436E-01-2.17275E+00-6.80509E-01 1.21722E+00 1.75066E-12-7.67553E-13
 -1      1718 5.01656E-01 1.02093E+00-4.01506E-01 1.13781E+00-4.11393E-13-6.39253E-13
 -1      1719 1.55090E-01-4.39201E-01-4.59666E-01 1.04597E+00 5.35488E-13-4.95465E-13
 -1      1720 2.10606E+00 3.40726E+00-6.12661E-01 2.60426E+00-1.60183E-12-1.18650E-12
 -1      1721 1.18753E+00 1.63129E+00-6.28966E-01 1.71837E+00-7.96807E-13-6.76469E-13
 -1      1722 7.68831E+00 5.54239E+00-5.61794E-01 6.10297E+00-2.10354E-12-2.05491E-12
 -1      1723 4.75589E+00 3.70177E+00-7.87521E-01 4.06641E+00-1.64291E-12-1.37157E-12
 -1      1724 1.64954E+01 6.69733E+00-2.31897E-01 9.50482E+00-2.39320E-12-2.88136E-12
 -1      1725 1.12248E+01 5.64550E+00-7.43791E-01 7.22828E+00-2.41318E-12-2.34873E-12
 -1      1726 2.85422E+01 6.07475E+00 3.71252E-01 1.11013E+01-1.97992E-12-3.16702E-12
 -1      1727 2.10300E+01 6.49350E+00-3.10817E-01 9.98357E+00-2.42067E-12-3.07931E-12
 -1      1728 4.08405E+01 4.14326E+00 9.88006E-01 8.33111E+00-1.26071E-12-2.46747E-12
 -1      1729 3.32698E+01 5.52278E+00 3.51682E-01 9.92285E+00-1.78460E-12-2.99638E-12
 -1      1730 4.85598E+01 3.08372E+00 1.39553E+00 2.09107E+00-7.77878E-13-1.11644E-12
 -1      1731 4.40919E+01 4.00129E+00 1.01185E+00 6.35545E+00-1.09827E-12-2.10565E-12
 -1      1732 4.84985E+01 4.07966E+00 1.48139E+00-5.77550E+00-8.51125E-13 5.36821E-13
 -1      1733 4.92047E+01 3.37490E+00 1.41457E+00-5.86263E-01-7.32470E-13-6.34937E-13
 -1      1734 4.15611E+01 6.25845E+00 1.26485E+00-1.15647E+01-1.27252E-12 1.95233E-12
 -1      1735 4.72708E+01 4.36584E+00 1.58471E+00-8.26427E+00-8.57731E-13 1.13864E-12
 -1      1736 2.90683E+01 7.72582E+00 6.43768E-01-1.24670E+01-2.01383E-12 2.55351E-12
 -1      1737 3.75106E+01 6.53784E+00 1.29636E+00-1.25434E+01-1.44701E-12 2.23754E-12
 -1      1738 1.75958E+01 6.57791E+00-2.31333E-02-1.00605E+01-2.39775E-12 2.49456E-12
 -1      1739 2.43493E+01 7.57527E+00 7.01532E-01-1.24815E+01-2.13296E-12 2.74014E-12
 -1      1740 9.07898E+00 2.47203E+00-6.69820E-01-6.03321E+00-2.22977E-12 1.95066E-12
 -1      1741 1.36606E+01 5.62154E+00 5.00966E-02-9.08368E+00-2.42295E-12 2.40818E-12
 -1      1742 3.69308E+00-3.42357E+00-1.22423E+00-2.54660E+00-1.47637E-12 1.20898E-12
 -1      1743 5.98363E+00 1.00923E+00-5.97760E-01-4.78122E+00-2.06235E-12 1.84475E-12
 -1      1744 9.20836E-01-9.05064E+00-1.61470E+00-7.62585E-01-9.32587E-14 6.75682E-13
 -1      1745 1.61022E+00-4.98844E+00-1.17464E+00-1.34813E+00-1.09934E-12 1.09213E-12
 -1      1746-2.29485E-01-1.16595E+01-1.72220E+00-6.73307E-01 1.51756E-12 6.26887E-13
 -1      1747-1.01819E-01-9.89372E+00-1.54743E+00 1.27808E-01 3.59712E-13 6.06765E-13
 -1      1748 3.83474E+00 2.66358E+00-1.99387E-01 3.31740E+00 5.14228E-13-6.73128E-13
 -1      1749 6.10954E+00 3.28588E+00 1.66194E-02 3.96961E+00 6.35103E-13-7.05533E-13
 -1      1750 2.93138E+01 3.35615E+00 4.63108E-01 9.03895E+00 2.24087E-12 1.82121E-12
 -1      1751 1.82760E+01-5.41895E-01-3.25720E-01 7.98824E+00 2.26918E-12 1.82193E-12
 -1      1752 1.99998E+01-3.18902E-06-6.00821E-07 2.21397E-06-8.60251E-14-4.14278E-13
 -1      1753 1.85688E+00-5.81137E+00-1.07190E+00 3.06264E+00 1.81682E-12 1.51651E-12
 -1      1754 8.78601E+00-3.51937E+00-6.87596E-01 6.19205E+00 2.18381E-12 1.62989E-12
 -1      1755-4.10319E-01-6.62686E+00-1.13136E+00-2.47008E-02 1.23943E-12 1.43097E-12
 -1      1756 3.99183E+01 5.87456E+00 1.21202E+00 8.28318E+00 1.91645E-12 1.29918E-12
 -1      1757 4.69630E+01 7.36630E+00 1.73204E+00 5.97907E+00 1.71885E-12 3.43059E-13
 -1      1758 4.76950E+01 7.36026E+00 1.70951E+00 3.27772E+00 1.65795E-12-7.12097E-13
 -1      1759 4.38317E+01 4.68340E+00 1.31482E+00 2.56718E-01 1.68393E-12-1.64901E-12
 -1      1760 3.38625E+01 8.61681E-01 3.44438E-01-2.40746E+00 1.80611E-12-2.42739E-12
 -1      1761 2.13262E+01-1.65068E+00-5.09616E-01-3.49638E+00 1.74855E-12-2.34263E-12
 -1      1762 9.66815E+00-1.39316E+00-8.54524E-01-3.19893E+00 1.77297E-12-2.23752E-12
 -1      1763 2.14985E+00-2.28947E-01-7.63802E-01-1.08503E+00 1.47413E-12-1.84314E-12
 -1      1764-3.35760E-01 2.74670E-01-4.98832E-01 6.58053E-01 1.13773E-12-1.34892E-12
 -1      1765-1.52491E-01 9.23750E-01-3.33100E-01 1.58316E+00 6.91280E-13-1.00583E-12
 -1      1766 1.55515E+00 2.23750E+00-3.37455E-01 2.60435E+00 1.48465E-13-1.00825E-12
 -1      1767 5.83993E+00 3.27922E+00-3.80742E-01 4.60622E+00-3.48999E-13-1.21572E-12
 -1      1768 1.30373E+01 3.57688E+00-3.48258E-01 6.51840E+00-7.44294E-13-1.47837E-12
 -1      1769 2.20431E+01 3.99853E+00-5.63290E-02 7.34827E+00-1.27742E-12-1.79590E-12
 -1      1770 3.16106E+01 4.66703E+00 4.76659E-01 6.11245E+00-1.40343E-12-1.76814E-12
 -1      1771 3.91309E+01 5.61027E+00 9.53375E-01 3.11214E+00-1.34638E-12-1.33399E-12
 -1      1772 4.24960E+01 6.85677E+00 1.23517E+00-5.94916E-01-1.31783E-12-7.28306E-13
 -1      1773 4.21875E+01 7.05452E+00 1.32118E+00-4.29653E+00-1.25494E-12 3.57769E-14
 -1      1774 3.72961E+01 6.25384E+00 1.09858E+00-7.10175E+00-1.24671E-12 8.00915E-13
 -1      1775 2.90341E+01 4.52128E+00 6.46669E-01-8.46324E+00-1.24217E-12 1.22835E-12
 -1      1776 2.00501E+01 2.05334E+00 1.32021E-01-8.31152E+00-1.14286E-12 1.43885E-12
 -1      1777 1.19926E+01-1.02544E+00-3.74193E-01-6.96074E+00-8.04801E-13 1.47971E-12
 -1      1778 5.40339E+00-4.11148E+00-8.18657E-01-4.98420E+00-2.74114E-13 1.34785E-12
 -1      1779 1.04499E+00-6.37125E+00-1.11724E+00-2.74612E+00 4.60521E-13 1.27673E-12
 -1      1780 7.62614E+00 3.40755E+00 2.36524E-02 4.12049E+00 1.06212E-12-6.77985E-13
 -1      1781 2.20979E+01 4.52315E+00-8.36728E-02-5.10954E+00-5.26829E-13 1.00378E-13
 -1      1782 2.32037E+01 1.23754E+00-1.48660E-01-2.84908E+00-5.43940E-13 1.70236E-12
 -1      1783 2.67781E+00 3.50565E+00-5.78240E-02 2.76019E+00 6.27665E-13-7.72993E-13
 -1      1784 2.22340E+01 4.45004E+00-3.86204E-02-3.23370E+00-4.77601E-13-1.15619E-12
 -1      1785 2.18985E+01 4.25335E+00-5.00472E-02-3.50405E+00-6.32810E-13-1.03390E-12
 -1      1786 2.17061E+01 3.79474E+00-4.47469E-02-3.61128E+00-6.83075E-13-8.13329E-13
 -1      1787 2.16556E+01 3.39336E+00-5.73998E-02-3.81599E+00-8.07366E-13-4.44457E-13
 -1      1788 2.20338E+01 3.34051E+00 8.41048E-03-3.23436E+00-7.19852E-13-8.42923E-13
 -1      1789 2.42034E+01 4.51696E+00-2.90864E-02-2.33268E+00 5.52093E-14-1.10635E-12
 -1      1790 2.36554E+01 4.67510E+00-4.98613E-02-2.65205E+00-1.04061E-13-1.18761E-12
 -1      1791 2.50598E+01 3.79672E+00-1.32050E-02-1.53363E+00 3.61588E-13-8.30586E-13
 -1      1792 2.46882E+01 4.17779E+00-6.97766E-02-2.03523E+00 1.82370E-13-9.94118E-13
 -1      1793 2.47988E+01 4.07856E+00 3.77132E-03-2.45514E+00 4.02386E-14-9.27144E-13
 -1      1794 2.48334E+01 2.71934E+00 3.52734E-03-1.17223E-01 7.02893E-13-4.89558E-13
 -1      1795 2.51623E+01 3.17814E+00-7.51764E-02-8.86646E-01 4.96631E-13-6.58223E-13
 -1      1796 2.56977E+01 3.28099E+00-6.26155E-03-1.76251E+00 3.10325E-13-5.94261E-13
 -1      1797 1.40231E+01 2.49912E+00-4.42813E-02 4.63820E+00 1.16834E-12-4.73732E-13
 -1      1798 1.83593E+01 2.30308E+00 1.01158E-01 3.94336E+00 1.16115E-12-4.51490E-13
 -1      1799 2.22711E+01 1.99555E+00 4.16996E-02-3.58980E+00-7.57963E-13 4.77451E-13
 -1      1800 7.01179E+00 3.19616E+00 1.01345E-01-1.09695E+00-2.73392E-13-1.02574E-12
 -1      1801 3.73205E+00 3.29369E+00-3.60794E-02-5.60466E-01-1.01669E-13-9.96925E-13
 -1      1802 3.22411E+01 1.54743E+00 2.40062E-01 6.63525E+00 1.50613E-12 7.26419E-13
 -1      1803 2.70816E+01-4.12552E-02-1.33219E-01 6.61799E+00 1.56775E-12 8.96283E-13
 -1      1804 2.45771E+01 1.95809E+00 3.08719E-02 1.40797E+00-2.58016E-13-7.64944E-14
 -1      1805 2.05030E+01 1.66144E+00 3.83550E-02 2.02340E-01-4.30045E-13-3.50303E-13
 -1      1806 3.14302E+01 2.56588E+00-8.96186E-02 4.23698E+00 5.02653E-14 9.03666E-13
 -1      1807 2.81809E+01 2.15620E+00 3.16345E-03 2.99108E+00-1.30257E-13 3.55035E-13
 -1      1808 3.55956E+01 7.53057E-01-1.91154E-01 4.32096E+00 1.92076E-13 1.95161E-12
 -1      1809 3.33902E+01 2.53239E+00 9.15161E-02 4.72066E+00 1.36863E-13 1.33049E-12
 -1      1810 3.22338E+01 4.43027E-01-6.02991E-02 4.35391E+00 1.14020E-13 1.11261E-12
 -1      1811 3.40673E+01-1.34295E-02-1.38816E-01 3.91898E+00 2.31863E-13 1.96819E-12
 -1      1812 3.20063E+01-2.42568E-01-3.67434E-02 4.37059E+00 3.81459E-13 1.82556E-12
 -1      1813 3.36116E+01-4.39164E-01-6.95937E-02 4.14146E+00 2.49807E-13 1.92813E-12
 -1      1814 3.32250E+01-2.38730E-01-1.60550E-02 4.81732E+00 2.59959E-13 1.50569E-12
 -1      1815 2.06307E+01 7.42860E-01 3.21093E-02-1.37453E+00-6.41136E-13-7.95176E-14
 -1      1816 2.00770E+01 5.99328E-01 1.40647E-02-9.18994E-01-5.44138E-13-2.35327E-13
 -1      1817 1.98224E+01 5.04741E-01 3.81474E-02-5.24663E-01-4.80463E-13-2.49814E-13
 -1      1818 1.95949E+01 4.19767E-01 1.98578E-02-2.38041E-01-3.96214E-13-3.77862E-13
 -1      1819 2.06342E+01 8.19755E-01-2.14103E-02-9.89025E-01-6.11606E-13-4.36397E-13
 -1      1820 1.94635E+01 3.52894E-01 2.54748E-02 6.24043E-02-3.40685E-13-4.03112E-13
 -1      1821 1.94477E+01 2.84918E-01 1.27308E-02 2.53808E-01-2.84165E-13-5.00103E-13
 -1      1822 2.02148E+01 5.79235E-01-1.43639E-02-1.90461E-01-4.56801E-13-5.09274E-13
 -1      1823 1.94398E+01 2.22748E-01 1.65888E-02 4.55194E-01-2.59507E-13-5.33080E-13
 -1      1824 1.95582E+01 1.52640E-01 5.99393E-03 5.67065E-01-2.11818E-13-6.11541E-13
 -1      1825 2.00838E+01 3.79572E-01-9.77685E-03 3.77224E-01-3.34782E-13-5.59531E-13
 -1      1826 1.96290E+01 8.98190E-02 9.00364E-03 6.65625E-01-1.92906E-13-6.22505E-13
 -1      1827 1.98176E+01 2.58892E-02 1.53199E-03 7.01103E-01-1.55953E-13-6.92091E-13
 -1      1828 2.01521E+01 1.83385E-01-5.03991E-03 7.17115E-01-2.36271E-13-5.99263E-13
 -1      1829 1.99151E+01-2.61464E-02 2.34529E-03 7.06768E-01-1.23020E-13-6.88707E-13
 -1      1830 2.01200E+01-7.17893E-02-7.44613E-04 6.79824E-01-5.96410E-14-7.03052E-13
 -1      1831 2.03246E+01 4.73486E-03-5.14701E-04 8.34371E-01-1.64177E-13-6.38777E-13
 -1      1832 2.02051E+01-1.04148E-01-2.92107E-03 6.19203E-01-7.33107E-14-6.84810E-13
 -1      1833 2.03867E+01-1.26126E-01-1.50938E-03 5.53499E-01-5.63943E-14-6.67386E-13
 -1      1834 2.05106E+01-1.25854E-01 2.27160E-03 7.72044E-01-7.27898E-14-6.16529E-13
 -1      1835 2.04400E+01-1.37822E-01-6.15902E-03 4.59956E-01-6.13324E-14-6.53500E-13
 -1      1836 2.05758E+01-1.39070E-01-1.48395E-03 3.80280E-01-2.76519E-14-6.35162E-13
 -1      1837 2.06524E+01-1.93079E-01 3.14824E-03 5.99422E-01-4.27694E-14-6.14837E-13
 -1      1838 2.05941E+01-1.35208E-01-7.28693E-03 2.82636E-01-6.33877E-14-6.41522E-13
 -1      1839 2.06775E+01-1.23207E-01-1.14992E-03 2.07866E-01-1.73290E-14-6.56463E-13
 -1      1840 2.07276E+01-2.03123E-01 2.78388E-03 3.86894E-01-6.16915E-14-5.82801E-13
 -1      1841 2.06669E+01-1.10875E-01-6.79273E-03 1.24523E-01-2.31276E-14-7.08539E-13
 -1      1842 2.07024E+01-9.33519E-02-7.54250E-04 6.51267E-02 2.02824E-14-7.58066E-13
 -1      1843 2.07390E+01-1.75104E-01 1.93125E-03 1.86897E-01-7.24078E-14-6.06600E-13
 -1      1844 2.06719E+01-7.85404E-02-5.38881E-03 3.99901E-03 6.07413E-15-7.61790E-13
 -1      1845 2.06702E+01-6.10762E-02-3.92937E-04-3.68313E-02-3.60061E-14-7.46575E-13
 -1      1846 2.07012E+01-1.29855E-01 1.05569E-03 2.80713E-02-5.96398E-15-6.59796E-13
 -1      1847 2.06285E+01-4.75449E-02-3.70178E-03-7.53410E-02-4.64730E-14-7.12058E-13
 -1      1848 2.06018E+01-3.31225E-02-9.59240E-05-9.90959E-02-5.28613E-14-6.71937E-13
 -1      1849 2.06316E+01-8.30353E-02 3.53359E-04-8.08913E-02-4.47255E-15-6.35858E-13
 -1      1850 2.05558E+01-2.25670E-02-2.14276E-03-1.18643E-01-9.14573E-14-6.39061E-13
 -1      1851 2.05150E+01-1.21492E-02 1.30415E-04-1.28996E-01-1.94926E-14-5.93914E-13
 -1      1852 2.05456E+01-4.34279E-02-1.37643E-04-1.43904E-01-4.77688E-14-5.27498E-13
 -1      1853 2.04694E+01-4.87326E-03-9.09706E-04-1.34635E-01-2.07323E-14-6.18848E-13
 -1      1854 2.04233E+01 1.77300E-03 2.87723E-04-1.35706E-01-1.09324E-14-6.09547E-13
 -1      1855 2.04550E+01-1.42264E-02-4.44496E-04-1.70724E-01-4.47328E-14-4.94512E-13
 -1      1856 2.03812E+01 6.19178E-03-4.85690E-05-1.32305E-01-6.45179E-14-6.50197E-13
 -1      1857 2.03356E+01 9.82505E-03 3.82365E-04-1.27719E-01-6.61025E-14-6.84684E-13
 -1      1858 2.03677E+01 4.82293E-03-6.10266E-04-1.72340E-01-5.21740E-14-5.57893E-13
 -1      1859 2.02985E+01 1.20698E-02 4.79770E-04-1.19241E-01-9.70174E-14-7.46592E-13
 -1      1860 2.02571E+01 1.35563E-02 4.24501E-04-1.11780E-01-1.08216E-13-7.60762E-13
 -1      1861 2.02886E+01 1.55797E-02-6.75319E-04-1.58489E-01-1.22403E-13-6.25138E-13
 -1      1862 2.02258E+01 1.43097E-02 7.49150E-04-1.01103E-01-8.40945E-14-7.67711E-13
 -1      1863 2.01903E+01 1.44151E-02 4.26458E-04-9.26846E-02-9.49072E-14-7.59019E-13
 -1      1864 2.02201E+01 2.03189E-02-6.72428E-04-1.36705E-01-1.00017E-13-5.83164E-13
 -1      1865 2.01647E+01 1.42437E-02 8.37503E-04-8.17027E-02-7.19422E-14-6.99702E-13
 -1      1866 2.01358E+01 1.35596E-02 4.00660E-04-7.35193E-02 5.18887E-14-7.24231E-13
 -1      1867 2.01630E+01 2.11128E-02-6.26843E-04-1.12239E-01-7.97947E-14-4.56489E-13
 -1      1868 2.01155E+01 1.28842E-02 8.11865E-04-6.33486E-02 9.31156E-14-8.00893E-13
 -1      1869 2.00928E+01 1.18261E-02 3.58129E-04-5.60510E-02 1.09820E-13-7.69016E-13
 -1      1870 2.01168E+01 1.95938E-02-5.57365E-04-8.84048E-02 3.30397E-15-4.88717E-13
 -1      1871 2.00771E+01 1.09337E-02 7.23366E-04-4.72489E-02 6.26563E-14-7.65310E-13
 -1      1872 2.00599E+01 9.76992E-03 3.07669E-04-4.11167E-02-4.48125E-15-7.36617E-13
 -1      1873 2.00806E+01 1.69271E-02-4.77498E-04-6.70438E-02 7.16444E-14-6.38661E-13
 -1      1874 2.00481E+01 8.84061E-03 6.07598E-04-3.38705E-02 2.08935E-14-6.73965E-13
 -1      1875 2.00356E+01 7.72881E-03 2.55674E-04-2.89492E-02 1.61505E-13-6.12071E-13
 -1      1876 2.00530E+01 1.38774E-02-3.96497E-04-4.89737E-02 4.62709E-14-5.20679E-13
 -1      1877 2.00271E+01 6.86505E-03 4.87291E-04-2.32220E-02 1.54066E-13-5.83157E-13
 -1      1878 2.00183E+01 5.88612E-03 2.06353E-04-1.94244E-02 9.55341E-14-5.55425E-13
 -1      1879 2.00326E+01 1.09034E-02-3.20266E-04-3.43564E-02 1.71354E-13-4.39509E-13
 -1      1880 2.00123E+01 5.13759E-03 3.75546E-04-1.50583E-02 3.98754E-14-5.06476E-13
 -1      1881 2.00065E+01 4.32269E-03 1.62146E-04-1.22326E-02 3.36109E-14-5.54519E-13
 -1      1882 2.00179E+01 8.24852E-03-2.52159E-04-2.29718E-02 1.32765E-13-4.56689E-13
 -1      1883 2.00024E+01 3.70563E-03 2.78798E-04-9.01804E-03 1.68444E-15-5.19222E-13
 -1      1884 1.99988E+01 3.05609E-03 1.24178E-04-6.99165E-03-1.02692E-13-4.47937E-13
 -1      1885 2.00077E+01 6.01465E-03-1.93687E-04-1.44087E-02 4.73636E-14-4.18970E-13
 -1      1886 1.99961E+01 2.56716E-03 1.99180E-04-4.70956E-03-2.33868E-13-4.29683E-13
 -1      1887 1.99941E+01 2.06821E-03 9.26741E-05-3.31480E-03-2.25100E-13-4.92646E-13
 -1      1888 2.00010E+01 4.21736E-03-1.45099E-04-8.18754E-03-1.27176E-13-3.21675E-13
 -1      1889 1.99925E+01 1.69383E-03 1.36278E-04-1.76087E-03-1.57491E-13-4.72871E-13
 -1      1890 1.99916E+01 1.32348E-03 6.72923E-05-8.48061E-04-1.25278E-14-4.58572E-13
 -1      1891 1.99968E+01 2.82437E-03-1.05851E-04-3.83471E-03-1.65316E-13-1.36446E-13
 -1      1892 1.99908E+01 1.04590E-03 8.83279E-05 1.55593E-04 2.11883E-14-4.81457E-13
 -1      1893 1.99906E+01 7.80382E-04 4.73792E-05 7.12610E-04 5.51698E-14-4.82126E-13
 -1      1894 1.99944E+01 1.78081E-03-7.49540E-05-9.22283E-04-5.38554E-14-9.22664E-14
 -1      1895 1.99903E+01 5.81204E-04 5.30020E-05 1.31351E-03-9.55615E-15-4.62991E-13
 -1      1896 1.99906E+01 3.98004E-04 3.21451E-05 1.61666E-03-1.30989E-13-3.42993E-13
 -1      1897 1.99933E+01 1.02489E-03-5.12211E-05 9.14530E-04 5.75653E-14-1.93550E-13
 -1      1898 1.99906E+01 2.60173E-04 2.78827E-05 1.93261E-03-1.58148E-13-3.20685E-13
 -1      1899 1.99912E+01 1.39542E-04 2.07802E-05 2.06141E-03 4.65907E-14-2.36971E-13
 -1      1900 1.99930E+01 4.96819E-04-3.34336E-05 1.97354E-03-1.17799E-13-9.56863E-14
 -1      1901 1.99914E+01 4.82691E-05 1.07253E-05 2.18345E-03 7.62097E-14-3.15787E-13
 -1      1902 1.99921E+01-2.62606E-05 1.25234E-05 2.19802E-03 1.40723E-13-2.27635E-13
 -1      1903 1.99933E+01 1.43399E-04-2.04425E-05 2.48953E-03 3.93629E-14-7.19772E-14
 -1      1904 1.99924E+01-8.32228E-05-4.18031E-07 2.19449E-03 1.39870E-13-2.25551E-13
 -1      1905 1.99931E+01-1.24853E-04 6.70003E-06 2.13893E-03 2.05995E-13-2.04164E-13
 -1      1906 1.99939E+01-8.01956E-05-1.12233E-05 2.64197E-03 1.42344E-13-3.03218E-14
 -1      1907 1.99935E+01-1.57285E-04-7.15798E-06 2.05962E-03 3.66502E-14-2.97301E-13
 -1      1908 1.99942E+01-1.76262E-04 2.73578E-06 1.96529E-03-1.10540E-14-2.30419E-13
 -1      1909 1.99946E+01-2.10221E-04-4.89986E-06 2.56408E-03 6.03527E-14-2.85939E-14
 -1      1910 1.99946E+01-1.91742E-04-1.07783E-05 1.84532E-03-5.19267E-15-3.48131E-13
 -1      1911 1.99952E+01-1.95790E-04 1.57838E-07 1.73374E-03 3.83644E-14-3.30836E-13
 -1      1912 1.99954E+01-2.75047E-04-7.46816E-07 2.35188E-03-6.58193E-14-5.36847E-14
 -1      1913 1.99955E+01-2.00033E-04-1.22701E-05 1.59701E-03 6.34956E-14-3.75468E-13
 -1      1914 1.99961E+01-1.94814E-04-1.41257E-06 1.48228E-03 8.43724E-14-3.76404E-13
 -1      1915 1.99961E+01-2.96236E-04 1.81973E-06 2.07229E-03 7.85026E-15-5.51500E-14
 -1      1916 1.99964E+01-1.92010E-04-1.23767E-05 1.34433E-03 2.78254E-14-5.26695E-13
 -1      1917 1.99969E+01-1.81553E-04-2.27155E-06 1.23517E-03-1.98143E-14-5.41200E-13
 -1      1918 1.99968E+01-2.89724E-04 3.25837E-06 1.77018E-03-5.69308E-15-2.72498E-13
 -1      1919 1.99971E+01-1.74697E-04-1.16402E-05 1.10542E-03 1.39653E-13-5.49576E-13
 -1      1920 1.99975E+01-1.61776E-04-2.64542E-06 1.00671E-03 1.37109E-13-3.33184E-13
 -1      1921 1.99974E+01-2.66960E-04 3.92097E-06 1.47406E-03 5.36658E-14-2.69987E-13
 -1      1922 1.99978E+01-1.52936E-04-1.04434E-05 8.90312E-04-9.40755E-14-2.95756E-13
 -1      1923 1.99981E+01-1.39387E-04-2.70345E-06 8.04283E-04-2.45315E-13-3.31792E-13
 -1      1924 1.99979E+01-2.35921E-04 4.07133E-06 1.20075E-03-1.19057E-14-2.43506E-13
 -1      1925 1.99983E+01-1.29945E-04-9.04779E-06 7.03447E-04-2.45069E-13-1.47102E-13
 -1      1926 1.99985E+01-1.16920E-04-2.56960E-06 6.30609E-04-9.71518E-14-9.96785E-14
 -1      1927 1.99984E+01-2.01961E-04 3.90250E-06 9.58847E-04-5.49632E-15 7.55050E-14
 -1      1928 1.99987E+01-1.07752E-04-7.62409E-06 5.45625E-04-1.00408E-13-1.30324E-13
 -1      1929 1.99989E+01-9.59232E-05-2.33273E-06 4.85395E-04-1.11298E-14-1.50763E-13
 -1      1930 1.99987E+01-1.68516E-04 3.55197E-06 7.51446E-04-1.49067E-13 2.25558E-13
 -1      1931 1.99990E+01-8.75522E-05-6.27672E-06 4.15365E-04 8.99872E-14-9.01170E-14
 -1      1932 1.99991E+01-7.72663E-05-2.05511E-06 3.66525E-04 3.38132E-13 6.10545E-15
 -1      1933 1.99990E+01-1.37652E-04 3.11444E-06 5.78091E-04 1.07734E-13 3.08751E-13
 -1      1934 1.99992E+01-6.99762E-05-5.06295E-06 3.09871E-04 4.34230E-13 2.39697E-14
 -1      1935 1.99993E+01-6.13710E-05-1.77863E-06 2.70875E-04 3.80594E-13 2.54017E-13
 -1      1936 1.99992E+01-1.10501E-04 2.65205E-06 4.36178E-04 3.98876E-13 3.14083E-13
 -1      1937 1.99994E+01-5.52904E-05-4.00613E-06 2.25681E-04 2.45204E-13 4.40613E-13
 -1      1938 1.99995E+01-4.83735E-05-1.52617E-06 1.94851E-04 3.26460E-13 5.77547E-13
 -1      1939 1.99994E+01-8.75854E-05 2.20277E-06 3.21924E-04 4.22891E-13 5.11893E-13
 -1      1940 1.99995E+01-4.35257E-05-3.10353E-06 1.59099E-04 2.92064E-13 4.24907E-13
 -1      1941 1.99996E+01-3.82152E-05-1.29900E-06 1.34762E-04 2.77316E-13 4.26366E-13
 -1      1942 1.99995E+01-6.90248E-05 1.78900E-06 2.31022E-04 2.05745E-13 5.65426E-13
 -1      1943 1.99996E+01-3.45398E-05-2.33078E-06 1.06515E-04-1.98463E-14 3.79185E-13
 -1      1944 1.99997E+01-3.06886E-05-1.10211E-06 8.71427E-05-1.67828E-13 2.18457E-13
 -1      1945 1.99996E+01-5.46658E-05 1.41103E-06 1.59125E-04 6.25774E-14 3.68227E-13
 -1      1946 1.99997E+01-2.78041E-05-1.61675E-06 6.46186E-05-6.49417E-14-6.07943E-14
 -1      1947 1.99997E+01-2.48922E-05-8.93348E-07 4.91036E-05-3.95531E-15-9.91050E-15
 -1      1948 1.99997E+01-4.41268E-05 1.02274E-06 1.02275E-04-3.22346E-13 1.37152E-13
 -1      1949 1.99998E+01-2.20249E-05-1.16052E-06 3.22364E-05 5.29246E-14-8.96563E-15
 -1      1950 1.99998E+01-1.86710E-05-7.55259E-07 2.07259E-05-7.33229E-14-5.95951E-14
 -1      1951 1.99998E+01-2.34711E-05 7.09906E-07 2.58481E-05-1.28519E-13-3.97393E-14
 -1      1952 1.99997E+01-3.42297E-05 1.11203E-06 5.83199E-05-2.20335E-14-7.00041E-16
 -1      1953 2.94885E+01 9.15014E-01-5.60302E-02 4.04136E+00 6.49258E-13 1.46933E-12
 -1      1954 3.10629E+01 2.03233E-01-8.53889E-02 4.26817E+00 5.22055E-13 1.67600E-12
 -1      1955 3.17784E+01 1.51644E-01-5.36495E-02 5.18856E+00 5.74568E-13 1.36848E-12
 -1      1956 2.74270E+01 1.79914E+00-1.54072E-01 1.54534E+00 8.41299E-13 7.42944E-13
 -1      1957 2.85261E+01 1.52754E+00-1.05989E-01 2.79114E+00 7.66748E-13 1.12989E-12
 -1      1958 2.99059E+01 1.84744E+00-1.28015E-01 3.79019E+00 9.11077E-13 9.13040E-13
 -1      1959 2.70497E+01 9.94368E-01-1.65679E-01-1.23107E+00 6.46996E-13 3.42643E-14
 -1      1960 2.72058E+01 1.61659E+00-7.65271E-02-1.82381E-02 7.86871E-13 4.02657E-13
 -1      1961 2.86570E+01 2.32803E+00-1.42365E-01 5.66938E-01 1.01313E-12 1.58677E-13
 -1      1962 2.75699E+01-3.21557E-01-6.55001E-02-1.90385E+00 3.42087E-13-3.82208E-13
 -1      1963 2.71816E+01 3.52566E-01-3.72461E-02-1.67467E+00 4.61242E-13-1.66929E-13
 -1      1964 2.83777E+01 8.39395E-01-7.86939E-02-1.68646E+00 6.49147E-13-4.44299E-13
 -1      1965 2.76568E+01-8.04093E-01 2.94640E-02-8.89664E-01 7.06106E-14-4.51547E-13
 -1      1966 2.73346E+01-6.15924E-01-1.77508E-02-1.33943E+00 2.12774E-13-3.54425E-13
 -1      1967 2.80178E+01-6.89376E-01-2.80983E-02-1.54411E+00 2.68584E-13-6.25439E-13
 -1      1968 2.69163E+01-5.72696E-01 4.06869E-02 4.11494E-01-6.42099E-14-4.23102E-13
 -1      1969 2.70062E+01-7.24638E-01-1.52856E-02-1.18426E-01-5.99173E-15-4.08092E-13
 -1      1970 2.70730E+01-1.11383E+00-3.20054E-02-1.63362E-01 2.52437E-14-5.70328E-13
 -1      1971 2.58142E+01-2.26371E-01 1.99920E-02 1.11057E+00-1.03184E-13-1.95170E-13
 -1      1972 2.62256E+01-4.05342E-01-1.18466E-02 8.26100E-01-6.45491E-14-2.80987E-13
 -1      1973 2.58579E+01-7.15231E-01-2.60626E-02 1.00102E+00-8.27064E-14-5.02237E-13
 -1      1974 2.46613E+01-1.65522E-04 3.73932E-03 1.29988E+00-7.51788E-14-1.55747E-13
 -1      1975 2.52211E+01-1.11029E-01-6.56586E-03 1.22156E+00-5.07780E-14-1.54463E-13
 -1      1976 2.47093E+01-2.53065E-01-1.79381E-02 1.52121E+00-9.28702E-14-3.10725E-13
 -1      1977 2.36124E+01 1.01361E-01-2.80054E-03 1.20101E+00-3.01499E-14-7.84130E-14
 -1      1978 2.41809E+01 5.28978E-02-8.79444E-04 1.24073E+00-9.53185E-14-8.12891E-14
 -1      1979 2.37038E+01 3.23892E-02-1.03368E-02 1.57383E+00-7.82029E-14-2.65741E-13
 -1      1980 2.27302E+01 1.25652E-01-3.79419E-03 9.90987E-01 9.46539E-14-2.59428E-14
 -1      1981 2.32317E+01 1.14713E-01 3.63028E-03 1.07635E+00 5.56881E-14-3.47795E-14
 -1      1982 2.28591E+01 1.53040E-01-5.14647E-03 1.38649E+00-1.00037E-14-1.54819E-13
 -1      1983 2.20231E+01 1.15025E-01-2.82513E-03 7.68406E-01 5.30882E-14 1.40968E-15
 -1      1984 2.24312E+01 1.20964E-01 5.91718E-03 8.59256E-01 1.03319E-13 3.37360E-14
 -1      1985 2.21692E+01 1.76311E-01-2.53880E-03 1.12128E+00 7.88436E-14-1.30464E-13
 -1      1986 2.14746E+01 9.33617E-02-1.65005E-03 5.74363E-01-5.63933E-14-1.04259E-13
 -1      1987 2.17908E+01 1.04717E-01 6.42144E-03 6.53792E-01 6.14040E-14 6.04117E-16
 -1      1988 2.16194E+01 1.57239E-01-1.45186E-03 8.62552E-01 7.69792E-14-8.31058E-14
 -1      1989 2.10589E+01 7.13759E-02-7.92365E-04 4.19636E-01-2.11324E-14-1.80879E-13
 -1      1990 2.12963E+01 8.29492E-02 5.87767E-03 4.83138E-01-5.95023E-14-1.73070E-13
 -1      1991 2.11907E+01 1.25905E-01-1.07081E-03 6.43350E-01-1.01572E-14-1.36035E-13
 -1      1992 2.07493E+01 5.28316E-02-2.73780E-04 3.01950E-01-5.26818E-14-1.81389E-13
 -1      1993 2.09239E+01 6.27320E-02 4.90263E-03 3.50387E-01-4.83676E-14-1.41591E-13
 -1      1994 2.08629E+01 9.54356E-02-9.43450E-04 4.70324E-01-4.00305E-14-1.76649E-13
 -1      1995 2.05219E+01 3.84034E-02 4.56688E-06 2.14782E-01 4.07354E-14-1.17630E-13
 -1      1996 2.06484E+01 4.62427E-02 3.87069E-03 2.50772E-01 6.30938E-14-1.33036E-13
 -1      1997 2.06162E+01 7.02038E-02-8.70204E-04 3.39022E-01 1.37642E-14-2.07351E-13
 -1      1998 2.03567E+01 2.76224E-02 1.36548E-04 1.51209E-01 6.09486E-14-1.59431E-13
 -1      1999 2.04473E+01 3.35929E-02 2.95499E-03 1.77549E-01-9.06393E-16-9.09983E-14
 -1      2000 2.04329E+01 5.07757E-02-7.87356E-04 2.41644E-01 1.70293E-14-2.10366E-13
 -1      2001 2.02381E+01 1.97328E-02 1.86525E-04 1.05283E-01-5.76676E-15-9.66278E-14
 -1      2002 2.03022E+01 2.41892E-02 2.20905E-03 1.24384E-01 7.53590E-14-3.81459E-14
 -1      2003 2.02984E+01 3.63583E-02-6.87637E-04 1.70423E-01-2.37496E-14-1.64363E-13
 -1      2004 2.01539E+01 1.40146E-02 1.91397E-04 7.23235E-02 2.68009E-14-1.23523E-13
 -1      2005 2.01987E+01 1.73118E-02 1.62928E-03 8.60892E-02-1.02857E-13-1.80284E-13
 -1      2006 2.02009E+01 2.58608E-02-5.80845E-04 1.18800E-01-3.45254E-14-2.61670E-13
 -1      2007 2.00948E+01 9.88168E-03 1.52831E-04 4.88078E-02-1.09152E-14-2.44191E-14
 -1      2008 2.01259E+01 1.23381E-02 1.19860E-03 5.86864E-02 7.24419E-14 6.47239E-14
 -1      2009 2.01311E+01 1.82650E-02-4.84120E-04 8.16383E-02-3.22839E-14-1.74533E-13
 -1      2010 2.00526E+01 6.77759E-03 1.35821E-04 3.14517E-02 4.17587E-14-1.14608E-13
 -1      2011 2.00743E+01 8.61554E-03 8.59392E-04 3.87219E-02-5.88024E-14-7.32476E-14
 -1      2012 2.00809E+01 1.28646E-02-3.30181E-04 5.45998E-02 1.45549E-15-7.73207E-14
 -1      2013 2.00260E+01 4.71531E-03 1.28213E-04 1.99762E-02 1.34254E-14-5.53036E-14
 -1      2014 2.00395E+01 6.01110E-03 6.15120E-04 2.48471E-02 6.75075E-14-8.73165E-14
 -1      2015 2.00462E+01 8.77715E-03-3.00963E-04 3.54055E-02 4.55525E-14-9.40284E-14
 -1      2016 2.00086E+01 3.21529E-03 1.04995E-04 1.20079E-02 1.10119E-13-8.36903E-14
 -1      2017 2.00172E+01 4.14981E-03 4.31910E-04 1.54027E-02 8.96205E-14-2.98147E-14
 -1      2018 2.00235E+01 6.04333E-03-2.29926E-04 2.23704E-02 4.78212E-14-1.07678E-13
 -1      2019 1.99977E+01 2.14309E-03 8.41266E-05 6.57369E-03-1.60527E-15-1.92949E-13
 -1      2020 2.00029E+01 2.82167E-03 3.03063E-04 8.90348E-03 8.55051E-14-1.03847E-13
 -1      2021 2.00086E+01 4.08422E-03-1.74287E-04 1.33326E-02 1.29691E-13-1.95259E-13
 -1      2022 1.99914E+01 1.38279E-03 6.63240E-05 2.95548E-03 9.42909E-15-2.78275E-13
 -1      2023 1.99943E+01 1.87245E-03 2.09514E-04 4.51871E-03-5.83116E-14-2.51391E-13
 -1      2024 1.99992E+01 2.69096E-03-1.30152E-04 7.17786E-03 1.19692E-14-2.72057E-13
 -1      2025 1.99882E+01 8.49428E-04 5.15122E-05 6.27427E-04-4.62577E-14-8.27772E-14
 -1      2026 1.99895E+01 1.19921E-03 1.41834E-04 1.64337E-03-9.19890E-14-1.69582E-13
 -1      2027 1.99936E+01 1.70840E-03-9.55856E-05 3.09113E-03-8.41642E-14-2.76634E-13
 -1      2028 1.99871E+01 4.81028E-04 3.94430E-05-7.94810E-04-2.66903E-13-5.40884E-14
 -1      2029 1.99873E+01 7.27413E-04 9.32600E-05-1.65197E-04-8.31453E-14 1.39795E-15
 -1      2030 1.99907E+01 1.02368E-03-6.89118E-05 4.74333E-04-1.30389E-13-2.56068E-13
 -1      2031 1.99872E+01 2.32114E-04 2.97729E-05-1.59161E-03 4.05916E-14-5.74613E-14
 -1      2032 1.99869E+01 4.02381E-04 5.87964E-05-1.23038E-03-1.19175E-13-1.49680E-14
 -1      2033 1.99896E+01 5.54698E-04-4.86263E-05-1.11101E-03-1.27392E-13-1.78474E-13
 -1      2034 1.99881E+01 6.91438E-05 2.21366E-05-1.96653E-03 2.98304E-13-1.70516E-13
 -1      2035 1.99874E+01 1.83777E-04 3.47172E-05-1.78767E-03 1.76413E-13-1.66267E-13
 -1      2036 1.99896E+01 2.41295E-04-3.34283E-05-1.98541E-03 1.66853E-13-2.24187E-13
 -1      2037 1.99894E+01-3.26907E-05 1.61866E-05-2.06614E-03-1.61374E-13-1.40468E-13
 -1      2038 1.99885E+01 4.17088E-05 1.82375E-05-2.00741E-03 1.03379E-13-9.38523E-14
 -1      2039 1.99902E+01 3.92126E-05-2.22239E-05-2.38175E-03 1.26011E-13-1.71211E-13
 -1      2040 1.99908E+01-9.17212E-05 1.16105E-05-1.99469E-03-3.93994E-14-2.21384E-13
 -1      2041 1.99899E+01-4.59977E-05 7.27259E-06-2.01161E-03-1.34022E-13-2.05767E-13
 -1      2042 1.99912E+01-8.41896E-05-1.41115E-05-2.46771E-03-6.68442E-14-3.17293E-13
 -1      2043 1.99923E+01-1.21435E-04 8.13792E-06-1.82512E-03 1.82102E-13-1.98837E-13
 -1      2044 1.99914E+01-9.57594E-05 2.63140E-07-1.88637E-03 7.31920E-14-2.10894E-13
 -1      2045 1.99924E+01-1.52948E-04-8.36119E-06-2.36241E-03 8.07245E-14-3.61553E-13
 -1      2046 1.99936E+01-1.31717E-04 5.51358E-06-1.60725E-03 3.06041E-14-4.03491E-13
 -1      2047 1.99928E+01-1.19656E-04-3.95144E-06-1.69130E-03 2.70443E-13-1.79292E-13
 -1      2048 1.99936E+01-1.84676E-04-4.39266E-06-2.14898E-03 1.70631E-13-1.72214E-13
 -1      2049 1.99948E+01-1.29711E-04 3.81574E-06-1.37456E-03 9.66752E-14-3.43593E-13
 -1      2050 1.99941E+01-1.26349E-04-6.17386E-06-1.46638E-03-1.23741E-13-5.46786E-13
 -1      2051 1.99947E+01-1.92282E-04-1.72907E-06-1.88412E-03 4.60844E-14-4.53186E-13
 -1      2052 1.99959E+01-1.19818E-04 2.32077E-06-1.13577E-03 1.22245E-13-4.01950E-13
 -1      2053 1.99953E+01-1.21827E-04-7.00716E-06-1.23129E-03 1.27643E-13-2.41548E-13
 -1      2054 1.99957E+01-1.84523E-04-5.54256E-07-1.59838E-03 6.75387E-14-3.42210E-13
 -1      2055 1.99968E+01-1.06086E-04 1.24193E-06-9.26427E-04 5.96472E-14-2.43010E-13
 -1      2056 1.99963E+01-1.11975E-04-7.31664E-06-1.01138E-03 1.70702E-13-3.66791E-13
 -1      2057 1.99966E+01-1.67384E-04 1.08219E-06-1.32177E-03 1.28769E-13-3.28126E-13
 -1      2058 1.99975E+01-9.12567E-05 6.19693E-07-7.41630E-04 1.68751E-14-2.92431E-13
 -1      2059 1.99971E+01-9.86537E-05-6.89998E-06-8.17408E-04-1.55059E-14-2.58148E-13
 -1      2060 1.99973E+01-1.46794E-04 1.58461E-06-1.07548E-03-2.35512E-14 3.26100E-14
 -1      2061 1.99981E+01-7.65605E-05 1.81854E-07-5.83149E-04 2.69214E-14-3.56368E-13
 -1      2062 1.99978E+01-8.44154E-05-6.22371E-06-6.48519E-04-9.29801E-14-3.99113E-13
 -1      2063 1.99979E+01-1.25107E-04 1.80137E-06-8.58721E-04 8.32814E-15-3.17371E-13
 -1      2064 1.99986E+01-6.28639E-05-9.53982E-08-4.50527E-04 1.95849E-13-4.68371E-13
 -1      2065 1.99983E+01-7.04745E-05-5.41939E-06-5.05496E-04 1.30757E-13-3.72444E-13
 -1      2066 1.99984E+01-1.04125E-04 1.81411E-06-6.73479E-04 1.27466E-13-2.16197E-13
 -1      2067 1.99989E+01-5.06775E-05-2.63613E-07-3.41838E-04-5.93811E-13-1.96273E-13
 -1      2068 1.99987E+01-5.76370E-05-4.59336E-06-3.87083E-04-1.72399E-13-2.57159E-13
 -1      2069 1.99988E+01-8.49201E-05 1.70658E-06-5.18926E-04-1.63845E-13-7.69921E-14
 -1      2070 1.99992E+01-4.02384E-05-3.60487E-07-2.54319E-04-2.93967E-13-1.15010E-13
 -1      2071 1.99990E+01-4.63271E-05-3.80763E-06-2.90906E-04-5.87647E-13-2.59834E-13
 -1      2072 1.99991E+01-6.80697E-05 1.53367E-06-3.92554E-04-5.30984E-13-2.93185E-13
 -1      2073 1.99994E+01-3.16232E-05-4.14536E-07-1.84815E-04-1.24081E-13 6.70142E-14
 -1      2074 1.99993E+01-3.67431E-05-3.09763E-06-2.14011E-04-2.04202E-13-1.90249E-14
 -1      2075 1.99993E+01-5.38230E-05 1.33249E-06-2.90935E-04-2.79768E-13-2.32225E-13
 -1      2076 1.99995E+01-2.47852E-05-4.33084E-07-1.30040E-04-5.90908E-14 1.72179E-13
 -1      2077 1.99995E+01-2.89476E-05-2.47929E-06-1.53202E-04 4.14521E-14 1.89820E-13
 -1      2078 1.99995E+01-4.22366E-05 1.12833E-06-2.10221E-04-6.32471E-14 1.41894E-13
 -1      2079 1.99996E+01-1.95943E-05-4.10554E-07-8.69086E-05 7.71970E-14-1.26719E-13
 -1      2080 1.99996E+01-2.28446E-05-1.94337E-06-1.05324E-04-3.63411E-14 9.71314E-14
 -1      2081 1.99996E+01-3.30908E-05 9.72239E-07-1.46518E-04 4.23231E-15-1.24589E-13
 -1      2082 1.99997E+01-1.58411E-05-3.19213E-07-5.25430E-05 2.63564E-13-3.94776E-13
 -1      2083 1.99997E+01-1.83555E-05-1.46670E-06-6.74441E-05 1.35832E-13-3.81709E-13
 -1      2084 1.99997E+01-2.63625E-05 8.20479E-07-9.61723E-05 2.58870E-13-5.35535E-13
 -1      2085 1.99998E+01-1.32636E-05-6.32730E-07-2.56948E-05 1.87924E-13-6.36498E-13
 -1      2086 1.99997E+01-1.47067E-05-9.53164E-07-3.70221E-05 3.70120E-13-3.78657E-13
 -1      2087 1.99997E+01-2.16073E-05 5.85568E-07-5.58624E-05 4.07977E-13-6.86872E-13
 -1      2088 1.99998E+01-1.18528E-04 3.65575E-07-6.65544E-05-1.45624E-13 1.48568E-13
 -1      2089 1.99998E+01-9.71945E-05-6.62431E-07-6.18271E-05-2.17277E-13 2.56730E-13
 -1      2090 1.99998E+01-7.34045E-05 5.20498E-08-5.31794E-05-5.07507E-13 7.39257E-14
 -1      2091 1.99998E+01-5.60896E-05-7.97142E-07-4.37021E-05-5.91488E-13 1.17755E-13
 -1      2092 1.99998E+01-9.87547E-05 1.82235E-07-7.66620E-05-1.83071E-13 3.94882E-13
 -1      2093 5.06647E+00-3.22726E+00-3.74061E-01 4.97052E+00 1.32844E-12 1.28880E-12
 -1      2094 2.84806E+00-3.38263E+00-3.78586E-01 3.25836E+00 9.88543E-13 1.28592E-12
 -1      2095 1.99998E+01-3.61799E-05-1.92647E-07-3.08391E-05-5.50468E-13-5.75374E-14
 -1      2096 1.99998E+01-2.44026E-05-5.10474E-07-2.02844E-05-4.70399E-13-2.18671E-13
 -1      2097 1.99998E+01-5.58619E-05 3.99804E-07-5.22233E-05-2.94890E-13 8.17949E-14
 -1      2098 1.99998E+01-1.64294E-04 6.61461E-07-6.78895E-05-1.95352E-13-3.13786E-13
 -1      2099 1.99998E+01-1.42511E-04-3.61927E-07-6.86151E-05-1.49048E-13-9.09555E-14
 -1      2100 1.99998E+01-1.46187E-04-9.49930E-08-8.81426E-05-7.08232E-14 4.11488E-14
 -1      2101 1.99998E+01-2.05617E-04 8.90823E-07-5.68569E-05-2.67931E-13 2.14307E-13
 -1      2102 1.99998E+01-1.86364E-04 3.51074E-08-6.28894E-05-2.39986E-13 1.89706E-14
 -1      2103 1.99998E+01-1.92147E-04-5.06014E-07-8.44569E-05-6.42831E-14-1.22266E-13
 -1      2104 1.99998E+01-2.35285E-04 9.98355E-07-3.56288E-05-2.25484E-13 1.15278E-13
 -1      2105 1.99998E+01-2.22249E-04 4.41270E-07-4.57252E-05-2.51863E-13 3.42675E-13
 -1      2106 1.99998E+01-2.30765E-04-8.14205E-07-6.58976E-05-6.47196E-14 2.60408E-13
 -1      2107 1.99998E+01-2.48769E-04 9.57509E-07-8.14849E-06-3.38262E-13-1.89229E-13
 -1      2108 1.99998E+01-2.44196E-04 7.66322E-07-2.04293E-05-2.59263E-13-1.10666E-13
 -1      2109 1.99998E+01-2.56279E-04-1.01970E-06-3.59224E-05-1.31850E-13-6.14946E-14
 -1      2110 1.99998E+01-2.44028E-04 7.64726E-07 2.07333E-05-2.21354E-13-3.58127E-13
 -1      2111 1.99998E+01-2.48707E-04 9.59274E-07 8.46569E-06-1.89559E-13-2.30304E-13
 -1      2112 1.99998E+01-2.65121E-04-1.08993E-06 2.09331E-07-3.62870E-13-1.74648E-13
 -1      2113 1.99998E+01-2.21860E-04 4.49088E-07 4.59574E-05-3.40178E-13-2.98362E-13
 -1      2114 1.99998E+01-2.35010E-04 9.92494E-07 3.59056E-05-1.59802E-13-1.99136E-13
 -1      2115 1.99998E+01-2.56042E-04-1.01352E-06 3.63065E-05-1.78105E-13-1.44517E-13
 -1      2116 1.99998E+01-1.86538E-04 4.42763E-08 6.28043E-05-1.88871E-13-9.78174E-14
 -1      2117 1.99998E+01-2.05473E-04 8.87934E-07 5.68802E-05-2.79218E-13-3.80364E-13
 -1      2118 1.99998E+01-2.30620E-04-8.24556E-07 6.60020E-05 3.76241E-14-2.98963E-13
 -1      2119 1.99998E+01-1.42339E-04-3.61236E-07 6.86068E-05-2.23329E-14 6.13404E-13
 -1      2120 1.99998E+01-1.64506E-04 6.66138E-07 6.78675E-05-9.98080E-14 3.73011E-13
 -1      2121 1.99998E+01-1.92304E-04-5.00309E-07 8.43855E-05 2.34724E-13 1.39672E-13
 -1      2122 1.99998E+01-9.64961E-05-6.45823E-07 6.16894E-05-3.04247E-14 1.55493E-13
 -1      2123 1.99998E+01-1.17919E-04 3.76811E-07 6.65339E-05-3.20324E-14 2.93467E-13
 -1      2124 1.99998E+01-1.45978E-04-1.24835E-07 8.81192E-05 1.33845E-13 3.93676E-13
 -1      2125 1.99998E+01-5.36693E-05-6.21713E-08 4.31984E-05-9.94959E-14 4.28709E-13
 -1      2126 1.99998E+01-7.27349E-05 2.51321E-08 5.29136E-05-1.14283E-13 2.27394E-13
 -1      2127 1.99998E+01-9.84221E-05 6.62096E-08 7.63464E-05 8.87151E-14 1.75235E-13
 -1      2128 1.33398E+01-2.65409E+00-2.25501E-01 7.46862E+00 1.11472E-12 1.03819E-12
 -1      2129 8.76329E+00-3.59859E+00-4.28426E-01 6.00492E+00 1.17356E-12 1.10922E-12
 -1      2130 1.49163E+00-2.88243E+00-3.01456E-01 7.99472E-01 9.28091E-13 1.43696E-12
 -1      2131 1.29179E+00-3.41603E+00-3.86082E-01-1.22684E+00 6.91988E-13 1.34409E-12
 -1      2132 2.35689E+01-6.26729E-01 6.91886E-02 7.87669E+00 1.56192E-12 1.08719E-12
 -1      2133 1.87304E+01-2.38313E+00-1.85735E-01 7.30188E+00 1.33316E-12 9.49713E-13
 -1      2134 2.73337E+01-2.08664E+00 6.35010E-02 5.67388E+00 8.63087E-13 2.04059E-13
 -1      2135 2.31346E+01 4.69837E+00-3.53797E-02-2.82454E+00-2.15451E-13-1.22267E-12
 -1      2136 2.26451E+01 4.66639E+00-4.02049E-02-3.09086E+00-3.75125E-13-1.22108E-12
 -1      2137 2.36492E+01 4.30629E+00 1.45478E-03-2.77806E+00-2.14453E-13-1.09562E-12
 -1      2138 1.61903E+01 2.12386E+00 1.40772E-01-9.50944E-01-4.25382E-13-6.67882E-13
 -1      2139 1.15643E+01 2.21979E+00-6.11610E-03-1.37809E+00-4.40814E-13-8.13793E-13
 -1      2140 1.93122E+01 5.18630E-01-2.01890E-02-4.45336E-01-3.47250E-13-4.07785E-13
 -1      2141 4.21300E+01 6.45339E+00 5.06881E-01 3.40649E+00 1.72373E-12-1.96176E-13
 -1      2142 4.05978E+01 5.94559E+00 4.81180E-01 4.23092E+00 1.75626E-12 2.63900E-13
 -1      2143 4.06731E+01 6.37002E+00 3.49077E-01 2.99482E+00 1.70874E-12-5.47146E-13
 -1      2144 4.21113E+01 6.83142E+00 5.61431E-01 3.35304E+00 1.73878E-12-2.23072E-13
 -1      2145 3.77717E+01 2.57394E+00 1.65071E-01 2.06787E+00 1.53177E-12-9.57789E-13
 -1      2146 3.99855E+01 4.29253E+00 2.52971E-01 3.17733E+00 1.57596E-12-4.57634E-13
 -1      2147 3.08517E+01-9.39680E-01-2.07822E-01 9.32896E-02 1.35295E-12-1.20270E-12
 -1      2148 3.62851E+01 5.02925E-01 1.51987E-01 7.48103E-01 1.42744E-12-1.12788E-12
 -1      2149 3.57035E+01 1.43610E+00 2.12701E-01 4.02406E+00 1.27835E-12-8.48210E-14
 -1      2150 2.07280E+01-2.10414E+00-3.79714E-01-2.22395E+00 9.97591E-13-1.36385E-12
 -1      2151 2.67564E+01-1.99913E+00-1.78882E-01-1.98243E+00 1.22674E-12-1.42514E-12
 -1      2152 8.98300E+00-5.06665E-01-5.19136E-01-2.55411E+00 9.96536E-13-1.66850E-12
 -1      2153 1.45106E+01-1.02975E+00-3.23233E-01-3.44176E+00 1.01086E-12-1.61751E-12
 -1      2154 3.08108E+00 1.33749E+00-2.54274E-01-1.14843E+00 7.25087E-13-1.41342E-12
 -1      2155 5.58736E+00 6.17626E-01-3.27397E-01-2.16706E+00 1.03412E-12-1.64416E-12
 -1      2156-2.28384E-02 2.02490E+00-1.19740E-01 1.04501E+00 6.27838E-13-1.14292E-12
 -1      2157 7.80150E-01 2.16664E+00-1.20661E-01 8.13756E-02 7.28653E-13-1.25766E-12
 -1      2158 3.49619E+00 3.36893E+00-6.67513E-02 3.64073E+00 3.53995E-13-9.05706E-13
 -1      2159 1.97416E+00 2.83792E+00-9.76186E-02 2.85603E+00 6.57030E-13-8.53095E-13
 -1      2160 1.71163E+01 3.04625E+00-1.04038E-01 6.35789E+00-2.94098E-13-1.10245E-12
 -1      2161 1.28106E+01 2.87959E+00-2.79592E-01 5.64201E+00 1.04305E-13-8.97518E-13
 -1      2162 2.53079E+01 2.90368E+00-6.08732E-02 5.62009E+00-7.43405E-13-1.13470E-12
 -1      2163 2.06899E+01 2.67499E+00-2.80365E-01 5.67422E+00-4.96880E-13-1.04394E-12
 -1      2164 3.18760E+01 3.66376E+00 5.55691E-02 2.86065E+00-9.75709E-13-8.85292E-13
 -1      2165 2.81062E+01 3.17295E+00-1.27874E-01 3.90503E+00-8.55774E-13-1.00081E-12
 -1      2166 3.61763E+01 5.49415E+00 1.50051E-01 3.74973E-01-1.25036E-12-7.88369E-13
 -1      2167 3.36877E+01 4.90268E+00 2.20340E-02 1.71425E+00-1.19832E-12-9.49629E-13
 -1      2168 3.62484E+01 6.96716E+00 1.42419E-01-1.68720E+00-1.33327E-12-6.17340E-13
 -1      2169 3.59627E+01 6.54884E+00 1.38317E-01-6.07501E-01-1.32427E-12-8.11351E-13
 -1      2170 3.62427E+01 6.38973E+00 2.61446E-01-3.40823E+00-1.20076E-12-2.61513E-13
 -1      2171 3.67457E+01 6.78393E+00 1.83414E-01-2.09765E+00-1.27232E-12-6.13343E-13
 -1      2172 3.25309E+01 4.60839E+00 1.43674E-01-4.77965E+00-9.82381E-13 8.84848E-14
 -1      2173 3.56989E+01 5.47212E+00 3.35498E-01-4.18984E+00-1.04519E-12-1.25178E-13
 -1      2174 3.32877E+01 6.29466E+00 3.02632E-01-1.85017E+00-1.05985E-12-7.59837E-13
 -1      2175 2.63303E+01 1.71688E+00-6.80739E-03-6.40563E+00-6.38711E-13 4.65517E-13
 -1      2176 3.03960E+01 2.97765E+00 2.36661E-01-6.11273E+00-7.67567E-13 2.89491E-13
 -1      2177 1.94747E+01-7.04150E-01-1.67254E-01-7.09643E+00-3.11640E-13 6.68465E-13
 -1      2178 2.36161E+01 7.78940E-01 1.42909E-01-7.49283E+00-5.12146E-13 6.26721E-13
 -1      2179 1.27581E+01-2.58133E+00-2.77615E-01-6.93634E+00 1.07359E-13 9.36709E-13
 -1      2180 1.64848E+01-1.18154E+00-3.46890E-03-7.72049E+00-1.28453E-13 8.86874E-13
 -1      2181 6.29955E+00-3.60122E+00-4.02160E-01-5.50028E+00 4.28824E-13 1.17704E-12
 -1      2182 9.24122E+00-2.39179E+00-1.74119E-01-6.72302E+00 8.65974E-14 1.17123E-12
 -1      2183 2.11611E+00-3.83761E+00-4.19361E-01-2.99507E+00 7.34413E-13 1.22652E-12
 -1      2184 3.77398E+00-3.34350E+00-3.28619E-01-4.45283E+00 3.50997E-13 1.32239E-12
 -1      2185 3.90478E+01 4.38196E+00 4.55858E-01 4.90808E+00 1.60183E-12 3.55604E-13
 -1      2186 3.49553E+01 3.13171E+00 1.47625E-01 5.35470E+00 1.62202E-12 6.69909E-13
 -1      2187 2.15273E+01 1.98024E+00 1.15158E-02 2.39695E+00 1.11007E-12-3.28281E-13
 -1      2188 2.36017E+01 2.26620E+00 9.77399E-03 1.33913E+00 9.07857E-13-4.30760E-13
 -1      2189 9.44707E+00 1.91366E+00-8.52967E-03-1.61966E+00-1.75276E-13-1.02057E-12
 -1      2190 2.26694E+01 4.06010E+00 2.80017E-03-3.03173E+00-4.82375E-13-1.08670E-12
 -1      2191 3.74892E+01 4.75430E+00 4.07104E-01 2.13279E+00 1.61343E-12-1.90181E-13
 -1      2192 2.04855E+00 3.56010E+00 4.75377E-02 3.82270E-01 8.07965E-14-1.02143E-12
 -1      2193 1.02512E+00 3.55312E+00-4.29519E-03 1.21327E+00 3.52142E-13-9.02695E-13
 -1      2194 2.74600E+01 4.67790E-01-2.37491E-02 2.57707E+00-1.67297E-13 3.37744E-13
 -1      2195 2.61538E+00 2.97814E+00-1.51888E-02-3.36341E-01 2.00798E-13-1.18672E-12
 -1      2196 2.11190E+01 1.44133E+00-2.70873E-02-2.29271E+00-7.49845E-13-2.11504E-13
 -1      2197 2.14258E+01 1.77246E+00-2.28612E-02-2.38782E+00-7.64378E-13-5.02532E-13
 -1      2198 2.19102E+01 2.13096E+00 3.97131E-02-3.14708E+00-8.07202E-13-6.48231E-14
 -1      2199 2.18458E+01 3.43514E+00-1.03167E-01-4.17824E+00-7.36342E-13-1.32797E-13
 -1      2200 2.07657E+01 1.74173E+00-4.07879E-03 3.26986E+00 9.55180E-13-3.38339E-13
 -1      2201 5.37559E+00-8.09579E-01-6.67193E-02 3.76558E+00 2.54602E-13 1.19199E-12
 -1      2202 3.32213E+00-2.03647E+00-1.73934E-01 2.22658E+00 6.76584E-13 1.35864E-12
 -1      2203 4.16226E+00-1.39157E-01 5.24393E-02 1.23973E+00 3.90417E-13 1.31806E-12
 -1      2204 1.99998E+01-1.25901E-05-8.11031E-07-1.06914E-05-1.60134E-13-8.38592E-13
 -1      2205 1.99998E+01-1.57832E-05-6.81141E-07-1.93589E-05-3.11289E-14-7.76447E-13
 -1      2206 5.25945E-01 3.08914E+00-5.42490E-02 1.51283E+00 5.56978E-13-1.09049E-12
 -1      2207 1.31470E+00 3.56588E+00 3.88812E-02 2.32434E+00 4.96145E-13-8.53068E-13
 -1      2208 2.43417E+00 3.63220E+00 1.76912E-02 3.00407E+00 7.90271E-13-7.65943E-13
 -1      2209 1.17776E-01 2.04436E+00-1.05521E-01 1.75092E+00 7.79321E-13-9.40303E-13
 -1      2210 9.20651E+00-2.42620E+00-7.41735E-02 6.29735E+00 4.82947E-13 1.00731E-12
 -1      2211 1.99998E+01-4.57156E-05-2.89017E-07 3.91750E-05-7.78033E-14 2.64571E-13
 -1      2212 1.76085E+01-2.96875E+00-7.91561E-02 7.22518E+00 7.62723E-13 7.27668E-13
 -1      2213 1.70517E+01-2.93527E+00 1.35806E-01 7.25880E+00 1.48936E-13 3.58290E-13
 -1      2214 2.15274E+01-3.70833E+00-2.14778E-01 6.75295E+00 2.33036E-13 1.43371E-13
 -1      2215 3.11258E+00-1.71862E+00-1.77986E-01-2.47054E+00 6.64080E-13 1.42991E-12
 -1      2216 6.82428E+00-2.49479E+00-1.63013E-01-5.87956E+00 6.67244E-13 1.27431E-12
 -1      2217 1.33176E+01-2.80196E+00-5.20862E-02-7.42346E+00 6.39100E-13 8.86503E-13
 -1      2218 2.02109E+01-2.31058E+00 2.98321E-02-6.95265E+00 4.34541E-13 3.29459E-13
 -1      2219 3.10865E+01 2.98837E+00 2.19169E-01-3.35013E+00-5.68344E-13-4.36595E-13
 -1      2220 3.31335E+01 7.70739E+00 1.97859E-01-1.60809E+00-1.32816E-12-8.32286E-13
 -1      2221 3.29724E+01 6.95257E+00 2.09385E-01-1.26982E+00-1.26030E-12-6.30468E-13
 -1      2222 3.15294E+01 4.46250E+00 1.64020E-01 1.27797E-01-8.36678E-13-4.70124E-13
 -1      2223 2.73503E+01 2.46404E+00 6.89425E-02 2.65261E+00-3.04048E-13-5.06595E-13
 -1      2224 2.07107E+01 2.04883E+00-3.35470E-02 4.90578E+00 2.17160E-13-6.77236E-13
 -1      2225 9.51483E+00 5.60347E-01-1.69827E-01-2.37585E+00 2.83357E-13-1.34223E-12
 -1      2226 3.04835E+01-1.87922E+00 1.63350E-02 1.25216E+00 7.87009E-13-4.76785E-13
 -1      2227 3.74473E+01 5.49489E+00 2.91283E-01 4.05959E+00 1.67666E-12-7.47735E-14
 -1      2228 1.99998E+01-2.22048E-05-1.98567E-07-3.13019E-05 1.32031E-13-7.56290E-13
 -1      2229 3.36185E+01 8.69243E-01 2.22148E-01 3.41621E+00 1.17405E-12-4.70735E-14
 -1      2230 3.82906E+01 7.02419E+00 4.18794E-01 2.47467E+00 1.86018E-12-2.37352E-13
 -1      2231 1.98698E+01-1.77933E+00-1.44555E-01-2.03768E+00 4.57634E-13-1.01085E-12
 -1      2232 2.17231E+00 3.30677E+00-5.38531E-02 3.00669E+00 7.51427E-13-9.43912E-13
 -1      2233 9.14845E-01 2.85323E+00 2.80421E-02 2.32018E+00 5.14228E-13-9.29617E-13
 -1      2234 9.16360E+00 3.49905E+00-5.96653E-02 5.34853E+00 3.40339E-13-9.29395E-13
 -1      2235 5.79499E+00 3.22951E+00-1.76176E-01 4.19490E+00 5.35932E-13-8.62629E-13
 -1      2236 2.62571E+01-3.09187E-01 1.34232E-01-5.43880E+00-1.59872E-14-8.27671E-14
 -1      2237 6.14928E+00 3.45924E+00-3.84149E-02 4.18399E+00 9.76053E-13-6.62317E-13
 -1      2238 1.03214E+01 3.33351E+00 1.29225E-01 4.67648E+00 1.18772E-12-6.38795E-13
 -1      2239 2.50315E+01 2.15918E+00-1.71903E-02 1.74895E-01 6.59187E-13-3.25047E-13
 -1      2240 2.17518E+01 2.67297E+00-9.80664E-02-3.62470E+00-8.01737E-13-2.33459E-13
 -1      2241 1.26091E+01 2.66909E+00-7.45099E-02 5.23453E+00 7.82457E-13-7.39183E-13
 -1      2242 2.62308E+01 3.12721E+00-4.25108E-02-1.87038E+00 1.77876E-13-4.62148E-13
 -1      2243 2.57603E+01 3.63423E+00-9.07727E-02-2.35270E+00 2.45463E-14-6.53175E-13
 -1      2244 2.51215E+01 3.87456E+00-3.82139E-02-2.50522E+00-5.84602E-15-8.35347E-13
 -1      2245 2.44634E+01 4.10933E+00-5.07059E-02-2.66097E+00-1.52304E-13-9.60523E-13
 -1      2246 2.56161E+01 4.03824E+00-2.26335E-02-2.69069E+00-1.47351E-13-6.53203E-13
 -1      2247 1.27082E+01 2.67867E+00-4.37148E-02 4.93029E+00 9.44994E-13-6.12566E-13
 -1      2248 2.28745E+01 3.68473E+00-3.08918E-02-2.71246E+00-4.29338E-13-1.05138E-12
 -1      2249 2.24438E+01 3.41288E+00-3.52511E-02-2.81119E+00-5.77278E-13-1.00053E-12
 -1      2250 2.18412E+01 2.34028E+00-2.46985E-02-2.53524E+00-7.23232E-13-7.36690E-13
 -1      2251 2.14967E+01 1.65491E+00 3.15127E-02-1.72810E+00-6.64956E-13-5.87187E-13
 -1      2252 2.21360E+01 2.87864E+00-1.09834E-02-2.56668E+00-6.16228E-13-8.92763E-13
 -1      2253 3.01488E+01-5.63044E-01-7.10327E-02 3.52106E+00-2.33147E-15 5.90750E-13
 -1      2254 2.69582E+01-6.49212E-01 3.05792E-02 2.07316E+00-1.73125E-13 1.65135E-13
 -1      2255 3.28934E+01-6.60186E-01-9.05909E-02 4.69125E+00 1.95486E-13 1.23128E-12
 -1      2256 3.15817E+01-2.95100E-01-8.48345E-03 4.50664E+00 9.19889E-14 9.13193E-13
 -1      2257 3.10905E+01-1.33358E+00-4.70691E-02 4.03579E+00 1.85296E-13 7.37750E-13
 -1      2258 3.23924E+01-7.90615E-01-5.14259E-02 4.99977E+00 3.75887E-13 1.24331E-12
 -1      2259 2.12267E+01 1.38943E+00 3.26759E-03-1.22249E+00-5.69312E-13-6.00365E-13
 -1      2260 6.00390E+00 3.40390E+00-4.14444E-02 4.31264E+00 9.01640E-13-7.89660E-13
 -1      2261 2.09246E+01 1.02052E+00 2.40193E-02-4.88380E-01-4.86350E-13-5.49922E-13
 -1      2262 2.07596E+01 8.68651E-01 4.79019E-03-1.23795E-01-4.01270E-13-5.93141E-13
 -1      2263 2.06949E+01 7.19412E-01 1.98996E-02 2.25330E-01-3.66300E-13-5.78261E-13
 -1      2264 2.06556E+01 5.51562E-01-5.38774E-04 4.72571E-01-2.92919E-13-5.94588E-13
 -1      2265 2.12402E+01 1.05593E+00-8.46856E-03-1.80833E-02-4.03827E-13-6.34991E-13
 -1      2266 2.06654E+01 3.91685E-01 1.50655E-02 6.83728E-01-2.54152E-13-5.92567E-13
 -1      2267 2.07037E+01 2.24121E-01-3.80507E-03 8.05412E-01-2.15959E-13-6.19766E-13
 -1      2268 2.11611E+01 6.30975E-01-5.52273E-03 5.85050E-01-2.93998E-13-6.48073E-13
 -1      2269 2.07373E+01 7.82911E-02 8.52773E-03 8.72266E-01-1.66472E-13-6.26967E-13
 -1      2270 2.08104E+01-5.66652E-02-4.15658E-03 8.82080E-01-9.77467E-14-6.16984E-13
 -1      2271 2.11836E+01 2.10805E-01-6.59813E-04 8.80761E-01-2.04132E-13-6.57141E-13
 -1      2272 2.08241E+01-1.59953E-01 1.88254E-03 8.35343E-01-9.96142E-14-5.99594E-13
 -1      2273 2.08973E+01-2.40379E-01-2.53255E-03 7.67146E-01-3.77824E-14-6.20307E-13
 -1      2274 2.12132E+01-1.30822E-01 2.08909E-03 8.98419E-01-1.06650E-13-6.16005E-13
 -1      2275 2.08730E+01-2.90579E-01-3.11458E-03 6.56431E-01-1.67715E-14-6.30307E-13
 -1      2276 2.09255E+01-3.16153E-01-4.51002E-04 5.50547E-01 1.33121E-14-6.20480E-13
 -1      2277 2.11917E+01-3.39918E-01 2.30343E-03 7.29212E-01-4.52146E-14-6.31379E-13
 -1      2278 2.08677E+01-3.21275E-01-5.69910E-03 4.22455E-01-2.26319E-14-5.91263E-13
 -1      2279 2.08923E+01-3.07055E-01 1.11713E-03 3.12439E-01-3.99916E-14-5.77234E-13
 -1      2280 2.11069E+01-4.13393E-01 1.09296E-03 4.77951E-01 5.38317E-15-6.53741E-13
 -1      2281 2.08158E+01-2.84061E-01-6.16185E-03 1.98069E-01-6.91376E-14-5.38141E-13
 -1      2282 2.08143E+01-2.49182E-01 1.89631E-03 1.04667E-01-4.47676E-14-5.34386E-13
 -1      2283 2.09769E+01-3.86052E-01-2.33607E-04 2.26467E-01-4.12190E-14-5.75680E-13
 -1      2284 2.07333E+01-2.14521E-01-5.30947E-03 1.84302E-02-2.99491E-14-5.04929E-13
 -1      2285 2.07119E+01-1.74464E-01 2.03893E-03-4.96809E-02 1.35718E-14-4.95515E-13
 -1      2286 2.08277E+01-3.04475E-01-1.09992E-03 2.08118E-02-2.63346E-14-4.58309E-13
 -1      2287 2.06359E+01-1.39645E-01-3.90422E-03-1.05377E-01 2.80600E-14-4.78167E-13
 -1      2288 2.06017E+01-1.03801E-01 1.81239E-03-1.47917E-01 5.57112E-14-4.30197E-13
 -1      2289 2.06801E+01-2.07356E-01-1.46112E-03-1.23028E-01 1.60123E-14-3.64672E-13
 -1      2290 2.05355E+01-7.48800E-02-2.46181E-03-1.77210E-01-2.61764E-15-4.44344E-13
 -1      2291 2.04948E+01-4.72940E-02 1.44409E-03-1.98353E-01-3.50016E-14-4.14671E-13
 -1      2292 2.05462E+01-1.18788E-01-1.48195E-03-2.07838E-01 4.00942E-14-3.99807E-13
 -1      2293 2.04396E+01-2.62423E-02-1.24687E-03-2.07811E-01-9.14207E-14-3.85278E-13
 -1      2294 2.03974E+01-7.46009E-03 1.07248E-03-2.13251E-01-3.85860E-14-4.19750E-13
 -1      2295 2.04311E+01-4.96407E-02-1.33742E-03-2.45160E-01-4.74736E-14-3.97111E-13
 -1      2296 2.03526E+01 6.12268E-03-3.48303E-04-2.09464E-01-5.78175E-14-4.58060E-13
 -1      2297 2.03123E+01 1.73376E-02 7.59847E-04-2.04681E-01-6.02357E-14-4.76073E-13
 -1      2298 2.03353E+01-1.89954E-03-1.14147E-03-2.48722E-01-7.43635E-14-3.62546E-13
 -1      2299 2.02767E+01 2.48997E-02 2.43469E-04-1.93155E-01-1.02302E-13-4.60981E-13
 -1      2300 2.02403E+01 3.03975E-02 5.21974E-04-1.82628E-01-1.10809E-13-4.39570E-13
 -1      2301 2.02574E+01 2.71073E-02-9.50760E-04-2.30996E-01-8.55162E-14-3.92749E-13
 -1      2302 2.02123E+01 3.36196E-02 5.82521E-04-1.67467E-01-7.86455E-14-4.27550E-13
 -1      2303 2.01810E+01 3.52170E-02 3.52385E-04-1.54466E-01-4.44469E-14-3.60421E-13
 -1      2304 2.01948E+01 4.17670E-02-7.85280E-04-2.01842E-01-6.60472E-14-3.06017E-13
 -1      2305 2.01592E+01 3.56034E-02 7.34844E-04-1.38456E-01-9.73892E-14-3.69562E-13
 -1      2306 2.01331E+01 3.48001E-02 2.36614E-04-1.25150E-01-4.99807E-14-3.56559E-13
 -1      2307 2.01453E+01 4.65119E-02-6.47514E-04-1.68312E-01-6.22178E-14-2.72641E-13
 -1      2308 2.01163E+01 3.35279E-02 7.61566E-04-1.09999E-01-4.31739E-14-4.18743E-13
 -1      2309 2.00953E+01 3.14364E-02 1.59828E-04-9.76757E-02-1.80506E-14-4.76650E-13
 -1      2310 2.01065E+01 4.50632E-02-5.33528E-04-1.34999E-01-1.01564E-13-3.47034E-13
 -1      2311 2.00825E+01 2.93452E-02 7.12106E-04-8.43003E-02 8.54986E-15-4.65870E-13
 -1      2312 2.00661E+01 2.67231E-02 1.09726E-04-7.36093E-02 3.32245E-14-5.49429E-13
 -1      2313 2.00764E+01 4.02156E-02-4.38350E-04-1.04583E-01-1.65551E-14-3.84215E-13
 -1      2314 2.00565E+01 2.43649E-02 6.22861E-04-6.23793E-02 7.44552E-14-5.16645E-13
 -1      2315 2.00441E+01 2.16872E-02 7.71588E-05-5.35444E-02 1.18911E-13-4.50229E-13
 -1      2316 2.00535E+01 3.38957E-02-3.57994E-04-7.83704E-02 1.00980E-13-4.07558E-13
 -1      2317 2.00370E+01 1.93949E-02 5.18610E-04-4.44856E-02 1.62914E-13-3.19759E-13
 -1      2318 2.00278E+01 1.69300E-02 5.57853E-05-3.74680E-02 2.31045E-13-3.13035E-13
 -1      2319 2.00363E+01 2.73269E-02-2.89730E-04-5.67521E-02 2.17656E-13-2.69224E-13
 -1      2320 2.00226E+01 1.48812E-02 4.14893E-04-3.04088E-02 2.01198E-13-3.22315E-13
 -1      2321 2.00160E+01 1.27572E-02 4.14306E-05-2.50266E-02 1.42757E-13-2.64225E-13
 -1      2322 2.00235E+01 2.12135E-02-2.31766E-04-3.95624E-02 2.03483E-13-1.94084E-13
 -1      2323 2.00124E+01 1.10270E-02 3.20466E-04-1.96994E-02 7.19609E-14-3.40899E-13
 -1      2324 2.00078E+01 9.28257E-03 3.14532E-05-1.57075E-02 3.83930E-14-2.77712E-13
 -1      2325 2.00143E+01 1.59022E-02-1.82864E-04-2.63329E-02 1.16596E-13-2.37531E-13
 -1      2326 2.00053E+01 7.88302E-03 2.39428E-04-1.18142E-02-4.08995E-14-3.35074E-13
 -1      2327 2.00023E+01 6.50476E-03 2.42341E-05-8.95435E-03-1.28331E-13-2.97733E-13
 -1      2328 2.00078E+01 1.15102E-02-1.42053E-04-1.64646E-02-3.89082E-14-2.50428E-13
 -1      2329 2.00006E+01 5.41254E-03 1.72898E-04-6.20567E-03-8.85942E-14-1.88445E-13
 -1      2330 1.99988E+01 4.35993E-03 1.88047E-05-4.23509E-03-2.40574E-15-6.55426E-15
 -1      2331 2.00033E+01 8.01842E-03-1.08462E-04-9.33707E-03-3.90609E-14-2.34627E-13
 -1      2332 1.99977E+01 3.53471E-03 1.20230E-04-2.37152E-03-1.28595E-13 6.45001E-15
 -1      2333 1.99967E+01 2.75633E-03 1.45933E-05-1.07758E-03-3.82548E-15-3.67868E-14
 -1      2334 2.00004E+01 5.33526E-03-8.12418E-05-4.37012E-03-3.42289E-14 1.03168E-14
 -1      2335 1.99961E+01 2.15224E-03 7.98631E-05 1.21662E-04 2.91567E-14 2.09602E-14
 -1      2336 1.99957E+01 1.59547E-03 1.12606E-05 9.16493E-04-1.03481E-14 6.96780E-15
 -1      2337 1.99986E+01 3.33833E-03-5.95523E-05-1.05568E-03-2.03110E-14 1.15901E-13
 -1      2338 1.99953E+01 1.16778E-03 4.98649E-05 1.63186E-03-1.55268E-13-7.56645E-14
 -1      2339 1.99953E+01 7.84078E-04 8.59897E-06 2.07024E-03-1.32708E-13-2.17876E-15
 -1      2340 1.99975E+01 1.89956E-03-4.25747E-05 1.03132E-03-1.07427E-13 5.41591E-14
 -1      2341 1.99952E+01 4.92708E-04 2.82704E-05 2.44444E-03-2.05729E-14-7.82731E-14
 -1      2342 1.99953E+01 2.40096E-04 6.47264E-06 2.63741E-03 7.37414E-14-1.10040E-13
 -1      2343 1.99971E+01 8.99325E-04-2.95328E-05 2.23382E-03-6.28750E-14-1.67079E-14
 -1      2344 1.99953E+01 5.10063E-05 1.32664E-05 2.78007E-03 4.85232E-14-2.04507E-13
 -1      2345 1.99956E+01-1.05207E-04 4.78479E-06 2.81153E-03 1.06221E-13-8.53630E-14
 -1      2346 1.99969E+01 2.33241E-04-1.97137E-05 2.82012E-03 2.20380E-14-7.23102E-14
 -1      2347 1.99957E+01-2.19759E-04 3.28012E-06 2.80456E-03 7.26344E-14-1.14899E-13
 -1      2348 1.99961E+01-3.07241E-04 3.45988E-06 2.73614E-03 2.59639E-14-1.67436E-13
 -1      2349 1.99970E+01-1.85584E-04-1.24818E-05 2.99432E-03 3.16458E-14-1.54731E-13
 -1      2350 1.99962E+01-3.69144E-04-2.99404E-06 2.63906E-03-7.70508E-14-1.58587E-13
 -1      2351 1.99966E+01-4.09304E-04 2.43497E-06 2.51466E-03-9.46687E-14-8.69451E-14
 -1      2352 1.99973E+01-4.26876E-04-7.28643E-06 2.90750E-03-3.35103E-14-2.56147E-13
 -1      2353 1.99968E+01-4.35341E-04-6.60255E-06 2.36939E-03-1.14879E-13-1.55026E-13
 -1      2354 1.99971E+01-4.44292E-04 1.65575E-06 2.21924E-03-4.01664E-14-2.15235E-13
 -1      2355 1.99976E+01-5.44901E-04-3.66230E-06 2.66835E-03-1.60004E-13-2.37526E-13
 -1      2356 1.99973E+01-4.46990E-04-8.35972E-06 2.05426E-03-2.52991E-14-2.43031E-13
 -1      2357 1.99976E+01-4.36537E-04 1.07488E-06 1.89831E-03-4.23927E-14-1.85384E-13
 -1      2358 1.99979E+01-5.80741E-04-1.22561E-06 2.35258E-03-1.42641E-14-1.63307E-13
 -1      2359 1.99977E+01-4.25000E-04-8.88210E-06 1.73211E-03 5.51248E-14-1.78858E-13
 -1      2360 1.99980E+01-4.03546E-04 6.51269E-07 1.58276E-03 4.78651E-14-1.64754E-13
 -1      2361 1.99982E+01-5.64668E-04 3.33441E-07 2.01097E-03 2.65397E-14-1.01696E-13
 -1      2362 1.99982E+01-3.84202E-04-8.62423E-06 1.42656E-03 1.14644E-15-2.10699E-13
 -1      2363 1.99984E+01-3.57539E-04 3.49625E-07 1.29084E-03-1.21322E-14-2.00502E-13
 -1      2364 1.99985E+01-5.18383E-04 1.25963E-06 1.67581E-03-2.48895E-14-1.52326E-13
 -1      2365 1.99985E+01-3.34780E-04-7.91184E-06 1.15074E-03 1.12343E-13-7.97952E-14
 -1      2366 1.99987E+01-3.06751E-04 1.40061E-07 1.03199E-03 1.22729E-13 5.79431E-14
 -1      2367 1.99988E+01-4.56965E-04 1.74229E-06 1.36617E-03 1.18984E-13-1.25180E-13
 -1      2368 1.99988E+01-2.83458E-04-6.97099E-06 9.10608E-04-4.07294E-14 1.93087E-13
 -1      2369 1.99990E+01-2.56485E-04-2.28162E-09 8.09700E-04-7.16496E-15 2.54199E-13
 -1      2370 1.99990E+01-3.90522E-04 1.92472E-06 1.09184E-03 1.49995E-13 6.22193E-16
 -1      2371 1.99991E+01-2.34449E-04-5.95233E-06 7.07353E-04 3.13012E-14 3.81368E-13
 -1      2372 1.99992E+01-2.09952E-04-9.76699E-08 6.23609E-04 2.28493E-13 4.46741E-13
 -1      2373 1.99992E+01-3.25515E-04 1.91285E-06 8.56371E-04 8.45408E-14 3.68066E-13
 -1      2374 1.99993E+01-1.90205E-04-4.95068E-06 5.39205E-04 3.08893E-13 3.44271E-13
 -1      2375 1.99994E+01-1.68924E-04-1.62438E-07 4.71033E-04 4.20484E-13 3.18162E-13
 -1      2376 1.99993E+01-2.65818E-04 1.78225E-06 6.59304E-04 1.97139E-13 3.25499E-13
 -1      2377 1.99994E+01-1.51989E-04-4.02145E-06 4.02676E-04 4.44096E-13 3.47424E-13
 -1      2378 1.99995E+01-1.34222E-04-2.09509E-07 3.48007E-04 4.29913E-13 4.20880E-13
 -1      2379 1.99995E+01-2.13531E-04 1.58390E-06 4.97740E-04 4.69933E-13 3.34243E-13
 -1      2380 1.99995E+01-1.20288E-04-3.19264E-06 2.93413E-04 6.69675E-14 3.61633E-13
 -1      2381 1.99996E+01-1.06022E-04-2.39674E-07 2.50005E-04 6.60391E-15 2.82795E-13
 -1      2382 1.99996E+01-1.69575E-04 1.34817E-06 3.67475E-04 2.07537E-13 3.10382E-13
 -1      2383 1.99996E+01-9.49889E-05-2.46759E-06 2.06808E-04 1.50739E-13 1.60179E-13
 -1      2384 1.99997E+01-8.40066E-05-2.78767E-07 1.72538E-04-9.35444E-14 9.96412E-14
 -1      2385 1.99996E+01-1.33988E-04 1.10292E-06 2.63733E-04-7.68002E-14 9.83530E-14
 -1      2386 1.99997E+01-7.52820E-05-1.76838E-06 1.38451E-04-3.34096E-13 9.24276E-14
 -1      2387 1.99997E+01-6.74541E-05-5.22697E-07 1.11605E-04-4.13209E-13 8.11294E-14
 -1      2388 1.99997E+01-1.06327E-04 8.24505E-07 1.81841E-04-1.33486E-13-1.56048E-13
 -1      2389 1.99998E+01-1.22970E-04 6.65631E-07-1.03863E-04-5.41241E-14 4.37206E-13
 -1      2390 1.99998E+01-1.01362E-04-9.70246E-07-9.49616E-05-1.33558E-13 3.28234E-13
 -1      2391 2.94972E+01 1.62938E-01-1.73996E-01-1.72068E+00 6.13662E-13-7.06789E-13
 -1      2392 2.96376E+01 1.85873E+00-6.17952E-02-1.29721E+00 9.16628E-13-4.96089E-13
 -1      2393 2.85341E+01-1.64651E+00-1.27435E-02-7.33194E-01 9.67937E-14-8.02768E-13
 -1      2394 2.88334E+01-8.94481E-01-3.22355E-02-1.29097E+00 3.22617E-13-8.11514E-13
 -1      2395 2.65210E+01-1.55535E+00 3.79483E-02 9.42558E-01-1.29113E-13-6.00374E-13
 -1      2396 2.70844E+01-1.81122E+00-4.07474E-02 2.92303E-01-1.65545E-14-6.90532E-13
 -1      2397 2.47942E+01-7.60470E-01 3.03693E-02 1.81740E+00-2.08424E-13-4.08912E-13
 -1      2398 2.53818E+01-1.18208E+00-1.96750E-02 1.46487E+00-1.41023E-13-4.70639E-13
 -1      2399 2.51532E+01-1.91879E+00-6.59187E-02 1.95408E+00-2.16147E-13-5.36185E-13
 -1      2400 2.35376E+01-1.22577E-01 1.51482E-02 2.03083E+00-1.31818E-13-3.38036E-13
 -1      2401 2.40734E+01-4.04202E-01-4.99417E-03 1.94414E+00-1.52690E-13-3.82942E-13
 -1      2402 2.34000E+01-8.27724E-01-4.19147E-02 2.43201E+00-1.74207E-13-3.72425E-13
 -1      2403 2.26567E+01 2.08317E-01 5.57628E-03 1.87936E+00-1.46194E-13-2.61844E-13
 -1      2404 2.31168E+01 7.45788E-02 2.76386E-03 1.95026E+00-1.09563E-13-2.92565E-13
 -1      2405 2.23563E+01-5.10166E-02-2.21202E-02 2.38665E+00-1.48656E-13-3.18700E-13
 -1      2406 2.20222E+01 3.19379E-01 1.63269E-03 1.57647E+00 9.08605E-15-2.08901E-13
 -1      2407 2.24056E+01 2.83235E-01 8.22843E-03 1.71085E+00-8.38038E-14-2.40300E-13
 -1      2408 2.17364E+01 3.33140E-01-9.74266E-03 2.08609E+00-1.10350E-13-2.94880E-13
 -1      2409 2.15432E+01 3.16941E-01 5.72571E-04 1.24986E+00 1.62895E-14-1.01362E-13
 -1      2410 2.18547E+01 3.27286E-01 1.02757E-02 1.39311E+00 3.43033E-14-1.00287E-13
 -1      2411 2.13370E+01 4.47908E-01-3.94956E-03 1.70826E+00-2.38224E-14-1.70302E-13
 -1      2412 2.11710E+01 2.69982E-01 4.99420E-04 9.56521E-01 7.81918E-14-5.43347E-14
 -1      2413 2.14183E+01 2.96826E-01 1.02452E-02 1.08373E+00 1.10084E-13-8.08030E-14
 -1      2414 2.10473E+01 4.29395E-01-1.67584E-03 1.34269E+00 6.08890E-14-3.09062E-14
 -1      2415 2.08793E+01 2.13507E-01 6.07567E-04 7.15193E-01-1.30998E-14-1.07758E-13
 -1      2416 2.10715E+01 2.42436E-01 9.06643E-03 8.18643E-01 2.84104E-14-8.78050E-14
 -1      2417 2.08195E+01 3.60795E-01-1.02434E-03 1.02656E+00 6.45606E-14 1.53320E-16
 -1      2418 2.06517E+01 1.62137E-01 6.73308E-04 5.26143E-01-5.83778E-14-8.38861E-14
 -1      2419 2.07983E+01 1.87484E-01 7.45903E-03 6.06300E-01-4.57449E-14-1.02683E-13
 -1      2420 2.06344E+01 2.83591E-01-9.57734E-04 7.69692E-01-9.01297E-15-8.70115E-14
 -1      2421 2.04760E+01 1.20293E-01 6.68675E-04 3.82317E-01 8.52909E-14-1.51878E-13
 -1      2422 2.05861E+01 1.40599E-01 5.86081E-03 4.42694E-01 7.02511E-14-1.09080E-13
 -1      2423 2.04838E+01 2.14759E-01-1.00616E-03 5.68761E-01 4.80931E-14-1.10079E-13
 -1      2424 2.03420E+01 8.80189E-02 6.14914E-04 2.74868E-01-9.97791E-15-2.52647E-13
 -1      2425 2.04236E+01 1.03558E-01 4.47118E-03 3.19573E-01 7.78933E-14-2.50276E-13
 -1      2426 2.03628E+01 1.59132E-01-1.01224E-03 4.15360E-01 1.08520E-13-1.07034E-13
 -1      2427 2.02411E+01 6.38371E-02 5.36530E-04 1.95541E-01-7.22009E-14-2.59020E-13
 -1      2428 2.03008E+01 7.54397E-02 3.34605E-03 2.28281E-01-8.65969E-14-3.08151E-13
 -1      2429 2.02670E+01 1.16364E-01-9.52893E-04 3.00112E-01-1.49952E-14-3.21446E-13
 -1      2430 2.01661E+01 4.59929E-02 4.48667E-04 1.37465E-01-1.69919E-14-3.69468E-13
 -1      2431 2.02094E+01 5.45462E-02 2.47181E-03 1.61258E-01 3.66824E-14-2.63215E-13
 -1      2432 2.01926E+01 8.43555E-02-8.47729E-04 2.14486E-01-3.44082E-15-2.87108E-13
 -1      2433 2.01112E+01 3.28824E-02 3.25712E-04 9.52268E-02-9.85121E-14-3.36115E-13
 -1      2434 2.01421E+01 3.92217E-02 1.81541E-03 1.12423E-01-1.01790E-13-4.12426E-13
 -1      2435 2.01359E+01 6.07353E-02-7.24115E-04 1.51411E-01 7.32132E-15-3.34096E-13
 -1      2436 2.00700E+01 2.29584E-02 2.57024E-04 6.34709E-02-2.52620E-14-3.19295E-13
 -1      2437 2.00925E+01 2.76951E-02 1.30280E-03 7.62591E-02-3.67725E-14-2.70388E-13
 -1      2438 2.00925E+01 4.33000E-02-5.20994E-04 1.04441E-01-1.22674E-13-5.23382E-13
 -1      2439 2.00426E+01 1.62148E-02 2.23632E-04 4.20368E-02 4.70722E-14-1.85832E-13
 -1      2440 2.00572E+01 1.95021E-02 9.35375E-04 5.06310E-02 6.31528E-14-2.03265E-13
 -1      2441 2.00606E+01 3.03193E-02-4.76156E-04 7.04192E-02-7.86159E-15-3.04744E-13
 -1      2442 2.00235E+01 1.12781E-02 1.71199E-04 2.68383E-02 1.03285E-13-2.32461E-13
 -1      2443 2.00334E+01 1.36474E-02 6.60975E-04 3.28790E-02 8.23941E-14-2.10366E-13
 -1      2444 2.00383E+01 2.13280E-02-3.71350E-04 4.67423E-02 9.07220E-14-3.35489E-13
 -1      2445 2.00107E+01 7.70964E-03 1.28602E-04 1.62193E-02 2.50678E-13-3.75175E-13
 -1      2446 2.00171E+01 9.42170E-03 4.65562E-04 2.03988E-02 1.74507E-13-2.16358E-13
 -1      2447 2.00225E+01 1.47951E-02-2.85507E-04 2.99139E-02 1.69998E-13-3.98553E-13
 -1      2448 2.00024E+01 5.14538E-03 9.48135E-05 8.93391E-03-5.80923E-14-3.62640E-13
 -1      2449 2.00064E+01 6.37462E-03 3.23183E-04 1.17669E-02 7.28715E-14-3.10402E-13
 -1      2450 2.00117E+01 1.00781E-02-2.15528E-04 1.81202E-02 1.03839E-13-4.12083E-13
 -1      2451 1.99973E+01 3.31845E-03 6.84810E-05 4.05823E-03-1.19383E-13-2.50075E-13
 -1      2452 1.99995E+01 4.19284E-03 2.19935E-04 5.92447E-03-8.43559E-14-2.95231E-13
 -1      2453 2.00044E+01 6.69315E-03-1.59785E-04 1.00085E-02-4.02686E-14-2.44819E-13
 -1      2454 1.99944E+01 2.03269E-03 4.83249E-05 9.07258E-04-1.35544E-13-2.86868E-13
 -1      2455 1.99955E+01 2.64652E-03 1.45666E-04 2.08686E-03-4.74611E-14-2.61877E-13
 -1      2456 1.99998E+01 4.28627E-03-1.16229E-04 4.56852E-03-1.02165E-13-3.21073E-13
 -1      2457 1.99930E+01 1.14307E-03 3.31644E-05-1.02568E-03-9.10195E-14-3.54379E-13
 -1      2458 1.99934E+01 1.56621E-03 9.28228E-05-3.26574E-04-2.30560E-13-3.35241E-13
 -1      2459 1.99970E+01 2.59689E-03-8.27678E-05 1.04640E-03-1.00332E-13-3.91159E-13
 -1      2460 1.99926E+01 5.41862E-04 2.19650E-05-2.11377E-03 3.00685E-13-3.77642E-13
 -1      2461 1.99925E+01 8.26296E-04 5.57659E-05-1.74416E-03 1.20291E-13-3.23296E-13
 -1      2462 1.99956E+01 1.43219E-03-5.74827E-05-1.11805E-03 6.70976E-14-3.61681E-13
 -1      2463 1.99929E+01 1.48795E-04 1.38514E-05-2.62992E-03 3.53718E-14-4.30662E-13
 -1      2464 1.99925E+01 3.33305E-04 3.02783E-05-2.48007E-03 2.78595E-13-3.61389E-13
 -1      2465 1.99950E+01 6.48901E-04-3.86975E-05-2.33906E-03 2.93302E-13-3.51502E-13
 -1      2466 1.99934E+01-9.59329E-05 8.10209E-06-2.77176E-03 1.06577E-14-5.68183E-13
 -1      2467 1.99929E+01 1.75568E-05 1.32036E-05-2.76277E-03-1.61576E-14-5.69163E-13
 -1      2468 1.99949E+01 1.40292E-04-2.49936E-05-2.92048E-03 1.29622E-13-4.53897E-13
 -1      2469 1.99942E+01-2.36754E-04 4.13599E-06-2.68044E-03 8.80718E-14-5.52495E-13
 -1      2470 1.99936E+01-1.72821E-04 2.18022E-06-2.75646E-03 8.38967E-14-4.69857E-13
 -1      2471 1.99952E+01-1.73110E-04-1.52004E-05-3.08281E-03-1.90602E-14-5.96320E-13
 -1      2472 1.99950E+01-3.06549E-04 1.44019E-06-2.45500E-03 1.86900E-13-4.52992E-13
 -1      2473 1.99945E+01-2.76275E-04-4.55291E-06-2.57725E-03 1.28468E-13-4.27105E-13
 -1      2474 1.99957E+01-3.50280E-04-8.37665E-06-2.98379E-03 7.05568E-14-5.05997E-13
 -1      2475 1.99958E+01-3.29322E-04 5.20701E-09-2.16330E-03-3.71684E-15-4.25152E-13
 -1      2476 1.99953E+01-3.20815E-04-8.22178E-06-2.30539E-03 1.52454E-13-3.78453E-13
 -1      2477 1.99962E+01-4.34883E-04-3.76790E-06-2.73424E-03 1.38696E-13-4.17884E-13
 -1      2478 1.99966E+01-3.21299E-04-1.06488E-06-1.83428E-03 1.07392E-13-3.86676E-13
 -1      2479 1.99961E+01-3.26649E-04-9.72529E-06-1.98649E-03-6.05778E-14-4.26255E-13
 -1      2480 1.99968E+01-4.57967E-04-1.21025E-06-2.40166E-03 4.41934E-14-3.60051E-13
 -1      2481 1.99972E+01-2.95737E-04-1.73941E-06-1.52871E-03-4.56762E-14-1.25343E-13
 -1      2482 1.99968E+01-3.09714E-04-1.03978E-05-1.66615E-03 1.05888E-13-2.96347E-13
 -1      2483 1.99973E+01-4.41661E-04 1.22527E-06-2.04386E-03 4.48973E-14-2.12065E-13
 -1      2484 1.99978E+01-2.61683E-04-1.90455E-06-1.24740E-03 1.18584E-13-1.04965E-13
 -1      2485 1.99975E+01-2.79610E-04-9.95768E-06-1.37156E-03-5.81169E-14-2.14542E-13
 -1      2486 1.99978E+01-4.03832E-04 2.20530E-06-1.70361E-03 3.07982E-15-2.40631E-13
 -1      2487 1.99983E+01-2.24606E-04-1.90253E-06-9.98525E-04 3.26325E-14-1.86853E-13
 -1      2488 1.99980E+01-2.43662E-04-9.05451E-06-1.10674E-03 7.76634E-14-1.50551E-13
 -1      2489 1.99982E+01-3.55443E-04 2.66554E-06-1.39019E-03 1.56858E-13-1.22749E-13
 -1      2490 1.99986E+01-1.88048E-04-1.78338E-06-7.84978E-04 1.18431E-13-1.56413E-13
 -1      2491 1.99984E+01-2.06573E-04-7.93813E-06-8.76735E-04 4.94910E-14-1.75978E-13
 -1      2492 1.99986E+01-3.03757E-04 2.77050E-06-1.11283E-03 4.82927E-14 2.49589E-14
 -1      2493 1.99989E+01-1.54189E-04-1.60453E-06-6.06201E-04-3.26866E-13-5.89123E-14
 -1      2494 1.99988E+01-1.71174E-04-6.75991E-06-6.82261E-04 5.27084E-14-3.14828E-14
 -1      2495 1.99989E+01-2.53412E-04 2.65607E-06-8.74775E-04-4.05824E-14 5.75566E-15
 -1      2496 1.99992E+01-1.24232E-04-1.40566E-06-4.59564E-04-4.04656E-13-1.92329E-13
 -1      2497 1.99990E+01-1.39137E-04-5.61978E-06-5.21433E-04-4.16957E-13-1.97149E-13
 -1      2498 1.99991E+01-2.07181E-04 2.41713E-06-6.75428E-04-1.94762E-13-8.05200E-14
 -1      2499 1.99994E+01-9.87254E-05-1.20788E-06-3.41299E-04-2.87208E-13-8.16388E-14
 -1      2500 1.99993E+01-1.11317E-04-4.57335E-06-3.90867E-04-5.06709E-13-2.46468E-13
 -1      2501 1.99993E+01-1.66558E-04 2.11912E-06-5.11857E-04-4.68765E-13-1.54832E-13
 -1      2502 1.99995E+01-7.78876E-05-1.06742E-06-2.47135E-04 1.05160E-14-1.98301E-13
 -1      2503 1.99994E+01-8.80893E-05-3.65431E-06-2.86455E-04 4.59730E-14-1.59870E-13
 -1      2504 1.99994E+01-1.32185E-04 1.80227E-06-3.79885E-04-1.53875E-13-1.90782E-13
 -1      2505 1.99996E+01-6.14287E-05-8.83107E-07-1.72414E-04 2.58858E-13-5.39117E-13
 -1      2506 1.99996E+01-6.95085E-05-2.84700E-06-2.03627E-04 4.34165E-15-4.10475E-13
 -1      2507 1.99996E+01-1.04127E-04 1.63952E-06-2.75070E-04 2.25805E-13-5.34132E-13
 -1      2508 1.99997E+01-4.88615E-05-6.80023E-07-1.13518E-04 4.16709E-13-6.80606E-13
 -1      2509 1.99996E+01-5.50649E-05-2.26389E-06-1.38381E-04 3.12350E-13-5.16344E-13
 -1      2510 1.99996E+01-8.13473E-05 1.68879E-06-1.92120E-04 1.89900E-13-5.76145E-13
 -1      2511 1.99997E+01-3.88472E-05-2.86593E-07-6.67504E-05 4.83419E-13-6.47786E-13
 -1      2512 1.99997E+01-4.41472E-05-1.71635E-06-8.70423E-05 5.01835E-13-4.53990E-13
 -1      2513 1.99997E+01-6.44219E-05 1.34317E-06-1.26240E-04 3.65357E-13-4.59371E-13
 -1      2514 3.34362E+01 6.32679E-01-8.66985E-02 1.52491E+00 1.03807E-12-4.57856E-13
 -1      2515 3.13467E+01-1.01365E+00-3.61838E-02 2.31207E+00 7.71563E-13-3.79086E-13
 -1      2516 1.99998E+01-2.20343E-04 1.14062E-06-1.00890E-04 1.17230E-14-1.49459E-13
 -1      2517 1.99998E+01-2.00795E-04-4.78535E-07-1.07525E-04 1.09702E-13-4.80326E-13
 -1      2518 4.09390E+00 3.71284E+00 9.95775E-02 3.63386E+00 8.68611E-13-7.82902E-13
 -1      2519 1.99998E+01-1.73228E-04 8.81610E-07-1.11374E-04-8.94682E-14-1.47081E-13
 -1      2520 1.99998E+01-1.51835E-04-8.17592E-07-1.09215E-04-1.90694E-13 3.06410E-13
 -1      2521 1.99998E+01-1.52626E-04 4.73503E-07-1.28678E-04-2.32627E-14 2.36663E-13
 -1      2522 1.99998E+01-2.07411E-04-6.00716E-07-1.31097E-04-7.11764E-16-7.81805E-14
 -1      2523 1.99998E+01-2.57536E-04 1.16141E-06-7.36810E-05-1.39407E-14 3.14078E-13
 -1      2524 1.99998E+01-2.42783E-04-6.04953E-08-8.75559E-05 9.05867E-14 8.82411E-14
 -1      2525 1.99998E+01-2.55548E-04-8.35300E-07-1.11835E-04 1.68492E-13 4.24591E-14
 -1      2526 1.99999E+01-2.80051E-04 1.02637E-06-3.44013E-05-1.07496E-13-1.04612E-13
 -1      2527 1.99998E+01-2.72151E-04 3.72830E-07-5.31127E-05-4.59800E-14 6.93312E-14
 -1      2528 1.99999E+01-2.91230E-04-1.07305E-06-7.49454E-05-6.12555E-14 1.00607E-13
 -1      2529 1.99999E+01-2.85006E-04 7.52706E-07 1.04613E-05-1.85971E-13-7.28880E-14
 -1      2530 1.99999E+01-2.85065E-04 7.55187E-07-9.92781E-06-2.84285E-13-4.93936E-14
 -1      2531 1.99999E+01-3.10130E-04-1.20406E-06-2.61437E-05-9.82320E-14-1.44232E-13
 -1      2532 1.99998E+01-2.71801E-04 3.82981E-07 5.35775E-05 4.52379E-14-7.42421E-14
 -1      2533 1.99999E+01-2.79844E-04 1.02146E-06 3.49167E-05-6.71268E-14-7.90867E-14
 -1      2534 1.99999E+01-3.09980E-04-1.20014E-06 2.67861E-05 1.56890E-13 7.03115E-14
 -1      2535 1.99998E+01-2.42856E-04-5.32575E-08 8.74169E-05 3.03808E-13-2.92532E-13
 -1      2536 1.99998E+01-2.57368E-04 1.15638E-06 7.37807E-05 2.22593E-13-2.97806E-13
 -1      2537 1.99999E+01-2.91062E-04-1.08704E-06 7.51531E-05 2.91108E-13-2.91975E-14
 -1      2538 1.99998E+01-2.00789E-04-4.47064E-07 1.07438E-04 1.94668E-13 2.32558E-13
 -1      2539 1.99998E+01-2.20417E-04 1.13694E-06 1.00776E-04 3.08030E-13-2.23549E-13
 -1      2540 1.99998E+01-2.55558E-04-8.16220E-07 1.11748E-04 3.09183E-13-2.23176E-13
 -1      2541 1.99998E+01-1.51004E-04-6.58334E-07 1.09499E-04 1.36336E-13 3.69919E-13
 -1      2542 1.99998E+01-1.73289E-04 8.93251E-07 1.11403E-04 1.40234E-13 5.58107E-13
 -1      2543 1.99998E+01-2.07345E-04-4.63059E-07 1.30838E-04 2.53263E-13 2.25888E-13
 -1      2544 1.99998E+01-1.00048E-04-7.47720E-07 9.36762E-05 7.38605E-15 7.38307E-14
 -1      2545 1.99998E+01-1.22209E-04 5.21749E-07 1.03499E-04 1.28987E-13 6.54892E-14
 -1      2546 1.99998E+01-1.51854E-04 1.83495E-07 1.29085E-04 1.33448E-13 2.63715E-13
 -1      2547 1.99998E+01-5.41921E-05-8.18913E-07 5.42977E-05 4.35607E-14 2.84828E-13
 -1      2548 3.03463E+01 3.30803E+00-1.80633E-01-1.68531E-02 1.24897E-12-2.54081E-13
 -1      2549 3.07407E+01 4.07959E+00-1.10870E-01 1.64239E+00 1.35414E-12 1.24498E-13
 -1      2550 7.21343E+00-1.20104E+00 3.90203E-02-5.29401E+00 7.34579E-13 1.11028E-12
 -1      2551 9.76394E+00-1.62173E+00 3.60726E-02-6.63052E+00 7.35106E-13 1.03564E-12
 -1      2552 4.59344E+00 8.22219E-02 9.27034E-02-1.66003E+00 4.86167E-13 1.25921E-12
 -1      2553 5.43144E+00-5.13291E-01 5.68286E-02-3.84297E+00 5.75040E-13 1.22691E-12
 -1      2554 8.22670E+00-4.97134E-02 1.30881E-01-4.53608E+00 6.57835E-13 1.10606E-12
 -1      2555 2.38926E+01 4.02041E+00-3.58756E-02-2.64429E+00-2.03364E-13-1.01281E-12
 -1      2556 2.33404E+01 3.99906E+00-2.90423E-02-2.73582E+00-3.62978E-13-1.05996E-12
 -1      2557 2.31801E+01 3.60065E+00 1.06456E-02-2.53985E+00-4.37229E-13-9.45806E-13
 -1      2558 2.42497E+01 4.05359E+00 2.99882E-03-2.66016E+00-2.61614E-13-8.90519E-13
 -1      2559 3.06181E+01 6.95083E+00-8.12595E-02-1.01796E+00-1.13781E-12-1.03056E-12
 -1      2560 2.99101E+01 7.26261E+00-1.62479E-01-1.28715E+00-1.21497E-12-9.05727E-13
 -1      2561 1.20346E+01-1.98875E+00-1.53363E-02 6.81362E+00 8.44325E-14 6.40932E-13
 -1      2562 8.63657E+00-1.43483E+00 5.59968E-02 5.51040E+00 1.20626E-13 9.75969E-13
 -1      2563 2.72943E+00 2.02923E+00-1.28110E-01-6.70040E-01 5.24178E-13-1.36469E-12
 -1      2564 5.22639E+00 2.18204E+00-9.51702E-02-1.59734E+00 1.07914E-13-1.22469E-12
 -1      2565 3.44797E+01 3.95413E+00-2.09167E-02 4.75582E+00 1.44129E-12 2.91156E-13
 -1      2566 3.47374E+01 5.36390E+00-9.68204E-02 3.68082E+00 1.64257E-12 1.37182E-13
 -1      2567 2.89397E+01-2.47108E+00-1.21889E-01 4.18958E+00 5.48644E-13-2.95625E-13
 -1      2568 2.59679E+01-3.17916E+00 4.07968E-03 5.11468E+00 3.57547E-13-1.36280E-13
 -1      2569 3.07516E+01 3.57037E+00-1.09945E-01 3.40541E+00 1.22388E-12 5.13665E-13
 -1      2570 3.15604E+01 2.31231E+00-1.84369E-01 4.71453E+00 1.06595E-12 8.48599E-13
 -1      2571 1.81363E+01-8.21516E-01-7.08274E-02-1.61091E+00 8.04912E-15-7.55680E-13
 -1      2572 2.39134E+01-2.13984E+00-1.79668E-01-6.70308E-01 1.86962E-13-4.54942E-13
 -1      2573 3.37931E+01 7.26005E-02-1.49594E-03 4.61788E+00 1.00409E-12 3.15137E-13
 -1      2574 3.45387E+01 1.41385E+00-2.06132E-01 5.01935E+00 1.19740E-12 3.84137E-13
 -1      2575 2.89673E+01-2.21769E+00 1.32757E-04 1.64593E+00 3.97293E-13-9.83658E-14
 -1      2576 3.22788E+01-1.83706E+00-2.02958E-01 3.07403E+00 7.43641E-13 1.22402E-13
 -1      2577 2.48895E+01-1.83257E+00-2.66345E-02-4.86643E+00 3.95878E-13-3.69260E-13
 -1      2578 2.72432E+01-7.26050E-01-6.32298E-02-3.98874E+00 1.47812E-13-5.29160E-13
 -1      2579 2.76552E+01 2.21190E+00-1.50582E-01 9.30816E-01-1.18731E-13-2.63484E-13
 -1      2580 2.54737E+01 1.78686E+00-7.41178E-02 2.19585E+00 1.73930E-13-3.09808E-13
 -1      2581 3.04966E+01 4.68792E+00-1.47793E-01-1.20413E+00-8.53803E-13-3.89411E-13
 -1      2582 2.91774E+01 3.62994E+00-7.49852E-02-5.72119E-01-5.05831E-13-2.50466E-13
 -1      2583 3.00229E+01 6.83011E+00-1.78119E-01-1.95723E+00-1.14983E-12-6.22738E-13
 -1      2584 3.06557E+01 5.95822E+00-6.49475E-02-1.73961E+00-1.02010E-12-4.88887E-13
 -1      2585 2.90174E+01 5.42503E+00-7.64432E-03-2.19993E+00-7.35273E-13-3.60628E-13
 -1      2586 3.06569E+01 4.80958E+00-5.68478E-02-1.00555E+00-7.68219E-13-1.03381E-12
 -1      2587 3.07479E+01 5.91437E+00-1.40477E-01-9.01464E-01-9.98285E-13-1.08963E-12
 -1      2588 2.88962E+01 1.17049E+00-2.73129E-02-2.61103E+00-2.08424E-13-7.45959E-13
 -1      2589 3.04108E+01 2.99520E+00-9.13886E-02-1.74016E+00-5.23262E-13-8.97338E-13
 -1      2590 1.99143E+01-2.88598E+00 3.60908E-02-6.60044E+00 7.50566E-13 8.45435E-14
 -1      2591 2.28432E+01-2.47801E+00-1.22151E-02-6.11258E+00 5.15921E-13-1.03917E-13
 -1      2592 2.46241E+01-2.56324E+00 4.44738E-02-4.61253E+00 6.80192E-13-4.71054E-13
 -1      2593 1.26259E+01-2.43890E+00 3.37557E-02-7.09369E+00 8.35720E-13 8.04676E-13
 -1      2594 1.59221E+01-2.70934E+00-2.08155E-02-7.46605E+00 7.58282E-13 5.10259E-13
 -1      2595 3.46583E+01 6.12029E+00-7.96285E-02 2.16140E+00 1.73161E-12-2.04619E-13
 -1      2596 3.52439E+01 5.68585E+00 4.56790E-03 1.24096E+00 1.70403E-12-2.83329E-13
 -1      2597 2.50323E+01 1.67346E+00-4.13402E-02 1.03580E+00 6.64226E-13-1.87135E-13
 -1      2598 2.62842E+01 2.11870E+00-3.93572E-02-4.36921E-01 4.46669E-13-2.74510E-13
 -1      2599 3.53559E+01 4.45356E+00-4.00640E-02 9.25924E-01 1.55387E-12-4.46976E-13
 -1      2600 3.44541E+01 2.80079E+00-2.81695E-02 8.14600E-01 1.35028E-12-4.50973E-13
 -1      2601 2.73324E+01 6.68422E+00-1.23451E-01-1.30495E+00-9.51017E-13-9.39335E-13
 -1      2602 2.89739E+01 6.92581E+00-1.19229E-01-1.70826E+00-1.07570E-12-7.88425E-13
 -1      2603 2.76067E+01 6.41258E+00-1.05337E-01-1.97858E+00-9.00641E-13-6.87148E-13
 -1      2604 2.88722E+01 6.10403E+00-5.18723E-02-4.86453E-01-9.03000E-13-1.18162E-12
 -1      2605 2.23610E+01 2.73822E+00 1.81037E-02-2.22067E+00-5.81682E-13-8.56035E-13
 -1      2606 2.92813E+01 3.33112E+00-2.13355E-02-6.30719E-01-4.67168E-13-1.20540E-12
 -1      2607 3.01576E+01-4.53961E-01-7.12227E-02-1.12116E+00 5.33462E-13-8.89122E-13
 -1      2608 2.77429E+01-2.37732E+00-1.04308E-01 5.51791E-01-1.24943E-14-8.47541E-13
 -1      2609 2.16227E+01 1.67433E+00-8.97230E-03-1.14717E+00-5.50392E-13-6.79694E-13
 -1      2610 3.27428E+01 4.90286E+00-7.90829E-02 2.79623E+00 1.53999E-12 9.65790E-14
 -1      2611 1.99997E+01-9.32810E-05-7.90380E-07-1.12031E-04 1.30753E-13-8.40764E-14
 -1      2612 1.99998E+01-6.91238E-05 2.20333E-08-8.23610E-05 1.35211E-13-5.27771E-14
 -1      2613 8.51217E+00-3.37467E-01 1.47990E-01 4.53208E+00-3.21965E-15 9.95537E-13
 -1      2614 3.03192E+01-2.13551E+00 4.95271E-02 1.98554E+00 3.94636E-13-5.75207E-13
 -1      2615 3.28488E+01 1.13239E+00-6.00773E-03-5.07408E-02 1.00553E-12-6.93168E-13
 -1      2616 1.99998E+01-7.70627E-06-1.36010E-06-1.06768E-06-2.97085E-13-8.52427E-13
 -1      2617 1.99998E+01-1.63120E-05 4.71819E-07-1.29628E-05-3.13896E-13-6.21181E-13
 -1      2618 2.79289E+01-2.70415E-01 1.92154E-02-2.28650E+00 1.80190E-13-9.14269E-13
 -1      2619 5.36899E+00 5.05244E-01 1.25304E-01-3.12213E-01 3.58128E-13 1.28048E-12
 -1      2620 7.06966E+00 1.18293E+00 1.45979E-01-1.50309E+00 3.69045E-13 1.13159E-12
 -1      2621 6.43796E+00 1.00341E+00 7.95609E-02 1.09609E+00 1.60379E-13 1.13703E-12
 -1      2622 1.99998E+01-3.07069E-05-5.04481E-07-3.15310E-05-2.35460E-13-5.47132E-13
 -1      2623 1.99997E+01-5.57239E-05-7.90554E-07 7.26704E-05-1.18261E-13 2.49541E-13
 -1      2624 1.99998E+01-7.74278E-05 6.27191E-07 8.53246E-05-4.64195E-14 4.44558E-13
 -1      2625 1.99997E+01-1.03078E-04-5.84282E-07 1.14576E-04-5.89127E-14 1.29434E-13
 -1      2626 1.99997E+01-6.24390E-05-1.49431E-06 9.23607E-05-2.78774E-13 1.96612E-13
 -1      2627 2.44599E+01-3.56570E+00 6.44875E-02 5.46060E+00 2.22045E-14-2.61929E-13
 -1      2628 1.82445E+01-3.09149E+00-1.40711E-01 6.52837E+00-2.62290E-13 7.35523E-14
 -1      2629 1.54344E+01-2.37614E+00 1.16660E-01 6.89874E+00-4.46865E-14 3.90715E-13
 -1      2630 1.43009E+01-1.50445E+00 1.22072E-01 6.37378E+00-2.63789E-13 3.59990E-13
 -1      2631 1.26520E+01-1.64188E+00 1.15773E-01-6.68239E+00 8.62199E-13 8.19178E-13
 -1      2632 3.32425E+01 4.46440E+00 3.08986E-02 2.64794E-01 1.46538E-12-4.58633E-13
 -1      2633 2.39406E+01 1.55259E+00-5.84469E-02 2.68928E+00 4.90191E-13-3.39548E-13
 -1      2634 1.99997E+01-8.59060E-05 1.06183E-06 1.25572E-04-3.52698E-13 3.36406E-13
 -1      2635 2.79775E+01 2.87418E+00-3.04326E-02-6.30856E-01-1.17002E-13-1.83423E-13
 -1      2636 3.33554E+01 2.37340E+00-4.51324E-02 5.31143E+00 1.18394E-12 6.21392E-13
 -1      2637 3.21855E+01 1.01488E+00-4.52639E-02 5.48298E+00 8.81933E-13 9.87030E-13
 -1      2638 1.90790E+01-2.89283E+00 6.95723E-02-6.64618E+00 8.81073E-13 1.30399E-13
 -1      2639 1.99997E+01-4.94325E-05-4.80634E-07-6.61211E-05 1.57089E-13-2.50600E-13
 -1      2640 3.28620E+01-3.77183E-01-9.56251E-02 5.44455E+00 6.15473E-13 1.10087E-12
 -1      2641 2.72644E+01-1.76106E+00 2.46803E-02 1.42822E+00 7.88813E-14 1.74860E-15
 -1      2642 3.27224E+01-9.44338E-01-1.79813E-02 4.59644E+00 6.75793E-13 5.52558E-13
 -1      2643 2.31127E+01-4.61886E-01-2.00379E-02 2.23459E-01-2.36311E-13-2.24196E-13
 -1      2644 1.85815E+01-3.47289E-02 2.18347E-02-1.03402E+00-2.90878E-13-5.86753E-13
 -1      2645 1.99997E+01-4.08804E-05-1.52483E-07-5.90551E-05 1.84341E-13-5.27566E-13
 -1      2646 1.42499E+01 2.87795E-01-1.89398E-02-2.30022E+00-2.22045E-16-9.68559E-13
 -1      2647 2.71149E+01 3.12724E+00-1.11291E-01-1.55662E+00 3.58047E-15-2.42500E-13
 -1      2648 2.75102E+01 3.86398E+00-8.71853E-02-2.30765E+00-2.76904E-13-2.98588E-13
 -1      2649 1.02171E+01 1.39436E+00-3.00745E-02-1.93160E+00-8.04079E-14-1.07037E-12
 -1      2650 2.63698E+01-1.33505E+00 7.64156E-03 1.40534E+00-5.43454E-14 7.17924E-14
 -1      2651 1.69017E+01 2.20481E+00-3.30688E-02 5.14354E+00 7.35245E-13-6.05231E-13
 -1      2652 2.11204E+01 3.30291E-01 8.93715E-03 2.57924E+00-1.69355E-13-1.74350E-13
 -1      2653 2.15483E+01 4.02239E-02 2.33332E-02 2.71863E+00-1.77330E-13-2.03229E-13
 -1      2654 2.18801E+01-3.62993E-01 3.66111E-02 2.99864E+00-2.63672E-13-2.47214E-13
 -1      2655 2.26330E+01-9.09195E-01 4.96256E-02 3.01022E+00-2.77002E-13-2.94991E-13
 -1      2656 2.03594E+01-8.43343E-02-2.44828E-02 3.24931E+00-2.55885E-13-1.22360E-13
 -1      2657 2.17614E+01 1.56521E+00 1.53134E-02-2.72177E-01-4.09515E-13-7.13394E-13
 -1      2658 2.16565E+01 1.28883E+00-7.94756E-03 1.12914E-01-3.59772E-13-7.21834E-13
 -1      2659 2.59741E+01 4.37375E+00-5.95853E-02-2.61653E+00-2.92721E-13-5.83956E-13
 -1      2660 2.51089E+01 4.44764E+00-5.32625E-02-2.63874E+00-3.32973E-13-7.60360E-13
 -1      2661 2.80120E+01 1.78886E+00-6.93232E-02-2.77332E-01-1.82909E-13-1.28722E-12
 -1      2662 2.78651E+01 3.39244E+00-1.56937E-01 9.80752E-02-4.81448E-13-1.33064E-12
 -1      2663 1.99998E+01-1.40346E-04 1.88378E-07-1.54564E-04 1.92041E-14 1.32612E-13
 -1      2664 1.99997E+01-1.06703E-04-4.18437E-07-1.43636E-04 2.42136E-13-1.58408E-13
 -1      2665 1.99997E+01-1.18562E-04-2.00890E-06-1.74767E-04 1.54061E-13-2.24777E-13
 -1      2666 1.06643E+01-1.59682E-01 6.92284E-02 5.07389E+00-2.49412E-13 6.65523E-13
 -1      2667 8.17806E+00 6.98448E-01 1.89857E-01 3.30806E+00-9.05456E-14 9.44939E-13
 -1      2668 2.16573E+01 1.00860E+00 1.66191E-02 4.58729E-01-3.17627E-13-6.95055E-13
 -1      2669 2.16167E+01 6.96512E-01-1.11855E-02 6.91613E-01-2.57821E-13-7.03806E-13
 -1      2670 2.20955E+01 1.43246E+00-1.72350E-03 2.54696E-01-3.42337E-13-7.29253E-13
 -1      2671 2.16391E+01 4.06211E-01 1.28306E-02 8.42098E-01-2.15776E-13-6.85285E-13
 -1      2672 2.16278E+01 1.26163E-01-9.85387E-03 9.13818E-01-1.53064E-13-6.81604E-13
 -1      2673 2.20746E+01 6.86643E-01-4.09187E-04 7.70109E-01-2.40625E-13-6.98791E-13
 -1      2674 2.16067E+01-1.01919E-01 5.80721E-03 8.94852E-01-1.16672E-13-6.42005E-13
 -1      2675 2.15945E+01-2.91449E-01-5.12248E-03 8.44238E-01-5.69869E-14-6.42607E-13
 -1      2676 2.20342E+01 2.66523E-02 3.93357E-03 8.93138E-01-1.29521E-13-7.16912E-13
 -1      2677 2.15067E+01-4.21999E-01-4.80749E-04 7.23027E-01-4.97952E-14-5.99240E-13
 -1      2678 2.14758E+01-5.05331E-01-1.32782E-04 6.07062E-01-3.60606E-15-6.03427E-13
 -1      2679 2.18951E+01-4.26909E-01 3.57762E-03 7.37103E-01-4.91789E-14-6.48575E-13
 -1      2680 2.13365E+01-5.42752E-01-4.03333E-03 4.54672E-01 2.22828E-14-5.76396E-13
 -1      2681 2.12853E+01-5.41723E-01 3.24289E-03 3.23911E-01 5.07767E-14-5.94022E-13
 -1      2682 2.16526E+01-6.33573E-01 4.83405E-04 4.51985E-01 2.35922E-14-5.72132E-13
 -1      2683 2.11270E+01-5.15987E-01-4.92246E-03 1.87403E-01 4.01162E-14-5.45356E-13
 -1      2684 2.10628E+01-4.66403E-01 4.65589E-03 7.31160E-02 2.01724E-14-4.94965E-13
 -1      2685 2.13546E+01-6.39911E-01-2.28471E-03 1.60739E-01 6.70543E-14-4.85368E-13
 -1      2686 2.09124E+01-4.10074E-01-4.27374E-03-2.74842E-02-3.24181E-14-4.09650E-13
 -1      2687 2.08443E+01-3.43067E-01 4.65189E-03-1.11873E-01 8.87020E-15-3.73405E-13
 -1      2688 2.10557E+01-5.29443E-01-3.72502E-03-7.21364E-02 5.25210E-14-3.68814E-13
 -1      2689 2.07169E+01-2.80493E-01-3.05497E-03-1.74194E-01-5.80536E-16-3.38526E-13
 -1      2690 2.06519E+01-2.16194E-01 3.89319E-03-2.27262E-01 3.39288E-14-3.70979E-13
 -1      2691 2.07916E+01-3.75632E-01-3.96607E-03-2.27829E-01 4.13162E-16-3.28861E-13
 -1      2692 2.05518E+01-1.61253E-01-1.83703E-03-2.57515E-01 1.01307E-14-3.78265E-13
 -1      2693 2.04936E+01-1.09373E-01 2.89866E-03-2.84007E-01 2.64217E-14-3.96730E-13
 -1      2694 2.05777E+01-2.26345E-01-3.50896E-03-3.12796E-01-2.02149E-15-3.93509E-13
 -1      2695 2.04191E+01-6.75956E-02-8.52948E-04-2.90918E-01-1.25152E-15-4.24080E-13
 -1      2696 2.03691E+01-3.06929E-02 1.96579E-03-2.97666E-01-4.59300E-14-4.24291E-13
 -1      2697 2.04143E+01-1.05010E-01-2.79923E-03-3.43293E-01 5.93143E-15-3.75451E-13
 -1      2698 2.03156E+01-2.49383E-03-1.48031E-04-2.89433E-01-9.51494E-14-3.66300E-13
 -1      2699 2.02737E+01 2.07416E-02 1.21667E-03-2.83115E-01-5.12513E-14-3.38480E-13
 -1      2700 2.02943E+01-1.81228E-02-2.09439E-03-3.36600E-01-4.68413E-14-4.13580E-13
 -1      2701 2.02362E+01 3.74317E-02 3.07070E-04-2.66303E-01-5.63183E-14-3.00956E-13
 -1      2702 2.02018E+01 4.98810E-02 6.72667E-04-2.52452E-01-6.18026E-14-2.80655E-13
 -1      2703 2.02083E+01 3.70218E-02-1.50783E-03-3.07391E-01-6.28050E-14-2.97740E-13
 -1      2704 2.01759E+01 5.79284E-02 5.65389E-04-2.31827E-01-5.21740E-14-2.81952E-13
 -1      2705 2.01479E+01 6.27113E-02 3.09228E-04-2.14553E-01-5.07262E-14-2.47777E-13
 -1      2706 2.01477E+01 6.69371E-02-1.06364E-03-2.66765E-01-4.85652E-14-2.01584E-13
 -1      2707 2.01302E+01 6.48727E-02 6.80726E-04-1.93297E-01-7.39815E-14-2.26493E-13
 -1      2708 2.01078E+01 6.47087E-02 8.53860E-05-1.75392E-01-7.48845E-14-2.79022E-13
 -1      2709 2.01051E+01 7.87944E-02-7.46610E-04-2.22429E-01-7.75170E-14-1.97077E-13
 -1      2710 2.00956E+01 6.32454E-02 6.99431E-04-1.55443E-01-9.75446E-14-2.78867E-13
 -1      2711 2.00779E+01 6.02369E-02-3.92923E-05-1.38624E-01-6.26489E-14-2.88800E-13
 -1      2712 2.00751E+01 7.89062E-02-5.28445E-04-1.79311E-01-7.74125E-14-2.06416E-13
 -1      2713 2.00694E+01 5.68255E-02 6.58172E-04-1.21013E-01 4.70719E-15-2.45502E-13
 -1      2714 2.00556E+01 5.24620E-02-9.83589E-05-1.06195E-01 6.79048E-14-2.20843E-13
 -1      2715 2.00539E+01 7.21896E-02-3.80840E-04-1.40242E-01 7.54718E-16-1.73805E-13
 -1      2716 2.00497E+01 4.82488E-02 5.84083E-04-9.13342E-02 9.76849E-14-1.98853E-13
 -1      2717 2.00391E+01 4.35056E-02-1.17061E-04-7.88832E-02 1.57022E-13-1.84076E-13
 -1      2718 2.00387E+01 6.21536E-02-2.80994E-04-1.06567E-01 8.06860E-14-6.60902E-14
 -1      2719 2.00349E+01 3.92136E-02 4.96125E-04-6.67903E-02 2.14426E-13-1.63530E-13
 -1      2720 2.00269E+01 3.46750E-02-1.13062E-04-5.67193E-02 2.66986E-13-1.69273E-13
 -1      2721 2.00278E+01 5.11145E-02-2.12406E-04-7.86488E-02 1.90416E-13-1.03316E-13
 -1      2722 2.00239E+01 3.07165E-02 4.06719E-04-4.71825E-02 2.58010E-13-1.78970E-13
 -1      2723 2.00180E+01 2.66906E-02-9.79690E-05-3.93015E-02 1.99306E-13-1.22323E-13
 -1      2724 2.00198E+01 4.04739E-02-1.63916E-04-5.62473E-02 2.83942E-13-8.64589E-14
 -1      2725 2.00158E+01 2.32652E-02 3.23336E-04-3.19947E-02 4.04477E-14-1.84087E-13
 -1      2726 2.00115E+01 1.98772E-02-7.89266E-05-2.60141E-02 2.16515E-14-2.00330E-13
 -1      2727 2.00139E+01 3.09826E-02-1.28350E-04-3.87888E-02 1.04784E-13-8.19243E-14
 -1      2728 2.00099E+01 1.70477E-02 2.49892E-04-2.05720E-02-1.16011E-14-2.46347E-13
 -1      2729 2.00069E+01 1.43104E-02-5.99973E-05-1.61701E-02-9.19037E-14-2.10266E-13
 -1      2730 2.00096E+01 2.29572E-02-1.01261E-04-2.55545E-02-4.87687E-14-1.99017E-13
 -1      2731 2.00057E+01 1.20590E-02 1.87895E-04-1.22350E-02-6.00556E-14-1.97477E-13
 -1      2732 2.00036E+01 9.92213E-03-4.32283E-05-9.09897E-03 2.45234E-14-1.56906E-13
 -1      2733 2.00064E+01 1.64445E-02-7.99777E-05-1.57989E-02-1.21116E-13-1.55447E-13
 -1      2734 2.00028E+01 8.18807E-03 1.37329E-04-6.34635E-03 3.47589E-15-7.36201E-14
 -1      2735 2.00015E+01 6.57123E-03-2.94208E-05-4.19441E-03-3.51722E-14-3.66328E-14
 -1      2736 2.00041E+01 1.13381E-02-6.28963E-05-8.82038E-03 6.00994E-14-3.86159E-14
 -1      2737 2.00009E+01 5.27583E-03 9.72881E-05-2.34449E-03-4.30798E-14-7.46661E-14
 -1      2738 2.00000E+01 4.08945E-03-1.86603E-05-9.35950E-04-3.68663E-15-2.84713E-14
 -1      2739 2.00025E+01 7.45703E-03-4.90378E-05-3.99806E-03-6.07109E-14-1.10340E-13
 -1      2740 1.99996E+01 3.15123E-03 6.64310E-05 2.43113E-04-4.62792E-14 3.02137E-14
 -1      2741 1.99991E+01 2.30853E-03-1.06617E-05 1.10603E-03-1.06544E-13 8.05445E-14
 -1      2742 2.00013E+01 4.59508E-03-3.77742E-05-8.06201E-04-3.67682E-14-2.60095E-14
 -1      2743 1.99989E+01 1.65159E-03 4.32697E-05 1.80037E-03-8.19750E-14 7.81124E-14
 -1      2744 1.99987E+01 1.07490E-03-4.98403E-06 2.27497E-03-7.81882E-15 1.09193E-13
 -1      2745 2.00005E+01 2.55048E-03-2.86653E-05 1.18523E-03-7.70414E-14 5.75852E-14
 -1      2746 1.99985E+01 6.33025E-04 2.63508E-05 2.62995E-03-1.03492E-13 8.73474E-14
 -1      2747 1.99984E+01 2.56404E-04-1.15334E-06 2.83783E-03-3.16306E-14-6.42039E-14
 -1      2748 2.00000E+01 1.14130E-03-2.13698E-05 2.31781E-03-8.58851E-14 1.41442E-13
 -1      2749 1.99983E+01-2.56125E-05 1.43546E-05 2.96406E-03-2.14843E-14-3.38777E-14
 -1      2750 1.99984E+01-2.55986E-04 1.27116E-06 2.99671E-03-6.12064E-14-5.92738E-14
 -1      2751 1.99996E+01 2.12194E-04-1.56014E-05 2.85583E-03-6.40924E-14-8.19977E-14
 -1      2752 1.99983E+01-4.22559E-04 6.14134E-06 2.97626E-03-6.83968E-14-1.05888E-13
 -1      2753 1.99984E+01-5.49235E-04 2.66721E-06 2.90067E-03-1.28309E-13-1.72815E-13
 -1      2754 1.99994E+01-3.64249E-04-1.11096E-05 2.99870E-03-1.21783E-13 3.70618E-14
 -1      2755 1.99984E+01-6.35050E-04 7.62961E-07 2.79280E-03-2.01904E-13-1.23591E-13
 -1      2756 1.99985E+01-6.90738E-04 3.34108E-06 2.65663E-03-1.95255E-13-1.38629E-13
 -1      2757 1.99993E+01-6.89222E-04-7.67162E-06 2.89311E-03-1.83795E-13 2.60586E-14
 -1      2758 1.99985E+01-7.22162E-04-2.54544E-06 2.50289E-03-4.01234E-14-8.95879E-14
 -1      2759 1.99987E+01-7.31355E-04 3.53065E-06 2.33890E-03 5.06543E-14-7.42671E-14
 -1      2760 1.99993E+01-8.40853E-04-5.09034E-06 2.64403E-03-9.66678E-14 1.32920E-14
 -1      2761 1.99987E+01-7.27919E-04-4.38472E-06 2.16736E-03-4.55428E-14-7.03734E-14
 -1      2762 1.99989E+01-7.08478E-04 3.41392E-06 1.99717E-03-5.45524E-15-2.07211E-13
 -1      2763 1.99993E+01-8.77907E-04-3.19377E-06 2.32428E-03 4.14905E-15-2.18862E-13
 -1      2764 1.99989E+01-6.84267E-04-5.21535E-06 1.82594E-03 9.57235E-15-2.58368E-13
 -1      2765 1.99990E+01-6.48854E-04 3.11941E-06 1.66298E-03-9.00046E-14-2.59166E-13
 -1      2766 1.99994E+01-8.43444E-04-1.83469E-06 1.98243E-03-7.07095E-14-2.70358E-13
 -1      2767 1.99990E+01-6.13732E-04-5.38175E-06 1.50295E-03 3.50876E-14-3.02497E-13
 -1      2768 1.99992E+01-5.71039E-04 2.73643E-06 1.35485E-03 1.96516E-13-1.75428E-13
 -1      2769 1.99994E+01-7.68161E-04-8.89722E-07 1.64923E-03-4.09552E-14-3.97219E-13
 -1      2770 1.99992E+01-5.31680E-04-5.13510E-06 1.21186E-03 2.65282E-13-1.88735E-13
 -1      2771 1.99993E+01-4.87443E-04 2.32439E-06 1.08222E-03 1.74879E-13-8.47074E-14
 -1      2772 1.99995E+01-6.73273E-04-2.57772E-07 1.34266E-03 2.32059E-13-2.49484E-13
 -1      2773 1.99993E+01-4.48170E-04-4.65343E-06 9.58668E-04 1.00297E-13-1.18321E-14
 -1      2774 1.99994E+01-4.05981E-04 1.92122E-06 8.48431E-04 1.68635E-13 7.25627E-14
 -1      2775 1.99995E+01-5.72896E-04 1.42238E-07 1.07181E-03 1.90156E-13-2.08804E-13
 -1      2776 1.99994E+01-3.69433E-04-4.05836E-06 7.44462E-04 1.37250E-13 1.13069E-13
 -1      2777 1.99995E+01-3.31373E-04 1.54976E-06 6.52893E-04 2.62512E-13 5.18509E-14
 -1      2778 1.99996E+01-4.75973E-04 3.74661E-07 8.39781E-04 1.43090E-13-2.18210E-13
 -1      2779 1.99995E+01-2.99022E-04-3.42902E-06 5.67289E-04 4.54168E-13 1.07315E-13
 -1      2780 1.99996E+01-2.66147E-04 1.22056E-06 4.92671E-04 5.22808E-13 8.26029E-14
 -1      2781 1.99996E+01-3.87782E-04 4.87110E-07 6.45880E-04 3.84753E-13-2.95145E-14
 -1      2782 1.99996E+01-2.38678E-04-2.81754E-06 4.23455E-04 3.45044E-13 8.47007E-14
 -1      2783 1.99996E+01-2.11370E-04 9.34690E-07 3.63578E-04 2.07484E-14 3.93412E-14
 -1      2784 1.99997E+01-3.11085E-04 5.12571E-07 4.87136E-04 4.03022E-13-1.24638E-13
 -1      2785 1.99996E+01-1.89011E-04-2.28292E-06 3.08402E-04-1.78099E-13 1.38894E-13
 -1      2786 1.99997E+01-1.67031E-04 6.56026E-07 2.60813E-04-1.34941E-13-1.13755E-13
 -1      2787 1.99997E+01-2.46976E-04 4.61840E-07 3.59367E-04-7.01917E-14-1.28988E-13
 -1      2788 1.99997E+01-1.49077E-04-1.68284E-06 2.17549E-04-1.57962E-13-1.62051E-13
 -1      2789 1.99997E+01-1.32791E-04 1.46461E-07 1.80249E-04-2.95766E-13-2.78209E-13
 -1      2790 1.99997E+01-1.94507E-04 6.41530E-07 2.57739E-04-2.48931E-13-7.47777E-14
 -1      2791 1.99999E+01-3.42426E-04 8.66609E-07-1.66939E-05 1.26630E-13-1.31596E-13
 -1      2792 1.99999E+01-3.38195E-04 4.28389E-07-4.46138E-05 1.10246E-13-1.61129E-13
 -1      2793 2.60245E+01-3.77166E+00-1.75079E-01 4.12186E+00-8.08936E-14-5.23984E-13
 -1      2794 2.29466E+01-3.27404E+00 1.88422E-01 5.44983E+00-2.34257E-13-2.92738E-13
 -1      2795 3.17503E+01 3.31818E+00-1.21888E-01-4.33040E-01 1.27848E-12-5.16920E-13
 -1      2796 2.59370E+01-2.83604E+00 9.31349E-02 2.76284E+00-2.85716E-13-6.17860E-13
 -1      2797 2.75154E+01-2.85474E+00 8.79786E-03 1.92893E+00-5.16948E-14-7.08114E-13
 -1      2798 2.21849E+01 2.29767E+00-2.88739E-03-1.60057E+00-5.63674E-13-7.83983E-13
 -1      2799 2.18765E+01 1.87711E+00-7.28335E-04-8.30162E-01-4.73334E-13-7.37495E-13
 -1      2800 2.33180E+01-1.55083E+00 6.56410E-02 3.15884E+00-3.06331E-13-4.19014E-13
 -1      2801 2.44702E+01-2.22647E+00 4.65400E-02 2.86732E+00-3.29958E-13-5.13291E-13
 -1      2802 2.29652E+01-2.86743E+00-1.19833E-01 4.33723E+00-3.63591E-13-5.12569E-13
 -1      2803 2.12594E+01-1.38891E+00-8.80100E-02 3.89471E+00-3.72986E-13-3.80033E-13
 -1      2804 2.07879E+01 6.03787E-01-1.45696E-03 2.10895E+00-9.92652E-14-1.86352E-13
 -1      2805 2.10488E+01 5.10230E-01 1.63228E-02 2.29867E+00-1.55640E-13-1.89675E-13
 -1      2806 2.00781E+01 5.83979E-01-5.79991E-03 2.61093E+00-1.75033E-13-6.78103E-14
 -1      2807 2.06272E+01 6.39082E-01-4.48836E-03 1.67428E+00-6.98262E-14-3.86532E-14
 -1      2808 2.08054E+01 6.45326E-01 1.17173E-02 1.86692E+00-8.95084E-14-1.19048E-13
 -1      2809 2.00565E+01 8.03884E-01 6.96782E-04 2.07083E+00-1.27125E-13-1.44536E-14
 -1      2810 2.05268E+01 5.67823E-01-4.56720E-03 1.30031E+00 8.62489E-14-3.85916E-14
 -1      2811 2.06624E+01 6.14969E-01 9.39505E-03 1.47286E+00 3.61620E-14-1.82688E-14
 -1      2812 2.01072E+01 7.93924E-01 2.87151E-03 1.62395E+00-3.44786E-14-3.23143E-14
 -1      2813 2.04445E+01 4.63632E-01-3.76401E-03 9.92775E-01 1.86799E-14-2.06766E-14
 -1      2814 2.05538E+01 5.20515E-01 7.78906E-03 1.13686E+00 9.43553E-14 4.22661E-14
 -1      2815 2.01553E+01 6.86714E-01 2.92352E-03 1.25886E+00 3.15881E-14-5.41146E-14
 -1      2816 2.03686E+01 3.61251E-01-2.82875E-03 7.47585E-01 2.76853E-14-6.73225E-14
 -1      2817 2.04580E+01 4.13994E-01 6.40686E-03 8.62738E-01 3.84365E-14-5.58312E-14
 -1      2818 2.01793E+01 5.54425E-01 2.15788E-03 9.64526E-01 6.81507E-14-3.84064E-14
 -1      2819 2.02981E+01 2.73809E-01-2.01543E-03 5.56396E-01 2.83869E-14-5.05052E-14
 -1      2820 2.03708E+01 3.17695E-01 5.16702E-03 6.45835E-01 3.38747E-14-5.14994E-14
 -1      2821 2.01802E+01 4.30131E-01 1.29598E-03 7.30696E-01 4.15194E-14-6.04281E-14
 -1      2822 2.02350E+01 2.04042E-01-1.38436E-03 4.09723E-01 1.12430E-13-6.47261E-14
 -1      2823 2.02930E+01 2.38587E-01 4.08413E-03 4.77868E-01 1.04278E-13-8.45501E-14
 -1      2824 2.01655E+01 3.25691E-01 6.11860E-04 5.47584E-01 6.67031E-14-1.00118E-13
 -1      2825 2.01805E+01 1.50393E-01-9.24853E-04 2.98564E-01 1.94863E-14-2.17390E-13
 -1      2826 2.02261E+01 1.76762E-01 3.17354E-03 3.49795E-01 5.12508E-14-1.59643E-13
 -1      2827 2.01427E+01 2.42841E-01 1.54317E-04 4.06011E-01 1.16146E-13-2.01883E-13
 -1      2828 2.01353E+01 1.09982E-01-6.03240E-04 2.15126E-01 5.24412E-15-2.65909E-13
 -1      2829 2.01705E+01 1.29760E-01 2.43224E-03 2.53262E-01-2.93691E-14-2.47283E-13
 -1      2830 2.01173E+01 1.79204E-01-1.12469E-04 2.97752E-01 3.65669E-14-1.83463E-13
 -1      2831 2.00987E+01 7.98240E-02-4.33966E-04 1.52987E-01-5.45109E-14-2.70694E-13
 -1      2832 2.01255E+01 9.45921E-02 1.84459E-03 1.81166E-01 5.25680E-14-2.17057E-13
 -1      2833 2.00928E+01 1.31230E-01-2.40570E-04 2.15766E-01-4.74366E-16-1.68753E-13
 -1      2834 2.00688E+01 5.66342E-02-2.76510E-04 1.05157E-01-1.08896E-13-4.70553E-13
 -1      2835 2.00894E+01 6.78362E-02 1.36589E-03 1.26563E-01-6.35442E-14-3.97249E-13
 -1      2836 2.00705E+01 9.48946E-02-2.10744E-04 1.53037E-01 1.88191E-14-2.35074E-13
 -1      2837 2.00474E+01 4.05479E-02-1.48524E-04 7.21299E-02 1.34165E-14-3.74095E-13
 -1      2838 2.00617E+01 4.84393E-02 1.02210E-03 8.68841E-02-1.42041E-13-3.95790E-13
 -1      2839 2.00518E+01 6.77546E-02-2.93530E-04 1.06495E-01-1.48902E-13-4.54672E-13
 -1      2840 2.00313E+01 2.87009E-02-8.68533E-05 4.81713E-02 8.35604E-14-4.49876E-13
 -1      2841 2.00416E+01 3.44607E-02 7.44462E-04 5.87667E-02 1.71663E-13-3.77061E-13
 -1      2842 2.00372E+01 4.84786E-02-2.64536E-04 7.32797E-02 5.56294E-14-4.74459E-13
 -1      2843 2.00195E+01 2.00294E-02-4.97817E-05 3.10155E-02 1.97438E-13-4.54353E-13
 -1      2844 2.00268E+01 2.42343E-02 5.41676E-04 3.85367E-02 9.03537E-14-5.13833E-13
 -1      2845 2.00258E+01 3.42934E-02-2.25670E-04 4.90794E-02 1.28091E-13-4.08445E-13
 -1      2846 2.00112E+01 1.37180E-02-2.66061E-05 1.89175E-02 1.27795E-14-3.22213E-13
 -1      2847 2.00162E+01 1.67702E-02 3.89614E-04 2.41710E-02 1.45761E-13-4.10227E-13
 -1      2848 2.00172E+01 2.39042E-02-1.85232E-04 3.16786E-02 1.44930E-13-3.14638E-13
 -1      2849 2.00055E+01 9.15771E-03-1.24997E-05 1.05505E-02-1.11248E-13-3.15179E-13
 -1      2850 2.00088E+01 1.13552E-02 2.76093E-04 1.41436E-02-9.54680E-14-3.56952E-13
 -1      2851 2.00108E+01 1.63384E-02-1.47523E-04 1.93650E-02-6.75040E-14-3.62050E-13
 -1      2852 2.00017E+01 5.89591E-03-4.14130E-06 4.91006E-03-7.17642E-14-4.41986E-13
 -1      2853 2.00037E+01 7.46041E-03 1.92001E-04 7.29892E-03-8.47990E-14-3.36996E-13
 -1      2854 2.00063E+01 1.08721E-02-1.14601E-04 1.08248E-02-9.42843E-14-4.15335E-13
 -1      2855 1.99993E+01 3.59480E-03 6.14688E-07 1.23914E-03-4.54838E-14-4.83582E-13
 -1      2856 2.00005E+01 4.69190E-03 1.30318E-04 2.76514E-03-6.09234E-14-3.74836E-13
 -1      2857 2.00031E+01 6.96506E-03-8.70568E-05 5.05468E-03-8.65774E-14-5.15615E-13
 -1      2858 1.99979E+01 2.00126E-03 3.13728E-06-1.03035E-03 1.13952E-13-3.42158E-13
 -1      2859 1.99985E+01 2.75505E-03 8.56035E-05-1.12879E-04-4.48822E-14-4.27964E-13
 -1      2860 2.00010E+01 4.21270E-03-6.47234E-05 1.29236E-03-1.85948E-14-4.54340E-13
 -1      2861 1.99971E+01 9.25069E-04 4.29407E-06-2.32159E-03 3.30335E-13-2.75189E-13
 -1      2862 1.99974E+01 1.42876E-03 5.36607E-05-1.82447E-03 2.92289E-13-2.58032E-13
 -1      2863 1.99996E+01 2.31095E-03-4.70716E-05-1.03744E-03 1.46503E-13-3.39493E-13
 -1      2864 1.99969E+01 2.23255E-04 4.63486E-06-2.94686E-03 1.28845E-13-1.68872E-13
 -1      2865 1.99969E+01 5.46833E-04 3.12577E-05-2.73220E-03 2.33730E-13-1.16296E-13
 -1      2866 1.99989E+01 1.03092E-03-3.34227E-05-2.36525E-03 1.65568E-13-1.18378E-13
 -1      2867 1.99969E+01-2.11447E-04 4.50830E-06-3.13394E-03-6.17434E-14-2.14993E-13
 -1      2868 1.99968E+01-1.56026E-05 1.59132E-05-3.10193E-03 1.79788E-14-2.36739E-13
 -1      2869 1.99984E+01 2.00289E-04-2.30801E-05-3.00991E-03 4.86111E-14 4.34086E-14
 -1      2870 1.99971E+01-4.59193E-04 4.06638E-06-3.04644E-03 2.43456E-14-2.01629E-13
 -1      2871 1.99969E+01-3.52009E-04 5.73065E-06-3.12595E-03-1.38416E-14-2.51090E-13
 -1      2872 1.99983E+01-3.10248E-04-1.54042E-05-3.20451E-03 7.40355E-14-5.22201E-14
 -1      2873 1.99974E+01-5.79569E-04 3.65546E-06-2.79986E-03 9.63072E-14-8.47302E-14
 -1      2874 1.99972E+01-5.31509E-04-6.07126E-07-2.94089E-03 1.12602E-13-6.41550E-14
 -1      2875 1.99983E+01-5.97470E-04-9.83991E-06-3.11683E-03 2.05720E-14 6.23902E-14
 -1      2876 1.99978E+01-6.15434E-04 3.03092E-06-2.45541E-03-4.21802E-14 5.95494E-14
 -1      2877 1.99975E+01-6.06584E-04-4.24220E-06-2.63342E-03 5.62520E-14 1.68768E-14
 -1      2878 1.99984E+01-7.32559E-04-5.93603E-06-2.85702E-03-1.94862E-15 2.66377E-13
 -1      2879 1.99981E+01-5.95139E-04 2.55248E-06-2.10028E-03-1.58941E-14 1.37068E-13
 -1      2880 1.99979E+01-6.11740E-04-6.58004E-06-2.27614E-03-4.04373E-14 3.63408E-14
 -1      2881 1.99985E+01-7.66647E-04-2.96863E-06-2.51302E-03-1.27230E-13 3.01720E-13
 -1      2882 1.99984E+01-5.45580E-04 2.11714E-06-1.75275E-03 1.76843E-13-4.29229E-14
 -1      2883 1.99982E+01-5.75532E-04-7.37002E-06-1.92071E-03 1.02933E-13 7.41317E-14
 -1      2884 1.99987E+01-7.36420E-04-1.14464E-06-2.14999E-03 1.05829E-13 1.76271E-13
 -1      2885 1.99987E+01-4.81118E-04 1.69896E-06-1.43172E-03 5.90542E-14 1.76146E-14
 -1      2886 1.99985E+01-5.17035E-04-7.34857E-06-1.58423E-03 9.58533E-14-6.01340E-14
 -1      2887 1.99989E+01-6.71599E-04 1.42251E-08-1.79423E-03 1.25512E-13 1.84373E-13
 -1      2888 1.99989E+01-4.11765E-04 1.33969E-06-1.14705E-03 9.53890E-14 8.20535E-14
 -1      2889 1.99988E+01-4.48983E-04-6.86807E-06-1.28057E-03 1.94385E-13 1.06214E-13
 -1      2890 1.99991E+01-5.89914E-04 7.04404E-07-1.46552E-03 6.25169E-14 1.26795E-13
 -1      2891 1.99991E+01-3.43953E-04 1.03526E-06-9.02342E-04-6.52138E-14 1.47925E-13
 -1      2892 1.99990E+01-3.79538E-04-6.13936E-06-1.01597E-03-1.58175E-14 1.35752E-13
 -1      2893 1.99992E+01-5.03303E-04 1.07246E-06-1.17400E-03-2.23636E-14 2.80748E-13
 -1      2894 1.99993E+01-2.81550E-04 7.79464E-07-6.97161E-04-1.54534E-13-1.98124E-14
 -1      2895 1.99992E+01-3.13789E-04-5.30543E-06-7.91649E-04-6.29969E-14 1.13067E-13
 -1      2896 1.99993E+01-4.19358E-04 1.22245E-06-9.23397E-04-4.40428E-14 1.77201E-13
 -1      2897 1.99994E+01-2.26632E-04 5.76001E-07-5.28597E-04-3.49077E-13-1.85386E-13
 -1      2898 1.99993E+01-2.54666E-04-4.45960E-06-6.05696E-04-2.40307E-13-1.62887E-13
 -1      2899 1.99994E+01-3.42603E-04 1.23065E-06-7.13249E-04-1.24358E-13-2.04425E-15
 -1      2900 1.99995E+01-1.80204E-04 3.22585E-07-3.92506E-04 8.17129E-14-3.70046E-13
 -1      2901 1.99995E+01-2.03641E-04-3.66453E-06-4.54402E-04-2.91692E-13-3.22006E-13
 -1      2902 1.99995E+01-2.75366E-04 1.16439E-06-5.40596E-04-1.85749E-13-4.57529E-13
 -1      2903 1.99996E+01-1.43013E-04-4.14557E-07-2.84294E-04 2.69613E-13-4.68432E-13
 -1      2904 1.99996E+01-1.61195E-04-3.01125E-06-3.32848E-04 3.37730E-13-2.89068E-13
 -1      2905 1.99996E+01-2.18659E-04 1.26326E-06-4.01428E-04 1.57804E-13-4.06171E-13
 -1      2906 1.99997E+01-1.23834E-04-6.39980E-07-2.06692E-04 1.73209E-13-3.32720E-13
 -1      2907 1.99996E+01-1.38456E-04-2.41318E-06-2.45616E-04 1.66481E-13-3.23620E-13
 -1      2908 1.99997E+01-1.83396E-04 2.07999E-06-2.98328E-04 3.04852E-13-1.34159E-13
 -1      2909 1.99997E+01-1.63672E-04 2.24798E-06-2.21921E-04 1.74293E-13 1.89053E-13
 -1      2910 2.66317E+01-1.32103E+00-1.14582E-02-2.14388E+00 4.35168E-13-9.90513E-13
 -1      2911 2.76439E+01 1.19014E-01-1.37141E-01-1.11304E+00 9.77135E-14-1.15059E-12
 -1      2912 2.70336E+01 5.62273E-01-4.13535E-02-2.88640E-01 6.99510E-14-1.26385E-12
 -1      2913 1.99999E+01-2.90955E-04 1.40452E-06-1.24448E-04-7.67790E-14 4.59043E-14
 -1      2914 1.99998E+01-2.71675E-04-4.73382E-07-1.40188E-04 7.45331E-15-1.43034E-13
 -1      2915 1.99999E+01-3.37907E-04 4.37041E-07 4.53998E-05 3.63865E-13 1.70825E-13
 -1      2916 1.99999E+01-3.42328E-04 8.62495E-07 1.75009E-05 2.28000E-13 9.59681E-14
 -1      2917 1.99999E+01-3.80308E-04-1.43903E-06 4.96362E-07 3.02288E-13-1.21489E-13
 -1      2918 1.99999E+01-3.13793E-04-5.83318E-08 9.97687E-05 3.78890E-13-1.43023E-13
 -1      2919 1.99999E+01-3.25970E-04 1.20046E-06 7.65405E-05 3.61270E-13 1.43896E-13
 -1      2920 1.99999E+01-3.68850E-04-1.38097E-06 6.98822E-05 3.91415E-13 3.21977E-15
 -1      2921 1.99998E+01-2.71745E-04-4.56169E-07 1.39945E-04 4.04511E-13-2.26567E-13
 -1      2922 1.99999E+01-2.90960E-04 1.39495E-06 1.24282E-04 4.53307E-13-2.10503E-13
 -1      2923 1.99999E+01-3.35959E-04-1.15280E-06 1.29206E-04 3.57422E-13-1.89702E-13
 -1      2924 1.99998E+01-2.15899E-04-2.14824E-07 1.58322E-04 2.96173E-13 2.79069E-13
 -1      2925 1.99998E+01-2.40825E-04 1.28731E-06 1.53787E-04 3.56405E-13 1.35532E-14
 -1      2926 1.99998E+01-2.85044E-04-7.87569E-07 1.70155E-04 3.26087E-13-6.88426E-14
 -1      2927 8.71525E+00 7.99706E-01 1.39298E-01-3.57943E+00 5.00724E-13 1.00681E-12
 -1      2928 1.02852E+01 4.56535E-02 1.13611E-01-5.13305E+00 6.21919E-13 9.21097E-13
 -1      2929 1.23573E+01-9.19830E-01 1.19307E-01-6.09215E+00 8.17499E-13 7.41684E-13
 -1      2930 1.48038E+01-1.90671E+00 2.25164E-02-6.78342E+00 8.93813E-13 4.96353E-13
 -1      2931 2.75648E+01 4.80568E+00-1.08316E-01 1.10217E-01-6.79568E-13-1.29738E-12
 -1      2932 2.70385E+01 5.72347E+00-1.63056E-01-3.28625E-01-8.33777E-13-1.18298E-12
 -1      2933 2.25586E+01 2.84841E+00-3.49179E-03-1.90424E+00-5.17951E-13-8.54598E-13
 -1      2934 1.78338E+01-2.54626E+00 1.15853E-01-6.53048E+00 9.33476E-13 1.59421E-13
 -1      2935 2.10051E+01-3.10716E+00-4.87515E-02-5.88920E+00 9.08273E-13-1.67021E-13
 -1      2936 2.77673E+01 5.00554E+00-9.26258E-02-2.34504E+00-6.24681E-13-3.72521E-13
 -1      2937 2.65697E+01 4.66145E+00-6.55446E-02-2.68928E+00-3.83103E-13-4.67390E-13
 -1      2938 2.60645E+01 5.06993E+00-1.03572E-01-2.55921E+00-5.35898E-13-6.29257E-13
 -1      2939 2.75416E+01 5.74984E+00-1.83848E-01-2.38827E+00-7.86829E-13-5.46556E-13
 -1      2940 1.99997E+01-1.22701E-04-1.29609E-06 1.56513E-04-6.07869E-14-1.39498E-13
 -1      2941 1.99997E+01-1.12902E-04-1.59181E-07 1.35491E-04-3.99954E-14 1.38837E-13
 -1      2942 1.99997E+01-1.57999E-04 7.95326E-07 1.88665E-04-6.86803E-14-3.16433E-13
 -1      2943 2.30750E+01 1.64176E+00-5.74578E-02 3.54868E+00 4.16139E-13-3.96974E-13
 -1      2944 1.95761E+01 1.77210E+00-8.83471E-02 4.28587E+00 6.86368E-13-4.51278E-13
 -1      2945 1.97484E+01 1.78164E+00-1.19149E-02 4.02357E+00 9.07885E-13-4.17714E-13
 -1      2946 3.26181E+01-6.50767E-01-1.20120E-01 5.31711E+00 5.88786E-13 8.92286E-13
 -1      2947 2.37049E+01-2.86955E+00 6.88143E-02-4.46278E+00 8.10060E-13-5.43961E-13
 -1      2948 2.51715E+01-2.55033E+00-9.15215E-02-3.55153E+00 6.48898E-13-7.61946E-13
 -1      2949 1.99998E+01-1.35213E-04 9.68178E-09 1.43157E-04 1.48265E-13-9.56398E-14
 -1      2950 1.99999E+01-3.26169E-04 1.21126E-06-7.63389E-05-6.54413E-14 1.52049E-13
 -1      2951 1.99999E+01-3.13751E-04-4.72519E-08-9.99686E-05-6.73256E-14 2.79845E-13
 -1      2952 1.99999E+01-3.36067E-04-1.14197E-06-1.29472E-04-1.24393E-13 2.40163E-14
 -1      2953 1.99999E+01-3.69020E-04-1.33937E-06-6.95437E-05 1.53225E-13 9.47844E-14
 -1      2954 1.99998E+01-1.68755E-04 6.75583E-07-1.60871E-04 4.25143E-15 2.32421E-13
 -1      2955 3.18809E+01-1.49888E+00-1.51968E-03 4.42104E+00 3.00716E-13 7.43738E-13
 -1      2956 3.03516E+01-1.95788E+00-1.21269E-01 3.20757E+00 2.12996E-13 4.29601E-13
 -1      2957 2.47251E+01 4.51341E+00-2.40790E-02-2.43203E+00-4.18330E-13-7.80627E-13
 -1      2958 2.44326E+01 4.12534E+00-2.90550E-02-2.48844E+00-2.94497E-13-8.59770E-13
 -1      2959 2.38148E+01 3.97154E+00-2.47672E-02-2.41397E+00-3.88633E-13-9.02044E-13
 -1      2960 2.67036E+01 3.39113E+00-7.03454E-02 3.05313E-01-4.21552E-13-1.29433E-12
 -1      2961 1.31985E+01-5.81451E-01 1.90915E-01 5.63819E+00-3.59240E-13 4.64406E-13
 -1      2962 1.23300E+01 2.61058E-01 1.02663E-01 4.64338E+00-4.28504E-13 4.83474E-13
 -1      2963 1.54387E+01-1.36854E+00-4.03321E-02 5.84156E+00-4.57995E-13 1.62065E-13
 -1      2964 2.12544E+01-2.81692E+00 1.44586E-01 5.54047E+00-3.48735E-13-2.01537E-13
 -1      2965 2.22572E+01 2.14298E+00-5.24618E-03-6.82765E-01-4.45244E-13-7.81108E-13
 -1      2966 1.26238E+01-1.90956E-01 1.34030E-01-5.27525E+00 7.21784E-13 6.98469E-13
 -1      2967 2.57636E+01-1.92383E+00-6.27925E-03-2.20893E+00 5.79868E-13-9.26974E-13
 -1      2968 8.81199E+00 1.27193E+00 1.80781E-01 1.95526E+00-3.62071E-14 9.03277E-13
 -1      2969 8.81184E+00 1.63689E+00 8.09750E-02-1.23405E+00 2.35513E-13 9.52100E-13
 -1      2970 8.68296E+00 1.27039E+00 1.60405E-01-2.55744E+00 3.86441E-13 1.00767E-12
 -1      2971 1.05125E+01 1.26966E+00 1.16462E-01-3.10309E+00 4.38032E-13 8.28712E-13
 -1      2972 1.99998E+01-2.41077E-04 1.63708E-06-1.53454E-04-4.45760E-14-1.37785E-13
 -1      2973 1.99998E+01-2.18229E-04-1.00722E-06-1.59979E-04-1.22632E-13 1.56762E-13
 -1      2974 1.99998E+01-2.85324E-04-9.15776E-07-1.70094E-04-9.51481E-14-1.56903E-13
 -1      2975 1.99998E+01-1.64321E-04-3.45125E-07 1.50123E-04 1.98556E-13 1.42480E-13
 -1      2976 2.33967E+01 3.61246E+00-1.81499E-02-2.20541E+00-4.03014E-13-8.81589E-13
 -1      2977 2.29170E+01 3.27748E+00-1.28457E-02-2.12016E+00-4.96730E-13-8.87350E-13
 -1      2978 2.27954E+01 2.96936E+00 3.66444E-03-1.53000E+00-4.89980E-13-8.23436E-13
 -1      2979 2.36158E+01 3.81663E+00 2.47230E-03-2.01803E+00-4.48884E-13-8.41643E-13
 -1      2980 2.91298E+01-2.50567E+00 6.55970E-02 1.36115E+00 1.36320E-13-7.49734E-13
 -1      2981 1.73741E+01-2.01422E+00 1.09932E-01-6.14187E+00 9.44245E-13 1.67581E-13
 -1      2982 2.56520E+01 4.88573E+00-6.64758E-02-2.03928E-01-6.32924E-13-1.16877E-12
 -1      2983 2.65710E+01 5.86061E+00-1.17174E-01-6.86884E-01-8.16708E-13-1.07388E-12
 -1      2984 2.58316E+01 5.76896E+00-8.60511E-02-1.04855E+00-7.46792E-13-9.64312E-13
 -1      2985 3.03682E+01-1.78014E+00-1.90567E-01 8.49281E-02 4.17697E-13-8.28393E-13
 -1      2986 3.14395E+01 4.91564E-01-3.64232E-02-5.22411E-01 8.60131E-13-7.75713E-13
 -1      2987 2.67133E+01 6.01068E+00-8.38007E-02-2.19637E+00-7.64583E-13-6.94549E-13
 -1      2988 2.23572E+01-2.88152E+00 3.86935E-02-4.75722E+00 8.56745E-13-4.00395E-13
 -1      2989 3.19651E+01 1.79513E+00-2.40333E-01-8.86618E-01 1.09149E-12-7.01383E-13
 -1      2990 1.99998E+01-1.80676E-04 4.14412E-07 1.84670E-04-3.40243E-14-1.11683E-13
 -1      2991 1.99998E+01-1.97758E-04 4.44521E-07 1.68777E-04 9.37217E-14 3.26200E-13
 -1      2992 1.99998E+01-2.36896E-04-1.04429E-06 1.94670E-04 1.63026E-14 7.15986E-14
 -1      2993 1.99998E+01-1.97400E-04-1.43376E-06 2.10478E-04-2.15758E-13-5.00329E-14
 -1      2994 2.31223E+01 1.59899E+00 4.40340E-02 2.40699E+00 8.48967E-13-2.65649E-13
 -1      2995 1.93425E+01 1.02398E+00-1.19009E-02 1.83594E+00-6.81995E-14-9.19010E-14
 -1      2996 1.93445E+01 1.03183E+00 1.37556E-02 2.07074E+00-1.29834E-13-6.90302E-14
 -1      2997 1.90538E+01 9.64145E-01-1.12466E-02 2.37048E+00-1.48828E-13-3.97503E-14
 -1      2998 1.91351E+01 8.34535E-01 2.49636E-02 2.66191E+00-1.33826E-13-3.61490E-14
 -1      2999 1.83948E+01 1.25156E+00 1.32286E-02 2.10703E+00-1.14417E-13-7.55251E-14
 -1      3000 2.01259E+01-1.91907E+00 1.87696E-01 5.25949E+00-4.24591E-13-2.36706E-13
 -1      3001 2.63720E+01-2.70858E-01 2.33536E-03-3.56289E-01 2.06418E-13-1.20046E-12
 -1      3002 2.63367E+01 9.50864E-01-1.03135E-01 2.09760E-01-5.66561E-14-1.27698E-12
 -1      3003 2.25332E+01 1.04787E+00 1.23914E-02 6.82317E-01-2.61403E-13-7.47865E-13
 -1      3004 2.24871E+01 5.61228E-01-2.15194E-02 8.35527E-01-1.95098E-13-7.55646E-13
 -1      3005 2.24805E+01 1.45562E-01 1.01219E-02 8.45824E-01-1.63296E-13-7.24077E-13
 -1      3006 2.24097E+01-2.16612E-01-1.03717E-02 8.18818E-01-9.38477E-14-7.40263E-13
 -1      3007 2.29190E+01 4.09657E-01 4.49298E-03 8.33405E-01-1.65162E-13-8.21900E-13
 -1      3008 2.22736E+01-4.84491E-01 1.78671E-04 6.75319E-01-3.53759E-14-6.85582E-13
 -1      3009 2.21724E+01-6.69204E-01-7.48304E-04 5.48116E-01 1.45298E-14-6.70701E-13
 -1      3010 2.27150E+01-4.19367E-01 3.74123E-03 6.57992E-01-4.95652E-14-7.30644E-13
 -1      3011 2.19429E+01-7.70125E-01-4.33044E-03 3.60407E-01 5.12859E-14-6.42161E-13
 -1      3012 2.18111E+01-8.01775E-01 5.29306E-03 2.11461E-01 1.09210E-13-5.83483E-13
 -1      3013 2.23190E+01-8.45320E-01 2.06011E-04 3.02938E-01 4.94763E-14-6.81690E-13
 -1      3014 2.15538E+01-7.84815E-01-4.79392E-03 5.27025E-02 1.22169E-13-5.32150E-13
 -1      3015 2.14112E+01-7.24966E-01 7.49480E-03-7.40877E-02 1.26380E-13-4.80194E-13
 -1      3016 2.18254E+01-9.21474E-01-4.76708E-03-4.15442E-02 1.45295E-13-5.66696E-13
 -1      3017 2.11744E+01-6.47381E-01-3.52437E-03-1.80200E-01 8.80014E-14-4.38617E-13
 -1      3018 2.10404E+01-5.50570E-01 7.24431E-03-2.68865E-01 1.07431E-13-3.82044E-13
 -1      3019 2.13421E+01-7.88169E-01-7.20510E-03-2.91747E-01 1.30884E-13-5.01843E-13
 -1      3020 2.08484E+01-4.55799E-01-1.90522E-03-3.24637E-01 2.54132E-14-3.27012E-13
 -1      3021 2.07343E+01-3.57854E-01 5.83730E-03-3.75736E-01-2.10327E-14-3.43147E-13
 -1      3022 2.09313E+01-5.70537E-01-7.31686E-03-4.34973E-01 8.63004E-14-3.90974E-13
 -1      3023 2.05918E+01-2.71266E-01-6.32207E-04-3.93643E-01-2.33068E-14-3.15986E-13
 -1      3024 2.05012E+01-1.89954E-01 4.17224E-03-4.14746E-01 4.76819E-14-3.08766E-13
 -1      3025 2.06152E+01-3.50467E-01-6.18186E-03-4.91286E-01 1.54979E-14-3.02183E-13
 -1      3026 2.04023E+01-1.22267E-01 1.68327E-04-4.08060E-01 3.56642E-14-3.60661E-13
 -1      3027 2.03337E+01-6.29967E-02 2.70182E-03-4.08074E-01 8.49760E-15-3.42156E-13
 -1      3028 2.03888E+01-1.68179E-01-4.71506E-03-4.88775E-01 3.03299E-14-2.95026E-13
 -1      3029 2.02689E+01-1.60426E-02 6.06343E-04-3.87317E-01-8.70438E-15-3.61926E-13
 -1      3030 2.02186E+01 2.23689E-02 1.56969E-03-3.74110E-01-3.01112E-14-3.16124E-13
 -1      3031 2.02359E+01-3.55085E-02-3.33936E-03-4.51367E-01 2.57655E-15-4.12999E-13
 -1      3032 2.01783E+01 5.11671E-02 8.04473E-04-3.46706E-01-4.19885E-14-3.12971E-13
 -1      3033 2.01420E+01 7.26928E-02 7.72148E-04-3.26375E-01-1.87078E-14-2.87738E-13
 -1      3034 2.01376E+01 5.03799E-02-2.24018E-03-3.96375E-01-3.06441E-14-2.86330E-13
 -1      3035 2.01184E+01 8.74909E-02 8.59355E-04-2.97171E-01-6.25655E-14-2.56837E-13
 -1      3036 2.00924E+01 9.67178E-02 2.55040E-04-2.74049E-01-8.08137E-14-2.33809E-13
 -1      3037 2.00775E+01 9.84868E-02-1.43361E-03-3.35260E-01-3.00865E-14-3.23671E-13
 -1      3038 2.00795E+01 1.01719E-01 8.32830E-04-2.45986E-01-8.76539E-14-1.89556E-13
 -1      3039 2.00609E+01 1.02781E-01-5.24514E-05-2.22924E-01-9.16737E-14-1.66904E-13
 -1      3040 2.00425E+01 1.19077E-01-8.79287E-04-2.75090E-01-5.84484E-14-2.34875E-13
 -1      3041 2.00544E+01 1.01546E-01 7.62754E-04-1.97611E-01-9.58357E-14-1.60627E-13
 -1      3042 2.00410E+01 9.77222E-02-2.13911E-04-1.76315E-01-6.96581E-14-1.95754E-13
 -1      3043 2.00233E+01 1.21380E-01-5.19004E-04-2.19861E-01-9.31495E-14-1.90977E-13
 -1      3044 2.00382E+01 9.29608E-02 6.72305E-04-1.54479E-01 5.78733E-15-1.41478E-13
 -1      3045 2.00284E+01 8.66362E-02-2.79850E-04-1.35831E-01 9.66555E-14-1.00704E-13
 -1      3046 2.00135E+01 1.12716E-01-2.95879E-04-1.71521E-01 2.17203E-14-1.66559E-13
 -1      3047 2.00276E+01 8.02549E-02 5.75383E-04-1.17636E-01 7.70121E-14-7.32009E-14
 -1      3048 2.00204E+01 7.30359E-02-2.87723E-04-1.01953E-01 9.53006E-14-1.09854E-13
 -1      3049 2.00089E+01 9.84113E-02-1.64279E-04-1.30705E-01 7.38252E-14-7.63486E-14
 -1      3050 2.00205E+01 6.62762E-02 4.80385E-04-8.72246E-02 1.41776E-13-9.89489E-14
 -1      3051 2.00151E+01 5.91617E-02-2.63645E-04-7.44672E-02 2.51189E-13-5.99220E-14
 -1      3052 2.00069E+01 8.20680E-02-9.07493E-05-9.72418E-02 1.07377E-13-7.24210E-14
 -1      3053 2.00155E+01 5.27635E-02 3.92290E-04-6.28489E-02 2.87428E-13-6.40574E-14
 -1      3054 2.00114E+01 4.63110E-02-2.24822E-04-5.27698E-02 2.62927E-13-4.91607E-14
 -1      3055 2.00062E+01 6.59334E-02-5.22026E-05-7.05030E-02 2.78550E-13-8.26626E-14
 -1      3056 2.00118E+01 4.06601E-02 3.13787E-04-4.38241E-02 1.57731E-13-5.51184E-14
 -1      3057 2.00088E+01 3.51264E-02-1.81905E-04-3.60741E-02 6.52172E-14-8.36806E-14
 -1      3058 2.00059E+01 5.12698E-02-3.35243E-05-4.96383E-02 1.91423E-13-1.45587E-13
 -1      3059 2.00091E+01 3.03748E-02 2.46007E-04-2.93495E-02 2.52273E-14-1.69471E-13
 -1      3060 2.00068E+01 2.58249E-02-1.40956E-04-2.35473E-02-9.78747E-14-1.31117E-13
 -1      3061 2.00057E+01 3.86651E-02-2.53172E-05-3.37275E-02 2.57867E-14-2.35307E-13
 -1      3062 2.00069E+01 2.19802E-02 1.89021E-04-1.86172E-02-1.25536E-13-1.27934E-13
 -1      3063 2.00053E+01 1.83667E-02-1.05015E-04-1.43923E-02-5.24408E-14-4.46647E-14
 -1      3064 2.00054E+01 2.82752E-02-2.20564E-05-2.18753E-02-6.09667E-14-1.53607E-13
 -1      3065 2.00053E+01 1.53556E-02 1.42239E-04-1.08762E-02 4.46172E-15-1.06770E-13
 -1      3066 2.00040E+01 1.25722E-02-7.52152E-05-7.89333E-03-1.28591E-14-2.30600E-14
 -1      3067 2.00049E+01 2.00006E-02-2.07399E-05-1.32650E-02-6.10195E-14-1.24548E-13
 -1      3068 2.00039E+01 1.02831E-02 1.04663E-04-5.46538E-03-8.99778E-14 1.78339E-14
 -1      3069 2.00030E+01 8.20046E-03-5.15674E-05-3.43529E-03-4.28490E-14-1.62952E-14
 -1      3070 2.00044E+01 1.36075E-02-1.98443E-05-7.18445E-03-4.91575E-14-7.28236E-14
 -1      3071 2.00029E+01 6.51006E-03 7.51047E-05-1.82550E-03-1.28133E-14 1.54682E-14
 -1      3072 2.00022E+01 4.99718E-03-3.34895E-05-5.07851E-04-8.69971E-15 8.83451E-14
 -1      3073 2.00038E+01 8.80758E-03-1.87380E-05-3.03412E-03-1.18188E-14 1.08993E-13
 -1      3074 2.00020E+01 3.78639E-03 5.23253E-05 5.01539E-04-1.33237E-13 8.18116E-14
 -1      3075 2.00016E+01 2.72230E-03-2.01482E-05 1.30048E-03-6.63109E-14 1.07527E-13
 -1      3076 2.00032E+01 5.30670E-03-1.72594E-05-3.23169E-04-4.87140E-14 9.55575E-14
 -1      3077 2.00014E+01 1.88442E-03 3.51346E-05 1.88083E-03-8.90736E-14 1.35825E-13
 -1      3078 2.00011E+01 1.16401E-03-1.06502E-05 2.31310E-03-1.37622E-13 8.25669E-14
 -1      3079 2.00026E+01 2.83231E-03-1.54639E-05 1.34024E-03-7.90959E-14 9.90657E-14
 -1      3080 2.00009E+01 6.08217E-04 2.24471E-05 2.59623E-03-7.23015E-14 1.20890E-13
 -1      3081 2.00007E+01 1.43981E-04-4.15635E-06 2.77822E-03 5.07073E-14 1.77851E-13
 -1      3082 2.00021E+01 1.14658E-03-1.34852E-05 2.26187E-03-6.99955E-14 1.79379E-13
 -1      3083 2.00005E+01-2.04156E-04 1.33110E-05 2.86326E-03 1.88660E-14 1.02906E-13
 -1      3084 2.00004E+01-4.82689E-04 6.58044E-08 2.88189E-03-2.28850E-13 1.05750E-13
 -1      3085 2.00016E+01 5.07937E-05-1.14650E-05 2.67509E-03-8.45536E-14 3.08272E-13
 -1      3086 2.00002E+01-6.82284E-04 6.91790E-06 2.84165E-03-2.73489E-13 7.91350E-14
 -1      3087 2.00002E+01-8.30241E-04 2.62360E-06 2.76023E-03-1.78627E-13 1.08438E-13
 -1      3088 2.00012E+01-6.15575E-04-9.51995E-06 2.75413E-03-1.87153E-13 3.68134E-13
 -1      3089 2.00000E+01-9.26993E-04 2.59973E-06 2.64686E-03-2.07935E-13 1.33834E-13
 -1      3090 2.00000E+01-9.86398E-04 4.00171E-06 2.51016E-03-1.21832E-13 5.19282E-14
 -1      3091 2.00009E+01-9.78528E-04-7.73169E-06 2.62599E-03-1.76253E-13 3.01481E-13
 -1      3092 1.99999E+01-1.01475E-03-1.83156E-07 2.35990E-03-8.22938E-14-7.39297E-14
 -1      3093 1.99999E+01-1.01684E-03 4.57451E-06 2.19860E-03-1.24866E-14-3.03888E-14
 -1      3094 2.00006E+01-1.13445E-03-6.14776E-06 2.38084E-03-1.60324E-13 6.36382E-14
 -1      3095 1.99998E+01-1.00209E-03-1.85699E-06 2.03570E-03-1.78951E-14-1.12581E-13
 -1      3096 1.99998E+01-9.69493E-04 4.62279E-06 1.86992E-03-1.31478E-13-1.63254E-13
 -1      3097 2.00004E+01-1.15524E-03-4.78807E-06 2.08072E-03-7.89357E-14 1.67396E-14
 -1      3098 1.99998E+01-9.29743E-04-2.75141E-06 1.70985E-03-1.28670E-13-1.04182E-13
 -1      3099 1.99998E+01-8.78395E-04 4.35119E-06 1.55201E-03 6.01254E-14-1.17513E-13
 -1      3100 2.00002E+01-1.09322E-03-3.65215E-06 1.76664E-03-4.20884E-14-2.11982E-15
 -1      3101 1.99997E+01-8.26212E-04-3.11600E-06 1.40392E-03 3.16295E-13 1.76648E-14
 -1      3102 1.99998E+01-7.66961E-04 3.90425E-06 1.26100E-03 3.89029E-13-3.54240E-14
 -1      3103 2.00001E+01-9.85366E-04-2.72622E-06 1.46428E-03 2.23859E-13 1.42563E-13
 -1      3104 1.99997E+01-7.10759E-04-3.13551E-06 1.12961E-03 2.30271E-13 7.66595E-15
 -1      3105 1.99997E+01-6.50697E-04 3.38027E-06 1.00482E-03 1.00069E-13-1.16824E-15
 -1      3106 2.00000E+01-8.57041E-04-1.98922E-06 1.18833E-03 2.76354E-13 6.49789E-14
 -1      3107 1.99997E+01-5.95848E-04-2.94329E-06 8.91901E-04 1.72226E-13-6.55827E-14
 -1      3108 1.99997E+01-5.39345E-04 2.84662E-06 7.85987E-04 2.55296E-13 5.39054E-14
 -1      3109 1.99999E+01-7.24938E-04-1.41691E-06 9.45970E-04 1.40785E-13 8.86038E-14
 -1      3110 1.99997E+01-4.89048E-04-2.63085E-06 6.91388E-04 3.48137E-13-1.38829E-13
 -1      3111 1.99997E+01-4.38582E-04 2.34450E-06 6.03551E-04 4.61425E-13-1.07260E-13
 -1      3112 1.99999E+01-5.99447E-04-9.78170E-07 7.39294E-04 2.63856E-13 6.07810E-14
 -1      3113 1.99997E+01-3.94536E-04-2.25512E-06 5.25972E-04 4.33958E-13-2.18040E-13
 -1      3114 1.99997E+01-3.51276E-04 1.89572E-06 4.54522E-04 2.19065E-13-3.67779E-13
 -1      3115 1.99998E+01-4.86596E-04-6.64266E-07 5.67252E-04 3.08449E-13-3.29703E-13
 -1      3116 1.99997E+01-3.14247E-04-1.86520E-06 3.92139E-04 3.59238E-15-2.63338E-13
 -1      3117 1.99998E+01-2.78657E-04 1.29371E-06 3.34910E-04-8.23563E-14-1.16181E-13
 -1      3118 1.99998E+01-3.89447E-04-5.18344E-07 4.27054E-04 2.63856E-13-4.36795E-13
 -1      3119 1.99997E+01-2.49127E-04-1.60924E-06 2.91292E-04-1.95327E-13 8.09252E-15
 -1      3120 1.99998E+01-2.20772E-04 7.48417E-07 2.45475E-04-2.77723E-13 5.47134E-15
 -1      3121 1.99998E+01-2.43126E-04 7.82328E-07 2.40562E-04-2.41319E-13 5.08748E-14
 -1      3122 1.99998E+01-3.07993E-04 1.64062E-07 3.20779E-04-5.53409E-14-1.67333E-13
 -1      3123 1.99999E+01-4.02701E-04 8.39670E-08 9.81574E-05 3.50102E-13 1.80936E-14
 -1      3124 2.00000E+01-4.12598E-04 1.17301E-06 6.36129E-05 3.20444E-13 8.36937E-14
 -1      3125 1.95979E+01 9.26383E-01-9.78777E-03 1.42899E+00-1.85603E-14-1.45095E-13
 -1      3126 1.95797E+01 9.93040E-01 7.17122E-03 1.62044E+00-3.40590E-14-1.02482E-13
 -1      3127 1.88991E+01 1.20841E+00 1.10151E-02 1.61815E+00-5.30991E-14-2.00303E-13
 -1      3128 1.97869E+01 7.73088E-01-7.52426E-03 1.10986E+00 5.52989E-14-1.58652E-13
 -1      3129 1.97744E+01 8.56885E-01 4.60433E-03 1.26580E+00 2.32292E-14-1.57702E-13
 -1      3130 1.92850E+01 1.05142E+00 8.81328E-03 1.26273E+00 4.05170E-14-2.56004E-13
 -1      3131 1.99120E+01 6.15694E-01-5.63256E-03 8.56271E-01 3.20087E-14-1.07019E-13
 -1      3132 1.99106E+01 6.96243E-01 3.47865E-03 9.82124E-01 8.00278E-14-1.08564E-13
 -1      3133 1.95601E+01 8.62609E-01 6.56659E-03 9.88919E-01 8.93892E-15-2.27166E-13
 -1      3134 1.99869E+01 4.76367E-01-4.14752E-03 6.54720E-01 3.09544E-14-1.54511E-13
 -1      3135 1.99947E+01 5.45582E-01 2.87034E-03 7.54939E-01 7.15650E-14-1.26874E-13
 -1      3136 1.97458E+01 6.82352E-01 4.58941E-03 7.71117E-01 8.87494E-14-1.96219E-13
 -1      3137 2.00269E+01 3.61775E-01-3.01122E-03 4.95571E-01 1.47597E-13-2.42819E-13
 -1      3138 2.00400E+01 4.17832E-01 2.43111E-03 5.74290E-01 7.90513E-14-1.63803E-13
 -1      3139 1.98652E+01 5.27077E-01 3.03886E-03 5.96144E-01 8.16694E-14-2.23195E-13
 -1      3140 2.00444E+01 2.71327E-01-2.16095E-03 3.71050E-01 8.58733E-14-2.62269E-13
 -1      3141 2.00596E+01 3.15203E-01 2.05009E-03 4.32111E-01 1.52963E-13-2.17525E-13
 -1      3142 1.99383E+01 4.00646E-01 1.91227E-03 4.55955E-01 1.47580E-13-2.51236E-13
 -1      3143 2.00486E+01 2.01650E-01-1.53220E-03 2.74579E-01-3.25460E-14-2.65857E-13
 -1      3144 2.00636E+01 2.35291E-01 1.70190E-03 3.21419E-01 4.21800E-14-2.80833E-13
 -1      3145 1.99807E+01 3.01101E-01 1.14341E-03 3.44588E-01 6.21668E-14-3.37161E-13
 -1      3146 2.00455E+01 1.48655E-01-1.12904E-03 2.00542E-01 2.80942E-14-2.10654E-13
 -1      3147 2.00592E+01 1.74199E-01 1.37938E-03 2.36141E-01-5.58040E-15-2.11368E-13
 -1      3148 2.00035E+01 2.24343E-01 6.51613E-04 2.57065E-01-7.82267E-14-2.61520E-13
 -1      3149 2.00388E+01 1.07148E-01-7.89013E-04 1.41897E-01-2.43210E-14-1.63432E-13
 -1      3150 2.00508E+01 1.26976E-01 1.09315E-03 1.69679E-01 3.85218E-14-1.49997E-13
 -1      3151 2.00145E+01 1.64809E-01 3.97654E-04 1.87688E-01 3.35872E-14-2.26740E-13
 -1      3152 2.00316E+01 7.78618E-02-5.21122E-04 1.00282E-01-6.06588E-14-3.65998E-13
 -1      3153 2.00410E+01 9.19736E-02 8.67402E-04 1.19929E-01-4.81790E-14-2.29685E-13
 -1      3154 2.00182E+01 1.19794E-01 1.29058E-04 1.34591E-01-4.59809E-15-1.46814E-13
 -1      3155 2.00246E+01 5.59999E-02-3.59799E-04 6.93220E-02 7.36571E-14-3.43507E-13
 -1      3156 2.00320E+01 6.64947E-02 6.70111E-04 8.37885E-02 1.55006E-14-3.78821E-13
 -1      3157 2.00181E+01 8.71128E-02 1.99450E-05 9.55276E-02 1.23830E-14-3.48808E-13
 -1      3158 2.00184E+01 3.97870E-02-2.47035E-04 4.65954E-02 1.72646E-13-3.21804E-13
 -1      3159 2.00242E+01 4.75596E-02 5.11965E-04 5.71230E-02 1.53554E-13-3.70302E-13
 -1      3160 2.00162E+01 6.26998E-02-3.44480E-05 6.62727E-02 1.17817E-13-3.48830E-13
 -1      3161 2.00133E+01 2.78274E-02-1.67700E-04 3.01524E-02 1.37829E-13-2.42320E-13
 -1      3162 2.00176E+01 3.35510E-02 3.85713E-04 3.77032E-02 1.72361E-13-2.22707E-13
 -1      3163 2.00137E+01 4.45507E-02-5.84345E-05 4.46694E-02 8.71390E-14-2.81658E-13
 -1      3164 2.00093E+01 1.90655E-02-1.12080E-04 1.84591E-02-6.73852E-14-3.45388E-13
 -1      3165 2.00124E+01 2.32488E-02 2.86273E-04 2.37798E-02 2.57615E-14-2.95193E-13
 -1      3166 2.00110E+01 3.11377E-02-6.51289E-05 2.89646E-02 7.65714E-14-1.85263E-13
 -1      3167 2.00062E+01 1.27045E-02-7.32329E-05 1.03183E-02-1.00384E-13-4.21800E-13
 -1      3168 2.00085E+01 1.57318E-02 2.08996E-04 1.39849E-02-8.41140E-14-4.99678E-13
 -1      3169 2.00086E+01 2.12996E-02-6.25967E-05 1.77551E-02-1.04072E-15-3.11248E-13
 -1      3170 2.00039E+01 8.14127E-03-4.62667E-05 4.80260E-03-6.45728E-14-4.60674E-13
 -1      3171 2.00055E+01 1.03039E-02 1.49759E-04 7.25669E-03-5.53805E-14-4.65712E-13
 -1      3172 2.00065E+01 1.41540E-02-5.56706E-05 9.92944E-03-3.72087E-14-4.54336E-13
 -1      3173 2.00023E+01 4.91812E-03-2.77192E-05 1.19945E-03-2.00804E-14-4.71910E-13
 -1      3174 2.00033E+01 6.43727E-03 1.04967E-04 2.77728E-03-2.75094E-14-4.54457E-13
 -1      3175 2.00048E+01 9.02916E-03-4.71211E-05 4.61656E-03-8.98362E-14-4.46512E-13
 -1      3176 2.00011E+01 2.68741E-03-1.51497E-05-1.03385E-03 1.62602E-13-3.93943E-13
 -1      3177 2.00018E+01 3.73120E-03 7.15798E-05-7.83121E-05-4.66217E-15-4.85362E-13
 -1      3178 2.00034E+01 5.41303E-03-3.85232E-05 1.14123E-03 1.73808E-14-5.05342E-13
 -1      3179 2.00003E+01 1.18491E-03-6.81437E-06-2.30630E-03 6.14765E-14-1.50775E-13
 -1      3180 2.00007E+01 1.88107E-03 4.70888E-05-1.78313E-03 1.90831E-13-1.62659E-13
 -1      3181 2.00023E+01 2.91504E-03-3.06586E-05-1.01441E-03 1.99377E-14-3.05528E-13
 -1      3182 1.99998E+01 2.10257E-04-1.46107E-06-2.92243E-03-1.04440E-14-1.82171E-13
 -1      3183 2.00000E+01 6.55531E-04 2.94477E-05-2.69125E-03 6.42952E-14-1.76190E-13
 -1      3184 2.00016E+01 1.23750E-03-2.38560E-05-2.24264E-03 3.79192E-14-3.35222E-13
 -1      3185 1.99995E+01-3.87903E-04 1.74342E-06-3.10579E-03 9.04892E-14-2.52696E-13
 -1      3186 1.99996E+01-1.20540E-04 1.70116E-05-3.06430E-03 7.73589E-14-1.58819E-13
 -1      3187 2.00010E+01 1.54268E-04-1.81953E-05-2.83661E-03 3.19907E-14-2.53814E-13
 -1      3188 1.99994E+01-7.23575E-04 3.47644E-06-3.01803E-03-3.04293E-14-1.46605E-13
 -1      3189 1.99994E+01-5.78423E-04 8.61395E-06-3.09247E-03 3.50010E-15-1.12947E-13
 -1      3190 2.00005E+01-5.05789E-04-1.36143E-05-3.01208E-03-8.86197E-15-8.49873E-14
 -1      3191 1.99993E+01-8.83555E-04 4.30958E-06-2.75735E-03-1.25752E-13 1.70583E-13
 -1      3192 1.99993E+01-8.21438E-04 3.00088E-06-2.90553E-03-7.18665E-14 6.00755E-15
 -1      3193 2.00002E+01-8.73537E-04-9.68361E-06-2.91911E-03-1.67068E-13-1.40684E-13
 -1      3194 1.99993E+01-9.15844E-04 4.69032E-06-2.42942E-03-4.96782E-14 1.99684E-15
 -1      3195 1.99992E+01-9.10897E-04-7.76561E-07-2.60074E-03-6.52456E-14 1.15270E-13
 -1      3196 2.00000E+01-1.03856E-03-7.07549E-06-2.67092E-03-8.24827E-14-4.06058E-14
 -1      3197 1.99993E+01-8.77702E-04 4.57629E-06-2.07717E-03 1.26538E-13 2.43490E-14
 -1      3198 1.99992E+01-9.05341E-04-2.93952E-06-2.25509E-03 2.00289E-14 6.31951E-14
 -1      3199 1.99999E+01-1.06627E-03-4.93062E-06-2.35280E-03-5.04913E-14-5.31416E-14
 -1      3200 1.99994E+01-7.99020E-04 4.18027E-06-1.73246E-03-9.29727E-16 3.11407E-13
 -1      3201 1.99993E+01-8.44211E-04-3.97754E-06-1.90293E-03 1.46107E-13 3.08157E-13
 -1      3202 1.99998E+01-1.01538E-03-3.34248E-06-2.01091E-03-2.08164E-14 2.25736E-13
 -1      3203 1.99994E+01-7.00856E-04 3.67822E-06-1.41424E-03 7.67541E-14 2.86268E-13
 -1      3204 1.99994E+01-7.53746E-04-4.34869E-06-1.56937E-03 1.37477E-13 3.32331E-13
 -1      3205 1.99997E+01-9.20190E-04-2.18330E-06-1.67653E-03 7.13837E-14 3.10039E-13
 -1      3206 1.99995E+01-5.97267E-04 3.14202E-06-1.13224E-03 6.56186E-16 2.11031E-13
 -1      3207 1.99994E+01-6.51385E-04-4.29190E-06-1.26827E-03-8.14113E-14 1.19390E-13
 -1      3208 1.99997E+01-8.04382E-04-1.35021E-06-1.36803E-03 1.81494E-13 1.17465E-13
 -1      3209 1.99995E+01-4.97175E-04 2.61811E-06-8.89984E-04-3.13173E-14 1.32653E-13
 -1      3210 1.99995E+01-5.48486E-04-3.97998E-06-1.00589E-03 1.39757E-13 2.16187E-13
 -1      3211 1.99997E+01-6.83631E-04-7.66440E-07-1.09479E-03 2.14547E-14 1.71903E-13
 -1      3212 1.99996E+01-4.05884E-04 2.12846E-06-6.86972E-04-7.54630E-14-1.65753E-13
 -1      3213 1.99995E+01-4.52050E-04-3.53237E-06-7.83461E-04-9.83691E-15-5.84824E-14
 -1      3214 1.99997E+01-5.67823E-04-3.72555E-07-8.60169E-04 1.39583E-13 1.22894E-13
 -1      3215 1.99996E+01-3.26205E-04 1.64066E-06-5.20296E-04 3.46762E-14-5.38905E-13
 -1      3216 1.99996E+01-3.66066E-04-3.03353E-06-5.99055E-04-1.49513E-14-2.42478E-13
 -1      3217 1.99997E+01-4.62797E-04-1.20923E-07-6.63673E-04 5.14834E-14-1.40622E-13
 -1      3218 1.99997E+01-2.60052E-04 6.06398E-07-3.86531E-04 1.11206E-13-3.73396E-13
 -1      3219 1.99996E+01-2.92006E-04-2.56668E-06-4.48724E-04-1.13344E-13-5.16696E-13
 -1      3220 1.99997E+01-3.71363E-04 1.86468E-07-5.02134E-04-6.28846E-14-2.50045E-13
 -1      3221 1.99999E+01-3.61714E-04-4.68764E-07 1.64043E-04 3.88317E-13-1.43183E-13
 -1      3222 1.99999E+01-3.80827E-04 1.55624E-06 1.36517E-04 2.86759E-13-6.57526E-14
 -1      3223 2.00000E+01-4.36205E-04-1.53012E-06 1.33899E-04 2.80843E-13-3.25947E-14
 -1      3224 2.00000E+01-4.20226E-04 6.80731E-07 1.91663E-05 2.89104E-13-1.03181E-14
 -1      3225 2.00000E+01-4.20342E-04 6.62043E-07-1.86995E-05 2.99637E-13-2.28487E-13
 -1      3226 2.00000E+01-4.63992E-04-1.67749E-06 4.67049E-05 2.80648E-13 5.69960E-14
 -1      3227 1.99998E+01-3.00163E-04-1.19143E-07 2.06006E-04 1.14434E-13-2.17752E-13
 -1      3228 1.99999E+01-3.27720E-04 1.61440E-06 1.90898E-04 2.92780E-13-3.14124E-13
 -1      3229 1.99999E+01-3.83551E-04-1.09245E-06 2.03028E-04 2.42827E-13-3.18280E-13
 -1      3230 2.48534E+01-2.28630E+00 1.66564E-02-2.40674E+00 6.41425E-13-8.52443E-13
 -1      3231 2.57988E+01-1.53585E+00-9.01724E-02-1.30505E+00 4.50445E-13-1.02825E-12
 -1      3232 2.26502E+01 2.63863E+00 4.79692E-03-8.91426E-01-4.64566E-13-8.11903E-13
 -1      3233 2.24660E+01 2.22588E+00-2.16342E-02-3.14540E-01-3.97840E-13-7.96268E-13
 -1      3234 2.30169E+01 3.09485E+00-3.07393E-03-1.12315E+00-4.47825E-13-8.23712E-13
 -1      3235 2.61574E+01 2.17810E+00-4.77595E-02 5.52477E-01-2.56337E-13-1.31294E-12
 -1      3236 2.56578E+01 3.38177E+00-8.96514E-02 4.46926E-01-4.43971E-13-1.27006E-12
 -1      3237 1.99998E+01-2.08377E-04-7.54559E-07-1.89119E-04 5.19524E-14 8.97949E-14
 -1      3238 2.59896E+01 5.56773E+00-7.43678E-02-2.18366E+00-6.56628E-13-6.99321E-13
 -1      3239 2.54245E+01 5.15744E+00-5.91966E-02-2.23514E+00-5.34107E-13-7.43398E-13
 -1      3240 2.59142E+01 5.85533E+00-1.23292E-01-1.69772E+00-7.37549E-13-8.51661E-13
 -1      3241 1.04119E+01 1.35058E+00 8.64754E-02 2.71051E+00-2.69385E-13 6.13537E-13
 -1      3242 9.18419E+00 1.84923E+00 1.68276E-01 6.96891E-01 3.18582E-15 8.29947E-13
 -1      3243 1.65280E+01-1.39743E+00 1.00065E-01-5.75730E+00 9.01786E-13 1.95642E-13
 -1      3244 1.88237E+01-2.31989E+00-2.65441E-02-5.66727E+00 8.94840E-13-9.09134E-14
 -1      3245 2.25252E+01 1.91804E+00 1.43495E-02 1.12576E-01-3.39984E-13-7.89250E-13
 -1      3246 2.24658E+01 1.45219E+00-1.89858E-02 4.66678E-01-2.78963E-13-7.53871E-13
 -1      3247 2.29398E+01 1.39337E+00 1.50448E-03 5.87318E-01-2.64895E-13-8.45588E-13
 -1      3248 2.28695E+01 2.38945E+00 6.30127E-03-4.36790E-02-3.58538E-13-8.31767E-13
 -1      3249 1.26347E+01 3.73989E-01 9.19030E-02-4.54440E+00 6.16229E-13 5.80161E-13
 -1      3250 1.44576E+01-6.20618E-01 5.61698E-02-5.53180E+00 7.93712E-13 4.10436E-13
 -1      3251 1.63761E+01-8.34058E-01 9.06391E-02-5.14408E+00 7.84511E-13 1.79030E-13
 -1      3252 1.88494E+01 5.87725E-01 2.84794E-03 3.08639E+00-2.52633E-13-5.66483E-14
 -1      3253 1.92642E+01 1.77634E-01 4.83978E-02 3.43109E+00-3.94404E-13-1.15405E-13
 -1      3254 1.78398E+01 1.02435E+00 2.28103E-02 2.83261E+00-2.01025E-13-5.36495E-14
 -1      3255 2.11767E+01-2.62642E+00 9.17688E-02-4.95298E+00 9.06934E-13-3.53300E-13
 -1      3256 2.30726E+01-2.80772E+00-4.10476E-02-3.82196E+00 8.22589E-13-5.93529E-13
 -1      3257 2.27514E+01-2.46199E+00 4.39332E-03-3.28359E+00 6.97376E-13-5.68742E-13
 -1      3258 2.39646E+01-2.59375E+00 5.06866E-03-2.91383E+00 7.10175E-13-7.19331E-13
 -1      3259 2.42742E+01-2.14563E+00-1.35164E-03-1.91504E+00 5.86487E-13-8.19995E-13
 -1      3260 1.21276E+01 9.34263E-01 1.29827E-01-3.85066E+00 5.35572E-13 6.38600E-13
 -1      3261 1.38326E+01 5.43141E-01 7.87288E-02-4.11768E+00 6.36081E-13 3.97293E-13
 -1      3262 1.15999E+01 1.34807E+00 3.71508E-02-2.85494E+00 4.08673E-13 6.51548E-13
 -1      3263 2.55797E+01-1.00841E+00-2.90498E-02-6.49440E-01 3.34665E-13-1.06258E-12
 -1      3264 1.99998E+01-2.63297E-04 6.40884E-07 2.31610E-04-1.85129E-13-1.17056E-13
 -1      3265 1.99998E+01-2.81683E-04 8.62659E-07 2.19654E-04-4.32465E-14-1.31739E-13
 -1      3266 1.99999E+01-3.33385E-04-9.76490E-07 2.44088E-04 5.43188E-14-2.97727E-13
 -1      3267 1.99998E+01-2.96085E-04-1.23719E-06 2.68295E-04-2.09000E-13-2.09922E-13
 -1      3268 1.61867E+01 3.02017E-01 4.22807E-02 4.20907E+00-4.21548E-13 1.13534E-13
 -1      3269 1.80650E+01-4.28771E-01 6.81664E-02 4.43845E+00-4.69274E-13-2.78250E-14
 -1      3270 2.56056E+01 1.15744E+00-4.34708E-02 4.40417E-01-1.05155E-13-1.22624E-12
 -1      3271 1.99997E+01-2.45380E-04-1.99656E-06-3.34486E-04 1.53346E-13-7.31138E-14
 -1      3272 1.99998E+01-3.08933E-04 6.00651E-07-3.75895E-04-2.14200E-13-7.85327E-14
 -1      3273 1.99997E+01-2.31645E-04-5.52877E-07-2.91452E-04 4.34229E-14 2.12114E-13
 -1      3274 1.99998E+01-2.15247E-04-8.27589E-07-2.19386E-04 2.41613E-13 6.63308E-14
 -1      3275 1.99997E+01-2.28611E-04-1.81950E-06-2.55540E-04 1.41822E-13 3.51907E-14
 -1      3276 1.99998E+01-2.79392E-04 1.32585E-06-2.83868E-04 1.52391E-14 1.18754E-13
 -1      3277 1.99998E+01-2.60229E-04 2.28169E-06-2.16496E-04 1.30491E-13-6.02577E-14
 -1      3278 1.99999E+01-3.27599E-04 1.72763E-06-1.86821E-04-5.48525E-14-3.40215E-13
 -1      3279 1.99998E+01-3.02331E-04-1.14879E-06-2.01854E-04-8.98316E-15-3.44698E-14
 -1      3280 1.99998E+01-3.12806E-04-1.14434E-07-2.35666E-04 1.22791E-13-1.46815E-13
 -1      3281 2.45919E+01 4.74986E+00-4.94317E-02-2.02829E+00-5.09710E-13-8.53443E-13
 -1      3282 2.53066E+01 3.80478E+00-7.30968E-02 2.67117E-01-4.74308E-13-1.20466E-12
 -1      3283 2.47729E+01 4.16851E+00-4.82778E-02-4.44847E-02-5.35322E-13-1.11040E-12
 -1      3284 2.48872E+01 2.71579E+00-3.42001E-02 4.84657E-01-3.48992E-13-1.20257E-12
 -1      3285 2.52763E+01 5.30429E+00-5.95895E-02-1.19168E+00-6.33958E-13-9.16065E-13
 -1      3286 1.18768E+01 1.12303E+00 1.75765E-01 3.57251E+00-3.71404E-13 5.26995E-13
 -1      3287 1.19353E+01 1.59231E+00 1.15544E-01 2.46476E+00-2.66924E-13 4.84779E-13
 -1      3288 1.36295E+01 5.65446E-01 9.29350E-02 4.12716E+00-4.63924E-13 3.70620E-13
 -1      3289 2.02319E+01-2.19312E+00 5.82009E-02-4.79909E+00 8.50639E-13-2.79097E-13
 -1      3290 2.00000E+01-4.63998E-04-1.63014E-06-4.68493E-05 2.23309E-13-6.01238E-14
 -1      3291 2.00000E+01-4.12843E-04 1.17255E-06-6.31318E-05 2.28137E-13-2.99920E-16
 -1      3292 1.99999E+01-4.02870E-04 7.60100E-08-9.83832E-05 1.44188E-13 1.97069E-13
 -1      3293 1.04736E+01 1.90601E+00 1.51212E-01-2.62011E-01 7.73557E-14 7.76268E-13
 -1      3294 1.86767E+01-1.13865E+00 1.34931E-01 4.92040E+00-4.46171E-13-1.09482E-13
 -1      3295 1.99999E+01-3.80086E-04 1.55643E-06-1.34413E-04 1.84375E-14 9.85182E-14
 -1      3296 1.99999E+01-3.61253E-04-4.51708E-07-1.61832E-04 4.88684E-14-2.63290E-13
 -1      3297 1.99999E+01-3.82492E-04-1.20909E-06-1.95776E-04 2.24832E-14-2.04268E-13
 -1      3298 2.00000E+01-4.35253E-04-1.42212E-06-1.31552E-04 1.61577E-13 1.94314E-13
 -1      3299 1.99999E+01-4.09567E-04-7.05996E-07 2.47979E-04 1.77208E-13-5.14312E-13
 -1      3300 2.00000E+01-4.37840E-04 2.05903E-06 2.19103E-04 3.30321E-13-4.35139E-13
 -1      3301 2.31473E+01-4.77463E-01-2.07268E-03 5.29892E-01-1.97036E-14-7.88961E-13
 -1      3302 2.29978E+01-7.94471E-01-5.86702E-04 3.86161E-01 3.93978E-14-7.54983E-13
 -1      3303 2.26528E+01-9.95850E-01-5.11817E-03 1.32966E-01 7.41273E-14-6.48069E-13
 -1      3304 2.24306E+01-1.08001E+00 8.90581E-03-4.54626E-02 1.75952E-13-5.92456E-13
 -1      3305 2.30824E+01-1.04756E+00-2.24781E-03 4.63154E-02 1.27501E-13-7.22815E-13
 -1      3306 2.20459E+01-1.08244E+00-5.94314E-03-2.36559E-01 1.53992E-13-5.47098E-13
 -1      3307 2.18109E+01-1.01228E+00 1.17946E-02-3.74535E-01 1.46762E-13-5.49883E-13
 -1      3308 2.23357E+01-1.23926E+00-1.13248E-02-4.06604E-01 1.70651E-13-5.61066E-13
 -1      3309 2.14661E+01-9.10773E-01-3.22884E-03-4.79200E-01 1.45888E-13-5.49951E-13
 -1      3310 2.12503E+01-7.78117E-01 1.04179E-02-5.60886E-01 1.68534E-13-5.21580E-13
 -1      3311 2.16245E+01-1.07326E+00-1.29060E-02-6.76804E-01 1.66414E-13-5.29501E-13
 -1      3312 2.09834E+01-6.45275E-01-4.69169E-04-5.93649E-01 1.47594E-13-4.56653E-13
 -1      3313 2.08066E+01-5.08017E-01 7.76650E-03-6.27442E-01 9.50676E-14-4.38198E-13
 -1      3314 2.10386E+01-7.71860E-01-1.19628E-02-7.80242E-01 1.88272E-13-5.07696E-13
 -1      3315 2.06193E+01-3.84982E-01 1.17295E-03-6.15180E-01 5.52770E-14-3.69438E-13
 -1      3316 2.04862E+01-2.70645E-01 5.13700E-03-6.16029E-01 4.72877E-14-3.31773E-13
 -1      3317 2.06098E+01-4.67480E-01-9.46508E-03-7.70273E-01 1.05156E-13-4.13899E-13
 -1      3318 2.03644E+01-1.73841E-01 1.81079E-03-5.80525E-01 4.35985E-15-3.49483E-13
 -1      3319 2.02705E+01-9.02458E-02 3.05327E-03-5.61639E-01 1.39322E-14-3.34967E-13
 -1      3320 2.03197E+01-2.17887E-01-6.90022E-03-7.00168E-01 3.46140E-14-3.75966E-13
 -1      3321 2.01974E+01-2.26165E-02 1.90706E-03-5.16905E-01-2.46974E-15-3.51799E-13
 -1      3322 2.01345E+01 3.18850E-02 1.58619E-03-4.87963E-01 6.33933E-16-3.46790E-13
 -1      3323 2.01374E+01-3.74832E-02-4.65223E-03-6.04577E-01-3.16018E-15-3.35827E-13
 -1      3324 2.00947E+01 7.38619E-02 1.72888E-03-4.42160E-01-2.57740E-14-3.17717E-13
 -1      3325 2.00545E+01 1.04785E-01 6.19153E-04-4.09524E-01 5.68485E-15-2.93416E-13
 -1      3326 2.00318E+01 7.87403E-02-2.95630E-03-5.04220E-01 4.64414E-14-3.04624E-13
 -1      3327 2.00361E+01 1.26837E-01 1.46403E-03-3.66888E-01-3.85793E-14-3.56828E-13
 -1      3328 2.00114E+01 1.40482E-01 3.45675E-05-3.34476E-01-3.80814E-14-3.44143E-13
 -1      3329 1.99772E+01 1.43741E-01-1.75738E-03-4.09834E-01-4.24097E-14-3.79033E-13
 -1      3330 2.00059E+01 1.48444E-01 1.19654E-03-2.96924E-01-2.00166E-14-3.21727E-13
 -1      3331 1.99914E+01 1.50496E-01-2.87430E-04-2.66958E-01-2.86276E-14-3.00887E-13
 -1      3332 1.99545E+01 1.71531E-01-9.57041E-04-3.26277E-01 3.20955E-14-4.04631E-13
 -1      3333 1.99929E+01 1.49348E-01 9.59414E-04-2.35070E-01-4.76226E-14-2.23760E-13
 -1      3334 1.99846E+01 1.44341E-01-4.37728E-04-2.08653E-01-5.74655E-14-2.01615E-13
 -1      3335 1.99502E+01 1.74529E-01-4.56408E-04-2.55080E-01 2.82276E-14-2.83962E-13
 -1      3336 1.99894E+01 1.37913E-01 7.62286E-04-1.82296E-01 1.82955E-14-1.62197E-13
 -1      3337 1.99849E+01 1.29177E-01-4.80497E-04-1.59818E-01 1.31295E-13-1.58798E-13
 -1      3338 1.99553E+01 1.62539E-01-1.62069E-04-1.96023E-01 1.18314E-14-1.77758E-13
 -1      3339 1.99907E+01 1.20201E-01 6.02862E-04-1.38509E-01 8.86080E-14-8.06552E-14
 -1      3340 1.99882E+01 1.10012E-01-4.60707E-04-1.19928E-01 8.49089E-14-8.42632E-14
 -1      3341 1.99644E+01 1.42704E-01-3.30416E-06-1.48064E-01 1.68875E-13-3.74356E-14
 -1      3342 1.99938E+01 1.00301E-01 4.75207E-04-1.03030E-01 1.02614E-13-6.09433E-14
 -1      3343 1.99924E+01 9.01072E-02-4.08551E-04-8.80489E-02 1.40611E-13-2.35279E-14
 -1      3344 1.99743E+01 1.19899E-01 7.07296E-05-1.09822E-01 1.21710E-13-1.66074E-14
 -1      3345 1.99973E+01 8.07703E-02 3.73182E-04-7.48922E-02 1.53407E-13-4.99176E-14
 -1      3346 1.99964E+01 7.14033E-02-3.43381E-04-6.30856E-02 2.62311E-13-9.75706E-14
 -1      3347 1.99833E+01 9.72111E-02 9.49709E-05-7.98371E-02 1.40269E-13-9.64803E-14
 -1      3348 2.00002E+01 6.30446E-02 2.91580E-04-5.30239E-02 2.36361E-13-2.01058E-13
 -1      3349 1.99996E+01 5.49114E-02-2.76897E-04-4.39211E-02 1.14645E-13-1.92910E-13
 -1      3350 1.99906E+01 7.64130E-02 9.24240E-05-5.67103E-02 1.50173E-13-1.97340E-13
 -1      3351 2.00024E+01 4.77923E-02 2.26259E-04-3.63676E-02 4.00483E-14-2.14244E-13
 -1      3352 2.00018E+01 4.10221E-02-2.15588E-04-2.95019E-02-4.92323E-15-2.33507E-13
 -1      3353 1.99962E+01 5.83669E-02 7.74394E-05-3.91709E-02 4.84328E-14-2.81870E-13
 -1      3354 2.00038E+01 3.51881E-02 1.74008E-04-2.39435E-02-5.46895E-14-1.95608E-13
 -1      3355 2.00033E+01 2.97419E-02-1.62500E-04-1.88834E-02-8.28267E-14-1.82848E-13
 -1      3356 2.00001E+01 4.33406E-02 5.85631E-05-2.61054E-02 1.51424E-14-1.88670E-13
 -1      3357 2.00046E+01 2.51126E-02 1.32344E-04-1.48834E-02-1.54622E-13-1.54897E-13
 -1      3358 2.00040E+01 2.08600E-02-1.18616E-04-1.12478E-02-6.90719E-14-1.38575E-13
 -1      3359 2.00026E+01 3.12409E-02 4.02181E-05-1.65635E-02-1.73577E-13-2.05886E-13
 -1      3360 2.00048E+01 1.72907E-02 9.93356E-05-8.44360E-03-6.93394E-15-9.83169E-14
 -1      3361 2.00043E+01 1.40606E-02-8.36447E-05-5.90749E-03 4.61320E-14-5.04463E-14
 -1      3362 2.00040E+01 2.17783E-02 2.45993E-05-9.75101E-03 9.87113E-16-5.67567E-14
 -1      3363 2.00046E+01 1.13832E-02 7.33976E-05-4.00434E-03-4.35571E-14-2.84617E-14
 -1      3364 2.00042E+01 8.99605E-03-5.66299E-05-2.29881E-03-2.88619E-14-2.70104E-14
 -1      3365 2.00047E+01 1.45761E-02 1.24194E-05-5.01783E-03 1.57584E-14-1.42406E-13
 -1      3366 2.00042E+01 7.04316E-03 5.32292E-05-1.06120E-03-8.27183E-15-7.38858E-14
 -1      3367 2.00038E+01 5.32918E-03-3.63804E-05 3.09643E-05 6.53603E-15-1.29591E-14
 -1      3368 2.00048E+01 9.23924E-03 3.58222E-06-1.84041E-03-1.53846E-14-2.37657E-13
 -1      3369 2.00037E+01 3.94753E-03 3.77396E-05 7.87656E-04-9.84164E-14-1.42974E-14
 -1      3370 2.00034E+01 2.75656E-03-2.16503E-05 1.43795E-03-8.77094E-14 2.02389E-14
 -1      3371 2.00045E+01 5.39484E-03-2.37054E-06 1.95669E-04-3.29172E-14-2.06356E-13
 -1      3372 2.00032E+01 1.81335E-03 2.60140E-05 1.85589E-03-3.54665E-14 2.58522E-14
 -1      3373 2.00029E+01 1.01829E-03-1.12777E-05 2.19683E-03-6.47604E-14 1.55970E-13
 -1      3374 2.00041E+01 2.71221E-03-6.01915E-06 1.41294E-03 2.51564E-14 1.18260E-15
 -1      3375 2.00026E+01 4.03028E-04 1.72837E-05 2.38350E-03-1.54580E-13 1.38331E-13
 -1      3376 2.00024E+01-9.99858E-05-4.24715E-06 2.51533E-03-2.01250E-13 3.38279E-14
 -1      3377 2.00035E+01 9.11131E-04-7.93803E-06 2.05816E-03-1.64352E-13-8.10745E-14
 -1      3378 2.00021E+01-4.76359E-04 1.09073E-05 2.55040E-03-9.00880E-14 1.72769E-13
 -1      3379 2.00019E+01-7.69773E-04 2.89376E-07 2.54727E-03-1.06183E-13 2.33888E-13
 -1      3380 2.00030E+01-2.37802E-04-8.63216E-06 2.31677E-03-7.51293E-14-8.36671E-14
 -1      3381 2.00016E+01-9.77101E-04 6.35478E-06 2.48857E-03-2.13654E-13 3.19692E-13
 -1      3382 2.00015E+01-1.12470E-03 3.01609E-06 2.40404E-03-2.01123E-13 2.19614E-13
 -1      3383 2.00024E+01-9.17086E-04-8.51241E-06 2.32537E-03-1.22585E-13 1.51056E-13
 -1      3384 2.00012E+01-1.21640E-03 3.19319E-06 2.29247E-03-1.75910E-13 2.59713E-13
 -1      3385 2.00011E+01-1.26635E-03 4.46907E-06 2.16415E-03-1.12605E-13 2.95094E-13
 -1      3386 2.00019E+01-1.26824E-03-7.89426E-06 2.18242E-03-1.92697E-13 2.91727E-13
 -1      3387 2.00009E+01-1.28231E-03 1.07397E-06 2.02780E-03-2.27677E-13 2.58227E-13
 -1      3388 2.00008E+01-1.27011E-03 5.05734E-06 1.88125E-03-1.50030E-13 1.25546E-13
 -1      3389 2.00015E+01-1.39842E-03-7.00921E-06 1.95708E-03-2.35239E-13 3.25326E-13
 -1      3390 2.00006E+01-1.23936E-03-2.79193E-07 1.73866E-03 2.01457E-14 3.90117E-14
 -1      3391 2.00006E+01-1.19049E-03 5.08520E-06 1.59047E-03 1.68013E-14 1.26488E-13
 -1      3392 2.00011E+01-1.38681E-03-6.01843E-06 1.69637E-03-1.94977E-13 2.16399E-13
 -1      3393 2.00004E+01-1.13362E-03-1.08197E-06 1.45323E-03 1.42475E-13 9.08065E-14
 -1      3394 2.00004E+01-1.06587E-03 4.77327E-06 1.31355E-03 3.07599E-13 1.96872E-13
 -1      3395 2.00008E+01-1.29050E-03-5.02805E-06 1.43093E-03 8.48504E-14 1.08943E-13
 -1      3396 2.00002E+01-9.97014E-04-1.49994E-06 1.18830E-03 2.96650E-13 6.75798E-14
 -1      3397 2.00002E+01-9.22364E-04 4.27733E-06 1.06268E-03 2.61921E-13 6.57664E-14
 -1      3398 2.00005E+01-1.14948E-03-4.10322E-06 1.17960E-03 2.80010E-13 8.43259E-14
 -1      3399 2.00001E+01-8.50865E-04-1.65787E-06 9.52679E-04 7.60791E-14-5.08528E-14
 -1      3400 2.00001E+01-7.77045E-04 3.70022E-06 8.43549E-04 4.89801E-14 4.72148E-15
 -1      3401 2.00003E+01-9.90826E-04-3.28026E-06 9.52811E-04 1.15168E-13-1.07905E-13
 -1      3402 2.00000E+01-7.08767E-04-1.64630E-06 7.49755E-04 1.29893E-13-5.77175E-14
 -1      3403 2.00000E+01-6.40389E-04 3.13748E-06 6.57498E-04 2.39432E-13-1.51742E-13
 -1      3404 2.00002E+01-8.32139E-04-2.57459E-06 7.55333E-04 5.26005E-14-4.10246E-13
 -1      3405 1.99999E+01-5.78681E-04-1.51871E-06 5.79501E-04 1.44733E-13-2.07213E-13
 -1      3406 1.99999E+01-5.18464E-04 2.54625E-06 5.03332E-04 2.35184E-13-3.70647E-13
 -1      3407 2.00001E+01-6.84005E-04-1.95560E-06 5.87991E-04 1.59397E-13-4.78630E-13
 -1      3408 1.99999E+01-4.64332E-04-1.09373E-06 4.39502E-04 3.59412E-13-4.05943E-13
 -1      3409 1.99999E+01-4.13977E-04 1.52851E-06 3.78481E-04 2.87831E-13-3.98926E-13
 -1      3410 2.00000E+01-5.53144E-04-1.66047E-06 4.49614E-04 2.19726E-13-3.77817E-13
 -1      3411 2.53036E+01 3.32500E-01-1.08295E-03 3.99499E-01 2.98199E-14-1.16901E-12
 -1      3412 2.49142E+01 1.31165E+00-5.18400E-02 6.40773E-01-1.73719E-13-1.19659E-12
 -1      3413 2.33844E+01 3.64483E+00-1.29089E-02-1.35522E+00-4.79483E-13-8.65222E-13
 -1      3414 2.32218E+01 3.29077E+00-2.14982E-02-7.21209E-01-4.31432E-13-8.41279E-13
 -1      3415 2.38246E+01 4.02795E+00-1.76671E-02-1.62051E+00-4.42601E-13-8.64285E-13
 -1      3416 1.95859E+01 6.96583E-01-5.30562E-03 6.34559E-01 6.45186E-14-1.58053E-13
 -1      3417 1.95119E+01 7.88335E-01-2.25269E-04 7.23751E-01 7.66323E-14-1.71345E-13
 -1      3418 1.97453E+01 5.39510E-01-3.87709E-03 4.98941E-01 1.04764E-13-1.94539E-13
 -1      3419 1.96994E+01 6.15721E-01 1.49636E-04 5.71857E-01 5.93999E-14-1.95846E-13
 -1      3420 1.95051E+01 7.29428E-01 5.58882E-03 5.28432E-01 7.45160E-14-1.37531E-13
 -1      3421 1.98491E+01 4.12326E-01-2.85089E-03 3.87282E-01 1.12370E-13-1.36206E-13
 -1      3422 1.98223E+01 4.73520E-01 4.24760E-04 4.46375E-01 1.56265E-13-1.57159E-13
 -1      3423 1.96818E+01 5.65790E-01 3.79645E-03 4.23876E-01 1.22336E-13-1.63861E-13
 -1      3424 1.99151E+01 3.11948E-01-2.08662E-03 2.96403E-01 1.81909E-14-1.15335E-13
 -1      3425 1.99008E+01 3.60008E-01 5.79062E-04 3.43697E-01 1.55346E-13-1.05187E-13
 -1      3426 1.98002E+01 4.33701E-01 2.53822E-03 3.34472E-01 1.46179E-13 4.26550E-15
 -1      3427 1.99560E+01 2.33909E-01-1.56609E-03 2.23424E-01-1.14320E-13-1.29027E-13
 -1      3428 1.99493E+01 2.71170E-01 6.12881E-04 2.60802E-01-8.65070E-14-1.58219E-13
 -1      3429 1.98782E+01 3.29292E-01 1.68108E-03 2.59424E-01-2.08315E-14 5.37279E-14
 -1      3430 1.99814E+01 1.71487E-01-1.13642E-03 1.63198E-01 1.48728E-15-9.05683E-14
 -1      3431 1.99791E+01 2.01098E-01 5.96725E-04 1.93446E-01-6.26498E-14-1.98781E-13
 -1      3432 1.99298E+01 2.46218E-01 1.12130E-03 1.96370E-01-5.82828E-15-9.86659E-14
 -1      3433 1.99953E+01 1.26559E-01-7.97322E-04 1.18841E-01 4.75343E-14-1.87012E-13
 -1      3434 1.99956E+01 1.47975E-01 5.47677E-04 1.40950E-01 9.35751E-14-1.21667E-13
 -1      3435 1.99623E+01 1.82280E-01 6.69534E-04 1.45727E-01 6.17621E-14-9.10559E-14
 -1      3436 2.00027E+01 9.24823E-02-5.75731E-04 8.47675E-02 4.61090E-14-2.94884E-13
 -1      3437 2.00041E+01 1.08709E-01 4.77615E-04 1.01535E-01 2.60339E-14-2.50530E-13
 -1      3438 1.99820E+01 1.34774E-01 4.03451E-04 1.06811E-01 1.09389E-13-1.65814E-13
 -1      3439 2.00062E+01 6.68176E-02-4.12251E-04 5.90069E-02 1.32071E-13-2.63472E-13
 -1      3440 2.00081E+01 7.90287E-02 3.96957E-04 7.15509E-02 1.70485E-13-2.15268E-13
 -1      3441 1.99938E+01 9.86532E-02 2.37669E-04 7.65787E-02 1.18756E-13-2.12587E-13
 -1      3442 2.00075E+01 4.76031E-02-2.92394E-04 3.98405E-02 8.73762E-14-2.33524E-13
 -1      3443 2.00094E+01 5.67338E-02 3.20685E-04 4.90837E-02 8.70931E-14-2.90601E-13
 -1      3444 2.00006E+01 7.13436E-02 1.32944E-04 5.35103E-02 7.91945E-14-2.67711E-13
 -1      3445 2.00076E+01 3.33198E-02-2.04838E-04 2.58287E-02 2.44010E-14-1.63690E-13
 -1      3446 2.00093E+01 4.00951E-02 2.52823E-04 3.25243E-02 8.12909E-14-1.80156E-13
 -1      3447 2.00043E+01 5.08351E-02 6.77502E-05 3.62247E-02 7.05996E-14-2.60556E-13
 -1      3448 2.00070E+01 2.27963E-02-1.41147E-04 1.57880E-02 2.71395E-14-2.75992E-13
 -1      3449 2.00085E+01 2.77759E-02 1.94946E-04 2.05424E-02 8.84348E-14-1.95299E-13
 -1      3450 2.00059E+01 3.55570E-02 2.83739E-05 2.35203E-02 1.12232E-13-1.81381E-13
 -1      3451 2.00061E+01 1.51280E-02-9.51422E-05 8.76117E-03-8.12463E-14-3.26124E-13
 -1      3452 2.00073E+01 1.87448E-02 1.47204E-04 1.20566E-02-2.48896E-14-2.87813E-13
 -1      3453 2.00064E+01 2.42847E-02 5.20856E-06 1.43805E-02 5.38746E-14-2.27511E-13
 -1      3454 2.00051E+01 9.61706E-03-6.21661E-05 3.98641E-03-4.93816E-14-3.81661E-13
 -1      3455 2.00061E+01 1.22054E-02 1.08854E-04 6.20107E-03-9.30954E-14-3.01967E-13
 -1      3456 2.00062E+01 1.60664E-02-7.45691E-06 7.96647E-03-1.08342E-13-1.51691E-13
 -1      3457 2.00041E+01 5.72537E-03-3.88198E-05 8.65692E-04-2.85947E-14-2.43692E-13
 -1      3458 2.00049E+01 7.54317E-03 7.86995E-05 2.29322E-03 1.31186E-14-2.49945E-13
 -1      3459 2.00056E+01 1.01616E-02-1.37290E-05 3.60071E-03-3.76141E-14-1.93906E-13
 -1      3460 2.00033E+01 3.03823E-03-2.25534E-05-1.06388E-03 2.58740E-15-1.99605E-13
 -1      3461 2.00039E+01 4.28434E-03 5.54783E-05-1.98531E-04-8.76111E-15-3.09890E-13
 -1      3462 2.00049E+01 5.99632E-03-1.61301E-05 7.45221E-04 4.25727E-14-1.04570E-13
 -1      3463 2.00026E+01 1.23705E-03-1.14625E-05-2.15529E-03-7.50494E-15-2.54909E-13
 -1      3464 2.00030E+01 2.06410E-03 3.79465E-05-1.68206E-03 2.80306E-14-2.53930E-13
 -1      3465 2.00041E+01 3.12612E-03-1.62718E-05-1.01973E-03 2.22406E-14-1.66646E-13
 -1      3466 2.00019E+01 7.82717E-05-4.17527E-06-2.67353E-03-1.01053E-13-6.49509E-14
 -1      3467 2.00022E+01 6.02821E-04 2.49700E-05-2.46574E-03-1.09070E-13-1.42867E-13
 -1      3468 2.00034E+01 1.20853E-03-1.51763E-05-2.01603E-03-1.00375E-13-1.92662E-13
 -1      3469 2.00014E+01-6.24017E-04 1.87374E-07-2.81477E-03-2.07585E-14 3.36670E-14
 -1      3470 2.00016E+01-3.12129E-04 1.56684E-05-2.77889E-03 6.33792E-15 2.18272E-14
 -1      3471 2.00027E+01-1.88443E-05-1.34285E-05-2.48625E-03-1.00766E-13 8.60206E-14
 -1      3472 2.00010E+01-1.01875E-03 2.98075E-06-2.71032E-03-2.34277E-13 8.74046E-14
 -1      3473 2.00012E+01-8.52720E-04 8.94338E-06-2.78704E-03-1.42154E-13 9.08783E-15
 -1      3474 2.00021E+01-7.64310E-04-1.09100E-05-2.60771E-03-5.57498E-14 1.74873E-13
 -1      3475 2.00007E+01-1.17471E-03 4.69339E-06-2.47325E-03-1.30819E-13 1.36542E-13
 -1      3476 2.00008E+01-1.11569E-03 4.32367E-06-2.60525E-03-1.51748E-13 1.67601E-13
 -1      3477 2.00016E+01-1.16287E-03-9.62253E-06-2.50843E-03-2.23703E-13 1.20886E-13
 -1      3478 2.00004E+01-1.19473E-03 5.29940E-06-2.17273E-03-1.34518E-13 2.08438E-13
 -1      3479 2.00005E+01-1.19865E-03 1.21597E-06-2.33093E-03-9.36256E-14 9.82054E-14
 -1      3480 2.00012E+01-1.31789E-03-7.85940E-06-2.28688E-03-8.42309E-14 1.42565E-13
 -1      3481 2.00003E+01-1.13086E-03 5.28391E-06-1.85281E-03-7.67965E-14 3.21235E-13
 -1      3482 2.00003E+01-1.17208E-03-6.39606E-07-2.01656E-03-1.42280E-13 1.33201E-13
 -1      3483 2.00008E+01-1.32757E-03-6.30342E-06-2.00703E-03-8.54007E-14 6.78556E-14
 -1      3484 2.00001E+01-1.02043E-03 4.94052E-06-1.54166E-03 1.31657E-13 8.56146E-14
 -1      3485 2.00001E+01-1.08151E-03-1.71305E-06-1.69829E-03 5.17410E-14 2.46887E-13
 -1      3486 2.00006E+01-1.24890E-03-4.97366E-06-1.70999E-03-1.41554E-14 1.50672E-13
 -1      3487 2.00000E+01-8.89039E-04 4.41983E-06-1.25567E-03 1.53280E-13 2.18605E-13
 -1      3488 2.00000E+01-9.58152E-04-2.24722E-06-1.39801E-03 1.81318E-13 1.79085E-13
 -1      3489 2.00004E+01-1.12202E-03-3.86017E-06-1.42165E-03 1.88710E-13-7.10643E-14
 -1      3490 1.99999E+01-7.53519E-04 3.82488E-06-1.00311E-03-5.05387E-14 1.97582E-13
 -1      3491 1.99999E+01-8.22987E-04-2.42221E-06-1.12777E-03-6.63427E-14 1.68416E-13
 -1      3492 2.00002E+01-9.74260E-04-2.94717E-06-1.15701E-03 9.03702E-14 2.92030E-13
 -1      3493 1.99999E+01-6.24427E-04 3.22066E-06-7.86781E-04 1.01639E-13 3.67339E-13
 -1      3494 1.99999E+01-6.89522E-04-2.37064E-06-8.92873E-04 1.74755E-13 3.79838E-13
 -1      3495 2.00001E+01-8.23514E-04-2.21371E-06-9.23584E-04 6.78853E-15 2.71212E-13
 -1      3496 1.99998E+01-5.07870E-04 2.69727E-06-6.05993E-04 1.53956E-13 9.32875E-14
 -1      3497 1.99998E+01-5.65954E-04-2.19490E-06-6.94223E-04 1.69387E-13 2.80342E-13
 -1      3498 2.00000E+01-6.80901E-04-1.63339E-06-7.23884E-04 1.72670E-13 4.08992E-13
 -1      3499 1.99998E+01-4.07081E-04 2.18590E-06-4.58041E-04-2.34210E-13 3.69414E-16
 -1      3500 1.99998E+01-4.57058E-04-2.06496E-06-5.30246E-04-6.51806E-14 1.97348E-14
 -1      3501 1.99999E+01-5.52464E-04-1.19791E-06-5.57324E-04 1.73164E-13 2.85703E-13
 -1      3502 2.00000E+01-4.73818E-04-4.53617E-07 1.74717E-04 2.84083E-13-2.01010E-13
 -1      3503 2.00000E+01-4.91462E-04 1.63334E-06 1.32667E-04 3.36282E-13-1.47859E-13
 -1      3504 2.00000E+01-5.05856E-04-9.02570E-07 2.22520E-04 2.34956E-13-4.29529E-13
 -1      3505 2.44039E+01 4.67811E+00-3.88612E-02-1.38353E+00-5.44960E-13-8.75918E-13
 -1      3506 2.00000E+01-5.09845E-04 3.85538E-07 7.78944E-05 3.24340E-13 6.40167E-14
 -1      3507 2.00000E+01-5.16139E-04 1.11833E-06 2.94112E-05 3.67779E-13-2.84012E-14
 -1      3508 2.00001E+01-5.56869E-04-2.04551E-06 1.18674E-04 2.92705E-13-9.93216E-15
 -1      3509 1.59751E+01-3.08211E-01 5.41504E-02-4.57789E+00 6.52086E-13 1.75172E-13
 -1      3510 1.76204E+01-1.17690E+00-3.73236E-03-4.86509E+00 7.41823E-13-4.47420E-14
 -1      3511 1.77927E+01 1.43740E+00-2.20341E-02 1.61044E+00-8.23584E-14 1.22925E-14
 -1      3512 1.75240E+01 1.47264E+00 8.41794E-03 1.86871E+00-6.51714E-14 4.48862E-14
 -1      3513 1.93788E+01-1.68873E+00 7.04828E-02-4.66550E+00 7.94278E-13-2.44627E-13
 -1      3514 2.10326E+01-2.27314E+00-2.66208E-02-4.08559E+00 7.47669E-13-4.52650E-13
 -1      3515 1.88850E+01-1.21617E+00 4.49107E-02-4.25697E+00 7.00766E-13-2.32082E-13
 -1      3516 1.68320E+01 1.44565E+00-2.48150E-02 2.15045E+00-1.48351E-13 5.07693E-14
 -1      3517 1.65997E+01 1.34790E+00 3.01308E-02 2.56430E+00-2.65456E-13 1.86895E-14
 -1      3518 1.64757E+01 1.76248E+00 4.09727E-02 1.58816E+00-1.15722E-13 1.15343E-13
 -1      3519 1.93469E+01 8.82859E-01-7.35508E-03 7.98601E-01 1.31785E-15-2.33358E-13
 -1      3520 1.92339E+01 9.87420E-01-5.49535E-04 9.07786E-01-5.24548E-15-2.25882E-13
 -1      3521 1.92450E+01 9.25959E-01 8.06266E-03 6.49436E-01 1.93428E-14-1.89088E-13
 -1      3522 2.37810E+01 7.93195E-01-4.86649E-03 7.07033E-01-1.49212E-13-9.94914E-13
 -1      3523 2.37154E+01 1.23315E-01-1.45715E-02 6.89053E-01-6.58917E-14-9.40718E-13
 -1      3524 2.49261E+01-1.47562E+00 9.80121E-04-8.62119E-01 4.07683E-13-9.60091E-13
 -1      3525 2.51954E+01-6.21486E-01-5.59281E-02-1.05116E-01 1.98791E-13-1.06109E-12
 -1      3526 2.47373E+01-4.17847E-01-2.36148E-02 1.52254E-01 1.24371E-13-1.05026E-12
 -1      3527 2.43358E+01 4.42107E+00-5.61863E-02-7.12514E-01-5.52135E-13-9.87565E-13
 -1      3528 1.84943E+01 1.29155E+00-1.52494E-02 1.25571E+00 4.55080E-14-1.51672E-13
 -1      3529 1.82756E+01 1.38375E+00 1.79214E-03 1.43544E+00-2.08019E-14-6.36439E-14
 -1      3530 1.75571E+01 1.61633E+00 2.39286E-02 1.20547E+00 5.57169E-14 5.98588E-14
 -1      3531 1.89964E+01 1.08934E+00-1.04642E-02 9.99396E-01 5.67358E-14-2.12601E-13
 -1      3532 1.88335E+01 1.19776E+00-3.48450E-04 1.13585E+00 6.41909E-14-2.09152E-13
 -1      3533 1.88676E+01 1.15141E+00 1.15091E-02 7.90868E-01 6.33350E-14-1.15566E-13
 -1      3534 1.15801E+01 2.00506E+00 3.92099E-02 5.29243E-01-2.69255E-14 5.17628E-13
 -1      3535 1.15207E+01 2.01362E+00 1.24119E-01-1.22816E+00 1.85461E-13 6.98858E-13
 -1      3536 1.27422E+01 1.68447E+00 8.13536E-02-1.94329E+00 2.90406E-13 5.24150E-13
 -1      3537 2.36295E+01 2.52245E+00-1.94648E-02 3.18696E-01-3.54050E-13-9.75418E-13
 -1      3538 2.36581E+01 1.93683E+00-1.92017E-02 5.78354E-01-3.06606E-13-9.82972E-13
 -1      3539 2.39993E+01-2.71879E-01-1.68577E-02 4.39274E-01 1.85997E-14-9.84655E-13
 -1      3540 2.00000E+01-4.36287E-04 1.99368E-06-2.12994E-04 9.30860E-14-9.55799E-14
 -1      3541 1.99999E+01-4.08353E-04-8.95052E-07-2.40974E-04 2.25606E-15-2.09275E-13
 -1      3542 2.40432E+01 3.61935E+00-2.21428E-02-2.84412E-01-4.40217E-13-9.80419E-13
 -1      3543 1.99998E+01-3.71179E-04-8.08117E-07 3.42961E-04 1.10525E-13-4.38824E-13
 -1      3544 1.99998E+01-3.31437E-04 7.30613E-07 2.99068E-04-8.43763E-14-3.41836E-13
 -1      3545 1.99999E+01-3.52499E-04 1.70606E-07 2.87915E-04 1.48954E-14-4.35486E-13
 -1      3546 1.99999E+01-4.43281E-04-1.17747E-06 3.54153E-04 2.21858E-13-5.58278E-13
 -1      3547 2.00001E+01-5.74047E-04-1.81050E-06-1.68816E-08 4.06590E-13 1.60687E-13
 -1      3548 2.00000E+01-5.16332E-04 1.04090E-06-2.94947E-05 3.52537E-13 2.90532E-14
 -1      3549 2.00000E+01-5.09852E-04 4.64811E-07-7.78612E-05 2.78930E-13 8.88216E-14
 -1      3550 1.83265E+01 1.39170E+00 1.63587E-02 9.65185E-01 9.93787E-14-5.05867E-14
 -1      3551 1.99999E+01-3.69400E-04 1.21944E-06 2.73059E-04 9.92160E-14-4.75096E-13
 -1      3552 1.52526E+01 1.60213E-01 5.24475E-02-4.26705E+00 5.94091E-13 2.44686E-13
 -1      3553 1.66469E+01-9.50912E-02 4.98866E-02-4.01024E+00 5.94360E-13 5.92651E-14
 -1      3554 1.44574E+01 6.59209E-01 8.42072E-03-3.64655E+00 5.03483E-13 2.96083E-13
 -1      3555 1.53328E+01 1.03874E+00 1.31280E-02 3.31607E+00-3.14979E-13 1.68289E-13
 -1      3556 1.44759E+01 1.56928E+00 4.12861E-02 2.47378E+00-2.20303E-13 2.32214E-13
 -1      3557 2.11873E+01-1.90637E+00 1.04196E-02-3.44704E+00 5.86624E-13-4.14639E-13
 -1      3558 2.20870E+01-2.27778E+00 3.51300E-02-3.41512E+00 6.83457E-13-4.91344E-13
 -1      3559 2.26455E+01-2.26044E+00-4.68131E-02-2.60919E+00 5.96595E-13-5.85715E-13
 -1      3560 1.99998E+01-3.26848E-04 1.03100E-06-3.36029E-04-1.66317E-13 9.24581E-14
 -1      3561 1.99998E+01-3.51774E-04-1.32986E-06-3.90896E-04-2.36647E-13-4.99531E-14
 -1      3562 1.99999E+01-4.29435E-04-6.07868E-07-4.16625E-04-2.78303E-13 4.21506E-14
 -1      3563 1.99998E+01-3.20901E-04-8.86704E-07-2.97223E-04 2.73484E-14-1.45215E-13
 -1      3564 1.99999E+01-3.59187E-04 1.19321E-06-2.83767E-04-6.93323E-14-2.41249E-13
 -1      3565 2.43962E+01-1.92190E+00-2.14345E-02-1.32207E+00 4.77944E-13-8.36031E-13
 -1      3566 2.42182E+01-1.47088E+00-4.54557E-03-6.65272E-01 3.75116E-13-8.87391E-13
 -1      3567 2.37152E+01-2.01415E+00 3.78420E-02-1.73520E+00 5.19762E-13-7.47897E-13
 -1      3568 1.99999E+01-4.34386E-04-3.46933E-07 2.94324E-04 1.41341E-13-5.99578E-13
 -1      3569 1.99999E+01-4.22497E-04-1.11085E-06-3.10210E-04-1.63513E-13-2.31588E-13
 -1      3570 2.40684E+01-9.68327E-01 3.12632E-03 2.38474E-02 2.00862E-13-9.15332E-13
 -1      3571 2.00000E+01-4.70773E-04-2.29829E-07-1.72524E-04 2.36307E-13 1.48793E-13
 -1      3572 2.00000E+01-5.03873E-04-1.88667E-06-2.19905E-04 1.95109E-13 2.05091E-13
 -1      3573 2.00000E+01-4.90488E-04 1.53495E-06-1.33278E-04 2.85770E-13 2.09983E-13
 -1      3574 2.43758E+01 1.13879E+00-1.10624E-02 6.81803E-01-1.62747E-13-1.09633E-12
 -1      3575 2.46586E+01 1.95179E+00-2.80173E-02 6.82924E-01-2.50360E-13-1.16136E-12
 -1      3576 2.25631E+01-1.42530E+00-2.45896E-03-7.20771E-01 2.42041E-13-5.64035E-13
 -1      3577 2.22083E+01-1.32792E+00 2.38683E-02-8.75739E-01 2.31810E-13-5.35832E-13
 -1      3578 2.17164E+01-1.18716E+00-4.87528E-04-9.72548E-01 1.98300E-13-4.58634E-13
 -1      3579 2.13917E+01-1.00418E+00 1.46205E-02-1.03087E+00 2.35309E-13-4.36173E-13
 -1      3580 2.18101E+01-1.39955E+00-3.11119E-02-1.27575E+00 2.55905E-13-4.57890E-13
 -1      3581 2.10496E+01-8.23143E-01 2.51605E-03-1.01372E+00 2.18502E-13-4.05097E-13
 -1      3582 2.07976E+01-6.38099E-01 9.79110E-03-1.01003E+00 1.77610E-13-3.95075E-13
 -1      3583 2.10084E+01-9.51794E-01-2.12200E-02-1.29200E+00 2.14346E-13-4.10516E-13
 -1      3584 2.05737E+01-4.74086E-01 3.86233E-03-9.44035E-01 1.30327E-13-4.08660E-13
 -1      3585 2.03942E+01-3.24207E-01 5.56980E-03-9.05497E-01 9.70454E-14-3.65950E-13
 -1      3586 2.04856E+01-5.44415E-01-1.30458E-02-1.16756E+00 1.42104E-13-3.67720E-13
 -1      3587 2.02611E+01-1.96889E-01 4.19698E-03-8.21800E-01 8.54558E-14-3.30718E-13
 -1      3588 2.01414E+01-8.97993E-02 2.73910E-03-7.68295E-01 4.96118E-14-3.01020E-13
 -1      3589 2.01513E+01-2.23842E-01-9.06737E-03-9.85907E-01 1.37630E-13-3.80224E-13
 -1      3590 2.00714E+01-2.49387E-03 3.76758E-03-6.85531E-01 1.86650E-14-3.06090E-13
 -1      3591 1.99973E+01 6.58714E-02 1.01391E-03-6.29373E-01 2.95987E-15-2.97547E-13
 -1      3592 1.99616E+01 2.79633E-04-5.66094E-03-7.98592E-01 3.71555E-14-2.43219E-13
 -1      3593 1.99673E+01 1.19299E-01 3.03188E-03-5.55931E-01 3.17248E-14-2.78773E-13
 -1      3594 1.99251E+01 1.57273E-01 4.90334E-06-5.03284E-01 5.50759E-14-2.92621E-13
 -1      3595 1.98681E+01 1.39498E-01-3.34802E-03-6.30178E-01 4.69371E-14-2.49362E-13
 -1      3596 1.99191E+01 1.84815E-01 2.31904E-03-4.41533E-01-2.52401E-14-3.25109E-13
 -1      3597 1.98977E+01 2.00804E-01-5.09869E-04-3.95101E-01-4.48103E-14-3.11912E-13
 -1      3598 1.98342E+01 2.14205E-01-1.80966E-03-4.88237E-01-1.33593E-14-2.87031E-13
 -1      3599 1.99048E+01 2.10183E-01 1.72130E-03-3.44943E-01-2.19450E-14-3.10237E-13
 -1      3600 1.98962E+01 2.11561E-01-7.32214E-04-3.05508E-01 4.53817E-14-3.00232E-13
 -1      3601 1.98349E+01 2.43121E-01-8.22723E-04-3.73008E-01-3.77021E-14-2.66908E-13
 -1      3602 1.99094E+01 2.09251E-01 1.25164E-03-2.65641E-01 1.02475E-13-2.46925E-13
 -1      3603 1.99080E+01 2.01780E-01-7.88822E-04-2.32989E-01 8.89271E-14-2.14667E-13
 -1      3604 1.98534E+01 2.42109E-01-2.40790E-04-2.81719E-01 5.34660E-14-2.20350E-13
 -1      3605 1.99230E+01 1.92689E-01 9.02004E-04-2.01778E-01 1.26791E-13-1.29973E-13
 -1      3606 1.99253E+01 1.80556E-01-7.51980E-04-1.75265E-01 1.35899E-13-3.53724E-14
 -1      3607 1.98793E+01 2.23323E-01 7.90752E-05-2.10493E-01 2.01808E-13-1.32679E-13
 -1      3608 1.99396E+01 1.68183E-01 6.49001E-04-1.51127E-01 1.48210E-13 1.10843E-13
 -1      3609 1.99433E+01 1.54256E-01-6.68109E-04-1.29949E-01 2.40587E-13 1.11848E-13
 -1      3610 1.99064E+01 1.95434E-01 2.32382E-04-1.55549E-01 1.87948E-13 1.30697E-13
 -1      3611 1.99559E+01 1.40936E-01 4.68904E-04-1.11481E-01 1.00527E-13-7.65845E-15
 -1      3612 1.99598E+01 1.27048E-01-5.65988E-04-9.48175E-02 7.32484E-14-5.61414E-14
 -1      3613 1.99311E+01 1.64327E-01 2.84829E-04-1.13560E-01 1.20132E-13 6.11803E-14
 -1      3614 1.99701E+01 1.14222E-01 3.41435E-04-8.08322E-02 1.10997E-13-8.58288E-14
 -1      3615 1.99735E+01 1.01437E-01-4.62504E-04-6.79127E-02 1.04761E-13-1.70285E-13
 -1      3616 1.99521E+01 1.33721E-01 2.80126E-04-8.17472E-02 9.12122E-14-2.21023E-14
 -1      3617 1.99815E+01 8.99031E-02 2.50968E-04-5.74373E-02 1.00162E-13-2.02293E-13
 -1      3618 1.99842E+01 7.87503E-02-3.66780E-04-4.75700E-02 8.54199E-14-2.91204E-13
 -1      3619 1.99689E+01 1.05751E-01 2.46649E-04-5.78551E-02 5.26604E-14-1.83250E-13
 -1      3620 1.99902E+01 6.88641E-02 1.86256E-04-3.98179E-02 9.02386E-14-2.72696E-13
 -1      3621 1.99922E+01 5.95194E-02-2.83232E-04-3.24011E-02 1.25073E-13-2.39060E-13
 -1      3622 1.99816E+01 8.14515E-02 2.01984E-04-4.00867E-02 7.59018E-14-2.52944E-13
 -1      3623 1.99965E+01 5.13537E-02 1.39357E-04-2.67441E-02 1.05938E-13-2.21599E-13
 -1      3624 1.99977E+01 4.37755E-02-2.13146E-04-2.12671E-02-1.36292E-14-2.34802E-13
 -1      3625 1.99909E+01 6.11348E-02 1.56019E-04-2.70215E-02 1.42501E-13-2.05864E-13
 -1      3626 2.00007E+01 3.72373E-02 1.04740E-04-1.72075E-02-1.06609E-13-1.82232E-13
 -1      3627 2.00014E+01 3.12638E-02-1.56222E-04-1.32424E-02-9.43803E-14-1.00019E-13
 -1      3628 1.99973E+01 4.46761E-02 1.15093E-04-1.75461E-02-2.41065E-14-1.41858E-13
 -1      3629 2.00033E+01 2.61700E-02 7.88433E-05-1.03873E-02-8.22026E-14-1.46616E-14
 -1      3630 2.00036E+01 2.15822E-02-1.11382E-04-7.58342E-03 3.71974E-14 2.13074E-14
 -1      3631 2.00014E+01 3.17019E-02 8.02172E-05-1.07869E-02-1.48738E-14 3.41296E-14
 -1      3632 2.00047E+01 1.77150E-02 5.92257E-05-5.62642E-03-3.04042E-14-1.37568E-13
 -1      3633 2.00047E+01 1.42799E-02-7.68077E-05-3.69997E-03-7.58012E-14-1.98187E-13
 -1      3634 2.00039E+01 2.17308E-02 5.25955E-05-6.06435E-03-1.05727E-13-1.76520E-13
 -1      3635 2.00053E+01 1.14190E-02 4.42370E-05-2.40319E-03 1.99586E-14-1.96663E-13
 -1      3636 2.00051E+01 8.91369E-03-5.08219E-05-1.12811E-03 6.79611E-14-2.14857E-13
 -1      3637 2.00052E+01 1.42552E-02 3.16674E-05-2.85205E-03-1.91929E-14-1.06896E-13
 -1      3638 2.00053E+01 6.85461E-03 3.27283E-05-3.08648E-04 2.24921E-14-2.00115E-13
 -1      3639 2.00050E+01 5.07955E-03-3.17737E-05 4.92407E-04 3.15829E-14-8.74078E-14
 -1      3640 2.00056E+01 8.79259E-03 1.64835E-05-7.44151E-04 7.90733E-14-1.10432E-13
 -1      3641 2.00049E+01 3.64297E-03 2.38918E-05 9.73647E-04 6.01916E-14-6.00415E-14
 -1      3642 2.00046E+01 2.42735E-03-1.81843E-05 1.43763E-03 4.63096E-14 2.26868E-14
 -1      3643 2.00055E+01 4.91176E-03 5.96776E-06 5.69478E-04 7.01119E-14-3.78460E-14
 -1      3644 2.00044E+01 1.46236E-03 1.71366E-05 1.68515E-03-1.20441E-13-8.64676E-14
 -1      3645 2.00041E+01 6.65079E-04-8.78863E-06 1.91608E-03-2.25124E-13-3.66698E-14
 -1      3646 2.00051E+01 2.24423E-03-9.18668E-07 1.32354E-03-1.08817E-13-9.50433E-14
 -1      3647 2.00038E+01 4.86475E-05 1.20139E-05 2.00730E-03-1.47136E-13-9.35163E-15
 -1      3648 2.00035E+01-4.43556E-04-2.54189E-06 2.08276E-03 5.93679E-14 8.74430E-14
 -1      3649 2.00045E+01 4.85522E-04-5.09266E-06 1.69358E-03-1.07649E-13 1.27741E-14
 -1      3650 2.00032E+01-8.09032E-04 8.17469E-06 2.07406E-03 4.89277E-14 3.50535E-14
 -1      3651 2.00029E+01-1.08483E-03 1.39551E-06 2.05082E-03-7.21765E-15 2.21100E-13
 -1      3652 2.00038E+01-6.08940E-04-7.32137E-06 1.80905E-03 2.00483E-14 4.38925E-14
 -1      3653 2.00026E+01-1.27492E-03 5.34051E-06 1.98246E-03-1.72218E-13 1.99467E-13
 -1      3654 2.00023E+01-1.40212E-03 3.68291E-06 1.90106E-03-2.40586E-13 2.18743E-13
 -1      3655 2.00032E+01-1.23085E-03-8.20687E-06 1.76382E-03-7.60386E-14 2.64963E-13
 -1      3656 2.00020E+01-1.47399E-03 3.28655E-06 1.80107E-03-2.02197E-13 2.39947E-13
 -1      3657 2.00018E+01-1.50326E-03 4.82613E-06 1.68974E-03-2.68020E-13 2.33977E-13
 -1      3658 2.00026E+01-1.52706E-03-8.21510E-06 1.62456E-03-2.09147E-13 1.30039E-13
 -1      3659 2.00015E+01-1.49916E-03 1.83217E-06 1.57702E-03-2.66066E-13 2.88421E-13
 -1      3660 2.00014E+01-1.46748E-03 5.20494E-06 1.45470E-03-1.33757E-13 2.89251E-13
 -1      3661 2.00020E+01-1.60751E-03-7.68917E-06 1.43739E-03-3.06156E-13 3.63406E-13
 -1      3662 2.00012E+01-1.41785E-03 8.32146E-07 1.34147E-03-6.51477E-14 2.46489E-13
 -1      3663 2.00010E+01-1.35150E-03 5.09802E-06 1.22031E-03 1.05914E-13 1.72383E-13
 -1      3664 2.00015E+01-1.55263E-03-6.87360E-06 1.23317E-03-9.62558E-14 3.89435E-13
 -1      3665 2.00008E+01-1.27769E-03 1.70257E-07 1.11398E-03 1.39975E-13 3.34868E-14
 -1      3666 2.00007E+01-1.19481E-03 4.70466E-06 1.00124E-03 1.32614E-13-1.17478E-13
 -1      3667 2.00011E+01-1.41976E-03-5.93626E-06 1.03162E-03 2.50409E-14-8.03636E-14
 -1      3668 2.00006E+01-1.11129E-03-2.46706E-07 9.05838E-04 7.77381E-14-2.31778E-13
 -1      3669 2.00005E+01-1.02392E-03 4.16179E-06 8.05372E-04 2.46635E-14-3.45548E-13
 -1      3670 2.00008E+01-1.24861E-03-4.98653E-06 8.44481E-04 1.19013E-14-3.48878E-13
 -1      3671 2.00004E+01-9.40095E-04-4.96862E-07 7.22659E-04 5.12490E-14-3.71886E-13
 -1      3672 2.00003E+01-8.55789E-04 3.62270E-06 6.35980E-04 3.85960E-14-4.50145E-13
 -1      3673 2.00005E+01-1.06564E-03-4.08132E-06 6.77955E-04 8.21810E-15-2.87404E-13
 -1      3674 2.00002E+01-7.77737E-04-7.34895E-07 5.66403E-04 6.46249E-14-4.91111E-13
 -1      3675 2.00001E+01-7.00665E-04 3.21627E-06 4.93484E-04 1.60689E-13-4.61915E-13
 -1      3676 2.00003E+01-8.87383E-04-3.27700E-06 5.34404E-04 4.67060E-14-2.56921E-13
 -1      3677 2.00001E+01-6.30657E-04-6.23200E-07 4.35856E-04 2.55055E-13-5.11030E-13
 -1      3678 2.00000E+01-5.64992E-04 1.65174E-06 3.75995E-04 1.98007E-13-5.05897E-13
 -1      3679 2.00002E+01-7.25332E-04-2.54149E-06 4.14425E-04 2.10667E-13-4.78219E-13
 -1      3680 2.00000E+01-4.79590E-04 9.95229E-07 3.25723E-04 1.72564E-13-5.87204E-13
 -1      3681 2.36138E+01 3.06007E+00-1.47709E-02-8.82509E-02-4.14741E-13-9.45464E-13
 -1      3682 1.96243E+01 5.50930E-01-2.88067E-03 3.28529E-01 1.10957E-13-1.28932E-13
 -1      3683 1.95508E+01 6.24901E-01-1.61504E-03 3.71220E-01 6.21023E-14-1.97835E-13
 -1      3684 1.94355E+01 7.05502E-01-3.83420E-03 3.97220E-01 1.18211E-13-1.64481E-13
 -1      3685 1.93258E+01 7.94966E-01-2.68480E-03 4.44875E-01 9.22875E-14-1.37423E-13
 -1      3686 1.94175E+01 7.06440E-01 5.31125E-03 2.95093E-01 8.18066E-14-7.83953E-14
 -1      3687 1.98420E+01 3.25236E-01-1.66159E-03 2.09454E-01-2.65323E-15 2.00327E-14
 -1      3688 1.98107E+01 3.72821E-01-3.96088E-04 2.41100E-01 6.55072E-14 2.96667E-14
 -1      3689 1.99036E+01 2.42957E-01-1.26369E-03 1.59658E-01 3.15927E-14-9.90243E-14
 -1      3690 1.98830E+01 2.81817E-01-1.08031E-04 1.86818E-01 5.50105E-14-1.12334E-14
 -1      3691 1.98286E+01 3.28309E-01 1.78168E-03 1.69878E-01 1.16447E-13-3.10081E-14
 -1      3692 1.99423E+01 1.82372E-01-9.30241E-04 1.20553E-01 1.08223E-13-1.21892E-13
 -1      3693 1.99303E+01 2.11087E-01 6.95472E-05 1.41456E-01 9.82774E-14-1.21169E-13
 -1      3694 1.98916E+01 2.48019E-01 1.22336E-03 1.32399E-01 7.24651E-14-5.33500E-14
 -1      3695 1.99676E+01 1.35498E-01-6.98888E-04 8.89935E-02 7.70863E-14-1.28070E-13
 -1      3696 1.99605E+01 1.57713E-01 1.61144E-04 1.05534E-01 9.36490E-14-1.18604E-13
 -1      3697 1.99332E+01 1.86684E-01 8.07394E-04 1.01168E-01 1.19937E-13-4.18123E-14
 -1      3698 1.99838E+01 9.95392E-02-5.18562E-04 6.41096E-02 7.13940E-14-1.09548E-13
 -1      3699 1.99798E+01 1.16570E-01 1.87944E-04 7.69453E-02 6.21889E-14-1.23040E-13
 -1      3700 1.99610E+01 1.39057E-01 5.38103E-04 7.53519E-02 5.23594E-14-6.53293E-14
 -1      3701 1.99940E+01 7.21551E-02-3.80564E-04 4.49102E-02 1.22018E-13-1.84923E-13
 -1      3702 1.99919E+01 8.51101E-02 1.84903E-04 5.46835E-02 1.73727E-13-1.64347E-13
 -1      3703 1.99793E+01 1.02325E-01 3.54341E-04 5.46388E-02 1.10870E-13 2.18358E-14
 -1      3704 2.00001E+01 5.14700E-02-2.75777E-04 3.04074E-02 4.89706E-14-1.04105E-13
 -1      3705 1.99992E+01 6.12408E-02 1.66629E-04 3.77069E-02 5.47260E-14-1.81588E-13
 -1      3706 1.99911E+01 7.42339E-02 2.29078E-04 3.84531E-02 1.33614E-13-4.57259E-14
 -1      3707 2.00035E+01 3.59905E-02-1.96630E-04 1.96907E-02 1.67632E-13-1.69359E-13
 -1      3708 2.00033E+01 4.32862E-02 1.41915E-04 2.50309E-02 1.45654E-13-1.68723E-13
 -1      3709 1.99984E+01 5.29467E-02 1.44269E-04 2.61129E-02 1.57933E-13 6.79407E-14
 -1      3710 2.00052E+01 2.45358E-02-1.37548E-04 1.19551E-02-7.14227E-14-7.08945E-14
 -1      3711 2.00054E+01 2.99199E-02 1.15940E-04 1.57746E-02 7.06937E-14-1.85167E-13
 -1      3712 2.00027E+01 3.69818E-02 8.67897E-05 1.69341E-02 8.16607E-14 7.11184E-15
 -1      3713 2.00058E+01 1.61685E-02-9.38120E-05 6.51959E-03-1.39520E-13-2.93266E-14
 -1      3714 2.00062E+01 2.00874E-02 9.18641E-05 9.17879E-03-1.14383E-13-3.42462E-14
 -1      3715 2.00050E+01 2.51539E-02 4.91166E-05 1.02763E-02-1.27966E-13 3.13629E-14
 -1      3716 2.00058E+01 1.01541E-02-6.18807E-05 2.82312E-03-9.66571E-15-8.37345E-14
 -1      3717 2.00063E+01 1.29582E-02 7.07406E-05 4.61398E-03-7.46506E-14-1.15382E-13
 -1      3718 2.00060E+01 1.65107E-02 2.44419E-05 5.58407E-03-4.02933E-14 5.61862E-14
 -1      3719 2.00054E+01 5.91508E-03-3.89289E-05 4.13465E-04 3.61943E-14-2.26553E-13
 -1      3720 2.00058E+01 7.87989E-03 5.31040E-05 1.56728E-03 4.86874E-14-1.53858E-13
 -1      3721 2.00062E+01 1.03014E-02 8.75652E-06 2.38765E-03 3.30408E-14-3.79156E-13
 -1      3722 2.00047E+01 3.00101E-03-2.27447E-05-1.06537E-03-3.14586E-14-8.64818E-14
 -1      3723 2.00052E+01 4.34139E-03 3.88716E-05-3.68678E-04-1.82079E-14-1.10367E-13
 -1      3724 2.00059E+01 5.93175E-03-8.19860E-07 3.03163E-04-6.77769E-14-2.62098E-13
 -1      3725 2.00040E+01 1.06235E-03-1.16303E-05-1.88813E-03-1.83110E-13 5.24563E-14
 -1      3726 2.00045E+01 1.94472E-03 2.76968E-05-1.51106E-03-1.57125E-14 2.47611E-14
 -1      3727 2.00053E+01 2.93567E-03-6.29201E-06-9.74594E-04-1.23282E-13 5.88929E-14
 -1      3728 2.00034E+01-1.71485E-04-4.62280E-06-2.26356E-03-5.33315E-14 5.45334E-14
 -1      3729 2.00037E+01 3.82565E-04 1.91373E-05-2.10201E-03-2.31011E-13-4.72410E-15
 -1      3730 2.00046E+01 9.50811E-04-8.91802E-06-1.68279E-03-1.80654E-13 1.65227E-13
 -1      3731 2.00027E+01-9.27733E-04 2.04432E-07-2.34265E-03-1.77210E-13 1.89414E-13
 -1      3732 2.00030E+01-6.00026E-04 1.25541E-05-2.32521E-03-6.09662E-14 1.44196E-13
 -1      3733 2.00038E+01-3.21318E-04-9.18042E-06-2.00337E-03-1.55473E-13 9.66412E-14
 -1      3734 2.00021E+01-1.29384E-03 3.35691E-06-2.23293E-03-2.17570E-13 8.08426E-14
 -1      3735 2.00024E+01-1.14140E-03 7.98652E-06-2.30168E-03-1.64531E-13 1.50937E-13
 -1      3736 2.00031E+01-1.06373E-03-1.00372E-05-2.06345E-03-1.35909E-13 1.81687E-13
 -1      3737 2.00016E+01-1.43290E-03 4.85006E-06-2.02423E-03 5.75216E-14-2.96687E-14
 -1      3738 2.00018E+01-1.38534E-03 4.58382E-06-2.13906E-03-1.02263E-13 8.78396E-14
 -1      3739 2.00025E+01-1.42510E-03-9.36464E-06-1.96307E-03-8.17667E-14 1.00933E-13
 -1      3740 2.00012E+01-1.42547E-03 5.39723E-06-1.76878E-03-9.07320E-14-1.02385E-13
 -1      3741 2.00014E+01-1.44378E-03 2.31766E-06-1.90383E-03 7.37452E-15-4.58342E-14
 -1      3742 2.00019E+01-1.55202E-03-8.34208E-06-1.77656E-03 9.85547E-14-9.19944E-14
 -1      3743 2.00009E+01-1.33018E-03 5.38479E-06-1.50155E-03-7.36572E-14-1.09492E-13
 -1      3744 2.00010E+01-1.38701E-03 8.08141E-07-1.64012E-03-1.73020E-13-1.46762E-13
 -1      3745 2.00015E+01-1.52955E-03-7.19956E-06-1.55013E-03-1.44426E-13-5.62357E-14
 -1      3746 2.00006E+01-1.18804E-03 5.03441E-06-1.24439E-03 2.31738E-13 1.68442E-14
 -1      3747 2.00007E+01-1.26445E-03-1.49355E-07-1.37619E-03 1.35429E-13 5.64478E-15
 -1      3748 2.00011E+01-1.41851E-03-6.05537E-06-1.31427E-03-3.54834E-14 2.77033E-14
 -1      3749 2.00004E+01-1.02686E-03 4.50321E-06-1.00981E-03 5.34047E-15 2.39878E-13
 -1      3750 2.00005E+01-1.11012E-03-7.13171E-07-1.12909E-03 1.68812E-13 1.68959E-13
 -1      3751 2.00008E+01-1.26124E-03-4.98223E-06-1.08792E-03 5.37398E-14 3.01906E-13
 -1      3752 2.00002E+01-8.64679E-04 3.89944E-06-8.03863E-04-4.14363E-14 4.20446E-13
 -1      3753 2.00003E+01-9.46647E-04-1.00485E-06-9.07972E-04-6.61382E-14 2.64135E-13
 -1      3754 2.00005E+01-1.08628E-03-4.01813E-06-8.81860E-04-1.67450E-13 4.42436E-13
 -1      3755 2.00001E+01-7.12595E-04 3.29467E-06-6.28330E-04 1.71213E-13 4.33487E-13
 -1      3756 2.00001E+01-7.88415E-04-1.12713E-06-7.16689E-04 1.00380E-13 4.68994E-13
 -1      3757 2.00003E+01-9.12046E-04-3.16121E-06-7.01299E-04-5.83524E-14 5.79335E-13
 -1      3758 2.00000E+01-5.76910E-04 2.81389E-06-4.81829E-04 2.18071E-13 3.46693E-13
 -1      3759 2.00000E+01-6.44474E-04-1.31845E-06-5.55501E-04 4.14288E-13 4.64399E-13
 -1      3760 2.00002E+01-7.49373E-04-2.13244E-06-5.47960E-04 2.60437E-13 6.70098E-13
 -1      3761 2.00001E+01-6.05335E-04 5.23602E-07 1.64022E-04 1.31810E-13 3.05790E-14
 -1      3762 2.00001E+01-6.21811E-04 1.51594E-06 1.06579E-04 2.02728E-13 1.30150E-13
 -1      3763 2.42605E+01 2.37803E+00-3.29013E-02 5.27547E-01-3.33853E-13-1.10539E-12
 -1      3764 2.36393E+01-1.28797E+00-3.93591E-03-3.55777E-01 2.58136E-13-7.89174E-13
 -1      3765 1.82081E+01 1.34134E+00-1.14609E-02 6.13134E-01 1.41863E-13-2.62395E-14
 -1      3766 1.78769E+01 1.46403E+00-8.43019E-03 6.84275E-01 1.20069E-13-3.67395E-15
 -1      3767 1.62255E+01 1.79397E+00-2.42999E-02 8.35805E-01-3.09501E-14 3.21045E-14
 -1      3768 1.55311E+01 1.85334E+00-1.24030E-02 1.02605E+00-1.26190E-13 7.37336E-14
 -1      3769 1.99999E+01-4.63079E-04 1.47566E-06-3.58792E-04-1.28464E-13-1.33508E-13
 -1      3770 2.00000E+01-5.31704E-04-1.55695E-06-4.21278E-04 2.64180E-14-2.61102E-15
 -1      3771 2.00001E+01-6.17637E-04-3.78083E-07-4.17348E-04 4.01650E-13 1.68224E-13
 -1      3772 2.00000E+01-5.11760E-04 1.28712E-06-3.08885E-04 4.16080E-14-4.24293E-14
 -1      3773 1.83416E+01-6.92713E-01 2.62310E-02-3.81432E+00 5.75108E-13-2.05379E-13
 -1      3774 1.96583E+01-1.31951E+00-1.20906E-02-3.67290E+00 5.76635E-13-3.46664E-13
 -1      3775 1.91623E+01 8.91172E-01-5.27231E-03 4.68705E-01-7.83401E-15-1.09608E-13
 -1      3776 1.90015E+01 9.95971E-01-4.18167E-03 5.21107E-01 9.08816E-15-1.39575E-13
 -1      3777 1.91506E+01 8.89318E-01 7.61648E-03 3.28012E-01 5.14531E-14-8.93662E-14
 -1      3778 1.97539E+01 4.25376E-01-2.17945E-03 2.65325E-01 1.02470E-13 2.79417E-14
 -1      3779 1.97055E+01 4.85209E-01-8.69450E-04 3.02546E-01 1.48100E-13-5.40723E-14
 -1      3780 1.97361E+01 4.30081E-01 2.58162E-03 2.11647E-01 6.09545E-14 4.09166E-14
 -1      3781 1.74003E+01 1.57874E+00-1.78038E-02 6.97695E-01 7.15563E-14 9.86331E-15
 -1      3782 1.69311E+01 1.69151E+00-1.04473E-02 8.01007E-01 4.41455E-14 1.30378E-14
 -1      3783 1.74728E+01 1.60146E+00 2.34237E-02 3.12538E-01 1.12802E-13-2.49974E-15
 -1      3784 1.87701E+01 1.10581E+00-7.56769E-03 5.40579E-01 5.90752E-14-6.65220E-14
 -1      3785 1.85379E+01 1.22302E+00-6.15916E-03 5.98935E-01 1.07498E-13-9.31013E-15
 -1      3786 1.82367E+01 1.34286E+00 1.56501E-02 3.42250E-01 1.38666E-13-4.94834E-14
 -1      3787 1.87722E+01 1.10240E+00 1.07274E-02 3.46220E-01 8.90760E-14-9.19416E-14
 -1      3788 1.25100E+01 1.92688E+00 1.06243E-01 1.67695E+00-1.78536E-13 3.84061E-13
 -1      3789 1.32028E+01 2.00182E+00 4.82071E-02 7.91413E-01-5.26944E-14 3.07962E-13
 -1      3790 2.32670E+01-1.48521E+00 1.09133E-02-6.05165E-01 3.12626E-13-6.86840E-13
 -1      3791 1.33544E+01 1.80354E+00-6.77785E-03-1.28097E+00 1.83808E-13 3.75901E-13
 -1      3792 1.38114E+01 1.38892E+00 7.75508E-02-2.74180E+00 3.65836E-13 4.24032E-13
 -1      3793 2.00000E+01-5.56926E-04-1.17422E-06 3.11016E-04 1.28951E-13-5.24979E-13
 -1      3794 1.37659E+01 1.93767E+00-8.71279E-03 8.90534E-01-8.90087E-14 2.43368E-13
 -1      3795 1.34251E+01 2.18275E+00 1.06956E-01-2.40333E-01 2.06189E-14 4.07528E-13
 -1      3796 1.41147E+01 1.84522E+00 2.80222E-02-1.06803E+00 1.49697E-13 2.90584E-13
 -1      3797 1.96051E+01 5.54291E-01 3.72032E-03 2.54363E-01 5.05196E-14-2.02174E-14
 -1      3798 2.00002E+01-6.32405E-04 9.31434E-07 3.15269E-05 2.48138E-13 8.24023E-14
 -1      3799 2.00002E+01-6.32417E-04 1.08856E-06-3.11438E-05 2.70609E-13 1.85818E-13
 -1      3800 2.00002E+01-6.94546E-04-1.78273E-06 7.78323E-05 1.08634E-13 7.89913E-14
 -1      3801 2.00001E+01-5.55649E-04-1.72476E-06-1.19501E-04 4.27512E-13 1.24878E-13
 -1      3802 1.63685E+01 1.85933E+00 3.73263E-02 2.69289E-01 1.63721E-14 1.73338E-14
 -1      3803 1.77148E+01-3.71294E-01 5.65932E-03-3.73624E+00 5.68508E-13-1.24289E-13
 -1      3804 1.87040E+01-4.55433E-01 2.73060E-02-3.20245E+00 5.07390E-13-2.09507E-13
 -1      3805 1.70050E+01 9.47542E-02 8.23723E-03-3.44573E+00 5.33471E-13 1.28716E-15
 -1      3806 2.30232E+01-1.99041E+00 1.09231E-02-1.95819E+00 5.25349E-13-6.46452E-13
 -1      3807 2.00001E+01-5.90673E-04 1.05356E-06 2.62539E-04 1.72254E-13-3.05113E-13
 -1      3808 1.51169E+01 1.02374E+00 5.72738E-02-2.90078E+00 3.78528E-13 2.33272E-13
 -1      3809 2.29466E+01-1.71982E+00-2.94955E-02-1.17468E+00 3.71009E-13-6.45220E-13
 -1      3810 2.05675E+01-1.50474E+00 2.93216E-02-3.28634E+00 5.36651E-13-3.87663E-13
 -1      3811 2.12569E+01-1.70675E+00-3.85210E-02-2.73281E+00 4.83305E-13-4.78044E-13
 -1      3812 1.99578E+01-1.05224E+00 3.66549E-03-3.01618E+00 4.63622E-13-3.43101E-13
 -1      3813 1.35158E+01 1.55245E+00 5.62468E-02 2.48826E+00-2.48811E-13 3.36162E-13
 -1      3814 2.00002E+01-6.68718E-04-1.12668E-06 2.57492E-04 1.03090E-13-1.87758E-13
 -1      3815 1.48904E+01 2.07329E+00 6.29185E-02 8.23608E-02-7.05620E-15 1.58521E-13
 -1      3816 1.47258E+01 1.91777E+00 1.42602E-03 9.44650E-01-8.85837E-14 1.87579E-13
 -1      3817 2.00001E+01-5.55125E-04 7.52517E-07-2.57695E-04 2.05220E-13 3.95986E-13
 -1      3818 2.00001E+01-6.09784E-04-2.37585E-06-3.06398E-04 3.85550E-13 4.05477E-13
 -1      3819 2.00001E+01-5.86651E-04 1.39262E-06-2.13499E-04 4.05265E-13 3.11874E-13
 -1      3820 1.66258E+01 1.64909E+00-8.98967E-03-2.68539E-01 8.46836E-14 1.96241E-15
 -1      3821 1.59287E+01 1.73685E+00-1.86357E-02-3.43635E-01 5.88217E-14 6.35559E-14
 -1      3822 2.09643E+01-9.48598E-01 1.38259E-02-1.59345E+00 2.64454E-13-3.62560E-13
 -1      3823 2.06059E+01-7.16215E-01 1.16899E-02-1.54840E+00 2.28870E-13-3.48835E-13
 -1      3824 2.03640E+01-4.97440E-01 8.39485E-03-1.38739E+00 1.41851E-13-3.49676E-13
 -1      3825 2.01423E+01-3.15357E-01 4.13343E-03-1.28772E+00 1.41539E-13-3.46985E-13
 -1      3826 2.01352E+01-5.25642E-01-1.08558E-02-1.69723E+00 1.90759E-13-3.10696E-13
 -1      3827 2.00274E+01-1.56642E-01 7.64943E-03-1.13118E+00 1.63737E-13-3.75526E-13
 -1      3828 1.98903E+01-3.12225E-02 1.09571E-03-1.02433E+00 1.29777E-13-3.17015E-13
 -1      3829 1.98045E+01-1.43750E-01-1.01860E-02-1.33654E+00 1.03997E-13-3.33781E-13
 -1      3830 1.98479E+01 7.10870E-02 6.23094E-03-8.88085E-01 9.46778E-14-2.66115E-13
 -1      3831 1.97719E+01 1.46636E-01-4.68978E-04-7.91698E-01 9.48167E-14-2.15918E-13
 -1      3832 1.96595E+01 1.10804E-01-5.17226E-03-1.01964E+00 1.55778E-13-2.98415E-13
 -1      3833 1.97699E+01 2.05931E-01 4.60133E-03-6.81908E-01 1.40507E-15-2.18965E-13
 -1      3834 1.97334E+01 2.45110E-01-1.32386E-03-6.01046E-01-1.09429E-14-2.49716E-13
 -1      3835 1.96172E+01 2.53726E-01-3.03565E-03-7.60818E-01 7.04836E-14-2.10441E-13
 -1      3836 1.97525E+01 2.73542E-01 3.30190E-03-5.15232E-01-1.12901E-14-3.08084E-13
 -1      3837 1.97405E+01 2.87173E-01-1.49988E-03-4.49854E-01-2.40554E-14-3.29840E-13
 -1      3838 1.96325E+01 3.24579E-01-1.03161E-03-5.59643E-01-5.16296E-14-2.90831E-13
 -1      3839 1.97687E+01 2.94163E-01 2.29001E-03-3.84798E-01-7.39719E-15-3.20986E-13
 -1      3840 1.97707E+01 2.91364E-01-1.45959E-03-3.33319E-01 1.70259E-14-3.11933E-13
 -1      3841 1.96762E+01 3.42627E-01-1.19942E-04-4.06741E-01-1.34841E-14-3.69482E-13
 -1      3842 1.98011E+01 2.85091E-01 1.55184E-03-2.84753E-01 3.67047E-14-2.73757E-13
 -1      3843 1.98100E+01 2.72667E-01-1.31445E-03-2.44834E-01 1.31465E-13-2.44867E-13
 -1      3844 1.97306E+01 3.28870E-01 3.38430E-04-2.93176E-01 7.76908E-14-2.95379E-13
 -1      3845 1.98388E+01 2.58919E-01 1.03045E-03-2.08958E-01 2.17651E-13-1.54716E-13
 -1      3846 1.98504E+01 2.41658E-01-1.12383E-03-1.78329E-01 2.80902E-13-4.68009E-14
 -1      3847 1.97857E+01 2.97200E-01 5.48207E-04-2.09791E-01 2.46787E-13-1.79718E-13
 -1      3848 1.98756E+01 2.24494E-01 6.72505E-04-1.52058E-01 2.80708E-13-3.67106E-14
 -1      3849 1.98872E+01 2.05646E-01-9.26450E-04-1.28743E-01 2.58762E-13 1.09051E-13
 -1      3850 1.98362E+01 2.57104E-01 6.06479E-04-1.49109E-01 2.75502E-13-1.40242E-13
 -1      3851 1.99082E+01 1.87746E-01 4.34579E-04-1.09623E-01 7.68373E-14 5.40949E-14
 -1      3852 1.99187E+01 1.69355E-01-7.43632E-04-9.19972E-02 2.47504E-14-9.24775E-15
 -1      3853 1.98794E+01 2.14934E-01 5.79060E-04-1.05226E-01 1.21150E-13-9.85334E-14
 -1      3854 1.99355E+01 1.52356E-01 2.79891E-04-7.81548E-02 4.88556E-14 3.01427E-14
 -1      3855 1.99442E+01 1.35594E-01-5.84006E-04-6.49196E-02 1.05522E-13 6.62537E-16
 -1      3856 1.99147E+01 1.74601E-01 5.09553E-04-7.36307E-02 3.61938E-14 2.88411E-14
 -1      3857 1.99571E+01 1.20392E-01 1.81248E-04-5.49500E-02 2.40562E-14-4.85739E-14
 -1      3858 1.99639E+01 1.05821E-01-4.49936E-04-4.50864E-02-3.99781E-15-1.09522E-13
 -1      3859 1.99424E+01 1.38276E-01 4.24041E-04-5.09657E-02 2.60818E-14-1.59697E-13
 -1      3860 1.99736E+01 9.28010E-02 1.19034E-04-3.79502E-02 6.05710E-14-1.81989E-13
 -1      3861 1.99787E+01 8.05892E-02-3.40204E-04-3.06651E-02 1.52648E-13-1.06881E-13
 -1      3862 1.99635E+01 1.06939E-01 3.37604E-04-3.47701E-02 2.45027E-14-1.27179E-13
 -1      3863 1.99856E+01 6.98136E-02 8.06133E-05-2.55948E-02 1.25511E-13-1.86806E-13
 -1      3864 1.99892E+01 5.98773E-02-2.52615E-04-2.02703E-02 6.94125E-14-1.91161E-13
 -1      3865 1.99789E+01 8.08060E-02 2.59878E-04-2.32525E-02 6.16877E-14-1.64833E-13
 -1      3866 1.99941E+01 5.12041E-02 5.64062E-05-1.67081E-02 5.47391E-14-1.78094E-13
 -1      3867 1.99965E+01 4.33321E-02-1.83245E-04-1.28729E-02 8.55651E-14-6.89690E-14
 -1      3868 1.99897E+01 5.96103E-02 1.94388E-04-1.51173E-02 1.31309E-13-3.20324E-13
 -1      3869 1.99997E+01 3.65336E-02 4.08116E-05-1.04016E-02-3.44777E-14-1.04620E-13
 -1      3870 2.00011E+01 3.04427E-02-1.30310E-04-7.68360E-03-6.02107E-14-9.41071E-14
 -1      3871 1.99971E+01 4.28318E-02 1.35489E-04-9.43092E-03 1.50983E-14-2.72727E-13
 -1      3872 2.00031E+01 2.52368E-02 3.07282E-05-6.00285E-03-3.77142E-15-1.79023E-13
 -1      3873 2.00039E+01 2.06337E-02-9.00590E-05-4.11827E-03-5.67876E-14-1.69946E-13
 -1      3874 2.00018E+01 2.98706E-02 9.22596E-05-5.50357E-03-5.46648E-14-2.41020E-13
 -1      3875 2.00051E+01 1.67418E-02 2.38378E-05-3.00521E-03-1.10309E-13-9.67292E-14
 -1      3876 2.00054E+01 1.33454E-02-6.01037E-05-1.73513E-03 1.22995E-14-6.21719E-14
 -1      3877 2.00045E+01 2.00749E-02 5.95436E-05-2.84577E-03-6.24974E-14-1.10830E-13
 -1      3878 2.00059E+01 1.05075E-02 1.88584E-05-1.02557E-03 1.29841E-13-1.75208E-13
 -1      3879 2.00059E+01 8.06559E-03-3.82562E-05-2.02414E-04 1.61405E-13-9.15737E-14
 -1      3880 2.00059E+01 1.28427E-02 3.55121E-05-1.09459E-03 5.69266E-14-1.27783E-13
 -1      3881 2.00060E+01 6.05259E-03 1.50499E-05 2.24112E-04 7.75106E-14-6.21476E-14
 -1      3882 2.00059E+01 4.34827E-03-2.26748E-05 7.27741E-04-6.21237E-14-1.01278E-13
 -1      3883 2.00063E+01 7.63605E-03 1.84525E-05 1.43272E-05 1.28795E-13-1.72374E-13
 -1      3884 2.00057E+01 2.96623E-03 1.20166E-05 9.59428E-04-1.55571E-13-7.74184E-14
 -1      3885 2.00054E+01 1.81917E-03-1.18533E-05 1.23948E-03-1.34004E-13-3.72174E-14
 -1      3886 2.00062E+01 3.99441E-03 6.81305E-06 6.74272E-04-1.06135E-13-6.06571E-16
 -1      3887 2.00052E+01 9.08785E-04 9.53661E-06 1.34046E-03-9.84100E-14-6.90346E-14
 -1      3888 2.00048E+01 1.73149E-04-4.58256E-06 1.46834E-03-3.54356E-14 4.30438E-14
 -1      3889 2.00057E+01 1.53581E-03-7.28106E-07 1.02618E-03-1.29093E-13 4.80069E-16
 -1      3890 2.00045E+01-3.92988E-04 7.48974E-06 1.48481E-03 3.99886E-14-8.50224E-16
 -1      3891 2.00041E+01-8.32354E-04 8.63385E-08 1.51298E-03 7.38031E-14 4.54733E-14
 -1      3892 2.00050E+01-4.84588E-05-5.28624E-06 1.17226E-03 1.73764E-14-1.15673E-15
 -1      3893 2.00037E+01-1.15386E-03 5.80550E-06 1.47774E-03-7.88144E-14 1.17346E-13
 -1      3894 2.00034E+01-1.38590E-03 2.89191E-06 1.44400E-03-2.01191E-13 1.29229E-13
 -1      3895 2.00043E+01-1.00199E-03-7.69946E-06 1.18599E-03 1.67126E-14 8.18685E-14
 -1      3896 2.00031E+01-1.53892E-03 4.42620E-06 1.37989E-03-1.76736E-13 1.70160E-13
 -1      3897 2.00028E+01-1.63082E-03 4.39631E-06 1.31093E-03-1.69916E-13 2.66745E-13
 -1      3898 2.00035E+01-1.51316E-03-8.66569E-06 1.11937E-03-1.30347E-13 1.72522E-13
 -1      3899 2.00024E+01-1.67228E-03 3.31079E-06 1.23349E-03-2.92705E-13 2.73340E-13
 -1      3900 2.00022E+01-1.67371E-03 5.02060E-06 1.14762E-03-1.80200E-13 3.65597E-13
 -1      3901 2.00028E+01-1.72435E-03-8.69225E-06 1.00858E-03-1.39441E-13 2.14315E-13
 -1      3902 2.00019E+01-1.64521E-03 2.42223E-06 1.06703E-03-2.27310E-13 3.75538E-13
 -1      3903 2.00017E+01-1.59202E-03 5.07452E-06 9.76379E-04-1.94688E-13 2.11590E-13
 -1      3904 2.00022E+01-1.74097E-03-8.14810E-06 8.78112E-04-2.44189E-13 2.90818E-13
 -1      3905 2.00014E+01-1.52322E-03 1.72604E-06 8.98985E-04-1.25704E-13 5.03138E-14
 -1      3906 2.00012E+01-1.44058E-03 4.78076E-06 8.11187E-04-2.26152E-14-1.18009E-13
 -1      3907 2.00017E+01-1.63922E-03-7.29430E-06 7.43972E-04-2.25636E-13 6.71238E-14
 -1      3908 2.00010E+01-1.35199E-03 1.18895E-06 7.40606E-04-3.73027E-14-1.84900E-13
 -1      3909 2.00009E+01-1.25701E-03 4.29407E-06 6.60097E-04-9.92029E-14-2.44850E-13
 -1      3910 2.00013E+01-1.47276E-03-6.30825E-06 6.16047E-04-1.18231E-13-3.90029E-14
 -1      3911 2.00007E+01-1.16235E-03 7.70176E-07 5.98085E-04 3.57830E-14-2.28130E-13
 -1      3912 2.00006E+01-1.06601E-03 3.79473E-06 5.27011E-04 5.04214E-14-2.13190E-13
 -1      3913 2.00009E+01-1.27817E-03-5.28391E-06 4.99941E-04-2.39086E-14-1.26237E-13
 -1      3914 2.00005E+01-9.74963E-04 2.14920E-07 4.74328E-04 3.98012E-14-1.68644E-13
 -1      3915 2.00004E+01-8.83320E-04 3.78125E-06 4.12656E-04 7.30423E-14-1.97713E-13
 -1      3916 2.00006E+01-1.07876E-03-4.00756E-06 3.98592E-04 4.31039E-14-6.68529E-15
 -1      3917 2.00003E+01-8.14088E-04-4.75336E-07 3.53757E-04 2.67982E-14-1.76097E-13
 -1      3918 2.00002E+01-7.31842E-04 2.76001E-06 3.03910E-04 8.98285E-14-1.47521E-13
 -1      3919 2.00003E+01-7.51555E-04-8.25771E-07 1.95971E-04-3.78539E-14 1.71245E-13
 -1      3920 2.00004E+01-9.02977E-04-2.32464E-06 2.94932E-04-1.07429E-13 1.27166E-13
 -1      3921 1.99242E+01 1.80497E-01-6.96908E-04 7.75014E-02 9.84726E-14-5.02447E-14
 -1      3922 1.99072E+01 2.07963E-01-2.54341E-04 9.06609E-02 1.63933E-13-5.50054E-14
 -1      3923 1.94125E+01 6.59086E-01-2.15788E-03 1.87994E-01 7.03711E-14-7.73892E-14
 -1      3924 1.92964E+01 7.36404E-01-3.89155E-03 1.99649E-01 9.49852E-14-4.89045E-14
 -1      3925 1.98805E+01 2.38544E-01-8.90834E-04 9.99674E-02 1.39766E-13-6.94022E-14
 -1      3926 1.98552E+01 2.73188E-01-5.06591E-04 1.15332E-01 1.40650E-13-3.77689E-14
 -1      3927 1.98795E+01 2.36106E-01 1.13749E-03 7.47158E-02 1.62902E-13-1.71000E-13
 -1      3928 1.98157E+01 3.13849E-01-1.11898E-03 1.25413E-01 1.62360E-13-2.10300E-14
 -1      3929 1.97757E+01 3.59640E-01-9.07969E-04 1.43236E-01 1.38821E-13 1.48372E-15
 -1      3930 1.98160E+01 3.09154E-01 1.57412E-03 9.08095E-02 1.66681E-13-4.41471E-14
 -1      3931 1.99542E+01 1.34924E-01-5.40166E-04 5.82841E-02 7.63409E-14-2.50427E-14
 -1      3932 1.99430E+01 1.56460E-01-1.02849E-04 6.91482E-02 8.40045E-14-4.86467E-14
 -1      3933 1.99229E+01 1.79253E-01 8.04859E-04 5.91952E-02 8.31455E-14-8.56896E-14
 -1      3934 1.99744E+01 9.95044E-02-4.12363E-04 4.25119E-02 8.78649E-14 4.78672E-15
 -1      3935 1.99672E+01 1.16222E-01-1.67055E-05 5.12070E-02 3.33729E-14-9.02312E-15
 -1      3936 1.99530E+01 1.34312E-01 5.63190E-04 4.52061E-02 3.10983E-14-3.51505E-15
 -1      3937 1.99877E+01 7.22551E-02-3.09250E-04 2.99966E-02 6.04117E-14 7.09004E-14
 -1      3938 1.99833E+01 8.50944E-02 2.85549E-05 3.67675E-02 1.43823E-13 2.69424E-14
 -1      3939 1.99735E+01 9.91874E-02 3.88721E-04 3.33356E-02 2.57612E-14 5.07240E-14
 -1      3940 1.99963E+01 5.15061E-02-2.28005E-04 2.03538E-02 2.09947E-13 9.63687E-14
 -1      3941 1.99937E+01 6.12638E-02 4.89259E-05 2.54920E-02 1.49668E-13 1.19377E-13
 -1      3942 1.99872E+01 7.20443E-02 2.62172E-04 2.37000E-02 1.20724E-13 3.25703E-14
 -1      3943 2.00015E+01 3.59073E-02-1.64408E-04 1.31372E-02 3.83899E-14 2.35994E-13
 -1      3944 2.00001E+01 4.32224E-02 5.37738E-05 1.69419E-02 1.93965E-13 2.09607E-13
 -1      3945 1.99961E+01 5.13296E-02 1.77340E-04 1.61665E-02 1.19143E-13 1.84811E-13
 -1      3946 2.00044E+01 2.43251E-02-1.15728E-04 7.88237E-03-8.39007E-14 8.92917E-14
 -1      3947 2.00038E+01 2.97392E-02 5.16031E-05 1.06233E-02-4.10253E-14 1.23026E-13
 -1      3948 2.00015E+01 3.57200E-02 1.14855E-04 1.04657E-02 3.43793E-14 1.41303E-13
 -1      3949 2.00058E+01 1.58607E-02-7.90743E-05 4.17796E-03 1.22126E-13-5.78144E-14
 -1      3950 2.00057E+01 1.98010E-02 4.53001E-05 6.09438E-03-1.07111E-14 2.52916E-14
 -1      3951 2.00046E+01 2.41172E-02 7.06762E-05 6.28414E-03 2.11772E-14 3.11080E-14
 -1      3952 2.00063E+01 9.78634E-03-5.19957E-05 1.65981E-03 9.52994E-14-1.45853E-13
 -1      3953 2.00064E+01 1.25998E-02 3.78622E-05 2.95186E-03 1.39491E-13-8.40628E-14
 -1      3954 2.00061E+01 1.56409E-02 4.06930E-05 3.32191E-03 1.36859E-13 1.94717E-14
 -1      3955 2.00061E+01 5.52241E-03-3.23733E-05 2.69502E-05-1.71706E-13-1.51947E-14
 -1      3956 2.00064E+01 7.48467E-03 3.04643E-05 8.57398E-04-7.78159E-14-5.92129E-14
 -1      3957 2.00066E+01 9.56498E-03 2.05380E-05 1.30216E-03-1.07864E-14 2.18644E-13
 -1      3958 2.00056E+01 2.61148E-03-1.84668E-05-9.62744E-04-2.17104E-13 8.72062E-14
 -1      3959 2.00060E+01 3.93977E-03 2.37620E-05-4.65001E-04-1.71447E-13-4.54990E-14
 -1      3960 2.00065E+01 5.30940E-03 7.36617E-06-9.14850E-06-1.72106E-13 1.36284E-13
 -1      3961 2.00050E+01 6.93536E-04-9.33882E-06-1.49998E-03-1.85661E-13 3.69547E-14
 -1      3962 2.00054E+01 1.55941E-03 1.79075E-05-1.23422E-03-1.47289E-13 1.08326E-13
 -1      3963 2.00059E+01 2.41472E-03-7.34584E-07-8.03715E-04-2.41201E-13 1.12515E-13
 -1      3964 2.00042E+01-5.47846E-04-2.85763E-06-1.73265E-03-1.58728E-13 1.10823E-14
 -1      3965 2.00046E+01-2.04250E-06 1.29733E-05-1.62486E-03-1.28118E-13-3.13424E-14
 -1      3966 2.00052E+01 4.88551E-04-4.78409E-06-1.23711E-03-1.42316E-13-9.93943E-14
 -1      3967 2.00035E+01-1.21316E-03 1.46412E-06-1.74956E-03-1.06340E-13 3.44855E-14
 -1      3968 2.00038E+01-9.26753E-04 9.56008E-06-1.74809E-03-1.51997E-13-8.68964E-15
 -1      3969 2.00044E+01-6.97551E-04-8.28007E-06-1.41611E-03-1.48265E-13-2.35241E-13
 -1      3970 2.00028E+01-1.53761E-03 3.76823E-06-1.64788E-03-3.77979E-14-1.52277E-13
 -1      3971 2.00031E+01-1.40820E-03 6.68056E-06-1.70668E-03-1.01933E-13-5.47784E-16
 -1      3972 2.00037E+01-1.34141E-03-9.27007E-06-1.42691E-03-6.58429E-14-2.06555E-13
 -1      3973 2.00022E+01-1.63503E-03 4.88378E-06-1.48060E-03 4.17664E-15 4.65323E-14
 -1      3974 2.00025E+01-1.60827E-03 4.53881E-06-1.57175E-03 8.74981E-14 2.83230E-14
 -1      3975 2.00030E+01-1.64360E-03-9.21596E-06-1.34141E-03-1.23462E-13-1.13230E-13
 -1      3976 2.00017E+01-1.58941E-03 5.24565E-06-1.28459E-03-1.98210E-13 6.05587E-14
 -1      3977 2.00019E+01-1.62622E-03 2.95894E-06-1.38935E-03-5.35186E-14 1.17753E-13
 -1      3978 2.00023E+01-1.72074E-03-8.59460E-06-1.20335E-03-1.38851E-13 1.67854E-13
 -1      3979 2.00013E+01-1.46053E-03 5.12862E-06-1.08396E-03-7.14076E-14 8.92516E-14
 -1      3980 2.00014E+01-1.53327E-03 1.82059E-06-1.19015E-03-2.65990E-13 3.40889E-14
 -1      3981 2.00018E+01-1.65736E-03-7.67292E-06-1.04260E-03-2.53119E-13 2.68062E-13
 -1      3982 2.00009E+01-1.28977E-03 4.73157E-06-8.93507E-04-1.28065E-13 3.80338E-13
 -1      3983 2.00010E+01-1.37948E-03 1.02189E-06-9.93705E-04 5.66225E-14 2.85950E-13
 -1      3984 2.00013E+01-1.51338E-03-6.62865E-06-8.78621E-04-2.48543E-13 2.51634E-13
 -1      3985 2.00006E+01-1.10485E-03 4.19141E-06-7.21467E-04-7.33785E-14 4.10395E-13
 -1      3986 2.00007E+01-1.19896E-03 4.79419E-07-8.11611E-04-1.16258E-13 3.53381E-13
 -1      3987 2.00010E+01-1.33014E-03-5.57414E-06-7.23341E-04-1.20569E-13 3.54849E-13
 -1      3988 2.00004E+01-9.23394E-04 3.62561E-06-5.71586E-04-1.58526E-13 4.98355E-13
 -1      3989 2.00005E+01-1.01411E-03 1.12414E-07-6.49885E-04-1.03320E-13 3.87516E-13
 -1      3990 2.00007E+01-1.13512E-03-4.56346E-06-5.83366E-04-8.24380E-14 2.26390E-13
 -1      3991 2.00002E+01-7.56970E-04 2.70758E-06-4.45205E-04 4.25067E-13 4.35481E-13
 -1      3992 2.00003E+01-8.39501E-04-4.32349E-07-5.10844E-04 9.80948E-14 5.27169E-13
 -1      3993 2.00004E+01-9.45106E-04-3.30984E-06-4.61940E-04-6.23824E-14 2.75849E-13
 -1      3994 2.00001E+01-6.26135E-04 1.19363E-06-9.51987E-05 3.50762E-13 1.77600E-13
 -1      3995 2.00001E+01-6.07987E-04 1.06332E-06-1.54708E-04 3.75857E-13 1.37812E-13
 -1      3996 2.00002E+01-6.72477E-04-1.90078E-06-1.91845E-04 3.50601E-13 1.66272E-13
 -1      3997 2.00002E+01-6.98461E-04-1.88496E-06-6.54908E-05 2.38873E-13 7.91235E-14
 -1      3998 2.23094E+01-1.73501E+00 3.64066E-02-1.93962E+00 4.43650E-13-5.50674E-13
 -1      3999 1.54855E+01 1.79559E+00 3.58271E-03-5.43029E-01 8.64382E-14 9.46309E-14
 -1      4000 1.46575E+01 1.82436E+00-1.35004E-02-7.75138E-01 8.23152E-14 1.90268E-13
 -1      4001 1.50275E+01 1.61881E+00 4.05605E-02-1.70840E+00 2.19394E-13 1.65895E-13
 -1      4002 1.60295E+01 1.64163E+00 3.42563E-02-1.11631E+00 1.25881E-13 8.40526E-14
 -1      4003 2.00001E+01-6.51819E-04 1.43169E-06-3.42095E-04 5.10629E-13 2.85508E-13
 -1      4004 2.00002E+01-7.11895E-04-1.47963E-06-4.01695E-04 5.89080E-13 5.05135E-13
 -1      4005 2.00003E+01-7.99798E-04-1.17379E-06-3.63991E-04 3.51649E-13 3.50237E-13
 -1      4006 2.00002E+01-6.95209E-04 5.07776E-07-2.86603E-04 4.76719E-13 3.99348E-13
 -1      4007 1.91597E+01 8.21331E-01-2.64878E-03 1.85118E-01 9.07125E-14-8.07988E-14
 -1      4008 1.89942E+01 9.10864E-01-5.74594E-03 1.87878E-01 8.19303E-14-8.20717E-14
 -1      4009 1.92015E+01 7.86275E-01 5.75767E-03 7.30086E-02 6.08995E-14-1.11550E-13
 -1      4010 2.34280E+01 1.29508E+00-2.35090E-02 7.17448E-01-2.20282E-13-9.50524E-13
 -1      4011 2.16521E+01-1.46618E+00 1.17795E-02-1.94631E+00 3.73950E-13-4.76423E-13
 -1      4012 2.11660E+01-1.20478E+00 1.92956E-02-1.95871E+00 3.20248E-13-4.23433E-13
 -1      4013 1.76160E+01 1.43475E+00-7.47214E-03-5.35449E-02 1.39168E-13-6.78317E-14
 -1      4014 1.71395E+01 1.54025E+00-1.66031E-02-1.05457E-01 9.93553E-14-2.79150E-14
 -1      4015 1.69919E+01 1.52000E+00 2.06271E-02-6.64323E-01 1.16645E-13-2.56133E-14
 -1      4016 1.95938E+01 5.21746E-01-1.72406E-03 1.73993E-01 2.08016E-14-2.24011E-14
 -1      4017 1.95128E+01 5.87061E-01-2.47563E-03 1.90136E-01 5.71449E-14-4.60724E-14
 -1      4018 1.94344E+01 6.36537E-01 4.28957E-03 1.03369E-01 7.67964E-14-1.45058E-13
 -1      4019 1.53695E+01 1.17917E+00-7.12094E-03-2.32440E+00 2.86116E-13 1.35990E-13
 -1      4020 1.61386E+01 6.21539E-01 1.96791E-02-3.13082E+00 4.30127E-13 8.23751E-14
 -1      4021 1.72877E+01 3.85038E-01 3.07006E-02-2.88753E+00 4.50307E-13-7.26667E-14
 -1      4022 1.59642E+01 1.27420E+00 2.49060E-02-1.97049E+00 2.62653E-13 8.12961E-14
 -1      4023 1.97227E+01 4.08173E-01-1.40732E-03 1.51579E-01 7.72202E-14-1.93967E-14
 -1      4024 1.96667E+01 4.62079E-01-1.55439E-03 1.69201E-01 6.25448E-14 2.19995E-14
 -1      4025 1.97263E+01 3.99959E-01 2.29449E-03 1.04370E-01 1.07479E-13-9.73797E-14
 -1      4026 2.00003E+01-7.66649E-04 1.51491E-06 1.02634E-04-1.31744E-13 3.02924E-14
 -1      4027 2.00003E+01-7.76804E-04 3.27937E-07 2.25117E-05-5.48849E-14-5.70557E-14
 -1      4028 2.00004E+01-8.43869E-04-1.48424E-06 1.42380E-04-3.25438E-13 1.39214E-13
 -1      4029 2.05127E+01-1.01474E+00-9.88522E-03-2.25290E+00 3.47893E-13-3.84617E-13
 -1      4030 1.93927E+01-5.87253E-01 9.30224E-03-2.77239E+00 3.89669E-13-2.82697E-13
 -1      4031 2.00336E+01-8.27079E-01-4.98667E-03-2.44985E+00 3.77954E-13-3.79696E-13
 -1      4032 1.99245E+01-5.72086E-01-7.66551E-03-2.07694E+00 2.77443E-13-3.33243E-13
 -1      4033 1.83110E+01 1.21642E+00-4.95282E-03 8.16655E-02 1.21646E-13-4.77483E-14
 -1      4034 1.79786E+01 1.32247E+00-1.18740E-02 5.20545E-02 1.71508E-13-2.60776E-14
 -1      4035 1.78328E+01 1.33486E+00 1.27802E-02-3.33216E-01 1.50205E-13-6.09669E-14
 -1      4036 1.88826E+01 9.58477E-01 8.32578E-03 3.46652E-03 9.15169E-14-1.37759E-13
 -1      4037 1.88065E+01 1.00890E+00-3.48559E-03 1.54405E-01 7.05785E-14-7.04977E-14
 -1      4038 1.85726E+01 1.10803E+00-8.37117E-03 1.44023E-01 1.15995E-13-4.59198E-14
 -1      4039 1.96038E+01 5.07616E-01 3.11884E-03 1.10685E-01 2.76220E-14-1.28993E-13
 -1      4040 1.88610E+01-2.67362E-01 8.15041E-03-2.69209E+00 3.81711E-13-2.53583E-13
 -1      4041 1.97350E+01 3.70731E-01-6.79394E-04 5.75426E-02 1.40448E-13-9.49436E-14
 -1      4042 1.96811E+01 4.16249E-01-1.75508E-03 5.99777E-02 7.57031E-14-1.37676E-13
 -1      4043 1.48985E+01 1.88254E+00 5.15929E-02 1.84769E+00-1.49170E-13 1.67266E-13
 -1      4044 1.95666E+01-9.12783E-03 1.05570E-02-1.48526E+00 9.72457E-14-2.53476E-13
 -1      4045 1.94355E+01 1.20131E-01-6.23221E-03-1.30154E+00 1.11261E-13-2.32173E-13
 -1      4046 1.94781E+01 2.28733E-01 1.04086E-02-1.09580E+00 1.49780E-13-1.95470E-13
 -1      4047 1.94193E+01 2.97011E-01-3.09332E-03-9.50275E-01 1.61711E-13-2.08249E-13
 -1      4048 1.91700E+01 3.31149E-01-7.87626E-05-1.23759E+00 1.37304E-13-1.54499E-13
 -1      4049 1.94704E+01 3.55767E-01 6.33513E-03-7.99927E-01 9.31427E-14-2.32796E-13
 -1      4050 1.94533E+01 3.84573E-01-4.62824E-03-6.83657E-01-9.99323E-16-2.64998E-13
 -1      4051 1.92559E+01 4.45816E-01 1.61317E-03-8.73180E-01 9.67958E-14-1.93775E-13
 -1      4052 1.95222E+01 4.05225E-01 4.70624E-03-5.70916E-01-4.93581E-14-2.74529E-13
 -1      4053 1.95300E+01 4.08872E-01-2.94592E-03-4.84855E-01-4.13969E-14-2.41570E-13
 -1      4054 1.93545E+01 4.86495E-01 4.27993E-04-6.05239E-01-3.93282E-14-2.95064E-13
 -1      4055 1.95897E+01 4.07462E-01 2.38869E-03-4.04117E-01-3.43324E-14-2.12847E-13
 -1      4056 1.96115E+01 3.95174E-01-2.41498E-03-3.40312E-01 9.32308E-15-2.01848E-13
 -1      4057 1.94744E+01 4.78323E-01 1.99205E-03-4.08937E-01-3.06167E-14-1.40301E-13
 -1      4058 1.96654E+01 3.80403E-01 1.47706E-03-2.83526E-01 7.19626E-14-1.99547E-13
 -1      4059 1.96908E+01 3.59438E-01-1.96968E-03-2.36859E-01 1.27584E-13-1.34683E-13
 -1      4060 1.95818E+01 4.39149E-01 1.71018E-03-2.76719E-01 7.90737E-14-3.83740E-14
 -1      4061 1.97371E+01 3.37902E-01 8.85350E-04-1.97418E-01 1.52838E-13-1.51067E-13
 -1      4062 1.97621E+01 3.13129E-01-1.53829E-03-1.63605E-01 2.68374E-13-1.41640E-13
 -1      4063 1.96768E+01 3.85706E-01 1.38747E-03-1.84945E-01 1.45837E-13-1.23761E-13
 -1      4064 1.98002E+01 2.89040E-01 4.91531E-04-1.36624E-01 2.84511E-13-1.46198E-13
 -1      4065 1.98227E+01 2.63771E-01-1.17448E-03-1.12285E-01 2.64994E-13-1.74394E-13
 -1      4066 1.97571E+01 3.27529E-01 1.12875E-03-1.22464E-01 2.50259E-13-3.33073E-13
 -1      4067 1.98531E+01 2.39890E-01 2.51213E-04-9.39860E-02 1.84067E-13-8.67302E-14
 -1      4068 1.98721E+01 2.16084E-01-8.80614E-04-7.65279E-02 9.72743E-14-8.31296E-14
 -1      4069 1.98225E+01 2.70612E-01 8.94516E-04-8.03886E-02 2.28817E-13-1.91758E-13
 -1      4070 1.98957E+01 1.93997E-01 1.08015E-04-6.42298E-02 3.58225E-14-8.76309E-14
 -1      4071 1.99110E+01 1.72728E-01-6.51726E-04-5.17395E-02 6.15843E-14-1.26805E-13
 -1      4072 1.98741E+01 2.18314E-01 6.90924E-04-5.22989E-02 6.76567E-14-1.46589E-13
 -1      4073 1.99290E+01 1.53263E-01 2.89273E-05-4.35326E-02-3.92886E-15-1.41708E-13
 -1      4074 1.99409E+01 1.34982E-01-4.75952E-04-3.46149E-02-3.89754E-14-1.82026E-13
 -1      4075 1.99139E+01 1.72350E-01 5.23852E-04-3.37033E-02 1.01463E-14-1.82452E-13
 -1      4076 1.99541E+01 1.18438E-01-1.03673E-05-2.91733E-02 6.05707E-16-2.61552E-13
 -1      4077 1.99630E+01 1.03199E-01-3.45573E-04-2.28214E-02-4.65276E-15-2.45207E-13
 -1      4078 1.99438E+01 1.33284E-01 3.89039E-04-2.14706E-02-8.42293E-15-1.72700E-13
 -1      4079 1.99726E+01 8.95458E-02-2.53837E-05-1.92489E-02-4.55640E-15-2.26319E-13
 -1      4080 1.99790E+01 7.71831E-02-2.48331E-04-1.47507E-02 1.50825E-14-2.78068E-13
 -1      4081 1.99656E+01 1.00958E-01 2.80461E-04-1.34533E-02-1.75973E-14-3.23510E-13
 -1      4082 1.99857E+01 6.61873E-02-2.97138E-05-1.23760E-02 7.92575E-14-3.74185E-13
 -1      4083 1.99901E+01 5.63547E-02-1.73445E-04-9.21868E-03 1.45704E-13-3.85689E-13
 -1      4084 1.99811E+01 7.50157E-02 2.43815E-04-8.29423E-03-4.74909E-14-2.68961E-13
 -1      4085 1.99946E+01 4.77408E-02-2.52799E-05-7.71254E-03 1.10067E-13-3.66618E-13
 -1      4086 1.99975E+01 4.01219E-02-1.13821E-04-5.48094E-03 5.96384E-15-3.98700E-13
 -1      4087 1.99917E+01 5.42463E-02 1.30946E-04-4.89323E-03 8.20035E-14-3.76608E-13
 -1      4088 2.00004E+01 3.34656E-02-2.03364E-05-4.52864E-03-5.46563E-14-3.15873E-13
 -1      4089 2.00022E+01 2.76770E-02-7.56811E-05-2.98921E-03-1.21123E-15-2.50237E-13
 -1      4090 1.99987E+01 3.82832E-02 8.28334E-05-2.72060E-03 4.54441E-14-4.43857E-13
 -1      4091 2.00039E+01 2.26654E-02-1.39432E-05-2.39901E-03-3.42001E-14-2.04743E-13
 -1      4092 2.00049E+01 1.83605E-02-4.81276E-05-1.35685E-03 1.34312E-14-1.98882E-13
 -1      4093 2.00030E+01 2.61695E-02 5.08788E-05-1.34935E-03 8.38142E-14-4.31674E-13
 -1      4094 2.00057E+01 1.46698E-02-8.40754E-06-1.00561E-03-9.00218E-14-2.23219E-13
 -1      4095 2.00062E+01 1.15422E-02-2.88011E-05-3.19028E-04 9.87247E-14-3.28395E-13
 -1      4096 2.00054E+01 1.71671E-02 2.86123E-05-4.95607E-04-2.16259E-14-3.70398E-13
 -1      4097 2.00065E+01 8.89059E-03-4.01458E-06-1.24110E-04 1.86521E-13-3.10901E-13
 -1      4098 2.00066E+01 6.67735E-03-1.55281E-05 3.10315E-04 7.44359E-14-2.27869E-13
 -1      4099 2.00065E+01 1.06260E-02 1.34042E-05 1.88041E-05 1.03898E-13-4.46395E-13
 -1      4100 2.00065E+01 4.82592E-03-7.94912E-07 4.04342E-04-7.78580E-15-1.86891E-13
 -1      4101 2.00064E+01 3.30840E-03-6.67130E-06 6.62341E-04-1.13209E-13-2.99514E-14
 -1      4102 2.00067E+01 5.99365E-03 3.41409E-06 3.11722E-04 4.30842E-14-4.48179E-13
 -1      4103 2.00061E+01 2.06021E-03 1.37880E-06 6.92676E-04-2.05900E-13 9.80958E-14
 -1      4104 2.00058E+01 1.06088E-03-9.41523E-07 8.29511E-04-1.15725E-13-9.55375E-15
 -1      4105 2.00064E+01 2.81241E-03-2.75043E-06 4.61246E-04-1.17956E-13-9.73340E-14
 -1      4106 2.00055E+01 2.57719E-04 2.65349E-06 8.20951E-04-8.66384E-15 1.73535E-13
 -1      4107 2.00051E+01-3.64104E-04 2.52263E-06 8.76844E-04 9.72790E-14 1.50398E-13
 -1      4108 2.00058E+01 7.11403E-04-6.41248E-06 5.19379E-04-9.60178E-15 3.42843E-13
 -1      4109 2.00047E+01-8.46863E-04 3.32307E-06 8.46257E-04 5.52269E-14 8.69235E-14
 -1      4110 2.00043E+01-1.20086E-03 4.41676E-06 8.49993E-04-1.24735E-13 8.26324E-14
 -1      4111 2.00051E+01-6.01797E-04-8.14010E-06 5.21176E-04-1.51394E-14 1.80412E-13
 -1      4112 2.00039E+01-1.45905E-03 3.53226E-06 8.08331E-04-1.15409E-13 9.17301E-14
 -1      4113 2.00036E+01-1.62863E-03 5.26626E-06 7.80431E-04-1.66338E-14 1.69369E-13
 -1      4114 2.00043E+01-1.35547E-03-8.64136E-06 4.89665E-04-8.14170E-14 8.35626E-14
 -1      4115 2.00032E+01-1.73469E-03 3.43973E-06 7.34806E-04-1.66006E-13 1.27690E-13
 -1      4116 2.00029E+01-1.78211E-03 5.43751E-06 6.89566E-04-2.12739E-13 6.77203E-14
 -1      4117 2.00035E+01-1.72313E-03-8.38688E-06 4.40395E-04-1.28164E-13 2.53766E-14
 -1      4118 2.00025E+01-1.78958E-03 3.16350E-06 6.44415E-04-2.01019E-13 1.23492E-13
 -1      4119 2.00023E+01-1.76029E-03 5.19145E-06 5.91529E-04-2.43612E-13 1.33507E-13
 -1      4120 2.00028E+01-1.83433E-03-7.69403E-06 3.83536E-04-8.61074E-14 4.90269E-14
 -1      4121 2.00020E+01-1.70785E-03 2.79132E-06 5.49469E-04-2.14377E-13 1.99475E-13
 -1      4122 2.00017E+01-1.63422E-03 4.71075E-06 4.95268E-04-2.10273E-13 1.61978E-13
 -1      4123 2.00022E+01-1.78376E-03-6.78192E-06 3.25579E-04-1.94136E-13 1.20456E-13
 -1      4124 2.00015E+01-1.54909E-03 2.38357E-06 4.57681E-04-2.27016E-13 3.60092E-14
 -1      4125 2.00013E+01-1.45354E-03 4.11935E-06 4.06081E-04-1.44988E-13-7.55294E-14
 -1      4126 2.00017E+01-1.63897E-03-5.79596E-06 2.70489E-04-2.85397E-13 6.10890E-14
 -1      4127 2.00011E+01-1.35431E-03 1.96454E-06 3.73515E-04-3.11286E-14-8.51203E-14
 -1      4128 2.00009E+01-1.25169E-03 3.53645E-06 3.26700E-04 2.15444E-14-8.33096E-14
 -1      4129 2.00012E+01-1.44675E-03-4.79505E-06 2.20534E-04-1.70755E-13-4.53953E-14
 -1      4130 2.00008E+01-1.15136E-03 1.25046E-06 2.99075E-04 1.29679E-13 5.33408E-14
 -1      4131 2.00006E+01-1.05008E-03 3.21592E-06 2.58428E-04 1.17444E-13 1.42727E-13
 -1      4132 2.00009E+01-1.23708E-03-3.23429E-06 1.77185E-04 1.94288E-13-3.28277E-14
 -1      4133 2.00005E+01-9.86971E-04-3.86910E-07 2.22598E-04-5.68899E-14 1.47964E-13
 -1      4134 2.00004E+01-9.03798E-04 2.38669E-06 1.69662E-04-2.19506E-13 1.74637E-13
 -1      4135 2.00005E+01-9.24661E-04-8.28591E-07 6.90447E-05-3.06059E-13-5.51405E-14
 -1      4136 2.00006E+01-1.06160E-03-1.31026E-06 1.26397E-04 1.03503E-13 3.66036E-14
 -1      4137 1.99223E+01 1.68754E-01-4.68675E-04 3.92376E-02 4.95078E-14-9.17571E-14
 -1      4138 1.99040E+01 1.93704E-01-4.27387E-04 4.56630E-02 3.01063E-14-1.41374E-13
 -1      4139 1.98212E+01 2.86810E-01-6.21657E-04 5.49793E-02 1.98448E-13-1.65794E-13
 -1      4140 1.97814E+01 3.26471E-01-1.13800E-03 6.06765E-02 2.04063E-13-1.29789E-13
 -1      4141 1.97536E+01 3.51660E-01 1.78708E-03 2.02816E-02 1.35571E-13-1.90862E-13
 -1      4142 1.99726E+01 9.36414E-02-3.00158E-04 2.28577E-02 6.57053E-15-4.10257E-14
 -1      4143 1.99642E+01 1.09232E-01-1.40329E-04 2.77490E-02-2.22515E-14-8.46606E-14
 -1      4144 1.99865E+01 6.79977E-02-2.24333E-04 1.63448E-02 1.34774E-13 1.96174E-14
 -1      4145 1.99810E+01 8.00727E-02-6.42392E-05 2.03264E-02 9.27914E-14-1.38120E-14
 -1      4146 1.99743E+01 9.08050E-02 3.51150E-04 1.50338E-02-1.39291E-14-6.70597E-14
 -1      4147 1.99955E+01 4.83177E-02-1.76159E-04 1.11970E-02 1.10549E-13 5.62469E-14
 -1      4148 1.99922E+01 5.75209E-02-3.04548E-05 1.42623E-02 9.23979E-14 9.87779E-14
 -1      4149 1.99876E+01 6.58295E-02 2.28683E-04 1.10194E-02 7.99549E-14 5.21955E-14
 -1      4150 2.00012E+01 3.34963E-02-1.22117E-04 7.19854E-03 8.96856E-14 9.95555E-15
 -1      4151 1.99992E+01 4.04344E-02-5.12143E-06 9.51212E-03 1.64003E-13 4.53059E-14
 -1      4152 1.99963E+01 4.68226E-02 1.79527E-04 7.62364E-03 1.10775E-13-1.01894E-13
 -1      4153 2.00045E+01 2.24763E-02-8.56841E-05 4.26650E-03 3.16783E-14-1.00223E-13
 -1      4154 2.00034E+01 2.76018E-02 2.87828E-06 5.95481E-03 3.31006E-14-3.52917E-14
 -1      4155 2.00017E+01 3.23239E-02 1.12561E-04 4.98014E-03 4.68501E-14-2.93705E-14
 -1      4156 2.00061E+01 1.44340E-02-5.81275E-05 2.18096E-03 6.11516E-14 1.15703E-13
 -1      4157 2.00057E+01 1.81575E-02 9.89021E-06 3.36968E-03 7.59645E-14-8.59890E-15
 -1      4158 2.00048E+01 2.15872E-02 7.04296E-05 2.98827E-03 1.71149E-14-6.45133E-15
 -1      4159 2.00067E+01 8.68430E-03-3.75995E-05 7.61404E-04-1.05182E-13 1.55911E-13
 -1      4160 2.00067E+01 1.13312E-02 1.24278E-05 1.56535E-03-1.29812E-14 7.81828E-14
 -1      4161 2.00064E+01 1.37579E-02 4.12358E-05 1.55206E-03 1.90357E-14 7.82813E-14
 -1      4162 2.00066E+01 4.67447E-03-2.27242E-05-1.54106E-04-9.98953E-14 9.32890E-14
 -1      4163 2.00068E+01 6.50720E-03 1.26902E-05 3.62216E-04-5.58757E-14 1.30347E-13
 -1      4164 2.00069E+01 8.17178E-03 2.12384E-05 5.64184E-04-6.07231E-14 2.65283E-14
 -1      4165 2.00061E+01 1.96217E-03-1.26547E-05-7.02396E-04-2.05416E-13 2.78608E-15
 -1      4166 2.00064E+01 3.19131E-03 1.17151E-05-3.92861E-04-1.49600E-13 6.15122E-14
 -1      4167 2.00067E+01 4.28884E-03 7.98674E-06-7.82625E-05-5.34403E-14-5.52867E-14
 -1      4168 2.00053E+01 1.37501E-04-5.41250E-06-9.97279E-04-1.33589E-13-2.82862E-13
 -1      4169 2.00058E+01 9.46975E-04 1.00859E-05-8.32782E-04-1.03025E-13-2.30733E-13
 -1      4170 2.00062E+01 1.63025E-03-2.17333E-07-4.71051E-04 1.50465E-14-3.13167E-13
 -1      4171 2.00046E+01-9.02912E-04-4.52560E-07-1.09810E-03-1.86411E-13-3.67740E-13
 -1      4172 2.00050E+01-4.47203E-04 8.93347E-06-1.03976E-03-2.30729E-13-3.69496E-13
 -1      4173 2.00054E+01-6.72131E-05-5.82975E-06-6.77457E-04-1.44074E-13-5.04083E-13
 -1      4174 2.00038E+01-1.47323E-03 2.42749E-06-1.08861E-03-8.13837E-14-2.38667E-13
 -1      4175 2.00042E+01-1.23368E-03 7.31933E-06-1.09295E-03-1.16332E-13-3.14138E-13
 -1      4176 2.00046E+01-1.05154E-03-8.44357E-06-7.52560E-04-1.79580E-13-4.14054E-13
 -1      4177 2.00031E+01-1.72276E-03 4.00013E-06-1.01237E-03-1.70066E-13-5.20422E-14
 -1      4178 2.00034E+01-1.62886E-03 5.81307E-06-1.05409E-03-1.70154E-13-1.82115E-13
 -1      4179 2.00038E+01-1.57726E-03-9.37982E-06-7.48896E-04-2.07369E-13-2.14239E-13
 -1      4180 2.00024E+01-1.76305E-03 4.69399E-06-9.00874E-04-1.95942E-13-6.71606E-14
 -1      4181 2.00027E+01-1.76293E-03 4.52791E-06-9.62378E-04-1.59997E-13-1.30148E-14
 -1      4182 2.00031E+01-1.79323E-03-9.33651E-06-6.97816E-04-1.96947E-13-1.29641E-13
 -1      4183 2.00019E+01-1.67468E-03 4.81165E-06-7.75429E-04-2.93506E-13 9.84951E-14
 -1      4184 2.00021E+01-1.73107E-03 3.46418E-06-8.44837E-04-2.27884E-13 6.79397E-14
 -1      4185 2.00024E+01-1.80872E-03-8.71299E-06-6.21544E-04-1.99780E-13-1.09922E-13
 -1      4186 2.00014E+01-1.51447E-03 4.57466E-06-6.49781E-04-2.14882E-13-6.25810E-14
 -1      4187 2.00016E+01-1.60128E-03 2.60421E-06-7.19430E-04-3.48807E-13-5.21141E-14
 -1      4188 2.00019E+01-1.70241E-03-7.77991E-06-5.35154E-04-2.43885E-13-2.36069E-13
 -1      4189 2.00010E+01-1.32134E-03 4.14356E-06-5.32203E-04-8.24030E-14 9.32049E-14
 -1      4190 2.00012E+01-1.42086E-03 1.92395E-06-5.97474E-04-8.37205E-14 9.10334E-14
 -1      4191 2.00014E+01-1.52958E-03-6.71762E-06-4.48385E-04-2.03203E-13-2.35673E-13
 -1      4192 2.00007E+01-1.12094E-03 3.60566E-06-4.27161E-04-1.87930E-13 8.92356E-14
 -1      4193 2.00008E+01-1.22163E-03 1.39005E-06-4.85539E-04-8.05855E-15 1.27061E-13
 -1      4194 2.00010E+01-1.32785E-03-5.63524E-06-3.67086E-04-5.15166E-14-1.00114E-13
 -1      4195 2.00005E+01-9.30120E-04 2.64231E-06-3.37233E-04 1.98132E-14 1.08543E-13
 -1      4196 2.00006E+01-1.02461E-03 7.50478E-07-3.86691E-04-1.79997E-13 9.21019E-14
 -1      4197 2.00007E+01-1.12169E-03-4.48724E-06-2.94564E-04-1.21817E-13-1.00276E-13
 -1      4198 1.92630E+01 7.08525E-01-4.13489E-04-2.51367E-02 5.59384E-14-1.89145E-13
 -1      4199 1.91169E+01 7.74494E-01-6.66250E-03-5.55610E-02 9.64580E-14-1.38406E-13
 -1      4200 1.98801E+01 2.21500E-01-5.61835E-04 4.79124E-02 1.04974E-13-1.00293E-13
 -1      4201 1.98537E+01 2.52374E-01-7.10854E-04 5.44284E-02 1.89095E-13-1.69147E-13
 -1      4202 1.98865E+01 2.13660E-01 9.98267E-04 2.69309E-02 7.37162E-14-1.59677E-13
 -1      4203 1.98238E+01-3.72254E-01 7.20439E-03-1.88410E+00 2.20491E-13-3.07904E-13
 -1      4204 1.96013E+01-1.59168E-01-2.62852E-03-1.67289E+00 1.42972E-13-2.94410E-13
 -1      4205 1.91899E+01 1.03883E-01-7.68061E-03-1.64110E+00 1.79772E-13-2.11359E-13
 -1      4206 1.93611E+01-2.26328E-01-1.17132E-02-2.05198E+00 2.55100E-13-3.03735E-13
 -1      4207 1.66719E+01 1.33047E+00 1.09719E-02-1.35229E+00 1.54438E-13-2.08785E-14
 -1      4208 1.61893E+01 1.29587E+00-1.58058E-02-1.62837E+00 1.97641E-13 1.53870E-14
 -1      4209 1.66790E+01 9.49026E-01 3.34423E-03-2.20399E+00 3.15195E-13-4.81303E-14
 -1      4210 1.99520E+01 1.26714E-01-3.79059E-04 3.06028E-02-7.55331E-14-5.13535E-14
 -1      4211 1.99395E+01 1.46566E-01-2.52091E-04 3.63821E-02 2.86241E-15-8.36488E-14
 -1      4212 1.99263E+01 1.63272E-01 7.23407E-04 2.38002E-02 2.53538E-14-1.20767E-13
 -1      4213 1.99546E+01 1.22819E-01 5.17422E-04 1.94682E-02-5.41807E-14-1.78084E-13
 -1      4214 1.94691E+01 5.79201E-01-6.90791E-04 2.65413E-02 3.03803E-14-1.51353E-13
 -1      4215 1.93647E+01 6.40159E-01-4.08743E-03 1.26346E-02 4.98985E-14-1.72596E-13
 -1      4216 1.93313E+01 6.54407E-01 3.86695E-03-1.04258E-01 4.52001E-14-1.82128E-13
 -1      4217 1.75469E+01 1.25871E+00 4.04262E-03-8.09851E-01 1.39224E-13-1.06514E-13
 -1      4218 1.70319E+01 1.30831E+00-1.32521E-02-1.04774E+00 1.34123E-13-6.67179E-14
 -1      4219 1.73236E+01 1.10045E+00 1.74352E-02-1.50289E+00 1.74329E-13-1.51946E-13
 -1      4220 1.79880E+01 1.67136E-01-1.05246E-02-2.64198E+00 3.56337E-13-1.15362E-13
 -1      4221 1.87998E+01 3.50635E-02 1.31784E-02-2.24334E+00 2.60948E-13-2.08735E-13
 -1      4222 1.96219E+01 4.66750E-01-7.29546E-04 5.04175E-02 3.43468E-14-1.50113E-13
 -1      4223 1.95469E+01 5.20186E-01-2.64628E-03 4.69031E-02 4.26445E-14-1.57822E-13
 -1      4224 1.95114E+01 5.42965E-01 3.11165E-03-3.54492E-02 5.66764E-15-1.56831E-13
 -1      4225 1.96485E+01 4.41930E-01 2.39315E-03 1.87927E-03 7.24566E-14-1.38769E-13
 -1      4226 1.81790E+01 1.13343E+00-2.73775E-04-4.57103E-01 1.67210E-13-1.75678E-13
 -1      4227 1.78213E+01 1.20874E+00-8.74459E-03-6.06538E-01 1.36858E-13-1.47648E-13
 -1      4228 1.79771E+01 1.08780E+00 1.70852E-02-9.35075E-01 1.82898E-13-1.20296E-13
 -1      4229 2.00002E+01-7.20002E-04 1.34419E-06-2.16392E-04 2.88660E-13 2.21670E-13
 -1      4230 2.00003E+01-7.74176E-04-9.96069E-07-2.51020E-04 3.41660E-13 9.16776E-14
 -1      4231 2.00003E+01-7.39944E-04 7.93900E-07-1.54907E-04 3.31034E-13 6.17517E-14
 -1      4232 1.86616E+01 2.18874E-01 1.85782E-03-2.01114E+00 2.34398E-13-2.30254E-13
 -1      4233 1.72554E+01 6.69270E-01 8.39398E-03-2.33785E+00 3.09918E-13-5.37998E-14
 -1      4234 1.98313E+01 2.75466E-01 1.37226E-03 2.69396E-02 1.87597E-13-2.12821E-13
 -1      4235 1.90896E+01 7.73208E-01 4.32835E-03-2.20545E-01 1.06683E-13-1.68621E-13
 -1      4236 1.89900E+01 8.46890E-01-1.85100E-05-1.16776E-01 9.26138E-14-1.59249E-13
 -1      4237 1.87944E+01 9.18286E-01-7.37054E-03-1.76370E-01 9.73798E-14-1.46290E-13
 -1      4238 2.00003E+01-7.64516E-04 1.32617E-06-3.47593E-05 2.85431E-14-8.13940E-14
 -1      4239 2.00003E+01-7.59953E-04 7.80517E-07-1.01988E-04 1.50511E-13-4.06628E-14
 -1      4240 2.00003E+01-8.17367E-04-5.46260E-07-1.25318E-04 1.50520E-13-1.62739E-13
 -1      4241 2.00004E+01-8.48494E-04-1.63193E-06-1.46393E-05-1.02425E-13-1.22123E-13
 -1      4242 1.84413E+01 1.14149E+00 9.50738E-03-1.21351E-01 1.30117E-13-6.31486E-14
 -1      4243 2.00003E+01-8.22413E-04 1.47540E-06-2.71806E-04 4.24800E-13 9.86189E-14
 -1      4244 2.00004E+01-8.78272E-04-1.94540E-07-3.12559E-04 1.69110E-13 8.80041E-14
 -1      4245 2.00005E+01-9.63533E-04-3.04384E-06-2.38752E-04 6.14380E-14-2.19887E-13
 -1      4246 2.00004E+01-8.49806E-04-1.16729E-06-1.97606E-04 2.79648E-13-2.18925E-13
 -1      4247 1.94126E+01 5.78978E-01 7.92971E-04-1.56974E-01 4.54134E-14-1.34725E-13
 -1      4248 1.93045E+01 6.28887E-01-2.16636E-03-2.08972E-01 1.31717E-13-6.25352E-14
 -1      4249 1.99970E+01 4.27440E-02-1.26665E-04 3.78664E-03 6.06048E-14-8.82382E-14
 -1      4250 1.99937E+01 5.11419E-02-1.26809E-05 5.12227E-03 7.80121E-14-1.70561E-13
 -1      4251 1.90227E+01 5.69389E-01-2.08175E-03-8.73595E-01 9.18065E-14-2.11006E-13
 -1      4252 1.90752E+01 5.97292E-01-4.45262E-03-7.10765E-01 4.58369E-14-2.17772E-13
 -1      4253 1.90972E+01 6.68963E-01 1.93664E-03-5.21986E-01 3.66752E-14-1.92015E-13
 -1      4254 1.91633E+01 6.50324E-01-4.37418E-03-4.17300E-01 2.01669E-14-1.78355E-13
 -1      4255 1.93998E+01 5.31373E-01 6.63949E-04-3.75841E-01 4.02397E-14-7.38962E-14
 -1      4256 1.94579E+01 5.05108E-01-3.38634E-03-2.98275E-01 9.72632E-14-5.89158E-14
 -1      4257 1.95360E+01 4.74135E-01 3.79075E-04-2.43432E-01 3.43885E-14-4.15695E-14
 -1      4258 1.95837E+01 4.43700E-01-2.53764E-03-1.91799E-01 1.43626E-13-4.23286E-14
 -1      4259 1.94835E+01 5.24431E-01 2.74813E-03-2.05178E-01 7.67062E-14-8.89323E-14
 -1      4260 1.96458E+01 4.09646E-01-9.56546E-05-1.56658E-01 1.44975E-13-2.09302E-13
 -1      4261 1.96880E+01 3.77456E-01-1.71091E-03-1.21680E-01 1.45240E-13-2.53781E-13
 -1      4262 1.96140E+01 4.46180E-01 2.53677E-03-1.23507E-01 6.05830E-14-1.93533E-13
 -1      4263 1.97362E+01 3.43926E-01-2.21936E-04-9.91483E-02 2.38315E-13-3.21902E-13
 -1      4264 1.97715E+01 3.12761E-01-1.14816E-03-7.58617E-02 2.47893E-13-3.46834E-13
 -1      4265 1.97162E+01 3.70186E-01 1.90704E-03-7.15613E-02 1.82231E-13-2.43677E-13
 -1      4266 1.98084E+01 2.81810E-01-2.69239E-04-6.17412E-02 2.85555E-13-3.46870E-13
 -1      4267 1.98369E+01 2.53394E-01-7.27832E-04-4.63783E-02 3.00404E-13-2.01869E-13
 -1      4268 1.97960E+01 3.00703E-01 1.44808E-03-3.93735E-02 2.82012E-13-3.98401E-13
 -1      4269 1.98647E+01 2.25929E-01-2.82956E-04-3.77956E-02 7.29733E-14-2.43828E-13
 -1      4270 1.98872E+01 2.01077E-01-4.47593E-04-2.77796E-02 5.48276E-14-3.01601E-13
 -1      4271 1.98571E+01 2.39417E-01 1.04718E-03-2.02052E-02 1.01216E-13-3.83715E-13
 -1      4272 1.99077E+01 1.77536E-01-2.61984E-04-2.27084E-02 4.86119E-14-2.93321E-13
 -1      4273 1.99248E+01 1.56463E-01-2.62564E-04-1.62398E-02-2.28283E-14-1.89939E-13
 -1      4274 1.99031E+01 1.87187E-01 7.55595E-04-9.22874E-03 3.57468E-14-4.12615E-13
 -1      4275 1.99397E+01 1.36826E-01-2.27755E-04-1.33548E-02-1.74476E-14-2.13042E-13
 -1      4276 1.99524E+01 1.19413E-01-1.43764E-04-9.20892E-03 1.53721E-14-2.71007E-13
 -1      4277 1.99370E+01 1.43737E-01 5.39010E-04-3.28775E-03 5.40034E-15-2.77798E-13
 -1      4278 1.99629E+01 1.03436E-01-1.84180E-04-7.65453E-03-1.13998E-14-4.10271E-13
 -1      4279 1.99720E+01 8.92981E-02-1.24862E-04-4.98769E-03-7.00327E-14-4.67603E-13
 -1      4280 1.99614E+01 1.08362E-01 3.78523E-04-3.35800E-04-1.06975E-13-3.54832E-13
 -1      4281 1.99909E+01 5.49249E-02-1.40268E-04-2.20959E-03 5.56593E-14-3.49315E-13
 -1      4282 1.99953E+01 4.64029E-02 1.56414E-05-1.13409E-03 9.89904E-14-2.87515E-13
 -1      4283 1.99983E+01 3.87866E-02-8.10395E-05-1.00733E-03-3.65566E-15-2.44894E-13
 -1      4284 2.00011E+01 3.22244E-02 2.16037E-05-3.69789E-04 3.23497E-14-2.64461E-13
 -1      4285 1.99982E+01 4.01569E-02 1.01496E-04 1.24390E-03 2.53351E-14-1.35616E-13
 -1      4286 2.00028E+01 2.65069E-02-5.76805E-05-3.57753E-04 1.01501E-13-3.60583E-13
 -1      4287 2.00045E+01 2.16065E-02 2.52007E-05 3.32452E-05 1.28908E-13-3.19392E-13
 -1      4288 2.00028E+01 2.74517E-02 6.41086E-05 9.97659E-04 3.58381E-15-1.36149E-13
 -1      4289 2.00054E+01 1.73922E-02-3.98951E-05-6.04197E-06-2.47664E-14-2.86677E-13
 -1      4290 2.00062E+01 1.38122E-02 2.49348E-05 2.28605E-04-4.49475E-14-2.13207E-13
 -1      4291 2.00054E+01 1.80348E-02 3.57540E-05 7.21542E-04-5.97808E-15-2.15365E-13
 -1      4292 2.00065E+01 1.07753E-02-2.64461E-05 1.72553E-04 1.11347E-13-3.30919E-13
 -1      4293 2.00069E+01 8.22274E-03 2.26785E-05 3.08207E-04 1.54035E-13-3.22213E-13
 -1      4294 2.00066E+01 1.12041E-02 1.66803E-05 4.73271E-04 5.55494E-14-1.18976E-13
 -1      4295 2.00068E+01 6.09126E-03-1.65431E-05 2.52106E-04-4.42959E-15-3.64579E-13
 -1      4296 2.00068E+01 4.32299E-03 1.96456E-05 3.25123E-04 1.92648E-14-3.64606E-13
 -1      4297 2.00069E+01 6.36900E-03 4.34557E-06 2.75241E-04 2.50583E-14-2.04645E-13
 -1      4298 2.00066E+01 2.87429E-03-9.57835E-06 2.76596E-04 8.76561E-14-2.96834E-13
 -1      4299 2.00063E+01 1.69279E-03 1.66280E-05 3.10577E-04 8.51209E-14 1.00124E-13
 -1      4300 2.00066E+01 3.04727E-03-3.01181E-06 1.30049E-04 1.25554E-13-2.34631E-13
 -1      4301 2.00060E+01 7.48858E-04-4.93012E-06 2.70254E-04-1.02685E-14 1.64945E-13
 -1      4302 2.00056E+01-1.55421E-06 1.36629E-05 2.80517E-04 1.26369E-14 2.14758E-13
 -1      4303 2.00060E+01 8.47203E-04-7.69838E-06 3.01674E-05 7.51460E-14-4.74513E-14
 -1      4304 2.00052E+01-5.81164E-04-1.60118E-06 2.49223E-04-9.44089E-14 1.99376E-13
 -1      4305 2.00048E+01-1.02415E-03 1.07420E-05 2.44801E-04-9.31925E-14 1.69214E-13
 -1      4306 2.00052E+01-5.32679E-04-9.77687E-06-3.16434E-05-1.03245E-13-9.29121E-14
 -1      4307 2.00044E+01-1.34602E-03 5.98902E-07 2.21344E-04-1.23504E-13 6.06629E-14
 -1      4308 2.00040E+01-1.57525E-03 8.26292E-06 2.08608E-04-6.19751E-14 5.76832E-14
 -1      4309 2.00044E+01-1.33021E-03-1.02926E-05-6.63708E-05-1.23793E-13-6.20361E-14
 -1      4310 2.00036E+01-1.72103E-03 1.88797E-06 1.91414E-04-1.32790E-13 2.99209E-14
 -1      4311 2.00032E+01-1.80661E-03 6.23057E-06 1.74523E-04-2.27999E-13-2.32841E-14
 -1      4312 2.00037E+01-1.72584E-03-9.92399E-06-8.20191E-05-2.23854E-13-2.17045E-13
 -1      4313 2.00029E+01-1.83685E-03 2.54560E-06 1.62139E-04-3.94367E-14-2.31991E-13
 -1      4314 2.00026E+01-1.83032E-03 4.60383E-06 1.43763E-04 9.08554E-14-1.74175E-13
 -1      4315 2.00029E+01-1.85382E-03-9.06365E-06-8.51813E-05-1.25221E-13-2.95600E-13
 -1      4316 2.00023E+01-1.78896E-03 2.77889E-06 1.34974E-04-4.13829E-14-1.55302E-13
 -1      4317 2.00020E+01-1.72735E-03 3.32861E-06 1.16787E-04-2.17738E-13-1.31446E-13
 -1      4318 2.00023E+01-1.81224E-03-7.96428E-06-8.07740E-05-8.74629E-14-4.70880E-13
 -1      4319 2.00017E+01-1.64551E-03 2.74057E-06 1.10627E-04-3.10864E-13-1.18875E-13
 -1      4320 2.00015E+01-1.55469E-03 2.34723E-06 9.36368E-05-3.12220E-13-2.18510E-13
 -1      4321 2.00018E+01-1.67116E-03-6.79068E-06-7.22818E-05-3.10219E-13-4.90922E-13
 -1      4322 2.00013E+01-1.45382E-03 2.51394E-06 8.93441E-05-2.45938E-13-3.47461E-14
 -1      4323 2.00011E+01-1.35129E-03 1.54313E-06 7.41262E-05 9.49196E-14-1.23902E-13
 -1      4324 2.00013E+01-1.47927E-03-5.64774E-06-6.20696E-05-1.86090E-13-2.19732E-13
 -1      4325 2.00009E+01-1.24690E-03 1.59756E-06 7.06620E-05 1.97663E-13-2.80178E-13
 -1      4326 2.00008E+01-1.14314E-03 2.93960E-07 5.82652E-05 2.60449E-13-2.42416E-13
 -1      4327 2.00009E+01-1.26927E-03-4.44911E-06-5.16572E-05 1.51004E-13-2.23573E-13
 -1      4328 1.97745E+01 3.19958E-01-3.53701E-04-1.27100E-02 2.50849E-13-3.00014E-13
 -1      4329 1.97268E+01 3.59063E-01-1.51560E-03-2.10231E-02 1.80395E-13-2.01087E-13
 -1      4330 1.99757E+01 8.42409E-02-2.01226E-04 6.90976E-03-2.08970E-14-1.64426E-13
 -1      4331 1.99676E+01 9.82824E-02-1.52748E-04 8.60736E-03-1.66619E-13-2.71005E-13
 -1      4332 2.00021E+01 2.93933E-02-8.29211E-05 2.52564E-03-2.43172E-14-1.27252E-14
 -1      4333 2.00001E+01 3.56446E-02-3.06422E-05 3.59259E-03 4.18952E-14-7.05160E-14
 -1      4334 2.00050E+01 1.94553E-02-5.78590E-05 1.52759E-03 2.23138E-14-7.12065E-14
 -1      4335 2.00040E+01 2.40703E-02-1.44545E-05 2.33496E-03-2.09665E-14-1.03810E-13
 -1      4336 2.00065E+01 1.22293E-02-3.86965E-05 7.89227E-04-2.44366E-14 1.26120E-14
 -1      4337 2.00060E+01 1.55671E-02-3.47213E-06 1.37335E-03 4.17374E-14-5.99734E-15
 -1      4338 2.00069E+01 7.09595E-03-2.44169E-05 2.73414E-04-9.75331E-15-1.40872E-13
 -1      4339 2.00069E+01 9.45197E-03 2.79378E-06 6.77487E-04 2.43928E-14-3.75867E-14
 -1      4340 2.00067E+01 3.54895E-03-1.43866E-05-6.47614E-05 7.47154E-14-1.44005E-13
 -1      4341 2.00069E+01 5.16436E-03 6.05305E-06 2.00679E-04 2.62919E-14-9.91589E-14
 -1      4342 2.00061E+01 1.13797E-03-7.81230E-06-2.70743E-04 3.02864E-14-3.23119E-13
 -1      4343 2.00065E+01 2.25068E-03 7.98723E-06-1.05678E-04 1.14235E-13-2.22270E-13
 -1      4344 2.00054E+01-3.42952E-04-2.80049E-06-3.74124E-04-1.01882E-13-4.21703E-13
 -1      4345 2.00058E+01 3.15362E-04 9.16557E-06-2.88267E-04-5.15802E-14-3.54382E-13
 -1      4346 2.00046E+01-1.21434E-03 5.50092E-07-4.12490E-04-1.07535E-13-3.17956E-13
 -1      4347 2.00050E+01-8.36990E-04 8.36743E-06-3.76408E-04-1.36381E-13-3.65930E-13
 -1      4348 2.00038E+01-1.66186E-03 2.56093E-06-4.08242E-04-2.02739E-13-2.70955E-13
 -1      4349 2.00042E+01-1.47844E-03 7.18261E-06-4.04536E-04-1.74088E-13-3.57297E-13
 -1      4350 2.00030E+01-1.82528E-03 3.61181E-06-3.78567E-04-2.71344E-13-1.61415E-13
 -1      4351 2.00034E+01-1.77051E-03 5.99570E-06-3.94584E-04-1.90771E-13-2.71833E-13
 -1      4352 2.00024E+01-1.80697E-03 4.01398E-06-3.35606E-04-7.72190E-14-3.09723E-13
 -1      4353 2.00027E+01-1.83326E-03 4.89351E-06-3.62402E-04-1.64424E-13-2.41148E-13
 -1      4354 2.00018E+01-1.68032E-03 3.99910E-06-2.87579E-04-2.34756E-13-4.74182E-13
 -1      4355 2.00021E+01-1.75376E-03 3.91645E-06-3.19061E-04-1.77755E-13-4.07045E-13
 -1      4356 2.00014E+01-1.49657E-03 3.73964E-06-2.39761E-04-2.42747E-13-3.10600E-13
 -1      4357 2.00016E+01-1.59368E-03 3.07967E-06-2.71965E-04-3.96023E-13-4.38532E-13
 -1      4358 2.00010E+01-1.29044E-03 3.30385E-06-1.95303E-04 1.60450E-15-1.37456E-13
 -1      4359 2.00012E+01-1.39545E-03 2.37839E-06-2.25809E-04 1.04386E-14-1.55912E-13
 -1      4360 2.00007E+01-1.08495E-03 2.28064E-06-1.56113E-04-6.02687E-14-4.49870E-13
 -1      4361 2.00008E+01-1.18714E-03 1.77693E-06-1.83051E-04 6.13765E-14-3.18057E-13
 -1      4362 1.74661E+01 7.59134E-01 1.29915E-03-2.00848E+00 2.20175E-13-1.02778E-13
 -1      4363 1.86408E+01 9.94271E-01 2.53483E-04-2.52141E-01 4.92492E-14-9.96155E-14
 -1      4364 1.83775E+01 1.06547E+00-8.16009E-03-3.46065E-01 1.26403E-13-1.25826E-13
 -1      4365 1.84317E+01 9.81023E-01-1.74420E-03-5.96940E-01 1.00966E-13-2.10148E-13
 -1      4366 1.88080E+01 8.94050E-01 9.24579E-03-3.76029E-01 7.80427E-14-1.50825E-13
 -1      4367 1.98425E+01 2.53409E-01-4.05146E-04 5.20592E-04 1.37036E-13-3.21263E-13
 -1      4368 1.98094E+01 2.85275E-01-1.03717E-03-2.38395E-03 2.46314E-13-3.30507E-13
 -1      4369 1.86271E+01 6.70964E-01 3.38180E-03-1.13385E+00 1.90247E-13-2.44280E-13
 -1      4370 1.86948E+01 7.07959E-01-4.72366E-03-9.27040E-01 1.42814E-13-2.33624E-13
 -1      4371 1.98933E+01 1.97392E-01-3.79572E-04 6.52141E-03 9.47767E-14-3.13439E-13
 -1      4372 1.98693E+01 2.24200E-01-6.63381E-04 6.32736E-03 8.21609E-14-2.87047E-13
 -1      4373 1.77843E+01 8.07663E-01 2.02534E-03-1.64509E+00 1.95105E-13-1.20700E-13
 -1      4374 1.99897E+01 5.90417E-02 1.58528E-04 1.79319E-03 1.23568E-13-2.53239E-13
 -1      4375 1.99876E+01 6.25706E-02-1.88227E-04 5.88127E-03 1.46732E-13-1.14835E-13
 -1      4376 1.99821E+01 7.37596E-02-8.07752E-05 7.52628E-03 1.26879E-13-1.20474E-13
 -1      4377 1.99850E+01 6.71334E-02-3.04470E-05-2.13442E-03 6.45490E-14-3.90031E-13
 -1      4378 1.99776E+01 8.21033E-02 2.96454E-04 1.46795E-03 4.15308E-14-3.71642E-13
 -1      4379 1.99784E+01 7.84549E-02-1.44681E-04-3.80020E-03 1.49744E-14-4.34950E-13
 -1      4380 1.96818E+01 3.99137E-01-2.25330E-04-3.86841E-02 8.81786E-14-1.71124E-13
 -1      4381 2.00007E+01-1.07366E-03 7.88970E-07 2.78897E-05 7.59596E-14-3.78412E-13
 -1      4382 1.96201E+01 4.41056E-01-2.19500E-03-5.49447E-02 5.30601E-14-1.75709E-13
 -1      4383 1.92953E+01 6.10761E-01 1.07052E-03-3.31970E-01 6.62462E-14-1.16482E-13
 -1      4384 1.99570E+01 1.13895E-01-2.70711E-04 8.11831E-03-9.15630E-14-2.57189E-13
 -1      4385 2.00005E+01-9.11160E-04 1.74380E-06-7.29061E-07-1.91866E-13-3.28923E-13
 -1      4386 2.00004E+01-9.03935E-04-1.10997E-06-5.90326E-05-2.40358E-14-5.12908E-13
 -1      4387 2.00005E+01-9.81580E-04-8.18371E-07 2.23835E-05-1.20991E-13-4.12754E-13
 -1      4388 1.94822E+01 5.31065E-01-2.89484E-03-1.13060E-01 2.61213E-14-1.65135E-13
 -1      4389 1.81979E+01 5.77441E-01 4.96691E-03-1.78987E+00 1.97930E-13-1.76417E-13
 -1      4390 1.88443E+01 3.32397E-01 1.45416E-02-1.65023E+00 2.10297E-13-2.92053E-13
 -1      4391 1.95636E+01 4.85773E-01 2.15639E-05-8.35775E-02-7.03875E-15-1.40065E-13
 -1      4392 1.99133E+01 1.73249E-01-4.25711E-04 9.54813E-03-1.05219E-14-2.97182E-13
 -1      4393 1.87733E+01 4.33052E-01 5.51856E-04-1.47103E+00 2.06170E-13-2.55083E-13
 -1      4394 1.99451E+01 1.31641E-01-2.66317E-04 9.80029E-03 1.39970E-14-2.42866E-13
 -1      4395 2.00005E+01-9.36875E-04 1.10860E-06-1.32436E-04 1.66443E-13-6.48482E-13
 -1      4396 2.00006E+01-9.92758E-04 1.46135E-06-1.52448E-04-1.05786E-14-5.77385E-13
 -1      4397 1.99304E+01 1.51232E-01-3.28349E-04 8.39872E-03-3.39648E-14-2.12183E-13
 -1      4398 1.79660E+01 8.51055E-01-1.80255E-02-1.33196E+00 2.07339E-13-1.54372E-13
 -1      4399 1.88945E+01 7.79934E-01-2.47370E-03-4.90442E-01 6.31871E-14-2.13691E-13
 -1      4400 2.00006E+01-1.06627E-03-2.22551E-06-4.50379E-05 4.18171E-14-6.52444E-13
 -1      4401 1.87658E+01 8.26479E-01 1.83263E-03-5.88008E-01 6.79738E-14-2.16624E-13
 -1      4402 2.00004E+01-8.67961E-04 9.89251E-07-1.42701E-04 1.00844E-13-3.89076E-13
 -1      4403 1.82432E+01 8.53972E-01-7.99306E-03-1.10186E+00 1.96967E-13-1.91000E-13
 -1      4404 1.85803E+01 8.79283E-01 6.04383E-03-7.24108E-01 1.06158E-13-2.72473E-13
 -3
    1PSTEP                         3           1           1          
  100CL  101 1.000000000        4404                     0    1           1
 -4  TOSTRAIN    6    1
 -5  EXX         1    4    1    1
 -5  EYY         1    4    2    2
 -5  EZZ         1    4    3    3
 -5  EXY         1    4    1    2
 -5  EYZ         1    4    2    3
 -5  EZX         1    4    3    1
 -1         1 1.02612E-04 1.79867E-05-4.70142E-05-1.05596E-04-1.88816E-17 2.67629E-17
 -1         2 2.78612E-05-8.40998E-05 1.27116E-05-1.41221E-06 1.44100E-17 1.02295E-18
 -1         3 9.52372E-05-2.85711E-05-2.85712E-05 3.01246E-12 1.25436E-18 1.17761E-18
 -1         4 9.52372E-05-2.85711E-05-2.85712E-05-1.98291E-12 3.82598E-19 1.22752E-18
 -1         5 2.38378E-04-3.30554E-05-7.05797E-05 5.74670E-05-3.60942E-19 3.03854E-17
 -1         6 1.53850E-04 2.54990E-10-4.58649E-05-5.95187E-05-2.67408E-18 3.01006E-17
 -1         7 9.37006E-05-8.52893E-07-4.05101E-05-3.54197E-05-3.55330E-19 7.29176E-19
 -1         8 9.03373E-05 2.33983E-07-3.88213E-05-2.76029E-05-3.62804E-19-7.67901E-18
 -1         9 9.22795E-05 7.86201E-08-3.94421E-05-2.34490E-05-2.26052E-19-1.11102E-17
 -1        10 9.57033E-05-7.95818E-08-4.06967E-05-1.93002E-05-6.12511E-20-1.20874E-17
 -1        11 9.92006E-05-3.07588E-07-4.18497E-05-1.39455E-05 8.86473E-20-1.16234E-17
 -1        12 1.00948E-04-6.58836E-07-4.20058E-05-5.98658E-06 2.72731E-19-1.03999E-17
 -1        13 9.73697E-05-1.04343E-06-3.97579E-05 5.67423E-06 5.15843E-19-8.57625E-18
 -1        14 8.49336E-05-1.03565E-06-3.42426E-05 1.84375E-05 8.31575E-19-6.72315E-18
 -1        15 6.18277E-05-3.33179E-07-2.54068E-05 2.78873E-05 1.14159E-18-4.91702E-18
 -1        16 3.36085E-05 8.90089E-07-1.54269E-05 2.78365E-05 9.86158E-19-3.53815E-18
 -1        17 1.63511E-05 1.42570E-06-9.30116E-06 1.84511E-05 2.90426E-19-3.42511E-18
 -1        18 1.36811E-05 1.45530E-06-8.41711E-06 5.89637E-06-1.00744E-19-4.41397E-18
 -1        19 2.71947E-05 1.13746E-06-1.33290E-05-6.36397E-06-3.42201E-19-5.81391E-18
 -1        20 5.32457E-05 4.50656E-07-2.27535E-05-1.04225E-05-3.25684E-19-6.27855E-18
 -1        21 8.36724E-05-1.00889E-07-3.43927E-05-4.08419E-06-2.02441E-19-4.94008E-18
 -1        22 1.12554E-04-1.10118E-07-4.66673E-05 1.03909E-05-2.41404E-20-6.93114E-19
 -1        23 1.41803E-04-9.74999E-08-5.94192E-05 3.03753E-05-3.01755E-19 8.97956E-18
 -1        24 1.11717E-04-3.77959E-05-3.53357E-05-3.59683E-06-1.60597E-18 2.16841E-17
 -1        25 8.68881E-05-2.59619E-05-2.74286E-05 4.12961E-07-5.36635E-19 1.36656E-17
 -1        26 8.06880E-05-2.43406E-05-2.45166E-05 3.35879E-07-2.12592E-19 6.44004E-18
 -1        27 7.87342E-05-2.37267E-05-2.37039E-05 2.39083E-07 4.47670E-21 1.74912E-18
 -1        28 7.95073E-05-2.39274E-05-2.39022E-05 2.57250E-07-5.86372E-20-1.04937E-18
 -1        29 8.21143E-05-2.46791E-05-2.46626E-05 2.78594E-07-1.51209E-21-2.67608E-18
 -1        30 8.57771E-05-2.57566E-05-2.57276E-05 2.76234E-07-3.92468E-20-4.41721E-18
 -1        31 8.97141E-05-2.69228E-05-2.68754E-05 2.40347E-07-1.09860E-19-5.85395E-18
 -1        32 9.32682E-05-2.79786E-05-2.79215E-05 1.81284E-07-2.42480E-20-7.40828E-18
 -1        33 9.60285E-05-2.88002E-05-2.87458E-05 1.16518E-07-1.71613E-19-8.19766E-18
 -1        34 9.78548E-05-2.93452E-05-2.93022E-05 6.02690E-08 1.63604E-19-9.09691E-18
 -1        35 9.88163E-05-2.96337E-05-2.96049E-05 1.94071E-08 1.23994E-19-8.67229E-18
 -1        36 9.90976E-05-2.97200E-05-2.97041E-05-5.60859E-09-6.27199E-20-9.14317E-18
 -1        37 9.89157E-05-2.96681E-05-2.96617E-05-1.78739E-08 2.33517E-20-9.21492E-18
 -1        38 9.84666E-05-2.95361E-05-2.95355E-05-2.15028E-08-3.57376E-19-1.02419E-17
 -1        39 9.79014E-05-2.93690E-05-2.93713E-05-2.01558E-08 1.39139E-19-1.05641E-17
 -1        40 9.73232E-05-2.91972E-05-2.92006E-05-1.65018E-08-4.53791E-20-1.08712E-17
 -1        41 9.67930E-05-2.90393E-05-2.90426E-05-1.22234E-08-7.92200E-20-1.09896E-17
 -1        42 9.63410E-05-2.89043E-05-2.89070E-05-8.23813E-09 7.11458E-20-1.16198E-17
 -1        43 9.59764E-05-2.87951E-05-2.87971E-05-4.95085E-09 1.19270E-19-1.19817E-17
 -1        44 9.56958E-05-2.87109E-05-2.87121E-05-2.46154E-09-4.70508E-19-1.11909E-17
 -1        45 9.54889E-05-2.86486E-05-2.86493E-05-7.10978E-10 3.67804E-19-1.02390E-17
 -1        46 9.53433E-05-2.86046E-05-2.86049E-05 4.27627E-10-2.40067E-19-9.94297E-18
 -1        47 9.52459E-05-2.85751E-05-2.85751E-05 1.09631E-09 2.32090E-19-1.00428E-17
 -1        48 9.51852E-05-2.85566E-05-2.85565E-05 1.42592E-09 1.89667E-19-8.59216E-18
 -1        49 9.51512E-05-2.85462E-05-2.85459E-05 1.52518E-09-5.73981E-19-8.83115E-18
 -1        50 9.51359E-05-2.85414E-05-2.85411E-05 1.47847E-09 1.16605E-19-1.00563E-17
 -1        51 9.51331E-05-2.85404E-05-2.85401E-05 1.34775E-09-1.34863E-19-1.14718E-17
 -1        52 9.51381E-05-2.85417E-05-2.85414E-05 1.17634E-09 7.88894E-20-1.17325E-17
 -1        53 9.51475E-05-2.85444E-05-2.85442E-05 9.92939E-10 5.13996E-20-1.20214E-17
 -1        54 9.51589E-05-2.85478E-05-2.85476E-05 8.15405E-10-3.26321E-19-1.44298E-17
 -1        55 9.51709E-05-2.85513E-05-2.85512E-05 6.53823E-10 2.80198E-19-1.33843E-17
 -1        56 9.51824E-05-2.85548E-05-2.85546E-05 5.12978E-10 4.43936E-19-1.03927E-17
 -1        57 9.51929E-05-2.85579E-05-2.85578E-05 3.94203E-10 2.98139E-19-8.15952E-18
 -1        58 9.52021E-05-2.85606E-05-2.85605E-05 2.96718E-10-2.99950E-19-8.80636E-18
 -1        59 9.52099E-05-2.85629E-05-2.85629E-05 2.18565E-10 4.27904E-19-9.58101E-18
 -1        60 9.52163E-05-2.85649E-05-2.85648E-05 1.57241E-10 5.15471E-19-6.74315E-18
 -1        61 9.52216E-05-2.85665E-05-2.85664E-05 1.10103E-10-3.07053E-19-6.42493E-18
 -1        62 9.52258E-05-2.85677E-05-2.85677E-05 7.46111E-11 3.24541E-19-6.54057E-18
 -1        63 9.52290E-05-2.85687E-05-2.85687E-05 4.84666E-11-9.34241E-19-9.37763E-18
 -1        64 9.52315E-05-2.85694E-05-2.85694E-05 2.96664E-11-3.67751E-20-1.02142E-17
 -1        65 9.52334E-05-2.85700E-05-2.85700E-05 1.65140E-11-2.13466E-19-8.30828E-18
 -1        66 9.52348E-05-2.85704E-05-2.85704E-05 7.59110E-12 1.32724E-19-7.45292E-18
 -1        67 9.52358E-05-2.85707E-05-2.85707E-05 1.69918E-12 7.70705E-19-5.57507E-18
 -1        68 9.52364E-05-2.85709E-05-2.85709E-05-2.23238E-12-5.98821E-21-3.81921E-18
 -1        69 9.52369E-05-2.85711E-05-2.85711E-05-5.31349E-12 4.92101E-19-8.94354E-19
 -1        70 9.52371E-05-2.85711E-05-2.85711E-05-8.89270E-12 1.34351E-19 1.73611E-18
 -1        71 9.52372E-05-2.85712E-05-2.85712E-05-1.50630E-11 1.30605E-19 3.43908E-18
 -1        72 9.52372E-05-2.85712E-05-2.85712E-05-2.10852E-11-1.22430E-19 2.07187E-18
 -1        73 1.84350E-04-5.67142E-05-5.89764E-05-6.11870E-06 2.99373E-19 2.93000E-17
 -1        74 1.62957E-04-4.89365E-05-4.93921E-05 2.97760E-07 4.91976E-20 2.59667E-17
 -1        75 1.36599E-04-4.09684E-05-4.15065E-05 1.87726E-06 3.99776E-20 2.32261E-17
 -1        76 1.09895E-04-3.24583E-05-3.49325E-05 1.86923E-06-2.03473E-19 1.86075E-17
 -1        77 9.83807E-05-2.86935E-05-3.19157E-05 1.44498E-08 4.28771E-19 1.20879E-17
 -1        78 1.07885E-04-3.19707E-05-3.34068E-05-1.60957E-06 1.30929E-19 6.58113E-18
 -1        79 1.25042E-04-3.76257E-05-3.70885E-05-1.61095E-06-1.44490E-19 3.10258E-18
 -1        80 1.36062E-04-4.10956E-05-3.99292E-05-7.98766E-07 6.20253E-20 1.91747E-18
 -1        81 1.37106E-04-4.13072E-05-4.05557E-05-3.83545E-08 1.76701E-19 1.14493E-18
 -1        82 1.31714E-04-3.95718E-05-3.93158E-05 2.33448E-07-2.56270E-19 1.26638E-18
 -1        83 1.24191E-04-3.72569E-05-3.72805E-05 2.72865E-07-2.41200E-19 2.71338E-18
 -1        84 1.16935E-04-3.50629E-05-3.51840E-05 2.23269E-07 1.17132E-19 2.61279E-18
 -1        85 1.10916E-04-3.32585E-05-3.33843E-05 1.58460E-07 3.70030E-19 7.13361E-19
 -1        86 1.06293E-04-3.18773E-05-3.19769E-05 1.04884E-07-4.22706E-20-1.58799E-19
 -1        87 1.02889E-04-3.08616E-05-3.09322E-05 6.67654E-08-1.74883E-19 8.62081E-19
 -1        88 1.00447E-04-3.01320E-05-3.01797E-05 4.14260E-08 4.45054E-20 1.42448E-18
 -1        89 9.87204E-05-2.96160E-05-2.96474E-05 2.51446E-08 2.70367E-19 1.56963E-18
 -1        90 9.75146E-05-2.92551E-05-2.92756E-05 1.48686E-08-2.78676E-19 8.72603E-19
 -1        91 9.66809E-05-2.90053E-05-2.90186E-05 8.45051E-09 4.29375E-19 3.19646E-19
 -1        92 9.61110E-05-2.88344E-05-2.88430E-05 4.47442E-09-7.63715E-21 1.25007E-18
 -1        93 9.57271E-05-2.87191E-05-2.87246E-05 2.06113E-09 3.62063E-19 4.56694E-19
 -1        94 9.54733E-05-2.86428E-05-2.86464E-05 9.81640E-10-7.84129E-19 1.03651E-18
 -1        95 9.53046E-05-2.85920E-05-2.85942E-05-4.59492E-10 4.43578E-19 6.81828E-19
 -1        96 9.52076E-05-2.85628E-05-2.85641E-05-7.45619E-10-4.74711E-20-1.94020E-18
 -1        97 9.51525E-05-2.85462E-05-2.85469E-05-9.48156E-10 1.65647E-19-8.70181E-19
 -1        98 9.51254E-05-2.85379E-05-2.85383E-05-1.00918E-09-8.62472E-20-3.65407E-19
 -1        99 9.51165E-05-2.85352E-05-2.85353E-05-9.81974E-10-4.60288E-20-2.30715E-19
 -1       100 9.51190E-05-2.85359E-05-2.85358E-05-9.04982E-10-1.08043E-19-2.39886E-18
 -1       101 9.51280E-05-2.85385E-05-2.85384E-05-8.03214E-10-5.02698E-19 5.09349E-19
 -1       102 9.51404E-05-2.85422E-05-2.85420E-05-6.92751E-10-3.67973E-20 2.36403E-18
 -1       103 9.51540E-05-2.85463E-05-2.85461E-05-5.83653E-10 4.84173E-20-3.43900E-19
 -1       104 9.51675E-05-2.85503E-05-2.85501E-05-4.81894E-10 1.23338E-19-2.16379E-19
 -1       105 9.51800E-05-2.85541E-05-2.85539E-05-3.90677E-10-2.51641E-19 3.87595E-19
 -1       106 9.51912E-05-2.85574E-05-2.85572E-05-3.11350E-10 4.24385E-19-1.29085E-18
 -1       107 9.52009E-05-2.85603E-05-2.85602E-05-2.44259E-10-3.52603E-19-8.16118E-19
 -1       108 9.52091E-05-2.85627E-05-2.85626E-05-1.92990E-10 4.51673E-19-2.43282E-18
 -1       109 9.52160E-05-2.85648E-05-2.85647E-05-1.39300E-10 8.91232E-20-2.79764E-18
 -1       110 9.52214E-05-2.85664E-05-2.85663E-05-1.04316E-10-4.09862E-19-5.42432E-18
 -1       111 9.52256E-05-2.85677E-05-2.85676E-05-7.61757E-11 2.99809E-19-3.29057E-18
 -1       112 9.52289E-05-2.85687E-05-2.85686E-05-5.43076E-11-1.81918E-19-3.07251E-18
 -1       113 9.52315E-05-2.85694E-05-2.85694E-05-3.77432E-11 8.84580E-19-6.95347E-18
 -1       114 9.52333E-05-2.85700E-05-2.85700E-05-2.54481E-11-9.18817E-19-2.85375E-18
 -1       115 9.52347E-05-2.85704E-05-2.85704E-05-1.65271E-11 6.86007E-19 3.49542E-18
 -1       116 9.52357E-05-2.85707E-05-2.85707E-05-1.01781E-11 2.04898E-19 1.39527E-18
 -1       117 9.52364E-05-2.85709E-05-2.85709E-05-5.69665E-12-9.14008E-19 2.48210E-18
 -1       118 9.52369E-05-2.85711E-05-2.85711E-05-2.32070E-12 6.40700E-19 4.93556E-18
 -1       119 9.52371E-05-2.85711E-05-2.85711E-05 8.53158E-13-2.02632E-19 5.54445E-20
 -1       120 9.52372E-05-2.85712E-05-2.85712E-05 7.49214E-12-6.98294E-19-2.22912E-18
 -1       121 9.52372E-05-2.85712E-05-2.85712E-05 3.49715E-11 6.75936E-19 2.35267E-18
 -1       122 9.52371E-05-2.85711E-05-2.85712E-05 2.05104E-11-2.24676E-18-2.57139E-18
 -1       123 9.52371E-05-2.85711E-05-2.85712E-05 9.39342E-12-6.25983E-18 8.41991E-19
 -1       124 9.52371E-05-2.85712E-05-2.85711E-05-2.40764E-12-2.94577E-18 1.37565E-18
 -1       125 9.52372E-05-2.85714E-05-2.85711E-05-9.33761E-12-2.96227E-18 3.42310E-19
 -1       126 9.52373E-05-2.85717E-05-2.85710E-05-1.20912E-11-4.52897E-18-1.70592E-18
 -1       127 9.52374E-05-2.85719E-05-2.85709E-05-1.14059E-11-6.75998E-18 1.57949E-18
 -1       128 9.52374E-05-2.85722E-05-2.85708E-05-7.96219E-12-1.08788E-18-1.31298E-19
 -1       129 9.52375E-05-2.85723E-05-2.85708E-05-2.82876E-12-3.01282E-18 1.55995E-18
 -1       130 9.52375E-05-2.85723E-05-2.85708E-05 2.87128E-12-8.03262E-18 7.95983E-21
 -1       131 9.52374E-05-2.85722E-05-2.85708E-05 7.98550E-12-8.28843E-18 7.88733E-19
 -1       132 9.52374E-05-2.85719E-05-2.85709E-05 1.14824E-11-1.29158E-17-1.83831E-18
 -1       133 9.52373E-05-2.85717E-05-2.85710E-05 1.20899E-11-1.47310E-17 2.93830E-18
 -1       134 9.52372E-05-2.85714E-05-2.85711E-05 9.21961E-12-9.15510E-18-8.44655E-19
 -1       135 9.52371E-05-2.85712E-05-2.85711E-05 2.88115E-12-7.18035E-18 1.97906E-18
 -1       136 9.52371E-05-2.85711E-05-2.85712E-05-1.33193E-11-3.35297E-18-9.36988E-19
 -1       137 9.52371E-05-2.85711E-05-2.85712E-05-3.61187E-11-3.06013E-18-7.67158E-19
 -1       138 1.84951E-05-6.12071E-05 7.63868E-06-1.71110E-05 3.11549E-17 7.82516E-18
 -1       139 5.32424E-06-1.08139E-05-5.48899E-06-3.74733E-06 3.72127E-17 1.86542E-17
 -1       140 2.35148E-05 3.05315E-05-2.60278E-05 4.94373E-05 3.53611E-17 2.84222E-17
 -1       141 8.79721E-05 2.84003E-05-4.68176E-05 1.05160E-04 2.60145E-17 3.21762E-17
 -1       142 1.89070E-04-1.55922E-05-6.51590E-05 1.29012E-04 1.38052E-17 2.72397E-17
 -1       143 2.85420E-04-7.23708E-05-7.72580E-05 9.57639E-05 3.97888E-18 1.16368E-17
 -1       144 3.20162E-04-9.87762E-05-7.95245E-05 1.36532E-05 3.84924E-19-1.00328E-17
 -1       145 2.56402E-04-7.00293E-05-6.89873E-05-6.63964E-05 6.99538E-18-3.08409E-17
 -1       146 1.37416E-04-1.59009E-05-4.98401E-05-8.42007E-05 1.92696E-17-3.99554E-17
 -1       147 4.06716E-05 9.61605E-06-2.75341E-05-4.27614E-05 3.00697E-17-3.68891E-17
 -1       148 2.92374E-06-1.16594E-06-1.02682E-05 1.02144E-06 3.27836E-17-2.57684E-17
 -1       149 3.38403E-06-2.06365E-05-8.74782E-07 1.46967E-05 2.75295E-17-1.34295E-17
 -1       150 6.37413E-06-2.32911E-05 2.37380E-06 9.08468E-06 1.60524E-17-3.80395E-18
 -1       151 4.96186E-06-1.37841E-05 8.31842E-07 5.33633E-07 4.02319E-18-2.97315E-19
 -1       152 8.30941E-07 7.57039E-07-3.96115E-06 2.91199E-07-8.72169E-18-2.29236E-18
 -1       153-2.35332E-07 1.71835E-05-1.17130E-05 1.11817E-05-1.89549E-17-9.37099E-18
 -1       154 1.65302E-05 2.93803E-05-2.37382E-05 4.05806E-05-2.44617E-17-1.96213E-17
 -1       155 6.12629E-05 2.32911E-05-3.75472E-05 7.55912E-05-2.26746E-17-2.74434E-17
 -1       156 1.37527E-04-9.32851E-06-5.19596E-05 9.47727E-05-1.49131E-17-2.87364E-17
 -1       157 2.21572E-04-5.47873E-05-6.42304E-05 7.43482E-05-6.18249E-18-2.11261E-17
 -1       158 2.73158E-04-8.36324E-05-7.11039E-05 1.34183E-05-8.58574E-19-6.49833E-18
 -1       159 2.62323E-04-7.31796E-05-7.04637E-05-6.24581E-05-2.61052E-18 1.08219E-17
 -1       160 1.94933E-04-2.95359E-05-6.22510E-05-1.09115E-04-9.37570E-18 2.23786E-17
 -1       161 3.87542E-05 3.45046E-05-3.10127E-05-6.80229E-05-2.39532E-17 2.28830E-17
 -1       162 8.16870E-06 1.80507E-05-1.50256E-05-2.24623E-05-2.26399E-17 1.55771E-17
 -1       163 7.11789E-06-2.18055E-05-1.12174E-06 9.40305E-06-1.49730E-17 6.46561E-18
 -1       164 2.03267E-05-6.42431E-05 8.73356E-06 1.52275E-05-1.38109E-18 3.85056E-19
 -1       165 9.73540E-05-1.12832E-05-3.72595E-05-2.70818E-05-4.62166E-18-3.11729E-18
 -1       166 9.59916E-05-7.66355E-06-3.80402E-05-2.41044E-05-3.82117E-18-7.75538E-18
 -1       167 9.85566E-05-6.98114E-06-3.93708E-05-2.04802E-05-2.30244E-18-9.55399E-18
 -1       168 1.03032E-04-8.09889E-06-4.07824E-05-1.68005E-05-6.61122E-19-9.69327E-18
 -1       169 1.08229E-04-1.11894E-05-4.16596E-05-1.20906E-05 1.12495E-18-8.73487E-18
 -1       170 1.11562E-04-1.59824E-05-4.09771E-05-4.68710E-06 3.17282E-18-6.83455E-18
 -1       171 1.07481E-04-1.93251E-05-3.76939E-05 6.16300E-06 5.62226E-18-4.95816E-18
 -1       172 8.80049E-05-1.56422E-05-3.08038E-05 1.97074E-05 7.87291E-18-3.73764E-18
 -1       173 5.01023E-05-1.46427E-06-2.06092E-05 2.78057E-05 8.29923E-18-3.91245E-18
 -1       174 2.30258E-06 1.49767E-05-7.49422E-06 1.20557E-05 2.22157E-18-4.86327E-18
 -1       175 9.63012E-06 1.26665E-05-9.62578E-06 2.93336E-07-8.40998E-19-5.83473E-18
 -1       176 3.81574E-05 2.66243E-06-1.73655E-05-6.79808E-06-2.82009E-18-5.90948E-18
 -1       177 7.80481E-05-1.04430E-05-2.86695E-05-2.92086E-06-2.83862E-18-4.36926E-18
 -1       178 1.15229E-04-1.83725E-05-4.12866E-05 1.12652E-05-1.17632E-18-9.43886E-19
 -1       179 1.46876E-04-2.23346E-05-5.32307E-05 2.91175E-05 7.02826E-19 6.06131E-18
 -1       180 1.78842E-04-4.66327E-05-5.78296E-05 2.92929E-05 1.23008E-18 1.41963E-17
 -1       181 1.03404E-04-2.63136E-05-3.30134E-05-1.66953E-05-4.90731E-18 3.72758E-18
 -1       182 9.55407E-05-2.73718E-05-2.92515E-05-7.29000E-06-4.02128E-18 1.70433E-18
 -1       183 9.06291E-05-2.63445E-05-2.74935E-05-2.68786E-06-2.82369E-18-9.56949E-20
 -1       184 8.88316E-05-2.60644E-05-2.68540E-05 1.91465E-07-1.85417E-18-1.74264E-18
 -1       185 8.89471E-05-2.62937E-05-2.68243E-05 2.13610E-06-1.32057E-18-2.95744E-18
 -1       186 9.03355E-05-2.69234E-05-2.71627E-05 3.27417E-06-1.09239E-18-3.94195E-18
 -1       187 9.23597E-05-2.77338E-05-2.76911E-05 3.61617E-06-7.89308E-19-4.55388E-18
 -1       188 9.44680E-05-2.85140E-05-2.82656E-05 3.29995E-06-5.70106E-19-4.72584E-18
 -1       189 9.62683E-05-2.91253E-05-2.87788E-05 2.57253E-06-5.54970E-19-4.58374E-18
 -1       190 9.75603E-05-2.95162E-05-2.91669E-05 1.69822E-06-2.90140E-19-4.42119E-18
 -1       191 9.83078E-05-2.97004E-05-2.94089E-05 8.80399E-07 2.95279E-20-4.94235E-18
 -1       192 9.85819E-05-2.97249E-05-2.95153E-05 2.32137E-07-1.13903E-21-5.20760E-18
 -1       193 9.85026E-05-2.96441E-05-2.95148E-05-2.12721E-07-3.91922E-19-4.93822E-18
 -1       194 9.81960E-05-2.95056E-05-2.94414E-05-4.71378E-07-6.65578E-19-5.03610E-18
 -1       195 9.77703E-05-2.93446E-05-2.93267E-05-5.84620E-07-1.43384E-19-4.84020E-18
 -1       196 9.73069E-05-2.91846E-05-2.91957E-05-5.97713E-07-3.21396E-19-4.91696E-18
 -1       197 9.68598E-05-2.90391E-05-2.90658E-05-5.50195E-07-2.93785E-19-5.54427E-18
 -1       198 9.64602E-05-2.89147E-05-2.89474E-05-4.72144E-07-5.34514E-19-5.92999E-18
 -1       199 9.61225E-05-2.88132E-05-2.88461E-05-3.84126E-07-5.50217E-19-6.47599E-18
 -1       200 9.58497E-05-2.87335E-05-2.87633E-05-2.98815E-07 6.84714E-19-6.98722E-18
 -1       201 9.56378E-05-2.86731E-05-2.86983E-05-2.23035E-07 3.69498E-19-5.71299E-18
 -1       202 9.54791E-05-2.86291E-05-2.86493E-05-1.59644E-07-1.53797E-19-5.72542E-18
 -1       203 9.53647E-05-2.85981E-05-2.86137E-05-1.09030E-07 6.16918E-19-4.77136E-18
 -1       204 9.52857E-05-2.85773E-05-2.85888E-05-7.01996E-08 5.49665E-19-4.01858E-18
 -1       205 9.52338E-05-2.85641E-05-2.85724E-05-4.15009E-08-3.46196E-20-3.83144E-18
 -1       206 9.52021E-05-2.85565E-05-2.85621E-05-2.10885E-08-1.22424E-18-3.40572E-18
 -1       207 9.51849E-05-2.85528E-05-2.85564E-05-7.18523E-09-9.14148E-19-4.88486E-18
 -1       208 9.51777E-05-2.85517E-05-2.85539E-05 1.78254E-09 2.12061E-19-5.07976E-18
 -1       209 9.51772E-05-2.85523E-05-2.85534E-05 7.13243E-09-2.85085E-19-4.44718E-18
 -1       210 9.51807E-05-2.85539E-05-2.85543E-05 9.92224E-09-1.26280E-18-4.08902E-18
 -1       211 9.51864E-05-2.85559E-05-2.85559E-05 1.09720E-08 4.08292E-19-3.04478E-18
 -1       212 9.51931E-05-2.85581E-05-2.85578E-05 1.08977E-08 1.06525E-18-3.40711E-18
 -1       213 9.52000E-05-2.85603E-05-2.85599E-05 1.01481E-08 6.61968E-19-3.71414E-18
 -1       214 9.52066E-05-2.85623E-05-2.85618E-05 9.03939E-09 1.14033E-19-3.95518E-18
 -1       215 9.52125E-05-2.85641E-05-2.85636E-05 7.78645E-09 1.01301E-19-3.76275E-18
 -1       216 9.52176E-05-2.85656E-05-2.85652E-05 6.52823E-09 8.87955E-19-4.33882E-18
 -1       217 9.52220E-05-2.85669E-05-2.85665E-05 5.34879E-09 4.32955E-20-5.14049E-18
 -1       218 9.52256E-05-2.85680E-05-2.85676E-05 4.29350E-09-9.01689E-20-2.37586E-18
 -1       219 9.52285E-05-2.85688E-05-2.85685E-05 3.38142E-09-2.30289E-18-3.64564E-18
 -1       220 9.52309E-05-2.85694E-05-2.85692E-05 2.61450E-09-6.66533E-19-3.19645E-18
 -1       221 9.52327E-05-2.85700E-05-2.85697E-05 1.98415E-09 2.22514E-19-3.33489E-18
 -1       222 9.52341E-05-2.85703E-05-2.85702E-05 1.47577E-09 1.77086E-18-2.24227E-18
 -1       223 9.52351E-05-2.85706E-05-2.85705E-05 1.07183E-09 1.16624E-18 6.08576E-19
 -1       224 9.52359E-05-2.85708E-05-2.85707E-05 7.53740E-10 1.97191E-18 1.36078E-18
 -1       225 9.52364E-05-2.85710E-05-2.85709E-05 5.03075E-10 1.54327E-18 2.25462E-18
 -1       226 9.52368E-05-2.85711E-05-2.85710E-05 3.02573E-10 6.91443E-19 7.33244E-19
 -1       227 9.52370E-05-2.85711E-05-2.85711E-05 1.39215E-10 6.35985E-19 5.48355E-19
 -1       228 9.52371E-05-2.85712E-05-2.85711E-05 1.10071E-11-8.56932E-19 6.58723E-19
 -1       229 1.66178E-04-5.07128E-05-4.97621E-05 2.04309E-05 1.31348E-18 1.51143E-17
 -1       230 1.49765E-04-4.55576E-05-4.47970E-05 2.22921E-05 1.91615E-18 1.35831E-17
 -1       231 1.32868E-04-3.75602E-05-4.12417E-05 1.93223E-05 3.12587E-18 1.06501E-17
 -1       232 1.21927E-04-3.23110E-05-3.89779E-05 5.52950E-06 3.98211E-18 5.98107E-18
 -1       233 1.22430E-04-3.44771E-05-3.80536E-05-8.16927E-06 2.77046E-18 1.74105E-18
 -1       234 1.28185E-04-3.91762E-05-3.81802E-05-1.07959E-05 1.63129E-18-7.73209E-19
 -1       235 1.31505E-04-4.12420E-05-3.85693E-05-5.16265E-06 4.90333E-19-1.82391E-18
 -1       236 1.29964E-04-4.02386E-05-3.83768E-05 1.55124E-06-6.74847E-20-1.36657E-18
 -1       237 1.25340E-04-3.80886E-05-3.73768E-05 5.09926E-06-3.59420E-19-4.02552E-19
 -1       238 1.19647E-04-3.59019E-05-3.59031E-05 6.04186E-06-6.10707E-19 3.51916E-20
 -1       239 1.14124E-04-3.40401E-05-3.43371E-05 5.55249E-06 1.06155E-19 1.00747E-19
 -1       240 1.09381E-04-3.25734E-05-3.29267E-05 4.53649E-06 9.43423E-19 4.78023E-19
 -1       241 1.05580E-04-3.14581E-05-3.17697E-05 3.47903E-06 2.92081E-19 7.64580E-20
 -1       242 1.02663E-04-3.06270E-05-3.08718E-05 2.57230E-06-6.86467E-19-9.06856E-19
 -1       243 1.00484E-04-3.00163E-05-3.01983E-05 1.85998E-06-3.04378E-20-7.42050E-19
 -1       244 9.88883E-05-2.95724E-05-2.97041E-05 1.32529E-06 3.48715E-20-4.47514E-19
 -1       245 9.77346E-05-2.92529E-05-2.93468E-05 9.33841E-07 1.99905E-20-3.03547E-19
 -1       246 9.69099E-05-2.90250E-05-2.90914E-05 6.51293E-07 5.94331E-19-5.79049E-19
 -1       247 9.63269E-05-2.88641E-05-2.89109E-05 4.49075E-07-7.45215E-19-5.98797E-19
 -1       248 9.59197E-05-2.87520E-05-2.87848E-05 3.05220E-07 4.47826E-19 1.76505E-19
 -1       249 9.56390E-05-2.86749E-05-2.86979E-05 2.03388E-07-3.13676E-19-1.55085E-19
 -1       250 9.54423E-05-2.86213E-05-2.86368E-05 1.29048E-07 5.82384E-19-4.63245E-19
 -1       251 9.53208E-05-2.85884E-05-2.85990E-05 8.00583E-08 3.77088E-19-3.26767E-19
 -1       252 9.52439E-05-2.85679E-05-2.85750E-05 4.64838E-08 2.24213E-19-5.60712E-19
 -1       253 9.51981E-05-2.85560E-05-2.85606E-05 2.38540E-08-4.92000E-19-1.46480E-18
 -1       254 9.51735E-05-2.85499E-05-2.85528E-05 9.00978E-09-6.69592E-20-1.18255E-18
 -1       255 9.51630E-05-2.85476E-05-2.85493E-05-3.45874E-10 2.32727E-19 4.44182E-19
 -1       256 9.51616E-05-2.85478E-05-2.85487E-05-5.88202E-09-1.51114E-18 7.91741E-19
 -1       257 9.51655E-05-2.85494E-05-2.85497E-05-8.80900E-09-3.82103E-20-1.73583E-19
 -1       258 9.51725E-05-2.85517E-05-2.85517E-05-1.00000E-08 1.71034E-18-1.10118E-18
 -1       259 9.51809E-05-2.85544E-05-2.85542E-05-1.00795E-08-1.03604E-18-1.21787E-18
 -1       260 9.51895E-05-2.85570E-05-2.85567E-05-9.48814E-09-3.13657E-19-4.88174E-19
 -1       261 9.51977E-05-2.85596E-05-2.85592E-05-8.53104E-09 1.44857E-18-1.60924E-18
 -1       262 9.52052E-05-2.85618E-05-2.85614E-05-7.41412E-09-7.53186E-19-3.33108E-18
 -1       263 9.52117E-05-2.85638E-05-2.85634E-05-6.27182E-09 9.33554E-19-1.87269E-18
 -1       264 9.52175E-05-2.85655E-05-2.85652E-05-5.13548E-09 5.16503E-19-2.72696E-18
 -1       265 9.52221E-05-2.85668E-05-2.85666E-05-4.15529E-09 4.33359E-19-2.60792E-18
 -1       266 9.52258E-05-2.85679E-05-2.85677E-05-3.30182E-09-3.79400E-19-3.07544E-18
 -1       267 9.52288E-05-2.85688E-05-2.85686E-05-2.57787E-09 1.78275E-19-2.86778E-18
 -1       268 9.52312E-05-2.85695E-05-2.85693E-05-1.97757E-09 1.16331E-18-4.20227E-18
 -1       269 9.52330E-05-2.85700E-05-2.85698E-05-1.48958E-09-3.79748E-18-1.50724E-18
 -1       270 9.52343E-05-2.85704E-05-2.85703E-05-1.09946E-09-1.35317E-18 1.60328E-19
 -1       271 9.52353E-05-2.85706E-05-2.85706E-05-7.91535E-10 2.41370E-19 1.29456E-18
 -1       272 9.52360E-05-2.85709E-05-2.85708E-05-5.49978E-10-1.13738E-18 9.45138E-19
 -1       273 9.52365E-05-2.85710E-05-2.85709E-05-3.59797E-10-1.67996E-19-1.84233E-19
 -1       274 9.52369E-05-2.85711E-05-2.85710E-05-2.06911E-10 2.01034E-18-9.43907E-19
 -1       275 9.52370E-05-2.85711E-05-2.85711E-05-8.17427E-11 2.29402E-19-2.80147E-18
 -1       276 9.52371E-05-2.85712E-05-2.85711E-05 5.30982E-12-1.82669E-18-4.53225E-18
 -1       277 9.52371E-05-2.85712E-05-2.85711E-05-1.67479E-11-2.51408E-18-2.92988E-18
 -1       278 9.52371E-05-2.85713E-05-2.85711E-05-1.38230E-10-3.34527E-18 8.93245E-19
 -1       279 9.52372E-05-2.85715E-05-2.85710E-05-2.43053E-10-2.76861E-18 3.09633E-19
 -1       280 9.52373E-05-2.85717E-05-2.85710E-05-2.97489E-10-1.56267E-18-1.82661E-19
 -1       281 9.52374E-05-2.85719E-05-2.85709E-05-2.92821E-10-1.33375E-18-1.39894E-18
 -1       282 9.52375E-05-2.85721E-05-2.85709E-05-2.31637E-10-2.46541E-18 2.21832E-18
 -1       283 9.52375E-05-2.85722E-05-2.85708E-05-1.27082E-10-1.42545E-18-4.33788E-19
 -1       284 9.52375E-05-2.85723E-05-2.85708E-05 6.85655E-13-1.21839E-18-1.95641E-18
 -1       285 9.52375E-05-2.85722E-05-2.85708E-05 1.28317E-10-1.68585E-18-1.57497E-18
 -1       286 9.52375E-05-2.85721E-05-2.85709E-05 2.32514E-10-4.07856E-18-2.80735E-18
 -1       287 9.52374E-05-2.85719E-05-2.85709E-05 2.92633E-10-3.19840E-18 7.68279E-20
 -1       288 9.52373E-05-2.85717E-05-2.85710E-05 2.97365E-10-2.13819E-18 2.99333E-18
 -1       289 9.52372E-05-2.85715E-05-2.85710E-05 2.41445E-10-2.12330E-18 1.35495E-18
 -1       290 9.52372E-05-2.85713E-05-2.85711E-05 1.39301E-10-1.80120E-18 3.10098E-18
 -1       291 9.52371E-05-2.85712E-05-2.85711E-05 7.63869E-11-1.58932E-18-1.85633E-19
 -1       292 1.00955E-05-2.48590E-05 3.80347E-06 1.04797E-05 8.59903E-18 9.24282E-18
 -1       293 2.85494E-05-2.66740E-05-3.44437E-06 2.88092E-05 1.33560E-17 9.36652E-18
 -1       294 6.94535E-05-2.97508E-05-1.83298E-05 4.66814E-05 1.20863E-17 9.41276E-18
 -1       295 1.08814E-04-2.51309E-05-3.59027E-05 5.48819E-05 1.44493E-17 1.17791E-17
 -1       296 1.56925E-04-2.91111E-05-5.28673E-05 5.50557E-05 1.25520E-17 9.73516E-18
 -1       297 1.96846E-04-3.39216E-05-6.61065E-05 4.51717E-05 1.09300E-17 5.34626E-18
 -1       298 2.14405E-04-3.61415E-05-7.20913E-05 2.74538E-05 1.00419E-17-1.48834E-18
 -1       299 2.04980E-04-3.77901E-05-6.83621E-05 1.33844E-05 1.02991E-17-6.26000E-18
 -1       300 1.83641E-04-4.61923E-05-5.69429E-05-1.01317E-05 1.05042E-17-1.37908E-17
 -1       301 1.32802E-04-4.35380E-05-3.90664E-05-2.00600E-05 1.13046E-17-1.44802E-17
 -1       302 7.69063E-05-2.92329E-05-2.24165E-05-2.42163E-05 9.69027E-18-1.30733E-17
 -1       303 2.41267E-05-8.01250E-06-9.51803E-06-1.43405E-05 1.11046E-17-1.28577E-17
 -1       304 1.58747E-06 4.03844E-06-3.68634E-06-1.29385E-06 6.99300E-18-9.43468E-18
 -1       305-3.30826E-06 3.74119E-06-1.21190E-06 7.75825E-06 5.94834E-18-6.41093E-18
 -1       306 1.45462E-07 8.65224E-06-4.30678E-06 1.27131E-05 2.84540E-18-5.79450E-18
 -1       307 9.85105E-06 1.09569E-05-1.00031E-05 2.09356E-05-1.02862E-18-6.31529E-18
 -1       308 3.90157E-05 4.45609E-06-1.97380E-05 3.61100E-05-2.28487E-18-7.45699E-18
 -1       309 7.69903E-05-6.26512E-06-3.12670E-05 4.50687E-05-6.52713E-18-9.71864E-18
 -1       310 1.20996E-04-1.86875E-05-4.37566E-05 4.49937E-05-8.55853E-18-1.12058E-17
 -1       311 1.60802E-04-2.90034E-05-5.51621E-05 2.91043E-05-8.50658E-18-9.37538E-18
 -1       312 1.85467E-04-3.23109E-05-6.32970E-05 7.91015E-06-8.18859E-18-6.34872E-18
 -1       313 1.88224E-04-2.90743E-05-6.55332E-05-1.47359E-05-8.09785E-18-2.60495E-18
 -1       314 1.80359E-04-2.86174E-05-6.21056E-05-3.74974E-05-7.43335E-18 2.83597E-18
 -1       315 1.48275E-04-2.33763E-05-5.15906E-05-4.86033E-05-7.62650E-18 5.82208E-18
 -1       316 1.09753E-04-1.94625E-05-3.79264E-05-5.37283E-05-7.29751E-18 8.20246E-18
 -1       317 7.44371E-05-1.96633E-05-2.39840E-05-4.84162E-05-5.88942E-18 8.43645E-18
 -1       318 4.43330E-05-2.25685E-05-1.10165E-05-3.81577E-05-3.39681E-18 8.38483E-18
 -1       319 2.22663E-05-2.68938E-05-6.87646E-07-2.46174E-05 5.65606E-19 7.94988E-18
 -1       320 9.81241E-06-2.83053E-05 4.94230E-06-1.02446E-05 5.25007E-18 7.39364E-18
 -1       321 1.38353E-05 1.20842E-05-1.09956E-05 2.21543E-05 5.79688E-18-4.44893E-18
 -1       322 1.01960E-04-1.85431E-05-3.59404E-05-2.63521E-05-5.06291E-18 9.27183E-19
 -1       323 1.00595E-04-1.39349E-05-3.72185E-05-1.95678E-05-3.85502E-18-6.36974E-18
 -1       324 9.98754E-05-1.80555E-05-3.51399E-05-2.04114E-05-5.14796E-18-4.15874E-18
 -1       325 1.09105E-04-1.43385E-05-4.07270E-05-1.64337E-05-5.36480E-19-6.52309E-18
 -1       326 1.15477E-04-1.86452E-05-4.16529E-05-1.38052E-05 1.11256E-18-4.95391E-18
 -1       327 1.20023E-04-2.48546E-05-4.09581E-05-7.50635E-06 2.99211E-18-2.45503E-18
 -1       328 7.82899E-05-1.45509E-05-2.73691E-05 2.97198E-05 6.13337E-18-3.03312E-18
 -1       329 1.79870E-05 6.99664E-06-1.06802E-05-7.24317E-06-2.15993E-19-7.40000E-18
 -1       330 1.47568E-04-4.94491E-05-4.20449E-05 2.76878E-05 5.89334E-18-1.59136E-19
 -1       331 1.13232E-04-3.29328E-05-3.44125E-05 5.64880E-06-2.12716E-18-6.36042E-19
 -1       332 1.45721E-04-4.09595E-05-4.51292E-05 2.49406E-05-1.42037E-19 4.61879E-18
 -1       333 1.60368E-04-4.76750E-05-4.85980E-05 2.81072E-05 1.10313E-18 9.17493E-18
 -1       334 1.56268E-04-4.94901E-05-4.59067E-05 3.17256E-05 2.35634E-18 9.11451E-18
 -1       335 9.84195E-05-2.49758E-05-3.14059E-05-9.21658E-06-4.19651E-18-2.55761E-18
 -1       336 9.62753E-05-2.58868E-05-3.01359E-05-3.35347E-06-3.23839E-18-2.90845E-18
 -1       337 9.51846E-05-2.63994E-05-2.94522E-05 8.53401E-07-2.32953E-18-3.35049E-18
 -1       338 9.53446E-05-2.73357E-05-2.91321E-05 3.68003E-06-1.66219E-18-3.56359E-18
 -1       339 9.62455E-05-2.84887E-05-2.90327E-05 5.06457E-06-1.25719E-18-3.86082E-18
 -1       340 9.73640E-05-2.95476E-05-2.90643E-05 5.15800E-06-6.08101E-19-3.85402E-18
 -1       341 9.83000E-05-3.02718E-05-2.91592E-05 4.33663E-06-2.90541E-19-3.80573E-18
 -1       342 9.88629E-05-3.05922E-05-2.92653E-05 3.06401E-06-1.67446E-19-3.56591E-18
 -1       343 9.90375E-05-3.05775E-05-2.93468E-05 1.73608E-06-4.79645E-19-3.56523E-18
 -1       344 9.89037E-05-3.03524E-05-2.93852E-05 6.03526E-07-2.57242E-19-3.87842E-18
 -1       345 9.85686E-05-3.00340E-05-2.93766E-05-2.26461E-07-3.97409E-20-4.03200E-18
 -1       346 9.81284E-05-2.97045E-05-2.93275E-05-7.48649E-07-2.97537E-20-3.46914E-18
 -1       347 9.76549E-05-2.94093E-05-2.92498E-05-1.01268E-06-4.22825E-19-2.88652E-18
 -1       348 9.71956E-05-2.91665E-05-2.91559E-05-1.08715E-06-1.39077E-19-3.16664E-18
 -1       349 9.67784E-05-2.89781E-05-2.90571E-05-1.03822E-06-5.36420E-19-3.53395E-18
 -1       350 9.64169E-05-2.88381E-05-2.89618E-05-9.19851E-07-8.42020E-19-3.78163E-18
 -1       351 9.61150E-05-2.87376E-05-2.88753E-05-7.71368E-07-5.46147E-19-3.13612E-18
 -1       352 9.58707E-05-2.86676E-05-2.88005E-05-6.18715E-07-1.44209E-19-2.58498E-18
 -1       353 9.56786E-05-2.86205E-05-2.87384E-05-4.77244E-07 3.48473E-19-3.49449E-18
 -1       354 9.55316E-05-2.85900E-05-2.86886E-05-3.54658E-07 2.69981E-19-3.88400E-18
 -1       355 9.54222E-05-2.85710E-05-2.86500E-05-2.53583E-07 6.56488E-19-2.84700E-18
 -1       356 9.53431E-05-2.85601E-05-2.86209E-05-1.73546E-07 1.17943E-18-2.86590E-18
 -1       357 9.52878E-05-2.85546E-05-2.85996E-05-1.12398E-07 4.27215E-19-2.58654E-18
 -1       358 9.52507E-05-2.85525E-05-2.85847E-05-6.72604E-08 3.79457E-20-2.30026E-18
 -1       359 9.52272E-05-2.85526E-05-2.85747E-05-3.51146E-08-1.42490E-18-1.61991E-18
 -1       360 9.52135E-05-2.85539E-05-2.85683E-05-1.31359E-08-6.67693E-19-2.88901E-19
 -1       361 9.52066E-05-2.85558E-05-2.85646E-05 1.14104E-09 3.67510E-19-9.98061E-19
 -1       362 9.52044E-05-2.85580E-05-2.85627E-05 9.76578E-09-2.96268E-19-8.75761E-19
 -1       363 9.52051E-05-2.85602E-05-2.85621E-05 1.43785E-08-3.87247E-19-1.25427E-19
 -1       364 9.52076E-05-2.85622E-05-2.85623E-05 1.62503E-08 6.52680E-19-5.65795E-19
 -1       365 9.52110E-05-2.85640E-05-2.85630E-05 1.63370E-08 9.97012E-19 1.06326E-19
 -1       366 9.52147E-05-2.85655E-05-2.85639E-05 1.53372E-08-2.43520E-19-2.73802E-19
 -1       367 9.52184E-05-2.85668E-05-2.85650E-05 1.37454E-08-3.51683E-19-1.44021E-19
 -1       368 9.52218E-05-2.85679E-05-2.85660E-05 1.18995E-08 2.46357E-19-1.04576E-18
 -1       369 9.52249E-05-2.85687E-05-2.85669E-05 1.00201E-08-2.62324E-19-1.64594E-18
 -1       370 9.52275E-05-2.85694E-05-2.85678E-05 8.24226E-09 9.22478E-19-1.62080E-18
 -1       371 9.52297E-05-2.85699E-05-2.85685E-05 6.64078E-09-5.57431E-19-9.24460E-19
 -1       372 9.52315E-05-2.85703E-05-2.85691E-05 5.24892E-09-4.67645E-19 1.50880E-18
 -1       373 9.52330E-05-2.85706E-05-2.85696E-05 4.07272E-09-4.32077E-19 1.50407E-18
 -1       374 9.52341E-05-2.85708E-05-2.85700E-05 3.10124E-09 1.88208E-18 2.30356E-18
 -1       375 9.52350E-05-2.85709E-05-2.85703E-05 2.31370E-09 2.91200E-18 2.20224E-18
 -1       376 9.52357E-05-2.85711E-05-2.85706E-05 1.68436E-09 1.87144E-18 4.17772E-18
 -1       377 9.52362E-05-2.85711E-05-2.85707E-05 1.18589E-09 1.66372E-18 2.48570E-18
 -1       378 9.52366E-05-2.85712E-05-2.85709E-05 7.92214E-10-1.74089E-18 1.89200E-18
 -1       379 9.52368E-05-2.85712E-05-2.85710E-05 4.79913E-10-1.27869E-18-3.62127E-19
 -1       380 9.52370E-05-2.85712E-05-2.85710E-05 2.49435E-10-3.33938E-20-3.09742E-19
 -1       381 1.45331E-04-3.90922E-05-4.58941E-05 3.10857E-05 4.78166E-18 7.52948E-18
 -1       382 1.34320E-04-2.81929E-05-4.59489E-05 1.43382E-05 6.56260E-18 3.30294E-18
 -1       383 1.32639E-04-3.13824E-05-4.37917E-05-6.48752E-06 5.56882E-18-1.35910E-18
 -1       384 1.35342E-04-4.14652E-05-4.04695E-05-1.26400E-05 2.63302E-18-4.01047E-18
 -1       385 1.33897E-04-4.54036E-05-3.79847E-05-5.84471E-06 6.60074E-19-3.89286E-18
 -1       386 1.27692E-04-4.24771E-05-3.65558E-05 3.44027E-06-3.95055E-19-3.43649E-18
 -1       387 1.21022E-04-3.81408E-05-3.55472E-05 8.57208E-06-8.55146E-19-2.26500E-18
 -1       388 1.15230E-04-3.47620E-05-3.45033E-05 1.00317E-05-3.99115E-19-1.84374E-18
 -1       389 1.10536E-04-3.25717E-05-3.34167E-05 9.34779E-06-5.85135E-19-1.23868E-18
 -1       390 1.06818E-04-3.12349E-05-3.23869E-05 7.79017E-06 4.76095E-19-7.16238E-19
 -1       391 1.03901E-04-3.04040E-05-3.14889E-05 6.09892E-06 4.88617E-19-5.95268E-19
 -1       392 1.01638E-04-2.98598E-05-3.07516E-05 4.59881E-06 2.02730E-19-5.18135E-19
 -1       393 9.99041E-05-2.94845E-05-3.01707E-05 3.38630E-06-1.57191E-19-1.14272E-18
 -1       394 9.85933E-05-2.92159E-05-2.97258E-05 2.45389E-06-3.48557E-19-9.89821E-19
 -1       395 9.76143E-05-2.90203E-05-2.93918E-05 1.75703E-06 3.41461E-19-1.43288E-18
 -1       396 9.68916E-05-2.88772E-05-2.91449E-05 1.24492E-06-1.34615E-19-1.35397E-18
 -1       397 9.63640E-05-2.87731E-05-2.89645E-05 8.72534E-07 6.99079E-20-6.74056E-19
 -1       398 9.59837E-05-2.86982E-05-2.88344E-05 6.03710E-07-5.93877E-19-2.13296E-18
 -1       399 9.57128E-05-2.86452E-05-2.87417E-05 4.10954E-07 3.04398E-20-1.32655E-19
 -1       400 9.55158E-05-2.86075E-05-2.86739E-05 2.67763E-07 1.54409E-19-8.15574E-19
 -1       401 9.53888E-05-2.85838E-05-2.86300E-05 1.72480E-07 6.35970E-20-5.00044E-19
 -1       402 9.53040E-05-2.85687E-05-2.86003E-05 1.05916E-07 7.13691E-19-6.50243E-19
 -1       403 9.52495E-05-2.85598E-05-2.85809E-05 6.01767E-08 7.34419E-19-1.44171E-18
 -1       404 9.52164E-05-2.85551E-05-2.85689E-05 2.94213E-08-2.78295E-19-2.17103E-18
 -1       405 9.51981E-05-2.85533E-05-2.85619E-05 9.36595E-09-6.60946E-19-1.36429E-18
 -1       406 9.51897E-05-2.85534E-05-2.85583E-05-3.13231E-09-1.43828E-18-1.20230E-18
 -1       407 9.51878E-05-2.85545E-05-2.85570E-05-1.03750E-08 6.77855E-20-1.05426E-18
 -1       408 9.51898E-05-2.85563E-05-2.85572E-05-1.40399E-08 2.01276E-18-1.42666E-18
 -1       409 9.51940E-05-2.85583E-05-2.85582E-05-1.53408E-08-4.78998E-19-1.57424E-18
 -1       410 9.51994E-05-2.85603E-05-2.85596E-05-1.51457E-08 8.28474E-20-1.99563E-18
 -1       411 9.52050E-05-2.85622E-05-2.85612E-05-1.40661E-08 7.37889E-19-1.75018E-18
 -1       412 9.52104E-05-2.85640E-05-2.85628E-05-1.25232E-08 1.32752E-18-1.78703E-18
 -1       413 9.52154E-05-2.85655E-05-2.85643E-05-1.07995E-08-3.84289E-19-3.02258E-18
 -1       414 9.52200E-05-2.85668E-05-2.85657E-05-8.99086E-09 1.05846E-18-2.29008E-18
 -1       415 9.52238E-05-2.85678E-05-2.85668E-05-7.38240E-09-2.02652E-20-6.80353E-19
 -1       416 9.52269E-05-2.85687E-05-2.85678E-05-5.94390E-09 3.59284E-19-6.38371E-19
 -1       417 9.52294E-05-2.85693E-05-2.85686E-05-4.69925E-09 3.14232E-20-1.85557E-18
 -1       418 9.52314E-05-2.85698E-05-2.85693E-05-3.65008E-09 1.27371E-18-1.34914E-18
 -1       419 9.52330E-05-2.85702E-05-2.85698E-05-2.78480E-09-3.33000E-18-6.21095E-19
 -1       420 9.52342E-05-2.85705E-05-2.85702E-05-2.08418E-09-2.77468E-18-2.10704E-18
 -1       421 9.52352E-05-2.85708E-05-2.85705E-05-1.52521E-09-9.56802E-19-2.32333E-19
 -1       422 9.52359E-05-2.85709E-05-2.85707E-05-1.08337E-09-5.33915E-19 4.81987E-19
 -1       423 9.52364E-05-2.85710E-05-2.85709E-05-7.35055E-10 1.15316E-18-1.95251E-18
 -1       424 9.52367E-05-2.85711E-05-2.85710E-05-4.58625E-10 2.21372E-18-4.10103E-18
 -1       425 9.52369E-05-2.85712E-05-2.85710E-05-2.36798E-10 2.41023E-18-4.54518E-18
 -1       426 9.52373E-05-2.85717E-05-2.85710E-05-5.27927E-10-5.57915E-19 2.73119E-18
 -1       427 9.52371E-05-2.85715E-05-2.85710E-05-4.12240E-10-2.15168E-18 1.32883E-18
 -1       428 2.89012E-05-1.66173E-05-5.54984E-06 3.07369E-05 3.10565E-18 7.35701E-18
 -1       429 9.52371E-05-2.85713E-05-2.85710E-05-2.36727E-10-1.74634E-18-9.73345E-19
 -1       430 9.52374E-05-2.85720E-05-2.85709E-05-5.54270E-10 7.62499E-20-2.37215E-18
 -1       431 9.52375E-05-2.85722E-05-2.85709E-05-4.82520E-10-7.67324E-19 6.44178E-19
 -1       432 9.52376E-05-2.85723E-05-2.85708E-05-3.26592E-10-6.51589E-19 1.73456E-18
 -1       433 9.52377E-05-2.85724E-05-2.85708E-05-1.14519E-10-2.06373E-18-1.11273E-18
 -1       434 9.52377E-05-2.85724E-05-2.85708E-05 1.17079E-10-1.47633E-18-1.32202E-18
 -1       435 9.52376E-05-2.85723E-05-2.85708E-05 3.28720E-10-3.28215E-19-1.28641E-18
 -1       436 9.52375E-05-2.85722E-05-2.85709E-05 4.81823E-10 1.38463E-18-1.52573E-18
 -1       437 9.52374E-05-2.85720E-05-2.85709E-05 5.54018E-10 1.05174E-18 3.57722E-18
 -1       438 9.52373E-05-2.85717E-05-2.85710E-05 5.27839E-10 1.18191E-18 9.77620E-19
 -1       439 9.52371E-05-2.85715E-05-2.85710E-05 4.09303E-10 2.31465E-19 2.30424E-18
 -1       440 6.62827E-05-3.16917E-05-1.48475E-05 4.62669E-05 2.19667E-18 4.13556E-18
 -1       441 1.34994E-05-7.45627E-06-2.59437E-06-2.27044E-06 3.44313E-18 8.95621E-18
 -1       442 1.16001E-04-4.73961E-05-2.95061E-05 4.17173E-05 4.29414E-18 1.96025E-18
 -1       443 1.03879E-04-1.28492E-05-3.91022E-05-1.80053E-05-2.19470E-18-7.04424E-18
 -1       444 6.82176E-05-1.60080E-05-2.22171E-05-1.06917E-05-2.29874E-18-4.87076E-18
 -1       445 1.72111E-04-2.51233E-05-6.22528E-05 1.18225E-05 1.11990E-17-1.62344E-18
 -1       446 1.67596E-04-2.01323E-05-6.27512E-05 1.94147E-05 1.14815E-17-1.04765E-18
 -1       447 1.68206E-04-3.65039E-05-5.64352E-05 2.92836E-05 9.05150E-18 4.22775E-19
 -1       448 1.63323E-04-5.25182E-05-4.75564E-05 1.90663E-05 6.58203E-18-9.93146E-19
 -1       449 1.28183E-04-5.00033E-05-3.39058E-05-4.10354E-06 3.27188E-18-3.93659E-18
 -1       450 6.56924E-05-2.18691E-05-1.93690E-05-1.79771E-05 1.94511E-18-7.64180E-18
 -1       451 2.56385E-05-2.57685E-07-1.12650E-05-1.25541E-05 1.54255E-18-8.11405E-18
 -1       452-1.47402E-06 1.47096E-05-5.59916E-06 3.39964E-06 2.19638E-18-7.18109E-18
 -1       453 1.24881E-05 1.15693E-05-1.02138E-05 2.30362E-05 5.06743E-18-5.39576E-18
 -1       454 7.69948E-05-1.33695E-05-2.75760E-05 3.39922E-05 3.27982E-18-4.15133E-18
 -1       455 1.13411E-04-2.59818E-05-3.77327E-05 2.51050E-05-1.68242E-19-3.35700E-18
 -1       456 1.36057E-04-2.81005E-05-4.64606E-05 6.36308E-06-3.18791E-18-2.09207E-18
 -1       457 1.47716E-04-2.01521E-05-5.47129E-05-4.66672E-06-7.07479E-18-3.24869E-18
 -1       458 1.41185E-04-9.19224E-06-5.68376E-05-1.04486E-05-8.47245E-18-4.53210E-18
 -1       459 1.47284E-04-1.34329E-05-5.72886E-05-9.23988E-06-7.75575E-18-5.49677E-18
 -1       460 1.47631E-04-2.38224E-05-5.27976E-05-1.36388E-05-5.19078E-18-4.26513E-18
 -1       461 1.35202E-04-3.69553E-05-4.19786E-05-2.70451E-05-1.41214E-18-1.90678E-18
 -1       462 1.13398E-04-4.12924E-05-3.08623E-05-3.95637E-05 1.36288E-18 3.04191E-19
 -1       463 8.46793E-05-3.76347E-05-2.01841E-05-4.69050E-05 4.01822E-18 3.24030E-18
 -1       464 4.98825E-05-2.59656E-05-1.04268E-05-4.39510E-05 4.37365E-18 6.90999E-18
 -1       465 2.31368E-05-1.52169E-05-3.72184E-06-2.84210E-05 4.08995E-18 8.37610E-18
 -1       466 1.66032E-04-3.86813E-05-5.42139E-05 1.45505E-05 8.61591E-18-1.05117E-18
 -1       467 1.11356E-04-2.66750E-05-3.62960E-05 1.01595E-05 5.71231E-18-1.46716E-18
 -1       468 2.63963E-05-6.27656E-06-8.19021E-06 1.63605E-05 7.23710E-19 7.52737E-18
 -1       469 9.52370E-05-2.85712E-05-2.85711E-05-1.51159E-10-7.15904E-19-5.24474E-18
 -1       470-6.99534E-07 1.47613E-05-5.92981E-06 1.52170E-05 4.12937E-18-5.92071E-18
 -1       471 1.02344E-04-4.64771E-05-2.38602E-05 4.19074E-05-9.01084E-19-2.76874E-20
 -1       472 3.66238E-05 3.22960E-06-1.71060E-05 3.02386E-05 6.57647E-18-4.45502E-18
 -1       473 1.20461E-04-1.97131E-05-4.33851E-05-1.61082E-05-6.28798E-19-2.89264E-18
 -1       474 1.12426E-04-1.58703E-05-4.14832E-05-1.68747E-05-1.22409E-18-5.21029E-18
 -1       475 1.03458E-04-1.70754E-05-3.70547E-05-1.53935E-05-3.26025E-18-5.81800E-18
 -1       476 1.01607E-04-2.12992E-05-3.44015E-05-1.18749E-05-3.88924E-18-4.71865E-18
 -1       477 1.43806E-04-4.98523E-05-4.04482E-05 1.89829E-05 3.16632E-19 2.77099E-18
 -1       478 1.55232E-04-5.13861E-05-4.46753E-05 3.08409E-05 1.68648E-18 6.39089E-18
 -1       479 9.98325E-05-2.44147E-05-3.22993E-05-2.48865E-06-2.75922E-18-3.97965E-18
 -1       480 9.96698E-05-2.61641E-05-3.14939E-05 2.12864E-06-2.13907E-18-3.96843E-18
 -1       481 1.00229E-04-2.82717E-05-3.08349E-05 4.92752E-06-1.52990E-18-4.02016E-18
 -1       482 1.00979E-04-3.02547E-05-3.03091E-05 5.81019E-06-8.39834E-19-3.90596E-18
 -1       483 1.01420E-04-3.16176E-05-2.99164E-05 5.20614E-06-4.43447E-19-3.81405E-18
 -1       484 1.01350E-04-3.21801E-05-2.96467E-05 3.78010E-06-1.52139E-21-3.97437E-18
 -1       485 1.00831E-04-3.20667E-05-2.94736E-05 2.14262E-06-3.90946E-21-3.85004E-18
 -1       486 1.00050E-04-3.15426E-05-2.93636E-05 6.90746E-07-3.31463E-19-3.10290E-18
 -1       487 9.91906E-05-3.08609E-05-2.92866E-05-3.96639E-07-2.58699E-20-2.36110E-18
 -1       488 9.83748E-05-3.01953E-05-2.92215E-05-1.09317E-06 3.23341E-19-2.26340E-18
 -1       489 9.76653E-05-2.96352E-05-2.91568E-05-1.45389E-06 9.86474E-20-2.49030E-18
 -1       490 9.70808E-05-2.92083E-05-2.90886E-05-1.56319E-06-5.82078E-19-2.15674E-18
 -1       491 9.66155E-05-2.89074E-05-2.90178E-05-1.50494E-06-3.63741E-19-2.34612E-18
 -1       492 9.62534E-05-2.87098E-05-2.89471E-05-1.34909E-06-5.86287E-19-2.10159E-18
 -1       493 9.59761E-05-2.85896E-05-2.88796E-05-1.14776E-06-2.90110E-19-1.54758E-18
 -1       494 9.57661E-05-2.85234E-05-2.88179E-05-9.36366E-07-5.88917E-19-1.92023E-18
 -1       495 9.56088E-05-2.84928E-05-2.87636E-05-7.36702E-07-4.29181E-19-2.42712E-18
 -1       496 9.54921E-05-2.84841E-05-2.87174E-05-5.60448E-07 2.47991E-19-2.44469E-18
 -1       497 9.54067E-05-2.84878E-05-2.86793E-05-4.12337E-07 9.81650E-19-2.17594E-18
 -1       498 9.53451E-05-2.84976E-05-2.86487E-05-2.92681E-07 1.51057E-18-1.33864E-18
 -1       499 9.53013E-05-2.85098E-05-2.86248E-05-1.99248E-07 1.00353E-18-1.13644E-18
 -1       500 9.52710E-05-2.85220E-05-2.86066E-05-1.28559E-07 3.80334E-19-1.53104E-18
 -1       501 9.52506E-05-2.85331E-05-2.85931E-05-7.67354E-08-4.79855E-19-1.72229E-18
 -1       502 9.52375E-05-2.85426E-05-2.85835E-05-4.00032E-08 9.70742E-20-5.83737E-19
 -1       503 9.52295E-05-2.85504E-05-2.85768E-05-1.49699E-08-4.54488E-19 3.46146E-19
 -1       504 9.52252E-05-2.85565E-05-2.85723E-05 1.25755E-09-1.26746E-19 7.72145E-19
 -1       505 9.52233E-05-2.85612E-05-2.85695E-05 1.10498E-08-1.02990E-18 2.26896E-19
 -1       506 9.52231E-05-2.85647E-05-2.85679E-05 1.62865E-08 7.80756E-20-1.31668E-19
 -1       507 9.52238E-05-2.85672E-05-2.85671E-05 1.84156E-08 3.07052E-19-8.44845E-19
 -1       508 9.52251E-05-2.85690E-05-2.85669E-05 1.85222E-08 2.03144E-19-1.30424E-18
 -1       509 9.52266E-05-2.85702E-05-2.85671E-05 1.73973E-08-8.25781E-19-1.40544E-18
 -1       510 9.52282E-05-2.85710E-05-2.85674E-05 1.56006E-08-7.89596E-19-1.66733E-18
 -1       511 9.52298E-05-2.85715E-05-2.85678E-05 1.35141E-08-8.88681E-21-5.15848E-19
 -1       512 9.52312E-05-2.85717E-05-2.85683E-05 1.13877E-08 5.73403E-19-8.78892E-19
 -1       513 9.52324E-05-2.85718E-05-2.85688E-05 9.37433E-09-2.14232E-19-1.25335E-18
 -1       514 9.52334E-05-2.85719E-05-2.85692E-05 7.55897E-09 1.51387E-18-2.86988E-19
 -1       515 9.52343E-05-2.85718E-05-2.85696E-05 5.97960E-09 3.02828E-19 1.24910E-18
 -1       516 9.52350E-05-2.85718E-05-2.85700E-05 4.64336E-09 8.05830E-19 2.63995E-18
 -1       517 9.52356E-05-2.85717E-05-2.85702E-05 3.53814E-09 2.21685E-18 1.86604E-18
 -1       518 9.52360E-05-2.85716E-05-2.85705E-05 2.64080E-09 3.07044E-18 2.05781E-18
 -1       519 9.52364E-05-2.85716E-05-2.85706E-05 1.92276E-09-7.56525E-19 1.52677E-18
 -1       520 9.52366E-05-2.85715E-05-2.85708E-05 1.35425E-09 4.47418E-20-5.69978E-19
 -1       521 9.52368E-05-2.85715E-05-2.85709E-05 9.07362E-10-2.18132E-18-2.38935E-19
 -1       522 9.52371E-05-2.85717E-05-2.85709E-05-7.62293E-10-2.02880E-19 1.75826E-18
 -1       523 1.45260E-04-3.79592E-05-4.64981E-05-9.44760E-06 5.69614E-18-4.83725E-18
 -1       524 1.43116E-04-5.16858E-05-3.93799E-05-3.19277E-06 9.68218E-19-5.99697E-18
 -1       525 1.29536E-04-4.91405E-05-3.44681E-05 9.06021E-06-1.28481E-18-4.28143E-18
 -1       526 1.17163E-04-4.06973E-05-3.27743E-05 1.44859E-05-1.38632E-18-2.48451E-18
 -1       527 1.09130E-04-3.40651E-05-3.21745E-05 1.53703E-05-1.04897E-18-2.21461E-18
 -1       528 1.04468E-04-3.03097E-05-3.17818E-05 1.40303E-05-9.49778E-19-1.74227E-18
 -1       529 1.01836E-04-2.86359E-05-3.13664E-05 1.17667E-05-3.07804E-19-1.70883E-18
 -1       530 1.00214E-04-2.80652E-05-3.09135E-05 9.39307E-06-5.25946E-20-3.02792E-19
 -1       531 9.90880E-05-2.79798E-05-3.04669E-05 7.25784E-06 7.91292E-19 2.59579E-20
 -1       532 9.82283E-05-2.80657E-05-3.00626E-05 5.48308E-06 6.39866E-20-3.96776E-19
 -1       533 9.75408E-05-2.81858E-05-2.97178E-05 4.07526E-06-1.51152E-19-4.58233E-19
 -1       534 9.69852E-05-2.82910E-05-2.94360E-05 2.99078E-06 6.64685E-19-5.35190E-19
 -1       535 9.65397E-05-2.83699E-05-2.92124E-05 2.17112E-06 4.06952E-19-1.25797E-18
 -1       536 9.61881E-05-2.84251E-05-2.90389E-05 1.55952E-06-4.12716E-19-2.02847E-18
 -1       537 9.59156E-05-2.84627E-05-2.89067E-05 1.10739E-06 4.96343E-19-1.88381E-18
 -1       538 9.57079E-05-2.84880E-05-2.88073E-05 7.75591E-07-7.74284E-19-2.82783E-18
 -1       539 9.55468E-05-2.85066E-05-2.87307E-05 5.24031E-07-6.36590E-19-2.72753E-18
 -1       540 9.54358E-05-2.85193E-05-2.86779E-05 3.52411E-07 6.56573E-19-1.63214E-18
 -1       541 9.53565E-05-2.85290E-05-2.86399E-05 2.29764E-07 4.65963E-19-2.58147E-18
 -1       542 9.53012E-05-2.85367E-05-2.86131E-05 1.43176E-07 1.53315E-18-2.76313E-18
 -1       543 9.52641E-05-2.85430E-05-2.85945E-05 8.30615E-08-1.55406E-19-2.04671E-18
 -1       544 9.52401E-05-2.85484E-05-2.85820E-05 4.22329E-08-6.81832E-19-1.49697E-18
 -1       545 9.52256E-05-2.85529E-05-2.85739E-05 1.53241E-08-2.63548E-19-1.96036E-18
 -1       546 9.52176E-05-2.85567E-05-2.85689E-05-1.66148E-09-8.47808E-19-2.91905E-18
 -1       547 9.52141E-05-2.85598E-05-2.85661E-05-1.16872E-08 1.61959E-18-2.15685E-18
 -1       548 9.52135E-05-2.85624E-05-2.85647E-05-1.69359E-08 1.59917E-18-2.32976E-18
 -1       549 9.52146E-05-2.85645E-05-2.85643E-05-1.90004E-08 2.25635E-19-3.87312E-18
 -1       550 9.52168E-05-2.85662E-05-2.85645E-05-1.90281E-08 5.90507E-20-3.48019E-18
 -1       551 9.52194E-05-2.85676E-05-2.85651E-05-1.78328E-08 9.26757E-19-2.87229E-18
 -1       552 9.52221E-05-2.85686E-05-2.85658E-05-1.59779E-08 7.06305E-19-2.19106E-18
 -1       553 9.52248E-05-2.85694E-05-2.85666E-05-1.37369E-08 2.82996E-20-2.09863E-18
 -1       554 9.52272E-05-2.85700E-05-2.85674E-05-1.15724E-08-1.87841E-20-5.58830E-19
 -1       555 9.52292E-05-2.85704E-05-2.85681E-05-9.53268E-09 7.33765E-19-1.70502E-18
 -1       556 9.52310E-05-2.85707E-05-2.85687E-05-7.69697E-09 4.83000E-19-1.99429E-20
 -1       557 9.52324E-05-2.85710E-05-2.85692E-05-6.10061E-09 1.87771E-19-3.75227E-19
 -1       558 9.52336E-05-2.85711E-05-2.85697E-05-4.74952E-09-6.30137E-19 3.60816E-19
 -1       559 9.52346E-05-2.85712E-05-2.85700E-05-3.63113E-09-2.05237E-18-8.48266E-19
 -1       560 9.52353E-05-2.85712E-05-2.85703E-05-2.72228E-09-3.15704E-18-8.01353E-19
 -1       561 9.52359E-05-2.85713E-05-2.85705E-05-1.99523E-09 1.32122E-18-2.16852E-18
 -1       562 9.52363E-05-2.85713E-05-2.85707E-05-1.42182E-09 1.08815E-18-4.01521E-18
 -1       563 9.52366E-05-2.85713E-05-2.85708E-05-9.67600E-10 1.61593E-18-3.83525E-18
 -1       564 9.52369E-05-2.85713E-05-2.85709E-05-6.02682E-10 3.04041E-18-2.18974E-18
 -1       565 1.53317E-04-4.97082E-05-4.46162E-05 3.12782E-06 4.28698E-18-4.42543E-18
 -1       566 9.52376E-05-2.85723E-05-2.85708E-05-7.76463E-10 8.56433E-19-1.76900E-18
 -1       567 9.52374E-05-2.85720E-05-2.85709E-05-8.31734E-10-8.93429E-19 1.44548E-18
 -1       568 9.52378E-05-2.85725E-05-2.85708E-05-5.97580E-10 4.17414E-19 1.52338E-18
 -1       569 9.52379E-05-2.85727E-05-2.85708E-05-3.23374E-10-3.00449E-19-6.87625E-19
 -1       570 9.52379E-05-2.85727E-05-2.85708E-05 2.02838E-12-3.84782E-19-9.86554E-20
 -1       571 9.52379E-05-2.85727E-05-2.85708E-05 3.27154E-10 1.49218E-18 8.62021E-19
 -1       572 9.52378E-05-2.85725E-05-2.85708E-05 5.96640E-10 2.36088E-18-1.40665E-18
 -1       573 9.52376E-05-2.85723E-05-2.85708E-05 7.76268E-10 1.91856E-18-8.53113E-19
 -1       574 9.52374E-05-2.85720E-05-2.85709E-05 8.31949E-10 1.24754E-18 3.26485E-18
 -1       575 9.52371E-05-2.85717E-05-2.85709E-05 7.56120E-10 4.54062E-19-3.76542E-19
 -1       576 1.47915E-04-2.10637E-05-5.47224E-05 5.81634E-06 1.00764E-17-1.69105E-18
 -1       577 4.83705E-05-1.78391E-05-1.26210E-05-3.74375E-05 4.79532E-18 6.14406E-18
 -1       578 3.02272E-05-5.96426E-06-9.80809E-06-1.83391E-05 3.03373E-18 7.25166E-18
 -1       579 1.07016E-04-1.53444E-05-3.93394E-05-1.61188E-05-2.15363E-18-5.84689E-18
 -1       580 1.24505E-04-7.19078E-06-5.08512E-05-5.02227E-06-6.46593E-18-6.68834E-18
 -1       581 5.56851E-05-2.13811E-05-1.42508E-05 3.83528E-05-1.16981E-18 4.12389E-18
 -1       582 1.49608E-04-2.66554E-05-5.31487E-05 2.79051E-05 8.72116E-18 2.95953E-18
 -1       583 1.38501E-04-5.64142E-05-3.52957E-05 2.29853E-05 7.27945E-19-3.35150E-18
 -1       584 1.08842E-04-3.77164E-05-3.05183E-05-2.50321E-06-1.21766E-18-2.07722E-18
 -1       585 1.59053E-04-4.61740E-05-4.87317E-05 3.55762E-05 5.78314E-18 4.55587E-18
 -1       586 1.52747E-04-5.51964E-05-4.20001E-05 2.15154E-05 2.18429E-18 2.51124E-18
 -1       587 1.28307E-04-4.71563E-05-3.48993E-05-2.16544E-05 3.31969E-18-4.63999E-18
 -1       588 1.23523E-04-2.94825E-05-4.06197E-05 3.36016E-06 2.21545E-18-9.30519E-19
 -1       589 1.31538E-04-2.12073E-05-4.75917E-05-1.19661E-05-3.29906E-18-1.09842E-18
 -1       590 1.27466E-04-1.08495E-05-5.04978E-05-1.45122E-05-5.72192E-18-3.12261E-18
 -1       591 1.31379E-04-1.77145E-05-4.91685E-05-8.21687E-07-4.60537E-18-8.08641E-18
 -1       592 1.36042E-04-3.43779E-05-4.38581E-05-6.90560E-06-1.07610E-18-7.04043E-18
 -1       593 1.12187E-04-4.72888E-05-2.76871E-05-3.56050E-05 5.21799E-18-1.66527E-18
 -1       594 7.64674E-05-3.38649E-05-1.80038E-05-4.49310E-05 5.74643E-18 3.18487E-18
 -1       595 1.54764E-04-3.37297E-05-5.23456E-05-2.09196E-06 7.99033E-18-4.05978E-18
 -1       596 1.17415E-04-7.22034E-06-4.76406E-05-1.05030E-05-5.26807E-18-5.26878E-18
 -1       597 3.31704E-05-3.10594E-06-1.23226E-05-1.40148E-06 1.25671E-18 6.82280E-18
 -1       598 9.52370E-05-2.85714E-05-2.85709E-05 6.54470E-10-1.46066E-18 2.97375E-18
 -1       599 8.47231E-05-3.50428E-05-2.10431E-05 3.95946E-05-2.51182E-18 5.89773E-19
 -1       600 9.54132E-05-2.68846E-05-2.93510E-05 1.80559E-05-1.03227E-18-3.74521E-19
 -1       601 9.99519E-05-3.23721E-05-2.89533E-05 2.21403E-05-2.39674E-18-1.41673E-18
 -1       602 1.02817E-04-2.30928E-05-3.41705E-05-7.30368E-07-2.36751E-18-4.72902E-18
 -1       603 1.14580E-04-1.34341E-05-4.35904E-05-1.59869E-05-2.74572E-18-4.26098E-18
 -1       604 1.25986E-04-2.89615E-05-4.19107E-05 2.30751E-06-1.27298E-18-8.44581E-18
 -1       605 9.52371E-05-2.85718E-05-2.85708E-05-1.16800E-09 9.49903E-19 1.16817E-18
 -1       606 4.78315E-05-1.09522E-05-1.52660E-05 2.46715E-05-2.02364E-18 4.13987E-18
 -1       607 1.03603E-04-2.64561E-05-3.30671E-05 3.69020E-06-1.79355E-18-4.34847E-18
 -1       608 1.04657E-04-3.00473E-05-3.19775E-05 5.59042E-06-1.09201E-18-4.33327E-18
 -1       609 1.05089E-04-3.26894E-05-3.10291E-05 5.30780E-06-4.75985E-19-4.26132E-18
 -1       610 1.04627E-04-3.39493E-05-3.02912E-05 3.75310E-06-7.28975E-20-3.78476E-18
 -1       611 1.03418E-04-3.39448E-05-2.97753E-05 1.84986E-06 4.06393E-19-3.26649E-18
 -1       612 1.01852E-04-3.31498E-05-2.94450E-05 1.79407E-07 4.67539E-19-2.69413E-18
 -1       613 1.00275E-04-3.20367E-05-2.92463E-05-1.02677E-06 1.83747E-19-1.95920E-18
 -1       614 9.88978E-05-3.09326E-05-2.91287E-05-1.75431E-06-1.09684E-19-2.23150E-18
 -1       615 9.77998E-05-3.00068E-05-2.90546E-05-2.08891E-06 1.34971E-19-2.36861E-18
 -1       616 9.69791E-05-2.93128E-05-2.90000E-05-2.14169E-06-8.36566E-20-2.44593E-18
 -1       617 9.63938E-05-2.88385E-05-2.89523E-05-2.01403E-06-4.30613E-19-2.14884E-18
 -1       618 9.59913E-05-2.85436E-05-2.89061E-05-1.78596E-06-3.02635E-19-1.39350E-18
 -1       619 9.57220E-05-2.83813E-05-2.88602E-05-1.51507E-06-3.95845E-19-1.31086E-18
 -1       620 9.55457E-05-2.83096E-05-2.88154E-05-1.23960E-06-4.82185E-19-1.10213E-18
 -1       621 9.54322E-05-2.82951E-05-2.87729E-05-9.82684E-07-4.75469E-19-1.31063E-18
 -1       622 9.53601E-05-2.83133E-05-2.87342E-05-7.56547E-07 4.64286E-19-6.25533E-19
 -1       623 9.53145E-05-2.83476E-05-2.87000E-05-5.65915E-07 7.41796E-19-5.71140E-19
 -1       624 9.52858E-05-2.83873E-05-2.86707E-05-4.10751E-07 1.68102E-18-3.87363E-19
 -1       625 9.52676E-05-2.84262E-05-2.86463E-05-2.88246E-07 1.54680E-18-3.23297E-19
 -1       626 9.52561E-05-2.84610E-05-2.86264E-05-1.94211E-07 3.09772E-20-8.51736E-19
 -1       627 9.52488E-05-2.84904E-05-2.86107E-05-1.23996E-07-7.97480E-19-1.10598E-18
 -1       628 9.52440E-05-2.85140E-05-2.85985E-05-7.30567E-08-2.77767E-20-6.22659E-19
 -1       629 9.52409E-05-2.85325E-05-2.85893E-05-3.72691E-08-1.72523E-19-1.00658E-19
 -1       630 9.52389E-05-2.85463E-05-2.85825E-05-1.30764E-08-1.21994E-19-8.30077E-19
 -1       631 9.52377E-05-2.85564E-05-2.85777E-05 2.47378E-09-4.79514E-19 3.62099E-19
 -1       632 9.52369E-05-2.85635E-05-2.85743E-05 1.17572E-08-1.77120E-19 7.72913E-19
 -1       633 9.52364E-05-2.85683E-05-2.85720E-05 1.66335E-08-9.09453E-19 7.71778E-20
 -1       634 9.52361E-05-2.85714E-05-2.85706E-05 1.85218E-08-1.11610E-20 1.68802E-19
 -1       635 9.52360E-05-2.85733E-05-2.85698E-05 1.84783E-08-1.45335E-18-1.33347E-19
 -1       636 9.52360E-05-2.85742E-05-2.85693E-05 1.72686E-08-1.22862E-18-3.95042E-20
 -1       637 9.52361E-05-2.85746E-05-2.85692E-05 1.54319E-08-8.02209E-20-6.94861E-19
 -1       638 9.52362E-05-2.85746E-05-2.85692E-05 1.33347E-08-1.42209E-19-1.17567E-18
 -1       639 9.52363E-05-2.85744E-05-2.85694E-05 1.12151E-08-8.18368E-19-1.93370E-18
 -1       640 9.52364E-05-2.85741E-05-2.85696E-05 9.21845E-09 8.29826E-19-1.84926E-18
 -1       641 9.52366E-05-2.85737E-05-2.85698E-05 7.42405E-09 1.91514E-18-1.44773E-18
 -1       642 9.52367E-05-2.85733E-05-2.85700E-05 5.86647E-09 7.57521E-19-1.45600E-18
 -1       643 9.52368E-05-2.85729E-05-2.85702E-05 4.55085E-09 1.17902E-18-7.73123E-19
 -1       644 9.52368E-05-2.85726E-05-2.85704E-05 3.46417E-09 3.46937E-18-1.76886E-20
 -1       645 9.52369E-05-2.85723E-05-2.85706E-05 2.58323E-09 7.22772E-19-1.53709E-18
 -1       646 9.52370E-05-2.85720E-05-2.85707E-05 1.87951E-09-1.30347E-18-8.68312E-20
 -1       647 9.52371E-05-2.85719E-05-2.85708E-05 1.32552E-09-1.71180E-18-1.29441E-18
 -1       648 9.52383E-05-2.85731E-05-2.85708E-05-2.20194E-10 1.77452E-18-1.30757E-18
 -1       649 1.23307E-04-5.22510E-05-3.03104E-05 2.69907E-05-1.95860E-18-3.28990E-18
 -1       650 1.03182E-04-2.01415E-05-3.55855E-05-7.92439E-06-3.13079E-18-4.97251E-18
 -1       651 1.08424E-04-4.10654E-05-2.87043E-05 2.59639E-05-2.47483E-18-2.87179E-18
 -1       652 9.43318E-05-2.49658E-05-2.97206E-05 1.43644E-05-1.00411E-18-3.35619E-19
 -1       653 9.43910E-05-2.47173E-05-2.98565E-05 1.13231E-05-5.94660E-19-6.73540E-20
 -1       654 9.47823E-05-2.51900E-05-2.98221E-05 8.82485E-06 1.04041E-19-4.32651E-19
 -1       655 9.51555E-05-2.58662E-05-2.96926E-05 6.79749E-06 4.81922E-19-1.27696E-19
 -1       656 9.54076E-05-2.65131E-05-2.95239E-05 5.17567E-06 3.04401E-19-2.80695E-19
 -1       657 9.55386E-05-2.70496E-05-2.93507E-05 3.89747E-06 9.81232E-20-2.32555E-19
 -1       658 9.55802E-05-2.74642E-05-2.91912E-05 2.90377E-06 9.48628E-19-9.57371E-19
 -1       659 9.55665E-05-2.77727E-05-2.90536E-05 2.14033E-06 4.61221E-19-1.18185E-18
 -1       660 9.55244E-05-2.79975E-05-2.89394E-05 1.55972E-06-7.75890E-20-1.29084E-18
 -1       661 9.54712E-05-2.81595E-05-2.88474E-05 1.12189E-06 1.84758E-19-8.93640E-19
 -1       662 9.54161E-05-2.82810E-05-2.87718E-05 7.81273E-07-3.93973E-19-2.17503E-18
 -1       663 9.53696E-05-2.83635E-05-2.87166E-05 5.43196E-07-6.02707E-19-2.96184E-18
 -1       664 9.53308E-05-2.84231E-05-2.86745E-05 3.68707E-07 8.02255E-19-2.56523E-18
 -1       665 9.53001E-05-2.84662E-05-2.86430E-05 2.42441E-07 1.03234E-18-2.36009E-18
 -1       666 9.52769E-05-2.84975E-05-2.86196E-05 1.52388E-07 4.60251E-19-2.02911E-18
 -1       667 9.52600E-05-2.85203E-05-2.86027E-05 8.93101E-08-9.17412E-19-2.75826E-18
 -1       668 9.52481E-05-2.85367E-05-2.85906E-05 4.61361E-08-5.19313E-19-2.82656E-18
 -1       669 9.52402E-05-2.85485E-05-2.85821E-05 1.74786E-08-2.69438E-19-2.92320E-18
 -1       670 9.52352E-05-2.85569E-05-2.85764E-05-7.41066E-10-1.80562E-19-2.71726E-18
 -1       671 9.52323E-05-2.85628E-05-2.85726E-05-1.15883E-08 1.91242E-18-1.42669E-18
 -1       672 9.52309E-05-2.85669E-05-2.85703E-05-1.73449E-08 6.14573E-19 2.31012E-19
 -1       673 9.52305E-05-2.85696E-05-2.85690E-05-1.96898E-08-4.93775E-21 1.44366E-19
 -1       674 9.52307E-05-2.85713E-05-2.85683E-05-1.98410E-08 2.73487E-19-4.70774E-19
 -1       675 9.52312E-05-2.85723E-05-2.85681E-05-1.86651E-08 3.44380E-19 8.54095E-19
 -1       676 9.52319E-05-2.85729E-05-2.85682E-05-1.66617E-08-6.04218E-19 2.49733E-18
 -1       677 9.52327E-05-2.85731E-05-2.85684E-05-1.44409E-08-3.61397E-19 1.48404E-18
 -1       678 9.52335E-05-2.85731E-05-2.85687E-05-1.21828E-08 1.55449E-18 1.13312E-18
 -1       679 9.52342E-05-2.85730E-05-2.85691E-05-1.00461E-08 7.16361E-20 8.57621E-19
 -1       680 9.52348E-05-2.85728E-05-2.85694E-05-8.11817E-09 2.76501E-19 1.15212E-18
 -1       681 9.52353E-05-2.85726E-05-2.85697E-05-6.43864E-09 1.68586E-19 1.67745E-18
 -1       682 9.52357E-05-2.85724E-05-2.85700E-05-5.01511E-09-5.89429E-19 7.08566E-19
 -1       683 9.52361E-05-2.85722E-05-2.85703E-05-3.83514E-09-1.25101E-18-1.06111E-18
 -1       684 9.52364E-05-2.85720E-05-2.85705E-05-2.87572E-09-5.92120E-19-4.01538E-18
 -1       685 9.52366E-05-2.85718E-05-2.85706E-05-2.11102E-09 2.42228E-18-2.01131E-18
 -1       686 9.52369E-05-2.85718E-05-2.85707E-05-1.59666E-09 1.06497E-18 1.81999E-19
 -1       687 1.28783E-04-4.23765E-05-3.72144E-05-6.07527E-06 2.15594E-18-7.17000E-18
 -1       688 9.52379E-05-2.85727E-05-2.85708E-05-9.58022E-10-6.23881E-19-1.80612E-18
 -1       689 9.52383E-05-2.85731E-05-2.85708E-05 2.26281E-10 2.12733E-18 4.67060E-19
 -1       690 9.52382E-05-2.85730E-05-2.85708E-05 6.33319E-10 2.24560E-18-2.92394E-19
 -1       691 9.52379E-05-2.85727E-05-2.85708E-05 9.54966E-10 2.80314E-18-1.41986E-18
 -1       692 9.52376E-05-2.85724E-05-2.85708E-05 1.13411E-09 1.20916E-18 2.56412E-19
 -1       693 4.98817E-05-1.17712E-05-1.58644E-05-2.60767E-05 3.29091E-18 5.16926E-18
 -1       694 7.12370E-05-2.67639E-05-1.87128E-05-3.85928E-05 5.64645E-18 2.93830E-18
 -1       695 1.18041E-04-1.52463E-05-4.44339E-05 1.30872E-06-3.74608E-18-7.87780E-18
 -1       696 9.89035E-05-4.19326E-05-2.42409E-05-3.66564E-05 5.91216E-18-7.66284E-19
 -1       697 1.19188E-04-1.16967E-05-4.64696E-05-1.61624E-05-4.06353E-18-3.42121E-18
 -1       698 9.52371E-05-2.85718E-05-2.85709E-05 1.01913E-09 9.54879E-19-1.48892E-18
 -1       699 1.03510E-04-2.43561E-05-3.39331E-05 1.93889E-05 5.21211E-18-1.69199E-18
 -1       700 1.20705E-04-4.85977E-05-3.09125E-05-2.13797E-05 4.80700E-18-4.59329E-18
 -1       701 9.52382E-05-2.85730E-05-2.85708E-05-6.35254E-10-2.07280E-19 1.74406E-18
 -1       702 1.08443E-04-1.45475E-05-4.03009E-05-1.39586E-05-2.53252E-18-5.34557E-18
 -1       703 6.97168E-05-2.24147E-05-1.99229E-05 3.24398E-05-3.26611E-18 1.76342E-18
 -1       704 4.64011E-05-6.57912E-06-1.66760E-05-1.32433E-05 1.84383E-18 5.32508E-18
 -1       705 9.52376E-05-2.85724E-05-2.85708E-05-1.14158E-09-5.34464E-19 7.56430E-20
 -1       706 1.05432E-04-1.68260E-05-3.79878E-05-1.09730E-05-2.93641E-18-5.19057E-18
 -1       707 1.12471E-04-1.16447E-05-4.34425E-05-3.17551E-06-3.98403E-18-6.55920E-18
 -1       708 9.52373E-05-2.85721E-05-2.85708E-05 1.27117E-09-1.03963E-18 6.66081E-19
 -1       709 8.69685E-05-2.06447E-05-2.84223E-05 1.13100E-05-6.87528E-19-8.67006E-19
 -1       710 8.43516E-05-2.00590E-05-2.75422E-05 1.49097E-05-6.38062E-19-1.82541E-19
 -1       711 1.23105E-04-3.65638E-05-3.72227E-05 1.00074E-06 6.16243E-19-7.40233E-18
 -1       712 1.07848E-04-2.83713E-05-3.40818E-05 4.91281E-06-1.35520E-18-5.23885E-18
 -1       713 1.09066E-04-3.32422E-05-3.24907E-05 4.96741E-06-6.72580E-19-4.75682E-18
 -1       714 1.08468E-04-3.57317E-05-3.11733E-05 3.05891E-06 8.21556E-21-4.32223E-18
 -1       715 1.06559E-04-3.60739E-05-3.02086E-05 7.22218E-07 8.54419E-19-3.75015E-18
 -1       716 1.04070E-04-3.50322E-05-2.95882E-05-1.17128E-06 9.50927E-19-3.37189E-18
 -1       717 1.01611E-04-3.34209E-05-2.92250E-05-2.37725E-06 8.69884E-19-2.74804E-18
 -1       718 9.95301E-05-3.17925E-05-2.90307E-05-2.95982E-06 1.43370E-19-2.18645E-18
 -1       719 9.79421E-05-3.04290E-05-2.89344E-05-3.09185E-06 1.53603E-19-1.68862E-18
 -1       720 9.68192E-05-2.94153E-05-2.88875E-05-2.94188E-06 1.18516E-19-2.20966E-18
 -1       721 9.60755E-05-2.87326E-05-2.88612E-05-2.63779E-06-1.48190E-19-2.17528E-18
 -1       722 9.56139E-05-2.83193E-05-2.88405E-05-2.26689E-06-1.19505E-20-1.83952E-18
 -1       723 9.53483E-05-2.81044E-05-2.88188E-05-1.88468E-06-3.90875E-19-1.67010E-18
 -1       724 9.52106E-05-2.80244E-05-2.87941E-05-1.52391E-06-4.35172E-19-1.25593E-18
 -1       725 9.51515E-05-2.80283E-05-2.87671E-05-1.20185E-06-4.69657E-19-1.08519E-18
 -1       726 9.51372E-05-2.80791E-05-2.87392E-05-9.25714E-07 5.55606E-19-6.61860E-19
 -1       727 9.51459E-05-2.81515E-05-2.87119E-05-6.96396E-07 4.50144E-19-5.64338E-19
 -1       728 9.51642E-05-2.82294E-05-2.86863E-05-5.11061E-07 1.09133E-18-2.32383E-19
 -1       729 9.51845E-05-2.83032E-05-2.86634E-05-3.64892E-07 1.93069E-18-6.92747E-19
 -1       730 9.52031E-05-2.83683E-05-2.86435E-05-2.52252E-07 5.54652E-19-8.96809E-19
 -1       731 9.52182E-05-2.84226E-05-2.86267E-05-1.67431E-07-2.70587E-19-1.33002E-18
 -1       732 9.52295E-05-2.84663E-05-2.86128E-05-1.05083E-07-5.39185E-19-5.29268E-19
 -1       733 9.52374E-05-2.85001E-05-2.86017E-05-6.04564E-08-2.27897E-19-9.24274E-19
 -1       734 9.52425E-05-2.85256E-05-2.85930E-05-2.94893E-08-2.44850E-19 1.87025E-19
 -1       735 9.52453E-05-2.85441E-05-2.85862E-05-8.81684E-09 8.60722E-20 6.52765E-19
 -1       736 9.52466E-05-2.85572E-05-2.85812E-05 4.27761E-09-5.02367E-19 7.34548E-19
 -1       737 9.52468E-05-2.85661E-05-2.85775E-05 1.19357E-08-6.96044E-19 6.13818E-19
 -1       738 9.52463E-05-2.85718E-05-2.85748E-05 1.58086E-08-2.72737E-19 2.13619E-18
 -1       739 9.52454E-05-2.85752E-05-2.85729E-05 1.71415E-08-8.51595E-19 1.56033E-18
 -1       740 9.52443E-05-2.85770E-05-2.85717E-05 1.68524E-08-1.16984E-18 2.03863E-18
 -1       741 9.52432E-05-2.85777E-05-2.85709E-05 1.56012E-08-1.21303E-18 1.20210E-18
 -1       742 9.52421E-05-2.85777E-05-2.85705E-05 1.38489E-08-7.54671E-19 6.25285E-19
 -1       743 9.52411E-05-2.85772E-05-2.85702E-05 1.19063E-08-2.08965E-19-5.32353E-19
 -1       744 9.52403E-05-2.85766E-05-2.85701E-05 9.97337E-09 2.49391E-20 5.97614E-19
 -1       745 9.52396E-05-2.85759E-05-2.85702E-05 8.17010E-09 2.41665E-18 1.04819E-18
 -1       746 9.52390E-05-2.85751E-05-2.85702E-05 6.56046E-09 9.87004E-19 6.57168E-19
 -1       747 9.52385E-05-2.85744E-05-2.85703E-05 5.17033E-09 1.06550E-18 9.88484E-19
 -1       748 9.52381E-05-2.85738E-05-2.85704E-05 4.00101E-09 2.09253E-18-7.52181E-19
 -1       749 9.52378E-05-2.85732E-05-2.85705E-05 3.03857E-09 2.31089E-18-2.82757E-18
 -1       750 9.52376E-05-2.85728E-05-2.85706E-05 2.26366E-09 5.07080E-19-1.78990E-18
 -1       751 9.52375E-05-2.85724E-05-2.85707E-05 1.71746E-09-1.53156E-18-1.21160E-19
 -1       752 9.52387E-05-2.85736E-05-2.85708E-05 5.74972E-10 2.07928E-18 6.19556E-19
 -1       753 8.92996E-05-2.18790E-05-2.88939E-05 8.78760E-06-1.56301E-21-1.52365E-18
 -1       754 9.11499E-05-2.32297E-05-2.91080E-05 6.88510E-06 1.57205E-19-1.69541E-18
 -1       755 9.25187E-05-2.44552E-05-2.91694E-05 5.38588E-06 3.32366E-19-1.21294E-18
 -1       756 9.34829E-05-2.54714E-05-2.91472E-05 4.18274E-06 4.15724E-19-1.33323E-18
 -1       757 9.41370E-05-2.62716E-05-2.90848E-05 3.21587E-06 9.18606E-19-1.57301E-18
 -1       758 9.45673E-05-2.68823E-05-2.90076E-05 2.44417E-06 8.33444E-19-1.59734E-18
 -1       759 9.48428E-05-2.73395E-05-2.89298E-05 1.83452E-06-2.25916E-19-2.02516E-18
 -1       760 9.50147E-05-2.76779E-05-2.88585E-05 1.35789E-06-3.04734E-19-1.60915E-18
 -1       761 9.51233E-05-2.79373E-05-2.87939E-05 9.74478E-07 2.35639E-19-7.25442E-19
 -1       762 9.51835E-05-2.81167E-05-2.87428E-05 6.98104E-07-1.15573E-19-1.59160E-18
 -1       763 9.52177E-05-2.82480E-05-2.87012E-05 4.89690E-07 4.84711E-19-1.93748E-18
 -1       764 9.52361E-05-2.83438E-05-2.86681E-05 3.34775E-07 8.45051E-19-2.23302E-18
 -1       765 9.52453E-05-2.84135E-05-2.86422E-05 2.21313E-07 8.14822E-19-1.08429E-18
 -1       766 9.52491E-05-2.84640E-05-2.86222E-05 1.39610E-07 1.27482E-19-1.26806E-18
 -1       767 9.52499E-05-2.85003E-05-2.86070E-05 8.19550E-08-3.57228E-19-2.56067E-18
 -1       768 9.52493E-05-2.85261E-05-2.85956E-05 4.22718E-08-4.77410E-19-2.69704E-18
 -1       769 9.52479E-05-2.85442E-05-2.85873E-05 1.58286E-08-5.05229E-20-3.05043E-18
 -1       770 9.52464E-05-2.85567E-05-2.85813E-05-1.02273E-09-6.71145E-20-3.03749E-18
 -1       771 9.52448E-05-2.85650E-05-2.85770E-05-1.10620E-08 3.78826E-19-1.42145E-18
 -1       772 9.52434E-05-2.85704E-05-2.85741E-05-1.63801E-08-3.92013E-20-1.87865E-18
 -1       773 9.52421E-05-2.85737E-05-2.85722E-05-1.85273E-08 3.73092E-19-1.35838E-18
 -1       774 9.52410E-05-2.85755E-05-2.85710E-05-1.86337E-08-5.04299E-19-9.29269E-19
 -1       775 9.52401E-05-2.85763E-05-2.85702E-05-1.74280E-08-1.11060E-18-8.90547E-20
 -1       776 9.52394E-05-2.85765E-05-2.85698E-05-1.56065E-08-3.83765E-19-6.61422E-19
 -1       777 9.52389E-05-2.85762E-05-2.85697E-05-1.35128E-08-4.25093E-19 3.23740E-19
 -1       778 9.52384E-05-2.85757E-05-2.85697E-05-1.13890E-08-4.55495E-20 2.38338E-18
 -1       779 9.52381E-05-2.85752E-05-2.85698E-05-9.38221E-09 1.27811E-18 1.79277E-18
 -1       780 9.52378E-05-2.85746E-05-2.85700E-05-7.57408E-09 1.41201E-19 4.91919E-19
 -1       781 9.52376E-05-2.85740E-05-2.85701E-05-6.00080E-09 9.54725E-19 1.37762E-18
 -1       782 9.52375E-05-2.85735E-05-2.85703E-05-4.66896E-09 5.18345E-19 3.43755E-20
 -1       783 9.52373E-05-2.85730E-05-2.85704E-05-3.56634E-09 4.61005E-19-1.49434E-18
 -1       784 9.52373E-05-2.85726E-05-2.85706E-05-2.66877E-09-1.42082E-18-1.53934E-18
 -1       785 9.52384E-05-2.85733E-05-2.85708E-05 1.07287E-09 2.08670E-18-7.02664E-19
 -1       786 9.52388E-05-2.85737E-05-2.85708E-05-4.89070E-13 1.82931E-18-6.18690E-19
 -1       787 9.52380E-05-2.85729E-05-2.85708E-05 1.41906E-09 9.20329E-19-2.49280E-18
 -1       788 1.22337E-04-4.51184E-05-3.31814E-05-9.17926E-06 3.30543E-18-5.78228E-18
 -1       789 1.04844E-04-1.94663E-05-3.66096E-05-3.02852E-06-2.57034E-18-5.05762E-18
 -1       790 1.17143E-04-2.54064E-05-3.94824E-05 4.22787E-06-1.78694E-18-7.84783E-18
 -1       791 1.12726E-04-9.98570E-06-4.42850E-05-1.12572E-05-3.88166E-18-5.09250E-18
 -1       792 4.83182E-05-6.25615E-06-1.76034E-05 9.48570E-06-1.04345E-18 3.60807E-18
 -1       793 8.89374E-05-3.40563E-05-2.33438E-05-3.31938E-05 5.32238E-18-2.65373E-19
 -1       794 1.06296E-04-2.35424E-05-3.54612E-05 2.22265E-06-1.83716E-18-5.21786E-18
 -1       795 6.89925E-05-2.08968E-05-2.03570E-05-2.98487E-05 4.29231E-18 2.23594E-18
 -1       796 8.26042E-05-2.12083E-05-2.62263E-05 2.04116E-05-2.12768E-18-3.06469E-19
 -1       797 1.08659E-04-4.39788E-05-2.76361E-05-2.54670E-05 5.12925E-18-3.12116E-18
 -1       798 1.15039E-04-4.46213E-05-3.01807E-05-1.48574E-05 3.78726E-18-4.29543E-18
 -1       799 6.09006E-05-1.37198E-05-1.99785E-05-2.16528E-05 3.17011E-18 2.98406E-18
 -1       800 9.52377E-05-2.85727E-05-2.85707E-05 1.59828E-09-7.30297E-19-1.75385E-18
 -1       801 9.52374E-05-2.85725E-05-2.85707E-05-1.99830E-09-8.24804E-19 1.60887E-18
 -1       802 9.52375E-05-2.85724E-05-2.85708E-05-1.53810E-09 1.40227E-18-6.56022E-19
 -1       803 9.52380E-05-2.85729E-05-2.85708E-05-1.36443E-09-1.32164E-19-1.28913E-18
 -1       804 1.11914E-04-1.97314E-05-3.96293E-05 2.14377E-06-2.54863E-18-6.93012E-18
 -1       805 6.03217E-05-1.26404E-05-2.00869E-05 1.99775E-05-2.11175E-18 2.51140E-18
 -1       806 9.52387E-05-2.85736E-05-2.85708E-05-5.75967E-10 1.24991E-18 9.62299E-19
 -1       807 9.52384E-05-2.85733E-05-2.85708E-05-1.04165E-09 7.10843E-19-3.47185E-19
 -1       808 9.52386E-05-2.85736E-05-2.85707E-05 1.64853E-09 1.33172E-18-3.87297E-18
 -1       809 1.12721E-04-3.74265E-05-3.22789E-05 1.80346E-06 4.89492E-19-5.14347E-18
 -1       810 1.10137E-04-3.84791E-05-3.07111E-05-1.30582E-06 1.13525E-18-3.69606E-18
 -1       811 1.06437E-04-3.70955E-05-2.97165E-05-3.59401E-06 9.57960E-19-3.33721E-18
 -1       812 1.02880E-04-3.48470E-05-2.91574E-05-4.68998E-06 1.26863E-18-3.23703E-18
 -1       813 9.99733E-05-3.25819E-05-2.88823E-05-4.90497E-06 9.52962E-19-2.93697E-18
 -1       814 9.78586E-05-3.07316E-05-2.87688E-05-4.60232E-06 4.14492E-19-2.24754E-18
 -1       815 9.64364E-05-2.93845E-05-2.87366E-05-4.05480E-06 8.26376E-20-2.22580E-18
 -1       816 9.55553E-05-2.84989E-05-2.87384E-05-3.42926E-06-2.18159E-20-1.91876E-18
 -1       817 9.50606E-05-2.79797E-05-2.87489E-05-2.81726E-06 1.50104E-19-2.09232E-18
 -1       818 9.48239E-05-2.77265E-05-2.87560E-05-2.26287E-06-2.91265E-19-2.46019E-18
 -1       819 9.47480E-05-2.76516E-05-2.87555E-05-1.78333E-06 3.32224E-19-2.25567E-18
 -1       820 9.47638E-05-2.76864E-05-2.87474E-05-1.38114E-06-5.28265E-20-1.43920E-18
 -1       821 9.48254E-05-2.77810E-05-2.87333E-05-1.05156E-06 6.39984E-19-5.66422E-19
 -1       822 9.49042E-05-2.79015E-05-2.87154E-05-7.86632E-07 9.60542E-19-4.23631E-20
 -1       823 9.49834E-05-2.80264E-05-2.86958E-05-5.77323E-07 8.26410E-19-2.55539E-19
 -1       824 9.50541E-05-2.81432E-05-2.86761E-05-4.14664E-07 8.87460E-19-7.52863E-19
 -1       825 9.51128E-05-2.82454E-05-2.86575E-05-2.90335E-07 7.56902E-19-1.79272E-18
 -1       826 9.51589E-05-2.83308E-05-2.86406E-05-1.96936E-07 3.40877E-19-1.45201E-18
 -1       827 9.51933E-05-2.83996E-05-2.86259E-05-1.28083E-07-5.39682E-19-1.24559E-18
 -1       828 9.52178E-05-2.84532E-05-2.86134E-05-7.83887E-08-8.69683E-19-8.88774E-19
 -1       829 9.52344E-05-2.84938E-05-2.86031E-05-4.34040E-08 5.74955E-19-3.92802E-19
 -1       830 9.52448E-05-2.85236E-05-2.85948E-05-1.95183E-08-3.60559E-19-1.20015E-18
 -1       831 9.52508E-05-2.85449E-05-2.85882E-05-3.85143E-09 1.57607E-19-1.53214E-18
 -1       832 9.52535E-05-2.85595E-05-2.85831E-05 5.85592E-09-3.45291E-19-5.79758E-19
 -1       833 9.52542E-05-2.85692E-05-2.85793E-05 1.13461E-08-6.43307E-20-1.89066E-20
 -1       834 9.52535E-05-2.85751E-05-2.85764E-05 1.39395E-08-1.51405E-18-7.38970E-19
 -1       835 9.52520E-05-2.85785E-05-2.85744E-05 1.46178E-08 1.70945E-19 1.45122E-19
 -1       836 9.52502E-05-2.85800E-05-2.85729E-05 1.40963E-08-1.16475E-18 1.59540E-18
 -1       837 9.52482E-05-2.85804E-05-2.85719E-05 1.28833E-08-1.22768E-18 2.23772E-18
 -1       838 9.52463E-05-2.85800E-05-2.85713E-05 1.13302E-08-1.99707E-18 1.67946E-18
 -1       839 9.52445E-05-2.85792E-05-2.85709E-05 9.67093E-09-3.09224E-19 9.15788E-19
 -1       840 9.52430E-05-2.85782E-05-2.85706E-05 8.05340E-09 1.66145E-18 9.54173E-19
 -1       841 9.52417E-05-2.85771E-05-2.85705E-05 6.56433E-09 1.56663E-18 9.17851E-21
 -1       842 9.52406E-05-2.85761E-05-2.85705E-05 5.24793E-09 1.00680E-19-1.78331E-18
 -1       843 9.52398E-05-2.85752E-05-2.85705E-05 4.11946E-09 7.27955E-19-3.01950E-18
 -1       844 9.52391E-05-2.85744E-05-2.85706E-05 3.17709E-09 9.29849E-19-2.63123E-18
 -1       845 9.52385E-05-2.85737E-05-2.85706E-05 2.40466E-09 1.70762E-18-2.78229E-18
 -1       846 1.16786E-04-3.29945E-05-3.59710E-05 3.78497E-06-3.66530E-19-7.03911E-18
 -1       847 1.06899E-04-1.53228E-05-3.93430E-05-5.87263E-06-2.87035E-18-5.51624E-18
 -1       848 9.11296E-05-2.38172E-05-2.88482E-05 3.62295E-06 3.39314E-19-7.28627E-19
 -1       849 9.24187E-05-2.49751E-05-2.89044E-05 2.92749E-06 5.06502E-19-1.29893E-18
 -1       850 9.33241E-05-2.58771E-05-2.89058E-05 2.32819E-06 9.77538E-19-5.29840E-19
 -1       851 9.39532E-05-2.65688E-05-2.88790E-05 1.82042E-06 7.20755E-19 4.80714E-19
 -1       852 9.43863E-05-2.70935E-05-2.88398E-05 1.39806E-06-3.65283E-19 3.55928E-20
 -1       853 9.46937E-05-2.75050E-05-2.87952E-05 1.03989E-06-6.62549E-21-7.04335E-19
 -1       854 9.48900E-05-2.77958E-05-2.87546E-05 7.69503E-07 7.52093E-19-7.95810E-19
 -1       855 9.50218E-05-2.80126E-05-2.87182E-05 5.57467E-07 4.11006E-19-1.32891E-18
 -1       856 9.51094E-05-2.81733E-05-2.86869E-05 3.94372E-07 1.00170E-18-1.35124E-18
 -1       857 9.51669E-05-2.82920E-05-2.86607E-05 2.71133E-07 4.45269E-19-1.75193E-18
 -1       858 9.52040E-05-2.83790E-05-2.86393E-05 1.79733E-07 3.82197E-19-1.25664E-18
 -1       859 9.52272E-05-2.84422E-05-2.86221E-05 1.13311E-07 9.20781E-19-1.62573E-18
 -1       860 9.52411E-05-2.84877E-05-2.86086E-05 6.61377E-08-3.92551E-19-9.52436E-19
 -1       861 9.52489E-05-2.85199E-05-2.85982E-05 3.35481E-08-6.61190E-19-1.31704E-18
 -1       862 9.52526E-05-2.85423E-05-2.85902E-05 1.18073E-08 9.04275E-20-1.37284E-19
 -1       863 9.52538E-05-2.85575E-05-2.85842E-05-2.02216E-09 1.62625E-19-9.35664E-19
 -1       864 9.52534E-05-2.85674E-05-2.85797E-05-1.02103E-08 2.03499E-19-1.22134E-18
 -1       865 9.52521E-05-2.85736E-05-2.85765E-05-1.44823E-08-1.51619E-18-3.65010E-19
 -1       866 9.52504E-05-2.85772E-05-2.85742E-05-1.61270E-08 2.79019E-19 8.91071E-19
 -1       867 9.52484E-05-2.85790E-05-2.85726E-05-1.60479E-08-1.26864E-18 1.14859E-18
 -1       868 9.52466E-05-2.85795E-05-2.85716E-05-1.49513E-08-1.09139E-18 1.10201E-18
 -1       869 9.52449E-05-2.85793E-05-2.85710E-05-1.33343E-08-2.06275E-19 8.24844E-19
 -1       870 9.52433E-05-2.85786E-05-2.85706E-05-1.15069E-08-8.33484E-19 3.00870E-19
 -1       871 9.52420E-05-2.85778E-05-2.85704E-05-9.66978E-09 8.28600E-19 9.14988E-20
 -1       872 9.52409E-05-2.85768E-05-2.85703E-05-7.94447E-09 1.45232E-18 8.46202E-19
 -1       873 9.52400E-05-2.85759E-05-2.85703E-05-6.39700E-09-4.93876E-19 1.03313E-18
 -1       874 9.52393E-05-2.85750E-05-2.85704E-05-5.05562E-09 7.06587E-19 2.89927E-18
 -1       875 9.52387E-05-2.85743E-05-2.85705E-05-3.92404E-09 2.02350E-18 2.07464E-18
 -1       876 9.52383E-05-2.85736E-05-2.85706E-05-2.99299E-09-8.32522E-19 1.08540E-18
 -1       877 9.52391E-05-2.85741E-05-2.85707E-05 1.08031E-09 1.66482E-18-1.25649E-18
 -1       878 9.52394E-05-2.85743E-05-2.85707E-05 3.78711E-10 2.22158E-18 5.32158E-19
 -1       879 8.34118E-05-2.76565E-05-2.37904E-05-2.69132E-05 3.97767E-18-3.36854E-19
 -1       880 7.86399E-05-1.62737E-05-2.67258E-05 8.39774E-06-5.50230E-20 5.71817E-19
 -1       881 9.92745E-05-3.76081E-05-2.63619E-05-2.49396E-05 4.22687E-18-2.37526E-18
 -1       882 7.21789E-05-1.38661E-05-2.49409E-05 1.14297E-05-1.13488E-18 7.08253E-19
 -1       883 8.93171E-05-2.23646E-05-2.86941E-05 4.42680E-06-2.88453E-20-1.12047E-18
 -1       884 1.19166E-04-4.06956E-05-3.36879E-05-1.75097E-06 1.84940E-18-6.08147E-18
 -1       885 8.33465E-05-1.85366E-05-2.77766E-05 6.59961E-06 5.41395E-19-1.21939E-20
 -1       886 8.68008E-05-2.05979E-05-2.83734E-05 5.37877E-06 6.88781E-19-4.82191E-19
 -1       887 5.67510E-05-7.75826E-06-2.07528E-05-2.46862E-06 4.83854E-19 2.95730E-18
 -1       888 9.52386E-05-2.85736E-05-2.85707E-05-1.61902E-09-7.45508E-20-1.53995E-19
 -1       889 9.52381E-05-2.85731E-05-2.85707E-05 1.97827E-09 5.93490E-19-3.74006E-18
 -1       890 9.52394E-05-2.85743E-05-2.85707E-05-3.78576E-10 2.46826E-18 1.26379E-18
 -1       891 7.50525E-05-2.10107E-05-2.30494E-05-2.31317E-05 3.23005E-18 9.62090E-19
 -1       892 1.07875E-04-4.12496E-05-2.85746E-05-1.72491E-05 3.50697E-18-3.16810E-18
 -1       893 9.52378E-05-2.85729E-05-2.85707E-05-2.17886E-09-1.44949E-18-7.53215E-19
 -1       894 1.15921E-04-4.26309E-05-3.13863E-05-6.74523E-06 2.72827E-18-4.76791E-18
 -1       895 9.52391E-05-2.85740E-05-2.85707E-05-1.09299E-09 2.46810E-18 1.25157E-18
 -1       896 1.12102E-04-2.62571E-05-3.68643E-05 4.30283E-06-1.47329E-18-6.55877E-18
 -1       897 1.08700E-04-3.93383E-05-2.97144E-05-7.45240E-06 1.90218E-18-3.30237E-18
 -1       898 1.03601E-04-3.60723E-05-2.89512E-05-8.17557E-06 1.45287E-18-2.51655E-18
 -1       899 9.97626E-05-3.30123E-05-2.86057E-05-7.74029E-06 1.09759E-18-2.25757E-18
 -1       900 9.71874E-05-3.06666E-05-2.85090E-05-6.69825E-06 8.92556E-19-2.42615E-18
 -1       901 9.55705E-05-2.90240E-05-2.85201E-05-5.50952E-06 5.18279E-19-1.77990E-18
 -1       902 9.46630E-05-2.79986E-05-2.85705E-05-4.39052E-06 1.68704E-19-1.48836E-18
 -1       903 9.42285E-05-2.74343E-05-2.86261E-05-3.42658E-06 2.37249E-19-1.61741E-18
 -1       904 9.40927E-05-2.71931E-05-2.86713E-05-2.63263E-06-2.63341E-19-1.72819E-18
 -1       905 9.41315E-05-2.71623E-05-2.87011E-05-1.99812E-06-1.37829E-19-1.58941E-18
 -1       906 9.42604E-05-2.72565E-05-2.87159E-05-1.50017E-06 7.76875E-19-1.25842E-18
 -1       907 9.44257E-05-2.74157E-05-2.87186E-05-1.11426E-06 1.50420E-18 3.35966E-20
 -1       908 9.45948E-05-2.75994E-05-2.87123E-05-8.18178E-07 1.26855E-18 1.41249E-18
 -1       909 9.47497E-05-2.77826E-05-2.87002E-05-5.92977E-07 2.27534E-19-1.74323E-19
 -1       910 9.48823E-05-2.79507E-05-2.86850E-05-4.23150E-07 6.19224E-19-4.01118E-19
 -1       911 9.49902E-05-2.80967E-05-2.86686E-05-2.96257E-07 2.22350E-19-1.60578E-18
 -1       912 9.50743E-05-2.82184E-05-2.86525E-05-2.02440E-07 1.00859E-18-1.25623E-18
 -1       913 9.51374E-05-2.83165E-05-2.86375E-05-1.33935E-07 2.99647E-19-1.20380E-18
 -1       914 9.51831E-05-2.83933E-05-2.86242E-05-8.46787E-08-2.24299E-20-1.72607E-19
 -1       915 9.52148E-05-2.84519E-05-2.86127E-05-4.99078E-08-2.15808E-19-7.35051E-20
 -1       916 9.52358E-05-2.84953E-05-2.86031E-05-2.59417E-08-8.72197E-19-1.04018E-18
 -1       917 9.52487E-05-2.85267E-05-2.85952E-05-9.93016E-09 5.78144E-19-8.04860E-19
 -1       918 9.52559E-05-2.85486E-05-2.85888E-05 3.13816E-10 5.55162E-19-2.06416E-19
 -1       919 9.52590E-05-2.85633E-05-2.85839E-05 6.45324E-09-8.28648E-20-2.83906E-19
 -1       920 9.52596E-05-2.85727E-05-2.85801E-05 9.73916E-09-9.91321E-19-6.11410E-19
 -1       921 9.52584E-05-2.85783E-05-2.85772E-05 1.11005E-08-5.67276E-20 5.05525E-19
 -1       922 9.52564E-05-2.85813E-05-2.85750E-05 1.12165E-08 2.80688E-19 9.08599E-19
 -1       923 9.52539E-05-2.85824E-05-2.85735E-05 1.05745E-08-1.49252E-18 9.11158E-19
 -1       924 9.52513E-05-2.85823E-05-2.85724E-05 9.51572E-09-1.61941E-18 1.56138E-18
 -1       925 9.52489E-05-2.85816E-05-2.85717E-05 8.27265E-09-1.11105E-18 2.66083E-18
 -1       926 9.52466E-05-2.85804E-05-2.85712E-05 6.99719E-09-2.08603E-19 1.18695E-18
 -1       927 9.52446E-05-2.85792E-05-2.85709E-05 5.78314E-09 4.31311E-19-1.20828E-18
 -1       928 9.52430E-05-2.85779E-05-2.85708E-05 4.68332E-09-2.56005E-19-2.33439E-18
 -1       929 9.52416E-05-2.85767E-05-2.85707E-05 3.72247E-09 1.19174E-19-1.95283E-18
 -1       930 9.52405E-05-2.85756E-05-2.85707E-05 2.90792E-09 6.21090E-19-2.42054E-18
 -1       931 9.52396E-05-2.85747E-05-2.85707E-05 2.22781E-09 1.16771E-18-3.07458E-18
 -1       932 9.20489E-05-2.49345E-05-2.87634E-05 1.70646E-06 2.60609E-19-4.89740E-19
 -1       933 9.07367E-05-2.38259E-05-2.86762E-05 1.94276E-06 7.48559E-19-5.23417E-19
 -1       934 9.36789E-05-2.64899E-05-2.87954E-05 1.17948E-06 3.98742E-19 9.72027E-20
 -1       935 9.41856E-05-2.70384E-05-2.87774E-05 9.26087E-07 6.01075E-19-2.23659E-19
 -1       936 9.45250E-05-2.74362E-05-2.87523E-05 7.15935E-07 8.55539E-19-3.91907E-19
 -1       937 9.47645E-05-2.77393E-05-2.87251E-05 5.39518E-07 4.53434E-19-3.70505E-19
 -1       938 9.49321E-05-2.79688E-05-2.86986E-05 3.96117E-07 1.81539E-19-1.88256E-19
 -1       939 9.50481E-05-2.81412E-05-2.86744E-05 2.82747E-07 1.27696E-18-1.47985E-19
 -1       940 9.51273E-05-2.82697E-05-2.86532E-05 1.95349E-07 3.97562E-19 4.27312E-19
 -1       941 9.51804E-05-2.83647E-05-2.86353E-05 1.29607E-07 1.33158E-18-3.67633E-20
 -1       942 9.52150E-05-2.84340E-05-2.86205E-05 8.13593E-08-3.41109E-19 2.72983E-19
 -1       943 9.52367E-05-2.84838E-05-2.86084E-05 4.68882E-08-8.28790E-19 3.76363E-19
 -1       944 9.52495E-05-2.85190E-05-2.85988E-05 2.30191E-08 2.13487E-19-9.42990E-19
 -1       945 9.52563E-05-2.85434E-05-2.85913E-05 7.11399E-09 1.73686E-19-2.25633E-18
 -1       946 9.52591E-05-2.85597E-05-2.85854E-05-2.94697E-09-7.96095E-19-7.99259E-19
 -1       947 9.52593E-05-2.85702E-05-2.85810E-05-8.82854E-09-7.56884E-19 1.27404E-18
 -1       948 9.52581E-05-2.85766E-05-2.85778E-05-1.18122E-08-1.22129E-18 3.05811E-19
 -1       949 9.52559E-05-2.85802E-05-2.85753E-05-1.28622E-08-1.14109E-18 1.08484E-18
 -1       950 9.52534E-05-2.85817E-05-2.85736E-05-1.26109E-08-8.00013E-19 1.06454E-18
 -1       951 9.52508E-05-2.85819E-05-2.85724E-05-1.16512E-08 5.82291E-19-1.96377E-19
 -1       952 9.52485E-05-2.85813E-05-2.85716E-05-1.03249E-08 2.15821E-20-3.46379E-19
 -1       953 9.52463E-05-2.85803E-05-2.85711E-05-8.86329E-09-1.55757E-18-1.00122E-18
 -1       954 9.52444E-05-2.85791E-05-2.85708E-05-7.41430E-09 1.04546E-18 8.52903E-19
 -1       955 9.52428E-05-2.85779E-05-2.85707E-05-6.06620E-09-5.68402E-19 2.14790E-18
 -1       956 9.52415E-05-2.85767E-05-2.85706E-05-4.86558E-09-8.97717E-19 3.09922E-18
 -1       957 9.52404E-05-2.85757E-05-2.85706E-05-3.83130E-09 9.99858E-20 4.16620E-18
 -1       958 9.52395E-05-2.85748E-05-2.85706E-05-2.96796E-09 3.20936E-18 3.38894E-18
 -1       959 9.52400E-05-2.85749E-05-2.85707E-05 9.55490E-10 4.43021E-19 5.19147E-19
 -1       960 8.30119E-05-1.86224E-05-2.75969E-05 2.05716E-06 1.06743E-18-2.66297E-19
 -1       961 7.13451E-05-1.29744E-05-2.49946E-05 1.53811E-06-1.32212E-19 2.66900E-19
 -1       962 9.52390E-05-2.85742E-05-2.85707E-05-2.22080E-09 1.61464E-18-1.47685E-19
 -1       963 9.26578E-05-3.12909E-05-2.62631E-05-2.04932E-05 3.03756E-18-1.73693E-18
 -1       964 8.89273E-05-2.24351E-05-2.84970E-05 2.10998E-06 7.07550E-20-5.45191E-19
 -1       965 9.29972E-05-2.58084E-05-2.87952E-05 1.44197E-06 3.76479E-19 3.29217E-19
 -1       966 7.82193E-05-1.60758E-05-2.66323E-05 1.80219E-06 4.34573E-19-2.79488E-20
 -1       967 8.64425E-05-2.07195E-05-2.81677E-05 2.16256E-06 6.78118E-19-2.19734E-19
 -1       968 6.34913E-05-1.10390E-05-2.23644E-05 1.14547E-05-1.04299E-18 1.35606E-18
 -1       969 6.62118E-05-1.30928E-05-2.26662E-05-1.26923E-05 1.67259E-18 1.70989E-18
 -1       970 6.33752E-05-9.98871E-06-2.27604E-05-5.18589E-07-4.15485E-20 1.86702E-18
 -1       971 9.52401E-05-2.85751E-05-2.85707E-05 2.78466E-12 7.35295E-19 2.20827E-19
 -1       972 8.63455E-05-2.64747E-05-2.56215E-05-1.95184E-05 3.12972E-18-1.02765E-18
 -1       973 1.00511E-04-3.57918E-05-2.77363E-05-1.63945E-05 2.70419E-18-2.68044E-18
 -1       974 9.52397E-05-2.85747E-05-2.85707E-05-1.56157E-09 2.50969E-18 2.99538E-18
 -1       975 7.59159E-05-1.58903E-05-2.57047E-05-5.40948E-06 6.68022E-19 2.16910E-19
 -1       976 9.82232E-05-3.26959E-05-2.80742E-05-1.16555E-05 1.67246E-18-1.92641E-18
 -1       977 9.53808E-05-2.98668E-05-2.80776E-05-9.35443E-06 6.61683E-19-2.04063E-18
 -1       978 9.38669E-05-2.80732E-05-2.81984E-05-7.22222E-06 9.16235E-19-1.97015E-18
 -1       979 9.31743E-05-2.70517E-05-2.83377E-05-5.43517E-06 9.06032E-19-1.44210E-18
 -1       980 9.29888E-05-2.65727E-05-2.84643E-05-4.01920E-06-2.65017E-19-1.57269E-18
 -1       981 9.30842E-05-2.64361E-05-2.85633E-05-2.93424E-06-2.20179E-19-2.09727E-18
 -1       982 9.33293E-05-2.65203E-05-2.86323E-05-2.12201E-06 2.04563E-19-2.18154E-18
 -1       983 9.36322E-05-2.67228E-05-2.86753E-05-1.52314E-06 7.78480E-19-1.52527E-18
 -1       984 9.39410E-05-2.69796E-05-2.86977E-05-1.08575E-06 1.87384E-18-6.18807E-19
 -1       985 9.42264E-05-2.72486E-05-2.87047E-05-7.68761E-07 1.71660E-18-5.40987E-19
 -1       986 9.44741E-05-2.75044E-05-2.87013E-05-5.40134E-07 7.78474E-20-2.74163E-19
 -1       987 9.46797E-05-2.77333E-05-2.86913E-05-3.75877E-07 3.49208E-19-2.62436E-19
 -1       988 9.48442E-05-2.79293E-05-2.86778E-05-2.58287E-07-5.29552E-20-9.16698E-19
 -1       989 9.49715E-05-2.80915E-05-2.86629E-05-1.74470E-07 3.64730E-19-7.20946E-19
 -1       990 9.50673E-05-2.82220E-05-2.86480E-05-1.15043E-07 4.91539E-19-1.80778E-18
 -1       991 9.51371E-05-2.83243E-05-2.86341E-05-7.33223E-08 8.78062E-19-1.64027E-18
 -1       992 9.51863E-05-2.84025E-05-2.86216E-05-4.42874E-08-6.58577E-19-1.81937E-18
 -1       993 9.52196E-05-2.84610E-05-2.86108E-05-2.44541E-08-2.13917E-19-9.67327E-19
 -1       994 9.52411E-05-2.85036E-05-2.86018E-05-1.12071E-08-4.39483E-19-3.58008E-19
 -1       995 9.52539E-05-2.85338E-05-2.85943E-05-2.64678E-09 1.32438E-18-1.32109E-18
 -1       996 9.52606E-05-2.85544E-05-2.85883E-05 2.61444E-09 9.68374E-20-5.22679E-19
 -1       997 9.52631E-05-2.85680E-05-2.85836E-05 5.59075E-09-1.17980E-18 4.64820E-19
 -1       998 9.52630E-05-2.85764E-05-2.85800E-05 7.01968E-09-4.36485E-19-3.44436E-19
 -1       999 9.52613E-05-2.85812E-05-2.85772E-05 7.43406E-09 8.44647E-19 1.69388E-19
 -1      1000 9.52587E-05-2.85834E-05-2.85751E-05 7.21395E-09-1.12043E-18 4.47369E-19
 -1      1001 9.52557E-05-2.85839E-05-2.85736E-05 6.62607E-09-3.91447E-19 1.52665E-18
 -1      1002 9.52528E-05-2.85835E-05-2.85726E-05 5.85351E-09-1.33508E-18 1.30797E-18
 -1      1003 9.52500E-05-2.85824E-05-2.85718E-05 5.01806E-09-1.78380E-18 1.34629E-18
 -1      1004 9.52474E-05-2.85810E-05-2.85713E-05 4.19715E-09-1.11734E-18 3.32967E-19
 -1      1005 9.52453E-05-2.85795E-05-2.85710E-05 3.43665E-09-6.13401E-19-6.05183E-19
 -1      1006 9.52434E-05-2.85781E-05-2.85708E-05 2.76015E-09 2.86465E-19-6.07234E-19
 -1      1007 9.52419E-05-2.85768E-05-2.85708E-05 2.18191E-09 1.35606E-19 3.38193E-19
 -1      1008 9.52409E-05-2.85758E-05-2.85707E-05 1.48658E-09-1.12464E-18 1.51032E-18
 -1      1009 9.44838E-05-2.74633E-05-2.87231E-05 4.13173E-07 6.68676E-19-6.87655E-19
 -1      1010 9.10076E-05-2.42637E-05-2.86050E-05 5.83628E-07 4.11742E-19-8.63112E-19
 -1      1011 9.41462E-05-2.70895E-05-2.87387E-05 5.12281E-07 1.11094E-18-7.63060E-19
 -1      1012 9.36571E-05-2.65846E-05-2.87453E-05 6.10818E-07 1.07531E-18-1.52878E-19
 -1      1013 9.47288E-05-2.77537E-05-2.87036E-05 3.20668E-07 4.88036E-19-2.63524E-19
 -1      1014 9.49044E-05-2.79768E-05-2.86832E-05 2.40229E-07-1.91352E-19 7.46144E-20
 -1      1015 9.50286E-05-2.81465E-05-2.86637E-05 1.73742E-07 3.95896E-19 4.38818E-19
 -1      1016 9.51150E-05-2.82742E-05-2.86461E-05 1.20821E-07 1.01112E-18 5.20993E-19
 -1      1017 9.51738E-05-2.83689E-05-2.86307E-05 8.03006E-08 7.64350E-19 1.52657E-18
 -1      1018 9.52126E-05-2.84383E-05-2.86176E-05 5.00838E-08 3.70321E-21 6.57680E-19
 -1      1019 9.52373E-05-2.84881E-05-2.86068E-05 2.83550E-08 6.07928E-19-3.93063E-19
 -1      1020 9.52519E-05-2.85233E-05-2.85980E-05 1.32628E-08 7.60954E-19 6.90849E-19
 -1      1021 9.52597E-05-2.85474E-05-2.85910E-05 3.22559E-09-8.53910E-19 1.48039E-18
 -1      1022 9.52629E-05-2.85634E-05-2.85855E-05-3.07231E-09-1.35833E-18 5.98730E-19
 -1      1023 9.52632E-05-2.85735E-05-2.85813E-05-6.69508E-09-1.23577E-18 1.75426E-19
 -1      1024 9.52616E-05-2.85796E-05-2.85780E-05-8.49714E-09-9.76291E-19-9.87074E-19
 -1      1025 9.52591E-05-2.85825E-05-2.85757E-05-8.95770E-09-7.04372E-19-1.34739E-18
 -1      1026 9.52562E-05-2.85836E-05-2.85740E-05-8.65993E-09-5.97570E-19-1.55887E-18
 -1      1027 9.52532E-05-2.85834E-05-2.85728E-05-7.92167E-09-3.99787E-19 7.40545E-19
 -1      1028 9.52504E-05-2.85825E-05-2.85719E-05-6.96593E-09-1.05539E-18 1.14344E-18
 -1      1029 9.52478E-05-2.85812E-05-2.85714E-05-5.94134E-09-2.15251E-18 1.11954E-18
 -1      1030 9.52456E-05-2.85798E-05-2.85710E-05-4.94179E-09-6.09117E-19 2.14772E-18
 -1      1031 9.52437E-05-2.85784E-05-2.85708E-05-4.02213E-09-1.75601E-19 1.94592E-18
 -1      1032 9.52422E-05-2.85771E-05-2.85707E-05-3.20984E-09-1.49771E-18 1.49865E-18
 -1      1033 9.52409E-05-2.85760E-05-2.85707E-05-2.52224E-09 1.03805E-18 1.90567E-18
 -1      1034 9.52400E-05-2.85750E-05-2.85707E-05-8.11780E-10 1.97510E-18 3.85983E-19
 -1      1035 7.15200E-05-1.44099E-05-2.44324E-05-8.50808E-06 9.73645E-19 7.21128E-19
 -1      1036 9.52403E-05-2.85753E-05-2.85707E-05-1.99903E-09 3.53037E-18 2.36791E-18
 -1      1037 8.94762E-05-2.31177E-05-2.84394E-05 2.97419E-07 5.89933E-19-6.98768E-19
 -1      1038 8.09977E-05-1.81555E-05-2.69300E-05-2.88147E-06 7.37324E-19-4.54588E-19
 -1      1039 9.21612E-05-2.52094E-05-2.86937E-05 6.85382E-07 2.56162E-19-8.09457E-19
 -1      1040 7.69839E-05-1.93682E-05-2.46510E-05-1.58568E-05 2.24503E-18 3.12128E-20
 -1      1041 9.30197E-05-2.59734E-05-2.87342E-05 6.78153E-07 2.88225E-19-6.96242E-19
 -1      1042 9.52412E-05-2.85761E-05-2.85708E-05 2.78360E-10-1.85187E-18-1.91604E-19
 -1      1043 9.35324E-05-2.97895E-05-2.73260E-05-1.40141E-05 1.78570E-18-1.95082E-18
 -1      1044 8.46868E-05-2.00991E-05-2.76826E-05-1.27089E-06 1.06726E-18-3.32022E-19
 -1      1045 8.74276E-05-2.17329E-05-2.81564E-05-2.78193E-07 5.39941E-19-5.22887E-19
 -1      1046 9.32589E-05-2.62781E-05-2.87061E-05 8.72465E-08 5.75025E-19-7.70681E-19
 -1      1047 9.08429E-05-2.61877E-05-2.77035E-05-9.01434E-06 9.38866E-19-1.18700E-18
 -1      1048 9.08667E-05-2.55079E-05-2.80105E-05-6.41221E-06 8.45711E-19-8.78532E-19
 -1      1049 9.11894E-05-2.52635E-05-2.82517E-05-4.46612E-06 9.95390E-20-1.58285E-18
 -1      1050 9.17146E-05-2.53818E-05-2.84263E-05-3.07938E-06-3.22075E-19-1.26001E-18
 -1      1051 9.23225E-05-2.56989E-05-2.85527E-05-2.06232E-06 7.85844E-20-4.18339E-19
 -1      1052 9.28806E-05-2.60767E-05-2.86304E-05-1.38553E-06 1.02325E-18-4.46227E-19
 -1      1053 9.33847E-05-2.64755E-05-2.86754E-05-9.20713E-07 1.20703E-18-1.38819E-18
 -1      1054 9.38169E-05-2.68577E-05-2.86969E-05-6.06576E-07 1.58025E-18-1.87284E-18
 -1      1055 9.41748E-05-2.72029E-05-2.87023E-05-3.96027E-07 1.11451E-18-5.12506E-19
 -1      1056 9.44628E-05-2.75022E-05-2.86974E-05-2.56242E-07 3.11575E-19-1.21128E-18
 -1      1057 9.46888E-05-2.77536E-05-2.86865E-05-1.64068E-07-3.50417E-19-7.35313E-19
 -1      1058 9.48620E-05-2.79592E-05-2.86726E-05-1.03627E-07 1.81149E-19-1.75963E-18
 -1      1059 9.49913E-05-2.81233E-05-2.86578E-05-6.43560E-08-5.06589E-19-1.97962E-18
 -1      1060 9.50861E-05-2.82519E-05-2.86432E-05-3.87400E-08 2.92617E-19-2.28120E-18
 -1      1061 9.51531E-05-2.83501E-05-2.86298E-05-2.21394E-08 4.62626E-19-2.62899E-18
 -1      1062 9.51992E-05-2.84238E-05-2.86180E-05-1.16664E-08 3.72119E-19-2.70099E-18
 -1      1063 9.52295E-05-2.84779E-05-2.86078E-05-5.07373E-09 4.77416E-19-2.31736E-18
 -1      1064 9.52484E-05-2.85165E-05-2.85994E-05-1.03949E-09-2.86529E-19-2.48754E-18
 -1      1065 9.52591E-05-2.85434E-05-2.85924E-05 1.32228E-09 7.43148E-19-2.69780E-18
 -1      1066 9.52641E-05-2.85614E-05-2.85869E-05 2.59707E-09-1.45925E-19-2.32576E-18
 -1      1067 9.52654E-05-2.85729E-05-2.85825E-05 3.17450E-09-7.29011E-19 1.04704E-18
 -1      1068 9.52644E-05-2.85797E-05-2.85792E-05 3.31327E-09 1.84246E-19 2.24205E-18
 -1      1069 9.52621E-05-2.85833E-05-2.85766E-05 3.18843E-09-4.31935E-19 7.44798E-19
 -1      1070 9.52590E-05-2.85846E-05-2.85747E-05 2.91542E-09-7.45902E-20 6.97668E-19
 -1      1071 9.52558E-05-2.85846E-05-2.85734E-05 2.57101E-09-1.32529E-18-8.18282E-20
 -1      1072 9.52527E-05-2.85837E-05-2.85724E-05 2.20478E-09-3.21011E-19 6.02973E-19
 -1      1073 9.52498E-05-2.85824E-05-2.85717E-05 1.84769E-09-1.60881E-18 1.35043E-18
 -1      1074 9.52472E-05-2.85808E-05-2.85713E-05 1.51789E-09-2.16405E-18-3.36993E-19
 -1      1075 9.52450E-05-2.85793E-05-2.85710E-05 1.22521E-09 5.51728E-19-7.53729E-19
 -1      1076 9.52432E-05-2.85778E-05-2.85709E-05 9.82262E-10 1.65489E-18 4.29070E-19
 -1      1077 9.52421E-05-2.85769E-05-2.85708E-05 5.83883E-10-7.73683E-19-2.04331E-19
 -1      1078 9.45339E-05-2.75587E-05-2.87036E-05 1.59616E-07 2.91554E-19-1.15457E-18
 -1      1079 9.38241E-05-2.68142E-05-2.87185E-05 1.58172E-07 1.38836E-18-1.39363E-18
 -1      1080 9.49234E-05-2.80243E-05-2.86710E-05 1.06475E-07-6.09152E-19-9.93014E-19
 -1      1081 9.50412E-05-2.81809E-05-2.86544E-05 8.00606E-08 5.60030E-19 2.19921E-20
 -1      1082 9.51240E-05-2.82996E-05-2.86390E-05 5.68923E-08 5.40303E-19-2.14328E-19
 -1      1083 9.51805E-05-2.83878E-05-2.86255E-05 3.80886E-08 7.82078E-19-1.49215E-19
 -1      1084 9.52179E-05-2.84524E-05-2.86138E-05 2.38942E-08-9.81226E-20-3.27015E-19
 -1      1085 9.52416E-05-2.84988E-05-2.86041E-05 1.34138E-08 4.05708E-19 4.79946E-19
 -1      1086 9.52555E-05-2.85313E-05-2.85961E-05 6.04737E-09-3.67782E-19 3.68899E-19
 -1      1087 9.52627E-05-2.85534E-05-2.85897E-05 1.12426E-09-1.86956E-19-3.14373E-20
 -1      1088 9.52653E-05-2.85678E-05-2.85846E-05-1.96176E-09-1.76744E-19-7.68715E-19
 -1      1089 9.52651E-05-2.85771E-05-2.85806E-05-3.76536E-09-1.83978E-19-2.77790E-18
 -1      1090 9.52631E-05-2.85819E-05-2.85777E-05-4.54345E-09-1.22417E-18-3.21108E-18
 -1      1091 9.52602E-05-2.85841E-05-2.85755E-05-4.71993E-09-9.81119E-19-2.43099E-18
 -1      1092 9.52570E-05-2.85846E-05-2.85739E-05-4.51816E-09-1.25947E-18-1.08868E-18
 -1      1093 9.52538E-05-2.85841E-05-2.85728E-05-4.10175E-09-1.47114E-18-7.95628E-19
 -1      1094 9.52508E-05-2.85829E-05-2.85720E-05-3.58370E-09-1.16841E-18-7.79905E-19
 -1      1095 9.52481E-05-2.85815E-05-2.85714E-05-3.03874E-09-1.92372E-18-2.25769E-18
 -1      1096 9.52458E-05-2.85799E-05-2.85711E-05-2.51354E-09-3.80818E-19-8.35244E-19
 -1      1097 9.52439E-05-2.85784E-05-2.85709E-05-2.03474E-09-3.17725E-19-4.87448E-19
 -1      1098 9.52422E-05-2.85771E-05-2.85708E-05-1.61822E-09-7.51511E-19-1.22735E-18
 -1      1099 9.04711E-05-2.40605E-05-2.84603E-05-9.39419E-07 7.03941E-19-9.29556E-19
 -1      1100 9.42296E-05-2.72274E-05-2.87152E-05 1.72569E-07 7.73827E-19-1.00986E-18
 -1      1101 9.17359E-05-2.76081E-05-2.74866E-05-1.14080E-05 1.30922E-18-1.71700E-18
 -1      1102 7.91023E-05-1.92122E-05-2.56646E-05-1.14755E-05 1.38842E-18-6.67643E-19
 -1      1103 9.47591E-05-2.78204E-05-2.86880E-05 1.34682E-07-2.32912E-19-8.41867E-19
 -1      1104 9.16480E-05-2.49265E-05-2.85949E-05-3.81556E-07 5.01574E-20-1.13973E-18
 -1      1105 8.24708E-05-1.99834E-05-2.67751E-05-7.25604E-06 1.09671E-18-9.26412E-19
 -1      1106 8.50308E-05-2.34160E-05-2.63937E-05-1.32938E-05 1.41192E-18-6.54940E-19
 -1      1107 9.25530E-05-2.56578E-05-2.86694E-05-7.25825E-08 1.03900E-19-9.49239E-19
 -1      1108 8.52002E-05-2.10268E-05-2.74991E-05-4.59421E-06 9.78968E-19-1.37540E-18
 -1      1109 9.52407E-05-2.85757E-05-2.85707E-05-1.10907E-09 1.58398E-18-1.98287E-19
 -1      1110 8.89883E-05-2.30961E-05-2.82372E-05-1.84318E-06 5.88259E-19-1.03457E-18
 -1      1111 9.52410E-05-2.85759E-05-2.85708E-05-4.41801E-10-3.73428E-19-1.55692E-18
 -1      1112 9.52414E-05-2.85763E-05-2.85708E-05-1.34491E-09 1.66044E-18-1.77530E-18
 -1      1113 9.15881E-05-2.50583E-05-2.85174E-05-1.60081E-06 7.44677E-19-2.67357E-19
 -1      1114 9.51469E-05-2.83391E-05-2.86319E-05 8.33302E-09 4.88184E-19-1.34015E-18
 -1      1115 8.88511E-05-2.35210E-05-2.80039E-05-4.30985E-06 3.79412E-19-1.59709E-18
 -1      1116 9.24049E-05-2.56328E-05-2.86163E-05-9.72800E-07 2.31834E-19-6.14168E-19
 -1      1117 9.30696E-05-2.61692E-05-2.86715E-05-5.73905E-07 6.04447E-19-1.54278E-18
 -1      1118 9.36084E-05-2.66458E-05-2.86982E-05-3.23339E-07 1.67993E-18-1.94426E-18
 -1      1119 9.40375E-05-2.70568E-05-2.87060E-05-1.71390E-07 1.72885E-18-2.51221E-18
 -1      1120 9.43728E-05-2.74015E-05-2.87020E-05-8.28756E-08 2.82128E-19-2.48637E-18
 -1      1121 9.46301E-05-2.76841E-05-2.86912E-05-3.36546E-08-1.82933E-19-2.10138E-18
 -1      1122 9.48240E-05-2.79111E-05-2.86769E-05-8.12930E-09-4.06839E-20-1.91823E-18
 -1      1123 9.49669E-05-2.80899E-05-2.86616E-05 3.69776E-09-6.69043E-19-2.69449E-18
 -1      1124 9.51956E-05-2.84164E-05-2.86197E-05 7.23345E-09-1.78732E-19-5.05124E-19
 -1      1125 9.52278E-05-2.84730E-05-2.86092E-05 5.49357E-09 3.45578E-19-1.36352E-18
 -1      1126 9.52478E-05-2.85134E-05-2.86004E-05 3.79373E-09-3.62790E-19-6.45634E-19
 -1      1127 9.52591E-05-2.85415E-05-2.85933E-05 2.37259E-09 7.42556E-19-1.28948E-18
 -1      1128 9.52646E-05-2.85603E-05-2.85875E-05 1.28957E-09 2.69124E-19-1.29823E-18
 -1      1129 9.52661E-05-2.85724E-05-2.85830E-05 5.28196E-10 1.08914E-18-9.36009E-19
 -1      1130 9.52651E-05-2.85795E-05-2.85796E-05 2.38560E-11-7.69120E-20-6.23112E-19
 -1      1131 9.52628E-05-2.85833E-05-2.85769E-05-2.80686E-10-7.55593E-19-2.92978E-19
 -1      1132 9.52597E-05-2.85848E-05-2.85750E-05-4.39925E-10-1.04269E-18-1.02613E-18
 -1      1133 9.52564E-05-2.85849E-05-2.85735E-05-5.01092E-10-1.71673E-18-1.15435E-18
 -1      1134 9.52532E-05-2.85840E-05-2.85725E-05-4.99966E-10 1.94703E-19-2.78165E-18
 -1      1135 9.52502E-05-2.85827E-05-2.85718E-05-4.62559E-10-9.69535E-19-2.99459E-18
 -1      1136 9.52476E-05-2.85811E-05-2.85713E-05-4.06887E-10-2.37602E-18-2.65153E-18
 -1      1137 9.52453E-05-2.85795E-05-2.85711E-05-3.45195E-10 1.00424E-19-4.83695E-19
 -1      1138 9.52434E-05-2.85781E-05-2.85709E-05-2.76857E-10 1.11508E-18-3.08283E-18
 -1      1139 8.73891E-05-2.21555E-05-2.79521E-05-2.91302E-06 3.76859E-19-8.91590E-19
 -1      1140 9.50571E-05-2.82097E-05-2.86489E-05 1.42215E-08 9.81934E-19-2.11504E-18
 -1      1141 9.52420E-05-2.85768E-05-2.85708E-05-2.87178E-10-6.33173E-20-4.70951E-18
 -1      1142 8.65559E-05-2.31869E-05-2.71759E-05-9.08716E-06 1.23073E-18-1.54664E-18
 -1      1143 1.20206E-04 2.54990E-10-4.34326E-05-4.71739E-05-7.58942E-19 1.43106E-17
 -1      1144 9.23845E-05 5.78483E-11-3.91580E-05-3.06958E-05-3.01014E-19-2.89339E-18
 -1      1145 9.14374E-05 3.71039E-11-3.90406E-05-2.55341E-05-1.89524E-19-9.15395E-18
 -1      1146 9.40660E-05 3.49709E-11-4.00265E-05-2.14418E-05-8.83032E-20-1.13423E-17
 -1      1147 9.75282E-05 4.23386E-11-4.12571E-05-1.67636E-05 3.01755E-21-1.16349E-17
 -1      1148 1.00139E-04 6.02314E-11-4.19458E-05-1.02012E-05 7.45389E-20-1.07684E-17
 -1      1149 9.91674E-05 8.68943E-11-4.09619E-05-4.04781E-07 1.71736E-19-9.27676E-18
 -1      1150 9.09096E-05 1.04338E-10-3.70888E-05 1.20053E-05 2.96038E-19-7.41419E-18
 -1      1151 7.29186E-05 8.18240E-11-2.98715E-05 2.36028E-05 3.65918E-19-5.63690E-18
 -1      1152 4.76312E-05 4.50167E-12-2.03588E-05 2.87007E-05 3.59142E-19-4.07509E-18
 -1      1153 2.53143E-05-6.88725E-11-1.22546E-05 2.36136E-05 2.00747E-19-3.43093E-18
 -1      1154 1.54945E-05-8.24958E-11-8.75224E-06 1.22685E-05 3.57871E-20-3.95829E-18
 -1      1155 2.06091E-05-7.07887E-11-1.06939E-05-6.22729E-07-4.44692E-20-5.06447E-18
 -1      1156 4.02615E-05-1.83067E-11-1.79380E-05-8.98794E-06-1.04185E-19-5.96422E-18
 -1      1157 6.81315E-05 4.90982E-11-2.85137E-05-7.72609E-06-9.82558E-20-5.51137E-18
 -1      1158 9.80309E-05 9.04812E-11-4.05020E-05 3.06948E-06-8.38563E-20-2.66924E-18
 -1      1159 1.27561E-04 1.09387E-10-5.27774E-05 2.02116E-05-4.06576E-20 4.06048E-18
 -1      1160 1.73197E-04 2.70066E-10-6.51773E-05 4.67394E-05 3.53213E-19 1.87616E-17
 -1      1161 1.35356E-04-2.54988E-05-4.12895E-05-2.94441E-05-2.93603E-18 2.60289E-17
 -1      1162 9.29027E-05-2.76419E-05-3.07238E-05-3.04287E-07-9.67470E-19 1.90553E-17
 -1      1163 8.26814E-05-2.48208E-05-2.58749E-05 3.45612E-07-4.19850E-19 9.81797E-18
 -1      1164 7.91295E-05-2.38872E-05-2.40700E-05 2.46097E-07-2.04711E-19 3.98240E-18
 -1      1165 7.87416E-05-2.37543E-05-2.37813E-05 2.42777E-07-1.03398E-19 2.07947E-19
 -1      1166 8.05677E-05-2.42593E-05-2.42688E-05 2.65592E-07-7.40029E-20-1.82980E-18
 -1      1167 8.38307E-05-2.51960E-05-2.51896E-05 2.77525E-07-8.11084E-20-3.60852E-18
 -1      1168 8.77478E-05-2.63364E-05-2.63043E-05 2.59610E-07-8.87447E-20-5.18045E-18
 -1      1169 9.15800E-05-2.74619E-05-2.74074E-05 2.12981E-07-1.60229E-19-6.77145E-18
 -1      1170 9.47821E-05-2.84096E-05-2.83456E-05 1.51619E-07-2.48435E-20-7.89504E-18
 -1      1171 9.70820E-05-2.90960E-05-2.90358E-05 9.13006E-08-1.47964E-19-9.05018E-18
 -1      1172 9.84566E-05-2.95110E-05-2.94633E-05 4.25571E-08 2.03202E-19-8.84319E-18
 -1      1173 9.90469E-05-2.96939E-05-2.96615E-05 9.14851E-09-1.03927E-19-9.07121E-18
 -1      1174 9.90644E-05-2.97058E-05-2.96871E-05-1.00920E-08 8.41871E-20-9.41409E-18
 -1      1175 9.87215E-05-2.96090E-05-2.96007E-05-1.86299E-08-1.86394E-19-9.72710E-18
 -1      1176 9.81943E-05-2.94555E-05-2.94540E-05-2.02642E-08-1.13722E-19-1.07542E-17
 -1      1177 9.76095E-05-2.92834E-05-2.92856E-05-1.81253E-08-7.89309E-21-1.06838E-17
 -1      1178 9.70479E-05-2.91170E-05-2.91208E-05-1.43928E-08 3.90895E-21-1.10442E-17
 -1      1179 9.65536E-05-2.89697E-05-2.89738E-05-1.03906E-08-7.40720E-20-1.16800E-17
 -1      1180 9.61448E-05-2.88474E-05-2.88511E-05-6.80894E-09 1.13991E-19-1.19858E-17
 -1      1181 9.58232E-05-2.87508E-05-2.87537E-05-3.92702E-09-2.02904E-19-1.14984E-17
 -1      1182 9.55812E-05-2.86778E-05-2.86800E-05-1.78618E-09-2.41966E-20-1.10054E-17
 -1      1183 9.54070E-05-2.86250E-05-2.86266E-05-3.08162E-10-1.62446E-20-1.00672E-17
 -1      1184 9.52875E-05-2.85886E-05-2.85896E-05 6.32020E-10-1.70894E-19-1.00733E-17
 -1      1185 9.52102E-05-2.85649E-05-2.85655E-05 1.16540E-09 2.20878E-19-9.52341E-18
 -1      1186 9.51644E-05-2.85507E-05-2.85510E-05 1.40916E-09-2.11564E-19-8.53699E-18
 -1      1187 9.51409E-05-2.85433E-05-2.85434E-05 1.45898E-09-9.20653E-20-9.48848E-18
 -1      1188 9.51328E-05-2.85405E-05-2.85405E-05 1.38818E-09-8.29422E-20-1.12013E-17
 -1      1189 9.51345E-05-2.85408E-05-2.85407E-05 1.25010E-09-4.98639E-20-1.18609E-17
 -1      1190 9.51422E-05-2.85430E-05-2.85428E-05 1.08162E-09 1.24452E-19-1.19292E-17
 -1      1191 9.51529E-05-2.85461E-05-2.85459E-05 9.06901E-10-3.08242E-19-1.30724E-17
 -1      1192 9.51649E-05-2.85496E-05-2.85494E-05 7.40725E-10 1.65748E-19-1.49606E-17
 -1      1193 9.51767E-05-2.85531E-05-2.85529E-05 5.91198E-10 2.11876E-19-1.20418E-17
 -1      1194 9.51878E-05-2.85563E-05-2.85562E-05 4.61919E-10 5.88843E-19-9.00130E-18
 -1      1195 9.51977E-05-2.85593E-05-2.85592E-05 3.53577E-10 1.28694E-19-8.14398E-18
 -1      1196 9.52062E-05-2.85618E-05-2.85617E-05 2.65106E-10 1.30091E-19-9.79882E-18
 -1      1197 9.52133E-05-2.85639E-05-2.85639E-05 1.94491E-10 4.98173E-19-8.31439E-18
 -1      1198 9.52191E-05-2.85657E-05-2.85656E-05 1.39304E-10 1.81987E-19-6.42153E-18
 -1      1199 9.52238E-05-2.85671E-05-2.85671E-05 9.70472E-11 7.14833E-20-6.76630E-18
 -1      1200 9.52275E-05-2.85682E-05-2.85682E-05 6.53568E-11-4.28625E-19-8.25244E-18
 -1      1201 9.52304E-05-2.85691E-05-2.85691E-05 4.21095E-11-4.64822E-19-1.00349E-17
 -1      1202 9.52325E-05-2.85697E-05-2.85697E-05 2.54655E-11 1.17225E-20-9.07794E-18
 -1      1203 9.52341E-05-2.85702E-05-2.85702E-05 1.38651E-11-1.00896E-19-7.85287E-18
 -1      1204 9.52353E-05-2.85706E-05-2.85706E-05 5.99062E-12 3.81893E-19-6.16209E-18
 -1      1205 9.52361E-05-2.85708E-05-2.85708E-05 6.96224E-13 8.50863E-20-5.11792E-18
 -1      1206 9.52367E-05-2.85710E-05-2.85710E-05-3.11051E-12 4.07086E-19-2.36376E-18
 -1      1207 9.52370E-05-2.85711E-05-2.85711E-05-6.63949E-12 3.71763E-19 1.83281E-19
 -1      1208 9.52372E-05-2.85712E-05-2.85712E-05-1.12891E-11 1.56797E-19 2.89468E-18
 -1      1209 9.52372E-05-2.85712E-05-2.85712E-05-1.95224E-11-2.38959E-19 2.14541E-18
 -1      1210 9.52372E-05-2.85712E-05-2.85712E-05-1.04560E-11 4.03599E-19 2.18421E-18
 -1      1211 2.23604E-04-6.45814E-05-6.50310E-05 1.68698E-05-2.52204E-19 3.13432E-17
 -1      1212 1.74522E-04-5.13541E-05-5.41490E-05 4.24247E-07 1.54425E-19 2.78301E-17
 -1      1213 1.50590E-04-4.49942E-05-4.55238E-05 1.26738E-06-7.95152E-20 2.48920E-17
 -1      1214 1.22917E-04-3.69424E-05-3.81722E-05 1.89003E-06-5.32043E-20 2.11724E-17
 -1      1215 1.02089E-04-3.03801E-05-3.32004E-05 1.17968E-06-1.79597E-20 1.56291E-17
 -1      1216 1.01099E-04-2.97264E-05-3.24598E-05-4.82195E-07 1.56145E-19 9.17485E-18
 -1      1217 1.15929E-04-3.43839E-05-3.52005E-05-1.42857E-06 1.63871E-19 4.85540E-18
 -1      1218 1.31095E-04-3.93340E-05-3.85731E-05-1.21332E-06 7.72521E-20 2.64190E-18
 -1      1219 1.37360E-04-4.14095E-05-4.03430E-05-5.59092E-07 1.64139E-19 1.41952E-18
 -1      1220 1.34850E-04-4.05989E-05-3.99916E-05-1.53186E-08 4.79136E-20 1.26817E-18
 -1      1221 1.28110E-04-3.84995E-05-3.83195E-05 1.98358E-07-5.20814E-20 2.30033E-18
 -1      1222 1.20555E-04-3.61844E-05-3.62333E-05 2.38653E-07-2.28760E-19 3.06239E-18
 -1      1223 1.13849E-04-3.41534E-05-3.42768E-05 2.04881E-07 2.12738E-19 1.17910E-18
 -1      1224 1.08512E-04-3.25487E-05-3.26716E-05 1.53602E-07 2.39993E-19 3.56680E-19
 -1      1225 1.04507E-04-3.13487E-05-3.14466E-05 1.07556E-07-5.16971E-20 5.38713E-19
 -1      1226 1.01600E-04-3.04786E-05-3.05497E-05 7.25039E-08-7.74390E-20 1.03821E-18
 -1      1227 9.95304E-05-2.98595E-05-2.99088E-05 4.77548E-08 1.27509E-19 1.91957E-18
 -1      1228 9.80776E-05-2.94244E-05-2.94581E-05 3.09349E-08 1.99044E-19 9.76761E-19
 -1      1229 9.70682E-05-2.91219E-05-2.91447E-05 1.97312E-08 1.37180E-20 1.11560E-18
 -1      1230 9.63742E-05-2.89137E-05-2.89290E-05 1.23482E-08 1.92110E-19 5.05181E-19
 -1      1231 9.59032E-05-2.87722E-05-2.87826E-05 7.52552E-09 9.03612E-20 1.16925E-18
 -1      1232 9.55888E-05-2.86778E-05-2.86847E-05 4.41140E-09 1.55662E-19 1.38566E-19
 -1      1233 9.53802E-05-2.86147E-05-2.86195E-05 2.71024E-09-2.69594E-19 1.62254E-18
 -1      1234 9.52503E-05-2.85758E-05-2.85787E-05 1.00816E-09 4.05141E-19-1.34141E-18
 -1      1235 9.51758E-05-2.85533E-05-2.85552E-05 2.30780E-10-4.81121E-20-1.05745E-18
 -1      1236 9.51359E-05-2.85412E-05-2.85423E-05-2.31841E-10-6.35708E-20-8.50800E-19
 -1      1237 9.51189E-05-2.85360E-05-2.85366E-05-4.85865E-10-1.48170E-19 3.31782E-19
 -1      1238 9.51163E-05-2.85351E-05-2.85355E-05-6.04084E-10 3.54384E-19-1.75028E-18
 -1      1239 9.51226E-05-2.85369E-05-2.85371E-05-6.35979E-10-1.39051E-19-1.09753E-18
 -1      1240 9.51336E-05-2.85402E-05-2.85402E-05-6.15145E-10-3.93814E-19 1.62420E-18
 -1      1241 9.51469E-05-2.85441E-05-2.85440E-05-5.64296E-10-2.65170E-19 1.91252E-18
 -1      1242 9.51606E-05-2.85482E-05-2.85481E-05-4.98616E-10 1.04214E-19-7.45877E-19
 -1      1243 9.51737E-05-2.85522E-05-2.85520E-05-4.28035E-10-6.34153E-20-2.26497E-19
 -1      1244 9.51857E-05-2.85557E-05-2.85556E-05-3.58813E-10-1.50381E-19 3.15672E-19
 -1      1245 9.51961E-05-2.85589E-05-2.85587E-05-2.94659E-10 2.02522E-19-1.70330E-18
 -1      1246 9.52051E-05-2.85615E-05-2.85614E-05-2.38388E-10 1.11580E-19-1.10402E-18
 -1      1247 9.52126E-05-2.85638E-05-2.85637E-05-1.92481E-10 4.76922E-20-2.46895E-18
 -1      1248 9.52188E-05-2.85656E-05-2.85655E-05-1.43882E-10 8.98722E-20-4.40388E-18
 -1      1249 9.52236E-05-2.85671E-05-2.85670E-05-1.10470E-10-3.58450E-19-4.31356E-18
 -1      1250 9.52273E-05-2.85682E-05-2.85681E-05-8.30401E-11 1.01282E-19-3.14830E-18
 -1      1251 9.52303E-05-2.85691E-05-2.85690E-05-6.12649E-11 4.97623E-19-3.67402E-18
 -1      1252 9.52324E-05-2.85697E-05-2.85697E-05-4.43260E-11 2.97097E-19-6.29228E-18
 -1      1253 9.52341E-05-2.85702E-05-2.85702E-05-3.14064E-11-4.23876E-19 8.36865E-19
 -1      1254 9.52353E-05-2.85706E-05-2.85706E-05-2.17439E-11 4.45824E-19 3.42192E-18
 -1      1255 9.52361E-05-2.85708E-05-2.85708E-05-1.46265E-11 1.14211E-19 1.38272E-18
 -1      1256 9.52367E-05-2.85710E-05-2.85710E-05-9.34626E-12-3.56461E-19 4.33406E-18
 -1      1257 9.52370E-05-2.85711E-05-2.85711E-05-5.01762E-12 1.52027E-19 2.78849E-18
 -1      1258 9.52372E-05-2.85712E-05-2.85711E-05-2.70720E-13-2.22168E-19-2.13898E-18
 -1      1259 9.52372E-05-2.85712E-05-2.85712E-05 1.68691E-11-6.72770E-19 1.54742E-18
 -1      1260 9.52372E-05-2.85712E-05-2.85712E-05 1.40041E-11 1.00418E-18 2.54416E-18
 -1      1261 9.52371E-05-2.85711E-05-2.85712E-05 1.07228E-11-1.76516E-19-1.16764E-18
 -1      1262 9.52371E-05-2.85711E-05-2.85712E-05 1.69899E-11-5.31003E-18 9.02500E-20
 -1      1263 9.52371E-05-2.85711E-05-2.85711E-05 3.23838E-12-4.95802E-18 9.28126E-19
 -1      1264 9.52372E-05-2.85713E-05-2.85711E-05-5.68532E-12-2.77694E-18 6.08078E-19
 -1      1265 9.52373E-05-2.85715E-05-2.85710E-05-1.04704E-11-3.13813E-18-8.13930E-19
 -1      1266 9.52373E-05-2.85718E-05-2.85709E-05-1.14595E-11-7.89413E-18-6.75193E-19
 -1      1267 9.52374E-05-2.85721E-05-2.85709E-05-9.53072E-12-2.96686E-18 9.19333E-19
 -1      1268 9.52375E-05-2.85723E-05-2.85708E-05-5.30852E-12-9.51082E-19 3.24238E-20
 -1      1269 9.52375E-05-2.85723E-05-2.85708E-05 2.00766E-14-4.59906E-18 8.01679E-19
 -1      1270 9.52375E-05-2.85723E-05-2.85708E-05 5.34665E-12-1.03961E-17 1.79966E-19
 -1      1271 9.52374E-05-2.85721E-05-2.85709E-05 9.53498E-12-9.65285E-18-1.08558E-18
 -1      1272 9.52373E-05-2.85718E-05-2.85709E-05 1.15705E-11-1.50626E-17 1.70892E-19
 -1      1273 9.52373E-05-2.85715E-05-2.85710E-05 1.04487E-11-1.21072E-17 6.21981E-19
 -1      1274 9.52372E-05-2.85713E-05-2.85711E-05 5.63223E-12-7.66904E-18 3.19541E-19
 -1      1275 9.52371E-05-2.85711E-05-2.85711E-05-4.05283E-12-6.27474E-18 9.57053E-19
 -1      1276 9.52371E-05-2.85711E-05-2.85712E-05-2.59045E-11-2.61861E-18-1.32910E-18
 -1      1277 9.52371E-05-2.85711E-05-2.85712E-05-1.30825E-11-1.98210E-18 2.44621E-19
 -1      1278 2.62151E-05-8.04135E-05 1.05722E-05-1.12418E-05 2.37762E-17 4.70003E-18
 -1      1279 1.25176E-05-4.04834E-05 1.27907E-06-1.53382E-05 3.55347E-17 1.37524E-17
 -1      1280 1.16822E-05 1.07168E-05-1.55892E-05 1.95174E-05 3.74406E-17 2.46470E-17
 -1      1281 5.27359E-05 3.29956E-05-3.64724E-05 7.79727E-05 3.15554E-17 3.17519E-17
 -1      1282 1.39040E-04 9.11862E-06-5.61166E-05 1.21560E-04 2.03949E-17 3.09997E-17
 -1      1283 2.44035E-04-4.48454E-05-7.14637E-05 1.18513E-04 8.97516E-18 2.05753E-17
 -1      1284 3.16003E-04-9.04897E-05-7.87734E-05 5.80657E-05 1.57604E-18 1.22121E-18
 -1      1285 3.00499E-04-8.86685E-05-7.47339E-05-2.95163E-05 3.34377E-18-2.14342E-17
 -1      1286 2.01479E-04-4.32044E-05-5.95775E-05-8.18908E-05 1.32129E-17-3.71966E-17
 -1      1287 8.47696E-05 4.63237E-07-3.86386E-05-6.43459E-05 2.54550E-17-4.02154E-17
 -1      1288 1.75334E-05 4.96826E-06-1.86029E-05-1.67168E-05 3.24778E-17-3.26396E-17
 -1      1289 2.54173E-06-1.45180E-05-5.34103E-06 1.30855E-05 3.13085E-17-2.02523E-17
 -1      1290 5.88400E-06-2.53098E-05 9.63303E-07 1.36411E-05 2.21726E-17-8.88228E-18
 -1      1291 7.10036E-06-2.09131E-05 1.62483E-06 4.70226E-06 1.01309E-17-2.11795E-18
 -1      1292 3.35359E-06-7.54880E-06-1.49603E-06-3.52194E-07-2.46444E-18-1.51467E-18
 -1      1293 7.18615E-07 7.32745E-06-7.75055E-06 3.92199E-06-1.44157E-17-6.07693E-18
 -1      1294 6.78439E-06 2.31239E-05-1.75786E-05 2.35502E-05-2.24421E-17-1.51513E-17
 -1      1295 3.65585E-05 2.79707E-05-3.05903E-05 5.71683E-05-2.45030E-17-2.48037E-17
 -1      1296 9.84757E-05 9.18413E-06-4.47551E-05 8.72796E-05-1.92937E-17-2.93870E-17
 -1      1297 1.82660E-04-3.16912E-05-5.82103E-05 8.85071E-05-1.05354E-17-2.61428E-17
 -1      1298 2.55395E-04-7.18314E-05-6.78607E-05 4.68110E-05-3.22370E-18-1.44843E-17
 -1      1299 2.77138E-04-8.17603E-05-7.10924E-05-2.54131E-05-1.23857E-18 2.44941E-18
 -1      1300 2.36074E-04-5.33886E-05-6.65578E-05-9.03667E-05-5.84961E-18 1.75725E-17
 -1      1301 1.50843E-04-4.11981E-06-5.48130E-05-1.12114E-04-1.46414E-17 2.58684E-17
 -1      1302 6.93364E-05 2.93750E-05-3.90133E-05-8.86535E-05-2.20567E-17 2.61208E-17
 -1      1303 2.12170E-05 2.84716E-05-2.29924E-05-4.44991E-05-2.44708E-17 2.02585E-17
 -1      1304 6.23835E-06-2.17439E-06-7.98452E-06-3.74798E-06-1.96749E-17 1.15391E-17
 -1      1305 1.42963E-05-4.68111E-05 3.94542E-06 1.55946E-05-8.55080E-18 3.63504E-18
 -1      1306 2.67435E-05-8.12492E-05 1.09106E-05 8.70139E-06 6.49590E-18 6.93720E-19
 -1      1307 1.05057E-04-2.16274E-05-3.88030E-05-2.07006E-05-1.42450E-18 1.05604E-17
 -1      1308 9.38331E-05-5.49453E-06-3.81652E-05-2.74025E-05-2.50274E-18-6.06327E-18
 -1      1309 9.67582E-05-6.63391E-06-3.86092E-05-3.02834E-05-2.17603E-18-1.10263E-18
 -1      1310 9.40579E-05-3.69661E-06-3.88001E-05-2.37161E-05-1.99908E-18-1.02188E-17
 -1      1311 9.31245E-05-3.56945E-06-3.84632E-05-2.59262E-05-2.48846E-18-8.51596E-18
 -1      1312 9.66679E-05-9.33459E-06-3.75891E-05-2.57497E-05-4.18985E-18-5.20285E-18
 -1      1313 9.71412E-05-3.53253E-06-4.00706E-05-1.99210E-05-1.10771E-18-1.16295E-17
 -1      1314 9.53713E-05-3.39375E-06-3.94338E-05-2.19672E-05-1.51606E-18-1.11383E-17
 -1      1315 9.72383E-05-7.20904E-06-3.86724E-05-2.22544E-05-2.93903E-18-8.51197E-18
 -1      1316 1.01235E-04-4.32715E-06-4.13441E-05-1.54741E-05-1.60910E-19-1.14622E-17
 -1      1317 9.92655E-05-4.11926E-06-4.07601E-05-1.79539E-05-5.03985E-19-1.17183E-17
 -1      1318 1.00761E-04-7.33383E-06-4.00668E-05-1.86451E-05-1.44125E-18-9.52541E-18
 -1      1319 1.04832E-04-6.21779E-06-4.18579E-05-9.21492E-06 9.37771E-19-1.03314E-17
 -1      1320 1.03519E-04-5.89005E-06-4.17654E-05-1.27538E-05 5.54489E-19-1.10157E-17
 -1      1321 1.05599E-04-9.25454E-06-4.12410E-05-1.45070E-05 1.42315E-19-9.10404E-18
 -1      1322 1.04790E-04-9.00047E-06-4.03959E-05 3.13136E-07 2.18482E-18-8.42533E-18
 -1      1323 1.06000E-04-8.62192E-06-4.14929E-05-4.86810E-06 1.78184E-18-9.47165E-18
 -1      1324 1.09920E-04-1.29902E-05-4.13981E-05-8.55836E-06 1.97143E-18-7.67931E-18
 -1      1325 9.62541E-05-1.07011E-05-3.59732E-05 1.22642E-05 3.71382E-18-6.54349E-18
 -1      1326 1.02198E-04-1.06571E-05-3.86848E-05 6.46420E-06 3.25430E-18-7.62457E-18
 -1      1327 1.09596E-04-1.70615E-05-3.94388E-05 4.27586E-07 4.06360E-18-5.75739E-18
 -1      1328 7.43070E-05-8.12354E-06-2.80787E-05 2.37168E-05 5.07542E-18-4.89781E-18
 -1      1329 8.66295E-05-8.78550E-06-3.24907E-05 1.91792E-05 4.68367E-18-5.97981E-18
 -1      1330 9.78816E-05-1.72499E-05-3.43887E-05 1.28348E-05 6.25221E-18-4.18053E-18
 -1      1331 4.08681E-05 3.33526E-07-1.79976E-05 2.76236E-05 5.11735E-18-4.08910E-18
 -1      1332 5.68461E-05-1.12839E-06-2.30852E-05 2.74478E-05 5.30031E-18-4.93140E-18
 -1      1333 6.94380E-05-8.87167E-06-2.58094E-05 2.43394E-05 7.60413E-18-3.62085E-18
 -1      1334 8.13017E-06 8.83886E-06-8.04870E-06 9.54724E-06 9.46453E-19-4.84249E-18
 -1      1335 9.57678E-06 8.69558E-06-8.50218E-06 1.47553E-05 1.53355E-18-4.36042E-18
 -1      1336 1.89023E-05 7.34678E-06-1.15648E-05-2.56369E-06-7.44118E-19-6.11103E-18
 -1      1337 1.12644E-05 7.63272E-06-9.05781E-06 2.63850E-06-3.97258E-19-5.35526E-18
 -1      1338 5.48437E-06 1.32487E-05-8.32591E-06 5.97188E-06 8.15746E-19-5.34912E-18
 -1      1339 4.64347E-05 1.71197E-06-2.01426E-05-8.21015E-06-1.61572E-18-6.49537E-18
 -1      1340 3.20170E-05 2.39035E-06-1.53920E-05-6.77694E-06-1.64875E-18-6.23114E-18
 -1      1341 2.38002E-05 7.15230E-06-1.33509E-05-3.61355E-06-1.63308E-18-5.84252E-18
 -1      1342 8.12351E-05-5.27898E-06-3.15662E-05-3.44586E-06-1.43741E-18-5.14461E-18
 -1      1343 6.49650E-05-4.74416E-06-2.57295E-05-6.94130E-06-1.75166E-18-5.84612E-18
 -1      1344 5.80305E-05-4.33714E-06-2.29549E-05-5.36996E-06-2.65460E-18-5.04980E-18
 -1      1345 1.13783E-04-9.12552E-06-4.39755E-05 1.05605E-05-3.95564E-19-1.30020E-18
 -1      1346 9.92240E-05-9.20182E-06-3.78809E-05 3.21813E-06-8.88538E-19-3.49136E-18
 -1      1347 9.67940E-05-1.47008E-05-3.49975E-05 3.96743E-06-1.90794E-18-2.54269E-18
 -1      1348 1.43864E-04-1.11334E-05-5.63090E-05 2.96018E-05 2.77403E-19 6.85737E-18
 -1      1349 1.29461E-04-1.08934E-05-5.00874E-05 1.92440E-05 1.91853E-19 2.02674E-18
 -1      1350 1.30750E-04-1.97205E-05-4.72968E-05 2.00482E-05-1.52678E-19 2.59256E-18
 -1      1351 2.07983E-04-4.13490E-05-6.44616E-05 4.34756E-05 2.30605E-19 2.14321E-17
 -1      1352 1.61635E-04-2.39930E-05-5.91309E-05 3.16511E-05 3.04932E-20 1.12948E-17
 -1      1353 1.63525E-04-3.29192E-05-5.56383E-05 3.13570E-05 1.18013E-18 1.03474E-17
 -1      1354 1.80203E-04-5.21300E-05-5.84692E-05 9.53437E-06 1.11663E-18 2.15354E-17
 -1      1355 1.04583E-04-2.93905E-05-3.36063E-05-9.92372E-06-3.12619E-18 1.24870E-17
 -1      1356 9.60099E-05-2.68926E-05-3.02250E-05-7.31002E-06-2.76826E-18 8.63465E-18
 -1      1357 9.19739E-05-2.65450E-05-2.83154E-05-3.80932E-06-2.21502E-18 7.30532E-18
 -1      1358 8.84098E-05-2.58793E-05-2.68735E-05-3.26965E-06-1.98134E-18 4.14709E-18
 -1      1359 9.87468E-05-2.72301E-05-3.10681E-05-1.15307E-05-4.72697E-18 2.75344E-18
 -1      1360 8.60515E-05-2.53263E-05-2.60274E-05-1.37465E-06-1.62035E-18 3.05676E-18
 -1      1361 8.49035E-05-2.51078E-05-2.55895E-05-1.11286E-06-1.33302E-18 9.04922E-19
 -1      1362 9.23131E-05-2.66559E-05-2.83172E-05-4.85204E-06-3.48358E-18 9.43039E-19
 -1      1363 8.40233E-05-2.48881E-05-2.53059E-05 8.56090E-08-9.72824E-19-6.83450E-20
 -1      1364 8.42909E-05-2.50419E-05-2.53595E-05 2.95368E-07-8.86599E-19-1.44112E-18
 -1      1365 8.93555E-05-2.61852E-05-2.71521E-05-1.20240E-06-2.36136E-18-8.93104E-19
 -1      1366 8.43997E-05-2.50996E-05-2.53905E-05 1.10017E-06-7.04685E-19-1.99190E-18
 -1      1367 8.55870E-05-2.55262E-05-2.57202E-05 1.24377E-06-5.87841E-19-2.78994E-18
 -1      1368 8.86369E-05-2.61727E-05-2.68227E-05 1.19931E-06-1.59725E-18-2.32555E-18
 -1      1369 8.63375E-05-2.57794E-05-2.59403E-05 1.71352E-06-5.83366E-19-3.33477E-18
 -1      1370 8.80521E-05-2.63687E-05-2.64203E-05 1.77736E-06-5.19162E-19-4.12555E-18
 -1      1371 8.94920E-05-2.66055E-05-2.69836E-05 2.74736E-06-1.24869E-18-3.53711E-18
 -1      1372 8.91215E-05-2.67151E-05-2.67358E-05 1.91760E-06-4.16483E-19-4.43401E-18
 -1      1373 9.09844E-05-2.73410E-05-2.72602E-05 1.90427E-06-3.42166E-19-5.10512E-18
 -1      1374 9.12880E-05-2.73233E-05-2.74225E-05 3.48550E-06-9.66822E-19-4.25140E-18
 -1      1375 9.20923E-05-2.76867E-05-2.75933E-05 1.77114E-06-4.51694E-19-5.17028E-18
 -1      1376 9.37873E-05-2.82433E-05-2.80747E-05 1.70238E-06-3.22921E-19-5.93703E-18
 -1      1377 9.34258E-05-2.81168E-05-2.79786E-05 3.48820E-06-7.07046E-19-4.64487E-18
 -1      1378 9.47338E-05-2.85248E-05-2.83674E-05 1.39773E-06-3.50784E-19-5.90263E-18
 -1      1379 9.60607E-05-2.89487E-05-2.87487E-05 1.30344E-06-3.24835E-19-6.23239E-18
 -1      1380 9.54265E-05-2.88128E-05-2.85254E-05 2.95234E-06-5.86107E-19-4.78098E-18
 -1      1381 9.67429E-05-2.91388E-05-2.89677E-05 9.37122E-07-3.45302E-19-6.27407E-18
 -1      1382 9.76292E-05-2.94119E-05-2.92260E-05 8.43286E-07-1.90748E-20-6.66590E-18
 -1      1383 9.69927E-05-2.93160E-05-2.89775E-05 2.13886E-06-4.99435E-19-4.68059E-18
 -1      1384 9.80282E-05-2.95114E-05-2.93617E-05 5.00267E-07 8.76712E-20-6.82057E-18
 -1      1385 9.85018E-05-2.96486E-05-2.95025E-05 4.22878E-07 9.93014E-20-6.83071E-18
 -1      1386 9.80118E-05-2.96060E-05-2.92926E-05 1.28448E-06-7.02872E-20-4.62922E-18
 -1      1387 9.86542E-05-2.96742E-05-2.95624E-05 1.50663E-07-1.02339E-19-6.79548E-18
 -1      1388 9.87996E-05-2.97074E-05-2.96083E-05 9.57225E-08-1.39383E-19-6.99257E-18
 -1      1389 9.85093E-05-2.97124E-05-2.94661E-05 5.47662E-07-4.58060E-20-5.35224E-18
 -1      1390 9.87673E-05-2.96812E-05-2.96092E-05-9.13293E-08-1.80960E-19-6.90079E-18
 -1      1391 9.86867E-05-2.96454E-05-2.95886E-05-1.24701E-07-1.58997E-19-6.93302E-18
 -1      1392 9.85884E-05-2.96855E-05-2.95179E-05 6.31775E-10-1.47304E-19-5.17055E-18
 -1      1393 9.85352E-05-2.95883E-05-2.95501E-05-2.33692E-07-3.52779E-19-7.10034E-18
 -1      1394 9.83222E-05-2.95142E-05-2.94898E-05-2.49784E-07-4.75021E-19-7.52877E-18
 -1      1395 9.83774E-05-2.95763E-05-2.94799E-05-3.49779E-07-5.57652E-19-5.09513E-18
 -1      1396 9.81080E-05-2.94428E-05-2.94293E-05-2.97775E-07-3.69537E-19-7.48346E-18
 -1      1397 9.78357E-05-2.93534E-05-2.93506E-05-3.01744E-07 2.88508E-20-7.80613E-18
 -1      1398 9.79964E-05-2.94265E-05-2.93849E-05-5.33732E-07-4.79943E-19-4.91021E-18
 -1      1399 9.76011E-05-2.92794E-05-2.92817E-05-3.07710E-07-2.12130E-19-7.63477E-18
 -1      1400 9.73200E-05-2.91897E-05-2.91997E-05-3.04187E-07-2.51389E-19-7.90030E-18
 -1      1401 9.75411E-05-2.92658E-05-2.92614E-05-5.94945E-07-2.28172E-19-5.04411E-18
 -1      1402 9.70931E-05-2.91205E-05-2.91317E-05-2.84714E-07-1.50890E-19-8.24014E-18
 -1      1403 9.68338E-05-2.90394E-05-2.90555E-05-2.77262E-07-1.83355E-19-8.20404E-18
 -1      1404 9.70788E-05-2.91128E-05-2.91305E-05-5.76136E-07-2.89519E-19-5.41412E-18
 -1      1405 9.66309E-05-2.89788E-05-2.89939E-05-2.44965E-07-2.97082E-19-8.36340E-18
 -1      1406 9.64085E-05-2.89104E-05-2.89282E-05-2.36039E-07-1.96693E-19-8.60904E-18
 -1      1407 9.66517E-05-2.89775E-05-2.90061E-05-5.12191E-07-4.68361E-19-5.86896E-18
 -1      1408 9.62372E-05-2.88600E-05-2.88758E-05-1.99540E-07-1.96833E-19-8.95526E-18
 -1      1409 9.60569E-05-2.88053E-05-2.88223E-05-1.90667E-07-1.39582E-19-9.40030E-18
 -1      1410 9.62815E-05-2.88643E-05-2.88961E-05-4.28389E-07-6.12884E-19-6.35669E-18
 -1      1411 9.59186E-05-2.87652E-05-2.87797E-05-1.55272E-07 3.92838E-19-9.46804E-18
 -1      1412 9.57792E-05-2.87234E-05-2.87382E-05-1.47289E-07 9.29379E-20-9.11876E-18
 -1      1413 9.59763E-05-2.87735E-05-2.88040E-05-3.41268E-07 9.71668E-20-6.95774E-18
 -1      1414 9.56719E-05-2.86925E-05-2.87050E-05-1.15855E-07-1.04809E-19-8.37492E-18
 -1      1415 9.55686E-05-2.86620E-05-2.86741E-05-1.09129E-07 3.79198E-19-7.84752E-18
 -1      1416 9.57348E-05-2.87034E-05-2.87302E-05-2.60486E-07 4.83519E-19-6.65239E-18
 -1      1417 9.54885E-05-2.86391E-05-2.86493E-05-8.28485E-08 2.34862E-19-7.91460E-18
 -1      1418 9.54152E-05-2.86178E-05-2.86272E-05-7.74570E-08-1.40926E-19-7.87691E-18
 -1      1419 9.55507E-05-2.86511E-05-2.86733E-05-1.90810E-07 6.64466E-20-5.71144E-18
 -1      1420 9.53577E-05-2.86014E-05-2.86094E-05-5.64914E-08-2.63066E-20-7.39956E-18
 -1      1421 9.53083E-05-2.85873E-05-2.85944E-05-5.23457E-08 1.58387E-19-7.29080E-18
 -1      1422 9.54156E-05-2.86135E-05-2.86311E-05-1.33807E-07 2.44809E-19-5.33022E-18
 -1      1423 9.52687E-05-2.85762E-05-2.85821E-05-3.62782E-08 6.17311E-19-7.00033E-18
 -1      1424 9.52375E-05-2.85675E-05-2.85726E-05-3.32108E-08 4.88841E-19-6.42843E-18
 -1      1425 9.53202E-05-2.85876E-05-2.86009E-05-8.91331E-08 5.56157E-19-4.47643E-18
 -1      1426 9.52117E-05-2.85603E-05-2.85646E-05-2.13521E-08 1.30892E-19-6.20125E-18
 -1      1427 9.51939E-05-2.85555E-05-2.85591E-05-1.91692E-08-3.48316E-19-6.13552E-18
 -1      1428 9.52559E-05-2.85706E-05-2.85803E-05-5.54382E-08 2.77420E-19-4.16975E-18
 -1      1429 9.51783E-05-2.85512E-05-2.85542E-05-1.07493E-08-7.37310E-19-6.18409E-18
 -1      1430 9.51699E-05-2.85492E-05-2.85515E-05-9.26253E-09-5.26201E-19-6.76288E-18
 -1      1431 9.52151E-05-2.85602E-05-2.85670E-05-3.09579E-08-6.15482E-19-3.31085E-18
 -1      1432 9.51616E-05-2.85470E-05-2.85489E-05-3.54087E-09-2.56718E-19-7.37256E-18
 -1      1433 9.51595E-05-2.85468E-05-2.85481E-05-2.58220E-09-2.57805E-19-8.01297E-18
 -1      1434 9.51915E-05-2.85546E-05-2.85591E-05-1.38714E-08-1.20346E-18-4.14253E-18
 -1      1435 9.51562E-05-2.85459E-05-2.85471E-05 1.09605E-09-3.91119E-20-7.95602E-18
 -1      1436 9.51582E-05-2.85468E-05-2.85476E-05 1.66764E-09 2.23522E-19-8.26946E-18
 -1      1437 9.51800E-05-2.85522E-05-2.85551E-05-2.49872E-09-3.27826E-19-5.23531E-18
 -1      1438 9.51581E-05-2.85469E-05-2.85476E-05 3.85022E-09-3.71931E-19-7.74525E-18
 -1      1439 9.51624E-05-2.85484E-05-2.85487E-05 4.14804E-09-2.12066E-19-8.11225E-18
 -1      1440 9.51766E-05-2.85520E-05-2.85536E-05 4.60755E-09-2.43625E-20-4.76803E-18
 -1      1441 9.51644E-05-2.85490E-05-2.85493E-05 5.27418E-09-5.08298E-19-8.17589E-18
 -1      1442 9.51697E-05-2.85509E-05-2.85509E-05 5.38606E-09-7.02214E-19-8.90385E-18
 -1      1443 9.51784E-05-2.85531E-05-2.85538E-05 8.63509E-09-6.99948E-19-4.61771E-18
 -1      1444 9.51728E-05-2.85518E-05-2.85518E-05 5.79582E-09-5.07302E-20-8.41437E-18
 -1      1445 9.51785E-05-2.85536E-05-2.85535E-05 5.78771E-09 4.95732E-19-7.88141E-18
 -1      1446 9.51833E-05-2.85549E-05-2.85551E-05 1.05219E-08-6.38802E-19-3.67196E-18
 -1      1447 9.51821E-05-2.85547E-05-2.85546E-05 5.73621E-09 6.00879E-19-8.13534E-18
 -1      1448 9.51876E-05-2.85564E-05-2.85562E-05 5.65612E-09 7.94588E-19-7.04268E-18
 -1      1449 9.51896E-05-2.85570E-05-2.85569E-05 1.09846E-08 8.27719E-19-3.58533E-18
 -1      1450 9.51912E-05-2.85575E-05-2.85573E-05 5.32888E-09 4.88902E-19-6.83291E-18
 -1      1451 9.51963E-05-2.85591E-05-2.85588E-05 5.21060E-09 2.20688E-19-6.28885E-18
 -1      1452 9.51966E-05-2.85592E-05-2.85588E-05 1.05543E-08 1.08920E-18-3.35649E-18
 -1      1453 9.51997E-05-2.85601E-05-2.85598E-05 4.73820E-09 1.01680E-19-6.29546E-18
 -1      1454 9.52042E-05-2.85614E-05-2.85611E-05 4.60465E-09-5.42464E-20-6.50744E-18
 -1      1455 9.52033E-05-2.85613E-05-2.85608E-05 9.61191E-09 3.36742E-20-4.03634E-18
 -1      1456 9.52072E-05-2.85623E-05-2.85621E-05 4.07551E-09-4.33179E-19-6.19311E-18
 -1      1457 9.52110E-05-2.85635E-05-2.85632E-05 3.94150E-09 1.61773E-19-6.56705E-18
 -1      1458 9.52096E-05-2.85632E-05-2.85627E-05 8.42196E-09 7.87911E-20-4.06052E-18
 -1      1459 9.52137E-05-2.85643E-05-2.85640E-05 3.41267E-09 7.96142E-19-6.64878E-18
 -1      1460 9.52169E-05-2.85652E-05-2.85650E-05 3.28714E-09 8.14124E-19-5.53163E-18
 -1      1461 9.52152E-05-2.85649E-05-2.85644E-05 7.16029E-09 5.67994E-19-4.09019E-18
 -1      1462 9.52191E-05-2.85659E-05-2.85657E-05 2.79296E-09 4.74147E-19-5.78513E-18
 -1      1463 9.52217E-05-2.85667E-05-2.85664E-05 2.68072E-09-2.06204E-19-5.54547E-18
 -1      1464 9.52199E-05-2.85663E-05-2.85658E-05 5.93760E-09 6.66820E-19-5.01373E-18
 -1      1465 9.52235E-05-2.85672E-05-2.85670E-05 2.23955E-09-1.76833E-19-4.15080E-18
 -1      1466 9.52256E-05-2.85678E-05-2.85676E-05 2.14262E-09 1.88028E-19-4.63061E-18
 -1      1467 9.52239E-05-2.85674E-05-2.85670E-05 4.81798E-09-2.16179E-19-3.63081E-18
 -1      1468 9.52271E-05-2.85682E-05-2.85681E-05 1.76200E-09-8.80379E-19-5.05092E-18
 -1      1469 9.52287E-05-2.85687E-05-2.85686E-05 1.68057E-09-1.57968E-18-6.68415E-18
 -1      1470 9.52272E-05-2.85684E-05-2.85680E-05 3.83315E-09-1.13740E-18-3.12914E-18
 -1      1471 9.52299E-05-2.85691E-05-2.85689E-05 1.36101E-09-8.89051E-19-6.05827E-18
 -1      1472 9.52311E-05-2.85694E-05-2.85693E-05 1.29417E-09-3.81429E-19-7.05383E-18
 -1      1473 9.52298E-05-2.85691E-05-2.85688E-05 2.99326E-09-1.53412E-18-3.42001E-18
 -1      1474 9.52320E-05-2.85697E-05-2.85696E-05 1.03185E-09 2.20541E-19-6.64961E-18
 -1      1475 9.52330E-05-2.85700E-05-2.85699E-05 9.78061E-10 3.43899E-19-5.95448E-18
 -1      1476 9.52319E-05-2.85697E-05-2.85695E-05 2.29472E-09-2.74883E-19-3.42061E-18
 -1      1477 9.52337E-05-2.85702E-05-2.85701E-05 7.66754E-10 4.51008E-19-5.26659E-18
 -1      1478 9.52344E-05-2.85704E-05-2.85703E-05 7.24175E-10 7.52146E-19-4.95414E-18
 -1      1479 9.52334E-05-2.85701E-05-2.85700E-05 1.72573E-09 9.29819E-19-2.79134E-18
 -1      1480 9.52349E-05-2.85705E-05-2.85705E-05 5.56453E-10 6.06408E-19-3.40278E-18
 -1      1481 9.52354E-05-2.85707E-05-2.85706E-05 5.23144E-10 1.02249E-18-2.37228E-18
 -1      1482 9.52346E-05-2.85705E-05-2.85703E-05 1.27012E-09 1.58745E-18-7.62182E-19
 -1      1483 9.52358E-05-2.85708E-05-2.85707E-05 3.91175E-10 1.35636E-18-2.47803E-18
 -1      1484 9.52361E-05-2.85709E-05-2.85708E-05 3.65194E-10 9.81851E-19-1.33332E-18
 -1      1485 9.52355E-05-2.85707E-05-2.85706E-05 9.09748E-10 1.47375E-18 6.37683E-19
 -1      1486 9.52364E-05-2.85709E-05-2.85709E-05 2.61218E-10 1.02933E-18-7.81262E-19
 -1      1487 9.52366E-05-2.85710E-05-2.85710E-05 2.40665E-10 1.04406E-18 7.60362E-19
 -1      1488 9.52362E-05-2.85709E-05-2.85708E-05 6.26042E-10 1.60010E-18 1.79003E-18
 -1      1489 9.52368E-05-2.85711E-05-2.85710E-05 1.57415E-10 9.69692E-19 1.32670E-19
 -1      1490 9.52369E-05-2.85711E-05-2.85711E-05 1.40495E-10 7.62247E-19 1.22735E-18
 -1      1491 9.52366E-05-2.85710E-05-2.85710E-05 4.01111E-10 9.94057E-19 1.66747E-18
 -1      1492 9.52370E-05-2.85711E-05-2.85711E-05 7.26625E-11 6.54171E-19 1.07892E-18
 -1      1493 9.52371E-05-2.85711E-05-2.85711E-05 5.80225E-11 5.94429E-19 2.02897E-18
 -1      1494 9.52369E-05-2.85711E-05-2.85710E-05 2.19674E-10 7.02160E-19 4.12542E-19
 -1      1495 9.52372E-05-2.85712E-05-2.85711E-05 4.89709E-12-4.91428E-19 1.81350E-18
 -1      1496 9.52371E-05-2.85712E-05-2.85711E-05-8.01226E-12-6.33133E-19 1.35952E-18
 -1      1497 9.52371E-05-2.85711E-05-2.85711E-05 7.51827E-11-2.19034E-19 6.75752E-19
 -1      1498 9.52372E-05-2.85711E-05-2.85712E-05-2.27452E-11-1.68355E-18 1.13937E-18
 -1      1499 9.52371E-05-2.85711E-05-2.85711E-05-2.00739E-11-1.43043E-18 3.58258E-19
 -1      1500 1.64869E-04-4.98115E-05-4.97057E-05 1.02436E-05 9.26389E-19 2.03495E-17
 -1      1501 1.77645E-04-5.23525E-05-5.41822E-05 1.00908E-05 5.57877E-19 2.18238E-17
 -1      1502 1.72404E-04-4.84136E-05-5.34869E-05 2.36878E-05 1.40948E-18 1.55596E-17
 -1      1503 1.43335E-04-4.28512E-05-4.33241E-05 1.20307E-05 1.13534E-18 1.82536E-17
 -1      1504 1.56111E-04-4.71609E-05-4.69380E-05 1.11747E-05 7.64183E-19 1.94947E-17
 -1      1505 1.58068E-04-4.80588E-05-4.72794E-05 2.12852E-05 1.45430E-18 1.45688E-17
 -1      1506 1.22080E-04-3.50597E-05-3.81897E-05 1.00417E-05 1.62789E-18 1.44559E-17
 -1      1507 1.34538E-04-3.95769E-05-4.11491E-05 1.06216E-05 1.47691E-18 1.66345E-17
 -1      1508 1.41467E-04-4.18575E-05-4.30163E-05 2.13421E-05 2.47715E-18 1.23377E-17
 -1      1509 1.11134E-04-3.13562E-05-3.53919E-05 2.12817E-06 2.21144E-18 8.98924E-18
 -1      1510 1.16319E-04-3.26305E-05-3.67667E-05 4.35232E-06 1.72710E-18 1.20422E-17
 -1      1511 1.26799E-04-3.50170E-05-4.00790E-05 1.28451E-05 3.50672E-18 8.42161E-18
 -1      1512 1.15678E-04-3.40701E-05-3.55940E-05-5.15158E-06 1.22116E-18 4.10515E-18
 -1      1513 1.11253E-04-3.14028E-05-3.50089E-05-3.40694E-06 1.62990E-18 6.69050E-18
 -1      1514 1.21279E-04-3.31128E-05-3.85005E-05-1.62860E-06 3.56463E-18 3.92618E-18
 -1      1515 1.26467E-04-3.86138E-05-3.75210E-05-6.11758E-06 5.11184E-19 1.10877E-18
 -1      1516 1.18709E-04-3.52408E-05-3.59706E-05-5.98597E-06 9.50239E-19 2.82803E-18
 -1      1517 1.24820E-04-3.66055E-05-3.80954E-05-9.95099E-06 2.24347E-18 4.81485E-19
 -1      1518 1.33351E-04-4.09155E-05-3.91903E-05-2.77399E-06 2.43449E-19-6.64921E-20
 -1      1519 1.28452E-04-3.92454E-05-3.80037E-05-3.51669E-06 3.30819E-19 5.51630E-19
 -1      1520 1.29782E-04-4.01467E-05-3.83579E-05-8.12633E-06 1.07627E-18-1.20898E-18
 -1      1521 1.33218E-04-4.04730E-05-3.94565E-05 9.06552E-07 4.48398E-20-2.31875E-19
 -1      1522 1.32919E-04-4.06774E-05-3.92524E-05 1.53525E-07 8.53915E-20 2.87727E-19
 -1      1523 1.30892E-04-4.08077E-05-3.84744E-05-1.71549E-06 1.97068E-19-1.52911E-18
 -1      1524 1.28381E-04-3.86463E-05-3.83579E-05 2.73073E-06-3.82038E-19 3.14752E-19
 -1      1525 1.31016E-04-3.97516E-05-3.89775E-05 2.37716E-06-2.49478E-20 3.12367E-19
 -1      1526 1.27795E-04-3.92058E-05-3.78769E-05 3.43225E-06-1.14455E-19-9.67351E-19
 -1      1527 1.21906E-04-3.65069E-05-3.66114E-05 3.16025E-06-4.18012E-19 1.30464E-18
 -1      1528 1.25539E-04-3.77853E-05-3.75852E-05 3.07127E-06-3.84864E-19 6.34586E-19
 -1      1529 1.22583E-04-3.70261E-05-3.66433E-05 5.63220E-06-4.16509E-19-6.99332E-20
 -1      1530 1.15582E-04-3.45456E-05-3.47801E-05 2.86006E-06 1.30890E-19 1.31261E-18
 -1      1531 1.19090E-04-3.56757E-05-3.57764E-05 2.90631E-06-2.30691E-19 1.25440E-18
 -1      1532 1.16910E-04-3.49868E-05-3.51214E-05 5.82641E-06-4.25897E-19 1.68771E-19
 -1      1533 1.10220E-04-3.29391E-05-3.31716E-05 2.30992E-06 6.18519E-19 3.38403E-19
 -1      1534 1.13140E-04-3.38286E-05-3.40275E-05 2.40253E-06 6.51203E-19 1.33143E-18
 -1      1535 1.11735E-04-3.33128E-05-3.36316E-05 5.05640E-06 6.55517E-19 2.53673E-19
 -1      1536 1.06004E-04-3.16985E-05-3.18854E-05 1.75555E-06 1.74601E-20-2.22081E-19
 -1      1537 1.08257E-04-3.23592E-05-3.25568E-05 1.85061E-06 3.78687E-19 4.85429E-19
 -1      1538 1.07444E-04-3.20165E-05-3.23468E-05 4.01263E-06 6.18556E-19 2.98579E-19
 -1      1539 1.02833E-04-3.07732E-05-3.09105E-05 1.28855E-06-5.17588E-19-1.54253E-20
 -1      1540 1.04496E-04-3.12489E-05-3.14110E-05 1.36968E-06-2.86267E-19-4.57398E-19
 -1      1541 1.04080E-04-3.10409E-05-3.13188E-05 3.02812E-06-8.92329E-20-4.47675E-19
 -1      1542 1.00509E-04-3.00981E-05-3.01949E-05 9.25993E-07-1.12050E-20 1.58604E-19
 -1      1543 1.01707E-04-3.04343E-05-3.05569E-05 9.89834E-07-1.62855E-20-2.04545E-20
 -1      1544 1.01535E-04-3.03192E-05-3.05330E-05 2.21786E-06-3.17684E-19-8.08965E-19
 -1      1545 9.88372E-05-2.96128E-05-2.96797E-05 6.56205E-07 2.28633E-21 6.40909E-19
 -1      1546 9.96859E-05-2.98477E-05-2.99369E-05 7.04421E-07-4.38902E-21 5.78123E-19
 -1      1547 9.96535E-05-2.97919E-05-2.99493E-05 1.59410E-06-7.33014E-20-6.42435E-19
 -1      1548 9.76486E-05-2.92680E-05-2.93138E-05 4.60027E-07-2.33397E-19 1.08812E-19
 -1      1549 9.82430E-05-2.94305E-05-2.94942E-05 4.95659E-07 3.67096E-19 4.57399E-19
 -1      1550 9.82848E-05-2.94105E-05-2.95237E-05 1.13086E-06 4.39056E-19-1.61622E-19
 -1      1551 9.68128E-05-2.90255E-05-2.90567E-05 3.19206E-07 5.99127E-19-1.02906E-19
 -1      1552 9.72247E-05-2.91368E-05-2.91819E-05 3.45233E-07 9.18907E-20 1.90037E-19
 -1      1553 9.73014E-05-2.91372E-05-2.92177E-05 7.93690E-07-1.10548E-19-4.06735E-19
 -1      1554 9.62314E-05-2.88568E-05-2.88780E-05 2.18899E-07-5.55345E-19 3.50800E-19
 -1      1555 9.65137E-05-2.89322E-05-2.89640E-05 2.37786E-07-8.25063E-20-3.00586E-19
 -1      1556 9.66023E-05-2.89432E-05-2.90000E-05 5.51121E-07 2.17931E-19-6.81920E-19
 -1      1557 9.58323E-05-2.87411E-05-2.87554E-05 1.47859E-07 1.26837E-19 4.16862E-19
 -1      1558 9.60229E-05-2.87912E-05-2.88136E-05 1.61493E-07 1.02773E-19 7.14447E-19
 -1      1559 9.61110E-05-2.88070E-05-2.88469E-05 3.77900E-07-2.65932E-19-2.24519E-19
 -1      1560 9.55625E-05-2.86630E-05-2.86726E-05 9.76912E-08-5.36710E-19 5.31348E-19
 -1      1561 9.56890E-05-2.86955E-05-2.87112E-05 1.07579E-07 2.63343E-19 1.68096E-19
 -1      1562 9.57702E-05-2.87127E-05-2.87407E-05 2.54927E-07 2.87497E-19-1.37475E-19
 -1      1563 9.53778E-05-2.86097E-05-2.86157E-05 6.11961E-08 5.52516E-19 2.88162E-19
 -1      1564 9.54620E-05-2.86308E-05-2.86416E-05 6.87785E-08-1.34013E-19 5.36943E-19
 -1      1565 9.55334E-05-2.86472E-05-2.86667E-05 1.66778E-07-2.76365E-19-2.13004E-19
 -1      1566 9.52672E-05-2.85777E-05-2.85817E-05 3.75043E-08 2.37943E-20-1.42591E-18
 -1      1567 9.53161E-05-2.85893E-05-2.85968E-05 4.23993E-08 5.84067E-19-2.80425E-19
 -1      1568 9.53766E-05-2.86045E-05-2.86175E-05 1.04849E-07 8.60894E-19-4.45738E-19
 -1      1569 9.52002E-05-2.85585E-05-2.85610E-05 2.12395E-08 5.95337E-20-8.53420E-19
 -1      1570 9.52282E-05-2.85647E-05-2.85697E-05 2.46850E-08-1.09598E-19-1.14384E-18
 -1      1571 9.52786E-05-2.85778E-05-2.85867E-05 6.35169E-08 2.74810E-20-5.02266E-19
 -1      1572 9.51631E-05-2.85480E-05-2.85494E-05 1.03553E-08-2.68649E-19-1.11848E-18
 -1      1573 9.51771E-05-2.85506E-05-2.85539E-05 1.27398E-08-9.04650E-20-1.31627E-18
 -1      1574 9.52183E-05-2.85616E-05-2.85676E-05 3.53415E-08 3.34924E-20-9.19217E-19
 -1      1575 9.51459E-05-2.85432E-05-2.85440E-05 3.28433E-09-1.24083E-19-5.35969E-19
 -1      1576 9.51508E-05-2.85435E-05-2.85457E-05 4.89975E-09-1.13822E-19-8.77347E-19
 -1      1577 9.51839E-05-2.85527E-05-2.85565E-05 1.65512E-08-3.86712E-19-1.47622E-18
 -1      1578 9.51416E-05-2.85422E-05-2.85425E-05-1.11024E-09 7.04215E-20-1.19564E-18
 -1      1579 9.51408E-05-2.85411E-05-2.85425E-05-4.78121E-11 2.39784E-19-3.54349E-19
 -1      1580 9.51669E-05-2.85486E-05-2.85509E-05 4.41162E-09 3.71498E-20-2.49891E-19
 -1      1581 9.51451E-05-2.85435E-05-2.85435E-05-3.65201E-09-6.98364E-19 6.45425E-19
 -1      1582 9.51410E-05-2.85416E-05-2.85424E-05-2.98294E-09-7.82537E-19-3.88034E-19
 -1      1583 9.51613E-05-2.85476E-05-2.85489E-05-3.06312E-09-7.40297E-19 6.62716E-19
 -1      1584 9.51531E-05-2.85460E-05-2.85458E-05-4.93648E-09-5.34798E-20 1.02124E-18
 -1      1585 9.51473E-05-2.85438E-05-2.85442E-05-4.54300E-09-5.02831E-19 4.66471E-19
 -1      1586 9.51629E-05-2.85485E-05-2.85491E-05-7.31519E-09-7.07137E-19 3.70475E-19
 -1      1587 9.51633E-05-2.85491E-05-2.85489E-05-5.39189E-09 8.99630E-19-5.39324E-19
 -1      1588 9.51568E-05-2.85469E-05-2.85470E-05-5.18748E-09 6.71028E-19 4.04619E-19
 -1      1589 9.51686E-05-2.85505E-05-2.85507E-05-9.38839E-09 7.45010E-19-1.06642E-18
 -1      1590 9.51742E-05-2.85524E-05-2.85521E-05-5.32326E-09-3.26164E-19-1.05394E-18
 -1      1591 9.51677E-05-2.85503E-05-2.85502E-05-5.24486E-09-2.54268E-19-1.09582E-18
 -1      1592 9.51764E-05-2.85530E-05-2.85529E-05-1.00332E-08 4.88153E-19-6.71775E-19
 -1      1593 9.51847E-05-2.85556E-05-2.85553E-05-4.94478E-09-1.54266E-19-3.82319E-20
 -1      1594 9.51786E-05-2.85536E-05-2.85535E-05-4.94694E-09-2.50143E-20 7.36615E-21
 -1      1595 9.51850E-05-2.85557E-05-2.85554E-05-9.78335E-09-8.21060E-19-1.12084E-18
 -1      1596 9.51944E-05-2.85585E-05-2.85582E-05-4.40390E-09 7.92854E-19-1.22501E-18
 -1      1597 9.51890E-05-2.85568E-05-2.85566E-05-4.45438E-09 3.75997E-19-6.52903E-19
 -1      1598 9.51935E-05-2.85583E-05-2.85579E-05-9.01280E-09 5.24201E-19-1.16701E-18
 -1      1599 9.52030E-05-2.85610E-05-2.85608E-05-3.79928E-09-6.45847E-19-1.95658E-18
 -1      1600 9.51983E-05-2.85596E-05-2.85594E-05-3.87565E-09 1.78082E-19-2.33817E-18
 -1      1601 9.52014E-05-2.85607E-05-2.85603E-05-7.97775E-09 9.01248E-19-2.39726E-18
 -1      1602 9.52103E-05-2.85632E-05-2.85630E-05-3.19544E-09 8.11948E-19-2.41025E-18
 -1      1603 9.52063E-05-2.85620E-05-2.85618E-05-3.28057E-09 1.78590E-19-1.66904E-18
 -1      1604 9.52085E-05-2.85628E-05-2.85624E-05-6.84931E-09-1.83507E-19-2.87119E-18
 -1      1605 9.52167E-05-2.85651E-05-2.85649E-05-2.60131E-09-4.99410E-21-2.77521E-18
 -1      1606 9.52133E-05-2.85641E-05-2.85639E-05-2.69517E-09 6.69354E-20-2.87440E-18
 -1      1607 9.52147E-05-2.85646E-05-2.85643E-05-5.71029E-09 5.84637E-19-2.12899E-18
 -1      1608 9.52217E-05-2.85666E-05-2.85664E-05-2.09472E-09 1.14417E-19-3.81158E-18
 -1      1609 9.52191E-05-2.85658E-05-2.85657E-05-2.17696E-09 6.41250E-19-2.79800E-18
 -1      1610 9.52199E-05-2.85662E-05-2.85659E-05-4.65070E-09 9.64423E-19-2.74980E-18
 -1      1611 9.52257E-05-2.85678E-05-2.85677E-05-1.65734E-09-2.37722E-21-3.59462E-18
 -1      1612 9.52236E-05-2.85672E-05-2.85670E-05-1.73183E-09-4.07838E-19-4.17562E-18
 -1      1613 9.52240E-05-2.85674E-05-2.85671E-05-3.73365E-09-1.67645E-19-2.77656E-18
 -1      1614 9.52288E-05-2.85687E-05-2.85686E-05-1.28839E-09-3.71478E-20-3.13228E-18
 -1      1615 9.52272E-05-2.85682E-05-2.85681E-05-1.35317E-09 3.85235E-19-2.95645E-18
 -1      1616 9.52274E-05-2.85684E-05-2.85681E-05-2.94440E-09-2.64741E-19-3.01310E-18
 -1      1617 9.52313E-05-2.85694E-05-2.85693E-05-9.84091E-10 9.49336E-19-5.41454E-18
 -1      1618 9.52300E-05-2.85691E-05-2.85690E-05-1.03887E-09 5.84598E-19-3.57490E-18
 -1      1619 9.52300E-05-2.85691E-05-2.85689E-05-2.28157E-09 6.45134E-19-3.61116E-18
 -1      1620 9.52331E-05-2.85700E-05-2.85699E-05-7.37887E-10-2.39922E-18-2.18894E-18
 -1      1621 9.52322E-05-2.85697E-05-2.85696E-05-7.83206E-10-1.15356E-18-4.52155E-18
 -1      1622 9.52321E-05-2.85697E-05-2.85696E-05-1.73678E-09-1.02579E-18-3.01899E-18
 -1      1623 9.52345E-05-2.85704E-05-2.85703E-05-5.41894E-10-1.84704E-19 1.27230E-18
 -1      1624 9.52338E-05-2.85702E-05-2.85701E-05-5.78747E-10-1.56807E-18-1.16385E-18
 -1      1625 9.52337E-05-2.85702E-05-2.85701E-05-1.29716E-09-3.49475E-18-4.41398E-19
 -1      1626 9.52355E-05-2.85707E-05-2.85706E-05-3.87739E-10 3.01178E-19 1.48994E-18
 -1      1627 9.52350E-05-2.85705E-05-2.85705E-05-4.17405E-10 4.40741E-19 2.44037E-18
 -1      1628 9.52348E-05-2.85705E-05-2.85704E-05-9.47688E-10-3.86827E-19 7.80956E-19
 -1      1629 9.52362E-05-2.85709E-05-2.85709E-05-2.67110E-10-1.02337E-18 1.51933E-18
 -1      1630 9.52359E-05-2.85708E-05-2.85707E-05-2.90991E-10-4.89427E-19 3.87443E-19
 -1      1631 9.52357E-05-2.85708E-05-2.85707E-05-6.72622E-10-1.97844E-19 4.81684E-19
 -1      1632 9.52367E-05-2.85710E-05-2.85710E-05-1.72103E-10 2.56329E-19 2.23172E-18
 -1      1633 9.52365E-05-2.85710E-05-2.85709E-05-1.91719E-10-8.08707E-19 1.41803E-18
 -1      1634 9.52363E-05-2.85709E-05-2.85709E-05-4.56555E-10-8.66018E-19 1.15827E-18
 -1      1635 9.52370E-05-2.85711E-05-2.85711E-05-9.54221E-11 1.24895E-18-4.14481E-19
 -1      1636 9.52369E-05-2.85711E-05-2.85711E-05-1.12321E-10 1.21862E-18 1.60218E-18
 -1      1637 9.52367E-05-2.85710E-05-2.85710E-05-2.84953E-10 7.02106E-19-8.69032E-19
 -1      1638 9.52371E-05-2.85711E-05-2.85711E-05-3.03753E-11-2.29527E-19-2.31122E-18
 -1      1639 9.52371E-05-2.85711E-05-2.85711E-05-4.70497E-11 2.80515E-19-1.40808E-18
 -1      1640 9.52370E-05-2.85711E-05-2.85711E-05-1.46496E-10 1.87272E-18-1.88807E-18
 -1      1641 9.52372E-05-2.85712E-05-2.85712E-05 2.08303E-11-9.65317E-19-7.49714E-19
 -1      1642 9.52372E-05-2.85712E-05-2.85711E-05 5.22043E-13-1.54840E-18-2.77984E-18
 -1      1643 9.52371E-05-2.85711E-05-2.85711E-05-3.40081E-11-1.07482E-18-2.96953E-18
 -1      1644 9.52371E-05-2.85711E-05-2.85712E-05 2.32068E-11-3.49883E-19-8.35779E-19
 -1      1645 9.52371E-05-2.85711E-05-2.85711E-05-1.06507E-11-4.15838E-18-3.38232E-20
 -1      1646 9.52371E-05-2.85711E-05-2.85711E-05 5.14067E-12-2.18595E-18-2.47500E-18
 -1      1647 9.52372E-05-2.85712E-05-2.85711E-05-7.45392E-11-2.66308E-18 1.55296E-18
 -1      1648 9.52371E-05-2.85712E-05-2.85711E-05-6.02983E-11-4.00989E-18 1.03647E-18
 -1      1649 9.52371E-05-2.85712E-05-2.85711E-05-7.92118E-11-3.35813E-18-6.72791E-19
 -1      1650 9.52372E-05-2.85714E-05-2.85711E-05-1.27752E-10-2.78278E-18 2.06447E-19
 -1      1651 9.52372E-05-2.85713E-05-2.85711E-05-1.18463E-10-2.87136E-18 9.60705E-19
 -1      1652 9.52372E-05-2.85714E-05-2.85711E-05-1.92856E-10-3.10736E-18 6.03912E-19
 -1      1653 9.52373E-05-2.85717E-05-2.85710E-05-1.53895E-10-2.50459E-18-1.03376E-18
 -1      1654 9.52373E-05-2.85715E-05-2.85710E-05-1.50969E-10-2.35291E-18 7.45670E-20
 -1      1655 9.52373E-05-2.85716E-05-2.85710E-05-2.73116E-10-1.94531E-18-1.66506E-19
 -1      1656 9.52374E-05-2.85719E-05-2.85709E-05-1.48901E-10-4.17487E-18 1.74231E-19
 -1      1657 9.52373E-05-2.85718E-05-2.85709E-05-1.52251E-10-2.76600E-18-1.54534E-18
 -1      1658 9.52373E-05-2.85718E-05-2.85709E-05-2.98076E-10-1.60558E-18-1.25292E-18
 -1      1659 9.52375E-05-2.85721E-05-2.85709E-05-1.14943E-10-2.26733E-18 8.76807E-19
 -1      1660 9.52374E-05-2.85720E-05-2.85709E-05-1.23729E-10-3.70125E-18 2.20858E-18
 -1      1661 9.52374E-05-2.85720E-05-2.85709E-05-2.64831E-10-1.71494E-18 8.97399E-19
 -1      1662 9.52375E-05-2.85723E-05-2.85708E-05-5.93658E-11-1.83679E-18-3.77174E-19
 -1      1663 9.52375E-05-2.85722E-05-2.85708E-05-7.16623E-11-1.32009E-18-4.11322E-19
 -1      1664 9.52375E-05-2.85722E-05-2.85708E-05-1.81064E-10-2.20647E-18 1.33362E-18
 -1      1665 9.52375E-05-2.85723E-05-2.85708E-05 7.10419E-12-3.45652E-18-1.38171E-18
 -1      1666 9.52375E-05-2.85723E-05-2.85708E-05-6.40526E-12-2.16324E-18-1.47994E-19
 -1      1667 9.52375E-05-2.85723E-05-2.85708E-05-6.37887E-11-1.22038E-18-1.12209E-18
 -1      1668 9.52375E-05-2.85722E-05-2.85708E-05 7.22736E-11-5.34081E-18 4.37038E-19
 -1      1669 9.52375E-05-2.85723E-05-2.85708E-05 6.00104E-11-5.39860E-18-7.34699E-19
 -1      1670 9.52375E-05-2.85723E-05-2.85708E-05 6.51095E-11-1.59248E-18-2.72246E-18
 -1      1671 9.52374E-05-2.85720E-05-2.85709E-05 1.24112E-10-8.13919E-18-2.42041E-18
 -1      1672 9.52375E-05-2.85721E-05-2.85709E-05 1.15420E-10-5.86012E-18-6.91092E-19
 -1      1673 9.52375E-05-2.85722E-05-2.85708E-05 1.82140E-10-2.92036E-18-7.86104E-19
 -1      1674 9.52373E-05-2.85718E-05-2.85709E-05 1.52201E-10-8.38711E-18 1.80962E-18
 -1      1675 9.52374E-05-2.85719E-05-2.85709E-05 1.48879E-10-8.01921E-18-1.35118E-18
 -1      1676 9.52374E-05-2.85720E-05-2.85709E-05 2.65080E-10-4.59656E-18-2.66384E-18
 -1      1677 9.52373E-05-2.85715E-05-2.85710E-05 1.50801E-10-5.75883E-18 5.78156E-19
 -1      1678 9.52373E-05-2.85717E-05-2.85710E-05 1.53811E-10-8.13296E-18 3.28444E-18
 -1      1679 9.52373E-05-2.85718E-05-2.85709E-05 2.98034E-10-2.62227E-18 3.13880E-18
 -1      1680 9.52372E-05-2.85713E-05-2.85711E-05 1.17686E-10-4.52184E-18 1.63311E-18
 -1      1681 9.52372E-05-2.85714E-05-2.85711E-05 1.27074E-10-5.88544E-18 6.70040E-19
 -1      1682 9.52373E-05-2.85716E-05-2.85710E-05 2.72476E-10-2.66853E-18 1.71509E-18
 -1      1683 9.52371E-05-2.85712E-05-2.85711E-05 6.19327E-11-2.91009E-18 1.19361E-18
 -1      1684 9.52372E-05-2.85712E-05-2.85711E-05 7.59962E-11-4.74448E-18 2.78301E-18
 -1      1685 9.52372E-05-2.85714E-05-2.85711E-05 1.91054E-10-1.88083E-18 2.13983E-18
 -1      1686 9.52371E-05-2.85712E-05-2.85711E-05 1.49665E-11-2.20971E-18-8.57079E-19
 -1      1687 9.52371E-05-2.85712E-05-2.85711E-05 3.09084E-11-2.18322E-18-5.96102E-19
 -1      1688 9.52371E-05-2.85713E-05-2.85711E-05 1.08446E-10-1.62083E-18 1.88688E-18
 -1      1689 9.52371E-05-2.85712E-05-2.85711E-05 4.56870E-11-1.08807E-18-1.26353E-19
 -1      1690 1.54861E-05-4.19195E-05 5.92922E-06-1.19301E-06 1.91108E-17 7.93098E-18
 -1      1691 1.78470E-05-5.10566E-05 8.33524E-06 2.84804E-06 1.17111E-17 5.43456E-18
 -1      1692 1.90346E-05-1.88447E-05-4.28463E-06 1.30233E-05 2.50502E-17 1.31574E-17
 -1      1693 2.11603E-05-3.96626E-05 1.97079E-06 5.95458E-06 2.18958E-17 8.78037E-18
 -1      1694 4.82391E-05-7.57945E-07-2.18250E-05 4.60261E-05 2.37042E-17 1.77597E-17
 -1      1695 3.55527E-05-1.72012E-05-1.21438E-05 2.42277E-05 2.39185E-17 1.41836E-17
 -1      1696 9.71050E-05 2.71175E-06-4.11297E-05 7.75088E-05 2.04558E-17 2.11894E-17
 -1      1697 6.54264E-05 3.14217E-06-3.12112E-05 5.46659E-05 2.41252E-17 2.00323E-17
 -1      1698 1.68912E-04-2.02354E-05-5.88045E-05 9.01176E-05 1.36423E-17 1.81282E-17
 -1      1699 1.23332E-04-2.95588E-06-5.00797E-05 8.11386E-05 1.85729E-17 2.06007E-17
 -1      1700 2.35107E-04-5.05997E-05-7.15651E-05 7.08714E-05 7.82457E-18 8.65329E-18
 -1      1701 1.93243E-04-2.78581E-05-6.58069E-05 8.55355E-05 1.16969E-17 1.57658E-17
 -1      1702 2.61723E-04-6.63443E-05-7.58353E-05 2.38219E-05 5.11481E-18-5.11269E-18
 -1      1703 2.47507E-04-5.55371E-05-7.47514E-05 5.80314E-05 6.75784E-18 4.40034E-18
 -1      1704 2.29784E-04-5.61906E-05-6.89443E-05-2.24393E-05 8.20161E-18-1.75107E-17
 -1      1705 2.56402E-04-6.65484E-05-7.38529E-05 1.03700E-05 5.71747E-18-8.66515E-18
 -1      1706 1.61212E-04-3.32966E-05-5.36361E-05-4.80199E-05 1.40794E-17-2.65562E-17
 -1      1707 2.13871E-04-5.49015E-05-6.27527E-05-3.93778E-05 9.22080E-18-2.23185E-17
 -1      1708 8.78354E-05-1.74533E-05-3.35603E-05-3.45782E-05 1.97867E-17-2.53695E-17
 -1      1709 1.32978E-04-2.80822E-05-4.41215E-05-4.98696E-05 1.58285E-17-2.64664E-17
 -1      1710 3.99709E-05-1.36331E-05-1.65008E-05-1.51382E-05 2.02831E-17-1.94445E-17
 -1      1711 6.11937E-05-1.09464E-05-2.46479E-05-3.19578E-05 1.98172E-17-2.37144E-17
 -1      1712 1.20854E-05-1.16337E-05-5.22054E-06-8.32349E-07 1.90328E-17-1.31787E-17
 -1      1713 1.58625E-05-4.65824E-06-9.78207E-06-7.38589E-06 2.18636E-17-1.83738E-17
 -1      1714 3.10062E-06-8.04767E-06-5.91826E-07 4.12074E-06 1.14954E-17-6.86880E-18
 -1      1715 3.95037E-06-7.39113E-06-2.24034E-06 5.19339E-06 1.66630E-17-1.08619E-17
 -1      1716 1.25018E-06-4.60065E-06-1.96367E-07 4.52833E-06 5.12667E-18-3.23429E-18
 -1      1717 1.93592E-06-8.73224E-06 5.05468E-07 7.53516E-06 1.08375E-17-4.75133E-18
 -1      1718 1.50395E-06 4.71848E-06-4.08705E-06 7.04358E-06-2.54660E-18-3.95723E-18
 -1      1719 2.02262E-06-1.65633E-06-1.78301E-06 6.47506E-06 3.31508E-18-3.06732E-18
 -1      1720 6.03658E-06 1.40916E-05-1.07936E-05 1.61216E-05-9.91579E-18-7.34483E-18
 -1      1721 4.22302E-06 6.97008E-06-7.02196E-06 1.06375E-05-4.93312E-18-4.18765E-18
 -1      1722 2.94958E-05 1.62116E-05-2.15762E-05 3.77803E-05-1.30219E-17-1.27197E-17
 -1      1723 1.84839E-05 1.19584E-05-1.58325E-05 2.51730E-05-1.01699E-17-8.49087E-18
 -1      1724 6.93133E-05 8.65845E-06-3.42368E-05 5.88393E-05-1.48142E-17-1.78364E-17
 -1      1725 4.64488E-05 1.19105E-05-2.76422E-05 4.47465E-05-1.49391E-17-1.45389E-17
 -1      1726 1.26706E-04-1.23775E-05-4.76848E-05 6.87224E-05-1.22566E-17-1.96054E-17
 -1      1727 9.13106E-05 1.32256E-06-4.07994E-05 6.18031E-05-1.49849E-17-1.90625E-17
 -1      1728 1.87148E-04-4.00251E-05-5.95577E-05 5.15736E-05-7.80456E-18-1.52737E-17
 -1      1729 1.50036E-04-2.17317E-05-5.37433E-05 6.14272E-05-1.10474E-17-1.85475E-17
 -1      1730 2.24838E-04-5.66804E-05-6.71311E-05 1.29447E-05-4.81528E-18-6.91137E-18
 -1      1731 2.02800E-04-4.53802E-05-6.38862E-05 3.93433E-05-6.79882E-18-1.30341E-17
 -1      1732 2.23001E-04-5.19729E-05-6.80574E-05-3.57531E-05-5.26876E-18 3.32312E-18
 -1      1733 2.27466E-04-5.62423E-05-6.83776E-05-3.62925E-06-4.53438E-18-3.93066E-18
 -1      1734 1.87162E-04-3.13777E-05-6.22905E-05-7.15911E-05-7.87746E-18 1.20855E-17
 -1      1735 2.16598E-04-4.90039E-05-6.62205E-05-5.11598E-05-5.30984E-18 7.04858E-18
 -1      1736 1.26464E-04-5.65624E-06-4.94975E-05-7.71766E-05-1.24662E-17 1.58073E-17
 -1      1737 1.67430E-04-2.43059E-05-5.67531E-05-7.76498E-05-8.95737E-18 1.38507E-17
 -1      1738 7.44253E-05 6.21965E-06-3.46440E-05-6.22795E-05-1.48417E-17 1.54431E-17
 -1      1739 1.04125E-04 2.85873E-07-4.22658E-05-7.72664E-05-1.32052E-17 1.69627E-17
 -1      1740 4.06587E-05-2.41533E-07-1.96911E-05-3.73484E-05-1.38041E-17 1.20753E-17
 -1      1741 5.69481E-05 7.18254E-06-2.73073E-05-5.62323E-05-1.49984E-17 1.49095E-17
 -1      1742 2.42258E-05-1.98296E-05-6.21467E-06-1.57647E-05-9.14033E-18 7.48396E-18
 -1      1743 2.79057E-05-2.88823E-06-1.28363E-05-2.95980E-05-1.27656E-17 1.14201E-17
 -1      1744 1.96211E-05-4.21071E-05 3.92498E-06-4.72076E-06-5.76829E-19 4.18273E-18
 -1      1745 1.64721E-05-2.43767E-05-7.67471E-07-8.34555E-06-6.80591E-18 6.76070E-18
 -1      1746 1.80239E-05-5.27331E-05 8.78322E-06-4.16809E-06 9.39465E-18 3.88110E-18
 -1      1747 1.58596E-05-4.47569E-05 6.91064E-06 7.91191E-07 2.22600E-18 3.75617E-18
 -1      1748 1.47404E-05 7.49038E-06-1.02328E-05 2.05363E-05 3.18357E-18-4.16693E-18
 -1      1749 2.43752E-05 6.89537E-06-1.33429E-05 2.45738E-05 3.93150E-18-4.36765E-18
 -1      1750 1.34133E-04-2.65567E-05-4.44660E-05 5.59554E-05 1.38719E-17 1.12732E-17
 -1      1751 8.82679E-05-2.82237E-05-2.68854E-05 4.94510E-05 1.40472E-17 1.12791E-17
 -1      1752 9.52371E-05-2.85712E-05-2.85711E-05 1.37056E-11-5.32537E-19-2.56458E-18
 -1      1753 1.86755E-05-2.87946E-05 5.44966E-07 1.89592E-05 1.12469E-17 9.38745E-18
 -1      1754 4.78481E-05-2.83281E-05-1.07980E-05 3.83317E-05 1.35170E-17 1.00899E-17
 -1      1755 9.12927E-06-2.93541E-05 4.66569E-06-1.52910E-07 7.67285E-18 8.85869E-18
 -1      1756 1.79964E-04-3.07835E-05-5.96469E-05 5.12768E-05 1.18639E-17 8.04173E-18
 -1      1757 2.10636E-04-3.44868E-05-6.93655E-05 3.70133E-05 1.06402E-17 2.12309E-18
 -1      1758 2.14162E-04-3.55291E-05-7.05099E-05 2.02907E-05 1.02643E-17-4.40796E-18
 -1      1759 2.00153E-04-4.21931E-05-6.30462E-05 1.58921E-06 1.04242E-17-1.02084E-17
 -1      1760 1.59527E-04-4.47638E-05-4.79658E-05-1.49033E-05 1.11806E-17-1.50247E-17
 -1      1761 1.04639E-04-3.75983E-05-3.05346E-05-2.16443E-05 1.08251E-17-1.45021E-17
 -1      1762 4.92498E-05-1.92250E-05-1.58906E-05-1.98029E-05 1.09754E-17-1.38511E-17
 -1      1763 1.16556E-05-3.07030E-06-6.38131E-06-6.71686E-06 9.12530E-18-1.14100E-17
 -1      1764-1.27862E-06 2.50023E-06-2.28812E-06 4.07366E-06 7.04313E-18-8.35069E-18
 -1      1765-1.56993E-06 5.09251E-06-2.68799E-06 9.80053E-06 4.27921E-18-6.22654E-18
 -1      1766 4.69115E-06 8.91517E-06-7.02500E-06 1.61221E-05 9.18607E-19-6.24136E-18
 -1      1767 2.36685E-05 7.81651E-06-1.48404E-05 2.85147E-05-2.16036E-18-7.52583E-18
 -1      1768 5.74700E-05-1.09440E-06-2.53929E-05 4.03520E-05-4.60786E-18-9.15156E-18
 -1      1769 9.93355E-05-1.23691E-05-3.74706E-05 4.54893E-05-7.90790E-18-1.11173E-17
 -1      1770 1.43179E-04-2.36150E-05-4.95554E-05 3.78390E-05-8.68759E-18-1.09466E-17
 -1      1771 1.76961E-04-3.05478E-05-5.93761E-05 1.92656E-05-8.33470E-18-8.25815E-18
 -1      1772 1.90802E-04-2.98218E-05-6.46222E-05-3.68282E-06-8.15777E-18-4.50833E-18
 -1      1773 1.88927E-04-2.85622E-05-6.40544E-05-2.65976E-05-7.76835E-18 2.21499E-19
 -1      1774 1.67097E-04-2.50693E-05-5.69828E-05-4.39632E-05-7.71785E-18 4.95726E-18
 -1      1775 1.30875E-04-2.08713E-05-4.48569E-05-5.23915E-05-7.68958E-18 7.60297E-18
 -1      1776 9.23546E-05-1.90537E-05-3.09476E-05-5.14523E-05-7.07357E-18 8.90782E-18
 -1      1777 5.91070E-05-2.14808E-05-1.74492E-05-4.30903E-05-4.98140E-18 9.15981E-18
 -1      1778 3.27735E-05-2.61281E-05-5.74395E-06-3.08546E-05-1.69745E-18 8.34372E-18
 -1      1779 1.56740E-05-3.02360E-05 2.28873E-06-1.69998E-05 2.85111E-18 7.90303E-18
 -1      1780 3.14132E-05 5.29817E-06-1.56498E-05 2.55078E-05 6.57509E-18-4.19705E-18
 -1      1781 9.88861E-05-9.91014E-06-3.84285E-05-3.16305E-05-3.26139E-18 6.21299E-19
 -1      1782 1.08938E-04-2.70427E-05-3.56239E-05-1.76372E-05-3.36711E-18 1.05388E-17
 -1      1783 7.82600E-06 1.29507E-05-9.10886E-06 1.70869E-05 3.88534E-18-4.78531E-18
 -1      1784 9.95740E-05-1.05169E-05-3.83039E-05-2.00181E-05-2.95656E-18-7.15735E-18
 -1      1785 9.82738E-05-1.09580E-05-3.75981E-05-2.16917E-05-3.91740E-18-6.40034E-18
 -1      1786 9.80053E-05-1.28746E-05-3.66429E-05-2.23555E-05-4.22855E-18-5.03487E-18
 -1      1787 9.83563E-05-1.46957E-05-3.60576E-05-2.36228E-05-4.99802E-18-2.75137E-18
 -1      1788 1.00139E-04-1.55817E-05-3.62090E-05-2.00222E-05-4.45623E-18-5.21809E-18
 -1      1789 1.08843E-04-1.30254E-05-4.11676E-05-1.44404E-05 3.41765E-19-6.84884E-18
 -1      1790 1.06037E-04-1.14598E-05-4.07095E-05-1.64174E-05-6.44182E-19-7.35188E-18
 -1      1791 1.13927E-04-1.77012E-05-4.12864E-05-9.49389E-06 2.23842E-18-5.14174E-18
 -1      1792 1.11694E-04-1.52750E-05-4.15694E-05-1.25990E-05 1.12895E-18-6.15406E-18
 -1      1793 1.12257E-04-1.60105E-05-4.12353E-05-1.51985E-05 2.49094E-19-5.73948E-18
 -1      1794 1.14365E-04-2.25321E-05-3.93443E-05-7.25664E-07 4.35123E-18-3.03060E-18
 -1      1795 1.15388E-04-2.07048E-05-4.08444E-05-5.48876E-06 3.07439E-18-4.07476E-18
 -1      1796 1.17692E-04-2.10783E-05-4.14280E-05-1.09108E-05 1.92104E-18-3.67876E-18
 -1      1797 6.32696E-05-8.06911E-06-2.38140E-05 2.87126E-05 7.23303E-18-2.93269E-18
 -1      1798 8.39905E-05-1.54050E-05-2.90360E-05 2.44113E-05 7.18824E-18-2.79494E-18
 -1      1799 1.03142E-04-2.23728E-05-3.44680E-05-2.22225E-05-4.69219E-18 2.95583E-18
 -1      1800 2.86787E-05 5.05821E-06-1.41002E-05-6.79062E-06-1.69258E-18-6.34989E-18
 -1      1801 1.31180E-05 1.04043E-05-1.02086E-05-3.46955E-06-6.29557E-19-6.17148E-18
 -1      1802 1.50976E-04-3.90330E-05-4.71262E-05 4.10754E-05 9.32372E-18 4.49690E-18
 -1      1803 1.29209E-04-3.86941E-05-3.92634E-05 4.09685E-05 9.70573E-18 5.54891E-18
 -1      1804 1.14193E-04-2.58301E-05-3.77605E-05 8.71601E-06-1.59708E-18-4.73597E-19
 -1      1805 9.52051E-05-2.14332E-05-3.14809E-05 1.25258E-06-2.66222E-18-2.16851E-18
 -1      1806 1.46130E-04-3.25538E-05-4.89926E-05 2.62289E-05 3.10861E-19 5.59444E-18
 -1      1807 1.31110E-04-2.99954E-05-4.33237E-05 1.85162E-05-8.05952E-19 2.19784E-18
 -1      1808 1.68700E-04-4.69917E-05-5.28368E-05 2.67488E-05 1.18908E-18 1.20810E-17
 -1      1809 1.55252E-04-3.57720E-05-5.08822E-05 2.92231E-05 8.47456E-19 8.23634E-18
 -1      1810 1.52948E-04-4.38525E-05-4.69683E-05 2.69528E-05 7.05870E-19 6.88765E-18
 -1      1811 1.62443E-04-4.85333E-05-4.93095E-05 2.42604E-05 1.43530E-18 1.21840E-17
 -1      1812 1.52810E-04-4.68259E-05-4.55518E-05 2.70561E-05 2.36147E-18 1.13011E-17
 -1      1813 1.60782E-04-5.00084E-05-4.77206E-05 2.56376E-05 1.54647E-18 1.19361E-17
 -1      1814 1.58578E-04-4.85781E-05-4.71996E-05 2.98215E-05 1.60920E-18 9.32096E-18
 -1      1815 9.71343E-05-2.59809E-05-3.03808E-05-8.50900E-06-3.96893E-18-4.92255E-19
 -1      1816 9.47287E-05-2.58476E-05-2.94707E-05-5.68901E-06-3.36848E-18-1.45679E-18
 -1      1817 9.36168E-05-2.59687E-05-2.88571E-05-3.24791E-06-2.97433E-18-1.54648E-18
 -1      1818 9.26812E-05-2.60222E-05-2.84979E-05-1.47359E-06-2.45274E-18-2.33915E-18
 -1      1819 9.71178E-05-2.55433E-05-3.07505E-05-6.12254E-06-3.78613E-18-2.70151E-18
 -1      1820 9.21429E-05-2.61610E-05-2.81879E-05 3.86313E-07-2.10899E-18-2.49545E-18
 -1      1821 9.21827E-05-2.64438E-05-2.81288E-05 1.57119E-06-1.75912E-18-3.09588E-18
 -1      1822 9.54538E-05-2.60995E-05-2.97741E-05-1.17905E-06-2.82781E-18-3.15265E-18
 -1      1823 9.22288E-05-2.67342E-05-2.80104E-05 2.81786E-06-1.60647E-18-3.30001E-18
 -1      1824 9.29076E-05-2.72220E-05-2.81298E-05 3.51040E-06-1.31125E-18-3.78573E-18
 -1      1825 9.51088E-05-2.68697E-05-2.92799E-05 2.33520E-06-2.07246E-18-3.46376E-18
 -1      1826 9.33302E-05-2.76266E-05-2.81269E-05 4.12054E-06-1.19418E-18-3.85360E-18
 -1      1827 9.43304E-05-2.81898E-05-2.83406E-05 4.34016E-06-9.65423E-19-4.28438E-18
 -1      1828 9.57078E-05-2.79083E-05-2.90747E-05 4.43928E-06-1.46263E-18-3.70972E-18
 -1      1829 9.48678E-05-2.85780E-05-2.84016E-05 4.37523E-06-7.61551E-19-4.26342E-18
 -1      1830 9.59130E-05-2.90836E-05-2.86438E-05 4.20844E-06-3.69205E-19-4.35223E-18
 -1      1831 9.67779E-05-2.90119E-05-2.90444E-05 5.16516E-06-1.01633E-18-3.95434E-18
 -1      1832 9.63679E-05-2.93563E-05-2.87296E-05 3.83316E-06-4.53828E-19-4.23930E-18
 -1      1833 9.72618E-05-2.97223E-05-2.89509E-05 3.42642E-06-3.49107E-19-4.13144E-18
 -1      1834 9.78462E-05-2.99034E-05-2.91103E-05 4.77932E-06-4.50603E-19-3.81661E-18
 -1      1835 9.75392E-05-2.98475E-05-2.90325E-05 2.84735E-06-3.79678E-19-4.04548E-18
 -1      1836 9.81808E-05-3.00541E-05-2.92024E-05 2.35412E-06-1.71180E-19-3.93195E-18
 -1      1837 9.86160E-05-3.04273E-05-2.92126E-05 3.71071E-06-2.64764E-19-3.80613E-18
 -1      1838 9.82709E-05-3.00536E-05-2.92618E-05 1.74965E-06-3.92401E-19-3.97133E-18
 -1      1839 9.86418E-05-3.01243E-05-2.93687E-05 1.28679E-06-1.07269E-19-4.06382E-18
 -1      1840 9.89892E-05-3.05821E-05-2.93075E-05 2.39506E-06-3.81901E-19-3.60781E-18
 -1      1841 9.85817E-05-3.00424E-05-2.93980E-05 7.70854E-07-1.43170E-19-4.38619E-18
 -1      1842 9.87172E-05-3.00183E-05-2.94451E-05 4.03165E-07 1.25561E-19-4.69279E-18
 -1      1843 9.90045E-05-3.04637E-05-2.93678E-05 1.15698E-06-4.48239E-19-3.75514E-18
 -1      1844 9.85575E-05-2.98976E-05-2.94447E-05 2.47558E-08 3.76020E-20-4.71584E-18
 -1      1845 9.85173E-05-2.98191E-05-2.94435E-05-2.28003E-07-2.22895E-19-4.62165E-18
 -1      1846 9.87611E-05-3.01930E-05-2.93826E-05 1.73775E-07-3.69204E-20-4.08445E-18
 -1      1847 9.83043E-05-2.96904E-05-2.94190E-05-4.66397E-07-2.87689E-19-4.40798E-18
 -1      1848 9.81511E-05-2.95887E-05-2.93842E-05-6.13451E-07-3.27235E-19-4.15961E-18
 -1      1849 9.83638E-05-2.98696E-05-2.93534E-05-5.00756E-07-2.76874E-20-3.93626E-18
 -1      1850 9.79199E-05-2.94698E-05-2.93434E-05-7.34457E-07-5.66164E-19-3.95609E-18
 -1      1851 9.77076E-05-2.93652E-05-2.92892E-05-7.98549E-07-1.20668E-19-3.67661E-18
 -1      1852 9.78985E-05-2.95575E-05-2.92895E-05-8.90834E-07-2.95711E-19-3.26547E-18
 -1      1853 9.74818E-05-2.92640E-05-2.92394E-05-8.33455E-07-1.28343E-19-3.83096E-18
 -1      1854 9.72508E-05-2.91681E-05-2.91773E-05-8.40082E-07-6.76769E-20-3.77338E-18
 -1      1855 9.74257E-05-2.92885E-05-2.92032E-05-1.05686E-06-2.76918E-19-3.06126E-18
 -1      1856 9.70445E-05-2.90864E-05-2.91250E-05-8.19028E-07-3.99397E-19-4.02503E-18
 -1      1857 9.68215E-05-2.90046E-05-2.90630E-05-7.90643E-07-4.09206E-19-4.23852E-18
 -1      1858 9.69831E-05-2.90729E-05-2.91065E-05-1.06687E-06-3.22982E-19-3.45362E-18
 -1      1859 9.66418E-05-2.89411E-05-2.90129E-05-7.38158E-07-6.00584E-19-4.62176E-18
 -1      1860 9.64425E-05-2.88748E-05-2.89561E-05-6.91973E-07-6.69907E-19-4.70948E-18
 -1      1861 9.65911E-05-2.89086E-05-2.90092E-05-9.81124E-07-7.57733E-19-3.86990E-18
 -1      1862 9.62919E-05-2.88269E-05-2.89109E-05-6.25877E-07-5.20585E-19-4.75250E-18
 -1      1863 9.61233E-05-2.87753E-05-2.88619E-05-5.73762E-07-5.87521E-19-4.69869E-18
 -1      1864 9.62581E-05-2.87881E-05-2.89181E-05-8.46268E-07-6.19150E-19-3.61006E-18
 -1      1865 9.60011E-05-2.87402E-05-2.88231E-05-5.05779E-07-4.45356E-19-4.33149E-18
 -1      1866 9.58648E-05-2.87014E-05-2.87829E-05-4.55119E-07 3.21216E-19-4.48334E-18
 -1      1867 9.59849E-05-2.87028E-05-2.88374E-05-6.94813E-07-4.93967E-19-2.82588E-18
 -1      1868 9.57684E-05-2.86762E-05-2.87509E-05-3.92158E-07 5.76430E-19-4.95791E-18
 -1      1869 9.56624E-05-2.86481E-05-2.87191E-05-3.46983E-07 6.79835E-19-4.76057E-18
 -1      1870 9.57672E-05-2.86442E-05-2.87689E-05-5.47268E-07 2.04529E-20-3.02539E-18
 -1      1871 9.55884E-05-2.86305E-05-2.86937E-05-2.92493E-07 3.87872E-19-4.73763E-18
 -1      1872 9.55090E-05-2.86109E-05-2.86695E-05-2.54532E-07-2.77412E-20-4.56001E-18
 -1      1873 9.55985E-05-2.86053E-05-2.87130E-05-4.15033E-07 4.43513E-19-3.95362E-18
 -1      1874 9.54538E-05-2.85990E-05-2.86499E-05-2.09674E-07 1.29341E-19-4.17216E-18
 -1      1875 9.53964E-05-2.85859E-05-2.86322E-05-1.79209E-07 9.99795E-19-3.78901E-18
 -1      1876 9.54712E-05-2.85805E-05-2.86689E-05-3.03171E-07 2.86439E-19-3.22325E-18
 -1      1877 9.53564E-05-2.85781E-05-2.86176E-05-1.43755E-07 9.53741E-19-3.61002E-18
 -1      1878 9.53167E-05-2.85699E-05-2.86051E-05-1.20246E-07 5.91402E-19-3.43835E-18
 -1      1879 9.53780E-05-2.85656E-05-2.86350E-05-2.12682E-07 1.06077E-18-2.72077E-18
 -1      1880 9.52887E-05-2.85650E-05-2.85945E-05-9.32182E-08 2.46848E-19-3.13533E-18
 -1      1881 9.52626E-05-2.85603E-05-2.85861E-05-7.57255E-08 2.08067E-19-3.43274E-18
 -1      1882 9.53118E-05-2.85573E-05-2.86099E-05-1.42207E-07 8.21877E-19-2.82712E-18
 -1      1883 9.52437E-05-2.85576E-05-2.85788E-05-5.58259E-08 1.04274E-20-3.21423E-18
 -1      1884 9.52277E-05-2.85553E-05-2.85735E-05-4.32816E-08-6.35713E-19-2.77294E-18
 -1      1885 9.52664E-05-2.85535E-05-2.85919E-05-8.91968E-08 2.93203E-19-2.59363E-18
 -1      1886 9.52157E-05-2.85540E-05-2.85686E-05-2.91544E-08-1.44776E-18-2.65994E-18
 -1      1887 9.52070E-05-2.85533E-05-2.85655E-05-2.05202E-08-1.39348E-18-3.04971E-18
 -1      1888 9.52368E-05-2.85525E-05-2.85795E-05-5.06848E-08-7.87281E-19-1.99132E-18
 -1      1889 9.52000E-05-2.85529E-05-2.85625E-05-1.09006E-08-9.74942E-19-2.92730E-18
 -1      1890 9.51963E-05-2.85533E-05-2.85610E-05-5.24990E-09-7.75529E-20-2.83878E-18
 -1      1891 9.52188E-05-2.85532E-05-2.85713E-05-2.37387E-08-1.02338E-18-8.44667E-19
 -1      1892 9.51927E-05-2.85534E-05-2.85594E-05 9.63196E-10 1.31165E-19-2.98045E-18
 -1      1893 9.51923E-05-2.85544E-05-2.85589E-05 4.41139E-09 3.41527E-19-2.98459E-18
 -1      1894 9.52090E-05-2.85548E-05-2.85663E-05-5.70937E-09-3.33391E-19-5.71173E-19
 -1      1895 9.51911E-05-2.85549E-05-2.85582E-05 8.13127E-09-5.91571E-20-2.86613E-18
 -1      1896 9.51928E-05-2.85562E-05-2.85584E-05 1.00079E-08-8.10887E-19-2.12329E-18
 -1      1897 9.52048E-05-2.85569E-05-2.85636E-05 5.66137E-09 3.56357E-19-1.19817E-18
 -1      1898 9.51931E-05-2.85569E-05-2.85583E-05 1.19638E-08-9.79011E-19-1.98519E-18
 -1      1899 9.51959E-05-2.85582E-05-2.85589E-05 1.27611E-08 2.88419E-19-1.46696E-18
 -1      1900 9.52043E-05-2.85591E-05-2.85624E-05 1.22172E-08-7.29234E-19-5.92344E-19
 -1      1901 9.51971E-05-2.85589E-05-2.85592E-05 1.35166E-08 4.71774E-19-1.95487E-18
 -1      1902 9.52004E-05-2.85603E-05-2.85600E-05 1.36068E-08 8.71141E-19-1.40917E-18
 -1      1903 9.52061E-05-2.85612E-05-2.85622E-05 1.54114E-08 2.43675E-19-4.45573E-19
 -1      1904 9.52021E-05-2.85610E-05-2.85605E-05 1.35850E-08 8.65864E-19-1.39627E-18
 -1      1905 9.52055E-05-2.85622E-05-2.85614E-05 1.32410E-08 1.27521E-18-1.26387E-18
 -1      1906 9.52091E-05-2.85631E-05-2.85626E-05 1.63550E-08 8.81178E-19-1.87706E-19
 -1      1907 9.52074E-05-2.85629E-05-2.85619E-05 1.27500E-08 2.26882E-19-1.84044E-18
 -1      1908 9.52106E-05-2.85639E-05-2.85628E-05 1.21661E-08-6.84298E-20-1.42640E-18
 -1      1909 9.52128E-05-2.85647E-05-2.85635E-05 1.58729E-08 3.73612E-19-1.77010E-19
 -1      1910 9.52124E-05-2.85645E-05-2.85634E-05 1.14234E-08-3.21451E-20-2.15509E-18
 -1      1911 9.52154E-05-2.85655E-05-2.85643E-05 1.07327E-08 2.37494E-19-2.04803E-18
 -1      1912 9.52165E-05-2.85662E-05-2.85645E-05 1.45593E-08-4.07453E-19-3.32334E-19
 -1      1913 9.52171E-05-2.85660E-05-2.85648E-05 9.88624E-09 3.93068E-19-2.32433E-18
 -1      1914 9.52197E-05-2.85667E-05-2.85655E-05 9.17604E-09 5.22305E-19-2.33012E-18
 -1      1915 9.52201E-05-2.85673E-05-2.85655E-05 1.28285E-08 4.85969E-20-3.41405E-19
 -1      1916 9.52212E-05-2.85672E-05-2.85661E-05 8.32203E-09 1.72252E-19-3.26050E-18
 -1      1917 9.52234E-05-2.85678E-05-2.85667E-05 7.64629E-09-1.22660E-19-3.35029E-18
 -1      1918 9.52234E-05-2.85683E-05-2.85665E-05 1.09582E-08-3.52429E-20-1.68689E-18
 -1      1919 9.52247E-05-2.85681E-05-2.85671E-05 6.84310E-09 8.64519E-19-3.40214E-18
 -1      1920 9.52265E-05-2.85686E-05-2.85677E-05 6.23201E-09 8.48768E-19-2.06257E-18
 -1      1921 9.52262E-05-2.85690E-05-2.85674E-05 9.12514E-09 3.32217E-19-1.67135E-18
 -1      1922 9.52276E-05-2.85689E-05-2.85680E-05 5.51146E-09-5.82372E-19-1.83087E-18
 -1      1923 9.52291E-05-2.85693E-05-2.85685E-05 4.97890E-09-1.51862E-18-2.05395E-18
 -1      1924 9.52287E-05-2.85696E-05-2.85681E-05 7.43321E-09-7.37020E-20-1.50742E-18
 -1      1925 9.52300E-05-2.85695E-05-2.85688E-05 4.35467E-09-1.51709E-18-9.10630E-19
 -1      1926 9.52312E-05-2.85698E-05-2.85691E-05 3.90377E-09-6.01416E-19-6.17057E-19
 -1      1927 9.52307E-05-2.85701E-05-2.85688E-05 5.93572E-09-3.40249E-20 4.67412E-19
 -1      1928 9.52319E-05-2.85700E-05-2.85694E-05 3.37768E-09-6.21576E-19-8.06768E-19
 -1      1929 9.52328E-05-2.85702E-05-2.85697E-05 3.00483E-09-6.88990E-20-9.33297E-19
 -1      1930 9.52323E-05-2.85704E-05-2.85694E-05 4.65181E-09-9.22796E-19 1.39631E-18
 -1      1931 9.52334E-05-2.85704E-05-2.85699E-05 2.57130E-09 5.57064E-19-5.57867E-19
 -1      1932 9.52341E-05-2.85706E-05-2.85701E-05 2.26897E-09 2.09320E-18 3.77956E-20
 -1      1933 9.52336E-05-2.85707E-05-2.85698E-05 3.57866E-09 6.66923E-19 1.91132E-18
 -1      1934 9.52345E-05-2.85706E-05-2.85702E-05 1.91825E-09 2.68809E-18 1.48384E-19
 -1      1935 9.52350E-05-2.85708E-05-2.85704E-05 1.67685E-09 2.35606E-18 1.57249E-18
 -1      1936 9.52346E-05-2.85709E-05-2.85702E-05 2.70015E-09 2.46923E-18 1.94432E-18
 -1      1937 9.52354E-05-2.85708E-05-2.85705E-05 1.39707E-09 1.51793E-18 2.72760E-18
 -1      1938 9.52358E-05-2.85709E-05-2.85706E-05 1.20622E-09 2.02094E-18 3.57529E-18
 -1      1939 9.52354E-05-2.85710E-05-2.85704E-05 1.99286E-09 2.61790E-18 3.16886E-18
 -1      1940 9.52360E-05-2.85710E-05-2.85707E-05 9.84897E-10 1.80802E-18 2.63038E-18
 -1      1941 9.52363E-05-2.85710E-05-2.85708E-05 8.34242E-10 1.71672E-18 2.63941E-18
 -1      1942 9.52360E-05-2.85711E-05-2.85707E-05 1.43013E-09 1.27366E-18 3.50026E-18
 -1      1943 9.52365E-05-2.85711E-05-2.85709E-05 6.59376E-10-1.22858E-19 2.34734E-18
 -1      1944 9.52366E-05-2.85711E-05-2.85709E-05 5.39455E-10-1.03894E-18 1.35235E-18
 -1      1945 9.52364E-05-2.85712E-05-2.85708E-05 9.85057E-10 3.87384E-19 2.27950E-18
 -1      1946 9.52368E-05-2.85712E-05-2.85710E-05 4.00020E-10-4.02020E-19-3.76346E-19
 -1      1947 9.52369E-05-2.85712E-05-2.85710E-05 3.03975E-10-2.44852E-20-6.13507E-20
 -1      1948 9.52367E-05-2.85712E-05-2.85709E-05 6.33128E-10-1.99547E-18 8.49036E-19
 -1      1949 9.52370E-05-2.85712E-05-2.85711E-05 1.99559E-10 3.27629E-19-5.55015E-20
 -1      1950 9.52370E-05-2.85712E-05-2.85711E-05 1.28303E-10-4.53904E-19-3.68922E-19
 -1      1951 9.52371E-05-2.85712E-05-2.85711E-05 1.60012E-10-7.95595E-19-2.46005E-19
 -1      1952 9.52369E-05-2.85712E-05-2.85710E-05 3.61028E-10-1.36398E-19-4.33359E-21
 -1      1953 1.39194E-04-3.76892E-05-4.37004E-05 2.50179E-05 4.01917E-18 9.09586E-18
 -1      1954 1.47750E-04-4.32858E-05-4.50725E-05 2.64220E-05 3.23164E-18 1.03753E-17
 -1      1955 1.51186E-04-4.45990E-05-4.58699E-05 3.21196E-05 3.55685E-18 8.47149E-18
 -1      1956 1.28255E-04-3.03940E-05-4.24853E-05 9.56638E-06 5.20809E-18 4.59918E-18
 -1      1957 1.33808E-04-3.33262E-05-4.34385E-05 1.72785E-05 4.74645E-18 6.99458E-18
 -1      1958 1.39953E-04-3.37424E-05-4.59715E-05 2.34631E-05 5.64007E-18 5.65214E-18
 -1      1959 1.27624E-04-3.36706E-05-4.08519E-05-7.62090E-06 4.00530E-18 2.12155E-19
 -1      1960 1.27351E-04-3.10580E-05-4.15392E-05-1.12903E-07 4.87097E-18 2.49263E-18
 -1      1961 1.33339E-04-2.96493E-05-4.49422E-05 3.50962E-06 6.27186E-18 9.82294E-19
 -1      1962 1.31838E-04-4.08232E-05-3.92381E-05-1.17857E-05 2.11769E-18-2.36611E-18
 -1      1963 1.28986E-04-3.70987E-05-3.95118E-05-1.03670E-05 2.85535E-18-1.03338E-18
 -1      1964 1.34045E-04-3.64300E-05-4.21134E-05-1.04400E-05 4.01832E-18-2.75041E-18
 -1      1965 1.32806E-04-4.33808E-05-3.82207E-05-5.50744E-06 4.37115E-19-2.79526E-18
 -1      1966 1.31070E-04-4.19571E-05-3.82541E-05-8.29174E-06 1.31718E-18-2.19408E-18
 -1      1967 1.34443E-04-4.32680E-05-3.91744E-05-9.55875E-06 1.66267E-18-3.87177E-18
 -1      1968 1.28933E-04-4.12371E-05-3.74400E-05 2.54735E-06-3.97497E-19-2.61921E-18
 -1      1969 1.29658E-04-4.20092E-05-3.76179E-05-7.33110E-07-3.71106E-20-2.52629E-18
 -1      1970 1.30556E-04-4.39340E-05-3.72370E-05-1.01129E-06 1.56278E-19-3.53059E-18
 -1      1971 1.23220E-04-3.79839E-05-3.64588E-05 6.87497E-06-6.38769E-19-1.20819E-18
 -1      1972 1.25480E-04-3.93784E-05-3.69424E-05 5.11395E-06-3.99588E-19-1.73945E-18
 -1      1973 1.24192E-04-4.03084E-05-3.60421E-05 6.19678E-06-5.11992E-19-3.10909E-18
 -1      1974 1.17429E-04-3.52365E-05-3.52123E-05 8.04689E-06-4.65395E-19-9.64148E-19
 -1      1975 1.20268E-04-3.65494E-05-3.59027E-05 7.56204E-06-3.14335E-19-9.56194E-19
 -1      1976 1.18050E-04-3.64784E-05-3.50228E-05 9.41702E-06-5.74924E-19-1.92355E-18
 -1      1977 1.12299E-04-3.32453E-05-3.38901E-05 7.43485E-06-1.86640E-19-4.85409E-19
 -1      1978 1.15073E-04-3.42910E-05-3.46239E-05 7.68069E-06-5.90067E-19-5.03230E-19
 -1      1979 1.12844E-04-3.36936E-05-3.39581E-05 9.74279E-06-4.84115E-19-1.64506E-18
 -1      1980 1.08065E-04-3.18680E-05-3.26693E-05 6.13468E-06 5.85952E-19-1.60599E-19
 -1      1981 1.10458E-04-3.26470E-05-3.33347E-05 6.66314E-06 3.44729E-19-2.15299E-19
 -1      1982 1.08642E-04-3.19198E-05-3.28990E-05 8.58305E-06-6.19277E-20-9.58408E-19
 -1      1983 1.04712E-04-3.09098E-05-3.16394E-05 4.75680E-06 3.28642E-19 8.73006E-21
 -1      1984 1.06634E-04-3.14770E-05-3.21892E-05 5.31921E-06 6.39589E-19 2.08840E-19
 -1      1985 1.05319E-04-3.08271E-05-3.19343E-05 6.94123E-06 4.88083E-19-8.07631E-19
 -1      1986 1.02129E-04-3.02310E-05-3.08192E-05 3.55558E-06-3.49100E-19-6.45413E-19
 -1      1987 1.03607E-04-3.06402E-05-3.12487E-05 4.04728E-06 3.80113E-19 3.74217E-21
 -1      1988 1.02727E-04-3.01340E-05-3.11163E-05 5.33961E-06 4.76539E-19-5.14465E-19
 -1      1989 1.00180E-04-2.97431E-05-3.01899E-05 2.59775E-06-1.30820E-19-1.11973E-18
 -1      1990 1.01284E-04-3.00367E-05-3.05138E-05 2.99086E-06-3.68350E-19-1.07138E-18
 -1      1991 1.00730E-04-2.96714E-05-3.04574E-05 3.98264E-06-6.28790E-20-8.42122E-19
 -1      1992 9.87311E-05-2.93899E-05-2.97186E-05 1.86921E-06-3.26124E-19-1.12288E-18
 -1      1993 9.95411E-05-2.95996E-05-2.99576E-05 2.16906E-06-2.99420E-19-8.76518E-19
 -1      1994 9.92123E-05-2.93484E-05-2.99450E-05 2.91153E-06-2.47803E-19-1.09354E-18
 -1      1995 9.76683E-05-2.91341E-05-2.93718E-05 1.32960E-06 2.52171E-19-7.28184E-19
 -1      1996 9.82540E-05-2.92830E-05-2.95453E-05 1.55240E-06 3.90580E-19-8.23556E-19
 -1      1997 9.80732E-05-2.91161E-05-2.95561E-05 2.09871E-06 8.52062E-20-1.28360E-18
 -1      1998 9.68970E-05-2.89497E-05-2.91198E-05 9.36058E-07 3.77301E-19-9.86955E-19
 -1      1999 9.73157E-05-2.90546E-05-2.92443E-05 1.09911E-06-5.61159E-21-5.63322E-19
 -1      2000 9.72281E-05-2.89469E-05-2.92661E-05 1.49589E-06 1.05419E-19-1.30227E-18
 -1      2001 9.63433E-05-2.88178E-05-2.89388E-05 6.51754E-07-3.56978E-20-5.98172E-19
 -1      2002 9.66394E-05-2.88911E-05-2.90272E-05 7.69996E-07 4.66510E-19-2.36142E-19
 -1      2003 9.66082E-05-2.88236E-05-2.90530E-05 1.05500E-06-1.47021E-19-1.01749E-18
 -1      2004 9.59505E-05-2.87248E-05-2.88103E-05 4.47717E-07 1.65911E-19-7.64665E-19
 -1      2005 9.61574E-05-2.87752E-05-2.88723E-05 5.32933E-07-6.36735E-19-1.11605E-18
 -1      2006 9.61587E-05-2.87345E-05-2.88982E-05 7.35428E-07-2.13728E-19-1.61986E-18
 -1      2007 9.56753E-05-2.86601E-05-2.87203E-05 3.02143E-07-6.75699E-20-1.51166E-19
 -1      2008 9.58182E-05-2.86942E-05-2.87632E-05 3.63297E-07 4.48450E-19 4.00672E-19
 -1      2009 9.58369E-05-2.86710E-05-2.87871E-05 5.05380E-07-1.99853E-19-1.08044E-18
 -1      2010 9.54789E-05-2.86145E-05-2.86557E-05 1.94701E-07 2.58507E-19-7.09478E-19
 -1      2011 9.55785E-05-2.86378E-05-2.86858E-05 2.39707E-07-3.64014E-19-4.53437E-19
 -1      2012 9.56053E-05-2.86252E-05-2.87069E-05 3.37999E-07 9.00965E-21-4.78652E-19
 -1      2013 9.53548E-05-2.85863E-05-2.86147E-05 1.23662E-07 8.31093E-20-3.42356E-19
 -1      2014 9.54168E-05-2.86001E-05-2.86335E-05 1.53815E-07 4.17904E-19-5.40531E-19
 -1      2015 9.54460E-05-2.85952E-05-2.86514E-05 2.19177E-07 2.81992E-19-5.82080E-19
 -1      2016 9.52741E-05-2.85685E-05-2.85877E-05 7.43346E-08 6.81686E-19-5.18083E-19
 -1      2017 9.53133E-05-2.85768E-05-2.85998E-05 9.53503E-08 5.54794E-19-1.84568E-19
 -1      2018 9.53416E-05-2.85759E-05-2.86147E-05 1.38484E-07 2.96036E-19-6.66579E-19
 -1      2019 9.52240E-05-2.85581E-05-2.85708E-05 4.06943E-08-9.93723E-21-1.19445E-18
 -1      2020 9.52474E-05-2.85625E-05-2.85781E-05 5.51168E-08 5.29317E-19-6.42862E-19
 -1      2021 9.52733E-05-2.85640E-05-2.85903E-05 8.25350E-08 8.02848E-19-1.20875E-18
 -1      2022 9.51952E-05-2.85527E-05-2.85608E-05 1.82958E-08 5.83706E-20-1.72266E-18
 -1      2023 9.52078E-05-2.85546E-05-2.85649E-05 2.79730E-08-3.60976E-19-1.55623E-18
 -1      2024 9.52305E-05-2.85572E-05-2.85747E-05 4.44344E-08 7.40951E-20-1.68416E-18
 -1      2025 9.51808E-05-2.85507E-05-2.85556E-05 3.88407E-09-2.86357E-19-5.12430E-19
 -1      2026 9.51862E-05-2.85509E-05-2.85575E-05 1.01732E-08-5.69456E-19-1.04979E-18
 -1      2027 9.52055E-05-2.85541E-05-2.85652E-05 1.91356E-08-5.21016E-19-1.71249E-18
 -1      2028 9.51758E-05-2.85507E-05-2.85535E-05-4.92025E-09-1.65226E-18-3.34833E-19
 -1      2029 9.51767E-05-2.85500E-05-2.85539E-05-1.02265E-09-5.14709E-19 8.65402E-21
 -1      2030 9.51927E-05-2.85532E-05-2.85600E-05 2.93635E-09-8.07173E-19-1.58518E-18
 -1      2031 9.51768E-05-2.85521E-05-2.85533E-05-9.85285E-09 2.51281E-19-3.55713E-19
 -1      2032 9.51749E-05-2.85508E-05-2.85530E-05-7.61666E-09-7.37751E-19-9.26590E-20
 -1      2033 9.51879E-05-2.85539E-05-2.85576E-05-6.87769E-09-7.88614E-19-1.10484E-18
 -1      2034 9.51813E-05-2.85541E-05-2.85544E-05-1.21738E-08 1.84665E-18-1.05557E-18
 -1      2035 9.51778E-05-2.85526E-05-2.85535E-05-1.10665E-08 1.09208E-18-1.02927E-18
 -1      2036 9.51882E-05-2.85554E-05-2.85571E-05-1.22906E-08 1.03290E-18-1.38783E-18
 -1      2037 9.51876E-05-2.85564E-05-2.85561E-05-1.27904E-08-9.98983E-19-8.69561E-19
 -1      2038 9.51834E-05-2.85549E-05-2.85550E-05-1.24268E-08 6.39963E-19-5.80990E-19
 -1      2039 9.51916E-05-2.85573E-05-2.85576E-05-1.47442E-08 7.80070E-19-1.05988E-18
 -1      2040 9.51945E-05-2.85588E-05-2.85581E-05-1.23481E-08-2.43901E-19-1.37047E-18
 -1      2041 9.51902E-05-2.85573E-05-2.85569E-05-1.24528E-08-8.29661E-19-1.27380E-18
 -1      2042 9.51965E-05-2.85593E-05-2.85589E-05-1.52763E-08-4.13797E-19-1.96419E-18
 -1      2043 9.52014E-05-2.85610E-05-2.85602E-05-1.12983E-08 1.12730E-18-1.23090E-18
 -1      2044 9.51973E-05-2.85596E-05-2.85590E-05-1.16775E-08 4.53093E-19-1.30553E-18
 -1      2045 9.52021E-05-2.85613E-05-2.85604E-05-1.46244E-08 4.99723E-19-2.23819E-18
 -1      2046 9.52079E-05-2.85629E-05-2.85621E-05-9.94966E-09 1.89454E-19-2.49780E-18
 -1      2047 9.52041E-05-2.85617E-05-2.85610E-05-1.04699E-08 1.67417E-18-1.10990E-18
 -1      2048 9.52077E-05-2.85631E-05-2.85620E-05-1.33032E-08 1.05629E-18-1.06609E-18
 -1      2049 9.52136E-05-2.85647E-05-2.85638E-05-8.50915E-09 5.98465E-19-2.12700E-18
 -1      2050 9.52103E-05-2.85636E-05-2.85629E-05-9.07757E-09-7.66015E-19-3.38486E-18
 -1      2051 9.52129E-05-2.85647E-05-2.85635E-05-1.16636E-08 2.85285E-19-2.80543E-18
 -1      2052 9.52188E-05-2.85662E-05-2.85654E-05-7.03095E-09 7.56754E-19-2.48826E-18
 -1      2053 9.52159E-05-2.85653E-05-2.85646E-05-7.62230E-09 7.90171E-19-1.49530E-18
 -1      2054 9.52178E-05-2.85661E-05-2.85650E-05-9.89476E-09 4.18097E-19-2.11844E-18
 -1      2055 9.52230E-05-2.85674E-05-2.85667E-05-5.73502E-09 3.69245E-19-1.50435E-18
 -1      2056 9.52207E-05-2.85667E-05-2.85660E-05-6.26092E-09 1.05673E-18-2.27061E-18
 -1      2057 9.52219E-05-2.85673E-05-2.85663E-05-8.18239E-09 7.97139E-19-2.03126E-18
 -1      2058 9.52264E-05-2.85683E-05-2.85677E-05-4.59104E-09 1.04465E-19-1.81029E-18
 -1      2059 9.52245E-05-2.85678E-05-2.85672E-05-5.06014E-09-9.59892E-20-1.59806E-18
 -1      2060 9.52254E-05-2.85682E-05-2.85673E-05-6.65775E-09-1.45793E-19 2.01871E-19
 -1      2061 9.52291E-05-2.85691E-05-2.85686E-05-3.60997E-09 1.66657E-19-2.20609E-18
 -1      2062 9.52276E-05-2.85686E-05-2.85682E-05-4.01464E-09-5.75591E-19-2.47070E-18
 -1      2063 9.52282E-05-2.85690E-05-2.85682E-05-5.31589E-09 5.15551E-20-1.96468E-18
 -1      2064 9.52313E-05-2.85697E-05-2.85693E-05-2.78897E-09 1.21240E-18-2.89944E-18
 -1      2065 9.52301E-05-2.85693E-05-2.85689E-05-3.12926E-09 8.09450E-19-2.30561E-18
 -1      2066 9.52305E-05-2.85696E-05-2.85689E-05-4.16916E-09 7.89074E-19-1.33836E-18
 -1      2067 9.52330E-05-2.85701E-05-2.85698E-05-2.11614E-09-3.67597E-18-1.21502E-18
 -1      2068 9.52321E-05-2.85699E-05-2.85695E-05-2.39623E-09-1.06723E-18-1.59194E-18
 -1      2069 9.52323E-05-2.85700E-05-2.85695E-05-3.21240E-09-1.01428E-18-4.76618E-19
 -1      2070 9.52343E-05-2.85705E-05-2.85702E-05-1.57436E-09-1.81980E-18-7.11965E-19
 -1      2071 9.52336E-05-2.85703E-05-2.85700E-05-1.80085E-09-3.63782E-18-1.60850E-18
 -1      2072 9.52337E-05-2.85704E-05-2.85700E-05-2.43009E-09-3.28704E-18-1.81495E-18
 -1      2073 9.52352E-05-2.85707E-05-2.85705E-05-1.14409E-09-7.68118E-19 4.14850E-19
 -1      2074 9.52347E-05-2.85706E-05-2.85704E-05-1.32483E-09-1.26411E-18-1.17773E-19
 -1      2075 9.52347E-05-2.85707E-05-2.85703E-05-1.80103E-09-1.73190E-18-1.43758E-18
 -1      2076 9.52359E-05-2.85709E-05-2.85707E-05-8.05012E-10-3.65800E-19 1.06587E-18
 -1      2077 9.52356E-05-2.85708E-05-2.85706E-05-9.48391E-10 2.56608E-19 1.17508E-18
 -1      2078 9.52355E-05-2.85708E-05-2.85706E-05-1.30137E-09-3.91530E-19 8.78390E-19
 -1      2079 9.52364E-05-2.85710E-05-2.85709E-05-5.38006E-10 4.77886E-19-7.84454E-19
 -1      2080 9.52362E-05-2.85710E-05-2.85708E-05-6.52005E-10-2.24969E-19 6.01289E-19
 -1      2081 9.52361E-05-2.85710E-05-2.85708E-05-9.07019E-10 2.62000E-20-7.71266E-19
 -1      2082 9.52368E-05-2.85711E-05-2.85710E-05-3.25266E-10 1.63159E-18-2.44385E-18
 -1      2083 9.52366E-05-2.85711E-05-2.85710E-05-4.17511E-10 8.40863E-19-2.36296E-18
 -1      2084 9.52366E-05-2.85711E-05-2.85709E-05-5.95353E-10 1.60253E-18-3.31521E-18
 -1      2085 9.52370E-05-2.85712E-05-2.85711E-05-1.59063E-10 1.16334E-18-3.94023E-18
 -1      2086 9.52369E-05-2.85711E-05-2.85710E-05-2.29185E-10 2.29122E-18-2.34406E-18
 -1      2087 9.52368E-05-2.85711E-05-2.85710E-05-3.45815E-10 2.52557E-18-4.25206E-18
 -1      2088 9.52373E-05-2.85717E-05-2.85710E-05-4.12003E-10-9.01485E-19 9.19709E-19
 -1      2089 9.52372E-05-2.85716E-05-2.85710E-05-3.82739E-10-1.34505E-18 1.58928E-18
 -1      2090 9.52372E-05-2.85715E-05-2.85710E-05-3.29206E-10-3.14171E-18 4.57636E-19
 -1      2091 9.52371E-05-2.85714E-05-2.85710E-05-2.70537E-10-3.66159E-18 7.28957E-19
 -1      2092 9.52372E-05-2.85716E-05-2.85710E-05-4.74574E-10-1.13330E-18 2.44451E-18
 -1      2093 2.92708E-05-2.20713E-05-4.40869E-06 3.07699E-05 8.22300E-18 7.97820E-18
 -1      2094 1.89353E-05-1.96356E-05-1.03912E-06 2.01708E-05 6.11981E-18 7.95957E-18
 -1      2095 9.52371E-05-2.85713E-05-2.85711E-05-1.90909E-10-3.40766E-18-3.56184E-19
 -1      2096 9.52371E-05-2.85712E-05-2.85711E-05-1.25570E-10-2.91199E-18-1.35368E-18
 -1      2097 9.52371E-05-2.85714E-05-2.85710E-05-3.23287E-10-1.82551E-18 5.06350E-19
 -1      2098 9.52374E-05-2.85719E-05-2.85709E-05-4.20268E-10-1.20932E-18-1.94248E-18
 -1      2099 9.52373E-05-2.85718E-05-2.85709E-05-4.24760E-10-9.22680E-19-5.63058E-19
 -1      2100 9.52373E-05-2.85718E-05-2.85709E-05-5.45645E-10-4.38429E-19 2.54730E-19
 -1      2101 9.52375E-05-2.85721E-05-2.85709E-05-3.51971E-10-1.65862E-18 1.32666E-18
 -1      2102 9.52374E-05-2.85720E-05-2.85709E-05-3.89315E-10-1.48563E-18 1.17437E-19
 -1      2103 9.52375E-05-2.85721E-05-2.85709E-05-5.22829E-10-3.97943E-19-7.56884E-19
 -1      2104 9.52376E-05-2.85723E-05-2.85708E-05-2.20559E-10-1.39585E-18 7.13629E-19
 -1      2105 9.52375E-05-2.85722E-05-2.85708E-05-2.83061E-10-1.55915E-18 2.12132E-18
 -1      2106 9.52376E-05-2.85723E-05-2.85708E-05-4.07937E-10-4.00645E-19 1.61205E-18
 -1      2107 9.52376E-05-2.85724E-05-2.85708E-05-5.04430E-11-2.09400E-18-1.17142E-18
 -1      2108 9.52376E-05-2.85723E-05-2.85708E-05-1.26467E-10-1.60496E-18-6.85075E-19
 -1      2109 9.52377E-05-2.85724E-05-2.85708E-05-2.22377E-10-8.16211E-19-3.80681E-19
 -1      2110 9.52376E-05-2.85723E-05-2.85708E-05 1.28349E-10-1.37028E-18-2.21698E-18
 -1      2111 9.52376E-05-2.85724E-05-2.85708E-05 5.24066E-11-1.17346E-18-1.42569E-18
 -1      2112 9.52377E-05-2.85724E-05-2.85708E-05 1.29586E-12-2.24634E-18-1.08115E-18
 -1      2113 9.52375E-05-2.85722E-05-2.85708E-05 2.84498E-10-2.10586E-18-1.84700E-18
 -1      2114 9.52376E-05-2.85723E-05-2.85708E-05 2.22272E-10-9.89250E-19-1.23275E-18
 -1      2115 9.52377E-05-2.85724E-05-2.85708E-05 2.24755E-10-1.10256E-18-8.94631E-19
 -1      2116 9.52374E-05-2.85720E-05-2.85709E-05 3.88789E-10-1.16920E-18-6.05537E-19
 -1      2117 9.52375E-05-2.85721E-05-2.85709E-05 3.52116E-10-1.72849E-18-2.35463E-18
 -1      2118 9.52376E-05-2.85723E-05-2.85708E-05 4.08584E-10 2.32911E-19-1.85072E-18
 -1      2119 9.52373E-05-2.85718E-05-2.85709E-05 4.24709E-10-1.38251E-19 3.79726E-18
 -1      2120 9.52374E-05-2.85719E-05-2.85709E-05 4.20132E-10-6.17859E-19 2.30911E-18
 -1      2121 9.52375E-05-2.85721E-05-2.85709E-05 5.22387E-10 1.45305E-18 8.64634E-19
 -1      2122 9.52372E-05-2.85716E-05-2.85710E-05 3.81887E-10-1.88343E-19 9.62577E-19
 -1      2123 9.52373E-05-2.85717E-05-2.85710E-05 4.11877E-10-1.98296E-19 1.81670E-18
 -1      2124 9.52373E-05-2.85718E-05-2.85709E-05 5.45500E-10 8.28563E-19 2.43704E-18
 -1      2125 9.52371E-05-2.85714E-05-2.85710E-05 2.67419E-10-6.15927E-19 2.65391E-18
 -1      2126 9.52372E-05-2.85715E-05-2.85710E-05 3.27560E-10-7.07464E-19 1.40768E-18
 -1      2127 9.52372E-05-2.85716E-05-2.85710E-05 4.72621E-10 5.49189E-19 1.08479E-18
 -1      2128 6.76367E-05-3.13733E-05-1.63392E-05 4.62343E-05 6.90035E-18 6.42694E-18
 -1      2129 4.74828E-05-2.90431E-05-9.41827E-06 3.71733E-05 7.26543E-18 6.86668E-18
 -1      2130 1.16514E-05-1.54261E-05 5.51352E-07 4.94911E-06 5.74542E-18 8.89554E-18
 -1      2131 1.15830E-05-1.75607E-05 1.19613E-06-7.59470E-06 4.28398E-18 8.32083E-18
 -1      2132 1.13029E-04-3.67531E-05-3.24450E-05 4.87605E-05 9.66930E-18 6.73052E-18
 -1      2133 9.28622E-05-3.78406E-05-2.42377E-05 4.52021E-05 8.25307E-18 5.87926E-18
 -1      2134 1.33051E-04-4.90752E-05-3.57649E-05 3.51240E-05 5.34351E-18 1.26335E-18
 -1      2135 1.03504E-04-1.06258E-05-3.99299E-05-1.74853E-05-1.33375E-18-7.56895E-18
 -1      2136 1.01225E-04-1.00717E-05-3.92078E-05-1.91339E-05-2.32219E-18-7.55903E-18
 -1      2137 1.06461E-04-1.32805E-05-3.99295E-05-1.71975E-05-1.32757E-18-6.78242E-18
 -1      2138 7.38617E-05-1.32166E-05-2.54928E-05-5.88680E-06-2.63279E-18-4.13458E-18
 -1      2139 5.19057E-05-5.94127E-06-1.97207E-05-8.53101E-06-2.72914E-18-5.03762E-18
 -1      2140 9.12509E-05-2.50904E-05-2.84259E-05-2.75684E-06-2.14935E-18-2.52448E-18
 -1      2141 1.90676E-04-3.01794E-05-6.69911E-05 2.10878E-05 1.06705E-17-1.21486E-18
 -1      2142 1.84142E-04-3.03719E-05-6.41992E-05 2.61914E-05 1.08719E-17 1.63350E-18
 -1      2143 1.84083E-04-2.82698E-05-6.55422E-05 1.85394E-05 1.05782E-17-3.38686E-18
 -1      2144 1.89969E-04-2.84304E-05-6.72446E-05 2.07569E-05 1.07641E-17-1.38114E-18
 -1      2145 1.75952E-04-4.19385E-05-5.68505E-05 1.28011E-05 9.48232E-18-5.92838E-18
 -1      2146 1.83914E-04-3.70429E-05-6.20497E-05 1.96692E-05 9.75634E-18-2.83290E-18
 -1      2147 1.48552E-04-4.82517E-05-4.37211E-05 5.77507E-07 8.37504E-18-7.44500E-18
 -1      2148 1.71851E-04-4.96582E-05-5.18306E-05 4.63111E-06 8.83635E-18-6.98040E-18
 -1      2149 1.67661E-04-4.44703E-05-5.20437E-05 2.49109E-05 7.91372E-18-5.24313E-19
 -1      2150 1.02253E-04-3.90887E-05-2.84137E-05-1.37673E-05 6.17529E-18-8.44280E-18
 -1      2151 1.30523E-04-4.74876E-05-3.62194E-05-1.22722E-05 7.59492E-18-8.82185E-18
 -1      2152 4.42416E-05-1.45039E-05-1.45811E-05-1.58112E-05 6.16915E-18-1.03289E-17
 -1      2153 7.10308E-05-2.51712E-05-2.07975E-05-2.13062E-05 6.25703E-18-1.00130E-17
 -1      2154 1.31244E-05 2.33070E-06-7.52307E-06-7.10933E-06 4.48875E-18-8.74985E-18
 -1      2155 2.61919E-05-4.57316E-06-1.04233E-05-1.34151E-05 6.40166E-18-1.01779E-17
 -1      2156-2.83042E-06 9.84608E-06-3.43028E-06 6.46911E-06 3.88650E-18-7.07569E-18
 -1      2157 7.92175E-07 9.37520E-06-4.78427E-06 5.03753E-07 4.51072E-18-7.78572E-18
 -1      2158 1.19311E-05 1.11433E-05-1.01252E-05 2.25378E-05 2.19149E-18-5.60693E-18
 -1      2159 5.48603E-06 1.08331E-05-7.33924E-06 1.76802E-05 4.06703E-18-5.28136E-18
 -1      2160 7.73028E-05-9.79720E-06-2.92990E-05 3.93584E-05-1.82070E-18-6.82476E-18
 -1      2161 5.72887E-05-4.18914E-06-2.37460E-05 3.49267E-05 6.45227E-19-5.55606E-18
 -1      2162 1.16453E-04-2.22401E-05-4.05921E-05 3.47910E-05-4.60193E-18-7.02444E-18
 -1      2163 9.51026E-05-1.64185E-05-3.47135E-05 3.51261E-05-3.07558E-18-6.46223E-18
 -1      2164 1.46477E-04-2.81701E-05-5.05065E-05 1.77088E-05-6.04011E-18-5.48030E-18
 -1      2165 1.29489E-04-2.48598E-05-4.52935E-05 2.41740E-05-5.29777E-18-6.19605E-18
 -1      2166 1.64205E-04-2.57321E-05-5.88147E-05 2.32126E-06-7.74061E-18-4.87997E-18
 -1      2167 1.53382E-04-2.48107E-05-5.50242E-05 1.06120E-05-7.41821E-18-5.87841E-18
 -1      2168 1.62455E-04-1.88099E-05-6.10583E-05-1.04445E-05-8.25349E-18-3.82165E-18
 -1      2169 1.61698E-04-2.03879E-05-6.00721E-05-3.76072E-06-8.19801E-18-5.02248E-18
 -1      2170 1.63083E-04-2.17215E-05-5.96585E-05-2.10986E-05-7.43335E-18-1.61889E-18
 -1      2171 1.65026E-04-2.04514E-05-6.13118E-05-1.29855E-05-7.87656E-18-3.79672E-18
 -1      2172 1.48121E-04-2.47333E-05-5.23720E-05-2.95883E-05-6.08127E-18 5.48030E-19
 -1      2173 1.61698E-04-2.54200E-05-5.72181E-05-2.59371E-05-6.47027E-18-7.74188E-19
 -1      2174 1.49088E-04-1.80116E-05-5.51051E-05-1.14534E-05-6.56091E-18-4.70357E-18
 -1      2175 1.22939E-04-2.94293E-05-4.00998E-05-3.96539E-05-3.95353E-18 2.88245E-18
 -1      2176 1.40151E-04-2.95816E-05-4.65496E-05-3.78407E-05-4.75154E-18 1.79147E-18
 -1      2177 9.39818E-05-3.09352E-05-2.76116E-05-4.39303E-05-1.92869E-18 4.13776E-18
 -1      2178 1.11141E-04-3.02322E-05-3.41696E-05-4.63842E-05-3.17002E-18 3.87941E-18
 -1      2179 6.48372E-05-3.01213E-05-1.58603E-05-4.29393E-05 6.65344E-19 5.79858E-18
 -1      2180 8.01917E-05-2.91711E-05-2.18783E-05-4.77935E-05-7.94940E-19 5.49026E-18
 -1      2181 3.57170E-05-2.55735E-05-5.76981E-06-3.40493E-05 2.65502E-18 7.28660E-18
 -1      2182 4.76714E-05-2.43425E-05-1.06140E-05-4.16187E-05 5.36172E-19 7.25034E-18
 -1      2183 1.61581E-05-2.06983E-05 4.62335E-07-1.85409E-05 4.54645E-18 7.59238E-18
 -1      2184 2.32172E-05-2.08434E-05-2.17982E-06-2.75651E-05 2.17264E-18 8.18615E-18
 -1      2185 1.79031E-04-3.55674E-05-5.98718E-05 3.03833E-05 9.91600E-18 2.20186E-18
 -1      2186 1.61769E-04-3.52342E-05-5.37071E-05 3.31481E-05 1.00412E-17 4.14623E-18
 -1      2187 9.96656E-05-2.13400E-05-3.35274E-05 1.48383E-05 6.87187E-18-2.03224E-18
 -1      2188 1.09138E-04-2.29392E-05-3.69076E-05 8.28988E-06 5.62012E-18-2.66665E-18
 -1      2189 4.22644E-05-4.37097E-06-1.62702E-05-1.00264E-05-1.08505E-18-6.31802E-18
 -1      2190 1.02146E-04-1.30551E-05-3.81717E-05-1.87678E-05-2.98613E-18-6.72719E-18
 -1      2191 1.71146E-04-3.14980E-05-5.84092E-05 1.32030E-05 9.98821E-18-1.17738E-18
 -1      2192 4.60122E-06 1.39584E-05-7.78597E-06 2.36643E-06 5.00173E-19-6.32289E-18
 -1      2193-1.88200E-07 1.54613E-05-6.56080E-06 7.51071E-06 2.17996E-18-5.58788E-18
 -1      2194 1.30128E-04-3.69671E-05-4.00099E-05 1.59533E-05-1.03550E-18 2.09069E-18
 -1      2195 8.22140E-06 1.04670E-05-8.06306E-06-2.08211E-06 1.24302E-18-7.34610E-18
 -1      2196 9.85463E-05-2.32678E-05-3.23580E-05-1.41930E-05-4.64193E-18-1.30931E-18
 -1      2197 9.95280E-05-2.21353E-05-3.32492E-05-1.47817E-05-4.73186E-18-3.11091E-18
 -1      2198 1.01233E-04-2.12096E-05-3.41554E-05-1.94819E-05-4.99702E-18-4.01282E-19
 -1      2199 9.92678E-05-1.47032E-05-3.66069E-05-2.58653E-05-4.55836E-18-8.22151E-19
 -1      2200 9.64017E-05-2.13655E-05-3.21728E-05 2.02420E-05 5.91303E-18-2.09450E-18
 -1      2201 2.68499E-05-1.14392E-05-6.84058E-06 2.33108E-05 1.57612E-18 7.37893E-18
 -1      2202 1.89774E-05-1.41949E-05-2.66491E-06 1.37836E-05 4.18858E-18 8.41019E-18
 -1      2203 1.99442E-05-6.68366E-06-5.49759E-06 7.67452E-06 2.41669E-18 8.15989E-18
 -1      2204 9.52371E-05-2.85712E-05-2.85711E-05-6.61848E-11-9.91308E-19-5.19129E-18
 -1      2205 9.52370E-05-2.85712E-05-2.85711E-05-1.19841E-10-1.92703E-19-4.80658E-18
 -1      2206-1.83105E-06 1.40363E-05-5.42273E-06 9.36515E-06 3.44801E-18-6.75022E-18
 -1      2207 1.11083E-06 1.50467E-05-6.78712E-06 1.43888E-05 3.07134E-18-5.28093E-18
 -1      2208 6.37716E-06 1.37935E-05-8.58200E-06 1.85966E-05 4.89204E-18-4.74158E-18
 -1      2209-2.20894E-06 9.71756E-06-3.59125E-06 1.08390E-05 4.82449E-18-5.82123E-18
 -1      2210 4.74125E-05-2.45995E-05-1.00394E-05 3.89836E-05 2.98939E-18 6.23586E-18
 -1      2211 9.52371E-05-2.85713E-05-2.85710E-05 2.42512E-10-4.81639E-19 1.63782E-18
 -1      2212 8.82043E-05-3.91789E-05-2.12909E-05 4.47273E-05 4.72136E-18 4.50463E-18
 -1      2213 8.51979E-05-3.85311E-05-1.95197E-05 4.49354E-05 9.22631E-19 2.21796E-18
 -1      2214 1.08116E-04-4.81053E-05-2.64786E-05 4.18040E-05 1.44292E-18 8.87691E-19
 -1      2215 1.75312E-05-1.23762E-05-2.83892E-06-1.52938E-05 4.11097E-18 8.85149E-18
 -1      2216 3.62934E-05-2.13961E-05-6.96123E-06-3.63973E-05 4.13119E-18 7.88884E-18
 -1      2217 6.74944E-05-3.22934E-05-1.52704E-05-4.59548E-05 3.95607E-18 5.48782E-18
 -1      2218 9.95006E-05-3.99181E-05-2.54298E-05-4.30402E-05 2.68996E-18 2.03966E-18
 -1      2219 1.43449E-04-3.04921E-05-4.76347E-05-2.07389E-05-3.51836E-18-2.70246E-18
 -1      2220 1.46486E-04-1.09144E-05-5.74020E-05-9.95487E-06-8.22194E-18-5.15226E-18
 -1      2221 1.46780E-04-1.42950E-05-5.60386E-05-7.86082E-06-7.80223E-18-3.90270E-18
 -1      2222 1.43531E-04-2.40263E-05-5.06359E-05 7.91124E-07-5.17929E-18-2.91019E-18
 -1      2223 1.26621E-04-2.74368E-05-4.22636E-05 1.64209E-05-1.88211E-18-3.13593E-18
 -1      2224 9.57433E-05-1.97824E-05-3.26733E-05 3.03691E-05 1.34466E-18-4.19239E-18
 -1      2225 4.47508E-05-1.06817E-05-1.52018E-05-1.47076E-05 1.75399E-18-8.30876E-18
 -1      2226 1.47821E-04-5.25199E-05-4.07855E-05 7.75150E-06 4.87213E-18-2.95149E-18
 -1      2227 1.70054E-04-2.77461E-05-5.99589E-05 2.51308E-05 1.03787E-17-4.62480E-19
 -1      2228 9.52370E-05-2.85712E-05-2.85711E-05-1.93773E-10 8.17335E-19-4.68179E-18
 -1      2229 1.58529E-04-4.42046E-05-4.82104E-05 2.11480E-05 7.26807E-18-2.91379E-19
 -1      2230 1.71703E-04-2.18506E-05-6.27411E-05 1.53194E-05 1.15154E-17-1.46950E-18
 -1      2231 9.73664E-05-3.66519E-05-2.65319E-05-1.26142E-05 2.83290E-18-6.25767E-18
 -1      2232 5.69732E-06 1.27202E-05-8.08371E-06 1.86129E-05 4.65169E-18-5.84326E-18
 -1      2233 2.40303E-07 1.22398E-05-5.24943E-06 1.43630E-05 3.18326E-18-5.75453E-18
 -1      2234 3.87228E-05 3.65652E-06-1.83736E-05 3.31100E-05 2.10699E-18-5.75342E-18
 -1      2235 2.32333E-05 7.35174E-06-1.37311E-05 2.59684E-05 3.31740E-18-5.34001E-18
 -1      2236 1.25284E-04-3.91742E-05-3.64292E-05-3.36687E-05-9.91029E-20-5.11608E-19
 -1      2237 2.43954E-05 7.74278E-06-1.39094E-05 2.59009E-05 6.04220E-18-4.09996E-18
 -1      2238 4.42029E-05 9.44358E-07-1.88917E-05 2.89496E-05 7.35225E-18-3.95443E-18
 -1      2239 1.16138E-04-2.54529E-05-3.89257E-05 1.08268E-06 4.08070E-18-2.01219E-18
 -1      2240 9.99015E-05-1.82055E-05-3.53595E-05-2.24386E-05-4.96312E-18-1.44514E-18
 -1      2241 5.63366E-05-5.19655E-06-2.21807E-05 3.24042E-05 4.84397E-18-4.57591E-18
 -1      2242 1.20502E-04-2.25204E-05-4.21425E-05-1.15785E-05 1.10114E-18-2.86091E-18
 -1      2243 1.17606E-04-1.93650E-05-4.24245E-05-1.45643E-05 1.51976E-19-4.04345E-18
 -1      2244 1.14146E-04-1.73830E-05-4.16050E-05-1.55085E-05-3.61842E-20-5.17118E-18
 -1      2245 1.10694E-04-1.53070E-05-4.10596E-05-1.64727E-05-9.42827E-19-5.94609E-18
 -1      2246 1.16245E-04-1.73324E-05-4.24711E-05-1.66567E-05-9.12149E-19-4.04366E-18
 -1      2247 5.67512E-05-5.33661E-06-2.21895E-05 3.05209E-05 5.85024E-18-3.79206E-18
 -1      2248 1.03706E-04-1.50874E-05-3.80889E-05-1.67914E-05-2.65781E-18-6.50853E-18
 -1      2249 1.02050E-04-1.57604E-05-3.71060E-05-1.74026E-05-3.57364E-18-6.19376E-18
 -1      2250 1.00698E-04-2.00223E-05-3.46626E-05-1.56943E-05-4.47714E-18-4.56046E-18
 -1      2251 9.99561E-05-2.28741E-05-3.29237E-05-1.06978E-05-4.11638E-18-3.63497E-18
 -1      2252 1.01313E-04-1.78994E-05-3.57875E-05-1.58890E-05-3.81476E-18-5.52661E-18
 -1      2253 1.44472E-04-4.56494E-05-4.26036E-05 2.17970E-05-1.45054E-20 3.65691E-18
 -1      2254 1.29256E-04-4.16469E-05-3.74387E-05 1.28339E-05-1.07171E-18 1.02221E-18
 -1      2255 1.57708E-04-5.00049E-05-4.64788E-05 2.90411E-05 1.21015E-18 7.62213E-18
 -1      2256 1.50823E-04-4.65098E-05-4.47355E-05 2.78983E-05 5.69365E-19 5.65310E-18
 -1      2257 1.50022E-04-5.06981E-05-4.27340E-05 2.49834E-05 1.14699E-18 4.56702E-18
 -1      2258 1.55452E-04-4.99662E-05-4.53903E-05 3.09509E-05 2.32685E-18 7.69664E-18
 -1      2259 9.90900E-05-2.37122E-05-3.22932E-05-7.56778E-06-3.52432E-18-3.71654E-18
 -1      2260 2.37865E-05 7.69127E-06-1.36371E-05 2.66973E-05 5.58195E-18-4.88854E-18
 -1      2261 9.81487E-05-2.50670E-05-3.12358E-05-3.02331E-06-3.01073E-18-3.40428E-18
 -1      2262 9.76076E-05-2.55270E-05-3.08747E-05-7.66353E-07-2.48405E-18-3.67183E-18
 -1      2263 9.74911E-05-2.61668E-05-3.04972E-05 1.39490E-06-2.26757E-18-3.57972E-18
 -1      2264 9.75729E-05-2.68808E-05-3.02985E-05 2.92544E-06-1.81331E-18-3.68078E-18
 -1      2265 9.96473E-05-2.53027E-05-3.18919E-05-1.11944E-07-2.49988E-18-3.93089E-18
 -1      2266 9.78254E-05-2.76783E-05-3.00098E-05 4.23260E-06-1.57332E-18-3.66828E-18
 -1      2267 9.82744E-05-2.85041E-05-2.99150E-05 4.98588E-06-1.33689E-18-3.83665E-18
 -1      2268 9.98738E-05-2.72177E-05-3.11579E-05 3.62174E-06-1.81999E-18-4.01188E-18
 -1      2269 9.86250E-05-2.92641E-05-2.96959E-05 5.39974E-06-1.03054E-18-3.88122E-18
 -1      2270 9.91841E-05-2.99931E-05-2.96680E-05 5.46049E-06-6.05100E-19-3.81942E-18
 -1      2271 1.00574E-04-2.92575E-05-3.05665E-05 5.45233E-06-1.26367E-18-4.06802E-18
 -1      2272 9.93884E-05-3.05131E-05-2.95113E-05 5.17117E-06-6.16659E-19-3.71177E-18
 -1      2273 9.98578E-05-3.09943E-05-2.95219E-05 4.74900E-06-2.33892E-19-3.84000E-18
 -1      2274 1.01199E-04-3.09306E-05-3.01078E-05 5.56164E-06-6.60215E-19-3.81336E-18
 -1      2275 9.98147E-05-3.11978E-05-2.94183E-05 4.06362E-06-1.03824E-19-3.90190E-18
 -1      2276 1.00097E-04-3.13984E-05-2.94440E-05 3.40815E-06 8.24087E-20-3.84106E-18
 -1      2277 1.01395E-04-3.18958E-05-2.97773E-05 4.51417E-06-2.79900E-19-3.90853E-18
 -1      2278 9.98371E-05-3.13327E-05-2.93792E-05 2.61520E-06-1.40100E-19-3.66020E-18
 -1      2279 9.99243E-05-3.13099E-05-2.94022E-05 1.93414E-06-2.47565E-19-3.57335E-18
 -1      2280 1.01098E-04-3.21228E-05-2.95569E-05 2.95875E-06 3.33238E-20-4.04697E-18
 -1      2281 9.95374E-05-3.10807E-05-2.93604E-05 1.22614E-06-4.27993E-19-3.33135E-18
 -1      2282 9.94692E-05-3.09241E-05-2.93698E-05 6.47942E-07-2.77134E-19-3.30810E-18
 -1      2283 1.00442E-04-3.18050E-05-2.94166E-05 1.40194E-06-2.55165E-19-3.56373E-18
 -1      2284 9.90441E-05-3.06329E-05-2.93378E-05 1.14092E-07-1.85401E-19-3.12575E-18
 -1      2285 9.88745E-05-3.04221E-05-2.93295E-05-3.07548E-07 8.40159E-20-3.06748E-18
 -1      2286 9.96160E-05-3.12022E-05-2.93241E-05 1.28835E-07-1.63024E-19-2.83715E-18
 -1      2287 9.84714E-05-3.01393E-05-2.92990E-05-6.52334E-07 1.73705E-19-2.96008E-18
 -1      2288 9.82491E-05-2.99279E-05-2.92741E-05-9.15676E-07 3.44880E-19-2.66313E-18
 -1      2289 9.87750E-05-3.05283E-05-2.92537E-05-7.61605E-07 9.91233E-20-2.25749E-18
 -1      2290 9.78984E-05-2.96894E-05-2.92411E-05-1.09701E-06-1.62045E-20-2.75070E-18
 -1      2291 9.76599E-05-2.95056E-05-2.92039E-05-1.22790E-06-2.16677E-19-2.56701E-18
 -1      2292 9.80110E-05-2.99153E-05-2.91891E-05-1.28661E-06 2.48202E-19-2.47500E-18
 -1      2293 9.73706E-05-2.93226E-05-2.91678E-05-1.28645E-06-5.65938E-19-2.38506E-18
 -1      2294 9.71396E-05-2.91762E-05-2.91234E-05-1.32013E-06-2.38866E-19-2.59845E-18
 -1      2295 9.73639E-05-2.94218E-05-2.91228E-05-1.51766E-06-2.93884E-19-2.45831E-18
 -1      2296 9.69090E-05-2.90455E-05-2.90856E-05-1.29668E-06-3.57918E-19-2.83561E-18
 -1      2297 9.66995E-05-2.89361E-05-2.90388E-05-1.26707E-06-3.72888E-19-2.94712E-18
 -1      2298 9.68393E-05-2.90579E-05-2.90532E-05-1.53971E-06-4.60346E-19-2.24433E-18
 -1      2299 9.65196E-05-2.88484E-05-2.90011E-05-1.19572E-06-6.33301E-19-2.85369E-18
 -1      2300 9.63383E-05-2.87707E-05-2.89557E-05-1.13055E-06-6.85959E-19-2.72115E-18
 -1      2301 9.64262E-05-2.88086E-05-2.89823E-05-1.42998E-06-5.29386E-19-2.43130E-18
 -1      2302 9.62002E-05-2.87155E-05-2.89200E-05-1.03670E-06-4.86853E-19-2.64674E-18
 -1      2303 9.60489E-05-2.86627E-05-2.88786E-05-9.56221E-07-2.75147E-19-2.23118E-18
 -1      2304 9.61072E-05-2.86497E-05-2.89131E-05-1.24950E-06-4.08864E-19-1.89439E-18
 -1      2305 9.59441E-05-2.86303E-05-2.88462E-05-8.57110E-07-6.02886E-19-2.28776E-18
 -1      2306 9.58218E-05-2.85962E-05-2.88101E-05-7.74736E-07-3.09404E-19-2.20727E-18
 -1      2307 9.58643E-05-2.85565E-05-2.88485E-05-1.04193E-06-3.85158E-19-1.68778E-18
 -1      2308 9.57430E-05-2.85790E-05-2.87819E-05-6.80949E-07-2.67267E-19-2.59222E-18
 -1      2309 9.56468E-05-2.85581E-05-2.87517E-05-6.04659E-07-1.11742E-19-2.95069E-18
 -1      2310 9.56814E-05-2.85082E-05-2.87904E-05-8.35707E-07-6.28730E-19-2.14831E-18
 -1      2311 9.55882E-05-2.85506E-05-2.87279E-05-5.21859E-07 5.29276E-20-2.88395E-18
 -1      2312 9.55146E-05-2.85388E-05-2.87035E-05-4.55677E-07 2.05675E-19-3.40123E-18
 -1      2313 9.55453E-05-2.84885E-05-2.87402E-05-6.47421E-07-1.02484E-19-2.37847E-18
 -1      2314 9.54716E-05-2.85371E-05-2.86840E-05-3.86158E-07 4.60913E-19-3.19828E-18
 -1      2315 9.54168E-05-2.85312E-05-2.86650E-05-3.31465E-07 7.36114E-19-2.78713E-18
 -1      2316 9.54450E-05-2.84860E-05-2.86980E-05-4.85150E-07 6.25117E-19-2.52298E-18
 -1      2317 9.53856E-05-2.85326E-05-2.86495E-05-2.75387E-07 1.00851E-18-1.97946E-18
 -1      2318 9.53460E-05-2.85305E-05-2.86350E-05-2.31945E-07 1.43028E-18-1.93783E-18
 -1      2319 9.53722E-05-2.84927E-05-2.86637E-05-3.51322E-07 1.34739E-18-1.66662E-18
 -1      2320 9.53238E-05-2.85334E-05-2.86230E-05-1.88245E-07 1.24551E-18-1.99528E-18
 -1      2321 9.52961E-05-2.85336E-05-2.86124E-05-1.54927E-07 8.83734E-19-1.63568E-18
 -1      2322 9.53202E-05-2.85037E-05-2.86365E-05-2.44910E-07 1.25965E-18-1.20148E-18
 -1      2323 9.52807E-05-2.85370E-05-2.86033E-05-1.21949E-07 4.45472E-19-2.11032E-18
 -1      2324 9.52621E-05-2.85385E-05-2.85957E-05-9.72372E-08 2.37671E-19-1.71917E-18
 -1      2325 9.52838E-05-2.85159E-05-2.86155E-05-1.63013E-07 7.21783E-19-1.47043E-18
 -1      2326 9.52517E-05-2.85418E-05-2.85891E-05-7.31358E-08-2.53188E-19-2.07427E-18
 -1      2327 9.52398E-05-2.85438E-05-2.85839E-05-5.54317E-08-7.94431E-19-1.84311E-18
 -1      2328 9.52590E-05-2.85275E-05-2.85997E-05-1.01924E-07-2.40860E-19-1.55027E-18
 -1      2329 9.52331E-05-2.85468E-05-2.85792E-05-3.84160E-08-5.48440E-19-1.16657E-18
 -1      2330 9.52262E-05-2.85490E-05-2.85759E-05-2.62172E-08-1.48927E-20-4.05740E-20
 -1      2331 9.52426E-05-2.85378E-05-2.85882E-05-5.78009E-08-2.41805E-19-1.45245E-18
 -1      2332 9.52221E-05-2.85515E-05-2.85727E-05-1.46808E-08-7.96063E-19 3.99286E-20
 -1      2333 9.52186E-05-2.85537E-05-2.85706E-05-6.67073E-09-2.36815E-20-2.27728E-19
 -1      2334 9.52325E-05-2.85465E-05-2.85800E-05-2.70531E-08-2.11893E-19 6.38659E-20
 -1      2335 9.52163E-05-2.85557E-05-2.85685E-05 7.53143E-10 1.80494E-19 1.29754E-19
 -1      2336 9.52151E-05-2.85576E-05-2.85675E-05 5.67353E-09-6.40594E-20 4.31340E-20
 -1      2337 9.52266E-05-2.85534E-05-2.85744E-05-6.53513E-09-1.25735E-19 7.17481E-19
 -1      2338 9.52141E-05-2.85593E-05-2.85662E-05 1.01020E-08-9.61184E-19-4.68399E-19
 -1      2339 9.52145E-05-2.85610E-05-2.85658E-05 1.28158E-08-8.21525E-19-1.34876E-20
 -1      2340 9.52237E-05-2.85588E-05-2.85708E-05 6.38438E-09-6.65025E-19 3.35271E-19
 -1      2341 9.52143E-05-2.85622E-05-2.85651E-05 1.51323E-08-1.27356E-19-4.84548E-19
 -1      2342 9.52155E-05-2.85636E-05-2.85651E-05 1.63268E-08 4.56495E-19-6.81202E-19
 -1      2343 9.52228E-05-2.85629E-05-2.85686E-05 1.38284E-08-3.89226E-19-1.03430E-19
 -1      2344 9.52158E-05-2.85645E-05-2.85648E-05 1.72100E-08 3.00382E-19-1.26599E-18
 -1      2345 9.52175E-05-2.85657E-05-2.85650E-05 1.74047E-08 6.57559E-19-5.28437E-19
 -1      2346 9.52232E-05-2.85659E-05-2.85675E-05 1.74579E-08 1.36426E-19-4.47634E-19
 -1      2347 9.52181E-05-2.85664E-05-2.85650E-05 1.73616E-08 4.49641E-19-7.11282E-19
 -1      2348 9.52199E-05-2.85673E-05-2.85654E-05 1.69380E-08 1.60729E-19-1.03651E-18
 -1      2349 9.52243E-05-2.85681E-05-2.85670E-05 1.85363E-08 1.95903E-19-9.57857E-19
 -1      2350 9.52207E-05-2.85678E-05-2.85655E-05 1.63370E-08-4.76981E-19-9.81731E-19
 -1      2351 9.52225E-05-2.85685E-05-2.85660E-05 1.55670E-08-5.86044E-19-5.38231E-19
 -1      2352 9.52258E-05-2.85696E-05-2.85670E-05 1.79988E-08-2.07444E-19-1.58567E-18
 -1      2353 9.52233E-05-2.85689E-05-2.85662E-05 1.46676E-08-7.11155E-19-9.59683E-19
 -1      2354 9.52250E-05-2.85694E-05-2.85667E-05 1.37382E-08-2.48649E-19-1.33241E-18
 -1      2355 9.52274E-05-2.85706E-05-2.85672E-05 1.65183E-08-9.90502E-19-1.47040E-18
 -1      2356 9.52258E-05-2.85697E-05-2.85669E-05 1.27169E-08-1.56614E-19-1.50448E-18
 -1      2357 9.52273E-05-2.85701E-05-2.85674E-05 1.17515E-08-2.62431E-19-1.14761E-18
 -1      2358 9.52290E-05-2.85712E-05-2.85676E-05 1.45636E-08-8.83014E-20-1.01095E-18
 -1      2359 9.52280E-05-2.85702E-05-2.85676E-05 1.07226E-08 3.41249E-19-1.10722E-18
 -1      2360 9.52293E-05-2.85705E-05-2.85680E-05 9.79804E-09 2.96308E-19-1.01990E-18
 -1      2361 9.52305E-05-2.85716E-05-2.85681E-05 1.24488E-08 1.64293E-19-6.29549E-19
 -1      2362 9.52299E-05-2.85706E-05-2.85683E-05 8.83108E-09 7.09699E-21-1.30433E-18
 -1      2363 9.52310E-05-2.85709E-05-2.85686E-05 7.99091E-09-7.51044E-20-1.24120E-18
 -1      2364 9.52318E-05-2.85718E-05-2.85686E-05 1.03740E-08-1.54078E-19-9.42972E-19
 -1      2365 9.52315E-05-2.85709E-05-2.85689E-05 7.12365E-09 6.95454E-19-4.93970E-19
 -1      2366 9.52324E-05-2.85711E-05-2.85692E-05 6.38852E-09 7.59754E-19 3.58695E-19
 -1      2367 9.52329E-05-2.85719E-05-2.85690E-05 8.45722E-09 7.36568E-19-7.74926E-19
 -1      2368 9.52329E-05-2.85711E-05-2.85694E-05 5.63710E-09-2.52134E-19 1.19530E-18
 -1      2369 9.52336E-05-2.85712E-05-2.85696E-05 5.01243E-09-4.43545E-20 1.57361E-18
 -1      2370 9.52339E-05-2.85719E-05-2.85694E-05 6.75898E-09 9.28540E-19 3.85167E-21
 -1      2371 9.52340E-05-2.85712E-05-2.85698E-05 4.37885E-09 1.93770E-19 2.36085E-18
 -1      2372 9.52345E-05-2.85713E-05-2.85700E-05 3.86044E-09 1.41448E-18 2.76554E-18
 -1      2373 9.52347E-05-2.85718E-05-2.85698E-05 5.30134E-09 5.23348E-19 2.27850E-18
 -1      2374 9.52348E-05-2.85713E-05-2.85701E-05 3.33794E-09 1.91219E-18 2.13120E-18
 -1      2375 9.52353E-05-2.85713E-05-2.85703E-05 2.91592E-09 2.60300E-18 1.96957E-18
 -1      2376 9.52353E-05-2.85717E-05-2.85701E-05 4.08140E-09 1.22039E-18 2.01499E-18
 -1      2377 9.52355E-05-2.85713E-05-2.85704E-05 2.49276E-09 2.74917E-18 2.15072E-18
 -1      2378 9.52358E-05-2.85713E-05-2.85705E-05 2.15433E-09 2.66137E-18 2.60545E-18
 -1      2379 9.52358E-05-2.85717E-05-2.85703E-05 3.08125E-09 2.90911E-18 2.06913E-18
 -1      2380 9.52360E-05-2.85713E-05-2.85706E-05 1.81637E-09 4.14561E-19 2.23868E-18
 -1      2381 9.52363E-05-2.85713E-05-2.85707E-05 1.54765E-09 4.08814E-20 1.75064E-18
 -1      2382 9.52362E-05-2.85716E-05-2.85705E-05 2.27484E-09 1.28475E-18 1.92141E-18
 -1      2383 9.52364E-05-2.85713E-05-2.85708E-05 1.28024E-09 9.33148E-19 9.91586E-19
 -1      2384 9.52366E-05-2.85713E-05-2.85708E-05 1.06810E-09-5.79084E-19 6.16827E-19
 -1      2385 9.52365E-05-2.85715E-05-2.85707E-05 1.63263E-09-4.75430E-19 6.08852E-19
 -1      2386 9.52367E-05-2.85713E-05-2.85709E-05 8.57077E-10-2.06821E-18 5.72171E-19
 -1      2387 9.52368E-05-2.85713E-05-2.85709E-05 6.90886E-10-2.55796E-18 5.02229E-19
 -1      2388 9.52368E-05-2.85715E-05-2.85708E-05 1.12568E-09-8.26343E-19-9.66013E-19
 -1      2389 9.52372E-05-2.85717E-05-2.85709E-05-6.42961E-10-3.35054E-19 2.70652E-18
 -1      2390 9.52371E-05-2.85716E-05-2.85710E-05-5.87857E-10-8.26786E-19 2.03193E-18
 -1      2391 1.40479E-04-4.11145E-05-4.32002E-05-1.06518E-05 3.79889E-18-4.37540E-18
 -1      2392 1.38564E-04-3.34000E-05-4.52890E-05-8.03038E-06 5.67427E-18-3.07102E-18
 -1      2393 1.38247E-04-4.85852E-05-3.84715E-05-4.53882E-06 5.99195E-19-4.96944E-18
 -1      2394 1.38626E-04-4.54040E-05-4.00663E-05-7.99169E-06 1.99717E-18-5.02362E-18
 -1      2395 1.28458E-04-4.53478E-05-3.54846E-05 5.83488E-06-7.99270E-19-3.71660E-18
 -1      2396 1.31619E-04-4.72586E-05-3.62986E-05 1.80949E-06-1.02478E-19-4.27472E-18
 -1      2397 1.19111E-04-3.90849E-05-3.41893E-05 1.12506E-05-1.29025E-18-2.53134E-18
 -1      2398 1.22582E-04-4.18605E-05-3.46647E-05 9.06824E-06-8.73000E-19-2.91347E-18
 -1      2399 1.22612E-04-4.49761E-05-3.35059E-05 1.20967E-05-1.33808E-18-3.31925E-18
 -1      2400 1.12237E-04-3.42305E-05-3.33779E-05 1.25718E-05-8.16014E-19-2.09261E-18
 -1      2401 1.15220E-04-3.63082E-05-3.38370E-05 1.20351E-05-9.45216E-19-2.37059E-18
 -1      2402 1.12671E-04-3.73103E-05-3.24458E-05 1.50553E-05-1.07843E-18-2.30549E-18
 -1      2403 1.07583E-04-3.13827E-05-3.26377E-05 1.16342E-05-9.05013E-19-1.62094E-18
 -1      2404 1.09969E-04-3.26728E-05-3.31173E-05 1.20731E-05-6.78248E-19-1.81111E-18
 -1      2405 1.06563E-04-3.21489E-05-3.19701E-05 1.47745E-05-9.20252E-19-1.97291E-18
 -1      2406 1.04409E-04-2.99418E-05-3.19088E-05 9.75913E-06 5.62483E-20-1.29320E-18
 -1      2407 1.06277E-04-3.06711E-05-3.23735E-05 1.05910E-05-5.18783E-19-1.48757E-18
 -1      2408 1.03045E-04-2.94518E-05-3.15744E-05 1.29139E-05-6.83117E-19-1.82544E-18
 -1      2409 1.02133E-04-2.92676E-05-3.12260E-05 7.73721E-06 1.00840E-19-6.27476E-19
 -1      2410 1.03588E-04-2.96772E-05-3.16397E-05 8.62402E-06 2.12357E-19-6.20826E-19
 -1      2411 1.00971E-04-2.83429E-05-3.11401E-05 1.05749E-05-1.47474E-19-1.05425E-18
 -1      2412 1.00428E-04-2.89593E-05-3.06275E-05 5.92132E-06 4.84048E-19-3.36357E-19
 -1      2413 1.01553E-04-2.91987E-05-3.09728E-05 6.70878E-06 6.81471E-19-5.00209E-19
 -1      2414 9.96141E-05-2.80204E-05-3.06889E-05 8.31192E-06 3.76933E-19-1.91324E-19
 -1      2415 9.91192E-05-2.88117E-05-3.01296E-05 4.42739E-06-8.10935E-20-6.67072E-19
 -1      2416 9.99810E-05-2.89606E-05-3.04053E-05 5.06779E-06 1.75872E-19-5.43555E-19
 -1      2417 9.86264E-05-2.80226E-05-3.02624E-05 6.35491E-06 3.99661E-19 9.48880E-22
 -1      2418 9.81089E-05-2.87313E-05-2.97309E-05 3.25708E-06-3.61390E-19-5.19294E-19
 -1      2419 9.87612E-05-2.88298E-05-2.99442E-05 3.75328E-06-2.83180E-19-6.35656E-19
 -1      2420 9.78555E-05-2.81260E-05-2.98875E-05 4.76476E-06-5.57950E-20-5.38643E-19
 -1      2421 9.73319E-05-2.86795E-05-2.94201E-05 2.36673E-06 5.27993E-19-9.40199E-19
 -1      2422 9.78199E-05-2.87476E-05-2.95817E-05 2.74048E-06 4.34887E-19-6.75259E-19
 -1      2423 9.72368E-05-2.82385E-05-2.95742E-05 3.52090E-06 2.97720E-19-6.81440E-19
 -1      2424 9.67399E-05-2.86417E-05-2.91828E-05 1.70157E-06-6.17689E-20-1.56400E-18
 -1      2425 9.71009E-05-2.86898E-05-2.93032E-05 1.97831E-06 4.82197E-19-1.54933E-18
 -1      2426 9.67396E-05-2.83304E-05-2.93218E-05 2.57128E-06 6.71793E-19-6.62592E-19
 -1      2427 9.62941E-05-2.86126E-05-2.90045E-05 1.21049E-06-4.46958E-19-1.60346E-18
 -1      2428 9.65581E-05-2.86467E-05-2.90930E-05 1.41317E-06-5.36076E-19-1.90760E-18
 -1      2429 9.63447E-05-2.83974E-05-2.91236E-05 1.85783E-06-9.28270E-20-1.98990E-18
 -1      2430 9.59629E-05-2.85904E-05-2.88723E-05 8.50976E-07-1.05188E-19-2.28718E-18
 -1      2431 9.61536E-05-2.86143E-05-2.89367E-05 9.98262E-07 2.27081E-19-1.62943E-18
 -1      2432 9.60361E-05-2.84437E-05-2.89712E-05 1.32777E-06-2.13003E-20-1.77734E-18
 -1      2433 9.57200E-05-2.85741E-05-2.87757E-05 5.89499E-07-6.09837E-19-2.08071E-18
 -1      2434 9.58563E-05-2.85903E-05-2.88219E-05 6.95952E-07-6.30131E-19-2.55311E-18
 -1      2435 9.57994E-05-2.84753E-05-2.88558E-05 9.37309E-07 4.53223E-20-2.06821E-18
 -1      2436 9.55382E-05-2.85624E-05-2.87030E-05 3.92915E-07-1.56383E-19-1.97659E-18
 -1      2437 9.56370E-05-2.85735E-05-2.87369E-05 4.72080E-07-2.27639E-19-1.67383E-18
 -1      2438 9.56174E-05-2.84966E-05-2.87679E-05 6.46539E-07-7.59410E-19-3.23998E-18
 -1      2439 9.54172E-05-2.85553E-05-2.86543E-05 2.60228E-07 2.91399E-19-1.15039E-18
 -1      2440 9.54814E-05-2.85617E-05-2.86766E-05 3.13430E-07 3.90946E-19-1.25831E-18
 -1      2441 9.54840E-05-2.85129E-05-2.87036E-05 4.35928E-07-4.86670E-20-1.88651E-18
 -1      2442 9.53337E-05-2.85516E-05-2.86203E-05 1.66142E-07 6.39384E-19-1.43905E-18
 -1      2443 9.53766E-05-2.85551E-05-2.86355E-05 2.03537E-07 5.10058E-19-1.30227E-18
 -1      2444 9.53905E-05-2.85240E-05-2.86584E-05 2.89357E-07 5.61612E-19-2.07683E-18
 -1      2445 9.52778E-05-2.85502E-05-2.85971E-05 1.00405E-07 1.55182E-18-2.32251E-18
 -1      2446 9.53055E-05-2.85517E-05-2.86071E-05 1.26278E-07 1.08028E-18-1.33936E-18
 -1      2447 9.53246E-05-2.85327E-05-2.86261E-05 1.85181E-07 1.05237E-18-2.46723E-18
 -1      2448 9.52419E-05-2.85504E-05-2.85817E-05 5.53052E-08-3.59619E-19-2.24491E-18
 -1      2449 9.52588E-05-2.85506E-05-2.85881E-05 7.28427E-08 4.51109E-19-1.92154E-18
 -1      2450 9.52795E-05-2.85398E-05-2.86035E-05 1.12172E-07 6.42814E-19-2.55099E-18
 -1      2451 9.52202E-05-2.85518E-05-2.85719E-05 2.51224E-08-7.39035E-19-1.54809E-18
 -1      2452 9.52296E-05-2.85511E-05-2.85757E-05 3.66753E-08-5.22203E-19-1.82762E-18
 -1      2453 9.52498E-05-2.85456E-05-2.85881E-05 6.19576E-08-2.49282E-19-1.51555E-18
 -1      2454 9.52083E-05-2.85538E-05-2.85661E-05 5.61636E-09-8.39080E-19-1.77585E-18
 -1      2455 9.52127E-05-2.85526E-05-2.85681E-05 1.29187E-08-2.93807E-19-1.62114E-18
 -1      2456 9.52312E-05-2.85506E-05-2.85778E-05 2.82813E-08-6.32449E-19-1.98759E-18
 -1      2457 9.52031E-05-2.85560E-05-2.85629E-05-6.34948E-09-5.63454E-19-2.19378E-18
 -1      2458 9.52042E-05-2.85547E-05-2.85638E-05-2.02165E-09-1.42728E-18-2.07530E-18
 -1      2459 9.52205E-05-2.85547E-05-2.85713E-05 6.47773E-09-6.21102E-19-2.42146E-18
 -1      2460 9.52022E-05-2.85583E-05-2.85616E-05-1.30852E-08 1.86138E-18-2.33779E-18
 -1      2461 9.52013E-05-2.85569E-05-2.85617E-05-1.07972E-08 7.44659E-19-2.00136E-18
 -1      2462 9.52151E-05-2.85582E-05-2.85674E-05-6.92125E-09 4.15366E-19-2.23898E-18
 -1      2463 9.52039E-05-2.85605E-05-2.85614E-05-1.62804E-08 2.18968E-19-2.66600E-18
 -1      2464 9.52018E-05-2.85592E-05-2.85610E-05-1.53528E-08 1.72463E-18-2.23717E-18
 -1      2465 9.52133E-05-2.85611E-05-2.85654E-05-1.44799E-08 1.81568E-18-2.17597E-18
 -1      2466 9.52070E-05-2.85625E-05-2.85619E-05-1.71585E-08 6.59762E-20-3.51732E-18
 -1      2467 9.52044E-05-2.85613E-05-2.85613E-05-1.71029E-08-1.00023E-19-3.52339E-18
 -1      2468 9.52137E-05-2.85635E-05-2.85645E-05-1.80792E-08 8.02424E-19-2.80984E-18
 -1      2469 9.52109E-05-2.85643E-05-2.85628E-05-1.65932E-08 5.45206E-19-3.42021E-18
 -1      2470 9.52081E-05-2.85632E-05-2.85621E-05-1.70638E-08 5.19361E-19-2.90864E-18
 -1      2471 9.52155E-05-2.85654E-05-2.85644E-05-1.90841E-08-1.17992E-19-3.69150E-18
 -1      2472 9.52148E-05-2.85658E-05-2.85639E-05-1.51976E-08 1.15700E-18-2.80424E-18
 -1      2473 9.52122E-05-2.85648E-05-2.85632E-05-1.59544E-08 7.95281E-19-2.64398E-18
 -1      2474 9.52180E-05-2.85669E-05-2.85648E-05-1.84711E-08 4.36780E-19-3.13236E-18
 -1      2475 9.52187E-05-2.85670E-05-2.85650E-05-1.33919E-08-2.30090E-20-2.63189E-18
 -1      2476 9.52162E-05-2.85662E-05-2.85643E-05-1.42715E-08 9.43764E-19-2.34280E-18
 -1      2477 9.52207E-05-2.85681E-05-2.85654E-05-1.69262E-08 8.58595E-19-2.58690E-18
 -1      2478 9.52224E-05-2.85681E-05-2.85661E-05-1.13550E-08 6.64810E-19-2.39371E-18
 -1      2479 9.52201E-05-2.85674E-05-2.85655E-05-1.22973E-08-3.75005E-19-2.63872E-18
 -1      2480 9.52235E-05-2.85690E-05-2.85662E-05-1.48674E-08 2.73578E-19-2.22889E-18
 -1      2481 9.52254E-05-2.85689E-05-2.85671E-05-9.46342E-09-2.82758E-19-7.75930E-19
 -1      2482 9.52235E-05-2.85684E-05-2.85665E-05-1.03142E-08 6.55499E-19-1.83453E-18
 -1      2483 9.52261E-05-2.85697E-05-2.85670E-05-1.26525E-08 2.77935E-19-1.31278E-18
 -1      2484 9.52280E-05-2.85695E-05-2.85679E-05-7.72198E-09 7.34093E-19-6.49785E-19
 -1      2485 9.52264E-05-2.85691E-05-2.85675E-05-8.49058E-09-3.59771E-19-1.32812E-18
 -1      2486 9.52283E-05-2.85702E-05-2.85677E-05-1.05461E-08 1.90656E-20-1.48962E-18
 -1      2487 9.52301E-05-2.85700E-05-2.85686E-05-6.18135E-09 2.02011E-19-1.15671E-18
 -1      2488 9.52289E-05-2.85697E-05-2.85682E-05-6.85126E-09 4.80774E-19-9.31980E-19
 -1      2489 9.52302E-05-2.85706E-05-2.85684E-05-8.60596E-09 9.71028E-19-7.59874E-19
 -1      2490 9.52319E-05-2.85704E-05-2.85692E-05-4.85939E-09 7.33143E-19-9.68269E-19
 -1      2491 9.52309E-05-2.85701E-05-2.85689E-05-5.42741E-09 3.06373E-19-1.08939E-18
 -1      2492 9.52318E-05-2.85709E-05-2.85690E-05-6.88894E-09 2.98955E-19 1.54508E-19
 -1      2493 9.52333E-05-2.85706E-05-2.85697E-05-3.75267E-09-2.02346E-18-3.64695E-19
 -1      2494 9.52325E-05-2.85705E-05-2.85695E-05-4.22352E-09 3.26290E-19-1.94894E-19
 -1      2495 9.52331E-05-2.85710E-05-2.85694E-05-5.41528E-09-2.51224E-19 3.56303E-20
 -1      2496 9.52344E-05-2.85708E-05-2.85701E-05-2.84492E-09-2.50501E-18-1.19061E-18
 -1      2497 9.52338E-05-2.85707E-05-2.85699E-05-3.22792E-09-2.58116E-18-1.22044E-18
 -1      2498 9.52341E-05-2.85711E-05-2.85698E-05-4.18122E-09-1.20567E-18-4.98457E-19
 -1      2499 9.52352E-05-2.85710E-05-2.85704E-05-2.11280E-09-1.77795E-18-5.05383E-19
 -1      2500 9.52347E-05-2.85709E-05-2.85702E-05-2.41965E-09-3.13677E-18-1.52576E-18
 -1      2501 9.52350E-05-2.85712E-05-2.85702E-05-3.16864E-09-2.90188E-18-9.58487E-19
 -1      2502 9.52358E-05-2.85711E-05-2.85706E-05-1.52989E-09 6.50993E-20-1.22758E-18
 -1      2503 9.52355E-05-2.85710E-05-2.85705E-05-1.77329E-09 2.84595E-19-9.89669E-19
 -1      2504 9.52356E-05-2.85713E-05-2.85704E-05-2.35167E-09-9.52557E-19-1.18103E-18
 -1      2505 9.52363E-05-2.85712E-05-2.85708E-05-1.06733E-09 1.60246E-18-3.33739E-18
 -1      2506 9.52361E-05-2.85711E-05-2.85707E-05-1.26055E-09 2.68769E-20-2.54104E-18
 -1      2507 9.52361E-05-2.85713E-05-2.85706E-05-1.70282E-09 1.39784E-18-3.30653E-18
 -1      2508 9.52367E-05-2.85712E-05-2.85709E-05-7.02732E-10 2.57963E-18-4.21328E-18
 -1      2509 9.52365E-05-2.85712E-05-2.85709E-05-8.56647E-10 1.93359E-18-3.19642E-18
 -1      2510 9.52365E-05-2.85713E-05-2.85708E-05-1.18931E-09 1.17557E-18-3.56661E-18
 -1      2511 9.52369E-05-2.85712E-05-2.85710E-05-4.13217E-10 2.99260E-18-4.01010E-18
 -1      2512 9.52368E-05-2.85712E-05-2.85710E-05-5.38833E-10 3.10659E-18-2.81041E-18
 -1      2513 9.52367E-05-2.85713E-05-2.85709E-05-7.81486E-10 2.26173E-18-2.84373E-18
 -1      2514 1.58440E-04-4.46293E-05-4.90826E-05 9.43993E-06 6.42612E-18-2.83438E-18
 -1      2515 1.50770E-04-4.95562E-05-4.35052E-05 1.43128E-05 4.77637E-18-2.34649E-18
 -1      2516 9.52376E-05-2.85722E-05-2.85709E-05-6.24559E-10 7.25710E-20-9.25225E-19
 -1      2517 9.52375E-05-2.85721E-05-2.85709E-05-6.65629E-10 6.79107E-19-2.97344E-18
 -1      2518 1.40485E-05 1.16895E-05-1.06783E-05 2.24953E-05 5.37707E-18-4.84651E-18
 -1      2519 9.52374E-05-2.85720E-05-2.85709E-05-6.89460E-10-5.53851E-19-9.10503E-19
 -1      2520 9.52373E-05-2.85718E-05-2.85709E-05-6.76093E-10-1.18049E-18 1.89683E-18
 -1      2521 9.52373E-05-2.85718E-05-2.85709E-05-7.96580E-10-1.44007E-19 1.46506E-18
 -1      2522 9.52375E-05-2.85721E-05-2.85709E-05-8.11552E-10-4.40616E-21-4.83974E-19
 -1      2523 9.52377E-05-2.85724E-05-2.85708E-05-4.56120E-10-8.62995E-20 1.94429E-18
 -1      2524 9.52376E-05-2.85723E-05-2.85708E-05-5.42013E-10 5.60775E-19 5.46255E-19
 -1      2525 9.52377E-05-2.85724E-05-2.85708E-05-6.92309E-10 1.04305E-18 2.62842E-19
 -1      2526 9.52378E-05-2.85726E-05-2.85708E-05-2.12961E-10-6.65450E-19-6.47598E-19
 -1      2527 9.52378E-05-2.85725E-05-2.85708E-05-3.28793E-10-2.84638E-19 4.29193E-19
 -1      2528 9.52378E-05-2.85726E-05-2.85708E-05-4.63948E-10-3.79201E-19 6.22806E-19
 -1      2529 9.52378E-05-2.85726E-05-2.85708E-05 6.47602E-11-1.15125E-18-4.51212E-19
 -1      2530 9.52378E-05-2.85726E-05-2.85708E-05-6.14579E-11-1.75986E-18-3.05770E-19
 -1      2531 9.52379E-05-2.85727E-05-2.85708E-05-1.61842E-10-6.08103E-19-8.92867E-19
 -1      2532 9.52378E-05-2.85725E-05-2.85708E-05 3.31670E-10 2.80044E-19-4.59594E-19
 -1      2533 9.52378E-05-2.85726E-05-2.85708E-05 2.16151E-10-4.15547E-19-4.89584E-19
 -1      2534 9.52379E-05-2.85727E-05-2.85708E-05 1.65818E-10 9.71227E-19 4.35262E-19
 -1      2535 9.52376E-05-2.85723E-05-2.85708E-05 5.41152E-10 1.88072E-18-1.81092E-18
 -1      2536 9.52377E-05-2.85724E-05-2.85708E-05 4.56738E-10 1.37796E-18-1.84356E-18
 -1      2537 9.52378E-05-2.85726E-05-2.85708E-05 4.65233E-10 1.80210E-18-1.80746E-19
 -1      2538 9.52375E-05-2.85721E-05-2.85709E-05 6.65094E-10 1.20509E-18 1.43965E-18
 -1      2539 9.52376E-05-2.85722E-05-2.85709E-05 6.23850E-10 1.90685E-18-1.38388E-18
 -1      2540 9.52377E-05-2.85724E-05-2.85708E-05 6.91774E-10 1.91399E-18-1.38157E-18
 -1      2541 9.52373E-05-2.85718E-05-2.85709E-05 6.77853E-10 8.43983E-19 2.28997E-18
 -1      2542 9.52374E-05-2.85720E-05-2.85709E-05 6.89635E-10 8.68116E-19 3.45495E-18
 -1      2543 9.52375E-05-2.85721E-05-2.85709E-05 8.09951E-10 1.56782E-18 1.39835E-18
 -1      2544 9.52371E-05-2.85716E-05-2.85710E-05 5.79901E-10 4.57232E-20 4.57047E-19
 -1      2545 9.52372E-05-2.85717E-05-2.85709E-05 6.40709E-10 7.98491E-19 4.05409E-19
 -1      2546 9.52373E-05-2.85718E-05-2.85709E-05 7.99096E-10 8.26109E-19 1.63252E-18
 -1      2547 9.52371E-05-2.85714E-05-2.85710E-05 3.36129E-10 2.69661E-19 1.76322E-18
 -1      2548 1.40038E-04-2.73413E-05-4.89378E-05-1.04329E-07 7.73193E-18-1.57278E-18
 -1      2549 1.40715E-04-2.43303E-05-5.02713E-05 1.01672E-05 8.38266E-18 7.70668E-19
 -1      2550 3.60097E-05-1.60799E-05-8.40331E-06-3.27724E-05 4.54751E-18 6.87325E-18
 -1      2551 4.87602E-05-2.17226E-05-1.14600E-05-4.10461E-05 4.55090E-18 6.41119E-18
 -1      2552 2.16236E-05-6.30296E-06-6.23807E-06-1.02764E-05 3.00961E-18 7.79524E-18
 -1      2553 2.65161E-05-1.02846E-05-6.75531E-06-2.37898E-05 3.56008E-18 7.59492E-18
 -1      2554 3.90588E-05-1.21761E-05-1.10582E-05-2.80805E-05 4.07232E-18 6.84720E-18
 -1      2555 1.08082E-04-1.49362E-05-4.00465E-05-1.63694E-05-1.25892E-18-6.26979E-18
 -1      2556 1.05473E-04-1.42588E-05-3.91946E-05-1.69360E-05-2.24701E-18-6.56166E-18
 -1      2557 1.05222E-04-1.59836E-05-3.82075E-05-1.57229E-05-2.70666E-18-5.85498E-18
 -1      2558 1.09680E-04-1.53439E-05-4.04190E-05-1.64677E-05-1.61951E-18-5.51274E-18
 -1      2559 1.35987E-04-1.05249E-05-5.40569E-05-6.30166E-06-7.04371E-18-6.37959E-18
 -1      2560 1.32286E-04-7.91280E-06-5.38776E-05-7.96807E-06-7.52165E-18-5.60693E-18
 -1      2561 6.01706E-05-2.66406E-05-1.44243E-05 4.21796E-05 5.22196E-19 3.96729E-18
 -1      2562 4.30963E-05-1.92505E-05-1.00215E-05 3.41120E-05 7.46660E-19 6.04167E-18
 -1      2563 1.02814E-05 5.94681E-06-7.40813E-06-4.14787E-06 3.24477E-18-8.44788E-18
 -1      2564 2.19063E-05 3.06036E-06-1.10367E-05-9.88829E-06 6.67885E-19-7.58116E-18
 -1      2565 1.58570E-04-3.03976E-05-5.50051E-05 2.94408E-05 8.92201E-18 1.80206E-18
 -1      2566 1.57892E-04-2.39441E-05-5.77486E-05 2.27860E-05 1.01686E-17 8.49203E-19
 -1      2567 1.41512E-04-5.29353E-05-3.83927E-05 2.59355E-05 3.39660E-18-1.83044E-18
 -1      2568 1.28193E-04-5.22417E-05-3.25360E-05 3.16623E-05 2.21372E-18-8.43857E-19
 -1      2569 1.41493E-04-2.67720E-05-4.95549E-05 2.10811E-05 7.57629E-18 3.17987E-18
 -1      2570 1.47248E-04-3.38118E-05-4.92675E-05 2.91852E-05 6.59902E-18 5.25319E-18
 -1      2571 8.76382E-05-2.97198E-05-2.50727E-05-9.97233E-06 4.99749E-20-4.67800E-18
 -1      2572 1.17187E-04-4.40950E-05-3.19606E-05-4.14953E-06 1.15789E-18-2.81628E-18
 -1      2573 1.60818E-04-4.79281E-05-4.83868E-05 2.85869E-05 6.21585E-18 1.95072E-18
 -1      2574 1.62745E-04-4.23139E-05-5.23423E-05 3.10722E-05 7.41281E-18 2.37804E-18
 -1      2575 1.41107E-04-5.19424E-05-3.82131E-05 1.01891E-05 2.45989E-18-6.08593E-19
 -1      2576 1.56623E-04-5.45705E-05-4.44547E-05 1.90297E-05 4.60357E-18 7.57671E-19
 -1      2577 1.21177E-04-4.42448E-05-3.30652E-05-3.01255E-05 2.45068E-18-2.28529E-18
 -1      2578 1.30857E-04-4.22859E-05-3.81828E-05-2.46922E-05 9.15113E-19-3.27590E-18
 -1      2579 1.28747E-04-2.87594E-05-4.33843E-05 5.76219E-06-7.35053E-19-1.63096E-18
 -1      2580 1.18857E-04-2.77763E-05-3.92966E-05 1.35933E-05 1.07679E-18-1.91789E-18
 -1      2581 1.38736E-04-2.10320E-05-5.09674E-05-7.45414E-06-5.28549E-18-2.41066E-18
 -1      2582 1.33861E-04-2.42894E-05-4.72246E-05-3.54169E-06-3.13127E-18-1.55071E-18
 -1      2583 1.33463E-04-1.01110E-05-5.34953E-05-1.21162E-05-7.11825E-18-3.85506E-18
 -1      2584 1.37561E-04-1.53286E-05-5.26149E-05-1.07690E-05-6.31505E-18-3.02645E-18
 -1      2585 1.30439E-04-1.56090E-05-4.92399E-05-1.36186E-05-4.55164E-18-2.23236E-18
 -1      2586 1.39196E-04-2.08116E-05-5.09371E-05-6.22482E-06-4.75567E-18-6.39976E-18
 -1      2587 1.38170E-04-1.55613E-05-5.30437E-05-5.58049E-06-6.17953E-18-6.74514E-18
 -1      2588 1.35968E-04-3.56675E-05-4.30824E-05-1.61635E-05-1.29016E-18-4.61760E-18
 -1      2589 1.40665E-04-2.90505E-05-4.81580E-05-1.07724E-05-3.23916E-18-5.55505E-18
 -1      2590 9.89011E-05-4.22432E-05-2.41543E-05-4.08598E-05 4.64640E-18 5.23360E-19
 -1      2591 1.12335E-04-4.44158E-05-2.91513E-05-3.78398E-05 3.19374E-18-6.43322E-19
 -1      2592 1.20856E-04-4.74467E-05-3.13037E-05-2.85537E-05 4.21081E-18-2.91591E-18
 -1      2593 6.35590E-05-2.96989E-05-1.43921E-05-4.39133E-05 5.17347E-18 4.98119E-18
 -1      2594 7.97200E-05-3.56178E-05-1.89746E-05-4.62184E-05 4.69383E-18 3.15872E-18
 -1      2595 1.56410E-04-2.02539E-05-5.86343E-05 1.33801E-05 1.07200E-17-1.26674E-18
 -1      2596 1.59699E-04-2.32795E-05-5.84493E-05 7.68215E-06 1.05485E-17-1.75399E-18
 -1      2597 1.16870E-04-2.77324E-05-3.83479E-05 6.41210E-06 4.11195E-18-1.15832E-18
 -1      2598 1.22192E-04-2.74036E-05-4.07630E-05-2.70475E-06 2.76510E-18-1.69931E-18
 -1      2599 1.62057E-04-2.92439E-05-5.70615E-05 5.73191E-06 9.61912E-18-2.76683E-18
 -1      2600 1.60106E-04-3.58429E-05-5.33555E-05 5.04276E-06 8.35852E-18-2.79182E-18
 -1      2601 1.20782E-04-7.04038E-06-4.91831E-05-8.07829E-06-5.88698E-18-5.81493E-18
 -1      2602 1.28247E-04-8.24095E-06-5.18531E-05-1.05749E-05-6.65937E-18-4.88071E-18
 -1      2603 1.22450E-04-8.75155E-06-4.91006E-05-1.22483E-05-5.57538E-18-4.25372E-18
 -1      2604 1.28841E-04-1.21051E-05-5.02131E-05-3.01138E-06-5.58978E-18-7.31482E-18
 -1      2605 1.02543E-04-1.89310E-05-3.57698E-05-1.37470E-05-3.60089E-18-5.29926E-18
 -1      2606 1.34706E-04-2.59375E-05-4.66907E-05-3.90445E-06-2.89198E-18-7.46194E-18
 -1      2607 1.44358E-04-4.51422E-05-4.27729E-05-6.94053E-06 3.30237E-18-5.50413E-18
 -1      2608 1.35654E-04-5.08043E-05-3.67333E-05 3.41585E-06-7.73513E-20-5.24663E-18
 -1      2609 1.00586E-04-2.29037E-05-3.33241E-05-7.10152E-06-3.40719E-18-4.20763E-18
 -1      2610 1.49027E-04-2.33154E-05-5.41560E-05 1.73100E-05 9.53293E-18 5.97899E-19
 -1      2611 9.52370E-05-2.85715E-05-2.85709E-05-6.93524E-10 8.09426E-19-5.20473E-19
 -1      2612 9.52370E-05-2.85714E-05-2.85710E-05-5.09854E-10 8.37020E-19-3.26715E-19
 -1      2613 4.08048E-05-1.39787E-05-1.09734E-05 2.80557E-05-1.99053E-20 6.16301E-18
 -1      2614 1.47357E-04-5.35530E-05-4.00265E-05 1.22914E-05 2.44292E-18-3.56093E-18
 -1      2615 1.54814E-04-4.15260E-05-4.85732E-05-3.14110E-07 6.22463E-18-4.29065E-18
 -1      2616 9.52371E-05-2.85712E-05-2.85711E-05-6.60945E-12-1.83910E-18-5.27693E-18
 -1      2617 9.52371E-05-2.85712E-05-2.85711E-05-8.02456E-11-1.94317E-18-3.84541E-18
 -1      2618 1.33354E-04-4.12136E-05-3.94207E-05-1.41545E-05 1.11550E-18-5.65987E-18
 -1      2619 2.46658E-05-5.44307E-06-7.79508E-06-1.93275E-06 2.21696E-18 7.92696E-18
 -1      2620 3.17666E-05-4.67503E-06-1.10943E-05-9.30487E-06 2.28455E-18 7.00496E-18
 -1      2621 2.91099E-05-4.53261E-06-1.02517E-05 6.78535E-06 9.92776E-19 7.03842E-18
 -1      2622 9.52370E-05-2.85712E-05-2.85711E-05-1.95192E-10-1.45761E-18-3.38700E-18
 -1      2623 9.52370E-05-2.85713E-05-2.85710E-05 4.49865E-10-7.32090E-19 1.54478E-18
 -1      2624 9.52370E-05-2.85715E-05-2.85710E-05 5.28200E-10-2.87359E-19 2.75202E-18
 -1      2625 9.52370E-05-2.85716E-05-2.85709E-05 7.09282E-10-3.64697E-19 8.01256E-19
 -1      2626 9.52369E-05-2.85713E-05-2.85710E-05 5.71757E-10-1.72574E-18 1.21712E-18
 -1      2627 1.21477E-04-5.20143E-05-2.95417E-05 3.38037E-05 1.37431E-19-1.62154E-18
 -1      2628 9.14961E-05-4.05840E-05-2.23172E-05 4.04137E-05-1.62376E-18 4.55333E-19
 -1      2629 7.67249E-05-3.35307E-05-1.80991E-05 4.27065E-05-2.76768E-19 2.41870E-18
 -1      2630 7.00742E-05-2.77682E-05-1.76993E-05 3.94567E-05-1.63319E-18 2.22812E-18
 -1      2631 6.24278E-05-2.60582E-05-1.51775E-05-4.13672E-05 5.33758E-18 5.07119E-18
 -1      2632 1.51876E-04-2.62744E-05-5.37198E-05 1.63920E-06 9.07130E-18-2.83883E-18
 -1      2633 1.11868E-04-2.67241E-05-3.66972E-05 1.66479E-05 3.03471E-18-2.10202E-18
 -1      2634 9.52369E-05-2.85714E-05-2.85709E-05 7.77348E-10-2.18337E-18 2.08252E-18
 -1      2635 1.29164E-04-2.62379E-05-4.42188E-05-3.90530E-06-7.24332E-19-1.13566E-18
 -1      2636 1.55509E-04-3.62842E-05-5.12561E-05 3.28803E-05 7.32916E-18 3.84659E-18
 -1      2637 1.51879E-04-4.10818E-05-4.76446E-05 3.39423E-05 5.45976E-18 6.11028E-18
 -1      2638 9.48854E-05-4.11304E-05-2.27917E-05-4.11430E-05 5.45468E-18 8.07262E-19
 -1      2639 9.52370E-05-2.85713E-05-2.85710E-05-4.09321E-10 9.72455E-19-1.55133E-18
 -1      2640 1.57161E-04-4.86052E-05-4.68623E-05 3.37044E-05 3.81001E-18 6.81491E-18
 -1      2641 1.32311E-04-4.73704E-05-3.63159E-05 8.84134E-06 4.88314E-19 1.07997E-20
 -1      2642 1.57196E-04-5.12175E-05-4.54829E-05 2.84542E-05 4.18351E-18 3.42074E-18
 -1      2643 1.10749E-04-3.51890E-05-3.24538E-05 1.38332E-06-1.46304E-18-1.38781E-18
 -1      2644 8.85018E-05-2.67416E-05-2.63914E-05-6.40108E-06-1.80100E-18-3.63224E-18
 -1      2645 9.52370E-05-2.85713E-05-2.85710E-05-3.65579E-10 1.14116E-18-3.26588E-18
 -1      2646 6.74728E-05-1.89595E-05-2.08584E-05-1.42394E-05-1.48231E-21-5.99572E-18
 -1      2647 1.24810E-04-2.36849E-05-4.37330E-05-9.63620E-06 2.21817E-20-1.50121E-18
 -1      2648 1.25605E-04-2.07758E-05-4.52354E-05-1.42854E-05-1.71418E-18-1.84844E-18
 -1      2649 4.67039E-05-7.91307E-06-1.67310E-05-1.19575E-05-4.98267E-19-6.62592E-18
 -1      2650 1.27467E-04-4.40394E-05-3.57275E-05 8.69974E-06-3.36378E-19 4.44447E-19
 -1      2651 7.73820E-05-1.35990E-05-2.74525E-05 3.18409E-05 4.55196E-18-3.74669E-18
 -1      2652 1.00089E-04-2.86119E-05-3.06012E-05 1.59667E-05-1.04839E-18-1.07931E-18
 -1      2653 1.02520E-04-3.06250E-05-3.07296E-05 1.68296E-05-1.09775E-18-1.25809E-18
 -1      2654 1.04657E-04-3.30381E-05-3.05644E-05 1.85630E-05-1.63227E-18-1.53038E-18
 -1      2655 1.09004E-04-3.67332E-05-3.07977E-05 1.86347E-05-1.71479E-18-1.82615E-18
 -1      2656 9.71050E-05-2.94515E-05-2.90810E-05 2.01148E-05-1.58405E-18-7.57472E-19
 -1      2657 1.01368E-04-2.36563E-05-3.32509E-05-1.68491E-06-2.53509E-18-4.41625E-18
 -1      2658 1.01296E-04-2.47892E-05-3.28168E-05 6.98990E-07-2.22716E-18-4.46850E-18
 -1      2659 1.17523E-04-1.61933E-05-4.36378E-05-1.61976E-05-1.81204E-18-3.61498E-18
 -1      2660 1.13288E-04-1.46145E-05-4.24772E-05-1.63350E-05-2.06125E-18-4.70700E-18
 -1      2661 1.30934E-04-3.13997E-05-4.29028E-05-1.71682E-06-1.13238E-18-7.96846E-18
 -1      2662 1.28069E-04-2.34286E-05-4.54010E-05 6.07132E-07-2.98018E-18-8.23750E-18
 -1      2663 9.52371E-05-2.85717E-05-2.85709E-05-9.56827E-10 1.18883E-19 8.20929E-19
 -1      2664 9.52369E-05-2.85715E-05-2.85709E-05-8.89174E-10 1.49894E-18-9.80621E-19
 -1      2665 9.52368E-05-2.85716E-05-2.85708E-05-1.08189E-09 9.53711E-19-1.39148E-18
 -1      2666 5.09115E-05-1.60940E-05-1.46769E-05 3.14098E-05-1.54393E-18 4.12018E-18
 -1      2667 3.76741E-05-8.62822E-06-1.17766E-05 2.04784E-05-5.60630E-19 5.84940E-18
 -1      2668 1.01665E-04-2.61599E-05-3.23007E-05 2.83975E-06-1.96626E-18-4.30272E-18
 -1      2669 1.01957E-04-2.75483E-05-3.19292E-05 4.28141E-06-1.59604E-18-4.35690E-18
 -1      2670 1.03173E-04-2.47413E-05-3.36196E-05 1.57669E-06-2.11923E-18-4.51442E-18
 -1      2671 1.02445E-04-2.89970E-05-3.14322E-05 5.21299E-06-1.33576E-18-4.24224E-18
 -1      2672 1.02824E-04-3.02821E-05-3.11241E-05 5.65697E-06-9.47542E-19-4.21945E-18
 -1      2673 1.04137E-04-2.82648E-05-3.25180E-05 4.76734E-06-1.48959E-18-4.32585E-18
 -1      2674 1.03026E-04-3.13603E-05-3.06935E-05 5.53956E-06-7.22257E-19-3.97432E-18
 -1      2675 1.03255E-04-3.22299E-05-3.04574E-05 5.22624E-06-3.52776E-19-3.97805E-18
 -1      2676 1.04881E-04-3.13562E-05-3.14968E-05 5.52895E-06-8.01796E-19-4.43803E-18
 -1      2677 1.03016E-04-3.27327E-05-3.01233E-05 4.47588E-06-3.08255E-19-3.70958E-18
 -1      2678 1.02988E-04-3.30859E-05-2.99585E-05 3.75800E-06-2.23227E-20-3.73550E-18
 -1      2679 1.04867E-04-3.33168E-05-3.06518E-05 4.56302E-06-3.04441E-19-4.01499E-18
 -1      2680 1.02384E-04-3.30595E-05-2.97246E-05 2.81464E-06 1.37942E-19-3.56817E-18
 -1      2681 1.02128E-04-3.29918E-05-2.96182E-05 2.00516E-06 3.14332E-19-3.67728E-18
 -1      2682 1.04012E-04-3.39499E-05-3.00248E-05 2.79800E-06 1.46048E-19-3.54177E-18
 -1      2683 1.01349E-04-3.26314E-05-2.94677E-05 1.16012E-06 2.48339E-19-3.37601E-18
 -1      2684 1.00958E-04-3.23173E-05-2.94012E-05 4.52623E-07 1.24877E-19-3.06407E-18
 -1      2685 1.02606E-04-3.35506E-05-2.96033E-05 9.95051E-07 4.15097E-19-3.00466E-18
 -1      2686 1.00175E-04-3.18215E-05-2.93094E-05-1.70140E-07-2.00684E-19-2.53593E-18
 -1      2687 9.97422E-05-3.14179E-05-2.92654E-05-6.92547E-07 5.49105E-20-2.31156E-18
 -1      2688 1.01027E-04-3.25954E-05-2.93409E-05-4.46559E-07 3.25130E-19-2.28313E-18
 -1      2689 9.90570E-05-3.09269E-05-2.92094E-05-1.07834E-06-3.59493E-21-2.09564E-18
 -1      2690 9.86455E-05-3.05377E-05-2.91753E-05-1.40686E-06 2.10036E-19-2.29654E-18
 -1      2691 9.95501E-05-3.14854E-05-2.91846E-05-1.41037E-06 2.55785E-21-2.03581E-18
 -1      2692 9.80989E-05-3.01250E-05-2.91382E-05-1.59414E-06 6.27139E-20-2.34164E-18
 -1      2693 9.77406E-05-2.98015E-05-2.91065E-05-1.75814E-06 1.63563E-19-2.45594E-18
 -1      2694 9.83175E-05-3.04696E-05-2.90901E-05-1.93636E-06-1.25134E-20-2.43601E-18
 -1      2695 9.73318E-05-2.94909E-05-2.90777E-05-1.80092E-06-7.74758E-21-2.62526E-18
 -1      2696 9.70366E-05-2.92476E-05-2.90455E-05-1.84269E-06-2.84328E-19-2.62656E-18
 -1      2697 9.73649E-05-2.96593E-05-2.90266E-05-2.12514E-06 3.67187E-20-2.32422E-18
 -1      2698 9.67448E-05-2.90340E-05-2.90195E-05-1.79173E-06-5.89020E-19-2.26757E-18
 -1      2699 9.65100E-05-2.88654E-05-2.89863E-05-1.75262E-06-3.17270E-19-2.09535E-18
 -1      2700 9.66682E-05-2.90751E-05-2.89759E-05-2.08371E-06-2.89970E-19-2.56026E-18
 -1      2701 9.63092E-05-2.87311E-05-2.89609E-05-1.64855E-06-3.48637E-19-1.86306E-18
 -1      2702 9.61267E-05-2.86231E-05-2.89277E-05-1.56280E-06-3.82587E-19-1.73739E-18
 -1      2703 9.61793E-05-2.86906E-05-2.89291E-05-1.90290E-06-3.88793E-19-1.84315E-18
 -1      2704 9.59922E-05-2.85477E-05-2.89028E-05-1.43512E-06-3.22982E-19-1.74542E-18
 -1      2705 9.58526E-05-2.84846E-05-2.88709E-05-1.32818E-06-3.14020E-19-1.53386E-18
 -1      2706 9.58471E-05-2.84621E-05-2.88831E-05-1.65140E-06-3.00642E-19-1.24790E-18
 -1      2707 9.57644E-05-2.84495E-05-2.88468E-05-1.19660E-06-4.57981E-19-1.40210E-18
 -1      2708 9.56589E-05-2.84174E-05-2.88175E-05-1.08576E-06-4.63571E-19-1.72728E-18
 -1      2709 9.56269E-05-2.83453E-05-2.88376E-05-1.37694E-06-4.79867E-19-1.22000E-18
 -1      2710 9.56019E-05-2.84078E-05-2.87950E-05-9.62266E-07-6.03848E-19-1.72632E-18
 -1      2711 9.55230E-05-2.83958E-05-2.87689E-05-8.58147E-07-3.87827E-19-1.78781E-18
 -1      2712 9.54838E-05-2.83022E-05-2.87940E-05-1.11002E-06-4.79220E-19-1.27781E-18
 -1      2713 9.54866E-05-2.84010E-05-2.87487E-05-7.49126E-07 2.91397E-20-1.51978E-18
 -1      2714 9.54282E-05-2.84009E-05-2.87263E-05-6.57397E-07 4.20363E-19-1.36712E-18
 -1      2715 9.53922E-05-2.83041E-05-2.87534E-05-8.68163E-07 4.67203E-21-1.07594E-18
 -1      2716 9.54051E-05-2.84135E-05-2.87086E-05-5.65402E-07 6.04716E-19-1.23099E-18
 -1      2717 9.53623E-05-2.84200E-05-2.86900E-05-4.88324E-07 9.72041E-19-1.13952E-18
 -1      2718 9.53342E-05-2.83304E-05-2.87169E-05-6.59697E-07 4.99485E-19-4.09130E-19
 -1      2719 9.53477E-05-2.84353E-05-2.86750E-05-4.13464E-07 1.32740E-18-1.01233E-18
 -1      2720 9.53169E-05-2.84446E-05-2.86599E-05-3.51119E-07 1.65277E-18-1.04788E-18
 -1      2721 9.52976E-05-2.83674E-05-2.86851E-05-4.86874E-07 1.17877E-18-6.39576E-19
 -1      2722 9.53076E-05-2.84599E-05-2.86475E-05-2.92082E-07 1.59720E-18-1.10791E-18
 -1      2723 9.52857E-05-2.84699E-05-2.86357E-05-2.43295E-07 1.23380E-18-7.57235E-19
 -1      2724 9.52747E-05-2.84067E-05-2.86583E-05-3.48197E-07 1.75773E-18-5.35222E-19
 -1      2725 9.52797E-05-2.84837E-05-2.86257E-05-1.98062E-07 2.50391E-19-1.13958E-18
 -1      2726 9.52645E-05-2.84931E-05-2.86166E-05-1.61040E-07 1.34033E-19-1.24014E-18
 -1      2727 9.52602E-05-2.84436E-05-2.86362E-05-2.40121E-07 6.48663E-19-5.07150E-19
 -1      2728 9.52607E-05-2.85048E-05-2.86088E-05-1.27350E-07-7.18162E-20-1.52501E-18
 -1      2729 9.52505E-05-2.85130E-05-2.86020E-05-1.00101E-07-5.68928E-19-1.30165E-18
 -1      2730 9.52511E-05-2.84757E-05-2.86184E-05-1.58194E-07-3.01901E-19-1.23201E-18
 -1      2731 9.52479E-05-2.85225E-05-2.85960E-05-7.57407E-08-3.71773E-19-1.22248E-18
 -1      2732 9.52414E-05-2.85293E-05-2.85910E-05-5.63269E-08 1.51811E-19-9.71321E-19
 -1      2733 9.52453E-05-2.85022E-05-2.86045E-05-9.78026E-08-7.49763E-19-9.62294E-19
 -1      2734 9.52397E-05-2.85367E-05-2.85865E-05-3.92869E-08 2.15174E-20-4.55743E-19
 -1      2735 9.52357E-05-2.85422E-05-2.85830E-05-2.59654E-08-2.17733E-19-2.26774E-19
 -1      2736 9.52416E-05-2.85232E-05-2.85938E-05-5.46023E-08 3.72044E-19-2.39051E-19
 -1      2737 9.52346E-05-2.85477E-05-2.85798E-05-1.45135E-08-2.66685E-19-4.62219E-19
 -1      2738 9.52324E-05-2.85520E-05-2.85774E-05-5.79398E-09-2.28220E-20-1.76251E-19
 -1      2739 9.52393E-05-2.85394E-05-2.85858E-05-2.47499E-08-3.75830E-19-6.83059E-19
 -1      2740 9.52317E-05-2.85560E-05-2.85751E-05 1.50499E-09-2.86490E-19 1.87037E-19
 -1      2741 9.52307E-05-2.85592E-05-2.85736E-05 6.84684E-09-6.59556E-19 4.98609E-19
 -1      2742 9.52378E-05-2.85514E-05-2.85800E-05-4.99077E-09-2.27612E-19-1.61011E-19
 -1      2743 9.52303E-05-2.85620E-05-2.85720E-05 1.11452E-08-5.07464E-19 4.83553E-19
 -1      2744 9.52301E-05-2.85644E-05-2.85711E-05 1.40832E-08-4.84022E-20 6.75957E-19
 -1      2745 9.52369E-05-2.85600E-05-2.85759E-05 7.33711E-09-4.76923E-19 3.56480E-19
 -1      2746 9.52299E-05-2.85663E-05-2.85700E-05 1.62806E-08-6.40666E-19 5.40722E-19
 -1      2747 9.52302E-05-2.85680E-05-2.85695E-05 1.75675E-08-1.95809E-19-3.97453E-19
 -1      2748 9.52363E-05-2.85659E-05-2.85731E-05 1.43483E-08-5.31670E-19 8.75593E-19
 -1      2749 9.52301E-05-2.85692E-05-2.85689E-05 1.83490E-08-1.32998E-19-2.09719E-19
 -1      2750 9.52307E-05-2.85703E-05-2.85687E-05 1.85511E-08-3.78897E-19-3.66933E-19
 -1      2751 9.52360E-05-2.85699E-05-2.85713E-05 1.76789E-08-3.96762E-19-5.07605E-19
 -1      2752 9.52306E-05-2.85710E-05-2.85684E-05 1.84245E-08-4.23409E-19-6.55498E-19
 -1      2753 9.52314E-05-2.85718E-05-2.85684E-05 1.79565E-08-7.94297E-19-1.06981E-18
 -1      2754 9.52359E-05-2.85723E-05-2.85702E-05 1.85634E-08-7.53893E-19 2.29430E-19
 -1      2755 9.52314E-05-2.85722E-05-2.85682E-05 1.72888E-08-1.24988E-18-7.65087E-19
 -1      2756 9.52322E-05-2.85726E-05-2.85684E-05 1.64458E-08-1.20872E-18-8.58177E-19
 -1      2757 9.52359E-05-2.85738E-05-2.85695E-05 1.79097E-08-1.13778E-18 1.61315E-19
 -1      2758 9.52322E-05-2.85728E-05-2.85683E-05 1.54941E-08-2.48383E-19-5.54592E-19
 -1      2759 9.52329E-05-2.85731E-05-2.85685E-05 1.44789E-08 3.13574E-19-4.59748E-19
 -1      2760 9.52360E-05-2.85744E-05-2.85693E-05 1.63678E-08-5.98420E-19 8.22839E-20
 -1      2761 9.52330E-05-2.85730E-05-2.85686E-05 1.34170E-08-2.81932E-19-4.35645E-19
 -1      2762 9.52337E-05-2.85732E-05-2.85688E-05 1.23634E-08-3.37705E-20-1.28274E-18
 -1      2763 9.52361E-05-2.85746E-05-2.85692E-05 1.43884E-08 2.56846E-20-1.35486E-18
 -1      2764 9.52337E-05-2.85731E-05-2.85689E-05 1.13034E-08 5.92574E-20-1.59942E-18
 -1      2765 9.52343E-05-2.85731E-05-2.85691E-05 1.02946E-08-5.57171E-19-1.60436E-18
 -1      2766 9.52362E-05-2.85745E-05-2.85693E-05 1.22722E-08-4.37726E-19-1.67365E-18
 -1      2767 9.52344E-05-2.85730E-05-2.85692E-05 9.30400E-09 2.17209E-19-1.87260E-18
 -1      2768 9.52349E-05-2.85730E-05-2.85694E-05 8.38715E-09 1.21652E-18-1.08598E-18
 -1      2769 9.52364E-05-2.85742E-05-2.85695E-05 1.02095E-08-2.53532E-19-2.45898E-18
 -1      2770 9.52350E-05-2.85728E-05-2.85695E-05 7.50201E-09 1.64222E-18-1.16836E-18
 -1      2771 9.52354E-05-2.85727E-05-2.85697E-05 6.69946E-09 1.08258E-18-5.24379E-19
 -1      2772 9.52365E-05-2.85739E-05-2.85697E-05 8.31173E-09 1.43655E-18-1.54442E-18
 -1      2773 9.52355E-05-2.85726E-05-2.85698E-05 5.93461E-09 6.20886E-19-7.32464E-20
 -1      2774 9.52358E-05-2.85725E-05-2.85700E-05 5.25219E-09 1.04393E-18 4.49198E-19
 -1      2775 9.52366E-05-2.85735E-05-2.85699E-05 6.63500E-09 1.17716E-18-1.29260E-18
 -1      2776 9.52359E-05-2.85724E-05-2.85701E-05 4.60857E-09 8.49646E-19 6.99952E-19
 -1      2777 9.52362E-05-2.85723E-05-2.85702E-05 4.04172E-09 1.62508E-18 3.20982E-19
 -1      2778 9.52367E-05-2.85731E-05-2.85701E-05 5.19864E-09 8.85797E-19-1.35082E-18
 -1      2779 9.52362E-05-2.85721E-05-2.85703E-05 3.51179E-09 2.81152E-18 6.64333E-19
 -1      2780 9.52364E-05-2.85721E-05-2.85704E-05 3.04987E-09 3.23643E-18 5.11351E-19
 -1      2781 9.52368E-05-2.85727E-05-2.85703E-05 3.99831E-09 2.38181E-18-1.82709E-19
 -1      2782 9.52365E-05-2.85720E-05-2.85705E-05 2.62139E-09 2.13599E-18 5.24338E-19
 -1      2783 9.52366E-05-2.85719E-05-2.85706E-05 2.25072E-09 1.28442E-19 2.43541E-19
 -1      2784 9.52369E-05-2.85724E-05-2.85705E-05 3.01561E-09 2.49490E-18-7.71572E-19
 -1      2785 9.52367E-05-2.85718E-05-2.85707E-05 1.90916E-09-1.10252E-18 8.59820E-19
 -1      2786 9.52368E-05-2.85718E-05-2.85707E-05 1.61455E-09-8.35350E-19-7.04196E-19
 -1      2787 9.52370E-05-2.85722E-05-2.85706E-05 2.22465E-09-4.34520E-19-7.98500E-19
 -1      2788 9.52368E-05-2.85717E-05-2.85708E-05 1.34673E-09-9.77860E-19-1.00317E-18
 -1      2789 9.52369E-05-2.85717E-05-2.85708E-05 1.11583E-09-1.83093E-18-1.72224E-18
 -1      2790 9.52370E-05-2.85720E-05-2.85707E-05 1.59553E-09-1.54100E-18-4.62909E-19
 -1      2791 9.52381E-05-2.85729E-05-2.85708E-05-1.03343E-10 7.83899E-19-8.14642E-19
 -1      2792 9.52381E-05-2.85729E-05-2.85708E-05-2.76180E-10 6.82478E-19-9.97467E-19
 -1      2793 1.29564E-04-5.48880E-05-3.26234E-05 2.55163E-05-5.00808E-19-3.24361E-18
 -1      2794 1.13678E-04-4.86407E-05-2.72064E-05 3.37371E-05-1.45012E-18-1.81215E-18
 -1      2795 1.46626E-04-2.93825E-05-5.06782E-05-2.68073E-06 7.91425E-18-3.19998E-18
 -1      2796 1.27428E-04-5.06909E-05-3.25579E-05 1.71033E-05-1.76876E-18-3.82483E-18
 -1      2797 1.35091E-04-5.29143E-05-3.51876E-05 1.19410E-05-3.20020E-19-4.38361E-18
 -1      2798 1.02364E-04-2.07472E-05-3.49888E-05-9.90829E-06-3.48941E-18-4.85323E-18
 -1      2799 1.01493E-04-2.23125E-05-3.39372E-05-5.13910E-06-2.93016E-18-4.56544E-18
 -1      2800 1.13160E-04-4.07902E-05-3.07834E-05 1.95547E-05-1.89636E-18-2.59391E-18
 -1      2801 1.19639E-04-4.56261E-05-3.15551E-05 1.77500E-05-2.04254E-18-3.17752E-18
 -1      2802 1.13626E-04-4.62907E-05-2.92818E-05 2.68495E-05-2.25078E-18-3.17306E-18
 -1      2803 1.03345E-04-3.68587E-05-2.88055E-05 2.41101E-05-2.30897E-18-2.35263E-18
 -1      2804 9.81295E-05-2.68197E-05-3.05665E-05 1.30554E-05-6.14499E-19-1.15361E-18
 -1      2805 9.94800E-05-2.76633E-05-3.07208E-05 1.42299E-05-9.63487E-19-1.17418E-18
 -1      2806 9.47841E-05-2.58939E-05-2.95449E-05 1.61629E-05-1.08354E-18-4.19774E-19
 -1      2807 9.73180E-05-2.64177E-05-3.04017E-05 1.03646E-05-4.32257E-19-2.39281E-19
 -1      2808 9.81347E-05-2.66658E-05-3.05881E-05 1.15571E-05-5.54101E-19-7.36966E-19
 -1      2809 9.43576E-05-2.48251E-05-2.97972E-05 1.28194E-05-7.86961E-19-8.94753E-20
 -1      2810 9.69420E-05-2.66136E-05-3.01569E-05 8.04951E-06 5.33921E-19-2.38901E-19
 -1      2811 9.75005E-05-2.66027E-05-3.03515E-05 9.11769E-06 2.23861E-19-1.13092E-19
 -1      2812 9.46105E-05-2.49481E-05-2.98451E-05 1.00530E-05-2.13438E-19-2.00041E-19
 -1      2813 9.66980E-05-2.69933E-05-2.98867E-05 6.14575E-06 1.15637E-19-1.27998E-19
 -1      2814 9.71206E-05-2.68951E-05-3.00691E-05 7.03767E-06 5.84103E-19 2.61647E-19
 -1      2815 9.49925E-05-2.55274E-05-2.97604E-05 7.79295E-06 1.95545E-19-3.34995E-19
 -1      2816 9.64813E-05-2.73737E-05-2.96275E-05 4.62790E-06 1.71386E-19-4.16758E-19
 -1      2817 9.68184E-05-2.72634E-05-2.97866E-05 5.34076E-06 2.37940E-19-3.45622E-19
 -1      2818 9.52967E-05-2.61905E-05-2.96093E-05 5.97087E-06 4.21886E-19-2.37754E-19
 -1      2819 9.62696E-05-2.76906E-05-2.93981E-05 3.44436E-06 1.75728E-19-3.12651E-19
 -1      2820 9.65424E-05-2.75956E-05-2.95303E-05 3.99803E-06 2.09700E-19-3.18806E-19
 -1      2821 9.54798E-05-2.67825E-05-2.94371E-05 4.52336E-06 2.57024E-19-3.74079E-19
 -1      2822 9.60675E-05-2.79335E-05-2.92052E-05 2.53638E-06 6.95996E-19-4.00685E-19
 -1      2823 9.62868E-05-2.78597E-05-2.93114E-05 2.95823E-06 6.45529E-19-5.23405E-19
 -1      2824 9.55600E-05-2.72578E-05-2.92702E-05 3.38981E-06 4.12924E-19-6.19778E-19
 -1      2825 9.58843E-05-2.81119E-05-2.90486E-05 1.84825E-06 1.20629E-19-1.34575E-18
 -1      2826 9.60578E-05-2.80573E-05-2.91319E-05 2.16540E-06 3.17267E-19-9.88264E-19
 -1      2827 9.55703E-05-2.76191E-05-2.91214E-05 2.51340E-06 7.18997E-19-1.24975E-18
 -1      2828 9.57260E-05-2.82401E-05-2.89247E-05 1.33173E-06 3.24635E-20-1.64610E-18
 -1      2829 9.58609E-05-2.82005E-05-2.89887E-05 1.56781E-06-1.81809E-19-1.53080E-18
 -1      2830 9.55406E-05-2.78854E-05-2.89955E-05 1.84322E-06 2.26367E-19-1.13572E-18
 -1      2831 9.55946E-05-2.83317E-05-2.88285E-05 9.47062E-07-3.37449E-19-1.67572E-18
 -1      2832 9.56978E-05-2.83029E-05-2.88770E-05 1.12151E-06 3.25421E-19-1.34369E-18
 -1      2833 9.54926E-05-2.80787E-05-2.88925E-05 1.33569E-06-2.93649E-21-1.04466E-18
 -1      2834 9.54853E-05-2.83997E-05-2.87520E-05 6.50971E-07-6.74118E-19-2.91295E-18
 -1      2835 9.55651E-05-2.83781E-05-2.87896E-05 7.83486E-07-3.93369E-19-2.45916E-18
 -1      2836 9.54387E-05-2.82200E-05-2.88088E-05 9.47373E-07 1.16499E-19-1.45522E-18
 -1      2837 9.54059E-05-2.84458E-05-2.86977E-05 4.46518E-07 8.30547E-20-2.31583E-18
 -1      2838 9.54613E-05-2.84304E-05-2.87239E-05 5.37854E-07-8.79303E-19-2.45013E-18
 -1      2839 9.53884E-05-2.83224E-05-2.87436E-05 6.59257E-07-9.21773E-19-2.81463E-18
 -1      2840 9.53461E-05-2.84793E-05-2.86575E-05 2.98203E-07 5.17279E-19-2.78495E-18
 -1      2841 9.53857E-05-2.84678E-05-2.86765E-05 3.63794E-07 1.06267E-18-2.33419E-18
 -1      2842 9.53463E-05-2.83933E-05-2.86951E-05 4.53636E-07 3.44373E-19-2.93712E-18
 -1      2843 9.53026E-05-2.85039E-05-2.86282E-05 1.92001E-07 1.22224E-18-2.81266E-18
 -1      2844 9.53302E-05-2.84951E-05-2.86417E-05 2.38561E-07 5.59332E-19-3.18087E-18
 -1      2845 9.53122E-05-2.84446E-05-2.86583E-05 3.03825E-07 7.92946E-19-2.52847E-18
 -1      2846 9.52719E-05-2.85221E-05-2.86072E-05 1.17109E-07 7.91114E-20-1.99465E-18
 -1      2847 9.52906E-05-2.85152E-05-2.86166E-05 1.49630E-07 9.02332E-19-2.53950E-18
 -1      2848 9.52859E-05-2.84819E-05-2.86310E-05 1.96106E-07 8.97187E-19-1.94776E-18
 -1      2849 9.52511E-05-2.85356E-05-2.85924E-05 6.53123E-08-6.88680E-19-1.95111E-18
 -1      2850 9.52632E-05-2.85303E-05-2.85988E-05 8.75555E-08-5.90993E-19-2.20970E-18
 -1      2851 9.52664E-05-2.85089E-05-2.86109E-05 1.19878E-07-4.17882E-19-2.24126E-18
 -1      2852 9.52376E-05-2.85457E-05-2.85823E-05 3.03956E-08-4.44254E-19-2.73611E-18
 -1      2853 9.52450E-05-2.85415E-05-2.85865E-05 4.51838E-08-5.24946E-19-2.08617E-18
 -1      2854 9.52525E-05-2.85284E-05-2.85964E-05 6.70105E-08-5.83665E-19-2.57112E-18
 -1      2855 9.52295E-05-2.85533E-05-2.85755E-05 7.67087E-09-2.81566E-19-2.99360E-18
 -1      2856 9.52335E-05-2.85500E-05-2.85782E-05 1.71175E-08-3.77145E-19-2.32041E-18
 -1      2857 9.52430E-05-2.85426E-05-2.85862E-05 3.12909E-08-5.35955E-19-3.19190E-18
 -1      2858 9.52250E-05-2.85588E-05-2.85712E-05-6.37838E-09 7.05416E-19-2.11812E-18
 -1      2859 9.52269E-05-2.85563E-05-2.85728E-05-6.98778E-10-2.77842E-19-2.64930E-18
 -1      2860 9.52369E-05-2.85527E-05-2.85792E-05 8.00034E-09-1.15111E-19-2.81258E-18
 -1      2861 9.52232E-05-2.85630E-05-2.85687E-05-1.43717E-08 2.04493E-18-1.70355E-18
 -1      2862 9.52235E-05-2.85610E-05-2.85695E-05-1.12943E-08 1.80941E-18-1.59734E-18
 -1      2863 9.52332E-05-2.85599E-05-2.85745E-05-6.42226E-09 9.06923E-19-2.10163E-18
 -1      2864 9.52230E-05-2.85659E-05-2.85673E-05-1.82425E-08 7.97614E-19-1.04540E-18
 -1      2865 9.52224E-05-2.85644E-05-2.85676E-05-1.69136E-08 1.44690E-18-7.19928E-19
 -1      2866 9.52312E-05-2.85648E-05-2.85714E-05-1.46420E-08 1.02494E-18-7.32818E-19
 -1      2867 9.52237E-05-2.85680E-05-2.85667E-05-1.94006E-08-3.82221E-19-1.33091E-18
 -1      2868 9.52227E-05-2.85669E-05-2.85667E-05-1.92024E-08 1.11297E-19-1.46553E-18
 -1      2869 9.52304E-05-2.85682E-05-2.85696E-05-1.86328E-08 3.00926E-19 2.68720E-19
 -1      2870 9.52251E-05-2.85695E-05-2.85667E-05-1.88589E-08 1.50711E-19-1.24818E-18
 -1      2871 9.52238E-05-2.85687E-05-2.85665E-05-1.93511E-08-8.56863E-20-1.55437E-18
 -1      2872 9.52304E-05-2.85704E-05-2.85686E-05-1.98374E-08 4.58315E-19-3.23267E-19
 -1      2873 9.52267E-05-2.85705E-05-2.85669E-05-1.73325E-08 5.96187E-19-5.24520E-19
 -1      2874 9.52253E-05-2.85699E-05-2.85666E-05-1.82055E-08 6.97057E-19-3.97150E-19
 -1      2875 9.52308E-05-2.85718E-05-2.85682E-05-1.92946E-08 1.27351E-19 3.86225E-19
 -1      2876 9.52284E-05-2.85712E-05-2.85674E-05-1.52001E-08-2.61116E-19 3.68639E-19
 -1      2877 9.52271E-05-2.85707E-05-2.85670E-05-1.63021E-08 3.48227E-19 1.04475E-19
 -1      2878 9.52315E-05-2.85726E-05-2.85681E-05-1.76863E-08-1.20629E-20 1.64900E-18
 -1      2879 9.52299E-05-2.85716E-05-2.85679E-05-1.30017E-08-9.83921E-20 8.48516E-19
 -1      2880 9.52288E-05-2.85713E-05-2.85675E-05-1.40904E-08-2.50326E-19 2.24967E-19
 -1      2881 9.52323E-05-2.85730E-05-2.85683E-05-1.55568E-08-7.87615E-19 1.86779E-18
 -1      2882 9.52313E-05-2.85718E-05-2.85684E-05-1.08503E-08 1.09474E-18-2.65713E-19
 -1      2883 9.52303E-05-2.85716E-05-2.85681E-05-1.18901E-08 6.37205E-19 4.58910E-19
 -1      2884 9.52331E-05-2.85731E-05-2.85686E-05-1.33094E-08 6.55135E-19 1.09120E-18
 -1      2885 9.52326E-05-2.85719E-05-2.85689E-05-8.86301E-09 3.65573E-19 1.09043E-19
 -1      2886 9.52317E-05-2.85717E-05-2.85686E-05-9.80715E-09 5.93378E-19-3.72258E-19
 -1      2887 9.52338E-05-2.85731E-05-2.85689E-05-1.11072E-08 7.76980E-19 1.14136E-18
 -1      2888 9.52336E-05-2.85719E-05-2.85693E-05-7.10076E-09 5.90504E-19 5.07950E-19
 -1      2889 9.52329E-05-2.85718E-05-2.85691E-05-7.92733E-09 1.20334E-18 6.57516E-19
 -1      2890 9.52345E-05-2.85729E-05-2.85692E-05-9.07226E-09 3.87009E-19 7.84920E-19
 -1      2891 9.52344E-05-2.85718E-05-2.85697E-05-5.58593E-09-4.03704E-19 9.15724E-19
 -1      2892 9.52339E-05-2.85718E-05-2.85695E-05-6.28931E-09-9.79182E-20 8.40370E-19
 -1      2893 9.52350E-05-2.85727E-05-2.85696E-05-7.26764E-09-1.38441E-19 1.73797E-18
 -1      2894 9.52351E-05-2.85718E-05-2.85700E-05-4.31576E-09-9.56640E-19-1.22648E-19
 -1      2895 9.52347E-05-2.85717E-05-2.85698E-05-4.90069E-09-3.89981E-19 6.99937E-19
 -1      2896 9.52355E-05-2.85725E-05-2.85699E-05-5.71627E-09-2.72646E-19 1.09696E-18
 -1      2897 9.52357E-05-2.85717E-05-2.85703E-05-3.27227E-09-2.16095E-18-1.14762E-18
 -1      2898 9.52353E-05-2.85717E-05-2.85701E-05-3.74954E-09-1.48761E-18-1.00835E-18
 -1      2899 9.52359E-05-2.85723E-05-2.85701E-05-4.41535E-09-7.69837E-19-1.26549E-20
 -1      2900 9.52361E-05-2.85716E-05-2.85705E-05-2.42980E-09 5.05842E-19-2.29076E-18
 -1      2901 9.52358E-05-2.85716E-05-2.85704E-05-2.81297E-09-1.80571E-18-1.99337E-18
 -1      2902 9.52362E-05-2.85721E-05-2.85704E-05-3.34655E-09-1.14988E-18-2.83232E-18
 -1      2903 9.52364E-05-2.85715E-05-2.85707E-05-1.75992E-09 1.66904E-18-2.89982E-18
 -1      2904 9.52362E-05-2.85716E-05-2.85706E-05-2.06049E-09 2.09071E-18-1.78947E-18
 -1      2905 9.52365E-05-2.85719E-05-2.85705E-05-2.48503E-09 9.76879E-19-2.51439E-18
 -1      2906 9.52367E-05-2.85716E-05-2.85708E-05-1.27952E-09 1.07225E-18-2.05970E-18
 -1      2907 9.52366E-05-2.85716E-05-2.85707E-05-1.52048E-09 1.03060E-18-2.00336E-18
 -1      2908 9.52368E-05-2.85718E-05-2.85707E-05-1.84679E-09 1.88718E-18-8.30509E-19
 -1      2909 9.52370E-05-2.85718E-05-2.85708E-05-1.37379E-09 1.07896E-18 1.17033E-18
 -1      2910 1.28721E-04-4.43195E-05-3.62127E-05-1.32716E-05 2.69391E-18-6.13188E-18
 -1      2911 1.31663E-04-3.87286E-05-4.03143E-05-6.89022E-06 6.04887E-19-7.12270E-18
 -1      2912 1.27987E-04-3.58829E-05-3.96197E-05-1.78682E-06 4.32966E-19-7.82394E-18
 -1      2913 9.52379E-05-2.85726E-05-2.85708E-05-7.70394E-10-4.75298E-19 2.84169E-19
 -1      2914 9.52377E-05-2.85725E-05-2.85708E-05-8.67829E-10 4.61395E-20-8.85447E-19
 -1      2915 9.52381E-05-2.85729E-05-2.85708E-05 2.81046E-10 2.25250E-18 1.05749E-18
 -1      2916 9.52381E-05-2.85729E-05-2.85708E-05 1.08339E-10 1.41143E-18 5.94088E-19
 -1      2917 9.52383E-05-2.85731E-05-2.85708E-05 3.07272E-12 1.87131E-18-7.52078E-19
 -1      2918 9.52380E-05-2.85727E-05-2.85708E-05 6.17616E-10 2.34551E-18-8.85382E-19
 -1      2919 9.52380E-05-2.85728E-05-2.85708E-05 4.73822E-10 2.23644E-18 8.90783E-19
 -1      2920 9.52382E-05-2.85731E-05-2.85708E-05 4.32604E-10 2.42304E-18 1.99319E-20
 -1      2921 9.52377E-05-2.85725E-05-2.85708E-05 8.66326E-10 2.50412E-18-1.40256E-18
 -1      2922 9.52379E-05-2.85726E-05-2.85708E-05 7.69365E-10 2.80619E-18-1.30311E-18
 -1      2923 9.52380E-05-2.85729E-05-2.85708E-05 7.99846E-10 2.21261E-18-1.17435E-18
 -1      2924 9.52375E-05-2.85722E-05-2.85708E-05 9.80090E-10 1.83345E-18 1.72757E-18
 -1      2925 9.52376E-05-2.85723E-05-2.85708E-05 9.52017E-10 2.20632E-18 8.39006E-20
 -1      2926 9.52378E-05-2.85726E-05-2.85708E-05 1.05334E-09 2.01863E-18-4.26168E-19
 -1      2927 4.01598E-05-8.84123E-06-1.29295E-05-2.21584E-05 3.09972E-18 6.23247E-18
 -1      2928 4.87497E-05-1.46381E-05-1.42174E-05-3.17760E-05 3.85008E-18 5.70212E-18
 -1      2929 5.99878E-05-2.22038E-05-1.57711E-05-3.77133E-05 5.06070E-18 4.59124E-18
 -1      2930 7.31861E-05-3.02601E-05-1.83172E-05-4.19926E-05 5.53293E-18 3.07261E-18
 -1      2931 1.24551E-04-1.63394E-05-4.67594E-05 6.82293E-07-4.20658E-18-8.03141E-18
 -1      2932 1.20811E-04-1.11388E-05-4.75792E-05-2.03435E-06-5.16140E-18-7.32316E-18
 -1      2933 1.03358E-04-1.86577E-05-3.63124E-05-1.17881E-05-3.20636E-18-5.29037E-18
 -1      2934 8.83948E-05-3.77674E-05-2.12876E-05-4.04268E-05 5.77878E-18 9.86899E-19
 -1      2935 1.04532E-04-4.47336E-05-2.58006E-05-3.64570E-05 5.62260E-18-1.03394E-18
 -1      2936 1.25207E-04-1.56994E-05-4.72595E-05-1.45169E-05-3.86702E-18-2.30621E-18
 -1      2937 1.19957E-04-1.56657E-05-4.49281E-05-1.66479E-05-2.37153E-18-2.89336E-18
 -1      2938 1.17022E-04-1.29445E-05-4.49709E-05-1.58427E-05-3.31751E-18-3.89543E-18
 -1      2939 1.23199E-04-1.17023E-05-4.84347E-05-1.47845E-05-4.87086E-18-3.38347E-18
 -1      2940 9.52370E-05-2.85716E-05-2.85709E-05 9.68893E-10-3.76300E-19-8.63560E-19
 -1      2941 9.52370E-05-2.85716E-05-2.85709E-05 8.38755E-10-2.47591E-19 8.59467E-19
 -1      2942 9.52371E-05-2.85718E-05-2.85708E-05 1.16793E-09-4.25164E-19-1.95887E-18
 -1      2943 1.07618E-04-2.50643E-05-3.55833E-05 2.19680E-05 2.57636E-18-2.45745E-18
 -1      2944 9.08141E-05-1.94010E-05-3.09181E-05 2.65316E-05 4.24882E-18-2.79378E-18
 -1      2945 9.15120E-05-1.97110E-05-3.08140E-05 2.49078E-05 5.62028E-18-2.58589E-18
 -1      2946 1.56425E-04-4.95246E-05-4.62396E-05 3.29154E-05 3.64489E-18 5.52361E-18
 -1      2947 1.16882E-04-4.76270E-05-2.94371E-05-2.76267E-05 5.01459E-18-3.36738E-18
 -1      2948 1.23638E-04-4.79729E-05-3.27517E-05-2.19856E-05 4.01700E-18-4.71676E-18
 -1      2949 9.52371E-05-2.85717E-05-2.85709E-05 8.86210E-10 9.17831E-19-5.92056E-19
 -1      2950 9.52380E-05-2.85728E-05-2.85708E-05-4.72574E-10-4.05113E-19 9.41254E-19
 -1      2951 9.52380E-05-2.85727E-05-2.85708E-05-6.18853E-10-4.16777E-19 1.73237E-18
 -1      2952 9.52380E-05-2.85729E-05-2.85708E-05-8.01494E-10-7.70052E-19 1.48672E-19
 -1      2953 9.52382E-05-2.85731E-05-2.85708E-05-4.30509E-10 9.48535E-19 5.86761E-19
 -1      2954 9.52372E-05-2.85719E-05-2.85709E-05-9.95869E-10 2.63184E-20 1.43880E-18
 -1      2955 1.53957E-04-5.26795E-05-4.34101E-05 2.73683E-05 1.86162E-18 4.60405E-18
 -1      2956 1.47502E-04-5.25094E-05-4.11400E-05 1.98564E-05 1.31862E-18 2.65937E-18
 -1      2957 1.11325E-04-1.37947E-05-4.18839E-05-1.50554E-05-2.58970E-18-4.83246E-18
 -1      2958 1.10494E-04-1.52178E-05-4.09354E-05-1.54047E-05-1.82309E-18-5.32238E-18
 -1      2959 1.07766E-04-1.50737E-05-3.98128E-05-1.49436E-05-2.40582E-18-5.58408E-18
 -1      2960 1.22416E-04-2.18993E-05-4.33275E-05 1.89004E-06-2.60971E-18-8.01246E-18
 -1      2961 6.34077E-05-2.18965E-05-1.71152E-05 3.49031E-05-2.22378E-18 2.87483E-18
 -1      2962 5.81947E-05-1.65178E-05-1.74984E-05 2.87447E-05-2.65270E-18 2.99299E-18
 -1      2963 7.55302E-05-2.85145E-05-2.02923E-05 3.61620E-05-2.83534E-18 1.00331E-18
 -1      2964 1.05029E-04-4.39839E-05-2.56508E-05 3.42981E-05-2.15888E-18-1.24757E-18
 -1      2965 1.02933E-04-2.15838E-05-3.48823E-05-4.22664E-06-2.75627E-18-4.83543E-18
 -1      2966 6.01948E-05-1.91348E-05-1.71230E-05-3.26563E-05 4.46815E-18 4.32389E-18
 -1      2967 1.25441E-04-4.59572E-05-3.40867E-05-1.36744E-05 3.58967E-18-5.73844E-18
 -1      2968 3.98865E-05-6.78999E-06-1.35447E-05 1.21040E-05-2.24093E-19 5.59169E-18
 -1      2969 3.95071E-05-4.90930E-06-1.45412E-05-7.63938E-06 1.45793E-18 5.89376E-18
 -1      2970 3.93034E-05-6.58388E-06-1.34552E-05-1.58318E-05 2.39229E-18 6.23797E-18
 -1      2971 4.80792E-05-9.13816E-06-1.62770E-05-1.92096E-05 2.71167E-18 5.13006E-18
 -1      2972 9.52376E-05-2.85723E-05-2.85708E-05-9.49952E-10-2.75947E-19-8.52957E-19
 -1      2973 9.52375E-05-2.85722E-05-2.85708E-05-9.90344E-10-7.59152E-19 9.70431E-19
 -1      2974 9.52378E-05-2.85726E-05-2.85708E-05-1.05296E-09-5.89012E-19-9.71303E-19
 -1      2975 9.52372E-05-2.85719E-05-2.85709E-05 9.29334E-10 1.22916E-18 8.82020E-19
 -1      2976 1.06278E-04-1.61957E-05-3.86709E-05-1.36525E-05-2.49486E-18-5.45746E-18
 -1      2977 1.04465E-04-1.71132E-05-3.74819E-05-1.31248E-05-3.07500E-18-5.49312E-18
 -1      2978 1.04303E-04-1.84303E-05-3.67894E-05-9.47142E-06-3.03321E-18-5.09746E-18
 -1      2979 1.07000E-04-1.55659E-05-3.91774E-05-1.24925E-05-2.77880E-18-5.21017E-18
 -1      2980 1.42199E-04-5.36394E-05-3.77220E-05 8.42614E-06 8.43883E-19-4.64111E-18
 -1      2981 8.54543E-05-3.45687E-05-2.14192E-05-3.80211E-05 5.84537E-18 1.03743E-18
 -1      2982 1.15268E-04-1.32854E-05-4.39419E-05-1.26241E-06-3.91816E-18-7.23528E-18
 -1      2983 1.18324E-04-9.88347E-06-4.68888E-05-4.25214E-06-5.05573E-18-6.64779E-18
 -1      2984 1.14889E-04-9.30810E-06-4.55534E-05-6.49104E-06-4.62311E-18-5.96954E-18
 -1      2985 1.47426E-04-5.15877E-05-4.17475E-05 5.25745E-07 2.58575E-18-5.12815E-18
 -1      2986 1.49062E-04-4.25207E-05-4.57892E-05-3.23398E-06 5.32466E-18-4.80183E-18
 -1      2987 1.18739E-04-9.41981E-06-4.71475E-05-1.35966E-05-4.73290E-18-4.29962E-18
 -1      2988 1.10524E-04-4.57157E-05-2.76381E-05-2.94495E-05 5.30359E-18-2.47868E-18
 -1      2989 1.49994E-04-3.67728E-05-4.93733E-05-5.48859E-06 6.75657E-18-4.34189E-18
 -1      2990 9.52372E-05-2.85720E-05-2.85708E-05 1.14320E-09-2.10626E-19-6.91370E-19
 -1      2991 9.52374E-05-2.85721E-05-2.85708E-05 1.04481E-09 5.80182E-19 2.01934E-18
 -1      2992 9.52375E-05-2.85723E-05-2.85708E-05 1.20510E-09 1.00921E-19 4.43230E-19
 -1      2993 9.52372E-05-2.85720E-05-2.85708E-05 1.30296E-09-1.33565E-18-3.09727E-19
 -1      2994 1.07759E-04-2.54805E-05-3.51064E-05 1.49004E-05 5.25552E-18-1.64457E-18
 -1      2995 9.06612E-05-2.27390E-05-2.91516E-05 1.13654E-05-4.22186E-19-5.68912E-19
 -1      2996 9.06232E-05-2.27413E-05-2.90436E-05 1.28188E-05-8.03734E-19-4.27330E-19
 -1      2997 8.93711E-05-2.26125E-05-2.86506E-05 1.46744E-05-9.21319E-19-2.46071E-19
 -1      2998 8.98917E-05-2.33975E-05-2.84092E-05 1.64785E-05-8.28448E-19-2.23776E-19
 -1      2999 8.57876E-05-2.03374E-05-2.80033E-05 1.30435E-05-7.08293E-19-4.67537E-19
 -1      3000 9.83108E-05-3.81578E-05-2.51159E-05 3.25587E-05-2.62840E-18-1.46530E-18
 -1      3001 1.25965E-04-3.89674E-05-3.72762E-05-2.20560E-06 1.27786E-18-7.43150E-18
 -1      3002 1.24202E-04-3.29485E-05-3.94733E-05 1.29851E-06-3.50672E-19-7.90509E-18
 -1      3003 1.05786E-04-2.72181E-05-3.36283E-05 4.22387E-06-1.61821E-18-4.62964E-18
 -1      3004 1.06310E-04-2.94212E-05-3.30286E-05 5.17231E-06-1.20775E-18-4.67781E-18
 -1      3005 1.06828E-04-3.14363E-05-3.22748E-05 5.23605E-06-1.01088E-18-4.48238E-18
 -1      3006 1.07037E-04-3.30306E-05-3.17539E-05 5.06887E-06-5.80962E-19-4.58258E-18
 -1      3007 1.08547E-04-3.07971E-05-3.33053E-05 5.15918E-06-1.02243E-18-5.08795E-18
 -1      3008 1.06757E-04-3.41268E-05-3.11265E-05 4.18055E-06-2.18994E-19-4.24408E-18
 -1      3009 1.06540E-04-3.48605E-05-3.07224E-05 3.39310E-06 8.99468E-20-4.15196E-18
 -1      3010 1.08760E-04-3.44523E-05-3.18330E-05 4.07328E-06-3.06832E-19-4.52303E-18
 -1      3011 1.05597E-04-3.50081E-05-3.02675E-05 2.23109E-06 3.17485E-19-3.97528E-18
 -1      3012 1.05000E-04-3.49843E-05-2.99882E-05 1.30904E-06 6.76062E-19-3.61204E-18
 -1      3013 1.07488E-04-3.59099E-05-3.06757E-05 1.87533E-06 3.06283E-19-4.21998E-18
 -1      3014 1.03765E-04-3.45215E-05-2.96928E-05 3.26254E-07 7.56286E-19-3.29426E-18
 -1      3015 1.02983E-04-3.40504E-05-2.95161E-05-4.58638E-07 7.82353E-19-2.97263E-18
 -1      3016 1.05254E-04-3.55604E-05-2.98855E-05-2.57178E-07 8.99444E-19-3.50812E-18
 -1      3017 1.01761E-04-3.33269E-05-2.93412E-05-1.11552E-06 5.44770E-19-2.71524E-18
 -1      3018 1.00969E-04-3.26899E-05-2.92367E-05-1.66440E-06 6.65047E-19-2.36503E-18
 -1      3019 1.02765E-04-3.42315E-05-2.93970E-05-1.80605E-06 8.10234E-19-3.10665E-18
 -1      3020 9.99319E-05-3.19512E-05-2.91414E-05-2.00965E-06 1.57320E-19-2.02436E-18
 -1      3021 9.92375E-05-3.13328E-05-2.90814E-05-2.32598E-06-1.30202E-19-2.12424E-18
 -1      3022 1.00498E-04-3.26083E-05-2.91217E-05-2.69269E-06 5.34242E-19-2.42031E-18
 -1      3023 9.84446E-05-3.07077E-05-2.90323E-05-2.43684E-06-1.44280E-19-1.95610E-18
 -1      3024 9.78900E-05-3.01979E-05-2.89962E-05-2.56747E-06 2.95174E-19-1.91141E-18
 -1      3025 9.86770E-05-3.11103E-05-2.89790E-05-3.04129E-06 9.59397E-20-1.87066E-18
 -1      3026 9.73283E-05-2.97286E-05-2.89707E-05-2.52608E-06 2.20778E-19-2.23266E-18
 -1      3027 9.69133E-05-2.93520E-05-2.89453E-05-2.52617E-06 5.26042E-20-2.11811E-18
 -1      3028 9.73367E-05-2.99210E-05-2.89091E-05-3.02575E-06 1.87756E-19-1.82635E-18
 -1      3029 9.65407E-05-2.90328E-05-2.89298E-05-2.39768E-06-5.38843E-20-2.24049E-18
 -1      3030 9.62446E-05-2.87794E-05-2.89081E-05-2.31592E-06-1.86403E-19-1.95696E-18
 -1      3031 9.64168E-05-2.90727E-05-2.88736E-05-2.79418E-06 1.59502E-20-2.55666E-18
 -1      3032 9.60130E-05-2.85837E-05-2.88954E-05-2.14628E-06-2.59929E-19-1.93744E-18
 -1      3033 9.58094E-05-2.84292E-05-2.88745E-05-2.02042E-06-1.15810E-19-1.78124E-18
 -1      3034 9.58246E-05-2.85249E-05-2.88507E-05-2.45375E-06-1.89701E-19-1.77252E-18
 -1      3035 9.56758E-05-2.83252E-05-2.88615E-05-1.83963E-06-3.87310E-19-1.58994E-18
 -1      3036 9.55396E-05-2.82433E-05-2.88404E-05-1.69649E-06-5.00276E-19-1.44739E-18
 -1      3037 9.54684E-05-2.82111E-05-2.88296E-05-2.07542E-06-1.86250E-19-2.00368E-18
 -1      3038 9.54702E-05-2.82018E-05-2.88264E-05-1.52277E-06-5.42619E-19-1.17344E-18
 -1      3039 9.53812E-05-2.81689E-05-2.88055E-05-1.38000E-06-5.67504E-19-1.03321E-18
 -1      3040 9.52717E-05-2.80639E-05-2.88065E-05-1.70294E-06-3.61824E-19-1.45399E-18
 -1      3041 9.53512E-05-2.81667E-05-2.87906E-05-1.22330E-06-5.93269E-19-9.94357E-19
 -1      3042 9.52939E-05-2.81643E-05-2.87706E-05-1.09147E-06-4.31217E-19-1.21181E-18
 -1      3043 9.51764E-05-2.80260E-05-2.87806E-05-1.36104E-06-5.76640E-19-1.18224E-18
 -1      3044 9.52864E-05-2.81843E-05-2.87557E-05-9.56299E-07 3.58264E-20-8.75815E-19
 -1      3045 9.52501E-05-2.81991E-05-2.87371E-05-8.40857E-07 5.98343E-19-6.23404E-19
 -1      3046 9.51416E-05-2.80535E-05-2.87531E-05-1.06180E-06 1.34459E-19-1.03108E-18
 -1      3047 9.52541E-05-2.82295E-05-2.87228E-05-7.28221E-07 4.76741E-19-4.53148E-19
 -1      3048 9.52313E-05-2.82524E-05-2.87063E-05-6.31136E-07 5.89956E-19-6.80046E-19
 -1      3049 9.51399E-05-2.81152E-05-2.87254E-05-8.09128E-07 4.57013E-19-4.72634E-19
 -1      3050 9.52402E-05-2.82857E-05-2.86931E-05-5.39961E-07 8.77658E-19-6.12541E-19
 -1      3051 9.52258E-05-2.83109E-05-2.86788E-05-4.60987E-07 1.55498E-18-3.70946E-19
 -1      3052 9.51540E-05-2.81904E-05-2.86990E-05-6.01973E-07 6.64714E-19-4.48320E-19
 -1      3053 9.52358E-05-2.83428E-05-2.86670E-05-3.89065E-07 1.77932E-18-3.96546E-19
 -1      3054 9.52268E-05-2.83669E-05-2.86550E-05-3.26670E-07 1.62764E-18-3.04328E-19
 -1      3055 9.51736E-05-2.82663E-05-2.86748E-05-4.36447E-07 1.72436E-18-5.11721E-19
 -1      3056 9.52359E-05-2.83952E-05-2.86449E-05-2.71292E-07 9.76429E-19-3.41209E-19
 -1      3057 9.52302E-05-2.84165E-05-2.86351E-05-2.23316E-07 4.03725E-19-5.18023E-19
 -1      3058 9.51932E-05-2.83357E-05-2.86533E-05-3.07285E-07 1.18500E-18-9.01252E-19
 -1      3059 9.52376E-05-2.84401E-05-2.86266E-05-1.81688E-07 1.56169E-19-1.04911E-18
 -1      3060 9.52339E-05-2.84580E-05-2.86188E-05-1.45769E-07-6.05891E-19-8.11678E-19
 -1      3061 9.52101E-05-2.83954E-05-2.86349E-05-2.08789E-07 1.59632E-19-1.45667E-18
 -1      3062 9.52395E-05-2.84770E-05-2.86119E-05-1.15249E-07-7.77130E-19-7.91971E-19
 -1      3063 9.52372E-05-2.84914E-05-2.86057E-05-8.90953E-08-3.24633E-19-2.76496E-19
 -1      3064 9.52234E-05-2.84444E-05-2.86196E-05-1.35419E-07-3.77413E-19-9.50903E-19
 -1      3065 9.52410E-05-2.85060E-05-2.86002E-05-6.73290E-08 2.76202E-20-6.60958E-19
 -1      3066 9.52395E-05-2.85172E-05-2.85955E-05-4.88634E-08-7.96039E-20-1.42752E-19
 -1      3067 9.52331E-05-2.84832E-05-2.86071E-05-8.21165E-08-3.77740E-19-7.71011E-19
 -1      3068 9.52420E-05-2.85282E-05-2.85912E-05-3.38333E-08-5.57005E-19 1.10400E-19
 -1      3069 9.52410E-05-2.85367E-05-2.85877E-05-2.12661E-08-2.65256E-19-1.00875E-19
 -1      3070 9.52396E-05-2.85129E-05-2.85972E-05-4.44752E-08-3.04308E-19-4.50813E-19
 -1      3071 9.52424E-05-2.85446E-05-2.85845E-05-1.13007E-08-7.93206E-20 9.57558E-20
 -1      3072 9.52417E-05-2.85508E-05-2.85819E-05-3.14384E-09-5.38553E-20 5.46898E-19
 -1      3073 9.52436E-05-2.85349E-05-2.85895E-05-1.87826E-08-7.31640E-20 6.74716E-19
 -1      3074 9.52423E-05-2.85564E-05-2.85795E-05 3.10477E-09-8.24803E-19 5.06452E-19
 -1      3075 9.52419E-05-2.85607E-05-2.85777E-05 8.05057E-09-4.10496E-19 6.65645E-19
 -1      3076 9.52457E-05-2.85507E-05-2.85836E-05-2.00057E-09-3.01563E-19 5.91546E-19
 -1      3077 9.52420E-05-2.85645E-05-2.85759E-05 1.16432E-08-5.51408E-19 8.40820E-19
 -1      3078 9.52417E-05-2.85674E-05-2.85747E-05 1.43192E-08-8.51946E-19 5.11129E-19
 -1      3079 9.52464E-05-2.85616E-05-2.85793E-05 8.29672E-09-4.89641E-19 6.13264E-19
 -1      3080 9.52414E-05-2.85698E-05-2.85735E-05 1.60719E-08-4.47581E-19 7.48364E-19
 -1      3081 9.52413E-05-2.85718E-05-2.85727E-05 1.71985E-08 3.13902E-19 1.10099E-18
 -1      3082 9.52463E-05-2.85689E-05-2.85761E-05 1.40020E-08-4.33305E-19 1.11044E-18
 -1      3083 9.52408E-05-2.85732E-05-2.85718E-05 1.77249E-08 1.16789E-19 6.37035E-19
 -1      3084 9.52408E-05-2.85743E-05-2.85713E-05 1.78403E-08-1.41669E-18 6.54645E-19
 -1      3085 9.52456E-05-2.85735E-05-2.85738E-05 1.65601E-08-5.23427E-19 1.90835E-18
 -1      3086 9.52402E-05-2.85750E-05-2.85708E-05 1.75912E-08-1.69303E-18 4.89884E-19
 -1      3087 9.52402E-05-2.85757E-05-2.85705E-05 1.70871E-08-1.10579E-18 6.71281E-19
 -1      3088 9.52447E-05-2.85761E-05-2.85723E-05 1.70494E-08-1.15857E-18 2.27892E-18
 -1      3089 9.52396E-05-2.85759E-05-2.85702E-05 1.63853E-08-1.28722E-18 8.28495E-19
 -1      3090 9.52397E-05-2.85762E-05-2.85700E-05 1.55391E-08-7.54197E-19 3.21460E-19
 -1      3091 9.52436E-05-2.85773E-05-2.85713E-05 1.62561E-08-1.09109E-18 1.86631E-18
 -1      3092 9.52391E-05-2.85761E-05-2.85699E-05 1.46089E-08-5.09438E-19-4.57660E-19
 -1      3093 9.52392E-05-2.85762E-05-2.85698E-05 1.36104E-08-7.72983E-20-1.88121E-19
 -1      3094 9.52425E-05-2.85777E-05-2.85707E-05 1.47385E-08-9.92485E-19 3.93951E-19
 -1      3095 9.52387E-05-2.85759E-05-2.85698E-05 1.26020E-08-1.10779E-19-6.96928E-19
 -1      3096 9.52387E-05-2.85758E-05-2.85698E-05 1.15757E-08-8.13909E-19-1.01062E-18
 -1      3097 9.52415E-05-2.85775E-05-2.85703E-05 1.28806E-08-4.88650E-19 1.03626E-19
 -1      3098 9.52383E-05-2.85755E-05-2.85698E-05 1.05848E-08-7.96530E-19-6.44934E-19
 -1      3099 9.52384E-05-2.85753E-05-2.85699E-05 9.60771E-09 3.72205E-19-7.27459E-19
 -1      3100 9.52406E-05-2.85769E-05-2.85702E-05 1.09364E-08-2.60547E-19-1.31227E-20
 -1      3101 9.52380E-05-2.85750E-05-2.85699E-05 8.69094E-09 1.95802E-18 1.09354E-19
 -1      3102 9.52381E-05-2.85747E-05-2.85700E-05 7.80616E-09 2.40827E-18-2.19291E-19
 -1      3103 9.52399E-05-2.85762E-05-2.85701E-05 9.06457E-09 1.38579E-18 8.82532E-19
 -1      3104 9.52378E-05-2.85744E-05-2.85700E-05 6.99283E-09 1.42549E-18 4.74559E-20
 -1      3105 9.52378E-05-2.85742E-05-2.85701E-05 6.22032E-09 6.19474E-19-7.23195E-21
 -1      3106 9.52392E-05-2.85755E-05-2.85702E-05 7.35636E-09 1.71076E-18 4.02250E-19
 -1      3107 9.52376E-05-2.85739E-05-2.85702E-05 5.52129E-09 1.06616E-18-4.05988E-19
 -1      3108 9.52376E-05-2.85736E-05-2.85703E-05 4.86564E-09 1.58041E-18 3.33700E-19
 -1      3109 9.52387E-05-2.85748E-05-2.85703E-05 5.85600E-09 8.71525E-19 5.48500E-19
 -1      3110 9.52374E-05-2.85733E-05-2.85703E-05 4.28002E-09 2.15514E-18-8.59416E-19
 -1      3111 9.52375E-05-2.85731E-05-2.85704E-05 3.73627E-09 2.85644E-18-6.63988E-19
 -1      3112 9.52383E-05-2.85741E-05-2.85704E-05 4.57658E-09 1.63339E-18 3.76263E-19
 -1      3113 9.52373E-05-2.85729E-05-2.85705E-05 3.25601E-09 2.68641E-18-1.34977E-18
 -1      3114 9.52374E-05-2.85727E-05-2.85706E-05 2.81370E-09 1.35612E-18-2.27672E-18
 -1      3115 9.52380E-05-2.85735E-05-2.85705E-05 3.51156E-09 1.90945E-18-2.04102E-18
 -1      3116 9.52373E-05-2.85725E-05-2.85706E-05 2.42753E-09 2.22386E-20-1.63019E-18
 -1      3117 9.52373E-05-2.85724E-05-2.85707E-05 2.07325E-09-5.09825E-19-7.19214E-19
 -1      3118 9.52377E-05-2.85730E-05-2.85706E-05 2.64367E-09 1.63340E-18-2.70397E-18
 -1      3119 9.52372E-05-2.85722E-05-2.85707E-05 1.80324E-09-1.20917E-18 5.00966E-20
 -1      3120 9.52373E-05-2.85721E-05-2.85708E-05 1.51961E-09-1.71924E-18 3.38702E-20
 -1      3121 9.52374E-05-2.85723E-05-2.85708E-05 1.48919E-09-1.49388E-18 3.14939E-19
 -1      3122 9.52375E-05-2.85726E-05-2.85707E-05 1.98577E-09-3.42587E-19-1.03587E-18
 -1      3123 9.52384E-05-2.85733E-05-2.85708E-05 6.07641E-10 2.16730E-18 1.12008E-19
 -1      3124 9.52385E-05-2.85733E-05-2.85708E-05 3.93794E-10 1.98370E-18 5.18104E-19
 -1      3125 9.20141E-05-2.35717E-05-2.93671E-05 8.84615E-06-1.14897E-19-8.98205E-19
 -1      3126 9.18077E-05-2.32524E-05-2.93554E-05 1.00313E-05-2.10841E-19-6.34415E-19
 -1      3127 8.82535E-05-2.12601E-05-2.86725E-05 1.00171E-05-3.28708E-19-1.23997E-18
 -1      3128 9.31298E-05-2.45749E-05-2.94073E-05 6.87055E-06 3.42327E-19-9.82129E-19
 -1      3129 9.29333E-05-2.41754E-05-2.94514E-05 7.83589E-06 1.43800E-19-9.76252E-19
 -1      3130 9.03189E-05-2.25559E-05-2.90101E-05 7.81690E-06 2.50818E-19-1.58479E-18
 -1      3131 9.39473E-05-2.55057E-05-2.93520E-05 5.30072E-06 1.98149E-19-6.62496E-19
 -1      3132 9.38129E-05-2.51333E-05-2.94218E-05 6.07982E-06 4.95411E-19-6.72061E-19
 -1      3133 9.19019E-05-2.38448E-05-2.91441E-05 6.12188E-06 5.53359E-20-1.40627E-18
 -1      3134 9.45012E-05-2.62784E-05-2.92530E-05 4.05303E-06 1.91622E-19-9.56494E-19
 -1      3135 9.44294E-05-2.59700E-05-2.93296E-05 4.67343E-06 4.43021E-19-7.85410E-19
 -1      3136 9.30462E-05-2.49655E-05-2.91612E-05 4.77358E-06 5.49401E-19-1.21469E-18
 -1      3137 9.48538E-05-2.68828E-05-2.91410E-05 3.06782E-06 9.13695E-19-1.50317E-18
 -1      3138 9.48283E-05-2.66424E-05-2.92139E-05 3.55513E-06 4.89366E-19-1.01402E-18
 -1      3139 9.38388E-05-2.58733E-05-2.91173E-05 3.69042E-06 5.05572E-19-1.38168E-18
 -1      3140 9.50651E-05-2.73398E-05-2.90328E-05 2.29697E-06 5.31597E-19-1.62357E-18
 -1      3141 9.50687E-05-2.71585E-05-2.90971E-05 2.67497E-06 9.46915E-19-1.34658E-18
 -1      3142 9.43694E-05-2.65782E-05-2.90466E-05 2.82258E-06 9.13591E-19-1.55527E-18
 -1      3143 9.51836E-05-2.76784E-05-2.89362E-05 1.69978E-06-2.01475E-19-1.64578E-18
 -1      3144 9.52025E-05-2.75443E-05-2.89903E-05 1.98974E-06 2.61114E-19-1.73849E-18
 -1      3145 9.47146E-05-2.71117E-05-2.89686E-05 2.13316E-06 3.84842E-19-2.08719E-18
 -1      3146 9.52438E-05-2.79269E-05-2.88541E-05 1.24145E-06 1.73917E-19-1.30405E-18
 -1      3147 9.52691E-05-2.78284E-05-2.88983E-05 1.46183E-06-3.45453E-20-1.30847E-18
 -1      3148 9.49335E-05-2.75091E-05-2.88939E-05 1.59135E-06-4.84261E-19-1.61893E-18
 -1      3149 9.52707E-05-2.81154E-05-2.87836E-05 8.78411E-07-1.50558E-19-1.01172E-18
 -1      3150 9.52972E-05-2.80409E-05-2.88202E-05 1.05039E-06 2.38468E-19-9.28551E-19
 -1      3151 9.50713E-05-2.78080E-05-2.88257E-05 1.16188E-06 2.07921E-19-1.40363E-18
 -1      3152 9.52779E-05-2.82450E-05-2.87302E-05 6.20792E-07-3.75507E-19-2.26570E-18
 -1      3153 9.53008E-05-2.81933E-05-2.87573E-05 7.42416E-07-2.98251E-19-1.42186E-18
 -1      3154 9.51535E-05-2.80272E-05-2.87680E-05 8.33184E-07-2.84643E-20-9.08851E-19
 -1      3155 9.52755E-05-2.83393E-05-2.86882E-05 4.29136E-07 4.55973E-19-2.12647E-18
 -1      3156 9.52947E-05-2.83015E-05-2.87090E-05 5.18691E-07 9.59564E-20-2.34508E-18
 -1      3157 9.51999E-05-2.81825E-05-2.87217E-05 5.91362E-07 7.66564E-20-2.15929E-18
 -1      3158 9.52693E-05-2.84079E-05-2.86557E-05 2.88448E-07 1.06876E-18-1.99212E-18
 -1      3159 9.52844E-05-2.83802E-05-2.86714E-05 3.53618E-07 9.50571E-19-2.29234E-18
 -1      3160 9.52258E-05-2.82960E-05-2.86843E-05 4.10260E-07 7.29341E-19-2.15942E-18
 -1      3161 9.52620E-05-2.84577E-05-2.86310E-05 1.86658E-07 8.53224E-19-1.50007E-18
 -1      3162 9.52736E-05-2.84374E-05-2.86427E-05 2.33401E-07 1.06700E-18-1.37866E-18
 -1      3163 9.52395E-05-2.83787E-05-2.86549E-05 2.76525E-07 5.39432E-19-1.74360E-18
 -1      3164 9.52553E-05-2.84938E-05-2.86125E-05 1.14271E-07-4.17146E-19-2.13811E-18
 -1      3165 9.52637E-05-2.84789E-05-2.86211E-05 1.47208E-07 1.59476E-19-1.82739E-18
 -1      3166 9.52461E-05-2.84388E-05-2.86319E-05 1.79305E-07 4.74013E-19-1.14687E-18
 -1      3167 9.52497E-05-2.85197E-05-2.85988E-05 6.38751E-08-6.21424E-19-2.61114E-18
 -1      3168 9.52556E-05-2.85089E-05-2.86050E-05 8.65730E-08-5.20706E-19-3.09324E-18
 -1      3169 9.52485E-05-2.84821E-05-2.86144E-05 1.09913E-07-6.44256E-21-1.92677E-18
 -1      3170 9.52452E-05-2.85382E-05-2.85889E-05 2.97304E-08-3.99736E-19-2.85179E-18
 -1      3171 9.52492E-05-2.85304E-05-2.85932E-05 4.49223E-08-3.42832E-19-2.88298E-18
 -1      3172 9.52488E-05-2.85132E-05-2.86012E-05 6.14680E-08-2.30339E-19-2.81256E-18
 -1      3173 9.52420E-05-2.85512E-05-2.85818E-05 7.42514E-09-1.24307E-19-2.92135E-18
 -1      3174 9.52445E-05-2.85456E-05-2.85848E-05 1.71927E-08-1.70297E-19-2.81330E-18
 -1      3175 9.52479E-05-2.85352E-05-2.85914E-05 2.85787E-08-5.56129E-19-2.76412E-18
 -1      3176 9.52396E-05-2.85602E-05-2.85769E-05-6.40001E-09 1.00658E-18-2.43870E-18
 -1      3177 9.52411E-05-2.85563E-05-2.85789E-05-4.84789E-10-2.88611E-20-3.00462E-18
 -1      3178 9.52466E-05-2.85505E-05-2.85842E-05 7.06474E-09 1.07595E-19-3.12831E-18
 -1      3179 9.52381E-05-2.85663E-05-2.85736E-05-1.42771E-08 3.80569E-19-9.33371E-19
 -1      3180 9.52388E-05-2.85636E-05-2.85749E-05-1.10384E-08 1.18133E-18-1.00693E-18
 -1      3181 9.52452E-05-2.85609E-05-2.85791E-05-6.27965E-09 1.23424E-19-1.89137E-18
 -1      3182 9.52371E-05-2.85702E-05-2.85715E-05-1.80913E-08-6.46532E-20-1.12773E-18
 -1      3183 9.52373E-05-2.85684E-05-2.85723E-05-1.66601E-08 3.98018E-19-1.09070E-18
 -1      3184 9.52438E-05-2.85677E-05-2.85755E-05-1.38830E-08 2.34738E-19-2.07519E-18
 -1      3185 9.52365E-05-2.85726E-05-2.85702E-05-1.92263E-08 5.60171E-19-1.56431E-18
 -1      3186 9.52364E-05-2.85715E-05-2.85706E-05-1.89695E-08 4.78889E-19-9.83166E-19
 -1      3187 9.52425E-05-2.85720E-05-2.85731E-05-1.75600E-08 1.98037E-19-1.57123E-18
 -1      3188 9.52362E-05-2.85740E-05-2.85695E-05-1.86830E-08-1.88372E-19-9.07558E-19
 -1      3189 9.52359E-05-2.85733E-05-2.85697E-05-1.91438E-08 2.16673E-20-6.99194E-19
 -1      3190 9.52414E-05-2.85746E-05-2.85715E-05-1.86462E-08-5.48598E-20-5.26112E-19
 -1      3191 9.52361E-05-2.85747E-05-2.85692E-05-1.70693E-08-7.78462E-19 1.05599E-18
 -1      3192 9.52357E-05-2.85743E-05-2.85692E-05-1.79866E-08-4.44888E-19 3.71896E-20
 -1      3193 9.52405E-05-2.85759E-05-2.85706E-05-1.80707E-08-1.03423E-18-8.70899E-19
 -1      3194 9.52361E-05-2.85748E-05-2.85691E-05-1.50393E-08-3.07531E-19 1.23614E-20
 -1      3195 9.52357E-05-2.85747E-05-2.85690E-05-1.60998E-08-4.03901E-19 7.13576E-19
 -1      3196 9.52397E-05-2.85764E-05-2.85700E-05-1.65342E-08-5.10607E-19-2.51369E-19
 -1      3197 9.52362E-05-2.85747E-05-2.85692E-05-1.28587E-08 7.83330E-19 1.50732E-19
 -1      3198 9.52358E-05-2.85747E-05-2.85691E-05-1.39601E-08 1.23988E-19 3.91208E-19
 -1      3199 9.52391E-05-2.85763E-05-2.85698E-05-1.45649E-08-3.12565E-19-3.28972E-19
 -1      3200 9.52363E-05-2.85744E-05-2.85694E-05-1.07248E-08-5.75545E-21 1.92776E-18
 -1      3201 9.52359E-05-2.85744E-05-2.85692E-05-1.17800E-08 9.04471E-19 1.90764E-18
 -1      3202 9.52386E-05-2.85760E-05-2.85697E-05-1.24485E-08-1.28863E-19 1.39741E-18
 -1      3203 9.52364E-05-2.85740E-05-2.85696E-05-8.75482E-09 4.75144E-19 1.77214E-18
 -1      3204 9.52361E-05-2.85741E-05-2.85695E-05-9.71517E-09 8.51046E-19 2.05728E-18
 -1      3205 9.52382E-05-2.85754E-05-2.85698E-05-1.03785E-08 4.41899E-19 1.91929E-18
 -1      3206 9.52365E-05-2.85736E-05-2.85698E-05-7.00913E-09 4.06211E-21 1.30638E-18
 -1      3207 9.52363E-05-2.85737E-05-2.85697E-05-7.85122E-09-5.03975E-19 7.39080E-19
 -1      3208 9.52379E-05-2.85749E-05-2.85699E-05-8.46875E-09 1.12353E-18 7.27167E-19
 -1      3209 9.52367E-05-2.85732E-05-2.85701E-05-5.50942E-09-1.93869E-19 8.21188E-19
 -1      3210 9.52364E-05-2.85733E-05-2.85699E-05-6.22692E-09 8.65164E-19 1.33830E-18
 -1      3211 9.52377E-05-2.85743E-05-2.85700E-05-6.77725E-09 1.32815E-19 1.06416E-18
 -1      3212 9.52368E-05-2.85728E-05-2.85703E-05-4.25268E-09-4.67152E-19-1.02609E-18
 -1      3213 9.52366E-05-2.85729E-05-2.85702E-05-4.84999E-09-6.08952E-20-3.62034E-19
 -1      3214 9.52375E-05-2.85737E-05-2.85702E-05-5.32485E-09 8.64084E-19 7.60773E-19
 -1      3215 9.52369E-05-2.85725E-05-2.85704E-05-3.22088E-09 2.14662E-19-3.33608E-18
 -1      3216 9.52367E-05-2.85726E-05-2.85703E-05-3.70844E-09-9.25557E-20-1.50105E-18
 -1      3217 9.52374E-05-2.85732E-05-2.85704E-05-4.10845E-09 3.18707E-19-8.70519E-19
 -1      3218 9.52369E-05-2.85722E-05-2.85706E-05-2.39281E-09 6.88417E-19-2.31150E-18
 -1      3219 9.52368E-05-2.85723E-05-2.85705E-05-2.77782E-09-7.01654E-19-3.19859E-18
 -1      3220 9.52373E-05-2.85728E-05-2.85705E-05-3.10845E-09-3.89286E-19-1.54790E-18
 -1      3221 9.52382E-05-2.85730E-05-2.85708E-05 1.01551E-09 2.40387E-18-8.86371E-19
 -1      3222 9.52383E-05-2.85731E-05-2.85708E-05 8.45103E-10 1.77517E-18-4.07040E-19
 -1      3223 9.52385E-05-2.85735E-05-2.85708E-05 8.28901E-10 1.73855E-18-2.01777E-19
 -1      3224 9.52385E-05-2.85734E-05-2.85708E-05 1.18648E-10 1.78969E-18-6.38737E-20
 -1      3225 9.52385E-05-2.85734E-05-2.85708E-05-1.15759E-10 1.85489E-18-1.41444E-18
 -1      3226 9.52387E-05-2.85736E-05-2.85708E-05 2.89125E-10 1.73735E-18 3.52832E-19
 -1      3227 9.52378E-05-2.85726E-05-2.85708E-05 1.27528E-09 7.08398E-19-1.34799E-18
 -1      3228 9.52380E-05-2.85728E-05-2.85708E-05 1.18175E-09 1.81245E-18-1.94457E-18
 -1      3229 9.52382E-05-2.85731E-05-2.85708E-05 1.25684E-09 1.50321E-18-1.97031E-18
 -1      3230 1.21592E-04-4.64158E-05-3.21594E-05-1.48989E-05 3.97074E-18-5.27704E-18
 -1      3231 1.25174E-04-4.40402E-05-3.50907E-05-8.07888E-06 2.78848E-18-6.36535E-18
 -1      3232 1.04082E-04-1.97993E-05-3.61040E-05-5.51835E-06-2.87590E-18-5.02607E-18
 -1      3233 1.03832E-04-2.14640E-05-3.53771E-05-1.94715E-06-2.46282E-18-4.92928E-18
 -1      3234 1.05188E-04-1.81396E-05-3.73172E-05-6.95286E-06-2.77225E-18-5.09917E-18
 -1      3235 1.21516E-04-2.69276E-05-4.07068E-05 3.42010E-06-1.58686E-18-8.12765E-18
 -1      3236 1.17477E-04-2.04222E-05-4.19120E-05 2.76668E-06-2.74846E-18-7.86227E-18
 -1      3237 9.52373E-05-2.85721E-05-2.85708E-05-1.17074E-09 3.21610E-19 5.55873E-19
 -1      3238 1.15912E-04-1.05087E-05-4.54360E-05-1.35179E-05-4.06491E-18-4.32916E-18
 -1      3239 1.13786E-04-1.16769E-05-4.39704E-05-1.38366E-05-3.30634E-18-4.60202E-18
 -1      3240 1.15212E-04-8.96165E-06-4.59721E-05-1.05097E-05-4.56593E-18-5.27217E-18
 -1      3241 4.75274E-05-8.56631E-06-1.63917E-05 1.67794E-05-1.66760E-18 3.79831E-18
 -1      3242 4.08521E-05-4.55483E-06-1.49607E-05 4.31408E-06 1.97283E-20 5.13789E-18
 -1      3243 8.05583E-05-3.04089E-05-2.11387E-05-3.56404E-05 5.58253E-18 1.21110E-18
 -1      3244 9.29887E-05-3.79002E-05-2.37032E-05-3.50831E-05 5.53954E-18-5.62827E-19
 -1      3245 1.04502E-04-2.30658E-05-3.48506E-05 6.96897E-07-2.10466E-18-4.88583E-18
 -1      3246 1.04932E-04-2.51516E-05-3.42589E-05 2.88896E-06-1.72691E-18-4.66682E-18
 -1      3247 1.07245E-04-2.61383E-05-3.47546E-05 3.63578E-06-1.63983E-18-5.23459E-18
 -1      3248 1.05480E-04-2.13014E-05-3.60542E-05-2.70394E-07-2.21952E-18-5.14903E-18
 -1      3249 5.94998E-05-1.64000E-05-1.81463E-05-2.81320E-05 3.81472E-18 3.59153E-18
 -1      3250 6.96519E-05-2.36892E-05-1.94996E-05-3.42445E-05 4.91348E-18 2.54078E-18
 -1      3251 7.90434E-05-2.74956E-05-2.17713E-05-3.18443E-05 4.85646E-18 1.10829E-18
 -1      3252 8.89156E-05-2.41331E-05-2.77538E-05 1.91062E-05-1.56392E-18-3.50691E-19
 -1      3253 9.14115E-05-2.67436E-05-2.75436E-05 2.12401E-05-2.44154E-18-7.14419E-19
 -1      3254 8.34555E-05-2.06402E-05-2.68402E-05 1.75352E-05-1.24444E-18-3.32116E-19
 -1      3255 1.04463E-04-4.28903E-05-2.60635E-05-3.06613E-05 5.61432E-18-2.18709E-18
 -1      3256 1.13939E-04-4.62723E-05-2.91453E-05-2.36597E-05 5.09220E-18-3.67424E-18
 -1      3257 1.11851E-04-4.42321E-05-2.89640E-05-2.03270E-05 4.31709E-18-3.52078E-18
 -1      3258 1.17815E-04-4.65936E-05-3.05056E-05-1.80380E-05 4.39631E-18-4.45301E-18
 -1      3259 1.18658E-04-4.48927E-05-3.16186E-05-1.18550E-05 3.63064E-18-5.07616E-18
 -1      3260 5.62304E-05-1.30618E-05-1.80416E-05-2.38374E-05 3.31542E-18 3.95321E-18
 -1      3261 6.49810E-05-1.72869E-05-2.01618E-05-2.54904E-05 3.93764E-18 2.45947E-18
 -1      3262 5.32587E-05-1.02050E-05-1.83202E-05-1.76734E-05 2.52990E-18 4.03341E-18
 -1      3263 1.23290E-04-4.13029E-05-3.52402E-05-4.02034E-06 2.07174E-18-6.57785E-18
 -1      3264 9.52375E-05-2.85724E-05-2.85708E-05 1.43378E-09-1.14604E-18-7.24632E-19
 -1      3265 9.52377E-05-2.85725E-05-2.85708E-05 1.35976E-09-2.67717E-19-8.15527E-19
 -1      3266 9.52379E-05-2.85728E-05-2.85707E-05 1.51102E-09 3.36259E-19-1.84307E-18
 -1      3267 9.52376E-05-2.85726E-05-2.85707E-05 1.66088E-09-1.29381E-18-1.29952E-18
 -1      3268 7.65876E-05-2.17461E-05-2.33539E-05 2.60562E-05-2.60960E-18 7.02879E-19
 -1      3269 8.65391E-05-2.79463E-05-2.48700E-05 2.74761E-05-2.90503E-18-1.72292E-19
 -1      3270 1.20340E-04-3.10057E-05-3.84400E-05 2.72639E-06-6.50945E-19-7.59106E-18
 -1      3271 9.52370E-05-2.85722E-05-2.85707E-05-2.07063E-09 9.49285E-19-4.52609E-19
 -1      3272 9.52374E-05-2.85725E-05-2.85706E-05-2.32697E-09-1.32600E-18-4.86155E-19
 -1      3273 9.52371E-05-2.85721E-05-2.85707E-05-1.80423E-09 2.68808E-19 1.31309E-18
 -1      3274 9.52373E-05-2.85721E-05-2.85708E-05-1.35810E-09 1.49570E-18 4.10619E-19
 -1      3275 9.52372E-05-2.85722E-05-2.85707E-05-1.58191E-09 8.77947E-19 2.17847E-19
 -1      3276 9.52375E-05-2.85725E-05-2.85707E-05-1.75728E-09 9.43374E-20 7.35144E-19
 -1      3277 9.52376E-05-2.85724E-05-2.85708E-05-1.34021E-09 8.07799E-19-3.73024E-19
 -1      3278 9.52380E-05-2.85728E-05-2.85708E-05-1.15651E-09-3.39563E-19-2.10609E-18
 -1      3279 9.52378E-05-2.85726E-05-2.85708E-05-1.24958E-09-5.56100E-20-2.13385E-19
 -1      3280 9.52378E-05-2.85727E-05-2.85708E-05-1.45889E-09 7.60135E-19-9.08853E-19
 -1      3281 1.10390E-04-1.24423E-05-4.21522E-05-1.25561E-05-3.15538E-18-5.28322E-18
 -1      3282 1.15177E-04-1.79299E-05-4.19358E-05 1.65358E-06-2.93619E-18-7.45741E-18
 -1      3283 1.12080E-04-1.54709E-05-4.15748E-05-2.75381E-07-3.31391E-18-6.87395E-18
 -1      3284 1.14680E-04-2.25720E-05-3.95957E-05 3.00026E-06-2.16041E-18-7.44447E-18
 -1      3285 1.12871E-04-1.07653E-05-4.39703E-05-7.37707E-06-3.92452E-18-5.67089E-18
 -1      3286 5.47009E-05-1.18702E-05-1.77342E-05 2.21155E-05-2.29922E-18 3.26245E-18
 -1      3287 5.43949E-05-9.63302E-06-1.87749E-05 1.52580E-05-1.65239E-18 3.00104E-18
 -1      3288 6.39620E-05-1.69109E-05-1.98360E-05 2.55491E-05-2.87189E-18 2.29440E-18
 -1      3289 9.93920E-05-3.94292E-05-2.54925E-05-2.97087E-05 5.26587E-18-1.72775E-18
 -1      3290 9.52387E-05-2.85736E-05-2.85708E-05-2.90020E-10 1.38239E-18-3.72195E-19
 -1      3291 9.52385E-05-2.85733E-05-2.85708E-05-3.90816E-10 1.41228E-18-1.85665E-21
 -1      3292 9.52384E-05-2.85733E-05-2.85708E-05-6.09039E-10 8.92592E-19 1.21995E-18
 -1      3293 4.69354E-05-6.10204E-06-1.69651E-05-1.62197E-06 4.78878E-19 4.80554E-18
 -1      3294 9.03703E-05-3.22959E-05-2.44118E-05 3.04596E-05-2.76212E-18-6.77679E-19
 -1      3295 9.52383E-05-2.85731E-05-2.85708E-05-8.32081E-10 1.14137E-19 6.09875E-19
 -1      3296 9.52382E-05-2.85730E-05-2.85708E-05-1.00182E-09 3.02518E-19-1.62989E-18
 -1      3297 9.52382E-05-2.85731E-05-2.85708E-05-1.21194E-09 1.39182E-19-1.26452E-18
 -1      3298 9.52385E-05-2.85734E-05-2.85708E-05-8.14372E-10 1.00024E-18 1.20290E-18
 -1      3299 9.52383E-05-2.85733E-05-2.85707E-05 1.53511E-09 1.09700E-18-3.18384E-18
 -1      3300 9.52385E-05-2.85735E-05-2.85707E-05 1.35635E-09 2.04484E-18-2.69372E-18
 -1      3301 1.10910E-04-3.53382E-05-3.23953E-05 3.28028E-06-1.21978E-19-4.88404E-18
 -1      3302 1.10649E-04-3.66363E-05-3.17218E-05 2.39052E-06 2.43890E-19-4.67370E-18
 -1      3303 1.09301E-04-3.70960E-05-3.09629E-05 8.23123E-07 4.58883E-19-4.01186E-18
 -1      3304 1.08343E-04-3.71993E-05-3.04585E-05-2.81435E-07 1.08923E-18-3.66759E-18
 -1      3305 1.11416E-04-3.79600E-05-3.14891E-05 2.86714E-07 7.89292E-19-4.47457E-18
 -1      3306 1.06535E-04-3.66401E-05-2.99761E-05-1.46441E-06 9.53282E-19-3.38680E-18
 -1      3307 1.05291E-04-3.59957E-05-2.96562E-05-2.31855E-06 9.08525E-19-3.40404E-18
 -1      3308 1.08147E-04-3.77932E-05-3.01916E-05-2.51707E-06 1.05641E-18-3.47327E-18
 -1      3309 1.03525E-04-3.49982E-05-2.93801E-05-2.96648E-06 9.03117E-19-3.40446E-18
 -1      3310 1.02288E-04-3.40777E-05-2.91963E-05-3.47215E-06 1.04331E-18-3.22883E-18
 -1      3311 1.04526E-04-3.59845E-05-2.94204E-05-4.18974E-06 1.03018E-18-3.27786E-18
 -1      3312 1.00843E-04-3.30484E-05-2.90567E-05-3.67497E-06 9.13674E-19-2.82690E-18
 -1      3313 9.97935E-05-3.21539E-05-2.89609E-05-3.88417E-06 5.88515E-19-2.71266E-18
 -1      3314 1.01304E-04-3.37136E-05-2.90094E-05-4.83007E-06 1.16549E-18-3.14288E-18
 -1      3315 9.87353E-05-3.12910E-05-2.89005E-05-3.80826E-06 3.42190E-19-2.28700E-18
 -1      3316 9.79327E-05-3.05621E-05-2.88549E-05-3.81351E-06 2.92734E-19-2.05383E-18
 -1      3317 9.88232E-05-3.16551E-05-2.88198E-05-4.76836E-06 6.50965E-19-2.56223E-18
 -1      3318 9.72191E-05-2.99224E-05-2.88350E-05-3.59373E-06 2.69895E-20-2.16347E-18
 -1      3319 9.66509E-05-2.93920E-05-2.88144E-05-3.47681E-06 8.62468E-20-2.07361E-18
 -1      3320 9.70817E-05-3.00559E-05-2.87498E-05-4.33437E-06 2.14278E-19-2.32741E-18
 -1      3321 9.62075E-05-2.89638E-05-2.88120E-05-3.19989E-06-1.52889E-20-2.17780E-18
 -1      3322 9.58308E-05-2.86140E-05-2.88016E-05-3.02072E-06 3.92435E-21-2.14680E-18
 -1      3323 9.59524E-05-2.89395E-05-2.87363E-05-3.74262E-06-1.95630E-20-2.07893E-18
 -1      3324 9.55809E-05-2.83574E-05-2.88040E-05-2.73718E-06-1.59553E-19-1.96682E-18
 -1      3325 9.53469E-05-2.81512E-05-2.87960E-05-2.53515E-06 3.51919E-20-1.81638E-18
 -1      3326 9.52811E-05-2.82376E-05-2.87434E-05-3.12136E-06 2.87494E-19-1.88577E-18
 -1      3327 9.52267E-05-2.80211E-05-2.87972E-05-2.27121E-06-2.38824E-19-2.20893E-18
 -1      3328 9.50919E-05-2.79189E-05-2.87883E-05-2.07056E-06-2.35742E-19-2.13041E-18
 -1      3329 9.49267E-05-2.78519E-05-2.87526E-05-2.53707E-06-2.62536E-19-2.34640E-18
 -1      3330 9.50525E-05-2.78747E-05-2.87863E-05-1.83810E-06-1.23912E-19-1.99164E-18
 -1      3331 9.49825E-05-2.78421E-05-2.87755E-05-1.65260E-06-1.77218E-19-1.86263E-18
 -1      3332 9.47778E-05-2.76883E-05-2.87560E-05-2.01981E-06 1.98687E-19-2.50486E-18
 -1      3333 9.49895E-05-2.78515E-05-2.87700E-05-1.45520E-06-2.94806E-19-1.38518E-18
 -1      3334 9.49593E-05-2.78615E-05-2.87578E-05-1.29166E-06-3.55739E-19-1.24809E-18
 -1      3335 9.47521E-05-2.76685E-05-2.87517E-05-1.57906E-06 1.74742E-19-1.75786E-18
 -1      3336 9.49896E-05-2.79007E-05-2.87497E-05-1.12850E-06 1.13258E-19-1.00407E-18
 -1      3337 9.49821E-05-2.79340E-05-2.87366E-05-9.89352E-07 8.12780E-19-9.83036E-19
 -1      3338 9.47934E-05-2.77334E-05-2.87406E-05-1.21348E-06 7.32423E-20-1.10041E-18
 -1      3339 9.50211E-05-2.79866E-05-2.87270E-05-8.57436E-07 5.48526E-19-4.99294E-19
 -1      3340 9.50254E-05-2.80300E-05-2.87139E-05-7.42409E-07 5.25627E-19-5.21630E-19
 -1      3341 9.48649E-05-2.78411E-05-2.87245E-05-9.16589E-07 1.04542E-18-2.31744E-19
 -1      3342 9.50647E-05-2.80857E-05-2.87036E-05-6.37807E-07 6.35231E-19-3.77268E-19
 -1      3343 9.50739E-05-2.81309E-05-2.86913E-05-5.45064E-07 8.70451E-19-1.45649E-19
 -1      3344 9.49444E-05-2.79639E-05-2.87057E-05-6.79851E-07 7.53441E-19-1.02808E-19
 -1      3345 9.51091E-05-2.81834E-05-2.86811E-05-4.63618E-07 9.49663E-19-3.09014E-19
 -1      3346 9.51194E-05-2.82258E-05-2.86699E-05-3.90530E-07 1.62383E-18-6.04009E-19
 -1      3347 9.50194E-05-2.80848E-05-2.86860E-05-4.94230E-07 8.68329E-19-5.97259E-19
 -1      3348 9.51486E-05-2.82719E-05-2.86604E-05-3.28243E-07 1.46319E-18-1.24464E-18
 -1      3349 9.51580E-05-2.83089E-05-2.86506E-05-2.71892E-07 7.09707E-19-1.19421E-18
 -1      3350 9.50841E-05-2.81943E-05-2.86667E-05-3.51064E-07 9.29641E-19-1.22163E-18
 -1      3351 9.51809E-05-2.83476E-05-2.86421E-05-2.25133E-07 2.47918E-19-1.32627E-18
 -1      3352 9.51886E-05-2.83784E-05-2.86337E-05-1.82631E-07-3.04771E-20-1.44552E-18
 -1      3353 9.51363E-05-2.82881E-05-2.86490E-05-2.42487E-07 2.99822E-19-1.74491E-18
 -1      3354 9.52057E-05-2.84096E-05-2.86263E-05-1.48221E-07-3.38554E-19-1.21091E-18
 -1      3355 9.52115E-05-2.84343E-05-2.86194E-05-1.16898E-07-5.12737E-19-1.13192E-18
 -1      3356 9.51764E-05-2.83652E-05-2.86331E-05-1.61605E-07 9.37384E-20-1.16796E-18
 -1      3357 9.52237E-05-2.84585E-05-2.86132E-05-9.21354E-08-9.57183E-19-9.58883E-19
 -1      3358 9.52277E-05-2.84777E-05-2.86076E-05-6.96290E-08-4.27588E-19-8.57845E-19
 -1      3359 9.52057E-05-2.84264E-05-2.86195E-05-1.02536E-07-1.07452E-18-1.27453E-18
 -1      3360 9.52360E-05-2.84960E-05-2.86025E-05-5.22699E-08-4.29244E-20-6.08628E-19
 -1      3361 9.52385E-05-2.85105E-05-2.85980E-05-3.65702E-08 2.85579E-19-3.12287E-19
 -1      3362 9.52261E-05-2.84735E-05-2.86082E-05-6.03634E-08 6.11071E-21-3.51351E-19
 -1      3363 9.52437E-05-2.85239E-05-2.85939E-05-2.47887E-08-2.69639E-19-1.76191E-19
 -1      3364 9.52452E-05-2.85345E-05-2.85905E-05-1.42307E-08-1.78669E-19-1.67207E-19
 -1      3365 9.52395E-05-2.85087E-05-2.85989E-05-3.10628E-08 9.75519E-20-8.81562E-19
 -1      3366 9.52481E-05-2.85440E-05-2.85873E-05-6.56931E-09-5.12066E-20-4.57388E-19
 -1      3367 9.52488E-05-2.85515E-05-2.85847E-05 1.91684E-10 4.04611E-20-8.02228E-20
 -1      3368 9.52477E-05-2.85343E-05-2.85914E-05-1.13930E-08-9.52377E-20-1.47121E-18
 -1      3369 9.52502E-05-2.85580E-05-2.85822E-05 4.87596E-09-6.09244E-19-8.85074E-20
 -1      3370 9.52503E-05-2.85631E-05-2.85803E-05 8.90160E-09-5.42963E-19 1.25289E-19
 -1      3371 9.52520E-05-2.85522E-05-2.85856E-05 1.21128E-09-2.03773E-19-1.27744E-18
 -1      3372 9.52506E-05-2.85674E-05-2.85784E-05 1.14888E-08-2.19554E-19 1.60037E-19
 -1      3373 9.52503E-05-2.85707E-05-2.85770E-05 1.35994E-08-4.00897E-19 9.65527E-19
 -1      3374 9.52537E-05-2.85643E-05-2.85812E-05 8.74675E-09 1.55730E-19 7.32087E-21
 -1      3375 9.52500E-05-2.85733E-05-2.85757E-05 1.47550E-08-9.56925E-19 8.56332E-19
 -1      3376 9.52495E-05-2.85753E-05-2.85747E-05 1.55711E-08-1.24583E-18 2.09411E-19
 -1      3377 9.52537E-05-2.85721E-05-2.85778E-05 1.27410E-08-1.01741E-18-5.01890E-19
 -1      3378 9.52488E-05-2.85767E-05-2.85737E-05 1.57882E-08-5.57688E-19 1.06952E-18
 -1      3379 9.52482E-05-2.85778E-05-2.85730E-05 1.57688E-08-6.57323E-19 1.44788E-18
 -1      3380 9.52526E-05-2.85768E-05-2.85754E-05 1.43419E-08-4.65086E-19-5.17939E-19
 -1      3381 9.52473E-05-2.85784E-05-2.85723E-05 1.54055E-08-1.32262E-18 1.97905E-18
 -1      3382 9.52467E-05-2.85789E-05-2.85719E-05 1.48821E-08-1.24505E-18 1.35951E-18
 -1      3383 9.52510E-05-2.85792E-05-2.85736E-05 1.43951E-08-7.58859E-19 9.35108E-19
 -1      3384 9.52457E-05-2.85790E-05-2.85714E-05 1.41915E-08-1.08896E-18 1.60775E-18
 -1      3385 9.52452E-05-2.85790E-05-2.85712E-05 1.33971E-08-6.97077E-19 1.82677E-18
 -1      3386 9.52491E-05-2.85802E-05-2.85724E-05 1.35102E-08-1.19288E-18 1.80593E-18
 -1      3387 9.52442E-05-2.85788E-05-2.85709E-05 1.25531E-08-1.40943E-18 1.59855E-18
 -1      3388 9.52437E-05-2.85786E-05-2.85707E-05 1.16458E-08-9.28756E-19 7.77191E-19
 -1      3389 9.52471E-05-2.85802E-05-2.85716E-05 1.21153E-08-1.45624E-18 2.01392E-18
 -1      3390 9.52429E-05-2.85782E-05-2.85706E-05 1.07631E-08 1.24711E-19 2.41501E-19
 -1      3391 9.52424E-05-2.85779E-05-2.85705E-05 9.84578E-09 1.04008E-19 7.83018E-19
 -1      3392 9.52453E-05-2.85796E-05-2.85711E-05 1.05013E-08-1.20700E-18 1.33961E-18
 -1      3393 9.52417E-05-2.85774E-05-2.85704E-05 8.99617E-09 8.81985E-19 5.62135E-19
 -1      3394 9.52413E-05-2.85770E-05-2.85704E-05 8.13147E-09 1.90418E-18 1.21873E-18
 -1      3395 9.52437E-05-2.85787E-05-2.85707E-05 8.85816E-09 5.25265E-19 6.74408E-19
 -1      3396 9.52407E-05-2.85765E-05-2.85703E-05 7.35615E-09 1.83641E-18 4.18351E-19
 -1      3397 9.52404E-05-2.85761E-05-2.85704E-05 6.57847E-09 1.62141E-18 4.07125E-19
 -1      3398 9.52423E-05-2.85777E-05-2.85706E-05 7.30226E-09 1.73340E-18 5.22017E-19
 -1      3399 9.52398E-05-2.85756E-05-2.85704E-05 5.89754E-09 4.70966E-19-3.14803E-19
 -1      3400 9.52396E-05-2.85752E-05-2.85704E-05 5.22197E-09 3.03210E-19 2.92282E-20
 -1      3401 9.52411E-05-2.85766E-05-2.85705E-05 5.89836E-09 7.12946E-19-6.67980E-19
 -1      3402 9.52391E-05-2.85748E-05-2.85704E-05 4.64134E-09 8.04097E-19-3.57299E-19
 -1      3403 9.52389E-05-2.85745E-05-2.85705E-05 4.07022E-09 1.48220E-18-9.39357E-19
 -1      3404 9.52402E-05-2.85757E-05-2.85705E-05 4.67587E-09 3.25622E-19-2.53962E-18
 -1      3405 9.52386E-05-2.85741E-05-2.85705E-05 3.58739E-09 8.95966E-19-1.28274E-18
 -1      3406 9.52385E-05-2.85738E-05-2.85706E-05 3.11587E-09 1.45590E-18-2.29448E-18
 -1      3407 9.52394E-05-2.85748E-05-2.85706E-05 3.63994E-09 9.86744E-19-2.96294E-18
 -1      3408 9.52382E-05-2.85735E-05-2.85706E-05 2.72073E-09 2.22493E-18-2.51298E-18
 -1      3409 9.52381E-05-2.85732E-05-2.85706E-05 2.34297E-09 1.78181E-18-2.46954E-18
 -1      3410 9.52388E-05-2.85740E-05-2.85706E-05 2.78332E-09 1.36021E-18-2.33887E-18
 -1      3411 1.20020E-04-3.45632E-05-3.66282E-05 2.47309E-06 1.84600E-19-7.23672E-18
 -1      3412 1.16839E-04-2.92717E-05-3.77124E-05 3.96669E-06-1.07539E-18-7.40748E-18
 -1      3413 1.06166E-04-1.60315E-05-3.86747E-05-8.38945E-06-2.96821E-18-5.35613E-18
 -1      3414 1.05909E-04-1.74729E-05-3.79774E-05-4.46463E-06-2.67077E-18-5.20792E-18
 -1      3415 1.07721E-04-1.48291E-05-3.98734E-05-1.00317E-05-2.73991E-18-5.35034E-18
 -1      3416 9.22789E-05-2.46553E-05-2.90003E-05 3.92822E-06 3.99401E-19-9.78421E-19
 -1      3417 9.17879E-05-2.41198E-05-2.90014E-05 4.48037E-06 4.74390E-19-1.06071E-18
 -1      3418 9.32600E-05-2.56329E-05-2.89967E-05 3.08868E-06 6.48541E-19-1.20429E-18
 -1      3419 9.29267E-05-2.52102E-05-2.90208E-05 3.54007E-06 3.67714E-19-1.21238E-18
 -1      3420 9.18313E-05-2.43989E-05-2.88798E-05 3.27125E-06 4.61290E-19-8.51384E-19
 -1      3421 9.39345E-05-2.63883E-05-2.89584E-05 2.39746E-06 6.95624E-19-8.43179E-19
 -1      3422 9.37149E-05-2.60634E-05-2.89920E-05 2.76327E-06 9.67357E-19-9.72888E-19
 -1      3423 9.29092E-05-2.54281E-05-2.89071E-05 2.62400E-06 7.57318E-19-1.01438E-18
 -1      3424 9.43913E-05-2.69617E-05-2.89058E-05 1.83488E-06 1.12611E-19-7.13977E-19
 -1      3425 9.42504E-05-2.67162E-05-2.89412E-05 2.12765E-06 9.61669E-19-6.51159E-19
 -1      3426 9.36632E-05-2.62243E-05-2.88934E-05 2.07054E-06 9.04920E-19 2.64055E-20
 -1      3427 9.46966E-05-2.73925E-05-2.88502E-05 1.38310E-06-7.07697E-19-7.98739E-19
 -1      3428 9.46086E-05-2.72086E-05-2.88835E-05 1.61449E-06-5.35519E-19-9.79450E-19
 -1      3429 9.41852E-05-2.68318E-05-2.88598E-05 1.60596E-06-1.28957E-19 3.32601E-19
 -1      3430 9.49062E-05-2.77266E-05-2.87953E-05 1.01027E-06 9.20709E-21-5.60661E-19
 -1      3431 9.48504E-05-2.75848E-05-2.88260E-05 1.19752E-06-3.87832E-19-1.23055E-18
 -1      3432 9.45506E-05-2.73003E-05-2.88176E-05 1.21563E-06-3.60798E-20-6.10789E-19
 -1      3433 9.50359E-05-2.79609E-05-2.87493E-05 7.35685E-07 2.94260E-19-1.15769E-18
 -1      3434 9.50049E-05-2.78613E-05-2.87739E-05 8.72548E-07 5.79274E-19-7.53177E-19
 -1      3435 9.47974E-05-2.76506E-05-2.87748E-05 9.02118E-07 3.82337E-19-5.63679E-19
 -1      3436 9.51195E-05-2.81340E-05-2.87101E-05 5.24751E-07 2.85437E-19-1.82547E-18
 -1      3437 9.51018E-05-2.80604E-05-2.87304E-05 6.28548E-07 1.61162E-19-1.55090E-18
 -1      3438 9.49590E-05-2.79044E-05-2.87363E-05 6.61210E-07 6.77169E-19-1.02647E-18
 -1      3439 9.51729E-05-2.82616E-05-2.86777E-05 3.65281E-07 8.17581E-19-1.63101E-18
 -1      3440 9.51633E-05-2.82073E-05-2.86940E-05 4.42934E-07 1.05538E-18-1.33261E-18
 -1      3441 9.50672E-05-2.80931E-05-2.87024E-05 4.74059E-07 7.35155E-19-1.31601E-18
 -1      3442 9.52064E-05-2.83551E-05-2.86516E-05 2.46632E-07 5.40900E-19-1.44563E-18
 -1      3443 9.52016E-05-2.83152E-05-2.86644E-05 3.03851E-07 5.39148E-19-1.79896E-18
 -1      3444 9.51389E-05-2.82328E-05-2.86736E-05 3.31254E-07 4.90252E-19-1.65726E-18
 -1      3445 9.52269E-05-2.84233E-05-2.86308E-05 1.59892E-07 1.51054E-19-1.01332E-18
 -1      3446 9.52248E-05-2.83942E-05-2.86408E-05 2.01341E-07 5.03230E-19-1.11525E-18
 -1      3447 9.51856E-05-2.83355E-05-2.86498E-05 2.24248E-07 4.37045E-19-1.61297E-18
 -1      3448 9.52389E-05-2.84726E-05-2.86146E-05 9.77351E-08 1.68006E-19-1.70852E-18
 -1      3449 9.52384E-05-2.84515E-05-2.86223E-05 1.27168E-07 5.47454E-19-1.20899E-18
 -1      3450 9.52155E-05-2.84106E-05-2.86306E-05 1.45602E-07 6.94769E-19-1.12283E-18
 -1      3451 9.52455E-05-2.85079E-05-2.86022E-05 5.42358E-08-5.02953E-19-2.01886E-18
 -1      3452 9.52458E-05-2.84928E-05-2.86079E-05 7.46358E-08-1.54079E-19-1.78170E-18
 -1      3453 9.52339E-05-2.84649E-05-2.86152E-05 8.90222E-08 3.33510E-19-1.40840E-18
 -1      3454 9.52487E-05-2.85328E-05-2.85927E-05 2.46778E-08-3.05696E-19-2.36266E-18
 -1      3455 9.52493E-05-2.85221E-05-2.85970E-05 3.83876E-08-5.76305E-19-1.86932E-18
 -1      3456 9.52447E-05-2.85038E-05-2.86033E-05 4.93162E-08-6.70691E-19-9.39043E-19
 -1      3457 9.52497E-05-2.85500E-05-2.85857E-05 5.35905E-09-1.77015E-19-1.50857E-18
 -1      3458 9.52505E-05-2.85426E-05-2.85888E-05 1.41961E-08 8.12103E-20-1.54728E-18
 -1      3459 9.52504E-05-2.85311E-05-2.85941E-05 2.22901E-08-2.32849E-19-1.20037E-18
 -1      3460 9.52495E-05-2.85616E-05-2.85806E-05-6.58595E-09 1.60172E-20-1.23565E-18
 -1      3461 9.52503E-05-2.85566E-05-2.85828E-05-1.22900E-09-5.42355E-20-1.91837E-18
 -1      3462 9.52529E-05-2.85499E-05-2.85871E-05 4.61328E-09 2.63545E-19-6.47341E-19
 -1      3463 9.52485E-05-2.85692E-05-2.85769E-05-1.33423E-08-4.64592E-20-1.57801E-18
 -1      3464 9.52493E-05-2.85659E-05-2.85784E-05-1.04128E-08 1.73523E-19-1.57195E-18
 -1      3465 9.52533E-05-2.85624E-05-2.85819E-05-6.31264E-09 1.37680E-19-1.03162E-18
 -1      3466 9.52472E-05-2.85738E-05-2.85743E-05-1.65504E-08-6.25566E-19-4.02077E-19
 -1      3467 9.52479E-05-2.85718E-05-2.85754E-05-1.52641E-08-6.75194E-19-8.84412E-19
 -1      3468 9.52525E-05-2.85705E-05-2.85781E-05-1.24802E-08-6.21369E-19-1.19267E-18
 -1      3469 9.52458E-05-2.85765E-05-2.85726E-05-1.74248E-08-1.28505E-19 2.08415E-19
 -1      3470 9.52464E-05-2.85753E-05-2.85733E-05-1.72026E-08 3.92347E-20 1.35121E-19
 -1      3471 9.52511E-05-2.85754E-05-2.85753E-05-1.53911E-08-6.23787E-19 5.32508E-19
 -1      3472 9.52444E-05-2.85777E-05-2.85714E-05-1.67782E-08-1.45029E-18 5.41076E-19
 -1      3473 9.52448E-05-2.85772E-05-2.85718E-05-1.72531E-08-8.80003E-19 5.62580E-20
 -1      3474 9.52493E-05-2.85781E-05-2.85734E-05-1.61430E-08-3.45118E-19 1.08255E-18
 -1      3475 9.52430E-05-2.85780E-05-2.85707E-05-1.53106E-08-8.09832E-19 8.45262E-19
 -1      3476 9.52434E-05-2.85779E-05-2.85709E-05-1.61277E-08-9.39395E-19 1.03753E-18
 -1      3477 9.52474E-05-2.85792E-05-2.85721E-05-1.55284E-08-1.38483E-18 7.48340E-19
 -1      3478 9.52419E-05-2.85778E-05-2.85703E-05-1.34502E-08-8.32733E-19 1.29033E-18
 -1      3479 9.52422E-05-2.85779E-05-2.85704E-05-1.44296E-08-5.79587E-19 6.07938E-19
 -1      3480 9.52456E-05-2.85794E-05-2.85713E-05-1.41569E-08-5.21430E-19 8.82547E-19
 -1      3481 9.52409E-05-2.85772E-05-2.85701E-05-1.14698E-08-4.75407E-19 1.98860E-18
 -1      3482 9.52411E-05-2.85774E-05-2.85702E-05-1.24835E-08-8.80784E-19 8.24579E-19
 -1      3483 9.52440E-05-2.85790E-05-2.85708E-05-1.24245E-08-5.28671E-19 4.20058E-19
 -1      3484 9.52401E-05-2.85765E-05-2.85701E-05-9.54358E-09 8.15018E-19 5.29995E-19
 -1      3485 9.52402E-05-2.85768E-05-2.85701E-05-1.05132E-08 3.20301E-19 1.52835E-18
 -1      3486 9.52426E-05-2.85782E-05-2.85705E-05-1.05857E-08-8.76285E-20 9.32732E-19
 -1      3487 9.52394E-05-2.85757E-05-2.85701E-05-7.77320E-09 9.48875E-19 1.35327E-18
 -1      3488 9.52395E-05-2.85760E-05-2.85701E-05-8.65438E-09 1.12245E-18 1.10862E-18
 -1      3489 9.52414E-05-2.85773E-05-2.85704E-05-8.80066E-09 1.16821E-18-4.39922E-19
 -1      3490 9.52388E-05-2.85749E-05-2.85702E-05-6.20973E-09-3.12858E-19 1.22313E-18
 -1      3491 9.52389E-05-2.85752E-05-2.85702E-05-6.98146E-09-4.10693E-19 1.04257E-18
 -1      3492 9.52405E-05-2.85764E-05-2.85703E-05-7.16243E-09 5.59435E-19 1.80780E-18
 -1      3493 9.52384E-05-2.85742E-05-2.85703E-05-4.87055E-09 6.29195E-19 2.27401E-18
 -1      3494 9.52385E-05-2.85745E-05-2.85703E-05-5.52731E-09 1.08181E-18 2.35138E-18
 -1      3495 9.52396E-05-2.85755E-05-2.85704E-05-5.71743E-09 4.20242E-20 1.67893E-18
 -1      3496 9.52380E-05-2.85736E-05-2.85705E-05-3.75138E-09 9.53063E-19 5.77494E-19
 -1      3497 9.52381E-05-2.85739E-05-2.85704E-05-4.29757E-09 1.04858E-18 1.73545E-18
 -1      3498 9.52390E-05-2.85746E-05-2.85704E-05-4.48119E-09 1.06891E-18 2.53186E-18
 -1      3499 9.52378E-05-2.85731E-05-2.85706E-05-2.83549E-09-1.44987E-18 2.28685E-21
 -1      3500 9.52378E-05-2.85733E-05-2.85705E-05-3.28248E-09-4.03499E-19 1.22168E-19
 -1      3501 9.52385E-05-2.85739E-05-2.85705E-05-3.45010E-09 1.07197E-18 1.76863E-18
 -1      3502 9.52387E-05-2.85737E-05-2.85707E-05 1.08158E-09 1.75861E-18-1.24435E-18
 -1      3503 9.52389E-05-2.85738E-05-2.85708E-05 8.21271E-10 2.08174E-18-9.15319E-19
 -1      3504 9.52389E-05-2.85739E-05-2.85707E-05 1.37751E-09 1.45449E-18-2.65899E-18
 -1      3505 1.09582E-04-1.25305E-05-4.17308E-05-8.56472E-06-3.37355E-18-5.42236E-18
 -1      3506 9.52390E-05-2.85739E-05-2.85708E-05 4.82203E-10 2.00782E-18 3.96294E-19
 -1      3507 9.52391E-05-2.85740E-05-2.85708E-05 1.82069E-10 2.27673E-18-1.75817E-19
 -1      3508 9.52392E-05-2.85742E-05-2.85707E-05 7.34648E-10 1.81199E-18-6.14848E-20
 -1      3509 7.64348E-05-2.43666E-05-2.21234E-05-2.83393E-05 4.03669E-18 1.08431E-18
 -1      3510 8.55932E-05-3.07709E-05-2.35085E-05-3.01172E-05 4.59222E-18-2.76953E-19
 -1      3511 8.27053E-05-1.85419E-05-2.75765E-05 9.96939E-06-5.09836E-19 7.60969E-20
 -1      3512 8.13320E-05-1.80338E-05-2.70980E-05 1.15682E-05-4.03439E-19 2.77863E-19
 -1      3513 9.45917E-05-3.58262E-05-2.49359E-05-2.88817E-05 4.91696E-18-1.51435E-18
 -1      3514 1.03441E-04-4.08330E-05-2.69260E-05-2.52918E-05 4.62841E-18-2.80211E-18
 -1      3515 9.16019E-05-3.28341E-05-2.50273E-05-2.63527E-05 4.33804E-18-1.43670E-18
 -1      3516 7.81228E-05-1.71263E-05-2.62292E-05 1.33123E-05-9.18362E-19 3.14282E-19
 -1      3517 7.70774E-05-1.73383E-05-2.54959E-05 1.58742E-05-1.64330E-18 1.15697E-19
 -1      3518 7.58796E-05-1.52025E-05-2.58595E-05 9.83149E-06-7.16371E-19 7.14031E-19
 -1      3519 9.08774E-05-2.34238E-05-2.89347E-05 4.94372E-06 8.15828E-21-1.44460E-18
 -1      3520 9.01801E-05-2.27742E-05-2.88902E-05 5.61963E-06-3.24726E-20-1.39831E-18
 -1      3521 9.03084E-05-2.30950E-05-2.87772E-05 4.02032E-06 1.19740E-19-1.17055E-18
 -1      3522 1.12117E-04-3.01888E-05-3.51292E-05 4.37687E-06-9.23703E-19-6.15899E-18
 -1      3523 1.12775E-04-3.32711E-05-3.41247E-05 4.26557E-06-4.07906E-19-5.82349E-18
 -1      3524 1.20802E-04-4.26369E-05-3.34960E-05-5.33693E-06 2.52375E-18-5.94342E-18
 -1      3525 1.20946E-04-3.88729E-05-3.53719E-05-6.50721E-07 1.23059E-18-6.56863E-18
 -1      3526 1.18427E-04-3.72950E-05-3.48546E-05 9.42523E-07 7.69913E-19-6.50157E-18
 -1      3527 1.09649E-04-1.36325E-05-4.13488E-05-4.41080E-06-3.41796E-18-6.11350E-18
 -1      3528 8.62448E-05-2.02484E-05-2.83381E-05 7.77347E-06 2.81716E-19-9.38922E-19
 -1      3529 8.50471E-05-1.95212E-05-2.80762E-05 8.88604E-06-1.28774E-19-3.93988E-19
 -1      3530 8.12619E-05-1.74189E-05-2.72766E-05 7.46244E-06 3.44914E-19 3.70552E-19
 -1      3531 8.89178E-05-2.19354E-05-2.87437E-05 6.18674E-06 3.51220E-19-1.31610E-18
 -1      3532 8.79729E-05-2.12009E-05-2.86178E-05 7.03144E-06 3.97370E-19-1.29475E-18
 -1      3533 8.81842E-05-2.14872E-05-2.85437E-05 4.89585E-06 3.92075E-19-7.15409E-19
 -1      3534 5.22230E-05-7.05114E-06-1.92207E-05 3.27627E-06-1.66677E-19 3.20427E-18
 -1      3535 5.18067E-05-7.04684E-06-1.87437E-05-7.60290E-06 1.14810E-18 4.32633E-18
 -1      3536 5.81546E-05-1.02981E-05-2.02222E-05-1.20299E-05 1.79774E-18 3.24477E-18
 -1      3537 1.08946E-04-2.17170E-05-3.74526E-05 1.97288E-06-2.19174E-18-6.03830E-18
 -1      3538 1.09918E-04-2.45468E-05-3.66556E-05 3.58028E-06-1.89805E-18-6.08507E-18
 -1      3539 1.14695E-04-3.55554E-05-3.39767E-05 2.71931E-06 1.15144E-19-6.09547E-18
 -1      3540 9.52385E-05-2.85735E-05-2.85707E-05-1.31854E-09 5.76246E-19-5.91685E-19
 -1      3541 9.52383E-05-2.85733E-05-2.85707E-05-1.49174E-09 1.39661E-20-1.29551E-18
 -1      3542 1.09352E-04-1.70807E-05-3.96233E-05-1.76065E-06-2.72512E-18-6.06926E-18
 -1      3543 9.52378E-05-2.85730E-05-2.85707E-05 2.12309E-09 6.84204E-19-2.71653E-18
 -1      3544 9.52378E-05-2.85728E-05-2.85707E-05 1.85137E-09-5.22330E-19-2.11613E-18
 -1      3545 9.52379E-05-2.85729E-05-2.85707E-05 1.78233E-09 9.22093E-20-2.69587E-18
 -1      3546 9.52383E-05-2.85734E-05-2.85707E-05 2.19238E-09 1.37341E-18-3.45601E-18
 -1      3547 9.52394E-05-2.85743E-05-2.85707E-05-1.04505E-13 2.51699E-18 9.94727E-19
 -1      3548 9.52391E-05-2.85740E-05-2.85708E-05-1.82586E-10 2.18237E-18 1.79853E-19
 -1      3549 9.52390E-05-2.85739E-05-2.85708E-05-4.81998E-10 1.72671E-18 5.49848E-19
 -1      3550 8.52578E-05-1.95770E-05-2.80910E-05 5.97495E-06 6.15200E-19-3.13154E-19
 -1      3551 9.52380E-05-2.85730E-05-2.85707E-05 1.69037E-09 6.14194E-19-2.94107E-18
 -1      3552 7.23274E-05-2.11014E-05-2.17685E-05-2.64150E-05 3.67771E-18 1.51473E-18
 -1      3553 7.93358E-05-2.43054E-05-2.34080E-05-2.48253E-05 3.67936E-18 3.66871E-19
 -1      3554 6.78911E-05-1.75264E-05-2.15551E-05-2.25739E-05 3.11679E-18 1.83290E-18
 -1      3555 7.15107E-05-1.69764E-05-2.33254E-05 2.05281E-05-1.94988E-18 1.04180E-18
 -1      3556 6.66319E-05-1.32660E-05-2.27250E-05 1.53139E-05-1.36378E-18 1.43747E-18
 -1      3557 1.03600E-04-3.93604E-05-2.74945E-05-2.13388E-05 3.63148E-18-2.56681E-18
 -1      3558 1.08380E-04-4.24495E-05-2.81315E-05-2.11412E-05 4.23093E-18-3.04165E-18
 -1      3559 1.11132E-04-4.30478E-05-2.93444E-05-1.61521E-05 3.69320E-18-3.62586E-18
 -1      3560 9.52376E-05-2.85727E-05-2.85707E-05-2.08018E-09-1.02958E-18 5.72360E-19
 -1      3561 9.52376E-05-2.85728E-05-2.85706E-05-2.41983E-09-1.46496E-18-3.09233E-19
 -1      3562 9.52380E-05-2.85733E-05-2.85706E-05-2.57911E-09-1.72283E-18 2.60932E-19
 -1      3563 9.52377E-05-2.85727E-05-2.85707E-05-1.83995E-09 1.69300E-19-8.98953E-19
 -1      3564 9.52380E-05-2.85729E-05-2.85707E-05-1.75665E-09-4.29200E-19-1.49344E-18
 -1      3565 1.18948E-04-4.39730E-05-3.22081E-05-8.18425E-06 2.95870E-18-5.17542E-18
 -1      3566 1.17433E-04-4.15952E-05-3.25179E-05-4.11835E-06 2.32214E-18-5.49337E-18
 -1      3567 1.15753E-04-4.35241E-05-3.08212E-05-1.07417E-05 3.21757E-18-4.62985E-18
 -1      3568 9.52384E-05-2.85734E-05-2.85707E-05 1.82200E-09 8.74970E-19-3.71167E-18
 -1      3569 9.52382E-05-2.85733E-05-2.85707E-05-1.92035E-09-1.01222E-18-1.43364E-18
 -1      3570 1.15990E-04-3.89990E-05-3.29853E-05 1.47627E-07 1.24343E-18-5.66635E-18
 -1      3571 9.52387E-05-2.85737E-05-2.85707E-05-1.06801E-09 1.46285E-18 9.21102E-19
 -1      3572 9.52388E-05-2.85738E-05-2.85707E-05-1.36132E-09 1.20782E-18 1.26961E-18
 -1      3573 9.52389E-05-2.85738E-05-2.85708E-05-8.25056E-10 1.76905E-18 1.29990E-18
 -1      3574 1.14464E-04-2.93840E-05-3.65022E-05 4.22068E-06-1.00747E-18-6.78680E-18
 -1      3575 1.14673E-04-2.58923E-05-3.81482E-05 4.22762E-06-1.54986E-18-7.18938E-18
 -1      3576 1.09483E-04-3.90167E-05-3.02086E-05-4.46191E-06 1.49835E-18-3.49165E-18
 -1      3577 1.07617E-04-3.80837E-05-2.97155E-05-5.42124E-06 1.43501E-18-3.31706E-18
 -1      3578 1.05108E-04-3.66759E-05-2.93298E-05-6.02053E-06 1.22757E-18-2.83917E-18
 -1      3579 1.03279E-04-3.53623E-05-2.90555E-05-6.38157E-06 1.45667E-18-2.70012E-18
 -1      3580 1.05901E-04-3.77773E-05-2.93060E-05-7.89748E-06 1.58417E-18-2.83456E-18
 -1      3581 1.01409E-04-3.39942E-05-2.88830E-05-6.27541E-06 1.35263E-18-2.50774E-18
 -1      3582 9.99336E-05-3.27634E-05-2.87526E-05-6.25254E-06 1.09949E-18-2.44570E-18
 -1      3583 1.01430E-04-3.45140E-05-2.87533E-05-7.99808E-06 1.32691E-18-2.54129E-18
 -1      3584 9.86416E-05-3.16540E-05-2.86953E-05-5.84403E-06 8.06784E-19-2.52980E-18
 -1      3585 9.75705E-05-3.06864E-05-2.86449E-05-5.60546E-06 6.00757E-19-2.26540E-18
 -1      3586 9.83468E-05-3.18389E-05-2.85495E-05-7.22778E-06 8.79689E-19-2.27636E-18
 -1      3587 9.67566E-05-2.98880E-05-2.86431E-05-5.08733E-06 5.29012E-19-2.04730E-18
 -1      3588 9.60360E-05-2.92050E-05-2.86322E-05-4.75611E-06 3.07121E-19-1.86346E-18
 -1      3589 9.62912E-05-2.98405E-05-2.85109E-05-6.10324E-06 8.51995E-19-2.35376E-18
 -1      3590 9.55763E-05-2.86907E-05-2.86519E-05-4.24376E-06 1.15545E-19-1.89484E-18
 -1      3591 9.51297E-05-2.82554E-05-2.86569E-05-3.89612E-06 1.83229E-20-1.84196E-18
 -1      3592 9.50630E-05-2.85072E-05-2.85440E-05-4.94367E-06 2.30010E-19-1.50564E-18
 -1      3593 9.49078E-05-2.79610E-05-2.86807E-05-3.44148E-06 1.96392E-19-1.72574E-18
 -1      3594 9.46566E-05-2.77155E-05-2.86890E-05-3.11557E-06 3.40946E-19-1.81146E-18
 -1      3595 9.44154E-05-2.77139E-05-2.85982E-05-3.90110E-06 2.90563E-19-1.54367E-18
 -1      3596 9.45853E-05-2.75790E-05-2.87088E-05-2.73330E-06-1.56248E-19-2.01258E-18
 -1      3597 9.44648E-05-2.74683E-05-2.87146E-05-2.44587E-06-2.77397E-19-1.93088E-18
 -1      3598 9.41450E-05-2.73119E-05-2.86491E-05-3.02242E-06-8.27006E-20-1.77686E-18
 -1      3599 9.44819E-05-2.74370E-05-2.87275E-05-2.13536E-06-1.35850E-19-1.92051E-18
 -1      3600 9.44427E-05-2.74147E-05-2.87289E-05-1.89124E-06 2.80934E-19-1.85858E-18
 -1      3601 9.41056E-05-2.71766E-05-2.86868E-05-2.30910E-06-2.33394E-19-1.65229E-18
 -1      3602 9.45057E-05-2.74473E-05-2.87349E-05-1.64445E-06 6.34369E-19-1.52858E-18
 -1      3603 9.45131E-05-2.74781E-05-2.87321E-05-1.44231E-06 5.50501E-19-1.32889E-18
 -1      3604 9.41946E-05-2.72088E-05-2.87091E-05-1.74398E-06 3.30980E-19-1.36407E-18
 -1      3605 9.45948E-05-2.75451E-05-2.87324E-05-1.24910E-06 7.84899E-19-8.04598E-19
 -1      3606 9.46254E-05-2.76038E-05-2.87262E-05-1.08497E-06 8.41277E-19-2.18972E-19
 -1      3607 9.43444E-05-2.73357E-05-2.87177E-05-1.30305E-06 1.24929E-18-8.21347E-19
 -1      3608 9.47095E-05-2.76853E-05-2.87224E-05-9.35549E-07 9.17493E-19 6.86169E-19
 -1      3609 9.47489E-05-2.77550E-05-2.87140E-05-8.04448E-07 1.48935E-18 6.92390E-19
 -1      3610 9.45127E-05-2.75074E-05-2.87157E-05-9.62922E-07 1.16348E-18 8.09074E-19
 -1      3611 9.48261E-05-2.78380E-05-2.87075E-05-6.90117E-07 6.22308E-19-4.74095E-20
 -1      3612 9.48658E-05-2.79082E-05-2.86981E-05-5.86965E-07 4.53443E-19-3.47542E-19
 -1      3613 9.46750E-05-2.76909E-05-2.87064E-05-7.02993E-07 7.43677E-19 3.78735E-19
 -1      3614 9.49320E-05-2.79853E-05-2.86902E-05-5.00390E-07 6.87125E-19-5.31321E-19
 -1      3615 9.49675E-05-2.80498E-05-2.86806E-05-4.20412E-07 6.48520E-19-1.05414E-18
 -1      3616 9.48186E-05-2.78666E-05-2.86927E-05-5.06054E-07 5.64647E-19-1.36823E-19
 -1      3617 9.50214E-05-2.81173E-05-2.86723E-05-3.55564E-07 6.20049E-19-1.25229E-18
 -1      3618 9.50509E-05-2.81733E-05-2.86631E-05-2.94481E-07 5.28790E-19-1.80269E-18
 -1      3619 9.49384E-05-2.80237E-05-2.86768E-05-3.58151E-07 3.25993E-19-1.13440E-18
 -1      3620 9.50930E-05-2.82298E-05-2.86550E-05-2.46491E-07 5.58620E-19-1.68812E-18
 -1      3621 9.51161E-05-2.82764E-05-2.86466E-05-2.00578E-07 7.74260E-19-1.47989E-18
 -1      3622 9.50339E-05-2.81576E-05-2.86606E-05-2.48156E-07 4.69868E-19-1.56584E-18
 -1      3623 9.51477E-05-2.83220E-05-2.86391E-05-1.65559E-07 6.55805E-19-1.37181E-18
 -1      3624 9.51651E-05-2.83594E-05-2.86317E-05-1.31653E-07-8.43712E-20-1.45354E-18
 -1      3625 9.51071E-05-2.82675E-05-2.86450E-05-1.67276E-07 8.82146E-19-1.27439E-18
 -1      3626 9.51879E-05-2.83952E-05-2.86251E-05-1.06523E-07-6.59961E-19-1.12810E-18
 -1      3627 9.52003E-05-2.84243E-05-2.86188E-05-8.19767E-08-5.84259E-19-6.19165E-19
 -1      3628 9.51611E-05-2.83550E-05-2.86308E-05-1.08619E-07-1.49231E-19-8.78170E-19
 -1      3629 9.52162E-05-2.84516E-05-2.86131E-05-6.43025E-08-5.08873E-19-9.07622E-20
 -1      3630 9.52245E-05-2.84736E-05-2.86079E-05-4.69450E-08 2.30270E-19 1.31903E-19
 -1      3631 9.51995E-05-2.84226E-05-2.86184E-05-6.67759E-08-9.20761E-20 2.11278E-19
 -1      3632 9.52350E-05-2.84938E-05-2.86031E-05-3.48302E-08-1.88217E-19-8.51608E-19
 -1      3633 9.52403E-05-2.85101E-05-2.85989E-05-2.29046E-08-4.69245E-19-1.22687E-18
 -1      3634 9.52256E-05-2.84736E-05-2.86078E-05-3.75412E-08-6.54501E-19-1.09274E-18
 -1      3635 9.52468E-05-2.85246E-05-2.85950E-05-1.48769E-08 1.23553E-19-1.21744E-18
 -1      3636 9.52498E-05-2.85362E-05-2.85917E-05-6.98355E-09 4.20712E-19-1.33007E-18
 -1      3637 9.52424E-05-2.85110E-05-2.85991E-05-1.76555E-08-1.18813E-19-6.61734E-19
 -1      3638 9.52533E-05-2.85464E-05-2.85886E-05-1.91068E-09 1.39237E-19-1.23881E-18
 -1      3639 9.52548E-05-2.85544E-05-2.85860E-05 3.04824E-09 1.95513E-19-5.41096E-19
 -1      3640 9.52523E-05-2.85376E-05-2.85920E-05-4.60665E-09 4.89501E-19-6.83627E-19
 -1      3641 9.52563E-05-2.85612E-05-2.85836E-05 6.02734E-09 3.72615E-19-3.71685E-19
 -1      3642 9.52567E-05-2.85665E-05-2.85816E-05 8.89962E-09 2.86679E-19 1.40442E-19
 -1      3643 9.52574E-05-2.85559E-05-2.85863E-05 3.52534E-09 4.34026E-19-2.34285E-19
 -1      3644 9.52569E-05-2.85708E-05-2.85797E-05 1.04319E-08-7.45588E-19-5.35276E-19
 -1      3645 9.52566E-05-2.85741E-05-2.85782E-05 1.18614E-08-1.39363E-18-2.27003E-19
 -1      3646 9.52592E-05-2.85680E-05-2.85819E-05 8.19334E-09-6.73628E-19-5.88363E-19
 -1      3647 9.52560E-05-2.85766E-05-2.85768E-05 1.24261E-08-9.10841E-19-5.78911E-20
 -1      3648 9.52553E-05-2.85785E-05-2.85758E-05 1.28933E-08 3.67516E-19 5.41314E-19
 -1      3649 9.52589E-05-2.85755E-05-2.85786E-05 1.04840E-08-6.66397E-19 7.90777E-20
 -1      3650 9.52543E-05-2.85798E-05-2.85747E-05 1.28394E-08 3.02886E-19 2.16998E-19
 -1      3651 9.52533E-05-2.85807E-05-2.85740E-05 1.26955E-08-4.46807E-20 1.36871E-18
 -1      3652 9.52573E-05-2.85798E-05-2.85761E-05 1.11989E-08 1.24109E-19 2.71715E-19
 -1      3653 9.52521E-05-2.85812E-05-2.85732E-05 1.22724E-08-1.06611E-18 1.23480E-18
 -1      3654 9.52511E-05-2.85814E-05-2.85727E-05 1.17685E-08-1.48934E-18 1.35412E-18
 -1      3655 9.52550E-05-2.85818E-05-2.85743E-05 1.09189E-08-4.70715E-19 1.64025E-18
 -1      3656 9.52498E-05-2.85813E-05-2.85722E-05 1.11495E-08-1.25170E-18 1.48538E-18
 -1      3657 9.52489E-05-2.85812E-05-2.85718E-05 1.04603E-08-1.65917E-18 1.44843E-18
 -1      3658 9.52525E-05-2.85824E-05-2.85730E-05 1.00568E-08-1.29472E-18 8.05006E-19
 -1      3659 9.52476E-05-2.85808E-05-2.85715E-05 9.76250E-09-1.64708E-18 1.78547E-18
 -1      3660 9.52467E-05-2.85804E-05-2.85713E-05 9.00527E-09-8.28020E-19 1.79060E-18
 -1      3661 9.52500E-05-2.85819E-05-2.85720E-05 8.89811E-09-1.89525E-18 2.24965E-18
 -1      3662 9.52456E-05-2.85798E-05-2.85710E-05 8.30433E-09-4.03296E-19 1.52589E-18
 -1      3663 9.52448E-05-2.85793E-05-2.85709E-05 7.55428E-09 6.55657E-19 1.06713E-18
 -1      3664 9.52476E-05-2.85810E-05-2.85714E-05 7.63388E-09-5.95869E-19 2.41079E-18
 -1      3665 9.52439E-05-2.85787E-05-2.85708E-05 6.89604E-09 8.66513E-19 2.07299E-19
 -1      3666 9.52432E-05-2.85781E-05-2.85707E-05 6.19813E-09 8.20946E-19-7.27247E-19
 -1      3667 9.52456E-05-2.85798E-05-2.85711E-05 6.38620E-09 1.55015E-19-4.97489E-19
 -1      3668 9.52424E-05-2.85775E-05-2.85706E-05 5.60757E-09 4.81236E-19-1.43482E-18
 -1      3669 9.52418E-05-2.85770E-05-2.85706E-05 4.98563E-09 1.52679E-19-2.13911E-18
 -1      3670 9.52437E-05-2.85785E-05-2.85708E-05 5.22774E-09 7.36750E-20-2.15972E-18
 -1      3671 9.52411E-05-2.85764E-05-2.85706E-05 4.47360E-09 3.17256E-19-2.30215E-18
 -1      3672 9.52407E-05-2.85759E-05-2.85706E-05 3.93702E-09 2.38927E-19-2.78661E-18
 -1      3673 9.52422E-05-2.85773E-05-2.85707E-05 4.19686E-09 5.08740E-20-1.77917E-18
 -1      3674 9.52401E-05-2.85754E-05-2.85706E-05 3.50630E-09 4.00059E-19-3.04021E-18
 -1      3675 9.52398E-05-2.85750E-05-2.85706E-05 3.05490E-09 9.94741E-19-2.85948E-18
 -1      3676 9.52410E-05-2.85761E-05-2.85707E-05 3.30822E-09 2.89132E-19-1.59046E-18
 -1      3677 9.52393E-05-2.85745E-05-2.85706E-05 2.69816E-09 1.57891E-18-3.16352E-18
 -1      3678 9.52390E-05-2.85742E-05-2.85707E-05 2.32759E-09 1.22576E-18-3.13174E-18
 -1      3679 9.52400E-05-2.85751E-05-2.85707E-05 2.56549E-09 1.30413E-18-2.96040E-18
 -1      3680 9.52386E-05-2.85737E-05-2.85707E-05 2.01638E-09 1.06826E-18-3.63508E-18
 -1      3681 1.08096E-04-1.91411E-05-3.81758E-05-5.46315E-07-2.56744E-18-5.85288E-18
 -1      3682 9.26663E-05-2.54072E-05-2.88355E-05 2.03375E-06 6.86879E-19-7.98153E-19
 -1      3683 9.22086E-05-2.49517E-05-2.88301E-05 2.29803E-06 3.84443E-19-1.22469E-18
 -1      3684 9.15476E-05-2.44000E-05-2.87911E-05 2.45898E-06 7.31785E-19-1.01822E-18
 -1      3685 9.08957E-05-2.38189E-05-2.87567E-05 2.75399E-06 5.71303E-19-8.50716E-19
 -1      3686 9.14476E-05-2.43829E-05-2.87232E-05 1.82676E-06 5.06422E-19-4.85304E-19
 -1      3687 9.40236E-05-2.67946E-05-2.88183E-05 1.29662E-06-1.64247E-20 1.24012E-19
 -1      3688 9.38046E-05-2.65251E-05-2.88355E-05 1.49253E-06 4.05521E-19 1.83651E-19
 -1      3689 9.44339E-05-2.72750E-05-2.87868E-05 9.88359E-07 1.95574E-19-6.13008E-19
 -1      3690 9.42785E-05-2.70621E-05-2.88074E-05 1.15649E-06 3.40541E-19-6.95401E-20
 -1      3691 9.39502E-05-2.67657E-05-2.87871E-05 1.05163E-06 7.20861E-19-1.91955E-19
 -1      3692 9.47041E-05-2.76192E-05-2.87539E-05 7.46283E-07 6.69954E-19-7.54567E-19
 -1      3693 9.46047E-05-2.74668E-05-2.87731E-05 8.75680E-07 6.08384E-19-7.50094E-19
 -1      3694 9.43660E-05-2.72373E-05-2.87651E-05 8.19613E-07 4.48593E-19-3.30262E-19
 -1      3695 9.48911E-05-2.78789E-05-2.87220E-05 5.50912E-07 4.77201E-19-7.92813E-19
 -1      3696 9.48243E-05-2.77642E-05-2.87395E-05 6.53307E-07 5.79732E-19-7.34218E-19
 -1      3697 9.46520E-05-2.75881E-05-2.87388E-05 6.26275E-07 7.42464E-19-2.58838E-19
 -1      3698 9.50196E-05-2.80736E-05-2.86930E-05 3.96869E-07 4.41963E-19-6.78154E-19
 -1      3699 9.49751E-05-2.79878E-05-2.87082E-05 4.76328E-07 3.84979E-19-7.61675E-19
 -1      3700 9.48529E-05-2.78543E-05-2.87118E-05 4.66464E-07 3.24130E-19-4.04419E-19
 -1      3701 9.51069E-05-2.82187E-05-2.86677E-05 2.78015E-07 7.55349E-19-1.14476E-18
 -1      3702 9.50777E-05-2.81548E-05-2.86806E-05 3.38517E-07 1.07545E-18-1.01739E-18
 -1      3703 9.49930E-05-2.80551E-05-2.86864E-05 3.38240E-07 6.86338E-19 1.35174E-19
 -1      3704 9.51653E-05-2.83261E-05-2.86464E-05 1.88236E-07 3.03151E-19-6.44461E-19
 -1      3705 9.51465E-05-2.82789E-05-2.86570E-05 2.33424E-07 3.38780E-19-1.12412E-18
 -1      3706 9.50895E-05-2.82056E-05-2.86637E-05 2.38043E-07 8.27135E-19-2.83065E-19
 -1      3707 9.52037E-05-2.84048E-05-2.86288E-05 1.21895E-07 1.03772E-18-1.04841E-18
 -1      3708 9.51919E-05-2.83703E-05-2.86373E-05 1.54953E-07 9.01666E-19-1.04447E-18
 -1      3709 9.51548E-05-2.83173E-05-2.86442E-05 1.61652E-07 9.77683E-19 4.20585E-19
 -1      3710 9.52281E-05-2.84619E-05-2.86146E-05 7.40079E-08-4.42140E-19-4.38871E-19
 -1      3711 9.52210E-05-2.84369E-05-2.86214E-05 9.76522E-08 4.37628E-19-1.14627E-18
 -1      3712 9.51982E-05-2.83994E-05-2.86278E-05 1.04830E-07 5.05519E-19 4.40257E-20
 -1      3713 9.52429E-05-2.85026E-05-2.86033E-05 4.03594E-08-8.63696E-19-1.81546E-19
 -1      3714 9.52389E-05-2.84848E-05-2.86086E-05 5.68211E-08-7.08083E-19-2.12000E-19
 -1      3715 9.52261E-05-2.84589E-05-2.86143E-05 6.36149E-08-7.92171E-19 1.94152E-19
 -1      3716 9.52512E-05-2.85312E-05-2.85945E-05 1.74765E-08-5.98353E-20-5.18356E-19
 -1      3717 9.52493E-05-2.85188E-05-2.85985E-05 2.85627E-08-4.62123E-19-7.14272E-19
 -1      3718 9.52431E-05-2.85014E-05-2.86035E-05 3.45681E-08-2.49434E-19 3.47819E-19
 -1      3719 9.52552E-05-2.85509E-05-2.85877E-05 2.55954E-09 2.24060E-19-1.40247E-18
 -1      3720 9.52546E-05-2.85423E-05-2.85908E-05 9.70222E-09 3.01398E-19-9.52456E-19
 -1      3721 9.52528E-05-2.85312E-05-2.85949E-05 1.47807E-08 2.04538E-19-2.34716E-18
 -1      3722 9.52564E-05-2.85639E-05-2.85826E-05-6.59514E-09-1.94744E-19-5.35363E-19
 -1      3723 9.52566E-05-2.85582E-05-2.85849E-05-2.28229E-09-1.12716E-19-6.83223E-19
 -1      3724 9.52576E-05-2.85516E-05-2.85883E-05 1.87672E-09-4.19571E-19-1.62251E-18
 -1      3725 9.52558E-05-2.85721E-05-2.85788E-05-1.16884E-08-1.13354E-18 3.24729E-19
 -1      3726 9.52565E-05-2.85686E-05-2.85804E-05-9.35418E-09-9.72679E-20 1.53283E-19
 -1      3727 9.52591E-05-2.85650E-05-2.85832E-05-6.03320E-09-7.63172E-19 3.64575E-19
 -1      3728 9.52543E-05-2.85770E-05-2.85760E-05-1.40125E-08-3.30147E-19 3.37588E-19
 -1      3729 9.52552E-05-2.85749E-05-2.85772E-05-1.30125E-08-1.43007E-18-2.92445E-20
 -1      3730 9.52585E-05-2.85734E-05-2.85794E-05-1.04173E-08-1.11833E-18 1.02283E-18
 -1      3731 9.52522E-05-2.85797E-05-2.85739E-05-1.45021E-08-1.09701E-18 1.17256E-18
 -1      3732 9.52532E-05-2.85786E-05-2.85748E-05-1.43942E-08-3.77410E-19 8.92643E-19
 -1      3733 9.52568E-05-2.85784E-05-2.85765E-05-1.24018E-08-9.62453E-19 5.98255E-19
 -1      3734 9.52500E-05-2.85806E-05-2.85726E-05-1.38229E-08-1.34686E-18 5.00454E-19
 -1      3735 9.52510E-05-2.85803E-05-2.85731E-05-1.42485E-08-1.01852E-18 9.34369E-19
 -1      3736 9.52545E-05-2.85809E-05-2.85744E-05-1.27737E-08-8.41343E-19 1.12473E-18
 -1      3737 9.52479E-05-2.85806E-05-2.85717E-05-1.25310E-08 3.56086E-19-1.83663E-19
 -1      3738 9.52488E-05-2.85806E-05-2.85720E-05-1.32418E-08-6.33059E-19 5.43769E-19
 -1      3739 9.52520E-05-2.85818E-05-2.85730E-05-1.21524E-08-5.06175E-19 6.24822E-19
 -1      3740 9.52459E-05-2.85800E-05-2.85711E-05-1.09496E-08-5.61674E-19-6.33815E-19
 -1      3741 9.52467E-05-2.85803E-05-2.85713E-05-1.17856E-08 4.56518E-20-2.83735E-19
 -1      3742 9.52495E-05-2.85816E-05-2.85720E-05-1.09977E-08 6.10101E-19-5.69489E-19
 -1      3743 9.52442E-05-2.85790E-05-2.85708E-05-9.29530E-09-4.55973E-19-6.77809E-19
 -1      3744 9.52449E-05-2.85795E-05-2.85709E-05-1.01531E-08-1.07108E-18-9.08526E-19
 -1      3745 9.52473E-05-2.85808E-05-2.85714E-05-9.59607E-09-8.94065E-19-3.48126E-19
 -1      3746 9.52427E-05-2.85780E-05-2.85706E-05-7.70339E-09 1.43457E-18 1.04274E-19
 -1      3747 9.52432E-05-2.85785E-05-2.85706E-05-8.51929E-09 8.38372E-19 3.49439E-20
 -1      3748 9.52453E-05-2.85797E-05-2.85710E-05-8.13598E-09-2.19659E-19 1.71496E-19
 -1      3749 9.52414E-05-2.85769E-05-2.85705E-05-6.25121E-09 3.30601E-20 1.48496E-18
 -1      3750 9.52419E-05-2.85774E-05-2.85705E-05-6.98961E-09 1.04503E-18 1.04594E-18
 -1      3751 9.52435E-05-2.85785E-05-2.85707E-05-6.73475E-09 3.32675E-19 1.86894E-18
 -1      3752 9.52404E-05-2.85759E-05-2.85705E-05-4.97629E-09-2.56510E-19 2.60276E-18
 -1      3753 9.52408E-05-2.85763E-05-2.85705E-05-5.62078E-09-4.09427E-19 1.63512E-18
 -1      3754 9.52421E-05-2.85773E-05-2.85706E-05-5.45914E-09-1.03659E-18 2.73889E-18
 -1      3755 9.52396E-05-2.85750E-05-2.85705E-05-3.88966E-09 1.05989E-18 2.68349E-18
 -1      3756 9.52399E-05-2.85754E-05-2.85705E-05-4.43665E-09 6.21400E-19 2.90330E-18
 -1      3757 9.52409E-05-2.85762E-05-2.85706E-05-4.34137E-09-3.61229E-19 3.58636E-18
 -1      3758 9.52389E-05-2.85742E-05-2.85706E-05-2.98275E-09 1.34996E-18 2.14620E-18
 -1      3759 9.52391E-05-2.85745E-05-2.85706E-05-3.43882E-09 2.56464E-18 2.87485E-18
 -1      3760 9.52399E-05-2.85752E-05-2.85706E-05-3.39214E-09 1.61223E-18 4.14822E-18
 -1      3761 9.52395E-05-2.85745E-05-2.85707E-05 1.01538E-09 8.15967E-19 1.89298E-19
 -1      3762 9.52397E-05-2.85746E-05-2.85707E-05 6.59772E-10 1.25498E-18 8.05692E-19
 -1      3763 1.12176E-04-2.32869E-05-3.82117E-05 3.26577E-06-2.06671E-18-6.84289E-18
 -1      3764 1.14414E-04-3.98981E-05-3.19493E-05-2.20243E-06 1.59799E-18-4.88536E-18
 -1      3765 8.48052E-05-1.96078E-05-2.79823E-05 3.79559E-06 8.78199E-19-1.62435E-19
 -1      3766 8.30489E-05-1.85549E-05-2.76701E-05 4.23599E-06 7.43287E-19-2.27419E-20
 -1      3767 7.47360E-05-1.46018E-05-2.58578E-05 5.17403E-06-1.91595E-19 1.98743E-19
 -1      3768 7.13278E-05-1.33442E-05-2.48940E-05 6.35173E-06-7.81176E-19 4.56445E-19
 -1      3769 9.52384E-05-2.85735E-05-2.85707E-05-2.22110E-09-7.95252E-19-8.26477E-19
 -1      3770 9.52387E-05-2.85739E-05-2.85706E-05-2.60791E-09 1.63540E-19-1.61635E-20
 -1      3771 9.52393E-05-2.85745E-05-2.85706E-05-2.58358E-09 2.48640E-18 1.04139E-18
 -1      3772 9.52388E-05-2.85739E-05-2.85707E-05-1.91215E-09 2.57573E-19-2.62658E-19
 -1      3773 8.82931E-05-2.95384E-05-2.50878E-05-2.36124E-05 3.56020E-18-1.27138E-18
 -1      3774 9.55131E-05-3.43494E-05-2.62558E-05-2.27370E-05 3.56964E-18-2.14598E-18
 -1      3775 8.99836E-05-2.31235E-05-2.86730E-05 2.90151E-06-4.84964E-20-6.78528E-19
 -1      3776 8.90664E-05-2.23963E-05-2.85877E-05 3.22590E-06 5.62603E-20-8.64035E-19
 -1      3777 8.99118E-05-2.31340E-05-2.85921E-05 2.03055E-06 3.18520E-19-5.53220E-19
 -1      3778 9.34619E-05-2.61912E-05-2.88380E-05 1.64249E-06 6.34340E-19 1.72973E-19
 -1      3779 9.31437E-05-2.58389E-05-2.88480E-05 1.87291E-06 9.16809E-19-3.34733E-19
 -1      3780 9.33632E-05-2.61501E-05-2.87965E-05 1.31020E-06 3.77338E-19 2.53293E-19
 -1      3781 8.06288E-05-1.73144E-05-2.71977E-05 4.31907E-06 4.42965E-19 6.10604E-20
 -1      3782 7.82225E-05-1.61175E-05-2.66534E-05 4.95861E-06 2.73277E-19 8.07146E-20
 -1      3783 8.08827E-05-1.73687E-05-2.71374E-05 1.93476E-06 6.98298E-19-1.54716E-20
 -1      3784 8.78126E-05-2.15379E-05-2.84302E-05 3.34644E-06 3.65704E-19-4.11803E-19
 -1      3785 8.65374E-05-2.06500E-05-2.82592E-05 3.70769E-06 6.65465E-19-5.76338E-20
 -1      3786 8.49009E-05-1.96803E-05-2.78963E-05 2.11869E-06 8.58406E-19-3.06327E-19
 -1      3787 8.78012E-05-2.15832E-05-2.83412E-05 2.14327E-06 5.51423E-19-5.69163E-19
 -1      3788 5.66672E-05-8.84765E-06-2.01183E-05 1.03811E-05-1.10523E-18 2.37752E-18
 -1      3789 5.99417E-05-9.39748E-06-2.14913E-05 4.89922E-06-3.26202E-19 1.90638E-18
 -1      3790 1.12901E-04-4.03266E-05-3.10649E-05-3.74626E-06 1.93531E-18-4.25186E-18
 -1      3791 6.10256E-05-1.04797E-05-2.16865E-05-7.92980E-06 1.13786E-18 2.32698E-18
 -1      3792 6.36735E-05-1.32274E-05-2.13454E-05-1.69730E-05 2.26470E-18 2.62496E-18
 -1      3793 9.52391E-05-2.85741E-05-2.85707E-05 1.92534E-09 7.98271E-19-3.24987E-18
 -1      3794 6.27962E-05-1.04261E-05-2.24751E-05 5.51283E-06-5.50982E-19 1.50661E-18
 -1      3795 6.06582E-05-8.93750E-06-2.17877E-05-1.48778E-06 1.27647E-19 2.52278E-18
 -1      3796 6.45367E-05-1.14171E-05-2.26664E-05-6.61161E-06 9.26697E-19 1.79878E-18
 -1      3797 9.25604E-05-2.53731E-05-2.87814E-05 1.57463E-06 3.12741E-19-1.25156E-19
 -1      3798 9.52397E-05-2.85747E-05-2.85707E-05 1.95166E-10 1.53609E-18 5.10109E-19
 -1      3799 9.52397E-05-2.85747E-05-2.85707E-05-1.92795E-10 1.67520E-18 1.15030E-18
 -1      3800 9.52401E-05-2.85750E-05-2.85707E-05 4.81819E-10 6.72494E-19 4.88994E-19
 -1      3801 9.52392E-05-2.85742E-05-2.85707E-05-7.39769E-10 2.64650E-18 7.73055E-19
 -1      3802 7.52357E-05-1.45829E-05-2.58620E-05 1.66703E-06 1.01349E-19 1.07305E-19
 -1      3803 8.48783E-05-2.70830E-05-2.47494E-05-2.31291E-05 3.51933E-18-7.69397E-19
 -1      3804 8.96781E-05-2.89277E-05-2.59393E-05-1.98247E-05 3.14099E-18-1.29695E-18
 -1      3805 8.08288E-05-2.38534E-05-2.43889E-05-2.13307E-05 3.30244E-18 7.96079E-21
 -1      3806 1.12462E-04-4.23840E-05-2.99948E-05-1.21221E-05 3.25217E-18-4.00185E-18
 -1      3807 9.52394E-05-2.85744E-05-2.85707E-05 1.62524E-09 1.06633E-18-1.88880E-18
 -1      3808 7.04411E-05-1.68025E-05-2.27854E-05-1.79572E-05 2.34327E-18 1.44409E-18
 -1      3809 1.11768E-04-4.09283E-05-3.04644E-05-7.27182E-06 2.29672E-18-3.99421E-18
 -1      3810 1.00048E-04-3.65894E-05-2.70929E-05-2.03440E-05 3.32213E-18-2.39982E-18
 -1      3811 1.03717E-04-3.84393E-05-2.81122E-05-1.69174E-05 2.99189E-18-2.95932E-18
 -1      3812 9.65352E-05-3.35271E-05-2.69905E-05-1.86716E-05 2.87004E-18-2.12396E-18
 -1      3813 6.20627E-05-1.19960E-05-2.12582E-05 1.54035E-05-1.54025E-18 2.08100E-18
 -1      3814 9.52398E-05-2.85748E-05-2.85707E-05 1.59400E-09 6.38173E-19-1.16231E-18
 -1      3815 6.78550E-05-1.14891E-05-2.39342E-05 5.09852E-07-4.36768E-20 9.81314E-19
 -1      3816 6.73812E-05-1.19067E-05-2.37697E-05 5.84783E-06-5.48388E-19 1.16124E-18
 -1      3817 9.52391E-05-2.85742E-05-2.85707E-05-1.59526E-09 1.27041E-18 2.45134E-18
 -1      3818 9.52394E-05-2.85744E-05-2.85707E-05-1.89675E-09 2.38674E-18 2.51010E-18
 -1      3819 9.52394E-05-2.85744E-05-2.85707E-05-1.32166E-09 2.50878E-18 1.93065E-18
 -1      3820 7.68275E-05-1.58855E-05-2.61498E-05-1.66238E-06 5.24232E-19 1.21414E-20
 -1      3821 7.33962E-05-1.44579E-05-2.53252E-05-2.12727E-06 3.64135E-19 3.93437E-19
 -1      3822 1.01165E-04-3.44859E-05-2.85281E-05-9.86421E-06 1.63710E-18-2.24442E-18
 -1      3823 9.91298E-05-3.28643E-05-2.83582E-05-9.58531E-06 1.41681E-18-2.15945E-18
 -1      3824 9.76703E-05-3.14722E-05-2.83409E-05-8.58863E-06 8.78125E-19-2.16466E-18
 -1      3825 9.63601E-05-3.02822E-05-2.83045E-05-7.97162E-06 8.76193E-19-2.14800E-18
 -1      3826 9.66482E-05-3.12521E-05-2.80653E-05-1.05067E-05 1.18089E-18-1.92336E-18
 -1      3827 9.55812E-05-2.93674E-05-2.83503E-05-7.00257E-06 1.01361E-18-2.32469E-18
 -1      3828 9.47586E-05-2.85649E-05-2.83648E-05-6.34110E-06 8.03380E-19-1.96247E-18
 -1      3829 9.45272E-05-2.89622E-05-2.81353E-05-8.27385E-06 6.43792E-19-2.06626E-18
 -1      3830 9.44036E-05-2.80246E-05-2.84261E-05-5.49767E-06 5.86100E-19-1.64738E-18
 -1      3831 9.39429E-05-2.75466E-05-2.84572E-05-4.90099E-06 5.86961E-19-1.33663E-18
 -1      3832 9.34655E-05-2.75499E-05-2.82679E-05-6.31206E-06 9.64339E-19-1.84733E-18
 -1      3833 9.38416E-05-2.72687E-05-2.85150E-05-4.22134E-06 8.69822E-21-1.35549E-18
 -1      3834 9.36201E-05-2.70214E-05-2.85470E-05-3.72076E-06-6.77420E-20-1.54586E-18
 -1      3835 9.30571E-05-2.68120E-05-2.84015E-05-4.70983E-06 4.36327E-19-1.30273E-18
 -1      3836 9.36639E-05-2.69200E-05-2.85929E-05-3.18953E-06-6.98909E-20-1.90718E-18
 -1      3837 9.35944E-05-2.68311E-05-2.86181E-05-2.78481E-06-1.48914E-19-2.04186E-18
 -1      3838 9.30260E-05-2.64994E-05-2.85151E-05-3.46446E-06-3.19612E-19-1.80038E-18
 -1      3839 9.37134E-05-2.68436E-05-2.86504E-05-2.38208E-06-4.57921E-20-1.98706E-18
 -1      3840 9.37322E-05-2.68544E-05-2.86671E-05-2.06340E-06 1.05398E-19-1.93101E-18
 -1      3841 9.32069E-05-2.64771E-05-2.85989E-05-2.51792E-06-8.34726E-20-2.28727E-18
 -1      3842 9.38815E-05-2.69319E-05-2.86872E-05-1.76276E-06 2.27219E-19-1.69469E-18
 -1      3843 9.39459E-05-2.69998E-05-2.86958E-05-1.51564E-06 8.13829E-19-1.51584E-18
 -1      3844 9.34850E-05-2.66210E-05-2.86548E-05-1.81490E-06 4.80943E-19-1.82853E-18
 -1      3845 9.40991E-05-2.71096E-05-2.87061E-05-1.29355E-06 1.34736E-18-9.57768E-19
 -1      3846 9.41819E-05-2.72053E-05-2.87082E-05-1.10394E-06 1.73892E-18-2.89720E-19
 -1      3847 9.37925E-05-2.68509E-05-2.86873E-05-1.29871E-06 1.52773E-18-1.11254E-18
 -1      3848 9.43239E-05-2.73256E-05-2.87112E-05-9.41311E-07 1.73772E-18-2.27256E-19
 -1      3849 9.44087E-05-2.74298E-05-2.87085E-05-7.96981E-07 1.60186E-18 6.75080E-19
 -1      3850 9.40899E-05-2.71140E-05-2.87018E-05-9.23055E-07 1.70549E-18-8.68166E-19
 -1      3851 9.45323E-05-2.75469E-05-2.87065E-05-6.78619E-07 4.75660E-19 3.34873E-19
 -1      3852 9.46101E-05-2.76478E-05-2.87008E-05-5.69507E-07 1.53217E-19-5.72481E-20
 -1      3853 9.43559E-05-2.73765E-05-2.87034E-05-6.51401E-07 7.49978E-19-6.09968E-19
 -1      3854 9.47128E-05-2.77541E-05-2.86956E-05-4.83815E-07 3.02439E-19 1.86598E-19
 -1      3855 9.47794E-05-2.78452E-05-2.86882E-05-4.01883E-07 6.53232E-19 4.10143E-21
 -1      3856 9.45817E-05-2.76189E-05-2.86966E-05-4.55809E-07 2.24057E-19 1.78540E-19
 -1      3857 9.48616E-05-2.79371E-05-2.86813E-05-3.40167E-07 1.48920E-19-3.00696E-19
 -1      3858 9.49159E-05-2.80154E-05-2.86732E-05-2.79106E-07-2.47483E-20-6.77992E-19
 -1      3859 9.47658E-05-2.78313E-05-2.86847E-05-3.15502E-07 1.61459E-19-9.88599E-19
 -1      3860 9.49796E-05-2.80920E-05-2.86657E-05-2.34930E-07 3.74964E-19-1.12660E-18
 -1      3861 9.50219E-05-2.81567E-05-2.86577E-05-1.89832E-07 9.44965E-19-6.61644E-19
 -1      3862 9.49108E-05-2.80105E-05-2.86704E-05-2.15243E-07 1.51683E-19-7.87300E-19
 -1      3863 9.50698E-05-2.82186E-05-2.86503E-05-1.58444E-07 7.76974E-19-1.15642E-18
 -1      3864 9.51016E-05-2.82706E-05-2.86428E-05-1.25483E-07 4.29696E-19-1.18338E-18
 -1      3865 9.50216E-05-2.81568E-05-2.86554E-05-1.43944E-07 3.81876E-19-1.02039E-18
 -1      3866 9.51366E-05-2.83192E-05-2.86358E-05-1.03431E-07 3.38861E-19-1.10248E-18
 -1      3867 9.51596E-05-2.83598E-05-2.86292E-05-7.96895E-08 5.29689E-19-4.26951E-19
 -1      3868 9.51038E-05-2.82732E-05-2.86410E-05-9.35831E-08 8.12865E-19-1.98296E-18
 -1      3869 9.51843E-05-2.83970E-05-2.86229E-05-6.43908E-08-2.13433E-19-6.47647E-19
 -1      3870 9.52003E-05-2.84279E-05-2.86172E-05-4.75651E-08-3.72733E-19-5.82568E-19
 -1      3871 9.51628E-05-2.83635E-05-2.86278E-05-5.83819E-08 9.34658E-20-1.68831E-18
 -1      3872 9.52170E-05-2.84558E-05-2.86118E-05-3.71605E-08-2.33469E-20-1.10824E-18
 -1      3873 9.52275E-05-2.84787E-05-2.86070E-05-2.54940E-08-3.51542E-19-1.05204E-18
 -1      3874 9.52036E-05-2.84318E-05-2.86162E-05-3.40697E-08-3.38401E-19-1.49203E-18
 -1      3875 9.52383E-05-2.84990E-05-2.86025E-05-1.86037E-08-6.82864E-19-5.98800E-19
 -1      3876 9.52448E-05-2.85155E-05-2.85985E-05-1.07413E-08 7.61396E-20-3.84874E-19
 -1      3877 9.52307E-05-2.84823E-05-2.86062E-05-1.76166E-08-3.86889E-19-6.86089E-19
 -1      3878 9.52512E-05-2.85299E-05-2.85948E-05-6.34877E-09 8.03779E-19-1.08462E-18
 -1      3879 9.52548E-05-2.85414E-05-2.85916E-05-1.25304E-09 9.99172E-19-5.66885E-19
 -1      3880 9.52476E-05-2.85187E-05-2.85980E-05-6.77605E-09 3.52403E-19-7.91035E-19
 -1      3881 9.52582E-05-2.85513E-05-2.85886E-05 1.38736E-09 4.79827E-19-3.84723E-19
 -1      3882 9.52598E-05-2.85591E-05-2.85861E-05 4.50507E-09-3.84575E-19-6.26959E-19
 -1      3883 9.52573E-05-2.85441E-05-2.85913E-05 8.86919E-11 7.97302E-19-1.06708E-18
 -1      3884 9.52611E-05-2.85655E-05-2.85838E-05 5.93931E-09-9.63061E-19-4.79257E-19
 -1      3885 9.52614E-05-2.85705E-05-2.85818E-05 7.67294E-09-8.29551E-19-2.30393E-19
 -1      3886 9.52618E-05-2.85612E-05-2.85859E-05 4.17406E-09-6.57024E-19-3.75496E-21
 -1      3887 9.52613E-05-2.85745E-05-2.85800E-05 8.29807E-09-6.09205E-19-4.27357E-19
 -1      3888 9.52608E-05-2.85775E-05-2.85786E-05 9.08975E-09-2.19363E-19 2.66461E-19
 -1      3889 9.52630E-05-2.85722E-05-2.85817E-05 6.35257E-09-7.99145E-19 2.97185E-21
 -1      3890 9.52599E-05-2.85797E-05-2.85772E-05 9.19166E-09 2.47548E-19-5.26329E-21
 -1      3891 9.52589E-05-2.85813E-05-2.85761E-05 9.36607E-09 4.56877E-19 2.81501E-19
 -1      3892 9.52620E-05-2.85788E-05-2.85785E-05 7.25685E-09 1.07568E-19-7.16073E-21
 -1      3893 9.52576E-05-2.85823E-05-2.85751E-05 9.14789E-09-4.87898E-19 7.26428E-19
 -1      3894 9.52563E-05-2.85829E-05-2.85743E-05 8.93904E-09-1.24547E-18 7.99987E-19
 -1      3895 9.52599E-05-2.85823E-05-2.85761E-05 7.34183E-09 1.03459E-19 5.06805E-19
 -1      3896 9.52549E-05-2.85831E-05-2.85736E-05 8.54221E-09-1.09408E-18 1.05337E-18
 -1      3897 9.52536E-05-2.85832E-05-2.85730E-05 8.11526E-09-1.05186E-18 1.65128E-18
 -1      3898 9.52571E-05-2.85837E-05-2.85744E-05 6.92943E-09-8.06912E-19 1.06799E-18
 -1      3899 9.52521E-05-2.85829E-05-2.85725E-05 7.63591E-09-1.81198E-18 1.69211E-18
 -1      3900 9.52509E-05-2.85825E-05-2.85721E-05 7.10429E-09-1.11552E-18 2.26322E-18
 -1      3901 9.52541E-05-2.85837E-05-2.85731E-05 6.24357E-09-8.63205E-19 1.32671E-18
 -1      3902 9.52495E-05-2.85820E-05-2.85718E-05 6.60544E-09-1.40716E-18 2.32476E-18
 -1      3903 9.52483E-05-2.85814E-05-2.85715E-05 6.04425E-09-1.20521E-18 1.30984E-18
 -1      3904 9.52513E-05-2.85829E-05-2.85722E-05 5.43593E-09-1.51165E-18 1.80030E-18
 -1      3905 9.52471E-05-2.85807E-05-2.85713E-05 5.56514E-09-7.78168E-19 3.11466E-19
 -1      3906 9.52461E-05-2.85801E-05-2.85711E-05 5.02164E-09-1.39999E-19-7.30533E-19
 -1      3907 9.52486E-05-2.85817E-05-2.85716E-05 4.60554E-09-1.39679E-18 4.15528E-19
 -1      3908 9.52450E-05-2.85794E-05-2.85710E-05 4.58470E-09-2.30921E-19-1.14462E-18
 -1      3909 9.52441E-05-2.85787E-05-2.85709E-05 4.08632E-09-6.14113E-19-1.51574E-18
 -1      3910 9.52463E-05-2.85803E-05-2.85712E-05 3.81363E-09-7.31904E-19-2.41447E-19
 -1      3911 9.52432E-05-2.85780E-05-2.85708E-05 3.70243E-09 2.21514E-19-1.41223E-18
 -1      3912 9.52425E-05-2.85774E-05-2.85708E-05 3.26245E-09 3.12132E-19-1.31975E-18
 -1      3913 9.52443E-05-2.85788E-05-2.85709E-05 3.09488E-09-1.48006E-19-7.81467E-19
 -1      3914 9.52418E-05-2.85768E-05-2.85707E-05 2.93632E-09 2.46388E-19-1.04399E-18
 -1      3915 9.52412E-05-2.85762E-05-2.85707E-05 2.55454E-09 4.52166E-19-1.22394E-18
 -1      3916 9.52426E-05-2.85775E-05-2.85708E-05 2.46748E-09 2.66834E-19-4.13851E-20
 -1      3917 9.52407E-05-2.85757E-05-2.85707E-05 2.18992E-09 1.65894E-19-1.09012E-18
 -1      3918 9.52402E-05-2.85753E-05-2.85707E-05 1.88135E-09 5.56081E-19-9.13224E-19
 -1      3919 9.52404E-05-2.85754E-05-2.85707E-05 1.21315E-09-2.34334E-19 1.06009E-18
 -1      3920 9.52414E-05-2.85763E-05-2.85707E-05 1.82577E-09-6.65035E-19 7.87221E-19
 -1      3921 9.46203E-05-2.76026E-05-2.87243E-05 4.79771E-07 6.09593E-19-3.11038E-19
 -1      3922 9.44996E-05-2.74482E-05-2.87372E-05 5.61234E-07 1.01482E-18-3.40510E-19
 -1      3923 9.15022E-05-2.45906E-05-2.86840E-05 1.16377E-06 4.35631E-19-4.79076E-19
 -1      3924 9.08412E-05-2.40541E-05-2.86368E-05 1.23592E-06 5.88004E-19-3.02742E-19
 -1      3925 9.43297E-05-2.72636E-05-2.87458E-05 6.18846E-07 8.65217E-19-4.29633E-19
 -1      3926 9.41589E-05-2.70629E-05-2.87572E-05 7.13959E-07 8.70694E-19-2.33807E-19
 -1      3927 9.43255E-05-2.72766E-05-2.87312E-05 4.62527E-07 1.00844E-18-1.05857E-18
 -1      3928 9.39137E-05-2.68120E-05-2.87618E-05 7.76365E-07 1.00509E-18-1.30186E-19
 -1      3929 9.36575E-05-2.65371E-05-2.87691E-05 8.86696E-07 8.59367E-19 9.18494E-21
 -1      3930 9.39180E-05-2.68386E-05-2.87427E-05 5.62154E-07 1.03183E-18-2.73291E-19
 -1      3931 9.48279E-05-2.78627E-05-2.87013E-05 3.60806E-07 4.72587E-19-1.55026E-19
 -1      3932 9.47434E-05-2.77448E-05-2.87140E-05 4.28060E-07 5.20028E-19-3.01146E-19
 -1      3933 9.46136E-05-2.76088E-05-2.87135E-05 3.66446E-07 5.14711E-19-5.30460E-19
 -1      3934 9.49746E-05-2.80604E-05-2.86790E-05 2.63169E-07 5.43926E-19 2.96321E-20
 -1      3935 9.49161E-05-2.79712E-05-2.86907E-05 3.16996E-07 2.06594E-19-5.58574E-20
 -1      3936 9.48215E-05-2.78655E-05-2.86935E-05 2.79847E-07 1.92513E-19-2.17599E-20
 -1      3937 9.50769E-05-2.82094E-05-2.86586E-05 1.85693E-07 3.73977E-19 4.38907E-19
 -1      3938 9.50370E-05-2.81424E-05-2.86690E-05 2.27609E-07 8.90334E-19 1.66787E-19
 -1      3939 9.49698E-05-2.80618E-05-2.86734E-05 2.06363E-07 1.59474E-19 3.14006E-19
 -1      3940 9.51471E-05-2.83205E-05-2.86408E-05 1.26000E-07 1.29967E-18 5.96568E-19
 -1      3941 9.51203E-05-2.82707E-05-2.86497E-05 1.57808E-07 9.26515E-19 7.39003E-19
 -1      3942 9.50739E-05-2.82105E-05-2.86548E-05 1.46714E-07 7.47340E-19 2.01626E-19
 -1      3943 9.51941E-05-2.84023E-05-2.86256E-05 8.13257E-08 2.37652E-19 1.46091E-18
 -1      3944 9.51766E-05-2.83658E-05-2.86330E-05 1.04879E-07 1.20073E-18 1.29757E-18
 -1      3945 9.51457E-05-2.83216E-05-2.86383E-05 1.00078E-07 7.37555E-19 1.14407E-18
 -1      3946 9.52245E-05-2.84617E-05-2.86130E-05 4.87957E-08-5.19385E-19 5.52758E-19
 -1      3947 9.52135E-05-2.84353E-05-2.86191E-05 6.57634E-08-2.53966E-19 7.61589E-19
 -1      3948 9.51940E-05-2.84036E-05-2.86240E-05 6.47875E-08 2.12824E-19 8.74731E-19
 -1      3949 9.52434E-05-2.85041E-05-2.86028E-05 2.58636E-08 7.56017E-19-3.57899E-19
 -1      3950 9.52369E-05-2.84853E-05-2.86076E-05 3.77271E-08-6.63068E-20 1.56567E-19
 -1      3951 9.52254E-05-2.84632E-05-2.86121E-05 3.89018E-08 1.31097E-19 1.92573E-19
 -1      3952 9.52541E-05-2.85337E-05-2.85946E-05 1.02750E-08 5.89949E-19-9.02899E-19
 -1      3953 9.52507E-05-2.85207E-05-2.85984E-05 1.82734E-08 8.63516E-19-5.20389E-19
 -1      3954 9.52448E-05-2.85057E-05-2.86023E-05 2.05642E-08 8.47224E-19 1.20539E-19
 -1      3955 9.52595E-05-2.85538E-05-2.85882E-05 1.66835E-10-1.06294E-18-9.40623E-20
 -1      3956 9.52580E-05-2.85450E-05-2.85912E-05 5.30770E-09-4.81717E-19-3.66556E-19
 -1      3957 9.52558E-05-2.85353E-05-2.85944E-05 8.06098E-09-6.67731E-20 1.35351E-18
 -1      3958 9.52612E-05-2.85670E-05-2.85833E-05-5.95984E-09-1.34398E-18 5.39848E-19
 -1      3959 9.52611E-05-2.85613E-05-2.85855E-05-2.87858E-09-1.06134E-18-2.81660E-19
 -1      3960 9.52612E-05-2.85554E-05-2.85882E-05-5.66336E-11-1.06542E-18 8.43664E-19
 -1      3961 9.52607E-05-2.85752E-05-2.85795E-05-9.28559E-09-1.14933E-18 2.28767E-19
 -1      3962 9.52613E-05-2.85717E-05-2.85812E-05-7.64039E-09-9.11792E-19 6.70592E-19
 -1      3963 9.52629E-05-2.85684E-05-2.85834E-05-4.97538E-09-1.49315E-18 6.96522E-19
 -1      3964 9.52588E-05-2.85800E-05-2.85766E-05-1.07259E-08-9.82604E-19 6.86047E-20
 -1      3965 9.52599E-05-2.85780E-05-2.85779E-05-1.00587E-08-7.93114E-19-1.94024E-19
 -1      3966 9.52623E-05-2.85765E-05-2.85796E-05-7.65827E-09-8.81003E-19-6.15298E-19
 -1      3967 9.52563E-05-2.85821E-05-2.85746E-05-1.08306E-08-6.58295E-19 2.13482E-19
 -1      3968 9.52575E-05-2.85813E-05-2.85755E-05-1.08215E-08-9.40934E-19-5.37930E-20
 -1      3969 9.52602E-05-2.85811E-05-2.85768E-05-8.76639E-09-9.17828E-19-1.45625E-18
 -1      3970 9.52536E-05-2.85827E-05-2.85732E-05-1.02012E-08-2.33987E-19-9.42670E-19
 -1      3971 9.52548E-05-2.85826E-05-2.85738E-05-1.05652E-08-6.31014E-19-3.39105E-21
 -1      3972 9.52575E-05-2.85830E-05-2.85748E-05-8.83323E-09-4.07599E-19-1.27867E-18
 -1      3973 9.52509E-05-2.85824E-05-2.85722E-05-9.16560E-09 2.58554E-20 2.88057E-19
 -1      3974 9.52521E-05-2.85826E-05-2.85726E-05-9.72990E-09 5.41655E-19 1.75333E-19
 -1      3975 9.52545E-05-2.85835E-05-2.85734E-05-8.30397E-09-7.64287E-19-7.00946E-19
 -1      3976 9.52484E-05-2.85814E-05-2.85715E-05-7.95225E-09-1.22702E-18 3.74888E-19
 -1      3977 9.52495E-05-2.85819E-05-2.85718E-05-8.60072E-09-3.31306E-19 7.28947E-19
 -1      3978 9.52517E-05-2.85829E-05-2.85723E-05-7.44931E-09-8.59551E-19 1.03909E-18
 -1      3979 9.52461E-05-2.85802E-05-2.85711E-05-6.71026E-09-4.42047E-19 5.52510E-19
 -1      3980 9.52471E-05-2.85808E-05-2.85713E-05-7.36757E-09-1.64660E-18 2.11027E-19
 -1      3981 9.52490E-05-2.85819E-05-2.85717E-05-6.45417E-09-1.56693E-18 1.65943E-18
 -1      3982 9.52442E-05-2.85789E-05-2.85709E-05-5.53123E-09-7.92781E-19 2.35447E-18
 -1      3983 9.52450E-05-2.85795E-05-2.85709E-05-6.15151E-09 3.50520E-19 1.77016E-18
 -1      3984 9.52466E-05-2.85805E-05-2.85712E-05-5.43908E-09-1.53860E-18 1.55774E-18
 -1      3985 9.52426E-05-2.85776E-05-2.85707E-05-4.46623E-09-4.54248E-19 2.54054E-18
 -1      3986 9.52433E-05-2.85782E-05-2.85708E-05-5.02426E-09-7.19693E-19 2.18760E-18
 -1      3987 9.52446E-05-2.85791E-05-2.85709E-05-4.47782E-09-7.46380E-19 2.19668E-18
 -1      3988 9.52413E-05-2.85764E-05-2.85707E-05-3.53839E-09-9.81351E-19 3.08505E-18
 -1      3989 9.52418E-05-2.85769E-05-2.85707E-05-4.02310E-09-6.39598E-19 2.39891E-18
 -1      3990 9.52429E-05-2.85778E-05-2.85708E-05-3.61132E-09-5.10330E-19 1.40146E-18
 -1      3991 9.52402E-05-2.85754E-05-2.85707E-05-2.75603E-09 2.63137E-18 2.69583E-18
 -1      3992 9.52407E-05-2.85758E-05-2.85706E-05-3.16237E-09 6.07253E-19 3.26343E-18
 -1      3993 9.52415E-05-2.85765E-05-2.85707E-05-2.85963E-09-3.86177E-19 1.70764E-18
 -1      3994 9.52397E-05-2.85746E-05-2.85707E-05-5.89325E-10 2.17139E-18 1.09943E-18
 -1      3995 9.52396E-05-2.85745E-05-2.85707E-05-9.57715E-10 2.32673E-18 8.53125E-19
 -1      3996 9.52399E-05-2.85749E-05-2.85707E-05-1.18761E-09 2.17039E-18 1.02930E-18
 -1      3997 9.52401E-05-2.85751E-05-2.85707E-05-4.05419E-10 1.47874E-18 4.89812E-19
 -1      3998 1.08662E-04-4.01845E-05-2.92186E-05-1.20071E-05 2.74640E-18-3.40893E-18
 -1      3999 7.11701E-05-1.35768E-05-2.46702E-05-3.36161E-06 5.35095E-19 5.85809E-19
 -1      4000 6.72107E-05-1.22325E-05-2.36098E-05-4.79847E-06 5.09573E-19 1.17785E-18
 -1      4001 6.91891E-05-1.38172E-05-2.35873E-05-1.05758E-05 1.35815E-18 1.02697E-18
 -1      4002 7.39370E-05-1.51310E-05-2.50814E-05-6.91048E-06 7.79267E-19 5.20326E-19
 -1      4003 9.52397E-05-2.85747E-05-2.85707E-05-2.11773E-09 3.16103E-18 1.76743E-18
 -1      4004 9.52399E-05-2.85751E-05-2.85707E-05-2.48669E-09 3.64668E-18 3.12703E-18
 -1      4005 9.52406E-05-2.85756E-05-2.85707E-05-2.25328E-09 2.17687E-18 2.16813E-18
 -1      4006 9.52400E-05-2.85750E-05-2.85707E-05-1.77421E-09 2.95111E-18 2.47215E-18
 -1      4007 9.00672E-05-2.34561E-05-2.85570E-05 1.14597E-06 5.61554E-19-5.00183E-19
 -1      4008 8.91557E-05-2.27890E-05-2.84632E-05 1.16305E-06 5.07187E-19-5.08062E-19
 -1      4009 9.03045E-05-2.36948E-05-2.85266E-05 4.51958E-07 3.76997E-19-6.90548E-19
 -1      4010 1.09745E-04-2.72680E-05-3.54307E-05 4.44135E-06-1.36366E-18-5.88419E-18
 -1      4011 1.05183E-04-3.79302E-05-2.87809E-05-1.20486E-05 2.31494E-18-2.94929E-18
 -1      4012 1.02484E-04-3.60017E-05-2.84241E-05-1.21253E-05 1.98250E-18-2.62125E-18
 -1      4013 8.18469E-05-1.83230E-05-2.72510E-05-3.31469E-07 8.61513E-19-4.19908E-19
 -1      4014 7.94403E-05-1.71268E-05-2.67645E-05-6.52832E-07 6.15058E-19-1.72806E-19
 -1      4015 7.87127E-05-1.70655E-05-2.63473E-05-4.11247E-06 7.22087E-19-1.58558E-19
 -1      4016 9.25607E-05-2.55041E-05-2.87446E-05 1.07710E-06 1.28772E-19-1.38674E-19
 -1      4017 9.20831E-05-2.50764E-05-2.87259E-05 1.17703E-06 3.53754E-19-2.85210E-19
 -1      4018 9.16293E-05-2.47384E-05-2.86523E-05 6.39906E-07 4.75406E-19-8.97975E-19
 -1      4019 7.15135E-05-1.63311E-05-2.36748E-05-1.43891E-05 1.77120E-18 8.41845E-19
 -1      4020 7.59345E-05-2.01236E-05-2.38494E-05-1.93813E-05 2.66268E-18 5.09927E-19
 -1      4021 8.17287E-05-2.29071E-05-2.51006E-05-1.78752E-05 2.78761E-18-4.49844E-19
 -1      4022 7.41640E-05-1.67739E-05-2.45076E-05-1.21983E-05 1.62594E-18 5.03263E-19
 -1      4023 9.33364E-05-2.62296E-05-2.87651E-05 9.38349E-07 4.78030E-19-1.20075E-19
 -1      4024 9.29932E-05-2.58927E-05-2.87629E-05 1.04744E-06 3.87182E-19 1.36187E-19
 -1      4025 9.33600E-05-2.62791E-05-2.87408E-05 6.46098E-07 6.65345E-19-6.02827E-19
 -1      4026 9.52406E-05-2.85755E-05-2.85707E-05 6.35351E-10-8.15561E-19 1.87524E-19
 -1      4027 9.52406E-05-2.85756E-05-2.85708E-05 1.39358E-10-3.39763E-19-3.53202E-19
 -1      4028 9.52410E-05-2.85760E-05-2.85707E-05 8.81402E-10-2.01462E-18 8.61800E-19
 -1      4029 9.91433E-05-3.41218E-05-2.79013E-05-1.39466E-05 2.15363E-18-2.38096E-18
 -1      4030 9.31719E-05-3.05136E-05-2.68207E-05-1.71624E-05 2.41224E-18-1.75003E-18
 -1      4031 9.65867E-05-3.25508E-05-2.74616E-05-1.51657E-05 2.33972E-18-2.35050E-18
 -1      4032 9.57068E-05-3.11769E-05-2.76828E-05-1.28573E-05 1.71751E-18-2.06293E-18
 -1      4033 8.54646E-05-2.03590E-05-2.79199E-05 5.05548E-07 7.53045E-19-2.95585E-19
 -1      4034 8.37401E-05-1.93693E-05-2.76295E-05 3.22242E-07 1.06171E-18-1.61433E-19
 -1      4035 8.29929E-05-1.91372E-05-2.73215E-05-2.06277E-06 9.29840E-19-3.77415E-19
 -1      4036 8.85362E-05-2.24229E-05-2.83048E-05 2.14594E-08 5.66534E-19-8.52793E-19
 -1      4037 8.81182E-05-2.20571E-05-2.83242E-05 9.55842E-07 4.36915E-19-4.36414E-19
 -1      4038 8.68700E-05-2.12440E-05-2.81550E-05 8.91570E-07 7.18066E-19-2.84265E-19
 -1      4039 9.26219E-05-2.55927E-05-2.87158E-05 6.85193E-07 1.70993E-19-7.98528E-19
 -1      4040 9.01844E-05-2.82290E-05-2.65235E-05-1.66653E-05 2.36297E-18-1.56980E-18
 -1      4041 9.34473E-05-2.64264E-05-2.87256E-05 3.56216E-07 8.69437E-19-5.87746E-19
 -1      4042 9.31274E-05-2.61312E-05-2.87189E-05 3.71290E-07 4.68638E-19-8.52279E-19
 -1      4043 6.81823E-05-1.23928E-05-2.37273E-05 1.14381E-05-9.23425E-19 1.03543E-18
 -1      4044 9.31724E-05-2.80109E-05-2.78890E-05-9.19445E-06 6.01997E-19-1.56914E-18
 -1      4045 9.23873E-05-2.71840E-05-2.79663E-05-8.05714E-06 6.88757E-19-1.43726E-18
 -1      4046 9.24110E-05-2.67515E-05-2.81030E-05-6.78354E-06 9.27211E-19-1.21005E-18
 -1      4047 9.20529E-05-2.63231E-05-2.81809E-05-5.88265E-06 1.00107E-18-1.28916E-18
 -1      4048 9.08130E-05-2.58088E-05-2.78592E-05-7.66125E-06 8.49974E-19-9.56423E-19
 -1      4049 9.21987E-05-2.61297E-05-2.82929E-05-4.95193E-06 5.76598E-19-1.44112E-18
 -1      4050 9.20918E-05-2.59525E-05-2.83618E-05-4.23216E-06-6.18638E-21-1.64046E-18
 -1      4051 9.10553E-05-2.53877E-05-2.81376E-05-5.40540E-06 5.99213E-19-1.19956E-18
 -1      4052 9.23772E-05-2.59659E-05-2.84453E-05-3.53424E-06-3.05550E-19-1.69946E-18
 -1      4053 9.24199E-05-2.59487E-05-2.84981E-05-3.00148E-06-2.56267E-19-1.49543E-18
 -1      4054 9.14685E-05-2.53332E-05-2.83422E-05-3.74672E-06-2.43461E-19-1.82659E-18
 -1      4055 9.26989E-05-2.60484E-05-2.85560E-05-2.50168E-06-2.12534E-19-1.31762E-18
 -1      4056 9.28269E-05-2.61312E-05-2.85924E-05-2.10670E-06 5.77144E-20-1.24953E-18
 -1      4057 9.20489E-05-2.55457E-05-2.84944E-05-2.53151E-06-1.89532E-19-8.68530E-19
 -1      4058 9.30994E-05-2.62842E-05-2.86299E-05-1.75516E-06 4.45483E-19-1.23529E-18
 -1      4059 9.32550E-05-2.64153E-05-2.86526E-05-1.46627E-06 7.89804E-19-8.33752E-19
 -1      4060 9.26170E-05-2.58853E-05-2.85932E-05-1.71302E-06 4.89504E-19-2.37553E-19
 -1      4061 9.35023E-05-2.65881E-05-2.86744E-05-1.22211E-06 9.46138E-19-9.35175E-19
 -1      4062 9.36600E-05-2.67383E-05-2.86862E-05-1.01280E-06 1.66136E-18-8.76818E-19
 -1      4063 9.31463E-05-2.62751E-05-2.86542E-05-1.14490E-06 9.02799E-19-7.66142E-19
 -1      4064 9.38731E-05-2.69103E-05-2.86966E-05-8.45766E-07 1.76126E-18-9.05037E-19
 -1      4065 9.40185E-05-2.70604E-05-2.87005E-05-6.95096E-07 1.64044E-18-1.07958E-18
 -1      4066 9.36121E-05-2.66664E-05-2.86870E-05-7.58110E-07 1.54922E-18-2.06188E-18
 -1      4067 9.41955E-05-2.72196E-05-2.87031E-05-5.81818E-07 1.13946E-18-5.36901E-19
 -1      4068 9.43215E-05-2.73584E-05-2.87016E-05-4.73744E-07 6.02174E-19-5.14612E-19
 -1      4069 9.40049E-05-2.70305E-05-2.87001E-05-4.97644E-07 1.41649E-18-1.18707E-18
 -1      4070 9.44643E-05-2.74988E-05-2.86991E-05-3.97613E-07 2.21759E-19-5.42477E-19
 -1      4071 9.45687E-05-2.76209E-05-2.86942E-05-3.20292E-07 3.81236E-19-7.84983E-19
 -1      4072 9.43259E-05-2.73530E-05-2.87002E-05-3.23755E-07 4.18827E-19-9.07458E-19
 -1      4073 9.46809E-05-2.77402E-05-2.86888E-05-2.69487E-07-2.43215E-20-8.77243E-19
 -1      4074 9.47644E-05-2.78435E-05-2.86821E-05-2.14282E-07-2.41277E-19-1.12683E-18
 -1      4075 9.45812E-05-2.76285E-05-2.86922E-05-2.08639E-07 6.28108E-20-1.12946E-18
 -1      4076 9.48505E-05-2.79419E-05-2.86751E-05-1.80597E-07 3.74960E-21-1.61913E-18
 -1      4077 9.49151E-05-2.80267E-05-2.86677E-05-1.41275E-07-2.88028E-20-1.51795E-18
 -1      4078 9.47794E-05-2.78570E-05-2.86797E-05-1.32914E-07-5.21419E-20-1.06909E-18
 -1      4079 9.49796E-05-2.81058E-05-2.86603E-05-1.19160E-07-2.82063E-20-1.40102E-18
 -1      4080 9.50281E-05-2.81735E-05-2.86529E-05-9.13137E-08 9.33679E-20-1.72137E-18
 -1      4081 9.49298E-05-2.80420E-05-2.86652E-05-8.32822E-08-1.08936E-19-2.00268E-18
 -1      4082 9.50753E-05-2.82357E-05-2.86456E-05-7.66130E-08 4.90642E-19-2.31638E-18
 -1      4083 9.51108E-05-2.82887E-05-2.86387E-05-5.70680E-08 9.01980E-19-2.38760E-18
 -1      4084 9.50407E-05-2.81876E-05-2.86505E-05-5.13452E-08-2.93992E-19-1.66499E-18
 -1      4085 9.51441E-05-2.83363E-05-2.86320E-05-4.77443E-08 6.81365E-19-2.26954E-18
 -1      4086 9.51691E-05-2.83767E-05-2.86258E-05-3.39296E-08 3.69190E-20-2.46814E-18
 -1      4087 9.51210E-05-2.83015E-05-2.86365E-05-3.02914E-08 5.07641E-19-2.33138E-18
 -1      4088 9.51921E-05-2.84126E-05-2.86199E-05-2.80344E-08-3.38348E-19-1.95541E-18
 -1      4089 9.52091E-05-2.84426E-05-2.86144E-05-1.85046E-08-7.49810E-21-1.54908E-18
 -1      4090 9.51771E-05-2.83874E-05-2.86239E-05-1.68418E-08 2.81321E-19-2.74769E-18
 -1      4091 9.52241E-05-2.84690E-05-2.86094E-05-1.48510E-08-2.11715E-19-1.26746E-18
 -1      4092 9.52351E-05-2.84909E-05-2.86048E-05-8.39956E-09 8.31453E-20-1.23118E-18
 -1      4093 9.52149E-05-2.84512E-05-2.86129E-05-8.35312E-09 5.18850E-19-2.67227E-18
 -1      4094 9.52445E-05-2.85098E-05-2.86006E-05-6.22518E-09-5.57278E-19-1.38183E-18
 -1      4095 9.52510E-05-2.85252E-05-2.85969E-05-1.97494E-09 6.11153E-19-2.03292E-18
 -1      4096 9.52393E-05-2.84974E-05-2.86035E-05-3.06804E-09-1.33875E-19-2.29294E-18
 -1      4097 9.52563E-05-2.85384E-05-2.85934E-05-7.68300E-10 1.15465E-18-1.92463E-18
 -1      4098 9.52598E-05-2.85490E-05-2.85904E-05 1.92100E-09 4.60794E-19-1.41062E-18
 -1      4099 9.52539E-05-2.85301E-05-2.85958E-05 1.16406E-10 6.43179E-19-2.76339E-18
 -1      4100 9.52623E-05-2.85578E-05-2.85877E-05 2.50307E-09-4.81978E-20-1.15695E-18
 -1      4101 9.52637E-05-2.85647E-05-2.85853E-05 4.10021E-09-7.00815E-19-1.85413E-19
 -1      4102 9.52616E-05-2.85525E-05-2.85896E-05 1.92971E-09 2.66712E-19-2.77444E-18
 -1      4103 9.52643E-05-2.85704E-05-2.85831E-05 4.28799E-09-1.27462E-18 6.07260E-19
 -1      4104 9.52643E-05-2.85747E-05-2.85813E-05 5.13507E-09-7.16394E-19-5.91423E-20
 -1      4105 9.52648E-05-2.85672E-05-2.85847E-05 2.85533E-09-7.30206E-19-6.02544E-19
 -1      4106 9.52638E-05-2.85780E-05-2.85796E-05 5.08208E-09-5.36333E-20 1.07427E-18
 -1      4107 9.52629E-05-2.85805E-05-2.85782E-05 5.42808E-09 6.02203E-19 9.31037E-19
 -1      4108 9.52649E-05-2.85764E-05-2.85808E-05 3.21521E-09-5.94396E-20 2.12236E-18
 -1      4109 9.52617E-05-2.85822E-05-2.85769E-05 5.23874E-09 3.41881E-19 5.38098E-19
 -1      4110 9.52605E-05-2.85834E-05-2.85759E-05 5.26186E-09-7.72170E-19 5.11534E-19
 -1      4111 9.52632E-05-2.85815E-05-2.85779E-05 3.22633E-09-9.37198E-20 1.11684E-18
 -1      4112 9.52589E-05-2.85840E-05-2.85750E-05 5.00395E-09-7.14436E-19 5.67853E-19
 -1      4113 9.52575E-05-2.85843E-05-2.85742E-05 4.83124E-09-1.02971E-19 1.04848E-18
 -1      4114 9.52605E-05-2.85840E-05-2.85757E-05 3.03126E-09-5.04010E-19 5.17292E-19
 -1      4115 9.52558E-05-2.85843E-05-2.85735E-05 4.54880E-09-1.02765E-18 7.90461E-19
 -1      4116 9.52544E-05-2.85840E-05-2.85730E-05 4.26874E-09-1.31695E-18 4.19221E-19
 -1      4117 9.52573E-05-2.85847E-05-2.85740E-05 2.72626E-09-7.93396E-19 1.57093E-19
 -1      4118 9.52528E-05-2.85836E-05-2.85725E-05 3.98924E-09-1.24441E-18 7.64472E-19
 -1      4119 9.52514E-05-2.85830E-05-2.85721E-05 3.66184E-09-1.50807E-18 8.26475E-19
 -1      4120 9.52542E-05-2.85842E-05-2.85729E-05 2.37427E-09-5.33046E-19 3.03500E-19
 -1      4121 9.52499E-05-2.85824E-05-2.85718E-05 3.40147E-09-1.32709E-18 1.23485E-18
 -1      4122 9.52487E-05-2.85817E-05-2.85715E-05 3.06595E-09-1.30169E-18 1.00272E-18
 -1      4123 9.52511E-05-2.85831E-05-2.85721E-05 2.01549E-09-1.20179E-18 7.45678E-19
 -1      4124 9.52474E-05-2.85809E-05-2.85713E-05 2.83327E-09-1.40534E-18 2.22914E-19
 -1      4125 9.52463E-05-2.85802E-05-2.85712E-05 2.51383E-09-8.97546E-19-4.67563E-19
 -1      4126 9.52484E-05-2.85816E-05-2.85715E-05 1.67446E-09-1.76674E-18 3.78170E-19
 -1      4127 9.52452E-05-2.85794E-05-2.85710E-05 2.31224E-09-1.92701E-19-5.26935E-19
 -1      4128 9.52442E-05-2.85787E-05-2.85709E-05 2.02243E-09 1.33370E-19-5.15726E-19
 -1      4129 9.52461E-05-2.85801E-05-2.85712E-05 1.36521E-09-1.05705E-18-2.81019E-19
 -1      4130 9.52433E-05-2.85780E-05-2.85709E-05 1.85142E-09 8.02774E-19 3.30205E-19
 -1      4131 9.52426E-05-2.85773E-05-2.85708E-05 1.59979E-09 7.27037E-19 8.83551E-19
 -1      4132 9.52441E-05-2.85786E-05-2.85709E-05 1.09686E-09 1.20274E-18-2.03219E-19
 -1      4133 9.52420E-05-2.85769E-05-2.85708E-05 1.37798E-09-3.52175E-19 9.15970E-19
 -1      4134 9.52415E-05-2.85764E-05-2.85708E-05 1.05029E-09-1.35885E-18 1.08109E-18
 -1      4135 9.52416E-05-2.85765E-05-2.85708E-05 4.27420E-10-1.89465E-18-3.41346E-19
 -1      4136 9.52426E-05-2.85774E-05-2.85708E-05 7.82456E-10 6.40732E-19 2.26593E-19
 -1      4137 9.46276E-05-2.76562E-05-2.87037E-05 2.42899E-07 3.06477E-19-5.68020E-19
 -1      4138 9.45046E-05-2.75112E-05-2.87130E-05 2.82676E-07 1.86372E-19-8.75174E-19
 -1      4139 9.39776E-05-2.69493E-05-2.87286E-05 3.40348E-07 1.22848E-18-1.02634E-18
 -1      4140 9.37326E-05-2.67030E-05-2.87310E-05 3.75616E-07 1.26325E-18-8.03457E-19
 -1      4141 9.35600E-05-2.65475E-05-2.87133E-05 1.25553E-07 8.39248E-19-1.18152E-18
 -1      4142 9.49742E-05-2.80859E-05-2.86675E-05 1.41500E-07 4.06747E-20-2.53969E-19
 -1      4143 9.49118E-05-2.80000E-05-2.86770E-05 1.71780E-07-1.37747E-19-5.24090E-19
 -1      4144 9.50768E-05-2.82280E-05-2.86503E-05 1.01182E-07 8.34316E-19 1.21441E-19
 -1      4145 9.50335E-05-2.81629E-05-2.86590E-05 1.25830E-07 5.74423E-19-8.55026E-20
 -1      4146 9.49853E-05-2.81028E-05-2.86627E-05 9.30664E-08-8.62276E-20-4.15132E-19
 -1      4147 9.51480E-05-2.83347E-05-2.86349E-05 6.93145E-08 6.84353E-19 3.48195E-19
 -1      4148 9.51186E-05-2.82863E-05-2.86425E-05 8.82902E-08 5.71987E-19 6.11483E-19
 -1      4149 9.50847E-05-2.82406E-05-2.86467E-05 6.82155E-08 4.94959E-19 3.23115E-19
 -1      4150 9.51961E-05-2.84135E-05-2.86216E-05 4.45624E-08 5.55197E-19 6.16296E-20
 -1      4151 9.51765E-05-2.83777E-05-2.86281E-05 5.88845E-08 1.01526E-18 2.80465E-19
 -1      4152 9.51534E-05-2.83434E-05-2.86322E-05 4.71940E-08 6.85751E-19-6.30772E-19
 -1      4153 9.52274E-05-2.84707E-05-2.86103E-05 2.64117E-08 1.96104E-19-6.20427E-19
 -1      4154 9.52149E-05-2.84449E-05-2.86157E-05 3.68631E-08 2.04908E-19-2.18472E-19
 -1      4155 9.52000E-05-2.84202E-05-2.86196E-05 3.08294E-08 2.90025E-19-1.81818E-19
 -1      4156 9.52466E-05-2.85113E-05-2.86010E-05 1.35012E-08 3.78558E-19 7.16256E-19
 -1      4157 9.52392E-05-2.84931E-05-2.86055E-05 2.08599E-08 4.70257E-19-5.32313E-20
 -1      4158 9.52302E-05-2.84757E-05-2.86089E-05 1.84988E-08 1.05949E-19-3.99368E-20
 -1      4159 9.52576E-05-2.85396E-05-2.85936E-05 4.71345E-09-6.51127E-19 9.65162E-19
 -1      4160 9.52536E-05-2.85270E-05-2.85971E-05 9.69027E-09-8.03598E-20 4.83989E-19
 -1      4161 9.52488E-05-2.85151E-05-2.86000E-05 9.60799E-09 1.17840E-19 4.84598E-19
 -1      4162 9.52628E-05-2.85585E-05-2.85876E-05-9.53988E-10-6.18399E-19 5.77504E-19
 -1      4163 9.52612E-05-2.85502E-05-2.85904E-05 2.24229E-09-3.45897E-19 8.06909E-19
 -1      4164 9.52591E-05-2.85424E-05-2.85928E-05 3.49257E-09-3.75905E-19 1.64223E-19
 -1      4165 9.52643E-05-2.85708E-05-2.85830E-05-4.34816E-09-1.27162E-18 1.72472E-20
 -1      4166 9.52641E-05-2.85654E-05-2.85851E-05-2.43200E-09-9.26096E-19 3.80790E-19
 -1      4167 9.52639E-05-2.85606E-05-2.85871E-05-4.84482E-10-3.30821E-19-3.42251E-19
 -1      4168 9.52634E-05-2.85784E-05-2.85793E-05-6.17363E-09-8.26981E-19-1.75105E-18
 -1      4169 9.52642E-05-2.85752E-05-2.85810E-05-5.15532E-09-6.37773E-19-1.42835E-18
 -1      4170 9.52651E-05-2.85725E-05-2.85826E-05-2.91603E-09 9.31450E-20-1.93866E-18
 -1      4171 9.52611E-05-2.85823E-05-2.85767E-05-6.79778E-09-1.15397E-18-2.27649E-18
 -1      4172 9.52624E-05-2.85807E-05-2.85778E-05-6.43659E-09-1.42832E-18-2.28736E-18
 -1      4173 9.52639E-05-2.85795E-05-2.85791E-05-4.19378E-09-8.91884E-19-3.12051E-18
 -1      4174 9.52583E-05-2.85839E-05-2.85747E-05-6.73900E-09-5.03804E-19-1.47746E-18
 -1      4175 9.52597E-05-2.85833E-05-2.85756E-05-6.76585E-09-7.20148E-19-1.94466E-18
 -1      4176 9.52615E-05-2.85830E-05-2.85765E-05-4.65870E-09-1.11169E-18-2.56319E-18
 -1      4177 9.52552E-05-2.85840E-05-2.85733E-05-6.26705E-09-1.05279E-18-3.22166E-19
 -1      4178 9.52567E-05-2.85841E-05-2.85739E-05-6.52529E-09-1.05333E-18-1.12738E-18
 -1      4179 9.52585E-05-2.85844E-05-2.85747E-05-4.63602E-09-1.28371E-18-1.32624E-18
 -1      4180 9.52522E-05-2.85833E-05-2.85724E-05-5.57684E-09-1.21297E-18-4.15756E-19
 -1      4181 9.52536E-05-2.85837E-05-2.85728E-05-5.95758E-09-9.90455E-19-8.05677E-20
 -1      4182 9.52553E-05-2.85843E-05-2.85733E-05-4.31981E-09-1.21920E-18-8.02539E-19
 -1      4183 9.52494E-05-2.85821E-05-2.85717E-05-4.80027E-09-1.81694E-18 6.09732E-19
 -1      4184 9.52506E-05-2.85827E-05-2.85720E-05-5.22994E-09-1.41071E-18 4.20579E-19
 -1      4185 9.52522E-05-2.85835E-05-2.85723E-05-3.84765E-09-1.23674E-18-6.80469E-19
 -1      4186 9.52469E-05-2.85806E-05-2.85712E-05-4.02245E-09-1.33022E-18-3.87406E-19
 -1      4187 9.52480E-05-2.85814E-05-2.85714E-05-4.45361E-09-2.15928E-18-3.22611E-19
 -1      4188 9.52494E-05-2.85822E-05-2.85717E-05-3.31286E-09-1.50976E-18-1.46138E-18
 -1      4189 9.52448E-05-2.85792E-05-2.85710E-05-3.29459E-09-5.10114E-19 5.76983E-19
 -1      4190 9.52457E-05-2.85799E-05-2.85711E-05-3.69865E-09-5.18269E-19 5.63540E-19
 -1      4191 9.52469E-05-2.85807E-05-2.85713E-05-2.77571E-09-1.25792E-18-1.45893E-18
 -1      4192 9.52430E-05-2.85778E-05-2.85708E-05-2.64433E-09-1.16338E-18 5.52411E-19
 -1      4193 9.52438E-05-2.85784E-05-2.85709E-05-3.00572E-09-4.98863E-20 7.86567E-19
 -1      4194 9.52448E-05-2.85792E-05-2.85710E-05-2.27244E-09-3.18912E-19-6.19754E-19
 -1      4195 9.52416E-05-2.85765E-05-2.85707E-05-2.08763E-09 1.22653E-19 6.71930E-19
 -1      4196 9.52422E-05-2.85771E-05-2.85708E-05-2.39380E-09-1.11427E-18 5.70154E-19
 -1      4197 9.52430E-05-2.85778E-05-2.85708E-05-1.82349E-09-7.54107E-19-6.20757E-19
 -1      4198 9.07169E-05-2.41440E-05-2.85327E-05-1.55608E-07 3.46285E-19-1.17090E-18
 -1      4199 8.99361E-05-2.36123E-05-2.84481E-05-3.43949E-07 5.97122E-19-8.56801E-19
 -1      4200 9.43515E-05-2.73446E-05-2.87192E-05 2.96600E-07 6.49840E-19-6.20862E-19
 -1      4201 9.41818E-05-2.71596E-05-2.87263E-05 3.36937E-07 1.17059E-18-1.04710E-18
 -1      4202 9.43909E-05-2.73933E-05-2.87097E-05 1.66715E-07 4.56339E-19-9.88475E-19
 -1      4203 9.49205E-05-3.01026E-05-2.77536E-05-1.16635E-05 1.36495E-18-1.90607E-18
 -1      4204 9.35708E-05-2.87561E-05-2.77870E-05-1.03560E-05 8.85066E-19-1.82254E-18
 -1      4205 9.12428E-05-2.69084E-05-2.75991E-05-1.01592E-05 1.11288E-18-1.30841E-18
 -1      4206 9.25357E-05-2.87197E-05-2.73911E-05-1.27027E-05 1.57919E-18-1.88027E-18
 -1      4207 7.74736E-05-1.74971E-05-2.56654E-05-8.37129E-06 9.56045E-19-1.29247E-19
 -1      4208 7.52632E-05-1.69342E-05-2.50541E-05-1.00804E-05 1.22349E-18 9.52515E-20
 -1      4209 7.80634E-05-1.93128E-05-2.51670E-05-1.36438E-05 1.95120E-18-2.97954E-19
 -1      4210 9.48292E-05-2.78990E-05-2.86857E-05 1.89446E-07-4.67586E-19-3.17903E-19
 -1      4211 9.47410E-05-2.77867E-05-2.86956E-05 2.25222E-07 1.77197E-20-5.17826E-19
 -1      4212 9.46530E-05-2.76897E-05-2.86960E-05 1.47335E-07 1.56952E-19-7.47602E-19
 -1      4213 9.48458E-05-2.79225E-05-2.86796E-05 1.20518E-07-3.35404E-19-1.10242E-18
 -1      4214 9.18833E-05-2.50538E-05-2.86436E-05 1.64304E-07 1.88068E-19-9.36946E-19
 -1      4215 9.13040E-05-2.46096E-05-2.85978E-05 7.82141E-08 3.08895E-19-1.06845E-18
 -1      4216 9.11133E-05-2.45054E-05-2.85326E-05-6.45404E-07 2.79810E-19-1.12746E-18
 -1      4217 8.17527E-05-1.90789E-05-2.68459E-05-5.01336E-06 8.61864E-19-6.59374E-19
 -1      4218 7.92541E-05-1.80823E-05-2.62634E-05-6.48601E-06 8.30283E-19-4.13016E-19
 -1      4219 8.08964E-05-1.95327E-05-2.62371E-05-9.30358E-06 1.07918E-18-9.40620E-19
 -1      4220 8.54335E-05-2.48863E-05-2.59861E-05-1.63551E-05 2.20590E-18-7.14141E-19
 -1      4221 8.94538E-05-2.67087E-05-2.68442E-05-1.38873E-05 1.61539E-18-1.29216E-18
 -1      4222 9.27718E-05-2.58076E-05-2.87015E-05 3.12108E-07 2.12623E-19-9.29274E-19
 -1      4223 9.23410E-05-2.54433E-05-2.86798E-05 2.90353E-07 2.63990E-19-9.76993E-19
 -1      4224 9.21312E-05-2.52923E-05-2.86342E-05-2.19447E-07 3.50853E-20-9.70861E-19
 -1      4225 9.29294E-05-2.59682E-05-2.86892E-05 1.16336E-08 4.48541E-19-8.59046E-19
 -1      4226 8.49478E-05-2.05723E-05-2.75905E-05-2.82969E-06 1.03511E-18-1.08753E-18
 -1      4227 8.31490E-05-1.96906E-05-2.72274E-05-3.75476E-06 8.47217E-19-9.14010E-19
 -1      4228 8.40271E-05-2.05261E-05-2.71543E-05-5.78856E-06 1.13222E-18-7.44690E-19
 -1      4229 9.52402E-05-2.85752E-05-2.85707E-05-1.33957E-09 1.78694E-18 1.37224E-18
 -1      4230 9.52405E-05-2.85755E-05-2.85707E-05-1.55393E-09 2.11504E-18 5.67528E-19
 -1      4231 9.52404E-05-2.85753E-05-2.85707E-05-9.58946E-10 2.04926E-18 3.82273E-19
 -1      4232 8.85496E-05-2.56199E-05-2.69633E-05-1.24499E-05 1.45104E-18-1.42538E-18
 -1      4233 8.12004E-05-2.14755E-05-2.55667E-05-1.44724E-05 1.91854E-18-3.33049E-19
 -1      4234 9.40392E-05-2.70206E-05-2.87174E-05 1.66769E-07 1.16131E-18-1.31747E-18
 -1      4235 8.97923E-05-2.35952E-05-2.83549E-05-1.36528E-06 6.60419E-19-1.04385E-18
 -1      4236 8.92188E-05-2.30958E-05-2.83385E-05-7.22896E-07 5.73324E-19-9.85830E-19
 -1      4237 8.81959E-05-2.24658E-05-2.81961E-05-1.09182E-06 6.02827E-19-9.05605E-19
 -1      4238 9.52406E-05-2.85755E-05-2.85707E-05-2.15177E-10 1.76695E-19-5.03867E-19
 -1      4239 9.52405E-05-2.85755E-05-2.85707E-05-6.31355E-10 9.31733E-19-2.51722E-19
 -1      4240 9.52409E-05-2.85758E-05-2.85707E-05-7.75780E-10 9.31790E-19-1.00743E-18
 -1      4241 9.52411E-05-2.85760E-05-2.85708E-05-9.06244E-11-6.34059E-19-7.56001E-19
 -1      4242 8.61713E-05-2.09226E-05-2.79301E-05-7.51219E-07 8.05483E-19-3.90919E-19
 -1      4243 9.52409E-05-2.85758E-05-2.85707E-05-1.68261E-09 2.62972E-18 6.10498E-19
 -1      4244 9.52412E-05-2.85762E-05-2.85707E-05-1.93489E-09 1.04687E-18 5.44787E-19
 -1      4245 9.52418E-05-2.85767E-05-2.85708E-05-1.47799E-09 3.80330E-19-1.36121E-18
 -1      4246 9.52411E-05-2.85760E-05-2.85707E-05-1.22327E-09 1.73116E-18-1.35525E-18
 -1      4247 9.16128E-05-2.49764E-05-2.85557E-05-9.71743E-07 2.81131E-19-8.34009E-19
 -1      4248 9.10309E-05-2.45801E-05-2.84866E-05-1.29364E-06 8.15392E-19-3.87122E-19
 -1      4249 9.51627E-05-2.83634E-05-2.86287E-05 2.34411E-08 3.75173E-19-5.46236E-19
 -1      4250 9.51348E-05-2.83188E-05-2.86355E-05 3.17093E-08 4.82932E-19-1.05586E-18
 -1      4251 8.97739E-05-2.44610E-05-2.79986E-05-5.40797E-06 5.68327E-19-1.30622E-18
 -1      4252 8.99873E-05-2.43996E-05-2.81247E-05-4.39997E-06 2.83753E-19-1.34811E-18
 -1      4253 8.99808E-05-2.40990E-05-2.82282E-05-3.23134E-06 2.27037E-19-1.18867E-18
 -1      4254 9.03310E-05-2.42731E-05-2.83260E-05-2.58328E-06 1.24843E-19-1.10410E-18
 -1      4255 9.16200E-05-2.51846E-05-2.84700E-05-2.32664E-06 2.49103E-19-4.57453E-19
 -1      4256 9.19401E-05-2.53869E-05-2.85348E-05-1.84646E-06 6.02105E-19-3.64717E-19
 -1      4257 9.23508E-05-2.56514E-05-2.85841E-05-1.50696E-06 2.12881E-19-2.57335E-19
 -1      4258 9.26255E-05-2.58602E-05-2.86226E-05-1.18733E-06 8.89111E-19-2.62034E-19
 -1      4259 9.20257E-05-2.53403E-05-2.85697E-05-1.27015E-06 4.74848E-19-5.50533E-19
 -1      4260 9.29662E-05-2.61146E-05-2.86511E-05-9.69787E-07 8.97464E-19-1.29568E-18
 -1      4261 9.32154E-05-2.63258E-05-2.86730E-05-7.53258E-07 8.99107E-19-1.57103E-18
 -1      4262 9.27591E-05-2.58990E-05-2.86454E-05-7.64569E-07 3.75038E-19-1.19806E-18
 -1      4263 9.34910E-05-2.65566E-05-2.86870E-05-6.13775E-07 1.47528E-18-1.99273E-18
 -1      4264 9.37046E-05-2.67540E-05-2.86972E-05-4.69620E-07 1.53458E-18-2.14707E-18
 -1      4265 9.33552E-05-2.64060E-05-2.86858E-05-4.42999E-07 1.12810E-18-1.50847E-18
 -1      4266 9.39237E-05-2.69554E-05-2.87016E-05-3.82208E-07 1.76772E-18-2.14729E-18
 -1      4267 9.41007E-05-2.71308E-05-2.87039E-05-2.87104E-07 1.85964E-18-1.24966E-18
 -1      4268 9.38351E-05-2.68502E-05-2.87027E-05-2.43741E-07 1.74579E-18-2.46629E-18
 -1      4269 9.42717E-05-2.73020E-05-2.87023E-05-2.33973E-07 4.51739E-19-1.50941E-18
 -1      4270 9.44141E-05-2.74521E-05-2.86996E-05-1.71969E-07 3.39409E-19-1.86705E-18
 -1      4271 9.42143E-05-2.72288E-05-2.87044E-05-1.25080E-07 6.26578E-19-2.37538E-18
 -1      4272 9.45452E-05-2.75938E-05-2.86944E-05-1.40576E-07 3.00931E-19-1.81580E-18
 -1      4273 9.46569E-05-2.77186E-05-2.86888E-05-1.00532E-07-1.41318E-19-1.17581E-18
 -1      4274 9.45081E-05-2.75427E-05-2.86968E-05-5.71303E-08 2.21290E-19-2.55428E-18
 -1      4275 9.47557E-05-2.78334E-05-2.86818E-05-8.26723E-08-1.08009E-19-1.31883E-18
 -1      4276 9.48412E-05-2.79346E-05-2.86748E-05-5.70076E-08 9.51606E-20-1.67766E-18
 -1      4277 9.47318E-05-2.77977E-05-2.86841E-05-2.03528E-08 3.34307E-20-1.71970E-18
 -1      4278 9.49141E-05-2.80257E-05-2.86671E-05-4.73852E-08-7.05703E-20-2.53977E-18
 -1      4279 9.49776E-05-2.81061E-05-2.86597E-05-3.08762E-08-4.33536E-19-2.89469E-18
 -1      4280 9.48989E-05-2.80008E-05-2.86693E-05-2.07876E-09-6.62228E-19-2.19658E-18
 -1      4281 9.51165E-05-2.82967E-05-2.86376E-05-1.36784E-08 3.44558E-19-2.16243E-18
 -1      4282 9.51493E-05-2.83437E-05-2.86309E-05-7.02057E-09 6.12797E-19-1.77985E-18
 -1      4283 9.51746E-05-2.83841E-05-2.86247E-05-6.23583E-09-2.26303E-20-1.51601E-18
 -1      4284 9.51971E-05-2.84195E-05-2.86189E-05-2.28917E-09 2.00260E-19-1.63714E-18
 -1      4285 9.51720E-05-2.83778E-05-2.86257E-05 7.70033E-09 1.56836E-19-8.39525E-19
 -1      4286 9.52137E-05-2.84491E-05-2.86136E-05-2.21466E-09 6.28338E-19-2.23218E-18
 -1      4287 9.52284E-05-2.84749E-05-2.86085E-05 2.05804E-10 7.98003E-19-1.97719E-18
 -1      4288 9.52123E-05-2.84448E-05-2.86144E-05 6.17599E-09 2.21855E-20-8.42827E-19
 -1      4289 9.52388E-05-2.84962E-05-2.86041E-05-3.74027E-11-1.53316E-19-1.77467E-18
 -1      4290 9.52479E-05-2.85146E-05-2.85999E-05 1.41517E-09-2.78246E-19-1.31985E-18
 -1      4291 9.52381E-05-2.84933E-05-2.86048E-05 4.46669E-09-3.70072E-20-1.33321E-18
 -1      4292 9.52539E-05-2.85294E-05-2.85963E-05 1.06818E-09 6.89292E-19-2.04855E-18
 -1      4293 9.52590E-05-2.85421E-05-2.85929E-05 1.90795E-09 9.53553E-19-1.99465E-18
 -1      4294 9.52536E-05-2.85275E-05-2.85968E-05 2.92977E-09 3.43877E-19-7.36516E-19
 -1      4295 9.52619E-05-2.85522E-05-2.85900E-05 1.56065E-09-2.74213E-20-2.25692E-18
 -1      4296 9.52643E-05-2.85606E-05-2.85872E-05 2.01267E-09 1.19258E-19-2.25708E-18
 -1      4297 9.52619E-05-2.85510E-05-2.85904E-05 1.70387E-09 1.55123E-19-1.26685E-18
 -1      4298 9.52652E-05-2.85671E-05-2.85849E-05 1.71226E-09 5.42633E-19-1.83754E-18
 -1      4299 9.52658E-05-2.85724E-05-2.85828E-05 1.92262E-09 5.26939E-19 6.19818E-19
 -1      4300 9.52653E-05-2.85664E-05-2.85853E-05 8.05065E-10 7.77241E-19-1.45248E-18
 -1      4301 9.52654E-05-2.85764E-05-2.85810E-05 1.67300E-09-6.35666E-20 1.02109E-18
 -1      4302 9.52648E-05-2.85795E-05-2.85794E-05 1.73654E-09 7.82284E-20 1.32945E-18
 -1      4303 9.52655E-05-2.85760E-05-2.85813E-05 1.86750E-10 4.65189E-19-2.93746E-19
 -1      4304 9.52637E-05-2.85816E-05-2.85780E-05 1.54281E-09-5.84436E-19 1.23423E-18
 -1      4305 9.52624E-05-2.85832E-05-2.85768E-05 1.51543E-09-5.76906E-19 1.04752E-18
 -1      4306 9.52639E-05-2.85814E-05-2.85782E-05-1.95888E-10-6.39133E-19-5.75170E-19
 -1      4307 9.52609E-05-2.85841E-05-2.85758E-05 1.37023E-09-7.64547E-19 3.75532E-19
 -1      4308 9.52594E-05-2.85847E-05-2.85749E-05 1.29139E-09-3.83656E-19 3.57086E-19
 -1      4309 9.52611E-05-2.85841E-05-2.85759E-05-4.10867E-10-7.66337E-19-3.84033E-19
 -1      4310 9.52578E-05-2.85848E-05-2.85741E-05 1.18494E-09-8.22030E-19 1.85225E-19
 -1      4311 9.52561E-05-2.85847E-05-2.85735E-05 1.08038E-09-1.41142E-18-1.44139E-19
 -1      4312 9.52580E-05-2.85848E-05-2.85742E-05-5.07737E-10-1.38576E-18-1.34361E-18
 -1      4313 9.52545E-05-2.85843E-05-2.85729E-05 1.00372E-09-2.44132E-19-1.43613E-18
 -1      4314 9.52529E-05-2.85838E-05-2.85725E-05 8.89964E-10 5.62438E-19-1.07823E-18
 -1      4315 9.52547E-05-2.85844E-05-2.85730E-05-5.27313E-10-7.75178E-19-1.82991E-18
 -1      4316 9.52515E-05-2.85832E-05-2.85721E-05 8.35551E-10-2.56180E-19-9.61393E-19
 -1      4317 9.52500E-05-2.85825E-05-2.85718E-05 7.22967E-10-1.34790E-18-8.13712E-19
 -1      4318 9.52516E-05-2.85833E-05-2.85722E-05-5.00029E-10-5.41437E-19-2.91497E-18
 -1      4319 9.52487E-05-2.85817E-05-2.85715E-05 6.84835E-10-1.92439E-18-7.35895E-19
 -1      4320 9.52474E-05-2.85810E-05-2.85713E-05 5.79656E-10-1.93279E-18-1.35268E-18
 -1      4321 9.52488E-05-2.85819E-05-2.85716E-05-4.47459E-10-1.92040E-18-3.03904E-18
 -1      4322 9.52463E-05-2.85802E-05-2.85712E-05 5.53083E-10-1.52248E-18-2.15095E-19
 -1      4323 9.52452E-05-2.85794E-05-2.85710E-05 4.58877E-10 5.87597E-19-7.67015E-19
 -1      4324 9.52464E-05-2.85803E-05-2.85712E-05-3.84241E-10-1.15199E-18-1.36025E-18
 -1      4325 9.52442E-05-2.85787E-05-2.85709E-05 4.37431E-10 1.22363E-18-1.73444E-18
 -1      4326 9.52433E-05-2.85779E-05-2.85709E-05 3.60690E-10 1.61230E-18-1.50067E-18
 -1      4327 9.52443E-05-2.85788E-05-2.85710E-05-3.19783E-10 9.34788E-19-1.38402E-18
 -1      4328 9.37077E-05-2.67252E-05-2.87081E-05-7.86812E-08 1.55287E-18-1.85723E-18
 -1      4329 9.34262E-05-2.64691E-05-2.87012E-05-1.30143E-07 1.11673E-18-1.24483E-18
 -1      4330 9.50024E-05-2.81353E-05-2.86580E-05 4.27747E-08-1.29362E-19-1.01788E-18
 -1      4331 9.49435E-05-2.80569E-05-2.86662E-05 5.32837E-08-1.03145E-18-1.67765E-18
 -1      4332 9.52061E-05-2.84343E-05-2.86168E-05 1.56349E-08-1.50535E-19-7.87752E-20
 -1      4333 9.51876E-05-2.84018E-05-2.86226E-05 2.22399E-08 2.59351E-19-4.36527E-19
 -1      4334 9.52343E-05-2.84859E-05-2.86067E-05 9.45654E-09 1.38133E-19-4.40802E-19
 -1      4335 9.52226E-05-2.84624E-05-2.86115E-05 1.44545E-08-1.29792E-19-6.42632E-19
 -1      4336 9.52514E-05-2.85224E-05-2.85983E-05 4.88569E-09-1.51274E-19 7.80743E-20
 -1      4337 9.52445E-05-2.85059E-05-2.86023E-05 8.50169E-09 2.58374E-19-3.71264E-20
 -1      4338 9.52608E-05-2.85474E-05-2.85915E-05 1.69257E-09-6.03776E-20-8.72065E-19
 -1      4339 9.52573E-05-2.85362E-05-2.85947E-05 4.19397E-09 1.51003E-19-2.32680E-19
 -1      4340 9.52649E-05-2.85641E-05-2.85861E-05-4.00904E-10 4.62524E-19-8.91459E-19
 -1      4341 9.52636E-05-2.85567E-05-2.85887E-05 1.24230E-09 1.62759E-19-6.13841E-19
 -1      4342 9.52656E-05-2.85747E-05-2.85818E-05-1.67603E-09 1.87487E-19-2.00026E-18
 -1      4343 9.52658E-05-2.85700E-05-2.85839E-05-6.54197E-10 7.07168E-19-1.37596E-18
 -1      4344 9.52642E-05-2.85807E-05-2.85786E-05-2.31601E-09-6.30696E-19-2.61054E-18
 -1      4345 9.52652E-05-2.85782E-05-2.85801E-05-1.78451E-09-3.19306E-19-2.19380E-18
 -1      4346 9.52616E-05-2.85837E-05-2.85762E-05-2.55351E-09-6.65692E-19-1.96830E-18
 -1      4347 9.52630E-05-2.85825E-05-2.85773E-05-2.33015E-09-8.44263E-19-2.26528E-18
 -1      4348 9.52584E-05-2.85847E-05-2.85744E-05-2.52721E-09-1.25505E-18-1.67734E-18
 -1      4349 9.52601E-05-2.85844E-05-2.85752E-05-2.50427E-09-1.07768E-18-2.21184E-18
 -1      4350 9.52552E-05-2.85845E-05-2.85732E-05-2.34351E-09-1.67975E-18-9.99233E-19
 -1      4351 9.52568E-05-2.85847E-05-2.85737E-05-2.44266E-09-1.18096E-18-1.68277E-18
 -1      4352 9.52521E-05-2.85835E-05-2.85722E-05-2.07756E-09-4.78023E-19-1.91733E-18
 -1      4353 9.52536E-05-2.85840E-05-2.85726E-05-2.24344E-09-1.01786E-18-1.49282E-18
 -1      4354 9.52492E-05-2.85821E-05-2.85716E-05-1.78025E-09-1.45325E-18-2.93541E-18
 -1      4355 9.52506E-05-2.85828E-05-2.85719E-05-1.97514E-09-1.10039E-18-2.51980E-18
 -1      4356 9.52467E-05-2.85805E-05-2.85712E-05-1.48423E-09-1.50272E-18-1.92276E-18
 -1      4357 9.52479E-05-2.85813E-05-2.85714E-05-1.68360E-09-2.45157E-18-2.71472E-18
 -1      4358 9.52446E-05-2.85790E-05-2.85710E-05-1.20902E-09 9.93261E-21-8.50916E-19
 -1      4359 9.52456E-05-2.85797E-05-2.85711E-05-1.39786E-09 6.46202E-20-9.65171E-19
 -1      4360 9.52429E-05-2.85776E-05-2.85708E-05-9.66413E-10-3.73092E-19-2.78491E-18
 -1      4361 9.52437E-05-2.85782E-05-2.85709E-05-1.13317E-09 3.79950E-19-1.96892E-18
 -1      4362 8.20857E-05-2.13385E-05-2.60299E-05-1.24334E-05 1.36298E-18-6.36249E-19
 -1      4363 8.73450E-05-2.18954E-05-2.80489E-05-1.56087E-06 3.04876E-19-6.16668E-19
 -1      4364 8.60017E-05-2.11683E-05-2.78146E-05-2.14231E-06 7.82492E-19-7.78920E-19
 -1      4365 8.63711E-05-2.16570E-05-2.77408E-05-3.69534E-06 6.25028E-19-1.30092E-18
 -1      4366 8.82713E-05-2.26244E-05-2.81017E-05-2.32780E-06 4.83123E-19-9.33679E-19
 -1      4367 9.41269E-05-2.71392E-05-2.87104E-05 3.22271E-09 8.48315E-19-1.98877E-18
 -1      4368 9.39243E-05-2.69392E-05-2.87116E-05-1.47578E-08 1.52480E-18-2.04600E-18
 -1      4369 8.77370E-05-2.34199E-05-2.75525E-05-7.01907E-06 1.17772E-18-1.51221E-18
 -1      4370 8.80182E-05-2.33289E-05-2.77407E-05-5.73882E-06 8.84087E-19-1.44624E-18
 -1      4371 9.44484E-05-2.74785E-05-2.87028E-05 4.03706E-08 5.86713E-19-1.94034E-18
 -1      4372 9.42964E-05-2.73161E-05-2.87082E-05 3.91694E-08 5.08615E-19-1.77696E-18
 -1      4373 8.35304E-05-2.15630E-05-2.65503E-05-1.01839E-05 1.20779E-18-7.47199E-19
 -1      4374 9.51045E-05-2.82758E-05-2.86403E-05 1.11007E-08 7.64944E-19-1.56767E-18
 -1      4375 9.50899E-05-2.82555E-05-2.86440E-05 3.64079E-08 9.08340E-19-7.10883E-19
 -1      4376 9.50478E-05-2.81946E-05-2.86517E-05 4.65912E-08 7.85439E-19-7.45790E-19
 -1      4377 9.50709E-05-2.82303E-05-2.86461E-05-1.32131E-08 3.99589E-19-2.41448E-18
 -1      4378 9.50135E-05-2.81488E-05-2.86552E-05 9.08731E-09 2.57095E-19-2.30064E-18
 -1      4379 9.50235E-05-2.81668E-05-2.86534E-05-2.35250E-08 9.26989E-20-2.69255E-18
 -1      4380 9.31531E-05-2.62159E-05-2.86882E-05-2.39473E-07 5.45868E-19-1.05934E-18
 -1      4381 9.52428E-05-2.85775E-05-2.85708E-05 1.72651E-10 4.70226E-19-2.34255E-18
 -1      4382 9.28022E-05-2.59253E-05-2.86693E-05-3.40134E-07 3.28467E-19-1.08772E-18
 -1      4383 9.10082E-05-2.46578E-05-2.84321E-05-2.05505E-06 4.10095E-19-7.21080E-19
 -1      4384 9.48711E-05-2.79673E-05-2.86740E-05 5.02562E-08-5.66818E-19-1.59212E-18
 -1      4385 9.52416E-05-2.85764E-05-2.85708E-05-4.51324E-12-1.18774E-18-2.03619E-18
 -1      4386 9.52415E-05-2.85764E-05-2.85708E-05-3.65440E-10-1.48793E-19-3.17514E-18
 -1      4387 9.52420E-05-2.85769E-05-2.85708E-05 1.38564E-10-7.48995E-19-2.55514E-18
 -1      4388 9.20179E-05-2.52987E-05-2.86042E-05-6.99897E-07 1.61703E-19-1.02227E-18
 -1      4389 8.58247E-05-2.32544E-05-2.67983E-05-1.10802E-05 1.22528E-18-1.09210E-18
 -1      4390 8.92390E-05-2.53583E-05-2.73260E-05-1.02157E-05 1.30184E-18-1.80795E-18
 -1      4391 9.24660E-05-2.56348E-05-2.86419E-05-5.17385E-07-4.35732E-20-8.67072E-19
 -1      4392 9.45784E-05-2.76220E-05-2.86971E-05 5.91075E-08-6.51356E-20-1.83970E-18
 -1      4393 8.87774E-05-2.47577E-05-2.74351E-05-9.10639E-06 1.27629E-18-1.57909E-18
 -1      4394 9.47889E-05-2.78657E-05-2.86823E-05 6.06685E-08 8.66484E-20-1.50345E-18
 -1      4395 9.52417E-05-2.85766E-05-2.85708E-05-8.19840E-10 1.03036E-18-4.01441E-18
 -1      4396 9.52421E-05-2.85769E-05-2.85708E-05-9.43728E-10-6.54864E-20-3.57429E-18
 -1      4397 9.46910E-05-2.77514E-05-2.86896E-05 5.19921E-08-2.10259E-19-1.31351E-18
 -1      4398 8.43621E-05-2.15873E-05-2.69673E-05-8.24548E-06 1.28353E-18-9.55637E-19
 -1      4399 8.88633E-05-2.32747E-05-2.81182E-05-3.03607E-06 3.91160E-19-1.32285E-18
 -1      4400 9.52427E-05-2.85774E-05-2.85708E-05-2.78806E-10 2.58867E-19-4.03894E-18
 -1      4401 8.81775E-05-2.28752E-05-2.79802E-05-3.64005E-06 4.20791E-19-1.34101E-18
 -1      4402 9.52412E-05-2.85761E-05-2.85708E-05-8.83387E-10 6.24275E-19-2.40857E-18
 -1      4403 8.56639E-05-2.19838E-05-2.73197E-05-6.82106E-06 1.21932E-18-1.18238E-18
 -1      4404 8.72130E-05-2.23649E-05-2.77707E-05-4.48257E-06 6.57169E-19-1.68674E-18
 -3
    1PSTEP                         4           1           1          
  100CL  101 1.000000000        4404                     0    1           1
 -4  ERROR       1    1
 -5  STR(%)      1    1    0    0
 -1         1 1.13561E+01
 -1         2 3.03075E+01
 -1         3 1.96006E-05
 -1         4 1.58179E-05
 -1         5 1.27888E+01
 -1         6 1.43926E+01
 -1         7 1.43926E+01
 -1         8 2.77489E+00
 -1         9 1.04182E+00
 -1        10 1.20528E+00
 -1        11 1.43432E+00
 -1        12 1.80039E+00
 -1        13 3.84222E+00
 -1        14 7.24614E+00
 -1        15 1.22591E+01
 -1        16 1.44638E+01
 -1        17 1.77993E+01
 -1        18 1.88537E+01
 -1        19 1.88537E+01
 -1        20 1.43476E+01
 -1        21 9.73669E+00
 -1        22 7.25383E+00
 -1        23 1.06231E+01
 -1        24 1.43926E+01
 -1        25 6.62454E+00
 -1        26 5.61117E+00
 -1        27 4.34481E+00
 -1        28 3.46808E+00
 -1        29 2.97576E+00
 -1        30 2.36198E+00
 -1        31 1.68305E+00
 -1        32 1.10005E+00
 -1        33 6.83829E-01
 -1        34 4.69273E-01
 -1        35 2.91105E-01
 -1        36 2.53083E-01
 -1        37 2.33400E-01
 -1        38 2.18814E-01
 -1        39 1.81039E-01
 -1        40 1.35987E-01
 -1        41 1.27597E-01
 -1        42 1.12467E-01
 -1        43 9.33799E-02
 -1        44 7.38393E-02
 -1        45 5.58885E-02
 -1        46 4.80001E-02
 -1        47 4.08431E-02
 -1        48 3.36077E-02
 -1        49 2.68723E-02
 -1        50 2.09371E-02
 -1        51 1.59152E-02
 -1        52 1.27752E-02
 -1        53 1.05716E-02
 -1        54 8.54280E-03
 -1        55 6.75645E-03
 -1        56 5.23594E-03
 -1        57 4.09473E-03
 -1        58 3.15225E-03
 -1        59 2.37918E-03
 -1        60 1.75874E-03
 -1        61 1.32871E-03
 -1        62 1.07057E-03
 -1        63 8.46150E-04
 -1        64 6.56578E-04
 -1        65 5.00215E-04
 -1        66 3.73812E-04
 -1        67 2.73287E-04
 -1        68 2.17509E-04
 -1        69 1.80735E-04
 -1        70 1.42846E-04
 -1        71 1.00003E-04
 -1        72 5.17312E-05
 -1        73 1.27888E+01
 -1        74 4.06047E+00
 -1        75 5.19622E+00
 -1        76 6.66328E+00
 -1        77 6.66328E+00
 -1        78 6.35104E+00
 -1        79 4.06872E+00
 -1        80 1.77202E+00
 -1        81 2.40242E+00
 -1        82 2.40242E+00
 -1        83 2.26580E+00
 -1        84 1.86245E+00
 -1        85 1.47755E+00
 -1        86 1.10244E+00
 -1        87 8.08830E-01
 -1        88 6.10934E-01
 -1        89 4.48981E-01
 -1        90 3.23474E-01
 -1        91 2.29405E-01
 -1        92 1.60374E-01
 -1        93 1.10433E-01
 -1        94 7.46746E-02
 -1        95 5.18678E-02
 -1        96 4.06223E-02
 -1        97 3.15595E-02
 -1        98 2.42408E-02
 -1        99 1.83908E-02
 -1       100 1.40090E-02
 -1       101 1.20215E-02
 -1       102 1.00758E-02
 -1       103 8.27497E-03
 -1       104 6.67221E-03
 -1       105 5.29144E-03
 -1       106 4.25715E-03
 -1       107 3.36466E-03
 -1       108 2.61309E-03
 -1       109 2.06076E-03
 -1       110 1.47213E-03
 -1       111 1.09693E-03
 -1       112 8.64747E-04
 -1       113 6.69875E-04
 -1       114 5.09853E-04
 -1       115 3.80872E-04
 -1       116 2.78485E-04
 -1       117 1.97987E-04
 -1       118 1.34640E-04
 -1       119 1.08584E-04
 -1       120 7.92235E-05
 -1       121 4.35573E-05
 -1       122 1.96006E-05
 -1       123 1.87492E-05
 -1       124 1.80656E-05
 -1       125 1.29960E-05
 -1       126 5.63458E-06
 -1       127 1.20158E-05
 -1       128 1.66249E-05
 -1       129 1.80483E-05
 -1       130 1.80483E-05
 -1       131 1.65881E-05
 -1       132 1.18592E-05
 -1       133 5.76162E-06
 -1       134 1.32495E-05
 -1       135 1.74003E-05
 -1       136 1.90226E-05
 -1       137 2.09519E-05
 -1       138 3.03075E+01
 -1       139 3.83558E+01
 -1       140 3.83558E+01
 -1       141 1.42787E+01
 -1       142 1.22442E+01
 -1       143 1.24009E+01
 -1       144 1.32442E+01
 -1       145 1.32442E+01
 -1       146 1.63770E+01
 -1       147 3.74384E+01
 -1       148 3.80294E+01
 -1       149 4.48596E+01
 -1       150 4.48596E+01
 -1       151 3.87983E+01
 -1       152 4.48459E+01
 -1       153 4.48459E+01
 -1       154 2.35465E+01
 -1       155 1.27319E+01
 -1       156 1.06562E+01
 -1       157 1.14849E+01
 -1       158 1.14849E+01
 -1       159 1.14970E+01
 -1       160 1.14970E+01
 -1       161 1.96611E+01
 -1       162 4.60303E+01
 -1       163 4.60303E+01
 -1       164 2.88996E+01
 -1       165 2.77489E+00
 -1       166 1.32499E+00
 -1       167 1.20528E+00
 -1       168 1.43432E+00
 -1       169 1.61461E+00
 -1       170 2.63467E+00
 -1       171 5.33570E+00
 -1       172 1.05711E+01
 -1       173 1.58635E+01
 -1       174 2.43096E+01
 -1       175 2.16028E+01
 -1       176 2.05566E+01
 -1       177 1.41200E+01
 -1       178 8.75925E+00
 -1       179 7.12927E+00
 -1       180 1.27888E+01
 -1       181 6.62454E+00
 -1       182 5.61117E+00
 -1       183 4.34481E+00
 -1       184 3.46808E+00
 -1       185 2.97576E+00
 -1       186 2.36198E+00
 -1       187 1.72726E+00
 -1       188 1.23207E+00
 -1       189 8.61308E-01
 -1       190 5.55367E-01
 -1       191 2.98668E-01
 -1       192 2.53083E-01
 -1       193 2.33400E-01
 -1       194 2.18814E-01
 -1       195 1.81039E-01
 -1       196 1.43430E-01
 -1       197 1.27597E-01
 -1       198 1.12467E-01
 -1       199 9.33799E-02
 -1       200 7.38393E-02
 -1       201 5.84353E-02
 -1       202 4.80001E-02
 -1       203 4.08431E-02
 -1       204 3.36077E-02
 -1       205 2.68723E-02
 -1       206 2.09371E-02
 -1       207 1.60835E-02
 -1       208 1.27752E-02
 -1       209 1.05716E-02
 -1       210 8.54280E-03
 -1       211 6.78588E-03
 -1       212 5.47720E-03
 -1       213 4.35905E-03
 -1       214 3.54186E-03
 -1       215 2.81904E-03
 -1       216 2.20026E-03
 -1       217 1.68448E-03
 -1       218 1.26430E-03
 -1       219 9.28970E-04
 -1       220 6.66449E-04
 -1       221 5.02929E-04
 -1       222 3.87699E-04
 -1       223 2.93164E-04
 -1       224 2.17509E-04
 -1       225 1.80735E-04
 -1       226 1.42846E-04
 -1       227 1.00003E-04
 -1       228 5.73712E-05
 -1       229 3.34335E+00
 -1       230 4.06047E+00
 -1       231 5.19622E+00
 -1       232 6.66328E+00
 -1       233 6.35104E+00
 -1       234 4.06872E+00
 -1       235 1.75015E+00
 -1       236 2.01989E+00
 -1       237 2.40242E+00
 -1       238 2.26580E+00
 -1       239 1.86245E+00
 -1       240 1.54931E+00
 -1       241 1.20630E+00
 -1       242 9.13439E-01
 -1       243 6.64044E-01
 -1       244 4.68109E-01
 -1       245 3.30516E-01
 -1       246 2.39571E-01
 -1       247 1.71276E-01
 -1       248 1.20844E-01
 -1       249 8.40811E-02
 -1       250 5.92588E-02
 -1       251 4.06223E-02
 -1       252 3.15595E-02
 -1       253 2.42408E-02
 -1       254 1.83908E-02
 -1       255 1.41364E-02
 -1       256 1.20215E-02
 -1       257 1.00758E-02
 -1       258 8.27497E-03
 -1       259 6.67221E-03
 -1       260 5.29144E-03
 -1       261 4.26383E-03
 -1       262 3.44095E-03
 -1       263 2.72816E-03
 -1       264 2.17779E-03
 -1       265 1.60363E-03
 -1       266 1.20313E-03
 -1       267 9.03001E-04
 -1       268 6.69875E-04
 -1       269 5.09853E-04
 -1       270 3.87023E-04
 -1       271 2.89844E-04
 -1       272 2.12191E-04
 -1       273 1.50594E-04
 -1       274 1.08584E-04
 -1       275 7.92235E-05
 -1       276 4.58286E-05
 -1       277 4.35573E-05
 -1       278 3.29964E-05
 -1       279 3.17411E-05
 -1       280 1.89746E-05
 -1       281 2.39605E-05
 -1       282 3.31613E-05
 -1       283 3.69940E-05
 -1       284 3.69940E-05
 -1       285 3.69788E-05
 -1       286 3.29641E-05
 -1       287 2.40564E-05
 -1       288 1.93666E-05
 -1       289 3.17888E-05
 -1       290 3.17888E-05
 -1       291 3.36390E-05
 -1       292 4.11130E+01
 -1       293 3.51340E+01
 -1       294 3.83558E+01
 -1       295 1.42787E+01
 -1       296 1.10055E+01
 -1       297 1.22442E+01
 -1       298 1.24009E+01
 -1       299 1.32442E+01
 -1       300 1.14961E+01
 -1       301 1.63770E+01
 -1       302 3.74384E+01
 -1       303 3.83055E+01
 -1       304 4.48596E+01
 -1       305 4.23151E+01
 -1       306 3.93907E+01
 -1       307 4.48459E+01
 -1       308 2.35465E+01
 -1       309 1.30783E+01
 -1       310 9.70577E+00
 -1       311 1.06562E+01
 -1       312 1.14849E+01
 -1       313 1.13732E+01
 -1       314 1.14970E+01
 -1       315 1.13561E+01
 -1       316 1.04085E+01
 -1       317 2.08995E+01
 -1       318 4.60303E+01
 -1       319 3.84333E+01
 -1       320 4.11130E+01
 -1       321 1.84979E+01
 -1       322 3.29692E+00
 -1       323 1.00026E+00
 -1       324 3.60159E+00
 -1       325 1.22887E+00
 -1       326 1.63148E+00
 -1       327 3.33595E+00
 -1       328 1.29821E+01
 -1       329 3.05666E+01
 -1       330 7.38446E+00
 -1       331 1.13694E+01
 -1       332 6.52341E+00
 -1       333 3.34335E+00
 -1       334 2.67674E+00
 -1       335 3.24219E+00
 -1       336 2.69998E+00
 -1       337 2.14502E+00
 -1       338 1.92133E+00
 -1       339 1.58522E+00
 -1       340 1.24137E+00
 -1       341 9.32428E-01
 -1       342 6.15634E-01
 -1       343 3.85829E-01
 -1       344 2.28621E-01
 -1       345 1.77087E-01
 -1       346 1.51580E-01
 -1       347 1.53418E-01
 -1       348 1.38678E-01
 -1       349 1.25432E-01
 -1       350 1.10992E-01
 -1       351 9.28328E-02
 -1       352 7.35210E-02
 -1       353 5.84353E-02
 -1       354 4.46592E-02
 -1       355 3.28506E-02
 -1       356 2.50625E-02
 -1       357 2.15251E-02
 -1       358 1.79465E-02
 -1       359 1.45831E-02
 -1       360 1.15778E-02
 -1       361 8.99246E-03
 -1       362 7.66645E-03
 -1       363 6.46874E-03
 -1       364 5.32412E-03
 -1       365 4.36127E-03
 -1       366 3.56671E-03
 -1       367 2.85594E-03
 -1       368 2.32081E-03
 -1       369 1.85325E-03
 -1       370 1.45136E-03
 -1       371 1.11506E-03
 -1       372 8.40033E-04
 -1       373 6.19700E-04
 -1       374 4.46587E-04
 -1       375 3.13205E-04
 -1       376 2.16916E-04
 -1       377 1.56126E-04
 -1       378 1.12464E-04
 -1       379 8.05726E-05
 -1       380 5.29637E-05
 -1       381 3.18232E+00
 -1       382 5.08815E+00
 -1       383 4.34266E+00
 -1       384 2.38276E+00
 -1       385 3.38388E+00
 -1       386 2.60206E+00
 -1       387 2.50012E+00
 -1       388 2.15730E+00
 -1       389 1.90796E+00
 -1       390 1.66595E+00
 -1       391 1.33402E+00
 -1       392 1.00676E+00
 -1       393 7.28363E-01
 -1       394 5.10445E-01
 -1       395 3.48447E-01
 -1       396 2.39571E-01
 -1       397 1.71276E-01
 -1       398 1.20844E-01
 -1       399 8.40811E-02
 -1       400 5.92588E-02
 -1       401 3.85165E-02
 -1       402 2.67195E-02
 -1       403 2.24347E-02
 -1       404 1.84334E-02
 -1       405 1.48654E-02
 -1       406 1.17866E-02
 -1       407 9.19609E-03
 -1       408 7.41612E-03
 -1       409 6.27461E-03
 -1       410 5.18989E-03
 -1       411 4.24688E-03
 -1       412 3.46940E-03
 -1       413 2.78036E-03
 -1       414 2.22652E-03
 -1       415 1.67009E-03
 -1       416 1.26824E-03
 -1       417 9.44544E-04
 -1       418 6.88928E-04
 -1       419 5.06919E-04
 -1       420 3.87023E-04
 -1       421 2.89844E-04
 -1       422 2.12191E-04
 -1       423 1.50594E-04
 -1       424 1.03017E-04
 -1       425 6.88734E-05
 -1       426 3.68655E-05
 -1       427 6.91001E-05
 -1       428 2.78757E+01
 -1       429 6.91001E-05
 -1       430 3.39943E-05
 -1       431 4.81088E-05
 -1       432 5.51413E-05
 -1       433 5.51413E-05
 -1       434 5.49443E-05
 -1       435 5.49443E-05
 -1       436 4.82530E-05
 -1       437 3.38815E-05
 -1       438 3.74497E-05
 -1       439 4.94544E-05
 -1       440 2.33475E+01
 -1       441 4.11130E+01
 -1       442 1.34919E+01
 -1       443 9.95730E-01
 -1       444 2.13551E+01
 -1       445 9.64839E+00
 -1       446 1.02087E+01
 -1       447 8.07058E+00
 -1       448 7.96854E+00
 -1       449 1.49414E+01
 -1       450 2.46016E+01
 -1       451 3.83055E+01
 -1       452 4.23151E+01
 -1       453 2.67023E+01
 -1       454 1.30783E+01
 -1       455 8.59028E+00
 -1       456 6.56577E+00
 -1       457 8.70194E+00
 -1       458 1.02908E+01
 -1       459 9.70563E+00
 -1       460 8.74399E+00
 -1       461 6.44649E+00
 -1       462 9.59674E+00
 -1       463 1.59727E+01
 -1       464 2.69593E+01
 -1       465 2.91338E+01
 -1       466 8.31689E+00
 -1       467 7.35048E+00
 -1       468 2.96651E+01
 -1       469 6.00312E-05
 -1       470 3.93907E+01
 -1       471 1.22267E+01
 -1       472 1.93892E+01
 -1       473 2.92011E+00
 -1       474 1.73393E+00
 -1       475 1.00557E+00
 -1       476 2.33137E+00
 -1       477 7.67102E+00
 -1       478 3.73900E+00
 -1       479 1.71900E+00
 -1       480 1.44057E+00
 -1       481 1.31436E+00
 -1       482 1.12431E+00
 -1       483 9.42611E-01
 -1       484 7.53755E-01
 -1       485 5.69526E-01
 -1       486 3.85829E-01
 -1       487 3.02971E-01
 -1       488 2.32528E-01
 -1       489 1.76056E-01
 -1       490 1.65684E-01
 -1       491 1.45580E-01
 -1       492 1.24658E-01
 -1       493 1.07725E-01
 -1       494 8.80379E-02
 -1       495 6.85757E-02
 -1       496 5.10422E-02
 -1       497 3.62276E-02
 -1       498 2.43229E-02
 -1       499 1.73175E-02
 -1       500 1.24134E-02
 -1       501 1.12153E-02
 -1       502 9.77914E-03
 -1       503 8.28140E-03
 -1       504 6.83918E-03
 -1       505 5.52273E-03
 -1       506 4.85407E-03
 -1       507 4.14450E-03
 -1       508 3.44796E-03
 -1       509 2.86724E-03
 -1       510 2.34347E-03
 -1       511 1.87599E-03
 -1       512 1.48407E-03
 -1       513 1.17999E-03
 -1       514 9.20364E-04
 -1       515 7.04260E-04
 -1       516 5.28345E-04
 -1       517 3.88062E-04
 -1       518 2.78443E-04
 -1       519 1.94619E-04
 -1       520 1.32092E-04
 -1       521 8.65975E-05
 -1       522 7.85396E-05
 -1       523 4.34266E+00
 -1       524 5.85806E+00
 -1       525 5.32050E+00
 -1       526 3.70578E+00
 -1       527 2.93946E+00
 -1       528 2.41356E+00
 -1       529 2.00090E+00
 -1       530 1.57699E+00
 -1       531 1.19819E+00
 -1       532 8.85399E-01
 -1       533 6.40189E-01
 -1       534 4.54579E-01
 -1       535 3.17499E-01
 -1       536 2.18078E-01
 -1       537 1.46997E-01
 -1       538 9.68336E-02
 -1       539 6.33712E-02
 -1       540 3.85631E-02
 -1       541 2.76238E-02
 -1       542 2.24347E-02
 -1       543 1.84334E-02
 -1       544 1.48654E-02
 -1       545 1.17866E-02
 -1       546 9.20733E-03
 -1       547 7.56945E-03
 -1       548 6.27461E-03
 -1       549 5.18989E-03
 -1       550 4.27616E-03
 -1       551 3.51016E-03
 -1       552 2.82690E-03
 -1       553 2.31288E-03
 -1       554 1.82653E-03
 -1       555 1.44105E-03
 -1       556 1.11631E-03
 -1       557 8.49062E-04
 -1       558 6.33469E-04
 -1       559 4.62765E-04
 -1       560 3.30092E-04
 -1       561 2.29030E-04
 -1       562 1.51701E-04
 -1       563 1.11013E-04
 -1       564 7.29083E-05
 -1       565 4.42883E+00
 -1       566 6.33315E-05
 -1       567 7.85396E-05
 -1       568 7.45074E-05
 -1       569 7.52331E-05
 -1       570 7.52331E-05
 -1       571 7.51582E-05
 -1       572 7.46083E-05
 -1       573 6.32477E-05
 -1       574 6.10857E-05
 -1       575 6.10857E-05
 -1       576 7.56878E+00
 -1       577 1.82318E+01
 -1       578 2.58436E+01
 -1       579 1.26644E+00
 -1       580 7.07769E+00
 -1       581 1.84517E+01
 -1       582 5.77768E+00
 -1       583 8.63531E+00
 -1       584 1.36560E+01
 -1       585 3.88289E+00
 -1       586 9.75739E+00
 -1       587 4.61500E+00
 -1       588 3.36076E+00
 -1       589 4.33237E+00
 -1       590 6.02822E+00
 -1       591 6.12510E+00
 -1       592 4.34043E+00
 -1       593 9.28339E+00
 -1       594 1.21364E+01
 -1       595 5.99789E+00
 -1       596 5.70118E+00
 -1       597 1.79741E+01
 -1       598 5.28105E-05
 -1       599 1.09770E+01
 -1       600 3.69915E+00
 -1       601 6.46625E+00
 -1       602 1.19171E+00
 -1       603 2.00230E+00
 -1       604 3.25575E+00
 -1       605 1.21061E-04
 -1       606 1.50164E+01
 -1       607 1.08835E+00
 -1       608 1.00780E+00
 -1       609 1.01040E+00
 -1       610 9.01564E-01
 -1       611 7.53755E-01
 -1       612 5.79143E-01
 -1       613 4.57495E-01
 -1       614 3.33724E-01
 -1       615 2.51016E-01
 -1       616 2.17342E-01
 -1       617 1.79999E-01
 -1       618 1.47845E-01
 -1       619 1.25415E-01
 -1       620 1.02045E-01
 -1       621 8.00807E-02
 -1       622 6.07520E-02
 -1       623 4.45380E-02
 -1       624 3.14505E-02
 -1       625 2.12360E-02
 -1       626 1.35123E-02
 -1       627 8.29983E-03
 -1       628 6.48338E-03
 -1       629 6.31127E-03
 -1       630 5.81635E-03
 -1       631 5.14886E-03
 -1       632 4.41560E-03
 -1       633 3.71727E-03
 -1       634 3.24811E-03
 -1       635 2.75560E-03
 -1       636 2.28030E-03
 -1       637 1.85028E-03
 -1       638 1.49569E-03
 -1       639 1.18530E-03
 -1       640 9.21558E-04
 -1       641 7.09120E-04
 -1       642 5.47625E-04
 -1       643 4.14831E-04
 -1       644 3.07927E-04
 -1       645 2.23568E-04
 -1       646 1.58465E-04
 -1       647 9.89713E-05
 -1       648 1.03639E-04
 -1       649 9.77465E+00
 -1       650 1.44109E+00
 -1       651 1.04198E+01
 -1       652 2.52141E+00
 -1       653 1.76502E+00
 -1       654 1.25767E+00
 -1       655 9.08204E-01
 -1       656 6.59079E-01
 -1       657 4.77474E-01
 -1       658 3.43780E-01
 -1       659 2.45206E-01
 -1       660 1.72789E-01
 -1       661 1.19946E-01
 -1       662 8.20938E-02
 -1       663 5.30977E-02
 -1       664 3.39569E-02
 -1       665 2.06506E-02
 -1       666 1.33474E-02
 -1       667 1.13722E-02
 -1       668 1.00273E-02
 -1       669 8.56786E-03
 -1       670 7.14050E-03
 -1       671 5.82685E-03
 -1       672 4.89277E-03
 -1       673 4.10767E-03
 -1       674 3.42925E-03
 -1       675 2.82140E-03
 -1       676 2.31665E-03
 -1       677 1.84324E-03
 -1       678 1.45447E-03
 -1       679 1.13592E-03
 -1       680 8.91818E-04
 -1       681 6.87404E-04
 -1       682 5.19975E-04
 -1       683 3.85596E-04
 -1       684 2.79887E-04
 -1       685 1.95526E-04
 -1       686 1.53400E-04
 -1       687 3.10079E+00
 -1       688 9.59037E-05
 -1       689 1.03984E-04
 -1       690 1.03984E-04
 -1       691 9.72281E-05
 -1       692 7.43860E-05
 -1       693 1.26180E+01
 -1       694 9.95498E+00
 -1       695 4.62005E+00
 -1       696 7.49361E+00
 -1       697 3.20698E+00
 -1       698 6.10857E-05
 -1       699 7.79724E+00
 -1       700 5.72580E+00
 -1       701 1.03639E-04
 -1       702 2.00230E+00
 -1       703 1.04198E+01
 -1       704 9.84149E+00
 -1       705 1.21061E-04
 -1       706 1.27105E+00
 -1       707 3.91732E+00
 -1       708 7.33056E-05
 -1       709 2.35123E+00
 -1       710 3.44162E+00
 -1       711 1.85964E+00
 -1       712 1.96482E+00
 -1       713 1.84493E+00
 -1       714 1.08827E+00
 -1       715 9.59608E-01
 -1       716 8.34111E-01
 -1       717 6.34533E-01
 -1       718 4.57495E-01
 -1       719 3.71172E-01
 -1       720 2.96576E-01
 -1       721 2.29106E-01
 -1       722 1.87028E-01
 -1       723 1.50185E-01
 -1       724 1.17467E-01
 -1       725 8.98049E-02
 -1       726 6.71878E-02
 -1       727 4.91578E-02
 -1       728 3.50869E-02
 -1       729 2.43185E-02
 -1       730 1.62372E-02
 -1       731 1.02977E-02
 -1       732 6.03436E-03
 -1       733 3.62568E-03
 -1       734 3.93838E-03
 -1       735 4.05234E-03
 -1       736 3.86932E-03
 -1       737 3.51355E-03
 -1       738 3.07382E-03
 -1       739 2.70087E-03
 -1       740 2.36062E-03
 -1       741 2.00333E-03
 -1       742 1.65858E-03
 -1       743 1.34353E-03
 -1       744 1.06669E-03
 -1       745 8.30714E-04
 -1       746 6.34568E-04
 -1       747 4.75048E-04
 -1       748 3.47874E-04
 -1       749 2.48298E-04
 -1       750 1.73203E-04
 -1       751 1.18215E-04
 -1       752 1.39629E-04
 -1       753 1.67668E+00
 -1       754 1.19284E+00
 -1       755 8.42464E-01
 -1       756 5.90516E-01
 -1       757 4.10163E-01
 -1       758 2.81698E-01
 -1       759 1.90814E-01
 -1       760 1.29679E-01
 -1       761 8.63228E-02
 -1       762 5.88821E-02
 -1       763 4.02575E-02
 -1       764 2.66700E-02
 -1       765 1.69109E-02
 -1       766 1.00390E-02
 -1       767 6.34932E-03
 -1       768 6.27550E-03
 -1       769 5.90892E-03
 -1       770 5.30164E-03
 -1       771 4.59404E-03
 -1       772 3.87390E-03
 -1       773 3.35750E-03
 -1       774 2.86948E-03
 -1       775 2.38428E-03
 -1       776 1.93226E-03
 -1       777 1.54462E-03
 -1       778 1.21302E-03
 -1       779 9.35585E-04
 -1       780 7.08433E-04
 -1       781 5.25981E-04
 -1       782 3.90499E-04
 -1       783 2.91767E-04
 -1       784 2.13285E-04
 -1       785 1.39629E-04
 -1       786 1.35759E-04
 -1       787 1.19671E-04
 -1       788 1.98704E+00
 -1       789 1.99056E+00
 -1       790 2.52510E+00
 -1       791 2.62741E+00
 -1       792 9.84149E+00
 -1       793 6.04251E+00
 -1       794 1.50523E+00
 -1       795 8.11506E+00
 -1       796 6.96994E+00
 -1       797 5.11850E+00
 -1       798 3.24720E+00
 -1       799 7.31367E+00
 -1       800 1.06809E-04
 -1       801 1.78960E-04
 -1       802 1.53400E-04
 -1       803 1.28256E-04
 -1       804 2.36303E+00
 -1       805 6.96994E+00
 -1       806 1.35357E-04
 -1       807 1.35357E-04
 -1       808 1.81882E-04
 -1       809 1.84493E+00
 -1       810 1.62775E+00
 -1       811 1.17836E+00
 -1       812 8.44004E-01
 -1       813 6.90568E-01
 -1       814 5.40069E-01
 -1       815 4.01374E-01
 -1       816 3.18605E-01
 -1       817 2.44659E-01
 -1       818 1.83407E-01
 -1       819 1.36911E-01
 -1       820 1.05918E-01
 -1       821 8.10022E-02
 -1       822 6.22233E-02
 -1       823 4.60108E-02
 -1       824 3.26888E-02
 -1       825 2.26505E-02
 -1       826 1.50836E-02
 -1       827 9.42015E-03
 -1       828 5.31395E-03
 -1       829 2.97019E-03
 -1       830 2.43439E-03
 -1       831 2.85561E-03
 -1       832 2.93418E-03
 -1       833 2.79672E-03
 -1       834 2.53552E-03
 -1       835 2.22635E-03
 -1       836 1.97910E-03
 -1       837 1.70291E-03
 -1       838 1.42682E-03
 -1       839 1.16845E-03
 -1       840 9.37330E-04
 -1       841 7.37450E-04
 -1       842 5.69192E-04
 -1       843 4.30719E-04
 -1       844 3.19164E-04
 -1       845 2.30146E-04
 -1       846 1.96482E+00
 -1       847 2.62741E+00
 -1       848 6.82730E-01
 -1       849 4.83647E-01
 -1       850 3.42411E-01
 -1       851 2.41198E-01
 -1       852 1.68237E-01
 -1       853 1.15035E-01
 -1       854 7.68450E-02
 -1       855 5.21519E-02
 -1       856 3.44137E-02
 -1       857 2.20050E-02
 -1       858 1.33685E-02
 -1       859 7.43882E-03
 -1       860 4.06159E-03
 -1       861 3.70202E-03
 -1       862 3.97739E-03
 -1       863 3.87899E-03
 -1       864 3.56731E-03
 -1       865 3.14999E-03
 -1       866 2.70747E-03
 -1       867 2.37823E-03
 -1       868 2.01966E-03
 -1       869 1.68014E-03
 -1       870 1.36882E-03
 -1       871 1.09355E-03
 -1       872 8.57582E-04
 -1       873 6.60282E-04
 -1       874 4.98793E-04
 -1       875 3.69063E-04
 -1       876 2.65962E-04
 -1       877 1.85170E-04
 -1       878 1.85170E-04
 -1       879 4.96901E+00
 -1       880 3.16504E+00
 -1       881 4.03737E+00
 -1       882 5.88657E+00
 -1       883 9.70439E-01
 -1       884 1.51456E+00
 -1       885 2.09045E+00
 -1       886 1.40268E+00
 -1       887 6.50840E+00
 -1       888 2.34815E-04
 -1       889 1.56825E-04
 -1       890 1.93949E-04
 -1       891 4.68661E+00
 -1       892 2.55152E+00
 -1       893 2.36451E-04
 -1       894 2.46302E+00
 -1       895 2.22505E-04
 -1       896 1.96482E+00
 -1       897 2.25517E+00
 -1       898 1.30926E+00
 -1       899 1.01130E+00
 -1       900 7.67793E-01
 -1       901 6.01412E-01
 -1       902 4.45264E-01
 -1       903 3.17264E-01
 -1       904 2.28635E-01
 -1       905 1.74995E-01
 -1       906 1.35531E-01
 -1       907 1.05918E-01
 -1       908 8.05075E-02
 -1       909 5.95743E-02
 -1       910 4.28595E-02
 -1       911 2.98632E-02
 -1       912 2.01801E-02
 -1       913 1.33897E-02
 -1       914 8.40538E-03
 -1       915 4.93308E-03
 -1       916 2.97328E-03
 -1       917 1.68375E-03
 -1       918 2.07780E-03
 -1       919 2.25718E-03
 -1       920 2.22325E-03
 -1       921 2.06138E-03
 -1       922 1.83195E-03
 -1       923 1.60639E-03
 -1       924 1.38784E-03
 -1       925 1.16708E-03
 -1       926 9.59052E-04
 -1       927 7.71965E-04
 -1       928 6.09436E-04
 -1       929 4.72052E-04
 -1       930 3.58033E-04
 -1       931 2.85690E-04
 -1       932 3.40724E-01
 -1       933 4.63764E-01
 -1       934 1.82274E-01
 -1       935 1.30661E-01
 -1       936 9.16176E-02
 -1       937 6.37910E-02
 -1       938 4.34406E-02
 -1       939 2.95638E-02
 -1       940 1.94375E-02
 -1       941 1.21810E-02
 -1       942 7.18943E-03
 -1       943 3.77848E-03
 -1       944 2.08329E-03
 -1       945 2.65749E-03
 -1       946 2.82576E-03
 -1       947 2.74270E-03
 -1       948 2.51459E-03
 -1       949 2.20586E-03
 -1       950 1.91596E-03
 -1       951 1.65763E-03
 -1       952 1.39652E-03
 -1       953 1.14955E-03
 -1       954 9.26952E-04
 -1       955 7.33239E-04
 -1       956 5.69271E-04
 -1       957 4.33682E-04
 -1       958 3.24710E-04
 -1       959 2.45121E-04
 -1       960 1.36290E+00
 -1       961 3.00116E+00
 -1       962 2.51682E-04
 -1       963 3.10032E+00
 -1       964 6.33015E-01
 -1       965 2.50298E-01
 -1       966 2.12879E+00
 -1       967 9.02920E-01
 -1       968 6.50840E+00
 -1       969 4.25043E+00
 -1       970 4.32424E+00
 -1       971 2.37502E-04
 -1       972 2.80843E+00
 -1       973 2.25517E+00
 -1       974 2.51682E-04
 -1       975 2.22619E+00
 -1       976 1.61199E+00
 -1       977 1.29723E+00
 -1       978 8.75679E-01
 -1       979 5.92959E-01
 -1       980 4.31616E-01
 -1       981 2.92450E-01
 -1       982 2.28635E-01
 -1       983 1.74995E-01
 -1       984 1.31572E-01
 -1       985 9.72042E-02
 -1       986 7.06003E-02
 -1       987 5.03297E-02
 -1       988 3.51003E-02
 -1       989 2.38151E-02
 -1       990 1.57806E-02
 -1       991 1.11866E-02
 -1       992 7.61403E-03
 -1       993 4.93308E-03
 -1       994 2.97328E-03
 -1       995 1.58571E-03
 -1       996 1.56906E-03
 -1       997 1.74614E-03
 -1       998 1.74270E-03
 -1       999 1.62988E-03
 -1      1000 1.45790E-03
 -1      1001 1.26099E-03
 -1      1002 1.06374E-03
 -1      1003 8.91677E-04
 -1      1004 7.30904E-04
 -1      1005 5.87142E-04
 -1      1006 4.62822E-04
 -1      1007 3.58935E-04
 -1      1008 2.85690E-04
 -1      1009 6.60708E-02
 -1      1010 3.64587E-01
 -1      1011 9.50289E-02
 -1      1012 1.28072E-01
 -1      1013 4.73473E-02
 -1      1014 3.29971E-02
 -1      1015 2.26584E-02
 -1      1016 1.52815E-02
 -1      1017 9.85283E-03
 -1      1018 6.00360E-03
 -1      1019 3.44582E-03
 -1      1020 1.86409E-03
 -1      1021 1.79482E-03
 -1      1022 2.05858E-03
 -1      1023 2.08226E-03
 -1      1024 1.95711E-03
 -1      1025 1.75412E-03
 -1      1026 1.52051E-03
 -1      1027 1.29634E-03
 -1      1028 1.09744E-03
 -1      1029 9.06981E-04
 -1      1030 7.33829E-04
 -1      1031 5.82195E-04
 -1      1032 4.53254E-04
 -1      1033 3.47266E-04
 -1      1034 2.03119E-04
 -1      1035 3.25323E+00
 -1      1036 2.73990E-04
 -1      1037 5.13658E-01
 -1      1038 1.75441E+00
 -1      1039 2.58298E-01
 -1      1040 3.24339E+00
 -1      1041 1.82337E-01
 -1      1042 2.51806E-04
 -1      1043 2.06577E+00
 -1      1044 1.06992E+00
 -1      1045 7.39292E-01
 -1      1046 1.52916E-01
 -1      1047 1.52378E+00
 -1      1048 1.32316E+00
 -1      1049 6.29540E-01
 -1      1050 6.29540E-01
 -1      1051 2.92450E-01
 -1      1052 2.12489E-01
 -1      1053 1.52488E-01
 -1      1054 1.08015E-01
 -1      1055 7.58377E-02
 -1      1056 5.58373E-02
 -1      1057 4.15857E-02
 -1      1058 3.01417E-02
 -1      1059 2.12780E-02
 -1      1060 1.49309E-02
 -1      1061 1.01304E-02
 -1      1062 6.74055E-03
 -1      1063 4.22149E-03
 -1      1064 2.41722E-03
 -1      1065 1.33109E-03
 -1      1066 1.20116E-03
 -1      1067 1.32216E-03
 -1      1068 1.31140E-03
 -1      1069 1.22172E-03
 -1      1070 1.11637E-03
 -1      1071 1.01089E-03
 -1      1072 8.82510E-04
 -1      1073 7.48557E-04
 -1      1074 6.19834E-04
 -1      1075 5.02466E-04
 -1      1076 4.00469E-04
 -1      1077 3.09485E-04
 -1      1078 5.62244E-02
 -1      1079 1.16013E-01
 -1      1080 2.76016E-02
 -1      1081 1.90252E-02
 -1      1082 1.43937E-02
 -1      1083 8.73214E-03
 -1      1084 5.45731E-03
 -1      1085 3.23722E-03
 -1      1086 1.69651E-03
 -1      1087 1.22963E-03
 -1      1088 1.48220E-03
 -1      1089 1.53861E-03
 -1      1090 1.46930E-03
 -1      1091 1.33274E-03
 -1      1092 1.16442E-03
 -1      1093 9.88027E-04
 -1      1094 8.18141E-04
 -1      1095 6.65815E-04
 -1      1096 5.46459E-04
 -1      1097 4.39746E-04
 -1      1098 3.47105E-04
 -1      1099 5.52155E-01
 -1      1100 7.91763E-02
 -1      1101 1.68076E+00
 -1      1102 2.22619E+00
 -1      1103 3.96350E-02
 -1      1104 2.79711E-01
 -1      1105 1.82404E+00
 -1      1106 2.19010E+00
 -1      1107 2.07530E-01
 -1      1108 1.52378E+00
 -1      1109 2.27042E-04
 -1      1110 6.29540E-01
 -1      1111 2.07516E-04
 -1      1112 2.62485E-04
 -1      1113 2.79711E-01
 -1      1114 1.43937E-02
 -1      1115 1.09015E+00
 -1      1116 2.07530E-01
 -1      1117 1.52916E-01
 -1      1118 1.16058E-01
 -1      1119 8.78176E-02
 -1      1120 6.50794E-02
 -1      1121 4.73959E-02
 -1      1122 3.42129E-02
 -1      1123 2.41086E-02
 -1      1124 7.60615E-03
 -1      1125 4.76550E-03
 -1      1126 2.76962E-03
 -1      1127 1.38908E-03
 -1      1128 9.33878E-04
 -1      1129 1.17027E-03
 -1      1130 1.19278E-03
 -1      1131 1.17255E-03
 -1      1132 1.12104E-03
 -1      1133 1.01830E-03
 -1      1134 8.91251E-04
 -1      1135 7.59140E-04
 -1      1136 6.34309E-04
 -1      1137 5.18653E-04
 -1      1138 4.14983E-04
 -1      1139 9.59625E-01
 -1      1140 1.47736E-02
 -1      1141 3.09485E-04
 -1      1142 1.56885E+00
 -1      1143 1.43926E+01
 -1      1144 8.58372E+00
 -1      1145 1.90835E+00
 -1      1146 1.12355E+00
 -1      1147 1.31980E+00
 -1      1148 1.61735E+00
 -1      1149 2.82130E+00
 -1      1150 5.54418E+00
 -1      1151 9.75260E+00
 -1      1152 1.33614E+01
 -1      1153 1.61315E+01
 -1      1154 1.83265E+01
 -1      1155 1.88537E+01
 -1      1156 1.66007E+01
 -1      1157 1.20422E+01
 -1      1158 8.49526E+00
 -1      1159 8.93847E+00
 -1      1160 1.17059E+01
 -1      1161 1.43926E+01
 -1      1162 1.05085E+01
 -1      1163 6.11786E+00
 -1      1164 4.97799E+00
 -1      1165 3.90644E+00
 -1      1166 3.22192E+00
 -1      1167 2.66887E+00
 -1      1168 2.02252E+00
 -1      1169 1.39155E+00
 -1      1170 8.91941E-01
 -1      1171 5.76551E-01
 -1      1172 3.80189E-01
 -1      1173 2.72094E-01
 -1      1174 2.43242E-01
 -1      1175 2.26107E-01
 -1      1176 1.99927E-01
 -1      1177 1.58513E-01
 -1      1178 1.31792E-01
 -1      1179 1.20032E-01
 -1      1180 1.02923E-01
 -1      1181 8.36096E-02
 -1      1182 6.48639E-02
 -1      1183 5.19443E-02
 -1      1184 4.44216E-02
 -1      1185 3.72254E-02
 -1      1186 3.02400E-02
 -1      1187 2.39047E-02
 -1      1188 1.84262E-02
 -1      1189 1.43452E-02
 -1      1190 1.16734E-02
 -1      1191 9.55719E-03
 -1      1192 7.64963E-03
 -1      1193 5.99619E-03
 -1      1194 4.66533E-03
 -1      1195 3.62349E-03
 -1      1196 2.76571E-03
 -1      1197 2.06896E-03
 -1      1198 1.54373E-03
 -1      1199 1.19964E-03
 -1      1200 9.58362E-04
 -1      1201 7.51364E-04
 -1      1202 5.78396E-04
 -1      1203 4.37014E-04
 -1      1204 3.23550E-04
 -1      1205 2.45398E-04
 -1      1206 1.99122E-04
 -1      1207 1.61790E-04
 -1      1208 1.21424E-04
 -1      1209 7.58672E-05
 -1      1210 3.37745E-05
 -1      1211 1.27888E+01
 -1      1212 8.42461E+00
 -1      1213 4.62835E+00
 -1      1214 5.92975E+00
 -1      1215 6.66328E+00
 -1      1216 6.50716E+00
 -1      1217 5.20988E+00
 -1      1218 2.92037E+00
 -1      1219 2.08722E+00
 -1      1220 2.40242E+00
 -1      1221 2.33411E+00
 -1      1222 2.06413E+00
 -1      1223 1.67000E+00
 -1      1224 1.29000E+00
 -1      1225 9.55635E-01
 -1      1226 7.09882E-01
 -1      1227 5.29958E-01
 -1      1228 3.86227E-01
 -1      1229 2.76439E-01
 -1      1230 1.94889E-01
 -1      1231 1.35403E-01
 -1      1232 9.25538E-02
 -1      1233 6.32712E-02
 -1      1234 4.62450E-02
 -1      1235 3.60909E-02
 -1      1236 2.79002E-02
 -1      1237 2.13158E-02
 -1      1238 1.61999E-02
 -1      1239 1.30153E-02
 -1      1240 1.10486E-02
 -1      1241 9.17538E-03
 -1      1242 7.47359E-03
 -1      1243 5.98183E-03
 -1      1244 4.77429E-03
 -1      1245 3.81090E-03
 -1      1246 2.98888E-03
 -1      1247 2.33692E-03
 -1      1248 1.76645E-03
 -1      1249 1.28453E-03
 -1      1250 9.80839E-04
 -1      1251 7.67311E-04
 -1      1252 5.89864E-04
 -1      1253 4.45362E-04
 -1      1254 3.29679E-04
 -1      1255 2.38236E-04
 -1      1256 1.66313E-04
 -1      1257 1.21612E-04
 -1      1258 9.39037E-05
 -1      1259 6.13904E-05
 -1      1260 3.15790E-05
 -1      1261 1.96006E-05
 -1      1262 1.91749E-05
 -1      1263 1.84074E-05
 -1      1264 1.55308E-05
 -1      1265 9.31528E-06
 -1      1266 8.82521E-06
 -1      1267 1.43204E-05
 -1      1268 1.73366E-05
 -1      1269 1.80483E-05
 -1      1270 1.73182E-05
 -1      1271 1.42237E-05
 -1      1272 8.81044E-06
 -1      1273 9.50554E-06
 -1      1274 1.53249E-05
 -1      1275 1.82115E-05
 -1      1276 1.99873E-05
 -1      1277 1.83849E-05
 -1      1278 3.03075E+01
 -1      1279 3.43317E+01
 -1      1280 3.83558E+01
 -1      1281 2.63173E+01
 -1      1282 1.32614E+01
 -1      1283 1.23225E+01
 -1      1284 1.28226E+01
 -1      1285 1.32442E+01
 -1      1286 1.48106E+01
 -1      1287 2.69077E+01
 -1      1288 3.77339E+01
 -1      1289 4.14445E+01
 -1      1290 4.48596E+01
 -1      1291 4.18290E+01
 -1      1292 4.18221E+01
 -1      1293 4.48459E+01
 -1      1294 3.41962E+01
 -1      1295 1.81392E+01
 -1      1296 1.16940E+01
 -1      1297 1.10705E+01
 -1      1298 1.14849E+01
 -1      1299 1.14909E+01
 -1      1300 1.14970E+01
 -1      1301 1.14265E+01
 -1      1302 1.55086E+01
 -1      1303 3.28457E+01
 -1      1304 4.60303E+01
 -1      1305 3.74649E+01
 -1      1306 2.96035E+01
 -1      1307 1.43926E+01
 -1      1308 2.77489E+00
 -1      1309 8.58372E+00
 -1      1310 1.18340E+00
 -1      1311 2.04994E+00
 -1      1312 2.04994E+00
 -1      1313 1.20528E+00
 -1      1314 1.12355E+00
 -1      1315 1.26513E+00
 -1      1316 1.43432E+00
 -1      1317 1.31980E+00
 -1      1318 1.31980E+00
 -1      1319 1.70750E+00
 -1      1320 1.52446E+00
 -1      1321 1.52446E+00
 -1      1322 3.23844E+00
 -1      1323 2.21753E+00
 -1      1324 2.12464E+00
 -1      1325 6.29092E+00
 -1      1326 4.58896E+00
 -1      1327 3.98518E+00
 -1      1328 1.14151E+01
 -1      1329 8.90861E+00
 -1      1330 7.95339E+00
 -1      1331 1.51636E+01
 -1      1332 1.40613E+01
 -1      1333 1.32173E+01
 -1      1334 2.15816E+01
 -1      1335 2.10545E+01
 -1      1336 2.02282E+01
 -1      1337 2.02282E+01
 -1      1338 2.29562E+01
 -1      1339 1.74521E+01
 -1      1340 1.97051E+01
 -1      1341 2.10797E+01
 -1      1342 1.19283E+01
 -1      1343 1.42338E+01
 -1      1344 1.73383E+01
 -1      1345 8.00654E+00
 -1      1346 9.24797E+00
 -1      1347 1.14396E+01
 -1      1348 8.87619E+00
 -1      1349 7.19155E+00
 -1      1350 7.94426E+00
 -1      1351 1.27888E+01
 -1      1352 1.17059E+01
 -1      1353 9.95901E+00
 -1      1354 1.27888E+01
 -1      1355 1.05085E+01
 -1      1356 6.62454E+00
 -1      1357 6.11786E+00
 -1      1358 5.61117E+00
 -1      1359 6.11786E+00
 -1      1360 4.97799E+00
 -1      1361 4.34481E+00
 -1      1362 4.97799E+00
 -1      1363 3.90644E+00
 -1      1364 3.46808E+00
 -1      1365 3.90644E+00
 -1      1366 3.22192E+00
 -1      1367 2.97576E+00
 -1      1368 3.22192E+00
 -1      1369 2.66887E+00
 -1      1370 2.36198E+00
 -1      1371 2.66887E+00
 -1      1372 2.04462E+00
 -1      1373 1.70515E+00
 -1      1374 2.04462E+00
 -1      1375 1.45756E+00
 -1      1376 1.16606E+00
 -1      1377 1.47966E+00
 -1      1378 9.80681E-01
 -1      1379 7.72569E-01
 -1      1380 1.04669E+00
 -1      1381 6.19598E-01
 -1      1382 5.12320E-01
 -1      1383 7.08338E-01
 -1      1384 3.83970E-01
 -1      1385 2.94886E-01
 -1      1386 4.27018E-01
 -1      1387 2.72094E-01
 -1      1388 2.53083E-01
 -1      1389 2.75876E-01
 -1      1390 2.43242E-01
 -1      1391 2.33400E-01
 -1      1392 2.43242E-01
 -1      1393 2.26107E-01
 -1      1394 2.18814E-01
 -1      1395 2.26107E-01
 -1      1396 1.99927E-01
 -1      1397 1.81039E-01
 -1      1398 1.99927E-01
 -1      1399 1.62235E-01
 -1      1400 1.39709E-01
 -1      1401 1.62235E-01
 -1      1402 1.31792E-01
 -1      1403 1.27597E-01
 -1      1404 1.35514E-01
 -1      1405 1.20032E-01
 -1      1406 1.12467E-01
 -1      1407 1.20032E-01
 -1      1408 1.02923E-01
 -1      1409 9.33799E-02
 -1      1410 1.02923E-01
 -1      1411 8.36096E-02
 -1      1412 7.38393E-02
 -1      1413 8.36096E-02
 -1      1414 6.61373E-02
 -1      1415 5.71619E-02
 -1      1416 6.61373E-02
 -1      1417 5.19443E-02
 -1      1418 4.80001E-02
 -1      1419 5.32177E-02
 -1      1420 4.44216E-02
 -1      1421 4.08431E-02
 -1      1422 4.44216E-02
 -1      1423 3.72254E-02
 -1      1424 3.36077E-02
 -1      1425 3.72254E-02
 -1      1426 3.02400E-02
 -1      1427 2.68723E-02
 -1      1428 3.02400E-02
 -1      1429 2.39047E-02
 -1      1430 2.09371E-02
 -1      1431 2.39047E-02
 -1      1432 1.85103E-02
 -1      1433 1.59994E-02
 -1      1434 1.85103E-02
 -1      1435 1.43452E-02
 -1      1436 1.27752E-02
 -1      1437 1.44293E-02
 -1      1438 1.16734E-02
 -1      1439 1.05716E-02
 -1      1440 1.16734E-02
 -1      1441 9.55719E-03
 -1      1442 8.54280E-03
 -1      1443 9.55719E-03
 -1      1444 7.66434E-03
 -1      1445 6.77116E-03
 -1      1446 7.66434E-03
 -1      1447 6.11683E-03
 -1      1448 5.35657E-03
 -1      1449 6.13154E-03
 -1      1450 4.79749E-03
 -1      1451 4.22689E-03
 -1      1452 4.91812E-03
 -1      1453 3.81830E-03
 -1      1454 3.34705E-03
 -1      1455 3.95046E-03
 -1      1456 2.98564E-03
 -1      1457 2.59911E-03
 -1      1458 3.18045E-03
 -1      1459 2.28972E-03
 -1      1460 1.97950E-03
 -1      1461 2.50965E-03
 -1      1462 1.72161E-03
 -1      1463 1.50660E-03
 -1      1464 1.94237E-03
 -1      1465 1.29651E-03
 -1      1466 1.16744E-03
 -1      1467 1.47439E-03
 -1      1468 9.99772E-04
 -1      1469 8.87560E-04
 -1      1470 1.09664E-03
 -1      1471 7.56299E-04
 -1      1472 6.61513E-04
 -1      1473 7.97710E-04
 -1      1474 5.79754E-04
 -1      1475 5.01572E-04
 -1      1476 5.84689E-04
 -1      1477 4.43957E-04
 -1      1478 3.80756E-04
 -1      1479 4.45314E-04
 -1      1480 3.33488E-04
 -1      1481 2.83226E-04
 -1      1482 3.40432E-04
 -1      1483 2.45398E-04
 -1      1484 2.17509E-04
 -1      1485 2.55337E-04
 -1      1486 1.99122E-04
 -1      1487 1.80735E-04
 -1      1488 1.99122E-04
 -1      1489 1.61790E-04
 -1      1490 1.42846E-04
 -1      1491 1.61790E-04
 -1      1492 1.21424E-04
 -1      1493 1.00003E-04
 -1      1494 1.21424E-04
 -1      1495 7.86872E-05
 -1      1496 5.45512E-05
 -1      1497 7.86872E-05
 -1      1498 3.63415E-05
 -1      1499 3.91615E-05
 -1      1500 3.70191E+00
 -1      1501 8.06605E+00
 -1      1502 8.06605E+00
 -1      1503 4.62835E+00
 -1      1504 4.06047E+00
 -1      1505 3.70191E+00
 -1      1506 5.92975E+00
 -1      1507 5.19622E+00
 -1      1508 4.62835E+00
 -1      1509 6.66328E+00
 -1      1510 6.66328E+00
 -1      1511 5.92975E+00
 -1      1512 6.35104E+00
 -1      1513 6.50716E+00
 -1      1514 6.50716E+00
 -1      1515 4.06872E+00
 -1      1516 5.20988E+00
 -1      1517 5.20988E+00
 -1      1518 1.76108E+00
 -1      1519 2.90943E+00
 -1      1520 2.90943E+00
 -1      1521 2.21116E+00
 -1      1522 1.89596E+00
 -1      1523 1.88502E+00
 -1      1524 2.40242E+00
 -1      1525 2.40242E+00
 -1      1526 2.21116E+00
 -1      1527 2.26580E+00
 -1      1528 2.33411E+00
 -1      1529 2.33411E+00
 -1      1530 1.86245E+00
 -1      1531 2.06413E+00
 -1      1532 2.06413E+00
 -1      1533 1.51343E+00
 -1      1534 1.70588E+00
 -1      1535 1.70588E+00
 -1      1536 1.15437E+00
 -1      1537 1.34193E+00
 -1      1538 1.37781E+00
 -1      1539 8.61134E-01
 -1      1540 1.00794E+00
 -1      1541 1.05987E+00
 -1      1542 6.37489E-01
 -1      1543 7.36437E-01
 -1      1544 7.88741E-01
 -1      1545 4.58545E-01
 -1      1546 5.39522E-01
 -1      1547 5.66077E-01
 -1      1548 3.26995E-01
 -1      1549 3.89749E-01
 -1      1550 3.99313E-01
 -1      1551 2.34488E-01
 -1      1552 2.81522E-01
 -1      1553 2.85044E-01
 -1      1554 1.65825E-01
 -1      1555 2.00340E-01
 -1      1556 2.05423E-01
 -1      1557 1.15639E-01
 -1      1558 1.40609E-01
 -1      1559 1.46060E-01
 -1      1560 7.93778E-02
 -1      1561 9.72571E-02
 -1      1562 1.02463E-01
 -1      1563 5.55633E-02
 -1      1564 6.69667E-02
 -1      1565 7.16700E-02
 -1      1566 4.06223E-02
 -1      1567 4.62450E-02
 -1      1568 4.99405E-02
 -1      1569 3.15595E-02
 -1      1570 3.60909E-02
 -1      1571 3.60909E-02
 -1      1572 2.42408E-02
 -1      1573 2.79002E-02
 -1      1574 2.79002E-02
 -1      1575 1.83908E-02
 -1      1576 2.13158E-02
 -1      1577 2.13158E-02
 -1      1578 1.40727E-02
 -1      1579 1.62636E-02
 -1      1580 1.62636E-02
 -1      1581 1.20215E-02
 -1      1582 1.30153E-02
 -1      1583 1.30789E-02
 -1      1584 1.00758E-02
 -1      1585 1.10486E-02
 -1      1586 1.10486E-02
 -1      1587 8.27497E-03
 -1      1588 9.17538E-03
 -1      1589 9.17538E-03
 -1      1590 6.67221E-03
 -1      1591 7.47359E-03
 -1      1592 7.47359E-03
 -1      1593 5.29144E-03
 -1      1594 5.98183E-03
 -1      1595 5.98183E-03
 -1      1596 4.26049E-03
 -1      1597 4.77764E-03
 -1      1598 4.77764E-03
 -1      1599 3.40280E-03
 -1      1600 3.84905E-03
 -1      1601 3.85239E-03
 -1      1602 2.67063E-03
 -1      1603 3.04641E-03
 -1      1604 3.08456E-03
 -1      1605 2.11927E-03
 -1      1606 2.39544E-03
 -1      1607 2.45298E-03
 -1      1608 1.53788E-03
 -1      1609 1.83219E-03
 -1      1610 1.89071E-03
 -1      1611 1.15003E-03
 -1      1612 1.33763E-03
 -1      1613 1.40338E-03
 -1      1614 8.83874E-04
 -1      1615 9.99966E-04
 -1      1616 1.05307E-03
 -1      1617 6.69875E-04
 -1      1618 7.67311E-04
 -1      1619 7.86438E-04
 -1      1620 5.09853E-04
 -1      1621 5.89864E-04
 -1      1622 5.89864E-04
 -1      1623 3.83948E-04
 -1      1624 4.48438E-04
 -1      1625 4.48438E-04
 -1      1626 2.84165E-04
 -1      1627 3.35358E-04
 -1      1628 3.38434E-04
 -1      1629 2.05089E-04
 -1      1630 2.45338E-04
 -1      1631 2.51018E-04
 -1      1632 1.42617E-04
 -1      1633 1.74290E-04
 -1      1634 1.81393E-04
 -1      1635 1.08584E-04
 -1      1636 1.21612E-04
 -1      1637 1.29589E-04
 -1      1638 7.92235E-05
 -1      1639 9.39037E-05
 -1      1640 9.39037E-05
 -1      1641 4.46929E-05
 -1      1642 6.25261E-05
 -1      1643 6.25261E-05
 -1      1644 3.15790E-05
 -1      1645 3.11532E-05
 -1      1646 3.15790E-05
 -1      1647 2.55310E-05
 -1      1648 2.58728E-05
 -1      1649 3.82768E-05
 -1      1650 2.23685E-05
 -1      1651 2.49034E-05
 -1      1652 3.23687E-05
 -1      1653 1.23046E-05
 -1      1654 1.59853E-05
 -1      1655 2.53579E-05
 -1      1656 1.79882E-05
 -1      1657 1.47976E-05
 -1      1658 2.14676E-05
 -1      1659 2.48931E-05
 -1      1660 2.25886E-05
 -1      1661 2.85609E-05
 -1      1662 2.75212E-05
 -1      1663 2.68094E-05
 -1      1664 3.50777E-05
 -1      1665 2.75212E-05
 -1      1666 2.75212E-05
 -1      1667 3.69940E-05
 -1      1668 2.67835E-05
 -1      1669 2.75135E-05
 -1      1670 3.69864E-05
 -1      1671 2.24117E-05
 -1      1672 2.47761E-05
 -1      1673 3.49714E-05
 -1      1674 1.49090E-05
 -1      1675 1.79578E-05
 -1      1676 2.85102E-05
 -1      1677 1.63080E-05
 -1      1678 1.25641E-05
 -1      1679 2.17115E-05
 -1      1680 2.45946E-05
 -1      1681 2.25191E-05
 -1      1682 2.55777E-05
 -1      1683 2.54057E-05
 -1      1684 2.45946E-05
 -1      1685 3.17888E-05
 -1      1686 2.72954E-05
 -1      1687 2.63308E-05
 -1      1688 3.27139E-05
 -1      1689 4.55051E-05
 -1      1690 3.57103E+01
 -1      1691 3.57103E+01
 -1      1692 3.67449E+01
 -1      1693 3.27208E+01
 -1      1694 3.83558E+01
 -1      1695 3.83558E+01
 -1      1696 1.42787E+01
 -1      1697 2.63173E+01
 -1      1698 1.16248E+01
 -1      1699 1.26421E+01
 -1      1700 1.23225E+01
 -1      1701 1.22442E+01
 -1      1702 1.28226E+01
 -1      1703 1.24009E+01
 -1      1704 1.32442E+01
 -1      1705 1.32442E+01
 -1      1706 1.39365E+01
 -1      1707 1.23701E+01
 -1      1708 2.69077E+01
 -1      1709 1.63770E+01
 -1      1710 3.77339E+01
 -1      1711 3.74384E+01
 -1      1712 4.15826E+01
 -1      1713 3.81675E+01
 -1      1714 4.48596E+01
 -1      1715 4.48596E+01
 -1      1716 4.05567E+01
 -1      1717 4.35874E+01
 -1      1718 4.21183E+01
 -1      1719 3.90945E+01
 -1      1720 4.48459E+01
 -1      1721 4.48459E+01
 -1      1722 2.35465E+01
 -1      1723 3.41962E+01
 -1      1724 1.29051E+01
 -1      1725 1.83124E+01
 -1      1726 1.01810E+01
 -1      1727 1.12188E+01
 -1      1728 1.10705E+01
 -1      1729 1.06562E+01
 -1      1730 1.14849E+01
 -1      1731 1.14849E+01
 -1      1732 1.14351E+01
 -1      1733 1.14291E+01
 -1      1734 1.14970E+01
 -1      1735 1.14970E+01
 -1      1736 1.13561E+01
 -1      1737 1.14265E+01
 -1      1738 1.50348E+01
 -1      1739 1.08823E+01
 -1      1740 3.34649E+01
 -1      1741 2.02803E+01
 -1      1742 4.60303E+01
 -1      1743 4.60303E+01
 -1      1744 3.36665E+01
 -1      1745 4.22318E+01
 -1      1746 3.57103E+01
 -1      1747 3.50063E+01
 -1      1748 1.81486E+01
 -1      1749 1.64808E+01
 -1      1750 1.26421E+01
 -1      1751 2.63173E+01
 -1      1752 4.35573E-05
 -1      1753 3.81235E+01
 -1      1754 3.67449E+01
 -1      1755 4.11130E+01
 -1      1756 1.16248E+01
 -1      1757 1.23225E+01
 -1      1758 1.28226E+01
 -1      1759 1.23701E+01
 -1      1760 1.39365E+01
 -1      1761 2.69077E+01
 -1      1762 3.78720E+01
 -1      1763 4.15826E+01
 -1      1764 4.35874E+01
 -1      1765 4.08529E+01
 -1      1766 4.21183E+01
 -1      1767 3.41962E+01
 -1      1768 1.83124E+01
 -1      1769 1.13920E+01
 -1      1770 1.01810E+01
 -1      1771 1.10705E+01
 -1      1772 1.14291E+01
 -1      1773 1.14351E+01
 -1      1774 1.14265E+01
 -1      1775 1.08823E+01
 -1      1776 1.56540E+01
 -1      1777 3.34649E+01
 -1      1778 4.22318E+01
 -1      1779 3.97732E+01
 -1      1780 1.71807E+01
 -1      1781 8.84474E+00
 -1      1782 8.84474E+00
 -1      1783 2.14037E+01
 -1      1784 1.10277E+00
 -1      1785 1.16262E+00
 -1      1786 2.46329E+00
 -1      1787 3.18824E+00
 -1      1788 2.30092E+00
 -1      1789 1.42174E+00
 -1      1790 1.33159E+00
 -1      1791 2.13307E+00
 -1      1792 1.62304E+00
 -1      1793 1.43018E+00
 -1      1794 4.33583E+00
 -1      1795 2.98531E+00
 -1      1796 2.48371E+00
 -1      1797 1.44228E+01
 -1      1798 1.17766E+01
 -1      1799 4.96073E+00
 -1      1800 2.55616E+01
 -1      1801 2.60847E+01
 -1      1802 9.19499E+00
 -1      1803 1.08316E+01
 -1      1804 1.00643E+01
 -1      1805 1.27447E+01
 -1      1806 6.82634E+00
 -1      1807 7.64133E+00
 -1      1808 8.06605E+00
 -1      1809 5.23631E+00
 -1      1810 4.93338E+00
 -1      1811 3.34335E+00
 -1      1812 3.36860E+00
 -1      1813 3.01004E+00
 -1      1814 3.01004E+00
 -1      1815 4.42668E+00
 -1      1816 3.79350E+00
 -1      1817 3.52239E+00
 -1      1818 3.08403E+00
 -1      1819 2.97108E+00
 -1      1820 2.80655E+00
 -1      1821 2.56039E+00
 -1      1822 2.42250E+00
 -1      1823 2.44854E+00
 -1      1824 2.14165E+00
 -1      1825 2.03318E+00
 -1      1826 1.97360E+00
 -1      1827 1.65624E+00
 -1      1828 1.75328E+00
 -1      1829 1.48431E+00
 -1      1830 1.23672E+00
 -1      1831 1.41330E+00
 -1      1832 1.08225E+00
 -1      1833 8.96868E-01
 -1      1834 1.08690E+00
 -1      1835 7.38471E-01
 -1      1836 5.85501E-01
 -1      1837 7.74031E-01
 -1      1838 4.70598E-01
 -1      1839 3.42248E-01
 -1      1840 5.00731E-01
 -1      1841 2.63644E-01
 -1      1842 2.40852E-01
 -1      1843 3.07225E-01
 -1      1844 2.15085E-01
 -1      1845 2.05243E-01
 -1      1846 2.02854E-01
 -1      1847 1.92490E-01
 -1      1848 1.85197E-01
 -1      1849 1.64333E-01
 -1      1850 1.86116E-01
 -1      1851 1.67228E-01
 -1      1852 1.52499E-01
 -1      1853 1.59859E-01
 -1      1854 1.41054E-01
 -1      1855 1.46048E-01
 -1      1856 1.34431E-01
 -1      1857 1.26514E-01
 -1      1858 1.32055E-01
 -1      1859 1.19294E-01
 -1      1860 1.11729E-01
 -1      1861 1.18212E-01
 -1      1862 1.02650E-01
 -1      1863 9.31063E-02
 -1      1864 1.01912E-01
 -1      1865 8.34504E-02
 -1      1866 7.36802E-02
 -1      1867 8.31769E-02
 -1      1868 6.61373E-02
 -1      1869 5.84353E-02
 -1      1870 6.59781E-02
 -1      1871 5.15472E-02
 -1      1872 4.63297E-02
 -1      1873 5.15472E-02
 -1      1874 4.04254E-02
 -1      1875 3.68469E-02
 -1      1876 3.87549E-02
 -1      1877 3.29528E-02
 -1      1878 2.93351E-02
 -1      1879 2.89566E-02
 -1      1880 2.75664E-02
 -1      1881 2.41987E-02
 -1      1882 2.32938E-02
 -1      1883 2.24094E-02
 -1      1884 1.94418E-02
 -1      1885 1.97358E-02
 -1      1886 1.77601E-02
 -1      1887 1.53333E-02
 -1      1888 1.62648E-02
 -1      1889 1.38306E-02
 -1      1890 1.21765E-02
 -1      1891 1.30805E-02
 -1      1892 1.08838E-02
 -1      1893 9.78202E-03
 -1      1894 1.02851E-02
 -1      1895 9.11902E-03
 -1      1896 8.10463E-03
 -1      1897 8.32946E-03
 -1      1898 7.50577E-03
 -1      1899 6.62731E-03
 -1      1900 7.06760E-03
 -1      1901 6.05500E-03
 -1      1902 5.40066E-03
 -1      1903 5.89643E-03
 -1      1904 4.91923E-03
 -1      1905 4.36016E-03
 -1      1906 4.84270E-03
 -1      1907 3.96288E-03
 -1      1908 3.55428E-03
 -1      1909 3.96399E-03
 -1      1910 3.19890E-03
 -1      1911 2.83749E-03
 -1      1912 3.21132E-03
 -1      1913 2.56993E-03
 -1      1914 2.26053E-03
 -1      1915 2.58837E-03
 -1      1916 2.02675E-03
 -1      1917 1.76886E-03
 -1      1918 2.08703E-03
 -1      1919 1.56792E-03
 -1      1920 1.35783E-03
 -1      1921 1.65230E-03
 -1      1922 1.18968E-03
 -1      1923 1.02202E-03
 -1      1924 1.28321E-03
 -1      1925 8.84501E-04
 -1      1926 7.53241E-04
 -1      1927 9.77547E-04
 -1      1928 6.43075E-04
 -1      1929 5.61315E-04
 -1      1930 7.29866E-04
 -1      1931 4.74758E-04
 -1      1932 4.17143E-04
 -1      1933 5.33143E-04
 -1      1934 3.50452E-04
 -1      1935 3.03185E-04
 -1      1936 3.79896E-04
 -1      1937 2.55040E-04
 -1      1938 2.17212E-04
 -1      1939 2.65060E-04
 -1      1940 1.86818E-04
 -1      1941 1.68431E-04
 -1      1942 1.86521E-04
 -1      1943 1.46600E-04
 -1      1944 1.27655E-04
 -1      1945 1.34295E-04
 -1      1946 1.11709E-04
 -1      1947 9.02880E-05
 -1      1948 9.65184E-05
 -1      1949 7.64835E-05
 -1      1950 5.51674E-05
 -1      1951 4.33013E-05
 -1      1952 6.67682E-05
 -1      1953 4.18927E+00
 -1      1954 3.62139E+00
 -1      1955 2.92953E+00
 -1      1956 5.87572E+00
 -1      1957 5.14219E+00
 -1      1958 4.13524E+00
 -1      1959 5.34685E+00
 -1      1960 5.50297E+00
 -1      1961 4.71540E+00
 -1      1962 3.22574E+00
 -1      1963 4.36690E+00
 -1      1964 3.36271E+00
 -1      1965 2.56701E+00
 -1      1966 3.72630E+00
 -1      1967 2.88332E+00
 -1      1968 2.31098E+00
 -1      1969 2.17610E+00
 -1      1970 2.99297E+00
 -1      1971 2.45127E+00
 -1      1972 2.26001E+00
 -1      1973 2.55109E+00
 -1      1974 2.21155E+00
 -1      1975 2.27986E+00
 -1      1976 2.32871E+00
 -1      1977 1.88521E+00
 -1      1978 2.08688E+00
 -1      1979 2.03263E+00
 -1      1980 1.60763E+00
 -1      1981 1.76420E+00
 -1      1982 1.78696E+00
 -1      1983 1.27016E+00
 -1      1984 1.44166E+00
 -1      1985 1.49998E+00
 -1      1986 9.60100E-01
 -1      1987 1.10653E+00
 -1      1988 1.17039E+00
 -1      1989 6.96204E-01
 -1      1990 8.20901E-01
 -1      1991 8.67563E-01
 -1      1992 4.89277E-01
 -1      1993 5.87245E-01
 -1      1994 6.19404E-01
 -1      1995 3.39482E-01
 -1      1996 4.08278E-01
 -1      1997 4.29446E-01
 -1      1998 2.39571E-01
 -1      1999 2.85044E-01
 -1      2000 2.94009E-01
 -1      2001 1.71276E-01
 -1      2002 2.05423E-01
 -1      2003 2.05423E-01
 -1      2004 1.20844E-01
 -1      2005 1.46060E-01
 -1      2006 1.46060E-01
 -1      2007 8.40811E-02
 -1      2008 1.02463E-01
 -1      2009 1.02463E-01
 -1      2010 5.92588E-02
 -1      2011 7.16700E-02
 -1      2012 7.16700E-02
 -1      2013 3.95694E-02
 -1      2014 4.88877E-02
 -1      2015 4.88877E-02
 -1      2016 2.91395E-02
 -1      2017 3.36709E-02
 -1      2018 3.26180E-02
 -1      2019 2.33377E-02
 -1      2020 2.69971E-02
 -1      2021 2.45771E-02
 -1      2022 1.84121E-02
 -1      2023 2.13371E-02
 -1      2024 2.04341E-02
 -1      2025 1.45009E-02
 -1      2026 1.66281E-02
 -1      2027 1.66494E-02
 -1      2028 1.19041E-02
 -1      2029 1.29615E-02
 -1      2030 1.33260E-02
 -1      2031 9.63593E-03
 -1      2032 1.06088E-02
 -1      2033 1.04914E-02
 -1      2034 7.84554E-03
 -1      2035 8.74595E-03
 -1      2036 8.30610E-03
 -1      2037 6.47341E-03
 -1      2038 7.27479E-03
 -1      2039 6.84537E-03
 -1      2040 5.24066E-03
 -1      2041 5.93105E-03
 -1      2042 5.73225E-03
 -1      2043 4.25535E-03
 -1      2044 4.76916E-03
 -1      2045 4.71838E-03
 -1      2046 3.45517E-03
 -1      2047 3.86662E-03
 -1      2048 3.85814E-03
 -1      2049 2.75426E-03
 -1      2050 3.11065E-03
 -1      2051 3.12488E-03
 -1      2052 2.20215E-03
 -1      2053 2.47734E-03
 -1      2054 2.50344E-03
 -1      2055 1.63686E-03
 -1      2056 1.92394E-03
 -1      2057 1.94830E-03
 -1      2058 1.23569E-03
 -1      2059 1.43594E-03
 -1      2060 1.46916E-03
 -1      2061 9.23773E-04
 -1      2062 1.07384E-03
 -1      2063 1.10639E-03
 -1      2064 6.79402E-04
 -1      2065 7.95965E-04
 -1      2066 8.16736E-04
 -1      2067 5.08386E-04
 -1      2068 5.88397E-04
 -1      2069 5.97923E-04
 -1      2070 3.87023E-04
 -1      2071 4.48438E-04
 -1      2072 4.46971E-04
 -1      2073 2.89844E-04
 -1      2074 3.38434E-04
 -1      2075 3.38434E-04
 -1      2076 2.12191E-04
 -1      2077 2.51018E-04
 -1      2078 2.51018E-04
 -1      2079 1.50594E-04
 -1      2080 1.81393E-04
 -1      2081 1.81393E-04
 -1      2082 1.05800E-04
 -1      2083 1.26805E-04
 -1      2084 1.26805E-04
 -1      2085 7.40484E-05
 -1      2086 8.87287E-05
 -1      2087 8.59451E-05
 -1      2088 2.79200E-05
 -1      2089 3.43033E-05
 -1      2090 5.04206E-05
 -1      2091 5.10482E-05
 -1      2092 5.29828E-05
 -1      2093 3.15049E+01
 -1      2094 3.44944E+01
 -1      2095 5.10482E-05
 -1      2096 5.63287E-05
 -1      2097 6.91001E-05
 -1      2098 2.89774E-05
 -1      2099 2.64844E-05
 -1      2100 3.54299E-05
 -1      2101 4.06351E-05
 -1      2102 3.60347E-05
 -1      2103 4.10515E-05
 -1      2104 4.60676E-05
 -1      2105 4.41513E-05
 -1      2106 5.16250E-05
 -1      2107 4.60676E-05
 -1      2108 4.60676E-05
 -1      2109 5.51413E-05
 -1      2110 4.59615E-05
 -1      2111 4.59691E-05
 -1      2112 5.50428E-05
 -1      2113 4.39542E-05
 -1      2114 4.59615E-05
 -1      2115 5.49443E-05
 -1      2116 3.61547E-05
 -1      2117 4.06085E-05
 -1      2118 5.15986E-05
 -1      2119 2.66241E-05
 -1      2120 2.89690E-05
 -1      2121 4.10673E-05
 -1      2122 3.46193E-05
 -1      2123 2.84082E-05
 -1      2124 3.56656E-05
 -1      2125 4.06216E-05
 -1      2126 4.06216E-05
 -1      2127 4.34521E-05
 -1      2128 3.08517E+01
 -1      2129 2.92408E+01
 -1      2130 4.11130E+01
 -1      2131 4.11130E+01
 -1      2132 1.38853E+01
 -1      2133 2.59239E+01
 -1      2134 1.04382E+01
 -1      2135 1.21502E+00
 -1      2136 1.10050E+00
 -1      2137 1.11230E+00
 -1      2138 1.77375E+01
 -1      2139 2.09558E+01
 -1      2140 1.63623E+01
 -1      2141 1.10246E+01
 -1      2142 1.09463E+01
 -1      2143 1.17264E+01
 -1      2144 1.13048E+01
 -1      2145 9.78332E+00
 -1      2146 1.06574E+01
 -1      2147 1.21728E+01
 -1      2148 9.73230E+00
 -1      2149 8.01956E+00
 -1      2150 2.61899E+01
 -1      2151 1.56592E+01
 -1      2152 3.14536E+01
 -1      2153 3.10200E+01
 -1      2154 4.15826E+01
 -1      2155 3.83055E+01
 -1      2156 4.23151E+01
 -1      2157 4.35874E+01
 -1      2158 3.57741E+01
 -1      2159 3.30465E+01
 -1      2160 1.30783E+01
 -1      2161 1.83124E+01
 -1      2162 9.14803E+00
 -1      2163 1.08343E+01
 -1      2164 8.61098E+00
 -1      2165 8.13577E+00
 -1      2166 1.00934E+01
 -1      2167 9.67906E+00
 -1      2168 1.08320E+01
 -1      2169 1.08878E+01
 -1      2170 1.06013E+01
 -1      2171 1.05394E+01
 -1      2172 1.00500E+01
 -1      2173 1.01205E+01
 -1      2174 9.22481E+00
 -1      2175 8.42748E+00
 -1      2176 8.90129E+00
 -1      2177 1.52481E+01
 -1      2178 1.00026E+01
 -1      2179 3.10015E+01
 -1      2180 1.84361E+01
 -1      2181 3.26963E+01
 -1      2182 3.64948E+01
 -1      2183 3.51234E+01
 -1      2184 3.37836E+01
 -1      2185 1.02805E+01
 -1      2186 9.66120E+00
 -1      2187 8.96078E+00
 -1      2188 6.34309E+00
 -1      2189 2.59608E+01
 -1      2190 9.97992E-01
 -1      2191 8.98264E+00
 -1      2192 3.19589E+01
 -1      2193 3.33123E+01
 -1      2194 8.94641E+00
 -1      2195 3.64408E+01
 -1      2196 4.60638E+00
 -1      2197 3.42189E+00
 -1      2198 5.11307E+00
 -1      2199 3.03590E+00
 -1      2200 1.01663E+01
 -1      2201 2.87704E+01
 -1      2202 3.53891E+01
 -1      2203 3.53891E+01
 -1      2204 5.29299E-05
 -1      2205 6.96273E-05
 -1      2206 4.08529E+01
 -1      2207 3.18501E+01
 -1      2208 2.89443E+01
 -1      2209 4.08529E+01
 -1      2210 2.56116E+01
 -1      2211 4.15467E-05
 -1      2212 2.52912E+01
 -1      2213 1.77871E+01
 -1      2214 1.28593E+01
 -1      2215 3.51234E+01
 -1      2216 2.80465E+01
 -1      2217 2.14660E+01
 -1      2218 1.27847E+01
 -1      2219 7.59524E+00
 -1      2220 9.99820E+00
 -1      2221 9.49635E+00
 -1      2222 7.63386E+00
 -1      2223 7.57803E+00
 -1      2224 1.08343E+01
 -1      2225 3.14536E+01
 -1      2226 1.14550E+01
 -1      2227 9.13962E+00
 -1      2228 6.44523E-05
 -1      2229 7.85068E+00
 -1      2230 9.92853E+00
 -1      2231 1.97715E+01
 -1      2232 3.30465E+01
 -1      2233 3.93907E+01
 -1      2234 2.14678E+01
 -1      2235 3.21176E+01
 -1      2236 8.02161E+00
 -1      2237 1.89436E+01
 -1      2238 1.76264E+01
 -1      2239 5.34321E+00
 -1      2240 3.44925E+00
 -1      2241 1.62338E+01
 -1      2242 3.12803E+00
 -1      2243 2.27579E+00
 -1      2244 1.68270E+00
 -1      2245 1.48140E+00
 -1      2246 2.32702E+00
 -1      2247 1.61857E+01
 -1      2248 1.00065E+00
 -1      2249 1.00292E+00
 -1      2250 2.96648E+00
 -1      2251 2.78678E+00
 -1      2252 1.66581E+00
 -1      2253 7.09722E+00
 -1      2254 9.52022E+00
 -1      2255 3.54118E+00
 -1      2256 5.13121E+00
 -1      2257 5.70501E+00
 -1      2258 3.20787E+00
 -1      2259 2.51567E+00
 -1      2260 2.30457E+01
 -1      2261 2.20949E+00
 -1      2262 1.93201E+00
 -1      2263 1.79279E+00
 -1      2264 1.68095E+00
 -1      2265 1.57979E+00
 -1      2266 1.61784E+00
 -1      2267 1.44979E+00
 -1      2268 1.37746E+00
 -1      2269 1.35477E+00
 -1      2270 1.18284E+00
 -1      2271 1.21933E+00
 -1      2272 1.09199E+00
 -1      2273 9.37520E-01
 -1      2274 1.03346E+00
 -1      2275 8.43092E-01
 -1      2276 6.84695E-01
 -1      2277 8.48183E-01
 -1      2278 5.92580E-01
 -1      2279 4.77677E-01
 -1      2280 6.61640E-01
 -1      2281 3.85829E-01
 -1      2282 3.07225E-01
 -1      2283 4.77677E-01
 -1      2284 2.65796E-01
 -1      2285 2.40029E-01
 -1      2286 3.44400E-01
 -1      2287 2.04808E-01
 -1      2288 1.92054E-01
 -1      2289 2.67750E-01
 -1      2290 1.63818E-01
 -1      2291 1.64737E-01
 -1      2292 2.04292E-01
 -1      2293 1.59551E-01
 -1      2294 1.52181E-01
 -1      2295 1.70870E-01
 -1      2296 1.42129E-01
 -1      2297 1.35506E-01
 -1      2298 1.55632E-01
 -1      2299 1.25045E-01
 -1      2300 1.17825E-01
 -1      2301 1.35119E-01
 -1      2302 1.09358E-01
 -1      2303 1.00279E-01
 -1      2304 1.16191E-01
 -1      2305 9.04353E-02
 -1      2306 8.07795E-02
 -1      2307 9.78814E-02
 -1      2308 7.10483E-02
 -1      2309 6.35054E-02
 -1      2310 7.83068E-02
 -1      2311 5.47387E-02
 -1      2312 4.78507E-02
 -1      2313 5.98089E-02
 -1      2314 4.04434E-02
 -1      2315 3.45391E-02
 -1      2316 4.36349E-02
 -1      2317 2.85868E-02
 -1      2318 2.46927E-02
 -1      2319 3.02753E-02
 -1      2320 2.11900E-02
 -1      2321 1.94213E-02
 -1      2322 2.08202E-02
 -1      2323 1.69693E-02
 -1      2324 1.51799E-02
 -1      2325 1.48655E-02
 -1      2326 1.45809E-02
 -1      2327 1.28992E-02
 -1      2328 1.18144E-02
 -1      2329 1.21811E-02
 -1      2330 1.06785E-02
 -1      2331 1.04972E-02
 -1      2332 9.92959E-03
 -1      2333 8.63693E-03
 -1      2334 9.03027E-03
 -1      2335 7.91582E-03
 -1      2336 7.25282E-03
 -1      2337 7.56029E-03
 -1      2338 6.59459E-03
 -1      2339 5.99574E-03
 -1      2340 6.18096E-03
 -1      2341 5.66140E-03
 -1      2342 5.08910E-03
 -1      2343 5.18840E-03
 -1      2344 4.73431E-03
 -1      2345 4.25288E-03
 -1      2346 4.49928E-03
 -1      2347 3.90462E-03
 -1      2348 3.50733E-03
 -1      2349 3.79623E-03
 -1      2350 3.21698E-03
 -1      2351 2.86159E-03
 -1      2352 3.15760E-03
 -1      2353 2.59970E-03
 -1      2354 2.33214E-03
 -1      2355 2.60536E-03
 -1      2356 2.09840E-03
 -1      2357 1.86462E-03
 -1      2358 2.10973E-03
 -1      2359 1.66866E-03
 -1      2360 1.46771E-03
 -1      2361 1.68003E-03
 -1      2362 1.31568E-03
 -1      2363 1.14753E-03
 -1      2364 1.33203E-03
 -1      2365 1.01771E-03
 -1      2366 8.80198E-04
 -1      2367 1.05018E-03
 -1      2368 7.72146E-04
 -1      2369 6.61980E-04
 -1      2370 8.12312E-04
 -1      2371 5.74023E-04
 -1      2372 4.87466E-04
 -1      2373 6.16303E-04
 -1      2374 4.17324E-04
 -1      2375 3.50633E-04
 -1      2376 4.58203E-04
 -1      2377 2.95824E-04
 -1      2378 2.47679E-04
 -1      2379 3.33252E-04
 -1      2380 2.05767E-04
 -1      2381 1.75373E-04
 -1      2382 2.36531E-04
 -1      2383 1.44109E-04
 -1      2384 1.22278E-04
 -1      2385 1.63356E-04
 -1      2386 9.95309E-05
 -1      2387 8.35851E-05
 -1      2388 1.09345E-04
 -1      2389 5.77025E-05
 -1      2390 7.38198E-05
 -1      2391 3.36271E+00
 -1      2392 4.34266E+00
 -1      2393 4.62097E+00
 -1      2394 4.12041E+00
 -1      2395 3.96128E+00
 -1      2396 4.35219E+00
 -1      2397 3.10295E+00
 -1      2398 3.15392E+00
 -1      2399 4.51314E+00
 -1      2400 2.54838E+00
 -1      2401 2.71979E+00
 -1      2402 3.32262E+00
 -1      2403 2.16076E+00
 -1      2404 2.28543E+00
 -1      2405 2.67651E+00
 -1      2406 1.83342E+00
 -1      2407 1.95443E+00
 -1      2408 2.20723E+00
 -1      2409 1.45550E+00
 -1      2410 1.62147E+00
 -1      2411 1.78894E+00
 -1      2412 1.10248E+00
 -1      2413 1.26611E+00
 -1      2414 1.38759E+00
 -1      2415 8.06881E-01
 -1      2416 9.46080E-01
 -1      2417 1.04180E+00
 -1      2418 5.75317E-01
 -1      2419 6.84276E-01
 -1      2420 7.62794E-01
 -1      2421 4.01513E-01
 -1      2422 4.82512E-01
 -1      2423 5.47384E-01
 -1      2424 2.78535E-01
 -1      2425 3.32973E-01
 -1      2426 3.86039E-01
 -1      2427 1.94677E-01
 -1      2428 2.28824E-01
 -1      2429 2.67788E-01
 -1      2430 1.33921E-01
 -1      2431 1.59137E-01
 -1      2432 1.82537E-01
 -1      2433 9.04573E-02
 -1      2434 1.08839E-01
 -1      2435 1.21916E-01
 -1      2436 6.13150E-02
 -1      2437 7.37262E-02
 -1      2438 8.01024E-02
 -1      2439 3.85398E-02
 -1      2440 4.89110E-02
 -1      2441 5.09672E-02
 -1      2442 2.71717E-02
 -1      2443 3.30702E-02
 -1      2444 3.30934E-02
 -1      2445 2.24347E-02
 -1      2446 2.45771E-02
 -1      2447 2.50292E-02
 -1      2448 1.84334E-02
 -1      2449 2.04341E-02
 -1      2450 2.04341E-02
 -1      2451 1.48654E-02
 -1      2452 1.66494E-02
 -1      2453 1.66494E-02
 -1      2454 1.17866E-02
 -1      2455 1.33260E-02
 -1      2456 1.33260E-02
 -1      2457 9.20171E-03
 -1      2458 1.04970E-02
 -1      2459 1.04970E-02
 -1      2460 7.49278E-03
 -1      2461 8.38277E-03
 -1      2462 8.38839E-03
 -1      2463 6.27461E-03
 -1      2464 6.84537E-03
 -1      2465 6.92203E-03
 -1      2466 5.18989E-03
 -1      2467 5.73225E-03
 -1      2468 5.73225E-03
 -1      2469 4.26152E-03
 -1      2470 4.73302E-03
 -1      2471 4.73302E-03
 -1      2472 3.48978E-03
 -1      2473 3.87852E-03
 -1      2474 3.89316E-03
 -1      2475 2.80363E-03
 -1      2476 3.14815E-03
 -1      2477 3.16853E-03
 -1      2478 2.26970E-03
 -1      2479 2.54662E-03
 -1      2480 2.56989E-03
 -1      2481 1.74831E-03
 -1      2482 2.02652E-03
 -1      2483 2.06970E-03
 -1      2484 1.35465E-03
 -1      2485 1.55557E-03
 -1      2486 1.63379E-03
 -1      2487 1.03043E-03
 -1      2488 1.19227E-03
 -1      2489 1.27868E-03
 -1      2490 7.68995E-04
 -1      2491 8.96803E-04
 -1      2492 9.82685E-04
 -1      2493 5.70194E-04
 -1      2494 6.61199E-04
 -1      2495 7.41265E-04
 -1      2496 4.24894E-04
 -1      2497 4.84842E-04
 -1      2498 5.48117E-04
 -1      2499 3.09968E-04
 -1      2500 3.58557E-04
 -1      2501 3.96429E-04
 -1      2502 2.20611E-04
 -1      2503 2.59437E-04
 -1      2504 2.79561E-04
 -1      2505 1.51147E-04
 -1      2506 1.81946E-04
 -1      2507 1.90365E-04
 -1      2508 1.07015E-04
 -1      2509 1.30804E-04
 -1      2510 1.31357E-04
 -1      2511 7.08908E-05
 -1      2512 8.79626E-05
 -1      2513 9.19607E-05
 -1      2514 6.37286E+00
 -1      2515 5.90664E+00
 -1      2516 5.57202E-05
 -1      2517 4.86629E-05
 -1      2518 2.26001E+01
 -1      2519 5.62669E-05
 -1      2520 5.77025E-05
 -1      2521 7.85396E-05
 -1      2522 7.09355E-05
 -1      2523 6.48243E-05
 -1      2524 6.13081E-05
 -1      2525 6.89194E-05
 -1      2526 6.51872E-05
 -1      2527 6.51872E-05
 -1      2528 7.48702E-05
 -1      2529 6.50887E-05
 -1      2530 6.51872E-05
 -1      2531 7.52331E-05
 -1      2532 6.50512E-05
 -1      2533 6.50512E-05
 -1      2534 7.51956E-05
 -1      2535 6.14306E-05
 -1      2536 6.47763E-05
 -1      2537 7.48832E-05
 -1      2538 4.85646E-05
 -1      2539 5.57504E-05
 -1      2540 6.89280E-05
 -1      2541 4.92677E-05
 -1      2542 4.74836E-05
 -1      2543 6.21667E-05
 -1      2544 5.52701E-05
 -1      2545 4.92677E-05
 -1      2546 6.10857E-05
 -1      2547 5.12091E-05
 -1      2548 5.95572E+00
 -1      2549 6.32847E+00
 -1      2550 2.36828E+01
 -1      2551 2.25955E+01
 -1      2552 3.34783E+01
 -1      2553 2.74887E+01
 -1      2554 2.20377E+01
 -1      2555 1.24765E+00
 -1      2556 1.13108E+00
 -1      2557 1.13601E+00
 -1      2558 1.50018E+00
 -1      2559 8.39166E+00
 -1      2560 8.68423E+00
 -1      2561 2.08996E+01
 -1      2562 2.31637E+01
 -1      2563 3.77131E+01
 -1      2564 3.44361E+01
 -1      2565 6.92413E+00
 -1      2566 7.99317E+00
 -1      2567 8.00989E+00
 -1      2568 1.10636E+01
 -1      2569 5.43292E+00
 -1      2570 4.48000E+00
 -1      2571 1.91288E+01
 -1      2572 1.42987E+01
 -1      2573 5.92571E+00
 -1      2574 5.97673E+00
 -1      2575 1.23494E+01
 -1      2576 8.86296E+00
 -1      2577 7.10587E+00
 -1      2578 5.53074E+00
 -1      2579 4.96326E+00
 -1      2580 5.97552E+00
 -1      2581 6.51716E+00
 -1      2582 5.44907E+00
 -1      2583 8.15949E+00
 -1      2584 7.36508E+00
 -1      2585 5.18029E+00
 -1      2586 7.43455E+00
 -1      2587 7.91537E+00
 -1      2588 5.39346E+00
 -1      2589 6.54221E+00
 -1      2590 1.26280E+01
 -1      2591 9.44006E+00
 -1      2592 6.94920E+00
 -1      2593 1.95478E+01
 -1      2594 1.40545E+01
 -1      2595 8.88872E+00
 -1      2596 8.60859E+00
 -1      2597 5.35562E+00
 -1      2598 3.34835E+00
 -1      2599 7.82314E+00
 -1      2600 7.15739E+00
 -1      2601 6.38944E+00
 -1      2602 7.99597E+00
 -1      2603 5.86470E+00
 -1      2604 6.60140E+00
 -1      2605 1.66847E+00
 -1      2606 5.23277E+00
 -1      2607 5.10036E+00
 -1      2608 5.58928E+00
 -1      2609 2.02519E+00
 -1      2610 6.67323E+00
 -1      2611 7.57239E-05
 -1      2612 7.10042E-05
 -1      2613 2.40584E+01
 -1      2614 6.53207E+00
 -1      2615 5.21336E+00
 -1      2616 4.46929E-05
 -1      2617 5.17942E-05
 -1      2618 4.47772E+00
 -1      2619 2.95435E+01
 -1      2620 2.19089E+01
 -1      2621 2.38196E+01
 -1      2622 6.45656E-05
 -1      2623 5.28871E-05
 -1      2624 5.11325E-05
 -1      2625 5.69481E-05
 -1      2626 6.66916E-05
 -1      2627 1.04310E+01
 -1      2628 1.16018E+01
 -1      2629 1.71622E+01
 -1      2630 1.47143E+01
 -1      2631 1.51841E+01
 -1      2632 6.78334E+00
 -1      2633 7.97038E+00
 -1      2634 6.97040E-05
 -1      2635 3.84656E+00
 -1      2636 4.83029E+00
 -1      2637 3.53260E+00
 -1      2638 1.07099E+01
 -1      2639 7.10042E-05
 -1      2640 3.27981E+00
 -1      2641 1.17067E+01
 -1      2642 6.82014E+00
 -1      2643 1.25127E+01
 -1      2644 1.75056E+01
 -1      2645 6.64697E-05
 -1      2646 2.29783E+01
 -1      2647 3.83416E+00
 -1      2648 3.62624E+00
 -1      2649 2.98303E+01
 -1      2650 1.06635E+01
 -1      2651 1.30302E+01
 -1      2652 3.05636E+00
 -1      2653 3.31931E+00
 -1      2654 4.70286E+00
 -1      2655 5.08601E+00
 -1      2656 5.08270E+00
 -1      2657 1.45536E+00
 -1      2658 1.31614E+00
 -1      2659 2.46121E+00
 -1      2660 1.86812E+00
 -1      2661 3.79809E+00
 -1      2662 4.69043E+00
 -1      2663 9.98005E-05
 -1      2664 9.69848E-05
 -1      2665 1.16037E-04
 -1      2666 1.67341E+01
 -1      2667 2.23408E+01
 -1      2668 1.26446E+00
 -1      2669 1.20135E+00
 -1      2670 1.14003E+00
 -1      2671 1.16108E+00
 -1      2672 1.06605E+00
 -1      2673 1.04807E+00
 -1      2674 1.06735E+00
 -1      2675 9.76504E-01
 -1      2676 1.00910E+00
 -1      2677 9.22088E-01
 -1      2678 8.27660E-01
 -1      2679 9.55981E-01
 -1      2680 7.53755E-01
 -1      2681 6.61640E-01
 -1      2682 8.27660E-01
 -1      2683 5.74334E-01
 -1      2684 4.82486E-01
 -1      2685 6.66449E-01
 -1      2686 4.21662E-01
 -1      2687 3.80233E-01
 -1      2688 5.18319E-01
 -1      2689 3.18348E-01
 -1      2690 2.83126E-01
 -1      2691 3.95610E-01
 -1      2692 2.41772E-01
 -1      2693 2.13536E-01
 -1      2694 2.92370E-01
 -1      2695 1.96699E-01
 -1      2696 1.91513E-01
 -1      2697 2.34179E-01
 -1      2698 1.72841E-01
 -1      2699 1.62789E-01
 -1      2700 1.98670E-01
 -1      2701 1.46712E-01
 -1      2702 1.36251E-01
 -1      2703 1.63922E-01
 -1      2704 1.25037E-01
 -1      2705 1.16570E-01
 -1      2706 1.36630E-01
 -1      2707 1.04885E-01
 -1      2708 9.50413E-02
 -1      2709 1.13730E-01
 -1      2710 8.40593E-02
 -1      2711 7.43282E-02
 -1      2712 9.10627E-02
 -1      2713 6.46638E-02
 -1      2714 5.58971E-02
 -1      2715 7.04163E-02
 -1      2716 4.77901E-02
 -1      2717 4.03828E-02
 -1      2718 5.26450E-02
 -1      2719 3.38391E-02
 -1      2720 2.78867E-02
 -1      2721 3.79943E-02
 -1      2722 2.27795E-02
 -1      2723 1.92768E-02
 -1      2724 2.63433E-02
 -1      2725 1.54149E-02
 -1      2726 1.29629E-02
 -1      2727 1.73742E-02
 -1      2728 1.03566E-02
 -1      2729 9.75759E-03
 -1      2730 1.09061E-02
 -1      2731 8.84936E-03
 -1      2732 8.13126E-03
 -1      2733 7.39161E-03
 -1      2734 8.04520E-03
 -1      2735 7.29633E-03
 -1      2736 6.39732E-03
 -1      2737 7.04887E-03
 -1      2738 6.32776E-03
 -1      2739 6.06381E-03
 -1      2740 5.99402E-03
 -1      2741 5.33580E-03
 -1      2742 5.48261E-03
 -1      2743 4.96917E-03
 -1      2744 4.63483E-03
 -1      2745 4.78223E-03
 -1      2746 4.28567E-03
 -1      2747 3.93088E-03
 -1      2748 4.06644E-03
 -1      2749 3.69630E-03
 -1      2750 3.34804E-03
 -1      2751 3.48269E-03
 -1      2752 3.10178E-03
 -1      2753 2.81142E-03
 -1      2754 3.00186E-03
 -1      2755 2.57377E-03
 -1      2756 2.31189E-03
 -1      2757 2.51795E-03
 -1      2758 2.09687E-03
 -1      2759 1.86313E-03
 -1      2760 2.06529E-03
 -1      2761 1.68584E-03
 -1      2762 1.48988E-03
 -1      2763 1.67298E-03
 -1      2764 1.33469E-03
 -1      2765 1.18265E-03
 -1      2766 1.34049E-03
 -1      2767 1.05078E-03
 -1      2768 9.20961E-04
 -1      2769 1.05343E-03
 -1      2770 8.14742E-04
 -1      2771 7.06690E-04
 -1      2772 8.15339E-04
 -1      2773 6.25943E-04
 -1      2774 5.37985E-04
 -1      2775 6.28373E-04
 -1      2776 4.71588E-04
 -1      2777 4.01446E-04
 -1      2778 4.81228E-04
 -1      2779 3.47995E-04
 -1      2780 2.93185E-04
 -1      2781 3.61379E-04
 -1      2782 2.51006E-04
 -1      2783 2.09094E-04
 -1      2784 2.65748E-04
 -1      2785 1.76542E-04
 -1      2786 1.45279E-04
 -1      2787 1.91017E-04
 -1      2788 1.15532E-04
 -1      2789 9.27844E-05
 -1      2790 1.28718E-04
 -1      2791 8.94360E-05
 -1      2792 8.94360E-05
 -1      2793 9.20498E+00
 -1      2794 1.10006E+01
 -1      2795 5.95572E+00
 -1      2796 7.54757E+00
 -1      2797 7.81636E+00
 -1      2798 1.88623E+00
 -1      2799 1.58005E+00
 -1      2800 7.06280E+00
 -1      2801 7.87016E+00
 -1      2802 1.00972E+01
 -1      2803 8.44304E+00
 -1      2804 2.26116E+00
 -1      2805 2.46749E+00
 -1      2806 3.11028E+00
 -1      2807 1.67100E+00
 -1      2808 1.88296E+00
 -1      2809 2.14321E+00
 -1      2810 1.22793E+00
 -1      2811 1.41733E+00
 -1      2812 1.51134E+00
 -1      2813 8.96801E-01
 -1      2814 1.05320E+00
 -1      2815 1.08294E+00
 -1      2816 6.49634E-01
 -1      2817 7.72239E-01
 -1      2818 7.83641E-01
 -1      2819 4.66026E-01
 -1      2820 5.58831E-01
 -1      2821 5.68276E-01
 -1      2822 3.30639E-01
 -1      2823 3.99179E-01
 -1      2824 4.10627E-01
 -1      2825 2.31642E-01
 -1      2826 2.81352E-01
 -1      2827 2.94493E-01
 -1      2828 1.59893E-01
 -1      2829 1.95433E-01
 -1      2830 2.08997E-01
 -1      2831 1.08390E-01
 -1      2832 1.33472E-01
 -1      2833 1.46368E-01
 -1      2834 7.27325E-02
 -1      2835 8.94637E-02
 -1      2836 1.01020E-01
 -1      2837 4.58304E-02
 -1      2838 5.82345E-02
 -1      2839 6.75958E-02
 -1      2840 3.07903E-02
 -1      2841 3.62600E-02
 -1      2842 4.35273E-02
 -1      2843 2.15426E-02
 -1      2844 2.41372E-02
 -1      2845 2.73037E-02
 -1      2846 1.58904E-02
 -1      2847 1.78910E-02
 -1      2848 1.69990E-02
 -1      2849 1.31188E-02
 -1      2850 1.49028E-02
 -1      2851 1.23598E-02
 -1      2852 1.09070E-02
 -1      2853 1.24464E-02
 -1      2854 1.06998E-02
 -1      2855 8.88760E-03
 -1      2856 1.01773E-02
 -1      2857 9.29760E-03
 -1      2858 7.35497E-03
 -1      2859 8.17392E-03
 -1      2860 7.85418E-03
 -1      2861 6.05073E-03
 -1      2862 6.69815E-03
 -1      2863 6.48368E-03
 -1      2864 5.04133E-03
 -1      2865 5.58369E-03
 -1      2866 5.35981E-03
 -1      2867 4.19191E-03
 -1      2868 4.64878E-03
 -1      2869 4.50022E-03
 -1      2870 3.46970E-03
 -1      2871 3.85270E-03
 -1      2872 3.76846E-03
 -1      2873 2.82415E-03
 -1      2874 3.16578E-03
 -1      2875 3.12532E-03
 -1      2876 2.31476E-03
 -1      2877 2.57177E-03
 -1      2878 2.56902E-03
 -1      2879 1.83488E-03
 -1      2880 2.07806E-03
 -1      2881 2.07994E-03
 -1      2882 1.44776E-03
 -1      2883 1.64050E-03
 -1      2884 1.64885E-03
 -1      2885 1.12611E-03
 -1      2886 1.28848E-03
 -1      2887 1.29519E-03
 -1      2888 8.70440E-04
 -1      2889 1.00406E-03
 -1      2890 1.01387E-03
 -1      2891 6.60437E-04
 -1      2892 7.68233E-04
 -1      2893 7.89611E-04
 -1      2894 4.91370E-04
 -1      2895 5.76722E-04
 -1      2896 6.03690E-04
 -1      2897 3.57844E-04
 -1      2898 4.24181E-04
 -1      2899 4.52786E-04
 -1      2900 2.54458E-04
 -1      2901 3.04989E-04
 -1      2902 3.32741E-04
 -1      2903 1.73614E-04
 -1      2904 2.12278E-04
 -1      2905 2.37706E-04
 -1      2906 1.32206E-04
 -1      2907 1.52550E-04
 -1      2908 1.74463E-04
 -1      2909 1.37230E-04
 -1      2910 3.85790E+00
 -1      2911 3.72061E+00
 -1      2912 3.17827E+00
 -1      2913 8.52055E-05
 -1      2914 7.96176E-05
 -1      2915 8.95712E-05
 -1      2916 8.96087E-05
 -1      2917 1.03812E-04
 -1      2918 8.92963E-05
 -1      2919 8.95712E-05
 -1      2920 1.03984E-04
 -1      2921 8.02379E-05
 -1      2922 8.59182E-05
 -1      2923 1.00606E-04
 -1      2924 6.77358E-05
 -1      2925 6.88168E-05
 -1      2926 8.58070E-05
 -1      2927 1.92308E+01
 -1      2928 1.54249E+01
 -1      2929 1.40934E+01
 -1      2930 1.10457E+01
 -1      2931 5.37258E+00
 -1      2932 5.84887E+00
 -1      2933 1.22333E+00
 -1      2934 9.81500E+00
 -1      2935 8.38850E+00
 -1      2936 3.76968E+00
 -1      2937 3.06355E+00
 -1      2938 2.60464E+00
 -1      2939 4.61760E+00
 -1      2940 7.38416E-05
 -1      2941 5.69481E-05
 -1      2942 8.00285E-05
 -1      2943 8.19376E+00
 -1      2944 1.04378E+01
 -1      2945 1.03897E+01
 -1      2946 3.81094E+00
 -1      2947 7.50460E+00
 -1      2948 5.17040E+00
 -1      2949 6.10857E-05
 -1      2950 8.94360E-05
 -1      2951 8.90731E-05
 -1      2952 9.97713E-05
 -1      2953 1.03639E-04
 -1      2954 9.98005E-05
 -1      2955 6.74819E+00
 -1      2956 8.71420E+00
 -1      2957 2.00230E+00
 -1      2958 1.86812E+00
 -1      2959 1.63437E+00
 -1      2960 3.93790E+00
 -1      2961 1.44358E+01
 -1      2962 1.27181E+01
 -1      2963 1.06984E+01
 -1      2964 1.03758E+01
 -1      2965 1.31640E+00
 -1      2966 1.12865E+01
 -1      2967 4.41330E+00
 -1      2968 1.64952E+01
 -1      2969 1.39078E+01
 -1      2970 1.78426E+01
 -1      2971 1.12298E+01
 -1      2972 9.21965E-05
 -1      2973 9.98005E-05
 -1      2974 1.08483E-04
 -1      2975 6.10857E-05
 -1      2976 1.26874E+00
 -1      2977 1.13831E+00
 -1      2978 1.35607E+00
 -1      2979 1.63668E+00
 -1      2980 7.24669E+00
 -1      2981 8.72430E+00
 -1      2982 4.26869E+00
 -1      2983 5.49751E+00
 -1      2984 4.80925E+00
 -1      2985 5.14345E+00
 -1      2986 4.38574E+00
 -1      2987 4.45408E+00
 -1      2988 6.60971E+00
 -1      2989 5.17027E+00
 -1      2990 6.71956E-05
 -1      2991 6.71956E-05
 -1      2992 7.38458E-05
 -1      2993 8.61385E-05
 -1      2994 7.57386E+00
 -1      2995 2.05812E+00
 -1      2996 2.43632E+00
 -1      2997 2.98152E+00
 -1      2998 3.57039E+00
 -1      2999 2.89643E+00
 -1      3000 1.06984E+01
 -1      3001 2.48021E+00
 -1      3002 2.55769E+00
 -1      3003 1.52659E+00
 -1      3004 1.48631E+00
 -1      3005 1.42637E+00
 -1      3006 1.42766E+00
 -1      3007 1.90488E+00
 -1      3008 1.04933E+00
 -1      3009 9.94917E-01
 -1      3010 1.46660E+00
 -1      3011 9.30586E-01
 -1      3012 8.56682E-01
 -1      3013 1.02394E+00
 -1      3014 7.93933E-01
 -1      3015 7.06627E-01
 -1      3016 8.96860E-01
 -1      3017 6.06838E-01
 -1      3018 5.46014E-01
 -1      3019 7.34322E-01
 -1      3020 4.57495E-01
 -1      3021 3.95610E-01
 -1      3022 5.46014E-01
 -1      3023 3.52448E-01
 -1      3024 3.11094E-01
 -1      3025 4.14334E-01
 -1      3026 2.73796E-01
 -1      3027 2.56959E-01
 -1      3028 3.33874E-01
 -1      3029 2.23224E-01
 -1      3030 2.04552E-01
 -1      3031 2.62841E-01
 -1      3032 1.83514E-01
 -1      3033 1.67437E-01
 -1      3034 2.08067E-01
 -1      3035 1.49015E-01
 -1      3036 1.37800E-01
 -1      3037 1.68607E-01
 -1      3038 1.21441E-01
 -1      3039 1.09756E-01
 -1      3040 1.33826E-01
 -1      3041 9.59249E-02
 -1      3042 8.49428E-02
 -1      3043 1.03636E-01
 -1      3044 7.36342E-02
 -1      3045 6.39699E-02
 -1      3046 7.84964E-02
 -1      3047 5.49549E-02
 -1      3048 4.68479E-02
 -1      3049 5.81728E-02
 -1      3050 3.98124E-02
 -1      3051 3.32687E-02
 -1      3052 4.21224E-02
 -1      3053 2.78845E-02
 -1      3054 2.27773E-02
 -1      3055 2.97027E-02
 -1      3056 1.87366E-02
 -1      3057 1.48748E-02
 -1      3058 2.02778E-02
 -1      3059 1.19050E-02
 -1      3060 9.29877E-03
 -1      3061 1.32674E-02
 -1      3062 7.16709E-03
 -1      3063 6.25887E-03
 -1      3064 8.16604E-03
 -1      3065 5.05453E-03
 -1      3066 4.96847E-03
 -1      3067 4.83002E-03
 -1      3068 5.12482E-03
 -1      3069 4.87736E-03
 -1      3070 3.78203E-03
 -1      3071 4.93435E-03
 -1      3072 4.60060E-03
 -1      3073 3.99536E-03
 -1      3074 4.50909E-03
 -1      3075 4.14246E-03
 -1      3076 3.96083E-03
 -1      3077 3.96458E-03
 -1      3078 3.61541E-03
 -1      3079 3.69143E-03
 -1      3080 3.39555E-03
 -1      3081 3.16097E-03
 -1      3082 3.29369E-03
 -1      3083 2.97449E-03
 -1      3084 2.72823E-03
 -1      3085 2.88734E-03
 -1      3086 2.55811E-03
 -1      3087 2.32046E-03
 -1      3088 2.53074E-03
 -1      3089 2.14182E-03
 -1      3090 1.92680E-03
 -1      3091 2.18198E-03
 -1      3092 1.75443E-03
 -1      3093 1.57713E-03
 -1      3094 1.83096E-03
 -1      3095 1.41961E-03
 -1      3096 1.26442E-03
 -1      3097 1.50106E-03
 -1      3098 1.12600E-03
 -1      3099 9.94124E-04
 -1      3100 1.20511E-03
 -1      3101 8.76136E-04
 -1      3102 7.69917E-04
 -1      3103 9.48702E-04
 -1      3104 6.71844E-04
 -1      3105 5.91097E-04
 -1      3106 7.32641E-04
 -1      3107 5.11337E-04
 -1      3108 4.44940E-04
 -1      3109 5.54808E-04
 -1      3110 3.81352E-04
 -1      3111 3.27900E-04
 -1      3112 4.11461E-04
 -1      3113 2.78113E-04
 -1      3114 2.35933E-04
 -1      3115 2.98086E-04
 -1      3116 1.98386E-04
 -1      3117 1.65834E-04
 -1      3118 2.10750E-04
 -1      3119 1.38340E-04
 -1      3120 1.08593E-04
 -1      3121 9.57604E-05
 -1      3122 1.45709E-04
 -1      3123 1.21806E-04
 -1      3124 1.21806E-04
 -1      3125 1.46718E+00
 -1      3126 1.72085E+00
 -1      3127 2.01396E+00
 -1      3128 1.05052E+00
 -1      3129 1.22526E+00
 -1      3130 1.43476E+00
 -1      3131 7.50771E-01
 -1      3132 8.75334E-01
 -1      3133 1.01765E+00
 -1      3134 5.33995E-01
 -1      3135 6.24797E-01
 -1      3136 7.16490E-01
 -1      3137 3.76971E-01
 -1      3138 4.43818E-01
 -1      3139 5.00340E-01
 -1      3140 2.63452E-01
 -1      3141 3.12739E-01
 -1      3142 3.45931E-01
 -1      3143 1.81802E-01
 -1      3144 2.18010E-01
 -1      3145 2.36256E-01
 -1      3146 1.24813E-01
 -1      3147 1.51234E-01
 -1      3148 1.60247E-01
 -1      3149 8.42083E-02
 -1      3150 1.03135E-01
 -1      3151 1.08001E-01
 -1      3152 5.59899E-02
 -1      3153 7.04880E-02
 -1      3154 7.26025E-02
 -1      3155 3.71072E-02
 -1      3156 4.66776E-02
 -1      3157 4.95698E-02
 -1      3158 2.36603E-02
 -1      3159 3.03134E-02
 -1      3160 3.34638E-02
 -1      3161 1.51292E-02
 -1      3162 1.87807E-02
 -1      3163 2.17904E-02
 -1      3164 1.07056E-02
 -1      3165 1.16932E-02
 -1      3166 1.34750E-02
 -1      3167 8.18833E-03
 -1      3168 8.86074E-03
 -1      3169 8.19416E-03
 -1      3170 7.42168E-03
 -1      3171 8.15142E-03
 -1      3172 6.31241E-03
 -1      3173 6.52471E-03
 -1      3174 7.23839E-03
 -1      3175 6.09221E-03
 -1      3176 5.56425E-03
 -1      3177 6.22107E-03
 -1      3178 5.60528E-03
 -1      3179 4.74340E-03
 -1      3180 5.21044E-03
 -1      3181 4.94784E-03
 -1      3182 3.99078E-03
 -1      3183 4.38333E-03
 -1      3184 4.23397E-03
 -1      3185 3.39337E-03
 -1      3186 3.73258E-03
 -1      3187 3.61570E-03
 -1      3188 2.84544E-03
 -1      3189 3.14936E-03
 -1      3190 3.11349E-03
 -1      3191 2.35047E-03
 -1      3192 2.60284E-03
 -1      3193 2.62688E-03
 -1      3194 1.88775E-03
 -1      3195 2.12445E-03
 -1      3196 2.15827E-03
 -1      3197 1.49955E-03
 -1      3198 1.69393E-03
 -1      3199 1.73844E-03
 -1      3200 1.17447E-03
 -1      3201 1.33375E-03
 -1      3202 1.37882E-03
 -1      3203 9.13702E-04
 -1      3204 1.03575E-03
 -1      3205 1.07430E-03
 -1      3206 6.97919E-04
 -1      3207 8.00126E-04
 -1      3208 8.22009E-04
 -1      3209 5.22978E-04
 -1      3210 6.06693E-04
 -1      3211 6.17207E-04
 -1      3212 3.88048E-04
 -1      3213 4.55237E-04
 -1      3214 4.58240E-04
 -1      3215 2.85827E-04
 -1      3216 3.38682E-04
 -1      3217 3.41133E-04
 -1      3218 2.04406E-04
 -1      3219 2.46586E-04
 -1      3220 2.52526E-04
 -1      3221 1.18428E-04
 -1      3222 1.21806E-04
 -1      3223 1.39629E-04
 -1      3224 1.19872E-04
 -1      3225 1.19699E-04
 -1      3226 1.37694E-04
 -1      3227 9.70284E-05
 -1      3228 1.08449E-04
 -1      3229 1.29650E-04
 -1      3230 3.85642E+00
 -1      3231 2.54392E+00
 -1      3232 1.71583E+00
 -1      3233 1.59114E+00
 -1      3234 1.63080E+00
 -1      3235 2.89042E+00
 -1      3236 3.57258E+00
 -1      3237 1.21061E-04
 -1      3238 2.91719E+00
 -1      3239 2.31485E+00
 -1      3240 4.16430E+00
 -1      3241 1.24289E+01
 -1      3242 1.39078E+01
 -1      3243 7.99875E+00
 -1      3244 6.76806E+00
 -1      3245 1.34847E+00
 -1      3246 1.29679E+00
 -1      3247 1.73502E+00
 -1      3248 1.74789E+00
 -1      3249 1.03665E+01
 -1      3250 9.03502E+00
 -1      3251 7.07879E+00
 -1      3252 5.33455E+00
 -1      3253 6.71810E+00
 -1      3254 5.20578E+00
 -1      3255 6.30606E+00
 -1      3256 5.42215E+00
 -1      3257 4.18285E+00
 -1      3258 4.48650E+00
 -1      3259 2.61712E+00
 -1      3260 9.96584E+00
 -1      3261 7.71437E+00
 -1      3262 8.57758E+00
 -1      3263 1.92334E+00
 -1      3264 9.00571E-05
 -1      3265 9.05973E-05
 -1      3266 1.13240E-04
 -1      3267 1.12512E-04
 -1      3268 8.69488E+00
 -1      3269 8.44304E+00
 -1      3270 2.19237E+00
 -1      3271 1.87243E-04
 -1      3272 1.96123E-04
 -1      3273 1.66180E-04
 -1      3274 1.37230E-04
 -1      3275 1.53400E-04
 -1      3276 1.66180E-04
 -1      3277 1.37230E-04
 -1      3278 1.12080E-04
 -1      3279 1.24659E-04
 -1      3280 1.40828E-04
 -1      3281 2.31485E+00
 -1      3282 3.49154E+00
 -1      3283 3.14018E+00
 -1      3284 2.44407E+00
 -1      3285 3.27236E+00
 -1      3286 1.09932E+01
 -1      3287 8.40571E+00
 -1      3288 8.69488E+00
 -1      3289 5.58051E+00
 -1      3290 1.35558E-04
 -1      3291 1.19498E-04
 -1      3292 1.19498E-04
 -1      3293 9.84149E+00
 -1      3294 1.04198E+01
 -1      3295 1.19498E-04
 -1      3296 1.15630E-04
 -1      3297 1.31807E-04
 -1      3298 1.35357E-04
 -1      3299 1.50777E-04
 -1      3300 1.60756E-04
 -1      3301 1.84493E+00
 -1      3302 1.46660E+00
 -1      3303 1.35801E+00
 -1      3304 1.29368E+00
 -1      3305 1.73634E+00
 -1      3306 1.06899E+00
 -1      3307 1.00624E+00
 -1      3308 1.40305E+00
 -1      3309 8.39058E-01
 -1      3310 7.39269E-01
 -1      3311 1.01118E+00
 -1      3312 6.62551E-01
 -1      3313 5.74032E-01
 -1      3314 7.67286E-01
 -1      3315 4.98782E-01
 -1      3316 4.55620E-01
 -1      3317 6.15318E-01
 -1      3318 3.86273E-01
 -1      3319 3.48975E-01
 -1      3320 4.70721E-01
 -1      3321 3.07590E-01
 -1      3322 2.73855E-01
 -1      3323 3.59990E-01
 -1      3324 2.36882E-01
 -1      3325 2.15844E-01
 -1      3326 2.81632E-01
 -1      3327 1.85218E-01
 -1      3328 1.66796E-01
 -1      3329 2.14033E-01
 -1      3330 1.43548E-01
 -1      3331 1.27189E-01
 -1      3332 1.60159E-01
 -1      3333 1.11692E-01
 -1      3334 9.78612E-02
 -1      3335 1.21414E-01
 -1      3336 8.54036E-02
 -1      3337 7.40950E-02
 -1      3338 9.34599E-02
 -1      3339 6.47056E-02
 -1      3340 5.56906E-02
 -1      3341 7.16128E-02
 -1      3342 4.75843E-02
 -1      3343 4.05488E-02
 -1      3344 5.41170E-02
 -1      3345 3.38878E-02
 -1      3346 2.85036E-02
 -1      3347 3.93498E-02
 -1      3348 2.34845E-02
 -1      3349 1.94438E-02
 -1      3350 2.76697E-02
 -1      3351 1.56604E-02
 -1      3352 1.26907E-02
 -1      3353 1.88671E-02
 -1      3354 9.85893E-03
 -1      3355 7.72725E-03
 -1      3356 1.22519E-02
 -1      3357 5.67415E-03
 -1      3358 4.46981E-03
 -1      3359 7.36705E-03
 -1      3360 3.29793E-03
 -1      3361 3.45428E-03
 -1      3362 4.14207E-03
 -1      3363 3.18638E-03
 -1      3364 3.24337E-03
 -1      3365 2.70229E-03
 -1      3366 3.45398E-03
 -1      3367 3.36247E-03
 -1      3368 2.64500E-03
 -1      3369 3.40175E-03
 -1      3370 3.22387E-03
 -1      3371 2.89490E-03
 -1      3372 3.15514E-03
 -1      3373 2.93527E-03
 -1      3374 2.86545E-03
 -1      3375 2.80467E-03
 -1      3376 2.61819E-03
 -1      3377 2.66612E-03
 -1      3378 2.46361E-03
 -1      3379 2.29348E-03
 -1      3380 2.38093E-03
 -1      3381 2.16986E-03
 -1      3382 1.99122E-03
 -1      3383 2.10273E-03
 -1      3384 1.85312E-03
 -1      3385 1.68075E-03
 -1      3386 1.84101E-03
 -1      3387 1.54270E-03
 -1      3388 1.38518E-03
 -1      3389 1.56487E-03
 -1      3390 1.25599E-03
 -1      3391 1.11757E-03
 -1      3392 1.29764E-03
 -1      3393 1.00201E-03
 -1      3394 8.84022E-04
 -1      3395 1.05289E-03
 -1      3396 7.84082E-04
 -1      3397 6.86009E-04
 -1      3398 8.37390E-04
 -1      3399 6.01880E-04
 -1      3400 5.22120E-04
 -1      3401 6.53321E-04
 -1      3402 4.52883E-04
 -1      3403 3.89296E-04
 -1      3404 4.99955E-04
 -1      3405 3.33519E-04
 -1      3406 2.83731E-04
 -1      3407 3.74941E-04
 -1      3408 2.39222E-04
 -1      3409 2.01674E-04
 -1      3410 2.74655E-04
 -1      3411 1.91223E+00
 -1      3412 2.24496E+00
 -1      3413 1.94923E+00
 -1      3414 2.30898E+00
 -1      3415 2.31485E+00
 -1      3416 6.36623E-01
 -1      3417 7.62597E-01
 -1      3418 4.46905E-01
 -1      3419 5.37081E-01
 -1      3420 5.83188E-01
 -1      3421 3.12055E-01
 -1      3422 3.76287E-01
 -1      3423 4.13029E-01
 -1      3424 2.16006E-01
 -1      3425 2.61448E-01
 -1      3426 2.91805E-01
 -1      3427 1.48958E-01
 -1      3428 1.79526E-01
 -1      3429 2.04718E-01
 -1      3430 1.00679E-01
 -1      3431 1.22357E-01
 -1      3432 1.41636E-01
 -1      3433 6.78635E-02
 -1      3434 8.15839E-02
 -1      3435 9.59399E-02
 -1      3436 4.62047E-02
 -1      3437 5.55170E-02
 -1      3438 6.44985E-02
 -1      3439 3.05419E-02
 -1      3440 3.73356E-02
 -1      3441 4.32828E-02
 -1      3442 1.94579E-02
 -1      3443 2.43375E-02
 -1      3444 2.82094E-02
 -1      3445 1.17038E-02
 -1      3446 1.51397E-02
 -1      3447 1.76867E-02
 -1      3448 6.89407E-03
 -1      3449 8.73891E-03
 -1      3450 1.04037E-02
 -1      3451 5.16855E-03
 -1      3452 5.20546E-03
 -1      3453 5.75021E-03
 -1      3454 4.80547E-03
 -1      3455 4.98876E-03
 -1      3456 3.88180E-03
 -1      3457 4.63952E-03
 -1      3458 4.94316E-03
 -1      3459 3.83971E-03
 -1      3460 4.23651E-03
 -1      3461 4.59032E-03
 -1      3462 3.92819E-03
 -1      3463 3.72061E-03
 -1      3464 4.08067E-03
 -1      3465 3.72315E-03
 -1      3466 3.25374E-03
 -1      3467 3.51195E-03
 -1      3468 3.35865E-03
 -1      3469 2.78848E-03
 -1      3470 3.03249E-03
 -1      3471 2.92873E-03
 -1      3472 2.38125E-03
 -1      3473 2.62385E-03
 -1      3474 2.54285E-03
 -1      3475 1.97596E-03
 -1      3476 2.20197E-03
 -1      3477 2.19894E-03
 -1      3478 1.61238E-03
 -1      3479 1.80620E-03
 -1      3480 1.84990E-03
 -1      3481 1.29092E-03
 -1      3482 1.45672E-03
 -1      3483 1.52448E-03
 -1      3484 1.01457E-03
 -1      3485 1.15329E-03
 -1      3486 1.23119E-03
 -1      3487 7.83007E-04
 -1      3488 8.96584E-04
 -1      3489 9.75568E-04
 -1      3490 5.93131E-04
 -1      3491 6.84357E-04
 -1      3492 7.58932E-04
 -1      3493 4.44646E-04
 -1      3494 5.12387E-04
 -1      3495 5.79537E-04
 -1      3496 3.30415E-04
 -1      3497 3.79781E-04
 -1      3498 4.33928E-04
 -1      3499 2.39624E-04
 -1      3500 2.78865E-04
 -1      3501 3.17513E-04
 -1      3502 1.62399E-04
 -1      3503 1.62399E-04
 -1      3504 1.83526E-04
 -1      3505 2.62741E+00
 -1      3506 1.62399E-04
 -1      3507 1.60464E-04
 -1      3508 1.85170E-04
 -1      3509 6.54204E+00
 -1      3510 5.50576E+00
 -1      3511 2.75814E+00
 -1      3512 3.30333E+00
 -1      3513 5.03994E+00
 -1      3514 4.57794E+00
 -1      3515 4.50319E+00
 -1      3516 4.66410E+00
 -1      3517 6.42826E+00
 -1      3518 4.52581E+00
 -1      3519 9.06452E-01
 -1      3520 1.08164E+00
 -1      3521 8.26585E-01
 -1      3522 1.96482E+00
 -1      3523 1.90488E+00
 -1      3524 1.75080E+00
 -1      3525 1.68710E+00
 -1      3526 1.73969E+00
 -1      3527 3.27236E+00
 -1      3528 1.88356E+00
 -1      3529 2.22084E+00
 -1      3530 2.62774E+00
 -1      3531 1.29776E+00
 -1      3532 1.53968E+00
 -1      3533 1.18656E+00
 -1      3534 8.17494E+00
 -1      3535 8.17494E+00
 -1      3536 6.91103E+00
 -1      3537 1.93413E+00
 -1      3538 2.16393E+00
 -1      3539 1.90488E+00
 -1      3540 1.85086E-04
 -1      3541 1.81536E-04
 -1      3542 2.49522E+00
 -1      3543 1.65014E-04
 -1      3544 1.37520E-04
 -1      3545 1.31817E-04
 -1      3546 1.93486E-04
 -1      3547 1.89559E-04
 -1      3548 1.64854E-04
 -1      3549 1.64653E-04
 -1      3550 1.74657E+00
 -1      3551 1.38248E-04
 -1      3552 6.40084E+00
 -1      3553 4.82781E+00
 -1      3554 6.00014E+00
 -1      3555 6.96994E+00
 -1      3556 6.42826E+00
 -1      3557 3.29445E+00
 -1      3558 3.83501E+00
 -1      3559 2.89936E+00
 -1      3560 2.07706E-04
 -1      3561 2.24868E-04
 -1      3562 2.51207E-04
 -1      3563 1.94925E-04
 -1      3564 1.82354E-04
 -1      3565 2.22503E+00
 -1      3566 1.98879E+00
 -1      3567 2.85511E+00
 -1      3568 1.69354E-04
 -1      3569 2.35633E-04
 -1      3570 1.67974E+00
 -1      3571 1.78931E-04
 -1      3572 2.28660E-04
 -1      3573 1.78931E-04
 -1      3574 1.96482E+00
 -1      3575 2.24496E+00
 -1      3576 1.94146E+00
 -1      3577 1.71677E+00
 -1      3578 1.24381E+00
 -1      3579 1.07663E+00
 -1      3580 1.78222E+00
 -1      3581 9.27652E-01
 -1      3582 8.50934E-01
 -1      3583 1.16028E+00
 -1      3584 7.29181E-01
 -1      3585 6.53931E-01
 -1      3586 8.89547E-01
 -1      3587 5.70740E-01
 -1      3588 5.01393E-01
 -1      3589 6.84603E-01
 -1      3590 4.23319E-01
 -1      3591 3.81934E-01
 -1      3592 5.23338E-01
 -1      3593 3.17935E-01
 -1      3594 2.80962E-01
 -1      3595 3.81264E-01
 -1      3596 2.36647E-01
 -1      3597 2.06021E-01
 -1      3598 2.72950E-01
 -1      3599 1.79201E-01
 -1      3600 1.55953E-01
 -1      3601 2.01815E-01
 -1      3602 1.36221E-01
 -1      3603 1.20724E-01
 -1      3604 1.55263E-01
 -1      3605 1.05918E-01
 -1      3606 9.34599E-02
 -1      3607 1.20724E-01
 -1      3608 8.07549E-02
 -1      3609 7.13654E-02
 -1      3610 9.32125E-02
 -1      3611 6.08988E-02
 -1      3612 5.27925E-02
 -1      3613 7.00409E-02
 -1      3614 4.44351E-02
 -1      3615 3.77741E-02
 -1      3616 5.12169E-02
 -1      3617 3.12760E-02
 -1      3618 2.62569E-02
 -1      3619 3.63614E-02
 -1      3620 2.14153E-02
 -1      3621 1.76319E-02
 -1      3622 2.50217E-02
 -1      3623 1.42366E-02
 -1      3624 1.14049E-02
 -1      3625 1.67849E-02
 -1      3626 8.91276E-03
 -1      3627 6.85966E-03
 -1      3628 1.08975E-02
 -1      3629 5.12352E-03
 -1      3630 3.95164E-03
 -1      3631 6.66923E-03
 -1      3632 2.97173E-03
 -1      3633 2.70383E-03
 -1      3634 3.95318E-03
 -1      3635 2.05907E-03
 -1      3636 2.26968E-03
 -1      3637 2.32851E-03
 -1      3638 2.46671E-03
 -1      3639 2.50599E-03
 -1      3640 1.88078E-03
 -1      3641 2.59568E-03
 -1      3642 2.52695E-03
 -1      3643 2.16749E-03
 -1      3644 2.50999E-03
 -1      3645 2.37939E-03
 -1      3646 2.24022E-03
 -1      3647 2.29845E-03
 -1      3648 2.14387E-03
 -1      3649 2.14232E-03
 -1      3650 2.02915E-03
 -1      3651 1.90553E-03
 -1      3652 1.94666E-03
 -1      3653 1.79275E-03
 -1      3654 1.65465E-03
 -1      3655 1.71917E-03
 -1      3656 1.54538E-03
 -1      3657 1.40733E-03
 -1      3658 1.49711E-03
 -1      3659 1.29695E-03
 -1      3660 1.16777E-03
 -1      3661 1.27746E-03
 -1      3662 1.06375E-03
 -1      3663 9.48191E-04
 -1      3664 1.06307E-03
 -1      3665 8.54648E-04
 -1      3666 7.54707E-04
 -1      3667 8.65508E-04
 -1      3668 6.73443E-04
 -1      3669 5.89314E-04
 -1      3670 6.90701E-04
 -1      3671 5.20622E-04
 -1      3672 4.51385E-04
 -1      3673 5.40744E-04
 -1      3674 3.94376E-04
 -1      3675 3.38599E-04
 -1      3676 4.15042E-04
 -1      3677 3.02427E-04
 -1      3678 2.57918E-04
 -1      3679 3.21862E-04
 -1      3680 2.06014E-04
 -1      3681 2.17680E+00
 -1      3682 3.41568E-01
 -1      3683 4.12186E-01
 -1      3684 4.73705E-01
 -1      3685 5.73247E-01
 -1      3686 4.02244E-01
 -1      3687 1.75256E-01
 -1      3688 2.11736E-01
 -1      3689 1.22848E-01
 -1      3690 1.49449E-01
 -1      3691 1.56468E-01
 -1      3692 8.42313E-02
 -1      3693 1.03326E-01
 -1      3694 1.11139E-01
 -1      3695 5.79714E-02
 -1      3696 7.03180E-02
 -1      3697 7.77043E-02
 -1      3698 3.89271E-02
 -1      3699 4.77962E-02
 -1      3700 5.36158E-02
 -1      3701 2.57844E-02
 -1      3702 3.19888E-02
 -1      3703 3.65022E-02
 -1      3704 1.64030E-02
 -1      3705 2.07212E-02
 -1      3706 2.45007E-02
 -1      3707 9.80992E-03
 -1      3708 1.27748E-02
 -1      3709 1.58093E-02
 -1      3710 5.62551E-03
 -1      3711 7.31413E-03
 -1      3712 9.68522E-03
 -1      3713 3.74025E-03
 -1      3714 3.92004E-03
 -1      3715 5.48396E-03
 -1      3716 3.03034E-03
 -1      3717 2.89265E-03
 -1      3718 2.93089E-03
 -1      3719 3.26824E-03
 -1      3720 3.31744E-03
 -1      3721 2.37039E-03
 -1      3722 3.19654E-03
 -1      3723 3.35238E-03
 -1      3724 2.74163E-03
 -1      3725 2.94635E-03
 -1      3726 3.15501E-03
 -1      3727 2.78423E-03
 -1      3728 2.61103E-03
 -1      3729 2.83229E-03
 -1      3730 2.62864E-03
 -1      3731 2.29204E-03
 -1      3732 2.45667E-03
 -1      3733 2.36022E-03
 -1      3734 1.96781E-03
 -1      3735 2.14710E-03
 -1      3736 2.06091E-03
 -1      3737 1.66889E-03
 -1      3738 1.83865E-03
 -1      3739 1.78680E-03
 -1      3740 1.38267E-03
 -1      3741 1.53833E-03
 -1      3742 1.52708E-03
 -1      3743 1.12155E-03
 -1      3744 1.25919E-03
 -1      3745 1.27303E-03
 -1      3746 8.92267E-04
 -1      3747 1.01025E-03
 -1      3748 1.03825E-03
 -1      3749 6.96760E-04
 -1      3750 7.95410E-04
 -1      3751 8.30095E-04
 -1      3752 5.34032E-04
 -1      3753 6.14776E-04
 -1      3754 6.51255E-04
 -1      3755 4.01373E-04
 -1      3756 4.66238E-04
 -1      3757 5.01477E-04
 -1      3758 2.95336E-04
 -1      3759 3.46887E-04
 -1      3760 3.79196E-04
 -1      3761 2.15145E-04
 -1      3762 2.15145E-04
 -1      3763 2.16393E+00
 -1      3764 2.15397E+00
 -1      3765 1.38279E+00
 -1      3766 1.72668E+00
 -1      3767 3.08310E+00
 -1      3768 4.44387E+00
 -1      3769 2.44067E-04
 -1      3770 2.58822E-04
 -1      3771 2.88196E-04
 -1      3772 2.43249E-04
 -1      3773 4.03466E+00
 -1      3774 3.56885E+00
 -1      3775 6.57872E-01
 -1      3776 8.01727E-01
 -1      3777 5.48389E-01
 -1      3778 2.45748E-01
 -1      3779 2.96355E-01
 -1      3780 2.16286E-01
 -1      3781 2.10962E+00
 -1      3782 2.64692E+00
 -1      3783 1.74585E+00
 -1      3784 9.36680E-01
 -1      3785 1.15280E+00
 -1      3786 1.13291E+00
 -1      3787 7.67968E-01
 -1      3788 8.17494E+00
 -1      3789 6.50840E+00
 -1      3790 2.04538E+00
 -1      3791 5.37941E+00
 -1      3792 5.78205E+00
 -1      3793 2.33786E-04
 -1      3794 5.41632E+00
 -1      3795 5.41632E+00
 -1      3796 4.28734E+00
 -1      3797 2.95511E-01
 -1      3798 2.11336E-04
 -1      3799 2.15726E-04
 -1      3800 2.41311E-04
 -1      3801 2.08227E-04
 -1      3802 2.56498E+00
 -1      3803 3.88872E+00
 -1      3804 2.95438E+00
 -1      3805 3.74752E+00
 -1      3806 2.50727E+00
 -1      3807 2.35430E-04
 -1      3808 4.46852E+00
 -1      3809 2.35909E+00
 -1      3810 3.14627E+00
 -1      3811 2.40335E+00
 -1      3812 2.67775E+00
 -1      3813 6.73917E+00
 -1      3814 2.65406E-04
 -1      3815 3.66270E+00
 -1      3816 5.10541E+00
 -1      3817 2.43249E-04
 -1      3818 2.51682E-04
 -1      3819 2.37094E-04
 -1      3820 2.17749E+00
 -1      3821 2.61368E+00
 -1      3822 1.46063E+00
 -1      3823 1.31164E+00
 -1      3824 1.15426E+00
 -1      3825 1.03251E+00
 -1      3826 1.45461E+00
 -1      3827 8.21736E-01
 -1      3828 7.38546E-01
 -1      3829 1.08645E+00
 -1      3830 5.97186E-01
 -1      3831 5.19112E-01
 -1      3832 7.34319E-01
 -1      3833 4.38440E-01
 -1      3834 3.74440E-01
 -1      3835 5.12288E-01
 -1      3836 3.04857E-01
 -1      3837 2.60542E-01
 -1      3838 3.62033E-01
 -1      3839 2.28635E-01
 -1      3840 2.01815E-01
 -1      3841 2.60542E-01
 -1      3842 1.74995E-01
 -1      3843 1.55263E-01
 -1      3844 2.01815E-01
 -1      3845 1.33551E-01
 -1      3846 1.18745E-01
 -1      3847 1.53283E-01
 -1      3848 1.01561E-01
 -1      3849 8.88559E-02
 -1      3850 1.14388E-01
 -1      3851 7.55539E-02
 -1      3852 6.50873E-02
 -1      3853 8.39023E-02
 -1      3854 5.49520E-02
 -1      3855 4.65946E-02
 -1      3856 6.04650E-02
 -1      3857 3.89799E-02
 -1      3858 3.24817E-02
 -1      3859 4.27150E-02
 -1      3860 2.68392E-02
 -1      3861 2.19976E-02
 -1      3862 2.94577E-02
 -1      3863 1.79803E-02
 -1      3864 1.45851E-02
 -1      3865 1.97978E-02
 -1      3866 1.22881E-02
 -1      3867 9.79597E-03
 -1      3868 1.34836E-02
 -1      3869 8.00970E-03
 -1      3870 6.27356E-03
 -1      3871 9.40030E-03
 -1      3872 4.93308E-03
 -1      3873 3.95318E-03
 -1      3874 6.27356E-03
 -1      3875 2.97328E-03
 -1      3876 2.32851E-03
 -1      3877 3.95318E-03
 -1      3878 1.63473E-03
 -1      3879 1.83176E-03
 -1      3880 2.27949E-03
 -1      3881 1.82343E-03
 -1      3882 1.91312E-03
 -1      3883 1.57739E-03
 -1      3884 2.00166E-03
 -1      3885 1.98470E-03
 -1      3886 1.65760E-03
 -1      3887 1.98298E-03
 -1      3888 1.90204E-03
 -1      3889 1.74442E-03
 -1      3890 1.84563E-03
 -1      3891 1.73091E-03
 -1      3892 1.68629E-03
 -1      3893 1.64492E-03
 -1      3894 1.53215E-03
 -1      3895 1.54389E-03
 -1      3896 1.43369E-03
 -1      3897 1.32442E-03
 -1      3898 1.35945E-03
 -1      3899 1.22579E-03
 -1      3900 1.11541E-03
 -1      3901 1.16236E-03
 -1      3902 1.02938E-03
 -1      3903 9.25364E-04
 -1      3904 9.77706E-04
 -1      3905 8.44978E-04
 -1      3906 7.51434E-04
 -1      3907 8.11290E-04
 -1      3908 6.79553E-04
 -1      3909 5.98289E-04
 -1      3910 6.59023E-04
 -1      3911 5.36129E-04
 -1      3912 4.67437E-04
 -1      3913 5.24982E-04
 -1      3914 4.15493E-04
 -1      3915 3.58484E-04
 -1      3916 4.10878E-04
 -1      3917 3.21862E-04
 -1      3918 2.85690E-04
 -1      3919 2.65406E-04
 -1      3920 3.22312E-04
 -1      3921 6.49309E-02
 -1      3922 7.88442E-02
 -1      3923 3.52656E-01
 -1      3924 4.14175E-01
 -1      3925 9.33233E-02
 -1      3926 1.12845E-01
 -1      3927 8.05499E-02
 -1      3928 1.29367E-01
 -1      3929 1.55173E-01
 -1      3930 1.11551E-01
 -1      3931 4.53939E-02
 -1      3932 5.55691E-02
 -1      3933 5.67091E-02
 -1      3934 3.12805E-02
 -1      3935 3.82188E-02
 -1      3936 4.01722E-02
 -1      3937 2.10480E-02
 -1      3938 2.61111E-02
 -1      3939 2.78278E-02
 -1      3940 1.37313E-02
 -1      3941 1.73595E-02
 -1      3942 1.89700E-02
 -1      3943 8.52113E-03
 -1      3944 1.10169E-02
 -1      3945 1.25672E-02
 -1      3946 4.89104E-03
 -1      3947 6.59651E-03
 -1      3948 7.92822E-03
 -1      3949 2.76455E-03
 -1      3950 3.61215E-03
 -1      3951 4.72471E-03
 -1      3952 2.26079E-03
 -1      3953 1.97369E-03
 -1      3954 2.65496E-03
 -1      3955 2.31029E-03
 -1      3956 2.22615E-03
 -1      3957 1.82945E-03
 -1      3958 2.40064E-03
 -1      3959 2.44217E-03
 -1      3960 1.92670E-03
 -1      3961 2.29842E-03
 -1      3962 2.41248E-03
 -1      3963 2.07042E-03
 -1      3964 2.08148E-03
 -1      3965 2.23585E-03
 -1      3966 2.01968E-03
 -1      3967 1.83504E-03
 -1      3968 1.97999E-03
 -1      3969 1.85561E-03
 -1      3970 1.58907E-03
 -1      3971 1.71824E-03
 -1      3972 1.63732E-03
 -1      3973 1.34643E-03
 -1      3974 1.47699E-03
 -1      3975 1.40842E-03
 -1      3976 1.12349E-03
 -1      3977 1.24698E-03
 -1      3978 1.19689E-03
 -1      3979 9.16967E-04
 -1      3980 1.02827E-03
 -1      3981 1.00221E-03
 -1      3982 7.33534E-04
 -1      3983 8.30390E-04
 -1      3984 8.20405E-04
 -1      3985 5.75733E-04
 -1      3986 6.57717E-04
 -1      3987 6.58012E-04
 -1      3988 4.43468E-04
 -1      3989 5.11262E-04
 -1      3990 5.17724E-04
 -1      3991 3.35988E-04
 -1      3992 3.90474E-04
 -1      3993 4.00260E-04
 -1      3994 1.98534E-04
 -1      3995 2.12812E-04
 -1      3996 2.27401E-04
 -1      3997 2.20310E-04
 -1      3998 2.40335E+00
 -1      3999 3.12720E+00
 -1      4000 3.78874E+00
 -1      4001 3.75183E+00
 -1      4002 2.73971E+00
 -1      4003 2.62836E-04
 -1      4004 2.99350E-04
 -1      4005 3.10628E-04
 -1      4006 2.62836E-04
 -1      4007 4.88711E-01
 -1      4008 5.73336E-01
 -1      4009 4.39122E-01
 -1      4010 1.96482E+00
 -1      4011 2.25517E+00
 -1      4012 1.78222E+00
 -1      4013 1.55866E+00
 -1      4014 1.94160E+00
 -1      4015 1.99030E+00
 -1      4016 2.54298E-01
 -1      4017 2.99511E-01
 -1      4018 3.11442E-01
 -1      4019 3.74691E+00
 -1      4020 3.96500E+00
 -1      4021 3.02591E+00
 -1      4022 3.24831E+00
 -1      4023 1.82306E-01
 -1      4024 2.16318E-01
 -1      4025 1.55205E-01
 -1      4026 2.48463E-04
 -1      4027 2.44654E-04
 -1      4028 2.68748E-04
 -1      4029 1.93358E+00
 -1      4030 2.58304E+00
 -1      4031 2.16047E+00
 -1      4032 1.83888E+00
 -1      4033 9.86419E-01
 -1      4034 1.21641E+00
 -1      4035 1.41217E+00
 -1      4036 6.26475E-01
 -1      4037 6.86153E-01
 -1      4038 8.21106E-01
 -1      4039 2.20317E-01
 -1      4040 2.43710E+00
 -1      4041 1.40494E-01
 -1      4042 1.67627E-01
 -1      4043 6.19748E+00
 -1      4044 1.41051E+00
 -1      4045 1.19973E+00
 -1      4046 1.09942E+00
 -1      4047 9.58060E-01
 -1      4048 1.42347E+00
 -1      4049 6.11250E-01
 -1      4050 5.30578E-01
 -1      4051 9.76350E-01
 -1      4052 5.30578E-01
 -1      4053 4.60995E-01
 -1      4054 6.29540E-01
 -1      4055 2.92450E-01
 -1      4056 2.60542E-01
 -1      4057 4.60995E-01
 -1      4058 2.20562E-01
 -1      4059 1.93742E-01
 -1      4060 2.52469E-01
 -1      4061 1.63741E-01
 -1      4062 1.42030E-01
 -1      4063 1.82488E-01
 -1      4064 1.19793E-01
 -1      4065 1.02610E-01
 -1      4066 1.30252E-01
 -1      4067 8.65210E-02
 -1      4068 7.32190E-02
 -1      4069 9.19265E-02
 -1      4070 6.32188E-02
 -1      4071 5.30835E-02
 -1      4072 6.58375E-02
 -1      4073 4.59577E-02
 -1      4074 3.83430E-02
 -1      4075 4.87115E-02
 -1      4076 3.26210E-02
 -1      4077 2.69784E-02
 -1      4078 3.58637E-02
 -1      4079 2.25465E-02
 -1      4080 1.85293E-02
 -1      4081 2.57098E-02
 -1      4082 1.53557E-02
 -1      4083 1.30587E-02
 -1      4084 1.81044E-02
 -1      4085 1.06585E-02
 -1      4086 8.87219E-03
 -1      4087 1.25306E-02
 -1      4088 7.17729E-03
 -1      4089 5.83682E-03
 -1      4090 8.43545E-03
 -1      4091 4.57728E-03
 -1      4092 3.59738E-03
 -1      4093 5.48102E-03
 -1      4094 2.69525E-03
 -1      4095 2.00147E-03
 -1      4096 3.31935E-03
 -1      4097 1.45840E-03
 -1      4098 1.45007E-03
 -1      4099 1.87415E-03
 -1      4100 1.38511E-03
 -1      4101 1.47365E-03
 -1      4102 1.26613E-03
 -1      4103 1.53415E-03
 -1      4104 1.53243E-03
 -1      4105 1.26166E-03
 -1      4106 1.52705E-03
 -1      4107 1.47064E-03
 -1      4108 1.31678E-03
 -1      4109 1.42580E-03
 -1      4110 1.33981E-03
 -1      4111 1.26656E-03
 -1      4112 1.28714E-03
 -1      4113 1.18868E-03
 -1      4114 1.16904E-03
 -1      4115 1.13594E-03
 -1      4116 1.03731E-03
 -1      4117 1.06363E-03
 -1      4118 9.73122E-04
 -1      4119 8.87093E-04
 -1      4120 9.46699E-04
 -1      4121 8.20117E-04
 -1      4122 7.39730E-04
 -1      4123 8.15533E-04
 -1      4124 6.75369E-04
 -1      4125 6.03488E-04
 -1      4126 6.84196E-04
 -1      4127 5.44804E-04
 -1      4128 4.82644E-04
 -1      4129 5.61150E-04
 -1      4130 4.31646E-04
 -1      4131 3.79702E-04
 -1      4132 4.51468E-04
 -1      4133 3.34210E-04
 -1      4134 2.97588E-04
 -1      4135 2.80646E-04
 -1      4136 3.54977E-04
 -1      4137 5.17858E-02
 -1      4138 6.11476E-02
 -1      4139 1.05521E-01
 -1      4140 1.22042E-01
 -1      4141 1.34464E-01
 -1      4142 2.51300E-02
 -1      4143 3.02994E-02
 -1      4144 1.71533E-02
 -1      4145 2.08418E-02
 -1      4146 2.33134E-02
 -1      4147 1.21233E-02
 -1      4148 1.48376E-02
 -1      4149 1.67094E-02
 -1      4150 7.36787E-03
 -1      4151 9.29248E-03
 -1      4152 1.15629E-02
 -1      4153 4.45156E-03
 -1      4154 5.73045E-03
 -1      4155 7.09472E-03
 -1      4156 2.55066E-03
 -1      4157 3.34152E-03
 -1      4158 4.34726E-03
 -1      4159 1.74566E-03
 -1      4160 1.78030E-03
 -1      4161 2.46686E-03
 -1      4162 1.64410E-03
 -1      4163 1.51222E-03
 -1      4164 1.46307E-03
 -1      4165 1.78223E-03
 -1      4166 1.77039E-03
 -1      4167 1.35591E-03
 -1      4168 1.74786E-03
 -1      4169 1.81044E-03
 -1      4170 1.51041E-03
 -1      4171 1.61171E-03
 -1      4172 1.71320E-03
 -1      4173 1.50396E-03
 -1      4174 1.42662E-03
 -1      4175 1.54343E-03
 -1      4176 1.40102E-03
 -1      4177 1.23038E-03
 -1      4178 1.34246E-03
 -1      4179 1.24858E-03
 -1      4180 1.04273E-03
 -1      4181 1.14218E-03
 -1      4182 1.07622E-03
 -1      4183 8.62561E-04
 -1      4184 9.57789E-04
 -1      4185 9.03084E-04
 -1      4186 6.99822E-04
 -1      4187 7.86398E-04
 -1      4188 7.41978E-04
 -1      4189 5.64327E-04
 -1      4190 6.40144E-04
 -1      4191 6.06137E-04
 -1      4192 4.46500E-04
 -1      4193 5.10970E-04
 -1      4194 4.93103E-04
 -1      4195 3.47185E-04
 -1      4196 4.00179E-04
 -1      4197 3.93426E-04
 -1      4198 4.58371E-01
 -1      4199 5.32906E-01
 -1      4200 7.26236E-02
 -1      4201 8.71026E-02
 -1      4202 6.77003E-02
 -1      4203 1.64637E+00
 -1      4204 1.48899E+00
 -1      4205 1.60227E+00
 -1      4206 1.87326E+00
 -1      4207 2.22619E+00
 -1      4208 2.73971E+00
 -1      4209 2.73479E+00
 -1      4210 3.63160E-02
 -1      4211 4.34911E-02
 -1      4212 4.79297E-02
 -1      4213 3.36183E-02
 -1      4214 2.69004E-01
 -1      4215 3.22149E-01
 -1      4216 4.15933E-01
 -1      4217 1.78923E+00
 -1      4218 2.02511E+00
 -1      4219 2.02511E+00
 -1      4220 2.49927E+00
 -1      4221 2.12793E+00
 -1      4222 1.94933E-01
 -1      4223 2.32914E-01
 -1      4224 2.43620E-01
 -1      4225 1.80223E-01
 -1      4226 1.29685E+00
 -1      4227 1.63910E+00
 -1      4228 1.67391E+00
 -1      4229 2.39362E-04
 -1      4230 2.50516E-04
 -1      4231 2.15080E-04
 -1      4232 1.93543E+00
 -1      4233 2.71675E+00
 -1      4234 9.75944E-02
 -1      4235 5.90847E-01
 -1      4236 5.71599E-01
 -1      4237 6.84416E-01
 -1      4238 2.22509E-04
 -1      4239 2.05317E-04
 -1      4240 2.17279E-04
 -1      4241 2.29661E-04
 -1      4242 9.04605E-01
 -1      4243 2.68237E-04
 -1      4244 3.04875E-04
 -1      4245 3.04795E-04
 -1      4246 2.44763E-04
 -1      4247 2.79711E-01
 -1      4248 4.15933E-01
 -1      4249 1.15629E-02
 -1      4250 1.43937E-02
 -1      4251 1.20666E+00
 -1      4252 8.59847E-01
 -1      4253 6.29540E-01
 -1      4254 6.29540E-01
 -1      4255 4.54626E-01
 -1      4256 2.86080E-01
 -1      4257 2.49990E-01
 -1      4258 2.10009E-01
 -1      4259 2.43620E-01
 -1      4260 1.82702E-01
 -1      4261 1.52702E-01
 -1      4262 1.80223E-01
 -1      4263 1.34273E-01
 -1      4264 1.12037E-01
 -1      4265 1.34487E-01
 -1      4266 9.79164E-02
 -1      4267 8.18277E-02
 -1      4268 1.01938E-01
 -1      4269 7.04585E-02
 -1      4270 6.04584E-02
 -1      4271 7.64485E-02
 -1      4272 5.16166E-02
 -1      4273 4.44908E-02
 -1      4274 5.62376E-02
 -1      4275 3.78993E-02
 -1      4276 3.21773E-02
 -1      4277 4.08044E-02
 -1      4278 2.71251E-02
 -1      4279 2.26933E-02
 -1      4280 2.91607E-02
 -1      4281 1.46623E-02
 -1      4282 1.22620E-02
 -1      4283 8.86825E-03
 -1      4284 7.17335E-03
 -1      4285 1.09999E-02
 -1      4286 5.75302E-03
 -1      4287 4.49349E-03
 -1      4288 6.18582E-03
 -1      4289 3.49556E-03
 -1      4290 2.59342E-03
 -1      4291 3.76756E-03
 -1      4292 1.90315E-03
 -1      4293 1.36009E-03
 -1      4294 2.07935E-03
 -1      4295 1.13248E-03
 -1      4296 1.06752E-03
 -1      4297 1.16148E-03
 -1      4298 1.18572E-03
 -1      4299 1.24622E-03
 -1      4300 1.05208E-03
 -1      4301 1.25747E-03
 -1      4302 1.25209E-03
 -1      4303 1.18153E-03
 -1      4304 1.24198E-03
 -1      4305 1.19714E-03
 -1      4306 1.18267E-03
 -1      4307 1.17138E-03
 -1      4308 1.11871E-03
 -1      4309 1.14680E-03
 -1      4310 1.06734E-03
 -1      4311 1.01460E-03
 -1      4312 1.06967E-03
 -1      4313 9.51070E-04
 -1      4314 8.86881E-04
 -1      4315 9.54778E-04
 -1      4316 8.20825E-04
 -1      4317 7.53849E-04
 -1      4318 8.25196E-04
 -1      4319 6.91433E-04
 -1      4320 6.27071E-04
 -1      4321 6.96725E-04
 -1      4322 5.69244E-04
 -1      4323 5.10560E-04
 -1      4324 5.76481E-04
 -1      4325 4.58724E-04
 -1      4326 4.07726E-04
 -1      4327 4.66818E-04
 -1      4328 1.16036E-01
 -1      4329 1.34487E-01
 -1      4330 2.15669E-02
 -1      4331 2.58551E-02
 -1      4332 6.53173E-03
 -1      4333 8.16914E-03
 -1      4334 4.00136E-03
 -1      4335 5.11140E-03
 -1      4336 2.23307E-03
 -1      4337 3.00342E-03
 -1      4338 1.30936E-03
 -1      4339 1.54280E-03
 -1      4340 1.20804E-03
 -1      4341 1.08175E-03
 -1      4342 1.35444E-03
 -1      4343 1.32624E-03
 -1      4344 1.33104E-03
 -1      4345 1.36570E-03
 -1      4346 1.25265E-03
 -1      4347 1.32092E-03
 -1      4348 1.14273E-03
 -1      4349 1.22689E-03
 -1      4350 1.00317E-03
 -1      4351 1.09136E-03
 -1      4352 8.54696E-04
 -1      4353 9.39639E-04
 -1      4354 7.12477E-04
 -1      4355 7.88641E-04
 -1      4356 5.90384E-04
 -1      4357 6.50062E-04
 -1      4358 4.79200E-04
 -1      4359 5.32556E-04
 -1      4360 3.81044E-04
 -1      4361 4.27365E-04
 -1      4362 2.20815E+00
 -1      4363 8.49459E-01
 -1      4364 1.01477E+00
 -1      4365 1.24170E+00
 -1      4366 7.94583E-01
 -1      4367 8.34969E-02
 -1      4368 1.01915E-01
 -1      4369 1.52378E+00
 -1      4370 1.42347E+00
 -1      4371 6.06519E-02
 -1      4372 7.21278E-02
 -1      4373 2.00707E+00
 -1      4374 1.45837E-02
 -1      4375 1.45837E-02
 -1      4376 1.68994E-02
 -1      4377 1.48523E-02
 -1      4378 1.94411E-02
 -1      4379 1.80258E-02
 -1      4380 1.52916E-01
 -1      4381 3.62234E-04
 -1      4382 1.80223E-01
 -1      4383 5.90847E-01
 -1      4384 3.09073E-02
 -1      4385 2.80646E-04
 -1      4386 2.58501E-04
 -1      4387 3.09485E-04
 -1      4388 2.43620E-01
 -1      4389 1.87948E+00
 -1      4390 1.62480E+00
 -1      4391 2.07530E-01
 -1      4392 5.18101E-02
 -1      4393 1.54632E+00
 -1      4394 3.69239E-02
 -1      4395 2.85985E-04
 -1      4396 3.28295E-04
 -1      4397 4.35154E-02
 -1      4398 1.69644E+00
 -1      4399 8.59847E-01
 -1      4400 3.62234E-04
 -1      4401 1.02489E+00
 -1      4402 2.35000E-04
 -1      4403 1.54632E+00
 -1      4404 1.30697E+00
 -3
 9999
