    1C
    1UUSER                                                              
    1UDATE              27.october.2022                                 
    1UTIME              00:38:14                                        
    1UHOST                                                              
    1UPGM               CalculiX                                        
    1UVERSION           Version 2.17                             
    1UCOMPILETIME       Thu Jul 23 21:43:50 CEST 2020                    
    1UDIR                                                               
    1UDBN                                                               
    1UMAT    1SOLIDMATERIAL                                             
    2C                          4312                                     1
 -1         1 4.24498E+01 3.09091E+01 0.00000E+00
 -1         2 4.56127E+01 2.50545E+01 0.00000E+00
 -1         3 1.50000E+02 0.00000E+00 0.00000E+00
 -1         4 1.50000E+02 5.00000E+01 0.00000E+00
 -1         5 0.00000E+00 0.00000E+00 0.00000E+00
 -1         6 0.00000E+00 5.00000E+01 0.00000E+00
 -1         7 0.00000E+00 4.70500E+01 0.00000E+00
 -1         8 0.00000E+00 4.41000E+01 0.00000E+00
 -1         9 0.00000E+00 4.11500E+01 0.00000E+00
 -1        10 0.00000E+00 3.82000E+01 0.00000E+00
 -1        11 0.00000E+00 3.52500E+01 0.00000E+00
 -1        12 0.00000E+00 3.23500E+01 0.00000E+00
 -1        13 0.00000E+00 2.94000E+01 0.00000E+00
 -1        14 0.00000E+00 2.64500E+01 0.00000E+00
 -1        15 0.00000E+00 2.35000E+01 0.00000E+00
 -1        16 0.00000E+00 2.05500E+01 0.00000E+00
 -1        17 0.00000E+00 1.76000E+01 0.00000E+00
 -1        18 0.00000E+00 1.47000E+01 0.00000E+00
 -1        19 0.00000E+00 1.17500E+01 0.00000E+00
 -1        20 0.00000E+00 8.80000E+00 0.00000E+00
 -1        21 0.00000E+00 5.85000E+00 0.00000E+00
 -1        22 0.00000E+00 2.90000E+00 0.00000E+00
 -1        23 3.15000E+00 5.00000E+01 0.00000E+00
 -1        24 6.15000E+00 5.00000E+01 0.00000E+00
 -1        25 9.15000E+00 5.00000E+01 0.00000E+00
 -1        26 1.21500E+01 5.00000E+01 0.00000E+00
 -1        27 1.51500E+01 5.00000E+01 0.00000E+00
 -1        28 1.81500E+01 5.00000E+01 0.00000E+00
 -1        29 2.11500E+01 5.00000E+01 0.00000E+00
 -1        30 2.41500E+01 5.00000E+01 0.00000E+00
 -1        31 2.71500E+01 5.00000E+01 0.00000E+00
 -1        32 3.01500E+01 5.00000E+01 0.00000E+00
 -1        33 3.31500E+01 5.00000E+01 0.00000E+00
 -1        34 3.61500E+01 5.00000E+01 0.00000E+00
 -1        35 3.91500E+01 5.00000E+01 0.00000E+00
 -1        36 4.21500E+01 5.00000E+01 0.00000E+00
 -1        37 4.51500E+01 5.00000E+01 0.00000E+00
 -1        38 4.81500E+01 5.00000E+01 0.00000E+00
 -1        39 5.11500E+01 5.00000E+01 0.00000E+00
 -1        40 5.41500E+01 5.00000E+01 0.00000E+00
 -1        41 5.71500E+01 5.00000E+01 0.00000E+00
 -1        42 6.01500E+01 5.00000E+01 0.00000E+00
 -1        43 6.31500E+01 5.00000E+01 0.00000E+00
 -1        44 6.61500E+01 5.00000E+01 0.00000E+00
 -1        45 6.91500E+01 5.00000E+01 0.00000E+00
 -1        46 7.21500E+01 5.00000E+01 0.00000E+00
 -1        47 7.51500E+01 5.00000E+01 0.00000E+00
 -1        48 7.81500E+01 5.00000E+01 0.00000E+00
 -1        49 8.11500E+01 5.00000E+01 0.00000E+00
 -1        50 8.41500E+01 5.00000E+01 0.00000E+00
 -1        51 8.71500E+01 5.00000E+01 0.00000E+00
 -1        52 9.01500E+01 5.00000E+01 0.00000E+00
 -1        53 9.31500E+01 5.00000E+01 0.00000E+00
 -1        54 9.61500E+01 5.00000E+01 0.00000E+00
 -1        55 9.91500E+01 5.00000E+01 0.00000E+00
 -1        56 1.02150E+02 5.00000E+01 0.00000E+00
 -1        57 1.05150E+02 5.00000E+01 0.00000E+00
 -1        58 1.08150E+02 5.00000E+01 0.00000E+00
 -1        59 1.11150E+02 5.00000E+01 0.00000E+00
 -1        60 1.14150E+02 5.00000E+01 0.00000E+00
 -1        61 1.17150E+02 5.00000E+01 0.00000E+00
 -1        62 1.20150E+02 5.00000E+01 0.00000E+00
 -1        63 1.23150E+02 5.00000E+01 0.00000E+00
 -1        64 1.26150E+02 5.00000E+01 0.00000E+00
 -1        65 1.29150E+02 5.00000E+01 0.00000E+00
 -1        66 1.32150E+02 5.00000E+01 0.00000E+00
 -1        67 1.35150E+02 5.00000E+01 0.00000E+00
 -1        68 1.38150E+02 5.00000E+01 0.00000E+00
 -1        69 1.41150E+02 5.00000E+01 0.00000E+00
 -1        70 1.44150E+02 5.00000E+01 0.00000E+00
 -1        71 1.47150E+02 5.00000E+01 0.00000E+00
 -1        72 3.15000E+00 0.00000E+00 0.00000E+00
 -1        73 6.15000E+00 0.00000E+00 0.00000E+00
 -1        74 9.15000E+00 0.00000E+00 0.00000E+00
 -1        75 1.21500E+01 0.00000E+00 0.00000E+00
 -1        76 1.51500E+01 0.00000E+00 0.00000E+00
 -1        77 1.81500E+01 0.00000E+00 0.00000E+00
 -1        78 2.11500E+01 0.00000E+00 0.00000E+00
 -1        79 2.41500E+01 0.00000E+00 0.00000E+00
 -1        80 2.71500E+01 0.00000E+00 0.00000E+00
 -1        81 3.01500E+01 0.00000E+00 0.00000E+00
 -1        82 3.31500E+01 0.00000E+00 0.00000E+00
 -1        83 3.61500E+01 0.00000E+00 0.00000E+00
 -1        84 3.91500E+01 0.00000E+00 0.00000E+00
 -1        85 4.21500E+01 0.00000E+00 0.00000E+00
 -1        86 4.51500E+01 0.00000E+00 0.00000E+00
 -1        87 4.81500E+01 0.00000E+00 0.00000E+00
 -1        88 5.11500E+01 0.00000E+00 0.00000E+00
 -1        89 5.41500E+01 0.00000E+00 0.00000E+00
 -1        90 5.71500E+01 0.00000E+00 0.00000E+00
 -1        91 6.01500E+01 0.00000E+00 0.00000E+00
 -1        92 6.31500E+01 0.00000E+00 0.00000E+00
 -1        93 6.61500E+01 0.00000E+00 0.00000E+00
 -1        94 6.91500E+01 0.00000E+00 0.00000E+00
 -1        95 7.21500E+01 0.00000E+00 0.00000E+00
 -1        96 7.51500E+01 0.00000E+00 0.00000E+00
 -1        97 7.81500E+01 0.00000E+00 0.00000E+00
 -1        98 8.11500E+01 0.00000E+00 0.00000E+00
 -1        99 8.41500E+01 0.00000E+00 0.00000E+00
 -1       100 8.71500E+01 0.00000E+00 0.00000E+00
 -1       101 9.01500E+01 0.00000E+00 0.00000E+00
 -1       102 9.31500E+01 0.00000E+00 0.00000E+00
 -1       103 9.61500E+01 0.00000E+00 0.00000E+00
 -1       104 9.91500E+01 0.00000E+00 0.00000E+00
 -1       105 1.02150E+02 0.00000E+00 0.00000E+00
 -1       106 1.05150E+02 0.00000E+00 0.00000E+00
 -1       107 1.08150E+02 0.00000E+00 0.00000E+00
 -1       108 1.11150E+02 0.00000E+00 0.00000E+00
 -1       109 1.14150E+02 0.00000E+00 0.00000E+00
 -1       110 1.17150E+02 0.00000E+00 0.00000E+00
 -1       111 1.20150E+02 0.00000E+00 0.00000E+00
 -1       112 1.23150E+02 0.00000E+00 0.00000E+00
 -1       113 1.26150E+02 0.00000E+00 0.00000E+00
 -1       114 1.29150E+02 0.00000E+00 0.00000E+00
 -1       115 1.32150E+02 0.00000E+00 0.00000E+00
 -1       116 1.35150E+02 0.00000E+00 0.00000E+00
 -1       117 1.38150E+02 0.00000E+00 0.00000E+00
 -1       118 1.41150E+02 0.00000E+00 0.00000E+00
 -1       119 1.44150E+02 0.00000E+00 0.00000E+00
 -1       120 1.47150E+02 0.00000E+00 0.00000E+00
 -1       121 1.50000E+02 2.95000E+00 0.00000E+00
 -1       122 1.50000E+02 5.90000E+00 0.00000E+00
 -1       123 1.50000E+02 8.85000E+00 0.00000E+00
 -1       124 1.50000E+02 1.18000E+01 0.00000E+00
 -1       125 1.50000E+02 1.47500E+01 0.00000E+00
 -1       126 1.50000E+02 1.76500E+01 0.00000E+00
 -1       127 1.50000E+02 2.06000E+01 0.00000E+00
 -1       128 1.50000E+02 2.35500E+01 0.00000E+00
 -1       129 1.50000E+02 2.65000E+01 0.00000E+00
 -1       130 1.50000E+02 2.94500E+01 0.00000E+00
 -1       131 1.50000E+02 3.24000E+01 0.00000E+00
 -1       132 1.50000E+02 3.53000E+01 0.00000E+00
 -1       133 1.50000E+02 3.82500E+01 0.00000E+00
 -1       134 1.50000E+02 4.12000E+01 0.00000E+00
 -1       135 1.50000E+02 4.41500E+01 0.00000E+00
 -1       136 1.50000E+02 4.71000E+01 0.00000E+00
 -1       137 4.54756E+01 2.36759E+01 0.00000E+00
 -1       138 4.50462E+01 2.22960E+01 0.00000E+00
 -1       139 4.43078E+01 2.09844E+01 0.00000E+00
 -1       140 4.33705E+01 1.99200E+01 0.00000E+00
 -1       141 4.21834E+01 1.90337E+01 0.00000E+00
 -1       142 4.08887E+01 1.84348E+01 0.00000E+00
 -1       143 3.93747E+01 1.80961E+01 0.00000E+00
 -1       144 3.79627E+01 1.80847E+01 0.00000E+00
 -1       145 3.65193E+01 1.83748E+01 0.00000E+00
 -1       146 3.50605E+01 1.90227E+01 0.00000E+00
 -1       147 3.37892E+01 1.99816E+01 0.00000E+00
 -1       148 3.28297E+01 2.11101E+01 0.00000E+00
 -1       149 3.21602E+01 2.23404E+01 0.00000E+00
 -1       150 3.17347E+01 2.37532E+01 0.00000E+00
 -1       151 3.16128E+01 2.51013E+01 0.00000E+00
 -1       152 3.18081E+01 2.66970E+01 0.00000E+00
 -1       153 3.22943E+01 2.80675E+01 0.00000E+00
 -1       154 3.30306E+01 2.92783E+01 0.00000E+00
 -1       155 3.41194E+01 3.04220E+01 0.00000E+00
 -1       156 3.53028E+01 3.12225E+01 0.00000E+00
 -1       157 3.66408E+01 3.17710E+01 0.00000E+00
 -1       158 3.81381E+01 3.20384E+01 0.00000E+00
 -1       159 3.96791E+01 3.19728E+01 0.00000E+00
 -1       160 4.11252E+01 3.15880E+01 0.00000E+00
 -1       161 4.34945E+01 3.00712E+01 0.00000E+00
 -1       162 4.44266E+01 2.89529E+01 0.00000E+00
 -1       163 4.50598E+01 2.77810E+01 0.00000E+00
 -1       164 4.54827E+01 2.63970E+01 0.00000E+00
 -1       165 2.59800E+00 4.55750E+01 0.00000E+00
 -1       166 2.59800E+00 4.26250E+01 0.00000E+00
 -1       167 2.59800E+00 3.96750E+01 0.00000E+00
 -1       168 2.59800E+00 3.67250E+01 0.00000E+00
 -1       169 2.59800E+00 3.38250E+01 0.00000E+00
 -1       170 2.59800E+00 3.08750E+01 0.00000E+00
 -1       171 2.59800E+00 2.79250E+01 0.00000E+00
 -1       172 2.59800E+00 2.49750E+01 0.00000E+00
 -1       173 2.59800E+00 2.20250E+01 0.00000E+00
 -1       174 2.59800E+00 1.90750E+01 0.00000E+00
 -1       175 2.59800E+00 1.61750E+01 0.00000E+00
 -1       176 2.59800E+00 1.32250E+01 0.00000E+00
 -1       177 2.59800E+00 1.02750E+01 0.00000E+00
 -1       178 2.59800E+00 7.32500E+00 0.00000E+00
 -1       179 2.59800E+00 4.37500E+00 0.00000E+00
 -1       180 2.87400E+00 2.18750E+00 0.00000E+00
 -1       181 4.65000E+00 4.74020E+01 0.00000E+00
 -1       182 7.65000E+00 4.74020E+01 0.00000E+00
 -1       183 1.06500E+01 4.74020E+01 0.00000E+00
 -1       184 1.36500E+01 4.74020E+01 0.00000E+00
 -1       185 1.66500E+01 4.74020E+01 0.00000E+00
 -1       186 1.96500E+01 4.74020E+01 0.00000E+00
 -1       187 2.26500E+01 4.74020E+01 0.00000E+00
 -1       188 2.56500E+01 4.74020E+01 0.00000E+00
 -1       189 2.86500E+01 4.74020E+01 0.00000E+00
 -1       190 3.16500E+01 4.74020E+01 0.00000E+00
 -1       191 3.46500E+01 4.74020E+01 0.00000E+00
 -1       192 3.76500E+01 4.74020E+01 0.00000E+00
 -1       193 4.06500E+01 4.74020E+01 0.00000E+00
 -1       194 4.36500E+01 4.74020E+01 0.00000E+00
 -1       195 4.66500E+01 4.74020E+01 0.00000E+00
 -1       196 4.96500E+01 4.74020E+01 0.00000E+00
 -1       197 5.26500E+01 4.74020E+01 0.00000E+00
 -1       198 5.56500E+01 4.74020E+01 0.00000E+00
 -1       199 5.86500E+01 4.74020E+01 0.00000E+00
 -1       200 6.16500E+01 4.74020E+01 0.00000E+00
 -1       201 6.46500E+01 4.74020E+01 0.00000E+00
 -1       202 6.76500E+01 4.74020E+01 0.00000E+00
 -1       203 7.06500E+01 4.74020E+01 0.00000E+00
 -1       204 7.36500E+01 4.74020E+01 0.00000E+00
 -1       205 7.66500E+01 4.74020E+01 0.00000E+00
 -1       206 7.96500E+01 4.74020E+01 0.00000E+00
 -1       207 8.26500E+01 4.74020E+01 0.00000E+00
 -1       208 8.56500E+01 4.74020E+01 0.00000E+00
 -1       209 8.86500E+01 4.74020E+01 0.00000E+00
 -1       210 9.16500E+01 4.74020E+01 0.00000E+00
 -1       211 9.46500E+01 4.74020E+01 0.00000E+00
 -1       212 9.76500E+01 4.74020E+01 0.00000E+00
 -1       213 1.00650E+02 4.74020E+01 0.00000E+00
 -1       214 1.03650E+02 4.74020E+01 0.00000E+00
 -1       215 1.06650E+02 4.74020E+01 0.00000E+00
 -1       216 1.09650E+02 4.74020E+01 0.00000E+00
 -1       217 1.12650E+02 4.74020E+01 0.00000E+00
 -1       218 1.15650E+02 4.74020E+01 0.00000E+00
 -1       219 1.18650E+02 4.74020E+01 0.00000E+00
 -1       220 1.21650E+02 4.74020E+01 0.00000E+00
 -1       221 1.24650E+02 4.74020E+01 0.00000E+00
 -1       222 1.27650E+02 4.74020E+01 0.00000E+00
 -1       223 1.30650E+02 4.74020E+01 0.00000E+00
 -1       224 1.33650E+02 4.74020E+01 0.00000E+00
 -1       225 1.36650E+02 4.74020E+01 0.00000E+00
 -1       226 1.39650E+02 4.74020E+01 0.00000E+00
 -1       227 1.42650E+02 4.74020E+01 0.00000E+00
 -1       228 1.45650E+02 4.74020E+01 0.00000E+00
 -1       229 5.87400E+00 2.18750E+00 0.00000E+00
 -1       230 8.87400E+00 2.18750E+00 0.00000E+00
 -1       231 1.18740E+01 2.18750E+00 0.00000E+00
 -1       232 1.48740E+01 2.18750E+00 0.00000E+00
 -1       233 1.78740E+01 2.18750E+00 0.00000E+00
 -1       234 2.08740E+01 2.18750E+00 0.00000E+00
 -1       235 2.38740E+01 2.18750E+00 0.00000E+00
 -1       236 2.68740E+01 2.18750E+00 0.00000E+00
 -1       237 2.98740E+01 2.18750E+00 0.00000E+00
 -1       238 3.28740E+01 2.18750E+00 0.00000E+00
 -1       239 3.58740E+01 2.18750E+00 0.00000E+00
 -1       240 3.88740E+01 2.18750E+00 0.00000E+00
 -1       241 4.18740E+01 2.18750E+00 0.00000E+00
 -1       242 4.48740E+01 2.18750E+00 0.00000E+00
 -1       243 4.78740E+01 2.18750E+00 0.00000E+00
 -1       244 5.08740E+01 2.18750E+00 0.00000E+00
 -1       245 5.38740E+01 2.18750E+00 0.00000E+00
 -1       246 5.68740E+01 2.18750E+00 0.00000E+00
 -1       247 5.98740E+01 2.18750E+00 0.00000E+00
 -1       248 6.28740E+01 2.18750E+00 0.00000E+00
 -1       249 6.58740E+01 2.18750E+00 0.00000E+00
 -1       250 6.88740E+01 2.18750E+00 0.00000E+00
 -1       251 7.18740E+01 2.18750E+00 0.00000E+00
 -1       252 7.48740E+01 2.18750E+00 0.00000E+00
 -1       253 7.78740E+01 2.18750E+00 0.00000E+00
 -1       254 8.08740E+01 2.18750E+00 0.00000E+00
 -1       255 8.38740E+01 2.18750E+00 0.00000E+00
 -1       256 8.68740E+01 2.18750E+00 0.00000E+00
 -1       257 8.98740E+01 2.18750E+00 0.00000E+00
 -1       258 9.28740E+01 2.18750E+00 0.00000E+00
 -1       259 9.58740E+01 2.18750E+00 0.00000E+00
 -1       260 9.88740E+01 2.18750E+00 0.00000E+00
 -1       261 1.01874E+02 2.18750E+00 0.00000E+00
 -1       262 1.04874E+02 2.18750E+00 0.00000E+00
 -1       263 1.07874E+02 2.18750E+00 0.00000E+00
 -1       264 1.10874E+02 2.18750E+00 0.00000E+00
 -1       265 1.13874E+02 2.18750E+00 0.00000E+00
 -1       266 1.16874E+02 2.18750E+00 0.00000E+00
 -1       267 1.19874E+02 2.18750E+00 0.00000E+00
 -1       268 1.22874E+02 2.18750E+00 0.00000E+00
 -1       269 1.25874E+02 2.18750E+00 0.00000E+00
 -1       270 1.28874E+02 2.18750E+00 0.00000E+00
 -1       271 1.31874E+02 2.18750E+00 0.00000E+00
 -1       272 1.34874E+02 2.18750E+00 0.00000E+00
 -1       273 1.37874E+02 2.18750E+00 0.00000E+00
 -1       274 1.40874E+02 2.18750E+00 0.00000E+00
 -1       275 1.43874E+02 2.18750E+00 0.00000E+00
 -1       276 1.46874E+02 2.18750E+00 0.00000E+00
 -1       277 1.47402E+02 4.42500E+00 0.00000E+00
 -1       278 1.47402E+02 7.37500E+00 0.00000E+00
 -1       279 1.47402E+02 1.03250E+01 0.00000E+00
 -1       280 1.47402E+02 1.32750E+01 0.00000E+00
 -1       281 1.47402E+02 1.61750E+01 0.00000E+00
 -1       282 1.47402E+02 1.91250E+01 0.00000E+00
 -1       283 1.47402E+02 2.20750E+01 0.00000E+00
 -1       284 1.47402E+02 2.50250E+01 0.00000E+00
 -1       285 1.47402E+02 2.79750E+01 0.00000E+00
 -1       286 1.47402E+02 3.09250E+01 0.00000E+00
 -1       287 1.47402E+02 3.38250E+01 0.00000E+00
 -1       288 1.47402E+02 3.67750E+01 0.00000E+00
 -1       289 1.47402E+02 3.97250E+01 0.00000E+00
 -1       290 1.47402E+02 4.26750E+01 0.00000E+00
 -1       291 1.46526E+02 4.50385E+01 0.00000E+00
 -1       292 4.67505E+01 2.42452E+01 0.00000E+00
 -1       293 4.64986E+01 2.26009E+01 0.00000E+00
 -1       294 4.58795E+01 2.09632E+01 0.00000E+00
 -1       295 4.47490E+01 1.96509E+01 0.00000E+00
 -1       296 4.36025E+01 1.83711E+01 0.00000E+00
 -1       297 4.20802E+01 1.75578E+01 0.00000E+00
 -1       298 4.04330E+01 1.69188E+01 0.00000E+00
 -1       299 3.86784E+01 1.68780E+01 0.00000E+00
 -1       300 3.69856E+01 1.69590E+01 0.00000E+00
 -1       301 3.51618E+01 1.72844E+01 0.00000E+00
 -1       302 3.35435E+01 1.83335E+01 0.00000E+00
 -1       303 3.23858E+01 1.97605E+01 0.00000E+00
 -1       304 3.14301E+01 2.11458E+01 0.00000E+00
 -1       305 3.06261E+01 2.26488E+01 0.00000E+00
 -1       306 3.04663E+01 2.43181E+01 0.00000E+00
 -1       307 3.01744E+01 2.60871E+01 0.00000E+00
 -1       308 3.08296E+01 2.78156E+01 0.00000E+00
 -1       309 3.16265E+01 2.93028E+01 0.00000E+00
 -1       310 3.25755E+01 3.08016E+01 0.00000E+00
 -1       311 3.40318E+01 3.18265E+01 0.00000E+00
 -1       312 3.55119E+01 3.26186E+01 0.00000E+00
 -1       313 3.71469E+01 3.32632E+01 0.00000E+00
 -1       314 3.89744E+01 3.35517E+01 0.00000E+00
 -1       315 4.07139E+01 3.29520E+01 0.00000E+00
 -1       316 4.24170E+01 3.24766E+01 0.00000E+00
 -1       317 4.37307E+01 3.14359E+01 0.00000E+00
 -1       318 4.50206E+01 3.03956E+01 0.00000E+00
 -1       319 4.58099E+01 2.89433E+01 0.00000E+00
 -1       320 4.65109E+01 2.74678E+01 0.00000E+00
 -1       321 4.67544E+01 2.58426E+01 0.00000E+00
 -1       322 5.19600E+00 4.11500E+01 0.00000E+00
 -1       323 5.19600E+00 4.41000E+01 0.00000E+00
 -1       324 5.19600E+00 3.52750E+01 0.00000E+00
 -1       325 5.19600E+00 3.23250E+01 0.00000E+00
 -1       326 5.19600E+00 2.93750E+01 0.00000E+00
 -1       327 5.19600E+00 2.64250E+01 0.00000E+00
 -1       328 5.19600E+00 2.34750E+01 0.00000E+00
 -1       329 5.19600E+00 2.05250E+01 0.00000E+00
 -1       330 5.19600E+00 1.76250E+01 0.00000E+00
 -1       331 5.19600E+00 1.46750E+01 0.00000E+00
 -1       332 5.19600E+00 1.17250E+01 0.00000E+00
 -1       333 5.19600E+00 8.77500E+00 0.00000E+00
 -1       334 5.19600E+00 5.82500E+00 0.00000E+00
 -1       335 5.53500E+00 4.00625E+00 0.00000E+00
 -1       336 8.53500E+00 4.00625E+00 0.00000E+00
 -1       337 9.15000E+00 4.48040E+01 0.00000E+00
 -1       338 1.21500E+01 4.48040E+01 0.00000E+00
 -1       339 1.51500E+01 4.48040E+01 0.00000E+00
 -1       340 1.81500E+01 4.48040E+01 0.00000E+00
 -1       341 2.11500E+01 4.48040E+01 0.00000E+00
 -1       342 2.41500E+01 4.48040E+01 0.00000E+00
 -1       343 2.71500E+01 4.48040E+01 0.00000E+00
 -1       344 3.01500E+01 4.48040E+01 0.00000E+00
 -1       345 3.31500E+01 4.48040E+01 0.00000E+00
 -1       346 3.61500E+01 4.48040E+01 0.00000E+00
 -1       347 3.91500E+01 4.48040E+01 0.00000E+00
 -1       348 4.21500E+01 4.48040E+01 0.00000E+00
 -1       349 4.51500E+01 4.48040E+01 0.00000E+00
 -1       350 4.81500E+01 4.48040E+01 0.00000E+00
 -1       351 5.11500E+01 4.48040E+01 0.00000E+00
 -1       352 5.41500E+01 4.48040E+01 0.00000E+00
 -1       353 5.71500E+01 4.48040E+01 0.00000E+00
 -1       354 6.01500E+01 4.48040E+01 0.00000E+00
 -1       355 6.31500E+01 4.48040E+01 0.00000E+00
 -1       356 6.61500E+01 4.48040E+01 0.00000E+00
 -1       357 6.91500E+01 4.48040E+01 0.00000E+00
 -1       358 7.21500E+01 4.48040E+01 0.00000E+00
 -1       359 7.51500E+01 4.48040E+01 0.00000E+00
 -1       360 7.81500E+01 4.48040E+01 0.00000E+00
 -1       361 8.11500E+01 4.48040E+01 0.00000E+00
 -1       362 8.41500E+01 4.48040E+01 0.00000E+00
 -1       363 8.71500E+01 4.48040E+01 0.00000E+00
 -1       364 9.01500E+01 4.48040E+01 0.00000E+00
 -1       365 9.31500E+01 4.48040E+01 0.00000E+00
 -1       366 9.61500E+01 4.48040E+01 0.00000E+00
 -1       367 9.91500E+01 4.48040E+01 0.00000E+00
 -1       368 1.02150E+02 4.48040E+01 0.00000E+00
 -1       369 1.05150E+02 4.48040E+01 0.00000E+00
 -1       370 1.08150E+02 4.48040E+01 0.00000E+00
 -1       371 1.11150E+02 4.48040E+01 0.00000E+00
 -1       372 1.14150E+02 4.48040E+01 0.00000E+00
 -1       373 1.17150E+02 4.48040E+01 0.00000E+00
 -1       374 1.20150E+02 4.48040E+01 0.00000E+00
 -1       375 1.23150E+02 4.48040E+01 0.00000E+00
 -1       376 1.26150E+02 4.48040E+01 0.00000E+00
 -1       377 1.29150E+02 4.48040E+01 0.00000E+00
 -1       378 1.32150E+02 4.48040E+01 0.00000E+00
 -1       379 1.35150E+02 4.48040E+01 0.00000E+00
 -1       380 1.38150E+02 4.48040E+01 0.00000E+00
 -1       381 1.41150E+02 4.48040E+01 0.00000E+00
 -1       382 1.43838E+02 4.49212E+01 0.00000E+00
 -1       383 1.15350E+01 4.00625E+00 0.00000E+00
 -1       384 1.45350E+01 4.00625E+00 0.00000E+00
 -1       385 1.75350E+01 4.00625E+00 0.00000E+00
 -1       386 2.05350E+01 4.00625E+00 0.00000E+00
 -1       387 2.35350E+01 4.00625E+00 0.00000E+00
 -1       388 2.65350E+01 4.00625E+00 0.00000E+00
 -1       389 2.95350E+01 4.00625E+00 0.00000E+00
 -1       390 3.25350E+01 4.00625E+00 0.00000E+00
 -1       391 3.55350E+01 4.00625E+00 0.00000E+00
 -1       392 3.85350E+01 4.00625E+00 0.00000E+00
 -1       393 4.15350E+01 4.00625E+00 0.00000E+00
 -1       394 4.45350E+01 4.00625E+00 0.00000E+00
 -1       395 4.75350E+01 4.00625E+00 0.00000E+00
 -1       396 5.05350E+01 4.00625E+00 0.00000E+00
 -1       397 5.35350E+01 4.00625E+00 0.00000E+00
 -1       398 5.65350E+01 4.00625E+00 0.00000E+00
 -1       399 5.95350E+01 4.00625E+00 0.00000E+00
 -1       400 6.25350E+01 4.00625E+00 0.00000E+00
 -1       401 6.55350E+01 4.00625E+00 0.00000E+00
 -1       402 6.85350E+01 4.00625E+00 0.00000E+00
 -1       403 7.15350E+01 4.00625E+00 0.00000E+00
 -1       404 7.45350E+01 4.00625E+00 0.00000E+00
 -1       405 7.75350E+01 4.00625E+00 0.00000E+00
 -1       406 8.05350E+01 4.00625E+00 0.00000E+00
 -1       407 8.35350E+01 4.00625E+00 0.00000E+00
 -1       408 8.65350E+01 4.00625E+00 0.00000E+00
 -1       409 8.95350E+01 4.00625E+00 0.00000E+00
 -1       410 9.25350E+01 4.00625E+00 0.00000E+00
 -1       411 9.55350E+01 4.00625E+00 0.00000E+00
 -1       412 9.85350E+01 4.00625E+00 0.00000E+00
 -1       413 1.01535E+02 4.00625E+00 0.00000E+00
 -1       414 1.04535E+02 4.00625E+00 0.00000E+00
 -1       415 1.07535E+02 4.00625E+00 0.00000E+00
 -1       416 1.10535E+02 4.00625E+00 0.00000E+00
 -1       417 1.13535E+02 4.00625E+00 0.00000E+00
 -1       418 1.16535E+02 4.00625E+00 0.00000E+00
 -1       419 1.19535E+02 4.00625E+00 0.00000E+00
 -1       420 1.22535E+02 4.00625E+00 0.00000E+00
 -1       421 1.25535E+02 4.00625E+00 0.00000E+00
 -1       422 1.28535E+02 4.00625E+00 0.00000E+00
 -1       423 1.31535E+02 4.00625E+00 0.00000E+00
 -1       424 1.34535E+02 4.00625E+00 0.00000E+00
 -1       425 1.37535E+02 4.00625E+00 0.00000E+00
 -1       426 1.40535E+02 4.00625E+00 0.00000E+00
 -1       427 1.43535E+02 4.00625E+00 0.00000E+00
 -1       428 1.45469E+02 4.21562E+00 0.00000E+00
 -1       429 1.44804E+02 1.18000E+01 0.00000E+00
 -1       430 1.44804E+02 8.85000E+00 0.00000E+00
 -1       431 1.45136E+02 6.53281E+00 0.00000E+00
 -1       432 1.44804E+02 1.47000E+01 0.00000E+00
 -1       433 1.44804E+02 1.76500E+01 0.00000E+00
 -1       434 1.44804E+02 2.06000E+01 0.00000E+00
 -1       435 1.44804E+02 2.35500E+01 0.00000E+00
 -1       436 1.44804E+02 2.65000E+01 0.00000E+00
 -1       437 1.44804E+02 2.94500E+01 0.00000E+00
 -1       438 1.44804E+02 3.23500E+01 0.00000E+00
 -1       439 1.44804E+02 3.53000E+01 0.00000E+00
 -1       440 1.44804E+02 3.82500E+01 0.00000E+00
 -1       441 1.44804E+02 4.12000E+01 0.00000E+00
 -1       442 4.75582E+01 2.12644E+01 0.00000E+00
 -1       443 4.82162E+01 2.50403E+01 0.00000E+00
 -1       444 4.79886E+01 2.32140E+01 0.00000E+00
 -1       445 4.62963E+01 1.94611E+01 0.00000E+00
 -1       446 4.52036E+01 1.80902E+01 0.00000E+00
 -1       447 5.19600E+00 3.82125E+01 0.00000E+00
 -1       448 4.18769E+01 1.56393E+01 0.00000E+00
 -1       449 3.95877E+01 1.55188E+01 0.00000E+00
 -1       450 3.77661E+01 1.55401E+01 0.00000E+00
 -1       451 3.57724E+01 1.54333E+01 0.00000E+00
 -1       452 3.35108E+01 1.65104E+01 0.00000E+00
 -1       453 3.18930E+01 1.81776E+01 0.00000E+00
 -1       454 3.07721E+01 1.96695E+01 0.00000E+00
 -1       455 2.96635E+01 2.11674E+01 0.00000E+00
 -1       456 2.92559E+01 2.33599E+01 0.00000E+00
 -1       457 2.89640E+01 2.51289E+01 0.00000E+00
 -1       458 2.92899E+01 2.74108E+01 0.00000E+00
 -1       459 2.98640E+01 2.92901E+01 0.00000E+00
 -1       460 3.08130E+01 3.07889E+01 0.00000E+00
 -1       461 3.25094E+01 3.24426E+01 0.00000E+00
 -1       462 3.40417E+01 3.35870E+01 0.00000E+00
 -1       463 3.58232E+01 3.42247E+01 0.00000E+00
 -1       464 3.78193E+01 3.49360E+01 0.00000E+00
 -1       465 4.03486E+01 3.47149E+01 0.00000E+00
 -1       466 4.20516E+01 3.42395E+01 0.00000E+00
 -1       467 4.39307E+01 3.30380E+01 0.00000E+00
 -1       468 4.52206E+01 3.19977E+01 0.00000E+00
 -1       469 4.65541E+01 3.02884E+01 0.00000E+00
 -1       470 4.72551E+01 2.88129E+01 0.00000E+00
 -1       471 4.79727E+01 2.66656E+01 0.00000E+00
 -1       472 4.34916E+01 1.67473E+01 0.00000E+00
 -1       473 2.80796E+01 2.64526E+01 0.00000E+00
 -1       474 1.00350E+01 6.60425E+00 0.00000E+00
 -1       475 7.79400E+00 3.08500E+01 0.00000E+00
 -1       476 7.79400E+00 3.38000E+01 0.00000E+00
 -1       477 7.79400E+00 2.49500E+01 0.00000E+00
 -1       478 7.79400E+00 2.20000E+01 0.00000E+00
 -1       479 7.79400E+00 1.91000E+01 0.00000E+00
 -1       480 7.79400E+00 1.61500E+01 0.00000E+00
 -1       481 7.79400E+00 1.32000E+01 0.00000E+00
 -1       482 7.79400E+00 1.02500E+01 0.00000E+00
 -1       483 1.30350E+01 6.60425E+00 0.00000E+00
 -1       484 1.06500E+01 4.22060E+01 0.00000E+00
 -1       485 4.52510E+01 1.62671E+01 0.00000E+00
 -1       486 1.36500E+01 4.22060E+01 0.00000E+00
 -1       487 1.66500E+01 4.22060E+01 0.00000E+00
 -1       488 1.96500E+01 4.22060E+01 0.00000E+00
 -1       489 2.26500E+01 4.22060E+01 0.00000E+00
 -1       490 2.56500E+01 4.22060E+01 0.00000E+00
 -1       491 2.86500E+01 4.22060E+01 0.00000E+00
 -1       492 3.16500E+01 4.22060E+01 0.00000E+00
 -1       493 3.46500E+01 4.22060E+01 0.00000E+00
 -1       494 3.76500E+01 4.22060E+01 0.00000E+00
 -1       495 4.06500E+01 4.22060E+01 0.00000E+00
 -1       496 4.36500E+01 4.22060E+01 0.00000E+00
 -1       497 4.66500E+01 4.22060E+01 0.00000E+00
 -1       498 4.96500E+01 4.22060E+01 0.00000E+00
 -1       499 5.26500E+01 4.22060E+01 0.00000E+00
 -1       500 5.56500E+01 4.22060E+01 0.00000E+00
 -1       501 5.86500E+01 4.22060E+01 0.00000E+00
 -1       502 6.16500E+01 4.22060E+01 0.00000E+00
 -1       503 6.46500E+01 4.22060E+01 0.00000E+00
 -1       504 6.76500E+01 4.22060E+01 0.00000E+00
 -1       505 7.06500E+01 4.22060E+01 0.00000E+00
 -1       506 7.36500E+01 4.22060E+01 0.00000E+00
 -1       507 7.66500E+01 4.22060E+01 0.00000E+00
 -1       508 7.96500E+01 4.22060E+01 0.00000E+00
 -1       509 8.26500E+01 4.22060E+01 0.00000E+00
 -1       510 8.56500E+01 4.22060E+01 0.00000E+00
 -1       511 8.86500E+01 4.22060E+01 0.00000E+00
 -1       512 9.16500E+01 4.22060E+01 0.00000E+00
 -1       513 9.46500E+01 4.22060E+01 0.00000E+00
 -1       514 9.76500E+01 4.22060E+01 0.00000E+00
 -1       515 1.00650E+02 4.22060E+01 0.00000E+00
 -1       516 1.03650E+02 4.22060E+01 0.00000E+00
 -1       517 1.06650E+02 4.22060E+01 0.00000E+00
 -1       518 1.09650E+02 4.22060E+01 0.00000E+00
 -1       519 1.12650E+02 4.22060E+01 0.00000E+00
 -1       520 1.15650E+02 4.22060E+01 0.00000E+00
 -1       521 1.18650E+02 4.22060E+01 0.00000E+00
 -1       522 1.21650E+02 4.22060E+01 0.00000E+00
 -1       523 1.24650E+02 4.22060E+01 0.00000E+00
 -1       524 1.27650E+02 4.22060E+01 0.00000E+00
 -1       525 1.30650E+02 4.22060E+01 0.00000E+00
 -1       526 1.33650E+02 4.22060E+01 0.00000E+00
 -1       527 1.36650E+02 4.22060E+01 0.00000E+00
 -1       528 1.39650E+02 4.22060E+01 0.00000E+00
 -1       529 1.90350E+01 6.60425E+00 0.00000E+00
 -1       530 2.20350E+01 6.60425E+00 0.00000E+00
 -1       531 2.50350E+01 6.60425E+00 0.00000E+00
 -1       532 2.80350E+01 6.60425E+00 0.00000E+00
 -1       533 3.10350E+01 6.60425E+00 0.00000E+00
 -1       534 3.40350E+01 6.60425E+00 0.00000E+00
 -1       535 3.70350E+01 6.60425E+00 0.00000E+00
 -1       536 4.00350E+01 6.60425E+00 0.00000E+00
 -1       537 4.30350E+01 6.60425E+00 0.00000E+00
 -1       538 4.60350E+01 6.60425E+00 0.00000E+00
 -1       539 4.90350E+01 6.60425E+00 0.00000E+00
 -1       540 5.20350E+01 6.60425E+00 0.00000E+00
 -1       541 5.50350E+01 6.60425E+00 0.00000E+00
 -1       542 5.80350E+01 6.60425E+00 0.00000E+00
 -1       543 6.10350E+01 6.60425E+00 0.00000E+00
 -1       544 6.40350E+01 6.60425E+00 0.00000E+00
 -1       545 6.70350E+01 6.60425E+00 0.00000E+00
 -1       546 7.00350E+01 6.60425E+00 0.00000E+00
 -1       547 7.30350E+01 6.60425E+00 0.00000E+00
 -1       548 7.60350E+01 6.60425E+00 0.00000E+00
 -1       549 7.90350E+01 6.60425E+00 0.00000E+00
 -1       550 8.20350E+01 6.60425E+00 0.00000E+00
 -1       551 8.50350E+01 6.60425E+00 0.00000E+00
 -1       552 8.80350E+01 6.60425E+00 0.00000E+00
 -1       553 9.10350E+01 6.60425E+00 0.00000E+00
 -1       554 9.40350E+01 6.60425E+00 0.00000E+00
 -1       555 9.70350E+01 6.60425E+00 0.00000E+00
 -1       556 1.00035E+02 6.60425E+00 0.00000E+00
 -1       557 1.03035E+02 6.60425E+00 0.00000E+00
 -1       558 1.06035E+02 6.60425E+00 0.00000E+00
 -1       559 1.09035E+02 6.60425E+00 0.00000E+00
 -1       560 1.12035E+02 6.60425E+00 0.00000E+00
 -1       561 1.15035E+02 6.60425E+00 0.00000E+00
 -1       562 1.18035E+02 6.60425E+00 0.00000E+00
 -1       563 1.21035E+02 6.60425E+00 0.00000E+00
 -1       564 1.24035E+02 6.60425E+00 0.00000E+00
 -1       565 1.27035E+02 6.60425E+00 0.00000E+00
 -1       566 1.30035E+02 6.60425E+00 0.00000E+00
 -1       567 1.33035E+02 6.60425E+00 0.00000E+00
 -1       568 1.36035E+02 6.60425E+00 0.00000E+00
 -1       569 1.39035E+02 6.60425E+00 0.00000E+00
 -1       570 1.42035E+02 6.60425E+00 0.00000E+00
 -1       571 1.42206E+02 1.61750E+01 0.00000E+00
 -1       572 1.42206E+02 1.91250E+01 0.00000E+00
 -1       573 1.42206E+02 1.03250E+01 0.00000E+00
 -1       574 1.42206E+02 1.32500E+01 0.00000E+00
 -1       575 1.42206E+02 2.20750E+01 0.00000E+00
 -1       576 1.42206E+02 2.50250E+01 0.00000E+00
 -1       577 1.42206E+02 2.79750E+01 0.00000E+00
 -1       578 1.42206E+02 3.08750E+01 0.00000E+00
 -1       579 1.42206E+02 3.38250E+01 0.00000E+00
 -1       580 1.42206E+02 3.67750E+01 0.00000E+00
 -1       581 1.42206E+02 3.97250E+01 0.00000E+00
 -1       582 4.97212E+01 2.39254E+01 0.00000E+00
 -1       583 4.84698E+01 1.92833E+01 0.00000E+00
 -1       584 1.60350E+01 6.60425E+00 0.00000E+00
 -1       585 4.36547E+01 1.47791E+01 0.00000E+00
 -1       586 4.93995E+01 2.83359E+01 0.00000E+00
 -1       587 4.92908E+01 2.19758E+01 0.00000E+00
 -1       588 3.92333E+01 3.65341E+01 0.00000E+00
 -1       589 2.80206E+01 2.19962E+01 0.00000E+00
 -1       590 7.79400E+00 2.79000E+01 0.00000E+00
 -1       591 3.86588E+01 1.39820E+01 0.00000E+00
 -1       592 2.80969E+01 2.88026E+01 0.00000E+00
 -1       593 4.08137E+01 1.40337E+01 0.00000E+00
 -1       594 3.66651E+01 1.38752E+01 0.00000E+00
 -1       595 3.39041E+01 1.44234E+01 0.00000E+00
 -1       596 3.14710E+01 1.61496E+01 0.00000E+00
 -1       597 2.99613E+01 1.78933E+01 0.00000E+00
 -1       598 2.88527E+01 1.93912E+01 0.00000E+00
 -1       599 2.75830E+01 2.39925E+01 0.00000E+00
 -1       600 3.22492E+01 3.43889E+01 0.00000E+00
 -1       601 2.90310E+01 3.08674E+01 0.00000E+00
 -1       602 3.05528E+01 3.27353E+01 0.00000E+00
 -1       603 3.42415E+01 3.58361E+01 0.00000E+00
 -1       604 3.62376E+01 3.65475E+01 0.00000E+00
 -1       605 4.16162E+01 3.59677E+01 0.00000E+00
 -1       606 4.39151E+01 3.50837E+01 0.00000E+00
 -1       607 4.55997E+01 3.37876E+01 0.00000E+00
 -1       608 4.72396E+01 3.21980E+01 0.00000E+00
 -1       609 4.83195E+01 3.02670E+01 0.00000E+00
 -1       610 4.97078E+01 2.60947E+01 0.00000E+00
 -1       611 7.92300E+00 4.16780E+01 0.00000E+00
 -1       612 7.61550E+00 6.21462E+00 0.00000E+00
 -1       613 4.73771E+01 1.79125E+01 0.00000E+00
 -1       614 7.79400E+00 3.67375E+01 0.00000E+00
 -1       615 4.25914E+01 1.31735E+01 0.00000E+00
 -1       616 1.41678E+02 4.22645E+01 0.00000E+00
 -1       617 2.72098E+01 2.02200E+01 0.00000E+00
 -1       618 3.47969E+01 1.28653E+01 0.00000E+00
 -1       619 2.66986E+01 2.53162E+01 0.00000E+00
 -1       620 7.85850E+00 3.92077E+01 0.00000E+00
 -1       621 3.18643E+01 1.40626E+01 0.00000E+00
 -1       622 1.03920E+01 2.05500E+01 0.00000E+00
 -1       623 1.03920E+01 2.35000E+01 0.00000E+00
 -1       624 1.03920E+01 1.46750E+01 0.00000E+00
 -1       625 1.03920E+01 1.17250E+01 0.00000E+00
 -1       626 1.15350E+01 9.20225E+00 0.00000E+00
 -1       627 5.14296E+01 2.50207E+01 0.00000E+00
 -1       628 1.51500E+01 3.96080E+01 0.00000E+00
 -1       629 1.81500E+01 3.96080E+01 0.00000E+00
 -1       630 2.11500E+01 3.96080E+01 0.00000E+00
 -1       631 2.41500E+01 3.96080E+01 0.00000E+00
 -1       632 2.71500E+01 3.96080E+01 0.00000E+00
 -1       633 3.01500E+01 3.96080E+01 0.00000E+00
 -1       634 3.31500E+01 3.96080E+01 0.00000E+00
 -1       635 3.61500E+01 3.96080E+01 0.00000E+00
 -1       636 3.91500E+01 3.96080E+01 0.00000E+00
 -1       637 4.21500E+01 3.96080E+01 0.00000E+00
 -1       638 4.51500E+01 3.96080E+01 0.00000E+00
 -1       639 4.81500E+01 3.96080E+01 0.00000E+00
 -1       640 5.11500E+01 3.96080E+01 0.00000E+00
 -1       641 5.41500E+01 3.96080E+01 0.00000E+00
 -1       642 5.71500E+01 3.96080E+01 0.00000E+00
 -1       643 6.01500E+01 3.96080E+01 0.00000E+00
 -1       644 6.31500E+01 3.96080E+01 0.00000E+00
 -1       645 6.61500E+01 3.96080E+01 0.00000E+00
 -1       646 6.91500E+01 3.96080E+01 0.00000E+00
 -1       647 7.21500E+01 3.96080E+01 0.00000E+00
 -1       648 7.51500E+01 3.96080E+01 0.00000E+00
 -1       649 7.81500E+01 3.96080E+01 0.00000E+00
 -1       650 8.11500E+01 3.96080E+01 0.00000E+00
 -1       651 8.41500E+01 3.96080E+01 0.00000E+00
 -1       652 8.71500E+01 3.96080E+01 0.00000E+00
 -1       653 9.01500E+01 3.96080E+01 0.00000E+00
 -1       654 9.31500E+01 3.96080E+01 0.00000E+00
 -1       655 9.61500E+01 3.96080E+01 0.00000E+00
 -1       656 9.91500E+01 3.96080E+01 0.00000E+00
 -1       657 1.02150E+02 3.96080E+01 0.00000E+00
 -1       658 1.05150E+02 3.96080E+01 0.00000E+00
 -1       659 1.08150E+02 3.96080E+01 0.00000E+00
 -1       660 1.11150E+02 3.96080E+01 0.00000E+00
 -1       661 1.14150E+02 3.96080E+01 0.00000E+00
 -1       662 1.17150E+02 3.96080E+01 0.00000E+00
 -1       663 1.20150E+02 3.96080E+01 0.00000E+00
 -1       664 1.23150E+02 3.96080E+01 0.00000E+00
 -1       665 1.26150E+02 3.96080E+01 0.00000E+00
 -1       666 1.29150E+02 3.96080E+01 0.00000E+00
 -1       667 1.32150E+02 3.96080E+01 0.00000E+00
 -1       668 1.35150E+02 3.96080E+01 0.00000E+00
 -1       669 1.38150E+02 3.96080E+01 0.00000E+00
 -1       670 2.35350E+01 9.20225E+00 0.00000E+00
 -1       671 4.08213E+01 3.79195E+01 0.00000E+00
 -1       672 2.05350E+01 9.20225E+00 0.00000E+00
 -1       673 2.95350E+01 9.20225E+00 0.00000E+00
 -1       674 3.25350E+01 9.20225E+00 0.00000E+00
 -1       675 3.55350E+01 9.20225E+00 0.00000E+00
 -1       676 3.85350E+01 9.20225E+00 0.00000E+00
 -1       677 4.15350E+01 9.20225E+00 0.00000E+00
 -1       678 4.45350E+01 9.20225E+00 0.00000E+00
 -1       679 4.75350E+01 9.20225E+00 0.00000E+00
 -1       680 5.05350E+01 9.20225E+00 0.00000E+00
 -1       681 5.35350E+01 9.20225E+00 0.00000E+00
 -1       682 5.65350E+01 9.20225E+00 0.00000E+00
 -1       683 5.95350E+01 9.20225E+00 0.00000E+00
 -1       684 6.25350E+01 9.20225E+00 0.00000E+00
 -1       685 6.55350E+01 9.20225E+00 0.00000E+00
 -1       686 6.85350E+01 9.20225E+00 0.00000E+00
 -1       687 7.15350E+01 9.20225E+00 0.00000E+00
 -1       688 7.45350E+01 9.20225E+00 0.00000E+00
 -1       689 7.75350E+01 9.20225E+00 0.00000E+00
 -1       690 8.05350E+01 9.20225E+00 0.00000E+00
 -1       691 8.35350E+01 9.20225E+00 0.00000E+00
 -1       692 8.65350E+01 9.20225E+00 0.00000E+00
 -1       693 8.95350E+01 9.20225E+00 0.00000E+00
 -1       694 9.25350E+01 9.20225E+00 0.00000E+00
 -1       695 9.55350E+01 9.20225E+00 0.00000E+00
 -1       696 9.85350E+01 9.20225E+00 0.00000E+00
 -1       697 1.01535E+02 9.20225E+00 0.00000E+00
 -1       698 1.04535E+02 9.20225E+00 0.00000E+00
 -1       699 1.07535E+02 9.20225E+00 0.00000E+00
 -1       700 1.10535E+02 9.20225E+00 0.00000E+00
 -1       701 1.13535E+02 9.20225E+00 0.00000E+00
 -1       702 1.16535E+02 9.20225E+00 0.00000E+00
 -1       703 1.19535E+02 9.20225E+00 0.00000E+00
 -1       704 1.22535E+02 9.20225E+00 0.00000E+00
 -1       705 1.25535E+02 9.20225E+00 0.00000E+00
 -1       706 1.28535E+02 9.20225E+00 0.00000E+00
 -1       707 1.31535E+02 9.20225E+00 0.00000E+00
 -1       708 1.34535E+02 9.20225E+00 0.00000E+00
 -1       709 1.37535E+02 9.20225E+00 0.00000E+00
 -1       710 1.39870E+02 9.76363E+00 0.00000E+00
 -1       711 1.39608E+02 2.35500E+01 0.00000E+00
 -1       712 1.40178E+02 3.96665E+01 0.00000E+00
 -1       713 1.39608E+02 1.76500E+01 0.00000E+00
 -1       714 1.39608E+02 2.65000E+01 0.00000E+00
 -1       715 1.39608E+02 2.06000E+01 0.00000E+00
 -1       716 3.97753E+01 1.23770E+01 0.00000E+00
 -1       717 2.99699E+01 3.50303E+01 0.00000E+00
 -1       718 1.39608E+02 2.94000E+01 0.00000E+00
 -1       719 1.39608E+02 3.23500E+01 0.00000E+00
 -1       720 1.39608E+02 3.53000E+01 0.00000E+00
 -1       721 4.78467E+01 3.44649E+01 0.00000E+00
 -1       722 5.05208E+01 2.01293E+01 0.00000E+00
 -1       723 3.78256E+01 3.79330E+01 0.00000E+00
 -1       724 5.13444E+01 2.25448E+01 0.00000E+00
 -1       725 2.62083E+01 2.26451E+01 0.00000E+00
 -1       726 2.92929E+01 1.57891E+01 0.00000E+00
 -1       727 2.84481E+01 3.31624E+01 0.00000E+00
 -1       728 1.75350E+01 9.20225E+00 0.00000E+00
 -1       729 2.65350E+01 9.20225E+00 0.00000E+00
 -1       730 1.21500E+01 3.96080E+01 0.00000E+00
 -1       731 1.45350E+01 9.20225E+00 0.00000E+00
 -1       732 4.73638E+01 1.57335E+01 0.00000E+00
 -1       733 1.03920E+01 1.76125E+01 0.00000E+00
 -1       734 1.03920E+01 3.23250E+01 0.00000E+00
 -1       735 3.77816E+01 1.22701E+01 0.00000E+00
 -1       736 4.34414E+01 3.72830E+01 0.00000E+00
 -1       737 2.81843E+01 1.72871E+01 0.00000E+00
 -1       738 4.57674E+01 1.42455E+01 0.00000E+00
 -1       739 2.62056E+01 2.76415E+01 0.00000E+00
 -1       740 3.21389E+01 3.66358E+01 0.00000E+00
 -1       741 2.66959E+01 3.06800E+01 0.00000E+00
 -1       742 4.93957E+01 1.74245E+01 0.00000E+00
 -1       743 3.46638E+01 3.78074E+01 0.00000E+00
 -1       744 5.15847E+01 2.74947E+01 0.00000E+00
 -1       745 4.61620E+01 3.57610E+01 0.00000E+00
 -1       746 1.00042E+01 3.94079E+01 0.00000E+00
 -1       747 1.03920E+01 3.52625E+01 0.00000E+00
 -1       748 1.03920E+01 2.64500E+01 0.00000E+00
 -1       749 4.47042E+01 1.26399E+01 0.00000E+00
 -1       750 5.03564E+01 3.01386E+01 0.00000E+00
 -1       751 1.39608E+02 1.47250E+01 0.00000E+00
 -1       752 1.39739E+02 1.22443E+01 0.00000E+00
 -1       753 4.95236E+01 3.28011E+01 0.00000E+00
 -1       754 2.53239E+01 2.39688E+01 0.00000E+00
 -1       755 3.27571E+01 1.25045E+01 0.00000E+00
 -1       756 2.96862E+01 1.37021E+01 0.00000E+00
 -1       757 1.03920E+01 2.93875E+01 0.00000E+00
 -1       758 2.65414E+01 1.81158E+01 0.00000E+00
 -1       759 1.38879E+02 3.74540E+01 0.00000E+00
 -1       760 1.29900E+01 1.32000E+01 0.00000E+00
 -1       761 5.32686E+01 2.37180E+01 0.00000E+00
 -1       762 1.36500E+01 3.70100E+01 0.00000E+00
 -1       763 4.83567E+01 3.68708E+01 0.00000E+00
 -1       764 1.96500E+01 3.70100E+01 0.00000E+00
 -1       765 2.26500E+01 3.70100E+01 0.00000E+00
 -1       766 2.56500E+01 3.70100E+01 0.00000E+00
 -1       767 5.26500E+01 3.70100E+01 0.00000E+00
 -1       768 5.56500E+01 3.70100E+01 0.00000E+00
 -1       769 5.86500E+01 3.70100E+01 0.00000E+00
 -1       770 6.16500E+01 3.70100E+01 0.00000E+00
 -1       771 6.46500E+01 3.70100E+01 0.00000E+00
 -1       772 6.76500E+01 3.70100E+01 0.00000E+00
 -1       773 7.06500E+01 3.70100E+01 0.00000E+00
 -1       774 7.36500E+01 3.70100E+01 0.00000E+00
 -1       775 7.66500E+01 3.70100E+01 0.00000E+00
 -1       776 7.96500E+01 3.70100E+01 0.00000E+00
 -1       777 8.26500E+01 3.70100E+01 0.00000E+00
 -1       778 8.56500E+01 3.70100E+01 0.00000E+00
 -1       779 8.86500E+01 3.70100E+01 0.00000E+00
 -1       780 9.16500E+01 3.70100E+01 0.00000E+00
 -1       781 9.46500E+01 3.70100E+01 0.00000E+00
 -1       782 9.76500E+01 3.70100E+01 0.00000E+00
 -1       783 1.00650E+02 3.70100E+01 0.00000E+00
 -1       784 1.03650E+02 3.70100E+01 0.00000E+00
 -1       785 1.06650E+02 3.70100E+01 0.00000E+00
 -1       786 1.09650E+02 3.70100E+01 0.00000E+00
 -1       787 1.12650E+02 3.70100E+01 0.00000E+00
 -1       788 1.15650E+02 3.70100E+01 0.00000E+00
 -1       789 1.18650E+02 3.70100E+01 0.00000E+00
 -1       790 1.21650E+02 3.70100E+01 0.00000E+00
 -1       791 1.24650E+02 3.70100E+01 0.00000E+00
 -1       792 1.27650E+02 3.70100E+01 0.00000E+00
 -1       793 1.30650E+02 3.70100E+01 0.00000E+00
 -1       794 1.33650E+02 3.70100E+01 0.00000E+00
 -1       795 1.36264E+02 3.72320E+01 0.00000E+00
 -1       796 5.34238E+01 2.61921E+01 0.00000E+00
 -1       797 4.90350E+01 1.18003E+01 0.00000E+00
 -1       798 5.20350E+01 1.18003E+01 0.00000E+00
 -1       799 5.50350E+01 1.18003E+01 0.00000E+00
 -1       800 5.80350E+01 1.18003E+01 0.00000E+00
 -1       801 6.10350E+01 1.18003E+01 0.00000E+00
 -1       802 6.40350E+01 1.18003E+01 0.00000E+00
 -1       803 6.70350E+01 1.18003E+01 0.00000E+00
 -1       804 7.00350E+01 1.18003E+01 0.00000E+00
 -1       805 7.30350E+01 1.18003E+01 0.00000E+00
 -1       806 7.60350E+01 1.18003E+01 0.00000E+00
 -1       807 7.90350E+01 1.18003E+01 0.00000E+00
 -1       808 8.20350E+01 1.18003E+01 0.00000E+00
 -1       809 8.50350E+01 1.18003E+01 0.00000E+00
 -1       810 8.80350E+01 1.18003E+01 0.00000E+00
 -1       811 9.10350E+01 1.18003E+01 0.00000E+00
 -1       812 9.40350E+01 1.18003E+01 0.00000E+00
 -1       813 9.70350E+01 1.18003E+01 0.00000E+00
 -1       814 1.00035E+02 1.18003E+01 0.00000E+00
 -1       815 1.03035E+02 1.18003E+01 0.00000E+00
 -1       816 1.06035E+02 1.18003E+01 0.00000E+00
 -1       817 1.09035E+02 1.18003E+01 0.00000E+00
 -1       818 1.12035E+02 1.18003E+01 0.00000E+00
 -1       819 1.15035E+02 1.18003E+01 0.00000E+00
 -1       820 1.18035E+02 1.18003E+01 0.00000E+00
 -1       821 1.21035E+02 1.18003E+01 0.00000E+00
 -1       822 1.24035E+02 1.18003E+01 0.00000E+00
 -1       823 1.27035E+02 1.18003E+01 0.00000E+00
 -1       824 1.30035E+02 1.18003E+01 0.00000E+00
 -1       825 1.33035E+02 1.18003E+01 0.00000E+00
 -1       826 1.36035E+02 1.18003E+01 0.00000E+00
 -1       827 1.37887E+02 1.20223E+01 0.00000E+00
 -1       828 1.29900E+01 2.20250E+01 0.00000E+00
 -1       829 1.37010E+02 2.50250E+01 0.00000E+00
 -1       830 1.37010E+02 2.79250E+01 0.00000E+00
 -1       831 4.96913E+01 1.50031E+01 0.00000E+00
 -1       832 2.73597E+01 3.56030E+01 0.00000E+00
 -1       833 5.20060E+01 1.79251E+01 0.00000E+00
 -1       834 1.37010E+02 3.38250E+01 0.00000E+00
 -1       835 1.37010E+02 3.08750E+01 0.00000E+00
 -1       836 2.48309E+01 2.62941E+01 0.00000E+00
 -1       837 2.20350E+01 1.18003E+01 0.00000E+00
 -1       838 5.00336E+01 3.52069E+01 0.00000E+00
 -1       839 1.90350E+01 1.18003E+01 0.00000E+00
 -1       840 1.01981E+01 3.73352E+01 0.00000E+00
 -1       841 1.66500E+01 3.70100E+01 0.00000E+00
 -1       842 5.28732E+01 2.06754E+01 0.00000E+00
 -1       843 2.70906E+01 1.53184E+01 0.00000E+00
 -1       844 2.97349E+01 3.76156E+01 0.00000E+00
 -1       845 2.56075E+01 3.31206E+01 0.00000E+00
 -1       846 5.28300E+01 2.96805E+01 0.00000E+00
 -1       847 2.51238E+01 2.07778E+01 0.00000E+00
 -1       848 2.44267E+01 2.94874E+01 0.00000E+00
 -1       849 1.37625E+01 1.12011E+01 0.00000E+00
 -1       850 5.19971E+01 3.23430E+01 0.00000E+00
 -1       851 1.29900E+01 2.49750E+01 0.00000E+00
 -1       852 4.70850E+01 1.22182E+01 0.00000E+00
 -1       853 1.37010E+02 1.61875E+01 0.00000E+00
 -1       854 5.23016E+01 1.55037E+01 0.00000E+00
 -1       855 5.46690E+01 2.83779E+01 0.00000E+00
 -1       856 1.29900E+01 3.37938E+01 0.00000E+00
 -1       857 2.50350E+01 1.18003E+01 0.00000E+00
 -1       858 1.37010E+02 2.20750E+01 0.00000E+00
 -1       859 1.29900E+01 1.90875E+01 0.00000E+00
 -1       860 1.37010E+02 1.91313E+01 0.00000E+00
 -1       861 1.29900E+01 1.61375E+01 0.00000E+00
 -1       862 1.36637E+02 3.55285E+01 0.00000E+00
 -1       863 2.42394E+01 2.21015E+01 0.00000E+00
 -1       864 2.30520E+01 2.81399E+01 0.00000E+00
 -1       865 2.33383E+01 3.19280E+01 0.00000E+00
 -1       866 1.63988E+01 1.15007E+01 0.00000E+00
 -1       867 1.29900E+01 3.08563E+01 0.00000E+00
 -1       868 2.46397E+01 1.62899E+01 0.00000E+00
 -1       869 5.52702E+01 2.19109E+01 0.00000E+00
 -1       870 5.47146E+01 1.85829E+01 0.00000E+00
 -1       871 1.34412E+02 2.64750E+01 0.00000E+00
 -1       872 5.71500E+01 3.44120E+01 0.00000E+00
 -1       873 6.01500E+01 3.44120E+01 0.00000E+00
 -1       874 6.31500E+01 3.44120E+01 0.00000E+00
 -1       875 6.61500E+01 3.44120E+01 0.00000E+00
 -1       876 6.91500E+01 3.44120E+01 0.00000E+00
 -1       877 7.21500E+01 3.44120E+01 0.00000E+00
 -1       878 7.51500E+01 3.44120E+01 0.00000E+00
 -1       879 7.81500E+01 3.44120E+01 0.00000E+00
 -1       880 8.11500E+01 3.44120E+01 0.00000E+00
 -1       881 8.41500E+01 3.44120E+01 0.00000E+00
 -1       882 8.71500E+01 3.44120E+01 0.00000E+00
 -1       883 9.01500E+01 3.44120E+01 0.00000E+00
 -1       884 9.31500E+01 3.44120E+01 0.00000E+00
 -1       885 9.61500E+01 3.44120E+01 0.00000E+00
 -1       886 9.91500E+01 3.44120E+01 0.00000E+00
 -1       887 1.02150E+02 3.44120E+01 0.00000E+00
 -1       888 1.05150E+02 3.44120E+01 0.00000E+00
 -1       889 1.08150E+02 3.44120E+01 0.00000E+00
 -1       890 1.11150E+02 3.44120E+01 0.00000E+00
 -1       891 1.14150E+02 3.44120E+01 0.00000E+00
 -1       892 1.17150E+02 3.44120E+01 0.00000E+00
 -1       893 1.20150E+02 3.44120E+01 0.00000E+00
 -1       894 1.23150E+02 3.44120E+01 0.00000E+00
 -1       895 1.26150E+02 3.44120E+01 0.00000E+00
 -1       896 1.29150E+02 3.44120E+01 0.00000E+00
 -1       897 1.32150E+02 3.44120E+01 0.00000E+00
 -1       898 2.70140E+01 1.15394E+01 0.00000E+00
 -1       899 1.59900E+01 3.37938E+01 0.00000E+00
 -1       900 5.95350E+01 1.43982E+01 0.00000E+00
 -1       901 6.25350E+01 1.43982E+01 0.00000E+00
 -1       902 6.55350E+01 1.43982E+01 0.00000E+00
 -1       903 6.85350E+01 1.43982E+01 0.00000E+00
 -1       904 7.15350E+01 1.43982E+01 0.00000E+00
 -1       905 7.45350E+01 1.43982E+01 0.00000E+00
 -1       906 7.75350E+01 1.43982E+01 0.00000E+00
 -1       907 8.05350E+01 1.43982E+01 0.00000E+00
 -1       908 8.35350E+01 1.43982E+01 0.00000E+00
 -1       909 8.65350E+01 1.43982E+01 0.00000E+00
 -1       910 8.95350E+01 1.43982E+01 0.00000E+00
 -1       911 9.25350E+01 1.43982E+01 0.00000E+00
 -1       912 9.55350E+01 1.43982E+01 0.00000E+00
 -1       913 9.85350E+01 1.43982E+01 0.00000E+00
 -1       914 1.01535E+02 1.43982E+01 0.00000E+00
 -1       915 1.04535E+02 1.43982E+01 0.00000E+00
 -1       916 1.07535E+02 1.43982E+01 0.00000E+00
 -1       917 1.10535E+02 1.43982E+01 0.00000E+00
 -1       918 1.13535E+02 1.43982E+01 0.00000E+00
 -1       919 1.16535E+02 1.43982E+01 0.00000E+00
 -1       920 1.19535E+02 1.43982E+01 0.00000E+00
 -1       921 1.22535E+02 1.43982E+01 0.00000E+00
 -1       922 1.25535E+02 1.43982E+01 0.00000E+00
 -1       923 1.28535E+02 1.43982E+01 0.00000E+00
 -1       924 1.31535E+02 1.43982E+01 0.00000E+00
 -1       925 1.34535E+02 1.43982E+01 0.00000E+00
 -1       926 2.29078E+01 2.46714E+01 0.00000E+00
 -1       927 1.37449E+02 1.41049E+01 0.00000E+00
 -1       928 5.43703E+01 3.16238E+01 0.00000E+00
 -1       929 5.65350E+01 1.43982E+01 0.00000E+00
 -1       930 1.29900E+01 2.79188E+01 0.00000E+00
 -1       931 2.05350E+01 1.43982E+01 0.00000E+00
 -1       932 2.11500E+01 3.44120E+01 0.00000E+00
 -1       933 2.32221E+01 1.89519E+01 0.00000E+00
 -1       934 1.85700E+01 3.41029E+01 0.00000E+00
 -1       935 5.52251E+01 2.48372E+01 0.00000E+00
 -1       936 1.55880E+01 1.46687E+01 0.00000E+00
 -1       937 1.55880E+01 2.35000E+01 0.00000E+00
 -1       938 5.38269E+01 3.41059E+01 0.00000E+00
 -1       939 2.44548E+01 1.34815E+01 0.00000E+00
 -1       940 1.34412E+02 2.94250E+01 0.00000E+00
 -1       941 2.41500E+01 3.44120E+01 0.00000E+00
 -1       942 5.64704E+01 2.70230E+01 0.00000E+00
 -1       943 1.34394E+02 3.49702E+01 0.00000E+00
 -1       944 1.34412E+02 2.35250E+01 0.00000E+00
 -1       945 1.55880E+01 2.05625E+01 0.00000E+00
 -1       946 2.23377E+01 2.02756E+01 0.00000E+00
 -1       947 2.19635E+01 3.05806E+01 0.00000E+00
 -1       948 1.78988E+01 1.40987E+01 0.00000E+00
 -1       949 1.34535E+02 1.73420E+01 0.00000E+00
 -1       950 1.34580E+02 3.26435E+01 0.00000E+00
 -1       951 1.55880E+01 2.64438E+01 0.00000E+00
 -1       952 2.16378E+01 1.63998E+01 0.00000E+00
 -1       953 6.16500E+01 3.18140E+01 0.00000E+00
 -1       954 6.46500E+01 3.18140E+01 0.00000E+00
 -1       955 6.76500E+01 3.18140E+01 0.00000E+00
 -1       956 7.06500E+01 3.18140E+01 0.00000E+00
 -1       957 7.36500E+01 3.18140E+01 0.00000E+00
 -1       958 7.66500E+01 3.18140E+01 0.00000E+00
 -1       959 7.96500E+01 3.18140E+01 0.00000E+00
 -1       960 8.26500E+01 3.18140E+01 0.00000E+00
 -1       961 8.56500E+01 3.18140E+01 0.00000E+00
 -1       962 8.86500E+01 3.18140E+01 0.00000E+00
 -1       963 9.16500E+01 3.18140E+01 0.00000E+00
 -1       964 9.46500E+01 3.18140E+01 0.00000E+00
 -1       965 9.76500E+01 3.18140E+01 0.00000E+00
 -1       966 1.00650E+02 3.18140E+01 0.00000E+00
 -1       967 1.03650E+02 3.18140E+01 0.00000E+00
 -1       968 1.06650E+02 3.18140E+01 0.00000E+00
 -1       969 1.09650E+02 3.18140E+01 0.00000E+00
 -1       970 1.12650E+02 3.18140E+01 0.00000E+00
 -1       971 1.15650E+02 3.18140E+01 0.00000E+00
 -1       972 1.18650E+02 3.18140E+01 0.00000E+00
 -1       973 1.21650E+02 3.18140E+01 0.00000E+00
 -1       974 1.24650E+02 3.18140E+01 0.00000E+00
 -1       975 1.27650E+02 3.18140E+01 0.00000E+00
 -1       976 1.30650E+02 3.18140E+01 0.00000E+00
 -1       977 6.70350E+01 1.69963E+01 0.00000E+00
 -1       978 1.55880E+01 2.93813E+01 0.00000E+00
 -1       979 6.40350E+01 1.69963E+01 0.00000E+00
 -1       980 6.10350E+01 1.69963E+01 0.00000E+00
 -1       981 7.00350E+01 1.69963E+01 0.00000E+00
 -1       982 7.30350E+01 1.69963E+01 0.00000E+00
 -1       983 7.60350E+01 1.69963E+01 0.00000E+00
 -1       984 7.90350E+01 1.69963E+01 0.00000E+00
 -1       985 8.20350E+01 1.69963E+01 0.00000E+00
 -1       986 8.50350E+01 1.69963E+01 0.00000E+00
 -1       987 8.80350E+01 1.69963E+01 0.00000E+00
 -1       988 9.10350E+01 1.69963E+01 0.00000E+00
 -1       989 9.40350E+01 1.69963E+01 0.00000E+00
 -1       990 9.70350E+01 1.69963E+01 0.00000E+00
 -1       991 1.00035E+02 1.69963E+01 0.00000E+00
 -1       992 1.03035E+02 1.69963E+01 0.00000E+00
 -1       993 1.06035E+02 1.69963E+01 0.00000E+00
 -1       994 1.09035E+02 1.69963E+01 0.00000E+00
 -1       995 1.12035E+02 1.69963E+01 0.00000E+00
 -1       996 1.15035E+02 1.69963E+01 0.00000E+00
 -1       997 1.18035E+02 1.69963E+01 0.00000E+00
 -1       998 1.21035E+02 1.69963E+01 0.00000E+00
 -1       999 1.24035E+02 1.69963E+01 0.00000E+00
 -1      1000 1.27035E+02 1.69963E+01 0.00000E+00
 -1      1001 1.30035E+02 1.69963E+01 0.00000E+00
 -1      1002 1.32285E+02 1.71691E+01 0.00000E+00
 -1      1003 5.75681E+01 3.12155E+01 0.00000E+00
 -1      1004 1.34412E+02 2.05812E+01 0.00000E+00
 -1      1005 2.07640E+01 2.64978E+01 0.00000E+00
 -1      1006 5.78748E+01 1.77896E+01 0.00000E+00
 -1      1007 5.84304E+01 2.11176E+01 0.00000E+00
 -1      1008 2.10061E+01 2.28455E+01 0.00000E+00
 -1      1009 1.55880E+01 1.76156E+01 0.00000E+00
 -1      1010 2.07534E+01 1.77235E+01 0.00000E+00
 -1      1011 2.02668E+01 3.23417E+01 0.00000E+00
 -1      1012 5.74504E+01 2.40703E+01 0.00000E+00
 -1      1013 1.96755E+01 2.89384E+01 0.00000E+00
 -1      1014 1.31814E+02 2.79500E+01 0.00000E+00
 -1      1015 1.31814E+02 2.50000E+01 0.00000E+00
 -1      1016 1.78988E+01 1.70456E+01 0.00000E+00
 -1      1017 1.81860E+01 2.49719E+01 0.00000E+00
 -1      1018 1.81860E+01 2.20344E+01 0.00000E+00
 -1      1019 1.79274E+01 3.08615E+01 0.00000E+00
 -1      1020 1.88109E+01 1.66527E+01 0.00000E+00
 -1      1021 6.85350E+01 1.95942E+01 0.00000E+00
 -1      1022 6.05523E+01 2.76215E+01 0.00000E+00
 -1      1023 6.35523E+01 2.76215E+01 0.00000E+00
 -1      1024 6.15906E+01 2.03243E+01 0.00000E+00
 -1      1025 6.65523E+01 2.76215E+01 0.00000E+00
 -1      1026 6.95523E+01 2.76215E+01 0.00000E+00
 -1      1027 7.25523E+01 2.76215E+01 0.00000E+00
 -1      1028 7.55523E+01 2.76215E+01 0.00000E+00
 -1      1029 7.85523E+01 2.76215E+01 0.00000E+00
 -1      1030 8.15523E+01 2.76215E+01 0.00000E+00
 -1      1031 8.45523E+01 2.76215E+01 0.00000E+00
 -1      1032 8.75523E+01 2.76215E+01 0.00000E+00
 -1      1033 9.05523E+01 2.76215E+01 0.00000E+00
 -1      1034 9.35523E+01 2.76215E+01 0.00000E+00
 -1      1035 9.65523E+01 2.76215E+01 0.00000E+00
 -1      1036 9.95523E+01 2.76215E+01 0.00000E+00
 -1      1037 1.02552E+02 2.76215E+01 0.00000E+00
 -1      1038 1.05552E+02 2.76215E+01 0.00000E+00
 -1      1039 1.08552E+02 2.76215E+01 0.00000E+00
 -1      1040 1.11552E+02 2.76215E+01 0.00000E+00
 -1      1041 1.14552E+02 2.76215E+01 0.00000E+00
 -1      1042 1.17552E+02 2.76215E+01 0.00000E+00
 -1      1043 1.20552E+02 2.76215E+01 0.00000E+00
 -1      1044 1.23552E+02 2.76215E+01 0.00000E+00
 -1      1045 1.26552E+02 2.76215E+01 0.00000E+00
 -1      1046 1.29183E+02 2.77858E+01 0.00000E+00
 -1      1047 1.80567E+01 2.79167E+01 0.00000E+00
 -1      1048 6.55350E+01 1.95942E+01 0.00000E+00
 -1      1049 7.45350E+01 1.95942E+01 0.00000E+00
 -1      1050 7.75350E+01 1.95942E+01 0.00000E+00
 -1      1051 8.05350E+01 1.95942E+01 0.00000E+00
 -1      1052 8.35350E+01 1.95942E+01 0.00000E+00
 -1      1053 8.65350E+01 1.95942E+01 0.00000E+00
 -1      1054 8.95350E+01 1.95942E+01 0.00000E+00
 -1      1055 9.25350E+01 1.95942E+01 0.00000E+00
 -1      1056 9.55350E+01 1.95942E+01 0.00000E+00
 -1      1057 9.85350E+01 1.95942E+01 0.00000E+00
 -1      1058 1.01535E+02 1.95942E+01 0.00000E+00
 -1      1059 1.04535E+02 1.95942E+01 0.00000E+00
 -1      1060 1.07535E+02 1.95942E+01 0.00000E+00
 -1      1061 1.10535E+02 1.95942E+01 0.00000E+00
 -1      1062 1.13535E+02 1.95942E+01 0.00000E+00
 -1      1063 1.16535E+02 1.95942E+01 0.00000E+00
 -1      1064 1.19535E+02 1.95942E+01 0.00000E+00
 -1      1065 1.22535E+02 1.95942E+01 0.00000E+00
 -1      1066 1.25535E+02 1.95942E+01 0.00000E+00
 -1      1067 1.28535E+02 1.95942E+01 0.00000E+00
 -1      1068 1.80424E+01 1.95400E+01 0.00000E+00
 -1      1069 1.31814E+02 2.20562E+01 0.00000E+00
 -1      1070 7.15350E+01 1.95942E+01 0.00000E+00
 -1      1071 1.32049E+02 1.96127E+01 0.00000E+00
 -1      1072 1.99085E+01 1.97491E+01 0.00000E+00
 -1      1073 6.06106E+01 2.32770E+01 0.00000E+00
 -1      1074 6.20523E+01 2.50235E+01 0.00000E+00
 -1      1075 6.50523E+01 2.50235E+01 0.00000E+00
 -1      1076 6.80523E+01 2.50235E+01 0.00000E+00
 -1      1077 7.10523E+01 2.50235E+01 0.00000E+00
 -1      1078 7.40523E+01 2.50235E+01 0.00000E+00
 -1      1079 7.70523E+01 2.50235E+01 0.00000E+00
 -1      1080 8.00523E+01 2.50235E+01 0.00000E+00
 -1      1081 8.30523E+01 2.50235E+01 0.00000E+00
 -1      1082 8.60523E+01 2.50235E+01 0.00000E+00
 -1      1083 8.90523E+01 2.50235E+01 0.00000E+00
 -1      1084 9.20523E+01 2.50235E+01 0.00000E+00
 -1      1085 9.50523E+01 2.50235E+01 0.00000E+00
 -1      1086 9.80523E+01 2.50235E+01 0.00000E+00
 -1      1087 1.01052E+02 2.50235E+01 0.00000E+00
 -1      1088 1.04052E+02 2.50235E+01 0.00000E+00
 -1      1089 1.07052E+02 2.50235E+01 0.00000E+00
 -1      1090 1.10052E+02 2.50235E+01 0.00000E+00
 -1      1091 1.13052E+02 2.50235E+01 0.00000E+00
 -1      1092 1.16052E+02 2.50235E+01 0.00000E+00
 -1      1093 1.19052E+02 2.50235E+01 0.00000E+00
 -1      1094 1.22052E+02 2.50235E+01 0.00000E+00
 -1      1095 1.25052E+02 2.50235E+01 0.00000E+00
 -1      1096 1.27683E+02 2.51878E+01 0.00000E+00
 -1      1097 8.20350E+01 2.21922E+01 0.00000E+00
 -1      1098 7.90350E+01 2.21922E+01 0.00000E+00
 -1      1099 7.60350E+01 2.21922E+01 0.00000E+00
 -1      1100 8.50350E+01 2.21922E+01 0.00000E+00
 -1      1101 8.80350E+01 2.21922E+01 0.00000E+00
 -1      1102 9.10350E+01 2.21922E+01 0.00000E+00
 -1      1103 9.40350E+01 2.21922E+01 0.00000E+00
 -1      1104 9.70350E+01 2.21922E+01 0.00000E+00
 -1      1105 1.00035E+02 2.21922E+01 0.00000E+00
 -1      1106 1.03035E+02 2.21922E+01 0.00000E+00
 -1      1107 1.06035E+02 2.21922E+01 0.00000E+00
 -1      1108 1.09035E+02 2.21922E+01 0.00000E+00
 -1      1109 1.12035E+02 2.21922E+01 0.00000E+00
 -1      1110 1.15035E+02 2.21922E+01 0.00000E+00
 -1      1111 1.18035E+02 2.21922E+01 0.00000E+00
 -1      1112 1.21035E+02 2.21922E+01 0.00000E+00
 -1      1113 1.24035E+02 2.21922E+01 0.00000E+00
 -1      1114 1.27035E+02 2.21922E+01 0.00000E+00
 -1      1115 6.40356E+01 2.25139E+01 0.00000E+00
 -1      1116 1.29216E+02 2.35281E+01 0.00000E+00
 -1      1117 7.30350E+01 2.21922E+01 0.00000E+00
 -1      1118 7.00350E+01 2.21922E+01 0.00000E+00
 -1      1119 6.70350E+01 2.21922E+01 0.00000E+00
 -1      1120 0.00000E+00 4.85250E+01 0.00000E+00
 -1      1121 0.00000E+00 4.55750E+01 0.00000E+00
 -1      1122 0.00000E+00 4.26250E+01 0.00000E+00
 -1      1123 0.00000E+00 3.96750E+01 0.00000E+00
 -1      1124 0.00000E+00 3.67250E+01 0.00000E+00
 -1      1125 0.00000E+00 3.38000E+01 0.00000E+00
 -1      1126 0.00000E+00 3.08750E+01 0.00000E+00
 -1      1127 0.00000E+00 2.79250E+01 0.00000E+00
 -1      1128 0.00000E+00 2.49750E+01 0.00000E+00
 -1      1129 0.00000E+00 2.20250E+01 0.00000E+00
 -1      1130 0.00000E+00 1.90750E+01 0.00000E+00
 -1      1131 0.00000E+00 1.61500E+01 0.00000E+00
 -1      1132 0.00000E+00 1.32250E+01 0.00000E+00
 -1      1133 0.00000E+00 1.02750E+01 0.00000E+00
 -1      1134 0.00000E+00 7.32500E+00 0.00000E+00
 -1      1135 0.00000E+00 4.37500E+00 0.00000E+00
 -1      1136 0.00000E+00 1.45000E+00 0.00000E+00
 -1      1137 1.57500E+00 5.00000E+01 0.00000E+00
 -1      1138 4.65000E+00 5.00000E+01 0.00000E+00
 -1      1139 7.65000E+00 5.00000E+01 0.00000E+00
 -1      1140 1.06500E+01 5.00000E+01 0.00000E+00
 -1      1141 1.36500E+01 5.00000E+01 0.00000E+00
 -1      1142 1.66500E+01 5.00000E+01 0.00000E+00
 -1      1143 1.96500E+01 5.00000E+01 0.00000E+00
 -1      1144 2.26500E+01 5.00000E+01 0.00000E+00
 -1      1145 2.56500E+01 5.00000E+01 0.00000E+00
 -1      1146 2.86500E+01 5.00000E+01 0.00000E+00
 -1      1147 3.16500E+01 5.00000E+01 0.00000E+00
 -1      1148 3.46500E+01 5.00000E+01 0.00000E+00
 -1      1149 3.76500E+01 5.00000E+01 0.00000E+00
 -1      1150 4.06500E+01 5.00000E+01 0.00000E+00
 -1      1151 4.36500E+01 5.00000E+01 0.00000E+00
 -1      1152 4.66500E+01 5.00000E+01 0.00000E+00
 -1      1153 4.96500E+01 5.00000E+01 0.00000E+00
 -1      1154 5.26500E+01 5.00000E+01 0.00000E+00
 -1      1155 5.56500E+01 5.00000E+01 0.00000E+00
 -1      1156 5.86500E+01 5.00000E+01 0.00000E+00
 -1      1157 6.16500E+01 5.00000E+01 0.00000E+00
 -1      1158 6.46500E+01 5.00000E+01 0.00000E+00
 -1      1159 6.76500E+01 5.00000E+01 0.00000E+00
 -1      1160 7.06500E+01 5.00000E+01 0.00000E+00
 -1      1161 7.36500E+01 5.00000E+01 0.00000E+00
 -1      1162 7.66500E+01 5.00000E+01 0.00000E+00
 -1      1163 7.96500E+01 5.00000E+01 0.00000E+00
 -1      1164 8.26500E+01 5.00000E+01 0.00000E+00
 -1      1165 8.56500E+01 5.00000E+01 0.00000E+00
 -1      1166 8.86500E+01 5.00000E+01 0.00000E+00
 -1      1167 9.16500E+01 5.00000E+01 0.00000E+00
 -1      1168 9.46500E+01 5.00000E+01 0.00000E+00
 -1      1169 9.76500E+01 5.00000E+01 0.00000E+00
 -1      1170 1.00650E+02 5.00000E+01 0.00000E+00
 -1      1171 1.03650E+02 5.00000E+01 0.00000E+00
 -1      1172 1.06650E+02 5.00000E+01 0.00000E+00
 -1      1173 1.09650E+02 5.00000E+01 0.00000E+00
 -1      1174 1.12650E+02 5.00000E+01 0.00000E+00
 -1      1175 1.15650E+02 5.00000E+01 0.00000E+00
 -1      1176 1.18650E+02 5.00000E+01 0.00000E+00
 -1      1177 1.21650E+02 5.00000E+01 0.00000E+00
 -1      1178 1.24650E+02 5.00000E+01 0.00000E+00
 -1      1179 1.27650E+02 5.00000E+01 0.00000E+00
 -1      1180 1.30650E+02 5.00000E+01 0.00000E+00
 -1      1181 1.33650E+02 5.00000E+01 0.00000E+00
 -1      1182 1.36650E+02 5.00000E+01 0.00000E+00
 -1      1183 1.39650E+02 5.00000E+01 0.00000E+00
 -1      1184 1.42650E+02 5.00000E+01 0.00000E+00
 -1      1185 1.45650E+02 5.00000E+01 0.00000E+00
 -1      1186 1.48575E+02 5.00000E+01 0.00000E+00
 -1      1187 1.57500E+00 0.00000E+00 0.00000E+00
 -1      1188 4.65000E+00 0.00000E+00 0.00000E+00
 -1      1189 7.65000E+00 0.00000E+00 0.00000E+00
 -1      1190 1.06500E+01 0.00000E+00 0.00000E+00
 -1      1191 1.36500E+01 0.00000E+00 0.00000E+00
 -1      1192 1.66500E+01 0.00000E+00 0.00000E+00
 -1      1193 1.96500E+01 0.00000E+00 0.00000E+00
 -1      1194 2.26500E+01 0.00000E+00 0.00000E+00
 -1      1195 2.56500E+01 0.00000E+00 0.00000E+00
 -1      1196 2.86500E+01 0.00000E+00 0.00000E+00
 -1      1197 3.16500E+01 0.00000E+00 0.00000E+00
 -1      1198 3.46500E+01 0.00000E+00 0.00000E+00
 -1      1199 3.76500E+01 0.00000E+00 0.00000E+00
 -1      1200 4.06500E+01 0.00000E+00 0.00000E+00
 -1      1201 4.36500E+01 0.00000E+00 0.00000E+00
 -1      1202 4.66500E+01 0.00000E+00 0.00000E+00
 -1      1203 4.96500E+01 0.00000E+00 0.00000E+00
 -1      1204 5.26500E+01 0.00000E+00 0.00000E+00
 -1      1205 5.56500E+01 0.00000E+00 0.00000E+00
 -1      1206 5.86500E+01 0.00000E+00 0.00000E+00
 -1      1207 6.16500E+01 0.00000E+00 0.00000E+00
 -1      1208 6.46500E+01 0.00000E+00 0.00000E+00
 -1      1209 6.76500E+01 0.00000E+00 0.00000E+00
 -1      1210 7.06500E+01 0.00000E+00 0.00000E+00
 -1      1211 7.36500E+01 0.00000E+00 0.00000E+00
 -1      1212 7.66500E+01 0.00000E+00 0.00000E+00
 -1      1213 7.96500E+01 0.00000E+00 0.00000E+00
 -1      1214 8.26500E+01 0.00000E+00 0.00000E+00
 -1      1215 8.56500E+01 0.00000E+00 0.00000E+00
 -1      1216 8.86500E+01 0.00000E+00 0.00000E+00
 -1      1217 9.16500E+01 0.00000E+00 0.00000E+00
 -1      1218 9.46500E+01 0.00000E+00 0.00000E+00
 -1      1219 9.76500E+01 0.00000E+00 0.00000E+00
 -1      1220 1.00650E+02 0.00000E+00 0.00000E+00
 -1      1221 1.03650E+02 0.00000E+00 0.00000E+00
 -1      1222 1.06650E+02 0.00000E+00 0.00000E+00
 -1      1223 1.09650E+02 0.00000E+00 0.00000E+00
 -1      1224 1.12650E+02 0.00000E+00 0.00000E+00
 -1      1225 1.15650E+02 0.00000E+00 0.00000E+00
 -1      1226 1.18650E+02 0.00000E+00 0.00000E+00
 -1      1227 1.21650E+02 0.00000E+00 0.00000E+00
 -1      1228 1.24650E+02 0.00000E+00 0.00000E+00
 -1      1229 1.27650E+02 0.00000E+00 0.00000E+00
 -1      1230 1.30650E+02 0.00000E+00 0.00000E+00
 -1      1231 1.33650E+02 0.00000E+00 0.00000E+00
 -1      1232 1.36650E+02 0.00000E+00 0.00000E+00
 -1      1233 1.39650E+02 0.00000E+00 0.00000E+00
 -1      1234 1.42650E+02 0.00000E+00 0.00000E+00
 -1      1235 1.45650E+02 0.00000E+00 0.00000E+00
 -1      1236 1.48575E+02 0.00000E+00 0.00000E+00
 -1      1237 1.50000E+02 1.47500E+00 0.00000E+00
 -1      1238 1.50000E+02 4.42500E+00 0.00000E+00
 -1      1239 1.50000E+02 7.37500E+00 0.00000E+00
 -1      1240 1.50000E+02 1.03250E+01 0.00000E+00
 -1      1241 1.50000E+02 1.32750E+01 0.00000E+00
 -1      1242 1.50000E+02 1.62000E+01 0.00000E+00
 -1      1243 1.50000E+02 1.91250E+01 0.00000E+00
 -1      1244 1.50000E+02 2.20750E+01 0.00000E+00
 -1      1245 1.50000E+02 2.50250E+01 0.00000E+00
 -1      1246 1.50000E+02 2.79750E+01 0.00000E+00
 -1      1247 1.50000E+02 3.09250E+01 0.00000E+00
 -1      1248 1.50000E+02 3.38500E+01 0.00000E+00
 -1      1249 1.50000E+02 3.67750E+01 0.00000E+00
 -1      1250 1.50000E+02 3.97250E+01 0.00000E+00
 -1      1251 1.50000E+02 4.26750E+01 0.00000E+00
 -1      1252 1.50000E+02 4.56250E+01 0.00000E+00
 -1      1253 1.50000E+02 4.85500E+01 0.00000E+00
 -1      1254 4.55783E+01 2.43618E+01 0.00000E+00
 -1      1255 4.52966E+01 2.29748E+01 0.00000E+00
 -1      1256 4.47123E+01 2.16203E+01 0.00000E+00
 -1      1257 4.38661E+01 2.04284E+01 0.00000E+00
 -1      1258 4.28005E+01 1.94454E+01 0.00000E+00
 -1      1259 4.15513E+01 1.87012E+01 0.00000E+00
 -1      1260 4.01411E+01 1.82234E+01 0.00000E+00
 -1      1261 3.86690E+01 1.80547E+01 0.00000E+00
 -1      1262 3.72333E+01 1.81917E+01 0.00000E+00
 -1      1263 3.57714E+01 1.86570E+01 0.00000E+00
 -1      1264 3.43975E+01 1.94658E+01 0.00000E+00
 -1      1265 3.32795E+01 2.05204E+01 0.00000E+00
 -1      1266 3.24641E+01 2.17085E+01 0.00000E+00
 -1      1267 3.19101E+01 2.30356E+01 0.00000E+00
 -1      1268 3.16411E+01 2.44243E+01 0.00000E+00
 -1      1269 3.16645E+01 2.59048E+01 0.00000E+00
 -1      1270 3.20155E+01 2.73949E+01 0.00000E+00
 -1      1271 3.26317E+01 2.86916E+01 0.00000E+00
 -1      1272 3.35426E+01 2.98809E+01 0.00000E+00
 -1      1273 3.46906E+01 3.08525E+01 0.00000E+00
 -1      1274 3.59576E+01 3.15314E+01 0.00000E+00
 -1      1275 3.73822E+01 3.19455E+01 0.00000E+00
 -1      1276 3.89104E+01 3.20481E+01 0.00000E+00
 -1      1277 4.04125E+01 3.18191E+01 0.00000E+00
 -1      1278 4.18056E+01 3.12838E+01 0.00000E+00
 -1      1279 4.29922E+01 3.05152E+01 0.00000E+00
 -1      1280 4.39897E+01 2.95364E+01 0.00000E+00
 -1      1281 4.47711E+01 2.83821E+01 0.00000E+00
 -1      1282 4.53071E+01 2.71000E+01 0.00000E+00
 -1      1283 4.55801E+01 2.57289E+01 0.00000E+00
 -1      1284 1.57500E+00 4.85250E+01 0.00000E+00
 -1      1285 1.29900E+00 4.48375E+01 0.00000E+00
 -1      1286 1.29900E+00 4.63125E+01 0.00000E+00
 -1      1287 1.29900E+00 4.18875E+01 0.00000E+00
 -1      1288 1.29900E+00 4.33625E+01 0.00000E+00
 -1      1289 2.59800E+00 4.41000E+01 0.00000E+00
 -1      1290 1.29900E+00 3.89375E+01 0.00000E+00
 -1      1291 1.29900E+00 4.04125E+01 0.00000E+00
 -1      1292 2.59800E+00 4.11500E+01 0.00000E+00
 -1      1293 1.29900E+00 3.59875E+01 0.00000E+00
 -1      1294 1.29900E+00 3.74625E+01 0.00000E+00
 -1      1295 2.59800E+00 3.82000E+01 0.00000E+00
 -1      1296 1.29900E+00 3.30875E+01 0.00000E+00
 -1      1297 1.29900E+00 3.45375E+01 0.00000E+00
 -1      1298 2.59800E+00 3.52750E+01 0.00000E+00
 -1      1299 1.29900E+00 3.01375E+01 0.00000E+00
 -1      1300 1.29900E+00 3.16125E+01 0.00000E+00
 -1      1301 2.59800E+00 3.23500E+01 0.00000E+00
 -1      1302 1.29900E+00 2.71875E+01 0.00000E+00
 -1      1303 1.29900E+00 2.86625E+01 0.00000E+00
 -1      1304 2.59800E+00 2.94000E+01 0.00000E+00
 -1      1305 1.29900E+00 2.42375E+01 0.00000E+00
 -1      1306 1.29900E+00 2.57125E+01 0.00000E+00
 -1      1307 2.59800E+00 2.64500E+01 0.00000E+00
 -1      1308 1.29900E+00 2.12875E+01 0.00000E+00
 -1      1309 1.29900E+00 2.27625E+01 0.00000E+00
 -1      1310 2.59800E+00 2.35000E+01 0.00000E+00
 -1      1311 1.29900E+00 1.83375E+01 0.00000E+00
 -1      1312 1.29900E+00 1.98125E+01 0.00000E+00
 -1      1313 2.59800E+00 2.05500E+01 0.00000E+00
 -1      1314 1.29900E+00 1.54375E+01 0.00000E+00
 -1      1315 1.29900E+00 1.68875E+01 0.00000E+00
 -1      1316 2.59800E+00 1.76250E+01 0.00000E+00
 -1      1317 1.29900E+00 1.24875E+01 0.00000E+00
 -1      1318 1.29900E+00 1.39625E+01 0.00000E+00
 -1      1319 2.59800E+00 1.47000E+01 0.00000E+00
 -1      1320 1.29900E+00 9.53750E+00 0.00000E+00
 -1      1321 1.29900E+00 1.10125E+01 0.00000E+00
 -1      1322 2.59800E+00 1.17500E+01 0.00000E+00
 -1      1323 1.29900E+00 6.58750E+00 0.00000E+00
 -1      1324 1.29900E+00 8.06250E+00 0.00000E+00
 -1      1325 2.59800E+00 8.80000E+00 0.00000E+00
 -1      1326 1.29900E+00 3.63750E+00 0.00000E+00
 -1      1327 1.29900E+00 5.11250E+00 0.00000E+00
 -1      1328 2.59800E+00 5.85000E+00 0.00000E+00
 -1      1329 1.43700E+00 1.09375E+00 0.00000E+00
 -1      1330 1.43700E+00 2.54375E+00 0.00000E+00
 -1      1331 2.73600E+00 3.28125E+00 0.00000E+00
 -1      1332 3.01200E+00 1.09375E+00 0.00000E+00
 -1      1333 3.90000E+00 4.87010E+01 0.00000E+00
 -1      1334 5.40000E+00 4.87010E+01 0.00000E+00
 -1      1335 6.90000E+00 4.87010E+01 0.00000E+00
 -1      1336 8.40000E+00 4.87010E+01 0.00000E+00
 -1      1337 6.15000E+00 4.74020E+01 0.00000E+00
 -1      1338 9.90000E+00 4.87010E+01 0.00000E+00
 -1      1339 1.14000E+01 4.87010E+01 0.00000E+00
 -1      1340 9.15000E+00 4.74020E+01 0.00000E+00
 -1      1341 1.29000E+01 4.87010E+01 0.00000E+00
 -1      1342 1.44000E+01 4.87010E+01 0.00000E+00
 -1      1343 1.21500E+01 4.74020E+01 0.00000E+00
 -1      1344 1.59000E+01 4.87010E+01 0.00000E+00
 -1      1345 1.74000E+01 4.87010E+01 0.00000E+00
 -1      1346 1.51500E+01 4.74020E+01 0.00000E+00
 -1      1347 1.89000E+01 4.87010E+01 0.00000E+00
 -1      1348 2.04000E+01 4.87010E+01 0.00000E+00
 -1      1349 1.81500E+01 4.74020E+01 0.00000E+00
 -1      1350 2.19000E+01 4.87010E+01 0.00000E+00
 -1      1351 2.34000E+01 4.87010E+01 0.00000E+00
 -1      1352 2.11500E+01 4.74020E+01 0.00000E+00
 -1      1353 2.49000E+01 4.87010E+01 0.00000E+00
 -1      1354 2.64000E+01 4.87010E+01 0.00000E+00
 -1      1355 2.41500E+01 4.74020E+01 0.00000E+00
 -1      1356 2.79000E+01 4.87010E+01 0.00000E+00
 -1      1357 2.94000E+01 4.87010E+01 0.00000E+00
 -1      1358 2.71500E+01 4.74020E+01 0.00000E+00
 -1      1359 3.09000E+01 4.87010E+01 0.00000E+00
 -1      1360 3.24000E+01 4.87010E+01 0.00000E+00
 -1      1361 3.01500E+01 4.74020E+01 0.00000E+00
 -1      1362 3.39000E+01 4.87010E+01 0.00000E+00
 -1      1363 3.54000E+01 4.87010E+01 0.00000E+00
 -1      1364 3.31500E+01 4.74020E+01 0.00000E+00
 -1      1365 3.69000E+01 4.87010E+01 0.00000E+00
 -1      1366 3.84000E+01 4.87010E+01 0.00000E+00
 -1      1367 3.61500E+01 4.74020E+01 0.00000E+00
 -1      1368 3.99000E+01 4.87010E+01 0.00000E+00
 -1      1369 4.14000E+01 4.87010E+01 0.00000E+00
 -1      1370 3.91500E+01 4.74020E+01 0.00000E+00
 -1      1371 4.29000E+01 4.87010E+01 0.00000E+00
 -1      1372 4.44000E+01 4.87010E+01 0.00000E+00
 -1      1373 4.21500E+01 4.74020E+01 0.00000E+00
 -1      1374 4.59000E+01 4.87010E+01 0.00000E+00
 -1      1375 4.74000E+01 4.87010E+01 0.00000E+00
 -1      1376 4.51500E+01 4.74020E+01 0.00000E+00
 -1      1377 4.89000E+01 4.87010E+01 0.00000E+00
 -1      1378 5.04000E+01 4.87010E+01 0.00000E+00
 -1      1379 4.81500E+01 4.74020E+01 0.00000E+00
 -1      1380 5.19000E+01 4.87010E+01 0.00000E+00
 -1      1381 5.34000E+01 4.87010E+01 0.00000E+00
 -1      1382 5.11500E+01 4.74020E+01 0.00000E+00
 -1      1383 5.49000E+01 4.87010E+01 0.00000E+00
 -1      1384 5.64000E+01 4.87010E+01 0.00000E+00
 -1      1385 5.41500E+01 4.74020E+01 0.00000E+00
 -1      1386 5.79000E+01 4.87010E+01 0.00000E+00
 -1      1387 5.94000E+01 4.87010E+01 0.00000E+00
 -1      1388 5.71500E+01 4.74020E+01 0.00000E+00
 -1      1389 6.09000E+01 4.87010E+01 0.00000E+00
 -1      1390 6.24000E+01 4.87010E+01 0.00000E+00
 -1      1391 6.01500E+01 4.74020E+01 0.00000E+00
 -1      1392 6.39000E+01 4.87010E+01 0.00000E+00
 -1      1393 6.54000E+01 4.87010E+01 0.00000E+00
 -1      1394 6.31500E+01 4.74020E+01 0.00000E+00
 -1      1395 6.69000E+01 4.87010E+01 0.00000E+00
 -1      1396 6.84000E+01 4.87010E+01 0.00000E+00
 -1      1397 6.61500E+01 4.74020E+01 0.00000E+00
 -1      1398 6.99000E+01 4.87010E+01 0.00000E+00
 -1      1399 7.14000E+01 4.87010E+01 0.00000E+00
 -1      1400 6.91500E+01 4.74020E+01 0.00000E+00
 -1      1401 7.29000E+01 4.87010E+01 0.00000E+00
 -1      1402 7.44000E+01 4.87010E+01 0.00000E+00
 -1      1403 7.21500E+01 4.74020E+01 0.00000E+00
 -1      1404 7.59000E+01 4.87010E+01 0.00000E+00
 -1      1405 7.74000E+01 4.87010E+01 0.00000E+00
 -1      1406 7.51500E+01 4.74020E+01 0.00000E+00
 -1      1407 7.89000E+01 4.87010E+01 0.00000E+00
 -1      1408 8.04000E+01 4.87010E+01 0.00000E+00
 -1      1409 7.81500E+01 4.74020E+01 0.00000E+00
 -1      1410 8.19000E+01 4.87010E+01 0.00000E+00
 -1      1411 8.34000E+01 4.87010E+01 0.00000E+00
 -1      1412 8.11500E+01 4.74020E+01 0.00000E+00
 -1      1413 8.49000E+01 4.87010E+01 0.00000E+00
 -1      1414 8.64000E+01 4.87010E+01 0.00000E+00
 -1      1415 8.41500E+01 4.74020E+01 0.00000E+00
 -1      1416 8.79000E+01 4.87010E+01 0.00000E+00
 -1      1417 8.94000E+01 4.87010E+01 0.00000E+00
 -1      1418 8.71500E+01 4.74020E+01 0.00000E+00
 -1      1419 9.09000E+01 4.87010E+01 0.00000E+00
 -1      1420 9.24000E+01 4.87010E+01 0.00000E+00
 -1      1421 9.01500E+01 4.74020E+01 0.00000E+00
 -1      1422 9.39000E+01 4.87010E+01 0.00000E+00
 -1      1423 9.54000E+01 4.87010E+01 0.00000E+00
 -1      1424 9.31500E+01 4.74020E+01 0.00000E+00
 -1      1425 9.69000E+01 4.87010E+01 0.00000E+00
 -1      1426 9.84000E+01 4.87010E+01 0.00000E+00
 -1      1427 9.61500E+01 4.74020E+01 0.00000E+00
 -1      1428 9.99000E+01 4.87010E+01 0.00000E+00
 -1      1429 1.01400E+02 4.87010E+01 0.00000E+00
 -1      1430 9.91500E+01 4.74020E+01 0.00000E+00
 -1      1431 1.02900E+02 4.87010E+01 0.00000E+00
 -1      1432 1.04400E+02 4.87010E+01 0.00000E+00
 -1      1433 1.02150E+02 4.74020E+01 0.00000E+00
 -1      1434 1.05900E+02 4.87010E+01 0.00000E+00
 -1      1435 1.07400E+02 4.87010E+01 0.00000E+00
 -1      1436 1.05150E+02 4.74020E+01 0.00000E+00
 -1      1437 1.08900E+02 4.87010E+01 0.00000E+00
 -1      1438 1.10400E+02 4.87010E+01 0.00000E+00
 -1      1439 1.08150E+02 4.74020E+01 0.00000E+00
 -1      1440 1.11900E+02 4.87010E+01 0.00000E+00
 -1      1441 1.13400E+02 4.87010E+01 0.00000E+00
 -1      1442 1.11150E+02 4.74020E+01 0.00000E+00
 -1      1443 1.14900E+02 4.87010E+01 0.00000E+00
 -1      1444 1.16400E+02 4.87010E+01 0.00000E+00
 -1      1445 1.14150E+02 4.74020E+01 0.00000E+00
 -1      1446 1.17900E+02 4.87010E+01 0.00000E+00
 -1      1447 1.19400E+02 4.87010E+01 0.00000E+00
 -1      1448 1.17150E+02 4.74020E+01 0.00000E+00
 -1      1449 1.20900E+02 4.87010E+01 0.00000E+00
 -1      1450 1.22400E+02 4.87010E+01 0.00000E+00
 -1      1451 1.20150E+02 4.74020E+01 0.00000E+00
 -1      1452 1.23900E+02 4.87010E+01 0.00000E+00
 -1      1453 1.25400E+02 4.87010E+01 0.00000E+00
 -1      1454 1.23150E+02 4.74020E+01 0.00000E+00
 -1      1455 1.26900E+02 4.87010E+01 0.00000E+00
 -1      1456 1.28400E+02 4.87010E+01 0.00000E+00
 -1      1457 1.26150E+02 4.74020E+01 0.00000E+00
 -1      1458 1.29900E+02 4.87010E+01 0.00000E+00
 -1      1459 1.31400E+02 4.87010E+01 0.00000E+00
 -1      1460 1.29150E+02 4.74020E+01 0.00000E+00
 -1      1461 1.32900E+02 4.87010E+01 0.00000E+00
 -1      1462 1.34400E+02 4.87010E+01 0.00000E+00
 -1      1463 1.32150E+02 4.74020E+01 0.00000E+00
 -1      1464 1.35900E+02 4.87010E+01 0.00000E+00
 -1      1465 1.37400E+02 4.87010E+01 0.00000E+00
 -1      1466 1.35150E+02 4.74020E+01 0.00000E+00
 -1      1467 1.38900E+02 4.87010E+01 0.00000E+00
 -1      1468 1.40400E+02 4.87010E+01 0.00000E+00
 -1      1469 1.38150E+02 4.74020E+01 0.00000E+00
 -1      1470 1.41900E+02 4.87010E+01 0.00000E+00
 -1      1471 1.43400E+02 4.87010E+01 0.00000E+00
 -1      1472 1.41150E+02 4.74020E+01 0.00000E+00
 -1      1473 1.44900E+02 4.87010E+01 0.00000E+00
 -1      1474 1.46400E+02 4.87010E+01 0.00000E+00
 -1      1475 1.44150E+02 4.74020E+01 0.00000E+00
 -1      1476 1.48575E+02 4.85500E+01 0.00000E+00
 -1      1477 1.47825E+02 4.72510E+01 0.00000E+00
 -1      1478 6.01200E+00 1.09375E+00 0.00000E+00
 -1      1479 4.51200E+00 1.09375E+00 0.00000E+00
 -1      1480 4.37400E+00 2.18750E+00 0.00000E+00
 -1      1481 9.01200E+00 1.09375E+00 0.00000E+00
 -1      1482 7.51200E+00 1.09375E+00 0.00000E+00
 -1      1483 7.37400E+00 2.18750E+00 0.00000E+00
 -1      1484 1.20120E+01 1.09375E+00 0.00000E+00
 -1      1485 1.05120E+01 1.09375E+00 0.00000E+00
 -1      1486 1.03740E+01 2.18750E+00 0.00000E+00
 -1      1487 1.50120E+01 1.09375E+00 0.00000E+00
 -1      1488 1.35120E+01 1.09375E+00 0.00000E+00
 -1      1489 1.33740E+01 2.18750E+00 0.00000E+00
 -1      1490 1.80120E+01 1.09375E+00 0.00000E+00
 -1      1491 1.65120E+01 1.09375E+00 0.00000E+00
 -1      1492 1.63740E+01 2.18750E+00 0.00000E+00
 -1      1493 2.10120E+01 1.09375E+00 0.00000E+00
 -1      1494 1.95120E+01 1.09375E+00 0.00000E+00
 -1      1495 1.93740E+01 2.18750E+00 0.00000E+00
 -1      1496 2.40120E+01 1.09375E+00 0.00000E+00
 -1      1497 2.25120E+01 1.09375E+00 0.00000E+00
 -1      1498 2.23740E+01 2.18750E+00 0.00000E+00
 -1      1499 2.70120E+01 1.09375E+00 0.00000E+00
 -1      1500 2.55120E+01 1.09375E+00 0.00000E+00
 -1      1501 2.53740E+01 2.18750E+00 0.00000E+00
 -1      1502 3.00120E+01 1.09375E+00 0.00000E+00
 -1      1503 2.85120E+01 1.09375E+00 0.00000E+00
 -1      1504 2.83740E+01 2.18750E+00 0.00000E+00
 -1      1505 3.30120E+01 1.09375E+00 0.00000E+00
 -1      1506 3.15120E+01 1.09375E+00 0.00000E+00
 -1      1507 3.13740E+01 2.18750E+00 0.00000E+00
 -1      1508 3.60120E+01 1.09375E+00 0.00000E+00
 -1      1509 3.45120E+01 1.09375E+00 0.00000E+00
 -1      1510 3.43740E+01 2.18750E+00 0.00000E+00
 -1      1511 3.90120E+01 1.09375E+00 0.00000E+00
 -1      1512 3.75120E+01 1.09375E+00 0.00000E+00
 -1      1513 3.73740E+01 2.18750E+00 0.00000E+00
 -1      1514 4.20120E+01 1.09375E+00 0.00000E+00
 -1      1515 4.05120E+01 1.09375E+00 0.00000E+00
 -1      1516 4.03740E+01 2.18750E+00 0.00000E+00
 -1      1517 4.50120E+01 1.09375E+00 0.00000E+00
 -1      1518 4.35120E+01 1.09375E+00 0.00000E+00
 -1      1519 4.33740E+01 2.18750E+00 0.00000E+00
 -1      1520 4.80120E+01 1.09375E+00 0.00000E+00
 -1      1521 4.65120E+01 1.09375E+00 0.00000E+00
 -1      1522 4.63740E+01 2.18750E+00 0.00000E+00
 -1      1523 5.10120E+01 1.09375E+00 0.00000E+00
 -1      1524 4.95120E+01 1.09375E+00 0.00000E+00
 -1      1525 4.93740E+01 2.18750E+00 0.00000E+00
 -1      1526 5.40120E+01 1.09375E+00 0.00000E+00
 -1      1527 5.25120E+01 1.09375E+00 0.00000E+00
 -1      1528 5.23740E+01 2.18750E+00 0.00000E+00
 -1      1529 5.70120E+01 1.09375E+00 0.00000E+00
 -1      1530 5.55120E+01 1.09375E+00 0.00000E+00
 -1      1531 5.53740E+01 2.18750E+00 0.00000E+00
 -1      1532 6.00120E+01 1.09375E+00 0.00000E+00
 -1      1533 5.85120E+01 1.09375E+00 0.00000E+00
 -1      1534 5.83740E+01 2.18750E+00 0.00000E+00
 -1      1535 6.30120E+01 1.09375E+00 0.00000E+00
 -1      1536 6.15120E+01 1.09375E+00 0.00000E+00
 -1      1537 6.13740E+01 2.18750E+00 0.00000E+00
 -1      1538 6.60120E+01 1.09375E+00 0.00000E+00
 -1      1539 6.45120E+01 1.09375E+00 0.00000E+00
 -1      1540 6.43740E+01 2.18750E+00 0.00000E+00
 -1      1541 6.90120E+01 1.09375E+00 0.00000E+00
 -1      1542 6.75120E+01 1.09375E+00 0.00000E+00
 -1      1543 6.73740E+01 2.18750E+00 0.00000E+00
 -1      1544 7.20120E+01 1.09375E+00 0.00000E+00
 -1      1545 7.05120E+01 1.09375E+00 0.00000E+00
 -1      1546 7.03740E+01 2.18750E+00 0.00000E+00
 -1      1547 7.50120E+01 1.09375E+00 0.00000E+00
 -1      1548 7.35120E+01 1.09375E+00 0.00000E+00
 -1      1549 7.33740E+01 2.18750E+00 0.00000E+00
 -1      1550 7.80120E+01 1.09375E+00 0.00000E+00
 -1      1551 7.65120E+01 1.09375E+00 0.00000E+00
 -1      1552 7.63740E+01 2.18750E+00 0.00000E+00
 -1      1553 8.10120E+01 1.09375E+00 0.00000E+00
 -1      1554 7.95120E+01 1.09375E+00 0.00000E+00
 -1      1555 7.93740E+01 2.18750E+00 0.00000E+00
 -1      1556 8.40120E+01 1.09375E+00 0.00000E+00
 -1      1557 8.25120E+01 1.09375E+00 0.00000E+00
 -1      1558 8.23740E+01 2.18750E+00 0.00000E+00
 -1      1559 8.70120E+01 1.09375E+00 0.00000E+00
 -1      1560 8.55120E+01 1.09375E+00 0.00000E+00
 -1      1561 8.53740E+01 2.18750E+00 0.00000E+00
 -1      1562 9.00120E+01 1.09375E+00 0.00000E+00
 -1      1563 8.85120E+01 1.09375E+00 0.00000E+00
 -1      1564 8.83740E+01 2.18750E+00 0.00000E+00
 -1      1565 9.30120E+01 1.09375E+00 0.00000E+00
 -1      1566 9.15120E+01 1.09375E+00 0.00000E+00
 -1      1567 9.13740E+01 2.18750E+00 0.00000E+00
 -1      1568 9.60120E+01 1.09375E+00 0.00000E+00
 -1      1569 9.45120E+01 1.09375E+00 0.00000E+00
 -1      1570 9.43740E+01 2.18750E+00 0.00000E+00
 -1      1571 9.90120E+01 1.09375E+00 0.00000E+00
 -1      1572 9.75120E+01 1.09375E+00 0.00000E+00
 -1      1573 9.73740E+01 2.18750E+00 0.00000E+00
 -1      1574 1.02012E+02 1.09375E+00 0.00000E+00
 -1      1575 1.00512E+02 1.09375E+00 0.00000E+00
 -1      1576 1.00374E+02 2.18750E+00 0.00000E+00
 -1      1577 1.05012E+02 1.09375E+00 0.00000E+00
 -1      1578 1.03512E+02 1.09375E+00 0.00000E+00
 -1      1579 1.03374E+02 2.18750E+00 0.00000E+00
 -1      1580 1.08012E+02 1.09375E+00 0.00000E+00
 -1      1581 1.06512E+02 1.09375E+00 0.00000E+00
 -1      1582 1.06374E+02 2.18750E+00 0.00000E+00
 -1      1583 1.11012E+02 1.09375E+00 0.00000E+00
 -1      1584 1.09512E+02 1.09375E+00 0.00000E+00
 -1      1585 1.09374E+02 2.18750E+00 0.00000E+00
 -1      1586 1.14012E+02 1.09375E+00 0.00000E+00
 -1      1587 1.12512E+02 1.09375E+00 0.00000E+00
 -1      1588 1.12374E+02 2.18750E+00 0.00000E+00
 -1      1589 1.17012E+02 1.09375E+00 0.00000E+00
 -1      1590 1.15512E+02 1.09375E+00 0.00000E+00
 -1      1591 1.15374E+02 2.18750E+00 0.00000E+00
 -1      1592 1.20012E+02 1.09375E+00 0.00000E+00
 -1      1593 1.18512E+02 1.09375E+00 0.00000E+00
 -1      1594 1.18374E+02 2.18750E+00 0.00000E+00
 -1      1595 1.23012E+02 1.09375E+00 0.00000E+00
 -1      1596 1.21512E+02 1.09375E+00 0.00000E+00
 -1      1597 1.21374E+02 2.18750E+00 0.00000E+00
 -1      1598 1.26012E+02 1.09375E+00 0.00000E+00
 -1      1599 1.24512E+02 1.09375E+00 0.00000E+00
 -1      1600 1.24374E+02 2.18750E+00 0.00000E+00
 -1      1601 1.29012E+02 1.09375E+00 0.00000E+00
 -1      1602 1.27512E+02 1.09375E+00 0.00000E+00
 -1      1603 1.27374E+02 2.18750E+00 0.00000E+00
 -1      1604 1.32012E+02 1.09375E+00 0.00000E+00
 -1      1605 1.30512E+02 1.09375E+00 0.00000E+00
 -1      1606 1.30374E+02 2.18750E+00 0.00000E+00
 -1      1607 1.35012E+02 1.09375E+00 0.00000E+00
 -1      1608 1.33512E+02 1.09375E+00 0.00000E+00
 -1      1609 1.33374E+02 2.18750E+00 0.00000E+00
 -1      1610 1.38012E+02 1.09375E+00 0.00000E+00
 -1      1611 1.36512E+02 1.09375E+00 0.00000E+00
 -1      1612 1.36374E+02 2.18750E+00 0.00000E+00
 -1      1613 1.41012E+02 1.09375E+00 0.00000E+00
 -1      1614 1.39512E+02 1.09375E+00 0.00000E+00
 -1      1615 1.39374E+02 2.18750E+00 0.00000E+00
 -1      1616 1.44012E+02 1.09375E+00 0.00000E+00
 -1      1617 1.42512E+02 1.09375E+00 0.00000E+00
 -1      1618 1.42374E+02 2.18750E+00 0.00000E+00
 -1      1619 1.47012E+02 1.09375E+00 0.00000E+00
 -1      1620 1.45512E+02 1.09375E+00 0.00000E+00
 -1      1621 1.45374E+02 2.18750E+00 0.00000E+00
 -1      1622 1.48575E+02 1.47500E+00 0.00000E+00
 -1      1623 1.48701E+02 5.16250E+00 0.00000E+00
 -1      1624 1.48701E+02 3.68750E+00 0.00000E+00
 -1      1625 1.48701E+02 8.11250E+00 0.00000E+00
 -1      1626 1.48701E+02 6.63750E+00 0.00000E+00
 -1      1627 1.47402E+02 5.90000E+00 0.00000E+00
 -1      1628 1.48701E+02 1.10625E+01 0.00000E+00
 -1      1629 1.48701E+02 9.58750E+00 0.00000E+00
 -1      1630 1.47402E+02 8.85000E+00 0.00000E+00
 -1      1631 1.48701E+02 1.40125E+01 0.00000E+00
 -1      1632 1.48701E+02 1.25375E+01 0.00000E+00
 -1      1633 1.47402E+02 1.18000E+01 0.00000E+00
 -1      1634 1.48701E+02 1.69125E+01 0.00000E+00
 -1      1635 1.48701E+02 1.54625E+01 0.00000E+00
 -1      1636 1.47402E+02 1.47250E+01 0.00000E+00
 -1      1637 1.48701E+02 1.98625E+01 0.00000E+00
 -1      1638 1.48701E+02 1.83875E+01 0.00000E+00
 -1      1639 1.47402E+02 1.76500E+01 0.00000E+00
 -1      1640 1.48701E+02 2.28125E+01 0.00000E+00
 -1      1641 1.48701E+02 2.13375E+01 0.00000E+00
 -1      1642 1.47402E+02 2.06000E+01 0.00000E+00
 -1      1643 1.48701E+02 2.57625E+01 0.00000E+00
 -1      1644 1.48701E+02 2.42875E+01 0.00000E+00
 -1      1645 1.47402E+02 2.35500E+01 0.00000E+00
 -1      1646 1.48701E+02 2.87125E+01 0.00000E+00
 -1      1647 1.48701E+02 2.72375E+01 0.00000E+00
 -1      1648 1.47402E+02 2.65000E+01 0.00000E+00
 -1      1649 1.48701E+02 3.16625E+01 0.00000E+00
 -1      1650 1.48701E+02 3.01875E+01 0.00000E+00
 -1      1651 1.47402E+02 2.94500E+01 0.00000E+00
 -1      1652 1.48701E+02 3.45625E+01 0.00000E+00
 -1      1653 1.48701E+02 3.31125E+01 0.00000E+00
 -1      1654 1.47402E+02 3.23750E+01 0.00000E+00
 -1      1655 1.48701E+02 3.75125E+01 0.00000E+00
 -1      1656 1.48701E+02 3.60375E+01 0.00000E+00
 -1      1657 1.47402E+02 3.53000E+01 0.00000E+00
 -1      1658 1.48701E+02 4.04625E+01 0.00000E+00
 -1      1659 1.48701E+02 3.89875E+01 0.00000E+00
 -1      1660 1.47402E+02 3.82500E+01 0.00000E+00
 -1      1661 1.48701E+02 4.34125E+01 0.00000E+00
 -1      1662 1.48701E+02 4.19375E+01 0.00000E+00
 -1      1663 1.47402E+02 4.12000E+01 0.00000E+00
 -1      1664 1.48263E+02 4.60692E+01 0.00000E+00
 -1      1665 1.48263E+02 4.45942E+01 0.00000E+00
 -1      1666 1.46964E+02 4.38568E+01 0.00000E+00
 -1      1667 1.46088E+02 4.62202E+01 0.00000E+00
 -1      1668 4.61131E+01 2.39605E+01 0.00000E+00
 -1      1669 4.61816E+01 2.46498E+01 0.00000E+00
 -1      1670 4.57724E+01 2.24484E+01 0.00000E+00
 -1      1671 4.59871E+01 2.31384E+01 0.00000E+00
 -1      1672 4.50936E+01 2.09738E+01 0.00000E+00
 -1      1673 4.54629E+01 2.16296E+01 0.00000E+00
 -1      1674 4.40597E+01 1.97855E+01 0.00000E+00
 -1      1675 4.45284E+01 2.03176E+01 0.00000E+00
 -1      1676 4.28930E+01 1.87024E+01 0.00000E+00
 -1      1677 4.34865E+01 1.91455E+01 0.00000E+00
 -1      1678 4.14844E+01 1.79963E+01 0.00000E+00
 -1      1679 4.21318E+01 1.82958E+01 0.00000E+00
 -1      1680 3.99038E+01 1.75074E+01 0.00000E+00
 -1      1681 4.06608E+01 1.76768E+01 0.00000E+00
 -1      1682 3.83206E+01 1.74814E+01 0.00000E+00
 -1      1683 3.90265E+01 1.74871E+01 0.00000E+00
 -1      1684 3.67524E+01 1.76669E+01 0.00000E+00
 -1      1685 3.74741E+01 1.75219E+01 0.00000E+00
 -1      1686 3.51112E+01 1.81536E+01 0.00000E+00
 -1      1687 3.58405E+01 1.78296E+01 0.00000E+00
 -1      1688 3.36663E+01 1.91575E+01 0.00000E+00
 -1      1689 3.43020E+01 1.86781E+01 0.00000E+00
 -1      1690 3.26078E+01 2.04353E+01 0.00000E+00
 -1      1691 3.30875E+01 1.98710E+01 0.00000E+00
 -1      1692 3.17951E+01 2.17431E+01 0.00000E+00
 -1      1693 3.21299E+01 2.11279E+01 0.00000E+00
 -1      1694 3.11804E+01 2.32010E+01 0.00000E+00
 -1      1695 3.13932E+01 2.24946E+01 0.00000E+00
 -1      1696 3.10395E+01 2.47097E+01 0.00000E+00
 -1      1697 3.11005E+01 2.40357E+01 0.00000E+00
 -1      1698 3.09912E+01 2.63920E+01 0.00000E+00
 -1      1699 3.08936E+01 2.55942E+01 0.00000E+00
 -1      1700 3.15619E+01 2.79415E+01 0.00000E+00
 -1      1701 3.13188E+01 2.72563E+01 0.00000E+00
 -1      1702 3.23286E+01 2.92906E+01 0.00000E+00
 -1      1703 3.19604E+01 2.86852E+01 0.00000E+00
 -1      1704 3.33474E+01 3.06118E+01 0.00000E+00
 -1      1705 3.28030E+01 3.00400E+01 0.00000E+00
 -1      1706 3.46673E+01 3.15245E+01 0.00000E+00
 -1      1707 3.40756E+01 3.11242E+01 0.00000E+00
 -1      1708 3.60764E+01 3.21948E+01 0.00000E+00
 -1      1709 3.54074E+01 3.19205E+01 0.00000E+00
 -1      1710 3.76425E+01 3.26508E+01 0.00000E+00
 -1      1711 3.68938E+01 3.25171E+01 0.00000E+00
 -1      1712 3.93268E+01 3.27622E+01 0.00000E+00
 -1      1713 3.85563E+01 3.27950E+01 0.00000E+00
 -1      1714 4.09196E+01 3.22700E+01 0.00000E+00
 -1      1715 4.01965E+01 3.24624E+01 0.00000E+00
 -1      1716 4.24334E+01 3.16928E+01 0.00000E+00
 -1      1717 4.17711E+01 3.20323E+01 0.00000E+00
 -1      1718 4.36126E+01 3.07536E+01 0.00000E+00
 -1      1719 4.30902E+01 3.11725E+01 0.00000E+00
 -1      1720 4.47236E+01 2.96743E+01 0.00000E+00
 -1      1721 4.42575E+01 3.02334E+01 0.00000E+00
 -1      1722 4.54348E+01 2.83622E+01 0.00000E+00
 -1      1723 4.51182E+01 2.89481E+01 0.00000E+00
 -1      1724 4.59968E+01 2.69324E+01 0.00000E+00
 -1      1725 4.57853E+01 2.76244E+01 0.00000E+00
 -1      1726 4.61835E+01 2.54485E+01 0.00000E+00
 -1      1727 4.61186E+01 2.61198E+01 0.00000E+00
 -1      1728 4.41758E+01 1.90110E+01 0.00000E+00
 -1      1729 4.53142E+01 2.03071E+01 0.00000E+00
 -1      1730 1.48437E+02 2.56875E+00 0.00000E+00
 -1      1731 1.47138E+02 3.30625E+00 0.00000E+00
 -1      1732 4.66245E+01 2.34230E+01 0.00000E+00
 -1      1733 4.61890E+01 2.17820E+01 0.00000E+00
 -1      1734 4.67525E+01 2.50439E+01 0.00000E+00
 -1      1735 4.28414E+01 1.79645E+01 0.00000E+00
 -1      1736 4.12566E+01 1.72383E+01 0.00000E+00
 -1      1737 3.95557E+01 1.68984E+01 0.00000E+00
 -1      1738 3.78320E+01 1.69185E+01 0.00000E+00
 -1      1739 3.60737E+01 1.71217E+01 0.00000E+00
 -1      1740 3.43526E+01 1.78090E+01 0.00000E+00
 -1      1741 3.29646E+01 1.90470E+01 0.00000E+00
 -1      1742 3.19079E+01 2.04531E+01 0.00000E+00
 -1      1743 3.10281E+01 2.18973E+01 0.00000E+00
 -1      1744 3.05462E+01 2.34835E+01 0.00000E+00
 -1      1745 3.03203E+01 2.52026E+01 0.00000E+00
 -1      1746 3.05020E+01 2.69514E+01 0.00000E+00
 -1      1747 3.12281E+01 2.85592E+01 0.00000E+00
 -1      1748 3.21010E+01 3.00522E+01 0.00000E+00
 -1      1749 3.33036E+01 3.13141E+01 0.00000E+00
 -1      1750 3.47719E+01 3.22225E+01 0.00000E+00
 -1      1751 3.63294E+01 3.29409E+01 0.00000E+00
 -1      1752 3.80606E+01 3.34074E+01 0.00000E+00
 -1      1753 3.98442E+01 3.32519E+01 0.00000E+00
 -1      1754 4.15654E+01 3.27143E+01 0.00000E+00
 -1      1755 4.30738E+01 3.19563E+01 0.00000E+00
 -1      1756 4.43756E+01 3.09158E+01 0.00000E+00
 -1      1757 4.54152E+01 2.96695E+01 0.00000E+00
 -1      1758 4.61604E+01 2.82056E+01 0.00000E+00
 -1      1759 4.66326E+01 2.66552E+01 0.00000E+00
 -1      1760 2.87400E+00 4.77875E+01 0.00000E+00
 -1      1761 3.89700E+00 4.04125E+01 0.00000E+00
 -1      1762 3.89700E+00 4.18875E+01 0.00000E+00
 -1      1763 3.89700E+00 4.33625E+01 0.00000E+00
 -1      1764 3.89700E+00 4.48375E+01 0.00000E+00
 -1      1765 5.19600E+00 4.26250E+01 0.00000E+00
 -1      1766 3.89700E+00 3.45500E+01 0.00000E+00
 -1      1767 3.89700E+00 3.60000E+01 0.00000E+00
 -1      1768 3.89700E+00 3.16000E+01 0.00000E+00
 -1      1769 3.89700E+00 3.30750E+01 0.00000E+00
 -1      1770 5.19600E+00 3.38000E+01 0.00000E+00
 -1      1771 3.89700E+00 2.86500E+01 0.00000E+00
 -1      1772 3.89700E+00 3.01250E+01 0.00000E+00
 -1      1773 5.19600E+00 3.08500E+01 0.00000E+00
 -1      1774 3.89700E+00 2.57000E+01 0.00000E+00
 -1      1775 3.89700E+00 2.71750E+01 0.00000E+00
 -1      1776 5.19600E+00 2.79000E+01 0.00000E+00
 -1      1777 3.89700E+00 2.27500E+01 0.00000E+00
 -1      1778 3.89700E+00 2.42250E+01 0.00000E+00
 -1      1779 5.19600E+00 2.49500E+01 0.00000E+00
 -1      1780 3.89700E+00 1.98000E+01 0.00000E+00
 -1      1781 3.89700E+00 2.12750E+01 0.00000E+00
 -1      1782 5.19600E+00 2.20000E+01 0.00000E+00
 -1      1783 3.89700E+00 1.69000E+01 0.00000E+00
 -1      1784 3.89700E+00 1.83500E+01 0.00000E+00
 -1      1785 5.19600E+00 1.90750E+01 0.00000E+00
 -1      1786 3.89700E+00 1.39500E+01 0.00000E+00
 -1      1787 3.89700E+00 1.54250E+01 0.00000E+00
 -1      1788 5.19600E+00 1.61500E+01 0.00000E+00
 -1      1789 3.89700E+00 1.10000E+01 0.00000E+00
 -1      1790 3.89700E+00 1.24750E+01 0.00000E+00
 -1      1791 5.19600E+00 1.32000E+01 0.00000E+00
 -1      1792 3.89700E+00 8.05000E+00 0.00000E+00
 -1      1793 3.89700E+00 9.52500E+00 0.00000E+00
 -1      1794 5.19600E+00 1.02500E+01 0.00000E+00
 -1      1795 3.89700E+00 5.10000E+00 0.00000E+00
 -1      1796 3.89700E+00 6.57500E+00 0.00000E+00
 -1      1797 5.19600E+00 7.30000E+00 0.00000E+00
 -1      1798 4.20450E+00 3.09687E+00 0.00000E+00
 -1      1799 4.06650E+00 4.19063E+00 0.00000E+00
 -1      1800 5.36550E+00 4.91563E+00 0.00000E+00
 -1      1801 5.70450E+00 3.09687E+00 0.00000E+00
 -1      1802 3.62400E+00 4.64885E+01 0.00000E+00
 -1      1803 8.70450E+00 3.09687E+00 0.00000E+00
 -1      1804 7.20450E+00 3.09687E+00 0.00000E+00
 -1      1805 7.03500E+00 4.00625E+00 0.00000E+00
 -1      1806 4.92300E+00 4.57510E+01 0.00000E+00
 -1      1807 8.40000E+00 4.61030E+01 0.00000E+00
 -1      1808 9.90000E+00 4.61030E+01 0.00000E+00
 -1      1809 1.14000E+01 4.61030E+01 0.00000E+00
 -1      1810 1.29000E+01 4.61030E+01 0.00000E+00
 -1      1811 1.06500E+01 4.48040E+01 0.00000E+00
 -1      1812 1.44000E+01 4.61030E+01 0.00000E+00
 -1      1813 1.59000E+01 4.61030E+01 0.00000E+00
 -1      1814 1.36500E+01 4.48040E+01 0.00000E+00
 -1      1815 1.74000E+01 4.61030E+01 0.00000E+00
 -1      1816 1.89000E+01 4.61030E+01 0.00000E+00
 -1      1817 1.66500E+01 4.48040E+01 0.00000E+00
 -1      1818 2.04000E+01 4.61030E+01 0.00000E+00
 -1      1819 2.19000E+01 4.61030E+01 0.00000E+00
 -1      1820 1.96500E+01 4.48040E+01 0.00000E+00
 -1      1821 2.34000E+01 4.61030E+01 0.00000E+00
 -1      1822 2.49000E+01 4.61030E+01 0.00000E+00
 -1      1823 2.26500E+01 4.48040E+01 0.00000E+00
 -1      1824 2.64000E+01 4.61030E+01 0.00000E+00
 -1      1825 2.79000E+01 4.61030E+01 0.00000E+00
 -1      1826 2.56500E+01 4.48040E+01 0.00000E+00
 -1      1827 2.94000E+01 4.61030E+01 0.00000E+00
 -1      1828 3.09000E+01 4.61030E+01 0.00000E+00
 -1      1829 2.86500E+01 4.48040E+01 0.00000E+00
 -1      1830 3.24000E+01 4.61030E+01 0.00000E+00
 -1      1831 3.39000E+01 4.61030E+01 0.00000E+00
 -1      1832 3.16500E+01 4.48040E+01 0.00000E+00
 -1      1833 3.54000E+01 4.61030E+01 0.00000E+00
 -1      1834 3.69000E+01 4.61030E+01 0.00000E+00
 -1      1835 3.46500E+01 4.48040E+01 0.00000E+00
 -1      1836 3.84000E+01 4.61030E+01 0.00000E+00
 -1      1837 3.99000E+01 4.61030E+01 0.00000E+00
 -1      1838 3.76500E+01 4.48040E+01 0.00000E+00
 -1      1839 4.14000E+01 4.61030E+01 0.00000E+00
 -1      1840 4.29000E+01 4.61030E+01 0.00000E+00
 -1      1841 4.06500E+01 4.48040E+01 0.00000E+00
 -1      1842 4.44000E+01 4.61030E+01 0.00000E+00
 -1      1843 4.59000E+01 4.61030E+01 0.00000E+00
 -1      1844 4.36500E+01 4.48040E+01 0.00000E+00
 -1      1845 4.74000E+01 4.61030E+01 0.00000E+00
 -1      1846 4.89000E+01 4.61030E+01 0.00000E+00
 -1      1847 4.66500E+01 4.48040E+01 0.00000E+00
 -1      1848 5.04000E+01 4.61030E+01 0.00000E+00
 -1      1849 5.19000E+01 4.61030E+01 0.00000E+00
 -1      1850 4.96500E+01 4.48040E+01 0.00000E+00
 -1      1851 5.34000E+01 4.61030E+01 0.00000E+00
 -1      1852 5.49000E+01 4.61030E+01 0.00000E+00
 -1      1853 5.26500E+01 4.48040E+01 0.00000E+00
 -1      1854 5.64000E+01 4.61030E+01 0.00000E+00
 -1      1855 5.79000E+01 4.61030E+01 0.00000E+00
 -1      1856 5.56500E+01 4.48040E+01 0.00000E+00
 -1      1857 5.94000E+01 4.61030E+01 0.00000E+00
 -1      1858 6.09000E+01 4.61030E+01 0.00000E+00
 -1      1859 5.86500E+01 4.48040E+01 0.00000E+00
 -1      1860 6.24000E+01 4.61030E+01 0.00000E+00
 -1      1861 6.39000E+01 4.61030E+01 0.00000E+00
 -1      1862 6.16500E+01 4.48040E+01 0.00000E+00
 -1      1863 6.54000E+01 4.61030E+01 0.00000E+00
 -1      1864 6.69000E+01 4.61030E+01 0.00000E+00
 -1      1865 6.46500E+01 4.48040E+01 0.00000E+00
 -1      1866 6.84000E+01 4.61030E+01 0.00000E+00
 -1      1867 6.99000E+01 4.61030E+01 0.00000E+00
 -1      1868 6.76500E+01 4.48040E+01 0.00000E+00
 -1      1869 7.14000E+01 4.61030E+01 0.00000E+00
 -1      1870 7.29000E+01 4.61030E+01 0.00000E+00
 -1      1871 7.06500E+01 4.48040E+01 0.00000E+00
 -1      1872 7.44000E+01 4.61030E+01 0.00000E+00
 -1      1873 7.59000E+01 4.61030E+01 0.00000E+00
 -1      1874 7.36500E+01 4.48040E+01 0.00000E+00
 -1      1875 7.74000E+01 4.61030E+01 0.00000E+00
 -1      1876 7.89000E+01 4.61030E+01 0.00000E+00
 -1      1877 7.66500E+01 4.48040E+01 0.00000E+00
 -1      1878 8.04000E+01 4.61030E+01 0.00000E+00
 -1      1879 8.19000E+01 4.61030E+01 0.00000E+00
 -1      1880 7.96500E+01 4.48040E+01 0.00000E+00
 -1      1881 8.34000E+01 4.61030E+01 0.00000E+00
 -1      1882 8.49000E+01 4.61030E+01 0.00000E+00
 -1      1883 8.26500E+01 4.48040E+01 0.00000E+00
 -1      1884 8.64000E+01 4.61030E+01 0.00000E+00
 -1      1885 8.79000E+01 4.61030E+01 0.00000E+00
 -1      1886 8.56500E+01 4.48040E+01 0.00000E+00
 -1      1887 8.94000E+01 4.61030E+01 0.00000E+00
 -1      1888 9.09000E+01 4.61030E+01 0.00000E+00
 -1      1889 8.86500E+01 4.48040E+01 0.00000E+00
 -1      1890 9.24000E+01 4.61030E+01 0.00000E+00
 -1      1891 9.39000E+01 4.61030E+01 0.00000E+00
 -1      1892 9.16500E+01 4.48040E+01 0.00000E+00
 -1      1893 9.54000E+01 4.61030E+01 0.00000E+00
 -1      1894 9.69000E+01 4.61030E+01 0.00000E+00
 -1      1895 9.46500E+01 4.48040E+01 0.00000E+00
 -1      1896 9.84000E+01 4.61030E+01 0.00000E+00
 -1      1897 9.99000E+01 4.61030E+01 0.00000E+00
 -1      1898 9.76500E+01 4.48040E+01 0.00000E+00
 -1      1899 1.01400E+02 4.61030E+01 0.00000E+00
 -1      1900 1.02900E+02 4.61030E+01 0.00000E+00
 -1      1901 1.00650E+02 4.48040E+01 0.00000E+00
 -1      1902 1.04400E+02 4.61030E+01 0.00000E+00
 -1      1903 1.05900E+02 4.61030E+01 0.00000E+00
 -1      1904 1.03650E+02 4.48040E+01 0.00000E+00
 -1      1905 1.07400E+02 4.61030E+01 0.00000E+00
 -1      1906 1.08900E+02 4.61030E+01 0.00000E+00
 -1      1907 1.06650E+02 4.48040E+01 0.00000E+00
 -1      1908 1.10400E+02 4.61030E+01 0.00000E+00
 -1      1909 1.11900E+02 4.61030E+01 0.00000E+00
 -1      1910 1.09650E+02 4.48040E+01 0.00000E+00
 -1      1911 1.13400E+02 4.61030E+01 0.00000E+00
 -1      1912 1.14900E+02 4.61030E+01 0.00000E+00
 -1      1913 1.12650E+02 4.48040E+01 0.00000E+00
 -1      1914 1.16400E+02 4.61030E+01 0.00000E+00
 -1      1915 1.17900E+02 4.61030E+01 0.00000E+00
 -1      1916 1.15650E+02 4.48040E+01 0.00000E+00
 -1      1917 1.19400E+02 4.61030E+01 0.00000E+00
 -1      1918 1.20900E+02 4.61030E+01 0.00000E+00
 -1      1919 1.18650E+02 4.48040E+01 0.00000E+00
 -1      1920 1.22400E+02 4.61030E+01 0.00000E+00
 -1      1921 1.23900E+02 4.61030E+01 0.00000E+00
 -1      1922 1.21650E+02 4.48040E+01 0.00000E+00
 -1      1923 1.25400E+02 4.61030E+01 0.00000E+00
 -1      1924 1.26900E+02 4.61030E+01 0.00000E+00
 -1      1925 1.24650E+02 4.48040E+01 0.00000E+00
 -1      1926 1.28400E+02 4.61030E+01 0.00000E+00
 -1      1927 1.29900E+02 4.61030E+01 0.00000E+00
 -1      1928 1.27650E+02 4.48040E+01 0.00000E+00
 -1      1929 1.31400E+02 4.61030E+01 0.00000E+00
 -1      1930 1.32900E+02 4.61030E+01 0.00000E+00
 -1      1931 1.30650E+02 4.48040E+01 0.00000E+00
 -1      1932 1.34400E+02 4.61030E+01 0.00000E+00
 -1      1933 1.35900E+02 4.61030E+01 0.00000E+00
 -1      1934 1.33650E+02 4.48040E+01 0.00000E+00
 -1      1935 1.37400E+02 4.61030E+01 0.00000E+00
 -1      1936 1.38900E+02 4.61030E+01 0.00000E+00
 -1      1937 1.36650E+02 4.48040E+01 0.00000E+00
 -1      1938 1.40400E+02 4.61030E+01 0.00000E+00
 -1      1939 1.41900E+02 4.61030E+01 0.00000E+00
 -1      1940 1.39650E+02 4.48040E+01 0.00000E+00
 -1      1941 1.43244E+02 4.61616E+01 0.00000E+00
 -1      1942 1.44744E+02 4.61616E+01 0.00000E+00
 -1      1943 1.45182E+02 4.49799E+01 0.00000E+00
 -1      1944 1.42494E+02 4.48626E+01 0.00000E+00
 -1      1945 1.17045E+01 3.09687E+00 0.00000E+00
 -1      1946 1.02045E+01 3.09687E+00 0.00000E+00
 -1      1947 1.00350E+01 4.00625E+00 0.00000E+00
 -1      1948 1.47045E+01 3.09687E+00 0.00000E+00
 -1      1949 1.32045E+01 3.09687E+00 0.00000E+00
 -1      1950 1.30350E+01 4.00625E+00 0.00000E+00
 -1      1951 1.77045E+01 3.09687E+00 0.00000E+00
 -1      1952 1.62045E+01 3.09687E+00 0.00000E+00
 -1      1953 1.60350E+01 4.00625E+00 0.00000E+00
 -1      1954 2.07045E+01 3.09687E+00 0.00000E+00
 -1      1955 1.92045E+01 3.09687E+00 0.00000E+00
 -1      1956 1.90350E+01 4.00625E+00 0.00000E+00
 -1      1957 2.37045E+01 3.09687E+00 0.00000E+00
 -1      1958 2.22045E+01 3.09687E+00 0.00000E+00
 -1      1959 2.20350E+01 4.00625E+00 0.00000E+00
 -1      1960 2.67045E+01 3.09687E+00 0.00000E+00
 -1      1961 2.52045E+01 3.09687E+00 0.00000E+00
 -1      1962 2.50350E+01 4.00625E+00 0.00000E+00
 -1      1963 2.97045E+01 3.09687E+00 0.00000E+00
 -1      1964 2.82045E+01 3.09687E+00 0.00000E+00
 -1      1965 2.80350E+01 4.00625E+00 0.00000E+00
 -1      1966 3.27045E+01 3.09687E+00 0.00000E+00
 -1      1967 3.12045E+01 3.09687E+00 0.00000E+00
 -1      1968 3.10350E+01 4.00625E+00 0.00000E+00
 -1      1969 3.57045E+01 3.09687E+00 0.00000E+00
 -1      1970 3.42045E+01 3.09687E+00 0.00000E+00
 -1      1971 3.40350E+01 4.00625E+00 0.00000E+00
 -1      1972 3.87045E+01 3.09687E+00 0.00000E+00
 -1      1973 3.72045E+01 3.09687E+00 0.00000E+00
 -1      1974 3.70350E+01 4.00625E+00 0.00000E+00
 -1      1975 4.17045E+01 3.09687E+00 0.00000E+00
 -1      1976 4.02045E+01 3.09687E+00 0.00000E+00
 -1      1977 4.00350E+01 4.00625E+00 0.00000E+00
 -1      1978 4.47045E+01 3.09687E+00 0.00000E+00
 -1      1979 4.32045E+01 3.09687E+00 0.00000E+00
 -1      1980 4.30350E+01 4.00625E+00 0.00000E+00
 -1      1981 4.77045E+01 3.09687E+00 0.00000E+00
 -1      1982 4.62045E+01 3.09687E+00 0.00000E+00
 -1      1983 4.60350E+01 4.00625E+00 0.00000E+00
 -1      1984 5.07045E+01 3.09687E+00 0.00000E+00
 -1      1985 4.92045E+01 3.09687E+00 0.00000E+00
 -1      1986 4.90350E+01 4.00625E+00 0.00000E+00
 -1      1987 5.37045E+01 3.09687E+00 0.00000E+00
 -1      1988 5.22045E+01 3.09687E+00 0.00000E+00
 -1      1989 5.20350E+01 4.00625E+00 0.00000E+00
 -1      1990 5.67045E+01 3.09687E+00 0.00000E+00
 -1      1991 5.52045E+01 3.09687E+00 0.00000E+00
 -1      1992 5.50350E+01 4.00625E+00 0.00000E+00
 -1      1993 5.97045E+01 3.09687E+00 0.00000E+00
 -1      1994 5.82045E+01 3.09687E+00 0.00000E+00
 -1      1995 5.80350E+01 4.00625E+00 0.00000E+00
 -1      1996 6.27045E+01 3.09687E+00 0.00000E+00
 -1      1997 6.12045E+01 3.09687E+00 0.00000E+00
 -1      1998 6.10350E+01 4.00625E+00 0.00000E+00
 -1      1999 6.57045E+01 3.09687E+00 0.00000E+00
 -1      2000 6.42045E+01 3.09687E+00 0.00000E+00
 -1      2001 6.40350E+01 4.00625E+00 0.00000E+00
 -1      2002 6.87045E+01 3.09687E+00 0.00000E+00
 -1      2003 6.72045E+01 3.09687E+00 0.00000E+00
 -1      2004 6.70350E+01 4.00625E+00 0.00000E+00
 -1      2005 7.17045E+01 3.09687E+00 0.00000E+00
 -1      2006 7.02045E+01 3.09687E+00 0.00000E+00
 -1      2007 7.00350E+01 4.00625E+00 0.00000E+00
 -1      2008 7.47045E+01 3.09687E+00 0.00000E+00
 -1      2009 7.32045E+01 3.09687E+00 0.00000E+00
 -1      2010 7.30350E+01 4.00625E+00 0.00000E+00
 -1      2011 7.77045E+01 3.09687E+00 0.00000E+00
 -1      2012 7.62045E+01 3.09687E+00 0.00000E+00
 -1      2013 7.60350E+01 4.00625E+00 0.00000E+00
 -1      2014 8.07045E+01 3.09687E+00 0.00000E+00
 -1      2015 7.92045E+01 3.09687E+00 0.00000E+00
 -1      2016 7.90350E+01 4.00625E+00 0.00000E+00
 -1      2017 8.37045E+01 3.09687E+00 0.00000E+00
 -1      2018 8.22045E+01 3.09687E+00 0.00000E+00
 -1      2019 8.20350E+01 4.00625E+00 0.00000E+00
 -1      2020 8.67045E+01 3.09687E+00 0.00000E+00
 -1      2021 8.52045E+01 3.09687E+00 0.00000E+00
 -1      2022 8.50350E+01 4.00625E+00 0.00000E+00
 -1      2023 8.97045E+01 3.09687E+00 0.00000E+00
 -1      2024 8.82045E+01 3.09687E+00 0.00000E+00
 -1      2025 8.80350E+01 4.00625E+00 0.00000E+00
 -1      2026 9.27045E+01 3.09687E+00 0.00000E+00
 -1      2027 9.12045E+01 3.09687E+00 0.00000E+00
 -1      2028 9.10350E+01 4.00625E+00 0.00000E+00
 -1      2029 9.57045E+01 3.09687E+00 0.00000E+00
 -1      2030 9.42045E+01 3.09687E+00 0.00000E+00
 -1      2031 9.40350E+01 4.00625E+00 0.00000E+00
 -1      2032 9.87045E+01 3.09687E+00 0.00000E+00
 -1      2033 9.72045E+01 3.09687E+00 0.00000E+00
 -1      2034 9.70350E+01 4.00625E+00 0.00000E+00
 -1      2035 1.01704E+02 3.09687E+00 0.00000E+00
 -1      2036 1.00204E+02 3.09687E+00 0.00000E+00
 -1      2037 1.00035E+02 4.00625E+00 0.00000E+00
 -1      2038 1.04704E+02 3.09687E+00 0.00000E+00
 -1      2039 1.03204E+02 3.09687E+00 0.00000E+00
 -1      2040 1.03035E+02 4.00625E+00 0.00000E+00
 -1      2041 1.07704E+02 3.09687E+00 0.00000E+00
 -1      2042 1.06204E+02 3.09687E+00 0.00000E+00
 -1      2043 1.06035E+02 4.00625E+00 0.00000E+00
 -1      2044 1.10704E+02 3.09687E+00 0.00000E+00
 -1      2045 1.09204E+02 3.09687E+00 0.00000E+00
 -1      2046 1.09035E+02 4.00625E+00 0.00000E+00
 -1      2047 1.13704E+02 3.09687E+00 0.00000E+00
 -1      2048 1.12204E+02 3.09687E+00 0.00000E+00
 -1      2049 1.12035E+02 4.00625E+00 0.00000E+00
 -1      2050 1.16704E+02 3.09687E+00 0.00000E+00
 -1      2051 1.15204E+02 3.09687E+00 0.00000E+00
 -1      2052 1.15035E+02 4.00625E+00 0.00000E+00
 -1      2053 1.19704E+02 3.09687E+00 0.00000E+00
 -1      2054 1.18204E+02 3.09687E+00 0.00000E+00
 -1      2055 1.18035E+02 4.00625E+00 0.00000E+00
 -1      2056 1.22704E+02 3.09687E+00 0.00000E+00
 -1      2057 1.21204E+02 3.09687E+00 0.00000E+00
 -1      2058 1.21035E+02 4.00625E+00 0.00000E+00
 -1      2059 1.25704E+02 3.09687E+00 0.00000E+00
 -1      2060 1.24204E+02 3.09687E+00 0.00000E+00
 -1      2061 1.24035E+02 4.00625E+00 0.00000E+00
 -1      2062 1.28704E+02 3.09687E+00 0.00000E+00
 -1      2063 1.27204E+02 3.09687E+00 0.00000E+00
 -1      2064 1.27035E+02 4.00625E+00 0.00000E+00
 -1      2065 1.31704E+02 3.09687E+00 0.00000E+00
 -1      2066 1.30204E+02 3.09687E+00 0.00000E+00
 -1      2067 1.30035E+02 4.00625E+00 0.00000E+00
 -1      2068 1.34704E+02 3.09687E+00 0.00000E+00
 -1      2069 1.33204E+02 3.09687E+00 0.00000E+00
 -1      2070 1.33035E+02 4.00625E+00 0.00000E+00
 -1      2071 1.37704E+02 3.09687E+00 0.00000E+00
 -1      2072 1.36204E+02 3.09687E+00 0.00000E+00
 -1      2073 1.36035E+02 4.00625E+00 0.00000E+00
 -1      2074 1.40704E+02 3.09687E+00 0.00000E+00
 -1      2075 1.39204E+02 3.09687E+00 0.00000E+00
 -1      2076 1.39035E+02 4.00625E+00 0.00000E+00
 -1      2077 1.43704E+02 3.09687E+00 0.00000E+00
 -1      2078 1.42204E+02 3.09687E+00 0.00000E+00
 -1      2079 1.42035E+02 4.00625E+00 0.00000E+00
 -1      2080 1.46171E+02 3.20156E+00 0.00000E+00
 -1      2081 1.44671E+02 3.20156E+00 0.00000E+00
 -1      2082 1.44502E+02 4.11094E+00 0.00000E+00
 -1      2083 1.46435E+02 4.32031E+00 0.00000E+00
 -1      2084 1.46103E+02 1.25375E+01 0.00000E+00
 -1      2085 1.46103E+02 1.10625E+01 0.00000E+00
 -1      2086 1.46103E+02 9.58750E+00 0.00000E+00
 -1      2087 1.46103E+02 8.11250E+00 0.00000E+00
 -1      2088 1.44804E+02 1.03250E+01 0.00000E+00
 -1      2089 1.46269E+02 6.95391E+00 0.00000E+00
 -1      2090 1.46269E+02 5.47891E+00 0.00000E+00
 -1      2091 1.45302E+02 5.37422E+00 0.00000E+00
 -1      2092 1.44970E+02 7.69141E+00 0.00000E+00
 -1      2093 1.46103E+02 1.54375E+01 0.00000E+00
 -1      2094 1.46103E+02 1.39875E+01 0.00000E+00
 -1      2095 1.44804E+02 1.32500E+01 0.00000E+00
 -1      2096 1.46103E+02 1.83875E+01 0.00000E+00
 -1      2097 1.46103E+02 1.69125E+01 0.00000E+00
 -1      2098 1.44804E+02 1.61750E+01 0.00000E+00
 -1      2099 1.46103E+02 2.13375E+01 0.00000E+00
 -1      2100 1.46103E+02 1.98625E+01 0.00000E+00
 -1      2101 1.44804E+02 1.91250E+01 0.00000E+00
 -1      2102 1.46103E+02 2.42875E+01 0.00000E+00
 -1      2103 1.46103E+02 2.28125E+01 0.00000E+00
 -1      2104 1.44804E+02 2.20750E+01 0.00000E+00
 -1      2105 1.46103E+02 2.72375E+01 0.00000E+00
 -1      2106 1.46103E+02 2.57625E+01 0.00000E+00
 -1      2107 1.44804E+02 2.50250E+01 0.00000E+00
 -1      2108 1.46103E+02 3.01875E+01 0.00000E+00
 -1      2109 1.46103E+02 2.87125E+01 0.00000E+00
 -1      2110 1.44804E+02 2.79750E+01 0.00000E+00
 -1      2111 1.46103E+02 3.30875E+01 0.00000E+00
 -1      2112 1.46103E+02 3.16375E+01 0.00000E+00
 -1      2113 1.44804E+02 3.09000E+01 0.00000E+00
 -1      2114 1.46103E+02 3.60375E+01 0.00000E+00
 -1      2115 1.46103E+02 3.45625E+01 0.00000E+00
 -1      2116 1.44804E+02 3.38250E+01 0.00000E+00
 -1      2117 1.46103E+02 3.89875E+01 0.00000E+00
 -1      2118 1.46103E+02 3.75125E+01 0.00000E+00
 -1      2119 1.44804E+02 3.67750E+01 0.00000E+00
 -1      2120 1.46103E+02 4.19375E+01 0.00000E+00
 -1      2121 1.46103E+02 4.04625E+01 0.00000E+00
 -1      2122 1.44804E+02 3.97250E+01 0.00000E+00
 -1      2123 4.67188E+01 2.11138E+01 0.00000E+00
 -1      2124 4.70284E+01 2.19326E+01 0.00000E+00
 -1      2125 4.74834E+01 2.46428E+01 0.00000E+00
 -1      2126 4.74853E+01 2.54414E+01 0.00000E+00
 -1      2127 4.72436E+01 2.29074E+01 0.00000E+00
 -1      2128 4.73696E+01 2.37296E+01 0.00000E+00
 -1      2129 4.55226E+01 1.95560E+01 0.00000E+00
 -1      2130 4.60879E+01 2.02121E+01 0.00000E+00
 -1      2131 4.44031E+01 1.82307E+01 0.00000E+00
 -1      2132 4.49763E+01 1.88706E+01 0.00000E+00
 -1      2133 3.89700E+00 3.74688E+01 0.00000E+00
 -1      2134 3.89700E+00 3.89437E+01 0.00000E+00
 -1      2135 5.19600E+00 3.96813E+01 0.00000E+00
 -1      2136 5.19600E+00 3.67438E+01 0.00000E+00
 -1      2137 4.11550E+01 1.62791E+01 0.00000E+00
 -1      2138 4.19786E+01 1.65986E+01 0.00000E+00
 -1      2139 3.91331E+01 1.61984E+01 0.00000E+00
 -1      2140 4.00104E+01 1.62188E+01 0.00000E+00
 -1      2141 3.73758E+01 1.62496E+01 0.00000E+00
 -1      2142 3.82222E+01 1.62091E+01 0.00000E+00
 -1      2143 3.54671E+01 1.63588E+01 0.00000E+00
 -1      2144 3.63790E+01 1.61961E+01 0.00000E+00
 -1      2145 3.35271E+01 1.74219E+01 0.00000E+00
 -1      2146 3.43363E+01 1.68974E+01 0.00000E+00
 -1      2147 3.21394E+01 1.89691E+01 0.00000E+00
 -1      2148 3.27182E+01 1.82556E+01 0.00000E+00
 -1      2149 3.11011E+01 2.04076E+01 0.00000E+00
 -1      2150 3.15789E+01 1.97150E+01 0.00000E+00
 -1      2151 3.01448E+01 2.19081E+01 0.00000E+00
 -1      2152 3.05468E+01 2.11566E+01 0.00000E+00
 -1      2153 2.98611E+01 2.38390E+01 0.00000E+00
 -1      2154 2.99410E+01 2.30044E+01 0.00000E+00
 -1      2155 2.95692E+01 2.56080E+01 0.00000E+00
 -1      2156 2.97151E+01 2.47235E+01 0.00000E+00
 -1      2157 2.91099E+01 2.42444E+01 0.00000E+00
 -1      2158 3.00598E+01 2.76132E+01 0.00000E+00
 -1      2159 2.97322E+01 2.67490E+01 0.00000E+00
 -1      2160 3.07453E+01 2.92965E+01 0.00000E+00
 -1      2161 3.03468E+01 2.85529E+01 0.00000E+00
 -1      2162 3.16942E+01 3.07953E+01 0.00000E+00
 -1      2163 3.12197E+01 3.00459E+01 0.00000E+00
 -1      2164 3.03385E+01 3.00395E+01 0.00000E+00
 -1      2165 3.32706E+01 3.21345E+01 0.00000E+00
 -1      2166 3.25424E+01 3.16221E+01 0.00000E+00
 -1      2167 3.47768E+01 3.31028E+01 0.00000E+00
 -1      2168 3.40367E+01 3.27067E+01 0.00000E+00
 -1      2169 3.64850E+01 3.37439E+01 0.00000E+00
 -1      2170 3.56676E+01 3.34216E+01 0.00000E+00
 -1      2171 3.83969E+01 3.42439E+01 0.00000E+00
 -1      2172 3.74831E+01 3.40996E+01 0.00000E+00
 -1      2173 4.05312E+01 3.38335E+01 0.00000E+00
 -1      2174 3.96615E+01 3.41333E+01 0.00000E+00
 -1      2175 4.22343E+01 3.33580E+01 0.00000E+00
 -1      2176 4.13828E+01 3.35957E+01 0.00000E+00
 -1      2177 4.12001E+01 3.44772E+01 0.00000E+00
 -1      2178 4.38307E+01 3.22370E+01 0.00000E+00
 -1      2179 4.31738E+01 3.27573E+01 0.00000E+00
 -1      2180 4.51206E+01 3.11966E+01 0.00000E+00
 -1      2181 4.44756E+01 3.17168E+01 0.00000E+00
 -1      2182 4.45756E+01 3.25178E+01 0.00000E+00
 -1      2183 4.61820E+01 2.96159E+01 0.00000E+00
 -1      2184 4.57873E+01 3.03420E+01 0.00000E+00
 -1      2185 4.68830E+01 2.81404E+01 0.00000E+00
 -1      2186 4.65325E+01 2.88781E+01 0.00000E+00
 -1      2187 4.69046E+01 2.95507E+01 0.00000E+00
 -1      2188 4.73635E+01 2.62541E+01 0.00000E+00
 -1      2189 4.72418E+01 2.70667E+01 0.00000E+00
 -1      2190 4.80945E+01 2.58529E+01 0.00000E+00
 -1      2191 4.27859E+01 1.71526E+01 0.00000E+00
 -1      2192 4.35471E+01 1.75592E+01 0.00000E+00
 -1      2193 4.57500E+01 1.87757E+01 0.00000E+00
 -1      2194 6.42300E+00 4.57510E+01 0.00000E+00
 -1      2195 4.43476E+01 1.74188E+01 0.00000E+00
 -1      2196 4.26843E+01 1.61933E+01 0.00000E+00
 -1      2197 7.17300E+00 4.44520E+01 0.00000E+00
 -1      2198 4.77734E+01 2.22392E+01 0.00000E+00
 -1      2199 4.81024E+01 2.41272E+01 0.00000E+00
 -1      2200 1.45665E+02 4.31193E+01 0.00000E+00
 -1      2201 4.69272E+01 2.03627E+01 0.00000E+00
 -1      2202 4.76139E+01 2.77392E+01 0.00000E+00
 -1      2203 4.58873E+01 3.11430E+01 0.00000E+00
 -1      2204 4.29911E+01 3.36387E+01 0.00000E+00
 -1      2205 3.90839E+01 3.48255E+01 0.00000E+00
 -1      2206 3.68213E+01 3.45803E+01 0.00000E+00
 -1      2207 3.49325E+01 3.39058E+01 0.00000E+00
 -1      2208 3.16612E+01 3.16158E+01 0.00000E+00
 -1      2209 2.91270E+01 2.62699E+01 0.00000E+00
 -1      2210 2.85218E+01 2.57908E+01 0.00000E+00
 -1      2211 2.86848E+01 2.69317E+01 0.00000E+00
 -1      2212 2.94597E+01 2.22637E+01 0.00000E+00
 -1      2213 3.02178E+01 2.04184E+01 0.00000E+00
 -1      2214 3.13325E+01 1.89235E+01 0.00000E+00
 -1      2215 3.27019E+01 1.73440E+01 0.00000E+00
 -1      2216 3.46416E+01 1.59718E+01 0.00000E+00
 -1      2217 3.67692E+01 1.54867E+01 0.00000E+00
 -1      2218 4.07323E+01 1.55791E+01 0.00000E+00
 -1      2219 3.86769E+01 1.55295E+01 0.00000E+00
 -1      2220 2.95770E+01 2.83505E+01 0.00000E+00
 -1      2221 3.32756E+01 3.30148E+01 0.00000E+00
 -1      2222 1.07850E+01 5.30525E+00 0.00000E+00
 -1      2223 9.28500E+00 5.30525E+00 0.00000E+00
 -1      2224 6.49500E+00 3.01125E+01 0.00000E+00
 -1      2225 6.49500E+00 3.15875E+01 0.00000E+00
 -1      2226 6.49500E+00 3.30625E+01 0.00000E+00
 -1      2227 6.49500E+00 3.45375E+01 0.00000E+00
 -1      2228 7.79400E+00 3.23250E+01 0.00000E+00
 -1      2229 6.49500E+00 2.42125E+01 0.00000E+00
 -1      2230 6.49500E+00 2.56875E+01 0.00000E+00
 -1      2231 6.49500E+00 2.12625E+01 0.00000E+00
 -1      2232 6.49500E+00 2.27375E+01 0.00000E+00
 -1      2233 7.79400E+00 2.34750E+01 0.00000E+00
 -1      2234 6.49500E+00 1.83625E+01 0.00000E+00
 -1      2235 6.49500E+00 1.98125E+01 0.00000E+00
 -1      2236 7.79400E+00 2.05500E+01 0.00000E+00
 -1      2237 6.49500E+00 1.54125E+01 0.00000E+00
 -1      2238 6.49500E+00 1.68875E+01 0.00000E+00
 -1      2239 7.79400E+00 1.76250E+01 0.00000E+00
 -1      2240 6.49500E+00 1.24625E+01 0.00000E+00
 -1      2241 6.49500E+00 1.39375E+01 0.00000E+00
 -1      2242 7.79400E+00 1.46750E+01 0.00000E+00
 -1      2243 6.49500E+00 9.51250E+00 0.00000E+00
 -1      2244 6.49500E+00 1.09875E+01 0.00000E+00
 -1      2245 7.79400E+00 1.17250E+01 0.00000E+00
 -1      2246 1.37850E+01 5.30525E+00 0.00000E+00
 -1      2247 1.22850E+01 5.30525E+00 0.00000E+00
 -1      2248 1.15350E+01 6.60425E+00 0.00000E+00
 -1      2249 9.90000E+00 4.35050E+01 0.00000E+00
 -1      2250 1.14000E+01 4.35050E+01 0.00000E+00
 -1      2251 4.43713E+01 1.65072E+01 0.00000E+00
 -1      2252 4.52273E+01 1.71787E+01 0.00000E+00
 -1      2253 1.29000E+01 4.35050E+01 0.00000E+00
 -1      2254 1.44000E+01 4.35050E+01 0.00000E+00
 -1      2255 1.21500E+01 4.22060E+01 0.00000E+00
 -1      2256 1.59000E+01 4.35050E+01 0.00000E+00
 -1      2257 1.74000E+01 4.35050E+01 0.00000E+00
 -1      2258 1.51500E+01 4.22060E+01 0.00000E+00
 -1      2259 1.89000E+01 4.35050E+01 0.00000E+00
 -1      2260 2.04000E+01 4.35050E+01 0.00000E+00
 -1      2261 1.81500E+01 4.22060E+01 0.00000E+00
 -1      2262 2.19000E+01 4.35050E+01 0.00000E+00
 -1      2263 2.34000E+01 4.35050E+01 0.00000E+00
 -1      2264 2.11500E+01 4.22060E+01 0.00000E+00
 -1      2265 2.49000E+01 4.35050E+01 0.00000E+00
 -1      2266 2.64000E+01 4.35050E+01 0.00000E+00
 -1      2267 2.41500E+01 4.22060E+01 0.00000E+00
 -1      2268 2.79000E+01 4.35050E+01 0.00000E+00
 -1      2269 2.94000E+01 4.35050E+01 0.00000E+00
 -1      2270 2.71500E+01 4.22060E+01 0.00000E+00
 -1      2271 3.09000E+01 4.35050E+01 0.00000E+00
 -1      2272 3.24000E+01 4.35050E+01 0.00000E+00
 -1      2273 3.01500E+01 4.22060E+01 0.00000E+00
 -1      2274 3.39000E+01 4.35050E+01 0.00000E+00
 -1      2275 3.54000E+01 4.35050E+01 0.00000E+00
 -1      2276 3.31500E+01 4.22060E+01 0.00000E+00
 -1      2277 3.69000E+01 4.35050E+01 0.00000E+00
 -1      2278 3.84000E+01 4.35050E+01 0.00000E+00
 -1      2279 3.61500E+01 4.22060E+01 0.00000E+00
 -1      2280 3.99000E+01 4.35050E+01 0.00000E+00
 -1      2281 4.14000E+01 4.35050E+01 0.00000E+00
 -1      2282 3.91500E+01 4.22060E+01 0.00000E+00
 -1      2283 4.29000E+01 4.35050E+01 0.00000E+00
 -1      2284 4.44000E+01 4.35050E+01 0.00000E+00
 -1      2285 4.21500E+01 4.22060E+01 0.00000E+00
 -1      2286 4.59000E+01 4.35050E+01 0.00000E+00
 -1      2287 4.74000E+01 4.35050E+01 0.00000E+00
 -1      2288 4.51500E+01 4.22060E+01 0.00000E+00
 -1      2289 4.89000E+01 4.35050E+01 0.00000E+00
 -1      2290 5.04000E+01 4.35050E+01 0.00000E+00
 -1      2291 4.81500E+01 4.22060E+01 0.00000E+00
 -1      2292 5.19000E+01 4.35050E+01 0.00000E+00
 -1      2293 5.34000E+01 4.35050E+01 0.00000E+00
 -1      2294 5.11500E+01 4.22060E+01 0.00000E+00
 -1      2295 5.49000E+01 4.35050E+01 0.00000E+00
 -1      2296 5.64000E+01 4.35050E+01 0.00000E+00
 -1      2297 5.41500E+01 4.22060E+01 0.00000E+00
 -1      2298 5.79000E+01 4.35050E+01 0.00000E+00
 -1      2299 5.94000E+01 4.35050E+01 0.00000E+00
 -1      2300 5.71500E+01 4.22060E+01 0.00000E+00
 -1      2301 6.09000E+01 4.35050E+01 0.00000E+00
 -1      2302 6.24000E+01 4.35050E+01 0.00000E+00
 -1      2303 6.01500E+01 4.22060E+01 0.00000E+00
 -1      2304 6.39000E+01 4.35050E+01 0.00000E+00
 -1      2305 6.54000E+01 4.35050E+01 0.00000E+00
 -1      2306 6.31500E+01 4.22060E+01 0.00000E+00
 -1      2307 6.69000E+01 4.35050E+01 0.00000E+00
 -1      2308 6.84000E+01 4.35050E+01 0.00000E+00
 -1      2309 6.61500E+01 4.22060E+01 0.00000E+00
 -1      2310 6.99000E+01 4.35050E+01 0.00000E+00
 -1      2311 7.14000E+01 4.35050E+01 0.00000E+00
 -1      2312 6.91500E+01 4.22060E+01 0.00000E+00
 -1      2313 7.29000E+01 4.35050E+01 0.00000E+00
 -1      2314 7.44000E+01 4.35050E+01 0.00000E+00
 -1      2315 7.21500E+01 4.22060E+01 0.00000E+00
 -1      2316 7.59000E+01 4.35050E+01 0.00000E+00
 -1      2317 7.74000E+01 4.35050E+01 0.00000E+00
 -1      2318 7.51500E+01 4.22060E+01 0.00000E+00
 -1      2319 7.89000E+01 4.35050E+01 0.00000E+00
 -1      2320 8.04000E+01 4.35050E+01 0.00000E+00
 -1      2321 7.81500E+01 4.22060E+01 0.00000E+00
 -1      2322 8.19000E+01 4.35050E+01 0.00000E+00
 -1      2323 8.34000E+01 4.35050E+01 0.00000E+00
 -1      2324 8.11500E+01 4.22060E+01 0.00000E+00
 -1      2325 8.49000E+01 4.35050E+01 0.00000E+00
 -1      2326 8.64000E+01 4.35050E+01 0.00000E+00
 -1      2327 8.41500E+01 4.22060E+01 0.00000E+00
 -1      2328 8.79000E+01 4.35050E+01 0.00000E+00
 -1      2329 8.94000E+01 4.35050E+01 0.00000E+00
 -1      2330 8.71500E+01 4.22060E+01 0.00000E+00
 -1      2331 9.09000E+01 4.35050E+01 0.00000E+00
 -1      2332 9.24000E+01 4.35050E+01 0.00000E+00
 -1      2333 9.01500E+01 4.22060E+01 0.00000E+00
 -1      2334 9.39000E+01 4.35050E+01 0.00000E+00
 -1      2335 9.54000E+01 4.35050E+01 0.00000E+00
 -1      2336 9.31500E+01 4.22060E+01 0.00000E+00
 -1      2337 9.69000E+01 4.35050E+01 0.00000E+00
 -1      2338 9.84000E+01 4.35050E+01 0.00000E+00
 -1      2339 9.61500E+01 4.22060E+01 0.00000E+00
 -1      2340 9.99000E+01 4.35050E+01 0.00000E+00
 -1      2341 1.01400E+02 4.35050E+01 0.00000E+00
 -1      2342 9.91500E+01 4.22060E+01 0.00000E+00
 -1      2343 1.02900E+02 4.35050E+01 0.00000E+00
 -1      2344 1.04400E+02 4.35050E+01 0.00000E+00
 -1      2345 1.02150E+02 4.22060E+01 0.00000E+00
 -1      2346 1.05900E+02 4.35050E+01 0.00000E+00
 -1      2347 1.07400E+02 4.35050E+01 0.00000E+00
 -1      2348 1.05150E+02 4.22060E+01 0.00000E+00
 -1      2349 1.08900E+02 4.35050E+01 0.00000E+00
 -1      2350 1.10400E+02 4.35050E+01 0.00000E+00
 -1      2351 1.08150E+02 4.22060E+01 0.00000E+00
 -1      2352 1.11900E+02 4.35050E+01 0.00000E+00
 -1      2353 1.13400E+02 4.35050E+01 0.00000E+00
 -1      2354 1.11150E+02 4.22060E+01 0.00000E+00
 -1      2355 1.14900E+02 4.35050E+01 0.00000E+00
 -1      2356 1.16400E+02 4.35050E+01 0.00000E+00
 -1      2357 1.14150E+02 4.22060E+01 0.00000E+00
 -1      2358 1.17900E+02 4.35050E+01 0.00000E+00
 -1      2359 1.19400E+02 4.35050E+01 0.00000E+00
 -1      2360 1.17150E+02 4.22060E+01 0.00000E+00
 -1      2361 1.20900E+02 4.35050E+01 0.00000E+00
 -1      2362 1.22400E+02 4.35050E+01 0.00000E+00
 -1      2363 1.20150E+02 4.22060E+01 0.00000E+00
 -1      2364 1.23900E+02 4.35050E+01 0.00000E+00
 -1      2365 1.25400E+02 4.35050E+01 0.00000E+00
 -1      2366 1.23150E+02 4.22060E+01 0.00000E+00
 -1      2367 1.26900E+02 4.35050E+01 0.00000E+00
 -1      2368 1.28400E+02 4.35050E+01 0.00000E+00
 -1      2369 1.26150E+02 4.22060E+01 0.00000E+00
 -1      2370 1.29900E+02 4.35050E+01 0.00000E+00
 -1      2371 1.31400E+02 4.35050E+01 0.00000E+00
 -1      2372 1.29150E+02 4.22060E+01 0.00000E+00
 -1      2373 1.32900E+02 4.35050E+01 0.00000E+00
 -1      2374 1.34400E+02 4.35050E+01 0.00000E+00
 -1      2375 1.32150E+02 4.22060E+01 0.00000E+00
 -1      2376 1.35900E+02 4.35050E+01 0.00000E+00
 -1      2377 1.37400E+02 4.35050E+01 0.00000E+00
 -1      2378 1.35150E+02 4.22060E+01 0.00000E+00
 -1      2379 1.38900E+02 4.35050E+01 0.00000E+00
 -1      2380 1.40400E+02 4.35050E+01 0.00000E+00
 -1      2381 1.38150E+02 4.22060E+01 0.00000E+00
 -1      2382 1.97850E+01 5.30525E+00 0.00000E+00
 -1      2383 1.82850E+01 5.30525E+00 0.00000E+00
 -1      2384 2.27850E+01 5.30525E+00 0.00000E+00
 -1      2385 2.12850E+01 5.30525E+00 0.00000E+00
 -1      2386 2.05350E+01 6.60425E+00 0.00000E+00
 -1      2387 2.57850E+01 5.30525E+00 0.00000E+00
 -1      2388 2.42850E+01 5.30525E+00 0.00000E+00
 -1      2389 2.35350E+01 6.60425E+00 0.00000E+00
 -1      2390 2.87850E+01 5.30525E+00 0.00000E+00
 -1      2391 2.72850E+01 5.30525E+00 0.00000E+00
 -1      2392 2.65350E+01 6.60425E+00 0.00000E+00
 -1      2393 3.17850E+01 5.30525E+00 0.00000E+00
 -1      2394 3.02850E+01 5.30525E+00 0.00000E+00
 -1      2395 2.95350E+01 6.60425E+00 0.00000E+00
 -1      2396 3.47850E+01 5.30525E+00 0.00000E+00
 -1      2397 3.32850E+01 5.30525E+00 0.00000E+00
 -1      2398 3.25350E+01 6.60425E+00 0.00000E+00
 -1      2399 3.77850E+01 5.30525E+00 0.00000E+00
 -1      2400 3.62850E+01 5.30525E+00 0.00000E+00
 -1      2401 3.55350E+01 6.60425E+00 0.00000E+00
 -1      2402 4.07850E+01 5.30525E+00 0.00000E+00
 -1      2403 3.92850E+01 5.30525E+00 0.00000E+00
 -1      2404 3.85350E+01 6.60425E+00 0.00000E+00
 -1      2405 4.37850E+01 5.30525E+00 0.00000E+00
 -1      2406 4.22850E+01 5.30525E+00 0.00000E+00
 -1      2407 4.15350E+01 6.60425E+00 0.00000E+00
 -1      2408 4.67850E+01 5.30525E+00 0.00000E+00
 -1      2409 4.52850E+01 5.30525E+00 0.00000E+00
 -1      2410 4.45350E+01 6.60425E+00 0.00000E+00
 -1      2411 4.97850E+01 5.30525E+00 0.00000E+00
 -1      2412 4.82850E+01 5.30525E+00 0.00000E+00
 -1      2413 4.75350E+01 6.60425E+00 0.00000E+00
 -1      2414 5.27850E+01 5.30525E+00 0.00000E+00
 -1      2415 5.12850E+01 5.30525E+00 0.00000E+00
 -1      2416 5.05350E+01 6.60425E+00 0.00000E+00
 -1      2417 5.57850E+01 5.30525E+00 0.00000E+00
 -1      2418 5.42850E+01 5.30525E+00 0.00000E+00
 -1      2419 5.35350E+01 6.60425E+00 0.00000E+00
 -1      2420 5.87850E+01 5.30525E+00 0.00000E+00
 -1      2421 5.72850E+01 5.30525E+00 0.00000E+00
 -1      2422 5.65350E+01 6.60425E+00 0.00000E+00
 -1      2423 6.17850E+01 5.30525E+00 0.00000E+00
 -1      2424 6.02850E+01 5.30525E+00 0.00000E+00
 -1      2425 5.95350E+01 6.60425E+00 0.00000E+00
 -1      2426 6.47850E+01 5.30525E+00 0.00000E+00
 -1      2427 6.32850E+01 5.30525E+00 0.00000E+00
 -1      2428 6.25350E+01 6.60425E+00 0.00000E+00
 -1      2429 6.77850E+01 5.30525E+00 0.00000E+00
 -1      2430 6.62850E+01 5.30525E+00 0.00000E+00
 -1      2431 6.55350E+01 6.60425E+00 0.00000E+00
 -1      2432 7.07850E+01 5.30525E+00 0.00000E+00
 -1      2433 6.92850E+01 5.30525E+00 0.00000E+00
 -1      2434 6.85350E+01 6.60425E+00 0.00000E+00
 -1      2435 7.37850E+01 5.30525E+00 0.00000E+00
 -1      2436 7.22850E+01 5.30525E+00 0.00000E+00
 -1      2437 7.15350E+01 6.60425E+00 0.00000E+00
 -1      2438 7.67850E+01 5.30525E+00 0.00000E+00
 -1      2439 7.52850E+01 5.30525E+00 0.00000E+00
 -1      2440 7.45350E+01 6.60425E+00 0.00000E+00
 -1      2441 7.97850E+01 5.30525E+00 0.00000E+00
 -1      2442 7.82850E+01 5.30525E+00 0.00000E+00
 -1      2443 7.75350E+01 6.60425E+00 0.00000E+00
 -1      2444 8.27850E+01 5.30525E+00 0.00000E+00
 -1      2445 8.12850E+01 5.30525E+00 0.00000E+00
 -1      2446 8.05350E+01 6.60425E+00 0.00000E+00
 -1      2447 8.57850E+01 5.30525E+00 0.00000E+00
 -1      2448 8.42850E+01 5.30525E+00 0.00000E+00
 -1      2449 8.35350E+01 6.60425E+00 0.00000E+00
 -1      2450 8.87850E+01 5.30525E+00 0.00000E+00
 -1      2451 8.72850E+01 5.30525E+00 0.00000E+00
 -1      2452 8.65350E+01 6.60425E+00 0.00000E+00
 -1      2453 9.17850E+01 5.30525E+00 0.00000E+00
 -1      2454 9.02850E+01 5.30525E+00 0.00000E+00
 -1      2455 8.95350E+01 6.60425E+00 0.00000E+00
 -1      2456 9.47850E+01 5.30525E+00 0.00000E+00
 -1      2457 9.32850E+01 5.30525E+00 0.00000E+00
 -1      2458 9.25350E+01 6.60425E+00 0.00000E+00
 -1      2459 9.77850E+01 5.30525E+00 0.00000E+00
 -1      2460 9.62850E+01 5.30525E+00 0.00000E+00
 -1      2461 9.55350E+01 6.60425E+00 0.00000E+00
 -1      2462 1.00785E+02 5.30525E+00 0.00000E+00
 -1      2463 9.92850E+01 5.30525E+00 0.00000E+00
 -1      2464 9.85350E+01 6.60425E+00 0.00000E+00
 -1      2465 1.03785E+02 5.30525E+00 0.00000E+00
 -1      2466 1.02285E+02 5.30525E+00 0.00000E+00
 -1      2467 1.01535E+02 6.60425E+00 0.00000E+00
 -1      2468 1.06785E+02 5.30525E+00 0.00000E+00
 -1      2469 1.05285E+02 5.30525E+00 0.00000E+00
 -1      2470 1.04535E+02 6.60425E+00 0.00000E+00
 -1      2471 1.09785E+02 5.30525E+00 0.00000E+00
 -1      2472 1.08285E+02 5.30525E+00 0.00000E+00
 -1      2473 1.07535E+02 6.60425E+00 0.00000E+00
 -1      2474 1.12785E+02 5.30525E+00 0.00000E+00
 -1      2475 1.11285E+02 5.30525E+00 0.00000E+00
 -1      2476 1.10535E+02 6.60425E+00 0.00000E+00
 -1      2477 1.15785E+02 5.30525E+00 0.00000E+00
 -1      2478 1.14285E+02 5.30525E+00 0.00000E+00
 -1      2479 1.13535E+02 6.60425E+00 0.00000E+00
 -1      2480 1.18785E+02 5.30525E+00 0.00000E+00
 -1      2481 1.17285E+02 5.30525E+00 0.00000E+00
 -1      2482 1.16535E+02 6.60425E+00 0.00000E+00
 -1      2483 1.21785E+02 5.30525E+00 0.00000E+00
 -1      2484 1.20285E+02 5.30525E+00 0.00000E+00
 -1      2485 1.19535E+02 6.60425E+00 0.00000E+00
 -1      2486 1.24785E+02 5.30525E+00 0.00000E+00
 -1      2487 1.23285E+02 5.30525E+00 0.00000E+00
 -1      2488 1.22535E+02 6.60425E+00 0.00000E+00
 -1      2489 1.27785E+02 5.30525E+00 0.00000E+00
 -1      2490 1.26285E+02 5.30525E+00 0.00000E+00
 -1      2491 1.25535E+02 6.60425E+00 0.00000E+00
 -1      2492 1.30785E+02 5.30525E+00 0.00000E+00
 -1      2493 1.29285E+02 5.30525E+00 0.00000E+00
 -1      2494 1.28535E+02 6.60425E+00 0.00000E+00
 -1      2495 1.33785E+02 5.30525E+00 0.00000E+00
 -1      2496 1.32285E+02 5.30525E+00 0.00000E+00
 -1      2497 1.31535E+02 6.60425E+00 0.00000E+00
 -1      2498 1.36785E+02 5.30525E+00 0.00000E+00
 -1      2499 1.35285E+02 5.30525E+00 0.00000E+00
 -1      2500 1.34535E+02 6.60425E+00 0.00000E+00
 -1      2501 1.39785E+02 5.30525E+00 0.00000E+00
 -1      2502 1.38285E+02 5.30525E+00 0.00000E+00
 -1      2503 1.37535E+02 6.60425E+00 0.00000E+00
 -1      2504 1.42785E+02 5.30525E+00 0.00000E+00
 -1      2505 1.41285E+02 5.30525E+00 0.00000E+00
 -1      2506 1.40535E+02 6.60425E+00 0.00000E+00
 -1      2507 1.44336E+02 5.26953E+00 0.00000E+00
 -1      2508 1.43505E+02 1.69125E+01 0.00000E+00
 -1      2509 1.43505E+02 1.54375E+01 0.00000E+00
 -1      2510 1.43505E+02 1.98625E+01 0.00000E+00
 -1      2511 1.43505E+02 1.83875E+01 0.00000E+00
 -1      2512 1.42206E+02 1.76500E+01 0.00000E+00
 -1      2513 1.43505E+02 1.10625E+01 0.00000E+00
 -1      2514 1.43505E+02 9.58750E+00 0.00000E+00
 -1      2515 1.43505E+02 1.39750E+01 0.00000E+00
 -1      2516 1.43505E+02 1.25250E+01 0.00000E+00
 -1      2517 1.42206E+02 1.17875E+01 0.00000E+00
 -1      2518 1.42206E+02 1.47125E+01 0.00000E+00
 -1      2519 1.43505E+02 2.28125E+01 0.00000E+00
 -1      2520 1.43505E+02 2.13375E+01 0.00000E+00
 -1      2521 1.42206E+02 2.06000E+01 0.00000E+00
 -1      2522 1.43505E+02 2.57625E+01 0.00000E+00
 -1      2523 1.43505E+02 2.42875E+01 0.00000E+00
 -1      2524 1.42206E+02 2.35500E+01 0.00000E+00
 -1      2525 1.43505E+02 2.87125E+01 0.00000E+00
 -1      2526 1.43505E+02 2.72375E+01 0.00000E+00
 -1      2527 1.42206E+02 2.65000E+01 0.00000E+00
 -1      2528 1.43505E+02 3.16125E+01 0.00000E+00
 -1      2529 1.43505E+02 3.01625E+01 0.00000E+00
 -1      2530 1.42206E+02 2.94250E+01 0.00000E+00
 -1      2531 1.43505E+02 3.45625E+01 0.00000E+00
 -1      2532 1.43505E+02 3.30875E+01 0.00000E+00
 -1      2533 1.42206E+02 3.23500E+01 0.00000E+00
 -1      2534 1.43505E+02 3.75125E+01 0.00000E+00
 -1      2535 1.43505E+02 3.60375E+01 0.00000E+00
 -1      2536 1.42206E+02 3.53000E+01 0.00000E+00
 -1      2537 1.43505E+02 4.04625E+01 0.00000E+00
 -1      2538 1.43505E+02 3.89875E+01 0.00000E+00
 -1      2539 1.42206E+02 3.82500E+01 0.00000E+00
 -1      2540 4.88549E+01 2.35697E+01 0.00000E+00
 -1      2541 4.89687E+01 2.44829E+01 0.00000E+00
 -1      2542 4.73830E+01 1.93722E+01 0.00000E+00
 -1      2543 4.80140E+01 2.02739E+01 0.00000E+00
 -1      2544 1.67850E+01 5.30525E+00 0.00000E+00
 -1      2545 1.52850E+01 5.30525E+00 0.00000E+00
 -1      2546 1.75350E+01 6.60425E+00 0.00000E+00
 -1      2547 4.27658E+01 1.52092E+01 0.00000E+00
 -1      2548 4.35731E+01 1.57632E+01 0.00000E+00
 -1      2549 1.44321E+02 4.30606E+01 0.00000E+00
 -1      2550 4.86861E+01 2.75008E+01 0.00000E+00
 -1      2551 4.83273E+01 2.85744E+01 0.00000E+00
 -1      2552 4.84245E+01 2.16201E+01 0.00000E+00
 -1      2553 4.86397E+01 2.25949E+01 0.00000E+00
 -1      2554 4.95060E+01 2.29506E+01 0.00000E+00
 -1      2555 3.97909E+01 3.56245E+01 0.00000E+00
 -1      2556 3.85263E+01 3.57351E+01 0.00000E+00
 -1      2557 2.86382E+01 2.26780E+01 0.00000E+00
 -1      2558 2.88420E+01 2.15818E+01 0.00000E+00
 -1      2559 6.49500E+00 2.71625E+01 0.00000E+00
 -1      2560 6.49500E+00 2.86375E+01 0.00000E+00
 -1      2561 7.79400E+00 2.93750E+01 0.00000E+00
 -1      2562 7.79400E+00 2.64250E+01 0.00000E+00
 -1      2563 3.82124E+01 1.47611E+01 0.00000E+00
 -1      2564 3.91233E+01 1.47504E+01 0.00000E+00
 -1      2565 2.89805E+01 2.90464E+01 0.00000E+00
 -1      2566 2.86934E+01 2.81067E+01 0.00000E+00
 -1      2567 4.02007E+01 1.47762E+01 0.00000E+00
 -1      2568 4.13453E+01 1.48365E+01 0.00000E+00
 -1      2569 3.62188E+01 1.46542E+01 0.00000E+00
 -1      2570 3.72156E+01 1.47077E+01 0.00000E+00
 -1      2571 3.76620E+01 1.39286E+01 0.00000E+00
 -1      2572 3.37075E+01 1.54669E+01 0.00000E+00
 -1      2573 3.48383E+01 1.49283E+01 0.00000E+00
 -1      2574 3.16820E+01 1.71636E+01 0.00000E+00
 -1      2575 3.24909E+01 1.63300E+01 0.00000E+00
 -1      2576 3.03667E+01 1.87814E+01 0.00000E+00
 -1      2577 3.09271E+01 1.80355E+01 0.00000E+00
 -1      2578 2.92581E+01 2.02793E+01 0.00000E+00
 -1      2579 2.98124E+01 1.95304E+01 0.00000E+00
 -1      2580 2.94070E+01 1.86423E+01 0.00000E+00
 -1      2581 2.82735E+01 2.45607E+01 0.00000E+00
 -1      2582 2.84195E+01 2.36762E+01 0.00000E+00
 -1      2583 3.31455E+01 3.39880E+01 0.00000E+00
 -1      2584 3.23793E+01 3.34158E+01 0.00000E+00
 -1      2585 2.99220E+01 3.08282E+01 0.00000E+00
 -1      2586 2.94475E+01 3.00788E+01 0.00000E+00
 -1      2587 3.15311E+01 3.25889E+01 0.00000E+00
 -1      2588 3.06829E+01 3.17621E+01 0.00000E+00
 -1      2589 3.14010E+01 3.35621E+01 0.00000E+00
 -1      2590 3.50324E+01 3.50304E+01 0.00000E+00
 -1      2591 3.41416E+01 3.47116E+01 0.00000E+00
 -1      2592 3.70285E+01 3.57418E+01 0.00000E+00
 -1      2593 3.60304E+01 3.53861E+01 0.00000E+00
 -1      2594 3.52396E+01 3.61918E+01 0.00000E+00
 -1      2595 4.18339E+01 3.51036E+01 0.00000E+00
 -1      2596 4.09824E+01 3.53413E+01 0.00000E+00
 -1      2597 4.39229E+01 3.40608E+01 0.00000E+00
 -1      2598 4.29833E+01 3.46616E+01 0.00000E+00
 -1      2599 4.54102E+01 3.28926E+01 0.00000E+00
 -1      2600 4.47652E+01 3.34128E+01 0.00000E+00
 -1      2601 4.68968E+01 3.12432E+01 0.00000E+00
 -1      2602 4.62301E+01 3.20978E+01 0.00000E+00
 -1      2603 4.77873E+01 2.95399E+01 0.00000E+00
 -1      2604 4.74368E+01 3.02777E+01 0.00000E+00
 -1      2605 4.77796E+01 3.12325E+01 0.00000E+00
 -1      2606 4.88595E+01 2.93015E+01 0.00000E+00
 -1      2607 4.89620E+01 2.55675E+01 0.00000E+00
 -1      2608 4.88402E+01 2.63802E+01 0.00000E+00
 -1      2609 6.55950E+00 4.28890E+01 0.00000E+00
 -1      2610 8.53650E+00 4.32410E+01 0.00000E+00
 -1      2611 9.28650E+00 4.19420E+01 0.00000E+00
 -1      2612 6.55950E+00 4.14140E+01 0.00000E+00
 -1      2613 8.07525E+00 5.11044E+00 0.00000E+00
 -1      2614 6.57525E+00 5.11044E+00 0.00000E+00
 -1      2615 6.40575E+00 6.01981E+00 0.00000E+00
 -1      2616 8.82525E+00 6.40944E+00 0.00000E+00
 -1      2617 4.62904E+01 1.80014E+01 0.00000E+00
 -1      2618 4.68367E+01 1.86868E+01 0.00000E+00
 -1      2619 4.79235E+01 1.85979E+01 0.00000E+00
 -1      2620 3.97363E+01 1.40079E+01 0.00000E+00
 -1      2621 7.79400E+00 3.52687E+01 0.00000E+00
 -1      2622 6.49500E+00 3.60062E+01 0.00000E+00
 -1      2623 6.49500E+00 3.74750E+01 0.00000E+00
 -1      2624 1.45350E+01 6.60425E+00 0.00000E+00
 -1      2625 6.40575E+00 7.49481E+00 0.00000E+00
 -1      2626 4.63141E+01 1.70898E+01 0.00000E+00
 -1      2627 4.97145E+01 2.50101E+01 0.00000E+00
 -1      2628 4.64197E+01 3.29928E+01 0.00000E+00
 -1      2629 4.47574E+01 3.44357E+01 0.00000E+00
 -1      2630 4.95536E+01 2.72153E+01 0.00000E+00
 -1      2631 3.77355E+01 3.65408E+01 0.00000E+00
 -1      2632 1.43586E+02 6.56853E+00 0.00000E+00
 -1      2633 1.43419E+02 7.72713E+00 0.00000E+00
 -1      2634 4.88803E+01 2.06296E+01 0.00000E+00
 -1      2635 2.97919E+01 3.18013E+01 0.00000E+00
 -1      2636 3.32454E+01 3.51125E+01 0.00000E+00
 -1      2637 7.70475E+00 8.23231E+00 0.00000E+00
 -1      2638 4.22342E+01 1.44064E+01 0.00000E+00
 -1      2639 4.31230E+01 1.39763E+01 0.00000E+00
 -1      2640 4.17026E+01 1.36036E+01 0.00000E+00
 -1      2641 1.42758E+02 4.35929E+01 0.00000E+00
 -1      2642 1.43241E+02 4.17323E+01 0.00000E+00
 -1      2643 1.41942E+02 4.09948E+01 0.00000E+00
 -1      2644 1.41414E+02 4.35342E+01 0.00000E+00
 -1      2645 4.04248E+01 3.62509E+01 0.00000E+00
 -1      2646 2.84366E+01 2.06937E+01 0.00000E+00
 -1      2647 2.80313E+01 1.98056E+01 0.00000E+00
 -1      2648 2.76152E+01 2.11081E+01 0.00000E+00
 -1      2649 2.78018E+01 2.29943E+01 0.00000E+00
 -1      2650 3.07162E+01 1.70214E+01 0.00000E+00
 -1      2651 3.52846E+01 1.41493E+01 0.00000E+00
 -1      2652 3.57310E+01 1.33702E+01 0.00000E+00
 -1      2653 3.43505E+01 1.36443E+01 0.00000E+00
 -1      2654 2.80883E+01 2.76276E+01 0.00000E+00
 -1      2655 2.73891E+01 2.58844E+01 0.00000E+00
 -1      2656 2.78313E+01 2.52225E+01 0.00000E+00
 -1      2657 2.71408E+01 2.46543E+01 0.00000E+00
 -1      2658 4.44529E+01 1.55231E+01 0.00000E+00
 -1      2659 2.85640E+01 2.98350E+01 0.00000E+00
 -1      2660 6.52725E+00 3.87101E+01 0.00000E+00
 -1      2661 6.52725E+00 4.01789E+01 0.00000E+00
 -1      2662 7.89075E+00 4.04429E+01 0.00000E+00
 -1      2663 7.82625E+00 3.79726E+01 0.00000E+00
 -1      2664 3.26876E+01 1.52865E+01 0.00000E+00
 -1      2665 3.28842E+01 1.42430E+01 0.00000E+00
 -1      2666 3.16677E+01 1.51061E+01 0.00000E+00
 -1      2667 4.27656E+01 3.55257E+01 0.00000E+00
 -1      2668 1.42120E+02 8.46463E+00 0.00000E+00
 -1      2669 1.40664E+02 4.22352E+01 0.00000E+00
 -1      2670 9.09300E+00 1.98250E+01 0.00000E+00
 -1      2671 9.09300E+00 2.12750E+01 0.00000E+00
 -1      2672 9.09300E+00 2.27500E+01 0.00000E+00
 -1      2673 9.09300E+00 2.42250E+01 0.00000E+00
 -1      2674 1.03920E+01 2.20250E+01 0.00000E+00
 -1      2675 9.09300E+00 1.39375E+01 0.00000E+00
 -1      2676 9.09300E+00 1.54125E+01 0.00000E+00
 -1      2677 9.09300E+00 1.09875E+01 0.00000E+00
 -1      2678 9.09300E+00 1.24625E+01 0.00000E+00
 -1      2679 1.03920E+01 1.32000E+01 0.00000E+00
 -1      2680 1.22850E+01 7.90325E+00 0.00000E+00
 -1      2681 1.07850E+01 7.90325E+00 0.00000E+00
 -1      2682 8.91450E+00 8.42712E+00 0.00000E+00
 -1      2683 5.05754E+01 2.44730E+01 0.00000E+00
 -1      2684 5.05687E+01 2.55577E+01 0.00000E+00
 -1      2685 1.44000E+01 4.09070E+01 0.00000E+00
 -1      2686 1.59000E+01 4.09070E+01 0.00000E+00
 -1      2687 1.74000E+01 4.09070E+01 0.00000E+00
 -1      2688 1.89000E+01 4.09070E+01 0.00000E+00
 -1      2689 1.66500E+01 3.96080E+01 0.00000E+00
 -1      2690 2.04000E+01 4.09070E+01 0.00000E+00
 -1      2691 2.19000E+01 4.09070E+01 0.00000E+00
 -1      2692 1.96500E+01 3.96080E+01 0.00000E+00
 -1      2693 2.34000E+01 4.09070E+01 0.00000E+00
 -1      2694 2.49000E+01 4.09070E+01 0.00000E+00
 -1      2695 2.26500E+01 3.96080E+01 0.00000E+00
 -1      2696 2.64000E+01 4.09070E+01 0.00000E+00
 -1      2697 2.79000E+01 4.09070E+01 0.00000E+00
 -1      2698 2.56500E+01 3.96080E+01 0.00000E+00
 -1      2699 2.94000E+01 4.09070E+01 0.00000E+00
 -1      2700 3.09000E+01 4.09070E+01 0.00000E+00
 -1      2701 2.86500E+01 3.96080E+01 0.00000E+00
 -1      2702 3.24000E+01 4.09070E+01 0.00000E+00
 -1      2703 3.39000E+01 4.09070E+01 0.00000E+00
 -1      2704 3.16500E+01 3.96080E+01 0.00000E+00
 -1      2705 3.54000E+01 4.09070E+01 0.00000E+00
 -1      2706 3.69000E+01 4.09070E+01 0.00000E+00
 -1      2707 3.46500E+01 3.96080E+01 0.00000E+00
 -1      2708 3.84000E+01 4.09070E+01 0.00000E+00
 -1      2709 3.99000E+01 4.09070E+01 0.00000E+00
 -1      2710 3.76500E+01 3.96080E+01 0.00000E+00
 -1      2711 4.14000E+01 4.09070E+01 0.00000E+00
 -1      2712 4.29000E+01 4.09070E+01 0.00000E+00
 -1      2713 4.06500E+01 3.96080E+01 0.00000E+00
 -1      2714 4.44000E+01 4.09070E+01 0.00000E+00
 -1      2715 4.59000E+01 4.09070E+01 0.00000E+00
 -1      2716 4.36500E+01 3.96080E+01 0.00000E+00
 -1      2717 4.74000E+01 4.09070E+01 0.00000E+00
 -1      2718 4.89000E+01 4.09070E+01 0.00000E+00
 -1      2719 4.66500E+01 3.96080E+01 0.00000E+00
 -1      2720 5.04000E+01 4.09070E+01 0.00000E+00
 -1      2721 5.19000E+01 4.09070E+01 0.00000E+00
 -1      2722 4.96500E+01 3.96080E+01 0.00000E+00
 -1      2723 5.34000E+01 4.09070E+01 0.00000E+00
 -1      2724 5.49000E+01 4.09070E+01 0.00000E+00
 -1      2725 5.26500E+01 3.96080E+01 0.00000E+00
 -1      2726 5.64000E+01 4.09070E+01 0.00000E+00
 -1      2727 5.79000E+01 4.09070E+01 0.00000E+00
 -1      2728 5.56500E+01 3.96080E+01 0.00000E+00
 -1      2729 5.94000E+01 4.09070E+01 0.00000E+00
 -1      2730 6.09000E+01 4.09070E+01 0.00000E+00
 -1      2731 5.86500E+01 3.96080E+01 0.00000E+00
 -1      2732 6.24000E+01 4.09070E+01 0.00000E+00
 -1      2733 6.39000E+01 4.09070E+01 0.00000E+00
 -1      2734 6.16500E+01 3.96080E+01 0.00000E+00
 -1      2735 6.54000E+01 4.09070E+01 0.00000E+00
 -1      2736 6.69000E+01 4.09070E+01 0.00000E+00
 -1      2737 6.46500E+01 3.96080E+01 0.00000E+00
 -1      2738 6.84000E+01 4.09070E+01 0.00000E+00
 -1      2739 6.99000E+01 4.09070E+01 0.00000E+00
 -1      2740 6.76500E+01 3.96080E+01 0.00000E+00
 -1      2741 7.14000E+01 4.09070E+01 0.00000E+00
 -1      2742 7.29000E+01 4.09070E+01 0.00000E+00
 -1      2743 7.06500E+01 3.96080E+01 0.00000E+00
 -1      2744 7.44000E+01 4.09070E+01 0.00000E+00
 -1      2745 7.59000E+01 4.09070E+01 0.00000E+00
 -1      2746 7.36500E+01 3.96080E+01 0.00000E+00
 -1      2747 7.74000E+01 4.09070E+01 0.00000E+00
 -1      2748 7.89000E+01 4.09070E+01 0.00000E+00
 -1      2749 7.66500E+01 3.96080E+01 0.00000E+00
 -1      2750 8.04000E+01 4.09070E+01 0.00000E+00
 -1      2751 8.19000E+01 4.09070E+01 0.00000E+00
 -1      2752 7.96500E+01 3.96080E+01 0.00000E+00
 -1      2753 8.34000E+01 4.09070E+01 0.00000E+00
 -1      2754 8.49000E+01 4.09070E+01 0.00000E+00
 -1      2755 8.26500E+01 3.96080E+01 0.00000E+00
 -1      2756 8.64000E+01 4.09070E+01 0.00000E+00
 -1      2757 8.79000E+01 4.09070E+01 0.00000E+00
 -1      2758 8.56500E+01 3.96080E+01 0.00000E+00
 -1      2759 8.94000E+01 4.09070E+01 0.00000E+00
 -1      2760 9.09000E+01 4.09070E+01 0.00000E+00
 -1      2761 8.86500E+01 3.96080E+01 0.00000E+00
 -1      2762 9.24000E+01 4.09070E+01 0.00000E+00
 -1      2763 9.39000E+01 4.09070E+01 0.00000E+00
 -1      2764 9.16500E+01 3.96080E+01 0.00000E+00
 -1      2765 9.54000E+01 4.09070E+01 0.00000E+00
 -1      2766 9.69000E+01 4.09070E+01 0.00000E+00
 -1      2767 9.46500E+01 3.96080E+01 0.00000E+00
 -1      2768 9.84000E+01 4.09070E+01 0.00000E+00
 -1      2769 9.99000E+01 4.09070E+01 0.00000E+00
 -1      2770 9.76500E+01 3.96080E+01 0.00000E+00
 -1      2771 1.01400E+02 4.09070E+01 0.00000E+00
 -1      2772 1.02900E+02 4.09070E+01 0.00000E+00
 -1      2773 1.00650E+02 3.96080E+01 0.00000E+00
 -1      2774 1.04400E+02 4.09070E+01 0.00000E+00
 -1      2775 1.05900E+02 4.09070E+01 0.00000E+00
 -1      2776 1.03650E+02 3.96080E+01 0.00000E+00
 -1      2777 1.07400E+02 4.09070E+01 0.00000E+00
 -1      2778 1.08900E+02 4.09070E+01 0.00000E+00
 -1      2779 1.06650E+02 3.96080E+01 0.00000E+00
 -1      2780 1.10400E+02 4.09070E+01 0.00000E+00
 -1      2781 1.11900E+02 4.09070E+01 0.00000E+00
 -1      2782 1.09650E+02 3.96080E+01 0.00000E+00
 -1      2783 1.13400E+02 4.09070E+01 0.00000E+00
 -1      2784 1.14900E+02 4.09070E+01 0.00000E+00
 -1      2785 1.12650E+02 3.96080E+01 0.00000E+00
 -1      2786 1.16400E+02 4.09070E+01 0.00000E+00
 -1      2787 1.17900E+02 4.09070E+01 0.00000E+00
 -1      2788 1.15650E+02 3.96080E+01 0.00000E+00
 -1      2789 1.19400E+02 4.09070E+01 0.00000E+00
 -1      2790 1.20900E+02 4.09070E+01 0.00000E+00
 -1      2791 1.18650E+02 3.96080E+01 0.00000E+00
 -1      2792 1.22400E+02 4.09070E+01 0.00000E+00
 -1      2793 1.23900E+02 4.09070E+01 0.00000E+00
 -1      2794 1.21650E+02 3.96080E+01 0.00000E+00
 -1      2795 1.25400E+02 4.09070E+01 0.00000E+00
 -1      2796 1.26900E+02 4.09070E+01 0.00000E+00
 -1      2797 1.24650E+02 3.96080E+01 0.00000E+00
 -1      2798 1.28400E+02 4.09070E+01 0.00000E+00
 -1      2799 1.29900E+02 4.09070E+01 0.00000E+00
 -1      2800 1.27650E+02 3.96080E+01 0.00000E+00
 -1      2801 1.31400E+02 4.09070E+01 0.00000E+00
 -1      2802 1.32900E+02 4.09070E+01 0.00000E+00
 -1      2803 1.30650E+02 3.96080E+01 0.00000E+00
 -1      2804 1.34400E+02 4.09070E+01 0.00000E+00
 -1      2805 1.35900E+02 4.09070E+01 0.00000E+00
 -1      2806 1.33650E+02 3.96080E+01 0.00000E+00
 -1      2807 1.37400E+02 4.09070E+01 0.00000E+00
 -1      2808 1.38900E+02 4.09070E+01 0.00000E+00
 -1      2809 1.36650E+02 3.96080E+01 0.00000E+00
 -1      2810 2.42850E+01 7.90325E+00 0.00000E+00
 -1      2811 2.27850E+01 7.90325E+00 0.00000E+00
 -1      2812 4.12188E+01 3.69436E+01 0.00000E+00
 -1      2813 4.00273E+01 3.72268E+01 0.00000E+00
 -1      2814 2.12850E+01 7.90325E+00 0.00000E+00
 -1      2815 1.97850E+01 7.90325E+00 0.00000E+00
 -1      2816 2.20350E+01 9.20225E+00 0.00000E+00
 -1      2817 3.02850E+01 7.90325E+00 0.00000E+00
 -1      2818 2.87850E+01 7.90325E+00 0.00000E+00
 -1      2819 3.32850E+01 7.90325E+00 0.00000E+00
 -1      2820 3.17850E+01 7.90325E+00 0.00000E+00
 -1      2821 3.10350E+01 9.20225E+00 0.00000E+00
 -1      2822 3.62850E+01 7.90325E+00 0.00000E+00
 -1      2823 3.47850E+01 7.90325E+00 0.00000E+00
 -1      2824 3.40350E+01 9.20225E+00 0.00000E+00
 -1      2825 3.92850E+01 7.90325E+00 0.00000E+00
 -1      2826 3.77850E+01 7.90325E+00 0.00000E+00
 -1      2827 3.70350E+01 9.20225E+00 0.00000E+00
 -1      2828 4.22850E+01 7.90325E+00 0.00000E+00
 -1      2829 4.07850E+01 7.90325E+00 0.00000E+00
 -1      2830 4.00350E+01 9.20225E+00 0.00000E+00
 -1      2831 4.52850E+01 7.90325E+00 0.00000E+00
 -1      2832 4.37850E+01 7.90325E+00 0.00000E+00
 -1      2833 4.30350E+01 9.20225E+00 0.00000E+00
 -1      2834 4.82850E+01 7.90325E+00 0.00000E+00
 -1      2835 4.67850E+01 7.90325E+00 0.00000E+00
 -1      2836 4.60350E+01 9.20225E+00 0.00000E+00
 -1      2837 5.12850E+01 7.90325E+00 0.00000E+00
 -1      2838 4.97850E+01 7.90325E+00 0.00000E+00
 -1      2839 4.90350E+01 9.20225E+00 0.00000E+00
 -1      2840 5.42850E+01 7.90325E+00 0.00000E+00
 -1      2841 5.27850E+01 7.90325E+00 0.00000E+00
 -1      2842 5.20350E+01 9.20225E+00 0.00000E+00
 -1      2843 5.72850E+01 7.90325E+00 0.00000E+00
 -1      2844 5.57850E+01 7.90325E+00 0.00000E+00
 -1      2845 5.50350E+01 9.20225E+00 0.00000E+00
 -1      2846 6.02850E+01 7.90325E+00 0.00000E+00
 -1      2847 5.87850E+01 7.90325E+00 0.00000E+00
 -1      2848 5.80350E+01 9.20225E+00 0.00000E+00
 -1      2849 6.32850E+01 7.90325E+00 0.00000E+00
 -1      2850 6.17850E+01 7.90325E+00 0.00000E+00
 -1      2851 6.10350E+01 9.20225E+00 0.00000E+00
 -1      2852 6.62850E+01 7.90325E+00 0.00000E+00
 -1      2853 6.47850E+01 7.90325E+00 0.00000E+00
 -1      2854 6.40350E+01 9.20225E+00 0.00000E+00
 -1      2855 6.92850E+01 7.90325E+00 0.00000E+00
 -1      2856 6.77850E+01 7.90325E+00 0.00000E+00
 -1      2857 6.70350E+01 9.20225E+00 0.00000E+00
 -1      2858 7.22850E+01 7.90325E+00 0.00000E+00
 -1      2859 7.07850E+01 7.90325E+00 0.00000E+00
 -1      2860 7.00350E+01 9.20225E+00 0.00000E+00
 -1      2861 7.52850E+01 7.90325E+00 0.00000E+00
 -1      2862 7.37850E+01 7.90325E+00 0.00000E+00
 -1      2863 7.30350E+01 9.20225E+00 0.00000E+00
 -1      2864 7.82850E+01 7.90325E+00 0.00000E+00
 -1      2865 7.67850E+01 7.90325E+00 0.00000E+00
 -1      2866 7.60350E+01 9.20225E+00 0.00000E+00
 -1      2867 8.12850E+01 7.90325E+00 0.00000E+00
 -1      2868 7.97850E+01 7.90325E+00 0.00000E+00
 -1      2869 7.90350E+01 9.20225E+00 0.00000E+00
 -1      2870 8.42850E+01 7.90325E+00 0.00000E+00
 -1      2871 8.27850E+01 7.90325E+00 0.00000E+00
 -1      2872 8.20350E+01 9.20225E+00 0.00000E+00
 -1      2873 8.72850E+01 7.90325E+00 0.00000E+00
 -1      2874 8.57850E+01 7.90325E+00 0.00000E+00
 -1      2875 8.50350E+01 9.20225E+00 0.00000E+00
 -1      2876 9.02850E+01 7.90325E+00 0.00000E+00
 -1      2877 8.87850E+01 7.90325E+00 0.00000E+00
 -1      2878 8.80350E+01 9.20225E+00 0.00000E+00
 -1      2879 9.32850E+01 7.90325E+00 0.00000E+00
 -1      2880 9.17850E+01 7.90325E+00 0.00000E+00
 -1      2881 9.10350E+01 9.20225E+00 0.00000E+00
 -1      2882 9.62850E+01 7.90325E+00 0.00000E+00
 -1      2883 9.47850E+01 7.90325E+00 0.00000E+00
 -1      2884 9.40350E+01 9.20225E+00 0.00000E+00
 -1      2885 9.92850E+01 7.90325E+00 0.00000E+00
 -1      2886 9.77850E+01 7.90325E+00 0.00000E+00
 -1      2887 9.70350E+01 9.20225E+00 0.00000E+00
 -1      2888 1.02285E+02 7.90325E+00 0.00000E+00
 -1      2889 1.00785E+02 7.90325E+00 0.00000E+00
 -1      2890 1.00035E+02 9.20225E+00 0.00000E+00
 -1      2891 1.05285E+02 7.90325E+00 0.00000E+00
 -1      2892 1.03785E+02 7.90325E+00 0.00000E+00
 -1      2893 1.03035E+02 9.20225E+00 0.00000E+00
 -1      2894 1.08285E+02 7.90325E+00 0.00000E+00
 -1      2895 1.06785E+02 7.90325E+00 0.00000E+00
 -1      2896 1.06035E+02 9.20225E+00 0.00000E+00
 -1      2897 1.11285E+02 7.90325E+00 0.00000E+00
 -1      2898 1.09785E+02 7.90325E+00 0.00000E+00
 -1      2899 1.09035E+02 9.20225E+00 0.00000E+00
 -1      2900 1.14285E+02 7.90325E+00 0.00000E+00
 -1      2901 1.12785E+02 7.90325E+00 0.00000E+00
 -1      2902 1.12035E+02 9.20225E+00 0.00000E+00
 -1      2903 1.17285E+02 7.90325E+00 0.00000E+00
 -1      2904 1.15785E+02 7.90325E+00 0.00000E+00
 -1      2905 1.15035E+02 9.20225E+00 0.00000E+00
 -1      2906 1.20285E+02 7.90325E+00 0.00000E+00
 -1      2907 1.18785E+02 7.90325E+00 0.00000E+00
 -1      2908 1.18035E+02 9.20225E+00 0.00000E+00
 -1      2909 1.23285E+02 7.90325E+00 0.00000E+00
 -1      2910 1.21785E+02 7.90325E+00 0.00000E+00
 -1      2911 1.21035E+02 9.20225E+00 0.00000E+00
 -1      2912 1.26285E+02 7.90325E+00 0.00000E+00
 -1      2913 1.24785E+02 7.90325E+00 0.00000E+00
 -1      2914 1.24035E+02 9.20225E+00 0.00000E+00
 -1      2915 1.29285E+02 7.90325E+00 0.00000E+00
 -1      2916 1.27785E+02 7.90325E+00 0.00000E+00
 -1      2917 1.27035E+02 9.20225E+00 0.00000E+00
 -1      2918 1.32285E+02 7.90325E+00 0.00000E+00
 -1      2919 1.30785E+02 7.90325E+00 0.00000E+00
 -1      2920 1.30035E+02 9.20225E+00 0.00000E+00
 -1      2921 1.35285E+02 7.90325E+00 0.00000E+00
 -1      2922 1.33785E+02 7.90325E+00 0.00000E+00
 -1      2923 1.33035E+02 9.20225E+00 0.00000E+00
 -1      2924 1.38285E+02 7.90325E+00 0.00000E+00
 -1      2925 1.36785E+02 7.90325E+00 0.00000E+00
 -1      2926 1.36035E+02 9.20225E+00 0.00000E+00
 -1      2927 1.40953E+02 8.18394E+00 0.00000E+00
 -1      2928 1.39453E+02 8.18394E+00 0.00000E+00
 -1      2929 1.38703E+02 9.48294E+00 0.00000E+00
 -1      2930 1.41038E+02 1.00443E+01 0.00000E+00
 -1      2931 1.40907E+02 2.42875E+01 0.00000E+00
 -1      2932 1.40907E+02 2.28125E+01 0.00000E+00
 -1      2933 1.39914E+02 4.09362E+01 0.00000E+00
 -1      2934 1.40928E+02 4.09655E+01 0.00000E+00
 -1      2935 1.39164E+02 3.96372E+01 0.00000E+00
 -1      2936 1.40907E+02 1.83875E+01 0.00000E+00
 -1      2937 1.40907E+02 1.69125E+01 0.00000E+00
 -1      2938 1.40907E+02 2.72375E+01 0.00000E+00
 -1      2939 1.40907E+02 2.57625E+01 0.00000E+00
 -1      2940 1.39608E+02 2.50250E+01 0.00000E+00
 -1      2941 1.40907E+02 2.13375E+01 0.00000E+00
 -1      2942 1.40907E+02 1.98625E+01 0.00000E+00
 -1      2943 1.39608E+02 1.91250E+01 0.00000E+00
 -1      2944 1.39608E+02 2.20750E+01 0.00000E+00
 -1      2945 3.92171E+01 1.31795E+01 0.00000E+00
 -1      2946 4.02945E+01 1.32053E+01 0.00000E+00
 -1      2947 3.11096E+01 3.47096E+01 0.00000E+00
 -1      2948 3.02613E+01 3.38828E+01 0.00000E+00
 -1      2949 1.40907E+02 3.01375E+01 0.00000E+00
 -1      2950 1.40907E+02 2.86875E+01 0.00000E+00
 -1      2951 1.39608E+02 2.79500E+01 0.00000E+00
 -1      2952 1.40907E+02 3.30875E+01 0.00000E+00
 -1      2953 1.40907E+02 3.16125E+01 0.00000E+00
 -1      2954 1.39608E+02 3.08750E+01 0.00000E+00
 -1      2955 1.40907E+02 3.60375E+01 0.00000E+00
 -1      2956 1.40907E+02 3.45625E+01 0.00000E+00
 -1      2957 1.39608E+02 3.38250E+01 0.00000E+00
 -1      2958 4.75431E+01 3.33315E+01 0.00000E+00
 -1      2959 4.67232E+01 3.41263E+01 0.00000E+00
 -1      2960 4.94953E+01 1.97063E+01 0.00000E+00
 -1      2961 4.99058E+01 2.10526E+01 0.00000E+00
 -1      2962 3.85295E+01 3.72335E+01 0.00000E+00
 -1      2963 3.70316E+01 3.72403E+01 0.00000E+00
 -1      2964 3.93235E+01 3.79263E+01 0.00000E+00
 -1      2965 5.03176E+01 2.22603E+01 0.00000E+00
 -1      2966 5.05328E+01 2.32351E+01 0.00000E+00
 -1      2967 2.68957E+01 2.33188E+01 0.00000E+00
 -1      2968 2.71144E+01 2.23206E+01 0.00000E+00
 -1      2969 2.96271E+01 1.68412E+01 0.00000E+00
 -1      2970 3.03820E+01 1.59693E+01 0.00000E+00
 -1      2971 2.95004E+01 3.29488E+01 0.00000E+00
 -1      2972 2.87395E+01 3.20149E+01 0.00000E+00
 -1      2973 2.92090E+01 3.40963E+01 0.00000E+00
 -1      2974 1.82850E+01 7.90325E+00 0.00000E+00
 -1      2975 1.67850E+01 7.90325E+00 0.00000E+00
 -1      2976 1.90350E+01 9.20225E+00 0.00000E+00
 -1      2977 2.72850E+01 7.90325E+00 0.00000E+00
 -1      2978 2.57850E+01 7.90325E+00 0.00000E+00
 -1      2979 2.50350E+01 9.20225E+00 0.00000E+00
 -1      2980 2.80350E+01 9.20225E+00 0.00000E+00
 -1      2981 1.14000E+01 4.09070E+01 0.00000E+00
 -1      2982 1.29000E+01 4.09070E+01 0.00000E+00
 -1      2983 1.36500E+01 3.96080E+01 0.00000E+00
 -1      2984 1.52850E+01 7.90325E+00 0.00000E+00
 -1      2985 1.37850E+01 7.90325E+00 0.00000E+00
 -1      2986 1.30350E+01 9.20225E+00 0.00000E+00
 -1      2987 1.60350E+01 9.20225E+00 0.00000E+00
 -1      2988 4.63074E+01 1.60003E+01 0.00000E+00
 -1      2989 4.73705E+01 1.68230E+01 0.00000E+00
 -1      2990 9.09300E+00 1.68813E+01 0.00000E+00
 -1      2991 9.09300E+00 1.83563E+01 0.00000E+00
 -1      2992 1.03920E+01 1.90812E+01 0.00000E+00
 -1      2993 1.03920E+01 1.61437E+01 0.00000E+00
 -1      2994 9.09300E+00 3.15875E+01 0.00000E+00
 -1      2995 9.09300E+00 3.30625E+01 0.00000E+00
 -1      2996 1.41192E+02 3.96958E+01 0.00000E+00
 -1      2997 3.72234E+01 1.30727E+01 0.00000E+00
 -1      2998 3.82202E+01 1.31261E+01 0.00000E+00
 -1      2999 3.87785E+01 1.23236E+01 0.00000E+00
 -1      3000 4.36782E+01 3.61833E+01 0.00000E+00
 -1      3001 4.25288E+01 3.66253E+01 0.00000E+00
 -1      3002 2.85185E+01 1.83391E+01 0.00000E+00
 -1      3003 2.90728E+01 1.75902E+01 0.00000E+00
 -1      3004 2.87386E+01 1.65381E+01 0.00000E+00
 -1      3005 4.47111E+01 1.45123E+01 0.00000E+00
 -1      3006 4.55092E+01 1.52563E+01 0.00000E+00
 -1      3007 4.65656E+01 1.49895E+01 0.00000E+00
 -1      3008 2.71513E+01 2.82220E+01 0.00000E+00
 -1      3009 2.71426E+01 2.70471E+01 0.00000E+00
 -1      3010 3.31902E+01 3.62360E+01 0.00000E+00
 -1      3011 3.21941E+01 3.55124E+01 0.00000E+00
 -1      3012 2.78634E+01 3.07737E+01 0.00000E+00
 -1      3013 2.73964E+01 2.97413E+01 0.00000E+00
 -1      3014 4.83864E+01 1.76685E+01 0.00000E+00
 -1      3015 4.89327E+01 1.83539E+01 0.00000E+00
 -1      3016 3.54507E+01 3.71775E+01 0.00000E+00
 -1      3017 3.44527E+01 3.68218E+01 0.00000E+00
 -1      3018 5.06463E+01 2.67947E+01 0.00000E+00
 -1      3019 5.04921E+01 2.79153E+01 0.00000E+00
 -1      3020 4.58809E+01 3.47743E+01 0.00000E+00
 -1      3021 4.50385E+01 3.54224E+01 0.00000E+00
 -1      3022 4.70043E+01 3.51130E+01 0.00000E+00
 -1      3023 8.96362E+00 4.05429E+01 0.00000E+00
 -1      3024 1.03271E+01 4.08069E+01 0.00000E+00
 -1      3025 1.10771E+01 3.95079E+01 0.00000E+00
 -1      3026 8.93137E+00 3.93078E+01 0.00000E+00
 -1      3027 9.09300E+00 3.45313E+01 0.00000E+00
 -1      3028 9.09300E+00 3.60000E+01 0.00000E+00
 -1      3029 1.03920E+01 3.37938E+01 0.00000E+00
 -1      3030 1.03920E+01 2.49750E+01 0.00000E+00
 -1      3031 9.09300E+00 2.57000E+01 0.00000E+00
 -1      3032 9.09300E+00 2.71750E+01 0.00000E+00
 -1      3033 2.64521E+01 2.64788E+01 0.00000E+00
 -1      3034 9.66450E+00 9.72612E+00 0.00000E+00
 -1      3035 4.36478E+01 1.29067E+01 0.00000E+00
 -1      3036 4.41794E+01 1.37095E+01 0.00000E+00
 -1      3037 4.52358E+01 1.34427E+01 0.00000E+00
 -1      3038 4.98780E+01 2.92373E+01 0.00000E+00
 -1      3039 4.93380E+01 3.02028E+01 0.00000E+00
 -1      3040 5.13870E+01 2.37827E+01 0.00000E+00
 -1      3041 5.15072E+01 2.62577E+01 0.00000E+00
 -1      3042 1.39608E+02 1.61875E+01 0.00000E+00
 -1      3043 1.40907E+02 1.54500E+01 0.00000E+00
 -1      3044 1.40907E+02 1.39875E+01 0.00000E+00
 -1      3045 3.62447E+01 3.78702E+01 0.00000E+00
 -1      3046 4.83797E+01 1.65790E+01 0.00000E+00
 -1      3047 4.21313E+01 3.76012E+01 0.00000E+00
 -1      3048 1.40973E+02 1.27472E+01 0.00000E+00
 -1      3049 1.40973E+02 1.12847E+01 0.00000E+00
 -1      3050 1.39805E+02 1.10040E+01 0.00000E+00
 -1      3051 1.39674E+02 1.34847E+01 0.00000E+00
 -1      3052 3.10544E+01 3.58330E+01 0.00000E+00
 -1      3053 2.75720E+01 3.19212E+01 0.00000E+00
 -1      3054 4.83816E+01 3.24996E+01 0.00000E+00
 -1      3055 4.86851E+01 3.36330E+01 0.00000E+00
 -1      3056 1.41192E+02 3.82207E+01 0.00000E+00
 -1      3057 5.09326E+01 2.13370E+01 0.00000E+00
 -1      3058 4.99583E+01 1.87769E+01 0.00000E+00
 -1      3059 2.64535E+01 2.39806E+01 0.00000E+00
 -1      3060 2.57661E+01 2.33069E+01 0.00000E+00
 -1      3061 2.60113E+01 2.46425E+01 0.00000E+00
 -1      3062 4.11834E+01 1.27752E+01 0.00000E+00
 -1      3063 2.67091E+01 2.14325E+01 0.00000E+00
 -1      3064 3.33306E+01 1.34639E+01 0.00000E+00
 -1      3065 3.37770E+01 1.26849E+01 0.00000E+00
 -1      3066 3.23107E+01 1.32835E+01 0.00000E+00
 -1      3067 2.94895E+01 1.47456E+01 0.00000E+00
 -1      3068 3.05786E+01 1.49258E+01 0.00000E+00
 -1      3069 3.07753E+01 1.38823E+01 0.00000E+00
 -1      3070 1.09635E+01 1.04636E+01 0.00000E+00
 -1      3071 9.09300E+00 2.86437E+01 0.00000E+00
 -1      3072 9.09300E+00 3.01187E+01 0.00000E+00
 -1      3073 1.03920E+01 3.08563E+01 0.00000E+00
 -1      3074 1.03920E+01 2.79188E+01 0.00000E+00
 -1      3075 3.34013E+01 3.72216E+01 0.00000E+00
 -1      3076 2.76971E+01 1.87535E+01 0.00000E+00
 -1      3077 2.73628E+01 1.77014E+01 0.00000E+00
 -1      3078 2.68756E+01 1.91679E+01 0.00000E+00
 -1      3079 4.48017E+01 3.65220E+01 0.00000E+00
 -1      3080 2.64508E+01 2.91607E+01 0.00000E+00
 -1      3081 5.09706E+01 2.88167E+01 0.00000E+00
 -1      3082 4.89216E+01 3.15340E+01 0.00000E+00
 -1      3083 1.39529E+02 3.85602E+01 0.00000E+00
 -1      3084 1.40542E+02 3.71145E+01 0.00000E+00
 -1      3085 1.39243E+02 3.63770E+01 0.00000E+00
 -1      3086 1.38514E+02 3.85310E+01 0.00000E+00
 -1      3087 1.16910E+01 1.24625E+01 0.00000E+00
 -1      3088 1.16910E+01 1.39375E+01 0.00000E+00
 -1      3089 4.99400E+01 3.14699E+01 0.00000E+00
 -1      3090 5.23065E+01 2.31314E+01 0.00000E+00
 -1      3091 5.23491E+01 2.43694E+01 0.00000E+00
 -1      3092 1.29000E+01 3.83090E+01 0.00000E+00
 -1      3093 1.44000E+01 3.83090E+01 0.00000E+00
 -1      3094 4.81017E+01 3.56679E+01 0.00000E+00
 -1      3095 4.72593E+01 3.63159E+01 0.00000E+00
 -1      3096 1.89000E+01 3.83090E+01 0.00000E+00
 -1      3097 2.04000E+01 3.83090E+01 0.00000E+00
 -1      3098 2.19000E+01 3.83090E+01 0.00000E+00
 -1      3099 2.34000E+01 3.83090E+01 0.00000E+00
 -1      3100 2.11500E+01 3.70100E+01 0.00000E+00
 -1      3101 2.49000E+01 3.83090E+01 0.00000E+00
 -1      3102 2.64000E+01 3.83090E+01 0.00000E+00
 -1      3103 2.41500E+01 3.70100E+01 0.00000E+00
 -1      3104 3.39069E+01 3.87077E+01 0.00000E+00
 -1      3105 3.54069E+01 3.87077E+01 0.00000E+00
 -1      3106 3.69878E+01 3.87705E+01 0.00000E+00
 -1      3107 3.84878E+01 3.87705E+01 0.00000E+00
 -1      3108 3.99857E+01 3.87638E+01 0.00000E+00
 -1      3109 4.14857E+01 3.87638E+01 0.00000E+00
 -1      3110 4.67533E+01 3.82394E+01 0.00000E+00
 -1      3111 4.82533E+01 3.82394E+01 0.00000E+00
 -1      3112 4.97533E+01 3.82394E+01 0.00000E+00
 -1      3113 5.19000E+01 3.83090E+01 0.00000E+00
 -1      3114 5.34000E+01 3.83090E+01 0.00000E+00
 -1      3115 5.49000E+01 3.83090E+01 0.00000E+00
 -1      3116 5.64000E+01 3.83090E+01 0.00000E+00
 -1      3117 5.41500E+01 3.70100E+01 0.00000E+00
 -1      3118 5.79000E+01 3.83090E+01 0.00000E+00
 -1      3119 5.94000E+01 3.83090E+01 0.00000E+00
 -1      3120 5.71500E+01 3.70100E+01 0.00000E+00
 -1      3121 6.09000E+01 3.83090E+01 0.00000E+00
 -1      3122 6.24000E+01 3.83090E+01 0.00000E+00
 -1      3123 6.01500E+01 3.70100E+01 0.00000E+00
 -1      3124 6.39000E+01 3.83090E+01 0.00000E+00
 -1      3125 6.54000E+01 3.83090E+01 0.00000E+00
 -1      3126 6.31500E+01 3.70100E+01 0.00000E+00
 -1      3127 6.69000E+01 3.83090E+01 0.00000E+00
 -1      3128 6.84000E+01 3.83090E+01 0.00000E+00
 -1      3129 6.61500E+01 3.70100E+01 0.00000E+00
 -1      3130 6.99000E+01 3.83090E+01 0.00000E+00
 -1      3131 7.14000E+01 3.83090E+01 0.00000E+00
 -1      3132 6.91500E+01 3.70100E+01 0.00000E+00
 -1      3133 7.29000E+01 3.83090E+01 0.00000E+00
 -1      3134 7.44000E+01 3.83090E+01 0.00000E+00
 -1      3135 7.21500E+01 3.70100E+01 0.00000E+00
 -1      3136 7.59000E+01 3.83090E+01 0.00000E+00
 -1      3137 7.74000E+01 3.83090E+01 0.00000E+00
 -1      3138 7.51500E+01 3.70100E+01 0.00000E+00
 -1      3139 7.89000E+01 3.83090E+01 0.00000E+00
 -1      3140 8.04000E+01 3.83090E+01 0.00000E+00
 -1      3141 7.81500E+01 3.70100E+01 0.00000E+00
 -1      3142 8.19000E+01 3.83090E+01 0.00000E+00
 -1      3143 8.34000E+01 3.83090E+01 0.00000E+00
 -1      3144 8.11500E+01 3.70100E+01 0.00000E+00
 -1      3145 8.49000E+01 3.83090E+01 0.00000E+00
 -1      3146 8.64000E+01 3.83090E+01 0.00000E+00
 -1      3147 8.41500E+01 3.70100E+01 0.00000E+00
 -1      3148 8.79000E+01 3.83090E+01 0.00000E+00
 -1      3149 8.94000E+01 3.83090E+01 0.00000E+00
 -1      3150 8.71500E+01 3.70100E+01 0.00000E+00
 -1      3151 9.09000E+01 3.83090E+01 0.00000E+00
 -1      3152 9.24000E+01 3.83090E+01 0.00000E+00
 -1      3153 9.01500E+01 3.70100E+01 0.00000E+00
 -1      3154 9.39000E+01 3.83090E+01 0.00000E+00
 -1      3155 9.54000E+01 3.83090E+01 0.00000E+00
 -1      3156 9.31500E+01 3.70100E+01 0.00000E+00
 -1      3157 9.69000E+01 3.83090E+01 0.00000E+00
 -1      3158 9.84000E+01 3.83090E+01 0.00000E+00
 -1      3159 9.61500E+01 3.70100E+01 0.00000E+00
 -1      3160 9.99000E+01 3.83090E+01 0.00000E+00
 -1      3161 1.01400E+02 3.83090E+01 0.00000E+00
 -1      3162 9.91500E+01 3.70100E+01 0.00000E+00
 -1      3163 1.02900E+02 3.83090E+01 0.00000E+00
 -1      3164 1.04400E+02 3.83090E+01 0.00000E+00
 -1      3165 1.02150E+02 3.70100E+01 0.00000E+00
 -1      3166 1.05900E+02 3.83090E+01 0.00000E+00
 -1      3167 1.07400E+02 3.83090E+01 0.00000E+00
 -1      3168 1.05150E+02 3.70100E+01 0.00000E+00
 -1      3169 1.08900E+02 3.83090E+01 0.00000E+00
 -1      3170 1.10400E+02 3.83090E+01 0.00000E+00
 -1      3171 1.08150E+02 3.70100E+01 0.00000E+00
 -1      3172 1.11900E+02 3.83090E+01 0.00000E+00
 -1      3173 1.13400E+02 3.83090E+01 0.00000E+00
 -1      3174 1.11150E+02 3.70100E+01 0.00000E+00
 -1      3175 1.14900E+02 3.83090E+01 0.00000E+00
 -1      3176 1.16400E+02 3.83090E+01 0.00000E+00
 -1      3177 1.14150E+02 3.70100E+01 0.00000E+00
 -1      3178 1.17900E+02 3.83090E+01 0.00000E+00
 -1      3179 1.19400E+02 3.83090E+01 0.00000E+00
 -1      3180 1.17150E+02 3.70100E+01 0.00000E+00
 -1      3181 1.20900E+02 3.83090E+01 0.00000E+00
 -1      3182 1.22400E+02 3.83090E+01 0.00000E+00
 -1      3183 1.20150E+02 3.70100E+01 0.00000E+00
 -1      3184 1.23900E+02 3.83090E+01 0.00000E+00
 -1      3185 1.25400E+02 3.83090E+01 0.00000E+00
 -1      3186 1.23150E+02 3.70100E+01 0.00000E+00
 -1      3187 1.26900E+02 3.83090E+01 0.00000E+00
 -1      3188 1.28400E+02 3.83090E+01 0.00000E+00
 -1      3189 1.26150E+02 3.70100E+01 0.00000E+00
 -1      3190 1.29900E+02 3.83090E+01 0.00000E+00
 -1      3191 1.31400E+02 3.83090E+01 0.00000E+00
 -1      3192 1.29150E+02 3.70100E+01 0.00000E+00
 -1      3193 1.32900E+02 3.83090E+01 0.00000E+00
 -1      3194 1.34400E+02 3.83090E+01 0.00000E+00
 -1      3195 1.32150E+02 3.70100E+01 0.00000E+00
 -1      3196 1.35707E+02 3.84200E+01 0.00000E+00
 -1      3197 1.37207E+02 3.84200E+01 0.00000E+00
 -1      3198 1.37572E+02 3.73430E+01 0.00000E+00
 -1      3199 1.34957E+02 3.71210E+01 0.00000E+00
 -1      3200 5.24267E+01 2.56064E+01 0.00000E+00
 -1      3201 5.25042E+01 2.68434E+01 0.00000E+00
 -1      3202 5.33462E+01 2.49550E+01 0.00000E+00
 -1      3203 3.51659E+01 1.10338E+01 0.00000E+00
 -1      3204 3.36659E+01 1.10338E+01 0.00000E+00
 -1      3205 3.11106E+01 1.14522E+01 0.00000E+00
 -1      3206 2.96106E+01 1.14522E+01 0.00000E+00
 -1      3207 4.06552E+01 1.07896E+01 0.00000E+00
 -1      3208 3.91552E+01 1.07896E+01 0.00000E+00
 -1      3209 4.35632E+01 1.11879E+01 0.00000E+00
 -1      3210 4.20632E+01 1.11879E+01 0.00000E+00
 -1      3211 4.97850E+01 1.05013E+01 0.00000E+00
 -1      3212 4.82850E+01 1.05013E+01 0.00000E+00
 -1      3213 5.27850E+01 1.05013E+01 0.00000E+00
 -1      3214 5.12850E+01 1.05013E+01 0.00000E+00
 -1      3215 5.05350E+01 1.18003E+01 0.00000E+00
 -1      3216 5.57850E+01 1.05013E+01 0.00000E+00
 -1      3217 5.42850E+01 1.05013E+01 0.00000E+00
 -1      3218 5.35350E+01 1.18003E+01 0.00000E+00
 -1      3219 5.87850E+01 1.05013E+01 0.00000E+00
 -1      3220 5.72850E+01 1.05013E+01 0.00000E+00
 -1      3221 5.65350E+01 1.18003E+01 0.00000E+00
 -1      3222 6.17850E+01 1.05013E+01 0.00000E+00
 -1      3223 6.02850E+01 1.05013E+01 0.00000E+00
 -1      3224 5.95350E+01 1.18003E+01 0.00000E+00
 -1      3225 6.47850E+01 1.05013E+01 0.00000E+00
 -1      3226 6.32850E+01 1.05013E+01 0.00000E+00
 -1      3227 6.25350E+01 1.18003E+01 0.00000E+00
 -1      3228 6.77850E+01 1.05013E+01 0.00000E+00
 -1      3229 6.62850E+01 1.05013E+01 0.00000E+00
 -1      3230 6.55350E+01 1.18003E+01 0.00000E+00
 -1      3231 7.07850E+01 1.05013E+01 0.00000E+00
 -1      3232 6.92850E+01 1.05013E+01 0.00000E+00
 -1      3233 6.85350E+01 1.18003E+01 0.00000E+00
 -1      3234 7.37850E+01 1.05013E+01 0.00000E+00
 -1      3235 7.22850E+01 1.05013E+01 0.00000E+00
 -1      3236 7.15350E+01 1.18003E+01 0.00000E+00
 -1      3237 7.67850E+01 1.05013E+01 0.00000E+00
 -1      3238 7.52850E+01 1.05013E+01 0.00000E+00
 -1      3239 7.45350E+01 1.18003E+01 0.00000E+00
 -1      3240 7.97850E+01 1.05013E+01 0.00000E+00
 -1      3241 7.82850E+01 1.05013E+01 0.00000E+00
 -1      3242 7.75350E+01 1.18003E+01 0.00000E+00
 -1      3243 8.27850E+01 1.05013E+01 0.00000E+00
 -1      3244 8.12850E+01 1.05013E+01 0.00000E+00
 -1      3245 8.05350E+01 1.18003E+01 0.00000E+00
 -1      3246 8.57850E+01 1.05013E+01 0.00000E+00
 -1      3247 8.42850E+01 1.05013E+01 0.00000E+00
 -1      3248 8.35350E+01 1.18003E+01 0.00000E+00
 -1      3249 8.87850E+01 1.05013E+01 0.00000E+00
 -1      3250 8.72850E+01 1.05013E+01 0.00000E+00
 -1      3251 8.65350E+01 1.18003E+01 0.00000E+00
 -1      3252 9.17850E+01 1.05013E+01 0.00000E+00
 -1      3253 9.02850E+01 1.05013E+01 0.00000E+00
 -1      3254 8.95350E+01 1.18003E+01 0.00000E+00
 -1      3255 9.47850E+01 1.05013E+01 0.00000E+00
 -1      3256 9.32850E+01 1.05013E+01 0.00000E+00
 -1      3257 9.25350E+01 1.18003E+01 0.00000E+00
 -1      3258 9.77850E+01 1.05013E+01 0.00000E+00
 -1      3259 9.62850E+01 1.05013E+01 0.00000E+00
 -1      3260 9.55350E+01 1.18003E+01 0.00000E+00
 -1      3261 1.00785E+02 1.05013E+01 0.00000E+00
 -1      3262 9.92850E+01 1.05013E+01 0.00000E+00
 -1      3263 9.85350E+01 1.18003E+01 0.00000E+00
 -1      3264 1.03785E+02 1.05013E+01 0.00000E+00
 -1      3265 1.02285E+02 1.05013E+01 0.00000E+00
 -1      3266 1.01535E+02 1.18003E+01 0.00000E+00
 -1      3267 1.06785E+02 1.05013E+01 0.00000E+00
 -1      3268 1.05285E+02 1.05013E+01 0.00000E+00
 -1      3269 1.04535E+02 1.18003E+01 0.00000E+00
 -1      3270 1.09785E+02 1.05013E+01 0.00000E+00
 -1      3271 1.08285E+02 1.05013E+01 0.00000E+00
 -1      3272 1.07535E+02 1.18003E+01 0.00000E+00
 -1      3273 1.12785E+02 1.05013E+01 0.00000E+00
 -1      3274 1.11285E+02 1.05013E+01 0.00000E+00
 -1      3275 1.10535E+02 1.18003E+01 0.00000E+00
 -1      3276 1.15785E+02 1.05013E+01 0.00000E+00
 -1      3277 1.14285E+02 1.05013E+01 0.00000E+00
 -1      3278 1.13535E+02 1.18003E+01 0.00000E+00
 -1      3279 1.18785E+02 1.05013E+01 0.00000E+00
 -1      3280 1.17285E+02 1.05013E+01 0.00000E+00
 -1      3281 1.16535E+02 1.18003E+01 0.00000E+00
 -1      3282 1.21785E+02 1.05013E+01 0.00000E+00
 -1      3283 1.20285E+02 1.05013E+01 0.00000E+00
 -1      3284 1.19535E+02 1.18003E+01 0.00000E+00
 -1      3285 1.24785E+02 1.05013E+01 0.00000E+00
 -1      3286 1.23285E+02 1.05013E+01 0.00000E+00
 -1      3287 1.22535E+02 1.18003E+01 0.00000E+00
 -1      3288 1.27785E+02 1.05013E+01 0.00000E+00
 -1      3289 1.26285E+02 1.05013E+01 0.00000E+00
 -1      3290 1.25535E+02 1.18003E+01 0.00000E+00
 -1      3291 1.30785E+02 1.05013E+01 0.00000E+00
 -1      3292 1.29285E+02 1.05013E+01 0.00000E+00
 -1      3293 1.28535E+02 1.18003E+01 0.00000E+00
 -1      3294 1.33785E+02 1.05013E+01 0.00000E+00
 -1      3295 1.32285E+02 1.05013E+01 0.00000E+00
 -1      3296 1.31535E+02 1.18003E+01 0.00000E+00
 -1      3297 1.36785E+02 1.05013E+01 0.00000E+00
 -1      3298 1.35285E+02 1.05013E+01 0.00000E+00
 -1      3299 1.34535E+02 1.18003E+01 0.00000E+00
 -1      3300 1.38879E+02 1.08930E+01 0.00000E+00
 -1      3301 1.37711E+02 1.06123E+01 0.00000E+00
 -1      3302 1.36961E+02 1.19113E+01 0.00000E+00
 -1      3303 1.38813E+02 1.21333E+01 0.00000E+00
 -1      3304 1.16910E+01 2.12875E+01 0.00000E+00
 -1      3305 1.16910E+01 2.27625E+01 0.00000E+00
 -1      3306 3.81583E+01 1.07362E+01 0.00000E+00
 -1      3307 1.38309E+02 2.57625E+01 0.00000E+00
 -1      3308 1.38309E+02 2.42875E+01 0.00000E+00
 -1      3309 4.27957E+01 3.84455E+01 0.00000E+00
 -1      3310 1.38309E+02 2.86625E+01 0.00000E+00
 -1      3311 1.38309E+02 2.72125E+01 0.00000E+00
 -1      3312 1.37010E+02 2.64750E+01 0.00000E+00
 -1      3313 4.85275E+01 1.53683E+01 0.00000E+00
 -1      3314 4.95435E+01 1.62138E+01 0.00000E+00
 -1      3315 2.86648E+01 3.53166E+01 0.00000E+00
 -1      3316 2.79039E+01 3.43827E+01 0.00000E+00
 -1      3317 5.07008E+01 1.76748E+01 0.00000E+00
 -1      3318 5.12634E+01 1.90272E+01 0.00000E+00
 -1      3319 1.38309E+02 3.45625E+01 0.00000E+00
 -1      3320 1.38309E+02 3.30875E+01 0.00000E+00
 -1      3321 1.38309E+02 3.16125E+01 0.00000E+00
 -1      3322 1.38309E+02 3.01375E+01 0.00000E+00
 -1      3323 1.37010E+02 2.94000E+01 0.00000E+00
 -1      3324 1.37010E+02 3.23500E+01 0.00000E+00
 -1      3325 3.66583E+01 1.07362E+01 0.00000E+00
 -1      3326 2.55183E+01 2.69678E+01 0.00000E+00
 -1      3327 2.57648E+01 2.58051E+01 0.00000E+00
 -1      3328 2.50774E+01 2.51314E+01 0.00000E+00
 -1      3329 2.27850E+01 1.05013E+01 0.00000E+00
 -1      3330 2.12850E+01 1.05013E+01 0.00000E+00
 -1      3331 4.97786E+01 3.40040E+01 0.00000E+00
 -1      3332 4.89401E+01 3.48359E+01 0.00000E+00
 -1      3333 4.91951E+01 3.60389E+01 0.00000E+00
 -1      3334 1.97850E+01 1.05013E+01 0.00000E+00
 -1      3335 1.82850E+01 1.05013E+01 0.00000E+00
 -1      3336 2.05350E+01 1.18003E+01 0.00000E+00
 -1      3337 8.99606E+00 3.70363E+01 0.00000E+00
 -1      3338 9.02831E+00 3.82715E+01 0.00000E+00
 -1      3339 1.01012E+01 3.83715E+01 0.00000E+00
 -1      3340 1.02951E+01 3.62988E+01 0.00000E+00
 -1      3341 1.59000E+01 3.83090E+01 0.00000E+00
 -1      3342 1.74000E+01 3.83090E+01 0.00000E+00
 -1      3343 1.81500E+01 3.70100E+01 0.00000E+00
 -1      3344 5.16970E+01 2.04023E+01 0.00000E+00
 -1      3345 5.21088E+01 2.16101E+01 0.00000E+00
 -1      3346 3.62892E+01 1.25677E+01 0.00000E+00
 -1      3347 2.76374E+01 1.63027E+01 0.00000E+00
 -1      3348 2.81917E+01 1.55538E+01 0.00000E+00
 -1      3349 3.09369E+01 3.71257E+01 0.00000E+00
 -1      3350 2.98524E+01 3.63230E+01 0.00000E+00
 -1      3351 2.70278E+01 3.31415E+01 0.00000E+00
 -1      3352 2.61517E+01 3.19003E+01 0.00000E+00
 -1      3353 2.64836E+01 3.43618E+01 0.00000E+00
 -1      3354 5.22074E+01 2.85876E+01 0.00000E+00
 -1      3355 5.15932E+01 2.99096E+01 0.00000E+00
 -1      3356 2.56661E+01 2.17115E+01 0.00000E+00
 -1      3357 2.61668E+01 2.04989E+01 0.00000E+00
 -1      3358 2.55613E+01 3.00837E+01 0.00000E+00
 -1      3359 2.53162E+01 2.85644E+01 0.00000E+00
 -1      3360 1.26488E+01 1.02017E+01 0.00000E+00
 -1      3361 1.20772E+01 1.14631E+01 0.00000E+00
 -1      3362 1.33763E+01 1.22006E+01 0.00000E+00
 -1      3363 1.41488E+01 1.02017E+01 0.00000E+00
 -1      3364 5.11768E+01 3.12408E+01 0.00000E+00
 -1      3365 5.07604E+01 3.25720E+01 0.00000E+00
 -1      3366 5.24136E+01 3.10118E+01 0.00000E+00
 -1      3367 3.26445E+01 3.81219E+01 0.00000E+00
 -1      3368 4.42957E+01 3.84455E+01 0.00000E+00
 -1      3369 3.14425E+01 3.86118E+01 0.00000E+00
 -1      3370 4.56560E+01 3.76845E+01 0.00000E+00
 -1      3371 1.16910E+01 2.42375E+01 0.00000E+00
 -1      3372 1.16910E+01 2.57125E+01 0.00000E+00
 -1      3373 1.29900E+01 2.35000E+01 0.00000E+00
 -1      3374 4.58946E+01 1.24290E+01 0.00000E+00
 -1      3375 4.64262E+01 1.32318E+01 0.00000E+00
 -1      3376 5.30709E+01 2.21967E+01 0.00000E+00
 -1      3377 1.51500E+01 3.70100E+01 0.00000E+00
 -1      3378 2.76925E+01 3.73128E+01 0.00000E+00
 -1      3379 2.84425E+01 3.86118E+01 0.00000E+00
 -1      3380 1.38309E+02 1.69188E+01 0.00000E+00
 -1      3381 1.38309E+02 1.54563E+01 0.00000E+00
 -1      3382 2.99425E+01 3.86118E+01 0.00000E+00
 -1      3383 5.08486E+01 1.64641E+01 0.00000E+00
 -1      3384 5.21538E+01 1.67144E+01 0.00000E+00
 -1      3385 5.09964E+01 1.52534E+01 0.00000E+00
 -1      3386 5.05033E+01 3.69404E+01 0.00000E+00
 -1      3387 5.40464E+01 2.72850E+01 0.00000E+00
 -1      3388 5.31269E+01 2.79363E+01 0.00000E+00
 -1      3389 5.37495E+01 2.90292E+01 0.00000E+00
 -1      3390 1.16910E+01 3.30594E+01 0.00000E+00
 -1      3391 1.16910E+01 3.45281E+01 0.00000E+00
 -1      3392 2.57850E+01 1.05013E+01 0.00000E+00
 -1      3393 2.42850E+01 1.05013E+01 0.00000E+00
 -1      3394 2.35350E+01 1.18003E+01 0.00000E+00
 -1      3395 1.37010E+02 2.35500E+01 0.00000E+00
 -1      3396 1.38309E+02 2.28125E+01 0.00000E+00
 -1      3397 1.38309E+02 2.13375E+01 0.00000E+00
 -1      3398 4.80600E+01 1.20092E+01 0.00000E+00
 -1      3399 4.73100E+01 1.07102E+01 0.00000E+00
 -1      3400 4.58100E+01 1.07102E+01 0.00000E+00
 -1      3401 1.16910E+01 1.98188E+01 0.00000E+00
 -1      3402 1.29900E+01 2.05562E+01 0.00000E+00
 -1      3403 1.16910E+01 1.83500E+01 0.00000E+00
 -1      3404 1.38309E+02 1.98656E+01 0.00000E+00
 -1      3405 1.38309E+02 1.83906E+01 0.00000E+00
 -1      3406 1.37010E+02 1.76594E+01 0.00000E+00
 -1      3407 1.37010E+02 2.06031E+01 0.00000E+00
 -1      3408 1.29900E+01 1.46687E+01 0.00000E+00
 -1      3409 1.16910E+01 1.54063E+01 0.00000E+00
 -1      3410 1.16910E+01 1.68750E+01 0.00000E+00
 -1      3411 5.10154E+01 3.37750E+01 0.00000E+00
 -1      3412 1.37758E+02 3.64912E+01 0.00000E+00
 -1      3413 1.38123E+02 3.54142E+01 0.00000E+00
 -1      3414 1.36824E+02 3.46768E+01 0.00000E+00
 -1      3415 1.36451E+02 3.63802E+01 0.00000E+00
 -1      3416 4.81994E+01 1.37669E+01 0.00000E+00
 -1      3417 4.93631E+01 1.34017E+01 0.00000E+00
 -1      3418 1.11741E+01 3.84716E+01 0.00000E+00
 -1      3419 1.19241E+01 3.71726E+01 0.00000E+00
 -1      3420 2.52239E+01 2.23733E+01 0.00000E+00
 -1      3421 2.46816E+01 2.14397E+01 0.00000E+00
 -1      3422 2.47817E+01 2.30351E+01 0.00000E+00
 -1      3423 4.72244E+01 1.39758E+01 0.00000E+00
 -1      3424 4.46196E+01 1.09211E+01 0.00000E+00
 -1      3425 5.24396E+01 1.93002E+01 0.00000E+00
 -1      3426 2.83884E+01 1.45103E+01 0.00000E+00
 -1      3427 2.46288E+01 2.78907E+01 0.00000E+00
 -1      3428 2.39414E+01 2.72170E+01 0.00000E+00
 -1      3429 2.37393E+01 2.88136E+01 0.00000E+00
 -1      3430 2.50171E+01 3.13040E+01 0.00000E+00
 -1      3431 2.38825E+01 3.07077E+01 0.00000E+00
 -1      3432 2.44729E+01 3.25243E+01 0.00000E+00
 -1      3433 2.58326E+01 1.94468E+01 0.00000E+00
 -1      3434 1.69669E+01 1.03515E+01 0.00000E+00
 -1      3435 1.54669E+01 1.03515E+01 0.00000E+00
 -1      3436 1.50806E+01 1.13509E+01 0.00000E+00
 -1      3437 1.77169E+01 1.16505E+01 0.00000E+00
 -1      3438 2.68160E+01 1.67171E+01 0.00000E+00
 -1      3439 3.26460E+01 1.08534E+01 0.00000E+00
 -1      3440 1.16910E+01 3.01219E+01 0.00000E+00
 -1      3441 1.16910E+01 3.15906E+01 0.00000E+00
 -1      3442 1.29900E+01 3.23250E+01 0.00000E+00
 -1      3443 2.55905E+01 1.72028E+01 0.00000E+00
 -1      3444 2.58651E+01 1.58041E+01 0.00000E+00
 -1      3445 5.40717E+01 2.12931E+01 0.00000E+00
 -1      3446 5.42694E+01 2.28145E+01 0.00000E+00
 -1      3447 5.33603E+01 1.82540E+01 0.00000E+00
 -1      3448 5.37939E+01 1.96291E+01 0.00000E+00
 -1      3449 1.20210E+01 3.61362E+01 0.00000E+00
 -1      3450 1.35711E+02 2.72000E+01 0.00000E+00
 -1      3451 1.35711E+02 2.57500E+01 0.00000E+00
 -1      3452 5.08631E+01 1.34017E+01 0.00000E+00
 -1      3453 5.64000E+01 3.57110E+01 0.00000E+00
 -1      3454 5.79000E+01 3.57110E+01 0.00000E+00
 -1      3455 5.94000E+01 3.57110E+01 0.00000E+00
 -1      3456 6.09000E+01 3.57110E+01 0.00000E+00
 -1      3457 5.86500E+01 3.44120E+01 0.00000E+00
 -1      3458 6.24000E+01 3.57110E+01 0.00000E+00
 -1      3459 6.39000E+01 3.57110E+01 0.00000E+00
 -1      3460 6.16500E+01 3.44120E+01 0.00000E+00
 -1      3461 6.54000E+01 3.57110E+01 0.00000E+00
 -1      3462 6.69000E+01 3.57110E+01 0.00000E+00
 -1      3463 6.46500E+01 3.44120E+01 0.00000E+00
 -1      3464 6.84000E+01 3.57110E+01 0.00000E+00
 -1      3465 6.99000E+01 3.57110E+01 0.00000E+00
 -1      3466 6.76500E+01 3.44120E+01 0.00000E+00
 -1      3467 7.14000E+01 3.57110E+01 0.00000E+00
 -1      3468 7.29000E+01 3.57110E+01 0.00000E+00
 -1      3469 7.06500E+01 3.44120E+01 0.00000E+00
 -1      3470 7.44000E+01 3.57110E+01 0.00000E+00
 -1      3471 7.59000E+01 3.57110E+01 0.00000E+00
 -1      3472 7.36500E+01 3.44120E+01 0.00000E+00
 -1      3473 7.74000E+01 3.57110E+01 0.00000E+00
 -1      3474 7.89000E+01 3.57110E+01 0.00000E+00
 -1      3475 7.66500E+01 3.44120E+01 0.00000E+00
 -1      3476 8.04000E+01 3.57110E+01 0.00000E+00
 -1      3477 8.19000E+01 3.57110E+01 0.00000E+00
 -1      3478 7.96500E+01 3.44120E+01 0.00000E+00
 -1      3479 8.34000E+01 3.57110E+01 0.00000E+00
 -1      3480 8.49000E+01 3.57110E+01 0.00000E+00
 -1      3481 8.26500E+01 3.44120E+01 0.00000E+00
 -1      3482 8.64000E+01 3.57110E+01 0.00000E+00
 -1      3483 8.79000E+01 3.57110E+01 0.00000E+00
 -1      3484 8.56500E+01 3.44120E+01 0.00000E+00
 -1      3485 8.94000E+01 3.57110E+01 0.00000E+00
 -1      3486 9.09000E+01 3.57110E+01 0.00000E+00
 -1      3487 8.86500E+01 3.44120E+01 0.00000E+00
 -1      3488 9.24000E+01 3.57110E+01 0.00000E+00
 -1      3489 9.39000E+01 3.57110E+01 0.00000E+00
 -1      3490 9.16500E+01 3.44120E+01 0.00000E+00
 -1      3491 9.54000E+01 3.57110E+01 0.00000E+00
 -1      3492 9.69000E+01 3.57110E+01 0.00000E+00
 -1      3493 9.46500E+01 3.44120E+01 0.00000E+00
 -1      3494 9.84000E+01 3.57110E+01 0.00000E+00
 -1      3495 9.99000E+01 3.57110E+01 0.00000E+00
 -1      3496 9.76500E+01 3.44120E+01 0.00000E+00
 -1      3497 1.01400E+02 3.57110E+01 0.00000E+00
 -1      3498 1.02900E+02 3.57110E+01 0.00000E+00
 -1      3499 1.00650E+02 3.44120E+01 0.00000E+00
 -1      3500 1.04400E+02 3.57110E+01 0.00000E+00
 -1      3501 1.05900E+02 3.57110E+01 0.00000E+00
 -1      3502 1.03650E+02 3.44120E+01 0.00000E+00
 -1      3503 1.07400E+02 3.57110E+01 0.00000E+00
 -1      3504 1.08900E+02 3.57110E+01 0.00000E+00
 -1      3505 1.06650E+02 3.44120E+01 0.00000E+00
 -1      3506 1.10400E+02 3.57110E+01 0.00000E+00
 -1      3507 1.11900E+02 3.57110E+01 0.00000E+00
 -1      3508 1.09650E+02 3.44120E+01 0.00000E+00
 -1      3509 1.13400E+02 3.57110E+01 0.00000E+00
 -1      3510 1.14900E+02 3.57110E+01 0.00000E+00
 -1      3511 1.12650E+02 3.44120E+01 0.00000E+00
 -1      3512 1.16400E+02 3.57110E+01 0.00000E+00
 -1      3513 1.17900E+02 3.57110E+01 0.00000E+00
 -1      3514 1.15650E+02 3.44120E+01 0.00000E+00
 -1      3515 1.19400E+02 3.57110E+01 0.00000E+00
 -1      3516 1.20900E+02 3.57110E+01 0.00000E+00
 -1      3517 1.18650E+02 3.44120E+01 0.00000E+00
 -1      3518 1.22400E+02 3.57110E+01 0.00000E+00
 -1      3519 1.23900E+02 3.57110E+01 0.00000E+00
 -1      3520 1.21650E+02 3.44120E+01 0.00000E+00
 -1      3521 1.25400E+02 3.57110E+01 0.00000E+00
 -1      3522 1.26900E+02 3.57110E+01 0.00000E+00
 -1      3523 1.24650E+02 3.44120E+01 0.00000E+00
 -1      3524 1.28400E+02 3.57110E+01 0.00000E+00
 -1      3525 1.29900E+02 3.57110E+01 0.00000E+00
 -1      3526 1.27650E+02 3.44120E+01 0.00000E+00
 -1      3527 1.31400E+02 3.57110E+01 0.00000E+00
 -1      3528 1.32900E+02 3.57110E+01 0.00000E+00
 -1      3529 1.30650E+02 3.44120E+01 0.00000E+00
 -1      3530 2.83501E+01 1.26207E+01 0.00000E+00
 -1      3531 2.82745E+01 1.03708E+01 0.00000E+00
 -1      3532 1.33200E+01 3.54019E+01 0.00000E+00
 -1      3533 5.21683E+01 1.36520E+01 0.00000E+00
 -1      3534 2.70523E+01 1.34289E+01 0.00000E+00
 -1      3535 1.44900E+01 3.37938E+01 0.00000E+00
 -1      3536 1.48200E+01 3.54019E+01 0.00000E+00
 -1      3537 1.63200E+01 3.54019E+01 0.00000E+00
 -1      3538 2.67745E+01 1.03708E+01 0.00000E+00
 -1      3539 6.02850E+01 1.30992E+01 0.00000E+00
 -1      3540 5.87850E+01 1.30992E+01 0.00000E+00
 -1      3541 6.32850E+01 1.30992E+01 0.00000E+00
 -1      3542 6.17850E+01 1.30992E+01 0.00000E+00
 -1      3543 6.10350E+01 1.43982E+01 0.00000E+00
 -1      3544 6.62850E+01 1.30992E+01 0.00000E+00
 -1      3545 6.47850E+01 1.30992E+01 0.00000E+00
 -1      3546 6.40350E+01 1.43982E+01 0.00000E+00
 -1      3547 6.92850E+01 1.30992E+01 0.00000E+00
 -1      3548 6.77850E+01 1.30992E+01 0.00000E+00
 -1      3549 6.70350E+01 1.43982E+01 0.00000E+00
 -1      3550 7.22850E+01 1.30992E+01 0.00000E+00
 -1      3551 7.07850E+01 1.30992E+01 0.00000E+00
 -1      3552 7.00350E+01 1.43982E+01 0.00000E+00
 -1      3553 7.52850E+01 1.30992E+01 0.00000E+00
 -1      3554 7.37850E+01 1.30992E+01 0.00000E+00
 -1      3555 7.30350E+01 1.43982E+01 0.00000E+00
 -1      3556 7.82850E+01 1.30992E+01 0.00000E+00
 -1      3557 7.67850E+01 1.30992E+01 0.00000E+00
 -1      3558 7.60350E+01 1.43982E+01 0.00000E+00
 -1      3559 8.12850E+01 1.30992E+01 0.00000E+00
 -1      3560 7.97850E+01 1.30992E+01 0.00000E+00
 -1      3561 7.90350E+01 1.43982E+01 0.00000E+00
 -1      3562 8.42850E+01 1.30992E+01 0.00000E+00
 -1      3563 8.27850E+01 1.30992E+01 0.00000E+00
 -1      3564 8.20350E+01 1.43982E+01 0.00000E+00
 -1      3565 8.72850E+01 1.30992E+01 0.00000E+00
 -1      3566 8.57850E+01 1.30992E+01 0.00000E+00
 -1      3567 8.50350E+01 1.43982E+01 0.00000E+00
 -1      3568 9.02850E+01 1.30992E+01 0.00000E+00
 -1      3569 8.87850E+01 1.30992E+01 0.00000E+00
 -1      3570 8.80350E+01 1.43982E+01 0.00000E+00
 -1      3571 9.32850E+01 1.30992E+01 0.00000E+00
 -1      3572 9.17850E+01 1.30992E+01 0.00000E+00
 -1      3573 9.10350E+01 1.43982E+01 0.00000E+00
 -1      3574 9.62850E+01 1.30992E+01 0.00000E+00
 -1      3575 9.47850E+01 1.30992E+01 0.00000E+00
 -1      3576 9.40350E+01 1.43982E+01 0.00000E+00
 -1      3577 9.92850E+01 1.30992E+01 0.00000E+00
 -1      3578 9.77850E+01 1.30992E+01 0.00000E+00
 -1      3579 9.70350E+01 1.43982E+01 0.00000E+00
 -1      3580 1.02285E+02 1.30992E+01 0.00000E+00
 -1      3581 1.00785E+02 1.30992E+01 0.00000E+00
 -1      3582 1.00035E+02 1.43982E+01 0.00000E+00
 -1      3583 1.05285E+02 1.30992E+01 0.00000E+00
 -1      3584 1.03785E+02 1.30992E+01 0.00000E+00
 -1      3585 1.03035E+02 1.43982E+01 0.00000E+00
 -1      3586 1.08285E+02 1.30992E+01 0.00000E+00
 -1      3587 1.06785E+02 1.30992E+01 0.00000E+00
 -1      3588 1.06035E+02 1.43982E+01 0.00000E+00
 -1      3589 1.11285E+02 1.30992E+01 0.00000E+00
 -1      3590 1.09785E+02 1.30992E+01 0.00000E+00
 -1      3591 1.09035E+02 1.43982E+01 0.00000E+00
 -1      3592 1.14285E+02 1.30992E+01 0.00000E+00
 -1      3593 1.12785E+02 1.30992E+01 0.00000E+00
 -1      3594 1.12035E+02 1.43982E+01 0.00000E+00
 -1      3595 1.17285E+02 1.30992E+01 0.00000E+00
 -1      3596 1.15785E+02 1.30992E+01 0.00000E+00
 -1      3597 1.15035E+02 1.43982E+01 0.00000E+00
 -1      3598 1.20285E+02 1.30992E+01 0.00000E+00
 -1      3599 1.18785E+02 1.30992E+01 0.00000E+00
 -1      3600 1.18035E+02 1.43982E+01 0.00000E+00
 -1      3601 1.23285E+02 1.30992E+01 0.00000E+00
 -1      3602 1.21785E+02 1.30992E+01 0.00000E+00
 -1      3603 1.21035E+02 1.43982E+01 0.00000E+00
 -1      3604 1.26285E+02 1.30992E+01 0.00000E+00
 -1      3605 1.24785E+02 1.30992E+01 0.00000E+00
 -1      3606 1.24035E+02 1.43982E+01 0.00000E+00
 -1      3607 1.29285E+02 1.30992E+01 0.00000E+00
 -1      3608 1.27785E+02 1.30992E+01 0.00000E+00
 -1      3609 1.27035E+02 1.43982E+01 0.00000E+00
 -1      3610 1.32285E+02 1.30992E+01 0.00000E+00
 -1      3611 1.30785E+02 1.30992E+01 0.00000E+00
 -1      3612 1.30035E+02 1.43982E+01 0.00000E+00
 -1      3613 1.35285E+02 1.30992E+01 0.00000E+00
 -1      3614 1.33785E+02 1.30992E+01 0.00000E+00
 -1      3615 1.33035E+02 1.43982E+01 0.00000E+00
 -1      3616 2.85473E+01 3.66093E+01 0.00000E+00
 -1      3617 2.38693E+01 2.54828E+01 0.00000E+00
 -1      3618 2.41158E+01 2.43201E+01 0.00000E+00
 -1      3619 1.38528E+02 1.44149E+01 0.00000E+00
 -1      3620 1.38594E+02 1.31746E+01 0.00000E+00
 -1      3621 1.37668E+02 1.30636E+01 0.00000E+00
 -1      3622 1.37229E+02 1.51462E+01 0.00000E+00
 -1      3623 5.36001E+01 3.06522E+01 0.00000E+00
 -1      3624 5.31837E+01 3.19834E+01 0.00000E+00
 -1      3625 5.72850E+01 1.30992E+01 0.00000E+00
 -1      3626 5.57850E+01 1.30992E+01 0.00000E+00
 -1      3627 5.80350E+01 1.43982E+01 0.00000E+00
 -1      3628 5.36683E+01 1.36520E+01 0.00000E+00
 -1      3629 1.16910E+01 2.71844E+01 0.00000E+00
 -1      3630 1.16910E+01 2.86531E+01 0.00000E+00
 -1      3631 1.29900E+01 2.93875E+01 0.00000E+00
 -1      3632 2.12850E+01 1.30992E+01 0.00000E+00
 -1      3633 1.97850E+01 1.30992E+01 0.00000E+00
 -1      3634 2.04000E+01 3.57110E+01 0.00000E+00
 -1      3635 2.19000E+01 3.57110E+01 0.00000E+00
 -1      3636 2.60245E+01 1.16698E+01 0.00000E+00
 -1      3637 2.41730E+01 1.98649E+01 0.00000E+00
 -1      3638 2.48818E+01 1.85339E+01 0.00000E+00
 -1      3639 2.39309E+01 1.76209E+01 0.00000E+00
 -1      3640 1.76100E+01 3.55564E+01 0.00000E+00
 -1      3641 1.91100E+01 3.55564E+01 0.00000E+00
 -1      3642 1.98600E+01 3.42574E+01 0.00000E+00
 -1      3643 1.72800E+01 3.39483E+01 0.00000E+00
 -1      3644 5.42469E+01 2.42776E+01 0.00000E+00
 -1      3645 5.43244E+01 2.55146E+01 0.00000E+00
 -1      3646 5.52477E+01 2.33740E+01 0.00000E+00
 -1      3647 5.49924E+01 2.02469E+01 0.00000E+00
 -1      3648 1.42890E+01 1.39344E+01 0.00000E+00
 -1      3649 1.42890E+01 1.54031E+01 0.00000E+00
 -1      3650 2.65048E+01 3.63065E+01 0.00000E+00
 -1      3651 1.42890E+01 2.27625E+01 0.00000E+00
 -1      3652 1.42890E+01 2.42375E+01 0.00000E+00
 -1      3653 5.40986E+01 3.28649E+01 0.00000E+00
 -1      3654 5.29120E+01 3.32244E+01 0.00000E+00
 -1      3655 2.57727E+01 1.44000E+01 0.00000E+00
 -1      3656 2.57344E+01 1.25104E+01 0.00000E+00
 -1      3657 1.35711E+02 2.86750E+01 0.00000E+00
 -1      3658 1.34412E+02 2.79500E+01 0.00000E+00
 -1      3659 1.35711E+02 3.01500E+01 0.00000E+00
 -1      3660 2.34000E+01 3.57110E+01 0.00000E+00
 -1      3661 2.49000E+01 3.57110E+01 0.00000E+00
 -1      3662 5.47385E+01 3.55580E+01 0.00000E+00
 -1      3663 5.54885E+01 3.42590E+01 0.00000E+00
 -1      3664 5.35081E+01 1.70433E+01 0.00000E+00
 -1      3665 5.49471E+01 2.66075E+01 0.00000E+00
 -1      3666 5.55697E+01 2.77004E+01 0.00000E+00
 -1      3667 5.58478E+01 2.59301E+01 0.00000E+00
 -1      3668 5.45196E+01 3.00008E+01 0.00000E+00
 -1      3669 2.45473E+01 1.48857E+01 0.00000E+00
 -1      3670 1.44900E+01 3.23250E+01 0.00000E+00
 -1      3671 1.34022E+02 3.59901E+01 0.00000E+00
 -1      3672 1.35329E+02 3.61011E+01 0.00000E+00
 -1      3673 1.35515E+02 3.52494E+01 0.00000E+00
 -1      3674 1.33272E+02 3.46911E+01 0.00000E+00
 -1      3675 3.12216E+01 1.31033E+01 0.00000E+00
 -1      3676 1.35711E+02 2.42750E+01 0.00000E+00
 -1      3677 1.35711E+02 2.28000E+01 0.00000E+00
 -1      3678 1.34412E+02 2.50000E+01 0.00000E+00
 -1      3679 1.29900E+01 1.76125E+01 0.00000E+00
 -1      3680 1.35773E+02 1.52929E+01 0.00000E+00
 -1      3681 1.35992E+02 1.42516E+01 0.00000E+00
 -1      3682 1.36742E+02 1.29526E+01 0.00000E+00
 -1      3683 2.29799E+01 2.64057E+01 0.00000E+00
 -1      3684 5.13418E+01 3.61085E+01 0.00000E+00
 -1      3685 1.42890E+01 1.98250E+01 0.00000E+00
 -1      3686 1.42890E+01 2.12938E+01 0.00000E+00
 -1      3687 1.55880E+01 2.20313E+01 0.00000E+00
 -1      3688 2.32886E+01 2.11886E+01 0.00000E+00
 -1      3689 2.37308E+01 2.05267E+01 0.00000E+00
 -1      3690 2.27799E+01 1.96138E+01 0.00000E+00
 -1      3691 5.44183E+01 1.49510E+01 0.00000E+00
 -1      3692 2.35736E+01 2.33865E+01 0.00000E+00
 -1      3693 5.32385E+01 3.55580E+01 0.00000E+00
 -1      3694 2.57548E+01 3.50075E+01 0.00000E+00
 -1      3695 2.31951E+01 3.00340E+01 0.00000E+00
 -1      3696 2.25077E+01 2.93603E+01 0.00000E+00
 -1      3697 2.26509E+01 3.12543E+01 0.00000E+00
 -1      3698 2.48787E+01 3.37663E+01 0.00000E+00
 -1      3699 2.37441E+01 3.31700E+01 0.00000E+00
 -1      3700 2.26500E+01 3.44120E+01 0.00000E+00
 -1      3701 1.29900E+01 2.64469E+01 0.00000E+00
 -1      3702 1.84669E+01 1.29495E+01 0.00000E+00
 -1      3703 1.71488E+01 1.27997E+01 0.00000E+00
 -1      3704 1.92169E+01 1.42485E+01 0.00000E+00
 -1      3705 5.19303E+01 3.46564E+01 0.00000E+00
 -1      3706 1.35773E+02 1.82366E+01 0.00000E+00
 -1      3707 1.35773E+02 1.67647E+01 0.00000E+00
 -1      3708 1.34535E+02 1.58701E+01 0.00000E+00
 -1      3709 1.35702E+02 3.43976E+01 0.00000E+00
 -1      3710 1.34487E+02 3.38069E+01 0.00000E+00
 -1      3711 1.35795E+02 3.32342E+01 0.00000E+00
 -1      3712 1.35795E+02 3.17593E+01 0.00000E+00
 -1      3713 1.33365E+02 3.35277E+01 0.00000E+00
 -1      3714 5.57602E+01 3.30179E+01 0.00000E+00
 -1      3715 1.46944E+01 1.23503E+01 0.00000E+00
 -1      3716 1.59934E+01 1.30847E+01 0.00000E+00
 -1      3717 1.42890E+01 2.57094E+01 0.00000E+00
 -1      3718 1.42890E+01 2.71812E+01 0.00000E+00
 -1      3719 1.55880E+01 2.49719E+01 0.00000E+00
 -1      3720 1.67434E+01 1.43837E+01 0.00000E+00
 -1      3721 2.24299E+01 1.76759E+01 0.00000E+00
 -1      3722 2.31387E+01 1.63448E+01 0.00000E+00
 -1      3723 5.56248E+01 1.64906E+01 0.00000E+00
 -1      3724 6.09000E+01 3.31130E+01 0.00000E+00
 -1      3725 6.24000E+01 3.31130E+01 0.00000E+00
 -1      3726 6.39000E+01 3.31130E+01 0.00000E+00
 -1      3727 6.54000E+01 3.31130E+01 0.00000E+00
 -1      3728 6.31500E+01 3.18140E+01 0.00000E+00
 -1      3729 6.69000E+01 3.31130E+01 0.00000E+00
 -1      3730 6.84000E+01 3.31130E+01 0.00000E+00
 -1      3731 6.61500E+01 3.18140E+01 0.00000E+00
 -1      3732 6.99000E+01 3.31130E+01 0.00000E+00
 -1      3733 7.14000E+01 3.31130E+01 0.00000E+00
 -1      3734 6.91500E+01 3.18140E+01 0.00000E+00
 -1      3735 7.29000E+01 3.31130E+01 0.00000E+00
 -1      3736 7.44000E+01 3.31130E+01 0.00000E+00
 -1      3737 7.21500E+01 3.18140E+01 0.00000E+00
 -1      3738 7.59000E+01 3.31130E+01 0.00000E+00
 -1      3739 7.74000E+01 3.31130E+01 0.00000E+00
 -1      3740 7.51500E+01 3.18140E+01 0.00000E+00
 -1      3741 7.89000E+01 3.31130E+01 0.00000E+00
 -1      3742 8.04000E+01 3.31130E+01 0.00000E+00
 -1      3743 7.81500E+01 3.18140E+01 0.00000E+00
 -1      3744 8.19000E+01 3.31130E+01 0.00000E+00
 -1      3745 8.34000E+01 3.31130E+01 0.00000E+00
 -1      3746 8.11500E+01 3.18140E+01 0.00000E+00
 -1      3747 8.49000E+01 3.31130E+01 0.00000E+00
 -1      3748 8.64000E+01 3.31130E+01 0.00000E+00
 -1      3749 8.41500E+01 3.18140E+01 0.00000E+00
 -1      3750 8.79000E+01 3.31130E+01 0.00000E+00
 -1      3751 8.94000E+01 3.31130E+01 0.00000E+00
 -1      3752 8.71500E+01 3.18140E+01 0.00000E+00
 -1      3753 9.09000E+01 3.31130E+01 0.00000E+00
 -1      3754 9.24000E+01 3.31130E+01 0.00000E+00
 -1      3755 9.01500E+01 3.18140E+01 0.00000E+00
 -1      3756 9.39000E+01 3.31130E+01 0.00000E+00
 -1      3757 9.54000E+01 3.31130E+01 0.00000E+00
 -1      3758 9.31500E+01 3.18140E+01 0.00000E+00
 -1      3759 9.69000E+01 3.31130E+01 0.00000E+00
 -1      3760 9.84000E+01 3.31130E+01 0.00000E+00
 -1      3761 9.61500E+01 3.18140E+01 0.00000E+00
 -1      3762 9.99000E+01 3.31130E+01 0.00000E+00
 -1      3763 1.01400E+02 3.31130E+01 0.00000E+00
 -1      3764 9.91500E+01 3.18140E+01 0.00000E+00
 -1      3765 1.02900E+02 3.31130E+01 0.00000E+00
 -1      3766 1.04400E+02 3.31130E+01 0.00000E+00
 -1      3767 1.02150E+02 3.18140E+01 0.00000E+00
 -1      3768 1.05900E+02 3.31130E+01 0.00000E+00
 -1      3769 1.07400E+02 3.31130E+01 0.00000E+00
 -1      3770 1.05150E+02 3.18140E+01 0.00000E+00
 -1      3771 1.08900E+02 3.31130E+01 0.00000E+00
 -1      3772 1.10400E+02 3.31130E+01 0.00000E+00
 -1      3773 1.08150E+02 3.18140E+01 0.00000E+00
 -1      3774 1.11900E+02 3.31130E+01 0.00000E+00
 -1      3775 1.13400E+02 3.31130E+01 0.00000E+00
 -1      3776 1.11150E+02 3.18140E+01 0.00000E+00
 -1      3777 1.14900E+02 3.31130E+01 0.00000E+00
 -1      3778 1.16400E+02 3.31130E+01 0.00000E+00
 -1      3779 1.14150E+02 3.18140E+01 0.00000E+00
 -1      3780 1.17900E+02 3.31130E+01 0.00000E+00
 -1      3781 1.19400E+02 3.31130E+01 0.00000E+00
 -1      3782 1.17150E+02 3.18140E+01 0.00000E+00
 -1      3783 1.20900E+02 3.31130E+01 0.00000E+00
 -1      3784 1.22400E+02 3.31130E+01 0.00000E+00
 -1      3785 1.20150E+02 3.18140E+01 0.00000E+00
 -1      3786 1.23900E+02 3.31130E+01 0.00000E+00
 -1      3787 1.25400E+02 3.31130E+01 0.00000E+00
 -1      3788 1.23150E+02 3.18140E+01 0.00000E+00
 -1      3789 1.26900E+02 3.31130E+01 0.00000E+00
 -1      3790 1.28400E+02 3.31130E+01 0.00000E+00
 -1      3791 1.26150E+02 3.18140E+01 0.00000E+00
 -1      3792 1.29900E+02 3.31130E+01 0.00000E+00
 -1      3793 1.31400E+02 3.31130E+01 0.00000E+00
 -1      3794 1.29150E+02 3.18140E+01 0.00000E+00
 -1      3795 2.33364E+01 1.41000E+01 0.00000E+00
 -1      3796 2.18364E+01 1.41000E+01 0.00000E+00
 -1      3797 6.77850E+01 1.56973E+01 0.00000E+00
 -1      3798 6.62850E+01 1.56973E+01 0.00000E+00
 -1      3799 1.42890E+01 2.86500E+01 0.00000E+00
 -1      3800 1.42890E+01 3.01187E+01 0.00000E+00
 -1      3801 1.55880E+01 2.79125E+01 0.00000E+00
 -1      3802 6.47850E+01 1.56973E+01 0.00000E+00
 -1      3803 6.32850E+01 1.56973E+01 0.00000E+00
 -1      3804 6.55350E+01 1.69963E+01 0.00000E+00
 -1      3805 6.17850E+01 1.56973E+01 0.00000E+00
 -1      3806 6.02850E+01 1.56973E+01 0.00000E+00
 -1      3807 6.25350E+01 1.69963E+01 0.00000E+00
 -1      3808 7.07850E+01 1.56973E+01 0.00000E+00
 -1      3809 6.92850E+01 1.56973E+01 0.00000E+00
 -1      3810 6.85350E+01 1.69963E+01 0.00000E+00
 -1      3811 7.37850E+01 1.56973E+01 0.00000E+00
 -1      3812 7.22850E+01 1.56973E+01 0.00000E+00
 -1      3813 7.15350E+01 1.69963E+01 0.00000E+00
 -1      3814 7.67850E+01 1.56973E+01 0.00000E+00
 -1      3815 7.52850E+01 1.56973E+01 0.00000E+00
 -1      3816 7.45350E+01 1.69963E+01 0.00000E+00
 -1      3817 7.97850E+01 1.56973E+01 0.00000E+00
 -1      3818 7.82850E+01 1.56973E+01 0.00000E+00
 -1      3819 7.75350E+01 1.69963E+01 0.00000E+00
 -1      3820 8.27850E+01 1.56973E+01 0.00000E+00
 -1      3821 8.12850E+01 1.56973E+01 0.00000E+00
 -1      3822 8.05350E+01 1.69963E+01 0.00000E+00
 -1      3823 8.57850E+01 1.56973E+01 0.00000E+00
 -1      3824 8.42850E+01 1.56973E+01 0.00000E+00
 -1      3825 8.35350E+01 1.69963E+01 0.00000E+00
 -1      3826 8.87850E+01 1.56973E+01 0.00000E+00
 -1      3827 8.72850E+01 1.56973E+01 0.00000E+00
 -1      3828 8.65350E+01 1.69963E+01 0.00000E+00
 -1      3829 9.17850E+01 1.56973E+01 0.00000E+00
 -1      3830 9.02850E+01 1.56973E+01 0.00000E+00
 -1      3831 8.95350E+01 1.69963E+01 0.00000E+00
 -1      3832 9.47850E+01 1.56973E+01 0.00000E+00
 -1      3833 9.32850E+01 1.56973E+01 0.00000E+00
 -1      3834 9.25350E+01 1.69963E+01 0.00000E+00
 -1      3835 9.77850E+01 1.56973E+01 0.00000E+00
 -1      3836 9.62850E+01 1.56973E+01 0.00000E+00
 -1      3837 9.55350E+01 1.69963E+01 0.00000E+00
 -1      3838 1.00785E+02 1.56973E+01 0.00000E+00
 -1      3839 9.92850E+01 1.56973E+01 0.00000E+00
 -1      3840 9.85350E+01 1.69963E+01 0.00000E+00
 -1      3841 1.03785E+02 1.56973E+01 0.00000E+00
 -1      3842 1.02285E+02 1.56973E+01 0.00000E+00
 -1      3843 1.01535E+02 1.69963E+01 0.00000E+00
 -1      3844 1.06785E+02 1.56973E+01 0.00000E+00
 -1      3845 1.05285E+02 1.56973E+01 0.00000E+00
 -1      3846 1.04535E+02 1.69963E+01 0.00000E+00
 -1      3847 1.09785E+02 1.56973E+01 0.00000E+00
 -1      3848 1.08285E+02 1.56973E+01 0.00000E+00
 -1      3849 1.07535E+02 1.69963E+01 0.00000E+00
 -1      3850 1.12785E+02 1.56973E+01 0.00000E+00
 -1      3851 1.11285E+02 1.56973E+01 0.00000E+00
 -1      3852 1.10535E+02 1.69963E+01 0.00000E+00
 -1      3853 1.15785E+02 1.56973E+01 0.00000E+00
 -1      3854 1.14285E+02 1.56973E+01 0.00000E+00
 -1      3855 1.13535E+02 1.69963E+01 0.00000E+00
 -1      3856 1.18785E+02 1.56973E+01 0.00000E+00
 -1      3857 1.17285E+02 1.56973E+01 0.00000E+00
 -1      3858 1.16535E+02 1.69963E+01 0.00000E+00
 -1      3859 1.21785E+02 1.56973E+01 0.00000E+00
 -1      3860 1.20285E+02 1.56973E+01 0.00000E+00
 -1      3861 1.19535E+02 1.69963E+01 0.00000E+00
 -1      3862 1.24785E+02 1.56973E+01 0.00000E+00
 -1      3863 1.23285E+02 1.56973E+01 0.00000E+00
 -1      3864 1.22535E+02 1.69963E+01 0.00000E+00
 -1      3865 1.27785E+02 1.56973E+01 0.00000E+00
 -1      3866 1.26285E+02 1.56973E+01 0.00000E+00
 -1      3867 1.25535E+02 1.69963E+01 0.00000E+00
 -1      3868 1.30785E+02 1.56973E+01 0.00000E+00
 -1      3869 1.29285E+02 1.56973E+01 0.00000E+00
 -1      3870 1.28535E+02 1.69963E+01 0.00000E+00
 -1      3871 1.33410E+02 1.57837E+01 0.00000E+00
 -1      3872 1.31910E+02 1.57837E+01 0.00000E+00
 -1      3873 1.31160E+02 1.70827E+01 0.00000E+00
 -1      3874 1.33410E+02 1.72556E+01 0.00000E+00
 -1      3875 5.59692E+01 3.14196E+01 0.00000E+00
 -1      3876 5.73591E+01 3.28137E+01 0.00000E+00
 -1      3877 1.35711E+02 2.13281E+01 0.00000E+00
 -1      3878 1.35711E+02 1.98563E+01 0.00000E+00
 -1      3879 1.34412E+02 2.20531E+01 0.00000E+00
 -1      3880 2.19080E+01 2.73189E+01 0.00000E+00
 -1      3881 2.18359E+01 2.55846E+01 0.00000E+00
 -1      3882 5.87049E+01 1.60939E+01 0.00000E+00
 -1      3883 5.72049E+01 1.60939E+01 0.00000E+00
 -1      3884 5.62947E+01 1.81862E+01 0.00000E+00
 -1      3885 5.94549E+01 1.73929E+01 0.00000E+00
 -1      3886 5.65725E+01 1.98502E+01 0.00000E+00
 -1      3887 5.68503E+01 2.15142E+01 0.00000E+00
 -1      3888 5.81526E+01 1.94536E+01 0.00000E+00
 -1      3889 2.22441E+01 3.31700E+01 0.00000E+00
 -1      3890 2.19569E+01 2.37585E+01 0.00000E+00
 -1      3891 2.26228E+01 2.24735E+01 0.00000E+00
 -1      3892 2.16719E+01 2.15606E+01 0.00000E+00
 -1      3893 5.88591E+01 3.28137E+01 0.00000E+00
 -1      3894 5.61185E+01 2.97967E+01 0.00000E+00
 -1      3895 1.42890E+01 1.68766E+01 0.00000E+00
 -1      3896 1.42890E+01 1.83516E+01 0.00000E+00
 -1      3897 1.55880E+01 1.90891E+01 0.00000E+00
 -1      3898 1.55880E+01 1.61422E+01 0.00000E+00
 -1      3899 2.19877E+01 1.83377E+01 0.00000E+00
 -1      3900 2.11956E+01 1.70616E+01 0.00000E+00
 -1      3901 2.15455E+01 1.89995E+01 0.00000E+00
 -1      3902 2.07084E+01 3.33769E+01 0.00000E+00
 -1      3903 2.18025E+01 3.21348E+01 0.00000E+00
 -1      3904 2.11151E+01 3.14611E+01 0.00000E+00
 -1      3905 1.94184E+01 3.32223E+01 0.00000E+00
 -1      3906 1.57890E+01 3.15875E+01 0.00000E+00
 -1      3907 5.63603E+01 2.29906E+01 0.00000E+00
 -1      3908 5.63378E+01 2.44537E+01 0.00000E+00
 -1      3909 5.69604E+01 2.55466E+01 0.00000E+00
 -1      3910 5.79404E+01 2.25939E+01 0.00000E+00
 -1      3911 2.08195E+01 2.97595E+01 0.00000E+00
 -1      3912 2.13637E+01 2.85392E+01 0.00000E+00
 -1      3913 2.02197E+01 2.77181E+01 0.00000E+00
 -1      3914 5.70192E+01 2.91192E+01 0.00000E+00
 -1      3915 2.47449E+01 1.26409E+01 0.00000E+00
 -1      3916 1.33113E+02 2.86875E+01 0.00000E+00
 -1      3917 1.33113E+02 2.72125E+01 0.00000E+00
 -1      3918 5.96091E+01 3.15147E+01 0.00000E+00
 -1      3919 1.32615E+02 3.22287E+01 0.00000E+00
 -1      3920 1.33113E+02 2.57375E+01 0.00000E+00
 -1      3921 1.33113E+02 2.42625E+01 0.00000E+00
 -1      3922 1.31814E+02 2.64750E+01 0.00000E+00
 -1      3923 1.78988E+01 1.55721E+01 0.00000E+00
 -1      3924 1.67434E+01 1.58572E+01 0.00000E+00
 -1      3925 1.67434E+01 1.73306E+01 0.00000E+00
 -1      3926 1.34473E+02 1.89616E+01 0.00000E+00
 -1      3927 2.08850E+01 2.46716E+01 0.00000E+00
 -1      3928 1.68870E+01 2.42359E+01 0.00000E+00
 -1      3929 1.68870E+01 2.57078E+01 0.00000E+00
 -1      3930 2.10864E+01 1.53990E+01 0.00000E+00
 -1      3931 1.68870E+01 2.12984E+01 0.00000E+00
 -1      3932 1.68870E+01 2.27672E+01 0.00000E+00
 -1      3933 1.81860E+01 2.35031E+01 0.00000E+00
 -1      3934 1.34496E+02 3.10343E+01 0.00000E+00
 -1      3935 1.69587E+01 3.23276E+01 0.00000E+00
 -1      3936 1.82487E+01 3.24822E+01 0.00000E+00
 -1      3937 1.90971E+01 3.16016E+01 0.00000E+00
 -1      3938 1.67577E+01 3.01214E+01 0.00000E+00
 -1      3939 2.02243E+01 1.65263E+01 0.00000E+00
 -1      3940 1.96730E+01 1.55255E+01 0.00000E+00
 -1      3941 6.92850E+01 1.82952E+01 0.00000E+00
 -1      3942 6.77850E+01 1.82952E+01 0.00000E+00
 -1      3943 1.32531E+02 3.06195E+01 0.00000E+00
 -1      3944 1.31232E+02 2.98820E+01 0.00000E+00
 -1      3945 5.90602E+01 2.94185E+01 0.00000E+00
 -1      3946 6.11011E+01 2.97178E+01 0.00000E+00
 -1      3947 5.85113E+01 2.73223E+01 0.00000E+00
 -1      3948 6.26011E+01 2.97178E+01 0.00000E+00
 -1      3949 6.41011E+01 2.97178E+01 0.00000E+00
 -1      3950 6.20523E+01 2.76215E+01 0.00000E+00
 -1      3951 1.97821E+01 1.71881E+01 0.00000E+00
 -1      3952 5.97327E+01 1.90569E+01 0.00000E+00
 -1      3953 6.00105E+01 2.07209E+01 0.00000E+00
 -1      3954 6.13128E+01 1.86603E+01 0.00000E+00
 -1      3955 6.56011E+01 2.97178E+01 0.00000E+00
 -1      3956 6.71011E+01 2.97178E+01 0.00000E+00
 -1      3957 6.50523E+01 2.76215E+01 0.00000E+00
 -1      3958 6.86011E+01 2.97178E+01 0.00000E+00
 -1      3959 7.01011E+01 2.97178E+01 0.00000E+00
 -1      3960 6.80523E+01 2.76215E+01 0.00000E+00
 -1      3961 7.16011E+01 2.97178E+01 0.00000E+00
 -1      3962 7.31011E+01 2.97178E+01 0.00000E+00
 -1      3963 7.10523E+01 2.76215E+01 0.00000E+00
 -1      3964 7.46011E+01 2.97178E+01 0.00000E+00
 -1      3965 7.61011E+01 2.97178E+01 0.00000E+00
 -1      3966 7.40523E+01 2.76215E+01 0.00000E+00
 -1      3967 7.76011E+01 2.97178E+01 0.00000E+00
 -1      3968 7.91011E+01 2.97178E+01 0.00000E+00
 -1      3969 7.70523E+01 2.76215E+01 0.00000E+00
 -1      3970 8.06011E+01 2.97178E+01 0.00000E+00
 -1      3971 8.21011E+01 2.97178E+01 0.00000E+00
 -1      3972 8.00523E+01 2.76215E+01 0.00000E+00
 -1      3973 8.36011E+01 2.97178E+01 0.00000E+00
 -1      3974 8.51011E+01 2.97178E+01 0.00000E+00
 -1      3975 8.30523E+01 2.76215E+01 0.00000E+00
 -1      3976 8.66011E+01 2.97178E+01 0.00000E+00
 -1      3977 8.81011E+01 2.97178E+01 0.00000E+00
 -1      3978 8.60523E+01 2.76215E+01 0.00000E+00
 -1      3979 8.96011E+01 2.97178E+01 0.00000E+00
 -1      3980 9.11011E+01 2.97178E+01 0.00000E+00
 -1      3981 8.90523E+01 2.76215E+01 0.00000E+00
 -1      3982 9.26011E+01 2.97178E+01 0.00000E+00
 -1      3983 9.41011E+01 2.97178E+01 0.00000E+00
 -1      3984 9.20523E+01 2.76215E+01 0.00000E+00
 -1      3985 9.56011E+01 2.97178E+01 0.00000E+00
 -1      3986 9.71011E+01 2.97178E+01 0.00000E+00
 -1      3987 9.50523E+01 2.76215E+01 0.00000E+00
 -1      3988 9.86011E+01 2.97178E+01 0.00000E+00
 -1      3989 1.00101E+02 2.97178E+01 0.00000E+00
 -1      3990 9.80523E+01 2.76215E+01 0.00000E+00
 -1      3991 1.01601E+02 2.97178E+01 0.00000E+00
 -1      3992 1.03101E+02 2.97178E+01 0.00000E+00
 -1      3993 1.01052E+02 2.76215E+01 0.00000E+00
 -1      3994 1.04601E+02 2.97178E+01 0.00000E+00
 -1      3995 1.06101E+02 2.97178E+01 0.00000E+00
 -1      3996 1.04052E+02 2.76215E+01 0.00000E+00
 -1      3997 1.07601E+02 2.97178E+01 0.00000E+00
 -1      3998 1.09101E+02 2.97178E+01 0.00000E+00
 -1      3999 1.07052E+02 2.76215E+01 0.00000E+00
 -1      4000 1.10601E+02 2.97178E+01 0.00000E+00
 -1      4001 1.12101E+02 2.97178E+01 0.00000E+00
 -1      4002 1.10052E+02 2.76215E+01 0.00000E+00
 -1      4003 1.13601E+02 2.97178E+01 0.00000E+00
 -1      4004 1.15101E+02 2.97178E+01 0.00000E+00
 -1      4005 1.13052E+02 2.76215E+01 0.00000E+00
 -1      4006 1.16601E+02 2.97178E+01 0.00000E+00
 -1      4007 1.18101E+02 2.97178E+01 0.00000E+00
 -1      4008 1.16052E+02 2.76215E+01 0.00000E+00
 -1      4009 1.19601E+02 2.97178E+01 0.00000E+00
 -1      4010 1.21101E+02 2.97178E+01 0.00000E+00
 -1      4011 1.19052E+02 2.76215E+01 0.00000E+00
 -1      4012 1.22601E+02 2.97178E+01 0.00000E+00
 -1      4013 1.24101E+02 2.97178E+01 0.00000E+00
 -1      4014 1.22052E+02 2.76215E+01 0.00000E+00
 -1      4015 1.25601E+02 2.97178E+01 0.00000E+00
 -1      4016 1.27101E+02 2.97178E+01 0.00000E+00
 -1      4017 1.25052E+02 2.76215E+01 0.00000E+00
 -1      4018 1.28417E+02 2.97999E+01 0.00000E+00
 -1      4019 1.29917E+02 2.97999E+01 0.00000E+00
 -1      4020 1.30499E+02 2.78679E+01 0.00000E+00
 -1      4021 1.27868E+02 2.77037E+01 0.00000E+00
 -1      4022 1.68223E+01 2.71802E+01 0.00000E+00
 -1      4023 1.68223E+01 2.86490E+01 0.00000E+00
 -1      4024 1.79920E+01 2.93891E+01 0.00000E+00
 -1      4025 1.81213E+01 2.64443E+01 0.00000E+00
 -1      4026 6.62850E+01 1.82952E+01 0.00000E+00
 -1      4027 6.47850E+01 1.82952E+01 0.00000E+00
 -1      4028 6.70350E+01 1.95942E+01 0.00000E+00
 -1      4029 6.28128E+01 1.86603E+01 0.00000E+00
 -1      4030 7.52850E+01 1.82952E+01 0.00000E+00
 -1      4031 7.37850E+01 1.82952E+01 0.00000E+00
 -1      4032 7.82850E+01 1.82952E+01 0.00000E+00
 -1      4033 7.67850E+01 1.82952E+01 0.00000E+00
 -1      4034 7.60350E+01 1.95942E+01 0.00000E+00
 -1      4035 8.12850E+01 1.82952E+01 0.00000E+00
 -1      4036 7.97850E+01 1.82952E+01 0.00000E+00
 -1      4037 7.90350E+01 1.95942E+01 0.00000E+00
 -1      4038 8.42850E+01 1.82952E+01 0.00000E+00
 -1      4039 8.27850E+01 1.82952E+01 0.00000E+00
 -1      4040 8.20350E+01 1.95942E+01 0.00000E+00
 -1      4041 8.72850E+01 1.82952E+01 0.00000E+00
 -1      4042 8.57850E+01 1.82952E+01 0.00000E+00
 -1      4043 8.50350E+01 1.95942E+01 0.00000E+00
 -1      4044 9.02850E+01 1.82952E+01 0.00000E+00
 -1      4045 8.87850E+01 1.82952E+01 0.00000E+00
 -1      4046 8.80350E+01 1.95942E+01 0.00000E+00
 -1      4047 9.32850E+01 1.82952E+01 0.00000E+00
 -1      4048 9.17850E+01 1.82952E+01 0.00000E+00
 -1      4049 9.10350E+01 1.95942E+01 0.00000E+00
 -1      4050 9.62850E+01 1.82952E+01 0.00000E+00
 -1      4051 9.47850E+01 1.82952E+01 0.00000E+00
 -1      4052 9.40350E+01 1.95942E+01 0.00000E+00
 -1      4053 9.92850E+01 1.82952E+01 0.00000E+00
 -1      4054 9.77850E+01 1.82952E+01 0.00000E+00
 -1      4055 9.70350E+01 1.95942E+01 0.00000E+00
 -1      4056 1.02285E+02 1.82952E+01 0.00000E+00
 -1      4057 1.00785E+02 1.82952E+01 0.00000E+00
 -1      4058 1.00035E+02 1.95942E+01 0.00000E+00
 -1      4059 1.05285E+02 1.82952E+01 0.00000E+00
 -1      4060 1.03785E+02 1.82952E+01 0.00000E+00
 -1      4061 1.03035E+02 1.95942E+01 0.00000E+00
 -1      4062 1.08285E+02 1.82952E+01 0.00000E+00
 -1      4063 1.06785E+02 1.82952E+01 0.00000E+00
 -1      4064 1.06035E+02 1.95942E+01 0.00000E+00
 -1      4065 1.11285E+02 1.82952E+01 0.00000E+00
 -1      4066 1.09785E+02 1.82952E+01 0.00000E+00
 -1      4067 1.09035E+02 1.95942E+01 0.00000E+00
 -1      4068 1.14285E+02 1.82952E+01 0.00000E+00
 -1      4069 1.12785E+02 1.82952E+01 0.00000E+00
 -1      4070 1.12035E+02 1.95942E+01 0.00000E+00
 -1      4071 1.17285E+02 1.82952E+01 0.00000E+00
 -1      4072 1.15785E+02 1.82952E+01 0.00000E+00
 -1      4073 1.15035E+02 1.95942E+01 0.00000E+00
 -1      4074 1.20285E+02 1.82952E+01 0.00000E+00
 -1      4075 1.18785E+02 1.82952E+01 0.00000E+00
 -1      4076 1.18035E+02 1.95942E+01 0.00000E+00
 -1      4077 1.23285E+02 1.82952E+01 0.00000E+00
 -1      4078 1.21785E+02 1.82952E+01 0.00000E+00
 -1      4079 1.21035E+02 1.95942E+01 0.00000E+00
 -1      4080 1.26285E+02 1.82952E+01 0.00000E+00
 -1      4081 1.24785E+02 1.82952E+01 0.00000E+00
 -1      4082 1.24035E+02 1.95942E+01 0.00000E+00
 -1      4083 1.29285E+02 1.82952E+01 0.00000E+00
 -1      4084 1.27785E+02 1.82952E+01 0.00000E+00
 -1      4085 1.27035E+02 1.95942E+01 0.00000E+00
 -1      4086 1.68152E+01 1.85778E+01 0.00000E+00
 -1      4087 1.68152E+01 2.00512E+01 0.00000E+00
 -1      4088 1.81142E+01 2.07872E+01 0.00000E+00
 -1      4089 1.79706E+01 1.82928E+01 0.00000E+00
 -1      4090 1.33113E+02 2.27906E+01 0.00000E+00
 -1      4091 1.33113E+02 2.13188E+01 0.00000E+00
 -1      4092 1.31814E+02 2.35281E+01 0.00000E+00
 -1      4093 7.22850E+01 1.82952E+01 0.00000E+00
 -1      4094 7.07850E+01 1.82952E+01 0.00000E+00
 -1      4095 7.00350E+01 1.95942E+01 0.00000E+00
 -1      4096 7.30350E+01 1.95942E+01 0.00000E+00
 -1      4097 1.94750E+01 2.57348E+01 0.00000E+00
 -1      4098 1.95961E+01 2.39087E+01 0.00000E+00
 -1      4099 1.33231E+02 2.00970E+01 0.00000E+00
 -1      4100 1.33292E+02 1.84773E+01 0.00000E+00
 -1      4101 1.32167E+02 1.83909E+01 0.00000E+00
 -1      4102 1.31932E+02 2.08345E+01 0.00000E+00
 -1      4103 2.11231E+01 2.00124E+01 0.00000E+00
 -1      4104 2.03309E+01 1.87363E+01 0.00000E+00
 -1      4105 1.93597E+01 1.82009E+01 0.00000E+00
 -1      4106 2.04573E+01 2.12973E+01 0.00000E+00
 -1      4107 1.95961E+01 2.24399E+01 0.00000E+00
 -1      4108 1.99711E+01 3.06401E+01 0.00000E+00
 -1      4109 1.83548E+01 1.53757E+01 0.00000E+00
 -1      4110 1.30499E+02 2.63929E+01 0.00000E+00
 -1      4111 5.90013E+01 2.58459E+01 0.00000E+00
 -1      4112 1.31042E+02 1.83045E+01 0.00000E+00
 -1      4113 1.90473E+01 2.08917E+01 0.00000E+00
 -1      4114 1.30292E+02 1.96035E+01 0.00000E+00
 -1      4115 2.30463E+01 1.49406E+01 0.00000E+00
 -1      4116 6.35628E+01 1.99593E+01 0.00000E+00
 -1      4117 1.94103E+01 2.72072E+01 0.00000E+00
 -1      4118 5.95205E+01 2.21973E+01 0.00000E+00
 -1      4119 5.90305E+01 2.36736E+01 0.00000E+00
 -1      4120 6.11006E+01 2.18006E+01 0.00000E+00
 -1      4121 6.13023E+01 2.63225E+01 0.00000E+00
 -1      4122 6.28023E+01 2.63225E+01 0.00000E+00
 -1      4123 6.43023E+01 2.63225E+01 0.00000E+00
 -1      4124 6.58023E+01 2.63225E+01 0.00000E+00
 -1      4125 6.35523E+01 2.50235E+01 0.00000E+00
 -1      4126 6.73023E+01 2.63225E+01 0.00000E+00
 -1      4127 6.88023E+01 2.63225E+01 0.00000E+00
 -1      4128 6.65523E+01 2.50235E+01 0.00000E+00
 -1      4129 7.03023E+01 2.63225E+01 0.00000E+00
 -1      4130 7.18023E+01 2.63225E+01 0.00000E+00
 -1      4131 6.95523E+01 2.50235E+01 0.00000E+00
 -1      4132 7.33023E+01 2.63225E+01 0.00000E+00
 -1      4133 7.48023E+01 2.63225E+01 0.00000E+00
 -1      4134 7.25523E+01 2.50235E+01 0.00000E+00
 -1      4135 7.63023E+01 2.63225E+01 0.00000E+00
 -1      4136 7.78023E+01 2.63225E+01 0.00000E+00
 -1      4137 7.55523E+01 2.50235E+01 0.00000E+00
 -1      4138 7.93023E+01 2.63225E+01 0.00000E+00
 -1      4139 8.08023E+01 2.63225E+01 0.00000E+00
 -1      4140 7.85523E+01 2.50235E+01 0.00000E+00
 -1      4141 8.23023E+01 2.63225E+01 0.00000E+00
 -1      4142 8.38023E+01 2.63225E+01 0.00000E+00
 -1      4143 8.15523E+01 2.50235E+01 0.00000E+00
 -1      4144 8.53023E+01 2.63225E+01 0.00000E+00
 -1      4145 8.68023E+01 2.63225E+01 0.00000E+00
 -1      4146 8.45523E+01 2.50235E+01 0.00000E+00
 -1      4147 8.83023E+01 2.63225E+01 0.00000E+00
 -1      4148 8.98023E+01 2.63225E+01 0.00000E+00
 -1      4149 8.75523E+01 2.50235E+01 0.00000E+00
 -1      4150 9.13023E+01 2.63225E+01 0.00000E+00
 -1      4151 9.28023E+01 2.63225E+01 0.00000E+00
 -1      4152 9.05523E+01 2.50235E+01 0.00000E+00
 -1      4153 9.43023E+01 2.63225E+01 0.00000E+00
 -1      4154 9.58023E+01 2.63225E+01 0.00000E+00
 -1      4155 9.35523E+01 2.50235E+01 0.00000E+00
 -1      4156 9.73023E+01 2.63225E+01 0.00000E+00
 -1      4157 9.88023E+01 2.63225E+01 0.00000E+00
 -1      4158 9.65523E+01 2.50235E+01 0.00000E+00
 -1      4159 1.00302E+02 2.63225E+01 0.00000E+00
 -1      4160 1.01802E+02 2.63225E+01 0.00000E+00
 -1      4161 9.95523E+01 2.50235E+01 0.00000E+00
 -1      4162 1.03302E+02 2.63225E+01 0.00000E+00
 -1      4163 1.04802E+02 2.63225E+01 0.00000E+00
 -1      4164 1.02552E+02 2.50235E+01 0.00000E+00
 -1      4165 1.06302E+02 2.63225E+01 0.00000E+00
 -1      4166 1.07802E+02 2.63225E+01 0.00000E+00
 -1      4167 1.05552E+02 2.50235E+01 0.00000E+00
 -1      4168 1.09302E+02 2.63225E+01 0.00000E+00
 -1      4169 1.10802E+02 2.63225E+01 0.00000E+00
 -1      4170 1.08552E+02 2.50235E+01 0.00000E+00
 -1      4171 1.12302E+02 2.63225E+01 0.00000E+00
 -1      4172 1.13802E+02 2.63225E+01 0.00000E+00
 -1      4173 1.11552E+02 2.50235E+01 0.00000E+00
 -1      4174 1.15302E+02 2.63225E+01 0.00000E+00
 -1      4175 1.16802E+02 2.63225E+01 0.00000E+00
 -1      4176 1.14552E+02 2.50235E+01 0.00000E+00
 -1      4177 1.18302E+02 2.63225E+01 0.00000E+00
 -1      4178 1.19802E+02 2.63225E+01 0.00000E+00
 -1      4179 1.17552E+02 2.50235E+01 0.00000E+00
 -1      4180 1.21302E+02 2.63225E+01 0.00000E+00
 -1      4181 1.22802E+02 2.63225E+01 0.00000E+00
 -1      4182 1.20552E+02 2.50235E+01 0.00000E+00
 -1      4183 1.24302E+02 2.63225E+01 0.00000E+00
 -1      4184 1.25802E+02 2.63225E+01 0.00000E+00
 -1      4185 1.23552E+02 2.50235E+01 0.00000E+00
 -1      4186 1.27118E+02 2.64047E+01 0.00000E+00
 -1      4187 1.28433E+02 2.64868E+01 0.00000E+00
 -1      4188 1.26368E+02 2.51057E+01 0.00000E+00
 -1      4189 1.88661E+01 2.84275E+01 0.00000E+00
 -1      4190 8.27850E+01 2.08932E+01 0.00000E+00
 -1      4191 8.12850E+01 2.08932E+01 0.00000E+00
 -1      4192 7.97850E+01 2.08932E+01 0.00000E+00
 -1      4193 7.82850E+01 2.08932E+01 0.00000E+00
 -1      4194 8.05350E+01 2.21922E+01 0.00000E+00
 -1      4195 7.67850E+01 2.08932E+01 0.00000E+00
 -1      4196 7.52850E+01 2.08932E+01 0.00000E+00
 -1      4197 7.75350E+01 2.21922E+01 0.00000E+00
 -1      4198 8.57850E+01 2.08932E+01 0.00000E+00
 -1      4199 8.42850E+01 2.08932E+01 0.00000E+00
 -1      4200 8.35350E+01 2.21922E+01 0.00000E+00
 -1      4201 8.87850E+01 2.08932E+01 0.00000E+00
 -1      4202 8.72850E+01 2.08932E+01 0.00000E+00
 -1      4203 8.65350E+01 2.21922E+01 0.00000E+00
 -1      4204 9.17850E+01 2.08932E+01 0.00000E+00
 -1      4205 9.02850E+01 2.08932E+01 0.00000E+00
 -1      4206 8.95350E+01 2.21922E+01 0.00000E+00
 -1      4207 9.47850E+01 2.08932E+01 0.00000E+00
 -1      4208 9.32850E+01 2.08932E+01 0.00000E+00
 -1      4209 9.25350E+01 2.21922E+01 0.00000E+00
 -1      4210 9.77850E+01 2.08932E+01 0.00000E+00
 -1      4211 9.62850E+01 2.08932E+01 0.00000E+00
 -1      4212 9.55350E+01 2.21922E+01 0.00000E+00
 -1      4213 1.00785E+02 2.08932E+01 0.00000E+00
 -1      4214 9.92850E+01 2.08932E+01 0.00000E+00
 -1      4215 9.85350E+01 2.21922E+01 0.00000E+00
 -1      4216 1.03785E+02 2.08932E+01 0.00000E+00
 -1      4217 1.02285E+02 2.08932E+01 0.00000E+00
 -1      4218 1.01535E+02 2.21922E+01 0.00000E+00
 -1      4219 1.06785E+02 2.08932E+01 0.00000E+00
 -1      4220 1.05285E+02 2.08932E+01 0.00000E+00
 -1      4221 1.04535E+02 2.21922E+01 0.00000E+00
 -1      4222 1.09785E+02 2.08932E+01 0.00000E+00
 -1      4223 1.08285E+02 2.08932E+01 0.00000E+00
 -1      4224 1.07535E+02 2.21922E+01 0.00000E+00
 -1      4225 1.12785E+02 2.08932E+01 0.00000E+00
 -1      4226 1.11285E+02 2.08932E+01 0.00000E+00
 -1      4227 1.10535E+02 2.21922E+01 0.00000E+00
 -1      4228 1.15785E+02 2.08932E+01 0.00000E+00
 -1      4229 1.14285E+02 2.08932E+01 0.00000E+00
 -1      4230 1.13535E+02 2.21922E+01 0.00000E+00
 -1      4231 1.18785E+02 2.08932E+01 0.00000E+00
 -1      4232 1.17285E+02 2.08932E+01 0.00000E+00
 -1      4233 1.16535E+02 2.21922E+01 0.00000E+00
 -1      4234 1.21785E+02 2.08932E+01 0.00000E+00
 -1      4235 1.20285E+02 2.08932E+01 0.00000E+00
 -1      4236 1.19535E+02 2.21922E+01 0.00000E+00
 -1      4237 1.24785E+02 2.08932E+01 0.00000E+00
 -1      4238 1.23285E+02 2.08932E+01 0.00000E+00
 -1      4239 1.22535E+02 2.21922E+01 0.00000E+00
 -1      4240 1.27785E+02 2.08932E+01 0.00000E+00
 -1      4241 1.26285E+02 2.08932E+01 0.00000E+00
 -1      4242 1.25535E+02 2.21922E+01 0.00000E+00
 -1      4243 1.30174E+02 2.08253E+01 0.00000E+00
 -1      4244 6.47853E+01 2.10541E+01 0.00000E+00
 -1      4245 6.28131E+01 2.14191E+01 0.00000E+00
 -1      4246 1.30515E+02 2.42641E+01 0.00000E+00
 -1      4247 1.30515E+02 2.27922E+01 0.00000E+00
 -1      4248 1.89754E+01 1.96445E+01 0.00000E+00
 -1      4249 1.88015E+01 2.99000E+01 0.00000E+00
 -1      4250 1.84266E+01 1.80963E+01 0.00000E+00
 -1      4251 1.83548E+01 1.68491E+01 0.00000E+00
 -1      4252 1.28876E+02 2.15612E+01 0.00000E+00
 -1      4253 1.28126E+02 2.28602E+01 0.00000E+00
 -1      4254 7.37850E+01 2.08932E+01 0.00000E+00
 -1      4255 7.22850E+01 2.08932E+01 0.00000E+00
 -1      4256 7.45350E+01 2.21922E+01 0.00000E+00
 -1      4257 6.05814E+01 2.54492E+01 0.00000E+00
 -1      4258 6.23231E+01 2.28954E+01 0.00000E+00
 -1      4259 7.07850E+01 2.08932E+01 0.00000E+00
 -1      4260 6.92850E+01 2.08932E+01 0.00000E+00
 -1      4261 7.15350E+01 2.21922E+01 0.00000E+00
 -1      4262 6.77850E+01 2.08932E+01 0.00000E+00
 -1      4263 6.62850E+01 2.08932E+01 0.00000E+00
 -1      4264 1.29749E+02 2.50939E+01 0.00000E+00
 -1      4265 6.85350E+01 2.21922E+01 0.00000E+00
 -1      4266 6.55353E+01 2.23531E+01 0.00000E+00
 -1      4267 6.60436E+01 2.36079E+01 0.00000E+00
 -1      4268 6.75436E+01 2.36079E+01 0.00000E+00
 -1      4269 6.90436E+01 2.36079E+01 0.00000E+00
 -1      4270 7.05436E+01 2.36079E+01 0.00000E+00
 -1      4271 7.20436E+01 2.36079E+01 0.00000E+00
 -1      4272 7.35436E+01 2.36079E+01 0.00000E+00
 -1      4273 7.50436E+01 2.36079E+01 0.00000E+00
 -1      4274 7.65436E+01 2.36079E+01 0.00000E+00
 -1      4275 7.80436E+01 2.36079E+01 0.00000E+00
 -1      4276 7.95436E+01 2.36079E+01 0.00000E+00
 -1      4277 8.10436E+01 2.36079E+01 0.00000E+00
 -1      4278 8.25436E+01 2.36079E+01 0.00000E+00
 -1      4279 8.40436E+01 2.36079E+01 0.00000E+00
 -1      4280 8.55436E+01 2.36079E+01 0.00000E+00
 -1      4281 8.70436E+01 2.36079E+01 0.00000E+00
 -1      4282 8.85436E+01 2.36079E+01 0.00000E+00
 -1      4283 9.00436E+01 2.36079E+01 0.00000E+00
 -1      4284 9.15436E+01 2.36079E+01 0.00000E+00
 -1      4285 9.30436E+01 2.36079E+01 0.00000E+00
 -1      4286 9.45436E+01 2.36079E+01 0.00000E+00
 -1      4287 9.60436E+01 2.36079E+01 0.00000E+00
 -1      4288 9.75436E+01 2.36079E+01 0.00000E+00
 -1      4289 9.90436E+01 2.36079E+01 0.00000E+00
 -1      4290 1.00544E+02 2.36079E+01 0.00000E+00
 -1      4291 1.02044E+02 2.36079E+01 0.00000E+00
 -1      4292 1.03544E+02 2.36079E+01 0.00000E+00
 -1      4293 1.05044E+02 2.36079E+01 0.00000E+00
 -1      4294 1.06544E+02 2.36079E+01 0.00000E+00
 -1      4295 1.08044E+02 2.36079E+01 0.00000E+00
 -1      4296 1.09544E+02 2.36079E+01 0.00000E+00
 -1      4297 1.11044E+02 2.36079E+01 0.00000E+00
 -1      4298 1.12544E+02 2.36079E+01 0.00000E+00
 -1      4299 1.14044E+02 2.36079E+01 0.00000E+00
 -1      4300 1.15544E+02 2.36079E+01 0.00000E+00
 -1      4301 1.17044E+02 2.36079E+01 0.00000E+00
 -1      4302 1.18544E+02 2.36079E+01 0.00000E+00
 -1      4303 1.20044E+02 2.36079E+01 0.00000E+00
 -1      4304 1.21544E+02 2.36079E+01 0.00000E+00
 -1      4305 1.23044E+02 2.36079E+01 0.00000E+00
 -1      4306 1.24544E+02 2.36079E+01 0.00000E+00
 -1      4307 1.26044E+02 2.36079E+01 0.00000E+00
 -1      4308 1.28450E+02 2.43579E+01 0.00000E+00
 -1      4309 6.45439E+01 2.37687E+01 0.00000E+00
 -1      4310 1.27359E+02 2.36900E+01 0.00000E+00
 -1      4311 6.30439E+01 2.37687E+01 0.00000E+00
 -1      4312 6.13314E+01 2.41502E+01 0.00000E+00
 -3
    3C                          2074                                     1
 -1       165    8    0    1
 -2         6         7        23      1120      1284      1137
 -1       166    8    0    1
 -2         7         8       165      1121      1285      1286
 -1       167    8    0    1
 -2         8         9       166      1122      1287      1288
 -1       168    8    0    1
 -2         8       166       165      1288      1289      1285
 -1       169    8    0    1
 -2         9        10       167      1123      1290      1291
 -1       170    8    0    1
 -2         9       167       166      1291      1292      1287
 -1       171    8    0    1
 -2        10        11       168      1124      1293      1294
 -1       172    8    0    1
 -2        10       168       167      1294      1295      1290
 -1       173    8    0    1
 -2        11        12       169      1125      1296      1297
 -1       174    8    0    1
 -2        11       169       168      1297      1298      1293
 -1       175    8    0    1
 -2        12        13       170      1126      1299      1300
 -1       176    8    0    1
 -2        12       170       169      1300      1301      1296
 -1       177    8    0    1
 -2        13        14       171      1127      1302      1303
 -1       178    8    0    1
 -2        13       171       170      1303      1304      1299
 -1       179    8    0    1
 -2        14        15       172      1128      1305      1306
 -1       180    8    0    1
 -2        14       172       171      1306      1307      1302
 -1       181    8    0    1
 -2        15        16       173      1129      1308      1309
 -1       182    8    0    1
 -2        15       173       172      1309      1310      1305
 -1       183    8    0    1
 -2        16        17       174      1130      1311      1312
 -1       184    8    0    1
 -2        16       174       173      1312      1313      1308
 -1       185    8    0    1
 -2        17        18       175      1131      1314      1315
 -1       186    8    0    1
 -2        17       175       174      1315      1316      1311
 -1       187    8    0    1
 -2        18        19       176      1132      1317      1318
 -1       188    8    0    1
 -2        18       176       175      1318      1319      1314
 -1       189    8    0    1
 -2        19        20       177      1133      1320      1321
 -1       190    8    0    1
 -2        19       177       176      1321      1322      1317
 -1       191    8    0    1
 -2        20        21       178      1134      1323      1324
 -1       192    8    0    1
 -2        20       178       177      1324      1325      1320
 -1       193    8    0    1
 -2        21        22       179      1135      1326      1327
 -1       194    8    0    1
 -2        21       179       178      1327      1328      1323
 -1       195    8    0    1
 -2        22         5       180      1136      1329      1330
 -1       196    8    0    1
 -2       179        22       180      1326      1330      1331
 -1       197    8    0    1
 -2         5        72       180      1187      1332      1329
 -1       198    8    0    1
 -2        24        23       181      1138      1333      1334
 -1       199    8    0    1
 -2        25        24       182      1139      1335      1336
 -1       200    8    0    1
 -2        24       181       182      1334      1337      1335
 -1       201    8    0    1
 -2        26        25       183      1140      1338      1339
 -1       202    8    0    1
 -2        25       182       183      1336      1340      1338
 -1       203    8    0    1
 -2        27        26       184      1141      1341      1342
 -1       204    8    0    1
 -2        26       183       184      1339      1343      1341
 -1       205    8    0    1
 -2        28        27       185      1142      1344      1345
 -1       206    8    0    1
 -2        27       184       185      1342      1346      1344
 -1       207    8    0    1
 -2        29        28       186      1143      1347      1348
 -1       208    8    0    1
 -2        28       185       186      1345      1349      1347
 -1       209    8    0    1
 -2        30        29       187      1144      1350      1351
 -1       210    8    0    1
 -2        29       186       187      1348      1352      1350
 -1       211    8    0    1
 -2        31        30       188      1145      1353      1354
 -1       212    8    0    1
 -2        30       187       188      1351      1355      1353
 -1       213    8    0    1
 -2        32        31       189      1146      1356      1357
 -1       214    8    0    1
 -2        31       188       189      1354      1358      1356
 -1       215    8    0    1
 -2        33        32       190      1147      1359      1360
 -1       216    8    0    1
 -2        32       189       190      1357      1361      1359
 -1       217    8    0    1
 -2        34        33       191      1148      1362      1363
 -1       218    8    0    1
 -2        33       190       191      1360      1364      1362
 -1       219    8    0    1
 -2        35        34       192      1149      1365      1366
 -1       220    8    0    1
 -2        34       191       192      1363      1367      1365
 -1       221    8    0    1
 -2        36        35       193      1150      1368      1369
 -1       222    8    0    1
 -2        35       192       193      1366      1370      1368
 -1       223    8    0    1
 -2        37        36       194      1151      1371      1372
 -1       224    8    0    1
 -2        36       193       194      1369      1373      1371
 -1       225    8    0    1
 -2        38        37       195      1152      1374      1375
 -1       226    8    0    1
 -2        37       194       195      1372      1376      1374
 -1       227    8    0    1
 -2        39        38       196      1153      1377      1378
 -1       228    8    0    1
 -2        38       195       196      1375      1379      1377
 -1       229    8    0    1
 -2        40        39       197      1154      1380      1381
 -1       230    8    0    1
 -2        39       196       197      1378      1382      1380
 -1       231    8    0    1
 -2        41        40       198      1155      1383      1384
 -1       232    8    0    1
 -2        40       197       198      1381      1385      1383
 -1       233    8    0    1
 -2        42        41       199      1156      1386      1387
 -1       234    8    0    1
 -2        41       198       199      1384      1388      1386
 -1       235    8    0    1
 -2        43        42       200      1157      1389      1390
 -1       236    8    0    1
 -2        42       199       200      1387      1391      1389
 -1       237    8    0    1
 -2        44        43       201      1158      1392      1393
 -1       238    8    0    1
 -2        43       200       201      1390      1394      1392
 -1       239    8    0    1
 -2        45        44       202      1159      1395      1396
 -1       240    8    0    1
 -2        44       201       202      1393      1397      1395
 -1       241    8    0    1
 -2        46        45       203      1160      1398      1399
 -1       242    8    0    1
 -2        45       202       203      1396      1400      1398
 -1       243    8    0    1
 -2        47        46       204      1161      1401      1402
 -1       244    8    0    1
 -2        46       203       204      1399      1403      1401
 -1       245    8    0    1
 -2        48        47       205      1162      1404      1405
 -1       246    8    0    1
 -2        47       204       205      1402      1406      1404
 -1       247    8    0    1
 -2        49        48       206      1163      1407      1408
 -1       248    8    0    1
 -2        48       205       206      1405      1409      1407
 -1       249    8    0    1
 -2        50        49       207      1164      1410      1411
 -1       250    8    0    1
 -2        49       206       207      1408      1412      1410
 -1       251    8    0    1
 -2        51        50       208      1165      1413      1414
 -1       252    8    0    1
 -2        50       207       208      1411      1415      1413
 -1       253    8    0    1
 -2        52        51       209      1166      1416      1417
 -1       254    8    0    1
 -2        51       208       209      1414      1418      1416
 -1       255    8    0    1
 -2        53        52       210      1167      1419      1420
 -1       256    8    0    1
 -2        52       209       210      1417      1421      1419
 -1       257    8    0    1
 -2        54        53       211      1168      1422      1423
 -1       258    8    0    1
 -2        53       210       211      1420      1424      1422
 -1       259    8    0    1
 -2        55        54       212      1169      1425      1426
 -1       260    8    0    1
 -2        54       211       212      1423      1427      1425
 -1       261    8    0    1
 -2        56        55       213      1170      1428      1429
 -1       262    8    0    1
 -2        55       212       213      1426      1430      1428
 -1       263    8    0    1
 -2        57        56       214      1171      1431      1432
 -1       264    8    0    1
 -2        56       213       214      1429      1433      1431
 -1       265    8    0    1
 -2        58        57       215      1172      1434      1435
 -1       266    8    0    1
 -2        57       214       215      1432      1436      1434
 -1       267    8    0    1
 -2        59        58       216      1173      1437      1438
 -1       268    8    0    1
 -2        58       215       216      1435      1439      1437
 -1       269    8    0    1
 -2        60        59       217      1174      1440      1441
 -1       270    8    0    1
 -2        59       216       217      1438      1442      1440
 -1       271    8    0    1
 -2        61        60       218      1175      1443      1444
 -1       272    8    0    1
 -2        60       217       218      1441      1445      1443
 -1       273    8    0    1
 -2        62        61       219      1176      1446      1447
 -1       274    8    0    1
 -2        61       218       219      1444      1448      1446
 -1       275    8    0    1
 -2        63        62       220      1177      1449      1450
 -1       276    8    0    1
 -2        62       219       220      1447      1451      1449
 -1       277    8    0    1
 -2        64        63       221      1178      1452      1453
 -1       278    8    0    1
 -2        63       220       221      1450      1454      1452
 -1       279    8    0    1
 -2        65        64       222      1179      1455      1456
 -1       280    8    0    1
 -2        64       221       222      1453      1457      1455
 -1       281    8    0    1
 -2        66        65       223      1180      1458      1459
 -1       282    8    0    1
 -2        65       222       223      1456      1460      1458
 -1       283    8    0    1
 -2        67        66       224      1181      1461      1462
 -1       284    8    0    1
 -2        66       223       224      1459      1463      1461
 -1       285    8    0    1
 -2        68        67       225      1182      1464      1465
 -1       286    8    0    1
 -2        67       224       225      1462      1466      1464
 -1       287    8    0    1
 -2        69        68       226      1183      1467      1468
 -1       288    8    0    1
 -2        68       225       226      1465      1469      1467
 -1       289    8    0    1
 -2        70        69       227      1184      1470      1471
 -1       290    8    0    1
 -2        69       226       227      1468      1472      1470
 -1       291    8    0    1
 -2        71        70       228      1185      1473      1474
 -1       292    8    0    1
 -2        70       227       228      1471      1475      1473
 -1       293    8    0    1
 -2         4        71       136      1186      1476      1253
 -1       294    8    0    1
 -2       136        71       228      1476      1474      1477
 -1       295    8    0    1
 -2        72        73       229      1188      1478      1479
 -1       296    8    0    1
 -2        72       229       180      1479      1480      1332
 -1       297    8    0    1
 -2        73        74       230      1189      1481      1482
 -1       298    8    0    1
 -2        73       230       229      1482      1483      1478
 -1       299    8    0    1
 -2        74        75       231      1190      1484      1485
 -1       300    8    0    1
 -2        74       231       230      1485      1486      1481
 -1       301    8    0    1
 -2        75        76       232      1191      1487      1488
 -1       302    8    0    1
 -2        75       232       231      1488      1489      1484
 -1       303    8    0    1
 -2        76        77       233      1192      1490      1491
 -1       304    8    0    1
 -2        76       233       232      1491      1492      1487
 -1       305    8    0    1
 -2        77        78       234      1193      1493      1494
 -1       306    8    0    1
 -2        77       234       233      1494      1495      1490
 -1       307    8    0    1
 -2        78        79       235      1194      1496      1497
 -1       308    8    0    1
 -2        78       235       234      1497      1498      1493
 -1       309    8    0    1
 -2        79        80       236      1195      1499      1500
 -1       310    8    0    1
 -2        79       236       235      1500      1501      1496
 -1       311    8    0    1
 -2        80        81       237      1196      1502      1503
 -1       312    8    0    1
 -2        80       237       236      1503      1504      1499
 -1       313    8    0    1
 -2        81        82       238      1197      1505      1506
 -1       314    8    0    1
 -2        81       238       237      1506      1507      1502
 -1       315    8    0    1
 -2        82        83       239      1198      1508      1509
 -1       316    8    0    1
 -2        82       239       238      1509      1510      1505
 -1       317    8    0    1
 -2        83        84       240      1199      1511      1512
 -1       318    8    0    1
 -2        83       240       239      1512      1513      1508
 -1       319    8    0    1
 -2        84        85       241      1200      1514      1515
 -1       320    8    0    1
 -2        84       241       240      1515      1516      1511
 -1       321    8    0    1
 -2        85        86       242      1201      1517      1518
 -1       322    8    0    1
 -2        85       242       241      1518      1519      1514
 -1       323    8    0    1
 -2        86        87       243      1202      1520      1521
 -1       324    8    0    1
 -2        86       243       242      1521      1522      1517
 -1       325    8    0    1
 -2        87        88       244      1203      1523      1524
 -1       326    8    0    1
 -2        87       244       243      1524      1525      1520
 -1       327    8    0    1
 -2        88        89       245      1204      1526      1527
 -1       328    8    0    1
 -2        88       245       244      1527      1528      1523
 -1       329    8    0    1
 -2        89        90       246      1205      1529      1530
 -1       330    8    0    1
 -2        89       246       245      1530      1531      1526
 -1       331    8    0    1
 -2        90        91       247      1206      1532      1533
 -1       332    8    0    1
 -2        90       247       246      1533      1534      1529
 -1       333    8    0    1
 -2        91        92       248      1207      1535      1536
 -1       334    8    0    1
 -2        91       248       247      1536      1537      1532
 -1       335    8    0    1
 -2        92        93       249      1208      1538      1539
 -1       336    8    0    1
 -2        92       249       248      1539      1540      1535
 -1       337    8    0    1
 -2        93        94       250      1209      1541      1542
 -1       338    8    0    1
 -2        93       250       249      1542      1543      1538
 -1       339    8    0    1
 -2        94        95       251      1210      1544      1545
 -1       340    8    0    1
 -2        94       251       250      1545      1546      1541
 -1       341    8    0    1
 -2        95        96       252      1211      1547      1548
 -1       342    8    0    1
 -2        95       252       251      1548      1549      1544
 -1       343    8    0    1
 -2        96        97       253      1212      1550      1551
 -1       344    8    0    1
 -2        96       253       252      1551      1552      1547
 -1       345    8    0    1
 -2        97        98       254      1213      1553      1554
 -1       346    8    0    1
 -2        97       254       253      1554      1555      1550
 -1       347    8    0    1
 -2        98        99       255      1214      1556      1557
 -1       348    8    0    1
 -2        98       255       254      1557      1558      1553
 -1       349    8    0    1
 -2        99       100       256      1215      1559      1560
 -1       350    8    0    1
 -2        99       256       255      1560      1561      1556
 -1       351    8    0    1
 -2       100       101       257      1216      1562      1563
 -1       352    8    0    1
 -2       100       257       256      1563      1564      1559
 -1       353    8    0    1
 -2       101       102       258      1217      1565      1566
 -1       354    8    0    1
 -2       101       258       257      1566      1567      1562
 -1       355    8    0    1
 -2       102       103       259      1218      1568      1569
 -1       356    8    0    1
 -2       102       259       258      1569      1570      1565
 -1       357    8    0    1
 -2       103       104       260      1219      1571      1572
 -1       358    8    0    1
 -2       103       260       259      1572      1573      1568
 -1       359    8    0    1
 -2       104       105       261      1220      1574      1575
 -1       360    8    0    1
 -2       104       261       260      1575      1576      1571
 -1       361    8    0    1
 -2       105       106       262      1221      1577      1578
 -1       362    8    0    1
 -2       105       262       261      1578      1579      1574
 -1       363    8    0    1
 -2       106       107       263      1222      1580      1581
 -1       364    8    0    1
 -2       106       263       262      1581      1582      1577
 -1       365    8    0    1
 -2       107       108       264      1223      1583      1584
 -1       366    8    0    1
 -2       107       264       263      1584      1585      1580
 -1       367    8    0    1
 -2       108       109       265      1224      1586      1587
 -1       368    8    0    1
 -2       108       265       264      1587      1588      1583
 -1       369    8    0    1
 -2       109       110       266      1225      1589      1590
 -1       370    8    0    1
 -2       109       266       265      1590      1591      1586
 -1       371    8    0    1
 -2       110       111       267      1226      1592      1593
 -1       372    8    0    1
 -2       110       267       266      1593      1594      1589
 -1       373    8    0    1
 -2       111       112       268      1227      1595      1596
 -1       374    8    0    1
 -2       111       268       267      1596      1597      1592
 -1       375    8    0    1
 -2       112       113       269      1228      1598      1599
 -1       376    8    0    1
 -2       112       269       268      1599      1600      1595
 -1       377    8    0    1
 -2       113       114       270      1229      1601      1602
 -1       378    8    0    1
 -2       113       270       269      1602      1603      1598
 -1       379    8    0    1
 -2       114       115       271      1230      1604      1605
 -1       380    8    0    1
 -2       114       271       270      1605      1606      1601
 -1       381    8    0    1
 -2       115       116       272      1231      1607      1608
 -1       382    8    0    1
 -2       115       272       271      1608      1609      1604
 -1       383    8    0    1
 -2       116       117       273      1232      1610      1611
 -1       384    8    0    1
 -2       116       273       272      1611      1612      1607
 -1       385    8    0    1
 -2       117       118       274      1233      1613      1614
 -1       386    8    0    1
 -2       117       274       273      1614      1615      1610
 -1       387    8    0    1
 -2       118       119       275      1234      1616      1617
 -1       388    8    0    1
 -2       118       275       274      1617      1618      1613
 -1       389    8    0    1
 -2       119       120       276      1235      1619      1620
 -1       390    8    0    1
 -2       119       276       275      1620      1621      1616
 -1       391    8    0    1
 -2       120         3       121      1236      1237      1622
 -1       392    8    0    1
 -2       121       122       277      1238      1623      1624
 -1       393    8    0    1
 -2       122       123       278      1239      1625      1626
 -1       394    8    0    1
 -2       122       278       277      1626      1627      1623
 -1       395    8    0    1
 -2       123       124       279      1240      1628      1629
 -1       396    8    0    1
 -2       123       279       278      1629      1630      1625
 -1       397    8    0    1
 -2       124       125       280      1241      1631      1632
 -1       398    8    0    1
 -2       124       280       279      1632      1633      1628
 -1       399    8    0    1
 -2       125       126       281      1242      1634      1635
 -1       400    8    0    1
 -2       125       281       280      1635      1636      1631
 -1       401    8    0    1
 -2       126       127       282      1243      1637      1638
 -1       402    8    0    1
 -2       126       282       281      1638      1639      1634
 -1       403    8    0    1
 -2       127       128       283      1244      1640      1641
 -1       404    8    0    1
 -2       127       283       282      1641      1642      1637
 -1       405    8    0    1
 -2       128       129       284      1245      1643      1644
 -1       406    8    0    1
 -2       128       284       283      1644      1645      1640
 -1       407    8    0    1
 -2       129       130       285      1246      1646      1647
 -1       408    8    0    1
 -2       129       285       284      1647      1648      1643
 -1       409    8    0    1
 -2       130       131       286      1247      1649      1650
 -1       410    8    0    1
 -2       130       286       285      1650      1651      1646
 -1       411    8    0    1
 -2       131       132       287      1248      1652      1653
 -1       412    8    0    1
 -2       131       287       286      1653      1654      1649
 -1       413    8    0    1
 -2       132       133       288      1249      1655      1656
 -1       414    8    0    1
 -2       132       288       287      1656      1657      1652
 -1       415    8    0    1
 -2       133       134       289      1250      1658      1659
 -1       416    8    0    1
 -2       133       289       288      1659      1660      1655
 -1       417    8    0    1
 -2       134       135       290      1251      1661      1662
 -1       418    8    0    1
 -2       134       290       289      1662      1663      1658
 -1       419    8    0    1
 -2       135       136       291      1252      1664      1665
 -1       420    8    0    1
 -2       290       135       291      1661      1665      1666
 -1       421    8    0    1
 -2       136       228       291      1477      1667      1664
 -1       422    8    0    1
 -2         2       137       292      1254      1668      1669
 -1       423    8    0    1
 -2       137       138       293      1255      1670      1671
 -1       424    8    0    1
 -2       138       139       294      1256      1672      1673
 -1       425    8    0    1
 -2       139       140       295      1257      1674      1675
 -1       426    8    0    1
 -2       140       141       296      1258      1676      1677
 -1       427    8    0    1
 -2       141       142       297      1259      1678      1679
 -1       428    8    0    1
 -2       142       143       298      1260      1680      1681
 -1       429    8    0    1
 -2       143       144       299      1261      1682      1683
 -1       430    8    0    1
 -2       144       145       300      1262      1684      1685
 -1       431    8    0    1
 -2       145       146       301      1263      1686      1687
 -1       432    8    0    1
 -2       146       147       302      1264      1688      1689
 -1       433    8    0    1
 -2       147       148       303      1265      1690      1691
 -1       434    8    0    1
 -2       148       149       304      1266      1692      1693
 -1       435    8    0    1
 -2       149       150       305      1267      1694      1695
 -1       436    8    0    1
 -2       150       151       306      1268      1696      1697
 -1       437    8    0    1
 -2       151       152       307      1269      1698      1699
 -1       438    8    0    1
 -2       152       153       308      1270      1700      1701
 -1       439    8    0    1
 -2       153       154       309      1271      1702      1703
 -1       440    8    0    1
 -2       154       155       310      1272      1704      1705
 -1       441    8    0    1
 -2       155       156       311      1273      1706      1707
 -1       442    8    0    1
 -2       156       157       312      1274      1708      1709
 -1       443    8    0    1
 -2       157       158       313      1275      1710      1711
 -1       444    8    0    1
 -2       158       159       314      1276      1712      1713
 -1       445    8    0    1
 -2       159       160       315      1277      1714      1715
 -1       446    8    0    1
 -2       160         1       316      1278      1716      1717
 -1       447    8    0    1
 -2         1       161       317      1279      1718      1719
 -1       448    8    0    1
 -2       161       162       318      1280      1720      1721
 -1       449    8    0    1
 -2       162       163       319      1281      1722      1723
 -1       450    8    0    1
 -2       163       164       320      1282      1724      1725
 -1       451    8    0    1
 -2       164         2       321      1283      1726      1727
 -1       452    8    0    1
 -2       295       140       296      1674      1677      1728
 -1       453    8    0    1
 -2       294       139       295      1672      1675      1729
 -1       454    8    0    1
 -2       120       121       276      1622      1730      1619
 -1       455    8    0    1
 -2       121       277       276      1624      1731      1730
 -1       456    8    0    1
 -2       292       137       293      1668      1671      1732
 -1       457    8    0    1
 -2       293       138       294      1670      1673      1733
 -1       458    8    0    1
 -2         2       292       321      1669      1734      1726
 -1       459    8    0    1
 -2       141       297       296      1679      1735      1676
 -1       460    8    0    1
 -2       142       298       297      1681      1736      1678
 -1       461    8    0    1
 -2       143       299       298      1683      1737      1680
 -1       462    8    0    1
 -2       144       300       299      1685      1738      1682
 -1       463    8    0    1
 -2       145       301       300      1687      1739      1684
 -1       464    8    0    1
 -2       146       302       301      1689      1740      1686
 -1       465    8    0    1
 -2       147       303       302      1691      1741      1688
 -1       466    8    0    1
 -2       148       304       303      1693      1742      1690
 -1       467    8    0    1
 -2       149       305       304      1695      1743      1692
 -1       468    8    0    1
 -2       150       306       305      1697      1744      1694
 -1       469    8    0    1
 -2       151       307       306      1699      1745      1696
 -1       470    8    0    1
 -2       152       308       307      1701      1746      1698
 -1       471    8    0    1
 -2       153       309       308      1703      1747      1700
 -1       472    8    0    1
 -2       154       310       309      1705      1748      1702
 -1       473    8    0    1
 -2       155       311       310      1707      1749      1704
 -1       474    8    0    1
 -2       156       312       311      1709      1750      1706
 -1       475    8    0    1
 -2       157       313       312      1711      1751      1708
 -1       476    8    0    1
 -2       158       314       313      1713      1752      1710
 -1       477    8    0    1
 -2       159       315       314      1715      1753      1712
 -1       478    8    0    1
 -2       160       316       315      1717      1754      1714
 -1       479    8    0    1
 -2         1       317       316      1719      1755      1716
 -1       480    8    0    1
 -2       161       318       317      1721      1756      1718
 -1       481    8    0    1
 -2       162       319       318      1723      1757      1720
 -1       482    8    0    1
 -2       163       320       319      1725      1758      1722
 -1       483    8    0    1
 -2       164       321       320      1727      1759      1724
 -1       484    8    0    1
 -2        23         7       165      1284      1286      1760
 -1       485    8    0    1
 -2       166       167       322      1292      1761      1762
 -1       486    8    0    1
 -2       165       166       323      1289      1763      1764
 -1       487    8    0    1
 -2       166       322       323      1762      1765      1763
 -1       488    8    0    1
 -2       168       169       324      1298      1766      1767
 -1       489    8    0    1
 -2       169       170       325      1301      1768      1769
 -1       490    8    0    1
 -2       169       325       324      1769      1770      1766
 -1       491    8    0    1
 -2       170       171       326      1304      1771      1772
 -1       492    8    0    1
 -2       170       326       325      1772      1773      1768
 -1       493    8    0    1
 -2       171       172       327      1307      1774      1775
 -1       494    8    0    1
 -2       171       327       326      1775      1776      1771
 -1       495    8    0    1
 -2       172       173       328      1310      1777      1778
 -1       496    8    0    1
 -2       172       328       327      1778      1779      1774
 -1       497    8    0    1
 -2       173       174       329      1313      1780      1781
 -1       498    8    0    1
 -2       173       329       328      1781      1782      1777
 -1       499    8    0    1
 -2       174       175       330      1316      1783      1784
 -1       500    8    0    1
 -2       174       330       329      1784      1785      1780
 -1       501    8    0    1
 -2       175       176       331      1319      1786      1787
 -1       502    8    0    1
 -2       175       331       330      1787      1788      1783
 -1       503    8    0    1
 -2       176       177       332      1322      1789      1790
 -1       504    8    0    1
 -2       176       332       331      1790      1791      1786
 -1       505    8    0    1
 -2       177       178       333      1325      1792      1793
 -1       506    8    0    1
 -2       177       333       332      1793      1794      1789
 -1       507    8    0    1
 -2       178       179       334      1328      1795      1796
 -1       508    8    0    1
 -2       178       334       333      1796      1797      1792
 -1       509    8    0    1
 -2       179       180       335      1331      1798      1799
 -1       510    8    0    1
 -2       334       179       335      1795      1799      1800
 -1       511    8    0    1
 -2       180       229       335      1480      1801      1798
 -1       512    8    0    1
 -2       181        23       165      1333      1760      1802
 -1       513    8    0    1
 -2       229       230       336      1483      1803      1804
 -1       514    8    0    1
 -2       229       336       335      1804      1805      1801
 -1       515    8    0    1
 -2       181       165       323      1802      1764      1806
 -1       516    8    0    1
 -2       183       182       337      1340      1807      1808
 -1       517    8    0    1
 -2       184       183       338      1343      1809      1810
 -1       518    8    0    1
 -2       183       337       338      1808      1811      1809
 -1       519    8    0    1
 -2       185       184       339      1346      1812      1813
 -1       520    8    0    1
 -2       184       338       339      1810      1814      1812
 -1       521    8    0    1
 -2       186       185       340      1349      1815      1816
 -1       522    8    0    1
 -2       185       339       340      1813      1817      1815
 -1       523    8    0    1
 -2       187       186       341      1352      1818      1819
 -1       524    8    0    1
 -2       186       340       341      1816      1820      1818
 -1       525    8    0    1
 -2       188       187       342      1355      1821      1822
 -1       526    8    0    1
 -2       187       341       342      1819      1823      1821
 -1       527    8    0    1
 -2       189       188       343      1358      1824      1825
 -1       528    8    0    1
 -2       188       342       343      1822      1826      1824
 -1       529    8    0    1
 -2       190       189       344      1361      1827      1828
 -1       530    8    0    1
 -2       189       343       344      1825      1829      1827
 -1       531    8    0    1
 -2       191       190       345      1364      1830      1831
 -1       532    8    0    1
 -2       190       344       345      1828      1832      1830
 -1       533    8    0    1
 -2       192       191       346      1367      1833      1834
 -1       534    8    0    1
 -2       191       345       346      1831      1835      1833
 -1       535    8    0    1
 -2       193       192       347      1370      1836      1837
 -1       536    8    0    1
 -2       192       346       347      1834      1838      1836
 -1       537    8    0    1
 -2       194       193       348      1373      1839      1840
 -1       538    8    0    1
 -2       193       347       348      1837      1841      1839
 -1       539    8    0    1
 -2       195       194       349      1376      1842      1843
 -1       540    8    0    1
 -2       194       348       349      1840      1844      1842
 -1       541    8    0    1
 -2       196       195       350      1379      1845      1846
 -1       542    8    0    1
 -2       195       349       350      1843      1847      1845
 -1       543    8    0    1
 -2       197       196       351      1382      1848      1849
 -1       544    8    0    1
 -2       196       350       351      1846      1850      1848
 -1       545    8    0    1
 -2       198       197       352      1385      1851      1852
 -1       546    8    0    1
 -2       197       351       352      1849      1853      1851
 -1       547    8    0    1
 -2       199       198       353      1388      1854      1855
 -1       548    8    0    1
 -2       198       352       353      1852      1856      1854
 -1       549    8    0    1
 -2       200       199       354      1391      1857      1858
 -1       550    8    0    1
 -2       199       353       354      1855      1859      1857
 -1       551    8    0    1
 -2       201       200       355      1394      1860      1861
 -1       552    8    0    1
 -2       200       354       355      1858      1862      1860
 -1       553    8    0    1
 -2       202       201       356      1397      1863      1864
 -1       554    8    0    1
 -2       201       355       356      1861      1865      1863
 -1       555    8    0    1
 -2       203       202       357      1400      1866      1867
 -1       556    8    0    1
 -2       202       356       357      1864      1868      1866
 -1       557    8    0    1
 -2       204       203       358      1403      1869      1870
 -1       558    8    0    1
 -2       203       357       358      1867      1871      1869
 -1       559    8    0    1
 -2       205       204       359      1406      1872      1873
 -1       560    8    0    1
 -2       204       358       359      1870      1874      1872
 -1       561    8    0    1
 -2       206       205       360      1409      1875      1876
 -1       562    8    0    1
 -2       205       359       360      1873      1877      1875
 -1       563    8    0    1
 -2       207       206       361      1412      1878      1879
 -1       564    8    0    1
 -2       206       360       361      1876      1880      1878
 -1       565    8    0    1
 -2       208       207       362      1415      1881      1882
 -1       566    8    0    1
 -2       207       361       362      1879      1883      1881
 -1       567    8    0    1
 -2       209       208       363      1418      1884      1885
 -1       568    8    0    1
 -2       208       362       363      1882      1886      1884
 -1       569    8    0    1
 -2       210       209       364      1421      1887      1888
 -1       570    8    0    1
 -2       209       363       364      1885      1889      1887
 -1       571    8    0    1
 -2       211       210       365      1424      1890      1891
 -1       572    8    0    1
 -2       210       364       365      1888      1892      1890
 -1       573    8    0    1
 -2       212       211       366      1427      1893      1894
 -1       574    8    0    1
 -2       211       365       366      1891      1895      1893
 -1       575    8    0    1
 -2       213       212       367      1430      1896      1897
 -1       576    8    0    1
 -2       212       366       367      1894      1898      1896
 -1       577    8    0    1
 -2       214       213       368      1433      1899      1900
 -1       578    8    0    1
 -2       213       367       368      1897      1901      1899
 -1       579    8    0    1
 -2       215       214       369      1436      1902      1903
 -1       580    8    0    1
 -2       214       368       369      1900      1904      1902
 -1       581    8    0    1
 -2       216       215       370      1439      1905      1906
 -1       582    8    0    1
 -2       215       369       370      1903      1907      1905
 -1       583    8    0    1
 -2       217       216       371      1442      1908      1909
 -1       584    8    0    1
 -2       216       370       371      1906      1910      1908
 -1       585    8    0    1
 -2       218       217       372      1445      1911      1912
 -1       586    8    0    1
 -2       217       371       372      1909      1913      1911
 -1       587    8    0    1
 -2       219       218       373      1448      1914      1915
 -1       588    8    0    1
 -2       218       372       373      1912      1916      1914
 -1       589    8    0    1
 -2       220       219       374      1451      1917      1918
 -1       590    8    0    1
 -2       219       373       374      1915      1919      1917
 -1       591    8    0    1
 -2       221       220       375      1454      1920      1921
 -1       592    8    0    1
 -2       220       374       375      1918      1922      1920
 -1       593    8    0    1
 -2       222       221       376      1457      1923      1924
 -1       594    8    0    1
 -2       221       375       376      1921      1925      1923
 -1       595    8    0    1
 -2       223       222       377      1460      1926      1927
 -1       596    8    0    1
 -2       222       376       377      1924      1928      1926
 -1       597    8    0    1
 -2       224       223       378      1463      1929      1930
 -1       598    8    0    1
 -2       223       377       378      1927      1931      1929
 -1       599    8    0    1
 -2       225       224       379      1466      1932      1933
 -1       600    8    0    1
 -2       224       378       379      1930      1934      1932
 -1       601    8    0    1
 -2       226       225       380      1469      1935      1936
 -1       602    8    0    1
 -2       225       379       380      1933      1937      1935
 -1       603    8    0    1
 -2       227       226       381      1472      1938      1939
 -1       604    8    0    1
 -2       226       380       381      1936      1940      1938
 -1       605    8    0    1
 -2       228       227       382      1475      1941      1942
 -1       606    8    0    1
 -2       291       228       382      1667      1942      1943
 -1       607    8    0    1
 -2       227       381       382      1939      1944      1941
 -1       608    8    0    1
 -2       230       231       383      1486      1945      1946
 -1       609    8    0    1
 -2       230       383       336      1946      1947      1803
 -1       610    8    0    1
 -2       231       232       384      1489      1948      1949
 -1       611    8    0    1
 -2       231       384       383      1949      1950      1945
 -1       612    8    0    1
 -2       232       233       385      1492      1951      1952
 -1       613    8    0    1
 -2       232       385       384      1952      1953      1948
 -1       614    8    0    1
 -2       233       234       386      1495      1954      1955
 -1       615    8    0    1
 -2       233       386       385      1955      1956      1951
 -1       616    8    0    1
 -2       234       235       387      1498      1957      1958
 -1       617    8    0    1
 -2       234       387       386      1958      1959      1954
 -1       618    8    0    1
 -2       235       236       388      1501      1960      1961
 -1       619    8    0    1
 -2       235       388       387      1961      1962      1957
 -1       620    8    0    1
 -2       236       237       389      1504      1963      1964
 -1       621    8    0    1
 -2       236       389       388      1964      1965      1960
 -1       622    8    0    1
 -2       237       238       390      1507      1966      1967
 -1       623    8    0    1
 -2       237       390       389      1967      1968      1963
 -1       624    8    0    1
 -2       238       239       391      1510      1969      1970
 -1       625    8    0    1
 -2       238       391       390      1970      1971      1966
 -1       626    8    0    1
 -2       239       240       392      1513      1972      1973
 -1       627    8    0    1
 -2       239       392       391      1973      1974      1969
 -1       628    8    0    1
 -2       240       241       393      1516      1975      1976
 -1       629    8    0    1
 -2       240       393       392      1976      1977      1972
 -1       630    8    0    1
 -2       241       242       394      1519      1978      1979
 -1       631    8    0    1
 -2       241       394       393      1979      1980      1975
 -1       632    8    0    1
 -2       242       243       395      1522      1981      1982
 -1       633    8    0    1
 -2       242       395       394      1982      1983      1978
 -1       634    8    0    1
 -2       243       244       396      1525      1984      1985
 -1       635    8    0    1
 -2       243       396       395      1985      1986      1981
 -1       636    8    0    1
 -2       244       245       397      1528      1987      1988
 -1       637    8    0    1
 -2       244       397       396      1988      1989      1984
 -1       638    8    0    1
 -2       245       246       398      1531      1990      1991
 -1       639    8    0    1
 -2       245       398       397      1991      1992      1987
 -1       640    8    0    1
 -2       246       247       399      1534      1993      1994
 -1       641    8    0    1
 -2       246       399       398      1994      1995      1990
 -1       642    8    0    1
 -2       247       248       400      1537      1996      1997
 -1       643    8    0    1
 -2       247       400       399      1997      1998      1993
 -1       644    8    0    1
 -2       248       249       401      1540      1999      2000
 -1       645    8    0    1
 -2       248       401       400      2000      2001      1996
 -1       646    8    0    1
 -2       249       250       402      1543      2002      2003
 -1       647    8    0    1
 -2       249       402       401      2003      2004      1999
 -1       648    8    0    1
 -2       250       251       403      1546      2005      2006
 -1       649    8    0    1
 -2       250       403       402      2006      2007      2002
 -1       650    8    0    1
 -2       251       252       404      1549      2008      2009
 -1       651    8    0    1
 -2       251       404       403      2009      2010      2005
 -1       652    8    0    1
 -2       252       253       405      1552      2011      2012
 -1       653    8    0    1
 -2       252       405       404      2012      2013      2008
 -1       654    8    0    1
 -2       253       254       406      1555      2014      2015
 -1       655    8    0    1
 -2       253       406       405      2015      2016      2011
 -1       656    8    0    1
 -2       254       255       407      1558      2017      2018
 -1       657    8    0    1
 -2       254       407       406      2018      2019      2014
 -1       658    8    0    1
 -2       255       256       408      1561      2020      2021
 -1       659    8    0    1
 -2       255       408       407      2021      2022      2017
 -1       660    8    0    1
 -2       256       257       409      1564      2023      2024
 -1       661    8    0    1
 -2       256       409       408      2024      2025      2020
 -1       662    8    0    1
 -2       257       258       410      1567      2026      2027
 -1       663    8    0    1
 -2       257       410       409      2027      2028      2023
 -1       664    8    0    1
 -2       258       259       411      1570      2029      2030
 -1       665    8    0    1
 -2       258       411       410      2030      2031      2026
 -1       666    8    0    1
 -2       259       260       412      1573      2032      2033
 -1       667    8    0    1
 -2       259       412       411      2033      2034      2029
 -1       668    8    0    1
 -2       260       261       413      1576      2035      2036
 -1       669    8    0    1
 -2       260       413       412      2036      2037      2032
 -1       670    8    0    1
 -2       261       262       414      1579      2038      2039
 -1       671    8    0    1
 -2       261       414       413      2039      2040      2035
 -1       672    8    0    1
 -2       262       263       415      1582      2041      2042
 -1       673    8    0    1
 -2       262       415       414      2042      2043      2038
 -1       674    8    0    1
 -2       263       264       416      1585      2044      2045
 -1       675    8    0    1
 -2       263       416       415      2045      2046      2041
 -1       676    8    0    1
 -2       264       265       417      1588      2047      2048
 -1       677    8    0    1
 -2       264       417       416      2048      2049      2044
 -1       678    8    0    1
 -2       265       266       418      1591      2050      2051
 -1       679    8    0    1
 -2       265       418       417      2051      2052      2047
 -1       680    8    0    1
 -2       266       267       419      1594      2053      2054
 -1       681    8    0    1
 -2       266       419       418      2054      2055      2050
 -1       682    8    0    1
 -2       267       268       420      1597      2056      2057
 -1       683    8    0    1
 -2       267       420       419      2057      2058      2053
 -1       684    8    0    1
 -2       268       269       421      1600      2059      2060
 -1       685    8    0    1
 -2       268       421       420      2060      2061      2056
 -1       686    8    0    1
 -2       269       270       422      1603      2062      2063
 -1       687    8    0    1
 -2       269       422       421      2063      2064      2059
 -1       688    8    0    1
 -2       270       271       423      1606      2065      2066
 -1       689    8    0    1
 -2       270       423       422      2066      2067      2062
 -1       690    8    0    1
 -2       271       272       424      1609      2068      2069
 -1       691    8    0    1
 -2       271       424       423      2069      2070      2065
 -1       692    8    0    1
 -2       272       273       425      1612      2071      2072
 -1       693    8    0    1
 -2       272       425       424      2072      2073      2068
 -1       694    8    0    1
 -2       273       274       426      1615      2074      2075
 -1       695    8    0    1
 -2       273       426       425      2075      2076      2071
 -1       696    8    0    1
 -2       274       275       427      1618      2077      2078
 -1       697    8    0    1
 -2       274       427       426      2078      2079      2074
 -1       698    8    0    1
 -2       275       276       428      1621      2080      2081
 -1       699    8    0    1
 -2       427       275       428      2077      2081      2082
 -1       700    8    0    1
 -2       276       277       428      1731      2083      2080
 -1       701    8    0    1
 -2       279       280       429      1633      2084      2085
 -1       702    8    0    1
 -2       278       279       430      1630      2086      2087
 -1       703    8    0    1
 -2       279       429       430      2085      2088      2086
 -1       704    8    0    1
 -2       277       278       431      1627      2089      2090
 -1       705    8    0    1
 -2       428       277       431      2083      2090      2091
 -1       706    8    0    1
 -2       278       430       431      2087      2092      2089
 -1       707    8    0    1
 -2       280       281       432      1636      2093      2094
 -1       708    8    0    1
 -2       280       432       429      2094      2095      2084
 -1       709    8    0    1
 -2       281       282       433      1639      2096      2097
 -1       710    8    0    1
 -2       281       433       432      2097      2098      2093
 -1       711    8    0    1
 -2       282       283       434      1642      2099      2100
 -1       712    8    0    1
 -2       282       434       433      2100      2101      2096
 -1       713    8    0    1
 -2       283       284       435      1645      2102      2103
 -1       714    8    0    1
 -2       283       435       434      2103      2104      2099
 -1       715    8    0    1
 -2       284       285       436      1648      2105      2106
 -1       716    8    0    1
 -2       284       436       435      2106      2107      2102
 -1       717    8    0    1
 -2       285       286       437      1651      2108      2109
 -1       718    8    0    1
 -2       285       437       436      2109      2110      2105
 -1       719    8    0    1
 -2       286       287       438      1654      2111      2112
 -1       720    8    0    1
 -2       286       438       437      2112      2113      2108
 -1       721    8    0    1
 -2       287       288       439      1657      2114      2115
 -1       722    8    0    1
 -2       287       439       438      2115      2116      2111
 -1       723    8    0    1
 -2       288       289       440      1660      2117      2118
 -1       724    8    0    1
 -2       288       440       439      2118      2119      2114
 -1       725    8    0    1
 -2       289       290       441      1663      2120      2121
 -1       726    8    0    1
 -2       289       441       440      2121      2122      2117
 -1       727    8    0    1
 -2       293       294       442      1733      2123      2124
 -1       728    8    0    1
 -2       321       292       443      1734      2125      2126
 -1       729    8    0    1
 -2       292       293       444      1732      2127      2128
 -1       730    8    0    1
 -2       294       295       445      1729      2129      2130
 -1       731    8    0    1
 -2       295       296       446      1728      2131      2132
 -1       732    8    0    1
 -2       167       168       447      1295      2133      2134
 -1       733    8    0    1
 -2       322       167       447      1761      2134      2135
 -1       734    8    0    1
 -2       168       324       447      1767      2136      2133
 -1       735    8    0    1
 -2       297       298       448      1736      2137      2138
 -1       736    8    0    1
 -2       298       299       449      1737      2139      2140
 -1       737    8    0    1
 -2       299       300       450      1738      2141      2142
 -1       738    8    0    1
 -2       300       301       451      1739      2143      2144
 -1       739    8    0    1
 -2       301       302       452      1740      2145      2146
 -1       740    8    0    1
 -2       302       303       453      1741      2147      2148
 -1       741    8    0    1
 -2       303       304       454      1742      2149      2150
 -1       742    8    0    1
 -2       304       305       455      1743      2151      2152
 -1       743    8    0    1
 -2       305       306       456      1744      2153      2154
 -1       744    8    0    1
 -2       306       307       457      1745      2155      2156
 -1       745    8    0    1
 -2       306       457       456      2156      2157      2153
 -1       746    8    0    1
 -2       307       308       458      1746      2158      2159
 -1       747    8    0    1
 -2       308       309       459      1747      2160      2161
 -1       748    8    0    1
 -2       309       310       460      1748      2162      2163
 -1       749    8    0    1
 -2       309       460       459      2163      2164      2160
 -1       750    8    0    1
 -2       310       311       461      1749      2165      2166
 -1       751    8    0    1
 -2       311       312       462      1750      2167      2168
 -1       752    8    0    1
 -2       312       313       463      1751      2169      2170
 -1       753    8    0    1
 -2       313       314       464      1752      2171      2172
 -1       754    8    0    1
 -2       314       315       465      1753      2173      2174
 -1       755    8    0    1
 -2       315       316       466      1754      2175      2176
 -1       756    8    0    1
 -2       315       466       465      2176      2177      2173
 -1       757    8    0    1
 -2       316       317       467      1755      2178      2179
 -1       758    8    0    1
 -2       317       318       468      1756      2180      2181
 -1       759    8    0    1
 -2       317       468       467      2181      2182      2178
 -1       760    8    0    1
 -2       318       319       469      1757      2183      2184
 -1       761    8    0    1
 -2       319       320       470      1758      2185      2186
 -1       762    8    0    1
 -2       319       470       469      2186      2187      2183
 -1       763    8    0    1
 -2       320       321       471      1759      2188      2189
 -1       764    8    0    1
 -2       321       443       471      2126      2190      2188
 -1       765    8    0    1
 -2       296       297       472      1735      2191      2192
 -1       766    8    0    1
 -2       445       295       446      2129      2132      2193
 -1       767    8    0    1
 -2       181       323       182      1806      2194      1337
 -1       768    8    0    1
 -2       446       296       472      2131      2192      2195
 -1       769    8    0    1
 -2       297       448       472      2138      2196      2191
 -1       770    8    0    1
 -2       337       182       323      1807      2194      2197
 -1       771    8    0    1
 -2       444       293       442      2127      2124      2198
 -1       772    8    0    1
 -2       443       292       444      2125      2128      2199
 -1       773    8    0    1
 -2       441       290       291      2120      1666      2200
 -1       774    8    0    1
 -2       442       294       445      2123      2130      2201
 -1       775    8    0    1
 -2       470       320       471      2185      2189      2202
 -1       776    8    0    1
 -2       468       318       469      2180      2184      2203
 -1       777    8    0    1
 -2       466       316       467      2175      2179      2204
 -1       778    8    0    1
 -2       464       314       465      2171      2174      2205
 -1       779    8    0    1
 -2       463       313       464      2169      2172      2206
 -1       780    8    0    1
 -2       462       312       463      2167      2170      2207
 -1       781    8    0    1
 -2       460       310       461      2162      2166      2208
 -1       782    8    0    1
 -2       457       307       473      2155      2209      2210
 -1       783    8    0    1
 -2       307       458       473      2159      2211      2209
 -1       784    8    0    1
 -2       455       305       456      2151      2154      2212
 -1       785    8    0    1
 -2       454       304       455      2149      2152      2213
 -1       786    8    0    1
 -2       453       303       454      2147      2150      2214
 -1       787    8    0    1
 -2       452       302       453      2145      2148      2215
 -1       788    8    0    1
 -2       451       301       452      2143      2146      2216
 -1       789    8    0    1
 -2       450       300       451      2141      2144      2217
 -1       790    8    0    1
 -2       448       298       449      2137      2140      2218
 -1       791    8    0    1
 -2       449       299       450      2139      2142      2219
 -1       792    8    0    1
 -2       458       308       459      2158      2161      2220
 -1       793    8    0    1
 -2       461       311       462      2165      2168      2221
 -1       794    8    0    1
 -2       336       383       474      1947      2222      2223
 -1       795    8    0    1
 -2       325       326       475      1773      2224      2225
 -1       796    8    0    1
 -2       324       325       476      1770      2226      2227
 -1       797    8    0    1
 -2       325       475       476      2225      2228      2226
 -1       798    8    0    1
 -2       327       328       477      1779      2229      2230
 -1       799    8    0    1
 -2       328       329       478      1782      2231      2232
 -1       800    8    0    1
 -2       328       478       477      2232      2233      2229
 -1       801    8    0    1
 -2       329       330       479      1785      2234      2235
 -1       802    8    0    1
 -2       329       479       478      2235      2236      2231
 -1       803    8    0    1
 -2       330       331       480      1788      2237      2238
 -1       804    8    0    1
 -2       330       480       479      2238      2239      2234
 -1       805    8    0    1
 -2       331       332       481      1791      2240      2241
 -1       806    8    0    1
 -2       331       481       480      2241      2242      2237
 -1       807    8    0    1
 -2       332       333       482      1794      2243      2244
 -1       808    8    0    1
 -2       332       482       481      2244      2245      2240
 -1       809    8    0    1
 -2       383       384       483      1950      2246      2247
 -1       810    8    0    1
 -2       383       483       474      2247      2248      2222
 -1       811    8    0    1
 -2       338       337       484      1811      2249      2250
 -1       812    8    0    1
 -2       446       472       485      2195      2251      2252
 -1       813    8    0    1
 -2       339       338       486      1814      2253      2254
 -1       814    8    0    1
 -2       338       484       486      2250      2255      2253
 -1       815    8    0    1
 -2       340       339       487      1817      2256      2257
 -1       816    8    0    1
 -2       339       486       487      2254      2258      2256
 -1       817    8    0    1
 -2       341       340       488      1820      2259      2260
 -1       818    8    0    1
 -2       340       487       488      2257      2261      2259
 -1       819    8    0    1
 -2       342       341       489      1823      2262      2263
 -1       820    8    0    1
 -2       341       488       489      2260      2264      2262
 -1       821    8    0    1
 -2       343       342       490      1826      2265      2266
 -1       822    8    0    1
 -2       342       489       490      2263      2267      2265
 -1       823    8    0    1
 -2       344       343       491      1829      2268      2269
 -1       824    8    0    1
 -2       343       490       491      2266      2270      2268
 -1       825    8    0    1
 -2       345       344       492      1832      2271      2272
 -1       826    8    0    1
 -2       344       491       492      2269      2273      2271
 -1       827    8    0    1
 -2       346       345       493      1835      2274      2275
 -1       828    8    0    1
 -2       345       492       493      2272      2276      2274
 -1       829    8    0    1
 -2       347       346       494      1838      2277      2278
 -1       830    8    0    1
 -2       346       493       494      2275      2279      2277
 -1       831    8    0    1
 -2       348       347       495      1841      2280      2281
 -1       832    8    0    1
 -2       347       494       495      2278      2282      2280
 -1       833    8    0    1
 -2       349       348       496      1844      2283      2284
 -1       834    8    0    1
 -2       348       495       496      2281      2285      2283
 -1       835    8    0    1
 -2       350       349       497      1847      2286      2287
 -1       836    8    0    1
 -2       349       496       497      2284      2288      2286
 -1       837    8    0    1
 -2       351       350       498      1850      2289      2290
 -1       838    8    0    1
 -2       350       497       498      2287      2291      2289
 -1       839    8    0    1
 -2       352       351       499      1853      2292      2293
 -1       840    8    0    1
 -2       351       498       499      2290      2294      2292
 -1       841    8    0    1
 -2       353       352       500      1856      2295      2296
 -1       842    8    0    1
 -2       352       499       500      2293      2297      2295
 -1       843    8    0    1
 -2       354       353       501      1859      2298      2299
 -1       844    8    0    1
 -2       353       500       501      2296      2300      2298
 -1       845    8    0    1
 -2       355       354       502      1862      2301      2302
 -1       846    8    0    1
 -2       354       501       502      2299      2303      2301
 -1       847    8    0    1
 -2       356       355       503      1865      2304      2305
 -1       848    8    0    1
 -2       355       502       503      2302      2306      2304
 -1       849    8    0    1
 -2       357       356       504      1868      2307      2308
 -1       850    8    0    1
 -2       356       503       504      2305      2309      2307
 -1       851    8    0    1
 -2       358       357       505      1871      2310      2311
 -1       852    8    0    1
 -2       357       504       505      2308      2312      2310
 -1       853    8    0    1
 -2       359       358       506      1874      2313      2314
 -1       854    8    0    1
 -2       358       505       506      2311      2315      2313
 -1       855    8    0    1
 -2       360       359       507      1877      2316      2317
 -1       856    8    0    1
 -2       359       506       507      2314      2318      2316
 -1       857    8    0    1
 -2       361       360       508      1880      2319      2320
 -1       858    8    0    1
 -2       360       507       508      2317      2321      2319
 -1       859    8    0    1
 -2       362       361       509      1883      2322      2323
 -1       860    8    0    1
 -2       361       508       509      2320      2324      2322
 -1       861    8    0    1
 -2       363       362       510      1886      2325      2326
 -1       862    8    0    1
 -2       362       509       510      2323      2327      2325
 -1       863    8    0    1
 -2       364       363       511      1889      2328      2329
 -1       864    8    0    1
 -2       363       510       511      2326      2330      2328
 -1       865    8    0    1
 -2       365       364       512      1892      2331      2332
 -1       866    8    0    1
 -2       364       511       512      2329      2333      2331
 -1       867    8    0    1
 -2       366       365       513      1895      2334      2335
 -1       868    8    0    1
 -2       365       512       513      2332      2336      2334
 -1       869    8    0    1
 -2       367       366       514      1898      2337      2338
 -1       870    8    0    1
 -2       366       513       514      2335      2339      2337
 -1       871    8    0    1
 -2       368       367       515      1901      2340      2341
 -1       872    8    0    1
 -2       367       514       515      2338      2342      2340
 -1       873    8    0    1
 -2       369       368       516      1904      2343      2344
 -1       874    8    0    1
 -2       368       515       516      2341      2345      2343
 -1       875    8    0    1
 -2       370       369       517      1907      2346      2347
 -1       876    8    0    1
 -2       369       516       517      2344      2348      2346
 -1       877    8    0    1
 -2       371       370       518      1910      2349      2350
 -1       878    8    0    1
 -2       370       517       518      2347      2351      2349
 -1       879    8    0    1
 -2       372       371       519      1913      2352      2353
 -1       880    8    0    1
 -2       371       518       519      2350      2354      2352
 -1       881    8    0    1
 -2       373       372       520      1916      2355      2356
 -1       882    8    0    1
 -2       372       519       520      2353      2357      2355
 -1       883    8    0    1
 -2       374       373       521      1919      2358      2359
 -1       884    8    0    1
 -2       373       520       521      2356      2360      2358
 -1       885    8    0    1
 -2       375       374       522      1922      2361      2362
 -1       886    8    0    1
 -2       374       521       522      2359      2363      2361
 -1       887    8    0    1
 -2       376       375       523      1925      2364      2365
 -1       888    8    0    1
 -2       375       522       523      2362      2366      2364
 -1       889    8    0    1
 -2       377       376       524      1928      2367      2368
 -1       890    8    0    1
 -2       376       523       524      2365      2369      2367
 -1       891    8    0    1
 -2       378       377       525      1931      2370      2371
 -1       892    8    0    1
 -2       377       524       525      2368      2372      2370
 -1       893    8    0    1
 -2       379       378       526      1934      2373      2374
 -1       894    8    0    1
 -2       378       525       526      2371      2375      2373
 -1       895    8    0    1
 -2       380       379       527      1937      2376      2377
 -1       896    8    0    1
 -2       379       526       527      2374      2378      2376
 -1       897    8    0    1
 -2       381       380       528      1940      2379      2380
 -1       898    8    0    1
 -2       380       527       528      2377      2381      2379
 -1       899    8    0    1
 -2       385       386       529      1956      2382      2383
 -1       900    8    0    1
 -2       386       387       530      1959      2384      2385
 -1       901    8    0    1
 -2       386       530       529      2385      2386      2382
 -1       902    8    0    1
 -2       387       388       531      1962      2387      2388
 -1       903    8    0    1
 -2       387       531       530      2388      2389      2384
 -1       904    8    0    1
 -2       388       389       532      1965      2390      2391
 -1       905    8    0    1
 -2       388       532       531      2391      2392      2387
 -1       906    8    0    1
 -2       389       390       533      1968      2393      2394
 -1       907    8    0    1
 -2       389       533       532      2394      2395      2390
 -1       908    8    0    1
 -2       390       391       534      1971      2396      2397
 -1       909    8    0    1
 -2       390       534       533      2397      2398      2393
 -1       910    8    0    1
 -2       391       392       535      1974      2399      2400
 -1       911    8    0    1
 -2       391       535       534      2400      2401      2396
 -1       912    8    0    1
 -2       392       393       536      1977      2402      2403
 -1       913    8    0    1
 -2       392       536       535      2403      2404      2399
 -1       914    8    0    1
 -2       393       394       537      1980      2405      2406
 -1       915    8    0    1
 -2       393       537       536      2406      2407      2402
 -1       916    8    0    1
 -2       394       395       538      1983      2408      2409
 -1       917    8    0    1
 -2       394       538       537      2409      2410      2405
 -1       918    8    0    1
 -2       395       396       539      1986      2411      2412
 -1       919    8    0    1
 -2       395       539       538      2412      2413      2408
 -1       920    8    0    1
 -2       396       397       540      1989      2414      2415
 -1       921    8    0    1
 -2       396       540       539      2415      2416      2411
 -1       922    8    0    1
 -2       397       398       541      1992      2417      2418
 -1       923    8    0    1
 -2       397       541       540      2418      2419      2414
 -1       924    8    0    1
 -2       398       399       542      1995      2420      2421
 -1       925    8    0    1
 -2       398       542       541      2421      2422      2417
 -1       926    8    0    1
 -2       399       400       543      1998      2423      2424
 -1       927    8    0    1
 -2       399       543       542      2424      2425      2420
 -1       928    8    0    1
 -2       400       401       544      2001      2426      2427
 -1       929    8    0    1
 -2       400       544       543      2427      2428      2423
 -1       930    8    0    1
 -2       401       402       545      2004      2429      2430
 -1       931    8    0    1
 -2       401       545       544      2430      2431      2426
 -1       932    8    0    1
 -2       402       403       546      2007      2432      2433
 -1       933    8    0    1
 -2       402       546       545      2433      2434      2429
 -1       934    8    0    1
 -2       403       404       547      2010      2435      2436
 -1       935    8    0    1
 -2       403       547       546      2436      2437      2432
 -1       936    8    0    1
 -2       404       405       548      2013      2438      2439
 -1       937    8    0    1
 -2       404       548       547      2439      2440      2435
 -1       938    8    0    1
 -2       405       406       549      2016      2441      2442
 -1       939    8    0    1
 -2       405       549       548      2442      2443      2438
 -1       940    8    0    1
 -2       406       407       550      2019      2444      2445
 -1       941    8    0    1
 -2       406       550       549      2445      2446      2441
 -1       942    8    0    1
 -2       407       408       551      2022      2447      2448
 -1       943    8    0    1
 -2       407       551       550      2448      2449      2444
 -1       944    8    0    1
 -2       408       409       552      2025      2450      2451
 -1       945    8    0    1
 -2       408       552       551      2451      2452      2447
 -1       946    8    0    1
 -2       409       410       553      2028      2453      2454
 -1       947    8    0    1
 -2       409       553       552      2454      2455      2450
 -1       948    8    0    1
 -2       410       411       554      2031      2456      2457
 -1       949    8    0    1
 -2       410       554       553      2457      2458      2453
 -1       950    8    0    1
 -2       411       412       555      2034      2459      2460
 -1       951    8    0    1
 -2       411       555       554      2460      2461      2456
 -1       952    8    0    1
 -2       412       413       556      2037      2462      2463
 -1       953    8    0    1
 -2       412       556       555      2463      2464      2459
 -1       954    8    0    1
 -2       413       414       557      2040      2465      2466
 -1       955    8    0    1
 -2       413       557       556      2466      2467      2462
 -1       956    8    0    1
 -2       414       415       558      2043      2468      2469
 -1       957    8    0    1
 -2       414       558       557      2469      2470      2465
 -1       958    8    0    1
 -2       415       416       559      2046      2471      2472
 -1       959    8    0    1
 -2       415       559       558      2472      2473      2468
 -1       960    8    0    1
 -2       416       417       560      2049      2474      2475
 -1       961    8    0    1
 -2       416       560       559      2475      2476      2471
 -1       962    8    0    1
 -2       417       418       561      2052      2477      2478
 -1       963    8    0    1
 -2       417       561       560      2478      2479      2474
 -1       964    8    0    1
 -2       418       419       562      2055      2480      2481
 -1       965    8    0    1
 -2       418       562       561      2481      2482      2477
 -1       966    8    0    1
 -2       419       420       563      2058      2483      2484
 -1       967    8    0    1
 -2       419       563       562      2484      2485      2480
 -1       968    8    0    1
 -2       420       421       564      2061      2486      2487
 -1       969    8    0    1
 -2       420       564       563      2487      2488      2483
 -1       970    8    0    1
 -2       421       422       565      2064      2489      2490
 -1       971    8    0    1
 -2       421       565       564      2490      2491      2486
 -1       972    8    0    1
 -2       422       423       566      2067      2492      2493
 -1       973    8    0    1
 -2       422       566       565      2493      2494      2489
 -1       974    8    0    1
 -2       423       424       567      2070      2495      2496
 -1       975    8    0    1
 -2       423       567       566      2496      2497      2492
 -1       976    8    0    1
 -2       424       425       568      2073      2498      2499
 -1       977    8    0    1
 -2       424       568       567      2499      2500      2495
 -1       978    8    0    1
 -2       425       426       569      2076      2501      2502
 -1       979    8    0    1
 -2       425       569       568      2502      2503      2498
 -1       980    8    0    1
 -2       426       427       570      2079      2504      2505
 -1       981    8    0    1
 -2       426       570       569      2505      2506      2501
 -1       982    8    0    1
 -2       427       428       431      2082      2091      2507
 -1       983    8    0    1
 -2       432       433       571      2098      2508      2509
 -1       984    8    0    1
 -2       433       434       572      2101      2510      2511
 -1       985    8    0    1
 -2       433       572       571      2511      2512      2508
 -1       986    8    0    1
 -2       430       429       573      2088      2513      2514
 -1       987    8    0    1
 -2       429       432       574      2095      2515      2516
 -1       988    8    0    1
 -2       573       429       574      2513      2516      2517
 -1       989    8    0    1
 -2       432       571       574      2509      2518      2515
 -1       990    8    0    1
 -2       434       435       575      2104      2519      2520
 -1       991    8    0    1
 -2       434       575       572      2520      2521      2510
 -1       992    8    0    1
 -2       435       436       576      2107      2522      2523
 -1       993    8    0    1
 -2       435       576       575      2523      2524      2519
 -1       994    8    0    1
 -2       436       437       577      2110      2525      2526
 -1       995    8    0    1
 -2       436       577       576      2526      2527      2522
 -1       996    8    0    1
 -2       437       438       578      2113      2528      2529
 -1       997    8    0    1
 -2       437       578       577      2529      2530      2525
 -1       998    8    0    1
 -2       438       439       579      2116      2531      2532
 -1       999    8    0    1
 -2       438       579       578      2532      2533      2528
 -1      1000    8    0    1
 -2       439       440       580      2119      2534      2535
 -1      1001    8    0    1
 -2       439       580       579      2535      2536      2531
 -1      1002    8    0    1
 -2       440       441       581      2122      2537      2538
 -1      1003    8    0    1
 -2       440       581       580      2538      2539      2534
 -1      1004    8    0    1
 -2       443       444       582      2199      2540      2541
 -1      1005    8    0    1
 -2       442       445       583      2201      2542      2543
 -1      1006    8    0    1
 -2       384       385       584      1953      2544      2545
 -1      1007    8    0    1
 -2       385       529       584      2383      2546      2544
 -1      1008    8    0    1
 -2       472       448       585      2196      2547      2548
 -1      1009    8    0    1
 -2       441       291       382      2200      1943      2549
 -1      1010    8    0    1
 -2       470       471       586      2202      2550      2551
 -1      1011    8    0    1
 -2       444       442       587      2198      2552      2553
 -1      1012    8    0    1
 -2       444       587       582      2553      2554      2540
 -1      1013    8    0    1
 -2       464       465       588      2205      2555      2556
 -1      1014    8    0    1
 -2       455       456       589      2212      2557      2558
 -1      1015    8    0    1
 -2       326       327       590      1776      2559      2560
 -1      1016    8    0    1
 -2       475       326       590      2224      2560      2561
 -1      1017    8    0    1
 -2       327       477       590      2230      2562      2559
 -1      1018    8    0    1
 -2       449       450       591      2219      2563      2564
 -1      1019    8    0    1
 -2       458       459       592      2220      2565      2566
 -1      1020    8    0    1
 -2       448       449       593      2218      2567      2568
 -1      1021    8    0    1
 -2       450       451       594      2217      2569      2570
 -1      1022    8    0    1
 -2       450       594       591      2570      2571      2563
 -1      1023    8    0    1
 -2       451       452       595      2216      2572      2573
 -1      1024    8    0    1
 -2       452       453       596      2215      2574      2575
 -1      1025    8    0    1
 -2       453       454       597      2214      2576      2577
 -1      1026    8    0    1
 -2       454       455       598      2213      2578      2579
 -1      1027    8    0    1
 -2       454       598       597      2579      2580      2576
 -1      1028    8    0    1
 -2       456       457       599      2157      2581      2582
 -1      1029    8    0    1
 -2       461       462       600      2221      2583      2584
 -1      1030    8    0    1
 -2       459       460       601      2164      2585      2586
 -1      1031    8    0    1
 -2       460       461       602      2208      2587      2588
 -1      1032    8    0    1
 -2       461       600       602      2584      2589      2587
 -1      1033    8    0    1
 -2       462       463       603      2207      2590      2591
 -1      1034    8    0    1
 -2       463       464       604      2206      2592      2593
 -1      1035    8    0    1
 -2       463       604       603      2593      2594      2590
 -1      1036    8    0    1
 -2       465       466       605      2177      2595      2596
 -1      1037    8    0    1
 -2       466       467       606      2204      2597      2598
 -1      1038    8    0    1
 -2       467       468       607      2182      2599      2600
 -1      1039    8    0    1
 -2       468       469       608      2203      2601      2602
 -1      1040    8    0    1
 -2       469       470       609      2187      2603      2604
 -1      1041    8    0    1
 -2       608       469       609      2601      2604      2605
 -1      1042    8    0    1
 -2       470       586       609      2551      2606      2603
 -1      1043    8    0    1
 -2       471       443       610      2190      2607      2608
 -1      1044    8    0    1
 -2       337       323       611      2197      2609      2610
 -1      1045    8    0    1
 -2       484       337       611      2249      2610      2611
 -1      1046    8    0    1
 -2       323       322       611      1765      2612      2609
 -1      1047    8    0    1
 -2       335       336       612      1805      2613      2614
 -1      1048    8    0    1
 -2       334       335       612      1800      2614      2615
 -1      1049    8    0    1
 -2       336       474       612      2223      2616      2613
 -1      1050    8    0    1
 -2       445       446       613      2193      2617      2618
 -1      1051    8    0    1
 -2       445       613       583      2618      2619      2542
 -1      1052    8    0    1
 -2       449       591       593      2564      2620      2567
 -1      1053    8    0    1
 -2       324       476       614      2227      2621      2622
 -1      1054    8    0    1
 -2       324       614       447      2622      2623      2136
 -1      1055    8    0    1
 -2       483       384       584      2246      2545      2624
 -1      1056    8    0    1
 -2       333       334       612      1797      2615      2625
 -1      1057    8    0    1
 -2       613       446       485      2617      2252      2626
 -1      1058    8    0    1
 -2       610       443       582      2607      2541      2627
 -1      1059    8    0    1
 -2       607       468       608      2599      2602      2628
 -1      1060    8    0    1
 -2       606       467       607      2597      2600      2629
 -1      1061    8    0    1
 -2       471       610       586      2608      2630      2550
 -1      1062    8    0    1
 -2       604       464       588      2592      2556      2631
 -1      1063    8    0    1
 -2       427       431       570      2507      2632      2504
 -1      1064    8    0    1
 -2       431       430       570      2092      2633      2632
 -1      1065    8    0    1
 -2       442       583       587      2543      2634      2552
 -1      1066    8    0    1
 -2       601       460       602      2585      2588      2635
 -1      1067    8    0    1
 -2       600       462       603      2583      2591      2636
 -1      1068    8    0    1
 -2       333       612       482      2625      2637      2243
 -1      1069    8    0    1
 -2       585       448       615      2547      2638      2639
 -1      1070    8    0    1
 -2       448       593       615      2568      2640      2638
 -1      1071    8    0    1
 -2       441       382       616      2549      2641      2642
 -1      1072    8    0    1
 -2       581       441       616      2537      2642      2643
 -1      1073    8    0    1
 -2       382       381       616      1944      2644      2641
 -1      1074    8    0    1
 -2       588       465       605      2555      2596      2645
 -1      1075    8    0    1
 -2       598       455       617      2578      2646      2647
 -1      1076    8    0    1
 -2       455       589       617      2558      2648      2646
 -1      1077    8    0    1
 -2       456       599       589      2582      2649      2557
 -1      1078    8    0    1
 -2       596       453       597      2574      2577      2650
 -1      1079    8    0    1
 -2       594       451       618      2569      2651      2652
 -1      1080    8    0    1
 -2       451       595       618      2573      2653      2651
 -1      1081    8    0    1
 -2       473       458       592      2211      2566      2654
 -1      1082    8    0    1
 -2       457       473       619      2210      2655      2656
 -1      1083    8    0    1
 -2       457       619       599      2656      2657      2581
 -1      1084    8    0    1
 -2       485       472       585      2251      2548      2658
 -1      1085    8    0    1
 -2       592       459       601      2565      2586      2659
 -1      1086    8    0    1
 -2       322       447       620      2135      2660      2661
 -1      1087    8    0    1
 -2       611       322       620      2612      2661      2662
 -1      1088    8    0    1
 -2       447       614       620      2623      2663      2660
 -1      1089    8    0    1
 -2       595       452       621      2572      2664      2665
 -1      1090    8    0    1
 -2       452       596       621      2575      2666      2664
 -1      1091    8    0    1
 -2       605       466       606      2595      2598      2667
 -1      1092    8    0    1
 -2       570       430       573      2633      2514      2668
 -1      1093    8    0    1
 -2       616       381       528      2644      2380      2669
 -1      1094    8    0    1
 -2       478       479       622      2236      2670      2671
 -1      1095    8    0    1
 -2       477       478       623      2233      2672      2673
 -1      1096    8    0    1
 -2       478       622       623      2671      2674      2672
 -1      1097    8    0    1
 -2       480       481       624      2242      2675      2676
 -1      1098    8    0    1
 -2       481       482       625      2245      2677      2678
 -1      1099    8    0    1
 -2       481       625       624      2678      2679      2675
 -1      1100    8    0    1
 -2       474       483       626      2248      2680      2681
 -1      1101    8    0    1
 -2       612       474       482      2616      2682      2637
 -1      1102    8    0    1
 -2       610       582       627      2627      2683      2684
 -1      1103    8    0    1
 -2       487       486       628      2258      2685      2686
 -1      1104    8    0    1
 -2       488       487       629      2261      2687      2688
 -1      1105    8    0    1
 -2       487       628       629      2686      2689      2687
 -1      1106    8    0    1
 -2       489       488       630      2264      2690      2691
 -1      1107    8    0    1
 -2       488       629       630      2688      2692      2690
 -1      1108    8    0    1
 -2       490       489       631      2267      2693      2694
 -1      1109    8    0    1
 -2       489       630       631      2691      2695      2693
 -1      1110    8    0    1
 -2       491       490       632      2270      2696      2697
 -1      1111    8    0    1
 -2       490       631       632      2694      2698      2696
 -1      1112    8    0    1
 -2       492       491       633      2273      2699      2700
 -1      1113    8    0    1
 -2       491       632       633      2697      2701      2699
 -1      1114    8    0    1
 -2       493       492       634      2276      2702      2703
 -1      1115    8    0    1
 -2       492       633       634      2700      2704      2702
 -1      1116    8    0    1
 -2       494       493       635      2279      2705      2706
 -1      1117    8    0    1
 -2       493       634       635      2703      2707      2705
 -1      1118    8    0    1
 -2       495       494       636      2282      2708      2709
 -1      1119    8    0    1
 -2       494       635       636      2706      2710      2708
 -1      1120    8    0    1
 -2       496       495       637      2285      2711      2712
 -1      1121    8    0    1
 -2       495       636       637      2709      2713      2711
 -1      1122    8    0    1
 -2       497       496       638      2288      2714      2715
 -1      1123    8    0    1
 -2       496       637       638      2712      2716      2714
 -1      1124    8    0    1
 -2       498       497       639      2291      2717      2718
 -1      1125    8    0    1
 -2       497       638       639      2715      2719      2717
 -1      1126    8    0    1
 -2       499       498       640      2294      2720      2721
 -1      1127    8    0    1
 -2       498       639       640      2718      2722      2720
 -1      1128    8    0    1
 -2       500       499       641      2297      2723      2724
 -1      1129    8    0    1
 -2       499       640       641      2721      2725      2723
 -1      1130    8    0    1
 -2       501       500       642      2300      2726      2727
 -1      1131    8    0    1
 -2       500       641       642      2724      2728      2726
 -1      1132    8    0    1
 -2       502       501       643      2303      2729      2730
 -1      1133    8    0    1
 -2       501       642       643      2727      2731      2729
 -1      1134    8    0    1
 -2       503       502       644      2306      2732      2733
 -1      1135    8    0    1
 -2       502       643       644      2730      2734      2732
 -1      1136    8    0    1
 -2       504       503       645      2309      2735      2736
 -1      1137    8    0    1
 -2       503       644       645      2733      2737      2735
 -1      1138    8    0    1
 -2       505       504       646      2312      2738      2739
 -1      1139    8    0    1
 -2       504       645       646      2736      2740      2738
 -1      1140    8    0    1
 -2       506       505       647      2315      2741      2742
 -1      1141    8    0    1
 -2       505       646       647      2739      2743      2741
 -1      1142    8    0    1
 -2       507       506       648      2318      2744      2745
 -1      1143    8    0    1
 -2       506       647       648      2742      2746      2744
 -1      1144    8    0    1
 -2       508       507       649      2321      2747      2748
 -1      1145    8    0    1
 -2       507       648       649      2745      2749      2747
 -1      1146    8    0    1
 -2       509       508       650      2324      2750      2751
 -1      1147    8    0    1
 -2       508       649       650      2748      2752      2750
 -1      1148    8    0    1
 -2       510       509       651      2327      2753      2754
 -1      1149    8    0    1
 -2       509       650       651      2751      2755      2753
 -1      1150    8    0    1
 -2       511       510       652      2330      2756      2757
 -1      1151    8    0    1
 -2       510       651       652      2754      2758      2756
 -1      1152    8    0    1
 -2       512       511       653      2333      2759      2760
 -1      1153    8    0    1
 -2       511       652       653      2757      2761      2759
 -1      1154    8    0    1
 -2       513       512       654      2336      2762      2763
 -1      1155    8    0    1
 -2       512       653       654      2760      2764      2762
 -1      1156    8    0    1
 -2       514       513       655      2339      2765      2766
 -1      1157    8    0    1
 -2       513       654       655      2763      2767      2765
 -1      1158    8    0    1
 -2       515       514       656      2342      2768      2769
 -1      1159    8    0    1
 -2       514       655       656      2766      2770      2768
 -1      1160    8    0    1
 -2       516       515       657      2345      2771      2772
 -1      1161    8    0    1
 -2       515       656       657      2769      2773      2771
 -1      1162    8    0    1
 -2       517       516       658      2348      2774      2775
 -1      1163    8    0    1
 -2       516       657       658      2772      2776      2774
 -1      1164    8    0    1
 -2       518       517       659      2351      2777      2778
 -1      1165    8    0    1
 -2       517       658       659      2775      2779      2777
 -1      1166    8    0    1
 -2       519       518       660      2354      2780      2781
 -1      1167    8    0    1
 -2       518       659       660      2778      2782      2780
 -1      1168    8    0    1
 -2       520       519       661      2357      2783      2784
 -1      1169    8    0    1
 -2       519       660       661      2781      2785      2783
 -1      1170    8    0    1
 -2       521       520       662      2360      2786      2787
 -1      1171    8    0    1
 -2       520       661       662      2784      2788      2786
 -1      1172    8    0    1
 -2       522       521       663      2363      2789      2790
 -1      1173    8    0    1
 -2       521       662       663      2787      2791      2789
 -1      1174    8    0    1
 -2       523       522       664      2366      2792      2793
 -1      1175    8    0    1
 -2       522       663       664      2790      2794      2792
 -1      1176    8    0    1
 -2       524       523       665      2369      2795      2796
 -1      1177    8    0    1
 -2       523       664       665      2793      2797      2795
 -1      1178    8    0    1
 -2       525       524       666      2372      2798      2799
 -1      1179    8    0    1
 -2       524       665       666      2796      2800      2798
 -1      1180    8    0    1
 -2       526       525       667      2375      2801      2802
 -1      1181    8    0    1
 -2       525       666       667      2799      2803      2801
 -1      1182    8    0    1
 -2       527       526       668      2378      2804      2805
 -1      1183    8    0    1
 -2       526       667       668      2802      2806      2804
 -1      1184    8    0    1
 -2       528       527       669      2381      2807      2808
 -1      1185    8    0    1
 -2       527       668       669      2805      2809      2807
 -1      1186    8    0    1
 -2       530       531       670      2389      2810      2811
 -1      1187    8    0    1
 -2       588       605       671      2645      2812      2813
 -1      1188    8    0    1
 -2       529       530       672      2386      2814      2815
 -1      1189    8    0    1
 -2       530       670       672      2811      2816      2814
 -1      1190    8    0    1
 -2       532       533       673      2395      2817      2818
 -1      1191    8    0    1
 -2       533       534       674      2398      2819      2820
 -1      1192    8    0    1
 -2       533       674       673      2820      2821      2817
 -1      1193    8    0    1
 -2       534       535       675      2401      2822      2823
 -1      1194    8    0    1
 -2       534       675       674      2823      2824      2819
 -1      1195    8    0    1
 -2       535       536       676      2404      2825      2826
 -1      1196    8    0    1
 -2       535       676       675      2826      2827      2822
 -1      1197    8    0    1
 -2       536       537       677      2407      2828      2829
 -1      1198    8    0    1
 -2       536       677       676      2829      2830      2825
 -1      1199    8    0    1
 -2       537       538       678      2410      2831      2832
 -1      1200    8    0    1
 -2       537       678       677      2832      2833      2828
 -1      1201    8    0    1
 -2       538       539       679      2413      2834      2835
 -1      1202    8    0    1
 -2       538       679       678      2835      2836      2831
 -1      1203    8    0    1
 -2       539       540       680      2416      2837      2838
 -1      1204    8    0    1
 -2       539       680       679      2838      2839      2834
 -1      1205    8    0    1
 -2       540       541       681      2419      2840      2841
 -1      1206    8    0    1
 -2       540       681       680      2841      2842      2837
 -1      1207    8    0    1
 -2       541       542       682      2422      2843      2844
 -1      1208    8    0    1
 -2       541       682       681      2844      2845      2840
 -1      1209    8    0    1
 -2       542       543       683      2425      2846      2847
 -1      1210    8    0    1
 -2       542       683       682      2847      2848      2843
 -1      1211    8    0    1
 -2       543       544       684      2428      2849      2850
 -1      1212    8    0    1
 -2       543       684       683      2850      2851      2846
 -1      1213    8    0    1
 -2       544       545       685      2431      2852      2853
 -1      1214    8    0    1
 -2       544       685       684      2853      2854      2849
 -1      1215    8    0    1
 -2       545       546       686      2434      2855      2856
 -1      1216    8    0    1
 -2       545       686       685      2856      2857      2852
 -1      1217    8    0    1
 -2       546       547       687      2437      2858      2859
 -1      1218    8    0    1
 -2       546       687       686      2859      2860      2855
 -1      1219    8    0    1
 -2       547       548       688      2440      2861      2862
 -1      1220    8    0    1
 -2       547       688       687      2862      2863      2858
 -1      1221    8    0    1
 -2       548       549       689      2443      2864      2865
 -1      1222    8    0    1
 -2       548       689       688      2865      2866      2861
 -1      1223    8    0    1
 -2       549       550       690      2446      2867      2868
 -1      1224    8    0    1
 -2       549       690       689      2868      2869      2864
 -1      1225    8    0    1
 -2       550       551       691      2449      2870      2871
 -1      1226    8    0    1
 -2       550       691       690      2871      2872      2867
 -1      1227    8    0    1
 -2       551       552       692      2452      2873      2874
 -1      1228    8    0    1
 -2       551       692       691      2874      2875      2870
 -1      1229    8    0    1
 -2       552       553       693      2455      2876      2877
 -1      1230    8    0    1
 -2       552       693       692      2877      2878      2873
 -1      1231    8    0    1
 -2       553       554       694      2458      2879      2880
 -1      1232    8    0    1
 -2       553       694       693      2880      2881      2876
 -1      1233    8    0    1
 -2       554       555       695      2461      2882      2883
 -1      1234    8    0    1
 -2       554       695       694      2883      2884      2879
 -1      1235    8    0    1
 -2       555       556       696      2464      2885      2886
 -1      1236    8    0    1
 -2       555       696       695      2886      2887      2882
 -1      1237    8    0    1
 -2       556       557       697      2467      2888      2889
 -1      1238    8    0    1
 -2       556       697       696      2889      2890      2885
 -1      1239    8    0    1
 -2       557       558       698      2470      2891      2892
 -1      1240    8    0    1
 -2       557       698       697      2892      2893      2888
 -1      1241    8    0    1
 -2       558       559       699      2473      2894      2895
 -1      1242    8    0    1
 -2       558       699       698      2895      2896      2891
 -1      1243    8    0    1
 -2       559       560       700      2476      2897      2898
 -1      1244    8    0    1
 -2       559       700       699      2898      2899      2894
 -1      1245    8    0    1
 -2       560       561       701      2479      2900      2901
 -1      1246    8    0    1
 -2       560       701       700      2901      2902      2897
 -1      1247    8    0    1
 -2       561       562       702      2482      2903      2904
 -1      1248    8    0    1
 -2       561       702       701      2904      2905      2900
 -1      1249    8    0    1
 -2       562       563       703      2485      2906      2907
 -1      1250    8    0    1
 -2       562       703       702      2907      2908      2903
 -1      1251    8    0    1
 -2       563       564       704      2488      2909      2910
 -1      1252    8    0    1
 -2       563       704       703      2910      2911      2906
 -1      1253    8    0    1
 -2       564       565       705      2491      2912      2913
 -1      1254    8    0    1
 -2       564       705       704      2913      2914      2909
 -1      1255    8    0    1
 -2       565       566       706      2494      2915      2916
 -1      1256    8    0    1
 -2       565       706       705      2916      2917      2912
 -1      1257    8    0    1
 -2       566       567       707      2497      2918      2919
 -1      1258    8    0    1
 -2       566       707       706      2919      2920      2915
 -1      1259    8    0    1
 -2       567       568       708      2500      2921      2922
 -1      1260    8    0    1
 -2       567       708       707      2922      2923      2918
 -1      1261    8    0    1
 -2       568       569       709      2503      2924      2925
 -1      1262    8    0    1
 -2       568       709       708      2925      2926      2921
 -1      1263    8    0    1
 -2       569       570       710      2506      2927      2928
 -1      1264    8    0    1
 -2       709       569       710      2924      2928      2929
 -1      1265    8    0    1
 -2       570       573       710      2668      2930      2927
 -1      1266    8    0    1
 -2       575       576       711      2524      2931      2932
 -1      1267    8    0    1
 -2       616       528       712      2669      2933      2934
 -1      1268    8    0    1
 -2       528       669       712      2808      2935      2933
 -1      1269    8    0    1
 -2       571       572       713      2512      2936      2937
 -1      1270    8    0    1
 -2       576       577       714      2527      2938      2939
 -1      1271    8    0    1
 -2       576       714       711      2939      2940      2931
 -1      1272    8    0    1
 -2       572       575       715      2521      2941      2942
 -1      1273    8    0    1
 -2       713       572       715      2936      2942      2943
 -1      1274    8    0    1
 -2       575       711       715      2932      2944      2941
 -1      1275    8    0    1
 -2       593       591       716      2620      2945      2946
 -1      1276    8    0    1
 -2       602       600       717      2589      2947      2948
 -1      1277    8    0    1
 -2       577       578       718      2530      2949      2950
 -1      1278    8    0    1
 -2       577       718       714      2950      2951      2938
 -1      1279    8    0    1
 -2       578       579       719      2533      2952      2953
 -1      1280    8    0    1
 -2       578       719       718      2953      2954      2949
 -1      1281    8    0    1
 -2       579       580       720      2536      2955      2956
 -1      1282    8    0    1
 -2       579       720       719      2956      2957      2952
 -1      1283    8    0    1
 -2       607       608       721      2628      2958      2959
 -1      1284    8    0    1
 -2       587       583       722      2634      2960      2961
 -1      1285    8    0    1
 -2       604       588       723      2631      2962      2963
 -1      1286    8    0    1
 -2       588       671       723      2813      2964      2962
 -1      1287    8    0    1
 -2       582       587       724      2554      2965      2966
 -1      1288    8    0    1
 -2       589       599       725      2649      2967      2968
 -1      1289    8    0    1
 -2       596       597       726      2650      2969      2970
 -1      1290    8    0    1
 -2       601       602       727      2635      2971      2972
 -1      1291    8    0    1
 -2       602       717       727      2948      2973      2971
 -1      1292    8    0    1
 -2       584       529       728      2546      2974      2975
 -1      1293    8    0    1
 -2       529       672       728      2815      2976      2974
 -1      1294    8    0    1
 -2       531       532       729      2392      2977      2978
 -1      1295    8    0    1
 -2       670       531       729      2810      2978      2979
 -1      1296    8    0    1
 -2       532       673       729      2818      2980      2977
 -1      1297    8    0    1
 -2       486       484       730      2255      2981      2982
 -1      1298    8    0    1
 -2       486       730       628      2982      2983      2685
 -1      1299    8    0    1
 -2       483       584       731      2624      2984      2985
 -1      1300    8    0    1
 -2       626       483       731      2680      2985      2986
 -1      1301    8    0    1
 -2       584       728       731      2975      2987      2984
 -1      1302    8    0    1
 -2       613       485       732      2626      2988      2989
 -1      1303    8    0    1
 -2       479       480       733      2239      2990      2991
 -1      1304    8    0    1
 -2       622       479       733      2670      2991      2992
 -1      1305    8    0    1
 -2       480       624       733      2676      2993      2990
 -1      1306    8    0    1
 -2       476       475       734      2228      2994      2995
 -1      1307    8    0    1
 -2       581       616       712      2643      2934      2996
 -1      1308    8    0    1
 -2       591       594       735      2571      2997      2998
 -1      1309    8    0    1
 -2       591       735       716      2998      2999      2945
 -1      1310    8    0    1
 -2       605       606       736      2667      3000      3001
 -1      1311    8    0    1
 -2       597       598       737      2580      3002      3003
 -1      1312    8    0    1
 -2       597       737       726      3003      3004      2969
 -1      1313    8    0    1
 -2       485       585       738      2658      3005      3006
 -1      1314    8    0    1
 -2       485       738       732      3006      3007      2988
 -1      1315    8    0    1
 -2       473       592       739      2654      3008      3009
 -1      1316    8    0    1
 -2       600       603       740      2636      3010      3011
 -1      1317    8    0    1
 -2       592       601       741      2659      3012      3013
 -1      1318    8    0    1
 -2       583       613       742      2619      3014      3015
 -1      1319    8    0    1
 -2       603       604       743      2594      3016      3017
 -1      1320    8    0    1
 -2       586       610       744      2630      3018      3019
 -1      1321    8    0    1
 -2       606       607       745      2629      3020      3021
 -1      1322    8    0    1
 -2       607       721       745      2959      3022      3020
 -1      1323    8    0    1
 -2       484       611       746      2611      3023      3024
 -1      1324    8    0    1
 -2       730       484       746      2981      3024      3025
 -1      1325    8    0    1
 -2       611       620       746      2662      3026      3023
 -1      1326    8    0    1
 -2       614       476       747      2621      3027      3028
 -1      1327    8    0    1
 -2       476       734       747      2995      3029      3027
 -1      1328    8    0    1
 -2       477       623       748      2673      3030      3031
 -1      1329    8    0    1
 -2       477       748       590      3031      3032      2562
 -1      1330    8    0    1
 -2       473       739       619      3009      3033      2655
 -1      1331    8    0    1
 -2       482       474       626      2682      2681      3034
 -1      1332    8    0    1
 -2       585       615       749      2639      3035      3036
 -1      1333    8    0    1
 -2       585       749       738      3036      3037      3005
 -1      1334    8    0    1
 -2       609       586       750      2606      3038      3039
 -1      1335    8    0    1
 -2       627       582       724      2683      2966      3040
 -1      1336    8    0    1
 -2       744       610       627      3018      2684      3041
 -1      1337    8    0    1
 -2       571       713       751      2937      3042      3043
 -1      1338    8    0    1
 -2       571       751       574      3043      3044      2518
 -1      1339    8    0    1
 -2       743       604       723      3016      2963      3045
 -1      1340    8    0    1
 -2       742       613       732      3014      2989      3046
 -1      1341    8    0    1
 -2       605       736       671      3001      3047      2812
 -1      1342    8    0    1
 -2       573       574       752      2517      3048      3049
 -1      1343    8    0    1
 -2       710       573       752      2930      3049      3050
 -1      1344    8    0    1
 -2       574       751       752      3044      3051      3048
 -1      1345    8    0    1
 -2       717       600       740      2947      3011      3052
 -1      1346    8    0    1
 -2       741       601       727      3012      2972      3053
 -1      1347    8    0    1
 -2       721       608       753      2958      3054      3055
 -1      1348    8    0    1
 -2       580       581       712      2539      2996      3056
 -1      1349    8    0    1
 -2       587       722       724      2961      3057      2965
 -1      1350    8    0    1
 -2       722       583       742      2960      3015      3058
 -1      1351    8    0    1
 -2       725       599       754      2967      3059      3060
 -1      1352    8    0    1
 -2       599       619       754      2657      3061      3059
 -1      1353    8    0    1
 -2       615       593       716      2640      2946      3062
 -1      1354    8    0    1
 -2       589       725       617      2968      3063      2648
 -1      1355    8    0    1
 -2       618       595       755      2653      3064      3065
 -1      1356    8    0    1
 -2       595       621       755      2665      3066      3064
 -1      1357    8    0    1
 -2       596       726       756      2970      3067      3068
 -1      1358    8    0    1
 -2       596       756       621      3068      3069      2666
 -1      1359    8    0    1
 -2       482       626       625      3034      3070      2677
 -1      1360    8    0    1
 -2       475       590       757      2561      3071      3072
 -1      1361    8    0    1
 -2       734       475       757      2994      3072      3073
 -1      1362    8    0    1
 -2       590       748       757      3032      3074      3071
 -1      1363    8    0    1
 -2       740       603       743      3010      3017      3075
 -1      1364    8    0    1
 -2       737       598       758      3002      3076      3077
 -1      1365    8    0    1
 -2       598       617       758      2647      3078      3076
 -1      1366    8    0    1
 -2       736       606       745      3000      3021      3079
 -1      1367    8    0    1
 -2       739       592       741      3008      3013      3080
 -1      1368    8    0    1
 -2       586       744       750      3019      3081      3038
 -1      1369    8    0    1
 -2       608       609       753      2605      3082      3054
 -1      1370    8    0    1
 -2       580       712       759      3056      3083      3084
 -1      1371    8    0    1
 -2       720       580       759      2955      3084      3085
 -1      1372    8    0    1
 -2       712       669       759      2935      3086      3083
 -1      1373    8    0    1
 -2       624       625       760      2679      3087      3088
 -1      1374    8    0    1
 -2       753       609       750      3082      3039      3089
 -1      1375    8    0    1
 -2       627       724       761      3040      3090      3091
 -1      1376    8    0    1
 -2       628       730       762      2983      3092      3093
 -1      1377    8    0    1
 -2       745       721       763      3022      3094      3095
 -1      1378    8    0    1
 -2       630       629       764      2692      3096      3097
 -1      1379    8    0    1
 -2       631       630       765      2695      3098      3099
 -1      1380    8    0    1
 -2       630       764       765      3097      3100      3098
 -1      1381    8    0    1
 -2       632       631       766      2698      3101      3102
 -1      1382    8    0    1
 -2       631       765       766      3099      3103      3101
 -1      1383    8    0    1
 -2       635       634       743      2707      3104      3105
 -1      1384    8    0    1
 -2       636       635       723      2710      3106      3107
 -1      1385    8    0    1
 -2       637       636       671      2713      3108      3109
 -1      1386    8    0    1
 -2       639       638       763      2719      3110      3111
 -1      1387    8    0    1
 -2       640       639       763      2722      3111      3112
 -1      1388    8    0    1
 -2       641       640       767      2725      3113      3114
 -1      1389    8    0    1
 -2       642       641       768      2728      3115      3116
 -1      1390    8    0    1
 -2       641       767       768      3114      3117      3115
 -1      1391    8    0    1
 -2       643       642       769      2731      3118      3119
 -1      1392    8    0    1
 -2       642       768       769      3116      3120      3118
 -1      1393    8    0    1
 -2       644       643       770      2734      3121      3122
 -1      1394    8    0    1
 -2       643       769       770      3119      3123      3121
 -1      1395    8    0    1
 -2       645       644       771      2737      3124      3125
 -1      1396    8    0    1
 -2       644       770       771      3122      3126      3124
 -1      1397    8    0    1
 -2       646       645       772      2740      3127      3128
 -1      1398    8    0    1
 -2       645       771       772      3125      3129      3127
 -1      1399    8    0    1
 -2       647       646       773      2743      3130      3131
 -1      1400    8    0    1
 -2       646       772       773      3128      3132      3130
 -1      1401    8    0    1
 -2       648       647       774      2746      3133      3134
 -1      1402    8    0    1
 -2       647       773       774      3131      3135      3133
 -1      1403    8    0    1
 -2       649       648       775      2749      3136      3137
 -1      1404    8    0    1
 -2       648       774       775      3134      3138      3136
 -1      1405    8    0    1
 -2       650       649       776      2752      3139      3140
 -1      1406    8    0    1
 -2       649       775       776      3137      3141      3139
 -1      1407    8    0    1
 -2       651       650       777      2755      3142      3143
 -1      1408    8    0    1
 -2       650       776       777      3140      3144      3142
 -1      1409    8    0    1
 -2       652       651       778      2758      3145      3146
 -1      1410    8    0    1
 -2       651       777       778      3143      3147      3145
 -1      1411    8    0    1
 -2       653       652       779      2761      3148      3149
 -1      1412    8    0    1
 -2       652       778       779      3146      3150      3148
 -1      1413    8    0    1
 -2       654       653       780      2764      3151      3152
 -1      1414    8    0    1
 -2       653       779       780      3149      3153      3151
 -1      1415    8    0    1
 -2       655       654       781      2767      3154      3155
 -1      1416    8    0    1
 -2       654       780       781      3152      3156      3154
 -1      1417    8    0    1
 -2       656       655       782      2770      3157      3158
 -1      1418    8    0    1
 -2       655       781       782      3155      3159      3157
 -1      1419    8    0    1
 -2       657       656       783      2773      3160      3161
 -1      1420    8    0    1
 -2       656       782       783      3158      3162      3160
 -1      1421    8    0    1
 -2       658       657       784      2776      3163      3164
 -1      1422    8    0    1
 -2       657       783       784      3161      3165      3163
 -1      1423    8    0    1
 -2       659       658       785      2779      3166      3167
 -1      1424    8    0    1
 -2       658       784       785      3164      3168      3166
 -1      1425    8    0    1
 -2       660       659       786      2782      3169      3170
 -1      1426    8    0    1
 -2       659       785       786      3167      3171      3169
 -1      1427    8    0    1
 -2       661       660       787      2785      3172      3173
 -1      1428    8    0    1
 -2       660       786       787      3170      3174      3172
 -1      1429    8    0    1
 -2       662       661       788      2788      3175      3176
 -1      1430    8    0    1
 -2       661       787       788      3173      3177      3175
 -1      1431    8    0    1
 -2       663       662       789      2791      3178      3179
 -1      1432    8    0    1
 -2       662       788       789      3176      3180      3178
 -1      1433    8    0    1
 -2       664       663       790      2794      3181      3182
 -1      1434    8    0    1
 -2       663       789       790      3179      3183      3181
 -1      1435    8    0    1
 -2       665       664       791      2797      3184      3185
 -1      1436    8    0    1
 -2       664       790       791      3182      3186      3184
 -1      1437    8    0    1
 -2       666       665       792      2800      3187      3188
 -1      1438    8    0    1
 -2       665       791       792      3185      3189      3187
 -1      1439    8    0    1
 -2       667       666       793      2803      3190      3191
 -1      1440    8    0    1
 -2       666       792       793      3188      3192      3190
 -1      1441    8    0    1
 -2       668       667       794      2806      3193      3194
 -1      1442    8    0    1
 -2       667       793       794      3191      3195      3193
 -1      1443    8    0    1
 -2       669       668       795      2809      3196      3197
 -1      1444    8    0    1
 -2       759       669       795      3086      3197      3198
 -1      1445    8    0    1
 -2       668       794       795      3194      3199      3196
 -1      1446    8    0    1
 -2       744       627       796      3041      3200      3201
 -1      1447    8    0    1
 -2       627       761       796      3091      3202      3200
 -1      1448    8    0    1
 -2       674       675       618      2824      3203      3204
 -1      1449    8    0    1
 -2       673       674       756      2821      3205      3206
 -1      1450    8    0    1
 -2       676       677       716      2830      3207      3208
 -1      1451    8    0    1
 -2       677       678       615      2833      3209      3210
 -1      1452    8    0    1
 -2       679       680       797      2839      3211      3212
 -1      1453    8    0    1
 -2       680       681       798      2842      3213      3214
 -1      1454    8    0    1
 -2       680       798       797      3214      3215      3211
 -1      1455    8    0    1
 -2       681       682       799      2845      3216      3217
 -1      1456    8    0    1
 -2       681       799       798      3217      3218      3213
 -1      1457    8    0    1
 -2       682       683       800      2848      3219      3220
 -1      1458    8    0    1
 -2       682       800       799      3220      3221      3216
 -1      1459    8    0    1
 -2       683       684       801      2851      3222      3223
 -1      1460    8    0    1
 -2       683       801       800      3223      3224      3219
 -1      1461    8    0    1
 -2       684       685       802      2854      3225      3226
 -1      1462    8    0    1
 -2       684       802       801      3226      3227      3222
 -1      1463    8    0    1
 -2       685       686       803      2857      3228      3229
 -1      1464    8    0    1
 -2       685       803       802      3229      3230      3225
 -1      1465    8    0    1
 -2       686       687       804      2860      3231      3232
 -1      1466    8    0    1
 -2       686       804       803      3232      3233      3228
 -1      1467    8    0    1
 -2       687       688       805      2863      3234      3235
 -1      1468    8    0    1
 -2       687       805       804      3235      3236      3231
 -1      1469    8    0    1
 -2       688       689       806      2866      3237      3238
 -1      1470    8    0    1
 -2       688       806       805      3238      3239      3234
 -1      1471    8    0    1
 -2       689       690       807      2869      3240      3241
 -1      1472    8    0    1
 -2       689       807       806      3241      3242      3237
 -1      1473    8    0    1
 -2       690       691       808      2872      3243      3244
 -1      1474    8    0    1
 -2       690       808       807      3244      3245      3240
 -1      1475    8    0    1
 -2       691       692       809      2875      3246      3247
 -1      1476    8    0    1
 -2       691       809       808      3247      3248      3243
 -1      1477    8    0    1
 -2       692       693       810      2878      3249      3250
 -1      1478    8    0    1
 -2       692       810       809      3250      3251      3246
 -1      1479    8    0    1
 -2       693       694       811      2881      3252      3253
 -1      1480    8    0    1
 -2       693       811       810      3253      3254      3249
 -1      1481    8    0    1
 -2       694       695       812      2884      3255      3256
 -1      1482    8    0    1
 -2       694       812       811      3256      3257      3252
 -1      1483    8    0    1
 -2       695       696       813      2887      3258      3259
 -1      1484    8    0    1
 -2       695       813       812      3259      3260      3255
 -1      1485    8    0    1
 -2       696       697       814      2890      3261      3262
 -1      1486    8    0    1
 -2       696       814       813      3262      3263      3258
 -1      1487    8    0    1
 -2       697       698       815      2893      3264      3265
 -1      1488    8    0    1
 -2       697       815       814      3265      3266      3261
 -1      1489    8    0    1
 -2       698       699       816      2896      3267      3268
 -1      1490    8    0    1
 -2       698       816       815      3268      3269      3264
 -1      1491    8    0    1
 -2       699       700       817      2899      3270      3271
 -1      1492    8    0    1
 -2       699       817       816      3271      3272      3267
 -1      1493    8    0    1
 -2       700       701       818      2902      3273      3274
 -1      1494    8    0    1
 -2       700       818       817      3274      3275      3270
 -1      1495    8    0    1
 -2       701       702       819      2905      3276      3277
 -1      1496    8    0    1
 -2       701       819       818      3277      3278      3273
 -1      1497    8    0    1
 -2       702       703       820      2908      3279      3280
 -1      1498    8    0    1
 -2       702       820       819      3280      3281      3276
 -1      1499    8    0    1
 -2       703       704       821      2911      3282      3283
 -1      1500    8    0    1
 -2       703       821       820      3283      3284      3279
 -1      1501    8    0    1
 -2       704       705       822      2914      3285      3286
 -1      1502    8    0    1
 -2       704       822       821      3286      3287      3282
 -1      1503    8    0    1
 -2       705       706       823      2917      3288      3289
 -1      1504    8    0    1
 -2       705       823       822      3289      3290      3285
 -1      1505    8    0    1
 -2       706       707       824      2920      3291      3292
 -1      1506    8    0    1
 -2       706       824       823      3292      3293      3288
 -1      1507    8    0    1
 -2       707       708       825      2923      3294      3295
 -1      1508    8    0    1
 -2       707       825       824      3295      3296      3291
 -1      1509    8    0    1
 -2       708       709       826      2926      3297      3298
 -1      1510    8    0    1
 -2       708       826       825      3298      3299      3294
 -1      1511    8    0    1
 -2       709       710       827      2929      3300      3301
 -1      1512    8    0    1
 -2       826       709       827      3297      3301      3302
 -1      1513    8    0    1
 -2       710       752       827      3050      3303      3300
 -1      1514    8    0    1
 -2       623       622       828      2674      3304      3305
 -1      1515    8    0    1
 -2       716       735       676      2999      3306      3208
 -1      1516    8    0    1
 -2       711       714       829      2940      3307      3308
 -1      1517    8    0    1
 -2       671       736       637      3047      3309      3109
 -1      1518    8    0    1
 -2       714       718       830      2951      3310      3311
 -1      1519    8    0    1
 -2       714       830       829      3311      3312      3307
 -1      1520    8    0    1
 -2       742       732       831      3046      3313      3314
 -1      1521    8    0    1
 -2       727       717       832      2973      3315      3316
 -1      1522    8    0    1
 -2       716       677       615      3207      3210      3062
 -1      1523    8    0    1
 -2       671       636       723      3108      3107      2964
 -1      1524    8    0    1
 -2       722       742       833      3058      3317      3318
 -1      1525    8    0    1
 -2       719       720       834      2957      3319      3320
 -1      1526    8    0    1
 -2       718       719       835      2954      3321      3322
 -1      1527    8    0    1
 -2       830       718       835      3310      3322      3323
 -1      1528    8    0    1
 -2       719       834       835      3320      3324      3321
 -1      1529    8    0    1
 -2       675       676       735      2827      3306      3325
 -1      1530    8    0    1
 -2       619       739       836      3033      3326      3327
 -1      1531    8    0    1
 -2       619       836       754      3327      3328      3061
 -1      1532    8    0    1
 -2       672       670       837      2816      3329      3330
 -1      1533    8    0    1
 -2       721       753       838      3055      3331      3332
 -1      1534    8    0    1
 -2       721       838       763      3332      3333      3094
 -1      1535    8    0    1
 -2       728       672       839      2976      3334      3335
 -1      1536    8    0    1
 -2       672       837       839      3330      3336      3334
 -1      1537    8    0    1
 -2       743       723       635      3045      3106      3105
 -1      1538    8    0    1
 -2       620       614       840      2663      3337      3338
 -1      1539    8    0    1
 -2       746       620       840      3026      3338      3339
 -1      1540    8    0    1
 -2       614       747       840      3028      3340      3337
 -1      1541    8    0    1
 -2       629       628       841      2689      3341      3342
 -1      1542    8    0    1
 -2       629       841       764      3342      3343      3096
 -1      1543    8    0    1
 -2       724       722       842      3057      3344      3345
 -1      1544    8    0    1
 -2       735       594       618      2997      2652      3346
 -1      1545    8    0    1
 -2       726       737       843      3004      3347      3348
 -1      1546    8    0    1
 -2       717       740       844      3052      3349      3350
 -1      1547    8    0    1
 -2       741       727       845      3053      3351      3352
 -1      1548    8    0    1
 -2       727       832       845      3316      3353      3351
 -1      1549    8    0    1
 -2       750       744       846      3081      3354      3355
 -1      1550    8    0    1
 -2       617       725       847      3063      3356      3357
 -1      1551    8    0    1
 -2       739       741       848      3080      3358      3359
 -1      1552    8    0    1
 -2       625       626       849      3070      3360      3361
 -1      1553    8    0    1
 -2       760       625       849      3087      3361      3362
 -1      1554    8    0    1
 -2       626       731       849      2986      3363      3360
 -1      1555    8    0    1
 -2       753       750       850      3089      3364      3365
 -1      1556    8    0    1
 -2       750       846       850      3355      3366      3364
 -1      1557    8    0    1
 -2       743       634       740      3104      3367      3075
 -1      1558    8    0    1
 -2       618       675       735      3203      3325      3346
 -1      1559    8    0    1
 -2       637       736       638      3309      3368      2716
 -1      1560    8    0    1
 -2       740       634       844      3367      3369      3349
 -1      1561    8    0    1
 -2       638       736       745      3368      3079      3370
 -1      1562    8    0    1
 -2       638       745       763      3370      3095      3110
 -1      1563    8    0    1
 -2       748       623       851      3030      3371      3372
 -1      1564    8    0    1
 -2       623       828       851      3305      3373      3371
 -1      1565    8    0    1
 -2       738       749       852      3037      3374      3375
 -1      1566    8    0    1
 -2       761       724       842      3090      3345      3376
 -1      1567    8    0    1
 -2       628       762       841      3093      3377      3341
 -1      1568    8    0    1
 -2       632       766       844      3102      3378      3379
 -1      1569    8    0    1
 -2       751       713       853      3042      3380      3381
 -1      1570    8    0    1
 -2       633       632       844      2701      3379      3382
 -1      1571    8    0    1
 -2       634       633       844      2704      3382      3369
 -1      1572    8    0    1
 -2       833       742       854      3317      3383      3384
 -1      1573    8    0    1
 -2       742       831       854      3314      3385      3383
 -1      1574    8    0    1
 -2       640       763       767      3112      3386      3113
 -1      1575    8    0    1
 -2       744       796       855      3201      3387      3388
 -1      1576    8    0    1
 -2       744       855       846      3388      3389      3354
 -1      1577    8    0    1
 -2       747       734       856      3029      3390      3391
 -1      1578    8    0    1
 -2       670       729       857      2979      3392      3393
 -1      1579    8    0    1
 -2       670       857       837      3393      3394      3329
 -1      1580    8    0    1
 -2       711       829       858      3308      3395      3396
 -1      1581    8    0    1
 -2       711       858       715      3396      3397      2944
 -1      1582    8    0    1
 -2       679       797       852      3212      3398      3399
 -1      1583    8    0    1
 -2       678       679       852      2836      3399      3400
 -1      1584    8    0    1
 -2       828       622       859      3304      3401      3402
 -1      1585    8    0    1
 -2       622       733       859      2992      3403      3401
 -1      1586    8    0    1
 -2       713       715       860      2943      3404      3405
 -1      1587    8    0    1
 -2       853       713       860      3380      3405      3406
 -1      1588    8    0    1
 -2       715       858       860      3397      3407      3404
 -1      1589    8    0    1
 -2       624       760       861      3088      3408      3409
 -1      1590    8    0    1
 -2       624       861       733      3409      3410      2993
 -1      1591    8    0    1
 -2       838       753       850      3331      3365      3411
 -1      1592    8    0    1
 -2       720       759       862      3085      3412      3413
 -1      1593    8    0    1
 -2       834       720       862      3319      3413      3414
 -1      1594    8    0    1
 -2       759       795       862      3198      3415      3412
 -1      1595    8    0    1
 -2       831       732       797      3313      3416      3417
 -1      1596    8    0    1
 -2       730       746       840      3025      3339      3418
 -1      1597    8    0    1
 -2       762       730       840      3092      3418      3419
 -1      1598    8    0    1
 -2       847       725       863      3356      3420      3421
 -1      1599    8    0    1
 -2       725       754       863      3060      3422      3420
 -1      1600    8    0    1
 -2       732       738       852      3007      3375      3423
 -1      1601    8    0    1
 -2       615       678       749      3209      3424      3035
 -1      1602    8    0    1
 -2       722       833       842      3318      3425      3344
 -1      1603    8    0    1
 -2       756       726       843      3067      3348      3426
 -1      1604    8    0    1
 -2       836       739       864      3326      3427      3428
 -1      1605    8    0    1
 -2       739       848       864      3359      3429      3427
 -1      1606    8    0    1
 -2       848       741       865      3358      3430      3431
 -1      1607    8    0    1
 -2       741       845       865      3352      3432      3430
 -1      1608    8    0    1
 -2       758       617       847      3078      3357      3433
 -1      1609    8    0    1
 -2       731       728       866      2987      3434      3435
 -1      1610    8    0    1
 -2       849       731       866      3363      3435      3436
 -1      1611    8    0    1
 -2       728       839       866      3335      3437      3434
 -1      1612    8    0    1
 -2       749       678       852      3424      3400      3374
 -1      1613    8    0    1
 -2       843       737       758      3347      3077      3438
 -1      1614    8    0    1
 -2       674       618       755      3204      3065      3439
 -1      1615    8    0    1
 -2       734       757       867      3073      3440      3441
 -1      1616    8    0    1
 -2       734       867       856      3441      3442      3390
 -1      1617    8    0    1
 -2       843       758       868      3438      3443      3444
 -1      1618    8    0    1
 -2       761       842       869      3376      3445      3446
 -1      1619    8    0    1
 -2       842       833       870      3425      3447      3448
 -1      1620    8    0    1
 -2       762       840       747      3419      3340      3449
 -1      1621    8    0    1
 -2       829       830       871      3312      3450      3451
 -1      1622    8    0    1
 -2       831       797       798      3417      3215      3452
 -1      1623    8    0    1
 -2       769       768       872      3120      3453      3454
 -1      1624    8    0    1
 -2       770       769       873      3123      3455      3456
 -1      1625    8    0    1
 -2       769       872       873      3454      3457      3455
 -1      1626    8    0    1
 -2       771       770       874      3126      3458      3459
 -1      1627    8    0    1
 -2       770       873       874      3456      3460      3458
 -1      1628    8    0    1
 -2       772       771       875      3129      3461      3462
 -1      1629    8    0    1
 -2       771       874       875      3459      3463      3461
 -1      1630    8    0    1
 -2       773       772       876      3132      3464      3465
 -1      1631    8    0    1
 -2       772       875       876      3462      3466      3464
 -1      1632    8    0    1
 -2       774       773       877      3135      3467      3468
 -1      1633    8    0    1
 -2       773       876       877      3465      3469      3467
 -1      1634    8    0    1
 -2       775       774       878      3138      3470      3471
 -1      1635    8    0    1
 -2       774       877       878      3468      3472      3470
 -1      1636    8    0    1
 -2       776       775       879      3141      3473      3474
 -1      1637    8    0    1
 -2       775       878       879      3471      3475      3473
 -1      1638    8    0    1
 -2       777       776       880      3144      3476      3477
 -1      1639    8    0    1
 -2       776       879       880      3474      3478      3476
 -1      1640    8    0    1
 -2       778       777       881      3147      3479      3480
 -1      1641    8    0    1
 -2       777       880       881      3477      3481      3479
 -1      1642    8    0    1
 -2       779       778       882      3150      3482      3483
 -1      1643    8    0    1
 -2       778       881       882      3480      3484      3482
 -1      1644    8    0    1
 -2       780       779       883      3153      3485      3486
 -1      1645    8    0    1
 -2       779       882       883      3483      3487      3485
 -1      1646    8    0    1
 -2       781       780       884      3156      3488      3489
 -1      1647    8    0    1
 -2       780       883       884      3486      3490      3488
 -1      1648    8    0    1
 -2       782       781       885      3159      3491      3492
 -1      1649    8    0    1
 -2       781       884       885      3489      3493      3491
 -1      1650    8    0    1
 -2       783       782       886      3162      3494      3495
 -1      1651    8    0    1
 -2       782       885       886      3492      3496      3494
 -1      1652    8    0    1
 -2       784       783       887      3165      3497      3498
 -1      1653    8    0    1
 -2       783       886       887      3495      3499      3497
 -1      1654    8    0    1
 -2       785       784       888      3168      3500      3501
 -1      1655    8    0    1
 -2       784       887       888      3498      3502      3500
 -1      1656    8    0    1
 -2       786       785       889      3171      3503      3504
 -1      1657    8    0    1
 -2       785       888       889      3501      3505      3503
 -1      1658    8    0    1
 -2       787       786       890      3174      3506      3507
 -1      1659    8    0    1
 -2       786       889       890      3504      3508      3506
 -1      1660    8    0    1
 -2       788       787       891      3177      3509      3510
 -1      1661    8    0    1
 -2       787       890       891      3507      3511      3509
 -1      1662    8    0    1
 -2       789       788       892      3180      3512      3513
 -1      1663    8    0    1
 -2       788       891       892      3510      3514      3512
 -1      1664    8    0    1
 -2       790       789       893      3183      3515      3516
 -1      1665    8    0    1
 -2       789       892       893      3513      3517      3515
 -1      1666    8    0    1
 -2       791       790       894      3186      3518      3519
 -1      1667    8    0    1
 -2       790       893       894      3516      3520      3518
 -1      1668    8    0    1
 -2       792       791       895      3189      3521      3522
 -1      1669    8    0    1
 -2       791       894       895      3519      3523      3521
 -1      1670    8    0    1
 -2       793       792       896      3192      3524      3525
 -1      1671    8    0    1
 -2       792       895       896      3522      3526      3524
 -1      1672    8    0    1
 -2       794       793       897      3195      3527      3528
 -1      1673    8    0    1
 -2       793       896       897      3525      3529      3527
 -1      1674    8    0    1
 -2       673       756       898      3206      3530      3531
 -1      1675    8    0    1
 -2       762       747       856      3449      3391      3532
 -1      1676    8    0    1
 -2       831       798       854      3452      3533      3385
 -1      1677    8    0    1
 -2       898       756       843      3530      3426      3534
 -1      1678    8    0    1
 -2       762       856       899      3532      3535      3536
 -1      1679    8    0    1
 -2       762       899       841      3536      3537      3377
 -1      1680    8    0    1
 -2       673       898       729      3531      3538      2980
 -1      1681    8    0    1
 -2       800       801       900      3224      3539      3540
 -1      1682    8    0    1
 -2       801       802       901      3227      3541      3542
 -1      1683    8    0    1
 -2       801       901       900      3542      3543      3539
 -1      1684    8    0    1
 -2       802       803       902      3230      3544      3545
 -1      1685    8    0    1
 -2       802       902       901      3545      3546      3541
 -1      1686    8    0    1
 -2       803       804       903      3233      3547      3548
 -1      1687    8    0    1
 -2       803       903       902      3548      3549      3544
 -1      1688    8    0    1
 -2       804       805       904      3236      3550      3551
 -1      1689    8    0    1
 -2       804       904       903      3551      3552      3547
 -1      1690    8    0    1
 -2       805       806       905      3239      3553      3554
 -1      1691    8    0    1
 -2       805       905       904      3554      3555      3550
 -1      1692    8    0    1
 -2       806       807       906      3242      3556      3557
 -1      1693    8    0    1
 -2       806       906       905      3557      3558      3553
 -1      1694    8    0    1
 -2       807       808       907      3245      3559      3560
 -1      1695    8    0    1
 -2       807       907       906      3560      3561      3556
 -1      1696    8    0    1
 -2       808       809       908      3248      3562      3563
 -1      1697    8    0    1
 -2       808       908       907      3563      3564      3559
 -1      1698    8    0    1
 -2       809       810       909      3251      3565      3566
 -1      1699    8    0    1
 -2       809       909       908      3566      3567      3562
 -1      1700    8    0    1
 -2       810       811       910      3254      3568      3569
 -1      1701    8    0    1
 -2       810       910       909      3569      3570      3565
 -1      1702    8    0    1
 -2       811       812       911      3257      3571      3572
 -1      1703    8    0    1
 -2       811       911       910      3572      3573      3568
 -1      1704    8    0    1
 -2       812       813       912      3260      3574      3575
 -1      1705    8    0    1
 -2       812       912       911      3575      3576      3571
 -1      1706    8    0    1
 -2       813       814       913      3263      3577      3578
 -1      1707    8    0    1
 -2       813       913       912      3578      3579      3574
 -1      1708    8    0    1
 -2       814       815       914      3266      3580      3581
 -1      1709    8    0    1
 -2       814       914       913      3581      3582      3577
 -1      1710    8    0    1
 -2       815       816       915      3269      3583      3584
 -1      1711    8    0    1
 -2       815       915       914      3584      3585      3580
 -1      1712    8    0    1
 -2       816       817       916      3272      3586      3587
 -1      1713    8    0    1
 -2       816       916       915      3587      3588      3583
 -1      1714    8    0    1
 -2       817       818       917      3275      3589      3590
 -1      1715    8    0    1
 -2       817       917       916      3590      3591      3586
 -1      1716    8    0    1
 -2       818       819       918      3278      3592      3593
 -1      1717    8    0    1
 -2       818       918       917      3593      3594      3589
 -1      1718    8    0    1
 -2       819       820       919      3281      3595      3596
 -1      1719    8    0    1
 -2       819       919       918      3596      3597      3592
 -1      1720    8    0    1
 -2       820       821       920      3284      3598      3599
 -1      1721    8    0    1
 -2       820       920       919      3599      3600      3595
 -1      1722    8    0    1
 -2       821       822       921      3287      3601      3602
 -1      1723    8    0    1
 -2       821       921       920      3602      3603      3598
 -1      1724    8    0    1
 -2       822       823       922      3290      3604      3605
 -1      1725    8    0    1
 -2       822       922       921      3605      3606      3601
 -1      1726    8    0    1
 -2       823       824       923      3293      3607      3608
 -1      1727    8    0    1
 -2       823       923       922      3608      3609      3604
 -1      1728    8    0    1
 -2       824       825       924      3296      3610      3611
 -1      1729    8    0    1
 -2       824       924       923      3611      3612      3607
 -1      1730    8    0    1
 -2       825       826       925      3299      3613      3614
 -1      1731    8    0    1
 -2       825       925       924      3614      3615      3610
 -1      1732    8    0    1
 -2       832       717       844      3315      3350      3616
 -1      1733    8    0    1
 -2       754       836       926      3328      3617      3618
 -1      1734    8    0    1
 -2       752       751       927      3051      3619      3620
 -1      1735    8    0    1
 -2       827       752       927      3303      3620      3621
 -1      1736    8    0    1
 -2       751       853       927      3381      3622      3619
 -1      1737    8    0    1
 -2       850       846       928      3366      3623      3624
 -1      1738    8    0    1
 -2       799       800       929      3221      3625      3626
 -1      1739    8    0    1
 -2       800       900       929      3540      3627      3625
 -1      1740    8    0    1
 -2       798       799       854      3218      3628      3533
 -1      1741    8    0    1
 -2       797       732       852      3416      3423      3398
 -1      1742    8    0    1
 -2       757       748       930      3074      3629      3630
 -1      1743    8    0    1
 -2       757       930       867      3630      3631      3440
 -1      1744    8    0    1
 -2       839       837       931      3336      3632      3633
 -1      1745    8    0    1
 -2       765       764       932      3100      3634      3635
 -1      1746    8    0    1
 -2       729       898       857      3538      3636      3392
 -1      1747    8    0    1
 -2       758       847       933      3433      3637      3638
 -1      1748    8    0    1
 -2       758       933       868      3638      3639      3443
 -1      1749    8    0    1
 -2       764       841       934      3343      3640      3641
 -1      1750    8    0    1
 -2       932       764       934      3634      3641      3642
 -1      1751    8    0    1
 -2       841       899       934      3537      3643      3640
 -1      1752    8    0    1
 -2       796       761       935      3202      3644      3645
 -1      1753    8    0    1
 -2       761       869       935      3446      3646      3644
 -1      1754    8    0    1
 -2       842       870       869      3448      3647      3445
 -1      1755    8    0    1
 -2       861       760       936      3408      3648      3649
 -1      1756    8    0    1
 -2       844       766       832      3378      3650      3616
 -1      1757    8    0    1
 -2       851       828       937      3373      3651      3652
 -1      1758    8    0    1
 -2       850       928       938      3624      3653      3654
 -1      1759    8    0    1
 -2       898       843       939      3534      3655      3656
 -1      1760    8    0    1
 -2       871       830       940      3450      3657      3658
 -1      1761    8    0    1
 -2       830       835       940      3323      3659      3657
 -1      1762    8    0    1
 -2       766       765       941      3103      3660      3661
 -1      1763    8    0    1
 -2       872       768       938      3453      3662      3663
 -1      1764    8    0    1
 -2       833       854       870      3384      3664      3447
 -1      1765    8    0    1
 -2       855       796       942      3387      3665      3666
 -1      1766    8    0    1
 -2       796       935       942      3645      3667      3665
 -1      1767    8    0    1
 -2       846       855       928      3389      3668      3623
 -1      1768    8    0    1
 -2       843       868       939      3444      3669      3655
 -1      1769    8    0    1
 -2       899       856       867      3535      3442      3670
 -1      1770    8    0    1
 -2       795       794       943      3199      3671      3672
 -1      1771    8    0    1
 -2       862       795       943      3415      3672      3673
 -1      1772    8    0    1
 -2       794       897       943      3528      3674      3671
 -1      1773    8    0    1
 -2       756       674       755      3205      3439      3675
 -1      1774    8    0    1
 -2       858       829       944      3395      3676      3677
 -1      1775    8    0    1
 -2       829       871       944      3451      3678      3676
 -1      1776    8    0    1
 -2       859       733       861      3403      3410      3679
 -1      1777    8    0    1
 -2       927       853       925      3622      3680      3681
 -1      1778    8    0    1
 -2       826       827       927      3302      3621      3682
 -1      1779    8    0    1
 -2       926       836       864      3617      3428      3683
 -1      1780    8    0    1
 -2       767       763       838      3386      3333      3684
 -1      1781    8    0    1
 -2       828       859       945      3402      3685      3686
 -1      1782    8    0    1
 -2       828       945       937      3686      3687      3651
 -1      1783    8    0    1
 -2       847       863       946      3421      3688      3689
 -1      1784    8    0    1
 -2       847       946       933      3689      3690      3637
 -1      1785    8    0    1
 -2       799       929       854      3626      3691      3628
 -1      1786    8    0    1
 -2       863       754       926      3422      3618      3692
 -1      1787    8    0    1
 -2       938       768       767      3662      3117      3693
 -1      1788    8    0    1
 -2       755       621       756      3066      3069      3675
 -1      1789    8    0    1
 -2       766       941       832      3661      3694      3650
 -1      1790    8    0    1
 -2       864       848       947      3429      3695      3696
 -1      1791    8    0    1
 -2       848       865       947      3431      3697      3695
 -1      1792    8    0    1
 -2       865       845       941      3432      3698      3699
 -1      1793    8    0    1
 -2       765       932       941      3635      3700      3660
 -1      1794    8    0    1
 -2       748       851       930      3372      3701      3629
 -1      1795    8    0    1
 -2       845       832       941      3353      3694      3698
 -1      1796    8    0    1
 -2       866       839       948      3437      3702      3703
 -1      1797    8    0    1
 -2       839       931       948      3633      3704      3702
 -1      1798    8    0    1
 -2       838       850       938      3411      3654      3705
 -1      1799    8    0    1
 -2       853       860       949      3406      3706      3707
 -1      1800    8    0    1
 -2       853       949       925      3707      3708      3680
 -1      1801    8    0    1
 -2       834       862       943      3414      3673      3709
 -1      1802    8    0    1
 -2       938       767       838      3693      3684      3705
 -1      1803    8    0    1
 -2       834       943       950      3709      3710      3711
 -1      1804    8    0    1
 -2       835       834       950      3324      3711      3712
 -1      1805    8    0    1
 -2       943       897       950      3674      3713      3710
 -1      1806    8    0    1
 -2       826       927       925      3682      3681      3613
 -1      1807    8    0    1
 -2       938       928       872      3653      3714      3663
 -1      1808    8    0    1
 -2       936       760       866      3648      3715      3716
 -1      1809    8    0    1
 -2       930       851       951      3701      3717      3718
 -1      1810    8    0    1
 -2       851       937       951      3652      3719      3717
 -1      1811    8    0    1
 -2       936       866       948      3716      3703      3720
 -1      1812    8    0    1
 -2       868       933       952      3639      3721      3722
 -1      1813    8    0    1
 -2       870       854       929      3664      3691      3723
 -1      1814    8    0    1
 -2       874       873       953      3460      3724      3725
 -1      1815    8    0    1
 -2       875       874       954      3463      3726      3727
 -1      1816    8    0    1
 -2       874       953       954      3725      3728      3726
 -1      1817    8    0    1
 -2       876       875       955      3466      3729      3730
 -1      1818    8    0    1
 -2       875       954       955      3727      3731      3729
 -1      1819    8    0    1
 -2       877       876       956      3469      3732      3733
 -1      1820    8    0    1
 -2       876       955       956      3730      3734      3732
 -1      1821    8    0    1
 -2       878       877       957      3472      3735      3736
 -1      1822    8    0    1
 -2       877       956       957      3733      3737      3735
 -1      1823    8    0    1
 -2       879       878       958      3475      3738      3739
 -1      1824    8    0    1
 -2       878       957       958      3736      3740      3738
 -1      1825    8    0    1
 -2       880       879       959      3478      3741      3742
 -1      1826    8    0    1
 -2       879       958       959      3739      3743      3741
 -1      1827    8    0    1
 -2       881       880       960      3481      3744      3745
 -1      1828    8    0    1
 -2       880       959       960      3742      3746      3744
 -1      1829    8    0    1
 -2       882       881       961      3484      3747      3748
 -1      1830    8    0    1
 -2       881       960       961      3745      3749      3747
 -1      1831    8    0    1
 -2       883       882       962      3487      3750      3751
 -1      1832    8    0    1
 -2       882       961       962      3748      3752      3750
 -1      1833    8    0    1
 -2       884       883       963      3490      3753      3754
 -1      1834    8    0    1
 -2       883       962       963      3751      3755      3753
 -1      1835    8    0    1
 -2       885       884       964      3493      3756      3757
 -1      1836    8    0    1
 -2       884       963       964      3754      3758      3756
 -1      1837    8    0    1
 -2       886       885       965      3496      3759      3760
 -1      1838    8    0    1
 -2       885       964       965      3757      3761      3759
 -1      1839    8    0    1
 -2       887       886       966      3499      3762      3763
 -1      1840    8    0    1
 -2       886       965       966      3760      3764      3762
 -1      1841    8    0    1
 -2       888       887       967      3502      3765      3766
 -1      1842    8    0    1
 -2       887       966       967      3763      3767      3765
 -1      1843    8    0    1
 -2       889       888       968      3505      3768      3769
 -1      1844    8    0    1
 -2       888       967       968      3766      3770      3768
 -1      1845    8    0    1
 -2       890       889       969      3508      3771      3772
 -1      1846    8    0    1
 -2       889       968       969      3769      3773      3771
 -1      1847    8    0    1
 -2       891       890       970      3511      3774      3775
 -1      1848    8    0    1
 -2       890       969       970      3772      3776      3774
 -1      1849    8    0    1
 -2       892       891       971      3514      3777      3778
 -1      1850    8    0    1
 -2       891       970       971      3775      3779      3777
 -1      1851    8    0    1
 -2       893       892       972      3517      3780      3781
 -1      1852    8    0    1
 -2       892       971       972      3778      3782      3780
 -1      1853    8    0    1
 -2       894       893       973      3520      3783      3784
 -1      1854    8    0    1
 -2       893       972       973      3781      3785      3783
 -1      1855    8    0    1
 -2       895       894       974      3523      3786      3787
 -1      1856    8    0    1
 -2       894       973       974      3784      3788      3786
 -1      1857    8    0    1
 -2       896       895       975      3526      3789      3790
 -1      1858    8    0    1
 -2       895       974       975      3787      3791      3789
 -1      1859    8    0    1
 -2       897       896       976      3529      3792      3793
 -1      1860    8    0    1
 -2       896       975       976      3790      3794      3792
 -1      1861    8    0    1
 -2       837       857       952      3394      3795      3796
 -1      1862    8    0    1
 -2       902       903       977      3549      3797      3798
 -1      1863    8    0    1
 -2       867       930       978      3631      3799      3800
 -1      1864    8    0    1
 -2       930       951       978      3718      3801      3799
 -1      1865    8    0    1
 -2       901       902       979      3546      3802      3803
 -1      1866    8    0    1
 -2       902       977       979      3798      3804      3802
 -1      1867    8    0    1
 -2       900       901       980      3543      3805      3806
 -1      1868    8    0    1
 -2       901       979       980      3803      3807      3805
 -1      1869    8    0    1
 -2       903       904       981      3552      3808      3809
 -1      1870    8    0    1
 -2       903       981       977      3809      3810      3797
 -1      1871    8    0    1
 -2       904       905       982      3555      3811      3812
 -1      1872    8    0    1
 -2       904       982       981      3812      3813      3808
 -1      1873    8    0    1
 -2       905       906       983      3558      3814      3815
 -1      1874    8    0    1
 -2       905       983       982      3815      3816      3811
 -1      1875    8    0    1
 -2       906       907       984      3561      3817      3818
 -1      1876    8    0    1
 -2       906       984       983      3818      3819      3814
 -1      1877    8    0    1
 -2       907       908       985      3564      3820      3821
 -1      1878    8    0    1
 -2       907       985       984      3821      3822      3817
 -1      1879    8    0    1
 -2       908       909       986      3567      3823      3824
 -1      1880    8    0    1
 -2       908       986       985      3824      3825      3820
 -1      1881    8    0    1
 -2       909       910       987      3570      3826      3827
 -1      1882    8    0    1
 -2       909       987       986      3827      3828      3823
 -1      1883    8    0    1
 -2       910       911       988      3573      3829      3830
 -1      1884    8    0    1
 -2       910       988       987      3830      3831      3826
 -1      1885    8    0    1
 -2       911       912       989      3576      3832      3833
 -1      1886    8    0    1
 -2       911       989       988      3833      3834      3829
 -1      1887    8    0    1
 -2       912       913       990      3579      3835      3836
 -1      1888    8    0    1
 -2       912       990       989      3836      3837      3832
 -1      1889    8    0    1
 -2       913       914       991      3582      3838      3839
 -1      1890    8    0    1
 -2       913       991       990      3839      3840      3835
 -1      1891    8    0    1
 -2       914       915       992      3585      3841      3842
 -1      1892    8    0    1
 -2       914       992       991      3842      3843      3838
 -1      1893    8    0    1
 -2       915       916       993      3588      3844      3845
 -1      1894    8    0    1
 -2       915       993       992      3845      3846      3841
 -1      1895    8    0    1
 -2       916       917       994      3591      3847      3848
 -1      1896    8    0    1
 -2       916       994       993      3848      3849      3844
 -1      1897    8    0    1
 -2       917       918       995      3594      3850      3851
 -1      1898    8    0    1
 -2       917       995       994      3851      3852      3847
 -1      1899    8    0    1
 -2       918       919       996      3597      3853      3854
 -1      1900    8    0    1
 -2       918       996       995      3854      3855      3850
 -1      1901    8    0    1
 -2       919       920       997      3600      3856      3857
 -1      1902    8    0    1
 -2       919       997       996      3857      3858      3853
 -1      1903    8    0    1
 -2       920       921       998      3603      3859      3860
 -1      1904    8    0    1
 -2       920       998       997      3860      3861      3856
 -1      1905    8    0    1
 -2       921       922       999      3606      3862      3863
 -1      1906    8    0    1
 -2       921       999       998      3863      3864      3859
 -1      1907    8    0    1
 -2       922       923      1000      3609      3865      3866
 -1      1908    8    0    1
 -2       922      1000       999      3866      3867      3862
 -1      1909    8    0    1
 -2       923       924      1001      3612      3868      3869
 -1      1910    8    0    1
 -2       923      1001      1000      3869      3870      3865
 -1      1911    8    0    1
 -2       924       925      1002      3615      3871      3872
 -1      1912    8    0    1
 -2      1001       924      1002      3868      3872      3873
 -1      1913    8    0    1
 -2       925       949      1002      3708      3874      3871
 -1      1914    8    0    1
 -2       872       928      1003      3714      3875      3876
 -1      1915    8    0    1
 -2       860       858      1004      3407      3877      3878
 -1      1916    8    0    1
 -2       858       944      1004      3677      3879      3877
 -1      1917    8    0    1
 -2       926       864      1005      3683      3880      3881
 -1      1918    8    0    1
 -2       929       900      1006      3627      3882      3883
 -1      1919    8    0    1
 -2       870       929      1006      3723      3883      3884
 -1      1920    8    0    1
 -2       900       980      1006      3806      3885      3882
 -1      1921    8    0    1
 -2       869       870      1007      3647      3886      3887
 -1      1922    8    0    1
 -2       870      1006      1007      3884      3888      3886
 -1      1923    8    0    1
 -2       941       932       865      3700      3889      3699
 -1      1924    8    0    1
 -2       863       926      1008      3692      3890      3891
 -1      1925    8    0    1
 -2       863      1008       946      3891      3892      3688
 -1      1926    8    0    1
 -2       873       872      1003      3457      3876      3893
 -1      1927    8    0    1
 -2       928       855      1003      3668      3894      3875
 -1      1928    8    0    1
 -2       859       861      1009      3679      3895      3896
 -1      1929    8    0    1
 -2       945       859      1009      3685      3896      3897
 -1      1930    8    0    1
 -2       861       936      1009      3649      3898      3895
 -1      1931    8    0    1
 -2       866       760       849      3715      3362      3436
 -1      1932    8    0    1
 -2       952       933      1010      3721      3899      3900
 -1      1933    8    0    1
 -2       933       946      1010      3690      3901      3899
 -1      1934    8    0    1
 -2       865       932      1011      3889      3902      3903
 -1      1935    8    0    1
 -2       947       865      1011      3697      3903      3904
 -1      1936    8    0    1
 -2       932       934      1011      3642      3905      3902
 -1      1937    8    0    1
 -2       899       867       978      3670      3800      3906
 -1      1938    8    0    1
 -2       935       869      1012      3646      3907      3908
 -1      1939    8    0    1
 -2       942       935      1012      3667      3908      3909
 -1      1940    8    0    1
 -2       869      1007      1012      3887      3910      3907
 -1      1941    8    0    1
 -2       864       947      1013      3696      3911      3912
 -1      1942    8    0    1
 -2       864      1013      1005      3912      3913      3880
 -1      1943    8    0    1
 -2      1003       855       942      3894      3666      3914
 -1      1944    8    0    1
 -2       898       939       857      3656      3915      3636
 -1      1945    8    0    1
 -2       871       940      1014      3658      3916      3917
 -1      1946    8    0    1
 -2       953       873      1003      3724      3893      3918
 -1      1947    8    0    1
 -2       897       976       950      3793      3919      3713
 -1      1948    8    0    1
 -2       944       871      1015      3678      3920      3921
 -1      1949    8    0    1
 -2       871      1014      1015      3917      3922      3920
 -1      1950    8    0    1
 -2       936       948      1016      3720      3923      3924
 -1      1951    8    0    1
 -2       936      1016      1009      3924      3925      3898
 -1      1952    8    0    1
 -2       860      1004       949      3878      3926      3706
 -1      1953    8    0    1
 -2      1008       926      1005      3890      3881      3927
 -1      1954    8    0    1
 -2       951       937      1017      3719      3928      3929
 -1      1955    8    0    1
 -2       931       837       952      3632      3796      3930
 -1      1956    8    0    1
 -2       937       945      1018      3687      3931      3932
 -1      1957    8    0    1
 -2       937      1018      1017      3932      3933      3928
 -1      1958    8    0    1
 -2       835       950       940      3712      3934      3659
 -1      1959    8    0    1
 -2       934       899      1019      3643      3935      3936
 -1      1960    8    0    1
 -2      1011       934      1019      3905      3936      3937
 -1      1961    8    0    1
 -2       899       978      1019      3906      3938      3935
 -1      1962    8    0    1
 -2       931       952      1020      3930      3939      3940
 -1      1963    8    0    1
 -2       977       981      1021      3810      3941      3942
 -1      1964    8    0    1
 -2      1014       940       976      3916      3943      3944
 -1      1965    8    0    1
 -2       953      1003      1022      3918      3945      3946
 -1      1966    8    0    1
 -2      1003       942      1022      3914      3947      3945
 -1      1967    8    0    1
 -2       954       953      1023      3728      3948      3949
 -1      1968    8    0    1
 -2       953      1022      1023      3946      3950      3948
 -1      1969    8    0    1
 -2      1020       952      1010      3939      3900      3951
 -1      1970    8    0    1
 -2      1007      1006      1024      3888      3952      3953
 -1      1971    8    0    1
 -2      1006       980      1024      3885      3954      3952
 -1      1972    8    0    1
 -2       955       954      1025      3731      3955      3956
 -1      1973    8    0    1
 -2       954      1023      1025      3949      3957      3955
 -1      1974    8    0    1
 -2       956       955      1026      3734      3958      3959
 -1      1975    8    0    1
 -2       955      1025      1026      3956      3960      3958
 -1      1976    8    0    1
 -2       957       956      1027      3737      3961      3962
 -1      1977    8    0    1
 -2       956      1026      1027      3959      3963      3961
 -1      1978    8    0    1
 -2       958       957      1028      3740      3964      3965
 -1      1979    8    0    1
 -2       957      1027      1028      3962      3966      3964
 -1      1980    8    0    1
 -2       959       958      1029      3743      3967      3968
 -1      1981    8    0    1
 -2       958      1028      1029      3965      3969      3967
 -1      1982    8    0    1
 -2       960       959      1030      3746      3970      3971
 -1      1983    8    0    1
 -2       959      1029      1030      3968      3972      3970
 -1      1984    8    0    1
 -2       961       960      1031      3749      3973      3974
 -1      1985    8    0    1
 -2       960      1030      1031      3971      3975      3973
 -1      1986    8    0    1
 -2       962       961      1032      3752      3976      3977
 -1      1987    8    0    1
 -2       961      1031      1032      3974      3978      3976
 -1      1988    8    0    1
 -2       963       962      1033      3755      3979      3980
 -1      1989    8    0    1
 -2       962      1032      1033      3977      3981      3979
 -1      1990    8    0    1
 -2       964       963      1034      3758      3982      3983
 -1      1991    8    0    1
 -2       963      1033      1034      3980      3984      3982
 -1      1992    8    0    1
 -2       965       964      1035      3761      3985      3986
 -1      1993    8    0    1
 -2       964      1034      1035      3983      3987      3985
 -1      1994    8    0    1
 -2       966       965      1036      3764      3988      3989
 -1      1995    8    0    1
 -2       965      1035      1036      3986      3990      3988
 -1      1996    8    0    1
 -2       967       966      1037      3767      3991      3992
 -1      1997    8    0    1
 -2       966      1036      1037      3989      3993      3991
 -1      1998    8    0    1
 -2       968       967      1038      3770      3994      3995
 -1      1999    8    0    1
 -2       967      1037      1038      3992      3996      3994
 -1      2000    8    0    1
 -2       969       968      1039      3773      3997      3998
 -1      2001    8    0    1
 -2       968      1038      1039      3995      3999      3997
 -1      2002    8    0    1
 -2       970       969      1040      3776      4000      4001
 -1      2003    8    0    1
 -2       969      1039      1040      3998      4002      4000
 -1      2004    8    0    1
 -2       971       970      1041      3779      4003      4004
 -1      2005    8    0    1
 -2       970      1040      1041      4001      4005      4003
 -1      2006    8    0    1
 -2       972       971      1042      3782      4006      4007
 -1      2007    8    0    1
 -2       971      1041      1042      4004      4008      4006
 -1      2008    8    0    1
 -2       973       972      1043      3785      4009      4010
 -1      2009    8    0    1
 -2       972      1042      1043      4007      4011      4009
 -1      2010    8    0    1
 -2       974       973      1044      3788      4012      4013
 -1      2011    8    0    1
 -2       973      1043      1044      4010      4014      4012
 -1      2012    8    0    1
 -2       975       974      1045      3791      4015      4016
 -1      2013    8    0    1
 -2       974      1044      1045      4013      4017      4015
 -1      2014    8    0    1
 -2       976       975      1046      3794      4018      4019
 -1      2015    8    0    1
 -2      1014       976      1046      3944      4019      4020
 -1      2016    8    0    1
 -2       975      1045      1046      4016      4021      4018
 -1      2017    8    0    1
 -2       978       951      1047      3801      4022      4023
 -1      2018    8    0    1
 -2      1019       978      1047      3938      4023      4024
 -1      2019    8    0    1
 -2       951      1017      1047      3929      4025      4022
 -1      2020    8    0    1
 -2       979       977      1048      3804      4026      4027
 -1      2021    8    0    1
 -2       977      1021      1048      3942      4028      4026
 -1      2022    8    0    1
 -2       980       979      1024      3807      4029      3954
 -1      2023    8    0    1
 -2       982       983      1049      3816      4030      4031
 -1      2024    8    0    1
 -2       983       984      1050      3819      4032      4033
 -1      2025    8    0    1
 -2       983      1050      1049      4033      4034      4030
 -1      2026    8    0    1
 -2       984       985      1051      3822      4035      4036
 -1      2027    8    0    1
 -2       984      1051      1050      4036      4037      4032
 -1      2028    8    0    1
 -2       985       986      1052      3825      4038      4039
 -1      2029    8    0    1
 -2       985      1052      1051      4039      4040      4035
 -1      2030    8    0    1
 -2       986       987      1053      3828      4041      4042
 -1      2031    8    0    1
 -2       986      1053      1052      4042      4043      4038
 -1      2032    8    0    1
 -2       987       988      1054      3831      4044      4045
 -1      2033    8    0    1
 -2       987      1054      1053      4045      4046      4041
 -1      2034    8    0    1
 -2       988       989      1055      3834      4047      4048
 -1      2035    8    0    1
 -2       988      1055      1054      4048      4049      4044
 -1      2036    8    0    1
 -2       989       990      1056      3837      4050      4051
 -1      2037    8    0    1
 -2       989      1056      1055      4051      4052      4047
 -1      2038    8    0    1
 -2       990       991      1057      3840      4053      4054
 -1      2039    8    0    1
 -2       990      1057      1056      4054      4055      4050
 -1      2040    8    0    1
 -2       991       992      1058      3843      4056      4057
 -1      2041    8    0    1
 -2       991      1058      1057      4057      4058      4053
 -1      2042    8    0    1
 -2       992       993      1059      3846      4059      4060
 -1      2043    8    0    1
 -2       992      1059      1058      4060      4061      4056
 -1      2044    8    0    1
 -2       993       994      1060      3849      4062      4063
 -1      2045    8    0    1
 -2       993      1060      1059      4063      4064      4059
 -1      2046    8    0    1
 -2       994       995      1061      3852      4065      4066
 -1      2047    8    0    1
 -2       994      1061      1060      4066      4067      4062
 -1      2048    8    0    1
 -2       995       996      1062      3855      4068      4069
 -1      2049    8    0    1
 -2       995      1062      1061      4069      4070      4065
 -1      2050    8    0    1
 -2       996       997      1063      3858      4071      4072
 -1      2051    8    0    1
 -2       996      1063      1062      4072      4073      4068
 -1      2052    8    0    1
 -2       997       998      1064      3861      4074      4075
 -1      2053    8    0    1
 -2       997      1064      1063      4075      4076      4071
 -1      2054    8    0    1
 -2       998       999      1065      3864      4077      4078
 -1      2055    8    0    1
 -2       998      1065      1064      4078      4079      4074
 -1      2056    8    0    1
 -2       999      1000      1066      3867      4080      4081
 -1      2057    8    0    1
 -2       999      1066      1065      4081      4082      4077
 -1      2058    8    0    1
 -2      1000      1001      1067      3870      4083      4084
 -1      2059    8    0    1
 -2      1000      1067      1066      4084      4085      4080
 -1      2060    8    0    1
 -2       945      1009      1068      3897      4086      4087
 -1      2061    8    0    1
 -2      1018       945      1068      3931      4087      4088
 -1      2062    8    0    1
 -2      1009      1016      1068      3925      4089      4086
 -1      2063    8    0    1
 -2      1004       944      1069      3879      4090      4091
 -1      2064    8    0    1
 -2       944      1015      1069      3921      4092      4090
 -1      2065    8    0    1
 -2       981       982      1070      3813      4093      4094
 -1      2066    8    0    1
 -2      1021       981      1070      3941      4094      4095
 -1      2067    8    0    1
 -2       982      1049      1070      4031      4096      4093
 -1      2068    8    0    1
 -2       950       976       940      3919      3943      3934
 -1      2069    8    0    1
 -2      1008      1005      1017      3927      4097      4098
 -1      2070    8    0    1
 -2       949      1004      1071      3926      4099      4100
 -1      2071    8    0    1
 -2      1002       949      1071      3874      4100      4101
 -1      2072    8    0    1
 -2      1004      1069      1071      4091      4102      4099
 -1      2073    8    0    1
 -2      1010       946      1072      3901      4103      4104
 -1      2074    8    0    1
 -2      1020      1010      1072      3951      4104      4105
 -1      2075    8    0    1
 -2       946      1008      1072      3892      4106      4103
 -1      2076    8    0    1
 -2      1008      1017      1018      4098      3933      4107
 -1      2077    8    0    1
 -2       947      1011      1013      3904      4108      3911
 -1      2078    8    0    1
 -2       948       931      1020      3704      3940      4109
 -1      2079    8    0    1
 -2      1015      1014      1046      3922      4020      4110
 -1      2080    8    0    1
 -2       942      1012      1022      3909      4111      3947
 -1      2081    8    0    1
 -2      1001      1002      1071      3873      4101      4112
 -1      2082    8    0    1
 -2      1072      1008      1018      4106      4107      4113
 -1      2083    8    0    1
 -2      1001      1071      1067      4112      4114      4083
 -1      2084    8    0    1
 -2       939       868       952      3669      3722      4115
 -1      2085    8    0    1
 -2      1024       979      1048      4029      4027      4116
 -1      2086    8    0    1
 -2      1017      1005      1047      4097      4117      4025
 -1      2087    8    0    1
 -2      1012      1007      1073      3910      4118      4119
 -1      2088    8    0    1
 -2      1007      1024      1073      3953      4120      4118
 -1      2089    8    0    1
 -2      1023      1022      1074      3950      4121      4122
 -1      2090    8    0    1
 -2      1025      1023      1075      3957      4123      4124
 -1      2091    8    0    1
 -2      1023      1074      1075      4122      4125      4123
 -1      2092    8    0    1
 -2      1026      1025      1076      3960      4126      4127
 -1      2093    8    0    1
 -2      1025      1075      1076      4124      4128      4126
 -1      2094    8    0    1
 -2      1027      1026      1077      3963      4129      4130
 -1      2095    8    0    1
 -2      1026      1076      1077      4127      4131      4129
 -1      2096    8    0    1
 -2      1028      1027      1078      3966      4132      4133
 -1      2097    8    0    1
 -2      1027      1077      1078      4130      4134      4132
 -1      2098    8    0    1
 -2      1029      1028      1079      3969      4135      4136
 -1      2099    8    0    1
 -2      1028      1078      1079      4133      4137      4135
 -1      2100    8    0    1
 -2      1030      1029      1080      3972      4138      4139
 -1      2101    8    0    1
 -2      1029      1079      1080      4136      4140      4138
 -1      2102    8    0    1
 -2      1031      1030      1081      3975      4141      4142
 -1      2103    8    0    1
 -2      1030      1080      1081      4139      4143      4141
 -1      2104    8    0    1
 -2      1032      1031      1082      3978      4144      4145
 -1      2105    8    0    1
 -2      1031      1081      1082      4142      4146      4144
 -1      2106    8    0    1
 -2      1033      1032      1083      3981      4147      4148
 -1      2107    8    0    1
 -2      1032      1082      1083      4145      4149      4147
 -1      2108    8    0    1
 -2      1034      1033      1084      3984      4150      4151
 -1      2109    8    0    1
 -2      1033      1083      1084      4148      4152      4150
 -1      2110    8    0    1
 -2      1035      1034      1085      3987      4153      4154
 -1      2111    8    0    1
 -2      1034      1084      1085      4151      4155      4153
 -1      2112    8    0    1
 -2      1036      1035      1086      3990      4156      4157
 -1      2113    8    0    1
 -2      1035      1085      1086      4154      4158      4156
 -1      2114    8    0    1
 -2      1037      1036      1087      3993      4159      4160
 -1      2115    8    0    1
 -2      1036      1086      1087      4157      4161      4159
 -1      2116    8    0    1
 -2      1038      1037      1088      3996      4162      4163
 -1      2117    8    0    1
 -2      1037      1087      1088      4160      4164      4162
 -1      2118    8    0    1
 -2      1039      1038      1089      3999      4165      4166
 -1      2119    8    0    1
 -2      1038      1088      1089      4163      4167      4165
 -1      2120    8    0    1
 -2      1040      1039      1090      4002      4168      4169
 -1      2121    8    0    1
 -2      1039      1089      1090      4166      4170      4168
 -1      2122    8    0    1
 -2      1041      1040      1091      4005      4171      4172
 -1      2123    8    0    1
 -2      1040      1090      1091      4169      4173      4171
 -1      2124    8    0    1
 -2      1042      1041      1092      4008      4174      4175
 -1      2125    8    0    1
 -2      1041      1091      1092      4172      4176      4174
 -1      2126    8    0    1
 -2      1043      1042      1093      4011      4177      4178
 -1      2127    8    0    1
 -2      1042      1092      1093      4175      4179      4177
 -1      2128    8    0    1
 -2      1044      1043      1094      4014      4180      4181
 -1      2129    8    0    1
 -2      1043      1093      1094      4178      4182      4180
 -1      2130    8    0    1
 -2      1045      1044      1095      4017      4183      4184
 -1      2131    8    0    1
 -2      1044      1094      1095      4181      4185      4183
 -1      2132    8    0    1
 -2      1046      1045      1096      4021      4186      4187
 -1      2133    8    0    1
 -2      1045      1095      1096      4184      4188      4186
 -1      2134    8    0    1
 -2      1005      1013      1047      3913      4189      4117
 -1      2135    8    0    1
 -2      1051      1052      1097      4040      4190      4191
 -1      2136    8    0    1
 -2      1050      1051      1098      4037      4192      4193
 -1      2137    8    0    1
 -2      1051      1097      1098      4191      4194      4192
 -1      2138    8    0    1
 -2      1049      1050      1099      4034      4195      4196
 -1      2139    8    0    1
 -2      1050      1098      1099      4193      4197      4195
 -1      2140    8    0    1
 -2      1052      1053      1100      4043      4198      4199
 -1      2141    8    0    1
 -2      1052      1100      1097      4199      4200      4190
 -1      2142    8    0    1
 -2      1053      1054      1101      4046      4201      4202
 -1      2143    8    0    1
 -2      1053      1101      1100      4202      4203      4198
 -1      2144    8    0    1
 -2      1054      1055      1102      4049      4204      4205
 -1      2145    8    0    1
 -2      1054      1102      1101      4205      4206      4201
 -1      2146    8    0    1
 -2      1055      1056      1103      4052      4207      4208
 -1      2147    8    0    1
 -2      1055      1103      1102      4208      4209      4204
 -1      2148    8    0    1
 -2      1056      1057      1104      4055      4210      4211
 -1      2149    8    0    1
 -2      1056      1104      1103      4211      4212      4207
 -1      2150    8    0    1
 -2      1057      1058      1105      4058      4213      4214
 -1      2151    8    0    1
 -2      1057      1105      1104      4214      4215      4210
 -1      2152    8    0    1
 -2      1058      1059      1106      4061      4216      4217
 -1      2153    8    0    1
 -2      1058      1106      1105      4217      4218      4213
 -1      2154    8    0    1
 -2      1059      1060      1107      4064      4219      4220
 -1      2155    8    0    1
 -2      1059      1107      1106      4220      4221      4216
 -1      2156    8    0    1
 -2      1060      1061      1108      4067      4222      4223
 -1      2157    8    0    1
 -2      1060      1108      1107      4223      4224      4219
 -1      2158    8    0    1
 -2      1061      1062      1109      4070      4225      4226
 -1      2159    8    0    1
 -2      1061      1109      1108      4226      4227      4222
 -1      2160    8    0    1
 -2      1062      1063      1110      4073      4228      4229
 -1      2161    8    0    1
 -2      1062      1110      1109      4229      4230      4225
 -1      2162    8    0    1
 -2      1063      1064      1111      4076      4231      4232
 -1      2163    8    0    1
 -2      1063      1111      1110      4232      4233      4228
 -1      2164    8    0    1
 -2      1064      1065      1112      4079      4234      4235
 -1      2165    8    0    1
 -2      1064      1112      1111      4235      4236      4231
 -1      2166    8    0    1
 -2      1065      1066      1113      4082      4237      4238
 -1      2167    8    0    1
 -2      1065      1113      1112      4238      4239      4234
 -1      2168    8    0    1
 -2      1066      1067      1114      4085      4240      4241
 -1      2169    8    0    1
 -2      1066      1114      1113      4241      4242      4237
 -1      2170    8    0    1
 -2      1071      1069      1067      4102      4243      4114
 -1      2171    8    0    1
 -2      1024      1048      1115      4116      4244      4245
 -1      2172    8    0    1
 -2      1069      1015      1116      4092      4246      4247
 -1      2173    8    0    1
 -2      1072      1018      1068      4113      4088      4248
 -1      2174    8    0    1
 -2      1019      1047      1013      4024      4189      4249
 -1      2175    8    0    1
 -2      1020      1072      1068      4105      4248      4250
 -1      2176    8    0    1
 -2      1013      1011      1019      4108      3937      4249
 -1      2177    8    0    1
 -2       948      1020      1016      4109      4251      3923
 -1      2178    8    0    1
 -2      1067      1069      1116      4243      4247      4252
 -1      2179    8    0    1
 -2      1114      1067      1116      4240      4252      4253
 -1      2180    8    0    1
 -2      1070      1049      1117      4096      4254      4255
 -1      2181    8    0    1
 -2      1049      1099      1117      4196      4256      4254
 -1      2182    8    0    1
 -2      1022      1012      1073      4111      4119      4257
 -1      2183    8    0    1
 -2      1073      1024      1115      4120      4245      4258
 -1      2184    8    0    1
 -2      1021      1070      1118      4095      4259      4260
 -1      2185    8    0    1
 -2      1070      1117      1118      4255      4261      4259
 -1      2186    8    0    1
 -2      1048      1021      1119      4028      4262      4263
 -1      2187    8    0    1
 -2      1015      1046      1096      4110      4187      4264
 -1      2188    8    0    1
 -2      1021      1118      1119      4260      4265      4262
 -1      2189    8    0    1
 -2      1048      1119      1115      4263      4266      4244
 -1      2190    8    0    1
 -2      1020      1068      1016      4250      4089      4251
 -1      2191    8    0    1
 -2      1076      1075      1119      4128      4267      4268
 -1      2192    8    0    1
 -2      1077      1076      1118      4131      4269      4270
 -1      2193    8    0    1
 -2      1078      1077      1117      4134      4271      4272
 -1      2194    8    0    1
 -2      1079      1078      1099      4137      4273      4274
 -1      2195    8    0    1
 -2      1080      1079      1098      4140      4275      4276
 -1      2196    8    0    1
 -2      1081      1080      1097      4143      4277      4278
 -1      2197    8    0    1
 -2      1082      1081      1100      4146      4279      4280
 -1      2198    8    0    1
 -2      1083      1082      1101      4149      4281      4282
 -1      2199    8    0    1
 -2      1084      1083      1102      4152      4283      4284
 -1      2200    8    0    1
 -2      1085      1084      1103      4155      4285      4286
 -1      2201    8    0    1
 -2      1086      1085      1104      4158      4287      4288
 -1      2202    8    0    1
 -2      1087      1086      1105      4161      4289      4290
 -1      2203    8    0    1
 -2      1088      1087      1106      4164      4291      4292
 -1      2204    8    0    1
 -2      1089      1088      1107      4167      4293      4294
 -1      2205    8    0    1
 -2      1090      1089      1108      4170      4295      4296
 -1      2206    8    0    1
 -2      1091      1090      1109      4173      4297      4298
 -1      2207    8    0    1
 -2      1092      1091      1110      4176      4299      4300
 -1      2208    8    0    1
 -2      1093      1092      1111      4179      4301      4302
 -1      2209    8    0    1
 -2      1094      1093      1112      4182      4303      4304
 -1      2210    8    0    1
 -2      1095      1094      1113      4185      4305      4306
 -1      2211    8    0    1
 -2      1098      1097      1080      4194      4277      4276
 -1      2212    8    0    1
 -2      1099      1078      1117      4273      4272      4256
 -1      2213    8    0    1
 -2      1100      1101      1082      4203      4281      4280
 -1      2214    8    0    1
 -2      1097      1100      1081      4200      4279      4278
 -1      2215    8    0    1
 -2      1099      1098      1079      4197      4275      4274
 -1      2216    8    0    1
 -2      1101      1102      1083      4206      4283      4282
 -1      2217    8    0    1
 -2      1102      1103      1084      4209      4285      4284
 -1      2218    8    0    1
 -2      1103      1104      1085      4212      4287      4286
 -1      2219    8    0    1
 -2      1104      1105      1086      4215      4289      4288
 -1      2220    8    0    1
 -2      1105      1106      1087      4218      4291      4290
 -1      2221    8    0    1
 -2      1106      1107      1088      4221      4293      4292
 -1      2222    8    0    1
 -2      1107      1108      1089      4224      4295      4294
 -1      2223    8    0    1
 -2      1108      1109      1090      4227      4297      4296
 -1      2224    8    0    1
 -2      1109      1110      1091      4230      4299      4298
 -1      2225    8    0    1
 -2      1110      1111      1092      4233      4301      4300
 -1      2226    8    0    1
 -2      1111      1112      1093      4236      4303      4302
 -1      2227    8    0    1
 -2      1112      1113      1094      4239      4305      4304
 -1      2228    8    0    1
 -2      1113      1114      1095      4242      4307      4306
 -1      2229    8    0    1
 -2      1116      1015      1096      4246      4264      4308
 -1      2230    8    0    1
 -2      1076      1119      1118      4268      4265      4269
 -1      2231    8    0    1
 -2      1119      1075      1115      4267      4309      4266
 -1      2232    8    0    1
 -2      1114      1116      1096      4253      4308      4310
 -1      2233    8    0    1
 -2      1075      1074      1115      4125      4311      4309
 -1      2234    8    0    1
 -2      1114      1096      1095      4310      4188      4307
 -1      2235    8    0    1
 -2      1077      1118      1117      4270      4261      4271
 -1      2236    8    0    1
 -2      1073      1115      1074      4258      4311      4312
 -1      2237    8    0    1
 -2       952       857       939      3795      3915      4115
 -1      2238    8    0    1
 -2      1074      1022      1073      4121      4257      4312
 -3
    1PSTEP                         1           1           1          
  100CL  101 1.000000000        4312                     0    1           1
 -4  DISP        4    1
 -5  D1          1    2    1    0
 -5  D2          1    2    2    0
 -5  D3          1    2    3    0
 -5  ALL         1    2    0    0    1ALL
 -1         1 5.32064E-03-7.06416E-04-1.95968E-14
 -1         2 6.30376E-03-3.56935E-06-2.25272E-14
 -1         3 1.52043E-02 6.90149E-04-2.04486E-13
 -1         4 1.52160E-02-7.39515E-04-2.05681E-13
 -1         5 0.00000E+00 0.00000E+00 0.00000E+00
 -1         6 0.00000E+00 0.00000E+00 0.00000E+00
 -1         7 0.00000E+00 0.00000E+00 0.00000E+00
 -1         8 0.00000E+00 0.00000E+00 0.00000E+00
 -1         9 0.00000E+00 0.00000E+00 0.00000E+00
 -1        10 0.00000E+00 0.00000E+00 0.00000E+00
 -1        11 0.00000E+00 0.00000E+00 0.00000E+00
 -1        12 0.00000E+00 0.00000E+00 0.00000E+00
 -1        13 0.00000E+00 0.00000E+00 0.00000E+00
 -1        14 0.00000E+00 0.00000E+00 0.00000E+00
 -1        15 0.00000E+00 0.00000E+00 0.00000E+00
 -1        16 0.00000E+00 0.00000E+00 0.00000E+00
 -1        17 0.00000E+00 0.00000E+00 0.00000E+00
 -1        18 0.00000E+00 0.00000E+00 0.00000E+00
 -1        19 0.00000E+00 0.00000E+00 0.00000E+00
 -1        20 0.00000E+00 0.00000E+00 0.00000E+00
 -1        21 0.00000E+00 0.00000E+00 0.00000E+00
 -1        22 0.00000E+00 0.00000E+00 0.00000E+00
 -1        23 4.29887E-04-2.47726E-04 6.29921E-17
 -1        24 7.53450E-04-3.71398E-04-9.91909E-17
 -1        25 1.06713E-03-4.59618E-04-4.81050E-16
 -1        26 1.38514E-03-5.30976E-04-1.07983E-15
 -1        27 1.71117E-03-5.98034E-04-1.89253E-15
 -1        28 2.04569E-03-6.69733E-04-2.91817E-15
 -1        29 2.38611E-03-7.52861E-04-4.15668E-15
 -1        30 2.72662E-03-8.51099E-04-5.60884E-15
 -1        31 3.05848E-03-9.62886E-04-7.27560E-15
 -1        32 3.37204E-03-1.07914E-03-9.16094E-15
 -1        33 3.66072E-03-1.18288E-03-1.12637E-14
 -1        34 3.92572E-03-1.25300E-03-1.35824E-14
 -1        35 4.17791E-03-1.27249E-03-1.61243E-14
 -1        36 4.43440E-03-1.23682E-03-1.88882E-14
 -1        37 4.71079E-03-1.15656E-03-2.18597E-14
 -1        38 5.01452E-03-1.05216E-03-2.50243E-14
 -1        39 5.34348E-03-9.44949E-04-2.83698E-14
 -1        40 5.68937E-03-8.50365E-04-3.18839E-14
 -1        41 6.04233E-03-7.75993E-04-3.55660E-14
 -1        42 6.39426E-03-7.23052E-04-3.94119E-14
 -1        43 6.73993E-03-6.89032E-04-4.34153E-14
 -1        44 7.07680E-03-6.69935E-04-4.75779E-14
 -1        45 7.40427E-03-6.61674E-04-5.18995E-14
 -1        46 7.72289E-03-6.60733E-04-5.63691E-14
 -1        47 8.03377E-03-6.64365E-04-6.09805E-14
 -1        48 8.33822E-03-6.70564E-04-6.57202E-14
 -1        49 8.63750E-03-6.77939E-04-7.05871E-14
 -1        50 8.93276E-03-6.85577E-04-7.55754E-14
 -1        51 9.22497E-03-6.92915E-04-8.06851E-14
 -1        52 9.51492E-03-6.99638E-04-8.59113E-14
 -1        53 9.80322E-03-7.05598E-04-9.12475E-14
 -1        54 1.00904E-02-7.10758E-04-9.66951E-14
 -1        55 1.03767E-02-7.15149E-04-1.02253E-13
 -1        56 1.06626E-02-7.18837E-04-1.07912E-13
 -1        57 1.09481E-02-7.21910E-04-1.13660E-13
 -1        58 1.12334E-02-7.24460E-04-1.19478E-13
 -1        59 1.15187E-02-7.26575E-04-1.25354E-13
 -1        60 1.18039E-02-7.28338E-04-1.31285E-13
 -1        61 1.20892E-02-7.29820E-04-1.37277E-13
 -1        62 1.23745E-02-7.31084E-04-1.43335E-13
 -1        63 1.26599E-02-7.32181E-04-1.49464E-13
 -1        64 1.29453E-02-7.33154E-04-1.55667E-13
 -1        65 1.32307E-02-7.34038E-04-1.61929E-13
 -1        66 1.35163E-02-7.34862E-04-1.68230E-13
 -1        67 1.38019E-02-7.35649E-04-1.74556E-13
 -1        68 1.40875E-02-7.36417E-04-1.80878E-13
 -1        69 1.43732E-02-7.37182E-04-1.87181E-13
 -1        70 1.46589E-02-7.37957E-04-1.93459E-13
 -1        71 1.49446E-02-7.38749E-04-1.99719E-13
 -1        72 4.31631E-04 2.48548E-04 9.04089E-17
 -1        73 7.53130E-04 3.74217E-04-2.48791E-17
 -1        74 1.06732E-03 4.61650E-04-3.40833E-16
 -1        75 1.38530E-03 5.32997E-04-8.59993E-16
 -1        76 1.71101E-03 6.00071E-04-1.58428E-15
 -1        77 2.04497E-03 6.71688E-04-2.51188E-15
 -1        78 2.38461E-03 7.54518E-04-3.64248E-15
 -1        79 2.72418E-03 8.52119E-04-4.97821E-15
 -1        80 3.05505E-03 9.62839E-04-6.52413E-15
 -1        81 3.36777E-03 1.07763E-03-8.28744E-15
 -1        82 3.65591E-03 1.17973E-03-1.02729E-14
 -1        83 3.92065E-03 1.24845E-03-1.24772E-14
 -1        84 4.17272E-03 1.26715E-03-1.49073E-14
 -1        85 4.42899E-03 1.23141E-03-1.75589E-14
 -1        86 4.70487E-03 1.15154E-03-2.04360E-14
 -1        87 5.00782E-03 1.04754E-03-2.35237E-14
 -1        88 5.33581E-03 9.40366E-04-2.68081E-14
 -1        89 5.68070E-03 8.45346E-04-3.02726E-14
 -1        90 6.03277E-03 7.70114E-04-3.39114E-14
 -1        91 6.38399E-03 7.16014E-04-3.77140E-14
 -1        92 6.72913E-03 6.80656E-04-4.16802E-14
 -1        93 7.06564E-03 6.60134E-04-4.58119E-14
 -1        94 7.39288E-03 6.50416E-04-5.01015E-14
 -1        95 7.71135E-03 6.48012E-04-5.45313E-14
 -1        96 8.02215E-03 6.50189E-04-5.90931E-14
 -1        97 8.32654E-03 6.54943E-04-6.37917E-14
 -1        98 8.62580E-03 6.60885E-04-6.86249E-14
 -1        99 8.92105E-03 6.67098E-04-7.35791E-14
 -1       100 9.21325E-03 6.73018E-04-7.86699E-14
 -1       101 9.50320E-03 6.78327E-04-8.38994E-14
 -1       102 9.79150E-03 6.82877E-04-8.92383E-14
 -1       103 1.00786E-02 6.86629E-04-9.46789E-14
 -1       104 1.03650E-02 6.89613E-04-1.00224E-13
 -1       105 1.06508E-02 6.91895E-04-1.05872E-13
 -1       106 1.09364E-02 6.93562E-04-1.11630E-13
 -1       107 1.12217E-02 6.94706E-04-1.17487E-13
 -1       108 1.15070E-02 6.95415E-04-1.23433E-13
 -1       109 1.17922E-02 6.95772E-04-1.29455E-13
 -1       110 1.20775E-02 6.95849E-04-1.35534E-13
 -1       111 1.23628E-02 6.95707E-04-1.41664E-13
 -1       112 1.26481E-02 6.95398E-04-1.47853E-13
 -1       113 1.29336E-02 6.94965E-04-1.54067E-13
 -1       114 1.32190E-02 6.94443E-04-1.60309E-13
 -1       115 1.35046E-02 6.93861E-04-1.66583E-13
 -1       116 1.37901E-02 6.93242E-04-1.72873E-13
 -1       117 1.40758E-02 6.92604E-04-1.79193E-13
 -1       118 1.43614E-02 6.91963E-04-1.85560E-13
 -1       119 1.46471E-02 6.91332E-04-1.91966E-13
 -1       120 1.49329E-02 6.90718E-04-1.98393E-13
 -1       121 1.52049E-02 6.05864E-04-2.04671E-13
 -1       122 1.52054E-02 5.21576E-04-2.04873E-13
 -1       123 1.52060E-02 4.37272E-04-2.05035E-13
 -1       124 1.52065E-02 3.52942E-04-2.05173E-13
 -1       125 1.52071E-02 2.68585E-04-2.05287E-13
 -1       126 1.52077E-02 1.85633E-04-2.05375E-13
 -1       127 1.52083E-02 1.01229E-04-2.05442E-13
 -1       128 1.52089E-02 1.68121E-05-2.05498E-13
 -1       129 1.52096E-02-6.76095E-05-2.05548E-13
 -1       130 1.52104E-02-1.52026E-04-2.05591E-13
 -1       131 1.52111E-02-2.36430E-04-2.05634E-13
 -1       132 1.52119E-02-3.19382E-04-2.05680E-13
 -1       133 1.52127E-02-4.03738E-04-2.05705E-13
 -1       134 1.52136E-02-4.88067E-04-2.05674E-13
 -1       135 1.52144E-02-5.72371E-04-2.05654E-13
 -1       136 1.52152E-02-6.56660E-04-2.05666E-13
 -1       137 6.26128E-03 1.57648E-04-2.23444E-14
 -1       138 6.12842E-03 3.20074E-04-2.18689E-14
 -1       139 5.89942E-03 4.77139E-04-2.10929E-14
 -1       140 5.60715E-03 6.08430E-04-2.01492E-14
 -1       141 5.23575E-03 7.20740E-04-1.89979E-14
 -1       142 4.82769E-03 7.98665E-04-1.77892E-14
 -1       143 4.35014E-03 8.43965E-04-1.64326E-14
 -1       144 3.90127E-03 8.45699E-04-1.52219E-14
 -1       145 3.44276E-03 8.07612E-04-1.40382E-14
 -1       146 2.98232E-03 7.23050E-04-1.28996E-14
 -1       147 2.58062E-03 6.01986E-04-1.19525E-14
 -1       148 2.27782E-03 4.63204E-04-1.12689E-14
 -1       149 2.06772E-03 3.15133E-04-1.08127E-14
 -1       150 1.93424E-03 1.49897E-04-1.05416E-14
 -1       151 1.89615E-03-8.90452E-06-1.04848E-14
 -1       152 1.95756E-03-1.92861E-04-1.06572E-14
 -1       153 2.11000E-03-3.55630E-04-1.10358E-14
 -1       154 2.34163E-03-5.02145E-04-1.15984E-14
 -1       155 2.68476E-03-6.44041E-04-1.24408E-14
 -1       156 3.05934E-03-7.46600E-04-1.33807E-14
 -1       157 3.48463E-03-8.18567E-04-1.44740E-14
 -1       158 3.96014E-03-8.54037E-04-1.57373E-14
 -1       159 4.44567E-03-8.45297E-04-1.70795E-14
 -1       160 4.90513E-03-7.94680E-04-1.83790E-14
 -1       161 5.64787E-03-6.00888E-04-2.05762E-14
 -1       162 5.93764E-03-4.63878E-04-2.14616E-14
 -1       163 6.13359E-03-3.23137E-04-2.20603E-14
 -1       164 6.26399E-03-1.60502E-04-2.24415E-14
 -1       165 2.58625E-04-1.04717E-04-3.87535E-17
 -1       166 2.38222E-04-6.85184E-05-7.01038E-17
 -1       167 2.25268E-04-4.43187E-05-8.74206E-17
 -1       168 2.14699E-04-2.73063E-05-9.70835E-17
 -1       169 2.05993E-04-1.57387E-05-1.02261E-16
 -1       170 1.99105E-04-8.02412E-06-1.04785E-16
 -1       171 1.94704E-04-3.21126E-06-1.05635E-16
 -1       172 1.93220E-04 9.00753E-08-1.05164E-16
 -1       173 1.94817E-04 3.43339E-06-1.03501E-16
 -1       174 1.99314E-04 8.36718E-06-1.00373E-16
 -1       175 2.06131E-04 1.61081E-05-9.53251E-17
 -1       176 2.15005E-04 2.80924E-05-8.77255E-17
 -1       177 2.25578E-04 4.54355E-05-7.53792E-17
 -1       178 2.38499E-04 7.00781E-05-5.47861E-17
 -1       179 2.57680E-04 1.06947E-04-1.98138E-17
 -1       180 3.19479E-04 1.68394E-04 1.73201E-17
 -1       181 5.06894E-04-2.33277E-04-1.07350E-16
 -1       182 8.37519E-04-3.36339E-04-4.22880E-16
 -1       183 1.16043E-03-4.13410E-04-9.43591E-16
 -1       184 1.48364E-03-4.79895E-04-1.67211E-15
 -1       185 1.81030E-03-5.46517E-04-2.60688E-15
 -1       186 2.14108E-03-6.21817E-04-3.74943E-15
 -1       187 2.47440E-03-7.11981E-04-5.09982E-15
 -1       188 2.80658E-03-8.19105E-04-6.66014E-15
 -1       189 3.13245E-03-9.38473E-04-8.43221E-15
 -1       190 3.44702E-03-1.05640E-03-1.04201E-14
 -1       191 3.74805E-03-1.15135E-03-1.26263E-14
 -1       192 4.03856E-03-1.20068E-03-1.50515E-14
 -1       193 4.32665E-03-1.19117E-03-1.77005E-14
 -1       194 4.62198E-03-1.12646E-03-2.05648E-14
 -1       195 4.93098E-03-1.02519E-03-2.36326E-14
 -1       196 5.25452E-03-9.11639E-04-2.68889E-14
 -1       197 5.58886E-03-8.06022E-04-3.03208E-14
 -1       198 5.92838E-03-7.19963E-04-3.39189E-14
 -1       199 6.26785E-03-6.57056E-04-3.76806E-14
 -1       200 6.60349E-03-6.15661E-04-4.15998E-14
 -1       201 6.93313E-03-5.91731E-04-4.56783E-14
 -1       202 7.25591E-03-5.80713E-04-4.99141E-14
 -1       203 7.57188E-03-5.78533E-04-5.43023E-14
 -1       204 7.88161E-03-5.81945E-04-5.88330E-14
 -1       205 8.18591E-03-5.88547E-04-6.34988E-14
 -1       206 8.48569E-03-5.96668E-04-6.82919E-14
 -1       207 8.78179E-03-6.05201E-04-7.32095E-14
 -1       208 9.07500E-03-6.13460E-04-7.82515E-14
 -1       209 9.36596E-03-6.21056E-04-8.34100E-14
 -1       210 9.65524E-03-6.27803E-04-8.86836E-14
 -1       211 9.94326E-03-6.33646E-04-9.40676E-14
 -1       212 1.02304E-02-6.38610E-04-9.95600E-14
 -1       213 1.05169E-02-6.42771E-04-1.05158E-13
 -1       214 1.08029E-02-6.46224E-04-1.10848E-13
 -1       215 1.10887E-02-6.49074E-04-1.16620E-13
 -1       216 1.13743E-02-6.51422E-04-1.22462E-13
 -1       217 1.16598E-02-6.53361E-04-1.28361E-13
 -1       218 1.19453E-02-6.54975E-04-1.34320E-13
 -1       219 1.22307E-02-6.56334E-04-1.40342E-13
 -1       220 1.25162E-02-6.57499E-04-1.46431E-13
 -1       221 1.28017E-02-6.58517E-04-1.52592E-13
 -1       222 1.30872E-02-6.59430E-04-1.58809E-13
 -1       223 1.33728E-02-6.60269E-04-1.65076E-13
 -1       224 1.36584E-02-6.61060E-04-1.71378E-13
 -1       225 1.39440E-02-6.61825E-04-1.77691E-13
 -1       226 1.42296E-02-6.62582E-04-1.84001E-13
 -1       227 1.45153E-02-6.63344E-04-1.90296E-13
 -1       228 1.48010E-02-6.64123E-04-1.96568E-13
 -1       229 6.55462E-04 2.95056E-04-1.28746E-16
 -1       230 9.80646E-04 3.84936E-04-4.63327E-16
 -1       231 1.30279E-03 4.56335E-04-9.93346E-16
 -1       232 1.62721E-03 5.21988E-04-1.72215E-15
 -1       233 1.95591E-03 5.91464E-04-2.65037E-15
 -1       234 2.28832E-03 6.72248E-04-3.77906E-15
 -1       235 2.62153E-03 7.68907E-04-5.11067E-15
 -1       236 2.95071E-03 8.80879E-04-6.64849E-15
 -1       237 3.27020E-03 9.99864E-04-8.39827E-15
 -1       238 3.57578E-03 1.10883E-03-1.03667E-14
 -1       239 3.86746E-03 1.18535E-03-1.25572E-14
 -1       240 4.15101E-03 1.21018E-03-1.49715E-14
 -1       241 4.43628E-03 1.17688E-03-1.76084E-14
 -1       242 4.73263E-03 1.09559E-03-2.04669E-14
 -1       243 5.04477E-03 9.87726E-04-2.35379E-14
 -1       244 5.37167E-03 8.76141E-04-2.68072E-14
 -1       245 5.70845E-03 7.77501E-04-3.02616E-14
 -1       246 6.04912E-03 6.99985E-04-3.38863E-14
 -1       247 6.38857E-03 6.44896E-04-3.76760E-14
 -1       248 6.72331E-03 6.09539E-04-4.16305E-14
 -1       249 7.05153E-03 5.89653E-04-4.57452E-14
 -1       250 7.37264E-03 5.80906E-04-5.00164E-14
 -1       251 7.68689E-03 5.79595E-04-5.44270E-14
 -1       252 7.99499E-03 5.82849E-04-5.89702E-14
 -1       253 8.29782E-03 5.88589E-04-6.36539E-14
 -1       254 8.59632E-03 5.95388E-04-6.84686E-14
 -1       255 8.89135E-03 6.02321E-04-7.34113E-14
 -1       256 9.18368E-03 6.08829E-04-7.84828E-14
 -1       257 9.47394E-03 6.14608E-04-8.36868E-14
 -1       258 9.76266E-03 6.19524E-04-8.90057E-14
 -1       259 1.00503E-02 6.23556E-04-9.44309E-14
 -1       260 1.03371E-02 6.26749E-04-9.99619E-14
 -1       261 1.06233E-02 6.29185E-04-1.05596E-13
 -1       262 1.09092E-02 6.30963E-04-1.11335E-13
 -1       263 1.11948E-02 6.32183E-04-1.17171E-13
 -1       264 1.14804E-02 6.32945E-04-1.23093E-13
 -1       265 1.17658E-02 6.33335E-04-1.29090E-13
 -1       266 1.20512E-02 6.33431E-04-1.35150E-13
 -1       267 1.23367E-02 6.33299E-04-1.41268E-13
 -1       268 1.26221E-02 6.32994E-04-1.47441E-13
 -1       269 1.29076E-02 6.32561E-04-1.53648E-13
 -1       270 1.31931E-02 6.32035E-04-1.59887E-13
 -1       271 1.34787E-02 6.31448E-04-1.66154E-13
 -1       272 1.37643E-02 6.30822E-04-1.72444E-13
 -1       273 1.40499E-02 6.30177E-04-1.78760E-13
 -1       274 1.43356E-02 6.29529E-04-1.85118E-13
 -1       275 1.46213E-02 6.28892E-04-1.91515E-13
 -1       276 1.49070E-02 6.28274E-04-1.97934E-13
 -1       277 1.49577E-02 5.64235E-04-1.99204E-13
 -1       278 1.49583E-02 4.79934E-04-1.99381E-13
 -1       279 1.49588E-02 3.95616E-04-1.99539E-13
 -1       280 1.49594E-02 3.11280E-04-1.99675E-13
 -1       281 1.49599E-02 2.28355E-04-1.99784E-13
 -1       282 1.49605E-02 1.43983E-04-1.99877E-13
 -1       283 1.49611E-02 5.96000E-05-1.99952E-13
 -1       284 1.49618E-02-2.47897E-05-2.00019E-13
 -1       285 1.49625E-02-1.09179E-04-2.00076E-13
 -1       286 1.49633E-02-1.93563E-04-2.00126E-13
 -1       287 1.49641E-02-2.76504E-04-2.00168E-13
 -1       288 1.49649E-02-3.60859E-04-2.00195E-13
 -1       289 1.49657E-02-4.45195E-04-2.00206E-13
 -1       290 1.49666E-02-5.29512E-04-2.00210E-13
 -1       291 1.48838E-02-5.96821E-04-1.98386E-13
 -1       292 6.31558E-03 3.98559E-05-2.38149E-14
 -1       293 6.19296E-03 1.33967E-04-2.34971E-14
 -1       294 5.94743E-03 2.55032E-04-2.27914E-14
 -1       295 5.63256E-03 4.22716E-04-2.15709E-14
 -1       296 5.25491E-03 5.88172E-04-2.03846E-14
 -1       297 4.88089E-03 7.56110E-04-1.88855E-14
 -1       298 4.49380E-03 8.82367E-04-1.73456E-14
 -1       299 4.12238E-03 9.24721E-04-1.58046E-14
 -1       300 3.75735E-03 8.89349E-04-1.44009E-14
 -1       301 3.37773E-03 7.67230E-04-1.29869E-14
 -1       302 2.95403E-03 5.81286E-04-1.18194E-14
 -1       303 2.54593E-03 4.09059E-04-1.10272E-14
 -1       304 2.23108E-03 2.56367E-04-1.04095E-14
 -1       305 2.00077E-03 1.25234E-04-9.92557E-15
 -1       306 1.88222E-03 3.70341E-05-9.84174E-15
 -1       307 1.88975E-03-4.78885E-05-9.71375E-15
 -1       308 2.04637E-03-1.59451E-04-1.01497E-14
 -1       309 2.29884E-03-2.93970E-04-1.07026E-14
 -1       310 2.65389E-03-4.49593E-04-1.13933E-14
 -1       311 3.02949E-03-6.38783E-04-1.24590E-14
 -1       312 3.40878E-03-7.93630E-04-1.36044E-14
 -1       313 3.80137E-03-9.06013E-04-1.49360E-14
 -1       314 4.18281E-03-9.41354E-04-1.64990E-14
 -1       315 4.57510E-03-8.66936E-04-1.80469E-14
 -1       316 4.95086E-03-7.33129E-04-1.96452E-14
 -1       317 5.33261E-03-5.72616E-04-2.09050E-14
 -1       318 5.66887E-03-3.97733E-04-2.21933E-14
 -1       319 5.97810E-03-2.61855E-04-2.29672E-14
 -1       320 6.19848E-03-1.38711E-04-2.36692E-14
 -1       321 6.31667E-03-4.61343E-05-2.38723E-14
 -1       322 4.75473E-04-1.16431E-04-2.98437E-16
 -1       323 5.08933E-04-1.69957E-04-2.47212E-16
 -1       324 4.26927E-04-4.84827E-05-3.48378E-16
 -1       325 4.08778E-04-2.80435E-05-3.58996E-16
 -1       326 3.95707E-04-1.39958E-05-3.63960E-16
 -1       327 3.88893E-04-4.02474E-06-3.64556E-16
 -1       328 3.89092E-04 4.59649E-06-3.61375E-16
 -1       329 3.96277E-04 1.47658E-05-3.54226E-16
 -1       330 4.09368E-04 2.88960E-05-3.42689E-16
 -1       331 4.27648E-04 4.97257E-05-3.25386E-16
 -1       332 4.49983E-04 7.90595E-05-2.99555E-16
 -1       333 4.76558E-04 1.19226E-04-2.60303E-16
 -1       334 5.10811E-04 1.74308E-04-2.00262E-16
 -1       335 5.76297E-04 2.30104E-04-1.75495E-16
 -1       336 8.99180E-04 3.19891E-04-5.19018E-16
 -1       337 9.36545E-04-2.97941E-04-7.84878E-16
 -1       338 1.25499E-03-3.65501E-04-1.43555E-15
 -1       339 1.57518E-03-4.28238E-04-2.28697E-15
 -1       340 1.89919E-03-4.95355E-04-3.33902E-15
 -1       341 2.22815E-03-5.74747E-04-4.59332E-15
 -1       342 2.56178E-03-6.71884E-04-6.05072E-15
 -1       343 2.89773E-03-7.87296E-04-7.71367E-15
 -1       344 3.23142E-03-9.13078E-04-9.58701E-15
 -1       345 3.55746E-03-1.03046E-03-1.16766E-14
 -1       346 3.87330E-03-1.11248E-03-1.39857E-14
 -1       347 4.18263E-03-1.13518E-03-1.65187E-14
 -1       348 4.49406E-03-1.09175E-03-1.92745E-14
 -1       349 4.81493E-03-9.97342E-04-2.22437E-14
 -1       350 5.14638E-03-8.79591E-04-2.54102E-14
 -1       351 5.48416E-03-7.64314E-04-2.87596E-14
 -1       352 5.82260E-03-6.67441E-04-3.22778E-14
 -1       353 6.15748E-03-5.94920E-04-3.59578E-14
 -1       354 6.48660E-03-5.46003E-04-3.97944E-14
 -1       355 6.80928E-03-5.16732E-04-4.37902E-14
 -1       356 7.12570E-03-5.02278E-04-4.79431E-14
 -1       357 7.43642E-03-4.98165E-04-5.22490E-14
 -1       358 7.74215E-03-5.00740E-04-5.67005E-14
 -1       359 8.04361E-03-5.07252E-04-6.12913E-14
 -1       360 8.34151E-03-5.15749E-04-6.60105E-14
 -1       361 8.63649E-03-5.24919E-04-7.08563E-14
 -1       362 8.92911E-03-5.33932E-04-7.58261E-14
 -1       363 9.21987E-03-5.42303E-04-8.09207E-14
 -1       364 9.50919E-03-5.49787E-04-8.61283E-14
 -1       365 9.79740E-03-5.56295E-04-9.14476E-14
 -1       366 1.00848E-02-5.61840E-04-9.68766E-14
 -1       367 1.03716E-02-5.66491E-04-1.02416E-13
 -1       368 1.06579E-02-5.70350E-04-1.08052E-13
 -1       369 1.09440E-02-5.73527E-04-1.13774E-13
 -1       370 1.12298E-02-5.76135E-04-1.19573E-13
 -1       371 1.15155E-02-5.78276E-04-1.25438E-13
 -1       372 1.18012E-02-5.80043E-04-1.31368E-13
 -1       373 1.20868E-02-5.81517E-04-1.37358E-13
 -1       374 1.23724E-02-5.82765E-04-1.43412E-13
 -1       375 1.26579E-02-5.83843E-04-1.49531E-13
 -1       376 1.29435E-02-5.84795E-04-1.55710E-13
 -1       377 1.32291E-02-5.85659E-04-1.61943E-13
 -1       378 1.35148E-02-5.86463E-04-1.68215E-13
 -1       379 1.38004E-02-5.87231E-04-1.74516E-13
 -1       380 1.40861E-02-5.87983E-04-1.80820E-13
 -1       381 1.43717E-02-5.88735E-04-1.87121E-13
 -1       382 1.46278E-02-5.92769E-04-1.92756E-13
 -1       383 1.22022E-03 3.91234E-04-1.05236E-15
 -1       384 1.54217E-03 4.55611E-04-1.77937E-15
 -1       385 1.86731E-03 5.22686E-04-2.70211E-15
 -1       386 2.19640E-03 6.00462E-04-3.82247E-15
 -1       387 2.52847E-03 6.94479E-04-5.14291E-15
 -1       388 2.86069E-03 8.05623E-04-6.66536E-15
 -1       389 3.18864E-03 9.27161E-04-8.39608E-15
 -1       390 3.50774E-03 1.04274E-03-1.03427E-14
 -1       391 3.81604E-03 1.12848E-03-1.25110E-14
 -1       392 4.11683E-03 1.16174E-03-1.49034E-14
 -1       393 4.41797E-03 1.13291E-03-1.75200E-14
 -1       394 4.72743E-03 1.05151E-03-2.03582E-14
 -1       395 5.04866E-03 9.40667E-04-2.34101E-14
 -1       396 5.37979E-03 8.25425E-04-2.66635E-14
 -1       397 5.71605E-03 7.23771E-04-3.01027E-14
 -1       398 6.05260E-03 6.44271E-04-3.37119E-14
 -1       399 6.38591E-03 5.88127E-04-3.74854E-14
 -1       400 6.71395E-03 5.52405E-04-4.14230E-14
 -1       401 7.03589E-03 5.32617E-04-4.55197E-14
 -1       402 7.35169E-03 5.24252E-04-4.97709E-14
 -1       403 7.66177E-03 5.23475E-04-5.41630E-14
 -1       404 7.96676E-03 5.27324E-04-5.86893E-14
 -1       405 8.26741E-03 5.33657E-04-6.33529E-14
 -1       406 8.56447E-03 5.41012E-04-6.81503E-14
 -1       407 8.85862E-03 5.48441E-04-7.30733E-14
 -1       408 9.15046E-03 5.55377E-04-7.81245E-14
 -1       409 9.44051E-03 5.61515E-04-8.33058E-14
 -1       410 9.72921E-03 5.66725E-04-8.86057E-14
 -1       411 1.00169E-02 5.70994E-04-9.40141E-14
 -1       412 1.03038E-02 5.74373E-04-9.95294E-14
 -1       413 1.05903E-02 5.76953E-04-1.05149E-13
 -1       414 1.08763E-02 5.78840E-04-1.10868E-13
 -1       415 1.11622E-02 5.80141E-04-1.16683E-13
 -1       416 1.14478E-02 5.80961E-04-1.22585E-13
 -1       417 1.17334E-02 5.81393E-04-1.28563E-13
 -1       418 1.20189E-02 5.81518E-04-1.34606E-13
 -1       419 1.23045E-02 5.81405E-04-1.40711E-13
 -1       420 1.25900E-02 5.81111E-04-1.46873E-13
 -1       421 1.28756E-02 5.80683E-04-1.53072E-13
 -1       422 1.31611E-02 5.80160E-04-1.59305E-13
 -1       423 1.34467E-02 5.79572E-04-1.65567E-13
 -1       424 1.37324E-02 5.78943E-04-1.71849E-13
 -1       425 1.40180E-02 5.78294E-04-1.78162E-13
 -1       426 1.43037E-02 5.77642E-04-1.84515E-13
 -1       427 1.45894E-02 5.76999E-04-1.90905E-13
 -1       428 1.47735E-02 5.70612E-04-1.95050E-13
 -1       429 1.47117E-02 3.53993E-04-1.94059E-13
 -1       430 1.47111E-02 4.38314E-04-1.93905E-13
 -1       431 1.47423E-02 5.04467E-04-1.94481E-13
 -1       432 1.47122E-02 2.71085E-04-1.94189E-13
 -1       433 1.47128E-02 1.86734E-04-1.94301E-13
 -1       434 1.47134E-02 1.02373E-04-1.94396E-13
 -1       435 1.47140E-02 1.80046E-05-1.94481E-13
 -1       436 1.47147E-02-6.63661E-05-1.94557E-13
 -1       437 1.47154E-02-1.50734E-04-1.94617E-13
 -1       438 1.47162E-02-2.33666E-04-1.94664E-13
 -1       439 1.47170E-02-3.18017E-04-1.94697E-13
 -1       440 1.47179E-02-4.02353E-04-1.94723E-13
 -1       441 1.47187E-02-4.86674E-04-1.94748E-13
 -1       442 6.07935E-03 1.29581E-04-2.46581E-14
 -1       443 6.34918E-03-3.61261E-06-2.55177E-14
 -1       444 6.28264E-03 4.85345E-05-2.51997E-14
 -1       445 5.73666E-03 2.85288E-04-2.32196E-14
 -1       446 5.40890E-03 4.43776E-04-2.20221E-14
 -1       447 4.49088E-04-7.71750E-05-3.29631E-16
 -1       448 4.64135E-03 8.33234E-04-1.86468E-14
 -1       449 4.26947E-03 9.47826E-04-1.65604E-14
 -1       450 3.96930E-03 9.50511E-04-1.50108E-14
 -1       451 3.65532E-03 8.67094E-04-1.34240E-14
 -1       452 3.21687E-03 6.53359E-04-1.17889E-14
 -1       453 2.77304E-03 4.27280E-04-1.07162E-14
 -1       454 2.42442E-03 2.62243E-04-1.00185E-14
 -1       455 2.13541E-03 1.31895E-04-9.36848E-15
 -1       456 1.90899E-03 4.48867E-05-9.15432E-15
 -1       457 1.85050E-03-3.40264E-06-9.01622E-15
 -1       458 1.95922E-03-6.94216E-05-9.24706E-15
 -1       459 2.19215E-03-1.59494E-04-9.63003E-15
 -1       460 2.48192E-03-2.86808E-04-1.02522E-14
 -1       461 2.92889E-03-5.13309E-04-1.14115E-14
 -1       462 3.29701E-03-7.05183E-04-1.25278E-14
 -1       463 3.63604E-03-8.64604E-04-1.38957E-14
 -1       464 3.98706E-03-9.64310E-04-1.55375E-14
 -1       465 4.39107E-03-9.32082E-04-1.77577E-14
 -1       466 4.68716E-03-8.21116E-04-1.93460E-14
 -1       467 5.09804E-03-6.16274E-04-2.11725E-14
 -1       468 5.41592E-03-4.48997E-04-2.24748E-14
 -1       469 5.81556E-03-2.56996E-04-2.38472E-14
 -1       470 6.06876E-03-1.49946E-04-2.45662E-14
 -1       471 6.29750E-03-5.00467E-05-2.52956E-14
 -1       472 4.99159E-03 6.62776E-04-2.02414E-14
 -1       473 1.86541E-03-2.64649E-05-8.54838E-15
 -1       474 9.99600E-04 2.81011E-04-8.94338E-16
 -1       475 6.07199E-04-3.44167E-05-7.68164E-16
 -1       476 6.33689E-04-6.11006E-05-7.54188E-16
 -1       477 5.84417E-04 4.22992E-07-7.70766E-16
 -1       478 5.90811E-04 1.60395E-05-7.60937E-16
 -1       479 6.08081E-04 3.54235E-05-7.43600E-16
 -1       480 6.34851E-04 6.25622E-05-7.17139E-16
 -1       481 6.68693E-04 9.96778E-05-6.78853E-16
 -1       482 7.08342E-04 1.48705E-04-6.23945E-16
 -1       483 1.31314E-03 3.43170E-04-1.55624E-15
 -1       484 1.03605E-03-2.59459E-04-1.18895E-15
 -1       485 5.19355E-03 5.39324E-04-2.20119E-14
 -1       486 1.34540E-03-3.17556E-04-1.96082E-15
 -1       487 1.65958E-03-3.75809E-04-2.92784E-15
 -1       488 1.98070E-03-4.42080E-04-4.09095E-15
 -1       489 2.31106E-03-5.23986E-04-5.45090E-15
 -1       490 2.65155E-03-6.27209E-04-7.00858E-15
 -1       491 2.99974E-03-7.51972E-04-8.76933E-15
 -1       492 3.34868E-03-8.87111E-04-1.07393E-14
 -1       493 3.68942E-03-1.00605E-03-1.29284E-14
 -1       494 4.01885E-03-1.07131E-03-1.53430E-14
 -1       495 4.34457E-03-1.05760E-03-1.79866E-14
 -1       496 4.67819E-03-9.71647E-04-2.08532E-14
 -1       497 5.02342E-03-8.46976E-04-2.39285E-14
 -1       498 5.37393E-03-7.19989E-04-2.71962E-14
 -1       499 5.72067E-03-6.12349E-04-3.06368E-14
 -1       500 6.05810E-03-5.31750E-04-3.42396E-14
 -1       501 6.38484E-03-4.77072E-04-3.79987E-14
 -1       502 6.70206E-03-4.43717E-04-4.19133E-14
 -1       503 7.01173E-03-4.26422E-04-4.59851E-14
 -1       504 7.31567E-03-4.20441E-04-5.02098E-14
 -1       505 7.61534E-03-4.21923E-04-5.45825E-14
 -1       506 7.91176E-03-4.27941E-04-5.90952E-14
 -1       507 8.20570E-03-4.36382E-04-6.37413E-14
 -1       508 8.49770E-03-4.45791E-04-6.85148E-14
 -1       509 8.78818E-03-4.55223E-04-7.34142E-14
 -1       510 9.07747E-03-4.64103E-04-7.84378E-14
 -1       511 9.36581E-03-4.72122E-04-8.35816E-14
 -1       512 9.65343E-03-4.79149E-04-8.88366E-14
 -1       513 9.94049E-03-4.85171E-04-9.42021E-14
 -1       514 1.02271E-02-4.90243E-04-9.96781E-14
 -1       515 1.05135E-02-4.94463E-04-1.05260E-13
 -1       516 1.07995E-02-4.97942E-04-1.10931E-13
 -1       517 1.10855E-02-5.00796E-04-1.16686E-13
 -1       518 1.13713E-02-5.03135E-04-1.22517E-13
 -1       519 1.16571E-02-5.05057E-04-1.28416E-13
 -1       520 1.19428E-02-5.06651E-04-1.34374E-13
 -1       521 1.22284E-02-5.07989E-04-1.40393E-13
 -1       522 1.25141E-02-5.09133E-04-1.46479E-13
 -1       523 1.27998E-02-5.10132E-04-1.52624E-13
 -1       524 1.30854E-02-5.11027E-04-1.58821E-13
 -1       525 1.33711E-02-5.11851E-04-1.65066E-13
 -1       526 1.36568E-02-5.12628E-04-1.71347E-13
 -1       527 1.39425E-02-5.13381E-04-1.77641E-13
 -1       528 1.42282E-02-5.14125E-04-1.83939E-13
 -1       529 1.95259E-03 4.70871E-04-3.45136E-15
 -1       530 2.28184E-03 5.52091E-04-4.68864E-15
 -1       531 2.61820E-03 6.52560E-04-6.12196E-15
 -1       532 2.95927E-03 7.71995E-04-7.75492E-15
 -1       533 3.29955E-03 9.00555E-04-9.59600E-15
 -1       534 3.63218E-03 1.01584E-03-1.16530E-14
 -1       535 3.95442E-03 1.08664E-03-1.39360E-14
 -1       536 4.27167E-03 1.08897E-03-1.64467E-14
 -1       537 4.59400E-03 1.02259E-03-1.91848E-14
 -1       538 4.92714E-03 9.11522E-04-2.21425E-14
 -1       539 5.26862E-03 7.87818E-04-2.53092E-14
 -1       540 5.61146E-03 6.75573E-04-2.86686E-14
 -1       541 5.94967E-03 5.86510E-04-3.22024E-14
 -1       542 6.28033E-03 5.22735E-04-3.59002E-14
 -1       543 6.60302E-03 4.81350E-04-3.97596E-14
 -1       544 6.91851E-03 4.57616E-04-4.37790E-14
 -1       545 7.22796E-03 4.46716E-04-4.79519E-14
 -1       546 7.53245E-03 4.44507E-04-5.22722E-14
 -1       547 7.83292E-03 4.47742E-04-5.67284E-14
 -1       548 8.13012E-03 4.54031E-04-6.13217E-14
 -1       549 8.42467E-03 4.61709E-04-6.60461E-14
 -1       550 8.71710E-03 4.69673E-04-7.09010E-14
 -1       551 9.00784E-03 4.77241E-04-7.58785E-14
 -1       552 9.29723E-03 4.84033E-04-8.09879E-14
 -1       553 9.58560E-03 4.89869E-04-8.62226E-14
 -1       554 9.87316E-03 4.94706E-04-9.15668E-14
 -1       555 1.01601E-02 4.98583E-04-9.70240E-14
 -1       556 1.04467E-02 5.01586E-04-1.02586E-13
 -1       557 1.07329E-02 5.03823E-04-1.08250E-13
 -1       558 1.10189E-02 5.05410E-04-1.14008E-13
 -1       559 1.13047E-02 5.06456E-04-1.19855E-13
 -1       560 1.15904E-02 5.07065E-04-1.25783E-13
 -1       561 1.18761E-02 5.07325E-04-1.31780E-13
 -1       562 1.21618E-02 5.07314E-04-1.37846E-13
 -1       563 1.24474E-02 5.07094E-04-1.43971E-13
 -1       564 1.27330E-02 5.06719E-04-1.50148E-13
 -1       565 1.30187E-02 5.06231E-04-1.56356E-13
 -1       566 1.33043E-02 5.05665E-04-1.62599E-13
 -1       567 1.35900E-02 5.05047E-04-1.68866E-13
 -1       568 1.38756E-02 5.04399E-04-1.75163E-13
 -1       569 1.41613E-02 5.03741E-04-1.81493E-13
 -1       570 1.44470E-02 5.03085E-04-1.87867E-13
 -1       571 1.44650E-02 2.29486E-04-1.88723E-13
 -1       572 1.44656E-02 1.45140E-04-1.88841E-13
 -1       573 1.44640E-02 3.96716E-04-1.88443E-13
 -1       574 1.44645E-02 3.13107E-04-1.88592E-13
 -1       575 1.44662E-02 6.07858E-05-1.88942E-13
 -1       576 1.44669E-02-2.35718E-05-1.89028E-13
 -1       577 1.44676E-02-1.07929E-04-1.89099E-13
 -1       578 1.44684E-02-1.90854E-04-1.89155E-13
 -1       579 1.44692E-02-2.75200E-04-1.89198E-13
 -1       580 1.44700E-02-3.59536E-04-1.89234E-13
 -1       581 1.44709E-02-4.43858E-04-1.89272E-13
 -1       582 6.36026E-03 1.40973E-05-2.72123E-14
 -1       583 5.91129E-03 1.82978E-04-2.56084E-14
 -1       584 1.63021E-03 4.03728E-04-2.40789E-15
 -1       585 4.84921E-03 7.33625E-04-2.03357E-14
 -1       586 6.22519E-03-7.30874E-05-2.69849E-14
 -1       587 6.23558E-03 6.05028E-05-2.66447E-14
 -1       588 4.19681E-03-9.86280E-04-1.67826E-14
 -1       589 1.96869E-03 5.99325E-05-8.44882E-15
 -1       590 5.90126E-04-1.50498E-05-7.73358E-16
 -1       591 4.11712E-03 9.79016E-04-1.57138E-14
 -1       592 2.03349E-03-8.48488E-05-8.59667E-15
 -1       593 4.41534E-03 9.29282E-04-1.76090E-14
 -1       594 3.84497E-03 9.42184E-04-1.40769E-14
 -1       595 3.43784E-03 7.70687E-04-1.20191E-14
 -1       596 2.96302E-03 5.06881E-04-1.04120E-14
 -1       597 2.58100E-03 3.07785E-04-9.50490E-15
 -1       598 2.29113E-03 1.78013E-04-8.87792E-15
 -1       599 1.84003E-03 1.41916E-05-8.23805E-15
 -1       600 3.11258E-03-5.93237E-04-1.12734E-14
 -1       601 2.32535E-03-1.95838E-04-9.16813E-15
 -1       602 2.71381E-03-3.77440E-04-1.01297E-14
 -1       603 3.49552E-03-8.05088E-04-1.27133E-14
 -1       604 3.79648E-03-9.36644E-04-1.42605E-14
 -1       605 4.53307E-03-8.95521E-04-1.89599E-14
 -1       606 4.90460E-03-7.11071E-04-2.12014E-14
 -1       607 5.24939E-03-5.17829E-04-2.29205E-14
 -1       608 5.63047E-03-3.18734E-04-2.46544E-14
 -1       609 5.96354E-03-1.69629E-04-2.58096E-14
 -1       610 6.36293E-03-2.07808E-05-2.72715E-14
 -1       611 7.49858E-04-1.89113E-04-6.69295E-16
 -1       612 7.55560E-04 2.34037E-04-4.83446E-16
 -1       613 5.64403E-03 3.03345E-04-2.43421E-14
 -1       614 6.67230E-04-9.74820E-05-7.28963E-16
 -1       615 4.63201E-03 8.58705E-04-1.92304E-14
 -1       616 1.44213E-02-5.16303E-04-1.88194E-13
 -1       617 2.07530E-03 1.03657E-04-7.97117E-15
 -1       618 3.62189E-03 8.75690E-04-1.26117E-14
 -1       619 1.80064E-03-4.77728E-06-7.77966E-15
 -1       620 7.06034E-04-1.38265E-04-7.07025E-16
 -1       621 3.17482E-03 6.44487E-04-1.06061E-14
 -1       622 8.01759E-04 3.51378E-05-1.29414E-15
 -1       623 7.83505E-04 1.10143E-05-1.31530E-15
 -1       624 8.79452E-04 1.08890E-04-1.21260E-15
 -1       625 9.31707E-04 1.63642E-04-1.14513E-15
 -1       626 1.09549E-03 2.41481E-04-1.31747E-15
 -1       627 6.43102E-03-3.82951E-06-2.92435E-14
 -1       628 1.42767E-03-2.68495E-04-2.52008E-15
 -1       629 1.73451E-03-3.20393E-04-3.59605E-15
 -1       630 2.05266E-03-3.83093E-04-4.86209E-15
 -1       631 2.38640E-03-4.65210E-04-6.31975E-15
 -1       632 2.73809E-03-5.74758E-04-7.97048E-15
 -1       633 3.10498E-03-7.14950E-04-9.82200E-15
 -1       634 3.47471E-03-8.68223E-04-1.18866E-14
 -1       635 3.83363E-03-9.91122E-04-1.41759E-14
 -1       636 4.18066E-03-1.02693E-03-1.67005E-14
 -1       637 4.53075E-03-9.56435E-04-1.94602E-14
 -1       638 4.89484E-03-8.19095E-04-2.24415E-14
 -1       639 5.26484E-03-6.72396E-04-2.56265E-14
 -1       640 5.62666E-03-5.50317E-04-2.89921E-14
 -1       641 5.97126E-03-4.62817E-04-3.25228E-14
 -1       642 6.29799E-03-4.05234E-04-3.62083E-14
 -1       643 6.61033E-03-3.70549E-04-4.00466E-14
 -1       644 6.91263E-03-3.52311E-04-4.40403E-14
 -1       645 7.20848E-03-3.45460E-04-4.81845E-14
 -1       646 7.50040E-03-3.46163E-04-5.24771E-14
 -1       647 7.78998E-03-3.51568E-04-5.69113E-14
 -1       648 8.07820E-03-3.59608E-04-6.14813E-14
 -1       649 8.36561E-03-3.68827E-04-6.61829E-14
 -1       650 8.65253E-03-3.78244E-04-7.10111E-14
 -1       651 8.93913E-03-3.87240E-04-7.59650E-14
 -1       652 9.22551E-03-3.95460E-04-8.10418E-14
 -1       653 9.51173E-03-4.02735E-04-8.62329E-14
 -1       654 9.79783E-03-4.09020E-04-9.15361E-14
 -1       655 1.00838E-02-4.14350E-04-9.69509E-14
 -1       656 1.03698E-02-4.18809E-04-1.02472E-13
 -1       657 1.06556E-02-4.22501E-04-1.08093E-13
 -1       658 1.09415E-02-4.25539E-04-1.13801E-13
 -1       659 1.12273E-02-4.28032E-04-1.19591E-13
 -1       660 1.15130E-02-4.30082E-04-1.25459E-13
 -1       661 1.17988E-02-4.31777E-04-1.31388E-13
 -1       662 1.20845E-02-4.33196E-04-1.37376E-13
 -1       663 1.23702E-02-4.34401E-04-1.43430E-13
 -1       664 1.26560E-02-4.35447E-04-1.49546E-13
 -1       665 1.29417E-02-4.36376E-04-1.55713E-13
 -1       666 1.32274E-02-4.37221E-04-1.61927E-13
 -1       667 1.35131E-02-4.38012E-04-1.68182E-13
 -1       668 1.37988E-02-4.38769E-04-1.74460E-13
 -1       669 1.40845E-02-4.39511E-04-1.80752E-13
 -1       670 2.36269E-03 4.97532E-04-5.57894E-15
 -1       671 4.38806E-03-9.68402E-04-1.82240E-14
 -1       672 2.03028E-03 4.14890E-04-4.23032E-15
 -1       673 3.06563E-03 7.35642E-04-8.85535E-15
 -1       674 3.42413E-03 8.76899E-04-1.08012E-14
 -1       675 3.77234E-03 9.94489E-04-1.29672E-14
 -1       676 4.10885E-03 1.04284E-03-1.53669E-14
 -1       677 4.44514E-03 9.99668E-04-1.80025E-14
 -1       678 4.79267E-03 8.86462E-04-2.08681E-14
 -1       679 5.15085E-03 7.48489E-04-2.39497E-14
 -1       680 5.50830E-03 6.22309E-04-2.72297E-14
 -1       681 5.85506E-03 5.24081E-04-3.06921E-14
 -1       682 6.18764E-03 4.54910E-04-3.43184E-14
 -1       683 6.50717E-03 4.10224E-04-3.81017E-14
 -1       684 6.81657E-03 3.84249E-04-4.20464E-14
 -1       685 7.11879E-03 3.71715E-04-4.61437E-14
 -1       686 7.41613E-03 3.68340E-04-5.03889E-14
 -1       687 7.71019E-03 3.70823E-04-5.47762E-14
 -1       688 8.00201E-03 3.76723E-04-5.92983E-14
 -1       689 8.29227E-03 3.84305E-04-6.39545E-14
 -1       690 8.58139E-03 3.92392E-04-6.87382E-14
 -1       691 8.86967E-03 4.00228E-04-7.36444E-14
 -1       692 9.15730E-03 4.07369E-04-7.86822E-14
 -1       693 9.44444E-03 4.13587E-04-8.38464E-14
 -1       694 9.73119E-03 4.18806E-04-8.91300E-14
 -1       695 1.00177E-02 4.23042E-04-9.45273E-14
 -1       696 1.03039E-02 4.26368E-04-1.00034E-13
 -1       697 1.05900E-02 4.28885E-04-1.05641E-13
 -1       698 1.08759E-02 4.30709E-04-1.11345E-13
 -1       699 1.11618E-02 4.31952E-04-1.17141E-13
 -1       700 1.14476E-02 4.32720E-04-1.23018E-13
 -1       701 1.17333E-02 4.33106E-04-1.28970E-13
 -1       702 1.20190E-02 4.33192E-04-1.34993E-13
 -1       703 1.23047E-02 4.33047E-04-1.41083E-13
 -1       704 1.25904E-02 4.32727E-04-1.47227E-13
 -1       705 1.28761E-02 4.32278E-04-1.53410E-13
 -1       706 1.31618E-02 4.31738E-04-1.59632E-13
 -1       707 1.34475E-02 4.31136E-04-1.65883E-13
 -1       708 1.37332E-02 4.30495E-04-1.72166E-13
 -1       709 1.40189E-02 4.29834E-04-1.78479E-13
 -1       710 1.42414E-02 4.13274E-04-1.83450E-13
 -1       711 1.42191E-02 1.92117E-05-1.83507E-13
 -1       712 1.42777E-02-4.41683E-04-1.85010E-13
 -1       713 1.42179E-02 1.87902E-04-1.83289E-13
 -1       714 1.42198E-02-6.51377E-05-1.83589E-13
 -1       715 1.42184E-02 1.03559E-04-1.83408E-13
 -1       716 4.25677E-03 9.85632E-04-1.66121E-14
 -1       717 2.85339E-03-4.75776E-04-9.77281E-15
 -1       718 1.42205E-02-1.48056E-04-1.83652E-13
 -1       719 1.42213E-02-2.32399E-04-1.83707E-13
 -1       720 1.42221E-02-3.16733E-04-1.83751E-13
 -1       721 5.48653E-03-4.19625E-04-2.53495E-14
 -1       722 6.15783E-03 1.03740E-04-2.79792E-14
 -1       723 4.01945E-03-1.00063E-03-1.55709E-14
 -1       724 6.36555E-03 3.35438E-05-2.90473E-14
 -1       725 1.84531E-03 3.12315E-05-7.47870E-15
 -1       726 2.70843E-03 3.94558E-04-9.04698E-15
 -1       727 2.50621E-03-2.94531E-04-8.83976E-15
 -1       728 1.71034E-03 3.49849E-04-3.07191E-15
 -1       729 2.70900E-03 6.04304E-04-7.11780E-15
 -1       730 1.12864E-03-2.19965E-04-1.63473E-15
 -1       731 1.39970E-03 2.94546E-04-2.10142E-15
 -1       732 5.42869E-03 4.31554E-04-2.42242E-14
 -1       733 8.35043E-04 6.66789E-05-1.26081E-15
 -1       734 8.33275E-04-6.50234E-05-1.30957E-15
 -1       735 4.01071E-03 9.92254E-04-1.49146E-14
 -1       736 4.73736E-03-8.28078E-04-2.07391E-14
 -1       737 2.44374E-03 2.62026E-04-8.44461E-15
 -1       738 5.11172E-03 6.11142E-04-2.24531E-14
 -1       739 1.85430E-03-3.76972E-05-7.54429E-15
 -1       740 3.24590E-03-6.95297E-04-1.12066E-14
 -1       741 2.10536E-03-1.27855E-04-7.83152E-15
 -1       742 5.81713E-03 2.48398E-04-2.65579E-14
 -1       743 3.62225E-03-8.89903E-04-1.30340E-14
 -1       744 6.38131E-03-4.04479E-05-2.95044E-14
 -1       745 5.17316E-03-5.88474E-04-2.35343E-14
 -1       746 9.14800E-04-1.79669E-04-1.12325E-15
 -1       747 8.77406E-04-1.06581E-04-1.28126E-15
 -1       748 7.83118E-04-1.02711E-05-1.32492E-15
 -1       749 4.89430E-03 7.51614E-04-2.12763E-14
 -1       750 6.13421E-03-1.19712E-04-2.81311E-14
 -1       751 1.42173E-02 2.71522E-04-1.83158E-13
 -1       752 1.42294E-02 3.42403E-04-1.83310E-13
 -1       753 5.82294E-03-2.58834E-04-2.72131E-14
 -1       754 1.76200E-03 1.08972E-05-7.03797E-15
 -1       755 3.36539E-03 7.69186E-04-1.11432E-14
 -1       756 2.90478E-03 5.31367E-04-9.20456E-15
 -1       757 8.00574E-04-3.40083E-05-1.32322E-15
 -1       758 2.20145E-03 1.76207E-04-7.55556E-15
 -1       759 1.41533E-02-3.78126E-04-1.82250E-13
 -1       760 1.14570E-03 1.67507E-04-1.82115E-15
 -1       761 6.49668E-03 1.35212E-05-3.13783E-14
 -1       762 1.21129E-03-1.78840E-04-2.12086E-15
 -1       763 5.40000E-03-5.27554E-04-2.59033E-14
 -1       764 1.79514E-03-2.59807E-04-4.28917E-15
 -1       765 2.10743E-03-3.15451E-04-5.65043E-15
 -1       766 2.44296E-03-3.95397E-04-7.19712E-15
 -1       767 5.90590E-03-3.84732E-04-3.08034E-14
 -1       768 6.23092E-03-3.27732E-04-3.44199E-14
 -1       769 6.53584E-03-2.95433E-04-3.81868E-14
 -1       770 6.82834E-03-2.79093E-04-4.21031E-14
 -1       771 7.11395E-03-2.73089E-04-4.61699E-14
 -1       772 7.39622E-03-2.73823E-04-5.03833E-14
 -1       773 7.67728E-03-2.78801E-04-5.47401E-14
 -1       774 7.95827E-03-2.86246E-04-5.92362E-14
 -1       775 8.23975E-03-2.94882E-04-6.38639E-14
 -1       776 8.52191E-03-3.03818E-04-6.86229E-14
 -1       777 8.80480E-03-3.12464E-04-7.35061E-14
 -1       778 9.08834E-03-3.20456E-04-7.85106E-14
 -1       779 9.37244E-03-3.27605E-04-8.36381E-14
 -1       780 9.65699E-03-3.33842E-04-8.88785E-14
 -1       781 9.94189E-03-3.39178E-04-9.42326E-14
 -1       782 1.02271E-02-3.43677E-04-9.96969E-14
 -1       783 1.05124E-02-3.47428E-04-1.05260E-13
 -1       784 1.07979E-02-3.50533E-04-1.10919E-13
 -1       785 1.10835E-02-3.53094E-04-1.16666E-13
 -1       786 1.13692E-02-3.55208E-04-1.22499E-13
 -1       787 1.16549E-02-3.56962E-04-1.28400E-13
 -1       788 1.19406E-02-3.58431E-04-1.34357E-13
 -1       789 1.22264E-02-3.59679E-04-1.40383E-13
 -1       790 1.25121E-02-3.60759E-04-1.46467E-13
 -1       791 1.27979E-02-3.61714E-04-1.52609E-13
 -1       792 1.30837E-02-3.62580E-04-1.58797E-13
 -1       793 1.33694E-02-3.63384E-04-1.65026E-13
 -1       794 1.36552E-02-3.64148E-04-1.71288E-13
 -1       795 1.39042E-02-3.71140E-04-1.76765E-13
 -1       796 6.50829E-03-1.99217E-05-3.16540E-14
 -1       797 5.41648E-03 5.62733E-04-2.57863E-14
 -1       798 5.77529E-03 4.53143E-04-2.91780E-14
 -1       799 6.11154E-03 3.81096E-04-3.27359E-14
 -1       800 6.42756E-03 3.36386E-04-3.64486E-14
 -1       801 6.72975E-03 3.11051E-04-4.03169E-14
 -1       802 7.02324E-03 2.98760E-04-4.43421E-14
 -1       803 7.31177E-03 2.95175E-04-4.85147E-14
 -1       804 7.59773E-03 2.97192E-04-5.28302E-14
 -1       805 7.88253E-03 3.02572E-04-5.72832E-14
 -1       806 8.16697E-03 3.09709E-04-6.18693E-14
 -1       807 8.45142E-03 3.17481E-04-6.65845E-14
 -1       808 8.73604E-03 3.25139E-04-7.14266E-14
 -1       809 9.02090E-03 3.32220E-04-7.63918E-14
 -1       810 9.30597E-03 3.38469E-04-8.14875E-14
 -1       811 9.59123E-03 3.43777E-04-8.67071E-14
 -1       812 9.87664E-03 3.48136E-04-9.20426E-14
 -1       813 1.01622E-02 3.51600E-04-9.74889E-14
 -1       814 1.04478E-02 3.54258E-04-1.03044E-13
 -1       815 1.07334E-02 3.56215E-04-1.08692E-13
 -1       816 1.10191E-02 3.57577E-04-1.14438E-13
 -1       817 1.13048E-02 3.58449E-04-1.20271E-13
 -1       818 1.15906E-02 3.58924E-04-1.26177E-13
 -1       819 1.18763E-02 3.59083E-04-1.32157E-13
 -1       820 1.21621E-02 3.58997E-04-1.38204E-13
 -1       821 1.24478E-02 3.58723E-04-1.44312E-13
 -1       822 1.27336E-02 3.58310E-04-1.50467E-13
 -1       823 1.30193E-02 3.57796E-04-1.56665E-13
 -1       824 1.33050E-02 3.57211E-04-1.62900E-13
 -1       825 1.35908E-02 3.56579E-04-1.69171E-13
 -1       826 1.38765E-02 3.55921E-04-1.75471E-13
 -1       827 1.40529E-02 3.49162E-04-1.79383E-13
 -1       828 9.89452E-04 2.80350E-05-1.98946E-15
 -1       829 1.39719E-02-2.23541E-05-1.78085E-13
 -1       830 1.39726E-02-1.05266E-04-1.78161E-13
 -1       831 5.66488E-03 3.68710E-04-2.67454E-14
 -1       832 2.56443E-03-3.84779E-04-8.18539E-15
 -1       833 6.11524E-03 1.71163E-04-2.95865E-14
 -1       834 1.39742E-02-2.73937E-04-1.78274E-13
 -1       835 1.39734E-02-1.89605E-04-1.78224E-13
 -1       836 1.74400E-03-1.54939E-05-6.81369E-15
 -1       837 2.09495E-03 3.51049E-04-5.03862E-15
 -1       838 5.70171E-03-3.70712E-04-2.77954E-14
 -1       839 1.77900E-03 2.91608E-04-3.77126E-15
 -1       840 8.95358E-04-1.40552E-04-1.20635E-15
 -1       841 1.49829E-03-2.16903E-04-3.11244E-15
 -1       842 6.35802E-03 7.25470E-05-3.07645E-14
 -1       843 2.47719E-03 3.28582E-04-7.76033E-15
 -1       844 2.97530E-03-6.00231E-04-9.59892E-15
 -1       845 2.19680E-03-2.10695E-04-7.23292E-15
 -1       846 6.34322E-03-8.78623E-05-3.10274E-14
 -1       847 1.88976E-03 6.70633E-05-6.87742E-15
 -1       848 1.85273E-03-7.11689E-05-6.62602E-15
 -1       849 1.26884E-03 2.26457E-04-1.96693E-15
 -1       850 6.10642E-03-1.86041E-04-3.00688E-14
 -1       851 9.75848E-04 3.44803E-07-2.01095E-15
 -1       852 5.18735E-03 6.35401E-04-2.37108E-14
 -1       853 1.39701E-02 2.30301E-04-1.77753E-13
 -1       854 5.99005E-03 2.72481E-04-2.97747E-14
 -1       855 6.52276E-03-5.69639E-05-3.32210E-14
 -1       856 1.07800E-03-1.06040E-04-1.98083E-15
 -1       857 2.43194E-03 4.33288E-04-6.48982E-15
 -1       858 1.39713E-02 6.19872E-05-1.77990E-13
 -1       859 1.02638E-03 6.24608E-05-1.95231E-15
 -1       860 1.39707E-02 1.46147E-04-1.77883E-13
 -1       861 1.08087E-03 1.08511E-04-1.89721E-15
 -1       862 1.39392E-02-3.22541E-04-1.77520E-13
 -1       863 1.76800E-03 3.69792E-05-6.45692E-15
 -1       864 1.70282E-03-4.09427E-05-5.94068E-15
 -1       865 1.90826E-03-1.34262E-04-6.07213E-15
 -1       866 1.52176E-03 2.58074E-04-2.79636E-15
 -1       867 1.02441E-03-6.10545E-05-2.00746E-15
 -1       868 2.14517E-03 2.20234E-04-6.49829E-15
 -1       869 6.56702E-03 4.46978E-05-3.37276E-14
 -1       870 6.38996E-03 1.26851E-04-3.28617E-14
 -1       871 1.37248E-02-6.31969E-05-1.72676E-13
 -1       872 6.48287E-03-2.18297E-04-3.63259E-14
 -1       873 6.75992E-03-2.07001E-04-4.01716E-14
 -1       874 7.03136E-03-2.03627E-04-4.41640E-14
 -1       875 7.30139E-03-2.05346E-04-4.83010E-14
 -1       876 7.57212E-03-2.10200E-04-5.25815E-14
 -1       877 7.84454E-03-2.16937E-04-5.70032E-14
 -1       878 8.11899E-03-2.24640E-04-6.15582E-14
 -1       879 8.39550E-03-2.32629E-04-6.62439E-14
 -1       880 8.67390E-03-2.40420E-04-7.10586E-14
 -1       881 8.95393E-03-2.47698E-04-7.59950E-14
 -1       882 9.23534E-03-2.54279E-04-8.10554E-14
 -1       883 9.51785E-03-2.60081E-04-8.62324E-14
 -1       884 9.80125E-03-2.65098E-04-9.15240E-14
 -1       885 1.00853E-02-2.69369E-04-9.69293E-14
 -1       886 1.03699E-02-2.72964E-04-1.02440E-13
 -1       887 1.06549E-02-2.75967E-04-1.08046E-13
 -1       888 1.09402E-02-2.78467E-04-1.13749E-13
 -1       889 1.12256E-02-2.80547E-04-1.19541E-13
 -1       890 1.15112E-02-2.82286E-04-1.25410E-13
 -1       891 1.17969E-02-2.83753E-04-1.31338E-13
 -1       892 1.20826E-02-2.85006E-04-1.37335E-13
 -1       893 1.23684E-02-2.86096E-04-1.43392E-13
 -1       894 1.26542E-02-2.87062E-04-1.49507E-13
 -1       895 1.29399E-02-2.87939E-04-1.55669E-13
 -1       896 1.32257E-02-2.88751E-04-1.61873E-13
 -1       897 1.35115E-02-2.89520E-04-1.68119E-13
 -1       898 2.67696E-03 5.17033E-04-7.53381E-15
 -1       899 1.34020E-03-1.29541E-04-2.94120E-15
 -1       900 6.65976E-03 2.37296E-04-3.85951E-14
 -1       901 6.94108E-03 2.27647E-04-4.25463E-14
 -1       902 7.21831E-03 2.25210E-04-4.66488E-14
 -1       903 7.49427E-03 2.27329E-04-5.08929E-14
 -1       904 7.77053E-03 2.32233E-04-5.52756E-14
 -1       905 8.04786E-03 2.38659E-04-5.97930E-14
 -1       906 8.32652E-03 2.45694E-04-6.44414E-14
 -1       907 8.60654E-03 2.52697E-04-6.92155E-14
 -1       908 8.88779E-03 2.59245E-04-7.41148E-14
 -1       909 9.17010E-03 2.65089E-04-7.91400E-14
 -1       910 9.45328E-03 2.70108E-04-8.42927E-14
 -1       911 9.73716E-03 2.74272E-04-8.95670E-14
 -1       912 1.00216E-02 2.77615E-04-9.49562E-14
 -1       913 1.03064E-02 2.80205E-04-1.00451E-13
 -1       914 1.05915E-02 2.82131E-04-1.06047E-13
 -1       915 1.08769E-02 2.83489E-04-1.11743E-13
 -1       916 1.11624E-02 2.84371E-04-1.17528E-13
 -1       917 1.14480E-02 2.84866E-04-1.23393E-13
 -1       918 1.17337E-02 2.85049E-04-1.29331E-13
 -1       919 1.20195E-02 2.84988E-04-1.35336E-13
 -1       920 1.23052E-02 2.84738E-04-1.41404E-13
 -1       921 1.25910E-02 2.84346E-04-1.47531E-13
 -1       922 1.28768E-02 2.83849E-04-1.53703E-13
 -1       923 1.31625E-02 2.83277E-04-1.59918E-13
 -1       924 1.34483E-02 2.82655E-04-1.66174E-13
 -1       925 1.37341E-02 2.82000E-04-1.72459E-13
 -1       926 1.63878E-03 2.92731E-06-5.84600E-15
 -1       927 1.40115E-02 2.89734E-04-1.78571E-13
 -1       928 6.35817E-03-1.40873E-04-3.28997E-14
 -1       929 6.36919E-03 2.58308E-04-3.47991E-14
 -1       930 9.88284E-04-2.70866E-05-2.01708E-15
 -1       931 1.83018E-03 2.27477E-04-4.50409E-15
 -1       932 1.83398E-03-1.93687E-04-5.00448E-15
 -1       933 1.85443E-03 1.07436E-04-5.88492E-15
 -1       934 1.58102E-03-1.58184E-04-3.90658E-15
 -1       935 6.61295E-03-1.91680E-06-3.37999E-14
 -1       936 1.34929E-03 1.62610E-04-2.64736E-15
 -1       937 1.17116E-03 1.56967E-05-2.82379E-15
 -1       938 6.17701E-03-2.35940E-04-3.22425E-14
 -1       939 2.28405E-03 3.39115E-04-6.28395E-15
 -1       940 1.37255E-02-1.47528E-04-1.72752E-13
 -1       941 2.13180E-03-2.38510E-04-6.45215E-15
 -1       942 6.67187E-03-3.52810E-05-3.54129E-14
 -1       943 1.37254E-02-3.06034E-04-1.72818E-13
 -1       944 1.37241E-02 2.11357E-05-1.72589E-13
 -1       945 1.20707E-03 5.12813E-05-2.78638E-15
 -1       946 1.72157E-03 7.01410E-05-5.50046E-15
 -1       947 1.72728E-03-8.83101E-05-5.42120E-15
 -1       948 1.58447E-03 2.02770E-04-3.43774E-15
 -1       949 1.37346E-02 1.97857E-04-1.72605E-13
 -1       950 1.37424E-02-2.39573E-04-1.73169E-13
 -1       951 1.17027E-03-1.50201E-05-2.84174E-15
 -1       952 1.84543E-03 1.73456E-04-5.06507E-15
 -1       953 6.95916E-03-1.38238E-04-4.21620E-14
 -1       954 7.21369E-03-1.41501E-04-4.62239E-14
 -1       955 7.47220E-03-1.46326E-04-5.04295E-14
 -1       956 7.73490E-03-1.52171E-04-5.47771E-14
 -1       957 8.00160E-03-1.58576E-04-5.92621E-14
 -1       958 8.27191E-03-1.65151E-04-6.38787E-14
 -1       959 8.54537E-03-1.71581E-04-6.86198E-14
 -1       960 8.82152E-03-1.77638E-04-7.34892E-14
 -1       961 9.09989E-03-1.83174E-04-7.84821E-14
 -1       962 9.38007E-03-1.88114E-04-8.35973E-14
 -1       963 9.66170E-03-1.92437E-04-8.88270E-14
 -1       964 9.94446E-03-1.96165E-04-9.41707E-14
 -1       965 1.02281E-02-1.99343E-04-9.96284E-14
 -1       966 1.05124E-02-2.02033E-04-1.05187E-13
 -1       967 1.07972E-02-2.04303E-04-1.10842E-13
 -1       968 1.10823E-02-2.06218E-04-1.16587E-13
 -1       969 1.13677E-02-2.07842E-04-1.22418E-13
 -1       970 1.16533E-02-2.09231E-04-1.28317E-13
 -1       971 1.19389E-02-2.10435E-04-1.34282E-13
 -1       972 1.22247E-02-2.11495E-04-1.40315E-13
 -1       973 1.25104E-02-2.12445E-04-1.46401E-13
 -1       974 1.27962E-02-2.13313E-04-1.52538E-13
 -1       975 1.30820E-02-2.14123E-04-1.58722E-13
 -1       976 1.33678E-02-2.14892E-04-1.64946E-13
 -1       977 7.39797E-03 1.61814E-04-4.89614E-14
 -1       978 1.20456E-03-5.00839E-05-2.84104E-15
 -1       979 7.13436E-03 1.59111E-04-4.47871E-14
 -1       980 6.87202E-03 1.59249E-04-4.07582E-14
 -1       981 7.66419E-03 1.66273E-04-5.32727E-14
 -1       982 7.93337E-03 1.71735E-04-5.77227E-14
 -1       983 8.20545E-03 1.77617E-04-6.23051E-14
 -1       984 8.48021E-03 1.83475E-04-6.70156E-14
 -1       985 8.75729E-03 1.88986E-04-7.18490E-14
 -1       986 9.03635E-03 1.93945E-04-7.68054E-14
 -1       987 9.31704E-03 1.98240E-04-8.18898E-14
 -1       988 9.59903E-03 2.01830E-04-8.71016E-14
 -1       989 9.88204E-03 2.04731E-04-9.24304E-14
 -1       990 1.01659E-02 2.06988E-04-9.78703E-14
 -1       991 1.04503E-02 2.08671E-04-1.03413E-13
 -1       992 1.07351E-02 2.09855E-04-1.09055E-13
 -1       993 1.10203E-02 2.10617E-04-1.14792E-13
 -1       994 1.13057E-02 2.11032E-04-1.20613E-13
 -1       995 1.15913E-02 2.11165E-04-1.26509E-13
 -1       996 1.18770E-02 2.11075E-04-1.32477E-13
 -1       997 1.21627E-02 2.10810E-04-1.38509E-13
 -1       998 1.24485E-02 2.10412E-04-1.44600E-13
 -1       999 1.27343E-02 2.09916E-04-1.50744E-13
 -1      1000 1.30201E-02 2.09347E-04-1.56936E-13
 -1      1001 1.33058E-02 2.08727E-04-1.63169E-13
 -1      1002 1.35202E-02 2.03299E-04-1.67878E-13
 -1      1003 6.63829E-03-1.22763E-04-3.68614E-14
 -1      1004 1.37235E-02 1.05289E-04-1.72481E-13
 -1      1005 1.52367E-03-1.76314E-05-4.87603E-15
 -1      1006 6.62312E-03 1.41698E-04-3.67319E-14
 -1      1007 6.76651E-03 6.30883E-05-3.76472E-14
 -1      1008 1.55088E-03 2.50611E-05-4.94548E-15
 -1      1009 1.27026E-03 9.93462E-05-2.72853E-15
 -1      1010 1.70628E-03 1.26616E-04-4.71788E-15
 -1      1011 1.66375E-03-1.24262E-04-4.64163E-15
 -1      1012 6.74574E-03 1.00717E-05-3.65445E-14
 -1      1013 1.50015E-03-5.09765E-05-4.40986E-15
 -1      1014 1.34777E-02-1.04741E-04-1.67283E-13
 -1      1015 1.34769E-02-2.04218E-05-1.67200E-13
 -1      1016 1.48431E-03 1.25363E-04-3.53729E-15
 -1      1017 1.34784E-03 1.91209E-07-3.79061E-15
 -1      1018 1.37483E-03 3.52005E-05-3.75711E-15
 -1      1019 1.42027E-03-8.06136E-05-3.69110E-15
 -1      1020 1.57821E-03 1.41502E-04-3.87861E-15
 -1      1021 7.56079E-03 1.05227E-04-5.12794E-14
 -1      1022 6.94769E-03-5.01425E-05-4.06557E-14
 -1      1023 7.17782E-03-5.32898E-05-4.46649E-14
 -1      1024 6.99366E-03 8.21670E-05-4.17165E-14
 -1      1025 7.41922E-03-5.64778E-05-4.88151E-14
 -1      1026 7.66939E-03-5.96842E-05-5.31073E-14
 -1      1027 7.92663E-03-6.29176E-05-5.75385E-14
 -1      1028 8.18965E-03-6.61323E-05-6.21034E-14
 -1      1029 8.45742E-03-6.92571E-05-6.67921E-14
 -1      1030 8.72911E-03-7.22235E-05-7.16055E-14
 -1      1031 9.00401E-03-7.49795E-05-7.65442E-14
 -1      1032 9.28151E-03-7.74944E-05-8.16092E-14
 -1      1033 9.56109E-03-7.97575E-05-8.67935E-14
 -1      1034 9.84231E-03-8.17739E-05-9.20944E-14
 -1      1035 1.01248E-02-8.35599E-05-9.75126E-14
 -1      1036 1.04083E-02-8.51389E-05-1.03033E-13
 -1      1037 1.06924E-02-8.65374E-05-1.08651E-13
 -1      1038 1.09772E-02-8.77827E-05-1.14363E-13
 -1      1039 1.12623E-02-8.89008E-05-1.20159E-13
 -1      1040 1.15477E-02-8.99157E-05-1.26034E-13
 -1      1041 1.18332E-02-9.08482E-05-1.31986E-13
 -1      1042 1.21189E-02-9.17163E-05-1.38000E-13
 -1      1043 1.24047E-02-9.25351E-05-1.44069E-13
 -1      1044 1.26905E-02-9.33167E-05-1.50186E-13
 -1      1045 1.29763E-02-9.40713E-05-1.56354E-13
 -1      1046 1.32270E-02-9.94100E-05-1.61806E-13
 -1      1047 1.36308E-03-3.44707E-05-3.75163E-15
 -1      1048 7.30576E-03 1.01487E-04-4.70329E-14
 -1      1049 8.08633E-03 1.13632E-04-6.01775E-14
 -1      1050 8.35557E-03 1.17850E-04-6.48227E-14
 -1      1051 8.62829E-03 1.21818E-04-6.95951E-14
 -1      1052 8.90391E-03 1.25400E-04-7.44866E-14
 -1      1053 9.18192E-03 1.28513E-04-7.95006E-14
 -1      1054 9.46184E-03 1.31120E-04-8.46468E-14
 -1      1055 9.74330E-03 1.33220E-04-8.99171E-14
 -1      1056 1.00259E-02 1.34843E-04-9.52983E-14
 -1      1057 1.03095E-02 1.36031E-04-1.00787E-13
 -1      1058 1.05938E-02 1.36837E-04-1.06377E-13
 -1      1059 1.08785E-02 1.37317E-04-1.12064E-13
 -1      1060 1.11636E-02 1.37525E-04-1.17839E-13
 -1      1061 1.14490E-02 1.37510E-04-1.23694E-13
 -1      1062 1.17346E-02 1.37317E-04-1.29625E-13
 -1      1063 1.20203E-02 1.36984E-04-1.35622E-13
 -1      1064 1.23060E-02 1.36542E-04-1.41679E-13
 -1      1065 1.25918E-02 1.36018E-04-1.47792E-13
 -1      1066 1.28776E-02 1.35434E-04-1.53957E-13
 -1      1067 1.31634E-02 1.34807E-04-1.60164E-13
 -1      1068 1.42061E-03 7.40551E-05-3.65517E-15
 -1      1069 1.34763E-02 6.37185E-05-1.67098E-13
 -1      1070 7.82118E-03 1.09352E-04-5.56609E-14
 -1      1071 1.34982E-02 1.33509E-04-1.67494E-13
 -1      1072 1.55954E-03 7.51472E-05-4.41148E-15
 -1      1073 6.95934E-03 2.51240E-05-4.05804E-14
 -1      1074 7.07409E-03-5.28022E-06-4.25624E-14
 -1      1075 7.30613E-03-5.73405E-06-4.66415E-14
 -1      1076 7.54960E-03-6.30082E-06-5.08615E-14
 -1      1077 7.80172E-03-6.91248E-06-5.52221E-14
 -1      1078 8.06070E-03-7.55853E-06-5.97192E-14
 -1      1079 8.32524E-03-8.22915E-06-6.43458E-14
 -1      1080 8.59434E-03-8.91661E-06-6.90932E-14
 -1      1081 8.86715E-03-9.61498E-06-7.39666E-14
 -1      1082 9.14299E-03-1.03199E-05-7.89646E-14
 -1      1083 9.42126E-03-1.10284E-05-8.40891E-14
 -1      1084 9.70146E-03-1.17384E-05-8.93345E-14
 -1      1085 9.98317E-03-1.24486E-05-9.46950E-14
 -1      1086 1.02660E-02-1.31583E-05-1.00164E-13
 -1      1087 1.05498E-02-1.38671E-05-1.05734E-13
 -1      1088 1.08342E-02-1.45750E-05-1.11402E-13
 -1      1089 1.11191E-02-1.52819E-05-1.17156E-13
 -1      1090 1.14043E-02-1.59880E-05-1.22995E-13
 -1      1091 1.16898E-02-1.66933E-05-1.28910E-13
 -1      1092 1.19754E-02-1.73980E-05-1.34895E-13
 -1      1093 1.22612E-02-1.81022E-05-1.40938E-13
 -1      1094 1.25469E-02-1.88060E-05-1.47036E-13
 -1      1095 1.28327E-02-1.95095E-05-1.53184E-13
 -1      1096 1.30834E-02-2.48183E-05-1.58618E-13
 -1      1097 8.77160E-03 5.96268E-05-7.21715E-14
 -1      1098 8.49923E-03 5.78848E-05-6.73425E-14
 -1      1099 8.23063E-03 5.59351E-05-6.26351E-14
 -1      1100 9.04704E-03 6.11175E-05-7.71225E-14
 -1      1101 9.32496E-03 6.23336E-05-8.22038E-14
 -1      1102 9.60488E-03 6.32713E-05-8.74102E-14
 -1      1103 9.88635E-03 6.39412E-05-9.27351E-14
 -1      1104 1.01690E-02 6.43647E-05-9.81701E-14
 -1      1105 1.04526E-02 6.45688E-05-1.03707E-13
 -1      1106 1.07369E-02 6.45831E-05-1.09342E-13
 -1      1107 1.10218E-02 6.44374E-05-1.15073E-13
 -1      1108 1.13069E-02 6.41595E-05-1.20885E-13
 -1      1109 1.15923E-02 6.37746E-05-1.26777E-13
 -1      1110 1.18779E-02 6.33049E-05-1.32740E-13
 -1      1111 1.21636E-02 6.27690E-05-1.38765E-13
 -1      1112 1.24494E-02 6.21825E-05-1.44846E-13
 -1      1113 1.27352E-02 6.15583E-05-1.50983E-13
 -1      1114 1.30210E-02 6.09065E-05-1.57168E-13
 -1      1115 7.21548E-03 4.11040E-05-4.51312E-14
 -1      1116 1.32291E-02 2.22466E-05-1.61739E-13
 -1      1117 7.96658E-03 5.38387E-05-5.80520E-14
 -1      1118 7.70804E-03 5.16611E-05-5.36005E-14
 -1      1119 7.45620E-03 4.94537E-05-4.92876E-14
 -1      1120 0.00000E+00 0.00000E+00 0.00000E+00
 -1      1121 0.00000E+00 0.00000E+00 0.00000E+00
 -1      1122 0.00000E+00 0.00000E+00 0.00000E+00
 -1      1123 0.00000E+00 0.00000E+00 0.00000E+00
 -1      1124 0.00000E+00 0.00000E+00 0.00000E+00
 -1      1125 0.00000E+00 0.00000E+00 0.00000E+00
 -1      1126 0.00000E+00 0.00000E+00 0.00000E+00
 -1      1127 0.00000E+00 0.00000E+00 0.00000E+00
 -1      1128 0.00000E+00 0.00000E+00 0.00000E+00
 -1      1129 0.00000E+00 0.00000E+00 0.00000E+00
 -1      1130 0.00000E+00 0.00000E+00 0.00000E+00
 -1      1131 0.00000E+00 0.00000E+00 0.00000E+00
 -1      1132 0.00000E+00 0.00000E+00 0.00000E+00
 -1      1133 0.00000E+00 0.00000E+00 0.00000E+00
 -1      1134 0.00000E+00 0.00000E+00 0.00000E+00
 -1      1135 0.00000E+00 0.00000E+00 0.00000E+00
 -1      1136 0.00000E+00 0.00000E+00 0.00000E+00
 -1      1137 2.19448E-04-1.43648E-04 2.75252E-17
 -1      1138 5.85921E-04-3.14497E-04-4.78404E-17
 -1      1139 9.06015E-04-4.21124E-04-3.15679E-16
 -1      1140 1.22420E-03-4.98047E-04-8.07798E-16
 -1      1141 1.54743E-03-5.64246E-04-1.51516E-15
 -1      1142 1.87812E-03-6.31156E-04-2.43540E-15
 -1      1143 2.21561E-03-7.07115E-04-3.56845E-15
 -1      1144 2.55603E-03-7.97900E-04-4.91312E-15
 -1      1145 2.89229E-03-9.05165E-04-6.47319E-15
 -1      1146 3.21528E-03-1.02379E-03-8.24953E-15
 -1      1147 3.51673E-03-1.14000E-03-1.02446E-14
 -1      1148 3.79368E-03-1.23286E-03-1.24553E-14
 -1      1149 4.05202E-03-1.28092E-03-1.48844E-14
 -1      1150 4.30599E-03-1.27188E-03-1.75368E-14
 -1      1151 4.57229E-03-1.20911E-03-2.04042E-14
 -1      1152 4.86254E-03-1.11011E-03-2.34715E-14
 -1      1153 5.17919E-03-9.98101E-04-2.67241E-14
 -1      1154 5.51675E-03-8.92928E-04-3.01519E-14
 -1      1155 5.86607E-03-8.06415E-04-3.37483E-14
 -1      1156 6.21825E-03-7.42490E-04-3.75123E-14
 -1      1157 6.56675E-03-6.99792E-04-4.14385E-14
 -1      1158 6.90780E-03-6.74461E-04-4.55218E-14
 -1      1159 7.23984E-03-6.62062E-04-4.97614E-14
 -1      1160 7.56286E-03-6.58592E-04-5.41546E-14
 -1      1161 7.87764E-03-6.60845E-04-5.86951E-14
 -1      1162 8.18537E-03-6.66444E-04-6.33711E-14
 -1      1163 8.48733E-03-6.73718E-04-6.81727E-14
 -1      1164 8.78470E-03-6.81556E-04-7.30985E-14
 -1      1165 9.07852E-03-6.89258E-04-7.81492E-14
 -1      1166 9.36967E-03-6.96416E-04-8.33161E-14
 -1      1167 9.65886E-03-7.02825E-04-8.85937E-14
 -1      1168 9.94663E-03-7.08412E-04-9.39851E-14
 -1      1169 1.02334E-02-7.13188E-04-9.94882E-14
 -1      1170 1.05196E-02-7.17213E-04-1.05097E-13
 -1      1171 1.08053E-02-7.20571E-04-1.10798E-13
 -1      1172 1.10907E-02-7.23355E-04-1.16578E-13
 -1      1173 1.13760E-02-7.25661E-04-1.22424E-13
 -1      1174 1.16613E-02-7.27574E-04-1.28330E-13
 -1      1175 1.19466E-02-7.29173E-04-1.34292E-13
 -1      1176 1.22318E-02-7.30526E-04-1.40316E-13
 -1      1177 1.25172E-02-7.31689E-04-1.46409E-13
 -1      1178 1.28026E-02-7.32710E-04-1.52575E-13
 -1      1179 1.30880E-02-7.33627E-04-1.58809E-13
 -1      1180 1.33735E-02-7.34471E-04-1.65087E-13
 -1      1181 1.36591E-02-7.35268E-04-1.71398E-13
 -1      1182 1.39447E-02-7.36038E-04-1.77719E-13
 -1      1183 1.42303E-02-7.36800E-04-1.84028E-13
 -1      1184 1.45160E-02-7.37566E-04-1.90318E-13
 -1      1185 1.48017E-02-7.38348E-04-1.96589E-13
 -1      1186 1.50803E-02-7.39128E-04-2.02705E-13
 -1      1187 2.36192E-04 1.55969E-04 4.64310E-17
 -1      1188 5.87779E-04 3.18995E-04 9.54098E-18
 -1      1189 9.06644E-04 4.23409E-04-2.06757E-16
 -1      1190 1.22454E-03 4.99991E-04-6.26926E-16
 -1      1191 1.54742E-03 5.66212E-04-1.25019E-15
 -1      1192 1.87764E-03 6.33126E-04-2.07730E-15
 -1      1193 2.21449E-03 7.08920E-04-3.10732E-15
 -1      1194 2.55408E-03 7.99263E-04-4.34036E-15
 -1      1195 2.88939E-03 9.05698E-04-5.78213E-15
 -1      1196 3.21146E-03 1.02308E-03-7.43685E-15
 -1      1197 3.51220E-03 1.13779E-03-9.31383E-15
 -1      1198 3.78873E-03 1.22920E-03-1.14078E-14
 -1      1199 4.04690E-03 1.27619E-03-1.37237E-14
 -1      1200 4.30072E-03 1.26664E-03-1.62641E-14
 -1      1201 4.56666E-03 1.20387E-03-1.90283E-14
 -1      1202 4.85622E-03 1.10511E-03-2.20108E-14
 -1      1203 5.17195E-03 9.93247E-04-2.51958E-14
 -1      1204 5.50851E-03 8.87915E-04-2.85678E-14
 -1      1205 5.85689E-03 8.00847E-04-3.21186E-14
 -1      1206 6.20830E-03 7.35998E-04-3.58384E-14
 -1      1207 6.55621E-03 6.92111E-04-3.97213E-14
 -1      1208 6.89683E-03 6.65431E-04-4.37695E-14
 -1      1209 7.22859E-03 6.51601E-04-4.79771E-14
 -1      1210 7.55141E-03 6.46669E-04-5.23357E-14
 -1      1211 7.86608E-03 6.47456E-04-5.68340E-14
 -1      1212 8.17374E-03 6.51595E-04-6.14623E-14
 -1      1213 8.47565E-03 6.57421E-04-6.62276E-14
 -1      1214 8.77300E-03 6.63821E-04-7.11208E-14
 -1      1215 9.06681E-03 6.70093E-04-7.61431E-14
 -1      1216 9.35795E-03 6.75829E-04-8.13017E-14
 -1      1217 9.64714E-03 6.80822E-04-8.65829E-14
 -1      1218 9.93491E-03 6.84996E-04-9.19747E-14
 -1      1219 1.02217E-02 6.88362E-04-9.74682E-14
 -1      1220 1.05078E-02 6.90978E-04-1.03063E-13
 -1      1221 1.07935E-02 6.92928E-04-1.08765E-13
 -1      1222 1.10790E-02 6.94305E-04-1.14569E-13
 -1      1223 1.13643E-02 6.95204E-04-1.20468E-13
 -1      1224 1.16496E-02 6.95711E-04-1.26454E-13
 -1      1225 1.19348E-02 6.95905E-04-1.32506E-13
 -1      1226 1.22201E-02 6.95852E-04-1.38608E-13
 -1      1227 1.25055E-02 6.95609E-04-1.44764E-13
 -1      1228 1.27908E-02 6.95224E-04-1.50966E-13
 -1      1229 1.30763E-02 6.94734E-04-1.57192E-13
 -1      1230 1.33618E-02 6.94173E-04-1.63449E-13
 -1      1231 1.36474E-02 6.93564E-04-1.69727E-13
 -1      1232 1.39330E-02 6.92928E-04-1.76036E-13
 -1      1233 1.42186E-02 6.92284E-04-1.82381E-13
 -1      1234 1.45043E-02 6.91644E-04-1.88767E-13
 -1      1235 1.47900E-02 6.91020E-04-1.95180E-13
 -1      1236 1.50686E-02 6.90430E-04-2.01446E-13
 -1      1237 1.52046E-02 6.48004E-04-2.04573E-13
 -1      1238 1.52052E-02 5.63718E-04-2.04776E-13
 -1      1239 1.52057E-02 4.79422E-04-2.04958E-13
 -1      1240 1.52063E-02 3.95105E-04-2.05101E-13
 -1      1241 1.52068E-02 3.10762E-04-2.05231E-13
 -1      1242 1.52074E-02 2.27107E-04-2.05333E-13
 -1      1243 1.52080E-02 1.43430E-04-2.05412E-13
 -1      1244 1.52086E-02 5.90199E-05-2.05473E-13
 -1      1245 1.52093E-02-2.53987E-05-2.05524E-13
 -1      1246 1.52100E-02-1.09817E-04-2.05569E-13
 -1      1247 1.52107E-02-1.94227E-04-2.05609E-13
 -1      1248 1.52115E-02-2.77904E-04-2.05657E-13
 -1      1249 1.52123E-02-3.61558E-04-2.05698E-13
 -1      1250 1.52132E-02-4.45901E-04-2.05693E-13
 -1      1251 1.52140E-02-5.30218E-04-2.05657E-13
 -1      1252 1.52148E-02-6.14513E-04-2.05656E-13
 -1      1253 1.52156E-02-6.98084E-04-2.05682E-13
 -1      1254 6.33296E-03 6.48551E-05-2.24803E-14
 -1      1255 6.23110E-03 2.06617E-04-2.21603E-14
 -1      1256 6.02561E-03 3.58073E-04-2.15464E-14
 -1      1257 5.73830E-03 5.09576E-04-2.06941E-14
 -1      1258 5.38928E-03 6.52200E-04-1.96624E-14
 -1      1259 4.99565E-03 7.73820E-04-1.84906E-14
 -1      1260 4.56566E-03 8.58584E-04-1.72095E-14
 -1      1261 4.12467E-03 8.91673E-04-1.59207E-14
 -1      1262 3.69391E-03 8.65835E-04-1.47110E-14
 -1      1263 3.24702E-03 7.81374E-04-1.35307E-14
 -1      1264 2.81189E-03 6.49927E-04-1.24665E-14
 -1      1265 2.44110E-03 4.98604E-04-1.16324E-14
 -1      1266 2.15944E-03 3.48502E-04-1.10473E-14
 -1      1267 1.96260E-03 2.01139E-04-1.06692E-14
 -1      1268 1.86374E-03 6.00061E-05-1.05041E-14
 -1      1269 1.87380E-03-8.60854E-05-1.05547E-14
 -1      1270 2.00033E-03-2.39580E-04-1.08458E-14
 -1      1271 2.21875E-03-3.88192E-04-1.13325E-14
 -1      1272 2.53044E-03-5.43399E-04-1.20484E-14
 -1      1273 2.90667E-03-6.88995E-04-1.29655E-14
 -1      1274 3.30602E-03-8.03031E-04-1.40005E-14
 -1      1275 3.74085E-03-8.76752E-04-1.51908E-14
 -1      1276 4.19802E-03-8.94988E-04-1.65012E-14
 -1      1277 4.64910E-03-8.54225E-04-1.78233E-14
 -1      1278 5.07664E-03-7.59722E-04-1.90777E-14
 -1      1279 5.45268E-03-6.36926E-04-2.01632E-14
 -1      1280 5.78109E-03-4.97247E-04-2.10879E-14
 -1      1281 6.04786E-03-3.52464E-04-2.18163E-14
 -1      1282 6.23567E-03-2.10140E-04-2.23053E-14
 -1      1283 6.33387E-03-7.04101E-05-2.25289E-14
 -1      1284 1.77585E-04-1.02929E-04-4.10642E-18
 -1      1285 1.20859E-04-4.46891E-05-4.19857E-17
 -1      1286 1.26749E-04-5.73723E-05-3.15232E-17
 -1      1287 1.13849E-04-2.80570E-05-5.91026E-17
 -1      1288 1.17210E-04-3.53365E-05-5.39120E-17
 -1      1289 2.42575E-04-8.21787E-05-1.26825E-16
 -1      1290 1.08776E-04-1.70074E-05-6.86978E-17
 -1      1291 1.11402E-04-2.20089E-05-6.59195E-17
 -1      1292 2.28673E-04-5.26205E-05-1.57697E-16
 -1      1293 1.04395E-04-9.45547E-06-7.44982E-17
 -1      1294 1.06623E-04-1.29111E-05-7.29939E-17
 -1      1295 2.17835E-04-3.23712E-05-1.75952E-16
 -1      1296 1.00761E-04-4.64553E-06-7.75069E-17
 -1      1297 1.02555E-04-6.87176E-06-7.68293E-17
 -1      1298 2.08633E-04-1.85480E-05-1.86754E-16
 -1      1299 9.79631E-05-1.82247E-06-7.92416E-17
 -1      1300 9.92781E-05-3.16938E-06-7.89435E-17
 -1      1301 2.01046E-04-9.52522E-06-1.92744E-16
 -1      1302 9.63204E-05-4.33739E-07-7.97973E-17
 -1      1303 9.70073E-05-1.19064E-06-7.97837E-17
 -1      1304 1.95509E-04-4.10649E-06-1.95753E-16
 -1      1305 9.60095E-05 3.13204E-07-7.93772E-17
 -1      1306 9.59967E-05-2.46038E-07-7.95398E-17
 -1      1307 1.92608E-04-1.05011E-06-1.96268E-16
 -1      1308 9.70662E-05 1.29248E-06-7.81303E-17
 -1      1309 9.63558E-05 5.13236E-07-7.85640E-17
 -1      1310 1.92662E-04 1.21561E-06-1.94465E-16
 -1      1311 9.93734E-05 3.34961E-06-7.57857E-17
 -1      1312 9.80411E-05 1.95980E-06-7.65582E-17
 -1      1313 1.95664E-04 4.35999E-06-1.90657E-16
 -1      1314 1.02641E-04 7.12718E-06-7.19504E-17
 -1      1315 1.00840E-04 4.85138E-06-7.31972E-17
 -1      1316 2.01220E-04 9.88411E-06-1.84043E-16
 -1      1317 1.06745E-04 1.33578E-05-6.65700E-17
 -1      1318 1.04515E-04 9.82554E-06-6.85216E-17
 -1      1319 2.08834E-04 1.91099E-05-1.74285E-16
 -1      1320 1.11506E-04 2.26479E-05-5.78151E-17
 -1      1321 1.08884E-04 1.75528E-05-6.12439E-17
 -1      1322 2.18116E-04 3.33411E-05-1.59866E-16
 -1      1323 1.17239E-04 3.61860E-05-4.37069E-17
 -1      1324 1.13915E-04 2.88182E-05-4.97784E-17
 -1      1325 2.28916E-04 5.40018E-05-1.37490E-16
 -1      1326 1.26000E-04 5.76047E-05-2.09929E-17
 -1      1327 1.20518E-04 4.56056E-05-3.20111E-17
 -1      1328 2.42603E-04 8.41851E-05-1.03514E-16
 -1      1329 1.66991E-04 1.03902E-04 1.47994E-17
 -1      1330 1.46158E-04 7.73156E-05-7.58942E-18
 -1      1331 2.77165E-04 1.31995E-04-6.28431E-17
 -1      1332 3.57436E-04 2.05178E-04-3.82181E-18
 -1      1333 4.52597E-04-2.39427E-04-7.44305E-17
 -1      1334 6.21556E-04-3.04680E-04-1.63200E-16
 -1      1335 7.86577E-04-3.57239E-04-3.10339E-16
 -1      1336 9.49559E-04-4.00727E-04-5.11608E-16
 -1      1337 6.67399E-04-2.89879E-04-2.95947E-16
 -1      1338 1.11143E-03-4.38838E-04-7.64512E-16
 -1      1339 1.27311E-03-4.73062E-04-1.07055E-15
 -1      1340 9.96512E-04-3.78344E-04-7.13852E-16
 -1      1341 1.43535E-03-5.05737E-04-1.42910E-15
 -1      1342 1.59854E-03-5.37739E-04-1.84077E-15
 -1      1343 1.32124E-03-4.47435E-04-1.33879E-15
 -1      1344 1.76294E-03-5.70709E-04-2.30463E-15
 -1      1345 1.92856E-03-6.05367E-04-2.82139E-15
 -1      1346 1.64681E-03-5.11398E-04-2.17093E-15
 -1      1347 2.09529E-03-6.42965E-04-3.38999E-15
 -1      1348 2.26275E-03-6.84029E-04-4.01086E-15
 -1      1349 1.97556E-03-5.80414E-04-3.20979E-15
 -1      1350 2.43052E-03-7.29389E-04-4.68486E-15
 -1      1351 2.59789E-03-7.79117E-04-5.41201E-15
 -1      1352 2.30738E-03-6.62346E-04-4.45631E-15
 -1      1353 2.76416E-03-8.33301E-04-6.19208E-15
 -1      1354 2.92846E-03-8.91235E-04-7.02535E-15
 -1      1355 2.63988E-03-7.61998E-04-5.91187E-15
 -1      1356 3.08999E-03-9.51829E-04-7.91309E-15
 -1      1357 3.24794E-03-1.01332E-03-8.85518E-15
 -1      1358 2.96886E-03-8.78641E-04-7.57860E-15
 -1      1359 3.40175E-03-1.07327E-03-9.85011E-15
 -1      1360 3.55115E-03-1.12901E-03-1.09004E-14
 -1      1361 3.28932E-03-1.00300E-03-9.45850E-15
 -1      1362 3.69621E-03-1.17727E-03-1.20043E-14
 -1      1363 3.83752E-03-1.21531E-03-1.31629E-14
 -1      1364 3.59746E-03-1.11616E-03-1.15551E-14
 -1      1365 3.97594E-03-1.24037E-03-1.43776E-14
 -1      1366 4.11292E-03-1.25085E-03-1.56470E-14
 -1      1367 3.89342E-03-1.19356E-03-1.38708E-14
 -1      1368 4.24983E-03-1.24600E-03-1.69720E-14
 -1      1369 4.38836E-03-1.22626E-03-1.83514E-14
 -1      1370 4.18271E-03-1.21483E-03-1.64084E-14
 -1      1371 4.52977E-03-1.19332E-03-1.97832E-14
 -1      1372 4.67522E-03-1.14947E-03-2.12664E-14
 -1      1373 4.47444E-03-1.17443E-03-1.91642E-14
 -1      1374 4.82531E-03-1.09790E-03-2.27991E-14
 -1      1375 4.98026E-03-1.04161E-03-2.43798E-14
 -1      1376 4.77686E-03-1.08499E-03-2.21283E-14
 -1      1377 5.13986E-03-9.83792E-04-2.60057E-14
 -1      1378 5.30360E-03-9.26966E-04-2.76769E-14
 -1      1379 5.09344E-03-9.70614E-04-2.52885E-14
 -1      1380 5.47075E-03-8.73238E-04-2.93911E-14
 -1      1381 5.64041E-03-8.24131E-04-3.11474E-14
 -1      1382 5.42247E-03-8.55645E-04-2.86312E-14
 -1      1383 5.81174E-03-7.80450E-04-3.29459E-14
 -1      1384 5.98387E-03-7.42760E-04-3.47860E-14
 -1      1385 5.75919E-03-7.56787E-04-3.21446E-14
 -1      1386 6.15608E-03-7.10910E-04-3.66673E-14
 -1      1387 6.32772E-03-6.84841E-04-3.85889E-14
 -1      1388 6.09827E-03-6.81369E-04-3.58240E-14
 -1      1389 6.49832E-03-6.63933E-04-4.05500E-14
 -1      1390 6.66747E-03-6.47808E-04-4.25514E-14
 -1      1391 6.43540E-03-6.29645E-04-3.96650E-14
 -1      1392 6.83494E-03-6.35732E-04-4.45923E-14
 -1      1393 7.00055E-03-6.27229E-04-4.66717E-14
 -1      1394 6.76771E-03-5.98083E-04-4.36637E-14
 -1      1395 7.16423E-03-6.21649E-04-4.87905E-14
 -1      1396 7.32596E-03-6.18531E-04-5.09466E-14
 -1      1397 7.09373E-03-5.81897E-04-4.78211E-14
 -1      1398 7.48578E-03-6.17376E-04-5.31417E-14
 -1      1399 7.64377E-03-6.17791E-04-5.53733E-14
 -1      1400 7.41305E-03-5.76502E-04-5.21319E-14
 -1      1401 7.80004E-03-6.19425E-04-5.76397E-14
 -1      1402 7.95468E-03-6.21966E-04-5.99427E-14
 -1      1403 7.72593E-03-5.78123E-04-5.65898E-14
 -1      1404 8.10785E-03-6.25188E-04-6.22776E-14
 -1      1405 8.25965E-03-6.28857E-04-6.46437E-14
 -1      1406 8.03303E-03-5.83908E-04-6.11866E-14
 -1      1407 8.41023E-03-6.32834E-04-6.70420E-14
 -1      1408 8.55971E-03-6.36952E-04-6.94713E-14
 -1      1409 8.33517E-03-5.91841E-04-6.59147E-14
 -1      1410 8.70822E-03-6.41138E-04-7.19327E-14
 -1      1411 8.85585E-03-6.45273E-04-7.44255E-14
 -1      1412 8.63322E-03-6.00568E-04-7.07695E-14
 -1      1413 9.00273E-03-6.49327E-04-7.69471E-14
 -1      1414 9.14893E-03-6.53222E-04-7.94988E-14
 -1      1415 8.92798E-03-6.09230E-04-7.57480E-14
 -1      1416 9.29456E-03-6.56952E-04-8.20811E-14
 -1      1417 9.43968E-03-6.60470E-04-8.46902E-14
 -1      1418 9.22015E-03-6.17325E-04-8.08471E-14
 -1      1419 9.58437E-03-6.63785E-04-8.73276E-14
 -1      1420 9.72869E-03-6.66869E-04-8.99935E-14
 -1      1421 9.51035E-03-6.24593E-04-8.60627E-14
 -1      1422 9.87271E-03-6.69740E-04-9.26874E-14
 -1      1423 1.00165E-02-6.72386E-04-9.54085E-14
 -1      1424 9.79906E-03-6.30935E-04-9.13913E-14
 -1      1425 1.01600E-02-6.74828E-04-9.81576E-14
 -1      1426 1.03033E-02-6.77062E-04-1.00933E-13
 -1      1427 1.00867E-02-6.36353E-04-9.68295E-14
 -1      1428 1.04465E-02-6.79109E-04-1.03734E-13
 -1      1429 1.05896E-02-6.80973E-04-1.06559E-13
 -1      1430 1.03735E-02-6.40910E-04-1.02373E-13
 -1      1431 1.07325E-02-6.82674E-04-1.09406E-13
 -1      1432 1.08754E-02-6.84217E-04-1.12273E-13
 -1      1433 1.06598E-02-6.44699E-04-1.08017E-13
 -1      1434 1.10183E-02-6.85622E-04-1.15159E-13
 -1      1435 1.11610E-02-6.86896E-04-1.18063E-13
 -1      1436 1.09458E-02-6.47827E-04-1.13745E-13
 -1      1437 1.13038E-02-6.88055E-04-1.20986E-13
 -1      1438 1.14465E-02-6.89106E-04-1.23923E-13
 -1      1439 1.12315E-02-6.50400E-04-1.19550E-13
 -1      1440 1.15892E-02-6.90065E-04-1.26874E-13
 -1      1441 1.17319E-02-6.90938E-04-1.29842E-13
 -1      1442 1.15170E-02-6.52518E-04-1.25421E-13
 -1      1443 1.18746E-02-6.91736E-04-1.32821E-13
 -1      1444 1.20172E-02-6.92468E-04-1.35815E-13
 -1      1445 1.18025E-02-6.54271E-04-1.31350E-13
 -1      1446 1.21599E-02-6.93142E-04-1.38828E-13
 -1      1447 1.23026E-02-6.93764E-04-1.41858E-13
 -1      1448 1.20880E-02-6.55737E-04-1.37342E-13
 -1      1449 1.24453E-02-6.94342E-04-1.44903E-13
 -1      1450 1.25880E-02-6.94882E-04-1.47965E-13
 -1      1451 1.23734E-02-6.56980E-04-1.43398E-13
 -1      1452 1.27308E-02-6.95388E-04-1.51046E-13
 -1      1453 1.28735E-02-6.95867E-04-1.54144E-13
 -1      1454 1.26589E-02-6.58056E-04-1.49522E-13
 -1      1455 1.30162E-02-6.96321E-04-1.57256E-13
 -1      1456 1.31590E-02-6.96756E-04-1.60382E-13
 -1      1457 1.29444E-02-6.59009E-04-1.55709E-13
 -1      1458 1.33018E-02-6.97174E-04-1.63518E-13
 -1      1459 1.34445E-02-6.97580E-04-1.66659E-13
 -1      1460 1.32300E-02-6.59874E-04-1.61950E-13
 -1      1461 1.35873E-02-6.97975E-04-1.69810E-13
 -1      1462 1.37301E-02-6.98362E-04-1.72968E-13
 -1      1463 1.35156E-02-6.60680E-04-1.68231E-13
 -1      1464 1.38729E-02-6.98745E-04-1.76126E-13
 -1      1465 1.40158E-02-6.99124E-04-1.79280E-13
 -1      1466 1.38012E-02-6.61452E-04-1.74535E-13
 -1      1467 1.41586E-02-6.99502E-04-1.82436E-13
 -1      1468 1.43014E-02-6.99881E-04-1.85586E-13
 -1      1469 1.40868E-02-6.62206E-04-1.80845E-13
 -1      1470 1.44442E-02-7.00262E-04-1.88733E-13
 -1      1471 1.45871E-02-7.00647E-04-1.91872E-13
 -1      1472 1.43725E-02-6.62961E-04-1.87146E-13
 -1      1473 1.47299E-02-7.01037E-04-1.95010E-13
 -1      1474 1.48728E-02-7.01432E-04-1.98148E-13
 -1      1475 1.46582E-02-6.63728E-04-1.93431E-13
 -1      1476 1.50799E-02-6.97700E-04-2.02697E-13
 -1      1477 1.50081E-02-6.60383E-04-2.01118E-13
 -1      1478 6.96557E-04 3.37224E-04-1.30917E-16
 -1      1479 5.29784E-04 2.77924E-04-4.20535E-17
 -1      1480 4.81741E-04 2.37507E-04-8.57875E-17
 -1      1481 1.02182E-03 4.25602E-04-4.58712E-16
 -1      1482 8.60040E-04 3.84667E-04-2.69993E-16
 -1      1483 8.14577E-04 3.45226E-04-3.22794E-16
 -1      1484 1.34458E-03 4.95232E-04-9.85242E-16
 -1      1485 1.18296E-03 4.61785E-04-6.96763E-16
 -1      1486 1.14029E-03 4.23237E-04-7.56705E-16
 -1      1487 1.67052E-03 5.59870E-04-1.71219E-15
 -1      1488 1.50688E-03 5.27596E-04-1.32353E-15
 -1      1489 1.46466E-03 4.88964E-04-1.38725E-15
 -1      1490 2.00143E-03 6.29206E-04-2.64080E-15
 -1      1491 1.83530E-03 5.93549E-04-2.15103E-15
 -1      1492 1.79153E-03 5.54166E-04-2.21641E-15
 -1      1493 2.33610E-03 7.10680E-04-3.77109E-15
 -1      1494 2.16845E-03 6.68215E-04-3.18079E-15
 -1      1495 2.12196E-03 6.27773E-04-3.24521E-15
 -1      1496 2.67054E-03 8.08731E-04-5.10604E-15
 -1      1497 2.50369E-03 7.57728E-04-4.41315E-15
 -1      1498 2.45448E-03 7.16362E-04-4.47641E-15
 -1      1499 2.99866E-03 9.22488E-04-6.64867E-15
 -1      1500 2.83586E-03 8.64188E-04-5.85075E-15
 -1      1501 2.78544E-03 8.22572E-04-5.91138E-15
 -1      1502 3.31376E-03 1.04308E-03-8.40708E-15
 -1      1503 3.15827E-03 9.82974E-04-7.50075E-15
 -1      1504 3.10977E-03 9.42336E-04-7.55513E-15
 -1      1505 3.61131E-03 1.15272E-03-1.03860E-14
 -1      1506 3.46489E-03 1.10064E-03-9.36912E-15
 -1      1507 3.42253E-03 1.06249E-03-9.41579E-15
 -1      1508 3.89206E-03 1.22846E-03-1.25819E-14
 -1      1509 3.75348E-03 1.19605E-03-1.14557E-14
 -1      1510 3.72145E-03 1.16157E-03-1.14945E-14
 -1      1511 4.16348E-03 1.25109E-03-1.50035E-14
 -1      1512 4.02820E-03 1.24690E-03-1.37647E-14
 -1      1513 4.00928E-03 1.21615E-03-1.37959E-14
 -1      1514 4.43746E-03 1.21475E-03-1.76475E-14
 -1      1515 4.29930E-03 1.23973E-03-1.62974E-14
 -1      1516 4.29384E-03 1.21147E-03-1.63212E-14
 -1      1517 4.72517E-03 1.13034E-03-2.05126E-14
 -1      1518 4.57902E-03 1.17720E-03-1.90527E-14
 -1      1519 4.58488E-03 1.14949E-03-1.90682E-14
 -1      1520 5.03229E-03 1.01999E-03-2.35899E-14
 -1      1521 4.87618E-03 1.07687E-03-2.20260E-14
 -1      1522 4.88941E-03 1.04805E-03-2.20327E-14
 -1      1523 5.35786E-03 9.06870E-04-2.68627E-14
 -1      1524 5.19304E-03 9.62603E-04-2.52026E-14
 -1      1525 5.20909E-03 9.31847E-04-2.52025E-14
 -1      1526 5.69628E-03 8.07698E-04-3.03185E-14
 -1      1527 5.52592E-03 8.54950E-04-2.85688E-14
 -1      1528 5.54081E-03 8.22260E-04-2.85625E-14
 -1      1529 6.04048E-03 7.30359E-04-3.39489E-14
 -1      1530 5.86811E-03 7.66187E-04-3.21129E-14
 -1      1531 5.87917E-03 7.32038E-04-3.21011E-14
 -1      1532 6.38427E-03 6.75807E-04-3.77445E-14
 -1      1533 6.21278E-03 7.00405E-04-3.58261E-14
 -1      1534 6.21878E-03 6.65404E-04-3.58076E-14
 -1      1535 6.72336E-03 6.41061E-04-4.17026E-14
 -1      1536 6.55461E-03 6.56240E-04-3.97027E-14
 -1      1537 6.55548E-03 6.20928E-04-3.96784E-14
 -1      1538 7.05543E-03 6.21685E-04-4.58256E-14
 -1      1539 6.89037E-03 6.29740E-04-4.37443E-14
 -1      1540 6.88670E-03 5.94515E-04-4.37124E-14
 -1      1541 7.37969E-03 6.13281E-04-5.00972E-14
 -1      1542 7.21855E-03 6.16358E-04-4.79427E-14
 -1      1543 7.21124E-03 5.81470E-04-4.79025E-14
 -1      1544 7.69636E-03 6.12143E-04-5.45196E-14
 -1      1545 7.53894E-03 6.11995E-04-5.22912E-14
 -1      1546 7.52891E-03 5.77571E-04-5.22420E-14
 -1      1547 8.00621E-03 6.15433E-04-5.90750E-14
 -1      1548 7.85208E-03 6.13374E-04-5.67808E-14
 -1      1549 7.84015E-03 5.79456E-04-5.67216E-14
 -1      1550 8.31024E-03 6.21112E-04-6.37616E-14
 -1      1551 8.15888E-03 6.18071E-04-6.14006E-14
 -1      1552 8.14571E-03 5.84644E-04-6.13343E-14
 -1      1553 8.60951E-03 6.27792E-04-6.85844E-14
 -1      1554 8.46041E-03 6.24391E-04-6.61574E-14
 -1      1555 8.44649E-03 5.91411E-04-6.60827E-14
 -1      1556 8.90500E-03 6.34576E-04-7.35338E-14
 -1      1557 8.75767E-03 6.31211E-04-7.10425E-14
 -1      1558 8.74337E-03 5.98618E-04-7.09599E-14
 -1      1559 9.19755E-03 6.40927E-04-7.86161E-14
 -1      1560 9.05159E-03 6.37828E-04-7.60574E-14
 -1      1561 9.03714E-03 6.05561E-04-7.59669E-14
 -1      1562 9.48789E-03 6.46553E-04-8.38241E-14
 -1      1563 9.34296E-03 6.43841E-04-8.12052E-14
 -1      1564 9.32852E-03 6.11838E-04-8.11027E-14
 -1      1565 9.77659E-03 6.51330E-04-8.91516E-14
 -1      1566 9.63241E-03 6.49051E-04-8.64739E-14
 -1      1567 9.61809E-03 6.17258E-04-8.63617E-14
 -1      1568 1.00641E-02 6.55240E-04-9.45872E-14
 -1      1569 9.92047E-03 6.53392E-04-9.18563E-14
 -1      1570 9.90630E-03 6.21764E-04-9.17343E-14
 -1      1571 1.03508E-02 6.58329E-04-1.00124E-13
 -1      1572 1.02075E-02 6.56883E-04-9.73421E-14
 -1      1573 1.01935E-02 6.25381E-04-9.72127E-14
 -1      1574 1.06369E-02 6.60680E-04-1.05766E-13
 -1      1575 1.04939E-02 6.59591E-04-1.02930E-13
 -1      1576 1.04801E-02 6.28183E-04-1.02794E-13
 -1      1577 1.09227E-02 6.62388E-04-1.11509E-13
 -1      1578 1.07798E-02 6.61608E-04-1.08625E-13
 -1      1579 1.07662E-02 6.30269E-04-1.08480E-13
 -1      1580 1.12082E-02 6.63553E-04-1.17352E-13
 -1      1581 1.10655E-02 6.63032E-04-1.14419E-13
 -1      1582 1.10520E-02 6.31742E-04-1.14265E-13
 -1      1583 1.14936E-02 6.64271E-04-1.23283E-13
 -1      1584 1.13509E-02 6.63963E-04-1.20306E-13
 -1      1585 1.13376E-02 6.32707E-04-1.20143E-13
 -1      1586 1.17790E-02 6.64629E-04-1.29292E-13
 -1      1587 1.16363E-02 6.64490E-04-1.26279E-13
 -1      1588 1.16231E-02 6.33258E-04-1.26102E-13
 -1      1589 1.20644E-02 6.64700E-04-1.35360E-13
 -1      1590 1.19217E-02 6.64696E-04-1.32318E-13
 -1      1591 1.19085E-02 6.33478E-04-1.32131E-13
 -1      1592 1.23497E-02 6.64550E-04-1.41483E-13
 -1      1593 1.22070E-02 6.64649E-04-1.38416E-13
 -1      1594 1.21939E-02 6.33440E-04-1.38219E-13
 -1      1595 1.26351E-02 6.64232E-04-1.47657E-13
 -1      1596 1.24924E-02 6.64409E-04-1.44563E-13
 -1      1597 1.24794E-02 6.33204E-04-1.44363E-13
 -1      1598 1.29206E-02 6.63790E-04-1.53866E-13
 -1      1599 1.27779E-02 6.64024E-04-1.50758E-13
 -1      1600 1.27649E-02 6.32821E-04-1.50551E-13
 -1      1601 1.32061E-02 6.63258E-04-1.60107E-13
 -1      1602 1.30633E-02 6.63533E-04-1.56982E-13
 -1      1603 1.30504E-02 6.32329E-04-1.56771E-13
 -1      1604 1.34917E-02 6.62667E-04-1.66370E-13
 -1      1605 1.33489E-02 6.62969E-04-1.63236E-13
 -1      1606 1.33359E-02 6.31763E-04-1.63023E-13
 -1      1607 1.37772E-02 6.62039E-04-1.72665E-13
 -1      1608 1.36344E-02 6.62356E-04-1.69515E-13
 -1      1609 1.36215E-02 6.31148E-04-1.69300E-13
 -1      1610 1.40629E-02 6.61393E-04-1.78989E-13
 -1      1611 1.39201E-02 6.61717E-04-1.75823E-13
 -1      1612 1.39071E-02 6.30505E-04-1.75606E-13
 -1      1613 1.43485E-02 6.60745E-04-1.85352E-13
 -1      1614 1.42057E-02 6.61069E-04-1.82165E-13
 -1      1615 1.41928E-02 6.29854E-04-1.81946E-13
 -1      1616 1.46342E-02 6.60109E-04-1.91744E-13
 -1      1617 1.44914E-02 6.60425E-04-1.88544E-13
 -1      1618 1.44785E-02 6.29207E-04-1.88322E-13
 -1      1619 1.49199E-02 6.59493E-04-1.98163E-13
 -1      1620 1.47771E-02 6.59799E-04-1.94952E-13
 -1      1621 1.47642E-02 6.28577E-04-1.94725E-13
 -1      1622 1.50689E-02 6.48287E-04-2.01530E-13
 -1      1623 1.50816E-02 5.42899E-04-2.02036E-13
 -1      1624 1.50813E-02 5.85046E-04-2.01941E-13
 -1      1625 1.50821E-02 4.58594E-04-2.02205E-13
 -1      1626 1.50819E-02 5.00749E-04-2.02124E-13
 -1      1627 1.49580E-02 5.22083E-04-1.99294E-13
 -1      1628 1.50827E-02 3.74271E-04-2.02352E-13
 -1      1629 1.50824E-02 4.16435E-04-2.02279E-13
 -1      1630 1.49586E-02 4.37773E-04-1.99458E-13
 -1      1631 1.50832E-02 2.89925E-04-2.02479E-13
 -1      1632 1.50830E-02 3.32101E-04-2.02421E-13
 -1      1633 1.49591E-02 3.53446E-04-1.99606E-13
 -1      1634 1.50838E-02 2.06989E-04-2.02580E-13
 -1      1635 1.50835E-02 2.48459E-04-2.02530E-13
 -1      1636 1.49596E-02 2.69815E-04-1.99729E-13
 -1      1637 1.50844E-02 1.22604E-04-2.02659E-13
 -1      1638 1.50841E-02 1.64798E-04-2.02623E-13
 -1      1639 1.49602E-02 1.86167E-04-1.99830E-13
 -1      1640 1.50850E-02 3.82075E-05-2.02727E-13
 -1      1641 1.50847E-02 8.04071E-05-2.02693E-13
 -1      1642 1.49608E-02 1.01791E-04-1.99913E-13
 -1      1643 1.50857E-02-4.61949E-05-2.02785E-13
 -1      1644 1.50854E-02-3.99345E-06-2.02760E-13
 -1      1645 1.49615E-02 1.74048E-05-1.99986E-13
 -1      1646 1.50864E-02-1.30595E-04-2.02833E-13
 -1      1647 1.50861E-02-8.83958E-05-2.02809E-13
 -1      1648 1.49622E-02-6.69841E-05-2.00049E-13
 -1      1649 1.50872E-02-2.14986E-04-2.02876E-13
 -1      1650 1.50868E-02-1.72792E-04-2.02854E-13
 -1      1651 1.49629E-02-1.51370E-04-2.00098E-13
 -1      1652 1.50880E-02-2.97932E-04-2.02919E-13
 -1      1653 1.50876E-02-2.56461E-04-2.02900E-13
 -1      1654 1.49637E-02-2.35031E-04-2.00144E-13
 -1      1655 1.50888E-02-3.82288E-04-2.02951E-13
 -1      1656 1.50884E-02-3.40113E-04-2.02938E-13
 -1      1657 1.49645E-02-3.18679E-04-2.00184E-13
 -1      1658 1.50897E-02-4.66622E-04-2.02944E-13
 -1      1659 1.50892E-02-4.24458E-04-2.02953E-13
 -1      1660 1.49653E-02-4.03025E-04-2.00206E-13
 -1      1661 1.50905E-02-5.50935E-04-2.02936E-13
 -1      1662 1.50901E-02-5.08781E-04-2.02939E-13
 -1      1663 1.49661E-02-4.87351E-04-2.00210E-13
 -1      1664 1.50495E-02-6.26735E-04-2.02028E-13
 -1      1665 1.50491E-02-5.84587E-04-2.02018E-13
 -1      1666 1.49252E-02-5.63163E-04-1.99297E-13
 -1      1667 1.48424E-02-6.30469E-04-1.97477E-13
 -1      1668 6.32929E-03 6.40060E-05-2.30923E-14
 -1      1669 6.35754E-03 2.10990E-05-2.31847E-14
 -1      1670 6.17774E-03 1.68846E-04-2.27030E-14
 -1      1671 6.26325E-03 1.16748E-04-2.29421E-14
 -1      1672 5.90698E-03 3.03721E-04-2.19732E-14
 -1      1673 6.04425E-03 2.35629E-04-2.23657E-14
 -1      1674 5.58009E-03 4.74269E-04-2.09094E-14
 -1      1675 5.73850E-03 3.97963E-04-2.13828E-14
 -1      1676 5.19201E-03 6.44040E-04-1.97586E-14
 -1      1677 5.37063E-03 5.61255E-04-2.03376E-14
 -1      1678 4.81338E-03 8.01954E-04-1.84215E-14
 -1      1679 4.98768E-03 7.34938E-04-1.90284E-14
 -1      1680 4.41236E-03 9.12570E-04-1.69817E-14
 -1      1681 4.59674E-03 8.69256E-04-1.76620E-14
 -1      1682 4.03760E-03 9.36347E-04-1.56089E-14
 -1      1683 4.20703E-03 9.34447E-04-1.62139E-14
 -1      1684 3.65914E-03 8.81287E-04-1.43115E-14
 -1      1685 3.83586E-03 9.18201E-04-1.49008E-14
 -1      1686 3.25846E-03 7.41075E-04-1.30264E-14
 -1      1687 3.45014E-03 8.16325E-04-1.35885E-14
 -1      1688 2.82843E-03 5.52682E-04-1.19537E-14
 -1      1689 3.02088E-03 6.42258E-04-1.24207E-14
 -1      1690 2.43573E-03 3.83555E-04-1.11961E-14
 -1      1691 2.60113E-03 4.62924E-04-1.15351E-14
 -1      1692 2.13931E-03 2.36486E-04-1.06441E-14
 -1      1693 2.26551E-03 2.99898E-04-1.08694E-14
 -1      1694 1.92982E-03 1.09447E-04-1.02572E-14
 -1      1695 2.01601E-03 1.60708E-04-1.03902E-14
 -1      1696 1.83996E-03 1.92039E-05-1.01803E-14
 -1      1697 1.86550E-03 6.01294E-05-1.02086E-14
 -1      1698 1.88370E-03-7.56163E-05-1.02041E-14
 -1      1699 1.84257E-03-3.05762E-05-1.01204E-14
 -1      1700 2.06625E-03-1.96736E-04-1.06185E-14
 -1      1701 1.96905E-03-1.42401E-04-1.04325E-14
 -1      1702 2.33854E-03-3.40215E-04-1.11883E-14
 -1      1703 2.20216E-03-2.72799E-04-1.09103E-14
 -1      1704 2.71552E-03-5.09557E-04-1.19693E-14
 -1      1705 2.53353E-03-4.22499E-04-1.15541E-14
 -1      1706 3.09424E-03-6.91230E-04-1.29904E-14
 -1      1707 2.91781E-03-6.13421E-04-1.25237E-14
 -1      1708 3.48107E-03-8.37505E-04-1.41233E-14
 -1      1709 3.30221E-03-7.74469E-04-1.35798E-14
 -1      1710 3.88059E-03-9.32119E-04-1.54265E-14
 -1      1711 3.70043E-03-8.97920E-04-1.47986E-14
 -1      1712 4.27331E-03-9.42705E-04-1.68803E-14
 -1      1713 4.09667E-03-9.51339E-04-1.62093E-14
 -1      1714 4.67718E-03-8.54911E-04-1.82994E-14
 -1      1715 4.49496E-03-9.02175E-04-1.76486E-14
 -1      1716 5.06329E-03-7.08027E-04-1.96961E-14
 -1      1717 4.88225E-03-7.82282E-04-1.90822E-14
 -1      1718 5.43714E-03-5.48973E-04-2.07996E-14
 -1      1719 5.27589E-03-6.23432E-04-2.03076E-14
 -1      1720 5.77733E-03-3.74564E-04-2.18712E-14
 -1      1721 5.61771E-03-4.51867E-04-2.14245E-14
 -1      1722 6.06514E-03-2.42704E-04-2.25440E-14
 -1      1723 5.94725E-03-3.02825E-04-2.22418E-14
 -1      1724 6.26749E-03-1.21683E-04-2.30783E-14
 -1      1725 6.18353E-03-1.73273E-04-2.28843E-14
 -1      1726 6.35807E-03-2.79029E-05-2.32137E-14
 -1      1727 6.33147E-03-6.96786E-05-2.31708E-14
 -1      1728 5.41268E-03 4.76199E-04-2.10323E-14
 -1      1729 5.78457E-03 2.94388E-04-2.22169E-14
 -1      1730 1.50559E-02 6.17064E-04-2.01304E-13
 -1      1731 1.49324E-02 5.96252E-04-1.98569E-13
 -1      1732 6.29816E-03 6.23946E-05-2.36720E-14
 -1      1733 6.09284E-03 1.52579E-04-2.31689E-14
 -1      1734 6.36708E-03-3.43032E-06-2.38562E-14
 -1      1735 5.02783E-03 6.69799E-04-1.97030E-14
 -1      1736 4.65033E-03 8.44101E-04-1.81948E-14
 -1      1737 4.29684E-03 9.47529E-04-1.66580E-14
 -1      1738 3.95023E-03 9.52079E-04-1.51849E-14
 -1      1739 3.59714E-03 8.57370E-04-1.37654E-14
 -1      1740 3.20736E-03 6.72739E-04-1.24653E-14
 -1      1741 2.77964E-03 4.65299E-04-1.14743E-14
 -1      1742 2.39152E-03 2.88435E-04-1.07533E-14
 -1      1743 2.09178E-03 1.46953E-04-1.01912E-14
 -1      1744 1.89595E-03 5.82587E-05-9.90237E-15
 -1      1745 1.83141E-03-7.43007E-06-9.79538E-15
 -1      1746 1.92378E-03-7.10907E-05-9.95236E-15
 -1      1747 2.15448E-03-1.81433E-04-1.04559E-14
 -1      1748 2.48653E-03-3.29458E-04-1.10913E-14
 -1      1749 2.87321E-03-5.20665E-04-1.19806E-14
 -1      1750 3.26040E-03-7.20258E-04-1.31020E-14
 -1      1751 3.64030E-03-8.80136E-04-1.43490E-14
 -1      1752 4.00420E-03-9.68893E-04-1.57959E-14
 -1      1753 4.35216E-03-9.45593E-04-1.73506E-14
 -1      1754 4.72805E-03-8.21512E-04-1.89146E-14
 -1      1755 5.09911E-03-6.44201E-04-2.03336E-14
 -1      1756 5.47381E-03-4.53068E-04-2.15917E-14
 -1      1757 5.81970E-03-2.85343E-04-2.26134E-14
 -1      1758 6.11115E-03-1.57691E-04-2.33416E-14
 -1      1759 6.30122E-03-6.86187E-05-2.37879E-14
 -1      1760 3.07844E-04-1.58123E-04-7.00666E-17
 -1      1761 3.44110E-04-7.49464E-05-2.51521E-16
 -1      1762 3.53991E-04-9.28047E-05-2.34445E-16
 -1      1763 3.65370E-04-1.14382E-04-2.13940E-16
 -1      1764 3.79455E-04-1.39966E-04-1.85304E-16
 -1      1765 4.86710E-04-1.39505E-04-3.40236E-16
 -1      1766 3.12433E-04-2.77439E-05-2.88330E-16
 -1      1767 3.19290E-04-3.64032E-05-2.82421E-16
 -1      1768 3.00700E-04-1.46937E-05-2.96041E-16
 -1      1769 3.06150E-04-2.04817E-05-2.92735E-16
 -1      1770 4.15029E-04-3.52345E-05-4.28870E-16
 -1      1771 2.92661E-04-6.45575E-06-2.99308E-16
 -1      1772 2.96154E-04-1.00767E-05-2.98047E-16
 -1      1773 3.99459E-04-1.87839E-05-4.37841E-16
 -1      1774 2.89111E-04-1.03173E-06-2.99064E-16
 -1      1775 2.90283E-04-3.52145E-06-2.99660E-16
 -1      1776 3.89479E-04-7.83123E-06-4.41135E-16
 -1      1777 2.90453E-04 3.86879E-06-2.95648E-16
 -1      1778 2.89169E-04 1.34269E-06-2.97817E-16
 -1      1779 3.86151E-04 2.55121E-07-4.39698E-16
 -1      1780 2.96526E-04 1.06017E-05-2.88845E-16
 -1      1781 2.92938E-04 6.87556E-06-2.92748E-16
 -1      1782 3.89868E-04 8.44671E-06-4.33654E-16
 -1      1783 3.06472E-04 2.10827E-05-2.78139E-16
 -1      1784 3.01069E-04 1.52652E-05-2.84332E-16
 -1      1785 4.00068E-04 1.95844E-05-4.22839E-16
 -1      1786 3.19782E-04 3.74673E-05-2.62390E-16
 -1      1787 3.12783E-04 2.84845E-05-2.71186E-16
 -1      1788 4.15687E-04 3.62724E-05-4.06359E-16
 -1      1789 3.35698E-04 6.13502E-05-2.38646E-16
 -1      1790 3.27439E-04 4.84144E-05-2.52063E-16
 -1      1791 4.35723E-04 6.08832E-05-3.82073E-16
 -1      1792 3.54569E-04 9.51450E-05-2.02393E-16
 -1      1793 3.44670E-04 7.69178E-05-2.22858E-16
 -1      1794 4.59411E-04 9.54572E-05-3.46037E-16
 -1      1795 3.80035E-04 1.43835E-04-1.47573E-16
 -1      1796 3.66137E-04 1.17389E-04-1.78229E-16
 -1      1797 4.88043E-04 1.43193E-04-2.92260E-16
 -1      1798 4.42315E-04 2.03605E-04-1.09952E-16
 -1      1799 4.09541E-04 1.70149E-04-1.34943E-16
 -1      1800 5.36609E-04 2.00415E-04-2.44555E-16
 -1      1801 6.08072E-04 2.62504E-04-2.06419E-16
 -1      1802 3.69088E-04-1.63557E-04-1.30497E-16
 -1      1803 9.36515E-04 3.53341E-04-5.47644E-16
 -1      1804 7.72683E-04 3.11376E-04-3.53138E-16
 -1      1805 7.33588E-04 2.78498E-04-3.77533E-16
 -1      1806 4.98233E-04-1.97999E-04-2.39839E-16
 -1      1807 8.82758E-04-3.18203E-04-6.56783E-16
 -1      1808 1.04524E-03-3.55570E-04-9.25068E-16
 -1      1809 1.20669E-03-3.89665E-04-1.24355E-15
 -1      1810 1.36829E-03-4.21484E-04-1.61352E-15
 -1      1811 1.09374E-03-3.32775E-04-1.14470E-15
 -1      1812 1.53014E-03-4.53012E-04-2.03398E-15
 -1      1813 1.69255E-03-4.84964E-04-2.50598E-15
 -1      1814 1.41394E-03-3.95781E-04-1.89497E-15
 -1      1815 1.85596E-03-5.18893E-04-3.02883E-15
 -1      1816 2.02002E-03-5.55501E-04-3.60251E-15
 -1      1817 1.73640E-03-4.58727E-04-2.84627E-15
 -1      1818 2.18531E-03-5.95910E-04-4.22737E-15
 -1      1819 2.35093E-03-6.40659E-04-4.90417E-15
 -1      1820 2.06303E-03-5.30629E-04-3.99928E-15
 -1      1821 2.51754E-03-6.90247E-04-5.63276E-15
 -1      1822 2.68371E-03-7.44673E-04-6.41283E-15
 -1      1823 2.39457E-03-6.18799E-04-5.35501E-15
 -1      1824 2.85004E-03-8.03426E-04-7.24548E-15
 -1      1825 3.01487E-03-8.65544E-04-8.13123E-15
 -1      1826 2.73000E-03-7.26979E-04-6.91550E-15
 -1      1827 3.17856E-03-9.29174E-04-9.07014E-15
 -1      1828 3.33975E-03-9.91911E-04-1.00623E-14
 -1      1829 3.06588E-03-8.52075E-04-8.68404E-15
 -1      1830 3.49835E-03-1.05070E-03-1.11087E-14
 -1      1831 3.65434E-03-1.10212E-03-1.22096E-14
 -1      1832 3.39674E-03-9.80412E-04-1.06653E-14
 -1      1833 3.80710E-03-1.14284E-03-1.33663E-14
 -1      1834 3.95857E-03-1.16979E-03-1.45787E-14
 -1      1835 3.71763E-03-1.08715E-03-1.28639E-14
 -1      1836 4.10785E-03-1.18099E-03-1.58468E-14
 -1      1837 4.25821E-03-1.17557E-03-1.71697E-14
 -1      1838 4.02869E-03-1.14361E-03-1.52856E-14
 -1      1839 4.40867E-03-1.15408E-03-1.85460E-14
 -1      1840 4.56218E-03-1.11841E-03-1.99764E-14
 -1      1841 4.33705E-03-1.13209E-03-1.79293E-14
 -1      1842 4.71788E-03-1.07136E-03-2.14588E-14
 -1      1843 4.87701E-03-1.01643E-03-2.29917E-14
 -1      1844 4.65215E-03-1.05732E-03-2.07896E-14
 -1      1845 5.03908E-03-9.57168E-04-2.45722E-14
 -1      1846 5.20350E-03-8.96798E-04-2.61988E-14
 -1      1847 4.97870E-03-9.43643E-04-2.38560E-14
 -1      1848 5.37028E-03-8.38164E-04-2.78710E-14
 -1      1849 5.53787E-03-7.83262E-04-2.95866E-14
 -1      1850 5.31439E-03-8.20685E-04-2.71110E-14
 -1      1851 5.70665E-03-7.33641E-04-3.13438E-14
 -1      1852 5.87498E-03-6.89970E-04-3.31423E-14
 -1      1853 5.65334E-03-7.10636E-04-3.05435E-14
 -1      1854 6.04340E-03-6.52632E-04-3.49821E-14
 -1      1855 6.21061E-03-6.21524E-04-3.68623E-14
 -1      1856 5.99032E-03-6.24320E-04-3.41416E-14
 -1      1857 6.37707E-03-5.96286E-04-3.87824E-14
 -1      1858 6.54197E-03-5.76447E-04-4.07406E-14
 -1      1859 6.32224E-03-5.63587E-04-3.79012E-14
 -1      1860 6.70564E-03-5.61328E-04-4.27398E-14
 -1      1861 6.86767E-03-5.50387E-04-4.47783E-14
 -1      1862 6.64790E-03-5.25352E-04-4.18179E-14
 -1      1863 7.02824E-03-5.42902E-04-4.68555E-14
 -1      1864 7.18725E-03-5.38383E-04-4.89710E-14
 -1      1865 6.96721E-03-5.04674E-04-4.58926E-14
 -1      1866 7.34477E-03-5.36209E-04-5.11248E-14
 -1      1867 7.50086E-03-5.35983E-04-5.33151E-14
 -1      1868 7.28061E-03-4.96585E-04-5.01208E-14
 -1      1869 7.65555E-03-5.37227E-04-5.55417E-14
 -1      1870 7.80900E-03-5.39639E-04-5.78033E-14
 -1      1871 7.58875E-03-4.96865E-04-5.44976E-14
 -1      1872 7.96120E-03-5.42884E-04-6.00987E-14
 -1      1873 8.11234E-03-5.46740E-04-6.24289E-14
 -1      1874 7.89233E-03-5.02256E-04-5.90153E-14
 -1      1875 8.26243E-03-5.50988E-04-6.47910E-14
 -1      1876 8.41164E-03-5.55469E-04-6.71833E-14
 -1      1877 8.19204E-03-5.10407E-04-6.36687E-14
 -1      1878 8.55997E-03-5.60053E-04-6.96100E-14
 -1      1879 8.70759E-03-5.64630E-04-7.20663E-14
 -1      1880 8.48853E-03-5.19712E-04-6.84522E-14
 -1      1881 8.85450E-03-5.69131E-04-7.45530E-14
 -1      1882 9.00086E-03-5.73485E-04-7.70705E-14
 -1      1883 8.78240E-03-5.29132E-04-7.33605E-14
 -1      1884 9.14666E-03-5.77661E-04-7.96175E-14
 -1      1885 9.29202E-03-5.81616E-04-8.21947E-14
 -1      1886 9.07416E-03-5.38043E-04-7.83911E-14
 -1      1887 9.43695E-03-5.85345E-04-8.48002E-14
 -1      1888 9.58155E-03-5.88824E-04-8.74331E-14
 -1      1889 9.36427E-03-5.46107E-04-8.35398E-14
 -1      1890 9.72583E-03-5.92065E-04-9.00960E-14
 -1      1891 9.86986E-03-5.95054E-04-9.27858E-14
 -1      1892 9.65309E-03-5.53182E-04-8.88028E-14
 -1      1893 1.00136E-02-5.97813E-04-9.55042E-14
 -1      1894 1.01573E-02-6.00336E-04-9.82485E-14
 -1      1895 9.94094E-03-5.59246E-04-9.41798E-14
 -1      1896 1.03007E-02-6.02649E-04-1.01016E-13
 -1      1897 1.04440E-02-6.04752E-04-1.03810E-13
 -1      1898 1.02281E-02-5.64356E-04-9.96614E-14
 -1      1899 1.05872E-02-6.06669E-04-1.06630E-13
 -1      1900 1.07303E-02-6.08406E-04-1.09472E-13
 -1      1901 1.05147E-02-5.68605E-04-1.05246E-13
 -1      1902 1.08733E-02-6.09984E-04-1.12334E-13
 -1      1903 1.10162E-02-6.11410E-04-1.15214E-13
 -1      1904 1.08009E-02-5.72108E-04-1.10922E-13
 -1      1905 1.11591E-02-6.12705E-04-1.18115E-13
 -1      1906 1.13020E-02-6.13875E-04-1.21034E-13
 -1      1907 1.10869E-02-5.74980E-04-1.16683E-13
 -1      1908 1.14448E-02-6.14939E-04-1.23967E-13
 -1      1909 1.15876E-02-6.15902E-04-1.26917E-13
 -1      1910 1.13726E-02-5.77333E-04-1.22515E-13
 -1      1911 1.17304E-02-6.16780E-04-1.29881E-13
 -1      1912 1.18732E-02-6.17579E-04-1.32859E-13
 -1      1913 1.16583E-02-5.79266E-04-1.28412E-13
 -1      1914 1.20160E-02-6.18311E-04-1.35855E-13
 -1      1915 1.21587E-02-6.18982E-04-1.38868E-13
 -1      1916 1.19440E-02-5.80867E-04-1.34371E-13
 -1      1917 1.23015E-02-6.19603E-04-1.41896E-13
 -1      1918 1.24443E-02-6.20177E-04-1.44939E-13
 -1      1919 1.22296E-02-5.82210E-04-1.40394E-13
 -1      1920 1.25870E-02-6.20713E-04-1.48000E-13
 -1      1921 1.27298E-02-6.21214E-04-1.51076E-13
 -1      1922 1.25151E-02-5.83357E-04-1.46481E-13
 -1      1923 1.28726E-02-6.21688E-04-1.54167E-13
 -1      1924 1.30154E-02-6.22138E-04-1.57272E-13
 -1      1925 1.28007E-02-5.84359E-04-1.52628E-13
 -1      1926 1.31582E-02-6.22568E-04-1.60392E-13
 -1      1927 1.33010E-02-6.22982E-04-1.63519E-13
 -1      1928 1.30863E-02-5.85256E-04-1.58835E-13
 -1      1929 1.34438E-02-6.23383E-04-1.66658E-13
 -1      1930 1.35866E-02-6.23773E-04-1.69802E-13
 -1      1931 1.33719E-02-5.86081E-04-1.65086E-13
 -1      1932 1.37294E-02-6.24157E-04-1.72948E-13
 -1      1933 1.38722E-02-6.24535E-04-1.76102E-13
 -1      1934 1.36576E-02-5.86860E-04-1.71368E-13
 -1      1935 1.40150E-02-6.24910E-04-1.79255E-13
 -1      1936 1.41579E-02-6.25285E-04-1.82406E-13
 -1      1937 1.39432E-02-5.87614E-04-1.77664E-13
 -1      1938 1.43007E-02-6.25661E-04-1.85559E-13
 -1      1939 1.44435E-02-6.26039E-04-1.88705E-13
 -1      1940 1.42289E-02-5.88360E-04-1.83969E-13
 -1      1941 1.45715E-02-6.28056E-04-1.91521E-13
 -1      1942 1.47144E-02-6.28443E-04-1.94663E-13
 -1      1943 1.47558E-02-5.94790E-04-1.95569E-13
 -1      1944 1.44998E-02-5.90749E-04-1.89937E-13
 -1      1945 1.26078E-03 4.23783E-04-1.08058E-15
 -1      1946 1.09865E-03 3.90217E-04-7.89462E-16
 -1      1947 1.05763E-03 3.57426E-04-8.16499E-16
 -1      1948 1.58510E-03 4.87557E-04-1.80892E-15
 -1      1949 1.42262E-03 4.55920E-04-1.41995E-15
 -1      1950 1.38027E-03 4.23012E-04-1.44692E-15
 -1      1951 1.91211E-03 5.54901E-04-2.73467E-15
 -1      1952 1.74818E-03 5.20341E-04-2.24716E-15
 -1      1953 1.70424E-03 4.86597E-04-2.27212E-15
 -1      1954 2.24230E-03 6.33967E-04-3.86007E-15
 -1      1955 2.07693E-03 5.92667E-04-3.27241E-15
 -1      1956 2.03140E-03 5.57499E-04-3.29412E-15
 -1      1957 2.57405E-03 7.30177E-04-5.18713E-15
 -1      1958 2.40830E-03 6.79877E-04-4.49780E-15
 -1      1959 2.36196E-03 6.43086E-04-4.51466E-15
 -1      1960 2.90391E-03 8.43913E-04-6.71754E-15
 -1      1961 2.73968E-03 7.85217E-04-5.92672E-15
 -1      1962 2.69430E-03 7.47265E-04-5.93610E-15
 -1      1963 3.22727E-03 9.67536E-04-8.45947E-15
 -1      1964 3.06689E-03 9.05419E-04-7.56148E-15
 -1      1965 3.02494E-03 8.67644E-04-7.56268E-15
 -1      1966 3.53995E-03 1.08352E-03-1.04188E-14
 -1      1967 3.38517E-03 1.02785E-03-9.41157E-15
 -1      1968 3.34916E-03 9.92371E-04-9.40188E-15
 -1      1969 3.84104E-03 1.16753E-03-1.25970E-14
 -1      1970 3.69170E-03 1.13089E-03-1.14801E-14
 -1      1971 3.66311E-03 1.09966E-03-1.14589E-14
 -1      1972 4.13471E-03 1.19747E-03-1.50002E-14
 -1      1973 3.98804E-03 1.18992E-03-1.37706E-14
 -1      1974 3.96709E-03 1.16353E-03-1.37388E-14
 -1      1975 4.42934E-03 1.16496E-03-1.76260E-14
 -1      1976 4.28099E-03 1.18856E-03-1.62849E-14
 -1      1977 4.26699E-03 1.16567E-03-1.62423E-14
 -1      1978 4.73312E-03 1.08034E-03-2.04727E-14
 -1      1979 4.57949E-03 1.12781E-03-1.90226E-14
 -1      1980 4.57164E-03 1.10601E-03-1.89697E-14
 -1      1981 5.04979E-03 9.67068E-04-2.35330E-14
 -1      1982 4.88974E-03 1.02574E-03-2.19772E-14
 -1      1983 4.88716E-03 1.00303E-03-2.19158E-14
 -1      1984 5.37797E-03 8.50182E-04-2.67901E-14
 -1      1985 5.21275E-03 9.07923E-04-2.51370E-14
 -1      1986 5.21397E-03 8.83464E-04-2.50674E-14
 -1      1987 5.71319E-03 7.47710E-04-3.02332E-14
 -1      1988 5.54516E-03 7.96601E-04-2.84895E-14
 -1      1989 5.54817E-03 7.70483E-04-2.84121E-14
 -1      1990 6.05047E-03 6.68076E-04-3.38481E-14
 -1      1991 5.88200E-03 7.04968E-04-3.20193E-14
 -1      1992 5.88468E-03 6.77670E-04-3.19344E-14
 -1      1993 6.38580E-03 6.12275E-04-3.76302E-14
 -1      1994 6.21870E-03 6.37392E-04-3.57191E-14
 -1      1995 6.21941E-03 6.09388E-04-3.56256E-14
 -1      1996 6.71655E-03 5.77134E-04-4.15734E-14
 -1      1997 6.55194E-03 5.92410E-04-3.95816E-14
 -1      1998 6.54977E-03 5.64068E-04-3.94812E-14
 -1      1999 7.04136E-03 5.57964E-04-4.56790E-14
 -1      2000 6.87978E-03 5.65834E-04-4.36062E-14
 -1      2001 6.87449E-03 5.37411E-04-4.34968E-14
 -1      2002 7.35982E-03 5.50132E-04-4.99329E-14
 -1      2003 7.20140E-03 5.52864E-04-4.77879E-14
 -1      2004 7.19319E-03 5.24531E-04-4.76686E-14
 -1      2005 7.67217E-03 5.49752E-04-5.43347E-14
 -1      2006 7.51673E-03 5.49186E-04-5.21165E-14
 -1      2007 7.50606E-03 5.21052E-04-5.19886E-14
 -1      2008 7.97899E-03 5.53857E-04-5.88724E-14
 -1      2009 7.82621E-03 5.51368E-04-5.65858E-14
 -1      2010 7.81360E-03 5.23489E-04-5.64485E-14
 -1      2011 8.28104E-03 5.60326E-04-6.35429E-14
 -1      2012 8.13054E-03 5.56879E-04-6.11912E-14
 -1      2013 8.11648E-03 5.29278E-04-6.10442E-14
 -1      2014 8.57911E-03 5.67724E-04-6.83470E-14
 -1      2015 8.43051E-03 5.63961E-04-6.59282E-14
 -1      2016 8.41541E-03 5.36634E-04-6.57733E-14
 -1      2017 8.87397E-03 5.75134E-04-7.32799E-14
 -1      2018 8.72689E-03 5.71458E-04-7.07977E-14
 -1      2019 8.71110E-03 5.44386E-04-7.06321E-14
 -1      2020 9.16628E-03 5.82011E-04-7.83423E-14
 -1      2021 9.02040E-03 5.78655E-04-7.57942E-14
 -1      2022 9.00417E-03 5.51810E-04-7.56189E-14
 -1      2023 9.45663E-03 5.88069E-04-8.35292E-14
 -1      2024 9.31166E-03 5.85149E-04-8.09204E-14
 -1      2025 9.29520E-03 5.58499E-04-8.07342E-14
 -1      2026 9.74550E-03 5.93193E-04-8.88351E-14
 -1      2027 9.60122E-03 5.90748E-04-8.61682E-14
 -1      2028 9.58464E-03 5.64261E-04-8.59726E-14
 -1      2029 1.00333E-02 5.97375E-04-9.42546E-14
 -1      2030 9.88949E-03 5.95398E-04-9.15316E-14
 -1      2031 9.87288E-03 5.69045E-04-9.13263E-14
 -1      2032 1.03202E-02 6.00674E-04-9.97763E-14
 -1      2033 1.01768E-02 5.99129E-04-9.70023E-14
 -1      2034 1.01602E-02 5.72883E-04-9.67896E-14
 -1      2035 1.06066E-02 6.03182E-04-1.05402E-13
 -1      2036 1.04635E-02 6.02020E-04-1.02575E-13
 -1      2037 1.04470E-02 5.75859E-04-1.02355E-13
 -1      2038 1.08927E-02 6.05007E-04-1.11129E-13
 -1      2039 1.07497E-02 6.04174E-04-1.08253E-13
 -1      2040 1.07332E-02 5.78077E-04-1.08024E-13
 -1      2041 1.11784E-02 6.06257E-04-1.16952E-13
 -1      2042 1.10356E-02 6.05698E-04-1.14029E-13
 -1      2043 1.10192E-02 5.79650E-04-1.13791E-13
 -1      2044 1.14641E-02 6.07035E-04-1.22859E-13
 -1      2045 1.13213E-02 6.06700E-04-1.19894E-13
 -1      2046 1.13050E-02 5.80688E-04-1.19646E-13
 -1      2047 1.17496E-02 6.07433E-04-1.28847E-13
 -1      2048 1.16068E-02 6.07277E-04-1.25844E-13
 -1      2049 1.15906E-02 5.81291E-04-1.25585E-13
 -1      2050 1.20351E-02 6.07531E-04-1.34896E-13
 -1      2051 1.18923E-02 6.07515E-04-1.31864E-13
 -1      2052 1.18762E-02 5.81549E-04-1.31596E-13
 -1      2053 1.23206E-02 6.07397E-04-1.41009E-13
 -1      2054 1.21778E-02 6.07490E-04-1.37945E-13
 -1      2055 1.21617E-02 5.81535E-04-1.37671E-13
 -1      2056 1.26061E-02 6.07088E-04-1.47166E-13
 -1      2057 1.24633E-02 6.07262E-04-1.44081E-13
 -1      2058 1.24472E-02 5.81315E-04-1.43800E-13
 -1      2059 1.28916E-02 6.06649E-04-1.53369E-13
 -1      2060 1.27488E-02 6.06882E-04-1.50265E-13
 -1      2061 1.27328E-02 5.80941E-04-1.49978E-13
 -1      2062 1.31771E-02 6.06117E-04-1.59605E-13
 -1      2063 1.30344E-02 6.06393E-04-1.56482E-13
 -1      2064 1.30184E-02 5.80454E-04-1.56193E-13
 -1      2065 1.34627E-02 6.05523E-04-1.65863E-13
 -1      2066 1.33199E-02 6.05826E-04-1.62732E-13
 -1      2067 1.33039E-02 5.79888E-04-1.62440E-13
 -1      2068 1.37483E-02 6.04891E-04-1.72153E-13
 -1      2069 1.36055E-02 6.05210E-04-1.69005E-13
 -1      2070 1.35896E-02 5.79272E-04-1.68710E-13
 -1      2071 1.40340E-02 6.04239E-04-1.78473E-13
 -1      2072 1.38912E-02 6.04566E-04-1.75307E-13
 -1      2073 1.38752E-02 5.78626E-04-1.75009E-13
 -1      2074 1.43197E-02 6.03586E-04-1.84830E-13
 -1      2075 1.41768E-02 6.03912E-04-1.81647E-13
 -1      2076 1.41608E-02 5.77970E-04-1.81345E-13
 -1      2077 1.46053E-02 6.02944E-04-1.91215E-13
 -1      2078 1.44625E-02 6.03263E-04-1.88019E-13
 -1      2079 1.44465E-02 5.77318E-04-1.87716E-13
 -1      2080 1.48403E-02 5.99440E-04-1.96496E-13
 -1      2081 1.46974E-02 5.99750E-04-1.93288E-13
 -1      2082 1.46815E-02 5.73802E-04-1.92983E-13
 -1      2083 1.48656E-02 5.67419E-04-1.97130E-13
 -1      2084 1.48355E-02 3.32631E-04-1.96867E-13
 -1      2085 1.48352E-02 3.74797E-04-1.96796E-13
 -1      2086 1.48350E-02 4.16960E-04-1.96719E-13
 -1      2087 1.48347E-02 4.59118E-04-1.96640E-13
 -1      2088 1.47114E-02 3.96153E-04-1.93984E-13
 -1      2089 1.48503E-02 4.92195E-04-1.96930E-13
 -1      2090 1.48500E-02 5.34347E-04-1.96843E-13
 -1      2091 1.47579E-02 5.37538E-04-1.94771E-13
 -1      2092 1.47267E-02 4.71389E-04-1.94195E-13
 -1      2093 1.48361E-02 2.49716E-04-1.96988E-13
 -1      2094 1.48358E-02 2.91175E-04-1.96930E-13
 -1      2095 1.47119E-02 3.12538E-04-1.94128E-13
 -1      2096 1.48366E-02 1.65356E-04-1.97089E-13
 -1      2097 1.48363E-02 2.07538E-04-1.97041E-13
 -1      2098 1.47125E-02 2.28909E-04-1.94249E-13
 -1      2099 1.48372E-02 8.09862E-05-1.97174E-13
 -1      2100 1.48369E-02 1.23172E-04-1.97133E-13
 -1      2101 1.47131E-02 1.44553E-04-1.94352E-13
 -1      2102 1.48379E-02-3.39049E-06-1.97252E-13
 -1      2103 1.48376E-02 3.87982E-05-1.97212E-13
 -1      2104 1.47137E-02 6.01885E-05-1.94440E-13
 -1      2105 1.48386E-02-8.77685E-05-1.97316E-13
 -1      2106 1.48382E-02-4.55799E-05-1.97287E-13
 -1      2107 1.47143E-02-2.41807E-05-1.94519E-13
 -1      2108 1.48394E-02-1.72143E-04-1.97368E-13
 -1      2109 1.48390E-02-1.29957E-04-1.97343E-13
 -1      2110 1.47151E-02-1.08550E-04-1.94585E-13
 -1      2111 1.48401E-02-2.55078E-04-1.97414E-13
 -1      2112 1.48397E-02-2.13612E-04-1.97392E-13
 -1      2113 1.47158E-02-1.92200E-04-1.94640E-13
 -1      2114 1.48410E-02-3.39430E-04-1.97449E-13
 -1      2115 1.48405E-02-2.97256E-04-1.97432E-13
 -1      2116 1.47166E-02-2.75841E-04-1.94681E-13
 -1      2117 1.48418E-02-4.23767E-04-1.97470E-13
 -1      2118 1.48414E-02-3.81601E-04-1.97462E-13
 -1      2119 1.47174E-02-3.60184E-04-1.94714E-13
 -1      2120 1.48426E-02-5.08087E-04-1.97483E-13
 -1      2121 1.48422E-02-4.65929E-04-1.97476E-13
 -1      2122 1.47183E-02-4.44513E-04-1.94739E-13
 -1      2123 6.01641E-03 1.39306E-04-2.37519E-14
 -1      2124 6.14974E-03 9.25935E-05-2.41082E-14
 -1      2125 6.37000E-03 4.28062E-06-2.46849E-14
 -1      2126 6.37080E-03-1.13458E-05-2.47138E-14
 -1      2127 6.26484E-03 5.23997E-05-2.43685E-14
 -1      2128 6.33293E-03 2.88802E-05-2.45284E-14
 -1      2129 5.65957E-03 3.05362E-04-2.24375E-14
 -1      2130 5.82836E-03 2.23639E-04-2.30489E-14
 -1      2131 5.29239E-03 4.87277E-04-2.12593E-14
 -1      2132 5.47757E-03 3.92734E-04-2.18557E-14
 -1      2133 3.26899E-04-4.70863E-05-2.74750E-16
 -1      2134 3.35151E-04-5.97670E-05-2.64261E-16
 -1      2135 4.58474E-04-9.31064E-05-3.84458E-16
 -1      2136 4.34929E-04-5.93265E-05-4.12214E-16
 -1      2137 4.54045E-03 8.84625E-04-1.80767E-14
 -1      2138 4.70024E-03 8.06802E-04-1.88516E-14
 -1      2139 4.19870E-03 9.78173E-04-1.62710E-14
 -1      2140 4.34608E-03 9.50034E-04-1.70405E-14
 -1      2141 3.89635E-03 9.57099E-04-1.47930E-14
 -1      2142 4.04001E-03 9.79931E-04-1.54943E-14
 -1      2143 3.57305E-03 8.33450E-04-1.32866E-14
 -1      2144 3.73179E-03 9.09019E-04-1.39918E-14
 -1      2145 3.14449E-03 6.01627E-04-1.18749E-14
 -1      2146 3.33748E-03 7.11997E-04-1.24518E-14
 -1      2147 2.70108E-03 3.76490E-04-1.09278E-14
 -1      2148 2.90055E-03 4.75360E-04-1.13187E-14
 -1      2149 2.33992E-03 2.10976E-04-1.02572E-14
 -1      2150 2.50707E-03 2.85517E-04-1.05626E-14
 -1      2151 2.05273E-03 9.02678E-05-9.68065E-15
 -1      2152 2.18138E-03 1.39149E-04-9.91936E-15
 -1      2153 1.86034E-03 2.69695E-05-9.52316E-15
 -1      2154 1.92588E-03 4.82291E-05-9.56441E-15
 -1      2155 1.83126E-03-1.12143E-05-9.38956E-15
 -1      2156 1.82754E-03 3.58742E-06-9.45329E-15
 -1      2157 1.83504E-03 9.08394E-06-9.11426E-15
 -1      2158 1.98123E-03-7.06653E-05-9.72593E-15
 -1      2159 1.89087E-03-3.91400E-05-9.50979E-15
 -1      2160 2.24924E-03-1.70660E-04-1.02014E-14
 -1      2161 2.11037E-03-1.16635E-04-9.92968E-15
 -1      2162 2.59277E-03-3.21139E-04-1.08665E-14
 -1      2163 2.41090E-03-2.40802E-04-1.05273E-14
 -1      2164 2.33543E-03-1.80677E-04-9.98321E-15
 -1      2165 3.02381E-03-5.53925E-04-1.19964E-14
 -1      2166 2.83696E-03-4.47163E-04-1.14665E-14
 -1      2167 3.39526E-03-7.56532E-04-1.31380E-14
 -1      2168 3.22561E-03-6.61635E-04-1.25699E-14
 -1      2169 3.73932E-03-9.16996E-04-1.44950E-14
 -1      2170 3.57733E-03-8.46973E-04-1.38350E-14
 -1      2171 4.07478E-03-9.93036E-04-1.60991E-14
 -1      2172 3.92518E-03-9.72277E-04-1.53225E-14
 -1      2173 4.43843E-03-9.31296E-04-1.79865E-14
 -1      2174 4.28411E-03-9.75662E-04-1.72063E-14
 -1      2175 4.75936E-03-7.84389E-04-1.95703E-14
 -1      2176 4.59871E-03-8.68471E-04-1.87700E-14
 -1      2177 4.51052E-03-9.04305E-04-1.86170E-14
 -1      2178 5.15751E-03-5.72624E-04-2.11018E-14
 -1      2179 4.98145E-03-6.68883E-04-2.04674E-14
 -1      2180 5.50389E-03-3.83261E-04-2.23847E-14
 -1      2181 5.33192E-03-4.78627E-04-2.17385E-14
 -1      2182 5.22187E-03-5.12596E-04-2.18734E-14
 -1      2183 5.88540E-03-2.10744E-04-2.34451E-14
 -1      2184 5.72355E-03-2.78162E-04-2.30543E-14
 -1      2185 6.14952E-03-1.06493E-04-2.41489E-14
 -1      2186 6.02651E-03-1.53942E-04-2.37949E-14
 -1      2187 5.94777E-03-1.61370E-04-2.42411E-14
 -1      2188 6.34066E-03-3.32684E-05-2.46059E-14
 -1      2189 6.27735E-03-5.63301E-05-2.45043E-14
 -1      2190 6.36510E-03-1.54146E-05-2.54316E-14
 -1      2191 4.89280E-03 7.10530E-04-1.96366E-14
 -1      2192 5.06599E-03 6.10065E-04-2.03870E-14
 -1      2193 5.55214E-03 3.28640E-04-2.26679E-14
 -1      2194 6.61225E-04-2.49939E-04-3.94460E-16
 -1      2195 5.16447E-03 5.37416E-04-2.11863E-14
 -1      2196 4.77492E-03 7.58812E-04-1.95109E-14
 -1      2197 7.17050E-04-2.36468E-04-5.37846E-16
 -1      2198 6.21275E-03 5.66968E-05-2.49560E-14
 -1      2199 6.36007E-03 1.01002E-05-2.53821E-14
 -1      2200 1.48013E-02-5.41746E-04-1.96569E-13
 -1      2201 5.91795E-03 1.62380E-04-2.39707E-14
 -1      2202 6.22131E-03-6.54060E-05-2.49585E-14
 -1      2203 5.60060E-03-3.14543E-04-2.31996E-14
 -1      2204 4.85080E-03-7.25634E-04-2.03141E-14
 -1      2205 4.18169E-03-9.96244E-04-1.67045E-14
 -1      2206 3.83720E-03-9.51753E-04-1.47826E-14
 -1      2207 3.50228E-03-8.00352E-04-1.32761E-14
 -1      2208 2.72454E-03-3.65533E-04-1.08771E-14
 -1      2209 1.85029E-03-1.88083E-05-9.15889E-15
 -1      2210 1.82379E-03-9.38425E-06-8.81598E-15
 -1      2211 1.88300E-03-2.37600E-05-8.92997E-15
 -1      2212 1.98591E-03 5.61390E-05-9.29337E-15
 -1      2213 2.27182E-03 1.53398E-04-9.72983E-15
 -1      2214 2.61632E-03 3.07586E-04-1.04129E-14
 -1      2215 3.03259E-03 5.24667E-04-1.13053E-14
 -1      2216 3.47389E-03 7.77158E-04-1.26614E-14
 -1      2217 3.82819E-03 9.44449E-04-1.42840E-14
 -1      2218 4.43551E-03 9.26613E-04-1.76675E-14
 -1      2219 4.11874E-03 9.91123E-04-1.58590E-14
 -1      2220 2.04902E-03-7.78387E-05-9.47410E-15
 -1      2221 3.15139E-03-5.99532E-04-1.20288E-14
 -1      2222 1.10645E-03 3.34567E-04-1.03243E-15
 -1      2223 9.46748E-04 3.00513E-04-7.56651E-16
 -1      2224 4.97514E-04-2.15496E-05-6.22806E-16
 -1      2225 5.06158E-04-3.03411E-05-6.18863E-16
 -1      2226 5.16636E-04-4.09933E-05-6.12872E-16
 -1      2227 5.28540E-04-5.37302E-05-6.04646E-16
 -1      2228 6.16676E-04-4.48693E-05-8.34253E-16
 -1      2229 4.84130E-04 3.03028E-06-6.22034E-16
 -1      2230 4.83995E-04-2.35691E-06-6.24555E-16
 -1      2231 4.91425E-04 1.50632E-05-6.12263E-16
 -1      2232 4.86650E-04 8.69963E-06-6.18077E-16
 -1      2233 5.83358E-04 7.50603E-06-8.39322E-16
 -1      2234 5.06904E-04 3.12805E-05-5.96081E-16
 -1      2235 4.98259E-04 2.24531E-05-6.05093E-16
 -1      2236 5.95447E-04 2.37837E-05-8.24847E-16
 -1      2237 5.29478E-04 5.51159E-05-5.71768E-16
 -1      2238 5.17490E-04 4.21434E-05-5.85130E-16
 -1      2239 6.17720E-04 4.60846E-05-8.01618E-16
 -1      2240 5.57372E-04 8.86810E-05-5.35962E-16
 -1      2241 5.42901E-04 7.05833E-05-5.55559E-16
 -1      2242 6.48214E-04 7.76748E-05-7.67249E-16
 -1      2243 5.90046E-04 1.34241E-04-4.84381E-16
 -1      2244 5.73181E-04 1.09839E-04-5.12733E-16
 -1      2245 6.84832E-04 1.20628E-04-7.18026E-16
 -1      2246 1.42605E-03 3.97203E-04-1.72640E-15
 -1      2247 1.26605E-03 3.66571E-04-1.35531E-15
 -1      2248 1.15415E-03 3.11846E-04-1.25892E-15
 -1      2249 9.84479E-04-2.78275E-04-1.04268E-15
 -1      2250 1.14194E-03-3.10125E-04-1.37370E-15
 -1      2251 5.05904E-03 5.88013E-04-2.11857E-14
 -1      2252 5.25894E-03 4.69756E-04-2.20811E-14
 -1      2253 1.29971E-03-3.40412E-04-1.75406E-15
 -1      2254 1.45828E-03-3.69974E-04-2.18404E-15
 -1      2255 1.18842E-03-2.87529E-04-1.61203E-15
 -1      2256 1.61781E-03-4.00212E-04-2.66292E-15
 -1      2257 1.77846E-03-4.32005E-04-3.19249E-15
 -1      2258 1.50072E-03-3.44078E-04-2.48033E-15
 -1      2259 1.94079E-03-4.66528E-04-3.77152E-15
 -1      2260 2.10454E-03-5.04738E-04-4.40021E-15
 -1      2261 1.81867E-03-4.04706E-04-3.54420E-15
 -1      2262 2.27052E-03-5.47412E-04-5.07861E-15
 -1      2263 2.43792E-03-5.95366E-04-5.80806E-15
 -1      2264 2.14488E-03-4.77678E-04-4.80498E-15
 -1      2265 2.60760E-03-6.48754E-04-6.58769E-15
 -1      2266 2.77800E-03-7.07560E-04-7.41867E-15
 -1      2267 2.48143E-03-5.70459E-04-6.26327E-15
 -1      2268 2.94972E-03-7.70921E-04-8.30123E-15
 -1      2269 3.12080E-03-8.37378E-04-9.23658E-15
 -1      2270 2.82782E-03-6.87007E-04-7.92267E-15
 -1      2271 3.29130E-03-9.04709E-04-1.02252E-14
 -1      2272 3.45938E-03-9.68920E-04-1.12670E-14
 -1      2273 3.17898E-03-8.22987E-04-9.78862E-15
 -1      2274 3.62433E-03-1.02686E-03-1.23645E-14
 -1      2275 3.78668E-03-1.07298E-03-1.35173E-14
 -1      2276 3.52528E-03-9.59160E-04-1.18683E-14
 -1      2277 3.94527E-03-1.10428E-03-1.47263E-14
 -1      2278 4.10348E-03-1.11709E-03-1.59925E-14
 -1      2279 3.85821E-03-1.05967E-03-1.41696E-14
 -1      2280 4.26009E-03-1.11054E-03-1.73138E-14
 -1      2281 4.41950E-03-1.08557E-03-1.86902E-14
 -1      2282 4.18073E-03-1.08789E-03-1.66983E-14
 -1      2283 4.58051E-03-1.04417E-03-2.01204E-14
 -1      2284 4.74547E-03-9.91145E-04-2.16047E-14
 -1      2285 4.50607E-03-1.03264E-03-1.94519E-14
 -1      2286 4.91331E-03-9.29929E-04-2.31392E-14
 -1      2287 5.08359E-03-8.65891E-04-2.47220E-14
 -1      2288 4.84472E-03-9.17791E-04-2.24206E-14
 -1      2289 5.25581E-03-8.02056E-04-2.63510E-14
 -1      2290 5.42780E-03-7.41570E-04-2.80257E-14
 -1      2291 5.19475E-03-7.83377E-04-2.55901E-14
 -1      2292 5.59983E-03-6.86350E-04-2.97429E-14
 -1      2293 5.77008E-03-6.37306E-04-3.15015E-14
 -1      2294 5.54579E-03-6.61016E-04-2.89420E-14
 -1      2295 5.93919E-03-5.95142E-04-3.33015E-14
 -1      2296 6.10582E-03-5.59621E-04-3.51421E-14
 -1      2297 5.88940E-03-5.64909E-04-3.24623E-14
 -1      2298 6.27077E-03-5.30665E-04-3.70219E-14
 -1      2299 6.43334E-03-5.07502E-04-3.89405E-14
 -1      2300 6.22209E-03-4.97168E-04-3.61438E-14
 -1      2301 6.59417E-03-4.89670E-04-4.08989E-14
 -1      2302 6.75302E-03-4.76385E-04-4.28967E-14
 -1      2303 6.54406E-03-4.54002E-04-3.99819E-14
 -1      2304 6.91030E-03-4.67043E-04-4.49325E-14
 -1      2305 7.06599E-03-4.60997E-04-4.70074E-14
 -1      2306 6.85725E-03-4.29851E-04-4.39756E-14
 -1      2307 7.22033E-03-4.57666E-04-4.91207E-14
 -1      2308 7.37342E-03-4.56558E-04-5.12708E-14
 -1      2309 7.16378E-03-4.19403E-04-4.81234E-14
 -1      2310 7.52537E-03-4.57185E-04-5.34574E-14
 -1      2311 7.67634E-03-4.59196E-04-5.56792E-14
 -1      2312 7.46536E-03-4.18217E-04-5.24202E-14
 -1      2313 7.82635E-03-4.62220E-04-5.79366E-14
 -1      2314 7.97558E-03-4.66009E-04-6.02267E-14
 -1      2315 7.76327E-03-4.22848E-04-5.68597E-14
 -1      2316 8.12401E-03-4.70304E-04-6.25517E-14
 -1      2317 8.27182E-03-4.74936E-04-6.49093E-14
 -1      2318 8.05839E-03-4.30770E-04-6.14375E-14
 -1      2319 8.41897E-03-4.79734E-04-6.72976E-14
 -1      2320 8.56562E-03-4.84588E-04-6.97191E-14
 -1      2321 8.35134E-03-4.40216E-04-6.61475E-14
 -1      2322 8.71174E-03-4.89396E-04-7.21713E-14
 -1      2323 8.85746E-03-4.94086E-04-7.46533E-14
 -1      2324 8.64260E-03-4.50014E-04-7.09832E-14
 -1      2325 9.00276E-03-4.98606E-04-7.71651E-14
 -1      2326 9.14774E-03-5.02914E-04-7.97079E-14
 -1      2327 8.93252E-03-4.59432E-04-7.59430E-14
 -1      2328 9.29238E-03-5.06988E-04-8.22818E-14
 -1      2329 9.43678E-03-5.10807E-04-8.48831E-14
 -1      2330 9.22137E-03-4.68056E-04-8.10248E-14
 -1      2331 9.58092E-03-5.14371E-04-8.75135E-14
 -1      2332 9.72487E-03-5.17670E-04-9.01711E-14
 -1      2333 9.50940E-03-4.75688E-04-8.62251E-14
 -1      2334 9.86863E-03-5.20719E-04-9.28560E-14
 -1      2335 1.00122E-02-5.23515E-04-9.55701E-14
 -1      2336 9.79678E-03-4.82276E-04-9.15360E-14
 -1      2337 1.01557E-02-5.26079E-04-9.83088E-14
 -1      2338 1.02991E-02-5.28414E-04-1.01073E-13
 -1      2339 1.00837E-02-4.87853E-04-9.69565E-14
 -1      2340 1.04423E-02-5.30543E-04-1.03864E-13
 -1      2341 1.05855E-02-5.32472E-04-1.06678E-13
 -1      2342 1.03702E-02-4.92509E-04-1.02483E-13
 -1      2343 1.07286E-02-5.34224E-04-1.09514E-13
 -1      2344 1.08716E-02-5.35808E-04-1.12371E-13
 -1      2345 1.06564E-02-4.96353E-04-1.08107E-13
 -1      2346 1.10146E-02-5.37243E-04-1.15251E-13
 -1      2347 1.11576E-02-5.38538E-04-1.18148E-13
 -1      2348 1.09425E-02-4.99507E-04-1.13820E-13
 -1      2349 1.13005E-02-5.39712E-04-1.21063E-13
 -1      2350 1.14434E-02-5.40773E-04-1.23995E-13
 -1      2351 1.12283E-02-5.02087E-04-1.19611E-13
 -1      2352 1.15862E-02-5.41737E-04-1.26942E-13
 -1      2353 1.17291E-02-5.42611E-04-1.29906E-13
 -1      2354 1.15141E-02-5.04200E-04-1.25473E-13
 -1      2355 1.18719E-02-5.43408E-04-1.32886E-13
 -1      2356 1.20148E-02-5.44136E-04-1.35881E-13
 -1      2357 1.17999E-02-5.05941E-04-1.31400E-13
 -1      2358 1.21576E-02-5.44805E-04-1.38893E-13
 -1      2359 1.23004E-02-5.45420E-04-1.41922E-13
 -1      2360 1.20856E-02-5.07390E-04-1.37392E-13
 -1      2361 1.24432E-02-5.45991E-04-1.44965E-13
 -1      2362 1.25860E-02-5.46523E-04-1.48022E-13
 -1      2363 1.23713E-02-5.08617E-04-1.43447E-13
 -1      2364 1.27288E-02-5.47021E-04-1.51094E-13
 -1      2365 1.28717E-02-5.47491E-04-1.54180E-13
 -1      2366 1.26569E-02-5.09675E-04-1.49562E-13
 -1      2367 1.30145E-02-5.47937E-04-1.57280E-13
 -1      2368 1.31573E-02-5.48363E-04-1.60395E-13
 -1      2369 1.29426E-02-5.10612E-04-1.55732E-13
 -1      2370 1.33001E-02-5.48774E-04-1.63517E-13
 -1      2371 1.34429E-02-5.49171E-04-1.66649E-13
 -1      2372 1.32283E-02-5.11462E-04-1.61949E-13
 -1      2373 1.35858E-02-5.49559E-04-1.69790E-13
 -1      2374 1.37286E-02-5.49939E-04-1.72932E-13
 -1      2375 1.35139E-02-5.12255E-04-1.68209E-13
 -1      2376 1.38714E-02-5.50315E-04-1.76077E-13
 -1      2377 1.40143E-02-5.50687E-04-1.79226E-13
 -1      2378 1.37996E-02-5.13013E-04-1.74492E-13
 -1      2379 1.41571E-02-5.51059E-04-1.82377E-13
 -1      2380 1.43000E-02-5.51432E-04-1.85528E-13
 -1      2381 1.40853E-02-5.13756E-04-1.80787E-13
 -1      2382 2.07439E-03 5.32406E-04-3.69537E-15
 -1      2383 1.91077E-03 4.94706E-04-3.12970E-15
 -1      2384 2.40568E-03 6.20878E-04-4.97360E-15
 -1      2385 2.23965E-03 5.74274E-04-4.30949E-15
 -1      2386 2.11637E-03 5.06708E-04-4.10285E-15
 -1      2387 2.74088E-03 7.29095E-04-6.45148E-15
 -1      2388 2.57323E-03 6.72513E-04-5.68714E-15
 -1      2389 2.44986E-03 5.97740E-04-5.43768E-15
 -1      2390 3.07657E-03 8.53574E-04-8.13415E-15
 -1      2391 2.90923E-03 7.89865E-04-7.26705E-15
 -1      2392 2.78990E-03 7.10031E-04-6.97104E-15
 -1      2393 3.40724E-03 9.80495E-04-1.00293E-14
 -1      2394 3.24305E-03 9.18218E-04-9.05454E-15
 -1      2395 3.13242E-03 8.39371E-04-8.70831E-15
 -1      2396 3.72779E-03 1.08451E-03-1.21432E-14
 -1      2397 3.56871E-03 1.03726E-03-1.10591E-14
 -1      2398 3.47011E-03 9.68998E-04-1.06582E-14
 -1      2399 4.03858E-03 1.13748E-03-1.44805E-14
 -1      2400 3.88362E-03 1.11900E-03-1.32834E-14
 -1      2401 3.79660E-03 1.06936E-03-1.28277E-14
 -1      2402 4.34678E-03 1.12230E-03-1.70440E-14
 -1      2403 4.19175E-03 1.13860E-03-1.57346E-14
 -1      2404 4.11318E-03 1.10916E-03-1.52241E-14
 -1      2405 4.66216E-03 1.04474E-03-1.98316E-14
 -1      2406 4.50276E-03 1.08993E-03-1.84101E-14
 -1      2407 4.42971E-03 1.07392E-03-1.78489E-14
 -1      2408 4.98903E-03 9.29842E-04-2.28354E-14
 -1      2409 4.82412E-03 9.89986E-04-2.13070E-14
 -1      2410 4.75636E-03 9.77614E-04-2.06972E-14
 -1      2411 5.32483E-03 8.06872E-04-2.60408E-14
 -1      2412 5.15637E-03 8.67722E-04-2.44134E-14
 -1      2413 5.09478E-03 8.52128E-04-2.37584E-14
 -1      2414 5.66346E-03 6.97506E-04-2.94353E-14
 -1      2415 5.49440E-03 7.49659E-04-2.77152E-14
 -1      2416 5.43868E-03 7.28370E-04-2.70185E-14
 -1      2417 5.99979E-03 6.11816E-04-3.30039E-14
 -1      2418 5.83237E-03 6.51480E-04-3.11986E-14
 -1      2419 5.78044E-03 6.24819E-04-3.04625E-14
 -1      2420 6.33088E-03 5.51340E-04-3.67396E-14
 -1      2421 6.16625E-03 5.78564E-04-3.48510E-14
 -1      2422 6.11539E-03 5.47615E-04-3.40779E-14
 -1      2423 6.65567E-03 5.12903E-04-4.06367E-14
 -1      2424 6.49417E-03 5.29647E-04-3.86690E-14
 -1      2425 6.44206E-03 4.95495E-04-3.78562E-14
 -1      2426 6.97416E-03 4.91622E-04-4.46931E-14
 -1      2427 6.81572E-03 5.00415E-04-4.26446E-14
 -1      2428 6.76093E-03 4.63967E-04-4.17954E-14
 -1      2429 7.28683E-03 4.82624E-04-4.89009E-14
 -1      2430 7.13119E-03 4.85848E-04-4.67792E-14
 -1      2431 7.07316E-03 4.47830E-04-4.58906E-14
 -1      2432 7.59434E-03 4.81781E-04-5.32551E-14
 -1      2433 7.44118E-03 4.81390E-04-5.10597E-14
 -1      2434 7.37994E-03 4.42386E-04-5.01353E-14
 -1      2435 7.89741E-03 4.85908E-04-5.77483E-14
 -1      2436 7.74637E-03 4.83377E-04-5.54840E-14
 -1      2437 7.68230E-03 4.43845E-04-5.45229E-14
 -1      2438 8.19672E-03 4.92707E-04-6.23738E-14
 -1      2439 8.04747E-03 4.89083E-04-6.00438E-14
 -1      2440 7.98109E-03 4.49360E-04-5.90465E-14
 -1      2441 8.49289E-03 5.00606E-04-6.71330E-14
 -1      2442 8.34514E-03 4.96593E-04-6.47376E-14
 -1      2443 8.27697E-03 4.56914E-04-6.37039E-14
 -1      2444 8.78652E-03 5.08591E-04-7.20206E-14
 -1      2445 8.63998E-03 5.04636E-04-6.95612E-14
 -1      2446 8.57050E-03 4.65148E-04-6.84937E-14
 -1      2447 9.07810E-03 5.16051E-04-7.70376E-14
 -1      2448 8.93253E-03 5.12416E-04-7.45141E-14
 -1      2449 8.86213E-03 4.73203E-04-7.34103E-14
 -1      2450 9.36808E-03 5.22660E-04-8.21796E-14
 -1      2451 9.22326E-03 5.19478E-04-7.95932E-14
 -1      2452 9.15225E-03 4.80575E-04-7.84548E-14
 -1      2453 9.65681E-03 5.28278E-04-8.74423E-14
 -1      2454 9.51257E-03 5.25600E-04-8.47964E-14
 -1      2455 9.44118E-03 4.87009E-04-8.36236E-14
 -1      2456 9.94460E-03 5.32890E-04-9.28208E-14
 -1      2457 9.80080E-03 5.30711E-04-9.01163E-14
 -1      2458 9.72919E-03 4.92415E-04-8.89118E-14
 -1      2459 1.02317E-02 5.36551E-04-9.83050E-14
 -1      2460 1.00882E-02 5.34837E-04-9.55493E-14
 -1      2461 1.00165E-02 4.96805E-04-9.43120E-14
 -1      2462 1.05183E-02 5.39357E-04-1.03895E-13
 -1      2463 1.03750E-02 5.38057E-04-1.01089E-13
 -1      2464 1.03033E-02 5.00255E-04-9.98223E-14
 -1      2465 1.08045E-02 5.41423E-04-1.09584E-13
 -1      2466 1.06614E-02 5.40478E-04-1.06726E-13
 -1      2467 1.05897E-02 5.02870E-04-1.05434E-13
 -1      2468 1.10904E-02 5.42863E-04-1.15369E-13
 -1      2469 1.09475E-02 5.42216E-04-1.12465E-13
 -1      2470 1.08758E-02 5.04768E-04-1.11143E-13
 -1      2471 1.13762E-02 5.43789E-04-1.21238E-13
 -1      2472 1.12333E-02 5.43385E-04-1.18294E-13
 -1      2473 1.11617E-02 5.06067E-04-1.16946E-13
 -1      2474 1.16619E-02 5.44299E-04-1.27191E-13
 -1      2475 1.15191E-02 5.44091E-04-1.24205E-13
 -1      2476 1.14475E-02 5.06875E-04-1.22832E-13
 -1      2477 1.19475E-02 5.44481E-04-1.33211E-13
 -1      2478 1.18047E-02 5.44427E-04-1.30193E-13
 -1      2479 1.17333E-02 5.07290E-04-1.28794E-13
 -1      2480 1.22331E-02 5.44408E-04-1.39297E-13
 -1      2481 1.20903E-02 5.44473E-04-1.36246E-13
 -1      2482 1.20189E-02 5.07397E-04-1.34825E-13
 -1      2483 1.25187E-02 5.44141E-04-1.45432E-13
 -1      2484 1.23759E-02 5.44296E-04-1.42358E-13
 -1      2485 1.23046E-02 5.07265E-04-1.40918E-13
 -1      2486 1.28043E-02 5.43732E-04-1.51618E-13
 -1      2487 1.26615E-02 5.43952E-04-1.48520E-13
 -1      2488 1.25902E-02 5.06954E-04-1.47065E-13
 -1      2489 1.30899E-02 5.43218E-04-1.57837E-13
 -1      2490 1.29471E-02 5.43486E-04-1.54722E-13
 -1      2491 1.28758E-02 5.06511E-04-1.53255E-13
 -1      2492 1.33755E-02 5.42634E-04-1.64087E-13
 -1      2493 1.32327E-02 5.42934E-04-1.60960E-13
 -1      2494 1.31615E-02 5.05974E-04-1.59478E-13
 -1      2495 1.36612E-02 5.42006E-04-1.70366E-13
 -1      2496 1.35184E-02 5.42324E-04-1.67223E-13
 -1      2497 1.34471E-02 5.05373E-04-1.65736E-13
 -1      2498 1.39468E-02 5.41353E-04-1.76672E-13
 -1      2499 1.38040E-02 5.41681E-04-1.73514E-13
 -1      2500 1.37328E-02 5.04733E-04-1.72021E-13
 -1      2501 1.42325E-02 5.40693E-04-1.83018E-13
 -1      2502 1.40897E-02 5.41023E-04-1.79839E-13
 -1      2503 1.40185E-02 5.04074E-04-1.78335E-13
 -1      2504 1.45182E-02 5.40041E-04-1.89390E-13
 -1      2505 1.43753E-02 5.40365E-04-1.86200E-13
 -1      2506 1.43042E-02 5.03413E-04-1.84685E-13
 -1      2507 1.46659E-02 5.40732E-04-1.92697E-13
 -1      2508 1.45889E-02 2.08109E-04-1.91515E-13
 -1      2509 1.45886E-02 2.50282E-04-1.91456E-13
 -1      2510 1.45895E-02 1.23756E-04-1.91620E-13
 -1      2511 1.45892E-02 1.65933E-04-1.91569E-13
 -1      2512 1.44653E-02 1.87314E-04-1.88787E-13
 -1      2513 1.45878E-02 3.75352E-04-1.91254E-13
 -1      2514 1.45875E-02 4.17511E-04-1.91174E-13
 -1      2515 1.45883E-02 2.92094E-04-1.91395E-13
 -1      2516 1.45881E-02 3.33546E-04-1.91326E-13
 -1      2517 1.44642E-02 3.54913E-04-1.88526E-13
 -1      2518 1.44647E-02 2.71298E-04-1.88665E-13
 -1      2519 1.45901E-02 3.93960E-05-1.91712E-13
 -1      2520 1.45898E-02 8.15765E-05-1.91667E-13
 -1      2521 1.44659E-02 1.02963E-04-1.88896E-13
 -1      2522 1.45908E-02-4.49670E-05-1.91791E-13
 -1      2523 1.45904E-02-2.78554E-06-1.91753E-13
 -1      2524 1.44665E-02 1.86071E-05-1.88988E-13
 -1      2525 1.45915E-02-1.29329E-04-1.91857E-13
 -1      2526 1.45911E-02-8.71486E-05-1.91826E-13
 -1      2527 1.44672E-02-6.57508E-05-1.89066E-13
 -1      2528 1.45923E-02-2.12256E-04-1.91909E-13
 -1      2529 1.45919E-02-1.70794E-04-1.91884E-13
 -1      2530 1.44680E-02-1.49392E-04-1.89130E-13
 -1      2531 1.45931E-02-2.96604E-04-1.91951E-13
 -1      2532 1.45927E-02-2.54432E-04-1.91933E-13
 -1      2533 1.44688E-02-2.33027E-04-1.89182E-13
 -1      2534 1.45939E-02-3.80941E-04-1.91986E-13
 -1      2535 1.45935E-02-3.38774E-04-1.91968E-13
 -1      2536 1.44696E-02-3.17369E-04-1.89225E-13
 -1      2537 1.45948E-02-4.65263E-04-1.92013E-13
 -1      2538 1.45944E-02-4.23104E-04-1.91999E-13
 -1      2539 1.44704E-02-4.01698E-04-1.89260E-13
 -1      2540 6.34885E-03 1.12721E-05-2.62290E-14
 -1      2541 6.38432E-03 2.46229E-06-2.63905E-14
 -1      2542 5.81501E-03 1.89242E-04-2.44487E-14
 -1      2543 5.99229E-03 1.19934E-04-2.51746E-14
 -1      2544 1.74809E-03 4.60208E-04-2.61333E-15
 -1      2545 1.58669E-03 4.28164E-04-2.14562E-15
 -1      2546 1.79025E-03 4.33630E-04-2.96273E-15
 -1      2547 4.71728E-03 7.92296E-04-1.95570E-14
 -1      2548 4.87310E-03 6.97449E-04-2.03628E-14
 -1      2549 1.46732E-02-5.39723E-04-1.93749E-13
 -1      2550 6.28176E-03-3.90926E-05-2.61702E-14
 -1      2551 6.16192E-03-7.09388E-05-2.58001E-14
 -1      2552 6.17480E-03 5.84288E-05-2.56774E-14
 -1      2553 6.27844E-03 3.13536E-05-2.59508E-14
 -1      2554 6.33101E-03 1.82770E-05-2.69591E-14
 -1      2555 4.27110E-03-9.91591E-04-1.73442E-14
 -1      2556 4.10238E-03-1.00945E-03-1.62316E-14
 -1      2557 1.91767E-03 3.00187E-05-8.83642E-15
 -1      2558 2.03310E-03 5.92871E-05-8.94148E-15
 -1      2559 4.86247E-04-7.96240E-06-6.25530E-16
 -1      2560 4.90775E-04-1.42015E-05-6.24934E-16
 -1      2561 5.94600E-04-2.28094E-05-8.44377E-16
 -1      2562 5.83006E-04-6.65827E-06-8.45867E-16
 -1      2563 4.05494E-03 9.98197E-04-1.54433E-14
 -1      2564 4.17955E-03 9.96637E-04-1.62174E-14
 -1      2565 2.10085E-03-8.29625E-05-9.14897E-15
 -1      2566 1.98102E-03-4.95073E-05-8.96123E-15
 -1      2567 4.33224E-03 9.67010E-04-1.71634E-14
 -1      2568 4.49374E-03 9.05231E-04-1.82034E-14
 -1      2569 3.77966E-03 9.29624E-04-1.38265E-14
 -1      2570 3.91507E-03 9.75609E-04-1.46213E-14
 -1      2571 3.98708E-03 9.94963E-04-1.49579E-14
 -1      2572 3.37353E-03 7.15921E-04-1.19755E-14
 -1      2573 3.57112E-03 8.31804E-04-1.27841E-14
 -1      2574 2.91121E-03 4.43591E-04-1.06264E-14
 -1      2575 3.11965E-03 5.65948E-04-1.11515E-14
 -1      2576 2.52750E-03 2.48284E-04-9.81406E-15
 -1      2577 2.69962E-03 3.31927E-04-1.01552E-14
 -1      2578 2.21501E-03 1.19494E-04-9.16740E-15
 -1      2579 2.36634E-03 1.77068E-04-9.48694E-15
 -1      2580 2.44075E-03 2.09923E-04-9.23763E-15
 -1      2581 1.81412E-03 3.30910E-06-8.65894E-15
 -1      2582 1.84645E-03 1.07231E-05-8.72659E-15
 -1      2583 3.23851E-03-6.41113E-04-1.19603E-14
 -1      2584 3.06674E-03-5.36904E-04-1.14112E-14
 -1      2585 2.41279E-03-2.00017E-04-9.75267E-15
 -1      2586 2.26410E-03-1.40831E-04-9.44739E-15
 -1      2587 2.84829E-03-4.15046E-04-1.08205E-14
 -1      2588 2.62587E-03-2.98664E-04-1.02489E-14
 -1      2589 2.94023E-03-4.67580E-04-1.07527E-14
 -1      2590 3.59387E-03-8.48640E-04-1.33747E-14
 -1      2591 3.44497E-03-7.61705E-04-1.26963E-14
 -1      2592 3.89877E-03-9.80055E-04-1.49687E-14
 -1      2593 3.75383E-03-9.24618E-04-1.41579E-14
 -1      2594 3.67024E-03-8.94265E-04-1.35438E-14
 -1      2595 4.57249E-03-8.76235E-04-1.92260E-14
 -1      2596 4.44399E-03-9.38060E-04-1.84298E-14
 -1      2597 4.95126E-03-6.59106E-04-2.12519E-14
 -1      2598 4.76616E-03-7.71921E-04-2.03304E-14
 -1      2599 5.29138E-03-4.59989E-04-2.27540E-14
 -1      2600 5.13881E-03-5.49353E-04-2.20971E-14
 -1      2601 5.69869E-03-2.50676E-04-2.42975E-14
 -1      2602 5.50069E-03-3.47500E-04-2.36028E-14
 -1      2603 6.01466E-03-1.22050E-04-2.52249E-14
 -1      2604 5.88498E-03-1.70015E-04-2.48596E-14
 -1      2605 5.79416E-03-2.09075E-04-2.52709E-14
 -1      2606 6.11466E-03-8.72396E-05-2.64288E-14
 -1      2607 6.38585E-03-9.66924E-06-2.64192E-14
 -1      2608 6.35732E-03-1.71461E-05-2.63082E-14
 -1      2609 6.27202E-04-1.81486E-04-4.98042E-16
 -1      2610 8.37010E-04-2.39868E-04-7.93785E-16
 -1      2611 8.88999E-04-2.23340E-04-9.73573E-16
 -1      2612 6.07421E-04-1.50982E-04-5.30690E-16
 -1      2613 8.22267E-04 2.75772E-04-5.60397E-16
 -1      2614 6.61997E-04 2.33553E-04-3.70282E-16
 -1      2615 6.28882E-04 2.05184E-04-3.82669E-16
 -1      2616 8.74641E-04 2.58102E-04-7.30129E-16
 -1      2617 5.50458E-03 3.36640E-04-2.32243E-14
 -1      2618 5.66471E-03 2.57152E-04-2.38305E-14
 -1      2619 5.77293E-03 2.10808E-04-2.50181E-14
 -1      2620 4.25733E-03 9.89637E-04-1.67226E-14
 -1      2621 6.46887E-04-7.58564E-05-8.13450E-16
 -1      2622 5.41841E-04-6.88674E-05-5.93858E-16
 -1      2623 5.56192E-04-8.65878E-05-5.79750E-16
 -1      2624 1.47020E-03 3.71484E-04-2.01537E-15
 -1      2625 6.07395E-04 1.71588E-04-4.26105E-16
 -1      2626 5.39979E-03 3.95027E-04-2.32183E-14
 -1      2627 6.40271E-03-3.70848E-06-2.72718E-14
 -1      2628 5.41917E-03-3.93484E-04-2.38295E-14
 -1      2629 5.04472E-03-6.09322E-04-2.21097E-14
 -1      2630 6.32985E-03-2.78007E-05-2.71594E-14
 -1      2631 4.00208E-03-1.00555E-03-1.55625E-14
 -1      2632 1.45947E-02 5.03772E-04-1.91174E-13
 -1      2633 1.45791E-02 4.70698E-04-1.90886E-13
 -1      2634 6.09570E-03 8.67503E-05-2.61629E-14
 -1      2635 2.52577E-03-2.52288E-04-9.69439E-15
 -1      2636 3.33838E-03-7.05349E-04-1.20475E-14
 -1      2637 7.26848E-04 1.86961E-04-6.19649E-16
 -1      2638 4.60244E-03 8.58845E-04-1.90184E-14
 -1      2639 4.70997E-03 8.08886E-04-1.98495E-14
 -1      2640 4.50800E-03 9.12785E-04-1.84841E-14
 -1      2641 1.45245E-02-5.54534E-04-1.90474E-13
 -1      2642 1.45700E-02-5.01485E-04-1.91470E-13
 -1      2643 1.44461E-02-4.80082E-04-1.88733E-13
 -1      2644 1.43965E-02-5.52521E-04-1.87656E-13
 -1      2645 4.34774E-03-9.76588E-04-1.79237E-14
 -1      2646 2.10616E-03 8.06063E-05-8.70360E-15
 -1      2647 2.17429E-03 1.09051E-04-8.46447E-15
 -1      2648 2.01092E-03 5.67048E-05-8.25374E-15
 -1      2649 1.86958E-03 1.76484E-05-8.38160E-15
 -1      2650 2.79376E-03 3.83577E-04-1.00081E-14
 -1      2651 3.66731E-03 8.86014E-04-1.30954E-14
 -1      2652 3.74665E-03 9.29114E-04-1.34060E-14
 -1      2653 3.55746E-03 8.36765E-04-1.23839E-14
 -1      2654 1.91535E-03-3.26955E-05-8.61325E-15
 -1      2655 1.80396E-03-6.25435E-06-8.19994E-15
 -1      2656 1.80242E-03-3.07750E-06-8.42822E-15
 -1      2657 1.79018E-03 1.97914E-08-8.04757E-15
 -1      2658 4.98640E-03 6.34537E-04-2.12310E-14
 -1      2659 2.16416E-03-1.05587E-04-8.92566E-15
 -1      2660 5.72282E-04-1.04351E-04-5.70074E-16
 -1      2661 5.88888E-04-1.27793E-04-5.48159E-16
 -1      2662 7.24042E-04-1.60664E-04-7.56082E-16
 -1      2663 6.83100E-04-1.14658E-04-7.87836E-16
 -1      2664 3.23792E-03 6.39761E-04-1.12619E-14
 -1      2665 3.32865E-03 7.07441E-04-1.13652E-14
 -1      2666 3.10272E-03 5.69610E-04-1.05730E-14
 -1      2667 4.68911E-03-8.20970E-04-2.01291E-14
 -1      2668 1.44555E-02 4.49903E-04-1.88164E-13
 -1      2669 1.43247E-02-5.15214E-04-1.86064E-13
 -1      2670 7.02544E-04 3.46677E-05-1.06986E-15
 -1      2671 6.91805E-04 2.34752E-05-1.08141E-15
 -1      2672 6.84147E-04 1.36073E-05-1.09045E-15
 -1      2673 6.80180E-04 4.67296E-06-1.09704E-15
 -1      2674 7.87036E-04 2.14510E-05-1.37444E-15
 -1      2675 7.72306E-04 1.03452E-04-9.91774E-16
 -1      2676 7.51757E-04 8.20729E-05-1.01712E-15
 -1      2677 8.18253E-04 1.55808E-04-9.27386E-16
 -1      2678 7.94636E-04 1.27990E-04-9.62541E-16
 -1      2679 9.01980E-04 1.32548E-04-1.24502E-15
 -1      2680 1.20071E-03 2.89176E-04-1.49655E-15
 -1      2681 1.04612E-03 2.60214E-04-1.15831E-15
 -1      2682 8.45326E-04 2.08707E-04-8.20402E-16
 -1      2683 6.42031E-03-8.24897E-07-2.82550E-14
 -1      2684 6.42167E-03-7.14393E-06-2.82848E-14
 -1      2685 1.38628E-03-2.91074E-04-2.29757E-15
 -1      2686 1.54100E-03-3.17703E-04-2.78385E-15
 -1      2687 1.69762E-03-3.45686E-04-3.31838E-15
 -1      2688 1.85644E-03-3.76178E-04-3.90184E-15
 -1      2689 1.57863E-03-2.90557E-04-3.09502E-15
 -1      2690 2.01820E-03-4.09962E-04-4.53360E-15
 -1      2691 2.18287E-03-4.48495E-04-5.21341E-15
 -1      2692 1.89146E-03-3.46085E-04-4.26483E-15
 -1      2693 2.35151E-03-4.92247E-04-5.94251E-15
 -1      2694 2.52332E-03-5.42757E-04-6.72082E-15
 -1      2695 2.21839E-03-4.16940E-04-5.62587E-15
 -1      2696 2.69949E-03-6.00002E-04-7.54838E-15
 -1      2697 2.87776E-03-6.64245E-04-8.42666E-15
 -1      2698 2.56365E-03-5.12836E-04-7.17940E-15
 -1      2699 3.05877E-03-7.34197E-04-9.35737E-15
 -1      2700 3.23922E-03-8.07845E-04-1.03399E-14
 -1      2701 2.92730E-03-6.40475E-04-8.93129E-15
 -1      2702 3.41905E-03-8.83193E-04-1.13766E-14
 -1      2703 3.59499E-03-9.51825E-04-1.24680E-14
 -1      2704 3.29970E-03-7.95755E-04-1.08901E-14
 -1      2705 3.76595E-03-1.01002E-03-1.36167E-14
 -1      2706 3.93389E-03-1.04893E-03-1.48224E-14
 -1      2707 3.66468E-03-9.49096E-04-1.30673E-14
 -1      2708 4.09721E-03-1.06575E-03-1.60859E-14
 -1      2709 4.26224E-03-1.05725E-03-1.74070E-14
 -1      2710 4.01037E-03-1.03878E-03-1.54747E-14
 -1      2711 4.42751E-03-1.02420E-03-1.87841E-14
 -1      2712 4.59837E-03-9.72979E-04-2.02163E-14
 -1      2713 4.34900E-03-1.01885E-03-1.81158E-14
 -1      2714 4.77301E-03-9.07351E-04-2.17024E-14
 -1      2715 4.95144E-03-8.36243E-04-2.32411E-14
 -1      2716 4.70132E-03-9.01449E-04-2.09838E-14
 -1      2717 5.13281E-03-7.63299E-04-2.48279E-14
 -1      2718 5.31319E-03-6.95210E-04-2.64618E-14
 -1      2719 5.07117E-03-7.45142E-04-2.40646E-14
 -1      2720 5.49304E-03-6.33507E-04-2.81394E-14
 -1      2721 5.66916E-03-5.78875E-04-2.98600E-14
 -1      2722 5.44157E-03-6.04341E-04-2.73364E-14
 -1      2723 5.84250E-03-5.32435E-04-3.16224E-14
 -1      2724 6.01144E-03-4.93581E-04-3.34251E-14
 -1      2725 5.79835E-03-4.97892E-04-3.07821E-14
 -1      2726 6.17706E-03-4.62291E-04-3.52659E-14
 -1      2727 6.33888E-03-4.37136E-04-3.71465E-14
 -1      2728 6.13559E-03-4.25653E-04-3.43896E-14
 -1      2729 6.49785E-03-4.17863E-04-3.90668E-14
 -1      2730 6.65400E-03-4.03244E-04-4.10254E-14
 -1      2731 6.45546E-03-3.80868E-04-3.81528E-14
 -1      2732 6.80803E-03-3.92869E-04-4.30208E-14
 -1      2733 6.96015E-03-3.85856E-04-4.50550E-14
 -1      2734 6.76255E-03-3.55842E-04-4.20683E-14
 -1      2735 7.11078E-03-3.81754E-04-4.71286E-14
 -1      2736 7.26017E-03-3.79954E-04-4.92388E-14
 -1      2737 7.06125E-03-3.44584E-04-4.61362E-14
 -1      2738 7.40852E-03-3.80037E-04-5.13854E-14
 -1      2739 7.55608E-03-3.81597E-04-5.35677E-14
 -1      2740 7.35478E-03-3.42602E-04-5.03535E-14
 -1      2741 7.70292E-03-3.84285E-04-5.57876E-14
 -1      2742 7.84925E-03-3.87834E-04-5.80395E-14
 -1      2743 7.64526E-03-3.46548E-04-5.47161E-14
 -1      2744 7.99505E-03-3.91977E-04-6.03263E-14
 -1      2745 8.14051E-03-3.96539E-04-6.26463E-14
 -1      2746 7.93398E-03-3.53978E-04-5.92184E-14
 -1      2747 8.28559E-03-4.01331E-04-6.49990E-14
 -1      2748 8.43041E-03-4.06243E-04-6.73831E-14
 -1      2749 8.22170E-03-3.63150E-04-6.38536E-14
 -1      2750 8.57495E-03-4.11148E-04-6.97990E-14
 -1      2751 8.71931E-03-4.15979E-04-7.22465E-14
 -1      2752 8.50882E-03-3.72871E-04-6.86177E-14
 -1      2753 8.86344E-03-4.20663E-04-7.47243E-14
 -1      2754 9.00744E-03-4.25159E-04-7.72317E-14
 -1      2755 8.79557E-03-3.82369E-04-7.35075E-14
 -1      2756 9.15126E-03-4.29432E-04-7.97718E-14
 -1      2757 9.29497E-03-4.33460E-04-8.23413E-14
 -1      2758 9.08207E-03-3.91179E-04-7.85212E-14
 -1      2759 9.43854E-03-4.37233E-04-8.49398E-14
 -1      2760 9.58203E-03-4.40743E-04-8.75657E-14
 -1      2761 9.36840E-03-3.99061E-04-8.36562E-14
 -1      2762 9.72542E-03-4.43995E-04-9.02186E-14
 -1      2763 9.86873E-03-4.46990E-04-9.28996E-14
 -1      2764 9.65459E-03-4.05924E-04-8.89038E-14
 -1      2765 1.00120E-02-4.49741E-04-9.56079E-14
 -1      2766 1.01552E-02-4.52255E-04-9.83423E-14
 -1      2767 9.94067E-03-4.11780E-04-9.42607E-14
 -1      2768 1.02983E-02-4.54550E-04-1.01104E-13
 -1      2769 1.04414E-02-4.56635E-04-1.03890E-13
 -1      2770 1.02267E-02-4.16698E-04-9.97271E-14
 -1      2771 1.05844E-02-4.58530E-04-1.06700E-13
 -1      2772 1.07274E-02-4.60245E-04-1.09534E-13
 -1      2773 1.05126E-02-4.20780E-04-1.05296E-13
 -1      2774 1.08704E-02-4.61800E-04-1.12389E-13
 -1      2775 1.10134E-02-4.63205E-04-1.15265E-13
 -1      2776 1.07985E-02-4.24140E-04-1.10960E-13
 -1      2777 1.11563E-02-4.64477E-04-1.18160E-13
 -1      2778 1.12992E-02-4.65626E-04-1.21074E-13
 -1      2779 1.10843E-02-4.26896E-04-1.16709E-13
 -1      2780 1.14421E-02-4.66669E-04-1.24004E-13
 -1      2781 1.15850E-02-4.67613E-04-1.26952E-13
 -1      2782 1.13701E-02-4.29154E-04-1.22536E-13
 -1      2783 1.17279E-02-4.68473E-04-1.29917E-13
 -1      2784 1.18707E-02-4.69255E-04-1.32895E-13
 -1      2785 1.16559E-02-4.31012E-04-1.28432E-13
 -1      2786 1.20136E-02-4.69972E-04-1.35891E-13
 -1      2787 1.21565E-02-4.70629E-04-1.38904E-13
 -1      2788 1.19416E-02-4.32555E-04-1.34390E-13
 -1      2789 1.22993E-02-4.71236E-04-1.41930E-13
 -1      2790 1.24422E-02-4.71798E-04-1.44973E-13
 -1      2791 1.22274E-02-4.33854E-04-1.40414E-13
 -1      2792 1.25850E-02-4.72324E-04-1.48027E-13
 -1      2793 1.27279E-02-4.72816E-04-1.51098E-13
 -1      2794 1.25131E-02-4.34968E-04-1.46495E-13
 -1      2795 1.28707E-02-4.73281E-04-1.54185E-13
 -1      2796 1.30136E-02-4.73722E-04-1.57280E-13
 -1      2797 1.27988E-02-4.35945E-04-1.52636E-13
 -1      2798 1.31564E-02-4.74145E-04-1.60385E-13
 -1      2799 1.32992E-02-4.74552E-04-1.63505E-13
 -1      2800 1.30845E-02-4.36823E-04-1.58825E-13
 -1      2801 1.34421E-02-4.74946E-04-1.66634E-13
 -1      2802 1.35849E-02-4.75331E-04-1.69769E-13
 -1      2803 1.33702E-02-4.37634E-04-1.65060E-13
 -1      2804 1.37278E-02-4.75709E-04-1.72910E-13
 -1      2805 1.38706E-02-4.76082E-04-1.76051E-13
 -1      2806 1.36560E-02-4.38402E-04-1.71326E-13
 -1      2807 1.40135E-02-4.76452E-04-1.79195E-13
 -1      2808 1.41563E-02-4.76821E-04-1.82344E-13
 -1      2809 1.39417E-02-4.39146E-04-1.77608E-13
 -1      2810 2.49345E-03 5.72346E-04-5.90723E-15
 -1      2811 2.32396E-03 5.22894E-04-5.18802E-15
 -1      2812 4.43803E-03-9.53970E-04-1.86620E-14
 -1      2813 4.28781E-03-1.00265E-03-1.75669E-14
 -1      2814 2.15671E-03 4.79355E-04-4.51729E-15
 -1      2815 1.99252E-03 4.40635E-04-3.89470E-15
 -1      2816 2.19547E-03 4.50115E-04-4.93834E-15
 -1      2817 3.19118E-03 8.24174E-04-9.28478E-15
 -1      2818 3.01596E-03 7.55070E-04-8.36358E-15
 -1      2819 3.53787E-03 9.58830E-04-1.12883E-14
 -1      2820 3.36631E-03 8.94156E-04-1.02593E-14
 -1      2821 3.25222E-03 8.10352E-04-9.86285E-15
 -1      2822 3.87001E-03 1.05603E-03-1.35143E-14
 -1      2823 3.70517E-03 1.01492E-03-1.23737E-14
 -1      2824 3.60698E-03 9.51737E-04-1.19192E-14
 -1      2825 4.19175E-03 1.08042E-03-1.59711E-14
 -1      2826 4.03053E-03 1.07918E-03-1.47139E-14
 -1      2827 3.94448E-03 1.04414E-03-1.42033E-14
 -1      2828 4.51686E-03 1.02092E-03-1.86576E-14
 -1      2829 4.35218E-03 1.05984E-03-1.72857E-14
 -1      2830 4.27345E-03 1.04698E-03-1.67207E-14
 -1      2831 4.85557E-03 9.03914E-04-2.15670E-14
 -1      2832 4.68407E-03 9.66752E-04-2.00842E-14
 -1      2833 4.61049E-03 9.59246E-04-1.94703E-14
 -1      2834 5.20597E-03 7.68974E-04-2.46872E-14
 -1      2835 5.03038E-03 8.35920E-04-2.31019E-14
 -1      2836 4.96431E-03 8.21568E-04-2.24424E-14
 -1      2837 5.55679E-03 6.47387E-04-2.80017E-14
 -1      2838 5.38230E-03 7.05366E-04-2.63212E-14
 -1      2839 5.32548E-03 6.81668E-04-2.56223E-14
 -1      2840 5.89979E-03 5.52233E-04-3.14947E-14
 -1      2841 5.72991E-03 5.96307E-04-2.97261E-14
 -1      2842 5.68052E-03 5.66109E-04-2.89899E-14
 -1      2843 6.23163E-03 4.85046E-04-3.51550E-14
 -1      2844 6.06733E-03 5.15423E-04-3.33047E-14
 -1      2845 6.02179E-03 4.81745E-04-3.25316E-14
 -1      2846 6.55277E-03 4.41924E-04-3.89775E-14
 -1      2847 6.39354E-03 4.60890E-04-3.70459E-14
 -1      2848 6.34834E-03 4.25473E-04-3.62363E-14
 -1      2849 6.86523E-03 4.17349E-04-4.29560E-14
 -1      2850 6.71000E-03 4.27694E-04-4.09470E-14
 -1      2851 6.66271E-03 3.91329E-04-4.00995E-14
 -1      2852 7.17111E-03 4.06115E-04-4.70896E-14
 -1      2853 7.01888E-03 4.10368E-04-4.50041E-14
 -1      2854 6.96822E-03 3.73312E-04-4.41198E-14
 -1      2855 7.47215E-03 4.03883E-04-5.13688E-14
 -1      2856 7.32214E-03 4.04103E-04-4.92112E-14
 -1      2857 7.26769E-03 3.66490E-04-4.82896E-14
 -1      2858 7.76960E-03 4.07293E-04-5.57906E-14
 -1      2859 7.62124E-03 4.05049E-04-5.35627E-14
 -1      2860 7.56315E-03 3.67005E-04-5.26047E-14
 -1      2861 8.06435E-03 4.13879E-04-6.03458E-14
 -1      2862 7.91725E-03 4.10305E-04-5.80514E-14
 -1      2863 7.85593E-03 3.71974E-04-5.70578E-14
 -1      2864 8.35700E-03 4.21922E-04-6.50351E-14
 -1      2865 8.21088E-03 4.17797E-04-6.26737E-14
 -1      2866 8.14688E-03 3.79317E-04-6.16462E-14
 -1      2867 8.64802E-03 4.30277E-04-6.98518E-14
 -1      2868 8.50267E-03 4.26111E-04-6.74273E-14
 -1      2869 8.43654E-03 3.87602E-04-6.63642E-14
 -1      2870 8.93775E-03 4.38234E-04-7.47995E-14
 -1      2871 8.79302E-03 4.34336E-04-7.23101E-14
 -1      2872 8.72524E-03 3.95889E-04-7.12120E-14
 -1      2873 9.22647E-03 4.45389E-04-7.98701E-14
 -1      2874 9.08221E-03 4.41928E-04-7.73190E-14
 -1      2875 9.01321E-03 4.03604E-04-7.61863E-14
 -1      2876 9.51440E-03 4.51552E-04-8.50657E-14
 -1      2877 9.37051E-03 4.48601E-04-8.24532E-14
 -1      2878 9.30063E-03 4.10434E-04-8.12857E-14
 -1      2879 9.80170E-03 4.56674E-04-9.03796E-14
 -1      2880 9.65811E-03 4.54244E-04-8.77085E-14
 -1      2881 9.58761E-03 4.16248E-04-8.65084E-14
 -1      2882 1.00885E-02 4.60792E-04-9.58048E-14
 -1      2883 9.94517E-03 4.58856E-04-9.30784E-14
 -1      2884 9.87425E-03 4.21029E-04-9.18476E-14
 -1      2885 1.03750E-02 4.63996E-04-1.01339E-13
 -1      2886 1.02318E-02 4.62504E-04-9.85569E-14
 -1      2887 1.01606E-02 4.24835E-04-9.72974E-14
 -1      2888 1.06612E-02 4.66396E-04-1.06969E-13
 -1      2889 1.05181E-02 4.65290E-04-1.04143E-13
 -1      2890 1.04468E-02 4.27765E-04-1.02852E-13
 -1      2891 1.09473E-02 4.68112E-04-1.12702E-13
 -1      2892 1.08043E-02 4.67333E-04-1.09825E-13
 -1      2893 1.07328E-02 4.29931E-04-1.08508E-13
 -1      2894 1.12331E-02 4.69260E-04-1.18518E-13
 -1      2895 1.10902E-02 4.68751E-04-1.15599E-13
 -1      2896 1.10188E-02 4.31453E-04-1.14256E-13
 -1      2897 1.15189E-02 4.69946E-04-1.24421E-13
 -1      2898 1.13761E-02 4.69656E-04-1.21461E-13
 -1      2899 1.13046E-02 4.32444E-04-1.20092E-13
 -1      2900 1.18047E-02 4.70265E-04-1.30394E-13
 -1      2901 1.16618E-02 4.70147E-04-1.27398E-13
 -1      2902 1.15904E-02 4.33004E-04-1.26006E-13
 -1      2903 1.20904E-02 4.70296E-04-1.36437E-13
 -1      2904 1.19475E-02 4.70312E-04-1.33407E-13
 -1      2905 1.18761E-02 4.33225E-04-1.31993E-13
 -1      2906 1.23761E-02 4.70107E-04-1.42538E-13
 -1      2907 1.22332E-02 4.70225E-04-1.39481E-13
 -1      2908 1.21619E-02 4.33181E-04-1.38046E-13
 -1      2909 1.26617E-02 4.69753E-04-1.48694E-13
 -1      2910 1.25189E-02 4.69948E-04-1.45611E-13
 -1      2911 1.24476E-02 4.32935E-04-1.44159E-13
 -1      2912 1.29474E-02 4.69278E-04-1.54890E-13
 -1      2913 1.28046E-02 4.69528E-04-1.51788E-13
 -1      2914 1.27333E-02 4.32540E-04-1.50322E-13
 -1      2915 1.32331E-02 4.68719E-04-1.61118E-13
 -1      2916 1.30902E-02 4.69007E-04-1.58000E-13
 -1      2917 1.30190E-02 4.32036E-04-1.56523E-13
 -1      2918 1.35187E-02 4.68104E-04-1.67383E-13
 -1      2919 1.33759E-02 4.68417E-04-1.64248E-13
 -1      2920 1.33047E-02 4.31457E-04-1.62760E-13
 -1      2921 1.38044E-02 4.67455E-04-1.73674E-13
 -1      2922 1.36616E-02 4.67782E-04-1.70525E-13
 -1      2923 1.35904E-02 4.30828E-04-1.69029E-13
 -1      2924 1.40901E-02 4.66792E-04-1.79997E-13
 -1      2925 1.39473E-02 4.67124E-04-1.76831E-13
 -1      2926 1.38761E-02 4.30172E-04-1.75328E-13
 -1      2927 1.43442E-02 4.58181E-04-1.85664E-13
 -1      2928 1.42014E-02 4.58512E-04-1.82485E-13
 -1      2929 1.41302E-02 4.21557E-04-1.80971E-13
 -1      2930 1.43527E-02 4.04995E-04-1.85953E-13
 -1      2931 1.43430E-02-2.17893E-06-1.86268E-13
 -1      2932 1.43426E-02 3.99975E-05-1.86225E-13
 -1      2933 1.42529E-02-4.77907E-04-1.84475E-13
 -1      2934 1.43495E-02-4.78994E-04-1.86605E-13
 -1      2935 1.41811E-02-4.40599E-04-1.82884E-13
 -1      2936 1.43417E-02 1.66522E-04-1.86067E-13
 -1      2937 1.43414E-02 2.08693E-04-1.86006E-13
 -1      2938 1.43437E-02-8.65323E-05-1.86344E-13
 -1      2939 1.43433E-02-4.43559E-05-1.86307E-13
 -1      2940 1.42194E-02-2.29630E-05-1.83551E-13
 -1      2941 1.43423E-02 8.21736E-05-1.86175E-13
 -1      2942 1.43420E-02 1.24348E-04-1.86123E-13
 -1      2943 1.42181E-02 1.45732E-04-1.83353E-13
 -1      2944 1.42187E-02 6.13864E-05-1.83461E-13
 -1      2945 4.18667E-03 1.00840E-03-1.62376E-14
 -1      2946 4.31931E-03 9.82056E-04-1.71836E-14
 -1      2947 3.00409E-03-5.18485E-04-1.05726E-14
 -1      2948 2.81450E-03-4.08789E-04-1.00151E-14
 -1      2949 1.43444E-02-1.69453E-04-1.86404E-13
 -1      2950 1.43440E-02-1.27994E-04-1.86376E-13
 -1      2951 1.42201E-02-1.06598E-04-1.83624E-13
 -1      2952 1.43452E-02-2.53798E-04-1.86456E-13
 -1      2953 1.43448E-02-2.11627E-04-1.86431E-13
 -1      2954 1.42209E-02-1.90229E-04-1.83684E-13
 -1      2955 1.43461E-02-3.38134E-04-1.86500E-13
 -1      2956 1.43456E-02-2.95967E-04-1.86479E-13
 -1      2957 1.42217E-02-2.74568E-04-1.83735E-13
 -1      2958 5.53143E-03-3.47611E-04-2.50530E-14
 -1      2959 5.34795E-03-4.46975E-04-2.41745E-14
 -1      2960 6.04421E-03 1.11537E-04-2.68251E-14
 -1      2961 6.20435E-03 5.84336E-05-2.73481E-14
 -1      2962 4.10392E-03-1.02079E-03-1.62434E-14
 -1      2963 3.92292E-03-9.96522E-04-1.49792E-14
 -1      2964 4.20016E-03-1.02157E-03-1.69360E-14
 -1      2965 6.31893E-03 2.62774E-05-2.78732E-14
 -1      2966 6.38232E-03 1.26650E-05-2.81608E-14
 -1      2967 1.82107E-03 1.15860E-05-7.89649E-15
 -1      2968 1.88713E-03 2.43290E-05-7.99956E-15
 -1      2969 2.67022E-03 3.29773E-04-9.33406E-15
 -1      2970 2.85368E-03 4.29829E-04-9.77551E-15
 -1      2971 2.62358E-03-3.08019E-04-9.53086E-15
 -1      2972 2.43102E-03-2.18552E-04-9.06039E-15
 -1      2973 2.69366E-03-3.66048E-04-9.35755E-15
 -1      2974 1.83046E-03 4.06124E-04-3.32015E-15
 -1      2975 1.67072E-03 3.74713E-04-2.79324E-15
 -1      2976 1.86855E-03 3.77501E-04-3.68551E-15
 -1      2977 2.84011E-03 6.88797E-04-7.49405E-15
 -1      2978 2.66612E-03 6.27633E-04-6.67572E-15
 -1      2979 2.53659E-03 5.44909E-04-6.38190E-15
 -1      2980 2.89109E-03 6.66609E-04-8.02051E-15
 -1      2981 1.08125E-03-2.38254E-04-1.46947E-15
 -1      2982 1.23316E-03-2.64868E-04-1.85943E-15
 -1      2983 1.27542E-03-2.41865E-04-2.11594E-15
 -1      2984 1.51267E-03 3.45454E-04-2.31403E-15
 -1      2985 1.35607E-03 3.17307E-04-1.88166E-15
 -1      2986 1.24513E-03 2.66297E-04-1.74542E-15
 -1      2987 1.55292E-03 3.18948E-04-2.62189E-15
 -1      2988 5.28969E-03 4.65206E-04-2.31669E-14
 -1      2989 5.51129E-03 3.46544E-04-2.43391E-14
 -1      2990 7.32986E-04 6.36980E-05-1.03789E-15
 -1      2991 7.16491E-04 4.79644E-05-1.05544E-15
 -1      2992 8.13479E-04 4.80524E-05-1.34623E-15
 -1      2993 8.53079E-04 8.42302E-05-1.30417E-15
 -1      2994 7.15195E-04-4.66645E-05-1.09252E-15
 -1      2995 7.31512E-04-6.21181E-05-1.08325E-15
 -1      2996 1.43743E-02-4.42770E-04-1.87144E-13
 -1      2997 3.94190E-03 9.92700E-04-1.45680E-14
 -1      2998 4.06295E-03 1.01122E-03-1.53892E-14
 -1      2999 4.13245E-03 1.01795E-03-1.58226E-14
 -1      3000 4.78728E-03-7.77737E-04-2.10356E-14
 -1      3001 4.61648E-03-8.74423E-04-1.99089E-14
 -1      3002 2.37974E-03 1.93566E-04-8.71312E-15
 -1      3003 2.52450E-03 2.57338E-04-9.02073E-15
 -1      3004 2.58693E-03 3.07750E-04-8.79765E-15
 -1      3005 4.95799E-03 6.68408E-04-2.14473E-14
 -1      3006 5.11828E-03 5.66163E-04-2.22984E-14
 -1      3007 5.24909E-03 5.10878E-04-2.33889E-14
 -1      3008 1.92090E-03-3.66989E-05-8.10702E-15
 -1      3009 1.84169E-03-1.81267E-05-8.08431E-15
 -1      3010 3.39172E-03-7.53176E-04-1.20151E-14
 -1      3011 3.21382E-03-6.42092E-04-1.13094E-14
 -1      3012 2.21083E-03-1.30053E-04-8.53712E-15
 -1      3013 2.06627E-03-8.15450E-05-8.26094E-15
 -1      3014 5.72065E-03 2.47348E-04-2.54912E-14
 -1      3015 5.85363E-03 1.89764E-04-2.61306E-14
 -1      3016 3.72320E-03-9.31161E-04-1.37111E-14
 -1      3017 3.58561E-03-8.61432E-04-1.29456E-14
 -1      3018 6.39088E-03-2.01125E-05-2.84151E-14
 -1      3019 6.32327E-03-3.56213E-05-2.82686E-14
 -1      3020 5.17896E-03-5.42789E-04-2.32851E-14
 -1      3021 5.01628E-03-6.42850E-04-2.24118E-14
 -1      3022 5.31161E-03-4.91490E-04-2.44848E-14
 -1      3023 8.30842E-04-1.83906E-04-9.47959E-16
 -1      3024 9.71428E-04-2.16072E-04-1.22312E-15
 -1      3025 1.01868E-03-1.97932E-04-1.43107E-15
 -1      3026 8.06898E-04-1.57204E-04-9.69019E-16
 -1      3027 7.50169E-04-8.01830E-05-1.07077E-15
 -1      3028 7.70529E-04-1.01155E-04-1.05441E-15
 -1      3029 8.51109E-04-8.22358E-05-1.36489E-15
 -1      3030 7.77444E-04 3.36961E-07-1.39027E-15
 -1      3031 6.79989E-04-3.88149E-06-1.10105E-15
 -1      3032 6.83584E-04-1.27406E-05-1.10267E-15
 -1      3033 1.79463E-03-1.21640E-05-7.70680E-15
 -1      3034 8.96178E-04 1.92966E-04-9.99960E-16
 -1      3035 4.74650E-03 8.13501E-04-2.03087E-14
 -1      3036 4.84422E-03 7.44330E-04-2.08758E-14
 -1      3037 4.97896E-03 6.83741E-04-2.19251E-14
 -1      3038 6.18818E-03-7.25846E-05-2.75923E-14
 -1      3039 6.05425E-03-1.13378E-04-2.69985E-14
 -1      3040 6.43153E-03 6.69288E-06-2.91824E-14
 -1      3041 6.43844E-03-1.50450E-05-2.94090E-14
 -1      3042 1.42176E-02 2.29715E-04-1.83231E-13
 -1      3043 1.43412E-02 2.50505E-04-1.85943E-13
 -1      3044 1.43409E-02 2.92314E-04-1.85877E-13
 -1      3045 3.83267E-03-9.78356E-04-1.43380E-14
 -1      3046 5.61595E-03 3.15448E-04-2.54309E-14
 -1      3047 4.54457E-03-9.21965E-04-1.95251E-14
 -1      3048 1.43469E-02 3.27755E-04-1.85957E-13
 -1      3049 1.43467E-02 3.69559E-04-1.85881E-13
 -1      3050 1.42354E-02 3.77841E-04-1.83391E-13
 -1      3051 1.42233E-02 3.06965E-04-1.83244E-13
 -1      3052 3.07191E-03-5.80277E-04-1.05375E-14
 -1      3053 2.29813E-03-1.80827E-04-8.37981E-15
 -1      3054 5.71571E-03-2.58852E-04-2.59672E-14
 -1      3055 5.64699E-03-3.16427E-04-2.63187E-14
 -1      3056 1.43738E-02-4.00612E-04-1.87128E-13
 -1      3057 6.28664E-03 4.65990E-05-2.85507E-14
 -1      3058 5.99595E-03 1.47193E-04-2.73099E-14
 -1      3059 1.78301E-03 4.80158E-06-7.67142E-15
 -1      3060 1.77994E-03 1.10935E-05-7.30193E-15
 -1      3061 1.75746E-03 1.53706E-06-7.44929E-15
 -1      3062 4.42723E-03 9.53683E-04-1.79651E-14
 -1      3063 1.93170E-03 4.28083E-05-7.76846E-15
 -1      3064 3.42552E-03 7.73159E-04-1.16473E-14
 -1      3065 3.50935E-03 8.32770E-04-1.19315E-14
 -1      3066 3.29330E-03 7.10323E-04-1.09369E-14
 -1      3067 2.82728E-03 4.52942E-04-9.18657E-15
 -1      3068 2.96371E-03 5.06019E-04-9.86674E-15
 -1      3069 3.05574E-03 5.80611E-04-9.95308E-15
 -1      3070 1.00921E-03 1.98686E-04-1.29391E-15
 -1      3071 6.90854E-04-2.24198E-05-1.10168E-15
 -1      3072 7.01483E-04-3.36057E-05-1.09830E-15
 -1      3073 8.11953E-04-4.66992E-05-1.38625E-15
 -1      3074 7.86238E-04-2.05808E-05-1.39413E-15
 -1      3075 3.45684E-03-8.06377E-04-1.21655E-14
 -1      3076 2.25392E-03 1.49651E-04-8.25656E-15
 -1      3077 2.32176E-03 1.95773E-04-8.04498E-15
 -1      3078 2.13755E-03 1.17658E-04-7.81335E-15
 -1      3079 4.92987E-03-7.14024E-04-2.21732E-14
 -1      3080 1.95344E-03-5.79230E-05-7.73695E-15
 -1      3081 6.28684E-03-5.60486E-05-2.88509E-14
 -1      3082 5.87788E-03-1.86102E-04-2.65543E-14
 -1      3083 1.42155E-02-4.09907E-04-1.83635E-13
 -1      3084 1.43117E-02-3.68831E-04-1.85747E-13
 -1      3085 1.41877E-02-3.47433E-04-1.83006E-13
 -1      3086 1.41189E-02-4.08823E-04-1.81504E-13
 -1      3087 1.03728E-03 1.64473E-04-1.52588E-15
 -1      3088 1.00701E-03 1.34259E-04-1.56602E-15
 -1      3089 5.98323E-03-1.62097E-04-2.77112E-14
 -1      3090 6.45045E-03 1.40536E-05-3.02442E-14
 -1      3091 6.48143E-03 1.97500E-06-3.03425E-14
 -1      3092 1.16902E-03-1.97251E-04-1.93644E-15
 -1      3093 1.31503E-03-2.18551E-04-2.38159E-15
 -1      3094 5.42172E-03-4.64161E-04-2.56789E-14
 -1      3095 5.27199E-03-5.47839E-04-2.47602E-14
 -1      3096 1.76589E-03-2.86740E-04-3.99959E-15
 -1      3097 1.92231E-03-3.14168E-04-4.63313E-15
 -1      3098 2.08315E-03-3.45258E-04-5.31350E-15
 -1      3099 2.24888E-03-3.82445E-04-6.04122E-15
 -1      3100 1.94843E-03-2.79888E-04-5.00618E-15
 -1      3101 2.42103E-03-4.25927E-04-6.81600E-15
 -1      3102 2.59884E-03-4.79223E-04-7.63904E-15
 -1      3103 2.27398E-03-3.44548E-04-6.45911E-15
 -1      3104 3.56107E-03-8.88341E-04-1.25233E-14
 -1      3105 3.74413E-03-9.60686E-04-1.36670E-14
 -1      3106 3.92992E-03-1.01590E-03-1.49356E-14
 -1      3107 4.10355E-03-1.03569E-03-1.62005E-14
 -1      3108 4.27439E-03-1.02163E-03-1.75222E-14
 -1      3109 4.45071E-03-9.77844E-04-1.89043E-14
 -1      3110 5.12417E-03-6.76799E-04-2.41993E-14
 -1      3111 5.31550E-03-5.98540E-04-2.58196E-14
 -1      3112 5.50314E-03-5.32248E-04-2.74846E-14
 -1      3113 5.76000E-03-4.60058E-04-2.99403E-14
 -1      3114 5.93262E-03-4.18655E-04-3.17073E-14
 -1      3115 6.09974E-03-3.86828E-04-3.35122E-14
 -1      3116 6.26103E-03-3.61585E-04-3.53559E-14
 -1      3117 6.06973E-03-3.45316E-04-3.26356E-14
 -1      3118 6.41791E-03-3.42859E-04-3.72397E-14
 -1      3119 6.57100E-03-3.28638E-04-3.91612E-14
 -1      3120 6.38547E-03-3.03346E-04-3.63266E-14
 -1      3121 6.72116E-03-3.18721E-04-4.11189E-14
 -1      3122 6.86905E-03-3.11901E-04-4.31136E-14
 -1      3123 6.68397E-03-2.81201E-04-4.01693E-14
 -1      3124 7.01516E-03-3.07921E-04-4.51459E-14
 -1      3125 7.16004E-03-3.06050E-04-4.72167E-14
 -1      3126 6.97252E-03-2.71596E-04-4.41593E-14
 -1      3127 7.30395E-03-3.05994E-04-4.93260E-14
 -1      3128 7.44725E-03-3.07323E-04-5.14688E-14
 -1      3129 7.25596E-03-2.70145E-04-4.82984E-14
 -1      3130 7.59006E-03-3.09757E-04-5.36484E-14
 -1      3131 7.73263E-03-3.13033E-04-5.58640E-14
 -1      3132 7.53722E-03-2.73901E-04-5.25844E-14
 -1      3133 7.87498E-03-3.16913E-04-5.81124E-14
 -1      3134 8.01729E-03-3.21237E-04-6.03946E-14
 -1      3135 7.81795E-03-2.80809E-04-5.70100E-14
 -1      3136 8.15952E-03-3.25818E-04-6.27105E-14
 -1      3137 8.30180E-03-3.30560E-04-6.50584E-14
 -1      3138 8.09899E-03-2.89384E-04-6.15704E-14
 -1      3139 8.44408E-03-3.35328E-04-6.74389E-14
 -1      3140 8.58644E-03-3.40066E-04-6.98516E-14
 -1      3141 8.38069E-03-2.98575E-04-6.62635E-14
 -1      3142 8.72882E-03-3.44683E-04-7.22948E-14
 -1      3143 8.87128E-03-3.49151E-04-7.47678E-14
 -1      3144 8.66316E-03-3.07664E-04-7.10847E-14
 -1      3145 9.01377E-03-3.53415E-04-7.72724E-14
 -1      3146 9.15634E-03-3.57465E-04-7.98081E-14
 -1      3147 8.94635E-03-3.16197E-04-7.60273E-14
 -1      3148 9.29894E-03-3.61271E-04-8.23733E-14
 -1      3149 9.44160E-03-3.64835E-04-8.49679E-14
 -1      3150 9.23017E-03-3.23916E-04-8.10945E-14
 -1      3151 9.58428E-03-3.68146E-04-8.75891E-14
 -1      3152 9.72701E-03-3.71213E-04-9.02391E-14
 -1      3153 9.51451E-03-3.30707E-04-8.62776E-14
 -1      3154 9.86976E-03-3.74038E-04-9.29166E-14
 -1      3155 1.00125E-02-3.76632E-04-9.56210E-14
 -1      3156 9.79925E-03-3.36554E-04-9.15741E-14
 -1      3157 1.01553E-02-3.79005E-04-9.83523E-14
 -1      3158 1.02982E-02-3.81171E-04-1.01110E-13
 -1      3159 1.00843E-02-3.41506E-04-9.69803E-14
 -1      3160 1.04410E-02-3.83143E-04-1.03895E-13
 -1      3161 1.05838E-02-3.84933E-04-1.06701E-13
 -1      3162 1.03696E-02-3.45646E-04-1.02495E-13
 -1      3163 1.07267E-02-3.86559E-04-1.09531E-13
 -1      3164 1.08695E-02-3.88031E-04-1.12385E-13
 -1      3165 1.06551E-02-3.49078E-04-1.08105E-13
 -1      3166 1.10124E-02-3.89367E-04-1.15258E-13
 -1      3167 1.11553E-02-3.90575E-04-1.18153E-13
 -1      3168 1.09406E-02-3.51907E-04-1.13809E-13
 -1      3169 1.12982E-02-3.91672E-04-1.21065E-13
 -1      3170 1.14410E-02-3.92666E-04-1.23996E-13
 -1      3171 1.12263E-02-3.54236E-04-1.19594E-13
 -1      3172 1.15839E-02-3.93571E-04-1.26946E-13
 -1      3173 1.17268E-02-3.94395E-04-1.29910E-13
 -1      3174 1.15120E-02-3.56159E-04-1.25459E-13
 -1      3175 1.18697E-02-3.95149E-04-1.32889E-13
 -1      3176 1.20125E-02-3.95839E-04-1.35885E-13
 -1      3177 1.17977E-02-3.57760E-04-1.31388E-13
 -1      3178 1.21554E-02-3.96476E-04-1.38896E-13
 -1      3179 1.22983E-02-3.97064E-04-1.41923E-13
 -1      3180 1.20835E-02-3.59107E-04-1.37378E-13
 -1      3181 1.24412E-02-3.97613E-04-1.44965E-13
 -1      3182 1.25840E-02-3.98125E-04-1.48019E-13
 -1      3183 1.23692E-02-3.60261E-04-1.43433E-13
 -1      3184 1.27269E-02-3.98607E-04-1.51088E-13
 -1      3185 1.28698E-02-3.99064E-04-1.54173E-13
 -1      3186 1.26550E-02-3.61270E-04-1.49544E-13
 -1      3187 1.30127E-02-3.99499E-04-1.57266E-13
 -1      3188 1.31555E-02-3.99916E-04-1.60369E-13
 -1      3189 1.29408E-02-3.62173E-04-1.55706E-13
 -1      3190 1.32984E-02-4.00319E-04-1.63487E-13
 -1      3191 1.34413E-02-4.00709E-04-1.66612E-13
 -1      3192 1.32265E-02-3.63001E-04-1.61914E-13
 -1      3193 1.35841E-02-4.01091E-04-1.69743E-13
 -1      3194 1.37270E-02-4.01467E-04-1.72879E-13
 -1      3195 1.35123E-02-3.63779E-04-1.68162E-13
 -1      3196 1.38515E-02-4.04962E-04-1.75616E-13
 -1      3197 1.39944E-02-4.05330E-04-1.78757E-13
 -1      3198 1.40288E-02-3.74637E-04-1.79509E-13
 -1      3199 1.37797E-02-3.67652E-04-1.74028E-13
 -1      3200 6.48626E-03-9.79737E-06-3.04776E-14
 -1      3201 6.46453E-03-2.15255E-05-3.06085E-14
 -1      3202 6.52806E-03-3.65301E-06-3.15574E-14
 -1      3203 3.71779E-03 9.52003E-04-1.28673E-14
 -1      3204 3.53588E-03 8.81458E-04-1.17698E-14
 -1      3205 3.20153E-03 7.19579E-04-1.00522E-14
 -1      3206 3.01113E-03 6.37394E-04-9.10551E-15
 -1      3207 4.34713E-03 1.00768E-03-1.73780E-14
 -1      3208 4.17500E-03 1.03366E-03-1.60619E-14
 -1      3209 4.69654E-03 8.77022E-04-2.01222E-14
 -1      3210 4.51344E-03 9.48544E-04-1.86912E-14
 -1      3211 5.45391E-03 5.89990E-04-2.65642E-14
 -1      3212 5.27041E-03 6.56034E-04-2.49211E-14
 -1      3213 5.80982E-03 4.84896E-04-2.99842E-14
 -1      3214 5.63474E-03 5.33039E-04-2.82526E-14
 -1      3215 5.59278E-03 4.97836E-04-2.75134E-14
 -1      3216 6.14610E-03 4.13751E-04-3.35715E-14
 -1      3217 5.98068E-03 4.45777E-04-3.17568E-14
 -1      3218 5.94386E-03 4.07127E-04-3.09840E-14
 -1      3219 6.46497E-03 3.69187E-04-3.73215E-14
 -1      3220 6.30748E-03 3.88785E-04-3.54275E-14
 -1      3221 6.27113E-03 3.50403E-04-3.46180E-14
 -1      3222 6.77132E-03 3.43872E-04-4.12267E-14
 -1      3223 6.61945E-03 3.54627E-04-3.92554E-14
 -1      3224 6.58025E-03 3.17243E-04-3.84103E-14
 -1      3225 7.06943E-03 3.31931E-04-4.52852E-14
 -1      3226 6.92118E-03 3.36578E-04-4.32361E-14
 -1      3227 6.87773E-03 2.99954E-04-4.23557E-14
 -1      3228 7.36250E-03 3.28977E-04-4.94916E-14
 -1      3229 7.21643E-03 3.29572E-04-4.73704E-14
 -1      3230 7.16831E-03 2.93246E-04-4.64524E-14
 -1      3231 7.65261E-03 3.31751E-04-5.38419E-14
 -1      3232 7.50781E-03 3.29814E-04-5.16489E-14
 -1      3233 7.45517E-03 2.93447E-04-5.06956E-14
 -1      3234 7.94103E-03 3.37873E-04-5.83271E-14
 -1      3235 7.79696E-03 3.34506E-04-5.60670E-14
 -1      3236 7.74027E-03 2.97924E-04-5.50785E-14
 -1      3237 8.22850E-03 3.45653E-04-6.29464E-14
 -1      3238 8.08484E-03 3.41631E-04-6.06200E-14
 -1      3239 8.02470E-03 3.04787E-04-5.95961E-14
 -1      3240 8.51542E-03 3.53933E-04-6.76945E-14
 -1      3241 8.37200E-03 3.49779E-04-6.53063E-14
 -1      3242 8.30903E-03 3.12702E-04-6.42475E-14
 -1      3243 8.80202E-03 3.61963E-04-7.25727E-14
 -1      3244 8.65874E-03 3.58009E-04-7.01170E-14
 -1      3245 8.59351E-03 3.20759E-04-6.90267E-14
 -1      3246 9.08840E-03 3.69294E-04-7.75735E-14
 -1      3247 8.94522E-03 3.65732E-04-7.50571E-14
 -1      3248 8.87823E-03 3.28374E-04-7.39303E-14
 -1      3249 9.37463E-03 3.75695E-04-8.27007E-14
 -1      3250 9.23152E-03 3.72618E-04-8.01213E-14
 -1      3251 9.16320E-03 3.35208E-04-7.89603E-14
 -1      3252 9.66075E-03 3.81082E-04-8.79507E-14
 -1      3253 9.51769E-03 3.78516E-04-8.53108E-14
 -1      3254 9.44839E-03 3.41099E-04-8.41164E-14
 -1      3255 9.94678E-03 3.85468E-04-9.33145E-14
 -1      3256 9.80377E-03 3.83397E-04-9.06181E-14
 -1      3257 9.73375E-03 3.46003E-04-8.93925E-14
 -1      3258 1.02327E-02 3.88924E-04-9.87905E-14
 -1      3259 1.00898E-02 3.87307E-04-9.60397E-14
 -1      3260 1.00192E-02 3.49955E-04-9.47830E-14
 -1      3261 1.05186E-02 3.91553E-04-1.04368E-13
 -1      3262 1.03757E-02 3.90336E-04-1.01566E-13
 -1      3263 1.03048E-02 3.53034E-04-1.00282E-13
 -1      3264 1.08045E-02 3.93470E-04-1.10045E-13
 -1      3265 1.06616E-02 3.92594E-04-1.07194E-13
 -1      3266 1.05905E-02 3.55346E-04-1.05883E-13
 -1      3267 1.10903E-02 3.94787E-04-1.15812E-13
 -1      3268 1.09474E-02 3.94197E-04-1.12918E-13
 -1      3269 1.08762E-02 3.57001E-04-1.11580E-13
 -1      3270 1.13761E-02 3.95615E-04-1.21665E-13
 -1      3271 1.12332E-02 3.95257E-04-1.18727E-13
 -1      3272 1.11619E-02 3.58109E-04-1.17368E-13
 -1      3273 1.16619E-02 3.96048E-04-1.27592E-13
 -1      3274 1.15190E-02 3.95876E-04-1.24619E-13
 -1      3275 1.14477E-02 3.58771E-04-1.23235E-13
 -1      3276 1.19476E-02 3.96170E-04-1.33591E-13
 -1      3277 1.18048E-02 3.96143E-04-1.30582E-13
 -1      3278 1.17334E-02 3.59075E-04-1.29175E-13
 -1      3279 1.22334E-02 3.96051E-04-1.39657E-13
 -1      3280 1.20905E-02 3.96137E-04-1.36617E-13
 -1      3281 1.20192E-02 3.59099E-04-1.35188E-13
 -1      3282 1.25191E-02 3.95751E-04-1.45779E-13
 -1      3283 1.23762E-02 3.95921E-04-1.42712E-13
 -1      3284 1.23049E-02 3.58908E-04-1.41266E-13
 -1      3285 1.28048E-02 3.95316E-04-1.51946E-13
 -1      3286 1.26620E-02 3.95548E-04-1.48857E-13
 -1      3287 1.25907E-02 3.58554E-04-1.47396E-13
 -1      3288 1.30906E-02 3.94784E-04-1.58156E-13
 -1      3289 1.29477E-02 3.95060E-04-1.55048E-13
 -1      3290 1.28764E-02 3.58082E-04-1.53570E-13
 -1      3291 1.33763E-02 3.94186E-04-1.64401E-13
 -1      3292 1.32334E-02 3.94492E-04-1.61273E-13
 -1      3293 1.31622E-02 3.57524E-04-1.59790E-13
 -1      3294 1.36620E-02 3.93546E-04-1.70676E-13
 -1      3295 1.35191E-02 3.93870E-04-1.67533E-13
 -1      3296 1.34479E-02 3.56909E-04-1.66039E-13
 -1      3297 1.39477E-02 3.92883E-04-1.76981E-13
 -1      3298 1.38048E-02 3.93217E-04-1.73825E-13
 -1      3299 1.37336E-02 3.56259E-04-1.72322E-13
 -1      3300 1.41472E-02 3.81221E-04-1.81425E-13
 -1      3301 1.40359E-02 3.89504E-04-1.78943E-13
 -1      3302 1.39647E-02 3.52546E-04-1.77432E-13
 -1      3303 1.41411E-02 3.45785E-04-1.81356E-13
 -1      3304 8.92479E-04 3.10352E-05-1.69037E-15
 -1      3305 8.81398E-04 1.78862E-05-1.70338E-15
 -1      3306 4.06471E-03 1.03526E-03-1.52170E-14
 -1      3307 1.40958E-02-4.37451E-05-1.80839E-13
 -1      3308 1.40955E-02-1.57206E-06-1.80797E-13
 -1      3309 4.61243E-03-9.09224E-04-2.01609E-14
 -1      3310 1.40966E-02-1.26661E-04-1.80908E-13
 -1      3311 1.40962E-02-8.52034E-05-1.80875E-13
 -1      3312 1.39723E-02-6.38108E-05-1.78129E-13
 -1      3313 5.53574E-03 3.82146E-04-2.55273E-14
 -1      3314 5.72649E-03 2.92576E-04-2.67051E-14
 -1      3315 2.71830E-03-4.13486E-04-9.02223E-15
 -1      3316 2.55274E-03-3.25192E-04-8.57222E-15
 -1      3317 5.97072E-03 1.85443E-04-2.81029E-14
 -1      3318 6.13362E-03 1.18479E-04-2.88242E-14
 -1      3319 1.40982E-02-2.95337E-04-1.81017E-13
 -1      3320 1.40978E-02-2.53171E-04-1.80992E-13
 -1      3321 1.40974E-02-2.11003E-04-1.80968E-13
 -1      3322 1.40970E-02-1.68833E-04-1.80938E-13
 -1      3323 1.39730E-02-1.47437E-04-1.78198E-13
 -1      3324 1.39738E-02-2.31774E-04-1.78255E-13
 -1      3325 3.89293E-03 1.01063E-03-1.40016E-14
 -1      3326 1.77593E-03-1.57545E-05-7.22168E-15
 -1      3327 1.75350E-03-6.64276E-06-7.33599E-15
 -1      3328 1.72291E-03-2.11817E-06-6.97369E-15
 -1      3329 2.23088E-03 4.18298E-04-5.36505E-15
 -1      3330 2.06519E-03 3.79997E-04-4.68820E-15
 -1      3331 5.74873E-03-2.99074E-04-2.75503E-14
 -1      3332 5.58414E-03-3.77851E-04-2.66084E-14
 -1      3333 5.54044E-03-4.37431E-04-2.68888E-14
 -1      3334 1.90346E-03 3.47211E-04-4.05870E-15
 -1      3335 1.74555E-03 3.17917E-04-3.47552E-15
 -1      3336 1.93483E-03 3.14973E-04-4.43943E-15
 -1      3337 7.77175E-04-1.16491E-04-1.02087E-15
 -1      3338 7.99219E-04-1.38767E-04-1.00745E-15
 -1      3339 9.02214E-04-1.57474E-04-1.23117E-15
 -1      3340 8.83323E-04-1.20753E-04-1.31114E-15
 -1      3341 1.46281E-03-2.39979E-04-2.87347E-15
 -1      3342 1.61296E-03-2.62522E-04-3.41291E-15
 -1      3343 1.64347E-03-2.33201E-04-3.73806E-15
 -1      3344 6.26959E-03 6.87758E-05-2.94005E-14
 -1      3345 6.37290E-03 3.96201E-05-2.99430E-14
 -1      3346 3.83098E-03 9.67563E-04-1.38044E-14
 -1      3347 2.47359E-03 2.78941E-04-8.15632E-15
 -1      3348 2.60164E-03 3.43626E-04-8.44804E-15
 -1      3349 3.12480E-03-6.42664E-04-1.04515E-14
 -1      3350 2.93791E-03-5.32686E-04-9.75251E-15
 -1      3351 2.35129E-03-2.28794E-04-8.07213E-15
 -1      3352 2.15596E-03-1.51245E-04-7.58668E-15
 -1      3353 2.38307E-03-2.78781E-04-7.75913E-15
 -1      3354 6.37448E-03-5.05640E-05-3.03003E-14
 -1      3355 6.24929E-03-8.36699E-05-2.96028E-14
 -1      3356 1.85331E-03 3.45485E-05-7.22279E-15
 -1      3357 1.96977E-03 6.39826E-05-7.46224E-15
 -1      3358 1.96307E-03-7.78413E-05-7.26726E-15
 -1      3359 1.84408E-03-4.03573E-05-7.13016E-15
 -1      3360 1.18151E-03 2.32857E-04-1.68745E-15
 -1      3361 1.09602E-03 1.92530E-04-1.58972E-15
 -1      3362 1.20385E-03 1.93301E-04-1.95598E-15
 -1      3363 1.33173E-03 2.57202E-04-2.09521E-15
 -1      3364 6.11601E-03-1.33816E-04-2.91365E-14
 -1      3365 5.96784E-03-1.99738E-04-2.86677E-14
 -1      3366 6.23640E-03-1.17752E-04-3.05866E-14
 -1      3367 3.38668E-03-7.92523E-04-1.16136E-14
 -1      3368 4.80031E-03-8.27665E-04-2.16489E-14
 -1      3369 3.24573E-03-7.42540E-04-1.07695E-14
 -1      3370 4.99918E-03-7.12000E-04-2.30505E-14
 -1      3371 8.75560E-04 6.07208E-06-1.71275E-15
 -1      3372 8.75318E-04-5.38432E-06-1.71861E-15
 -1      3373 9.75004E-04 1.30942E-05-2.06704E-15
 -1      3374 5.02691E-03 6.92022E-04-2.25407E-14
 -1      3375 5.12917E-03 6.18814E-04-2.31430E-14
 -1      3376 6.45392E-03 3.03338E-05-3.11146E-14
 -1      3377 1.35152E-03-1.94542E-04-2.65556E-15
 -1      3378 2.71134E-03-4.81704E-04-8.41146E-15
 -1      3379 2.86490E-03-5.82154E-04-8.83215E-15
 -1      3380 1.40940E-02 2.09105E-04-1.80521E-13
 -1      3381 1.40937E-02 2.50914E-04-1.80454E-13
 -1      3382 3.05463E-03-6.58016E-04-9.77454E-15
 -1      3383 5.89339E-03 2.42579E-04-2.82014E-14
 -1      3384 6.04927E-03 2.07365E-04-2.97293E-14
 -1      3385 5.82675E-03 3.03265E-04-2.82938E-14
 -1      3386 5.65320E-03-4.37395E-04-2.83582E-14
 -1      3387 6.53073E-03-3.15014E-05-3.24750E-14
 -1      3388 6.45820E-03-3.88612E-05-3.13820E-14
 -1      3389 6.44702E-03-6.10005E-05-3.21550E-14
 -1      3390 9.49802E-04-8.19227E-05-1.69556E-15
 -1      3391 9.75933E-04-1.05080E-04-1.67863E-15
 -1      3392 2.57678E-03 5.14226E-04-6.85963E-15
 -1      3393 2.40171E-03 4.62409E-04-6.08823E-15
 -1      3394 2.26250E-03 3.83397E-04-5.79719E-15
 -1      3395 1.39716E-02 1.98172E-05-1.78043E-13
 -1      3396 1.40952E-02 4.06011E-05-1.80749E-13
 -1      3397 1.40949E-02 8.27734E-05-1.80700E-13
 -1      3398 5.29227E-03 5.93504E-04-2.47970E-14
 -1      3399 5.15427E-03 6.93412E-04-2.38958E-14
 -1      3400 4.96709E-03 7.71621E-04-2.23318E-14
 -1      3401 9.08424E-04 4.59789E-05-1.67401E-15
 -1      3402 1.00122E-03 4.23641E-05-2.03726E-15
 -1      3403 9.28406E-04 6.34685E-05-1.65352E-15
 -1      3404 1.40945E-02 1.24856E-04-1.80643E-13
 -1      3405 1.40943E-02 1.67026E-04-1.80584E-13
 -1      3406 1.39704E-02 1.88228E-04-1.77817E-13
 -1      3407 1.39710E-02 1.04069E-04-1.77938E-13
 -1      3408 1.10939E-03 1.33824E-04-1.92413E-15
 -1      3409 9.78399E-04 1.07457E-04-1.59988E-15
 -1      3410 9.52142E-04 8.39229E-05-1.62912E-15
 -1      3411 5.90546E-03-2.56151E-04-2.89672E-14
 -1      3412 1.40463E-02-3.50337E-04-1.79888E-13
 -1      3413 1.40807E-02-3.19640E-04-1.80638E-13
 -1      3414 1.39567E-02-2.98243E-04-1.77901E-13
 -1      3415 1.39217E-02-3.46846E-04-1.77144E-13
 -1      3416 5.39173E-03 4.90055E-04-2.50694E-14
 -1      3417 5.52171E-03 4.58933E-04-2.63235E-14
 -1      3418 1.00655E-03-1.75833E-04-1.47937E-15
 -1      3419 1.05027E-03-1.58043E-04-1.69684E-15
 -1      3420 1.79417E-03 2.27692E-05-7.00670E-15
 -1      3421 1.81224E-03 3.90640E-05-6.71436E-15
 -1      3422 1.74574E-03 1.58254E-05-6.79332E-15
 -1      3423 5.27561E-03 5.30083E-04-2.40314E-14
 -1      3424 4.82258E-03 8.27794E-04-2.11444E-14
 -1      3425 6.25007E-03 1.02181E-04-3.02187E-14
 -1      3426 2.69895E-03 4.14046E-04-8.52221E-15
 -1      3427 1.77040E-03-2.82250E-05-6.77222E-15
 -1      3428 1.70853E-03-2.09635E-05-6.42299E-15
 -1      3429 1.76214E-03-4.44120E-05-6.33110E-15
 -1      3430 2.00815E-03-1.14118E-04-6.98240E-15
 -1      3431 1.87554E-03-8.94842E-05-6.40350E-15
 -1      3432 2.04435E-03-1.55341E-04-6.69553E-15
 -1      3433 2.02760E-03 9.73507E-05-7.26327E-15
 -1      3434 1.61392E-03 2.99427E-04-2.99404E-15
 -1      3435 1.46066E-03 2.74256E-04-2.49869E-15
 -1      3436 1.39310E-03 2.39565E-04-2.42289E-15
 -1      3437 1.64834E-03 2.70746E-04-3.32439E-15
 -1      3438 2.34536E-03 2.33582E-04-7.71354E-15
 -1      3439 3.41378E-03 8.31358E-04-1.10445E-14
 -1      3440 9.06804E-04-4.47046E-05-1.71560E-15
 -1      3441 9.26441E-04-6.19164E-05-1.70754E-15
 -1      3442 1.04569E-03-7.96317E-05-2.06103E-15
 -1      3443 2.17868E-03 1.83572E-04-7.07262E-15
 -1      3444 2.30858E-03 2.56071E-04-7.16899E-15
 -1      3445 6.47646E-03 4.79773E-05-3.22748E-14
 -1      3446 6.54260E-03 2.27774E-05-3.25872E-14
 -1      3447 6.26049E-03 1.33050E-04-3.12521E-14
 -1      3448 6.37648E-03 8.80403E-05-3.18515E-14
 -1      3449 1.03742E-03-1.37962E-04-1.74187E-15
 -1      3450 1.38487E-02-8.42316E-05-1.75420E-13
 -1      3451 1.38484E-02-4.27772E-05-1.75381E-13
 -1      3452 5.70510E-03 4.03210E-04-2.80103E-14
 -1      3453 6.35981E-03-2.62950E-04-3.54132E-14
 -1      3454 6.50751E-03-2.51311E-04-3.72988E-14
 -1      3455 6.65160E-03-2.43685E-04-3.92205E-14
 -1      3456 6.79340E-03-2.38590E-04-4.11795E-14
 -1      3457 6.62432E-03-2.05813E-04-3.82717E-14
 -1      3458 6.93337E-03-2.35895E-04-4.31737E-14
 -1      3459 7.07238E-03-2.34830E-04-4.52042E-14
 -1      3460 6.89776E-03-2.00644E-04-4.21887E-14
 -1      3461 7.21061E-03-2.35239E-04-4.72746E-14
 -1      3462 7.34863E-03-2.36733E-04-4.93809E-14
 -1      3463 7.16782E-03-2.01227E-04-4.62525E-14
 -1      3464 7.48647E-03-2.39126E-04-5.15231E-14
 -1      3465 7.62447E-03-2.42209E-04-5.37002E-14
 -1      3466 7.43765E-03-2.05423E-04-5.04627E-14
 -1      3467 7.76261E-03-2.45794E-04-5.59096E-14
 -1      3468 7.90109E-03-2.49769E-04-5.81547E-14
 -1      3469 7.70881E-03-2.11884E-04-5.48131E-14
 -1      3470 8.03985E-03-2.53969E-04-6.04336E-14
 -1      3471 8.17899E-03-2.58333E-04-6.27457E-14
 -1      3472 7.98196E-03-2.19604E-04-5.92998E-14
 -1      3473 8.31845E-03-2.62727E-04-6.50914E-14
 -1      3474 8.45830E-03-2.67123E-04-6.74685E-14
 -1      3475 8.25725E-03-2.27827E-04-6.39210E-14
 -1      3476 8.59844E-03-2.71421E-04-6.98767E-14
 -1      3477 8.73893E-03-2.75611E-04-7.23158E-14
 -1      3478 8.53459E-03-2.36000E-04-6.86708E-14
 -1      3479 8.87969E-03-2.79624E-04-7.47853E-14
 -1      3480 9.02074E-03-2.83462E-04-7.72858E-14
 -1      3481 8.81374E-03-2.43742E-04-7.35460E-14
 -1      3482 9.16201E-03-2.87084E-04-7.98178E-14
 -1      3483 9.30353E-03-2.90498E-04-8.23803E-14
 -1      3484 9.09443E-03-2.50819E-04-7.85441E-14
 -1      3485 9.44522E-03-2.93682E-04-8.49687E-14
 -1      3486 9.58710E-03-2.96649E-04-8.75864E-14
 -1      3487 9.37639E-03-2.57113E-04-8.36637E-14
 -1      3488 9.72912E-03-2.99392E-04-9.02343E-14
 -1      3489 9.87129E-03-3.01925E-04-9.29092E-14
 -1      3490 9.65936E-03-2.62589E-04-8.88962E-14
 -1      3491 1.00136E-02-3.04251E-04-9.56114E-14
 -1      3492 1.01560E-02-3.06384E-04-9.83403E-14
 -1      3493 9.94311E-03-2.67274E-04-9.42446E-14
 -1      3494 1.02984E-02-3.08333E-04-1.01096E-13
 -1      3495 1.04410E-02-3.10111E-04-1.03878E-13
 -1      3496 1.02275E-02-2.71229E-04-9.97014E-14
 -1      3497 1.05836E-02-3.11730E-04-1.06684E-13
 -1      3498 1.07263E-02-3.13203E-04-1.09510E-13
 -1      3499 1.05123E-02-2.74538E-04-1.05261E-13
 -1      3500 1.08690E-02-3.14542E-04-1.12360E-13
 -1      3501 1.10117E-02-3.15759E-04-1.15233E-13
 -1      3502 1.07974E-02-2.77291E-04-1.10916E-13
 -1      3503 1.11545E-02-3.16866E-04-1.18127E-13
 -1      3504 1.12973E-02-3.17873E-04-1.21039E-13
 -1      3505 1.10828E-02-2.79577E-04-1.16659E-13
 -1      3506 1.14401E-02-3.18792E-04-1.23971E-13
 -1      3507 1.15830E-02-3.19630E-04-1.26921E-13
 -1      3508 1.13683E-02-2.81480E-04-1.22486E-13
 -1      3509 1.17258E-02-3.20398E-04-1.29887E-13
 -1      3510 1.18687E-02-3.21104E-04-1.32867E-13
 -1      3511 1.16540E-02-2.83074E-04-1.28383E-13
 -1      3512 1.20116E-02-3.21755E-04-1.35863E-13
 -1      3513 1.21545E-02-3.22357E-04-1.38875E-13
 -1      3514 1.19397E-02-2.84426E-04-1.34346E-13
 -1      3515 1.22973E-02-3.22918E-04-1.41902E-13
 -1      3516 1.24402E-02-3.23442E-04-1.44945E-13
 -1      3517 1.22255E-02-2.85589E-04-1.40372E-13
 -1      3518 1.25831E-02-3.23936E-04-1.48000E-13
 -1      3519 1.27260E-02-3.24402E-04-1.51068E-13
 -1      3520 1.25112E-02-2.86609E-04-1.46455E-13
 -1      3521 1.28689E-02-3.24847E-04-1.54150E-13
 -1      3522 1.30118E-02-3.25272E-04-1.57241E-13
 -1      3523 1.27970E-02-2.87524E-04-1.52592E-13
 -1      3524 1.31547E-02-3.25681E-04-1.60343E-13
 -1      3525 1.32976E-02-3.26078E-04-1.63458E-13
 -1      3526 1.30828E-02-2.88362E-04-1.58775E-13
 -1      3527 1.34404E-02-3.26464E-04-1.66581E-13
 -1      3528 1.35833E-02-3.26842E-04-1.69712E-13
 -1      3529 1.33686E-02-2.89148E-04-1.65000E-13
 -1      3530 2.80109E-03 5.16328E-04-8.41299E-15
 -1      3531 2.88253E-03 6.24620E-04-8.23885E-15
 -1      3532 1.13947E-03-1.37157E-04-2.11787E-15
 -1      3533 5.87188E-03 3.54003E-04-2.95324E-14
 -1      3534 2.59537E-03 4.16735E-04-7.71196E-15
 -1      3535 1.20525E-03-1.15039E-04-2.50128E-15
 -1      3536 1.27595E-03-1.51883E-04-2.58162E-15
 -1      3537 1.41434E-03-1.66742E-04-3.09122E-15
 -1      3538 2.70042E-03 5.58799E-04-7.38668E-15
 -1      3539 6.69325E-03 2.69822E-04-3.95029E-14
 -1      3540 6.54596E-03 2.79329E-04-3.75667E-14
 -1      3541 6.98130E-03 2.59576E-04-4.34874E-14
 -1      3542 6.83810E-03 2.63574E-04-4.14764E-14
 -1      3543 6.80238E-03 2.27242E-04-4.05970E-14
 -1      3544 7.26439E-03 2.57196E-04-4.76223E-14
 -1      3545 7.12321E-03 2.57637E-04-4.55355E-14
 -1      3546 7.08111E-03 2.22638E-04-4.46224E-14
 -1      3547 7.54538E-03 2.59821E-04-5.19006E-14
 -1      3548 7.40499E-03 2.58028E-04-4.97442E-14
 -1      3549 7.35718E-03 2.23521E-04-4.87939E-14
 -1      3550 7.82591E-03 2.65449E-04-5.63161E-14
 -1      3551 7.68562E-03 2.62353E-04-5.40914E-14
 -1      3552 7.63288E-03 2.27802E-04-5.31061E-14
 -1      3553 8.10679E-03 2.72651E-04-6.08663E-14
 -1      3554 7.96625E-03 2.68916E-04-5.85746E-14
 -1      3555 7.90939E-03 2.34048E-04-5.75548E-14
 -1      3556 8.38836E-03 2.80409E-04-6.55479E-14
 -1      3557 8.24746E-03 2.76501E-04-6.31902E-14
 -1      3558 8.18719E-03 2.41221E-04-6.21368E-14
 -1      3559 8.67072E-03 2.88032E-04-7.03553E-14
 -1      3560 8.52943E-03 2.84262E-04-6.79351E-14
 -1      3561 8.46641E-03 2.48572E-04-6.68479E-14
 -1      3562 8.95382E-03 2.95083E-04-7.52896E-14
 -1      3563 8.81217E-03 2.91643E-04-7.28076E-14
 -1      3564 8.74698E-03 2.55591E-04-7.16854E-14
 -1      3565 9.23758E-03 3.01314E-04-8.03482E-14
 -1      3566 9.09562E-03 2.98306E-04-7.78036E-14
 -1      3567 9.02874E-03 2.61962E-04-7.66489E-14
 -1      3568 9.52187E-03 3.06620E-04-8.55329E-14
 -1      3569 9.37965E-03 3.04083E-04-8.29257E-14
 -1      3570 9.31148E-03 2.67514E-04-8.17370E-14
 -1      3571 9.80657E-03 3.10989E-04-9.08367E-14
 -1      3572 9.66417E-03 3.08918E-04-8.81704E-14
 -1      3573 9.59502E-03 2.72185E-04-8.69497E-14
 -1      3574 1.00916E-02 3.14472E-04-9.62518E-14
 -1      3575 9.94905E-03 3.12836E-04-9.35293E-14
 -1      3576 9.87919E-03 2.75987E-04-9.22802E-14
 -1      3577 1.03769E-02 3.17152E-04-1.01773E-13
 -1      3578 1.02342E-02 3.15906E-04-9.90010E-14
 -1      3579 1.01638E-02 2.78980E-04-9.77201E-14
 -1      3580 1.06623E-02 3.19133E-04-1.07397E-13
 -1      3581 1.05196E-02 3.18223E-04-1.04573E-13
 -1      3582 1.04488E-02 2.81250E-04-1.03265E-13
 -1      3583 1.09479E-02 3.20519E-04-1.13115E-13
 -1      3584 1.08051E-02 3.19894E-04-1.10244E-13
 -1      3585 1.07341E-02 2.82894E-04-1.08911E-13
 -1      3586 1.12335E-02 3.21413E-04-1.18919E-13
 -1      3587 1.10907E-02 3.21022E-04-1.16006E-13
 -1      3588 1.10196E-02 2.84010E-04-1.14648E-13
 -1      3589 1.15192E-02 3.21907E-04-1.24804E-13
 -1      3590 1.13764E-02 3.21705E-04-1.21853E-13
 -1      3591 1.13052E-02 2.84691E-04-1.20471E-13
 -1      3592 1.18050E-02 3.22084E-04-1.30760E-13
 -1      3593 1.16621E-02 3.22031E-04-1.27774E-13
 -1      3594 1.15908E-02 2.85021E-04-1.26372E-13
 -1      3595 1.20907E-02 3.22012E-04-1.36785E-13
 -1      3596 1.19478E-02 3.22075E-04-1.33764E-13
 -1      3597 1.18766E-02 2.85072E-04-1.32343E-13
 -1      3598 1.23765E-02 3.21750E-04-1.42872E-13
 -1      3599 1.22336E-02 3.21902E-04-1.39822E-13
 -1      3600 1.21623E-02 2.84907E-04-1.38379E-13
 -1      3601 1.26623E-02 3.21345E-04-1.49009E-13
 -1      3602 1.25194E-02 3.21563E-04-1.45936E-13
 -1      3603 1.24481E-02 2.84577E-04-1.44477E-13
 -1      3604 1.29480E-02 3.20837E-04-1.55195E-13
 -1      3605 1.28051E-02 3.21103E-04-1.52095E-13
 -1      3606 1.27339E-02 2.84125E-04-1.50625E-13
 -1      3607 1.32338E-02 3.20256E-04-1.61418E-13
 -1      3608 1.30909E-02 3.20554E-04-1.58302E-13
 -1      3609 1.30196E-02 2.83584E-04-1.56817E-13
 -1      3610 1.35195E-02 3.19626E-04-1.67680E-13
 -1      3611 1.33766E-02 3.19946E-04-1.64546E-13
 -1      3612 1.33054E-02 2.82981E-04-1.63050E-13
 -1      3613 1.38053E-02 3.18967E-04-1.73966E-13
 -1      3614 1.36624E-02 3.19299E-04-1.70819E-13
 -1      3615 1.35912E-02 2.82337E-04-1.69317E-13
 -1      3616 2.78212E-03-4.81970E-04-8.93654E-15
 -1      3617 1.67204E-03-3.90630E-06-6.37191E-15
 -1      3618 1.68556E-03 3.66624E-06-6.47923E-15
 -1      3619 1.41144E-02 2.80631E-04-1.80868E-13
 -1      3620 1.41204E-02 3.16071E-04-1.80944E-13
 -1      3621 1.40322E-02 3.19452E-04-1.78984E-13
 -1      3622 1.39908E-02 2.60021E-04-1.78163E-13
 -1      3623 6.35366E-03-1.02542E-04-3.19996E-14
 -1      3624 6.23970E-03-1.47780E-04-3.15123E-14
 -1      3625 6.39553E-03 2.92240E-04-3.56683E-14
 -1      3626 6.24092E-03 3.10388E-04-3.38084E-14
 -1      3627 6.51689E-03 2.40495E-04-3.67236E-14
 -1      3628 6.03878E-03 3.20341E-04-3.12966E-14
 -1      3629 8.80668E-04-1.70825E-05-1.72114E-15
 -1      3630 8.91259E-04-3.00031E-05-1.72010E-15
 -1      3631 9.99546E-04-4.12175E-05-2.07932E-15
 -1      3632 1.96063E-03 2.80733E-04-4.82741E-15
 -1      3633 1.80577E-03 2.55367E-04-4.19180E-15
 -1      3634 1.81597E-03-2.21601E-04-4.70335E-15
 -1      3635 1.96748E-03-2.43797E-04-5.38315E-15
 -1      3636 2.55779E-03 4.68140E-04-7.05801E-15
 -1      3637 1.86901E-03 7.46571E-05-6.42506E-15
 -1      3638 2.01582E-03 1.20536E-04-6.74753E-15
 -1      3639 1.98986E-03 1.45932E-04-6.24285E-15
 -1      3640 1.54007E-03-1.83950E-04-3.56331E-15
 -1      3641 1.68346E-03-2.00758E-04-4.15878E-15
 -1      3642 1.70276E-03-1.68934E-04-4.49819E-15
 -1      3643 1.45601E-03-1.39123E-04-3.46829E-15
 -1      3644 6.56864E-03 3.56582E-06-3.26208E-14
 -1      3645 6.57518E-03-9.31137E-06-3.27592E-14
 -1      3646 6.61009E-03 1.66465E-05-3.38073E-14
 -1      3647 6.49439E-03 7.31366E-05-3.33404E-14
 -1      3648 1.24619E-03 1.63127E-04-2.27674E-15
 -1      3649 1.20900E-03 1.30870E-04-2.31988E-15
 -1      3650 2.51068E-03-3.80703E-04-7.74469E-15
 -1      3651 1.07601E-03 2.13245E-05-2.45272E-15
 -1      3652 1.06779E-03 7.03541E-06-2.46522E-15
 -1      3653 6.27208E-03-1.75227E-04-3.26151E-14
 -1      3654 6.13824E-03-1.98574E-04-3.11921E-14
 -1      3655 2.38709E-03 3.23353E-04-7.06203E-15
 -1      3656 2.48340E-03 4.17382E-04-6.94995E-15
 -1      3657 1.38491E-02-1.26401E-04-1.75457E-13
 -1      3658 1.37252E-02-1.05365E-04-1.72717E-13
 -1      3659 1.38495E-02-1.68568E-04-1.75490E-13
 -1      3660 2.12460E-03-2.69820E-04-6.10788E-15
 -1      3661 2.28882E-03-3.03659E-04-6.87841E-15
 -1      3662 6.19807E-03-2.74358E-04-3.33723E-14
 -1      3663 6.33292E-03-2.16409E-04-3.43038E-14
 -1      3664 6.20217E-03 1.78716E-04-3.13530E-14
 -1      3665 6.59660E-03-2.35595E-05-3.35534E-14
 -1      3666 6.60969E-03-4.06927E-05-3.43489E-14
 -1      3667 6.65621E-03-1.61996E-05-3.46435E-14
 -1      3668 6.45586E-03-8.53920E-05-3.31057E-14
 -1      3669 2.21997E-03 2.69647E-04-6.44869E-15
 -1      3670 1.17106E-03-8.81590E-05-2.51886E-15
 -1      3671 1.36902E-02-3.35099E-04-1.72056E-13
 -1      3672 1.38148E-02-3.38593E-04-1.74790E-13
 -1      3673 1.38323E-02-3.14293E-04-1.75170E-13
 -1      3674 1.36184E-02-2.97785E-04-1.70471E-13
 -1      3675 3.15308E-03 6.49716E-04-1.02076E-14
 -1      3676 1.38480E-02-6.07532E-07-1.75338E-13
 -1      3677 1.38477E-02 4.15616E-05-1.75288E-13
 -1      3678 1.37244E-02-2.10306E-05-1.72633E-13
 -1      3679 1.04834E-03 8.15306E-05-1.99047E-15
 -1      3680 1.38521E-02 2.56157E-04-1.75105E-13
 -1      3681 1.38728E-02 2.85873E-04-1.75515E-13
 -1      3682 1.39440E-02 3.22833E-04-1.77024E-13
 -1      3683 1.63968E-03-1.34673E-05-5.94910E-15
 -1      3684 5.79669E-03-3.66651E-04-2.93319E-14
 -1      3685 1.11373E-03 5.53626E-05-2.41459E-15
 -1      3686 1.09166E-03 3.70019E-05-2.43605E-15
 -1      3687 1.17970E-03 3.06766E-05-2.86891E-15
 -1      3688 1.73678E-03 4.41717E-05-6.02318E-15
 -1      3689 1.79944E-03 5.71645E-05-6.22305E-15
 -1      3690 1.77792E-03 7.78821E-05-5.74486E-15
 -1      3691 6.18002E-03 2.53010E-04-3.22975E-14
 -1      3692 1.67673E-03 1.27493E-05-6.20017E-15
 -1      3693 6.04003E-03-2.97498E-04-3.15675E-14
 -1      3694 2.34391E-03-2.91749E-04-7.34973E-15
 -1      3695 1.78575E-03-6.95461E-05-6.06488E-15
 -1      3696 1.70472E-03-5.53933E-05-5.73522E-15
 -1      3697 1.80802E-03-9.99859E-05-5.79854E-15
 -1      3698 2.16695E-03-2.12541E-04-6.89513E-15
 -1      3699 2.01512E-03-1.72133E-04-6.31903E-15
 -1      3700 1.97881E-03-2.05074E-04-5.76386E-15
 -1      3701 9.74403E-04-1.23654E-05-2.08103E-15
 -1      3702 1.67872E-03 2.40967E-04-3.66384E-15
 -1      3703 1.55310E-03 2.27255E-04-3.17147E-15
 -1      3704 1.70436E-03 2.09634E-04-4.01189E-15
 -1      3705 5.94693E-03-2.80080E-04-3.00306E-14
 -1      3706 1.38526E-02 1.72007E-04-1.75242E-13
 -1      3707 1.38523E-02 2.14083E-04-1.75176E-13
 -1      3708 1.37343E-02 2.39935E-04-1.72535E-13
 -1      3709 1.38498E-02-2.89992E-04-1.75547E-13
 -1      3710 1.37339E-02-2.72809E-04-1.72994E-13
 -1      3711 1.38583E-02-2.56759E-04-1.75723E-13
 -1      3712 1.38579E-02-2.14594E-04-1.75697E-13
 -1      3713 1.36269E-02-2.64555E-04-1.70647E-13
 -1      3714 6.41617E-03-1.71596E-04-3.46441E-14
 -1      3715 1.32719E-03 2.07118E-04-2.34452E-15
 -1      3716 1.43160E-03 2.04379E-04-2.78593E-15
 -1      3717 1.06742E-03-6.40909E-06-2.47327E-15
 -1      3718 1.07491E-03-2.05467E-05-2.47698E-15
 -1      3719 1.16040E-03 2.77344E-07-2.89668E-15
 -1      3720 1.46279E-03 1.78109E-04-3.08998E-15
 -1      3721 1.85042E-03 1.31139E-04-5.52598E-15
 -1      3722 1.99067E-03 1.84506E-04-5.81500E-15
 -1      3723 6.37352E-03 1.83490E-04-3.38778E-14
 -1      3724 6.86552E-03-1.66605E-04-4.12066E-14
 -1      3725 6.99645E-03-1.67091E-04-4.32003E-14
 -1      3726 7.12718E-03-1.68479E-04-4.52323E-14
 -1      3727 7.25857E-03-1.70460E-04-4.73008E-14
 -1      3728 7.08846E-03-1.37037E-04-4.42137E-14
 -1      3729 7.39034E-03-1.73002E-04-4.94043E-14
 -1      3730 7.52293E-03-1.75946E-04-5.15438E-14
 -1      3731 7.34425E-03-1.41901E-04-4.83480E-14
 -1      3732 7.65614E-03-1.79211E-04-5.37187E-14
 -1      3733 7.79021E-03-1.82725E-04-5.59268E-14
 -1      3734 7.60433E-03-1.47812E-04-5.26238E-14
 -1      3735 7.92497E-03-1.86387E-04-5.81679E-14
 -1      3736 8.06055E-03-1.90163E-04-6.04439E-14
 -1      3737 7.86866E-03-1.54353E-04-5.70391E-14
 -1      3738 8.19680E-03-1.93957E-04-6.27533E-14
 -1      3739 8.33378E-03-1.97755E-04-6.50950E-14
 -1      3740 8.13691E-03-1.61153E-04-6.15883E-14
 -1      3741 8.47136E-03-2.01477E-04-6.74697E-14
 -1      3742 8.60958E-03-2.05120E-04-6.98728E-14
 -1      3743 8.40863E-03-1.67888E-04-6.62692E-14
 -1      3744 8.74832E-03-2.08624E-04-7.23085E-14
 -1      3745 8.88759E-03-2.11994E-04-7.47756E-14
 -1      3746 8.68333E-03-1.74306E-04-7.10747E-14
 -1      3747 9.02730E-03-2.15189E-04-7.72733E-14
 -1      3748 9.16744E-03-2.18219E-04-7.98024E-14
 -1      3749 8.96053E-03-1.80229E-04-7.60045E-14
 -1      3750 9.30793E-03-2.21059E-04-8.23596E-14
 -1      3751 9.44877E-03-2.23723E-04-8.49457E-14
 -1      3752 9.23978E-03-1.85557E-04-8.10577E-14
 -1      3753 9.58989E-03-2.26197E-04-8.75639E-14
 -1      3754 9.73129E-03-2.28497E-04-9.02079E-14
 -1      3755 9.52069E-03-1.90250E-04-8.62313E-14
 -1      3756 9.87290E-03-2.30618E-04-9.28817E-14
 -1      3757 1.00147E-02-2.32576E-04-9.55824E-14
 -1      3758 9.80289E-03-1.94314E-04-9.15200E-14
 -1      3759 1.01567E-02-2.34373E-04-9.83081E-14
 -1      3760 1.02989E-02-2.36023E-04-1.01062E-13
 -1      3761 1.00861E-02-1.97790E-04-9.69199E-14
 -1      3762 1.04411E-02-2.37533E-04-1.03841E-13
 -1      3763 1.05835E-02-2.38915E-04-1.06646E-13
 -1      3764 1.03701E-02-2.00737E-04-1.02425E-13
 -1      3765 1.07260E-02-2.40178E-04-1.09474E-13
 -1      3766 1.08685E-02-2.41332E-04-1.12322E-13
 -1      3767 1.06547E-02-2.03220E-04-1.08032E-13
 -1      3768 1.10112E-02-2.42387E-04-1.15194E-13
 -1      3769 1.11539E-02-2.43353E-04-1.18088E-13
 -1      3770 1.09396E-02-2.05312E-04-1.13731E-13
 -1      3771 1.12966E-02-2.44238E-04-1.20999E-13
 -1      3772 1.14394E-02-2.45050E-04-1.23930E-13
 -1      3773 1.12249E-02-2.07078E-04-1.19515E-13
 -1      3774 1.15822E-02-2.45798E-04-1.26879E-13
 -1      3775 1.17250E-02-2.46488E-04-1.29846E-13
 -1      3776 1.15104E-02-2.08579E-04-1.25376E-13
 -1      3777 1.18679E-02-2.47128E-04-1.32828E-13
 -1      3778 1.20107E-02-2.47723E-04-1.35826E-13
 -1      3779 1.17960E-02-2.09870E-04-1.31309E-13
 -1      3780 1.21536E-02-2.48280E-04-1.38839E-13
 -1      3781 1.22965E-02-2.48801E-04-1.41868E-13
 -1      3782 1.20818E-02-2.10995E-04-1.37307E-13
 -1      3783 1.24394E-02-2.49294E-04-1.44910E-13
 -1      3784 1.25823E-02-2.49761E-04-1.47963E-13
 -1      3785 1.23675E-02-2.11994E-04-1.43364E-13
 -1      3786 1.27252E-02-2.50207E-04-1.51034E-13
 -1      3787 1.28681E-02-2.50634E-04-1.54116E-13
 -1      3788 1.26533E-02-2.12898E-04-1.49474E-13
 -1      3789 1.30110E-02-2.51046E-04-1.57205E-13
 -1      3790 1.31539E-02-2.51444E-04-1.60307E-13
 -1      3791 1.29391E-02-2.13733E-04-1.55636E-13
 -1      3792 1.32968E-02-2.51833E-04-1.63418E-13
 -1      3793 1.34396E-02-2.52212E-04-1.66541E-13
 -1      3794 1.32249E-02-2.14518E-04-1.61837E-13
 -1      3795 2.13146E-03 2.80127E-04-5.81828E-15
 -1      3796 1.97363E-03 2.52363E-04-5.11891E-15
 -1      3797 7.44644E-03 1.92023E-04-4.99661E-14
 -1      3798 7.31142E-03 1.90142E-04-4.78440E-14
 -1      3799 1.08988E-03-3.59974E-05-2.47656E-15
 -1      3800 1.11151E-03-5.40007E-05-2.47129E-15
 -1      3801 1.17796E-03-2.98205E-05-2.90572E-15
 -1      3802 7.17673E-03 1.88919E-04-4.57585E-14
 -1      3803 7.04186E-03 1.88588E-04-4.37094E-14
 -1      3804 7.26756E-03 1.57871E-04-4.68966E-14
 -1      3805 6.90689E-03 1.89336E-04-4.16961E-14
 -1      3806 6.77088E-03 1.91574E-04-3.97206E-14
 -1      3807 7.00542E-03 1.55435E-04-4.27974E-14
 -1      3808 7.71752E-03 1.97225E-04-5.43127E-14
 -1      3809 7.58172E-03 1.94413E-04-5.21225E-14
 -1      3810 7.53193E-03 1.62202E-04-5.11392E-14
 -1      3811 7.99061E-03 2.03591E-04-5.87941E-14
 -1      3812 7.85377E-03 2.00298E-04-5.65366E-14
 -1      3813 7.79923E-03 1.67690E-04-5.55205E-14
 -1      3814 8.26586E-03 2.10397E-04-6.34079E-14
 -1      3815 8.12795E-03 2.06962E-04-6.10852E-14
 -1      3816 8.06959E-03 1.73758E-04-6.00348E-14
 -1      3817 8.54317E-03 2.17112E-04-6.81488E-14
 -1      3818 8.40426E-03 2.13780E-04-6.57626E-14
 -1      3819 8.34283E-03 1.79925E-04-6.46801E-14
 -1      3820 8.82229E-03 2.23375E-04-7.30170E-14
 -1      3821 8.68251E-03 2.20308E-04-7.05663E-14
 -1      3822 8.61864E-03 1.85831E-04-6.94519E-14
 -1      3823 9.10296E-03 2.28965E-04-7.80092E-14
 -1      3824 8.96244E-03 2.26256E-04-7.54988E-14
 -1      3825 8.89666E-03 1.91229E-04-7.43497E-14
 -1      3826 9.38490E-03 2.33770E-04-8.31263E-14
 -1      3827 9.24378E-03 2.31463E-04-8.05518E-14
 -1      3828 9.17650E-03 1.95971E-04-7.93699E-14
 -1      3829 9.66785E-03 2.37763E-04-8.83673E-14
 -1      3830 9.52625E-03 2.35864E-04-8.57310E-14
 -1      3831 9.45783E-03 1.99992E-04-8.45164E-14
 -1      3832 9.95159E-03 2.40973E-04-9.37228E-14
 -1      3833 9.80963E-03 2.39460E-04-9.10309E-14
 -1      3834 9.74035E-03 2.03288E-04-8.97850E-14
 -1      3835 1.02359E-02 2.43463E-04-9.91888E-14
 -1      3836 1.00937E-02 2.42301E-04-9.64427E-14
 -1      3837 1.00238E-02 2.05898E-04-9.51676E-14
 -1      3838 1.05207E-02 2.45316E-04-1.04757E-13
 -1      3839 1.03783E-02 2.44463E-04-1.01960E-13
 -1      3840 1.03079E-02 2.07884E-04-1.00657E-13
 -1      3841 1.08059E-02 2.46621E-04-1.10425E-13
 -1      3842 1.06633E-02 2.46031E-04-1.07579E-13
 -1      3843 1.05926E-02 2.09324E-04-1.06251E-13
 -1      3844 1.10913E-02 2.47468E-04-1.16181E-13
 -1      3845 1.09485E-02 2.47097E-04-1.13293E-13
 -1      3846 1.08776E-02 2.10298E-04-1.11939E-13
 -1      3847 1.13768E-02 2.47939E-04-1.22023E-13
 -1      3848 1.12340E-02 2.47746E-04-1.19092E-13
 -1      3849 1.11629E-02 2.10882E-04-1.17715E-13
 -1      3850 1.16624E-02 2.48108E-04-1.27938E-13
 -1      3851 1.15196E-02 2.48057E-04-1.24971E-13
 -1      3852 1.14484E-02 2.11150E-04-1.23573E-13
 -1      3853 1.19482E-02 2.48038E-04-1.33922E-13
 -1      3854 1.18053E-02 2.48099E-04-1.30922E-13
 -1      3855 1.17341E-02 2.11164E-04-1.29502E-13
 -1      3856 1.22339E-02 2.47784E-04-1.39972E-13
 -1      3857 1.20910E-02 2.47931E-04-1.36940E-13
 -1      3858 1.20198E-02 2.10980E-04-1.35501E-13
 -1      3859 1.25197E-02 2.47390E-04-1.46080E-13
 -1      3860 1.23768E-02 2.47602E-04-1.43020E-13
 -1      3861 1.23056E-02 2.10642E-04-1.41563E-13
 -1      3862 1.28055E-02 2.46893E-04-1.52237E-13
 -1      3863 1.26626E-02 2.47153E-04-1.49153E-13
 -1      3864 1.25913E-02 2.10188E-04-1.47682E-13
 -1      3865 1.30913E-02 2.46321E-04-1.58436E-13
 -1      3866 1.29484E-02 2.46615E-04-1.55330E-13
 -1      3867 1.28771E-02 2.09650E-04-1.53847E-13
 -1      3868 1.33771E-02 2.45699E-04-1.64680E-13
 -1      3869 1.32342E-02 2.46015E-04-1.61553E-13
 -1      3870 1.31629E-02 2.09051E-04-1.60057E-13
 -1      3871 1.36271E-02 2.42656E-04-1.70173E-13
 -1      3872 1.34842E-02 2.42986E-04-1.67035E-13
 -1      3873 1.34130E-02 2.06022E-04-1.65530E-13
 -1      3874 1.36274E-02 2.00585E-04-1.70243E-13
 -1      3875 6.50474E-03-1.22297E-04-3.48998E-14
 -1      3876 6.56635E-03-1.61106E-04-3.66400E-14
 -1      3877 1.38474E-02 8.36413E-05-1.75238E-13
 -1      3878 1.38471E-02 1.25720E-04-1.75180E-13
 -1      3879 1.37238E-02 6.32141E-05-1.72536E-13
 -1      3880 1.59774E-03-2.34259E-05-5.45061E-15
 -1      3881 1.56764E-03-6.38242E-06-5.40603E-15
 -1      3882 6.64021E-03 1.83649E-04-3.77100E-14
 -1      3883 6.50258E-03 1.89198E-04-3.58096E-14
 -1      3884 6.50874E-03 1.26843E-04-3.48210E-14
 -1      3885 6.74919E-03 1.45809E-04-3.87691E-14
 -1      3886 6.59606E-03 8.30544E-05-3.52695E-14
 -1      3887 6.67032E-03 4.87897E-05-3.57086E-14
 -1      3888 6.70586E-03 9.43469E-05-3.72357E-14
 -1      3889 1.87350E-03-1.56111E-04-5.58748E-15
 -1      3890 1.58152E-03 1.13900E-05-5.44120E-15
 -1      3891 1.64804E-03 2.43004E-05-5.73063E-15
 -1      3892 1.61782E-03 3.87284E-05-5.27592E-15
 -1      3893 6.69717E-03-1.59091E-04-3.85502E-14
 -1      3894 6.58193E-03-8.22071E-05-3.50687E-14
 -1      3895 1.17364E-03 1.02030E-04-2.35655E-15
 -1      3896 1.14164E-03 7.68801E-05-2.38821E-15
 -1      3897 1.23148E-03 7.07068E-05-2.82128E-15
 -1      3898 1.30519E-03 1.25844E-04-2.75171E-15
 -1      3899 1.77822E-03 1.08667E-04-5.34196E-15
 -1      3900 1.77064E-03 1.41447E-04-4.94715E-15
 -1      3901 1.71026E-03 8.99620E-05-5.16027E-15
 -1      3902 1.74291E-03-1.50055E-04-4.88112E-15
 -1      3903 1.78154E-03-1.20568E-04-5.39198E-15
 -1      3904 1.69191E-03-9.94502E-05-5.08330E-15
 -1      3905 1.62035E-03-1.36196E-04-4.32748E-15
 -1      3906 1.26160E-03-8.21508E-05-2.95891E-15
 -1      3907 6.67087E-03 2.31641E-05-3.51684E-14
 -1      3908 6.68741E-03 3.12480E-06-3.52013E-14
 -1      3909 6.72552E-03-1.14066E-05-3.60195E-14
 -1      3910 6.76790E-03 3.24899E-05-3.71386E-14
 -1      3911 1.60092E-03-6.14888E-05-4.96050E-15
 -1      3912 1.59664E-03-4.06924E-05-5.20516E-15
 -1      3913 1.50001E-03-2.99525E-05-4.69896E-15
 -1      3914 6.66807E-03-7.00878E-05-3.61839E-14
 -1      3915 2.36083E-03 3.79196E-04-6.44241E-15
 -1      3916 1.36016E-02-1.26136E-04-1.70022E-13
 -1      3917 1.36012E-02-8.39727E-05-1.69983E-13
 -1      3918 6.79990E-03-1.25998E-04-3.95173E-14
 -1      3919 1.35551E-02-2.27240E-04-1.69056E-13
 -1      3920 1.36009E-02-4.18083E-05-1.69942E-13
 -1      3921 1.36005E-02 3.55855E-07-1.69895E-13
 -1      3922 1.34773E-02-6.25827E-05-1.67253E-13
 -1      3923 1.53064E-03 1.57899E-04-3.55011E-15
 -1      3924 1.41631E-03 1.41013E-04-3.13828E-15
 -1      3925 1.37212E-03 1.08041E-04-3.18025E-15
 -1      3926 1.37290E-02 1.51577E-04-1.72546E-13
 -1      3927 1.51255E-03 2.80821E-06-4.96994E-15
 -1      3928 1.25333E-03 7.69004E-06-3.35090E-15
 -1      3929 1.25277E-03-7.24896E-06-3.36122E-15
 -1      3930 1.83783E-03 1.93866E-04-4.83993E-15
 -1      3931 1.28655E-03 4.11720E-05-3.31506E-15
 -1      3932 1.26493E-03 2.30380E-05-3.33549E-15
 -1      3933 1.34767E-03 1.53396E-05-3.83510E-15
 -1      3934 1.37340E-02-1.93554E-04-1.72963E-13
 -1      3935 1.37780E-03-1.01215E-04-3.37015E-15
 -1      3936 1.49193E-03-1.11175E-04-3.86145E-15
 -1      3937 1.53277E-03-9.51592E-05-4.21279E-15
 -1      3938 1.30438E-03-6.10063E-05-3.31439E-15
 -1      3939 1.70668E-03 1.49977E-04-4.51000E-15
 -1      3940 1.69729E-03 1.75213E-04-4.24541E-15
 -1      3941 7.61365E-03 1.33785E-04-5.23143E-14
 -1      3942 7.48298E-03 1.31335E-04-5.01577E-14
 -1      3943 1.35467E-02-1.81222E-04-1.68848E-13
 -1      3944 1.34227E-02-1.59824E-04-1.66126E-13
 -1      3945 6.81032E-03-7.89177E-05-3.87879E-14
 -1      3946 6.96189E-03-8.87240E-05-4.14566E-14
 -1      3947 6.81154E-03-3.97967E-05-3.80396E-14
 -1      3948 7.08076E-03-9.11078E-05-4.34563E-14
 -1      3949 7.20215E-03-9.36676E-05-4.54914E-14
 -1      3950 7.06562E-03-5.00634E-05-4.26817E-14
 -1      3951 1.63955E-03 1.28601E-04-4.34635E-15
 -1      3952 6.82055E-03 1.04438E-04-3.92418E-14
 -1      3953 6.88231E-03 6.92616E-05-3.97034E-14
 -1      3954 6.94038E-03 1.14968E-04-4.12859E-14
 -1      3955 7.32530E-03-9.60382E-05-4.75626E-14
 -1      3956 7.45049E-03-9.86497E-05-4.96696E-14
 -1      3957 7.30039E-03-5.38460E-05-4.67613E-14
 -1      3958 7.57725E-03-1.01139E-04-5.18112E-14
 -1      3959 7.70568E-03-1.03809E-04-5.39884E-14
 -1      3960 7.54547E-03-5.73543E-05-5.09821E-14
 -1      3961 7.83548E-03-1.06383E-04-5.61995E-14
 -1      3962 7.96668E-03-1.09070E-04-5.84437E-14
 -1      3963 7.79869E-03-6.07829E-05-5.53436E-14
 -1      3964 8.09905E-03-1.11658E-04-6.07210E-14
 -1      3965 8.23260E-03-1.14296E-04-6.30322E-14
 -1      3966 8.05848E-03-6.41585E-05-5.98400E-14
 -1      3967 8.36714E-03-1.16817E-04-6.53743E-14
 -1      3968 8.50265E-03-1.19335E-04-6.77476E-14
 -1      3969 8.32365E-03-6.74413E-05-6.44667E-14
 -1      3970 8.63901E-03-1.21720E-04-7.01534E-14
 -1      3971 8.77616E-03-1.24060E-04-7.25886E-14
 -1      3972 8.59324E-03-7.05716E-05-6.92179E-14
 -1      3973 8.91399E-03-1.26259E-04-7.50553E-14
 -1      3974 9.05249E-03-1.28383E-04-7.75542E-14
 -1      3975 8.86644E-03-7.34954E-05-7.40953E-14
 -1      3976 9.19154E-03-1.30366E-04-8.00838E-14
 -1      3977 9.33111E-03-1.32258E-04-8.26421E-14
 -1      3978 9.14259E-03-7.61763E-05-7.90962E-14
 -1      3979 9.47113E-03-1.34014E-04-8.52299E-14
 -1      3980 9.61156E-03-1.35674E-04-8.78500E-14
 -1      3981 9.42111E-03-7.85972E-05-8.42209E-14
 -1      3982 9.75234E-03-1.37207E-04-9.04974E-14
 -1      3983 9.89345E-03-1.38645E-04-9.31744E-14
 -1      3984 9.70151E-03-8.07583E-05-8.94638E-14
 -1      3985 1.00348E-02-1.39971E-04-9.58762E-14
 -1      3986 1.01764E-02-1.41208E-04-9.86050E-14
 -1      3987 9.98337E-03-8.26732E-05-9.48225E-14
 -1      3988 1.03183E-02-1.42347E-04-1.01361E-13
 -1      3989 1.04603E-02-1.43406E-04-1.04142E-13
 -1      3990 1.02664E-02-8.43636E-05-1.00288E-13
 -1      3991 1.06024E-02-1.44383E-04-1.06949E-13
 -1      3992 1.07447E-02-1.45290E-04-1.09779E-13
 -1      3993 1.05502E-02-8.58563E-05-1.05856E-13
 -1      3994 1.08872E-02-1.46129E-04-1.12631E-13
 -1      3995 1.10297E-02-1.46909E-04-1.15505E-13
 -1      3996 1.08347E-02-8.71795E-05-1.11522E-13
 -1      3997 1.11723E-02-1.47633E-04-1.18400E-13
 -1      3998 1.13149E-02-1.48309E-04-1.21312E-13
 -1      3999 1.11196E-02-8.83608E-05-1.17275E-13
 -1      4000 1.14576E-02-1.48940E-04-1.24245E-13
 -1      4001 1.16004E-02-1.49533E-04-1.27199E-13
 -1      4002 1.14049E-02-8.94258E-05-1.23109E-13
 -1      4003 1.17432E-02-1.50090E-04-1.30168E-13
 -1      4004 1.18860E-02-1.50616E-04-1.33156E-13
 -1      4005 1.16904E-02-9.03974E-05-1.29019E-13
 -1      4006 1.20289E-02-1.51116E-04-1.36158E-13
 -1      4007 1.21717E-02-1.51591E-04-1.39175E-13
 -1      4008 1.19760E-02-9.12955E-05-1.34999E-13
 -1      4009 1.23146E-02-1.52046E-04-1.42206E-13
 -1      4010 1.24575E-02-1.52483E-04-1.45249E-13
 -1      4011 1.22618E-02-9.21367E-05-1.41038E-13
 -1      4012 1.26004E-02-1.52904E-04-1.48306E-13
 -1      4013 1.27433E-02-1.53313E-04-1.51378E-13
 -1      4014 1.25476E-02-9.29347E-05-1.47131E-13
 -1      4015 1.28862E-02-1.53710E-04-1.54459E-13
 -1      4016 1.30291E-02-1.54097E-04-1.57551E-13
 -1      4017 1.28334E-02-9.37009E-05-1.53275E-13
 -1      4018 1.31545E-02-1.56778E-04-1.60277E-13
 -1      4019 1.32974E-02-1.57152E-04-1.63388E-13
 -1      4020 1.33523E-02-1.02079E-04-1.64551E-13
 -1      4021 1.31016E-02-9.67452E-05-1.59086E-13
 -1      4022 1.25874E-03-2.24867E-05-3.34314E-15
 -1      4023 1.27934E-03-4.01753E-05-3.34330E-15
 -1      4024 1.38134E-03-5.23157E-05-3.78388E-15
 -1      4025 1.34203E-03-1.51034E-05-3.83303E-15
 -1      4026 7.35350E-03 1.29129E-04-4.80365E-14
 -1      4027 7.22499E-03 1.27074E-04-4.59501E-14
 -1      4028 7.43453E-03 1.01840E-04-4.91781E-14
 -1      4029 7.06522E-03 1.16659E-04-4.32869E-14
 -1      4030 8.14637E-03 1.44401E-04-6.12770E-14
 -1      4031 8.01173E-03 1.41674E-04-5.89872E-14
 -1      4032 8.41814E-03 1.49698E-04-6.59539E-14
 -1      4033 8.28184E-03 1.47062E-04-6.35996E-14
 -1      4034 8.22109E-03 1.15212E-04-6.25207E-14
 -1      4035 8.69288E-03 1.54649E-04-7.07547E-14
 -1      4036 8.55516E-03 1.52215E-04-6.83378E-14
 -1      4037 8.49191E-03 1.19481E-04-6.72269E-14
 -1      4038 8.97011E-03 1.59092E-04-7.56824E-14
 -1      4039 8.83121E-03 1.56931E-04-7.32031E-14
 -1      4040 8.76598E-03 1.23388E-04-7.20593E-14
 -1      4041 9.24939E-03 1.62935E-04-8.07329E-14
 -1      4042 9.10952E-03 1.61084E-04-7.81920E-14
 -1      4043 9.04274E-03 1.26830E-04-7.70151E-14
 -1      4044 9.53031E-03 1.66145E-04-8.59077E-14
 -1      4045 9.38966E-03 1.64614E-04-8.33042E-14
 -1      4046 9.32169E-03 1.29756E-04-8.20957E-14
 -1      4047 9.81253E-03 1.68734E-04-9.12042E-14
 -1      4048 9.67128E-03 1.67511E-04-8.85419E-14
 -1      4049 9.60237E-03 1.32155E-04-8.73012E-14
 -1      4050 1.00958E-02 1.70742E-04-9.66140E-14
 -1      4051 9.95404E-03 1.69805E-04-9.38962E-14
 -1      4052 9.88444E-03 1.34045E-04-9.26267E-14
 -1      4053 1.03798E-02 1.72230E-04-1.02127E-13
 -1      4054 1.02377E-02 1.71546E-04-9.93572E-14
 -1      4055 1.01676E-02 1.35467E-04-9.80609E-14
 -1      4056 1.06643E-02 1.73265E-04-1.07743E-13
 -1      4057 1.05220E-02 1.72799E-04-1.04923E-13
 -1      4058 1.04515E-02 1.36472E-04-1.03599E-13
 -1      4059 1.09493E-02 1.73915E-04-1.13451E-13
 -1      4060 1.08068E-02 1.73633E-04-1.10586E-13
 -1      4061 1.07360E-02 1.37118E-04-1.09235E-13
 -1      4062 1.12346E-02 1.74247E-04-1.19248E-13
 -1      4063 1.10919E-02 1.74117E-04-1.16340E-13
 -1      4064 1.10210E-02 1.37461E-04-1.14966E-13
 -1      4065 1.15201E-02 1.74321E-04-1.25123E-13
 -1      4066 1.13773E-02 1.74313E-04-1.22175E-13
 -1      4067 1.13063E-02 1.37555E-04-1.20780E-13
 -1      4068 1.18057E-02 1.74189E-04-1.31068E-13
 -1      4069 1.16629E-02 1.74278E-04-1.28086E-13
 -1      4070 1.15917E-02 1.37446E-04-1.26671E-13
 -1      4071 1.20914E-02 1.73896E-04-1.37082E-13
 -1      4072 1.19486E-02 1.74060E-04-1.34066E-13
 -1      4073 1.18774E-02 1.37178E-04-1.32634E-13
 -1      4074 1.23772E-02 1.73480E-04-1.43155E-13
 -1      4075 1.22343E-02 1.73701E-04-1.40111E-13
 -1      4076 1.21631E-02 1.36786E-04-1.38661E-13
 -1      4077 1.26630E-02 1.72972E-04-1.49282E-13
 -1      4078 1.25201E-02 1.73236E-04-1.46211E-13
 -1      4079 1.24489E-02 1.36299E-04-1.44744E-13
 -1      4080 1.29488E-02 1.72396E-04-1.55456E-13
 -1      4081 1.28059E-02 1.72691E-04-1.52364E-13
 -1      4082 1.27347E-02 1.35741E-04-1.50881E-13
 -1      4083 1.32346E-02 1.71772E-04-1.61676E-13
 -1      4084 1.30917E-02 1.72089E-04-1.58559E-13
 -1      4085 1.30205E-02 1.35132E-04-1.57065E-13
 -1      4086 1.34299E-03 8.38931E-05-3.23641E-15
 -1      4087 1.30674E-03 5.88578E-05-3.26747E-15
 -1      4088 1.38805E-03 4.99432E-05-3.76659E-15
 -1      4089 1.44617E-03 9.41208E-05-3.65700E-15
 -1      4090 1.36002E-02 4.24309E-05-1.69844E-13
 -1      4091 1.35999E-02 8.45053E-05-1.69790E-13
 -1      4092 1.34766E-02 2.16496E-05-1.67159E-13
 -1      4093 7.87806E-03 1.38996E-04-5.67296E-14
 -1      4094 7.74531E-03 1.36320E-04-5.45053E-14
 -1      4095 7.69172E-03 1.06208E-04-5.34908E-14
 -1      4096 7.95413E-03 1.10728E-04-5.79409E-14
 -1      4097 1.42623E-03-7.47011E-06-4.37487E-15
 -1      4098 1.43714E-03 1.04213E-05-4.40864E-15
 -1      4099 1.36108E-02 1.19404E-04-1.69989E-13
 -1      4100 1.36164E-02 1.65687E-04-1.70050E-13
 -1      4101 1.35092E-02 1.68409E-04-1.67694E-13
 -1      4102 1.34872E-02 9.86168E-05-1.67303E-13
 -1      4103 1.63500E-03 6.62749E-05-4.99716E-15
 -1      4104 1.62404E-03 9.26008E-05-4.62144E-15
 -1      4105 1.56428E-03 1.01626E-04-4.20187E-15
 -1      4106 1.54320E-03 4.37001E-05-4.73369E-15
 -1      4107 1.45697E-03 2.74033E-05-4.38894E-15
 -1      4108 1.56834E-03-7.78785E-05-4.58696E-15
 -1      4109 1.57965E-03 1.67165E-04-3.71663E-15
 -1      4110 1.33519E-02-5.99231E-05-1.64510E-13
 -1      4111 6.85834E-03-1.76149E-05-3.86267E-14
 -1      4112 1.34020E-02 1.71128E-04-1.65339E-13
 -1      4113 1.45425E-03 4.89938E-05-4.13742E-15
 -1      4114 1.33308E-02 1.34167E-04-1.63831E-13
 -1      4115 2.05836E-03 2.39640E-04-5.71593E-15
 -1      4116 7.15027E-03 8.94863E-05-4.43847E-14
 -1      4117 1.43697E-03-2.36089E-05-4.35523E-15
 -1      4118 6.87274E-03 4.08934E-05-3.91456E-14
 -1      4119 6.85638E-03 1.60828E-05-3.85817E-14
 -1      4120 6.98396E-03 5.03563E-05-4.11916E-14
 -1      4121 7.01950E-03-2.66354E-05-4.16470E-14
 -1      4122 7.13199E-03-2.80174E-05-4.36511E-14
 -1      4123 7.24800E-03-2.89883E-05-4.56917E-14
 -1      4124 7.36699E-03-3.01841E-05-4.77667E-14
 -1      4125 7.19220E-03-5.46925E-06-4.46218E-14
 -1      4126 7.48862E-03-3.11370E-05-4.98769E-14
 -1      4127 7.61255E-03-3.22487E-05-5.20221E-14
 -1      4128 7.42927E-03-6.01319E-06-4.87721E-14
 -1      4129 7.73853E-03-3.32160E-05-5.42026E-14
 -1      4130 7.86632E-03-3.42887E-05-5.64171E-14
 -1      4131 7.67653E-03-6.60121E-06-5.30618E-14
 -1      4132 7.99576E-03-3.52645E-05-5.86646E-14
 -1      4133 8.12666E-03-3.63076E-05-6.09453E-14
 -1      4134 7.93169E-03-7.23129E-06-5.74898E-14
 -1      4135 8.25890E-03-3.72748E-05-6.32570E-14
 -1      4136 8.39234E-03-3.82801E-05-6.56007E-14
 -1      4137 8.19318E-03-7.89041E-06-6.20503E-14
 -1      4138 8.52688E-03-3.92190E-05-6.79780E-14
 -1      4139 8.66239E-03-4.01743E-05-7.03850E-14
 -1      4140 8.45982E-03-8.57001E-06-6.67383E-14
 -1      4141 8.79880E-03-4.10683E-05-7.28227E-14
 -1      4142 8.93600E-03-4.19631E-05-7.52907E-14
 -1      4143 8.73066E-03-9.26338E-06-7.15516E-14
 -1      4144 9.07393E-03-4.28010E-05-7.77912E-14
 -1      4145 9.21249E-03-4.36294E-05-8.03226E-14
 -1      4146 9.00492E-03-9.96543E-06-7.64873E-14
 -1      4147 9.35164E-03-4.44055E-05-8.28834E-14
 -1      4148 9.49130E-03-4.51657E-05-8.54751E-14
 -1      4149 9.28195E-03-1.06725E-05-8.15483E-14
 -1      4150 9.63141E-03-4.58790E-05-8.80964E-14
 -1      4151 9.77192E-03-4.65733E-05-9.07489E-14
 -1      4152 9.56117E-03-1.13820E-05-8.67309E-14
 -1      4153 9.91279E-03-4.72264E-05-9.34280E-14
 -1      4154 1.00540E-02-4.78595E-05-9.61335E-14
 -1      4155 9.84213E-03-1.20923E-05-9.20327E-14
 -1      4156 1.01954E-02-4.84574E-05-9.88682E-14
 -1      4157 1.03371E-02-4.90360E-05-1.01626E-13
 -1      4158 1.01244E-02-1.28025E-05-9.74474E-14
 -1      4159 1.04790E-02-4.95850E-05-1.04410E-13
 -1      4160 1.06211E-02-5.01162E-05-1.07220E-13
 -1      4161 1.04078E-02-1.35119E-05-1.02966E-13
 -1      4162 1.07633E-02-5.06231E-05-1.10052E-13
 -1      4163 1.09056E-02-5.11143E-05-1.12907E-13
 -1      4164 1.06919E-02-1.42205E-05-1.08583E-13
 -1      4165 1.10481E-02-5.15859E-05-1.15785E-13
 -1      4166 1.11906E-02-5.20439E-05-1.18680E-13
 -1      4167 1.09766E-02-1.49280E-05-1.14293E-13
 -1      4168 1.13333E-02-5.24865E-05-1.21599E-13
 -1      4169 1.14759E-02-5.29177E-05-1.24536E-13
 -1      4170 1.12616E-02-1.56346E-05-1.20088E-13
 -1      4171 1.16187E-02-5.33369E-05-1.27491E-13
 -1      4172 1.17615E-02-5.37469E-05-1.30465E-13
 -1      4173 1.15470E-02-1.63403E-05-1.25963E-13
 -1      4174 1.19043E-02-5.41476E-05-1.33455E-13
 -1      4175 1.20471E-02-5.45409E-05-1.36460E-13
 -1      4176 1.18326E-02-1.70454E-05-1.31909E-13
 -1      4177 1.21900E-02-5.49274E-05-1.39482E-13
 -1      4178 1.23329E-02-5.53080E-05-1.42515E-13
 -1      4179 1.21183E-02-1.77499E-05-1.37922E-13
 -1      4180 1.24758E-02-5.56837E-05-1.45562E-13
 -1      4181 1.26187E-02-5.60548E-05-1.48623E-13
 -1      4182 1.24040E-02-1.84539E-05-1.43992E-13
 -1      4183 1.27616E-02-5.64224E-05-1.51695E-13
 -1      4184 1.29045E-02-5.67866E-05-1.54780E-13
 -1      4185 1.26898E-02-1.91577E-05-1.50112E-13
 -1      4186 1.30298E-02-5.94499E-05-1.57495E-13
 -1      4187 1.31552E-02-6.21123E-05-1.60221E-13
 -1      4188 1.29581E-02-2.21634E-05-1.55905E-13
 -1      4189 1.42278E-03-3.89484E-05-4.13351E-15
 -1      4190 8.83803E-03 9.19780E-05-7.33638E-14
 -1      4191 8.70075E-03 9.06108E-05-7.09162E-14
 -1      4192 8.56425E-03 8.91801E-05-6.84996E-14
 -1      4193 8.42859E-03 8.76367E-05-6.61167E-14
 -1      4194 8.63535E-03 5.86049E-05-6.97755E-14
 -1      4195 8.29388E-03 8.60569E-05-6.37626E-14
 -1      4196 8.16019E-03 8.43766E-05-6.14405E-14
 -1      4197 8.36500E-03 5.66794E-05-6.50060E-14
 -1      4198 9.11461E-03 9.43925E-05-7.83500E-14
 -1      4199 8.97600E-03 9.32257E-05-7.58409E-14
 -1      4200 8.90918E-03 6.02798E-05-7.46671E-14
 -1      4201 9.39344E-03 9.63973E-05-8.34605E-14
 -1      4202 9.25377E-03 9.54394E-05-8.08901E-14
 -1      4203 9.18582E-03 6.16752E-05-7.96851E-14
 -1      4204 9.67406E-03 9.79932E-05-8.86965E-14
 -1      4205 9.53355E-03 9.72402E-05-8.60636E-14
 -1      4206 9.46472E-03 6.27813E-05-8.48289E-14
 -1      4207 9.95608E-03 9.92014E-05-9.40485E-14
 -1      4208 9.81492E-03 9.86401E-05-9.13577E-14
 -1      4209 9.74542E-03 6.36044E-05-9.00927E-14
 -1      4210 1.02392E-02 1.00057E-04-9.95055E-14
 -1      4211 1.00975E-02 9.96681E-05-9.67633E-14
 -1      4212 1.00275E-02 6.41632E-05-9.54689E-14
 -1      4213 1.05231E-02 1.00601E-04-1.05070E-13
 -1      4214 1.03811E-02 1.00363E-04-1.02277E-13
 -1      4215 1.03107E-02 6.44837E-05-1.00953E-13
 -1      4216 1.08076E-02 1.00878E-04-1.10729E-13
 -1      4217 1.06653E-02 1.00769E-04-1.07888E-13
 -1      4218 1.05947E-02 6.45960E-05-1.06541E-13
 -1      4219 1.10926E-02 1.00932E-04-1.16478E-13
 -1      4220 1.09501E-02 1.00929E-04-1.13592E-13
 -1      4221 1.08792E-02 6.45309E-05-1.12223E-13
 -1      4222 1.13779E-02 1.00802E-04-1.22312E-13
 -1      4223 1.12352E-02 1.00887E-04-1.19386E-13
 -1      4224 1.11642E-02 6.43181E-05-1.17992E-13
 -1      4225 1.16634E-02 1.00525E-04-1.28219E-13
 -1      4226 1.15206E-02 1.00680E-04-1.25256E-13
 -1      4227 1.14496E-02 6.39849E-05-1.23843E-13
 -1      4228 1.19491E-02 1.00132E-04-1.34196E-13
 -1      4229 1.18062E-02 1.00342E-04-1.31199E-13
 -1      4230 1.17351E-02 6.35553E-05-1.29768E-13
 -1      4231 1.22348E-02 9.96493E-05-1.40239E-13
 -1      4232 1.20919E-02 9.99008E-05-1.37211E-13
 -1      4233 1.20207E-02 6.30501E-05-1.35761E-13
 -1      4234 1.25206E-02 9.90982E-05-1.46331E-13
 -1      4235 1.23777E-02 9.93813E-05-1.43277E-13
 -1      4236 1.23065E-02 6.24866E-05-1.41813E-13
 -1      4237 1.28064E-02 9.84964E-05-1.52481E-13
 -1      4238 1.26635E-02 9.88029E-05-1.49401E-13
 -1      4239 1.25923E-02 6.18791E-05-1.47919E-13
 -1      4240 1.30922E-02 9.78582E-05-1.58673E-13
 -1      4241 1.29493E-02 9.81813E-05-1.55571E-13
 -1      4242 1.28781E-02 6.12392E-05-1.54078E-13
 -1      4243 1.33198E-02 9.92751E-05-1.63636E-13
 -1      4244 7.26446E-03 6.89145E-05-4.61231E-14
 -1      4245 7.11104E-03 5.93375E-05-4.34563E-14
 -1      4246 1.33530E-02 9.16120E-07-1.64476E-13
 -1      4247 1.33527E-02 4.29829E-05-1.64422E-13
 -1      4248 1.48454E-03 7.02987E-05-4.08236E-15
 -1      4249 1.45503E-03-6.16579E-05-4.10333E-15
 -1      4250 1.49037E-03 1.00134E-04-3.82772E-15
 -1      4251 1.52712E-03 1.28522E-04-3.76451E-15
 -1      4252 1.31962E-02 7.85327E-05-1.60965E-13
 -1      4253 1.31250E-02 4.15829E-05-1.59459E-13
 -1      4254 8.02764E-03 8.26965E-05-5.91513E-14
 -1      4255 7.89630E-03 8.09288E-05-5.68930E-14
 -1      4256 8.09888E-03 5.45495E-05-6.03613E-14
 -1      4257 6.97034E-03-1.21097E-05-4.06678E-14
 -1      4258 7.08927E-03 3.15668E-05-4.28722E-14
 -1      4259 7.76634E-03 7.92034E-05-5.46692E-14
 -1      4260 7.63780E-03 7.73939E-05-5.24779E-14
 -1      4261 7.83789E-03 5.22688E-05-5.58465E-14
 -1      4262 7.51094E-03 7.56666E-05-5.03208E-14
 -1      4263 7.38576E-03 7.38313E-05-4.81992E-14
 -1      4264 1.32802E-02-2.26209E-05-1.62908E-13
 -1      4265 7.58314E-03 4.98742E-05-5.14661E-14
 -1      4266 7.33733E-03 4.42446E-05-4.72315E-14
 -1      4267 7.38529E-03 2.07398E-05-4.79999E-14
 -1      4268 7.50737E-03 2.11973E-05-5.01161E-14
 -1      4269 7.63174E-03 2.17628E-05-5.22666E-14
 -1      4270 7.75806E-03 2.21796E-05-5.44518E-14
 -1      4271 7.88619E-03 2.26738E-05-5.66704E-14
 -1      4272 8.01590E-03 2.30624E-05-5.89232E-14
 -1      4273 8.14707E-03 2.34987E-05-6.12087E-14
 -1      4274 8.27953E-03 2.38503E-05-6.35251E-14
 -1      4275 8.41318E-03 2.42259E-05-6.58733E-14
 -1      4276 8.54789E-03 2.45276E-05-6.82548E-14
 -1      4277 8.68358E-03 2.48349E-05-7.06657E-14
 -1      4278 8.82012E-03 2.50752E-05-7.31063E-14
 -1      4279 8.95746E-03 2.53082E-05-7.55796E-14
 -1      4280 9.09550E-03 2.54799E-05-7.80831E-14
 -1      4281 9.23418E-03 2.56357E-05-8.06196E-14
 -1      4282 9.37341E-03 2.57361E-05-8.31850E-14
 -1      4283 9.51315E-03 2.58157E-05-8.57813E-14
 -1      4284 9.65334E-03 2.58463E-05-8.84087E-14
 -1      4285 9.79392E-03 2.58540E-05-9.10647E-14
 -1      4286 9.93484E-03 2.58191E-05-9.37487E-14
 -1      4287 1.00761E-02 2.57611E-05-9.64584E-14
 -1      4288 1.02176E-02 2.56671E-05-9.91971E-14
 -1      4289 1.03593E-02 2.55512E-05-1.01962E-13
 -1      4290 1.05012E-02 2.54053E-05-1.04751E-13
 -1      4291 1.06433E-02 2.52396E-05-1.07564E-13
 -1      4292 1.07855E-02 2.50494E-05-1.10400E-13
 -1      4293 1.09279E-02 2.48419E-05-1.13258E-13
 -1      4294 1.10704E-02 2.46146E-05-1.16139E-13
 -1      4295 1.12129E-02 2.43727E-05-1.19043E-13
 -1      4296 1.13556E-02 2.41152E-05-1.21965E-13
 -1      4297 1.14983E-02 2.38455E-05-1.24905E-13
 -1      4298 1.16410E-02 2.35637E-05-1.27864E-13
 -1      4299 1.17838E-02 2.32720E-05-1.30840E-13
 -1      4300 1.19266E-02 2.29712E-05-1.33832E-13
 -1      4301 1.20695E-02 2.26623E-05-1.36845E-13
 -1      4302 1.22124E-02 2.23467E-05-1.39869E-13
 -1      4303 1.23552E-02 2.20249E-05-1.42902E-13
 -1      4304 1.24981E-02 2.16981E-05-1.45953E-13
 -1      4305 1.26410E-02 2.13665E-05-1.49019E-13
 -1      4306 1.27839E-02 2.10314E-05-1.52096E-13
 -1      4307 1.29269E-02 2.06928E-05-1.55183E-13
 -1      4308 1.31562E-02-1.28740E-06-1.60185E-13
 -1      4309 7.26641E-03 1.71239E-05-4.59277E-14
 -1      4310 1.30522E-02 1.80479E-05-1.57901E-13
 -1      4311 7.14988E-03 1.66312E-05-4.38824E-14
 -1      4312 7.02305E-03 9.30827E-06-4.16062E-14
 -3
    1PSTEP                         2           1           1          
  100CL  101 1.000000000        4312                     0    1           1
 -4  STRESS      6    1
 -5  SXX         1    4    1    1
 -5  SYY         1    4    2    2
 -5  SZZ         1    4    3    3
 -5  SXY         1    4    1    2
 -5  SYZ         1    4    2    3
 -5  SZX         1    4    3    1
 -1         1 2.76654E+01 1.07701E+01 1.30979E+00-1.69084E+01-3.01326E-12 4.57839E-12
 -1         2-6.33465E-01-2.45464E+01-3.34990E+00-1.19669E-02-6.38401E-14 3.13499E-14
 -1         3 1.99999E+01 7.01904E-05-1.29447E-04 6.93085E-05-7.95000E-13-8.34312E-13
 -1         4 1.99999E+01 6.21377E-05-1.36191E-04-6.26234E-05-6.99893E-15 1.36960E-13
 -1         5 3.36643E+01 6.34583E+00 2.61632E+00 6.16278E+00-6.11178E-14 4.47838E-12
 -1         6 3.64163E+01 1.24009E+01 4.92001E+00-8.51975E+00-2.58682E-13 4.30661E-12
 -1         7 2.24375E+01 6.53873E+00-1.44944E-02-4.23350E+00-3.23908E-14 8.49924E-13
 -1         8 2.09558E+01 6.30600E+00 1.03190E-01-2.45375E+00-5.01613E-14-2.32090E-13
 -1         9 1.99193E+01 6.00104E+00 7.13258E-02-1.53357E+00-4.67404E-14-8.15356E-13
 -1        10 1.90789E+01 5.74573E+00 4.99776E-02-9.15113E-01-3.00177E-14-1.11007E-12
 -1        11 1.83535E+01 5.52634E+00 2.90392E-02-4.95675E-01-2.21663E-14-1.26298E-12
 -1        12 1.77653E+01 5.34831E+00 1.00454E-02-2.34849E-01-1.09496E-14-1.32582E-12
 -1        13 1.73328E+01 5.21797E+00-4.83772E-03-8.86430E-02-7.34829E-15-1.34787E-12
 -1        14 1.71067E+01 5.14989E+00-1.29608E-02-1.94643E-02 7.61544E-16-1.34377E-12
 -1        15 1.71107E+01 5.15109E+00-1.27286E-02 2.38636E-02 1.02357E-14-1.33075E-12
 -1        16 1.73441E+01 5.22137E+00-4.16777E-03 9.59473E-02 1.35950E-14-1.29236E-12
 -1        17 1.77823E+01 5.35311E+00 1.10873E-02 2.48008E-01 2.05704E-14-1.21814E-12
 -1        18 1.83726E+01 5.53166E+00 3.01409E-02 5.15932E-01 3.05866E-14-1.09859E-12
 -1        19 1.90977E+01 5.75139E+00 5.10117E-02 9.45615E-01 4.36075E-14-9.07896E-13
 -1        20 1.99349E+01 6.00663E+00 7.17327E-02 1.57551E+00 5.44564E-14-5.46799E-13
 -1        21 2.09576E+01 6.32066E+00 9.88720E-02 2.49623E+00 6.21933E-14 1.26808E-13
 -1        22 2.27032E+01 6.78406E+00 2.08884E-01 4.03898E+00 7.46625E-15 1.47442E-12
 -1        23 2.48168E+01-1.48656E+00-9.94718E-01-5.56168E-01-1.75800E-13 3.40614E-12
 -1        24 2.20452E+01-9.87388E-02-2.97418E-01 9.42810E-02-4.09889E-14 2.59228E-12
 -1        25 2.20867E+01-5.31134E-02-5.98100E-02 7.88197E-02-2.16105E-14 1.79987E-12
 -1        26 2.25422E+01-1.68489E-02 1.44657E-04 5.13377E-02-1.74724E-14 1.24004E-12
 -1        27 2.31356E+01-1.18802E-03 1.53846E-02 4.07317E-02-1.47609E-14 8.70670E-13
 -1        28 2.36624E+01 1.24979E-02 3.11525E-02 2.84491E-02-1.94510E-14 5.90542E-13
 -1        29 2.39018E+01 2.43071E-02 5.11908E-02 7.43109E-03 1.39489E-14 3.91287E-13
 -1        30 2.36262E+01 3.08054E-02 6.66174E-02-2.63433E-02-1.24642E-14 1.98987E-13
 -1        31 2.26802E+01 2.66008E-02 6.25148E-02-6.92896E-02 1.11046E-14-1.76942E-14
 -1        32 2.11182E+01 8.20487E-03 2.53583E-02-1.05114E-01-4.80639E-14-2.06429E-13
 -1        33 1.93231E+01-2.04080E-02-4.04070E-02-1.08199E-01 5.95874E-14-2.24595E-13
 -1        34 1.79526E+01-4.59720E-02-1.03200E-01-6.23220E-02-2.00521E-14-2.67841E-13
 -1        35 1.76266E+01-5.33979E-02-1.22071E-01 1.72966E-02-3.41064E-14-6.73374E-13
 -1        36 1.85308E+01-3.78947E-02-8.36789E-02 8.87704E-02 1.61518E-14-7.75255E-13
 -1        37 2.02856E+01-9.07236E-03-1.49162E-02 1.17131E-01-3.14205E-14-7.95884E-13
 -1        38 2.22082E+01 1.73169E-02 4.26431E-02 9.99931E-02-1.90611E-14-8.46139E-13
 -1        39 2.37155E+01 3.11602E-02 6.69567E-02 6.00703E-02 1.04916E-14-8.19417E-13
 -1        40 2.45458E+01 3.19424E-02 6.19678E-02 2.10866E-02 2.58162E-14-7.43447E-13
 -1        41 2.47294E+01 2.47760E-02 4.30755E-02-5.30928E-03-2.99981E-14-9.00634E-13
 -1        42 2.44457E+01 1.52035E-02 2.28650E-02-1.82863E-02 5.83680E-15-9.67940E-13
 -1        43 2.38979E+01 6.74691E-03 7.58078E-03-2.17695E-02-2.68382E-14-7.68504E-13
 -1        44 2.32486E+01 7.01374E-04-1.75563E-03-2.01216E-02 6.77218E-14-6.91783E-13
 -1        45 2.26037E+01-2.95167E-03-6.39755E-03-1.64296E-02-3.95448E-14-6.75193E-13
 -1        46 2.20210E+01-4.76060E-03-8.01621E-03-1.24143E-02-1.51706E-14-8.96682E-13
 -1        47 2.15252E+01-5.34205E-03-7.95816E-03-8.85437E-03-1.37864E-14-7.16634E-13
 -1        48 2.11205E+01-5.19705E-03-7.10610E-03-5.99900E-03 3.48595E-14-4.69899E-13
 -1        49 2.08007E+01-4.67612E-03-5.97117E-03-3.84456E-03 1.52893E-14-4.64970E-13
 -1        50 2.05547E+01-4.00176E-03-4.82051E-03-2.28904E-03 1.75319E-14-5.76887E-13
 -1        51 2.03699E+01-3.30430E-03-3.77800E-03-1.20742E-03-5.01415E-14-3.27426E-13
 -1        52 2.02344E+01-2.65342E-03-2.88958E-03-4.83725E-04-5.21603E-14-3.28857E-13
 -1        53 2.01375E+01-2.08132E-03-2.16150E-03-2.15282E-05-2.80181E-14-6.78331E-13
 -1        54 2.00703E+01-1.59830E-03-1.58147E-03 2.54872E-04 2.56452E-14-9.03733E-13
 -1        55 2.00252E+01-1.20249E-03-1.12985E-03 4.02894E-04-3.83028E-14-1.01272E-12
 -1        56 1.99964E+01-8.85937E-04-7.85360E-04 4.65029E-04 9.00493E-14-9.13489E-13
 -1        57 1.99794E+01-6.38094E-04-5.27792E-04 4.72088E-04 3.78242E-14-4.65096E-13
 -1        58 1.99704E+01-4.47875E-04-3.39221E-04 4.45960E-04-2.94622E-16-6.04692E-13
 -1        59 1.99670E+01-3.04740E-04-2.04368E-04 4.01848E-04-4.96929E-14-6.52567E-13
 -1        60 1.99671E+01-1.99232E-04-1.10573E-04 3.50024E-04-4.68284E-15-3.40526E-13
 -1        61 1.99695E+01-1.23178E-04-4.75704E-05 2.97178E-04 1.11324E-13-4.60083E-13
 -1        62 1.99730E+01-6.97036E-05-7.17544E-06 2.47446E-04-2.72866E-14-2.11400E-13
 -1        63 1.99770E+01-3.31301E-05 1.70631E-05 2.03179E-04-1.37398E-13-5.01146E-13
 -1        64 1.99812E+01-8.82017E-06 3.02156E-05 1.65490E-04 1.29949E-14-8.41974E-13
 -1        65 1.99853E+01 7.00497E-06 3.63463E-05 1.34633E-04-9.14412E-14-6.12715E-13
 -1        66 1.99890E+01 1.74496E-05 3.89599E-05 1.10180E-04 7.48783E-14-6.71624E-13
 -1        67 1.99923E+01 2.50969E-05 4.15740E-05 9.09719E-05 6.17295E-14-5.15149E-13
 -1        68 1.99952E+01 3.20419E-05 4.82586E-05 7.46274E-05-1.76831E-14 3.18078E-13
 -1        69 1.99975E+01 3.91466E-05 6.24512E-05 5.59241E-05 4.83187E-14 4.57789E-13
 -1        70 1.99992E+01 3.90193E-05 7.44103E-05 1.91854E-05 7.56317E-14 3.90376E-13
 -1        71 1.99999E+01-7.48125E-06 2.22923E-05-3.57027E-05-6.65838E-14 6.33947E-13
 -1        72 2.28365E+01-4.20004E-01-1.01894E+00-3.87101E-01 6.24431E-14 4.06720E-12
 -1        73 2.20217E+01-6.39166E-02-2.78473E-01-7.56190E-02 3.92937E-14 3.08716E-12
 -1        74 2.20920E+01-1.75831E-02-5.54460E-02-3.63755E-02 2.53980E-14 2.33072E-12
 -1        75 2.25392E+01-4.13196E-03-1.88597E-03-3.38337E-02-7.70868E-17 1.84915E-12
 -1        76 2.31230E+01 5.62706E-03 1.58220E-02-3.52338E-02 2.27052E-15 1.49232E-12
 -1        77 2.36357E+01 1.43471E-02 3.28222E-02-3.49263E-02-5.56738E-15 1.31390E-12
 -1        78 2.38561E+01 2.05004E-02 5.28357E-02-2.65574E-02-5.61205E-15 1.16495E-12
 -1        79 2.35580E+01 2.04886E-02 6.72572E-02-3.60891E-03 1.33112E-14 1.00367E-12
 -1        80 2.25910E+01 1.07660E-02 6.09944E-02 3.57567E-02-2.58741E-14 7.46667E-13
 -1        81 2.10174E+01-7.83693E-03 2.16327E-02 8.11219E-02 4.54458E-14 5.29611E-13
 -1        82 1.92279E+01-2.72584E-02-4.48813E-02 1.07388E-01-3.74572E-14 4.41695E-13
 -1        83 1.78822E+01-3.63395E-02-1.05732E-01 8.93489E-02 3.98377E-14 3.04156E-13
 -1        84 1.75914E+01-2.97513E-02-1.21381E-01 2.72232E-02-2.34339E-14 1.15845E-14
 -1        85 1.85258E+01-1.23740E-02-8.07012E-02-4.63519E-02 5.64353E-14-2.36030E-13
 -1        86 2.02931E+01 5.93173E-03-1.22463E-02-9.24060E-02 3.57951E-15-5.68341E-13
 -1        87 2.22101E+01 1.77129E-02 4.42364E-02-9.65228E-02-3.33378E-14-5.28400E-13
 -1        88 2.37024E+01 2.10159E-02 6.75316E-02-7.13714E-02-1.84100E-14-3.35596E-13
 -1        89 2.45178E+01 1.81036E-02 6.23276E-02-3.81516E-02 3.24973E-14-2.94677E-13
 -1        90 2.46924E+01 1.23812E-02 4.32634E-02-1.08932E-02-9.13492E-14-3.10425E-13
 -1        91 2.44067E+01 6.56683E-03 2.29682E-02 6.08650E-03 1.51740E-15-3.09366E-13
 -1        92 2.38619E+01 2.01814E-03 7.56819E-03 1.41396E-02 1.11350E-14-5.65450E-13
 -1        93 2.32180E+01-9.64594E-04-1.87809E-03 1.63160E-02-2.25844E-14-4.71954E-13
 -1        94 2.25791E+01-2.60706E-03-6.58442E-03 1.53340E-02 5.05023E-14-6.02123E-13
 -1        95 2.20021E+01-3.29468E-03-8.22321E-03 1.30091E-02-8.26436E-15-6.20584E-13
 -1        96 2.15110E+01-3.38362E-03-8.15477E-03 1.03667E-02 7.01988E-14-1.58132E-13
 -1        97 2.11101E+01-3.14043E-03-7.27664E-03 7.90493E-03-1.40255E-14-3.81565E-13
 -1        98 2.07932E+01-2.74222E-03-6.11010E-03 5.81862E-03 1.02519E-14-1.53944E-13
 -1        99 2.05493E+01-2.29685E-03-4.92837E-03 4.14663E-03-4.73081E-14-3.77448E-13
 -1       100 2.03662E+01-1.86469E-03-3.85839E-03 2.85684E-03-2.12329E-15-3.68436E-13
 -1       101 2.02318E+01-1.47588E-03-2.94719E-03 1.89106E-03-8.42832E-17-6.50344E-13
 -1       102 2.01358E+01-1.14241E-03-2.20108E-03 1.18677E-03 3.84916E-14-5.71738E-13
 -1       103 2.00692E+01-8.65990E-04-1.60730E-03 6.86653E-04-3.42466E-14-5.46002E-13
 -1       104 2.00245E+01-6.42882E-04-1.14554E-03 3.41921E-04 4.56606E-14-1.90969E-13
 -1       105 1.99960E+01-4.66822E-04-7.93828E-04 1.12834E-04 6.96268E-14-4.24369E-13
 -1       106 1.99792E+01-3.30719E-04-5.31309E-04-3.20668E-05-6.02955E-14-3.40185E-13
 -1       107 1.99704E+01-2.27582E-04-3.39504E-04-1.17135E-04-5.84366E-14-8.27581E-13
 -1       108 1.99670E+01-1.51006E-04-2.02676E-04-1.60874E-04 9.17062E-14-1.04553E-12
 -1       109 1.99672E+01-9.53802E-05-1.07803E-04-1.77093E-04-3.59503E-14-8.54769E-13
 -1       110 1.99696E+01-5.59394E-05-4.43340E-05-1.75918E-04-1.58332E-14-8.91046E-13
 -1       111 1.99731E+01-2.87226E-05-3.86967E-06-1.64637E-04 6.08068E-14-8.14773E-13
 -1       112 1.99771E+01-1.04828E-05 2.02022E-05-1.48398E-04-1.33456E-13-5.87880E-13
 -1       113 1.99813E+01 1.42801E-06 3.30706E-05-1.30760E-04 1.25785E-13-3.16655E-13
 -1       114 1.99853E+01 9.18277E-06 3.88888E-05-1.14124E-04-1.35528E-13-6.72282E-13
 -1       115 1.99891E+01 1.45964E-05 4.12392E-05-1.00014E-04 5.60879E-14-5.19978E-13
 -1       116 1.99924E+01 1.91494E-05 4.37666E-05-8.91219E-05 2.34485E-14-6.74538E-13
 -1       117 1.99953E+01 2.40251E-05 5.07933E-05-8.10060E-05 4.53339E-14-1.21958E-12
 -1       118 1.99976E+01 2.93048E-05 6.57927E-05-7.28906E-05 1.10828E-14-1.54083E-12
 -1       119 1.99992E+01 2.99396E-05 7.87190E-05-5.13671E-05 8.07300E-14-2.03703E-12
 -1       120 1.99999E+01-2.74695E-05 1.26410E-05 1.54307E-05 2.76750E-13-2.02341E-12
 -1       121 1.99998E+01 3.16979E-05 1.51416E-05 3.58944E-05-1.84436E-12 1.94618E-13
 -1       122 1.99998E+01-6.54015E-04 6.96822E-05-3.23059E-05-6.37854E-13 1.05478E-13
 -1       123 1.99998E+01-2.17716E-03 3.99137E-05-6.57853E-05 7.08385E-13 1.10024E-13
 -1       124 1.99998E+01-4.09011E-03 4.47323E-06-7.35581E-05 3.93662E-13 2.62781E-14
 -1       125 1.99998E+01-6.03063E-03-2.26488E-05-6.64657E-05 7.83170E-13-2.50300E-13
 -1       126 1.99998E+01-7.69498E-03-4.12049E-05-5.23361E-05 7.74754E-13 1.60571E-13
 -1       127 1.99998E+01-8.93298E-03-5.24514E-05-3.29160E-05 8.75021E-13 5.87548E-14
 -1       128 1.99998E+01-9.58170E-03-5.78789E-05-1.10827E-05 7.79863E-13-1.23684E-13
 -1       129 1.99998E+01-9.57604E-03-5.78309E-05 1.14704E-05 4.99751E-13 1.89751E-13
 -1       130 1.99998E+01-8.91654E-03-5.23212E-05 3.32159E-05 3.89354E-13-2.35980E-13
 -1       131 1.99998E+01-7.66989E-03-4.06404E-05 5.31241E-05-4.78499E-13-2.70360E-13
 -1       132 1.99998E+01-6.00030E-03-2.24682E-05 6.67472E-05-4.35441E-13 4.28204E-13
 -1       133 1.99998E+01-4.05737E-03 4.69007E-06 7.33747E-05 8.33009E-13-7.71325E-14
 -1       134 1.99998E+01-2.14231E-03 4.33196E-05 7.07083E-05 1.52908E-12 1.26066E-13
 -1       135 1.99998E+01-6.59462E-04 6.06966E-05 4.49930E-05 6.24584E-13-2.93286E-13
 -1       136 1.99998E+01 9.28456E-06 1.19867E-05-7.33925E-05-4.46521E-13-1.96812E-13
 -1       137-1.32709E+00-2.04376E+01-3.11309E+00-3.72670E+00 2.36725E-12 5.76560E-13
 -1       138-1.68926E+00-9.74370E+00-2.38492E+00-3.33294E+00 3.96189E-12 1.74255E-12
 -1       139 2.38473E+00 2.43979E+00-1.22444E+00 2.79672E+00 4.54486E-12 3.37080E-12
 -1       140 1.35056E+01 9.82202E+00 1.65617E-01 1.14526E+01 4.16728E-12 4.40864E-12
 -1       141 3.16843E+01 1.04284E+01 1.58775E+00 1.76735E+01 2.54369E-12 4.10277E-12
 -1       142 5.09379E+01 6.13673E+00 2.77785E+00 1.65181E+01 9.26384E-13 2.58282E-12
 -1       143 6.46243E+01 1.62787E+00 3.51022E+00 6.99141E+00 1.25155E-13 1.35059E-13
 -1       144 6.53304E+01 1.35008E+00 3.54279E+00-5.95772E+00 3.03171E-13-2.25903E-12
 -1       145 5.31274E+01 5.70367E+00 2.91535E+00-1.59792E+01 1.37909E-12-4.11571E-12
 -1       146 3.25267E+01 1.03356E+01 1.66153E+00-1.76752E+01 2.99255E-12-4.98124E-12
 -1       147 1.28735E+01 9.67757E+00 1.01679E-01-1.10978E+01 4.42479E-12-4.71745E-12
 -1       148 1.62305E+00 1.66498E+00-1.35060E+00-2.04267E+00 4.72788E-12-3.27699E-12
 -1       149-1.63345E+00-1.02007E+01-2.43919E+00 3.36169E+00 3.73584E-12-1.60366E-12
 -1       150-1.30687E+00-2.07389E+01-3.14925E+00 3.59835E+00 1.72587E-12-4.18110E-13
 -1       151-7.92202E-01-2.43593E+01-3.35712E+00-4.37362E-01-6.21719E-13-1.03317E-13
 -1       152-1.50181E+00-1.88364E+01-3.02016E+00-3.70931E+00-3.19944E-12-8.88581E-13
 -1       153-1.35064E+00-7.36260E+00-2.21748E+00-2.60656E+00-4.60831E-12-2.17695E-12
 -1       154 3.53090E+00 4.11550E+00-1.01613E+00 4.09186E+00-4.83946E-12-3.68428E-12
 -1       155 1.73278E+01 1.08021E+01 5.10738E-01 1.35399E+01-4.10938E-12-4.90930E-12
 -1       156 3.61101E+01 9.93090E+00 1.90119E+00 1.84587E+01-2.68488E-12-4.86161E-12
 -1       157 5.49660E+01 5.01636E+00 3.01965E+00 1.52030E+01-1.09580E-12-3.45080E-12
 -1       158 6.57395E+01 1.34317E+00 3.58728E+00 4.07764E+00-1.57124E-13-9.43412E-13
 -1       159 6.30172E+01 2.21525E+00 3.44161E+00-8.89743E+00-3.85590E-13 1.56600E-12
 -1       160 4.75978E+01 7.14117E+00 2.57558E+00-1.75399E+01-1.47765E-12 3.58347E-12
 -1       161 1.16311E+01 9.22503E+00-3.84749E-02-1.03546E+01-3.93685E-12 4.09361E-12
 -1       162 1.41879E+00 1.05276E+00-1.37768E+00-1.69147E+00-4.09639E-12 2.79060E-12
 -1       163-1.65166E+00-1.02089E+01-2.42108E+00 3.46638E+00-3.65274E-12 1.60688E-12
 -1       164-1.30533E+00-2.06346E+01-3.12669E+00 3.67555E+00-2.17507E-12 4.92294E-13
 -1       165 2.27035E+01 3.68450E+00-4.98895E-02-2.85853E+00-6.05703E-13 2.74971E-13
 -1       166 2.11690E+01 4.27004E+00-4.24104E-02-1.91485E+00-5.62061E-13-3.99052E-13
 -1       167 2.00279E+01 4.56544E+00-3.00999E-02-1.23103E+00-4.56131E-13-7.73165E-13
 -1       168 1.90794E+01 4.71889E+00-2.18793E-02-7.32925E-01-3.32384E-13-9.75654E-13
 -1       169 1.82930E+01 4.81626E+00-1.66596E-02-3.95948E-01-2.23697E-13-1.07831E-12
 -1       170 1.76682E+01 4.88622E+00-1.34586E-02-1.81917E-01-1.25084E-13-1.12714E-12
 -1       171 1.72679E+01 4.93052E+00-1.16607E-02-6.43174E-02-2.60204E-14-1.13846E-12
 -1       172 1.71329E+01 4.94507E+00-1.10922E-02 1.89829E-03 5.91680E-14-1.13328E-12
 -1       173 1.72782E+01 4.92759E+00-1.17040E-02 6.95360E-02 1.47003E-13-1.10294E-12
 -1       174 1.76874E+01 4.88038E+00-1.35547E-02 1.91232E-01 2.31929E-13-1.05308E-12
 -1       175 1.83058E+01 4.80857E+00-1.68952E-02 4.06594E-01 3.27426E-13-9.56583E-13
 -1       176 1.91072E+01 4.70602E+00-2.23594E-02 7.55998E-01 4.49896E-13-8.04359E-13
 -1       177 2.00564E+01 4.54630E+00-3.14886E-02 1.26473E+00 5.52126E-13-5.60347E-13
 -1       178 2.12009E+01 4.24372E+00-4.36093E-02 1.95981E+00 6.28962E-13-1.17482E-13
 -1       179 2.28136E+01 3.46224E+00-5.25290E-02 2.81223E+00 6.04362E-13 7.02556E-13
 -1       180 2.42999E+01 1.06217E+00-3.33449E-01 2.48633E+00 4.61199E-13 1.77669E-12
 -1       181 2.40241E+01 8.06817E-01 1.51447E-03-1.39057E+00-5.34843E-13 1.07731E-12
 -1       182 2.29371E+01 1.67113E-01-8.49904E-03-2.20667E-01-4.62203E-13 8.08927E-13
 -1       183 2.26356E+01 8.67705E-02 1.28626E-02 2.20084E-01-3.55641E-13 5.77112E-13
 -1       184 2.27469E+01 1.59836E-02 7.40568E-03 3.81826E-01-2.46161E-13 3.74285E-13
 -1       185 2.29989E+01-4.72296E-02 1.32318E-03 3.63958E-01-1.65359E-13 2.72276E-13
 -1       186 2.32223E+01-1.16164E-01-1.95198E-03 1.76044E-01-1.39348E-13 2.14844E-13
 -1       187 2.32666E+01-1.79607E-01-2.60530E-03-1.77815E-01-9.43984E-14 1.39236E-13
 -1       188 2.30106E+01-2.04699E-01-1.43987E-03-6.42733E-01-1.03777E-13 1.21604E-13
 -1       189 2.24096E+01-1.46543E-01 7.78671E-04-1.07182E+00-1.22086E-13 9.30315E-14
 -1       190 2.15599E+01 1.54421E-02 2.06706E-03-1.23737E+00-4.01412E-14 5.76700E-14
 -1       191 2.07315E+01 2.28565E-01 1.51642E-03-9.46291E-01-1.19854E-13-1.75219E-13
 -1       192 2.02834E+01 3.67673E-01 5.26301E-04-2.21803E-01-2.10301E-13-3.18744E-13
 -1       193 2.04509E+01 3.33812E-01 7.93208E-04 6.32623E-01-1.47285E-13-4.19936E-13
 -1       194 2.11751E+01 1.52093E-01 1.80495E-03 1.22020E+00-1.26541E-13-6.45999E-13
 -1       195 2.21460E+01-5.48521E-02 1.65811E-03 1.33047E+00-1.02505E-14-6.31632E-13
 -1       196 2.30131E+01-1.81575E-01-3.81092E-04 1.03558E+00 1.26201E-14-6.35845E-13
 -1       197 2.35605E+01-2.06903E-01-2.85566E-03 5.59086E-01 7.54119E-14-5.92436E-13
 -1       198 2.37389E+01-1.66833E-01-4.12536E-03 1.02131E-01-2.41105E-14-5.91658E-13
 -1       199 2.36086E+01-1.05372E-01-4.11448E-03-2.31441E-01-3.20594E-14-4.76800E-13
 -1       200 2.32724E+01-5.00561E-02-3.09150E-03-4.23051E-01 4.50733E-14-5.59358E-13
 -1       201 2.28294E+01-1.09436E-02-1.74882E-03-4.99127E-01 8.76307E-14-5.33818E-13
 -1       202 2.23559E+01 1.22675E-02-5.52796E-04-4.98042E-01 1.94489E-14-4.92973E-13
 -1       203 2.19017E+01 2.35928E-02 3.06429E-04-4.53445E-01-7.09431E-15-3.70671E-13
 -1       204 2.14945E+01 2.72885E-02 8.16565E-04-3.89345E-01 6.16478E-14-2.02652E-13
 -1       205 2.11464E+01 2.66466E-02 1.04943E-03-3.20744E-01 7.58333E-14-1.24163E-13
 -1       206 2.08591E+01 2.38600E-02 1.09438E-03-2.55962E-01 2.64746E-15-1.85679E-13
 -1       207 2.06286E+01 2.02550E-02 1.02829E-03-1.98942E-01-1.30427E-13-3.12494E-13
 -1       208 2.04483E+01 1.65694E-02 9.06698E-04-1.51005E-01 5.70635E-14-5.10928E-13
 -1       209 2.03102E+01 1.31752E-02 7.65448E-04-1.12022E-01 6.21433E-14-3.58876E-13
 -1       210 2.02068E+01 1.02304E-02 6.25543E-04-8.11458E-02-2.14340E-13-2.45725E-13
 -1       211 2.01311E+01 7.77421E-03 4.97994E-04-5.72389E-02-1.91502E-13-3.63101E-13
 -1       212 2.00770E+01 5.78447E-03 3.87565E-04-3.91144E-02-6.14041E-14-4.57428E-13
 -1       213 2.00394E+01 4.21030E-03 2.95361E-04-2.56579E-02 5.86457E-14-2.96292E-13
 -1       214 2.00142E+01 2.99073E-03 2.20493E-04-1.58853E-02 1.89337E-13-4.05943E-13
 -1       215 1.99981E+01 2.06455E-03 1.61100E-04-8.96067E-03-1.78148E-14-6.55903E-13
 -1       216 1.99886E+01 1.37526E-03 1.14953E-04-4.19447E-03 1.83546E-14-5.04493E-13
 -1       217 1.99837E+01 8.73304E-04 7.97984E-05-1.03129E-03 1.11963E-13-4.61466E-13
 -1       218 1.99818E+01 5.16615E-04 5.35386E-05 9.67147E-04 3.13240E-14-2.53449E-13
 -1       219 1.99820E+01 2.70357E-04 3.43114E-05 2.13989E-03 7.52003E-14-3.38224E-13
 -1       220 1.99834E+01 1.06203E-04 2.05152E-05 2.74384E-03-1.39948E-13-3.47038E-13
 -1       221 1.99854E+01 1.37355E-06 1.07998E-05 2.96900E-03-1.19523E-13-2.42788E-13
 -1       222 1.99878E+01-6.24096E-05 4.04352E-06 2.95131E-03 1.89023E-13-1.57075E-13
 -1       223 1.99903E+01-1.00034E-04-6.62010E-07 2.78297E-03 4.69825E-14 6.89795E-14
 -1       224 1.99926E+01-1.24121E-04-3.96965E-06 2.52008E-03 1.56827E-13 1.25660E-13
 -1       225 1.99948E+01-1.46175E-04-6.16190E-06 2.18783E-03 3.70901E-13-8.25204E-14
 -1       226 1.99966E+01-1.77733E-04-6.92550E-06 1.78365E-03 1.75100E-14-2.80464E-13
 -1       227 1.99980E+01-2.29872E-04-6.78188E-06 1.28308E-03-6.65207E-15-2.09324E-13
 -1       228 1.99991E+01-2.97242E-04-4.45731E-06 6.69598E-04 1.48517E-13-2.98666E-13
 -1       229 2.32499E+01 2.52730E-01-4.61258E-02 6.76563E-01 4.72719E-13 1.52356E-12
 -1       230 2.26515E+01 1.16164E-01 9.60663E-03-5.16574E-03 3.65295E-13 1.16750E-12
 -1       231 2.26348E+01 4.57071E-02 1.16953E-02-2.65366E-01 2.39222E-13 8.86416E-13
 -1       232 2.28669E+01-2.05198E-03 6.04463E-03-3.39731E-01 1.82428E-13 7.34316E-13
 -1       233 2.31461E+01-4.96507E-02 2.97336E-03-2.68532E-01 9.04175E-14 6.08793E-13
 -1       234 2.33019E+01-1.00296E-01 2.85548E-03-5.02693E-02 6.46592E-14 5.15631E-13
 -1       235 2.31836E+01-1.40470E-01 4.24372E-03 3.00961E-01 9.33398E-14 5.12659E-13
 -1       236 2.26941E+01-1.41905E-01 5.24729E-03 7.11485E-01 1.22830E-13 4.90538E-13
 -1       237 2.18539E+01-7.42135E-02 3.25178E-03 1.02362E+00 1.18452E-13 3.51065E-13
 -1       238 2.08636E+01 6.26927E-02-2.94380E-03 1.03390E+00 5.69033E-14 3.12781E-13
 -1       239 2.00842E+01 2.08503E-01-9.73575E-03 6.26876E-01 2.05508E-13 1.62759E-13
 -1       240 1.98739E+01 2.70428E-01-1.11211E-02-8.34645E-02 1.83823E-13-6.94082E-14
 -1       241 2.03589E+01 2.03572E-01-5.45475E-03-7.76046E-01 1.93854E-13-3.11185E-13
 -1       242 2.13375E+01 5.77281E-02 2.26413E-03-1.14323E+00 7.54179E-14-4.84343E-13
 -1       243 2.24245E+01-7.58048E-02 6.45927E-03-1.09550E+00-3.51351E-14-4.20402E-13
 -1       244 2.32809E+01-1.41318E-01 5.52853E-03-7.61258E-01-8.46016E-14-5.06718E-13
 -1       245 2.37449E+01-1.40850E-01 2.34813E-03-3.40456E-01 2.35415E-14-4.69416E-13
 -1       246 2.38197E+01-1.04942E-01-5.79169E-04 2.08831E-02-2.89374E-14-4.93113E-13
 -1       247 2.35988E+01-6.16860E-02-2.05439E-03 2.63529E-01-6.50304E-16-4.39492E-13
 -1       248 2.31979E+01-2.59869E-02-2.19441E-03 3.89727E-01 6.28080E-14-2.85991E-13
 -1       249 2.27171E+01-2.02925E-03-1.63278E-03 4.28356E-01-6.05103E-14-3.08564E-13
 -1       250 2.22275E+01 1.15346E-02-8.94934E-04 4.11899E-01 1.42819E-13-3.49879E-13
 -1       251 2.17726E+01 1.76972E-02-2.62421E-04 3.66409E-01-1.55049E-14-5.01159E-13
 -1       252 2.13742E+01 1.92605E-02 1.73343E-04 3.09526E-01-1.71461E-13-3.41735E-13
 -1       253 2.10399E+01 1.82874E-02 4.22556E-04 2.51818E-01 7.15552E-15 2.22157E-14
 -1       254 2.07682E+01 1.61160E-02 5.31782E-04 1.98870E-01-7.66156E-14 6.83437E-14
 -1       255 2.05533E+01 1.35402E-02 5.49781E-04 1.53119E-01 8.04189E-14 1.08233E-13
 -1       256 2.03873E+01 1.09938E-02 5.15171E-04 1.15163E-01-2.78369E-15 3.56720E-14
 -1       257 2.02620E+01 8.68932E-03 4.54638E-04 8.46189E-02 1.23021E-13 6.58901E-14
 -1       258 2.01693E+01 6.71128E-03 3.85017E-04 6.06457E-02 9.39680E-14-1.50475E-13
 -1       259 2.01025E+01 5.07378E-03 3.16110E-04 4.22411E-02-9.45140E-14-2.18098E-13
 -1       260 2.00556E+01 3.75500E-03 2.53089E-04 2.84058E-02-8.44470E-15-3.47763E-13
 -1       261 2.00238E+01 2.71697E-03 1.98249E-04 1.82258E-02-2.12310E-14-1.58311E-13
 -1       262 2.00031E+01 1.91666E-03 1.52177E-04 1.09065E-02-5.75520E-15-1.10661E-13
 -1       263 1.99904E+01 1.31188E-03 1.14512E-04 5.78084E-03 1.70852E-13-2.62513E-13
 -1       264 1.99834E+01 8.64207E-04 8.44105E-05 2.30411E-03 1.63660E-13-4.46574E-13
 -1       265 1.99804E+01 5.40186E-04 6.08322E-05 4.09961E-05-1.54281E-13-2.96435E-13
 -1       266 1.99799E+01 3.11598E-04 4.26998E-05-1.34922E-03 5.82366E-14-3.45110E-13
 -1       267 1.99810E+01 1.55175E-04 2.89918E-05-2.12798E-03-4.61788E-14-2.19995E-13
 -1       268 1.99831E+01 5.20457E-05 1.87844E-05-2.49156E-03-1.13401E-13-4.61083E-14
 -1       269 1.99856E+01-1.29595E-05 1.12710E-05-2.58342E-03 6.36038E-14-2.33024E-13
 -1       270 1.99883E+01-5.20643E-05 5.77360E-06-2.50445E-03-1.22931E-13-6.15636E-14
 -1       271 1.99909E+01-7.53653E-05 1.78179E-06-2.32083E-03 1.94450E-13-2.97281E-13
 -1       272 1.99933E+01-9.17491E-05-9.13615E-07-2.06967E-03 1.99388E-13-8.02110E-13
 -1       273 1.99955E+01-1.09497E-04-1.86074E-06-1.76222E-03 2.57279E-13-9.25250E-13
 -1       274 1.99972E+01-1.36803E-04-5.05245E-08-1.38713E-03 5.41369E-14-7.74529E-13
 -1       275 1.99986E+01-1.85932E-04 3.15266E-07-9.13894E-04-2.07486E-15-4.79770E-13
 -1       276 1.99994E+01-2.09749E-04-5.23322E-06-3.48497E-04-1.01298E-13-4.16471E-13
 -1       277 1.99995E+01-7.26757E-04-4.79396E-06-6.86064E-04-9.00765E-14 7.96179E-13
 -1       278 1.99996E+01-1.70518E-03-1.95138E-06-1.19830E-03-4.92417E-14 6.51750E-13
 -1       279 1.99997E+01-2.94421E-03-8.76600E-07-1.47032E-03 1.93124E-14-2.35132E-13
 -1       280 1.99998E+01-4.27324E-03 9.34270E-07-1.48709E-03 2.66204E-13 2.36601E-13
 -1       281 1.99999E+01-5.49453E-03 3.60023E-06-1.29821E-03 1.90934E-13-3.55387E-14
 -1       282 2.00000E+01-6.49852E-03 5.86969E-06-9.50216E-04 3.34204E-13 1.08843E-14
 -1       283 2.00000E+01-7.14552E-03 7.40030E-06-4.98400E-04 2.75119E-13-6.73831E-14
 -1       284 2.00000E+01-7.36638E-03 7.91765E-06 4.35617E-06 1.84291E-13-1.17381E-13
 -1       285 2.00000E+01-7.13790E-03 7.39549E-06 5.06621E-04-3.13966E-14-1.79527E-13
 -1       286 2.00000E+01-6.48399E-03 5.86150E-06 9.57190E-04 1.89001E-15-2.33616E-13
 -1       287 1.99999E+01-5.49529E-03 3.46104E-06 1.29867E-03 2.59732E-13 4.48756E-14
 -1       288 1.99998E+01-4.25088E-03 9.23456E-07 1.48863E-03 4.85243E-13 6.43690E-13
 -1       289 1.99997E+01-2.92219E-03-1.20286E-06 1.46770E-03 3.34172E-13 1.41926E-13
 -1       290 1.99996E+01-1.69296E-03-5.02138E-06 1.18123E-03 6.41500E-14-3.71297E-13
 -1       291 1.99994E+01-9.32778E-04-6.44278E-06 1.05746E-03-1.98474E-14-7.05691E-13
 -1       292-9.29103E-01-1.08780E+01-9.87536E-01 9.94790E-01 3.06741E-13 1.30107E-12
 -1       293 2.34722E+00-8.56826E+00-7.61619E-01 3.35660E+00 9.87155E-13 1.35063E-12
 -1       294 9.17792E+00-5.51305E+00-4.70655E-01 5.63244E+00 1.27121E-12 1.52740E-12
 -1       295 1.72695E+01-1.41996E+00-1.70508E-01 6.97493E+00 1.67924E-12 1.62786E-12
 -1       296 2.78538E+01 1.28707E+00 2.10811E-01 6.91900E+00 1.60620E-12 1.19113E-12
 -1       297 3.69500E+01 4.31576E+00 5.83901E-01 6.00935E+00 1.54137E-12 8.66862E-13
 -1       298 4.31128E+01 6.29603E+00 7.97046E-01 3.15583E+00 1.34227E-12 1.60039E-13
 -1       299 4.72329E+01 6.66398E+00 1.06756E+00 7.19137E-02 1.18794E-12-6.24351E-13
 -1       300 4.42024E+01 6.39630E+00 8.73721E-01-3.24183E+00 1.28597E-12-1.29594E-12
 -1       301 3.68862E+01 4.13462E+00 4.47543E-01-4.62347E+00 1.39421E-12-1.34068E-12
 -1       302 2.80598E+01 9.98549E-01 1.94264E-01-6.78138E+00 1.57084E-12-1.62240E-12
 -1       303 1.66265E+01-1.57596E+00-2.00065E-01-7.02237E+00 1.85321E-12-2.06493E-12
 -1       304 7.99834E+00-5.53618E+00-5.85991E-01-5.19317E+00 1.49136E-12-1.76790E-12
 -1       305 2.39855E+00-8.24249E+00-7.12498E-01-3.56495E+00 7.25919E-13-1.41656E-12
 -1       306-9.61653E-01-1.06760E+01-9.68806E-01-9.29097E-01 1.17281E-13-1.27320E-12
 -1       307-2.10617E-01-8.52644E+00-6.26229E-01 1.80719E+00-4.74412E-13-1.42980E-12
 -1       308 3.36503E+00-7.95010E+00-7.31088E-01 3.79947E+00-1.29405E-12-1.41828E-12
 -1       309 9.84436E+00-4.63553E+00-4.99009E-01 5.68516E+00-1.88582E-12-1.72849E-12
 -1       310 2.00421E+01-1.30429E+00-7.96252E-02 7.10944E+00-1.73220E-12-1.83373E-12
 -1       311 2.99677E+01 2.74654E+00 3.62805E-01 7.62530E+00-1.82929E-12-1.99668E-12
 -1       312 3.91808E+01 5.06846E+00 7.48777E-01 6.28287E+00-1.66260E-12-1.57399E-12
 -1       313 4.40135E+01 6.60953E+00 8.19174E-01 2.66796E+00-1.45337E-12-8.12600E-13
 -1       314 4.37715E+01 7.39307E+00 6.99602E-01-4.35687E-01-1.30351E-12-2.63786E-13
 -1       315 4.33045E+01 5.92699E+00 8.85365E-01-4.44258E+00-1.25439E-12 5.92609E-13
 -1       316 3.51881E+01 3.65661E+00 4.81539E-01-5.92767E+00-1.40878E-12 8.51347E-13
 -1       317 2.57622E+01 1.42728E+00 1.74966E-01-7.55559E+00-1.51978E-12 1.61018E-12
 -1       318 1.68733E+01-2.54870E+00-1.90466E-01-6.77946E+00-1.14708E-12 1.51057E-12
 -1       319 7.81383E+00-5.66929E+00-5.72695E-01-5.05700E+00-1.32913E-12 1.17287E-12
 -1       320 2.14498E+00-8.69080E+00-7.95353E-01-3.24022E+00-7.80515E-13 1.25598E-12
 -1       321-9.01209E-01-1.08911E+01-9.77624E-01-9.74544E-01-2.92821E-13 1.07017E-12
 -1       322 2.10584E+01 3.03808E+00-2.27157E-02-1.10292E+00-5.83189E-13-3.86790E-13
 -1       323 2.23579E+01 2.16716E+00-1.71385E-02-1.48025E+00-6.45656E-13 5.35509E-15
 -1       324 1.89518E+01 3.95794E+00-1.28906E-02-3.58649E-01-3.28517E-13-7.72601E-13
 -1       325 1.81228E+01 4.24653E+00-9.09442E-03-1.34791E-01-2.01844E-13-8.65309E-13
 -1       326 1.75178E+01 4.44975E+00-6.61915E-03-2.53563E-02-8.32621E-14-8.86213E-13
 -1       327 1.72000E+01 4.55541E+00-5.37668E-03 1.16936E-03 1.86640E-14-8.97217E-13
 -1       328 1.72094E+01 4.55090E+00-5.40329E-03-1.37058E-03 1.24713E-13-8.83786E-13
 -1       329 1.75448E+01 4.43669E+00-6.69450E-03 2.92599E-02 2.26783E-13-8.57721E-13
 -1       330 1.81507E+01 4.23022E+00-9.22242E-03 1.43039E-01 3.35347E-13-7.77583E-13
 -1       331 1.89847E+01 3.93623E+00-1.30170E-02 3.72901E-01 4.71847E-13-6.44719E-13
 -1       332 1.99813E+01 3.54407E+00-1.81106E-02 7.18160E-01 5.82903E-13-4.60639E-13
 -1       333 2.11236E+01 2.98561E+00-2.25156E-02 1.13870E+00 6.71089E-13-1.99991E-13
 -1       334 2.23600E+01 2.08961E+00-3.00484E-02 1.45743E+00 6.98005E-13 3.06160E-13
 -1       335 2.30659E+01 1.13569E+00-2.22473E-02 1.19802E+00 6.28136E-13 7.95292E-13
 -1       336 2.26880E+01 4.58858E-01 8.25392E-03 2.15186E-01 5.14909E-13 6.17446E-13
 -1       337 2.25263E+01 6.41660E-01 1.22070E-02-1.68841E-01-4.97703E-13 1.28436E-13
 -1       338 2.24346E+01 2.66074E-01 5.55631E-03 3.69009E-01-3.98859E-13 1.02402E-13
 -1       339 2.25407E+01-2.59653E-04 1.07427E-03 5.72285E-01-2.69016E-13 6.25580E-14
 -1       340 2.27720E+01-2.60760E-01-2.66912E-03 4.97023E-01-1.62975E-13 4.20213E-14
 -1       341 2.30475E+01-5.20585E-01-4.96575E-03 1.46031E-01-1.13036E-13 1.07423E-13
 -1       342 2.32664E+01-7.07284E-01-5.14245E-03-4.53688E-01-6.57957E-14 1.08737E-13
 -1       343 2.33072E+01-6.79382E-01-4.32657E-03-1.17371E+00-1.00839E-13 1.41430E-13
 -1       344 2.30732E+01-2.94884E-01-1.60120E-03-1.72902E+00-1.31781E-13 1.32534E-13
 -1       345 2.25915E+01 4.19520E-01-3.70740E-04-1.73517E+00-2.32151E-13-2.91564E-14
 -1       346 2.21140E+01 1.12336E+00-9.37653E-04-9.61533E-01-3.58100E-13-1.99447E-13
 -1       347 2.19881E+01 1.33771E+00-1.53358E-03 3.38192E-01-3.47698E-13-3.46243E-13
 -1       348 2.23315E+01 8.98018E-01-4.67473E-04 1.50641E+00-2.46140E-13-4.06024E-13
 -1       349 2.29035E+01 1.31356E-01-3.93243E-04 1.98997E+00-1.54442E-13-5.80357E-13
 -1       350 2.33552E+01-4.91290E-01-2.32114E-03 1.72751E+00-2.64378E-14-7.01630E-13
 -1       351 2.35085E+01-7.45045E-01-5.13174E-03 1.04604E+00 9.21502E-14-6.03822E-13
 -1       352 2.33899E+01-6.93180E-01-5.79145E-03 3.03909E-01 7.10564E-15-5.64776E-13
 -1       353 2.30966E+01-4.94876E-01-5.42078E-03-2.84885E-01 1.29623E-13-3.88585E-13
 -1       354 2.27217E+01-2.78100E-01-3.82527E-03-6.55848E-01 2.97053E-14-3.36230E-13
 -1       355 2.23256E+01-1.05705E-01-2.05304E-03-8.32694E-01 3.33299E-14-2.60453E-13
 -1       356 2.19420E+01 8.08111E-03-6.46604E-04-8.69586E-01 1.85334E-13-2.60462E-13
 -1       357 2.15890E+01 7.18281E-02 2.85078E-04-8.19995E-01 1.73852E-13-1.02630E-13
 -1       358 2.12756E+01 1.00183E-01 8.00368E-04-7.25354E-01 1.25110E-13 6.13700E-14
 -1       359 2.10051E+01 1.06446E-01 1.01705E-03-6.13693E-01 3.42039E-14-1.86230E-13
 -1       360 2.07775E+01 1.00406E-01 1.04472E-03-5.02056E-01 2.34025E-15-2.61799E-13
 -1       361 2.05902E+01 8.84881E-02 9.67277E-04-3.99682E-01-1.02563E-13-2.49381E-13
 -1       362 2.04391E+01 7.45720E-02 8.41221E-04-3.10745E-01-1.11617E-13-4.72787E-14
 -1       363 2.03197E+01 6.08238E-02 7.01046E-04-2.36356E-01 4.97918E-14-1.98512E-13
 -1       364 2.02271E+01 4.83347E-02 5.65898E-04-1.75919E-01 7.02259E-15-3.43784E-13
 -1       365 2.01566E+01 3.75566E-02 4.45134E-04-1.27985E-01-2.27474E-13-2.71116E-13
 -1       366 2.01040E+01 2.85806E-02 3.42285E-04-9.07724E-02-1.21889E-13-3.15616E-14
 -1       367 2.00656E+01 2.13067E-02 2.57626E-04-6.24600E-02 2.72667E-14 4.97257E-14
 -1       368 2.00382E+01 1.55450E-02 1.89770E-04-4.13509E-02-2.39117E-14-1.63475E-13
 -1       369 2.00193E+01 1.10737E-02 1.36597E-04-2.59447E-02-6.73482E-15-1.70429E-13
 -1       370 2.00066E+01 7.67164E-03 9.57835E-05-1.49638E-02-5.18949E-14-2.76496E-13
 -1       371 1.99986E+01 5.13442E-03 6.50833E-05-7.35065E-03 1.05710E-13-3.09545E-13
 -1       372 1.99939E+01 3.28229E-03 4.24674E-05-2.24988E-03 2.72425E-13-1.73695E-13
 -1       373 1.99916E+01 1.96213E-03 2.61770E-05 1.01587E-03 1.28471E-13-1.28010E-13
 -1       374 1.99908E+01 1.04661E-03 1.47300E-05 2.97225E-03 1.15132E-13-7.16749E-14
 -1       375 1.99910E+01 4.31594E-04 6.89987E-06 4.01840E-03-5.35500E-14-3.42419E-14
 -1       376 1.99918E+01 3.27796E-05 1.67978E-06 4.44965E-03 1.14317E-14-2.55369E-14
 -1       377 1.99929E+01-2.18105E-04-1.75042E-06 4.47692E-03 2.71300E-13-1.15901E-13
 -1       378 1.99942E+01-3.77121E-04-4.05443E-06 4.24250E-03 2.31387E-13 1.46241E-14
 -1       379 1.99955E+01-4.91554E-04-5.71005E-06 3.83260E-03 9.82362E-14 6.15551E-14
 -1       380 1.99968E+01-6.01869E-04-6.92400E-06 3.28815E-03-1.55731E-13-1.15573E-13
 -1       381 1.99978E+01-7.42941E-04-9.41119E-06 2.61824E-03-2.01258E-13-3.10211E-13
 -1       382 1.99986E+01-8.47360E-04-8.95367E-06 1.87665E-03-1.56147E-13-3.26259E-13
 -1       383 2.25595E+01 1.87173E-01 9.08861E-03-2.82404E-01 3.82870E-13 4.98365E-13
 -1       384 2.26510E+01 1.85190E-02 3.29936E-03-4.73730E-01 2.47772E-13 3.85917E-13
 -1       385 2.28599E+01-1.41277E-01-1.21533E-03-4.24911E-01 1.45086E-13 2.96082E-13
 -1       386 2.30684E+01-3.04800E-01-3.77596E-03-1.43737E-01 1.04720E-13 2.43750E-13
 -1       387 2.31600E+01-4.34472E-01-4.64350E-03 3.48819E-01 6.34371E-14 2.37697E-13
 -1       388 2.30290E+01-4.47944E-01-3.86820E-03 9.53947E-01 1.05580E-13 3.42161E-13
 -1       389 2.26209E+01-2.51051E-01-5.32056E-04 1.45300E+00 1.79838E-13 4.38619E-13
 -1       390 2.20011E+01 1.66627E-01 1.09636E-03 1.53913E+00 1.45388E-13 3.92528E-13
 -1       391 2.14157E+01 6.31524E-01 1.03361E-03 1.00098E+00 3.14956E-13 1.78173E-13
 -1       392 2.11890E+01 8.52673E-01 1.98708E-03-3.43901E-02 3.69682E-13-4.31774E-14
 -1       393 2.14836E+01 6.64618E-01 3.60497E-03-1.09054E+00 3.38471E-13-2.75150E-13
 -1       394 2.21428E+01 2.08333E-01 3.66305E-03-1.67261E+00 1.63702E-13-3.23027E-13
 -1       395 2.28375E+01-2.26544E-01 1.02508E-03-1.62059E+00-2.04650E-14-4.61844E-13
 -1       396 2.33076E+01-4.49929E-01-3.24912E-03-1.12448E+00 5.12177E-14-5.30578E-13
 -1       397 2.34719E+01-4.59259E-01-5.56720E-03-4.89243E-01 2.03258E-14-6.16299E-13
 -1       398 2.33720E+01-3.48828E-01-5.94413E-03 6.19548E-02-1.88434E-14-4.77598E-13
 -1       399 2.30939E+01-2.09584E-01-4.76394E-03 4.37401E-01-5.50866E-14-4.78171E-13
 -1       400 2.27189E+01-9.16302E-02-2.95224E-03 6.37327E-01-2.77593E-14-4.00296E-13
 -1       401 2.23090E+01-1.06052E-02-1.29219E-03 7.02590E-01-3.58027E-14-2.61368E-13
 -1       402 2.19057E+01 3.65200E-02-8.26972E-05 6.80858E-01 1.53535E-13-3.25280E-13
 -1       403 2.15343E+01 5.88482E-02 6.54638E-04 6.11445E-01 9.99278E-14-2.44540E-13
 -1       404 2.12078E+01 6.53664E-02 1.01638E-03 5.21803E-01-3.08306E-13-2.91492E-13
 -1       405 2.09307E+01 6.29078E-02 1.12433E-03 4.28977E-01-2.21578E-13-1.22522E-13
 -1       406 2.07023E+01 5.60254E-02 1.08253E-03 3.42407E-01-1.32626E-13 4.86589E-14
 -1       407 2.05185E+01 4.74920E-02 9.64782E-04 2.66540E-01 1.19494E-13 1.59546E-13
 -1       408 2.03738E+01 3.88671E-02 8.17914E-04 2.02793E-01 6.89040E-14 1.84664E-13
 -1       409 2.02623E+01 3.09469E-02 6.68980E-04 1.50885E-01 1.54640E-13 2.05120E-13
 -1       410 2.01780E+01 2.40729E-02 5.32022E-04 1.09678E-01 1.91758E-13 6.78557E-14
 -1       411 2.01157E+01 1.83302E-02 4.13149E-04 7.76836E-02 1.80036E-14-1.50956E-13
 -1       412 2.00707E+01 1.36684E-02 3.13927E-04 5.33533E-02 7.28862E-15-1.75812E-13
 -1       413 2.00390E+01 9.97214E-03 2.33500E-04 3.52288E-02-7.75148E-14-2.88500E-13
 -1       414 2.00174E+01 7.10226E-03 1.69856E-04 2.20173E-02 2.89732E-14-8.56544E-14
 -1       415 2.00033E+01 4.91812E-03 1.20555E-04 1.26162E-02 2.00687E-13 8.85262E-14
 -1       416 1.99946E+01 3.28917E-03 8.31309E-05 6.11224E-03 2.73773E-13 1.04727E-13
 -1       417 1.99897E+01 2.10024E-03 5.52967E-05 1.76730E-03-1.19445E-13-1.19493E-13
 -1       418 1.99876E+01 1.25317E-03 3.50350E-05-1.00307E-03 9.40778E-14-3.34232E-13
 -1       419 1.99871E+01 6.66300E-04 2.06241E-05-2.65221E-03-2.48903E-13-1.62276E-13
 -1       420 1.99878E+01 2.72953E-04 1.06265E-05-3.52431E-03-1.24761E-13 7.37502E-14
 -1       421 1.99892E+01 1.92288E-05 3.85585E-06-3.87418E-03-9.26350E-14 1.29915E-13
 -1       422 1.99908E+01-1.38385E-04-6.53694E-07-3.88401E-03-9.77430E-14 1.88149E-13
 -1       423 1.99926E+01-2.35537E-04-3.68405E-06-3.67701E-03 4.15364E-13 5.81360E-14
 -1       424 1.99944E+01-3.02568E-04-5.81586E-06-3.32789E-03 4.58483E-13-1.79095E-13
 -1       425 1.99960E+01-3.66578E-04-7.20978E-06-2.87051E-03 2.60775E-13-1.23482E-13
 -1       426 1.99973E+01-4.48202E-04-7.45131E-06-2.30653E-03-1.18031E-13-1.75099E-13
 -1       427 1.99985E+01-5.59309E-04-6.72798E-06-1.62268E-03-2.63031E-13 4.33268E-13
 -1       428 1.99991E+01-6.70372E-04-5.70428E-06-1.17520E-03-3.40488E-14 7.33844E-13
 -1       429 1.99998E+01-3.11350E-03-8.69711E-07-2.52563E-03-1.11864E-13 1.71305E-13
 -1       430 1.99994E+01-2.10573E-03-5.63813E-06-2.34640E-03-3.66643E-13 5.30982E-13
 -1       431 1.99992E+01-1.35933E-03-8.12130E-06-1.84666E-03-2.98890E-13 3.60672E-13
 -1       432 2.00001E+01-4.05255E-03 2.56321E-06-2.35339E-03-1.49175E-13-2.75820E-13
 -1       433 2.00004E+01-4.86417E-03 5.09738E-06-1.89000E-03-6.39434E-14 2.02204E-13
 -1       434 2.00005E+01-5.45079E-03 6.92296E-06-1.21535E-03 7.01698E-14-3.03308E-14
 -1       435 2.00006E+01-5.75702E-03 7.85524E-06-4.14224E-04-2.38757E-13-2.27004E-13
 -1       436 2.00006E+01-5.75432E-03 7.85304E-06 4.28422E-04-7.64784E-14-3.92817E-13
 -1       437 2.00005E+01-5.44286E-03 6.91120E-06 1.22811E-03-3.03037E-14-1.20766E-13
 -1       438 2.00004E+01-4.86408E-03 5.06132E-06 1.89016E-03 3.31850E-13 1.03273E-13
 -1       439 2.00001E+01-4.05291E-03 2.53693E-06 2.35400E-03 4.41741E-13 5.37196E-13
 -1       440 1.99998E+01-3.09602E-03-7.45893E-07 2.52685E-03 2.00913E-13 2.06059E-13
 -1       441 1.99994E+01-2.09002E-03-5.75217E-06 2.35646E-03-1.46689E-13-4.68283E-13
 -1       442 9.56610E+00-5.39984E+00-3.88044E-02 6.70409E+00-1.70849E-13 9.07267E-13
 -1       443 1.19261E+00-4.34753E+00-5.28982E-02 4.64488E-02 1.18000E-14 1.26166E-12
 -1       444 3.18044E+00-4.85982E+00-6.63766E-02 3.94902E+00-6.25056E-14 1.41852E-12
 -1       445 1.81901E+01-5.41021E+00-2.69067E-02 6.71782E+00 1.37723E-13 6.75335E-13
 -1       446 2.52916E+01-3.82101E+00-1.96886E-02 4.87990E+00 4.05787E-13 1.43385E-13
 -1       447 1.99402E+01 3.57484E+00-1.79381E-02-6.96552E-01-4.57125E-13-6.30425E-13
 -1       448 3.35473E+01 4.00561E+00-4.41599E-02-6.31058E-01 1.31850E-12-3.58505E-13
 -1       449 3.61567E+01 7.67919E+00 8.50583E-02-2.78201E-01 1.54651E-12-3.30576E-13
 -1       450 3.63102E+01 7.78680E+00 8.68159E-02 6.12459E-02 1.41517E-12-3.66637E-13
 -1       451 3.37069E+01 4.94021E+00-4.33881E-02 7.38319E-01 1.09479E-12-1.73125E-13
 -1       452 3.14120E+01-4.28067E-01-1.88916E-02-1.36232E+00 7.43417E-13-2.59431E-13
 -1       453 2.50488E+01-3.98654E+00-2.14382E-02-5.14835E+00 5.19293E-13-6.47191E-13
 -1       454 1.72994E+01-5.40785E+00-4.00346E-02-6.93669E+00 2.49217E-13-1.11821E-12
 -1       455 1.02870E+01-5.18390E+00 6.71841E-03-6.93074E+00-6.54199E-14-1.32701E-12
 -1       456 2.83753E+00-4.75778E+00-1.04344E-01-3.72379E+00-3.56659E-14-1.48886E-12
 -1       457 1.42384E+00-3.90537E+00-2.84759E-02 1.15783E-01-6.31890E-14-1.48803E-12
 -1       458 4.67134E+00-4.66312E+00-4.98339E-02 4.93516E+00-6.46705E-14-1.30648E-12
 -1       459 1.16847E+01-5.35901E+00-1.36211E-02 7.08025E+00-1.35836E-13-1.00482E-12
 -1       460 1.89353E+01-5.42802E+00-4.49035E-02 6.69609E+00-3.59018E-13-8.49508E-13
 -1       461 2.77450E+01-2.75058E+00 1.94012E-02 4.16125E+00-7.17509E-13-4.95451E-13
 -1       462 3.24988E+01 9.34013E-01 1.78972E-02 1.35202E+00-9.96335E-13-2.64178E-13
 -1       463 3.51334E+01 5.11188E+00 4.00854E-02 6.60252E-02-1.36549E-12-3.18676E-13
 -1       464 3.47356E+01 7.83900E+00-1.78209E-02-2.15665E-01-1.48459E-12-3.47715E-13
 -1       465 3.48970E+01 6.85334E+00-9.16634E-03 5.91471E-01-1.26592E-12-4.14349E-13
 -1       466 3.38921E+01 3.64438E+00 1.15464E-02 1.58470E-01-9.24621E-13-4.00693E-13
 -1       467 3.04024E+01-1.01749E+00 1.99043E-03-2.62852E+00-6.15456E-13-3.37508E-13
 -1       468 2.52696E+01-3.85363E+00 1.44102E-02-4.95279E+00-2.15244E-13 2.33327E-13
 -1       469 1.62868E+01-5.58752E+00-6.29045E-02-6.89263E+00-1.66783E-13 8.04884E-13
 -1       470 9.21668E+00-5.68719E+00-8.01998E-02-6.56063E+00-1.11217E-13 9.39276E-13
 -1       471 2.56537E+00-4.99499E+00-1.03173E-01-3.50432E+00-4.08007E-15 1.35024E-12
 -1       472 3.16919E+01 8.00487E-02 2.81628E-02 1.89038E+00 9.75414E-13-1.06609E-13
 -1       473 4.55625E+00-2.21661E+00 1.21384E-01 3.07425E+00 1.40138E-13-1.37286E-12
 -1       474 2.21431E+01 7.87600E-01 3.47690E-03-4.78289E-03 4.93682E-13 8.29988E-14
 -1       475 1.78444E+01 3.76541E+00-3.02484E-03 1.65095E-01-1.22390E-13-7.89957E-13
 -1       476 1.86769E+01 3.38438E+00-4.35452E-03 9.05128E-02-2.32025E-13-7.28859E-13
 -1       477 1.71062E+01 4.09897E+00-1.83457E-03-5.65266E-03 6.52673E-14-8.17430E-13
 -1       478 1.73158E+01 4.00168E+00-2.13159E-03-1.25890E-01 1.60383E-13-8.04572E-13
 -1       479 1.78736E+01 3.74591E+00-2.99760E-03-1.66078E-01 2.57034E-13-7.47382E-13
 -1       480 1.87134E+01 3.35833E+00-4.36967E-03-8.42420E-02 3.87621E-13-6.10361E-13
 -1       481 1.97275E+01 2.86941E+00-5.77483E-03 1.15250E-01 4.84303E-13-4.93672E-13
 -1       482 2.08405E+01 2.26400E+00-5.63467E-03 3.75235E-01 5.64718E-13-2.97213E-13
 -1       483 2.21730E+01 3.20976E-01 3.72759E-03-4.89431E-01 3.53531E-13 6.94810E-14
 -1       484 2.18186E+01 9.31378E-01 2.01507E-03 1.45833E-01-4.14322E-13-1.73475E-13
 -1       485 2.85326E+01-3.37245E+00-3.97405E-02 1.53332E+00 1.73009E-13-4.75196E-13
 -1       486 2.19307E+01 3.60605E-01 7.13941E-04 6.21536E-01-3.17814E-13-9.87468E-14
 -1       487 2.21766E+01-1.49397E-01-7.79450E-04 8.09683E-01-1.94620E-13-4.23987E-14
 -1       488 2.25922E+01-6.77514E-01-2.25528E-03 6.90122E-01-9.68475E-14-3.87646E-14
 -1       489 2.31570E+01-1.17613E+00-3.09452E-03 2.30782E-01-5.35995E-14 1.51909E-14
 -1       490 2.37686E+01-1.44713E+00-1.67371E-03-5.55291E-01-6.16284E-14 4.92644E-14
 -1       491 2.41972E+01-1.15988E+00-7.18348E-03-1.49719E+00-1.27287E-13 7.23347E-14
 -1       492 2.42335E+01-9.80460E-02-1.36397E-02-2.13346E+00-2.81749E-13 5.01364E-14
 -1       493 2.38293E+01 1.52842E+00-2.14219E-02-1.85446E+00-4.15663E-13-2.90339E-15
 -1       494 2.34573E+01 2.64363E+00-3.09187E-02-4.67594E-01-4.44528E-13-9.38986E-14
 -1       495 2.35669E+01 2.36554E+00-2.81648E-02 1.28680E+00-4.60123E-13-3.40437E-13
 -1       496 2.40344E+01 9.24693E-01-1.67549E-02 2.29416E+00-4.03331E-13-5.97219E-13
 -1       497 2.43267E+01-6.08623E-01-1.05787E-02 2.16116E+00-1.35329E-13-6.55589E-13
 -1       498 2.41162E+01-1.38974E+00-5.37238E-03 1.31244E+00 8.68391E-14-6.08331E-13
 -1       499 2.35755E+01-1.46940E+00-2.05305E-03 3.39791E-01 1.11469E-13-5.77351E-13
 -1       500 2.29152E+01-1.13671E+00-3.17277E-03-4.25343E-01 1.51935E-13-4.76411E-13
 -1       501 2.23110E+01-6.98799E-01-2.50315E-03-8.99866E-01 1.04150E-13-3.83994E-13
 -1       502 2.18198E+01-3.20707E-01-1.41196E-03-1.12579E+00 1.55144E-13-2.68740E-13
 -1       503 2.14380E+01-5.43099E-02-5.61746E-04-1.17658E+00 1.63987E-13-1.67614E-13
 -1       504 2.11420E+01 1.06880E-01-2.87386E-06-1.11867E+00 1.65906E-13-9.00814E-14
 -1       505 2.09086E+01 1.88596E-01 3.01404E-04-1.00193E+00 2.32411E-13-1.07764E-13
 -1       506 2.07210E+01 2.17600E-01 4.39489E-04-8.60364E-01-3.78419E-14-1.29853E-13
 -1       507 2.05682E+01 2.15106E-01 4.73801E-04-7.15395E-01-5.31226E-14-6.44331E-14
 -1       508 2.04431E+01 1.95877E-01 4.49482E-04-5.79410E-01-8.80295E-14-2.12205E-13
 -1       509 2.03410E+01 1.69350E-01 3.96624E-04-4.58687E-01-4.76625E-14-1.19811E-13
 -1       510 2.02585E+01 1.41143E-01 3.33752E-04-3.55600E-01-1.07343E-13-1.67335E-13
 -1       511 2.01925E+01 1.14350E-01 2.71329E-04-2.70160E-01-1.83859E-14-1.31372E-13
 -1       512 2.01406E+01 9.04806E-02 2.14640E-04-2.01064E-01-7.18080E-14-1.30494E-13
 -1       513 2.01003E+01 7.00981E-02 1.65862E-04-1.46375E-01-9.53575E-14 1.55015E-13
 -1       514 2.00696E+01 5.32268E-02 1.25417E-04-1.03940E-01-1.86214E-14 1.38934E-13
 -1       515 2.00466E+01 3.96064E-02 9.28152E-05-7.16430E-02-2.21191E-13 3.45696E-14
 -1       516 2.00298E+01 2.88451E-02 6.71440E-05-4.75393E-02-9.75879E-14-2.05660E-14
 -1       517 2.00177E+01 2.05105E-02 4.73516E-05-2.99224E-02-1.41069E-13-1.36893E-13
 -1       518 2.00093E+01 1.41795E-02 3.23986E-05-1.73426E-02 5.83831E-15 4.60196E-14
 -1       519 2.00037E+01 9.46546E-03 2.13338E-05-8.59991E-03 2.38107E-13 1.17805E-14
 -1       520 2.00001E+01 6.02967E-03 1.33269E-05-2.72396E-03 1.22601E-13-2.73827E-13
 -1       521 1.99979E+01 3.58412E-03 7.67525E-06 1.05418E-03 1.69833E-13-3.21276E-13
 -1       522 1.99968E+01 1.88932E-03 3.79739E-06 3.33116E-03-3.04144E-14 6.15381E-15
 -1       523 1.99964E+01 7.49167E-04 1.21651E-06 4.55978E-03 9.62117E-14 3.78273E-13
 -1       524 1.99964E+01 4.39434E-06-4.63723E-07 5.07443E-03-1.38859E-14 2.80807E-13
 -1       525 1.99967E+01-4.74402E-04-1.55700E-06 5.11315E-03 3.57158E-13 7.92057E-14
 -1       526 1.99972E+01-7.93392E-04-2.34377E-06 4.83626E-03-1.27081E-14-3.57167E-14
 -1       527 1.99978E+01-1.03957E-03-2.80129E-06 4.34145E-03-1.63307E-13-2.50247E-13
 -1       528 1.99983E+01-1.28414E-03-3.57096E-06 3.67900E-03-2.23590E-13-3.05157E-13
 -1       529 2.26612E+01-4.71674E-01-1.90814E-03-5.54338E-01 1.62475E-13 9.23341E-14
 -1       530 2.30646E+01-8.50669E-01-3.54113E-03-1.28258E-01 5.98161E-14 1.42473E-13
 -1       531 2.34556E+01-1.07273E+00-4.92528E-03 5.76369E-01 4.20596E-14 1.61690E-13
 -1       532 2.36816E+01-9.25058E-01-6.64076E-03 1.39430E+00 2.01108E-14 2.35983E-13
 -1       533 2.35879E+01-2.11113E-01-1.87499E-03 1.96026E+00 1.50820E-13 3.19519E-13
 -1       534 2.31669E+01 9.40505E-01-8.02218E-03 1.79731E+00 4.11304E-13 2.42566E-13
 -1       535 2.27617E+01 1.87504E+00-1.13404E-02 7.07498E-01 6.26979E-13 7.25826E-14
 -1       536 2.27669E+01 1.90040E+00-1.04898E-02-8.39506E-01 5.04865E-13-1.86902E-13
 -1       537 2.31949E+01 9.89244E-01-8.31726E-03-1.96020E+00 3.45579E-13-4.19669E-13
 -1       538 2.36515E+01-1.72941E-01-4.20111E-03-2.15894E+00 1.89381E-13-5.59575E-13
 -1       539 2.37840E+01-9.25996E-01-4.34652E-03-1.59174E+00 6.84283E-14-5.59905E-13
 -1       540 2.35719E+01-1.12564E+00-3.69357E-03-7.33685E-01-5.30565E-15-5.55928E-13
 -1       541 2.31508E+01-9.44720E-01-4.11448E-03 4.63184E-02-4.98077E-14-3.68253E-13
 -1       542 2.26742E+01-6.26372E-01-3.67046E-03 5.94254E-01-7.53024E-14-4.33059E-13
 -1       543 2.22232E+01-3.21983E-01-2.35511E-03 9.01485E-01-1.36324E-13-3.31801E-13
 -1       544 2.18272E+01-9.47763E-02-1.12311E-03 1.01888E+00-8.14311E-14-3.38633E-13
 -1       545 2.14886E+01 4.90958E-02-2.15071E-04 1.00921E+00 3.40204E-14-4.01929E-13
 -1       546 2.12013E+01 1.26309E-01 3.53792E-04 9.25430E-01 3.18382E-14-2.57073E-13
 -1       547 2.09586E+01 1.57803E-01 6.46693E-04 8.05963E-01-1.30140E-13-1.19757E-13
 -1       548 2.07551E+01 1.61271E-01 7.48423E-04 6.75931E-01-2.61779E-13-2.16848E-13
 -1       549 2.05862E+01 1.49404E-01 7.35822E-04 5.50299E-01-1.93404E-13-3.15097E-13
 -1       550 2.04478E+01 1.30450E-01 6.63464E-04 4.36987E-01-1.10191E-14-2.19642E-13
 -1       551 2.03361E+01 1.09376E-01 5.66480E-04 3.39365E-01 3.95821E-14-1.39594E-13
 -1       552 2.02473E+01 8.89518E-02 4.65465E-04 2.58045E-01-2.58554E-14-1.24101E-13
 -1       553 2.01780E+01 7.05617E-02 3.71328E-04 1.92098E-01 2.12724E-13-1.03494E-14
 -1       554 2.01248E+01 5.47616E-02 2.89001E-04 1.39823E-01 2.49025E-13 8.35222E-14
 -1       555 2.00847E+01 4.16342E-02 2.19963E-04 9.92357E-02 1.34734E-13-9.91972E-14
 -1       556 2.00551E+01 3.10106E-02 1.63830E-04 6.83410E-02-3.18159E-14 6.74626E-14
 -1       557 2.00337E+01 2.26032E-02 1.19315E-04 4.52902E-02-4.56513E-14 1.04185E-13
 -1       558 2.00186E+01 1.60838E-02 8.47754E-05 2.84525E-02-1.36355E-14-6.22918E-14
 -1       559 2.00084E+01 1.11271E-02 5.85213E-05 1.64393E-02 1.24102E-13 7.93815E-14
 -1       560 2.00017E+01 7.43353E-03 3.89722E-05 8.10030E-03 2.63223E-13 3.31978E-14
 -1       561 1.99976E+01 4.73981E-03 2.47290E-05 2.50476E-03 4.99043E-14 2.16335E-14
 -1       562 1.99953E+01 2.82163E-03 1.45966E-05-1.08493E-03-1.29225E-13 1.40051E-13
 -1       563 1.99943E+01 1.49232E-03 7.57817E-06-3.24123E-03-3.67624E-13-2.43306E-14
 -1       564 1.99941E+01 5.99019E-04 2.85649E-06-4.39868E-03 7.36383E-14-8.27817E-14
 -1       565 1.99945E+01 1.76912E-05-2.36705E-07-4.87837E-03-4.99398E-14-3.35315E-13
 -1       566 1.99952E+01-3.52363E-04-2.21945E-06-4.90897E-03 3.10000E-13-3.62775E-13
 -1       567 1.99960E+01-5.93799E-04-3.54301E-06-4.64427E-03 2.48373E-13-4.18024E-14
 -1       568 1.99968E+01-7.75480E-04-4.73526E-06-4.17845E-03 8.54427E-14 4.55213E-13
 -1       569 1.99977E+01-9.57592E-04-7.14880E-06-3.56398E-03 1.05359E-13 8.17137E-13
 -1       570 1.99985E+01-1.16673E-03-7.46329E-06-2.80850E-03-3.94963E-13 7.19225E-13
 -1       571 2.00007E+01-3.70243E-03 1.86349E-06-2.77458E-03-9.97362E-14 6.27585E-14
 -1       572 2.00011E+01-4.22382E-03 2.70470E-06-2.01748E-03-2.48585E-13 2.28222E-13
 -1       573 1.99995E+01-2.23884E-03-9.87491E-07-3.29986E-03-1.68370E-13 3.30511E-13
 -1       574 2.00002E+01-3.02571E-03 9.58280E-07-3.22625E-03-1.71467E-13-5.32112E-14
 -1       575 2.00014E+01-4.54911E-03 3.35138E-06-1.05522E-03-2.44573E-13-1.54770E-13
 -1       576 2.00015E+01-4.65851E-03 3.56890E-06 9.16255E-06-4.59403E-14 8.56893E-14
 -1       577 2.00014E+01-4.54524E-03 3.32079E-06 1.07270E-03 2.35096E-13-3.37599E-13
 -1       578 2.00011E+01-4.22385E-03 2.65740E-06 2.01763E-03 2.77592E-13 4.71028E-14
 -1       579 2.00007E+01-3.70257E-03 1.84955E-06 2.77519E-03 2.43406E-13 1.26562E-13
 -1       580 2.00002E+01-3.01549E-03 9.81154E-07 3.23164E-03-1.42321E-13-2.73897E-14
 -1       581 1.99994E+01-2.22000E-03-2.10034E-06 3.28613E-03-3.92471E-13-3.08641E-13
 -1       582 5.07715E+00-1.62455E+00 1.75949E-01 2.32184E+00-3.21580E-13 1.22874E-12
 -1       583 1.73892E+01-5.09398E+00 1.13894E-01 6.61899E+00-6.80761E-13 3.21444E-13
 -1       584 2.23488E+01-7.40257E-02 2.71807E-04-6.70711E-01 2.19929E-13 4.96632E-14
 -1       585 3.00552E+01 2.68365E-01-1.15289E-01-1.36577E+00 7.08125E-13-7.67032E-13
 -1       586 9.24164E+00-2.99402E+00 1.56829E-01-5.78084E+00 3.20008E-13 9.70807E-13
 -1       587 8.61824E+00-3.06623E+00 1.37124E-01 5.63406E+00-5.81132E-13 8.39162E-13
 -1       588 2.96989E+01 6.97737E+00-1.84346E-01 6.26541E-01-1.25633E-12-3.85363E-13
 -1       589 8.50011E+00-2.80027E+00 1.31149E-01-5.59382E+00-3.14020E-13-1.24555E-12
 -1       590 1.72929E+01 4.01528E+00-2.15083E-03 1.17652E-01-1.78461E-14-8.23959E-13
 -1       591 3.06856E+01 7.30136E+00-1.67334E-01-1.49683E-01 1.33396E-12-1.87078E-13
 -1       592 1.06421E+01-3.32026E+00 1.39155E-01 6.35385E+00 3.60233E-13-9.95454E-13
 -1       593 3.03789E+01 5.76378E+00-1.55717E-01-1.61957E+00 1.34416E-12-5.78586E-13
 -1       594 3.00922E+01 6.05713E+00-1.58417E-01 1.33411E+00 1.18454E-12 1.24841E-13
 -1       595 2.98073E+01 1.18906E+00-1.53883E-01 1.59968E+00 5.93491E-13 2.16598E-13
 -1       596 2.79765E+01-3.83452E+00-4.18195E-02-1.72992E+00 1.52555E-13 8.63684E-14
 -1       597 2.29747E+01-5.49831E+00 2.70648E-02-5.14420E+00-2.53512E-13-3.27929E-13
 -1       598 1.73603E+01-4.95591E+00 9.20425E-02-6.67430E+00-4.50057E-13-7.54653E-13
 -1       599 5.05714E+00-1.39779E+00 1.76114E-01-2.23072E+00-1.37033E-13-1.39830E-12
 -1       600 2.92729E+01-2.53233E+00-6.73907E-02 5.89563E-01-3.91853E-13 1.82077E-13
 -1       601 1.79135E+01-5.16284E+00 8.00009E-02 6.70047E+00 2.79200E-13-5.72960E-13
 -1       602 2.50160E+01-5.22153E+00 1.35168E-02 4.21734E+00 4.57412E-14-1.29861E-13
 -1       603 3.00413E+01 1.84191E+00-1.36329E-01-1.86963E+00-7.66519E-13 2.60528E-13
 -1       604 2.94319E+01 5.29942E+00-1.91881E-01-1.72775E+00-1.14521E-12 1.19828E-13
 -1       605 3.04619E+01 4.36201E+00-1.53847E-01 1.97635E+00-9.40990E-13-6.16091E-13
 -1       606 3.00725E+01-2.70833E-01-1.00128E-01 1.06619E+00-3.74978E-13-6.48162E-13
 -1       607 2.79667E+01-3.90973E+00-4.27529E-02-1.81391E+00-8.54386E-14-6.63199E-13
 -1       608 2.28091E+01-5.64190E+00 4.09672E-02-5.10045E+00 3.43468E-13-6.06251E-14
 -1       609 1.56173E+01-5.07624E+00 8.86988E-02-6.85321E+00 3.56097E-13 4.75425E-13
 -1       610 4.97044E+00-1.60331E+00 1.80139E-01-2.14906E+00-4.99878E-14 1.25910E-12
 -1       611 2.15484E+01 1.76806E+00-5.47967E-03-4.64220E-01-5.29739E-13-2.76175E-13
 -1       612 2.22688E+01 1.26898E+00-2.25484E-03 6.21082E-01 6.10679E-13 1.62014E-13
 -1       613 2.25706E+01-5.72963E+00 2.00667E-02 5.09390E+00-4.28164E-13-1.23486E-13
 -1       614 1.96851E+01 2.90135E+00-6.00932E-03-1.02293E-01-3.56234E-13-6.24569E-13
 -1       615 2.84475E+01 2.55864E+00-1.42017E-01-2.50195E+00 8.74918E-13-6.99753E-13
 -1       616 1.99987E+01-1.45667E-03-4.72690E-06 3.13444E-03-3.81379E-13-2.94850E-13
 -1       617 1.42797E+01-3.13536E+00 1.19293E-01-6.23876E+00-4.62221E-13-9.30818E-13
 -1       618 2.80997E+01 2.79491E+00-1.47306E-01 2.31887E+00 7.25989E-13 2.98924E-13
 -1       619 6.15776E+00-3.21728E-01 1.74838E-01 5.29743E-01 6.03389E-14-1.29327E-12
 -1       620 2.06106E+01 2.39133E+00-5.92687E-03-2.99237E-01-4.43374E-13-4.67750E-13
 -1       621 2.81652E+01-1.90337E+00-7.27932E-02 8.88715E-01 1.95250E-13 3.72591E-13
 -1       622 1.74556E+01 3.31870E+00-7.30629E-04-4.28753E-01 1.76624E-13-7.09723E-13
 -1       623 1.69735E+01 3.56554E+00-4.94201E-04-1.71075E-01 1.00346E-13-7.34098E-13
 -1       624 1.93518E+01 2.36121E+00-1.24177E-03-4.65628E-01 3.57128E-13-4.86459E-13
 -1       625 2.04631E+01 1.77432E+00-1.74686E-03-2.96601E-01 4.31449E-13-3.52569E-13
 -1       626 2.14248E+01 9.81371E-01 2.51282E-03-3.67032E-01 4.09940E-13-1.70063E-13
 -1       627 7.48596E+00-1.06868E-01 1.56982E-01 5.30385E-02-2.42921E-13 9.99340E-13
 -1       628 2.12888E+01 3.33724E-01-1.79685E-04 9.99681E-01-2.20250E-13-2.53565E-13
 -1       629 2.17163E+01-4.33121E-01-4.41486E-04 1.21671E+00-8.96314E-14-1.71311E-13
 -1       630 2.24247E+01-1.26696E+00-9.51924E-04 1.13069E+00-1.70358E-15-7.08394E-14
 -1       631 2.34437E+01-2.03469E+00-8.52356E-04 6.30348E-01-6.86040E-15 6.04551E-16
 -1       632 2.46181E+01-2.36434E+00-3.61924E-03-3.25681E-01-2.41560E-14 9.05756E-14
 -1       633 2.55529E+01-1.43404E+00-1.07458E-02-1.61907E+00-1.68723E-13 2.15054E-13
 -1       634 2.58978E+01 7.42652E-01-5.98926E-02-2.46260E+00-3.98589E-13 2.91434E-13
 -1       635 2.54912E+01 3.55028E+00-8.25889E-02-1.62984E+00-6.04721E-13 7.33519E-14
 -1       636 2.53143E+01 4.46762E+00-9.04771E-02 5.37637E-01-7.96127E-13-3.84277E-13
 -1       637 2.56127E+01 2.60061E+00-8.23540E-02 2.34918E+00-6.06532E-13-6.46910E-13
 -1       638 2.59103E+01-2.61887E-01-4.30554E-02 2.53236E+00-2.31132E-13-6.35542E-13
 -1       639 2.52079E+01-1.96782E+00-1.37157E-02 1.33487E+00 7.59288E-15-5.25956E-13
 -1       640 2.41243E+01-2.44754E+00 9.44680E-04 4.58296E-02 1.41981E-13-4.26477E-13
 -1       641 2.29282E+01-1.96843E+00-7.33392E-04-8.48387E-01 1.60090E-13-3.19040E-13
 -1       642 2.19577E+01-1.26302E+00-1.58508E-03-1.32250E+00 1.80453E-13-3.18640E-13
 -1       643 2.12814E+01-6.28063E-01-8.59756E-04-1.49380E+00 1.87264E-13-3.23343E-13
 -1       644 2.08482E+01-1.68055E-01-3.58369E-04-1.48452E+00 1.83491E-13-1.99954E-13
 -1       645 2.05814E+01 1.21904E-01-2.01944E-05-1.37729E+00 1.40063E-13-2.92471E-13
 -1       646 2.04184E+01 2.79296E-01 1.05466E-04-1.22214E+00 1.64894E-13-3.95245E-13
 -1       647 2.03159E+01 3.45671E-01 1.53383E-04-1.04966E+00 1.31724E-13-3.85864E-13
 -1       648 2.02475E+01 3.55162E-01 1.63203E-04-8.78194E-01-2.70243E-14-1.13967E-13
 -1       649 2.01981E+01 3.32394E-01 1.53669E-04-7.18378E-01-9.66799E-14-8.39717E-14
 -1       650 2.01599E+01 2.93762E-01 1.35098E-04-5.75830E-01 4.22477E-14 1.17904E-13
 -1       651 2.01288E+01 2.49508E-01 1.13507E-04-4.52844E-01-1.10694E-13 1.03133E-13
 -1       652 2.01029E+01 2.05630E-01 9.22560E-05-3.49559E-01-1.09217E-13-6.58137E-14
 -1       653 2.00812E+01 1.65343E-01 7.30285E-05-2.64800E-01-1.37479E-13-1.30102E-13
 -1       654 2.00632E+01 1.30118E-01 5.65054E-05-1.96665E-01 1.48803E-13-6.59802E-14
 -1       655 2.00483E+01 1.00374E-01 4.28037E-05-1.42933E-01-5.37893E-14 3.97339E-14
 -1       656 2.00363E+01 7.59336E-02 3.17476E-05-1.01338E-01-1.01303E-13 2.37462E-13
 -1       657 2.00268E+01 5.63039E-02 2.30277E-05-6.97283E-02-4.64722E-13-6.31372E-14
 -1       658 2.00193E+01 4.08573E-02 1.62910E-05-4.61637E-02-2.49933E-13-2.40030E-13
 -1       659 2.00135E+01 2.89352E-02 1.11893E-05-2.89561E-02-1.26166E-13-2.43068E-13
 -1       660 2.00092E+01 1.99086E-02 7.40419E-06-1.66781E-02 4.70120E-14-2.98452E-13
 -1       661 2.00060E+01 1.32093E-02 4.65735E-06-8.15226E-03-3.88172E-14-4.50366E-13
 -1       662 2.00037E+01 8.34269E-03 2.71325E-06-2.42782E-03 1.47743E-13-4.01330E-13
 -1       663 2.00020E+01 4.89006E-03 1.37731E-06 1.24710E-03 2.85811E-13-3.79690E-13
 -1       664 2.00009E+01 2.50380E-03 4.92488E-07 3.45490E-03 1.37763E-13-2.54402E-13
 -1       665 2.00002E+01 8.99412E-04-7.52317E-08 4.63645E-03-5.24196E-14-1.94973E-13
 -1       666 1.99997E+01-1.54313E-04-4.71176E-07 5.11637E-03 1.27856E-13-1.10369E-13
 -1       667 1.99995E+01-8.45219E-04-7.04916E-07 5.12486E-03-1.03312E-14-4.43691E-13
 -1       668 1.99994E+01-1.32564E-03-5.20629E-07 4.81739E-03-2.22073E-13-2.52531E-13
 -1       669 1.99993E+01-1.71969E-03-1.46458E-06 4.28417E-03-2.73452E-13-3.83670E-13
 -1       670 2.33104E+01-1.61377E+00-1.24437E-03-3.46533E-01-8.02835E-15 5.30081E-14
 -1       671 2.72877E+01 4.71774E+00-1.42428E-01 1.86988E+00-8.43846E-13-6.23803E-13
 -1       672 2.25285E+01-9.96062E-01 8.94561E-04-8.56914E-01 5.92083E-14-3.36897E-14
 -1       673 2.48886E+01-1.27884E+00-1.15548E-02 1.68001E+00 5.13565E-14 2.67358E-13
 -1       674 2.49182E+01 3.47648E-01-3.87028E-02 2.35199E+00 3.14831E-13 2.87850E-13
 -1       675 2.44556E+01 2.51787E+00-5.65490E-02 1.76371E+00 6.76346E-13 2.32398E-13
 -1       676 2.41903E+01 3.54302E+00-6.55350E-02-6.20084E-02 8.24216E-13-2.43266E-14
 -1       677 2.44259E+01 2.59914E+00-6.06705E-02-1.92136E+00 6.71482E-13-3.05523E-13
 -1       678 2.49459E+01 4.15669E-01-2.33746E-02-2.52932E+00 3.71022E-13-5.10619E-13
 -1       679 2.48789E+01-1.27934E+00-7.42932E-03-1.85761E+00 8.63320E-14-5.52575E-13
 -1       680 2.42056E+01-1.95419E+00-1.98275E-03-7.20951E-01 1.95649E-14-4.63881E-13
 -1       681 2.32926E+01-1.76558E+00-7.17112E-04 2.60496E-01-2.05647E-13-2.81433E-13
 -1       682 2.24425E+01-1.24140E+00-1.79022E-03 8.93633E-01-1.23404E-13-1.86812E-13
 -1       683 2.17736E+01-6.91999E-01-1.11540E-03 1.22073E+00-1.04336E-13-1.22712E-13
 -1       684 2.12963E+01-2.62106E-01-5.36208E-04 1.32525E+00-6.09258E-14-2.49061E-13
 -1       685 2.09667E+01 2.39640E-02-1.77315E-04 1.29216E+00-6.34574E-14-2.66120E-13
 -1       686 2.07380E+01 1.88610E-01 6.11252E-05 1.18156E+00-7.37278E-14-1.18418E-13
 -1       687 2.05744E+01 2.66043E-01 1.95663E-04 1.03401E+00-5.36468E-14-6.71480E-14
 -1       688 2.04522E+01 2.87261E-01 2.48460E-04 8.75453E-01-1.52023E-13-3.12550E-14
 -1       689 2.03572E+01 2.75642E-01 2.54790E-04 7.21628E-01-2.09250E-13-6.83143E-15
 -1       690 2.02811E+01 2.47106E-01 2.35772E-04 5.81303E-01-1.43165E-13-2.60673E-13
 -1       691 2.02194E+01 2.11735E-01 2.05119E-04 4.58625E-01-6.47256E-14-2.17246E-13
 -1       692 2.01693E+01 1.75504E-01 1.71095E-04 3.54777E-01-3.12289E-14 3.06343E-14
 -1       693 2.01287E+01 1.41678E-01 1.38280E-04 2.69137E-01 7.38809E-14-4.49309E-14
 -1       694 2.00962E+01 1.11815E-01 1.08923E-04 2.00084E-01 1.01247E-13 8.12055E-14
 -1       695 2.00705E+01 8.64482E-02 8.38804E-05 1.45524E-01 1.45516E-13 1.26960E-13
 -1       696 2.00506E+01 6.55200E-02 6.32310E-05 1.03236E-01-1.06354E-14 2.03547E-13
 -1       697 2.00353E+01 4.86635E-02 4.66507E-05 7.10738E-02-7.80684E-15-1.14367E-13
 -1       698 2.00238E+01 3.53702E-02 3.36353E-05 4.70848E-02 6.06891E-14-3.39745E-14
 -1       699 2.00154E+01 2.50917E-02 2.36282E-05 2.95612E-02 2.09194E-14-1.17754E-13
 -1       700 2.00093E+01 1.72974E-02 1.60886E-05 1.70548E-02 1.65552E-13-1.41959E-13
 -1       701 2.00051E+01 1.15041E-02 1.05258E-05 8.36897E-03 6.28509E-14 5.12018E-14
 -1       702 2.00022E+01 7.28987E-03 6.51362E-06 2.53633E-03-7.80753E-14 1.98627E-13
 -1       703 2.00003E+01 4.29619E-03 3.69157E-06-1.20887E-03-1.44682E-13 1.80411E-13
 -1       704 1.99992E+01 2.22523E-03 1.75876E-06-3.46026E-03-1.21600E-13-8.27612E-14
 -1       705 1.99986E+01 8.32978E-04 4.72296E-07-4.66766E-03 2.07835E-13-1.33418E-13
 -1       706 1.99984E+01-7.89718E-05-3.76722E-07-5.16253E-03 1.61926E-13-4.74730E-13
 -1       707 1.99983E+01-6.71796E-04-8.56707E-07-5.18011E-03-4.10590E-15-3.62856E-13
 -1       708 1.99985E+01-1.07718E-03-1.21048E-06-4.87851E-03-1.91004E-13 9.89309E-15
 -1       709 1.99987E+01-1.40596E-03-1.36079E-06-4.35590E-03-3.14551E-13 3.79137E-13
 -1       710 1.99991E+01-1.79474E-03-1.87022E-06-3.87944E-03-3.57862E-13 4.57918E-13
 -1       711 2.00025E+01-3.72532E-03 1.17476E-06-6.11081E-04-1.41818E-13 2.22606E-15
 -1       712 1.99994E+01-1.96561E-03-2.44289E-06 3.82202E-03-3.15246E-13-4.23987E-13
 -1       713 2.00017E+01-3.26126E-03 6.89304E-07-2.82547E-03-1.74482E-13 4.42155E-14
 -1       714 2.00025E+01-3.72406E-03 1.13433E-06 6.31925E-04 2.51687E-14 2.44737E-13
 -1       715 2.00022E+01-3.57082E-03 9.54328E-07-1.80029E-03-1.02124E-13-1.04930E-14
 -1       716 2.74526E+01 5.62642E+00-1.62290E-01-1.11622E+00 1.10644E-12-2.14213E-13
 -1       717 2.66324E+01-4.20938E+00-2.22686E-02 1.34343E+00 1.25169E-13 2.75830E-13
 -1       718 2.00022E+01-3.57091E-03 7.45421E-07 1.80033E-03 2.48402E-13-2.94360E-13
 -1       719 2.00017E+01-3.26156E-03 6.06183E-07 2.82571E-03 4.62270E-14 1.03182E-14
 -1       720 2.00009E+01-2.80177E-03 6.93761E-07 3.57201E-03-1.21275E-13-8.83478E-14
 -1       721 2.54562E+01-4.79099E+00 2.90455E-03-2.25920E+00 2.60582E-13-6.21482E-13
 -1       722 1.43600E+01-3.10081E+00 9.99639E-02 5.89027E+00-6.88460E-13 4.69826E-13
 -1       723 2.72478E+01 5.78245E+00-1.43312E-01-5.90648E-01-1.04268E-12-1.93216E-13
 -1       724 9.56106E+00-9.04505E-01 1.39593E-01 3.79499E+00-5.80863E-13 7.65839E-13
 -1       725 9.24028E+00-7.25689E-01 1.61424E-01-3.85078E+00-2.55001E-13-1.15923E-12
 -1       726 2.52680E+01-4.63029E+00-8.91781E-03-2.61450E+00-2.38859E-13 1.05909E-13
 -1       727 2.29537E+01-4.98828E+00 3.81418E-02 4.35193E+00 3.50595E-13-2.95812E-14
 -1       728 2.19542E+01-3.08396E-01-3.83461E-04-9.80933E-01 1.48819E-13-8.22368E-14
 -1       729 2.42133E+01-1.86729E+00 2.10733E-03 5.48387E-01-4.06999E-14 2.01220E-13
 -1       730 2.10447E+01 1.06620E+00-8.13026E-04 5.53082E-01-2.98356E-13-3.18647E-13
 -1       731 2.16061E+01 3.38662E-01 8.96079E-04-8.01030E-01 2.97912E-13-1.32667E-13
 -1       732 2.60521E+01-4.70624E+00 8.95826E-03 2.03772E+00-3.41682E-13-5.80209E-13
 -1       733 1.82994E+01 2.89199E+00-1.13770E-03-5.31325E-01 2.65045E-13-5.68639E-13
 -1       734 1.82521E+01 2.92307E+00-1.54638E-03 5.26929E-01-1.24532E-13-6.85885E-13
 -1       735 2.72881E+01 5.72204E+00-1.63625E-01 6.42749E-01 1.04394E-12 9.51756E-15
 -1       736 2.80750E+01 1.24752E+00-9.72063E-02 2.50709E+00-4.38507E-13-7.19275E-13
 -1       737 2.20319E+01-4.79575E+00 4.50619E-02-4.65373E+00-4.35811E-13-2.94471E-13
 -1       738 2.79984E+01-2.62560E+00-4.24609E-02-6.24310E-01 1.04105E-13-7.07961E-13
 -1       739 9.57802E+00-8.03462E-01 1.57529E-01 4.12523E+00 3.15092E-13-1.03474E-12
 -1       740 2.81018E+01-1.23356E+00-7.69791E-02-1.51165E+00-3.16466E-13 4.28199E-13
 -1       741 1.63204E+01-3.20248E+00 1.03210E-01 5.91161E+00 5.07826E-13-6.00724E-13
 -1       742 2.13009E+01-4.90563E+00 5.36870E-02 4.82882E+00-6.81753E-13-1.68536E-13
 -1       743 2.75459E+01 2.61004E+00-1.22064E-01-2.37281E+00-6.88893E-13 3.42237E-13
 -1       744 9.76718E+00-7.20751E-01 1.44463E-01-3.58931E+00 7.61977E-14 7.73402E-13
 -1       745 2.76427E+01-3.06619E+00-5.75124E-02 3.54515E-01-2.86802E-14-6.58355E-13
 -1       746 2.08407E+01 1.68248E+00-4.82094E-04 1.45864E-01-3.86759E-13-3.92720E-13
 -1       747 1.93066E+01 2.39583E+00 5.00956E-04 4.70579E-01-2.17420E-13-5.67093E-13
 -1       748 1.69626E+01 3.57287E+00-5.14518E-04 1.51753E-01 2.78268E-14-7.62392E-13
 -1       749 2.74106E+01-4.09041E-01-7.35880E-02-2.20333E+00 4.74058E-13-7.10883E-13
 -1       750 1.47815E+01-3.30732E+00 1.06847E-01-5.97388E+00 4.83957E-13 3.58463E-13
 -1       751 2.00009E+01-2.80652E-03 1.10949E-06-3.56929E-03-2.00702E-13-4.95956E-14
 -1       752 2.00001E+01-2.34560E-03-4.61510E-08-3.88510E-03-3.79870E-13-5.78728E-14
 -1       753 2.13890E+01-4.80124E+00 4.80191E-02-4.72849E+00 5.39620E-13-1.99647E-13
 -1       754 8.82481E+00 3.74540E-01 1.34683E-01-1.64691E+00-5.86562E-14-1.10710E-12
 -1       755 2.76572E+01-4.30118E-02-2.36119E-02 2.23159E+00 3.22690E-13 3.38229E-13
 -1       756 2.66445E+01-3.49634E+00-3.43468E-02-6.49488E-02-1.20045E-13 3.18823E-13
 -1       757 1.74233E+01 3.34001E+00-8.89883E-04 4.15704E-01-4.81069E-14-7.32299E-13
 -1       758 1.90950E+01-3.64839E+00 6.33710E-02-5.26407E+00-4.50754E-13-4.84239E-13
 -1       759 2.00003E+01-2.26134E-03-1.15322E-07 4.03535E-03-3.34477E-13-6.58715E-13
 -1       760 2.00651E+01 1.33470E+00 7.19834E-04-8.94132E-01 2.76349E-13-3.57031E-13
 -1       761 1.04830E+01 3.45899E-01 8.30249E-02 1.63400E+00-4.03152E-13 7.70668E-13
 -1       762 2.01742E+01 1.13145E+00-3.38131E-04 1.00893E+00-1.72742E-13-3.70170E-13
 -1       763 2.57412E+01-3.55896E+00-2.18415E-02-2.05205E-01 2.14403E-13-6.03872E-13
 -1       764 2.10449E+01-7.76704E-01 2.65205E-03 1.87306E+00 6.05877E-15-2.15483E-13
 -1       765 2.20507E+01-1.95278E+00 1.76283E-03 1.96799E+00 9.63045E-14-8.39410E-14
 -1       766 2.36705E+01-3.10092E+00 1.31011E-02 1.56870E+00 1.23332E-13 6.56122E-14
 -1       767 2.28351E+01-2.94760E+00 1.54796E-02-1.76617E+00 2.92997E-13-3.43420E-13
 -1       768 2.14268E+01-1.87832E+00-2.19095E-03-2.05565E+00 1.11086E-13-2.93143E-13
 -1       769 2.05627E+01-9.48452E-01-6.57107E-04-2.02145E+00 1.69545E-13-3.27195E-13
 -1       770 2.00975E+01-2.80967E-01-4.29276E-04-1.83958E+00 2.72181E-13-1.94520E-13
 -1       771 1.98814E+01 1.42420E-01 1.04869E-05-1.61659E+00 1.60242E-13-2.02424E-13
 -1       772 1.98062E+01 3.79093E-01 4.48718E-05-1.38932E+00 1.00039E-13-2.15400E-13
 -1       773 1.98031E+01 4.86856E-01 4.17962E-05-1.17414E+00 2.18002E-13-2.35318E-13
 -1       774 1.98316E+01 5.12116E-01 3.27324E-05-9.77068E-01 2.36386E-13-2.11338E-13
 -1       775 1.98699E+01 4.88566E-01 2.50232E-05-8.00659E-01 1.93668E-14-3.02266E-14
 -1       776 1.99071E+01 4.39198E-01 1.90043E-05-6.45935E-01 2.19940E-14 6.58379E-14
 -1       777 1.99386E+01 3.78929E-01 1.43061E-05-5.12878E-01-3.71346E-14-4.30103E-14
 -1       778 1.99632E+01 3.16931E-01 1.06529E-05-4.00636E-01-1.51819E-13-1.15318E-13
 -1       779 1.99812E+01 2.58470E-01 7.83969E-06-3.07708E-01-1.48806E-13 9.17617E-14
 -1       780 1.99937E+01 2.06244E-01 5.69519E-06-2.32152E-01-1.07149E-13 1.27926E-13
 -1       781 2.00018E+01 1.61327E-01 4.07507E-06-1.71797E-01-5.71018E-14-9.42618E-14
 -1       782 2.00066E+01 1.23807E-01 2.86154E-06-1.24416E-01-6.96695E-14-3.16724E-13
 -1       783 2.00092E+01 9.32112E-02 1.96123E-06-8.78666E-02-3.67841E-13-6.40848E-13
 -1       784 2.00101E+01 6.87828E-02 1.30116E-06-6.01738E-02-3.35442E-13-5.09150E-14
 -1       785 2.00100E+01 4.96557E-02 8.24484E-07-3.95862E-02-2.40716E-13-5.32214E-14
 -1       786 2.00093E+01 3.49601E-02 4.86809E-07-2.45942E-02-3.16737E-14 1.38119E-13
 -1       787 2.00082E+01 2.38832E-02 2.53485E-07-1.39296E-02-1.99213E-13-4.92815E-14
 -1       788 2.00070E+01 1.56995E-02 9.75813E-08-6.55053E-03 9.20151E-14-4.40523E-14
 -1       789 2.00058E+01 9.78274E-03-1.38500E-09-1.61898E-03 1.78940E-13-7.00378E-14
 -1       790 2.00047E+01 5.60500E-03-5.78798E-08 1.52576E-03 3.15592E-13-2.54904E-13
 -1       791 2.00036E+01 2.72968E-03-7.84500E-08 3.39368E-03 1.65556E-13-1.61785E-13
 -1       792 2.00027E+01 8.00063E-04-1.04020E-07 4.36946E-03-4.10398E-14-2.71672E-13
 -1       793 2.00019E+01-4.73754E-04-1.55659E-07 4.73521E-03-3.39456E-14-5.41905E-13
 -1       794 2.00013E+01-1.32570E-03 4.47584E-07 4.68789E-03 7.19025E-14-3.41605E-13
 -1       795 2.00007E+01-1.84734E-03-1.06341E-06 4.44744E-03-3.04090E-13-2.56712E-13
 -1       796 1.06135E+01 4.35592E-01 8.39383E-02-1.33258E+00-1.11996E-13 7.38312E-13
 -1       797 2.52514E+01-2.87182E+00-9.58103E-03-3.75267E-01-1.38522E-13-4.11440E-13
 -1       798 2.36093E+01-2.77258E+00-3.24258E-03 8.42710E-01-2.47961E-13-1.53434E-13
 -1       799 2.22234E+01-1.98534E+00-5.78908E-03 1.48500E+00-2.60693E-13-1.40539E-13
 -1       800 2.12494E+01-1.13553E+00-3.80760E-04 1.72044E+00-1.88210E-13-6.54350E-14
 -1       801 2.06594E+01-4.69431E-01 8.37136E-05 1.70149E+00-8.19930E-14 5.22518E-14
 -1       802 2.03271E+01-1.91266E-02 1.59376E-05 1.57214E+00-6.51121E-14 3.01692E-13
 -1       803 2.01556E+01 2.48787E-01 5.83757E-05 1.39543E+00-2.01900E-13 3.50004E-13
 -1       804 2.00755E+01 3.83867E-01 9.77610E-05 1.20420E+00-1.21613E-13 5.01162E-13
 -1       805 2.00431E+01 4.30983E-01 9.58729E-05 1.01588E+00-1.12389E-13 4.31547E-13
 -1       806 2.00330E+01 4.24565E-01 8.69698E-05 8.40060E-01-7.13838E-14 2.59068E-13
 -1       807 2.00318E+01 3.88679E-01 7.54430E-05 6.81880E-01-1.21598E-14 1.52722E-13
 -1       808 2.00329E+01 3.39137E-01 6.33584E-05 5.43703E-01-1.22942E-13 1.01867E-13
 -1       809 2.00334E+01 2.85756E-01 5.18244E-05 4.25987E-01-1.16333E-13 3.91829E-14
 -1       810 2.00326E+01 2.34247E-01 4.14407E-05 3.27907E-01-4.46226E-14 7.60041E-15
 -1       811 2.00306E+01 1.87625E-01 3.24697E-05 2.47828E-01-3.41070E-15 1.30363E-14
 -1       812 2.00276E+01 1.47199E-01 2.49556E-05 1.83677E-01-4.26009E-14 1.26981E-14
 -1       813 2.00241E+01 1.13246E-01 1.88165E-05 1.33213E-01 3.90819E-14 1.29439E-13
 -1       814 2.00205E+01 8.54512E-02 1.39065E-05 9.42233E-02 1.70467E-13 3.75064E-14
 -1       815 2.00171E+01 6.31928E-02 1.00557E-05 6.46441E-02 3.07215E-14-8.54546E-14
 -1       816 2.00139E+01 4.57220E-02 7.09174E-06 4.26289E-02 8.05424E-14-1.04381E-13
 -1       817 2.00110E+01 3.22701E-02 4.85365E-06 2.65796E-02-9.36913E-14-1.03495E-13
 -1       818 2.00086E+01 2.21101E-02 3.19748E-06 1.51496E-02-7.40763E-14 2.13053E-13
 -1       819 2.00066E+01 1.45890E-02 1.99896E-06 7.23047E-03-1.81682E-13 4.17036E-13
 -1       820 2.00049E+01 9.14049E-03 1.15312E-06 1.92902E-03-6.99666E-14 1.56495E-13
 -1       821 2.00036E+01 5.28612E-03 5.70342E-07-1.45989E-03 3.32038E-14-9.77300E-14
 -1       822 2.00025E+01 2.62921E-03 1.66643E-07-3.48133E-03 1.75799E-13-3.37596E-13
 -1       823 2.00017E+01 8.45349E-04-1.12986E-07-4.54697E-03 1.53258E-13-1.72020E-13
 -1       824 2.00010E+01-3.29533E-04-3.43171E-07-4.95922E-03 1.07087E-13 2.62967E-14
 -1       825 2.00005E+01-1.10820E-03-3.00603E-07-4.93089E-03-2.60152E-13-1.41637E-13
 -1       826 2.00002E+01-1.66414E-03-1.81465E-07-4.60153E-03-3.88245E-13-3.19664E-13
 -1       827 2.00001E+01-1.99834E-03-1.00436E-06-4.27310E-03-5.14717E-13-1.32093E-13
 -1       828 1.68375E+01 2.93554E+00-1.95721E-04-5.66948E-01 1.03198E-13-6.72481E-13
 -1       829 2.00036E+01-2.87256E-03 4.07205E-07 1.13149E-05-5.56240E-15 1.03162E-13
 -1       830 2.00035E+01-2.82728E-03 2.64924E-07 1.32958E-03 5.75629E-14 2.00219E-13
 -1       831 2.39088E+01-4.26265E+00 2.96428E-03 2.35968E+00-4.60566E-13-3.51725E-13
 -1       832 2.42963E+01-4.03622E+00-6.68964E-03 2.13708E+00 2.43919E-13 1.02590E-13
 -1       833 1.84528E+01-3.04562E+00 3.39771E-02 4.67147E+00-5.57726E-13 9.61314E-14
 -1       834 2.00020E+01-2.42208E-03 9.21857E-07 3.57658E-03-7.63482E-14-2.41541E-13
 -1       835 2.00029E+01-2.68058E-03 8.61356E-08 2.56271E-03 1.47297E-13-2.41942E-13
 -1       836 9.51537E+00 5.77569E-01 1.08946E-01 1.68565E+00 1.89753E-13-1.05468E-12
 -1       837 2.22957E+01-1.67915E+00-1.07684E-02-1.52004E+00-4.18704E-14-9.43841E-14
 -1       838 2.37104E+01-4.26457E+00 4.39982E-03-2.50362E+00 4.87764E-13-5.81011E-13
 -1       839 2.14288E+01-6.43287E-01 9.41840E-04-1.50221E+00 6.32882E-14-1.37780E-13
 -1       840 2.00838E+01 2.04316E+00-3.20646E-04 3.22092E-01-3.10662E-13-5.00387E-13
 -1       841 2.04793E+01 2.43900E-01 4.88671E-04 1.51117E+00-8.57649E-14-2.51304E-13
 -1       842 1.38052E+01-1.17477E+00 6.99697E-02 4.33669E+00-5.09174E-13 4.56205E-13
 -1       843 2.35362E+01-4.11436E+00 1.65330E-02-2.87105E+00-3.77854E-13 4.23091E-14
 -1       844 2.63394E+01-2.79821E+00-3.15287E-02-6.40778E-01-2.00235E-14 3.09063E-13
 -1       845 2.03113E+01-3.27679E+00 2.80045E-02 4.26392E+00 4.24914E-13-2.21215E-13
 -1       846 1.42197E+01-1.35976E+00 5.83690E-02-4.40656E+00 3.05455E-13 2.06914E-13
 -1       847 1.35606E+01-1.17998E+00 8.79375E-02-4.70920E+00-3.19545E-13-9.12787E-13
 -1       848 1.41011E+01-8.09454E-01 6.79246E-02 4.28095E+00 3.86843E-13-6.62987E-13
 -1       849 2.08832E+01 7.71599E-01-2.51547E-03-8.74750E-01 2.74642E-13-2.49246E-13
 -1       850 1.88047E+01-3.17137E+00 3.33322E-02-4.59208E+00 5.77574E-13-1.61171E-13
 -1       851 1.65081E+01 3.10952E+00 5.46096E-05-1.75888E-02 6.35819E-14-6.91362E-13
 -1       852 2.62528E+01-2.35533E+00-5.76033E-02-1.21993E+00 1.51389E-14-6.10735E-13
 -1       853 2.00021E+01-2.42767E-03-7.06262E-07-3.57317E-03-4.27322E-13 3.33896E-13
 -1       854 2.15060E+01-3.32926E+00 2.78955E-02 3.20562E+00-4.41452E-13-1.66950E-13
 -1       855 1.34664E+01-1.43773E-02 2.79609E-02-2.88588E+00 1.58006E-13 2.72166E-13
 -1       856 1.87915E+01 1.94979E+00-1.16244E-03 1.02499E+00-1.06722E-13-5.63238E-13
 -1       857 2.36655E+01-2.62534E+00-9.42704E-04-1.06902E+00-1.54290E-13 4.16631E-14
 -1       858 2.00035E+01-2.82651E-03 2.97884E-07-1.32922E-03 9.99612E-14-4.58572E-13
 -1       859 1.76934E+01 2.49458E+00-3.14432E-04-9.26044E-01 1.53163E-13-5.92249E-13
 -1       860 2.00029E+01-2.68046E-03 7.14312E-07-2.56148E-03-9.14489E-14 4.24865E-13
 -1       861 1.88555E+01 1.91638E+00 6.12636E-05-1.01776E+00 2.00533E-13-4.64875E-13
 -1       862 2.00014E+01-2.13030E-03 7.05861E-07 4.06500E-03-4.77454E-13-4.78213E-13
 -1       863 1.20121E+01 1.20204E-01 8.59718E-02-3.30707E+00-1.90787E-13-9.74484E-13
 -1       864 1.30743E+01 5.58714E-01 6.48656E-02 2.90536E+00 2.75180E-13-7.89634E-13
 -1       865 1.78652E+01-1.45756E+00 2.24521E-02 3.98229E+00 3.37579E-13-4.74071E-13
 -1       866 2.10683E+01 1.16751E-01 1.14908E-03-1.25682E+00 1.67810E-13-2.04093E-13
 -1       867 1.76397E+01 2.52896E+00 1.35183E-03 9.07091E-01-3.38336E-14-6.75986E-13
 -1       868 2.05969E+01-2.81424E+00 7.17247E-03-3.72103E+00-3.13645E-13-2.19983E-13
 -1       869 1.35916E+01 2.29331E-01 3.35999E-02 2.52366E+00-3.94469E-13 5.93145E-13
 -1       870 1.70103E+01-1.32261E+00 2.28279E-02 3.79617E+00-5.47900E-13 1.24551E-13
 -1       871 2.00048E+01-1.86900E-03 5.70982E-07 7.03222E-04-8.68654E-14 3.60809E-13
 -1       872 1.94154E+01-1.15371E+00 1.17412E-03-2.71117E+00 1.44135E-13-1.36814E-13
 -1       873 1.90425E+01-2.98089E-01-1.26995E-03-2.22833E+00 2.85212E-13 5.44724E-14
 -1       874 1.89733E+01 2.20850E-01-3.92333E-05-1.82119E+00 1.97958E-13-2.43300E-15
 -1       875 1.90525E+01 5.11529E-01 9.50508E-05-1.48736E+00 1.84927E-13-8.50925E-14
 -1       876 1.91872E+01 6.47068E-01 3.47810E-05-1.21859E+00 6.27079E-14-1.22297E-14
 -1       877 1.93355E+01 6.82345E-01-4.25030E-06-9.97197E-01 2.52317E-13-6.97508E-14
 -1       878 1.94760E+01 6.56497E-01-2.47274E-05-8.11742E-01 2.27707E-13-2.07106E-13
 -1       879 1.95991E+01 5.96618E-01-3.33306E-05-6.55057E-01 7.18854E-14-1.56026E-13
 -1       880 1.97016E+01 5.20878E-01-3.51739E-05-5.22696E-01-7.51671E-14-6.16404E-14
 -1       881 1.97839E+01 4.40977E-01-3.33852E-05-4.11638E-01-1.32657E-13-1.52491E-13
 -1       882 1.98482E+01 3.64042E-01-2.98089E-05-3.19481E-01 6.65315E-15-1.60460E-13
 -1       883 1.98970E+01 2.94045E-01-2.55342E-05-2.44040E-01-2.56383E-14 5.11856E-16
 -1       884 1.99332E+01 2.32850E-01-2.11974E-05-1.83202E-01-2.10197E-13-1.72063E-14
 -1       885 1.99594E+01 1.80959E-01-1.71525E-05-1.34904E-01-2.38512E-13-2.28624E-13
 -1       886 1.99779E+01 1.38048E-01-1.35744E-05-9.71812E-02-3.53016E-13-2.73512E-13
 -1       887 1.99904E+01 1.03327E-01-1.05260E-05-6.82109E-02 4.70214E-14-1.19726E-13
 -1       888 1.99985E+01 7.57846E-02-8.00369E-06-4.63532E-02-2.05788E-13 6.34572E-14
 -1       889 2.00035E+01 5.43440E-02-5.96666E-06-3.01725E-02 1.43928E-14 2.66008E-13
 -1       890 2.00062E+01 3.79624E-02-4.35629E-06-1.84432E-02-2.24317E-13 1.85922E-13
 -1       891 2.00074E+01 2.56836E-02-3.10799E-06-1.01427E-02-1.39433E-13 2.15804E-13
 -1       892 2.00076E+01 1.66646E-02-2.15795E-06-4.43552E-03 1.75373E-13 1.72759E-13
 -1       893 2.00072E+01 1.01836E-02-1.44651E-06-6.52645E-04 2.57689E-13 2.28632E-13
 -1       894 2.00064E+01 5.63585E-03-9.09766E-07 1.73075E-03 4.22810E-14-5.47577E-15
 -1       895 2.00054E+01 2.52335E-03-4.74196E-07 3.11768E-03 7.14080E-14-3.42635E-13
 -1       896 2.00043E+01 4.40815E-04-1.91320E-07 3.81049E-03-1.13314E-13-3.12388E-13
 -1       897 2.00033E+01-9.57798E-04-3.27710E-06 4.02929E-03 8.05019E-15-2.78807E-13
 -1       898 2.46743E+01-2.80045E+00-2.19972E-02-2.24604E-01-1.42035E-13 1.17196E-13
 -1       899 1.88205E+01 1.08047E+00 3.17423E-04 1.68420E+00-9.34273E-15-5.16692E-13
 -1       900 1.97599E+01-6.25340E-01 8.68381E-06 2.18415E+00-2.61170E-13 5.00975E-14
 -1       901 1.94943E+01-2.65026E-02 6.49134E-05 1.85975E+00-2.61998E-13 2.29036E-13
 -1       902 1.94284E+01 3.32352E-01 6.81912E-05 1.56686E+00-2.01620E-13 3.33453E-13
 -1       903 1.94627E+01 5.18379E-01 9.98746E-05 1.30917E+00-1.62211E-13 2.69232E-13
 -1       904 1.95405E+01 5.89140E-01 5.97234E-05 1.08550E+00-1.18758E-13 2.83703E-13
 -1       905 1.96299E+01 5.88172E-01 3.76631E-05 8.91606E-01-1.00452E-14 3.02316E-13
 -1       906 1.97150E+01 5.45926E-01 2.46031E-05 7.24017E-01-5.20713E-14 3.08639E-13
 -1       907 1.97887E+01 4.82926E-01 1.66969E-05 5.80309E-01-5.67962E-14 3.92306E-13
 -1       908 1.98490E+01 4.12431E-01 1.16717E-05 4.58530E-01-1.32574E-13 4.51020E-13
 -1       909 1.98962E+01 3.42573E-01 8.31715E-06 3.56806E-01 8.04818E-14 3.59765E-13
 -1       910 1.99320E+01 2.77974E-01 5.98852E-06 2.73152E-01 1.59801E-13-3.96803E-14
 -1       911 1.99582E+01 2.20922E-01 4.32500E-06 2.05467E-01 7.25672E-14-5.88703E-14
 -1       912 1.99769E+01 1.72215E-01 3.11304E-06 1.51599E-01-1.34954E-13-7.66081E-14
 -1       913 1.99896E+01 1.31739E-01 2.21971E-06 1.09440E-01 1.85519E-13-2.13249E-13
 -1       914 1.99980E+01 9.88655E-02 1.55837E-06 7.70038E-02 9.65741E-14-8.88209E-14
 -1       915 2.00032E+01 7.27070E-02 1.06992E-06 5.24902E-02 1.35321E-14 7.07469E-14
 -1       916 2.00061E+01 5.22887E-02 7.12187E-07 3.43127E-02-2.48271E-14 1.75709E-13
 -1       917 2.00074E+01 3.66486E-02 4.53902E-07 2.11121E-02-1.08051E-13 2.59054E-13
 -1       918 2.00077E+01 2.48965E-02 2.71264E-07 1.17512E-02-1.88531E-13 1.07480E-13
 -1       919 2.00073E+01 1.62427E-02 1.45804E-07 5.29890E-03-1.14747E-14-8.14903E-14
 -1       920 2.00066E+01 1.00081E-02 6.15260E-08 1.00814E-03 1.70505E-13-4.71088E-14
 -1       921 2.00057E+01 5.62213E-03-6.18200E-09-1.70825E-03 1.82923E-13-5.48766E-14
 -1       922 2.00047E+01 2.61354E-03-1.22500E-07-3.30224E-03-6.92986E-14 8.42399E-14
 -1       923 2.00037E+01 5.98147E-04 1.29906E-08-4.11345E-03-2.68720E-14 2.42778E-13
 -1       924 2.00028E+01-7.34979E-04 4.23240E-07-4.39183E-03 1.11923E-14 4.51048E-13
 -1       925 2.00019E+01-1.64927E-03-2.20733E-07-4.30886E-03-2.47590E-13 4.38994E-13
 -1       926 1.13640E+01 1.36480E+00 6.77031E-02-3.74037E-01 1.94837E-14-8.99650E-13
 -1       927 2.00011E+01-2.25776E-03-1.76613E-07-4.03872E-03-6.29668E-13 1.50067E-13
 -1       928 1.72260E+01-1.51336E+00 3.81386E-02-3.88992E+00 2.89477E-13-8.76547E-14
 -1       929 2.04231E+01-1.54101E+00 4.98515E-03 2.49753E+00-2.76961E-13 8.47673E-15
 -1       930 1.68072E+01 2.95489E+00-1.92207E-04 5.36451E-01 8.31252E-15-7.10920E-13
 -1       931 2.06356E+01-9.98031E-01 1.55913E-02-2.29167E+00-6.62223E-14-1.77779E-13
 -1       932 1.98396E+01-1.04293E+00 3.21625E-03 2.76430E+00 1.41241E-13-3.30019E-13
 -1       933 1.68104E+01-1.05374E+00 3.59799E-02-3.99648E+00-2.97144E-13-6.25530E-13
 -1       934 1.91722E+01 1.16144E-01 3.50736E-03 2.24987E+00 4.74361E-14-4.32282E-13
 -1       935 1.21424E+01 8.40032E-01 3.77250E-02 1.92950E-01-1.49335E-13 5.10645E-13
 -1       936 1.96236E+01 8.45251E-01-7.24246E-04-1.49049E+00 1.11943E-13-3.58965E-13
 -1       937 1.59657E+01 2.57954E+00 8.85947E-04-4.88373E-01 6.22739E-14-6.64602E-13
 -1       938 2.01561E+01-2.49873E+00 2.59096E-02-3.36779E+00 2.98176E-13-1.76752E-13
 -1       939 2.29304E+01-2.65385E+00 7.60016E-02-1.95980E+00-2.53490E-13 2.49948E-14
 -1       940 2.00044E+01-1.85543E-03-6.93010E-08 2.06907E-03 3.83974E-14-2.28471E-13
 -1       941 2.10035E+01-2.60397E+00 2.41208E-02 3.30189E+00 2.37421E-13-2.23858E-13
 -1       942 1.36803E+01 7.12600E-01 1.11158E-02-1.44640E+00 1.01514E-13 4.05937E-13
 -1       943 2.00023E+01-1.63918E-03-4.70264E-07 4.13141E-03 4.09828E-14-4.25092E-13
 -1       944 2.00048E+01-1.87067E-03-1.16864E-07-7.01710E-04 6.38651E-14-2.59011E-13
 -1       945 1.68065E+01 2.14762E+00-1.63152E-03-1.22756E+00 7.18779E-14-6.25270E-13
 -1       946 1.53217E+01 3.18883E-02 3.47097E-02-3.37424E+00-2.30228E-13-7.26730E-13
 -1       947 1.62164E+01-1.28741E-01 2.58238E-02 3.35710E+00 2.53164E-13-5.71198E-13
 -1       948 2.01770E+01-1.89059E-02 2.02358E-03-1.85020E+00 3.91765E-14-2.60171E-13
 -1       949 2.00033E+01-1.80929E-03-1.34353E-06-3.38023E-03-5.38280E-14 4.56275E-13
 -1       950 2.00033E+01-1.81472E-03 3.48518E-06 3.37227E-03-1.96549E-13-3.70889E-13
 -1       951 1.59423E+01 2.59339E+00 9.56953E-04 4.35462E-01 6.82398E-14-6.73454E-13
 -1       952 1.93952E+01-1.25197E+00-2.18331E-02-3.14132E+00-2.10079E-13-2.41300E-13
 -1       953 1.77699E+01 4.07438E-01-1.14817E-03-1.92037E+00 1.94940E-13-1.70511E-13
 -1       954 1.81198E+01 7.01639E-01 3.16084E-04-1.47363E+00 1.40109E-13-2.33950E-13
 -1       955 1.84624E+01 8.33921E-01 2.39558E-04-1.15660E+00 2.19031E-13-2.36649E-13
 -1       956 1.87682E+01 8.63619E-01 1.35346E-04-9.21193E-01 1.75760E-13-4.69056E-14
 -1       957 1.90311E+01 8.29163E-01 7.04872E-05-7.38886E-01 1.16094E-13-1.27813E-13
 -1       958 1.92512E+01 7.57280E-01 3.78205E-05-5.92802E-01 1.78722E-13-3.69887E-13
 -1       959 1.94316E+01 6.66640E-01 2.36438E-05-4.73200E-01 8.92746E-14-3.75620E-13
 -1       960 1.95766E+01 5.69961E-01 1.84434E-05-3.74380E-01-6.59862E-14-3.09679E-13
 -1       961 1.96911E+01 4.75514E-01 1.68943E-05-2.92765E-01-5.82079E-14-3.26595E-13
 -1       962 1.97799E+01 3.88287E-01 1.63968E-05-2.25821E-01-2.71459E-14-4.09225E-13
 -1       963 1.98476E+01 3.10910E-01 1.58578E-05-1.71503E-01-1.09823E-13-4.33922E-13
 -1       964 1.98981E+01 2.44385E-01 1.49399E-05-1.28008E-01-1.35003E-13-1.82864E-13
 -1       965 1.99351E+01 1.88648E-01 1.36446E-05-9.36869E-02-3.04795E-14 1.29174E-13
 -1       966 1.99615E+01 1.42980E-01 1.20967E-05-6.70258E-02-9.42874E-14 2.40461E-13
 -1       967 1.99799E+01 1.06309E-01 1.04411E-05-4.66567E-02-5.77251E-14 1.60033E-13
 -1       968 1.99923E+01 7.74162E-02 8.80037E-06-3.13685E-02-6.21132E-14 2.52874E-13
 -1       969 2.00001E+01 5.50676E-02 7.26152E-06-2.01132E-02-2.18041E-13 1.65257E-13
 -1       970 2.00048E+01 3.80995E-02 5.87760E-06-1.20042E-02-2.12763E-13 3.80468E-14
 -1       971 2.00073E+01 2.54631E-02 4.67427E-06-6.30641E-03 1.79999E-13 4.51897E-14
 -1       972 2.00082E+01 1.62447E-02 3.65835E-06-2.42327E-03 2.36350E-13 9.59379E-14
 -1       973 2.00081E+01 9.66785E-03 2.83325E-06 1.20241E-04 1.87005E-13 1.00066E-13
 -1       974 2.00074E+01 5.08582E-03 1.99492E-06 1.69510E-03-2.65726E-13-1.01430E-14
 -1       975 2.00064E+01 1.97134E-03 2.14035E-06 2.58257E-03-1.41319E-13-3.39861E-13
 -1       976 2.00052E+01-1.32614E-04 1.54296E-06 3.00626E-03 5.17093E-14-4.49928E-13
 -1       977 1.87286E+01 6.84721E-01-9.57201E-05 1.32117E+00-1.50887E-13 3.77869E-14
 -1       978 1.67399E+01 2.18337E+00-9.71517E-04 1.20356E+00 3.40525E-14-6.59315E-13
 -1       979 1.85098E+01 4.77558E-01-1.95101E-03 1.66159E+00-1.45735E-13 1.17434E-13
 -1       980 1.83826E+01 6.36888E-02 4.06629E-03 2.10173E+00-3.28786E-13 2.34925E-13
 -1       981 1.89560E+01 7.62667E-01 1.20615E-05 1.06386E+00-6.24746E-14 9.78183E-14
 -1       982 1.91661E+01 7.60349E-01 8.52391E-06 8.60060E-01-1.76523E-13 8.49804E-15
 -1       983 1.93499E+01 7.09825E-01 5.10918E-06 6.93836E-01-8.16395E-15 2.34182E-13
 -1       984 1.95044E+01 6.33566E-01 1.91021E-06 5.56076E-01-7.62450E-14 1.28059E-13
 -1       985 1.96304E+01 5.46738E-01 1.00326E-07 4.41299E-01-1.30147E-13-2.50629E-14
 -1       986 1.97307E+01 4.59161E-01-7.20766E-07 3.45958E-01 7.83110E-14-1.15108E-13
 -1       987 1.98088E+01 3.76798E-01-9.85156E-07 2.67433E-01 1.28284E-13 6.74497E-14
 -1       988 1.98683E+01 3.02905E-01-9.69530E-07 2.03524E-01 3.41855E-14 2.22949E-13
 -1       989 1.99128E+01 2.38889E-01-8.31078E-07 1.52224E-01-4.51057E-14 1.28299E-13
 -1       990 1.99452E+01 1.84958E-01-6.54668E-07 1.11660E-01 1.79605E-13 4.21028E-14
 -1       991 1.99683E+01 1.40582E-01-4.83238E-07 8.00909E-02-4.03161E-14 8.60213E-14
 -1       992 1.99842E+01 1.04825E-01-3.35771E-07 5.59276E-02-5.10424E-14 1.89539E-13
 -1       993 1.99948E+01 7.65660E-02-2.18048E-07 3.77576E-02 5.18146E-14 2.13381E-13
 -1       994 2.00015E+01 5.46468E-02-1.29091E-07 2.43537E-02-9.98616E-14 1.03450E-13
 -1       995 2.00054E+01 3.79595E-02-6.48327E-08 1.46746E-02-1.05613E-13 1.68970E-13
 -1       996 2.00073E+01 2.54983E-02-1.98571E-08 7.85525E-03 6.40252E-15 1.05866E-13
 -1       997 2.00079E+01 1.63818E-02 1.19934E-08 3.19200E-03 8.94521E-14-2.96797E-14
 -1       998 2.00077E+01 9.85856E-03 3.42028E-08 1.23479E-04 1.92119E-13 9.29311E-14
 -1       999 2.00070E+01 5.30118E-03 1.44789E-08-1.78918E-03 9.49160E-14 3.81305E-13
 -1      1000 2.00060E+01 2.19388E-03-1.22170E-07-2.88099E-03-1.21722E-13 4.75440E-13
 -1      1001 2.00049E+01 1.10408E-04-1.31691E-06-3.40176E-03-6.75528E-14 4.25623E-13
 -1      1002 2.00041E+01-9.54471E-04-6.07714E-07-3.47271E-03-9.66134E-14 4.56863E-13
 -1      1003 1.69455E+01-2.07454E-01 1.20516E-02-2.78340E+00 2.79904E-13-7.11824E-14
 -1      1004 2.00044E+01-1.84582E-03-8.79311E-07-2.05847E-03-6.26075E-14 3.40598E-13
 -1      1005 1.34991E+01 1.65947E+00 2.52736E-02 1.03614E+00 1.34215E-13-7.61599E-13
 -1      1006 1.77830E+01-4.66555E-01 2.61553E-03 2.76780E+00-3.64914E-13 2.07304E-13
 -1      1007 1.56030E+01 5.68988E-01 1.04600E-02 1.96341E+00-3.25459E-13 2.18078E-13
 -1      1008 1.36596E+01 1.45219E+00 2.15111E-02-1.60406E+00-3.72341E-14-7.80763E-13
 -1      1009 1.81608E+01 1.49464E+00-6.80881E-04-1.56264E+00 8.03296E-14-5.07034E-13
 -1      1010 1.81116E+01-2.95832E-01 2.03468E-02-2.98724E+00-1.80006E-13-4.98919E-13
 -1      1011 1.79873E+01-5.65697E-02 1.13855E-02 2.84967E+00 1.44094E-13-5.24344E-13
 -1      1012 1.39253E+01 1.02780E+00 2.21537E-02 6.24240E-01-5.29573E-14 3.82557E-13
 -1      1013 1.54065E+01 1.26589E+00 2.42193E-03 2.07349E+00 1.59704E-13-6.31398E-13
 -1      1014 2.00058E+01-5.68803E-04-1.95484E-06 1.36785E-03-1.44939E-13 3.48908E-13
 -1      1015 2.00061E+01-5.84154E-04 8.88893E-07 1.30335E-06-2.70930E-14 8.49594E-14
 -1      1016 1.84494E+01 6.06580E-01-3.03785E-03-2.13860E+00-2.54692E-14-4.74847E-13
 -1      1017 1.47997E+01 2.21018E+00 6.33113E-03-3.56594E-02 7.11622E-14-7.05923E-13
 -1      1018 1.54889E+01 1.86151E+00 3.75214E-03-1.34017E+00 1.78940E-14-6.55434E-13
 -1      1019 1.70442E+01 1.22158E+00 4.47422E-04 2.03069E+00 9.50789E-14-6.13917E-13
 -1      1020 1.87341E+01 1.88734E-01 1.79289E-03-2.37370E+00-4.01323E-14-4.11062E-13
 -1      1021 1.83136E+01 9.46169E-01-3.16881E-04 9.15899E-01-7.75382E-14 5.32708E-14
 -1      1022 1.58174E+01 1.04373E+00 5.55948E-03-1.09128E+00 4.15674E-14 1.09473E-13
 -1      1023 1.68102E+01 1.11293E+00 4.83338E-04-7.72753E-01 1.47926E-13-2.30425E-14
 -1      1024 1.68959E+01 7.62137E-01 2.02321E-04 1.55835E+00-2.92237E-13 9.27504E-14
 -1      1025 1.75247E+01 1.13937E+00-5.07699E-04-5.73526E-01 1.04480E-13-1.81691E-14
 -1      1026 1.80757E+01 1.10684E+00-3.62104E-04-4.39802E-01-2.49361E-14-2.39257E-13
 -1      1027 1.85077E+01 1.03309E+00-2.00563E-04-3.44806E-01 1.17602E-14-5.79511E-13
 -1      1028 1.88502E+01 9.33294E-01-1.08455E-04-2.73338E-01 5.37604E-14-5.63889E-13
 -1      1029 1.91229E+01 8.19974E-01-6.14500E-05-2.17204E-01 9.52579E-14-4.76140E-13
 -1      1030 1.93394E+01 7.03010E-01-3.79113E-05-1.71930E-01-3.17784E-14-4.72245E-13
 -1      1031 1.95102E+01 5.89656E-01-2.56230E-05-1.34969E-01-6.06335E-14-5.19917E-13
 -1      1032 1.96434E+01 4.84746E-01-1.86126E-05-1.04749E-01 2.71656E-14-4.77229E-13
 -1      1033 1.97460E+01 3.91083E-01-1.41289E-05-8.01810E-02 6.15318E-14-3.35255E-13
 -1      1034 1.98239E+01 3.09895E-01-1.09370E-05-6.04072E-02 1.18399E-13-1.54877E-13
 -1      1035 1.98820E+01 2.41268E-01-8.48929E-06-4.46943E-02 1.87540E-14-6.29597E-15
 -1      1036 1.99245E+01 1.84529E-01-6.53996E-06-3.23879E-02-1.19729E-13-2.04445E-13
 -1      1037 1.99549E+01 1.38556E-01-4.97091E-06-2.29001E-02-4.94883E-14-3.24266E-13
 -1      1038 1.99761E+01 1.02005E-01-3.71484E-06-1.57078E-02 4.82099E-14-1.71690E-13
 -1      1039 1.99903E+01 7.34725E-02-2.72358E-06-1.03546E-02-2.00298E-13-1.15124E-13
 -1      1040 1.99995E+01 5.16022E-02-1.95623E-06-6.44988E-03-1.19302E-13 9.50755E-14
 -1      1041 2.00049E+01 3.51502E-02-1.37529E-06-3.66641E-03 2.44026E-14 1.79460E-13
 -1      1042 2.00078E+01 2.30164E-02-9.44200E-07-1.73551E-03-4.60868E-14 1.74908E-14
 -1      1043 2.00089E+01 1.42555E-02-6.24842E-07-4.40948E-04 6.80825E-14-3.17427E-13
 -1      1044 2.00089E+01 8.07295E-03-3.43569E-07 3.88243E-04 3.85883E-14-4.82840E-13
 -1      1045 2.00081E+01 3.81752E-03-4.11144E-07 8.77483E-04-4.66209E-14-4.36964E-14
 -1      1046 2.00071E+01 1.20557E-03-2.52059E-06 1.18935E-03-2.45900E-13 6.07712E-14
 -1      1047 1.54793E+01 1.91581E+00-9.60143E-05 1.27112E+00 9.82467E-14-6.38119E-13
 -1      1048 1.78952E+01 8.83260E-01-1.01111E-03 1.17966E+00-1.09319E-13 2.26749E-13
 -1      1049 1.89630E+01 8.69125E-01-2.61856E-05 5.76935E-01-1.85353E-13-1.14482E-13
 -1      1050 1.92031E+01 7.79719E-01-1.39119E-05 4.60269E-01-8.45694E-14 1.05098E-13
 -1      1051 1.93971E+01 6.78187E-01-9.93633E-06 3.65531E-01-3.58068E-15 1.77033E-13
 -1      1052 1.95518E+01 5.74828E-01-8.17128E-06 2.87824E-01 1.12635E-13-1.11816E-13
 -1      1053 1.96733E+01 4.76385E-01-6.99304E-06 2.24064E-01-1.08065E-14-1.04431E-13
 -1      1054 1.97672E+01 3.86874E-01-5.98538E-06 1.72068E-01 4.17981E-14-3.76904E-14
 -1      1055 1.98387E+01 3.08301E-01-5.05328E-06 1.30099E-01 8.13881E-14-1.77010E-14
 -1      1056 1.98921E+01 2.41267E-01-4.18906E-06 9.66531E-02-5.90101E-15-9.92616E-14
 -1      1057 1.99311E+01 1.85443E-01-3.40549E-06 7.03797E-02-2.77379E-14 4.02333E-14
 -1      1058 1.99591E+01 1.39937E-01-2.71477E-06 5.00583E-02-3.58455E-14 6.32283E-14
 -1      1059 1.99785E+01 1.03563E-01-2.12251E-06 3.45992E-02-5.43076E-14 8.78558E-14
 -1      1060 1.99916E+01 7.50274E-02-1.62739E-06 2.30475E-02 1.23103E-14 3.09991E-13
 -1      1061 1.99999E+01 5.30492E-02-1.22280E-06 1.45831E-02-4.44610E-14 2.05737E-13
 -1      1062 2.00049E+01 3.64351E-02-8.98467E-07 8.51677E-03-9.21089E-14 1.49170E-13
 -1      1063 2.00075E+01 2.41194E-02-6.40541E-07 4.28066E-03 4.71369E-14 1.49919E-13
 -1      1064 2.00085E+01 1.51792E-02-4.28847E-07 1.41598E-03 3.84916E-14 3.67508E-13
 -1      1065 2.00084E+01 8.83452E-03-2.46064E-07-4.40748E-04 3.55056E-16 4.68816E-13
 -1      1066 2.00077E+01 4.43836E-03-1.12424E-07-1.57194E-03-2.18866E-13 6.95568E-13
 -1      1067 2.00066E+01 1.45974E-03-1.51594E-08-2.19944E-03-1.36045E-13 6.63969E-13
 -1      1068 1.68792E+01 1.25382E+00 6.58912E-03-2.01027E+00-1.46569E-14-5.94190E-13
 -1      1069 2.00058E+01-6.03763E-04-3.77518E-07-1.37409E-03 1.58153E-14-1.12096E-13
 -1      1070 1.86692E+01 9.31594E-01-6.96649E-05 7.23877E-01-2.84734E-14-2.02591E-14
 -1      1071 2.00051E+01-7.83419E-04 4.27754E-06-2.47368E-03 4.57441E-14 4.16460E-13
 -1      1072 1.63721E+01 7.36779E-01 1.06723E-02-2.56933E+00-1.12270E-13-6.44036E-13
 -1      1073 1.57024E+01 1.09568E+00 6.17555E-03 7.37778E-01-1.83564E-13 1.34847E-13
 -1      1074 1.60619E+01 1.18753E+00-7.64006E-03 1.96175E-02-1.09848E-13 6.58659E-14
 -1      1075 1.70200E+01 1.21496E+00 4.50215E-04 1.10848E-02-1.29575E-13-2.75104E-13
 -1      1076 1.77015E+01 1.18197E+00-2.12813E-04 6.07253E-03-2.70974E-14-4.67709E-13
 -1      1077 1.82222E+01 1.11106E+00-2.46410E-04 3.47513E-03-9.04515E-14-2.88250E-13
 -1      1078 1.86283E+01 1.01333E+00-1.78273E-04 1.91478E-03-4.81250E-14-3.28776E-13
 -1      1079 1.89490E+01 8.99395E-01-1.25581E-04 9.61070E-04 3.08175E-14-4.75703E-13
 -1      1080 1.92031E+01 7.78972E-01-9.16222E-05 3.92972E-04 1.54746E-13-5.38201E-13
 -1      1081 1.94039E+01 6.59849E-01-6.87969E-05 7.41485E-05 3.18558E-14-1.93004E-13
 -1      1082 1.95613E+01 5.47641E-01-5.22997E-05-8.69935E-05-8.15735E-14-1.99373E-14
 -1      1083 1.96834E+01 4.45924E-01-3.97472E-05-1.52644E-04 8.03874E-14-7.16488E-14
 -1      1084 1.97768E+01 3.56568E-01-2.99528E-05-1.64121E-04 1.73238E-13 1.72261E-14
 -1      1085 1.98472E+01 2.80128E-01-2.22591E-05-1.47901E-04-3.74123E-14-1.74306E-13
 -1      1086 1.98994E+01 2.16240E-01-1.62425E-05-1.20160E-04-1.80982E-13-2.15058E-13
 -1      1087 1.99372E+01 1.63949E-01-1.15883E-05-9.01594E-05-1.44990E-13-1.50287E-13
 -1      1088 1.99639E+01 1.21970E-01-8.04068E-06-6.27019E-05-6.41054E-14-1.88907E-13
 -1      1089 1.99823E+01 8.88889E-02-5.38357E-06-3.98507E-05 3.59281E-14-1.56650E-13
 -1      1090 1.99945E+01 6.32892E-02-3.43276E-06-2.20858E-05 5.98709E-14 1.57391E-13
 -1      1091 2.00021E+01 4.38408E-02-2.03245E-06-9.05513E-06-9.24765E-15 1.45501E-13
 -1      1092 2.00065E+01 2.93460E-02-1.05119E-06-4.01938E-08-1.69729E-13 1.87661E-13
 -1      1093 2.00086E+01 1.87615E-02-3.72585E-07 5.76150E-06-3.03578E-13 8.46890E-14
 -1      1094 2.00091E+01 1.12008E-02 1.38710E-07 9.05910E-06-1.54703E-13-2.29514E-13
 -1      1095 2.00087E+01 5.92788E-03-5.30465E-08 1.04205E-05 1.29320E-13-2.99071E-13
 -1      1096 2.00079E+01 2.70656E-03 2.25518E-06 7.43398E-05-3.83541E-15-4.30526E-13
 -1      1097 1.93794E+01 6.79155E-01 2.25663E-05 1.78668E-01 2.21126E-13-1.99357E-13
 -1      1098 1.91741E+01 7.94557E-01 2.74760E-05 2.26486E-01 3.92238E-14-2.36355E-13
 -1      1099 1.89159E+01 9.07159E-01 2.92480E-05 2.85832E-01-1.40492E-13-1.37399E-14
 -1      1100 1.95411E+01 5.67969E-01 1.75261E-05 1.39753E-01 6.92711E-14-1.44068E-13
 -1      1101 1.96670E+01 4.65578E-01 1.31374E-05 1.08067E-01-3.03919E-14-1.01742E-13
 -1      1102 1.97639E+01 3.74561E-01 9.54404E-06 8.24214E-02 1.12156E-13-1.18635E-13
 -1      1103 1.98372E+01 2.95969E-01 6.70780E-06 6.18701E-02 2.28851E-14-1.88222E-13
 -1      1104 1.98917E+01 2.29767E-01 4.53440E-06 4.56069E-02-8.44021E-14-1.33364E-13
 -1      1105 1.99315E+01 1.75211E-01 2.91419E-06 3.29187E-02-6.84850E-14-9.47789E-14
 -1      1106 1.99598E+01 1.31143E-01 1.73939E-06 2.31721E-02-7.37012E-14 1.03170E-13
 -1      1107 1.99794E+01 9.62106E-02 9.12640E-07 1.58097E-02-1.33734E-14 1.84456E-13
 -1      1108 1.99925E+01 6.90230E-02 3.50572E-07 1.03490E-02 1.04264E-13-1.88644E-14
 -1      1109 2.00008E+01 4.82477E-02-1.50563E-08 6.38031E-03 7.36687E-16 7.21614E-15
 -1      1110 2.00056E+01 3.26699E-02-2.36319E-07 3.56243E-03-2.04703E-14-8.86037E-14
 -1      1111 2.00081E+01 2.12207E-02-3.42844E-07 1.61666E-03-1.70041E-13 2.36197E-13
 -1      1112 2.00089E+01 1.29852E-02-3.20802E-07 3.19664E-04-2.12429E-13 4.76302E-13
 -1      1113 2.00087E+01 7.19654E-03-1.73458E-08-5.03694E-04-6.22496E-14 4.03342E-13
 -1      1114 2.00079E+01 3.23663E-03 1.69823E-06-9.90933E-04-2.04465E-13 1.83319E-13
 -1      1115 1.69613E+01 1.11443E+00 1.91158E-04 7.14851E-01-2.52774E-13-1.15442E-14
 -1      1116 2.00072E+01 1.25037E-03-6.21626E-06-6.35309E-04 9.80433E-14-2.96071E-13
 -1      1117 1.85921E+01 1.00720E+00 1.79385E-05 3.61174E-01 5.95746E-15 2.06175E-14
 -1      1118 1.81856E+01 1.08205E+00-3.12199E-05 4.60504E-01 4.74805E-14 4.58128E-14
 -1      1119 1.76711E+01 1.11703E+00 1.18046E-04 5.99027E-01-1.44816E-13 8.22437E-14
 -1      1120 2.91704E+01 9.44879E+00 2.32534E+00-6.43158E+00-6.78346E-14 2.53214E-12
 -1      1121 2.19802E+01 6.68174E+00 2.92243E-01-3.22809E+00-3.97460E-14 4.20698E-13
 -1      1122 2.04772E+01 6.17951E+00 1.21164E-01-1.97150E+00-2.90601E-14-4.98809E-13
 -1      1123 1.95117E+01 5.87560E+00 7.36091E-02-1.21294E+00-2.07889E-14-9.37518E-13
 -1      1124 1.87200E+01 5.62938E+00 4.46267E-02-6.96365E-01-1.29202E-14-1.16372E-12
 -1      1125 1.80589E+01 5.42369E+00 2.00909E-02-3.57986E-01-8.39606E-15-1.26978E-12
 -1      1126 1.75469E+01 5.26429E+00 7.46132E-04-1.56384E-01-4.08007E-15-1.31590E-12
 -1      1127 1.72166E+01 5.16128E+00-1.23702E-02-5.12102E-02-1.56819E-15-1.32159E-12
 -1      1128 1.71053E+01 5.12655E+00-1.68261E-02 2.11331E-03 1.93769E-15-1.31264E-12
 -1      1129 1.72243E+01 5.16372E+00-1.18746E-02 5.68966E-02 4.90233E-15-1.29136E-12
 -1      1130 1.75608E+01 5.26873E+00 1.65460E-03 1.66345E-01 7.70217E-15-1.23104E-12
 -1      1131 1.80781E+01 5.43001E+00 2.19142E-02 3.74824E-01 1.20459E-14-1.13265E-12
 -1      1132 1.87394E+01 5.63565E+00 4.60897E-02 7.21752E-01 1.71529E-14-9.80044E-13
 -1      1133 1.95292E+01 5.88110E+00 7.44552E-02 1.24932E+00 2.35367E-14-7.01881E-13
 -1      1134 2.04824E+01 6.17966E+00 1.16396E-01 2.01815E+00 3.11418E-14-1.83221E-13
 -1      1135 2.18804E+01 6.63514E+00 2.36668E-01 3.21748E+00 3.69427E-14 8.05904E-13
 -1      1136 2.65321E+01 8.39910E+00 1.46476E+00 5.54219E+00 7.62168E-14 2.85610E-12
 -1      1137 2.99763E+01 3.52664E+00 1.10338E+00-4.05224E+00-2.98456E-13 3.88001E-12
 -1      1138 2.24310E+01-1.92128E-01-6.37259E-01-3.24344E-02-9.62078E-14 3.18928E-12
 -1      1139 2.18905E+01-9.47523E-02-2.23249E-01 8.64736E-02-3.91041E-14 2.18688E-12
 -1      1140 2.22479E+01-4.34060E-02-4.92718E-02 5.89707E-02-2.41846E-14 1.52515E-12
 -1      1141 2.28239E+01-1.33713E-02 1.30215E-03 4.48639E-02-2.58928E-14 1.05642E-12
 -1      1142 2.34270E+01 1.08441E-02 3.02062E-02 3.36185E-02-2.63991E-14 7.32005E-13
 -1      1143 2.38531E+01 3.45315E-02 6.16439E-02 1.69278E-02-5.15300E-15 5.20412E-13
 -1      1144 2.38716E+01 5.47718E-02 9.11320E-02-1.04561E-02-1.30842E-14 2.86189E-13
 -1      1145 2.32717E+01 6.19578E-02 1.01069E-01-4.86398E-02-7.36911E-15 1.07546E-13
 -1      1146 2.19793E+01 4.37732E-02 6.97641E-02-8.77941E-02 1.57426E-15-1.28439E-13
 -1      1147 2.02056E+01-5.20283E-03-1.06493E-02-1.07147E-01 3.43193E-15-2.85480E-13
 -1      1148 1.85036E+01-6.88981E-02-1.12591E-01-8.56587E-02 1.40461E-14-1.88335E-13
 -1      1149 1.75795E+01-1.10226E-01-1.77856E-01-2.25964E-02-1.66455E-14-4.52062E-13
 -1      1150 1.78871E+01-1.00046E-01-1.62106E-01 5.33729E-02 1.06850E-14-7.77912E-13
 -1      1151 1.93165E+01-4.57485E-02-7.64680E-02 1.03505E-01 9.02056E-16-7.76643E-13
 -1      1152 2.12728E+01 1.66002E-02 2.35026E-02 1.09178E-01-2.87839E-14-8.37719E-13
 -1      1153 2.30645E+01 5.56274E-02 8.74000E-02 8.07809E-02-1.89081E-14-8.38135E-13
 -1      1154 2.42533E+01 6.45533E-02 1.02140E-01 4.15343E-02 4.12517E-14-7.35551E-13
 -1      1155 2.47402E+01 5.34487E-02 8.34922E-02 8.89626E-03-2.80193E-14-8.28471E-13
 -1      1156 2.46548E+01 3.48661E-02 5.30015E-02-1.09650E-02-1.63589E-14-9.58333E-13
 -1      1157 2.42054E+01 1.74038E-02 2.51021E-02-1.95099E-02 5.23128E-15-8.53859E-13
 -1      1158 2.35822E+01 4.48251E-03 5.38161E-03-2.07455E-02 2.83414E-14-6.91062E-13
 -1      1159 2.29198E+01-3.59397E-03-6.17466E-03-1.83182E-02-1.65330E-15-6.46323E-13
 -1      1160 2.22982E+01-7.82615E-03-1.16554E-02-1.46111E-02-2.64876E-14-7.80469E-13
 -1      1161 2.17561E+01-9.44986E-03-1.33050E-02-1.08891E-02 2.30209E-15-8.53080E-13
 -1      1162 2.13059E+01-9.49791E-03-1.28387E-02-7.69240E-03-2.53215E-15-5.30567E-13
 -1      1163 2.09453E+01-8.70326E-03-1.13723E-02-5.16716E-03 4.89505E-14-4.26367E-13
 -1      1164 2.06645E+01-7.53612E-03-9.55924E-03-3.27745E-03-2.13436E-15-5.71437E-13
 -1      1165 2.04514E+01-6.27522E-03-7.74935E-03-1.92026E-03-7.84800E-16-4.39956E-13
 -1      1166 2.02935E+01-5.07256E-03-6.11003E-03-9.80885E-04-1.11963E-14-3.06040E-13
 -1      1167 2.01792E+01-4.00150E-03-4.70597E-03-3.55796E-04-5.32972E-14-4.96980E-13
 -1      1168 2.00987E+01-3.08898E-03-3.54730E-03 4.01945E-05 5.59814E-15-7.86518E-13
 -1      1169 2.00438E+01-2.33607E-03-2.61727E-03 2.73758E-04 5.14055E-15-9.83580E-13
 -1      1170 2.00080E+01-1.73043E-03-1.88759E-03 3.95422E-04 2.26459E-14-9.94713E-13
 -1      1171 1.99859E+01-1.25378E-03-1.32673E-03 4.42579E-04 9.63862E-14-6.99523E-13
 -1      1172 1.99735E+01-8.86123E-04-9.04127E-04 4.42330E-04 2.24339E-14-5.40989E-13
 -1      1173 1.99677E+01-6.08057E-04-5.92187E-04 4.13910E-04-1.27299E-14-7.12308E-13
 -1      1174 1.99665E+01-4.01986E-04-3.67074E-04 3.70647E-04-5.02934E-15-4.94477E-13
 -1      1175 1.99679E+01-2.52588E-04-2.08798E-04 3.21513E-04 3.86965E-14-4.29887E-13
 -1      1176 1.99710E+01-1.46906E-04-1.00968E-04 2.72312E-04 3.25049E-14-3.88233E-13
 -1      1177 1.99749E+01-7.42189E-05-3.03640E-05 2.26594E-04-6.31501E-14-2.97374E-13
 -1      1178 1.99791E+01-2.57742E-05 1.35699E-05 1.86321E-04-8.53826E-14-6.76810E-13
 -1      1179 1.99833E+01 5.52556E-06 3.92781E-05 1.52346E-04 2.45996E-14-8.41867E-13
 -1      1180 1.99872E+01 2.54620E-05 5.36998E-05 1.24694E-04-4.84701E-14-5.87250E-13
 -1      1181 1.99907E+01 3.88253E-05 6.29678E-05 1.02643E-04 3.13944E-14-6.65577E-13
 -1      1182 1.99939E+01 4.96457E-05 7.31205E-05 8.44754E-05 3.40675E-14-1.05031E-13
 -1      1183 1.99965E+01 6.11247E-05 8.98476E-05 6.65781E-05-2.93220E-15 4.23202E-13
 -1      1184 1.99985E+01 7.35405E-05 1.12170E-04 4.04962E-05 3.93790E-14 4.69200E-13
 -1      1185 1.99997E+01 9.04302E-05 1.06757E-04-1.08086E-05 4.51536E-14 4.14711E-13
 -1      1186 1.99999E+01-3.28073E-05-6.35323E-05-3.56362E-05-9.96970E-15 4.36463E-13
 -1      1187 2.89389E+01 5.25178E-01 2.17910E-01 1.93069E+00-5.22221E-14 4.53770E-12
 -1      1188 2.23326E+01-7.23270E-02-5.83766E-01 9.81276E-02 3.33553E-14 3.62510E-12
 -1      1189 2.19484E+01-4.22467E-02-1.85176E-01 2.34774E-03 2.71051E-14 2.72871E-12
 -1      1190 2.22531E+01-1.81433E-02-4.33756E-02-1.40974E-02 1.23955E-14 2.11199E-12
 -1      1191 2.28049E+01 2.04827E-04 1.53660E-03-2.38302E-02 8.46556E-15 1.68968E-12
 -1      1192 2.33902E+01 1.93636E-02 3.00992E-02-3.13060E-02-4.53706E-15 1.40878E-12
 -1      1193 2.37999E+01 3.86258E-02 6.15311E-02-3.45259E-02-2.47198E-15 1.25554E-12
 -1      1194 2.38047E+01 5.17435E-02 9.07637E-02-2.76969E-02-6.10102E-15 1.14321E-12
 -1      1195 2.31990E+01 4.86694E-02 1.00303E-01-4.83064E-03 1.63498E-15 8.88178E-13
 -1      1196 2.19141E+01 2.14605E-02 6.96136E-02 3.39760E-02 6.22766E-15 6.59167E-13
 -1      1197 2.01630E+01-2.45027E-02-6.74737E-03 7.56070E-02-1.75803E-16 4.53637E-13
 -1      1198 1.84906E+01-6.60618E-02-1.00786E-01 9.58072E-02-4.04017E-15 3.88689E-13
 -1      1199 1.75860E+01-7.77570E-02-1.59782E-01 7.57302E-02 1.66655E-14 1.69920E-13
 -1      1200 1.78889E+01-5.44436E-02-1.46756E-01 2.11624E-02-1.06564E-14-7.61752E-14
 -1      1201 1.92909E+01-1.52418E-02-7.39919E-02-3.89774E-02 5.09926E-14-4.39968E-13
 -1      1202 2.12134E+01 1.69199E-02 1.09259E-02-7.55598E-02 5.06865E-16-5.59885E-13
 -1      1203 2.29830E+01 3.16809E-02 6.63705E-02-7.96180E-02-2.24105E-14-4.72566E-13
 -1      1204 2.41676E+01 3.18701E-02 8.13577E-02-6.10040E-02 2.10201E-14-2.66481E-13
 -1      1205 2.46649E+01 2.45237E-02 6.83698E-02-3.52768E-02-3.48376E-14-3.33338E-13
 -1      1206 2.45967E+01 1.54408E-02 4.48112E-02-1.30076E-02-1.74366E-14-2.58251E-13
 -1      1207 2.41652E+01 7.62902E-03 2.26508E-02 1.92385E-03 1.12863E-14-4.23897E-13
 -1      1208 2.35567E+01 2.04095E-03 6.66058E-03 9.91805E-03 2.67576E-15-5.58640E-13
 -1      1209 2.29051E+01-1.44338E-03-2.94091E-03 1.29617E-02 1.54346E-14-4.81042E-13
 -1      1210 2.22906E+01-3.31587E-03-7.70552E-03 1.30595E-02 3.02397E-14-6.96887E-13
 -1      1211 2.17529E+01-4.09452E-03-9.37946E-03 1.16855E-02-5.67824E-15-3.94827E-13
 -1      1212 2.13051E+01-4.19723E-03-9.31564E-03 9.75711E-03 4.13561E-14-2.50282E-13
 -1      1213 2.09457E+01-3.92098E-03-8.40033E-03 7.77732E-03-2.46216E-14-2.74495E-13
 -1      1214 2.06655E+01-3.46083E-03-7.15678E-03 5.98664E-03-8.59827E-16-2.87138E-13
 -1      1215 2.04526E+01-2.93716E-03-5.86916E-03 4.47534E-03-3.31917E-14-3.53964E-13
 -1      1216 2.02945E+01-2.41971E-03-4.67783E-03 3.25529E-03 2.64002E-14-5.73085E-13
 -1      1217 2.01801E+01-1.94555E-03-3.64168E-03 2.30165E-03-1.19054E-14-6.51225E-13
 -1      1218 2.00994E+01-1.53141E-03-2.77574E-03 1.57556E-03 3.21106E-14-5.92626E-13
 -1      1219 2.00444E+01-1.18194E-03-2.07274E-03 1.03572E-03-1.82524E-14-3.84299E-13
 -1      1220 2.00084E+01-8.94869E-04-1.51523E-03 6.43742E-04 3.63482E-14-3.18385E-13
 -1      1221 1.99861E+01-6.64381E-04-1.08213E-03 3.66363E-04-2.28004E-14-3.55726E-13
 -1      1222 1.99737E+01-4.83088E-04-7.52236E-04 1.75907E-04 1.62787E-14-5.83702E-13
 -1      1223 1.99679E+01-3.43264E-04-5.05935E-04 5.00127E-05 3.40465E-14-9.34104E-13
 -1      1224 1.99665E+01-2.37525E-04-3.25966E-04-2.89907E-05 2.21948E-14-1.04894E-12
 -1      1225 1.99680E+01-1.59183E-04-1.97636E-04-7.48064E-05-5.88115E-15-8.11869E-13
 -1      1226 1.99710E+01-1.02388E-04-1.08731E-04-9.78874E-05-4.28927E-15-7.89338E-13
 -1      1227 1.99749E+01-6.21242E-05-4.92677E-05-1.06090E-04-6.29952E-15-9.02162E-13
 -1      1228 1.99791E+01-3.41328E-05-1.11432E-05-1.05249E-04-3.71856E-14-2.70920E-13
 -1      1229 1.99833E+01-1.47639E-05 1.22721E-05-9.96551E-05-2.19228E-16-4.61525E-13
 -1      1230 1.99872E+01-7.86932E-07 2.66424E-05-9.24492E-05 2.74982E-15-5.96011E-13
 -1      1231 1.99907E+01 1.08143E-05 3.73324E-05-8.58565E-05 1.11269E-14-4.74787E-13
 -1      1232 1.99938E+01 2.28820E-05 5.00961E-05-8.11618E-05 2.90366E-14-9.21114E-13
 -1      1233 1.99965E+01 3.81803E-05 7.08867E-05-7.81668E-05-1.51887E-14-1.45588E-12
 -1      1234 1.99985E+01 5.58518E-05 9.86225E-05-7.14399E-05 8.79155E-14-1.77804E-12
 -1      1235 1.99997E+01 5.47233E-05 9.39266E-05-4.04888E-05 1.04305E-13-2.12767E-12
 -1      1236 1.99999E+01-2.97919E-05-6.56848E-05 3.11713E-05-3.17710E-14-1.48330E-12
 -1      1237 1.99998E+01 8.81007E-05-6.17738E-05 2.81558E-05-1.48769E-12-1.29312E-13
 -1      1238 1.99999E+01-1.40385E-04 9.52579E-05 8.66878E-06-1.48912E-12 9.18436E-14
 -1      1239 1.99999E+01-1.31190E-03 8.54824E-05-4.96367E-05 9.79695E-14 6.99653E-14
 -1      1240 1.99998E+01-3.09651E-03 3.28067E-05-6.96983E-05 5.28522E-13-9.50517E-15
 -1      1241 1.99998E+01-5.08421E-03-1.70427E-05-6.99869E-05 6.75003E-13-9.08491E-14
 -1      1242 1.99998E+01-6.93294E-03-5.45472E-05-5.88557E-05 7.96256E-13-7.01041E-14
 -1      1243 1.99997E+01-8.41700E-03-7.93519E-05-4.27164E-05 9.02335E-13 1.22715E-14
 -1      1244 1.99997E+01-9.38022E-03-9.40114E-05-2.20397E-05 8.04008E-13-1.90139E-14
 -1      1245 1.99997E+01-9.70816E-03-9.87218E-05 1.93178E-07 6.01148E-13-1.18193E-14
 -1      1246 1.99997E+01-9.36893E-03-9.38258E-05 2.24225E-05 4.73671E-13-9.24697E-14
 -1      1247 1.99997E+01-8.39572E-03-7.88751E-05 4.30177E-05-4.93748E-15-2.72609E-13
 -1      1248 1.99998E+01-6.90340E-03-5.37001E-05 6.00067E-05-5.10257E-13 6.63339E-14
 -1      1249 1.99998E+01-5.05156E-03-1.65272E-05 7.01197E-05-5.40256E-14 1.54995E-13
 -1      1250 1.99998E+01-3.06268E-03 3.42049E-05 7.06113E-05 1.53517E-12 1.37817E-13
 -1      1251 1.99999E+01-1.25850E-03 9.46428E-05 5.91784E-05 1.18128E-12-7.82811E-14
 -1      1252 1.99999E+01-1.64384E-04 9.00782E-05-2.82230E-05-1.94327E-14-2.71810E-13
 -1      1253 1.99998E+01 9.70426E-05-6.44489E-05-3.06056E-05-2.99551E-13-1.84060E-15
 -1      1254-1.03860E+00-2.41690E+01-3.70458E+00-2.11226E+00 1.23279E-12 2.84772E-13
 -1      1255-1.79293E+00-1.62875E+01-3.14549E+00-4.17169E+00 3.29636E-12 1.24040E-12
 -1      1256-2.49160E-01-3.97743E+00-2.05075E+00-8.52044E-01 4.31744E-12 2.60203E-12
 -1      1257 7.44846E+00 6.59722E+00-5.30782E-01 7.00731E+00 4.59344E-12 4.15268E-12
 -1      1258 2.27050E+01 1.09628E+01 1.14719E+00 1.50402E+01 3.46345E-12 4.42268E-12
 -1      1259 4.24768E+01 9.01903E+00 2.72293E+00 1.79831E+01 1.74283E-12 3.55116E-12
 -1      1260 5.98304E+01 4.24291E+00 3.80163E+00 1.24296E+01 4.78978E-13 1.41231E-12
 -1      1261 6.75871E+01 1.55499E+00 4.27786E+00 5.37571E-01 1.42046E-13-1.12949E-12
 -1      1262 6.15573E+01 3.77190E+00 3.94002E+00-1.16450E+01 8.26686E-13-3.32667E-12
 -1      1263 4.41177E+01 8.84110E+00 2.86670E+00-1.77496E+01 2.20302E-12-4.71023E-12
 -1      1264 2.28968E+01 1.10096E+01 1.23312E+00-1.49791E+01 3.84182E-12-5.10259E-12
 -1      1265 6.75020E+00 6.17025E+00-6.01847E-01-6.41419E+00 4.76286E-12-4.15334E-12
 -1      1266-5.50958E-01-4.72499E+00-2.17187E+00 1.29380E+00 4.39249E-12-2.54130E-12
 -1      1267-1.80324E+00-1.66302E+01-3.19231E+00 4.05746E+00 2.79365E-12-1.03598E-12
 -1      1268-1.07810E+00-2.45983E+01-3.83823E+00 1.85208E+00 5.80869E-13-2.54307E-13
 -1      1269-1.31179E+00-2.33122E+01-3.67537E+00-2.38854E+00-1.95310E-12-5.07032E-13
 -1      1270-1.83199E+00-1.43242E+01-3.07469E+00-3.89407E+00-4.12070E-12-1.60155E-12
 -1      1271 5.22991E-01-1.81589E+00-1.81676E+00 1.64888E-01-4.84146E-12-3.04701E-12
 -1      1272 9.97471E+00 8.04632E+00-2.07045E-01 8.81488E+00-4.58966E-12-4.45755E-12
 -1      1273 2.69939E+01 1.11324E+01 1.49332E+00 1.66104E+01-3.52551E-12-5.11324E-12
 -1      1274 4.68971E+01 8.05338E+00 3.00731E+00 1.77379E+01-1.89510E-12-4.31633E-12
 -1      1275 6.29225E+01 3.47342E+00 4.10275E+00 1.02299E+01-5.71071E-13-2.26730E-12
 -1      1276 6.68827E+01 2.17734E+00 4.31764E+00-2.52441E+00-2.27769E-13 3.44391E-13
 -1      1277 5.76016E+01 4.89599E+00 3.70984E+00-1.41446E+01-8.80684E-13 2.70228E-12
 -1      1278 3.83748E+01 9.75448E+00 2.37500E+00-1.79400E+01-2.29039E-12 4.28724E-12
 -1      1279 1.96350E+01 1.07662E+01 8.55824E-01-1.40359E+01-3.58580E-12 4.55791E-12
 -1      1280 6.01275E+00 5.49904E+00-7.40784E-01-5.83786E+00-4.12759E-12 3.55893E-12
 -1      1281-6.30458E-01-4.97988E+00-2.14940E+00 1.48976E+00-3.96327E-12 2.27163E-12
 -1      1282-1.78329E+00-1.65527E+01-3.15824E+00 4.15190E+00-3.07343E-12 1.08313E-12
 -1      1283-1.04698E+00-2.42475E+01-3.71655E+00 2.06684E+00-1.19604E-12 3.23182E-13
 -1      1284 2.39268E+01 1.93527E+00-7.17641E-01-2.46966E+00-1.06581E-13 2.08644E-12
 -1      1285 2.18168E+01 4.84122E+00-3.55434E-02-2.54696E+00-3.08836E-13-8.06993E-15
 -1      1286 2.25101E+01 4.97845E+00-7.27327E-02-3.51324E+00-3.97488E-13 4.75869E-13
 -1      1287 2.04944E+01 5.12248E+00-1.68955E-02-1.71786E+00-3.12181E-13-6.91260E-13
 -1      1288 2.10706E+01 5.29401E+00 2.69463E-02-2.18218E+00-3.55133E-13-3.99417E-13
 -1      1289 2.19656E+01 4.00588E+00-1.43106E-02-2.26131E+00-5.42861E-13-4.66294E-15
 -1      1290 1.95210E+01 5.14763E+00-9.96917E-03-1.07221E+00-2.49349E-13-1.03338E-12
 -1      1291 1.99951E+01 5.29693E+00 2.57283E-02-1.38333E+00-2.88436E-13-8.79012E-13
 -1      1292 2.06062E+01 4.45297E+00-1.87717E-02-1.55797E+00-4.83759E-13-5.72799E-13
 -1      1293 1.86935E+01 5.11882E+00-9.98718E-03-6.12826E-01-1.80793E-13-1.21209E-12
 -1      1294 1.90990E+01 5.24494E+00 1.96228E-02-8.26698E-01-2.06106E-13-1.12824E-12
 -1      1295 1.95569E+01 4.65176E+00-1.83482E-02-9.73871E-01-3.75307E-13-8.62598E-13
 -1      1296 1.80130E+01 5.08348E+00-1.20164E-02-3.12966E-01-1.18544E-13-1.29577E-12
 -1      1297 1.83414E+01 5.18516E+00 1.24439E-02-4.50155E-01-1.43524E-13-1.25733E-12
 -1      1298 1.86861E+01 4.76615E+00-1.63336E-02-5.58111E-01-2.66308E-13-1.01540E-12
 -1      1299 1.74911E+01 5.05789E+00-1.35207E-02-1.31607E-01-6.42611E-14-1.32825E-12
 -1      1300 1.77321E+01 5.13187E+00 4.61639E-03-2.13521E-01-8.05397E-14-1.31700E-12
 -1      1301 1.79784E+01 4.84435E+00-1.42909E-02-2.83818E-01-1.66140E-13-1.09966E-12
 -1      1302 1.71853E+01 5.05040E+00-1.25559E-02-3.71956E-02-7.76289E-15-1.33748E-12
 -1      1303 1.73113E+01 5.08892E+00-2.95483E-03-8.20501E-02-2.57433E-14-1.33606E-12
 -1      1304 1.74646E+01 4.89835E+00-1.29642E-02-1.19815E-01-7.24247E-14-1.12161E-12
 -1      1305 1.71269E+01 5.06144E+00-8.74013E-03 1.82890E-02 4.55165E-14-1.32197E-12
 -1      1306 1.71245E+01 5.06056E+00-9.07020E-03-1.41575E-02 2.64068E-14-1.33212E-12
 -1      1307 1.71963E+01 4.92632E+00-1.22812E-02-3.01482E-02 1.42542E-14-1.13029E-12
 -1      1308 1.73225E+01 5.08926E+00-2.50175E-03 8.83550E-02 9.27106E-14-1.28887E-12
 -1      1309 1.71920E+01 5.04914E+00-1.27124E-02 4.20206E-02 7.71379E-14-1.31053E-12
 -1      1310 1.72014E+01 4.92481E+00-1.23397E-02 3.43409E-02 9.66393E-14-1.11033E-12
 -1      1311 1.77501E+01 5.13102E+00 4.94966E-03 2.24635E-01 1.43538E-13-1.22575E-12
 -1      1312 1.75059E+01 5.05626E+00-1.34725E-02 1.39863E-01 1.24387E-13-1.26532E-12
 -1      1313 1.74789E+01 4.89394E+00-1.31363E-02 1.26771E-01 1.79558E-13-1.06701E-12
 -1      1314 1.83573E+01 5.18321E+00 1.26923E-02 4.65324E-01 2.04947E-13-1.11051E-12
 -1      1315 1.80279E+01 5.08101E+00-1.19897E-02 3.24969E-01 1.77025E-13-1.17613E-12
 -1      1316 1.79948E+01 4.83782E+00-1.43572E-02 2.93932E-01 2.61515E-13-9.99145E-13
 -1      1317 1.91226E+01 5.24131E+00 1.99154E-02 8.53477E-01 2.79561E-13-9.37188E-13
 -1      1318 1.87164E+01 5.11451E+00-1.00939E-02 6.34614E-01 2.47656E-13-1.04168E-12
 -1      1319 1.87063E+01 4.75661E+00-1.64003E-02 5.74704E-01 3.72835E-13-8.70443E-13
 -1      1320 2.00178E+01 5.29117E+00 2.56198E-02 1.42105E+00 3.46168E-13-6.31120E-13
 -1      1321 1.95440E+01 5.14072E+00-1.05048E-02 1.10439E+00 3.09461E-13-8.19376E-13
 -1      1322 1.95857E+01 4.63652E+00-1.88276E-02 1.00219E+00 4.76941E-13-6.69884E-13
 -1      1323 2.11020E+01 5.30095E+00 3.24749E-02 2.22779E+00 3.97349E-13-7.15955E-14
 -1      1324 2.05161E+01 5.11376E+00-1.72732E-02 1.76520E+00 3.53495E-13-4.09051E-13
 -1      1325 2.06370E+01 4.43016E+00-1.95821E-02 1.60021E+00 5.62751E-13-3.21347E-13
 -1      1326 2.27043E+01 5.06737E+00 3.69726E-02 3.43974E+00 3.43447E-13 9.96800E-13
 -1      1327 2.18019E+01 4.88292E+00-3.29521E-02 2.66061E+00 3.33428E-13 3.49720E-13
 -1      1328 2.20081E+01 3.97135E+00-9.78884E-03 2.36966E+00 5.90250E-13 3.07823E-13
 -1      1329 2.86418E+01 3.23918E+00 8.76984E-01 4.28801E+00 1.72279E-13 3.00182E-12
 -1      1330 2.36746E+01 3.61835E+00-1.70350E-01 3.40319E+00 1.72279E-13 1.60638E-12
 -1      1331 2.39033E+01 2.56404E+00-1.31149E-02 2.81587E+00 5.64375E-13 1.27318E-12
 -1      1332 2.32884E+01 3.24815E-01-7.67352E-01 8.55345E-01 3.07025E-13 2.87970E-12
 -1      1333 2.39953E+01 1.01321E-01-4.01039E-01-9.38903E-01-3.31540E-13 2.20701E-12
 -1      1334 2.30530E+01 2.80758E-01-1.51766E-01-5.06119E-01-3.04777E-13 1.81732E-12
 -1      1335 2.26681E+01 1.45607E-01-6.88827E-02-1.15908E-01-2.38937E-13 1.65002E-12
 -1      1336 2.25501E+01 8.23131E-02-1.01148E-02-5.26186E-02-2.32751E-13 1.29482E-12
 -1      1337 2.32371E+01 3.32754E-01-1.03011E-01-7.13542E-01-5.34121E-13 9.62407E-13
 -1      1338 2.24371E+01 5.92149E-02 4.17252E-03 1.26555E-01-1.88844E-13 1.16386E-12
 -1      1339 2.26014E+01 3.20666E-02 1.36921E-02 1.41640E-01-1.77291E-13 8.99461E-13
 -1      1340 2.26492E+01 1.15648E-01-3.49363E-02 2.02181E-02-4.17950E-13 7.16156E-13
 -1      1341 2.26739E+01 2.04070E-02 1.23341E-02 2.07027E-01-1.33270E-13 7.83699E-13
 -1      1342 2.29303E+01-1.61030E-04 1.01047E-02 2.09787E-01-1.24066E-13 6.06008E-13
 -1      1343 2.26426E+01 3.48027E-02-7.14265E-03 3.09859E-01-3.07462E-13 4.83148E-13
 -1      1344 2.30708E+01-1.11056E-02 8.81525E-03 2.00216E-01-8.70682E-14 5.53141E-13
 -1      1345 2.33009E+01-3.01592E-02 6.55577E-03 1.88227E-01-9.53122E-14 4.25500E-13
 -1      1346 2.28626E+01-1.87922E-02 9.62042E-04 3.80640E-01-2.01737E-13 3.18513E-13
 -1      1347 2.34217E+01-4.43940E-02 8.36178E-03 1.07648E-01-7.01453E-14 3.90316E-13
 -1      1348 2.35165E+01-6.11835E-02 6.94169E-03 7.78532E-02-5.63195E-14 2.97734E-13
 -1      1349 2.31326E+01-7.23130E-02 8.26910E-03 2.78294E-01-1.62826E-13 2.54678E-13
 -1      1350 2.35393E+01-7.71375E-02 1.17325E-02-7.19137E-02-4.20757E-14 2.42394E-13
 -1      1351 2.33946E+01-8.55946E-02 9.71278E-03-1.19353E-01-6.00266E-14 1.65021E-13
 -1      1352 2.32941E+01-1.25931E-01 1.71338E-02 6.52972E-03-1.23540E-13 1.80676E-13
 -1      1353 2.32554E+01-9.64998E-02 1.55764E-02-3.14770E-01-4.43829E-14 1.56382E-13
 -1      1354 2.28073E+01-8.68719E-02 1.15122E-02-3.70723E-01-5.03191E-14 5.55458E-14
 -1      1355 2.32052E+01-1.60246E-01 2.47825E-02-4.07715E-01-1.00149E-13 1.40759E-13
 -1      1356 2.24815E+01-8.18503E-02 1.50911E-02-5.49529E-01-3.60770E-14 3.86219E-14
 -1      1357 2.17648E+01-4.67609E-02 7.93438E-03-5.91612E-01-8.99888E-14-3.88856E-14
 -1      1358 2.27713E+01-1.43137E-01 2.52829E-02-8.65110E-01-1.04148E-13 9.77846E-14
 -1      1359 2.13040E+01-1.88231E-02 5.85582E-03-6.58633E-01-6.38537E-14-7.86385E-14
 -1      1360 2.04970E+01 3.59682E-02-3.38199E-03-6.57102E-01 3.71968E-15-1.09905E-13
 -1      1361 2.20082E+01-4.86760E-02 1.26660E-02-1.17561E+00-1.03723E-13 7.62758E-14
 -1      1362 2.00471E+01 7.77858E-02-1.03556E-02-5.33316E-01-6.60756E-15-1.82826E-13
 -1      1363 1.94399E+01 1.27572E-01-1.81650E-02-4.72061E-01-7.38246E-14-2.41827E-13
 -1      1364 2.11048E+01 1.05493E-01-1.37663E-02-1.11959E+00-5.56473E-14-6.73159E-14
 -1      1365 1.91956E+01 1.56308E-01-2.38771E-02-1.68812E-01-1.09994E-13-3.05519E-13
 -1      1366 1.90546E+01 1.70820E-01-2.59863E-02-6.78540E-02-1.34059E-13-4.88955E-13
 -1      1367 2.04056E+01 2.46598E-01-4.09553E-02-6.02230E-01-1.70790E-13-2.43215E-13
 -1      1368 1.91443E+01 1.64090E-01-2.48267E-02 2.89009E-01-8.91526E-14-5.37818E-13
 -1      1369 1.95482E+01 1.33383E-01-1.99642E-02 3.80268E-01-4.59650E-14-5.88155E-13
 -1      1370 2.02471E+01 2.88195E-01-4.93960E-02 2.09917E-01-1.83700E-13-3.60953E-13
 -1      1371 1.99398E+01 9.69419E-02-1.34240E-02 6.27018E-01-6.01585E-14-6.90059E-13
 -1      1372 2.07269E+01 4.08818E-02-4.24535E-03 6.66685E-01-5.82902E-14-7.27272E-13
 -1      1373 2.07309E+01 2.02965E-01-3.20621E-02 9.50260E-01-1.34396E-13-5.45303E-13
 -1      1374 2.12520E+01 2.17853E-03 9.22534E-04 7.15286E-01-3.81065E-14-7.54306E-13
 -1      1375 2.21264E+01-4.83028E-02 9.95227E-03 6.97644E-01-7.81775E-15-7.63827E-13
 -1      1376 2.16462E+01 4.61229E-02-2.75184E-03 1.30236E+00-6.61680E-14-6.79462E-13
 -1      1377 2.25952E+01-6.74233E-02 9.16971E-03 5.76272E-01-1.01742E-15-7.57831E-13
 -1      1378 2.32955E+01-9.42446E-02 1.53675E-02 5.25415E-01 1.20997E-14-7.37313E-13
 -1      1379 2.26232E+01-9.24328E-02 1.97085E-02 1.19964E+00-5.13218E-15-6.28008E-13
 -1      1380 2.35923E+01-9.19016E-02 9.78246E-03 3.26398E-01 4.90415E-14-7.01297E-13
 -1      1381 2.39911E+01-9.55913E-02 1.28916E-02 2.70803E-01 5.43844E-14-6.78227E-13
 -1      1382 2.33578E+01-1.58959E-01 2.72341E-02 8.01185E-01 4.95541E-14-6.04666E-13
 -1      1383 2.40905E+01-8.16551E-02 6.25091E-03 7.87731E-02-2.71328E-14-6.69458E-13
 -1      1384 2.41911E+01-7.18257E-02 7.37293E-03 3.55370E-02-4.31643E-14-7.26300E-13
 -1      1385 2.37196E+01-1.55244E-01 2.38988E-02 3.26324E-01 2.12851E-15-5.91434E-13
 -1      1386 2.41265E+01-5.62787E-02 2.29803E-03-1.05194E-01-2.52732E-14-6.96264E-13
 -1      1387 2.40043E+01-4.22597E-02 2.34467E-03-1.31426E-01-1.99216E-14-7.57859E-13
 -1      1388 2.37267E+01-1.14237E-01 1.59117E-02-7.17223E-02-3.42495E-14-5.62505E-13
 -1      1389 2.38313E+01-3.03282E-02-2.73645E-04-2.12552E-01 3.47535E-14-7.85405E-13
 -1      1390 2.35781E+01-1.75879E-02-6.71890E-04-2.24236E-01 8.41601E-15-7.40564E-13
 -1      1391 2.34725E+01-6.57776E-02 8.05847E-03-3.33775E-01 6.00561E-15-4.99161E-13
 -1      1392 2.33495E+01-1.04566E-02-1.25926E-03-2.56675E-01 2.05632E-14-6.45374E-13
 -1      1393 2.30421E+01-9.77363E-04-1.87019E-03-2.58484E-01 7.62363E-14-6.10541E-13
 -1      1394 2.30648E+01-2.63329E-02 2.27550E-03-4.65857E-01 6.05870E-14-5.64852E-13
 -1      1395 2.27981E+01 2.22573E-03-1.22839E-03-2.58369E-01 4.13590E-14-5.98483E-13
 -1      1396 2.24882E+01 8.41534E-03-1.95732E-03-2.54549E-01-1.59463E-14-5.98807E-13
 -1      1397 2.25935E+01-2.94680E-04-1.28079E-03-5.01570E-01 6.17926E-14-5.05389E-13
 -1      1398 2.22547E+01 9.04780E-03-7.69215E-04-2.36078E-01-2.69941E-14-5.60756E-13
 -1      1399 2.19717E+01 1.26492E-02-1.55204E-03-2.29657E-01-3.88773E-15-6.22543E-13
 -1      1400 2.21216E+01 1.40825E-02-3.11353E-03-4.77360E-01-7.20702E-15-4.27878E-13
 -1      1401 2.17631E+01 1.18659E-02-2.54500E-04-2.02964E-01 1.49880E-14-5.64681E-13
 -1      1402 2.15202E+01 1.36758E-02-1.03344E-03-1.95816E-01 2.53907E-14-5.08572E-13
 -1      1403 2.16869E+01 2.02924E-02-3.81377E-03-4.22100E-01 3.02783E-14-2.84392E-13
 -1      1404 2.13424E+01 1.22655E-02 1.48809E-04-1.67224E-01 1.79850E-14-4.51154E-13
 -1      1405 2.11429E+01 1.29385E-02-5.77127E-04-1.60379E-01 4.51069E-14-3.52233E-13
 -1      1406 2.13079E+01 2.15305E-02-3.85114E-03-3.55203E-01 8.48501E-14-2.02713E-13
 -1      1407 2.09966E+01 1.13696E-02 4.02496E-04-1.33385E-01 9.33368E-15-3.65204E-13
 -1      1408 2.08379E+01 1.13741E-02-2.37515E-04-1.27329E-01-2.00944E-14-3.66675E-13
 -1      1409 2.09905E+01 2.01062E-02-3.54248E-03-2.88214E-01 4.05195E-14-1.05585E-13
 -1      1410 2.07209E+01 9.89194E-03 5.26943E-04-1.03587E-01-7.63767E-14-3.98147E-13
 -1      1411 2.05982E+01 9.53778E-03-1.16524E-05-9.84882E-02-6.92684E-14-4.63499E-13
 -1      1412 2.07328E+01 1.74882E-02-3.08241E-03-2.27172E-01-8.55084E-14-2.59287E-13
 -1      1413 2.05069E+01 8.25023E-03 5.59390E-04-7.85467E-02 7.72753E-14-5.15272E-13
 -1      1414 2.04143E+01 7.73138E-03 1.23555E-04-7.44001E-02 2.76852E-14-4.30383E-13
 -1      1415 2.05289E+01 1.45271E-02-2.58266E-03-1.74646E-01-2.14017E-14-4.39211E-13
 -1      1416 2.03446E+01 6.66955E-03 5.34744E-04-5.81998E-02-2.16533E-14-3.39617E-13
 -1      1417 2.02763E+01 6.10187E-03 1.93788E-04-5.49180E-02-2.01356E-14-3.41595E-13
 -1      1418 2.03713E+01 1.16729E-02-2.10322E-03-1.31188E-01 5.79366E-14-4.57962E-13
 -1      1419 2.02243E+01 5.25756E-03 4.79478E-04-4.21003E-02-1.50067E-13-2.95812E-13
 -1      1420 2.01752E+01 4.70650E-03 2.20759E-04-3.95619E-02-1.36661E-13-4.50436E-13
 -1      1421 2.02521E+01 9.13487E-03-1.67318E-03-9.62867E-02-6.11139E-14-2.96126E-13
 -1      1422 2.01372E+01 4.05409E-03 4.11449E-04-2.96486E-02-9.84282E-14-4.69815E-13
 -1      1423 2.01029E+01 3.55358E-03 2.20784E-04-2.77264E-02-8.19752E-14-5.99354E-13
 -1      1424 2.01639E+01 6.98630E-03-1.30377E-03-6.89341E-02-2.04815E-13-2.54909E-13
 -1      1425 2.00759E+01 3.06181E-03 3.41672E-04-2.02197E-02-3.08036E-14-6.68495E-13
 -1      1426 2.00527E+01 2.62654E-03 2.05332E-04-1.87943E-02-4.72285E-14-7.28562E-13
 -1      1427 2.01001E+01 5.22854E-03-9.96222E-04-4.79601E-02-1.42758E-13-4.55240E-13
 -1      1428 2.00340E+01 2.26458E-03 2.76344E-04-1.32283E-02-1.37680E-14-6.51212E-13
 -1      1429 2.00190E+01 1.89788E-03 1.82086E-04-1.21944E-02 6.52255E-14-6.03116E-13
 -1      1430 2.00552E+01 3.82789E-03-7.46469E-04-3.22094E-02 1.08191E-14-3.98454E-13
 -1      1431 2.00066E+01 1.63800E-03 2.18502E-04-8.15792E-03 1.43761E-13-5.94601E-13
 -1      1432 1.99975E+01 1.33679E-03 1.55981E-04-7.42642E-03 1.46681E-13-4.40974E-13
 -1      1433 2.00246E+01 2.73640E-03-5.47942E-04-2.06305E-02 1.10123E-13-3.24016E-13
 -1      1434 1.99897E+01 1.15540E-03 1.69225E-04-4.57107E-03-4.89233E-14-5.44307E-13
 -1      1435 1.99848E+01 9.13252E-04 1.30031E-04-4.06847E-03-4.16361E-14-6.22856E-13
 -1      1436 2.00046E+01 1.90310E-03-3.93200E-04-1.23126E-02 1.02284E-13-5.73292E-13
 -1      1437 1.99802E+01 7.90964E-04 1.28450E-04-2.10722E-03 2.66414E-14-5.46998E-13
 -1      1438 1.99781E+01 6.00059E-04 1.05948E-04-1.77445E-03 1.07596E-15-5.03112E-13
 -1      1439 1.99922E+01 1.27970E-03-2.74860E-04-6.49277E-03 1.28223E-14-7.01716E-13
 -1      1440 1.99758E+01 5.21356E-04 9.54910E-05-4.76352E-04 5.87086E-14-5.43074E-13
 -1      1441 1.99756E+01 3.73581E-04 8.45842E-05-2.66848E-04 7.56460E-14-4.08899E-13
 -1      1442 1.99853E+01 8.23170E-04-1.86097E-04-2.54900E-03 6.60877E-14-4.37585E-13
 -1      1443 1.99748E+01 3.26313E-04 6.93755E-05 5.50119E-04-2.52807E-14-2.57518E-13
 -1      1444 1.99757E+01 2.13933E-04 6.62357E-05 6.72375E-04 5.53068E-14-3.40195E-13
 -1      1445 1.99822E+01 4.96700E-04-1.20878E-04 1.50953E-05 7.62882E-14-3.48242E-13
 -1      1446 1.99759E+01 1.88758E-04 4.90374E-05 1.14885E-03 9.00700E-14-3.72453E-13
 -1      1447 1.99775E+01 1.04750E-04 5.08557E-05 1.21117E-03 1.58816E-14-3.58725E-13
 -1      1448 1.99816E+01 2.69634E-04-7.40376E-05 1.58761E-03 5.70884E-14-3.40397E-13
 -1      1449 1.99783E+01 9.46006E-05 3.34337E-05 1.45359E-03-1.21864E-13-3.06084E-13
 -1      1450 1.99802E+01 3.27833E-05 3.81947E-05 1.47622E-03-1.96775E-13-5.43460E-13
 -1      1451 1.99825E+01 1.16963E-04-4.12589E-05 2.46595E-03-6.97119E-15-3.12143E-13
 -1      1452 1.99813E+01 3.23785E-05 2.16092E-05 1.56321E-03-1.21716E-13-4.03316E-13
 -1      1453 1.99833E+01-1.25805E-05 2.79010E-05 1.56075E-03-3.14759E-14-4.98902E-13
 -1      1454 1.99843E+01 1.85716E-05-1.89967E-05 2.87304E-03-1.57004E-13-3.83643E-13
 -1      1455 1.99846E+01-7.18106E-06 1.27370E-05 1.54847E-03 5.42409E-14-4.97945E-13
 -1      1456 1.99865E+01-3.98470E-05 1.96029E-05 1.53099E-03 4.53084E-14-4.29301E-13
 -1      1457 1.99866E+01-4.16236E-05-4.37293E-06 2.97141E-03 2.38303E-14-1.45046E-13
 -1      1458 1.99878E+01-3.16468E-05 6.16863E-06 1.45744E-03-7.56129E-14-2.15132E-13
 -1      1459 1.99896E+01-5.59394E-05 1.30208E-05 1.43134E-03 6.46147E-14-2.62868E-13
 -1      1460 1.99891E+01-7.65914E-05 4.95072E-06 2.87479E-03 1.48833E-13-4.09942E-14
 -1      1461 1.99908E+01-4.73882E-05 1.55134E-06 1.31949E-03 8.49405E-14-2.68648E-13
 -1      1462 1.99924E+01-6.67101E-05 8.16527E-06 1.28805E-03 9.38616E-14-2.10092E-13
 -1      1463 1.99915E+01-9.71368E-05 1.09257E-05 2.65707E-03 9.54072E-14 6.67685E-14
 -1      1464 1.99935E+01-6.00915E-05-9.33554E-07 1.14797E-03 2.51946E-13-2.55115E-13
 -1      1465 1.99949E+01-7.74302E-05 5.58856E-06 1.11157E-03 2.15824E-13 4.68513E-14
 -1      1466 1.99937E+01-1.12875E-04 1.53003E-05 2.35874E-03 2.53165E-13-1.51441E-14
 -1      1467 1.99959E+01-7.51888E-05-2.67259E-07 9.41623E-04-5.72970E-15 1.67333E-14
 -1      1468 1.99970E+01-9.27622E-05 6.31701E-06 8.97486E-04 1.66106E-15 1.11991E-13
 -1      1469 1.99957E+01-1.33344E-04 1.96816E-05 1.99113E-03 2.14107E-13-2.50811E-13
 -1      1470 1.99977E+01-9.72075E-05 4.71855E-06 6.87264E-04 4.01255E-14 1.28343E-13
 -1      1471 1.99985E+01-1.14739E-04 8.30995E-06 6.28993E-04 3.90311E-14 1.52010E-13
 -1      1472 1.99974E+01-1.67941E-04 2.44874E-05 1.53976E-03-4.12591E-14-2.28230E-13
 -1      1473 1.99991E+01-1.35186E-04 8.09798E-06 3.65469E-04 1.03060E-13 9.61105E-14
 -1      1474 1.99994E+01-1.26721E-04-6.16418E-07 2.92481E-04-1.51860E-14 1.64741E-13
 -1      1475 1.99987E+01-2.23384E-04 2.73230E-05 9.84176E-04 1.22911E-13-2.19696E-13
 -1      1476 1.99998E+01-4.19436E-05-7.76801E-06-1.33517E-05-2.46457E-13 2.96933E-13
 -1      1477 1.99996E+01-2.08875E-04 1.17654E-05 2.80545E-04-9.26714E-14-3.53223E-13
 -1      1478 2.27537E+01 6.67579E-02-1.39343E-01 2.24979E-01 2.75325E-13 2.28060E-12
 -1      1479 2.36259E+01 2.18536E-01-2.27699E-01 4.45600E-01 2.38573E-13 2.70368E-12
 -1      1480 2.37499E+01 8.24227E-01-9.94980E-02 1.56175E+00 4.71324E-13 1.77108E-12
 -1      1481 2.24244E+01 2.85344E-02-1.46916E-02-4.76271E-02 2.02364E-13 1.73017E-12
 -1      1482 2.25007E+01 1.11888E-01-5.52601E-02 1.88511E-03 1.97765E-13 2.05951E-12
 -1      1483 2.28211E+01 1.63623E-01-5.79225E-02 3.21833E-01 4.14273E-13 1.37092E-12
 -1      1484 2.26087E+01 9.49785E-03 8.92396E-03-1.62023E-01 1.19277E-13 1.35353E-12
 -1      1485 2.24337E+01 4.82484E-02 4.55007E-03-1.36346E-01 1.36270E-13 1.57547E-12
 -1      1486 2.25789E+01 5.87907E-02-1.35561E-02-1.31748E-01 3.07346E-13 1.05563E-12
 -1      1487 2.29982E+01-5.97231E-03 1.15362E-02-1.89033E-01 9.71658E-14 1.10892E-12
 -1      1488 2.27406E+01 1.35661E-02 1.22705E-02-1.80891E-01 9.10585E-14 1.26664E-12
 -1      1489 2.27187E+01 1.25869E-02-1.75086E-03-3.01197E-01 2.01670E-13 8.21492E-13
 -1      1490 2.33773E+01-2.25016E-02 1.44681E-02-1.42200E-01 4.69197E-14 9.49529E-13
 -1      1491 2.31487E+01-1.64405E-02 9.97767E-03-1.53285E-01 4.05041E-14 1.03214E-12
 -1      1492 2.30022E+01-2.44642E-02 4.33803E-03-3.07055E-01 1.29525E-13 6.87186E-13
 -1      1493 2.35493E+01-3.95005E-02 2.02644E-02-1.79035E-02 4.03037E-14 8.26353E-13
 -1      1494 2.34577E+01-4.81877E-02 9.12733E-03-5.20193E-02 3.45696E-14 8.99867E-13
 -1      1495 2.32483E+01-6.35936E-02 1.24761E-02-1.66849E-01 8.14262E-14 5.73029E-13
 -1      1496 2.33300E+01-5.08048E-02 2.53477E-02 1.76816E-01 5.74159E-14 7.56843E-13
 -1      1497 2.34798E+01-7.68139E-02 1.03846E-02 1.19677E-01 3.49269E-14 8.11689E-13
 -1      1498 2.32945E+01-1.00655E-01 2.18207E-02 1.14744E-01 7.27821E-14 5.21557E-13
 -1      1499 2.26031E+01-4.58824E-02 2.31757E-02 4.00724E-01 5.96866E-14 6.11393E-13
 -1      1500 2.30590E+01-8.83230E-02 1.11035E-02 3.31245E-01 6.74859E-14 7.15577E-13
 -1      1501 2.30087E+01-1.18641E-01 2.77457E-02 4.96243E-01 1.09688E-13 5.35121E-13
 -1      1502 2.14163E+01-1.56495E-02 7.29326E-03 5.65976E-01 7.94551E-14 4.44034E-13
 -1      1503 2.21432E+01-6.49885E-02 7.24230E-03 5.09818E-01 3.98067E-14 5.21187E-13
 -1      1504 2.23405E+01-9.17987E-02 2.43811E-02 8.64106E-01 1.19309E-13 4.20317E-13
 -1      1505 2.00615E+01 3.51366E-02-2.16999E-02 5.61554E-01 2.20865E-14 3.84387E-13
 -1      1506 2.08778E+01-4.44501E-04-4.07587E-03 5.52147E-01 4.95550E-14 4.00513E-13
 -1      1507 2.13930E+01-4.88724E-03 7.87012E-03 1.03575E+00 8.13373E-14 3.27786E-13
 -1      1508 1.90332E+01 8.11548E-02-4.94752E-02 3.28245E-01 1.23536E-13 2.01148E-13
 -1      1509 1.96409E+01 8.27407E-02-1.94615E-02 3.84101E-01 7.61509E-14 2.88596E-13
 -1      1510 2.04562E+01 1.21153E-01-1.56944E-02 8.45096E-01 1.27846E-13 2.60115E-13
 -1      1511 1.87966E+01 9.18365E-02-5.61412E-02-6.54583E-02 8.51992E-14-2.51882E-14
 -1      1512 1.89234E+01 1.38077E-01-2.88738E-02 3.76802E-02 1.04920E-13 9.15726E-14
 -1      1513 1.99148E+01 2.18610E-01-3.28668E-02 2.84938E-01 1.96509E-13 3.19154E-14
 -1      1514 1.94927E+01 5.94446E-02-3.47225E-02-4.40629E-01 1.11549E-13-2.67522E-13
 -1      1515 1.90635E+01 1.30656E-01-2.38991E-02-3.38328E-01 6.78207E-14-1.71141E-13
 -1      1516 2.00344E+01 2.19626E-01-3.36217E-02-4.25489E-01 1.81369E-13-1.72407E-13
 -1      1517 2.08352E+01 7.12473E-03 2.60069E-04-6.31136E-01 1.30254E-14-5.11202E-13
 -1      1518 2.00254E+01 6.91486E-02-6.95327E-03-5.73424E-01 8.24306E-14-3.61454E-13
 -1      1519 2.07803E+01 1.19522E-01-2.10780E-02-9.63313E-01 1.66086E-13-3.89654E-13
 -1      1520 2.23078E+01-3.43517E-02 2.77506E-02-5.94161E-01-5.43953E-14-4.74183E-13
 -1      1521 2.14245E+01-4.90477E-03 1.07977E-02-5.92487E-01-1.55665E-14-5.14186E-13
 -1      1522 2.18442E+01-1.52212E-02-5.54629E-03-1.12500E+00 1.00271E-14-5.00419E-13
 -1      1523 2.34652E+01-5.07254E-02 3.68040E-02-4.05328E-01-6.42923E-14-4.41494E-13
 -1      1524 2.27708E+01-5.46585E-02 1.99827E-02-4.41893E-01-5.57453E-14-4.80081E-13
 -1      1525 2.28466E+01-1.10822E-01 4.96527E-03-9.31708E-01-3.42955E-14-4.15605E-13
 -1      1526 2.41014E+01-4.62290E-02 3.12031E-02-1.75581E-01-1.18542E-14-3.75793E-13
 -1      1527 2.37160E+01-6.99155E-02 1.91242E-02-2.24217E-01-1.23564E-14-4.00596E-13
 -1      1528 2.35276E+01-1.39539E-01 9.02571E-03-5.51523E-01-2.90046E-14-5.25675E-13
 -1      1529 2.42311E+01-3.22326E-02 1.95100E-02 1.71712E-02-9.02264E-14-4.11665E-13
 -1      1530 2.41439E+01-6.07028E-02 1.27718E-02-2.53203E-02 9.60690E-15-3.91505E-13
 -1      1531 2.38061E+01-1.18643E-01 8.71415E-03-1.59255E-01 3.53172E-14-4.52690E-13
 -1      1532 2.39860E+01-1.75311E-02 8.50718E-03 1.43592E-01 1.46328E-14-3.47725E-13
 -1      1533 2.41171E+01-4.15859E-02 5.66351E-03 1.14418E-01-3.26466E-14-3.76305E-13
 -1      1534 2.37332E+01-7.80428E-02 6.51183E-03 1.42789E-01-4.36925E-14-4.97637E-13
 -1      1535 2.35210E+01-6.19589E-03 9.86697E-04 2.07178E-01 4.57236E-14-4.40767E-13
 -1      1536 2.37779E+01-2.26128E-02 5.02477E-04 1.91115E-01 3.93299E-14-3.36266E-13
 -1      1537 2.34177E+01-3.90307E-02 4.11978E-03 3.26874E-01 3.97607E-14-3.19422E-13
 -1      1538 2.29646E+01 1.01428E-03-3.04184E-03 2.24706E-01-4.13181E-14-4.23781E-13
 -1      1539 2.32720E+01-8.14690E-03-2.20736E-03 2.18512E-01-3.80640E-14-4.77750E-13
 -1      1540 2.29706E+01-1.04435E-02 2.23627E-03 4.09000E-01 2.19226E-16-3.17101E-13
 -1      1541 2.24042E+01 4.85785E-03-4.59544E-03 2.13982E-01 8.63109E-14-4.82414E-13
 -1      1542 2.27119E+01 1.15668E-03-3.07991E-03 2.14071E-01 4.35705E-14-3.88686E-13
 -1      1543 2.24797E+01 6.91542E-03 9.56874E-04 4.19978E-01 3.41493E-14-2.63263E-13
 -1      1544 2.18904E+01 6.42081E-03-4.73018E-03 1.88848E-01-1.86798E-14-5.39496E-13
 -1      1545 2.21703E+01 6.26119E-03-2.91866E-03 1.92372E-01 2.14297E-14-5.27151E-13
 -1      1546 2.20030E+01 1.55766E-02 1.67039E-04 3.89032E-01 1.00353E-13-4.47102E-13
 -1      1547 2.14466E+01 6.62493E-03-4.19898E-03 1.58443E-01-3.23036E-14-2.41130E-13
 -1      1548 2.16862E+01 8.47185E-03-2.33274E-03 1.63478E-01-9.96846E-14-4.21992E-13
 -1      1549 2.15733E+01 1.85622E-02-2.84292E-04 3.37935E-01-1.19774E-13-4.17401E-13
 -1      1550 2.10791E+01 6.11467E-03-3.44315E-03 1.28110E-01 1.24369E-15-1.83534E-13
 -1      1551 2.12757E+01 8.90529E-03-1.67258E-03 1.33489E-01 4.55369E-14-6.06225E-14
 -1      1552 2.12051E+01 1.82953E-02-5.18358E-04 2.80736E-01-7.13240E-14-1.74887E-13
 -1      1553 2.07846E+01 5.29289E-03-2.68508E-03 1.00588E-01-4.55441E-15-3.63442E-14
 -1      1554 2.09407E+01 8.36100E-03-1.09614E-03 1.05676E-01-5.39707E-14-1.54662E-13
 -1      1555 2.09011E+01 1.64136E-02-6.17414E-04 2.25484E-01-5.45744E-14 4.94277E-14
 -1      1556 2.05548E+01 4.39087E-03-2.01906E-03 7.70069E-02-2.55807E-15-1.40663E-13
 -1      1557 2.06755E+01 7.35532E-03-6.51012E-04 8.15034E-02 5.60149E-14-7.38335E-14
 -1      1558 2.06575E+01 1.39105E-02-6.34305E-04 1.76183E-01 3.77385E-14 6.58137E-14
 -1      1559 2.03797E+01 3.53033E-03-1.47299E-03 5.75800E-02 1.63183E-15-1.39091E-13
 -1      1560 2.04707E+01 6.19722E-03-3.33155E-04 6.13810E-02-3.63640E-14-1.87844E-13
 -1      1561 2.04671E+01 1.13375E-02-6.02932E-04 1.34351E-01-1.97758E-15 5.84551E-14
 -1      1562 2.02493E+01 2.76757E-03-1.04399E-03 4.20428E-02 6.07016E-14-2.67214E-13
 -1      1563 2.03164E+01 5.05841E-03-1.19858E-04 4.51543E-02 8.21695E-14-1.72153E-13
 -1      1564 2.03217E+01 8.97011E-03-5.45292E-04 1.00103E-01 8.70881E-14 4.43770E-14
 -1      1565 2.01545E+01 2.12188E-03-7.17053E-04 2.99171E-02 7.39738E-14-3.53814E-13
 -1      1566 2.02027E+01 4.02516E-03 1.45925E-05 3.24001E-02 5.45270E-14-3.32691E-13
 -1      1567 2.02130E+01 6.92354E-03-4.75727E-04 7.28326E-02 9.30070E-14 4.29036E-14
 -1      1568 2.00874E+01 1.59282E-03-4.74046E-04 2.06594E-02-7.97073E-14-3.84501E-13
 -1      1569 2.01210E+01 3.13315E-03 9.27655E-05 2.25978E-02-9.23355E-15-4.07902E-13
 -1      1570 2.01337E+01 5.22497E-03-4.03457E-04 5.16238E-02 3.76590E-14-2.83708E-13
 -1      1571 2.00412E+01 1.17026E-03-2.97597E-04 1.37393E-02 7.35626E-15-2.88265E-13
 -1      1572 2.00639E+01 2.38940E-03 1.32457E-04 1.52223E-02-6.44145E-14-4.23861E-13
 -1      1573 2.00772E+01 3.85678E-03-3.34176E-04 3.54802E-02-8.67047E-14-2.56908E-13
 -1      1574 2.00108E+01 8.40045E-04-1.72594E-04 8.67836E-03 4.38844E-14-2.97210E-13
 -1      1575 2.00254E+01 1.78572E-03 1.46906E-04 9.79061E-03 4.11624E-14-2.11509E-13
 -1      1576 2.00382E+01 2.78106E-03-2.71131E-04 2.34482E-02 2.53675E-14-3.19560E-13
 -1      1577 1.99918E+01 5.87173E-04-8.65296E-05 5.06433E-03-7.75837E-14-1.97378E-13
 -1      1578 2.00006E+01 1.30669E-03 1.45600E-04 5.88153E-03 1.62104E-14-2.06032E-13
 -1      1579 2.00122E+01 1.95323E-03-2.15899E-04 1.46754E-02-1.61064E-14-4.52413E-14
 -1      1580 1.99808E+01 3.97371E-04-2.93690E-05 2.55396E-03 1.17245E-14-5.17477E-13
 -1      1581 1.99856E+01 9.34280E-04 1.35141E-04 3.14109E-03 9.80201E-14-3.50992E-13
 -1      1582 1.99958E+01 1.32908E-03-1.68943E-04 8.43196E-03 1.52047E-13-2.45669E-13
 -1      1583 1.99756E+01 2.57876E-04 6.76352E-06 8.68548E-04 1.35063E-13-7.20117E-13
 -1      1584 1.99775E+01 6.50421E-04 1.19996E-04 1.27978E-03 5.94758E-14-6.19738E-13
 -1      1585 1.99862E+01 8.68260E-04-1.30026E-04 4.11258E-03 1.27861E-13-3.16480E-13
 -1      1586 1.99740E+01 1.57715E-04 2.79363E-05-2.13317E-04-1.18488E-13-5.96035E-13
 -1      1587 1.99742E+01 4.38377E-04 1.03088E-04 6.61121E-05-4.75013E-14-7.01220E-13
 -1      1588 1.99814E+01 5.35692E-04-9.84965E-05 1.22730E-03 2.66329E-14-3.88202E-13
 -1      1589 1.99749E+01 8.77089E-05 3.87477E-05-8.64059E-04 4.41095E-14-5.89262E-13
 -1      1590 1.99739E+01 2.83364E-04 8.62468E-05-6.81293E-04 2.45498E-14-5.58682E-13
 -1      1591 1.99797E+01 3.01871E-04-7.34938E-05-6.11996E-04-5.20545E-14-3.35034E-13
 -1      1592 1.99771E+01 4.03396E-05 4.26252E-05-1.21530E-03 3.60918E-15-4.81409E-13
 -1      1593 1.99756E+01 1.72730E-04 7.05391E-05-1.10174E-03-2.61580E-14-6.02284E-13
 -1      1594 1.99802E+01 1.42579E-04-5.40771E-05-1.70664E-03-3.55146E-15-3.53883E-13
 -1      1595 1.99802E+01 9.53305E-06 4.20843E-05-1.36531E-03-1.37561E-13-3.87930E-13
 -1      1596 1.99783E+01 9.58890E-05 5.65096E-05-1.29995E-03-1.64639E-14-4.24036E-13
 -1      1597 1.99818E+01 3.83003E-05-3.93070E-05-2.28584E-03-3.87732E-14-7.01237E-14
 -1      1598 1.99835E+01-9.58661E-06 3.89513E-05-1.38547E-03 1.21598E-13-3.89125E-13
 -1      1599 1.99815E+01 4.40915E-05 4.43578E-05-1.35268E-03-5.31834E-14-3.82174E-13
 -1      1600 1.99842E+01-2.64881E-05-2.82837E-05-2.51983E-03-6.95339E-14-1.57997E-13
 -1      1601 1.99868E+01-2.09619E-05 3.45721E-05-1.32554E-03-1.15051E-13-4.74857E-13
 -1      1602 1.99849E+01 1.01122E-05 3.40712E-05-1.31414E-03 2.20759E-14-2.63788E-13
 -1      1603 1.99868E+01-6.40693E-05-2.01464E-05-2.53120E-03-2.04229E-14-1.05600E-13
 -1      1604 1.99900E+01-2.78820E-05 3.00476E-05-1.21766E-03 1.52166E-13-4.34327E-13
 -1      1605 1.99882E+01-1.21392E-05 2.55495E-05-1.22027E-03 3.02448E-14-4.08067E-13
 -1      1606 1.99895E+01-8.42651E-05-1.40282E-05-2.40390E-03 3.88057E-14-1.57073E-13
 -1      1607 1.99929E+01-3.32889E-05 2.65912E-05-1.07907E-03 1.06838E-13-7.15813E-13
 -1      1608 1.99912E+01-2.80916E-05 1.87860E-05-1.09183E-03 7.32448E-14-6.61171E-13
 -1      1609 1.99921E+01-9.52421E-05-8.92263E-06-2.19009E-03 1.76035E-13-5.67086E-13
 -1      1610 1.99953E+01-3.98681E-05 2.59289E-05-9.13574E-04 1.42172E-13-9.51382E-13
 -1      1611 1.99940E+01-4.29090E-05 1.41956E-05-9.36136E-04 1.34436E-13-8.17340E-13
 -1      1612 1.99944E+01-1.04310E-04-3.44675E-06-1.91451E-03 2.58091E-13-9.24610E-13
 -1      1613 1.99974E+01-5.02905E-05 2.94105E-05-7.12748E-04-5.47591E-16-1.15062E-12
 -1      1614 1.99963E+01-6.17214E-05 1.27164E-05-7.48570E-04 5.57955E-14-9.79013E-13
 -1      1615 1.99964E+01-1.18584E-04 4.12761E-06-1.57765E-03 1.28746E-13-7.86760E-13
 -1      1616 1.99988E+01-6.67442E-05 3.16796E-05-4.56142E-04 3.54160E-14-1.22126E-12
 -1      1617 1.99981E+01-8.94610E-05 1.37894E-05-5.15011E-04 1.95731E-14-9.79081E-13
 -1      1618 1.99979E+01-1.46640E-04 1.35376E-05-1.16006E-03-1.94335E-16-6.76565E-13
 -1      1619 1.99996E+01-8.33560E-05 2.44876E-07-1.53112E-04-1.15638E-13-1.23223E-12
 -1      1620 1.99993E+01-1.13534E-04 9.93143E-06-2.28467E-04 3.93024E-15-1.22859E-12
 -1      1621 1.99991E+01-1.82406E-04 1.89952E-05-6.38624E-04 6.90009E-14-4.47217E-13
 -1      1622 1.99998E+01-4.82445E-05-1.13927E-05-1.09069E-06-7.42240E-13-8.18520E-13
 -1      1623 1.99997E+01-7.44227E-04 1.62453E-05-3.77482E-04-3.75757E-13 4.53315E-13
 -1      1624 1.99997E+01-3.74818E-04-3.75551E-06-2.97680E-04-9.26230E-13 4.30088E-13
 -1      1625 1.99997E+01-1.96730E-03 8.40792E-06-6.40607E-04 2.58228E-13 3.66439E-13
 -1      1626 1.99997E+01-1.24734E-03 1.05893E-05-5.97296E-04-2.51573E-13 3.83335E-13
 -1      1627 1.99996E+01-1.15327E-03 1.94071E-05-9.49508E-04-3.28594E-14 6.52715E-13
 -1      1628 1.99998E+01-3.50797E-03 1.10060E-06-7.68783E-04 1.36597E-13-1.55793E-13
 -1      1629 1.99998E+01-2.60714E-03 6.04660E-06-7.54985E-04 3.58137E-13-3.81336E-14
 -1      1630 1.99997E+01-2.28730E-03 1.35655E-05-1.34809E-03-1.24813E-14 1.55983E-13
 -1      1631 1.99998E+01-5.11653E-03-2.60070E-06-7.65825E-04 5.12192E-13 1.21578E-15
 -1      1632 1.99998E+01-4.19825E-03 1.48492E-06-7.76949E-04 3.46908E-13 2.03442E-13
 -1      1633 1.99998E+01-3.60753E-03 1.52176E-07-1.49109E-03 1.17862E-13-9.04639E-17
 -1      1634 1.99999E+01-6.54103E-03-3.45418E-06-6.58561E-04 5.07913E-13 7.74729E-14
 -1      1635 1.99998E+01-5.75019E-03-3.88393E-07-6.87201E-04 5.25194E-13-1.27029E-13
 -1      1636 1.99999E+01-4.91915E-03-1.16175E-05-1.40171E-03 2.77674E-13 4.14578E-14
 -1      1637 1.99999E+01-7.65271E-03-3.15611E-06-4.71416E-04 6.06477E-13 5.72507E-14
 -1      1638 1.99999E+01-7.06287E-03-1.25424E-06-5.13382E-04 5.13303E-13 1.19734E-13
 -1      1639 1.99999E+01-6.06080E-03-1.99286E-05-1.13120E-03 2.82706E-13 4.55524E-15
 -1      1640 1.99999E+01-8.29807E-03-2.44399E-06-2.33485E-04 4.95101E-13-1.08598E-13
 -1      1641 1.99999E+01-7.98851E-03-1.47951E-06-2.82819E-04 5.28138E-13 6.19861E-15
 -1      1642 1.99999E+01-6.90591E-03-2.55026E-05-7.28387E-04 3.21563E-13-5.09839E-15
 -1      1643 1.99999E+01-8.40997E-03-1.83888E-06 2.81211E-05 3.52697E-13 1.25194E-13
 -1      1644 1.99999E+01-8.41268E-03-1.84707E-06-2.36094E-05 4.43518E-13-1.71198E-13
 -1      1645 2.00000E+01-7.34980E-03-2.82012E-05-2.48353E-04 1.65027E-13-1.62607E-13
 -1      1646 1.99999E+01-7.97668E-03-1.42445E-06 2.87017E-04 1.20304E-13-2.26279E-13
 -1      1647 1.99999E+01-8.29144E-03-2.45889E-06 2.37802E-04 2.72462E-13-5.86471E-15
 -1      1648 2.00000E+01-7.34591E-03-2.81717E-05 2.56892E-04 1.46547E-13-5.15746E-14
 -1      1649 1.99999E+01-7.04333E-03-1.07048E-06 5.16744E-04-1.95626E-13-3.26747E-13
 -1      1650 1.99999E+01-7.63746E-03-3.29069E-06 4.75103E-04 2.04454E-13-2.56992E-13
 -1      1651 1.99999E+01-6.89473E-03-2.53615E-05 7.36058E-04-4.58256E-14-2.09066E-13
 -1      1652 1.99998E+01-5.73707E-03-5.49078E-07 6.87734E-04-2.20076E-14 2.72218E-13
 -1      1653 1.99999E+01-6.52993E-03-3.58037E-06 6.59493E-04-5.30085E-14-1.58110E-13
 -1      1654 1.99999E+01-6.05250E-03-1.99505E-05 1.13463E-03 9.76599E-14-2.35440E-13
 -1      1655 1.99998E+01-4.17094E-03 1.44460E-06 7.77423E-04 5.00025E-13 2.30258E-13
 -1      1656 1.99998E+01-5.09052E-03-2.66578E-06 7.66713E-04 3.10191E-14 5.71372E-13
 -1      1657 1.99999E+01-4.90793E-03-1.13481E-05 1.40332E-03 3.50206E-13 5.05813E-13
 -1      1658 1.99998E+01-2.58203E-03 6.06565E-06 7.55325E-04 7.64967E-13 1.20198E-13
 -1      1659 1.99998E+01-3.48137E-03 9.61029E-07 7.67768E-04 6.35552E-13 1.09355E-13
 -1      1660 1.99998E+01-3.58473E-03 2.97787E-07 1.49050E-03 4.69041E-13 4.38674E-13
 -1      1661 1.99997E+01-1.24892E-03 2.57281E-06 5.94797E-04 3.48239E-13-3.32692E-13
 -1      1662 1.99997E+01-1.94955E-03 8.00991E-06 6.38816E-04 7.26540E-13-1.55551E-13
 -1      1663 1.99997E+01-2.26725E-03 1.30441E-05 1.34324E-03 1.64968E-13-1.57660E-13
 -1      1664 1.99996E+01-5.01684E-04-1.25899E-05 4.41806E-04-1.50409E-13-4.61048E-13
 -1      1665 1.99996E+01-8.76081E-04 6.77672E-06 5.57681E-04 3.20607E-13-4.97952E-13
 -1      1666 1.99995E+01-1.26306E-03 1.91572E-05 1.12018E-03-3.74031E-15-5.36576E-13
 -1      1667 1.99992E+01-5.96479E-04-1.28871E-06 8.67725E-04 1.22246E-13-5.22706E-13
 -1      1668-6.66009E-01-1.51254E+01-1.73534E+00-1.06644E+00 1.30174E-12 8.73995E-13
 -1      1669-6.22666E-01-1.69519E+01-1.89428E+00 2.34661E-01 1.39666E-13 6.42708E-13
 -1      1670 9.75991E-01-8.91393E+00-1.26933E+00 1.77703E-01 2.42129E-12 1.44763E-12
 -1      1671 4.13657E-01-1.36607E+01-1.73394E+00-1.83642E-01 1.65257E-12 1.01373E-12
 -1      1672 6.39155E+00-1.57933E+00-6.24401E-01 4.07401E+00 2.86127E-12 2.31731E-12
 -1      1673 3.65653E+00-6.99606E+00-1.31124E+00 1.50771E+00 2.54052E-12 1.64074E-12
 -1      1674 1.53387E+01 4.30214E+00 6.03312E-02 8.83151E+00 2.95164E-12 2.90368E-12
 -1      1675 9.61717E+00 6.63180E-01-7.58001E-01 5.25574E+00 3.02380E-12 2.54197E-12
 -1      1676 2.92014E+01 5.84995E+00 7.82840E-01 1.18086E+01 2.13041E-12 2.56617E-12
 -1      1677 2.07479E+01 4.96982E+00-2.51728E-02 9.46452E+00 2.71383E-12 2.71361E-12
 -1      1678 4.27722E+01 5.36891E+00 1.41039E+00 1.11545E+01 1.29166E-12 1.72806E-12
 -1      1679 3.40597E+01 6.57543E+00 7.26456E-01 1.18195E+01 1.93412E-12 2.39808E-12
 -1      1680 5.26412E+01 3.89829E+00 1.78007E+00 5.26780E+00 7.64583E-13 2.01172E-13
 -1      1681 4.65218E+01 5.34212E+00 1.33450E+00 9.35867E+00 1.07020E-12 1.24267E-12
 -1      1682 5.53037E+01 3.56788E+00 1.87459E+00-2.50373E+00 7.17260E-13-1.36263E-12
 -1      1683 5.49580E+01 3.64287E+00 1.83927E+00 3.07642E+00 6.60333E-13-2.88547E-13
 -1      1684 4.79960E+01 5.21019E+00 1.40961E+00-9.18828E+00 1.25239E-12-2.62779E-12
 -1      1685 5.36391E+01 3.82711E+00 1.86407E+00-4.84493E+00 8.48710E-13-1.78602E-12
 -1      1686 3.46022E+01 6.20673E+00 6.52393E-01-1.09726E+01 2.03026E-12-3.02114E-12
 -1      1687 4.37448E+01 5.00948E+00 1.37539E+00-1.00439E+01 1.45320E-12-2.65532E-12
 -1      1688 2.04806E+01 4.72601E+00-9.20694E-02-9.24685E+00 2.83640E-12-3.11906E-12
 -1      1689 2.94888E+01 5.62350E+00 7.40542E-01-1.17138E+01 2.33236E-12-3.19100E-12
 -1      1690 8.86066E+00 1.67207E-01-8.58487E-01-4.87967E+00 3.21476E-12-2.68796E-12
 -1      1691 1.46553E+01 4.09606E+00-1.03790E-02-8.63655E+00 3.16369E-12-3.27283E-12
 -1      1692 2.99762E+00-7.18990E+00-1.40109E+00-1.11986E+00 2.57772E-12-1.69609E-12
 -1      1693 5.32977E+00-1.81507E+00-7.33776E-01-3.46755E+00 3.09663E-12-2.40741E-12
 -1      1694 5.18684E-01-1.35642E+01-1.68428E+00-4.73801E-02 1.21936E-12-9.54833E-13
 -1      1695 1.08381E+00-8.99932E+00-1.25762E+00-3.42153E-01 2.15139E-12-1.44348E-12
 -1      1696-6.62877E-01-1.66229E+01-1.83614E+00-4.11145E-01-2.11359E-13-6.54227E-13
 -1      1697-7.05842E-01-1.50817E+01-1.73088E+00 1.03950E+00 8.96894E-13-8.05245E-13
 -1      1698-3.32964E-01-1.31126E+01-1.45041E+00-5.45299E-01-1.71696E-12-1.10092E-12
 -1      1699-4.06755E-01-1.54392E+01-1.65097E+00 4.65279E-01-5.89861E-13-7.93282E-13
 -1      1700 1.67207E+00-7.39468E+00-1.15846E+00 7.32078E-01-2.93421E-12-1.69090E-12
 -1      1701 8.73050E-01-1.24098E+01-1.62682E+00 8.54043E-02-2.22466E-12-1.16498E-12
 -1      1702 7.05000E+00-1.59088E-01-5.71947E-01 4.64774E+00-3.36531E-12-2.60814E-12
 -1      1703 3.97855E+00-5.46295E+00-1.31465E+00 1.78401E+00-3.16613E-12-1.98647E-12
 -1      1704 1.86941E+01 4.68445E+00 2.60361E-01 9.83815E+00-2.92755E-12-3.24074E-12
 -1      1705 1.18199E+01 1.30282E+00-6.30859E-01 6.08111E+00-3.16158E-12-2.75913E-12
 -1      1706 3.23911E+01 6.56970E+00 1.04908E+00 1.27373E+01-2.31282E-12-3.36464E-12
 -1      1707 2.35152E+01 6.26987E+00 1.96554E-01 1.08319E+01-2.83951E-12-3.41971E-12
 -1      1708 4.59055E+01 5.10189E+00 1.58142E+00 1.07246E+01-1.42801E-12-2.52987E-12
 -1      1709 3.73630E+01 6.69384E+00 9.58246E-01 1.22539E+01-2.05758E-12-3.15414E-12
 -1      1710 5.34117E+01 3.72534E+00 1.70107E+00 3.70984E+00-8.33389E-13-9.17433E-13
 -1      1711 4.88193E+01 5.07453E+00 1.46659E+00 8.46791E+00-1.21675E-12-1.98597E-12
 -1      1712 5.23225E+01 4.26924E+00 1.57376E+00-4.09053E+00-8.54872E-13 5.59386E-13
 -1      1713 5.34295E+01 3.93981E+00 1.61599E+00 1.28638E+00-7.42628E-13-5.07816E-13
 -1      1714 4.49705E+01 5.76178E+00 1.31952E+00-1.07326E+01-1.28592E-12 2.01950E-12
 -1      1715 5.18964E+01 3.98345E+00 1.77065E+00-6.90230E+00-8.72857E-13 1.10578E-12
 -1      1716 3.13998E+01 6.36350E+00 5.80574E-01-1.14138E+01-2.09638E-12 2.61835E-12
 -1      1717 4.04032E+01 5.52663E+00 1.31805E+00-1.14548E+01-1.49963E-12 2.13096E-12
 -1      1718 1.85211E+01 5.02019E+00-1.20084E-01-9.23761E+00-2.63023E-12 2.81442E-12
 -1      1719 2.62069E+01 6.24336E+00 6.78203E-01-1.18437E+01-2.30616E-12 2.98273E-12
 -1      1720 9.19485E+00-6.80063E-01-8.02476E-01-4.72036E+00-2.50744E-12 2.15106E-12
 -1      1721 1.44890E+01 3.20213E+00-2.42256E-02-8.16979E+00-2.51599E-12 2.67530E-12
 -1      1722 2.88525E+00-7.33931E+00-1.40766E+00-1.02311E+00-2.42273E-12 1.41714E-12
 -1      1723 5.07058E+00-2.21872E+00-7.70810E-01-3.24971E+00-2.70273E-12 1.90209E-12
 -1      1724 3.82606E-01-1.37830E+01-1.73291E+00 1.93763E-01-1.47282E-12 9.00363E-13
 -1      1725 8.94179E-01-9.22214E+00-1.31268E+00-7.22783E-02-2.17260E-12 1.34312E-12
 -1      1726-6.21882E-01-1.69412E+01-1.88925E+00-2.32473E-01-1.95718E-13 5.31186E-13
 -1      1727-6.66508E-01-1.52167E+01-1.74229E+00 1.05710E+00-1.16146E-12 7.68163E-13
 -1      1728 2.29104E+01 1.83041E-01 1.74919E-01 7.17506E+00 1.71907E-12 1.45828E-12
 -1      1729 1.30051E+01-3.76907E+00-4.40455E-01 6.14773E+00 1.50058E-12 1.70564E-12
 -1      1730 1.99997E+01-1.35926E-04 1.06117E-05-1.47470E-04-8.79637E-13-1.91959E-13
 -1      1731 1.99995E+01-4.51059E-04 6.48801E-06-5.10082E-04-1.30279E-13 2.71679E-13
 -1      1732 2.40094E-01-1.05140E+01-1.21421E+00 2.09380E+00 7.46403E-13 1.40699E-12
 -1      1733 5.41544E+00-7.51180E+00-8.39950E-01 4.46261E+00 1.19194E-12 1.45741E-12
 -1      1734-1.41909E+00-1.17944E+01-1.36754E+00 9.51612E-03-2.84564E-14 1.17950E-12
 -1      1735 3.30281E+01 3.25763E+00 7.15138E-01 6.58568E+00 1.64446E-12 1.12399E-12
 -1      1736 4.11993E+01 5.95071E+00 1.18953E+00 4.70855E+00 1.44354E-12 5.76317E-13
 -1      1737 4.64984E+01 7.17046E+00 1.49083E+00 1.74840E+00 1.27176E-12-1.85907E-13
 -1      1738 4.71560E+01 7.20297E+00 1.55430E+00-1.70016E+00 1.24012E-12-1.02590E-12
 -1      1739 4.14333E+01 6.00325E+00 1.12374E+00-4.03127E+00 1.37629E-12-1.42497E-12
 -1      1740 3.33688E+01 3.02597E+00 6.96479E-01-5.85409E+00 1.52189E-12-1.57696E-12
 -1      1741 2.27730E+01 2.20114E-02 1.92137E-01-7.20578E+00 1.76081E-12-1.95155E-12
 -1      1742 1.20830E+01-3.75968E+00-5.01365E-01-6.04845E+00 1.75993E-12-2.00157E-12
 -1      1743 4.81936E+00-7.60259E+00-9.32828E-01-4.22581E+00 1.12677E-12-1.65109E-12
 -1      1744 2.35154E-01-1.02181E+01-1.18392E+00-2.18275E+00 4.83946E-13-1.38650E-12
 -1      1745-1.14258E+00-1.04882E+01-1.17397E+00 3.80740E-01-2.73455E-13-1.38123E-12
 -1      1746 1.06914E+00-9.22971E+00-1.05447E+00 2.70355E+00-8.74967E-13-1.46921E-12
 -1      1747 6.21522E+00-6.86452E+00-8.68466E-01 4.60656E+00-1.67211E-12-1.62797E-12
 -1      1748 1.49277E+01-2.97696E+00-3.04090E-01 6.54379E+00-1.88216E-12-1.88127E-12
 -1      1749 2.51824E+01 8.95940E-01 2.60496E-01 7.33390E+00-1.82565E-12-2.02871E-12
 -1      1750 3.53247E+01 4.43324E+00 9.12363E-01 7.13635E+00-1.80134E-12-1.87073E-12
 -1      1751 4.29948E+01 6.45997E+00 1.33552E+00 4.66642E+00-1.55237E-12-1.22635E-12
 -1      1752 4.52974E+01 7.78947E+00 1.37071E+00 1.09719E+00-1.38478E-12-5.33976E-13
 -1      1753 4.50745E+01 7.34722E+00 1.39571E+00-2.48064E+00-1.31806E-12 1.56875E-13
 -1      1754 4.01236E+01 5.42892E+00 1.11818E+00-5.31744E+00-1.33819E-12 8.15126E-13
 -1      1755 3.11995E+01 2.94555E+00 6.31952E-01-7.01605E+00-1.53860E-12 1.34259E-12
 -1      1756 2.13363E+01-5.10218E-01 3.67847E-02-7.08074E+00-1.37612E-12 1.66667E-12
 -1      1757 1.22161E+01-4.18671E+00-4.46142E-01-6.00706E+00-1.28497E-12 1.43402E-12
 -1      1758 4.63489E+00-7.77858E+00-9.31753E-01-3.99740E+00-1.08025E-12 1.25448E-12
 -1      1759 1.72425E-01-1.05544E+01-1.21712E+00-2.06944E+00-6.09679E-13 1.27937E-12
 -1      1760 2.46444E+01 1.96663E+00-2.68218E-02-2.24980E+00-3.98959E-13 1.70688E-12
 -1      1761 2.05288E+01 3.77311E+00-4.03387E-02-1.18071E+00-5.06761E-13-4.98598E-13
 -1      1762 2.11117E+01 3.61269E+00-3.67007E-02-1.49761E+00-5.81715E-13-3.25635E-13
 -1      1763 2.17408E+01 3.18095E+00-4.92953E-02-1.70910E+00-5.85977E-13-1.01849E-13
 -1      1764 2.22566E+01 2.79138E+00-1.29470E-01-2.04182E+00-6.21361E-13 2.13232E-13
 -1      1765 2.17003E+01 2.69366E+00-1.50692E-03-1.28299E+00-6.13711E-13-1.81584E-13
 -1      1766 1.86055E+01 4.37912E+00-2.30450E-02-3.81168E-01-2.74196E-13-8.36223E-13
 -1      1767 1.90319E+01 4.34256E+00-8.70676E-03-5.50444E-01-3.38980E-13-7.85278E-13
 -1      1768 1.78824E+01 4.56203E+00-1.76149E-02-1.60369E-01-1.63327E-13-9.08570E-13
 -1      1769 1.82237E+01 4.53884E+00-4.71761E-03-2.70542E-01-2.16686E-13-8.82858E-13
 -1      1770 1.85385E+01 4.10719E+00-7.64418E-03-2.41209E-01-2.61297E-13-8.23788E-13
 -1      1771 1.73854E+01 4.68922E+00-1.28853E-02-4.50909E-02-5.39083E-14-9.16665E-13
 -1      1772 1.76051E+01 4.67567E+00-3.99637E-03-1.08356E-01-1.08208E-13-9.15744E-13
 -1      1773 1.78208E+01 4.34941E+00-5.15024E-03-7.54561E-02-1.39749E-13-8.81364E-13
 -1      1774 1.71662E+01 4.75290E+00-8.63800E-03 3.16827E-03 4.01586E-14-9.21561E-13
 -1      1775 1.72399E+01 4.74856E+00-5.70879E-03-3.47745E-02-5.10052E-15-9.24276E-13
 -1      1776 1.73596E+01 4.50303E+00-3.03724E-03-9.47057E-03-3.14794E-14-8.96450E-13
 -1      1777 1.72509E+01 4.74527E+00-5.30757E-03 3.76288E-02 1.37551E-13-9.00947E-13
 -1      1778 1.71697E+01 4.75047E+00-9.03586E-03-1.03075E-03 9.08107E-14-9.17503E-13
 -1      1779 1.72056E+01 4.55354E+00-2.25699E-03-2.82726E-04 7.04258E-14-8.92068E-13
 -1      1780 1.76289E+01 4.66655E+00-3.79931E-03 1.15212E-01 2.35575E-13-8.61399E-13
 -1      1781 1.74030E+01 4.68144E+00-1.31584E-02 4.99353E-02 1.88721E-13-8.90336E-13
 -1      1782 1.73775E+01 4.49415E+00-3.23367E-03 1.10028E-02 1.70473E-13-8.75055E-13
 -1      1783 1.82443E+01 4.52743E+00-4.69002E-03 2.80100E-01 3.35245E-13-7.78433E-13
 -1      1784 1.79057E+01 4.55117E+00-1.77494E-02 1.69507E-01 2.83434E-13-8.26368E-13
 -1      1785 1.78488E+01 4.33445E+00-5.29624E-03 8.15812E-02 2.73455E-13-8.18991E-13
 -1      1786 1.90626E+01 4.32519E+00-8.86388E-03 5.68738E-01 4.67790E-13-6.40378E-13
 -1      1787 1.86275E+01 4.36473E+00-2.33454E-02 3.93762E-01 3.99713E-13-7.16807E-13
 -1      1788 1.85685E+01 4.08821E+00-7.89633E-03 2.52362E-01 3.97457E-13-7.14481E-13
 -1      1789 2.00316E+01 4.03673E+00-1.85911E-02 9.91960E-01 5.75791E-13-4.38333E-13
 -1      1790 1.95240E+01 4.11051E+00-3.12029E-02 7.43736E-01 5.14509E-13-5.56548E-13
 -1      1791 1.94869E+01 3.75563E+00-9.21000E-03 5.40478E-01 5.17683E-13-5.56017E-13
 -1      1792 2.11508E+01 3.56890E+00-3.93864E-02 1.53594E+00 6.56763E-13-9.57220E-14
 -1      1793 2.05628E+01 3.73466E+00-4.39821E-02 1.21245E+00 6.04652E-13-3.02109E-13
 -1      1794 2.05601E+01 3.30409E+00-6.36654E-03 9.26091E-01 6.19300E-13-3.20724E-13
 -1      1795 2.25701E+01 2.66359E+00-5.21662E-02 2.06428E+00 6.49639E-13 5.50296E-13
 -1      1796 2.18018E+01 3.09711E+00-5.25386E-02 1.74543E+00 6.45829E-13 1.63002E-13
 -1      1797 2.17927E+01 2.60988E+00 3.41923E-03 1.31551E+00 6.68603E-13 5.25066E-14
 -1      1798 2.36513E+01 1.16676E+00-1.19699E-01 1.71168E+00 5.54577E-13 1.34229E-12
 -1      1799 2.30716E+01 2.22711E+00-1.71595E-03 2.02349E+00 6.05580E-13 8.28199E-13
 -1      1800 2.27378E+01 1.64579E+00-1.66732E-02 1.34133E+00 6.73942E-13 5.50844E-13
 -1      1801 2.30924E+01 7.43207E-01-5.35076E-02 9.06803E-01 5.58595E-13 1.16682E-12
 -1      1802 2.36322E+01 2.41360E+00 8.25719E-02-2.38065E+00-5.41235E-13 7.61696E-13
 -1      1803 2.26496E+01 2.77423E-01-4.71118E-03 7.26118E-02 4.48995E-13 8.98701E-13
 -1      1804 2.29529E+01 4.15219E-01-1.02760E-02 4.41266E-01 4.78617E-13 1.06335E-12
 -1      1805 2.28599E+01 8.00391E-01-2.29777E-03 6.99398E-01 5.65471E-13 7.25042E-13
 -1      1806 2.33290E+01 1.70153E+00 7.69171E-02-1.59934E+00-5.78166E-13 5.36703E-13
 -1      1807 2.28063E+01 4.74587E-01 3.32158E-02-2.25110E-01-4.62963E-13 4.67869E-13
 -1      1808 2.26094E+01 3.24557E-01 9.08184E-03 4.89544E-02-4.18931E-13 3.46606E-13
 -1      1809 2.25774E+01 2.20052E-01 2.64595E-02 2.74785E-01-3.75889E-13 3.42981E-13
 -1      1810 2.26049E+01 1.17179E-01 6.15933E-03 3.82219E-01-3.20619E-13 2.40207E-13
 -1      1811 2.24275E+01 4.29164E-01-9.57487E-03 1.19711E-01-4.57300E-13 1.25755E-13
 -1      1812 2.26669E+01 3.97480E-02 1.53953E-02 4.66460E-01-2.60432E-13 2.33879E-13
 -1      1813 2.27682E+01-4.91554E-02-3.58296E-03 4.67448E-01-2.05219E-13 1.65884E-13
 -1      1814 2.24525E+01 1.20152E-01-8.37602E-03 4.83185E-01-3.48288E-13 8.38583E-14
 -1      1815 2.28945E+01-1.26598E-01 7.63152E-03 4.26840E-01-1.67126E-13 1.77390E-13
 -1      1816 2.29823E+01-2.18367E-01-1.29561E-02 3.29063E-01-1.47478E-13 1.34386E-13
 -1      1817 2.26397E+01-1.36280E-01-6.25626E-03 5.47078E-01-2.20612E-13 4.75639E-14
 -1      1818 2.31325E+01-2.96220E-01 2.95814E-03 1.63528E-01-1.34706E-13 1.68691E-13
 -1      1819 2.31329E+01-3.79143E-01-1.90884E-02-2.90541E-02-9.60846E-14 1.19582E-13
 -1      1820 2.29101E+01-3.89771E-01-2.90072E-03 3.34406E-01-1.46575E-13 7.25290E-14
 -1      1821 2.32535E+01-4.34655E-01-7.64558E-04-3.06809E-01-6.85754E-14 1.23886E-13
 -1      1822 2.31129E+01-4.70015E-01-1.85575E-02-5.63844E-01-8.63025E-14 1.10775E-13
 -1      1823 2.31736E+01-6.06197E-01 2.65353E-03-1.43332E-01-8.78551E-14 1.10367E-13
 -1      1824 2.31371E+01-4.59447E-01-5.95452E-03-8.93019E-01-1.02332E-13 1.43345E-13
 -1      1825 2.28449E+01-3.93197E-01-8.55926E-03-1.13447E+00-1.07600E-13 1.11237E-13
 -1      1826 2.33174E+01-6.77760E-01 9.70877E-03-8.12541E-01-9.26360E-14 1.29458E-13
 -1      1827 2.27170E+01-2.72017E-01-1.12009E-02-1.38313E+00-1.32944E-13 1.36523E-13
 -1      1828 2.23279E+01-7.79892E-02 9.01414E-03-1.48201E+00-9.00540E-14 1.24994E-13
 -1      1829 2.32244E+01-4.69165E-01 1.31733E-02-1.46849E+00-1.17551E-13 1.34912E-13
 -1      1830 2.20616E+01 1.45379E-01-1.29123E-02-1.47633E+00-1.24149E-13 8.54525E-15
 -1      1831 2.16991E+01 4.04542E-01 2.26837E-02-1.32010E+00-1.86195E-13-9.84308E-14
 -1      1832 2.28498E+01 7.50296E-02 7.87573E-03-1.76974E+00-1.95126E-13 5.79324E-14
 -1      1833 2.14333E+01 6.24548E-01-4.76889E-03-9.63866E-01-2.46636E-13-1.70872E-13
 -1      1834 2.12444E+01 7.94846E-01 2.09580E-02-5.60122E-01-2.66544E-13-2.52871E-13
 -1      1835 2.23306E+01 7.60352E-01-1.17502E-02-1.38882E+00-2.84553E-13-1.20204E-13
 -1      1836 2.11730E+01 8.61717E-01 1.15010E-02 2.98316E-02-2.78232E-13-3.31495E-13
 -1      1837 2.12480E+01 8.20041E-01 5.72863E-03 5.08408E-01-2.49205E-13-3.71747E-13
 -1      1838 2.19981E+01 1.19898E+00-2.84163E-02-3.24454E-01-3.45212E-13-2.90138E-13
 -1      1839 2.14366E+01 6.82560E-01 2.30553E-02 1.04026E+00-2.38032E-13-4.59729E-13
 -1      1840 2.17530E+01 4.60185E-01-8.68637E-03 1.36495E+00-1.93878E-13-5.03412E-13
 -1      1841 2.21152E+01 1.09171E+00-2.39355E-02 9.48456E-01-3.06078E-13-3.78388E-13
 -1      1842 2.20677E+01 2.20314E-01 1.83155E-02 1.59174E+00-1.62313E-13-5.94916E-13
 -1      1843 2.25039E+01-3.07657E-02-1.30717E-02 1.64538E+00-4.64233E-14-5.61431E-13
 -1      1844 2.26123E+01 5.13802E-01-3.14744E-03 1.79117E+00-1.90724E-13-4.82413E-13
 -1      1845 2.27504E+01-2.25748E-01 1.41314E-03 1.53434E+00-3.17680E-14-6.30062E-13
 -1      1846 2.31573E+01-3.76868E-01-9.71713E-03 1.36336E+00 2.18575E-16-6.22978E-13
 -1      1847 2.31590E+01-1.61778E-01 1.28940E-02 1.89019E+00-9.10508E-14-6.73258E-13
 -1      1848 2.32392E+01-4.57596E-01-1.48106E-02 1.05585E+00 3.39520E-14-6.11674E-13
 -1      1849 2.35118E+01-4.85071E-01-5.31011E-03 7.87802E-01 9.73752E-14-5.69871E-13
 -1      1850 2.34710E+01-5.99265E-01 1.39294E-02 1.39676E+00 4.04793E-14-6.80820E-13
 -1      1851 2.34455E+01-4.70911E-01-2.18208E-02 4.48435E-01 3.86045E-14-5.94219E-13
 -1      1852 2.35489E+01-4.19469E-01-2.14668E-03 1.93693E-01 2.24647E-14-5.86080E-13
 -1      1853 2.34828E+01-7.03489E-01 9.23853E-03 6.70422E-01 4.41912E-14-5.80750E-13
 -1      1854 2.33908E+01-3.60016E-01-2.05530E-02-7.74307E-02 8.59824E-14-5.26594E-13
 -1      1855 2.33438E+01-2.82848E-01-9.67336E-04-2.62964E-01 6.51180E-14-4.33240E-13
 -1      1856 2.32657E+01-5.84777E-01 3.40910E-03-8.93377E-04 6.74374E-14-4.99711E-13
 -1      1857 2.31460E+01-2.17381E-01-1.48292E-02-4.34389E-01-1.48544E-14-3.51761E-13
 -1      1858 2.29935E+01-1.47882E-01-3.95825E-04-5.41060E-01 1.88452E-14-3.73702E-13
 -1      1859 2.29214E+01-3.81722E-01-1.90844E-04-4.80683E-01 6.42993E-14-3.60494E-13
 -1      1860 2.27882E+01-9.56399E-02-8.23416E-03-6.23092E-01 4.56352E-14-3.87452E-13
 -1      1861 2.25777E+01-4.61041E-02 4.43984E-05-6.65434E-01 9.34363E-14-4.13575E-13
 -1      1862 2.25281E+01-1.90500E-01-1.75434E-03-7.52133E-01 1.41705E-14-3.32936E-13
 -1      1863 2.23819E+01-1.14234E-02-2.79644E-03-6.83054E-01 1.38787E-13-4.05821E-13
 -1      1864 2.21516E+01 1.82801E-02 4.71081E-04-6.82066E-01 1.12456E-13-3.80964E-13
 -1      1865 2.21327E+01-4.97778E-02-2.30823E-03-8.56253E-01 1.18014E-13-2.46111E-13
 -1      1866 2.19735E+01 3.79684E-02 9.10364E-04-6.60045E-01 8.24209E-14-2.69507E-13
 -1      1867 2.17494E+01 5.25894E-02 8.49282E-04-6.34300E-01 8.84433E-14-2.09843E-13
 -1      1868 2.17606E+01 3.74478E-02-2.46040E-03-8.47665E-01 1.70176E-13-1.97318E-13
 -1      1869 2.15925E+01 6.16646E-02 3.04198E-03-5.91758E-01 3.86327E-14-1.27755E-13
 -1      1870 2.13897E+01 6.64082E-02 1.11915E-03-5.54684E-01 9.82189E-14-1.64410E-14
 -1      1871 2.14251E+01 8.26391E-02-2.45071E-03-7.73982E-01 1.41532E-13 3.16587E-15
 -1      1872 2.12552E+01 6.88334E-02 3.99952E-03-5.04473E-01 7.97183E-14-1.17543E-13
 -1      1873 2.10804E+01 6.78366E-02 1.26085E-03-4.64589E-01 8.97930E-14-9.18542E-14
 -1      1874 2.11321E+01 9.96111E-02-2.35622E-03-6.69847E-01 1.07820E-13-9.97188E-14
 -1      1875 2.09677E+01 6.65228E-02 4.19112E-03-4.14465E-01 2.91195E-15-1.26802E-13
 -1      1876 2.08227E+01 6.26158E-02 1.28727E-03-3.76584E-01 2.97527E-15-1.40222E-13
 -1      1877 2.08828E+01 9.97507E-02-2.20092E-03-5.57639E-01 1.41694E-14-2.57978E-13
 -1      1878 2.07302E+01 5.94725E-02 3.94009E-03-3.30711E-01-3.58580E-14-1.97665E-13
 -1      1879 2.06133E+01 5.44133E-02 1.22789E-03-2.97177E-01-1.05283E-13-2.41645E-13
 -1      1880 2.06758E+01 9.10301E-02-1.99989E-03-4.50357E-01-6.26708E-14-2.73760E-13
 -1      1881 2.05389E+01 5.05976E-02 3.47106E-03-2.57409E-01-1.30155E-13-1.93643E-13
 -1      1882 2.04471E+01 4.53925E-02 1.11444E-03-2.29061E-01-7.96659E-14-2.70755E-13
 -1      1883 2.05073E+01 7.84960E-02-1.76950E-03-3.54598E-01-9.95744E-14-1.42444E-13
 -1      1884 2.03883E+01 4.15554E-02 2.92589E-03-1.95867E-01 5.58528E-14-3.32515E-13
 -1      1885 2.03178E+01 3.67285E-02 9.73666E-04-1.72690E-01 1.30517E-13-2.87557E-13
 -1      1886 2.03731E+01 6.50962E-02-1.52688E-03-2.72930E-01-4.71230E-14-1.28363E-13
 -1      1887 2.02723E+01 3.32043E-02 2.38665E-03-1.45777E-01 6.69806E-14-3.12999E-13
 -1      1888 2.02192E+01 2.89887E-02 8.25141E-04-1.27322E-01-8.54605E-14-2.79326E-13
 -1      1889 2.02680E+01 5.24100E-02-1.28725E-03-2.05566E-01 4.68448E-14-2.94443E-13
 -1      1890 2.01846E+01 2.59225E-02 1.89592E-03-1.06020E-01-2.24872E-13-3.05260E-13
 -1      1891 2.01456E+01 2.23851E-02 6.81726E-04-9.16559E-02-2.08125E-13-3.20825E-13
 -1      1892 2.01874E+01 4.11794E-02-1.06216E-03-1.51453E-01-1.01790E-13-3.41694E-13
 -1      1893 2.01199E+01 1.98142E-02 1.47189E-03-7.51515E-02-1.73490E-13-2.92373E-13
 -1      1894 2.00919E+01 1.69327E-02 5.50942E-04-6.42025E-02-7.95270E-14-2.59920E-13
 -1      1895 2.01268E+01 3.16606E-02-8.59038E-04-1.08958E-01-1.94161E-13-1.47309E-13
 -1      1896 2.00731E+01 1.48365E-02 1.11856E-03-5.16717E-02-8.70972E-15-2.11641E-13
 -1      1897 2.00536E+01 1.25452E-02 4.36461E-04-4.34960E-02 9.62083E-14-1.38631E-13
 -1      1898 2.00820E+01 2.38430E-02-6.81701E-04-7.62713E-02-5.09484E-14 4.14739E-14
 -1      1899 2.00402E+01 1.08751E-02 8.32245E-04-3.41738E-02 3.74329E-14-1.91329E-13
 -1      1900 2.00270E+01 9.09133E-03 3.39368E-04-2.81986E-02 8.42163E-14-2.47473E-13
 -1      1901 2.00498E+01 1.75815E-02-5.31111E-04-5.16293E-02 3.64674E-14-8.33883E-14
 -1      1902 2.00178E+01 7.78787E-03 6.05571E-04-2.14115E-02 5.14772E-14-3.01991E-13
 -1      1903 2.00093E+01 6.42671E-03 2.59134E-04-1.71465E-02 5.20213E-14-3.24897E-13
 -1      1904 2.00271E+01 1.26739E-02-4.06271E-04-3.34313E-02-5.38879E-14-2.08454E-13
 -1      1905 2.00031E+01 5.42904E-03 4.29816E-04-1.23226E-02 1.94742E-14-4.76738E-13
 -1      1906 1.99981E+01 4.41106E-03 1.94310E-04-9.36092E-03 2.95695E-14-4.02681E-13
 -1      1907 2.00118E+01 8.90393E-03-3.04977E-04-2.02878E-02-3.38542E-14-2.41388E-13
 -1      1908 1.99942E+01 3.66228E-03 2.96221E-04-6.02778E-03 3.39847E-14-4.11209E-13
 -1      1909 1.99914E+01 2.91702E-03 1.42994E-04-4.03960E-03 7.70236E-14-3.61665E-13
 -1      1910 2.00018E+01 6.06475E-03-2.24394E-04-1.10317E-02 6.95797E-14-3.13394E-13
 -1      1911 1.99892E+01 2.36654E-03 1.96684E-04-1.81616E-03 1.97666E-13-2.38752E-13
 -1      1912 1.99881E+01 1.83374E-03 1.03139E-04-5.39856E-04 1.96129E-13-1.83023E-13
 -1      1913 1.99957E+01 3.97028E-03-1.61480E-04-4.70749E-03 1.75948E-13-1.95958E-13
 -1      1914 1.99869E+01 1.43811E-03 1.24073E-04 8.75092E-04 8.11905E-14-1.58051E-13
 -1      1915 1.99869E+01 1.06754E-03 7.27340E-05 1.64296E-03 1.01886E-13-1.44988E-13
 -1      1916 1.99923E+01 2.45967E-03-1.13249E-04-5.49936E-04 1.51703E-13-1.90366E-13
 -1      1917 1.99865E+01 7.90356E-04 7.23212E-05 2.48267E-03 1.14902E-13-1.31871E-13
 -1      1918 1.99871E+01 5.40968E-04 4.99045E-05 2.89706E-03 6.22661E-14-6.61895E-14
 -1      1919 1.99909E+01 1.39767E-03-7.69412E-05 2.04138E-03 1.60058E-13-9.66042E-14
 -1      1920 1.99873E+01 3.52273E-04 3.64027E-05 3.33830E-03-3.65477E-14-8.25595E-14
 -1      1921 1.99882E+01 1.90933E-04 3.29462E-05 3.51443E-03-5.13674E-14-7.06318E-14
 -1      1922 1.99907E+01 6.72876E-04-5.01047E-05 3.52781E-03-7.51819E-15-6.18374E-14
 -1      1923 1.99887E+01 6.63108E-05 1.22387E-05 3.68772E-03-1.15176E-13-6.59958E-14
 -1      1924 1.99898E+01-3.35928E-05 2.03302E-05 3.70860E-03 8.71632E-14-3.50464E-14
 -1      1925 1.99913E+01 1.94721E-04-3.06308E-05 4.25571E-03 6.55656E-16-1.67858E-14
 -1      1926 1.99904E+01-1.14040E-04-3.40952E-06 3.70687E-03 2.99772E-13-1.49431E-13
 -1      1927 1.99916E+01-1.74052E-04 1.06931E-05 3.62936E-03 2.52657E-13-1.67891E-14
 -1      1928 1.99923E+01-1.10057E-04-1.67563E-05 4.47744E-03 1.09278E-13-1.24557E-13
 -1      1929 1.99923E+01-2.26786E-04-1.30374E-05 3.51499E-03 9.16300E-14 2.29149E-14
 -1      1930 1.99934E+01-2.64773E-04 2.86789E-06 3.37447E-03 1.90948E-13 2.57307E-13
 -1      1931 1.99936E+01-3.01147E-04-7.04735E-06 4.36903E-03 2.61261E-13-6.49653E-14
 -1      1932 1.99941E+01-3.03828E-04-1.84164E-05 3.18482E-03 1.36295E-13 1.79295E-13
 -1      1933 1.99951E+01-3.35135E-04-3.98848E-06 2.99853E-03 2.05092E-13 4.96418E-14
 -1      1934 1.99949E+01-4.28274E-04-3.77580E-07 4.04425E-03 1.76137E-13 1.08200E-13
 -1      1935 1.99957E+01-3.72769E-04-2.05640E-05 2.75058E-03 3.83408E-14-8.68057E-14
 -1      1936 1.99966E+01-4.10366E-04-9.82568E-06 2.52028E-03-5.50172E-14-2.26141E-13
 -1      1937 1.99962E+01-5.33878E-04 4.09153E-06 3.56634E-03-1.14134E-14-1.01582E-13
 -1      1938 1.99972E+01-4.57873E-04-1.99665E-05 2.21708E-03-4.55390E-14-3.68565E-13
 -1      1939 1.99979E+01-5.08443E-04-1.41872E-05 1.93216E-03-9.00052E-14-2.59386E-13
 -1      1940 1.99973E+01-6.52381E-04 6.30787E-06 2.95932E-03-1.98852E-13-2.61286E-13
 -1      1941 1.99983E+01-5.45584E-04-1.69546E-05 1.58923E-03-5.99870E-14-2.96142E-13
 -1      1942 1.99988E+01-5.99506E-04-1.86953E-05 1.25490E-03 5.58560E-14-2.73917E-13
 -1      1943 1.99990E+01-8.51767E-04 7.62995E-06 1.47077E-03-1.31602E-13-5.37549E-13
 -1      1944 1.99983E+01-7.77424E-04 1.14227E-05 2.24701E-03-1.26204E-13-2.98196E-13
 -1      1945 2.25917E+01 1.12504E-01 7.20490E-03-2.89605E-01 3.18700E-13 6.89046E-13
 -1      1946 2.26223E+01 1.81737E-01 1.61637E-02-1.27932E-01 3.65057E-13 8.35937E-13
 -1      1947 2.25783E+01 3.10896E-01-5.47651E-03-4.21221E-02 4.52456E-13 5.68651E-13
 -1      1948 2.27523E+01 2.11590E-03 2.14198E-03-4.13078E-01 2.20242E-13 5.46547E-13
 -1      1949 2.26542E+01 5.20184E-02 1.16895E-02-3.58839E-01 2.25256E-13 6.34878E-13
 -1      1950 2.25701E+01 9.49204E-02-4.87621E-03-3.84497E-01 3.06154E-13 4.62312E-13
 -1      1951 2.29889E+01-1.04286E-01-3.95564E-03-3.44369E-01 1.21307E-13 4.48946E-13
 -1      1952 2.28661E+01-5.74023E-02 3.91298E-03-3.79209E-01 1.55932E-13 5.24988E-13
 -1      1953 2.27405E+01-6.49538E-02-3.93296E-03-4.57715E-01 2.07189E-13 3.57684E-13
 -1      1954 2.31632E+01-2.11802E-01-7.64945E-03-8.57450E-02 8.44472E-14 3.81237E-13
 -1      1955 2.30996E+01-1.69610E-01-1.93915E-03-2.12061E-01 9.99461E-14 4.34717E-13
 -1      1956 2.29684E+01-2.19925E-01-9.67278E-04-2.95232E-01 1.27142E-13 2.64074E-13
 -1      1957 2.31470E+01-2.91830E-01-7.49444E-03 3.43824E-01 7.85075E-14 3.63479E-13
 -1      1958 2.32119E+01-2.70324E-01-5.62165E-03 1.33464E-01 4.58938E-14 3.62765E-13
 -1      1959 2.31361E+01-3.58566E-01 3.94277E-03 9.10719E-02 8.06490E-14 2.40899E-13
 -1      1960 2.28440E+01-2.87823E-01-2.75600E-03 8.54651E-01 1.25263E-13 4.36330E-13
 -1      1961 2.30780E+01-3.12703E-01-7.23238E-03 6.03793E-01 1.02869E-13 4.43163E-13
 -1      1962 2.31291E+01-4.23000E-01 9.29867E-03 6.44719E-01 8.60874E-14 2.97215E-13
 -1      1963 2.22370E+01-1.41622E-01 4.53963E-03 1.25414E+00 1.50662E-13 3.89928E-13
 -1      1964 2.26276E+01-2.31850E-01-5.78614E-03 1.05790E+00 1.48949E-13 4.51961E-13
 -1      1965 2.28616E+01-3.29416E-01 1.26388E-02 1.20933E+00 1.47883E-13 4.11655E-13
 -1      1966 2.14494E+01 1.40624E-01 6.56223E-03 1.28623E+00 9.15266E-14 3.28992E-13
 -1      1967 2.19077E+01 4.42098E-03-2.16526E-03 1.26839E+00 1.25316E-13 3.57016E-13
 -1      1968 2.23326E+01-2.81936E-02 9.92693E-03 1.51861E+00 1.57666E-13 4.26593E-13
 -1      1969 2.07693E+01 4.33776E-01-3.27589E-04 7.96172E-01 2.51276E-13 1.91464E-13
 -1      1970 2.11411E+01 3.22993E-01 3.65001E-03 1.02520E+00 1.76510E-13 2.37014E-13
 -1      1971 2.16993E+01 3.90946E-01-3.84113E-03 1.29937E+00 2.24247E-13 2.85331E-13
 -1      1972 2.05374E+01 5.51380E-01-9.88018E-03-8.47116E-02 2.66480E-13-2.35437E-14
 -1      1973 2.06606E+01 5.43470E-01 1.02714E-02 3.20584E-01 2.85782E-13 8.41831E-14
 -1      1974 2.12658E+01 7.14381E-01-1.60598E-02 4.98925E-01 3.43978E-13 5.73456E-14
 -1      1975 2.09135E+01 4.07647E-01-1.18756E-02-9.54394E-01 2.65517E-13-2.84658E-13
 -1      1976 2.07144E+01 5.13330E-01 1.35574E-02-5.62180E-01 2.70620E-13-1.65985E-13
 -1      1977 2.12957E+01 7.31373E-01-1.52908E-02-5.73228E-01 3.53353E-13-1.52189E-13
 -1      1978 2.17326E+01 1.08023E-01-4.18794E-03-1.41855E+00 1.12897E-13-4.06359E-13
 -1      1979 2.12830E+01 2.56419E-01 9.91856E-03-1.21050E+00 1.97472E-13-3.08835E-13
 -1      1980 2.17908E+01 4.28104E-01-3.80939E-03-1.40751E+00 2.58037E-13-3.06740E-13
 -1      1981 2.26349E+01-1.62571E-01 6.04059E-03-1.35936E+00-6.29826E-14-4.48645E-13
 -1      1982 2.21062E+01-5.46408E-02 1.22914E-03-1.37866E+00 1.81630E-14-4.86397E-13
 -1      1983 2.24892E+01 7.13790E-04 5.92742E-03-1.66827E+00 8.26478E-14-4.03537E-13
 -1      1984 2.33089E+01-2.93878E-01 1.09531E-02-9.37999E-01-2.69940E-14-5.35039E-13
 -1      1985 2.28710E+01-2.59541E-01-7.29030E-03-1.11103E+00 2.14256E-14-4.45647E-13
 -1      1986 2.30830E+01-3.24831E-01 5.98943E-03-1.38006E+00 1.59889E-14-4.98180E-13
 -1      1987 2.36263E+01-2.91703E-01 1.01592E-02-4.07262E-01 1.06156E-14-5.68400E-13
 -1      1988 2.33721E+01-3.14080E-01-1.17597E-02-6.27156E-01-5.31641E-14-5.99942E-13
 -1      1989 2.34031E+01-4.44291E-01 2.03349E-03-8.03294E-01 4.98481E-14-5.68100E-13
 -1      1990 2.36103E+01-2.17836E-01 6.19151E-03 4.92112E-02-2.68709E-15-4.93453E-13
 -1      1991 2.35504E+01-2.63860E-01-1.18712E-02-1.41408E-01 4.93373E-14-4.74685E-13
 -1      1992 2.34344E+01-3.98899E-01-1.44932E-03-2.05743E-01 3.98206E-15-5.53103E-13
 -1      1993 2.33547E+01-1.28722E-01 2.18952E-03 3.56846E-01-5.08543E-14-4.60652E-13
 -1      1994 2.34484E+01-1.74061E-01-9.36887E-03 2.26638E-01-5.60116E-14-4.65278E-13
 -1      1995 2.32433E+01-2.77325E-01-2.66985E-03 2.57204E-01-4.20506E-14-4.51839E-13
 -1      1996 2.29612E+01-5.45215E-02-4.38325E-04 5.17871E-01 2.43670E-14-3.22561E-13
 -1      1997 2.31518E+01-8.84659E-02-5.92792E-03 4.47862E-01-1.57448E-14-4.18025E-13
 -1      1998 2.29140E+01-1.50485E-01-2.33809E-03 5.42750E-01-3.92824E-14-4.45185E-13
 -1      1999 2.25120E+01-4.09690E-03-1.66984E-03 5.67833E-01-3.43154E-14-2.76250E-13
 -1      2000 2.27482E+01-2.50895E-02-2.71082E-03 5.43902E-01 1.26891E-14-2.46882E-13
 -1      2001 2.25184E+01-5.18495E-02-1.51694E-03 6.73090E-01-2.94686E-14-3.32928E-13
 -1      2002 2.20636E+01 2.49376E-02-1.94664E-03 5.47155E-01 1.50339E-13-3.34665E-13
 -1      2003 2.23080E+01 1.43445E-02-2.68345E-04 5.52946E-01 2.59482E-14-3.00373E-13
 -1      2004 2.21088E+01 1.17663E-02-8.48214E-04 6.93166E-01 4.01360E-14-2.97357E-13
 -1      2005 2.16498E+01 3.84748E-02-1.73013E-03 4.88610E-01 2.81561E-14-4.05663E-13
 -1      2006 2.18790E+01 3.48976E-02 1.31356E-03 5.10691E-01 1.56585E-13-3.59541E-13
 -1      2007 2.17190E+01 4.62233E-02-4.78278E-04 6.46524E-01 1.82317E-13-3.11256E-13
 -1      2008 2.12874E+01 4.21945E-02-1.33591E-03 4.14691E-01-2.57793E-13-3.29760E-13
 -1      2009 2.14894E+01 4.27738E-02 2.16540E-03 4.43737E-01-1.77766E-13-4.74310E-13
 -1      2010 2.13683E+01 6.05008E-02-3.44278E-04 5.66410E-01-1.27358E-13-2.69253E-13
 -1      2011 2.09822E+01 4.03737E-02-9.33144E-04 3.39100E-01-1.09656E-13-3.77370E-14
 -1      2012 2.11524E+01 4.30927E-02 2.48739E-03 3.69353E-01-2.07957E-13-2.76769E-13
 -1      2013 2.10654E+01 6.24879E-02-3.40220E-04 4.74908E-01-2.78005E-13-1.78975E-13
 -1      2014 2.07327E+01 3.58468E-02-5.92929E-04 2.69245E-01-1.31514E-13 3.74633E-14
 -1      2015 2.08714E+01 3.94304E-02 2.46975E-03 2.97530E-01-6.65223E-14 3.27052E-14
 -1      2016 2.08122E+01 5.78612E-02-3.82357E-04 3.85129E-01-1.37907E-13 4.88917E-15
 -1      2017 2.05339E+01 3.03338E-02-3.33666E-04 2.08482E-01 1.11226E-13 2.26205E-13
 -1      2018 2.06440E+01 3.40443E-02 2.26083E-03 2.33303E-01-1.49564E-14 1.47779E-13
 -1      2019 2.06061E+01 5.02625E-02-4.22710E-04 3.03929E-01-3.42335E-14 7.55564E-14
 -1      2020 2.03791E+01 2.47994E-02-1.49820E-04 1.57754E-01 3.14302E-14 1.36065E-13
 -1      2021 2.04643E+01 2.82495E-02 1.96313E-03 1.78630E-01 9.10264E-14 2.02091E-13
 -1      2022 2.04421E+01 4.18349E-02-4.41448E-04 2.34186E-01 1.12870E-13 1.83615E-13
 -1      2023 2.02611E+01 1.97335E-02-2.74802E-05 1.16688E-01 1.25265E-13 7.09351E-14
 -1      2024 2.03256E+01 2.27494E-02 1.64125E-03 1.33702E-01 6.86122E-14 1.29412E-13
 -1      2025 2.03144E+01 3.37352E-02-4.35343E-04 1.76437E-01 8.04217E-14 2.19192E-13
 -1      2026 2.01730E+01 1.53444E-02 4.83273E-05 8.42658E-02 1.23014E-13-4.40863E-14
 -1      2027 2.02207E+01 1.78748E-02 1.33237E-03 9.77860E-02 1.56548E-13 4.41501E-14
 -1      2028 2.02171E+01 2.65155E-02-4.08909E-04 1.29958E-01 1.81412E-13 1.37598E-13
 -1      2029 2.01087E+01 1.16812E-02 9.07396E-05 5.92277E-02-4.74297E-14-1.59088E-13
 -1      2030 2.01432E+01 1.37410E-02 1.05541E-03 6.97364E-02 4.78172E-14-2.04259E-13
 -1      2031 2.01443E+01 2.03771E-02-3.69022E-04 9.34286E-02 1.24885E-13-9.04277E-14
 -1      2032 2.00629E+01 8.70912E-03 1.10247E-04 4.02903E-02-1.33113E-14-3.06054E-13
 -1      2033 2.00872E+01 1.03452E-02 8.17973E-04 4.82919E-02-5.13576E-14-1.85042E-13
 -1      2034 2.00911E+01 1.53300E-02-3.22225E-04 6.53266E-02 1.27249E-14-1.52468E-13
 -1      2035 2.00312E+01 6.35343E-03 1.14779E-04 2.62641E-02-9.25350E-14-2.01213E-13
 -1      2036 2.00478E+01 7.62536E-03 6.20977E-04 3.22336E-02 1.03657E-14-2.89257E-13
 -1      2037 2.00532E+01 1.12874E-02-2.73681E-04 4.41484E-02-1.56763E-14-2.82920E-13
 -1      2038 2.00102E+01 4.52483E-03 1.10097E-04 1.61046E-02-3.82802E-15-1.09486E-13
 -1      2039 2.00210E+01 5.49386E-03 4.61748E-04 2.04637E-02-5.05644E-14-5.25814E-14
 -1      2040 2.00269E+01 8.12064E-03-2.26976E-04 2.85196E-02-6.70751E-14-1.87521E-13
 -1      2041 1.99968E+01 3.13340E-03 1.00254E-04 8.92789E-03 1.81005E-13-8.64173E-14
 -1      2042 2.00035E+01 3.85686E-03 3.35892E-04 1.20368E-02 1.15368E-13-8.66154E-14
 -1      2043 2.00093E+01 5.69041E-03-1.84313E-04 1.72436E-02 1.49595E-13-1.54132E-15
 -1      2044 1.99890E+01 2.09582E-03 8.80007E-05 4.00705E-03 2.28156E-13-2.62990E-13
 -1      2045 1.99927E+01 2.62448E-03 2.38424E-04 6.16433E-03 2.42719E-13-7.20490E-14
 -1      2046 1.99981E+01 3.86259E-03-1.46826E-04 9.31420E-03 2.32105E-13 1.32631E-13
 -1      2047 1.99851E+01 1.33864E-03 7.51288E-05 7.57599E-04-1.55950E-13-2.25674E-13
 -1      2048 1.99868E+01 1.71584E-03 1.64416E-04 2.20495E-03-2.60201E-14-3.22367E-13
 -1      2049 1.99916E+01 2.51640E-03-1.14882E-04 3.90701E-03 7.17031E-14 4.15998E-15
 -1      2050 1.99838E+01 7.99268E-04 6.27335E-05-1.28066E-03 7.35819E-14-2.32504E-13
 -1      2051 1.99841E+01 1.06099E-03 1.09332E-04-3.51637E-04-1.58332E-14-2.19841E-13
 -1      2052 1.99882E+01 1.54745E-03-8.83496E-05 3.61941E-04 4.36267E-15-2.86807E-13
 -1      2053 1.99841E+01 4.25623E-04 5.14129E-05-2.46285E-03-1.84022E-13-1.67310E-13
 -1      2054 1.99836E+01 6.01154E-04 6.91806E-05-1.90331E-03-9.40260E-14-2.75794E-13
 -1      2055 1.99871E+01 8.68134E-04-6.67950E-05-1.83886E-03-7.15480E-14-2.72023E-13
 -1      2056 1.99855E+01 1.75142E-04 4.14104E-05-3.05713E-03-1.13011E-13 8.62538E-14
 -1      2057 1.99845E+01 2.87912E-04 4.05584E-05-2.75393E-03-8.10092E-14-5.90016E-15
 -1      2058 1.99873E+01 4.06407E-04-4.96260E-05-3.09332E-03-2.16900E-13-2.30501E-14
 -1      2059 1.99874E+01 1.33655E-05 3.27147E-05-3.26081E-03 4.76807E-16 4.21673E-14
 -1      2060 1.99862E+01 8.19313E-05 2.06229E-05-3.13015E-03-5.78282E-14-2.71926E-14
 -1      2061 1.99884E+01 1.03909E-04-3.61900E-05-3.70030E-03-7.46979E-14 4.20985E-14
 -1      2062 1.99896E+01-8.76170E-05 2.51330E-05-3.21380E-03-1.60255E-13 1.58247E-13
 -1      2063 1.99883E+01-4.85921E-05 7.04110E-06-3.19594E-03-1.03441E-13 6.40712E-14
 -1      2064 1.99899E+01-8.63624E-05-2.58350E-05-3.87782E-03-1.27265E-13 1.98785E-13
 -1      2065 1.99918E+01-1.50827E-04 1.83532E-05-3.00939E-03 2.35099E-13-1.98211E-13
 -1      2066 1.99905E+01-1.29600E-04-2.07131E-06-3.06440E-03 9.99171E-14 5.89203E-15
 -1      2067 1.99917E+01-2.02486E-04-1.79378E-05-3.77830E-03 1.98765E-13 1.45019E-13
 -1      2068 1.99939E+01-1.96088E-04 1.20652E-05-2.70216E-03 3.94597E-13-5.00999E-13
 -1      2069 1.99926E+01-1.82896E-04-8.16627E-06-2.80702E-03 3.55849E-13-3.15709E-13
 -1      2070 1.99935E+01-2.76124E-04-1.19124E-05-3.50053E-03 4.31977E-13-3.47427E-14
 -1      2071 1.99957E+01-2.41056E-04 6.45799E-06-2.31340E-03 2.88743E-13-6.26891E-13
 -1      2072 1.99947E+01-2.27789E-04-1.21580E-05-2.46033E-03 2.44255E-13-5.20162E-13
 -1      2073 1.99952E+01-3.34838E-04-7.12083E-06-3.09884E-03 3.40041E-13-1.32922E-13
 -1      2074 1.99973E+01-3.00252E-04 2.22133E-06-1.83788E-03-4.54055E-14-5.27956E-13
 -1      2075 1.99964E+01-2.80279E-04-1.40103E-05-2.03175E-03 7.05718E-14-6.37753E-13
 -1      2076 1.99967E+01-4.01030E-04-2.37461E-06-2.59031E-03 8.24722E-14-2.26691E-13
 -1      2077 1.99985E+01-3.84103E-04-4.47183E-06-1.25462E-03-1.70444E-13-1.23218E-13
 -1      2078 1.99979E+01-3.50112E-04-1.23894E-05-1.51010E-03-7.64628E-14-2.36820E-13
 -1      2079 1.99979E+01-4.94053E-04 1.45824E-06-1.97087E-03-2.06267E-13 1.29396E-13
 -1      2080 1.99992E+01-4.55642E-04-1.18972E-05-7.43150E-04-6.24143E-15 2.36324E-13
 -1      2081 1.99988E+01-4.33533E-04-9.76357E-06-1.04700E-03-1.58685E-14 1.15503E-13
 -1      2082 1.99988E+01-5.99505E-04 4.97899E-06-1.39858E-03-1.56918E-13 5.54856E-13
 -1      2083 1.99993E+01-6.89192E-04 1.78965E-06-9.27156E-04-6.69148E-14 8.39657E-13
 -1      2084 1.99998E+01-3.67904E-03 6.54071E-06-1.99942E-03 1.44063E-13 1.88031E-13
 -1      2085 1.99997E+01-3.04078E-03-7.04670E-06-1.99234E-03-6.06682E-14 4.69314E-14
 -1      2086 1.99996E+01-2.51928E-03 1.86932E-06-1.91172E-03-1.67620E-13 7.29978E-14
 -1      2087 1.99995E+01-1.92338E-03-1.19274E-05-1.75655E-03-2.68705E-13 6.69164E-13
 -1      2088 1.99996E+01-2.60537E-03-1.43086E-06-2.45886E-03-2.69129E-13 2.60001E-13
 -1      2089 1.99994E+01-1.54089E-03-1.82629E-06-1.52221E-03-1.56506E-13 5.12839E-13
 -1      2090 1.99993E+01-1.04901E-03-1.21281E-05-1.24279E-03-1.22351E-13 5.62845E-13
 -1      2091 1.99991E+01-1.01411E-03-9.00016E-06-1.50512E-03-1.54894E-13 5.02577E-13
 -1      2092 1.99993E+01-1.72855E-03 1.94843E-06-2.09935E-03-3.57009E-13 5.18265E-13
 -1      2093 2.00000E+01-4.74861E-03 1.17139E-05-1.81250E-03-2.07863E-14-1.37825E-13
 -1      2094 2.00000E+01-4.15875E-03 2.32543E-06-1.92259E-03 7.25776E-14 6.67714E-14
 -1      2095 1.99999E+01-3.59973E-03-5.74631E-06-2.45427E-03-9.31705E-14-7.83103E-14
 -1      2096 2.00002E+01-5.64777E-03 1.63687E-05-1.40204E-03 1.76871E-13 2.13672E-14
 -1      2097 2.00001E+01-5.16232E-03 1.02139E-05-1.60460E-03 3.52596E-14 1.62674E-13
 -1      2098 2.00002E+01-4.49452E-03-1.03100E-05-2.13365E-03-7.64948E-14-3.75421E-15
 -1      2099 2.00003E+01-6.25965E-03 1.95235E-05-8.36072E-04 1.52843E-13-2.37755E-14
 -1      2100 2.00002E+01-5.94584E-03 1.62586E-05-1.09900E-03 2.14138E-13-2.67561E-14
 -1      2101 2.00004E+01-5.20892E-03-1.39864E-05-1.56055E-03 4.47870E-14-2.36254E-14
 -1      2102 2.00003E+01-6.52228E-03 2.07552E-05-1.83504E-04-5.69235E-14-2.61324E-13
 -1      2103 2.00003E+01-6.41503E-03 1.97636E-05-4.76241E-04 5.54635E-14-1.49354E-13
 -1      2104 2.00005E+01-5.66504E-03-1.61942E-05-8.18674E-04-7.26296E-14-4.80304E-14
 -1      2105 2.00003E+01-6.40994E-03 1.97574E-05 4.87416E-04-1.45129E-15-2.67878E-13
 -1      2106 2.00003E+01-6.52093E-03 2.07488E-05 1.94962E-04 4.94619E-14-2.12512E-13
 -1      2107 2.00006E+01-5.82005E-03-1.69242E-05 7.15222E-06-2.18861E-13-2.96865E-13
 -1      2108 2.00002E+01-5.93474E-03 1.63738E-05 1.10863E-03-1.33461E-15-5.24389E-14
 -1      2109 2.00003E+01-6.25211E-03 1.93609E-05 8.46643E-04-9.33993E-14-1.00163E-13
 -1      2110 2.00005E+01-5.65976E-03-1.61150E-05 8.32277E-04-7.10882E-14-2.58460E-13
 -1      2111 2.00001E+01-5.16210E-03 1.02753E-05 1.60441E-03 3.01200E-13 2.34391E-14
 -1      2112 2.00002E+01-5.64088E-03 1.62244E-05 1.40603E-03 1.07779E-13 5.47279E-14
 -1      2113 2.00004E+01-5.20414E-03-1.40391E-05 1.56681E-03 1.29989E-13-8.83349E-15
 -1      2114 1.99999E+01-4.14867E-03 2.02869E-06 1.92383E-03 4.78163E-13 5.71420E-13
 -1      2115 2.00000E+01-4.74893E-03 1.16997E-05 1.81281E-03 3.40760E-13 3.67955E-13
 -1      2116 2.00002E+01-4.49444E-03-1.02517E-05 2.13377E-03 4.71125E-13 2.26132E-13
 -1      2117 1.99997E+01-3.02006E-03-7.19980E-06 1.99093E-03 3.87444E-13 1.65017E-13
 -1      2118 1.99998E+01-3.65920E-03 6.60096E-06 2.00038E-03 4.14682E-13 4.69519E-13
 -1      2119 1.99999E+01-3.59070E-03-5.44062E-06 2.45567E-03 3.30157E-13 4.45041E-13
 -1      2120 1.99995E+01-1.88678E-03-7.22824E-06 1.76261E-03 1.36885E-15-3.18113E-13
 -1      2121 1.99996E+01-2.50032E-03 3.38277E-06 1.90775E-03 1.48764E-13-1.93895E-13
 -1      2122 1.99996E+01-2.58968E-03-6.25204E-07 2.45294E-03 7.26592E-15-2.32862E-13
 -1      2123 9.53052E+00-5.37323E+00-1.52371E-01 6.29267E+00 5.71321E-13 1.15017E-12
 -1      2124 5.98269E+00-6.77520E+00-3.88170E-01 4.98970E+00 3.66818E-13 1.13007E-12
 -1      2125 2.59924E-01-7.28658E+00-3.99899E-01 7.34693E-01 1.43704E-13 1.23834E-12
 -1      2126 2.72177E-01-7.29379E+00-3.98200E-01-6.65605E-01-1.54515E-13 1.09140E-12
 -1      2127 2.93398E+00-6.52736E+00-2.98199E-01 3.82346E+00 4.71789E-13 1.36186E-12
 -1      2128 1.13978E+00-7.56098E+00-4.64928E-01 2.32594E+00 1.12299E-13 1.39960E-12
 -1      2129 1.78774E+01-3.42958E+00-2.38939E-02 6.86068E+00 9.30922E-13 1.10856E-12
 -1      2130 1.35505E+01-5.33701E+00-3.03641E-01 6.11979E+00 6.61582E-13 1.09596E-12
 -1      2131 2.63252E+01-1.24490E+00 8.15032E-02 5.90133E+00 1.03390E-12 6.78957E-13
 -1      2132 2.13676E+01-2.85124E+00-1.95773E-01 5.90054E+00 9.96314E-13 8.66696E-13
 -1      2133 1.94910E+01 4.13380E+00-3.01661E-02-7.21079E-01-3.90122E-13-7.21173E-13
 -1      2134 1.99967E+01 4.06286E+00-1.77588E-02-9.64930E-01-4.64202E-13-6.17981E-13
 -1      2135 2.05104E+01 3.34206E+00-7.91494E-03-8.97337E-01-5.09974E-13-5.06237E-13
 -1      2136 1.94493E+01 3.78134E+00-9.53884E-03-5.22533E-01-3.84716E-13-7.04325E-13
 -1      2137 3.77188E+01 5.12398E+00 2.42102E-01 1.41747E+00 1.33690E-12-8.29337E-14
 -1      2138 3.51650E+01 3.78779E+00 1.01216E-01 2.31665E+00 1.33862E-12 2.20046E-13
 -1      2139 4.12600E+01 7.09776E+00 4.56547E-01 2.15941E-01 1.36979E-12-4.55608E-13
 -1      2140 3.91548E+01 6.73796E+00 2.20867E-01 1.19401E+00 1.42719E-12-1.16296E-13
 -1      2141 3.97865E+01 6.78762E+00 2.49311E-01-1.32559E+00 1.30590E-12-7.77711E-13
 -1      2142 4.13123E+01 7.14186E+00 4.38453E-01-2.42558E-01 1.29075E-12-5.35724E-13
 -1      2143 3.51019E+01 4.30135E+00 2.37414E-02-1.66433E+00 1.19371E-12-7.29417E-13
 -1      2144 3.85256E+01 5.72184E+00 3.56814E-01-1.39336E+00 1.23046E-12-7.28528E-13
 -1      2145 2.97677E+01 7.30539E-02-1.62670E-02-3.86295E+00 1.11408E-12-9.24927E-13
 -1      2146 3.36586E+01 1.85355E+00 1.24745E-01-3.15057E+00 1.11155E-12-7.79210E-13
 -1      2147 2.09191E+01-3.00303E+00-2.01299E-01-6.03139E+00 1.10195E-12-1.33282E-12
 -1      2148 2.61642E+01-1.50987E+00 2.69495E-02-5.96923E+00 1.07375E-12-1.11577E-12
 -1      2149 1.25773E+01-5.37047E+00-3.58182E-01-6.10211E+00 8.27116E-13-1.42442E-12
 -1      2150 1.70655E+01-3.49846E+00-3.97062E-02-6.99240E+00 1.07170E-12-1.51290E-12
 -1      2151 6.33349E+00-6.39893E+00-3.07963E-01-5.19602E+00 3.21798E-13-1.34556E-12
 -1      2152 9.45001E+00-5.35012E+00-1.65507E-01-6.24436E+00 7.06879E-13-1.50245E-12
 -1      2153 9.98236E-01-7.50142E+00-4.91982E-01-2.13432E+00 2.18436E-14-1.36724E-12
 -1      2154 2.70367E+00-6.28984E+00-3.12457E-01-3.76538E+00 3.67428E-13-1.37385E-12
 -1      2155 6.62388E-01-6.03985E+00-2.66994E-01 1.04788E+00-2.22544E-13-1.38711E-12
 -1      2156 2.64839E-01-7.25554E+00-4.76695E-01-6.50435E-01 1.93179E-14-1.37584E-12
 -1      2157 1.85807E+00-4.68144E+00-2.03030E-01-1.78047E+00-8.29892E-14-1.54388E-12
 -1      2158 4.16604E+00-6.29455E+00-3.29518E-01 4.57411E+00-6.91558E-13-1.33782E-12
 -1      2159 2.21918E+00-6.34576E+00-3.02008E-01 3.29350E+00-3.15192E-13-1.33515E-12
 -1      2160 1.10543E+01-5.02666E+00-1.45288E-01 6.51974E+00-9.92539E-13-1.28061E-12
 -1      2161 7.54463E+00-6.40886E+00-3.58404E-01 5.46005E+00-6.78013E-13-1.21364E-12
 -1      2162 1.94100E+01-3.35410E+00-2.04385E-02 6.92966E+00-1.07292E-12-1.28053E-12
 -1      2163 1.44645E+01-5.06881E+00-3.19343E-01 6.21961E+00-1.03084E-12-1.26987E-12
 -1      2164 1.53411E+01-5.52423E+00-4.49277E-02 6.88582E+00-2.79665E-13-9.76687E-13
 -1      2165 2.87042E+01-1.37420E-02 1.94482E-01 5.84775E+00-1.31262E-12-1.20837E-12
 -1      2166 2.37954E+01-2.12800E+00-1.41132E-01 5.56589E+00-1.16274E-12-1.16818E-12
 -1      2167 3.53443E+01 2.97886E+00 2.97473E-01 3.81877E+00-1.37788E-12-8.69860E-13
 -1      2168 3.12166E+01 1.40394E+00 7.01486E-03 4.28779E+00-1.35714E-12-1.05826E-12
 -1      2169 3.89797E+01 5.72123E+00 2.46254E-01 1.56880E+00-1.42270E-12-6.15008E-13
 -1      2170 3.69788E+01 4.75222E+00 2.24470E-01 2.84299E+00-1.48098E-12-8.77964E-13
 -1      2171 3.88000E+01 7.43683E+00 1.78732E-01-1.32634E-02-1.35236E-12-3.35669E-13
 -1      2172 3.91207E+01 7.01930E+00 2.91102E-01 8.05888E-01-1.42786E-12-5.81979E-13
 -1      2173 3.88568E+01 6.09905E+00 2.97685E-01-1.49043E+00-1.25749E-12 1.11577E-14
 -1      2174 3.87566E+01 6.96559E+00 1.51108E-01-1.39227E-01-1.30068E-12-3.33678E-13
 -1      2175 3.43295E+01 3.34733E+00 5.65719E-02-2.59130E+00-1.09486E-12 2.07390E-13
 -1      2176 3.79988E+01 4.70787E+00 3.17982E-01-2.19126E+00-1.10331E-12 7.50511E-14
 -1      2177 3.48952E+01 5.62326E+00 2.62184E-01 4.02383E-01-1.12332E-12-4.00069E-13
 -1      2178 2.80923E+01-1.32634E-01-4.49224E-02-4.96650E+00-9.99645E-13 6.25611E-13
 -1      2179 3.23585E+01 1.34001E+00 1.72000E-01-4.31714E+00-1.04280E-12 2.87659E-13
 -1      2180 2.09927E+01-3.25828E+00-1.85107E-01-5.82354E+00-6.61360E-13 8.58758E-13
 -1      2181 2.55166E+01-1.26185E+00 1.29521E-01-6.20869E+00-8.54650E-13 8.86069E-13
 -1      2182 2.80999E+01-2.30563E+00 1.25757E-01-3.79079E+00-4.02178E-13-1.07692E-14
 -1      2183 1.20279E+01-5.63310E+00-3.75816E-01-5.96355E+00-6.85674E-13 9.67892E-13
 -1      2184 1.65307E+01-3.97104E+00-6.87122E-02-6.86526E+00-6.63913E-13 1.10126E-12
 -1      2185 5.60995E+00-6.98540E+00-4.36587E-01-4.79317E+00-4.16667E-13 1.08205E-12
 -1      2186 8.77300E+00-5.61833E+00-2.22165E-01-5.90498E+00-7.17093E-13 9.44071E-13
 -1      2187 1.27579E+01-5.75443E+00-1.04872E-01-6.73691E+00-1.79246E-13 8.82936E-13
 -1      2188 9.28533E-01-7.67120E+00-4.70213E-01-2.07732E+00-1.28675E-13 1.21281E-12
 -1      2189 2.47588E+00-6.70597E+00-3.46235E-01-3.55100E+00-3.80196E-13 1.26960E-12
 -1      2190 1.71454E+00-5.02543E+00-2.17986E-01-1.70646E+00-9.57567E-15 1.26826E-12
 -1      2191 3.38981E+01 2.16144E+00 2.26606E-01 3.94304E+00 1.28129E-12 3.80473E-13
 -1      2192 2.96239E+01 4.68300E-01-2.86079E-02 4.24509E+00 1.23787E-12 5.25247E-13
 -1      2193 2.18852E+01-4.62427E+00 1.13876E-02 5.88299E+00 3.15414E-13 4.33820E-13
 -1      2194 2.27715E+01 1.06744E+00-1.90606E-02-8.85744E-01-5.56621E-13 4.00261E-13
 -1      2195 2.89049E+01-1.76854E+00 1.35667E-01 3.45408E+00 6.95749E-13 5.60663E-14
 -1      2196 3.32482E+01 2.34042E+00 2.20070E-01 6.68986E-01 1.16067E-12-1.72529E-13
 -1      2197 2.24340E+01 1.28924E+00-2.31296E-02-8.01932E-01-5.80643E-13 9.34322E-14
 -1      2198 6.21455E+00-5.35638E+00-1.37617E-01 5.40715E+00-6.47815E-14 1.19349E-12
 -1      2199 1.93862E+00-4.96357E+00-2.01923E-01 1.98843E+00-2.97540E-14 1.43890E-12
 -1      2200 1.99993E+01-1.51236E-03-9.11591E-06 1.71307E-03-1.31490E-13-5.52420E-13
 -1      2201 1.38364E+01-5.67791E+00-7.93758E-02 6.70539E+00-1.16573E-15 8.60152E-13
 -1      2202 5.60368E+00-5.67861E+00-1.98303E-01-5.09145E+00-8.22675E-14 1.20681E-12
 -1      2203 2.09270E+01-4.80561E+00 3.44845E-03-6.03579E+00-2.01894E-13 5.78149E-13
 -1      2204 3.27801E+01 1.48820E+00 1.88568E-01-1.32550E+00-7.99846E-13-2.88436E-13
 -1      2205 3.55099E+01 7.69943E+00 2.04733E-01 1.80807E-01-1.40488E-12-3.66068E-13
 -1      2206 3.56270E+01 6.85140E+00 2.80753E-01-7.19152E-02-1.42514E-12-3.36509E-13
 -1      2207 3.43939E+01 3.36973E+00 2.88769E-01 7.03649E-01-1.21547E-12-3.39007E-13
 -1      2208 2.35256E+01-4.18330E+00 3.42620E-02 5.51309E+00-5.53335E-13-7.53786E-13
 -1      2209 2.45422E+00-5.03071E+00-1.55812E-01 2.46754E+00-1.36585E-13-1.41565E-12
 -1      2210 3.00218E+00-3.02650E+00 4.62280E-02 1.67496E+00-1.55292E-14-1.43685E-12
 -1      2211 4.39228E+00-3.54498E+00-5.52859E-02 3.98374E+00 7.32192E-14-1.31267E-12
 -1      2212 6.29250E+00-5.16093E+00-1.29549E-01-5.42479E+00 5.49560E-15-1.42936E-12
 -1      2213 1.36098E+01-5.63056E+00-1.30841E-01-6.88740E+00 9.11493E-14-1.27143E-12
 -1      2214 2.13355E+01-4.68393E+00 2.99568E-02-6.11337E+00 4.18110E-13-9.20986E-13
 -1      2215 2.87671E+01-2.02697E+00 1.45749E-01-3.42313E+00 6.83453E-13-5.30520E-13
 -1      2216 3.31516E+01 2.44215E+00 1.14531E-01-3.13654E-01 9.09495E-13-2.45359E-13
 -1      2217 3.53952E+01 6.71308E+00 2.13122E-01 3.81473E-01 1.27087E-12-3.11251E-13
 -1      2218 3.53494E+01 6.13836E+00 2.02623E-01-4.53728E-01 1.44945E-12-2.90740E-13
 -1      2219 3.69057E+01 8.15335E+00 3.73279E-01-9.86425E-02 1.48576E-12-3.71918E-13
 -1      2220 8.02632E+00-5.26450E+00-1.18529E-01 6.06547E+00-1.26177E-13-1.22596E-12
 -1      2221 3.05762E+01-7.49814E-01 1.72506E-01 2.80693E+00-8.77437E-13-4.17222E-13
 -1      2222 2.23646E+01 4.59210E-01 3.03318E-03-1.52983E-01 4.40490E-13 2.89820E-13
 -1      2223 2.24504E+01 6.69175E-01 2.09637E-02 1.27865E-01 4.95449E-13 3.49415E-13
 -1      2224 1.76673E+01 4.09909E+00-1.24865E-02 6.65294E-02-9.97406E-14-8.43011E-13
 -1      2225 1.79978E+01 4.00931E+00-1.19830E-03 1.33146E-02-1.64387E-13-8.31936E-13
 -1      2226 1.83835E+01 3.80499E+00-1.54751E-02-2.60842E-02-2.12577E-13-8.06214E-13
 -1      2227 1.88277E+01 3.67190E+00-3.80895E-03-1.35285E-01-2.87231E-13-7.56384E-13
 -1      2228 1.82633E+01 3.58310E+00 9.04769E-04 1.33941E-01-1.71519E-13-7.67226E-13
 -1      2229 1.71596E+01 4.32297E+00-4.85558E-03-4.54387E-03 1.03411E-13-8.54734E-13
 -1      2230 1.71542E+01 4.32503E+00-5.11481E-03-1.05575E-03 3.88097E-14-8.64909E-13
 -1      2231 1.74401E+01 4.22075E+00-1.94848E-03-4.74890E-02 1.96132E-13-8.37250E-13
 -1      2232 1.72549E+01 4.27039E+00-8.98281E-03-6.09549E-02 1.39080E-13-8.51931E-13
 -1      2233 1.72164E+01 4.06090E+00 5.26805E-03-6.78636E-02 1.14139E-13-8.11516E-13
 -1      2234 1.80263E+01 3.99128E+00-1.23251E-03-9.68662E-03 3.03290E-13-7.68056E-13
 -1      2235 1.76959E+01 4.08238E+00-1.25209E-02-6.51422E-02 2.37842E-13-8.11070E-13
 -1      2236 1.75995E+01 3.88225E+00 3.35189E-03-1.50972E-01 2.04355E-13-7.80729E-13
 -1      2237 1.88623E+01 3.64787E+00-3.86614E-03 1.45428E-01 4.37145E-13-6.32384E-13
 -1      2238 1.84158E+01 3.78356E+00-1.55520E-02 3.30869E-02 3.58341E-13-7.06199E-13
 -1      2239 1.82956E+01 3.56021E+00 6.91229E-04-1.31383E-01 3.18291E-13-6.77525E-13
 -1      2240 1.98596E+01 3.19767E+00-1.08763E-02 4.13856E-01 5.40766E-13-4.82537E-13
 -1      2241 1.93423E+01 3.38859E+00-1.82098E-02 2.48952E-01 4.67998E-13-5.76642E-13
 -1      2242 1.92237E+01 3.12565E+00-3.69079E-04 1.09378E-02 4.26653E-13-5.50227E-13
 -1      2243 2.09576E+01 2.60329E+00-2.37368E-02 7.41759E-01 6.32366E-13-2.52414E-13
 -1      2244 2.03969E+01 2.88631E+00-2.05156E-02 5.51606E-01 5.64561E-13-3.72379E-13
 -1      2245 2.02847E+01 2.59376E+00 2.03303E-03 2.41839E-01 5.22906E-13-3.88423E-13
 -1      2246 2.24201E+01 1.40492E-01-3.26189E-04-4.86670E-01 2.96110E-13 2.26982E-13
 -1      2247 2.23982E+01 2.90959E-01 2.10709E-02-3.73046E-01 3.62156E-13 2.87027E-13
 -1      2248 2.21162E+01 5.42568E-01-7.51826E-03-2.64153E-01 4.34450E-13 9.05990E-14
 -1      2249 2.21851E+01 8.25967E-01 1.66377E-02-3.21590E-02-4.45987E-13-2.83519E-14
 -1      2250 2.21291E+01 5.63484E-01-4.99172E-03 2.66269E-01-3.98983E-13-3.99106E-14
 -1      2251 2.97696E+01-1.79663E+00-1.08740E-01 1.78416E+00 5.89286E-13-2.90490E-13
 -1      2252 2.70622E+01-3.51155E+00-1.45800E-03 3.08291E+00 2.69645E-13-1.74416E-13
 -1      2253 2.22110E+01 3.55787E-01 1.95845E-02 4.79036E-01-3.53007E-13 4.24964E-15
 -1      2254 2.22407E+01 1.49732E-01-5.00750E-03 6.00909E-01-2.86839E-13-1.68435E-14
 -1      2255 2.18471E+01 6.29407E-01-8.27727E-03 3.98358E-01-3.77457E-13-1.36028E-13
 -1      2256 2.23853E+01-3.41838E-02 1.66556E-02 6.77640E-01-2.28026E-13 2.49249E-14
 -1      2257 2.24744E+01-2.38305E-01-1.00611E-02 6.54736E-01-1.79198E-13-1.99146E-15
 -1      2258 2.20205E+01 9.24454E-02-1.15293E-02 7.28737E-01-2.62631E-13-5.64919E-14
 -1      2259 2.27056E+01-4.28129E-01 1.47411E-02 5.81959E-01-1.24327E-13 1.63908E-14
 -1      2260 2.28135E+01-6.35385E-01-1.62450E-02 4.17170E-01-9.71992E-14 4.98341E-14
 -1      2261 2.23509E+01-4.26879E-01-1.32798E-02 7.64470E-01-1.51173E-13-4.52027E-14
 -1      2262 2.31197E+01-8.11686E-01 1.22930E-02 1.79668E-01-7.26981E-14 6.60995E-14
 -1      2263 2.31996E+01-9.72228E-01-1.97289E-02-1.15043E-01-5.37018E-14 6.48569E-14
 -1      2264 2.28446E+01-9.40134E-01-1.26067E-02 4.76918E-01-8.79981E-14-1.27558E-14
 -1      2265 2.35205E+01-1.06027E+00 5.85739E-03-5.06023E-01-6.97120E-14 9.17227E-14
 -1      2266 2.35242E+01-1.06612E+00-1.56234E-02-8.70726E-01-8.69131E-14 9.36158E-14
 -1      2267 2.34460E+01-1.32081E+00-6.03457E-03-1.47656E-01-5.40117E-14 4.76916E-14
 -1      2268 2.37342E+01-9.48743E-01-1.14296E-02-1.32092E+00-9.69316E-14 9.63524E-14
 -1      2269 2.36333E+01-6.77546E-01-2.41897E-03-1.61584E+00-1.15039E-13 7.46128E-14
 -1      2270 2.39968E+01-1.29664E+00 6.55319E-03-1.02698E+00-9.35086E-14 5.19977E-14
 -1      2271 2.36136E+01-2.77718E-01-3.10520E-02-1.90273E+00-2.04567E-13 6.59525E-14
 -1      2272 2.34294E+01 2.72702E-01 1.68174E-02-1.93167E+00-2.81567E-13 2.53565E-14
 -1      2273 2.42508E+01-6.20229E-01 4.71123E-03-1.83874E+00-1.99467E-13 8.04903E-14
 -1      2274 2.31710E+01 8.59925E-01-4.17677E-02-1.77144E+00-3.17514E-13-3.90746E-14
 -1      2275 2.30045E+01 1.42604E+00 1.92839E-02-1.38867E+00-3.86476E-13-8.92279E-14
 -1      2276 2.40700E+01 7.43222E-01-8.23779E-04-2.05914E+00-3.61247E-13 8.01789E-15
 -1      2277 2.27773E+01 1.82548E+00-2.64513E-02-7.16001E-01-4.08392E-13-1.70694E-13
 -1      2278 2.27372E+01 2.00102E+00-6.29687E-03-4.83000E-02-3.89543E-13-2.14925E-13
 -1      2279 2.36553E+01 2.08792E+00-3.08357E-02-1.21020E+00-4.17451E-13-6.76716E-14
 -1      2280 2.28022E+01 1.90144E+00 4.79672E-03 7.91023E-01-4.06283E-13-3.35862E-13
 -1      2281 2.29269E+01 1.54168E+00-3.49302E-02 1.38713E+00-3.31766E-13-3.45951E-13
 -1      2282 2.35097E+01 2.49880E+00-4.25115E-02 4.21897E-01-4.50397E-13-1.88480E-13
 -1      2283 2.32141E+01 1.02415E+00 2.18328E-02 1.88614E+00-3.08397E-13-4.97742E-13
 -1      2284 2.34242E+01 4.14480E-01-4.02769E-02 2.11382E+00-2.69757E-13-5.84256E-13
 -1      2285 2.38286E+01 1.65614E+00-1.78760E-02 1.85222E+00-4.27854E-13-4.64584E-13
 -1      2286 2.36223E+01-1.42301E-01 1.03696E-02 2.07814E+00-1.99776E-13-6.61715E-13
 -1      2287 2.38050E+01-6.12008E-01-2.39722E-02 1.91870E+00-7.41252E-14-6.89774E-13
 -1      2288 2.42258E+01 1.89634E-01 7.95843E-03 2.28504E+00-2.96831E-13-6.47267E-13
 -1      2289 2.37260E+01-9.12191E-01-9.45604E-03 1.52466E+00 3.07306E-14-6.63209E-13
 -1      2290 2.37994E+01-1.08035E+00-5.64356E-03 1.16942E+00 1.28881E-13-5.85214E-13
 -1      2291 2.42509E+01-9.93918E-01 5.28200E-03 1.74755E+00-1.29367E-14-6.60510E-13
 -1      2292 2.35254E+01-1.12129E+00-1.90258E-02 6.99589E-01 1.02121E-13-5.65580E-13
 -1      2293 2.34864E+01-1.06016E+00 6.58792E-03 3.23883E-01 6.60769E-14-5.20099E-13
 -1      2294 2.38533E+01-1.42666E+00 3.67747E-03 8.21075E-01 1.13059E-13-6.06153E-13
 -1      2295 2.31385E+01-9.46405E-01-2.00005E-02-5.63560E-02 8.39376E-14-4.76416E-13
 -1      2296 2.30173E+01-7.84764E-01 9.04092E-03-3.49234E-01 1.65813E-13-4.10035E-13
 -1      2297 2.32311E+01-1.31177E+00-6.54510E-03-5.72698E-02 1.05502E-13-5.26457E-13
 -1      2298 2.26946E+01-6.27324E-01-1.52103E-02-5.89602E-01 9.16585E-14-3.40322E-13
 -1      2299 2.25281E+01-4.60589E-01 7.81651E-03-7.72013E-01 7.23449E-14-3.44234E-13
 -1      2300 2.25933E+01-9.26774E-01-9.95503E-03-6.75796E-01 1.46858E-13-4.69198E-13
 -1      2301 2.22659E+01-3.22141E-01-9.02128E-03-8.89164E-01 1.07959E-13-3.13178E-13
 -1      2302 2.20819E+01-1.92857E-01 5.51677E-03-9.74668E-01 7.99818E-14-2.52310E-13
 -1      2303 2.20482E+01-5.16675E-01-8.71455E-03-1.02244E+00 1.08126E-13-3.06391E-13
 -1      2304 2.18803E+01-9.42368E-02-3.84536E-03-1.00396E+00 7.65197E-14-1.48079E-13
 -1      2305 2.16966E+01-1.00644E-02 3.41085E-03-1.01970E+00 1.75601E-13-2.05100E-13
 -1      2306 2.16163E+01-1.92321E-01-6.25894E-03-1.15735E+00 1.64626E-13-1.99002E-13
 -1      2307 2.15429E+01 5.01524E-02-2.45077E-04-9.94365E-01 1.62658E-13-1.86195E-13
 -1      2308 2.13702E+01 9.67853E-02 1.92245E-03-9.66767E-01 1.68698E-13-1.69424E-13
 -1      2309 2.12810E+01 2.28472E-02-4.18382E-03-1.15118E+00 1.60430E-13-1.25752E-13
 -1      2310 2.12513E+01 1.27749E-01 1.95515E-03-9.11934E-01 2.13551E-13-1.08547E-13
 -1      2311 2.10955E+01 1.47998E-01 1.00626E-03-8.61589E-01 1.90949E-13-5.03204E-14
 -1      2312 2.10185E+01 1.45043E-01-2.81171E-03-1.06203E+00 2.01475E-13-9.42957E-14
 -1      2313 2.10018E+01 1.59502E-01 3.09676E-03-7.94334E-01 6.29899E-14-6.53851E-14
 -1      2314 2.08658E+01 1.63255E-01 5.03398E-04-7.35304E-01-3.00291E-15-1.55783E-13
 -1      2315 2.08092E+01 2.00774E-01-2.01536E-03-9.31696E-01 1.00078E-13-1.41821E-13
 -1      2316 2.07906E+01 1.63113E-01 3.51724E-03-6.66290E-01-2.95415E-14-1.54941E-13
 -1      2317 2.06751E+01 1.57631E-01 2.53557E-04-6.07241E-01 2.81007E-14-1.65373E-13
 -1      2318 2.06395E+01 2.14232E-01-1.57885E-03-7.87719E-01-4.04727E-14-8.87264E-14
 -1      2319 2.06143E+01 1.51281E-01 3.48671E-03-5.42557E-01-8.02407E-15-2.54148E-13
 -1      2320 2.05186E+01 1.41363E-01 1.42248E-04-4.88262E-01-6.72189E-14-2.29757E-13
 -1      2321 2.05010E+01 2.03528E-01-1.33238E-03-6.46858E-01-7.54033E-14-1.39287E-13
 -1      2322 2.04694E+01 1.32272E-01 3.20225E-03-4.30948E-01-5.78241E-14-2.05513E-13
 -1      2323 2.03917E+01 1.20852E-01 9.91908E-05-3.83616E-01-3.19880E-14-5.16606E-14
 -1      2324 2.03878E+01 1.80815E-01-1.17063E-03-5.18330E-01-4.00678E-14-2.20889E-13
 -1      2325 2.03523E+01 1.11077E-01 2.79730E-03-3.34787E-01-1.10761E-13-1.52093E-13
 -1      2326 2.02905E+01 9.98186E-02 8.55772E-05-2.95049E-01-7.01383E-14-1.53579E-13
 -1      2327 2.02959E+01 1.53634E-01-1.03916E-03-4.06383E-01-1.16648E-13-1.20256E-13
 -1      2328 2.02592E+01 9.04891E-02 2.35639E-03-2.54678E-01 9.89302E-15-1.68920E-13
 -1      2329 2.02110E+01 8.02456E-02 8.19789E-05-2.22269E-01 1.05438E-14-1.97612E-13
 -1      2330 2.02221E+01 1.26336E-01-9.15294E-04-3.12152E-01-2.03985E-14-1.55309E-13
 -1      2331 2.01864E+01 7.19149E-02 1.92925E-03-1.89702E-01-4.68865E-14-2.35197E-13
 -1      2332 2.01496E+01 6.30486E-02 7.98094E-05-1.63897E-01-1.32733E-13-1.51731E-13
 -1      2333 2.01636E+01 1.01210E-01-7.93151E-04-2.34957E-01-7.39271E-14-1.39395E-13
 -1      2334 2.01306E+01 5.59255E-02 1.54229E-03-1.38185E-01-1.66745E-13-7.08739E-14
 -1      2335 2.01030E+01 4.85161E-02 7.60452E-05-1.18072E-01-9.43576E-14 4.17901E-14
 -1      2336 2.01179E+01 7.92818E-02-6.74098E-04-1.73154E-01-8.36523E-14 2.44625E-14
 -1      2337 2.00885E+01 4.26151E-02 1.20699E-03-9.81713E-02-4.56072E-14 5.24124E-14
 -1      2338 2.00683E+01 3.65890E-02 7.02316E-05-8.28060E-02-6.50315E-15 1.07961E-13
 -1      2339 2.00829E+01 6.08378E-02-5.61606E-04-1.24684E-01-3.09719E-14 2.06480E-13
 -1      2340 2.00575E+01 3.18220E-02 9.25829E-04-6.76993E-02-1.05803E-13 7.62491E-14
 -1      2341 2.00429E+01 2.70313E-02 6.29084E-05-5.61929E-02-8.17007E-14-5.12585E-14
 -1      2342 2.00564E+01 4.57547E-02-4.58866E-04-8.74047E-02-1.59095E-13 5.20465E-14
 -1      2343 2.00351E+01 2.32629E-02 6.96139E-04-4.49501E-02-1.02499E-13-9.49527E-14
 -1      2344 2.00249E+01 1.95315E-02 5.48505E-05-3.65118E-02-3.84240E-14-7.83074E-14
 -1      2345 2.00369E+01 3.37042E-02-3.67947E-04-5.92818E-02-1.40451E-13-5.43825E-14
 -1      2346 2.00193E+01 1.66112E-02 5.12626E-04-2.83200E-02-6.81269E-14-1.83001E-13
 -1      2347 2.00125E+01 1.37614E-02 4.67446E-05-2.22722E-02-1.24599E-13-1.96514E-13
 -1      2348 2.00227E+01 2.42743E-02-2.89707E-04-3.84885E-02-1.36764E-13-9.72206E-14
 -1      2349 2.00086E+01 1.15418E-02 3.68926E-04-1.64433E-02-7.49810E-14-1.57304E-13
 -1      2350 2.00042E+01 9.40796E-03 3.90844E-05-1.22223E-02 7.73060E-14-1.21371E-13
 -1      2351 2.00127E+01 1.70385E-02-2.24017E-04-2.34462E-02-6.51782E-14-9.72545E-14
 -1      2352 2.00016E+01 7.75425E-03 2.58538E-04-8.18870E-03 2.06123E-13-1.88977E-13
 -1      2353 1.99990E+01 6.18968E-03 3.21628E-05-5.33661E-03 2.58960E-13-1.75292E-13
 -1      2354 2.00059E+01 1.15941E-02-1.70061E-04-1.28307E-02 1.38434E-13 3.74618E-14
 -1      2355 1.99973E+01 4.98346E-03 1.75352E-04-2.64044E-03 2.02575E-13-2.99974E-13
 -1      2356 1.99959E+01 3.86261E-03 2.61016E-05-7.93131E-04 1.50878E-13-2.66310E-13
 -1      2357 2.00014E+01 7.58090E-03-1.26616E-04-5.55803E-03 1.55043E-13-1.07495E-13
 -1      2358 1.99950E+01 3.00323E-03 1.13915E-04 9.27432E-04 1.83277E-13-2.61466E-13
 -1      2359 1.99944E+01 2.22115E-03 2.08884E-05 2.05367E-03 1.36928E-13-2.02124E-13
 -1      2360 1.99987E+01 4.68814E-03-9.22685E-05-7.59711E-04 1.61202E-13-2.99536E-13
 -1      2361 1.99939E+01 1.62485E-03 6.95366E-05 3.07869E-03-3.23902E-16-1.51663E-13
 -1      2362 1.99939E+01 1.09543E-03 1.64075E-05 3.70017E-03-3.88568E-14-1.00189E-13
 -1      2363 1.99971E+01 2.65452E-03-6.55754E-05 2.24581E-03 3.92879E-14-1.70152E-13
 -1      2364 1.99938E+01 6.93540E-04 3.82988E-05 4.24160E-03 8.14768E-15 8.95012E-14
 -1      2365 1.99941E+01 3.46900E-04 1.24620E-05 4.51912E-03 1.24297E-13 1.19597E-13
 -1      2366 1.99964E+01 1.26449E-03-4.51692E-05 3.98210E-03 5.71689E-14 2.54590E-13
 -1      2367 1.99942E+01 8.35472E-05 1.70117E-05 4.73303E-03 4.28628E-14 7.37145E-14
 -1      2368 1.99947E+01-1.36843E-04 8.79650E-06 4.78209E-03 6.47103E-14 6.96791E-14
 -1      2369 1.99963E+01 3.42323E-04-2.98319E-05 4.84175E-03 6.65502E-14 3.07449E-13
 -1      2370 1.99949E+01-3.07213E-04 3.15498E-06 4.77909E-03 2.62599E-13-7.11280E-14
 -1      2371 1.99955E+01-4.47414E-04 5.13810E-06 4.67838E-03 3.41026E-13-4.70699E-14
 -1      2372 1.99965E+01-2.54676E-04-1.85334E-05 5.11013E-03 1.16870E-13 7.46995E-14
 -1      2373 1.99957E+01-5.62469E-04-5.21709E-06 4.53235E-03 1.65563E-13-1.62346E-13
 -1      2374 1.99964E+01-6.60596E-04 1.25390E-06 4.33066E-03 6.48879E-14-3.14733E-14
 -1      2375 1.99970E+01-6.42902E-04-1.04543E-05 4.98570E-03 1.64162E-13 1.50332E-14
 -1      2376 1.99967E+01-7.51706E-04-9.48935E-06 4.08579E-03-1.23647E-14-1.91350E-13
 -1      2377 1.99973E+01-8.38552E-04-2.56877E-06 3.80805E-03-6.28133E-14-2.19464E-13
 -1      2378 1.99975E+01-9.18310E-04-5.00240E-06 4.59697E-03-6.60588E-14-9.56069E-14
 -1      2379 1.99975E+01-9.33466E-04-1.13804E-05 3.48689E-03-1.64135E-13-1.81301E-13
 -1      2380 1.99981E+01-1.02830E-03-7.41189E-06 3.13936E-03-2.46827E-13-1.61914E-13
 -1      2381 1.99980E+01-1.15630E-03-1.56109E-06 4.01796E-03-1.88921E-13-3.84831E-13
 -1      2382 2.28532E+01-4.19758E-01-1.44097E-02-3.41437E-01 1.24958E-13 1.51533E-13
 -1      2383 2.27710E+01-2.73697E-01 9.94733E-03-4.81564E-01 1.49529E-13 1.77724E-13
 -1      2384 2.30951E+01-6.66759E-01-1.85944E-02 1.24135E-01 6.89058E-14 1.82968E-13
 -1      2385 2.30676E+01-5.49033E-01 6.11642E-03-1.29381E-01 8.22849E-14 1.86873E-13
 -1      2386 2.28486E+01-6.67327E-01-7.06826E-03-3.55784E-01 1.16126E-13 1.25445E-13
 -1      2387 2.32267E+01-7.60400E-01-1.64416E-02 7.81245E-01 7.20812E-14 2.18229E-13
 -1      2388 2.32990E+01-7.40750E-01 1.51243E-04 4.65200E-01 5.65576E-14 2.09982E-13
 -1      2389 2.32604E+01-9.62744E-01-2.19202E-03 2.13060E-01 4.94940E-14 1.56941E-13
 -1      2390 2.31482E+01-5.42544E-01-3.84034E-03 1.43497E+00 1.13568E-13 3.41122E-13
 -1      2391 2.33358E+01-7.03357E-01-9.38892E-03 1.16755E+00 5.86133E-14 2.84914E-13
 -1      2392 2.35854E+01-9.90648E-01 4.10429E-03 9.83537E-01 3.80415E-14 1.98250E-13
 -1      2393 2.28150E+01 6.74599E-02 1.58473E-02 1.74817E+00 1.64011E-13 3.64677E-13
 -1      2394 2.30805E+01-2.88933E-01-1.69390E-02 1.69179E+00 1.54949E-13 3.72756E-13
 -1      2395 2.36611E+01-5.58060E-01 8.06932E-03 1.69848E+00 1.01891E-13 2.88908E-13
 -1      2396 2.23346E+01 8.69391E-01 2.15624E-02 1.37634E+00 3.77691E-13 2.16591E-13
 -1      2397 2.25721E+01 4.68484E-01-2.27640E-02 1.65275E+00 2.82625E-13 3.37705E-13
 -1      2398 2.34011E+01 3.86457E-01 7.24655E-03 1.92846E+00 2.76941E-13 2.99141E-13
 -1      2399 2.20133E+01 1.37946E+00 8.76527E-03 3.08602E-01 5.01682E-13-4.60862E-15
 -1      2400 2.21069E+01 1.19488E+00-1.19642E-02 8.52566E-01 4.87289E-13 1.38028E-13
 -1      2401 2.29610E+01 1.40073E+00-1.73676E-02 1.29758E+00 5.22259E-13 1.55223E-13
 -1      2402 2.21325E+01 1.21439E+00-1.27318E-02-9.74138E-01 4.11641E-13-2.35778E-13
 -1      2403 2.20205E+01 1.39090E+00 1.00163E-02-4.24902E-01 4.68249E-13-1.40949E-13
 -1      2404 2.27439E+01 1.87198E+00-2.76052E-02-6.51604E-02 5.70571E-13-6.09181E-14
 -1      2405 2.26424E+01 5.02692E-01-2.36300E-02-1.80222E+00 2.25277E-13-3.74770E-13
 -1      2406 2.23779E+01 9.01129E-01 2.16820E-02-1.51437E+00 3.38032E-13-3.17057E-13
 -1      2407 2.29783E+01 1.43858E+00-1.67632E-02-1.44559E+00 4.12779E-13-2.99798E-13
 -1      2408 2.32062E+01-2.65750E-01-1.75594E-02-1.86895E+00 1.00646E-13-4.89604E-13
 -1      2409 2.29054E+01 9.61450E-02 1.40286E-02-1.91423E+00 1.98347E-13-4.20439E-13
 -1      2410 2.34479E+01 4.28376E-01 5.40465E-03-2.10935E+00 2.67420E-13-5.24392E-13
 -1      2411 2.35134E+01-7.08161E-01-7.67505E-03-1.34610E+00 3.53242E-14-5.48935E-13
 -1      2412 2.32914E+01-5.36931E-01-4.03722E-03-1.60997E+00 4.19129E-14-5.19087E-13
 -1      2413 2.37524E+01-5.34004E-01 1.16254E-02-1.89753E+00 1.25977E-13-5.86380E-13
 -1      2414 2.35014E+01-7.78001E-01 6.43539E-04-6.09527E-01 2.31707E-14-5.38265E-13
 -1      2415 2.34073E+01-7.84714E-01-1.63291E-02-9.35242E-01 3.77242E-14-5.49237E-13
 -1      2416 2.37020E+01-1.01537E+00 8.42170E-03-1.16434E+00 3.39388E-14-5.74374E-13
 -1      2417 2.32520E+01-6.19316E-01 3.52145E-03 5.12264E-02-4.04590E-14-4.51343E-13
 -1      2418 2.32808E+01-7.18995E-01-1.94700E-02-2.26930E-01 2.17534E-14-4.66460E-13
 -1      2419 2.33683E+01-1.03328E+00 3.68723E-04-3.33649E-01-1.31136E-14-4.28563E-13
 -1      2420 2.28820E+01-3.91253E-01 3.48633E-03 5.12154E-01-5.63655E-14-4.64623E-13
 -1      2421 2.30012E+01-5.09267E-01-1.62632E-02 3.23836E-01-6.37233E-14-4.34377E-13
 -1      2422 2.29099E+01-7.87406E-01-4.58171E-03 3.31978E-01-8.22602E-14-4.11238E-13
 -1      2423 2.24733E+01-1.86656E-01 2.65489E-03 7.66453E-01-9.13980E-14-3.85912E-13
 -1      2424 2.26460E+01-2.84651E-01-1.06916E-02 6.66720E-01-6.12115E-14-4.30818E-13
 -1      2425 2.24427E+01-4.77021E-01-5.61793E-03 7.57758E-01-9.23027E-14-3.92337E-13
 -1      2426 2.20727E+01-3.97362E-02 1.81302E-03 8.58672E-01-7.52182E-14-3.63687E-13
 -1      2427 2.22682E+01-1.06573E-01-5.31648E-03 8.26807E-01-6.03638E-14-3.65501E-13
 -1      2428 2.20188E+01-2.11200E-01-4.72183E-03 9.67057E-01-1.17433E-13-3.12331E-13
 -1      2429 2.17029E+01 5.00172E-02 1.25358E-03 8.43531E-01 8.38138E-14-3.76160E-13
 -1      2430 2.18993E+01 1.11895E-02-1.26525E-03 8.55815E-01 1.20161E-14-3.39690E-13
 -1      2431 2.16517E+01-2.55820E-02-3.55279E-03 1.01828E+00-8.73244E-15-3.89340E-13
 -1      2432 2.13739E+01 9.58564E-02 9.52606E-04 7.67198E-01 7.31106E-14-2.36236E-13
 -1      2433 2.15574E+01 7.75138E-02 1.36467E-03 8.03948E-01 1.05511E-13-2.68363E-13
 -1      2434 2.13388E+01 8.49716E-02-2.65165E-03 9.69579E-01 2.71443E-14-3.42167E-13
 -1      2435 2.10891E+01 1.12451E-01 8.06157E-04 6.62738E-01-2.01914E-13-2.05309E-13
 -1      2436 2.12522E+01 1.07283E-01 2.82023E-03 7.10058E-01-2.01835E-14-1.29129E-13
 -1      2437 2.10737E+01 1.39322E-01-2.07894E-03 8.66625E-01-2.89064E-14-1.70373E-13
 -1      2438 2.08484E+01 1.11624E-01 7.28897E-04 5.51345E-01-2.89203E-13-1.64308E-13
 -1      2439 2.09879E+01 1.14039E-01 3.43333E-03 6.00485E-01-3.17937E-13-1.45960E-13
 -1      2440 2.08507E+01 1.56850E-01-1.74055E-03 7.41052E-01-2.19676E-13-1.43688E-13
 -1      2441 2.06491E+01 1.01613E-01 6.72701E-04 4.45284E-01-1.34454E-13-1.10895E-13
 -1      2442 2.07648E+01 1.07834E-01 3.50509E-03 4.91310E-01-1.67060E-13-1.79597E-13
 -1      2443 2.06646E+01 1.52779E-01-1.52758E-03 6.12757E-01-2.12718E-13-2.81476E-13
 -1      2444 2.04873E+01 8.76466E-02 6.15950E-04 3.50758E-01 6.03126E-14-1.18727E-13
 -1      2445 2.05809E+01 9.53296E-02 3.26554E-03 3.91287E-01-9.54809E-14-1.02101E-13
 -1      2446 2.05114E+01 1.37571E-01-1.36584E-03 4.93059E-01-1.26405E-13-2.28227E-13
 -1      2447 2.03584E+01 7.28034E-02 5.52723E-04 2.70162E-01 2.64083E-14-3.60340E-14
 -1      2448 2.04324E+01 8.05995E-02 2.87292E-03 3.04383E-01 8.97620E-14-5.97713E-14
 -1      2449 2.03868E+01 1.17812E-01-1.21784E-03 3.87515E-01 3.93494E-14-2.01825E-13
 -1      2450 2.02576E+01 5.87513E-02 4.84350E-04 2.03654E-01 5.29973E-14 5.51352E-14
 -1      2451 2.03150E+01 6.59526E-02 2.42795E-03 2.31656E-01 7.72808E-15 2.29697E-14
 -1      2452 2.02872E+01 9.73420E-02-1.07034E-03 2.98053E-01 1.21315E-14-1.26152E-13
 -1      2453 2.01803E+01 4.62862E-02 4.14545E-04 1.50190E-01 1.46441E-13 1.14026E-13
 -1      2454 2.02238E+01 5.25755E-02 1.98987E-03 1.72527E-01 1.52734E-13 1.10907E-13
 -1      2455 2.02088E+01 7.82167E-02-9.22762E-04 2.24475E-01 7.35093E-14-9.93646E-14
 -1      2456 2.01220E+01 3.56910E-02 3.47029E-04 1.08168E-01 1.46682E-13-2.64539E-14
 -1      2457 2.01543E+01 4.09777E-02 1.59023E-03 1.25596E-01 2.29769E-13 1.17820E-13
 -1      2458 2.01482E+01 6.13891E-02-7.79346E-04 1.65440E-01 2.40545E-13 1.00065E-13
 -1      2459 2.00790E+01 2.69623E-02 2.84616E-04 7.58142E-02 7.01283E-14-1.48643E-13
 -1      2460 2.01025E+01 3.12798E-02 1.24304E-03 8.91353E-02 8.57431E-14-7.05375E-14
 -1      2461 2.01021E+01 4.71681E-02-6.45017E-04 1.19091E-01 1.91873E-13-1.37092E-14
 -1      2462 2.00480E+01 1.99490E-02 2.29030E-04 5.13985E-02-3.16871E-14-1.42005E-13
 -1      2463 2.00647E+01 2.33922E-02 9.51794E-04 6.13759E-02 4.79008E-14-5.44196E-14
 -1      2464 2.00678E+01 3.55049E-02-5.23544E-04 8.34285E-02 5.79930E-14-1.56970E-13
 -1      2465 2.00263E+01 1.44348E-02 1.81037E-04 3.33487E-02-2.11532E-14-7.47902E-14
 -1      2466 2.00377E+01 1.71236E-02 7.14059E-04 4.06653E-02-8.68153E-14-6.72776E-14
 -1      2467 2.00428E+01 2.61699E-02-4.17071E-04 5.65270E-02-6.78781E-14 2.12447E-13
 -1      2468 2.00115E+01 1.01855E-02 1.40688E-04 2.02978E-02 4.35439E-14 7.98866E-15
 -1      2469 2.00190E+01 1.22438E-02 5.24415E-04 2.55403E-02 3.05605E-14-1.00376E-13
 -1      2470 2.00249E+01 1.88563E-02-3.26254E-04 3.66446E-02 1.40435E-14-2.01287E-14
 -1      2471 2.00019E+01 6.97508E-03 1.07545E-04 1.10955E-02 1.63692E-13 1.43904E-13
 -1      2472 2.00065E+01 8.51953E-03 3.76222E-04 1.47528E-02 1.79138E-13 1.58648E-13
 -1      2473 2.00126E+01 1.32397E-02-2.50625E-04 2.22711E-02 2.35671E-14-8.46506E-15
 -1      2474 1.99960E+01 4.59864E-03 8.08834E-05 4.79889E-03 6.64201E-14 9.92967E-15
 -1      2475 1.99986E+01 5.73347E-03 2.62664E-04 7.26852E-03 1.96083E-13 1.10899E-13
 -1      2476 2.00043E+01 9.01124E-03-1.88983E-04 1.21377E-02 1.70711E-13 3.36427E-14
 -1      2477 1.99927E+01 2.87818E-03 5.98342E-05 6.51746E-04 3.17351E-14-2.13521E-13
 -1      2478 1.99940E+01 3.69296E-03 1.77330E-04 2.24997E-03 2.88862E-14-5.40359E-14
 -1      2479 1.99991E+01 5.89307E-03-1.39718E-04 5.20464E-03 2.16061E-13-4.20925E-14
 -1      2480 1.99913E+01 1.66328E-03 4.34779E-05-1.93988E-03-2.13387E-13 1.12363E-14
 -1      2481 1.99917E+01 2.23308E-03 1.14501E-04-9.66520E-04-3.95518E-14-1.22302E-13
 -1      2482 1.99961E+01 3.64497E-03-1.01060E-04 6.38923E-04-4.74439E-14 7.71186E-14
 -1      2483 1.99911E+01 8.29507E-04 3.09031E-05-3.43285E-03-2.47580E-13 1.57322E-14
 -1      2484 1.99909E+01 1.21605E-03 6.92612E-05-2.89622E-03-3.11631E-13-7.27135E-15
 -1      2485 1.99946E+01 2.06480E-03-7.12500E-05-2.21337E-03-2.93602E-13 1.35122E-13
 -1      2486 1.99917E+01 2.75387E-04 2.12330E-05-4.17045E-03-6.32717E-14-4.26707E-16
 -1      2487 1.99911E+01 5.28785E-04 3.75003E-05-3.93056E-03-2.04672E-14-8.54220E-14
 -1      2488 1.99941E+01 9.85740E-04-4.86449E-05-3.85470E-03-1.20121E-13-1.09069E-13
 -1      2489 1.99927E+01-8.13605E-05 1.36406E-05-4.40307E-03-2.98753E-14-1.54948E-13
 -1      2490 1.99919E+01 7.94605E-05 1.58628E-05-4.35921E-03-1.23714E-13-6.60137E-14
 -1      2491 1.99942E+01 2.71900E-04-3.17850E-05-4.66195E-03 1.03969E-14-7.22274E-14
 -1      2492 1.99939E+01-3.07757E-04 7.36600E-06-4.30553E-03 4.02282E-13-1.00855E-13
 -1      2493 1.99930E+01-2.06412E-04 1.68611E-06-4.38900E-03 1.61211E-13-7.91590E-14
 -1      2494 1.99948E+01-1.86959E-04-1.94212E-05-4.90922E-03 1.05349E-13-4.13946E-13
 -1      2495 1.99952E+01-4.59358E-04 1.77367E-06-3.99110E-03 3.42876E-13-4.45628E-14
 -1      2496 1.99943E+01-3.89942E-04-7.10734E-06-4.15952E-03 4.20773E-13 2.61585E-14
 -1      2497 1.99956E+01-4.80751E-04-1.05323E-05-4.78712E-03 3.13909E-13-2.64859E-13
 -1      2498 1.99964E+01-5.83289E-04-3.44501E-06-3.52293E-03 1.67889E-13 2.02939E-13
 -1      2499 1.99956E+01-5.22629E-04-1.21313E-05-3.75581E-03 2.23430E-13 2.09041E-13
 -1      2500 1.99964E+01-6.83764E-04-4.36103E-06-4.41896E-03 1.60210E-13 2.90019E-13
 -1      2501 1.99975E+01-7.18042E-04-7.50782E-06-2.92350E-03 4.04045E-14 3.61923E-13
 -1      2502 1.99968E+01-6.50212E-04-1.49026E-05-3.21878E-03 2.12657E-13 3.76761E-13
 -1      2503 1.99973E+01-8.55476E-04 7.04977E-07-3.87669E-03 6.46395E-14 5.55018E-13
 -1      2504 1.99984E+01-8.80464E-04-1.17560E-05-2.19963E-03-4.35139E-13 5.23958E-13
 -1      2505 1.99979E+01-7.93853E-04-1.40806E-05-2.55467E-03-2.83262E-13 3.39932E-13
 -1      2506 1.99981E+01-1.04712E-03 6.55822E-06-3.18850E-03-1.01945E-13 8.40863E-13
 -1      2507 1.99988E+01-9.47411E-04-1.08020E-05-1.74038E-03-3.08556E-13 4.54723E-13
 -1      2508 2.00006E+01-4.25803E-03 1.57963E-05-2.31876E-03-8.02639E-14 1.26550E-13
 -1      2509 2.00004E+01-3.87609E-03-3.78445E-07-2.56476E-03-1.18045E-13-2.12828E-13
 -1      2510 2.00009E+01-4.81068E-03 1.63524E-05-1.60209E-03-6.84088E-14 2.87129E-14
 -1      2511 2.00007E+01-4.53365E-03 5.73464E-06-1.95934E-03-1.93271E-13 2.47677E-13
 -1      2512 2.00009E+01-3.99140E-03-9.50856E-06-2.40782E-03-1.72035E-13 1.97991E-13
 -1      2513 1.99997E+01-2.65973E-03 1.19680E-05-2.89922E-03-1.70997E-13 1.51199E-13
 -1      2514 1.99994E+01-2.18414E-03-1.56021E-05-2.82272E-03-2.64766E-13 4.33942E-13
 -1      2515 2.00002E+01-3.51785E-03 1.39915E-05-2.77794E-03-2.02098E-13-1.71697E-13
 -1      2516 1.99999E+01-3.07532E-03-7.23790E-06-2.87203E-03-1.87834E-13 6.41484E-14
 -1      2517 1.99998E+01-2.64632E-03-6.53962E-06-3.27540E-03-1.81166E-13-1.92644E-14
 -1      2518 2.00004E+01-3.38480E-03-6.99505E-06-3.01529E-03-1.05545E-13-7.14771E-14
 -1      2519 2.00010E+01-5.12723E-03 1.58302E-05-7.20819E-04-2.56734E-13-1.10688E-13
 -1      2520 2.00009E+01-4.98222E-03 1.07305E-05-1.14482E-03-1.24116E-13-1.51270E-14
 -1      2521 2.00012E+01-4.42076E-03-1.10934E-05-1.54329E-03-2.26837E-13-4.96575E-14
 -1      2522 2.00010E+01-5.18353E-03 1.40379E-05 2.31104E-04-1.01868E-13-1.69135E-13
 -1      2523 2.00010E+01-5.18484E-03 1.40537E-05-2.14859E-04-1.75043E-13-4.93521E-14
 -1      2524 2.00014E+01-4.64132E-03-1.18406E-05-5.25297E-04-1.17905E-13 1.34819E-14
 -1      2525 2.00009E+01-4.97631E-03 1.08636E-05 1.15981E-03 7.15183E-14-3.07692E-13
 -1      2526 2.00010E+01-5.12407E-03 1.57291E-05 7.36694E-04 6.48435E-14-3.79003E-13
 -1      2527 2.00014E+01-4.63949E-03-1.18089E-05 5.43360E-04 1.12681E-13-1.62288E-13
 -1      2528 2.00007E+01-4.53346E-03 5.82981E-06 1.95930E-03 2.31396E-13 8.84712E-14
 -1      2529 2.00008E+01-4.80693E-03 1.62081E-05 1.60881E-03 2.05967E-13-9.81092E-14
 -1      2530 2.00012E+01-4.41830E-03-1.11895E-05 1.55188E-03 2.89357E-13-1.53467E-13
 -1      2531 2.00004E+01-3.87617E-03-5.07656E-07 2.56480E-03 3.56255E-13 3.34129E-13
 -1      2532 2.00006E+01-4.25801E-03 1.56777E-05 2.31892E-03 3.17997E-13 7.20185E-14
 -1      2533 2.00009E+01-3.99134E-03-9.39183E-06 2.40809E-03 2.05015E-13 3.80428E-14
 -1      2534 1.99999E+01-3.06439E-03-7.56339E-06 2.87133E-03-1.17887E-14 9.58056E-14
 -1      2535 2.00002E+01-3.51458E-03 1.37375E-05 2.77938E-03 1.66118E-13 3.64187E-13
 -1      2536 2.00004E+01-3.37864E-03-5.06387E-06 3.01903E-03 1.46235E-13 1.59958E-13
 -1      2537 1.99994E+01-2.16525E-03-1.27359E-05 2.80383E-03-2.91565E-13-4.09478E-13
 -1      2538 1.99997E+01-2.64596E-03 9.01754E-06 2.90092E-03-2.01665E-13-7.79101E-14
 -1      2539 1.99998E+01-2.62836E-03-5.08591E-07 3.27255E-03-3.16869E-13-1.70945E-13
 -1      2540 4.13297E+00-3.16794E+00 6.43521E-02 3.20494E+00-1.91597E-13 1.30967E-12
 -1      2541 3.17193E+00-2.87765E+00 8.35413E-02 1.13360E+00-1.45748E-13 1.28275E-12
 -1      2542 1.76914E+01-5.37022E+00 1.36833E-02 6.71364E+00-2.99927E-13 4.66412E-13
 -1      2543 1.37086E+01-5.09927E+00 9.18618E-02 6.65713E+00-4.67515E-13 5.87072E-13
 -1      2544 2.26019E+01-1.37858E-01-7.42640E-03-5.46765E-01 1.78414E-13 1.87856E-13
 -1      2545 2.25200E+01 5.83217E-03 1.43787E-02-5.62778E-01 2.31611E-13 2.24249E-13
 -1      2546 2.24816E+01-2.82254E-01-8.96729E-03-6.26077E-01 1.97017E-13 7.65442E-14
 -1      2547 3.14363E+01 2.01733E+00-1.72203E-01-9.55365E-01 1.02718E-12-5.66519E-13
 -1      2548 3.09744E+01 1.73406E-01-3.68447E-02 3.91287E-02 8.43631E-13-4.62741E-13
 -1      2549 1.99990E+01-1.45208E-03-8.46671E-06 2.14040E-03-1.82034E-13-4.00822E-13
 -1      2550 5.97577E+00-3.78232E+00 6.48267E-02-4.65452E+00 1.69670E-13 1.18222E-12
 -1      2551 9.17627E+00-4.35060E+00 4.49735E-02-6.27766E+00 8.10463E-14 9.76774E-13
 -1      2552 8.89163E+00-4.25752E+00 1.75053E-04 6.24520E+00-3.58769E-13 8.57925E-13
 -1      2553 6.03829E+00-3.84484E+00 7.19200E-02 4.69067E+00-3.60267E-13 1.08497E-12
 -1      2554 6.83624E+00-2.40966E+00 1.55482E-01 3.96278E+00-4.74121E-13 1.08263E-12
 -1      2555 3.22088E+01 6.89790E+00-1.22199E-01 7.55883E-01-1.24128E-12-4.21690E-13
 -1      2556 3.19927E+01 7.42004E+00-1.49276E-01 8.54797E-02-1.41209E-12-3.41466E-13
 -1      2557 5.77213E+00-3.73765E+00 2.31158E-02-4.63987E+00-1.83520E-13-1.35880E-12
 -1      2558 9.23505E+00-4.03104E+00 3.66260E-02-6.21949E+00-2.11386E-13-1.26593E-12
 -1      2559 1.72393E+01 4.27958E+00-8.80516E-03 5.68382E-02 4.44539E-15-8.69820E-13
 -1      2560 1.74148E+01 4.23409E+00-2.03361E-03 4.54463E-02-5.35927E-14-8.59437E-13
 -1      2561 1.75724E+01 3.89920E+00 3.30266E-03 1.46493E-01-6.91743E-14-8.03065E-13
 -1      2562 1.72049E+01 4.06770E+00 5.25607E-03 5.79569E-02 1.94058E-14-8.28872E-13
 -1      2563 3.33126E+01 7.45033E+00-1.05723E-01 1.05478E-01 1.39266E-12-2.46698E-13
 -1      2564 3.32162E+01 7.43288E+00-1.02786E-01-3.57239E-01 1.43230E-12-2.55518E-13
 -1      2565 1.09814E+01-4.41458E+00 5.94840E-03 6.74376E+00 9.44800E-14-9.62896E-13
 -1      2566 7.84127E+00-3.89347E+00 9.52518E-02 5.55909E+00 1.75027E-13-1.17797E-12
 -1      2567 3.31888E+01 6.61874E+00-5.26972E-02-8.33400E-01 1.46350E-12-4.18360E-13
 -1      2568 3.19614E+01 4.92780E+00-1.08866E-01-1.13020E+00 1.36136E-12-4.77118E-13
 -1      2569 3.17466E+01 5.49983E+00-1.44155E-01 1.02819E+00 1.14642E-12-1.13798E-14
 -1      2570 3.31291E+01 6.83131E+00-4.26015E-02 5.88036E-01 1.30956E-12-1.23596E-13
 -1      2571 3.06627E+01 6.81500E+00-6.80104E-02 6.46593E-01 1.25377E-12-5.07858E-14
 -1      2572 3.07514E+01 5.01933E-01-5.93501E-02 2.68809E-01 6.38822E-13-3.43059E-14
 -1      2573 3.16051E+01 2.97708E+00-1.31549E-01 1.09855E+00 8.55788E-13-4.96825E-15
 -1      2574 2.67540E+01-3.87504E+00-4.13588E-03-3.30100E+00 3.06991E-13-2.73975E-13
 -1      2575 2.92640E+01-2.30146E+00-1.41408E-01-1.54925E+00 4.59043E-13-8.17124E-14
 -1      2576 2.02505E+01-5.39627E+00-4.89987E-03-5.97314E+00-3.41949E-14-6.87353E-13
 -1      2577 2.37309E+01-4.86972E+00-6.01739E-02-5.22042E+00 1.44607E-13-4.36873E-13
 -1      2578 1.39018E+01-4.90146E+00 7.15961E-02-6.81964E+00-2.41668E-13-1.02192E-12
 -1      2579 1.72942E+01-5.19131E+00 4.50730E-02-6.90149E+00-9.51461E-14-9.40725E-13
 -1      2580 2.02039E+01-5.29345E+00 7.04068E-02-5.94077E+00-3.59074E-13-5.77351E-13
 -1      2581 3.22945E+00-2.55548E+00 8.96468E-02-1.00407E+00-8.38322E-14-1.42375E-12
 -1      2582 3.93963E+00-3.01454E+00 4.65079E-02-3.05496E+00-7.66609E-14-1.44446E-12
 -1      2583 3.05254E+01-9.63963E-01-1.30472E-01 1.03558E+00-7.00027E-13-4.05787E-14
 -1      2584 2.86101E+01-2.60610E+00-2.09157E-02 2.17872E+00-5.43288E-13-1.07692E-13
 -1      2585 1.82435E+01-5.36198E+00-3.51678E-02 6.78840E+00-6.10068E-14-6.80296E-13
 -1      2586 1.49249E+01-5.15003E+00 6.00095E-02 6.77835E+00 8.66529E-14-7.84470E-13
 -1      2587 2.60791E+01-4.18363E+00-7.30446E-02 4.26127E+00-3.53384E-13-2.93099E-13
 -1      2588 2.21283E+01-5.18742E+00 1.78724E-02 5.38923E+00-1.46383E-13-4.68625E-13
 -1      2589 2.74104E+01-3.90708E+00 3.16313E-02 2.44635E+00-1.91874E-13-8.88178E-16
 -1      2590 3.21556E+01 3.27598E+00-1.61551E-01-8.50097E-01-1.06673E-12-3.11418E-14
 -1      2591 3.12022E+01 1.40323E+00-1.00232E-01-4.58576E-01-8.66307E-13-9.99201E-16
 -1      2592 3.16598E+01 6.44986E+00-2.15914E-01-9.04551E-01-1.33454E-12-1.04819E-13
 -1      2593 3.21319E+01 5.15031E+00-1.14646E-01-1.04045E+00-1.22888E-12-5.46507E-14
 -1      2594 3.00264E+01 3.65492E+00-5.76074E-02-1.82310E+00-9.53959E-13 1.86809E-13
 -1      2595 3.21053E+01 4.01470E+00-8.38895E-02 1.22675E+00-9.38888E-13-5.27522E-13
 -1      2596 3.23730E+01 5.44910E+00-1.69483E-01 1.14673E+00-1.07447E-12-5.00794E-13
 -1      2597 3.03542E+01-6.28605E-01-4.54024E-02-6.37920E-01-5.05568E-13-5.25302E-13
 -1      2598 3.16636E+01 1.48982E+00-1.49528E-01 5.22240E-01-6.34312E-13-5.14006E-13
 -1      2599 2.66701E+01-3.84497E+00-2.43363E-02-3.22435E+00-1.46327E-13-2.26208E-13
 -1      2600 2.89097E+01-2.59863E+00-9.54801E-02-2.28712E+00-3.58519E-13-5.40512E-13
 -1      2601 1.97361E+01-5.54703E+00 1.17198E-02-5.93951E+00 1.09662E-13 3.46445E-13
 -1      2602 2.37657E+01-4.91698E+00-4.39588E-02-5.07779E+00 3.60267E-14 7.18314E-14
 -1      2603 1.25000E+01-5.26079E+00 1.96424E-02-6.65433E+00 1.47660E-13 7.15400E-13
 -1      2604 1.57844E+01-5.35224E+00-1.90029E-02-6.93849E+00 3.64153E-14 6.23994E-13
 -1      2605 1.94119E+01-5.38523E+00 1.14926E-01-6.03128E+00 3.28015E-13 2.34391E-13
 -1      2606 1.24206E+01-4.14514E+00 1.35100E-01-6.36205E+00 3.06144E-13 7.45931E-13
 -1      2607 3.13159E+00-2.85211E+00 9.01610E-02-9.95299E-01-1.33921E-15 1.21581E-12
 -1      2608 3.81610E+00-3.18342E+00 5.70742E-02-2.91179E+00-6.49480E-14 1.31450E-12
 -1      2609 2.19404E+01 1.95084E+00-9.23196E-03-9.38686E-01-5.78305E-13-1.53334E-13
 -1      2610 2.20274E+01 1.19773E+00-5.78365E-03-3.20371E-01-5.26308E-13-8.64147E-14
 -1      2611 2.16740E+01 1.35423E+00-2.21482E-03-1.55045E-01-4.75327E-13-2.11589E-13
 -1      2612 2.13122E+01 2.38536E+00-1.33630E-02-8.01904E-01-5.49442E-13-3.23314E-13
 -1      2613 2.24876E+01 8.42367E-01-4.36728E-03 4.06641E-01 5.66406E-13 3.84855E-13
 -1      2614 2.26732E+01 1.22002E+00-5.05202E-03 9.08508E-01 6.09728E-13 4.68283E-13
 -1      2615 2.22874E+01 1.68160E+00-1.72419E-02 1.02745E+00 6.55245E-13 2.39305E-13
 -1      2616 2.21732E+01 1.01491E+00-1.19937E-02 2.90737E-01 5.64698E-13 1.22153E-13
 -1      2617 2.36431E+01-4.96191E+00-7.10351E-02 5.07492E+00 1.22125E-15-4.03982E-14
 -1      2618 2.04866E+01-5.51408E+00 3.26567E-03 5.78589E+00-2.11525E-13 2.19019E-13
 -1      2619 2.00942E+01-5.43226E+00 9.48967E-02 5.79855E+00-5.58303E-13 1.33433E-13
 -1      2620 3.08305E+01 6.67186E+00-6.72712E-02-9.42510E-01 1.33610E-12-3.72910E-13
 -1      2621 1.91830E+01 3.15463E+00-8.67555E-04-1.13436E-03-2.91380E-13-6.71910E-13
 -1      2622 1.93054E+01 3.41673E+00-1.77541E-02-2.35587E-01-3.32118E-13-7.03873E-13
 -1      2623 1.98186E+01 3.22920E+00-1.06181E-02-3.97679E-01-4.10779E-13-6.38083E-13
 -1      2624 2.22308E+01 1.11158E-01-8.45297E-03-5.92995E-01 2.92098E-13 5.23566E-14
 -1      2625 2.17282E+01 2.11195E+00-1.33164E-02 9.12738E-01 6.29617E-13-1.97949E-14
 -1      2626 2.57712E+01-4.64595E+00 4.87202E-02 3.36324E+00-9.38416E-14-2.82024E-13
 -1      2627 4.89339E+00-1.69262E+00 1.59464E-01 9.36792E-02-1.80437E-13 1.22058E-12
 -1      2628 2.55772E+01-4.81245E+00 5.12593E-02-3.50108E+00 1.23263E-13-3.31651E-13
 -1      2629 2.92878E+01-2.07031E+00-5.75545E-03-4.15006E-01-2.47904E-13-6.29330E-13
 -1      2630 7.06461E+00-2.39564E+00 1.52000E-01-4.01437E+00 1.64202E-13 1.18233E-12
 -1      2631 2.98170E+01 6.39171E+00-1.04546E-01-6.03313E-01-1.23174E-12-1.15227E-13
 -1      2632 1.99988E+01-1.25652E-03-5.87337E-06-2.32642E-03-4.28562E-13 4.26686E-13
 -1      2633 1.99990E+01-1.61550E-03 2.39887E-06-2.57653E-03-3.60141E-13 6.17039E-13
 -1      2634 1.29557E+01-4.17067E+00 1.19956E-01 6.34743E+00-5.94247E-13 6.13509E-13
 -1      2635 2.16428E+01-5.25042E+00 9.66129E-02 5.49099E+00 1.68004E-13-3.79113E-13
 -1      2636 2.99970E+01-2.62977E-01-2.26706E-02-6.51637E-01-5.80015E-13 1.84325E-13
 -1      2637 2.15878E+01 1.82217E+00 1.15662E-02 5.27583E-01 5.79078E-13-7.51326E-14
 -1      2638 3.08757E+01 3.14506E+00-1.08583E-01-1.62043E+00 1.08749E-12-5.88279E-13
 -1      2639 2.94177E+01 1.53887E+00-6.64084E-02-1.85718E+00 8.03371E-13-7.36827E-13
 -1      2640 2.92806E+01 4.06419E+00-2.10782E-01-2.08175E+00 1.09207E-12-6.65634E-13
 -1      2641 1.99986E+01-1.16998E-03-1.50426E-05 2.49793E-03-2.96131E-13-3.09451E-13
 -1      2642 1.99991E+01-1.75765E-03 5.92930E-06 2.74985E-03-2.84066E-13-4.42973E-13
 -1      2643 1.99991E+01-1.83249E-03-3.59866E-06 3.21973E-03-3.29011E-13-3.70817E-13
 -1      2644 1.99982E+01-1.09991E-03-1.61916E-05 2.87557E-03-3.45113E-13-2.52408E-13
 -1      2645 3.03133E+01 5.81618E+00-9.30250E-02 1.36352E+00-1.06251E-12-4.97977E-13
 -1      2646 1.25888E+01-4.13599E+00 9.33785E-02-6.56495E+00-3.13305E-13-1.11117E-12
 -1      2647 1.56739E+01-4.11925E+00 5.38594E-02-6.34590E+00-4.86583E-13-8.34319E-13
 -1      2648 1.15218E+01-2.91122E+00 1.54217E-01-6.01413E+00-3.79169E-13-1.08280E-12
 -1      2649 6.72299E+00-2.22014E+00 1.45102E-01-3.95828E+00-2.34229E-13-1.36530E-12
 -1      2650 2.57769E+01-4.68636E+00 6.47151E-02-3.50651E+00-3.45834E-14-1.68976E-13
 -1      2651 3.06858E+01 3.74569E+00-1.11460E-01 1.59036E+00 8.93535E-13 8.30169E-14
 -1      2652 2.90330E+01 4.36692E+00-1.84283E-01 1.85769E+00 9.84518E-13 2.31024E-13
 -1      2653 2.90956E+01 2.07255E+00-1.01338E-01 1.91447E+00 6.67355E-13 2.57919E-13
 -1      2654 7.51054E+00-2.79062E+00 1.36743E-01 4.85678E+00 2.19491E-13-1.20992E-12
 -1      2655 5.18464E+00-1.27642E+00 9.50117E-02 1.70126E+00 1.20556E-13-1.31406E-12
 -1      2656 4.06364E+00-2.00900E+00 1.23491E-01 3.26816E-01 3.70190E-15-1.40127E-12
 -1      2657 5.57926E+00-9.01596E-01 1.52948E-01-7.73355E-01-7.18080E-14-1.33163E-12
 -1      2658 2.95946E+01-1.43501E+00-1.74669E-03 7.38082E-02 4.52888E-13-6.13176E-13
 -1      2659 1.43689E+01-4.34462E+00 1.29492E-01 6.59340E+00 3.03313E-13-8.14904E-13
 -1      2660 2.02731E+01 2.96160E+00-1.85116E-02-5.07195E-01-4.40656E-13-5.54567E-13
 -1      2661 2.08269E+01 2.69237E+00-1.80073E-02-6.91056E-01-5.12655E-13-4.46199E-13
 -1      2662 2.10873E+01 2.10927E+00 2.60082E-03-3.85446E-01-4.91851E-13-3.67847E-13
 -1      2663 2.01590E+01 2.66599E+00 1.91719E-03-1.99944E-01-4.00206E-13-5.47084E-13
 -1      2664 2.97259E+01-1.32455E+00-4.45095E-02-8.41732E-02 4.39409E-13 7.09710E-14
 -1      2665 2.89434E+01-4.35361E-01-1.24676E-01 1.33528E+00 3.77254E-13 3.12542E-13
 -1      2666 2.82188E+01-2.76207E+00-1.06632E-02-4.71044E-01 2.01172E-13 2.21823E-13
 -1      2667 3.05640E+01 2.11769E+00-4.65263E-02 1.57205E+00-6.57335E-13-6.42736E-13
 -1      2668 1.99989E+01-1.70645E-03-8.61042E-06-3.08623E-03-2.74115E-13 7.08242E-13
 -1      2669 1.99985E+01-1.36031E-03 3.85991E-06 3.40173E-03-2.77839E-13-1.34740E-13
 -1      2670 1.76802E+01 3.53386E+00 1.84944E-03-2.96472E-01 2.18352E-13-7.27376E-13
 -1      2671 1.73696E+01 3.64772E+00-1.07066E-02-2.71553E-01 1.67396E-13-7.52819E-13
 -1      2672 1.71511E+01 3.78038E+00-1.81732E-03-1.50868E-01 1.34394E-13-7.70845E-13
 -1      2673 1.70341E+01 3.82316E+00-6.81876E-03-8.36794E-02 8.22016E-14-7.69310E-13
 -1      2674 1.72224E+01 3.45839E+00 9.07101E-03-3.05695E-01 1.36949E-13-7.29431E-13
 -1      2675 1.95480E+01 2.61336E+00-1.43846E-03-1.75396E-01 4.23242E-13-4.91198E-13
 -1      2676 1.90166E+01 2.84778E+00-1.09899E-02-2.70486E-01 3.70677E-13-5.48395E-13
 -1      2677 2.06491E+01 2.01424E+00-2.65478E-03 2.97715E-02 4.96641E-13-3.31008E-13
 -1      2678 2.00913E+01 2.31279E+00-7.61866E-03-8.25599E-02 4.58409E-13-4.18682E-13
 -1      2679 1.99106E+01 2.07454E+00 2.50608E-04-3.81873E-01 3.92635E-13-4.11551E-13
 -1      2680 2.18029E+01 6.22555E-01-3.88258E-03-4.32833E-01 3.84945E-13-5.29769E-14
 -1      2681 2.18047E+01 9.09791E-01 1.36215E-02-1.77795E-01 4.42537E-13-4.48795E-14
 -1      2682 2.15221E+01 1.50680E+00-2.63260E-03 2.03426E-01 5.27122E-13-1.17055E-13
 -1      2683 6.23630E+00-8.78165E-01 1.40836E-01 1.19909E+00-2.78361E-13 1.08369E-12
 -1      2684 6.16654E+00-8.74853E-01 1.32807E-01-1.05704E+00-1.50591E-13 1.10453E-12
 -1      2685 2.16367E+01 3.84027E-01 1.59347E-02 7.96656E-01-2.64282E-13-1.70739E-13
 -1      2686 2.17405E+01 6.45909E-02-5.18530E-03 9.10051E-01-2.00112E-13-1.60537E-13
 -1      2687 2.19812E+01-2.46629E-01 1.96393E-02 9.95564E-01-1.37603E-13-1.21083E-13
 -1      2688 2.21634E+01-5.89138E-01-8.21689E-03 9.60521E-01-9.02533E-14-1.31813E-13
 -1      2689 2.14583E+01-6.68049E-02-1.61363E-02 1.11958E+00-1.67547E-13-2.09736E-13
 -1      2690 2.25486E+01-9.18072E-01 2.34688E-02 8.88814E-01-5.30319E-14-6.50252E-14
 -1      2691 2.27964E+01-1.26255E+00-1.42118E-02 6.88909E-01-3.81719E-14-3.48571E-14
 -1      2692 2.20089E+01-8.74373E-01-2.23030E-02 1.18947E+00-4.59740E-14-1.11641E-13
 -1      2693 2.33369E+01-1.54902E+00 2.40625E-02 4.09049E-01-1.60763E-14 1.55284E-14
 -1      2694 2.36061E+01-1.77432E+00-1.67362E-02 4.13082E-02-2.71237E-14 1.59670E-14
 -1      2695 2.28625E+01-1.68354E+00-2.52490E-02 9.04254E-01-8.64033E-15-3.96562E-14
 -1      2696 2.42117E+01-1.86953E+00 1.06029E-02-4.57053E-01-3.88838E-14 6.60906E-14
 -1      2697 2.44225E+01-1.75367E+00-1.56797E-02-9.27722E-01-8.94111E-14 6.69352E-14
 -1      2698 2.39771E+01-2.19989E+00-1.35856E-02 1.70426E-01-3.15594E-14 6.11043E-14
 -1      2699 2.48526E+01-1.35516E+00-2.25863E-02-1.54506E+00-1.52524E-13 1.46164E-13
 -1      2700 2.48806E+01-7.20221E-01-1.92142E-02-1.85872E+00-2.25535E-13 1.31266E-13
 -1      2701 2.51296E+01-1.93255E+00 1.29764E-02-9.97160E-01-7.49192E-14 1.47184E-13
 -1      2702 2.49992E+01 2.02533E-01-5.92907E-02-2.24057E+00-3.09813E-13 1.39422E-13
 -1      2703 2.48529E+01 1.32671E+00 4.28729E-03-2.12346E+00-4.08656E-13 1.45444E-13
 -1      2704 2.57329E+01-4.73838E-01-6.22690E-02-2.04711E+00-2.89525E-13 2.52104E-13
 -1      2705 2.45799E+01 2.38077E+00-9.14641E-02-1.71483E+00-4.94396E-13 4.93433E-14
 -1      2706 2.44565E+01 3.18761E+00-3.19539E-02-1.02940E+00-5.10744E-13-2.73948E-14
 -1      2707 2.57409E+01 2.18972E+00-4.53068E-02-2.10693E+00-5.03229E-13 2.02144E-13
 -1      2708 2.43387E+01 3.53736E+00-6.09926E-02 2.37080E-02-6.16993E-13-2.23827E-13
 -1      2709 2.43729E+01 3.33542E+00-7.69811E-02 9.06791E-01-6.14106E-13-3.72165E-13
 -1      2710 2.54111E+01 4.02865E+00-1.03420E-01-5.76501E-01-6.89573E-13-1.68220E-13
 -1      2711 2.46003E+01 2.62179E+00-1.69444E-02 1.80051E+00-5.45938E-13-4.99323E-13
 -1      2712 2.47489E+01 1.58630E+00-9.29527E-02 2.27517E+00-4.85830E-13-5.96305E-13
 -1      2713 2.55092E+01 3.59214E+00-7.87545E-02 1.51076E+00-7.03305E-13-5.30010E-13
 -1      2714 2.49509E+01 5.01285E-01 8.06005E-03 2.36762E+00-3.57166E-13-6.19885E-13
 -1      2715 2.50420E+01-5.32397E-01-4.44119E-02 2.27550E+00-1.63838E-13-6.03970E-13
 -1      2716 2.58231E+01 1.18710E+00-2.37866E-02 2.49399E+00-4.24077E-13-6.32834E-13
 -1      2717 2.47538E+01-1.27646E+00-2.58221E-02 1.72312E+00-5.32196E-14-5.64973E-13
 -1      2718 2.46629E+01-1.70513E+00-7.71803E-03 1.31007E+00 3.88821E-14-5.66922E-13
 -1      2719 2.55297E+01-1.24098E+00-6.06052E-02 1.90861E+00-9.87578E-14-5.55347E-13
 -1      2720 2.41223E+01-1.92748E+00-1.80776E-02 6.84124E-01 7.75499E-14-5.16085E-13
 -1      2721 2.38725E+01-1.91378E+00 1.67219E-02 2.07289E-01 1.32763E-13-5.30945E-13
 -1      2722 2.46911E+01-2.21455E+00 1.21998E-02 7.11619E-01 8.15424E-14-4.74934E-13
 -1      2723 2.32513E+01-1.75512E+00-1.63164E-02-2.59959E-01 1.33144E-13-4.73800E-13
 -1      2724 2.29547E+01-1.50262E+00 2.14063E-02-6.17763E-01 1.45125E-13-4.32202E-13
 -1      2725 2.34646E+01-2.22756E+00-1.96920E-02-4.24117E-01 1.59961E-13-3.99519E-13
 -1      2726 2.24418E+01-1.23251E+00-1.12076E-02-8.80528E-01 1.53791E-13-3.68663E-13
 -1      2727 2.21640E+01-9.40998E-01 1.66579E-02-1.09561E+00 1.67309E-13-3.89329E-13
 -1      2728 2.23800E+01-1.64367E+00-2.35253E-02-1.10332E+00 1.49554E-13-2.57974E-13
 -1      2729 2.18032E+01-6.85691E-01-5.12370E-03-1.20153E+00 1.57153E-13-3.63001E-13
 -1      2730 2.15716E+01-4.48023E-01 1.08997E-02-1.29949E+00 1.65099E-13-3.04252E-13
 -1      2731 2.15725E+01-9.63501E-01-1.85448E-02-1.41859E+00 1.98870E-13-3.60928E-13
 -1      2732 2.13399E+01-2.57463E-01-1.17642E-03-1.30790E+00 1.83207E-13-2.54429E-13
 -1      2733 2.11560E+01-9.54510E-02 6.12564E-03-1.32452E+00 2.11490E-13-2.19776E-13
 -1      2734 2.10350E+01-4.08843E-01-1.21746E-02-1.49470E+00 1.69268E-13-2.49660E-13
 -1      2735 2.10141E+01 2.70151E-02 9.82544E-04-1.27849E+00 1.44001E-13-2.43035E-13
 -1      2736 2.08688E+01 1.22742E-01 2.87498E-03-1.24464E+00 1.43950E-13-1.54565E-13
 -1      2737 2.06978E+01-2.89065E-02-7.13020E-03-1.43383E+00 1.68554E-13-2.36584E-13
 -1      2738 2.07836E+01 1.90536E-01 2.10946E-03-1.17140E+00 1.78149E-13-2.26898E-13
 -1      2739 2.06671E+01 2.37556E-01 8.62959E-04-1.11025E+00 1.93935E-13-2.39977E-13
 -1      2740 2.04910E+01 1.97604E-01-3.86683E-03-1.30100E+00 1.46869E-13-3.71225E-13
 -1      2741 2.06152E+01 2.67291E-01 2.63493E-03-1.02665E+00 1.77273E-13-2.54932E-13
 -1      2742 2.05201E+01 2.82383E-01-2.41099E-04-9.54040E-01 3.37007E-14-2.33342E-13
 -1      2743 2.03626E+01 3.10963E-01-2.00185E-03-1.13621E+00 1.73496E-13-4.25656E-13
 -1      2744 2.04870E+01 2.88178E-01 2.80775E-03-8.70159E-01-4.38921E-14-1.78878E-13
 -1      2745 2.04085E+01 2.84271E-01-7.63936E-04-7.96220E-01-4.09706E-14-1.27840E-13
 -1      2746 2.02793E+01 3.49569E-01-1.03073E-03-9.63640E-01 3.17691E-14-2.15915E-13
 -1      2747 2.03858E+01 2.76434E-01 2.75731E-03-7.17838E-01-9.40884E-14-1.08551E-13
 -1      2748 2.03209E+01 2.62465E-01-9.44390E-04-6.48504E-01-1.24118E-13-1.23987E-13
 -1      2749 2.02213E+01 3.43192E-01-5.75180E-04-7.97663E-01-5.59241E-14-1.43256E-13
 -1      2750 2.03040E+01 2.47873E-01 2.56684E-03-5.78615E-01-6.01150E-14-2.90918E-14
 -1      2751 2.02506E+01 2.29575E-01-9.39127E-04-5.16954E-01-1.82341E-15-4.01292E-14
 -1      2752 2.01778E+01 3.12567E-01-3.88374E-04-6.46318E-01-6.69205E-14 2.00267E-14
 -1      2753 2.02373E+01 2.12510E-01 2.29636E-03-4.56756E-01-1.11672E-13-1.43626E-14
 -1      2754 2.01937E+01 1.93326E-01-8.44015E-04-4.03960E-01-1.38970E-13-5.97215E-14
 -1      2755 2.01431E+01 2.71135E-01-3.25291E-04-5.13503E-01 1.99941E-14 8.31480E-14
 -1      2756 2.01829E+01 1.76284E-01 1.99011E-03-3.53521E-01-5.57224E-14-1.35311E-13
 -1      2757 2.01478E+01 1.58133E-01-7.14484E-04-3.09626E-01-5.19575E-14-1.34944E-13
 -1      2758 2.01146E+01 2.27071E-01-3.08629E-04-4.00392E-01-1.19503E-13-9.57098E-15
 -1      2759 2.01388E+01 1.42444E-01 1.67936E-03-2.68338E-01-1.04305E-13-1.96120E-13
 -1      2760 2.01110E+01 1.26274E-01-5.80634E-04-2.32724E-01-7.36669E-14-1.70583E-13
 -1      2761 2.00909E+01 1.85001E-01-3.01731E-04-3.06437E-01-1.63877E-13-1.20296E-13
 -1      2762 2.01036E+01 1.12547E-01 1.38466E-03-1.99621E-01 4.14265E-14-9.77932E-14
 -1      2763 2.00818E+01 9.87159E-02-4.57400E-04-1.71337E-01 3.05104E-15 6.00064E-14
 -1      2764 2.00711E+01 1.47275E-01-2.90203E-04-2.30079E-01 2.05533E-14-1.19462E-13
 -1      2765 2.00758E+01 8.71273E-02 1.11809E-03-1.45303E-01-9.75928E-14 1.13070E-13
 -1      2766 2.00591E+01 7.56502E-02-3.51015E-04-1.23279E-01-2.90066E-14 7.82962E-14
 -1      2767 2.00547E+01 1.14833E-01-2.70660E-04-1.69241E-01 2.09869E-14-1.59987E-14
 -1      2768 2.00541E+01 6.61335E-02 8.85460E-04-1.03181E-01-1.06441E-13 1.20624E-13
 -1      2769 2.00416E+01 5.68415E-02-2.62955E-04-8.63575E-02-2.11516E-13 8.27367E-14
 -1      2770 2.00414E+01 8.77910E-02-2.44424E-04-1.21671E-01-5.26395E-14 1.02048E-13
 -1      2771 2.00377E+01 4.92043E-02 6.88208E-04-7.11289E-02-2.82990E-13-8.63757E-15
 -1      2772 2.00284E+01 4.18405E-02-1.92272E-04-5.85240E-02-1.64228E-13-8.81459E-14
 -1      2773 2.00308E+01 6.58082E-02-2.14265E-04-8.51553E-02-3.14463E-13 1.30060E-13
 -1      2774 2.00253E+01 3.58363E-02 5.24969E-04-4.72067E-02-1.89670E-13-1.40031E-13
 -1      2775 2.00186E+01 3.01149E-02-1.36931E-04-3.79543E-02-2.15826E-13-1.50030E-13
 -1      2776 2.00224E+01 4.83212E-02-1.82914E-04-5.76447E-02-3.15345E-13-2.45350E-13
 -1      2777 2.00162E+01 2.54852E-02 3.92740E-04-2.97186E-02-1.47109E-13-1.14243E-13
 -1      2778 2.00115E+01 2.11246E-02-9.45450E-05-2.30788E-02-3.35290E-14-5.29938E-14
 -1      2779 2.00159E+01 3.46842E-02-1.52499E-04-3.73242E-02-2.20625E-13-1.92002E-13
 -1      2780 2.00097E+01 1.76231E-02 2.87709E-04-1.72260E-02 4.27772E-14-4.94301E-14
 -1      2781 2.00065E+01 1.43644E-02-6.27632E-05-1.25841E-02 1.18302E-13-5.49620E-14
 -1      2782 2.00109E+01 2.42520E-02-1.24435E-04-2.26361E-02-2.64266E-14-3.16625E-13
 -1      2783 2.00052E+01 1.17686E-02 2.05828E-04-8.53942E-03 8.50848E-14-1.23716E-13
 -1      2784 2.00031E+01 9.38399E-03-3.94626E-05-5.39610E-03 1.83183E-14-3.34061E-13
 -1      2785 2.00072E+01 1.64254E-02-9.95118E-05-1.22788E-02-6.67740E-15-3.63971E-13
 -1      2786 2.00021E+01 7.50068E-03 1.43175E-04-2.69719E-03 1.13665E-13-4.01058E-13
 -1      2787 2.00008E+01 5.79539E-03-2.28231E-05-6.55410E-04 1.77466E-13-4.33494E-13
 -1      2788 2.00045E+01 1.06730E-02-7.80365E-05-5.18929E-03 6.78628E-14-4.31672E-13
 -1      2789 2.00002E+01 4.46118E-03 9.61575E-05 1.06250E-03 2.53820E-13-3.64840E-13
 -1      2790 1.99995E+01 3.27276E-03-1.13426E-05 2.31198E-03 1.42573E-13-1.18833E-13
 -1      2791 2.00026E+01 6.53852E-03-5.99869E-05-5.17487E-04 1.82470E-13-4.07387E-13
 -1      2792 1.99990E+01 2.35214E-03 6.16316E-05 3.33058E-03 8.76702E-14-4.15981E-14
 -1      2793 1.99987E+01 1.54719E-03-3.82094E-06 4.02331E-03 1.47053E-13 8.02578E-14
 -1      2794 2.00013E+01 3.63940E-03-4.51361E-05 2.40253E-03 2.29317E-13-2.67804E-13
 -1      2795 1.99984E+01 9.29246E-04 3.69316E-05 4.55517E-03-4.55469E-15 1.55667E-13
 -1      2796 1.99983E+01 3.99306E-04 6.62052E-07 4.86590E-03-2.01905E-14 8.57183E-14
 -1      2797 2.00004E+01 1.66023E-03-3.31589E-05 4.08127E-03 5.24552E-14-2.63216E-13
 -1      2798 1.99981E+01-6.18519E-06 1.98516E-05 5.06695E-03-1.01560E-14 6.66636E-14
 -1      2799 1.99982E+01-3.49073E-04 2.79962E-06 5.12079E-03 2.22688E-13 1.15632E-14
 -1      2800 1.99999E+01 3.43806E-04-2.37304E-05 4.90048E-03 2.49285E-14-1.68025E-13
 -1      2801 1.99981E+01-6.15623E-04 8.64761E-06 5.10102E-03 2.26823E-13-3.23210E-14
 -1      2802 1.99984E+01-8.42938E-04 3.21882E-06 4.98305E-03-4.72590E-14-1.43085E-13
 -1      2803 1.99995E+01-5.18779E-04-1.65239E-05 5.13678E-03 1.17296E-13-2.97355E-13
 -1      2804 1.99983E+01-1.03114E-03 1.69541E-06 4.81591E-03-1.70378E-13-7.70335E-14
 -1      2805 1.99986E+01-1.20064E-03 2.16806E-06 4.57898E-03-2.32665E-13-2.63616E-13
 -1      2806 1.99994E+01-1.09687E-03-1.12877E-05 4.98172E-03-1.72707E-13-3.23450E-13
 -1      2807 1.99986E+01-1.36068E-03-1.83899E-06 4.30928E-03-3.17381E-13-2.53314E-13
 -1      2808 1.99988E+01-1.51405E-03 6.77474E-08 3.98110E-03-3.02164E-13-4.87850E-13
 -1      2809 1.99993E+01-1.52934E-03-7.12883E-06 4.55993E-03-2.30224E-13-2.95951E-13
 -1      2810 2.33764E+01-1.37862E+00-2.03061E-02 1.13481E-01 8.58862E-15 1.16197E-13
 -1      2811 2.32167E+01-1.19002E+00 1.85193E-02-2.22585E-01 1.78400E-14 1.09311E-13
 -1      2812 2.88866E+01 4.64868E+00-1.05617E-01 2.00882E+00-8.86152E-13-6.34173E-13
 -1      2813 2.83692E+01 5.75153E+00-1.98347E-01 1.19554E+00-1.01735E-12-5.18384E-13
 -1      2814 2.27954E+01-9.61834E-01-1.43061E-02-4.95953E-01 5.93327E-14 5.61965E-14
 -1      2815 2.26247E+01-6.85772E-01 2.02636E-02-6.88625E-01 1.15057E-13 5.06854E-14
 -1      2816 2.28744E+01-1.32896E+00-1.56735E-02-6.17981E-01 3.53975E-14 2.93559E-15
 -1      2817 2.41933E+01-6.82366E-01-4.24789E-03 1.76727E+00 1.14562E-13 2.90538E-13
 -1      2818 2.42336E+01-1.12856E+00-1.27704E-02 1.49728E+00 1.50687E-14 2.58894E-13
 -1      2819 2.40755E+01 7.87082E-01 1.75124E-02 2.04182E+00 3.68245E-13 2.83146E-13
 -1      2820 2.42515E+01-3.90974E-02-3.07879E-02 2.10459E+00 2.14243E-13 3.13160E-13
 -1      2821 2.49532E+01-4.91699E-01-3.49566E-02 2.04746E+00 1.93276E-13 2.75308E-13
 -1      2822 2.36582E+01 2.28766E+00-5.61372E-03 1.21083E+00 6.53290E-13 1.55601E-13
 -1      2823 2.37956E+01 1.58496E+00-6.86736E-02 1.73856E+00 5.36099E-13 2.22082E-13
 -1      2824 2.47810E+01 1.42686E+00-1.21960E-02 2.10816E+00 4.90502E-13 2.82755E-13
 -1      2825 2.34916E+01 2.69554E+00-4.04396E-02-4.45072E-01 6.58931E-13-8.34285E-14
 -1      2826 2.34988E+01 2.68111E+00-3.81291E-02 3.19390E-01 7.32261E-13 1.31874E-14
 -1      2827 2.44300E+01 3.07967E+00-3.58991E-02 8.65128E-01 7.55743E-13 1.11746E-13
 -1      2828 2.37899E+01 1.64037E+00-7.29859E-02-1.89084E+00 5.15980E-13-3.53506E-13
 -1      2829 2.36636E+01 2.33582E+00-1.91951E-03-1.35175E+00 5.88540E-13-2.28919E-13
 -1      2830 2.44308E+01 3.12849E+00-3.06772E-02-1.02607E+00 7.42080E-13-1.88412E-13
 -1      2831 2.42569E+01 1.69196E-02-4.30938E-02-2.29873E+00 2.51843E-13-5.41962E-13
 -1      2832 2.40868E+01 8.55633E-01 1.52670E-02-2.22485E+00 3.99267E-13-4.73005E-13
 -1      2833 2.47648E+01 1.53104E+00-1.24204E-02-2.30251E+00 5.33008E-13-4.36763E-13
 -1      2834 2.42971E+01-1.14446E+00-1.45352E-02-1.70138E+00 6.66689E-14-5.16295E-13
 -1      2835 2.42375E+01-6.64699E-01-6.42988E-03-1.99582E+00 1.46454E-13-5.25948E-13
 -1      2836 2.49450E+01-4.45121E-01-1.83361E-02-2.22494E+00 2.17222E-13-5.48072E-13
 -1      2837 2.38906E+01-1.52107E+00 7.07958E-03-7.29493E-01 7.67268E-15-5.11798E-13
 -1      2838 2.39785E+01-1.43368E+00-1.69580E-02-1.15970E+00 7.02507E-14-4.77594E-13
 -1      2839 2.45437E+01-1.64335E+00-1.21888E-03-1.29039E+00 4.27527E-14-5.23644E-13
 -1      2840 2.32413E+01-1.31658E+00 1.54900E-02 1.41495E-01-1.47045E-13-3.35569E-13
 -1      2841 2.34223E+01-1.47365E+00-1.86642E-02-2.37603E-01-1.08011E-13-4.48096E-13
 -1      2842 2.37217E+01-1.87596E+00-7.86476E-03-2.12718E-01-7.81510E-14-3.84588E-13
 -1      2843 2.25797E+01-8.95685E-01 1.41327E-02 7.32614E-01-1.01292E-13-2.88204E-13
 -1      2844 2.27919E+01-1.12443E+00-1.51478E-02 4.71318E-01-9.20566E-14-2.64323E-13
 -1      2845 2.28264E+01-1.52368E+00-1.56549E-02 5.92772E-01-1.44316E-13-2.24210E-13
 -1      2846 2.20160E+01-4.78520E-01 1.03978E-02 1.05217E+00-1.29662E-13-2.35620E-13
 -1      2847 2.22235E+01-6.85568E-01-9.63691E-03 9.08917E-01-9.52268E-14-2.86621E-13
 -1      2848 2.20715E+01-9.81661E-01-1.48815E-02 1.07000E+00-1.30337E-13-1.45918E-13
 -1      2849 2.15737E+01-1.59819E-01 6.47750E-03 1.16619E+00-1.15508E-13-2.76655E-13
 -1      2850 2.17612E+01-3.09663E-01-4.53961E-03 1.11427E+00-1.19280E-13-2.93294E-13
 -1      2851 2.15093E+01-4.86840E-01-1.08248E-02 1.28062E+00-6.53546E-14-1.81617E-13
 -1      2852 2.12351E+01 4.73771E-02 3.48324E-03 1.14699E+00-2.48595E-14-2.87601E-13
 -1      2853 2.13991E+01-4.57099E-02-1.09539E-03 1.15620E+00-5.84548E-14-2.76390E-13
 -1      2854 2.11152E+01-1.24974E-01-7.01589E-03 1.31320E+00-7.03079E-14-2.84159E-13
 -1      2855 2.09741E+01 1.62912E-01 1.54306E-03 1.05116E+00-1.97402E-14-2.20573E-13
 -1      2856 2.11159E+01 1.13949E-01 1.07264E-03 1.09614E+00-1.13995E-14-2.44547E-13
 -1      2857 2.08425E+01 1.02763E-01-4.27317E-03 1.23921E+00-4.98162E-14-1.63879E-13
 -1      2858 2.07692E+01 2.13937E-01 4.21230E-04 9.18420E-01-8.72142E-14-9.33028E-14
 -1      2859 2.08907E+01 1.94929E-01 2.30879E-03 9.80691E-01-4.83207E-15-2.11515E-13
 -1      2860 2.06501E+01 2.25101E-01-2.55491E-03 1.10874E+00-5.93821E-14-1.66445E-13
 -1      2861 2.06054E+01 2.24255E-01-1.58191E-04 7.74554E-01-1.68857E-13-1.89614E-13
 -1      2862 2.07086E+01 2.23570E-01 2.89189E-03 8.41899E-01-1.63313E-13-1.23693E-13
 -1      2863 2.05092E+01 2.75059E-01-1.59577E-03 9.54825E-01-1.32216E-13 4.38186E-15
 -1      2864 2.04729E+01 2.11432E-01-4.07703E-04 6.35068E-01-2.27596E-13-2.03205E-13
 -1      2865 2.05594E+01 2.20780E-01 3.04226E-03 7.00116E-01-1.83459E-13-1.92038E-13
 -1      2866 2.04015E+01 2.80150E-01-1.10297E-03 7.98128E-01-1.58909E-13-3.33112E-14
 -1      2867 2.03654E+01 1.87201E-01-4.74355E-04 5.08404E-01-7.94229E-14-2.35274E-13
 -1      2868 2.04369E+01 2.01173E-01 2.92389E-03 5.67187E-01-1.77508E-13-3.13100E-13
 -1      2869 2.03164E+01 2.60215E-01-8.59491E-04 6.50788E-01-1.66014E-13-7.79337E-14
 -1      2870 2.02786E+01 1.58848E-01-4.49424E-04 3.98368E-01 3.08339E-14-1.68222E-13
 -1      2871 2.03367E+01 1.74156E-01 2.65341E-03 4.49157E-01 3.80640E-14-2.38413E-13
 -1      2872 2.02477E+01 2.28355E-01-7.33288E-04 5.19181E-01-8.37821E-14-2.46767E-13
 -1      2873 2.02090E+01 1.30589E-01-3.85668E-04 3.05879E-01-1.35404E-14-4.05606E-14
 -1      2874 2.02554E+01 1.45374E-01 2.31145E-03 3.48324E-01 2.36953E-14 7.32477E-15
 -1      2875 2.01920E+01 1.92643E-01-6.53483E-04 4.05911E-01-8.25380E-14-9.07024E-14
 -1      2876 2.01540E+01 1.04648E-01-3.11505E-04 2.30170E-01 1.92260E-13-1.04892E-13
 -1      2877 2.01905E+01 1.17969E-01 1.95100E-03 2.64710E-01 5.73278E-14-7.09274E-14
 -1      2878 2.01468E+01 1.57712E-01-5.87037E-04 3.11219E-01 4.85247E-14 1.84328E-14
 -1      2879 2.01110E+01 8.20242E-02-2.40933E-04 1.69583E-01 1.85498E-13-9.92954E-15
 -1      2880 2.01392E+01 9.34951E-02 1.60463E-03 1.97058E-01 2.27876E-13-2.66520E-14
 -1      2881 2.01105E+01 1.25973E-01-5.21622E-04 2.33953E-01 5.92696E-14 8.27595E-15
 -1      2882 2.00781E+01 6.29897E-02-1.79865E-04 1.22078E-01 1.51665E-13 3.32010E-14
 -1      2883 2.00994E+01 7.25483E-02 1.29045E-03 1.43487E-01 1.97031E-13 5.72864E-14
 -1      2884 2.00817E+01 9.84677E-02-4.54884E-04 1.72240E-01 1.40660E-13 6.49634E-14
 -1      2885 2.00532E+01 4.74130E-02-1.29930E-04 8.55466E-02-5.96547E-14 3.76582E-14
 -1      2886 2.00691E+01 5.51737E-02 1.01681E-03 1.01905E-01 1.08856E-13 6.84314E-14
 -1      2887 2.00591E+01 7.54265E-02-3.88430E-04 1.23909E-01 9.15093E-14 1.98272E-13
 -1      2888 2.00348E+01 3.49576E-02-9.06633E-05 5.79917E-02-5.05751E-15 3.08329E-14
 -1      2889 2.00463E+01 4.11202E-02 7.85782E-04 7.02457E-02-4.67562E-14 6.91763E-14
 -1      2890 2.00418E+01 5.66332E-02-3.24810E-04 8.67703E-02-5.37271E-14 9.95275E-15
 -1      2891 2.00215E+01 2.52021E-02-6.07145E-05 3.76215E-02 7.51830E-14 2.72068E-14
 -1      2892 2.00297E+01 2.99976E-02 5.95611E-04 4.66126E-02 2.31146E-14-3.46849E-15
 -1      2893 2.00286E+01 4.16471E-02-2.66211E-04 5.87723E-02 2.12160E-14-1.08893E-13
 -1      2894 2.00121E+01 1.77096E-02-3.84744E-05 2.28885E-02 4.40367E-14-7.38947E-14
 -1      2895 2.00177E+01 2.13691E-02 4.42473E-04 2.93362E-02 3.33694E-14-3.93377E-14
 -1      2896 2.00189E+01 2.99383E-02-2.14042E-04 3.80826E-02 6.36425E-14-1.56540E-15
 -1      2897 2.00056E+01 1.20671E-02-2.23881E-05 1.24943E-02 2.40848E-13-1.35173E-13
 -1      2898 2.00094E+01 1.48047E-02 3.21591E-04 1.69975E-02 1.76919E-13-1.11207E-13
 -1      2899 2.00118E+01 2.09671E-02-1.68939E-04 2.31233E-02 9.86566E-14-1.23820E-13
 -1      2900 2.00014E+01 7.90395E-03-1.10914E-05 5.37614E-03 5.76235E-14 4.03361E-14
 -1      2901 2.00038E+01 9.90925E-03 2.27967E-04 8.42142E-03 2.57983E-13 5.73563E-14
 -1      2902 2.00067E+01 1.42273E-02-1.30914E-04 1.25726E-02 1.35595E-13-8.38841E-14
 -1      2903 1.99988E+01 4.90010E-03-3.45679E-06 6.82504E-04-3.52106E-14 1.56759E-13
 -1      2904 2.00002E+01 6.33532E-03 1.56811E-04 2.65696E-03 3.73045E-14 1.86039E-13
 -1      2905 2.00033E+01 9.26718E-03-9.95557E-05 5.34974E-03-3.94773E-14 1.17727E-13
 -1      2906 1.99974E+01 2.78594E-03 1.40368E-06-2.25479E-03-2.89723E-13 1.43099E-14
 -1      2907 1.99980E+01 3.78664E-03 1.03790E-04-1.04962E-03-1.34943E-13 1.33743E-13
 -1      2908 2.00010E+01 5.69794E-03-7.41951E-05 5.89292E-04-1.23586E-13 2.47059E-13
 -1      2909 1.99967E+01 1.33873E-03 4.15811E-06-3.94899E-03-3.18957E-14-1.31834E-13
 -1      2910 1.99969E+01 2.01630E-03 6.51323E-05-3.28332E-03-2.40073E-13-1.73614E-13
 -1      2911 1.99996E+01 3.19279E-03-5.40487E-05-2.38719E-03-1.38606E-13 2.03266E-14
 -1      2912 1.99966E+01 3.76709E-04 5.27847E-06-4.78478E-03 9.10022E-14-2.20553E-13
 -1      2913 1.99965E+01 8.21687E-04 3.76684E-05-4.48809E-03 1.27868E-13-8.80965E-14
 -1      2914 1.99988E+01 1.48211E-03-3.83172E-05-4.10027E-03 2.01507E-14-4.92404E-14
 -1      2915 1.99968E+01-2.47764E-04 5.10054E-06-5.04163E-03 1.83483E-13-4.40581E-13
 -1      2916 1.99965E+01 3.80162E-05 1.88024E-05-4.99175E-03 5.33851E-14-4.18773E-13
 -1      2917 1.99984E+01 3.45891E-04-2.62602E-05-4.93961E-03 2.13171E-13-3.17356E-13
 -1      2918 1.99972E+01-6.55002E-04 3.86772E-06-4.91360E-03 1.31665E-13-2.52023E-13
 -1      2919 1.99968E+01-4.68646E-04 6.51969E-06-5.02753E-03 2.42976E-13-4.08471E-13
 -1      2920 1.99983E+01-3.94669E-04-1.72094E-05-5.18769E-03 1.01914E-13-5.13756E-13
 -1      2921 1.99977E+01-9.43803E-04 1.40027E-06-4.52629E-03-1.88111E-14 2.37540E-13
 -1      2922 1.99972E+01-8.08119E-04-9.39334E-07-4.75223E-03 1.54376E-15-1.14389E-14
 -1      2923 1.99984E+01-8.84924E-04-1.05510E-05-5.04047E-03-1.25926E-13-1.66800E-13
 -1      2924 1.99982E+01-1.19202E-03-3.71394E-06-3.94874E-03-1.33377E-13 6.36871E-13
 -1      2925 1.99978E+01-1.07362E-03-6.74095E-06-4.26020E-03-1.16505E-13 4.94317E-13
 -1      2926 1.99986E+01-1.24092E-03-4.12452E-06-4.62598E-03-2.37592E-13 2.77402E-13
 -1      2927 1.99987E+01-1.50207E-03-9.30806E-06-3.34716E-03-2.58052E-13 7.26103E-13
 -1      2928 1.99984E+01-1.37236E-03-1.29243E-05-3.73471E-03-9.76944E-14 7.19163E-13
 -1      2929 1.99990E+01-1.58605E-03 9.20629E-06-4.11490E-03-3.45614E-13 4.27626E-13
 -1      2930 1.99993E+01-1.99579E-03 1.47321E-05-3.58672E-03-2.64494E-13 4.44301E-13
 -1      2931 2.00020E+01-4.17801E-03 8.65787E-06-2.93837E-04-6.19159E-14 1.93322E-14
 -1      2932 2.00019E+01-4.12783E-03 5.47649E-06-8.37970E-04-1.65354E-13-6.60315E-14
 -1      2933 1.99988E+01-1.62510E-03-6.19808E-06 3.75076E-03-2.92177E-13-3.69596E-13
 -1      2934 1.99990E+01-1.72322E-03-2.31952E-06 3.47984E-03-3.03141E-13-3.87348E-13
 -1      2935 1.99994E+01-1.84825E-03-3.57458E-06 4.05420E-03-3.06542E-13-3.86672E-13
 -1      2936 2.00014E+01-3.72204E-03 1.34481E-05-2.41110E-03-2.31301E-13 8.91002E-14
 -1      2937 2.00012E+01-3.48379E-03-2.76373E-06-2.79888E-03-9.61067E-14 1.13890E-13
 -1      2938 2.00019E+01-4.12522E-03 5.56429E-06 8.57110E-04 1.72212E-13-4.47637E-14
 -1      2939 2.00020E+01-4.17742E-03 8.57996E-06 3.13430E-04-1.41821E-14 1.63685E-13
 -1      2940 2.00024E+01-3.74094E-03-7.05476E-06 1.04966E-05-8.11902E-14 3.83145E-14
 -1      2941 2.00018E+01-4.04227E-03 1.12742E-05-1.41873E-03-2.33521E-13-1.57468E-13
 -1      2942 2.00016E+01-3.89338E-03 1.46665E-06-1.91098E-03-1.95477E-13 1.16905E-13
 -1      2943 2.00019E+01-3.43110E-03-7.01478E-06-2.32304E-03-1.74510E-13 2.69195E-14
 -1      2944 2.00023E+01-3.66393E-03-7.06737E-06-1.21047E-03-1.51682E-13 8.85533E-14
 -1      2945 2.89881E+01 6.37148E+00-2.03353E-01-5.57928E-01 1.20384E-12-2.08817E-13
 -1      2946 2.90014E+01 5.73662E+00-1.42709E-01-1.50206E+00 1.19871E-12-4.23189E-13
 -1      2947 2.76412E+01-3.57967E+00-1.47368E-01 1.06360E+00-1.38063E-13 2.14606E-13
 -1      2948 2.59905E+01-4.55587E+00 5.06301E-02 2.64155E+00 1.15186E-13 7.58005E-14
 -1      2949 2.00016E+01-3.89332E-03 1.46385E-06 1.91094E-03 2.47704E-13-1.72768E-13
 -1      2950 2.00018E+01-4.04053E-03 1.10576E-05 1.42768E-03 2.95166E-13-2.39044E-13
 -1      2951 2.00023E+01-3.66294E-03-7.21753E-06 1.22076E-03 2.30278E-13 4.51429E-15
 -1      2952 2.00012E+01-3.48479E-03-3.11102E-06 2.79916E-03 1.26686E-13 6.47586E-14
 -1      2953 2.00014E+01-3.72245E-03 1.32507E-05 2.41113E-03 1.55257E-13 4.89078E-14
 -1      2954 2.00019E+01-3.43128E-03-7.08791E-06 2.32308E-03 4.88076E-14-1.91975E-13
 -1      2955 2.00005E+01-2.91896E-03-4.13925E-06 3.39202E-03-4.73297E-14-7.75100E-14
 -1      2956 2.00009E+01-3.23365E-03 1.27243E-05 3.16427E-03 8.96815E-14 7.14189E-14
 -1      2957 2.00013E+01-3.04417E-03-4.30045E-06 3.21778E-03-5.72675E-14 2.59094E-14
 -1      2958 2.42315E+01-5.10293E+00 4.26051E-02-3.57509E+00 3.42851E-13-3.52746E-13
 -1      2959 2.64565E+01-4.47979E+00-8.80577E-02-2.10775E+00 8.85542E-14-6.32439E-13
 -1      2960 1.55094E+01-4.24329E+00-1.04622E-02 6.30481E+00-6.67022E-13 4.36901E-13
 -1      2961 1.17035E+01-2.97311E+00 1.79763E-01 5.73333E+00-6.42472E-13 6.15258E-13
 -1      2962 2.84385E+01 6.30247E+00-1.84180E-01 7.49172E-02-1.15696E-12-2.85498E-13
 -1      2963 2.84212E+01 5.70511E+00-1.13665E-01-1.18019E+00-1.09385E-12-2.71935E-14
 -1      2964 2.73026E+01 5.35189E+00-1.41795E-01 6.77655E-01-9.47548E-13-4.34063E-13
 -1      2965 8.94496E+00-2.00557E+00 7.58801E-02 4.71845E+00-5.73291E-13 7.75685E-13
 -1      2966 7.39683E+00-1.22206E+00 1.61453E-01 3.03515E+00-4.77875E-13 9.79938E-13
 -1      2967 7.16295E+00-1.03852E+00 1.61755E-01-3.03261E+00-1.95420E-13-1.26932E-12
 -1      2968 8.81893E+00-1.76000E+00 1.42642E-01-4.76556E+00-2.70228E-13-1.20490E-12
 -1      2969 2.42822E+01-4.99739E+00 3.67818E-02-3.78113E+00-2.37393E-13-1.17600E-13
 -1      2970 2.63973E+01-4.34559E+00-8.39570E-02-2.19172E+00-4.49224E-14 1.06540E-13
 -1      2971 2.37011E+01-5.24970E+00-7.53970E-02 4.34568E+00 1.83173E-13-7.92977E-14
 -1      2972 2.06314E+01-4.95526E+00 1.07281E-01 5.43870E+00 3.25559E-13-2.83047E-13
 -1      2973 2.49781E+01-4.62773E+00 4.31941E-02 2.85401E+00 2.43715E-13 1.05124E-13
 -1      2974 2.23135E+01-4.26573E-01-9.33909E-03-7.72564E-01 1.47342E-13 3.89332E-15
 -1      2975 2.21813E+01-1.51094E-01 1.76865E-02-8.13038E-01 1.80369E-13-1.62779E-14
 -1      2976 2.21956E+01-6.70883E-01-1.56806E-02-9.33848E-01 1.07180E-13-5.55445E-14
 -1      2977 2.39177E+01-1.40027E+00-2.06950E-02 9.67429E-01-1.01997E-14 2.07315E-13
 -1      2978 2.38331E+01-1.44499E+00 9.86022E-03 5.68357E-01 1.28719E-14 1.88771E-13
 -1      2979 2.37217E+01-1.77068E+00-1.20515E-02 7.84278E-02-2.69682E-14 1.36169E-13
 -1      2980 2.44758E+01-1.64971E+00-3.23928E-02 1.09099E+00 3.31159E-15 2.31218E-13
 -1      2981 2.14474E+01 1.02396E+00 1.00628E-02 3.40638E-01-3.50158E-13-2.41856E-13
 -1      2982 2.14908E+01 6.91234E-01-4.92107E-03 5.91818E-01-3.04355E-13-2.19400E-13
 -1      2983 2.11400E+01 6.89789E-01-9.43746E-03 7.86534E-01-2.67930E-13-2.84899E-13
 -1      2984 2.19853E+01 9.95152E-02-5.43718E-03-7.39949E-01 2.63501E-13-4.84153E-14
 -1      2985 2.19157E+01 3.63780E-01 1.67086E-02-6.33478E-01 3.18732E-13-2.90602E-14
 -1      2986 2.14942E+01 6.54926E-01-4.11111E-03-5.94062E-01 3.60908E-13-1.55055E-13
 -1      2987 2.17480E+01 4.96875E-03-1.00229E-02-9.02053E-01 2.29205E-13-1.00865E-13
 -1      2988 2.69433E+01-4.22996E+00-1.12473E-01 1.91733E+00-7.34621E-14-5.04291E-13
 -1      2989 2.43989E+01-5.07131E+00 5.27513E-02 3.57415E+00-3.63820E-13-3.68983E-13
 -1      2990 1.85226E+01 3.12772E+00 2.03784E-03-3.05987E-01 3.32220E-13-5.93166E-13
 -1      2991 1.80661E+01 3.30623E+00-1.21333E-02-3.43451E-01 2.60817E-13-6.57584E-13
 -1      2992 1.78815E+01 3.11538E+00 4.94916E-03-4.88566E-01 2.19544E-13-6.46441E-13
 -1      2993 1.88268E+01 2.63258E+00 1.57432E-03-5.05515E-01 3.09231E-13-5.30720E-13
 -1      2994 1.80286E+01 3.33126E+00-1.23087E-02 3.40789E-01-1.20605E-13-7.42226E-13
 -1      2995 1.84809E+01 3.15673E+00 2.03874E-03 3.07669E-01-1.79443E-13-7.04672E-13
 -1      2996 1.99994E+01-2.09105E-03-4.18308E-06 3.55662E-03-3.08622E-13-3.97445E-13
 -1      2997 2.87346E+01 5.93398E+00-1.59106E-01 1.09771E+00 1.10745E-12 6.06529E-14
 -1      2998 2.89362E+01 6.41598E+00-1.89704E-01 1.54810E-01 1.17478E-12-1.24927E-13
 -1      2999 2.74987E+01 5.74187E+00-1.18877E-01-2.49332E-01 1.07081E-12-1.24799E-13
 -1      3000 2.92046E+01 6.44108E-01-3.09270E-02 1.91656E+00-3.87926E-13-6.87950E-13
 -1      3001 2.90365E+01 2.58260E+00-2.15858E-01 2.15036E+00-6.81746E-13-6.68576E-13
 -1      3002 1.97602E+01-4.84067E+00 6.07559E-02-5.66919E+00-4.26686E-13-5.07941E-13
 -1      3003 2.23584E+01-5.18340E+00-4.12294E-03-4.95224E+00-3.28834E-13-3.25164E-13
 -1      3004 2.38339E+01-4.78066E+00 5.17913E-02-3.63806E+00-3.35704E-13-1.27506E-13
 -1      3005 2.88393E+01-1.28787E+00-1.29858E-01-9.59374E-01 4.04926E-13-7.24504E-13
 -1      3006 2.83524E+01-2.89601E+00-1.05719E-03 3.11938E-01 1.05190E-13-6.34715E-13
 -1      3007 2.71766E+01-3.68732E+00 1.21623E-02 6.63912E-01-1.18402E-13-6.14661E-13
 -1      3008 9.72707E+00-2.14598E+00 3.83772E-02 5.25108E+00 3.43781E-13-9.98229E-13
 -1      3009 7.29836E+00-1.39444E+00 2.19794E-01 3.53173E+00 2.43805E-13-1.19471E-12
 -1      3010 2.88222E+01 1.15575E-01-2.00865E-01-1.58705E+00-5.44884E-13 3.26392E-13
 -1      3011 2.88167E+01-1.73192E+00-4.22809E-03-5.64882E-01-3.48062E-13 3.14901E-13
 -1      3012 1.68183E+01-4.30705E+00-9.47933E-03 6.37747E+00 3.81084E-13-5.69489E-13
 -1      3013 1.37523E+01-3.13674E+00 1.98398E-01 6.06097E+00 4.57634E-13-7.86524E-13
 -1      3014 2.17151E+01-5.38941E+00-4.37641E-02 5.05227E+00-5.52183E-13-9.36560E-14
 -1      3015 1.95650E+01-4.85229E+00 1.55136E-01 5.59474E+00-6.85313E-13 9.64940E-14
 -1      3016 2.83420E+01 3.70841E+00-2.40267E-01-1.94216E+00-9.13006E-13 2.16369E-13
 -1      3017 2.88789E+01 2.36267E+00-5.88223E-02-2.19436E+00-7.19633E-13 3.16136E-13
 -1      3018 7.46047E+00-1.09781E+00 1.76701E-01-2.83940E+00 4.30628E-14 9.84324E-13
 -1      3019 9.33586E+00-1.86496E+00 1.04848E-01-4.68450E+00 2.40030E-13 8.43464E-13
 -1      3020 2.78407E+01-3.39842E+00-1.35580E-02-6.68609E-01-4.51722E-14-7.04395E-13
 -1      3021 2.85226E+01-1.90201E+00-1.91453E-01 5.76274E-01-2.08673E-13-6.26971E-13
 -1      3022 2.67134E+01-3.97652E+00 2.29167E-02-1.02438E+00 8.85403E-14-6.38441E-13
 -1      3023 2.11920E+01 1.73202E+00-2.53269E-03-1.52900E-01-4.48787E-13-3.33668E-13
 -1      3024 2.13291E+01 1.30416E+00-2.21822E-03 1.43262E-01-4.08662E-13-2.81861E-13
 -1      3025 2.09328E+01 1.37370E+00-3.27111E-03 3.52001E-01-3.50318E-13-3.45274E-13
 -1      3026 2.07227E+01 2.03656E+00-3.64074E-03-8.20873E-02-4.09510E-13-4.16963E-13
 -1      3027 1.89758E+01 2.87791E+00-1.05242E-02 2.77020E-01-2.22205E-13-6.43216E-13
 -1      3028 1.95037E+01 2.64642E+00-1.28129E-03 1.84235E-01-2.96111E-13-5.95854E-13
 -1      3029 1.87798E+01 2.66550E+00 1.84792E-03 5.07575E-01-1.65869E-13-6.21843E-13
 -1      3030 1.69779E+01 3.58836E+00 1.09137E-02-9.76262E-03 6.81145E-14-7.41653E-13
 -1      3031 1.70283E+01 3.82713E+00-6.81084E-03 6.80499E-02 4.91074E-14-7.86717E-13
 -1      3032 1.71346E+01 3.79066E+00-1.83226E-03 1.36776E-01 7.86064E-17-7.96653E-13
 -1      3033 7.80350E+00-5.50878E-01 1.85204E-01 2.38781E+00 1.75950E-13-1.18439E-12
 -1      3034 2.11254E+01 1.59730E+00-6.14686E-03-2.72213E-03 4.92158E-13-2.19509E-13
 -1      3035 2.79402E+01 9.63164E-01-1.13974E-01-2.40964E+00 6.76931E-13-7.16829E-13
 -1      3036 2.87592E+01-1.39829E-01-8.20916E-02-1.77199E+00 6.04052E-13-7.49178E-13
 -1      3037 2.77004E+01-1.49673E+00-6.68884E-02-1.30475E+00 3.21118E-13-6.98053E-13
 -1      3038 1.20615E+01-3.10012E+00 1.41244E-01-5.80688E+00 3.84054E-13 6.57696E-13
 -1      3039 1.50366E+01-4.30951E+00 2.46002E-02-6.45420E+00 4.10699E-13 4.06564E-13
 -1      3040 8.48476E+00-4.66208E-01 1.79424E-01 1.97492E+00-4.20233E-13 9.08384E-13
 -1      3041 8.58376E+00-3.88348E-01 1.72284E-01-1.81691E+00-9.41539E-14 8.90066E-13
 -1      3042 2.00013E+01-3.04905E-03-6.07935E-06-3.21386E-03-9.22365E-14 9.81086E-14
 -1      3043 2.00009E+01-3.23337E-03 1.42081E-05-3.16295E-03-1.07130E-13 7.73707E-14
 -1      3044 2.00005E+01-2.92013E-03-4.27589E-06-3.39220E-03-1.45919E-13-9.97817E-14
 -1      3045 2.74435E+01 4.32761E+00-1.15515E-01-1.57880E+00-8.79227E-13 9.12465E-14
 -1      3046 2.37646E+01-4.89772E+00 6.09230E-02 3.50827E+00-5.28542E-13-3.71980E-13
 -1      3047 2.77896E+01 3.02828E+00-9.08366E-02 2.24688E+00-6.30926E-13-6.70242E-13
 -1      3048 2.00002E+01-2.66628E-03 1.36824E-05-3.54725E-03-2.14165E-13-2.75296E-14
 -1      3049 1.99997E+01-2.30022E-03-6.16452E-06-3.58155E-03-2.88693E-13 7.72171E-14
 -1      3050 1.99996E+01-2.08395E-03-1.37605E-05-3.88906E-03-5.00280E-13 1.05975E-13
 -1      3051 2.00005E+01-2.59067E-03-8.38989E-06-3.73947E-03-2.83583E-13 6.58132E-15
 -1      3052 2.75702E+01-2.82413E+00-2.42443E-02-7.32744E-02-1.09983E-13 3.49470E-13
 -1      3053 1.96927E+01-4.21250E+00 8.56952E-02 5.25081E+00 4.42660E-13-3.51701E-13
 -1      3054 2.18474E+01-5.31487E+00-3.93954E-02-4.95566E+00 4.18665E-13-1.47419E-13
 -1      3055 2.35749E+01-4.81890E+00 7.56244E-02-3.46399E+00 4.04038E-13-3.71848E-13
 -1      3056 1.99998E+01-2.46475E-03 3.61861E-06 3.52646E-03-2.69599E-13-2.93322E-13
 -1      3057 1.20333E+01-1.96826E+00 1.77295E-01 4.87919E+00-6.41404E-13 5.93928E-13
 -1      3058 1.78906E+01-4.06291E+00 9.46135E-02 5.51700E+00-6.79123E-13 1.96933E-13
 -1      3059 7.15966E+00-4.90501E-01 1.82400E-01-1.95349E+00-9.05664E-14-1.25636E-12
 -1      3060 8.99002E+00-1.82742E-01 1.31461E-01-2.67345E+00-1.69160E-13-1.12671E-12
 -1      3061 7.36154E+00-2.60337E-02 9.89676E-02-6.21253E-01 9.87318E-15-1.18219E-12
 -1      3062 2.81917E+01 4.29231E+00-1.00617E-01-1.91114E+00 1.02304E-12-4.64240E-13
 -1      3063 1.16167E+01-1.99456E+00 1.37243E-01-5.13991E+00-3.66429E-13-1.08312E-12
 -1      3064 2.87398E+01 4.13556E-01-1.05602E-01 1.88247E+00 4.64712E-13 2.85078E-13
 -1      3065 2.78887E+01 1.22969E+00-1.09522E-01 2.26735E+00 5.03764E-13 3.23977E-13
 -1      3066 2.79528E+01-8.03722E-01-3.61299E-03 1.54391E+00 2.79186E-13 3.59879E-13
 -1      3067 2.60621E+01-3.96343E+00 4.40621E-02-1.40494E+00-1.89650E-13 2.30524E-13
 -1      3068 2.73068E+01-3.68829E+00-1.85696E-02-8.92217E-01-1.46064E-15 2.17437E-13
 -1      3069 2.71422E+01-2.94420E+00-1.75892E-01 3.32789E-01 1.57860E-14 3.23963E-13
 -1      3070 2.09389E+01 1.37318E+00-2.41931E-03-3.31107E-01 4.22713E-13-2.60356E-13
 -1      3071 1.73418E+01 3.66509E+00-1.08224E-02 2.60507E-01-2.75972E-14-7.69097E-13
 -1      3072 1.76496E+01 3.55392E+00 1.71773E-03 2.89428E-01-9.18061E-14-7.55894E-13
 -1      3073 1.78415E+01 3.14098E+00 4.43972E-03 4.79699E-01-9.21053E-14-7.15098E-13
 -1      3074 1.72016E+01 3.47254E+00 9.17805E-03 2.89297E-01-1.03367E-14-7.52066E-13
 -1      3075 2.79979E+01 7.39964E-01-5.21237E-02-2.02257E+00-4.75890E-13 3.65402E-13
 -1      3076 1.84116E+01-4.33067E+00 9.66222E-02-5.90165E+00-4.45838E-13-6.14613E-13
 -1      3077 2.04487E+01-4.30630E+00 2.56941E-03-4.93727E+00-4.49994E-13-3.74551E-13
 -1      3078 1.67664E+01-3.28598E+00 1.24923E-01-5.74229E+00-4.27033E-13-6.97144E-13
 -1      3079 2.81578E+01-8.51552E-01-3.09243E-03 1.57322E+00-2.34535E-13-6.74752E-13
 -1      3080 1.28158E+01-2.01266E+00 1.32945E-01 5.19494E+00 4.01554E-13-8.56745E-13
 -1      3081 1.21087E+01-2.00603E+00 1.43621E-01-4.87339E+00 3.23103E-13 6.30274E-13
 -1      3082 1.87885E+01-4.84559E+00 1.09260E-01-5.74527E+00 4.73455E-13 8.89983E-14
 -1      3083 1.99998E+01-2.12099E-03 1.14369E-06 3.92267E-03-3.64128E-13-5.53167E-13
 -1      3084 2.00002E+01-2.63071E-03 9.47779E-07 3.63756E-03-2.16940E-13-4.44825E-13
 -1      3085 2.00006E+01-2.51632E-03 4.69631E-07 3.80601E-03-1.48971E-13-3.42176E-13
 -1      3086 1.99998E+01-1.97505E-03 1.25834E-06 4.14824E-03-3.04326E-13-5.70811E-13
 -1      3087 2.02734E+01 1.56578E+00 4.38437E-03-5.91553E-01 3.52549E-13-3.60555E-13
 -1      3088 1.96980E+01 1.84278E+00-4.42466E-03-6.76491E-01 3.13151E-13-4.11913E-13
 -1      3089 1.82754E+01-4.11840E+00 1.05147E-01-5.47461E+00 5.27661E-13 7.24629E-14
 -1      3090 9.87887E+00-3.45465E-01 5.00777E-02 2.70006E+00-4.72667E-13 7.81472E-13
 -1      3091 9.00863E+00 1.12382E-01 1.06887E-01 8.48902E-01-3.41357E-13 8.49848E-13
 -1      3092 2.06249E+01 1.11765E+00 7.86455E-03 7.75064E-01-2.41790E-13-3.57424E-13
 -1      3093 2.07400E+01 7.19205E-01-1.80421E-04 1.00953E+00-1.99074E-13-3.31555E-13
 -1      3094 2.56338E+01-3.96376E+00 4.21087E-02-1.13294E+00 2.32234E-13-6.83800E-13
 -1      3095 2.65335E+01-3.47735E+00-1.21608E-01 3.04362E-02 1.10491E-13-6.08250E-13
 -1      3096 2.14248E+01-5.58792E-01 2.35937E-02 1.52023E+00-3.37196E-14-1.79397E-13
 -1      3097 2.17570E+01-1.05281E+00-8.06865E-04 1.51597E+00 1.20212E-14-1.54267E-13
 -1      3098 2.23042E+01-1.54007E+00 3.46565E-02 1.51331E+00 4.97228E-14-8.06321E-14
 -1      3099 2.27756E+01-2.04600E+00-8.62728E-03 1.32160E+00 3.71903E-14-5.86757E-14
 -1      3100 2.14413E+01-1.40068E+00-3.37269E-02 1.93502E+00 5.23596E-14-1.65431E-13
 -1      3101 2.36241E+01-2.48318E+00 3.62113E-02 1.03853E+00 6.09556E-14 5.57124E-14
 -1      3102 2.41664E+01-2.75962E+00-7.58563E-03 6.10511E-01 4.33889E-14 9.65773E-14
 -1      3103 2.27313E+01-2.56635E+00-3.70038E-02 1.80368E+00 9.35862E-14-1.77913E-14
 -1      3104 2.65537E+01 1.43404E+00-1.80471E-01-2.32245E+00-5.45418E-13 3.05155E-13
 -1      3105 2.65427E+01 3.29903E+00-4.59680E-02-2.01745E+00-6.73531E-13 2.10762E-13
 -1      3106 2.62781E+01 4.54356E+00-1.53815E-01-1.09576E+00-8.26922E-13-7.31915E-14
 -1      3107 2.62475E+01 5.11944E+00-1.15429E-01-3.72331E-02-9.05803E-13-2.93690E-13
 -1      3108 2.63070E+01 4.73233E+00-8.32579E-02 1.20850E+00-8.49446E-13-4.90632E-13
 -1      3109 2.63489E+01 3.46993E+00-1.74642E-01 2.06134E+00-7.18522E-13-6.08052E-13
 -1      3110 2.61415E+01-1.89325E+00-1.66377E-03 1.30876E+00 5.03243E-15-6.05092E-13
 -1      3111 2.55977E+01-2.72022E+00-8.03309E-04 6.21091E-01 7.42097E-14-5.77111E-13
 -1      3112 2.48839E+01-3.00950E+00-3.64438E-04-1.31290E-01 1.78095E-13-4.94780E-13
 -1      3113 2.35025E+01-2.74811E+00-6.45520E-03-8.72465E-01 2.02911E-13-3.58441E-13
 -1      3114 2.29627E+01-2.37759E+00 3.93981E-02-1.25619E+00 2.32435E-13-3.15806E-13
 -1      3115 2.22081E+01-1.95801E+00-2.38177E-03-1.47581E+00 1.32526E-13-2.61901E-13
 -1      3116 2.17447E+01-1.51660E+00 2.58940E-02-1.66358E+00 1.17988E-13-2.83931E-13
 -1      3117 2.20191E+01-2.46060E+00-4.19619E-02-1.93175E+00 2.30795E-13-3.37716E-13
 -1      3118 2.12857E+01-1.12268E+00 2.77419E-03-1.68528E+00 1.75059E-13-3.76592E-13
 -1      3119 2.09559E+01-7.59148E-01 1.45331E-02-1.74138E+00 2.06900E-13-3.30778E-13
 -1      3120 2.09082E+01-1.44349E+00-3.14386E-02-2.04825E+00 9.13781E-14-2.99895E-13
 -1      3121 2.07068E+01-4.60403E-01 4.78226E-03-1.67459E+00 2.34749E-13-2.40047E-13
 -1      3122 2.04913E+01-2.10363E-01 6.89323E-03-1.65390E+00 2.16267E-13-2.01728E-13
 -1      3123 2.02817E+01-6.32027E-01-1.91226E-02-1.93345E+00 2.53612E-13-2.46221E-13
 -1      3124 2.03755E+01-1.43354E-02 4.70068E-03-1.55450E+00 1.27814E-13-1.86982E-13
 -1      3125 2.02403E+01 1.37987E-01 2.55728E-03-1.49308E+00 1.43871E-13-2.62254E-13
 -1      3126 1.99652E+01-7.68927E-02-9.85568E-03-1.72878E+00 2.06810E-13-1.96567E-13
 -1      3127 2.01998E+01 2.51136E-01 3.98298E-03-1.38503E+00 1.10783E-13-2.78390E-13
 -1      3128 2.01157E+01 3.30597E-01 8.38238E-05-1.30436E+00 1.13813E-13-3.31537E-13
 -1      3129 1.98335E+01 2.57821E-01-4.54884E-03-1.50258E+00 1.11814E-13-2.41924E-13
 -1      3130 2.01140E+01 3.84738E-01 3.24037E-03-1.19880E+00 1.57192E-13-2.99040E-13
 -1      3131 2.00599E+01 4.15327E-01-1.17454E-03-1.11175E+00 1.73998E-13-3.69421E-13
 -1      3132 1.98016E+01 4.32403E-01-1.69183E-03-1.28106E+00 1.78508E-13-1.81779E-13
 -1      3133 2.00757E+01 4.31139E-01 2.69990E-03-1.01360E+00 1.75882E-13-2.48438E-13
 -1      3134 2.00386E+01 4.31504E-01-1.71802E-03-9.28001E-01 8.24323E-14-7.63050E-14
 -1      3135 1.98178E+01 4.99967E-01-2.49942E-04-1.07480E+00 2.42302E-13-2.46109E-13
 -1      3136 2.00601E+01 4.24457E-01 2.32196E-03-8.39576E-01-3.54779E-14-7.80154E-15
 -1      3137 2.00326E+01 4.07809E-01-1.85604E-03-7.60055E-01-4.49445E-14 2.82506E-14
 -1      3138 1.98525E+01 5.01173E-01 3.86280E-04-8.87993E-01 1.06349E-13-1.50633E-13
 -1      3139 2.00538E+01 3.88553E-01 2.03577E-03-6.82354E-01-2.54452E-14 5.48517E-14
 -1      3140 2.00320E+01 3.63671E-01-1.77554E-03-6.11414E-01 4.50197E-14 1.72863E-13
 -1      3141 1.98905E+01 4.64720E-01 5.90197E-04-7.22400E-01 2.96767E-14 2.34334E-14
 -1      3142 2.00504E+01 3.39106E-01 1.79149E-03-5.44633E-01 1.37568E-14 5.14824E-14
 -1      3143 2.00324E+01 3.11510E-01-1.58797E-03-4.83317E-01-3.56750E-14 5.50002E-14
 -1      3144 1.99246E+01 4.09761E-01 5.82185E-04-5.78521E-01-2.56963E-14 4.05386E-15
 -1      3145 2.00471E+01 2.85857E-01 1.56449E-03-4.27087E-01-1.51063E-13 7.79805E-14
 -1      3146 2.00319E+01 2.58805E-01-1.35892E-03-3.75459E-01-1.73003E-13-2.56490E-14
 -1      3147 1.99523E+01 3.48448E-01 4.85959E-04-4.55918E-01-4.79112E-14-1.08520E-13
 -1      3148 2.00431E+01 2.34471E-01 1.34711E-03-3.29019E-01-1.68573E-13 8.70362E-14
 -1      3149 2.00303E+01 2.09731E-01-1.12580E-03-2.86524E-01-1.78227E-13 3.50321E-14
 -1      3150 1.99731E+01 2.88049E-01 3.66420E-04-3.53403E-01-1.47438E-13-3.32120E-14
 -1      3151 2.00385E+01 1.87945E-01 1.14031E-03-2.48870E-01-1.50747E-13 3.77210E-14
 -1      3152 2.00278E+01 1.66326E-01-9.08734E-04-2.14602E-01 3.98767E-14 3.39409E-14
 -1      3153 1.99880E+01 2.32567E-01 2.54347E-04-2.69247E-01-1.75814E-13 9.86463E-14
 -1      3154 2.00334E+01 1.47581E-01 9.47956E-04-1.84609E-01 5.75550E-14-4.37851E-14
 -1      3155 2.00246E+01 1.29308E-01-7.17263E-04-1.57497E-01-6.17038E-14-7.24221E-15
 -1      3156 1.99980E+01 1.83891E-01 1.61785E-04-2.01384E-01-3.10388E-14-1.11982E-14
 -1      3157 2.00283E+01 1.13658E-01 7.73858E-04-1.34022E-01-3.52816E-14-9.56854E-14
 -1      3158 2.00211E+01 9.86151E-02-5.54591E-04-1.12962E-01-2.44987E-15-3.14532E-14
 -1      3159 2.00043E+01 1.42599E-01 9.11931E-05-1.47608E-01-1.09701E-13-2.10272E-13
 -1      3160 2.00235E+01 8.58645E-02 6.20483E-04-9.49095E-02-2.00767E-13-1.17527E-13
 -1      3161 2.00177E+01 7.37563E-02-4.20294E-04-7.88486E-02-5.26095E-13-2.24431E-13
 -1      3162 2.00079E+01 1.08493E-01 4.06360E-05-1.05730E-01-1.66378E-13-5.96014E-13
 -1      3163 2.00190E+01 6.35875E-02 4.88715E-04-6.52149E-02-4.98217E-13-9.16273E-14
 -1      3164 2.00145E+01 5.40363E-02-3.12017E-04-5.31960E-02-2.71723E-13-1.56780E-13
 -1      3165 2.00095E+01 8.09521E-02 6.56066E-06-7.36869E-02-3.86420E-13-2.75963E-13
 -1      3166 2.00151E+01 4.60844E-02 3.78076E-04-4.30959E-02-2.69607E-13-1.26001E-13
 -1      3167 2.00117E+01 3.86933E-02-2.26524E-04-3.42822E-02-2.25652E-13-1.79641E-13
 -1      3168 2.00099E+01 5.91596E-02-1.48135E-05-4.96152E-02-2.75823E-13-3.69873E-14
 -1      3169 2.00118E+01 3.25921E-02 2.87108E-04-2.69560E-02-1.13394E-13-1.27093E-13
 -1      3170 2.00092E+01 2.69804E-02-1.60331E-04-2.06367E-02-7.89371E-15-1.10502E-13
 -1      3171 2.00094E+01 4.22432E-02-2.68764E-05-3.18836E-02-1.71649E-13 5.12167E-17
 -1      3172 2.00090E+01 2.23884E-02 2.13766E-04-1.54489E-02-7.32548E-14-2.37305E-13
 -1      3173 2.00071E+01 1.82107E-02-1.10069E-04-1.10352E-02-1.21179E-13-2.99769E-13
 -1      3174 2.00086E+01 2.93581E-02-3.24134E-05-1.91037E-02-1.13821E-13 6.41886E-14
 -1      3175 2.00067E+01 1.48236E-02 1.55734E-04-7.46548E-03 1.58059E-14-2.69432E-13
 -1      3176 2.00053E+01 1.17783E-02-7.26807E-05-4.48018E-03 1.29246E-13-2.26710E-13
 -1      3177 2.00075E+01 1.97327E-02-3.35906E-05-1.01212E-02-5.09894E-14-1.82051E-16
 -1      3178 2.00049E+01 9.33401E-03 1.10667E-04-2.11142E-03 1.49605E-13-2.10453E-13
 -1      3179 2.00039E+01 7.16486E-03-4.55057E-05-1.75711E-04 2.09894E-13-2.51742E-13
 -1      3180 2.00063E+01 1.26893E-02-3.20260E-05-3.99715E-03 1.60427E-13-1.35398E-13
 -1      3181 2.00035E+01 5.44260E-03 7.63476E-05 1.31986E-03 2.42359E-13-2.85198E-13
 -1      3182 2.00028E+01 3.93630E-03-2.62977E-05 2.50042E-03 1.51696E-13-2.60597E-13
 -1      3183 2.00051E+01 7.64972E-03-2.88891E-05 1.66172E-05 2.26808E-13-8.13693E-14
 -1      3184 2.00024E+01 2.75378E-03 5.07880E-05 3.37498E-03 8.69141E-14-2.18308E-13
 -1      3185 2.00019E+01 1.73547E-03-1.32053E-05 4.02412E-03 6.59983E-14-2.17342E-13
 -1      3186 2.00041E+01 4.13087E-03-2.49998E-05 2.50436E-03 2.33944E-13-2.82933E-13
 -1      3187 2.00015E+01 9.43746E-04 3.22590E-05 4.46724E-03-4.72010E-14-2.02331E-13
 -1      3188 2.00012E+01 2.71243E-04-4.80816E-06 4.75045E-03 7.18506E-14-2.15252E-13
 -1      3189 2.00031E+01 1.73562E-03-2.09401E-05 3.91236E-03 5.66674E-14-1.83523E-13
 -1      3190 2.00009E+01-2.50826E-04 1.92532E-05 4.90041E-03 3.94401E-14-3.71399E-13
 -1      3191 2.00007E+01-6.92543E-04 2.87332E-07 4.93570E-03-3.86597E-14-5.91597E-13
 -1      3192 2.00023E+01 1.40304E-04-1.71733E-05 4.57326E-03-4.16020E-14-4.47792E-13
 -1      3193 2.00004E+01-1.04424E-03 1.03438E-05 4.88986E-03-3.80134E-14-4.41364E-13
 -1      3194 2.00003E+01-1.34577E-03 2.45596E-06 4.75611E-03-5.78924E-14-2.87369E-13
 -1      3195 2.00016E+01-9.15867E-04-1.36983E-05 4.72595E-03 2.33871E-14-4.95041E-13
 -1      3196 2.00000E+01-1.55929E-03 5.00677E-06 4.62029E-03-2.49181E-13-2.35949E-13
 -1      3197 2.00000E+01-1.79680E-03 1.50806E-06 4.36617E-03-2.78800E-13-3.10187E-13
 -1      3198 2.00005E+01-2.06661E-03-6.91888E-06 4.24468E-03-3.71907E-13-4.48298E-13
 -1      3199 2.00009E+01-1.60302E-03-1.31997E-05 4.57608E-03-8.95545E-14-3.12510E-13
 -1      3200 9.10015E+00 1.80569E-01 1.26944E-01-6.61870E-01-1.62979E-13 8.63615E-13
 -1      3201 1.00566E+01-1.77680E-01 6.50490E-02-2.38895E+00-8.00991E-14 7.62834E-13
 -1      3202 1.05629E+01 4.37099E-01 1.24920E-01 1.26568E-01-2.46476E-13 7.36758E-13
 -1      3203 2.61744E+01 2.80339E+00-8.93980E-02 2.07377E+00 6.97511E-13 2.47403E-13
 -1      3204 2.62719E+01 1.39270E+00-1.12741E-01 2.23050E+00 4.96311E-13 2.68388E-13
 -1      3205 2.60698E+01-1.35135E+00-2.05730E-02 1.40107E+00 1.37765E-13 2.92249E-13
 -1      3206 2.57864E+01-2.19895E+00-1.64670E-02 9.51994E-01-7.97279E-15 2.92304E-13
 -1      3207 2.57163E+01 3.99268E+00-1.60483E-01-1.50031E+00 8.83377E-13-2.29447E-13
 -1      3208 2.56382E+01 4.60724E+00-1.19334E-01-5.93445E-01 9.58067E-13-1.19259E-13
 -1      3209 2.64510E+01 1.29120E+00-1.12761E-01-2.44176E+00 6.00603E-13-5.47673E-13
 -1      3210 2.63186E+01 2.78111E+00-8.36617E-02-2.25450E+00 7.85844E-13-4.73101E-13
 -1      3211 2.47222E+01-2.37346E+00 1.94128E-02-5.30289E-01-8.25024E-14-4.48038E-13
 -1      3212 2.50767E+01-2.09006E+00-1.64305E-02-1.08655E+00 7.55038E-16-5.08427E-13
 -1      3213 2.34913E+01-2.20500E+00 3.14651E-02 5.34698E-01-2.39972E-13-2.03929E-13
 -1      3214 2.38961E+01-2.40556E+00-2.09031E-02 7.97026E-02-1.22486E-13-3.17877E-13
 -1      3215 2.42719E+01-2.87722E+00-4.50631E-02 2.46775E-01-1.99824E-13-3.15224E-13
 -1      3216 2.23685E+01-1.55028E+00 2.58705E-02 1.17526E+00-2.03468E-13-1.89167E-13
 -1      3217 2.27675E+01-1.90632E+00-8.54080E-03 9.03294E-01-2.17967E-13-1.83074E-13
 -1      3218 2.28191E+01-2.41909E+00-3.86442E-02 1.18273E+00-2.37051E-13-1.18787E-13
 -1      3219 2.15449E+01-8.77916E-01 1.69562E-02 1.45363E+00-1.49494E-13-6.91786E-14
 -1      3220 2.18626E+01-1.21572E+00-3.93101E-03 1.31908E+00-1.59359E-13-1.18266E-13
 -1      3221 2.16395E+01-1.59501E+00-3.44910E-02 1.61960E+00-2.21515E-13-1.31226E-13
 -1      3222 2.09985E+01-3.45129E-01 9.67736E-03 1.50358E+00-5.86559E-14-5.99628E-14
 -1      3223 2.12298E+01-5.94746E-01 7.90112E-04 1.46794E+00-9.23812E-14-2.34556E-14
 -1      3224 2.09042E+01-8.21118E-01-1.90037E-02 1.71693E+00-1.46665E-13 1.35092E-16
 -1      3225 2.06583E+01 1.31314E-02 4.62402E-03 1.42696E+00-8.20585E-14-3.82585E-14
 -1      3226 2.08209E+01-1.47449E-01 2.41611E-03 1.45239E+00-2.05829E-14 5.65746E-15
 -1      3227 2.04646E+01-2.53744E-01-1.11032E-02 1.63973E+00-7.22279E-14 1.80884E-13
 -1      3228 2.04523E+01 2.23428E-01 1.55639E-03 1.28604E+00-1.42221E-13 1.04529E-13
 -1      3229 2.05669E+01 1.33745E-01 2.81736E-03 1.34568E+00-1.14483E-13-4.34269E-15
 -1      3230 2.02269E+01 1.10122E-01-6.03211E-03 1.48489E+00-1.33532E-13 2.93962E-13
 -1      3231 2.03270E+01 3.26141E-01-1.50612E-04 1.11811E+00-7.04071E-14 2.03996E-13
 -1      3232 2.04104E+01 2.86104E-01 2.83889E-03 1.19383E+00-9.38219E-14 1.69994E-13
 -1      3233 2.01092E+01 3.14423E-01-2.88024E-03 1.29999E+00-1.59000E-13 4.05234E-13
 -1      3234 2.02480E+01 3.58308E-01-1.01210E-03 9.45389E-01-1.74828E-13 2.08065E-13
 -1      3235 2.03113E+01 3.49900E-01 2.72155E-03 1.02553E+00-1.33146E-13 2.15161E-13
 -1      3236 2.00571E+01 4.06876E-01-1.15427E-03 1.10970E+00-1.20592E-13 4.76276E-13
 -1      3237 2.01947E+01 3.48247E-01-1.35852E-03 7.80867E-01-1.57590E-13 8.26411E-14
 -1      3238 2.02447E+01 3.58198E-01 2.55074E-03 8.58269E-01-8.62377E-14 1.21368E-13
 -1      3239 2.00378E+01 4.27791E-01-3.12625E-04 9.27341E-01-7.95431E-14 3.37234E-13
 -1      3240 2.01558E+01 3.15587E-01-1.41360E-03 6.31712E-01-7.05066E-14-4.01200E-14
 -1      3241 2.01964E+01 3.34913E-01 2.34891E-03 7.02300E-01-7.07708E-14 7.64991E-14
 -1      3242 2.00328E+01 4.06799E-01 3.77578E-05 7.60182E-01-3.75955E-14 1.61142E-13
 -1      3243 2.01254E+01 2.73040E-01-1.31631E-03 5.01290E-01-1.67025E-13-3.82685E-14
 -1      3244 2.01588E+01 2.96029E-01 2.11986E-03 5.63101E-01-1.70454E-13-1.22520E-13
 -1      3245 2.00327E+01 3.64064E-01 1.37051E-04 6.11942E-01-4.71296E-14 6.97047E-14
 -1      3246 2.01007E+01 2.28352E-01-1.15006E-03 3.90478E-01-1.00729E-13-1.69964E-14
 -1      3247 2.01281E+01 2.51590E-01 1.87169E-03 4.42933E-01-1.30239E-13-6.71273E-14
 -1      3248 2.00334E+01 3.12519E-01 1.23461E-04 4.84002E-01-1.34851E-13 1.52757E-13
 -1      3249 2.00802E+01 1.85913E-01-9.62917E-04 2.98581E-01 1.62130E-15 1.26378E-14
 -1      3250 2.01025E+01 2.07516E-01 1.61634E-03 3.41966E-01 6.44199E-15-1.18860E-14
 -1      3251 2.00330E+01 2.59986E-01 7.06546E-05 3.76155E-01-5.85775E-14-2.31317E-14
 -1      3252 2.00630E+01 1.47947E-01-7.81045E-04 2.23982E-01 2.57398E-15 1.46181E-13
 -1      3253 2.00811E+01 1.67008E-01 1.36617E-03 2.59075E-01-2.57779E-15 3.38681E-14
 -1      3254 2.00314E+01 2.10850E-01 1.41920E-05 2.87154E-01-6.49132E-14 3.48453E-14
 -1      3255 2.00488E+01 1.15334E-01-6.17350E-04 1.64602E-01 2.90306E-14 1.49825E-13
 -1      3256 2.00632E+01 1.31545E-01 1.13137E-03 1.92420E-01 3.08460E-14 1.05078E-13
 -1      3257 2.00288E+01 1.67281E-01-3.13976E-05 2.15131E-01 1.39531E-15-3.33090E-14
 -1      3258 2.00372E+01 8.81626E-02-4.76959E-04 1.18210E-01 3.68594E-14 1.96279E-13
 -1      3259 2.00484E+01 1.01563E-01 9.18914E-04 1.39844E-01 1.10718E-13 1.64861E-13
 -1      3260 2.00255E+01 1.30068E-01-6.23154E-05 1.57917E-01-4.71824E-15 1.12154E-13
 -1      3261 2.00278E+01 6.60784E-02-3.60612E-04 8.26243E-02 5.64053E-14-5.30853E-14
 -1      3262 2.00365E+01 7.68983E-02 7.32575E-04 9.91365E-02 7.09996E-14 1.12791E-13
 -1      3263 2.00219E+01 9.91875E-02-7.96468E-05 1.13281E-01 1.11929E-13 3.81386E-14
 -1      3264 2.00204E+01 4.85118E-02-2.66738E-04 5.58358E-02 2.83007E-14-9.30046E-14
 -1      3265 2.00269E+01 5.70672E-02 5.73466E-04 6.81989E-02 2.45634E-14-1.25149E-13
 -1      3266 2.00184E+01 7.41662E-02-8.62559E-05 7.90790E-02 1.00999E-13 1.83845E-14
 -1      3267 2.00146E+01 3.48131E-02-1.92697E-04 3.60654E-02 1.94409E-14-9.42003E-14
 -1      3268 2.00195E+01 4.14470E-02 4.40770E-04 4.51348E-02 3.95898E-14-9.25205E-14
 -1      3269 2.00151E+01 5.43145E-02-8.52667E-05 5.33542E-02 3.72376E-14-1.25869E-13
 -1      3270 2.00102E+01 2.43344E-02-1.35495E-04 2.17889E-02-5.46684E-15-2.16878E-15
 -1      3271 2.00137E+01 2.93803E-02 3.32421E-04 2.82931E-02-4.39757E-14-1.02919E-13
 -1      3272 2.00121E+01 3.88700E-02-7.94127E-05 3.43837E-02 2.15289E-14-7.95807E-14
 -1      3273 2.00069E+01 1.64737E-02-9.21877E-05 1.17336E-02-3.45142E-15 1.66691E-13
 -1      3274 2.00093E+01 2.02366E-02 2.45669E-04 1.62773E-02 5.72839E-14 9.50988E-14
 -1      3275 2.00095E+01 2.70822E-02-7.08318E-05 2.06955E-02-5.79632E-14 2.01424E-14
 -1      3276 2.00044E+01 1.06973E-02-6.00919E-05 4.86108E-03-1.55845E-13 2.43735E-13
 -1      3277 2.00061E+01 1.34448E-02 1.77497E-04 7.93477E-03-4.84236E-14 2.29056E-13
 -1      3278 2.00074E+01 1.82597E-02-6.10714E-05 1.10628E-02-1.33135E-13 3.54200E-13
 -1      3279 2.00026E+01 6.54655E-03-3.68746E-05 3.41331E-04-1.20585E-13 2.01485E-13
 -1      3280 2.00038E+01 8.50675E-03 1.24914E-04 2.33488E-03-1.43335E-13 1.73477E-13
 -1      3281 2.00055E+01 1.17916E-02-5.11780E-05 4.48591E-03-1.48373E-13 3.12080E-13
 -1      3282 2.00014E+01 3.63685E-03-2.05812E-05-2.47526E-03-8.55715E-14-7.93157E-14
 -1      3283 2.00021E+01 4.99989E-03 8.51386E-05-1.25860E-03-4.39593E-14 8.68560E-14
 -1      3284 2.00041E+01 7.15515E-03-4.18120E-05 1.66783E-04 5.89556E-15 3.11185E-14
 -1      3285 2.00006E+01 1.65108E-03-9.61329E-06-4.08627E-03 2.06165E-13-2.23829E-13
 -1      3286 2.00010E+01 2.57304E-03 5.56933E-05-3.41586E-03 4.00729E-14-1.31675E-13
 -1      3287 2.00029E+01 3.91246E-03-3.33609E-05-2.51849E-03 7.91309E-14-2.35900E-13
 -1      3288 2.00000E+01 3.30564E-04-2.70710E-06-4.86339E-03 1.77291E-13-2.51654E-13
 -1      3289 2.00002E+01 9.38416E-04 3.44748E-05-4.56849E-03 2.65480E-13-1.96912E-13
 -1      3290 2.00020E+01 1.70300E-03-2.60276E-05-4.04719E-03 2.03734E-13-3.95118E-13
 -1      3291 1.99997E+01-5.34928E-04 1.20268E-06-5.07544E-03 2.43906E-14-1.65306E-13
 -1      3292 1.99997E+01-1.38190E-04 1.97093E-05-5.03417E-03 1.66178E-13-1.97042E-13
 -1      3293 2.00013E+01 2.32828E-04-1.99001E-05-4.77549E-03 1.12600E-13-2.45592E-14
 -1      3294 1.99995E+01-1.11584E-03 2.77766E-06-4.90829E-03-2.73510E-13-1.23767E-13
 -1      3295 1.99995E+01-8.46788E-04 1.01513E-05-5.03768E-03-2.17996E-13-1.76878E-13
 -1      3296 2.00007E+01-7.37099E-04-1.49720E-05-4.95994E-03-6.86862E-14-6.53058E-14
 -1      3297 1.99994E+01-1.54912E-03 1.08811E-06-4.48285E-03-3.64034E-13-1.54081E-15
 -1      3298 1.99994E+01-1.34399E-03 3.26166E-06-4.72947E-03-3.23063E-13-1.57793E-13
 -1      3299 2.00003E+01-1.39860E-03-1.06154E-05-4.77955E-03-3.11712E-13-2.27791E-13
 -1      3300 1.99996E+01-1.90198E-03-1.77437E-06-4.07045E-03-4.80976E-13 1.45043E-13
 -1      3301 1.99994E+01-1.70306E-03-7.01269E-06-4.32320E-03-3.95597E-13 5.54937E-14
 -1      3302 2.00002E+01-1.83001E-03-3.04254E-06-4.43513E-03-4.47927E-13-1.47588E-13
 -1      3303 2.00001E+01-2.15957E-03 1.02943E-05-4.07210E-03-5.04092E-13-1.49961E-13
 -1      3304 1.71652E+01 3.12764E+00 2.96780E-03-4.98369E-01 1.46161E-13-6.93940E-13
 -1      3305 1.68869E+01 3.23466E+00-1.13409E-02-3.60322E-01 9.52606E-14-7.04628E-13
 -1      3306 2.55769E+01 4.60082E+00-1.25379E-01 3.24340E-01 9.31560E-13 2.97314E-14
 -1      3307 2.00030E+01-3.29646E-03 2.54076E-06 3.22148E-04-3.93103E-14 2.16049E-13
 -1      3308 2.00030E+01-3.29716E-03 2.39322E-06-3.00363E-04-1.15890E-13 6.16185E-15
 -1      3309 2.68008E+01 2.14660E+00-5.40229E-02 2.43032E+00-5.58956E-13-6.92529E-13
 -1      3310 2.00028E+01-3.20156E-03-1.19758E-06 1.56339E-03 1.85984E-13-6.58572E-14
 -1      3311 2.00030E+01-3.26899E-03 5.46203E-06 9.77921E-04 6.58690E-14 3.17873E-13
 -1      3312 2.00035E+01-2.84491E-03-1.11745E-06 6.72220E-04 4.52354E-14 2.93928E-13
 -1      3313 2.47816E+01-4.58306E+00-4.52788E-02 2.24152E+00-4.18120E-13-4.75497E-13
 -1      3314 2.26512E+01-4.54836E+00 3.08240E-02 3.53397E+00-5.57283E-13-3.04839E-13
 -1      3315 2.52321E+01-4.23112E+00-9.31914E-02 1.81525E+00 1.74073E-13 1.94623E-13
 -1      3316 2.37891E+01-4.32458E+00 8.29645E-02 3.07895E+00 3.06997E-13 7.15660E-14
 -1      3317 1.96515E+01-4.00042E+00-3.71515E-03 4.74556E+00-6.28518E-13-4.04572E-14
 -1      3318 1.66574E+01-3.00346E+00 1.21927E-01 5.23180E+00-6.28511E-13 2.76418E-13
 -1      3319 2.00014E+01-2.62727E-03-4.64845E-06 3.57271E-03-1.94460E-13-2.53201E-13
 -1      3320 2.00019E+01-2.82791E-03 1.02325E-05 3.19714E-03 3.49434E-14-8.90874E-14
 -1      3321 2.00023E+01-2.98030E-03-5.17200E-06 2.69126E-03 6.75389E-14-1.86451E-13
 -1      3322 2.00026E+01-3.11453E-03 8.71206E-06 2.17638E-03 1.42686E-13-2.66287E-13
 -1      3323 2.00032E+01-2.75079E-03-2.16221E-06 1.95426E-03 1.03518E-13-1.33822E-13
 -1      3324 2.00025E+01-2.55170E-03-1.27772E-06 3.08823E-03 1.33627E-13-1.34824E-13
 -1      3325 2.56738E+01 4.04941E+00-1.41938E-01 1.21865E+00 8.67695E-13 1.35140E-13
 -1      3326 9.40787E+00-1.52442E-01 8.37142E-02 2.78232E+00 2.64299E-13-1.04025E-12
 -1      3327 7.97729E+00 1.77779E-01 1.87916E-01 1.14460E+00 1.42072E-13-1.18472E-12
 -1      3328 9.16541E+00 5.00834E-01 1.57020E-01 1.11101E-01 5.60916E-14-1.09365E-12
 -1      3329 2.28361E+01-1.69927E+00-1.21648E-02-9.38781E-01-2.67598E-14-4.17912E-14
 -1      3330 2.24630E+01-1.27815E+00 2.52792E-02-1.15922E+00-1.18499E-14-6.53028E-14
 -1      3331 2.27193E+01-4.39350E+00 9.23510E-02-3.48928E+00 5.08229E-13-3.71583E-13
 -1      3332 2.44169E+01-4.60390E+00-6.33155E-02-2.41060E+00 3.38032E-13-6.10056E-13
 -1      3333 2.47204E+01-3.93694E+00-1.82240E-02-1.37743E+00 3.21524E-13-6.16845E-13
 -1      3334 2.19993E+01-8.47400E-01-1.17124E-04-1.19279E+00 5.30533E-14-1.04160E-13
 -1      3335 2.17263E+01-4.36220E-01 1.90322E-02-1.22454E+00 1.08690E-13-1.09951E-13
 -1      3336 2.17738E+01-1.15741E+00-2.32267E-02-1.52062E+00 5.32842E-15-1.23497E-13
 -1      3337 1.98770E+01 2.46309E+00-8.17308E-03 1.04871E-01-3.26566E-13-5.54877E-13
 -1      3338 2.03437E+01 2.21403E+00-5.18920E-03 1.55319E-02-3.76016E-13-4.77817E-13
 -1      3339 2.04705E+01 1.87487E+00 5.40890E-03 2.32533E-01-3.49621E-13-4.48216E-13
 -1      3340 1.96974E+01 2.22710E+00 3.04584E-03 3.96987E-01-2.60894E-13-5.37128E-13
 -1      3341 2.09101E+01 3.19050E-01 1.43807E-02 1.24087E+00-1.48805E-13-2.48963E-13
 -1      3342 2.11112E+01-1.13272E-01 8.35857E-04 1.37313E+00-8.23080E-14-2.23441E-13
 -1      3343 2.06905E+01-2.91015E-01-2.41084E-02 1.69929E+00-4.50442E-14-2.30346E-13
 -1      3344 1.38677E+01-2.21000E+00-4.36937E-04 5.09784E+00-5.73798E-13 4.27242E-13
 -1      3345 1.18100E+01-1.01530E+00 1.29440E-01 4.05219E+00-5.46761E-13 6.38822E-13
 -1      3346 2.78925E+01 4.47173E+00-1.17252E-01 1.55946E+00 9.21846E-13 1.55098E-13
 -1      3347 2.29518E+01-4.34900E+00 9.85923E-02-3.72383E+00-4.23266E-13-1.35947E-13
 -1      3348 2.42111E+01-4.48168E+00-6.10600E-02-2.82604E+00-3.16559E-13 6.52247E-14
 -1      3349 2.70337E+01-2.21490E+00-1.46742E-01-1.00854E+00-1.65323E-13 3.45481E-13
 -1      3350 2.65976E+01-3.25117E+00 5.39024E-02 2.24474E-01 4.82114E-14 3.23165E-13
 -1      3351 2.13985E+01-4.23937E+00-3.51060E-02 4.39153E+00 3.85997E-13-1.20719E-13
 -1      3352 1.84743E+01-3.19105E+00 8.56850E-02 5.01124E+00 4.63019E-13-3.92693E-13
 -1      3353 2.23745E+01-3.77228E+00 2.53105E-04 3.27369E+00 3.32023E-13-6.14049E-14
 -1      3354 1.20401E+01-1.03173E+00 1.02614E-01-4.04873E+00 1.49408E-13 5.15962E-13
 -1      3355 1.43072E+01-2.34971E+00 3.16680E-02-5.19030E+00 3.91347E-13 2.84384E-13
 -1      3356 1.14325E+01-9.41469E-01 1.29085E-01-4.30290E+00-2.74218E-13-1.03004E-12
 -1      3357 1.37505E+01-2.19760E+00 6.81504E-02-5.48605E+00-3.62252E-13-9.30006E-13
 -1      3358 1.49529E+01-2.00296E+00 4.15333E-02 5.09002E+00 4.52055E-13-6.32605E-13
 -1      3359 1.20094E+01-7.70858E-01 1.46472E-01 4.24635E+00 3.41463E-13-8.51361E-13
 -1      3360 2.11622E+01 8.98030E-01 6.69477E-03-6.14497E-01 3.39520E-13-2.21094E-13
 -1      3361 2.06644E+01 1.27808E+00-1.33176E-03-5.89889E-01 3.52076E-13-2.97264E-13
 -1      3362 2.04656E+01 1.04549E+00-4.36408E-03-8.85866E-01 2.75983E-13-3.08413E-13
 -1      3363 2.12459E+01 5.41700E-01-5.16333E-03-8.37119E-01 2.88291E-13-2.01872E-13
 -1      3364 1.70687E+01-3.13611E+00 1.33067E-01-5.19076E+00 5.33233E-13 3.66027E-14
 -1      3365 1.97981E+01-4.15382E+00-7.23198E-02-4.71958E+00 5.78412E-13-1.70225E-13
 -1      3366 1.66339E+01-2.24487E+00 9.55592E-02-4.55725E+00 4.48003E-13 2.31967E-14
 -1      3367 2.70818E+01 5.30631E-02 7.32659E-03-2.09524E+00-3.70239E-13 3.83416E-13
 -1      3368 2.67525E+01 2.44159E-01-1.74429E-01 2.42991E+00-3.45512E-13-6.80785E-13
 -1      3369 2.63031E+01-9.90319E-01-2.85953E-02-1.67807E+00-2.26194E-13 2.93293E-13
 -1      3370 2.69355E+01-1.36629E+00 9.66316E-03 1.62319E+00-1.27245E-13-6.95041E-13
 -1      3371 1.67423E+01 3.32874E+00-4.21462E-03-9.99633E-02 8.37521E-14-7.05304E-13
 -1      3372 1.67357E+01 3.33200E+00-4.63256E-03 7.31499E-02 4.33337E-14-7.22618E-13
 -1      3373 1.66860E+01 3.04746E+00 1.46448E-02-2.97723E-01 7.88693E-14-6.81502E-13
 -1      3374 2.67756E+01-1.41977E+00-7.49809E-02-1.68814E+00 2.19803E-13-6.47697E-13
 -1      3375 2.71028E+01-2.53496E+00-6.16806E-02-8.71944E-01 6.91027E-14-6.45976E-13
 -1      3376 1.21055E+01-3.49959E-01 1.12860E-01 3.06805E+00-4.64129E-13 6.97047E-13
 -1      3377 2.02894E+01 6.72994E-01-1.44025E-02 1.26433E+00-1.32316E-13-2.97990E-13
 -1      3378 2.49395E+01-3.08102E+00-1.91313E-02 5.35131E-01 6.38205E-14 1.95587E-13
 -1      3379 2.54154E+01-2.63599E+00-2.01612E-02-3.96521E-01-7.44543E-15 2.06578E-13
 -1      3380 2.00019E+01-2.82669E-03 1.12361E-05-3.19567E-03-2.96690E-13 1.75044E-13
 -1      3381 2.00014E+01-2.62577E-03-4.26791E-06-3.56864E-03-2.85295E-13 1.74831E-13
 -1      3382 2.59877E+01-2.02484E+00-1.59375E-03-1.15592E+00-1.06984E-13 2.73424E-13
 -1      3383 2.14636E+01-4.10540E+00 4.67189E-02 3.92134E+00-5.84897E-13-2.24647E-13
 -1      3384 2.00156E+01-3.18921E+00 3.84202E-02 3.95615E+00-5.10314E-13-9.82617E-14
 -1      3385 2.25962E+01-3.81769E+00-3.99734E-03 2.76651E+00-4.78402E-13-2.67205E-13
 -1      3386 2.41146E+01-3.31528E+00-1.40528E-02-1.06914E+00 2.52793E-13-4.56702E-13
 -1      3387 1.20606E+01 2.33969E-01 6.26424E-02-2.19015E+00-2.79290E-14 5.51066E-13
 -1      3388 1.18706E+01-3.56406E-01 1.08040E-01-3.17857E+00 6.12253E-14 5.44301E-13
 -1      3389 1.36578E+01-7.31527E-01-2.01748E-02-3.58332E+00 2.18891E-13 2.27145E-13
 -1      3390 1.84927E+01 2.42646E+00-1.21929E-02 7.73383E-01-1.09015E-13-6.23522E-13
 -1      3391 1.90691E+01 2.17876E+00 5.87715E-03 7.45615E-01-1.57874E-13-5.64269E-13
 -1      3392 2.39465E+01-2.25585E+00-1.47598E-02-2.04190E-01-1.05321E-13 1.07717E-13
 -1      3393 2.35510E+01-2.01074E+00 4.26444E-02-6.18559E-01-7.46386E-14 5.19962E-14
 -1      3394 2.29367E+01-2.21090E+00-2.48726E-02-1.31781E+00-9.39648E-14-2.56592E-14
 -1      3395 2.00036E+01-2.84539E-03-1.28808E-06-6.61236E-04-6.56064E-14-2.07780E-13
 -1      3396 2.00030E+01-3.26942E-03 5.61966E-06-9.67318E-04-9.81662E-14-2.47013E-13
 -1      3397 2.00028E+01-3.20134E-03-9.60323E-07-1.56318E-03 7.15142E-14-2.59188E-13
 -1      3398 2.56401E+01-2.62813E+00-5.90644E-02-7.78935E-01-5.36099E-14-5.20717E-13
 -1      3399 2.56208E+01-1.77827E+00-7.61661E-03-1.57555E+00 2.46816E-14-5.92871E-13
 -1      3400 2.57416E+01-9.02703E-01-3.40766E-02-1.96932E+00 1.89085E-13-5.75756E-13
 -1      3401 1.75460E+01 2.88990E+00-1.37632E-02-6.69978E-01 1.61409E-13-6.49151E-13
 -1      3402 1.72722E+01 2.72971E+00 8.67460E-03-7.58784E-01 1.34154E-13-6.37101E-13
 -1      3403 1.80215E+01 2.69997E+00 6.60988E-03-7.25166E-01 2.11665E-13-5.81070E-13
 -1      3404 2.00026E+01-3.11451E-03 9.09968E-06-2.17566E-03-6.77446E-14 2.02534E-13
 -1      3405 2.00023E+01-2.97933E-03-4.58885E-06-2.69033E-03-1.76775E-13 2.77814E-13
 -1      3406 2.00025E+01-2.55303E-03-1.73658E-06-3.08458E-03-2.90543E-13 2.82715E-13
 -1      3407 2.00032E+01-2.75097E-03-1.95037E-06-1.95278E-03 7.03144E-14 1.01047E-13
 -1      3408 1.94581E+01 1.61887E+00-3.05105E-03-9.63169E-01 2.43040E-13-4.10269E-13
 -1      3409 1.91220E+01 2.14574E+00 5.53859E-03-7.37354E-01 2.79181E-13-4.86950E-13
 -1      3410 1.85518E+01 2.39169E+00-1.09988E-02-7.70147E-01 2.24121E-13-5.11521E-13
 -1      3411 2.13025E+01-3.84343E+00 6.94061E-03-3.65138E+00 5.70224E-13-3.22974E-13
 -1      3412 2.00008E+01-2.21373E-03 1.90887E-06 4.05068E-03-4.51733E-13-4.54449E-13
 -1      3413 2.00012E+01-2.47125E-03 2.20331E-06 3.82489E-03-3.40237E-13-2.91958E-13
 -1      3414 2.00017E+01-2.26335E-03 1.39972E-06 3.82360E-03-2.97879E-13-4.63304E-13
 -1      3415 2.00011E+01-1.97276E-03 5.75099E-06 4.24700E-03-3.83344E-13-3.28896E-13
 -1      3416 2.57734E+01-3.69468E+00 2.10495E-02 6.66296E-01-2.59038E-13-5.06914E-13
 -1      3417 2.47851E+01-3.60834E+00 1.24207E-02 9.83018E-01-2.80237E-13-3.40580E-13
 -1      3418 2.05649E+01 1.54837E+00-1.63032E-03 4.35382E-01-3.10332E-13-4.16915E-13
 -1      3419 2.01195E+01 1.58749E+00-1.69472E-03 6.66856E-01-2.53163E-13-4.43328E-13
 -1      3420 1.08207E+01-3.07125E-01 1.51193E-01-3.58568E+00-2.10790E-13-1.06604E-12
 -1      3421 1.27909E+01-5.08838E-01 9.46895E-02-3.94105E+00-2.61829E-13-9.34960E-13
 -1      3422 1.02956E+01 1.95290E-01 6.32872E-02-2.54726E+00-1.18291E-13-1.03804E-12
 -1      3423 2.63822E+01-3.43392E+00 1.67023E-03 3.26287E-01-1.29672E-13-5.83818E-13
 -1      3424 2.61460E+01 1.22574E-01-2.34019E-02-2.37918E+00 4.04857E-13-5.69697E-13
 -1      3425 1.62985E+01-2.15044E+00 9.67693E-02 4.56505E+00-5.36127E-13 2.26472E-13
 -1      3426 2.51921E+01-3.86446E+00 3.87881E-02-1.54116E+00-2.71644E-13 2.03979E-13
 -1      3427 1.15324E+01-1.19830E-01 1.12578E-01 3.49611E+00 2.81740E-13-9.05449E-13
 -1      3428 1.13260E+01 5.86594E-01 8.81380E-02 2.35893E+00 2.26487E-13-9.23109E-13
 -1      3429 1.35574E+01-1.74692E-01 4.39576E-02 3.52302E+00 3.36967E-13-7.32608E-13
 -1      3430 1.72211E+01-2.28341E+00 7.55457E-02 4.86338E+00 4.30538E-13-5.13645E-13
 -1      3431 1.60008E+01-1.14831E+00 3.29288E-02 4.21606E+00 3.57658E-13-5.65041E-13
 -1      3432 1.89941E+01-2.34574E+00 1.38075E-02 4.08483E+00 3.95121E-13-3.44405E-13
 -1      3433 1.62182E+01-2.46797E+00 7.38435E-02-5.13622E+00-4.04073E-13-7.43183E-13
 -1      3434 2.15191E+01-1.17244E-01-3.83629E-03-1.11888E+00 1.64488E-13-1.47847E-13
 -1      3435 2.13542E+01 2.59917E-01 1.21850E-02-1.01313E+00 2.31171E-13-1.67164E-13
 -1      3436 2.09644E+01 4.57229E-01 9.99889E-04-1.06886E+00 2.20676E-13-2.27686E-13
 -1      3437 2.12040E+01-2.78279E-01-1.60443E-02-1.38184E+00 1.25623E-13-1.60083E-13
 -1      3438 2.14178E+01-3.93405E+00 3.30615E-02-4.10528E+00-4.10227E-13-2.29226E-13
 -1      3439 2.61887E+01 2.13514E-01-4.54120E-02 2.27081E+00 3.05846E-13 2.73781E-13
 -1      3440 1.75103E+01 2.91378E+00-1.33159E-02 6.54611E-01-3.53057E-14-7.02653E-13
 -1      3441 1.79763E+01 2.73390E+00 8.13460E-03 7.08750E-01-8.65716E-14-6.78507E-13
 -1      3442 1.81857E+01 2.24108E+00-5.22187E-03 9.74464E-01-7.76626E-14-6.22252E-13
 -1      3443 1.99875E+01-3.12940E+00 8.65816E-02-4.40288E+00-3.94528E-13-3.55454E-13
 -1      3444 2.19661E+01-3.43651E+00 9.10324E-03-3.31003E+00-3.52419E-13-9.02004E-14
 -1      3445 1.35111E+01-5.60647E-01-2.45935E-02 3.44475E+00-4.48426E-13 5.36279E-13
 -1      3446 1.21494E+01 3.22816E-01 8.55909E-02 2.09472E+00-4.05728E-13 7.08794E-13
 -1      3447 1.75689E+01-2.26475E+00-3.06089E-02 4.25373E+00-5.31462E-13 1.42171E-13
 -1      3448 1.56121E+01-1.16139E+00 1.07676E-01 4.00062E+00-5.24463E-13 2.59699E-13
 -1      3449 1.97197E+01 1.75613E+00-4.52511E-03 7.37996E-01-1.90432E-13-4.67945E-13
 -1      3450 2.00041E+01-2.35843E-03-2.61845E-06 1.00965E-03-3.42649E-14 3.12151E-13
 -1      3451 2.00042E+01-2.37673E-03 2.00667E-07 3.60978E-04 3.22029E-14 1.59750E-13
 -1      3452 2.39372E+01-3.45809E+00 5.61170E-02 1.55937E+00-3.50807E-13-2.54962E-13
 -1      3453 2.04603E+01-1.51854E+00 1.63521E-02-2.40776E+00 1.06282E-13-2.07232E-13
 -1      3454 2.00266E+01-1.02437E+00 1.75084E-02-2.34369E+00 1.04198E-13-2.40932E-13
 -1      3455 1.98309E+01-6.15923E-01 1.46847E-02-2.14413E+00 2.14397E-13-1.15715E-13
 -1      3456 1.95872E+01-2.81795E-01 5.13932E-03-2.02611E+00 2.75458E-13-7.33642E-14
 -1      3457 1.91528E+01-7.70367E-01-3.27656E-02-2.47186E+00 2.07675E-13-6.58141E-14
 -1      3458 1.95542E+01-2.32827E-02 1.01606E-02-1.83621E+00 2.19133E-13-4.65413E-14
 -1      3459 1.94352E+01 1.78508E-01-6.72748E-04-1.71548E+00 2.07839E-13-6.34067E-14
 -1      3460 1.89822E+01-4.47806E-02-8.87558E-03-2.01962E+00 2.50186E-13 5.53882E-14
 -1      3461 1.94758E+01 3.33565E-01 7.05653E-03-1.55403E+00 2.00447E-13-1.62001E-13
 -1      3462 1.94301E+01 4.40588E-01-2.44736E-03-1.43826E+00 1.53948E-13-1.30698E-13
 -1      3463 1.90091E+01 3.66533E-01-2.24449E-03-1.64985E+00 1.93038E-13-1.16280E-13
 -1      3464 1.95004E+01 5.17819E-01 4.51914E-03-1.30426E+00 1.17462E-13-1.26828E-13
 -1      3465 1.94929E+01 5.62049E-01-3.02026E-03-1.19747E+00 1.89721E-13-1.43220E-13
 -1      3466 1.91229E+01 5.81541E-01 4.68609E-04-1.35032E+00 1.17794E-13-4.21601E-14
 -1      3467 1.95705E+01 5.88089E-01 2.97606E-03-1.08520E+00 2.35647E-13-1.60183E-13
 -1      3468 1.95803E+01 5.92567E-01-3.06536E-03-9.88644E-01 2.54650E-13-1.70111E-13
 -1      3469 1.92673E+01 6.67571E-01 1.63623E-03-1.10599E+00 1.64258E-13-4.07121E-15
 -1      3470 1.96539E+01 5.87106E-01 2.08129E-03-8.93712E-01 2.10110E-13-2.18163E-13
 -1      3471 1.96695E+01 5.68238E-01-2.87108E-03-8.07735E-01 1.21756E-13-1.45585E-13
 -1      3472 1.94123E+01 6.72274E-01 2.00895E-03-9.03025E-01 2.42026E-13-1.74369E-13
 -1      3473 1.97343E+01 5.45046E-01 1.57337E-03-7.27210E-01 6.51823E-14-1.32539E-13
 -1      3474 1.97499E+01 5.14018E-01-2.57173E-03-6.51884E-01 1.99286E-14-9.98707E-14
 -1      3475 1.95436E+01 6.29105E-01 1.97823E-03-7.32223E-01 1.51971E-13-1.58195E-13
 -1      3476 1.98041E+01 4.82306E-01 1.27490E-03-5.83817E-01-6.96118E-14-9.88366E-14
 -1      3477 1.98173E+01 4.46431E-01-2.23382E-03-5.18966E-01-6.48836E-14-1.97088E-14
 -1      3478 1.96555E+01 5.60883E-01 1.76084E-03-5.87867E-01-2.57653E-14-1.12238E-13
 -1      3479 1.98612E+01 4.12079E-01 1.08019E-03-4.61931E-01-8.59483E-14-1.22803E-13
 -1      3480 1.98712E+01 3.75905E-01-1.89328E-03-4.07098E-01-1.15843E-13-2.03677E-13
 -1      3481 1.97470E+01 4.82640E-01 1.47571E-03-4.66279E-01-7.87303E-14-8.85793E-14
 -1      3482 1.99058E+01 3.42461E-01 9.32864E-04-3.59883E-01-7.95524E-14-2.16619E-13
 -1      3483 1.99128E+01 3.08628E-01-1.57077E-03-3.14354E-01-5.28717E-14-3.29347E-14
 -1      3484 1.98193E+01 4.03836E-01 1.18585E-03-3.64775E-01-5.48195E-14-2.31644E-13
 -1      3485 1.99393E+01 2.78053E-01 8.06382E-04-2.75816E-01-1.10886E-13 2.02807E-14
 -1      3486 1.99439E+01 2.47922E-01-1.27802E-03-2.38682E-01-9.58262E-14 7.35188E-14
 -1      3487 1.98751E+01 3.30041E-01 9.22035E-04-2.81073E-01-2.05953E-14-4.62899E-14
 -1      3488 1.99637E+01 2.21142E-01 6.90451E-04-2.07702E-01-1.48644E-13 2.50397E-14
 -1      3489 1.99664E+01 1.95242E-01-1.02084E-03-1.77941E-01-1.10886E-13-6.22586E-14
 -1      3490 1.99169E+01 2.64177E-01 6.96776E-04-2.13028E-01-1.25346E-13 6.88483E-15
 -1      3491 1.99809E+01 1.72527E-01 5.82575E-04-1.53428E-01-1.45920E-13-1.78901E-13
 -1      3492 1.99822E+01 1.50878E-01-8.00939E-04-1.29985E-01-1.72730E-13-2.36651E-13
 -1      3493 1.99476E+01 2.07422E-01 5.12546E-04-1.58550E-01-2.19389E-13-1.44824E-13
 -1      3494 1.99926E+01 1.32101E-01 4.83332E-04-1.10905E-01-2.40290E-13-3.30772E-13
 -1      3495 1.99929E+01 1.14424E-01-6.17267E-04-9.27578E-02-3.40246E-13-5.69617E-13
 -1      3496 1.99695E+01 1.59859E-01 3.66707E-04-1.15625E-01-2.89041E-13-2.85033E-13
 -1      3497 2.00001E+01 9.92434E-02 3.93993E-04-7.81561E-02-2.00327E-13-3.94727E-13
 -1      3498 1.99998E+01 8.51061E-02-4.67045E-04-6.43562E-02-1.52619E-13-7.60666E-14
 -1      3499 1.99847E+01 1.20922E-01 2.54355E-04-8.23547E-02-1.40149E-13-1.56183E-13
 -1      3500 2.00046E+01 7.30764E-02 3.15500E-04-5.33806E-02-2.90555E-13-5.04491E-15
 -1      3501 2.00039E+01 6.19863E-02-3.46547E-04-4.30807E-02-2.05043E-13 1.87889E-14
 -1      3502 1.99948E+01 8.97013E-02 1.69919E-04-5.70083E-02-9.79574E-14-1.66440E-14
 -1      3503 2.00070E+01 5.26329E-02 2.48154E-04-3.49888E-02-9.34697E-14 1.01389E-13
 -1      3504 2.00062E+01 4.40948E-02-2.51667E-04-2.74554E-02 3.18067E-14 2.23953E-13
 -1      3505 2.00012E+01 6.51469E-02 1.08001E-04-3.80472E-02-9.02741E-14 1.32562E-13
 -1      3506 2.00080E+01 3.69576E-02 1.91644E-04-2.16166E-02-8.40716E-14 1.13711E-13
 -1      3507 2.00071E+01 3.05075E-02-1.78318E-04-1.62305E-02-2.14742E-13 9.37292E-14
 -1      3508 2.00050E+01 4.61929E-02 6.37720E-05-2.41410E-02-1.05028E-13 2.14297E-13
 -1      3509 2.00080E+01 2.51654E-02 1.45204E-04-1.21207E-02-1.74954E-13 1.01579E-13
 -1      3510 2.00071E+01 2.03884E-02-1.22670E-04-8.37118E-03-2.35289E-14 1.14168E-13
 -1      3511 2.00069E+01 3.18343E-02 3.31227E-05-1.41662E-02-1.85014E-13 2.40604E-13
 -1      3512 2.00075E+01 1.64707E-02 1.07787E-04-5.56397E-03 1.67510E-13 4.67801E-14
 -1      3513 2.00067E+01 1.30073E-02-8.12939E-05-3.03861E-03 2.29342E-13 2.66036E-14
 -1      3514 2.00075E+01 2.11678E-02 1.26714E-05-7.19457E-03 2.41432E-14 1.77274E-13
 -1      3515 2.00066E+01 1.01971E-02 7.82265E-05-1.19391E-03 1.77835E-13 9.63538E-14
 -1      3516 2.00059E+01 7.74377E-03-5.12181E-05 4.33657E-04 3.31481E-13 6.14964E-14
 -1      3517 2.00074E+01 1.34079E-02-2.94663E-07-2.47498E-03 2.28032E-13 1.49947E-13
 -1      3518 2.00056E+01 5.77578E-03 5.53531E-05 1.58175E-03 2.46694E-13-1.20990E-13
 -1      3519 2.00050E+01 4.08101E-03-2.99273E-05 2.56432E-03 1.59168E-13-7.24240E-14
 -1      3520 2.00067E+01 7.88882E-03-7.90788E-06 5.88471E-04 1.45091E-13 1.86162E-13
 -1      3521 2.00046E+01 2.73696E-03 3.80784E-05 3.21923E-03 1.29061E-13-2.25024E-13
 -1      3522 2.00041E+01 1.59505E-03-1.53529E-05 3.74826E-03 1.62283E-14-2.40419E-13
 -1      3523 2.00058E+01 4.05741E-03-1.17947E-05 2.45872E-03 7.27675E-14-2.35311E-13
 -1      3524 2.00036E+01 6.97308E-04 2.54013E-05 4.06215E-03-1.04096E-13-3.08661E-13
 -1      3525 2.00031E+01-5.83747E-05-5.75274E-06 4.27866E-03-4.25539E-14-4.02516E-13
 -1      3526 2.00048E+01 1.46040E-03-1.32634E-05 3.48783E-03-5.38667E-14-2.97997E-13
 -1      3527 2.00027E+01-6.59376E-04 1.53774E-05 4.36328E-03-3.41870E-14-4.11621E-13
 -1      3528 2.00023E+01-1.15786E-03 8.21554E-07 4.36181E-03 3.62208E-14-2.70112E-13
 -1      3529 2.00038E+01-2.70159E-04-1.33585E-05 3.93917E-03-2.76988E-14-3.71631E-13
 -1      3530 2.54370E+01-3.19953E+00-7.23817E-02-2.24541E-01-1.27255E-13 2.05918E-13
 -1      3531 2.49497E+01-2.04948E+00 1.70058E-02 7.92162E-01-5.79276E-14 1.98237E-13
 -1      3532 1.95024E+01 1.54192E+00 4.64673E-03 1.01824E+00-1.33207E-13-4.64057E-13
 -1      3533 2.26814E+01-3.08707E+00 1.19062E-02 2.01451E+00-2.95739E-13-1.15267E-13
 -1      3534 2.41968E+01-3.41738E+00 1.21241E-03-1.44251E+00-2.29177E-13 1.09926E-13
 -1      3535 1.88129E+01 1.52862E+00 4.59820E-03 1.33947E+00-6.19177E-14-5.37056E-13
 -1      3536 1.95390E+01 1.11444E+00 6.24560E-03 1.33262E+00-8.08498E-14-4.29380E-13
 -1      3537 1.96882E+01 6.49909E-01 6.63830E-03 1.59974E+00-4.87924E-14-3.85403E-13
 -1      3538 2.45441E+01-2.24200E+00 4.26992E-02 2.09619E-01-1.09636E-13 1.64266E-13
 -1      3539 2.02362E+01-5.31861E-01 9.77421E-03 1.92973E+00-1.76619E-13 3.13673E-14
 -1      3540 2.05405E+01-8.83725E-01 1.24894E-02 1.96467E+00-2.35842E-13-3.34131E-14
 -1      3541 1.99243E+01-1.77982E-02 3.32597E-03 1.71033E+00-1.88553E-13 2.82649E-13
 -1      3542 2.00964E+01-2.45313E-01 9.17540E-03 1.78719E+00-1.58916E-13 1.31279E-13
 -1      3543 1.95888E+01-3.33448E-01-1.27913E-02 2.01970E+00-2.72769E-13 1.46679E-13
 -1      3544 1.97969E+01 2.90966E-01 5.88033E-05 1.47923E+00-2.30530E-13 3.67114E-13
 -1      3545 1.98877E+01 1.60045E-01 6.30781E-03 1.57279E+00-1.43844E-13 3.55719E-13
 -1      3546 1.94467E+01 1.47863E-01-6.56460E-03 1.71178E+00-2.30286E-13 2.84139E-13
 -1      3547 1.97697E+01 4.49162E-01-1.47921E-03 1.25663E+00-1.80243E-13 4.10942E-13
 -1      3548 1.98142E+01 3.86920E-01 4.52533E-03 1.35346E+00-2.15379E-13 3.68825E-13
 -1      3549 1.94413E+01 4.24764E-01-2.24737E-03 1.43646E+00-1.87140E-13 2.89883E-13
 -1      3550 1.97903E+01 5.07121E-01-2.13589E-03 1.05145E+00-9.33002E-14 4.31446E-13
 -1      3551 1.98103E+01 4.89506E-01 3.26033E-03 1.14500E+00-1.39002E-13 4.36195E-13
 -1      3552 1.95028E+01 5.54725E-01-1.09008E-04 1.19602E+00-1.38479E-13 2.66453E-13
 -1      3553 1.98292E+01 5.03076E-01-2.30374E-03 8.66858E-01-8.16415E-14 3.40691E-13
 -1      3554 1.98375E+01 5.12349E-01 2.45308E-03 9.53537E-01-3.57757E-14 3.84591E-13
 -1      3555 1.95885E+01 5.90216E-01 8.47663E-04 9.87429E-01-5.21790E-14 2.88878E-13
 -1      3556 1.98710E+01 4.63983E-01-2.21842E-03 7.03975E-01-6.07159E-14 2.83559E-13
 -1      3557 1.98745E+01 4.87902E-01 1.96108E-03 7.81783E-01-3.64663E-14 3.15133E-13
 -1      3558 1.96763E+01 5.68683E-01 1.18019E-03 8.06800E-01-3.72666E-14 2.69286E-13
 -1      3559 1.99086E+01 4.07873E-01-2.00740E-03 5.62916E-01-3.16933E-14 2.47397E-13
 -1      3560 1.99107E+01 4.38376E-01 1.64322E-03 6.30923E-01-3.93752E-14 2.87351E-13
 -1      3561 1.97554E+01 5.15889E-01 1.19195E-03 6.51228E-01-3.58572E-14 3.27819E-13
 -1      3562 1.99393E+01 3.46207E-01-1.74327E-03 4.43015E-01-1.26955E-13 2.44625E-13
 -1      3563 1.99414E+01 3.78247E-01 1.41220E-03 5.01065E-01-1.10076E-13 2.93513E-13
 -1      3564 1.98219E+01 4.48880E-01 1.05632E-03 5.18554E-01-1.05111E-13 4.36234E-13
 -1      3565 1.99629E+01 2.85855E-01-1.46804E-03 3.42957E-01-2.94313E-14 1.92907E-13
 -1      3566 1.99653E+01 3.16467E-01 1.22151E-03 3.91453E-01-2.68343E-14 2.10530E-13
 -1      3567 1.98750E+01 3.78433E-01 8.68643E-04 4.06877E-01-2.42890E-14 4.09663E-13
 -1      3568 1.99800E+01 2.30598E-01-1.20567E-03 2.60952E-01 5.51430E-14-3.14330E-14
 -1      3569 1.99829E+01 2.58205E-01 1.05036E-03 3.00666E-01 2.67580E-14 5.54366E-14
 -1      3570 1.99159E+01 3.10962E-01 6.78303E-04 3.14270E-01 1.34520E-13 1.76290E-13
 -1      3571 1.99920E+01 1.82208E-01-9.68839E-04 1.94916E-01 2.22215E-14-9.21823E-14
 -1      3572 1.99950E+01 2.06128E-01 8.91838E-04 2.26832E-01 5.58012E-14-7.32563E-14
 -1      3573 1.99463E+01 2.49935E-01 5.08255E-04 2.38688E-01 5.47363E-14-7.53927E-14
 -1      3574 1.99998E+01 1.41205E-01-7.63142E-04 1.42656E-01-1.11788E-13-1.19913E-14
 -1      3575 2.00028E+01 1.61309E-01 7.45343E-04 1.67845E-01-9.85549E-14-7.33882E-14
 -1      3576 1.99684E+01 1.96898E-01 3.66842E-04 1.78000E-01 1.38567E-14-5.96489E-14
 -1      3577 2.00046E+01 1.07363E-01-5.89714E-04 1.02008E-01 1.70167E-13-9.49569E-14
 -1      3578 2.00074E+01 1.23845E-01 6.12354E-04 1.21536E-01 1.02766E-13-1.92044E-14
 -1      3579 1.99838E+01 1.52187E-01 2.54799E-04 1.30072E-01 2.34261E-14-1.59140E-13
 -1      3580 2.00072E+01 8.00520E-02-4.47043E-04 7.09440E-02 1.15108E-13-6.18011E-14
 -1      3581 2.00098E+01 9.32756E-02 4.94378E-04 8.58121E-02 2.04608E-13-1.38767E-14
 -1      3582 1.99941E+01 1.15426E-01 1.69286E-04 9.28537E-02 1.54880E-13-1.54032E-13
 -1      3583 2.00083E+01 5.84538E-02-3.32169E-04 4.76379E-02 4.74031E-14-5.62173E-14
 -1      3584 2.00106E+01 6.88549E-02 3.92173E-04 5.87469E-02 1.60791E-14-4.24548E-14
 -1      3585 2.00008E+01 8.58485E-02 1.06114E-04 6.44500E-02 3.40703E-14 2.30164E-14
 -1      3586 2.00084E+01 4.16979E-02-2.41486E-04 3.04944E-02-3.61892E-14 4.25408E-14
 -1      3587 2.00103E+01 4.97248E-02 3.05612E-04 3.86278E-02 8.75147E-14 3.80701E-14
 -1      3588 2.00047E+01 6.25193E-02 6.09107E-05 4.31661E-02 2.02371E-14 1.07919E-13
 -1      3589 2.00079E+01 2.89432E-02-1.71248E-04 1.81579E-02-1.38134E-13 1.35136E-13
 -1      3590 2.00095E+01 3.50208E-02 2.33836E-04 2.39791E-02-8.17610E-14 4.09190E-14
 -1      3591 2.00067E+01 4.44640E-02 2.96703E-05 2.75293E-02-6.67684E-14 2.35336E-13
 -1      3592 2.00071E+01 1.94221E-02-1.17881E-04 9.50349E-03-2.30355E-13 2.19667E-13
 -1      3593 2.00084E+01 2.39335E-02 1.75491E-04 1.35607E-02-1.73063E-13 1.47505E-13
 -1      3594 2.00075E+01 3.07527E-02 8.97319E-06 1.62918E-02-1.57927E-13 2.11594E-13
 -1      3595 2.00061E+01 1.24610E-02-7.81504E-05 3.61724E-03-1.48938E-14 4.06050E-15
 -1      3596 2.00072E+01 1.57393E-02 1.28958E-04 6.35403E-03-1.10423E-13 1.73257E-13
 -1      3597 2.00075E+01 2.05419E-02-3.97386E-06 8.42017E-03-1.26520E-13 1.83186E-14
 -1      3598 2.00051E+01 7.48527E-03-4.92440E-05-2.28239E-04 1.13849E-13-7.64529E-14
 -1      3599 2.00059E+01 9.81279E-03 9.25448E-05 1.53943E-03 1.24774E-13 9.79294E-15
 -1      3600 2.00069E+01 1.30950E-02-1.13829E-05 3.07640E-03 1.18217E-13-5.05604E-14
 -1      3601 2.00041E+01 4.01509E-03-2.87958E-05-2.60015E-03 1.24943E-13-1.20053E-13
 -1      3602 2.00047E+01 5.62629E-03 6.46058E-05-1.52901E-03 1.20262E-13-1.39356E-13
 -1      3603 2.00060E+01 7.78523E-03-1.49714E-05-4.05586E-04 1.60976E-13-9.28333E-14
 -1      3604 2.00032E+01 1.65608E-03-1.48670E-05-3.93111E-03-6.29801E-14-1.68182E-14
 -1      3605 2.00037E+01 2.74297E-03 4.36150E-05-3.34985E-03 4.11840E-14-1.18717E-13
 -1      3606 2.00051E+01 4.09046E-03-1.60667E-05-2.54436E-03 8.52872E-14 4.59135E-14
 -1      3607 2.00024E+01 8.74701E-05-5.51131E-06-4.54270E-03 5.59854E-14 1.94644E-13
 -1      3608 2.00027E+01 8.05768E-04 2.83116E-05-4.29890E-03 2.32411E-14 1.39361E-13
 -1      3609 2.00041E+01 1.58186E-03-1.56010E-05-3.73491E-03-1.14453E-13 1.44983E-13
 -1      3610 2.00017E+01-9.53270E-04-2.16441E-07-4.66747E-03-1.74147E-13 1.33863E-13
 -1      3611 2.00019E+01-4.76737E-04 1.69146E-05-4.65296E-03-1.66294E-14 1.93861E-13
 -1      3612 2.00032E+01-8.69519E-05-1.41184E-05-4.26961E-03 4.06863E-14 2.75812E-13
 -1      3613 2.00011E+01-1.67312E-03 1.09352E-06-4.46263E-03-2.92637E-13-5.41959E-15
 -1      3614 2.00013E+01-1.33540E-03 1.09830E-05-4.60087E-03-1.99891E-13 1.06314E-13
 -1      3615 2.00023E+01-1.21651E-03-1.37790E-05-4.36652E-03-1.08877E-13 5.57711E-13
 -1      3616 2.53920E+01-3.48766E+00-2.32085E-02 7.69999E-01 1.02071E-13 2.08555E-13
 -1      3617 1.03173E+01 9.24093E-01 3.77275E-02 6.10521E-01 9.13219E-14-9.75026E-13
 -1      3618 1.02270E+01 9.26712E-01 1.40859E-01-9.94211E-01-1.25837E-14-9.99298E-13
 -1      3619 2.00010E+01-2.51948E-03 1.10978E-05-3.79565E-03-4.48560E-13 2.46579E-14
 -1      3620 2.00006E+01-2.30953E-03-1.09467E-09-3.95806E-03-4.54276E-13 3.43362E-14
 -1      3621 2.00006E+01-2.13948E-03-4.08462E-06-4.15323E-03-5.77738E-13-1.15865E-14
 -1      3622 2.00016E+01-2.35314E-03-4.95039E-06-3.81982E-03-4.66281E-13 3.19352E-13
 -1      3623 1.59099E+01-1.37850E+00 1.11618E-01-4.15296E+00 3.43751E-13 2.05461E-14
 -1      3624 1.77495E+01-2.38139E+00-4.08157E-02-4.23205E+00 4.10397E-13-1.30125E-13
 -1      3625 2.08772E+01-1.30032E+00 2.33350E-02 2.07688E+00-2.75829E-13-5.51392E-14
 -1      3626 2.13995E+01-1.77916E+00 1.96432E-02 1.99704E+00-2.96059E-13-6.02409E-14
 -1      3627 2.00023E+01-1.11075E+00-2.62240E-02 2.34289E+00-2.64770E-13 2.25098E-14
 -1      3628 2.19270E+01-2.58085E+00 2.20181E-02 2.23999E+00-3.10380E-13-8.49212E-14
 -1      3629 1.68671E+01 3.24795E+00-1.12461E-02 3.36078E-01 2.01695E-14-7.34042E-13
 -1      3630 1.71334E+01 3.14891E+00 2.96384E-03 4.77449E-01-2.48568E-14-7.26013E-13
 -1      3631 1.72400E+01 2.75336E+00 1.01823E-02 7.38206E-01-1.39679E-14-6.95466E-13
 -1      3632 2.14897E+01-1.33725E+00 6.18479E-03-1.90577E+00-5.30266E-14-1.16183E-13
 -1      3633 2.10546E+01-7.89958E-01 1.85311E-02-1.86365E+00-5.28223E-15-1.49954E-13
 -1      3634 2.05152E+01-8.63382E-01 3.25695E-02 2.29661E+00 7.93918E-14-2.69376E-13
 -1      3635 2.09934E+01-1.52200E+00 1.37951E-02 2.40019E+00 1.35691E-13-2.14371E-13
 -1      3636 2.38843E+01-2.84698E+00-1.28744E-01-7.34843E-01-1.37506E-13 4.79686E-14
 -1      3637 1.52848E+01-1.08344E+00 8.10441E-02-4.32710E+00-3.22733E-13-7.55701E-13
 -1      3638 1.76356E+01-2.33492E+00 3.99523E-03-4.66275E+00-3.74149E-13-5.58109E-13
 -1      3639 1.87142E+01-2.00684E+00 2.30394E-02-3.97298E+00-3.10075E-13-4.63348E-13
 -1      3640 1.98779E+01 2.04921E-01 1.75786E-02 1.85607E+00-1.91289E-14-3.42396E-13
 -1      3641 2.01431E+01-3.39603E-01 1.14279E-02 2.07273E+00 1.48050E-14-3.14062E-13
 -1      3642 1.94038E+01-4.93711E-01-3.14754E-02 2.50776E+00 7.79225E-14-3.72263E-13
 -1      3643 1.89462E+01 5.60160E-01-2.50440E-02 1.96501E+00 1.94868E-14-4.71837E-13
 -1      3644 1.12846E+01 5.47928E-01 3.10081E-02 9.00659E-01-2.76836E-13 6.48787E-13
 -1      3645 1.13284E+01 6.15548E-01 3.77160E-02-5.46994E-01-1.03753E-13 5.99347E-13
 -1      3646 1.28602E+01 5.71284E-01 5.93076E-02 1.39666E+00-2.91440E-13 5.98958E-13
 -1      3647 1.52427E+01-5.54798E-01 2.31244E-02 3.26143E+00-4.49623E-13 2.92176E-13
 -1      3648 1.98618E+01 1.10934E+00 9.95870E-03-1.18908E+00 1.96405E-13-3.64258E-13
 -1      3649 1.92060E+01 1.37831E+00-8.07098E-03-1.24972E+00 1.53834E-13-4.10769E-13
 -1      3650 2.40650E+01-3.47040E+00 6.26656E-02 1.85810E+00 1.93900E-13 6.87029E-14
 -1      3651 1.64219E+01 2.75414E+00 2.10457E-03-5.30391E-01 7.91325E-14-6.59432E-13
 -1      3652 1.62231E+01 2.82625E+00-1.05891E-02-2.40802E-01 6.09059E-14-6.87177E-13
 -1      3653 1.87520E+01-2.04995E+00 3.30586E-02-3.65062E+00 2.74676E-13-8.98079E-14
 -1      3654 1.96291E+01-2.71560E+00 1.01762E-01-3.94206E+00 4.56847E-13-1.68501E-13
 -1      3655 2.31383E+01-3.42586E+00 3.09930E-03-2.38335E+00-2.91246E-13 1.81747E-14
 -1      3656 2.39667E+01-2.66512E+00 9.50197E-02-1.08062E+00-1.90342E-13 5.57575E-14
 -1      3657 2.00039E+01-2.33492E-03 3.93878E-06 1.69582E-03 4.62057E-14-2.57371E-14
 -1      3658 2.00046E+01-1.82413E-03 9.19265E-06 1.39015E-03-5.47087E-14 1.64579E-13
 -1      3659 2.00036E+01-2.28216E-03-9.35148E-06 2.30319E-03 1.01198E-13-2.84761E-13
 -1      3660 2.16240E+01-2.19213E+00 4.92845E-02 2.56026E+00 1.68280E-13-1.34477E-13
 -1      3661 2.23289E+01-2.93762E+00-1.13965E-02 2.48630E+00 1.67441E-13-9.87118E-14
 -1      3662 2.08798E+01-2.11692E+00 3.91433E-02-2.63614E+00 2.10673E-13-2.75110E-13
 -1      3663 1.96545E+01-1.85870E+00-3.93951E-02-3.01690E+00 2.10404E-13-1.17004E-13
 -1      3664 1.92676E+01-2.38193E+00 4.34213E-02 3.63002E+00-5.16334E-13-5.50419E-14
 -1      3665 1.23569E+01 5.95632E-01 8.50987E-02-1.37117E+00 1.69270E-14 5.78482E-13
 -1      3666 1.34297E+01 2.93847E-01-3.38427E-02-2.17976E+00 1.53443E-13 3.72074E-13
 -1      3667 1.28411E+01 7.66488E-01 2.47593E-03-6.52655E-01-1.55310E-14 4.38986E-13
 -1      3668 1.53953E+01-7.48391E-01 7.39592E-02-3.47112E+00 2.45394E-13 3.86653E-14
 -1      3669 2.16138E+01-2.73784E+00-1.39139E-02-2.83484E+00-2.63284E-13-5.73066E-14
 -1      3670 1.81527E+01 1.80243E+00-1.31848E-02 1.29553E+00-2.18001E-14-6.01833E-13
 -1      3671 2.00018E+01-1.45441E-03 1.11756E-05 4.39184E-03 1.18966E-13-3.05239E-13
 -1      3672 2.00015E+01-1.75854E-03 3.94626E-06 4.29372E-03-9.44850E-15-3.11353E-13
 -1      3673 2.00018E+01-1.90378E-03-8.45694E-06 4.09568E-03-1.54812E-13-4.91102E-13
 -1      3674 2.00028E+01-1.30732E-03-1.31077E-05 4.07458E-03 1.14334E-14-3.13075E-13
 -1      3675 2.72418E+01-1.78139E+00-2.46092E-02 1.11557E+00 1.20504E-13 3.16636E-13
 -1      3676 2.00042E+01-2.37739E-03 6.12220E-08-3.48935E-04 1.10070E-13-1.20757E-13
 -1      3677 2.00041E+01-2.35787E-03-2.63880E-06-1.00940E-03 8.24528E-14-4.28719E-13
 -1      3678 2.00048E+01-1.84215E-03 6.30092E-06 1.07403E-06 6.11130E-14 7.21234E-15
 -1      3679 1.82748E+01 2.20801E+00 2.12195E-03-9.84715E-01 1.80239E-13-5.26934E-13
 -1      3680 2.00020E+01-2.02161E-03 6.39547E-06-3.92601E-03-3.50655E-13 3.99945E-13
 -1      3681 2.00015E+01-1.95860E-03-9.05015E-06-4.17524E-03-4.78715E-13 3.18226E-13
 -1      3682 2.00007E+01-1.93982E-03 4.79965E-06-4.30776E-03-5.32777E-13-1.45352E-13
 -1      3683 1.20464E+01 1.03211E+00 8.34983E-02 1.30336E+00 1.47559E-13-8.84848E-13
 -1      3684 2.33414E+01-3.49547E+00 7.29540E-02-2.09230E+00 3.98305E-13-4.93046E-13
 -1      3685 1.72876E+01 2.33065E+00 9.79347E-03-1.07245E+00 1.14442E-13-6.12215E-13
 -1      3686 1.67816E+01 2.52143E+00-1.80875E-02-8.85382E-01 8.53247E-14-6.46273E-13
 -1      3687 1.63902E+01 2.38755E+00 1.25911E-02-8.73600E-01 6.22846E-14-6.39442E-13
 -1      3688 1.36405E+01 3.70876E-02 2.40762E-02-3.33820E+00-2.16655E-13-8.37351E-13
 -1      3689 1.45027E+01-5.61597E-01 5.71451E-02-4.02284E+00-2.66828E-13-8.00020E-13
 -1      3690 1.60990E+01-5.04917E-01 4.42831E-02-3.64078E+00-2.66163E-13-6.70271E-13
 -1      3691 2.07885E+01-2.43004E+00-2.45308E-02 2.85503E+00-3.20947E-13-3.50484E-14
 -1      3692 1.16496E+01 7.84909E-01 1.01249E-01-1.81084E+00-8.45112E-14-9.42246E-13
 -1      3693 2.14875E+01-2.80806E+00-9.26994E-03-2.62232E+00 2.91334E-13-2.94862E-13
 -1      3694 2.25021E+01-3.37172E+00-1.62731E-02 2.77669E+00 2.36117E-13-7.75994E-14
 -1      3695 1.53125E+01-4.39974E-01 8.32145E-02 3.82934E+00 3.10163E-13-6.06619E-13
 -1      3696 1.46424E+01 1.73896E-01 2.82569E-02 3.18967E+00 2.52420E-13-6.50088E-13
 -1      3697 1.70053E+01-8.06891E-01 1.80851E-02 3.63988E+00 3.00109E-13-5.31058E-13
 -1      3698 2.07887E+01-2.83151E+00 9.42824E-02 3.77582E+00 3.33364E-13-2.34607E-13
 -1      3699 1.94434E+01-2.06792E+00 2.24627E-02 3.69492E+00 2.86552E-13-3.50672E-13
 -1      3700 2.02980E+01-1.85408E+00-3.11912E-02 3.03536E+00 1.88555E-13-2.83260E-13
 -1      3701 1.66713E+01 3.05750E+00 1.49065E-02 2.64398E-01 4.01006E-14-7.01002E-13
 -1      3702 2.08256E+01-3.44542E-01 4.79240E-03-1.67559E+00 5.69821E-14-2.13059E-13
 -1      3703 2.06588E+01 6.80219E-02 1.39849E-02-1.53222E+00 1.06480E-13-2.36045E-13
 -1      3704 2.03369E+01-5.24939E-01-1.32670E-02-2.07976E+00-8.37785E-15-2.31671E-13
 -1      3705 2.17252E+01-3.43451E+00-1.56176E-02-3.00936E+00 4.39026E-13-4.02966E-13
 -1      3706 2.00032E+01-2.23839E-03 6.67499E-06-2.96700E-03-6.36289E-14 3.94710E-13
 -1      3707 2.00026E+01-2.12190E-03-7.12509E-06-3.46801E-03-2.56800E-13 4.01707E-13
 -1      3708 2.00026E+01-1.70503E-03 6.03490E-06-3.84798E-03-1.49953E-13 4.03720E-13
 -1      3709 2.00022E+01-2.02680E-03 5.29936E-06 3.85026E-03-1.31198E-13-4.12503E-13
 -1      3710 2.00028E+01-1.70725E-03 3.14802E-06 3.76166E-03-1.70296E-13-4.13042E-13
 -1      3711 2.00026E+01-2.13759E-03-8.54649E-06 3.46762E-03-1.28371E-13-2.80839E-13
 -1      3712 2.00032E+01-2.24195E-03 8.30561E-06 2.96492E-03-5.65327E-15-2.52984E-13
 -1      3713 2.00033E+01-1.37414E-03 9.30752E-06 3.68250E-03-7.52133E-14-2.78799E-13
 -1      3714 1.84178E+01-1.28997E+00 3.70938E-02-3.22819E+00 2.27889E-13-8.52044E-14
 -1      3715 2.05451E+01 7.14646E-01-2.85904E-03-1.09255E+00 2.12697E-13-2.85032E-13
 -1      3716 2.03554E+01 4.58828E-01-2.47232E-03-1.38478E+00 1.40906E-13-2.88952E-13
 -1      3717 1.62132E+01 2.83332E+00-1.01807E-02 1.96917E-01 7.03852E-14-6.85473E-13
 -1      3718 1.63945E+01 2.76946E+00 1.63590E-03 4.90054E-01 3.82156E-14-6.85182E-13
 -1      3719 1.59760E+01 2.62054E+00 2.24757E-02-2.77053E-02 7.20739E-14-6.81719E-13
 -1      3720 1.98579E+01 3.99105E-01-1.46717E-02-1.67357E+00 7.58145E-14-2.99556E-13
 -1      3721 1.82050E+01-1.02666E+00 5.47700E-02-3.49160E+00-2.49978E-13-4.63124E-13
 -1      3722 1.99258E+01-2.05753E+00-2.55544E-02-3.44548E+00-2.58776E-13-2.45276E-13
 -1      3723 1.88443E+01-1.49808E+00 3.08227E-03 3.16087E+00-3.80832E-13 6.18065E-14
 -1      3724 1.84559E+01 7.25449E-02 1.78387E-02-2.05277E+00 2.73326E-13-2.60261E-14
 -1      3725 1.83700E+01 2.85708E-01-1.34430E-02-1.86387E+00 2.20054E-13-9.44351E-14
 -1      3726 1.85684E+01 4.73316E-01 1.07432E-02-1.63651E+00 1.54265E-13-1.44706E-13
 -1      3727 1.85844E+01 5.84820E-01-1.03824E-02-1.48001E+00 1.79298E-13-1.68402E-13
 -1      3728 1.79931E+01 5.85183E-01 2.03110E-02-1.68431E+00 1.28193E-13-1.90875E-13
 -1      3729 1.87697E+01 6.79447E-01 6.28820E-03-1.31420E+00 2.06503E-13-1.25457E-13
 -1      3730 1.88215E+01 7.24555E-01-8.06212E-03-1.18899E+00 1.24420E-13-1.17076E-13
 -1      3731 1.83324E+01 7.89228E-01 1.55445E-02-1.30717E+00 1.98600E-13-2.79863E-13
 -1      3732 1.89844E+01 7.58842E-01 3.53372E-03-1.06373E+00 9.43105E-14 3.74045E-14
 -1      3733 1.90482E+01 7.61063E-01-6.34825E-03-9.61194E-01 2.00147E-13 3.31326E-14
 -1      3734 1.86490E+01 8.65084E-01 1.24385E-02-1.03375E+00 2.06480E-13-1.85630E-13
 -1      3735 1.91870E+01 7.57531E-01 2.00236E-03-8.63167E-01 1.45264E-13-5.59231E-14
 -1      3736 1.92500E+01 7.33632E-01-5.07222E-03-7.77357E-01 1.83584E-13-1.69856E-13
 -1      3737 1.89269E+01 8.59069E-01 9.99296E-03-8.26613E-01 1.10655E-13-7.20284E-15
 -1      3738 1.93657E+01 7.07861E-01 1.19760E-03-6.98452E-01 2.32064E-13-2.55140E-13
 -1      3739 1.94220E+01 6.69622E-01-4.10370E-03-6.25773E-01 1.52543E-13-2.52690E-13
 -1      3740 1.91630E+01 8.03152E-01 8.04331E-03-6.63450E-01 1.66122E-13-2.74491E-13
 -1      3741 1.95166E+01 6.32299E-01 7.94023E-04-5.61173E-01 7.03504E-14-2.18833E-13
 -1      3742 1.95638E+01 5.87783E-01-3.34251E-03-4.99505E-01 3.62633E-15-1.64753E-13
 -1      3743 1.93588E+01 7.19756E-01 6.46749E-03-5.31232E-01 1.19610E-13-3.57000E-13
 -1      3744 1.96400E+01 5.46023E-01 5.96897E-04-4.46287E-01-8.14559E-14-1.10079E-13
 -1      3745 1.96780E+01 5.00535E-01-2.72321E-03-3.94267E-01-1.23458E-13-1.12730E-13
 -1      3746 1.95179E+01 6.24404E-01 5.17466E-03-4.22417E-01 2.95746E-14-3.60028E-13
 -1      3747 1.97382E+01 4.58869E-01 4.97321E-04-3.50518E-01-9.93784E-14-1.46706E-13
 -1      3748 1.97677E+01 4.15696E-01-2.20719E-03-3.07108E-01-1.64563E-14-1.77654E-13
 -1      3749 1.96446E+01 5.27482E-01 4.10515E-03-3.32469E-01-6.83408E-14-3.52066E-13
 -1      3750 1.98146E+01 3.76818E-01 4.38484E-04-2.71418E-01-3.19051E-14-2.26827E-13
 -1      3751 1.98369E+01 3.37805E-01-1.77265E-03-2.35680E-01 7.99085E-15-1.97097E-13
 -1      3752 1.97438E+01 4.35551E-01 3.22020E-03-2.58391E-01-6.39315E-14-3.44144E-13
 -1      3753 1.98728E+01 3.03140E-01 3.93353E-04-2.06890E-01-2.61809E-14-2.29416E-13
 -1      3754 1.98892E+01 2.69140E-01-1.40684E-03-1.77908E-01-1.23523E-13-1.60297E-13
 -1      3755 1.98201E+01 3.52370E-01 2.49246E-03-1.97920E-01-6.54399E-14-4.79367E-13
 -1      3756 1.99161E+01 2.39261E-01 3.50898E-04-1.54992E-01-2.16195E-13-1.28166E-13
 -1      3757 1.99278E+01 2.10466E-01-1.10125E-03-1.31858E-01-2.41525E-13-1.60761E-13
 -1      3758 1.98776E+01 2.79720E-01 1.90022E-03-1.49147E-01-1.11959E-13-2.84241E-13
 -1      3759 1.99477E+01 1.85404E-01 3.08003E-04-1.13884E-01-1.88047E-13-1.06678E-13
 -1      3760 1.99557E+01 1.61597E-01-8.48993E-04-9.57164E-02-2.06297E-13-8.33779E-14
 -1      3761 1.99201E+01 2.18038E-01 1.42450E-03-1.10354E-01-1.00048E-13-3.26754E-14
 -1      3762 1.99700E+01 1.41055E-01 2.64984E-04-8.18403E-02-1.96515E-13 1.19212E-13
 -1      3763 1.99754E+01 1.21785E-01-6.43731E-04-6.78103E-02 2.30681E-14 1.25383E-13
 -1      3764 1.99508E+01 1.66908E-01 1.04794E-03-7.99606E-02-4.01597E-14 2.44064E-13
 -1      3765 1.99854E+01 1.05291E-01 2.23258E-04-5.72770E-02 2.53076E-14 3.69684E-14
 -1      3766 1.99888E+01 8.99951E-02-4.79282E-04-4.66299E-02-6.68613E-14 1.18282E-13
 -1      3767 1.99725E+01 1.25412E-01 7.54546E-04-5.65286E-02-1.15371E-13 1.88554E-13
 -1      3768 1.99956E+01 7.70026E-02 1.84269E-04-3.87783E-02-1.10661E-13 1.31982E-13
 -1      3769 1.99976E+01 6.50856E-02-3.49659E-04-3.08472E-02-1.98282E-14 2.33518E-13
 -1      3770 1.99872E+01 9.23844E-02 5.29766E-04-3.87695E-02-2.64783E-14 1.68040E-13
 -1      3771 2.00020E+01 5.50400E-02 1.49068E-04-2.51104E-02-8.46034E-14 1.61800E-13
 -1      3772 2.00030E+01 4.59260E-02-2.49203E-04-1.93211E-02-2.20572E-13 1.95430E-13
 -1      3773 1.99969E+01 6.65825E-02 3.60644E-04-2.55550E-02-1.14020E-13 1.71719E-13
 -1      3774 2.00057E+01 3.83028E-02 1.18234E-04-1.52235E-02-2.51187E-13 5.81870E-14
 -1      3775 2.00060E+01 3.14640E-02-1.72726E-04-1.10934E-02-1.80806E-13 5.16009E-14
 -1      3776 2.00029E+01 4.67935E-02 2.35903E-04-1.59191E-02-2.67275E-13 1.05781E-13
 -1      3777 2.00075E+01 2.57900E-02 9.19342E-05-8.24372E-03-7.61661E-15 1.43976E-13
 -1      3778 2.00073E+01 2.07607E-02-1.15608E-04-5.37614E-03 1.26454E-13 8.85208E-14
 -1      3779 2.00063E+01 3.18995E-02 1.45946E-04-9.05248E-03-2.28150E-14 6.20340E-14
 -1      3780 2.00080E+01 1.66240E-02 7.00337E-05-3.45887E-03 1.25778E-13 1.43260E-13
 -1      3781 2.00076E+01 1.30051E-02-7.38487E-05-1.53428E-03 2.42824E-13 1.08328E-13
 -1      3782 2.00078E+01 2.09097E-02 8.27729E-05-4.29068E-03 2.13399E-13 2.33610E-15
 -1      3783 2.00077E+01 1.00557E-02 5.22119E-05-2.99874E-04 2.32954E-13 1.81533E-13
 -1      3784 2.00072E+01 7.51252E-03-4.40345E-05 9.33848E-04 4.86266E-14 7.26008E-14
 -1      3785 2.00082E+01 1.29715E-02 3.98433E-05-1.09923E-03 2.68365E-13 1.26808E-13
 -1      3786 2.00069E+01 5.45880E-03 3.80228E-05 1.67900E-03-1.24877E-13-5.69076E-14
 -1      3787 2.00064E+01 3.71536E-03-2.35122E-05 2.41649E-03-2.90694E-14-1.80902E-13
 -1      3788 2.00077E+01 7.36750E-03 1.18826E-05 9.43544E-04-9.66644E-14 4.48910E-14
 -1      3789 2.00059E+01 2.31929E-03 2.74452E-05 2.81835E-03-3.37126E-14-3.82982E-13
 -1      3790 2.00054E+01 1.14963E-03-1.10181E-05 3.20698E-03-1.08662E-13-3.62302E-13
 -1      3791 2.00069E+01 3.50294E-03-5.46514E-06 2.16343E-03-2.13409E-13-1.34302E-13
 -1      3792 2.00048E+01 2.20614E-04 2.09242E-05 3.37321E-03-4.36053E-14-3.74726E-13
 -1      3793 2.00042E+01-5.65954E-04-2.73421E-06 3.53017E-03 6.29693E-14-3.99955E-13
 -1      3794 2.00057E+01 8.92678E-04-1.46437E-05 2.80934E-03-1.78023E-14-3.88040E-13
 -1      3795 2.17104E+01-2.05220E+00 2.52436E-02-2.25085E+00-2.11194E-13-4.26621E-14
 -1      3796 2.10854E+01-1.48261E+00 3.23843E-02-2.31915E+00-1.19136E-13-1.26145E-13
 -1      3797 1.90925E+01 5.93510E-01-4.33234E-03 1.31711E+00-1.27449E-13 1.51237E-13
 -1      3798 1.90840E+01 5.17081E-01 6.47597E-03 1.44439E+00-1.68756E-13 1.97495E-13
 -1      3799 1.67250E+01 2.54611E+00-2.25259E-02 8.52485E-01 2.65426E-14-6.85464E-13
 -1      3800 1.72310E+01 2.37487E+00 1.44743E-02 1.05984E+00-1.15598E-15-6.74015E-13
 -1      3801 1.63571E+01 2.41629E+00 1.65677E-02 8.26924E-01 5.27898E-14-6.63650E-13
 -1      3802 1.89700E+01 3.96710E-01-4.02177E-03 1.61307E+00-1.96568E-13 2.11012E-13
 -1      3803 1.90134E+01 2.35483E-01 9.02778E-03 1.76373E+00-2.02141E-13 1.64733E-13
 -1      3804 1.86249E+01 5.86476E-01 1.41436E-03 1.48598E+00-1.85708E-13 7.74825E-14
 -1      3805 1.89380E+01 1.30807E-02-2.34644E-03 1.97101E+00-3.33765E-13 2.17248E-13
 -1      3806 1.90880E+01-2.51836E-01 1.71799E-02 2.13730E+00-3.34940E-13 1.86537E-13
 -1      3807 1.84309E+01 2.50451E-01-1.04703E-02 1.88847E+00-2.07366E-13 1.56031E-13
 -1      3808 1.92435E+01 6.69420E-01-3.99367E-03 1.07708E+00-8.97477E-14 1.48792E-13
 -1      3809 1.92104E+01 6.46135E-01 3.89133E-03 1.18579E+00-6.20604E-14 1.64524E-13
 -1      3810 1.88512E+01 7.27411E-01 2.34032E-03 1.18972E+00-7.48126E-14 1.06212E-13
 -1      3811 1.93932E+01 6.68854E-01-3.53617E-03 8.78149E-01-6.09091E-14 1.62770E-13
 -1      3812 1.93526E+01 6.78462E-01 2.37821E-03 9.71639E-01-1.08238E-13 1.35145E-13
 -1      3813 1.90702E+01 7.65266E-01 2.75861E-03 9.60189E-01-1.19390E-13 6.97885E-14
 -1      3814 1.95280E+01 6.23286E-01-3.07282E-03 7.10991E-01-5.51191E-14 2.45963E-13
 -1      3815 1.94887E+01 6.51717E-01 1.56072E-03 7.91546E-01 7.83352E-15 2.82534E-13
 -1      3816 1.92665E+01 7.38495E-01 2.71972E-03 7.75648E-01-1.09364E-13 1.23435E-13
 -1      3817 1.96427E+01 5.54300E-01-2.63400E-03 5.69947E-01-8.73672E-14 1.96806E-13
 -1      3818 1.96084E+01 5.91954E-01 1.12063E-03 6.39026E-01-5.83813E-14 2.22505E-13
 -1      3819 1.94345E+01 6.74617E-01 2.45804E-03 6.23933E-01-1.88308E-14 1.70186E-13
 -1      3820 1.97364E+01 4.76180E-01-2.22786E-03 4.51359E-01-1.23855E-13 1.50862E-13
 -1      3821 1.97085E+01 5.16771E-01 8.80838E-04 5.10002E-01-1.08672E-13 2.00806E-13
 -1      3822 1.95735E+01 5.92563E-01 2.10927E-03 4.97832E-01-1.48114E-13 8.99913E-14
 -1      3823 1.98108E+01 3.97945E-01-1.85757E-03 3.52541E-01 1.08691E-13 9.66296E-14
 -1      3824 1.97891E+01 4.37561E-01 7.38776E-04 4.01662E-01-3.40975E-14 2.14534E-13
 -1      3825 1.96854E+01 5.04880E-01 1.74564E-03 3.92887E-01-2.51366E-14-1.03682E-13
 -1      3826 1.98683E+01 3.24905E-01-1.52545E-03 2.71204E-01 1.62010E-13-1.38564E-14
 -1      3827 1.98520E+01 3.61301E-01 6.40151E-04 3.11728E-01 1.58015E-13 1.61394E-13
 -1      3828 1.97736E+01 4.19487E-01 1.40427E-03 3.06047E-01 1.17247E-13-9.82063E-14
 -1      3829 1.99116E+01 2.59837E-01-1.23307E-03 2.05197E-01 2.96305E-15 9.64061E-14
 -1      3830 1.98999E+01 2.91900E-01 5.59026E-04 2.38097E-01 7.95358E-14 9.59818E-14
 -1      3831 1.98415E+01 3.41002E-01 1.10262E-03 2.34914E-01 6.98891E-14 2.06200E-13
 -1      3832 1.99435E+01 2.03841E-01-9.80694E-04 1.52442E-01-5.89683E-14 1.03036E-13
 -1      3833 1.99354E+01 2.31200E-01 4.84839E-04 1.78718E-01 3.97976E-14 1.33621E-13
 -1      3834 1.98927E+01 2.71755E-01 8.46769E-04 1.77388E-01-3.92874E-16 1.76938E-13
 -1      3835 1.99665E+01 1.56962E-01-7.67137E-04 1.10943E-01 1.41056E-13-1.12388E-13
 -1      3836 1.99611E+01 1.79709E-01 4.14590E-04 1.31582E-01 2.42359E-14-5.59467E-15
 -1      3837 1.99305E+01 2.12548E-01 6.36413E-04 1.31531E-01 7.41740E-14 4.46753E-14
 -1      3838 1.99824E+01 1.18618E-01-5.89891E-04 7.88317E-02-4.37989E-14-2.25765E-14
 -1      3839 1.99790E+01 1.37113E-01 3.48468E-04 9.47700E-02 7.91572E-14-9.04153E-14
 -1      3840 1.99578E+01 1.63213E-01 4.67821E-04 9.55340E-02 8.62702E-14 5.70348E-14
 -1      3841 1.99932E+01 8.78993E-02-4.45506E-04 5.44097E-02-4.13950E-14 1.43599E-13
 -1      3842 1.99912E+01 1.02637E-01 2.87604E-04 6.65028E-02-5.72956E-14 6.37644E-14
 -1      3843 1.99770E+01 1.23008E-01 3.35705E-04 6.77303E-02-4.37086E-14 1.75486E-13
 -1      3844 2.00001E+01 6.37599E-02-3.30009E-04 3.61728E-02-5.62989E-15 1.67437E-13
 -1      3845 1.99991E+01 7.52821E-02 2.33047E-04 4.51784E-02 4.38249E-14 1.14887E-13
 -1      3846 1.99900E+01 9.08971E-02 2.34333E-04 4.66188E-02 4.53929E-15 1.86675E-13
 -1      3847 2.00042E+01 4.51428E-02-2.39257E-04 2.28237E-02-1.26946E-13 1.38940E-13
 -1      3848 2.00039E+01 5.39842E-02 1.85405E-04 2.93947E-02-9.70775E-14 1.22425E-13
 -1      3849 1.99984E+01 6.57330E-02 1.58159E-04 3.08793E-02-8.23679E-15 1.42781E-13
 -1      3850 2.00064E+01 3.10533E-02-1.69224E-04 1.32698E-02-8.68614E-14 1.75099E-13
 -1      3851 2.00065E+01 3.77097E-02 1.44801E-04 1.79552E-02-4.33518E-14 2.64254E-13
 -1      3852 2.00036E+01 4.63765E-02 1.02158E-04 1.93776E-02-1.23443E-13 1.52510E-13
 -1      3853 2.00072E+01 2.05981E-02-1.16184E-04 6.61004E-03-1.12047E-14 5.87084E-15
 -1      3854 2.00076E+01 2.55103E-02 1.10961E-04 9.86122E-03-4.10025E-14 1.40338E-13
 -1      3855 2.00064E+01 3.17656E-02 6.19718E-05 1.11611E-02-4.89597E-14 1.06694E-13
 -1      3856 2.00072E+01 1.30015E-02-7.68151E-05 2.11669E-03 9.09036E-14-1.00504E-13
 -1      3857 2.00077E+01 1.65491E-02 8.33478E-05 4.29724E-03 5.38057E-14-6.27383E-14
 -1      3858 2.00076E+01 2.09525E-02 3.39356E-05 5.44613E-03 6.14628E-14 4.48769E-14
 -1      3859 2.00067E+01 7.60645E-03-4.82567E-05-7.86440E-04 2.03610E-13 1.83689E-14
 -1      3860 2.00072E+01 1.01093E-02 6.12740E-05 6.10409E-04 1.57445E-13 5.32876E-15
 -1      3861 2.00078E+01 1.31175E-02 1.50421E-05 1.60104E-03 1.09908E-13 2.14038E-14
 -1      3862 2.00058E+01 3.86742E-03-2.81481E-05-2.54631E-03 5.09522E-14 2.17339E-13
 -1      3863 2.00064E+01 5.58985E-03 4.39817E-05-1.71144E-03 2.10205E-13 1.38169E-13
 -1      3864 2.00073E+01 7.56854E-03 2.85672E-06-8.73473E-04 1.80129E-13 2.19904E-13
 -1      3865 2.00048E+01 1.33855E-03-1.39975E-05-3.50158E-03-9.02179E-14 2.56477E-13
 -1      3866 2.00054E+01 2.49537E-03 3.06692E-05-3.06166E-03-9.01803E-14 2.55674E-13
 -1      3867 2.00064E+01 3.73203E-03-4.60654E-06-2.36395E-03-8.58412E-14 5.02971E-13
 -1      3868 2.00038E+01-3.36549E-04-1.87800E-07-3.89615E-03 2.66343E-14 3.58029E-13
 -1      3869 2.00043E+01 4.17432E-04 2.00876E-05-3.73683E-03-3.57876E-14 3.01469E-13
 -1      3870 2.00054E+01 1.13890E-03-8.80789E-06-3.16468E-03-6.54077E-14 4.39299E-13
 -1      3871 2.00030E+01-1.34228E-03-1.08540E-06-3.89918E-03-1.85823E-13 4.53972E-13
 -1      3872 2.00034E+01-8.10806E-04 1.00058E-05-3.91414E-03 5.29148E-15 4.55152E-13
 -1      3873 2.00044E+01-4.23875E-04-1.13208E-05-3.43627E-03-9.65791E-14 4.16141E-13
 -1      3874 2.00037E+01-1.40438E-03-4.88150E-06-3.43556E-03-7.05411E-14 4.81091E-13
 -1      3875 1.69592E+01-9.20227E-01-3.16661E-02-3.31223E+00 2.57400E-13-5.68053E-14
 -1      3876 1.82561E+01-7.10387E-01 2.34179E-02-2.77493E+00 2.45049E-13-1.11533E-13
 -1      3877 2.00039E+01-2.33803E-03 3.26074E-06-1.69554E-03 1.34072E-14-3.42454E-15
 -1      3878 2.00036E+01-2.27370E-03-4.97954E-06-2.30454E-03-4.78972E-14 4.21071E-13
 -1      3879 2.00046E+01-1.83395E-03 5.08988E-06-1.38388E-03-8.71359E-14-7.09228E-14
 -1      3880 1.31478E+01 1.08654E+00 1.05942E-02 1.91704E+00 2.11062E-13-7.86173E-13
 -1      3881 1.24297E+01 1.50521E+00 4.36733E-02 3.58281E-01 8.18681E-14-8.40682E-13
 -1      3882 1.88385E+01-5.74334E-01 1.25894E-03 2.47630E+00-2.89990E-13 1.45665E-13
 -1      3883 1.91866E+01-9.91360E-01 3.19124E-02 2.64859E+00-2.86774E-13 1.22128E-13
 -1      3884 1.74652E+01-8.62706E-01 2.72716E-02 3.21520E+00-4.64728E-13 2.15497E-13
 -1      3885 1.81132E+01-1.74202E-01 1.40838E-02 2.40769E+00-3.52375E-13 2.18876E-13
 -1      3886 1.60947E+01-3.51908E-01-1.44346E-02 2.85063E+00-4.24629E-13 1.48711E-13
 -1      3887 1.47903E+01 4.96815E-01 9.00794E-02 2.20978E+00-3.63554E-13 4.19449E-13
 -1      3888 1.65462E+01 5.82160E-03-3.43763E-02 2.42169E+00-3.30303E-13 1.40036E-13
 -1      3889 1.89272E+01-1.19852E+00 3.53448E-02 3.32315E+00 2.30991E-13-3.98684E-13
 -1      3890 1.24570E+01 1.35041E+00 2.17995E-03-1.00553E+00-6.02123E-15-8.23841E-13
 -1      3891 1.28825E+01 8.27219E-01 6.54325E-02-2.43492E+00-1.06495E-13-8.71938E-13
 -1      3892 1.44347E+01 7.56826E-01 3.53302E-02-2.49722E+00-1.44698E-13-7.70517E-13
 -1      3893 1.80525E+01-2.76353E-01 7.36532E-04-2.49568E+00 2.95512E-13-1.03771E-14
 -1      3894 1.53842E+01-6.37064E-02 6.95398E-02-2.83900E+00 2.26255E-13 5.75416E-14
 -1      3895 1.85424E+01 1.72154E+00 1.22255E-02-1.28387E+00 1.46657E-13-4.80732E-13
 -1      3896 1.78807E+01 1.98118E+00-1.57408E-02-1.23641E+00 1.13025E-13-5.45693E-13
 -1      3897 1.74881E+01 1.82877E+00 5.56270E-03-1.41347E+00 7.76760E-14-5.65866E-13
 -1      3898 1.89067E+01 1.16544E+00 2.55452E-03-1.53787E+00 9.53341E-14-4.27704E-13
 -1      3899 1.75175E+01-6.87360E-01 2.32135E-02-3.46498E+00-2.29632E-13-5.57737E-13
 -1      3900 1.87149E+01-6.63727E-01 2.10164E-02-2.99105E+00-1.86893E-13-3.96038E-13
 -1      3901 1.66996E+01-1.68768E-01 3.18454E-03-3.20392E+00-2.04010E-13-6.11074E-13
 -1      3902 1.89569E+01-5.52583E-01 1.88023E-02 2.80076E+00 1.33232E-13-4.04346E-13
 -1      3903 1.78770E+01-7.49750E-01 4.09060E-04 3.38573E+00 2.08737E-13-5.01772E-13
 -1      3904 1.71338E+01-7.47052E-02 3.10714E-02 3.08525E+00 1.93297E-13-5.67502E-13
 -1      3905 1.86541E+01 6.06717E-02 3.53928E-02 2.52129E+00 1.12533E-13-4.74132E-13
 -1      3906 1.77575E+01 1.64636E+00 5.52938E-03 1.48724E+00 6.98508E-15-5.87966E-13
 -1      3907 1.36353E+01 6.08929E-01-9.26180E-03 1.51458E+00-2.30097E-13 5.20327E-13
 -1      3908 1.31663E+01 1.01139E+00 8.75134E-02 4.16519E-01-1.02242E-13 4.44526E-13
 -1      3909 1.36956E+01 8.82281E-01 4.04201E-03-3.39585E-01 2.90219E-15 3.72195E-13
 -1      3910 1.47570E+01 7.39769E-01-3.90323E-03 1.37051E+00-2.13798E-13 3.35942E-13
 -1      3911 1.56767E+01 5.48027E-01-2.22849E-02 2.69888E+00 2.12163E-13-6.25770E-13
 -1      3912 1.44035E+01 9.31854E-01 6.22550E-02 2.42072E+00 2.20631E-13-6.88265E-13
 -1      3913 1.45087E+01 1.46433E+00 2.47266E-02 1.60471E+00 1.44862E-13-6.77484E-13
 -1      3914 1.52430E+01 2.44400E-01-1.21570E-03-2.24243E+00 1.91711E-13 1.14269E-13
 -1      3915 2.34776E+01-2.58063E+00 1.11894E-01-1.52709E+00-2.16069E-13 3.41949E-14
 -1      3916 2.00051E+01-1.25250E-03-9.31976E-06 1.70444E-03-6.59578E-14 9.44794E-14
 -1      3917 2.00053E+01-1.24898E-03-1.84416E-06 1.04844E-03-9.43038E-14 4.17673E-13
 -1      3918 1.74224E+01 1.46722E-01 2.93553E-02-2.30638E+00 2.44513E-13-1.02366E-13
 -1      3919 2.00042E+01-1.03242E-03-1.15888E-05 3.19391E-03-6.28145E-14-4.81038E-13
 -1      3920 2.00054E+01-1.24196E-03-8.08067E-06 3.38311E-04-5.68143E-14 2.41904E-13
 -1      3921 2.00054E+01-1.23449E-03-5.25243E-06-3.40070E-04-3.29940E-14-1.33891E-14
 -1      3922 2.00060E+01-5.32674E-04 9.99082E-06 7.04671E-04-5.19699E-14 2.22505E-13
 -1      3923 1.93430E+01 2.86901E-01 4.96141E-03-2.00566E+00 3.86887E-15-3.47509E-13
 -1      3924 1.90875E+01 7.40570E-01 1.09388E-02-1.80025E+00 3.67304E-14-4.00628E-13
 -1      3925 1.82663E+01 1.04382E+00-1.51998E-02-1.84691E+00 2.21803E-14-4.92399E-13
 -1      3926 2.00039E+01-1.81248E-03 3.30685E-06-2.72763E-03-7.54387E-15 4.33404E-13
 -1      3927 1.35022E+01 1.64219E+00 5.33907E-02-2.75563E-01 4.48582E-14-7.85743E-13
 -1      3928 1.53971E+01 2.38820E+00 1.27376E-03-2.74720E-01 7.27305E-14-6.91676E-13
 -1      3929 1.53858E+01 2.38671E+00-1.16070E-03 2.10445E-01 6.63816E-14-6.92130E-13
 -1      3930 2.00397E+01-1.13948E+00-1.13966E-02-2.68927E+00-1.28301E-13-2.17122E-13
 -1      3931 1.62022E+01 2.01143E+00 1.23037E-02-1.27201E+00 4.73298E-14-6.38211E-13
 -1      3932 1.56920E+01 2.18935E+00-1.82365E-02-9.06028E-01 4.17760E-14-6.63207E-13
 -1      3933 1.51487E+01 2.06701E+00 2.20318E-02-7.20775E-01 5.33265E-14-6.95782E-13
 -1      3934 2.00039E+01-1.82522E-03 5.87532E-06 2.74303E-03-6.77065E-14-3.89154E-13
 -1      3935 1.79957E+01 1.16724E+00 1.76326E-02 1.85777E+00 4.44848E-14-5.67838E-13
 -1      3936 1.81248E+01 6.66852E-01 1.12882E-02 2.16636E+00 8.38184E-14-5.24598E-13
 -1      3937 1.74035E+01 5.44162E-01-3.06192E-02 2.43931E+00 1.34040E-13-5.72485E-13
 -1      3938 1.68246E+01 1.66224E+00-3.09771E-02 1.61337E+00 5.77351E-14-6.35019E-13
 -1      3939 1.89168E+01-4.61232E-01-2.99833E-02-2.71211E+00-1.14919E-13-3.41577E-13
 -1      3940 1.96840E+01-3.95908E-01 1.91185E-02-2.35822E+00-5.71700E-14-2.96881E-13
 -1      3941 1.86245E+01 8.43597E-01-6.74510E-03 9.94704E-01-1.29302E-13 2.65377E-14
 -1      3942 1.85170E+01 8.22562E-01 2.85549E-03 1.11563E+00-1.30168E-13-4.39399E-14
 -1      3943 2.00048E+01-1.01210E-03 3.41714E-07 2.55621E-03 1.99296E-14-4.02750E-13
 -1      3944 2.00056E+01-3.02753E-04 1.08268E-05 2.18276E-03-9.13899E-14-1.15204E-13
 -1      3945 1.62093E+01 4.28702E-01-1.74009E-02-1.91382E+00 1.69677E-13-1.25082E-14
 -1      3946 1.66941E+01 6.59538E-01-3.85904E-02-1.54671E+00 1.15348E-13-9.50494E-14
 -1      3947 1.49313E+01 9.71138E-01 6.92953E-02-1.27894E+00 6.44671E-14 2.16611E-13
 -1      3948 1.71885E+01 7.74801E-01-1.09757E-02-1.36778E+00 1.50280E-13-1.21597E-13
 -1      3949 1.73891E+01 8.75578E-01-2.50487E-02-1.15341E+00 1.44952E-13-1.30051E-13
 -1      3950 1.64438E+01 1.10829E+00 4.28005E-02-9.08204E-01 8.55082E-14 3.36307E-14
 -1      3951 1.84337E+01-4.14718E-02 1.88403E-02-2.65760E+00-1.09079E-13-4.42355E-13
 -1      3952 1.71950E+01 1.66195E-01-2.00524E-02 2.15739E+00-3.26997E-13 7.80287E-14
 -1      3953 1.63868E+01 7.39063E-01 5.86540E-02 1.72111E+00-3.05530E-13 1.37483E-13
 -1      3954 1.75727E+01 3.97668E-01-1.25790E-02 1.86645E+00-2.47055E-13 1.28208E-13
 -1      3955 1.77549E+01 9.28378E-01-8.52204E-03-1.03218E+00 1.18470E-13-1.38822E-13
 -1      3956 1.79390E+01 9.66261E-01-1.74801E-02-8.85327E-01 1.44329E-13-1.03536E-13
 -1      3957 1.72445E+01 1.15602E+00 2.64420E-02-6.63616E-01 1.22856E-13-6.03688E-14
 -1      3958 1.82195E+01 9.74080E-01-7.06059E-03-8.02053E-01 1.40778E-13-1.93891E-13
 -1      3959 1.83809E+01 9.71741E-01-1.26378E-02-6.94567E-01 1.64582E-13-2.13461E-13
 -1      3960 1.78558E+01 1.14476E+00 1.87601E-02-5.00669E-01 4.24693E-14-8.26836E-14
 -1      3961 1.86005E+01 9.49863E-01-5.85151E-03-6.34533E-01 1.09941E-13-3.48434E-13
 -1      3962 1.87380E+01 9.21927E-01-9.39981E-03-5.51968E-01 7.40706E-14-3.68679E-13
 -1      3963 1.83327E+01 1.08618E+00 1.40396E-02-3.88460E-01 1.20040E-14-4.04065E-13
 -1      3964 1.89121E+01 8.81733E-01-4.79381E-03-5.06503E-01 1.09749E-13-4.32948E-13
 -1      3965 1.90265E+01 8.38810E-01-7.16682E-03-4.40603E-01 1.12523E-13-4.85999E-13
 -1      3966 1.87100E+01 9.95624E-01 1.07969E-02-3.06503E-01 9.51013E-15-5.84658E-13
 -1      3967 1.91650E+01 7.88756E-01-3.88917E-03-4.04874E-01 1.24718E-13-5.00757E-13
 -1      3968 1.92584E+01 7.38608E-01-5.56475E-03-3.50945E-01 1.25015E-13-4.82066E-13
 -1      3969 1.90104E+01 8.86302E-01 8.44184E-03-2.43475E-01 4.32437E-14-4.89346E-13
 -1      3970 1.93685E+01 6.84879E-01-3.12304E-03-3.22240E-01 5.62247E-14-5.32376E-13
 -1      3971 1.94434E+01 6.32993E-01-4.36488E-03-2.77595E-01-5.08206E-15-5.04620E-13
 -1      3972 1.92496E+01 7.69054E-01 6.65487E-03-1.93262E-01 6.66668E-14-4.68267E-13
 -1      3973 1.95303E+01 5.79911E-01-2.47798E-03-2.54316E-01-2.24579E-14-5.26795E-13
 -1      3974 1.95894E+01 5.29947E-01-3.43283E-03-2.17316E-01-3.51049E-14-5.39836E-13
 -1      3975 1.94391E+01 6.52245E-01 5.25282E-03-1.52471E-01-6.07535E-14-4.87766E-13
 -1      3976 1.96572E+01 4.80312E-01-1.93956E-03-1.98437E-01-1.87375E-14-5.10675E-13
 -1      3977 1.97030E+01 4.34506E-01-2.69081E-03-1.67959E-01-2.94903E-17-4.65657E-13
 -1      3978 1.95879E+01 5.41796E-01 4.12887E-03-1.19111E-01-3.39599E-16-5.38330E-13
 -1      3979 1.97554E+01 3.89937E-01-1.49546E-03-1.52744E-01 1.58042E-14-4.73082E-13
 -1      3980 1.97903E+01 3.49463E-01-2.09275E-03-1.27900E-01-4.96766E-14-4.21359E-13
 -1      3981 1.97032E+01 4.41452E-01 3.21871E-03-9.18870E-02 3.27532E-14-3.82817E-13
 -1      3982 1.98301E+01 3.10698E-01-1.13428E-03-1.15764E-01-3.82007E-14-2.69221E-13
 -1      3983 1.98561E+01 2.75976E-01-1.60957E-03-9.57744E-02 1.68393E-14-1.36324E-13
 -1      3984 1.97914E+01 3.53179E-01 2.48092E-03-6.98463E-02 8.77216E-14-2.30026E-13
 -1      3985 1.98859E+01 2.43140E-01-8.45005E-04-8.62170E-02-3.19973E-14-6.92115E-14
 -1      3986 1.99050E+01 2.14082E-01-1.22102E-03-7.03664E-02 1.07584E-14 7.72460E-14
 -1      3987 1.98577E+01 2.77596E-01 1.88610E-03-5.22054E-02 8.55357E-14-2.62833E-14
 -1      3988 1.99268E+01 1.86897E-01-6.17041E-04-6.29493E-02-3.63953E-14-2.45823E-14
 -1      3989 1.99405E+01 1.63104E-01-9.11461E-04-5.05745E-02-9.01943E-14-9.42849E-14
 -1      3990 1.99068E+01 2.14380E-01 1.41120E-03-3.82773E-02-7.24720E-14-1.03499E-13
 -1      3991 1.99562E+01 1.41057E-01-4.40395E-04-4.49095E-02-9.46360E-14-1.79248E-13
 -1      3992 1.99656E+01 1.21958E-01-6.67865E-04-3.54058E-02-9.17546E-14-1.12385E-13
 -1      3993 1.99422E+01 1.62611E-01 1.03676E-03-2.74450E-02-7.46257E-14-3.12035E-13
 -1      3994 1.99766E+01 1.04417E-01-3.05917E-04-3.11536E-02-2.69390E-14 4.71785E-15
 -1      3995 1.99830E+01 8.93710E-02-4.78915E-04-2.39811E-02 2.38510E-14 5.60042E-14
 -1      3996 1.99673E+01 1.21032E-01 7.45757E-04-1.91562E-02-1.88482E-14-1.95478E-13
 -1      3997 1.99904E+01 7.56700E-02-2.05464E-04-2.08498E-02-1.40117E-13 1.32097E-13
 -1      3998 1.99945E+01 6.40332E-02-3.34693E-04-1.55375E-02-2.26310E-13 1.02229E-13
 -1      3999 1.99844E+01 8.82513E-02 5.23194E-04-1.29236E-02-4.58460E-14-2.13615E-13
 -1      4000 1.99993E+01 5.35257E-02-1.31979E-04-1.32806E-02-2.69055E-13 1.35238E-13
 -1      4001 2.00017E+01 4.46909E-02-2.26555E-04-9.42724E-03-2.28258E-13 1.51007E-13
 -1      4002 1.99957E+01 6.28735E-02 3.55946E-04-8.32563E-03-1.61555E-13-7.65586E-14
 -1      4003 2.00046E+01 3.67824E-02-7.94903E-05-7.84057E-03-2.21738E-14 2.00666E-13
 -1      4004 2.00058E+01 3.02030E-02-1.47080E-04-5.11154E-03 1.53581E-13 1.79981E-13
 -1      4005 2.00027E+01 4.35850E-02 2.32705E-04-5.00508E-03-3.91261E-14 1.29612E-13
 -1      4006 2.00074E+01 2.43670E-02-4.30484E-05-4.02938E-03 1.20061E-13 5.94367E-14
 -1      4007 2.00079E+01 1.95672E-02-8.99963E-05-2.15135E-03 1.62185E-13 4.28434E-14
 -1      4008 2.00067E+01 2.92025E-02 1.43902E-04-2.66545E-03-1.94804E-14 8.95373E-14
 -1      4009 2.00085E+01 1.53508E-02-1.86290E-05-1.44155E-03 1.67288E-13-7.62025E-14
 -1      4010 2.00085E+01 1.19263E-02-5.00965E-05-1.95781E-04 1.69210E-13-1.36738E-13
 -1      4011 2.00085E+01 1.86941E-02 8.15915E-05-1.06552E-03 1.99923E-14-1.46326E-13
 -1      4012 2.00085E+01 8.94854E-03-3.03450E-06 2.44962E-04 1.14726E-13-1.87861E-13
 -1      4013 2.00082E+01 6.56209E-03-2.34574E-05 1.03059E-03-1.26391E-13-2.27359E-13
 -1      4014 2.00089E+01 1.11824E-02 3.92522E-05-1.28823E-05 7.39284E-14-4.14093E-13
 -1      4015 2.00078E+01 4.51090E-03 6.85441E-06 1.28038E-03-2.59351E-13 2.25312E-14
 -1      4016 2.00073E+01 2.88956E-03-6.14316E-06 1.73162E-03-1.89483E-13-9.84465E-14
 -1      4017 2.00085E+01 5.93342E-03 1.06900E-05 6.41466E-04-1.72857E-14-2.74608E-13
 -1      4018 2.00068E+01 1.64724E-03 1.25441E-05 1.87041E-03-1.33880E-13-1.11542E-14
 -1      4019 2.00062E+01 5.25968E-04-1.06926E-06 2.09864E-03-3.71972E-14-9.38827E-14
 -1      4020 2.00064E+01 2.99264E-04-1.11795E-05 1.27597E-03-1.95982E-13 2.01904E-13
 -1      4021 2.00075E+01 2.51488E-03-5.23086E-06 1.03649E-03-1.52073E-13-2.48709E-14
 -1      4022 1.56575E+01 2.22931E+00-2.21121E-02 8.32460E-01 8.35471E-14-6.57628E-13
 -1      4023 1.61749E+01 2.06242E+00 1.71654E-02 1.22429E+00 6.29620E-14-6.50105E-13
 -1      4024 1.62860E+01 1.59313E+00 1.88070E-02 1.67741E+00 8.46265E-14-6.30256E-13
 -1      4025 1.51707E+01 2.10301E+00 3.07575E-02 6.32790E-01 8.29684E-14-6.65212E-13
 -1      4026 1.82951E+01 7.68439E-01-9.73283E-03 1.25318E+00-1.17809E-13 8.41004E-14
 -1      4027 1.81976E+01 6.93158E-01 3.01149E-03 1.41335E+00-1.05443E-13 1.85182E-13
 -1      4028 1.81263E+01 9.24353E-01 7.61571E-03 1.04365E+00-4.94165E-14 9.67554E-14
 -1      4029 1.77286E+01 6.13114E-01-1.49091E-03 1.62432E+00-1.98074E-13 1.38099E-13
 -1      4030 1.91495E+01 7.83544E-01-4.01082E-03 6.38672E-01-1.24912E-13 6.53158E-14
 -1      4031 1.90608E+01 8.17192E-01 7.88702E-04 7.16104E-01-2.22827E-13-7.04160E-14
 -1      4032 1.93480E+01 7.01977E-01-3.22312E-03 5.10837E-01-4.93585E-14 1.52127E-13
 -1      4033 1.92732E+01 7.46364E-01 3.69169E-04 5.75032E-01-2.60475E-14 1.31009E-13
 -1      4034 1.90948E+01 8.28992E-01 3.95634E-03 5.17573E-01-1.29220E-13-4.08110E-14
 -1      4035 1.95091E+01 6.08681E-01-2.62216E-03 4.05560E-01-1.07597E-13 1.06548E-13
 -1      4036 1.94480E+01 6.57072E-01 1.89340E-04 4.59168E-01-6.63302E-14 1.55711E-13
 -1      4037 1.93095E+01 7.32638E-01 3.25341E-03 4.12119E-01-2.71095E-14 1.82003E-13
 -1      4038 1.96375E+01 5.13878E-01-2.14053E-03 3.18601E-01 4.93432E-14-7.40976E-14
 -1      4039 1.95889E+01 5.61805E-01 1.28788E-04 3.63284E-01-5.48499E-14-9.08302E-14
 -1      4040 1.94819E+01 6.29450E-01 2.64815E-03 3.26045E-01 3.73472E-14 1.13397E-14
 -1      4041 1.97381E+01 4.24009E-01-1.74133E-03 2.47097E-01 4.56659E-14 6.56293E-15
 -1      4042 1.97003E+01 4.68710E-01 1.19888E-04 2.84044E-01 4.62107E-14-1.13543E-13
 -1      4043 1.96184E+01 5.27928E-01 2.12978E-03 2.55411E-01 4.18338E-14-1.19384E-13
 -1      4044 1.98154E+01 3.42756E-01-1.40498E-03 1.88844E-01 4.30157E-14 1.02519E-13
 -1      4045 1.97868E+01 3.82713E-01 1.27624E-04 2.19041E-01 5.65639E-14 9.46214E-14
 -1      4046 1.97248E+01 4.33436E-01 1.68976E-03 1.97609E-01-2.96080E-15-3.23093E-14
 -1      4047 1.98739E+01 2.71849E-01-1.12077E-03 1.41965E-01-2.20707E-14 1.61755E-14
 -1      4048 1.98526E+01 3.06416E-01 1.35811E-04 1.66307E-01 6.28803E-14 9.52368E-14
 -1      4049 1.98064E+01 3.48972E-01 1.32090E-03 1.50692E-01 9.28037E-14-2.25555E-14
 -1      4050 1.99172E+01 2.11700E-01-8.82098E-04 1.04762E-01 1.05152E-13-1.67559E-14
 -1      4051 1.99018E+01 2.40816E-01 1.38439E-04 1.24093E-01-1.77439E-14-7.49919E-14
 -1      4052 1.98680E+01 2.75827E-01 1.01620E-03 1.13044E-01 5.51347E-14-6.78543E-14
 -1      4053 1.99487E+01 1.61886E-01-6.83949E-04 7.56835E-02-6.56991E-14 9.06582E-14
 -1      4054 1.99378E+01 1.85854E-01 1.34530E-04 9.07937E-02 7.79758E-14 1.15793E-13
 -1      4055 1.99135E+01 2.14126E-01 7.68510E-04 8.32384E-02-5.16903E-15 7.95851E-15
 -1      4056 1.99709E+01 1.21496E-01-5.21757E-04 5.33179E-02-1.98939E-14 1.18357E-13
 -1      4057 1.99634E+01 1.40824E-01 1.25257E-04 6.49355E-02-2.95387E-14 9.64694E-14
 -1      4058 1.99465E+01 1.63247E-01 5.70464E-04 5.99899E-02-8.13943E-14 1.84300E-14
 -1      4059 1.99861E+01 8.93808E-02-3.91052E-04 3.64085E-02-1.20128E-14 1.84728E-13
 -1      4060 1.99812E+01 1.04671E-01 1.12441E-04 4.51862E-02-3.83939E-14 8.64764E-14
 -1      4061 1.99698E+01 1.22144E-01 4.14781E-04 4.21431E-02-2.84961E-14 1.07781E-13
 -1      4062 1.99961E+01 6.43178E-02-2.87427E-04 2.38588E-02-3.90835E-14 2.36557E-13
 -1      4063 1.99931E+01 7.61918E-02 9.78344E-05 3.03676E-02 3.21356E-14 2.82156E-13
 -1      4064 1.99857E+01 8.95651E-02 2.94516E-04 2.86755E-02-7.40979E-15 1.77994E-13
 -1      4065 2.00024E+01 4.51170E-02-2.06651E-04 1.47338E-02-1.29954E-13 1.21448E-13
 -1      4066 2.00007E+01 5.41685E-02 8.28380E-05 1.94613E-02-7.32623E-14 1.69868E-13
 -1      4067 1.99962E+01 6.42164E-02 2.03291E-04 1.86995E-02-2.37661E-14 3.00333E-13
 -1      4068 2.00059E+01 3.06836E-02-1.44785E-04 8.25227E-03-8.13926E-14 1.02304E-13
 -1      4069 2.00052E+01 3.74524E-02 6.84478E-05 1.16057E-02-1.10101E-13 1.08218E-13
 -1      4070 2.00027E+01 4.48537E-02 1.35432E-04 1.14608E-02-4.60706E-14 1.37690E-13
 -1      4071 2.00076E+01 2.00482E-02-9.82818E-05 3.77523E-03 4.35182E-14 1.02214E-13
 -1      4072 2.00074E+01 2.50081E-02 5.52948E-05 6.08751E-03-2.98892E-14 1.85306E-13
 -1      4073 2.00063E+01 3.03418E-02 8.60314E-05 6.33140E-03-4.93096E-14 1.65082E-13
 -1      4074 2.00080E+01 1.23778E-02-6.40315E-05 7.89873E-04 7.13749E-14 2.47061E-13
 -1      4075 2.00083E+01 1.59333E-02 4.37244E-05 2.32787E-03 3.70001E-14 2.11229E-13
 -1      4076 2.00081E+01 1.96816E-02 5.09504E-05 2.79841E-03 5.81451E-14 2.47046E-13
 -1      4077 2.00077E+01 6.97243E-03-3.94087E-05-1.10715E-03 5.52588E-14 4.03845E-13
 -1      4078 2.00081E+01 9.46163E-03 3.38734E-05-1.33863E-04 1.45034E-13 3.09852E-13
 -1      4079 2.00085E+01 1.20180E-02 2.67707E-05 4.51367E-04 4.12205E-14 4.33914E-13
 -1      4080 2.00068E+01 3.25349E-03-2.22454E-05-2.22677E-03-1.70636E-13 5.69416E-13
 -1      4081 2.00074E+01 4.95492E-03 2.57172E-05-1.65688E-03-7.99358E-14 5.89566E-13
 -1      4082 2.00080E+01 6.63428E-03 1.06639E-05-1.03195E-03-1.24023E-13 5.72681E-13
 -1      4083 2.00057E+01 7.51225E-04-5.13124E-06-2.81095E-03-3.31360E-14 5.68479E-13
 -1      4084 2.00063E+01 1.89170E-03 1.92866E-05-2.51491E-03-5.20139E-14 6.72910E-13
 -1      4085 2.00071E+01 2.93995E-03-6.92562E-07-1.89735E-03-2.20519E-13 7.50573E-13
 -1      4086 1.75667E+01 1.38058E+00 1.10771E-02-1.76972E+00 3.60842E-14-5.49510E-13
 -1      4087 1.67897E+01 1.67895E+00-2.08373E-02-1.61491E+00 2.98432E-14-6.00561E-13
 -1      4088 1.61365E+01 1.55859E+00-3.04371E-03-1.69585E+00-4.09460E-15-6.17656E-13
 -1      4089 1.76767E+01 9.35629E-01 9.79186E-03-2.08668E+00-1.67509E-14-5.58337E-13
 -1      4090 2.00053E+01-1.24742E-03-4.10703E-06-1.04537E-03-4.41076E-14-1.15192E-13
 -1      4091 2.00051E+01-1.24542E-03-7.53481E-06-1.69821E-03-6.04321E-14 1.73276E-13
 -1      4092 2.00060E+01-5.16385E-04 1.68880E-05-6.91129E-04-2.84813E-14-7.61013E-14
 -1      4093 1.89092E+01 8.38122E-01-5.10347E-03 7.96003E-01-1.20800E-13-9.88062E-15
 -1      4094 1.88087E+01 8.51328E-01 1.65025E-03 8.91214E-01-5.41845E-14 1.51478E-15
 -1      4095 1.85094E+01 9.46008E-01 5.68090E-03 8.17584E-01-7.60763E-14 2.01159E-14
 -1      4096 1.88307E+01 9.05992E-01 4.76692E-03 6.48940E-01-1.05223E-13-5.40177E-14
 -1      4097 1.41266E+01 1.91476E+00-3.68274E-04 4.64496E-01 9.80984E-14-7.21923E-13
 -1      4098 1.41698E+01 1.83464E+00-2.06629E-03-7.52039E-01 2.34738E-14-7.36619E-13
 -1      4099 2.00047E+01-1.33382E-03-2.13716E-06-2.27208E-03 5.02325E-14 3.31126E-13
 -1      4100 2.00042E+01-1.33254E-03-3.58962E-06-2.92331E-03-3.02863E-14 4.39084E-13
 -1      4101 2.00046E+01-8.46694E-04 7.05075E-06-2.97027E-03-1.55040E-14 5.44061E-13
 -1      4102 2.00055E+01-6.65379E-04 1.05984E-05-1.93615E-03 6.47180E-14 1.36590E-13
 -1      4103 1.59032E+01 4.24966E-01 4.95749E-02-2.95599E+00-1.67217E-13-6.87884E-13
 -1      4104 1.72222E+01 2.17305E-01 1.28124E-02-2.76920E+00-1.54824E-13-5.76882E-13
 -1      4105 1.75751E+01 4.18740E-01-6.84723E-03-2.49369E+00-7.88454E-14-5.26755E-13
 -1      4106 1.49903E+01 1.04428E+00-3.81606E-03-2.16268E+00-7.36182E-14-7.10458E-13
 -1      4107 1.46925E+01 1.66111E+00 3.29958E-02-1.45569E+00-4.63301E-15-7.07611E-13
 -1      4108 1.66391E+01 6.09905E-01 8.49379E-03 2.51306E+00 1.53679E-13-6.03407E-13
 -1      4109 1.94875E+01 8.91667E-02 9.40327E-03-2.10475E+00-8.86487E-15-3.22995E-13
 -1      4110 2.00066E+01 2.94404E-04 1.77127E-06 5.98148E-04-1.53886E-13 4.43389E-14
 -1      4111 1.48016E+01 1.01530E+00-1.93280E-02-3.40362E-01-5.70897E-15 2.38972E-13
 -1      4112 2.00050E+01-3.15659E-04 4.42166E-06-2.91949E-03-2.75699E-14 5.06569E-13
 -1      4113 1.58365E+01 1.29919E+00-1.05807E-02-1.95076E+00-5.00557E-14-6.45488E-13
 -1      4114 2.00058E+01 2.87742E-04-8.85895E-06-2.34341E-03-4.82098E-15 5.11642E-13
 -1      4115 2.09512E+01-2.16554E+00-7.77136E-02-2.73038E+00-2.58172E-13-8.44437E-14
 -1      4116 1.74714E+01 8.25898E-01 1.25958E-02 1.35331E+00-2.33559E-13 1.99164E-13
 -1      4117 1.45740E+01 1.77924E+00 1.87254E-02 1.15357E+00 1.20174E-13-6.81116E-13
 -1      4118 1.55720E+01 7.95634E-01-2.79991E-02 1.32829E+00-2.63962E-13 1.95592E-13
 -1      4119 1.49222E+01 1.09683E+00 4.40021E-02 6.76362E-01-9.48000E-14 2.49530E-13
 -1      4120 1.62760E+01 8.94727E-01-1.37783E-02 1.18376E+00-2.60621E-13 1.51378E-13
 -1      4121 1.59215E+01 1.12056E+00 2.42135E-03-4.96975E-01-3.44473E-14 1.70346E-13
 -1      4122 1.64092E+01 1.12926E+00-1.93990E-02-4.03195E-01 1.95412E-14 8.70623E-14
 -1      4123 1.69041E+01 1.15608E+00-5.02981E-03-3.62862E-01 3.42740E-14-1.18988E-13
 -1      4124 1.72482E+01 1.15771E+00-1.36302E-02-2.95034E-01 3.12432E-14-1.78106E-13
 -1      4125 1.66077E+01 1.22842E+00 1.82776E-02 1.81746E-02-1.35326E-13-1.10148E-13
 -1      4126 1.76052E+01 1.15305E+00-5.31801E-03-2.70783E-01 3.30118E-14-2.47888E-13
 -1      4127 1.78745E+01 1.13087E+00-9.18775E-03-2.26020E-01-8.65310E-14-3.50189E-13
 -1      4128 1.74045E+01 1.21395E+00 1.45821E-02 9.36254E-03-7.49097E-14-3.91775E-13
 -1      4129 1.81436E+01 1.10257E+00-4.14944E-03-2.09187E-01-1.23430E-13-2.69286E-13
 -1      4130 1.83556E+01 1.06247E+00-6.40921E-03-1.77477E-01-2.02531E-14-4.22279E-13
 -1      4131 1.79939E+01 1.15752E+00 1.02779E-02 5.52771E-03-5.77744E-14-3.63442E-13
 -1      4132 1.85641E+01 1.01801E+00-3.19280E-03-1.65003E-01-5.41862E-14-4.58729E-13
 -1      4133 1.87326E+01 9.66211E-01-4.64244E-03-1.40917E-01-8.33751E-17-4.31591E-13
 -1      4134 1.84485E+01 1.07056E+00 7.57207E-03 3.22905E-03-5.98999E-14-2.90786E-13
 -1      4135 1.88966E+01 9.12133E-01-2.50076E-03-1.31434E-01 3.33882E-14-4.66705E-13
 -1      4136 1.90311E+01 8.54270E-01-3.47663E-03-1.12153E-01 2.53655E-14-4.19383E-13
 -1      4137 1.88061E+01 9.62813E-01 5.79184E-03 1.80583E-03 3.45692E-15-3.70709E-13
 -1      4138 1.91606E+01 7.96078E-01-1.98242E-03-1.04844E-01 1.14873E-13-4.82504E-13
 -1      4139 1.92676E+01 7.36776E-01-2.66530E-03-8.89097E-02 4.02536E-14-4.34409E-13
 -1      4140 1.90894E+01 8.44203E-01 4.52241E-03 9.23661E-04 7.47846E-14-5.41106E-13
 -1      4141 1.93697E+01 6.78714E-01-1.57688E-03-8.32477E-02-1.29991E-14-2.77649E-13
 -1      4142 1.94541E+01 6.21434E-01-2.06986E-03-6.98930E-02-2.75764E-14-2.53864E-13
 -1      4143 1.93139E+01 7.23322E-01 3.56444E-03 3.92355E-04 8.84259E-14-4.14515E-13
 -1      4144 1.95341E+01 5.66498E-01-1.24993E-03-6.55169E-02-6.06881E-14-1.91982E-13
 -1      4145 1.96001E+01 5.13574E-01-1.61386E-03-5.43112E-02-8.99863E-15-1.95941E-13
 -1      4146 1.94906E+01 6.06780E-01 2.81289E-03 8.95278E-05-6.83557E-15-7.83778E-14
 -1      4147 1.96621E+01 4.63653E-01-9.82606E-04-5.09556E-02 4.83654E-14-2.40863E-13
 -1      4148 1.97129E+01 4.16444E-01-1.25478E-03-4.16179E-02 6.64677E-14-1.74883E-13
 -1      4149 1.96285E+01 4.99116E-01 2.20951E-03-6.79330E-05-1.65278E-14-7.39435E-14
 -1      4150 1.97604E+01 3.72529E-01-7.63635E-04-3.90755E-02 1.36777E-13-1.69086E-13
 -1      4151 1.97990E+01 3.31625E-01-9.68045E-04-3.13838E-02 1.90819E-13-1.55159E-13
 -1      4152 1.97348E+01 4.03018E-01 1.72027E-03-1.36510E-04 1.29278E-13-3.76573E-14
 -1      4153 1.98347E+01 2.94027E-01-5.85331E-04-2.94872E-02 5.79039E-14-1.31557E-13
 -1      4154 1.98636E+01 2.59458E-01-7.38368E-04-2.32395E-02 9.63098E-15-1.20805E-13
 -1      4155 1.98156E+01 3.19673E-01 1.32350E-03-1.53764E-04 7.42950E-14 3.89800E-15
 -1      4156 1.98900E+01 2.28020E-01-4.41669E-04-2.18507E-02-1.08856E-13-1.05022E-13
 -1      4157 1.99111E+01 1.99442E-01-5.55190E-04-1.68529E-02-1.73802E-13-1.48727E-13
 -1      4158 1.98760E+01 2.49158E-01 1.00378E-03-1.43864E-04-1.00819E-13-2.44477E-13
 -1      4159 1.99303E+01 1.73701E-01-3.27443E-04-1.58584E-02-1.57546E-13-1.80177E-13
 -1      4160 1.99454E+01 1.50547E-01-4.10444E-04-1.19241E-02-1.08192E-13-2.01170E-13
 -1      4161 1.99202E+01 1.90794E-01 7.48859E-04-1.21720E-04-1.65421E-13-1.96105E-13
 -1      4162 1.99591E+01 1.29879E-01-2.37968E-04-1.12309E-02-4.08300E-14-2.41692E-13
 -1      4163 1.99696E+01 1.11469E-01-2.97485E-04-8.18487E-03 1.23158E-14-1.83670E-13
 -1      4164 1.99520E+01 1.43450E-01 5.48266E-04-9.60313E-05-1.27092E-13-1.99369E-13
 -1      4165 1.99789E+01 9.51789E-02-1.69008E-04-7.71772E-03-3.27711E-14-2.09236E-13
 -1      4166 1.99860E+01 8.08076E-02-2.10625E-04-5.39995E-03-8.78883E-14-1.60310E-13
 -1      4167 1.99741E+01 1.05763E-01 3.92776E-04-7.14767E-05-4.35286E-14-2.04552E-13
 -1      4168 1.99922E+01 6.81998E-02-1.16778E-04-5.09904E-03-8.29555E-14 5.40724E-14
 -1      4169 1.99968E+01 5.71839E-02-1.44940E-04-3.36759E-03 2.36059E-14 1.72845E-13
 -1      4170 1.99891E+01 7.63069E-02 2.74226E-04-5.02380E-05 6.66305E-14-4.82271E-14
 -1      4171 2.00006E+01 4.76043E-02-7.79618E-05-3.18605E-03-2.37109E-14 2.13309E-13
 -1      4172 2.00034E+01 3.93172E-02-9.61936E-05-1.91835E-03-5.44814E-14 1.77384E-13
 -1      4173 1.99987E+01 5.36992E-02 1.85468E-04-3.30283E-05 2.89968E-14 1.31575E-13
 -1      4174 2.00056E+01 3.21767E-02-4.97152E-05-1.82010E-03-1.21398E-13 1.28311E-13
 -1      4175 2.00070E+01 2.60645E-02-6.07824E-05-9.12844E-04-1.23310E-13 4.70272E-14
 -1      4176 2.00045E+01 3.66689E-02 1.20347E-04-1.97597E-05-8.89883E-14 1.96341E-13
 -1      4177 2.00081E+01 2.08495E-02-2.96413E-05-8.70655E-04-2.43133E-13 1.40013E-14
 -1      4178 2.00087E+01 1.64361E-02-3.56885E-05-2.38764E-04-1.02796E-13-1.47437E-13
 -1      4179 2.00077E+01 2.40894E-02 7.36683E-05-9.96756E-06-2.56252E-13 1.57870E-13
 -1      4180 2.00090E+01 1.27103E-02-1.57323E-05-2.32489E-04-1.75955E-14-2.92233E-13
 -1      4181 2.00090E+01 9.59549E-03-1.83180E-05 1.92569E-04-1.78665E-14-3.57485E-13
 -1      4182 2.00089E+01 1.49908E-02 4.11311E-05-3.08256E-06-2.17270E-13-9.77476E-14
 -1      4183 2.00088E+01 6.99763E-03-5.31723E-06 1.78883E-04 9.46210E-14-4.36275E-13
 -1      4184 2.00084E+01 4.85094E-03-7.72353E-06 4.46505E-04 1.62790E-13-2.26228E-13
 -1      4185 2.00089E+01 8.55648E-03 1.89691E-05 1.25228E-06 1.49526E-14-2.89508E-13
 -1      4186 2.00080E+01 3.27117E-03 5.96804E-08 4.42991E-04 3.32177E-14-1.97348E-13
 -1      4187 2.00075E+01 1.94437E-03-3.67859E-07 6.36592E-04-1.73556E-13-2.25920E-13
 -1      4188 2.00083E+01 4.31183E-03 2.43541E-06 3.39268E-05 6.48561E-14-3.55006E-13
 -1      4189 1.53605E+01 1.52828E+00-4.07461E-02 1.67131E+00 1.31465E-13-6.26051E-13
 -1      4190 1.94609E+01 6.23739E-01-2.32401E-03 2.35106E-01 2.31479E-13-1.84896E-13
 -1      4191 1.93848E+01 6.78581E-01-5.89344E-04 2.69777E-01 1.13444E-13-3.28475E-14
 -1      4192 1.92798E+01 7.32275E-01-2.90990E-03 2.98391E-01 2.32344E-14-7.13036E-14
 -1      4193 1.91842E+01 7.87053E-01-7.01175E-04 3.40419E-01-7.08452E-14-6.05067E-14
 -1      4194 1.92875E+01 7.40950E-01 3.81115E-03 2.02392E-01 1.18940E-13-2.33230E-13
 -1      4195 1.90521E+01 8.38140E-01-3.70772E-03 3.76097E-01-1.44118E-13 3.11213E-14
 -1      4196 1.89338E+01 8.88277E-01-7.58364E-04 4.27640E-01-1.37629E-13-4.68407E-14
 -1      4197 1.90587E+01 8.56080E-01 4.80658E-03 2.55948E-01-5.94198E-14-1.04829E-13
 -1      4198 1.96035E+01 5.19557E-01-1.86884E-03 1.83351E-01 1.58671E-14-1.52853E-13
 -1      4199 1.95437E+01 5.71386E-01-4.63380E-04 2.11984E-01 1.76723E-13-7.21497E-14
 -1      4200 1.94686E+01 6.26768E-01 3.02552E-03 1.59024E-01 1.80343E-13-1.91794E-13
 -1      4201 1.97142E+01 4.24107E-01-1.50109E-03 1.41176E-01 3.69323E-15-1.37821E-13
 -1      4202 1.96681E+01 4.71061E-01-3.44967E-04 1.64684E-01 2.96399E-15-5.96694E-14
 -1      4203 1.96105E+01 5.19268E-01 2.39080E-03 1.23719E-01-1.63103E-14-1.65824E-13
 -1      4204 1.97990E+01 3.39722E-01-1.19767E-03 1.07100E-01 1.07100E-13-1.03634E-13
 -1      4205 1.97640E+01 3.80873E-01-2.43873E-04 1.26203E-01 9.43020E-14-1.15653E-13
 -1      4206 1.97204E+01 4.21991E-01 1.87264E-03 9.50520E-02 3.87455E-14-1.14411E-13
 -1      4207 1.98629E+01 2.67252E-01-9.45725E-04 7.98888E-02 1.57099E-14-7.57992E-14
 -1      4208 1.98368E+01 3.02342E-01-1.62916E-04 9.52141E-02 9.71293E-14-9.52723E-14
 -1      4209 1.98043E+01 3.36726E-01 1.44951E-03 7.19596E-02 8.56542E-14-1.91289E-13
 -1      4210 1.99101E+01 2.06525E-01-7.37228E-04 5.84529E-02-6.41576E-15-5.43809E-14
 -1      4211 1.98911E+01 2.35749E-01-1.01224E-04 7.05721E-02-7.38936E-14-2.66340E-14
 -1      4212 1.98673E+01 2.63962E-01 1.10623E-03 5.35649E-02-5.73689E-14-1.12248E-13
 -1      4213 1.99443E+01 1.56732E-01-5.66301E-04 4.18182E-02-7.17348E-14-4.89980E-14
 -1      4214 1.99308E+01 1.80564E-01-5.62360E-05 5.12551E-02 1.25281E-15-5.00353E-14
 -1      4215 1.99137E+01 2.03293E-01 8.30705E-04 3.91062E-02-4.23870E-14-1.46806E-13
 -1      4216 1.99684E+01 1.16706E-01-4.27952E-04 2.91162E-02-4.26692E-14 1.04659E-13
 -1      4217 1.99591E+01 1.35767E-01-2.48540E-05 3.63451E-02-1.95999E-14 6.78793E-14
 -1      4218 1.99471E+01 1.53756E-01 6.12505E-04 2.79083E-02-1.03598E-13-6.79720E-15
 -1      4219 1.99849E+01 8.51306E-02-3.17600E-04 1.95848E-02-3.04177E-14 1.86535E-13
 -1      4220 1.99787E+01 1.00094E-01-4.05378E-06 2.50264E-02-3.51501E-14 9.84022E-14
 -1      4221 1.99706E+01 1.14084E-01 4.42287E-04 1.93738E-02-1.66169E-14 1.60648E-13
 -1      4222 1.99958E+01 6.06739E-02-2.30960E-04 1.25675E-02 2.73610E-14 1.96573E-13
 -1      4223 1.99919E+01 7.22081E-02 8.82869E-06 1.65871E-02 5.87974E-14 1.40226E-13
 -1      4224 1.99866E+01 8.28941E-02 3.11662E-04 1.29817E-02 1.85324E-14 4.37599E-14
 -1      4225 2.00026E+01 4.20783E-02-1.64066E-04 7.51073E-03-4.34318E-14 1.10741E-13
 -1      4226 2.00003E+01 5.08049E-02 1.59992E-05 1.04178E-02-2.51348E-15 1.40802E-13
 -1      4227 1.99971E+01 5.88170E-02 2.13191E-04 8.28491E-03 3.17355E-14 6.55366E-15
 -1      4228 2.00064E+01 2.82078E-02-1.13324E-04 3.95624E-03 1.74343E-14-1.51856E-14
 -1      4229 2.00052E+01 3.46830E-02 1.92070E-05 6.00817E-03-6.24091E-14 9.39716E-14
 -1      4230 2.00035E+01 4.05714E-02 1.40399E-04 4.90750E-03-3.81220E-15-1.96762E-14
 -1      4231 2.00082E+01 1.80709E-02-7.55515E-05 1.53245E-03 1.48452E-14 3.23035E-13
 -1      4232 2.00078E+01 2.27764E-02 1.97980E-05 2.93860E-03 2.27919E-14 1.56181E-13
 -1      4233 2.00070E+01 2.70094E-02 8.77723E-05 2.53935E-03-1.35412E-13 1.39108E-16
 -1      4234 2.00086E+01 1.08237E-02-4.79910E-05-5.63275E-05-8.82478E-14 4.60929E-13
 -1      4235 2.00087E+01 1.41672E-02 1.87902E-05 8.71060E-04 1.32417E-15 4.24216E-13
 -1      4236 2.00086E+01 1.71342E-02 5.07195E-05 9.29452E-04-1.47078E-13 4.13320E-13
 -1      4237 2.00082E+01 5.76244E-03-2.82061E-05-1.04046E-03-1.58223E-13 5.59284E-13
 -1      4238 2.00086E+01 8.08217E-03 1.69583E-05-4.61534E-04-6.75007E-14 4.31252E-13
 -1      4239 2.00089E+01 1.01006E-02 2.55226E-05-1.21418E-04-1.38599E-13 3.93170E-13
 -1      4240 2.00072E+01 2.31998E-03-1.29448E-05-1.58322E-03-2.52837E-13 3.92187E-13
 -1      4241 2.00078E+01 3.88027E-03 1.47058E-05-1.26654E-03-2.07042E-13 4.09704E-13
 -1      4242 2.00083E+01 5.20544E-03 8.90688E-06-7.68445E-04-1.57247E-13 2.91030E-13
 -1      4243 2.00063E+01 4.05262E-04-4.10021E-06-1.80958E-03-1.38791E-14 1.72424E-13
 -1      4244 1.73987E+01 9.85043E-01-1.22042E-02 9.64657E-01-2.06756E-13 1.30330E-13
 -1      4245 1.68970E+01 9.20443E-01-1.30496E-02 1.11694E+00-2.73132E-13 5.89561E-14
 -1      4246 2.00066E+01 2.86910E-04-5.71800E-06-3.22459E-04 4.70991E-14-8.05976E-14
 -1      4247 2.00065E+01 2.81288E-04-1.17587E-05-9.81895E-04 7.58493E-14-2.65664E-13
 -1      4248 1.66644E+01 1.01990E+00 2.71436E-02-2.27718E+00-6.31465E-14-6.14668E-13
 -1      4249 1.62939E+01 1.27460E+00 2.98600E-02 2.05284E+00 1.22194E-13-6.17860E-13
 -1      4250 1.77924E+01 7.17851E-01 4.38282E-03-2.21623E+00-2.70539E-14-5.22067E-13
 -1      4251 1.85743E+01 3.83144E-01-8.10821E-03-2.25892E+00-2.46361E-14-4.54256E-13
 -1      4252 2.00070E+01 1.44595E-03 1.33132E-05-1.41667E-03-5.62219E-14 6.77708E-14
 -1      4253 2.00075E+01 2.27282E-03-5.23431E-07-8.46793E-04-3.31543E-14-7.62887E-14
 -1      4254 1.87680E+01 9.31041E-01-4.86728E-03 4.72969E-01-6.93779E-14-3.21489E-14
 -1      4255 1.86236E+01 9.70201E-01-6.94775E-04 5.37794E-01 2.03139E-14 3.23633E-14
 -1      4256 1.87718E+01 9.63882E-01 6.11483E-03 3.23195E-01-8.31090E-14 5.66994E-15
 -1      4257 1.56504E+01 1.06954E+00-8.16117E-03-1.63424E-01-5.20929E-14 1.88610E-13
 -1      4258 1.64236E+01 1.11830E+00 2.44435E-02 7.21598E-01-2.47981E-13 4.67230E-14
 -1      4259 1.84148E+01 9.96793E-01-6.66769E-03 5.97228E-01-6.44016E-17 1.85879E-14
 -1      4260 1.82406E+01 1.01640E+00-5.47349E-04 6.82203E-01 3.34682E-15 1.15862E-13
 -1      4261 1.84123E+01 1.05336E+00 7.91848E-03 4.10249E-01 4.02365E-14 2.48698E-14
 -1      4262 1.79735E+01 1.01701E+00-9.84027E-03 7.63183E-01-5.38068E-14 1.38009E-13
 -1      4263 1.77629E+01 1.00207E+00-2.40821E-03 8.83897E-01-1.24757E-13 1.42239E-13
 -1      4264 2.00070E+01 9.69652E-04-4.78524E-06 3.86534E-05 5.75959E-15-1.68613E-13
 -1      4265 1.79602E+01 1.11098E+00 1.07092E-02 5.27855E-01-4.07622E-14 9.38491E-14
 -1      4266 1.73577E+01 1.13274E+00 1.53285E-02 6.55497E-01-1.94168E-13 1.80560E-14
 -1      4267 1.73230E+01 1.15401E+00-9.10914E-03 3.20436E-01-1.80983E-13-1.07624E-13
 -1      4268 1.76653E+01 1.14579E+00-4.85019E-03 2.94741E-01-7.56442E-14-1.90870E-13
 -1      4269 1.79239E+01 1.12253E+00-8.00293E-03 2.42700E-01 4.03054E-14-1.80120E-13
 -1      4270 1.81887E+01 1.09406E+00-3.65640E-03 2.26534E-01-2.05005E-14-1.59955E-13
 -1      4271 1.83929E+01 1.05247E+00-5.75818E-03 1.89128E-01-4.77147E-14-1.71995E-13
 -1      4272 1.85989E+01 1.00824E+00-2.77977E-03 1.77468E-01-1.93194E-14-1.89014E-13
 -1      4273 1.87615E+01 9.55296E-01-4.29465E-03 1.49033E-01-7.57744E-14-1.98559E-13
 -1      4274 1.89239E+01 9.01750E-01-2.13308E-03 1.40298E-01-2.44764E-14-2.43348E-13
 -1      4275 1.90535E+01 8.43119E-01-3.31513E-03 1.17754E-01 6.49467E-14-3.60259E-13
 -1      4276 1.91821E+01 7.85695E-01-1.64319E-03 1.11075E-01 1.33745E-13-3.54215E-13
 -1      4277 1.92850E+01 7.25956E-01-2.61725E-03 9.27330E-02 2.06783E-13-3.24658E-13
 -1      4278 1.93866E+01 6.68816E-01-1.26190E-03 8.75722E-02 1.12668E-13-2.14056E-13
 -1      4279 1.94676E+01 6.11361E-01-2.08902E-03 7.24741E-02 4.65320E-14-1.71661E-13
 -1      4280 1.95473E+01 5.57419E-01-9.60774E-04 6.84763E-02-2.61724E-14-8.23678E-14
 -1      4281 1.96104E+01 5.04508E-01-1.67046E-03 5.60345E-02-7.90690E-14-7.67902E-14
 -1      4282 1.96723E+01 4.55586E-01-7.22263E-04 5.29478E-02 3.43097E-14-2.27370E-14
 -1      4283 1.97207E+01 4.08516E-01-1.32960E-03 4.27552E-02 1.02115E-13-6.79068E-14
 -1      4284 1.97681E+01 3.65552E-01-5.34288E-04 4.03899E-02 1.31174E-13-2.76178E-14
 -1      4285 1.98048E+01 3.24861E-01-1.04884E-03 3.21245E-02 6.74376E-14-8.44458E-14
 -1      4286 1.98406E+01 2.88134E-01-3.87629E-04 3.03317E-02-1.32182E-14-1.46082E-13
 -1      4287 1.98678E+01 2.53814E-01-8.17563E-04 2.37139E-02-7.06983E-14-1.80853E-13
 -1      4288 1.98943E+01 2.23146E-01-2.74735E-04 2.23735E-02-9.33761E-14-2.03542E-13
 -1      4289 1.99142E+01 1.94826E-01-6.28403E-04 1.71501E-02-1.42399E-13-2.02341E-13
 -1      4290 1.99335E+01 1.69749E-01-1.89209E-04 1.61641E-02-9.66670E-14-7.33214E-14
 -1      4291 1.99476E+01 1.46842E-01-4.75434E-04 1.21041E-02-1.45924E-13 1.25198E-15
 -1      4292 1.99613E+01 1.26732E-01-1.25590E-04 1.13927E-02-1.04250E-13 2.83342E-14
 -1      4293 1.99710E+01 1.08548E-01-3.53422E-04 8.28805E-03-3.36109E-14 6.65631E-14
 -1      4294 1.99804E+01 9.27180E-02-7.92497E-05 7.78632E-03 7.19806E-14 8.59465E-14
 -1      4295 1.99870E+01 7.85456E-02-2.57575E-04 5.45333E-03 1.23951E-13-4.44399E-14
 -1      4296 1.99932E+01 6.63094E-02-4.63154E-05 5.10930E-03 1.02363E-13 5.96719E-14
 -1      4297 1.99973E+01 5.54635E-02-1.83502E-04 3.38916E-03 2.19766E-14 8.77859E-14
 -1      4298 2.00013E+01 4.61785E-02-2.36020E-05 3.16159E-03 2.52270E-14 5.41390E-14
 -1      4299 2.00037E+01 3.80332E-02-1.27243E-04 1.91999E-03 9.38509E-15 1.34372E-14
 -1      4300 2.00060E+01 3.11220E-02-8.53211E-06 1.77666E-03-8.25913E-14 7.35260E-14
 -1      4301 2.00072E+01 2.51253E-02-8.52995E-05 9.02376E-04-2.54196E-13 1.41054E-13
 -1      4302 2.00083E+01 2.00855E-02 9.52988E-07 8.18466E-04-2.54289E-13 2.07526E-13
 -1      4303 2.00087E+01 1.57640E-02-5.46296E-05 2.21259E-04-2.80342E-13 3.04240E-13
 -1      4304 2.00090E+01 1.21690E-02 6.51252E-06 1.77926E-04-2.79499E-13 1.25089E-13
 -1      4305 2.00089E+01 9.12570E-03-3.24829E-05-2.13923E-04-1.02343E-13 1.09992E-13
 -1      4306 2.00087E+01 6.62028E-03 9.58418E-06-2.31227E-04 2.05629E-14 1.06443E-13
 -1      4307 2.00083E+01 4.53708E-03-1.58322E-05-4.70455E-04-1.01284E-13 7.58003E-14
 -1      4308 2.00075E+01 1.96588E-03-4.00859E-06-2.71550E-04 3.05171E-14-3.40694E-13
 -1      4309 1.69657E+01 1.15257E+00-7.27272E-03 3.50214E-01-2.30852E-13-1.39699E-13
 -1      4310 2.00079E+01 3.03823E-03 8.98507E-06-4.42688E-04-5.94598E-14-1.19187E-13
 -1      4311 1.65173E+01 1.14038E+00-7.30103E-03 3.99169E-01-2.06100E-13-1.68442E-14
 -1      4312 1.58697E+01 1.12561E+00-4.93276E-03 3.67744E-01-1.57777E-13 9.42336E-14
 -3
    1PSTEP                         3           1           1          
  100CL  101 1.000000000        4312                     0    1           1
 -4  TOSTRAIN    6    1
 -5  EXX         1    4    1    1
 -5  EYY         1    4    2    2
 -5  EZZ         1    4    3    3
 -5  EXY         1    4    1    2
 -5  EYZ         1    4    2    3
 -5  EZX         1    4    3    1
 -1         1 1.14483E-04 9.89308E-06-4.86708E-05-1.04671E-04-1.86536E-17 2.83409E-17
 -1         2 3.68354E-05-1.11197E-04 2.00193E-05-7.40810E-08-3.95075E-19 1.94023E-19
 -1         3 9.52375E-05-2.85707E-05-2.85720E-05 4.29052E-10-4.92143E-18-5.16479E-18
 -1         4 9.52375E-05-2.85707E-05-2.85720E-05-3.87669E-10-4.33267E-20 8.47846E-19
 -1         5 1.47503E-04-2.16112E-05-4.46987E-05 3.81505E-05-3.78518E-19 2.77237E-17
 -1         6 1.48666E-04 2.76062E-10-4.63102E-05-5.27413E-05-1.60142E-18 2.66612E-17
 -1         7 9.75251E-05-8.96118E-07-4.14637E-05-2.62074E-05-2.00323E-19 5.26132E-18
 -1         8 9.06337E-05-5.57516E-08-3.84541E-05-1.51899E-05-3.10596E-19-1.43678E-18
 -1         9 8.61788E-05 1.83963E-08-3.66894E-05-9.49353E-06-2.89447E-19-5.04745E-18
 -1        10 8.25721E-05 3.37055E-08-3.52257E-05-5.66499E-06-1.85818E-19-6.87187E-18
 -1        11 7.94614E-05 5.51273E-08-3.39758E-05-3.06846E-06-1.37140E-19-7.81847E-18
 -1        12 7.69419E-05 7.47703E-08-3.29716E-05-1.45383E-06-6.77626E-20-8.20747E-18
 -1        13 7.50899E-05 9.31846E-08-3.22385E-05-5.48742E-07-4.54618E-20-8.34392E-18
 -1        14 7.41220E-05 1.03630E-07-3.18568E-05-1.20493E-07 4.72155E-21-8.31858E-18
 -1        15 7.41389E-05 1.03375E-07-3.18631E-05 1.47727E-07 6.33720E-20-8.23795E-18
 -1        16 7.51377E-05 9.23928E-08-3.22562E-05 5.93959E-07 8.41871E-20-8.00030E-18
 -1        17 7.70144E-05 7.18866E-08-3.29978E-05 1.53529E-06 1.27267E-19-7.54084E-18
 -1        18 7.95431E-05 5.16376E-08-3.40054E-05 3.19387E-06 1.89418E-19-6.80082E-18
 -1        19 8.26525E-05 3.22068E-08-3.52559E-05 5.85381E-06 2.69965E-19-5.62031E-18
 -1        20 8.62446E-05 2.21398E-08-3.67177E-05 9.75314E-06 3.37146E-19-3.38496E-18
 -1        21 9.06273E-05 1.77013E-08-3.84981E-05 1.54528E-05 3.85029E-19 7.85021E-19
 -1        22 9.81205E-05-4.26484E-07-4.11300E-05 2.50032E-05 4.56339E-20 9.12735E-18
 -1        23 1.21720E-04-4.11104E-05-3.80657E-05-3.44294E-06-1.08823E-18 2.10855E-17
 -1        24 1.05543E-04-3.15384E-05-3.27683E-05 5.83644E-07-2.53776E-19 1.60475E-17
 -1        25 1.05336E-04-3.17200E-05-3.17614E-05 4.87931E-07-1.33772E-19 1.11421E-17
 -1        26 1.07368E-04-3.22836E-05-3.21784E-05 3.17805E-07-1.08161E-19 7.67655E-18
 -1        27 1.10149E-04-3.30785E-05-3.29760E-05 2.52149E-07-9.13771E-20 5.38983E-18
 -1        28 1.12616E-04-3.37884E-05-3.36729E-05 1.76114E-07-1.20416E-19 3.65574E-18
 -1        29 1.13710E-04-3.41027E-05-3.39363E-05 4.60020E-08 8.63502E-20 2.42226E-18
 -1        30 1.12366E-04-3.37001E-05-3.34784E-05-1.63077E-07-7.71660E-20 1.23179E-18
 -1        31 1.07873E-04-3.23629E-05-3.21405E-05-4.28936E-07 6.87337E-20-1.09453E-19
 -1        32 1.00515E-04-3.01660E-05-3.00598E-05-6.50704E-07-2.97536E-19-1.27783E-18
 -1        33 9.21017E-05-2.76439E-05-2.77677E-05-6.69804E-07 3.68875E-19-1.39014E-18
 -1        34 8.57016E-05-2.57180E-05-2.60723E-05-3.85803E-07-1.24122E-19-1.65811E-18
 -1        35 8.41869E-05-2.52607E-05-2.56859E-05 1.07074E-07-2.11130E-19-4.16853E-18
 -1        36 8.84156E-05-2.65335E-05-2.68169E-05 5.49531E-07 9.99830E-20-4.79905E-18
 -1        37 9.66325E-05-2.90014E-05-2.90375E-05 7.25097E-07-1.94508E-19-4.92690E-18
 -1        38 1.05668E-04-3.17044E-05-3.15476E-05 6.19005E-07-1.17992E-19-5.23805E-18
 -1        39 1.12791E-04-3.38266E-05-3.36050E-05 3.71864E-07 6.49568E-20-5.07268E-18
 -1        40 1.16751E-04-3.50018E-05-3.48160E-05 1.30536E-07 1.59815E-19-4.60231E-18
 -1        41 1.17662E-04-3.52712E-05-3.51580E-05-3.28670E-08-1.85707E-19-5.57535E-18
 -1        42 1.16353E-04-3.48826E-05-3.48352E-05-1.13201E-07 3.61296E-20-5.99200E-18
 -1        43 1.13779E-04-3.41186E-05-3.41134E-05-1.34764E-07-1.66144E-19-4.75739E-18
 -1        44 1.10709E-04-3.32064E-05-3.32217E-05-1.24563E-07 4.19231E-19-4.28250E-18
 -1        45 1.07650E-04-3.22959E-05-3.23172E-05-1.01707E-07-2.44802E-19-4.17978E-18
 -1        46 1.04880E-04-3.14698E-05-3.14900E-05-7.68506E-08-9.39129E-20-5.55088E-18
 -1        47 1.02520E-04-3.07643E-05-3.07805E-05-5.48128E-08-8.53456E-20-4.43630E-18
 -1        48 1.00592E-04-3.01868E-05-3.01986E-05-3.71366E-08 2.15799E-19-2.90890E-18
 -1        49 9.90664E-05-2.97291E-05-2.97371E-05-2.37997E-08 9.46466E-20-2.87839E-18
 -1        50 9.78921E-05-2.93760E-05-2.93811E-05-1.41702E-08 1.08530E-19-3.57120E-18
 -1        51 9.70097E-05-2.91102E-05-2.91131E-05-7.47452E-09-3.10399E-19-2.02693E-18
 -1        52 9.63623E-05-2.89148E-05-2.89163E-05-2.99449E-09-3.22897E-19-2.03578E-18
 -1        53 9.58992E-05-2.87747E-05-2.87752E-05-1.33270E-10-1.73446E-19-4.19919E-18
 -1        54 9.55773E-05-2.86772E-05-2.86771E-05 1.57778E-09 1.58756E-19-5.59454E-18
 -1        55 9.53615E-05-2.86116E-05-2.86111E-05 2.49410E-09-2.37113E-19-6.26922E-18
 -1        56 9.52235E-05-2.85694E-05-2.85688E-05 2.87875E-09 5.57448E-19-5.65493E-18
 -1        57 9.51414E-05-2.85442E-05-2.85435E-05 2.92245E-09 2.34150E-19-2.87916E-18
 -1        58 9.50984E-05-2.85308E-05-2.85301E-05 2.76071E-09-1.82388E-21-3.74333E-18
 -1        59 9.50817E-05-2.85254E-05-2.85248E-05 2.48763E-09-3.07623E-19-4.03970E-18
 -1        60 9.50821E-05-2.85253E-05-2.85247E-05 2.16682E-09-2.89890E-20-2.10802E-18
 -1        61 9.50929E-05-2.85283E-05-2.85279E-05 1.83967E-09 6.89150E-19-2.84814E-18
 -1        62 9.51095E-05-2.85332E-05-2.85328E-05 1.53181E-09-1.68917E-19-1.30867E-18
 -1        63 9.51288E-05-2.85388E-05-2.85385E-05 1.25777E-09-8.50557E-19-3.10234E-18
 -1        64 9.51487E-05-2.85447E-05-2.85444E-05 1.02446E-09 8.04447E-20-5.21222E-18
 -1        65 9.51678E-05-2.85504E-05-2.85502E-05 8.33445E-10-5.66065E-19-3.79300E-18
 -1        66 9.51856E-05-2.85557E-05-2.85555E-05 6.82068E-10 4.63532E-19-4.15767E-18
 -1        67 9.52015E-05-2.85604E-05-2.85603E-05 5.63159E-10 3.82135E-19-3.18901E-18
 -1        68 9.52152E-05-2.85645E-05-2.85644E-05 4.61979E-10-1.09467E-19 1.96906E-18
 -1        69 9.52262E-05-2.85678E-05-2.85677E-05 3.46197E-10 2.99116E-19 2.83393E-18
 -1        70 9.52340E-05-2.85702E-05-2.85699E-05 1.18767E-10 4.68196E-19 2.41661E-18
 -1        71 9.52375E-05-2.85713E-05-2.85712E-05-2.21017E-10-4.12186E-19 3.92444E-18
 -1        72 1.10801E-04-3.31680E-05-3.68757E-05-2.39634E-06 3.86538E-19 2.51781E-17
 -1        73 1.05354E-04-3.13661E-05-3.26943E-05-4.68118E-07 2.43261E-19 1.91111E-17
 -1        74 1.05304E-04-3.15645E-05-3.17989E-05-2.25181E-07 1.57220E-19 1.44283E-17
 -1        75 1.07338E-04-3.22158E-05-3.22019E-05-2.09447E-07-4.78524E-22 1.14471E-17
 -1        76 1.10079E-04-3.30286E-05-3.29655E-05-2.18114E-07 1.40555E-20 9.23819E-18
 -1        77 1.12484E-04-3.37439E-05-3.36295E-05-2.16211E-07-3.44620E-20 8.13369E-18
 -1        78 1.13496E-04-3.40580E-05-3.38578E-05-1.64403E-07-3.47325E-20 7.21157E-18
 -1        79 1.12056E-04-3.36528E-05-3.33633E-05-2.23409E-08 8.23988E-20 6.21322E-18
 -1        80 1.07473E-04-3.23087E-05-3.19977E-05 2.21351E-07-1.60174E-19 4.62231E-18
 -1        81 1.00063E-04-3.00931E-05-2.99107E-05 5.02183E-07 2.81333E-19 3.27857E-18
 -1        82 9.16647E-05-2.75342E-05-2.76433E-05 6.64781E-07-2.31883E-19 2.73430E-18
 -1        83 8.53562E-05-2.55680E-05-2.59975E-05 5.53112E-07 2.46617E-19 1.88287E-18
 -1        84 8.39846E-05-2.50989E-05-2.56661E-05 1.68525E-07-1.45068E-19 7.16934E-20
 -1        85 8.83512E-05-2.64091E-05-2.68321E-05-2.86940E-07 3.49360E-19-1.46113E-18
 -1        86 9.66426E-05-2.89443E-05-2.90569E-05-5.72037E-07 2.21588E-20-3.51828E-18
 -1        87 1.05674E-04-3.17075E-05-3.15433E-05-5.97522E-07-2.06382E-19-3.27111E-18
 -1        88 1.12742E-04-3.38569E-05-3.35690E-05-4.41823E-07-1.13972E-19-2.07756E-18
 -1        89 1.16637E-04-3.50283E-05-3.47545E-05-2.36176E-07 2.01169E-19-1.82416E-18
 -1        90 1.17503E-04-3.52777E-05-3.50866E-05-6.74341E-08-5.65497E-19-1.92168E-18
 -1        91 1.16180E-04-3.48682E-05-3.47667E-05 3.76783E-08 9.39098E-21-1.91514E-18
 -1        92 1.13614E-04-3.40897E-05-3.40553E-05 8.75310E-08 6.89314E-20-3.50040E-18
 -1        93 1.10566E-04-3.31705E-05-3.31762E-05 1.01004E-07-1.39808E-19-2.92162E-18
 -1        94 1.07533E-04-3.22589E-05-3.22836E-05 9.49247E-08 3.12633E-19-3.72743E-18
 -1        95 1.04788E-04-3.14355E-05-3.14660E-05 8.05328E-08-5.11594E-20-3.84170E-18
 -1        96 1.02450E-04-3.07344E-05-3.07640E-05 6.41749E-08 4.34564E-19-9.78905E-19
 -1        97 1.00539E-04-3.01618E-05-3.01874E-05 4.89353E-08-8.68248E-20-2.36207E-18
 -1        98 9.90279E-05-2.97089E-05-2.97298E-05 3.60200E-08 6.34639E-20-9.52982E-19
 -1        99 9.78643E-05-2.93601E-05-2.93764E-05 2.56696E-08-2.92860E-19-2.33658E-18
 -1       100 9.69899E-05-2.90979E-05-2.91102E-05 1.76852E-08-1.31445E-20-2.28079E-18
 -1       101 9.63484E-05-2.89054E-05-2.89145E-05 1.17065E-08-5.22416E-22-4.02594E-18
 -1       102 9.58896E-05-2.87677E-05-2.87743E-05 7.34669E-09 2.38282E-19-3.53933E-18
 -1       103 9.55709E-05-2.86720E-05-2.86766E-05 4.25071E-09-2.12003E-19-3.38001E-18
 -1       104 9.53574E-05-2.86079E-05-2.86110E-05 2.11666E-09 2.82661E-19-1.18219E-18
 -1       105 9.52210E-05-2.85669E-05-2.85689E-05 6.98494E-10 4.31023E-19-2.62704E-18
 -1       106 9.51401E-05-2.85425E-05-2.85437E-05-1.98509E-10-3.73258E-19-2.10591E-18
 -1       107 9.50977E-05-2.85297E-05-2.85304E-05-7.25121E-10-3.61751E-19-5.12312E-18
 -1       108 9.50815E-05-2.85247E-05-2.85251E-05-9.95886E-10 5.67705E-19-6.47231E-18
 -1       109 9.50822E-05-2.85249E-05-2.85250E-05-1.09629E-09-2.22550E-19-5.29143E-18
 -1       110 9.50933E-05-2.85281E-05-2.85281E-05-1.08902E-09-9.80153E-20-5.51600E-18
 -1       111 9.51100E-05-2.85331E-05-2.85330E-05-1.01918E-09 3.76423E-19-5.04383E-18
 -1       112 9.51293E-05-2.85389E-05-2.85387E-05-9.18653E-10-8.26156E-19-3.63926E-18
 -1       113 9.51491E-05-2.85448E-05-2.85446E-05-8.09467E-10 7.78667E-19-1.96025E-18
 -1       114 9.51683E-05-2.85505E-05-2.85503E-05-7.06481E-10-8.38982E-19-4.16175E-18
 -1       115 9.51860E-05-2.85558E-05-2.85556E-05-6.19133E-10 3.47211E-19-3.21891E-18
 -1       116 9.52018E-05-2.85606E-05-2.85604E-05-5.51707E-10 1.45158E-19-4.17571E-18
 -1       117 9.52155E-05-2.85646E-05-2.85645E-05-5.01466E-10 2.80638E-19-7.54976E-18
 -1       118 9.52265E-05-2.85679E-05-2.85677E-05-4.51228E-10 6.86076E-20-9.53844E-18
 -1       119 9.52342E-05-2.85703E-05-2.85700E-05-3.17987E-10 4.99757E-19-1.26102E-17
 -1       120 9.52375E-05-2.85714E-05-2.85712E-05 9.55232E-11 1.71322E-18-1.25259E-17
 -1       121 9.52371E-05-2.85710E-05-2.85711E-05 2.22204E-10-1.14175E-17 1.20478E-18
 -1       122 9.52381E-05-2.85744E-05-2.85699E-05-1.99989E-10-3.94862E-18 6.52958E-19
 -1       123 9.52403E-05-2.85816E-05-2.85679E-05-4.07243E-10 4.38524E-18 6.81102E-19
 -1       124 9.52430E-05-2.85906E-05-2.85653E-05-4.55360E-10 2.43696E-18 1.62674E-19
 -1       125 9.52457E-05-2.85998E-05-2.85626E-05-4.11455E-10 4.84819E-18-1.54948E-18
 -1       126 9.52481E-05-2.86077E-05-2.85603E-05-3.23986E-10 4.79609E-18 9.94010E-19
 -1       127 9.52498E-05-2.86136E-05-2.85586E-05-2.03766E-10 5.41680E-18 3.63720E-19
 -1       128 9.52507E-05-2.86166E-05-2.85577E-05-6.86074E-11 4.82772E-18-7.65663E-19
 -1       129 9.52507E-05-2.86166E-05-2.85577E-05 7.10075E-11 3.09369E-18 1.17465E-18
 -1       130 9.52498E-05-2.86135E-05-2.85586E-05 2.05622E-10 2.41029E-18-1.46083E-18
 -1       131 9.52480E-05-2.86076E-05-2.85603E-05 3.28864E-10-2.96214E-18-1.67366E-18
 -1       132 9.52457E-05-2.85997E-05-2.85627E-05 4.13197E-10-2.69559E-18 2.65078E-18
 -1       133 9.52429E-05-2.85905E-05-2.85653E-05 4.54224E-10 5.15673E-18-4.77487E-19
 -1       134 9.52403E-05-2.85814E-05-2.85679E-05 4.37718E-10 9.46576E-18 7.80406E-19
 -1       135 9.52381E-05-2.85744E-05-2.85700E-05 2.78528E-10 3.86647E-18-1.81558E-18
 -1       136 9.52373E-05-2.85712E-05-2.85711E-05-4.54335E-10-2.76418E-18-1.21836E-18
 -1       137 2.73244E-05-9.09787E-05 1.62682E-05-2.30701E-05 1.46541E-17 3.56919E-18
 -1       138 9.28251E-06-4.05783E-05 4.97605E-06-2.06325E-05 2.45237E-17 1.07868E-17
 -1       139 9.61963E-06 9.96051E-06-1.27228E-05 1.73130E-05 2.81321E-17 2.08667E-17
 -1       140 5.00444E-05 2.72412E-05-3.25366E-05 7.08973E-05 2.57964E-17 2.72910E-17
 -1       141 1.33712E-04 2.12769E-06-5.26004E-05 1.09408E-04 1.57470E-17 2.53979E-17
 -1       142 2.29826E-04-4.75143E-05-6.83074E-05 1.02255E-04 5.73484E-18 1.59890E-17
 -1       143 3.00394E-04-8.95832E-05-7.79306E-05 4.32801E-05 7.74823E-19 8.36022E-19
 -1       144 3.04107E-04-9.19614E-05-7.83874E-05-3.68811E-05 1.87676E-18-1.39847E-17
 -1       145 2.40675E-04-5.29007E-05-7.01617E-05-9.89191E-05 8.53703E-18-2.54766E-17
 -1       146 1.37750E-04 3.76949E-07-5.33199E-05-1.09418E-04 1.85257E-17-3.08358E-17
 -1       147 4.73318E-05 2.75478E-05-3.17316E-05-6.87006E-05 2.73922E-17-2.92006E-17
 -1       148 7.27970E-06 7.53925E-06-1.11286E-05-1.26451E-05 2.92675E-17-2.02860E-17
 -1       149 1.02787E-05-4.27568E-05 5.29076E-06 2.08105E-05 2.31274E-17-9.92733E-18
 -1       150 2.79028E-05-9.23910E-05 1.64976E-05 2.22755E-05 1.06841E-17-2.58837E-18
 -1       151 3.58225E-05-1.10069E-04 1.99445E-05-2.70748E-06-3.84869E-18-6.39616E-19
 -1       152 2.40723E-05-8.32374E-05 1.46729E-05-2.29624E-05-1.98070E-17-5.50053E-18
 -1       153 7.25421E-06-2.99627E-05 1.88805E-06-1.61359E-05-2.85276E-17-1.34767E-17
 -1       154 1.23861E-05 1.60051E-05-1.57621E-05 2.53305E-05-2.99574E-17-2.28076E-17
 -1       155 6.63520E-05 2.59548E-05-3.77534E-05 8.38181E-05-2.54381E-17-3.03890E-17
 -1       156 1.55050E-04-7.01181E-06-5.67195E-05 1.14268E-04-1.66213E-17-3.00947E-17
 -1       157 2.50263E-04-5.89493E-05-7.13098E-05 9.41138E-05-6.78362E-18-2.13617E-17
 -1       158 3.06002E-04-9.26422E-05-7.87500E-05 2.52425E-05-9.72738E-19-5.83955E-18
 -1       159 2.92001E-04-8.43924E-05-7.68007E-05-5.50793E-05-2.38688E-18 9.69472E-18
 -1       160 2.12775E-04-3.76707E-05-6.59338E-05-1.08580E-04-9.14764E-18 2.21821E-17
 -1       161 4.22625E-05 2.73678E-05-2.99777E-05-6.41002E-05-2.43721E-17 2.53411E-17
 -1       162 7.22031E-06 4.95443E-06-1.00912E-05-1.04710E-05-2.53580E-17 1.72752E-17
 -1       163 1.01777E-05-4.27954E-05 5.41464E-06 2.14585E-05-2.26103E-17 9.94798E-18
 -1       164 2.77288E-05-9.19284E-05 1.64537E-05 2.27534E-05-1.34644E-17 3.04755E-18
 -1       165 1.02920E-04-1.48171E-05-3.79347E-05-1.76956E-05-3.74956E-18 1.70219E-18
 -1       166 9.47654E-05-9.84736E-06-3.65435E-05-1.18539E-05-3.47940E-18-2.47023E-18
 -1       167 8.88921E-05-6.82816E-06-3.52767E-05-7.62069E-06-2.82368E-18-4.78624E-18
 -1       168 8.41443E-05-4.75415E-06-3.41018E-05-4.53716E-06-2.05760E-18-6.03979E-18
 -1       169 8.02529E-05-3.17450E-06-3.30926E-05-2.45111E-06-1.38481E-18-6.67524E-18
 -1       170 7.71732E-05-1.95334E-06-3.22847E-05-1.12615E-06-7.74327E-19-6.97756E-18
 -1       171 7.52013E-05-1.17315E-06-3.17676E-05-3.98155E-07-1.61077E-19-7.04760E-18
 -1       172 7.45365E-05-9.11708E-07-3.15927E-05 1.17513E-08 3.66279E-19-7.01557E-18
 -1       173 7.52545E-05-1.20174E-06-3.17783E-05 4.30461E-07 9.10018E-19-6.82775E-18
 -1       174 7.72730E-05-2.00842E-06-3.23042E-05 1.18382E-06 1.43576E-18-6.51908E-18
 -1       175 8.03251E-05-3.22902E-06-3.31009E-05 2.51701E-06 2.02695E-18-5.92171E-18
 -1       176 8.42959E-05-4.85451E-06-3.41254E-05 4.67999E-06 2.78505E-18-4.97936E-18
 -1       177 8.90571E-05-6.95805E-06-3.52967E-05 7.82927E-06 3.41794E-18-3.46882E-18
 -1       178 9.49564E-05-1.00165E-05-3.65571E-05 1.21322E-05 3.89362E-18-7.27217E-19
 -1       179 1.03765E-04-1.60290E-05-3.77870E-05 1.74091E-05 3.74128E-18 4.34914E-18
 -1       180 1.14673E-04-2.91799E-05-3.78194E-05 1.53916E-05 2.85508E-18 1.09984E-17
 -1       181 1.13246E-04-3.04803E-05-3.54655E-05-8.60831E-06-3.31089E-18 6.66906E-18
 -1       182 1.08998E-04-3.19594E-05-3.30465E-05-1.36603E-06-2.86128E-18 5.00766E-18
 -1       183 1.07646E-04-3.19418E-05-3.23993E-05 1.36243E-06-2.20157E-18 3.57261E-18
 -1       184 1.08285E-04-3.24300E-05-3.24831E-05 2.36368E-06-1.52385E-18 2.31700E-18
 -1       185 1.09584E-04-3.30824E-05-3.27818E-05 2.25308E-06-1.02365E-18 1.68553E-18
 -1       186 1.10751E-04-3.37252E-05-3.30181E-05 1.08980E-06-8.62634E-19 1.32999E-18
 -1       187 1.11054E-04-3.40895E-05-3.29938E-05-1.10076E-06-5.84380E-19 8.61933E-19
 -1       188 1.09869E-04-3.38450E-05-3.25867E-05-3.97883E-06-6.42431E-19 7.52789E-19
 -1       189 1.06920E-04-3.27126E-05-3.18006E-05-6.63508E-06-7.55770E-19 5.75903E-19
 -1       190 1.02641E-04-3.07292E-05-3.08120E-05-7.65990E-06-2.48495E-19 3.57011E-19
 -1       191 9.83929E-05-2.85302E-05-2.99358E-05-5.85799E-06-7.41958E-19-1.08469E-18
 -1       192 9.60614E-05-2.72261E-05-2.94990E-05-1.37307E-06-1.30186E-18-1.97317E-18
 -1       193 9.69071E-05-2.76271E-05-2.96886E-05 3.91624E-06-9.11771E-19-2.59962E-18
 -1       194 1.00614E-04-2.95284E-05-3.04588E-05 7.55363E-06-7.83343E-19-3.99905E-18
 -1       195 1.05533E-04-3.19008E-05-3.15510E-05 8.23624E-06-6.34547E-20-3.91010E-18
 -1       196 1.09846E-04-3.37400E-05-3.26183E-05 6.41072E-06 7.81222E-20-3.93619E-18
 -1       197 1.12493E-04-3.46390E-05-3.33759E-05 3.46101E-06 4.66828E-19-3.66746E-18
 -1       198 1.13287E-04-3.47013E-05-3.36940E-05 6.32237E-07-1.49253E-19-3.66264E-18
 -1       199 1.12578E-04-3.42225E-05-3.35957E-05-1.43273E-06-1.98467E-19-2.95162E-18
 -1       200 1.10897E-04-3.34802E-05-3.31895E-05-2.61889E-06 2.79024E-19-3.46269E-18
 -1       201 1.08730E-04-3.26631E-05-3.26062E-05-3.08984E-06 5.42476E-19-3.30459E-18
 -1       202 1.06440E-04-3.18778E-05-3.19572E-05-3.08312E-06 1.20398E-19-3.05173E-18
 -1       203 1.04260E-04-3.11762E-05-3.13203E-05-2.80704E-06-4.39163E-20-2.29463E-18
 -1       204 1.02315E-04-3.05777E-05-3.07415E-05-2.41023E-06 3.81629E-19-1.25451E-18
 -1       205 1.00657E-04-3.00837E-05-3.02422E-05-1.98556E-06 4.69443E-19-7.68629E-19
 -1       206 9.92933E-05-2.96866E-05-2.98276E-05-1.58453E-06 1.63910E-20-1.14944E-18
 -1       207 9.82012E-05-2.93745E-05-2.94935E-05-1.23155E-06-8.07405E-19-1.93449E-18
 -1       208 9.73478E-05-2.91342E-05-2.92312E-05-9.34796E-07 3.53249E-19-3.16289E-18
 -1       209 9.66954E-05-2.89530E-05-2.90298E-05-6.93472E-07 3.84696E-19-2.22161E-18
 -1       210 9.62074E-05-2.88191E-05-2.88785E-05-5.02331E-07-1.32687E-18-1.52115E-18
 -1       211 9.58505E-05-2.87224E-05-2.87674E-05-3.54336E-07-1.18549E-18-2.24777E-18
 -1       212 9.55957E-05-2.86544E-05-2.86878E-05-2.42136E-07-3.80121E-19-2.83170E-18
 -1       213 9.54191E-05-2.86080E-05-2.86323E-05-1.58835E-07 3.63044E-19-1.83419E-18
 -1       214 9.53011E-05-2.85778E-05-2.85949E-05-9.83378E-08 1.17208E-18-2.51298E-18
 -1       215 9.52260E-05-2.85592E-05-2.85709E-05-5.54708E-08-1.10282E-19-4.06035E-18
 -1       216 9.51817E-05-2.85488E-05-2.85566E-05-2.59657E-08 1.13624E-19-3.12305E-18
 -1       217 9.51589E-05-2.85440E-05-2.85490E-05-6.38416E-09 6.93106E-19-2.85669E-18
 -1       218 9.51507E-05-2.85431E-05-2.85459E-05 5.98710E-09 1.93910E-19-1.56897E-18
 -1       219 9.51518E-05-2.85444E-05-2.85459E-05 1.32469E-08 4.65526E-19-2.09377E-18
 -1       220 9.51587E-05-2.85472E-05-2.85477E-05 1.69857E-08-8.66344E-19-2.14833E-18
 -1       221 9.51688E-05-2.85506E-05-2.85506E-05 1.83795E-08-7.39902E-19-1.50297E-18
 -1       222 9.51802E-05-2.85543E-05-2.85539E-05 1.82700E-08 1.17014E-18-9.72369E-19
 -1       223 9.51920E-05-2.85580E-05-2.85574E-05 1.72279E-08 2.90844E-19 4.27016E-19
 -1       224 9.52032E-05-2.85615E-05-2.85607E-05 1.56005E-08 9.70835E-19 7.77895E-19
 -1       225 9.52133E-05-2.85646E-05-2.85638E-05 1.35437E-08 2.29605E-18-5.10841E-19
 -1       226 9.52221E-05-2.85674E-05-2.85663E-05 1.10417E-08 1.08395E-19-1.73621E-18
 -1       227 9.52291E-05-2.85697E-05-2.85683E-05 7.94286E-09-4.11795E-20-1.29582E-18
 -1       228 9.52343E-05-2.85716E-05-2.85697E-05 4.14513E-09 9.19390E-19-1.84888E-18
 -1       229 1.10419E-04-3.19448E-05-3.37949E-05 4.18825E-06 2.92635E-18 9.43156E-18
 -1       230 1.07685E-04-3.18198E-05-3.24795E-05-3.19784E-08 2.26134E-18 7.22737E-18
 -1       231 1.07703E-04-3.21344E-05-3.23450E-05-1.64274E-06 1.48090E-18 5.48732E-18
 -1       232 1.08884E-04-3.26854E-05-3.26353E-05-2.10309E-06 1.12931E-18 4.54577E-18
 -1       233 1.10286E-04-3.33065E-05-3.29808E-05-1.66234E-06 5.59733E-19 3.76872E-18
 -1       234 1.11100E-04-3.37701E-05-3.31315E-05-3.11191E-07 4.00279E-19 3.19200E-18
 -1       235 1.10593E-04-3.37945E-05-3.28986E-05 1.86309E-06 5.77812E-19 3.17360E-18
 -1       236 1.08262E-04-3.31034E-05-3.21924E-05 4.40443E-06 7.60374E-19 3.03664E-18
 -1       237 1.04168E-04-3.15779E-05-3.10984E-05 6.33671E-06 7.33272E-19 2.17325E-18
 -1       238 9.92653E-05-2.95025E-05-2.99088E-05 6.40033E-06 3.52258E-19 1.93626E-18
 -1       239 9.53550E-05-2.76849E-05-2.90359E-05 3.88066E-06 1.27219E-18 1.00755E-18
 -1       240 9.42671E-05-2.70876E-05-2.88306E-05-5.16685E-07 1.13798E-18-4.29669E-19
 -1       241 9.66640E-05-2.81069E-05-2.94009E-05-4.80410E-06 1.20006E-18-1.92639E-18
 -1       242 1.01521E-04-3.02105E-05-3.05538E-05-7.07713E-06 4.66871E-19-2.99834E-18
 -1       243 1.06882E-04-3.24052E-05-3.18959E-05-6.78166E-06-2.17502E-19-2.60249E-18
 -1       244 1.11055E-04-3.39392E-05-3.30302E-05-4.71255E-06-5.23731E-19-3.13684E-18
 -1       245 1.13269E-04-3.45954E-05-3.37089E-05-2.10758E-06 1.45739E-19-2.90591E-18
 -1       246 1.13578E-04-3.45271E-05-3.38810E-05 1.29276E-07-1.79141E-19-3.05261E-18
 -1       247 1.12466E-04-3.40034E-05-3.36342E-05 1.63137E-06-4.01844E-21-2.72067E-18
 -1       248 1.10506E-04-3.32605E-05-3.31132E-05 2.41259E-06 3.88813E-19-1.77041E-18
 -1       249 1.08182E-04-3.24603E-05-3.24579E-05 2.65173E-06-3.74588E-19-1.91016E-18
 -1       250 1.05830E-04-3.16974E-05-3.17744E-05 2.54985E-06 8.84116E-19-2.16591E-18
 -1       251 1.03654E-04-3.10191E-05-3.11303E-05 2.26824E-06-9.59827E-20-3.10242E-18
 -1       252 1.01754E-04-3.04432E-05-3.05613E-05 1.91611E-06-1.06143E-18-2.11550E-18
 -1       253 1.00163E-04-2.99704E-05-3.00810E-05 1.55887E-06 4.42951E-20 1.37526E-19
 -1       254 9.88723E-05-2.95928E-05-2.96893E-05 1.23110E-06-4.74288E-19 4.23080E-19
 -1       255 9.78528E-05-2.92982E-05-2.93786E-05 9.47881E-07 4.97831E-19 6.70011E-19
 -1       256 9.70661E-05-2.90731E-05-2.91380E-05 7.12912E-07-1.72322E-20 2.20827E-19
 -1       257 9.64724E-05-2.89049E-05-2.89559E-05 5.23831E-07 7.61561E-19 4.07891E-19
 -1       258 9.60343E-05-2.87819E-05-2.88211E-05 3.75426E-07 5.81706E-19-9.31511E-19
 -1       259 9.57186E-05-2.86942E-05-2.87236E-05 2.61492E-07-5.85086E-19-1.35013E-18
 -1       260 9.54972E-05-2.86334E-05-2.86551E-05 1.75845E-07-5.22766E-20-2.15282E-18
 -1       261 9.53471E-05-2.85927E-05-2.86083E-05 1.12827E-07-1.31430E-19-9.80023E-19
 -1       262 9.52497E-05-2.85669E-05-2.85778E-05 6.75162E-08-3.56271E-20-6.85044E-19
 -1       263 9.51904E-05-2.85516E-05-2.85591E-05 3.57862E-08 1.05766E-18-1.62508E-18
 -1       264 9.51579E-05-2.85438E-05-2.85486E-05 1.42635E-08 1.01314E-18-2.76450E-18
 -1       265 9.51438E-05-2.85409E-05-2.85439E-05 2.53785E-10-9.55072E-19-1.83507E-18
 -1       266 9.51419E-05-2.85413E-05-2.85430E-05-8.35231E-09 3.60512E-19-2.13640E-18
 -1       267 9.51475E-05-2.85436E-05-2.85444E-05-1.31732E-08-2.85869E-19-1.36187E-18
 -1       268 9.51574E-05-2.85470E-05-2.85472E-05-1.54239E-08-7.02004E-19-2.85432E-19
 -1       269 9.51695E-05-2.85509E-05-2.85508E-05-1.59926E-08 3.93738E-19-1.44253E-18
 -1       270 9.51823E-05-2.85549E-05-2.85546E-05-1.55037E-08-7.60999E-19-3.81108E-19
 -1       271 9.51948E-05-2.85588E-05-2.85583E-05-1.43670E-08 1.20374E-18-1.84031E-18
 -1       272 9.52064E-05-2.85623E-05-2.85618E-05-1.28122E-08 1.23431E-18-4.96544E-18
 -1       273 9.52167E-05-2.85655E-05-2.85648E-05-1.09090E-08 1.59268E-18-5.72774E-18
 -1       274 9.52252E-05-2.85681E-05-2.85673E-05-8.58699E-09 3.35133E-19-4.79470E-18
 -1       275 9.52316E-05-2.85703E-05-2.85691E-05-5.65744E-09-1.28444E-20-2.97000E-18
 -1       276 9.52357E-05-2.85716E-05-2.85703E-05-2.15736E-09-6.27084E-19-2.57816E-18
 -1       277 9.52369E-05-2.85742E-05-2.85697E-05-4.24706E-09-5.57617E-19 4.92873E-18
 -1       278 9.52387E-05-2.85790E-05-2.85685E-05-7.41807E-09-3.04830E-19 4.03464E-18
 -1       279 9.52411E-05-2.85851E-05-2.85669E-05-9.10200E-09 1.19553E-19-1.45558E-18
 -1       280 9.52434E-05-2.85916E-05-2.85651E-05-9.20579E-09 1.64793E-18 1.46468E-18
 -1       281 9.52455E-05-2.85975E-05-2.85634E-05-8.03651E-09 1.18197E-18-2.20002E-19
 -1       282 9.52472E-05-2.86023E-05-2.85621E-05-5.88229E-09 2.06888E-18 6.73793E-20
 -1       283 9.52483E-05-2.86055E-05-2.85612E-05-3.08533E-09 1.70312E-18-4.17133E-19
 -1       284 9.52486E-05-2.86065E-05-2.85609E-05 2.69668E-11 1.14085E-18-7.26646E-19
 -1       285 9.52483E-05-2.86054E-05-2.85612E-05 3.13623E-09-1.94360E-19-1.11136E-18
 -1       286 9.52472E-05-2.86023E-05-2.85621E-05 5.92546E-09 1.17001E-20-1.44620E-18
 -1       287 9.52455E-05-2.85975E-05-2.85634E-05 8.03937E-09 1.60786E-18 2.77801E-19
 -1       288 9.52434E-05-2.85914E-05-2.85651E-05 9.21535E-09 3.00389E-18 3.98475E-18
 -1       289 9.52410E-05-2.85850E-05-2.85669E-05 9.08574E-09 2.06868E-18 8.78589E-19
 -1       290 9.52387E-05-2.85789E-05-2.85685E-05 7.31235E-09 3.97119E-19-2.29851E-18
 -1       291 9.52364E-05-2.85750E-05-2.85692E-05 6.54617E-09-1.22865E-19-4.36856E-18
 -1       292 1.25265E-05-4.90619E-05 1.21647E-05 6.15822E-06 1.89868E-18 8.05422E-18
 -1       293 2.45057E-05-4.30664E-05 5.26044E-06 2.07790E-05 6.11092E-18 8.36085E-18
 -1       294 5.22525E-05-3.86916E-05-7.47674E-06 3.48675E-05 7.86915E-18 9.45543E-18
 -1       295 8.45076E-05-3.11888E-05-2.34541E-05 4.31781E-05 1.03939E-17 1.00774E-17
 -1       296 1.30497E-04-3.39635E-05-4.06260E-05 4.28319E-05 9.94321E-18 7.37385E-18
 -1       297 1.68953E-04-3.30686E-05-5.61705E-05 3.72007E-05 9.54188E-18 5.36574E-18
 -1       298 1.95166E-04-3.27473E-05-6.67886E-05 1.95361E-05 8.30886E-18 9.91558E-19
 -1       299 2.13874E-04-3.72674E-05-7.19120E-05 4.45180E-07 7.35447E-18-3.86506E-18
 -1       300 2.00102E-04-3.39358E-05-6.81232E-05-2.00685E-05 7.96084E-18-8.02267E-18
 -1       301 1.69103E-04-3.36453E-05-5.64701E-05-2.86215E-05 8.63083E-18-8.29923E-18
 -1       302 1.31914E-04-3.56080E-05-4.05869E-05-4.19800E-05 9.72468E-18-1.00437E-17
 -1       303 8.17111E-05-3.09710E-05-2.24535E-05-4.34718E-05 1.14724E-17-1.27819E-17
 -1       304 4.68333E-05-3.69518E-05-6.30781E-06-3.21482E-05 9.23139E-18-1.09442E-17
 -1       305 2.42145E-05-4.16586E-05 4.95564E-06-2.20687E-05 4.49415E-18-8.76933E-18
 -1       306 1.20562E-05-4.80805E-05 1.20119E-05-5.75155E-06 7.26066E-19-7.88154E-18
 -1       307 1.20723E-05-3.94066E-05 9.49946E-06 1.11874E-05-2.93666E-18-8.85160E-18
 -1       308 2.84257E-05-4.16204E-05 3.06874E-06 2.35205E-05-8.01124E-18-8.77992E-18
 -1       309 5.42129E-05-3.54244E-05-9.81742E-06 3.51938E-05-1.16738E-17-1.07001E-17
 -1       310 9.74157E-05-3.47288E-05-2.71475E-05 4.40108E-05-1.07232E-17-1.13515E-17
 -1       311 1.38261E-04-3.02505E-05-4.50070E-05 4.72042E-05-1.13241E-17-1.23601E-17
 -1       312 1.78265E-04-3.29068E-05-5.96477E-05 3.88940E-05-1.02923E-17-9.74406E-18
 -1       313 1.98975E-04-3.25727E-05-6.84177E-05 1.65160E-05-8.99708E-18-5.03085E-18
 -1       314 1.96875E-04-2.83250E-05-6.97608E-05-2.69711E-06-8.06905E-18-1.63289E-18
 -1       315 1.96480E-04-3.49046E-05-6.61146E-05-2.75017E-05-7.76523E-18 3.66871E-18
 -1       316 1.61651E-04-3.35442E-05-5.31994E-05-3.66951E-05-8.72100E-18 5.27003E-18
 -1       317 1.20388E-04-3.02565E-05-3.80089E-05-4.67727E-05-9.40863E-18 9.96746E-18
 -1       318 8.42619E-05-3.59692E-05-2.13706E-05-4.19681E-05-7.10110E-18 9.35124E-18
 -1       319 4.61258E-05-3.73411E-05-5.79075E-06-3.13053E-05-8.22702E-18 7.26061E-18
 -1       320 2.37658E-05-4.33128E-05 5.56377E-06-2.00585E-05-4.83211E-18 7.77534E-18
 -1       321 1.26639E-05-4.91785E-05 1.21908E-05-6.03289E-06-1.81276E-18 6.62486E-18
 -1       322 9.59703E-05-1.55839E-05-3.45317E-05-6.82762E-06-3.61022E-18-2.39444E-18
 -1       323 1.03395E-04-2.15956E-05-3.51174E-05-9.16343E-06-3.99691E-18 3.31335E-20
 -1       324 8.46111E-05-8.20831E-06-3.27897E-05-2.22021E-06-2.03368E-18-4.78276E-18
 -1       325 8.02458E-05-5.65520E-06-3.19996E-05-8.34418E-07-1.24951E-18-5.35667E-18
 -1       326 7.70709E-05-3.82674E-06-3.14138E-05-1.56968E-07-5.15430E-19-5.48607E-18
 -1       327 7.54048E-05-2.87136E-06-3.11048E-05 7.23891E-09 1.15539E-19-5.55420E-18
 -1       328 7.54562E-05-2.90627E-06-3.11119E-05-8.48455E-09 7.72034E-19-5.47106E-18
 -1       329 7.72182E-05-3.92739E-06-3.14340E-05 1.81133E-07 1.40389E-18-5.30971E-18
 -1       330 8.04021E-05-5.77256E-06-3.20167E-05 8.85477E-07 2.07596E-18-4.81360E-18
 -1       331 8.47988E-05-8.35847E-06-3.28062E-05 2.30844E-06 2.92096E-18-3.99112E-18
 -1       332 9.01119E-05-1.16423E-05-3.36939E-05 4.44575E-06 3.60845E-18-2.85158E-18
 -1       333 9.63556E-05-1.59272E-05-3.45490E-05 7.04908E-06 4.15435E-18-1.23806E-18
 -1       334 1.03534E-04-2.19494E-05-3.50711E-05 9.02221E-06 4.32098E-18 1.89526E-18
 -1       335 1.08247E-04-2.75115E-05-3.46796E-05 7.41634E-06 3.88846E-18 4.92321E-18
 -1       336 1.07371E-04-3.02382E-05-3.30276E-05 1.33210E-06 3.18752E-18 3.82228E-18
 -1       337 1.06334E-04-2.91424E-05-3.30390E-05-1.04521E-06-3.08101E-18 7.95081E-19
 -1       338 1.06443E-04-3.07903E-05-3.24030E-05 2.28434E-06-2.46913E-18 6.33921E-19
 -1       339 1.07335E-04-3.22037E-05-3.21955E-05 3.54272E-06-1.66534E-18 3.87265E-19
 -1       340 1.08815E-04-3.37694E-05-3.21717E-05 3.07681E-06-1.00889E-18 2.60133E-19
 -1       341 1.10501E-04-3.53969E-05-3.22050E-05 9.04004E-07-6.99747E-19 6.64998E-19
 -1       342 1.11810E-04-3.65984E-05-3.22518E-05-2.80855E-06-4.07299E-19 6.73137E-19
 -1       343 1.11963E-04-3.65249E-05-3.23460E-05-7.26583E-06-6.24245E-19 8.75519E-19
 -1       344 1.10296E-04-3.43637E-05-3.25481E-05-1.07034E-05-8.15784E-19 8.20452E-19
 -1       345 1.06980E-04-3.02753E-05-3.28746E-05-1.07415E-05-1.43713E-18-1.80486E-19
 -1       346 1.03701E-04-2.62407E-05-3.32007E-05-5.95235E-06-2.21681E-18-1.23468E-18
 -1       347 1.02796E-04-2.50393E-05-3.33299E-05 2.09357E-06-2.15242E-18-2.14341E-18
 -1       348 1.05058E-04-2.76251E-05-3.31872E-05 9.32540E-06-1.52373E-18-2.51348E-18
 -1       349 1.08877E-04-3.20933E-05-3.29089E-05 1.23189E-05-9.56069E-19-3.59268E-18
 -1       350 1.11920E-04-3.57007E-05-3.26738E-05 1.06941E-05-1.63661E-19-4.34342E-18
 -1       351 1.13017E-04-3.71241E-05-3.25437E-05 6.47548E-06 5.70447E-19-3.73794E-18
 -1       352 1.12379E-04-3.67068E-05-3.24515E-05 1.88134E-06 4.39845E-20-3.49624E-18
 -1       353 1.10698E-04-3.53439E-05-3.23140E-05-1.76357E-06 8.02426E-19-2.40552E-18
 -1       354 1.08601E-04-3.37783E-05-3.20805E-05-4.06001E-06 1.83891E-19-2.08143E-18
 -1       355 1.06466E-04-3.23941E-05-3.17524E-05-5.15477E-06 2.06329E-19-1.61233E-18
 -1       356 1.04475E-04-3.13063E-05-3.13604E-05-5.38315E-06 1.14731E-18-1.61239E-18
 -1       357 1.02702E-04-3.04999E-05-3.09428E-05-5.07616E-06 1.07623E-18-6.35326E-19
 -1       358 1.01168E-04-2.99178E-05-3.05330E-05-4.49029E-06 7.74493E-19 3.79910E-19
 -1       359 9.98710E-05-2.95019E-05-3.01546E-05-3.79905E-06 2.11740E-19-1.15285E-18
 -1       360 9.87956E-05-2.92055E-05-2.98206E-05-3.10796E-06 1.44874E-20-1.62066E-18
 -1       361 9.79206E-05-2.89945E-05-2.95363E-05-2.47422E-06-6.34916E-19-1.54379E-18
 -1       362 9.72214E-05-2.88448E-05-2.93013E-05-1.92366E-06-6.90962E-19-2.92678E-19
 -1       363 9.66726E-05-2.87395E-05-2.91117E-05-1.46316E-06 3.08235E-19-1.22889E-18
 -1       364 9.62496E-05-2.86665E-05-2.89622E-05-1.08902E-06 4.34731E-20-2.12818E-18
 -1       365 9.59295E-05-2.86169E-05-2.88467E-05-7.92291E-07-1.40817E-18-1.67834E-18
 -1       366 9.56920E-05-2.85844E-05-2.87592E-05-5.61924E-07-7.54550E-19-1.95382E-19
 -1       367 9.55196E-05-2.85640E-05-2.86943E-05-3.86657E-07 1.68794E-19 3.07826E-19
 -1       368 9.53977E-05-2.85523E-05-2.86473E-05-2.55982E-07-1.48025E-19-1.01199E-18
 -1       369 9.53139E-05-2.85464E-05-2.86141E-05-1.60610E-07-4.16918E-20-1.05504E-18
 -1       370 9.52586E-05-2.85445E-05-2.85914E-05-9.26330E-08-3.21254E-19-1.71164E-18
 -1       371 9.52242E-05-2.85451E-05-2.85765E-05-4.55040E-08 6.54393E-19-1.91623E-18
 -1       372 9.52045E-05-2.85472E-05-2.85673E-05-1.39278E-08 1.68644E-18-1.07525E-18
 -1       373 9.51951E-05-2.85501E-05-2.85621E-05 6.28874E-09 7.95297E-19-7.92441E-19
 -1       374 9.51925E-05-2.85533E-05-2.85596E-05 1.83997E-08 7.12721E-19-4.43702E-19
 -1       375 9.51944E-05-2.85565E-05-2.85591E-05 2.48758E-08-3.31500E-19-2.11973E-19
 -1       376 9.51989E-05-2.85595E-05-2.85597E-05 2.75454E-08 7.07679E-20-1.58085E-19
 -1       377 9.52048E-05-2.85624E-05-2.85610E-05 2.77143E-08 1.67948E-18-7.17480E-19
 -1       378 9.52112E-05-2.85650E-05-2.85627E-05 2.62631E-08 1.43240E-18 9.05300E-20
 -1       379 9.52176E-05-2.85674E-05-2.85644E-05 2.37256E-08 6.08129E-19 3.81056E-19
 -1       380 9.52235E-05-2.85697E-05-2.85660E-05 2.03552E-08-9.64050E-19-7.15451E-19
 -1       381 9.52288E-05-2.85719E-05-2.85673E-05 1.62081E-08-1.24588E-18-1.92035E-18
 -1       382 9.52329E-05-2.85735E-05-2.85683E-05 1.16173E-08-9.66625E-19-2.01970E-18
 -1       383 1.07146E-04-3.13495E-05-3.24520E-05-1.74822E-06 2.37015E-18 3.08511E-18
 -1       384 1.07831E-04-3.22750E-05-3.23693E-05-2.93261E-06 1.53383E-18 2.38901E-18
 -1       385 1.09060E-04-3.33280E-05-3.24609E-05-2.63040E-06 8.98154E-19 1.83289E-18
 -1       386 1.10290E-04-3.44009E-05-3.25374E-05-8.89800E-07 6.48266E-19 1.50893E-18
 -1       387 1.10913E-04-3.51480E-05-3.24871E-05 2.15935E-06 3.92699E-19 1.47146E-18
 -1       388 1.10307E-04-3.50261E-05-3.22771E-05 5.90539E-06 6.53587E-19 2.11814E-18
 -1       389 1.08078E-04-3.35103E-05-3.19594E-05 8.99479E-06 1.11329E-18 2.71526E-18
 -1       390 1.04528E-04-3.06383E-05-3.16630E-05 9.52792E-06 9.00021E-19 2.42994E-18
 -1       391 1.01076E-04-2.75881E-05-3.14912E-05 6.19657E-06 1.94974E-18 1.10297E-18
 -1       392 9.96791E-05-2.62125E-05-3.14786E-05-2.12891E-07 2.28851E-18-2.67288E-19
 -1       393 1.01348E-04-2.75311E-05-3.16231E-05-6.75094E-06 2.09529E-18-1.70330E-18
 -1       394 1.05139E-04-3.06457E-05-3.19127E-05-1.03542E-05 1.01339E-18-1.99970E-18
 -1       395 1.09072E-04-3.37052E-05-3.22965E-05-1.00322E-05-1.26691E-19-2.85905E-18
 -1       396 1.11636E-04-3.54345E-05-3.26694E-05-6.96104E-06 3.17062E-19-3.28453E-18
 -1       397 1.12435E-04-3.57102E-05-3.29017E-05-3.02865E-06 1.25824E-19-3.81519E-18
 -1       398 1.11802E-04-3.50412E-05-3.29185E-05 3.83529E-07-1.16641E-19-2.95656E-18
 -1       399 1.10277E-04-3.39825E-05-3.27146E-05 2.70772E-06-3.41020E-19-2.96011E-18
 -1       400 1.08320E-04-3.28877E-05-3.23388E-05 3.94536E-06-1.71843E-19-2.47802E-18
 -1       401 1.06250E-04-3.19186E-05-3.18610E-05 4.34937E-06-2.21636E-19-1.61799E-18
 -1       402 1.04261E-04-3.11199E-05-3.13465E-05 4.21484E-06 9.50455E-19-2.01364E-18
 -1       403 1.02459E-04-3.04840E-05-3.08443E-05 3.78514E-06 6.18600E-19-1.51382E-18
 -1       404 1.00895E-04-2.99871E-05-3.03854E-05 3.23021E-06-1.90856E-18-1.80447E-18
 -1       405 9.95787E-05-2.96031E-05-2.99856E-05 2.65557E-06-1.37167E-18-7.58467E-19
 -1       406 9.85007E-05-2.93094E-05-2.96496E-05 2.11966E-06-8.21020E-19 3.01221E-19
 -1       407 9.76377E-05-2.90873E-05-2.93753E-05 1.65001E-06 7.39724E-19 9.87664E-19
 -1       408 9.69614E-05-2.89215E-05-2.91571E-05 1.25539E-06 4.26549E-19 1.14316E-18
 -1       409 9.64418E-05-2.87997E-05-2.89871E-05 9.34049E-07 9.57298E-19 1.26979E-18
 -1       410 9.60507E-05-2.87119E-05-2.88576E-05 6.78956E-07 1.18707E-18 4.20059E-19
 -1       411 9.57624E-05-2.86500E-05-2.87610E-05 4.80898E-07 1.11451E-19-9.34491E-19
 -1       412 9.55547E-05-2.86078E-05-2.86904E-05 3.30282E-07 4.51201E-20-1.08836E-18
 -1       413 9.54092E-05-2.85800E-05-2.86403E-05 2.18083E-07-4.79854E-19-1.78596E-18
 -1       414 9.53105E-05-2.85627E-05-2.86056E-05 1.36298E-07 1.79358E-19-5.30242E-19
 -1       415 9.52464E-05-2.85528E-05-2.85825E-05 7.81001E-08 1.24235E-18 5.48019E-19
 -1       416 9.52074E-05-2.85481E-05-2.85680E-05 3.78377E-08 1.69479E-18 6.48312E-19
 -1       417 9.51862E-05-2.85469E-05-2.85595E-05 1.09404E-08-7.39423E-19-7.39716E-19
 -1       418 9.51770E-05-2.85477E-05-2.85553E-05-6.20949E-09 5.82386E-19-2.06905E-18
 -1       419 9.51759E-05-2.85499E-05-2.85539E-05-1.64185E-08-1.54083E-18-1.00457E-18
 -1       420 9.51798E-05-2.85528E-05-2.85544E-05-2.18172E-08-7.72331E-19 4.56549E-19
 -1       421 9.51865E-05-2.85559E-05-2.85560E-05-2.39830E-08-5.73455E-19 8.04234E-19
 -1       422 9.51947E-05-2.85590E-05-2.85582E-05-2.40439E-08-6.05075E-19 1.16473E-18
 -1       423 9.52033E-05-2.85620E-05-2.85606E-05-2.27625E-08 2.57130E-18 3.59889E-19
 -1       424 9.52117E-05-2.85648E-05-2.85630E-05-2.06012E-08 2.83823E-18-1.10868E-18
 -1       425 9.52194E-05-2.85674E-05-2.85652E-05-1.77698E-08 1.61432E-18-7.64414E-19
 -1       426 9.52261E-05-2.85698E-05-2.85670E-05-1.42785E-08-7.30671E-19-1.08395E-18
 -1       427 9.52316E-05-2.85719E-05-2.85685E-05-1.00452E-08-1.62829E-18 2.68214E-18
 -1       428 9.52346E-05-2.85733E-05-2.85691E-05-7.27502E-09-2.10778E-19 4.54284E-18
 -1       429 9.52415E-05-2.85860E-05-2.85667E-05-1.56349E-08-6.92491E-19 1.06046E-18
 -1       430 9.52383E-05-2.85806E-05-2.85676E-05-1.45253E-08-2.26970E-18 3.28703E-18
 -1       431 9.52361E-05-2.85767E-05-2.85683E-05-1.14317E-08-1.85027E-18 2.23273E-18
 -1       432 9.52444E-05-2.85909E-05-2.85658E-05-1.45686E-08-9.23464E-19-1.70746E-18
 -1       433 9.52467E-05-2.85951E-05-2.85650E-05-1.17000E-08-3.95840E-19 1.25174E-18
 -1       434 9.52483E-05-2.85981E-05-2.85643E-05-7.52359E-09 4.34384E-19-1.87762E-19
 -1       435 9.52491E-05-2.85997E-05-2.85640E-05-2.56424E-09-1.47802E-18-1.40526E-18
 -1       436 9.52491E-05-2.85997E-05-2.85640E-05 2.65214E-09-4.73438E-19-2.43172E-18
 -1       437 9.52483E-05-2.85981E-05-2.85644E-05 7.60256E-09-1.87594E-19-7.47599E-19
 -1       438 9.52467E-05-2.85951E-05-2.85650E-05 1.17010E-08 2.05431E-18 6.39311E-19
 -1       439 9.52444E-05-2.85909E-05-2.85658E-05 1.45724E-08 2.73458E-18 3.32550E-18
 -1       440 9.52415E-05-2.85859E-05-2.85667E-05 1.56424E-08 1.24374E-18 1.27560E-18
 -1       441 9.52382E-05-2.85805E-05-2.85676E-05 1.45876E-08-9.08077E-19-2.89890E-18
 -1       442 5.33224E-05-3.93240E-05-6.13658E-06 4.15015E-05-1.05773E-18 5.61641E-18
 -1       443 1.19654E-05-2.23307E-05 4.25514E-06 2.87540E-07 7.30831E-20 7.81070E-18
 -1       444 2.21824E-05-2.75906E-05 2.08303E-06 2.44463E-05-3.87306E-19 8.78161E-18
 -1       445 9.43867E-05-5.17103E-05-1.83851E-05 4.15865E-05 8.51798E-19 4.18080E-18
 -1       446 1.25923E-04-5.42980E-05-3.07660E-05 3.02089E-05 2.51219E-18 8.87585E-19
 -1       447 8.98721E-05-1.14374E-05-3.36783E-05-4.31199E-06-2.82982E-18-3.90262E-18
 -1       448 1.54090E-04-2.87872E-05-5.38572E-05-3.90655E-06 8.16227E-18-2.21891E-18
 -1       449 1.61083E-04-1.52064E-05-6.22177E-05-1.72220E-06 9.57380E-18-2.04638E-18
 -1       450 1.61658E-04-1.49158E-05-6.25823E-05 3.79142E-07 8.76076E-18-2.26973E-18
 -1       451 1.53513E-04-2.45659E-05-5.54167E-05 4.57055E-06 6.77732E-18-1.07150E-18
 -1       452 1.50220E-04-4.68858E-05-4.43528E-05-8.43342E-06 4.60208E-18-1.60597E-18
 -1       453 1.25006E-04-5.47369E-05-3.01910E-05-3.18707E-05 3.21449E-18-4.00636E-18
 -1       454 9.01606E-05-5.04078E-05-1.71785E-05-4.29414E-05 1.54308E-18-6.92235E-18
 -1       455 5.63817E-05-3.93906E-05-7.25815E-06-4.29046E-05-4.05199E-19-8.21468E-18
 -1       456 2.04579E-05-2.65606E-05 2.24634E-06-2.30520E-05-2.20758E-19-9.21720E-18
 -1       457 1.24000E-05-2.05904E-05 3.40945E-06 7.16754E-07-3.91184E-19-9.21201E-18
 -1       458 2.89773E-05-2.88075E-05-2.49051E-07 3.05510E-05-4.00435E-19-8.08800E-18
 -1       459 6.33168E-05-4.21922E-05-9.10162E-06 4.38301E-05-8.41210E-19-6.22029E-18
 -1       460 9.79866E-05-5.28340E-05-1.95100E-05 4.14520E-05-2.22251E-18-5.25880E-18
 -1       461 1.36021E-04-5.27614E-05-3.56139E-05 2.57601E-05-4.44173E-18-3.06721E-18
 -1       462 1.53396E-04-4.20047E-05-4.76759E-05 8.36966E-06-6.16786E-18-1.63594E-18
 -1       463 1.59942E-04-2.59055E-05-5.73023E-05 4.08728E-07-8.45318E-18-1.97338E-18
 -1       464 1.54234E-04-1.22682E-05-6.09057E-05-1.33507E-06-9.19041E-18-2.15252E-18
 -1       465 1.56399E-04-1.72049E-05-5.96870E-05 3.66149E-06-7.83664E-18-2.56519E-18
 -1       466 1.56168E-04-3.10796E-05-5.35686E-05 9.81003E-07-5.72383E-18-2.48011E-18
 -1       467 1.46224E-04-4.82800E-05-4.19689E-05-1.62718E-05-3.80987E-18-2.08889E-18
 -1       468 1.25816E-04-5.44707E-05-3.05256E-05-3.06601E-05-1.33249E-18 1.44409E-18
 -1       469 8.56284E-05-4.97843E-05-1.55843E-05-4.26686E-05-1.03264E-18 4.98251E-18
 -1       470 5.21281E-05-4.01339E-05-5.42404E-06-4.06134E-05-6.88214E-19 5.81467E-18
 -1       471 1.94991E-05-2.73031E-05 2.97959E-06-2.16934E-05-2.54639E-20 8.35842E-18
 -1       472 1.50759E-04-4.49333E-05-4.52545E-05 1.17024E-05 6.03827E-18-6.59945E-19
 -1       473 2.46896E-05-1.72376E-05-2.76433E-06 1.90311E-05 8.67521E-19-8.49849E-18
 -1       474 1.04313E-04-2.78874E-05-3.27415E-05-2.96084E-08 3.05612E-18 5.13800E-19
 -1       475 7.95986E-05-7.55721E-06-3.08856E-05 1.02202E-06-7.57651E-19-4.89021E-18
 -1       476 8.41088E-05-1.05589E-05-3.15368E-05 5.60317E-07-1.43635E-18-4.51199E-18
 -1       477 7.56048E-05-4.91582E-06-3.03018E-05-3.49926E-08 4.04035E-19-5.06029E-18
 -1       478 7.67427E-05-5.67824E-06-3.04637E-05-7.79320E-07 9.92845E-19-4.98068E-18
 -1       479 7.97654E-05-7.69180E-06-3.08993E-05-1.02810E-06 1.59116E-18-4.62665E-18
 -1       480 8.43199E-05-1.07351E-05-3.15518E-05-5.21498E-07 2.39956E-18-3.77842E-18
 -1       481 8.98497E-05-1.45101E-05-3.23088E-05 7.13450E-07 2.99807E-18-3.05606E-18
 -1       482 9.60144E-05-1.89832E-05-3.30333E-05 2.32289E-06 3.49588E-18-1.83989E-18
 -1       483 1.05122E-04-3.01526E-05-3.21165E-05-3.02981E-06 2.18853E-18 4.30118E-19
 -1       484 1.02564E-04-2.67371E-05-3.24903E-05 9.02778E-07-2.56485E-18-1.07389E-18
 -1       485 1.40744E-04-5.67633E-05-3.61323E-05 9.49195E-06 1.07103E-18-2.94180E-18
 -1       486 1.03916E-04-2.96134E-05-3.18413E-05 3.84760E-06-1.96742E-18-6.11291E-19
 -1       487 1.05818E-04-3.23912E-05-3.14712E-05 5.01232E-06-1.20479E-18-2.62468E-19
 -1       488 1.08553E-04-3.54976E-05-3.13175E-05 4.27218E-06-5.99531E-19-2.39972E-19
 -1       489 1.11956E-04-3.86776E-05-3.14160E-05 1.42865E-06-3.31807E-19 9.40384E-20
 -1       490 1.15254E-04-4.08438E-05-3.18958E-05-3.43752E-06-3.81509E-19 3.04972E-19
 -1       491 1.16892E-04-4.00804E-05-3.29447E-05-9.26830E-06-7.87968E-19 4.47786E-19
 -1       492 1.15557E-04-3.50667E-05-3.45442E-05-1.32071E-05-1.74415E-18 3.10376E-19
 -1       493 1.11320E-04-2.67331E-05-3.63273E-05-1.14800E-05-2.57316E-18-1.79689E-20
 -1       494 1.07969E-04-2.08776E-05-3.74343E-05-2.89463E-06-2.75183E-18-5.81280E-19
 -1       495 1.08884E-04-2.23624E-05-3.71805E-05 7.96590E-06-2.84838E-18-2.10747E-18
 -1       496 1.13153E-04-2.99077E-05-3.57357E-05 1.42019E-05-2.49680E-18-3.69706E-18
 -1       497 1.16726E-04-3.76355E-05-3.39333E-05 1.33786E-05-8.37749E-19-4.05840E-18
 -1       498 1.16832E-04-4.10619E-05-3.24920E-05 8.12462E-06 5.37577E-19-3.76586E-18
 -1       499 1.14366E-04-4.06735E-05-3.15899E-05 2.10347E-06 6.90050E-19-3.57408E-18
 -1       500 1.10748E-04-3.81443E-05-3.11272E-05-2.63308E-06 9.40552E-19-2.94921E-18
 -1       501 1.07245E-04-3.51969E-05-3.08865E-05-5.57060E-06 6.44737E-19-2.37711E-18
 -1       502 1.04364E-04-3.26963E-05-3.07197E-05-6.96919E-06 9.60418E-19-1.66363E-18
 -1       503 1.02164E-04-3.08836E-05-3.05508E-05-7.28359E-06 1.01516E-18-1.03761E-18
 -1       504 1.00523E-04-2.96939E-05-3.03555E-05-6.92510E-06 1.02704E-18-5.57647E-19
 -1       505 9.92950E-05-2.89718E-05-3.01374E-05-6.20243E-06 1.43873E-18-6.67113E-19
 -1       506 9.83600E-05-2.85659E-05-2.99102E-05-5.32606E-06-2.34259E-19-8.03850E-19
 -1       507 9.76358E-05-2.83595E-05-2.96882E-05-4.42864E-06-3.28854E-19-3.98871E-19
 -1       508 9.70676E-05-2.82723E-05-2.94821E-05-3.58682E-06-5.44945E-19-1.31365E-18
 -1       509 9.66196E-05-2.82528E-05-2.92987E-05-2.83949E-06-2.95053E-19-7.41686E-19
 -1       510 9.62669E-05-2.82691E-05-2.91408E-05-2.20133E-06-6.64506E-19-1.03589E-18
 -1       511 9.59912E-05-2.83023E-05-2.90085E-05-1.67242E-06-1.13818E-19-8.13257E-19
 -1       512 9.57779E-05-2.83417E-05-2.89005E-05-1.24468E-06-4.44526E-19-8.07820E-19
 -1       513 9.56153E-05-2.83811E-05-2.88140E-05-9.06133E-07-5.90308E-19 9.59617E-19
 -1       514 9.54932E-05-2.84176E-05-2.87463E-05-6.43440E-07-1.15275E-19 8.60067E-19
 -1       515 9.54033E-05-2.84495E-05-2.86942E-05-4.43504E-07-1.36928E-18 2.14002E-19
 -1       516 9.53385E-05-2.84767E-05-2.86548E-05-2.94291E-07-6.04116E-19-1.27314E-19
 -1       517 9.52930E-05-2.84991E-05-2.86258E-05-1.85234E-07-8.73286E-19-8.47433E-19
 -1       518 9.52621E-05-2.85173E-05-2.86048E-05-1.07359E-07 3.61419E-20 2.84883E-19
 -1       519 9.52420E-05-2.85316E-05-2.85901E-05-5.32375E-08 1.47400E-18 7.29271E-20
 -1       520 9.52297E-05-2.85428E-05-2.85801E-05-1.68626E-08 7.58959E-19-1.69512E-18
 -1       521 9.52230E-05-2.85514E-05-2.85735E-05 6.52585E-09 1.05135E-18-1.98885E-18
 -1       522 9.52201E-05-2.85579E-05-2.85695E-05 2.06215E-08-1.88280E-19 3.80950E-20
 -1       523 9.52198E-05-2.85627E-05-2.85673E-05 2.82272E-08 5.95596E-19 2.34169E-18
 -1       524 9.52211E-05-2.85663E-05-2.85663E-05 3.14131E-08-8.59602E-20 1.73833E-18
 -1       525 9.52233E-05-2.85690E-05-2.85661E-05 3.16528E-08 2.21098E-18 4.90321E-19
 -1       526 9.52260E-05-2.85712E-05-2.85663E-05 2.99388E-08-7.86691E-20-2.21103E-19
 -1       527 9.52289E-05-2.85732E-05-2.85668E-05 2.68757E-08-1.01095E-18-1.54915E-18
 -1       528 9.52319E-05-2.85751E-05-2.85672E-05 2.27748E-08-1.38413E-18-1.88907E-18
 -1       529 1.08587E-04-3.46165E-05-3.17084E-05-3.43162E-06 1.00580E-18 5.71593E-19
 -1       530 1.11052E-04-3.69952E-05-3.17511E-05-7.93977E-07 3.70292E-19 8.81972E-19
 -1       531 1.13233E-04-3.86092E-05-3.19990E-05 3.56800E-06 2.60368E-19 1.00094E-18
 -1       532 1.14100E-04-3.82264E-05-3.25409E-05 8.63135E-06 1.24496E-19 1.46085E-18
 -1       533 1.12628E-04-3.46996E-05-3.34043E-05 1.21350E-05 9.33640E-19 1.97798E-18
 -1       534 1.08986E-04-2.86055E-05-3.44773E-05 1.11262E-05 2.54617E-18 1.50159E-18
 -1       535 1.05727E-04-2.35718E-05-3.52494E-05 4.37975E-06 3.88130E-18 4.49322E-19
 -1       536 1.05714E-04-2.34597E-05-3.52890E-05-5.19694E-06 3.12535E-18-1.15701E-18
 -1       537 1.09051E-04-2.84130E-05-3.45884E-05-1.21346E-05 2.13931E-18-2.59796E-18
 -1       538 1.12879E-04-3.46054E-05-3.35609E-05-1.33649E-05 1.17236E-18-3.46404E-18
 -1       539 1.14586E-04-3.83805E-05-3.26751E-05-9.85361E-06 4.23603E-19-3.46608E-18
 -1       540 1.13861E-04-3.90291E-05-3.20837E-05-4.54186E-06-3.28440E-20-3.44146E-18
 -1       541 1.11597E-04-3.75653E-05-3.17425E-05 2.86733E-07-3.08334E-19-2.27966E-18
 -1       542 1.08872E-04-3.53691E-05-3.15143E-05 3.67871E-06-4.66156E-19-2.68084E-18
 -1       543 1.06288E-04-3.32773E-05-3.12986E-05 5.58062E-06-8.43908E-19-2.05400E-18
 -1       544 1.04076E-04-3.16315E-05-3.10517E-05 6.30738E-06-5.04098E-19-2.09630E-18
 -1       545 1.02257E-04-3.04639E-05-3.07691E-05 6.24748E-06 2.10602E-19-2.48813E-18
 -1       546 1.00777E-04-2.96865E-05-3.04663E-05 5.72885E-06 1.97093E-19-1.59140E-18
 -1       547 9.95766E-05-2.91904E-05-3.01632E-05 4.98929E-06-8.05627E-19-7.41353E-19
 -1       548 9.86024E-05-2.88833E-05-2.98770E-05 4.18434E-06-1.62053E-18-1.34239E-18
 -1       549 9.78149E-05-2.86984E-05-2.96187E-05 3.40661E-06-1.19726E-18-1.95060E-18
 -1       550 9.71830E-05-2.85909E-05-2.93943E-05 2.70516E-06-6.82134E-20-1.35969E-18
 -1       551 9.66813E-05-2.85315E-05-2.92051E-05 2.10083E-06 2.45032E-19-8.64152E-19
 -1       552 9.62881E-05-2.85018E-05-2.90496E-05 1.59742E-06-1.60058E-19-7.68244E-19
 -1       553 9.59844E-05-2.84903E-05-2.89248E-05 1.18918E-06 1.31686E-18-6.40675E-20
 -1       554 9.57538E-05-2.84894E-05-2.88266E-05 8.65572E-07 1.54158E-18 5.17042E-19
 -1       555 9.55817E-05-2.84945E-05-2.87509E-05 6.14316E-07 8.34068E-19-6.14078E-19
 -1       556 9.54559E-05-2.85027E-05-2.86936E-05 4.23063E-07-1.96955E-19 4.17626E-19
 -1       557 9.53661E-05-2.85121E-05-2.86513E-05 2.80368E-07-2.82603E-19 6.44958E-19
 -1       558 9.53038E-05-2.85216E-05-2.86206E-05 1.76135E-07-8.44101E-20-3.85616E-19
 -1       559 9.52620E-05-2.85305E-05-2.85990E-05 1.01767E-07 7.68252E-19 4.91409E-19
 -1       560 9.52354E-05-2.85385E-05-2.85843E-05 5.01447E-08 1.62947E-18 2.05510E-19
 -1       561 9.52198E-05-2.85454E-05-2.85746E-05 1.55056E-08 3.08931E-19 1.33922E-19
 -1       562 9.52117E-05-2.85513E-05-2.85687E-05-6.71624E-09-7.99962E-19 8.66982E-19
 -1       563 9.52088E-05-2.85562E-05-2.85654E-05-2.00648E-08-2.27577E-18-1.50618E-19
 -1       564 9.52093E-05-2.85602E-05-2.85639E-05-2.72300E-08 4.55856E-19-5.12458E-19
 -1       565 9.52119E-05-2.85635E-05-2.85636E-05-3.01995E-08-3.09151E-19-2.07576E-18
 -1       566 9.52156E-05-2.85662E-05-2.85640E-05-3.03889E-08 1.91905E-18-2.24575E-18
 -1       567 9.52198E-05-2.85685E-05-2.85649E-05-2.87502E-08 1.53755E-18-2.58777E-19
 -1       568 9.52242E-05-2.85706E-05-2.85658E-05-2.58666E-08 5.28931E-19 2.81799E-18
 -1       569 9.52284E-05-2.85727E-05-2.85668E-05-2.20627E-08 6.52225E-19 5.05847E-18
 -1       570 9.52324E-05-2.85748E-05-2.85676E-05-1.73859E-08-2.44501E-18 4.45234E-18
 -1       571 9.52468E-05-2.85901E-05-2.85672E-05-1.71760E-08-6.17415E-19 3.88505E-19
 -1       572 9.52495E-05-2.85932E-05-2.85670E-05-1.24892E-08-1.53886E-18 1.41280E-18
 -1       573 9.52387E-05-2.85813E-05-2.85675E-05-2.04277E-08-1.04229E-18 2.04602E-18
 -1       574 9.52431E-05-2.85861E-05-2.85673E-05-1.99720E-08-1.06146E-18-3.29403E-19
 -1       575 9.52511E-05-2.85951E-05-2.85669E-05-6.53233E-09-1.51402E-18-9.58103E-19
 -1       576 9.52517E-05-2.85957E-05-2.85668E-05 5.67205E-11-2.84392E-19 5.30458E-19
 -1       577 9.52511E-05-2.85950E-05-2.85669E-05 6.64053E-09 1.45536E-18-2.08990E-18
 -1       578 9.52495E-05-2.85932E-05-2.85670E-05 1.24901E-08 1.71843E-18 2.91589E-19
 -1       579 9.52468E-05-2.85901E-05-2.85672E-05 1.71797E-08 1.50680E-18 7.83480E-19
 -1       580 9.52432E-05-2.85860E-05-2.85673E-05 2.00054E-08-8.81038E-19-1.69555E-19
 -1       581 9.52386E-05-2.85812E-05-2.85675E-05 2.03427E-08-2.42958E-18-1.91064E-18
 -1       582 2.62464E-05-1.52404E-05-4.09443E-06 1.43733E-05-1.99074E-18 7.60657E-18
 -1       583 8.99199E-05-4.92614E-05-1.70222E-05 4.09747E-05-4.21431E-18 1.98996E-18
 -1       584 1.06528E-04-3.22798E-05-3.18198E-05-4.15202E-06 1.36147E-18 3.07439E-19
 -1       585 1.42901E-04-4.14934E-05-4.38684E-05-8.45480E-06 4.38361E-18-4.74820E-18
 -1       586 4.80609E-05-2.76836E-05-8.17837E-06-3.57861E-05 1.98105E-18 6.00975E-18
 -1       587 4.52237E-05-2.71088E-05-7.27847E-06 3.48775E-05-3.59745E-18 5.19480E-18
 -1       588 1.31719E-04-8.93813E-06-5.32726E-05 3.87859E-06-7.77735E-18-2.38555E-18
 -1       589 4.42898E-05-2.56650E-05-7.51811E-06-3.46284E-05-1.94405E-18-7.71054E-18
 -1       590 7.66139E-05-5.58061E-06-3.04504E-05 7.28320E-07-1.10475E-19-5.10070E-18
 -1       591 1.35930E-04-8.82909E-06-5.50639E-05-9.26612E-07 8.25783E-18-1.15809E-18
 -1       592 5.52212E-05-3.12126E-05-9.79717E-06 3.93333E-05 2.22992E-18-6.16211E-18
 -1       593 1.36650E-04-1.57294E-05-5.23739E-05-1.00259E-05 8.32115E-18-3.58160E-18
 -1       594 1.34869E-04-1.39191E-05-5.23962E-05 8.25879E-06 7.33266E-18 7.72838E-19
 -1       595 1.40461E-04-3.66999E-05-4.50133E-05 9.90280E-06 3.67406E-18 1.34075E-18
 -1       596 1.38759E-04-5.81663E-05-3.46877E-05-1.07091E-05 9.44415E-19 5.34742E-19
 -1       597 1.17219E-04-5.90420E-05-2.48373E-05-3.18451E-05-1.56913E-18-2.03005E-18
 -1       598 8.96165E-05-4.85315E-05-1.72823E-05-4.13171E-05-2.78621E-18-4.67162E-18
 -1       599 2.58269E-05-1.41322E-05-4.38900E-06-1.38092E-05-8.48264E-19-8.65615E-18
 -1       600 1.43109E-04-5.37808E-05-3.85217E-05 3.64967E-06-2.42576E-18 1.12698E-18
 -1       601 9.25637E-05-5.02900E-05-1.78343E-05 4.14791E-05 1.72811E-18-3.54695E-18
 -1       602 1.26564E-04-6.06209E-05-2.82134E-05 2.61074E-05 2.83174E-19-8.03887E-19
 -1       603 1.40617E-04-3.39503E-05-4.61966E-05-1.15739E-05-4.74513E-18 1.61286E-18
 -1       604 1.32855E-04-1.65361E-05-5.05298E-05-1.06956E-05-7.08930E-18 7.41816E-19
 -1       605 1.39045E-04-2.25257E-05-5.04810E-05 1.22346E-05-5.82520E-18-3.81408E-18
 -1       606 1.43732E-04-4.41073E-05-4.30506E-05 6.60020E-06-2.32132E-18-4.01245E-18
 -1       607 1.38821E-04-5.85091E-05-3.45707E-05-1.12290E-05-5.28866E-19-4.10546E-18
 -1       608 1.16616E-04-5.95092E-05-2.43295E-05-3.15742E-05 2.12626E-18-3.75289E-19
 -1       609 8.14933E-05-4.66098E-05-1.46363E-05-4.24246E-05 2.20451E-18 2.94310E-18
 -1       610 2.57019E-05-1.49928E-05-3.95239E-06-1.33037E-05-3.09432E-19 7.79471E-18
 -1       611 1.00093E-04-2.23563E-05-3.33353E-05-2.87374E-06-3.27934E-18-1.70966E-18
 -1       612 1.04232E-04-2.57666E-05-3.36361E-05 3.84479E-06 3.78040E-18 1.00295E-18
 -1       613 1.15636E-04-5.95564E-05-2.39630E-05 3.15337E-05-2.65047E-18-7.64355E-19
 -1       614 8.96026E-05-1.42971E-05-3.22950E-05-6.33245E-07-2.20526E-18-3.86638E-18
 -1       615 1.32012E-04-2.82524E-05-4.49707E-05-1.54883E-05 5.41609E-18-4.33194E-18
 -1       616 9.52339E-05-2.85765E-05-2.85675E-05 1.94037E-08-2.36092E-18-1.82526E-18
 -1       617 7.23073E-05-3.55003E-05-1.53524E-05-3.86209E-05-2.86146E-18-5.76231E-18
 -1       618 1.30026E-04-2.66228E-05-4.48366E-05 1.43549E-05 4.49422E-18 1.85040E-18
 -1       619 2.95325E-05-1.05786E-05-7.50462E-06 3.27936E-06 3.73508E-19-8.00557E-18
 -1       620 9.47378E-05-1.80479E-05-3.28881E-05-1.85242E-06-2.74470E-18-2.89560E-18
 -1       621 1.36943E-04-4.91957E-05-3.78636E-05 5.50157E-06 1.20866E-18 2.30655E-18
 -1       622 7.83821E-05-9.13223E-06-2.96811E-05-2.65419E-06 1.09339E-18-4.39352E-18
 -1       623 7.57333E-05-7.26839E-06-2.93438E-05-1.05903E-06 6.21189E-19-4.54442E-18
 -1       624 8.87803E-05-1.63999E-05-3.10246E-05-2.88246E-06 2.21080E-18-3.01141E-18
 -1       625 9.49110E-05-2.07813E-05-3.17760E-05-1.83610E-06 2.67088E-18-2.18257E-18
 -1       626 1.00617E-04-2.59373E-05-3.19969E-05-2.27210E-06 2.53773E-18-1.05277E-18
 -1       627 3.55758E-05-1.14274E-05-9.79403E-06 3.28333E-07-1.50379E-18 6.18631E-18
 -1       628 1.00899E-04-2.88231E-05-3.08901E-05 6.18850E-06-1.36345E-18-1.56969E-18
 -1       629 1.04030E-04-3.30852E-05-3.04067E-05 7.53200E-06-5.54863E-19-1.06050E-18
 -1       630 1.08596E-04-3.80671E-05-3.02299E-05 6.99950E-06-1.05453E-20-4.38532E-19
 -1       631 1.14545E-04-4.31788E-05-3.05884E-05 3.90215E-06-4.24683E-20 3.74051E-21
 -1       632 1.20612E-04-4.64223E-05-3.18083E-05-2.01612E-06-1.49528E-19 5.60703E-19
 -1       633 1.23744E-04-4.33176E-05-3.45067E-05-1.00228E-05-1.04447E-18 1.33127E-18
 -1       634 1.22347E-04-3.33748E-05-3.83430E-05-1.52447E-05-2.46743E-18 1.80407E-18
 -1       635 1.16433E-04-1.93919E-05-4.18811E-05-1.00895E-05-3.74365E-18 4.54082E-19
 -1       636 1.14291E-04-1.47597E-05-4.29764E-05 3.32823E-06-4.92833E-18-2.37886E-18
 -1       637 1.18368E-04-2.40880E-05-4.06969E-05 1.45426E-05-3.75476E-18-4.00471E-18
 -1       638 1.23818E-04-3.82003E-05-3.68456E-05 1.56765E-05-1.43081E-18-3.93431E-18
 -1       639 1.22868E-04-4.53622E-05-3.32654E-05 8.26346E-06 4.70368E-20-3.25592E-18
 -1       640 1.18373E-04-4.61195E-05-3.09623E-05 2.83707E-07 8.78932E-19-2.64010E-18
 -1       641 1.11995E-04-4.21270E-05-2.99461E-05-5.25192E-06 9.91030E-19-1.97501E-18
 -1       642 1.06367E-04-3.73803E-05-2.95714E-05-8.18689E-06 1.11709E-18-1.97254E-18
 -1       643 1.02238E-04-3.33915E-05-2.95088E-05-9.24736E-06 1.15925E-18-2.00164E-18
 -1       644 9.95175E-05-3.05828E-05-2.95447E-05-9.18989E-06 1.13590E-18-1.23781E-18
 -1       645 9.78326E-05-2.88215E-05-2.95763E-05-8.52610E-06 8.67057E-19-1.81053E-18
 -1       646 9.68314E-05-2.78393E-05-2.95676E-05-7.56565E-06 1.02077E-18-2.44675E-18
 -1       647 9.62486E-05-2.73769E-05-2.95159E-05-6.49791E-06 8.15437E-19-2.38868E-18
 -1       648 9.59091E-05-2.72340E-05-2.94316E-05-5.43644E-06-1.67294E-19-7.05511E-19
 -1       649 9.57065E-05-2.72719E-05-2.93286E-05-4.44710E-06-5.98495E-19-5.19825E-19
 -1       650 9.55795E-05-2.74011E-05-2.92188E-05-3.56466E-06 2.61533E-19 7.29882E-19
 -1       651 9.54947E-05-2.75674E-05-2.91113E-05-2.80332E-06-6.85246E-19 6.38441E-19
 -1       652 9.54341E-05-2.77393E-05-2.90117E-05-2.16394E-06-6.76107E-19-4.07418E-19
 -1       653 9.53884E-05-2.79002E-05-2.89233E-05-1.63924E-06-8.51062E-19-8.05395E-19
 -1       654 9.53529E-05-2.80421E-05-2.88473E-05-1.21745E-06 9.21161E-19-4.08449E-19
 -1       655 9.53248E-05-2.81626E-05-2.87837E-05-8.84826E-07-3.32981E-19 2.45972E-19
 -1       656 9.53025E-05-2.82618E-05-2.87316E-05-6.27330E-07-6.27117E-19 1.47000E-18
 -1       657 9.52851E-05-2.83416E-05-2.86900E-05-4.31651E-07-2.87685E-18-3.90849E-19
 -1       658 9.52715E-05-2.84044E-05-2.86573E-05-2.85776E-07-1.54721E-18-1.48590E-18
 -1       659 9.52612E-05-2.84530E-05-2.86320E-05-1.79252E-07-7.81026E-19-1.50471E-18
 -1       660 9.52534E-05-2.84898E-05-2.86130E-05-1.03246E-07 2.91026E-19-1.84756E-18
 -1       661 9.52477E-05-2.85171E-05-2.85988E-05-5.04664E-08-2.40297E-19-2.78798E-18
 -1       662 9.52436E-05-2.85369E-05-2.85886E-05-1.50294E-08 9.14598E-19-2.48443E-18
 -1       663 9.52407E-05-2.85510E-05-2.85813E-05 7.72015E-09 1.76930E-18-2.35046E-18
 -1       664 9.52388E-05-2.85608E-05-2.85763E-05 2.13875E-08 8.52822E-19-1.57487E-18
 -1       665 9.52376E-05-2.85674E-05-2.85730E-05 2.87018E-08-3.24502E-19-1.20698E-18
 -1       666 9.52370E-05-2.85718E-05-2.85708E-05 3.16728E-08 7.91487E-19-6.83237E-19
 -1       667 9.52367E-05-2.85747E-05-2.85695E-05 3.17253E-08-6.39549E-20-2.74666E-18
 -1       668 9.52369E-05-2.85768E-05-2.85686E-05 2.98219E-08-1.37474E-18-1.56328E-18
 -1       669 9.52374E-05-2.85787E-05-2.85680E-05 2.65211E-08-1.69280E-18-2.37510E-18
 -1       670 1.13309E-04-4.09835E-05-3.10012E-05-2.14520E-06-4.96987E-20 3.28146E-19
 -1       671 1.23405E-04-1.63135E-05-4.64002E-05 1.15754E-05-5.22365E-18-3.86164E-18
 -1       672 1.08700E-04-3.69279E-05-3.07563E-05-5.30471E-06 3.66527E-19-2.08555E-19
 -1       673 1.20361E-04-4.16284E-05-3.37833E-05 1.04001E-05 3.17922E-19 1.65506E-18
 -1       674 1.18217E-04-3.38866E-05-3.62783E-05 1.45600E-05 1.94895E-18 1.78193E-18
 -1       675 1.12939E-04-2.28660E-05-3.88028E-05 1.09182E-05 4.18690E-18 1.43866E-18
 -1       676 1.10224E-04-1.75924E-05-3.99311E-05-3.83862E-07 5.10228E-18-1.50599E-19
 -1       677 1.12688E-04-2.24307E-05-3.88962E-05-1.18941E-05 4.15680E-18-1.89134E-18
 -1       678 1.18230E-04-3.36243E-05-3.63422E-05-1.56577E-05 2.29679E-18-3.16097E-18
 -1       679 1.20309E-04-4.16227E-05-3.37490E-05-1.14995E-05 5.34441E-19-3.42070E-18
 -1       680 1.18059E-04-4.38822E-05-3.17971E-05-4.46303E-06 1.21112E-19-2.87165E-18
 -1       681 1.13441E-04-4.16817E-05-3.07564E-05 1.61259E-06-1.27305E-18-1.74221E-18
 -1       682 1.08645E-04-3.79696E-05-3.02958E-05 5.53201E-06-7.63932E-19-1.15646E-18
 -1       683 1.04674E-04-3.43988E-05-3.01219E-05 7.55688E-06-6.45893E-19-7.59644E-19
 -1       684 1.01786E-04-3.16707E-05-3.00514E-05 8.20392E-06-3.77160E-19-1.54181E-18
 -1       685 9.98072E-05-2.98380E-05-2.99874E-05 7.99906E-06-3.92832E-19-1.64741E-18
 -1       686 9.84829E-05-2.87277E-05-2.98949E-05 7.31440E-06-4.56410E-19-7.33066E-19
 -1       687 9.75930E-05-2.81254E-05-2.97711E-05 6.40100E-06-3.32099E-19-4.15679E-19
 -1       688 9.69807E-05-2.78499E-05-2.96266E-05 5.41947E-06-9.41095E-19-1.93483E-19
 -1       689 9.65447E-05-2.77694E-05-2.94742E-05 4.46722E-06-1.29536E-18-4.22899E-20
 -1       690 9.62235E-05-2.77967E-05-2.93249E-05 3.59854E-06-8.86262E-19-1.61369E-18
 -1       691 9.59803E-05-2.78770E-05-2.91864E-05 2.83911E-06-4.00682E-19-1.34486E-18
 -1       692 9.57932E-05-2.79778E-05-2.90632E-05 2.19624E-06-1.93322E-19 1.89641E-19
 -1       693 9.56483E-05-2.80808E-05-2.89570E-05 1.66609E-06 4.57358E-19-2.78143E-19
 -1       694 9.55363E-05-2.81766E-05-2.88681E-05 1.23862E-06 6.26769E-19 5.02701E-19
 -1       695 9.54503E-05-2.82607E-05-2.87953E-05 9.00865E-07 9.00816E-19 7.85942E-19
 -1       696 9.53852E-05-2.83318E-05-2.87370E-05 6.39079E-07-6.58384E-20 1.26005E-18
 -1       697 9.53366E-05-2.83902E-05-2.86912E-05 4.39980E-07-4.83280E-20-7.07989E-19
 -1       698 9.53010E-05-2.84371E-05-2.86558E-05 2.91478E-07 3.75694E-19-2.10319E-19
 -1       699 9.52755E-05-2.84740E-05-2.86291E-05 1.82998E-07 1.29501E-19-7.28954E-19
 -1       700 9.52577E-05-2.85024E-05-2.86094E-05 1.05577E-07 1.02485E-18-8.78797E-19
 -1       701 9.52457E-05-2.85239E-05-2.85950E-05 5.18079E-08 3.89077E-19 3.16964E-19
 -1       702 9.52381E-05-2.85398E-05-2.85849E-05 1.57011E-08-4.83323E-19 1.22959E-18
 -1       703 9.52335E-05-2.85514E-05-2.85780E-05-7.48347E-09-8.95647E-19 1.11683E-18
 -1       704 9.52311E-05-2.85597E-05-2.85735E-05-2.14207E-08-7.52759E-19-5.12331E-19
 -1       705 9.52302E-05-2.85655E-05-2.85706E-05-2.88950E-08 1.28660E-18-8.25921E-19
 -1       706 9.52304E-05-2.85695E-05-2.85690E-05-3.19585E-08 1.00240E-18-2.93881E-18
 -1       707 9.52312E-05-2.85723E-05-2.85681E-05-3.20674E-08-2.54175E-20-2.24625E-18
 -1       708 9.52324E-05-2.85744E-05-2.85677E-05-3.02003E-08-1.18240E-18 6.12430E-20
 -1       709 9.52339E-05-2.85763E-05-2.85676E-05-2.69651E-08-1.94722E-18 2.34704E-18
 -1       710 9.52365E-05-2.85787E-05-2.85676E-05-2.40156E-08-2.21533E-18 2.83473E-18
 -1       711 9.52551E-05-2.85927E-05-2.85696E-05-3.78288E-09-8.77921E-19 1.37804E-20
 -1       712 9.52379E-05-2.85799E-05-2.85677E-05 2.36601E-08-1.95152E-18-2.62468E-18
 -1       713 9.52508E-05-2.85894E-05-2.85692E-05-1.74910E-08-1.08013E-18 2.73715E-19
 -1       714 9.52551E-05-2.85927E-05-2.85696E-05 3.91191E-09 1.55806E-19 1.51504E-18
 -1       715 9.52537E-05-2.85916E-05-2.85695E-05-1.11447E-08-6.32196E-19-6.49566E-20
 -1       716 1.22921E-04-1.21937E-05-4.80286E-05-6.90994E-06 6.84948E-18-1.32606E-18
 -1       717 1.32866E-04-5.80591E-05-3.21389E-05 8.31645E-06 7.74850E-19 1.70746E-18
 -1       718 9.52537E-05-2.85916E-05-2.85695E-05 1.11449E-08 1.53773E-18-1.82223E-18
 -1       719 9.52508E-05-2.85894E-05-2.85692E-05 1.74925E-08 2.86167E-19 6.38745E-20
 -1       720 9.52464E-05-2.85861E-05-2.85687E-05 2.21124E-08-7.50752E-19-5.46915E-19
 -1       721 1.28060E-04-5.91844E-05-2.95079E-05-1.39855E-05 1.61308E-18-3.84728E-18
 -1       722 7.26678E-05-3.54228E-05-1.56085E-05 3.64636E-05-4.26193E-18 2.90839E-18
 -1       723 1.21695E-04-1.11852E-05-4.78685E-05-3.65639E-06-6.45460E-18-1.19610E-18
 -1       724 4.66216E-05-1.81652E-05-1.17018E-05 2.34928E-05-3.59584E-18 4.74079E-18
 -1       725 4.48074E-05-1.68867E-05-1.13950E-05-2.38382E-05-1.57862E-18-7.17627E-18
 -1       726 1.26951E-04-5.81334E-05-2.95249E-05-1.61850E-05-1.47865E-18 6.55592E-19
 -1       727 1.16375E-04-5.65991E-05-2.54832E-05 2.69405E-05 2.17034E-18-1.83128E-19
 -1       728 1.04985E-04-3.28311E-05-3.09244E-05-6.07245E-06 9.21261E-19-5.09085E-19
 -1       729 1.17966E-04-4.34853E-05-3.19128E-05 3.39478E-06-2.51948E-19 1.24564E-18
 -1       730 9.86910E-05-2.49856E-05-3.15909E-05 3.42384E-06-1.84697E-18-1.97258E-18
 -1       731 1.02401E-04-2.92544E-05-3.13454E-05-4.95875E-06 1.84422E-18-8.21270E-19
 -1       732 1.30768E-04-5.96407E-05-3.04514E-05 1.26145E-05-2.11516E-18-3.59178E-18
 -1       733 8.30104E-05-1.23690E-05-3.02789E-05-3.28916E-06 1.64076E-18-3.52015E-18
 -1       734 8.27411E-05-1.21528E-05-3.02576E-05 3.26194E-06-7.70913E-19-4.24595E-18
 -1       735 1.22003E-04-1.15014E-05-4.79365E-05 3.97892E-06 6.46244E-18 5.89151E-20
 -1       736 1.32047E-04-3.40278E-05-4.23523E-05 1.55201E-05-2.71463E-18-4.45253E-18
 -1       737 1.11701E-04-5.43754E-05-2.44085E-05-2.88088E-05-2.69780E-18-1.82294E-18
 -1       738 1.37137E-04-5.24399E-05-3.64490E-05-3.86478E-06 6.44463E-19-4.38271E-18
 -1       739 4.65324E-05-1.77339E-05-1.17849E-05 2.55371E-05 1.95064E-18-6.40569E-18
 -1       740 1.35690E-04-4.59095E-05-3.87497E-05-9.35785E-06-1.95907E-18 2.65087E-18
 -1       741 8.21438E-05-3.87122E-05-1.82484E-05 3.65957E-05 3.14376E-18-3.71878E-18
 -1       742 1.08364E-04-5.38666E-05-2.31661E-05 2.98927E-05-4.22037E-18-1.04332E-18
 -1       743 1.27617E-04-2.67481E-05-4.36612E-05-1.46888E-05-4.26463E-18 2.11851E-18
 -1       744 4.73336E-05-1.75916E-05-1.22355E-05-2.22195E-05 4.71758E-19 4.78780E-18
 -1       745 1.36094E-04-5.40083E-05-3.53831E-05 2.19462E-06-1.77533E-19-4.07553E-18
 -1       746 9.68385E-05-2.17599E-05-3.21782E-05 9.02965E-07-2.39422E-18-2.43113E-18
 -1       747 8.85128E-05-1.61729E-05-3.10011E-05 2.91311E-06-1.34594E-18-3.51057E-18
 -1       748 7.56709E-05-7.21788E-06-2.93388E-05 9.39426E-07 1.72261E-19-4.71957E-18
 -1       749 1.31216E-04-4.10007E-05-3.89241E-05-1.36396E-05 2.93466E-18-4.40076E-18
 -1       750 7.49601E-05-3.70182E-05-1.58829E-05-3.69812E-05 2.99596E-18 2.21907E-18
 -1       751 9.52464E-05-2.85861E-05-2.85687E-05-2.20956E-08-1.24244E-18-3.07020E-19
 -1       752 9.52417E-05-2.85827E-05-2.85682E-05-2.40506E-08-2.35158E-18-3.58260E-19
 -1       753 1.08643E-04-5.34874E-05-2.34681E-05-2.92716E-05 3.34045E-18-1.23593E-18
 -1       754 4.12954E-05-1.10157E-05-1.25006E-05-1.01951E-05-3.63093E-19-6.85356E-18
 -1       755 1.31796E-04-3.96814E-05-3.95613E-05 1.38146E-05 1.99756E-18 2.09371E-18
 -1       756 1.31922E-04-5.46637E-05-3.32323E-05-4.02064E-07-7.43123E-19 1.97365E-18
 -1       757 7.81978E-05-8.98428E-06-2.96661E-05 2.57341E-06-2.97805E-19-4.53328E-18
 -1       758 9.60500E-05-4.47424E-05-2.17648E-05-3.25871E-05-2.79043E-18-2.99768E-18
 -1       759 9.52426E-05-2.85826E-05-2.85686E-05 2.49807E-08-2.07057E-18-4.07776E-18
 -1       760 9.36401E-05-2.23096E-05-3.05677E-05-5.53510E-06 1.71073E-18-2.21019E-18
 -1       761 4.93064E-05-1.34472E-05-1.50745E-05 1.01153E-05-2.49570E-18 4.77075E-18
 -1       762 9.44515E-05-2.34319E-05-3.04382E-05 6.24578E-06-1.06935E-18-2.29153E-18
 -1       763 1.27692E-04-5.36893E-05-3.17929E-05-1.27032E-06 1.32726E-18-3.73827E-18
 -1       764 1.01320E-04-3.37665E-05-2.89420E-05 1.15952E-05 3.75089E-20-1.33394E-18
 -1       765 1.07790E-04-4.08024E-05-2.87029E-05 1.21828E-05 5.96168E-19-5.19634E-19
 -1       766 1.17128E-04-4.86000E-05-2.93228E-05 9.71101E-06 7.63482E-19 4.06174E-19
 -1       767 1.12927E-04-4.66799E-05-2.83370E-05-1.09335E-05 1.81379E-18-2.12593E-18
 -1       768 1.04719E-04-3.95510E-05-2.79369E-05-1.27255E-05 6.87672E-19-1.81470E-18
 -1       769 9.92736E-05-3.38908E-05-2.80235E-05-1.25137E-05 1.04957E-18-2.02549E-18
 -1       770 9.61045E-05-3.00481E-05-2.83114E-05-1.13879E-05 1.68493E-18-1.20417E-18
 -1       771 9.44698E-05-2.77238E-05-2.86054E-05-1.00075E-05 9.91973E-19-1.25310E-18
 -1       772 9.37736E-05-2.64894E-05-2.88359E-05-8.60054E-06 6.19288E-19-1.33343E-18
 -1       773 9.36047E-05-2.59718E-05-2.89854E-05-7.26850E-06 1.34953E-18-1.45673E-18
 -1       774 9.37046E-05-2.58923E-05-2.90623E-05-6.04852E-06 1.46334E-18-1.30828E-18
 -1       775 9.39207E-05-2.60591E-05-2.90834E-05-4.95646E-06 1.19890E-19-1.87117E-19
 -1       776 9.41684E-05-2.63474E-05-2.90661E-05-3.99865E-06 1.36153E-19 4.07568E-19
 -1       777 9.44046E-05-2.66794E-05-2.90250E-05-3.17496E-06-2.29881E-19-2.66255E-19
 -1       778 9.46102E-05-2.70097E-05-2.89716E-05-2.48013E-06-9.39829E-19-7.13872E-19
 -1       779 9.47795E-05-2.73138E-05-2.89138E-05-1.90486E-06-9.21177E-19 5.68049E-19
 -1       780 9.49134E-05-2.75803E-05-2.88570E-05-1.43713E-06-6.63301E-19 7.91924E-19
 -1       781 9.50162E-05-2.78058E-05-2.88044E-05-1.06350E-06-3.53487E-19-5.83525E-19
 -1       782 9.50929E-05-2.79914E-05-2.87578E-05-7.70197E-07-4.31287E-19-1.96067E-18
 -1       783 9.51485E-05-2.81407E-05-2.87177E-05-5.43936E-07-2.27711E-18-3.96715E-18
 -1       784 9.51879E-05-2.82583E-05-2.86841E-05-3.72505E-07-2.07654E-18-3.15188E-19
 -1       785 9.52147E-05-2.83492E-05-2.86566E-05-2.45057E-07-1.49015E-18-3.29466E-19
 -1       786 9.52323E-05-2.84182E-05-2.86346E-05-1.52250E-07-1.96075E-19 8.55025E-19
 -1       787 9.52431E-05-2.84694E-05-2.86173E-05-8.62306E-08-1.23322E-18-3.05076E-19
 -1       788 9.52491E-05-2.85067E-05-2.86039E-05-4.05509E-08 5.69617E-19-2.72705E-19
 -1       789 9.52518E-05-2.85331E-05-2.85937E-05-1.00223E-08 1.10772E-18-4.33567E-19
 -1       790 9.52523E-05-2.85514E-05-2.85861E-05 9.44521E-09 1.95367E-18-1.57798E-18
 -1       791 9.52515E-05-2.85636E-05-2.85805E-05 2.10085E-08 1.02487E-18-1.00153E-18
 -1       792 9.52499E-05-2.85715E-05-2.85765E-05 2.70491E-08-2.54056E-19-1.68178E-18
 -1       793 9.52480E-05-2.85765E-05-2.85735E-05 2.93132E-08-2.10139E-19-3.35465E-18
 -1       794 9.52461E-05-2.85796E-05-2.85714E-05 2.90202E-08 4.45110E-19-2.11470E-18
 -1       795 9.52440E-05-2.85812E-05-2.85698E-05 2.75318E-08-1.88246E-18-1.58917E-18
 -1       796 4.97985E-05-1.32079E-05-1.53848E-05-8.24928E-06-6.93313E-19 4.57051E-18
 -1       797 1.24361E-04-4.97351E-05-3.20165E-05-2.32308E-06-8.57517E-19-2.54701E-18
 -1       798 1.16391E-04-4.69257E-05-2.97822E-05 5.21677E-06-1.53500E-18-9.49827E-19
 -1       799 1.08670E-04-4.11935E-05-2.89391E-05 9.19284E-06-1.61381E-18-8.70002E-19
 -1       800 1.02810E-04-3.57630E-05-2.87359E-05 1.06503E-05-1.16510E-18-4.05072E-19
 -1       801 9.90485E-05-3.17489E-05-2.88424E-05 1.05330E-05-5.07576E-19 3.23463E-19
 -1       802 9.68228E-05-2.91298E-05-2.90113E-05 9.73231E-06-4.03074E-19 1.86762E-18
 -1       803 9.56235E-05-2.76091E-05-2.91488E-05 8.63839E-06-1.24986E-18 2.16669E-18
 -1       804 9.50491E-05-2.68515E-05-2.92272E-05 7.45456E-06-7.52843E-19 3.10243E-18
 -1       805 9.48274E-05-2.65808E-05-2.92482E-05 6.28880E-06-6.95743E-19 2.67148E-18
 -1       806 9.47888E-05-2.65970E-05-2.92247E-05 5.20037E-06-4.41900E-19 1.60375E-18
 -1       807 9.48343E-05-2.67661E-05-2.91718E-05 4.22116E-06-7.52751E-20 9.45424E-19
 -1       808 9.49100E-05-2.70035E-05-2.91025E-05 3.36578E-06-7.61067E-19 6.30608E-19
 -1       809 9.49888E-05-2.72585E-05-2.90271E-05 2.63706E-06-7.20156E-19 2.42561E-19
 -1       810 9.50587E-05-2.75026E-05-2.89525E-05 2.02990E-06-2.76235E-19 4.70501E-20
 -1       811 9.51155E-05-2.77217E-05-2.88830E-05 1.53417E-06-2.11139E-20 8.07011E-20
 -1       812 9.51591E-05-2.79099E-05-2.88210E-05 1.13705E-06-2.63720E-19 7.86074E-20
 -1       813 9.51912E-05-2.80667E-05-2.87676E-05 8.24651E-07 2.41936E-19 8.01287E-19
 -1       814 9.52138E-05-2.81939E-05-2.87228E-05 5.83287E-07 1.05527E-18 2.32183E-19
 -1       815 9.52291E-05-2.82949E-05-2.86860E-05 4.00178E-07 1.90181E-19-5.29005E-19
 -1       816 9.52388E-05-2.83735E-05-2.86565E-05 2.63893E-07 4.98596E-19-6.46171E-19
 -1       817 9.52445E-05-2.84335E-05-2.86333E-05 1.64540E-07-5.79994E-19-6.40681E-19
 -1       818 9.52475E-05-2.84784E-05-2.86153E-05 9.37832E-08-4.58568E-19 1.31890E-18
 -1       819 9.52486E-05-2.85114E-05-2.86017E-05 4.47601E-08-1.12470E-18 2.58165E-18
 -1       820 9.52484E-05-2.85349E-05-2.85915E-05 1.19416E-08-4.33127E-19 9.68780E-19
 -1       821 9.52475E-05-2.85514E-05-2.85841E-05-9.03744E-09 2.05547E-19-6.04995E-19
 -1       822 9.52463E-05-2.85625E-05-2.85788E-05-2.15511E-08 1.08828E-18-2.08988E-18
 -1       823 9.52448E-05-2.85698E-05-2.85750E-05-2.81479E-08 9.48739E-19-1.06489E-18
 -1       824 9.52435E-05-2.85745E-05-2.85724E-05-3.06999E-08 6.62917E-19 1.62789E-19
 -1       825 9.52423E-05-2.85775E-05-2.85706E-05-3.05246E-08-1.61046E-18-8.76803E-19
 -1       826 9.52414E-05-2.85796E-05-2.85693E-05-2.84857E-08-2.40342E-18-1.97887E-18
 -1       827 9.52415E-05-2.85811E-05-2.85688E-05-2.64525E-08-3.18635E-18-8.17721E-19
 -1       828 7.59851E-05-1.00745E-05-2.82481E-05-3.50968E-06 6.38847E-19-4.16298E-18
 -1       829 9.52595E-05-2.85903E-05-2.85725E-05 7.00446E-11-3.44339E-20 6.38622E-19
 -1       830 9.52586E-05-2.85898E-05-2.85723E-05 8.23071E-09 3.56342E-19 1.23945E-18
 -1       831 1.19937E-04-5.44580E-05-2.80518E-05 1.46075E-05-2.85112E-18-2.17735E-18
 -1       832 1.21472E-04-5.39195E-05-2.89748E-05 1.32296E-05 1.51001E-18 6.35081E-19
 -1       833 9.21730E-05-4.09127E-05-2.18485E-05 2.89186E-05-3.45258E-18 5.95080E-19
 -1       834 9.52513E-05-2.85859E-05-2.85709E-05 2.21407E-08-4.72632E-19-1.49526E-18
 -1       835 9.52559E-05-2.85884E-05-2.85718E-05 1.58644E-08 9.11840E-19-1.49774E-18
 -1       836 4.43305E-05-1.09987E-05-1.38997E-05 1.04350E-05 1.17468E-18-6.52893E-18
 -1       837 1.08584E-04-3.98315E-05-2.95034E-05-9.40980E-06-2.59190E-19-5.84277E-19
 -1       838 1.18993E-04-5.41858E-05-2.77589E-05-1.54986E-05 3.01948E-18-3.59674E-18
 -1       839 1.02959E-04-3.36771E-05-2.96890E-05-9.29942E-06 3.91784E-19-8.52923E-19
 -1       840 9.27189E-05-1.89614E-05-3.16115E-05 1.99390E-06-1.92315E-18-3.09763E-18
 -1       841 9.71716E-05-2.80955E-05-2.96023E-05 9.35487E-06-5.30927E-19-1.55569E-18
 -1       842 6.73175E-05-2.54159E-05-1.77103E-05 2.68462E-05-3.15204E-18 2.82414E-18
 -1       843 1.17931E-04-5.32390E-05-2.76668E-05-1.77732E-05-2.33910E-18 2.61920E-19
 -1       844 1.29468E-04-5.09075E-05-3.37805E-05-3.96672E-06-1.23948E-19 1.91325E-18
 -1       845 1.01362E-04-4.46600E-05-2.42017E-05 2.63957E-05 2.63037E-18-1.36944E-18
 -1       846 6.95722E-05-2.68724E-05-1.80935E-05-2.72787E-05 1.89093E-18 1.28085E-18
 -1       847 6.61346E-05-2.51169E-05-1.72679E-05-2.91522E-05-1.97809E-18-5.65061E-18
 -1       848 6.82073E-05-2.40960E-05-1.86646E-05 2.65011E-05 2.39476E-18-4.10425E-18
 -1       849 9.83453E-05-2.61553E-05-3.09475E-05-5.41512E-06 1.70016E-18-1.54295E-18
 -1       850 9.40292E-05-4.20133E-05-2.21746E-05-2.84271E-05 3.57547E-18-9.97719E-19
 -1       851 7.41677E-05-8.77584E-06-2.80249E-05-1.08883E-07 3.93603E-19-4.27986E-18
 -1       852 1.28461E-04-4.86376E-05-3.44136E-05-7.55194E-06 9.37030E-20-3.78076E-18
 -1       853 9.52513E-05-2.85859E-05-2.85709E-05-2.21196E-08-2.64532E-18 2.06697E-18
 -1       854 1.07126E-04-4.66163E-05-2.58339E-05 1.98443E-05-2.73280E-18-1.03350E-18
 -1       855 6.41064E-05-1.93461E-05-1.90841E-05-1.78650E-05 9.78128E-19 1.68485E-18
 -1       856 8.66998E-05-1.75587E-05-2.96360E-05 6.34516E-06-6.60660E-19-3.48671E-18
 -1       857 1.16444E-04-4.63081E-05-3.00618E-05-6.61772E-06-9.55127E-19 2.57917E-19
 -1       858 9.52586E-05-2.85898E-05-2.85723E-05-8.22849E-09 6.18807E-19-2.83878E-18
 -1       859 8.06910E-05-1.33969E-05-2.88414E-05-5.73265E-06 9.48150E-19-3.66630E-18
 -1       860 9.52559E-05-2.85884E-05-2.85718E-05-1.58568E-08-5.66112E-19 2.63011E-18
 -1       861 8.70505E-05-1.78109E-05-2.96739E-05-6.30039E-06 1.24140E-18-2.87780E-18
 -1       862 9.52480E-05-2.85836E-05-2.85704E-05 2.51643E-08-2.95567E-18-2.96037E-18
 -1       863 5.69059E-05-1.67105E-05-1.69225E-05-2.04724E-05-1.18104E-18-6.03246E-18
 -1       864 6.13677E-05-1.61097E-05-1.91669E-05 1.79855E-05 1.70350E-18-4.88825E-18
 -1       865 8.71225E-05-3.24945E-05-2.33326E-05 2.46522E-05 2.08977E-18-2.93474E-18
 -1       866 1.00157E-04-2.95433E-05-3.02589E-05-7.78031E-06 1.03882E-18-1.26343E-18
 -1       867 8.03840E-05-1.31589E-05-2.88060E-05 5.61533E-06-2.09447E-19-4.18468E-18
 -1       868 1.02090E-04-4.28355E-05-2.53696E-05-2.30350E-05-1.94162E-18-1.36180E-18
 -1       869 6.43462E-05-1.83725E-05-1.95842E-05 1.56227E-05-2.44195E-18 3.67183E-18
 -1       870 8.28584E-05-3.06312E-05-2.23023E-05 2.35001E-05-3.39175E-18 7.71051E-19
 -1       871 9.52636E-05-2.85872E-05-2.85756E-05 4.35328E-09-5.37738E-19 2.23358E-18
 -1       872 9.41006E-05-3.32317E-05-2.60825E-05-1.67834E-05 8.92264E-19-8.46943E-19
 -1       873 9.11063E-05-2.86213E-05-2.67838E-05-1.37944E-05 1.76560E-18 3.37209E-19
 -1       874 9.00338E-05-2.60530E-05-2.74205E-05-1.12740E-05 1.22546E-18-1.50621E-20
 -1       875 8.99955E-05-2.47822E-05-2.79482E-05-9.20750E-06 1.14479E-18-5.26764E-19
 -1       876 9.04432E-05-2.43291E-05-2.83345E-05-7.54365E-06 3.88191E-19-7.57077E-20
 -1       877 9.10992E-05-2.43729E-05-2.85970E-05-6.17313E-06 1.56196E-18-4.31791E-19
 -1       878 9.18052E-05-2.46967E-05-2.87609E-05-5.02507E-06 1.40961E-18-1.28209E-18
 -1       879 9.24767E-05-2.51576E-05-2.88512E-05-4.05512E-06 4.45005E-19-9.65874E-19
 -1       880 9.30730E-05-2.56647E-05-2.88894E-05-3.23574E-06-4.65320E-19-3.81584E-19
 -1       881 9.35792E-05-2.61628E-05-2.88929E-05-2.54823E-06-8.21210E-19-9.43994E-19
 -1       882 9.39950E-05-2.66209E-05-2.88747E-05-1.97774E-06 4.11861E-20-9.93321E-19
 -1       883 9.43276E-05-2.70240E-05-2.88445E-05-1.51073E-06-1.58713E-19 3.16865E-21
 -1       884 9.45875E-05-2.73672E-05-2.88088E-05-1.13410E-06-1.30122E-18-1.06515E-19
 -1       885 9.47864E-05-2.76517E-05-2.87721E-05-8.35119E-07-1.47650E-18-1.41529E-18
 -1       886 9.49355E-05-2.78824E-05-2.87371E-05-6.01598E-07-2.18534E-18-1.69317E-18
 -1       887 9.50447E-05-2.80656E-05-2.87053E-05-4.22258E-07 2.91085E-19-7.41160E-19
 -1       888 9.51228E-05-2.82084E-05-2.86776E-05-2.86949E-07-1.27392E-18 3.92830E-19
 -1       889 9.51771E-05-2.83176E-05-2.86541E-05-1.86782E-07 8.90980E-20 1.64672E-18
 -1       890 9.52136E-05-2.83996E-05-2.86346E-05-1.14172E-07-1.38863E-18 1.15095E-18
 -1       891 9.52368E-05-2.84597E-05-2.86188E-05-6.27884E-08-8.63159E-19 1.33593E-18
 -1       892 9.52506E-05-2.85030E-05-2.86061E-05-2.74580E-08 1.08564E-18 1.06946E-18
 -1       893 9.52578E-05-2.85332E-05-2.85962E-05-4.04018E-09 1.59522E-18 1.41534E-18
 -1       894 9.52604E-05-2.85537E-05-2.85886E-05 1.07142E-08 2.61740E-19-3.38976E-20
 -1       895 9.52601E-05-2.85671E-05-2.85827E-05 1.93000E-08 4.42050E-19-2.12107E-18
 -1       896 9.52581E-05-2.85755E-05-2.85782E-05 2.35888E-08-7.01470E-19-1.93383E-18
 -1       897 9.52552E-05-2.85807E-05-2.85748E-05 2.49432E-08 4.98345E-20-1.72595E-18
 -1       898 1.21529E-04-4.85530E-05-3.13531E-05-1.39041E-06-8.79263E-19 7.25483E-19
 -1       899 8.80775E-05-2.17418E-05-2.84285E-05 1.04260E-05-5.78365E-20-3.19857E-18
 -1       900 9.49883E-05-3.12063E-05-2.73351E-05 1.35209E-05-1.61676E-18 3.10128E-19
 -1       901 9.28679E-05-2.79753E-05-2.78109E-05 1.15127E-05-1.62189E-18 1.41784E-18
 -1       902 9.20415E-05-2.61724E-05-2.82294E-05 9.69960E-06-1.24812E-18 2.06423E-18
 -1       903 9.19388E-05-2.53355E-05-2.85439E-05 8.10440E-06-1.00416E-18 1.66667E-18
 -1       904 9.22081E-05-2.51096E-05-2.87563E-05 6.71977E-06-7.35167E-19 1.75625E-18
 -1       905 9.26353E-05-2.52419E-05-2.88827E-05 5.51946E-06-6.21841E-20 1.87148E-18
 -1       906 9.31009E-05-2.55646E-05-2.89440E-05 4.48201E-06-3.22346E-19 1.91062E-18
 -1       907 9.35420E-05-2.59700E-05-2.89594E-05 3.59239E-06-3.51596E-19 2.42856E-18
 -1       908 9.39298E-05-2.63918E-05-2.89448E-05 2.83852E-06-8.20699E-19 2.79203E-18
 -1       909 9.42546E-05-2.67919E-05-2.89125E-05 2.20880E-06 4.98221E-19 2.22712E-18
 -1       910 9.45171E-05-2.71506E-05-2.88714E-05 1.69094E-06 9.89246E-19-2.45640E-19
 -1       911 9.47236E-05-2.74597E-05-2.88273E-05 1.27194E-06 4.49226E-19-3.64435E-19
 -1       912 9.48819E-05-2.77183E-05-2.87844E-05 9.38471E-07-8.35428E-19-4.74241E-19
 -1       913 9.50006E-05-2.79293E-05-2.87448E-05 6.77483E-07 1.14845E-18-1.32011E-18
 -1       914 9.50875E-05-2.80978E-05-2.87098E-05 4.76690E-07 5.97840E-19-5.49844E-19
 -1       915 9.51495E-05-2.82298E-05-2.86799E-05 3.24939E-07 8.37700E-20 4.37957E-19
 -1       916 9.51925E-05-2.83312E-05-2.86548E-05 2.12412E-07-1.53692E-19 1.08772E-18
 -1       917 9.52211E-05-2.84075E-05-2.86344E-05 1.30694E-07-6.68885E-19 1.60367E-18
 -1       918 9.52393E-05-2.84639E-05-2.86180E-05 7.27457E-08-1.16710E-18 6.65349E-19
 -1       919 9.52499E-05-2.85046E-05-2.86051E-05 3.28027E-08-7.10341E-20-5.04464E-19
 -1       920 9.52552E-05-2.85332E-05-2.85952E-05 6.24088E-09 1.05551E-18-2.91626E-19
 -1       921 9.52570E-05-2.85527E-05-2.85876E-05-1.05749E-08 1.13238E-18-3.39712E-19
 -1       922 9.52566E-05-2.85656E-05-2.85818E-05-2.04425E-08-4.28991E-19 5.21485E-19
 -1       923 9.52547E-05-2.85738E-05-2.85775E-05-2.54642E-08-1.66351E-19 1.50291E-18
 -1       924 9.52523E-05-2.85789E-05-2.85743E-05-2.71875E-08 6.92860E-20 2.79220E-18
 -1       925 9.52497E-05-2.85820E-05-2.85718E-05-2.66739E-08-1.53270E-18 2.71758E-18
 -1       926 5.20679E-05-9.83197E-06-1.78616E-05-2.31547E-06 1.20610E-19-5.56925E-18
 -1       927 9.52466E-05-2.85838E-05-2.85698E-05-2.50016E-08-3.89795E-18 9.28987E-19
 -1       928 8.41362E-05-3.18696E-05-2.22651E-05-2.40804E-05 1.79199E-18-5.42640E-19
 -1       929 9.94470E-05-3.65211E-05-2.69506E-05 1.54609E-05-1.71452E-18 5.24747E-20
 -1       930 7.58131E-05-9.93903E-06-2.82324E-05 3.32088E-06 5.14592E-20-4.40093E-18
 -1       931 9.96682E-05-3.42542E-05-2.79794E-05-1.41865E-05-4.09949E-19-1.10053E-18
 -1       932 9.59596E-05-3.33132E-05-2.68371E-05 1.71123E-05 8.74352E-19-2.04297E-18
 -1       933 8.15032E-05-2.90840E-05-2.23381E-05-2.47401E-05-1.83946E-18-3.87236E-18
 -1       934 9.11252E-05-2.68408E-05-2.75380E-05 1.39278E-05 2.93654E-19-2.67603E-18
 -1       935 5.65670E-05-1.34000E-05-1.83667E-05 1.19445E-06-9.24455E-19 3.16115E-18
 -1       936 9.22391E-05-2.40076E-05-2.92446E-05-9.22686E-06 6.92982E-19-2.22217E-18
 -1       937 7.23406E-05-1.05258E-05-2.64889E-05-3.02326E-06 3.85505E-19-4.11420E-18
 -1       938 9.95141E-05-4.07302E-05-2.51015E-05-2.08483E-05 1.84585E-18-1.09418E-18
 -1       939 1.12875E-04-4.55037E-05-2.86046E-05-1.21321E-05-1.56922E-18 1.54749E-19
 -1       940 9.52616E-05-2.85865E-05-2.85750E-05 1.28085E-08 2.37698E-19-1.41435E-18
 -1       941 1.03702E-04-4.24393E-05-2.61702E-05 2.04402E-05 1.46975E-18-1.38579E-18
 -1       942 6.41106E-05-1.61659E-05-2.05084E-05-8.95390E-06 6.28413E-19 2.51295E-18
 -1       943 9.52513E-05-2.85825E-05-2.85724E-05 2.55754E-08 2.53703E-19-2.63152E-18
 -1       944 9.52636E-05-2.85872E-05-2.85756E-05-4.34392E-09 3.95355E-19-1.60340E-18
 -1       945 7.69655E-05-1.37803E-05-2.70851E-05-7.59920E-06 4.44957E-19-3.87072E-18
 -1       946 7.28656E-05-2.17859E-05-2.17685E-05-2.08882E-05-1.42522E-18-4.49881E-18
 -1       947 7.73681E-05-2.38163E-05-2.28595E-05 2.07820E-05 1.56720E-18-3.53600E-18
 -1       948 9.61050E-05-2.89172E-05-2.87876E-05-1.14536E-05 2.42520E-19-1.61058E-18
 -1       949 9.52564E-05-2.85848E-05-2.85736E-05-2.09252E-08-3.33221E-19 2.82456E-18
 -1       950 9.52564E-05-2.85848E-05-2.85735E-05 2.08759E-08-1.21673E-18-2.29598E-18
 -1       951 7.22096E-05-1.04266E-05-2.64750E-05 2.69572E-06 4.22439E-19-4.16900E-18
 -1       952 9.41780E-05-3.36380E-05-2.60229E-05-1.94463E-05-1.30049E-18-1.49376E-18
 -1       953 8.40382E-05-2.34438E-05-2.59731E-05-1.18880E-05 1.20678E-18-1.05555E-18
 -1       954 8.52821E-05-2.25448E-05-2.68863E-05-9.12248E-06 8.67341E-19-1.44826E-18
 -1       955 8.67244E-05-2.24041E-05-2.75650E-05-7.15992E-06 1.35591E-18-1.46497E-18
 -1       956 8.81384E-05-2.26994E-05-2.80448E-05-5.70262E-06 1.08804E-18-2.90369E-19
 -1       957 8.94396E-05-2.32390E-05-2.83714E-05-4.57405E-06 7.18673E-19-7.91223E-19
 -1       958 9.05904E-05-2.38957E-05-2.85833E-05-3.66973E-06 1.10637E-18-2.28977E-18
 -1       959 9.15789E-05-2.45850E-05-2.87116E-05-2.92934E-06 5.52652E-19-2.32527E-18
 -1       960 9.24077E-05-2.52525E-05-2.87807E-05-2.31759E-06-4.08485E-19-1.91706E-18
 -1       961 9.30880E-05-2.58659E-05-2.88094E-05-1.81236E-06-3.60335E-19-2.02178E-18
 -1       962 9.36355E-05-2.64081E-05-2.88117E-05-1.39794E-06-1.68046E-19-2.53330E-18
 -1       963 9.40681E-05-2.68732E-05-2.87978E-05-1.06169E-06-6.79854E-19-2.68619E-18
 -1       964 9.44038E-05-2.72622E-05-2.87749E-05-7.92432E-07-8.35732E-19-1.13201E-18
 -1       965 9.46596E-05-2.75804E-05-2.87482E-05-5.79967E-07-1.88682E-19 7.99650E-19
 -1       966 9.48507E-05-2.78357E-05-2.87207E-05-4.14922E-07-5.83684E-19 1.48857E-18
 -1       967 9.49906E-05-2.80365E-05-2.86946E-05-2.88827E-07-3.57346E-19 9.90683E-19
 -1       968 9.50906E-05-2.81917E-05-2.86709E-05-1.94186E-07-3.84510E-19 1.56541E-18
 -1       969 9.51601E-05-2.83094E-05-2.86503E-05-1.24511E-07-1.34978E-18 1.02302E-18
 -1       970 9.52066E-05-2.83969E-05-2.86327E-05-7.43115E-08-1.31711E-18 2.35528E-19
 -1       971 9.52363E-05-2.84606E-05-2.86182E-05-3.90397E-08 1.11428E-18 2.79746E-19
 -1       972 9.52539E-05-2.85058E-05-2.86063E-05-1.50012E-08 1.46312E-18 5.93901E-19
 -1       973 9.52629E-05-2.85370E-05-2.85968E-05 7.44348E-10 1.15765E-18 6.19459E-19
 -1       974 9.52662E-05-2.85578E-05-2.85893E-05 1.04935E-08-1.64497E-18-6.27900E-20
 -1       975 9.52657E-05-2.85712E-05-2.85834E-05 1.59873E-08-8.74833E-19-2.10390E-18
 -1       976 9.52631E-05-2.85795E-05-2.85787E-05 1.86102E-08 3.20105E-19-2.78527E-18
 -1       977 8.82058E-05-2.34944E-05-2.77338E-05 8.17864E-06-9.34066E-19 2.33918E-19
 -1       978 7.65960E-05-1.35157E-05-2.70378E-05 7.45063E-06 2.10800E-19-4.08148E-18
 -1       979 8.74624E-05-2.41657E-05-2.71341E-05 1.02860E-05-9.02173E-19 7.26973E-19
 -1       980 8.74395E-05-2.59634E-05-2.63325E-05 1.30107E-05-2.03534E-18 1.45430E-18
 -1       981 8.91771E-05-2.34482E-05-2.81694E-05 6.58583E-06-3.86748E-19 6.05542E-19
 -1       982 9.01811E-05-2.37595E-05-2.84664E-05 5.32418E-06-1.09276E-18 5.26070E-20
 -1       983 9.11283E-05-2.42626E-05-2.86567E-05 4.29518E-06-5.05388E-20 1.44970E-18
 -1       984 9.19728E-05-2.48464E-05-2.87684E-05 3.44238E-06-4.71993E-19 7.92747E-19
 -1       985 9.26970E-05-2.54399E-05-2.88245E-05 2.73185E-06-8.05672E-19-1.55151E-19
 -1       986 9.32998E-05-2.60002E-05-2.88427E-05 2.14164E-06 4.84782E-19-7.12573E-19
 -1       987 9.37894E-05-2.65040E-05-2.88366E-05 1.65554E-06 7.94142E-19 4.17546E-19
 -1       988 9.41784E-05-2.69409E-05-2.88161E-05 1.25991E-06 2.11624E-19 1.38016E-18
 -1       989 9.44814E-05-2.73092E-05-2.87881E-05 9.42339E-07-2.79226E-19 7.94233E-19
 -1       990 9.47129E-05-2.76124E-05-2.87574E-05 6.91231E-07 1.11184E-18 2.60636E-19
 -1       991 9.48861E-05-2.78566E-05-2.87269E-05 4.95801E-07-2.49576E-19 5.32513E-19
 -1       992 9.50131E-05-2.80497E-05-2.86986E-05 3.46218E-07-3.15977E-19 1.17334E-18
 -1       993 9.51039E-05-2.81994E-05-2.86734E-05 2.33737E-07 3.20757E-19 1.32093E-18
 -1       994 9.51670E-05-2.83133E-05-2.86516E-05 1.50761E-07-6.18191E-19 6.40403E-19
 -1       995 9.52094E-05-2.83983E-05-2.86333E-05 9.08425E-08-6.53792E-19 1.04600E-18
 -1       996 9.52364E-05-2.84604E-05-2.86183E-05 4.86277E-08 3.96347E-20 6.55359E-19
 -1       997 9.52524E-05-2.85047E-05-2.86062E-05 1.97600E-08 5.53751E-19-1.83732E-19
 -1       998 9.52607E-05-2.85355E-05-2.85965E-05 7.64395E-10 1.18931E-18 5.75288E-19
 -1       999 9.52637E-05-2.85562E-05-2.85890E-05-1.10759E-08 5.87575E-19 2.36046E-18
 -1      1000 9.52634E-05-2.85695E-05-2.85831E-05-1.78347E-08-7.53515E-19 2.94320E-18
 -1      1001 9.52611E-05-2.85778E-05-2.85785E-05-2.10585E-08-4.18184E-19 2.63481E-18
 -1      1002 9.52588E-05-2.85818E-05-2.85759E-05-2.14977E-08-5.98083E-19 2.82820E-18
 -1      1003 8.09720E-05-2.52130E-05-2.38541E-05-1.72306E-05 1.73274E-18-4.40657E-19
 -1      1004 9.52615E-05-2.85864E-05-2.85750E-05-1.27429E-08-3.87570E-19 2.10846E-18
 -1      1005 6.18748E-05-1.14184E-05-2.15348E-05 6.41420E-06 8.30853E-19-4.71466E-18
 -1      1006 8.53436E-05-2.76297E-05-2.47253E-05 1.71340E-05-2.25900E-18 1.28331E-18
 -1      1007 7.34722E-05-1.95955E-05-2.30530E-05 1.21544E-05-2.01475E-18 1.35000E-18
 -1      1008 6.29404E-05-1.26293E-05-2.14858E-05-9.92989E-06-2.30497E-19-4.83329E-18
 -1      1009 8.43458E-05-1.88257E-05-2.80824E-05-9.67348E-06 4.97277E-19-3.13878E-18
 -1      1010 8.66393E-05-2.73115E-05-2.53542E-05-1.84924E-05-1.11432E-18-3.08854E-18
 -1      1011 8.57184E-05-2.59818E-05-2.55611E-05 1.76408E-05 8.92010E-19-3.24594E-18
 -1      1012 6.48109E-05-1.50306E-05-2.12561E-05 3.86435E-06-3.27829E-19 2.36821E-18
 -1      1013 7.15524E-05-1.59847E-05-2.38062E-05 1.28359E-05 9.88648E-19-3.90865E-18
 -1      1014 9.52666E-05-2.85825E-05-2.85789E-05 8.46765E-09-8.97240E-19 2.15991E-18
 -1      1015 9.52680E-05-2.85829E-05-2.85793E-05 8.06837E-12-1.67719E-19 5.25939E-19
 -1      1016 8.69923E-05-2.34635E-05-2.72374E-05-1.32390E-05-1.57666E-19-2.93953E-18
 -1      1017 6.73081E-05-1.06267E-05-2.42696E-05-2.20749E-07 4.40531E-19-4.37000E-18
 -1      1018 7.10921E-05-1.32680E-05-2.47685E-05-8.29628E-06 1.10771E-19-4.05745E-18
 -1      1019 7.94171E-05-1.85325E-05-2.60918E-05 1.25709E-05 5.88582E-19-3.80044E-18
 -1      1020 8.89376E-05-2.58668E-05-2.70240E-05-1.46943E-05-2.48438E-19-2.54467E-18
 -1      1021 8.58562E-05-2.16562E-05-2.75154E-05 5.66985E-06-4.79998E-19 3.29771E-19
 -1      1022 7.38220E-05-1.76341E-05-2.40609E-05-6.75553E-06 2.57316E-19 6.77691E-19
 -1      1023 7.84582E-05-1.87156E-05-2.56022E-05-4.78371E-06 9.15731E-19-1.42646E-19
 -1      1024 7.93676E-05-2.05081E-05-2.52248E-05 9.64694E-06-1.80909E-18 5.74169E-19
 -1      1025 8.18241E-05-1.96090E-05-2.66654E-05-3.55040E-06 6.46780E-19-1.12477E-19
 -1      1026 8.44940E-05-2.05512E-05-2.74053E-05-2.72259E-06-1.54367E-19-1.48112E-18
 -1      1027 8.66563E-05-2.15198E-05-2.79164E-05-2.13452E-06 7.28016E-20-3.58745E-18
 -1      1028 8.84299E-05-2.24845E-05-2.82627E-05-1.69209E-06 3.32802E-19-3.49074E-18
 -1      1029 8.98902E-05-2.34137E-05-2.84901E-05-1.34459E-06 5.89691E-19-2.94754E-18
 -1      1030 9.10884E-05-2.42801E-05-2.86323E-05-1.06433E-06-1.96723E-19-2.92342E-18
 -1      1031 9.20633E-05-2.50638E-05-2.87142E-05-8.35521E-07-3.75351E-19-3.21853E-18
 -1      1032 9.28475E-05-2.57536E-05-2.87546E-05-6.48449E-07 1.68168E-19-2.95427E-18
 -1      1033 9.34699E-05-2.63463E-05-2.87673E-05-4.96359E-07 3.80911E-19-2.07539E-18
 -1      1034 9.39567E-05-2.68441E-05-2.87626E-05-3.73949E-07 7.32947E-19-9.58762E-19
 -1      1035 9.43314E-05-2.72539E-05-2.87475E-05-2.76679E-07 1.16096E-19-3.89751E-20
 -1      1036 9.46149E-05-2.75848E-05-2.87272E-05-2.00497E-07-7.41179E-19-1.26561E-18
 -1      1037 9.48255E-05-2.78472E-05-2.87050E-05-1.41762E-07-3.06356E-19-2.00736E-18
 -1      1038 9.49785E-05-2.80515E-05-2.86830E-05-9.72388E-08 2.98442E-19-1.06284E-18
 -1      1039 9.50871E-05-2.82078E-05-2.86626E-05-6.40999E-08-1.23994E-18-7.12672E-19
 -1      1040 9.51619E-05-2.83250E-05-2.86444E-05-3.99278E-08-7.38534E-19 5.88562E-19
 -1      1041 9.52114E-05-2.84111E-05-2.86287E-05-2.26968E-08 1.51064E-19 1.11094E-18
 -1      1042 9.52424E-05-2.84730E-05-2.86155E-05-1.07436E-08-2.85299E-19 1.08276E-19
 -1      1043 9.52602E-05-2.85163E-05-2.86045E-05-2.72968E-09 4.21463E-19-1.96502E-18
 -1      1044 9.52688E-05-2.85457E-05-2.85956E-05 2.40341E-09 2.38880E-19-2.98901E-18
 -1      1045 9.52712E-05-2.85648E-05-2.85885E-05 5.43204E-09-2.88606E-19-2.70501E-19
 -1      1046 9.52700E-05-2.85758E-05-2.85833E-05 7.36264E-09-1.52224E-18 3.76202E-19
 -1      1047 7.09744E-05-1.29903E-05-2.48507E-05 7.86887E-06 6.08194E-19-3.95026E-18
 -1      1048 8.39549E-05-2.13571E-05-2.68312E-05 7.30268E-06-6.76737E-19 1.40368E-18
 -1      1049 8.90582E-05-2.29512E-05-2.83317E-05 3.57150E-06-1.14743E-18-7.08697E-19
 -1      1050 9.03295E-05-2.37201E-05-2.85470E-05 2.84929E-06-5.23525E-19 6.50607E-19
 -1      1051 9.13984E-05-2.44807E-05-2.86791E-05 2.26281E-06-2.21663E-20 1.09592E-18
 -1      1052 9.22824E-05-2.51938E-05-2.87523E-05 1.78177E-06 6.97262E-19-6.92197E-19
 -1      1053 9.30016E-05-2.58361E-05-2.87852E-05 1.38706E-06-6.68973E-20-6.46475E-19
 -1      1054 9.35769E-05-2.63966E-05-2.87916E-05 1.06518E-06 2.58750E-19-2.33321E-19
 -1      1055 9.40295E-05-2.68729E-05-2.87814E-05 8.05374E-07 5.03831E-19-1.09577E-19
 -1      1056 9.43794E-05-2.72683E-05-2.87619E-05 5.98329E-07-3.65300E-20-6.14476E-19
 -1      1057 9.46452E-05-2.75900E-05-2.87380E-05 4.35684E-07-1.71711E-19 2.49063E-19
 -1      1058 9.48433E-05-2.78466E-05-2.87129E-05 3.09885E-07-2.21901E-19 3.91413E-19
 -1      1059 9.49878E-05-2.80476E-05-2.86887E-05 2.14186E-07-3.36190E-19 5.43869E-19
 -1      1060 9.50907E-05-2.82021E-05-2.86666E-05 1.42675E-07 7.62067E-20 1.91899E-18
 -1      1061 9.51619E-05-2.83187E-05-2.86471E-05 9.02762E-08-2.75235E-19 1.27361E-18
 -1      1062 9.52094E-05-2.84049E-05-2.86305E-05 5.27229E-08-5.70198E-19 9.23434E-19
 -1      1063 9.52393E-05-2.84673E-05-2.86166E-05 2.64994E-08 2.91800E-19 9.28072E-19
 -1      1064 9.52568E-05-2.85113E-05-2.86052E-05 8.76560E-09 2.38281E-19 2.27505E-18
 -1      1065 9.52655E-05-2.85414E-05-2.85961E-05-2.72844E-09 2.19797E-21 2.90219E-18
 -1      1066 9.52684E-05-2.85613E-05-2.85888E-05-9.73109E-09-1.35488E-18 4.30590E-18
 -1      1067 9.52676E-05-2.85739E-05-2.85830E-05-1.36156E-08-8.42186E-19 4.11029E-18
 -1      1068 7.85765E-05-1.81519E-05-2.58729E-05-1.24445E-05-9.07334E-20-3.67832E-18
 -1      1069 9.52668E-05-2.85827E-05-2.85789E-05-8.50629E-09 9.79041E-20-6.93925E-19
 -1      1070 8.75702E-05-2.22340E-05-2.80015E-05 4.48114E-06-1.76264E-19-1.25413E-19
 -1      1071 9.52637E-05-2.85825E-05-2.85776E-05-1.53132E-08 2.83178E-19 2.57809E-18
 -1      1072 7.68944E-05-1.98954E-05-2.43904E-05-1.59054E-05-6.95012E-19-3.98689E-18
 -1      1073 7.31994E-05-1.72234E-05-2.39679E-05 4.56719E-06-1.13635E-18 8.34762E-19
 -1      1074 7.47997E-05-1.72797E-05-2.46784E-05 1.21441E-07-6.80010E-19 4.07740E-19
 -1      1075 7.93114E-05-1.85294E-05-2.60478E-05 6.86202E-08-8.02127E-19-1.70303E-18
 -1      1076 8.26045E-05-1.96591E-05-2.69774E-05 3.75919E-08-1.67746E-19-2.89534E-18
 -1      1077 8.51855E-05-2.07406E-05-2.76201E-05 2.15127E-08-5.59938E-19-1.78441E-18
 -1      1078 8.72589E-05-2.17862E-05-2.80603E-05 1.18534E-08-2.97916E-19-2.03528E-18
 -1      1079 8.89487E-05-2.27870E-05-2.83554E-05 5.94948E-09 1.90775E-19-2.94483E-18
 -1      1080 9.03307E-05-2.37235E-05-2.85463E-05 2.43268E-09 9.57953E-19-3.33172E-18
 -1      1081 9.14568E-05-2.45776E-05-2.86628E-05 4.59015E-10 1.97202E-19-1.19479E-18
 -1      1082 9.23667E-05-2.53368E-05-2.87273E-05-5.38531E-10-5.04979E-19-1.23421E-19
 -1      1083 9.30933E-05-2.59956E-05-2.87563E-05-9.44939E-10 4.97636E-19-4.43540E-19
 -1      1084 9.36659E-05-2.65546E-05-2.87621E-05-1.01599E-09 1.07243E-18 1.06638E-19
 -1      1085 9.41104E-05-2.70192E-05-2.87535E-05-9.15580E-10-2.31600E-19-1.07904E-18
 -1      1086 9.44499E-05-2.73979E-05-2.87366E-05-7.43849E-10-1.12036E-18-1.33131E-18
 -1      1087 9.47047E-05-2.77009E-05-2.87159E-05-5.58129E-10-8.97557E-19-9.30347E-19
 -1      1088 9.48921E-05-2.79391E-05-2.86942E-05-3.88155E-10-3.96843E-19-1.16942E-18
 -1      1089 9.50270E-05-2.81229E-05-2.86732E-05-2.46695E-10 2.22412E-19-9.69736E-19
 -1      1090 9.51215E-05-2.82622E-05-2.86540E-05-1.36722E-10 3.70630E-19 9.74327E-19
 -1      1091 9.51855E-05-2.83657E-05-2.86371E-05-5.60555E-11-5.72473E-20 9.00723E-19
 -1      1092 9.52269E-05-2.84409E-05-2.86226E-05-2.48819E-13-1.05070E-18 1.16171E-18
 -1      1093 9.52520E-05-2.84943E-05-2.86104E-05 3.56664E-11-1.87929E-18 5.24265E-19
 -1      1094 9.52656E-05-2.85311E-05-2.86005E-05 5.60801E-11-9.57687E-19-1.42080E-18
 -1      1095 9.52712E-05-2.85557E-05-2.85924E-05 6.45077E-11 8.00555E-19-1.85139E-18
 -1      1096 9.52718E-05-2.85698E-05-2.85865E-05 4.60199E-10-2.37430E-20-2.66516E-18
 -1      1097 9.13124E-05-2.44508E-05-2.86549E-05 1.10604E-06 1.36887E-18-1.23412E-18
 -1      1098 9.01703E-05-2.36081E-05-2.85266E-05 1.40206E-06 2.42814E-19-1.46315E-18
 -1      1099 8.87795E-05-2.27029E-05-2.83185E-05 1.76944E-06-8.69711E-19-8.50567E-20
 -1      1100 9.22412E-05-2.52112E-05-2.87271E-05 8.65136E-07 4.28821E-19-8.91851E-19
 -1      1101 9.29875E-05-2.58788E-05-2.87608E-05 6.68988E-07-1.88141E-19-6.29831E-19
 -1      1102 9.35787E-05-2.64505E-05-2.87692E-05 5.10227E-07 6.94298E-19-7.34407E-19
 -1      1103 9.40400E-05-2.69295E-05-2.87616E-05 3.83006E-07 1.41670E-19-1.16518E-18
 -1      1104 9.43942E-05-2.73226E-05-2.87450E-05 2.82328E-07-5.22489E-19-8.25588E-19
 -1      1105 9.46614E-05-2.76392E-05-2.87238E-05 2.03782E-07-4.23955E-19-5.86727E-19
 -1      1106 9.48592E-05-2.78895E-05-2.87013E-05 1.43446E-07-4.56246E-19 6.38672E-19
 -1      1107 9.50024E-05-2.80838E-05-2.86794E-05 9.78694E-08-8.27879E-20 1.14187E-18
 -1      1108 9.51036E-05-2.82320E-05-2.86593E-05 6.40651E-08 6.45441E-19-1.16779E-19
 -1      1109 9.51728E-05-2.83428E-05-2.86414E-05 3.94971E-08 4.56044E-21 4.46713E-20
 -1      1110 9.52182E-05-2.84239E-05-2.86261E-05 2.20531E-08-1.26721E-19-5.48499E-19
 -1      1111 9.52464E-05-2.84820E-05-2.86133E-05 1.00079E-08-1.05264E-18 1.46217E-18
 -1      1112 9.52622E-05-2.85224E-05-2.86028E-05 1.97887E-09-1.31504E-18 2.94854E-18
 -1      1113 9.52694E-05-2.85496E-05-2.85942E-05-3.11811E-09-3.85355E-19 2.49688E-18
 -1      1114 9.52711E-05-2.85673E-05-2.85873E-05-6.13435E-09-1.26574E-18 1.13483E-18
 -1      1115 7.91756E-05-1.89238E-05-2.58215E-05 4.42527E-06-1.56479E-18-7.14618E-20
 -1      1116 9.52706E-05-2.85757E-05-2.85835E-05-3.93287E-09 6.06935E-19-1.83282E-18
 -1      1117 8.70949E-05-2.17639E-05-2.79989E-05 2.23584E-06 3.68795E-20 1.27632E-19
 -1      1118 8.50524E-05-2.08268E-05-2.75254E-05 2.85074E-06 2.93927E-19 2.83603E-19
 -1      1119 8.25520E-05-1.99254E-05-2.68396E-05 3.70826E-06-8.96480E-19 5.09128E-19
 -1      1120 1.22087E-04 2.76062E-10-4.40973E-05-3.98145E-05-4.20128E-19 1.56756E-17
 -1      1121 9.47046E-05 8.59880E-11-3.95539E-05-1.99834E-05-2.45851E-19 2.60431E-18
 -1      1122 8.85093E-05 4.93527E-11-3.75040E-05-1.22045E-05-1.80100E-19-3.08789E-18
 -1      1123 8.44140E-05 3.39083E-11-3.59171E-05-7.50869E-06-1.28643E-19-5.80367E-18
 -1      1124 8.10370E-05 2.34279E-11-3.45723E-05-4.31083E-06-8.00446E-20-7.20396E-18
 -1      1125 7.82177E-05 1.53533E-11-3.34508E-05-2.21610E-06-5.18808E-20-7.86057E-18
 -1      1126 7.60350E-05 9.13163E-12-3.25838E-05-9.68093E-07-2.51992E-20-8.14605E-18
 -1      1127 7.46284E-05 5.13151E-12-3.20274E-05-3.17016E-07-9.71441E-21-8.18125E-18
 -1      1128 7.41543E-05 3.79147E-12-3.18399E-05 1.30824E-08 1.19974E-20-8.12586E-18
 -1      1129 7.46605E-05 5.28303E-12-3.20394E-05 3.52217E-07 3.03873E-20-7.99414E-18
 -1      1130 7.60936E-05 9.42243E-12-3.26057E-05 1.02976E-06 4.76456E-20-7.62073E-18
 -1      1131 7.82977E-05 1.56952E-11-3.34786E-05 2.32034E-06 7.45389E-20-7.01166E-18
 -1      1132 8.11185E-05 2.39473E-11-3.46020E-05 4.46799E-06 1.06197E-19-6.06694E-18
 -1      1133 8.44882E-05 3.45427E-11-3.59459E-05 7.73390E-06 1.45796E-19-4.34499E-18
 -1      1134 8.85411E-05 4.99508E-11-3.75345E-05 1.24933E-05 1.92700E-19-1.13422E-18
 -1      1135 9.43755E-05 8.13496E-11-3.96095E-05 1.99178E-05 2.28487E-19 4.98897E-18
 -1      1136 1.12252E-04 1.83352E-10-4.29267E-05 3.43088E-05 4.71374E-19 1.76804E-17
 -1      1137 1.36130E-04-2.76061E-05-4.26072E-05-2.50853E-05-1.84759E-18 2.40193E-17
 -1      1138 1.07999E-04-3.20488E-05-3.48043E-05-2.00784E-07-5.95570E-19 1.97432E-17
 -1      1139 1.04695E-04-3.14044E-05-3.21999E-05 5.35313E-07-2.42066E-19 1.35378E-17
 -1      1140 1.06075E-04-3.19190E-05-3.19553E-05 3.65057E-07-1.49713E-19 9.44151E-18
 -1      1141 1.08703E-04-3.26712E-05-3.25803E-05 2.77729E-07-1.60290E-19 6.53973E-18
 -1      1142 1.11498E-04-3.34586E-05-3.33387E-05 2.08114E-07-1.63421E-19 4.53152E-18
 -1      1143 1.13449E-04-3.39994E-05-3.38316E-05 1.04791E-07-3.18961E-20 3.22162E-18
 -1      1144 1.13466E-04-3.39716E-05-3.37465E-05-6.47284E-08-8.09975E-20 1.77164E-18
 -1      1145 1.10585E-04-3.30947E-05-3.28525E-05-3.01104E-07-4.56273E-20 6.65768E-19
 -1      1146 1.04501E-04-3.12902E-05-3.11293E-05-5.43487E-07 9.74750E-21-7.94940E-19
 -1      1147 9.62396E-05-2.88747E-05-2.89084E-05-6.63290E-07 2.12461E-20-1.76712E-18
 -1      1148 8.83719E-05-2.66010E-05-2.68715E-05-5.30268E-07 8.69466E-20-1.16599E-18
 -1      1149 8.41237E-05-2.53844E-05-2.58031E-05-1.39882E-07-1.03027E-19-2.79848E-18
 -1      1150 8.55511E-05-2.57978E-05-2.61820E-05 3.30404E-07 6.61281E-20-4.81554E-18
 -1      1151 9.21579E-05-2.77036E-05-2.78938E-05 6.40745E-07 5.58512E-21-4.80776E-18
 -1      1152 1.01242E-04-3.03442E-05-3.03015E-05 6.75864E-07-1.78184E-19-5.18585E-18
 -1      1153 1.09627E-04-3.28093E-05-3.26126E-05 5.00072E-07-1.17043E-19-5.18850E-18
 -1      1154 1.15254E-04-3.44860E-05-3.42534E-05 2.57117E-07 2.55377E-19-4.55344E-18
 -1      1155 1.17615E-04-3.52079E-05-3.50219E-05 5.50721E-08-1.73456E-19-5.12867E-18
 -1      1156 1.17278E-04-3.51308E-05-3.50185E-05-6.78788E-08-1.01280E-19-5.93253E-18
 -1      1157 1.15203E-04-3.45322E-05-3.44845E-05-1.20776E-07 3.23841E-20-5.28576E-18
 -1      1158 1.12282E-04-3.36752E-05-3.36696E-05-1.28425E-07 1.75447E-19-4.27805E-18
 -1      1159 1.09156E-04-3.27509E-05-3.27669E-05-1.13399E-07-1.02343E-20-4.00108E-18
 -1      1160 1.06210E-04-3.18752E-05-3.18989E-05-9.04496E-08-1.63971E-19-4.83146E-18
 -1      1161 1.03633E-04-3.11061E-05-3.11300E-05-6.74089E-08 1.42490E-20-5.28097E-18
 -1      1162 1.01489E-04-3.04639E-05-3.04846E-05-4.76196E-08-1.56742E-20-3.28447E-18
 -1      1163 9.97680E-05-2.99470E-05-2.99635E-05-3.19872E-08 3.03027E-19-2.63942E-18
 -1      1164 9.84270E-05-2.95430E-05-2.95555E-05-2.02890E-08-1.32134E-20-3.53747E-18
 -1      1165 9.74078E-05-2.92351E-05-2.92443E-05-1.18873E-08-4.85720E-21-2.72354E-18
 -1      1166 9.66515E-05-2.90061E-05-2.90125E-05-6.07214E-09-6.93115E-20-1.89453E-18
 -1      1167 9.61038E-05-2.88397E-05-2.88441E-05-2.20255E-09-3.29935E-19-3.07655E-18
 -1      1168 9.57176E-05-2.87221E-05-2.87249E-05 2.48823E-10 3.46545E-20-4.86892E-18
 -1      1169 9.54540E-05-2.86415E-05-2.86432E-05 1.69469E-09 3.18225E-20-6.08883E-18
 -1      1170 9.52812E-05-2.85884E-05-2.85893E-05 2.44785E-09 1.40189E-19-6.15775E-18
 -1      1171 9.51744E-05-2.85553E-05-2.85557E-05 2.73977E-09 5.96676E-19-4.33038E-18
 -1      1172 9.51143E-05-2.85364E-05-2.85366E-05 2.73823E-09 1.38876E-19-3.34898E-18
 -1      1173 9.50862E-05-2.85274E-05-2.85273E-05 2.56230E-09-7.88043E-20-4.40953E-18
 -1      1174 9.50794E-05-2.85249E-05-2.85247E-05 2.29448E-09-3.11340E-20-3.06105E-18
 -1      1175 9.50860E-05-2.85265E-05-2.85262E-05 1.99032E-09 2.39550E-19-2.66120E-18
 -1      1176 9.51004E-05-2.85306E-05-2.85303E-05 1.68574E-09 2.01221E-19-2.40335E-18
 -1      1177 9.51188E-05-2.85359E-05-2.85356E-05 1.40272E-09-3.90929E-19-1.84089E-18
 -1      1178 9.51387E-05-2.85417E-05-2.85415E-05 1.15342E-09-5.28559E-19-4.18978E-18
 -1      1179 9.51584E-05-2.85476E-05-2.85474E-05 9.43091E-10 1.52283E-19-5.21156E-18
 -1      1180 9.51769E-05-2.85531E-05-2.85529E-05 7.71913E-10-3.00053E-19-3.63536E-18
 -1      1181 9.51938E-05-2.85581E-05-2.85580E-05 6.35411E-10 1.94347E-19-4.12024E-18
 -1      1182 9.52087E-05-2.85625E-05-2.85624E-05 5.22943E-10 2.10894E-19-6.50191E-19
 -1      1183 9.52212E-05-2.85662E-05-2.85661E-05 4.12150E-10-1.81517E-20 2.61982E-18
 -1      1184 9.52307E-05-2.85691E-05-2.85689E-05 2.50690E-10 2.43774E-19 2.90457E-18
 -1      1185 9.52363E-05-2.85707E-05-2.85706E-05-6.69104E-11 2.79522E-19 2.56726E-18
 -1      1186 9.52378E-05-2.85713E-05-2.85715E-05-2.20605E-10-6.17172E-20 2.70191E-18
 -1      1187 1.36743E-04-3.91517E-05-4.10538E-05 1.19519E-05-3.23408E-19 2.80906E-17
 -1      1188 1.07283E-04-3.14142E-05-3.45803E-05 6.07457E-07 2.06491E-19 2.24411E-17
 -1      1189 1.04841E-04-3.12915E-05-3.21763E-05 1.45336E-08 1.67792E-19 1.68921E-17
 -1      1190 1.06055E-04-3.18146E-05-3.19708E-05-8.72696E-08 7.67359E-20 1.30742E-17
 -1      1191 1.08592E-04-3.25796E-05-3.25714E-05-1.47520E-07 5.24056E-20 1.04599E-17
 -1      1192 1.11311E-04-3.33654E-05-3.32989E-05-1.93799E-07-2.80861E-20 8.72097E-18
 -1      1193 1.13190E-04-3.39039E-05-3.37621E-05-2.13732E-07-1.52995E-20 7.77239E-18
 -1      1194 1.13152E-04-3.38900E-05-3.36485E-05-1.71457E-07-3.77624E-20 7.07701E-18
 -1      1195 1.10258E-04-3.30529E-05-3.27333E-05-2.99039E-08 1.01181E-20 5.49830E-18
 -1      1196 1.04223E-04-3.13032E-05-3.10051E-05 2.10328E-07 3.85499E-20 4.08063E-18
 -1      1197 9.60589E-05-2.89113E-05-2.88014E-05 4.68043E-07-1.08816E-21 2.80823E-18
 -1      1198 8.82889E-05-2.65858E-05-2.68007E-05 5.93092E-07-2.50106E-20 2.40610E-18
 -1      1199 8.40822E-05-2.52649E-05-2.57727E-05 4.68806E-07 1.03166E-19 1.05188E-18
 -1      1200 8.54727E-05-2.56052E-05-2.61766E-05 1.31005E-07-6.59759E-20-4.71612E-19
 -1      1201 9.19891E-05-2.75254E-05-2.78890E-05-2.41289E-07 3.15665E-19-2.72363E-18
 -1      1202 1.00976E-04-3.02399E-05-3.02770E-05-4.67751E-07 3.13832E-21-3.46606E-18
 -1      1203 1.09303E-04-3.27768E-05-3.25620E-05-4.92874E-07-1.38738E-19-2.92560E-18
 -1      1204 1.14922E-04-3.44897E-05-3.41833E-05-3.77644E-07 1.30119E-19-1.64965E-18
 -1      1205 1.17319E-04-3.52164E-05-3.49450E-05-2.18380E-07-2.15672E-19-2.06350E-18
 -1      1206 1.17041E-04-3.51287E-05-3.49469E-05-8.05232E-08-1.07940E-19-1.59872E-18
 -1      1207 1.15029E-04-3.45178E-05-3.44248E-05 1.19096E-08 6.98670E-20-2.62412E-18
 -1      1208 1.12162E-04-3.36523E-05-3.36237E-05 6.13975E-08 1.65647E-20-3.45818E-18
 -1      1209 1.09078E-04-3.27242E-05-3.27335E-05 8.02388E-08 9.55477E-20-2.97790E-18
 -1      1210 1.06162E-04-3.18485E-05-3.18757E-05 8.08444E-08 1.87199E-19-4.31407E-18
 -1      1211 1.03604E-04-3.10816E-05-3.11143E-05 7.23391E-08-3.51494E-20-2.44414E-18
 -1      1212 1.01472E-04-3.04426E-05-3.04743E-05 6.04011E-08 2.56014E-19-1.54937E-18
 -1      1213 9.97592E-05-2.99292E-05-2.99569E-05 4.81453E-08-1.52420E-19-1.69925E-18
 -1      1214 9.84225E-05-2.95285E-05-2.95513E-05 3.70601E-08-5.32291E-21-1.77752E-18
 -1      1215 9.74058E-05-2.92236E-05-2.92417E-05 2.77045E-08-2.05473E-19-2.19120E-18
 -1      1216 9.66508E-05-2.89970E-05-2.90110E-05 2.01518E-08 1.63429E-19-3.54767E-18
 -1      1217 9.61036E-05-2.88328E-05-2.88433E-05 1.42483E-08-7.37006E-20-4.03139E-18
 -1      1218 9.57178E-05-2.87168E-05-2.87245E-05 9.75349E-09 1.98780E-19-3.66864E-18
 -1      1219 9.54542E-05-2.86375E-05-2.86430E-05 6.41159E-09-1.12991E-19-2.37899E-18
 -1      1220 9.52814E-05-2.85855E-05-2.85893E-05 3.98507E-09 2.25013E-19-1.97096E-18
 -1      1221 9.51746E-05-2.85532E-05-2.85558E-05 2.26796E-09-1.41145E-19-2.20211E-18
 -1      1222 9.51144E-05-2.85350E-05-2.85367E-05 1.08895E-09 1.00773E-19-3.61339E-18
 -1      1223 9.50863E-05-2.85264E-05-2.85275E-05 3.09602E-10 2.10764E-19-5.78255E-18
 -1      1224 9.50795E-05-2.85243E-05-2.85248E-05-1.79466E-10 1.37396E-19-6.49346E-18
 -1      1225 9.50861E-05-2.85261E-05-2.85264E-05-4.63088E-10-3.64072E-20-5.02586E-18
 -1      1226 9.51005E-05-2.85304E-05-2.85304E-05-6.05969E-10-2.65527E-20-4.88638E-18
 -1      1227 9.51188E-05-2.85358E-05-2.85357E-05-6.56750E-10-3.89970E-20-5.58481E-18
 -1      1228 9.51387E-05-2.85417E-05-2.85416E-05-6.51540E-10-2.30197E-19-1.67712E-18
 -1      1229 9.51584E-05-2.85476E-05-2.85474E-05-6.16913E-10-1.35713E-21-2.85706E-18
 -1      1230 9.51769E-05-2.85531E-05-2.85530E-05-5.72305E-10 1.70227E-20-3.68959E-18
 -1      1231 9.51938E-05-2.85582E-05-2.85580E-05-5.31493E-10 6.88810E-20-2.93916E-18
 -1      1232 9.52087E-05-2.85626E-05-2.85624E-05-5.02430E-10 1.79751E-19-5.70214E-18
 -1      1233 9.52211E-05-2.85663E-05-2.85661E-05-4.83890E-10-9.40254E-20-9.01260E-18
 -1      1234 9.52307E-05-2.85691E-05-2.85689E-05-4.42247E-10 5.44239E-19-1.10069E-17
 -1      1235 9.52364E-05-2.85709E-05-2.85706E-05-2.50645E-10 6.45700E-19-1.31713E-17
 -1      1236 9.52377E-05-2.85713E-05-2.85715E-05 1.92965E-10-1.96678E-19-9.18233E-18
 -1      1237 9.52370E-05-2.85706E-05-2.85715E-05 1.74298E-10-9.20954E-18-8.00505E-19
 -1      1238 9.52375E-05-2.85720E-05-2.85706E-05 5.36639E-11-9.21834E-18 5.68555E-19
 -1      1239 9.52391E-05-2.85776E-05-2.85689E-05-3.07275E-10 6.06478E-19 4.33118E-19
 -1      1240 9.52416E-05-2.85860E-05-2.85666E-05-4.31466E-10 3.27180E-18-5.88415E-20
 -1      1241 9.52444E-05-2.85953E-05-2.85639E-05-4.33252E-10 4.17859E-18-5.62399E-19
 -1      1242 9.52469E-05-2.86040E-05-2.85614E-05-3.64345E-10 4.92920E-18-4.33978E-19
 -1      1243 9.52490E-05-2.86110E-05-2.85594E-05-2.64435E-10 5.58589E-18 7.59663E-20
 -1      1244 9.52503E-05-2.86156E-05-2.85581E-05-1.36436E-10 4.97719E-18-1.17705E-19
 -1      1245 9.52508E-05-2.86171E-05-2.85576E-05 1.19587E-12 3.72139E-18-7.31670E-20
 -1      1246 9.52503E-05-2.86155E-05-2.85581E-05 1.38806E-10 2.93225E-18-5.72431E-19
 -1      1247 9.52490E-05-2.86109E-05-2.85594E-05 2.66300E-10-3.05655E-20-1.68758E-18
 -1      1248 9.52469E-05-2.86039E-05-2.85615E-05 3.71470E-10-3.15873E-18 4.10639E-19
 -1      1249 9.52443E-05-2.85952E-05-2.85640E-05 4.34074E-10-3.34444E-19 9.59495E-19
 -1      1250 9.52416E-05-2.85858E-05-2.85666E-05 4.37118E-10 9.50343E-18 8.53151E-19
 -1      1251 9.52391E-05-2.85773E-05-2.85690E-05 3.66343E-10 7.31268E-18-4.84597E-19
 -1      1252 9.52376E-05-2.85722E-05-2.85706E-05-1.74714E-10-1.20298E-19-1.68263E-18
 -1      1253 9.52369E-05-2.85705E-05-2.85715E-05-1.89463E-10-1.85436E-18-1.13942E-20
 -1      1254 3.48737E-05-1.08315E-04 1.83700E-05-1.30759E-05 7.63219E-18 1.76289E-18
 -1      1255 1.92237E-05-7.05048E-05 1.08507E-05-2.58248E-05 2.04050E-17 7.67835E-18
 -1      1256 7.42521E-06-1.56545E-05-3.72750E-06-5.27456E-06 2.67256E-17 1.61080E-17
 -1      1257 2.68025E-05 2.15330E-05-2.25928E-05 4.33786E-05 2.84332E-17 2.57049E-17
 -1      1258 9.08188E-05 1.81295E-05-4.26341E-05 9.31061E-05 2.14409E-17 2.73761E-17
 -1      1259 1.85496E-04-2.16233E-05-6.05992E-05 1.11324E-04 1.07895E-17 2.19839E-17
 -1      1260 2.73415E-04-7.06986E-05-7.34303E-05 7.69452E-05 2.96504E-18 8.74477E-18
 -1      1261 3.13511E-04-9.52596E-05-7.84037E-05 3.32782E-06 8.79432E-19-6.99257E-18
 -1      1262 2.82113E-04-7.56062E-05-7.45655E-05-7.20878E-05 5.11746E-18-2.05931E-17
 -1      1263 1.93359E-04-2.50201E-05-6.20044E-05-1.09879E-04 1.36381E-17-2.91549E-17
 -1      1264 9.15429E-05 1.79551E-05-4.25657E-05-9.27276E-05 2.37813E-17-3.15859E-17
 -1      1265 2.41889E-05 2.05988E-05-2.13237E-05-3.97069E-05 2.94869E-17-2.57091E-17
 -1      1266 7.22904E-06-1.86102E-05-2.80516E-06 8.00926E-06 2.71915E-17-1.57302E-17
 -1      1267 1.97310E-05-7.20551E-05 1.11321E-05 2.51176E-05 1.72947E-17-6.41331E-18
 -1      1268 3.54897E-05-1.10111E-04 1.84032E-05 1.14652E-05 3.59565E-18-1.57425E-18
 -1      1269 3.23071E-05-1.03886E-04 1.76754E-05-1.47862E-05-1.20905E-17-3.13855E-18
 -1      1270 1.61318E-05-6.12009E-05 8.43890E-06-2.41062E-05-2.55109E-17-9.91410E-18
 -1      1271 7.67994E-06-6.79887E-06-6.80423E-06 1.02074E-06-2.99697E-17-1.88609E-17
 -1      1272 3.62996E-05 2.43620E-05-2.67303E-05 5.45683E-05-2.84078E-17-2.75946E-17
 -1      1273 1.10506E-04 1.23153E-05-4.73552E-05 1.02826E-04-2.18255E-17-3.16519E-17
 -1      1274 2.07519E-04-3.29426E-05-6.41802E-05 1.09806E-04-1.17318E-17-2.67188E-17
 -1      1275 2.88808E-04-7.92103E-05-7.53144E-05 6.33281E-05-3.53520E-18-1.40345E-17
 -1      1276 3.09211E-04-9.13465E-05-7.80971E-05-1.56273E-05-1.40989E-18 2.13177E-18
 -1      1277 2.61999E-04-6.42735E-05-7.16164E-05-8.75615E-05-5.45172E-18 1.67281E-17
 -1      1278 1.65409E-04-1.17641E-05-5.74466E-05-1.11057E-04-1.41776E-17 2.65426E-17
 -1      1279 7.68973E-05 2.19949E-05-3.93550E-05-8.68891E-05-2.21990E-17 2.82130E-17
 -1      1280 2.18346E-05 1.86545E-05-1.99730E-05-3.61391E-05-2.55516E-17 2.20305E-17
 -1      1281 7.18251E-06-1.97425E-05-2.22047E-06 9.22235E-06-2.45352E-17 1.40616E-17
 -1      1282 1.96666E-05-7.17632E-05 1.11551E-05 2.57023E-05-1.90252E-17 6.70490E-18
 -1      1283 3.49629E-05-1.08659E-04 1.84371E-05 1.27948E-05-7.40391E-18 2.00067E-18
 -1      1284 1.12198E-04-2.39403E-05-4.03631E-05-1.52884E-05-6.59839E-19 1.29160E-17
 -1      1285 9.70242E-05-8.06267E-06-3.82521E-05-1.57669E-05-1.91197E-18-4.99749E-20
 -1      1286 1.00183E-04-8.34652E-06-3.96157E-05-2.17486E-05-2.46063E-18 2.94587E-18
 -1      1287 9.02986E-05-4.86079E-06-3.66760E-05-1.06344E-05-1.93261E-18-4.27916E-18
 -1      1288 9.27348E-05-4.92978E-06-3.75354E-05-1.35087E-05-2.19847E-18-2.47254E-18
 -1      1289 9.88961E-05-1.22834E-05-3.71703E-05-1.39986E-05-3.36052E-18-2.89050E-20
 -1      1290 8.56178E-05-3.36043E-06-3.52884E-05-6.63749E-06-1.54356E-18-6.39710E-18
 -1      1291 8.76108E-05-3.37768E-06-3.60089E-05-8.56345E-06-1.78555E-18-5.44152E-18
 -1      1292 9.17900E-05-8.20595E-06-3.58882E-05-9.64456E-06-2.99471E-18-3.54579E-18
 -1      1293 8.17185E-05-2.31544E-06-3.40652E-05-3.79368E-06-1.11914E-18-7.50344E-18
 -1      1294 8.34266E-05-2.33634E-06-3.46836E-05-5.11765E-06-1.27590E-18-6.98436E-18
 -1      1295 8.65090E-05-5.76099E-06-3.46712E-05-6.02873E-06-2.32336E-18-5.33988E-18
 -1      1296 7.85313E-05-1.50867E-06-3.30522E-05-1.93741E-06-7.33848E-19-8.02145E-18
 -1      1297 7.99148E-05-1.52851E-06-3.35501E-05-2.78667E-06-8.88432E-19-7.78345E-18
 -1      1298 8.21959E-05-3.97512E-06-3.35810E-05-3.45497E-06-1.64859E-18-6.28581E-18
 -1      1299 7.60848E-05-8.82800E-07-3.22772E-05-8.14712E-07-3.97761E-19-8.22251E-18
 -1      1300 7.71010E-05-9.00740E-07-3.26409E-05-1.32180E-06-4.98611E-19-8.15285E-18
 -1      1301 7.87111E-05-2.59460E-06-3.26719E-05-1.75697E-06-1.02850E-18-6.80742E-18
 -1      1302 7.46376E-05-4.82904E-07-3.18250E-05-2.30259E-07-4.80559E-20-8.27962E-18
 -1      1303 7.51693E-05-4.93288E-07-3.20144E-05-5.07929E-07-1.59322E-19-8.27083E-18
 -1      1304 7.61856E-05-1.60540E-06-3.20088E-05-7.41710E-07-4.48332E-19-6.94331E-18
 -1      1305 7.43387E-05-3.52478E-07-3.17393E-05 1.13218E-07 2.81764E-19-8.18361E-18
 -1      1306 7.43290E-05-3.52779E-07-3.17362E-05-8.76415E-08 1.63464E-19-8.24648E-18
 -1      1307 7.48671E-05-1.08995E-06-3.16622E-05-1.86632E-07 8.82403E-20-6.99704E-18
 -1      1308 7.52211E-05-5.08215E-07-3.20287E-05 5.46959E-07 5.73944E-19-7.97871E-18
 -1      1309 7.46718E-05-4.98323E-07-3.18336E-05 2.60127E-07 4.77521E-19-8.11282E-18
 -1      1310 7.48934E-05-1.10427E-06-3.16676E-05 2.12587E-07 5.98243E-19-6.87351E-18
 -1      1311 7.71874E-05-9.30966E-07-3.26638E-05 1.39060E-06 8.88538E-19-7.58799E-18
 -1      1312 7.61577E-05-9.11798E-07-3.22959E-05 8.65819E-07 7.70032E-19-7.83296E-18
 -1      1313 7.62603E-05-1.64664E-06-3.20238E-05 7.84773E-07 1.11155E-18-6.60533E-18
 -1      1314 7.99928E-05-1.56085E-06-3.35688E-05 2.88058E-06 1.26886E-18-6.87455E-18
 -1      1315 7.86055E-05-1.54167E-06-3.30698E-05 2.01171E-06 1.09582E-18-7.28080E-18
 -1      1316 7.87990E-05-2.64915E-06-3.26864E-05 1.81958E-06 1.61892E-18-6.18521E-18
 -1      1317 8.35441E-05-2.38789E-06-3.47108E-05 5.28343E-06 1.73059E-18-5.80165E-18
 -1      1318 8.18337E-05-2.36850E-06-3.40922E-05 3.92857E-06 1.53318E-18-6.44851E-18
 -1      1319 8.23058E-05-4.04931E-06-3.35965E-05 3.55769E-06 2.30803E-18-5.38845E-18
 -1      1320 8.77275E-05-3.43744E-06-3.60337E-05 8.79700E-06 2.14299E-18-3.90699E-18
 -1      1321 8.57376E-05-3.42533E-06-3.53139E-05 6.83671E-06 1.91567E-18-5.07232E-18
 -1      1322 8.66686E-05-5.87400E-06-3.46928E-05 6.20402E-06 2.95249E-18-4.14686E-18
 -1      1323 9.28665E-05-4.94946E-06-3.75638E-05 1.37911E-05 2.45978E-18-4.43210E-19
 -1      1324 9.04152E-05-4.93283E-06-3.66964E-05 1.09274E-05 2.18826E-18-2.53226E-18
 -1      1325 9.19708E-05-8.35752E-06-3.59035E-05 9.90605E-06 3.48371E-18-1.98926E-18
 -1      1326 1.00824E-04-8.35718E-06-3.94977E-05 2.12936E-05 2.12595E-18 6.17074E-18
 -1      1327 9.68902E-05-7.84657E-06-3.82781E-05 1.64705E-05 2.06422E-18 2.16496E-18
 -1      1328 9.91412E-05-1.25150E-05-3.71602E-05 1.46693E-05 3.65391E-18 1.90551E-18
 -1      1329 1.30509E-04-2.67450E-05-4.13681E-05 2.65448E-05 1.06652E-18 1.85828E-17
 -1      1330 1.07811E-04-1.63473E-05-3.98012E-05 2.10673E-05 1.06610E-18 9.94406E-18
 -1      1331 1.10181E-04-2.19192E-05-3.78730E-05 1.74316E-05 3.49375E-18 7.88143E-18
 -1      1332 1.11530E-04-3.06263E-05-3.73873E-05 5.29499E-06 1.90064E-18 1.78267E-17
 -1      1333 1.14691E-04-3.32236E-05-3.63334E-05-5.81225E-06-2.05257E-18 1.36624E-17
 -1      1334 1.09592E-04-3.13792E-05-3.40567E-05-3.13312E-06-1.88671E-18 1.12501E-17
 -1      1335 1.07834E-04-3.15912E-05-3.29190E-05-7.17527E-07-1.47918E-18 1.02144E-17
 -1      1336 1.07278E-04-3.18080E-05-3.23801E-05-3.25734E-07-1.44086E-18 8.01555E-18
 -1      1337 1.10325E-04-3.14642E-05-3.41618E-05-4.41716E-06-3.30645E-18 5.95771E-18
 -1      1338 1.06753E-04-3.17770E-05-3.21177E-05 7.83433E-07-1.16904E-18 7.20492E-18
 -1      1339 1.07561E-04-3.21546E-05-3.22684E-05 8.76817E-07-1.09751E-18 5.56813E-18
 -1      1340 1.07738E-04-3.17554E-05-3.26876E-05 1.25160E-07-2.58734E-18 4.43337E-18
 -1      1341 1.07924E-04-3.23118E-05-3.23618E-05 1.28160E-06-8.25000E-19 4.85149E-18
 -1      1342 1.09178E-04-3.27727E-05-3.27092E-05 1.29868E-06-7.68027E-19 3.75143E-18
 -1      1343 1.07783E-04-3.21707E-05-3.24304E-05 1.91817E-06-1.90333E-18 2.99093E-18
 -1      1344 1.09864E-04-3.30238E-05-3.29004E-05 1.23943E-06-5.38994E-19 3.42418E-18
 -1      1345 1.10990E-04-3.34400E-05-3.32127E-05 1.16522E-06-5.90031E-19 2.63406E-18
 -1      1346 1.08895E-04-3.27517E-05-3.26294E-05 2.35634E-06-1.24885E-18 1.97176E-18
 -1      1347 1.11584E-04-3.36830E-05-3.33564E-05 6.66392E-07-4.34237E-19 2.41624E-18
 -1      1348 1.12061E-04-3.38962E-05-3.34745E-05 4.81948E-07-3.48633E-19 1.84311E-18
 -1      1349 1.10247E-04-3.34028E-05-3.29039E-05 1.72277E-06-1.00798E-18 1.57658E-18
 -1      1350 1.12185E-04-3.40117E-05-3.34615E-05-4.45180E-07-2.60476E-19 1.50053E-18
 -1      1351 1.11511E-04-3.38423E-05-3.32523E-05-7.38851E-07-3.71609E-19 1.02155E-18
 -1      1352 1.11080E-04-3.39015E-05-3.30158E-05 4.04220E-08-7.64771E-19 1.11847E-18
 -1      1353 1.10855E-04-3.37037E-05-3.30099E-05-1.94858E-06-2.74750E-19 9.68092E-19
 -1      1354 1.08714E-04-3.30120E-05-3.24029E-05-2.29495E-06-3.11503E-19 3.43869E-19
 -1      1355 1.10695E-04-3.39488E-05-3.28034E-05-2.52395E-06-6.19962E-19 8.71365E-19
 -1      1356 1.07150E-04-3.25278E-05-3.19277E-05-3.40185E-06-2.23339E-19 2.39128E-19
 -1      1357 1.03697E-04-3.13266E-05-3.09880E-05-3.66236E-06-5.57070E-19-2.40716E-19
 -1      1358 1.08603E-04-3.32481E-05-3.22055E-05-5.35544E-06-6.44738E-19 6.05337E-19
 -1      1359 1.01466E-04-3.05323E-05-3.03795E-05-4.07725E-06-3.95286E-19-4.86726E-19
 -1      1360 9.75584E-05-2.91054E-05-2.93490E-05-4.06777E-06 2.30279E-20-6.80273E-19
 -1      1361 1.04853E-04-3.16902E-05-3.13105E-05-7.27759E-06-6.42091E-19 4.72181E-19
 -1      1362 9.53660E-05-2.82535E-05-2.87991E-05-3.30148E-06-4.09024E-20-1.13174E-18
 -1      1363 9.24149E-05-2.71379E-05-2.80401E-05-2.92228E-06-4.57001E-19-1.49705E-18
 -1      1364 1.00368E-04-2.96277E-05-3.03660E-05-6.93077E-06-3.44484E-19-4.16687E-19
 -1      1365 9.12185E-05-2.66439E-05-2.77593E-05-1.04503E-06-6.80909E-19-1.89129E-18
 -1      1366 9.05295E-05-2.63704E-05-2.75887E-05-4.20048E-07-8.29894E-19-3.02687E-18
 -1      1367 9.68758E-05-2.79181E-05-2.96982E-05-3.72809E-06-1.05728E-18-1.50563E-18
 -1      1368 9.09642E-05-2.65321E-05-2.77016E-05 1.78910E-06-5.51895E-19-3.32937E-18
 -1      1369 9.29246E-05-2.72623E-05-2.82116E-05 2.35404E-06-2.84537E-19-3.64089E-18
 -1      1370 9.60737E-05-2.74815E-05-2.95714E-05 1.29949E-06-1.13719E-18-2.23448E-18
 -1      1371 9.48320E-05-2.80046E-05-2.86878E-05 3.88154E-06-3.72410E-19-4.27175E-18
 -1      1372 9.86472E-05-2.94091E-05-2.96885E-05 4.12710E-06-3.60843E-19-4.50214E-18
 -1      1373 9.84744E-05-2.86033E-05-3.00582E-05 5.88256E-06-8.31972E-19-3.37568E-18
 -1      1374 1.01195E-04-3.03509E-05-3.03587E-05 4.42796E-06-2.35897E-19-4.66943E-18
 -1      1375 1.05419E-04-3.18534E-05-3.14927E-05 4.31875E-06-4.83917E-20-4.72856E-18
 -1      1376 1.03015E-04-3.06995E-05-3.10021E-05 8.06221E-06-4.09610E-19-4.20619E-18
 -1      1377 1.07679E-04-3.26130E-05-3.21389E-05 3.56740E-06-6.29319E-21-4.69134E-18
 -1      1378 1.11044E-04-3.37500E-05-3.30715E-05 3.25257E-06 7.49095E-20-4.56434E-18
 -1      1379 1.07834E-04-3.27872E-05-3.20930E-05 7.42637E-06-3.17704E-20-3.88767E-18
 -1      1380 1.12462E-04-3.41549E-05-3.35254E-05 2.02056E-06 3.03589E-19-4.34139E-18
 -1      1381 1.14362E-04-3.47467E-05-3.40751E-05 1.67640E-06 3.36656E-19-4.19854E-18
 -1      1382 1.11416E-04-3.41641E-05-3.30114E-05 4.95972E-06 3.06758E-19-3.74317E-18
 -1      1383 1.14824E-04-3.48128E-05-3.42686E-05 4.87643E-07-1.67971E-19-4.14427E-18
 -1      1384 1.15288E-04-3.49113E-05-3.44210E-05 2.19991E-07-2.67219E-19-4.49614E-18
 -1      1385 1.13138E-04-3.46585E-05-3.35495E-05 2.02010E-06 1.31820E-20-3.66126E-18
 -1      1386 1.14965E-04-3.47378E-05-3.43751E-05-6.51201E-07-1.56446E-19-4.31021E-18
 -1      1387 1.14363E-04-3.44965E-05-3.42204E-05-8.13589E-07-1.23319E-19-4.69150E-18
 -1      1388 1.13125E-04-3.44621E-05-3.36564E-05-4.43995E-07-2.12023E-19-3.48218E-18
 -1      1389 1.13526E-04-3.41887E-05-3.40026E-05-1.31580E-06 2.15143E-19-4.86204E-18
 -1      1390 1.12303E-04-3.37659E-05-3.36611E-05-1.38813E-06 5.20991E-20-4.58443E-18
 -1      1391 1.11856E-04-3.38569E-05-3.33999E-05-2.06623E-06 3.71702E-20-3.09005E-18
 -1      1392 1.11205E-04-3.34044E-05-3.33475E-05-1.58894E-06 1.27295E-19-3.99518E-18
 -1      1393 1.09728E-04-3.29193E-05-3.29248E-05-1.60014E-06 4.71940E-19-3.77957E-18
 -1      1394 1.09867E-04-3.30783E-05-3.29012E-05-2.88388E-06 3.75065E-19-3.49670E-18
 -1      1395 1.08561E-04-3.25563E-05-3.25777E-05-1.59943E-06 2.56032E-19-3.70492E-18
 -1      1396 1.07077E-04-3.20831E-05-3.21473E-05-1.57578E-06-9.87157E-20-3.70690E-18
 -1      1397 1.07590E-04-3.22760E-05-3.22821E-05-3.10496E-06 3.82526E-19-3.12860E-18
 -1      1398 1.05963E-04-3.17483E-05-3.18090E-05-1.46144E-06-1.67108E-19-3.47134E-18
 -1      1399 1.04611E-04-3.13257E-05-3.14136E-05-1.42169E-06-2.40676E-20-3.85384E-18
 -1      1400 1.05326E-04-3.15308E-05-3.16373E-05-2.95508E-06-4.46156E-20-2.64877E-18
 -1      1401 1.03617E-04-3.10333E-05-3.11083E-05-1.25644E-06 9.27815E-20-3.49566E-18
 -1      1402 1.02459E-04-3.06766E-05-3.07677E-05-1.21220E-06 1.57179E-19-3.14830E-18
 -1      1403 1.03248E-04-3.08793E-05-3.10285E-05-2.61300E-06 1.87439E-19-1.76052E-18
 -1      1404 1.01613E-04-3.04310E-05-3.05060E-05-1.03519E-06 1.11336E-19-2.79285E-18
 -1      1405 1.00663E-04-3.01417E-05-3.02253E-05-9.92820E-07 2.79236E-19-2.18048E-18
 -1      1406 1.01441E-04-3.03319E-05-3.04890E-05-2.19888E-06 5.25261E-19-1.25489E-18
 -1      1407 9.99669E-05-2.99415E-05-3.00094E-05-8.25719E-07 5.77819E-20-2.26078E-18
 -1      1408 9.92123E-05-2.97140E-05-2.97859E-05-7.88228E-07-1.24393E-19-2.26989E-18
 -1      1409 9.99311E-05-2.98856E-05-3.00320E-05-1.78418E-06 2.50834E-19-6.53620E-19
 -1      1410 9.86563E-05-2.95550E-05-2.96130E-05-6.41256E-07-4.72809E-19-2.46472E-18
 -1      1411 9.80732E-05-2.93806E-05-2.94397E-05-6.09689E-07-4.28805E-19-2.86928E-18
 -1      1412 9.87070E-05-2.95306E-05-2.96579E-05-1.40630E-06-5.29336E-19-1.60511E-18
 -1      1413 9.76395E-05-2.92571E-05-2.93047E-05-4.86241E-07 4.78370E-19-3.18978E-18
 -1      1414 9.71997E-05-2.91266E-05-2.91737E-05-4.60572E-07 1.71384E-19-2.66428E-18
 -1      1415 9.77397E-05-2.92542E-05-2.93601E-05-1.08114E-06-1.32485E-19-2.71893E-18
 -1      1416 9.68689E-05-2.90328E-05-2.90707E-05-3.60285E-07-1.34043E-19-2.10239E-18
 -1      1417 9.65450E-05-2.89374E-05-2.89740E-05-3.39969E-07-1.24649E-19-2.11464E-18
 -1      1418 9.69926E-05-2.90433E-05-2.91286E-05-8.12117E-07 3.58654E-19-2.83500E-18
 -1      1419 9.62981E-05-2.88675E-05-2.88971E-05-2.60621E-07-9.28983E-19-1.83122E-18
 -1      1420 9.60654E-05-2.87996E-05-2.88274E-05-2.44907E-07-8.45994E-19-2.78842E-18
 -1      1421 9.64279E-05-2.88857E-05-2.89526E-05-5.96060E-07-3.78325E-19-1.83316E-18
 -1      1422 9.58853E-05-2.87488E-05-2.87713E-05-1.83539E-07-6.09317E-19-2.90838E-18
 -1      1423 9.57228E-05-2.87018E-05-2.87225E-05-1.71640E-07-5.07466E-19-3.71028E-18
 -1      1424 9.60103E-05-2.87704E-05-2.88217E-05-4.26735E-07-1.26790E-18-1.57801E-18
 -1      1425 9.55946E-05-2.86658E-05-2.86826E-05-1.25170E-07-1.90688E-19-4.13830E-18
 -1      1426 9.54850E-05-2.86345E-05-2.86495E-05-1.16346E-07-2.92367E-19-4.51015E-18
 -1      1427 9.57086E-05-2.86881E-05-2.87266E-05-2.96896E-07-8.83742E-19-2.81815E-18
 -1      1428 9.53965E-05-2.86096E-05-2.86220E-05-8.18892E-08-8.52302E-20-4.03131E-18
 -1      1429 9.53258E-05-2.85898E-05-2.86005E-05-7.54892E-08 4.03777E-19-3.73358E-18
 -1      1430 9.54964E-05-2.86310E-05-2.86593E-05-1.99391E-07 6.69752E-20-2.46662E-18
 -1      1431 9.52669E-05-2.85734E-05-2.85822E-05-5.05014E-08 8.89952E-19-3.68086E-18
 -1      1432 9.52243E-05-2.85618E-05-2.85691E-05-4.59731E-08 9.08024E-19-2.72984E-18
 -1      1433 9.53519E-05-2.85927E-05-2.86130E-05-1.27713E-07 6.81713E-19-2.00581E-18
 -1      1434 9.51871E-05-2.85514E-05-2.85575E-05-2.82971E-08-3.02858E-19-3.36952E-18
 -1      1435 9.51641E-05-2.85455E-05-2.85504E-05-2.51858E-08-2.57747E-19-3.85578E-18
 -1      1436 9.52576E-05-2.85683E-05-2.85825E-05-7.62206E-08 6.33188E-19-3.54895E-18
 -1      1437 9.51424E-05-2.85395E-05-2.85436E-05-1.30447E-08 1.64923E-19-3.38618E-18
 -1      1438 9.51329E-05-2.85375E-05-2.85405E-05-1.09847E-08 6.66067E-21-3.11450E-18
 -1      1439 9.51996E-05-2.85538E-05-2.85635E-05-4.01933E-08 7.93765E-20-4.34395E-18
 -1      1440 9.51220E-05-2.85345E-05-2.85371E-05-2.94884E-09 3.63434E-19-3.36189E-18
 -1      1441 9.51211E-05-2.85349E-05-2.85367E-05-1.65192E-09 4.68285E-19-2.53128E-18
 -1      1442 9.51674E-05-2.85463E-05-2.85526E-05-1.57795E-08 4.09114E-19-2.70886E-18
 -1      1443 9.51175E-05-2.85340E-05-2.85356E-05 3.40550E-09-1.56500E-19-1.59416E-18
 -1      1444 9.51221E-05-2.85358E-05-2.85367E-05 4.16232E-09 3.42375E-19-2.10597E-18
 -1      1445 9.51528E-05-2.85435E-05-2.85473E-05 9.34471E-11 4.72260E-19-2.15578E-18
 -1      1446 9.51231E-05-2.85362E-05-2.85371E-05 7.11193E-09 5.57576E-19-2.30566E-18
 -1      1447 9.51307E-05-2.85389E-05-2.85392E-05 7.49770E-09 9.83146E-20-2.22068E-18
 -1      1448 9.51500E-05-2.85437E-05-2.85458E-05 9.82807E-09 3.53404E-19-2.10722E-18
 -1      1449 9.51346E-05-2.85400E-05-2.85404E-05 8.99842E-09-7.54398E-19-1.89480E-18
 -1      1450 9.51437E-05-2.85430E-05-2.85430E-05 9.13849E-09-1.21813E-18-3.36427E-18
 -1      1451 9.51545E-05-2.85458E-05-2.85468E-05 1.52654E-08-4.31550E-20-1.93231E-18
 -1      1452 9.51490E-05-2.85446E-05-2.85447E-05 9.67702E-09-7.53481E-19-2.49672E-18
 -1      1453 9.51585E-05-2.85477E-05-2.85474E-05 9.66176E-09-1.94851E-19-3.08844E-18
 -1      1454 9.51633E-05-2.85489E-05-2.85491E-05 1.77855E-08-9.71927E-19-2.37493E-18
 -1      1455 9.51646E-05-2.85494E-05-2.85493E-05 9.58577E-09 3.35777E-19-3.08251E-18
 -1      1456 9.51738E-05-2.85524E-05-2.85520E-05 9.47754E-09 2.80481E-19-2.65758E-18
 -1      1457 9.51743E-05-2.85525E-05-2.85522E-05 1.83945E-08 1.47521E-19-8.97903E-19
 -1      1458 9.51799E-05-2.85541E-05-2.85539E-05 9.02223E-09-4.68080E-19-1.33177E-18
 -1      1459 9.51885E-05-2.85568E-05-2.85564E-05 8.86066E-09 3.99996E-19-1.62728E-18
 -1      1460 9.51861E-05-2.85562E-05-2.85557E-05 1.77963E-08 9.21348E-19-2.53774E-19
 -1      1461 9.51943E-05-2.85585E-05-2.85582E-05 8.16827E-09 5.25822E-19-1.66306E-18
 -1      1462 9.52021E-05-2.85609E-05-2.85605E-05 7.97365E-09 5.81048E-19-1.30057E-18
 -1      1463 9.51977E-05-2.85597E-05-2.85591E-05 1.64486E-08 5.90616E-19 4.13329E-19
 -1      1464 9.52073E-05-2.85625E-05-2.85621E-05 7.10648E-09 1.55967E-18-1.57928E-18
 -1      1465 9.52140E-05-2.85645E-05-2.85640E-05 6.88112E-09 1.33605E-18 2.90032E-19
 -1      1466 9.52085E-05-2.85631E-05-2.85623E-05 1.46017E-08 1.56721E-18-9.37492E-20
 -1      1467 9.52185E-05-2.85659E-05-2.85654E-05 5.82909E-09-3.54695E-20 1.03587E-19
 -1      1468 9.52239E-05-2.85676E-05-2.85670E-05 5.55587E-09 1.02827E-20 6.93280E-19
 -1      1469 9.52180E-05-2.85660E-05-2.85651E-05 1.23260E-08 1.32542E-18-1.55264E-18
 -1      1470 9.52274E-05-2.85687E-05-2.85680E-05 4.25449E-09 2.48396E-19 7.94502E-19
 -1      1471 9.52312E-05-2.85699E-05-2.85691E-05 3.89377E-09 2.41621E-19 9.41012E-19
 -1      1472 9.52259E-05-2.85685E-05-2.85674E-05 9.53184E-09-2.55414E-19-1.41285E-18
 -1      1473 9.52338E-05-2.85707E-05-2.85699E-05 2.26243E-09 6.37993E-19 5.94970E-19
 -1      1474 9.52356E-05-2.85712E-05-2.85705E-05 1.81060E-09-9.40087E-20 1.01982E-18
 -1      1475 9.52320E-05-2.85706E-05-2.85691E-05 6.09252E-09 7.60880E-19-1.36002E-18
 -1      1476 9.52372E-05-2.85713E-05-2.85711E-05-8.26532E-11-1.52569E-18 1.83816E-18
 -1      1477 9.52363E-05-2.85718E-05-2.85704E-05 1.73670E-09-5.73680E-19-2.18662E-18
 -1      1478 1.08455E-04-3.19883E-05-3.32642E-05 1.39273E-06 1.70442E-18 1.41181E-17
 -1      1479 1.12517E-04-3.23854E-05-3.51478E-05 2.75848E-06 1.47696E-18 1.67372E-17
 -1      1480 1.12059E-04-2.98614E-05-3.55797E-05 9.66798E-06 2.91766E-18 1.09637E-17
 -1      1481 1.06763E-04-3.18780E-05-3.21456E-05-2.94834E-07 1.25272E-18 1.07106E-17
 -1      1482 1.07065E-04-3.15321E-05-3.25668E-05 1.16697E-08 1.22428E-18 1.27493E-17
 -1      1483 1.08521E-04-3.17397E-05-3.31112E-05 1.99230E-06 2.56455E-18 8.48667E-18
 -1      1484 1.07634E-04-3.22657E-05-3.22692E-05-1.00300E-06 7.38388E-19 8.37901E-18
 -1      1485 1.06752E-04-3.18249E-05-3.20954E-05-8.44045E-07 8.43579E-19 9.75284E-18
 -1      1486 1.07454E-04-3.19562E-05-3.24041E-05-8.15580E-07 1.90262E-18 6.53483E-18
 -1      1487 1.09507E-04-3.28995E-05-3.27911E-05-1.17020E-06 6.01504E-19 6.86467E-18
 -1      1488 1.08252E-04-3.24395E-05-3.24475E-05-1.11980E-06 5.63694E-19 7.84114E-18
 -1      1489 1.08169E-04-3.23929E-05-3.24816E-05-1.86455E-06 1.24844E-18 5.08544E-18
 -1      1490 1.11332E-04-3.35240E-05-3.32951E-05-8.80284E-07 2.90458E-19 5.87802E-18
 -1      1491 1.10241E-04-3.31621E-05-3.29986E-05-9.48908E-07 2.50742E-19 6.38946E-18
 -1      1492 1.09563E-04-3.29830E-05-3.28047E-05-1.90082E-06 8.01832E-19 4.25402E-18
 -1      1493 1.12167E-04-3.38589E-05-3.34889E-05-1.10831E-07 2.49501E-19 5.11552E-18
 -1      1494 1.11759E-04-3.37535E-05-3.33987E-05-3.22024E-07 2.14002E-19 5.57062E-18
 -1      1495 1.10779E-04-3.35325E-05-3.30615E-05-1.03287E-06 5.04071E-19 3.54733E-18
 -1      1496 1.11132E-04-3.36067E-05-3.31353E-05 1.09457E-06 3.55423E-19 4.68523E-18
 -1      1497 1.11903E-04-3.39232E-05-3.33833E-05 7.40860E-07 2.16218E-19 5.02474E-18
 -1      1498 1.11039E-04-3.37884E-05-3.30302E-05 7.10320E-07 4.50562E-19 3.22868E-18
 -1      1499 1.07666E-04-3.25418E-05-3.21143E-05 2.48067E-06 3.69492E-19 3.78486E-18
 -1      1500 1.09915E-04-3.33778E-05-3.27623E-05 2.05057E-06 4.17759E-19 4.42982E-18
 -1      1501 1.09695E-04-3.34742E-05-3.25680E-05 3.07198E-06 6.79029E-19 3.31265E-18
 -1      1502 1.01994E-04-3.06796E-05-3.05376E-05 3.50366E-06 4.91865E-19 2.74883E-18
 -1      1503 1.05526E-04-3.19530E-05-3.15059E-05 3.15602E-06 2.46420E-19 3.22640E-18
 -1      1504 1.06480E-04-3.23870E-05-3.16678E-05 5.34923E-06 7.38580E-19 2.60195E-18
 -1      1505 9.55115E-05-2.84609E-05-2.88128E-05 3.47629E-06 1.36723E-19 2.37963E-18
 -1      1506 9.94247E-05-2.98218E-05-2.98442E-05 3.41806E-06 3.06770E-19 2.47937E-18
 -1      1507 1.01867E-04-3.05959E-05-3.05169E-05 6.41179E-06 5.03515E-19 2.02915E-18
 -1      1508 9.05888E-05-2.67331E-05-2.75418E-05 2.03199E-06 7.64745E-19 1.24522E-18
 -1      1509 9.34379E-05-2.76367E-05-2.82694E-05 2.37777E-06 4.71414E-19 1.78650E-18
 -1      1510 9.72597E-05-2.86238E-05-2.94709E-05 5.23155E-06 7.91420E-19 1.61020E-18
 -1      1511 8.94567E-05-2.63348E-05-2.72508E-05-4.05218E-07 5.27437E-19-1.55933E-19
 -1      1512 8.99553E-05-2.63346E-05-2.73681E-05 2.33258E-07 6.49489E-19 5.66903E-19
 -1      1513 9.45669E-05-2.73617E-05-2.89185E-05 1.76390E-06 1.21648E-18 1.97584E-19
 -1      1514 9.27871E-05-2.75141E-05-2.80970E-05-2.72770E-06 6.90544E-19-1.65616E-18
 -1      1515 9.06259E-05-2.65772E-05-2.75340E-05-2.09441E-06 4.19837E-19-1.05948E-18
 -1      1516 9.51364E-05-2.75268E-05-2.90945E-05-2.63398E-06 1.12276E-18-1.06729E-18
 -1      1517 9.92048E-05-2.97310E-05-2.97735E-05-3.90703E-06 8.06319E-20-3.16457E-18
 -1      1518 9.52704E-05-2.82686E-05-2.87397E-05-3.54977E-06 5.10284E-19-2.23760E-18
 -1      1519 9.88132E-05-2.90869E-05-2.99573E-05-5.96336E-06 1.02814E-18-2.41211E-18
 -1      1520 1.06237E-04-3.20715E-05-3.16871E-05-3.67814E-06-3.36732E-19-2.93545E-18
 -1      1521 1.02013E-04-3.06452E-05-3.05480E-05-3.66778E-06-9.63599E-20-3.18310E-18
 -1      1522 1.04049E-04-3.12705E-05-3.12106E-05-6.96426E-06 6.20766E-20-3.09784E-18
 -1      1523 1.11759E-04-3.38158E-05-3.32739E-05-2.50917E-06-3.98013E-19-2.73311E-18
 -1      1524 1.08482E-04-3.28185E-05-3.23564E-05-2.73553E-06-3.45093E-19-2.97197E-18
 -1      1525 1.08944E-04-3.31728E-05-3.24560E-05-5.76771E-06-2.12301E-19-2.57280E-18
 -1      1526 1.14790E-04-3.46952E-05-3.42159E-05-1.08693E-06-7.33875E-20-2.32632E-18
 -1      1527 1.13006E-04-3.42402E-05-3.36891E-05-1.38801E-06-7.64977E-20-2.47987E-18
 -1      1528 1.12222E-04-3.42882E-05-3.33685E-05-3.41419E-06-1.79558E-19-3.25417E-18
 -1      1529 1.15404E-04-3.47973E-05-3.44769E-05 1.06298E-07-5.58542E-19-2.54841E-18
 -1      1530 1.15039E-04-3.47985E-05-3.43437E-05-1.56745E-07 5.94577E-20-2.42358E-18
 -1      1531 1.13519E-04-3.45861E-05-3.37977E-05-9.85866E-07 2.18627E-19-2.80237E-18
 -1      1532 1.14232E-04-3.43613E-05-3.42002E-05 8.88906E-07 9.05796E-20-2.15260E-18
 -1      1533 1.14894E-04-3.46591E-05-3.43666E-05 7.08299E-07-2.02097E-19-2.32952E-18
 -1      1534 1.13118E-04-3.42856E-05-3.37621E-05 8.83930E-07-2.70468E-19-3.08061E-18
 -1      1535 1.12012E-04-3.36323E-05-3.35878E-05 1.28253E-06 2.83051E-19-2.72858E-18
 -1      1536 1.13260E-04-3.40768E-05-3.39337E-05 1.18309E-06 2.43471E-19-2.08165E-18
 -1      1537 1.11563E-04-3.36456E-05-3.33785E-05 2.02351E-06 2.46142E-19-1.97737E-18
 -1      1538 1.09358E-04-3.27973E-05-3.28224E-05 1.39103E-06-2.55779E-19-2.62338E-18
 -1      1539 1.10834E-04-3.32813E-05-3.32446E-05 1.35269E-06-2.35633E-19-2.95748E-18
 -1      1540 1.09396E-04-3.28681E-05-3.27896E-05 2.53190E-06 1.35823E-21-1.96302E-18
 -1      1541 1.06686E-04-3.19763E-05-3.20348E-05 1.32465E-06 5.34305E-19-2.98637E-18
 -1      1542 1.08155E-04-3.24357E-05-3.24619E-05 1.32520E-06 2.69721E-19-2.40618E-18
 -1      1543 1.07035E-04-3.20823E-05-3.21192E-05 2.59986E-06 2.11400E-19-1.62972E-18
 -1      1544 1.04237E-04-3.12346E-05-3.13036E-05 1.16906E-06-1.15637E-19-3.33975E-18
 -1      1545 1.05568E-04-3.16378E-05-3.16947E-05 1.19087E-06 1.32660E-19-3.26332E-18
 -1      1546 1.04754E-04-3.13590E-05-3.14544E-05 2.40829E-06 6.21231E-19-2.76777E-18
 -1      1547 1.02123E-04-3.06004E-05-3.06674E-05 9.80838E-07-1.99974E-19-1.49270E-18
 -1      1548 1.03259E-04-3.09366E-05-3.10035E-05 1.01200E-06-6.17093E-19-2.61232E-18
 -1      1549 1.02704E-04-3.07303E-05-3.08469E-05 2.09198E-06-7.41460E-19-2.58391E-18
 -1      1550 1.00373E-04-3.00790E-05-3.01382E-05 7.93059E-07 7.69774E-21-1.13617E-18
 -1      1551 1.01303E-04-3.03491E-05-3.04146E-05 8.26363E-07 2.81895E-19-3.75282E-19
 -1      1552 1.00951E-04-3.02051E-05-3.03216E-05 1.73789E-06-4.41529E-19-1.08263E-18
 -1      1553 9.89705E-05-2.96632E-05-2.97126E-05 6.22685E-07-2.81936E-20-2.24987E-19
 -1      1554 9.97074E-05-2.98740E-05-2.99325E-05 6.54187E-07-3.34104E-19-9.57438E-19
 -1      1555 9.95065E-05-2.97797E-05-2.98851E-05 1.39586E-06-3.37840E-19 3.05982E-19
 -1      1556 9.78765E-05-2.93402E-05-2.93799E-05 4.76709E-07-1.58355E-20-8.70773E-19
 -1      1557 9.84450E-05-2.95004E-05-2.95500E-05 5.04545E-07 3.46760E-19-4.57064E-19
 -1      1558 9.83500E-05-2.94435E-05-2.95336E-05 1.09066E-06 2.33619E-19 4.07417E-19
 -1      1559 9.70431E-05-2.90949E-05-2.91259E-05 3.56448E-07 1.01015E-20-8.61040E-19
 -1      1560 9.74713E-05-2.92139E-05-2.92543E-05 3.79978E-07-2.25111E-19-1.16284E-18
 -1      1561 9.74470E-05-2.91839E-05-2.92578E-05 8.31700E-07-1.22439E-20 3.61865E-19
 -1      1562 9.64228E-05-2.89129E-05-2.89365E-05 2.60265E-07 3.75771E-19-1.65418E-18
 -1      1563 9.67376E-05-2.89991E-05-2.90312E-05 2.79527E-07 5.08668E-19-1.06571E-18
 -1      1564 9.67578E-05-2.89875E-05-2.90464E-05 6.19685E-07 5.39117E-19 2.74715E-19
 -1      1565 9.59718E-05-2.87810E-05-2.87986E-05 1.85201E-07 4.57933E-19-2.19028E-18
 -1      1566 9.61976E-05-2.88419E-05-2.88667E-05 2.00572E-07 3.37548E-19-2.05951E-18
 -1      1567 9.62433E-05-2.88421E-05-2.88879E-05 4.50868E-07 5.75757E-19 2.65594E-19
 -1      1568 9.56525E-05-2.86880E-05-2.87007E-05 1.27891E-07-4.93426E-19-2.38024E-18
 -1      1569 9.58097E-05-2.87295E-05-2.87483E-05 1.39891E-07-5.71598E-20-2.52511E-18
 -1      1570 9.58678E-05-2.87370E-05-2.87718E-05 3.19576E-07 2.33127E-19-1.75629E-18
 -1      1571 9.54332E-05-2.86243E-05-2.86334E-05 8.50530E-08 4.55388E-20-1.78450E-18
 -1      1572 9.55390E-05-2.86516E-05-2.86656E-05 9.42335E-08-3.98756E-19-2.62390E-18
 -1      1573 9.56008E-05-2.86629E-05-2.86888E-05 2.19639E-07-5.36743E-19-1.59038E-18
 -1      1574 9.52885E-05-2.85826E-05-2.85889E-05 5.37232E-08 2.71665E-19-1.83987E-18
 -1      1575 9.53564E-05-2.85995E-05-2.86096E-05 6.06086E-08 2.54815E-19-1.30934E-18
 -1      1576 9.54164E-05-2.86124E-05-2.86313E-05 1.45156E-07 1.57037E-19-1.97823E-18
 -1      1577 9.51981E-05-2.85567E-05-2.85609E-05 3.13506E-08-4.80280E-19-1.22187E-18
 -1      1578 9.52388E-05-2.85662E-05-2.85734E-05 3.64094E-08 1.00350E-19-1.27543E-18
 -1      1579 9.52938E-05-2.85793E-05-2.85927E-05 9.08477E-08-9.97063E-20-2.80065E-19
 -1      1580 9.51464E-05-2.85421E-05-2.85448E-05 1.58102E-08 7.25802E-20-3.20343E-18
 -1      1581 9.51680E-05-2.85466E-05-2.85515E-05 1.94448E-08 6.06791E-19-2.17281E-18
 -1      1582 9.52165E-05-2.85589E-05-2.85681E-05 5.21979E-08 9.41246E-19-1.52081E-18
 -1      1583 9.51213E-05-2.85353E-05-2.85368E-05 5.37673E-09 8.36107E-19-4.45787E-18
 -1      1584 9.51300E-05-2.85364E-05-2.85397E-05 7.92246E-09 3.68183E-19-3.83647E-18
 -1      1585 9.51714E-05-2.85474E-05-2.85536E-05 2.54588E-08 7.91518E-19-1.95916E-18
 -1      1586 9.51141E-05-2.85336E-05-2.85344E-05-1.32053E-09-7.33497E-19-3.68974E-18
 -1      1587 9.51144E-05-2.85326E-05-2.85347E-05 4.09265E-10-2.94056E-19-4.34089E-18
 -1      1588 9.51488E-05-2.85421E-05-2.85461E-05 7.59755E-09 1.64870E-19-2.40316E-18
 -1      1589 9.51183E-05-2.85352E-05-2.85355E-05-5.34894E-09 2.73059E-19-3.64781E-18
 -1      1590 9.51134E-05-2.85329E-05-2.85342E-05-4.21753E-09 1.51975E-19-3.45851E-18
 -1      1591 9.51413E-05-2.85410E-05-2.85433E-05-3.78855E-09-3.22242E-19-2.07402E-18
 -1      1592 9.51292E-05-2.85386E-05-2.85386E-05-7.52327E-09 2.23426E-20-2.98015E-18
 -1      1593 9.51213E-05-2.85358E-05-2.85364E-05-6.82027E-09-1.61931E-19-3.72843E-18
 -1      1594 9.51436E-05-2.85423E-05-2.85436E-05-1.05649E-08-2.19852E-20-2.19070E-18
 -1      1595 9.51436E-05-2.85431E-05-2.85429E-05-8.45190E-09-8.51570E-19-2.40147E-18
 -1      1596 9.51344E-05-2.85400E-05-2.85403E-05-8.04732E-09-1.01919E-19-2.62499E-18
 -1      1597 9.51516E-05-2.85453E-05-2.85457E-05-1.41504E-08-2.40025E-19-4.34099E-19
 -1      1598 9.51594E-05-2.85479E-05-2.85476E-05-8.57673E-09 7.52752E-19-2.40887E-18
 -1      1599 9.51499E-05-2.85449E-05-2.85449E-05-8.37374E-09-3.29231E-19-2.36584E-18
 -1      1600 9.51629E-05-2.85489E-05-2.85489E-05-1.55990E-08-4.30448E-19-9.78074E-19
 -1      1601 9.51753E-05-2.85527E-05-2.85524E-05-8.20573E-09-7.12222E-19-2.93959E-18
 -1      1602 9.51661E-05-2.85499E-05-2.85497E-05-8.13513E-09 1.36660E-19-1.63297E-18
 -1      1603 9.51755E-05-2.85529E-05-2.85526E-05-1.56693E-08-1.26428E-19-6.53716E-19
 -1      1604 9.51904E-05-2.85573E-05-2.85569E-05-7.53791E-09 9.41983E-19-2.68869E-18
 -1      1605 9.51818E-05-2.85547E-05-2.85544E-05-7.55408E-09 1.87230E-19-2.52613E-18
 -1      1606 9.51883E-05-2.85568E-05-2.85564E-05-1.48813E-08 2.40226E-19-9.72358E-19
 -1      1607 9.52041E-05-2.85614E-05-2.85610E-05-6.67993E-09 6.61378E-19-4.43122E-18
 -1      1608 9.51964E-05-2.85591E-05-2.85588E-05-6.75895E-09 4.53420E-19-4.09296E-18
 -1      1609 9.52005E-05-2.85605E-05-2.85600E-05-1.35577E-08 1.08974E-18-3.51053E-18
 -1      1610 9.52160E-05-2.85650E-05-2.85646E-05-5.65546E-09 8.80115E-19-5.88951E-18
 -1      1611 9.52094E-05-2.85630E-05-2.85627E-05-5.79513E-09 8.32225E-19-5.05972E-18
 -1      1612 9.52115E-05-2.85639E-05-2.85633E-05-1.18517E-08 1.59771E-18-5.72378E-18
 -1      1613 9.52257E-05-2.85680E-05-2.85675E-05-4.41225E-09-3.38983E-21-7.12289E-18
 -1      1614 9.52204E-05-2.85664E-05-2.85659E-05-4.63400E-09 3.45401E-19-6.06056E-18
 -1      1615 9.52210E-05-2.85668E-05-2.85660E-05-9.76640E-09 7.96998E-19-4.87042E-18
 -1      1616 9.52327E-05-2.85701E-05-2.85695E-05-2.82374E-09 2.19242E-19-7.56019E-18
 -1      1617 9.52290E-05-2.85691E-05-2.85685E-05-3.18816E-09 1.21167E-19-6.06097E-18
 -1      1618 9.52285E-05-2.85692E-05-2.85682E-05-7.18131E-09-1.20302E-21-4.18826E-18
 -1      1619 9.52363E-05-2.85713E-05-2.85707E-05-9.47839E-10-7.15856E-19-7.62810E-18
 -1      1620 9.52348E-05-2.85709E-05-2.85702E-05-1.41432E-09 2.43301E-20-7.60553E-18
 -1      1621 9.52339E-05-2.85710E-05-2.85697E-05-3.95339E-09 4.27148E-19-2.76849E-18
 -1      1622 9.52371E-05-2.85713E-05-2.85711E-05-6.75190E-12-4.59482E-18-5.06703E-18
 -1      1623 9.52377E-05-2.85746E-05-2.85698E-05-2.33679E-09-2.32611E-18 2.80623E-18
 -1      1624 9.52371E-05-2.85727E-05-2.85704E-05-1.84278E-09-5.73380E-18 2.66245E-18
 -1      1625 9.52396E-05-2.85804E-05-2.85682E-05-3.96566E-09 1.59855E-18 2.26843E-18
 -1      1626 9.52385E-05-2.85770E-05-2.85692E-05-3.69755E-09-1.55736E-18 2.37302E-18
 -1      1627 9.52378E-05-2.85764E-05-2.85691E-05-5.87791E-09-2.03415E-19 4.04062E-18
 -1      1628 9.52421E-05-2.85878E-05-2.85661E-05-4.75913E-09 8.45602E-19-9.64432E-19
 -1      1629 9.52407E-05-2.85835E-05-2.85673E-05-4.67372E-09 2.21704E-18-2.36065E-19
 -1      1630 9.52399E-05-2.85819E-05-2.85677E-05-8.34532E-09-7.72650E-20 9.65608E-19
 -1      1631 9.52446E-05-2.85955E-05-2.85639E-05-4.74082E-09 3.17071E-18 7.52627E-21
 -1      1632 9.52432E-05-2.85911E-05-2.85651E-05-4.80968E-09 2.14752E-18 1.25940E-18
 -1      1633 9.52422E-05-2.85883E-05-2.85660E-05-9.23055E-09 7.29624E-19-5.60010E-22
 -1      1634 9.52468E-05-2.86024E-05-2.85619E-05-4.07681E-09 3.14422E-18 4.79594E-19
 -1      1635 9.52456E-05-2.85986E-05-2.85630E-05-4.25410E-09 3.25120E-18-7.86372E-19
 -1      1636 9.52445E-05-2.85946E-05-2.85643E-05-8.67728E-09 1.71894E-18 2.56643E-19
 -1      1637 9.52485E-05-2.86077E-05-2.85603E-05-2.91829E-09 3.75438E-18 3.54409E-19
 -1      1638 9.52476E-05-2.86049E-05-2.85612E-05-3.17808E-09 3.17759E-18 7.41213E-19
 -1      1639 9.52464E-05-2.86001E-05-2.85627E-05-7.00267E-09 1.75009E-18 2.81991E-20
 -1      1640 9.52495E-05-2.86108E-05-2.85594E-05-1.44538E-09 3.06491E-18-6.72274E-19
 -1      1641 9.52490E-05-2.86093E-05-2.85599E-05-1.75078E-09 3.26943E-18 3.83723E-20
 -1      1642 9.52477E-05-2.86042E-05-2.85616E-05-4.50906E-09 1.99063E-18-3.15615E-20
 -1      1643 9.52496E-05-2.86113E-05-2.85593E-05 1.74083E-10 2.18336E-18 7.75013E-19
 -1      1644 9.52496E-05-2.86113E-05-2.85593E-05-1.46153E-10 2.74559E-18-1.05980E-18
 -1      1645 9.52484E-05-2.86063E-05-2.85610E-05-1.53743E-09 1.02160E-18-1.00662E-18
 -1      1646 9.52490E-05-2.86093E-05-2.85599E-05 1.77677E-09 7.44741E-19-1.40078E-18
 -1      1647 9.52494E-05-2.86108E-05-2.85594E-05 1.47211E-09 1.68667E-18-3.63054E-20
 -1      1648 9.52484E-05-2.86063E-05-2.85610E-05 1.59028E-09 9.07193E-19-3.19271E-19
 -1      1649 9.52475E-05-2.86048E-05-2.85612E-05 3.19889E-09-1.21102E-18-2.02272E-18
 -1      1650 9.52485E-05-2.86076E-05-2.85604E-05 2.94111E-09 1.26567E-18-1.59090E-18
 -1      1651 9.52477E-05-2.86041E-05-2.85616E-05 4.55655E-09-2.83682E-19-1.29422E-18
 -1      1652 9.52455E-05-2.85985E-05-2.85630E-05 4.25740E-09-1.36238E-19 1.68516E-18
 -1      1653 9.52468E-05-2.86023E-05-2.85619E-05 4.08258E-09-3.28148E-19-9.78778E-19
 -1      1654 9.52463E-05-2.86001E-05-2.85627E-05 7.02390E-09 6.04561E-19-1.45749E-18
 -1      1655 9.52431E-05-2.85910E-05-2.85652E-05 4.81262E-09 3.09539E-18 1.42540E-18
 -1      1656 9.52446E-05-2.85954E-05-2.85639E-05 4.74632E-09 1.92023E-19 3.53707E-18
 -1      1657 9.52445E-05-2.85946E-05-2.85643E-05 8.68722E-09 2.16794E-18 3.13122E-18
 -1      1658 9.52406E-05-2.85834E-05-2.85674E-05 4.67582E-09 4.73551E-18 7.44083E-19
 -1      1659 9.52421E-05-2.85877E-05-2.85661E-05 4.75285E-09 3.93437E-18 6.76962E-19
 -1      1660 9.52422E-05-2.85882E-05-2.85660E-05 9.22691E-09 2.90359E-18 2.71560E-18
 -1      1661 9.52384E-05-2.85769E-05-2.85692E-05 3.68208E-09 2.15577E-18-2.05952E-18
 -1      1662 9.52396E-05-2.85804E-05-2.85682E-05 3.95458E-09 4.49763E-18-9.62934E-19
 -1      1663 9.52399E-05-2.85818E-05-2.85677E-05 8.31532E-09 1.02123E-18-9.75988E-19
 -1      1664 9.52369E-05-2.85732E-05-2.85702E-05 2.73499E-09-9.31106E-19-2.85410E-18
 -1      1665 9.52375E-05-2.85751E-05-2.85696E-05 3.45231E-09 1.98471E-18-3.08256E-18
 -1      1666 9.52376E-05-2.85768E-05-2.85689E-05 6.93446E-09-2.31543E-20-3.32166E-18
 -1      1667 9.52353E-05-2.85732E-05-2.85695E-05 5.37163E-09 7.56763E-19-3.23580E-18
 -1      1668 2.09152E-05-6.85950E-05 1.42956E-05-6.60177E-06 8.05867E-18 5.41063E-18
 -1      1669 2.39581E-05-7.71278E-05 1.60862E-05 1.45267E-06 8.64609E-19 3.97851E-18
 -1      1670 1.91951E-05-4.20282E-05 5.29550E-06 1.10007E-06 1.49874E-17 8.96140E-18
 -1      1671 2.39622E-05-6.31651E-05 1.06676E-05-1.13683E-06 1.02313E-17 6.27535E-18
 -1      1672 3.35841E-05-1.57594E-05-9.84794E-06 2.52200E-05 1.77132E-17 1.43458E-17
 -1      1673 2.92796E-05-3.66650E-05-1.47324E-06 9.33345E-06 1.57269E-17 1.01568E-17
 -1      1674 6.68095E-05-1.51231E-06-2.77711E-05 5.46713E-05 1.82705E-17 1.79740E-17
 -1      1675 4.59315E-05-9.49796E-06-1.82957E-05 3.25355E-05 1.87160E-17 1.57362E-17
 -1      1676 1.29579E-04-1.49778E-05-4.63456E-05 7.31006E-05 1.31883E-17 1.58853E-17
 -1      1677 9.17359E-05-5.93812E-06-3.68595E-05 5.85899E-05 1.67992E-17 1.67992E-17
 -1      1678 1.93992E-04-3.75518E-05-6.20569E-05 6.90518E-05 7.99599E-18 1.06980E-17
 -1      1679 1.51758E-04-1.83829E-05-5.45909E-05 7.31681E-05 1.19728E-17 1.48451E-17
 -1      1680 2.42561E-04-5.91814E-05-7.22942E-05 3.26102E-05 4.73280E-18 1.24599E-18
 -1      1681 2.11994E-04-4.29274E-05-6.77365E-05 5.79346E-05 6.62464E-18 7.69445E-18
 -1      1682 2.55576E-04-6.46934E-05-7.51756E-05-1.54993E-05 4.44057E-18-8.43592E-18
 -1      1683 2.53873E-04-6.37920E-05-7.49571E-05 1.90445E-05 4.08736E-18-1.78639E-18
 -1      1684 2.19095E-04-4.57690E-05-6.92964E-05-5.68798E-05 7.75279E-18-1.62673E-17
 -1      1685 2.47294E-04-6.10660E-05-7.32181E-05-2.99924E-05 5.25351E-18-1.10563E-17
 -1      1686 1.54974E-04-2.08079E-05-5.51918E-05-6.79254E-05 1.25679E-17-1.87042E-17
 -1      1687 1.99187E-04-4.06027E-05-6.30994E-05-6.21765E-05 8.99591E-18-1.64358E-17
 -1      1688 9.09069E-05-6.62174E-06-3.64479E-05-5.72424E-05 1.75590E-17-1.93073E-17
 -1      1689 1.31331E-04-1.64062E-05-4.66341E-05-7.25138E-05 1.44389E-17-1.97537E-17
 -1      1690 4.31812E-05-1.06355E-05-1.69850E-05-3.02075E-05 1.99036E-17-1.66391E-17
 -1      1691 6.39505E-05-1.41629E-06-2.68371E-05-5.34644E-05 1.95876E-17-2.02593E-17
 -1      1692 2.65472E-05-3.65184E-05-6.82871E-07-6.93244E-06 1.59573E-17-1.04994E-17
 -1      1693 2.90211E-05-1.52089E-05-8.51517E-06-2.14658E-05 1.91675E-17-1.49035E-17
 -1      1694 2.42535E-05-6.29265E-05 1.06161E-05-2.93306E-07 7.54833E-18-5.91091E-18
 -1      1695 1.98138E-05-4.26056E-05 5.31920E-06-2.11809E-06 1.33187E-17-8.93593E-18
 -1      1696 2.32135E-05-7.55868E-05 1.59505E-05-2.54519E-06-1.30824E-18-4.04988E-18
 -1      1697 2.06568E-05-6.83366E-05 1.43114E-05 6.43497E-06 5.55145E-18-4.98479E-18
 -1      1698 1.92187E-05-5.98931E-05 1.23012E-05-3.37566E-06-1.06286E-17-6.81523E-18
 -1      1699 2.24776E-05-7.05805E-05 1.47753E-05 2.88030E-06-3.65156E-18-4.91089E-18
 -1      1700 2.01810E-05-3.59465E-05 2.65868E-06 4.53191E-06-1.81646E-17-1.04676E-17
 -1      1701 2.42097E-05-5.80176E-05 8.73436E-06 5.28693E-07-1.37728E-17-7.21161E-18
 -1      1702 3.46158E-05-1.00119E-05-1.25677E-05 2.87717E-05-2.08345E-17-1.61453E-17
 -1      1703 2.86277E-05-2.98196E-05-4.13966E-06 1.10439E-05-1.95986E-17-1.22976E-17
 -1      1704 8.19555E-05-4.77087E-06-3.21581E-05 6.09028E-05-1.81231E-17-2.00611E-17
 -1      1705 5.53255E-05-9.78049E-06-2.17509E-05 3.76450E-05-1.95707E-17-1.70804E-17
 -1      1706 1.43360E-04-1.64875E-05-5.06627E-05 7.88498E-05-1.43187E-17-2.08294E-17
 -1      1707 1.02740E-04-4.01745E-06-4.16142E-05 6.70545E-05-1.75776E-17-2.11690E-17
 -1      1708 2.09050E-04-4.35438E-05-6.53371E-05 6.63904E-05-8.84017E-18-1.56608E-17
 -1      1709 1.66987E-04-2.28692E-05-5.83753E-05 7.58576E-05-1.27381E-17-1.95250E-17
 -1      1710 2.46590E-04-6.09929E-05-7.35240E-05 2.29657E-05-5.15907E-18-5.67936E-18
 -1      1711 2.23128E-04-4.76726E-05-7.00074E-05 5.24204E-05-7.53203E-18-1.22955E-17
 -1      1712 2.40807E-04-5.66649E-05-7.33512E-05-2.53224E-05-5.29141E-18 3.46288E-18
 -1      1713 2.46489E-04-5.98755E-05-7.42610E-05 7.96333E-06-4.59769E-18-3.14350E-18
 -1      1714 2.04029E-04-3.86915E-05-6.61912E-05-6.64396E-05-7.96063E-18 1.25005E-17
 -1      1715 2.38905E-04-5.76984E-05-7.13967E-05-4.27285E-05-5.40333E-18 6.84657E-18
 -1      1716 1.39603E-04-1.53838E-05-5.11829E-05-7.06568E-05-1.29770E-17 1.62088E-17
 -1      1717 1.82618E-04-3.32845E-05-5.93376E-05-7.09107E-05-9.28369E-18 1.31917E-17
 -1      1718 8.11954E-05-2.38145E-06-3.42022E-05-5.71852E-05-1.62834E-17 1.74235E-17
 -1      1719 1.14907E-04-8.67703E-06-4.31280E-05-7.33180E-05-1.42776E-17 1.84619E-17
 -1      1720 4.59029E-05-1.52275E-05-1.59853E-05-2.92213E-05-1.55210E-17 1.33171E-17
 -1      1721 6.44553E-05-5.41570E-06-2.53884E-05-5.05749E-05-1.55735E-17 1.65603E-17
 -1      1722 2.62350E-05-3.70599E-05-3.40220E-07-6.33353E-06-1.49959E-17 8.77314E-18
 -1      1723 2.84164E-05-1.67078E-05-7.74461E-06-2.01173E-05-1.67306E-17 1.17750E-17
 -1      1724 2.39875E-05-6.37043E-05 1.08915E-05 1.19949E-06-9.11746E-18 5.57374E-18
 -1      1725 1.93077E-05-4.33171E-05 5.64623E-06-4.47437E-07-1.34483E-17 8.31500E-18
 -1      1726 2.39393E-05-7.70851E-05 1.60937E-05-1.43912E-06-1.21168E-18 3.28839E-18
 -1      1727 2.10533E-05-6.90195E-05 1.43938E-05 6.54395E-06-7.18919E-18 4.75545E-18
 -1      1728 1.08586E-04-3.21075E-05-3.21577E-05 4.44171E-05 1.06409E-17 9.02768E-18
 -1      1729 6.79424E-05-3.58974E-05-1.52917E-05 3.80574E-05 9.28941E-18 1.05587E-17
 -1      1730 9.52367E-05-2.85716E-05-2.85707E-05-9.12912E-10-5.44537E-18-1.18832E-18
 -1      1731 9.52363E-05-2.85729E-05-2.85700E-05-3.15765E-09-8.06491E-19 1.68182E-18
 -1      1732 1.78979E-05-4.86753E-05 8.89512E-06 1.29616E-05 4.62099E-18 8.70983E-18
 -1      1733 3.77189E-05-4.23069E-05-1.00496E-06 2.76257E-05 7.37850E-18 9.02212E-18
 -1      1734 1.20452E-05-5.21828E-05 1.23643E-05 5.89093E-08-1.76395E-19 7.30185E-18
 -1      1735 1.51601E-04-3.26921E-05-4.84313E-05 4.07685E-05 1.01803E-17 6.95753E-18
 -1      1736 1.85987E-04-3.22188E-05-6.16928E-05 2.91482E-05 8.93609E-18 3.56897E-18
 -1      1737 2.09048E-04-3.44110E-05-6.95706E-05 1.08234E-05 7.87275E-18-1.15027E-18
 -1      1738 2.12042E-04-3.52863E-05-7.02543E-05-1.05248E-05 7.67708E-18-6.35126E-18
 -1      1739 1.87120E-04-3.22088E-05-6.24153E-05-2.49555E-05 8.51967E-18-8.82227E-18
 -1      1740 1.53581E-04-3.42553E-05-4.86759E-05-3.62396E-05 9.42155E-18-9.76205E-18
 -1      1741 1.08137E-04-3.27025E-05-3.16493E-05-4.46072E-05 1.09000E-17-1.20795E-17
 -1      1742 6.36255E-05-3.44485E-05-1.42780E-05-3.74428E-05 1.08945E-17-1.23904E-17
 -1      1743 3.51428E-05-4.17550E-05-4.65993E-07-2.61597E-05 6.97447E-18-1.02210E-17
 -1      1744 1.74084E-05-4.73024E-05 8.62370E-06-1.35122E-05 2.99596E-18-8.58298E-18
 -1      1745 1.12194E-05-4.66347E-05 1.10251E-05 2.35696E-06-1.69285E-18-8.55080E-18
 -1      1746 1.97828E-05-4.39720E-05 6.63669E-06 1.67362E-05-5.41678E-18-9.09502E-18
 -1      1747 4.06434E-05-4.03264E-05-3.20799E-06 2.85168E-05-1.03507E-17-1.00778E-17
 -1      1748 7.57713E-05-3.50668E-05-1.85205E-05 4.05092E-05-1.16518E-17-1.16459E-17
 -1      1749 1.18264E-04-3.20807E-05-3.60144E-05 4.54004E-05-1.13015E-17-1.25590E-17
 -1      1750 1.60576E-04-3.06565E-05-5.24525E-05 4.41774E-05-1.11512E-17-1.15815E-17
 -1      1751 1.93601E-04-3.25672E-05-6.42900E-05 2.88873E-05-9.60980E-18-7.59196E-18
 -1      1752 2.02616E-04-2.95760E-05-6.93112E-05 6.79214E-06-8.57240E-18-3.30555E-18
 -1      1753 2.02150E-04-3.13992E-05-6.82419E-05-1.53563E-05-8.15947E-18 9.71123E-19
 -1      1754 1.81712E-04-3.30648E-05-5.97504E-05-3.29175E-05-8.28430E-18 5.04493E-18
 -1      1755 1.43458E-04-3.14470E-05-4.57693E-05-4.34327E-05-9.52467E-18 8.31109E-18
 -1      1756 1.02278E-04-3.29625E-05-2.95763E-05-4.38331E-05-8.51861E-18 1.03173E-17
 -1      1757 6.47903E-05-3.67509E-05-1.35951E-05-3.71866E-05-7.95618E-18 8.87733E-18
 -1      1758 3.45142E-05-4.23310E-05 5.40697E-08-2.47458E-05-6.68648E-18 7.76594E-18
 -1      1759 1.76375E-05-4.87664E-05 9.03552E-06-1.28108E-05-3.77396E-18 7.92061E-18
 -1      1760 1.14583E-04-2.58030E-05-3.81434E-05-1.39274E-05-2.46963E-18 1.05667E-17
 -1      1761 9.24235E-05-1.13020E-05-3.49091E-05-7.30918E-06-3.13709E-18-3.08659E-18
 -1      1762 9.54232E-05-1.29038E-05-3.54953E-05-9.27089E-06-3.60108E-18-2.01583E-18
 -1      1763 9.90540E-05-1.58406E-05-3.58373E-05-1.05802E-05-3.62747E-18-6.30510E-19
 -1      1764 1.02181E-04-1.83178E-05-3.63993E-05-1.26399E-05-3.84652E-18 1.31989E-18
 -1      1765 9.94888E-05-1.81713E-05-3.48557E-05-7.94232E-06-3.79917E-18-1.12415E-18
 -1      1766 8.23744E-05-5.69336E-06-3.29448E-05-2.35961E-06-1.69741E-18-5.17663E-18
 -1      1767 8.44369E-05-6.49712E-06-3.34336E-05-3.40751E-06-2.09846E-18-4.86124E-18
 -1      1768 7.86622E-05-3.79717E-06-3.21473E-05-9.92761E-07-1.01108E-18-5.62448E-18
 -1      1769 8.03022E-05-4.41358E-06-3.25404E-05-1.67478E-06-1.34138E-18-5.46531E-18
 -1      1770 8.24220E-05-6.91459E-06-3.23874E-05-1.49320E-06-1.61755E-18-5.09964E-18
 -1      1771 7.61074E-05-2.48833E-06-3.15966E-05-2.79134E-07-3.33721E-19-5.67459E-18
 -1      1772 7.71602E-05-2.87942E-06-3.18488E-05-6.70775E-07-6.69857E-19-5.66889E-18
 -1      1773 7.86551E-05-4.73953E-06-3.16963E-05-4.67109E-07-8.65113E-19-5.45606E-18
 -1      1774 7.49662E-05-1.87794E-06-3.13541E-05 1.96131E-08 2.48602E-19-5.70491E-18
 -1      1775 7.53195E-05-2.00812E-06-3.14393E-05-2.15271E-07-3.15818E-20-5.72171E-18
 -1      1776 7.62364E-05-3.35215E-06-3.12469E-05-5.86273E-08-1.94871E-19-5.54946E-18
 -1      1777 7.53759E-05-2.04008E-06-3.14484E-05 2.32940E-07 8.51506E-19-5.57730E-18
 -1      1778 7.49869E-05-1.89393E-06-3.13575E-05-6.38085E-09 5.62162E-19-5.67979E-18
 -1      1779 7.54297E-05-2.89274E-06-3.10953E-05-1.75021E-09 4.35969E-19-5.52232E-18
 -1      1780 7.72858E-05-2.95699E-06-3.18687E-05 7.13215E-07 1.45833E-18-5.33248E-18
 -1      1781 7.62024E-05-2.55005E-06-3.16118E-05 3.09123E-07 1.16827E-18-5.51160E-18
 -1      1782 7.63342E-05-3.41963E-06-3.12606E-05 6.81124E-08 1.05531E-18-5.41701E-18
 -1      1783 8.04164E-05-4.49736E-06-3.25533E-05 1.73395E-06 2.07534E-18-4.81887E-18
 -1      1784 7.87889E-05-3.88198E-06-3.21658E-05 1.04933E-06 1.75459E-18-5.11561E-18
 -1      1785 7.88099E-05-4.85052E-06-3.17156E-05 5.05026E-07 1.69282E-18-5.06994E-18
 -1      1786 8.46080E-05-6.62344E-06-3.34533E-05 3.52076E-06 2.89584E-18-3.96422E-18
 -1      1787 8.25005E-05-5.79293E-06-3.29572E-05 2.43758E-06 2.47441E-18-4.43737E-18
 -1      1788 8.25924E-05-7.04745E-06-3.24043E-05 1.56224E-06 2.46045E-18-4.42298E-18
 -1      1789 8.96482E-05-9.36744E-06-3.44718E-05 6.14070E-06 3.56441E-18-2.71352E-18
 -1      1790 8.71437E-05-8.27295E-06-3.39121E-05 4.60408E-06 3.18506E-18-3.44531E-18
 -1      1791 8.74429E-05-9.94136E-06-3.32475E-05 3.34582E-06 3.20470E-18-3.44201E-18
 -1      1792 9.56760E-05-1.31644E-05-3.55014E-05 9.50818E-06 4.06571E-18-5.92552E-19
 -1      1793 9.26455E-05-1.15284E-05-3.49200E-05 7.50566E-06 3.74309E-18-1.87017E-18
 -1      1794 9.31944E-05-1.36288E-05-3.41221E-05 5.73295E-06 3.83376E-18-1.98543E-18
 -1      1795 1.03746E-04-1.94847E-05-3.62965E-05 1.27789E-05 4.02158E-18 3.40650E-18
 -1      1796 9.94685E-05-1.63222E-05-3.58200E-05 1.08050E-05 3.99798E-18 1.00908E-18
 -1      1797 1.00041E-04-1.87093E-05-3.48446E-05 8.14362E-06 4.13897E-18 3.24996E-19
 -1      1798 1.11129E-04-2.80605E-05-3.60243E-05 1.05961E-05 3.43313E-18 8.30939E-18
 -1      1799 1.06685E-04-2.23516E-05-3.61491E-05 1.25263E-05 3.74885E-18 5.12688E-18
 -1      1800 1.05948E-04-2.46216E-05-3.49131E-05 8.30347E-06 4.17203E-18 3.40994E-18
 -1      1801 1.08979E-04-2.93736E-05-3.43057E-05 5.61354E-06 3.45799E-18 7.22320E-18
 -1      1802 1.08968E-04-2.23849E-05-3.68151E-05-1.47373E-05-3.35049E-18 4.71533E-18
 -1      1803 1.07466E-04-3.10288E-05-3.27753E-05 4.49502E-07 2.77947E-18 5.56342E-18
 -1      1804 1.08721E-04-3.07980E-05-3.34320E-05 2.73164E-06 2.96287E-18 6.58266E-18
 -1      1805 1.07717E-04-2.88424E-05-3.38114E-05 4.32961E-06 3.50052E-18 4.48834E-18
 -1      1806 1.08550E-04-2.53345E-05-3.53916E-05-9.90070E-06-3.57911E-18 3.32243E-18
 -1      1807 1.07876E-04-3.03680E-05-3.31003E-05-1.39354E-06-2.86599E-18 2.89634E-18
 -1      1808 1.07187E-04-3.07666E-05-3.27196E-05 3.03051E-07-2.59338E-18 2.14566E-18
 -1      1809 1.07159E-04-3.12434E-05-3.24418E-05 1.70105E-06-2.32693E-18 2.12321E-18
 -1      1810 1.07466E-04-3.17435E-05-3.24307E-05 2.36612E-06-1.98478E-18 1.48699E-18
 -1      1811 1.06198E-04-2.99819E-05-3.26979E-05 7.41069E-07-2.83090E-18 7.78480E-19
 -1      1812 1.07859E-04-3.22140E-05-3.23647E-05 2.88761E-06-1.61219E-18 1.44782E-18
 -1      1813 1.08495E-04-3.27549E-05-3.24728E-05 2.89372E-06-1.27040E-18 1.02691E-18
 -1      1814 1.06757E-04-3.14909E-05-3.22865E-05 2.99115E-06-2.15607E-18 5.19125E-19
 -1      1815 1.09191E-04-3.33202E-05-3.24893E-05 2.64234E-06-1.03459E-18 1.09814E-18
 -1      1816 1.09770E-04-3.38532E-05-3.25816E-05 2.03705E-06-9.12969E-19 8.31912E-19
 -1      1817 1.08012E-04-3.29825E-05-3.21775E-05 3.38667E-06-1.36569E-18 2.94447E-19
 -1      1818 1.10574E-04-3.44613E-05-3.26092E-05 1.01231E-06-8.33891E-19 1.04428E-18
 -1      1819 1.10725E-04-3.48252E-05-3.25962E-05-1.79859E-07-5.94809E-19 7.40269E-19
 -1      1820 1.09657E-04-3.45806E-05-3.21857E-05 2.07013E-06-9.07371E-19 4.48987E-19
 -1      1821 1.11353E-04-3.52880E-05-3.26020E-05-1.89929E-06-4.24509E-19 7.66914E-19
 -1      1822 1.10760E-04-3.52301E-05-3.24354E-05-3.49046E-06-5.34240E-19 6.85743E-19
 -1      1823 1.11213E-04-3.59956E-05-3.22265E-05-8.87292E-07-5.43865E-19 6.83223E-19
 -1      1824 1.10842E-04-3.52324E-05-3.24251E-05-5.52821E-06-6.33475E-19 8.87370E-19
 -1      1825 1.09359E-04-3.44958E-05-3.21147E-05-7.02290E-06-6.66086E-19 6.88605E-19
 -1      1826 1.11989E-04-3.65518E-05-3.22960E-05-5.03002E-06-5.73471E-19 8.01405E-19
 -1      1827 1.08581E-04-3.37322E-05-3.21176E-05-8.56220E-06-8.22982E-19 8.45140E-19
 -1      1828 1.06422E-04-3.22812E-05-3.17426E-05-9.17436E-06-5.57478E-19 7.73791E-19
 -1      1829 1.11244E-04-3.54307E-05-3.24448E-05-9.09068E-06-7.27701E-19 8.35173E-19
 -1      1830 1.04866E-04-3.08058E-05-3.17857E-05-9.13919E-06-7.68540E-19 5.29131E-20
 -1      1831 1.02719E-04-2.91047E-05-3.14686E-05-8.17205E-06-1.15265E-18-6.09328E-19
 -1      1832 1.08690E-04-3.22965E-05-3.27122E-05-1.09555E-05-1.20792E-18 3.58632E-19
 -1      1833 1.01178E-04-2.76382E-05-3.15340E-05-5.96679E-06-1.52682E-18-1.05779E-18
 -1      1834 9.99986E-05-2.65942E-05-3.13849E-05-3.46742E-06-1.65003E-18-1.56539E-18
 -1      1835 1.05267E-04-2.82634E-05-3.30430E-05-8.59746E-06-1.76152E-18-7.44123E-19
 -1      1836 9.95763E-05-2.61601E-05-3.14234E-05 1.84672E-07-1.72238E-18-2.05212E-18
 -1      1837 1.00001E-04-2.64575E-05-3.14985E-05 3.14729E-06-1.54269E-18-2.30129E-18
 -1      1838 1.03080E-04-2.56758E-05-3.32740E-05-2.00852E-06-2.13704E-18-1.79609E-18
 -1      1839 1.01071E-04-2.74064E-05-3.14890E-05 6.43970E-06-1.47355E-18-2.84593E-18
 -1      1840 1.02941E-04-2.88719E-05-3.17745E-05 8.44969E-06-1.20019E-18-3.11635E-18
 -1      1841 1.03785E-04-2.63603E-05-3.32666E-05 5.87139E-06-1.89476E-18-2.34240E-18
 -1      1842 1.04743E-04-3.05023E-05-3.17528E-05 9.85361E-06-1.00479E-18-3.68283E-18
 -1      1843 1.07224E-04-3.22763E-05-3.21668E-05 1.01857E-05-2.87383E-19-3.47552E-18
 -1      1844 1.06948E-04-2.98521E-05-3.30523E-05 1.10882E-05-1.18068E-18-2.98636E-18
 -1      1845 1.08656E-04-3.35776E-05-3.21714E-05 9.49832E-06-1.96657E-19-3.90039E-18
 -1      1846 1.10825E-04-3.48627E-05-3.25898E-05 8.43983E-06 1.36319E-21-3.85653E-18
 -1      1847 1.10494E-04-3.38731E-05-3.27918E-05 1.17012E-05-5.63648E-19-4.16779E-18
 -1      1848 1.11338E-04-3.53567E-05-3.26156E-05 6.53623E-06 2.10183E-19-3.78657E-18
 -1      1849 1.12661E-04-3.58905E-05-3.29206E-05 4.87687E-06 6.02803E-19-3.52777E-18
 -1      1850 1.12603E-04-3.64035E-05-3.26076E-05 8.64664E-06 2.50583E-19-4.21460E-18
 -1      1851 1.12349E-04-3.57048E-05-3.29247E-05 2.77603E-06 2.38982E-19-3.67850E-18
 -1      1852 1.12740E-04-3.56357E-05-3.30522E-05 1.19905E-06 1.39072E-19-3.62812E-18
 -1      1853 1.12815E-04-3.69100E-05-3.24979E-05 4.15023E-06 2.73559E-19-3.59512E-18
 -1      1854 1.11929E-04-3.51005E-05-3.29990E-05-4.79333E-07 5.32281E-19-3.25987E-18
 -1      1855 1.11566E-04-3.46938E-05-3.29488E-05-1.62787E-06 4.03108E-19-2.68196E-18
 -1      1856 1.11620E-04-3.60262E-05-3.23851E-05-5.53043E-09 4.17465E-19-3.09345E-18
 -1      1857 1.10551E-04-3.40796E-05-3.28257E-05-2.68907E-06-9.19560E-20-2.17757E-18
 -1      1858 1.09705E-04-3.35515E-05-3.26385E-05-3.34942E-06 1.16656E-19-2.31340E-18
 -1      1859 1.09695E-04-3.45623E-05-3.22004E-05-2.97566E-06 3.98046E-19-2.23163E-18
 -1      1860 1.08663E-04-3.29982E-05-3.24571E-05-3.85724E-06 2.82500E-19-2.39851E-18
 -1      1861 1.07579E-04-3.24734E-05-3.21878E-05-4.11935E-06 5.78414E-19-2.56023E-18
 -1      1862 1.07551E-04-3.30876E-05-3.19192E-05-4.65606E-06 8.77225E-20-2.06103E-18
 -1      1863 1.06601E-04-3.20245E-05-3.19711E-05-4.22843E-06 8.59158E-19-2.51223E-18
 -1      1864 1.05457E-04-3.15587E-05-3.16690E-05-4.22231E-06 6.96158E-19-2.35835E-18
 -1      1865 1.05468E-04-3.18518E-05-3.15580E-05-5.30062E-06 7.30563E-19-1.52355E-18
 -1      1866 1.04580E-04-3.12111E-05-3.14406E-05-4.08599E-06 5.10225E-19-1.66838E-18
 -1      1867 1.03492E-04-3.08213E-05-3.11416E-05-3.92662E-06 5.47506E-19-1.29903E-18
 -1      1868 1.03572E-04-3.09047E-05-3.11518E-05-5.24745E-06 1.05347E-18-1.22149E-18
 -1      1869 1.02729E-04-3.05572E-05-3.09201E-05-3.66326E-06 2.39156E-19-7.90862E-19
 -1      1870 1.01759E-04-3.02420E-05-3.06462E-05-3.43376E-06 6.08021E-19-1.01777E-19
 -1      1871 1.01910E-04-3.02102E-05-3.07370E-05-4.79132E-06 8.76153E-19 1.95976E-20
 -1      1872 1.01111E-04-3.00425E-05-3.04438E-05-3.12293E-06 4.93496E-19-7.27650E-19
 -1      1873 1.00284E-04-2.97937E-05-3.02058E-05-2.87603E-06 5.55860E-19-5.68621E-19
 -1      1874 1.00490E-04-2.97109E-05-3.03422E-05-4.14667E-06 6.67456E-19-6.17307E-19
 -1      1875 9.97452E-05-2.96431E-05-3.00290E-05-2.56574E-06 1.80251E-20-7.84966E-19
 -1      1876 9.90643E-05-2.94504E-05-2.98300E-05-2.33123E-06 1.84188E-20-8.68041E-19
 -1      1877 9.93027E-05-2.93545E-05-2.99856E-05-3.45205E-06 8.77175E-20-1.59701E-18
 -1      1878 9.86246E-05-2.93370E-05-2.96808E-05-2.04726E-06-2.21980E-19-1.22364E-18
 -1      1879 9.80792E-05-2.91902E-05-2.95195E-05-1.83967E-06-6.51753E-19-1.49589E-18
 -1      1880 9.83288E-05-2.91005E-05-2.96764E-05-2.78792E-06-3.87961E-19-1.69470E-18
 -1      1881 9.77271E-05-2.91053E-05-2.93971E-05-1.59349E-06-8.05722E-19-1.19874E-18
 -1      1882 9.73005E-05-2.89955E-05-2.92696E-05-1.41799E-06-4.93170E-19-1.67610E-18
 -1      1883 9.75444E-05-2.89199E-05-2.94168E-05-2.19513E-06-6.16413E-19-8.81798E-19
 -1      1884 9.70238E-05-2.89325E-05-2.91716E-05-1.21251E-06 3.45755E-19-2.05843E-18
 -1      1885 9.66974E-05-2.88519E-05-2.90732E-05-1.06903E-06 8.07961E-19-1.78012E-18
 -1      1886 9.69238E-05-2.87922E-05-2.92047E-05-1.68957E-06-2.91714E-19-7.94626E-19
 -1      1887 9.64838E-05-2.88057E-05-2.89965E-05-9.02429E-07 4.14641E-19-1.93761E-18
 -1      1888 9.62394E-05-2.87477E-05-2.89221E-05-7.88185E-07-5.29042E-19-1.72916E-18
 -1      1889 9.64415E-05-2.87029E-05-2.90354E-05-1.27255E-06 2.89992E-19-1.82274E-18
 -1      1890 9.60776E-05-2.87145E-05-2.88632E-05-6.56315E-07-1.39207E-18-1.88970E-18
 -1      1891 9.58987E-05-2.86739E-05-2.88082E-05-5.67394E-07-1.28839E-18-1.98606E-18
 -1      1892 9.60734E-05-2.86416E-05-2.89031E-05-9.37563E-07-6.30130E-19-2.11525E-18
 -1      1893 9.57785E-05-2.86504E-05-2.87640E-05-4.65224E-07-1.07398E-18-1.80993E-18
 -1      1894 9.56506E-05-2.86228E-05-2.87243E-05-3.97444E-07-4.92311E-19-1.60903E-18
 -1      1895 9.57977E-05-2.86005E-05-2.88018E-05-6.74501E-07-1.20195E-18-9.11915E-19
 -1      1896 9.55633E-05-2.86068E-05-2.86917E-05-3.19872E-07-5.39175E-20-1.31016E-18
 -1      1897 9.54746E-05-2.85888E-05-2.86638E-05-2.69261E-07 5.95575E-19-8.58191E-19
 -1      1898 9.55955E-05-2.85741E-05-2.87259E-05-4.72155E-07-3.15395E-19 2.56743E-19
 -1      1899 9.54127E-05-2.85782E-05-2.86404E-05-2.11552E-07 2.31728E-19-1.18442E-18
 -1      1900 9.53533E-05-2.85672E-05-2.86214E-05-1.74563E-07 5.21338E-19-1.53197E-18
 -1      1901 9.54507E-05-2.85580E-05-2.86702E-05-3.19610E-07 2.25751E-19-5.16213E-19
 -1      1902 9.53107E-05-2.85606E-05-2.86051E-05-1.32548E-07 3.18669E-19-1.86947E-18
 -1      1903 9.52728E-05-2.85545E-05-2.85927E-05-1.06145E-07 3.22037E-19-2.01127E-18
 -1      1904 9.53497E-05-2.85492E-05-2.86302E-05-2.06956E-07-3.33592E-19-1.29043E-18
 -1      1905 9.52447E-05-2.85507E-05-2.85816E-05-7.62827E-08 1.20555E-19-2.95123E-18
 -1      1906 9.52222E-05-2.85479E-05-2.85740E-05-5.79485E-08 1.83049E-19-2.49279E-18
 -1      1907 9.52818E-05-2.85454E-05-2.86024E-05-1.25591E-07-2.09573E-19-1.49431E-18
 -1      1908 9.52046E-05-2.85461E-05-2.85669E-05-3.73148E-08 2.10381E-19-2.54558E-18
 -1      1909 9.51930E-05-2.85455E-05-2.85627E-05-2.50071E-08 4.76813E-19-2.23888E-18
 -1      1910 9.52381E-05-2.85447E-05-2.85837E-05-6.82914E-08 4.30732E-19-1.94006E-18
 -1      1911 9.51829E-05-2.85450E-05-2.85584E-05-1.12429E-08 1.22365E-18-1.47799E-18
 -1      1912 9.51785E-05-2.85458E-05-2.85565E-05-3.34197E-09 1.21413E-18-1.13300E-18
 -1      1913 9.52120E-05-2.85461E-05-2.85717E-05-2.91416E-08 1.08920E-18-1.21307E-18
 -1      1914 9.51737E-05-2.85461E-05-2.85542E-05 5.41724E-09 5.02608E-19-9.78414E-19
 -1      1915 9.51741E-05-2.85477E-05-2.85539E-05 1.01707E-08 6.30723E-19-8.97546E-19
 -1      1916 9.51981E-05-2.85486E-05-2.85645E-05-3.40437E-09 9.39116E-19-1.17845E-18
 -1      1917 9.51727E-05-2.85485E-05-2.85530E-05 1.53689E-08 7.11298E-19-8.16346E-19
 -1      1918 9.51760E-05-2.85506E-05-2.85536E-05 1.79342E-08 3.85457E-19-4.09745E-19
 -1      1919 9.51927E-05-2.85516E-05-2.85607E-05 1.26371E-08 9.90832E-19-5.98026E-19
 -1      1920 9.51769E-05-2.85516E-05-2.85536E-05 2.06657E-08-2.26248E-19-5.11082E-19
 -1      1921 9.51818E-05-2.85538E-05-2.85548E-05 2.17560E-08-3.17989E-19-4.37245E-19
 -1      1922 9.51928E-05-2.85548E-05-2.85593E-05 2.18389E-08-4.65412E-20-3.82803E-19
 -1      1923 9.51840E-05-2.85549E-05-2.85553E-05 2.28288E-08-7.12993E-19-4.08545E-19
 -1      1924 9.51897E-05-2.85571E-05-2.85567E-05 2.29580E-08 5.39582E-19-2.16954E-19
 -1      1925 9.51962E-05-2.85580E-05-2.85594E-05 2.63449E-08 4.05883E-21-1.03912E-19
 -1      1926 9.51926E-05-2.85583E-05-2.85576E-05 2.29473E-08 1.85573E-18-9.25051E-19
 -1      1927 9.51984E-05-2.85603E-05-2.85591E-05 2.24675E-08 1.56407E-18-1.03932E-19
 -1      1928 9.52016E-05-2.85609E-05-2.85604E-05 2.77175E-08 6.76483E-19-7.71068E-19
 -1      1929 9.52016E-05-2.85614E-05-2.85601E-05 2.17595E-08 5.67233E-19 1.41854E-19
 -1      1930 9.52071E-05-2.85633E-05-2.85616E-05 2.08896E-08 1.18206E-18 1.59286E-18
 -1      1931 9.52079E-05-2.85637E-05-2.85618E-05 2.70464E-08 1.61733E-18-4.02166E-19
 -1      1932 9.52103E-05-2.85644E-05-2.85626E-05 1.97156E-08 8.43732E-19 1.10992E-18
 -1      1933 9.52154E-05-2.85661E-05-2.85640E-05 1.85623E-08 1.26961E-18 3.07307E-19
 -1      1934 9.52144E-05-2.85662E-05-2.85635E-05 2.50358E-08 1.09037E-18 6.69809E-19
 -1      1935 9.52183E-05-2.85671E-05-2.85649E-05 1.70274E-08 2.37348E-19-5.37368E-19
 -1      1936 9.52227E-05-2.85686E-05-2.85661E-05 1.56018E-08-3.40582E-19-1.39992E-18
 -1      1937 9.52206E-05-2.85685E-05-2.85652E-05 2.20773E-08-7.06545E-20-6.28839E-19
 -1      1938 9.52254E-05-2.85696E-05-2.85669E-05 1.37248E-08-2.81908E-19-2.28159E-18
 -1      1939 9.52289E-05-2.85708E-05-2.85678E-05 1.19610E-08-5.57175E-19-1.60572E-18
 -1      1940 9.52263E-05-2.85707E-05-2.85667E-05 1.83196E-08-1.23099E-18-1.61749E-18
 -1      1941 9.52309E-05-2.85716E-05-2.85683E-05 9.83811E-09-3.71348E-19-1.83326E-18
 -1      1942 9.52335E-05-2.85726E-05-2.85690E-05 7.76841E-09 3.45775E-19-1.69567E-18
 -1      1943 9.52346E-05-2.85741E-05-2.85688E-05 9.10475E-09-8.14682E-19-3.32768E-18
 -1      1944 9.52310E-05-2.85727E-05-2.85678E-05 1.39101E-08-7.81263E-19-1.84598E-18
 -1      1945 1.07409E-04-3.17484E-05-3.24003E-05-1.79279E-06 1.97289E-18 4.26553E-18
 -1      1946 1.07442E-04-3.14752E-05-3.25002E-05-7.91957E-07 2.25990E-18 5.17484E-18
 -1      1947 1.07079E-04-3.07664E-05-3.27249E-05-2.60756E-07 2.80093E-18 3.52020E-18
 -1      1948 1.08338E-04-3.24963E-05-3.24961E-05-2.55715E-06 1.36340E-18 3.38338E-18
 -1      1949 1.07786E-04-3.21321E-05-3.23818E-05-2.22138E-06 1.39444E-18 3.93019E-18
 -1      1950 1.07348E-04-3.17841E-05-3.24019E-05-2.38022E-06 1.89525E-18 2.86194E-18
 -1      1951 1.09626E-04-3.33323E-05-3.27112E-05-2.13181E-06 7.50946E-19 2.77919E-18
 -1      1952 1.08963E-04-3.29448E-05-3.25652E-05-2.34748E-06 9.65295E-19 3.24991E-18
 -1      1953 1.08387E-04-3.27902E-05-3.24124E-05-2.83347E-06 1.28260E-18 2.21424E-18
 -1      1954 1.10615E-04-3.40880E-05-3.28242E-05-5.30802E-07 5.22768E-19 2.36004E-18
 -1      1955 1.10243E-04-3.38043E-05-3.27663E-05-1.31276E-06 6.18718E-19 2.69110E-18
 -1      1956 1.09689E-04-3.38579E-05-3.25024E-05-1.82763E-06 7.87062E-19 1.63475E-18
 -1      1957 1.10651E-04-3.44460E-05-3.26859E-05 2.12843E-06 4.85998E-19 2.25010E-18
 -1      1958 1.10927E-04-3.44390E-05-3.28004E-05 8.26206E-07 2.84113E-19 2.24569E-18
 -1      1959 1.10679E-04-3.47647E-05-3.25206E-05 5.63779E-07 4.99247E-19 1.49128E-18
 -1      1960 1.09196E-04-3.40010E-05-3.22363E-05 5.29070E-06 7.75439E-19 2.70107E-18
 -1      1961 1.10352E-04-3.44473E-05-3.25563E-05 3.73777E-06 6.36817E-19 2.74339E-18
 -1      1962 1.10730E-04-3.50692E-05-3.23930E-05 3.99112E-06 5.32929E-19 1.83991E-18
 -1      1963 1.06086E-04-3.24481E-05-3.15432E-05 7.76372E-06 9.32676E-19 2.41382E-18
 -1      1964 1.08090E-04-3.34209E-05-3.20215E-05 6.54889E-06 9.22081E-19 2.79784E-18
 -1      1965 1.09317E-04-3.42462E-05-3.21287E-05 7.48631E-06 9.15457E-19 2.54834E-18
 -1      1966 1.01930E-04-2.99817E-05-3.08116E-05 7.96237E-06 5.66596E-19 2.03664E-18
 -1      1967 1.04319E-04-3.12726E-05-3.13134E-05 7.85192E-06 7.75763E-19 2.21009E-18
 -1      1968 1.06372E-04-3.20522E-05-3.18162E-05 9.40090E-06 9.76023E-19 2.64082E-18
 -1      1969 9.82821E-05-2.76043E-05-3.02916E-05 4.92868E-06 1.55553E-18 1.18524E-18
 -1      1970 1.00205E-04-2.86688E-05-3.06457E-05 6.34648E-06 1.09266E-18 1.46722E-18
 -1      1971 1.02777E-04-2.91319E-05-3.15758E-05 8.04371E-06 1.38819E-18 1.76634E-18
 -1      1972 9.70235E-05-2.66994E-05-3.01739E-05-5.24405E-07 1.64965E-18-1.45762E-19
 -1      1973 9.75927E-05-2.69418E-05-3.02426E-05 1.98457E-06 1.76909E-18 5.21144E-19
 -1      1974 1.00268E-04-2.69550E-05-3.14768E-05 3.08858E-06 2.12939E-18 3.54993E-19
 -1      1975 9.90229E-05-2.79183E-05-3.05154E-05-5.90815E-06 1.64369E-18-1.76216E-18
 -1      1976 9.78875E-05-2.71670E-05-3.02608E-05-3.48016E-06 1.67530E-18-1.02753E-18
 -1      1977 1.00385E-04-2.69179E-05-3.15401E-05-3.54856E-06 2.18742E-18-9.42116E-19
 -1      1978 1.03340E-04-3.05262E-05-3.12209E-05-8.78152E-06 6.98882E-19-2.51557E-18
 -1      1979 1.00967E-04-2.91974E-05-3.07234E-05-7.49356E-06 1.22245E-18-1.91183E-18
 -1      1980 1.03160E-04-2.90857E-05-3.17595E-05-8.71315E-06 1.59736E-18-1.89886E-18
 -1      1981 1.08009E-04-3.31184E-05-3.20746E-05-8.41506E-06-3.89893E-19-2.77732E-18
 -1      1982 1.05344E-04-3.18422E-05-3.14963E-05-8.53454E-06 1.12438E-19-3.01107E-18
 -1      1983 1.07082E-04-3.21325E-05-3.21003E-05-1.03274E-05 5.11622E-19-2.49810E-18
 -1      1984 1.11399E-04-3.47135E-05-3.28265E-05-5.80666E-06-1.67090E-19-3.31214E-18
 -1      1985 1.09291E-04-3.38984E-05-3.23369E-05-6.87782E-06 1.32627E-19-2.75879E-18
 -1      1986 1.10374E-04-3.45310E-05-3.24831E-05-8.54323E-06 9.89705E-20-3.08398E-18
 -1      1987 1.12908E-04-3.51554E-05-3.32867E-05-2.52115E-06 6.57245E-20-3.51867E-18
 -1      1988 1.11761E-04-3.48676E-05-3.29961E-05-3.88240E-06-3.29125E-19-3.71393E-18
 -1      1989 1.12075E-04-3.55516E-05-3.27886E-05-4.97277E-06 3.08571E-19-3.51681E-18
 -1      1990 1.12732E-04-3.47751E-05-3.33883E-05 3.04641E-07-1.66429E-20-3.05471E-18
 -1      1991 1.12539E-04-3.48829E-05-3.33230E-05-8.75386E-07 3.05435E-19-2.93853E-18
 -1      1992 1.12164E-04-3.53751E-05-3.29147E-05-1.27365E-06 2.46632E-20-3.42397E-18
 -1      1993 1.11394E-04-3.39799E-05-3.31695E-05 2.20904E-06-3.14812E-19-2.85166E-18
 -1      1994 1.11921E-04-3.43132E-05-3.32937E-05 1.40300E-06-3.46747E-19-2.88030E-18
 -1      1995 1.11082E-04-3.45215E-05-3.28213E-05 1.59222E-06-2.60324E-19-2.79709E-18
 -1      1996 1.09418E-04-3.30607E-05-3.27259E-05 3.20587E-06 1.50841E-19-1.99681E-18
 -1      1997 1.10381E-04-3.34867E-05-3.29758E-05 2.77248E-06-9.74683E-20-2.58778E-18
 -1      1998 1.09333E-04-3.34475E-05-3.25304E-05 3.35988E-06-2.43178E-19-2.75590E-18
 -1      1999 1.07208E-04-3.21772E-05-3.21622E-05 3.51516E-06-2.12429E-19-1.71012E-18
 -1      2000 1.08365E-04-3.26131E-05-3.24745E-05 3.36701E-06 7.85516E-20-1.52832E-18
 -1      2001 1.07307E-04-3.24139E-05-3.21023E-05 4.16675E-06-1.82426E-19-2.06098E-18
 -1      2002 1.05032E-04-3.13980E-05-3.15644E-05 3.38715E-06 9.30670E-19-2.07174E-18
 -1      2003 1.06208E-04-3.17999E-05-3.18903E-05 3.42300E-06 1.60632E-19-1.85945E-18
 -1      2004 1.05264E-04-3.15267E-05-3.16048E-05 4.29103E-06 2.48461E-19-1.84078E-18
 -1      2005 1.03042E-04-3.07426E-05-3.09915E-05 3.02473E-06 1.74300E-19-2.51125E-18
 -1      2006 1.04134E-04-3.10914E-05-3.12993E-05 3.16142E-06 9.69338E-19-2.22573E-18
 -1      2007 1.03358E-04-3.08063E-05-3.10954E-05 4.00229E-06 1.12863E-18-1.92682E-18
 -1      2008 1.01310E-04-3.02078E-05-3.04773E-05 2.56713E-06-1.59586E-18-2.04137E-18
 -1      2009 1.02266E-04-3.04985E-05-3.07499E-05 2.74694E-06-1.10046E-18-2.93620E-18
 -1      2010 1.01668E-04-3.02375E-05-3.06142E-05 3.50635E-06-7.88407E-19-1.66681E-18
 -1      2011 9.98588E-05-2.97809E-05-3.00367E-05 2.09919E-06-6.78821E-19-2.33610E-19
 -1      2012 1.00661E-04-3.00161E-05-3.02674E-05 2.28647E-06-1.28735E-18-1.71333E-18
 -1      2013 1.00223E-04-2.97954E-05-3.01843E-05 2.93990E-06-1.72098E-18-1.10794E-18
 -1      2014 9.86768E-05-2.94466E-05-2.96722E-05 1.66676E-06-8.14133E-19 2.31916E-19
 -1      2015 9.93280E-05-2.96321E-05-2.98609E-05 1.84185E-06-4.11804E-19 2.02460E-19
 -1      2016 9.90236E-05-2.94557E-05-2.98162E-05 2.38413E-06-8.53711E-19 3.02663E-20
 -1      2017 9.77378E-05-2.91893E-05-2.93791E-05 1.29060E-06 6.88540E-19 1.40032E-18
 -1      2018 9.82527E-05-2.93325E-05-2.95292E-05 1.44426E-06-9.25888E-20 9.14825E-19
 -1      2019 9.80529E-05-2.91973E-05-2.95111E-05 1.88146E-06-2.11923E-19 4.67730E-19
 -1      2020 9.70082E-05-2.89947E-05-2.91492E-05 9.76573E-07 1.94569E-19 8.42307E-19
 -1      2021 9.74059E-05-2.91030E-05-2.92657E-05 1.10581E-06 5.63495E-19 1.25104E-18
 -1      2022 9.72842E-05-2.90032E-05-2.92649E-05 1.44972E-06 6.98719E-19 1.13666E-18
 -1      2023 9.64532E-05-2.88504E-05-2.89727E-05 7.22352E-07 7.75447E-19 4.39122E-19
 -1      2024 9.67535E-05-2.89305E-05-2.90612E-05 8.27682E-07 4.24743E-19 8.01120E-19
 -1      2025 9.66879E-05-2.88594E-05-2.90709E-05 1.09223E-06 4.97849E-19 1.35690E-18
 -1      2026 9.60398E-05-2.87455E-05-2.88402E-05 5.21646E-07 7.61515E-19-2.72915E-19
 -1      2027 9.62616E-05-2.88035E-05-2.89059E-05 6.05342E-07 9.69108E-19 2.73310E-19
 -1      2028 9.62344E-05-2.87547E-05-2.89213E-05 8.04504E-07 1.12303E-18 8.51795E-19
 -1      2029 9.57387E-05-2.86712E-05-2.87429E-05 3.66648E-07-2.93612E-19-9.84829E-19
 -1      2030 9.58987E-05-2.87120E-05-2.87906E-05 4.31702E-07 2.96012E-19-1.26446E-18
 -1      2031 9.58966E-05-2.86800E-05-2.88084E-05 5.78367E-07 7.73100E-19-5.59790E-19
 -1      2032 9.55249E-05-2.86199E-05-2.86732E-05 2.49416E-07-8.24029E-20-1.89462E-18
 -1      2033 9.56372E-05-2.86478E-05-2.87068E-05 2.98950E-07-3.17928E-19-1.14550E-18
 -1      2034 9.56504E-05-2.86281E-05-2.87250E-05 4.04403E-07 7.87732E-20-9.43852E-19
 -1      2035 9.53776E-05-2.85859E-05-2.86246E-05 1.62588E-07-5.72836E-19-1.24560E-18
 -1      2036 9.54538E-05-2.86043E-05-2.86476E-05 1.99541E-07 6.41685E-20-1.79064E-18
 -1      2037 9.54755E-05-2.85932E-05-2.86648E-05 2.73300E-07-9.70440E-20-1.75141E-18
 -1      2038 9.52798E-05-2.85645E-05-2.85919E-05 9.96950E-08-2.36971E-20-6.77773E-19
 -1      2039 9.53294E-05-2.85759E-05-2.86070E-05 1.26680E-07-3.13017E-19-3.25504E-19
 -1      2040 9.53547E-05-2.85708E-05-2.86225E-05 1.76550E-07-4.15227E-19-1.16085E-18
 -1      2041 9.52183E-05-2.85521E-05-2.85709E-05 5.52679E-08 1.12051E-18-5.34964E-19
 -1      2042 9.52486E-05-2.85585E-05-2.85803E-05 7.45137E-08 7.14184E-19-5.36191E-19
 -1      2043 9.52745E-05-2.85574E-05-2.85937E-05 1.06746E-07 9.26061E-19-9.54153E-21
 -1      2044 9.51828E-05-2.85459E-05-2.85583E-05 2.48055E-08 1.41240E-18-1.62804E-18
 -1      2045 9.51994E-05-2.85489E-05-2.85637E-05 3.81602E-08 1.50255E-18-4.46018E-19
 -1      2046 9.52240E-05-2.85502E-05-2.85750E-05 5.76593E-08 1.43684E-18 8.21048E-19
 -1      2047 9.51652E-05-2.85439E-05-2.85517E-05 4.68990E-09-9.65403E-19-1.39703E-18
 -1      2048 9.51725E-05-2.85446E-05-2.85542E-05 1.36497E-08-1.61077E-19-1.99560E-18
 -1      2049 9.51946E-05-2.85473E-05-2.85636E-05 2.41863E-08 4.43877E-19 2.57523E-20
 -1      2050 9.51596E-05-2.85445E-05-2.85491E-05-7.92790E-09 4.55507E-19-1.43931E-18
 -1      2051 9.51608E-05-2.85438E-05-2.85497E-05-2.17680E-09-9.80148E-20-1.36092E-18
 -1      2052 9.51800E-05-2.85471E-05-2.85573E-05 2.24059E-09 2.70070E-20-1.77547E-18
 -1      2053 9.51619E-05-2.85468E-05-2.85491E-05-1.52462E-08-1.13918E-18-1.03573E-18
 -1      2054 9.51592E-05-2.85453E-05-2.85486E-05-1.17824E-08-5.82066E-19-1.70730E-18
 -1      2055 9.51753E-05-2.85487E-05-2.85545E-05-1.13834E-08-4.42916E-19-1.68395E-18
 -1      2056 9.51688E-05-2.85500E-05-2.85508E-05-1.89251E-08-6.99593E-19 5.33952E-19
 -1      2057 9.51639E-05-2.85480E-05-2.85495E-05-1.70481E-08-5.01486E-19-3.65248E-20
 -1      2058 9.51770E-05-2.85513E-05-2.85541E-05-1.91491E-08-1.34271E-18-1.42691E-19
 -1      2059 9.51782E-05-2.85535E-05-2.85533E-05-2.01859E-08 2.95166E-21 2.61036E-19
 -1      2060 9.51722E-05-2.85513E-05-2.85517E-05-1.93771E-08-3.57984E-19-1.68335E-19
 -1      2061 9.51826E-05-2.85543E-05-2.85551E-05-2.29066E-08-4.62416E-19 2.60609E-19
 -1      2062 9.51887E-05-2.85570E-05-2.85563E-05-1.98950E-08-9.92057E-19 9.79624E-19
 -1      2063 9.51823E-05-2.85549E-05-2.85546E-05-1.97844E-08-6.40352E-19 3.96631E-19
 -1      2064 9.51903E-05-2.85574E-05-2.85570E-05-2.40056E-08-7.87830E-19 1.23058E-18
 -1      2065 9.51992E-05-2.85605E-05-2.85594E-05-1.86295E-08 1.45538E-18-1.22702E-18
 -1      2066 9.51929E-05-2.85584E-05-2.85577E-05-1.89701E-08 6.18534E-19 3.64745E-20
 -1      2067 9.51988E-05-2.85605E-05-2.85594E-05-2.33895E-08 1.23045E-18 8.97734E-19
 -1      2068 9.52092E-05-2.85636E-05-2.85623E-05-1.67277E-08 2.44274E-18-3.10142E-18
 -1      2069 9.52034E-05-2.85618E-05-2.85607E-05-1.73768E-08 2.20288E-18-1.95439E-18
 -1      2070 9.52074E-05-2.85634E-05-2.85618E-05-2.16699E-08 2.67415E-18-2.15074E-19
 -1      2071 9.52181E-05-2.85665E-05-2.85650E-05-1.43210E-08 1.78745E-18-3.88075E-18
 -1      2072 9.52130E-05-2.85649E-05-2.85635E-05-1.52306E-08 1.51205E-18-3.22005E-18
 -1      2073 9.52155E-05-2.85661E-05-2.85641E-05-1.91833E-08 2.10501E-18-8.22849E-19
 -1      2074 9.52257E-05-2.85690E-05-2.85671E-05-1.13774E-08-2.81082E-19-3.26830E-18
 -1      2075 9.52214E-05-2.85676E-05-2.85660E-05-1.25775E-08 4.36873E-19-3.94799E-18
 -1      2076 9.52228E-05-2.85686E-05-2.85661E-05-1.60352E-08 5.10542E-19-1.40333E-18
 -1      2077 9.52316E-05-2.85711E-05-2.85688E-05-7.76671E-09-1.05513E-18-7.62781E-19
 -1      2078 9.52284E-05-2.85700E-05-2.85679E-05-9.34824E-09-4.73341E-19-1.46603E-18
 -1      2079 9.52290E-05-2.85708E-05-2.85678E-05-1.22006E-08-1.27689E-18 8.01024E-19
 -1      2080 9.52351E-05-2.85725E-05-2.85697E-05-4.60046E-09-3.86374E-20 1.46296E-18
 -1      2081 9.52330E-05-2.85718E-05-2.85691E-05-6.48142E-09-9.82335E-20 7.15020E-19
 -1      2082 9.52332E-05-2.85726E-05-2.85688E-05-8.65785E-09-9.71394E-19 3.43482E-18
 -1      2083 9.52357E-05-2.85737E-05-2.85694E-05-5.73954E-09-4.14234E-19 5.19788E-18
 -1      2084 9.52426E-05-2.85887E-05-2.85659E-05-1.23774E-08 8.91819E-19 1.16400E-18
 -1      2085 9.52412E-05-2.85855E-05-2.85667E-05-1.23335E-08-3.75565E-19 2.90528E-19
 -1      2086 9.52398E-05-2.85829E-05-2.85673E-05-1.18345E-08-1.03765E-18 4.51891E-19
 -1      2087 9.52384E-05-2.85798E-05-2.85680E-05-1.08739E-08-1.66341E-18 4.14245E-18
 -1      2088 9.52399E-05-2.85833E-05-2.85671E-05-1.52215E-08-1.66603E-18 1.60953E-18
 -1      2089 9.52375E-05-2.85779E-05-2.85684E-05-9.42320E-09-9.68849E-19 3.17472E-18
 -1      2090 9.52363E-05-2.85754E-05-2.85690E-05-7.69349E-09-7.57414E-19 3.48428E-18
 -1      2091 9.52353E-05-2.85750E-05-2.85687E-05-9.31739E-09-9.58869E-19 3.11119E-18
 -1      2092 9.52373E-05-2.85787E-05-2.85680E-05-1.29959E-08-2.21005E-18 3.20831E-18
 -1      2093 9.52451E-05-2.85941E-05-2.85646E-05-1.12202E-08-1.28677E-19-8.53200E-19
 -1      2094 9.52438E-05-2.85912E-05-2.85654E-05-1.19018E-08 4.49290E-19 4.13347E-19
 -1      2095 9.52430E-05-2.85885E-05-2.85662E-05-1.51931E-08-5.76770E-19-4.84778E-19
 -1      2096 9.52470E-05-2.85986E-05-2.85636E-05-8.67929E-09 1.09492E-18 1.32273E-19
 -1      2097 9.52460E-05-2.85962E-05-2.85642E-05-9.93324E-09 2.18274E-19 1.00703E-18
 -1      2098 9.52456E-05-2.85931E-05-2.85654E-05-1.32083E-08-4.73539E-19-2.32403E-20
 -1      2099 9.52483E-05-2.86017E-05-2.85628E-05-5.17568E-09 9.46174E-19-1.47182E-19
 -1      2100 9.52477E-05-2.86001E-05-2.85632E-05-6.80331E-09 1.32562E-18-1.65633E-19
 -1      2101 9.52475E-05-2.85968E-05-2.85646E-05-9.66052E-09 2.77253E-19-1.46252E-19
 -1      2102 9.52489E-05-2.86030E-05-2.85625E-05-1.13598E-09-3.52384E-19-1.61772E-18
 -1      2103 9.52487E-05-2.86024E-05-2.85626E-05-2.94816E-09 3.43346E-19-9.24573E-19
 -1      2104 9.52487E-05-2.85991E-05-2.85642E-05-5.06798E-09-4.49612E-19-2.97331E-19
 -1      2105 9.52487E-05-2.86024E-05-2.85626E-05 3.01734E-09-8.98420E-21-1.65829E-18
 -1      2106 9.52489E-05-2.86030E-05-2.85625E-05 1.20690E-09 3.06193E-19-1.31555E-18
 -1      2107 9.52491E-05-2.85999E-05-2.85640E-05 4.42756E-11-1.35486E-18-1.83774E-18
 -1      2108 9.52477E-05-2.86001E-05-2.85632E-05 6.86298E-09-8.26187E-21-3.24622E-19
 -1      2109 9.52483E-05-2.86016E-05-2.85628E-05 5.24112E-09-5.78186E-19-6.20056E-19
 -1      2110 9.52487E-05-2.85991E-05-2.85642E-05 5.15219E-09-4.40070E-19-1.59999E-18
 -1      2111 9.52460E-05-2.85962E-05-2.85642E-05 9.93208E-09 1.86457E-18 1.45099E-19
 -1      2112 9.52470E-05-2.85986E-05-2.85636E-05 8.70398E-09 6.67203E-19 3.38792E-19
 -1      2113 9.52475E-05-2.85968E-05-2.85646E-05 9.69931E-09 8.04691E-19-5.46835E-20
 -1      2114 9.52438E-05-2.85911E-05-2.85654E-05 1.19094E-08 2.96006E-18 3.53736E-18
 -1      2115 9.52451E-05-2.85941E-05-2.85646E-05 1.12222E-08 2.10946E-18 2.27782E-18
 -1      2116 9.52456E-05-2.85931E-05-2.85654E-05 1.32090E-08 2.91649E-18 1.39986E-18
 -1      2117 9.52411E-05-2.85854E-05-2.85668E-05 1.23248E-08 2.39846E-18 1.02154E-18
 -1      2118 9.52426E-05-2.85886E-05-2.85659E-05 1.23833E-08 2.56708E-18 2.90655E-18
 -1      2119 9.52429E-05-2.85884E-05-2.85662E-05 1.52018E-08 2.04383E-18 2.75501E-18
 -1      2120 9.52382E-05-2.85796E-05-2.85680E-05 1.09114E-08 8.47381E-21-1.96927E-18
 -1      2121 9.52398E-05-2.85828E-05-2.85673E-05 1.18099E-08 9.20919E-19-1.20030E-18
 -1      2122 9.52399E-05-2.85832E-05-2.85672E-05 1.51849E-08 4.49795E-20-1.44152E-18
 -1      2123 5.32771E-05-3.89842E-05-6.66457E-06 3.89546E-05 3.53721E-18 7.12021E-18
 -1      2124 3.87224E-05-4.02550E-05-7.16266E-07 3.08886E-05 2.27090E-18 6.99565E-18
 -1      2125 1.22184E-05-3.44980E-05 8.13380E-06 4.54810E-06 8.89385E-19 7.66565E-18
 -1      2126 1.22846E-05-3.45523E-05 8.13469E-06-4.12041E-06-9.56618E-19 6.75636E-18
 -1      2127 2.37221E-05-3.48481E-05 3.71341E-06 2.36691E-05 2.92099E-18 8.43052E-18
 -1      2128 1.68931E-05-3.69688E-05 6.95920E-06 1.43987E-05 6.94991E-19 8.66430E-18
 -1      2129 9.00639E-05-4.18363E-05-2.07535E-05 4.24709E-05 5.76279E-18 6.86308E-18
 -1      2130 7.25843E-05-4.43384E-05-1.31795E-05 3.78844E-05 4.09583E-18 6.78473E-18
 -1      2131 1.27020E-04-4.36519E-05-3.54408E-05 3.65320E-05 6.40060E-18 4.20298E-18
 -1      2132 1.06103E-04-4.38227E-05-2.73841E-05 3.65272E-05 6.16725E-18 5.36511E-18
 -1      2133 8.69519E-05-8.11640E-06-3.38933E-05-4.46382E-06-2.41505E-18-4.46439E-18
 -1      2134 8.94436E-05-9.19434E-06-3.44553E-05-5.97338E-06-2.87364E-18-3.82557E-18
 -1      2135 9.29055E-05-1.33747E-05-3.41126E-05-5.55495E-06-3.15698E-18-3.13385E-18
 -1      2136 8.72272E-05-9.76463E-06-3.32320E-05-3.23473E-06-2.38157E-18-4.36010E-18
 -1      2137 1.71947E-04-2.98299E-05-6.00510E-05 8.77481E-06 8.27636E-18-5.12878E-19
 -1      2138 1.61896E-04-3.23431E-05-5.51648E-05 1.43412E-05 8.28642E-18 1.36118E-18
 -1      2139 1.85684E-04-2.57962E-05-6.69084E-05 1.33678E-06 8.47965E-18-2.82067E-18
 -1      2140 1.76510E-04-2.41654E-05-6.45093E-05 7.39146E-06 8.83498E-18-7.19766E-19
 -1      2141 1.79407E-04-2.48720E-05-6.53472E-05-8.20605E-06 8.08493E-18-4.81411E-18
 -1      2142 1.85896E-04-2.56351E-05-6.71324E-05-1.50155E-06 7.99006E-18-3.31635E-18
 -1      2143 1.60973E-04-2.96969E-05-5.61773E-05-1.03030E-05 7.38930E-18-4.51511E-18
 -1      2144 1.74771E-04-2.82995E-05-6.15115E-05-8.62553E-06 7.61716E-18-4.51045E-18
 -1      2145 1.41670E-04-4.21542E-05-4.27072E-05-2.39135E-05 6.89686E-18-5.72679E-18
 -1      2146 1.57453E-04-3.94354E-05-5.01376E-05-1.95035E-05 6.88097E-18-4.82343E-18
 -1      2147 1.04192E-04-4.38970E-05-2.65530E-05-3.73372E-05 6.82158E-18-8.25010E-18
 -1      2148 1.26710E-04-4.46057E-05-3.50921E-05-3.69524E-05 6.64751E-18-6.90755E-18
 -1      2149 6.80755E-05-4.30295E-05-1.20011E-05-3.77750E-05 5.11947E-18-8.81814E-18
 -1      2150 8.63187E-05-4.09819E-05-1.95705E-05-4.32863E-05 6.63396E-18-9.36480E-18
 -1      2151 3.97407E-05-3.90790E-05-1.37300E-06-3.21658E-05 1.99180E-18-8.32951E-18
 -1      2152 5.28795E-05-3.87403E-05-6.64513E-06-3.86556E-05 4.37620E-18-9.30077E-18
 -1      2153 1.61726E-05-3.64443E-05 6.94749E-06-1.32124E-05 1.34890E-19-8.46355E-18
 -1      2154 2.23065E-05-3.33677E-05 3.63521E-06-2.33095E-05 2.27428E-18-8.50506E-18
 -1      2155 1.21640E-05-2.93261E-05 6.41069E-06 6.48685E-06-1.37770E-18-8.58722E-18
 -1      2156 1.23072E-05-3.42475E-05 7.71674E-06-4.02650E-06 1.19432E-19-8.51692E-18
 -1      2157 1.58258E-05-2.46569E-05 3.06657E-06-1.10220E-05-5.13937E-19-9.55750E-18
 -1      2158 2.93012E-05-3.54548E-05 1.47160E-06 2.83159E-05-4.28133E-18-8.28229E-18
 -1      2159 2.00643E-05-3.29567E-05 4.45698E-06 2.03883E-05-1.95135E-18-8.26535E-18
 -1      2160 6.00281E-05-3.95208E-05-9.30278E-06 4.03603E-05-6.14438E-18-7.92754E-18
 -1      2161 4.55943E-05-4.07844E-05-3.32921E-06 3.38003E-05-4.19662E-18-7.51308E-18
 -1      2162 9.72492E-05-4.36713E-05-2.30343E-05 4.28979E-05-6.64159E-18-7.92717E-18
 -1      2163 7.65757E-05-4.43445E-05-1.49430E-05 3.85024E-05-6.38155E-18-7.86089E-18
 -1      2164 8.10090E-05-4.81576E-05-1.42381E-05 4.26265E-05-1.73091E-18-6.04607E-18
 -1      2165 1.36428E-04-4.13492E-05-4.00602E-05 3.62004E-05-8.12559E-18-7.48099E-18
 -1      2166 1.16553E-04-4.39252E-05-3.16256E-05 3.44555E-05-7.19851E-18-7.23154E-18
 -1      2167 1.63626E-04-3.67317E-05-5.33308E-05 2.36400E-05-8.52975E-18-5.38544E-18
 -1      2168 1.46635E-04-3.79198E-05-4.65674E-05 2.65435E-05-8.40130E-18-6.55138E-18
 -1      2169 1.77093E-04-2.87931E-05-6.26858E-05 9.71163E-06-8.80745E-18-3.80741E-18
 -1      2170 1.68980E-04-3.05179E-05-5.85468E-05 1.75994E-05-9.16786E-18-5.43456E-18
 -1      2171 1.73883E-04-2.02704E-05-6.52015E-05-8.21065E-08-8.37165E-18-2.07793E-18
 -1      2172 1.75846E-04-2.28773E-05-6.45281E-05 4.98883E-06-8.83921E-18-3.60285E-18
 -1      2173 1.75894E-04-2.68919E-05-6.28051E-05-9.22646E-06-7.78381E-18 6.98802E-20
 -1      2174 1.74388E-04-2.24129E-05-6.45978E-05-8.61880E-07-8.05147E-18-2.06560E-18
 -1      2175 1.58611E-04-3.31833E-05-5.35547E-05-1.60414E-05-6.77753E-18 1.28283E-18
 -1      2176 1.73767E-04-3.23198E-05-5.94953E-05-1.35649E-05-6.82984E-18 4.64598E-19
 -1      2177 1.57760E-04-2.34473E-05-5.66350E-05 2.49094E-06-6.95414E-18-2.47651E-18
 -1      2178 1.34027E-04-4.06993E-05-4.01563E-05-3.07450E-05-6.18842E-18 3.87263E-18
 -1      2179 1.51928E-04-4.00911E-05-4.73217E-05-2.67252E-05-6.45524E-18 1.78046E-18
 -1      2180 1.04884E-04-4.52408E-05-2.62164E-05-3.60505E-05-4.09456E-18 5.31598E-18
 -1      2181 1.23125E-04-4.26461E-05-3.40329E-05-3.84348E-05-5.29014E-18 5.48496E-18
 -1      2182 1.36923E-04-5.13015E-05-3.62501E-05-2.34668E-05-2.48964E-18-6.64921E-20
 -1      2183 6.58601E-05-4.34702E-05-1.09251E-05-3.69172E-05-4.24533E-18 5.99149E-18
 -1      2184 8.44888E-05-4.24269E-05-1.82696E-05-4.24992E-05-4.10980E-18 6.81734E-18
 -1      2185 3.73169E-05-4.06543E-05-1.14065E-07-2.96720E-05-2.57964E-18 6.69855E-18
 -1      2186 5.01197E-05-3.89694E-05-5.56460E-06-3.65547E-05-4.43761E-18 5.84432E-18
 -1      2187 6.91221E-05-4.54777E-05-1.05043E-05-4.17047E-05-1.10919E-18 5.46580E-18
 -1      2188 1.60522E-05-3.71842E-05 7.39327E-06-1.28596E-05-7.96423E-19 7.50768E-18
 -1      2189 2.18645E-05-3.49755E-05 4.39424E-06-2.19824E-05-2.35348E-18 7.85920E-18
 -1      2190 1.56551E-05-2.60685E-05 3.69181E-06-1.05638E-05-5.91864E-20 7.85157E-18
 -1      2191 1.58008E-04-3.84570E-05-5.04345E-05 2.44093E-05 7.93183E-18 2.35475E-18
 -1      2192 1.40438E-04-4.00491E-05-4.31252E-05 2.62791E-05 7.66311E-18 3.25091E-18
 -1      2193 1.10805E-04-5.33012E-05-2.46043E-05 3.64185E-05 1.95283E-18 2.68531E-18
 -1      2194 1.06938E-04-2.74204E-05-3.41463E-05-5.48318E-06-3.44576E-18 2.47781E-18
 -1      2195 1.39975E-04-4.99082E-05-3.81202E-05 2.13824E-05 4.30706E-18 3.46860E-19
 -1      2196 1.54667E-04-3.66670E-05-4.97930E-05 4.14134E-06 7.18485E-18-1.06811E-18
 -1      2197 1.05020E-04-2.58762E-05-3.40004E-05-4.96434E-06-3.59445E-18 5.78391E-19
 -1      2198 3.74417E-05-3.41879E-05-1.88128E-06 3.34728E-05-4.01070E-19 7.38782E-18
 -1      2199 1.66108E-05-2.61170E-05 3.35981E-06 1.23094E-05-1.84230E-19 8.90782E-18
 -1      2200 9.52371E-05-2.85777E-05-2.85684E-05 1.06047E-08-8.13987E-19-3.41974E-18
 -1      2201 7.41121E-05-4.66905E-05-1.20329E-05 4.15095E-05-7.62330E-21 5.32490E-18
 -1      2202 3.50798E-05-3.47630E-05-8.37256E-07-3.15185E-05-5.09067E-19 7.47083E-18
 -1      2203 1.06513E-04-5.27845E-05-2.30142E-05-3.73644E-05-1.25022E-18 3.57893E-18
 -1      2204 1.53700E-04-4.00114E-05-4.80568E-05-8.20546E-06-4.95144E-18-1.78555E-18
 -1      2205 1.57803E-04-1.43569E-05-6.07527E-05 1.11928E-06-8.69649E-18-2.26613E-18
 -1      2206 1.59464E-04-1.86711E-05-5.93465E-05-4.45190E-07-8.82270E-18-2.08328E-18
 -1      2207 1.58554E-04-3.35003E-05-5.25729E-05 4.35593E-06-7.52419E-18-2.09937E-18
 -1      2208 1.17954E-04-5.35774E-05-2.74687E-05 3.41286E-05-3.42540E-18-4.66630E-18
 -1      2209 1.90961E-05-2.72392E-05 2.93874E-06 1.52752E-05-8.45657E-19-8.76361E-18
 -1      2210 1.85536E-05-1.87668E-05 2.54882E-07 1.03688E-05-9.60853E-20-8.89554E-18
 -1      2211 2.60589E-05-2.30766E-05-1.47369E-06 2.46612E-05 4.53163E-19-8.12559E-18
 -1      2212 3.75221E-05-3.33801E-05-2.23344E-06-3.35821E-05 3.40931E-20-8.84853E-18
 -1      2213 7.30394E-05-4.60679E-05-1.20220E-05-4.26363E-05 5.64124E-19-7.87082E-18
 -1      2214 1.08246E-04-5.28265E-05-2.36452E-05-3.78447E-05 2.58853E-18-5.70138E-18
 -1      2215 1.39674E-04-5.09563E-05-3.75061E-05-2.11908E-05 4.23114E-18-3.28395E-18
 -1      2216 1.54212E-04-3.58938E-05-5.03028E-05-1.94167E-06 5.63023E-18-1.51873E-18
 -1      2217 1.58654E-04-1.89020E-05-5.91398E-05 2.36150E-06 7.86724E-18-1.92700E-18
 -1      2218 1.59272E-04-2.15584E-05-5.83034E-05-2.80879E-06 8.97283E-18-1.79952E-18
 -1      2219 1.63561E-04-1.44302E-05-6.25926E-05-6.10644E-07 9.19793E-18-2.30242E-18
 -1      2220 4.59106E-05-3.63659E-05-4.50988E-06 3.75482E-05-7.81811E-19-7.58942E-18
 -1      2221 1.46425E-04-4.74972E-05-4.17876E-05 1.73762E-05-5.43170E-18-2.58303E-18
 -1      2222 1.05838E-04-2.97670E-05-3.25910E-05-9.47035E-07 2.72683E-18 1.79412E-18
 -1      2223 1.05921E-04-2.89155E-05-3.29282E-05 7.91545E-07 3.06705E-18 2.16304E-18
 -1      2224 7.82919E-05-5.70166E-06-3.11543E-05 4.11849E-07-6.17442E-19-5.21864E-18
 -1      2225 7.99777E-05-6.61742E-06-3.14444E-05 8.24235E-08-1.01763E-18-5.15007E-18
 -1      2226 8.21271E-05-8.12109E-06-3.17716E-05-1.61474E-07-1.31595E-18-4.99084E-18
 -1      2227 8.44154E-05-9.40598E-06-3.21604E-05-8.37476E-07-1.77810E-18-4.68237E-18
 -1      2228 8.18482E-05-9.02938E-06-3.12049E-05 8.29160E-07-1.06179E-18-4.74950E-18
 -1      2229 7.55438E-05-3.92125E-06-3.07126E-05-2.81287E-08 6.40166E-19-5.29121E-18
 -1      2230 7.55155E-05-3.90334E-06-3.07090E-05-6.53561E-09 2.40250E-19-5.35419E-18
 -1      2231 7.70210E-05-4.81276E-06-3.09533E-05-2.93980E-07 1.21415E-18-5.18297E-18
 -1      2232 7.60787E-05-4.30190E-06-3.07933E-05-3.77340E-07 8.60970E-19-5.27386E-18
 -1      2233 7.61740E-05-5.26475E-06-3.03711E-05-4.20108E-07 7.06577E-19-5.02367E-18
 -1      2234 8.01395E-05-6.74399E-06-3.14596E-05-5.99648E-08 1.87751E-18-4.75463E-18
 -1      2235 7.84521E-05-5.82205E-06-3.11714E-05-4.03261E-07 1.47235E-18-5.02092E-18
 -1      2236 7.82563E-05-6.66006E-06-3.06723E-05-9.34591E-07 1.26505E-18-4.83309E-18
 -1      2237 8.46149E-05-9.56987E-06-3.21758E-05 9.00267E-07 2.70613E-18-3.91476E-18
 -1      2238 8.23112E-05-8.26906E-06-3.17874E-05 2.04824E-07 2.21830E-18-4.37171E-18
 -1      2239 8.20347E-05-9.18410E-06-3.12192E-05-8.13326E-07 1.97037E-18-4.19420E-18
 -1      2240 9.00171E-05-1.31284E-05-3.29908E-05 2.56197E-06 3.34760E-18-2.98714E-18
 -1      2241 8.72911E-05-1.14696E-05-3.25593E-05 1.54113E-06 2.89713E-18-3.56969E-18
 -1      2242 8.70767E-05-1.25778E-05-3.19294E-05 6.77100E-08 2.64118E-18-3.40616E-18
 -1      2243 9.61132E-05-1.75089E-05-3.37715E-05 4.59184E-06 3.91465E-18-1.56256E-18
 -1      2244 9.30341E-05-1.53648E-05-3.33594E-05 3.41470E-06 3.49491E-18-2.30521E-18
 -1      2245 9.28857E-05-1.66298E-05-3.26739E-05 1.49710E-06 3.23704E-18-2.40453E-18
 -1      2246 1.06562E-04-3.13593E-05-3.22310E-05-3.01272E-06 1.83307E-18 1.40512E-18
 -1      2247 1.06212E-04-3.06421E-05-3.23128E-05-2.30933E-06 2.24191E-18 1.77684E-18
 -1      2248 1.04551E-04-2.90002E-05-3.24055E-05-1.63523E-06 2.68945E-18 5.60848E-19
 -1      2249 1.04440E-04-2.77836E-05-3.27937E-05-1.99080E-07-2.76087E-18-1.75513E-19
 -1      2250 1.04579E-04-2.89227E-05-3.24418E-05 1.64833E-06-2.46989E-18-2.47063E-19
 -1      2251 1.44482E-04-5.09280E-05-4.04792E-05 1.10448E-05 3.64793E-18-1.79867E-18
 -1      2252 1.33886E-04-5.53799E-05-3.36507E-05 1.90847E-05 1.66929E-18-1.07997E-18
 -1      2253 1.05231E-04-3.00638E-05-3.21451E-05 2.96546E-06-2.18528E-18 2.63077E-20
 -1      2254 1.05701E-04-3.10522E-05-3.20101E-05 3.71991E-06-1.77567E-18-1.04268E-19
 -1      2255 1.03147E-04-2.82012E-05-3.21487E-05 2.46603E-06-2.33664E-18-8.42076E-19
 -1      2256 1.06621E-04-3.21655E-05-3.18508E-05 4.19492E-06-1.41159E-18 1.54299E-19
 -1      2257 1.07376E-04-3.32267E-05-3.18137E-05 4.05313E-06-1.10932E-18-1.23275E-20
 -1      2258 1.04744E-04-3.10012E-05-3.16448E-05 4.51123E-06-1.62581E-18-3.49710E-19
 -1      2259 1.08712E-04-3.44963E-05-3.17548E-05 3.60260E-06-7.69640E-19 1.01469E-19
 -1      2260 1.09567E-04-3.55932E-05-3.17604E-05 2.58248E-06-6.01711E-19 3.08496E-19
 -1      2261 1.07061E-04-3.39436E-05-3.13832E-05 4.73244E-06-9.35830E-19-2.79825E-19
 -1      2262 1.11236E-04-3.69109E-05-3.18101E-05 1.11223E-06-4.50034E-19 4.09186E-19
 -1      2263 1.11891E-04-3.77438E-05-3.18474E-05-7.12168E-07-3.32437E-19 4.01496E-19
 -1      2264 1.10145E-04-3.70940E-05-3.13521E-05 2.95235E-06-5.44750E-19-7.89651E-20
 -1      2265 1.13508E-04-3.86579E-05-3.20581E-05-3.13252E-06-4.31553E-19 5.67808E-19
 -1      2266 1.13565E-04-3.86604E-05-3.21574E-05-5.39021E-06-5.38038E-19 5.79524E-19
 -1      2267 1.13543E-04-3.97752E-05-3.16361E-05-9.14063E-07-3.34356E-19 2.95236E-19
 -1      2268 1.14392E-04-3.84075E-05-3.26051E-05-8.17714E-06-6.00052E-19 5.96463E-19
 -1      2269 1.13511E-04-3.69848E-05-3.28054E-05-1.00028E-05-7.12146E-19 4.61892E-19
 -1      2270 1.16113E-04-4.04649E-05-3.23975E-05-6.35750E-06-5.78862E-19 3.21889E-19
 -1      2271 1.12887E-04-3.50119E-05-3.34849E-05-1.17788E-05-1.26636E-18 4.08280E-19
 -1      2272 1.11155E-04-3.21960E-05-3.37801E-05-1.19580E-05-1.74303E-18 1.56976E-19
 -1      2273 1.16359E-04-3.76042E-05-3.37355E-05-1.13827E-05-1.23479E-18 4.98274E-19
 -1      2274 1.09169E-04-2.89468E-05-3.45287E-05-1.09660E-05-1.96556E-18-2.41887E-19
 -1      2275 1.07480E-04-2.61004E-05-3.48089E-05-8.59655E-06-2.39244E-18-5.52366E-19
 -1      2276 1.13558E-04-3.08453E-05-3.54513E-05-1.27471E-05-2.23633E-18 4.96308E-20
 -1      2277 1.05893E-04-2.38084E-05-3.52728E-05-4.43239E-06-2.52814E-18-1.05668E-18
 -1      2278 1.05423E-04-2.29441E-05-3.53704E-05-2.99000E-07-2.41145E-18-1.33049E-18
 -1      2279 1.09706E-04-2.38068E-05-3.69229E-05-7.49169E-06-2.58423E-18-4.18931E-19
 -1      2280 1.05859E-04-2.35270E-05-3.52681E-05 4.89681E-06-2.51505E-18-2.07914E-18
 -1      2281 1.07023E-04-2.53615E-05-3.51215E-05 8.58700E-06-2.05378E-18-2.14160E-18
 -1      2282 1.08442E-04-2.16255E-05-3.73574E-05 2.61174E-06-2.78814E-18-1.16678E-18
 -1      2283 1.09049E-04-2.83172E-05-3.45220E-05 1.16761E-05-1.90912E-18-3.08125E-18
 -1      2284 1.11009E-04-3.14319E-05-3.42471E-05 1.30856E-05-1.66992E-18-3.61682E-18
 -1      2285 1.11129E-04-2.61290E-05-3.64920E-05 1.14661E-05-2.64861E-18-2.87598E-18
 -1      2286 1.12676E-04-3.44386E-05-3.34935E-05 1.28647E-05-1.23671E-18-4.09633E-18
 -1      2287 1.14266E-04-3.68872E-05-3.32470E-05 1.18777E-05-4.58870E-19-4.27003E-18
 -1      2288 1.15078E-04-3.37166E-05-3.48412E-05 1.41455E-05-1.83755E-18-4.00689E-18
 -1      2289 1.14298E-04-3.82246E-05-3.26362E-05 9.43839E-06 1.90242E-19-4.10558E-18
 -1      2290 1.14882E-04-3.91356E-05-3.24827E-05 7.23924E-06 7.97822E-19-3.62275E-18
 -1      2291 1.16893E-04-3.93846E-05-3.31991E-05 1.08182E-05-8.00843E-20-4.08888E-18
 -1      2292 1.13655E-04-3.89199E-05-3.20964E-05 4.33079E-06 6.32171E-19-3.50121E-18
 -1      2293 1.13345E-04-3.86098E-05-3.20061E-05 2.00499E-06 4.09047E-19-3.21966E-18
 -1      2294 1.15620E-04-4.08750E-05-3.20205E-05 5.08284E-06 6.99889E-19-3.75237E-18
 -1      2295 1.11564E-04-3.75332E-05-3.17983E-05-3.48871E-07 5.19615E-19-2.94924E-18
 -1      2296 1.10714E-04-3.66318E-05-3.17177E-05-2.16192E-06 1.02646E-18-2.53831E-18
 -1      2297 1.12508E-04-3.94244E-05-3.13445E-05-3.54527E-07 6.53105E-19-3.25902E-18
 -1      2298 1.08988E-04-3.53864E-05-3.15972E-05-3.64992E-06 5.67410E-19-2.10675E-18
 -1      2299 1.07923E-04-3.43874E-05-3.14877E-05-4.77913E-06 4.47849E-19-2.13097E-18
 -1      2300 1.08925E-04-3.66752E-05-3.09996E-05-4.18350E-06 9.09118E-19-2.90456E-18
 -1      2301 1.06501E-04-3.33296E-05-3.13913E-05-5.50435E-06 6.68317E-19-1.93872E-18
 -1      2302 1.05420E-04-3.24719E-05-3.12438E-05-6.03366E-06 4.95125E-19-1.56192E-18
 -1      2303 1.05742E-04-3.39454E-05-3.08008E-05-6.32940E-06 6.69355E-19-1.89670E-18
 -1      2304 1.04332E-04-3.17008E-05-3.11412E-05-6.21500E-06 4.73694E-19-9.16679E-19
 -1      2305 1.03327E-04-3.10480E-05-3.09646E-05-6.31243E-06 1.08705E-18-1.26967E-18
 -1      2306 1.03218E-04-3.17873E-05-3.06355E-05-7.16457E-06 1.01911E-18-1.23192E-18
 -1      2307 1.02514E-04-3.05363E-05-3.08483E-05-6.15559E-06 1.00693E-18-1.15264E-18
 -1      2308 1.01622E-04-3.00707E-05-3.06579E-05-5.98475E-06 1.04432E-18-1.04881E-18
 -1      2309 1.01311E-04-3.02866E-05-3.04540E-05-7.12635E-06 9.93140E-19-7.78466E-19
 -1      2310 1.01011E-04-2.97535E-05-3.05322E-05-5.64531E-06 1.32198E-18-6.71956E-19
 -1      2311 1.00242E-04-2.94332E-05-3.03431E-05-5.33364E-06 1.18207E-18-3.11507E-19
 -1      2312 9.98848E-05-2.93317E-05-3.02470E-05-6.57446E-06 1.24723E-18-5.83735E-19
 -1      2313 9.97762E-05-2.92474E-05-3.02157E-05-4.91730E-06 3.89938E-19-4.04765E-19
 -1      2314 9.91269E-05-2.90316E-05-3.00391E-05-4.55188E-06-1.85892E-20-9.64372E-19
 -1      2315 9.88073E-05-2.87684E-05-3.00238E-05-5.76764E-06 6.19533E-19-8.77940E-19
 -1      2316 9.87649E-05-2.89292E-05-2.99171E-05-4.12465E-06-1.82875E-19-9.59156E-19
 -1      2317 9.82273E-05-2.87856E-05-2.97598E-05-3.75911E-06 1.73956E-19-1.02374E-18
 -1      2318 9.79798E-05-2.84627E-05-2.97986E-05-4.87636E-06-2.50545E-19-5.49259E-19
 -1      2319 9.79424E-05-2.87336E-05-2.96486E-05-3.35868E-06-4.96734E-20-1.57330E-18
 -1      2320 9.75053E-05-2.86393E-05-2.95135E-05-3.02257E-06-4.16118E-19-1.42230E-18
 -1      2321 9.73349E-05-2.83160E-05-2.95842E-05-4.00436E-06-4.66782E-19-8.62254E-19
 -1      2322 9.72800E-05-2.86168E-05-2.94158E-05-2.66777E-06-3.57960E-19-1.27222E-18
 -1      2323 9.69308E-05-2.85557E-05-2.93032E-05-2.37476E-06-1.98022E-19-3.19804E-19
 -1      2324 9.68280E-05-2.82627E-05-2.93893E-05-3.20871E-06-2.48039E-19-1.36741E-18
 -1      2325 9.67530E-05-2.85498E-05-2.92201E-05-2.07249E-06-6.85663E-19-9.41530E-19
 -1      2326 9.64789E-05-2.85113E-05-2.91287E-05-1.82649E-06-4.34190E-19-9.50727E-19
 -1      2327 9.64291E-05-2.82610E-05-2.92185E-05-2.51570E-06-7.22107E-19-7.44440E-19
 -1      2328 9.63396E-05-2.85141E-05-2.90597E-05-1.57658E-06 6.12424E-20-1.04569E-18
 -1      2329 9.61282E-05-2.84909E-05-2.89871E-05-1.37595E-06 6.52703E-20-1.22331E-18
 -1      2330 9.61164E-05-2.82858E-05-2.90735E-05-1.93237E-06-1.26276E-19-9.61435E-19
 -1      2331 9.60203E-05-2.84980E-05-2.89313E-05-1.17435E-06-2.90250E-19-1.45598E-18
 -1      2332 9.58602E-05-2.84850E-05-2.88748E-05-1.01460E-06-8.21679E-19-9.39289E-19
 -1      2333 9.58736E-05-2.83220E-05-2.89535E-05-1.45450E-06-4.57644E-19-8.62925E-19
 -1      2334 9.57778E-05-2.84939E-05-2.88305E-05-8.55430E-07-1.03223E-18-4.38743E-19
 -1      2335 9.56590E-05-2.84876E-05-2.87875E-05-7.30921E-07-5.84118E-19 2.58701E-19
 -1      2336 9.56873E-05-2.83614E-05-2.88564E-05-1.07191E-06-5.17847E-19 1.51435E-19
 -1      2337 9.55970E-05-2.84967E-05-2.87530E-05-6.07727E-07-2.82330E-19 3.24458E-19
 -1      2338 9.55107E-05-2.84948E-05-2.87209E-05-5.12609E-07-4.02576E-20 6.68332E-19
 -1      2339 9.55466E-05-2.83993E-05-2.87794E-05-7.71854E-07-1.91731E-19 1.27821E-18
 -1      2340 9.54650E-05-2.85033E-05-2.86946E-05-4.19091E-07-6.54974E-19 4.72018E-19
 -1      2341 9.54039E-05-2.85041E-05-2.86711E-05-3.47861E-07-5.05767E-19-3.17314E-19
 -1      2342 9.54420E-05-2.84335E-05-2.87196E-05-5.41077E-07-9.84877E-19 3.22193E-19
 -1      2343 9.53708E-05-2.85117E-05-2.86514E-05-2.78263E-07-6.34518E-19-5.87802E-19
 -1      2344 9.53288E-05-2.85141E-05-2.86347E-05-2.26025E-07-2.37863E-19-4.84760E-19
 -1      2345 9.53660E-05-2.84631E-05-2.86740E-05-3.66983E-07-8.69457E-19-3.36654E-19
 -1      2346 9.53056E-05-2.85206E-05-2.86203E-05-1.75314E-07-4.21738E-19-1.13286E-18
 -1      2347 9.52778E-05-2.85238E-05-2.86087E-05-1.37875E-07-7.71327E-19-1.21652E-18
 -1      2348 9.53119E-05-2.84878E-05-2.86399E-05-2.38262E-07-8.46636E-19-6.01842E-19
 -1      2349 9.52620E-05-2.85293E-05-2.85984E-05-1.01792E-07-4.64168E-19-9.73788E-19
 -1      2350 9.52446E-05-2.85327E-05-2.85907E-05-7.56617E-08 4.78561E-19-7.51342E-19
 -1      2351 9.52746E-05-2.85081E-05-2.86150E-05-1.45143E-07-4.03484E-19-6.02052E-19
 -1      2352 9.52343E-05-2.85372E-05-2.85836E-05-5.06919E-08 1.27600E-18-1.16986E-18
 -1      2353 9.52243E-05-2.85405E-05-2.85786E-05-3.30361E-08 1.60308E-18-1.08514E-18
 -1      2354 9.52498E-05-2.85244E-05-2.85972E-05-7.94281E-08 8.56971E-19 2.31906E-19
 -1      2355 9.52180E-05-2.85441E-05-2.85739E-05-1.63456E-08 1.25403E-18-1.85698E-18
 -1      2356 9.52132E-05-2.85473E-05-2.85710E-05-4.90986E-09 9.34005E-19-1.64859E-18
 -1      2357 9.52342E-05-2.85372E-05-2.85849E-05-3.44068E-08 9.59792E-19-6.65443E-19
 -1      2358 9.52097E-05-2.85501E-05-2.85680E-05 5.74125E-09 1.13457E-18-1.61860E-18
 -1      2359 9.52083E-05-2.85529E-05-2.85665E-05 1.27132E-08 8.47649E-19-1.25124E-18
 -1      2360 9.52252E-05-2.85471E-05-2.85767E-05-4.70297E-09 9.97918E-19-1.85427E-18
 -1      2361 9.52067E-05-2.85551E-05-2.85647E-05 1.90585E-08-2.00511E-21-9.38866E-19
 -1      2362 9.52076E-05-2.85576E-05-2.85642E-05 2.29058E-08-2.40542E-19-6.20218E-19
 -1      2363 9.52207E-05-2.85546E-05-2.85714E-05 1.39026E-08 2.43210E-19-1.05332E-18
 -1      2364 9.52074E-05-2.85593E-05-2.85633E-05 2.62575E-08 5.04380E-20 5.54055E-19
 -1      2365 9.52096E-05-2.85614E-05-2.85635E-05 2.79755E-08 7.69459E-19 7.40362E-19
 -1      2366 9.52194E-05-2.85603E-05-2.85684E-05 2.46511E-08 3.53903E-19 1.57603E-18
 -1      2367 9.52101E-05-2.85627E-05-2.85631E-05 2.92997E-08 2.65341E-19 4.56328E-19
 -1      2368 9.52130E-05-2.85645E-05-2.85636E-05 2.96034E-08 4.00588E-19 4.31347E-19
 -1      2369 9.52201E-05-2.85645E-05-2.85668E-05 2.99727E-08 4.11977E-19 1.90325E-18
 -1      2370 9.52141E-05-2.85656E-05-2.85636E-05 2.95849E-08 1.62561E-18-4.40316E-19
 -1      2371 9.52173E-05-2.85671E-05-2.85643E-05 2.89614E-08 2.11111E-18-2.91385E-19
 -1      2372 9.52219E-05-2.85677E-05-2.85662E-05 3.16341E-08 7.23479E-19 4.62425E-19
 -1      2373 9.52186E-05-2.85680E-05-2.85646E-05 2.80574E-08 1.02491E-18-1.00500E-18
 -1      2374 9.52218E-05-2.85694E-05-2.85653E-05 2.68088E-08 4.01687E-19-1.94835E-19
 -1      2375 9.52245E-05-2.85701E-05-2.85662E-05 3.08638E-08 1.01624E-18 9.30626E-20
 -1      2376 9.52232E-05-2.85702E-05-2.85656E-05 2.52930E-08-7.65434E-20-1.18455E-18
 -1      2377 9.52262E-05-2.85715E-05-2.85663E-05 2.35736E-08-3.88844E-19-1.35858E-18
 -1      2378 9.52274E-05-2.85722E-05-2.85665E-05 2.84575E-08-4.08936E-19-5.91852E-19
 -1      2379 9.52277E-05-2.85723E-05-2.85666E-05 2.15855E-08-1.01608E-18-1.12234E-18
 -1      2380 9.52304E-05-2.85735E-05-2.85672E-05 1.94341E-08-1.52798E-18-1.00233E-18
 -1      2381 9.52304E-05-2.85741E-05-2.85670E-05 2.48731E-08-1.16951E-18-2.38229E-18
 -1      2382 1.09445E-04-3.46256E-05-3.21163E-05-2.11366E-06 7.73546E-19 9.38065E-19
 -1      2383 1.08810E-04-3.38475E-05-3.20916E-05-2.98111E-06 9.25653E-19 1.10020E-18
 -1      2384 1.10956E-04-3.61415E-05-3.21291E-05 7.68456E-07 4.26564E-19 1.13266E-18
 -1      2385 1.10621E-04-3.55769E-05-3.21402E-05-8.00929E-07 5.09381E-19 1.15683E-18
 -1      2386 1.09766E-04-3.58085E-05-3.17211E-05-2.20247E-06 7.18876E-19 7.76562E-19
 -1      2387 1.11713E-04-3.67784E-05-3.21730E-05 4.83628E-06 4.46221E-19 1.35094E-18
 -1      2388 1.12006E-04-3.68119E-05-3.22253E-05 2.87981E-06 3.50116E-19 1.29989E-18
 -1      2389 1.12142E-04-3.78104E-05-3.18642E-05 1.31894E-06 3.06391E-19 9.71539E-19
 -1      2390 1.11010E-04-3.56470E-05-3.23121E-05 8.88317E-06 7.03044E-19 2.11171E-18
 -1      2391 1.12141E-04-3.66727E-05-3.23767E-05 7.22772E-06 3.62844E-19 1.76376E-18
 -1      2392 1.13721E-04-3.84166E-05-3.22586E-05 6.08856E-06 2.35496E-19 1.22727E-18
 -1      2393 1.08524E-04-3.22943E-05-3.26138E-05 1.08220E-05 1.01530E-18 2.25752E-18
 -1      2394 1.10344E-04-3.43238E-05-3.26400E-05 1.04730E-05 9.59212E-19 2.30752E-18
 -1      2395 1.13458E-04-3.64706E-05-3.29659E-05 1.05144E-05 6.30753E-19 1.78847E-18
 -1      2396 1.05083E-04-2.77975E-05-3.30459E-05 8.52019E-06 2.33812E-18 1.34080E-18
 -1      2397 1.06849E-04-2.99824E-05-3.30234E-05 1.02313E-05 1.74959E-18 2.09056E-18
 -1      2398 1.10871E-04-3.16002E-05-3.39477E-05 1.19381E-05 1.71439E-18 1.85183E-18
 -1      2399 1.02842E-04-2.48911E-05-3.33764E-05 1.91039E-06 3.10567E-18-2.85278E-20
 -1      2400 1.03581E-04-2.58743E-05-3.33452E-05 5.27779E-06 3.01658E-18 8.54458E-19
 -1      2401 1.07362E-04-2.61065E-05-3.48852E-05 8.03266E-06 3.23303E-18 9.60903E-19
 -1      2402 1.03676E-04-2.58169E-05-3.34134E-05-6.03038E-06 2.54825E-18-1.45958E-18
 -1      2403 1.02858E-04-2.48488E-05-3.33972E-05-2.63034E-06 2.89871E-18-8.72537E-19
 -1      2404 1.05670E-04-2.35377E-05-3.52971E-05-4.03374E-07 3.53210E-18-3.77108E-19
 -1      2405 1.07137E-04-2.99188E-05-3.31770E-05-1.11566E-05 1.39457E-18-2.32000E-18
 -1      2406 1.05243E-04-2.77083E-05-3.31524E-05-9.37470E-06 2.09258E-18-1.96273E-18
 -1      2407 1.07389E-04-2.59519E-05-3.49611E-05-8.94886E-06 2.55529E-18-1.85589E-18
 -1      2408 1.10911E-04-3.43922E-05-3.28558E-05-1.15697E-05 6.23046E-19-3.03089E-18
 -1      2409 1.08916E-04-3.22843E-05-3.27926E-05-1.18500E-05 1.22787E-18-2.60272E-18
 -1      2410 1.11037E-04-3.14649E-05-3.40832E-05-1.30579E-05 1.65547E-18-3.24624E-18
 -1      2411 1.12991E-04-3.69519E-05-3.26155E-05-8.33297E-06 2.18670E-19-3.39817E-18
 -1      2412 1.11684E-04-3.58244E-05-3.25256E-05-9.96648E-06 2.59460E-19-3.21340E-18
 -1      2413 1.13853E-04-3.64915E-05-3.31138E-05-1.17466E-05 7.79858E-19-3.62997E-18
 -1      2414 1.13022E-04-3.72790E-05-3.24589E-05-3.77326E-06 1.43430E-19-3.33212E-18
 -1      2415 1.12608E-04-3.71524E-05-3.23958E-05-5.78959E-06 2.33536E-19-3.40003E-18
 -1      2416 1.14305E-04-3.87071E-05-3.23694E-05-7.20785E-06 2.10092E-19-3.55565E-18
 -1      2417 1.11604E-04-3.61713E-05-3.23156E-05 3.17116E-07-2.50460E-19-2.79403E-18
 -1      2418 1.11916E-04-3.66542E-05-3.23238E-05-1.40481E-06 1.34652E-19-2.88761E-18
 -1      2419 1.12753E-04-3.83043E-05-3.19055E-05-2.06545E-06-8.11762E-20-2.65301E-18
 -1      2420 1.09516E-04-3.45566E-05-3.21130E-05 3.17048E-06-3.48931E-19-2.87624E-18
 -1      2421 1.10280E-04-3.52607E-05-3.22087E-05 2.00470E-06-3.94479E-19-2.68900E-18
 -1      2422 1.10226E-04-3.64714E-05-3.16253E-05 2.05510E-06-5.09231E-19-2.54576E-18
 -1      2423 1.07279E-04-3.29974E-05-3.18255E-05 4.74471E-06-5.65798E-19-2.38898E-18
 -1      2424 1.08260E-04-3.36916E-05-3.19957E-05 4.12731E-06-3.78931E-19-2.66697E-18
 -1      2425 1.07559E-04-3.43245E-05-3.14062E-05 4.69088E-06-5.71400E-19-2.42875E-18
 -1      2426 1.05162E-04-3.17243E-05-3.14670E-05 5.31559E-06-4.65637E-19-2.25140E-18
 -1      2427 1.06199E-04-3.23116E-05-3.16848E-05 5.11833E-06-3.73683E-19-2.26262E-18
 -1      2428 1.05160E-04-3.24544E-05-3.11762E-05 5.98654E-06-7.26964E-19-1.93348E-18
 -1      2429 1.03274E-04-3.07677E-05-3.10696E-05 5.22186E-06 5.18847E-19-2.32861E-18
 -1      2430 1.04268E-04-3.12297E-05-3.13068E-05 5.29790E-06 7.43850E-20-2.10284E-18
 -1      2431 1.03145E-04-3.10477E-05-3.09113E-05 6.30365E-06-5.40585E-20-2.41020E-18
 -1      2432 1.01642E-04-3.00790E-05-3.06665E-05 4.74932E-06 4.52590E-19-1.46241E-18
 -1      2433 1.02542E-04-3.04292E-05-3.09006E-05 4.97682E-06 6.53165E-19-1.66129E-18
 -1      2434 1.01496E-04-3.00755E-05-3.06179E-05 6.00216E-06 1.68036E-19-2.11818E-18
 -1      2435 1.00263E-04-2.95930E-05-3.02841E-05 4.10266E-06-1.24994E-18-1.27096E-18
 -1      2436 1.01044E-04-2.98535E-05-3.05002E-05 4.39560E-06-1.24946E-19-7.99369E-19
 -1      2437 1.00155E-04-2.94389E-05-3.03143E-05 5.36482E-06-1.78945E-19-1.05469E-18
 -1      2438 9.91175E-05-2.92529E-05-2.99394E-05 3.41309E-06-1.79030E-18-1.01714E-18
 -1      2439 9.97745E-05-2.94446E-05-3.01293E-05 3.71729E-06-1.96818E-18-9.03560E-19
 -1      2440 9.90673E-05-2.90373E-05-3.00190E-05 4.58746E-06-1.35990E-18-8.89497E-19
 -1      2441 9.81827E-05-2.90157E-05-2.96406E-05 2.75652E-06-8.32336E-19-6.86494E-19
 -1      2442 9.87211E-05-2.91555E-05-2.98014E-05 3.04145E-06-1.03418E-18-1.11179E-18
 -1      2443 9.81870E-05-2.87912E-05-2.97464E-05 3.79326E-06-1.31683E-18-1.74247E-18
 -1      2444 9.74323E-05-2.88510E-05-2.93898E-05 2.17136E-06 3.73363E-19-7.34974E-19
 -1      2445 9.78635E-05-2.89520E-05-2.95219E-05 2.42226E-06-5.91072E-19-6.32052E-19
 -1      2446 9.74785E-05-2.86449E-05-2.95050E-05 3.05227E-06-7.82507E-19-1.41283E-18
 -1      2447 9.68399E-05-2.87375E-05-2.91848E-05 1.67243E-06 1.63479E-19-2.23067E-19
 -1      2448 9.71781E-05-2.88095E-05-2.92907E-05 1.88428E-06 5.55669E-19-3.70013E-19
 -1      2449 9.69136E-05-2.85613E-05-2.92981E-05 2.39890E-06 2.43592E-19-1.24939E-18
 -1      2450 9.63802E-05-2.86604E-05-2.90211E-05 1.26072E-06 3.28078E-19 3.41313E-19
 -1      2451 9.66402E-05-2.87108E-05-2.91040E-05 1.43406E-06 4.78412E-20 1.42193E-19
 -1      2452 9.64683E-05-2.85167E-05-2.91259E-05 1.84509E-06 7.50993E-20-7.80938E-19
 -1      2453 9.60297E-05-2.86091E-05-2.88931E-05 9.29750E-07 9.06540E-19 7.05876E-19
 -1      2454 9.62257E-05-2.86436E-05-2.89567E-05 1.06803E-06 9.45495E-19 6.86570E-19
 -1      2455 9.61222E-05-2.84960E-05-2.89859E-05 1.38961E-06 4.55058E-19-6.15114E-19
 -1      2456 9.57676E-05-2.85763E-05-2.87951E-05 6.69614E-07 9.08035E-19-1.63762E-19
 -1      2457 9.59122E-05-2.85991E-05-2.88429E-05 7.77502E-07 1.42238E-18 7.29362E-19
 -1      2458 9.58573E-05-2.84897E-05-2.88746E-05 1.02415E-06 1.48909E-18 6.19448E-19
 -1      2459 9.55755E-05-2.85564E-05-2.87215E-05 4.69326E-07 4.34127E-19-9.20170E-19
 -1      2460 9.56798E-05-2.85707E-05-2.87567E-05 5.51790E-07 5.30791E-19-4.36660E-19
 -1      2461 9.56581E-05-2.84918E-05-2.87878E-05 7.37229E-07 1.18779E-18-8.48667E-20
 -1      2462 9.54381E-05-2.85454E-05-2.86675E-05 3.18181E-07-1.96158E-19-8.79079E-19
 -1      2463 9.55113E-05-2.85538E-05-2.86927E-05 3.79946E-07 2.96529E-19-3.36884E-19
 -1      2464 9.55110E-05-2.84985E-05-2.87215E-05 5.16462E-07 3.59005E-19-9.71721E-19
 -1      2465 9.53424E-05-2.85405E-05-2.86287E-05 2.06444E-07-1.30949E-19-4.62987E-19
 -1      2466 9.53921E-05-2.85448E-05-2.86463E-05 2.51737E-07-5.37428E-19-4.16481E-19
 -1      2467 9.54049E-05-2.85073E-05-2.86719E-05 3.49929E-07-4.20198E-19 1.31515E-18
 -1      2468 9.52780E-05-2.85395E-05-2.86017E-05 1.25653E-07 2.69558E-19 4.94536E-20
 -1      2469 9.53104E-05-2.85410E-05-2.86136E-05 1.58106E-07 1.89184E-19-6.21373E-19
 -1      2470 9.53302E-05-2.85167E-05-2.86355E-05 2.26847E-07 8.69357E-20-1.24606E-19
 -1      2471 9.52368E-05-2.85410E-05-2.85835E-05 6.86864E-08 1.01333E-18 8.90836E-19
 -1      2472 9.52566E-05-2.85408E-05-2.85912E-05 9.13270E-08 1.10895E-18 9.82108E-19
 -1      2473 9.52793E-05-2.85260E-05-2.86095E-05 1.37869E-07 1.45891E-19-5.24028E-20
 -1      2474 9.52122E-05-2.85439E-05-2.85719E-05 2.97074E-08 4.11172E-19 6.14694E-20
 -1      2475 9.52231E-05-2.85426E-05-2.85764E-05 4.49956E-08 1.21384E-18 6.86518E-19
 -1      2476 9.52461E-05-2.85344E-05-2.85914E-05 7.51380E-08 1.05679E-18 2.08264E-19
 -1      2477 9.51993E-05-2.85474E-05-2.85649E-05 4.03462E-09 1.96456E-19-1.32180E-18
 -1      2478 9.52041E-05-2.85455E-05-2.85673E-05 1.39284E-08 1.78819E-19-3.34508E-19
 -1      2479 9.52257E-05-2.85419E-05-2.85793E-05 3.22192E-08 1.33752E-18-2.60573E-19
 -1      2480 9.51944E-05-2.85512E-05-2.85612E-05-1.20088E-08-1.32096E-18 6.95580E-20
 -1      2481 9.51951E-05-2.85491E-05-2.85622E-05-5.98322E-09-2.44844E-19-7.57105E-19
 -1      2482 9.52144E-05-2.85483E-05-2.85715E-05 3.95524E-09-2.93700E-19 4.77401E-19
 -1      2483 9.51946E-05-2.85548E-05-2.85598E-05-2.12510E-08-1.53264E-18 9.73901E-20
 -1      2484 9.51928E-05-2.85527E-05-2.85598E-05-1.79290E-08-1.92914E-18-4.50131E-20
 -1      2485 9.52093E-05-2.85537E-05-2.85669E-05-1.37018E-08-1.81754E-18 8.36473E-19
 -1      2486 9.51981E-05-2.85583E-05-2.85598E-05-2.58171E-08-3.91682E-19-2.64152E-21
 -1      2487 9.51948E-05-2.85562E-05-2.85593E-05-2.43321E-08-1.26702E-19-5.28803E-19
 -1      2488 9.52084E-05-2.85582E-05-2.85646E-05-2.38624E-08-7.43609E-19-6.75189E-19
 -1      2489 9.52033E-05-2.85614E-05-2.85608E-05-2.72571E-08-1.84943E-19-9.59204E-19
 -1      2490 9.51993E-05-2.85595E-05-2.85599E-05-2.69856E-08-7.65850E-19-4.08657E-19
 -1      2491 9.52102E-05-2.85618E-05-2.85637E-05-2.88597E-08 6.43616E-20-4.47122E-19
 -1      2492 9.52094E-05-2.85642E-05-2.85622E-05-2.66533E-08 2.49031E-18-6.24343E-19
 -1      2493 9.52052E-05-2.85624E-05-2.85612E-05-2.71700E-08 9.97971E-19-4.90032E-19
 -1      2494 9.52135E-05-2.85648E-05-2.85638E-05-3.03904E-08 6.52158E-19-2.56253E-18
 -1      2495 9.52157E-05-2.85667E-05-2.85638E-05-2.47068E-08 2.12257E-18-2.75865E-19
 -1      2496 9.52115E-05-2.85651E-05-2.85628E-05-2.57494E-08 2.60478E-18 1.61934E-19
 -1      2497 9.52176E-05-2.85673E-05-2.85644E-05-2.96346E-08 1.94325E-18-1.63960E-18
 -1      2498 9.52217E-05-2.85690E-05-2.85654E-05-2.18086E-08 1.03931E-18 1.25629E-18
 -1      2499 9.52178E-05-2.85676E-05-2.85644E-05-2.32503E-08 1.38314E-18 1.29406E-18
 -1      2500 9.52220E-05-2.85696E-05-2.85653E-05-2.73555E-08 9.91777E-19 1.79535E-18
 -1      2501 9.52272E-05-2.85712E-05-2.85668E-05-1.80979E-08 2.50123E-19 2.24048E-18
 -1      2502 9.52238E-05-2.85699E-05-2.85660E-05-1.99258E-08 1.31645E-18 2.33233E-18
 -1      2503 9.52264E-05-2.85716E-05-2.85663E-05-2.39986E-08 4.00150E-19 3.43583E-18
 -1      2504 9.52319E-05-2.85734E-05-2.85680E-05-1.36167E-08-2.69372E-18 3.24355E-18
 -1      2505 9.52291E-05-2.85722E-05-2.85673E-05-1.58146E-08-1.75353E-18 2.10434E-18
 -1      2506 9.52305E-05-2.85737E-05-2.85672E-05-1.97383E-08-6.31087E-19 5.20534E-18
 -1      2507 9.52338E-05-2.85742E-05-2.85684E-05-1.07738E-08-1.91011E-18 2.81495E-18
 -1      2508 9.52469E-05-2.85925E-05-2.85661E-05-1.43542E-08-4.96872E-19 7.83405E-19
 -1      2509 9.52455E-05-2.85904E-05-2.85664E-05-1.58771E-08-7.30756E-19-1.31751E-18
 -1      2510 9.52490E-05-2.85956E-05-2.85657E-05-9.91769E-09-4.23483E-19 1.77747E-19
 -1      2511 9.52480E-05-2.85941E-05-2.85660E-05-1.21292E-08-1.19644E-18 1.53324E-18
 -1      2512 9.52482E-05-2.85917E-05-2.85671E-05-1.49056E-08-1.06498E-18 1.22566E-18
 -1      2513 9.52403E-05-2.85836E-05-2.85671E-05-1.79476E-08-1.05855E-18 9.35994E-19
 -1      2514 9.52383E-05-2.85809E-05-2.85675E-05-1.74740E-08-1.63903E-18 2.68631E-18
 -1      2515 9.52439E-05-2.85885E-05-2.85666E-05-1.71968E-08-1.25108E-18-1.06289E-18
 -1      2516 9.52422E-05-2.85860E-05-2.85670E-05-1.77792E-08-1.16278E-18 3.97109E-19
 -1      2517 9.52409E-05-2.85837E-05-2.85674E-05-2.02763E-08-1.12150E-18-1.19256E-19
 -1      2518 9.52450E-05-2.85882E-05-2.85672E-05-1.86661E-08-6.53373E-19-4.42477E-19
 -1      2519 9.52502E-05-2.85973E-05-2.85655E-05-4.46221E-09-1.58931E-18-6.85208E-19
 -1      2520 9.52497E-05-2.85965E-05-2.85656E-05-7.08701E-09-7.68337E-19-9.36434E-20
 -1      2521 9.52503E-05-2.85942E-05-2.85669E-05-9.55370E-09-1.40423E-18-3.07404E-19
 -1      2522 9.52504E-05-2.85976E-05-2.85654E-05 1.43064E-09-6.30609E-19-1.04703E-18
 -1      2523 9.52504E-05-2.85976E-05-2.85654E-05-1.33008E-09-1.08360E-18-3.05513E-19
 -1      2524 9.52514E-05-2.85955E-05-2.85669E-05-3.25184E-09-7.29889E-19 8.34596E-20
 -1      2525 9.52497E-05-2.85965E-05-2.85656E-05 7.17977E-09 4.42733E-19-1.90476E-18
 -1      2526 9.52502E-05-2.85973E-05-2.85655E-05 4.56049E-09 4.01412E-19-2.34621E-18
 -1      2527 9.52514E-05-2.85955E-05-2.85669E-05 3.36366E-09 6.97552E-19-1.00464E-18
 -1      2528 9.52480E-05-2.85941E-05-2.85660E-05 1.21290E-08 1.43245E-18 5.47679E-19
 -1      2529 9.52490E-05-2.85956E-05-2.85657E-05 9.95930E-09 1.27503E-18-6.07343E-19
 -1      2530 9.52503E-05-2.85942E-05-2.85669E-05 9.60689E-09 1.79126E-18-9.50031E-19
 -1      2531 9.52455E-05-2.85904E-05-2.85664E-05 1.58774E-08 2.20539E-18 2.06842E-18
 -1      2532 9.52469E-05-2.85925E-05-2.85661E-05 1.43552E-08 1.96856E-18 4.45829E-19
 -1      2533 9.52482E-05-2.85917E-05-2.85671E-05 1.49072E-08 1.26914E-18 2.35503E-19
 -1      2534 9.52421E-05-2.85859E-05-2.85670E-05 1.77749E-08-7.29778E-20 5.93082E-19
 -1      2535 9.52439E-05-2.85884E-05-2.85666E-05 1.72057E-08 1.02835E-18 2.25449E-18
 -1      2536 9.52450E-05-2.85881E-05-2.85672E-05 1.86892E-08 9.05264E-19 9.90215E-19
 -1      2537 9.52382E-05-2.85808E-05-2.85675E-05 1.73571E-08-1.80493E-18-2.53487E-18
 -1      2538 9.52402E-05-2.85836E-05-2.85671E-05 1.79581E-08-1.24840E-18-4.82300E-19
 -1      2539 9.52410E-05-2.85837E-05-2.85674E-05 2.02587E-08-1.96157E-18-1.05823E-18
 -1      2540 2.41145E-05-2.10816E-05-1.07218E-06 1.98401E-05-1.18616E-18 8.10822E-18
 -1      2541 1.90960E-05-1.83537E-05-2.25890E-08 7.01750E-06-9.02249E-19 7.94093E-18
 -1      2542 9.18971E-05-5.08655E-05-1.75366E-05 4.15606E-05-1.85712E-18 2.88740E-18
 -1      2543 7.24322E-05-4.39971E-05-1.18615E-05 4.12108E-05-2.89389E-18 3.63430E-18
 -1      2544 1.07835E-04-3.29342E-05-3.21268E-05-3.38474E-06 1.10447E-18 1.16292E-18
 -1      2545 1.07209E-04-3.21642E-05-3.21113E-05-3.48386E-06 1.43379E-18 1.38820E-18
 -1      2546 1.07471E-04-3.34479E-05-3.17561E-05-3.87571E-06 1.21963E-18 4.73844E-19
 -1      2547 1.47061E-04-3.50566E-05-4.86109E-05-5.91416E-06 6.35857E-18-3.50672E-18
 -1      2548 1.47302E-04-4.33707E-05-4.46723E-05 2.42226E-07 5.22238E-18-2.86361E-18
 -1      2549 9.52355E-05-2.85769E-05-2.85680E-05 1.32501E-08-1.12688E-18-2.48128E-18
 -1      2550 3.37668E-05-2.66405E-05-2.82481E-06-2.88137E-05 1.05032E-18 7.31900E-18
 -1      2551 4.98474E-05-3.38903E-05-6.67966E-06-3.88617E-05 5.01444E-19 6.04697E-18
 -1      2552 4.84230E-05-3.29765E-05-6.61932E-06 3.86608E-05-2.22113E-18 5.31111E-18
 -1      2553 3.41436E-05-2.70376E-05-2.79102E-06 2.90375E-05-2.23024E-18 6.71655E-18
 -1      2554 3.57738E-05-2.14628E-05-5.58330E-06 2.45315E-05-2.93508E-18 6.70194E-18
 -1      2555 1.43695E-04-1.29908E-05-5.64485E-05 4.67927E-06-7.68386E-18-2.61045E-18
 -1      2556 1.41959E-04-1.01570E-05-5.70147E-05 5.29160E-07-8.74180E-18-2.11388E-18
 -1      2557 3.27928E-05-2.60773E-05-2.79632E-06-2.87230E-05-1.13629E-18-8.41188E-18
 -1      2558 4.96827E-05-3.24407E-05-7.25989E-06-3.85016E-05-1.30845E-18-7.83675E-18
 -1      2559 7.59907E-05-4.23599E-06-3.07832E-05 3.51855E-07 2.75189E-20-5.38460E-18
 -1      2560 7.68820E-05-4.71314E-06-3.09367E-05 2.81334E-07-3.31762E-19-5.32032E-18
 -1      2561 7.81033E-05-6.54059E-06-3.06581E-05 9.06861E-07-4.28221E-19-4.97136E-18
 -1      2562 7.61095E-05-5.21589E-06-3.03644E-05 3.58781E-07 1.20131E-19-5.13112E-18
 -1      2563 1.48139E-04-1.19606E-05-5.87361E-05 6.52959E-07 8.62068E-18-1.52725E-18
 -1      2564 1.47701E-04-1.19101E-05-5.85595E-05-2.21148E-06 8.86674E-18-1.58189E-18
 -1      2565 5.85906E-05-3.67181E-05-9.35291E-06 4.17471E-05 5.84664E-19-5.96036E-18
 -1      2566 4.27654E-05-2.98782E-05-5.18612E-06 3.44134E-05 1.08336E-18-7.29189E-18
 -1      2567 1.48662E-04-1.58194E-05-5.71188E-05-5.15915E-06 9.05986E-18-2.58980E-18
 -1      2568 1.45313E-04-2.20379E-05-5.32173E-05-6.99649E-06 8.42777E-18-2.95318E-18
 -1      2569 1.43523E-04-1.89567E-05-5.38957E-05 6.36501E-06 7.09687E-18-7.03037E-20
 -1      2570 1.48059E-04-1.47363E-05-5.72891E-05 3.64022E-06 8.10653E-18-7.65083E-19
 -1      2571 1.36374E-04-1.12543E-05-5.38634E-05 4.00272E-06 7.76136E-18-3.14355E-19
 -1      2572 1.45803E-04-4.14556E-05-4.49302E-05 1.66406E-06 3.95469E-18-2.12182E-19
 -1      2573 1.46435E-04-3.07856E-05-5.00295E-05 6.80058E-06 5.29777E-18-3.09167E-20
 -1      2574 1.32941E-04-5.66666E-05-3.27039E-05-2.04347E-05 1.90042E-18-1.69618E-18
 -1      2575 1.42842E-04-5.25630E-05-3.91913E-05-9.59057E-06 2.84164E-18-5.06102E-19
 -1      2576 1.04147E-04-5.46187E-05-2.12436E-05-3.69766E-05-2.11546E-19-4.25496E-18
 -1      2577 1.20047E-04-5.70044E-05-2.72310E-05-3.23169E-05 8.94890E-19-2.70426E-18
 -1      2578 7.30990E-05-4.33023E-05-1.25167E-05-4.22168E-05-1.49628E-18-6.32617E-18
 -1      2579 8.97050E-05-4.94909E-05-1.70752E-05-4.27235E-05-5.89111E-19-5.82343E-18
 -1      2580 1.03671E-04-5.41702E-05-2.09654E-05-3.67762E-05-2.22283E-18-3.57400E-18
 -1      2581 1.89009E-05-1.69105E-05-5.35912E-07-6.21565E-06-5.18966E-19-8.81422E-18
 -1      2582 2.30002E-05-2.00494E-05-1.10009E-06-1.89116E-05-4.74762E-19-8.94170E-18
 -1      2583 1.46922E-04-4.80116E-05-4.28519E-05 6.41073E-06-4.33350E-18-2.51145E-19
 -1      2584 1.39991E-04-5.32516E-05-3.72481E-05 1.34873E-05-3.36325E-18-6.67038E-19
 -1      2585 9.45839E-05-5.15451E-05-1.85696E-05 4.20234E-05-3.77777E-19-4.21142E-18
 -1      2586 7.83425E-05-4.59310E-05-1.36784E-05 4.19612E-05 5.36595E-19-4.85625E-18
 -1      2587 1.30267E-04-5.70735E-05-3.16270E-05 2.63793E-05-2.18746E-18-1.81434E-18
 -1      2588 1.12758E-04-5.63394E-05-2.41162E-05 3.33619E-05-9.06113E-19-2.90098E-18
 -1      2589 1.36062E-04-5.78080E-05-3.34255E-05 1.51441E-05-1.18775E-18-5.71747E-21
 -1      2590 1.48673E-04-3.01058E-05-5.13858E-05-5.26251E-06-6.60347E-18-1.93124E-19
 -1      2591 1.46720E-04-3.77493E-05-4.70564E-05-2.83880E-06-5.36299E-18-6.77626E-21
 -1      2592 1.41855E-04-1.42062E-05-5.54705E-05-5.59960E-06-8.26175E-18-6.48880E-19
 -1      2593 1.45815E-04-2.12136E-05-5.38062E-05-6.44091E-06-7.60763E-18-3.38390E-19
 -1      2594 1.37844E-04-2.54082E-05-4.83905E-05-1.12859E-05-5.90551E-18 1.15641E-18
 -1      2595 1.47267E-04-2.66273E-05-5.19995E-05 7.59418E-06-5.81234E-18-3.26574E-18
 -1      2596 1.46615E-04-2.00569E-05-5.48386E-05 7.09883E-06-6.65154E-18-3.10035E-18
 -1      2597 1.45507E-04-4.62917E-05-4.26814E-05-3.94903E-06-3.12971E-18-3.25155E-18
 -1      2598 1.48864E-04-3.79258E-05-4.80741E-05 3.23292E-06-3.92663E-18-3.18146E-18
 -1      2599 1.32528E-04-5.63748E-05-3.27233E-05-1.99603E-05-9.05690E-19-1.40057E-18
 -1      2600 1.41514E-04-5.35377E-05-3.80420E-05-1.41584E-05-2.21939E-18-3.34578E-18
 -1      2601 1.01889E-04-5.46256E-05-2.02143E-05-3.67684E-05 6.78685E-19 2.14469E-18
 -1      2602 1.20257E-04-5.73023E-05-2.71360E-05-3.14340E-05 2.22558E-19 4.44798E-19
 -1      2603 6.70111E-05-4.29366E-05-1.02482E-05-4.11935E-05 9.13949E-19 4.42882E-18
 -1      2604 8.28369E-05-4.80088E-05-1.49935E-05-4.29525E-05 2.24464E-19 3.86289E-18
 -1      2605 9.99667E-05-5.35395E-05-1.94909E-05-3.73365E-05 2.03076E-18 1.45102E-18
 -1      2606 6.48744E-05-3.76755E-05-1.11788E-05-3.93841E-05 1.89545E-18 4.61771E-18
 -1      2607 1.88580E-05-1.81840E-05 3.00855E-08-6.16138E-06-8.28504E-21 7.52716E-18
 -1      2608 2.26381E-05-2.06922E-05-6.32054E-07-1.80254E-05-4.02129E-19 8.13787E-18
 -1      2609 1.01704E-04-2.20405E-05-3.41743E-05-5.81091E-06-3.57997E-18-9.49220E-19
 -1      2610 1.03189E-04-2.57559E-05-3.32062E-05-1.98325E-06-3.25809E-18-5.34949E-19
 -1      2611 1.01278E-04-2.45109E-05-3.29080E-05-9.59802E-07-2.94250E-18-1.30984E-18
 -1      2612 9.80981E-05-1.90680E-05-3.39173E-05-4.96417E-06-3.40131E-18-2.00147E-18
 -1      2613 1.05887E-04-2.81077E-05-3.33494E-05 2.51730E-06 3.50633E-18 2.38244E-18
 -1      2614 1.06232E-04-2.65735E-05-3.41573E-05 5.62410E-06 3.77451E-18 2.89888E-18
 -1      2615 1.03753E-04-2.38069E-05-3.43236E-05 6.36041E-06 4.05628E-18 1.48138E-18
 -1      2616 1.04154E-04-2.68260E-05-3.31830E-05 1.79980E-06 3.49574E-18 7.56187E-19
 -1      2617 1.19776E-04-5.73025E-05-2.70257E-05 3.14162E-05 7.62330E-21-2.50086E-19
 -1      2618 1.05428E-04-5.55287E-05-2.13737E-05 3.58174E-05-1.30972E-18 1.35589E-18
 -1      2619 1.03311E-04-5.47095E-05-2.04937E-05 3.58958E-05-3.45611E-18 8.26036E-19
 -1      2620 1.37377E-04-1.21767E-05-5.38951E-05-5.83458E-06 8.27085E-18-2.30859E-18
 -1      2621 8.68422E-05-1.23810E-05-3.19150E-05-7.02220E-09-1.80378E-18-4.15944E-18
 -1      2622 8.70748E-05-1.12837E-05-3.25447E-05-1.45840E-06-2.05597E-18-4.35730E-18
 -1      2623 8.97761E-05-1.29199E-05-3.29759E-05-2.46182E-06-2.54292E-18-3.95003E-18
 -1      2624 1.05714E-04-3.12168E-05-3.19573E-05-3.67092E-06 1.80823E-18 3.24109E-19
 -1      2625 1.00470E-04-2.09643E-05-3.41208E-05 5.65028E-06 3.89764E-18-1.22555E-19
 -1      2626 1.29288E-04-5.90092E-05-2.99470E-05 2.08201E-05-5.80959E-19-1.74573E-18
 -1      2627 2.54921E-05-1.52785E-05-3.81318E-06 5.79919E-07-1.11697E-18 7.55596E-18
 -1      2628 1.28598E-04-5.95285E-05-2.94198E-05-2.16734E-05 7.62965E-19-2.05321E-18
 -1      2629 1.42432E-04-5.16901E-05-3.89096E-05-2.56908E-06-1.53457E-18-3.89593E-18
 -1      2630 3.68462E-05-2.17173E-05-5.94615E-06-2.48508E-05 1.01665E-18 7.31900E-18
 -1      2631 1.33004E-04-1.20097E-05-5.22246E-05-3.73479E-06-7.62499E-18-7.13255E-19
 -1      2632 9.52343E-05-2.85757E-05-2.85680E-05-1.44017E-08-2.65300E-18 2.64139E-18
 -1      2633 9.52356E-05-2.85777E-05-2.85677E-05-1.59500E-08-2.22944E-18 3.81977E-18
 -1      2634 6.74806E-05-3.85399E-05-1.19789E-05 3.92936E-05-3.67888E-18 3.79788E-18
 -1      2635 1.10424E-04-5.60583E-05-2.29576E-05 3.39919E-05 1.03952E-18-2.34681E-18
 -1      2636 1.43251E-04-4.40728E-05-4.25852E-05-4.03394E-06-3.59068E-18 1.14117E-18
 -1      2637 1.00179E-04-2.21792E-05-3.33877E-05 3.26599E-06 3.58477E-18-4.65107E-19
 -1      2638 1.42689E-04-2.89766E-05-4.91182E-05-1.00312E-05 6.73201E-18-3.64182E-18
 -1      2639 1.37981E-04-3.46024E-05-4.45399E-05-1.14968E-05 4.97325E-18-4.56117E-18
 -1      2640 1.33927E-04-2.21751E-05-4.86392E-05-1.28870E-05 6.75996E-18-4.12071E-18
 -1      2641 9.52333E-05-2.85750E-05-2.85679E-05 1.54634E-08-1.83319E-18-1.91565E-18
 -1      2642 9.52363E-05-2.85785E-05-2.85676E-05 1.70229E-08-1.75851E-18-2.74222E-18
 -1      2643 9.52363E-05-2.85788E-05-2.85675E-05 1.99317E-08-2.03673E-18-2.29553E-18
 -1      2644 9.52312E-05-2.85741E-05-2.85674E-05 1.78011E-08-2.13642E-18-1.56253E-18
 -1      2645 1.36173E-04-1.54758E-05-5.20566E-05 8.44085E-06-6.57721E-18-3.08267E-18
 -1      2646 6.57217E-05-3.78125E-05-1.16307E-05-4.06402E-05-1.94013E-18-6.87875E-18
 -1      2647 8.04455E-05-4.20838E-05-1.62502E-05-3.92841E-05-3.01226E-18-5.16489E-18
 -1      2648 5.88041E-05-3.05429E-05-1.15664E-05-3.72303E-05-2.34734E-18-6.70300E-18
 -1      2649 3.49786E-05-2.03836E-05-5.74168E-06-2.45036E-05-1.45012E-18-8.45212E-18
 -1      2650 1.29349E-04-5.92326E-05-2.98211E-05-2.17070E-05-2.13876E-19-1.04609E-18
 -1      2651 1.40931E-04-2.58411E-05-4.97187E-05 9.84507E-06 5.53165E-18 5.14043E-19
 -1      2652 1.32277E-04-2.04175E-05-4.85916E-05 1.15000E-05 6.09461E-18 1.43000E-18
 -1      2653 1.35734E-04-3.15511E-05-4.50085E-05 1.18515E-05 4.13130E-18 1.59645E-18
 -1      2654 3.95557E-05-2.42133E-05-6.09160E-06 3.00658E-05 1.35864E-18-7.48968E-18
 -1      2655 2.63765E-05-1.36205E-05-5.13073E-06 1.05316E-05 7.46448E-19-8.13448E-18
 -1      2656 2.20443E-05-1.55483E-05-2.34715E-06 2.02315E-06 2.28699E-20-8.67446E-18
 -1      2657 2.76374E-05-1.24822E-05-5.95405E-06-4.78744E-06-4.44540E-19-8.24332E-18
 -1      2658 1.42979E-04-4.91089E-05-4.02364E-05 4.56908E-07 2.80361E-18-3.79598E-18
 -1      2659 7.44452E-05-4.14007E-05-1.37038E-05 4.08163E-05 1.87724E-18-5.04450E-18
 -1      2660 9.23340E-05-1.48322E-05-3.32805E-05-3.13978E-06-2.72787E-18-3.43304E-18
 -1      2661 9.53552E-05-1.69062E-05-3.36847E-05-4.27797E-06-3.17358E-18-2.76219E-18
 -1      2662 9.73989E-05-2.00843E-05-3.31256E-05-2.38610E-06-3.04479E-18-2.27715E-18
 -1      2663 9.21838E-05-1.61060E-05-3.25980E-05-1.23775E-06-2.47746E-18-3.38671E-18
 -1      2664 1.43508E-04-4.87094E-05-4.07853E-05-5.21072E-07 2.72014E-18 4.39187E-19
 -1      2665 1.38626E-04-4.32428E-05-4.13195E-05 8.26599E-06 2.33538E-18 1.93462E-18
 -1      2666 1.38337E-04-5.34501E-05-3.64176E-05-2.91599E-06 1.24538E-18 1.37320E-18
 -1      2667 1.42584E-04-3.35121E-05-4.69096E-05 9.73174E-06-4.06936E-18-3.97915E-18
 -1      2668 9.52355E-05-2.85780E-05-2.85675E-05-1.91052E-08-1.69691E-18 4.38436E-18
 -1      2669 9.52330E-05-2.85758E-05-2.85673E-05 2.10583E-08-1.71996E-18-8.34103E-19
 -1      2670 7.91404E-05-8.43216E-06-3.02970E-05-1.83530E-06 1.35171E-18-4.50280E-18
 -1      2671 7.75165E-05-7.42830E-06-3.00757E-05-1.68104E-06 1.03626E-18-4.66030E-18
 -1      2672 7.62742E-05-6.49721E-06-2.99108E-05-9.33946E-07 8.31960E-19-4.77190E-18
 -1      2673 7.56629E-05-6.11920E-06-2.98286E-05-5.18015E-07 5.08867E-19-4.76240E-18
 -1      2674 7.70581E-05-8.14792E-06-2.95008E-05-1.89240E-06 8.47779E-19-4.51553E-18
 -1      2675 8.93546E-05-1.54791E-05-3.16660E-05-1.08579E-06 2.62007E-18-3.04075E-18
 -1      2676 8.65026E-05-1.35900E-05-3.12872E-05-1.67444E-06 2.29467E-18-3.39482E-18
 -1      2677 9.54552E-05-1.99032E-05-3.23888E-05 1.84300E-07 3.07445E-18-2.04910E-18
 -1      2678 9.23797E-05-1.76777E-05-3.20421E-05-5.11085E-07 2.83777E-18-2.59184E-18
 -1      2679 9.18485E-05-1.85653E-05-3.14062E-05-2.36398E-06 2.43060E-18-2.54770E-18
 -1      2680 1.02939E-04-2.81769E-05-3.20548E-05-2.67944E-06 2.38299E-18-3.27953E-19
 -1      2681 1.02513E-04-2.68367E-05-3.23844E-05-1.10063E-06 2.73951E-18-2.77824E-19
 -1      2682 1.00337E-04-2.35668E-05-3.29110E-05 1.25930E-06 3.26313E-18-7.24633E-19
 -1      2683 3.07500E-05-1.32919E-05-6.98384E-06 7.42295E-06-1.72318E-18 6.70871E-18
 -1      2684 3.04246E-05-1.31650E-05-6.92714E-06-6.54358E-06-9.32213E-19 6.83767E-18
 -1      2685 1.02460E-04-2.91036E-05-3.13822E-05 4.93168E-06-1.63603E-18-1.05696E-18
 -1      2686 1.03442E-04-3.07429E-05-3.11749E-05 5.63365E-06-1.23879E-18-9.93801E-19
 -1      2687 1.04997E-04-3.26042E-05-3.09559E-05 6.16301E-06-8.51827E-19-7.49563E-19
 -1      2688 1.06393E-04-3.44557E-05-3.08595E-05 5.94608E-06-5.58711E-19-8.15989E-19
 -1      2689 1.02301E-04-3.09498E-05-3.06361E-05 6.93071E-06-1.03720E-18-1.29836E-18
 -1      2690 1.08653E-04-3.66177E-05-3.07891E-05 5.50218E-06-3.28292E-19-4.02538E-19
 -1      2691 1.10378E-04-3.85581E-05-3.08303E-05 4.26468E-06-2.36304E-19-2.15782E-19
 -1      2692 1.06085E-04-3.55731E-05-3.02984E-05 7.36340E-06-2.84602E-19-6.91109E-19
 -1      2693 1.13307E-04-4.07491E-05-3.10110E-05 2.53221E-06-9.95214E-20 9.61283E-20
 -1      2694 1.14969E-04-4.21482E-05-3.12679E-05 2.55717E-07-1.67908E-19 9.88452E-20
 -1      2695 1.11310E-04-4.06415E-05-3.03758E-05 5.59776E-06-5.34888E-20-2.45487E-19
 -1      2696 1.17949E-04-4.35058E-05-3.18668E-05-2.82937E-06-2.40703E-19 4.09133E-19
 -1      2697 1.18825E-04-4.32177E-05-3.24587E-05-5.74304E-06-5.53506E-19 4.14358E-19
 -1      2698 1.17339E-04-4.47092E-05-3.11749E-05 1.05502E-06-1.95368E-19 3.78260E-19
 -1      2699 1.20314E-04-4.19246E-05-3.36753E-05-9.56468E-06-9.44204E-19 9.04823E-19
 -1      2700 1.19535E-04-3.89459E-05-3.46064E-05-1.15063E-05-1.39619E-18 8.12607E-19
 -1      2701 1.22407E-04-4.51206E-05-3.30769E-05-6.17290E-06-4.63777E-19 9.11136E-19
 -1      2702 1.18839E-04-3.46640E-05-3.62848E-05-1.38702E-05-1.91788E-18 8.63093E-19
 -1      2703 1.16446E-04-2.91926E-05-3.73790E-05-1.31452E-05-2.52980E-18 9.00356E-19
 -1      2704 1.23304E-04-3.89288E-05-3.63810E-05-1.26726E-05-1.79230E-18 1.56061E-18
 -1      2705 1.13776E-04-2.36464E-05-3.89507E-05-1.06156E-05-3.06054E-18 3.05448E-19
 -1      2706 1.11951E-04-1.97131E-05-3.96438E-05-6.37245E-06-3.16182E-18-1.69592E-19
 -1      2707 1.19512E-04-2.62807E-05-4.01166E-05-1.30429E-05-3.11528E-18 1.25133E-18
 -1      2708 1.10933E-04-1.78379E-05-4.01134E-05 1.46764E-07-3.81948E-18-1.38560E-18
 -1      2709 1.11407E-04-1.88255E-05-3.99499E-05 5.61347E-06-3.80159E-18-2.30388E-18
 -1      2710 1.15398E-04-1.69698E-05-4.25493E-05-3.56882E-06-4.26873E-18-1.04135E-18
 -1      2711 1.13423E-04-2.26343E-05-3.89693E-05 1.11460E-05-3.37966E-18-3.09103E-18
 -1      2712 1.15719E-04-2.76690E-05-3.80644E-05 1.40844E-05-3.00752E-18-3.69141E-18
 -1      2713 1.16453E-04-1.92238E-05-4.19483E-05 9.35230E-06-4.35370E-18-3.28101E-18
 -1      2714 1.18086E-04-3.32686E-05-3.63219E-05 1.46567E-05-2.21103E-18-3.83739E-18
 -1      2715 1.20072E-04-3.82461E-05-3.52252E-05 1.40864E-05-1.01423E-18-3.73885E-18
 -1      2716 1.21305E-04-3.12033E-05-3.86993E-05 1.54390E-05-2.62527E-18-3.91755E-18
 -1      2717 1.19736E-04-4.14041E-05-3.36621E-05 1.06669E-05-3.29430E-19-3.49745E-18
 -1      2718 1.19889E-04-4.33414E-05-3.28336E-05 8.10994E-06 2.40716E-19-3.50952E-18
 -1      2719 1.23430E-04-4.22939E-05-3.49868E-05 1.18152E-05-6.11346E-19-3.43787E-18
 -1      2720 1.17647E-04-4.36130E-05-3.17930E-05 4.23505E-06 4.80069E-19-3.19482E-18
 -1      2721 1.16389E-04-4.32408E-05-3.12900E-05 1.28322E-06 8.21863E-19-3.28681E-18
 -1      2722 1.20723E-04-4.58359E-05-3.20512E-05 4.40526E-06 5.04779E-19-2.94006E-18
 -1      2723 1.13251E-04-4.15505E-05-3.07865E-05-1.60927E-06 8.24223E-19-2.93305E-18
 -1      2724 1.11424E-04-3.99783E-05-3.05439E-05-3.82424E-06 8.98394E-19-2.67554E-18
 -1      2725 1.14947E-04-4.41002E-05-3.04324E-05-2.62549E-06 9.90228E-19-2.47322E-18
 -1      2726 1.08642E-04-3.79128E-05-3.03524E-05-5.45089E-06 9.52039E-19-2.28220E-18
 -1      2727 1.06863E-04-3.61676E-05-3.02393E-05-6.78232E-06 1.03572E-18-2.41014E-18
 -1      2728 1.08953E-04-3.97648E-05-2.97353E-05-6.83007E-06 9.25809E-19-1.59698E-18
 -1      2729 1.04812E-04-3.44054E-05-3.01923E-05-7.43807E-06 9.72854E-19-2.24715E-18
 -1      2730 1.03347E-04-3.29656E-05-3.01247E-05-8.04447E-06 1.02204E-18-1.88347E-18
 -1      2731 1.04129E-04-3.53794E-05-2.95297E-05-8.78177E-06 1.23110E-18-2.23432E-18
 -1      2732 1.01988E-04-3.17099E-05-3.01234E-05-8.09650E-06 1.13414E-18-1.57503E-18
 -1      2733 1.00870E-04-3.06861E-05-3.00573E-05-8.19943E-06 1.30923E-18-1.36052E-18
 -1      2734 1.00768E-04-3.19795E-05-2.95239E-05-9.25292E-06 1.04785E-18-1.54552E-18
 -1      2735 1.00027E-04-2.98930E-05-3.00541E-05-7.91446E-06 8.91432E-19-1.50451E-18
 -1      2736 9.91959E-05-2.92322E-05-2.99743E-05-7.70494E-06 8.91119E-19-9.56829E-19
 -1      2737 9.86125E-05-2.96958E-05-2.95610E-05-8.87611E-06 1.04343E-18-1.46457E-18
 -1      2738 9.86944E-05-2.87866E-05-2.99530E-05-7.25155E-06 1.10283E-18-1.40461E-18
 -1      2739 9.80742E-05-2.83945E-05-2.98597E-05-6.87297E-06 1.20055E-18-1.48557E-18
 -1      2740 9.72992E-05-2.83263E-05-2.95735E-05-8.05384E-06 9.09188E-19-2.29806E-18
 -1      2741 9.77820E-05-2.81812E-05-2.98196E-05-6.35543E-06 1.09740E-18-1.57815E-18
 -1      2742 9.73119E-05-2.79694E-05-2.97190E-05-5.90596E-06 2.08624E-19-1.44450E-18
 -1      2743 9.65235E-05-2.76058E-05-2.95432E-05-7.03366E-06 1.07402E-18-2.63501E-18
 -1      2744 9.71414E-05-2.78989E-05-2.96654E-05-5.38670E-06-2.71713E-19-1.10734E-18
 -1      2745 9.67784E-05-2.78003E-05-2.95648E-05-4.92898E-06-2.53627E-19-7.91388E-19
 -1      2746 9.60702E-05-2.73044E-05-2.94747E-05-5.96539E-06 1.96666E-19-1.33662E-18
 -1      2747 9.66764E-05-2.78101E-05-2.95043E-05-4.44376E-06-5.82452E-19-6.71980E-19
 -1      2748 9.63924E-05-2.77786E-05-2.94093E-05-4.01455E-06-7.68352E-19-7.67538E-19
 -1      2749 9.58024E-05-2.72525E-05-2.93806E-05-4.93791E-06-3.46197E-19-8.86825E-19
 -1      2750 9.63281E-05-2.78291E-05-2.93476E-05-3.58190E-06-3.72141E-19-1.80092E-19
 -1      2751 9.61046E-05-2.78348E-05-2.92618E-05-3.20019E-06-1.12877E-20-2.48419E-19
 -1      2752 9.56387E-05-2.73364E-05-2.92738E-05-4.00102E-06-4.14270E-19 1.23975E-19
 -1      2753 9.60613E-05-2.79018E-05-2.92031E-05-2.82754E-06-6.91303E-19-8.89115E-20
 -1      2754 9.58855E-05-2.79263E-05-2.91283E-05-2.50070E-06-8.60290E-19-3.69704E-19
 -1      2755 9.55329E-05-2.74843E-05-2.91648E-05-3.17883E-06 1.23773E-19 5.14726E-19
 -1      2756 9.58543E-05-2.79961E-05-2.90751E-05-2.18846E-06-3.44948E-19-8.37640E-19
 -1      2757 9.57170E-05-2.80285E-05-2.90119E-05-1.91673E-06-3.21642E-19-8.35368E-19
 -1      2758 9.54601E-05-2.76535E-05-2.90611E-05-2.47862E-06-7.39781E-19-5.92489E-20
 -1      2759 9.56933E-05-2.80939E-05-2.89653E-05-1.66114E-06-6.45697E-19-1.21408E-18
 -1      2760 9.55871E-05-2.81279E-05-2.89131E-05-1.44067E-06-4.56033E-19-1.05599E-18
 -1      2761 9.54069E-05-2.78198E-05-2.89670E-05-1.89699E-06-1.01447E-18-7.44692E-19
 -1      2762 9.55685E-05-2.81854E-05-2.88736E-05-1.23575E-06 2.56450E-19-6.05386E-19
 -1      2763 9.54875E-05-2.82176E-05-2.88316E-05-1.06066E-06 1.88873E-20 3.71468E-19
 -1      2764 9.53665E-05-2.79712E-05-2.88847E-05-1.42430E-06 1.27235E-19-7.39525E-19
 -1      2765 9.54728E-05-2.82664E-05-2.87988E-05-8.99494E-07-6.04146E-19 6.99959E-19
 -1      2766 9.54119E-05-2.82951E-05-2.87656E-05-7.63156E-07-1.79565E-19 4.84691E-19
 -1      2767 9.53350E-05-2.81024E-05-2.88149E-05-1.04768E-06 1.29919E-19-9.90397E-20
 -1      2768 9.54002E-05-2.83351E-05-2.87390E-05-6.38741E-07-6.58922E-19 7.46717E-19
 -1      2769 9.53553E-05-2.83598E-05-2.87133E-05-5.34594E-07-1.30938E-18 5.12179E-19
 -1      2770 9.53102E-05-2.82122E-05-2.87572E-05-7.53203E-07-3.25863E-19 6.31726E-19
 -1      2771 9.53461E-05-2.83919E-05-2.86922E-05-4.40322E-07-1.75184E-18-5.34707E-20
 -1      2772 9.53138E-05-2.84125E-05-2.86727E-05-3.62291E-07-1.01665E-18-5.45665E-19
 -1      2773 9.52908E-05-2.83017E-05-2.87104E-05-5.27152E-07-1.94668E-18 8.05136E-19
 -1      2774 9.53066E-05-2.84377E-05-2.86563E-05-2.92232E-07-1.17415E-18-8.66857E-19
 -1      2775 9.52838E-05-2.84544E-05-2.86417E-05-2.34955E-07-1.33606E-18-9.28758E-19
 -1      2776 9.52758E-05-2.83730E-05-2.86733E-05-3.56848E-07-1.95214E-18-1.51883E-18
 -1      2777 9.52784E-05-2.84738E-05-2.86291E-05-1.83972E-07-9.10677E-19-7.07221E-19
 -1      2778 9.52629E-05-2.84871E-05-2.86185E-05-1.42869E-07-2.07560E-19-3.28057E-19
 -1      2779 9.52643E-05-2.84287E-05-2.86444E-05-2.31055E-07-1.36577E-18-1.18859E-18
 -1      2780 9.52587E-05-2.85018E-05-2.86091E-05-1.06637E-07 2.64811E-19-3.05996E-19
 -1      2781 9.52487E-05-2.85122E-05-2.86015E-05-7.79013E-08 7.32346E-19-3.40241E-19
 -1      2782 9.52556E-05-2.84714E-05-2.86223E-05-1.40128E-07-1.63593E-19-1.96006E-18
 -1      2783 9.52456E-05-2.85231E-05-2.85946E-05-5.28631E-08 5.26715E-19-7.65863E-19
 -1      2784 9.52394E-05-2.85311E-05-2.85894E-05-3.34044E-08 1.13399E-19-2.06800E-18
 -1      2785 9.52492E-05-2.85034E-05-2.86057E-05-7.60117E-08-4.13363E-20-2.25315E-18
 -1      2786 9.52372E-05-2.85389E-05-2.85845E-05-1.66969E-08 7.03643E-19-2.48274E-18
 -1      2787 9.52338E-05-2.85450E-05-2.85810E-05-4.05730E-09 1.09860E-18-2.68353E-18
 -1      2788 9.52446E-05-2.85270E-05-2.85935E-05-3.21242E-08 4.20103E-19-2.67225E-18
 -1      2789 9.52323E-05-2.85505E-05-2.85776E-05 6.57738E-09 1.57127E-18-2.25854E-18
 -1      2790 9.52308E-05-2.85550E-05-2.85754E-05 1.43123E-08 8.82594E-19-7.35636E-19
 -1      2791 9.52414E-05-2.85440E-05-2.85848E-05-3.20349E-09 1.12957E-18-2.52192E-18
 -1      2792 9.52298E-05-2.85589E-05-2.85730E-05 2.06179E-08 5.42720E-19-2.57512E-19
 -1      2793 9.52296E-05-2.85622E-05-2.85718E-05 2.49062E-08 9.10326E-19 4.96834E-19
 -1      2794 9.52392E-05-2.85559E-05-2.85787E-05 1.48728E-08 1.41958E-18-1.65783E-18
 -1      2795 9.52289E-05-2.85647E-05-2.85702E-05 2.81987E-08-2.81957E-20 9.63654E-19
 -1      2796 9.52295E-05-2.85671E-05-2.85696E-05 3.01222E-08-1.24989E-19 5.30637E-19
 -1      2797 9.52378E-05-2.85641E-05-2.85746E-05 2.52650E-08 3.24723E-19-1.62943E-18
 -1      2798 9.52292E-05-2.85688E-05-2.85686E-05 3.13669E-08-6.28703E-20 4.12680E-19
 -1      2799 9.52302E-05-2.85706E-05-2.85684E-05 3.17001E-08 1.37854E-18 7.15818E-20
 -1      2800 9.52370E-05-2.85696E-05-2.85718E-05 3.03363E-08 1.54319E-19-1.04016E-18
 -1      2801 9.52301E-05-2.85717E-05-2.85678E-05 3.15777E-08 1.40414E-18-2.00082E-19
 -1      2802 9.52314E-05-2.85731E-05-2.85679E-05 3.08475E-08-2.92556E-19-8.85764E-19
 -1      2803 9.52367E-05-2.85732E-05-2.85701E-05 3.17991E-08 7.26119E-19-1.84077E-18
 -1      2804 9.52315E-05-2.85739E-05-2.85675E-05 2.98128E-08-1.05472E-18-4.76874E-19
 -1      2805 9.52330E-05-2.85751E-05-2.85676E-05 2.83461E-08-1.44031E-18-1.63191E-18
 -1      2806 9.52367E-05-2.85757E-05-2.85690E-05 3.08392E-08-1.06914E-18-2.00231E-18
 -1      2807 9.52332E-05-2.85759E-05-2.85674E-05 2.66765E-08-1.96474E-18-1.56814E-18
 -1      2808 9.52347E-05-2.85770E-05-2.85676E-05 2.46449E-08-1.87054E-18-3.02002E-18
 -1      2809 9.52371E-05-2.85777E-05-2.85683E-05 2.82282E-08-1.42520E-18-1.83208E-18
 -1      2810 1.13315E-04-3.99307E-05-3.15221E-05 7.02502E-07 5.31646E-20 7.19316E-19
 -1      2811 1.12229E-04-3.88600E-05-3.13786E-05-1.37791E-06 1.10441E-19 6.76683E-19
 -1      2812 1.31065E-04-1.89791E-05-4.84105E-05 1.24355E-05-5.48539E-18-3.92568E-18
 -1      2813 1.27158E-04-1.28558E-05-4.96884E-05 7.40098E-06-6.29790E-18-3.20904E-18
 -1      2814 1.09944E-04-3.71245E-05-3.12589E-05-3.07019E-06 3.67301E-19 3.47881E-19
 -1      2815 1.08688E-04-3.56156E-05-3.12449E-05-4.26292E-06 7.12260E-19 3.13767E-19
 -1      2816 1.10847E-04-3.89838E-05-3.08539E-05-3.82559E-06 2.19127E-19 1.81732E-20
 -1      2817 1.16187E-04-3.78051E-05-3.36072E-05 1.09403E-05 7.09172E-19 1.79857E-18
 -1      2818 1.17029E-04-3.99753E-05-3.30680E-05 9.26889E-06 9.32663E-20 1.60268E-18
 -1      2819 1.13496E-04-3.06706E-05-3.54346E-05 1.26399E-05 2.27962E-18 1.75280E-18
 -1      2820 1.15583E-04-3.47872E-05-3.47358E-05 1.30284E-05 1.32626E-18 1.93861E-18
 -1      2821 1.19577E-04-3.79390E-05-3.51115E-05 1.26748E-05 1.19646E-18 1.70427E-18
 -1      2822 1.09398E-04-2.28957E-05-3.70922E-05 7.49562E-06 4.04413E-18 9.63244E-19
 -1      2823 1.11146E-04-2.63481E-05-3.65849E-05 1.07625E-05 3.31873E-18 1.37478E-18
 -1      2824 1.15984E-04-2.85895E-05-3.74979E-05 1.30505E-05 3.03645E-18 1.75037E-18
 -1      2825 1.08072E-04-2.06657E-05-3.76027E-05-2.75521E-06 4.07910E-18-5.16458E-19
 -1      2826 1.08123E-04-2.07481E-05-3.75815E-05 1.97718E-06 4.53306E-18 8.16295E-20
 -1      2827 1.11985E-04-2.01836E-05-3.94705E-05 5.35556E-06 4.67837E-18 6.91758E-19
 -1      2828 1.11046E-04-2.60700E-05-3.66765E-05-1.17052E-05 3.19413E-18-2.18838E-18
 -1      2829 1.09349E-04-2.26794E-05-3.71511E-05-8.36798E-06 3.64335E-18-1.41711E-18
 -1      2830 1.11912E-04-1.99597E-05-3.95165E-05-6.35185E-06 4.59383E-18-1.16636E-18
 -1      2831 1.15547E-04-3.45106E-05-3.48821E-05-1.42302E-05 1.55903E-18-3.35501E-18
 -1      2832 1.13455E-04-3.03570E-05-3.55593E-05-1.37729E-05 2.47168E-18-2.92813E-18
 -1      2833 1.15758E-04-2.80699E-05-3.76246E-05-1.42536E-05 3.29956E-18-2.70378E-18
 -1      2834 1.17356E-04-4.01391E-05-3.31444E-05-1.05323E-05 4.12720E-19-3.19612E-18
 -1      2835 1.16375E-04-3.77810E-05-3.37060E-05-1.23551E-05 9.06616E-19-3.25586E-18
 -1      2836 1.19448E-04-3.77291E-05-3.50871E-05-1.37734E-05 1.34469E-18-3.39283E-18
 -1      2837 1.15928E-04-4.13828E-05-3.19228E-05-4.51591E-06 4.74934E-20-3.16827E-18
 -1      2838 1.16256E-04-4.10579E-05-3.22876E-05-7.17907E-06 4.34884E-19-2.95653E-18
 -1      2839 1.19224E-04-4.28862E-05-3.27206E-05-7.98812E-06 2.64665E-19-3.24160E-18
 -1      2840 1.12532E-04-3.94935E-05-3.12473E-05 8.75921E-07-9.10280E-19-2.07733E-18
 -1      2841 1.13667E-04-4.04511E-05-3.14441E-05-1.47088E-06-6.68640E-19-2.77393E-18
 -1      2842 1.15652E-04-4.28101E-05-3.12456E-05-1.31683E-06-4.83796E-19-2.38078E-18
 -1      2843 1.08782E-04-3.65420E-05-3.09098E-05 4.53523E-06-6.27050E-19-1.78412E-18
 -1      2844 1.10161E-04-3.78927E-05-3.10257E-05 2.91769E-06-5.69875E-19-1.63628E-18
 -1      2845 1.10896E-04-3.98424E-05-3.05070E-05 3.66954E-06-8.93385E-19-1.38797E-18
 -1      2846 1.05507E-04-3.37449E-05-3.07183E-05 6.51345E-06-8.02667E-19-1.45860E-18
 -1      2847 1.06819E-04-3.49987E-05-3.08144E-05 5.62663E-06-5.89499E-19-1.77432E-18
 -1      2848 1.06526E-04-3.61840E-05-3.01992E-05 6.62380E-06-8.06849E-19-9.03300E-19
 -1      2849 1.02951E-04-3.15899E-05-3.05604E-05 7.21930E-06-7.15048E-19-1.71263E-18
 -1      2850 1.04074E-04-3.25555E-05-3.06667E-05 6.89783E-06-7.38399E-19-1.81563E-18
 -1      2851 1.03136E-04-3.30304E-05-3.00836E-05 7.92763E-06-4.04576E-19-1.12429E-18
 -1      2852 1.01047E-04-3.01152E-05-3.03869E-05 7.10041E-06-1.53892E-19-1.78039E-18
 -1      2853 1.01967E-04-3.07862E-05-3.05101E-05 7.15741E-06-3.61863E-19-1.71099E-18
 -1      2854 1.00737E-04-3.07497E-05-3.00195E-05 8.12935E-06-4.35239E-19-1.75908E-18
 -1      2855 9.96417E-05-2.91894E-05-3.01884E-05 6.50716E-06-1.22201E-19-1.36545E-18
 -1      2856 1.00387E-04-2.96244E-05-3.03232E-05 6.78562E-06-7.05685E-20-1.51386E-18
 -1      2857 9.91093E-05-2.92796E-05-2.99422E-05 7.67130E-06-3.08386E-19-1.01449E-18
 -1      2858 9.85948E-05-2.86521E-05-2.99739E-05 5.68546E-06-5.39897E-19-5.77589E-19
 -1      2859 9.91979E-05-2.89190E-05-3.01114E-05 6.07095E-06-2.99129E-20-1.30938E-18
 -1      2860 9.80161E-05-2.84246E-05-2.98339E-05 6.86366E-06-3.67603E-19-1.03037E-18
 -1      2861 9.78008E-05-2.83682E-05-2.97574E-05 4.79486E-06-1.04531E-18-1.17380E-18
 -1      2862 9.82887E-05-2.85232E-05-2.98893E-05 5.21176E-06-1.01098E-18-7.65718E-19
 -1      2863 9.72721E-05-2.79867E-05-2.96994E-05 5.91082E-06-8.18482E-19 2.71258E-20
 -1      2864 9.71885E-05-2.82396E-05-2.95510E-05 3.93137E-06-1.40893E-18-1.25793E-18
 -1      2865 9.75822E-05-2.83236E-05-2.96715E-05 4.33405E-06-1.13570E-18-1.18881E-18
 -1      2866 9.67512E-05-2.78093E-05-2.95504E-05 4.94079E-06-9.83721E-19-2.06212E-19
 -1      2867 9.67114E-05-2.82013E-05-2.93631E-05 3.14726E-06-4.91665E-19-1.45646E-18
 -1      2868 9.70269E-05-2.82418E-05-2.94690E-05 3.51116E-06-1.09886E-18-1.93824E-18
 -1      2869 9.63741E-05-2.77830E-05-2.93992E-05 4.02869E-06-1.02771E-18-4.82447E-19
 -1      2870 9.63383E-05-2.82123E-05-2.91984E-05 2.46609E-06 1.90876E-19-1.04137E-18
 -1      2871 9.65887E-05-2.82268E-05-2.92885E-05 2.78050E-06 2.35635E-19-1.47589E-18
 -1      2872 9.60926E-05-2.78369E-05-2.92551E-05 3.21398E-06-5.18651E-19-1.52761E-18
 -1      2873 9.60473E-05-2.82476E-05-2.90584E-05 1.89354E-06-8.38219E-20-2.51089E-19
 -1      2874 9.62435E-05-2.82474E-05-2.91330E-05 2.15629E-06 1.46685E-19 4.53438E-20
 -1      2875 9.58782E-05-2.79274E-05-2.91240E-05 2.51278E-06-5.10950E-19-5.61491E-19
 -1      2876 9.58222E-05-2.82926E-05-2.89423E-05 1.42486E-06 1.19018E-18-6.49331E-19
 -1      2877 9.59737E-05-2.82845E-05-2.90027E-05 1.63868E-06 3.54886E-19-4.39074E-19
 -1      2878 9.57129E-05-2.80294E-05-2.90093E-05 1.92659E-06 3.00391E-19 1.14108E-19
 -1      2879 9.56499E-05-2.83391E-05-2.88484E-05 1.04980E-06 1.14832E-18-6.14685E-20
 -1      2880 9.57651E-05-2.83274E-05-2.88962E-05 1.21988E-06 1.41066E-18-1.64988E-19
 -1      2881 9.55853E-05-2.81287E-05-2.89118E-05 1.44828E-06 3.66907E-19 5.12321E-20
 -1      2882 9.55201E-05-2.83827E-05-2.87738E-05 7.55722E-07 9.38880E-19 2.05530E-19
 -1      2883 9.56060E-05-2.83698E-05-2.88110E-05 8.88256E-07 1.21971E-18 3.54630E-19
 -1      2884 9.54872E-05-2.82186E-05-2.88310E-05 1.06625E-06 8.70754E-19 4.02154E-19
 -1      2885 9.54238E-05-2.84215E-05-2.87158E-05 5.29574E-07-3.69291E-19 2.33122E-19
 -1      2886 9.54867E-05-2.84088E-05-2.87441E-05 6.30838E-07 6.73870E-19 4.23623E-19
 -1      2887 9.54126E-05-2.82962E-05-2.87655E-05 7.67054E-07 5.66486E-19 1.22740E-18
 -1      2888 9.53540E-05-2.84545E-05-2.86715E-05 3.58996E-07-3.13085E-20 1.90870E-19
 -1      2889 9.53989E-05-2.84429E-05-2.86926E-05 4.34855E-07-2.89443E-19 4.28234E-19
 -1      2890 9.53566E-05-2.83610E-05-2.87135E-05 5.37150E-07-3.32596E-19 6.16123E-20
 -1      2891 9.53044E-05-2.84820E-05-2.86384E-05 2.32895E-07 4.65419E-19 1.68423E-19
 -1      2892 9.53356E-05-2.84718E-05-2.86538E-05 2.88554E-07 1.43091E-19-2.14716E-20
 -1      2893 9.53152E-05-2.84136E-05-2.86731E-05 3.63829E-07 1.31337E-19-6.74100E-19
 -1      2894 9.52703E-05-2.85043E-05-2.86142E-05 1.41691E-07 2.72608E-19-4.57443E-19
 -1      2895 9.52913E-05-2.84956E-05-2.86251E-05 1.81605E-07 2.06572E-19-2.43519E-19
 -1      2896 9.52854E-05-2.84555E-05-2.86421E-05 2.35750E-07 3.93977E-19-9.69055E-21
 -1      2897 9.52478E-05-2.85220E-05-2.85968E-05 7.73457E-08 1.49096E-18-8.36783E-19
 -1      2898 9.52611E-05-2.85148E-05-2.86044E-05 1.05223E-07 1.09521E-18-6.88425E-19
 -1      2899 9.52644E-05-2.84881E-05-2.86190E-05 1.43144E-07 6.10731E-19-7.66503E-19
 -1      2900 9.52336E-05-2.85358E-05-2.85848E-05 3.32809E-08 3.56717E-19 2.49700E-19
 -1      2901 9.52415E-05-2.85299E-05-2.85899E-05 5.21326E-08 1.59703E-18 3.55063E-19
 -1      2902 9.52500E-05-2.85131E-05-2.86020E-05 7.78306E-08 8.39399E-19-5.19283E-19
 -1      2903 9.52255E-05-2.85464E-05-2.85768E-05 4.22502E-09-2.17970E-19 9.70414E-19
 -1      2904 9.52296E-05-2.85417E-05-2.85800E-05 1.64478E-08 2.30933E-19 1.15167E-18
 -1      2905 9.52406E-05-2.85318E-05-2.85898E-05 3.31174E-08-2.44383E-19 7.28787E-19
 -1      2906 9.52216E-05-2.85544E-05-2.85716E-05-1.39582E-08-1.79352E-18 8.85849E-20
 -1      2907 9.52231E-05-2.85507E-05-2.85735E-05-6.49764E-09-8.35362E-19 8.27932E-19
 -1      2908 9.52348E-05-2.85456E-05-2.85813E-05 3.64800E-09-7.65054E-19 1.52941E-18
 -1      2909 9.52205E-05-2.85604E-05-2.85686E-05-2.44461E-08-1.97449E-19-8.16113E-19
 -1      2910 9.52203E-05-2.85575E-05-2.85696E-05-2.03253E-08-1.48617E-18-1.07475E-18
 -1      2911 9.52316E-05-2.85555E-05-2.85756E-05-1.47778E-08-8.58038E-19 1.25831E-19
 -1      2912 9.52212E-05-2.85648E-05-2.85671E-05-2.96201E-08 5.63347E-19-1.36533E-18
 -1      2913 9.52200E-05-2.85625E-05-2.85674E-05-2.77834E-08 7.91567E-19-5.45359E-19
 -1      2914 9.52302E-05-2.85626E-05-2.85720E-05-2.53826E-08 1.24742E-19-3.04821E-19
 -1      2915 9.52231E-05-2.85680E-05-2.85664E-05-3.12101E-08 1.13585E-18-2.72741E-18
 -1      2916 9.52213E-05-2.85662E-05-2.85664E-05-3.09013E-08 3.30479E-19-2.59240E-18
 -1      2917 9.52300E-05-2.85674E-05-2.85697E-05-3.05785E-08 1.31963E-18-1.96458E-18
 -1      2918 9.52256E-05-2.85705E-05-2.85664E-05-3.04175E-08 8.15072E-19-1.56014E-18
 -1      2919 9.52235E-05-2.85691E-05-2.85661E-05-3.11228E-08 1.50414E-18-2.52863E-18
 -1      2920 9.52305E-05-2.85708E-05-2.85685E-05-3.21143E-08 6.30897E-19-3.18039E-18
 -1      2921 9.52283E-05-2.85726E-05-2.85667E-05-2.80199E-08-1.16450E-19 1.47049E-18
 -1      2922 9.52261E-05-2.85713E-05-2.85663E-05-2.94186E-08 9.55662E-21-7.08125E-20
 -1      2923 9.52316E-05-2.85733E-05-2.85679E-05-3.12029E-08-7.79542E-19-1.03257E-18
 -1      2924 9.52311E-05-2.85745E-05-2.85671E-05-2.44446E-08-8.25667E-19 3.94253E-18
 -1      2925 9.52291E-05-2.85734E-05-2.85668E-05-2.63727E-08-7.21218E-19 3.06006E-18
 -1      2926 9.52331E-05-2.85753E-05-2.85676E-05-2.86370E-08-1.47081E-18 1.71725E-18
 -1      2927 9.52343E-05-2.85768E-05-2.85675E-05-2.07205E-08-1.59746E-18 4.49492E-18
 -1      2928 9.52324E-05-2.85756E-05-2.85672E-05-2.31196E-08-6.04775E-19 4.45196E-18
 -1      2929 9.52354E-05-2.85775E-05-2.85676E-05-2.54732E-08-2.13952E-18 2.64721E-18
 -1      2930 9.52377E-05-2.85800E-05-2.85676E-05-2.22035E-08-1.63735E-18 2.75044E-18
 -1      2931 9.52534E-05-2.85941E-05-2.85682E-05-1.81899E-09-3.83289E-19 1.19676E-19
 -1      2932 9.52531E-05-2.85938E-05-2.85682E-05-5.18744E-09-1.02362E-18-4.08766E-19
 -1      2933 9.52349E-05-2.85775E-05-2.85675E-05 2.32190E-08-1.80871E-18-2.28798E-18
 -1      2934 9.52359E-05-2.85782E-05-2.85676E-05 2.15418E-08-1.87658E-18-2.39787E-18
 -1      2935 9.52377E-05-2.85793E-05-2.85679E-05 2.50974E-08-1.89764E-18-2.39368E-18
 -1      2936 9.52503E-05-2.85912E-05-2.85681E-05-1.49259E-08-1.43186E-18 5.51573E-19
 -1      2937 9.52487E-05-2.85897E-05-2.85681E-05-1.73264E-08-5.94946E-19 7.05036E-19
 -1      2938 9.52531E-05-2.85938E-05-2.85682E-05 5.30592E-09 1.06608E-18-2.77109E-19
 -1      2939 9.52534E-05-2.85941E-05-2.85682E-05 1.94028E-09-8.77938E-20 1.01329E-18
 -1      2940 9.52551E-05-2.85927E-05-2.85696E-05 6.49789E-11-5.02606E-19 2.37185E-19
 -1      2941 9.52525E-05-2.85933E-05-2.85682E-05-8.78263E-09-1.44560E-18-9.74803E-19
 -1      2942 9.52515E-05-2.85923E-05-2.85682E-05-1.18299E-08-1.21009E-18 7.23698E-19
 -1      2943 9.52522E-05-2.85905E-05-2.85693E-05-1.43807E-08-1.08030E-18 1.66644E-19
 -1      2944 9.52544E-05-2.85922E-05-2.85695E-05-7.49341E-09-9.38981E-19 5.48187E-19
 -1      2945 1.29227E-04-1.07807E-05-5.14821E-05-3.45384E-06 7.45262E-18-1.29270E-18
 -1      2946 1.30111E-04-1.39095E-05-5.03053E-05-9.29846E-06 7.42086E-18-2.61966E-18
 -1      2947 1.36949E-04-5.63229E-05-3.50753E-05 6.58416E-06-8.54762E-19 1.32857E-18
 -1      2948 1.30201E-04-5.88963E-05-3.03799E-05 1.63525E-05 7.13096E-19 4.69256E-19
 -1      2949 9.52515E-05-2.85923E-05-2.85682E-05 1.18297E-08 1.53341E-18-1.06951E-18
 -1      2950 9.52524E-05-2.85933E-05-2.85682E-05 8.83804E-09 1.82722E-18-1.47979E-18
 -1      2951 9.52544E-05-2.85922E-05-2.85695E-05 7.55707E-09 1.42553E-18 2.79456E-20
 -1      2952 9.52487E-05-2.85897E-05-2.85681E-05 1.73282E-08 7.84247E-19 4.00887E-19
 -1      2953 9.52503E-05-2.85912E-05-2.85681E-05 1.49260E-08 9.61115E-19 3.02763E-19
 -1      2954 9.52522E-05-2.85905E-05-2.85693E-05 1.43810E-08 3.02142E-19-1.18842E-18
 -1      2955 9.52446E-05-2.85860E-05-2.85680E-05 2.09982E-08-2.92993E-19-4.79824E-19
 -1      2956 9.52468E-05-2.85881E-05-2.85680E-05 1.95884E-08 5.55171E-19 4.42117E-19
 -1      2957 9.52486E-05-2.85878E-05-2.85690E-05 1.99196E-08-3.54513E-19 1.60392E-19
 -1      2958 1.22617E-04-5.89769E-05-2.71236E-05-2.21315E-05 2.12245E-18-2.18376E-18
 -1      2959 1.32509E-04-5.90016E-05-3.18147E-05-1.30480E-05 5.48083E-19-3.91520E-18
 -1      2960 7.99312E-05-4.23475E-05-1.61443E-05 3.90298E-05-4.12907E-18 2.70468E-18
 -1      2961 5.97212E-05-3.11337E-05-1.16159E-05 3.54920E-05-3.97745E-18 3.80868E-18
 -1      2962 1.26681E-04-1.03516E-05-5.05070E-05 4.63773E-07-7.16209E-18-1.76738E-18
 -1      2963 1.27351E-04-1.32722E-05-4.92932E-05-7.30596E-06-6.77139E-18-1.68348E-19
 -1      2964 1.22569E-04-1.33160E-05-4.73245E-05 4.19501E-06-5.86570E-18-2.68703E-18
 -1      2965 4.53517E-05-2.24372E-05-9.55208E-06 2.92094E-05-3.54896E-18 4.80183E-18
 -1      2966 3.67381E-05-1.66169E-05-8.05227E-06 1.87890E-05-2.95832E-18 6.06645E-18
 -1      2967 3.53618E-05-1.54092E-05-7.97892E-06-1.87733E-05-1.20967E-18-7.85771E-18
 -1      2968 4.43054E-05-2.11832E-05-9.40493E-06-2.95011E-05-1.67300E-18-7.45897E-18
 -1      2969 1.22716E-04-5.85385E-05-2.73746E-05-2.34070E-05-1.46960E-18-7.28025E-19
 -1      2970 1.32029E-04-5.82838E-05-3.19022E-05-1.35678E-05-2.78118E-19 6.59627E-19
 -1      2971 1.20470E-04-5.87496E-05-2.67182E-05 2.69018E-05 1.13354E-18-4.90935E-19
 -1      2972 1.05170E-04-5.32231E-05-2.18836E-05 3.36682E-05 2.01530E-18-1.75219E-18
 -1      2973 1.25493E-04-5.77815E-05-2.88663E-05 1.76677E-05 1.50878E-18 6.50733E-19
 -1      2974 1.06877E-04-3.38943E-05-3.13115E-05-4.78254E-06 9.12113E-19 2.41028E-20
 -1      2975 1.05816E-04-3.24323E-05-3.13875E-05-5.03309E-06 1.11657E-18-1.00768E-19
 -1      2976 1.06674E-04-3.48803E-05-3.08243E-05-5.78096E-06 6.63496E-19-3.43848E-19
 -1      2977 1.15924E-04-4.08066E-05-3.22663E-05 5.98884E-06-6.31404E-20 1.28338E-18
 -1      2978 1.15541E-04-4.09422E-05-3.19360E-05 3.51840E-06 7.96823E-20 1.16859E-18
 -1      2979 1.15507E-04-4.23028E-05-3.14161E-05 4.85506E-07-1.66947E-19 8.42951E-19
 -1      2980 1.18955E-04-4.27750E-05-3.27630E-05 6.75375E-06 2.04876E-20 1.43137E-18
 -1      2981 1.00653E-04-2.57775E-05-3.20540E-05 2.10871E-06-2.16765E-18-1.49721E-18
 -1      2982 1.01357E-04-2.74026E-05-3.17121E-05 3.66363E-06-1.88410E-18-1.35819E-18
 -1      2983 9.96948E-05-2.69018E-05-3.12304E-05 4.86902E-06-1.65862E-18-1.76366E-18
 -1      2984 1.04558E-04-3.09260E-05-3.15757E-05-4.58064E-06 1.63120E-18-2.99713E-19
 -1      2985 1.03817E-04-2.95997E-05-3.17483E-05-3.92153E-06 1.97310E-18-1.79899E-19
 -1      2986 1.01424E-04-2.75815E-05-3.16612E-05-3.67753E-06 2.23419E-18-9.59867E-19
 -1      2987 1.03569E-04-3.10306E-05-3.11234E-05-5.58414E-06 1.41889E-18-6.24405E-19
 -1      2988 1.34505E-04-5.84724E-05-3.29832E-05 1.18692E-05-4.54698E-19-3.12174E-18
 -1      2989 1.23355E-04-5.90800E-05-2.73596E-05 2.21257E-05-2.25215E-18-2.28424E-18
 -1      2990 8.37317E-05-1.15698E-05-3.09193E-05-1.89421E-06 2.05660E-18-3.67198E-18
 -1      2991 8.13233E-05-1.00475E-05-3.05897E-05-2.12613E-06 1.61458E-18-4.07075E-18
 -1      2992 8.06923E-05-1.07169E-05-2.99720E-05-3.02446E-06 1.35908E-18-4.00178E-18
 -1      2993 8.58882E-05-1.43615E-05-3.06487E-05-3.12938E-06 1.91429E-18-3.28541E-18
 -1      2994 8.11091E-05-9.87438E-06-3.05727E-05 2.10964E-06-7.46605E-19-4.59473E-18
 -1      2995 8.34919E-05-1.13722E-05-3.09013E-05 1.90462E-06-1.11084E-18-4.36225E-18
 -1      2996 9.52382E-05-2.85805E-05-2.85676E-05 2.20172E-08-1.91051E-18-2.46037E-18
 -1      2997 1.28582E-04-1.25651E-05-5.02842E-05 6.79536E-06 6.85567E-18 3.75447E-19
 -1      2998 1.28897E-04-1.05142E-05-5.14065E-05 9.58347E-07 7.27220E-18-7.73341E-19
 -1      2999 1.22914E-04-1.17719E-05-4.80527E-05-1.54348E-06 6.62877E-18-7.72554E-19
 -1      3000 1.38194E-04-3.86095E-05-4.27883E-05 1.18644E-05-2.40155E-18-4.25867E-18
 -1      3001 1.34888E-04-2.88742E-05-4.61980E-05 1.33118E-05-4.22066E-18-4.13881E-18
 -1      3002 1.00924E-04-5.13664E-05-2.10242E-05-3.50950E-05-2.64115E-18-3.14440E-18
 -1      3003 1.13879E-04-5.66175E-05-2.45553E-05-3.06567E-05-2.03542E-18-2.01290E-18
 -1      3004 1.20250E-04-5.68874E-05-2.69722E-05-2.25213E-05-2.07809E-18-7.89355E-19
 -1      3005 1.39355E-04-4.71461E-05-3.99775E-05-5.93898E-06 2.50674E-18-4.48515E-18
 -1      3006 1.39150E-04-5.42925E-05-3.63713E-05 1.93105E-06 6.51223E-19-3.92939E-18
 -1      3007 1.34662E-04-5.63997E-05-3.34982E-05 4.10993E-06-7.32975E-19-3.80508E-18
 -1      3008 4.93303E-05-2.41696E-05-1.06474E-05 3.25067E-05 2.12817E-18-6.17932E-18
 -1      3009 3.64322E-05-1.73804E-05-7.38753E-06 2.18631E-05 1.50931E-18-7.39566E-18
 -1      3010 1.37370E-04-4.03372E-05-4.22961E-05-9.82457E-06-3.37320E-18 2.02060E-18
 -1      3011 1.39703E-04-4.94079E-05-3.87127E-05-3.49689E-06-2.15464E-18 1.94934E-18
 -1      3012 8.62536E-05-4.45224E-05-1.79183E-05 3.94796E-05 2.35909E-18-3.52540E-18
 -1      3013 6.96848E-05-3.48664E-05-1.42203E-05 3.75203E-05 2.83322E-18-4.86896E-18
 -1      3014 1.11167E-04-5.66229E-05-2.35309E-05 3.12760E-05-3.41810E-18-5.79794E-19
 -1      3015 9.98768E-05-5.12778E-05-2.02794E-05 3.46341E-05-4.24247E-18 5.97357E-19
 -1      3016 1.30007E-04-2.24863E-05-4.69304E-05-1.20229E-05-5.65214E-18 1.33948E-18
 -1      3017 1.34228E-04-2.99208E-05-4.49110E-05-1.35841E-05-4.45486E-18 1.95707E-18
 -1      3018 3.68419E-05-1.61379E-05-8.24808E-06-1.75773E-05 2.66551E-19 6.09334E-18
 -1      3019 4.69709E-05-2.23675E-05-1.01734E-05-2.89993E-05 1.48580E-18 5.22153E-18
 -1      3020 1.37449E-04-5.59361E-05-3.49822E-05-4.13901E-06-2.79627E-19-4.36042E-18
 -1      3021 1.38813E-04-4.95303E-05-3.89412E-05 3.56741E-06-1.29180E-18-3.88132E-18
 -1      3022 1.32855E-04-5.71305E-05-3.23721E-05-6.34138E-06 5.48083E-19-3.95215E-18
 -1      3023 9.84436E-05-2.20230E-05-3.27607E-05-9.46522E-07-2.77821E-18-2.06557E-18
 -1      3024 9.97074E-05-2.42567E-05-3.23439E-05 8.86858E-07-2.52981E-18-1.74485E-18
 -1      3025 9.77223E-05-2.33579E-05-3.18820E-05 2.17905E-06-2.16864E-18-2.13741E-18
 -1      3026 9.57753E-05-1.99007E-05-3.25306E-05-5.08159E-07-2.53506E-18-2.58120E-18
 -1      3027 8.62649E-05-1.33890E-05-3.12698E-05 1.71489E-06-1.37555E-18-3.98181E-18
 -1      3028 8.90961E-05-1.52586E-05-3.16492E-05 1.14050E-06-1.83307E-18-3.68862E-18
 -1      3029 8.56172E-05-1.41381E-05-3.06274E-05 3.14213E-06-1.02681E-18-3.84950E-18
 -1      3030 7.57055E-05-7.18235E-06-2.93285E-05-6.04352E-08 4.21662E-19-4.59118E-18
 -1      3031 7.56295E-05-6.09195E-06-2.98259E-05 4.21261E-07 3.03999E-19-4.87015E-18
 -1      3032 7.61806E-05-6.42461E-06-2.99019E-05 8.46710E-07 4.86899E-22-4.93166E-18
 -1      3033 3.76819E-05-1.40357E-05-9.47896E-06 1.47817E-05 1.08918E-18-7.33213E-18
 -1      3034 9.83242E-05-2.25642E-05-3.24903E-05-1.68513E-08 3.04670E-18-1.35887E-18
 -1      3035 1.31835E-04-3.51652E-05-4.18332E-05-1.49168E-05 4.19048E-18-4.43739E-18
 -1      3036 1.37266E-04-4.16332E-05-4.12758E-05-1.09695E-05 3.73939E-18-4.63761E-18
 -1      3037 1.34141E-04-4.66038E-05-3.77524E-05-8.07700E-06 1.98788E-18-4.32124E-18
 -1      3038 6.16625E-05-3.21949E-05-1.21293E-05-3.59473E-05 2.37741E-18 4.07148E-18
 -1      3039 7.77244E-05-4.20375E-05-1.52073E-05-3.99546E-05 2.54237E-18 2.51675E-18
 -1      3040 4.08133E-05-1.45974E-05-1.06007E-05 1.22257E-05-2.60145E-18 5.62335E-18
 -1      3041 4.11837E-05-1.43579E-05-1.08873E-05-1.12476E-05-5.82812E-19 5.50995E-18
 -1      3042 9.52486E-05-2.85878E-05-2.85690E-05-1.98953E-08-5.70988E-19 6.07339E-19
 -1      3043 9.52468E-05-2.85881E-05-2.85680E-05-1.95801E-08-6.63183E-19 4.78961E-19
 -1      3044 9.52446E-05-2.85860E-05-2.85680E-05-2.09993E-08-9.03306E-19-6.17697E-19
 -1      3045 1.24666E-04-1.84324E-05-4.59374E-05-9.77354E-06-5.44293E-18 5.64812E-19
 -1      3046 1.20075E-04-5.73590E-05-2.66626E-05 2.17178E-05-3.27188E-18-2.30271E-18
 -1      3047 1.28135E-04-2.51492E-05-4.44581E-05 1.39092E-05-3.90567E-18-4.14903E-18
 -1      3048 9.52426E-05-2.85844E-05-2.85678E-05-2.19591E-08-1.32578E-18-1.70421E-19
 -1      3049 9.52401E-05-2.85820E-05-2.85678E-05-2.21715E-08-1.78714E-18 4.78011E-19
 -1      3050 9.52390E-05-2.85807E-05-2.85679E-05-2.40751E-08-3.09697E-18 6.56034E-19
 -1      3051 9.52441E-05-2.85844E-05-2.85684E-05-2.31491E-08-1.75551E-18 4.07415E-20
 -1      3052 1.35356E-04-5.27996E-05-3.54670E-05-4.53603E-07-6.80851E-19 2.16343E-18
 -1      3053 9.96704E-05-4.83144E-05-2.17066E-05 3.25050E-05 2.74015E-18-2.17719E-18
 -1      3054 1.11684E-04-5.64632E-05-2.38055E-05-3.06779E-05 2.59192E-18-9.12599E-19
 -1      3055 1.19038E-04-5.67336E-05-2.64342E-05-2.14438E-05 2.50118E-18-2.30192E-18
 -1      3056 9.52407E-05-2.85829E-05-2.85676E-05 2.18305E-08-1.66895E-18-1.81580E-18
 -1      3057 5.98599E-05-2.68164E-05-1.35343E-05 3.02045E-05-3.97078E-18 3.67676E-18
 -1      3058 9.08622E-05-4.50403E-05-1.93033E-05 3.41529E-05-4.20393E-18 1.21909E-18
 -1      3059 3.45338E-05-1.28244E-05-8.65880E-06-1.20930E-05-5.60683E-19-7.77746E-18
 -1      3060 4.28829E-05-1.39009E-05-1.19558E-05-1.65499E-05-1.04720E-18-6.97500E-18
 -1      3061 3.49508E-05-1.07818E-05-1.00080E-05-3.84585E-06 6.11121E-20-7.31815E-18
 -1      3062 1.28258E-04-1.96906E-05-4.68849E-05-1.18309E-05 6.33305E-18-2.87393E-18
 -1      3063 5.79709E-05-2.62892E-05-1.30924E-05-3.18185E-05-2.26835E-18-6.70511E-18
 -1      3064 1.36416E-04-3.89367E-05-4.21505E-05 1.16534E-05 2.87674E-18 1.76469E-18
 -1      3065 1.31203E-04-3.38289E-05-4.21193E-05 1.40359E-05 3.11862E-18 2.00556E-18
 -1      3066 1.34262E-04-4.37546E-05-3.88015E-05 9.55753E-06 1.72821E-18 2.22780E-18
 -1      3067 1.29704E-04-5.61679E-05-3.13597E-05-8.69725E-06-1.17404E-18 1.42700E-18
 -1      3068 1.35328E-04-5.65464E-05-3.38291E-05-5.52325E-06-9.01296E-21 1.34604E-18
 -1      3069 1.33706E-04-5.25433E-05-3.54061E-05 2.06012E-06 9.77198E-20 2.00551E-18
 -1      3070 9.77508E-05-2.33703E-05-3.18859E-05-2.04971E-06 2.61680E-18-1.61173E-18
 -1      3071 7.73595E-05-7.30568E-06-3.00613E-05 1.61266E-06-1.70839E-19-4.76108E-18
 -1      3072 7.89663E-05-8.29276E-06-3.02826E-05 1.79170E-06-5.68324E-19-4.67935E-18
 -1      3073 8.04660E-05-1.05371E-05-2.99538E-05 2.96957E-06-5.70175E-19-4.42680E-18
 -1      3074 7.69386E-05-8.05095E-06-2.94908E-05 1.79089E-06-6.39895E-20-4.65565E-18
 -1      3075 1.32341E-04-3.63989E-05-4.13023E-05-1.25206E-05-2.94598E-18 2.26195E-18
 -1      3076 9.37229E-05-4.70625E-05-1.96555E-05-3.65340E-05-2.76006E-18-3.80466E-18
 -1      3077 1.03523E-04-4.97223E-05-2.30483E-05-3.05641E-05-2.78568E-18-2.31867E-18
 -1      3078 8.43560E-05-3.97781E-05-1.86629E-05-3.55475E-05-2.64359E-18-4.31563E-18
 -1      3079 1.35305E-04-4.42760E-05-3.90236E-05 9.73898E-06-1.45197E-18-4.17704E-18
 -1      3080 6.37131E-05-2.80823E-05-1.48000E-05 3.21591E-05 2.48583E-18-5.30370E-18
 -1      3081 6.03213E-05-2.70559E-05-1.37485E-05-3.01686E-05 2.00022E-18 3.90165E-18
 -1      3082 9.62352E-05-5.00710E-05-1.93982E-05-3.55659E-05 2.93084E-18 5.50889E-19
 -1      3083 9.52403E-05-2.85813E-05-2.85681E-05 2.42832E-08-2.25412E-18-3.42436E-18
 -1      3084 9.52429E-05-2.85843E-05-2.85680E-05 2.25182E-08-1.34296E-18-2.75368E-18
 -1      3085 9.52444E-05-2.85842E-05-2.85687E-05 2.35610E-08-9.22199E-19-2.11824E-18
 -1      3086 9.52400E-05-2.85806E-05-2.85683E-05 2.56795E-08-1.88392E-18-3.53359E-18
 -1      3087 9.42968E-05-2.15122E-05-3.11779E-05-3.66199E-06 2.18245E-18-2.23201E-18
 -1      3088 9.11739E-05-1.93586E-05-3.07936E-05-4.18780E-06 1.93856E-18-2.54994E-18
 -1      3089 9.27589E-05-4.58693E-05-1.97236E-05-3.38905E-05 3.26637E-18 4.48583E-19
 -1      3090 4.74642E-05-1.58293E-05-1.33807E-05 1.67147E-05-2.92602E-18 4.83772E-18
 -1      3091 4.25850E-05-1.24870E-05-1.25210E-05 5.25511E-06-2.11317E-18 5.26082E-18
 -1      3092 9.66058E-05-2.41532E-05-3.10233E-05 4.79801E-06-1.49679E-18-2.21263E-18
 -1      3093 9.77348E-05-2.62036E-05-3.06569E-05 6.24949E-06-1.23236E-18-2.05248E-18
 -1      3094 1.27668E-04-5.55549E-05-3.07566E-05-7.01342E-06 1.43762E-18-4.23305E-18
 -1      3095 1.31492E-04-5.42902E-05-3.35165E-05 1.88414E-07 6.83996E-19-3.76533E-18
 -1      3096 1.02787E-04-3.33015E-05-2.96962E-05 9.41092E-06-2.08742E-19-1.11056E-18
 -1      3097 1.05110E-04-3.60936E-05-2.95812E-05 9.38456E-06 7.44165E-20-9.54993E-19
 -1      3098 1.08361E-04-3.92463E-05-2.94980E-05 9.36811E-06 3.07810E-19-4.99154E-19
 -1      3099 1.11390E-04-4.22671E-05-2.96548E-05 8.18131E-06 2.30228E-19-3.63235E-19
 -1      3100 1.04151E-04-3.72521E-05-2.87901E-05 1.19787E-05 3.24131E-19-1.02410E-18
 -1      3101 1.15992E-04-4.56252E-05-3.00289E-05 6.42901E-06 3.77347E-19 3.44881E-19
 -1      3102 1.19031E-04-4.76536E-05-3.06172E-05 3.77935E-06 2.68602E-19 5.97863E-19
 -1      3103 1.11963E-04-4.46411E-05-2.89833E-05 1.11657E-05 5.79344E-19-1.10134E-19
 -1      3104 1.24655E-04-3.08472E-05-4.08418E-05-1.43771E-05-3.37638E-18 1.88899E-18
 -1      3105 1.21747E-04-2.21429E-05-4.28500E-05-1.24889E-05-4.16984E-18 1.30472E-18
 -1      3106 1.18863E-04-1.56845E-05-4.47634E-05-6.78330E-06-5.11894E-18-4.53044E-19
 -1      3107 1.17840E-04-1.29533E-05-4.53596E-05-2.30491E-07-5.60715E-18-1.81808E-18
 -1      3108 1.18630E-04-1.49276E-05-4.47384E-05 7.48117E-06-5.25827E-18-3.03727E-18
 -1      3109 1.20764E-04-2.08684E-05-4.34300E-05 1.27607E-05-4.44803E-18-3.76416E-18
 -1      3110 1.27190E-04-4.63580E-05-3.46482E-05 8.10184E-06 3.11218E-20-3.74582E-18
 -1      3111 1.25781E-04-4.95205E-05-3.26860E-05 3.84485E-06 4.59396E-19-3.57260E-18
 -1      3112 1.22794E-04-4.98788E-05-3.12508E-05-8.12747E-07 1.10251E-18-3.06292E-18
 -1      3113 1.15852E-04-4.66520E-05-2.96798E-05-5.40097E-06 1.25614E-18-2.21892E-18
 -1      3114 1.12686E-04-4.41820E-05-2.92196E-05-7.77639E-06 1.43889E-18-1.95499E-18
 -1      3115 1.08553E-04-4.10463E-05-2.89400E-05-9.13595E-06 8.20399E-19-1.62129E-18
 -1      3116 1.05676E-04-3.83228E-05-2.87740E-05-1.02984E-05 7.30404E-19-1.75767E-18
 -1      3117 1.08428E-04-4.31131E-05-2.81406E-05-1.19585E-05 1.42873E-18-2.09062E-18
 -1      3118 1.02960E-04-3.57583E-05-2.87911E-05-1.04327E-05 1.08370E-18-2.33129E-18
 -1      3119 1.00854E-04-3.35727E-05-2.87832E-05-1.07800E-05 1.28081E-18-2.04767E-18
 -1      3120 1.01670E-04-3.66976E-05-2.79564E-05-1.26797E-05 5.65672E-19-1.85649E-18
 -1      3121 9.92546E-05-3.17803E-05-2.89006E-05-1.03665E-05 1.45321E-18-1.48600E-18
 -1      3122 9.78685E-05-3.02849E-05-2.89400E-05-1.02384E-05 1.33879E-18-1.24879E-18
 -1      3123 9.75097E-05-3.19562E-05-2.81620E-05-1.19690E-05 1.56998E-18-1.52423E-18
 -1      3124 9.70397E-05-2.91828E-05-2.90649E-05-9.62307E-06 7.91230E-19-1.15751E-18
 -1      3125 9.61818E-05-2.82613E-05-2.90997E-05-9.24285E-06 8.90632E-19-1.62348E-18
 -1      3126 9.51963E-05-2.88738E-05-2.84588E-05-1.07020E-05 1.28025E-18-1.21685E-18
 -1      3127 9.58252E-05-2.76667E-05-2.91967E-05-8.57400E-06 6.85800E-19-1.72337E-18
 -1      3128 9.53165E-05-2.71625E-05-2.92085E-05-8.07459E-06 7.04554E-19-2.05237E-18
 -1      3129 9.40832E-05-2.70993E-05-2.87235E-05-9.30166E-06 6.92181E-19-1.49763E-18
 -1      3130 9.52269E-05-2.69069E-05-2.92685E-05-7.42114E-06 9.73092E-19-1.85120E-18
 -1      3131 9.49318E-05-2.66776E-05-2.92559E-05-6.88225E-06 1.07713E-18-2.28689E-18
 -1      3132 9.36782E-05-2.62266E-05-2.89138E-05-7.93038E-06 1.10505E-18-1.12530E-18
 -1      3133 9.49789E-05-2.66304E-05-2.92827E-05-6.27469E-06 1.08879E-18-1.53795E-18
 -1      3134 9.48080E-05-2.65694E-05-2.92512E-05-5.74477E-06 5.10295E-19-4.72364E-19
 -1      3135 9.36566E-05-2.59300E-05-2.90266E-05-6.65355E-06 1.49996E-18-1.52353E-18
 -1      3136 9.49145E-05-2.66394E-05-2.92526E-05-5.19737E-06-2.19625E-19-4.82951E-20
 -1      3137 9.48133E-05-2.66734E-05-2.92094E-05-4.70510E-06-2.78228E-19 1.74885E-19
 -1      3138 9.38194E-05-2.59748E-05-2.90749E-05-5.49710E-06 6.58351E-19-9.32488E-19
 -1      3139 9.49363E-05-2.68009E-05-2.91937E-05-4.22409E-06-1.57518E-19 3.39558E-19
 -1      3140 9.48735E-05-2.68828E-05-2.91451E-05-3.78494E-06 2.78694E-19 1.07011E-18
 -1      3141 9.40521E-05-2.62029E-05-2.90761E-05-4.47200E-06 1.83713E-19 1.45064E-19
 -1      3142 9.49911E-05-2.70312E-05-2.91193E-05-3.37154E-06 8.51609E-20 3.18700E-19
 -1      3143 9.49495E-05-2.71320E-05-2.90702E-05-2.99196E-06-2.20845E-19 3.40478E-19
 -1      3144 9.42930E-05-2.65134E-05-2.90464E-05-3.58132E-06-1.59072E-19 2.50952E-20
 -1      3145 9.50519E-05-2.72798E-05-2.90397E-05-2.64387E-06-9.35151E-19 4.82736E-19
 -1      3146 9.50224E-05-2.73827E-05-2.89932E-05-2.32427E-06-1.07097E-18-1.58779E-19
 -1      3147 9.45123E-05-2.68447E-05-2.89987E-05-2.82235E-06-2.96593E-19-6.71793E-19
 -1      3148 9.51067E-05-2.75185E-05-2.89616E-05-2.03678E-06-1.04355E-18 5.38795E-19
 -1      3149 9.50845E-05-2.76144E-05-2.89197E-05-1.77372E-06-1.10331E-18 2.16865E-19
 -1      3150 9.46982E-05-2.71619E-05-2.89428E-05-2.18773E-06-9.12709E-19-2.05598E-19
 -1      3151 9.51512E-05-2.77330E-05-2.88895E-05-1.54062E-06-9.33194E-19 2.33511E-19
 -1      3152 9.51340E-05-2.78178E-05-2.88530E-05-1.32849E-06 2.46856E-19 2.10110E-19
 -1      3153 9.48484E-05-2.74472E-05-2.88853E-05-1.66677E-06-1.08837E-18 6.10667E-19
 -1      3154 9.51850E-05-2.79177E-05-2.88255E-05-1.14282E-06 3.56293E-19-2.71051E-19
 -1      3155 9.51714E-05-2.79898E-05-2.87947E-05-9.74980E-07-3.81976E-19-4.48327E-20
 -1      3156 9.49658E-05-2.76932E-05-2.88305E-05-1.24666E-06-1.92145E-19-6.93223E-20
 -1      3157 9.52094E-05-2.80718E-05-2.87706E-05-8.29661E-07-2.18410E-19-5.92338E-19
 -1      3158 9.51987E-05-2.81312E-05-2.87451E-05-6.99291E-07-1.51659E-20-1.94710E-19
 -1      3159 9.50547E-05-2.78987E-05-2.87809E-05-9.13764E-07-6.79103E-19-1.30168E-18
 -1      3160 9.52262E-05-2.81969E-05-2.87246E-05-5.87535E-07-1.24284E-18-7.27547E-19
 -1      3161 9.52177E-05-2.82449E-05-2.87041E-05-4.88111E-07-3.25678E-18-1.38933E-18
 -1      3162 9.51204E-05-2.80661E-05-2.87374E-05-6.54518E-07-1.02996E-18-3.68961E-18
 -1      3163 9.52371E-05-2.82965E-05-2.86871E-05-4.03711E-07-3.08420E-18-5.67217E-19
 -1      3164 9.52305E-05-2.83344E-05-2.86709E-05-3.29309E-07-1.68210E-18-9.70544E-19
 -1      3165 9.51677E-05-2.81995E-05-2.87006E-05-4.56157E-07-2.39212E-18-1.70834E-18
 -1      3166 9.52437E-05-2.83741E-05-2.86571E-05-2.66784E-07-1.66900E-18-7.80006E-19
 -1      3167 9.52387E-05-2.84035E-05-2.86444E-05-2.12223E-07-1.39690E-18-1.11207E-18
 -1      3168 9.52006E-05-2.83038E-05-2.86701E-05-3.07142E-07-1.70748E-18-2.28969E-19
 -1      3169 9.52473E-05-2.84335E-05-2.86335E-05-1.66870E-07-7.01965E-19-7.86766E-19
 -1      3170 9.52434E-05-2.84558E-05-2.86238E-05-1.27751E-07-4.88658E-20-6.84060E-19
 -1      3171 9.52228E-05-2.83837E-05-2.86454E-05-1.97375E-07-1.06259E-18 3.17053E-22
 -1      3172 9.52487E-05-2.84780E-05-2.86153E-05-9.56359E-08-4.53482E-19-1.46903E-18
 -1      3173 9.52459E-05-2.84946E-05-2.86081E-05-6.83132E-08-7.50157E-19-1.85571E-18
 -1      3174 9.52370E-05-2.84438E-05-2.86258E-05-1.18261E-07-7.04608E-19 3.97358E-19
 -1      3175 9.52488E-05-2.85107E-05-2.86015E-05-4.62149E-08 9.78463E-20-1.66791E-18
 -1      3176 9.52467E-05-2.85228E-05-2.85962E-05-2.77345E-08 8.00093E-19-1.40344E-18
 -1      3177 9.52454E-05-2.84881E-05-2.86104E-05-6.26548E-08-3.15649E-19-1.12699E-21
 -1      3178 9.52480E-05-2.85342E-05-2.85913E-05-1.30707E-08 9.26127E-19-1.30280E-18
 -1      3179 9.52466E-05-2.85428E-05-2.85875E-05-1.08773E-09 1.29934E-18-1.55840E-18
 -1      3180 9.52499E-05-2.85199E-05-2.85987E-05-2.47443E-08 9.93122E-19-8.38179E-19
 -1      3181 9.52468E-05-2.85506E-05-2.85838E-05 8.17057E-09 1.50032E-18-1.76551E-18
 -1      3182 9.52458E-05-2.85566E-05-2.85812E-05 1.54788E-08 9.39071E-19-1.61322E-18
 -1      3183 9.52516E-05-2.85423E-05-2.85898E-05 1.02868E-10 1.40405E-18-5.03714E-19
 -1      3184 9.52454E-05-2.85618E-05-2.85785E-05 2.08928E-08 5.38040E-19-1.35143E-18
 -1      3185 9.52448E-05-2.85659E-05-2.85767E-05 2.49112E-08 4.08561E-19-1.34545E-18
 -1      3186 9.52515E-05-2.85575E-05-2.85832E-05 1.55032E-08 1.44823E-18-1.75149E-18
 -1      3187 9.52439E-05-2.85692E-05-2.85748E-05 2.76543E-08-2.92196E-19-1.25252E-18
 -1      3188 9.52436E-05-2.85719E-05-2.85736E-05 2.94076E-08 4.44789E-19-1.33251E-18
 -1      3189 9.52504E-05-2.85676E-05-2.85784E-05 2.42194E-08 3.50798E-19-1.13609E-18
 -1      3190 9.52426E-05-2.85739E-05-2.85722E-05 3.03359E-08 2.44153E-19-2.29914E-18
 -1      3191 9.52425E-05-2.85757E-05-2.85715E-05 3.05543E-08-2.39322E-19-3.66227E-18
 -1      3192 9.52487E-05-2.85740E-05-2.85750E-05 2.83106E-08-2.57536E-19-2.77204E-18
 -1      3193 9.52415E-05-2.85770E-05-2.85705E-05 3.02706E-08-2.35321E-19-2.73225E-18
 -1      3194 9.52416E-05-2.85783E-05-2.85700E-05 2.94426E-08-3.58381E-19-1.77895E-18
 -1      3195 9.52469E-05-2.85780E-05-2.85724E-05 2.92559E-08 1.44777E-19-3.06454E-18
 -1      3196 9.52405E-05-2.85789E-05-2.85692E-05 2.86018E-08-1.54255E-18-1.46063E-18
 -1      3197 9.52407E-05-2.85800E-05-2.85689E-05 2.70286E-08-1.72590E-18-1.92021E-18
 -1      3198 9.52432E-05-2.85819E-05-2.85692E-05 2.62766E-08-2.30228E-18-2.77518E-18
 -1      3199 9.52449E-05-2.85804E-05-2.85706E-05 2.83281E-08-5.54385E-19-1.93459E-18
 -1      3200 4.28948E-05-1.23217E-05-1.26537E-05-4.09729E-06-1.00892E-18 5.34605E-18
 -1      3201 4.80492E-05-1.53055E-05-1.38029E-05-1.47887E-05-4.95872E-19 4.72242E-18
 -1      3202 4.94965E-05-1.31868E-05-1.51194E-05 7.83516E-07-1.52581E-18 4.56095E-18
 -1      3203 1.20763E-04-2.39148E-05-4.18225E-05 1.28376E-05 4.31786E-18 1.53165E-18
 -1      3204 1.23276E-04-3.07383E-05-4.00577E-05 1.38079E-05 3.07237E-18 1.66143E-18
 -1      3205 1.26102E-04-4.36482E-05-3.54101E-05 8.67329E-06 8.52817E-19 1.80916E-18
 -1      3206 1.25957E-04-4.72854E-05-3.37748E-05 5.89330E-06-4.93397E-20 1.80945E-18
 -1      3207 1.16984E-04-1.74956E-05-4.32056E-05-9.28762E-06 5.46866E-18-1.42039E-18
 -1      3208 1.15675E-04-1.45163E-05-4.37760E-05-3.67371E-06 5.93092E-18-7.38269E-19
 -1      3209 1.24274E-04-3.14774E-05-4.01686E-05-1.51157E-05 3.71802E-18-3.39036E-18
 -1      3210 1.21473E-04-2.42352E-05-4.19695E-05-1.39564E-05 4.86483E-18-2.92875E-18
 -1      3211 1.21087E-04-4.66473E-05-3.18343E-05-3.28274E-06-5.10736E-19-2.77358E-18
 -1      3212 1.22422E-04-4.57530E-05-3.29163E-05-6.72624E-06 4.67853E-21-3.14739E-18
 -1      3213 1.14969E-04-4.41040E-05-3.02592E-05 3.31004E-06-1.48554E-18-1.26242E-18
 -1      3214 1.17257E-04-4.55625E-05-3.08003E-05 4.93397E-07-7.58253E-19-1.96782E-18
 -1      3215 1.19755E-04-4.83108E-05-3.07784E-05 1.52766E-06-1.23701E-18-1.95139E-18
 -1      3216 1.08694E-04-3.93742E-05-2.96171E-05 7.27542E-06-1.25956E-18-1.17104E-18
 -1      3217 1.11152E-04-4.15906E-05-2.98424E-05 5.59182E-06-1.34932E-18-1.13332E-18
 -1      3218 1.12173E-04-4.40630E-05-2.93269E-05 7.32167E-06-1.46746E-18-7.35350E-19
 -1      3219 1.03825E-04-3.49832E-05-2.94435E-05 8.99863E-06-9.25443E-19-4.28249E-19
 -1      3220 1.05850E-04-3.70158E-05-2.95143E-05 8.16576E-06-9.86509E-19-7.32122E-19
 -1      3221 1.05373E-04-3.84596E-05-2.87992E-05 1.00261E-05-1.37128E-18-8.12350E-19
 -1      3222 1.00472E-04-3.16551E-05-2.94587E-05 9.30787E-06-3.63108E-19-3.71200E-19
 -1      3223 1.01943E-04-3.31615E-05-2.94749E-05 9.08725E-06-5.71884E-19-1.45201E-19
 -1      3224 1.00744E-04-3.37460E-05-2.87805E-05 1.06286E-05-9.07923E-19 8.37107E-22
 -1      3225 9.83476E-05-2.94560E-05-2.95086E-05 8.83357E-06-5.07981E-19-2.36838E-19
 -1      3226 9.93545E-05-3.04498E-05-2.95220E-05 8.99100E-06-1.27417E-19 3.50210E-20
 -1      3227 9.78288E-05-3.04276E-05-2.89255E-05 1.01507E-05-4.47124E-19 1.11975E-18
 -1      3228 9.70705E-05-2.81558E-05-2.95293E-05 7.96122E-06-8.80417E-19 6.47087E-19
 -1      3229 9.77425E-05-2.87484E-05-2.95589E-05 8.33039E-06-7.08703E-19-2.68834E-20
 -1      3230 9.61698E-05-2.83625E-05-2.90816E-05 9.19217E-06-8.26625E-19 1.81976E-18
 -1      3231 9.63298E-05-2.74854E-05-2.95053E-05 6.92164E-06-4.35853E-19 1.26283E-18
 -1      3232 9.67796E-05-2.77994E-05-2.95529E-05 7.39041E-06-5.80802E-19 1.05234E-18
 -1      3233 9.53129E-05-2.72260E-05-2.91903E-05 8.04759E-06-9.84284E-19 2.50859E-18
 -1      3234 9.59086E-05-2.72180E-05-2.94424E-05 5.85241E-06-1.08227E-18 1.28802E-18
 -1      3235 9.62167E-05-2.73538E-05-2.95030E-05 6.34855E-06-8.24238E-19 1.33195E-18
 -1      3236 9.49305E-05-2.67139E-05-2.92398E-05 6.86960E-06-7.46523E-19 2.94837E-18
 -1      3237 9.56695E-05-2.71893E-05-2.93535E-05 4.83394E-06-9.75557E-19 5.11588E-19
 -1      3238 9.58879E-05-2.72189E-05-2.94205E-05 5.31309E-06-5.33852E-19 7.51328E-19
 -1      3239 9.48073E-05-2.65878E-05-2.92380E-05 5.74068E-06-4.92410E-19 2.08764E-18
 -1      3240 9.55311E-05-2.72892E-05-2.92515E-05 3.91060E-06-4.36469E-19-2.48362E-19
 -1      3241 9.56913E-05-2.72605E-05-2.93192E-05 4.34757E-06-4.38105E-19 4.73566E-19
 -1      3242 9.48130E-05-2.66812E-05-2.91992E-05 4.70589E-06-2.32734E-19 9.97543E-19
 -1      3243 9.54473E-05-2.74486E-05-2.91470E-05 3.10322E-06-1.03397E-18-2.36900E-19
 -1      3244 9.55682E-05-2.73916E-05-2.92110E-05 3.48586E-06-1.05519E-18-7.58454E-19
 -1      3245 9.48737E-05-2.68848E-05-2.91376E-05 3.78821E-06-2.91754E-19 4.31505E-19
 -1      3246 9.53932E-05-2.76263E-05-2.90470E-05 2.41724E-06-6.23563E-19-1.05216E-19
 -1      3247 9.54861E-05-2.75591E-05-2.91049E-05 2.74197E-06-8.06243E-19-4.15550E-19
 -1      3248 9.49503E-05-2.71311E-05-2.90649E-05 2.99620E-06-8.34791E-19 9.45641E-19
 -1      3249 9.53557E-05-2.77993E-05-2.89561E-05 1.84836E-06 1.00366E-20 7.82338E-20
 -1      3250 9.54275E-05-2.77320E-05-2.90066E-05 2.11693E-06 3.98790E-20-7.35804E-20
 -1      3251 9.50238E-05-2.73807E-05-2.89897E-05 2.32858E-06-3.62622E-19-1.43196E-19
 -1      3252 9.53280E-05-2.79558E-05-2.88765E-05 1.38656E-06 1.59341E-20 9.04932E-19
 -1      3253 9.53835E-05-2.78939E-05-2.89193E-05 1.60380E-06-1.59577E-20 2.09660E-19
 -1      3254 9.50864E-05-2.76123E-05-2.89174E-05 1.77762E-06-4.01844E-19 2.15709E-19
 -1      3255 9.53067E-05-2.80911E-05-2.88089E-05 1.01897E-06 1.79713E-19 9.27487E-19
 -1      3256 9.53493E-05-2.80369E-05-2.88442E-05 1.19117E-06 1.90951E-19 6.50486E-19
 -1      3257 9.51361E-05-2.78159E-05-2.88516E-05 1.33176E-06 8.63768E-21-2.06198E-19
 -1      3258 9.52900E-05-2.82041E-05-2.87528E-05 7.31774E-07 2.28177E-19 1.21506E-18
 -1      3259 9.53223E-05-2.81583E-05-2.87813E-05 8.65700E-07 6.85395E-19 1.02057E-18
 -1      3260 9.51737E-05-2.79884E-05-2.87939E-05 9.77583E-07-2.92081E-20 6.94285E-19
 -1      3261 9.52767E-05-2.82960E-05-2.87073E-05 5.11484E-07 3.49176E-19-3.28623E-19
 -1      3262 9.53009E-05-2.82584E-05-2.87299E-05 6.13702E-07 4.39521E-19 6.98227E-19
 -1      3263 9.52009E-05-2.81303E-05-2.87448E-05 7.01263E-07 6.92895E-19 2.36096E-19
 -1      3264 9.52663E-05-2.83692E-05-2.86711E-05 3.45650E-07 1.75195E-19-5.75743E-19
 -1      3265 9.52840E-05-2.83390E-05-2.86887E-05 4.22184E-07 1.52059E-19-7.74733E-19
 -1      3266 9.52199E-05-2.82444E-05-2.87041E-05 4.89536E-07 6.25235E-19 1.13809E-19
 -1      3267 9.52582E-05-2.84263E-05-2.86430E-05 2.23262E-07 1.20348E-19-5.83144E-19
 -1      3268 9.52709E-05-2.84025E-05-2.86563E-05 2.79406E-07 2.45080E-19-5.72746E-19
 -1      3269 9.52325E-05-2.83342E-05-2.86710E-05 3.30288E-07 2.30519E-19-7.79189E-19
 -1      3270 9.52520E-05-2.84699E-05-2.86214E-05 1.34884E-07-3.38423E-20-1.34257E-20
 -1      3271 9.52609E-05-2.84516E-05-2.86314E-05 1.75148E-07-2.72230E-19-6.37115E-19
 -1      3272 9.52404E-05-2.84035E-05-2.86446E-05 2.12852E-07 1.33274E-19-4.92643E-19
 -1      3273 9.52473E-05-2.85026E-05-2.86052E-05 7.26367E-08-2.13659E-20 1.03190E-18
 -1      3274 9.52533E-05-2.84888E-05-2.86125E-05 1.00764E-07 3.54614E-19 5.88707E-19
 -1      3275 9.52449E-05-2.84560E-05-2.86241E-05 1.28115E-07-3.58820E-19 1.24691E-19
 -1      3276 9.52439E-05-2.85267E-05-2.85933E-05 3.00924E-08-9.64752E-19 1.50884E-18
 -1      3277 9.52477E-05-2.85164E-05-2.85985E-05 4.91200E-08-2.99765E-19 1.41797E-18
 -1      3278 9.52471E-05-2.84949E-05-2.86083E-05 6.84842E-08-8.24170E-19 2.19267E-18
 -1      3279 9.52414E-05-2.85440E-05-2.85847E-05 2.11300E-09-7.46476E-19 1.24729E-18
 -1      3280 9.52437E-05-2.85365E-05-2.85884E-05 1.44540E-08-8.87314E-19 1.07390E-18
 -1      3281 9.52477E-05-2.85231E-05-2.85964E-05 2.77699E-08-9.18497E-19 1.93192E-18
 -1      3282 9.52396E-05-2.85561E-05-2.85787E-05-1.53230E-08-5.29728E-19-4.91002E-19
 -1      3283 9.52408E-05-2.85507E-05-2.85812E-05-7.79134E-09-2.72129E-19 5.37680E-19
 -1      3284 9.52474E-05-2.85431E-05-2.85877E-05 1.03246E-09 3.64964E-20 1.92638E-19
 -1      3285 9.52385E-05-2.85644E-05-2.85746E-05-2.52960E-08 1.27626E-18-1.38561E-18
 -1      3286 9.52389E-05-2.85606E-05-2.85762E-05-2.11458E-08 2.48070E-19-8.15133E-19
 -1      3287 9.52464E-05-2.85569E-05-2.85813E-05-1.55907E-08 4.89858E-19-1.46033E-18
 -1      3288 9.52378E-05-2.85699E-05-2.85720E-05-3.01067E-08 1.09751E-18-1.55786E-18
 -1      3289 9.52377E-05-2.85673E-05-2.85729E-05-2.82811E-08 1.64345E-18-1.21898E-18
 -1      3290 9.52452E-05-2.85661E-05-2.85768E-05-2.50541E-08 1.26121E-18-2.44597E-18
 -1      3291 9.52374E-05-2.85735E-05-2.85702E-05-3.14194E-08 1.50989E-19-1.02332E-18
 -1      3292 9.52370E-05-2.85717E-05-2.85708E-05-3.11639E-08 1.02872E-18-1.21978E-18
 -1      3293 9.52439E-05-2.85721E-05-2.85737E-05-2.95626E-08 6.97049E-19-1.52033E-19
 -1      3294 9.52374E-05-2.85761E-05-2.85691E-05-3.03847E-08-1.69316E-18-7.66179E-19
 -1      3295 9.52368E-05-2.85747E-05-2.85694E-05-3.11856E-08-1.34950E-18-1.09496E-18
 -1      3296 9.52427E-05-2.85760E-05-2.85715E-05-3.07044E-08-4.25200E-19-4.04274E-19
 -1      3297 9.52377E-05-2.85780E-05-2.85684E-05-2.77510E-08-2.25354E-18-9.53834E-21
 -1      3298 9.52369E-05-2.85769E-05-2.85686E-05-2.92777E-08-1.99992E-18-9.76813E-19
 -1      3299 9.52417E-05-2.85785E-05-2.85700E-05-2.95877E-08-1.92965E-18-1.41014E-18
 -1      3300 9.52389E-05-2.85799E-05-2.85682E-05-2.51980E-08-2.97747E-18 8.97886E-19
 -1      3301 9.52377E-05-2.85787E-05-2.85682E-05-2.67627E-08-2.44894E-18 3.43532E-19
 -1      3302 9.52415E-05-2.85804E-05-2.85691E-05-2.74556E-08-2.77288E-18-9.13638E-19
 -1      3303 9.52417E-05-2.85819E-05-2.85685E-05-2.52082E-08-3.12057E-18-9.28331E-19
 -1      3304 7.72669E-05-9.63249E-06-2.89757E-05-3.08514E-06 9.04806E-19-4.29582E-18
 -1      3305 7.58093E-05-8.70489E-06-2.87991E-05-2.23057E-06 5.89709E-19-4.36199E-18
 -1      3306 1.15401E-04-1.44506E-05-4.37081E-05 2.00782E-06 5.76681E-18 1.84044E-19
 -1      3307 9.52573E-05-2.85915E-05-2.85711E-05 1.99425E-09-2.43349E-19 1.33745E-18
 -1      3308 9.52573E-05-2.85915E-05-2.85711E-05-1.85939E-09-7.17416E-19 3.81448E-20
 -1      3309 1.24634E-04-2.79878E-05-4.16107E-05 1.50448E-05-3.46024E-18-4.28712E-18
 -1      3310 9.52561E-05-2.85907E-05-2.85709E-05 9.67815E-09 1.15133E-18-4.07688E-19
 -1      3311 9.52569E-05-2.85912E-05-2.85710E-05 6.05380E-09 4.07761E-19 1.96779E-18
 -1      3312 9.52591E-05-2.85900E-05-2.85724E-05 4.16136E-09 2.80029E-19 1.81956E-18
 -1      3313 1.24619E-04-5.71617E-05-2.90706E-05 1.38761E-05-2.58835E-18-2.94352E-18
 -1      3314 1.14316E-04-5.40617E-05-2.57144E-05 2.18770E-05-3.44989E-18-1.88709E-18
 -1      3315 1.26331E-04-5.60610E-05-3.04452E-05 1.12373E-05 1.07764E-18 1.20480E-18
 -1      3316 1.19341E-04-5.46962E-05-2.74114E-05 1.90602E-05 1.90050E-18 4.42998E-19
 -1      3317 9.92988E-05-4.71179E-05-2.23764E-05 2.93773E-05-3.89077E-18-2.50484E-19
 -1      3318 8.34376E-05-3.82727E-05-1.89251E-05 3.23873E-05-3.89074E-18 1.71106E-18
 -1      3319 9.52487E-05-2.85860E-05-2.85698E-05 2.21168E-08-1.20380E-18-1.56743E-18
 -1      3320 9.52512E-05-2.85876E-05-2.85700E-05 1.97918E-08 2.16316E-19-5.51493E-19
 -1      3321 9.52532E-05-2.85889E-05-2.85705E-05 1.66602E-08 4.18098E-19-1.15422E-18
 -1      3322 9.52549E-05-2.85900E-05-2.85706E-05 1.34729E-08 8.83297E-19-1.64845E-18
 -1      3323 9.52573E-05-2.85891E-05-2.85721E-05 1.20978E-08 6.40825E-19-8.28420E-19
 -1      3324 9.52536E-05-2.85871E-05-2.85714E-05 1.91176E-08 8.27215E-19-8.34625E-19
 -1      3325 1.16674E-04-1.71912E-05-4.31376E-05 7.54400E-06 5.37135E-18 8.36604E-19
 -1      3326 4.48976E-05-1.42853E-05-1.28234E-05 1.72239E-05 1.63618E-18-6.43978E-18
 -1      3327 3.74647E-05-1.08180E-05-1.07553E-05 7.08560E-06 8.79538E-19-7.33382E-18
 -1      3328 4.27050E-05-1.09328E-05-1.30612E-05 6.87766E-07 3.47237E-19-6.77023E-18
 -1      3329 1.11188E-04-4.06974E-05-3.02534E-05-5.81150E-06-1.65641E-19-2.58707E-19
 -1      3330 1.08756E-04-3.82125E-05-3.01437E-05-7.17615E-06-7.33577E-20-4.04253E-19
 -1      3331 1.14332E-04-5.35095E-05-2.57399E-05-2.16003E-05 3.14617E-18-2.30025E-18
 -1      3332 1.22938E-04-5.67142E-05-2.86058E-05-1.49228E-05 2.09249E-18-3.77653E-18
 -1      3333 1.23366E-04-5.40361E-05-2.97774E-05-8.52697E-06 1.99036E-18-3.81857E-18
 -1      3334 1.05969E-04-3.54626E-05-3.02175E-05-7.38395E-06 3.28425E-19-6.44798E-19
 -1      3335 1.04055E-04-3.31420E-05-3.03238E-05-7.58047E-06 6.72840E-19-6.80647E-19
 -1      3336 1.05371E-04-3.65837E-05-2.95625E-05-9.41334E-06 3.29830E-20-7.64500E-19
 -1      3337 9.11453E-05-1.66550E-05-3.19533E-05 6.49199E-07-2.02160E-18-3.43496E-18
 -1      3338 9.37194E-05-1.85121E-05-3.22501E-05 9.61496E-08-2.32772E-18-2.95792E-18
 -1      3339 9.47926E-05-2.03234E-05-3.18962E-05 1.43949E-06-2.16432E-18-2.77467E-18
 -1      3340 9.06111E-05-1.75382E-05-3.13062E-05 2.45754E-06-1.61506E-18-3.32508E-18
 -1      3341 9.90955E-05-2.83728E-05-3.02588E-05 7.68160E-06-9.21174E-19-1.54120E-18
 -1      3342 1.00690E-04-3.06994E-05-2.99930E-05 8.50033E-06-5.09527E-19-1.38321E-18
 -1      3343 9.89762E-05-3.09091E-05-2.92569E-05 1.05194E-05-2.78845E-19-1.42595E-18
 -1      3344 6.91942E-05-3.03341E-05-1.66559E-05 3.15580E-05-3.55214E-18 2.64486E-18
 -1      3345 5.75036E-05-2.18911E-05-1.48046E-05 2.50850E-05-3.38472E-18 3.95459E-18
 -1      3346 1.26601E-04-1.83850E-05-4.67929E-05 9.65382E-06 5.70688E-18 9.60165E-19
 -1      3347 1.15366E-04-5.36387E-05-2.61060E-05-2.30523E-05-2.62022E-18-8.41567E-19
 -1      3348 1.21781E-04-5.58414E-05-2.84757E-05-1.74946E-05-1.95969E-18 4.03750E-19
 -1      3349 1.32106E-04-4.89571E-05-3.61542E-05-6.24331E-06-1.02344E-18 2.13873E-18
 -1      3350 1.31223E-04-5.35554E-05-3.30954E-05 1.38960E-06 2.98447E-19 2.00053E-18
 -1      3351 1.08004E-04-5.07066E-05-2.46802E-05 2.71857E-05 2.38953E-18-7.47295E-19
 -1      3352 9.24091E-05-4.17098E-05-2.14252E-05 3.10219E-05 2.86623E-18-2.43098E-18
 -1      3353 1.11934E-04-4.99272E-05-2.65734E-05 2.02657E-05 2.05533E-18-3.80133E-19
 -1      3354 5.86611E-05-2.22597E-05-1.52376E-05-2.50636E-05 9.24934E-19 3.19406E-18
 -1      3355 7.14412E-05-3.16733E-05-1.69314E-05-3.21304E-05 2.42273E-18 1.76045E-18
 -1      3356 5.56010E-05-2.09997E-05-1.43725E-05-2.66370E-05-1.69745E-18-6.37668E-18
 -1      3357 6.85207E-05-3.02057E-05-1.61796E-05-3.39612E-05-2.24236E-18-5.75728E-18
 -1      3358 7.40062E-05-3.09585E-05-1.83021E-05 3.15097E-05 2.79854E-18-3.91605E-18
 -1      3359 5.80798E-05-2.10364E-05-1.53576E-05 2.62869E-05 2.11380E-18-5.27045E-18
 -1      3360 9.94800E-05-2.59650E-05-3.14828E-05-3.80403E-06 2.10179E-18-1.36868E-18
 -1      3361 9.65780E-05-2.34326E-05-3.13527E-05-3.65169E-06 2.17952E-18-1.84021E-18
 -1      3362 9.59679E-05-2.42518E-05-3.07509E-05-5.48393E-06 1.70847E-18-1.90922E-18
 -1      3363 1.00404E-04-2.77644E-05-3.11497E-05-5.18216E-06 1.78466E-18-1.24968E-18
 -1      3364 8.55697E-05-3.95078E-05-1.92701E-05-3.21333E-05 3.30099E-18 2.26581E-19
 -1      3365 1.00314E-04-4.79598E-05-2.26934E-05-2.92165E-05 3.58062E-18-1.05379E-18
 -1      3366 8.22793E-05-3.45890E-05-2.01007E-05-2.82115E-05 2.77337E-18 1.43599E-19
 -1      3367 1.28875E-04-3.84461E-05-3.87292E-05-1.29706E-05-2.29191E-18 2.37360E-18
 -1      3368 1.27293E-04-3.68059E-05-3.93972E-05 1.50423E-05-2.13881E-18-4.21433E-18
 -1      3369 1.26709E-04-4.22508E-05-3.62973E-05-1.03880E-05-1.40022E-18 1.81564E-18
 -1      3370 1.30202E-04-4.49993E-05-3.64815E-05 1.00483E-05-7.87688E-19-4.30272E-18
 -1      3371 7.49760E-05-8.06043E-06-2.86930E-05-6.18821E-07 5.18466E-19-4.36617E-18
 -1      3372 7.49404E-05-8.03484E-06-2.86902E-05 4.52833E-07 2.68256E-19-4.47335E-18
 -1      3373 7.50826E-05-9.34632E-06-2.81209E-05-1.84305E-06 4.88240E-19-4.21882E-18
 -1      3374 1.29638E-04-4.49046E-05-3.65797E-05-1.04504E-05 1.36068E-18-4.00959E-18
 -1      3375 1.32770E-04-5.07014E-05-3.53906E-05-5.39775E-06 4.27752E-19-3.99903E-18
 -1      3376 5.79842E-05-1.91213E-05-1.62563E-05 1.89927E-05-2.87314E-18 4.31505E-18
 -1      3377 9.56756E-05-2.57596E-05-3.00149E-05 7.82678E-06-8.19099E-19-1.84470E-18
 -1      3378 1.23188E-04-5.02720E-05-3.13175E-05 3.31271E-06 3.95081E-19 1.21078E-18
 -1      3379 1.24820E-04-4.88313E-05-3.26380E-05-2.45466E-06-4.60905E-20 1.27881E-18
 -1      3380 9.52512E-05-2.85876E-05-2.85701E-05-1.97827E-08-1.83665E-18 1.08361E-18
 -1      3381 9.52487E-05-2.85860E-05-2.85698E-05-2.20916E-08-1.76611E-18 1.08229E-18
 -1      3382 1.26646E-04-4.67651E-05-3.42403E-05-7.15570E-06-6.62300E-19 1.69264E-18
 -1      3383 1.08006E-04-5.02785E-05-2.45749E-05 2.42750E-05-3.62072E-18-1.39067E-18
 -1      3384 9.98133E-05-4.38352E-05-2.38547E-05 2.44905E-05-3.15908E-18-6.08276E-19
 -1      3385 1.13060E-04-5.04540E-05-2.68455E-05 1.71260E-05-2.96155E-18-1.65412E-18
 -1      3386 1.19588E-04-5.02164E-05-2.97802E-05-6.61852E-06 1.56491E-18-2.82720E-18
 -1      3387 5.70075E-05-1.62047E-05-1.72653E-05-1.35580E-05-1.72901E-19 3.41137E-18
 -1      3388 5.68815E-05-1.88095E-05-1.59344E-05-1.96768E-05 3.79021E-19 3.36939E-18
 -1      3389 6.61111E-05-2.29658E-05-1.85622E-05-2.21824E-05 1.35503E-18 1.40613E-18
 -1      3390 8.46116E-05-1.48462E-05-2.99426E-05 4.78761E-06-6.74854E-19-3.85990E-18
 -1      3391 8.76843E-05-1.68749E-05-3.03261E-05 4.61571E-06-9.77316E-19-3.49309E-18
 -1      3392 1.17275E-04-4.49304E-05-3.10570E-05-1.26403E-06-6.51986E-19 6.66810E-19
 -1      3393 1.14959E-04-4.32802E-05-3.05688E-05-3.82918E-06-4.62047E-19 3.21879E-19
 -1      3394 1.12417E-04-4.32593E-05-2.97268E-05-8.15786E-06-5.81673E-19-1.58839E-19
 -1      3395 9.52591E-05-2.85900E-05-2.85724E-05-4.09336E-09-4.06135E-19-1.28626E-18
 -1      3396 9.52569E-05-2.85912E-05-2.85710E-05-5.98816E-09-6.07696E-19-1.52913E-18
 -1      3397 9.52561E-05-2.85907E-05-2.85709E-05-9.67681E-09 4.42707E-19-1.60450E-18
 -1      3398 1.25935E-04-4.90592E-05-3.31555E-05-4.82198E-06-3.31825E-19-3.22348E-18
 -1      3399 1.24555E-04-4.50582E-05-3.40970E-05-9.75343E-06 1.52810E-19-3.67017E-18
 -1      3400 1.23918E-04-4.10237E-05-3.56465E-05-1.21910E-05 1.17052E-18-3.56421E-18
 -1      3401 7.94438E-05-1.12847E-05-2.92597E-05-4.14748E-06 9.99195E-19-4.01856E-18
 -1      3402 7.83368E-05-1.16884E-05-2.85329E-05-4.69723E-06 8.30474E-19-3.94396E-18
 -1      3403 8.19499E-05-1.28974E-05-2.95706E-05-4.48912E-06 1.31031E-18-3.59710E-18
 -1      3404 9.52549E-05-2.85900E-05-2.85706E-05-1.34684E-08-4.19371E-19 1.25378E-18
 -1      3405 9.52532E-05-2.85889E-05-2.85705E-05-1.66544E-08-1.09432E-18 1.71980E-18
 -1      3406 9.52537E-05-2.85872E-05-2.85714E-05-1.90950E-08-1.79860E-18 1.75014E-18
 -1      3407 9.52573E-05-2.85891E-05-2.85721E-05-1.20886E-08 4.35280E-19 6.25527E-19
 -1      3408 9.03491E-05-2.00840E-05-3.01244E-05-5.96247E-06 1.50453E-18-2.53976E-18
 -1      3409 8.79837E-05-1.71072E-05-3.03561E-05-4.56457E-06 1.72826E-18-3.01445E-18
 -1      3410 8.49407E-05-1.50978E-05-2.99716E-05-4.76758E-06 1.38742E-18-3.16656E-18
 -1      3411 1.06921E-04-4.87441E-05-2.49085E-05-2.26038E-05 3.52996E-18-1.99936E-18
 -1      3412 9.52453E-05-2.85832E-05-2.85695E-05 2.50756E-08-2.79644E-18-2.81326E-18
 -1      3413 9.52472E-05-2.85849E-05-2.85696E-05 2.36779E-08-2.10623E-18-1.80736E-18
 -1      3414 9.52496E-05-2.85847E-05-2.85707E-05 2.36699E-08-1.84401E-18-2.86807E-18
 -1      3415 9.52460E-05-2.85824E-05-2.85701E-05 2.62910E-08-2.37308E-18-2.03602E-18
 -1      3416 1.27978E-04-5.44429E-05-3.14408E-05 4.12469E-06-1.60357E-18-3.13810E-18
 -1      3417 1.23161E-04-5.26076E-05-3.01934E-05 6.08535E-06-1.73480E-18-2.10837E-18
 -1      3418 9.57184E-05-2.20029E-05-3.15981E-05 2.69522E-06-1.92110E-18-2.58090E-18
 -1      3419 9.35419E-05-2.11803E-05-3.10181E-05 4.12816E-06-1.56720E-18-2.74441E-18
 -1      3420 5.17499E-05-1.71366E-05-1.42994E-05-2.21971E-05-1.30488E-18-6.59934E-18
 -1      3421 6.15008E-05-2.08311E-05-1.70949E-05-2.43970E-05-1.62080E-18-5.78783E-18
 -1      3422 4.86572E-05-1.38684E-05-1.46856E-05-1.57688E-05-7.32286E-19-6.42591E-18
 -1      3423 1.30533E-04-5.40433E-05-3.27753E-05 2.01987E-06-8.02749E-19-3.61410E-18
 -1      3424 1.24363E-04-3.67343E-05-3.76379E-05-1.47283E-05 2.50629E-18-3.52670E-18
 -1      3425 8.05455E-05-3.36619E-05-1.97506E-05 2.82599E-05-3.31883E-18 1.40200E-18
 -1      3426 1.25428E-04-5.44463E-05-3.02833E-05-9.54050E-06-1.68165E-18 1.26271E-18
 -1      3427 5.49267E-05-1.72064E-05-1.57676E-05 2.16426E-05 1.74409E-18-5.60529E-18
 -1      3428 5.29695E-05-1.35126E-05-1.65983E-05 1.46029E-05 1.40206E-18-5.71461E-18
 -1      3429 6.47460E-05-2.02624E-05-1.89089E-05 2.18092E-05 2.08599E-18-4.53523E-18
 -1      3430 8.51593E-05-3.55828E-05-2.09798E-05 3.01067E-05 2.66527E-18-3.17971E-18
 -1      3431 7.77878E-05-2.83735E-05-2.10611E-05 2.60994E-05 2.21408E-18-3.49788E-18
 -1      3432 9.37795E-05-3.83244E-05-2.37176E-05 2.52870E-05 2.44597E-18-2.13203E-18
 -1      3433 8.06499E-05-3.50267E-05-1.92916E-05-3.17956E-05-2.50134E-18-4.60066E-18
 -1      3434 1.02645E-04-3.12944E-05-3.05923E-05-6.92639E-06 1.01826E-18-9.15245E-19
 -1      3435 1.01298E-04-2.92857E-05-3.08193E-05-6.27176E-06 1.43106E-18-1.03483E-18
 -1      3436 9.91760E-05-2.77733E-05-3.05976E-05-6.61675E-06 1.36609E-18-1.40949E-18
 -1      3437 1.01392E-04-3.15936E-05-2.99702E-05-8.55428E-06 7.77665E-19-9.90987E-19
 -1      3438 1.07562E-04-4.93776E-05-2.48194E-05-2.54137E-05-2.53951E-18-1.41902E-18
 -1      3439 1.24468E-04-3.63308E-05-3.79337E-05 1.40574E-05 1.89336E-18 1.69486E-18
 -1      3440 7.92387E-05-1.11205E-05-2.92406E-05 4.05235E-06-2.18561E-19-4.34975E-18
 -1      3441 8.16840E-05-1.26734E-05-2.95472E-05 4.38750E-06-5.35919E-19-4.20029E-18
 -1      3442 8.34046E-05-1.53003E-05-2.92060E-05 6.03240E-06-4.80766E-19-3.85204E-18
 -1      3443 9.95254E-05-4.35791E-05-2.36707E-05-2.72559E-05-2.44231E-18-2.20041E-18
 -1      3444 1.09497E-04-4.77575E-05-2.64275E-05-2.04906E-05-2.18165E-18-5.58380E-19
 -1      3445 6.51747E-05-2.19362E-05-1.86178E-05 2.13246E-05-2.77598E-18 3.31979E-18
 -1      3446 5.72708E-05-1.59413E-05-1.74099E-05 1.29673E-05-2.51164E-18 4.38782E-18
 -1      3447 8.69406E-05-3.58393E-05-2.20089E-05 2.63326E-05-3.28998E-18 8.80094E-19
 -1      3448 7.58486E-05-2.79873E-05-2.01311E-05 2.47657E-05-3.24668E-18 1.60764E-18
 -1      3449 9.14012E-05-1.98021E-05-3.07014E-05 4.56855E-06-1.17886E-18-2.89680E-18
 -1      3450 9.52611E-05-2.85885E-05-2.85740E-05 6.25023E-09-2.12116E-19 1.93237E-18
 -1      3451 9.52616E-05-2.85888E-05-2.85741E-05 2.23463E-09 1.99351E-19 9.88927E-19
 -1      3452 1.18846E-04-5.07432E-05-2.89886E-05 9.65327E-06-2.17167E-18-1.57834E-18
 -1      3453 9.95760E-05-3.64835E-05-2.69818E-05-1.49052E-05 6.57938E-19-1.28286E-18
 -1      3454 9.68033E-05-3.35124E-05-2.70627E-05-1.45086E-05 6.45034E-19-1.49148E-18
 -1      3455 9.52917E-05-3.12838E-05-2.73800E-05-1.32732E-05 1.32722E-18-7.16335E-19
 -1      3456 9.36675E-05-2.93309E-05-2.75547E-05-1.25426E-05 1.70522E-18-4.54160E-19
 -1      3457 9.23511E-05-3.09827E-05-2.64166E-05-1.53020E-05 1.28560E-18-4.07429E-19
 -1      3458 9.31338E-05-2.80599E-05-2.78529E-05-1.13670E-05 1.35654E-18-2.88112E-19
 -1      3459 9.22946E-05-2.69136E-05-2.80228E-05-1.06196E-05 1.28662E-18-3.92518E-19
 -1      3460 9.04683E-05-2.73180E-05-2.70958E-05-1.25024E-05 1.54877E-18 3.42880E-19
 -1      3461 9.22554E-05-2.62443E-05-2.82655E-05-9.62019E-06 1.24086E-18-1.00286E-18
 -1      3462 9.18982E-05-2.56557E-05-2.83983E-05-8.90349E-06 9.53011E-19-8.09083E-19
 -1      3463 8.99991E-05-2.54073E-05-2.76902E-05-1.02133E-05 1.19500E-18-7.19827E-19
 -1      3464 9.21129E-05-2.53984E-05-2.85760E-05-8.07396E-06 7.27149E-19-7.85127E-19
 -1      3465 9.20248E-05-2.51663E-05-2.86643E-05-7.41293E-06 1.17446E-18-8.86602E-19
 -1      3466 9.02301E-05-2.45499E-05-2.81470E-05-8.35914E-06 7.29203E-19-2.60991E-19
 -1      3467 9.23484E-05-2.51617E-05-2.87838E-05-6.71791E-06 1.45877E-18-9.91609E-19
 -1      3468 9.23973E-05-2.51457E-05-2.88329E-05-6.12018E-06 1.57640E-18-1.05307E-18
 -1      3469 9.07928E-05-2.43481E-05-2.84705E-05-6.84663E-06 1.01683E-18-2.52027E-20
 -1      3470 9.27484E-05-2.52843E-05-2.89058E-05-5.53250E-06 1.30068E-18-1.35053E-18
 -1      3471 9.28566E-05-2.53893E-05-2.89247E-05-5.00027E-06 7.53728E-19-9.01240E-19
 -1      3472 9.14763E-05-2.45334E-05-2.86827E-05-5.59015E-06 1.49826E-18-1.07943E-18
 -1      3473 9.31918E-05-2.55986E-05-2.89629E-05-4.50177E-06 4.03510E-19-8.20478E-19
 -1      3474 9.33164E-05-2.57627E-05-2.89607E-05-4.03548E-06 1.23368E-19-6.18248E-19
 -1      3475 9.21634E-05-2.49266E-05-2.88088E-05-4.53281E-06 9.40771E-19-9.79302E-19
 -1      3476 9.36145E-05-2.59967E-05-2.89745E-05-3.61411E-06-4.30930E-19-6.11846E-19
 -1      3477 9.37335E-05-2.61814E-05-2.89588E-05-3.21265E-06-4.01661E-19-1.22007E-19
 -1      3478 9.27940E-05-2.54110E-05-2.88722E-05-3.63918E-06-1.59499E-19-6.94805E-19
 -1      3479 9.39868E-05-2.64124E-05-2.89567E-05-2.85957E-06-5.32061E-19-7.60208E-19
 -1      3480 9.40906E-05-2.65947E-05-2.89335E-05-2.52013E-06-7.17123E-19-1.26086E-18
 -1      3481 9.33416E-05-2.59138E-05-2.88924E-05-2.88649E-06-4.87378E-19-5.48348E-19
 -1      3482 9.42987E-05-2.68074E-05-2.89216E-05-2.22785E-06-4.92467E-19-1.34098E-18
 -1      3483 9.43842E-05-2.69750E-05-2.88952E-05-1.94600E-06-3.27301E-19-2.03882E-19
 -1      3484 9.37991E-05-2.63920E-05-2.88846E-05-2.25813E-06-3.39359E-19-1.43399E-18
 -1      3485 9.45507E-05-2.71618E-05-2.88781E-05-1.70743E-06-6.86438E-19 1.25547E-19
 -1      3486 9.46184E-05-2.73088E-05-2.88515E-05-1.47756E-06-5.93210E-19 4.55117E-19
 -1      3487 9.41703E-05-2.68226E-05-2.88600E-05-1.73998E-06-1.27494E-19-2.86557E-19
 -1      3488 9.47485E-05-2.74676E-05-2.88323E-05-1.28577E-06-9.20177E-19 1.55008E-19
 -1      3489 9.48005E-05-2.75922E-05-2.88072E-05-1.10154E-06-6.86440E-19-3.85410E-19
 -1      3490 9.44641E-05-2.71958E-05-2.88268E-05-1.31874E-06-7.75954E-19 4.26203E-20
 -1      3491 9.49000E-05-2.77235E-05-2.87879E-05-9.49790E-07-9.03317E-19-1.10748E-18
 -1      3492 9.49388E-05-2.78264E-05-2.87653E-05-8.04672E-07-1.06928E-18-1.46498E-18
 -1      3493 9.46915E-05-2.75096E-05-2.87905E-05-9.81502E-07-1.35813E-18-8.96529E-19
 -1      3494 9.50134E-05-2.79325E-05-2.87472E-05-6.86553E-07-1.48751E-18-2.04763E-18
 -1      3495 9.50416E-05-2.80155E-05-2.87276E-05-5.74215E-07-2.10628E-18-3.52620E-18
 -1      3496 9.48640E-05-2.77672E-05-2.87545E-05-7.15771E-07-1.78930E-18-1.76449E-18
 -1      3497 9.50962E-05-2.80995E-05-2.87115E-05-4.83823E-07-1.24012E-18-2.44355E-18
 -1      3498 9.51161E-05-2.81652E-05-2.86949E-05-3.98395E-07-9.44786E-19-4.70889E-19
 -1      3499 9.49920E-05-2.79741E-05-2.87211E-05-5.09815E-07-8.67592E-19-9.66849E-19
 -1      3500 9.51552E-05-2.82305E-05-2.86809E-05-3.30451E-07-1.79868E-18-3.12304E-20
 -1      3501 9.51688E-05-2.82814E-05-2.86673E-05-2.66690E-07-1.26931E-18 1.16312E-19
 -1      3502 9.50849E-05-2.81371E-05-2.86913E-05-3.52909E-07-6.06403E-19-1.03034E-19
 -1      3503 9.51959E-05-2.83312E-05-2.86554E-05-2.16597E-07-5.78622E-19 6.27644E-19
 -1      3504 9.52048E-05-2.83699E-05-2.86444E-05-1.69962E-07 1.96899E-19 1.38638E-18
 -1      3505 9.51506E-05-2.82631E-05-2.86657E-05-2.35530E-07-5.58839E-19 8.20624E-19
 -1      3506 9.52230E-05-2.84071E-05-2.86347E-05-1.33817E-07-5.20443E-19 7.03927E-19
 -1      3507 9.52285E-05-2.84360E-05-2.86260E-05-1.00475E-07-1.32936E-18 5.80228E-19
 -1      3508 9.51956E-05-2.83586E-05-2.86442E-05-1.49444E-07-6.50172E-19 1.32660E-18
 -1      3509 9.52401E-05-2.84632E-05-2.86181E-05-7.50327E-08-1.08305E-18 6.28824E-19
 -1      3510 9.52432E-05-2.84844E-05-2.86113E-05-5.18216E-08-1.45655E-19 7.06754E-19
 -1      3511 9.52252E-05-2.84297E-05-2.86265E-05-8.76953E-08-1.14533E-18 1.48945E-18
 -1      3512 9.52500E-05-2.85038E-05-2.86051E-05-3.44436E-08 1.03697E-18 2.89591E-19
 -1      3513 9.52514E-05-2.85189E-05-2.85999E-05-1.88105E-08 1.41974E-18 1.64689E-19
 -1      3514 9.52436E-05-2.84814E-05-2.86123E-05-4.45378E-08 1.49458E-19 1.09741E-18
 -1      3515 9.52549E-05-2.85324E-05-2.85951E-05-7.39084E-09 1.10088E-18 5.96476E-19
 -1      3516 9.52552E-05-2.85429E-05-2.85912E-05 2.68454E-09 2.05202E-18 3.80692E-19
 -1      3517 9.52540E-05-2.85181E-05-2.86011E-05-1.53213E-08 1.41163E-18 9.28242E-19
 -1      3518 9.52565E-05-2.85520E-05-2.85874E-05 9.79177E-09 1.52715E-18-7.48986E-19
 -1      3519 9.52561E-05-2.85591E-05-2.85845E-05 1.58744E-08 9.85325E-19-4.48339E-19
 -1      3520 9.52588E-05-2.85434E-05-2.85923E-05 3.64292E-09 8.98183E-19 1.15243E-18
 -1      3521 9.52559E-05-2.85650E-05-2.85817E-05 1.99286E-08 7.98948E-19-1.39301E-18
 -1      3522 9.52552E-05-2.85696E-05-2.85796E-05 2.32035E-08 1.00461E-19-1.48831E-18
 -1      3523 9.52600E-05-2.85604E-05-2.85856E-05 1.52207E-08 4.50465E-19-1.45669E-18
 -1      3524 9.52541E-05-2.85733E-05-2.85774E-05 2.51467E-08-6.44406E-19-1.91076E-18
 -1      3525 9.52532E-05-2.85762E-05-2.85759E-05 2.64870E-08-2.63429E-19-2.49177E-18
 -1      3526 9.52589E-05-2.85713E-05-2.85804E-05 2.15913E-08-3.33461E-19-1.84475E-18
 -1      3527 9.52517E-05-2.85784E-05-2.85742E-05 2.70108E-08-2.11634E-19-2.54813E-18
 -1      3528 9.52507E-05-2.85802E-05-2.85731E-05 2.70017E-08 2.24224E-19-1.67212E-18
 -1      3529 9.52565E-05-2.85781E-05-2.85765E-05 2.43853E-08-1.71469E-19-2.30057E-18
 -1      3530 1.25803E-04-5.14711E-05-3.21125E-05-1.39001E-06-7.87767E-19 1.27471E-18
 -1      3531 1.21712E-04-4.54262E-05-3.26336E-05 4.90386E-06-3.58573E-19 1.22717E-18
 -1      3532 9.06591E-05-2.05247E-05-3.00412E-05 6.30341E-06-8.24616E-19-2.87273E-18
 -1      3533 1.12400E-04-4.71193E-05-2.79351E-05 1.24708E-05-1.83078E-18-7.13566E-19
 -1      3534 1.20103E-04-5.08418E-05-2.96791E-05-8.92981E-06-1.41871E-18 6.80488E-19
 -1      3535 8.73948E-05-1.96030E-05-2.90374E-05 8.29198E-06-3.83301E-19-3.32463E-18
 -1      3536 9.14417E-05-2.26149E-05-2.94751E-05 8.24954E-06-5.00497E-19-2.65806E-18
 -1      3537 9.28156E-05-2.50407E-05-2.90229E-05 9.90317E-06-3.02048E-19-2.38583E-18
 -1      3538 1.20018E-04-4.58002E-05-3.16568E-05 1.29764E-06-6.78690E-19 1.01686E-18
 -1      3539 9.71086E-05-3.14555E-05-2.81025E-05 1.19459E-05-1.09336E-18 1.94178E-19
 -1      3540 9.90565E-05-3.35696E-05-2.80216E-05 1.21622E-05-1.45997E-18-2.06841E-19
 -1      3541 9.48985E-05-2.85529E-05-2.84221E-05 1.05878E-05-1.16723E-18 1.74973E-18
 -1      3542 9.60345E-05-2.98904E-05-2.83150E-05 1.10635E-05-9.83763E-19 8.12679E-19
 -1      3543 9.37748E-05-2.95536E-05-2.75686E-05 1.25029E-05-1.68857E-18 9.08013E-19
 -1      3544 9.38550E-05-2.68958E-05-2.86966E-05 9.15717E-06-1.42709E-18 2.27261E-18
 -1      3545 9.44656E-05-2.76579E-05-2.86096E-05 9.73635E-06-8.90460E-19 2.20207E-18
 -1      3546 9.24014E-05-2.70675E-05-2.80235E-05 1.05968E-05-1.42558E-18 1.75896E-18
 -1      3547 9.35017E-05-2.61014E-05-2.88911E-05 7.77914E-06-1.11579E-18 2.54393E-18
 -1      3548 9.37942E-05-2.64700E-05-2.88372E-05 8.37855E-06-1.33330E-18 2.28320E-18
 -1      3549 9.19740E-05-2.57474E-05-2.83908E-05 8.89238E-06-1.15848E-18 1.79452E-18
 -1      3550 9.35181E-05-2.58539E-05-2.90065E-05 6.50900E-06-5.77573E-19 2.67086E-18
 -1      3551 9.36307E-05-2.59741E-05-2.89842E-05 7.08813E-06-8.60486E-19 2.70025E-18
 -1      3552 9.20780E-05-2.52194E-05-2.86541E-05 7.40392E-06-8.57253E-19 1.64947E-18
 -1      3553 9.37093E-05-2.59285E-05-2.90571E-05 5.36627E-06-5.05400E-19 2.10904E-18
 -1      3554 9.37287E-05-2.59030E-05-2.90595E-05 5.90285E-06-2.21469E-19 2.38080E-18
 -1      3555 9.24344E-05-2.51743E-05-2.88228E-05 6.11266E-06-3.23012E-19 1.78829E-18
 -1      3556 9.39641E-05-2.61745E-05-2.90605E-05 4.35794E-06-3.75860E-19 1.75537E-18
 -1      3557 9.39407E-05-2.60716E-05-2.90798E-05 4.83961E-06-2.25743E-19 1.95082E-18
 -1      3558 9.28826E-05-2.54027E-05-2.89158E-05 4.99447E-06-2.30698E-19 1.66701E-18
 -1      3559 9.42229E-05-2.64957E-05-2.90330E-05 3.48472E-06-1.96196E-19 1.53150E-18
 -1      3560 9.41840E-05-2.63586E-05-2.90622E-05 3.90571E-06-2.43751E-19 1.77884E-18
 -1      3561 9.33349E-05-2.57672E-05-2.89534E-05 4.03141E-06-2.21973E-19 2.02936E-18
 -1      3562 9.44569E-05-2.68336E-05-2.89876E-05 2.74247E-06-7.85913E-19 1.51434E-18
 -1      3563 9.44165E-05-2.66885E-05-2.90213E-05 3.10183E-06-6.81424E-19 1.81699E-18
 -1      3564 9.37471E-05-2.61809E-05-2.89532E-05 3.21010E-06-6.50685E-19 2.70050E-18
 -1      3565 9.46550E-05-2.71551E-05-2.89337E-05 2.12307E-06-1.82194E-19 1.19419E-18
 -1      3566 9.46191E-05-2.70166E-05-2.89682E-05 2.42328E-06-1.66117E-19 1.30328E-18
 -1      3567 9.41009E-05-2.65920E-05-2.89293E-05 2.51876E-06-1.50360E-19 2.53601E-18
 -1      3568 9.48154E-05-2.74431E-05-2.88781E-05 1.61541E-06 3.41362E-19-1.94585E-19
 -1      3569 9.47861E-05-2.73189E-05-2.89108E-05 1.86126E-06 1.65645E-19 3.43179E-19
 -1      3570 9.43922E-05-2.69714E-05-2.88922E-05 1.94548E-06 8.32742E-19 1.09132E-18
 -1      3571 9.49409E-05-2.76909E-05-2.88249E-05 1.20662E-06 1.37562E-19-5.70652E-19
 -1      3572 9.49184E-05-2.75840E-05-2.88545E-05 1.40420E-06 3.45436E-19-4.53492E-19
 -1      3573 9.46248E-05-2.73053E-05-2.88494E-05 1.47759E-06 3.38844E-19-4.66717E-19
 -1      3574 9.50365E-05-2.78976E-05-2.87765E-05 8.83107E-07-6.92019E-19-7.42321E-20
 -1      3575 9.50199E-05-2.78084E-05-2.88023E-05 1.03904E-06-6.10101E-19-4.54308E-19
 -1      3576 9.48057E-05-2.75892E-05-2.88058E-05 1.10191E-06 8.57794E-20-3.69255E-19
 -1      3577 9.51074E-05-2.80659E-05-2.87341E-05 6.31475E-07 1.05342E-18-5.87828E-19
 -1      3578 9.50957E-05-2.79932E-05-2.87560E-05 7.52363E-07 6.36170E-19-1.18885E-19
 -1      3579 9.49431E-05-2.78239E-05-2.87645E-05 8.05207E-07 1.45019E-19-9.85153E-19
 -1      3580 9.51586E-05-2.81998E-05-2.86982E-05 4.39177E-07 7.12571E-19-3.82578E-19
 -1      3581 9.51507E-05-2.81419E-05-2.87163E-05 5.31218E-07 1.26662E-18-8.59032E-20
 -1      3582 9.50451E-05-2.80137E-05-2.87271E-05 5.74808E-07 9.58779E-19-9.53534E-19
 -1      3583 9.51945E-05-2.83044E-05-2.86683E-05 2.94902E-07 2.93448E-19-3.48012E-19
 -1      3584 9.51894E-05-2.82592E-05-2.86830E-05 3.63671E-07 9.95374E-20-2.62815E-19
 -1      3585 9.51190E-05-2.81639E-05-2.86947E-05 3.98976E-07 2.10911E-19 1.42483E-19
 -1      3586 9.52189E-05-2.83845E-05-2.86442E-05 1.88775E-07-2.24028E-19 2.63348E-19
 -1      3587 9.52159E-05-2.83499E-05-2.86558E-05 2.39124E-07 5.41758E-19 2.35672E-19
 -1      3588 9.51711E-05-2.82805E-05-2.86672E-05 2.67219E-07 1.25277E-19 6.68069E-19
 -1      3589 9.52347E-05-2.84447E-05-2.86249E-05 1.12406E-07-8.55118E-19 8.36559E-19
 -1      3590 9.52331E-05-2.84186E-05-2.86340E-05 1.48442E-07-5.06140E-19 2.53308E-19
 -1      3591 9.52066E-05-2.83694E-05-2.86444E-05 1.70420E-07-4.13328E-19 1.45684E-18
 -1      3592 9.52442E-05-2.84889E-05-2.86099E-05 5.88311E-08-1.42601E-18 1.35984E-18
 -1      3593 9.52437E-05-2.84697E-05-2.86168E-05 8.39474E-08-1.07134E-18 9.13128E-19
 -1      3594 9.52299E-05-2.84357E-05-2.86260E-05 1.00854E-07-9.77642E-19 1.30987E-18
 -1      3595 9.52494E-05-2.85207E-05-2.85983E-05 2.23925E-08-9.21996E-20 2.51364E-20
 -1      3596 9.52495E-05-2.85069E-05-2.86035E-05 3.93345E-08-6.83571E-19 1.07254E-18
 -1      3597 9.52442E-05-2.84842E-05-2.86114E-05 5.21249E-08-7.83219E-19 1.13401E-19
 -1      3598 9.52516E-05-2.85430E-05-2.85896E-05-1.41291E-09 7.04777E-19-4.73280E-19
 -1      3599 9.52521E-05-2.85333E-05-2.85934E-05 9.52982E-09 7.72412E-19 6.06230E-20
 -1      3600 9.52522E-05-2.85189E-05-2.86000E-05 1.90444E-08 7.31822E-19-3.12993E-19
 -1      3601 9.52518E-05-2.85581E-05-2.85831E-05-1.60962E-08 7.73454E-19-7.43187E-19
 -1      3602 9.52525E-05-2.85515E-05-2.85859E-05-9.46531E-09 7.44477E-19-8.62680E-19
 -1      3603 9.52558E-05-2.85430E-05-2.85913E-05-2.51077E-09 9.96515E-19-5.74682E-19
 -1      3604 9.52509E-05-2.85681E-05-2.85784E-05-2.43355E-08-3.89877E-19-1.04113E-19
 -1      3605 9.52516E-05-2.85637E-05-2.85804E-05-2.07372E-08 2.54949E-19-7.34916E-19
 -1      3606 9.52565E-05-2.85592E-05-2.85846E-05-1.57508E-08 5.27968E-19 2.84227E-19
 -1      3607 9.52492E-05-2.85744E-05-2.85750E-05-2.81215E-08 3.46576E-19 1.20494E-18
 -1      3608 9.52499E-05-2.85715E-05-2.85764E-05-2.66123E-08 1.43874E-19 8.62713E-19
 -1      3609 9.52554E-05-2.85697E-05-2.85796E-05-2.31209E-08-7.08521E-19 8.97511E-19
 -1      3610 9.52474E-05-2.85783E-05-2.85724E-05-2.88938E-08-1.07805E-18 8.28673E-19
 -1      3611 9.52480E-05-2.85765E-05-2.85734E-05-2.88040E-08-1.02944E-19 1.20009E-18
 -1      3612 9.52533E-05-2.85763E-05-2.85759E-05-2.64309E-08 2.51868E-19 1.70741E-18
 -1      3613 9.52456E-05-2.85809E-05-2.85706E-05-2.76258E-08-1.81156E-18-3.35498E-20
 -1      3614 9.52460E-05-2.85796E-05-2.85713E-05-2.84816E-08-1.23742E-18 6.58133E-19
 -1      3615 9.52508E-05-2.85805E-05-2.85730E-05-2.70309E-08-6.74001E-19 3.45250E-18
 -1      3616 1.25930E-04-5.28490E-05-3.14024E-05 4.76666E-06 6.31887E-19 1.29102E-18
 -1      3617 4.77562E-05-1.03925E-05-1.58795E-05 3.77941E-06 5.65332E-19-6.03575E-18
 -1      3618 4.71750E-05-1.03983E-05-1.52632E-05-6.15464E-06-7.78873E-20-6.18609E-18
 -1      3619 9.52466E-05-2.85849E-05-2.85693E-05-2.34969E-08-2.77680E-18 1.52644E-19
 -1      3620 9.52441E-05-2.85832E-05-2.85689E-05-2.45022E-08-2.81218E-18 2.12558E-19
 -1      3621 9.52441E-05-2.85825E-05-2.85693E-05-2.57104E-08-3.57648E-18-7.17258E-20
 -1      3622 9.52490E-05-2.85849E-05-2.85703E-05-2.36465E-08-2.88650E-18 1.97694E-18
 -1      3623 7.75713E-05-2.94522E-05-2.02276E-05-2.57088E-05 2.12797E-18 1.27161E-19
 -1      3624 8.79818E-05-3.66381E-05-2.21488E-05-2.61984E-05 2.54057E-18-8.05555E-19
 -1      3625 1.01240E-04-3.60499E-05-2.78559E-05 1.28569E-05-1.70750E-18-3.41335E-19
 -1      3626 1.04416E-04-3.90710E-05-2.79356E-05 1.23626E-05-1.83275E-18-3.72919E-19
 -1      3627 9.68732E-05-3.38265E-05-2.71128E-05 1.45036E-05-1.63905E-18 1.39344E-19
 -1      3628 1.08070E-04-4.36455E-05-2.75325E-05 1.38666E-05-1.92140E-18-5.25703E-19
 -1      3629 7.56958E-05-8.61337E-06-2.87894E-05 2.08048E-06 1.24859E-19-4.54407E-18
 -1      3630 7.70852E-05-9.48579E-06-2.89607E-05 2.95564E-06-1.53876E-19-4.49436E-18
 -1      3631 7.81472E-05-1.15318E-05-2.85134E-05 4.56985E-06-8.64668E-20-4.30526E-18
 -1      3632 1.04233E-04-3.70763E-05-2.87598E-05-1.17976E-05-3.28262E-19-7.19222E-19
 -1      3633 1.01362E-04-3.38661E-05-2.88612E-05-1.15369E-05-3.26968E-20-9.28289E-19
 -1      3634 9.88784E-05-3.34653E-05-2.79190E-05 1.42171E-05 4.91474E-19-1.66757E-18
 -1      3635 1.02123E-04-3.72579E-05-2.77506E-05 1.48583E-05 8.39985E-19-1.32706E-18
 -1      3636 1.17986E-04-4.74936E-05-3.06664E-05-4.54903E-06-8.51228E-19 2.96945E-19
 -1      3637 7.42165E-05-2.71104E-05-1.99017E-05-2.67868E-05-1.99786E-18-4.67814E-18
 -1      3638 8.73090E-05-3.63181E-05-2.18391E-05-2.88647E-05-2.31621E-18-3.45499E-18
 -1      3639 9.19493E-05-3.63239E-05-2.37580E-05-2.45946E-05-1.91952E-18-2.86836E-18
 -1      3640 9.43389E-05-2.74463E-05-2.86061E-05 1.14899E-05-1.18418E-19-2.11960E-18
 -1      3641 9.63883E-05-3.04093E-05-2.82363E-05 1.28312E-05 9.16533E-20-1.94420E-18
 -1      3642 9.31492E-05-3.00257E-05-2.71643E-05 1.55242E-05 4.82382E-19-2.30448E-18
 -1      3643 8.94558E-05-2.43629E-05-2.79856E-05 1.21643E-05 1.20631E-19-2.92089E-18
 -1      3644 5.29090E-05-1.35559E-05-1.67559E-05 5.57551E-06-1.71374E-18 4.01631E-18
 -1      3645 5.30114E-05-1.33061E-05-1.68831E-05-3.38615E-06-6.42289E-19 3.71027E-18
 -1      3646 6.03382E-05-1.57360E-05-1.89054E-05 8.64599E-06-1.80415E-18 3.70786E-18
 -1      3647 7.33436E-05-2.44502E-05-2.08725E-05 2.01898E-05-2.78336E-18 1.80872E-18
 -1      3648 9.29808E-05-2.31056E-05-2.99113E-05-7.36097E-06 1.21584E-18-2.25493E-18
 -1      3649 8.94998E-05-2.08623E-05-2.94446E-05-7.73636E-06 9.52308E-19-2.54285E-18
 -1      3650 1.19463E-04-5.09938E-05-2.91225E-05 1.15025E-05 1.20034E-18 4.25310E-19
 -1      3651 7.42622E-05-1.03480E-05-2.73844E-05-3.28337E-06 4.89867E-19-4.08220E-18
 -1      3652 7.32305E-05-9.70241E-06-2.72638E-05-1.49068E-06 3.77039E-19-4.25395E-18
 -1      3653 9.21767E-05-3.65975E-05-2.37027E-05-2.25991E-05 1.70039E-18-5.55955E-19
 -1      3654 9.72058E-05-4.11183E-05-2.36775E-05-2.44032E-05 2.82810E-18-1.04311E-18
 -1      3655 1.15072E-04-4.93727E-05-2.81458E-05-1.47541E-05-1.80295E-18 1.12513E-19
 -1      3656 1.17798E-04-4.70649E-05-2.99783E-05-6.68956E-06-1.17830E-18 3.45179E-19
 -1      3657 9.52601E-05-2.85882E-05-2.85737E-05 1.04979E-08 2.86035E-19-1.59325E-19
 -1      3658 9.52626E-05-2.85867E-05-2.85753E-05 8.60570E-09-3.38673E-19 1.01882E-18
 -1      3659 9.52586E-05-2.85875E-05-2.85734E-05 1.42578E-08 6.26466E-19-1.76280E-18
 -1      3660 1.06033E-04-4.14005E-05-2.75251E-05 1.58492E-05 1.04173E-18-8.32476E-19
 -1      3661 1.10541E-04-4.58707E-05-2.77560E-05 1.53914E-05 1.03654E-18-6.11075E-19
 -1      3662 1.02396E-04-3.99648E-05-2.66177E-05-1.63189E-05 1.30417E-18-1.70306E-18
 -1      3663 9.63043E-05-3.68725E-05-2.56101E-05-1.86760E-05 1.30250E-18-7.24312E-19
 -1      3664 9.50912E-05-3.89297E-05-2.39156E-05 2.24716E-05-3.19636E-18-3.40726E-19
 -1      3665 5.78700E-05-1.49380E-05-1.80984E-05-8.48819E-06 1.04781E-19 3.58104E-18
 -1      3666 6.35797E-05-1.77377E-05-1.97663E-05-1.34937E-05 9.49886E-19 2.30332E-18
 -1      3667 6.00496E-05-1.46980E-05-1.94276E-05-4.04025E-06-9.61581E-20 2.71757E-18
 -1      3668 7.42745E-05-2.56627E-05-2.05720E-05-2.14879E-05 1.51909E-18 2.39340E-19
 -1      3669 1.06854E-04-4.38944E-05-2.70320E-05-1.75490E-05-1.62985E-18-3.54755E-19
 -1      3670 8.38855E-05-1.73307E-05-2.85702E-05 8.01995E-06-1.34955E-19-3.72563E-18
 -1      3671 9.52488E-05-2.85809E-05-2.85719E-05 2.71876E-08 7.36458E-19-1.88957E-18
 -1      3672 9.52477E-05-2.85819E-05-2.85710E-05 2.65802E-08-5.84907E-20-1.92742E-18
 -1      3673 9.52496E-05-2.85831E-05-2.85714E-05 2.53542E-08-9.58361E-19-3.04016E-18
 -1      3674 9.52531E-05-2.85816E-05-2.85736E-05 2.52236E-08 7.07783E-20-1.93809E-18
 -1      3675 1.32303E-04-4.73645E-05-3.64892E-05 6.90590E-06 7.45945E-19 1.96025E-18
 -1      3676 9.52616E-05-2.85888E-05-2.85741E-05-2.16007E-09 6.81388E-19-7.47543E-19
 -1      3677 9.52611E-05-2.85885E-05-2.85740E-05-6.24868E-09 5.10422E-19-2.65398E-18
 -1      3678 9.52636E-05-2.85871E-05-2.85756E-05 6.64878E-12 3.78319E-19 4.46478E-20
 -1      3679 8.38655E-05-1.55956E-05-2.92511E-05-6.09586E-06 1.11576E-18-3.26197E-18
 -1      3680 9.52506E-05-2.85840E-05-2.85714E-05-2.43039E-08-2.17072E-18 2.47585E-18
 -1      3681 9.52480E-05-2.85829E-05-2.85708E-05-2.58467E-08-2.96347E-18 1.96997E-18
 -1      3682 9.52441E-05-2.85816E-05-2.85696E-05-2.66671E-08-3.29815E-18-8.99797E-19
 -1      3683 5.57703E-05-1.24137E-05-1.82860E-05 8.06839E-06 9.13446E-19-5.47766E-18
 -1      3684 1.16039E-04-5.00941E-05-2.80039E-05-1.29524E-05 2.46568E-18-3.05219E-18
 -1      3685 7.89783E-05-1.36122E-05-2.79794E-05-6.63897E-06 7.08452E-19-3.78990E-18
 -1      3686 7.63363E-05-1.19411E-05-2.76619E-05-5.48093E-06 5.28199E-19-4.00074E-18
 -1      3687 7.46197E-05-1.20632E-05-2.67654E-05-5.40800E-06 3.85572E-19-3.95845E-18
 -1      3688 6.48673E-05-1.93442E-05-1.94247E-05-2.06650E-05-1.34120E-18-5.18360E-18
 -1      3689 6.97812E-05-2.34741E-05-1.96438E-05-2.49033E-05-1.65178E-18-4.95247E-18
 -1      3690 7.73200E-05-2.54662E-05-2.20664E-05-2.25381E-05-1.64767E-18-4.14930E-18
 -1      3691 1.02500E-04-4.12345E-05-2.63432E-05 1.76740E-05-1.98682E-18-2.16973E-19
 -1      3692 5.42084E-05-1.30493E-05-1.72815E-05-1.12100E-05-5.23164E-19-5.83299E-18
 -1      3693 1.06346E-04-4.40550E-05-2.67291E-05-1.62334E-05 1.80349E-18-1.82534E-18
 -1      3694 1.11993E-04-4.81784E-05-2.74066E-05 1.71890E-05 1.46169E-18-4.80374E-19
 -1      3695 7.34265E-05-2.40890E-05-2.08503E-05 2.37054E-05 1.92006E-18-3.75532E-18
 -1      3696 6.94371E-05-2.01301E-05-2.10316E-05 1.97456E-05 1.56260E-18-4.02437E-18
 -1      3697 8.21045E-05-2.81615E-05-2.30545E-05 2.25326E-05 1.85781E-18-3.28752E-18
 -1      3698 1.02904E-04-4.33163E-05-2.52042E-05 2.33741E-05 2.06366E-18-1.45234E-18
 -1      3699 9.55099E-05-3.76557E-05-2.47152E-05 2.28733E-05 1.77389E-18-2.17081E-18
 -1      3700 9.93504E-05-3.77815E-05-2.64970E-05 1.87903E-05 1.16724E-18-1.75350E-18
 -1      3701 7.49981E-05-9.27793E-06-2.81131E-05 1.63675E-06 2.48241E-19-4.33953E-18
 -1      3702 9.96548E-05-3.13983E-05-2.92358E-05-1.03727E-05 3.52745E-19-1.31894E-18
 -1      3703 9.82580E-05-2.92086E-05-2.95431E-05-9.48516E-06 6.59159E-19-1.46123E-18
 -1      3704 9.76111E-05-3.15334E-05-2.83659E-05-1.28747E-05-5.18630E-20-1.43415E-18
 -1      3705 1.08382E-04-4.73685E-05-2.62040E-05-1.86294E-05 2.71778E-18-2.49456E-18
 -1      3706 9.52563E-05-2.85866E-05-2.85727E-05-1.83671E-08-3.93893E-19 2.44344E-18
 -1      3707 9.52538E-05-2.85853E-05-2.85722E-05-2.14687E-08-1.58971E-18 2.48676E-18
 -1      3708 9.52531E-05-2.85833E-05-2.85727E-05-2.38208E-08-9.28282E-19 2.49922E-18
 -1      3709 9.52514E-05-2.85842E-05-2.85716E-05 2.38349E-08-8.12181E-19-2.55359E-18
 -1      3710 9.52539E-05-2.85836E-05-2.85730E-05 2.32865E-08-1.05421E-18-2.55693E-18
 -1      3711 9.52537E-05-2.85854E-05-2.85722E-05 2.14662E-08-7.94675E-19-1.73852E-18
 -1      3712 9.52563E-05-2.85866E-05-2.85727E-05 1.83543E-08-3.49964E-20-1.56609E-18
 -1      3713 9.52559E-05-2.85827E-05-2.85742E-05 2.27964E-08-4.65606E-19-1.72590E-18
 -1      3714 8.94937E-05-3.25069E-05-2.42917E-05-1.99841E-05 1.41074E-18-5.27470E-19
 -1      3715 9.68168E-05-2.59429E-05-3.03846E-05-6.76340E-06 1.31669E-18-1.76449E-18
 -1      3716 9.62785E-05-2.68907E-05-2.97464E-05-8.57244E-06 8.72272E-19-1.78875E-18
 -1      3717 7.31726E-05-9.65515E-06-2.72578E-05 1.21901E-06 4.35718E-19-4.24341E-18
 -1      3718 7.41105E-05-1.02352E-05-2.73694E-05 3.03367E-06 2.36574E-19-4.24160E-18
 -1      3719 7.23005E-05-1.03762E-05-2.64595E-05-1.71509E-07 4.46172E-19-4.22017E-18
 -1      3720 9.40124E-05-2.64470E-05-2.90085E-05-1.03602E-05 4.69328E-19-1.85439E-18
 -1      3721 8.80791E-05-3.09743E-05-2.42797E-05-2.16147E-05-1.54749E-18-2.86696E-18
 -1      3722 9.78606E-05-3.82267E-05-2.56478E-05-2.13292E-05-1.60194E-18-1.51839E-18
 -1      3723 9.18707E-05-3.40586E-05-2.47657E-05 1.95673E-05-2.35753E-18 3.82607E-19
 -1      3724 8.77563E-05-2.60457E-05-2.63843E-05-1.27076E-05 1.69201E-18-1.61122E-19
 -1      3725 8.70873E-05-2.48632E-05-2.67150E-05-1.15382E-05 1.36224E-18-5.84598E-19
 -1      3726 8.77295E-05-2.42878E-05-2.71513E-05-1.01308E-05 9.54972E-19-8.95800E-19
 -1      3727 8.76763E-05-2.37494E-05-2.74340E-05-9.16198E-06 1.10994E-18-1.04249E-18
 -1      3728 8.48165E-05-2.29469E-05-2.64437E-05-1.04267E-05 7.93571E-19-1.18161E-18
 -1      3729 8.84000E-05-2.35874E-05-2.77546E-05-8.13550E-06 1.27835E-18-7.76637E-19
 -1      3730 8.86024E-05-2.34260E-05-2.79613E-05-7.36043E-06 7.70218E-19-7.24759E-19
 -1      3731 8.61474E-05-2.24531E-05-2.72426E-05-8.09204E-06 1.22943E-18-1.73248E-18
 -1      3732 8.93127E-05-2.35121E-05-2.81878E-05-6.58497E-06 5.83827E-19 2.31550E-19
 -1      3733 8.96275E-05-2.35785E-05-2.83292E-05-5.95025E-06 1.23900E-18 2.05106E-19
 -1      3734 8.75509E-05-2.25397E-05-2.78180E-05-6.39938E-06 1.27821E-18-1.14914E-18
 -1      3735 9.02815E-05-2.38055E-05-2.84826E-05-5.34341E-06 8.99252E-19-3.46191E-19
 -1      3736 9.06261E-05-2.39993E-05-2.85723E-05-4.81221E-06 1.13647E-18-1.05149E-18
 -1      3737 8.88864E-05-2.29618E-05-2.82180E-05-5.11713E-06 6.85007E-19-4.45883E-20
 -1      3738 9.12046E-05-2.42962E-05-2.86708E-05-4.32375E-06 1.43659E-18-1.57944E-18
 -1      3739 9.15349E-05-2.45511E-05-2.87218E-05-3.87383E-06 9.44312E-19-1.56427E-18
 -1      3740 9.00935E-05-2.35627E-05-2.84848E-05-4.10707E-06 1.02837E-18-1.69923E-18
 -1      3741 9.20318E-05-2.48711E-05-2.87804E-05-3.47393E-06 4.35503E-19-1.35468E-18
 -1      3742 9.23262E-05-2.51446E-05-2.88040E-05-3.09217E-06 2.24486E-20-1.01990E-18
 -1      3743 9.11474E-05-2.42373E-05-2.86529E-05-3.28858E-06 7.40442E-19-2.21000E-18
 -1      3744 9.27428E-05-2.54579E-05-2.88343E-05-2.76273E-06-5.04251E-19-6.81441E-19
 -1      3745 9.29934E-05-2.57240E-05-2.88394E-05-2.44070E-06-7.64263E-19-6.97851E-19
 -1      3746 9.20429E-05-2.49167E-05-2.87501E-05-2.61496E-06 1.83081E-19-2.22875E-18
 -1      3747 9.33352E-05-2.60131E-05-2.88506E-05-2.16988E-06-6.15200E-19-9.08182E-19
 -1      3748 9.35413E-05-2.62569E-05-2.88440E-05-1.90114E-06-1.01872E-19-1.09977E-18
 -1      3749 9.27865E-05-2.55578E-05-2.87978E-05-2.05814E-06-4.23062E-19-2.17945E-18
 -1      3750 9.38164E-05-2.65129E-05-2.88428E-05-1.68021E-06-1.97507E-19-1.40417E-18
 -1      3751 9.39814E-05-2.67273E-05-2.88295E-05-1.45897E-06 4.94672E-20-1.22013E-18
 -1      3752 9.33915E-05-2.61360E-05-2.88124E-05-1.59956E-06-3.95766E-19-2.13041E-18
 -1      3753 9.41987E-05-2.69467E-05-2.88209E-05-1.28075E-06-1.62072E-19-1.42020E-18
 -1      3754 9.43278E-05-2.71294E-05-2.88043E-05-1.10134E-06-7.64667E-19-9.92317E-19
 -1      3755 9.38743E-05-2.66400E-05-2.88059E-05-1.22522E-06-4.05104E-19-2.96751E-18
 -1      3756 9.44963E-05-2.73128E-05-2.87917E-05-9.59472E-07-1.33835E-18-7.93406E-19
 -1      3757 9.45951E-05-2.74645E-05-2.87742E-05-8.16264E-07-1.49515E-18-9.95186E-19
 -1      3758 9.42527E-05-2.70672E-05-2.87871E-05-9.23294E-07-6.93081E-19-1.75959E-18
 -1      3759 9.47235E-05-2.76142E-05-2.87600E-05-7.04996E-07-1.16410E-18-6.60389E-19
 -1      3760 9.47976E-05-2.77374E-05-2.87431E-05-5.92530E-07-1.27708E-18-5.16149E-19
 -1      3761 9.45439E-05-2.74210E-05-2.87619E-05-6.83143E-07-6.19343E-19-2.02277E-19
 -1      3762 9.48935E-05-2.78573E-05-2.87289E-05-5.06630E-07-1.21652E-18 7.37980E-19
 -1      3763 9.49478E-05-2.79554E-05-2.87133E-05-4.19778E-07 1.42802E-19 7.76181E-19
 -1      3764 9.47638E-05-2.77078E-05-2.87346E-05-4.94994E-07-2.48607E-19 1.51087E-18
 -1      3765 9.50180E-05-2.80495E-05-2.87000E-05-3.54572E-07 1.56666E-19 2.28852E-19
 -1      3766 9.50568E-05-2.81262E-05-2.86863E-05-2.88661E-07-4.13904E-19 7.32220E-19
 -1      3767 9.49267E-05-2.79360E-05-2.87076E-05-3.49939E-07-7.14200E-19 1.16724E-18
 -1      3768 9.51070E-05-2.81988E-05-2.86743E-05-2.40056E-07-6.85046E-19 8.17031E-19
 -1      3769 9.51340E-05-2.82575E-05-2.86626E-05-1.90959E-07-1.22746E-19 1.44559E-18
 -1      3770 9.50446E-05-2.81140E-05-2.86827E-05-2.40001E-07-1.63913E-19 1.04025E-18
 -1      3771 9.51688E-05-2.83124E-05-2.86522E-05-1.55446E-07-5.23736E-19 1.00162E-18
 -1      3772 9.51869E-05-2.83566E-05-2.86424E-05-1.19607E-07-1.36544E-18 1.20981E-18
 -1      3773 9.51279E-05-2.82505E-05-2.86605E-05-1.58198E-07-7.05836E-19 1.06302E-18
 -1      3774 9.52102E-05-2.83973E-05-2.86337E-05-9.42406E-08-1.55497E-18 3.60205E-19
 -1      3775 9.52218E-05-2.84299E-05-2.86257E-05-6.86734E-08-1.11927E-18 3.19434E-19
 -1      3776 9.51849E-05-2.83531E-05-2.86413E-05-9.85470E-08-1.65456E-18 6.54834E-19
 -1      3777 9.52367E-05-2.84594E-05-2.86185E-05-5.10325E-08-4.71505E-20 8.91280E-19
 -1      3778 9.52436E-05-2.84829E-05-2.86121E-05-3.32809E-08 7.82812E-19 5.47986E-19
 -1      3779 9.52223E-05-2.84287E-05-2.86253E-05-5.60392E-08-1.41236E-19 3.84020E-19
 -1      3780 9.52523E-05-2.85038E-05-2.86063E-05-2.14121E-08 7.78628E-19 8.86845E-19
 -1      3781 9.52559E-05-2.85203E-05-2.86012E-05-9.49794E-09 1.50320E-18 6.70604E-19
 -1      3782 9.52454E-05-2.84832E-05-2.86121E-05-2.65614E-08 1.32104E-18 1.44616E-20
 -1      3783 9.52604E-05-2.85346E-05-2.85966E-05-1.85637E-09 1.44209E-18 1.12378E-18
 -1      3784 9.52617E-05-2.85459E-05-2.85927E-05 5.78096E-09 3.01022E-19 4.49433E-19
 -1      3785 9.52584E-05-2.85214E-05-2.86014E-05-6.80476E-09 1.66131E-18 7.85000E-19
 -1      3786 9.52633E-05-2.85554E-05-2.85890E-05 1.03938E-08-7.73045E-19-3.52285E-19
 -1      3787 9.52632E-05-2.85628E-05-2.85860E-05 1.49592E-08-1.79954E-19-1.11987E-18
 -1      3788 9.52644E-05-2.85474E-05-2.85929E-05 5.84098E-09-5.98399E-19 2.77897E-19
 -1      3789 9.52630E-05-2.85689E-05-2.85831E-05 1.74469E-08-2.08697E-19-2.37084E-18
 -1      3790 9.52620E-05-2.85736E-05-2.85808E-05 1.98527E-08-6.72669E-19-2.24282E-18
 -1      3791 9.52657E-05-2.85645E-05-2.85862E-05 1.33926E-08-1.32110E-18-8.31393E-19
 -1      3792 9.52606E-05-2.85773E-05-2.85785E-05 2.08818E-08-2.69938E-19-2.31973E-18
 -1      3793 9.52591E-05-2.85802E-05-2.85767E-05 2.18535E-08 3.89810E-19-2.47591E-18
 -1      3794 9.52642E-05-2.85754E-05-2.85810E-05 1.73911E-08-1.10205E-19-2.40215E-18
 -1      3795 1.06278E-04-4.08232E-05-2.79629E-05-1.39338E-05-1.30737E-18-2.64089E-19
 -1      3796 1.02479E-04-3.72284E-05-2.78498E-05-1.43566E-05-7.37504E-19-7.80895E-19
 -1      3797 9.00748E-05-2.44425E-05-2.81435E-05 8.15357E-06-7.88970E-19 9.36227E-19
 -1      3798 9.01283E-05-2.48098E-05-2.79707E-05 8.94148E-06-1.04468E-18 1.22259E-18
 -1      3799 7.60377E-05-1.17363E-05-2.76374E-05 5.27729E-06 1.64313E-19-4.24335E-18
 -1      3800 7.86389E-05-1.33274E-05-2.79394E-05 6.56095E-06-7.15842E-21-4.17247E-18
 -1      3801 7.44156E-05-1.18849E-05-2.67403E-05 5.11906E-06 3.26796E-19-4.10831E-18
 -1      3802 8.97721E-05-2.52051E-05-2.76858E-05 9.98566E-06-1.21685E-18 1.30626E-18
 -1      3803 9.01905E-05-2.60535E-05-2.74554E-05 1.09184E-05-1.25135E-18 1.01978E-18
 -1      3804 8.78503E-05-2.38163E-05-2.74381E-05 9.19896E-06-1.14962E-18 4.79654E-19
 -1      3805 9.01655E-05-2.69886E-05-2.70841E-05 1.22015E-05-2.06616E-18 1.34487E-18
 -1      3806 9.12303E-05-2.84923E-05-2.68270E-05 1.32309E-05-2.07344E-18 1.15475E-18
 -1      3807 8.74234E-05-2.51223E-05-2.67375E-05 1.16905E-05-1.28369E-18 9.65905E-19
 -1      3808 9.06849E-05-2.42972E-05-2.84660E-05 6.66766E-06-5.55581E-19 9.21095E-19
 -1      3809 9.05495E-05-2.43722E-05-2.83480E-05 7.34063E-06-3.84184E-19 1.01848E-18
 -1      3810 8.87253E-05-2.34698E-05-2.79583E-05 7.36496E-06-4.63126E-19 6.57501E-19
 -1      3811 9.13980E-05-2.45145E-05-2.86769E-05 5.43616E-06-3.77056E-19 1.00762E-18
 -1      3812 9.11828E-05-2.44193E-05-2.86045E-05 6.01491E-06-6.70046E-19 8.36611E-19
 -1      3813 8.97133E-05-2.36030E-05-2.83232E-05 5.94403E-06-7.39081E-19 4.32024E-19
 -1      3814 9.21044E-05-2.49247E-05-2.88022E-05 4.40138E-06-3.41213E-19 1.52263E-18
 -1      3815 9.18699E-05-2.47398E-05-2.87645E-05 4.90005E-06 4.84932E-20 1.74902E-18
 -1      3816 9.06863E-05-2.40108E-05-2.85656E-05 4.80163E-06-6.77015E-19 7.64123E-19
 -1      3817 9.27484E-05-2.54177E-05-2.88654E-05 3.52824E-06-5.40845E-19 1.21832E-18
 -1      3818 9.25261E-05-2.51948E-05-2.88523E-05 3.95588E-06-3.61408E-19 1.37741E-18
 -1      3819 9.15778E-05-2.45546E-05-2.87156E-05 3.86244E-06-1.16572E-19 1.05353E-18
 -1      3820 9.33060E-05-2.59242E-05-2.88858E-05 2.79413E-06-7.66719E-19 9.33905E-19
 -1      3821 9.31106E-05-2.56955E-05-2.88891E-05 3.15716E-06-6.72734E-19 1.24309E-18
 -1      3822 9.23574E-05-2.51434E-05-2.87986E-05 3.08182E-06-9.16897E-19 5.57089E-19
 -1      3823 9.37714E-05-2.64035E-05-2.88785E-05 2.18240E-06 6.72851E-19 5.98183E-19
 -1      3824 9.36077E-05-2.61876E-05-2.88917E-05 2.48648E-06-2.11080E-19 1.32807E-18
 -1      3825 9.30164E-05-2.57203E-05-2.88350E-05 2.43216E-06-1.55607E-19-6.41838E-19
 -1      3826 9.41489E-05-2.68339E-05-2.88547E-05 1.67888E-06 1.00292E-18-8.57776E-20
 -1      3827 9.40165E-05-2.66405E-05-2.88731E-05 1.92974E-06 9.78191E-19 9.99108E-19
 -1      3828 9.35586E-05-2.62524E-05-2.88405E-05 1.89458E-06 7.25817E-19-6.07944E-19
 -1      3829 9.44478E-05-2.72061E-05-2.88222E-05 1.27027E-06 1.83427E-20 5.96800E-19
 -1      3830 9.43437E-05-2.70392E-05-2.88428E-05 1.47394E-06 4.92365E-19 5.94173E-19
 -1      3831 9.39945E-05-2.67227E-05-2.88269E-05 1.45423E-06 4.32647E-19 1.27648E-18
 -1      3832 9.46795E-05-2.75187E-05-2.87866E-05 9.43687E-07-3.65042E-19 6.37843E-19
 -1      3833 9.45995E-05-2.73789E-05-2.88071E-05 1.10635E-06 2.46366E-19 8.27178E-19
 -1      3834 9.43378E-05-2.71253E-05-2.88024E-05 1.09812E-06-2.43204E-21 1.09533E-18
 -1      3835 9.48552E-05-2.77750E-05-2.87514E-05 6.86787E-07 8.73204E-19-6.95736E-19
 -1      3836 9.47953E-05-2.76606E-05-2.87705E-05 8.14554E-07 1.50032E-19-3.46336E-20
 -1      3837 9.46028E-05-2.74610E-05-2.87728E-05 8.14241E-07 4.59173E-19 2.76562E-19
 -1      3838 9.49859E-05-2.79806E-05-2.87186E-05 4.88006E-07-2.71136E-19-1.39759E-19
 -1      3839 9.49419E-05-2.78891E-05-2.87357E-05 5.86672E-07 4.90021E-19-5.59714E-19
 -1      3840 9.48035E-05-2.77346E-05-2.87421E-05 5.91401E-07 5.34054E-19 3.53073E-19
 -1      3841 9.50807E-05-2.81425E-05-2.86894E-05 3.36822E-07-2.56255E-19 8.88946E-19
 -1      3842 9.50494E-05-2.80706E-05-2.87042E-05 4.11684E-07-3.54687E-19 3.94732E-19
 -1      3843 9.49523E-05-2.79533E-05-2.87127E-05 4.19283E-07-2.70577E-19 1.08634E-18
 -1      3844 9.51479E-05-2.82675E-05-2.86642E-05 2.23927E-07-3.48517E-20 1.03652E-18
 -1      3845 9.51262E-05-2.82121E-05-2.86766E-05 2.79676E-07 2.71297E-19 7.11204E-19
 -1      3846 9.50602E-05-2.81246E-05-2.86859E-05 2.88592E-07 2.81004E-20 1.15561E-18
 -1      3847 9.51940E-05-2.83621E-05-2.86431E-05 1.41290E-07-7.85856E-19 8.60106E-19
 -1      3848 9.51795E-05-2.83202E-05-2.86533E-05 1.81967E-07-6.00956E-19 7.57872E-19
 -1      3849 9.51365E-05-2.82564E-05-2.86623E-05 1.91157E-07-5.09896E-20 8.83883E-19
 -1      3850 9.52243E-05-2.84324E-05-2.86257E-05 8.21464E-08-5.37714E-19 1.08395E-18
 -1      3851 9.52151E-05-2.84014E-05-2.86339E-05 1.11151E-07-2.68368E-19 1.63586E-18
 -1      3852 9.51888E-05-2.83559E-05-2.86423E-05 1.19956E-07-7.64173E-19 9.44107E-19
 -1      3853 9.52432E-05-2.84835E-05-2.86117E-05 4.09193E-08-6.93624E-20 3.63433E-20
 -1      3854 9.52378E-05-2.84610E-05-2.86182E-05 6.10456E-08-2.53825E-19 8.68760E-19
 -1      3855 9.52232E-05-2.84294E-05-2.86257E-05 6.90923E-08-3.03084E-19 6.60489E-19
 -1      3856 9.52539E-05-2.85197E-05-2.86007E-05 1.31033E-08 5.62737E-19-6.22168E-19
 -1      3857 9.52512E-05-2.85038E-05-2.86057E-05 2.66020E-08 3.33083E-19-3.88380E-19
 -1      3858 9.52445E-05-2.84826E-05-2.86121E-05 3.37141E-08 3.80484E-19 2.77809E-19
 -1      3859 9.52590E-05-2.85446E-05-2.85920E-05-4.86844E-09 1.26044E-18 1.13712E-19
 -1      3860 9.52581E-05-2.85337E-05-2.85959E-05 3.77873E-09 9.74659E-19 3.29876E-20
 -1      3861 9.52565E-05-2.85201E-05-2.86012E-05 9.91119E-09 6.80382E-19 1.32499E-19
 -1      3862 9.52603E-05-2.85613E-05-2.85854E-05-1.57628E-08 3.15418E-19 1.34543E-18
 -1      3863 9.52605E-05-2.85540E-05-2.85883E-05-1.05946E-08 1.30127E-18 8.55332E-19
 -1      3864 9.52621E-05-2.85458E-05-2.85927E-05-5.40721E-09 1.11509E-18 1.36131E-18
 -1      3865 9.52592E-05-2.85719E-05-2.85803E-05-2.16764E-08-5.58492E-19 1.58772E-18
 -1      3866 9.52601E-05-2.85673E-05-2.85825E-05-1.89531E-08-5.58259E-19 1.58274E-18
 -1      3867 9.52634E-05-2.85628E-05-2.85860E-05-1.46340E-08-5.31398E-19 3.11363E-18
 -1      3868 9.52568E-05-2.85785E-05-2.85764E-05-2.41190E-08 1.64879E-19 2.21637E-18
 -1      3869 9.52580E-05-2.85756E-05-2.85781E-05-2.31328E-08-2.21543E-19 1.86623E-18
 -1      3870 9.52620E-05-2.85737E-05-2.85808E-05-1.95909E-08-4.04905E-19 2.71947E-18
 -1      3871 9.52543E-05-2.85821E-05-2.85738E-05-2.41378E-08-1.15033E-18 2.81030E-18
 -1      3872 9.52556E-05-2.85802E-05-2.85751E-05-2.42304E-08 3.27568E-20 2.81761E-18
 -1      3873 9.52598E-05-2.85798E-05-2.85772E-05-2.12721E-08-5.97870E-19 2.57611E-18
 -1      3874 9.52576E-05-2.85834E-05-2.85747E-05-2.12678E-08-4.36683E-19 2.97818E-18
 -1      3875 8.21181E-05-2.85643E-05-2.30637E-05-2.05043E-05 1.59342E-18-3.51677E-19
 -1      3876 8.79151E-05-2.94964E-05-2.49538E-05-1.71781E-05 1.51697E-18-6.90451E-19
 -1      3877 9.52601E-05-2.85882E-05-2.85737E-05-1.04962E-08 8.29971E-20-2.11996E-20
 -1      3878 9.52586E-05-2.85874E-05-2.85734E-05-1.42662E-08-2.96506E-19 2.60663E-18
 -1      3879 9.52626E-05-2.85867E-05-2.85754E-05-8.56686E-09-5.39412E-19-4.39046E-19
 -1      3880 6.10413E-05-1.36237E-05-2.02843E-05 1.18674E-05 1.30658E-18-4.86673E-18
 -1      3881 5.69764E-05-1.06515E-05-1.96991E-05 2.21793E-06 5.06806E-19-5.20420E-18
 -1      3882 9.05258E-05-2.96489E-05-2.60857E-05 1.53294E-05-1.79517E-18 9.01726E-19
 -1      3883 9.27355E-05-3.21758E-05-2.58413E-05 1.63960E-05-1.77526E-18 7.56023E-19
 -1      3884 8.43613E-05-2.90974E-05-2.35881E-05 1.99036E-05-2.87688E-18 1.33403E-18
 -1      3885 8.64821E-05-2.67257E-05-2.55601E-05 1.49047E-05-2.18137E-18 1.35495E-18
 -1      3886 7.71647E-05-2.46475E-05-2.25584E-05 1.76468E-05-2.62866E-18 9.20579E-19
 -1      3887 6.95916E-05-1.88919E-05-2.14098E-05 1.36796E-05-2.25057E-18 2.59658E-18
 -1      3888 7.88323E-05-2.35606E-05-2.38095E-05 1.49914E-05-2.04475E-18 8.66885E-19
 -1      3889 9.17912E-05-3.27966E-05-2.51584E-05 2.05719E-05 1.42996E-18-2.46804E-18
 -1      3890 5.73867E-05-1.13683E-05-1.97145E-05-6.22472E-06-3.72694E-20-5.09993E-18
 -1      3891 6.00700E-05-1.45579E-05-1.92737E-05-1.50733E-05-6.59236E-19-5.39766E-18
 -1      3892 6.76052E-05-1.70676E-05-2.15340E-05-1.54590E-05-8.95751E-19-4.76988E-18
 -1      3893 8.63580E-05-2.71063E-05-2.53910E-05-1.54495E-05 1.82936E-18-6.42405E-20
 -1      3894 7.32496E-05-2.23801E-05-2.15552E-05-1.75747E-05 1.40062E-18 3.56204E-19
 -1      3895 8.58201E-05-1.83087E-05-2.88902E-05-7.94774E-06 9.07879E-19-2.97596E-18
 -1      3896 8.23385E-05-1.60872E-05-2.84491E-05-7.65396E-06 6.99681E-19-3.37810E-18
 -1      3897 8.06561E-05-1.62825E-05-2.75690E-05-8.75007E-06 4.80852E-19-3.50298E-18
 -1      3898 8.83636E-05-2.14636E-05-2.86624E-05-9.52015E-06 5.90162E-19-2.64770E-18
 -1      3899 8.43653E-05-2.83313E-05-2.39325E-05-2.14499E-05-1.42153E-18-3.45265E-18
 -1      3900 9.00367E-05-2.99262E-05-2.56873E-05-1.85160E-05-1.15697E-18-2.45167E-18
 -1      3901 7.97586E-05-2.46648E-05-2.36004E-05-1.98338E-05-1.26292E-18-3.78284E-18
 -1      3902 9.10333E-05-2.97394E-05-2.62023E-05 1.73380E-05 8.24769E-19-2.50309E-18
 -1      3903 8.61990E-05-2.91094E-05-2.44655E-05 2.09593E-05 1.29218E-18-3.10622E-18
 -1      3904 8.16518E-05-2.48770E-05-2.42222E-05 1.90992E-05 1.19660E-18-3.51310E-18
 -1      3905 8.86918E-05-2.64104E-05-2.65669E-05 1.56080E-05 6.96630E-19-2.93510E-18
 -1      3906 8.21999E-05-1.75360E-05-2.76935E-05 9.20672E-06 4.32400E-20-3.63978E-18
 -1      3907 6.40732E-05-1.65661E-05-2.03930E-05 9.37595E-06-1.42441E-18 3.22105E-18
 -1      3908 6.11266E-05-1.41178E-05-1.98370E-05 2.57845E-06-6.32919E-19 2.75184E-18
 -1      3909 6.39509E-05-1.53695E-05-2.08063E-05-2.10219E-06 1.79664E-20 2.30409E-18
 -1      3910 6.92203E-05-1.75532E-05-2.21568E-05 8.48411E-06-1.32352E-18 2.07964E-18
 -1      3911 7.38997E-05-1.97537E-05-2.32842E-05 1.67074E-05 1.31339E-18-3.87381E-18
 -1      3912 6.71681E-05-1.62280E-05-2.16113E-05 1.49854E-05 1.36582E-18-4.26069E-18
 -1      3913 6.69620E-05-1.37891E-05-2.27009E-05 9.93394E-06 8.96763E-19-4.19395E-18
 -1      3914 7.22381E-05-2.06101E-05-2.21306E-05-1.38817E-05 1.18679E-18 7.07385E-19
 -1      3915 1.15325E-04-4.59879E-05-2.93200E-05-9.45341E-06-1.33757E-18 2.11692E-19
 -1      3916 9.52642E-05-2.85847E-05-2.85770E-05 1.05513E-08-4.08310E-19 5.84872E-19
 -1      3917 9.52652E-05-2.85850E-05-2.85773E-05 6.49037E-09-5.83786E-19 2.58559E-18
 -1      3918 8.27124E-05-2.42324E-05-2.49590E-05-1.42776E-05 1.51366E-18-6.33703E-19
 -1      3919 9.52596E-05-2.85823E-05-2.85760E-05 1.97718E-08-3.88852E-19-2.97785E-18
 -1      3920 9.52658E-05-2.85851E-05-2.85775E-05 2.09430E-09-3.51707E-19 1.49750E-18
 -1      3921 9.52658E-05-2.85851E-05-2.85775E-05-2.10520E-09-2.04248E-19-8.28851E-20
 -1      3922 9.52674E-05-2.85825E-05-2.85792E-05 4.36225E-09-3.21718E-19 1.37741E-18
 -1      3923 9.16927E-05-2.62738E-05-2.80191E-05-1.24160E-05 2.39452E-20-2.15125E-18
 -1      3924 8.98193E-05-2.37570E-05-2.82737E-05-1.11444E-05 2.27380E-19-2.48008E-18
 -1      3925 8.55129E-05-2.11024E-05-2.76583E-05-1.14333E-05 1.37306E-19-3.04818E-18
 -1      3926 9.52590E-05-2.85856E-05-2.85743E-05-1.68854E-08-4.67002E-20 2.68297E-18
 -1      3927 6.18739E-05-1.15452E-05-2.13806E-05-1.70586E-06 2.77691E-19-4.86410E-18
 -1      3928 6.99060E-05-1.06253E-05-2.54015E-05-1.70065E-06 4.50237E-19-4.28180E-18
 -1      3929 6.98578E-05-1.06128E-05-2.53948E-05 1.30276E-06 4.10935E-19-4.28461E-18
 -1      3930 9.70714E-05-3.40380E-05-2.70546E-05-1.66479E-05-7.94246E-19-1.34408E-18
 -1      3931 7.42624E-05-1.35854E-05-2.59609E-05-7.87437E-06 2.92991E-19-3.95083E-18
 -1      3932 7.16222E-05-1.19656E-05-2.56316E-05-5.60875E-06 2.58613E-19-4.10556E-18
 -1      3933 6.91523E-05-1.18296E-05-2.44889E-05-4.46194E-06 3.30118E-19-4.30722E-18
 -1      3934 9.52591E-05-2.85856E-05-2.85743E-05 1.69807E-08-4.19136E-19-2.40905E-18
 -1      3935 8.40013E-05-2.01751E-05-2.72917E-05 1.15005E-05 2.75380E-19-3.51519E-18
 -1      3936 8.53398E-05-2.27332E-05-2.67914E-05 1.34108E-05 5.18877E-19-3.24752E-18
 -1      3937 8.21403E-05-2.22272E-05-2.57854E-05 1.51005E-05 8.29770E-19-3.54396E-18
 -1      3938 7.77868E-05-1.60755E-05-2.65573E-05 9.98750E-06 3.57407E-19-3.93107E-18
 -1      3939 9.07817E-05-2.91775E-05-2.65079E-05-1.67893E-05-7.11397E-19-2.11451E-18
 -1      3940 9.42716E-05-3.00326E-05-2.74634E-05-1.45985E-05-3.53911E-19-1.83783E-18
 -1      3941 8.74927E-05-2.25797E-05-2.78437E-05 6.15769E-06-8.00440E-19 1.64280E-19
 -1      3942 8.69969E-05-2.25399E-05-2.76143E-05 6.90626E-06-8.05804E-19-2.72010E-19
 -1      3943 9.52625E-05-2.85831E-05-2.85769E-05 1.58242E-08 1.23374E-19-2.49322E-18
 -1      3944 9.52651E-05-2.85809E-05-2.85789E-05 1.35123E-08-5.65747E-19-7.13168E-19
 -1      3945 7.65996E-05-2.10898E-05-2.38514E-05-1.18475E-05 1.05037E-18-7.74307E-20
 -1      3946 7.86088E-05-2.06530E-05-2.49747E-05-9.57489E-06 7.14069E-19-5.88403E-19
 -1      3947 6.96151E-05-1.68050E-05-2.23878E-05-7.91724E-06 3.99078E-19 1.34093E-18
 -1      3948 8.07590E-05-2.08499E-05-2.57142E-05-8.46721E-06 9.30309E-19-7.52743E-19
 -1      3949 8.15904E-05-2.06364E-05-2.62117E-05-7.14015E-06 8.97318E-19-8.05082E-19
 -1      3950 7.66595E-05-1.82748E-05-2.48706E-05-5.62221E-06 5.29331E-19 2.08191E-19
 -1      3951 8.78116E-05-2.65582E-05-2.61848E-05-1.64518E-05-6.75251E-19-2.73839E-18
 -1      3952 8.16724E-05-2.37443E-05-2.48973E-05 1.33553E-05-2.02427E-18 4.83034E-19
 -1      3953 7.68928E-05-1.99741E-05-2.41862E-05 1.06545E-05-1.89137E-18 8.51081E-19
 -1      3954 8.31294E-05-2.31922E-05-2.57319E-05 1.15542E-05-1.52939E-18 7.93664E-19
 -1      3955 8.32328E-05-2.09311E-05-2.67309E-05-6.38968E-06 7.33384E-19-8.59378E-19
 -1      3956 8.40685E-05-2.10010E-05-2.70908E-05-5.48059E-06 8.93468E-19-6.40936E-19
 -1      3957 8.04276E-05-1.91679E-05-2.61606E-05-4.10810E-06 7.60531E-19-3.73714E-19
 -1      3958 8.53778E-05-2.13792E-05-2.74530E-05-4.96509E-06 8.71483E-19-1.20027E-18
 -1      3959 8.61578E-05-2.16130E-05-2.77068E-05-4.29970E-06 1.01884E-18-1.32143E-18
 -1      3960 8.33654E-05-2.00838E-05-2.70543E-05-3.09938E-06 2.62906E-19-5.11851E-19
 -1      3961 8.72254E-05-2.20407E-05-2.79570E-05-3.92806E-06 6.80590E-19-2.15697E-18
 -1      3962 8.79248E-05-2.23650E-05-2.81303E-05-3.41695E-06 4.58531E-19-2.28230E-18
 -1      3963 8.57270E-05-2.10374E-05-2.76745E-05-2.40475E-06 7.43106E-20-2.50135E-18
 -1      3964 8.88046E-05-2.28116E-05-2.82997E-05-3.13549E-06 6.79398E-19-2.68015E-18
 -1      3965 8.94141E-05-2.31761E-05-2.84131E-05-2.72754E-06 6.96568E-19-3.00857E-18
 -1      3966 8.76574E-05-2.20029E-05-2.80994E-05-1.89740E-06 5.88721E-20-3.61931E-18
 -1      3967 9.01406E-05-2.36170E-05-2.85239E-05-2.50636E-06 7.72065E-19-3.09993E-18
 -1      3968 9.06595E-05-2.39869E-05-2.85937E-05-2.17252E-06 7.73901E-19-2.98421E-18
 -1      3969 8.92475E-05-2.29493E-05-2.83837E-05-1.50723E-06 2.67699E-19-3.02929E-18
 -1      3970 9.12568E-05-2.44034E-05-2.86625E-05-1.99482E-06 3.48058E-19-3.29566E-18
 -1      3971 9.16897E-05-2.47558E-05-2.87014E-05-1.71844E-06-3.14600E-20-3.12384E-18
 -1      3972 9.05568E-05-2.38468E-05-2.85664E-05-1.19638E-06 4.12699E-19-2.89880E-18
 -1      3973 9.21763E-05-2.51354E-05-2.87406E-05-1.57434E-06-1.39025E-19-3.26111E-18
 -1      3974 9.25306E-05-2.54564E-05-2.87582E-05-1.34529E-06-2.17316E-19-3.34184E-18
 -1      3975 9.16281E-05-2.46718E-05-2.86770E-05-9.43870E-07-3.76093E-19-3.01950E-18
 -1      3976 9.29224E-05-2.57918E-05-2.87771E-05-1.22842E-06-1.15994E-19-3.16132E-18
 -1      3977 9.32071E-05-2.60743E-05-2.87807E-05-1.03975E-06-1.82755E-22-2.88264E-18
 -1      3978 9.24957E-05-2.54086E-05-2.87370E-05-7.37354E-07-2.10259E-21-3.33252E-18
 -1      3979 9.35184E-05-2.63630E-05-2.87862E-05-9.45558E-07 9.78352E-20-2.92860E-18
 -1      3980 9.37431E-05-2.66047E-05-2.87810E-05-7.91763E-07-3.07522E-19-2.60841E-18
 -1      3981 9.31895E-05-2.60499E-05-2.87627E-05-5.68825E-07 2.02757E-19-2.36982E-18
 -1      3982 9.39867E-05-2.68476E-05-2.87779E-05-7.16631E-07-2.36481E-19-1.66661E-18
 -1      3983 9.41611E-05-2.70494E-05-2.87678E-05-5.92889E-07 1.04243E-19-8.43909E-19
 -1      3984 9.37366E-05-2.65951E-05-2.87661E-05-4.32382E-07 5.43039E-19-1.42397E-18
 -1      3985 9.43487E-05-2.72494E-05-2.87598E-05-5.33725E-07-1.98078E-19-4.28452E-19
 -1      3986 9.44815E-05-2.74145E-05-2.87473E-05-4.35601E-07 6.65994E-20 4.78190E-19
 -1      3987 9.41614E-05-2.70490E-05-2.87558E-05-3.23177E-07 5.29507E-19-1.62706E-19
 -1      3988 9.46236E-05-2.75760E-05-2.87368E-05-3.89686E-07-2.25304E-19-1.52176E-19
 -1      3989 9.47229E-05-2.77084E-05-2.87237E-05-3.13080E-07-5.58345E-19-5.83668E-19
 -1      3990 9.44859E-05-2.74194E-05-2.87378E-05-2.36955E-07-4.48636E-19-6.40710E-19
 -1      3991 9.48285E-05-2.78365E-05-2.87124E-05-2.78011E-07-5.85842E-19-1.10963E-18
 -1      3992 9.49012E-05-2.79406E-05-2.86997E-05-2.19179E-07-5.68005E-19-6.95714E-19
 -1      3993 9.47293E-05-2.77161E-05-2.87163E-05-1.69898E-07-4.61969E-19-1.93165E-18
 -1      3994 9.49780E-05-2.80403E-05-2.86886E-05-1.92856E-07-1.66765E-19 2.92057E-20
 -1      3995 9.50300E-05-2.81208E-05-2.86770E-05-1.48454E-07 1.47649E-19 3.46692E-19
 -1      3996 9.49083E-05-2.79494E-05-2.86940E-05-1.18586E-07-1.16679E-19-1.21010E-18
 -1      3997 9.50845E-05-2.81971E-05-2.86668E-05-1.29070E-07-8.67389E-19 8.17741E-19
 -1      3998 9.51207E-05-2.82581E-05-2.86566E-05-9.61847E-08-1.40096E-18 6.32848E-19
 -1      3999 9.50371E-05-2.81297E-05-2.86728E-05-8.00032E-08-2.83809E-19-1.32238E-18
 -1      4000 9.51582E-05-2.83153E-05-2.86475E-05-8.22130E-08-1.66558E-18 8.37186E-19
 -1      4001 9.51825E-05-2.83607E-05-2.86387E-05-5.83591E-08-1.41302E-18 9.34805E-19
 -1      4002 9.51273E-05-2.82664E-05-2.86534E-05-5.15396E-08-1.00010E-18-4.73934E-19
 -1      4003 9.52074E-05-2.84027E-05-2.86309E-05-4.85369E-08-1.37266E-19 1.24222E-18
 -1      4004 9.52229E-05-2.84357E-05-2.86236E-05-3.16429E-08 9.50737E-19 1.11417E-18
 -1      4005 9.51883E-05-2.83681E-05-2.86364E-05-3.09838E-08-2.42209E-19 8.02357E-19
 -1      4006 9.52386E-05-2.84659E-05-2.86170E-05-2.49438E-08 7.43236E-19 3.67942E-19
 -1      4007 9.52478E-05-2.84894E-05-2.86111E-05-1.33179E-08 1.00401E-18 2.65221E-19
 -1      4008 9.52278E-05-2.84421E-05-2.86220E-05-1.65004E-08-1.20593E-19 5.54278E-19
 -1      4009 9.52568E-05-2.85105E-05-2.86056E-05-8.92388E-09 1.03559E-18-4.71730E-19
 -1      4010 9.52615E-05-2.85267E-05-2.86008E-05-1.21197E-09 1.04749E-18-8.46475E-19
 -1      4011 9.52517E-05-2.84947E-05-2.86099E-05-6.59606E-09 1.23762E-19-9.05825E-19
 -1      4012 9.52659E-05-2.85410E-05-2.85964E-05 1.51643E-09 7.10206E-19-1.16295E-18
 -1      4013 9.52677E-05-2.85518E-05-2.85926E-05 6.37983E-09-7.82420E-19-1.40746E-18
 -1      4014 9.52646E-05-2.85310E-05-2.86000E-05-7.97473E-11 4.57652E-19-2.56343E-18
 -1      4015 9.52690E-05-2.85612E-05-2.85890E-05 7.92617E-09-1.60551E-18 1.39479E-19
 -1      4016 9.52688E-05-2.85681E-05-2.85860E-05 1.07196E-08-1.17299E-18-6.09431E-19
 -1      4017 9.52699E-05-2.85553E-05-2.85920E-05 3.97098E-09-1.07007E-19-1.69995E-18
 -1      4018 9.52681E-05-2.85733E-05-2.85834E-05 1.15787E-08-8.28784E-19-6.90499E-20
 -1      4019 9.52669E-05-2.85778E-05-2.85810E-05 1.29916E-08-2.30269E-19-5.81179E-19
 -1      4020 9.52682E-05-2.85791E-05-2.85811E-05 7.89888E-09-1.21322E-18 1.24988E-18
 -1      4021 9.52704E-05-2.85702E-05-2.85858E-05 6.41637E-09-9.41401E-19-1.53963E-19
 -1      4022 7.14064E-05-1.17205E-05-2.56579E-05 5.15333E-06 5.17198E-19-4.07103E-18
 -1      4023 7.40525E-05-1.33105E-05-2.59716E-05 7.57896E-06 3.89764E-19-4.02445E-18
 -1      4024 7.52496E-05-1.57063E-05-2.54520E-05 1.03840E-05 5.23882E-19-3.90159E-18
 -1      4025 6.91932E-05-1.17020E-05-2.45303E-05 3.91727E-06 5.13613E-19-4.11798E-18
 -1      4026 8.60357E-05-2.24627E-05-2.72800E-05 7.75777E-06-7.29295E-19 5.20621E-19
 -1      4027 8.56608E-05-2.27001E-05-2.69725E-05 8.74932E-06-6.52740E-19 1.14636E-18
 -1      4028 8.49844E-05-2.15039E-05-2.71790E-05 6.46069E-06-3.05911E-19 5.98961E-19
 -1      4029 8.35482E-05-2.24049E-05-2.62096E-05 1.00553E-05-1.22617E-18 8.54899E-19
 -1      4030 9.00743E-05-2.36195E-05-2.84948E-05 3.95368E-06-7.73265E-19 4.04336E-19
 -1      4031 8.95970E-05-2.33394E-05-2.83933E-05 4.43303E-06-1.37941E-18-4.35908E-19
 -1      4032 9.11353E-05-2.42927E-05-2.86582E-05 3.16233E-06-3.05553E-19 9.41736E-19
 -1      4033 9.07102E-05-2.39795E-05-2.85976E-05 3.55972E-06-1.61246E-19 8.11010E-19
 -1      4034 8.97377E-05-2.33364E-05-2.84437E-05 3.20403E-06-7.99933E-19-2.52639E-19
 -1      4035 9.20348E-05-2.49680E-05-2.87522E-05 2.51061E-06-6.66077E-19 6.59585E-19
 -1      4036 9.16705E-05-2.46542E-05-2.87206E-05 2.84247E-06-4.10616E-19 9.63926E-19
 -1      4037 9.08990E-05-2.41010E-05-2.86162E-05 2.55121E-06-1.67821E-19 1.12668E-18
 -1      4038 9.27809E-05-2.56035E-05-2.87979E-05 1.97229E-06 3.05458E-19-4.58699E-19
 -1      4039 9.24777E-05-2.53091E-05-2.87861E-05 2.24890E-06-3.39547E-19-5.62283E-19
 -1      4040 9.18681E-05-2.48377E-05-2.87179E-05 2.01837E-06 2.31197E-19 7.01981E-20
 -1      4041 9.33875E-05-2.61757E-05-2.88113E-05 1.52965E-06 2.82693E-19 4.06276E-20
 -1      4042 9.31413E-05-2.59115E-05-2.88123E-05 1.75837E-06 2.86066E-19-7.02888E-19
 -1      4043 9.26637E-05-2.55154E-05-2.87703E-05 1.58112E-06 2.58971E-19-7.39043E-19
 -1      4044 9.38716E-05-2.66736E-05-2.88041E-05 1.16904E-06 2.66287E-19 6.34642E-19
 -1      4045 9.36759E-05-2.64446E-05-2.88130E-05 1.35597E-06 3.50157E-19 5.85752E-19
 -1      4046 9.33060E-05-2.61167E-05-2.87894E-05 1.22330E-06-1.83287E-20-2.00010E-19
 -1      4047 9.42510E-05-2.70952E-05-2.87850E-05 8.78830E-07-1.36628E-19 1.00134E-19
 -1      4048 9.40985E-05-2.69020E-05-2.87980E-05 1.02952E-06 3.89259E-19 5.89561E-19
 -1      4049 9.38159E-05-2.66350E-05-2.87871E-05 9.32857E-07 5.74499E-19-1.39629E-19
 -1      4050 9.45429E-05-2.74438E-05-2.87598E-05 6.48529E-07 6.50941E-19-1.03727E-19
 -1      4051 9.44264E-05-2.72846E-05-2.87745E-05 7.68193E-07-1.09843E-19-4.64235E-19
 -1      4052 9.42140E-05-2.70708E-05-2.87720E-05 6.99796E-07 3.41310E-19-4.20051E-19
 -1      4053 9.47633E-05-2.77262E-05-2.87326E-05 4.68517E-07-4.06709E-19 5.61218E-19
 -1      4054 9.46761E-05-2.75977E-05-2.87474E-05 5.62056E-07 4.82707E-19 7.16815E-19
 -1      4055 9.45193E-05-2.74293E-05-2.87501E-05 5.15285E-07-3.19987E-20 4.92670E-20
 -1      4056 9.49266E-05-2.79505E-05-2.87059E-05 3.30063E-07-1.23153E-19 7.32687E-19
 -1      4057 9.48626E-05-2.78488E-05-2.87198E-05 4.01982E-07-1.82859E-19 5.97191E-19
 -1      4058 9.47493E-05-2.77184E-05-2.87255E-05 3.71366E-07-5.03869E-19 1.14090E-19
 -1      4059 9.50448E-05-2.81254E-05-2.86811E-05 2.25386E-07-7.43651E-20 1.14355E-18
 -1      4060 9.49990E-05-2.80463E-05-2.86936E-05 2.79724E-07-2.37677E-19 5.35330E-19
 -1      4061 9.49190E-05-2.79472E-05-2.87008E-05 2.60886E-07-1.76404E-19 6.67213E-19
 -1      4062 9.51282E-05-2.82592E-05-2.86591E-05 1.47697E-07-2.41946E-19 1.46440E-18
 -1      4063 9.50964E-05-2.81989E-05-2.86700E-05 1.87990E-07 1.98935E-19 1.74668E-18
 -1      4064 9.50416E-05-2.81249E-05-2.86775E-05 1.77515E-07-4.58701E-20 1.10187E-18
 -1      4065 9.51852E-05-2.83597E-05-2.86403E-05 9.12090E-08-8.04478E-19 7.51819E-19
 -1      4066 9.51639E-05-2.83146E-05-2.86494E-05 1.20475E-07-4.53529E-19 1.05156E-18
 -1      4067 9.51279E-05-2.82605E-05-2.86567E-05 1.15759E-07-1.47123E-19 1.85921E-18
 -1      4068 9.52227E-05-2.84336E-05-2.86244E-05 5.10855E-08-5.03859E-19 6.33313E-19
 -1      4069 9.52090E-05-2.84005E-05-2.86320E-05 7.18447E-08-6.81581E-19 6.69920E-19
 -1      4070 9.51866E-05-2.83619E-05-2.86387E-05 7.09480E-08-2.85199E-19 8.52367E-19
 -1      4071 9.52458E-05-2.84867E-05-2.86114E-05 2.33705E-08 2.69398E-19 6.32752E-19
 -1      4072 9.52377E-05-2.84630E-05-2.86175E-05 3.76846E-08-1.85028E-19 1.14713E-18
 -1      4073 9.52249E-05-2.84361E-05-2.86234E-05 3.91944E-08-3.05250E-19 1.02193E-18
 -1      4074 9.52588E-05-2.85239E-05-2.86009E-05 4.88969E-09 4.41845E-19 1.52942E-18
 -1      4075 9.52546E-05-2.85074E-05-2.86058E-05 1.44106E-08 2.29048E-19 1.30761E-18
 -1      4076 9.52483E-05-2.84893E-05-2.86108E-05 1.73235E-08 3.59946E-19 1.52933E-18
 -1      4077 9.52647E-05-2.85491E-05-2.85925E-05-6.85376E-09 3.42079E-19 2.49999E-18
 -1      4078 9.52631E-05-2.85380E-05-2.85964E-05-8.28676E-10 8.97830E-19 1.91813E-18
 -1      4079 9.52612E-05-2.85263E-05-2.86006E-05 2.79417E-09 2.55175E-19 2.68614E-18
 -1      4080 9.52660E-05-2.85657E-05-2.85859E-05-1.37848E-08-1.05632E-18 3.52495E-18
 -1      4081 9.52661E-05-2.85584E-05-2.85889E-05-1.02569E-08-4.94841E-19 3.64969E-18
 -1      4082 9.52669E-05-2.85513E-05-2.85923E-05-6.38828E-09-7.67764E-19 3.54517E-18
 -1      4083 9.52644E-05-2.85761E-05-2.85807E-05-1.74011E-08-2.05128E-19 3.51916E-18
 -1      4084 9.52655E-05-2.85715E-05-2.85831E-05-1.55685E-08-3.21991E-19 4.16563E-18
 -1      4085 9.52678E-05-2.85676E-05-2.85858E-05-1.17455E-08-1.36512E-18 4.64641E-18
 -1      4086 8.16628E-05-1.85369E-05-2.70148E-05-1.09554E-05 2.23378E-19-3.40173E-18
 -1      4087 7.75822E-05-1.59605E-05-2.64830E-05-9.99704E-06 1.84741E-19-3.71776E-18
 -1      4088 7.46184E-05-1.56260E-05-2.52932E-05-1.04981E-05-2.53498E-20-3.82358E-18
 -1      4089 8.28243E-05-2.08111E-05-2.65424E-05-1.29175E-05-1.03695E-19-3.45637E-18
 -1      4090 9.52652E-05-2.85850E-05-2.85773E-05-6.47137E-09-2.73047E-19-7.13095E-19
 -1      4091 9.52641E-05-2.85846E-05-2.85769E-05-1.05127E-08-3.74104E-19 1.07266E-18
 -1      4092 9.52673E-05-2.85825E-05-2.85792E-05-4.27842E-09-1.76313E-19-4.71103E-19
 -1      4093 8.88537E-05-2.30148E-05-2.82347E-05 4.92764E-06-7.47811E-19-6.11658E-20
 -1      4094 8.83466E-05-2.28180E-05-2.80779E-05 5.51704E-06-3.35428E-19 9.37671E-21
 -1      4095 8.67806E-05-2.19453E-05-2.77664E-05 5.06123E-06-4.70948E-19 1.24527E-19
 -1      4096 8.83688E-05-2.25935E-05-2.81726E-05 4.01725E-06-6.51382E-19-3.34395E-19
 -1      4097 6.45344E-05-1.10624E-05-2.29179E-05 2.87545E-06 6.07276E-19-4.46905E-18
 -1      4098 6.48574E-05-1.15033E-05-2.28734E-05-4.65548E-06 1.45314E-19-4.55999E-18
 -1      4099 9.52626E-05-2.85846E-05-2.85763E-05-1.40653E-08 3.10963E-19 2.04983E-18
 -1      4100 9.52601E-05-2.85838E-05-2.85756E-05-1.80967E-08-1.87487E-19 2.71814E-18
 -1      4101 9.52613E-05-2.85821E-05-2.85768E-05-1.83874E-08-9.59774E-20 3.36800E-18
 -1      4102 9.52652E-05-2.85825E-05-2.85783E-05-1.19857E-08 4.00635E-19 8.45560E-19
 -1      4103 7.50517E-05-2.07661E-05-2.30899E-05-1.82990E-05-1.03517E-18-4.25832E-18
 -1      4104 8.16817E-05-2.35867E-05-2.48526E-05-1.71427E-05-9.58438E-19-3.57118E-18
 -1      4105 8.31024E-05-2.31035E-05-2.57381E-05-1.54371E-05-4.88090E-19-3.26087E-18
 -1      4106 6.98960E-05-1.64365E-05-2.29247E-05-1.33880E-05-4.55757E-19-4.39809E-18
 -1      4107 6.75441E-05-1.31264E-05-2.32052E-05-9.01141E-06-2.86850E-20-4.38044E-18
 -1      4108 7.83503E-05-2.08779E-05-2.46010E-05 1.55570E-05 9.51357E-19-3.73537E-18
 -1      4109 9.26567E-05-2.74281E-05-2.79218E-05-1.30294E-05-5.48776E-20-1.99949E-18
 -1      4110 9.52691E-05-2.85795E-05-2.85813E-05 3.70282E-09-9.52627E-19 2.74479E-19
 -1      4111 6.90610E-05-1.62828E-05-2.26876E-05-2.10700E-06-3.53438E-20 1.47935E-18
 -1      4112 9.52625E-05-2.85801E-05-2.85781E-05-1.80730E-08-1.70671E-19 3.13590E-18
 -1      4113 7.35712E-05-1.64219E-05-2.45300E-05-1.20761E-05-3.09868E-19-3.99588E-18
 -1      4114 9.52655E-05-2.85784E-05-2.85802E-05-1.45068E-08-2.98441E-20 3.16731E-18
 -1      4115 1.02972E-04-4.01313E-05-2.72067E-05-1.69023E-05-1.59821E-18-5.22745E-19
 -1      4116 8.19994E-05-2.10443E-05-2.60791E-05 8.37764E-06-1.44584E-18 1.23292E-18
 -1      4117 6.68313E-05-1.23741E-05-2.32726E-05 7.14118E-06 7.43925E-19-4.21643E-18
 -1      4118 7.30560E-05-1.84170E-05-2.35157E-05 8.22272E-06-1.63404E-18 1.21081E-18
 -1      4119 6.94281E-05-1.61572E-05-2.26747E-05 4.18701E-06-5.86852E-19 1.54471E-18
 -1      4120 7.62462E-05-1.89711E-05-2.45952E-05 7.32806E-06-1.61336E-18 9.37100E-19
 -1      4121 7.42123E-05-1.74124E-05-2.43342E-05-3.07651E-06-2.13245E-19 1.05453E-18
 -1      4122 7.65533E-05-1.80365E-05-2.51473E-05-2.49597E-06 1.20967E-19 5.38953E-19
 -1      4123 7.88513E-05-1.86364E-05-2.58242E-05-2.24629E-06 2.12172E-19-7.36595E-19
 -1      4124 8.05000E-05-1.91079E-05-2.63591E-05-1.82640E-06 1.93411E-19-1.10257E-18
 -1      4125 7.73033E-05-1.79018E-05-2.53931E-05 1.12510E-07-8.37730E-19-6.81868E-19
 -1      4126 8.21948E-05-1.96520E-05-2.68229E-05-1.67628E-06 2.04359E-19-1.53454E-18
 -1      4127 8.35143E-05-2.01368E-05-2.71943E-05-1.39917E-06-5.35668E-19-2.16784E-18
 -1      4128 8.11237E-05-1.91037E-05-2.65284E-05 5.79586E-08-4.63728E-19-2.42527E-18
 -1      4129 8.48289E-05-2.06632E-05-2.75143E-05-1.29497E-06-7.64088E-19-1.66701E-18
 -1      4130 8.58988E-05-2.11537E-05-2.77706E-05-1.09867E-06-1.25376E-19-2.61411E-18
 -1      4131 8.40169E-05-2.02082E-05-2.73102E-05 3.42191E-08-3.57650E-19-2.24988E-18
 -1      4132 8.69507E-05-2.16679E-05-2.79896E-05-1.02145E-06-3.35438E-19-2.83975E-18
 -1      4133 8.78294E-05-2.21533E-05-2.81633E-05-8.72341E-07-5.15747E-22-2.67175E-18
 -1      4134 8.63100E-05-2.12679E-05-2.78484E-05 1.99893E-08-3.70808E-19-1.80011E-18
 -1      4135 8.86844E-05-2.26481E-05-2.83101E-05-8.13640E-07 2.06689E-19-2.88912E-18
 -1      4136 8.94087E-05-2.31143E-05-2.84242E-05-6.94282E-07 1.57025E-19-2.59618E-18
 -1      4137 8.81693E-05-2.22894E-05-2.82138E-05 1.11790E-08 2.13998E-20-2.29487E-18
 -1      4138 9.01066E-05-2.35786E-05-2.85190E-05-6.49035E-07 7.11117E-19-2.98693E-18
 -1      4139 9.07015E-05-2.40128E-05-2.85903E-05-5.50393E-07 2.49189E-19-2.68920E-18
 -1      4140 8.96897E-05-2.32571E-05-2.84551E-05 5.71790E-09 4.62953E-19-3.34971E-18
 -1      4141 9.12694E-05-2.44368E-05-2.86481E-05-5.15343E-07-8.04706E-20-1.71878E-18
 -1      4142 9.17540E-05-2.48295E-05-2.86892E-05-4.32671E-07-1.70711E-19-1.57154E-18
 -1      4143 9.09323E-05-2.41519E-05-2.86076E-05 2.42887E-09 5.47398E-19-2.56605E-18
 -1      4144 9.22122E-05-2.52065E-05-2.87212E-05-4.05581E-07-3.75688E-19-1.18846E-18
 -1      4145 9.26024E-05-2.55522E-05-2.87415E-05-3.36212E-07-5.57058E-20-1.21297E-18
 -1      4146 9.19416E-05-2.49583E-05-2.86972E-05 5.54220E-10-4.23153E-20-4.85196E-19
 -1      4147 9.29681E-05-2.58794E-05-2.87558E-05-3.15439E-07 2.99405E-19-1.49106E-18
 -1      4148 9.32780E-05-2.61765E-05-2.87622E-05-2.57635E-07 4.11467E-19-1.08261E-18
 -1      4149 9.27530E-05-2.56672E-05-2.87433E-05-4.20537E-10-1.02315E-19-4.57745E-19
 -1      4150 9.35660E-05-2.64541E-05-2.87649E-05-2.41896E-07 8.46718E-19-1.04672E-18
 -1      4151 9.38085E-05-2.67037E-05-2.87626E-05-1.94281E-07 1.18126E-18-9.60510E-19
 -1      4152 9.33972E-05-2.62760E-05-2.87602E-05-8.45065E-10 8.00293E-19-2.33116E-19
 -1      4153 9.40319E-05-2.69344E-05-2.87582E-05-1.82540E-07 3.58453E-19-8.14403E-19
 -1      4154 9.42188E-05-2.71399E-05-2.87507E-05-1.43863E-07 5.96202E-20-7.47843E-19
 -1      4155 9.39015E-05-2.67877E-05-2.87584E-05-9.51874E-10 4.59922E-19 2.41305E-20
 -1      4156 9.43893E-05-2.73279E-05-2.87422E-05-1.35266E-07-6.73871E-19-6.50137E-19
 -1      4157 9.45308E-05-2.74940E-05-2.87320E-05-1.04328E-07-1.07592E-18-9.20692E-19
 -1      4158 9.42901E-05-2.72092E-05-2.87454E-05-8.90587E-10-6.24116E-19-1.51343E-18
 -1      4159 9.46587E-05-2.76443E-05-2.87216E-05-9.81712E-08-9.75282E-19-1.11538E-18
 -1      4160 9.47638E-05-2.77760E-05-2.87105E-05-7.38161E-08-6.69758E-19-1.24534E-18
 -1      4161 9.45845E-05-2.75500E-05-2.87264E-05-7.53504E-10-1.02404E-18-1.21398E-18
 -1      4162 9.48579E-05-2.78941E-05-2.86996E-05-6.95246E-08-2.52757E-19-1.49619E-18
 -1      4163 9.49344E-05-2.79967E-05-2.86886E-05-5.06683E-08 7.62408E-20-1.13700E-18
 -1      4164 9.48036E-05-2.78205E-05-2.87051E-05-5.94480E-10-7.86761E-19-1.23419E-18
 -1      4165 9.50021E-05-2.80879E-05-2.86781E-05-4.77764E-08-2.02869E-19-1.29527E-18
 -1      4166 9.50564E-05-2.81664E-05-2.86679E-05-3.34283E-08-5.44071E-19-9.92396E-19
 -1      4167 9.49632E-05-2.80314E-05-2.86837E-05-4.42475E-10-2.69463E-19-1.26628E-18
 -1      4168 9.51038E-05-2.82354E-05-2.86583E-05-3.15655E-08-5.13534E-19 3.34734E-19
 -1      4169 9.51412E-05-2.82943E-05-2.86492E-05-2.08470E-08 1.46132E-19 1.06999E-18
 -1      4170 9.50767E-05-2.81928E-05-2.86635E-05-3.10997E-10 4.12475E-19-2.98549E-19
 -1      4171 9.51733E-05-2.83456E-05-2.86407E-05-1.97232E-08-1.46782E-19 1.32048E-18
 -1      4172 9.51981E-05-2.83889E-05-2.86329E-05-1.18755E-08-3.37266E-19 1.09809E-18
 -1      4173 9.51551E-05-2.83142E-05-2.86454E-05-2.04461E-10 1.79504E-19 8.14511E-19
 -1      4174 9.52189E-05-2.84261E-05-2.86256E-05-1.12673E-08-7.51509E-19 7.94309E-19
 -1      4175 9.52345E-05-2.84573E-05-2.86190E-05-5.65094E-09-7.63346E-19 2.91121E-19
 -1      4176 9.52072E-05-2.84035E-05-2.86297E-05-1.22322E-10-5.50880E-19 1.21544E-18
 -1      4177 9.52470E-05-2.84837E-05-2.86129E-05-5.38977E-09-1.50511E-18 8.66749E-20
 -1      4178 9.52560E-05-2.85055E-05-2.86075E-05-1.47806E-09-6.36357E-19-9.12707E-19
 -1      4179 9.52400E-05-2.84678E-05-2.86164E-05-6.17039E-11-1.58632E-18 9.77289E-19
 -1      4180 9.52627E-05-2.85237E-05-2.86025E-05-1.43922E-09-1.08925E-19-1.80906E-18
 -1      4181 9.52671E-05-2.85385E-05-2.85980E-05 1.19209E-09-1.10602E-19-2.21300E-18
 -1      4182 9.52590E-05-2.85128E-05-2.86054E-05-1.90825E-11-1.34501E-18-6.05104E-19
 -1      4183 9.52699E-05-2.85506E-05-2.85940E-05 1.10737E-09 5.85749E-19-2.70075E-18
 -1      4184 9.52712E-05-2.85603E-05-2.85904E-05 2.76408E-09 1.00775E-18-1.40046E-18
 -1      4185 9.52685E-05-2.85435E-05-2.85963E-05 7.75224E-12 9.25637E-20-1.79219E-18
 -1      4186 9.52714E-05-2.85673E-05-2.85875E-05 2.74233E-09 2.05633E-19-1.22168E-18
 -1      4187 9.52709E-05-2.85728E-05-2.85849E-05 3.94081E-09-1.07440E-18-1.39855E-18
 -1      4188 9.52714E-05-2.85627E-05-2.85894E-05 2.10023E-10 4.01490E-19-2.19765E-18
 -1      4189 7.10203E-05-1.46079E-05-2.43209E-05 1.03462E-05 8.13830E-19-3.87556E-18
 -1      4190 9.17834E-05-2.48278E-05-2.87035E-05 1.45542E-06 1.43296E-18-1.14459E-18
 -1      4191 9.13399E-05-2.44604E-05-2.86648E-05 1.67005E-06 7.02275E-19-2.03342E-19
 -1      4192 9.07667E-05-2.40514E-05-2.86025E-05 1.84718E-06 1.43832E-19-4.41403E-19
 -1      4193 9.02300E-05-2.36571E-05-2.85337E-05 2.10736E-06-4.38565E-19-3.74566E-19
 -1      4194 9.07811E-05-2.40306E-05-2.85939E-05 1.25290E-06 7.36293E-19-1.44380E-18
 -1      4195 8.95322E-05-2.32208E-05-2.84323E-05 2.32822E-06-8.92159E-19 1.92656E-19
 -1      4196 8.88932E-05-2.28174E-05-2.83209E-05 2.64730E-06-8.51987E-19-2.89967E-19
 -1      4197 8.95261E-05-2.31571E-05-2.84269E-05 1.58444E-06-3.67837E-19-6.48941E-19
 -1      4198 9.26104E-05-2.55282E-05-2.87561E-05 1.13503E-06 9.82248E-20-9.46235E-19
 -1      4199 9.22498E-05-2.51981E-05-2.87381E-05 1.31228E-06 1.09400E-18-4.46641E-19
 -1      4200 9.18077E-05-2.48319E-05-2.86932E-05 9.84436E-07 1.11641E-18-1.18729E-18
 -1      4201 9.32736E-05-2.61415E-05-2.87762E-05 8.73947E-07 2.28630E-20-8.53175E-19
 -1      4202 9.29853E-05-2.58537E-05-2.87719E-05 1.01947E-06 1.83485E-20-3.69382E-19
 -1      4203 9.26382E-05-2.55457E-05-2.87455E-05 7.65876E-07-1.00969E-19-1.02653E-18
 -1      4204 9.37974E-05-2.66649E-05-2.87753E-05 6.63002E-07 6.63003E-19-6.41546E-19
 -1      4205 9.35708E-05-2.64203E-05-2.87796E-05 7.81258E-07 5.83774E-19-7.15950E-19
 -1      4206 9.33014E-05-2.61653E-05-2.87660E-05 5.88417E-07 2.39853E-19-7.08258E-19
 -1      4207 9.42047E-05-2.71016E-05-2.87618E-05 4.94550E-07 9.72520E-20-4.69233E-19
 -1      4208 9.40295E-05-2.68984E-05-2.87710E-05 5.89420E-07 6.01277E-19-5.89781E-19
 -1      4209 9.38232E-05-2.66905E-05-2.87660E-05 4.45464E-07 5.30240E-19-1.18417E-18
 -1      4210 9.45160E-05-2.74585E-05-2.87415E-05 3.61851E-07-3.97166E-20-3.36644E-19
 -1      4211 9.43829E-05-2.72931E-05-2.87531E-05 4.36875E-07-4.57437E-19-1.64877E-19
 -1      4212 9.42274E-05-2.71265E-05-2.87537E-05 3.31592E-07-3.55141E-19-6.94870E-19
 -1      4213 9.47496E-05-2.77447E-05-2.87184E-05 2.58875E-07-4.44073E-19-3.03321E-19
 -1      4214 9.46505E-05-2.76126E-05-2.87307E-05 3.17293E-07 7.75544E-21-3.09742E-19
 -1      4215 9.45354E-05-2.74812E-05-2.87346E-05 2.42086E-07-2.62395E-19-9.08796E-19
 -1      4216 9.49215E-05-2.79699E-05-2.86951E-05 1.80243E-07-2.64143E-19 6.47888E-19
 -1      4217 9.48493E-05-2.78664E-05-2.87070E-05 2.24994E-07-1.21332E-19 4.20205E-19
 -1      4218 9.47657E-05-2.77646E-05-2.87126E-05 1.72765E-07-6.41320E-19-4.20779E-20
 -1      4219 9.50452E-05-2.81441E-05-2.86730E-05 1.21239E-07-1.88300E-19 1.15474E-18
 -1      4220 9.49938E-05-2.80644E-05-2.86840E-05 1.54926E-07-2.17596E-19 6.09156E-19
 -1      4221 9.49346E-05-2.79868E-05-2.86903E-05 1.19933E-07-1.02866E-19 9.94491E-19
 -1      4222 9.51318E-05-2.82762E-05-2.86532E-05 7.77990E-08 1.69378E-19 1.21688E-18
 -1      4223 9.50962E-05-2.82160E-05-2.86629E-05 1.02682E-07 3.63984E-19 8.68064E-19
 -1      4224 9.50556E-05-2.81580E-05-2.86693E-05 8.03630E-08 1.14724E-19 2.70895E-19
 -1      4225 9.51905E-05-2.83745E-05-2.86360E-05 4.64950E-08-2.68863E-19 6.85538E-19
 -1      4226 9.51668E-05-2.83299E-05-2.86443E-05 6.44913E-08-1.55596E-20 8.71634E-19
 -1      4227 9.51398E-05-2.82875E-05-2.86503E-05 5.12875E-08 1.96458E-19 4.05703E-20
 -1      4228 9.52284E-05-2.84461E-05-2.86214E-05 2.44910E-08 1.07927E-19-9.40062E-20
 -1      4229 9.52135E-05-2.84138E-05-2.86284E-05 3.71935E-08-3.86342E-19 5.81729E-19
 -1      4230 9.51965E-05-2.83834E-05-2.86337E-05 3.03798E-08-2.35993E-20-1.21805E-19
 -1      4231 9.52514E-05-2.84970E-05-2.86093E-05 9.48661E-09 9.18986E-20 1.99974E-18
 -1      4232 9.52427E-05-2.84741E-05-2.86150E-05 1.81913E-08 1.41093E-19 9.66834E-19
 -1      4233 9.52329E-05-2.84530E-05-2.86196E-05 1.57198E-08-8.38265E-19 8.61143E-22
 -1      4234 9.52637E-05-2.85321E-05-2.85994E-05-3.48694E-10-5.46296E-19 2.85337E-18
 -1      4235 9.52594E-05-2.85165E-05-2.86041E-05 5.39227E-09 8.19723E-21 2.62610E-18
 -1      4236 9.52545E-05-2.85022E-05-2.86080E-05 5.75375E-09-9.10483E-19 2.55865E-18
 -1      4237 9.52689E-05-2.85556E-05-2.85915E-05-6.44097E-09-9.79478E-19 3.46223E-18
 -1      4238 9.52675E-05-2.85453E-05-2.85952E-05-2.85711E-09-4.17861E-19 2.66966E-18
 -1      4239 9.52659E-05-2.85360E-05-2.85984E-05-7.51636E-10-8.57994E-19 2.43391E-18
 -1      4240 9.52693E-05-2.85707E-05-2.85852E-05-9.80089E-09-1.56518E-18 2.42782E-18
 -1      4241 9.52698E-05-2.85641E-05-2.85881E-05-7.84048E-09-1.28169E-18 2.53626E-18
 -1      4242 9.52702E-05-2.85585E-05-2.85907E-05-4.75704E-09-9.73432E-19 1.80162E-18
 -1      4243 9.52673E-05-2.85784E-05-2.85810E-05-1.12021E-08-8.59184E-20 1.06739E-18
 -1      4244 8.14611E-05-2.01471E-05-2.63206E-05 5.97168E-06-1.27992E-18 8.06803E-19
 -1      4245 7.91655E-05-1.97368E-05-2.55156E-05 6.91437E-06-1.69082E-18 3.64969E-19
 -1      4246 9.52693E-05-2.85795E-05-2.85814E-05-1.99618E-09 2.91566E-19-4.98938E-19
 -1      4247 9.52688E-05-2.85794E-05-2.85812E-05-6.07840E-09 4.69543E-19-1.64459E-18
 -1      4248 7.78585E-05-1.89884E-05-2.51340E-05-1.40968E-05-3.90909E-19-3.80508E-18
 -1      4249 7.57266E-05-1.72501E-05-2.49557E-05 1.27080E-05 7.56438E-19-3.82485E-18
 -1      4250 8.36938E-05-2.20056E-05-2.64223E-05-1.37195E-05-1.67478E-19-3.23184E-18
 -1      4251 8.79134E-05-2.46987E-05-2.71207E-05-1.39838E-05-1.52509E-19-2.81206E-18
 -1      4252 9.52691E-05-2.85745E-05-2.85834E-05-8.76984E-09-3.48041E-19 4.19533E-19
 -1      4253 9.52707E-05-2.85714E-05-2.85854E-05-5.24205E-09-2.05241E-19-4.72264E-19
 -1      4254 8.80483E-05-2.23709E-05-2.81646E-05 2.92790E-06-4.29482E-19-1.99017E-19
 -1      4255 8.72990E-05-2.19842E-05-2.79945E-05 3.32920E-06 1.25753E-19 2.00344E-19
 -1      4256 8.80037E-05-2.22356E-05-2.81647E-05 2.00073E-06-5.14485E-19 3.50998E-20
 -1      4257 7.30096E-05-1.72531E-05-2.39245E-05-1.01167E-06-3.22480E-19 1.16758E-18
 -1      4258 7.65751E-05-1.81719E-05-2.49434E-05 4.46704E-06-1.53512E-18 2.89235E-19
 -1      4259 8.62749E-05-2.15507E-05-2.77626E-05 3.69713E-06-3.98701E-22 1.15068E-19
 -1      4260 8.54087E-05-2.12172E-05-2.75126E-05 4.22316E-06 2.07184E-20 7.17239E-19
 -1      4261 8.61614E-05-2.12986E-05-2.77703E-05 2.53964E-06 2.49083E-19 1.53956E-19
 -1      4262 8.41491E-05-2.08194E-05-2.71761E-05 4.72447E-06-3.33089E-19 8.54340E-19
 -1      4263 8.31571E-05-2.06003E-05-2.68186E-05 5.47174E-06-7.72307E-19 8.80527E-19
 -1      4264 9.52700E-05-2.85768E-05-2.85828E-05 2.39283E-10 3.56546E-20-1.04379E-18
 -1      4265 8.39223E-05-2.03823E-05-2.71935E-05 3.26768E-06-2.52336E-19 5.80970E-19
 -1      4266 8.10156E-05-1.94246E-05-2.63419E-05 4.05784E-06-1.20199E-18 1.11774E-19
 -1      4267 8.08551E-05-1.92389E-05-2.64391E-05 1.98365E-06-1.12037E-18-6.66244E-19
 -1      4268 8.24908E-05-1.97731E-05-2.68962E-05 1.82459E-06-4.68274E-19-1.18158E-18
 -1      4269 8.37598E-05-2.02488E-05-2.72473E-05 1.50243E-06 2.49510E-19-1.11503E-18
 -1      4270 8.50551E-05-2.07688E-05-2.75642E-05 1.40235E-06-1.26908E-19-9.90196E-19
 -1      4271 8.60900E-05-2.12556E-05-2.78065E-05 1.17079E-06-2.95377E-19-1.06473E-18
 -1      4272 8.71300E-05-2.17648E-05-2.80235E-05 1.09861E-06-1.19596E-19-1.17009E-18
 -1      4273 8.79817E-05-2.22469E-05-2.81872E-05 9.22586E-07-4.69080E-19-1.22917E-18
 -1      4274 8.88287E-05-2.27371E-05-2.83325E-05 8.68513E-07-1.51520E-19-1.50644E-18
 -1      4275 8.95311E-05-2.31996E-05-2.84395E-05 7.28955E-07 4.02051E-19-2.23018E-18
 -1      4276 9.02232E-05-2.36592E-05-2.85332E-05 6.87606E-07 8.27945E-19-2.19276E-18
 -1      4277 9.07998E-05-2.40893E-05-2.85995E-05 5.74062E-07 1.28008E-18-2.00979E-18
 -1      4278 9.13634E-05-2.45085E-05-2.86566E-05 5.42113E-07 6.97469E-19-1.32511E-18
 -1      4279 9.18325E-05-2.48966E-05-2.86942E-05 4.48649E-07 2.88055E-19-1.06266E-18
 -1      4280 9.22874E-05-2.52690E-05-2.87256E-05 4.23901E-07-1.62020E-19-5.09896E-19
 -1      4281 9.26645E-05-2.56101E-05-2.87435E-05 3.46881E-07-4.89475E-19-4.75368E-19
 -1      4282 9.30276E-05-2.59327E-05-2.87575E-05 3.27772E-07 2.12393E-19-1.40752E-19
 -1      4283 9.33266E-05-2.62253E-05-2.87624E-05 2.64675E-07 6.32141E-19-4.20376E-19
 -1      4284 9.36125E-05-2.64987E-05-2.87649E-05 2.50033E-07 8.12028E-19-1.70967E-19
 -1      4285 9.38460E-05-2.67441E-05-2.87617E-05 1.98866E-07 4.17471E-19-5.22760E-19
 -1      4286 9.40678E-05-2.69710E-05-2.87571E-05 1.87768E-07-8.18272E-20-9.04318E-19
 -1      4287 9.42473E-05-2.71728E-05-2.87491E-05 1.46800E-07-4.37656E-19-1.11957E-18
 -1      4288 9.44165E-05-2.73575E-05-2.87406E-05 1.38503E-07-5.78042E-19-1.26002E-18
 -1      4289 9.45521E-05-2.75202E-05-2.87302E-05 1.06167E-07-8.81520E-19-1.25259E-18
 -1      4290 9.46790E-05-2.76678E-05-2.87198E-05 1.00064E-07-5.98415E-19-4.53895E-19
 -1      4291 9.47795E-05-2.77966E-05-2.87086E-05 7.49303E-08-9.03339E-19 7.75032E-21
 -1      4292 9.48727E-05-2.79124E-05-2.86977E-05 7.05261E-08-6.45360E-19 1.75402E-19
 -1      4293 9.49456E-05-2.80127E-05-2.86868E-05 5.13070E-08-2.08068E-19 4.12058E-19
 -1      4294 9.50127E-05-2.81019E-05-2.86763E-05 4.82010E-08 4.45594E-19 5.32050E-19
 -1      4295 9.50642E-05-2.81784E-05-2.86663E-05 3.37587E-08 7.67316E-19-2.75104E-19
 -1      4296 9.51111E-05-2.82459E-05-2.86567E-05 3.16290E-08 6.33674E-19 3.69398E-19
 -1      4297 9.51465E-05-2.83033E-05-2.86477E-05 2.09805E-08 1.36045E-19 5.43436E-19
 -1      4298 9.51782E-05-2.83533E-05-2.86393E-05 1.95717E-08 1.56167E-19 3.35146E-19
 -1      4299 9.52015E-05-2.83954E-05-2.86316E-05 1.18856E-08 5.80982E-20 8.31828E-20
 -1      4300 9.52220E-05-2.84317E-05-2.86244E-05 1.09983E-08-5.11280E-19 4.55161E-19
 -1      4301 9.52365E-05-2.84619E-05-2.86180E-05 5.58614E-09-1.57359E-18 8.73189E-19
 -1      4302 9.52489E-05-2.84876E-05-2.86120E-05 5.06669E-09-1.57417E-18 1.28468E-18
 -1      4303 9.52571E-05-2.85087E-05-2.86066E-05 1.36970E-09-1.73545E-18 1.88339E-18
 -1      4304 9.52637E-05-2.85264E-05-2.86017E-05 1.10145E-09-1.73023E-18 7.74361E-19
 -1      4305 9.52676E-05-2.85407E-05-2.85974E-05-1.32429E-09-6.33551E-19 6.80903E-19
 -1      4306 9.52703E-05-2.85524E-05-2.85933E-05-1.43140E-09 1.27294E-19 6.58935E-19
 -1      4307 9.52712E-05-2.85617E-05-2.85899E-05-2.91234E-09-6.26994E-19 4.69240E-19
 -1      4308 9.52711E-05-2.85728E-05-2.85850E-05-1.68103E-09 1.88915E-19-2.10906E-18
 -1      4309 7.91528E-05-1.87378E-05-2.59178E-05 2.16799E-06-1.42908E-18-8.64804E-19
 -1      4310 9.52713E-05-2.85683E-05-2.85870E-05-2.74045E-09-3.68084E-19-7.37822E-19
 -1      4311 7.70351E-05-1.81553E-05-2.52600E-05 2.47105E-06-1.27585E-18-1.04276E-19
 -1      4312 7.39691E-05-1.73039E-05-2.43025E-05 2.27651E-06-9.76718E-19 5.83348E-19
 -3
    1PSTEP                         4           1           1          
  100CL  101 1.000000000        4312                     0    1           1
 -4  ERROR       1    1
 -5  STR(%)      1    1    0    0
 -1         1 1.18229E+01
 -1         2 2.37794E+01
 -1         3 2.94270E-04
 -1         4 3.48169E-04
 -1         5 1.28072E+01
 -1         6 1.19578E+01
 -1         7 1.19578E+01
 -1         8 3.71279E+00
 -1         9 2.30264E+00
 -1        10 1.76103E+00
 -1        11 1.46033E+00
 -1        12 1.19421E+00
 -1        13 9.29594E-01
 -1        14 6.04540E-01
 -1        15 6.17312E-01
 -1        16 9.39850E-01
 -1        17 1.19998E+00
 -1        18 1.46741E+00
 -1        19 1.77195E+00
 -1        20 2.30734E+00
 -1        21 3.56587E+00
 -1        22 7.96841E+00
 -1        23 1.19578E+01
 -1        24 3.42360E+00
 -1        25 2.00521E+00
 -1        26 1.06330E+00
 -1        27 7.39652E-01
 -1        28 9.64410E-01
 -1        29 1.04525E+00
 -1        30 1.04525E+00
 -1        31 1.58674E+00
 -1        32 2.56231E+00
 -1        33 3.83929E+00
 -1        34 4.13006E+00
 -1        35 4.20319E+00
 -1        36 4.20319E+00
 -1        37 3.41886E+00
 -1        38 1.91074E+00
 -1        39 1.50578E+00
 -1        40 1.38511E+00
 -1        41 1.36015E+00
 -1        42 1.36015E+00
 -1        43 1.27559E+00
 -1        44 1.08203E+00
 -1        45 8.62044E-01
 -1        46 6.88172E-01
 -1        47 5.38535E-01
 -1        48 4.58269E-01
 -1        49 3.75225E-01
 -1        50 2.97635E-01
 -1        51 2.29613E-01
 -1        52 1.72592E-01
 -1        53 1.26407E-01
 -1        54 1.00707E-01
 -1        55 8.31598E-02
 -1        56 6.71596E-02
 -1        57 5.31511E-02
 -1        58 4.12591E-02
 -1        59 3.14120E-02
 -1        60 2.34276E-02
 -1        61 1.93005E-02
 -1        62 1.57407E-02
 -1        63 1.25606E-02
 -1        64 9.79405E-03
 -1        65 7.42593E-03
 -1        66 5.60263E-03
 -1        67 4.02541E-03
 -1        68 3.39292E-03
 -1        69 2.84615E-03
 -1        70 2.11149E-03
 -1        71 1.61411E-03
 -1        72 1.28072E+01
 -1        73 2.79066E+00
 -1        74 1.52794E+00
 -1        75 1.01626E+00
 -1        76 6.39796E-01
 -1        77 7.79007E-01
 -1        78 1.03796E+00
 -1        79 1.27364E+00
 -1        80 1.56668E+00
 -1        81 1.90791E+00
 -1        82 2.97122E+00
 -1        83 3.51155E+00
 -1        84 4.02093E+00
 -1        85 4.02093E+00
 -1        86 3.60329E+00
 -1        87 2.31827E+00
 -1        88 1.46489E+00
 -1        89 1.11296E+00
 -1        90 1.26383E+00
 -1        91 1.29624E+00
 -1        92 1.29624E+00
 -1        93 1.18085E+00
 -1        94 9.98394E-01
 -1        95 8.38716E-01
 -1        96 6.72488E-01
 -1        97 5.18163E-01
 -1        98 3.84864E-01
 -1        99 2.95616E-01
 -1       100 2.28487E-01
 -1       101 1.72052E-01
 -1       102 1.26234E-01
 -1       103 9.00892E-02
 -1       104 6.22885E-02
 -1       105 4.71622E-02
 -1       106 3.91623E-02
 -1       107 3.18045E-02
 -1       108 2.53110E-02
 -1       109 1.97546E-02
 -1       110 1.73027E-02
 -1       111 1.49327E-02
 -1       112 1.25485E-02
 -1       113 1.02939E-02
 -1       114 8.23720E-03
 -1       115 6.52610E-03
 -1       116 5.03443E-03
 -1       117 3.65705E-03
 -1       118 2.82272E-03
 -1       119 2.08965E-03
 -1       120 1.15451E-03
 -1       121 5.43631E-04
 -1       122 5.43631E-04
 -1       123 3.80135E-04
 -1       124 1.45729E-04
 -1       125 2.56430E-04
 -1       126 3.64515E-04
 -1       127 4.25137E-04
 -1       128 4.41528E-04
 -1       129 4.41528E-04
 -1       130 4.24347E-04
 -1       131 3.60028E-04
 -1       132 2.55374E-04
 -1       133 1.48637E-04
 -1       134 3.84205E-04
 -1       135 7.20821E-04
 -1       136 8.68268E-04
 -1       137 2.48110E+01
 -1       138 4.83082E+01
 -1       139 4.83082E+01
 -1       140 2.28714E+01
 -1       141 1.20564E+01
 -1       142 1.27625E+01
 -1       143 1.27625E+01
 -1       144 1.24519E+01
 -1       145 1.29299E+01
 -1       146 1.29299E+01
 -1       147 2.53158E+01
 -1       148 3.13709E+01
 -1       149 3.13709E+01
 -1       150 2.53582E+01
 -1       151 2.69149E+01
 -1       152 2.69149E+01
 -1       153 4.72338E+01
 -1       154 4.72338E+01
 -1       155 1.99998E+01
 -1       156 1.19798E+01
 -1       157 1.30291E+01
 -1       158 1.32832E+01
 -1       159 1.32832E+01
 -1       160 1.23658E+01
 -1       161 2.57514E+01
 -1       162 2.93599E+01
 -1       163 2.93599E+01
 -1       164 2.48366E+01
 -1       165 5.88800E+00
 -1       166 2.68462E+00
 -1       167 1.95250E+00
 -1       168 1.52057E+00
 -1       169 1.24034E+00
 -1       170 1.04324E+00
 -1       171 7.44659E-01
 -1       172 3.85162E-01
 -1       173 7.59638E-01
 -1       174 1.03613E+00
 -1       175 1.26237E+00
 -1       176 1.53848E+00
 -1       177 1.97479E+00
 -1       178 2.67142E+00
 -1       179 3.85617E+00
 -1       180 1.28072E+01
 -1       181 3.42360E+00
 -1       182 2.00521E+00
 -1       183 1.06330E+00
 -1       184 6.59289E-01
 -1       185 7.39652E-01
 -1       186 9.64410E-01
 -1       187 1.04525E+00
 -1       188 1.03298E+00
 -1       189 1.58674E+00
 -1       190 2.56231E+00
 -1       191 3.83929E+00
 -1       192 4.13006E+00
 -1       193 4.20319E+00
 -1       194 3.41886E+00
 -1       195 2.14150E+00
 -1       196 1.50578E+00
 -1       197 1.38511E+00
 -1       198 1.34535E+00
 -1       199 1.36015E+00
 -1       200 1.27559E+00
 -1       201 1.08203E+00
 -1       202 9.01298E-01
 -1       203 7.75537E-01
 -1       204 6.47921E-01
 -1       205 5.16525E-01
 -1       206 3.95565E-01
 -1       207 2.97635E-01
 -1       208 2.31689E-01
 -1       209 1.80116E-01
 -1       210 1.36736E-01
 -1       211 1.01393E-01
 -1       212 8.31598E-02
 -1       213 6.71596E-02
 -1       214 5.31511E-02
 -1       215 4.12591E-02
 -1       216 3.14120E-02
 -1       217 2.43935E-02
 -1       218 1.93005E-02
 -1       219 1.57407E-02
 -1       220 1.25606E-02
 -1       221 9.87077E-03
 -1       222 7.78457E-03
 -1       223 5.99637E-03
 -1       224 4.62986E-03
 -1       225 3.40286E-03
 -1       226 2.84615E-03
 -1       227 2.11149E-03
 -1       228 1.61411E-03
 -1       229 2.79066E+00
 -1       230 1.52794E+00
 -1       231 1.01626E+00
 -1       232 6.39796E-01
 -1       233 5.14521E-01
 -1       234 7.79007E-01
 -1       235 1.03796E+00
 -1       236 1.27364E+00
 -1       237 1.56668E+00
 -1       238 2.10173E+00
 -1       239 2.97122E+00
 -1       240 3.51155E+00
 -1       241 4.02093E+00
 -1       242 3.60329E+00
 -1       243 2.31827E+00
 -1       244 1.46489E+00
 -1       245 9.94179E-01
 -1       246 1.11296E+00
 -1       247 1.26383E+00
 -1       248 1.29624E+00
 -1       249 1.18085E+00
 -1       250 9.98394E-01
 -1       251 8.38716E-01
 -1       252 6.90326E-01
 -1       253 5.47398E-01
 -1       254 4.18661E-01
 -1       255 3.09471E-01
 -1       256 2.28487E-01
 -1       257 1.72052E-01
 -1       258 1.26245E-01
 -1       259 9.24453E-02
 -1       260 6.59243E-02
 -1       261 4.71622E-02
 -1       262 3.91623E-02
 -1       263 3.18045E-02
 -1       264 2.53110E-02
 -1       265 1.97546E-02
 -1       266 1.73027E-02
 -1       267 1.49327E-02
 -1       268 1.25485E-02
 -1       269 1.02939E-02
 -1       270 8.23720E-03
 -1       271 6.52610E-03
 -1       272 5.03443E-03
 -1       273 3.69971E-03
 -1       274 2.82272E-03
 -1       275 2.08965E-03
 -1       276 1.21834E-03
 -1       277 6.35903E-04
 -1       278 6.35903E-04
 -1       279 5.35459E-04
 -1       280 4.16936E-04
 -1       281 6.33727E-04
 -1       282 7.63440E-04
 -1       283 8.13392E-04
 -1       284 8.13392E-04
 -1       285 8.13114E-04
 -1       286 7.59147E-04
 -1       287 6.33105E-04
 -1       288 4.21290E-04
 -1       289 5.29480E-04
 -1       290 5.29480E-04
 -1       291 8.68268E-04
 -1       292 2.99635E+01
 -1       293 2.98336E+01
 -1       294 4.83082E+01
 -1       295 2.39906E+01
 -1       296 1.17575E+01
 -1       297 1.20564E+01
 -1       298 1.27625E+01
 -1       299 1.15903E+01
 -1       300 1.24519E+01
 -1       301 1.29299E+01
 -1       302 1.25145E+01
 -1       303 2.67611E+01
 -1       304 3.13709E+01
 -1       305 3.08098E+01
 -1       306 3.06900E+01
 -1       307 3.06900E+01
 -1       308 2.80714E+01
 -1       309 4.72338E+01
 -1       310 2.18366E+01
 -1       311 1.06756E+01
 -1       312 1.19798E+01
 -1       313 1.30291E+01
 -1       314 1.32832E+01
 -1       315 1.23658E+01
 -1       316 1.18229E+01
 -1       317 1.18012E+01
 -1       318 2.80987E+01
 -1       319 3.16093E+01
 -1       320 3.16093E+01
 -1       321 2.99635E+01
 -1       322 1.64609E+00
 -1       323 2.65181E+00
 -1       324 1.31349E+00
 -1       325 1.16909E+00
 -1       326 9.43752E-01
 -1       327 5.81004E-01
 -1       328 6.03798E-01
 -1       329 9.41125E-01
 -1       330 1.17242E+00
 -1       331 1.32067E+00
 -1       332 1.49111E+00
 -1       333 1.72227E+00
 -1       334 1.78518E+00
 -1       335 1.69546E+00
 -1       336 1.17825E+00
 -1       337 1.16002E+00
 -1       338 8.52901E-01
 -1       339 8.19098E-01
 -1       340 7.71249E-01
 -1       341 7.26915E-01
 -1       342 8.51024E-01
 -1       343 1.14781E+00
 -1       344 1.75775E+00
 -1       345 2.26050E+00
 -1       346 2.53824E+00
 -1       347 2.47474E+00
 -1       348 2.51141E+00
 -1       349 1.97590E+00
 -1       350 1.47205E+00
 -1       351 8.42799E-01
 -1       352 8.35333E-01
 -1       353 8.91694E-01
 -1       354 1.02698E+00
 -1       355 1.00287E+00
 -1       356 8.96021E-01
 -1       357 8.04202E-01
 -1       358 7.07089E-01
 -1       359 5.91540E-01
 -1       360 4.75537E-01
 -1       361 3.69512E-01
 -1       362 2.78375E-01
 -1       363 2.03456E-01
 -1       364 1.44002E-01
 -1       365 1.01393E-01
 -1       366 7.33496E-02
 -1       367 5.31402E-02
 -1       368 4.14118E-02
 -1       369 3.43402E-02
 -1       370 2.78531E-02
 -1       371 2.21273E-02
 -1       372 1.72185E-02
 -1       373 1.34523E-02
 -1       374 1.13841E-02
 -1       375 9.42270E-03
 -1       376 7.57179E-03
 -1       377 5.99637E-03
 -1       378 4.65696E-03
 -1       379 3.50927E-03
 -1       380 2.61980E-03
 -1       381 1.93410E-03
 -1       382 1.41809E-03
 -1       383 7.44506E-01
 -1       384 6.89575E-01
 -1       385 6.44232E-01
 -1       386 5.28921E-01
 -1       387 5.60481E-01
 -1       388 9.06474E-01
 -1       389 1.57349E+00
 -1       390 2.01014E+00
 -1       391 2.04869E+00
 -1       392 1.97729E+00
 -1       393 2.25373E+00
 -1       394 2.28907E+00
 -1       395 1.70867E+00
 -1       396 1.00653E+00
 -1       397 6.47297E-01
 -1       398 8.02953E-01
 -1       399 9.24182E-01
 -1       400 9.57285E-01
 -1       401 9.36477E-01
 -1       402 8.41049E-01
 -1       403 7.52608E-01
 -1       404 6.37489E-01
 -1       405 5.17112E-01
 -1       406 4.04519E-01
 -1       407 3.06311E-01
 -1       408 2.24785E-01
 -1       409 1.68240E-01
 -1       410 1.26245E-01
 -1       411 9.24453E-02
 -1       412 6.59243E-02
 -1       413 4.55886E-02
 -1       414 3.03378E-02
 -1       415 2.56169E-02
 -1       416 2.16305E-02
 -1       417 1.78111E-02
 -1       418 1.43261E-02
 -1       419 1.12540E-02
 -1       420 9.41873E-03
 -1       421 7.94638E-03
 -1       422 6.47720E-03
 -1       423 5.36219E-03
 -1       424 4.33613E-03
 -1       425 3.35552E-03
 -1       426 2.44571E-03
 -1       427 1.85439E-03
 -1       428 1.21834E-03
 -1       429 6.69216E-04
 -1       430 1.24760E-03
 -1       431 1.24760E-03
 -1       432 8.43636E-04
 -1       433 1.02387E-03
 -1       434 1.10055E-03
 -1       435 1.10055E-03
 -1       436 1.09762E-03
 -1       437 1.09762E-03
 -1       438 1.02340E-03
 -1       439 8.43307E-04
 -1       440 6.52734E-04
 -1       441 1.12293E-03
 -1       442 2.98336E+01
 -1       443 3.20286E+01
 -1       444 3.10631E+01
 -1       445 1.74072E+01
 -1       446 1.00552E+01
 -1       447 1.48011E+00
 -1       448 9.52359E+00
 -1       449 1.06435E+01
 -1       450 1.05902E+01
 -1       451 9.93204E+00
 -1       452 6.43693E+00
 -1       453 1.04995E+01
 -1       454 1.87961E+01
 -1       455 3.08098E+01
 -1       456 3.24450E+01
 -1       457 3.24450E+01
 -1       458 2.25278E+01
 -1       459 2.80714E+01
 -1       460 1.63793E+01
 -1       461 9.50896E+00
 -1       462 7.49877E+00
 -1       463 9.32109E+00
 -1       464 1.03727E+01
 -1       465 1.01390E+01
 -1       466 9.40317E+00
 -1       467 6.37967E+00
 -1       468 1.08977E+01
 -1       469 1.87172E+01
 -1       470 3.16093E+01
 -1       471 3.20286E+01
 -1       472 7.13922E+00
 -1       473 2.73319E+01
 -1       474 1.54312E+00
 -1       475 1.17981E+00
 -1       476 1.25478E+00
 -1       477 6.36151E-01
 -1       478 8.95455E-01
 -1       479 1.18180E+00
 -1       480 1.26182E+00
 -1       481 1.27794E+00
 -1       482 1.65778E+00
 -1       483 9.51773E-01
 -1       484 1.14717E+00
 -1       485 6.78273E+00
 -1       486 1.09431E+00
 -1       487 1.12767E+00
 -1       488 1.15336E+00
 -1       489 1.27120E+00
 -1       490 1.56362E+00
 -1       491 1.69043E+00
 -1       492 1.91846E+00
 -1       493 2.56397E+00
 -1       494 3.11875E+00
 -1       495 3.07345E+00
 -1       496 2.14325E+00
 -1       497 1.89740E+00
 -1       498 1.54970E+00
 -1       499 1.49985E+00
 -1       500 1.21432E+00
 -1       501 1.19098E+00
 -1       502 1.08488E+00
 -1       503 9.47016E-01
 -1       504 8.56175E-01
 -1       505 7.57744E-01
 -1       506 6.42503E-01
 -1       507 5.26366E-01
 -1       508 4.18872E-01
 -1       509 3.24811E-01
 -1       510 2.45802E-01
 -1       511 1.81530E-01
 -1       512 1.30635E-01
 -1       513 9.12895E-02
 -1       514 6.15594E-02
 -1       515 3.96075E-02
 -1       516 2.68809E-02
 -1       517 2.00617E-02
 -1       518 1.76213E-02
 -1       519 1.49910E-02
 -1       520 1.24031E-02
 -1       521 9.99439E-03
 -1       522 8.04154E-03
 -1       523 6.89490E-03
 -1       524 5.68628E-03
 -1       525 4.50247E-03
 -1       526 3.52017E-03
 -1       527 2.63657E-03
 -1       528 1.88558E-03
 -1       529 9.35881E-01
 -1       530 9.99418E-01
 -1       531 1.21263E+00
 -1       532 1.39245E+00
 -1       533 1.85186E+00
 -1       534 2.19596E+00
 -1       535 2.58280E+00
 -1       536 2.62074E+00
 -1       537 2.17127E+00
 -1       538 1.71281E+00
 -1       539 1.40562E+00
 -1       540 1.21267E+00
 -1       541 1.02617E+00
 -1       542 1.03068E+00
 -1       543 1.01354E+00
 -1       544 9.29618E-01
 -1       545 8.53652E-01
 -1       546 7.69013E-01
 -1       547 6.64960E-01
 -1       548 5.51376E-01
 -1       549 4.41724E-01
 -1       550 3.43457E-01
 -1       551 2.59788E-01
 -1       552 1.91238E-01
 -1       553 1.36798E-01
 -1       554 9.47214E-02
 -1       555 6.30119E-02
 -1       556 4.34869E-02
 -1       557 3.07208E-02
 -1       558 2.56169E-02
 -1       559 2.16305E-02
 -1       560 1.78111E-02
 -1       561 1.43261E-02
 -1       562 1.12540E-02
 -1       563 9.41873E-03
 -1       564 7.94638E-03
 -1       565 6.47720E-03
 -1       566 5.12495E-03
 -1       567 3.99191E-03
 -1       568 2.97347E-03
 -1       569 2.18268E-03
 -1       570 1.60725E-03
 -1       571 1.27241E-03
 -1       572 1.37261E-03
 -1       573 1.38672E-03
 -1       574 1.03874E-03
 -1       575 1.37261E-03
 -1       576 1.35769E-03
 -1       577 1.37106E-03
 -1       578 1.37106E-03
 -1       579 1.27174E-03
 -1       580 1.02033E-03
 -1       581 1.02033E-03
 -1       582 3.10631E+01
 -1       583 1.54703E+01
 -1       584 9.52773E-01
 -1       585 4.14347E+00
 -1       586 2.43883E+01
 -1       587 2.18174E+01
 -1       588 7.78545E+00
 -1       589 2.25208E+01
 -1       590 8.93158E-01
 -1       591 7.99611E+00
 -1       592 2.07686E+01
 -1       593 6.80498E+00
 -1       594 7.35172E+00
 -1       595 4.27342E+00
 -1       596 6.29512E+00
 -1       597 8.65257E+00
 -1       598 1.33871E+01
 -1       599 3.24450E+01
 -1       600 5.40312E+00
 -1       601 1.22942E+01
 -1       602 8.62120E+00
 -1       603 5.81264E+00
 -1       604 7.89444E+00
 -1       605 6.06824E+00
 -1       606 4.07581E+00
 -1       607 6.23323E+00
 -1       608 9.71813E+00
 -1       609 1.37133E+01
 -1       610 3.20286E+01
 -1       611 1.28332E+00
 -1       612 1.65778E+00
 -1       613 7.80585E+00
 -1       614 1.26571E+00
 -1       615 5.40450E+00
 -1       616 1.21373E-03
 -1       617 1.32634E+01
 -1       618 5.49663E+00
 -1       619 2.18761E+01
 -1       620 1.27262E+00
 -1       621 3.39912E+00
 -1       622 1.27975E+00
 -1       623 1.03733E+00
 -1       624 1.37021E+00
 -1       625 1.31626E+00
 -1       626 1.48048E+00
 -1       627 1.40271E+01
 -1       628 1.35339E+00
 -1       629 1.55958E+00
 -1       630 1.80002E+00
 -1       631 1.98520E+00
 -1       632 2.94611E+00
 -1       633 1.91846E+00
 -1       634 2.56397E+00
 -1       635 3.27422E+00
 -1       636 3.59143E+00
 -1       637 3.24197E+00
 -1       638 2.43607E+00
 -1       639 1.89740E+00
 -1       640 3.14797E+00
 -1       641 1.98184E+00
 -1       642 1.69067E+00
 -1       643 1.39063E+00
 -1       644 1.12282E+00
 -1       645 9.83603E-01
 -1       646 8.32797E-01
 -1       647 6.87725E-01
 -1       648 5.56539E-01
 -1       649 4.42295E-01
 -1       650 3.45465E-01
 -1       651 2.65197E-01
 -1       652 1.99956E-01
 -1       653 1.47891E-01
 -1       654 1.07071E-01
 -1       655 7.56272E-02
 -1       656 5.18419E-02
 -1       657 3.41939E-02
 -1       658 2.13767E-02
 -1       659 1.29020E-02
 -1       660 1.02564E-02
 -1       661 9.68829E-03
 -1       662 8.68284E-03
 -1       663 7.46717E-03
 -1       664 6.19174E-03
 -1       665 5.13893E-03
 -1       666 4.28953E-03
 -1       667 3.42079E-03
 -1       668 2.59056E-03
 -1       669 1.88558E-03
 -1       670 1.67847E+00
 -1       671 5.00578E+00
 -1       672 1.48359E+00
 -1       673 1.92138E+00
 -1       674 3.19155E+00
 -1       675 5.01844E+00
 -1       676 5.22766E+00
 -1       677 5.40450E+00
 -1       678 3.29258E+00
 -1       679 1.66776E+00
 -1       680 2.10480E+00
 -1       681 1.69804E+00
 -1       682 1.46874E+00
 -1       683 1.30199E+00
 -1       684 1.10458E+00
 -1       685 9.45747E-01
 -1       686 8.39001E-01
 -1       687 7.16209E-01
 -1       688 5.92940E-01
 -1       689 4.78409E-01
 -1       690 3.77270E-01
 -1       691 2.91217E-01
 -1       692 2.20120E-01
 -1       693 1.62818E-01
 -1       694 1.17642E-01
 -1       695 8.27563E-02
 -1       696 5.63603E-02
 -1       697 3.68046E-02
 -1       698 2.26453E-02
 -1       699 1.52086E-02
 -1       700 1.32631E-02
 -1       701 1.18601E-02
 -1       702 1.02118E-02
 -1       703 8.50959E-03
 -1       704 6.87195E-03
 -1       705 5.75250E-03
 -1       706 4.78923E-03
 -1       707 3.81396E-03
 -1       708 2.94945E-03
 -1       709 2.21431E-03
 -1       710 1.87126E-03
 -1       711 1.62351E-03
 -1       712 1.27349E-03
 -1       713 1.63920E-03
 -1       714 1.62396E-03
 -1       715 1.63920E-03
 -1       716 5.40450E+00
 -1       717 4.88946E+00
 -1       718 1.63322E-03
 -1       719 1.63322E-03
 -1       720 1.47118E-03
 -1       721 5.03630E+00
 -1       722 1.23758E+01
 -1       723 4.56842E+00
 -1       724 1.45525E+01
 -1       725 1.59194E+01
 -1       726 4.46807E+00
 -1       727 8.24049E+00
 -1       728 1.12080E+00
 -1       729 1.52101E+00
 -1       730 1.18463E+00
 -1       731 9.52773E-01
 -1       732 5.44978E+00
 -1       733 1.37021E+00
 -1       734 1.38159E+00
 -1       735 5.46484E+00
 -1       736 3.24197E+00
 -1       737 7.01488E+00
 -1       738 3.50826E+00
 -1       739 1.62982E+01
 -1       740 2.96360E+00
 -1       741 1.32935E+01
 -1       742 9.58518E+00
 -1       743 3.74614E+00
 -1       744 1.55499E+01
 -1       745 3.34999E+00
 -1       746 1.14717E+00
 -1       747 1.50296E+00
 -1       748 1.04268E+00
 -1       749 3.29258E+00
 -1       750 1.18115E+01
 -1       751 1.48447E-03
 -1       752 1.36990E-03
 -1       753 8.83736E+00
 -1       754 1.16896E+01
 -1       755 3.19155E+00
 -1       756 3.59684E+00
 -1       757 1.27416E+00
 -1       758 7.96992E+00
 -1       759 1.57629E-03
 -1       760 1.51931E+00
 -1       761 9.23449E+00
 -1       762 1.70522E+00
 -1       763 3.14797E+00
 -1       764 2.42561E+00
 -1       765 2.76513E+00
 -1       766 3.96360E+00
 -1       767 4.34066E+00
 -1       768 2.49106E+00
 -1       769 1.85551E+00
 -1       770 1.53391E+00
 -1       771 1.21656E+00
 -1       772 9.49800E-01
 -1       773 7.49759E-01
 -1       774 5.93850E-01
 -1       775 4.80830E-01
 -1       776 3.79136E-01
 -1       777 2.91998E-01
 -1       778 2.19871E-01
 -1       779 1.61774E-01
 -1       780 1.16062E-01
 -1       781 8.22484E-02
 -1       782 5.69635E-02
 -1       783 3.82827E-02
 -1       784 2.55401E-02
 -1       785 1.62620E-02
 -1       786 9.65742E-03
 -1       787 5.79994E-03
 -1       788 5.97561E-03
 -1       789 5.95606E-03
 -1       790 5.51305E-03
 -1       791 4.83411E-03
 -1       792 4.04790E-03
 -1       793 3.48051E-03
 -1       794 2.86181E-03
 -1       795 2.20806E-03
 -1       796 9.23449E+00
 -1       797 2.73743E+00
 -1       798 3.19578E+00
 -1       799 2.22841E+00
 -1       800 1.78541E+00
 -1       801 1.38931E+00
 -1       802 1.17884E+00
 -1       803 9.67727E-01
 -1       804 7.87108E-01
 -1       805 6.31147E-01
 -1       806 4.97067E-01
 -1       807 3.85334E-01
 -1       808 2.96813E-01
 -1       809 2.26314E-01
 -1       810 1.70011E-01
 -1       811 1.25572E-01
 -1       812 9.09584E-02
 -1       813 6.43887E-02
 -1       814 4.43166E-02
 -1       815 2.94194E-02
 -1       816 1.85829E-02
 -1       817 1.08838E-02
 -1       818 7.31005E-03
 -1       819 7.48647E-03
 -1       820 7.07154E-03
 -1       821 6.31654E-03
 -1       822 5.39501E-03
 -1       823 4.47641E-03
 -1       824 3.81577E-03
 -1       825 3.09643E-03
 -1       826 2.37802E-03
 -1       827 1.80725E-03
 -1       828 1.54372E+00
 -1       829 1.73661E-03
 -1       830 1.86666E-03
 -1       831 4.72804E+00
 -1       832 4.77881E+00
 -1       833 7.28032E+00
 -1       834 1.66419E-03
 -1       835 1.86666E-03
 -1       836 1.16896E+01
 -1       837 3.58869E+00
 -1       838 5.96470E+00
 -1       839 1.54634E+00
 -1       840 1.13467E+00
 -1       841 2.04188E+00
 -1       842 8.99631E+00
 -1       843 5.85083E+00
 -1       844 3.00660E+00
 -1       845 6.59310E+00
 -1       846 9.82878E+00
 -1       847 1.05560E+01
 -1       848 9.65671E+00
 -1       849 1.22571E+00
 -1       850 6.77933E+00
 -1       851 1.54372E+00
 -1       852 2.26132E+00
 -1       853 1.68329E-03
 -1       854 5.28328E+00
 -1       855 7.05429E+00
 -1       856 1.77436E+00
 -1       857 5.09360E+00
 -1       858 1.87728E-03
 -1       859 1.64369E+00
 -1       860 1.87728E-03
 -1       861 1.64369E+00
 -1       862 1.87095E-03
 -1       863 9.17431E+00
 -1       864 8.19571E+00
 -1       865 5.97034E+00
 -1       866 1.76330E+00
 -1       867 2.35647E+00
 -1       868 5.33416E+00
 -1       869 7.27499E+00
 -1       870 5.98206E+00
 -1       871 1.95073E-03
 -1       872 3.37428E+00
 -1       873 2.60910E+00
 -1       874 1.55814E+00
 -1       875 1.18116E+00
 -1       876 9.17210E-01
 -1       877 7.43511E-01
 -1       878 5.92723E-01
 -1       879 4.65756E-01
 -1       880 3.60872E-01
 -1       881 2.75507E-01
 -1       882 2.06980E-01
 -1       883 1.52729E-01
 -1       884 1.10404E-01
 -1       885 7.78914E-02
 -1       886 5.38195E-02
 -1       887 3.65974E-02
 -1       888 2.38853E-02
 -1       889 1.47012E-02
 -1       890 8.28914E-03
 -1       891 4.22838E-03
 -1       892 3.57388E-03
 -1       893 4.07644E-03
 -1       894 4.07433E-03
 -1       895 3.76025E-03
 -1       896 3.26866E-03
 -1       897 2.80764E-03
 -1       898 3.00028E+00
 -1       899 3.13990E+00
 -1       900 2.65812E+00
 -1       901 1.58872E+00
 -1       902 1.15996E+00
 -1       903 9.09704E-01
 -1       904 7.26924E-01
 -1       905 5.92712E-01
 -1       906 4.72453E-01
 -1       907 3.69263E-01
 -1       908 2.83262E-01
 -1       909 2.13206E-01
 -1       910 1.57260E-01
 -1       911 1.13406E-01
 -1       912 7.96565E-02
 -1       913 5.54645E-02
 -1       914 3.74073E-02
 -1       915 2.41203E-02
 -1       916 1.46663E-02
 -1       917 8.09481E-03
 -1       918 4.27056E-03
 -1       919 4.54400E-03
 -1       920 4.84294E-03
 -1       921 4.66596E-03
 -1       922 4.20491E-03
 -1       923 3.59355E-03
 -1       924 3.08538E-03
 -1       925 2.78565E-03
 -1       926 7.95708E+00
 -1       927 1.96945E-03
 -1       928 6.72856E+00
 -1       929 4.60323E+00
 -1       930 1.54072E+00
 -1       931 2.69102E+00
 -1       932 3.15954E+00
 -1       933 6.56574E+00
 -1       934 3.00196E+00
 -1       935 7.27499E+00
 -1       936 1.88331E+00
 -1       937 2.18633E+00
 -1       938 4.34066E+00
 -1       939 5.09360E+00
 -1       940 2.45845E-03
 -1       941 4.43148E+00
 -1       942 6.52813E+00
 -1       943 2.32371E-03
 -1       944 1.90672E-03
 -1       945 2.18633E+00
 -1       946 5.64454E+00
 -1       947 5.87778E+00
 -1       948 2.10652E+00
 -1       949 2.63183E-03
 -1       950 2.45845E-03
 -1       951 2.27277E+00
 -1       952 5.09360E+00
 -1       953 3.43427E+00
 -1       954 2.25102E+00
 -1       955 1.59313E+00
 -1       956 1.16368E+00
 -1       957 8.67334E-01
 -1       958 6.54459E-01
 -1       959 4.96399E-01
 -1       960 3.76207E-01
 -1       961 2.83510E-01
 -1       962 2.11608E-01
 -1       963 1.55884E-01
 -1       964 1.12946E-01
 -1       965 8.01698E-02
 -1       966 5.65181E-02
 -1       967 3.89200E-02
 -1       968 2.58746E-02
 -1       969 1.63869E-02
 -1       970 9.64190E-03
 -1       971 4.97984E-03
 -1       972 2.23543E-03
 -1       973 2.85934E-03
 -1       974 3.05447E-03
 -1       975 2.93378E-03
 -1       976 2.80781E-03
 -1       977 1.15382E+00
 -1       978 3.13990E+00
 -1       979 1.99854E+00
 -1       980 2.43034E+00
 -1       981 9.09704E-01
 -1       982 7.15321E-01
 -1       983 5.59221E-01
 -1       984 4.33976E-01
 -1       985 3.33650E-01
 -1       986 2.53574E-01
 -1       987 1.90072E-01
 -1       988 1.40171E-01
 -1       989 1.01404E-01
 -1       990 7.16879E-02
 -1       991 4.92544E-02
 -1       992 3.36150E-02
 -1       993 2.21076E-02
 -1       994 1.37680E-02
 -1       995 7.86904E-03
 -1       996 4.12029E-03
 -1       997 2.73244E-03
 -1       998 3.35378E-03
 -1       999 3.47309E-03
 -1      1000 3.27291E-03
 -1      1001 2.89540E-03
 -1      1002 2.78565E-03
 -1      1003 6.41799E+00
 -1      1004 2.33254E-03
 -1      1005 5.18623E+00
 -1      1006 3.83496E+00
 -1      1007 4.01853E+00
 -1      1008 5.18623E+00
 -1      1009 2.13246E+00
 -1      1010 3.91357E+00
 -1      1011 4.16485E+00
 -1      1012 4.25038E+00
 -1      1013 4.16667E+00
 -1      1014 2.16076E-03
 -1      1015 2.38801E-03
 -1      1016 2.39255E+00
 -1      1017 3.81423E+00
 -1      1018 3.64430E+00
 -1      1019 3.13990E+00
 -1      1020 3.11778E+00
 -1      1021 1.07971E+00
 -1      1022 4.25038E+00
 -1      1023 2.33235E+00
 -1      1024 2.53232E+00
 -1      1025 1.59313E+00
 -1      1026 1.16368E+00
 -1      1027 8.67334E-01
 -1      1028 6.54459E-01
 -1      1029 4.96399E-01
 -1      1030 3.76207E-01
 -1      1031 2.83510E-01
 -1      1032 2.11608E-01
 -1      1033 1.55884E-01
 -1      1034 1.12946E-01
 -1      1035 8.01698E-02
 -1      1036 5.65181E-02
 -1      1037 3.89200E-02
 -1      1038 2.58746E-02
 -1      1039 1.65183E-02
 -1      1040 1.09366E-02
 -1      1041 6.85264E-03
 -1      1042 3.92848E-03
 -1      1043 2.01006E-03
 -1      1044 2.38311E-03
 -1      1045 2.71558E-03
 -1      1046 2.80781E-03
 -1      1047 3.81423E+00
 -1      1048 1.97727E+00
 -1      1049 6.15738E-01
 -1      1050 4.68774E-01
 -1      1051 3.57524E-01
 -1      1052 2.71761E-01
 -1      1053 2.05016E-01
 -1      1054 1.52955E-01
 -1      1055 1.12486E-01
 -1      1056 8.12666E-02
 -1      1057 5.74411E-02
 -1      1058 3.95017E-02
 -1      1059 2.67662E-02
 -1      1060 1.77575E-02
 -1      1061 1.12039E-02
 -1      1062 6.97674E-03
 -1      1063 4.12029E-03
 -1      1064 2.11022E-03
 -1      1065 2.40023E-03
 -1      1066 2.62134E-03
 -1      1067 2.54765E-03
 -1      1068 2.90148E+00
 -1      1069 2.01969E-03
 -1      1070 8.15243E-01
 -1      1071 2.33254E-03
 -1      1072 4.72001E+00
 -1      1073 3.12804E+00
 -1      1074 1.99993E+00
 -1      1075 1.44767E+00
 -1      1076 9.99214E-01
 -1      1077 7.34175E-01
 -1      1078 5.56106E-01
 -1      1079 4.28186E-01
 -1      1080 3.31934E-01
 -1      1081 2.57220E-01
 -1      1082 1.98215E-01
 -1      1083 1.51319E-01
 -1      1084 1.14094E-01
 -1      1085 8.47367E-02
 -1      1086 6.18125E-02
 -1      1087 4.41319E-02
 -1      1088 3.06894E-02
 -1      1089 2.13518E-02
 -1      1090 1.44774E-02
 -1      1091 9.39170E-03
 -1      1092 5.70346E-03
 -1      1093 3.08914E-03
 -1      1094 1.28596E-03
 -1      1095 1.52404E-03
 -1      1096 2.38801E-03
 -1      1097 2.71949E-01
 -1      1098 3.55557E-01
 -1      1099 4.66731E-01
 -1      1100 2.07505E-01
 -1      1101 1.58964E-01
 -1      1102 1.20751E-01
 -1      1103 9.03891E-02
 -1      1104 6.65061E-02
 -1      1105 4.79504E-02
 -1      1106 3.37369E-02
 -1      1107 2.35965E-02
 -1      1108 1.62452E-02
 -1      1109 1.07599E-02
 -1      1110 6.74440E-03
 -1      1111 3.86761E-03
 -1      1112 1.85821E-03
 -1      1113 1.78474E-03
 -1      1114 2.00353E-03
 -1      1115 1.99993E+00
 -1      1116 2.38801E-03
 -1      1117 6.20542E-01
 -1      1118 8.46399E-01
 -1      1119 1.22528E+00
 -1      1120 1.19578E+01
 -1      1121 7.83530E+00
 -1      1122 3.00771E+00
 -1      1123 2.03183E+00
 -1      1124 1.61068E+00
 -1      1125 1.32727E+00
 -1      1126 1.06190E+00
 -1      1127 7.67067E-01
 -1      1128 6.10926E-01
 -1      1129 7.78581E-01
 -1      1130 1.06992E+00
 -1      1131 1.33370E+00
 -1      1132 1.61968E+00
 -1      1133 2.03964E+00
 -1      1134 2.93660E+00
 -1      1135 5.76714E+00
 -1      1136 1.03878E+01
 -1      1137 1.19578E+01
 -1      1138 7.69070E+00
 -1      1139 2.71440E+00
 -1      1140 1.53425E+00
 -1      1141 9.01474E-01
 -1      1142 8.52031E-01
 -1      1143 1.00483E+00
 -1      1144 1.04525E+00
 -1      1145 1.31599E+00
 -1      1146 2.07452E+00
 -1      1147 3.20080E+00
 -1      1148 3.98468E+00
 -1      1149 4.16662E+00
 -1      1150 4.20319E+00
 -1      1151 3.81102E+00
 -1      1152 2.66480E+00
 -1      1153 1.70826E+00
 -1      1154 1.44545E+00
 -1      1155 1.37263E+00
 -1      1156 1.36015E+00
 -1      1157 1.31787E+00
 -1      1158 1.17881E+00
 -1      1159 9.72036E-01
 -1      1160 7.75108E-01
 -1      1161 6.13354E-01
 -1      1162 4.98402E-01
 -1      1163 4.16747E-01
 -1      1164 3.36430E-01
 -1      1165 2.63624E-01
 -1      1166 2.01102E-01
 -1      1167 1.49499E-01
 -1      1168 1.13557E-01
 -1      1169 9.19331E-02
 -1      1170 7.51597E-02
 -1      1171 6.01554E-02
 -1      1172 4.72051E-02
 -1      1173 3.63356E-02
 -1      1174 2.74198E-02
 -1      1175 2.13641E-02
 -1      1176 1.75206E-02
 -1      1177 1.41507E-02
 -1      1178 1.11773E-02
 -1      1179 8.60999E-03
 -1      1180 6.51428E-03
 -1      1181 4.81402E-03
 -1      1182 3.70917E-03
 -1      1183 3.11954E-03
 -1      1184 2.47882E-03
 -1      1185 1.86280E-03
 -1      1186 9.81137E-04
 -1      1187 1.28072E+01
 -1      1188 7.79892E+00
 -1      1189 2.15930E+00
 -1      1190 1.27210E+00
 -1      1191 8.28027E-01
 -1      1192 7.09401E-01
 -1      1193 9.08483E-01
 -1      1194 1.15580E+00
 -1      1195 1.42016E+00
 -1      1196 1.73729E+00
 -1      1197 2.43956E+00
 -1      1198 3.24139E+00
 -1      1199 3.76624E+00
 -1      1200 4.02093E+00
 -1      1201 3.81211E+00
 -1      1202 2.96078E+00
 -1      1203 1.89158E+00
 -1      1204 1.28893E+00
 -1      1205 1.18840E+00
 -1      1206 1.28003E+00
 -1      1207 1.29624E+00
 -1      1208 1.23854E+00
 -1      1209 1.08962E+00
 -1      1210 9.18555E-01
 -1      1211 7.55602E-01
 -1      1212 5.95326E-01
 -1      1213 4.51513E-01
 -1      1214 3.40240E-01
 -1      1215 2.62051E-01
 -1      1216 2.00269E-01
 -1      1217 1.49143E-01
 -1      1218 1.08161E-01
 -1      1219 7.61889E-02
 -1      1220 5.47254E-02
 -1      1221 4.31623E-02
 -1      1222 3.54834E-02
 -1      1223 2.85578E-02
 -1      1224 2.25328E-02
 -1      1225 1.85287E-02
 -1      1226 1.61177E-02
 -1      1227 1.37406E-02
 -1      1228 1.14212E-02
 -1      1229 9.26554E-03
 -1      1230 7.38165E-03
 -1      1231 5.78026E-03
 -1      1232 4.34574E-03
 -1      1233 3.23989E-03
 -1      1234 2.45619E-03
 -1      1235 1.62208E-03
 -1      1236 7.24390E-04
 -1      1237 4.18950E-04
 -1      1238 5.43631E-04
 -1      1239 4.61883E-04
 -1      1240 2.62932E-04
 -1      1241 2.01079E-04
 -1      1242 3.10472E-04
 -1      1243 3.94826E-04
 -1      1244 4.33332E-04
 -1      1245 4.41528E-04
 -1      1246 4.32937E-04
 -1      1247 3.92188E-04
 -1      1248 3.07701E-04
 -1      1249 2.02005E-04
 -1      1250 2.66421E-04
 -1      1251 5.52513E-04
 -1      1252 7.94544E-04
 -1      1253 6.08218E-04
 -1      1254 2.42952E+01
 -1      1255 3.65596E+01
 -1      1256 4.83082E+01
 -1      1257 3.55898E+01
 -1      1258 1.74639E+01
 -1      1259 1.24095E+01
 -1      1260 1.27625E+01
 -1      1261 1.26072E+01
 -1      1262 1.26909E+01
 -1      1263 1.29299E+01
 -1      1264 1.91228E+01
 -1      1265 2.83434E+01
 -1      1266 3.13709E+01
 -1      1267 2.83646E+01
 -1      1268 2.61366E+01
 -1      1269 2.69149E+01
 -1      1270 3.70744E+01
 -1      1271 4.72338E+01
 -1      1272 3.36168E+01
 -1      1273 1.59898E+01
 -1      1274 1.25044E+01
 -1      1275 1.31561E+01
 -1      1276 1.32832E+01
 -1      1277 1.28245E+01
 -1      1278 1.20943E+01
 -1      1279 1.87871E+01
 -1      1280 2.75556E+01
 -1      1281 2.93599E+01
 -1      1282 2.70982E+01
 -1      1283 2.43080E+01
 -1      1284 1.19578E+01
 -1      1285 4.80040E+00
 -1      1286 8.92290E+00
 -1      1287 2.49363E+00
 -1      1288 3.19870E+00
 -1      1289 4.28631E+00
 -1      1290 1.85677E+00
 -1      1291 2.12757E+00
 -1      1292 2.31856E+00
 -1      1293 1.49045E+00
 -1      1294 1.64080E+00
 -1      1295 1.73654E+00
 -1      1296 1.21728E+00
 -1      1297 1.35034E+00
 -1      1298 1.38045E+00
 -1      1299 9.86415E-01
 -1      1300 1.11872E+00
 -1      1301 1.14179E+00
 -1      1302 6.74599E-01
 -1      1303 8.37127E-01
 -1      1304 8.93947E-01
 -1      1305 5.01237E-01
 -1      1306 4.94851E-01
 -1      1307 5.64910E-01
 -1      1308 8.49744E-01
 -1      1309 6.88475E-01
 -1      1310 5.72400E-01
 -1      1311 1.11806E+00
 -1      1312 9.87991E-01
 -1      1313 8.97885E-01
 -1      1314 1.36489E+00
 -1      1315 1.23118E+00
 -1      1316 1.14925E+00
 -1      1317 1.65521E+00
 -1      1318 1.50294E+00
 -1      1319 1.40043E+00
 -1      1320 2.14107E+00
 -1      1321 1.87337E+00
 -1      1322 1.75664E+00
 -1      1323 3.11864E+00
 -1      1324 2.48938E+00
 -1      1325 2.32310E+00
 -1      1326 5.91229E+00
 -1      1327 3.71102E+00
 -1      1328 3.26380E+00
 -1      1329 1.28072E+01
 -1      1330 1.03878E+01
 -1      1331 8.33167E+00
 -1      1332 1.28072E+01
 -1      1333 7.69070E+00
 -1      1334 3.42360E+00
 -1      1335 2.71440E+00
 -1      1336 2.00521E+00
 -1      1337 2.71440E+00
 -1      1338 1.53425E+00
 -1      1339 1.06330E+00
 -1      1340 1.53425E+00
 -1      1341 8.61293E-01
 -1      1342 6.99471E-01
 -1      1343 8.61293E-01
 -1      1344 7.39652E-01
 -1      1345 8.52031E-01
 -1      1346 6.99471E-01
 -1      1347 9.64410E-01
 -1      1348 1.00483E+00
 -1      1349 8.52031E-01
 -1      1350 1.04525E+00
 -1      1351 1.04525E+00
 -1      1352 1.00483E+00
 -1      1353 1.03912E+00
 -1      1354 1.30986E+00
 -1      1355 1.03912E+00
 -1      1356 1.58674E+00
 -1      1357 2.07452E+00
 -1      1358 1.30986E+00
 -1      1359 2.56231E+00
 -1      1360 3.20080E+00
 -1      1361 2.07452E+00
 -1      1362 3.83929E+00
 -1      1363 3.98468E+00
 -1      1364 3.20080E+00
 -1      1365 4.13006E+00
 -1      1366 4.16662E+00
 -1      1367 3.98468E+00
 -1      1368 4.20319E+00
 -1      1369 4.20319E+00
 -1      1370 4.16662E+00
 -1      1371 3.81102E+00
 -1      1372 3.41886E+00
 -1      1373 3.81102E+00
 -1      1374 2.78018E+00
 -1      1375 2.02612E+00
 -1      1376 2.78018E+00
 -1      1377 1.70826E+00
 -1      1378 1.50578E+00
 -1      1379 1.82364E+00
 -1      1380 1.44545E+00
 -1      1381 1.38511E+00
 -1      1382 1.44545E+00
 -1      1383 1.36523E+00
 -1      1384 1.35275E+00
 -1      1385 1.36523E+00
 -1      1386 1.36015E+00
 -1      1387 1.36015E+00
 -1      1388 1.35275E+00
 -1      1389 1.31787E+00
 -1      1390 1.27559E+00
 -1      1391 1.31787E+00
 -1      1392 1.17881E+00
 -1      1393 1.08203E+00
 -1      1394 1.17881E+00
 -1      1395 9.91663E-01
 -1      1396 8.81671E-01
 -1      1397 9.91663E-01
 -1      1398 8.18791E-01
 -1      1399 7.31855E-01
 -1      1400 8.38418E-01
 -1      1401 6.68047E-01
 -1      1402 5.93228E-01
 -1      1403 7.11729E-01
 -1      1404 5.27530E-01
 -1      1405 4.87397E-01
 -1      1406 5.82223E-01
 -1      1407 4.26917E-01
 -1      1408 3.85395E-01
 -1      1409 4.56045E-01
 -1      1410 3.36430E-01
 -1      1411 2.97635E-01
 -1      1412 3.46600E-01
 -1      1413 2.64662E-01
 -1      1414 2.30651E-01
 -1      1415 2.64662E-01
 -1      1416 2.04864E-01
 -1      1417 1.76354E-01
 -1      1418 2.05902E-01
 -1      1419 1.54664E-01
 -1      1420 1.31572E-01
 -1      1421 1.58426E-01
 -1      1422 1.13900E-01
 -1      1423 1.01050E-01
 -1      1424 1.19064E-01
 -1      1425 9.19331E-02
 -1      1426 8.31598E-02
 -1      1427 9.22765E-02
 -1      1428 7.51597E-02
 -1      1429 6.71596E-02
 -1      1430 7.51597E-02
 -1      1431 6.01554E-02
 -1      1432 5.31511E-02
 -1      1433 6.01554E-02
 -1      1434 4.72051E-02
 -1      1435 4.12591E-02
 -1      1436 4.72051E-02
 -1      1437 3.63356E-02
 -1      1438 3.14120E-02
 -1      1439 3.63356E-02
 -1      1440 2.79027E-02
 -1      1441 2.39105E-02
 -1      1442 2.79027E-02
 -1      1443 2.13641E-02
 -1      1444 1.93005E-02
 -1      1445 2.18470E-02
 -1      1446 1.75206E-02
 -1      1447 1.57407E-02
 -1      1448 1.75206E-02
 -1      1449 1.41507E-02
 -1      1450 1.25606E-02
 -1      1451 1.41507E-02
 -1      1452 1.12157E-02
 -1      1453 9.83241E-03
 -1      1454 1.12157E-02
 -1      1455 8.78931E-03
 -1      1456 7.60525E-03
 -1      1457 8.82767E-03
 -1      1458 6.71115E-03
 -1      1459 5.79950E-03
 -1      1460 6.89047E-03
 -1      1461 5.11625E-03
 -1      1462 4.32763E-03
 -1      1463 5.31311E-03
 -1      1464 3.71414E-03
 -1      1465 3.39789E-03
 -1      1466 4.01636E-03
 -1      1467 3.11954E-03
 -1      1468 2.84615E-03
 -1      1469 3.12451E-03
 -1      1470 2.47882E-03
 -1      1471 2.11149E-03
 -1      1472 2.47882E-03
 -1      1473 1.86280E-03
 -1      1474 1.61411E-03
 -1      1475 1.86280E-03
 -1      1476 1.24119E-03
 -1      1477 1.24119E-03
 -1      1478 2.79066E+00
 -1      1479 7.79892E+00
 -1      1480 7.79892E+00
 -1      1481 1.52794E+00
 -1      1482 2.15930E+00
 -1      1483 2.15930E+00
 -1      1484 1.01626E+00
 -1      1485 1.27210E+00
 -1      1486 1.27210E+00
 -1      1487 6.39796E-01
 -1      1488 8.28027E-01
 -1      1489 8.28027E-01
 -1      1490 6.46764E-01
 -1      1491 5.77159E-01
 -1      1492 5.77159E-01
 -1      1493 9.08483E-01
 -1      1494 7.79007E-01
 -1      1495 6.46764E-01
 -1      1496 1.15580E+00
 -1      1497 1.03796E+00
 -1      1498 9.08483E-01
 -1      1499 1.42016E+00
 -1      1500 1.27364E+00
 -1      1501 1.15580E+00
 -1      1502 1.73729E+00
 -1      1503 1.56668E+00
 -1      1504 1.42016E+00
 -1      1505 2.53648E+00
 -1      1506 2.00482E+00
 -1      1507 1.83421E+00
 -1      1508 3.24139E+00
 -1      1509 2.97122E+00
 -1      1510 2.53648E+00
 -1      1511 3.76624E+00
 -1      1512 3.51155E+00
 -1      1513 3.24139E+00
 -1      1514 4.02093E+00
 -1      1515 4.02093E+00
 -1      1516 3.76624E+00
 -1      1517 3.60329E+00
 -1      1518 3.81211E+00
 -1      1519 3.81211E+00
 -1      1520 2.31827E+00
 -1      1521 2.96078E+00
 -1      1522 2.96078E+00
 -1      1523 1.46489E+00
 -1      1524 1.89158E+00
 -1      1525 1.89158E+00
 -1      1526 1.05357E+00
 -1      1527 1.22954E+00
 -1      1528 1.22954E+00
 -1      1529 1.18840E+00
 -1      1530 1.11296E+00
 -1      1531 1.05357E+00
 -1      1532 1.28003E+00
 -1      1533 1.26383E+00
 -1      1534 1.18840E+00
 -1      1535 1.29624E+00
 -1      1536 1.29624E+00
 -1      1537 1.28003E+00
 -1      1538 1.18085E+00
 -1      1539 1.23854E+00
 -1      1540 1.23854E+00
 -1      1541 9.98394E-01
 -1      1542 1.08962E+00
 -1      1543 1.08962E+00
 -1      1544 8.38716E-01
 -1      1545 9.18555E-01
 -1      1546 9.18555E-01
 -1      1547 6.81407E-01
 -1      1548 7.64521E-01
 -1      1549 7.64521E-01
 -1      1550 5.32781E-01
 -1      1551 6.09943E-01
 -1      1552 6.18862E-01
 -1      1553 4.01762E-01
 -1      1554 4.68412E-01
 -1      1555 4.83029E-01
 -1      1556 3.02543E-01
 -1      1557 3.47167E-01
 -1      1558 3.64066E-01
 -1      1559 2.28487E-01
 -1      1560 2.62051E-01
 -1      1561 2.68979E-01
 -1      1562 1.72052E-01
 -1      1563 2.00269E-01
 -1      1564 2.00269E-01
 -1      1565 1.26239E-01
 -1      1566 1.49148E-01
 -1      1567 1.49148E-01
 -1      1568 9.12672E-02
 -1      1569 1.09339E-01
 -1      1570 1.09345E-01
 -1      1571 6.41064E-02
 -1      1572 7.80067E-02
 -1      1573 7.91848E-02
 -1      1574 4.71622E-02
 -1      1575 5.47254E-02
 -1      1576 5.65433E-02
 -1      1577 3.91623E-02
 -1      1578 4.31623E-02
 -1      1579 4.31623E-02
 -1      1580 3.18045E-02
 -1      1581 3.54834E-02
 -1      1582 3.54834E-02
 -1      1583 2.53110E-02
 -1      1584 2.85578E-02
 -1      1585 2.85578E-02
 -1      1586 1.97546E-02
 -1      1587 2.25328E-02
 -1      1588 2.25328E-02
 -1      1589 1.73027E-02
 -1      1590 1.85287E-02
 -1      1591 1.85287E-02
 -1      1592 1.49327E-02
 -1      1593 1.61177E-02
 -1      1594 1.61177E-02
 -1      1595 1.25485E-02
 -1      1596 1.37406E-02
 -1      1597 1.37406E-02
 -1      1598 1.02939E-02
 -1      1599 1.14212E-02
 -1      1600 1.14212E-02
 -1      1601 8.23720E-03
 -1      1602 9.26554E-03
 -1      1603 9.26554E-03
 -1      1604 6.52610E-03
 -1      1605 7.38165E-03
 -1      1606 7.38165E-03
 -1      1607 5.03443E-03
 -1      1608 5.78026E-03
 -1      1609 5.78026E-03
 -1      1610 3.67838E-03
 -1      1611 4.36707E-03
 -1      1612 4.36707E-03
 -1      1613 2.82272E-03
 -1      1614 3.23989E-03
 -1      1615 3.26122E-03
 -1      1616 2.08965E-03
 -1      1617 2.45619E-03
 -1      1618 2.45619E-03
 -1      1619 1.18642E-03
 -1      1620 1.65399E-03
 -1      1621 1.65399E-03
 -1      1622 8.49070E-04
 -1      1623 5.89767E-04
 -1      1624 5.89767E-04
 -1      1625 5.08019E-04
 -1      1626 5.89767E-04
 -1      1627 6.35903E-04
 -1      1628 3.40594E-04
 -1      1629 4.57797E-04
 -1      1630 5.85681E-04
 -1      1631 3.36683E-04
 -1      1632 2.81333E-04
 -1      1633 4.76198E-04
 -1      1634 4.99121E-04
 -1      1635 4.45078E-04
 -1      1636 5.25332E-04
 -1      1637 5.94289E-04
 -1      1638 5.63977E-04
 -1      1639 6.98583E-04
 -1      1640 6.27460E-04
 -1      1641 6.19265E-04
 -1      1642 7.88416E-04
 -1      1643 6.27460E-04
 -1      1644 6.27460E-04
 -1      1645 8.13392E-04
 -1      1646 6.18731E-04
 -1      1647 6.27321E-04
 -1      1648 8.13253E-04
 -1      1649 5.59588E-04
 -1      1650 5.91747E-04
 -1      1651 7.86131E-04
 -1      1652 4.44240E-04
 -1      1653 4.96567E-04
 -1      1654 6.96126E-04
 -1      1655 2.84964E-04
 -1      1656 3.38332E-04
 -1      1657 5.27198E-04
 -1      1658 4.56843E-04
 -1      1659 3.39058E-04
 -1      1660 4.75385E-04
 -1      1661 6.25151E-04
 -1      1662 4.56843E-04
 -1      1663 5.29480E-04
 -1      1664 8.68268E-04
 -1      1665 7.94544E-04
 -1      1666 6.98874E-04
 -1      1667 1.24119E-03
 -1      1668 2.73873E+01
 -1      1669 2.68715E+01
 -1      1670 3.90709E+01
 -1      1671 2.73223E+01
 -1      1672 4.83082E+01
 -1      1673 4.83082E+01
 -1      1674 2.34310E+01
 -1      1675 3.61494E+01
 -1      1676 1.19069E+01
 -1      1677 1.73145E+01
 -1      1678 1.24095E+01
 -1      1679 1.20564E+01
 -1      1680 1.27625E+01
 -1      1681 1.27625E+01
 -1      1682 1.20211E+01
 -1      1683 1.21764E+01
 -1      1684 1.26909E+01
 -1      1685 1.24519E+01
 -1      1686 1.29299E+01
 -1      1687 1.29299E+01
 -1      1688 1.89151E+01
 -1      1689 1.27222E+01
 -1      1690 2.90660E+01
 -1      1691 2.60384E+01
 -1      1692 3.13709E+01
 -1      1693 3.13709E+01
 -1      1694 2.80840E+01
 -1      1695 3.10904E+01
 -1      1696 2.88025E+01
 -1      1697 2.80241E+01
 -1      1698 2.88025E+01
 -1      1699 2.88025E+01
 -1      1700 3.76526E+01
 -1      1701 2.74931E+01
 -1      1702 4.72338E+01
 -1      1703 4.72338E+01
 -1      1704 2.09182E+01
 -1      1705 3.45352E+01
 -1      1706 1.13277E+01
 -1      1707 1.53377E+01
 -1      1708 1.25044E+01
 -1      1709 1.19798E+01
 -1      1710 1.31561E+01
 -1      1711 1.30291E+01
 -1      1712 1.32832E+01
 -1      1713 1.32832E+01
 -1      1714 1.23658E+01
 -1      1715 1.28245E+01
 -1      1716 1.18229E+01
 -1      1717 1.20943E+01
 -1      1718 1.87763E+01
 -1      1719 1.18121E+01
 -1      1720 2.87293E+01
 -1      1721 2.69251E+01
 -1      1722 3.04846E+01
 -1      1723 3.04846E+01
 -1      1724 2.82229E+01
 -1      1725 3.04846E+01
 -1      1726 2.68715E+01
 -1      1727 2.74001E+01
 -1      1728 1.78741E+01
 -1      1729 3.61494E+01
 -1      1730 8.80983E-04
 -1      1731 9.27119E-04
 -1      1732 2.98986E+01
 -1      1733 3.90709E+01
 -1      1734 2.99635E+01
 -1      1735 1.19069E+01
 -1      1736 1.24095E+01
 -1      1737 1.21764E+01
 -1      1738 1.20211E+01
 -1      1739 1.26909E+01
 -1      1740 1.27222E+01
 -1      1741 1.96378E+01
 -1      1742 2.90660E+01
 -1      1743 3.10904E+01
 -1      1744 3.07499E+01
 -1      1745 3.06900E+01
 -1      1746 2.93807E+01
 -1      1747 3.76526E+01
 -1      1748 3.45352E+01
 -1      1749 1.62561E+01
 -1      1750 1.13277E+01
 -1      1751 1.25044E+01
 -1      1752 1.31561E+01
 -1      1753 1.28245E+01
 -1      1754 1.20943E+01
 -1      1755 1.18121E+01
 -1      1756 1.99500E+01
 -1      1757 2.98540E+01
 -1      1758 3.16093E+01
 -1      1759 3.07864E+01
 -1      1760 8.92290E+00
 -1      1761 1.79929E+00
 -1      1762 2.16535E+00
 -1      1763 2.66821E+00
 -1      1764 4.26990E+00
 -1      1765 2.14895E+00
 -1      1766 1.27692E+00
 -1      1767 1.41703E+00
 -1      1768 1.10616E+00
 -1      1769 1.20471E+00
 -1      1770 1.24129E+00
 -1      1771 8.44206E-01
 -1      1772 9.93494E-01
 -1      1773 1.05642E+00
 -1      1774 4.83083E-01
 -1      1775 6.62831E-01
 -1      1776 7.62378E-01
 -1      1777 6.81718E-01
 -1      1778 4.94480E-01
 -1      1779 5.92401E-01
 -1      1780 9.88629E-01
 -1      1781 8.50382E-01
 -1      1782 7.72461E-01
 -1      1783 1.21740E+00
 -1      1784 1.10428E+00
 -1      1785 1.05677E+00
 -1      1786 1.42957E+00
 -1      1787 1.29152E+00
 -1      1788 1.24654E+00
 -1      1789 1.73295E+00
 -1      1790 1.51479E+00
 -1      1791 1.40589E+00
 -1      1792 2.19684E+00
 -1      1793 1.84853E+00
 -1      1794 1.60669E+00
 -1      1795 2.82068E+00
 -1      1796 2.22830E+00
 -1      1797 1.75372E+00
 -1      1798 7.25132E+00
 -1      1799 2.77582E+00
 -1      1800 1.74032E+00
 -1      1801 2.24306E+00
 -1      1802 4.65580E+00
 -1      1803 1.35310E+00
 -1      1804 1.98446E+00
 -1      1805 1.43686E+00
 -1      1806 3.03770E+00
 -1      1807 1.58261E+00
 -1      1808 1.11166E+00
 -1      1809 9.58098E-01
 -1      1810 7.56095E-01
 -1      1811 1.00646E+00
 -1      1812 7.39194E-01
 -1      1813 7.79375E-01
 -1      1814 8.35999E-01
 -1      1815 7.55450E-01
 -1      1816 8.67829E-01
 -1      1817 7.95173E-01
 -1      1818 8.45662E-01
 -1      1819 8.86081E-01
 -1      1820 7.49082E-01
 -1      1821 9.48135E-01
 -1      1822 9.42005E-01
 -1      1823 7.88970E-01
 -1      1824 1.09040E+00
 -1      1825 1.36727E+00
 -1      1826 9.99416E-01
 -1      1827 1.67225E+00
 -1      1828 2.16003E+00
 -1      1829 1.45278E+00
 -1      1830 2.41141E+00
 -1      1831 3.04990E+00
 -1      1832 2.00913E+00
 -1      1833 3.18877E+00
 -1      1834 3.33415E+00
 -1      1835 2.39937E+00
 -1      1836 3.30240E+00
 -1      1837 3.33896E+00
 -1      1838 2.50649E+00
 -1      1839 3.35730E+00
 -1      1840 2.96513E+00
 -1      1841 2.49308E+00
 -1      1842 2.69738E+00
 -1      1843 2.05870E+00
 -1      1844 2.24366E+00
 -1      1845 1.80678E+00
 -1      1846 1.48891E+00
 -1      1847 1.72398E+00
 -1      1848 1.17429E+00
 -1      1849 1.11395E+00
 -1      1850 1.15742E+00
 -1      1851 1.11022E+00
 -1      1852 1.09034E+00
 -1      1853 8.39066E-01
 -1      1854 1.11852E+00
 -1      1855 1.12592E+00
 -1      1856 8.63513E-01
 -1      1857 1.19356E+00
 -1      1858 1.15129E+00
 -1      1859 9.59336E-01
 -1      1860 1.13923E+00
 -1      1861 1.04245E+00
 -1      1862 1.01492E+00
 -1      1863 9.89024E-01
 -1      1864 8.98659E-01
 -1      1865 9.49445E-01
 -1      1866 8.52750E-01
 -1      1867 7.89869E-01
 -1      1868 8.50111E-01
 -1      1869 7.41313E-01
 -1      1870 6.77505E-01
 -1      1871 7.55645E-01
 -1      1872 6.19730E-01
 -1      1873 5.54032E-01
 -1      1874 6.49314E-01
 -1      1875 4.96031E-01
 -1      1876 4.35551E-01
 -1      1877 5.33538E-01
 -1      1878 3.82538E-01
 -1      1879 3.33573E-01
 -1      1880 4.22524E-01
 -1      1881 2.88005E-01
 -1      1882 2.55032E-01
 -1      1883 3.23944E-01
 -1      1884 2.17572E-01
 -1      1885 1.91786E-01
 -1      1886 2.40916E-01
 -1      1887 1.62059E-01
 -1      1888 1.40369E-01
 -1      1889 1.73729E-01
 -1      1890 1.19064E-01
 -1      1891 1.01393E-01
 -1      1892 1.22698E-01
 -1      1893 8.73715E-02
 -1      1894 7.82547E-02
 -1      1895 8.73715E-02
 -1      1896 6.81500E-02
 -1      1897 6.01499E-02
 -1      1898 6.32449E-02
 -1      1899 5.42857E-02
 -1      1900 4.72815E-02
 -1      1901 4.72760E-02
 -1      1902 4.37457E-02
 -1      1903 3.77997E-02
 -1      1904 3.78760E-02
 -1      1905 3.45561E-02
 -1      1906 2.96326E-02
 -1      1907 3.10967E-02
 -1      1908 2.67696E-02
 -1      1909 2.32604E-02
 -1      1910 2.49902E-02
 -1      1911 2.08060E-02
 -1      1912 1.82595E-02
 -1      1913 1.96729E-02
 -1      1914 1.63764E-02
 -1      1915 1.45965E-02
 -1      1916 1.53354E-02
 -1      1917 1.35624E-02
 -1      1918 1.19723E-02
 -1      1919 1.24182E-02
 -1      1920 1.09917E-02
 -1      1921 9.64674E-03
 -1      1922 1.04034E-02
 -1      1923 8.72128E-03
 -1      1924 7.67818E-03
 -1      1925 8.49725E-03
 -1      1926 6.89047E-03
 -1      1927 5.99637E-03
 -1      1928 6.78408E-03
 -1      1929 5.32667E-03
 -1      1930 4.64341E-03
 -1      1931 5.32667E-03
 -1      1932 4.06956E-03
 -1      1933 3.45607E-03
 -1      1934 4.08312E-03
 -1      1935 3.01133E-03
 -1      1936 2.73298E-03
 -1      1937 3.06454E-03
 -1      1938 2.39013E-03
 -1      1939 2.02280E-03
 -1      1940 2.27695E-03
 -1      1941 1.76479E-03
 -1      1942 1.51610E-03
 -1      1943 1.14318E-03
 -1      1944 1.67609E-03
 -1      1945 8.80382E-01
 -1      1946 1.13622E+00
 -1      1947 9.61379E-01
 -1      1948 6.64685E-01
 -1      1949 8.52917E-01
 -1      1950 7.17040E-01
 -1      1951 5.79377E-01
 -1      1952 6.42014E-01
 -1      1953 6.66903E-01
 -1      1954 6.53964E-01
 -1      1955 5.21721E-01
 -1      1956 5.86577E-01
 -1      1957 7.99220E-01
 -1      1958 6.69744E-01
 -1      1959 5.44701E-01
 -1      1960 1.09006E+00
 -1      1961 9.72217E-01
 -1      1962 7.33477E-01
 -1      1963 1.57009E+00
 -1      1964 1.42357E+00
 -1      1965 1.23998E+00
 -1      1966 2.05594E+00
 -1      1967 1.78841E+00
 -1      1968 1.79181E+00
 -1      1969 2.50996E+00
 -1      1970 2.07521E+00
 -1      1971 2.02942E+00
 -1      1972 2.74442E+00
 -1      1973 2.47425E+00
 -1      1974 2.01299E+00
 -1      1975 3.13733E+00
 -1      1976 2.88264E+00
 -1      1977 2.11551E+00
 -1      1978 2.94618E+00
 -1      1979 3.15500E+00
 -1      1980 2.27140E+00
 -1      1981 2.01347E+00
 -1      1982 2.65598E+00
 -1      1983 1.99887E+00
 -1      1984 1.23571E+00
 -1      1985 1.66240E+00
 -1      1986 1.35760E+00
 -1      1987 8.20738E-01
 -1      1988 1.05609E+00
 -1      1989 8.26916E-01
 -1      1990 9.57958E-01
 -1      1991 8.98566E-01
 -1      1992 7.25125E-01
 -1      1993 1.09400E+00
 -1      1994 1.01857E+00
 -1      1995 8.63567E-01
 -1      1996 1.12676E+00
 -1      1997 1.11056E+00
 -1      1998 9.40734E-01
 -1      1999 1.05866E+00
 -1      2000 1.11636E+00
 -1      2001 9.46881E-01
 -1      2002 9.19722E-01
 -1      2003 1.01095E+00
 -1      2004 8.88763E-01
 -1      2005 7.95662E-01
 -1      2006 8.75501E-01
 -1      2007 7.96828E-01
 -1      2008 6.63908E-01
 -1      2009 7.38103E-01
 -1      2010 6.95048E-01
 -1      2011 5.32255E-01
 -1      2012 6.03719E-01
 -1      2013 5.77301E-01
 -1      2014 4.11590E-01
 -1      2015 4.75958E-01
 -1      2016 4.60816E-01
 -1      2017 3.07891E-01
 -1      2018 3.62486E-01
 -1      2019 3.55415E-01
 -1      2020 2.26636E-01
 -1      2021 2.67128E-01
 -1      2022 2.65548E-01
 -1      2023 1.70146E-01
 -1      2024 1.98363E-01
 -1      2025 1.96512E-01
 -1      2026 1.26245E-01
 -1      2027 1.49148E-01
 -1      2028 1.47242E-01
 -1      2029 9.24453E-02
 -1      2030 1.09345E-01
 -1      2031 1.09345E-01
 -1      2032 6.59243E-02
 -1      2033 7.91848E-02
 -1      2034 7.91848E-02
 -1      2035 4.63754E-02
 -1      2036 5.57564E-02
 -1      2037 5.57564E-02
 -1      2038 3.47500E-02
 -1      2039 3.87500E-02
 -1      2040 3.79632E-02
 -1      2041 2.87107E-02
 -1      2042 3.23896E-02
 -1      2043 2.79773E-02
 -1      2044 2.34707E-02
 -1      2045 2.67175E-02
 -1      2046 2.36237E-02
 -1      2047 1.87829E-02
 -1      2048 2.15610E-02
 -1      2049 1.97208E-02
 -1      2050 1.58144E-02
 -1      2051 1.70404E-02
 -1      2052 1.60686E-02
 -1      2053 1.30933E-02
 -1      2054 1.42783E-02
 -1      2055 1.27901E-02
 -1      2056 1.09836E-02
 -1      2057 1.21757E-02
 -1      2058 1.03364E-02
 -1      2059 9.12013E-03
 -1      2060 1.02474E-02
 -1      2061 8.68256E-03
 -1      2062 7.35720E-03
 -1      2063 8.38554E-03
 -1      2064 7.21179E-03
 -1      2065 5.94414E-03
 -1      2066 6.79970E-03
 -1      2067 5.91970E-03
 -1      2068 4.68528E-03
 -1      2069 5.43111E-03
 -1      2070 4.84916E-03
 -1      2071 3.52762E-03
 -1      2072 4.19497E-03
 -1      2073 3.84583E-03
 -1      2074 2.63422E-03
 -1      2075 3.07271E-03
 -1      2076 2.90062E-03
 -1      2077 1.97202E-03
 -1      2078 2.33855E-03
 -1      2079 2.15005E-03
 -1      2080 1.21834E-03
 -1      2081 1.65399E-03
 -1      2082 1.53636E-03
 -1      2083 9.27119E-04
 -1      2084 5.43076E-04
 -1      2085 6.02338E-04
 -1      2086 8.91528E-04
 -1      2087 9.41750E-04
 -1      2088 9.58407E-04
 -1      2089 9.41750E-04
 -1      2090 9.41750E-04
 -1      2091 1.23297E-03
 -1      2092 1.24760E-03
 -1      2093 7.38681E-04
 -1      2094 6.30286E-04
 -1      2095 7.56426E-04
 -1      2096 8.93656E-04
 -1      2097 8.28799E-04
 -1      2098 9.33754E-04
 -1      2099 9.56970E-04
 -1      2100 9.31993E-04
 -1      2101 1.06221E-03
 -1      2102 9.56970E-04
 -1      2103 9.56970E-04
 -1      2104 1.10055E-03
 -1      2105 9.55367E-04
 -1      2106 9.55506E-04
 -1      2107 1.09908E-03
 -1      2108 9.28383E-04
 -1      2109 9.55367E-04
 -1      2110 1.09762E-03
 -1      2111 8.28252E-04
 -1      2112 8.91273E-04
 -1      2113 1.06051E-03
 -1      2114 6.32299E-04
 -1      2115 7.38206E-04
 -1      2116 9.33353E-04
 -1      2117 5.91107E-04
 -1      2118 5.37012E-04
 -1      2119 7.48020E-04
 -1      2120 8.26205E-04
 -1      2121 8.26205E-04
 -1      2122 8.87832E-04
 -1      2123 3.90709E+01
 -1      2124 2.98336E+01
 -1      2125 3.09960E+01
 -1      2126 3.09960E+01
 -1      2127 3.04483E+01
 -1      2128 3.05133E+01
 -1      2129 2.06989E+01
 -1      2130 3.28577E+01
 -1      2131 1.09063E+01
 -1      2132 1.70229E+01
 -1      2133 1.50034E+00
 -1      2134 1.71631E+00
 -1      2135 1.56310E+00
 -1      2136 1.39680E+00
 -1      2137 1.11431E+01
 -1      2138 1.07900E+01
 -1      2139 1.11169E+01
 -1      2140 1.17030E+01
 -1      2141 1.15211E+01
 -1      2142 1.10903E+01
 -1      2143 1.14310E+01
 -1      2144 1.11920E+01
 -1      2145 9.47569E+00
 -1      2146 9.68340E+00
 -1      2147 1.86303E+01
 -1      2148 1.15070E+01
 -1      2149 2.50835E+01
 -1      2150 2.27786E+01
 -1      2151 3.08098E+01
 -1      2152 3.10904E+01
 -1      2153 3.15675E+01
 -1      2154 3.16274E+01
 -1      2155 3.15675E+01
 -1      2156 3.15675E+01
 -1      2157 3.24450E+01
 -1      2158 2.52996E+01
 -1      2159 2.66089E+01
 -1      2160 3.76526E+01
 -1      2161 2.80714E+01
 -1      2162 1.91080E+01
 -1      2163 3.18066E+01
 -1      2164 2.22254E+01
 -1      2165 1.00923E+01
 -1      2166 1.56728E+01
 -1      2167 9.73931E+00
 -1      2168 9.08717E+00
 -1      2169 1.11751E+01
 -1      2170 1.06505E+01
 -1      2171 1.18280E+01
 -1      2172 1.17009E+01
 -1      2173 1.12524E+01
 -1      2174 1.17111E+01
 -1      2175 1.06130E+01
 -1      2176 1.08845E+01
 -1      2177 9.77107E+00
 -1      2178 9.09044E+00
 -1      2179 9.10128E+00
 -1      2180 1.94982E+01
 -1      2181 1.13494E+01
 -1      2182 8.63866E+00
 -1      2183 2.51632E+01
 -1      2184 2.34080E+01
 -1      2185 3.16093E+01
 -1      2186 3.16093E+01
 -1      2187 2.51632E+01
 -1      2188 3.09960E+01
 -1      2189 3.18189E+01
 -1      2190 3.20286E+01
 -1      2191 9.59781E+00
 -1      2192 9.44834E+00
 -1      2193 1.37312E+01
 -1      2194 2.32851E+00
 -1      2195 8.59720E+00
 -1      2196 8.33140E+00
 -1      2197 1.90592E+00
 -1      2198 3.04483E+01
 -1      2199 3.15458E+01
 -1      2200 9.95599E-04
 -1      2201 2.36204E+01
 -1      2202 3.18189E+01
 -1      2203 1.48074E+01
 -1      2204 7.89142E+00
 -1      2205 1.02558E+01
 -1      2206 9.84689E+00
 -1      2207 8.40993E+00
 -1      2208 1.29441E+01
 -1      2209 2.90110E+01
 -1      2210 2.98884E+01
 -1      2211 2.49298E+01
 -1      2212 3.16274E+01
 -1      2213 2.48030E+01
 -1      2214 1.46478E+01
 -1      2215 8.46819E+00
 -1      2216 8.18448E+00
 -1      2217 1.02611E+01
 -1      2218 1.00835E+01
 -1      2219 1.06169E+01
 -1      2220 2.52996E+01
 -1      2221 8.50387E+00
 -1      2222 1.14381E+00
 -1      2223 1.36069E+00
 -1      2224 1.06178E+00
 -1      2225 1.17445E+00
 -1      2226 1.21193E+00
 -1      2227 1.28414E+00
 -1      2228 1.21729E+00
 -1      2229 6.19974E-01
 -1      2230 6.08577E-01
 -1      2231 9.18290E-01
 -1      2232 7.49626E-01
 -1      2233 7.65803E-01
 -1      2234 1.17711E+00
 -1      2235 1.06146E+00
 -1      2236 1.03863E+00
 -1      2237 1.29125E+00
 -1      2238 1.21712E+00
 -1      2239 1.22181E+00
 -1      2240 1.38452E+00
 -1      2241 1.29930E+00
 -1      2242 1.26988E+00
 -1      2243 1.69002E+00
 -1      2244 1.57445E+00
 -1      2245 1.46786E+00
 -1      2246 8.20674E-01
 -1      2247 8.48139E-01
 -1      2248 1.24745E+00
 -1      2249 1.15360E+00
 -1      2250 1.00004E+00
 -1      2251 6.96097E+00
 -1      2252 8.41896E+00
 -1      2253 9.73603E-01
 -1      2254 9.56702E-01
 -1      2255 1.12074E+00
 -1      2256 9.73382E-01
 -1      2257 9.49457E-01
 -1      2258 1.11099E+00
 -1      2259 9.62304E-01
 -1      2260 9.40138E-01
 -1      2261 1.14051E+00
 -1      2262 9.99060E-01
 -1      2263 1.06111E+00
 -1      2264 1.21228E+00
 -1      2265 1.20732E+00
 -1      2266 1.35571E+00
 -1      2267 1.41741E+00
 -1      2268 1.41912E+00
 -1      2269 1.72409E+00
 -1      2270 1.62702E+00
 -1      2271 1.83811E+00
 -1      2272 2.08948E+00
 -1      2273 1.80445E+00
 -1      2274 2.41224E+00
 -1      2275 2.55111E+00
 -1      2276 2.24122E+00
 -1      2277 2.82850E+00
 -1      2278 2.79675E+00
 -1      2279 2.84136E+00
 -1      2280 2.77410E+00
 -1      2281 2.79243E+00
 -1      2282 3.09610E+00
 -1      2283 2.32733E+00
 -1      2284 2.05958E+00
 -1      2285 2.60835E+00
 -1      2286 1.93665E+00
 -1      2287 1.68472E+00
 -1      2288 2.02033E+00
 -1      2289 1.51087E+00
 -1      2290 1.19625E+00
 -1      2291 1.72355E+00
 -1      2292 1.17132E+00
 -1      2293 1.16759E+00
 -1      2294 1.52478E+00
 -1      2295 1.02483E+00
 -1      2296 1.05301E+00
 -1      2297 1.35709E+00
 -1      2298 1.04134E+00
 -1      2299 1.10898E+00
 -1      2300 1.20265E+00
 -1      2301 1.05593E+00
 -1      2302 1.04388E+00
 -1      2303 1.13793E+00
 -1      2304 9.74942E-01
 -1      2305 9.21519E-01
 -1      2306 1.01595E+00
 -1      2307 8.76098E-01
 -1      2308 8.30188E-01
 -1      2309 9.01596E-01
 -1      2310 7.80973E-01
 -1      2311 7.32416E-01
 -1      2312 8.06960E-01
 -1      2313 6.74796E-01
 -1      2314 6.17021E-01
 -1      2315 7.00123E-01
 -1      2316 5.58953E-01
 -1      2317 5.00951E-01
 -1      2318 5.84434E-01
 -1      2319 4.47204E-01
 -1      2320 3.94192E-01
 -1      2321 4.72619E-01
 -1      2322 3.47161E-01
 -1      2323 3.01593E-01
 -1      2324 3.71841E-01
 -1      2325 2.62089E-01
 -1      2326 2.24629E-01
 -1      2327 2.85306E-01
 -1      2328 1.92493E-01
 -1      2329 1.62766E-01
 -1      2330 2.13666E-01
 -1      2331 1.37319E-01
 -1      2332 1.16014E-01
 -1      2333 1.56083E-01
 -1      2334 9.63414E-02
 -1      2335 8.23196E-02
 -1      2336 1.10962E-01
 -1      2337 6.74545E-02
 -1      2338 5.73498E-02
 -1      2339 7.64245E-02
 -1      2340 4.63738E-02
 -1      2341 4.05097E-02
 -1      2342 5.05835E-02
 -1      2343 3.41463E-02
 -1      2344 3.06105E-02
 -1      2345 3.32442E-02
 -1      2346 2.72010E-02
 -1      2347 2.39574E-02
 -1      2348 2.34713E-02
 -1      2349 2.27372E-02
 -1      2350 1.98743E-02
 -1      2351 1.88415E-02
 -1      2352 1.85591E-02
 -1      2353 1.61047E-02
 -1      2354 1.63062E-02
 -1      2355 1.48108E-02
 -1      2356 1.29277E-02
 -1      2357 1.36971E-02
 -1      2358 1.17234E-02
 -1      2359 1.06892E-02
 -1      2360 1.11987E-02
 -1      2361 9.71281E-03
 -1      2362 8.73212E-03
 -1      2363 9.01796E-03
 -1      2364 8.15880E-03
 -1      2365 7.23334E-03
 -1      2366 7.46822E-03
 -1      2367 6.62904E-03
 -1      2368 5.84133E-03
 -1      2369 6.29059E-03
 -1      2370 5.24942E-03
 -1      2371 4.57971E-03
 -1      2372 5.09437E-03
 -1      2373 4.08857E-03
 -1      2374 3.51472E-03
 -1      2375 4.01132E-03
 -1      2376 3.07292E-03
 -1      2377 2.62819E-03
 -1      2378 3.07837E-03
 -1      2379 2.25269E-03
 -1      2380 1.90984E-03
 -1      2381 2.26108E-03
 -1      2382 7.32401E-01
 -1      2383 7.90056E-01
 -1      2384 7.79950E-01
 -1      2385 7.64170E-01
 -1      2386 9.67649E-01
 -1      2387 1.05955E+00
 -1      2388 8.86555E-01
 -1      2389 1.10602E+00
 -1      2390 1.48297E+00
 -1      2391 1.14946E+00
 -1      2392 1.30254E+00
 -1      2393 1.93100E+00
 -1      2394 1.71267E+00
 -1      2395 1.62216E+00
 -1      2396 2.12233E+00
 -1      2397 2.10305E+00
 -1      2398 2.02391E+00
 -1      2399 2.28004E+00
 -1      2400 2.31575E+00
 -1      2401 2.38938E+00
 -1      2402 2.43723E+00
 -1      2403 2.29901E+00
 -1      2404 2.60177E+00
 -1      2405 2.23017E+00
 -1      2406 2.21250E+00
 -1      2407 2.39600E+00
 -1      2408 1.71074E+00
 -1      2409 2.00094E+00
 -1      2410 1.94204E+00
 -1      2411 1.20608E+00
 -1      2412 1.55715E+00
 -1      2413 1.55922E+00
 -1      2414 9.29982E-01
 -1      2415 1.10960E+00
 -1      2416 1.30914E+00
 -1      2417 9.14560E-01
 -1      2418 8.36733E-01
 -1      2419 1.11942E+00
 -1      2420 9.77430E-01
 -1      2421 9.16816E-01
 -1      2422 1.02842E+00
 -1      2423 9.85414E-01
 -1      2424 9.68862E-01
 -1      2425 1.02211E+00
 -1      2426 9.33047E-01
 -1      2427 9.43452E-01
 -1      2428 9.71580E-01
 -1      2429 8.47351E-01
 -1      2430 8.95064E-01
 -1      2431 8.91635E-01
 -1      2432 7.60810E-01
 -1      2433 8.05031E-01
 -1      2434 8.11332E-01
 -1      2435 6.51225E-01
 -1      2436 7.08784E-01
 -1      2437 7.16987E-01
 -1      2438 5.34244E-01
 -1      2439 5.94433E-01
 -1      2440 6.08168E-01
 -1      2441 4.23121E-01
 -1      2442 4.79418E-01
 -1      2443 4.96550E-01
 -1      2444 3.24884E-01
 -1      2445 3.73988E-01
 -1      2446 3.92590E-01
 -1      2447 2.42287E-01
 -1      2448 2.83050E-01
 -1      2449 3.01623E-01
 -1      2450 1.79739E-01
 -1      2451 2.08011E-01
 -1      2452 2.25513E-01
 -1      2453 1.31522E-01
 -1      2454 1.52519E-01
 -1      2455 1.64018E-01
 -1      2456 9.35834E-02
 -1      2457 1.10483E-01
 -1      2458 1.15760E-01
 -1      2459 6.44681E-02
 -1      2460 7.77286E-02
 -1      2461 7.88667E-02
 -1      2462 4.45377E-02
 -1      2463 5.47056E-02
 -1      2464 5.32494E-02
 -1      2465 3.05293E-02
 -1      2466 3.81547E-02
 -1      2467 3.71038E-02
 -1      2468 2.56169E-02
 -1      2469 2.79773E-02
 -1      2470 2.81688E-02
 -1      2471 2.16305E-02
 -1      2472 2.36237E-02
 -1      2473 2.36237E-02
 -1      2474 1.78111E-02
 -1      2475 1.97208E-02
 -1      2476 1.97208E-02
 -1      2477 1.43261E-02
 -1      2478 1.60686E-02
 -1      2479 1.60686E-02
 -1      2480 1.12540E-02
 -1      2481 1.27901E-02
 -1      2482 1.27901E-02
 -1      2483 9.41873E-03
 -1      2484 1.03364E-02
 -1      2485 1.03364E-02
 -1      2486 7.94638E-03
 -1      2487 8.68256E-03
 -1      2488 8.68256E-03
 -1      2489 6.47720E-03
 -1      2490 7.21179E-03
 -1      2491 7.21179E-03
 -1      2492 5.24357E-03
 -1      2493 5.80108E-03
 -1      2494 5.80108E-03
 -1      2495 4.16402E-03
 -1      2496 4.67705E-03
 -1      2497 4.55843E-03
 -1      2498 3.16450E-03
 -1      2499 3.65480E-03
 -1      2500 3.48269E-03
 -1      2501 2.31419E-03
 -1      2502 2.76910E-03
 -1      2503 2.57808E-03
 -1      2504 1.73082E-03
 -1      2505 2.02648E-03
 -1      2506 1.89496E-03
 -1      2507 1.55099E-03
 -1      2508 1.14814E-03
 -1      2509 1.05802E-03
 -1      2510 1.23658E-03
 -1      2511 1.19824E-03
 -1      2512 1.32251E-03
 -1      2513 1.02797E-03
 -1      2514 1.31716E-03
 -1      2515 9.41188E-04
 -1      2516 8.53978E-04
 -1      2517 1.21273E-03
 -1      2518 1.15557E-03
 -1      2519 1.23658E-03
 -1      2520 1.23658E-03
 -1      2521 1.37261E-03
 -1      2522 1.22766E-03
 -1      2523 1.22912E-03
 -1      2524 1.36515E-03
 -1      2525 1.23434E-03
 -1      2526 1.23434E-03
 -1      2527 1.36438E-03
 -1      2528 1.19723E-03
 -1      2529 1.23434E-03
 -1      2530 1.37106E-03
 -1      2531 1.05752E-03
 -1      2532 1.14757E-03
 -1      2533 1.32140E-03
 -1      2534 8.36531E-04
 -1      2535 9.31818E-04
 -1      2536 1.14604E-03
 -1      2537 1.07163E-03
 -1      2538 8.36531E-04
 -1      2539 1.02033E-03
 -1      2540 3.10631E+01
 -1      2541 3.15458E+01
 -1      2542 1.64388E+01
 -1      2543 2.26519E+01
 -1      2544 7.98503E-01
 -1      2545 8.21174E-01
 -1      2546 9.44327E-01
 -1      2547 6.83353E+00
 -1      2548 5.64134E+00
 -1      2549 1.27051E-03
 -1      2550 2.82084E+01
 -1      2551 2.79988E+01
 -1      2552 2.58255E+01
 -1      2553 2.64402E+01
 -1      2554 2.64402E+01
 -1      2555 8.96221E+00
 -1      2556 9.07908E+00
 -1      2557 2.74829E+01
 -1      2558 2.66653E+01
 -1      2559 7.37081E-01
 -1      2560 9.18455E-01
 -1      2561 1.03648E+00
 -1      2562 7.64655E-01
 -1      2563 9.29317E+00
 -1      2564 9.31979E+00
 -1      2565 2.44200E+01
 -1      2566 2.16482E+01
 -1      2567 8.72423E+00
 -1      2568 8.16428E+00
 -1      2569 8.64188E+00
 -1      2570 8.97098E+00
 -1      2571 7.67391E+00
 -1      2572 5.35517E+00
 -1      2573 7.10273E+00
 -1      2574 8.39729E+00
 -1      2575 6.36602E+00
 -1      2576 1.37244E+01
 -1      2577 9.57602E+00
 -1      2578 2.20984E+01
 -1      2579 1.60916E+01
 -1      2580 1.10198E+01
 -1      2581 3.24450E+01
 -1      2582 3.24450E+01
 -1      2583 6.45095E+00
 -1      2584 7.45604E+00
 -1      2585 1.43368E+01
 -1      2586 2.01828E+01
 -1      2587 9.06508E+00
 -1      2588 1.25003E+01
 -1      2589 7.01216E+00
 -1      2590 7.56686E+00
 -1      2591 6.65570E+00
 -1      2592 9.13357E+00
 -1      2593 8.60776E+00
 -1      2594 6.85354E+00
 -1      2595 7.73571E+00
 -1      2596 8.10360E+00
 -1      2597 5.22774E+00
 -1      2598 6.73949E+00
 -1      2599 8.56544E+00
 -1      2600 6.30645E+00
 -1      2601 1.42177E+01
 -1      2602 1.03079E+01
 -1      2603 2.26613E+01
 -1      2604 1.62152E+01
 -1      2605 1.17157E+01
 -1      2606 1.90508E+01
 -1      2607 3.20286E+01
 -1      2608 3.20286E+01
 -1      2609 1.96757E+00
 -1      2610 1.22167E+00
 -1      2611 1.21525E+00
 -1      2612 1.46470E+00
 -1      2613 1.41802E+00
 -1      2614 1.67662E+00
 -1      2615 1.72148E+00
 -1      2616 1.60045E+00
 -1      2617 8.93052E+00
 -1      2618 1.26065E+01
 -1      2619 1.16381E+01
 -1      2620 7.40055E+00
 -1      2621 1.26025E+00
 -1      2622 1.28960E+00
 -1      2623 1.37291E+00
 -1      2624 9.52273E-01
 -1      2625 1.69002E+00
 -1      2626 7.29429E+00
 -1      2627 3.15458E+01
 -1      2628 7.97568E+00
 -1      2629 5.15452E+00
 -1      2630 2.82084E+01
 -1      2631 7.83995E+00
 -1      2632 1.42742E-03
 -1      2633 1.42742E-03
 -1      2634 1.86438E+01
 -1      2635 1.04577E+01
 -1      2636 5.60788E+00
 -1      2637 1.65778E+00
 -1      2638 7.46404E+00
 -1      2639 4.77398E+00
 -1      2640 6.10474E+00
 -1      2641 1.31591E-03
 -1      2642 1.16833E-03
 -1      2643 1.11703E-03
 -1      2644 1.57392E-03
 -1      2645 6.92685E+00
 -1      2646 2.20366E+01
 -1      2647 1.33252E+01
 -1      2648 1.78921E+01
 -1      2649 2.74829E+01
 -1      2650 7.47385E+00
 -1      2651 7.71433E+00
 -1      2652 6.42418E+00
 -1      2653 4.88503E+00
 -1      2654 2.40503E+01
 -1      2655 2.46040E+01
 -1      2656 2.71605E+01
 -1      2657 2.71605E+01
 -1      2658 5.46310E+00
 -1      2659 1.65314E+01
 -1      2660 1.37637E+00
 -1      2661 1.45935E+00
 -1      2662 1.27797E+00
 -1      2663 1.26917E+00
 -1      2664 4.91802E+00
 -1      2665 3.83627E+00
 -1      2666 4.84712E+00
 -1      2667 5.07203E+00
 -1      2668 1.49698E-03
 -1      2669 1.54965E-03
 -1      2670 1.23078E+00
 -1      2671 1.08760E+00
 -1      2672 9.66394E-01
 -1      2673 8.36742E-01
 -1      2674 1.15854E+00
 -1      2675 1.32407E+00
 -1      2676 1.31602E+00
 -1      2677 1.48702E+00
 -1      2678 1.29710E+00
 -1      2679 1.34324E+00
 -1      2680 1.21613E+00
 -1      2681 1.51180E+00
 -1      2682 1.60045E+00
 -1      2683 2.25451E+01
 -1      2684 2.30278E+01
 -1      2685 1.22385E+00
 -1      2686 1.24053E+00
 -1      2687 1.34363E+00
 -1      2688 1.35647E+00
 -1      2689 1.45649E+00
 -1      2690 1.47669E+00
 -1      2691 1.53561E+00
 -1      2692 1.67980E+00
 -1      2693 1.62820E+00
 -1      2694 1.77441E+00
 -1      2695 1.89261E+00
 -1      2696 2.25486E+00
 -1      2697 2.31827E+00
 -1      2698 2.46565E+00
 -1      2699 1.80445E+00
 -1      2700 1.91846E+00
 -1      2701 2.43229E+00
 -1      2702 2.24122E+00
 -1      2703 2.56397E+00
 -1      2704 2.24122E+00
 -1      2705 2.91910E+00
 -1      2706 3.19649E+00
 -1      2707 2.91910E+00
 -1      2708 3.35509E+00
 -1      2709 3.33244E+00
 -1      2710 3.43282E+00
 -1      2711 3.15771E+00
 -1      2712 2.69261E+00
 -1      2713 3.41670E+00
 -1      2714 2.28966E+00
 -1      2715 2.16673E+00
 -1      2716 2.83902E+00
 -1      2717 1.89740E+00
 -1      2718 1.72355E+00
 -1      2719 2.16673E+00
 -1      2720 2.34884E+00
 -1      2721 2.32391E+00
 -1      2722 2.52269E+00
 -1      2723 1.74084E+00
 -1      2724 1.59808E+00
 -1      2725 2.56490E+00
 -1      2726 1.45250E+00
 -1      2727 1.44083E+00
 -1      2728 1.83625E+00
 -1      2729 1.29081E+00
 -1      2730 1.23776E+00
 -1      2731 1.54065E+00
 -1      2732 1.10385E+00
 -1      2733 1.03492E+00
 -1      2734 1.25672E+00
 -1      2735 9.65310E-01
 -1      2736 9.19889E-01
 -1      2737 1.05321E+00
 -1      2738 8.44486E-01
 -1      2739 7.95271E-01
 -1      2740 9.08200E-01
 -1      2741 7.22735E-01
 -1      2742 6.65114E-01
 -1      2743 7.60261E-01
 -1      2744 5.99521E-01
 -1      2745 5.41453E-01
 -1      2746 6.22132E-01
 -1      2747 4.84331E-01
 -1      2748 4.30583E-01
 -1      2749 4.99417E-01
 -1      2750 3.82168E-01
 -1      2751 3.35138E-01
 -1      2752 3.93880E-01
 -1      2753 2.95004E-01
 -1      2754 2.55500E-01
 -1      2755 3.05331E-01
 -1      2756 2.22879E-01
 -1      2757 1.90743E-01
 -1      2758 2.32576E-01
 -1      2759 1.64711E-01
 -1      2760 1.39263E-01
 -1      2761 1.73923E-01
 -1      2762 1.18853E-01
 -1      2763 9.91802E-02
 -1      2764 1.27481E-01
 -1      2765 8.34584E-02
 -1      2766 6.85933E-02
 -1      2767 9.13491E-02
 -1      2768 5.67006E-02
 -1      2769 4.57247E-02
 -1      2770 6.37346E-02
 -1      2771 3.69007E-02
 -1      2772 3.05374E-02
 -1      2773 4.30179E-02
 -1      2774 2.41288E-02
 -1      2775 2.07192E-02
 -1      2776 2.77853E-02
 -1      2777 1.64818E-02
 -1      2778 1.52617E-02
 -1      2779 1.71394E-02
 -1      2780 1.39389E-02
 -1      2781 1.26237E-02
 -1      2782 1.15792E-02
 -1      2783 1.23397E-02
 -1      2784 1.10457E-02
 -1      2785 9.97236E-03
 -1      2786 1.05430E-02
 -1      2787 9.33862E-03
 -1      2788 9.18557E-03
 -1      2789 8.73078E-03
 -1      2790 7.75436E-03
 -1      2791 8.07501E-03
 -1      2792 7.11664E-03
 -1      2793 6.54332E-03
 -1      2794 6.82945E-03
 -1      2795 6.01692E-03
 -1      2796 5.41261E-03
 -1      2797 5.66533E-03
 -1      2798 4.98791E-03
 -1      2799 4.39600E-03
 -1      2800 4.71423E-03
 -1      2801 3.96163E-03
 -1      2802 3.47048E-03
 -1      2803 3.85516E-03
 -1      2804 3.05536E-03
 -1      2805 2.61357E-03
 -1      2806 3.00568E-03
 -1      2807 2.26108E-03
 -1      2808 1.88558E-03
 -1      2809 2.23807E-03
 -1      2810 1.44555E+00
 -1      2811 1.33894E+00
 -1      2812 5.53701E+00
 -1      2813 6.39561E+00
 -1      2814 1.24151E+00
 -1      2815 1.20974E+00
 -1      2816 1.58103E+00
 -1      2817 1.88662E+00
 -1      2818 1.65692E+00
 -1      2819 2.69376E+00
 -1      2820 2.52171E+00
 -1      2821 2.55647E+00
 -1      2822 3.80062E+00
 -1      2823 3.60720E+00
 -1      2824 4.10500E+00
 -1      2825 3.92420E+00
 -1      2826 3.90523E+00
 -1      2827 5.12305E+00
 -1      2828 3.78788E+00
 -1      2829 4.01262E+00
 -1      2830 5.31608E+00
 -1      2831 2.50269E+00
 -1      2832 2.73192E+00
 -1      2833 4.34854E+00
 -1      2834 1.53669E+00
 -1      2835 1.69029E+00
 -1      2836 2.48017E+00
 -1      2837 1.65873E+00
 -1      2838 1.75521E+00
 -1      2839 1.88628E+00
 -1      2840 1.36210E+00
 -1      2841 1.45535E+00
 -1      2842 1.90142E+00
 -1      2843 1.24971E+00
 -1      2844 1.24745E+00
 -1      2845 1.58339E+00
 -1      2846 1.15777E+00
 -1      2847 1.16633E+00
 -1      2848 1.38536E+00
 -1      2849 1.01710E+00
 -1      2850 1.05906E+00
 -1      2851 1.20328E+00
 -1      2852 8.99700E-01
 -1      2853 9.37683E-01
 -1      2854 1.02516E+00
 -1      2855 8.04007E-01
 -1      2856 8.46326E-01
 -1      2857 8.92374E-01
 -1      2858 6.90584E-01
 -1      2859 7.42611E-01
 -1      2860 7.77605E-01
 -1      2861 5.72158E-01
 -1      2862 6.28950E-01
 -1      2863 6.54574E-01
 -1      2864 4.60066E-01
 -1      2865 5.14893E-01
 -1      2866 5.35675E-01
 -1      2867 3.60363E-01
 -1      2868 4.09497E-01
 -1      2869 4.27840E-01
 -1      2870 2.75502E-01
 -1      2871 3.17337E-01
 -1      2872 3.34243E-01
 -1      2873 2.05679E-01
 -1      2874 2.39954E-01
 -1      2875 2.55668E-01
 -1      2876 1.49808E-01
 -1      2877 1.77028E-01
 -1      2878 1.91469E-01
 -1      2879 1.06182E-01
 -1      2880 1.27220E-01
 -1      2881 1.40230E-01
 -1      2882 7.28841E-02
 -1      2883 8.87389E-02
 -1      2884 1.00199E-01
 -1      2885 4.99236E-02
 -1      2886 5.96861E-02
 -1      2887 6.95583E-02
 -1      2888 3.37627E-02
 -1      2889 4.01458E-02
 -1      2890 4.65825E-02
 -1      2891 2.41311E-02
 -1      2892 2.66830E-02
 -1      2893 2.97250E-02
 -1      2894 1.84196E-02
 -1      2895 2.04128E-02
 -1      2896 1.89270E-02
 -1      2897 1.55371E-02
 -1      2898 1.74468E-02
 -1      2899 1.42359E-02
 -1      2900 1.30931E-02
 -1      2901 1.48356E-02
 -1      2902 1.25616E-02
 -1      2903 1.07329E-02
 -1      2904 1.22690E-02
 -1      2905 1.10360E-02
 -1      2906 8.96416E-03
 -1      2907 9.88181E-03
 -1      2908 9.36071E-03
 -1      2909 7.40917E-03
 -1      2910 8.14534E-03
 -1      2911 7.69077E-03
 -1      2912 6.11485E-03
 -1      2913 6.84944E-03
 -1      2914 6.31222E-03
 -1      2915 4.95709E-03
 -1      2916 5.63321E-03
 -1      2917 5.27086E-03
 -1      2918 3.90293E-03
 -1      2919 4.46945E-03
 -1      2920 4.30159E-03
 -1      2921 2.96146E-03
 -1      2922 3.47068E-03
 -1      2923 3.38171E-03
 -1      2924 2.19849E-03
 -1      2925 2.59389E-03
 -1      2926 2.58188E-03
 -1      2927 1.73925E-03
 -1      2928 2.02697E-03
 -1      2929 2.04278E-03
 -1      2930 1.62899E-03
 -1      2931 1.49060E-03
 -1      2932 1.49806E-03
 -1      2933 1.57953E-03
 -1      2934 1.24361E-03
 -1      2935 1.57953E-03
 -1      2936 1.50591E-03
 -1      2937 1.45581E-03
 -1      2938 1.49751E-03
 -1      2939 1.49083E-03
 -1      2940 1.62373E-03
 -1      2941 1.50591E-03
 -1      2942 1.50591E-03
 -1      2943 1.63920E-03
 -1      2944 1.63136E-03
 -1      2945 6.70030E+00
 -1      2946 6.10474E+00
 -1      2947 5.14629E+00
 -1      2948 6.75533E+00
 -1      2949 1.50214E-03
 -1      2950 1.50214E-03
 -1      2951 1.62859E-03
 -1      2952 1.45248E-03
 -1      2953 1.50214E-03
 -1      2954 1.63322E-03
 -1      2955 1.24575E-03
 -1      2956 1.37146E-03
 -1      2957 1.55220E-03
 -1      2958 7.37721E+00
 -1      2959 5.63476E+00
 -1      2960 1.39231E+01
 -1      2961 1.70966E+01
 -1      2962 6.17694E+00
 -1      2963 6.23143E+00
 -1      2964 4.78710E+00
 -1      2965 1.81850E+01
 -1      2966 2.28078E+01
 -1      2967 2.41822E+01
 -1      2968 1.92201E+01
 -1      2969 6.56032E+00
 -1      2970 5.38160E+00
 -1      2971 8.43085E+00
 -1      2972 1.02674E+01
 -1      2973 6.56498E+00
 -1      2974 1.02834E+00
 -1      2975 1.03679E+00
 -1      2976 1.30220E+00
 -1      2977 1.45673E+00
 -1      2978 1.36682E+00
 -1      2979 1.59974E+00
 -1      2980 1.72120E+00
 -1      2981 1.16590E+00
 -1      2982 1.13947E+00
 -1      2983 1.26901E+00
 -1      2984 9.52773E-01
 -1      2985 9.52273E-01
 -1      2986 1.21663E+00
 -1      2987 1.03679E+00
 -1      2988 6.11626E+00
 -1      2989 6.62782E+00
 -1      2990 1.31602E+00
 -1      2991 1.27600E+00
 -1      2992 1.32498E+00
 -1      2993 1.37021E+00
 -1      2994 1.28070E+00
 -1      2995 1.31819E+00
 -1      2996 1.14691E-03
 -1      2997 6.40828E+00
 -1      2998 6.73047E+00
 -1      2999 5.43467E+00
 -1      3000 3.65889E+00
 -1      3001 4.65511E+00
 -1      3002 1.02010E+01
 -1      3003 7.83373E+00
 -1      3004 5.74148E+00
 -1      3005 3.82586E+00
 -1      3006 5.14549E+00
 -1      3007 4.47902E+00
 -1      3008 1.85334E+01
 -1      3009 2.18151E+01
 -1      3010 4.38812E+00
 -1      3011 4.18336E+00
 -1      3012 1.27939E+01
 -1      3013 1.70311E+01
 -1      3014 8.69551E+00
 -1      3015 1.25277E+01
 -1      3016 5.82029E+00
 -1      3017 4.77939E+00
 -1      3018 2.37892E+01
 -1      3019 1.99691E+01
 -1      3020 4.79161E+00
 -1      3021 3.71290E+00
 -1      3022 4.19314E+00
 -1      3023 1.21525E+00
 -1      3024 1.14717E+00
 -1      3025 1.16590E+00
 -1      3026 1.20990E+00
 -1      3027 1.37887E+00
 -1      3028 1.38434E+00
 -1      3029 1.44227E+00
 -1      3030 1.04000E+00
 -1      3031 8.39414E-01
 -1      3032 9.67917E-01
 -1      3033 1.90872E+01
 -1      3034 1.56913E+00
 -1      3035 4.34854E+00
 -1      3036 3.71802E+00
 -1      3037 3.40042E+00
 -1      3038 1.80999E+01
 -1      3039 1.27624E+01
 -1      3040 1.42898E+01
 -1      3041 1.47885E+01
 -1      3042 1.56184E-03
 -1      3043 1.37844E-03
 -1      3044 1.26160E-03
 -1      3045 4.15728E+00
 -1      3046 7.51748E+00
 -1      3047 4.12387E+00
 -1      3048 1.20432E-03
 -1      3049 1.37831E-03
 -1      3050 1.62058E-03
 -1      3051 1.42718E-03
 -1      3052 3.92653E+00
 -1      3053 1.07670E+01
 -1      3054 9.27774E+00
 -1      3055 6.93683E+00
 -1      3056 1.14691E-03
 -1      3057 1.34642E+01
 -1      3058 1.09805E+01
 -1      3059 2.20673E+01
 -1      3060 1.38045E+01
 -1      3061 1.67829E+01
 -1      3062 5.40450E+00
 -1      3063 1.45914E+01
 -1      3064 3.73249E+00
 -1      3065 4.34409E+00
 -1      3066 3.29534E+00
 -1      3067 4.03245E+00
 -1      3068 4.94598E+00
 -1      3069 3.49798E+00
 -1      3070 1.39837E+00
 -1      3071 1.08366E+00
 -1      3072 1.22699E+00
 -1      3073 1.32788E+00
 -1      3074 1.15842E+00
 -1      3075 3.35487E+00
 -1      3076 1.06785E+01
 -1      3077 7.49240E+00
 -1      3078 1.06167E+01
 -1      3079 3.29598E+00
 -1      3080 1.47959E+01
 -1      3081 1.36807E+01
 -1      3082 1.12753E+01
 -1      3083 1.42489E-03
 -1      3084 1.29831E-03
 -1      3085 1.52373E-03
 -1      3086 1.73093E-03
 -1      3087 1.41779E+00
 -1      3088 1.44476E+00
 -1      3089 1.03244E+01
 -1      3090 1.18935E+01
 -1      3091 1.16308E+01
 -1      3092 1.44493E+00
 -1      3093 1.52931E+00
 -1      3094 4.09213E+00
 -1      3095 3.24898E+00
 -1      3096 1.99260E+00
 -1      3097 2.11281E+00
 -1      3098 2.28257E+00
 -1      3099 2.37516E+00
 -1      3100 2.59537E+00
 -1      3101 2.97440E+00
 -1      3102 3.45486E+00
 -1      3103 3.36437E+00
 -1      3104 3.15505E+00
 -1      3105 3.51018E+00
 -1      3106 3.92132E+00
 -1      3107 4.07992E+00
 -1      3108 4.29860E+00
 -1      3109 4.12387E+00
 -1      3110 2.79202E+00
 -1      3111 2.52269E+00
 -1      3112 3.14797E+00
 -1      3113 3.74431E+00
 -1      3114 3.16125E+00
 -1      3115 2.23645E+00
 -1      3116 2.09087E+00
 -1      3117 3.41586E+00
 -1      3118 1.77309E+00
 -1      3119 1.62307E+00
 -1      3120 2.17329E+00
 -1      3121 1.46227E+00
 -1      3122 1.32837E+00
 -1      3123 1.69471E+00
 -1      3124 1.16969E+00
 -1      3125 1.10008E+00
 -1      3126 1.37524E+00
 -1      3127 9.66702E-01
 -1      3128 8.91298E-01
 -1      3129 1.08318E+00
 -1      3130 7.91278E-01
 -1      3131 7.18742E-01
 -1      3132 8.49779E-01
 -1      3133 6.40788E-01
 -1      3134 5.75195E-01
 -1      3135 6.71804E-01
 -1      3136 5.18685E-01
 -1      3137 4.61563E-01
 -1      3138 5.37340E-01
 -1      3139 4.10716E-01
 -1      3140 3.62301E-01
 -1      3141 4.29983E-01
 -1      3142 3.18732E-01
 -1      3143 2.78598E-01
 -1      3144 3.35567E-01
 -1      3145 2.42534E-01
 -1      3146 2.09913E-01
 -1      3147 2.55935E-01
 -1      3148 1.80865E-01
 -1      3149 1.54832E-01
 -1      3150 1.90822E-01
 -1      3151 1.31977E-01
 -1      3152 1.11567E-01
 -1      3153 1.38918E-01
 -1      3154 9.46596E-02
 -1      3155 7.89378E-02
 -1      3156 9.91554E-02
 -1      3157 6.62954E-02
 -1      3158 5.44027E-02
 -1      3159 6.96059E-02
 -1      3160 4.50623E-02
 -1      3161 3.62383E-02
 -1      3162 4.76231E-02
 -1      3163 2.98670E-02
 -1      3164 2.34584E-02
 -1      3165 3.19114E-02
 -1      3166 1.88194E-02
 -1      3167 1.45820E-02
 -1      3168 2.09011E-02
 -1      3169 1.12797E-02
 -1      3170 9.95692E-03
 -1      3171 1.29597E-02
 -1      3172 8.02818E-03
 -1      3173 7.74411E-03
 -1      3174 7.72868E-03
 -1      3175 7.83195E-03
 -1      3176 7.32923E-03
 -1      3177 5.88777E-03
 -1      3178 7.31945E-03
 -1      3179 6.71162E-03
 -1      3180 5.96584E-03
 -1      3181 6.49011E-03
 -1      3182 5.85239E-03
 -1      3183 5.73456E-03
 -1      3184 5.51292E-03
 -1      3185 4.98652E-03
 -1      3186 5.17358E-03
 -1      3187 4.59342E-03
 -1      3188 4.16872E-03
 -1      3189 4.44101E-03
 -1      3190 3.88502E-03
 -1      3191 3.45065E-03
 -1      3192 3.76421E-03
 -1      3193 3.14130E-03
 -1      3194 2.72618E-03
 -1      3195 3.17116E-03
 -1      3196 2.39931E-03
 -1      3197 2.04682E-03
 -1      3198 1.89218E-03
 -1      3199 2.53494E-03
 -1      3200 1.16308E+01
 -1      3201 1.23922E+01
 -1      3202 9.23449E+00
 -1      3203 5.25753E+00
 -1      3204 4.34409E+00
 -1      3205 3.39420E+00
 -1      3206 2.75911E+00
 -1      3207 5.40450E+00
 -1      3208 5.31608E+00
 -1      3209 4.34854E+00
 -1      3210 5.40450E+00
 -1      3211 2.42112E+00
 -1      3212 2.20260E+00
 -1      3213 2.44691E+00
 -1      3214 2.65029E+00
 -1      3215 2.96660E+00
 -1      3216 1.84857E+00
 -1      3217 1.96323E+00
 -1      3218 2.71209E+00
 -1      3219 1.54370E+00
 -1      3220 1.62707E+00
 -1      3221 2.00691E+00
 -1      3222 1.24694E+00
 -1      3223 1.34565E+00
 -1      3224 1.58736E+00
 -1      3225 1.06229E+00
 -1      3226 1.14171E+00
 -1      3227 1.28408E+00
 -1      3228 9.03364E-01
 -1      3229 9.56737E-01
 -1      3230 1.07328E+00
 -1      3231 7.51658E-01
 -1      3232 8.13055E-01
 -1      3233 8.77418E-01
 -1      3234 6.12044E-01
 -1      3235 6.73678E-01
 -1      3236 7.09128E-01
 -1      3237 4.87738E-01
 -1      3238 5.45004E-01
 -1      3239 5.64107E-01
 -1      3240 3.81302E-01
 -1      3241 4.31872E-01
 -1      3242 4.41200E-01
 -1      3243 2.94015E-01
 -1      3244 3.37042E-01
 -1      3245 3.41073E-01
 -1      3246 2.23217E-01
 -1      3247 2.58765E-01
 -1      3248 2.61564E-01
 -1      3249 1.66414E-01
 -1      3250 1.95065E-01
 -1      3251 1.98162E-01
 -1      3252 1.21607E-01
 -1      3253 1.44195E-01
 -1      3254 1.47791E-01
 -1      3255 8.68574E-02
 -1      3256 1.04300E-01
 -1      3257 1.08265E-01
 -1      3258 6.03745E-02
 -1      3259 7.35725E-02
 -1      3260 7.76736E-02
 -1      3261 4.05606E-02
 -1      3262 5.03384E-02
 -1      3263 5.43526E-02
 -1      3264 2.60323E-02
 -1      3265 3.31120E-02
 -1      3266 3.68680E-02
 -1      3267 1.68958E-02
 -1      3268 2.06141E-02
 -1      3269 2.40011E-02
 -1      3270 1.20735E-02
 -1      3271 1.30462E-02
 -1      3272 1.47333E-02
 -1      3273 9.58506E-03
 -1      3274 1.02866E-02
 -1      3275 9.09692E-03
 -1      3276 8.84915E-03
 -1      3277 9.67328E-03
 -1      3278 7.39826E-03
 -1      3279 7.79057E-03
 -1      3280 8.64168E-03
 -1      3281 7.27901E-03
 -1      3282 6.59425E-03
 -1      3283 7.41307E-03
 -1      3284 6.69404E-03
 -1      3285 5.57376E-03
 -1      3286 6.13348E-03
 -1      3287 5.85578E-03
 -1      3288 4.63282E-03
 -1      3289 5.11445E-03
 -1      3290 4.93571E-03
 -1      3291 3.81486E-03
 -1      3292 4.30250E-03
 -1      3293 4.14609E-03
 -1      3294 3.02294E-03
 -1      3295 3.45519E-03
 -1      3296 3.45610E-03
 -1      3297 2.29616E-03
 -1      3298 2.66374E-03
 -1      3299 2.73722E-03
 -1      3300 1.83925E-03
 -1      3301 2.01078E-03
 -1      3302 2.09263E-03
 -1      3303 1.58857E-03
 -1      3304 1.41174E+00
 -1      3305 1.29053E+00
 -1      3306 5.34625E+00
 -1      3307 1.68029E-03
 -1      3308 1.68006E-03
 -1      3309 3.24197E+00
 -1      3310 1.74994E-03
 -1      3311 1.74531E-03
 -1      3312 1.80164E-03
 -1      3313 5.08891E+00
 -1      3314 7.15661E+00
 -1      3315 4.83413E+00
 -1      3316 6.50965E+00
 -1      3317 8.43275E+00
 -1      3318 9.82807E+00
 -1      3319 1.56768E-03
 -1      3320 1.64870E-03
 -1      3321 1.74994E-03
 -1      3322 1.74994E-03
 -1      3323 1.86666E-03
 -1      3324 1.76543E-03
 -1      3325 5.24164E+00
 -1      3326 1.39939E+01
 -1      3327 1.67829E+01
 -1      3328 1.16896E+01
 -1      3329 2.63358E+00
 -1      3330 2.53614E+00
 -1      3331 7.40103E+00
 -1      3332 5.50050E+00
 -1      3333 4.55634E+00
 -1      3334 1.51497E+00
 -1      3335 1.33357E+00
 -1      3336 2.56751E+00
 -1      3337 1.20019E+00
 -1      3338 1.20365E+00
 -1      3339 1.14092E+00
 -1      3340 1.31881E+00
 -1      3341 1.69764E+00
 -1      3342 1.80073E+00
 -1      3343 2.23375E+00
 -1      3344 1.06861E+01
 -1      3345 1.17744E+01
 -1      3346 5.48073E+00
 -1      3347 6.43286E+00
 -1      3348 5.15945E+00
 -1      3349 2.98510E+00
 -1      3350 3.94803E+00
 -1      3351 7.41680E+00
 -1      3352 9.94332E+00
 -1      3353 5.68595E+00
 -1      3354 1.26893E+01
 -1      3355 1.08201E+01
 -1      3356 1.32377E+01
 -1      3357 1.19097E+01
 -1      3358 1.14751E+01
 -1      3359 1.29775E+01
 -1      3360 1.35310E+00
 -1      3361 1.27099E+00
 -1      3362 1.37251E+00
 -1      3363 1.08924E+00
 -1      3364 9.29542E+00
 -1      3365 7.80834E+00
 -1      3366 8.30405E+00
 -1      3367 2.76379E+00
 -1      3368 2.83902E+00
 -1      3369 2.78529E+00
 -1      3370 2.89303E+00
 -1      3371 1.29053E+00
 -1      3372 1.29320E+00
 -1      3373 1.54372E+00
 -1      3374 2.77695E+00
 -1      3375 2.88479E+00
 -1      3376 9.11540E+00
 -1      3377 1.87355E+00
 -1      3378 3.48510E+00
 -1      3379 2.97636E+00
 -1      3380 1.66125E-03
 -1      3381 1.58388E-03
 -1      3382 2.46253E+00
 -1      3383 7.43423E+00
 -1      3384 6.28180E+00
 -1      3385 5.00566E+00
 -1      3386 3.74431E+00
 -1      3387 8.14439E+00
 -1      3388 1.13021E+01
 -1      3389 8.44153E+00
 -1      3390 1.57798E+00
 -1      3391 1.63866E+00
 -1      3392 3.30731E+00
 -1      3393 3.38603E+00
 -1      3394 4.34114E+00
 -1      3395 1.80695E-03
 -1      3396 1.75040E-03
 -1      3397 1.75824E-03
 -1      3398 2.49937E+00
 -1      3399 1.96454E+00
 -1      3400 2.77695E+00
 -1      3401 1.46172E+00
 -1      3402 1.59370E+00
 -1      3403 1.50695E+00
 -1      3404 1.75824E-03
 -1      3405 1.75824E-03
 -1      3406 1.78029E-03
 -1      3407 1.87728E-03
 -1      3408 1.58150E+00
 -1      3409 1.50695E+00
 -1      3410 1.50695E+00
 -1      3411 6.37201E+00
 -1      3412 1.72362E-03
 -1      3413 1.67106E-03
 -1      3414 1.76757E-03
 -1      3415 2.03951E-03
 -1      3416 4.09361E+00
 -1      3417 3.73274E+00
 -1      3418 1.15965E+00
 -1      3419 1.41995E+00
 -1      3420 1.25469E+01
 -1      3421 9.86515E+00
 -1      3422 1.04320E+01
 -1      3423 3.85555E+00
 -1      3424 3.29258E+00
 -1      3425 8.13832E+00
 -1      3426 4.72383E+00
 -1      3427 1.22470E+01
 -1      3428 9.94266E+00
 -1      3429 8.92621E+00
 -1      3430 9.63194E+00
 -1      3431 7.81352E+00
 -1      3432 6.28172E+00
 -1      3433 9.26295E+00
 -1      3434 1.44205E+00
 -1      3435 1.35803E+00
 -1      3436 1.49450E+00
 -1      3437 1.65482E+00
 -1      3438 6.91037E+00
 -1      3439 3.19155E+00
 -1      3440 1.81531E+00
 -1      3441 1.86903E+00
 -1      3442 2.06542E+00
 -1      3443 6.65204E+00
 -1      3444 5.59249E+00
 -1      3445 8.13565E+00
 -1      3446 8.25474E+00
 -1      3447 6.63119E+00
 -1      3448 7.48919E+00
 -1      3449 1.60409E+00
 -1      3450 1.90869E-03
 -1      3451 1.84367E-03
 -1      3452 3.96191E+00
 -1      3453 2.93267E+00
 -1      3454 2.61490E+00
 -1      3455 2.23231E+00
 -1      3456 2.07151E+00
 -1      3457 2.99169E+00
 -1      3458 1.54603E+00
 -1      3459 1.38735E+00
 -1      3460 2.08362E+00
 -1      3461 1.19886E+00
 -1      3462 1.06548E+00
 -1      3463 1.36965E+00
 -1      3464 9.33505E-01
 -1      3465 8.33485E-01
 -1      3466 1.04919E+00
 -1      3467 7.46635E-01
 -1      3468 6.68680E-01
 -1      3469 8.30361E-01
 -1      3470 5.93287E-01
 -1      3471 5.36777E-01
 -1      3472 6.68117E-01
 -1      3473 4.73293E-01
 -1      3474 4.22446E-01
 -1      3475 5.29240E-01
 -1      3476 3.70004E-01
 -1      3477 3.26435E-01
 -1      3478 4.13314E-01
 -1      3479 2.83753E-01
 -1      3480 2.47689E-01
 -1      3481 3.18189E-01
 -1      3482 2.13425E-01
 -1      3483 1.84377E-01
 -1      3484 2.41243E-01
 -1      3485 1.57251E-01
 -1      3486 1.34396E-01
 -1      3487 1.79854E-01
 -1      3488 1.13233E-01
 -1      3489 9.63260E-02
 -1      3490 1.31566E-01
 -1      3491 8.00699E-02
 -1      3492 6.74275E-02
 -1      3493 9.41475E-02
 -1      3494 5.53915E-02
 -1      3495 4.60511E-02
 -1      3496 6.58555E-02
 -1      3497 3.74400E-02
 -1      3498 3.10688E-02
 -1      3499 4.52084E-02
 -1      3500 2.47127E-02
 -1      3501 2.00736E-02
 -1      3502 3.02413E-02
 -1      3503 1.54816E-02
 -1      3504 1.21793E-02
 -1      3505 1.92932E-02
 -1      3506 8.97328E-03
 -1      3507 7.04454E-03
 -1      3508 1.14952E-02
 -1      3509 5.01416E-03
 -1      3510 5.10199E-03
 -1      3511 6.25876E-03
 -1      3512 4.77474E-03
 -1      3513 4.76497E-03
 -1      3514 3.90113E-03
 -1      3515 5.01625E-03
 -1      3516 4.79474E-03
 -1      3517 3.82516E-03
 -1      3518 4.79369E-03
 -1      3519 4.45422E-03
 -1      3520 4.07539E-03
 -1      3521 4.29718E-03
 -1      3522 3.90408E-03
 -1      3523 3.91729E-03
 -1      3524 3.65828E-03
 -1      3525 3.37458E-03
 -1      3526 3.51446E-03
 -1      3527 3.14407E-03
 -1      3528 2.83472E-03
 -1      3529 3.03815E-03
 -1      3530 3.29856E+00
 -1      3531 2.46083E+00
 -1      3532 1.73979E+00
 -1      3533 4.23953E+00
 -1      3534 4.42555E+00
 -1      3535 2.45713E+00
 -1      3536 2.42256E+00
 -1      3537 2.59089E+00
 -1      3538 2.26064E+00
 -1      3539 2.02371E+00
 -1      3540 2.22176E+00
 -1      3541 1.38378E+00
 -1      3542 1.48902E+00
 -1      3543 2.12342E+00
 -1      3544 1.06384E+00
 -1      3545 1.16940E+00
 -1      3546 1.37434E+00
 -1      3547 8.48406E-01
 -1      3548 9.38715E-01
 -1      3549 1.03483E+00
 -1      3550 6.79036E-01
 -1      3551 7.57016E-01
 -1      3552 8.18314E-01
 -1      3553 5.44890E-01
 -1      3554 6.11930E-01
 -1      3555 6.59818E-01
 -1      3556 4.28893E-01
 -1      3557 4.84760E-01
 -1      3558 5.32582E-01
 -1      3559 3.33038E-01
 -1      3560 3.77298E-01
 -1      3561 4.20858E-01
 -1      3562 2.54788E-01
 -1      3563 2.90038E-01
 -1      3564 3.26263E-01
 -1      3565 1.91608E-01
 -1      3566 2.19760E-01
 -1      3567 2.48234E-01
 -1      3568 1.41416E-01
 -1      3569 1.63635E-01
 -1      3570 1.85233E-01
 -1      3571 1.02182E-01
 -1      3572 1.19489E-01
 -1      3573 1.35333E-01
 -1      3574 7.20226E-02
 -1      3575 8.53074E-02
 -1      3576 9.65314E-02
 -1      3577 4.98906E-02
 -1      3578 5.99266E-02
 -1      3579 6.75605E-02
 -1      3580 3.34133E-02
 -1      3581 4.08619E-02
 -1      3582 4.64359E-02
 -1      3583 2.13516E-02
 -1      3584 2.67699E-02
 -1      3585 3.07638E-02
 -1      3586 1.27750E-02
 -1      3587 1.66246E-02
 -1      3588 1.93933E-02
 -1      3589 7.70243E-03
 -1      3590 9.48930E-03
 -1      3591 1.13805E-02
 -1      3592 5.87851E-03
 -1      3593 5.79030E-03
 -1      3594 6.18268E-03
 -1      3595 5.80777E-03
 -1      3596 6.01523E-03
 -1      3597 4.40728E-03
 -1      3598 5.57974E-03
 -1      3599 5.95724E-03
 -1      3600 4.69347E-03
 -1      3601 5.03048E-03
 -1      3602 5.49125E-03
 -1      3603 4.75445E-03
 -1      3604 4.34066E-03
 -1      3605 4.79996E-03
 -1      3606 4.43543E-03
 -1      3607 3.70466E-03
 -1      3608 4.03498E-03
 -1      3609 3.89923E-03
 -1      3610 3.09091E-03
 -1      3611 3.45058E-03
 -1      3612 3.33947E-03
 -1      3613 2.58183E-03
 -1      3614 2.94104E-03
 -1      3615 2.93552E-03
 -1      3616 3.89271E+00
 -1      3617 9.82334E+00
 -1      3618 9.82334E+00
 -1      3619 1.72696E-03
 -1      3620 1.66967E-03
 -1      3621 1.88835E-03
 -1      3622 1.82637E-03
 -1      3623 8.27867E+00
 -1      3624 6.75394E+00
 -1      3625 3.19432E+00
 -1      3626 3.41582E+00
 -1      3627 3.63067E+00
 -1      3628 3.75585E+00
 -1      3629 1.29170E+00
 -1      3630 1.40744E+00
 -1      3631 1.94860E+00
 -1      3632 3.13986E+00
 -1      3633 2.11868E+00
 -1      3634 2.79257E+00
 -1      3635 2.96234E+00
 -1      3636 4.04694E+00
 -1      3637 8.56087E+00
 -1      3638 7.26783E+00
 -1      3639 5.94995E+00
 -1      3640 2.52192E+00
 -1      3641 2.71378E+00
 -1      3642 3.08075E+00
 -1      3643 3.07093E+00
 -1      3644 8.25474E+00
 -1      3645 8.25474E+00
 -1      3646 7.27499E+00
 -1      3647 6.62853E+00
 -1      3648 1.70131E+00
 -1      3649 1.76350E+00
 -1      3650 4.37120E+00
 -1      3651 1.86502E+00
 -1      3652 1.86502E+00
 -1      3653 5.53461E+00
 -1      3654 5.55999E+00
 -1      3655 5.47221E+00
 -1      3656 4.04694E+00
 -1      3657 2.16255E-03
 -1      3658 2.20459E-03
 -1      3659 2.16255E-03
 -1      3660 3.59831E+00
 -1      3661 4.19754E+00
 -1      3662 3.41586E+00
 -1      3663 3.85747E+00
 -1      3664 5.63267E+00
 -1      3665 7.88131E+00
 -1      3666 6.79121E+00
 -1      3667 6.90156E+00
 -1      3668 6.89143E+00
 -1      3669 5.21388E+00
 -1      3670 2.74819E+00
 -1      3671 2.59276E-03
 -1      3672 2.26589E-03
 -1      3673 2.09733E-03
 -1      3674 2.56567E-03
 -1      3675 3.39420E+00
 -1      3676 1.82167E-03
 -1      3677 1.89200E-03
 -1      3678 1.92873E-03
 -1      3679 1.64369E+00
 -1      3680 2.23447E-03
 -1      3681 2.37755E-03
 -1      3682 2.17373E-03
 -1      3683 8.07640E+00
 -1      3684 5.15268E+00
 -1      3685 1.91501E+00
 -1      3686 1.86502E+00
 -1      3687 2.18633E+00
 -1      3688 7.40943E+00
 -1      3689 8.10027E+00
 -1      3690 6.10514E+00
 -1      3691 4.94325E+00
 -1      3692 8.56569E+00
 -1      3693 4.34066E+00
 -1      3694 4.60514E+00
 -1      3695 7.76724E+00
 -1      3696 7.03675E+00
 -1      3697 5.92406E+00
 -1      3698 5.51229E+00
 -1      3699 5.20091E+00
 -1      3700 3.79551E+00
 -1      3701 1.54222E+00
 -1      3702 1.82643E+00
 -1      3703 1.93491E+00
 -1      3704 2.39877E+00
 -1      3705 5.15268E+00
 -1      3706 2.25456E-03
 -1      3707 2.15756E-03
 -1      3708 2.70874E-03
 -1      3709 1.99395E-03
 -1      3710 2.39108E-03
 -1      3711 2.06132E-03
 -1      3712 2.16255E-03
 -1      3713 2.63304E-03
 -1      3714 5.05142E+00
 -1      3715 1.64130E+00
 -1      3716 1.82330E+00
 -1      3717 1.90825E+00
 -1      3718 1.90675E+00
 -1      3719 2.22955E+00
 -1      3720 1.99491E+00
 -1      3721 5.82967E+00
 -1      3722 5.21388E+00
 -1      3723 5.29265E+00
 -1      3724 3.02168E+00
 -1      3725 2.49620E+00
 -1      3726 1.90458E+00
 -1      3727 1.71609E+00
 -1      3728 2.84264E+00
 -1      3729 1.38715E+00
 -1      3730 1.25517E+00
 -1      3731 1.92207E+00
 -1      3732 1.04045E+00
 -1      3733 9.53597E-01
 -1      3734 1.37841E+00
 -1      3735 8.05423E-01
 -1      3736 7.30029E-01
 -1      3737 1.01551E+00
 -1      3738 6.23591E-01
 -1      3739 5.60108E-01
 -1      3740 7.60897E-01
 -1      3741 4.81078E-01
 -1      3742 4.28635E-01
 -1      3743 5.75429E-01
 -1      3744 3.68539E-01
 -1      3745 3.25857E-01
 -1      3746 4.36303E-01
 -1      3747 2.79508E-01
 -1      3748 2.45245E-01
 -1      3749 3.29858E-01
 -1      3750 2.09294E-01
 -1      3751 1.82169E-01
 -1      3752 2.47559E-01
 -1      3753 1.54307E-01
 -1      3754 1.33144E-01
 -1      3755 1.83746E-01
 -1      3756 1.11675E-01
 -1      3757 9.54185E-02
 -1      3758 1.34415E-01
 -1      3759 7.90306E-02
 -1      3760 6.69946E-02
 -1      3761 9.65577E-02
 -1      3762 5.51688E-02
 -1      3763 4.65578E-02
 -1      3764 6.83439E-02
 -1      3765 3.77587E-02
 -1      3766 3.14026E-02
 -1      3767 4.77191E-02
 -1      3768 2.48800E-02
 -1      3769 2.02879E-02
 -1      3770 3.23973E-02
 -1      3771 1.55440E-02
 -1      3772 1.23380E-02
 -1      3773 2.11307E-02
 -1      3774 8.96552E-03
 -1      3775 6.93514E-03
 -1      3776 1.30144E-02
 -1      3777 4.60411E-03
 -1      3778 4.27686E-03
 -1      3779 7.31087E-03
 -1      3780 2.90465E-03
 -1      3781 3.15594E-03
 -1      3782 3.60764E-03
 -1      3783 3.46789E-03
 -1      3784 3.46684E-03
 -1      3785 2.54739E-03
 -1      3786 3.56440E-03
 -1      3787 3.40736E-03
 -1      3788 2.95691E-03
 -1      3789 3.34702E-03
 -1      3790 3.10122E-03
 -1      3791 2.99413E-03
 -1      3792 3.03823E-03
 -1      3793 2.80772E-03
 -1      3794 2.87079E-03
 -1      3795 5.09360E+00
 -1      3796 4.34114E+00
 -1      3797 1.03176E+00
 -1      3798 1.15689E+00
 -1      3799 2.34031E+00
 -1      3800 2.74819E+00
 -1      3801 2.70634E+00
 -1      3802 1.57925E+00
 -1      3803 1.79363E+00
 -1      3804 1.57618E+00
 -1      3805 2.00953E+00
 -1      3806 2.54423E+00
 -1      3807 2.21444E+00
 -1      3808 8.18314E-01
 -1      3809 9.09704E-01
 -1      3810 1.03176E+00
 -1      3811 6.54016E-01
 -1      3812 7.21122E-01
 -1      3813 8.12512E-01
 -1      3814 5.15837E-01
 -1      3815 5.75967E-01
 -1      3816 6.37271E-01
 -1      3817 4.01619E-01
 -1      3818 4.53214E-01
 -1      3819 4.96599E-01
 -1      3820 3.08456E-01
 -1      3821 3.51457E-01
 -1      3822 3.83813E-01
 -1      3823 2.33390E-01
 -1      3824 2.68418E-01
 -1      3825 2.93612E-01
 -1      3826 1.73666E-01
 -1      3827 2.01639E-01
 -1      3828 2.21823E-01
 -1      3829 1.26789E-01
 -1      3830 1.48716E-01
 -1      3831 1.65121E-01
 -1      3832 9.05304E-02
 -1      3833 1.07405E-01
 -1      3834 1.20788E-01
 -1      3835 6.35762E-02
 -1      3836 7.56722E-02
 -1      3837 8.65461E-02
 -1      3838 4.33308E-02
 -1      3839 5.23595E-02
 -1      3840 6.04711E-02
 -1      3841 2.88677E-02
 -1      3842 3.55111E-02
 -1      3843 4.14347E-02
 -1      3844 1.83869E-02
 -1      3845 2.31139E-02
 -1      3846 2.78613E-02
 -1      3847 1.09314E-02
 -1      3848 1.42171E-02
 -1      3849 1.79378E-02
 -1      3850 6.06980E-03
 -1      3851 7.98192E-03
 -1      3852 1.08185E-02
 -1      3853 4.33214E-03
 -1      3854 4.19542E-03
 -1      3855 5.99466E-03
 -1      3856 3.78769E-03
 -1      3857 3.63822E-03
 -1      3858 3.42637E-03
 -1      3859 4.00987E-03
 -1      3860 4.09836E-03
 -1      3861 3.04311E-03
 -1      3862 3.83900E-03
 -1      3863 4.06953E-03
 -1      3864 3.41344E-03
 -1      3865 3.43323E-03
 -1      3866 3.73891E-03
 -1      3867 3.37300E-03
 -1      3868 2.99039E-03
 -1      3869 3.24448E-03
 -1      3870 3.08416E-03
 -1      3871 2.78565E-03
 -1      3872 2.93552E-03
 -1      3873 2.84053E-03
 -1      3874 2.70874E-03
 -1      3875 6.57328E+00
 -1      3876 4.89614E+00
 -1      3877 2.10491E-03
 -1      3878 2.10491E-03
 -1      3879 2.11963E-03
 -1      3880 6.69097E+00
 -1      3881 6.57165E+00
 -1      3882 3.24654E+00
 -1      3883 4.21909E+00
 -1      3884 4.90851E+00
 -1      3885 3.13265E+00
 -1      3886 5.00030E+00
 -1      3887 5.64676E+00
 -1      3888 3.92674E+00
 -1      3889 4.56494E+00
 -1      3890 6.57165E+00
 -1      3891 7.18027E+00
 -1      3892 5.41539E+00
 -1      3893 4.51355E+00
 -1      3894 6.73614E+00
 -1      3895 1.88808E+00
 -1      3896 1.88808E+00
 -1      3897 2.15939E+00
 -1      3898 2.00788E+00
 -1      3899 5.23965E+00
 -1      3900 4.50358E+00
 -1      3901 4.77906E+00
 -1      3902 3.66220E+00
 -1      3903 5.06760E+00
 -1      3904 5.02132E+00
 -1      3905 3.58341E+00
 -1      3906 3.13990E+00
 -1      3907 5.76268E+00
 -1      3908 5.76268E+00
 -1      3909 5.38925E+00
 -1      3910 4.13445E+00
 -1      3911 5.02222E+00
 -1      3912 6.18119E+00
 -1      3913 4.67645E+00
 -1      3914 6.47306E+00
 -1      3915 5.09360E+00
 -1      3916 2.30960E-03
 -1      3917 2.05575E-03
 -1      3918 4.92613E+00
 -1      3919 2.63313E-03
 -1      3920 2.16937E-03
 -1      3921 2.14737E-03
 -1      3922 2.27438E-03
 -1      3923 2.24953E+00
 -1      3924 2.13793E+00
 -1      3925 2.26250E+00
 -1      3926 2.48219E-03
 -1      3927 5.18623E+00
 -1      3928 3.00028E+00
 -1      3929 3.04350E+00
 -1      3930 3.89231E+00
 -1      3931 2.91531E+00
 -1      3932 2.91531E+00
 -1      3933 3.72926E+00
 -1      3934 2.45845E-03
 -1      3935 3.13990E+00
 -1      3936 3.07093E+00
 -1      3937 3.65238E+00
 -1      3938 3.13990E+00
 -1      3939 4.10569E+00
 -1      3940 2.90440E+00
 -1      3941 9.94707E-01
 -1      3942 1.11676E+00
 -1      3943 2.63313E-03
 -1      3944 2.48428E-03
 -1      3945 5.33418E+00
 -1      3946 3.84232E+00
 -1      3947 5.38925E+00
 -1      3948 2.88331E+00
 -1      3949 2.29168E+00
 -1      3950 3.29136E+00
 -1      3951 3.51567E+00
 -1      3952 3.18364E+00
 -1      3953 3.27542E+00
 -1      3954 2.48133E+00
 -1      3955 1.92207E+00
 -1      3956 1.59313E+00
 -1      3957 1.96274E+00
 -1      3958 1.37841E+00
 -1      3959 1.16368E+00
 -1      3960 1.37841E+00
 -1      3961 1.01551E+00
 -1      3962 8.67334E-01
 -1      3963 1.01551E+00
 -1      3964 7.60897E-01
 -1      3965 6.54459E-01
 -1      3966 7.60897E-01
 -1      3967 5.75429E-01
 -1      3968 4.96399E-01
 -1      3969 5.75429E-01
 -1      3970 4.36303E-01
 -1      3971 3.76207E-01
 -1      3972 4.36303E-01
 -1      3973 3.29858E-01
 -1      3974 2.83510E-01
 -1      3975 3.29858E-01
 -1      3976 2.47559E-01
 -1      3977 2.11608E-01
 -1      3978 2.47559E-01
 -1      3979 1.83746E-01
 -1      3980 1.55884E-01
 -1      3981 1.83746E-01
 -1      3982 1.34415E-01
 -1      3983 1.12946E-01
 -1      3984 1.34415E-01
 -1      3985 9.65577E-02
 -1      3986 8.01698E-02
 -1      3987 9.65577E-02
 -1      3988 6.83439E-02
 -1      3989 5.65181E-02
 -1      3990 6.83439E-02
 -1      3991 4.77191E-02
 -1      3992 3.89200E-02
 -1      3993 4.77191E-02
 -1      3994 3.23973E-02
 -1      3995 2.58746E-02
 -1      3996 3.23973E-02
 -1      3997 2.11964E-02
 -1      3998 1.64526E-02
 -1      3999 2.11964E-02
 -1      4000 1.36617E-02
 -1      4001 1.02892E-02
 -1      4002 1.37274E-02
 -1      4003 8.24727E-03
 -1      4004 5.91624E-03
 -1      4005 8.89460E-03
 -1      4006 4.45416E-03
 -1      4007 3.08196E-03
 -1      4008 5.39056E-03
 -1      4009 2.12274E-03
 -1      4010 2.43470E-03
 -1      4011 2.96927E-03
 -1      4012 2.62123E-03
 -1      4013 2.71879E-03
 -1      4014 2.19659E-03
 -1      4015 2.88502E-03
 -1      4016 2.82468E-03
 -1      4017 2.54935E-03
 -1      4018 2.87079E-03
 -1      4019 2.80781E-03
 -1      4020 2.48428E-03
 -1      4021 2.76169E-03
 -1      4022 3.04350E+00
 -1      4023 3.47707E+00
 -1      4024 3.47707E+00
 -1      4025 3.81423E+00
 -1      4026 1.56554E+00
 -1      4027 1.98790E+00
 -1      4028 1.52849E+00
 -1      4029 2.26543E+00
 -1      4030 5.87480E-01
 -1      4031 6.65529E-01
 -1      4032 4.51375E-01
 -1      4033 5.13998E-01
 -1      4034 5.42256E-01
 -1      4035 3.45587E-01
 -1      4036 3.95750E-01
 -1      4037 4.13149E-01
 -1      4038 2.62668E-01
 -1      4039 3.02706E-01
 -1      4040 3.14643E-01
 -1      4041 1.97544E-01
 -1      4042 2.29295E-01
 -1      4043 2.38389E-01
 -1      4044 1.46563E-01
 -1      4045 1.71513E-01
 -1      4046 1.78985E-01
 -1      4047 1.06945E-01
 -1      4048 1.26329E-01
 -1      4049 1.32721E-01
 -1      4050 7.64772E-02
 -1      4051 9.13354E-02
 -1      4052 9.68764E-02
 -1      4053 5.33477E-02
 -1      4054 6.45645E-02
 -1      4055 6.93538E-02
 -1      4056 3.65584E-02
 -1      4057 4.43781E-02
 -1      4058 4.84714E-02
 -1      4059 2.44369E-02
 -1      4060 3.01906E-02
 -1      4061 3.31340E-02
 -1      4062 1.57627E-02
 -1      4063 1.99325E-02
 -1      4064 2.22618E-02
 -1      4065 9.53647E-03
 -1      4066 1.24859E-02
 -1      4067 1.44807E-02
 -1      4068 5.54852E-03
 -1      4069 7.42289E-03
 -1      4070 9.09032E-03
 -1      4071 3.42637E-03
 -1      4072 4.12029E-03
 -1      4073 5.54852E-03
 -1      4074 2.73200E-03
 -1      4075 2.42133E-03
 -1      4076 3.11525E-03
 -1      4077 2.93666E-03
 -1      4078 2.87701E-03
 -1      4079 2.25522E-03
 -1      4080 2.94713E-03
 -1      4081 3.04722E-03
 -1      4082 2.51079E-03
 -1      4083 2.72153E-03
 -1      4084 2.91028E-03
 -1      4085 2.58450E-03
 -1      4086 2.51697E+00
 -1      4087 2.54390E+00
 -1      4088 3.27289E+00
 -1      4089 2.64701E+00
 -1      4090 1.96321E-03
 -1      4091 2.17612E-03
 -1      4092 2.20385E-03
 -1      4093 7.65282E-01
 -1      4094 8.62473E-01
 -1      4095 9.47477E-01
 -1      4096 7.15490E-01
 -1      4097 4.50023E+00
 -1      4098 4.50023E+00
 -1      4099 2.33254E-03
 -1      4100 2.48219E-03
 -1      4101 2.55910E-03
 -1      4102 2.17612E-03
 -1      4103 5.18228E+00
 -1      4104 4.31679E+00
 -1      4105 3.91889E+00
 -1      4106 4.95312E+00
 -1      4107 4.41526E+00
 -1      4108 4.16576E+00
 -1      4109 2.61215E+00
 -1      4110 2.59791E-03
 -1      4111 4.25038E+00
 -1      4112 2.61397E-03
 -1      4113 4.18215E+00
 -1      4114 2.44010E-03
 -1      4115 5.09360E+00
 -1      4116 2.25479E+00
 -1      4117 4.50023E+00
 -1      4118 3.57329E+00
 -1      4119 3.68921E+00
 -1      4120 2.83018E+00
 -1      4121 3.12515E+00
 -1      4122 2.16614E+00
 -1      4123 1.89001E+00
 -1      4124 1.52040E+00
 -1      4125 1.72380E+00
 -1      4126 1.29617E+00
 -1      4127 1.08145E+00
 -1      4128 1.22344E+00
 -1      4129 9.48929E-01
 -1      4130 8.00755E-01
 -1      4131 8.66694E-01
 -1      4132 7.11720E-01
 -1      4133 6.05282E-01
 -1      4134 6.45140E-01
 -1      4135 5.41323E-01
 -1      4136 4.62292E-01
 -1      4137 4.92146E-01
 -1      4138 4.14167E-01
 -1      4139 3.54071E-01
 -1      4140 3.80060E-01
 -1      4141 3.16713E-01
 -1      4142 2.70365E-01
 -1      4143 2.94577E-01
 -1      4144 2.40862E-01
 -1      4145 2.04912E-01
 -1      4146 2.27718E-01
 -1      4147 1.81463E-01
 -1      4148 1.53601E-01
 -1      4149 1.74767E-01
 -1      4150 1.34989E-01
 -1      4151 1.13520E-01
 -1      4152 1.32706E-01
 -1      4153 9.88411E-02
 -1      4154 8.24532E-02
 -1      4155 9.94154E-02
 -1      4156 7.09911E-02
 -1      4157 5.91653E-02
 -1      4158 7.32746E-02
 -1      4159 5.03250E-02
 -1      4160 4.15259E-02
 -1      4161 5.29722E-02
 -1      4162 3.48047E-02
 -1      4163 2.82820E-02
 -1      4164 3.74107E-02
 -1      4165 2.36132E-02
 -1      4166 1.89350E-02
 -1      4167 2.60206E-02
 -1      4168 1.54978E-02
 -1      4169 1.27070E-02
 -1      4170 1.79146E-02
 -1      4171 1.01641E-02
 -1      4172 8.12217E-03
 -1      4173 1.19346E-02
 -1      4174 6.27805E-03
 -1      4175 4.81597E-03
 -1      4176 7.54758E-03
 -1      4177 3.50881E-03
 -1      4178 2.54960E-03
 -1      4179 4.39630E-03
 -1      4180 1.64801E-03
 -1      4181 1.83454E-03
 -1      4182 2.18755E-03
 -1      4183 1.95358E-03
 -1      4184 2.11981E-03
 -1      4185 1.40500E-03
 -1      4186 2.55179E-03
 -1      4187 2.59791E-03
 -1      4188 1.95602E-03
 -1      4189 3.99045E+00
 -1      4190 2.71855E-01
 -1      4191 3.14737E-01
 -1      4192 3.56541E-01
 -1      4193 4.12166E-01
 -1      4194 3.13753E-01
 -1      4195 4.67753E-01
 -1      4196 5.41235E-01
 -1      4197 4.11144E-01
 -1      4198 2.06260E-01
 -1      4199 2.39633E-01
 -1      4200 2.39727E-01
 -1      4201 1.55959E-01
 -1      4202 1.81990E-01
 -1      4203 1.83234E-01
 -1      4204 1.16618E-01
 -1      4205 1.36853E-01
 -1      4206 1.39857E-01
 -1      4207 8.58278E-02
 -1      4208 1.01438E-01
 -1      4209 1.05570E-01
 -1      4210 6.19736E-02
 -1      4211 7.38863E-02
 -1      4212 7.84476E-02
 -1      4213 4.37260E-02
 -1      4214 5.26957E-02
 -1      4215 5.72282E-02
 -1      4216 3.02516E-02
 -1      4217 3.66193E-02
 -1      4218 4.08437E-02
 -1      4219 2.06770E-02
 -1      4220 2.51814E-02
 -1      4221 2.86667E-02
 -1      4222 1.37246E-02
 -1      4223 1.70013E-02
 -1      4224 1.99209E-02
 -1      4225 8.86832E-03
 -1      4226 1.09819E-02
 -1      4227 1.35025E-02
 -1      4228 5.43234E-03
 -1      4229 6.86057E-03
 -1      4230 8.75214E-03
 -1      4231 2.98891E-03
 -1      4232 3.99395E-03
 -1      4233 5.30600E-03
 -1      4234 2.12922E-03
 -1      4235 1.98421E-03
 -1      4236 2.86291E-03
 -1      4237 2.20304E-03
 -1      4238 2.09249E-03
 -1      4239 1.82147E-03
 -1      4240 2.27559E-03
 -1      4241 2.31243E-03
 -1      4242 1.89413E-03
 -1      4243 2.28367E-03
 -1      4244 1.98860E+00
 -1      4245 2.26613E+00
 -1      4246 2.38801E-03
 -1      4247 2.20385E-03
 -1      4248 3.81075E+00
 -1      4249 3.65329E+00
 -1      4250 3.00963E+00
 -1      4251 2.75516E+00
 -1      4252 2.46783E-03
 -1      4253 2.19577E-03
 -1      4254 6.18140E-01
 -1      4255 7.17892E-01
 -1      4256 5.43637E-01
 -1      4257 3.68921E+00
 -1      4258 2.56399E+00
 -1      4259 8.30821E-01
 -1      4260 9.63055E-01
 -1      4261 7.33470E-01
 -1      4262 1.15250E+00
 -1      4263 1.60127E+00
 -1      4264 2.38801E-03
 -1      4265 1.03584E+00
 -1      4266 1.61261E+00
 -1      4267 1.33647E+00
 -1      4268 1.11225E+00
 -1      4269 9.22806E-01
 -1      4270 7.90287E-01
 -1      4271 6.77358E-01
 -1      4272 5.88324E-01
 -1      4273 5.11419E-01
 -1      4274 4.47459E-01
 -1      4275 3.91872E-01
 -1      4276 3.43746E-01
 -1      4277 3.01942E-01
 -1      4278 2.64585E-01
 -1      4279 2.32363E-01
 -1      4280 2.02860E-01
 -1      4281 1.78589E-01
 -1      4282 1.55141E-01
 -1      4283 1.36035E-01
 -1      4284 1.17422E-01
 -1      4285 1.02242E-01
 -1      4286 8.75629E-02
 -1      4287 7.56214E-02
 -1      4288 6.41593E-02
 -1      4289 5.48814E-02
 -1      4290 4.60411E-02
 -1      4291 3.89344E-02
 -1      4292 3.22132E-02
 -1      4293 2.71430E-02
 -1      4294 2.24741E-02
 -1      4295 1.87985E-02
 -1      4296 1.53613E-02
 -1      4297 1.26186E-02
 -1      4298 1.00758E-02
 -1      4299 8.06805E-03
 -1      4300 6.22393E-03
 -1      4301 4.78553E-03
 -1      4302 3.47838E-03
 -1      4303 2.47367E-03
 -1      4304 1.57209E-03
 -1      4305 1.53535E-03
 -1      4306 1.65439E-03
 -1      4307 1.76378E-03
 -1      4308 2.38801E-03
 -1      4309 1.72380E+00
 -1      4310 2.19577E-03
 -1      4311 1.99993E+00
 -1      4312 2.56399E+00
 -3
 9999
