    1C
    1UUSER                                                              
    1UDATE              27.october.2022                                 
    1UTIME              00:34:38                                        
    1UHOST                                                              
    1UPGM               CalculiX                                        
    1UVERSION           Version 2.17                             
    1UCOMPILETIME       Thu Jul 23 21:43:50 CEST 2020                    
    1UDIR                                                               
    1UDBN                                                               
    1UMAT    1SOLIDMATERIAL                                             
    2C                          4265                                     1
 -1         1 1.22798E+02 3.54545E+01 0.00000E+00
 -1         2 1.27552E+02 2.88248E+01 0.00000E+00
 -1         3 1.50000E+02 0.00000E+00 0.00000E+00
 -1         4 1.50000E+02 5.00000E+01 0.00000E+00
 -1         5 0.00000E+00 0.00000E+00 0.00000E+00
 -1         6 0.00000E+00 5.00000E+01 0.00000E+00
 -1         7 0.00000E+00 4.70500E+01 0.00000E+00
 -1         8 0.00000E+00 4.41000E+01 0.00000E+00
 -1         9 0.00000E+00 4.11500E+01 0.00000E+00
 -1        10 0.00000E+00 3.82000E+01 0.00000E+00
 -1        11 0.00000E+00 3.52500E+01 0.00000E+00
 -1        12 0.00000E+00 3.23500E+01 0.00000E+00
 -1        13 0.00000E+00 2.94000E+01 0.00000E+00
 -1        14 0.00000E+00 2.64500E+01 0.00000E+00
 -1        15 0.00000E+00 2.35000E+01 0.00000E+00
 -1        16 0.00000E+00 2.05500E+01 0.00000E+00
 -1        17 0.00000E+00 1.76000E+01 0.00000E+00
 -1        18 0.00000E+00 1.47000E+01 0.00000E+00
 -1        19 0.00000E+00 1.17500E+01 0.00000E+00
 -1        20 0.00000E+00 8.80000E+00 0.00000E+00
 -1        21 0.00000E+00 5.85000E+00 0.00000E+00
 -1        22 0.00000E+00 2.90000E+00 0.00000E+00
 -1        23 3.15000E+00 5.00000E+01 0.00000E+00
 -1        24 6.15000E+00 5.00000E+01 0.00000E+00
 -1        25 9.15000E+00 5.00000E+01 0.00000E+00
 -1        26 1.21500E+01 5.00000E+01 0.00000E+00
 -1        27 1.51500E+01 5.00000E+01 0.00000E+00
 -1        28 1.81500E+01 5.00000E+01 0.00000E+00
 -1        29 2.11500E+01 5.00000E+01 0.00000E+00
 -1        30 2.41500E+01 5.00000E+01 0.00000E+00
 -1        31 2.71500E+01 5.00000E+01 0.00000E+00
 -1        32 3.01500E+01 5.00000E+01 0.00000E+00
 -1        33 3.31500E+01 5.00000E+01 0.00000E+00
 -1        34 3.61500E+01 5.00000E+01 0.00000E+00
 -1        35 3.91500E+01 5.00000E+01 0.00000E+00
 -1        36 4.21500E+01 5.00000E+01 0.00000E+00
 -1        37 4.51500E+01 5.00000E+01 0.00000E+00
 -1        38 4.81500E+01 5.00000E+01 0.00000E+00
 -1        39 5.11500E+01 5.00000E+01 0.00000E+00
 -1        40 5.41500E+01 5.00000E+01 0.00000E+00
 -1        41 5.71500E+01 5.00000E+01 0.00000E+00
 -1        42 6.01500E+01 5.00000E+01 0.00000E+00
 -1        43 6.31500E+01 5.00000E+01 0.00000E+00
 -1        44 6.61500E+01 5.00000E+01 0.00000E+00
 -1        45 6.91500E+01 5.00000E+01 0.00000E+00
 -1        46 7.21500E+01 5.00000E+01 0.00000E+00
 -1        47 7.51500E+01 5.00000E+01 0.00000E+00
 -1        48 7.81500E+01 5.00000E+01 0.00000E+00
 -1        49 8.11500E+01 5.00000E+01 0.00000E+00
 -1        50 8.41500E+01 5.00000E+01 0.00000E+00
 -1        51 8.71500E+01 5.00000E+01 0.00000E+00
 -1        52 9.01500E+01 5.00000E+01 0.00000E+00
 -1        53 9.31500E+01 5.00000E+01 0.00000E+00
 -1        54 9.61500E+01 5.00000E+01 0.00000E+00
 -1        55 9.91500E+01 5.00000E+01 0.00000E+00
 -1        56 1.02150E+02 5.00000E+01 0.00000E+00
 -1        57 1.05150E+02 5.00000E+01 0.00000E+00
 -1        58 1.08150E+02 5.00000E+01 0.00000E+00
 -1        59 1.11150E+02 5.00000E+01 0.00000E+00
 -1        60 1.14150E+02 5.00000E+01 0.00000E+00
 -1        61 1.17150E+02 5.00000E+01 0.00000E+00
 -1        62 1.20150E+02 5.00000E+01 0.00000E+00
 -1        63 1.23150E+02 5.00000E+01 0.00000E+00
 -1        64 1.26150E+02 5.00000E+01 0.00000E+00
 -1        65 1.29150E+02 5.00000E+01 0.00000E+00
 -1        66 1.32150E+02 5.00000E+01 0.00000E+00
 -1        67 1.35150E+02 5.00000E+01 0.00000E+00
 -1        68 1.38150E+02 5.00000E+01 0.00000E+00
 -1        69 1.41150E+02 5.00000E+01 0.00000E+00
 -1        70 1.44150E+02 5.00000E+01 0.00000E+00
 -1        71 1.47150E+02 5.00000E+01 0.00000E+00
 -1        72 3.15000E+00 0.00000E+00 0.00000E+00
 -1        73 6.15000E+00 0.00000E+00 0.00000E+00
 -1        74 9.15000E+00 0.00000E+00 0.00000E+00
 -1        75 1.21500E+01 0.00000E+00 0.00000E+00
 -1        76 1.51500E+01 0.00000E+00 0.00000E+00
 -1        77 1.81500E+01 0.00000E+00 0.00000E+00
 -1        78 2.11500E+01 0.00000E+00 0.00000E+00
 -1        79 2.41500E+01 0.00000E+00 0.00000E+00
 -1        80 2.71500E+01 0.00000E+00 0.00000E+00
 -1        81 3.01500E+01 0.00000E+00 0.00000E+00
 -1        82 3.31500E+01 0.00000E+00 0.00000E+00
 -1        83 3.61500E+01 0.00000E+00 0.00000E+00
 -1        84 3.91500E+01 0.00000E+00 0.00000E+00
 -1        85 4.21500E+01 0.00000E+00 0.00000E+00
 -1        86 4.51500E+01 0.00000E+00 0.00000E+00
 -1        87 4.81500E+01 0.00000E+00 0.00000E+00
 -1        88 5.11500E+01 0.00000E+00 0.00000E+00
 -1        89 5.41500E+01 0.00000E+00 0.00000E+00
 -1        90 5.71500E+01 0.00000E+00 0.00000E+00
 -1        91 6.01500E+01 0.00000E+00 0.00000E+00
 -1        92 6.31500E+01 0.00000E+00 0.00000E+00
 -1        93 6.61500E+01 0.00000E+00 0.00000E+00
 -1        94 6.91500E+01 0.00000E+00 0.00000E+00
 -1        95 7.21500E+01 0.00000E+00 0.00000E+00
 -1        96 7.51500E+01 0.00000E+00 0.00000E+00
 -1        97 7.81500E+01 0.00000E+00 0.00000E+00
 -1        98 8.11500E+01 0.00000E+00 0.00000E+00
 -1        99 8.41500E+01 0.00000E+00 0.00000E+00
 -1       100 8.71500E+01 0.00000E+00 0.00000E+00
 -1       101 9.01500E+01 0.00000E+00 0.00000E+00
 -1       102 9.31500E+01 0.00000E+00 0.00000E+00
 -1       103 9.61500E+01 0.00000E+00 0.00000E+00
 -1       104 9.91500E+01 0.00000E+00 0.00000E+00
 -1       105 1.02150E+02 0.00000E+00 0.00000E+00
 -1       106 1.05150E+02 0.00000E+00 0.00000E+00
 -1       107 1.08150E+02 0.00000E+00 0.00000E+00
 -1       108 1.11150E+02 0.00000E+00 0.00000E+00
 -1       109 1.14150E+02 0.00000E+00 0.00000E+00
 -1       110 1.17150E+02 0.00000E+00 0.00000E+00
 -1       111 1.20150E+02 0.00000E+00 0.00000E+00
 -1       112 1.23150E+02 0.00000E+00 0.00000E+00
 -1       113 1.26150E+02 0.00000E+00 0.00000E+00
 -1       114 1.29150E+02 0.00000E+00 0.00000E+00
 -1       115 1.32150E+02 0.00000E+00 0.00000E+00
 -1       116 1.35150E+02 0.00000E+00 0.00000E+00
 -1       117 1.38150E+02 0.00000E+00 0.00000E+00
 -1       118 1.41150E+02 0.00000E+00 0.00000E+00
 -1       119 1.44150E+02 0.00000E+00 0.00000E+00
 -1       120 1.47150E+02 0.00000E+00 0.00000E+00
 -1       121 1.50000E+02 2.95000E+00 0.00000E+00
 -1       122 1.50000E+02 5.90000E+00 0.00000E+00
 -1       123 1.50000E+02 8.85000E+00 0.00000E+00
 -1       124 1.50000E+02 1.18000E+01 0.00000E+00
 -1       125 1.50000E+02 1.47500E+01 0.00000E+00
 -1       126 1.50000E+02 1.76500E+01 0.00000E+00
 -1       127 1.50000E+02 2.06000E+01 0.00000E+00
 -1       128 1.50000E+02 2.35500E+01 0.00000E+00
 -1       129 1.50000E+02 2.65000E+01 0.00000E+00
 -1       130 1.50000E+02 2.94500E+01 0.00000E+00
 -1       131 1.50000E+02 3.24000E+01 0.00000E+00
 -1       132 1.50000E+02 3.53000E+01 0.00000E+00
 -1       133 1.50000E+02 3.82500E+01 0.00000E+00
 -1       134 1.50000E+02 4.12000E+01 0.00000E+00
 -1       135 1.50000E+02 4.41500E+01 0.00000E+00
 -1       136 1.50000E+02 4.71000E+01 0.00000E+00
 -1       137 1.27390E+02 2.73278E+01 0.00000E+00
 -1       138 1.26856E+02 2.57827E+01 0.00000E+00
 -1       139 1.26092E+02 2.45458E+01 0.00000E+00
 -1       140 1.24904E+02 2.33425E+01 0.00000E+00
 -1       141 1.23644E+02 2.25446E+01 0.00000E+00
 -1       142 1.22056E+02 2.19884E+01 0.00000E+00
 -1       143 1.20598E+02 2.18250E+01 0.00000E+00
 -1       144 1.19095E+02 2.19782E+01 0.00000E+00
 -1       145 1.17677E+02 2.24423E+01 0.00000E+00
 -1       146 1.16261E+02 2.32945E+01 0.00000E+00
 -1       147 1.15249E+02 2.42559E+01 0.00000E+00
 -1       148 1.14425E+02 2.54402E+01 0.00000E+00
 -1       149 1.13836E+02 2.68509E+01 0.00000E+00
 -1       150 1.13569E+02 2.83404E+01 0.00000E+00
 -1       151 1.13631E+02 2.98714E+01 0.00000E+00
 -1       152 1.14011E+02 3.13180E+01 0.00000E+00
 -1       153 1.14722E+02 3.26996E+01 0.00000E+00
 -1       154 1.15767E+02 3.39340E+01 0.00000E+00
 -1       155 1.16986E+02 3.48487E+01 0.00000E+00
 -1       156 1.18374E+02 3.54773E+01 0.00000E+00
 -1       157 1.19871E+02 3.57916E+01 0.00000E+00
 -1       158 1.21306E+02 3.57840E+01 0.00000E+00
 -1       159 1.24091E+02 3.48640E+01 0.00000E+00
 -1       160 1.25219E+02 3.40422E+01 0.00000E+00
 -1       161 1.26175E+02 3.29936E+01 0.00000E+00
 -1       162 1.26952E+02 3.16591E+01 0.00000E+00
 -1       163 1.27397E+02 3.02891E+01 0.00000E+00
 -1       164 2.59800E+00 4.55750E+01 0.00000E+00
 -1       165 2.59800E+00 4.26250E+01 0.00000E+00
 -1       166 2.59800E+00 3.96750E+01 0.00000E+00
 -1       167 2.59800E+00 3.67250E+01 0.00000E+00
 -1       168 2.59800E+00 3.38250E+01 0.00000E+00
 -1       169 2.59800E+00 3.08750E+01 0.00000E+00
 -1       170 2.59800E+00 2.79250E+01 0.00000E+00
 -1       171 2.59800E+00 2.49750E+01 0.00000E+00
 -1       172 2.59800E+00 2.20250E+01 0.00000E+00
 -1       173 2.59800E+00 1.90750E+01 0.00000E+00
 -1       174 2.59800E+00 1.61750E+01 0.00000E+00
 -1       175 2.59800E+00 1.32250E+01 0.00000E+00
 -1       176 2.59800E+00 1.02750E+01 0.00000E+00
 -1       177 2.59800E+00 7.32500E+00 0.00000E+00
 -1       178 2.59800E+00 4.37500E+00 0.00000E+00
 -1       179 2.87400E+00 2.18750E+00 0.00000E+00
 -1       180 4.65000E+00 4.74020E+01 0.00000E+00
 -1       181 7.65000E+00 4.74020E+01 0.00000E+00
 -1       182 1.06500E+01 4.74020E+01 0.00000E+00
 -1       183 1.36500E+01 4.74020E+01 0.00000E+00
 -1       184 1.66500E+01 4.74020E+01 0.00000E+00
 -1       185 1.96500E+01 4.74020E+01 0.00000E+00
 -1       186 2.26500E+01 4.74020E+01 0.00000E+00
 -1       187 2.56500E+01 4.74020E+01 0.00000E+00
 -1       188 2.86500E+01 4.74020E+01 0.00000E+00
 -1       189 3.16500E+01 4.74020E+01 0.00000E+00
 -1       190 3.46500E+01 4.74020E+01 0.00000E+00
 -1       191 3.76500E+01 4.74020E+01 0.00000E+00
 -1       192 4.06500E+01 4.74020E+01 0.00000E+00
 -1       193 4.36500E+01 4.74020E+01 0.00000E+00
 -1       194 4.66500E+01 4.74020E+01 0.00000E+00
 -1       195 4.96500E+01 4.74020E+01 0.00000E+00
 -1       196 5.26500E+01 4.74020E+01 0.00000E+00
 -1       197 5.56500E+01 4.74020E+01 0.00000E+00
 -1       198 5.86500E+01 4.74020E+01 0.00000E+00
 -1       199 6.16500E+01 4.74020E+01 0.00000E+00
 -1       200 6.46500E+01 4.74020E+01 0.00000E+00
 -1       201 6.76500E+01 4.74020E+01 0.00000E+00
 -1       202 7.06500E+01 4.74020E+01 0.00000E+00
 -1       203 7.36500E+01 4.74020E+01 0.00000E+00
 -1       204 7.66500E+01 4.74020E+01 0.00000E+00
 -1       205 7.96500E+01 4.74020E+01 0.00000E+00
 -1       206 8.26500E+01 4.74020E+01 0.00000E+00
 -1       207 8.56500E+01 4.74020E+01 0.00000E+00
 -1       208 8.86500E+01 4.74020E+01 0.00000E+00
 -1       209 9.16500E+01 4.74020E+01 0.00000E+00
 -1       210 9.46500E+01 4.74020E+01 0.00000E+00
 -1       211 9.76500E+01 4.74020E+01 0.00000E+00
 -1       212 1.00650E+02 4.74020E+01 0.00000E+00
 -1       213 1.03650E+02 4.74020E+01 0.00000E+00
 -1       214 1.06650E+02 4.74020E+01 0.00000E+00
 -1       215 1.09650E+02 4.74020E+01 0.00000E+00
 -1       216 1.12650E+02 4.74020E+01 0.00000E+00
 -1       217 1.15650E+02 4.74020E+01 0.00000E+00
 -1       218 1.18650E+02 4.74020E+01 0.00000E+00
 -1       219 1.21650E+02 4.74020E+01 0.00000E+00
 -1       220 1.24650E+02 4.74020E+01 0.00000E+00
 -1       221 1.27650E+02 4.74020E+01 0.00000E+00
 -1       222 1.30650E+02 4.74020E+01 0.00000E+00
 -1       223 1.33650E+02 4.74020E+01 0.00000E+00
 -1       224 1.36650E+02 4.74020E+01 0.00000E+00
 -1       225 1.39650E+02 4.74020E+01 0.00000E+00
 -1       226 1.42650E+02 4.74020E+01 0.00000E+00
 -1       227 1.45650E+02 4.74020E+01 0.00000E+00
 -1       228 5.87400E+00 2.18750E+00 0.00000E+00
 -1       229 8.87400E+00 2.18750E+00 0.00000E+00
 -1       230 1.18740E+01 2.18750E+00 0.00000E+00
 -1       231 1.48740E+01 2.18750E+00 0.00000E+00
 -1       232 1.78740E+01 2.18750E+00 0.00000E+00
 -1       233 2.08740E+01 2.18750E+00 0.00000E+00
 -1       234 2.38740E+01 2.18750E+00 0.00000E+00
 -1       235 2.68740E+01 2.18750E+00 0.00000E+00
 -1       236 2.98740E+01 2.18750E+00 0.00000E+00
 -1       237 3.28740E+01 2.18750E+00 0.00000E+00
 -1       238 3.58740E+01 2.18750E+00 0.00000E+00
 -1       239 3.88740E+01 2.18750E+00 0.00000E+00
 -1       240 4.18740E+01 2.18750E+00 0.00000E+00
 -1       241 4.48740E+01 2.18750E+00 0.00000E+00
 -1       242 4.78740E+01 2.18750E+00 0.00000E+00
 -1       243 5.08740E+01 2.18750E+00 0.00000E+00
 -1       244 5.38740E+01 2.18750E+00 0.00000E+00
 -1       245 5.68740E+01 2.18750E+00 0.00000E+00
 -1       246 5.98740E+01 2.18750E+00 0.00000E+00
 -1       247 6.28740E+01 2.18750E+00 0.00000E+00
 -1       248 6.58740E+01 2.18750E+00 0.00000E+00
 -1       249 6.88740E+01 2.18750E+00 0.00000E+00
 -1       250 7.18740E+01 2.18750E+00 0.00000E+00
 -1       251 7.48740E+01 2.18750E+00 0.00000E+00
 -1       252 7.78740E+01 2.18750E+00 0.00000E+00
 -1       253 8.08740E+01 2.18750E+00 0.00000E+00
 -1       254 8.38740E+01 2.18750E+00 0.00000E+00
 -1       255 8.68740E+01 2.18750E+00 0.00000E+00
 -1       256 8.98740E+01 2.18750E+00 0.00000E+00
 -1       257 9.28740E+01 2.18750E+00 0.00000E+00
 -1       258 9.58740E+01 2.18750E+00 0.00000E+00
 -1       259 9.88740E+01 2.18750E+00 0.00000E+00
 -1       260 1.01874E+02 2.18750E+00 0.00000E+00
 -1       261 1.04874E+02 2.18750E+00 0.00000E+00
 -1       262 1.07874E+02 2.18750E+00 0.00000E+00
 -1       263 1.10874E+02 2.18750E+00 0.00000E+00
 -1       264 1.13874E+02 2.18750E+00 0.00000E+00
 -1       265 1.16874E+02 2.18750E+00 0.00000E+00
 -1       266 1.19874E+02 2.18750E+00 0.00000E+00
 -1       267 1.22874E+02 2.18750E+00 0.00000E+00
 -1       268 1.25874E+02 2.18750E+00 0.00000E+00
 -1       269 1.28874E+02 2.18750E+00 0.00000E+00
 -1       270 1.31874E+02 2.18750E+00 0.00000E+00
 -1       271 1.34874E+02 2.18750E+00 0.00000E+00
 -1       272 1.37874E+02 2.18750E+00 0.00000E+00
 -1       273 1.40874E+02 2.18750E+00 0.00000E+00
 -1       274 1.43874E+02 2.18750E+00 0.00000E+00
 -1       275 1.46874E+02 2.18750E+00 0.00000E+00
 -1       276 1.47402E+02 4.42500E+00 0.00000E+00
 -1       277 1.47402E+02 7.37500E+00 0.00000E+00
 -1       278 1.47402E+02 1.03250E+01 0.00000E+00
 -1       279 1.47402E+02 1.32750E+01 0.00000E+00
 -1       280 1.47402E+02 1.61750E+01 0.00000E+00
 -1       281 1.47402E+02 1.91250E+01 0.00000E+00
 -1       282 1.47402E+02 2.20750E+01 0.00000E+00
 -1       283 1.47402E+02 2.50250E+01 0.00000E+00
 -1       284 1.47402E+02 2.79750E+01 0.00000E+00
 -1       285 1.47402E+02 3.09250E+01 0.00000E+00
 -1       286 1.47402E+02 3.38250E+01 0.00000E+00
 -1       287 1.47402E+02 3.67750E+01 0.00000E+00
 -1       288 1.47402E+02 3.97250E+01 0.00000E+00
 -1       289 1.47402E+02 4.26750E+01 0.00000E+00
 -1       290 1.46526E+02 4.50385E+01 0.00000E+00
 -1       291 1.28843E+02 2.79279E+01 0.00000E+00
 -1       292 1.28586E+02 2.60500E+01 0.00000E+00
 -1       293 1.27577E+02 2.44827E+01 0.00000E+00
 -1       294 1.26600E+02 2.28572E+01 0.00000E+00
 -1       295 1.24967E+02 2.18483E+01 0.00000E+00
 -1       296 1.23334E+02 2.08851E+01 0.00000E+00
 -1       297 1.21462E+02 2.07018E+01 0.00000E+00
 -1       298 1.19706E+02 2.05287E+01 0.00000E+00
 -1       299 1.18009E+02 2.10580E+01 0.00000E+00
 -1       300 1.16214E+02 2.16141E+01 0.00000E+00
 -1       301 1.14920E+02 2.28962E+01 0.00000E+00
 -1       302 1.13841E+02 2.41556E+01 0.00000E+00
 -1       303 1.13011E+02 2.56787E+01 0.00000E+00
 -1       304 1.12427E+02 2.73667E+01 0.00000E+00
 -1       305 1.12388E+02 2.91549E+01 0.00000E+00
 -1       306 1.12648E+02 3.09030E+01 0.00000E+00
 -1       307 1.13289E+02 3.25637E+01 0.00000E+00
 -1       308 1.14127E+02 3.42625E+01 0.00000E+00
 -1       309 1.15649E+02 3.53612E+01 0.00000E+00
 -1       310 1.17110E+02 3.64199E+01 0.00000E+00
 -1       311 1.18873E+02 3.68210E+01 0.00000E+00
 -1       312 1.20595E+02 3.70002E+01 0.00000E+00
 -1       313 1.22350E+02 3.69668E+01 0.00000E+00
 -1       314 1.23949E+02 3.62621E+01 0.00000E+00
 -1       315 1.25369E+02 3.54328E+01 0.00000E+00
 -1       316 1.26593E+02 3.43350E+01 0.00000E+00
 -1       317 1.27756E+02 3.30209E+01 0.00000E+00
 -1       318 1.28408E+02 3.13742E+01 0.00000E+00
 -1       319 1.28764E+02 2.96933E+01 0.00000E+00
 -1       320 5.19600E+00 4.11500E+01 0.00000E+00
 -1       321 5.19600E+00 4.41000E+01 0.00000E+00
 -1       322 5.19600E+00 3.52750E+01 0.00000E+00
 -1       323 5.19600E+00 3.23250E+01 0.00000E+00
 -1       324 5.19600E+00 2.93750E+01 0.00000E+00
 -1       325 5.19600E+00 2.64250E+01 0.00000E+00
 -1       326 5.19600E+00 2.34750E+01 0.00000E+00
 -1       327 5.19600E+00 2.05250E+01 0.00000E+00
 -1       328 5.19600E+00 1.76250E+01 0.00000E+00
 -1       329 5.19600E+00 1.46750E+01 0.00000E+00
 -1       330 5.19600E+00 1.17250E+01 0.00000E+00
 -1       331 5.19600E+00 8.77500E+00 0.00000E+00
 -1       332 5.19600E+00 5.82500E+00 0.00000E+00
 -1       333 5.53500E+00 4.00625E+00 0.00000E+00
 -1       334 8.53500E+00 4.00625E+00 0.00000E+00
 -1       335 9.15000E+00 4.48040E+01 0.00000E+00
 -1       336 1.21500E+01 4.48040E+01 0.00000E+00
 -1       337 1.51500E+01 4.48040E+01 0.00000E+00
 -1       338 1.81500E+01 4.48040E+01 0.00000E+00
 -1       339 2.11500E+01 4.48040E+01 0.00000E+00
 -1       340 2.41500E+01 4.48040E+01 0.00000E+00
 -1       341 2.71500E+01 4.48040E+01 0.00000E+00
 -1       342 3.01500E+01 4.48040E+01 0.00000E+00
 -1       343 3.31500E+01 4.48040E+01 0.00000E+00
 -1       344 3.61500E+01 4.48040E+01 0.00000E+00
 -1       345 3.91500E+01 4.48040E+01 0.00000E+00
 -1       346 4.21500E+01 4.48040E+01 0.00000E+00
 -1       347 4.51500E+01 4.48040E+01 0.00000E+00
 -1       348 4.81500E+01 4.48040E+01 0.00000E+00
 -1       349 5.11500E+01 4.48040E+01 0.00000E+00
 -1       350 5.41500E+01 4.48040E+01 0.00000E+00
 -1       351 5.71500E+01 4.48040E+01 0.00000E+00
 -1       352 6.01500E+01 4.48040E+01 0.00000E+00
 -1       353 6.31500E+01 4.48040E+01 0.00000E+00
 -1       354 6.61500E+01 4.48040E+01 0.00000E+00
 -1       355 6.91500E+01 4.48040E+01 0.00000E+00
 -1       356 7.21500E+01 4.48040E+01 0.00000E+00
 -1       357 7.51500E+01 4.48040E+01 0.00000E+00
 -1       358 7.81500E+01 4.48040E+01 0.00000E+00
 -1       359 8.11500E+01 4.48040E+01 0.00000E+00
 -1       360 8.41500E+01 4.48040E+01 0.00000E+00
 -1       361 8.71500E+01 4.48040E+01 0.00000E+00
 -1       362 9.01500E+01 4.48040E+01 0.00000E+00
 -1       363 9.31500E+01 4.48040E+01 0.00000E+00
 -1       364 9.61500E+01 4.48040E+01 0.00000E+00
 -1       365 9.91500E+01 4.48040E+01 0.00000E+00
 -1       366 1.02150E+02 4.48040E+01 0.00000E+00
 -1       367 1.05150E+02 4.48040E+01 0.00000E+00
 -1       368 1.08150E+02 4.48040E+01 0.00000E+00
 -1       369 1.11150E+02 4.48040E+01 0.00000E+00
 -1       370 1.14150E+02 4.48040E+01 0.00000E+00
 -1       371 1.17150E+02 4.48040E+01 0.00000E+00
 -1       372 1.20150E+02 4.48040E+01 0.00000E+00
 -1       373 1.23150E+02 4.48040E+01 0.00000E+00
 -1       374 1.26150E+02 4.48040E+01 0.00000E+00
 -1       375 1.29150E+02 4.48040E+01 0.00000E+00
 -1       376 1.32150E+02 4.48040E+01 0.00000E+00
 -1       377 1.35150E+02 4.48040E+01 0.00000E+00
 -1       378 1.38150E+02 4.48040E+01 0.00000E+00
 -1       379 1.41150E+02 4.48040E+01 0.00000E+00
 -1       380 1.43838E+02 4.49212E+01 0.00000E+00
 -1       381 1.15350E+01 4.00625E+00 0.00000E+00
 -1       382 1.45350E+01 4.00625E+00 0.00000E+00
 -1       383 1.75350E+01 4.00625E+00 0.00000E+00
 -1       384 2.05350E+01 4.00625E+00 0.00000E+00
 -1       385 2.35350E+01 4.00625E+00 0.00000E+00
 -1       386 2.65350E+01 4.00625E+00 0.00000E+00
 -1       387 2.95350E+01 4.00625E+00 0.00000E+00
 -1       388 3.25350E+01 4.00625E+00 0.00000E+00
 -1       389 3.55350E+01 4.00625E+00 0.00000E+00
 -1       390 3.85350E+01 4.00625E+00 0.00000E+00
 -1       391 4.15350E+01 4.00625E+00 0.00000E+00
 -1       392 4.45350E+01 4.00625E+00 0.00000E+00
 -1       393 4.75350E+01 4.00625E+00 0.00000E+00
 -1       394 5.05350E+01 4.00625E+00 0.00000E+00
 -1       395 5.35350E+01 4.00625E+00 0.00000E+00
 -1       396 5.65350E+01 4.00625E+00 0.00000E+00
 -1       397 5.95350E+01 4.00625E+00 0.00000E+00
 -1       398 6.25350E+01 4.00625E+00 0.00000E+00
 -1       399 6.55350E+01 4.00625E+00 0.00000E+00
 -1       400 6.85350E+01 4.00625E+00 0.00000E+00
 -1       401 7.15350E+01 4.00625E+00 0.00000E+00
 -1       402 7.45350E+01 4.00625E+00 0.00000E+00
 -1       403 7.75350E+01 4.00625E+00 0.00000E+00
 -1       404 8.05350E+01 4.00625E+00 0.00000E+00
 -1       405 8.35350E+01 4.00625E+00 0.00000E+00
 -1       406 8.65350E+01 4.00625E+00 0.00000E+00
 -1       407 8.95350E+01 4.00625E+00 0.00000E+00
 -1       408 9.25350E+01 4.00625E+00 0.00000E+00
 -1       409 9.55350E+01 4.00625E+00 0.00000E+00
 -1       410 9.85350E+01 4.00625E+00 0.00000E+00
 -1       411 1.01535E+02 4.00625E+00 0.00000E+00
 -1       412 1.04535E+02 4.00625E+00 0.00000E+00
 -1       413 1.07535E+02 4.00625E+00 0.00000E+00
 -1       414 1.10535E+02 4.00625E+00 0.00000E+00
 -1       415 1.13535E+02 4.00625E+00 0.00000E+00
 -1       416 1.16535E+02 4.00625E+00 0.00000E+00
 -1       417 1.19535E+02 4.00625E+00 0.00000E+00
 -1       418 1.22535E+02 4.00625E+00 0.00000E+00
 -1       419 1.25535E+02 4.00625E+00 0.00000E+00
 -1       420 1.28535E+02 4.00625E+00 0.00000E+00
 -1       421 1.31535E+02 4.00625E+00 0.00000E+00
 -1       422 1.34535E+02 4.00625E+00 0.00000E+00
 -1       423 1.37535E+02 4.00625E+00 0.00000E+00
 -1       424 1.40535E+02 4.00625E+00 0.00000E+00
 -1       425 1.43535E+02 4.00625E+00 0.00000E+00
 -1       426 1.45469E+02 4.21562E+00 0.00000E+00
 -1       427 1.44804E+02 1.18000E+01 0.00000E+00
 -1       428 1.44804E+02 8.85000E+00 0.00000E+00
 -1       429 1.45136E+02 6.53281E+00 0.00000E+00
 -1       430 1.44804E+02 1.47000E+01 0.00000E+00
 -1       431 1.44804E+02 1.76500E+01 0.00000E+00
 -1       432 1.44804E+02 2.06000E+01 0.00000E+00
 -1       433 1.44804E+02 2.35500E+01 0.00000E+00
 -1       434 1.44804E+02 2.65000E+01 0.00000E+00
 -1       435 1.44804E+02 2.94500E+01 0.00000E+00
 -1       436 1.44804E+02 3.23500E+01 0.00000E+00
 -1       437 1.44804E+02 3.53000E+01 0.00000E+00
 -1       438 1.44804E+02 3.82500E+01 0.00000E+00
 -1       439 1.44804E+02 4.12000E+01 0.00000E+00
 -1       440 1.29171E+02 2.45646E+01 0.00000E+00
 -1       441 1.30433E+02 2.88839E+01 0.00000E+00
 -1       442 1.30331E+02 2.67677E+01 0.00000E+00
 -1       443 1.28415E+02 2.28728E+01 0.00000E+00
 -1       444 1.26641E+02 2.09651E+01 0.00000E+00
 -1       445 5.19600E+00 3.82125E+01 0.00000E+00
 -1       446 1.22557E+02 1.91699E+01 0.00000E+00
 -1       447 1.20801E+02 1.89968E+01 0.00000E+00
 -1       448 1.18472E+02 1.95559E+01 0.00000E+00
 -1       449 1.16677E+02 2.01120E+01 0.00000E+00
 -1       450 1.14478E+02 2.11555E+01 0.00000E+00
 -1       451 1.13396E+02 2.26830E+01 0.00000E+00
 -1       452 1.12141E+02 2.42167E+01 0.00000E+00
 -1       453 1.11494E+02 2.60984E+01 0.00000E+00
 -1       454 1.11028E+02 2.82313E+01 0.00000E+00
 -1       455 1.11153E+02 3.02320E+01 0.00000E+00
 -1       456 1.11368E+02 3.23504E+01 0.00000E+00
 -1       457 1.12207E+02 3.40492E+01 0.00000E+00
 -1       458 1.13884E+02 3.62024E+01 0.00000E+00
 -1       459 1.15346E+02 3.72611E+01 0.00000E+00
 -1       460 1.17667E+02 3.80477E+01 0.00000E+00
 -1       461 1.19591E+02 3.82832E+01 0.00000E+00
 -1       462 1.21499E+02 3.83632E+01 0.00000E+00
 -1       463 1.23740E+02 3.79538E+01 0.00000E+00
 -1       464 1.25355E+02 3.70392E+01 0.00000E+00
 -1       465 1.26959E+02 3.59733E+01 0.00000E+00
 -1       466 1.28208E+02 3.45928E+01 0.00000E+00
 -1       467 1.29521E+02 3.27668E+01 0.00000E+00
 -1       468 1.30018E+02 3.08369E+01 0.00000E+00
 -1       469 1.25008E+02 2.00018E+01 0.00000E+00
 -1       470 1.30916E+02 2.52823E+01 0.00000E+00
 -1       471 1.14941E+02 1.96534E+01 0.00000E+00
 -1       472 1.00350E+01 6.60425E+00 0.00000E+00
 -1       473 7.79400E+00 3.08500E+01 0.00000E+00
 -1       474 7.79400E+00 3.38000E+01 0.00000E+00
 -1       475 7.79400E+00 2.49500E+01 0.00000E+00
 -1       476 7.79400E+00 2.20000E+01 0.00000E+00
 -1       477 7.79400E+00 1.91000E+01 0.00000E+00
 -1       478 7.79400E+00 1.61500E+01 0.00000E+00
 -1       479 7.79400E+00 1.32000E+01 0.00000E+00
 -1       480 7.79400E+00 1.02500E+01 0.00000E+00
 -1       481 1.28661E+02 2.08653E+01 0.00000E+00
 -1       482 1.30350E+01 6.60425E+00 0.00000E+00
 -1       483 1.06500E+01 4.22060E+01 0.00000E+00
 -1       484 1.24307E+02 1.80411E+01 0.00000E+00
 -1       485 1.36500E+01 4.22060E+01 0.00000E+00
 -1       486 1.66500E+01 4.22060E+01 0.00000E+00
 -1       487 1.96500E+01 4.22060E+01 0.00000E+00
 -1       488 2.26500E+01 4.22060E+01 0.00000E+00
 -1       489 2.56500E+01 4.22060E+01 0.00000E+00
 -1       490 2.86500E+01 4.22060E+01 0.00000E+00
 -1       491 3.16500E+01 4.22060E+01 0.00000E+00
 -1       492 3.46500E+01 4.22060E+01 0.00000E+00
 -1       493 3.76500E+01 4.22060E+01 0.00000E+00
 -1       494 4.06500E+01 4.22060E+01 0.00000E+00
 -1       495 4.36500E+01 4.22060E+01 0.00000E+00
 -1       496 4.66500E+01 4.22060E+01 0.00000E+00
 -1       497 4.96500E+01 4.22060E+01 0.00000E+00
 -1       498 5.26500E+01 4.22060E+01 0.00000E+00
 -1       499 5.56500E+01 4.22060E+01 0.00000E+00
 -1       500 5.86500E+01 4.22060E+01 0.00000E+00
 -1       501 6.16500E+01 4.22060E+01 0.00000E+00
 -1       502 6.46500E+01 4.22060E+01 0.00000E+00
 -1       503 6.76500E+01 4.22060E+01 0.00000E+00
 -1       504 7.06500E+01 4.22060E+01 0.00000E+00
 -1       505 7.36500E+01 4.22060E+01 0.00000E+00
 -1       506 7.66500E+01 4.22060E+01 0.00000E+00
 -1       507 7.96500E+01 4.22060E+01 0.00000E+00
 -1       508 8.26500E+01 4.22060E+01 0.00000E+00
 -1       509 8.56500E+01 4.22060E+01 0.00000E+00
 -1       510 8.86500E+01 4.22060E+01 0.00000E+00
 -1       511 9.16500E+01 4.22060E+01 0.00000E+00
 -1       512 9.46500E+01 4.22060E+01 0.00000E+00
 -1       513 9.76500E+01 4.22060E+01 0.00000E+00
 -1       514 1.00650E+02 4.22060E+01 0.00000E+00
 -1       515 1.03650E+02 4.22060E+01 0.00000E+00
 -1       516 1.06650E+02 4.22060E+01 0.00000E+00
 -1       517 1.09650E+02 4.22060E+01 0.00000E+00
 -1       518 1.12650E+02 4.22060E+01 0.00000E+00
 -1       519 1.15650E+02 4.22060E+01 0.00000E+00
 -1       520 1.18650E+02 4.22060E+01 0.00000E+00
 -1       521 1.21650E+02 4.22060E+01 0.00000E+00
 -1       522 1.24650E+02 4.22060E+01 0.00000E+00
 -1       523 1.27650E+02 4.22060E+01 0.00000E+00
 -1       524 1.30650E+02 4.22060E+01 0.00000E+00
 -1       525 1.33650E+02 4.22060E+01 0.00000E+00
 -1       526 1.36650E+02 4.22060E+01 0.00000E+00
 -1       527 1.39650E+02 4.22060E+01 0.00000E+00
 -1       528 1.90350E+01 6.60425E+00 0.00000E+00
 -1       529 2.20350E+01 6.60425E+00 0.00000E+00
 -1       530 2.50350E+01 6.60425E+00 0.00000E+00
 -1       531 2.80350E+01 6.60425E+00 0.00000E+00
 -1       532 3.10350E+01 6.60425E+00 0.00000E+00
 -1       533 3.40350E+01 6.60425E+00 0.00000E+00
 -1       534 3.70350E+01 6.60425E+00 0.00000E+00
 -1       535 4.00350E+01 6.60425E+00 0.00000E+00
 -1       536 4.30350E+01 6.60425E+00 0.00000E+00
 -1       537 4.60350E+01 6.60425E+00 0.00000E+00
 -1       538 4.90350E+01 6.60425E+00 0.00000E+00
 -1       539 5.20350E+01 6.60425E+00 0.00000E+00
 -1       540 5.50350E+01 6.60425E+00 0.00000E+00
 -1       541 5.80350E+01 6.60425E+00 0.00000E+00
 -1       542 6.10350E+01 6.60425E+00 0.00000E+00
 -1       543 6.40350E+01 6.60425E+00 0.00000E+00
 -1       544 6.70350E+01 6.60425E+00 0.00000E+00
 -1       545 7.00350E+01 6.60425E+00 0.00000E+00
 -1       546 7.30350E+01 6.60425E+00 0.00000E+00
 -1       547 7.60350E+01 6.60425E+00 0.00000E+00
 -1       548 7.90350E+01 6.60425E+00 0.00000E+00
 -1       549 8.20350E+01 6.60425E+00 0.00000E+00
 -1       550 8.50350E+01 6.60425E+00 0.00000E+00
 -1       551 8.80350E+01 6.60425E+00 0.00000E+00
 -1       552 9.10350E+01 6.60425E+00 0.00000E+00
 -1       553 9.40350E+01 6.60425E+00 0.00000E+00
 -1       554 9.70350E+01 6.60425E+00 0.00000E+00
 -1       555 1.00035E+02 6.60425E+00 0.00000E+00
 -1       556 1.03035E+02 6.60425E+00 0.00000E+00
 -1       557 1.06035E+02 6.60425E+00 0.00000E+00
 -1       558 1.09035E+02 6.60425E+00 0.00000E+00
 -1       559 1.12035E+02 6.60425E+00 0.00000E+00
 -1       560 1.15035E+02 6.60425E+00 0.00000E+00
 -1       561 1.18035E+02 6.60425E+00 0.00000E+00
 -1       562 1.21035E+02 6.60425E+00 0.00000E+00
 -1       563 1.24035E+02 6.60425E+00 0.00000E+00
 -1       564 1.27035E+02 6.60425E+00 0.00000E+00
 -1       565 1.30035E+02 6.60425E+00 0.00000E+00
 -1       566 1.33035E+02 6.60425E+00 0.00000E+00
 -1       567 1.36035E+02 6.60425E+00 0.00000E+00
 -1       568 1.39035E+02 6.60425E+00 0.00000E+00
 -1       569 1.42035E+02 6.60425E+00 0.00000E+00
 -1       570 1.42206E+02 1.61750E+01 0.00000E+00
 -1       571 1.42206E+02 1.91250E+01 0.00000E+00
 -1       572 1.42206E+02 1.03250E+01 0.00000E+00
 -1       573 1.42206E+02 1.32500E+01 0.00000E+00
 -1       574 1.42206E+02 2.20750E+01 0.00000E+00
 -1       575 1.42206E+02 2.50250E+01 0.00000E+00
 -1       576 1.42206E+02 2.79750E+01 0.00000E+00
 -1       577 1.42206E+02 3.08750E+01 0.00000E+00
 -1       578 1.42206E+02 3.38250E+01 0.00000E+00
 -1       579 1.42206E+02 3.67750E+01 0.00000E+00
 -1       580 1.42206E+02 3.97250E+01 0.00000E+00
 -1       581 1.32262E+02 2.77350E+01 0.00000E+00
 -1       582 1.30129E+02 2.31212E+01 0.00000E+00
 -1       583 1.60350E+01 6.60425E+00 0.00000E+00
 -1       584 1.31903E+02 3.02171E+01 0.00000E+00
 -1       585 7.92300E+00 4.16780E+01 0.00000E+00
 -1       586 1.31406E+02 3.21470E+01 0.00000E+00
 -1       587 1.09388E+02 3.14812E+01 0.00000E+00
 -1       588 7.79400E+00 2.79000E+01 0.00000E+00
 -1       589 1.12538E+02 2.09276E+01 0.00000E+00
 -1       590 1.21847E+02 1.73765E+01 0.00000E+00
 -1       591 1.19197E+02 1.74457E+01 0.00000E+00
 -1       592 1.17092E+02 1.82758E+01 0.00000E+00
 -1       593 1.18431E+02 3.97847E+01 0.00000E+00
 -1       594 1.11283E+02 2.24614E+01 0.00000E+00
 -1       595 1.10196E+02 2.45999E+01 0.00000E+00
 -1       596 1.09729E+02 2.67328E+01 0.00000E+00
 -1       597 1.09262E+02 2.94805E+01 0.00000E+00
 -1       598 1.10250E+02 3.39591E+01 0.00000E+00
 -1       599 1.11560E+02 3.62828E+01 0.00000E+00
 -1       600 1.13609E+02 3.81207E+01 0.00000E+00
 -1       601 1.15983E+02 3.91995E+01 0.00000E+00
 -1       602 1.20480E+02 3.98694E+01 0.00000E+00
 -1       603 1.22928E+02 3.98457E+01 0.00000E+00
 -1       604 1.25269E+02 3.87702E+01 0.00000E+00
 -1       605 1.27106E+02 3.79347E+01 0.00000E+00
 -1       606 1.28731E+02 3.63213E+01 0.00000E+00
 -1       607 1.30121E+02 3.45834E+01 0.00000E+00
 -1       608 1.26696E+02 1.90061E+01 0.00000E+00
 -1       609 7.61550E+00 6.21462E+00 0.00000E+00
 -1       610 1.13001E+02 1.94256E+01 0.00000E+00
 -1       611 7.79400E+00 3.67375E+01 0.00000E+00
 -1       612 1.30376E+02 2.11137E+01 0.00000E+00
 -1       613 1.32847E+02 2.62496E+01 0.00000E+00
 -1       614 1.41678E+02 4.22645E+01 0.00000E+00
 -1       615 1.03920E+01 2.05500E+01 0.00000E+00
 -1       616 1.03920E+01 2.35000E+01 0.00000E+00
 -1       617 1.03920E+01 1.46750E+01 0.00000E+00
 -1       618 1.03920E+01 1.17250E+01 0.00000E+00
 -1       619 1.39206E+02 1.03250E+01 0.00000E+00
 -1       620 1.15350E+01 9.20225E+00 0.00000E+00
 -1       621 1.33234E+02 3.15886E+01 0.00000E+00
 -1       622 1.32429E+02 3.42438E+01 0.00000E+00
 -1       623 1.51500E+01 3.96080E+01 0.00000E+00
 -1       624 1.81500E+01 3.96080E+01 0.00000E+00
 -1       625 2.11500E+01 3.96080E+01 0.00000E+00
 -1       626 2.41500E+01 3.96080E+01 0.00000E+00
 -1       627 2.71500E+01 3.96080E+01 0.00000E+00
 -1       628 3.01500E+01 3.96080E+01 0.00000E+00
 -1       629 3.31500E+01 3.96080E+01 0.00000E+00
 -1       630 3.61500E+01 3.96080E+01 0.00000E+00
 -1       631 3.91500E+01 3.96080E+01 0.00000E+00
 -1       632 4.21500E+01 3.96080E+01 0.00000E+00
 -1       633 4.51500E+01 3.96080E+01 0.00000E+00
 -1       634 4.81500E+01 3.96080E+01 0.00000E+00
 -1       635 5.11500E+01 3.96080E+01 0.00000E+00
 -1       636 5.41500E+01 3.96080E+01 0.00000E+00
 -1       637 5.71500E+01 3.96080E+01 0.00000E+00
 -1       638 6.01500E+01 3.96080E+01 0.00000E+00
 -1       639 6.31500E+01 3.96080E+01 0.00000E+00
 -1       640 6.61500E+01 3.96080E+01 0.00000E+00
 -1       641 6.91500E+01 3.96080E+01 0.00000E+00
 -1       642 7.21500E+01 3.96080E+01 0.00000E+00
 -1       643 7.51500E+01 3.96080E+01 0.00000E+00
 -1       644 7.81500E+01 3.96080E+01 0.00000E+00
 -1       645 8.11500E+01 3.96080E+01 0.00000E+00
 -1       646 8.41500E+01 3.96080E+01 0.00000E+00
 -1       647 8.71500E+01 3.96080E+01 0.00000E+00
 -1       648 9.01500E+01 3.96080E+01 0.00000E+00
 -1       649 9.31500E+01 3.96080E+01 0.00000E+00
 -1       650 9.61500E+01 3.96080E+01 0.00000E+00
 -1       651 9.91500E+01 3.96080E+01 0.00000E+00
 -1       652 1.02150E+02 3.96080E+01 0.00000E+00
 -1       653 1.05150E+02 3.96080E+01 0.00000E+00
 -1       654 1.08150E+02 3.96080E+01 0.00000E+00
 -1       655 1.29150E+02 3.98206E+01 0.00000E+00
 -1       656 1.32150E+02 3.98206E+01 0.00000E+00
 -1       657 1.35150E+02 3.98206E+01 0.00000E+00
 -1       658 1.38150E+02 3.98206E+01 0.00000E+00
 -1       659 2.35350E+01 9.20225E+00 0.00000E+00
 -1       660 2.05350E+01 9.20225E+00 0.00000E+00
 -1       661 2.95350E+01 9.20225E+00 0.00000E+00
 -1       662 3.25350E+01 9.20225E+00 0.00000E+00
 -1       663 3.55350E+01 9.20225E+00 0.00000E+00
 -1       664 3.85350E+01 9.20225E+00 0.00000E+00
 -1       665 4.15350E+01 9.20225E+00 0.00000E+00
 -1       666 4.45350E+01 9.20225E+00 0.00000E+00
 -1       667 4.75350E+01 9.20225E+00 0.00000E+00
 -1       668 5.05350E+01 9.20225E+00 0.00000E+00
 -1       669 5.35350E+01 9.20225E+00 0.00000E+00
 -1       670 5.65350E+01 9.20225E+00 0.00000E+00
 -1       671 5.95350E+01 9.20225E+00 0.00000E+00
 -1       672 6.25350E+01 9.20225E+00 0.00000E+00
 -1       673 6.55350E+01 9.20225E+00 0.00000E+00
 -1       674 6.85350E+01 9.20225E+00 0.00000E+00
 -1       675 7.15350E+01 9.20225E+00 0.00000E+00
 -1       676 7.45350E+01 9.20225E+00 0.00000E+00
 -1       677 7.75350E+01 9.20225E+00 0.00000E+00
 -1       678 8.05350E+01 9.20225E+00 0.00000E+00
 -1       679 8.35350E+01 9.20225E+00 0.00000E+00
 -1       680 8.65350E+01 9.20225E+00 0.00000E+00
 -1       681 8.95350E+01 9.20225E+00 0.00000E+00
 -1       682 9.25350E+01 9.20225E+00 0.00000E+00
 -1       683 9.55350E+01 9.20225E+00 0.00000E+00
 -1       684 9.85350E+01 9.20225E+00 0.00000E+00
 -1       685 1.01535E+02 9.20225E+00 0.00000E+00
 -1       686 1.04535E+02 9.20225E+00 0.00000E+00
 -1       687 1.07535E+02 9.20225E+00 0.00000E+00
 -1       688 1.10535E+02 9.20225E+00 0.00000E+00
 -1       689 1.13535E+02 9.20225E+00 0.00000E+00
 -1       690 1.16535E+02 9.20225E+00 0.00000E+00
 -1       691 1.19535E+02 9.20225E+00 0.00000E+00
 -1       692 1.22535E+02 9.20225E+00 0.00000E+00
 -1       693 1.25535E+02 9.20225E+00 0.00000E+00
 -1       694 1.28535E+02 9.20225E+00 0.00000E+00
 -1       695 1.31535E+02 9.20225E+00 0.00000E+00
 -1       696 1.34535E+02 9.20225E+00 0.00000E+00
 -1       697 1.36870E+02 9.76363E+00 0.00000E+00
 -1       698 1.39653E+02 2.35500E+01 0.00000E+00
 -1       699 1.40178E+02 3.97728E+01 0.00000E+00
 -1       700 1.39608E+02 1.76500E+01 0.00000E+00
 -1       701 1.39653E+02 2.65000E+01 0.00000E+00
 -1       702 1.39631E+02 2.06000E+01 0.00000E+00
 -1       703 1.28857E+02 1.86897E+01 0.00000E+00
 -1       704 1.39653E+02 2.94000E+01 0.00000E+00
 -1       705 1.39653E+02 3.23500E+01 0.00000E+00
 -1       706 1.39653E+02 3.53000E+01 0.00000E+00
 -1       707 1.39916E+02 3.75364E+01 0.00000E+00
 -1       708 1.08040E+02 3.33387E+01 0.00000E+00
 -1       709 9.78035E+00 3.93914E+01 0.00000E+00
 -1       710 1.29363E+02 3.85828E+01 0.00000E+00
 -1       711 1.75350E+01 9.20225E+00 0.00000E+00
 -1       712 2.65350E+01 9.20225E+00 0.00000E+00
 -1       713 1.24652E+01 3.94997E+01 0.00000E+00
 -1       714 1.03920E+01 1.76125E+01 0.00000E+00
 -1       715 1.30765E+02 3.65236E+01 0.00000E+00
 -1       716 1.03920E+01 3.23250E+01 0.00000E+00
 -1       717 1.20480E+02 1.57803E+01 0.00000E+00
 -1       718 1.09119E+02 3.61282E+01 0.00000E+00
 -1       719 1.23656E+02 1.55678E+01 0.00000E+00
 -1       720 1.10583E+02 2.06085E+01 0.00000E+00
 -1       721 1.17515E+02 1.62651E+01 0.00000E+00
 -1       722 1.09285E+02 2.27914E+01 0.00000E+00
 -1       723 1.08123E+02 2.52641E+01 0.00000E+00
 -1       724 1.07279E+02 3.06092E+01 0.00000E+00
 -1       725 1.07701E+02 2.79367E+01 0.00000E+00
 -1       726 1.11327E+02 3.86031E+01 0.00000E+00
 -1       727 1.15091E+02 1.75204E+01 0.00000E+00
 -1       728 1.45350E+01 9.20225E+00 0.00000E+00
 -1       729 1.33946E+02 2.92458E+01 0.00000E+00
 -1       730 1.26897E+02 3.99137E+01 0.00000E+00
 -1       731 1.31977E+02 2.36724E+01 0.00000E+00
 -1       732 1.26045E+02 1.65328E+01 0.00000E+00
 -1       733 1.03920E+01 3.52625E+01 0.00000E+00
 -1       734 1.30572E+02 1.89381E+01 0.00000E+00
 -1       735 1.03920E+01 2.64500E+01 0.00000E+00
 -1       736 1.11046E+02 1.91064E+01 0.00000E+00
 -1       737 1.25174E+02 4.00148E+01 0.00000E+00
 -1       738 1.39608E+02 1.47250E+01 0.00000E+00
 -1       739 1.34531E+02 2.77604E+01 0.00000E+00
 -1       740 1.03920E+01 2.93875E+01 0.00000E+00
 -1       741 1.32223E+02 2.16648E+01 0.00000E+00
 -1       742 1.18798E+02 1.45998E+01 0.00000E+00
 -1       743 1.28206E+02 1.62163E+01 0.00000E+00
 -1       744 1.21931E+02 1.36284E+01 0.00000E+00
 -1       745 1.29900E+01 1.32000E+01 0.00000E+00
 -1       746 1.96500E+01 3.70100E+01 0.00000E+00
 -1       747 2.26500E+01 3.70100E+01 0.00000E+00
 -1       748 2.56500E+01 3.70100E+01 0.00000E+00
 -1       749 2.86500E+01 3.70100E+01 0.00000E+00
 -1       750 3.16500E+01 3.70100E+01 0.00000E+00
 -1       751 3.46500E+01 3.70100E+01 0.00000E+00
 -1       752 3.76500E+01 3.70100E+01 0.00000E+00
 -1       753 4.06500E+01 3.70100E+01 0.00000E+00
 -1       754 4.36500E+01 3.70100E+01 0.00000E+00
 -1       755 4.66500E+01 3.70100E+01 0.00000E+00
 -1       756 4.96500E+01 3.70100E+01 0.00000E+00
 -1       757 5.26500E+01 3.70100E+01 0.00000E+00
 -1       758 5.56500E+01 3.70100E+01 0.00000E+00
 -1       759 5.86500E+01 3.70100E+01 0.00000E+00
 -1       760 6.16500E+01 3.70100E+01 0.00000E+00
 -1       761 6.46500E+01 3.70100E+01 0.00000E+00
 -1       762 6.76500E+01 3.70100E+01 0.00000E+00
 -1       763 7.06500E+01 3.70100E+01 0.00000E+00
 -1       764 7.36500E+01 3.70100E+01 0.00000E+00
 -1       765 7.66500E+01 3.70100E+01 0.00000E+00
 -1       766 7.96500E+01 3.70100E+01 0.00000E+00
 -1       767 8.26500E+01 3.70100E+01 0.00000E+00
 -1       768 8.56500E+01 3.70100E+01 0.00000E+00
 -1       769 8.86500E+01 3.70100E+01 0.00000E+00
 -1       770 9.16500E+01 3.70100E+01 0.00000E+00
 -1       771 9.46500E+01 3.70100E+01 0.00000E+00
 -1       772 9.76500E+01 3.70100E+01 0.00000E+00
 -1       773 1.00650E+02 3.70100E+01 0.00000E+00
 -1       774 1.03650E+02 3.70100E+01 0.00000E+00
 -1       775 1.06385E+02 3.65691E+01 0.00000E+00
 -1       776 1.34954E+02 3.35603E+01 0.00000E+00
 -1       777 1.07000E+02 2.32272E+01 0.00000E+00
 -1       778 1.33650E+02 3.72676E+01 0.00000E+00
 -1       779 1.36650E+02 3.72676E+01 0.00000E+00
 -1       780 2.20350E+01 1.18003E+01 0.00000E+00
 -1       781 3.40350E+01 1.18003E+01 0.00000E+00
 -1       782 3.10350E+01 1.18003E+01 0.00000E+00
 -1       783 4.00350E+01 1.18003E+01 0.00000E+00
 -1       784 4.30350E+01 1.18003E+01 0.00000E+00
 -1       785 4.60350E+01 1.18003E+01 0.00000E+00
 -1       786 4.90350E+01 1.18003E+01 0.00000E+00
 -1       787 5.20350E+01 1.18003E+01 0.00000E+00
 -1       788 5.50350E+01 1.18003E+01 0.00000E+00
 -1       789 5.80350E+01 1.18003E+01 0.00000E+00
 -1       790 6.10350E+01 1.18003E+01 0.00000E+00
 -1       791 6.40350E+01 1.18003E+01 0.00000E+00
 -1       792 6.70350E+01 1.18003E+01 0.00000E+00
 -1       793 7.00350E+01 1.18003E+01 0.00000E+00
 -1       794 7.30350E+01 1.18003E+01 0.00000E+00
 -1       795 7.60350E+01 1.18003E+01 0.00000E+00
 -1       796 7.90350E+01 1.18003E+01 0.00000E+00
 -1       797 8.20350E+01 1.18003E+01 0.00000E+00
 -1       798 8.50350E+01 1.18003E+01 0.00000E+00
 -1       799 8.80350E+01 1.18003E+01 0.00000E+00
 -1       800 9.10350E+01 1.18003E+01 0.00000E+00
 -1       801 9.40350E+01 1.18003E+01 0.00000E+00
 -1       802 9.70350E+01 1.18003E+01 0.00000E+00
 -1       803 1.00035E+02 1.18003E+01 0.00000E+00
 -1       804 1.03035E+02 1.18003E+01 0.00000E+00
 -1       805 1.06035E+02 1.18003E+01 0.00000E+00
 -1       806 1.09035E+02 1.18003E+01 0.00000E+00
 -1       807 1.12035E+02 1.18003E+01 0.00000E+00
 -1       808 1.15035E+02 1.18003E+01 0.00000E+00
 -1       809 1.18035E+02 1.18003E+01 0.00000E+00
 -1       810 1.27035E+02 1.18003E+01 0.00000E+00
 -1       811 1.30035E+02 1.18003E+01 0.00000E+00
 -1       812 1.33035E+02 1.18003E+01 0.00000E+00
 -1       813 1.05523E+02 3.25701E+01 0.00000E+00
 -1       814 1.29900E+01 2.20250E+01 0.00000E+00
 -1       815 1.37268E+02 3.08750E+01 0.00000E+00
 -1       816 1.37435E+02 2.50250E+01 0.00000E+00
 -1       817 1.37268E+02 2.79750E+01 0.00000E+00
 -1       818 1.25744E+02 1.38385E+01 0.00000E+00
 -1       819 3.70350E+01 1.18003E+01 0.00000E+00
 -1       820 1.90350E+01 1.18003E+01 0.00000E+00
 -1       821 1.66500E+01 3.70100E+01 0.00000E+00
 -1       822 1.34354E+02 2.43047E+01 0.00000E+00
 -1       823 1.15438E+02 1.52209E+01 0.00000E+00
 -1       824 1.08316E+02 2.07379E+01 0.00000E+00
 -1       825 1.37625E+01 1.12011E+01 0.00000E+00
 -1       826 1.35392E+02 3.09642E+01 0.00000E+00
 -1       827 1.12778E+02 1.70814E+01 0.00000E+00
 -1       828 1.29920E+02 1.64647E+01 0.00000E+00
 -1       829 1.29900E+01 2.49750E+01 0.00000E+00
 -1       830 1.29900E+01 1.61375E+01 0.00000E+00
 -1       831 1.08779E+02 1.92359E+01 0.00000E+00
 -1       832 1.05766E+02 2.52356E+01 0.00000E+00
 -1       833 1.39652E+01 3.69017E+01 0.00000E+00
 -1       834 2.50350E+01 1.18003E+01 0.00000E+00
 -1       835 2.80350E+01 1.18003E+01 0.00000E+00
 -1       836 1.24595E+02 1.23850E+01 0.00000E+00
 -1       837 1.35370E+02 1.23616E+01 0.00000E+00
 -1       838 1.29900E+01 1.90875E+01 0.00000E+00
 -1       839 1.37021E+02 1.91448E+01 0.00000E+00
 -1       840 1.37273E+02 1.41636E+01 0.00000E+00
 -1       841 1.37044E+02 2.20948E+01 0.00000E+00
 -1       842 1.04499E+02 2.98870E+01 0.00000E+00
 -1       843 1.63988E+01 1.15007E+01 0.00000E+00
 -1       844 1.37147E+02 1.66542E+01 0.00000E+00
 -1       845 1.32419E+02 1.94892E+01 0.00000E+00
 -1       846 1.29900E+01 3.37938E+01 0.00000E+00
 -1       847 1.29900E+01 3.08563E+01 0.00000E+00
 -1       848 2.41500E+01 3.44120E+01 0.00000E+00
 -1       849 2.71500E+01 3.44120E+01 0.00000E+00
 -1       850 3.01500E+01 3.44120E+01 0.00000E+00
 -1       851 3.31500E+01 3.44120E+01 0.00000E+00
 -1       852 3.61500E+01 3.44120E+01 0.00000E+00
 -1       853 3.91500E+01 3.44120E+01 0.00000E+00
 -1       854 4.21500E+01 3.44120E+01 0.00000E+00
 -1       855 4.51500E+01 3.44120E+01 0.00000E+00
 -1       856 4.81500E+01 3.44120E+01 0.00000E+00
 -1       857 5.11500E+01 3.44120E+01 0.00000E+00
 -1       858 5.41500E+01 3.44120E+01 0.00000E+00
 -1       859 5.71500E+01 3.44120E+01 0.00000E+00
 -1       860 6.01500E+01 3.44120E+01 0.00000E+00
 -1       861 6.31500E+01 3.44120E+01 0.00000E+00
 -1       862 6.61500E+01 3.44120E+01 0.00000E+00
 -1       863 6.91500E+01 3.44120E+01 0.00000E+00
 -1       864 7.21500E+01 3.44120E+01 0.00000E+00
 -1       865 7.51500E+01 3.44120E+01 0.00000E+00
 -1       866 7.81500E+01 3.44120E+01 0.00000E+00
 -1       867 8.11500E+01 3.44120E+01 0.00000E+00
 -1       868 8.41500E+01 3.44120E+01 0.00000E+00
 -1       869 8.71500E+01 3.44120E+01 0.00000E+00
 -1       870 9.01500E+01 3.44120E+01 0.00000E+00
 -1       871 9.31500E+01 3.44120E+01 0.00000E+00
 -1       872 9.61500E+01 3.44120E+01 0.00000E+00
 -1       873 9.91500E+01 3.44120E+01 0.00000E+00
 -1       874 1.02150E+02 3.44120E+01 0.00000E+00
 -1       875 1.05549E+02 2.08681E+01 0.00000E+00
 -1       876 4.45350E+01 1.43982E+01 0.00000E+00
 -1       877 4.15350E+01 1.43982E+01 0.00000E+00
 -1       878 5.05350E+01 1.43982E+01 0.00000E+00
 -1       879 5.35350E+01 1.43982E+01 0.00000E+00
 -1       880 5.65350E+01 1.43982E+01 0.00000E+00
 -1       881 5.95350E+01 1.43982E+01 0.00000E+00
 -1       882 6.25350E+01 1.43982E+01 0.00000E+00
 -1       883 6.55350E+01 1.43982E+01 0.00000E+00
 -1       884 6.85350E+01 1.43982E+01 0.00000E+00
 -1       885 7.15350E+01 1.43982E+01 0.00000E+00
 -1       886 7.45350E+01 1.43982E+01 0.00000E+00
 -1       887 7.75350E+01 1.43982E+01 0.00000E+00
 -1       888 8.05350E+01 1.43982E+01 0.00000E+00
 -1       889 8.35350E+01 1.43982E+01 0.00000E+00
 -1       890 8.65350E+01 1.43982E+01 0.00000E+00
 -1       891 8.95350E+01 1.43982E+01 0.00000E+00
 -1       892 9.25350E+01 1.43982E+01 0.00000E+00
 -1       893 9.55350E+01 1.43982E+01 0.00000E+00
 -1       894 9.85350E+01 1.43982E+01 0.00000E+00
 -1       895 1.01535E+02 1.43982E+01 0.00000E+00
 -1       896 1.04535E+02 1.43982E+01 0.00000E+00
 -1       897 1.07535E+02 1.43982E+01 0.00000E+00
 -1       898 1.10535E+02 1.43982E+01 0.00000E+00
 -1       899 1.10226E+02 1.66523E+01 0.00000E+00
 -1       900 1.02783E+02 3.20795E+01 0.00000E+00
 -1       901 1.04315E+02 2.28765E+01 0.00000E+00
 -1       902 1.32645E+02 1.44132E+01 0.00000E+00
 -1       903 1.81500E+01 3.44120E+01 0.00000E+00
 -1       904 4.75350E+01 1.43982E+01 0.00000E+00
 -1       905 1.29900E+01 2.79188E+01 0.00000E+00
 -1       906 3.25350E+01 1.43982E+01 0.00000E+00
 -1       907 2.05350E+01 1.43982E+01 0.00000E+00
 -1       908 2.11500E+01 3.44120E+01 0.00000E+00
 -1       909 1.34754E+02 2.18022E+01 0.00000E+00
 -1       910 1.55880E+01 2.35000E+01 0.00000E+00
 -1       911 1.55880E+01 1.46687E+01 0.00000E+00
 -1       912 1.06012E+02 1.93660E+01 0.00000E+00
 -1       913 1.55880E+01 2.05625E+01 0.00000E+00
 -1       914 3.55350E+01 1.43982E+01 0.00000E+00
 -1       915 2.95350E+01 1.43982E+01 0.00000E+00
 -1       916 1.03154E+02 2.70222E+01 0.00000E+00
 -1       917 3.85350E+01 1.43982E+01 0.00000E+00
 -1       918 1.01703E+02 2.46632E+01 0.00000E+00
 -1       919 1.55880E+01 3.23250E+01 0.00000E+00
 -1       920 1.61190E+01 3.46675E+01 0.00000E+00
 -1       921 1.78988E+01 1.40987E+01 0.00000E+00
 -1       922 1.01438E+02 2.92148E+01 0.00000E+00
 -1       923 2.35350E+01 1.43982E+01 0.00000E+00
 -1       924 1.34489E+02 1.77687E+01 0.00000E+00
 -1       925 1.32532E+02 1.69512E+01 0.00000E+00
 -1       926 2.86500E+01 3.18140E+01 0.00000E+00
 -1       927 3.16500E+01 3.18140E+01 0.00000E+00
 -1       928 3.46500E+01 3.18140E+01 0.00000E+00
 -1       929 3.76500E+01 3.18140E+01 0.00000E+00
 -1       930 4.06500E+01 3.18140E+01 0.00000E+00
 -1       931 4.36500E+01 3.18140E+01 0.00000E+00
 -1       932 4.66500E+01 3.18140E+01 0.00000E+00
 -1       933 4.96500E+01 3.18140E+01 0.00000E+00
 -1       934 5.26500E+01 3.18140E+01 0.00000E+00
 -1       935 5.56500E+01 3.18140E+01 0.00000E+00
 -1       936 5.86500E+01 3.18140E+01 0.00000E+00
 -1       937 6.16500E+01 3.18140E+01 0.00000E+00
 -1       938 6.46500E+01 3.18140E+01 0.00000E+00
 -1       939 6.76500E+01 3.18140E+01 0.00000E+00
 -1       940 7.06500E+01 3.18140E+01 0.00000E+00
 -1       941 7.36500E+01 3.18140E+01 0.00000E+00
 -1       942 7.66500E+01 3.18140E+01 0.00000E+00
 -1       943 7.96500E+01 3.18140E+01 0.00000E+00
 -1       944 8.26500E+01 3.18140E+01 0.00000E+00
 -1       945 8.56500E+01 3.18140E+01 0.00000E+00
 -1       946 8.86500E+01 3.18140E+01 0.00000E+00
 -1       947 9.16500E+01 3.18140E+01 0.00000E+00
 -1       948 9.46500E+01 3.18140E+01 0.00000E+00
 -1       949 9.76500E+01 3.18140E+01 0.00000E+00
 -1       950 1.00216E+02 3.19467E+01 0.00000E+00
 -1       951 4.30350E+01 1.69963E+01 0.00000E+00
 -1       952 1.55880E+01 2.64438E+01 0.00000E+00
 -1       953 5.50350E+01 1.69963E+01 0.00000E+00
 -1       954 5.20350E+01 1.69963E+01 0.00000E+00
 -1       955 6.10350E+01 1.69963E+01 0.00000E+00
 -1       956 6.40350E+01 1.69963E+01 0.00000E+00
 -1       957 6.70350E+01 1.69963E+01 0.00000E+00
 -1       958 7.00350E+01 1.69963E+01 0.00000E+00
 -1       959 7.30350E+01 1.69963E+01 0.00000E+00
 -1       960 7.60350E+01 1.69963E+01 0.00000E+00
 -1       961 7.90350E+01 1.69963E+01 0.00000E+00
 -1       962 8.20350E+01 1.69963E+01 0.00000E+00
 -1       963 8.50350E+01 1.69963E+01 0.00000E+00
 -1       964 8.80350E+01 1.69963E+01 0.00000E+00
 -1       965 9.10350E+01 1.69963E+01 0.00000E+00
 -1       966 9.40350E+01 1.69963E+01 0.00000E+00
 -1       967 9.70350E+01 1.69963E+01 0.00000E+00
 -1       968 1.00035E+02 1.69963E+01 0.00000E+00
 -1       969 1.03035E+02 1.69963E+01 0.00000E+00
 -1       970 1.55880E+01 2.93875E+01 0.00000E+00
 -1       971 1.76190E+01 3.20695E+01 0.00000E+00
 -1       972 1.02899E+02 2.06236E+01 0.00000E+00
 -1       973 1.55880E+01 1.76156E+01 0.00000E+00
 -1       974 1.34930E+02 1.50652E+01 0.00000E+00
 -1       975 2.06190E+01 3.20695E+01 0.00000E+00
 -1       976 2.65350E+01 1.43982E+01 0.00000E+00
 -1       977 2.56500E+01 3.18140E+01 0.00000E+00
 -1       978 2.31345E+01 3.19417E+01 0.00000E+00
 -1       979 5.80350E+01 1.69963E+01 0.00000E+00
 -1       980 4.00350E+01 1.69963E+01 0.00000E+00
 -1       981 1.81860E+01 2.49719E+01 0.00000E+00
 -1       982 3.10350E+01 1.69963E+01 0.00000E+00
 -1       983 2.20350E+01 1.69963E+01 0.00000E+00
 -1       984 4.90350E+01 1.69963E+01 0.00000E+00
 -1       985 1.78988E+01 1.70456E+01 0.00000E+00
 -1       986 9.99869E+01 2.68557E+01 0.00000E+00
 -1       987 3.40350E+01 1.69963E+01 0.00000E+00
 -1       988 1.00288E+02 2.24103E+01 0.00000E+00
 -1       989 4.60350E+01 1.69963E+01 0.00000E+00
 -1       990 1.03362E+02 1.91215E+01 0.00000E+00
 -1       991 1.81860E+01 2.20344E+01 0.00000E+00
 -1       992 2.80350E+01 1.69963E+01 0.00000E+00
 -1       993 3.31500E+01 2.92160E+01 0.00000E+00
 -1       994 3.61500E+01 2.92160E+01 0.00000E+00
 -1       995 3.91500E+01 2.92160E+01 0.00000E+00
 -1       996 4.21500E+01 2.92160E+01 0.00000E+00
 -1       997 4.51500E+01 2.92160E+01 0.00000E+00
 -1       998 4.81500E+01 2.92160E+01 0.00000E+00
 -1       999 5.11500E+01 2.92160E+01 0.00000E+00
 -1      1000 5.41500E+01 2.92160E+01 0.00000E+00
 -1      1001 5.71500E+01 2.92160E+01 0.00000E+00
 -1      1002 6.01500E+01 2.92160E+01 0.00000E+00
 -1      1003 6.31500E+01 2.92160E+01 0.00000E+00
 -1      1004 6.61500E+01 2.92160E+01 0.00000E+00
 -1      1005 6.91500E+01 2.92160E+01 0.00000E+00
 -1      1006 7.21500E+01 2.92160E+01 0.00000E+00
 -1      1007 7.51500E+01 2.92160E+01 0.00000E+00
 -1      1008 7.81500E+01 2.92160E+01 0.00000E+00
 -1      1009 8.11500E+01 2.92160E+01 0.00000E+00
 -1      1010 8.41500E+01 2.92160E+01 0.00000E+00
 -1      1011 8.71500E+01 2.92160E+01 0.00000E+00
 -1      1012 9.01500E+01 2.92160E+01 0.00000E+00
 -1      1013 9.31500E+01 2.92160E+01 0.00000E+00
 -1      1014 9.61500E+01 2.92160E+01 0.00000E+00
 -1      1015 9.87163E+01 2.93487E+01 0.00000E+00
 -1      1016 1.81860E+01 2.79156E+01 0.00000E+00
 -1      1017 2.50350E+01 1.69963E+01 0.00000E+00
 -1      1018 5.65350E+01 1.95942E+01 0.00000E+00
 -1      1019 6.55350E+01 1.95942E+01 0.00000E+00
 -1      1020 6.25350E+01 1.95942E+01 0.00000E+00
 -1      1021 7.15350E+01 1.95942E+01 0.00000E+00
 -1      1022 7.45350E+01 1.95942E+01 0.00000E+00
 -1      1023 7.75350E+01 1.95942E+01 0.00000E+00
 -1      1024 8.05350E+01 1.95942E+01 0.00000E+00
 -1      1025 8.35350E+01 1.95942E+01 0.00000E+00
 -1      1026 8.65350E+01 1.95942E+01 0.00000E+00
 -1      1027 8.95350E+01 1.95942E+01 0.00000E+00
 -1      1028 9.25350E+01 1.95942E+01 0.00000E+00
 -1      1029 9.55350E+01 1.95942E+01 0.00000E+00
 -1      1030 9.85350E+01 1.95942E+01 0.00000E+00
 -1      1031 1.80424E+01 1.95400E+01 0.00000E+00
 -1      1032 5.95350E+01 1.95942E+01 0.00000E+00
 -1      1033 5.35350E+01 1.95942E+01 0.00000E+00
 -1      1034 6.85350E+01 1.95942E+01 0.00000E+00
 -1      1035 3.70350E+01 1.69963E+01 0.00000E+00
 -1      1036 2.71500E+01 2.92160E+01 0.00000E+00
 -1      1037 3.01500E+01 2.92160E+01 0.00000E+00
 -1      1038 4.15350E+01 1.95942E+01 0.00000E+00
 -1      1039 2.07840E+01 2.64438E+01 0.00000E+00
 -1      1040 2.07840E+01 2.35063E+01 0.00000E+00
 -1      1041 5.05350E+01 1.95942E+01 0.00000E+00
 -1      1042 2.35350E+01 1.95942E+01 0.00000E+00
 -1      1043 1.01535E+02 1.95942E+01 0.00000E+00
 -1      1044 2.19592E+01 2.91928E+01 0.00000E+00
 -1      1045 2.95350E+01 1.95942E+01 0.00000E+00
 -1      1046 2.46345E+01 2.93438E+01 0.00000E+00
 -1      1047 9.85714E+01 2.46028E+01 0.00000E+00
 -1      1048 4.45350E+01 1.95942E+01 0.00000E+00
 -1      1049 3.25350E+01 1.95942E+01 0.00000E+00
 -1      1050 7.00350E+01 2.21922E+01 0.00000E+00
 -1      1051 3.76500E+01 2.66180E+01 0.00000E+00
 -1      1052 4.06500E+01 2.66180E+01 0.00000E+00
 -1      1053 4.36500E+01 2.66180E+01 0.00000E+00
 -1      1054 4.66500E+01 2.66180E+01 0.00000E+00
 -1      1055 4.96500E+01 2.66180E+01 0.00000E+00
 -1      1056 5.26500E+01 2.66180E+01 0.00000E+00
 -1      1057 5.56500E+01 2.66180E+01 0.00000E+00
 -1      1058 5.86500E+01 2.66180E+01 0.00000E+00
 -1      1059 6.16500E+01 2.66180E+01 0.00000E+00
 -1      1060 6.46500E+01 2.66180E+01 0.00000E+00
 -1      1061 6.76500E+01 2.66180E+01 0.00000E+00
 -1      1062 7.06500E+01 2.66180E+01 0.00000E+00
 -1      1063 7.36500E+01 2.66180E+01 0.00000E+00
 -1      1064 7.66500E+01 2.66180E+01 0.00000E+00
 -1      1065 7.96500E+01 2.66180E+01 0.00000E+00
 -1      1066 8.26500E+01 2.66180E+01 0.00000E+00
 -1      1067 8.56500E+01 2.66180E+01 0.00000E+00
 -1      1068 8.86500E+01 2.66180E+01 0.00000E+00
 -1      1069 9.16500E+01 2.66180E+01 0.00000E+00
 -1      1070 9.46500E+01 2.66180E+01 0.00000E+00
 -1      1071 9.73185E+01 2.67368E+01 0.00000E+00
 -1      1072 2.65350E+01 1.95942E+01 0.00000E+00
 -1      1073 3.85350E+01 1.95942E+01 0.00000E+00
 -1      1074 6.10350E+01 2.21922E+01 0.00000E+00
 -1      1075 7.60350E+01 2.21922E+01 0.00000E+00
 -1      1076 7.30350E+01 2.21922E+01 0.00000E+00
 -1      1077 8.20350E+01 2.21922E+01 0.00000E+00
 -1      1078 8.50350E+01 2.21922E+01 0.00000E+00
 -1      1079 8.80350E+01 2.21922E+01 0.00000E+00
 -1      1080 9.10350E+01 2.21922E+01 0.00000E+00
 -1      1081 9.40350E+01 2.21922E+01 0.00000E+00
 -1      1082 9.71613E+01 2.23013E+01 0.00000E+00
 -1      1083 5.80350E+01 2.21922E+01 0.00000E+00
 -1      1084 2.86500E+01 2.66180E+01 0.00000E+00
 -1      1085 3.16500E+01 2.66180E+01 0.00000E+00
 -1      1086 6.70350E+01 2.21922E+01 0.00000E+00
 -1      1087 4.75350E+01 1.95942E+01 0.00000E+00
 -1      1088 7.90350E+01 2.21922E+01 0.00000E+00
 -1      1089 3.46500E+01 2.66180E+01 0.00000E+00
 -1      1090 5.50350E+01 2.21922E+01 0.00000E+00
 -1      1091 6.40350E+01 2.21922E+01 0.00000E+00
 -1      1092 3.55350E+01 1.95942E+01 0.00000E+00
 -1      1093 4.00350E+01 2.21922E+01 0.00000E+00
 -1      1094 5.20350E+01 2.21922E+01 0.00000E+00
 -1      1095 3.10350E+01 2.21922E+01 0.00000E+00
 -1      1096 2.61345E+01 2.67458E+01 0.00000E+00
 -1      1097 2.80350E+01 2.21922E+01 0.00000E+00
 -1      1098 2.07630E+01 2.21650E+01 0.00000E+00
 -1      1099 2.50350E+01 2.21922E+01 0.00000E+00
 -1      1100 4.30350E+01 2.21922E+01 0.00000E+00
 -1      1101 4.81500E+01 2.40200E+01 0.00000E+00
 -1      1102 2.37605E+01 2.67970E+01 0.00000E+00
 -1      1103 3.40350E+01 2.21922E+01 0.00000E+00
 -1      1104 4.55925E+01 2.31061E+01 0.00000E+00
 -1      1105 2.33820E+01 2.49750E+01 0.00000E+00
 -1      1106 3.65554E+01 2.31727E+01 0.00000E+00
 -1      1107 2.57560E+01 2.49238E+01 0.00000E+00
 -1      1108 0.00000E+00 4.85250E+01 0.00000E+00
 -1      1109 0.00000E+00 4.55750E+01 0.00000E+00
 -1      1110 0.00000E+00 4.26250E+01 0.00000E+00
 -1      1111 0.00000E+00 3.96750E+01 0.00000E+00
 -1      1112 0.00000E+00 3.67250E+01 0.00000E+00
 -1      1113 0.00000E+00 3.38000E+01 0.00000E+00
 -1      1114 0.00000E+00 3.08750E+01 0.00000E+00
 -1      1115 0.00000E+00 2.79250E+01 0.00000E+00
 -1      1116 0.00000E+00 2.49750E+01 0.00000E+00
 -1      1117 0.00000E+00 2.20250E+01 0.00000E+00
 -1      1118 0.00000E+00 1.90750E+01 0.00000E+00
 -1      1119 0.00000E+00 1.61500E+01 0.00000E+00
 -1      1120 0.00000E+00 1.32250E+01 0.00000E+00
 -1      1121 0.00000E+00 1.02750E+01 0.00000E+00
 -1      1122 0.00000E+00 7.32500E+00 0.00000E+00
 -1      1123 0.00000E+00 4.37500E+00 0.00000E+00
 -1      1124 0.00000E+00 1.45000E+00 0.00000E+00
 -1      1125 1.57500E+00 5.00000E+01 0.00000E+00
 -1      1126 4.65000E+00 5.00000E+01 0.00000E+00
 -1      1127 7.65000E+00 5.00000E+01 0.00000E+00
 -1      1128 1.06500E+01 5.00000E+01 0.00000E+00
 -1      1129 1.36500E+01 5.00000E+01 0.00000E+00
 -1      1130 1.66500E+01 5.00000E+01 0.00000E+00
 -1      1131 1.96500E+01 5.00000E+01 0.00000E+00
 -1      1132 2.26500E+01 5.00000E+01 0.00000E+00
 -1      1133 2.56500E+01 5.00000E+01 0.00000E+00
 -1      1134 2.86500E+01 5.00000E+01 0.00000E+00
 -1      1135 3.16500E+01 5.00000E+01 0.00000E+00
 -1      1136 3.46500E+01 5.00000E+01 0.00000E+00
 -1      1137 3.76500E+01 5.00000E+01 0.00000E+00
 -1      1138 4.06500E+01 5.00000E+01 0.00000E+00
 -1      1139 4.36500E+01 5.00000E+01 0.00000E+00
 -1      1140 4.66500E+01 5.00000E+01 0.00000E+00
 -1      1141 4.96500E+01 5.00000E+01 0.00000E+00
 -1      1142 5.26500E+01 5.00000E+01 0.00000E+00
 -1      1143 5.56500E+01 5.00000E+01 0.00000E+00
 -1      1144 5.86500E+01 5.00000E+01 0.00000E+00
 -1      1145 6.16500E+01 5.00000E+01 0.00000E+00
 -1      1146 6.46500E+01 5.00000E+01 0.00000E+00
 -1      1147 6.76500E+01 5.00000E+01 0.00000E+00
 -1      1148 7.06500E+01 5.00000E+01 0.00000E+00
 -1      1149 7.36500E+01 5.00000E+01 0.00000E+00
 -1      1150 7.66500E+01 5.00000E+01 0.00000E+00
 -1      1151 7.96500E+01 5.00000E+01 0.00000E+00
 -1      1152 8.26500E+01 5.00000E+01 0.00000E+00
 -1      1153 8.56500E+01 5.00000E+01 0.00000E+00
 -1      1154 8.86500E+01 5.00000E+01 0.00000E+00
 -1      1155 9.16500E+01 5.00000E+01 0.00000E+00
 -1      1156 9.46500E+01 5.00000E+01 0.00000E+00
 -1      1157 9.76500E+01 5.00000E+01 0.00000E+00
 -1      1158 1.00650E+02 5.00000E+01 0.00000E+00
 -1      1159 1.03650E+02 5.00000E+01 0.00000E+00
 -1      1160 1.06650E+02 5.00000E+01 0.00000E+00
 -1      1161 1.09650E+02 5.00000E+01 0.00000E+00
 -1      1162 1.12650E+02 5.00000E+01 0.00000E+00
 -1      1163 1.15650E+02 5.00000E+01 0.00000E+00
 -1      1164 1.18650E+02 5.00000E+01 0.00000E+00
 -1      1165 1.21650E+02 5.00000E+01 0.00000E+00
 -1      1166 1.24650E+02 5.00000E+01 0.00000E+00
 -1      1167 1.27650E+02 5.00000E+01 0.00000E+00
 -1      1168 1.30650E+02 5.00000E+01 0.00000E+00
 -1      1169 1.33650E+02 5.00000E+01 0.00000E+00
 -1      1170 1.36650E+02 5.00000E+01 0.00000E+00
 -1      1171 1.39650E+02 5.00000E+01 0.00000E+00
 -1      1172 1.42650E+02 5.00000E+01 0.00000E+00
 -1      1173 1.45650E+02 5.00000E+01 0.00000E+00
 -1      1174 1.48575E+02 5.00000E+01 0.00000E+00
 -1      1175 1.57500E+00 0.00000E+00 0.00000E+00
 -1      1176 4.65000E+00 0.00000E+00 0.00000E+00
 -1      1177 7.65000E+00 0.00000E+00 0.00000E+00
 -1      1178 1.06500E+01 0.00000E+00 0.00000E+00
 -1      1179 1.36500E+01 0.00000E+00 0.00000E+00
 -1      1180 1.66500E+01 0.00000E+00 0.00000E+00
 -1      1181 1.96500E+01 0.00000E+00 0.00000E+00
 -1      1182 2.26500E+01 0.00000E+00 0.00000E+00
 -1      1183 2.56500E+01 0.00000E+00 0.00000E+00
 -1      1184 2.86500E+01 0.00000E+00 0.00000E+00
 -1      1185 3.16500E+01 0.00000E+00 0.00000E+00
 -1      1186 3.46500E+01 0.00000E+00 0.00000E+00
 -1      1187 3.76500E+01 0.00000E+00 0.00000E+00
 -1      1188 4.06500E+01 0.00000E+00 0.00000E+00
 -1      1189 4.36500E+01 0.00000E+00 0.00000E+00
 -1      1190 4.66500E+01 0.00000E+00 0.00000E+00
 -1      1191 4.96500E+01 0.00000E+00 0.00000E+00
 -1      1192 5.26500E+01 0.00000E+00 0.00000E+00
 -1      1193 5.56500E+01 0.00000E+00 0.00000E+00
 -1      1194 5.86500E+01 0.00000E+00 0.00000E+00
 -1      1195 6.16500E+01 0.00000E+00 0.00000E+00
 -1      1196 6.46500E+01 0.00000E+00 0.00000E+00
 -1      1197 6.76500E+01 0.00000E+00 0.00000E+00
 -1      1198 7.06500E+01 0.00000E+00 0.00000E+00
 -1      1199 7.36500E+01 0.00000E+00 0.00000E+00
 -1      1200 7.66500E+01 0.00000E+00 0.00000E+00
 -1      1201 7.96500E+01 0.00000E+00 0.00000E+00
 -1      1202 8.26500E+01 0.00000E+00 0.00000E+00
 -1      1203 8.56500E+01 0.00000E+00 0.00000E+00
 -1      1204 8.86500E+01 0.00000E+00 0.00000E+00
 -1      1205 9.16500E+01 0.00000E+00 0.00000E+00
 -1      1206 9.46500E+01 0.00000E+00 0.00000E+00
 -1      1207 9.76500E+01 0.00000E+00 0.00000E+00
 -1      1208 1.00650E+02 0.00000E+00 0.00000E+00
 -1      1209 1.03650E+02 0.00000E+00 0.00000E+00
 -1      1210 1.06650E+02 0.00000E+00 0.00000E+00
 -1      1211 1.09650E+02 0.00000E+00 0.00000E+00
 -1      1212 1.12650E+02 0.00000E+00 0.00000E+00
 -1      1213 1.15650E+02 0.00000E+00 0.00000E+00
 -1      1214 1.18650E+02 0.00000E+00 0.00000E+00
 -1      1215 1.21650E+02 0.00000E+00 0.00000E+00
 -1      1216 1.24650E+02 0.00000E+00 0.00000E+00
 -1      1217 1.27650E+02 0.00000E+00 0.00000E+00
 -1      1218 1.30650E+02 0.00000E+00 0.00000E+00
 -1      1219 1.33650E+02 0.00000E+00 0.00000E+00
 -1      1220 1.36650E+02 0.00000E+00 0.00000E+00
 -1      1221 1.39650E+02 0.00000E+00 0.00000E+00
 -1      1222 1.42650E+02 0.00000E+00 0.00000E+00
 -1      1223 1.45650E+02 0.00000E+00 0.00000E+00
 -1      1224 1.48575E+02 0.00000E+00 0.00000E+00
 -1      1225 1.50000E+02 1.47500E+00 0.00000E+00
 -1      1226 1.50000E+02 4.42500E+00 0.00000E+00
 -1      1227 1.50000E+02 7.37500E+00 0.00000E+00
 -1      1228 1.50000E+02 1.03250E+01 0.00000E+00
 -1      1229 1.50000E+02 1.32750E+01 0.00000E+00
 -1      1230 1.50000E+02 1.62000E+01 0.00000E+00
 -1      1231 1.50000E+02 1.91250E+01 0.00000E+00
 -1      1232 1.50000E+02 2.20750E+01 0.00000E+00
 -1      1233 1.50000E+02 2.50250E+01 0.00000E+00
 -1      1234 1.50000E+02 2.79750E+01 0.00000E+00
 -1      1235 1.50000E+02 3.09250E+01 0.00000E+00
 -1      1236 1.50000E+02 3.38500E+01 0.00000E+00
 -1      1237 1.50000E+02 3.67750E+01 0.00000E+00
 -1      1238 1.50000E+02 3.97250E+01 0.00000E+00
 -1      1239 1.50000E+02 4.26750E+01 0.00000E+00
 -1      1240 1.50000E+02 4.56250E+01 0.00000E+00
 -1      1241 1.50000E+02 4.85500E+01 0.00000E+00
 -1      1242 1.27511E+02 2.80719E+01 0.00000E+00
 -1      1243 1.27168E+02 2.65396E+01 0.00000E+00
 -1      1244 1.26506E+02 2.51443E+01 0.00000E+00
 -1      1245 1.25535E+02 2.39082E+01 0.00000E+00
 -1      1246 1.24295E+02 2.29099E+01 0.00000E+00
 -1      1247 1.22867E+02 2.22186E+01 0.00000E+00
 -1      1248 1.21331E+02 2.18683E+01 0.00000E+00
 -1      1249 1.19842E+02 2.18609E+01 0.00000E+00
 -1      1250 1.18374E+02 2.21724E+01 0.00000E+00
 -1      1251 1.16944E+02 2.28264E+01 0.00000E+00
 -1      1252 1.15731E+02 2.37499E+01 0.00000E+00
 -1      1253 1.14806E+02 2.48268E+01 0.00000E+00
 -1      1254 1.14092E+02 2.61294E+01 0.00000E+00
 -1      1255 1.13662E+02 2.75884E+01 0.00000E+00
 -1      1256 1.13558E+02 2.91076E+01 0.00000E+00
 -1      1257 1.13782E+02 3.06049E+01 0.00000E+00
 -1      1258 1.14328E+02 3.20286E+01 0.00000E+00
 -1      1259 1.15209E+02 3.33471E+01 0.00000E+00
 -1      1260 1.16352E+02 3.44246E+01 0.00000E+00
 -1      1261 1.17663E+02 3.52008E+01 0.00000E+00
 -1      1262 1.19114E+02 3.56755E+01 0.00000E+00
 -1      1263 1.20589E+02 3.58247E+01 0.00000E+00
 -1      1264 1.22061E+02 3.56601E+01 0.00000E+00
 -1      1265 1.23460E+02 3.51922E+01 0.00000E+00
 -1      1266 1.24676E+02 3.44813E+01 0.00000E+00
 -1      1267 1.25724E+02 3.35422E+01 0.00000E+00
 -1      1268 1.26601E+02 3.23479E+01 0.00000E+00
 -1      1269 1.27210E+02 3.09855E+01 0.00000E+00
 -1      1270 1.27513E+02 2.95610E+01 0.00000E+00
 -1      1271 1.57500E+00 4.85250E+01 0.00000E+00
 -1      1272 1.29900E+00 4.48375E+01 0.00000E+00
 -1      1273 1.29900E+00 4.63125E+01 0.00000E+00
 -1      1274 1.29900E+00 4.18875E+01 0.00000E+00
 -1      1275 1.29900E+00 4.33625E+01 0.00000E+00
 -1      1276 2.59800E+00 4.41000E+01 0.00000E+00
 -1      1277 1.29900E+00 3.89375E+01 0.00000E+00
 -1      1278 1.29900E+00 4.04125E+01 0.00000E+00
 -1      1279 2.59800E+00 4.11500E+01 0.00000E+00
 -1      1280 1.29900E+00 3.59875E+01 0.00000E+00
 -1      1281 1.29900E+00 3.74625E+01 0.00000E+00
 -1      1282 2.59800E+00 3.82000E+01 0.00000E+00
 -1      1283 1.29900E+00 3.30875E+01 0.00000E+00
 -1      1284 1.29900E+00 3.45375E+01 0.00000E+00
 -1      1285 2.59800E+00 3.52750E+01 0.00000E+00
 -1      1286 1.29900E+00 3.01375E+01 0.00000E+00
 -1      1287 1.29900E+00 3.16125E+01 0.00000E+00
 -1      1288 2.59800E+00 3.23500E+01 0.00000E+00
 -1      1289 1.29900E+00 2.71875E+01 0.00000E+00
 -1      1290 1.29900E+00 2.86625E+01 0.00000E+00
 -1      1291 2.59800E+00 2.94000E+01 0.00000E+00
 -1      1292 1.29900E+00 2.42375E+01 0.00000E+00
 -1      1293 1.29900E+00 2.57125E+01 0.00000E+00
 -1      1294 2.59800E+00 2.64500E+01 0.00000E+00
 -1      1295 1.29900E+00 2.12875E+01 0.00000E+00
 -1      1296 1.29900E+00 2.27625E+01 0.00000E+00
 -1      1297 2.59800E+00 2.35000E+01 0.00000E+00
 -1      1298 1.29900E+00 1.83375E+01 0.00000E+00
 -1      1299 1.29900E+00 1.98125E+01 0.00000E+00
 -1      1300 2.59800E+00 2.05500E+01 0.00000E+00
 -1      1301 1.29900E+00 1.54375E+01 0.00000E+00
 -1      1302 1.29900E+00 1.68875E+01 0.00000E+00
 -1      1303 2.59800E+00 1.76250E+01 0.00000E+00
 -1      1304 1.29900E+00 1.24875E+01 0.00000E+00
 -1      1305 1.29900E+00 1.39625E+01 0.00000E+00
 -1      1306 2.59800E+00 1.47000E+01 0.00000E+00
 -1      1307 1.29900E+00 9.53750E+00 0.00000E+00
 -1      1308 1.29900E+00 1.10125E+01 0.00000E+00
 -1      1309 2.59800E+00 1.17500E+01 0.00000E+00
 -1      1310 1.29900E+00 6.58750E+00 0.00000E+00
 -1      1311 1.29900E+00 8.06250E+00 0.00000E+00
 -1      1312 2.59800E+00 8.80000E+00 0.00000E+00
 -1      1313 1.29900E+00 3.63750E+00 0.00000E+00
 -1      1314 1.29900E+00 5.11250E+00 0.00000E+00
 -1      1315 2.59800E+00 5.85000E+00 0.00000E+00
 -1      1316 1.43700E+00 1.09375E+00 0.00000E+00
 -1      1317 1.43700E+00 2.54375E+00 0.00000E+00
 -1      1318 2.73600E+00 3.28125E+00 0.00000E+00
 -1      1319 3.01200E+00 1.09375E+00 0.00000E+00
 -1      1320 3.90000E+00 4.87010E+01 0.00000E+00
 -1      1321 5.40000E+00 4.87010E+01 0.00000E+00
 -1      1322 6.90000E+00 4.87010E+01 0.00000E+00
 -1      1323 8.40000E+00 4.87010E+01 0.00000E+00
 -1      1324 6.15000E+00 4.74020E+01 0.00000E+00
 -1      1325 9.90000E+00 4.87010E+01 0.00000E+00
 -1      1326 1.14000E+01 4.87010E+01 0.00000E+00
 -1      1327 9.15000E+00 4.74020E+01 0.00000E+00
 -1      1328 1.29000E+01 4.87010E+01 0.00000E+00
 -1      1329 1.44000E+01 4.87010E+01 0.00000E+00
 -1      1330 1.21500E+01 4.74020E+01 0.00000E+00
 -1      1331 1.59000E+01 4.87010E+01 0.00000E+00
 -1      1332 1.74000E+01 4.87010E+01 0.00000E+00
 -1      1333 1.51500E+01 4.74020E+01 0.00000E+00
 -1      1334 1.89000E+01 4.87010E+01 0.00000E+00
 -1      1335 2.04000E+01 4.87010E+01 0.00000E+00
 -1      1336 1.81500E+01 4.74020E+01 0.00000E+00
 -1      1337 2.19000E+01 4.87010E+01 0.00000E+00
 -1      1338 2.34000E+01 4.87010E+01 0.00000E+00
 -1      1339 2.11500E+01 4.74020E+01 0.00000E+00
 -1      1340 2.49000E+01 4.87010E+01 0.00000E+00
 -1      1341 2.64000E+01 4.87010E+01 0.00000E+00
 -1      1342 2.41500E+01 4.74020E+01 0.00000E+00
 -1      1343 2.79000E+01 4.87010E+01 0.00000E+00
 -1      1344 2.94000E+01 4.87010E+01 0.00000E+00
 -1      1345 2.71500E+01 4.74020E+01 0.00000E+00
 -1      1346 3.09000E+01 4.87010E+01 0.00000E+00
 -1      1347 3.24000E+01 4.87010E+01 0.00000E+00
 -1      1348 3.01500E+01 4.74020E+01 0.00000E+00
 -1      1349 3.39000E+01 4.87010E+01 0.00000E+00
 -1      1350 3.54000E+01 4.87010E+01 0.00000E+00
 -1      1351 3.31500E+01 4.74020E+01 0.00000E+00
 -1      1352 3.69000E+01 4.87010E+01 0.00000E+00
 -1      1353 3.84000E+01 4.87010E+01 0.00000E+00
 -1      1354 3.61500E+01 4.74020E+01 0.00000E+00
 -1      1355 3.99000E+01 4.87010E+01 0.00000E+00
 -1      1356 4.14000E+01 4.87010E+01 0.00000E+00
 -1      1357 3.91500E+01 4.74020E+01 0.00000E+00
 -1      1358 4.29000E+01 4.87010E+01 0.00000E+00
 -1      1359 4.44000E+01 4.87010E+01 0.00000E+00
 -1      1360 4.21500E+01 4.74020E+01 0.00000E+00
 -1      1361 4.59000E+01 4.87010E+01 0.00000E+00
 -1      1362 4.74000E+01 4.87010E+01 0.00000E+00
 -1      1363 4.51500E+01 4.74020E+01 0.00000E+00
 -1      1364 4.89000E+01 4.87010E+01 0.00000E+00
 -1      1365 5.04000E+01 4.87010E+01 0.00000E+00
 -1      1366 4.81500E+01 4.74020E+01 0.00000E+00
 -1      1367 5.19000E+01 4.87010E+01 0.00000E+00
 -1      1368 5.34000E+01 4.87010E+01 0.00000E+00
 -1      1369 5.11500E+01 4.74020E+01 0.00000E+00
 -1      1370 5.49000E+01 4.87010E+01 0.00000E+00
 -1      1371 5.64000E+01 4.87010E+01 0.00000E+00
 -1      1372 5.41500E+01 4.74020E+01 0.00000E+00
 -1      1373 5.79000E+01 4.87010E+01 0.00000E+00
 -1      1374 5.94000E+01 4.87010E+01 0.00000E+00
 -1      1375 5.71500E+01 4.74020E+01 0.00000E+00
 -1      1376 6.09000E+01 4.87010E+01 0.00000E+00
 -1      1377 6.24000E+01 4.87010E+01 0.00000E+00
 -1      1378 6.01500E+01 4.74020E+01 0.00000E+00
 -1      1379 6.39000E+01 4.87010E+01 0.00000E+00
 -1      1380 6.54000E+01 4.87010E+01 0.00000E+00
 -1      1381 6.31500E+01 4.74020E+01 0.00000E+00
 -1      1382 6.69000E+01 4.87010E+01 0.00000E+00
 -1      1383 6.84000E+01 4.87010E+01 0.00000E+00
 -1      1384 6.61500E+01 4.74020E+01 0.00000E+00
 -1      1385 6.99000E+01 4.87010E+01 0.00000E+00
 -1      1386 7.14000E+01 4.87010E+01 0.00000E+00
 -1      1387 6.91500E+01 4.74020E+01 0.00000E+00
 -1      1388 7.29000E+01 4.87010E+01 0.00000E+00
 -1      1389 7.44000E+01 4.87010E+01 0.00000E+00
 -1      1390 7.21500E+01 4.74020E+01 0.00000E+00
 -1      1391 7.59000E+01 4.87010E+01 0.00000E+00
 -1      1392 7.74000E+01 4.87010E+01 0.00000E+00
 -1      1393 7.51500E+01 4.74020E+01 0.00000E+00
 -1      1394 7.89000E+01 4.87010E+01 0.00000E+00
 -1      1395 8.04000E+01 4.87010E+01 0.00000E+00
 -1      1396 7.81500E+01 4.74020E+01 0.00000E+00
 -1      1397 8.19000E+01 4.87010E+01 0.00000E+00
 -1      1398 8.34000E+01 4.87010E+01 0.00000E+00
 -1      1399 8.11500E+01 4.74020E+01 0.00000E+00
 -1      1400 8.49000E+01 4.87010E+01 0.00000E+00
 -1      1401 8.64000E+01 4.87010E+01 0.00000E+00
 -1      1402 8.41500E+01 4.74020E+01 0.00000E+00
 -1      1403 8.79000E+01 4.87010E+01 0.00000E+00
 -1      1404 8.94000E+01 4.87010E+01 0.00000E+00
 -1      1405 8.71500E+01 4.74020E+01 0.00000E+00
 -1      1406 9.09000E+01 4.87010E+01 0.00000E+00
 -1      1407 9.24000E+01 4.87010E+01 0.00000E+00
 -1      1408 9.01500E+01 4.74020E+01 0.00000E+00
 -1      1409 9.39000E+01 4.87010E+01 0.00000E+00
 -1      1410 9.54000E+01 4.87010E+01 0.00000E+00
 -1      1411 9.31500E+01 4.74020E+01 0.00000E+00
 -1      1412 9.69000E+01 4.87010E+01 0.00000E+00
 -1      1413 9.84000E+01 4.87010E+01 0.00000E+00
 -1      1414 9.61500E+01 4.74020E+01 0.00000E+00
 -1      1415 9.99000E+01 4.87010E+01 0.00000E+00
 -1      1416 1.01400E+02 4.87010E+01 0.00000E+00
 -1      1417 9.91500E+01 4.74020E+01 0.00000E+00
 -1      1418 1.02900E+02 4.87010E+01 0.00000E+00
 -1      1419 1.04400E+02 4.87010E+01 0.00000E+00
 -1      1420 1.02150E+02 4.74020E+01 0.00000E+00
 -1      1421 1.05900E+02 4.87010E+01 0.00000E+00
 -1      1422 1.07400E+02 4.87010E+01 0.00000E+00
 -1      1423 1.05150E+02 4.74020E+01 0.00000E+00
 -1      1424 1.08900E+02 4.87010E+01 0.00000E+00
 -1      1425 1.10400E+02 4.87010E+01 0.00000E+00
 -1      1426 1.08150E+02 4.74020E+01 0.00000E+00
 -1      1427 1.11900E+02 4.87010E+01 0.00000E+00
 -1      1428 1.13400E+02 4.87010E+01 0.00000E+00
 -1      1429 1.11150E+02 4.74020E+01 0.00000E+00
 -1      1430 1.14900E+02 4.87010E+01 0.00000E+00
 -1      1431 1.16400E+02 4.87010E+01 0.00000E+00
 -1      1432 1.14150E+02 4.74020E+01 0.00000E+00
 -1      1433 1.17900E+02 4.87010E+01 0.00000E+00
 -1      1434 1.19400E+02 4.87010E+01 0.00000E+00
 -1      1435 1.17150E+02 4.74020E+01 0.00000E+00
 -1      1436 1.20900E+02 4.87010E+01 0.00000E+00
 -1      1437 1.22400E+02 4.87010E+01 0.00000E+00
 -1      1438 1.20150E+02 4.74020E+01 0.00000E+00
 -1      1439 1.23900E+02 4.87010E+01 0.00000E+00
 -1      1440 1.25400E+02 4.87010E+01 0.00000E+00
 -1      1441 1.23150E+02 4.74020E+01 0.00000E+00
 -1      1442 1.26900E+02 4.87010E+01 0.00000E+00
 -1      1443 1.28400E+02 4.87010E+01 0.00000E+00
 -1      1444 1.26150E+02 4.74020E+01 0.00000E+00
 -1      1445 1.29900E+02 4.87010E+01 0.00000E+00
 -1      1446 1.31400E+02 4.87010E+01 0.00000E+00
 -1      1447 1.29150E+02 4.74020E+01 0.00000E+00
 -1      1448 1.32900E+02 4.87010E+01 0.00000E+00
 -1      1449 1.34400E+02 4.87010E+01 0.00000E+00
 -1      1450 1.32150E+02 4.74020E+01 0.00000E+00
 -1      1451 1.35900E+02 4.87010E+01 0.00000E+00
 -1      1452 1.37400E+02 4.87010E+01 0.00000E+00
 -1      1453 1.35150E+02 4.74020E+01 0.00000E+00
 -1      1454 1.38900E+02 4.87010E+01 0.00000E+00
 -1      1455 1.40400E+02 4.87010E+01 0.00000E+00
 -1      1456 1.38150E+02 4.74020E+01 0.00000E+00
 -1      1457 1.41900E+02 4.87010E+01 0.00000E+00
 -1      1458 1.43400E+02 4.87010E+01 0.00000E+00
 -1      1459 1.41150E+02 4.74020E+01 0.00000E+00
 -1      1460 1.44900E+02 4.87010E+01 0.00000E+00
 -1      1461 1.46400E+02 4.87010E+01 0.00000E+00
 -1      1462 1.44150E+02 4.74020E+01 0.00000E+00
 -1      1463 1.48575E+02 4.85500E+01 0.00000E+00
 -1      1464 1.47825E+02 4.72510E+01 0.00000E+00
 -1      1465 6.01200E+00 1.09375E+00 0.00000E+00
 -1      1466 4.51200E+00 1.09375E+00 0.00000E+00
 -1      1467 4.37400E+00 2.18750E+00 0.00000E+00
 -1      1468 9.01200E+00 1.09375E+00 0.00000E+00
 -1      1469 7.51200E+00 1.09375E+00 0.00000E+00
 -1      1470 7.37400E+00 2.18750E+00 0.00000E+00
 -1      1471 1.20120E+01 1.09375E+00 0.00000E+00
 -1      1472 1.05120E+01 1.09375E+00 0.00000E+00
 -1      1473 1.03740E+01 2.18750E+00 0.00000E+00
 -1      1474 1.50120E+01 1.09375E+00 0.00000E+00
 -1      1475 1.35120E+01 1.09375E+00 0.00000E+00
 -1      1476 1.33740E+01 2.18750E+00 0.00000E+00
 -1      1477 1.80120E+01 1.09375E+00 0.00000E+00
 -1      1478 1.65120E+01 1.09375E+00 0.00000E+00
 -1      1479 1.63740E+01 2.18750E+00 0.00000E+00
 -1      1480 2.10120E+01 1.09375E+00 0.00000E+00
 -1      1481 1.95120E+01 1.09375E+00 0.00000E+00
 -1      1482 1.93740E+01 2.18750E+00 0.00000E+00
 -1      1483 2.40120E+01 1.09375E+00 0.00000E+00
 -1      1484 2.25120E+01 1.09375E+00 0.00000E+00
 -1      1485 2.23740E+01 2.18750E+00 0.00000E+00
 -1      1486 2.70120E+01 1.09375E+00 0.00000E+00
 -1      1487 2.55120E+01 1.09375E+00 0.00000E+00
 -1      1488 2.53740E+01 2.18750E+00 0.00000E+00
 -1      1489 3.00120E+01 1.09375E+00 0.00000E+00
 -1      1490 2.85120E+01 1.09375E+00 0.00000E+00
 -1      1491 2.83740E+01 2.18750E+00 0.00000E+00
 -1      1492 3.30120E+01 1.09375E+00 0.00000E+00
 -1      1493 3.15120E+01 1.09375E+00 0.00000E+00
 -1      1494 3.13740E+01 2.18750E+00 0.00000E+00
 -1      1495 3.60120E+01 1.09375E+00 0.00000E+00
 -1      1496 3.45120E+01 1.09375E+00 0.00000E+00
 -1      1497 3.43740E+01 2.18750E+00 0.00000E+00
 -1      1498 3.90120E+01 1.09375E+00 0.00000E+00
 -1      1499 3.75120E+01 1.09375E+00 0.00000E+00
 -1      1500 3.73740E+01 2.18750E+00 0.00000E+00
 -1      1501 4.20120E+01 1.09375E+00 0.00000E+00
 -1      1502 4.05120E+01 1.09375E+00 0.00000E+00
 -1      1503 4.03740E+01 2.18750E+00 0.00000E+00
 -1      1504 4.50120E+01 1.09375E+00 0.00000E+00
 -1      1505 4.35120E+01 1.09375E+00 0.00000E+00
 -1      1506 4.33740E+01 2.18750E+00 0.00000E+00
 -1      1507 4.80120E+01 1.09375E+00 0.00000E+00
 -1      1508 4.65120E+01 1.09375E+00 0.00000E+00
 -1      1509 4.63740E+01 2.18750E+00 0.00000E+00
 -1      1510 5.10120E+01 1.09375E+00 0.00000E+00
 -1      1511 4.95120E+01 1.09375E+00 0.00000E+00
 -1      1512 4.93740E+01 2.18750E+00 0.00000E+00
 -1      1513 5.40120E+01 1.09375E+00 0.00000E+00
 -1      1514 5.25120E+01 1.09375E+00 0.00000E+00
 -1      1515 5.23740E+01 2.18750E+00 0.00000E+00
 -1      1516 5.70120E+01 1.09375E+00 0.00000E+00
 -1      1517 5.55120E+01 1.09375E+00 0.00000E+00
 -1      1518 5.53740E+01 2.18750E+00 0.00000E+00
 -1      1519 6.00120E+01 1.09375E+00 0.00000E+00
 -1      1520 5.85120E+01 1.09375E+00 0.00000E+00
 -1      1521 5.83740E+01 2.18750E+00 0.00000E+00
 -1      1522 6.30120E+01 1.09375E+00 0.00000E+00
 -1      1523 6.15120E+01 1.09375E+00 0.00000E+00
 -1      1524 6.13740E+01 2.18750E+00 0.00000E+00
 -1      1525 6.60120E+01 1.09375E+00 0.00000E+00
 -1      1526 6.45120E+01 1.09375E+00 0.00000E+00
 -1      1527 6.43740E+01 2.18750E+00 0.00000E+00
 -1      1528 6.90120E+01 1.09375E+00 0.00000E+00
 -1      1529 6.75120E+01 1.09375E+00 0.00000E+00
 -1      1530 6.73740E+01 2.18750E+00 0.00000E+00
 -1      1531 7.20120E+01 1.09375E+00 0.00000E+00
 -1      1532 7.05120E+01 1.09375E+00 0.00000E+00
 -1      1533 7.03740E+01 2.18750E+00 0.00000E+00
 -1      1534 7.50120E+01 1.09375E+00 0.00000E+00
 -1      1535 7.35120E+01 1.09375E+00 0.00000E+00
 -1      1536 7.33740E+01 2.18750E+00 0.00000E+00
 -1      1537 7.80120E+01 1.09375E+00 0.00000E+00
 -1      1538 7.65120E+01 1.09375E+00 0.00000E+00
 -1      1539 7.63740E+01 2.18750E+00 0.00000E+00
 -1      1540 8.10120E+01 1.09375E+00 0.00000E+00
 -1      1541 7.95120E+01 1.09375E+00 0.00000E+00
 -1      1542 7.93740E+01 2.18750E+00 0.00000E+00
 -1      1543 8.40120E+01 1.09375E+00 0.00000E+00
 -1      1544 8.25120E+01 1.09375E+00 0.00000E+00
 -1      1545 8.23740E+01 2.18750E+00 0.00000E+00
 -1      1546 8.70120E+01 1.09375E+00 0.00000E+00
 -1      1547 8.55120E+01 1.09375E+00 0.00000E+00
 -1      1548 8.53740E+01 2.18750E+00 0.00000E+00
 -1      1549 9.00120E+01 1.09375E+00 0.00000E+00
 -1      1550 8.85120E+01 1.09375E+00 0.00000E+00
 -1      1551 8.83740E+01 2.18750E+00 0.00000E+00
 -1      1552 9.30120E+01 1.09375E+00 0.00000E+00
 -1      1553 9.15120E+01 1.09375E+00 0.00000E+00
 -1      1554 9.13740E+01 2.18750E+00 0.00000E+00
 -1      1555 9.60120E+01 1.09375E+00 0.00000E+00
 -1      1556 9.45120E+01 1.09375E+00 0.00000E+00
 -1      1557 9.43740E+01 2.18750E+00 0.00000E+00
 -1      1558 9.90120E+01 1.09375E+00 0.00000E+00
 -1      1559 9.75120E+01 1.09375E+00 0.00000E+00
 -1      1560 9.73740E+01 2.18750E+00 0.00000E+00
 -1      1561 1.02012E+02 1.09375E+00 0.00000E+00
 -1      1562 1.00512E+02 1.09375E+00 0.00000E+00
 -1      1563 1.00374E+02 2.18750E+00 0.00000E+00
 -1      1564 1.05012E+02 1.09375E+00 0.00000E+00
 -1      1565 1.03512E+02 1.09375E+00 0.00000E+00
 -1      1566 1.03374E+02 2.18750E+00 0.00000E+00
 -1      1567 1.08012E+02 1.09375E+00 0.00000E+00
 -1      1568 1.06512E+02 1.09375E+00 0.00000E+00
 -1      1569 1.06374E+02 2.18750E+00 0.00000E+00
 -1      1570 1.11012E+02 1.09375E+00 0.00000E+00
 -1      1571 1.09512E+02 1.09375E+00 0.00000E+00
 -1      1572 1.09374E+02 2.18750E+00 0.00000E+00
 -1      1573 1.14012E+02 1.09375E+00 0.00000E+00
 -1      1574 1.12512E+02 1.09375E+00 0.00000E+00
 -1      1575 1.12374E+02 2.18750E+00 0.00000E+00
 -1      1576 1.17012E+02 1.09375E+00 0.00000E+00
 -1      1577 1.15512E+02 1.09375E+00 0.00000E+00
 -1      1578 1.15374E+02 2.18750E+00 0.00000E+00
 -1      1579 1.20012E+02 1.09375E+00 0.00000E+00
 -1      1580 1.18512E+02 1.09375E+00 0.00000E+00
 -1      1581 1.18374E+02 2.18750E+00 0.00000E+00
 -1      1582 1.23012E+02 1.09375E+00 0.00000E+00
 -1      1583 1.21512E+02 1.09375E+00 0.00000E+00
 -1      1584 1.21374E+02 2.18750E+00 0.00000E+00
 -1      1585 1.26012E+02 1.09375E+00 0.00000E+00
 -1      1586 1.24512E+02 1.09375E+00 0.00000E+00
 -1      1587 1.24374E+02 2.18750E+00 0.00000E+00
 -1      1588 1.29012E+02 1.09375E+00 0.00000E+00
 -1      1589 1.27512E+02 1.09375E+00 0.00000E+00
 -1      1590 1.27374E+02 2.18750E+00 0.00000E+00
 -1      1591 1.32012E+02 1.09375E+00 0.00000E+00
 -1      1592 1.30512E+02 1.09375E+00 0.00000E+00
 -1      1593 1.30374E+02 2.18750E+00 0.00000E+00
 -1      1594 1.35012E+02 1.09375E+00 0.00000E+00
 -1      1595 1.33512E+02 1.09375E+00 0.00000E+00
 -1      1596 1.33374E+02 2.18750E+00 0.00000E+00
 -1      1597 1.38012E+02 1.09375E+00 0.00000E+00
 -1      1598 1.36512E+02 1.09375E+00 0.00000E+00
 -1      1599 1.36374E+02 2.18750E+00 0.00000E+00
 -1      1600 1.41012E+02 1.09375E+00 0.00000E+00
 -1      1601 1.39512E+02 1.09375E+00 0.00000E+00
 -1      1602 1.39374E+02 2.18750E+00 0.00000E+00
 -1      1603 1.44012E+02 1.09375E+00 0.00000E+00
 -1      1604 1.42512E+02 1.09375E+00 0.00000E+00
 -1      1605 1.42374E+02 2.18750E+00 0.00000E+00
 -1      1606 1.47012E+02 1.09375E+00 0.00000E+00
 -1      1607 1.45512E+02 1.09375E+00 0.00000E+00
 -1      1608 1.45374E+02 2.18750E+00 0.00000E+00
 -1      1609 1.48575E+02 1.47500E+00 0.00000E+00
 -1      1610 1.48701E+02 5.16250E+00 0.00000E+00
 -1      1611 1.48701E+02 3.68750E+00 0.00000E+00
 -1      1612 1.48701E+02 8.11250E+00 0.00000E+00
 -1      1613 1.48701E+02 6.63750E+00 0.00000E+00
 -1      1614 1.47402E+02 5.90000E+00 0.00000E+00
 -1      1615 1.48701E+02 1.10625E+01 0.00000E+00
 -1      1616 1.48701E+02 9.58750E+00 0.00000E+00
 -1      1617 1.47402E+02 8.85000E+00 0.00000E+00
 -1      1618 1.48701E+02 1.40125E+01 0.00000E+00
 -1      1619 1.48701E+02 1.25375E+01 0.00000E+00
 -1      1620 1.47402E+02 1.18000E+01 0.00000E+00
 -1      1621 1.48701E+02 1.69125E+01 0.00000E+00
 -1      1622 1.48701E+02 1.54625E+01 0.00000E+00
 -1      1623 1.47402E+02 1.47250E+01 0.00000E+00
 -1      1624 1.48701E+02 1.98625E+01 0.00000E+00
 -1      1625 1.48701E+02 1.83875E+01 0.00000E+00
 -1      1626 1.47402E+02 1.76500E+01 0.00000E+00
 -1      1627 1.48701E+02 2.28125E+01 0.00000E+00
 -1      1628 1.48701E+02 2.13375E+01 0.00000E+00
 -1      1629 1.47402E+02 2.06000E+01 0.00000E+00
 -1      1630 1.48701E+02 2.57625E+01 0.00000E+00
 -1      1631 1.48701E+02 2.42875E+01 0.00000E+00
 -1      1632 1.47402E+02 2.35500E+01 0.00000E+00
 -1      1633 1.48701E+02 2.87125E+01 0.00000E+00
 -1      1634 1.48701E+02 2.72375E+01 0.00000E+00
 -1      1635 1.47402E+02 2.65000E+01 0.00000E+00
 -1      1636 1.48701E+02 3.16625E+01 0.00000E+00
 -1      1637 1.48701E+02 3.01875E+01 0.00000E+00
 -1      1638 1.47402E+02 2.94500E+01 0.00000E+00
 -1      1639 1.48701E+02 3.45625E+01 0.00000E+00
 -1      1640 1.48701E+02 3.31125E+01 0.00000E+00
 -1      1641 1.47402E+02 3.23750E+01 0.00000E+00
 -1      1642 1.48701E+02 3.75125E+01 0.00000E+00
 -1      1643 1.48701E+02 3.60375E+01 0.00000E+00
 -1      1644 1.47402E+02 3.53000E+01 0.00000E+00
 -1      1645 1.48701E+02 4.04625E+01 0.00000E+00
 -1      1646 1.48701E+02 3.89875E+01 0.00000E+00
 -1      1647 1.47402E+02 3.82500E+01 0.00000E+00
 -1      1648 1.48701E+02 4.34125E+01 0.00000E+00
 -1      1649 1.48701E+02 4.19375E+01 0.00000E+00
 -1      1650 1.47402E+02 4.12000E+01 0.00000E+00
 -1      1651 1.48263E+02 4.60692E+01 0.00000E+00
 -1      1652 1.48263E+02 4.45942E+01 0.00000E+00
 -1      1653 1.46964E+02 4.38568E+01 0.00000E+00
 -1      1654 1.46088E+02 4.62202E+01 0.00000E+00
 -1      1655 1.28116E+02 2.76278E+01 0.00000E+00
 -1      1656 1.28197E+02 2.83764E+01 0.00000E+00
 -1      1657 1.27721E+02 2.59163E+01 0.00000E+00
 -1      1658 1.27988E+02 2.66889E+01 0.00000E+00
 -1      1659 1.26834E+02 2.45143E+01 0.00000E+00
 -1      1660 1.27216E+02 2.51327E+01 0.00000E+00
 -1      1661 1.25752E+02 2.30999E+01 0.00000E+00
 -1      1662 1.26346E+02 2.37015E+01 0.00000E+00
 -1      1663 1.24305E+02 2.21965E+01 0.00000E+00
 -1      1664 1.24936E+02 2.25954E+01 0.00000E+00
 -1      1665 1.22695E+02 2.14367E+01 0.00000E+00
 -1      1666 1.23489E+02 2.17148E+01 0.00000E+00
 -1      1667 1.21030E+02 2.12634E+01 0.00000E+00
 -1      1668 1.21759E+02 2.13451E+01 0.00000E+00
 -1      1669 1.19401E+02 2.12535E+01 0.00000E+00
 -1      1670 1.20152E+02 2.11768E+01 0.00000E+00
 -1      1671 1.17843E+02 2.17502E+01 0.00000E+00
 -1      1672 1.18552E+02 2.15181E+01 0.00000E+00
 -1      1673 1.16238E+02 2.24543E+01 0.00000E+00
 -1      1674 1.16946E+02 2.20282E+01 0.00000E+00
 -1      1675 1.15084E+02 2.35761E+01 0.00000E+00
 -1      1676 1.15590E+02 2.30954E+01 0.00000E+00
 -1      1677 1.14133E+02 2.47979E+01 0.00000E+00
 -1      1678 1.14545E+02 2.42058E+01 0.00000E+00
 -1      1679 1.13424E+02 2.62648E+01 0.00000E+00
 -1      1680 1.13718E+02 2.55594E+01 0.00000E+00
 -1      1681 1.12998E+02 2.78536E+01 0.00000E+00
 -1      1682 1.13131E+02 2.71088E+01 0.00000E+00
 -1      1683 1.13009E+02 2.95132E+01 0.00000E+00
 -1      1684 1.12978E+02 2.87477E+01 0.00000E+00
 -1      1685 1.13330E+02 3.11105E+01 0.00000E+00
 -1      1686 1.13139E+02 3.03872E+01 0.00000E+00
 -1      1687 1.14005E+02 3.26317E+01 0.00000E+00
 -1      1688 1.13650E+02 3.19408E+01 0.00000E+00
 -1      1689 1.14947E+02 3.40983E+01 0.00000E+00
 -1      1690 1.14425E+02 3.34811E+01 0.00000E+00
 -1      1691 1.16318E+02 3.51050E+01 0.00000E+00
 -1      1692 1.15708E+02 3.46476E+01 0.00000E+00
 -1      1693 1.17742E+02 3.59486E+01 0.00000E+00
 -1      1694 1.17048E+02 3.56343E+01 0.00000E+00
 -1      1695 1.19372E+02 3.63063E+01 0.00000E+00
 -1      1696 1.18623E+02 3.61491E+01 0.00000E+00
 -1      1697 1.20951E+02 3.63921E+01 0.00000E+00
 -1      1698 1.20233E+02 3.63959E+01 0.00000E+00
 -1      1699 1.22574E+02 3.62107E+01 0.00000E+00
 -1      1700 1.21828E+02 3.63754E+01 0.00000E+00
 -1      1701 1.24020E+02 3.55631E+01 0.00000E+00
 -1      1702 1.23374E+02 3.58583E+01 0.00000E+00
 -1      1703 1.25294E+02 3.47375E+01 0.00000E+00
 -1      1704 1.24730E+02 3.51484E+01 0.00000E+00
 -1      1705 1.26384E+02 3.36643E+01 0.00000E+00
 -1      1706 1.25906E+02 3.41886E+01 0.00000E+00
 -1      1707 1.27354E+02 3.23400E+01 0.00000E+00
 -1      1708 1.26966E+02 3.30073E+01 0.00000E+00
 -1      1709 1.27902E+02 3.08316E+01 0.00000E+00
 -1      1710 1.27680E+02 3.15166E+01 0.00000E+00
 -1      1711 1.28158E+02 2.92590E+01 0.00000E+00
 -1      1712 1.28080E+02 2.99912E+01 0.00000E+00
 -1      1713 1.25783E+02 2.23528E+01 0.00000E+00
 -1      1714 1.27088E+02 2.36700E+01 0.00000E+00
 -1      1715 1.48437E+02 2.56875E+00 0.00000E+00
 -1      1716 1.47138E+02 3.30625E+00 0.00000E+00
 -1      1717 1.28714E+02 2.69889E+01 0.00000E+00
 -1      1718 1.28081E+02 2.52664E+01 0.00000E+00
 -1      1719 1.28803E+02 2.88106E+01 0.00000E+00
 -1      1720 1.24151E+02 2.13667E+01 0.00000E+00
 -1      1721 1.22398E+02 2.07934E+01 0.00000E+00
 -1      1722 1.20584E+02 2.06153E+01 0.00000E+00
 -1      1723 1.18858E+02 2.07934E+01 0.00000E+00
 -1      1724 1.17112E+02 2.13361E+01 0.00000E+00
 -1      1725 1.15567E+02 2.22552E+01 0.00000E+00
 -1      1726 1.14380E+02 2.35259E+01 0.00000E+00
 -1      1727 1.13426E+02 2.49172E+01 0.00000E+00
 -1      1728 1.12719E+02 2.65227E+01 0.00000E+00
 -1      1729 1.12407E+02 2.82608E+01 0.00000E+00
 -1      1730 1.12518E+02 3.00290E+01 0.00000E+00
 -1      1731 1.12968E+02 3.17334E+01 0.00000E+00
 -1      1732 1.13708E+02 3.34131E+01 0.00000E+00
 -1      1733 1.14888E+02 3.48119E+01 0.00000E+00
 -1      1734 1.16380E+02 3.58906E+01 0.00000E+00
 -1      1735 1.17992E+02 3.66205E+01 0.00000E+00
 -1      1736 1.19734E+02 3.69106E+01 0.00000E+00
 -1      1737 1.21473E+02 3.69835E+01 0.00000E+00
 -1      1738 1.23149E+02 3.66145E+01 0.00000E+00
 -1      1739 1.24659E+02 3.58475E+01 0.00000E+00
 -1      1740 1.25981E+02 3.48839E+01 0.00000E+00
 -1      1741 1.27174E+02 3.36779E+01 0.00000E+00
 -1      1742 1.28082E+02 3.21975E+01 0.00000E+00
 -1      1743 1.28586E+02 3.05337E+01 0.00000E+00
 -1      1744 2.87400E+00 4.77875E+01 0.00000E+00
 -1      1745 3.89700E+00 4.04125E+01 0.00000E+00
 -1      1746 3.89700E+00 4.18875E+01 0.00000E+00
 -1      1747 3.89700E+00 4.33625E+01 0.00000E+00
 -1      1748 3.89700E+00 4.48375E+01 0.00000E+00
 -1      1749 5.19600E+00 4.26250E+01 0.00000E+00
 -1      1750 3.89700E+00 3.45500E+01 0.00000E+00
 -1      1751 3.89700E+00 3.60000E+01 0.00000E+00
 -1      1752 3.89700E+00 3.16000E+01 0.00000E+00
 -1      1753 3.89700E+00 3.30750E+01 0.00000E+00
 -1      1754 5.19600E+00 3.38000E+01 0.00000E+00
 -1      1755 3.89700E+00 2.86500E+01 0.00000E+00
 -1      1756 3.89700E+00 3.01250E+01 0.00000E+00
 -1      1757 5.19600E+00 3.08500E+01 0.00000E+00
 -1      1758 3.89700E+00 2.57000E+01 0.00000E+00
 -1      1759 3.89700E+00 2.71750E+01 0.00000E+00
 -1      1760 5.19600E+00 2.79000E+01 0.00000E+00
 -1      1761 3.89700E+00 2.27500E+01 0.00000E+00
 -1      1762 3.89700E+00 2.42250E+01 0.00000E+00
 -1      1763 5.19600E+00 2.49500E+01 0.00000E+00
 -1      1764 3.89700E+00 1.98000E+01 0.00000E+00
 -1      1765 3.89700E+00 2.12750E+01 0.00000E+00
 -1      1766 5.19600E+00 2.20000E+01 0.00000E+00
 -1      1767 3.89700E+00 1.69000E+01 0.00000E+00
 -1      1768 3.89700E+00 1.83500E+01 0.00000E+00
 -1      1769 5.19600E+00 1.90750E+01 0.00000E+00
 -1      1770 3.89700E+00 1.39500E+01 0.00000E+00
 -1      1771 3.89700E+00 1.54250E+01 0.00000E+00
 -1      1772 5.19600E+00 1.61500E+01 0.00000E+00
 -1      1773 3.89700E+00 1.10000E+01 0.00000E+00
 -1      1774 3.89700E+00 1.24750E+01 0.00000E+00
 -1      1775 5.19600E+00 1.32000E+01 0.00000E+00
 -1      1776 3.89700E+00 8.05000E+00 0.00000E+00
 -1      1777 3.89700E+00 9.52500E+00 0.00000E+00
 -1      1778 5.19600E+00 1.02500E+01 0.00000E+00
 -1      1779 3.89700E+00 5.10000E+00 0.00000E+00
 -1      1780 3.89700E+00 6.57500E+00 0.00000E+00
 -1      1781 5.19600E+00 7.30000E+00 0.00000E+00
 -1      1782 4.20450E+00 3.09687E+00 0.00000E+00
 -1      1783 4.06650E+00 4.19063E+00 0.00000E+00
 -1      1784 5.36550E+00 4.91563E+00 0.00000E+00
 -1      1785 5.70450E+00 3.09687E+00 0.00000E+00
 -1      1786 3.62400E+00 4.64885E+01 0.00000E+00
 -1      1787 8.70450E+00 3.09687E+00 0.00000E+00
 -1      1788 7.20450E+00 3.09687E+00 0.00000E+00
 -1      1789 7.03500E+00 4.00625E+00 0.00000E+00
 -1      1790 4.92300E+00 4.57510E+01 0.00000E+00
 -1      1791 8.40000E+00 4.61030E+01 0.00000E+00
 -1      1792 9.90000E+00 4.61030E+01 0.00000E+00
 -1      1793 1.14000E+01 4.61030E+01 0.00000E+00
 -1      1794 1.29000E+01 4.61030E+01 0.00000E+00
 -1      1795 1.06500E+01 4.48040E+01 0.00000E+00
 -1      1796 1.44000E+01 4.61030E+01 0.00000E+00
 -1      1797 1.59000E+01 4.61030E+01 0.00000E+00
 -1      1798 1.36500E+01 4.48040E+01 0.00000E+00
 -1      1799 1.74000E+01 4.61030E+01 0.00000E+00
 -1      1800 1.89000E+01 4.61030E+01 0.00000E+00
 -1      1801 1.66500E+01 4.48040E+01 0.00000E+00
 -1      1802 2.04000E+01 4.61030E+01 0.00000E+00
 -1      1803 2.19000E+01 4.61030E+01 0.00000E+00
 -1      1804 1.96500E+01 4.48040E+01 0.00000E+00
 -1      1805 2.34000E+01 4.61030E+01 0.00000E+00
 -1      1806 2.49000E+01 4.61030E+01 0.00000E+00
 -1      1807 2.26500E+01 4.48040E+01 0.00000E+00
 -1      1808 2.64000E+01 4.61030E+01 0.00000E+00
 -1      1809 2.79000E+01 4.61030E+01 0.00000E+00
 -1      1810 2.56500E+01 4.48040E+01 0.00000E+00
 -1      1811 2.94000E+01 4.61030E+01 0.00000E+00
 -1      1812 3.09000E+01 4.61030E+01 0.00000E+00
 -1      1813 2.86500E+01 4.48040E+01 0.00000E+00
 -1      1814 3.24000E+01 4.61030E+01 0.00000E+00
 -1      1815 3.39000E+01 4.61030E+01 0.00000E+00
 -1      1816 3.16500E+01 4.48040E+01 0.00000E+00
 -1      1817 3.54000E+01 4.61030E+01 0.00000E+00
 -1      1818 3.69000E+01 4.61030E+01 0.00000E+00
 -1      1819 3.46500E+01 4.48040E+01 0.00000E+00
 -1      1820 3.84000E+01 4.61030E+01 0.00000E+00
 -1      1821 3.99000E+01 4.61030E+01 0.00000E+00
 -1      1822 3.76500E+01 4.48040E+01 0.00000E+00
 -1      1823 4.14000E+01 4.61030E+01 0.00000E+00
 -1      1824 4.29000E+01 4.61030E+01 0.00000E+00
 -1      1825 4.06500E+01 4.48040E+01 0.00000E+00
 -1      1826 4.44000E+01 4.61030E+01 0.00000E+00
 -1      1827 4.59000E+01 4.61030E+01 0.00000E+00
 -1      1828 4.36500E+01 4.48040E+01 0.00000E+00
 -1      1829 4.74000E+01 4.61030E+01 0.00000E+00
 -1      1830 4.89000E+01 4.61030E+01 0.00000E+00
 -1      1831 4.66500E+01 4.48040E+01 0.00000E+00
 -1      1832 5.04000E+01 4.61030E+01 0.00000E+00
 -1      1833 5.19000E+01 4.61030E+01 0.00000E+00
 -1      1834 4.96500E+01 4.48040E+01 0.00000E+00
 -1      1835 5.34000E+01 4.61030E+01 0.00000E+00
 -1      1836 5.49000E+01 4.61030E+01 0.00000E+00
 -1      1837 5.26500E+01 4.48040E+01 0.00000E+00
 -1      1838 5.64000E+01 4.61030E+01 0.00000E+00
 -1      1839 5.79000E+01 4.61030E+01 0.00000E+00
 -1      1840 5.56500E+01 4.48040E+01 0.00000E+00
 -1      1841 5.94000E+01 4.61030E+01 0.00000E+00
 -1      1842 6.09000E+01 4.61030E+01 0.00000E+00
 -1      1843 5.86500E+01 4.48040E+01 0.00000E+00
 -1      1844 6.24000E+01 4.61030E+01 0.00000E+00
 -1      1845 6.39000E+01 4.61030E+01 0.00000E+00
 -1      1846 6.16500E+01 4.48040E+01 0.00000E+00
 -1      1847 6.54000E+01 4.61030E+01 0.00000E+00
 -1      1848 6.69000E+01 4.61030E+01 0.00000E+00
 -1      1849 6.46500E+01 4.48040E+01 0.00000E+00
 -1      1850 6.84000E+01 4.61030E+01 0.00000E+00
 -1      1851 6.99000E+01 4.61030E+01 0.00000E+00
 -1      1852 6.76500E+01 4.48040E+01 0.00000E+00
 -1      1853 7.14000E+01 4.61030E+01 0.00000E+00
 -1      1854 7.29000E+01 4.61030E+01 0.00000E+00
 -1      1855 7.06500E+01 4.48040E+01 0.00000E+00
 -1      1856 7.44000E+01 4.61030E+01 0.00000E+00
 -1      1857 7.59000E+01 4.61030E+01 0.00000E+00
 -1      1858 7.36500E+01 4.48040E+01 0.00000E+00
 -1      1859 7.74000E+01 4.61030E+01 0.00000E+00
 -1      1860 7.89000E+01 4.61030E+01 0.00000E+00
 -1      1861 7.66500E+01 4.48040E+01 0.00000E+00
 -1      1862 8.04000E+01 4.61030E+01 0.00000E+00
 -1      1863 8.19000E+01 4.61030E+01 0.00000E+00
 -1      1864 7.96500E+01 4.48040E+01 0.00000E+00
 -1      1865 8.34000E+01 4.61030E+01 0.00000E+00
 -1      1866 8.49000E+01 4.61030E+01 0.00000E+00
 -1      1867 8.26500E+01 4.48040E+01 0.00000E+00
 -1      1868 8.64000E+01 4.61030E+01 0.00000E+00
 -1      1869 8.79000E+01 4.61030E+01 0.00000E+00
 -1      1870 8.56500E+01 4.48040E+01 0.00000E+00
 -1      1871 8.94000E+01 4.61030E+01 0.00000E+00
 -1      1872 9.09000E+01 4.61030E+01 0.00000E+00
 -1      1873 8.86500E+01 4.48040E+01 0.00000E+00
 -1      1874 9.24000E+01 4.61030E+01 0.00000E+00
 -1      1875 9.39000E+01 4.61030E+01 0.00000E+00
 -1      1876 9.16500E+01 4.48040E+01 0.00000E+00
 -1      1877 9.54000E+01 4.61030E+01 0.00000E+00
 -1      1878 9.69000E+01 4.61030E+01 0.00000E+00
 -1      1879 9.46500E+01 4.48040E+01 0.00000E+00
 -1      1880 9.84000E+01 4.61030E+01 0.00000E+00
 -1      1881 9.99000E+01 4.61030E+01 0.00000E+00
 -1      1882 9.76500E+01 4.48040E+01 0.00000E+00
 -1      1883 1.01400E+02 4.61030E+01 0.00000E+00
 -1      1884 1.02900E+02 4.61030E+01 0.00000E+00
 -1      1885 1.00650E+02 4.48040E+01 0.00000E+00
 -1      1886 1.04400E+02 4.61030E+01 0.00000E+00
 -1      1887 1.05900E+02 4.61030E+01 0.00000E+00
 -1      1888 1.03650E+02 4.48040E+01 0.00000E+00
 -1      1889 1.07400E+02 4.61030E+01 0.00000E+00
 -1      1890 1.08900E+02 4.61030E+01 0.00000E+00
 -1      1891 1.06650E+02 4.48040E+01 0.00000E+00
 -1      1892 1.10400E+02 4.61030E+01 0.00000E+00
 -1      1893 1.11900E+02 4.61030E+01 0.00000E+00
 -1      1894 1.09650E+02 4.48040E+01 0.00000E+00
 -1      1895 1.13400E+02 4.61030E+01 0.00000E+00
 -1      1896 1.14900E+02 4.61030E+01 0.00000E+00
 -1      1897 1.12650E+02 4.48040E+01 0.00000E+00
 -1      1898 1.16400E+02 4.61030E+01 0.00000E+00
 -1      1899 1.17900E+02 4.61030E+01 0.00000E+00
 -1      1900 1.15650E+02 4.48040E+01 0.00000E+00
 -1      1901 1.19400E+02 4.61030E+01 0.00000E+00
 -1      1902 1.20900E+02 4.61030E+01 0.00000E+00
 -1      1903 1.18650E+02 4.48040E+01 0.00000E+00
 -1      1904 1.22400E+02 4.61030E+01 0.00000E+00
 -1      1905 1.23900E+02 4.61030E+01 0.00000E+00
 -1      1906 1.21650E+02 4.48040E+01 0.00000E+00
 -1      1907 1.25400E+02 4.61030E+01 0.00000E+00
 -1      1908 1.26900E+02 4.61030E+01 0.00000E+00
 -1      1909 1.24650E+02 4.48040E+01 0.00000E+00
 -1      1910 1.28400E+02 4.61030E+01 0.00000E+00
 -1      1911 1.29900E+02 4.61030E+01 0.00000E+00
 -1      1912 1.27650E+02 4.48040E+01 0.00000E+00
 -1      1913 1.31400E+02 4.61030E+01 0.00000E+00
 -1      1914 1.32900E+02 4.61030E+01 0.00000E+00
 -1      1915 1.30650E+02 4.48040E+01 0.00000E+00
 -1      1916 1.34400E+02 4.61030E+01 0.00000E+00
 -1      1917 1.35900E+02 4.61030E+01 0.00000E+00
 -1      1918 1.33650E+02 4.48040E+01 0.00000E+00
 -1      1919 1.37400E+02 4.61030E+01 0.00000E+00
 -1      1920 1.38900E+02 4.61030E+01 0.00000E+00
 -1      1921 1.36650E+02 4.48040E+01 0.00000E+00
 -1      1922 1.40400E+02 4.61030E+01 0.00000E+00
 -1      1923 1.41900E+02 4.61030E+01 0.00000E+00
 -1      1924 1.39650E+02 4.48040E+01 0.00000E+00
 -1      1925 1.43244E+02 4.61616E+01 0.00000E+00
 -1      1926 1.44744E+02 4.61616E+01 0.00000E+00
 -1      1927 1.45182E+02 4.49799E+01 0.00000E+00
 -1      1928 1.42494E+02 4.48626E+01 0.00000E+00
 -1      1929 1.17045E+01 3.09687E+00 0.00000E+00
 -1      1930 1.02045E+01 3.09687E+00 0.00000E+00
 -1      1931 1.00350E+01 4.00625E+00 0.00000E+00
 -1      1932 1.47045E+01 3.09687E+00 0.00000E+00
 -1      1933 1.32045E+01 3.09687E+00 0.00000E+00
 -1      1934 1.30350E+01 4.00625E+00 0.00000E+00
 -1      1935 1.77045E+01 3.09687E+00 0.00000E+00
 -1      1936 1.62045E+01 3.09687E+00 0.00000E+00
 -1      1937 1.60350E+01 4.00625E+00 0.00000E+00
 -1      1938 2.07045E+01 3.09687E+00 0.00000E+00
 -1      1939 1.92045E+01 3.09687E+00 0.00000E+00
 -1      1940 1.90350E+01 4.00625E+00 0.00000E+00
 -1      1941 2.37045E+01 3.09687E+00 0.00000E+00
 -1      1942 2.22045E+01 3.09687E+00 0.00000E+00
 -1      1943 2.20350E+01 4.00625E+00 0.00000E+00
 -1      1944 2.67045E+01 3.09687E+00 0.00000E+00
 -1      1945 2.52045E+01 3.09687E+00 0.00000E+00
 -1      1946 2.50350E+01 4.00625E+00 0.00000E+00
 -1      1947 2.97045E+01 3.09687E+00 0.00000E+00
 -1      1948 2.82045E+01 3.09687E+00 0.00000E+00
 -1      1949 2.80350E+01 4.00625E+00 0.00000E+00
 -1      1950 3.27045E+01 3.09687E+00 0.00000E+00
 -1      1951 3.12045E+01 3.09687E+00 0.00000E+00
 -1      1952 3.10350E+01 4.00625E+00 0.00000E+00
 -1      1953 3.57045E+01 3.09687E+00 0.00000E+00
 -1      1954 3.42045E+01 3.09687E+00 0.00000E+00
 -1      1955 3.40350E+01 4.00625E+00 0.00000E+00
 -1      1956 3.87045E+01 3.09687E+00 0.00000E+00
 -1      1957 3.72045E+01 3.09687E+00 0.00000E+00
 -1      1958 3.70350E+01 4.00625E+00 0.00000E+00
 -1      1959 4.17045E+01 3.09687E+00 0.00000E+00
 -1      1960 4.02045E+01 3.09687E+00 0.00000E+00
 -1      1961 4.00350E+01 4.00625E+00 0.00000E+00
 -1      1962 4.47045E+01 3.09687E+00 0.00000E+00
 -1      1963 4.32045E+01 3.09687E+00 0.00000E+00
 -1      1964 4.30350E+01 4.00625E+00 0.00000E+00
 -1      1965 4.77045E+01 3.09687E+00 0.00000E+00
 -1      1966 4.62045E+01 3.09687E+00 0.00000E+00
 -1      1967 4.60350E+01 4.00625E+00 0.00000E+00
 -1      1968 5.07045E+01 3.09687E+00 0.00000E+00
 -1      1969 4.92045E+01 3.09687E+00 0.00000E+00
 -1      1970 4.90350E+01 4.00625E+00 0.00000E+00
 -1      1971 5.37045E+01 3.09687E+00 0.00000E+00
 -1      1972 5.22045E+01 3.09687E+00 0.00000E+00
 -1      1973 5.20350E+01 4.00625E+00 0.00000E+00
 -1      1974 5.67045E+01 3.09687E+00 0.00000E+00
 -1      1975 5.52045E+01 3.09687E+00 0.00000E+00
 -1      1976 5.50350E+01 4.00625E+00 0.00000E+00
 -1      1977 5.97045E+01 3.09687E+00 0.00000E+00
 -1      1978 5.82045E+01 3.09687E+00 0.00000E+00
 -1      1979 5.80350E+01 4.00625E+00 0.00000E+00
 -1      1980 6.27045E+01 3.09687E+00 0.00000E+00
 -1      1981 6.12045E+01 3.09687E+00 0.00000E+00
 -1      1982 6.10350E+01 4.00625E+00 0.00000E+00
 -1      1983 6.57045E+01 3.09687E+00 0.00000E+00
 -1      1984 6.42045E+01 3.09687E+00 0.00000E+00
 -1      1985 6.40350E+01 4.00625E+00 0.00000E+00
 -1      1986 6.87045E+01 3.09687E+00 0.00000E+00
 -1      1987 6.72045E+01 3.09687E+00 0.00000E+00
 -1      1988 6.70350E+01 4.00625E+00 0.00000E+00
 -1      1989 7.17045E+01 3.09687E+00 0.00000E+00
 -1      1990 7.02045E+01 3.09687E+00 0.00000E+00
 -1      1991 7.00350E+01 4.00625E+00 0.00000E+00
 -1      1992 7.47045E+01 3.09687E+00 0.00000E+00
 -1      1993 7.32045E+01 3.09687E+00 0.00000E+00
 -1      1994 7.30350E+01 4.00625E+00 0.00000E+00
 -1      1995 7.77045E+01 3.09687E+00 0.00000E+00
 -1      1996 7.62045E+01 3.09687E+00 0.00000E+00
 -1      1997 7.60350E+01 4.00625E+00 0.00000E+00
 -1      1998 8.07045E+01 3.09687E+00 0.00000E+00
 -1      1999 7.92045E+01 3.09687E+00 0.00000E+00
 -1      2000 7.90350E+01 4.00625E+00 0.00000E+00
 -1      2001 8.37045E+01 3.09687E+00 0.00000E+00
 -1      2002 8.22045E+01 3.09687E+00 0.00000E+00
 -1      2003 8.20350E+01 4.00625E+00 0.00000E+00
 -1      2004 8.67045E+01 3.09687E+00 0.00000E+00
 -1      2005 8.52045E+01 3.09687E+00 0.00000E+00
 -1      2006 8.50350E+01 4.00625E+00 0.00000E+00
 -1      2007 8.97045E+01 3.09687E+00 0.00000E+00
 -1      2008 8.82045E+01 3.09687E+00 0.00000E+00
 -1      2009 8.80350E+01 4.00625E+00 0.00000E+00
 -1      2010 9.27045E+01 3.09687E+00 0.00000E+00
 -1      2011 9.12045E+01 3.09687E+00 0.00000E+00
 -1      2012 9.10350E+01 4.00625E+00 0.00000E+00
 -1      2013 9.57045E+01 3.09687E+00 0.00000E+00
 -1      2014 9.42045E+01 3.09687E+00 0.00000E+00
 -1      2015 9.40350E+01 4.00625E+00 0.00000E+00
 -1      2016 9.87045E+01 3.09687E+00 0.00000E+00
 -1      2017 9.72045E+01 3.09687E+00 0.00000E+00
 -1      2018 9.70350E+01 4.00625E+00 0.00000E+00
 -1      2019 1.01704E+02 3.09687E+00 0.00000E+00
 -1      2020 1.00204E+02 3.09687E+00 0.00000E+00
 -1      2021 1.00035E+02 4.00625E+00 0.00000E+00
 -1      2022 1.04704E+02 3.09687E+00 0.00000E+00
 -1      2023 1.03204E+02 3.09687E+00 0.00000E+00
 -1      2024 1.03035E+02 4.00625E+00 0.00000E+00
 -1      2025 1.07704E+02 3.09687E+00 0.00000E+00
 -1      2026 1.06204E+02 3.09687E+00 0.00000E+00
 -1      2027 1.06035E+02 4.00625E+00 0.00000E+00
 -1      2028 1.10704E+02 3.09687E+00 0.00000E+00
 -1      2029 1.09204E+02 3.09687E+00 0.00000E+00
 -1      2030 1.09035E+02 4.00625E+00 0.00000E+00
 -1      2031 1.13704E+02 3.09687E+00 0.00000E+00
 -1      2032 1.12204E+02 3.09687E+00 0.00000E+00
 -1      2033 1.12035E+02 4.00625E+00 0.00000E+00
 -1      2034 1.16704E+02 3.09687E+00 0.00000E+00
 -1      2035 1.15204E+02 3.09687E+00 0.00000E+00
 -1      2036 1.15035E+02 4.00625E+00 0.00000E+00
 -1      2037 1.19704E+02 3.09687E+00 0.00000E+00
 -1      2038 1.18204E+02 3.09687E+00 0.00000E+00
 -1      2039 1.18035E+02 4.00625E+00 0.00000E+00
 -1      2040 1.22704E+02 3.09687E+00 0.00000E+00
 -1      2041 1.21204E+02 3.09687E+00 0.00000E+00
 -1      2042 1.21035E+02 4.00625E+00 0.00000E+00
 -1      2043 1.25704E+02 3.09687E+00 0.00000E+00
 -1      2044 1.24204E+02 3.09687E+00 0.00000E+00
 -1      2045 1.24035E+02 4.00625E+00 0.00000E+00
 -1      2046 1.28704E+02 3.09687E+00 0.00000E+00
 -1      2047 1.27204E+02 3.09687E+00 0.00000E+00
 -1      2048 1.27035E+02 4.00625E+00 0.00000E+00
 -1      2049 1.31704E+02 3.09687E+00 0.00000E+00
 -1      2050 1.30204E+02 3.09687E+00 0.00000E+00
 -1      2051 1.30035E+02 4.00625E+00 0.00000E+00
 -1      2052 1.34704E+02 3.09687E+00 0.00000E+00
 -1      2053 1.33204E+02 3.09687E+00 0.00000E+00
 -1      2054 1.33035E+02 4.00625E+00 0.00000E+00
 -1      2055 1.37704E+02 3.09687E+00 0.00000E+00
 -1      2056 1.36204E+02 3.09687E+00 0.00000E+00
 -1      2057 1.36035E+02 4.00625E+00 0.00000E+00
 -1      2058 1.40704E+02 3.09687E+00 0.00000E+00
 -1      2059 1.39204E+02 3.09687E+00 0.00000E+00
 -1      2060 1.39035E+02 4.00625E+00 0.00000E+00
 -1      2061 1.43704E+02 3.09687E+00 0.00000E+00
 -1      2062 1.42204E+02 3.09687E+00 0.00000E+00
 -1      2063 1.42035E+02 4.00625E+00 0.00000E+00
 -1      2064 1.46171E+02 3.20156E+00 0.00000E+00
 -1      2065 1.44671E+02 3.20156E+00 0.00000E+00
 -1      2066 1.44502E+02 4.11094E+00 0.00000E+00
 -1      2067 1.46435E+02 4.32031E+00 0.00000E+00
 -1      2068 1.46103E+02 1.25375E+01 0.00000E+00
 -1      2069 1.46103E+02 1.10625E+01 0.00000E+00
 -1      2070 1.46103E+02 9.58750E+00 0.00000E+00
 -1      2071 1.46103E+02 8.11250E+00 0.00000E+00
 -1      2072 1.44804E+02 1.03250E+01 0.00000E+00
 -1      2073 1.46269E+02 6.95391E+00 0.00000E+00
 -1      2074 1.46269E+02 5.47891E+00 0.00000E+00
 -1      2075 1.45302E+02 5.37422E+00 0.00000E+00
 -1      2076 1.44970E+02 7.69141E+00 0.00000E+00
 -1      2077 1.46103E+02 1.54375E+01 0.00000E+00
 -1      2078 1.46103E+02 1.39875E+01 0.00000E+00
 -1      2079 1.44804E+02 1.32500E+01 0.00000E+00
 -1      2080 1.46103E+02 1.83875E+01 0.00000E+00
 -1      2081 1.46103E+02 1.69125E+01 0.00000E+00
 -1      2082 1.44804E+02 1.61750E+01 0.00000E+00
 -1      2083 1.46103E+02 2.13375E+01 0.00000E+00
 -1      2084 1.46103E+02 1.98625E+01 0.00000E+00
 -1      2085 1.44804E+02 1.91250E+01 0.00000E+00
 -1      2086 1.46103E+02 2.42875E+01 0.00000E+00
 -1      2087 1.46103E+02 2.28125E+01 0.00000E+00
 -1      2088 1.44804E+02 2.20750E+01 0.00000E+00
 -1      2089 1.46103E+02 2.72375E+01 0.00000E+00
 -1      2090 1.46103E+02 2.57625E+01 0.00000E+00
 -1      2091 1.44804E+02 2.50250E+01 0.00000E+00
 -1      2092 1.46103E+02 3.01875E+01 0.00000E+00
 -1      2093 1.46103E+02 2.87125E+01 0.00000E+00
 -1      2094 1.44804E+02 2.79750E+01 0.00000E+00
 -1      2095 1.46103E+02 3.30875E+01 0.00000E+00
 -1      2096 1.46103E+02 3.16375E+01 0.00000E+00
 -1      2097 1.44804E+02 3.09000E+01 0.00000E+00
 -1      2098 1.46103E+02 3.60375E+01 0.00000E+00
 -1      2099 1.46103E+02 3.45625E+01 0.00000E+00
 -1      2100 1.44804E+02 3.38250E+01 0.00000E+00
 -1      2101 1.46103E+02 3.89875E+01 0.00000E+00
 -1      2102 1.46103E+02 3.75125E+01 0.00000E+00
 -1      2103 1.44804E+02 3.67750E+01 0.00000E+00
 -1      2104 1.46103E+02 4.19375E+01 0.00000E+00
 -1      2105 1.46103E+02 4.04625E+01 0.00000E+00
 -1      2106 1.44804E+02 3.97250E+01 0.00000E+00
 -1      2107 1.28374E+02 2.45237E+01 0.00000E+00
 -1      2108 1.28878E+02 2.53073E+01 0.00000E+00
 -1      2109 1.29638E+02 2.84059E+01 0.00000E+00
 -1      2110 1.29598E+02 2.92886E+01 0.00000E+00
 -1      2111 1.29458E+02 2.64089E+01 0.00000E+00
 -1      2112 1.29587E+02 2.73478E+01 0.00000E+00
 -1      2113 1.27507E+02 2.28650E+01 0.00000E+00
 -1      2114 1.27996E+02 2.36778E+01 0.00000E+00
 -1      2115 1.25804E+02 2.14067E+01 0.00000E+00
 -1      2116 1.26620E+02 2.19111E+01 0.00000E+00
 -1      2117 3.89700E+00 3.74688E+01 0.00000E+00
 -1      2118 3.89700E+00 3.89437E+01 0.00000E+00
 -1      2119 5.19600E+00 3.96813E+01 0.00000E+00
 -1      2120 5.19600E+00 3.67438E+01 0.00000E+00
 -1      2121 1.22009E+02 1.99358E+01 0.00000E+00
 -1      2122 1.22945E+02 2.00275E+01 0.00000E+00
 -1      2123 1.20254E+02 1.97628E+01 0.00000E+00
 -1      2124 1.21132E+02 1.98493E+01 0.00000E+00
 -1      2125 1.21679E+02 1.90833E+01 0.00000E+00
 -1      2126 1.18240E+02 2.03070E+01 0.00000E+00
 -1      2127 1.19089E+02 2.00423E+01 0.00000E+00
 -1      2128 1.16446E+02 2.08630E+01 0.00000E+00
 -1      2129 1.17343E+02 2.05850E+01 0.00000E+00
 -1      2130 1.17575E+02 1.98340E+01 0.00000E+00
 -1      2131 1.14699E+02 2.20259E+01 0.00000E+00
 -1      2132 1.15346E+02 2.13848E+01 0.00000E+00
 -1      2133 1.13619E+02 2.34193E+01 0.00000E+00
 -1      2134 1.14158E+02 2.27896E+01 0.00000E+00
 -1      2135 1.12576E+02 2.49477E+01 0.00000E+00
 -1      2136 1.12991E+02 2.41862E+01 0.00000E+00
 -1      2137 1.11960E+02 2.67325E+01 0.00000E+00
 -1      2138 1.12253E+02 2.58885E+01 0.00000E+00
 -1      2139 1.11708E+02 2.86931E+01 0.00000E+00
 -1      2140 1.11727E+02 2.77990E+01 0.00000E+00
 -1      2141 1.11901E+02 3.05675E+01 0.00000E+00
 -1      2142 1.11771E+02 2.96934E+01 0.00000E+00
 -1      2143 1.12328E+02 3.24571E+01 0.00000E+00
 -1      2144 1.12008E+02 3.16267E+01 0.00000E+00
 -1      2145 1.13167E+02 3.41558E+01 0.00000E+00
 -1      2146 1.12748E+02 3.33065E+01 0.00000E+00
 -1      2147 1.11788E+02 3.31998E+01 0.00000E+00
 -1      2148 1.14767E+02 3.57818E+01 0.00000E+00
 -1      2149 1.14006E+02 3.52325E+01 0.00000E+00
 -1      2150 1.16228E+02 3.68405E+01 0.00000E+00
 -1      2151 1.15497E+02 3.63112E+01 0.00000E+00
 -1      2152 1.14615E+02 3.67318E+01 0.00000E+00
 -1      2153 1.18270E+02 3.74344E+01 0.00000E+00
 -1      2154 1.17389E+02 3.72338E+01 0.00000E+00
 -1      2155 1.20093E+02 3.76417E+01 0.00000E+00
 -1      2156 1.19232E+02 3.75521E+01 0.00000E+00
 -1      2157 1.21924E+02 3.76650E+01 0.00000E+00
 -1      2158 1.21047E+02 3.76817E+01 0.00000E+00
 -1      2159 1.23844E+02 3.71080E+01 0.00000E+00
 -1      2160 1.23045E+02 3.74603E+01 0.00000E+00
 -1      2161 1.25362E+02 3.62360E+01 0.00000E+00
 -1      2162 1.24652E+02 3.66507E+01 0.00000E+00
 -1      2163 1.26776E+02 3.51541E+01 0.00000E+00
 -1      2164 1.26164E+02 3.57031E+01 0.00000E+00
 -1      2165 1.27982E+02 3.38068E+01 0.00000E+00
 -1      2166 1.27400E+02 3.44639E+01 0.00000E+00
 -1      2167 1.28964E+02 3.20705E+01 0.00000E+00
 -1      2168 1.28639E+02 3.28938E+01 0.00000E+00
 -1      2169 1.29391E+02 3.02651E+01 0.00000E+00
 -1      2170 1.29213E+02 3.11055E+01 0.00000E+00
 -1      2171 1.24171E+02 2.04435E+01 0.00000E+00
 -1      2172 1.24988E+02 2.09251E+01 0.00000E+00
 -1      2173 1.25824E+02 2.04835E+01 0.00000E+00
 -1      2174 1.27528E+02 2.19189E+01 0.00000E+00
 -1      2175 6.42300E+00 4.57510E+01 0.00000E+00
 -1      2176 1.23782E+02 1.95859E+01 0.00000E+00
 -1      2177 7.17300E+00 4.44520E+01 0.00000E+00
 -1      2178 1.29751E+02 2.56662E+01 0.00000E+00
 -1      2179 1.30623E+02 2.60250E+01 0.00000E+00
 -1      2180 1.30043E+02 2.49234E+01 0.00000E+00
 -1      2181 1.30382E+02 2.78258E+01 0.00000E+00
 -1      2182 1.45665E+02 4.31193E+01 0.00000E+00
 -1      2183 1.28793E+02 2.37187E+01 0.00000E+00
 -1      2184 1.30225E+02 2.98604E+01 0.00000E+00
 -1      2185 1.29769E+02 3.18018E+01 0.00000E+00
 -1      2186 1.28864E+02 3.36798E+01 0.00000E+00
 -1      2187 1.27583E+02 3.52830E+01 0.00000E+00
 -1      2188 1.26157E+02 3.65063E+01 0.00000E+00
 -1      2189 1.24547E+02 3.74965E+01 0.00000E+00
 -1      2190 1.22619E+02 3.81585E+01 0.00000E+00
 -1      2191 1.20545E+02 3.83232E+01 0.00000E+00
 -1      2192 1.16506E+02 3.76544E+01 0.00000E+00
 -1      2193 1.13046E+02 3.51258E+01 0.00000E+00
 -1      2194 1.11261E+02 3.12912E+01 0.00000E+00
 -1      2195 1.11091E+02 2.92316E+01 0.00000E+00
 -1      2196 1.11261E+02 2.71648E+01 0.00000E+00
 -1      2197 1.11818E+02 2.51575E+01 0.00000E+00
 -1      2198 1.12768E+02 2.34499E+01 0.00000E+00
 -1      2199 1.15578E+02 2.06337E+01 0.00000E+00
 -1      2200 1.15809E+02 1.98827E+01 0.00000E+00
 -1      2201 1.14710E+02 2.04044E+01 0.00000E+00
 -1      2202 1.19636E+02 1.92764E+01 0.00000E+00
 -1      2203 1.13937E+02 2.19192E+01 0.00000E+00
 -1      2204 1.18629E+02 3.81655E+01 0.00000E+00
 -1      2205 1.07850E+01 5.30525E+00 0.00000E+00
 -1      2206 9.28500E+00 5.30525E+00 0.00000E+00
 -1      2207 6.49500E+00 3.01125E+01 0.00000E+00
 -1      2208 6.49500E+00 3.15875E+01 0.00000E+00
 -1      2209 6.49500E+00 3.30625E+01 0.00000E+00
 -1      2210 6.49500E+00 3.45375E+01 0.00000E+00
 -1      2211 7.79400E+00 3.23250E+01 0.00000E+00
 -1      2212 6.49500E+00 2.42125E+01 0.00000E+00
 -1      2213 6.49500E+00 2.56875E+01 0.00000E+00
 -1      2214 6.49500E+00 2.12625E+01 0.00000E+00
 -1      2215 6.49500E+00 2.27375E+01 0.00000E+00
 -1      2216 7.79400E+00 2.34750E+01 0.00000E+00
 -1      2217 6.49500E+00 1.83625E+01 0.00000E+00
 -1      2218 6.49500E+00 1.98125E+01 0.00000E+00
 -1      2219 7.79400E+00 2.05500E+01 0.00000E+00
 -1      2220 6.49500E+00 1.54125E+01 0.00000E+00
 -1      2221 6.49500E+00 1.68875E+01 0.00000E+00
 -1      2222 7.79400E+00 1.76250E+01 0.00000E+00
 -1      2223 6.49500E+00 1.24625E+01 0.00000E+00
 -1      2224 6.49500E+00 1.39375E+01 0.00000E+00
 -1      2225 7.79400E+00 1.46750E+01 0.00000E+00
 -1      2226 6.49500E+00 9.51250E+00 0.00000E+00
 -1      2227 6.49500E+00 1.09875E+01 0.00000E+00
 -1      2228 7.79400E+00 1.17250E+01 0.00000E+00
 -1      2229 1.27651E+02 2.09152E+01 0.00000E+00
 -1      2230 1.28538E+02 2.18690E+01 0.00000E+00
 -1      2231 1.37850E+01 5.30525E+00 0.00000E+00
 -1      2232 1.22850E+01 5.30525E+00 0.00000E+00
 -1      2233 1.15350E+01 6.60425E+00 0.00000E+00
 -1      2234 9.90000E+00 4.35050E+01 0.00000E+00
 -1      2235 1.14000E+01 4.35050E+01 0.00000E+00
 -1      2236 1.23432E+02 1.86055E+01 0.00000E+00
 -1      2237 1.24657E+02 1.90215E+01 0.00000E+00
 -1      2238 1.29000E+01 4.35050E+01 0.00000E+00
 -1      2239 1.44000E+01 4.35050E+01 0.00000E+00
 -1      2240 1.21500E+01 4.22060E+01 0.00000E+00
 -1      2241 1.59000E+01 4.35050E+01 0.00000E+00
 -1      2242 1.74000E+01 4.35050E+01 0.00000E+00
 -1      2243 1.51500E+01 4.22060E+01 0.00000E+00
 -1      2244 1.89000E+01 4.35050E+01 0.00000E+00
 -1      2245 2.04000E+01 4.35050E+01 0.00000E+00
 -1      2246 1.81500E+01 4.22060E+01 0.00000E+00
 -1      2247 2.19000E+01 4.35050E+01 0.00000E+00
 -1      2248 2.34000E+01 4.35050E+01 0.00000E+00
 -1      2249 2.11500E+01 4.22060E+01 0.00000E+00
 -1      2250 2.49000E+01 4.35050E+01 0.00000E+00
 -1      2251 2.64000E+01 4.35050E+01 0.00000E+00
 -1      2252 2.41500E+01 4.22060E+01 0.00000E+00
 -1      2253 2.79000E+01 4.35050E+01 0.00000E+00
 -1      2254 2.94000E+01 4.35050E+01 0.00000E+00
 -1      2255 2.71500E+01 4.22060E+01 0.00000E+00
 -1      2256 3.09000E+01 4.35050E+01 0.00000E+00
 -1      2257 3.24000E+01 4.35050E+01 0.00000E+00
 -1      2258 3.01500E+01 4.22060E+01 0.00000E+00
 -1      2259 3.39000E+01 4.35050E+01 0.00000E+00
 -1      2260 3.54000E+01 4.35050E+01 0.00000E+00
 -1      2261 3.31500E+01 4.22060E+01 0.00000E+00
 -1      2262 3.69000E+01 4.35050E+01 0.00000E+00
 -1      2263 3.84000E+01 4.35050E+01 0.00000E+00
 -1      2264 3.61500E+01 4.22060E+01 0.00000E+00
 -1      2265 3.99000E+01 4.35050E+01 0.00000E+00
 -1      2266 4.14000E+01 4.35050E+01 0.00000E+00
 -1      2267 3.91500E+01 4.22060E+01 0.00000E+00
 -1      2268 4.29000E+01 4.35050E+01 0.00000E+00
 -1      2269 4.44000E+01 4.35050E+01 0.00000E+00
 -1      2270 4.21500E+01 4.22060E+01 0.00000E+00
 -1      2271 4.59000E+01 4.35050E+01 0.00000E+00
 -1      2272 4.74000E+01 4.35050E+01 0.00000E+00
 -1      2273 4.51500E+01 4.22060E+01 0.00000E+00
 -1      2274 4.89000E+01 4.35050E+01 0.00000E+00
 -1      2275 5.04000E+01 4.35050E+01 0.00000E+00
 -1      2276 4.81500E+01 4.22060E+01 0.00000E+00
 -1      2277 5.19000E+01 4.35050E+01 0.00000E+00
 -1      2278 5.34000E+01 4.35050E+01 0.00000E+00
 -1      2279 5.11500E+01 4.22060E+01 0.00000E+00
 -1      2280 5.49000E+01 4.35050E+01 0.00000E+00
 -1      2281 5.64000E+01 4.35050E+01 0.00000E+00
 -1      2282 5.41500E+01 4.22060E+01 0.00000E+00
 -1      2283 5.79000E+01 4.35050E+01 0.00000E+00
 -1      2284 5.94000E+01 4.35050E+01 0.00000E+00
 -1      2285 5.71500E+01 4.22060E+01 0.00000E+00
 -1      2286 6.09000E+01 4.35050E+01 0.00000E+00
 -1      2287 6.24000E+01 4.35050E+01 0.00000E+00
 -1      2288 6.01500E+01 4.22060E+01 0.00000E+00
 -1      2289 6.39000E+01 4.35050E+01 0.00000E+00
 -1      2290 6.54000E+01 4.35050E+01 0.00000E+00
 -1      2291 6.31500E+01 4.22060E+01 0.00000E+00
 -1      2292 6.69000E+01 4.35050E+01 0.00000E+00
 -1      2293 6.84000E+01 4.35050E+01 0.00000E+00
 -1      2294 6.61500E+01 4.22060E+01 0.00000E+00
 -1      2295 6.99000E+01 4.35050E+01 0.00000E+00
 -1      2296 7.14000E+01 4.35050E+01 0.00000E+00
 -1      2297 6.91500E+01 4.22060E+01 0.00000E+00
 -1      2298 7.29000E+01 4.35050E+01 0.00000E+00
 -1      2299 7.44000E+01 4.35050E+01 0.00000E+00
 -1      2300 7.21500E+01 4.22060E+01 0.00000E+00
 -1      2301 7.59000E+01 4.35050E+01 0.00000E+00
 -1      2302 7.74000E+01 4.35050E+01 0.00000E+00
 -1      2303 7.51500E+01 4.22060E+01 0.00000E+00
 -1      2304 7.89000E+01 4.35050E+01 0.00000E+00
 -1      2305 8.04000E+01 4.35050E+01 0.00000E+00
 -1      2306 7.81500E+01 4.22060E+01 0.00000E+00
 -1      2307 8.19000E+01 4.35050E+01 0.00000E+00
 -1      2308 8.34000E+01 4.35050E+01 0.00000E+00
 -1      2309 8.11500E+01 4.22060E+01 0.00000E+00
 -1      2310 8.49000E+01 4.35050E+01 0.00000E+00
 -1      2311 8.64000E+01 4.35050E+01 0.00000E+00
 -1      2312 8.41500E+01 4.22060E+01 0.00000E+00
 -1      2313 8.79000E+01 4.35050E+01 0.00000E+00
 -1      2314 8.94000E+01 4.35050E+01 0.00000E+00
 -1      2315 8.71500E+01 4.22060E+01 0.00000E+00
 -1      2316 9.09000E+01 4.35050E+01 0.00000E+00
 -1      2317 9.24000E+01 4.35050E+01 0.00000E+00
 -1      2318 9.01500E+01 4.22060E+01 0.00000E+00
 -1      2319 9.39000E+01 4.35050E+01 0.00000E+00
 -1      2320 9.54000E+01 4.35050E+01 0.00000E+00
 -1      2321 9.31500E+01 4.22060E+01 0.00000E+00
 -1      2322 9.69000E+01 4.35050E+01 0.00000E+00
 -1      2323 9.84000E+01 4.35050E+01 0.00000E+00
 -1      2324 9.61500E+01 4.22060E+01 0.00000E+00
 -1      2325 9.99000E+01 4.35050E+01 0.00000E+00
 -1      2326 1.01400E+02 4.35050E+01 0.00000E+00
 -1      2327 9.91500E+01 4.22060E+01 0.00000E+00
 -1      2328 1.02900E+02 4.35050E+01 0.00000E+00
 -1      2329 1.04400E+02 4.35050E+01 0.00000E+00
 -1      2330 1.02150E+02 4.22060E+01 0.00000E+00
 -1      2331 1.05900E+02 4.35050E+01 0.00000E+00
 -1      2332 1.07400E+02 4.35050E+01 0.00000E+00
 -1      2333 1.05150E+02 4.22060E+01 0.00000E+00
 -1      2334 1.08900E+02 4.35050E+01 0.00000E+00
 -1      2335 1.10400E+02 4.35050E+01 0.00000E+00
 -1      2336 1.08150E+02 4.22060E+01 0.00000E+00
 -1      2337 1.11900E+02 4.35050E+01 0.00000E+00
 -1      2338 1.13400E+02 4.35050E+01 0.00000E+00
 -1      2339 1.11150E+02 4.22060E+01 0.00000E+00
 -1      2340 1.14900E+02 4.35050E+01 0.00000E+00
 -1      2341 1.16400E+02 4.35050E+01 0.00000E+00
 -1      2342 1.14150E+02 4.22060E+01 0.00000E+00
 -1      2343 1.17900E+02 4.35050E+01 0.00000E+00
 -1      2344 1.19400E+02 4.35050E+01 0.00000E+00
 -1      2345 1.17150E+02 4.22060E+01 0.00000E+00
 -1      2346 1.20900E+02 4.35050E+01 0.00000E+00
 -1      2347 1.22400E+02 4.35050E+01 0.00000E+00
 -1      2348 1.20150E+02 4.22060E+01 0.00000E+00
 -1      2349 1.23900E+02 4.35050E+01 0.00000E+00
 -1      2350 1.25400E+02 4.35050E+01 0.00000E+00
 -1      2351 1.23150E+02 4.22060E+01 0.00000E+00
 -1      2352 1.26900E+02 4.35050E+01 0.00000E+00
 -1      2353 1.28400E+02 4.35050E+01 0.00000E+00
 -1      2354 1.26150E+02 4.22060E+01 0.00000E+00
 -1      2355 1.29900E+02 4.35050E+01 0.00000E+00
 -1      2356 1.31400E+02 4.35050E+01 0.00000E+00
 -1      2357 1.29150E+02 4.22060E+01 0.00000E+00
 -1      2358 1.32900E+02 4.35050E+01 0.00000E+00
 -1      2359 1.34400E+02 4.35050E+01 0.00000E+00
 -1      2360 1.32150E+02 4.22060E+01 0.00000E+00
 -1      2361 1.35900E+02 4.35050E+01 0.00000E+00
 -1      2362 1.37400E+02 4.35050E+01 0.00000E+00
 -1      2363 1.35150E+02 4.22060E+01 0.00000E+00
 -1      2364 1.38900E+02 4.35050E+01 0.00000E+00
 -1      2365 1.40400E+02 4.35050E+01 0.00000E+00
 -1      2366 1.38150E+02 4.22060E+01 0.00000E+00
 -1      2367 1.97850E+01 5.30525E+00 0.00000E+00
 -1      2368 1.82850E+01 5.30525E+00 0.00000E+00
 -1      2369 2.27850E+01 5.30525E+00 0.00000E+00
 -1      2370 2.12850E+01 5.30525E+00 0.00000E+00
 -1      2371 2.05350E+01 6.60425E+00 0.00000E+00
 -1      2372 2.57850E+01 5.30525E+00 0.00000E+00
 -1      2373 2.42850E+01 5.30525E+00 0.00000E+00
 -1      2374 2.35350E+01 6.60425E+00 0.00000E+00
 -1      2375 2.87850E+01 5.30525E+00 0.00000E+00
 -1      2376 2.72850E+01 5.30525E+00 0.00000E+00
 -1      2377 2.65350E+01 6.60425E+00 0.00000E+00
 -1      2378 3.17850E+01 5.30525E+00 0.00000E+00
 -1      2379 3.02850E+01 5.30525E+00 0.00000E+00
 -1      2380 2.95350E+01 6.60425E+00 0.00000E+00
 -1      2381 3.47850E+01 5.30525E+00 0.00000E+00
 -1      2382 3.32850E+01 5.30525E+00 0.00000E+00
 -1      2383 3.25350E+01 6.60425E+00 0.00000E+00
 -1      2384 3.77850E+01 5.30525E+00 0.00000E+00
 -1      2385 3.62850E+01 5.30525E+00 0.00000E+00
 -1      2386 3.55350E+01 6.60425E+00 0.00000E+00
 -1      2387 4.07850E+01 5.30525E+00 0.00000E+00
 -1      2388 3.92850E+01 5.30525E+00 0.00000E+00
 -1      2389 3.85350E+01 6.60425E+00 0.00000E+00
 -1      2390 4.37850E+01 5.30525E+00 0.00000E+00
 -1      2391 4.22850E+01 5.30525E+00 0.00000E+00
 -1      2392 4.15350E+01 6.60425E+00 0.00000E+00
 -1      2393 4.67850E+01 5.30525E+00 0.00000E+00
 -1      2394 4.52850E+01 5.30525E+00 0.00000E+00
 -1      2395 4.45350E+01 6.60425E+00 0.00000E+00
 -1      2396 4.97850E+01 5.30525E+00 0.00000E+00
 -1      2397 4.82850E+01 5.30525E+00 0.00000E+00
 -1      2398 4.75350E+01 6.60425E+00 0.00000E+00
 -1      2399 5.27850E+01 5.30525E+00 0.00000E+00
 -1      2400 5.12850E+01 5.30525E+00 0.00000E+00
 -1      2401 5.05350E+01 6.60425E+00 0.00000E+00
 -1      2402 5.57850E+01 5.30525E+00 0.00000E+00
 -1      2403 5.42850E+01 5.30525E+00 0.00000E+00
 -1      2404 5.35350E+01 6.60425E+00 0.00000E+00
 -1      2405 5.87850E+01 5.30525E+00 0.00000E+00
 -1      2406 5.72850E+01 5.30525E+00 0.00000E+00
 -1      2407 5.65350E+01 6.60425E+00 0.00000E+00
 -1      2408 6.17850E+01 5.30525E+00 0.00000E+00
 -1      2409 6.02850E+01 5.30525E+00 0.00000E+00
 -1      2410 5.95350E+01 6.60425E+00 0.00000E+00
 -1      2411 6.47850E+01 5.30525E+00 0.00000E+00
 -1      2412 6.32850E+01 5.30525E+00 0.00000E+00
 -1      2413 6.25350E+01 6.60425E+00 0.00000E+00
 -1      2414 6.77850E+01 5.30525E+00 0.00000E+00
 -1      2415 6.62850E+01 5.30525E+00 0.00000E+00
 -1      2416 6.55350E+01 6.60425E+00 0.00000E+00
 -1      2417 7.07850E+01 5.30525E+00 0.00000E+00
 -1      2418 6.92850E+01 5.30525E+00 0.00000E+00
 -1      2419 6.85350E+01 6.60425E+00 0.00000E+00
 -1      2420 7.37850E+01 5.30525E+00 0.00000E+00
 -1      2421 7.22850E+01 5.30525E+00 0.00000E+00
 -1      2422 7.15350E+01 6.60425E+00 0.00000E+00
 -1      2423 7.67850E+01 5.30525E+00 0.00000E+00
 -1      2424 7.52850E+01 5.30525E+00 0.00000E+00
 -1      2425 7.45350E+01 6.60425E+00 0.00000E+00
 -1      2426 7.97850E+01 5.30525E+00 0.00000E+00
 -1      2427 7.82850E+01 5.30525E+00 0.00000E+00
 -1      2428 7.75350E+01 6.60425E+00 0.00000E+00
 -1      2429 8.27850E+01 5.30525E+00 0.00000E+00
 -1      2430 8.12850E+01 5.30525E+00 0.00000E+00
 -1      2431 8.05350E+01 6.60425E+00 0.00000E+00
 -1      2432 8.57850E+01 5.30525E+00 0.00000E+00
 -1      2433 8.42850E+01 5.30525E+00 0.00000E+00
 -1      2434 8.35350E+01 6.60425E+00 0.00000E+00
 -1      2435 8.87850E+01 5.30525E+00 0.00000E+00
 -1      2436 8.72850E+01 5.30525E+00 0.00000E+00
 -1      2437 8.65350E+01 6.60425E+00 0.00000E+00
 -1      2438 9.17850E+01 5.30525E+00 0.00000E+00
 -1      2439 9.02850E+01 5.30525E+00 0.00000E+00
 -1      2440 8.95350E+01 6.60425E+00 0.00000E+00
 -1      2441 9.47850E+01 5.30525E+00 0.00000E+00
 -1      2442 9.32850E+01 5.30525E+00 0.00000E+00
 -1      2443 9.25350E+01 6.60425E+00 0.00000E+00
 -1      2444 9.77850E+01 5.30525E+00 0.00000E+00
 -1      2445 9.62850E+01 5.30525E+00 0.00000E+00
 -1      2446 9.55350E+01 6.60425E+00 0.00000E+00
 -1      2447 1.00785E+02 5.30525E+00 0.00000E+00
 -1      2448 9.92850E+01 5.30525E+00 0.00000E+00
 -1      2449 9.85350E+01 6.60425E+00 0.00000E+00
 -1      2450 1.03785E+02 5.30525E+00 0.00000E+00
 -1      2451 1.02285E+02 5.30525E+00 0.00000E+00
 -1      2452 1.01535E+02 6.60425E+00 0.00000E+00
 -1      2453 1.06785E+02 5.30525E+00 0.00000E+00
 -1      2454 1.05285E+02 5.30525E+00 0.00000E+00
 -1      2455 1.04535E+02 6.60425E+00 0.00000E+00
 -1      2456 1.09785E+02 5.30525E+00 0.00000E+00
 -1      2457 1.08285E+02 5.30525E+00 0.00000E+00
 -1      2458 1.07535E+02 6.60425E+00 0.00000E+00
 -1      2459 1.12785E+02 5.30525E+00 0.00000E+00
 -1      2460 1.11285E+02 5.30525E+00 0.00000E+00
 -1      2461 1.10535E+02 6.60425E+00 0.00000E+00
 -1      2462 1.15785E+02 5.30525E+00 0.00000E+00
 -1      2463 1.14285E+02 5.30525E+00 0.00000E+00
 -1      2464 1.13535E+02 6.60425E+00 0.00000E+00
 -1      2465 1.18785E+02 5.30525E+00 0.00000E+00
 -1      2466 1.17285E+02 5.30525E+00 0.00000E+00
 -1      2467 1.16535E+02 6.60425E+00 0.00000E+00
 -1      2468 1.21785E+02 5.30525E+00 0.00000E+00
 -1      2469 1.20285E+02 5.30525E+00 0.00000E+00
 -1      2470 1.19535E+02 6.60425E+00 0.00000E+00
 -1      2471 1.24785E+02 5.30525E+00 0.00000E+00
 -1      2472 1.23285E+02 5.30525E+00 0.00000E+00
 -1      2473 1.22535E+02 6.60425E+00 0.00000E+00
 -1      2474 1.27785E+02 5.30525E+00 0.00000E+00
 -1      2475 1.26285E+02 5.30525E+00 0.00000E+00
 -1      2476 1.25535E+02 6.60425E+00 0.00000E+00
 -1      2477 1.30785E+02 5.30525E+00 0.00000E+00
 -1      2478 1.29285E+02 5.30525E+00 0.00000E+00
 -1      2479 1.28535E+02 6.60425E+00 0.00000E+00
 -1      2480 1.33785E+02 5.30525E+00 0.00000E+00
 -1      2481 1.32285E+02 5.30525E+00 0.00000E+00
 -1      2482 1.31535E+02 6.60425E+00 0.00000E+00
 -1      2483 1.36785E+02 5.30525E+00 0.00000E+00
 -1      2484 1.35285E+02 5.30525E+00 0.00000E+00
 -1      2485 1.34535E+02 6.60425E+00 0.00000E+00
 -1      2486 1.39785E+02 5.30525E+00 0.00000E+00
 -1      2487 1.38285E+02 5.30525E+00 0.00000E+00
 -1      2488 1.37535E+02 6.60425E+00 0.00000E+00
 -1      2489 1.42785E+02 5.30525E+00 0.00000E+00
 -1      2490 1.41285E+02 5.30525E+00 0.00000E+00
 -1      2491 1.40535E+02 6.60425E+00 0.00000E+00
 -1      2492 1.44336E+02 5.26953E+00 0.00000E+00
 -1      2493 1.43505E+02 1.69125E+01 0.00000E+00
 -1      2494 1.43505E+02 1.54375E+01 0.00000E+00
 -1      2495 1.43505E+02 1.98625E+01 0.00000E+00
 -1      2496 1.43505E+02 1.83875E+01 0.00000E+00
 -1      2497 1.42206E+02 1.76500E+01 0.00000E+00
 -1      2498 1.43505E+02 1.10625E+01 0.00000E+00
 -1      2499 1.43505E+02 9.58750E+00 0.00000E+00
 -1      2500 1.43505E+02 1.39750E+01 0.00000E+00
 -1      2501 1.43505E+02 1.25250E+01 0.00000E+00
 -1      2502 1.42206E+02 1.17875E+01 0.00000E+00
 -1      2503 1.42206E+02 1.47125E+01 0.00000E+00
 -1      2504 1.43505E+02 2.28125E+01 0.00000E+00
 -1      2505 1.43505E+02 2.13375E+01 0.00000E+00
 -1      2506 1.42206E+02 2.06000E+01 0.00000E+00
 -1      2507 1.43505E+02 2.57625E+01 0.00000E+00
 -1      2508 1.43505E+02 2.42875E+01 0.00000E+00
 -1      2509 1.42206E+02 2.35500E+01 0.00000E+00
 -1      2510 1.43505E+02 2.87125E+01 0.00000E+00
 -1      2511 1.43505E+02 2.72375E+01 0.00000E+00
 -1      2512 1.42206E+02 2.65000E+01 0.00000E+00
 -1      2513 1.43505E+02 3.16125E+01 0.00000E+00
 -1      2514 1.43505E+02 3.01625E+01 0.00000E+00
 -1      2515 1.42206E+02 2.94250E+01 0.00000E+00
 -1      2516 1.43505E+02 3.45625E+01 0.00000E+00
 -1      2517 1.43505E+02 3.30875E+01 0.00000E+00
 -1      2518 1.42206E+02 3.23500E+01 0.00000E+00
 -1      2519 1.43505E+02 3.75125E+01 0.00000E+00
 -1      2520 1.43505E+02 3.60375E+01 0.00000E+00
 -1      2521 1.42206E+02 3.53000E+01 0.00000E+00
 -1      2522 1.43505E+02 4.04625E+01 0.00000E+00
 -1      2523 1.43505E+02 3.89875E+01 0.00000E+00
 -1      2524 1.42206E+02 3.82500E+01 0.00000E+00
 -1      2525 1.31296E+02 2.72514E+01 0.00000E+00
 -1      2526 1.31348E+02 2.83094E+01 0.00000E+00
 -1      2527 1.29272E+02 2.29970E+01 0.00000E+00
 -1      2528 1.29650E+02 2.38429E+01 0.00000E+00
 -1      2529 1.67850E+01 5.30525E+00 0.00000E+00
 -1      2530 1.52850E+01 5.30525E+00 0.00000E+00
 -1      2531 1.75350E+01 6.60425E+00 0.00000E+00
 -1      2532 1.44321E+02 4.30606E+01 0.00000E+00
 -1      2533 1.31168E+02 2.95505E+01 0.00000E+00
 -1      2534 1.30960E+02 3.05270E+01 0.00000E+00
 -1      2535 6.55950E+00 4.28890E+01 0.00000E+00
 -1      2536 8.53650E+00 4.32410E+01 0.00000E+00
 -1      2537 9.28650E+00 4.19420E+01 0.00000E+00
 -1      2538 6.55950E+00 4.14140E+01 0.00000E+00
 -1      2539 1.30712E+02 3.14919E+01 0.00000E+00
 -1      2540 1.30464E+02 3.24569E+01 0.00000E+00
 -1      2541 1.31655E+02 3.11821E+01 0.00000E+00
 -1      2542 1.10378E+02 3.19158E+01 0.00000E+00
 -1      2543 1.10270E+02 3.08566E+01 0.00000E+00
 -1      2544 6.49500E+00 2.71625E+01 0.00000E+00
 -1      2545 6.49500E+00 2.86375E+01 0.00000E+00
 -1      2546 7.79400E+00 2.93750E+01 0.00000E+00
 -1      2547 7.79400E+00 2.64250E+01 0.00000E+00
 -1      2548 1.12967E+02 2.18053E+01 0.00000E+00
 -1      2549 1.13508E+02 2.10416E+01 0.00000E+00
 -1      2550 1.21324E+02 1.81866E+01 0.00000E+00
 -1      2551 1.22202E+02 1.82732E+01 0.00000E+00
 -1      2552 1.18834E+02 1.85008E+01 0.00000E+00
 -1      2553 1.19999E+02 1.82212E+01 0.00000E+00
 -1      2554 1.16885E+02 1.91939E+01 0.00000E+00
 -1      2555 1.17782E+02 1.89158E+01 0.00000E+00
 -1      2556 1.19011E+02 3.90339E+01 0.00000E+00
 -1      2557 1.18049E+02 3.89162E+01 0.00000E+00
 -1      2558 1.11712E+02 2.33391E+01 0.00000E+00
 -1      2559 1.12339E+02 2.25722E+01 0.00000E+00
 -1      2560 1.11910E+02 2.16945E+01 0.00000E+00
 -1      2561 1.10845E+02 2.53492E+01 0.00000E+00
 -1      2562 1.11168E+02 2.44083E+01 0.00000E+00
 -1      2563 1.10379E+02 2.74820E+01 0.00000E+00
 -1      2564 1.10612E+02 2.64156E+01 0.00000E+00
 -1      2565 1.09962E+02 2.56664E+01 0.00000E+00
 -1      2566 1.10208E+02 2.98562E+01 0.00000E+00
 -1      2567 1.10145E+02 2.88559E+01 0.00000E+00
 -1      2568 1.09325E+02 3.04808E+01 0.00000E+00
 -1      2569 1.11228E+02 3.40041E+01 0.00000E+00
 -1      2570 1.10809E+02 3.31547E+01 0.00000E+00
 -1      2571 1.12722E+02 3.62426E+01 0.00000E+00
 -1      2572 1.11884E+02 3.51660E+01 0.00000E+00
 -1      2573 1.14477E+02 3.76909E+01 0.00000E+00
 -1      2574 1.13746E+02 3.71616E+01 0.00000E+00
 -1      2575 1.16825E+02 3.86236E+01 0.00000E+00
 -1      2576 1.15664E+02 3.82303E+01 0.00000E+00
 -1      2577 1.20990E+02 3.91163E+01 0.00000E+00
 -1      2578 1.20036E+02 3.90763E+01 0.00000E+00
 -1      2579 1.23334E+02 3.88998E+01 0.00000E+00
 -1      2580 1.22213E+02 3.91045E+01 0.00000E+00
 -1      2581 1.25312E+02 3.79047E+01 0.00000E+00
 -1      2582 1.24504E+02 3.83620E+01 0.00000E+00
 -1      2583 1.27032E+02 3.69540E+01 0.00000E+00
 -1      2584 1.26230E+02 3.74870E+01 0.00000E+00
 -1      2585 1.28469E+02 3.54570E+01 0.00000E+00
 -1      2586 1.27845E+02 3.61473E+01 0.00000E+00
 -1      2587 1.29821E+02 3.36751E+01 0.00000E+00
 -1      2588 1.29164E+02 3.45881E+01 0.00000E+00
 -1      2589 1.25852E+02 1.95040E+01 0.00000E+00
 -1      2590 1.26668E+02 1.99856E+01 0.00000E+00
 -1      2591 8.07525E+00 5.11044E+00 0.00000E+00
 -1      2592 6.57525E+00 5.11044E+00 0.00000E+00
 -1      2593 6.40575E+00 6.01981E+00 0.00000E+00
 -1      2594 8.82525E+00 6.40944E+00 0.00000E+00
 -1      2595 1.12769E+02 2.01766E+01 0.00000E+00
 -1      2596 1.13739E+02 2.02905E+01 0.00000E+00
 -1      2597 1.13971E+02 1.95395E+01 0.00000E+00
 -1      2598 7.79400E+00 3.52687E+01 0.00000E+00
 -1      2599 6.49500E+00 3.60062E+01 0.00000E+00
 -1      2600 6.49500E+00 3.74750E+01 0.00000E+00
 -1      2601 1.29519E+02 2.09895E+01 0.00000E+00
 -1      2602 1.29395E+02 2.19932E+01 0.00000E+00
 -1      2603 1.30252E+02 2.21174E+01 0.00000E+00
 -1      2604 1.27678E+02 1.99357E+01 0.00000E+00
 -1      2605 6.40575E+00 7.49481E+00 0.00000E+00
 -1      2606 1.25501E+02 1.85236E+01 0.00000E+00
 -1      2607 1.30763E+02 3.33652E+01 0.00000E+00
 -1      2608 1.29426E+02 3.54523E+01 0.00000E+00
 -1      2609 1.30522E+02 2.42018E+01 0.00000E+00
 -1      2610 1.09819E+02 3.27201E+01 0.00000E+00
 -1      2611 1.27918E+02 3.71280E+01 0.00000E+00
 -1      2612 1.43586E+02 6.56853E+00 0.00000E+00
 -1      2613 1.43419E+02 7.72713E+00 0.00000E+00
 -1      2614 1.26187E+02 3.83525E+01 0.00000E+00
 -1      2615 1.32083E+02 2.89760E+01 0.00000E+00
 -1      2616 1.31589E+02 2.65086E+01 0.00000E+00
 -1      2617 1.32555E+02 2.69923E+01 0.00000E+00
 -1      2618 1.31882E+02 2.57659E+01 0.00000E+00
 -1      2619 1.24098E+02 3.93080E+01 0.00000E+00
 -1      2620 1.21704E+02 3.98576E+01 0.00000E+00
 -1      2621 1.45350E+01 6.60425E+00 0.00000E+00
 -1      2622 6.55950E+00 3.99453E+01 0.00000E+00
 -1      2623 1.17207E+02 3.94921E+01 0.00000E+00
 -1      2624 1.14796E+02 3.86601E+01 0.00000E+00
 -1      2625 1.12585E+02 3.72018E+01 0.00000E+00
 -1      2626 1.09496E+02 2.81066E+01 0.00000E+00
 -1      2627 1.10739E+02 2.35307E+01 0.00000E+00
 -1      2628 1.19456E+02 3.98270E+01 0.00000E+00
 -1      2629 1.16016E+02 1.89646E+01 0.00000E+00
 -1      2630 1.18144E+02 1.78607E+01 0.00000E+00
 -1      2631 1.23077E+02 1.77088E+01 0.00000E+00
 -1      2632 1.20522E+02 1.74111E+01 0.00000E+00
 -1      2633 1.10905E+02 3.51209E+01 0.00000E+00
 -1      2634 1.42758E+02 4.35929E+01 0.00000E+00
 -1      2635 1.43241E+02 4.17323E+01 0.00000E+00
 -1      2636 1.41942E+02 4.09948E+01 0.00000E+00
 -1      2637 1.41414E+02 4.35342E+01 0.00000E+00
 -1      2638 7.70475E+00 8.23231E+00 0.00000E+00
 -1      2639 1.42120E+02 8.46463E+00 0.00000E+00
 -1      2640 1.40664E+02 4.22352E+01 0.00000E+00
 -1      2641 9.09300E+00 1.98250E+01 0.00000E+00
 -1      2642 9.09300E+00 2.12750E+01 0.00000E+00
 -1      2643 9.09300E+00 2.27500E+01 0.00000E+00
 -1      2644 9.09300E+00 2.42250E+01 0.00000E+00
 -1      2645 1.03920E+01 2.20250E+01 0.00000E+00
 -1      2646 9.09300E+00 1.39375E+01 0.00000E+00
 -1      2647 9.09300E+00 1.54125E+01 0.00000E+00
 -1      2648 9.09300E+00 1.09875E+01 0.00000E+00
 -1      2649 9.09300E+00 1.24625E+01 0.00000E+00
 -1      2650 1.03920E+01 1.32000E+01 0.00000E+00
 -1      2651 1.40706E+02 1.03250E+01 0.00000E+00
 -1      2652 1.40620E+02 8.46463E+00 0.00000E+00
 -1      2653 1.39120E+02 8.46463E+00 0.00000E+00
 -1      2654 1.22850E+01 7.90325E+00 0.00000E+00
 -1      2655 1.07850E+01 7.90325E+00 0.00000E+00
 -1      2656 1.32569E+02 3.09028E+01 0.00000E+00
 -1      2657 1.32320E+02 3.18678E+01 0.00000E+00
 -1      2658 1.31917E+02 3.31954E+01 0.00000E+00
 -1      2659 1.31275E+02 3.44136E+01 0.00000E+00
 -1      2660 1.44000E+01 4.09070E+01 0.00000E+00
 -1      2661 1.59000E+01 4.09070E+01 0.00000E+00
 -1      2662 1.74000E+01 4.09070E+01 0.00000E+00
 -1      2663 1.89000E+01 4.09070E+01 0.00000E+00
 -1      2664 1.66500E+01 3.96080E+01 0.00000E+00
 -1      2665 2.04000E+01 4.09070E+01 0.00000E+00
 -1      2666 2.19000E+01 4.09070E+01 0.00000E+00
 -1      2667 1.96500E+01 3.96080E+01 0.00000E+00
 -1      2668 2.34000E+01 4.09070E+01 0.00000E+00
 -1      2669 2.49000E+01 4.09070E+01 0.00000E+00
 -1      2670 2.26500E+01 3.96080E+01 0.00000E+00
 -1      2671 2.64000E+01 4.09070E+01 0.00000E+00
 -1      2672 2.79000E+01 4.09070E+01 0.00000E+00
 -1      2673 2.56500E+01 3.96080E+01 0.00000E+00
 -1      2674 2.94000E+01 4.09070E+01 0.00000E+00
 -1      2675 3.09000E+01 4.09070E+01 0.00000E+00
 -1      2676 2.86500E+01 3.96080E+01 0.00000E+00
 -1      2677 3.24000E+01 4.09070E+01 0.00000E+00
 -1      2678 3.39000E+01 4.09070E+01 0.00000E+00
 -1      2679 3.16500E+01 3.96080E+01 0.00000E+00
 -1      2680 3.54000E+01 4.09070E+01 0.00000E+00
 -1      2681 3.69000E+01 4.09070E+01 0.00000E+00
 -1      2682 3.46500E+01 3.96080E+01 0.00000E+00
 -1      2683 3.84000E+01 4.09070E+01 0.00000E+00
 -1      2684 3.99000E+01 4.09070E+01 0.00000E+00
 -1      2685 3.76500E+01 3.96080E+01 0.00000E+00
 -1      2686 4.14000E+01 4.09070E+01 0.00000E+00
 -1      2687 4.29000E+01 4.09070E+01 0.00000E+00
 -1      2688 4.06500E+01 3.96080E+01 0.00000E+00
 -1      2689 4.44000E+01 4.09070E+01 0.00000E+00
 -1      2690 4.59000E+01 4.09070E+01 0.00000E+00
 -1      2691 4.36500E+01 3.96080E+01 0.00000E+00
 -1      2692 4.74000E+01 4.09070E+01 0.00000E+00
 -1      2693 4.89000E+01 4.09070E+01 0.00000E+00
 -1      2694 4.66500E+01 3.96080E+01 0.00000E+00
 -1      2695 5.04000E+01 4.09070E+01 0.00000E+00
 -1      2696 5.19000E+01 4.09070E+01 0.00000E+00
 -1      2697 4.96500E+01 3.96080E+01 0.00000E+00
 -1      2698 5.34000E+01 4.09070E+01 0.00000E+00
 -1      2699 5.49000E+01 4.09070E+01 0.00000E+00
 -1      2700 5.26500E+01 3.96080E+01 0.00000E+00
 -1      2701 5.64000E+01 4.09070E+01 0.00000E+00
 -1      2702 5.79000E+01 4.09070E+01 0.00000E+00
 -1      2703 5.56500E+01 3.96080E+01 0.00000E+00
 -1      2704 5.94000E+01 4.09070E+01 0.00000E+00
 -1      2705 6.09000E+01 4.09070E+01 0.00000E+00
 -1      2706 5.86500E+01 3.96080E+01 0.00000E+00
 -1      2707 6.24000E+01 4.09070E+01 0.00000E+00
 -1      2708 6.39000E+01 4.09070E+01 0.00000E+00
 -1      2709 6.16500E+01 3.96080E+01 0.00000E+00
 -1      2710 6.54000E+01 4.09070E+01 0.00000E+00
 -1      2711 6.69000E+01 4.09070E+01 0.00000E+00
 -1      2712 6.46500E+01 3.96080E+01 0.00000E+00
 -1      2713 6.84000E+01 4.09070E+01 0.00000E+00
 -1      2714 6.99000E+01 4.09070E+01 0.00000E+00
 -1      2715 6.76500E+01 3.96080E+01 0.00000E+00
 -1      2716 7.14000E+01 4.09070E+01 0.00000E+00
 -1      2717 7.29000E+01 4.09070E+01 0.00000E+00
 -1      2718 7.06500E+01 3.96080E+01 0.00000E+00
 -1      2719 7.44000E+01 4.09070E+01 0.00000E+00
 -1      2720 7.59000E+01 4.09070E+01 0.00000E+00
 -1      2721 7.36500E+01 3.96080E+01 0.00000E+00
 -1      2722 7.74000E+01 4.09070E+01 0.00000E+00
 -1      2723 7.89000E+01 4.09070E+01 0.00000E+00
 -1      2724 7.66500E+01 3.96080E+01 0.00000E+00
 -1      2725 8.04000E+01 4.09070E+01 0.00000E+00
 -1      2726 8.19000E+01 4.09070E+01 0.00000E+00
 -1      2727 7.96500E+01 3.96080E+01 0.00000E+00
 -1      2728 8.34000E+01 4.09070E+01 0.00000E+00
 -1      2729 8.49000E+01 4.09070E+01 0.00000E+00
 -1      2730 8.26500E+01 3.96080E+01 0.00000E+00
 -1      2731 8.64000E+01 4.09070E+01 0.00000E+00
 -1      2732 8.79000E+01 4.09070E+01 0.00000E+00
 -1      2733 8.56500E+01 3.96080E+01 0.00000E+00
 -1      2734 8.94000E+01 4.09070E+01 0.00000E+00
 -1      2735 9.09000E+01 4.09070E+01 0.00000E+00
 -1      2736 8.86500E+01 3.96080E+01 0.00000E+00
 -1      2737 9.24000E+01 4.09070E+01 0.00000E+00
 -1      2738 9.39000E+01 4.09070E+01 0.00000E+00
 -1      2739 9.16500E+01 3.96080E+01 0.00000E+00
 -1      2740 9.54000E+01 4.09070E+01 0.00000E+00
 -1      2741 9.69000E+01 4.09070E+01 0.00000E+00
 -1      2742 9.46500E+01 3.96080E+01 0.00000E+00
 -1      2743 9.84000E+01 4.09070E+01 0.00000E+00
 -1      2744 9.99000E+01 4.09070E+01 0.00000E+00
 -1      2745 9.76500E+01 3.96080E+01 0.00000E+00
 -1      2746 1.01400E+02 4.09070E+01 0.00000E+00
 -1      2747 1.02900E+02 4.09070E+01 0.00000E+00
 -1      2748 1.00650E+02 3.96080E+01 0.00000E+00
 -1      2749 1.04400E+02 4.09070E+01 0.00000E+00
 -1      2750 1.05900E+02 4.09070E+01 0.00000E+00
 -1      2751 1.03650E+02 3.96080E+01 0.00000E+00
 -1      2752 1.07400E+02 4.09070E+01 0.00000E+00
 -1      2753 1.08900E+02 4.09070E+01 0.00000E+00
 -1      2754 1.06650E+02 3.96080E+01 0.00000E+00
 -1      2755 1.14316E+02 4.07027E+01 0.00000E+00
 -1      2756 1.15816E+02 4.07027E+01 0.00000E+00
 -1      2757 1.19565E+02 4.10377E+01 0.00000E+00
 -1      2758 1.21065E+02 4.10377E+01 0.00000E+00
 -1      2759 1.22289E+02 4.10259E+01 0.00000E+00
 -1      2760 1.23789E+02 4.10259E+01 0.00000E+00
 -1      2761 1.28400E+02 4.10133E+01 0.00000E+00
 -1      2762 1.29900E+02 4.10133E+01 0.00000E+00
 -1      2763 1.31400E+02 4.10133E+01 0.00000E+00
 -1      2764 1.32900E+02 4.10133E+01 0.00000E+00
 -1      2765 1.30650E+02 3.98206E+01 0.00000E+00
 -1      2766 1.34400E+02 4.10133E+01 0.00000E+00
 -1      2767 1.35900E+02 4.10133E+01 0.00000E+00
 -1      2768 1.33650E+02 3.98206E+01 0.00000E+00
 -1      2769 1.37400E+02 4.10133E+01 0.00000E+00
 -1      2770 1.38900E+02 4.10133E+01 0.00000E+00
 -1      2771 1.36650E+02 3.98206E+01 0.00000E+00
 -1      2772 2.42850E+01 7.90325E+00 0.00000E+00
 -1      2773 2.27850E+01 7.90325E+00 0.00000E+00
 -1      2774 8.91450E+00 8.42712E+00 0.00000E+00
 -1      2775 2.12850E+01 7.90325E+00 0.00000E+00
 -1      2776 1.97850E+01 7.90325E+00 0.00000E+00
 -1      2777 2.20350E+01 9.20225E+00 0.00000E+00
 -1      2778 3.02850E+01 7.90325E+00 0.00000E+00
 -1      2779 2.87850E+01 7.90325E+00 0.00000E+00
 -1      2780 3.32850E+01 7.90325E+00 0.00000E+00
 -1      2781 3.17850E+01 7.90325E+00 0.00000E+00
 -1      2782 3.10350E+01 9.20225E+00 0.00000E+00
 -1      2783 3.62850E+01 7.90325E+00 0.00000E+00
 -1      2784 3.47850E+01 7.90325E+00 0.00000E+00
 -1      2785 3.40350E+01 9.20225E+00 0.00000E+00
 -1      2786 3.92850E+01 7.90325E+00 0.00000E+00
 -1      2787 3.77850E+01 7.90325E+00 0.00000E+00
 -1      2788 3.70350E+01 9.20225E+00 0.00000E+00
 -1      2789 4.22850E+01 7.90325E+00 0.00000E+00
 -1      2790 4.07850E+01 7.90325E+00 0.00000E+00
 -1      2791 4.00350E+01 9.20225E+00 0.00000E+00
 -1      2792 4.52850E+01 7.90325E+00 0.00000E+00
 -1      2793 4.37850E+01 7.90325E+00 0.00000E+00
 -1      2794 4.30350E+01 9.20225E+00 0.00000E+00
 -1      2795 4.82850E+01 7.90325E+00 0.00000E+00
 -1      2796 4.67850E+01 7.90325E+00 0.00000E+00
 -1      2797 4.60350E+01 9.20225E+00 0.00000E+00
 -1      2798 5.12850E+01 7.90325E+00 0.00000E+00
 -1      2799 4.97850E+01 7.90325E+00 0.00000E+00
 -1      2800 4.90350E+01 9.20225E+00 0.00000E+00
 -1      2801 5.42850E+01 7.90325E+00 0.00000E+00
 -1      2802 5.27850E+01 7.90325E+00 0.00000E+00
 -1      2803 5.20350E+01 9.20225E+00 0.00000E+00
 -1      2804 5.72850E+01 7.90325E+00 0.00000E+00
 -1      2805 5.57850E+01 7.90325E+00 0.00000E+00
 -1      2806 5.50350E+01 9.20225E+00 0.00000E+00
 -1      2807 6.02850E+01 7.90325E+00 0.00000E+00
 -1      2808 5.87850E+01 7.90325E+00 0.00000E+00
 -1      2809 5.80350E+01 9.20225E+00 0.00000E+00
 -1      2810 6.32850E+01 7.90325E+00 0.00000E+00
 -1      2811 6.17850E+01 7.90325E+00 0.00000E+00
 -1      2812 6.10350E+01 9.20225E+00 0.00000E+00
 -1      2813 6.62850E+01 7.90325E+00 0.00000E+00
 -1      2814 6.47850E+01 7.90325E+00 0.00000E+00
 -1      2815 6.40350E+01 9.20225E+00 0.00000E+00
 -1      2816 6.92850E+01 7.90325E+00 0.00000E+00
 -1      2817 6.77850E+01 7.90325E+00 0.00000E+00
 -1      2818 6.70350E+01 9.20225E+00 0.00000E+00
 -1      2819 7.22850E+01 7.90325E+00 0.00000E+00
 -1      2820 7.07850E+01 7.90325E+00 0.00000E+00
 -1      2821 7.00350E+01 9.20225E+00 0.00000E+00
 -1      2822 7.52850E+01 7.90325E+00 0.00000E+00
 -1      2823 7.37850E+01 7.90325E+00 0.00000E+00
 -1      2824 7.30350E+01 9.20225E+00 0.00000E+00
 -1      2825 7.82850E+01 7.90325E+00 0.00000E+00
 -1      2826 7.67850E+01 7.90325E+00 0.00000E+00
 -1      2827 7.60350E+01 9.20225E+00 0.00000E+00
 -1      2828 8.12850E+01 7.90325E+00 0.00000E+00
 -1      2829 7.97850E+01 7.90325E+00 0.00000E+00
 -1      2830 7.90350E+01 9.20225E+00 0.00000E+00
 -1      2831 8.42850E+01 7.90325E+00 0.00000E+00
 -1      2832 8.27850E+01 7.90325E+00 0.00000E+00
 -1      2833 8.20350E+01 9.20225E+00 0.00000E+00
 -1      2834 8.72850E+01 7.90325E+00 0.00000E+00
 -1      2835 8.57850E+01 7.90325E+00 0.00000E+00
 -1      2836 8.50350E+01 9.20225E+00 0.00000E+00
 -1      2837 9.02850E+01 7.90325E+00 0.00000E+00
 -1      2838 8.87850E+01 7.90325E+00 0.00000E+00
 -1      2839 8.80350E+01 9.20225E+00 0.00000E+00
 -1      2840 9.32850E+01 7.90325E+00 0.00000E+00
 -1      2841 9.17850E+01 7.90325E+00 0.00000E+00
 -1      2842 9.10350E+01 9.20225E+00 0.00000E+00
 -1      2843 9.62850E+01 7.90325E+00 0.00000E+00
 -1      2844 9.47850E+01 7.90325E+00 0.00000E+00
 -1      2845 9.40350E+01 9.20225E+00 0.00000E+00
 -1      2846 9.92850E+01 7.90325E+00 0.00000E+00
 -1      2847 9.77850E+01 7.90325E+00 0.00000E+00
 -1      2848 9.70350E+01 9.20225E+00 0.00000E+00
 -1      2849 1.02285E+02 7.90325E+00 0.00000E+00
 -1      2850 1.00785E+02 7.90325E+00 0.00000E+00
 -1      2851 1.00035E+02 9.20225E+00 0.00000E+00
 -1      2852 1.05285E+02 7.90325E+00 0.00000E+00
 -1      2853 1.03785E+02 7.90325E+00 0.00000E+00
 -1      2854 1.03035E+02 9.20225E+00 0.00000E+00
 -1      2855 1.08285E+02 7.90325E+00 0.00000E+00
 -1      2856 1.06785E+02 7.90325E+00 0.00000E+00
 -1      2857 1.06035E+02 9.20225E+00 0.00000E+00
 -1      2858 1.11285E+02 7.90325E+00 0.00000E+00
 -1      2859 1.09785E+02 7.90325E+00 0.00000E+00
 -1      2860 1.09035E+02 9.20225E+00 0.00000E+00
 -1      2861 1.14285E+02 7.90325E+00 0.00000E+00
 -1      2862 1.12785E+02 7.90325E+00 0.00000E+00
 -1      2863 1.12035E+02 9.20225E+00 0.00000E+00
 -1      2864 1.17285E+02 7.90325E+00 0.00000E+00
 -1      2865 1.15785E+02 7.90325E+00 0.00000E+00
 -1      2866 1.15035E+02 9.20225E+00 0.00000E+00
 -1      2867 1.20285E+02 7.90325E+00 0.00000E+00
 -1      2868 1.18785E+02 7.90325E+00 0.00000E+00
 -1      2869 1.18035E+02 9.20225E+00 0.00000E+00
 -1      2870 1.23285E+02 7.90325E+00 0.00000E+00
 -1      2871 1.21785E+02 7.90325E+00 0.00000E+00
 -1      2872 1.21035E+02 9.20225E+00 0.00000E+00
 -1      2873 1.26285E+02 7.90325E+00 0.00000E+00
 -1      2874 1.24785E+02 7.90325E+00 0.00000E+00
 -1      2875 1.24035E+02 9.20225E+00 0.00000E+00
 -1      2876 1.29285E+02 7.90325E+00 0.00000E+00
 -1      2877 1.27785E+02 7.90325E+00 0.00000E+00
 -1      2878 1.27035E+02 9.20225E+00 0.00000E+00
 -1      2879 1.32285E+02 7.90325E+00 0.00000E+00
 -1      2880 1.30785E+02 7.90325E+00 0.00000E+00
 -1      2881 1.30035E+02 9.20225E+00 0.00000E+00
 -1      2882 1.35285E+02 7.90325E+00 0.00000E+00
 -1      2883 1.33785E+02 7.90325E+00 0.00000E+00
 -1      2884 1.33035E+02 9.20225E+00 0.00000E+00
 -1      2885 1.37953E+02 8.18394E+00 0.00000E+00
 -1      2886 1.36453E+02 8.18394E+00 0.00000E+00
 -1      2887 1.35703E+02 9.48294E+00 0.00000E+00
 -1      2888 1.38038E+02 1.00443E+01 0.00000E+00
 -1      2889 1.40930E+02 2.42875E+01 0.00000E+00
 -1      2890 1.40930E+02 2.28125E+01 0.00000E+00
 -1      2891 1.39914E+02 4.09894E+01 0.00000E+00
 -1      2892 1.40928E+02 4.10187E+01 0.00000E+00
 -1      2893 1.41192E+02 3.97489E+01 0.00000E+00
 -1      2894 1.39164E+02 3.97967E+01 0.00000E+00
 -1      2895 1.40907E+02 1.83875E+01 0.00000E+00
 -1      2896 1.40907E+02 1.69125E+01 0.00000E+00
 -1      2897 1.40930E+02 2.72375E+01 0.00000E+00
 -1      2898 1.40930E+02 2.57625E+01 0.00000E+00
 -1      2899 1.39653E+02 2.50250E+01 0.00000E+00
 -1      2900 1.40918E+02 2.13375E+01 0.00000E+00
 -1      2901 1.40918E+02 1.98625E+01 0.00000E+00
 -1      2902 1.39619E+02 1.91250E+01 0.00000E+00
 -1      2903 1.39642E+02 2.20750E+01 0.00000E+00
 -1      2904 1.27776E+02 1.88479E+01 0.00000E+00
 -1      2905 1.28759E+02 1.97775E+01 0.00000E+00
 -1      2906 1.40930E+02 3.01375E+01 0.00000E+00
 -1      2907 1.40930E+02 2.86875E+01 0.00000E+00
 -1      2908 1.39653E+02 2.79500E+01 0.00000E+00
 -1      2909 1.40930E+02 3.30875E+01 0.00000E+00
 -1      2910 1.40930E+02 3.16125E+01 0.00000E+00
 -1      2911 1.39653E+02 3.08750E+01 0.00000E+00
 -1      2912 1.40930E+02 3.60375E+01 0.00000E+00
 -1      2913 1.40930E+02 3.45625E+01 0.00000E+00
 -1      2914 1.39653E+02 3.38250E+01 0.00000E+00
 -1      2915 1.41061E+02 3.86307E+01 0.00000E+00
 -1      2916 1.41061E+02 3.71557E+01 0.00000E+00
 -1      2917 1.39784E+02 3.64182E+01 0.00000E+00
 -1      2918 1.40047E+02 3.86546E+01 0.00000E+00
 -1      2919 1.09145E+02 3.36489E+01 0.00000E+00
 -1      2920 1.08714E+02 3.24099E+01 0.00000E+00
 -1      2921 8.85168E+00 4.05347E+01 0.00000E+00
 -1      2922 1.02152E+01 4.07987E+01 0.00000E+00
 -1      2923 1.29047E+02 3.74521E+01 0.00000E+00
 -1      2924 1.28234E+02 3.82588E+01 0.00000E+00
 -1      2925 1.18541E+02 4.09954E+01 0.00000E+00
 -1      2926 1.82850E+01 7.90325E+00 0.00000E+00
 -1      2927 1.67850E+01 7.90325E+00 0.00000E+00
 -1      2928 1.90350E+01 9.20225E+00 0.00000E+00
 -1      2929 2.72850E+01 7.90325E+00 0.00000E+00
 -1      2930 2.57850E+01 7.90325E+00 0.00000E+00
 -1      2931 2.50350E+01 9.20225E+00 0.00000E+00
 -1      2932 2.80350E+01 9.20225E+00 0.00000E+00
 -1      2933 1.15576E+01 4.08528E+01 0.00000E+00
 -1      2934 1.30576E+01 4.08528E+01 0.00000E+00
 -1      2935 1.38076E+01 3.95538E+01 0.00000E+00
 -1      2936 1.11228E+01 3.94455E+01 0.00000E+00
 -1      2937 7.48818E+00 3.88019E+01 0.00000E+00
 -1      2938 9.09300E+00 1.68813E+01 0.00000E+00
 -1      2939 9.09300E+00 1.83563E+01 0.00000E+00
 -1      2940 1.03920E+01 1.90812E+01 0.00000E+00
 -1      2941 1.03920E+01 1.61437E+01 0.00000E+00
 -1      2942 1.30443E+02 3.55535E+01 0.00000E+00
 -1      2943 1.29748E+02 3.64225E+01 0.00000E+00
 -1      2944 9.09300E+00 3.15875E+01 0.00000E+00
 -1      2945 9.09300E+00 3.30625E+01 0.00000E+00
 -1      2946 1.19838E+02 1.66130E+01 0.00000E+00
 -1      2947 1.21163E+02 1.65784E+01 0.00000E+00
 -1      2948 1.10340E+02 3.62055E+01 0.00000E+00
 -1      2949 1.09684E+02 3.50436E+01 0.00000E+00
 -1      2950 1.22751E+02 1.64721E+01 0.00000E+00
 -1      2951 1.23981E+02 1.68044E+01 0.00000E+00
 -1      2952 1.13129E+02 4.01633E+01 0.00000E+00
 -1      2953 1.10933E+02 2.15350E+01 0.00000E+00
 -1      2954 1.11560E+02 2.07681E+01 0.00000E+00
 -1      2955 1.17303E+02 1.72704E+01 0.00000E+00
 -1      2956 1.18356E+02 1.68554E+01 0.00000E+00
 -1      2957 1.09740E+02 2.36957E+01 0.00000E+00
 -1      2958 1.10284E+02 2.26264E+01 0.00000E+00
 -1      2959 1.08926E+02 2.59985E+01 0.00000E+00
 -1      2960 1.09160E+02 2.49320E+01 0.00000E+00
 -1      2961 1.08333E+02 3.10452E+01 0.00000E+00
 -1      2962 1.08270E+02 3.00448E+01 0.00000E+00
 -1      2963 1.08482E+02 2.87086E+01 0.00000E+00
 -1      2964 1.08715E+02 2.73348E+01 0.00000E+00
 -1      2965 1.07912E+02 2.66004E+01 0.00000E+00
 -1      2966 1.07490E+02 2.92730E+01 0.00000E+00
 -1      2967 1.12468E+02 3.83619E+01 0.00000E+00
 -1      2968 1.11444E+02 3.74430E+01 0.00000E+00
 -1      2969 1.15016E+02 1.85869E+01 0.00000E+00
 -1      2970 1.16091E+02 1.78981E+01 0.00000E+00
 -1      2971 1.52850E+01 7.90325E+00 0.00000E+00
 -1      2972 1.37850E+01 7.90325E+00 0.00000E+00
 -1      2973 1.30350E+01 9.20225E+00 0.00000E+00
 -1      2974 1.60350E+01 9.20225E+00 0.00000E+00
 -1      2975 1.17041E+02 4.09954E+01 0.00000E+00
 -1      2976 1.33104E+02 2.84904E+01 0.00000E+00
 -1      2977 1.32924E+02 2.97315E+01 0.00000E+00
 -1      2978 1.27002E+02 3.89242E+01 0.00000E+00
 -1      2979 1.26083E+02 3.93420E+01 0.00000E+00
 -1      2980 1.31053E+02 2.33968E+01 0.00000E+00
 -1      2981 1.31446E+02 2.44773E+01 0.00000E+00
 -1      2982 1.25176E+02 1.72870E+01 0.00000E+00
 -1      2983 1.26370E+02 1.77695E+01 0.00000E+00
 -1      2984 1.24850E+02 1.60503E+01 0.00000E+00
 -1      2985 1.11989E+02 4.04045E+01 0.00000E+00
 -1      2986 9.09300E+00 3.45313E+01 0.00000E+00
 -1      2987 9.09300E+00 3.60000E+01 0.00000E+00
 -1      2988 1.03920E+01 3.37938E+01 0.00000E+00
 -1      2989 1.29616E+02 1.99017E+01 0.00000E+00
 -1      2990 1.30474E+02 2.00259E+01 0.00000E+00
 -1      2991 1.29714E+02 1.88139E+01 0.00000E+00
 -1      2992 1.03920E+01 2.49750E+01 0.00000E+00
 -1      2993 9.09300E+00 2.57000E+01 0.00000E+00
 -1      2994 9.09300E+00 2.71750E+01 0.00000E+00
 -1      2995 1.40706E+02 1.17875E+01 0.00000E+00
 -1      2996 1.28130E+02 3.92483E+01 0.00000E+00
 -1      2997 1.11792E+02 2.00170E+01 0.00000E+00
 -1      2998 1.12023E+02 1.92660E+01 0.00000E+00
 -1      2999 1.10814E+02 1.98575E+01 0.00000E+00
 -1      3000 1.32832E+02 3.29162E+01 0.00000E+00
 -1      3001 1.31597E+02 3.53837E+01 0.00000E+00
 -1      3002 1.30064E+02 3.75532E+01 0.00000E+00
 -1      3003 1.09739E+02 3.91055E+01 0.00000E+00
 -1      3004 1.10489E+02 4.04045E+01 0.00000E+00
 -1      3005 1.16303E+02 1.68928E+01 0.00000E+00
 -1      3006 1.33590E+02 3.04172E+01 0.00000E+00
 -1      3007 1.24051E+02 3.99303E+01 0.00000E+00
 -1      3008 1.24912E+02 4.11104E+01 0.00000E+00
 -1      3009 1.25774E+02 4.10599E+01 0.00000E+00
 -1      3010 1.27274E+02 4.10599E+01 0.00000E+00
 -1      3011 1.39608E+02 1.61875E+01 0.00000E+00
 -1      3012 1.40907E+02 1.54500E+01 0.00000E+00
 -1      3013 1.40907E+02 1.39875E+01 0.00000E+00
 -1      3014 9.66450E+00 9.72612E+00 0.00000E+00
 -1      3015 1.07660E+02 3.19739E+01 0.00000E+00
 -1      3016 1.08580E+02 3.47334E+01 0.00000E+00
 -1      3017 1.32412E+02 2.49610E+01 0.00000E+00
 -1      3018 8.78718E+00 3.80644E+01 0.00000E+00
 -1      3019 1.33689E+02 2.70050E+01 0.00000E+00
 -1      3020 1.33397E+02 2.77477E+01 0.00000E+00
 -1      3021 1.34238E+02 2.85031E+01 0.00000E+00
 -1      3022 1.25221E+02 3.93925E+01 0.00000E+00
 -1      3023 1.08704E+02 2.40278E+01 0.00000E+00
 -1      3024 1.09635E+01 1.04636E+01 0.00000E+00
 -1      3025 9.09300E+00 2.86437E+01 0.00000E+00
 -1      3026 9.09300E+00 3.01187E+01 0.00000E+00
 -1      3027 1.03920E+01 3.08563E+01 0.00000E+00
 -1      3028 1.03920E+01 2.79188E+01 0.00000E+00
 -1      3029 1.22068E+02 1.56740E+01 0.00000E+00
 -1      3030 1.10223E+02 3.73656E+01 0.00000E+00
 -1      3031 1.31300E+02 2.13893E+01 0.00000E+00
 -1      3032 1.31176E+02 2.23930E+01 0.00000E+00
 -1      3033 1.32100E+02 2.26686E+01 0.00000E+00
 -1      3034 1.18997E+02 1.60227E+01 0.00000E+00
 -1      3035 1.19639E+02 1.51900E+01 0.00000E+00
 -1      3036 1.18157E+02 1.54325E+01 0.00000E+00
 -1      3037 1.09934E+02 2.17000E+01 0.00000E+00
 -1      3038 1.27451E+02 1.76112E+01 0.00000E+00
 -1      3039 1.28532E+02 1.74530E+01 0.00000E+00
 -1      3040 1.27125E+02 1.63746E+01 0.00000E+00
 -1      3041 1.14046E+02 1.84730E+01 0.00000E+00
 -1      3042 1.21205E+02 1.47043E+01 0.00000E+00
 -1      3043 1.22793E+02 1.45981E+01 0.00000E+00
 -1      3044 1.16910E+01 1.24625E+01 0.00000E+00
 -1      3045 1.16910E+01 1.39375E+01 0.00000E+00
 -1      3046 1.08635E+02 3.78681E+01 0.00000E+00
 -1      3047 1.89000E+01 3.83090E+01 0.00000E+00
 -1      3048 2.04000E+01 3.83090E+01 0.00000E+00
 -1      3049 2.19000E+01 3.83090E+01 0.00000E+00
 -1      3050 2.34000E+01 3.83090E+01 0.00000E+00
 -1      3051 2.11500E+01 3.70100E+01 0.00000E+00
 -1      3052 2.49000E+01 3.83090E+01 0.00000E+00
 -1      3053 2.64000E+01 3.83090E+01 0.00000E+00
 -1      3054 2.41500E+01 3.70100E+01 0.00000E+00
 -1      3055 2.79000E+01 3.83090E+01 0.00000E+00
 -1      3056 2.94000E+01 3.83090E+01 0.00000E+00
 -1      3057 2.71500E+01 3.70100E+01 0.00000E+00
 -1      3058 3.09000E+01 3.83090E+01 0.00000E+00
 -1      3059 3.24000E+01 3.83090E+01 0.00000E+00
 -1      3060 3.01500E+01 3.70100E+01 0.00000E+00
 -1      3061 3.39000E+01 3.83090E+01 0.00000E+00
 -1      3062 3.54000E+01 3.83090E+01 0.00000E+00
 -1      3063 3.31500E+01 3.70100E+01 0.00000E+00
 -1      3064 3.69000E+01 3.83090E+01 0.00000E+00
 -1      3065 3.84000E+01 3.83090E+01 0.00000E+00
 -1      3066 3.61500E+01 3.70100E+01 0.00000E+00
 -1      3067 3.99000E+01 3.83090E+01 0.00000E+00
 -1      3068 4.14000E+01 3.83090E+01 0.00000E+00
 -1      3069 3.91500E+01 3.70100E+01 0.00000E+00
 -1      3070 4.29000E+01 3.83090E+01 0.00000E+00
 -1      3071 4.44000E+01 3.83090E+01 0.00000E+00
 -1      3072 4.21500E+01 3.70100E+01 0.00000E+00
 -1      3073 4.59000E+01 3.83090E+01 0.00000E+00
 -1      3074 4.74000E+01 3.83090E+01 0.00000E+00
 -1      3075 4.51500E+01 3.70100E+01 0.00000E+00
 -1      3076 4.89000E+01 3.83090E+01 0.00000E+00
 -1      3077 5.04000E+01 3.83090E+01 0.00000E+00
 -1      3078 4.81500E+01 3.70100E+01 0.00000E+00
 -1      3079 5.19000E+01 3.83090E+01 0.00000E+00
 -1      3080 5.34000E+01 3.83090E+01 0.00000E+00
 -1      3081 5.11500E+01 3.70100E+01 0.00000E+00
 -1      3082 5.49000E+01 3.83090E+01 0.00000E+00
 -1      3083 5.64000E+01 3.83090E+01 0.00000E+00
 -1      3084 5.41500E+01 3.70100E+01 0.00000E+00
 -1      3085 5.79000E+01 3.83090E+01 0.00000E+00
 -1      3086 5.94000E+01 3.83090E+01 0.00000E+00
 -1      3087 5.71500E+01 3.70100E+01 0.00000E+00
 -1      3088 6.09000E+01 3.83090E+01 0.00000E+00
 -1      3089 6.24000E+01 3.83090E+01 0.00000E+00
 -1      3090 6.01500E+01 3.70100E+01 0.00000E+00
 -1      3091 6.39000E+01 3.83090E+01 0.00000E+00
 -1      3092 6.54000E+01 3.83090E+01 0.00000E+00
 -1      3093 6.31500E+01 3.70100E+01 0.00000E+00
 -1      3094 6.69000E+01 3.83090E+01 0.00000E+00
 -1      3095 6.84000E+01 3.83090E+01 0.00000E+00
 -1      3096 6.61500E+01 3.70100E+01 0.00000E+00
 -1      3097 6.99000E+01 3.83090E+01 0.00000E+00
 -1      3098 7.14000E+01 3.83090E+01 0.00000E+00
 -1      3099 6.91500E+01 3.70100E+01 0.00000E+00
 -1      3100 7.29000E+01 3.83090E+01 0.00000E+00
 -1      3101 7.44000E+01 3.83090E+01 0.00000E+00
 -1      3102 7.21500E+01 3.70100E+01 0.00000E+00
 -1      3103 7.59000E+01 3.83090E+01 0.00000E+00
 -1      3104 7.74000E+01 3.83090E+01 0.00000E+00
 -1      3105 7.51500E+01 3.70100E+01 0.00000E+00
 -1      3106 7.89000E+01 3.83090E+01 0.00000E+00
 -1      3107 8.04000E+01 3.83090E+01 0.00000E+00
 -1      3108 7.81500E+01 3.70100E+01 0.00000E+00
 -1      3109 8.19000E+01 3.83090E+01 0.00000E+00
 -1      3110 8.34000E+01 3.83090E+01 0.00000E+00
 -1      3111 8.11500E+01 3.70100E+01 0.00000E+00
 -1      3112 8.49000E+01 3.83090E+01 0.00000E+00
 -1      3113 8.64000E+01 3.83090E+01 0.00000E+00
 -1      3114 8.41500E+01 3.70100E+01 0.00000E+00
 -1      3115 8.79000E+01 3.83090E+01 0.00000E+00
 -1      3116 8.94000E+01 3.83090E+01 0.00000E+00
 -1      3117 8.71500E+01 3.70100E+01 0.00000E+00
 -1      3118 9.09000E+01 3.83090E+01 0.00000E+00
 -1      3119 9.24000E+01 3.83090E+01 0.00000E+00
 -1      3120 9.01500E+01 3.70100E+01 0.00000E+00
 -1      3121 9.39000E+01 3.83090E+01 0.00000E+00
 -1      3122 9.54000E+01 3.83090E+01 0.00000E+00
 -1      3123 9.31500E+01 3.70100E+01 0.00000E+00
 -1      3124 9.69000E+01 3.83090E+01 0.00000E+00
 -1      3125 9.84000E+01 3.83090E+01 0.00000E+00
 -1      3126 9.61500E+01 3.70100E+01 0.00000E+00
 -1      3127 9.99000E+01 3.83090E+01 0.00000E+00
 -1      3128 1.01400E+02 3.83090E+01 0.00000E+00
 -1      3129 9.91500E+01 3.70100E+01 0.00000E+00
 -1      3130 1.02900E+02 3.83090E+01 0.00000E+00
 -1      3131 1.04400E+02 3.83090E+01 0.00000E+00
 -1      3132 1.02150E+02 3.70100E+01 0.00000E+00
 -1      3133 1.05767E+02 3.80886E+01 0.00000E+00
 -1      3134 1.07267E+02 3.80886E+01 0.00000E+00
 -1      3135 1.07752E+02 3.63487E+01 0.00000E+00
 -1      3136 1.05017E+02 3.67896E+01 0.00000E+00
 -1      3137 1.34094E+02 3.25744E+01 0.00000E+00
 -1      3138 1.33691E+02 3.39021E+01 0.00000E+00
 -1      3139 1.07562E+02 2.42457E+01 0.00000E+00
 -1      3140 1.08143E+02 2.30093E+01 0.00000E+00
 -1      3141 1.28024E+02 3.98672E+01 0.00000E+00
 -1      3142 1.32900E+02 3.85441E+01 0.00000E+00
 -1      3143 1.34400E+02 3.85441E+01 0.00000E+00
 -1      3144 1.35900E+02 3.85441E+01 0.00000E+00
 -1      3145 1.37400E+02 3.85441E+01 0.00000E+00
 -1      3146 1.35150E+02 3.72676E+01 0.00000E+00
 -1      3147 2.27850E+01 1.05013E+01 0.00000E+00
 -1      3148 2.12850E+01 1.05013E+01 0.00000E+00
 -1      3149 3.47850E+01 1.05013E+01 0.00000E+00
 -1      3150 3.32850E+01 1.05013E+01 0.00000E+00
 -1      3151 3.17850E+01 1.05013E+01 0.00000E+00
 -1      3152 3.02850E+01 1.05013E+01 0.00000E+00
 -1      3153 3.25350E+01 1.18003E+01 0.00000E+00
 -1      3154 4.07850E+01 1.05013E+01 0.00000E+00
 -1      3155 3.92850E+01 1.05013E+01 0.00000E+00
 -1      3156 4.37850E+01 1.05013E+01 0.00000E+00
 -1      3157 4.22850E+01 1.05013E+01 0.00000E+00
 -1      3158 4.15350E+01 1.18003E+01 0.00000E+00
 -1      3159 4.67850E+01 1.05013E+01 0.00000E+00
 -1      3160 4.52850E+01 1.05013E+01 0.00000E+00
 -1      3161 4.45350E+01 1.18003E+01 0.00000E+00
 -1      3162 4.97850E+01 1.05013E+01 0.00000E+00
 -1      3163 4.82850E+01 1.05013E+01 0.00000E+00
 -1      3164 4.75350E+01 1.18003E+01 0.00000E+00
 -1      3165 5.27850E+01 1.05013E+01 0.00000E+00
 -1      3166 5.12850E+01 1.05013E+01 0.00000E+00
 -1      3167 5.05350E+01 1.18003E+01 0.00000E+00
 -1      3168 5.57850E+01 1.05013E+01 0.00000E+00
 -1      3169 5.42850E+01 1.05013E+01 0.00000E+00
 -1      3170 5.35350E+01 1.18003E+01 0.00000E+00
 -1      3171 5.87850E+01 1.05013E+01 0.00000E+00
 -1      3172 5.72850E+01 1.05013E+01 0.00000E+00
 -1      3173 5.65350E+01 1.18003E+01 0.00000E+00
 -1      3174 6.17850E+01 1.05013E+01 0.00000E+00
 -1      3175 6.02850E+01 1.05013E+01 0.00000E+00
 -1      3176 5.95350E+01 1.18003E+01 0.00000E+00
 -1      3177 6.47850E+01 1.05013E+01 0.00000E+00
 -1      3178 6.32850E+01 1.05013E+01 0.00000E+00
 -1      3179 6.25350E+01 1.18003E+01 0.00000E+00
 -1      3180 6.77850E+01 1.05013E+01 0.00000E+00
 -1      3181 6.62850E+01 1.05013E+01 0.00000E+00
 -1      3182 6.55350E+01 1.18003E+01 0.00000E+00
 -1      3183 7.07850E+01 1.05013E+01 0.00000E+00
 -1      3184 6.92850E+01 1.05013E+01 0.00000E+00
 -1      3185 6.85350E+01 1.18003E+01 0.00000E+00
 -1      3186 7.37850E+01 1.05013E+01 0.00000E+00
 -1      3187 7.22850E+01 1.05013E+01 0.00000E+00
 -1      3188 7.15350E+01 1.18003E+01 0.00000E+00
 -1      3189 7.67850E+01 1.05013E+01 0.00000E+00
 -1      3190 7.52850E+01 1.05013E+01 0.00000E+00
 -1      3191 7.45350E+01 1.18003E+01 0.00000E+00
 -1      3192 7.97850E+01 1.05013E+01 0.00000E+00
 -1      3193 7.82850E+01 1.05013E+01 0.00000E+00
 -1      3194 7.75350E+01 1.18003E+01 0.00000E+00
 -1      3195 8.27850E+01 1.05013E+01 0.00000E+00
 -1      3196 8.12850E+01 1.05013E+01 0.00000E+00
 -1      3197 8.05350E+01 1.18003E+01 0.00000E+00
 -1      3198 8.57850E+01 1.05013E+01 0.00000E+00
 -1      3199 8.42850E+01 1.05013E+01 0.00000E+00
 -1      3200 8.35350E+01 1.18003E+01 0.00000E+00
 -1      3201 8.87850E+01 1.05013E+01 0.00000E+00
 -1      3202 8.72850E+01 1.05013E+01 0.00000E+00
 -1      3203 8.65350E+01 1.18003E+01 0.00000E+00
 -1      3204 9.17850E+01 1.05013E+01 0.00000E+00
 -1      3205 9.02850E+01 1.05013E+01 0.00000E+00
 -1      3206 8.95350E+01 1.18003E+01 0.00000E+00
 -1      3207 9.47850E+01 1.05013E+01 0.00000E+00
 -1      3208 9.32850E+01 1.05013E+01 0.00000E+00
 -1      3209 9.25350E+01 1.18003E+01 0.00000E+00
 -1      3210 9.77850E+01 1.05013E+01 0.00000E+00
 -1      3211 9.62850E+01 1.05013E+01 0.00000E+00
 -1      3212 9.55350E+01 1.18003E+01 0.00000E+00
 -1      3213 1.00785E+02 1.05013E+01 0.00000E+00
 -1      3214 9.92850E+01 1.05013E+01 0.00000E+00
 -1      3215 9.85350E+01 1.18003E+01 0.00000E+00
 -1      3216 1.03785E+02 1.05013E+01 0.00000E+00
 -1      3217 1.02285E+02 1.05013E+01 0.00000E+00
 -1      3218 1.01535E+02 1.18003E+01 0.00000E+00
 -1      3219 1.06785E+02 1.05013E+01 0.00000E+00
 -1      3220 1.05285E+02 1.05013E+01 0.00000E+00
 -1      3221 1.04535E+02 1.18003E+01 0.00000E+00
 -1      3222 1.09785E+02 1.05013E+01 0.00000E+00
 -1      3223 1.08285E+02 1.05013E+01 0.00000E+00
 -1      3224 1.07535E+02 1.18003E+01 0.00000E+00
 -1      3225 1.12785E+02 1.05013E+01 0.00000E+00
 -1      3226 1.11285E+02 1.05013E+01 0.00000E+00
 -1      3227 1.10535E+02 1.18003E+01 0.00000E+00
 -1      3228 1.15785E+02 1.05013E+01 0.00000E+00
 -1      3229 1.14285E+02 1.05013E+01 0.00000E+00
 -1      3230 1.13535E+02 1.18003E+01 0.00000E+00
 -1      3231 1.18785E+02 1.05013E+01 0.00000E+00
 -1      3232 1.17285E+02 1.05013E+01 0.00000E+00
 -1      3233 1.16535E+02 1.18003E+01 0.00000E+00
 -1      3234 1.22233E+02 1.14153E+01 0.00000E+00
 -1      3235 1.20733E+02 1.14153E+01 0.00000E+00
 -1      3236 1.27785E+02 1.05013E+01 0.00000E+00
 -1      3237 1.26285E+02 1.05013E+01 0.00000E+00
 -1      3238 1.30785E+02 1.05013E+01 0.00000E+00
 -1      3239 1.29285E+02 1.05013E+01 0.00000E+00
 -1      3240 1.28535E+02 1.18003E+01 0.00000E+00
 -1      3241 1.33785E+02 1.05013E+01 0.00000E+00
 -1      3242 1.32285E+02 1.05013E+01 0.00000E+00
 -1      3243 1.31535E+02 1.18003E+01 0.00000E+00
 -1      3244 1.39033E+02 3.86785E+01 0.00000E+00
 -1      3245 1.06782E+02 3.29544E+01 0.00000E+00
 -1      3246 1.06401E+02 3.15897E+01 0.00000E+00
 -1      3247 1.16910E+01 2.12875E+01 0.00000E+00
 -1      3248 1.16910E+01 2.27625E+01 0.00000E+00
 -1      3249 1.38460E+02 3.16125E+01 0.00000E+00
 -1      3250 1.38460E+02 3.01375E+01 0.00000E+00
 -1      3251 1.38544E+02 2.57625E+01 0.00000E+00
 -1      3252 1.38544E+02 2.42875E+01 0.00000E+00
 -1      3253 1.37303E+02 3.44301E+01 0.00000E+00
 -1      3254 1.37303E+02 3.29551E+01 0.00000E+00
 -1      3255 1.38460E+02 2.86875E+01 0.00000E+00
 -1      3256 1.38460E+02 2.72375E+01 0.00000E+00
 -1      3257 1.37268E+02 2.94250E+01 0.00000E+00
 -1      3258 1.24700E+02 1.47031E+01 0.00000E+00
 -1      3259 1.25894E+02 1.51857E+01 0.00000E+00
 -1      3260 1.39407E+02 1.25250E+01 0.00000E+00
 -1      3261 1.07213E+02 3.49539E+01 0.00000E+00
 -1      3262 3.77850E+01 1.05013E+01 0.00000E+00
 -1      3263 3.62850E+01 1.05013E+01 0.00000E+00
 -1      3264 3.55350E+01 1.18003E+01 0.00000E+00
 -1      3265 3.85350E+01 1.18003E+01 0.00000E+00
 -1      3266 1.97850E+01 1.05013E+01 0.00000E+00
 -1      3267 1.82850E+01 1.05013E+01 0.00000E+00
 -1      3268 2.05350E+01 1.18003E+01 0.00000E+00
 -1      3269 1.59000E+01 3.83090E+01 0.00000E+00
 -1      3270 1.74000E+01 3.83090E+01 0.00000E+00
 -1      3271 1.81500E+01 3.70100E+01 0.00000E+00
 -1      3272 1.33165E+02 2.39885E+01 0.00000E+00
 -1      3273 1.33601E+02 2.52771E+01 0.00000E+00
 -1      3274 1.15264E+02 1.63706E+01 0.00000E+00
 -1      3275 1.16476E+02 1.57430E+01 0.00000E+00
 -1      3276 1.08800E+02 2.17647E+01 0.00000E+00
 -1      3277 1.09449E+02 2.06732E+01 0.00000E+00
 -1      3278 1.26488E+01 1.02017E+01 0.00000E+00
 -1      3279 1.20772E+01 1.14631E+01 0.00000E+00
 -1      3280 1.33763E+01 1.22006E+01 0.00000E+00
 -1      3281 1.41488E+01 1.02017E+01 0.00000E+00
 -1      3282 1.34669E+02 3.01050E+01 0.00000E+00
 -1      3283 1.34313E+02 3.12764E+01 0.00000E+00
 -1      3284 1.33039E+02 3.57557E+01 0.00000E+00
 -1      3285 1.32208E+02 3.68956E+01 0.00000E+00
 -1      3286 1.26036E+02 3.99643E+01 0.00000E+00
 -1      3287 1.00862E+01 3.73269E+01 0.00000E+00
 -1      3288 1.12889E+02 1.82535E+01 0.00000E+00
 -1      3289 1.13935E+02 1.73009E+01 0.00000E+00
 -1      3290 1.29389E+02 1.75772E+01 0.00000E+00
 -1      3291 1.30246E+02 1.77014E+01 0.00000E+00
 -1      3292 1.29063E+02 1.63405E+01 0.00000E+00
 -1      3293 1.16910E+01 2.42375E+01 0.00000E+00
 -1      3294 1.16910E+01 2.57125E+01 0.00000E+00
 -1      3295 1.29900E+01 2.35000E+01 0.00000E+00
 -1      3296 1.29900E+01 1.46687E+01 0.00000E+00
 -1      3297 1.16910E+01 1.54063E+01 0.00000E+00
 -1      3298 1.16910E+01 1.68750E+01 0.00000E+00
 -1      3299 1.35173E+02 3.22623E+01 0.00000E+00
 -1      3300 1.09681E+02 1.99222E+01 0.00000E+00
 -1      3301 1.09912E+02 1.91711E+01 0.00000E+00
 -1      3302 1.08547E+02 1.99869E+01 0.00000E+00
 -1      3303 1.34443E+02 2.60325E+01 0.00000E+00
 -1      3304 1.06945E+02 2.52499E+01 0.00000E+00
 -1      3305 1.06383E+02 2.42314E+01 0.00000E+00
 -1      3306 1.07658E+02 2.19826E+01 0.00000E+00
 -1      3307 1.31458E+02 3.81721E+01 0.00000E+00
 -1      3308 1.32152E+01 3.82007E+01 0.00000E+00
 -1      3309 1.45576E+01 3.82548E+01 0.00000E+00
 -1      3310 1.53076E+01 3.69558E+01 0.00000E+00
 -1      3311 1.05954E+02 3.45696E+01 0.00000E+00
 -1      3312 1.38283E+02 3.74020E+01 0.00000E+00
 -1      3313 2.42850E+01 1.05013E+01 0.00000E+00
 -1      3314 2.35350E+01 1.18003E+01 0.00000E+00
 -1      3315 2.57850E+01 1.05013E+01 0.00000E+00
 -1      3316 1.14286E+01 3.73811E+01 0.00000E+00
 -1      3317 2.95350E+01 1.18003E+01 0.00000E+00
 -1      3318 2.87850E+01 1.05013E+01 0.00000E+00
 -1      3319 2.72850E+01 1.05013E+01 0.00000E+00
 -1      3320 1.19983E+02 1.27143E+01 0.00000E+00
 -1      3321 1.23565E+02 1.07936E+01 0.00000E+00
 -1      3322 1.23263E+02 1.30067E+01 0.00000E+00
 -1      3323 1.24125E+02 1.39764E+01 0.00000E+00
 -1      3324 1.25065E+02 1.07936E+01 0.00000E+00
 -1      3325 1.25815E+02 1.20926E+01 0.00000E+00
 -1      3326 1.34953E+02 1.07819E+01 0.00000E+00
 -1      3327 1.34203E+02 1.20809E+01 0.00000E+00
 -1      3328 1.36120E+02 1.10626E+01 0.00000E+00
 -1      3329 1.16910E+01 1.98188E+01 0.00000E+00
 -1      3330 1.29900E+01 2.05562E+01 0.00000E+00
 -1      3331 1.16910E+01 1.83500E+01 0.00000E+00
 -1      3332 1.38326E+02 1.98724E+01 0.00000E+00
 -1      3333 1.38315E+02 1.83974E+01 0.00000E+00
 -1      3334 1.38239E+02 1.22443E+01 0.00000E+00
 -1      3335 1.37072E+02 1.19636E+01 0.00000E+00
 -1      3336 1.38440E+02 1.44443E+01 0.00000E+00
 -1      3337 1.26975E+02 1.50274E+01 0.00000E+00
 -1      3338 1.38348E+02 2.28224E+01 0.00000E+00
 -1      3339 1.38337E+02 2.13474E+01 0.00000E+00
 -1      3340 1.37033E+02 2.06198E+01 0.00000E+00
 -1      3341 1.37351E+02 2.65000E+01 0.00000E+00
 -1      3342 1.38152E+02 3.62838E+01 0.00000E+00
 -1      3343 1.35802E+02 3.54140E+01 0.00000E+00
 -1      3344 1.05011E+02 3.12286E+01 0.00000E+00
 -1      3345 1.05889E+02 3.02481E+01 0.00000E+00
 -1      3346 1.69669E+01 1.03515E+01 0.00000E+00
 -1      3347 1.54669E+01 1.03515E+01 0.00000E+00
 -1      3348 1.50806E+01 1.13509E+01 0.00000E+00
 -1      3349 1.77169E+01 1.16505E+01 0.00000E+00
 -1      3350 1.06100E+02 2.89118E+01 0.00000E+00
 -1      3351 1.11912E+02 1.80939E+01 0.00000E+00
 -1      3352 1.14108E+02 1.61512E+01 0.00000E+00
 -1      3353 1.38377E+02 1.71521E+01 0.00000E+00
 -1      3354 1.38377E+02 1.56896E+01 0.00000E+00
 -1      3355 1.37210E+02 1.54089E+01 0.00000E+00
 -1      3356 1.37084E+02 1.78995E+01 0.00000E+00
 -1      3357 1.31397E+02 2.03015E+01 0.00000E+00
 -1      3358 1.32321E+02 2.05770E+01 0.00000E+00
 -1      3359 1.31495E+02 1.92137E+01 0.00000E+00
 -1      3360 1.33289E+02 2.29847E+01 0.00000E+00
 -1      3361 1.34302E+02 3.54140E+01 0.00000E+00
 -1      3362 1.16910E+01 3.30594E+01 0.00000E+00
 -1      3363 1.16910E+01 3.45281E+01 0.00000E+00
 -1      3364 1.06734E+02 2.65861E+01 0.00000E+00
 -1      3365 1.20364E+02 1.41141E+01 0.00000E+00
 -1      3366 1.37240E+02 2.35599E+01 0.00000E+00
 -1      3367 1.16910E+01 3.15906E+01 0.00000E+00
 -1      3368 1.29900E+01 3.23250E+01 0.00000E+00
 -1      3369 1.16910E+01 3.01219E+01 0.00000E+00
 -1      3370 1.18416E+02 1.32000E+01 0.00000E+00
 -1      3371 2.34000E+01 3.57110E+01 0.00000E+00
 -1      3372 2.49000E+01 3.57110E+01 0.00000E+00
 -1      3373 2.64000E+01 3.57110E+01 0.00000E+00
 -1      3374 2.79000E+01 3.57110E+01 0.00000E+00
 -1      3375 2.56500E+01 3.44120E+01 0.00000E+00
 -1      3376 2.94000E+01 3.57110E+01 0.00000E+00
 -1      3377 3.09000E+01 3.57110E+01 0.00000E+00
 -1      3378 2.86500E+01 3.44120E+01 0.00000E+00
 -1      3379 3.24000E+01 3.57110E+01 0.00000E+00
 -1      3380 3.39000E+01 3.57110E+01 0.00000E+00
 -1      3381 3.16500E+01 3.44120E+01 0.00000E+00
 -1      3382 3.54000E+01 3.57110E+01 0.00000E+00
 -1      3383 3.69000E+01 3.57110E+01 0.00000E+00
 -1      3384 3.46500E+01 3.44120E+01 0.00000E+00
 -1      3385 3.84000E+01 3.57110E+01 0.00000E+00
 -1      3386 3.99000E+01 3.57110E+01 0.00000E+00
 -1      3387 3.76500E+01 3.44120E+01 0.00000E+00
 -1      3388 4.14000E+01 3.57110E+01 0.00000E+00
 -1      3389 4.29000E+01 3.57110E+01 0.00000E+00
 -1      3390 4.06500E+01 3.44120E+01 0.00000E+00
 -1      3391 4.44000E+01 3.57110E+01 0.00000E+00
 -1      3392 4.59000E+01 3.57110E+01 0.00000E+00
 -1      3393 4.36500E+01 3.44120E+01 0.00000E+00
 -1      3394 4.74000E+01 3.57110E+01 0.00000E+00
 -1      3395 4.89000E+01 3.57110E+01 0.00000E+00
 -1      3396 4.66500E+01 3.44120E+01 0.00000E+00
 -1      3397 5.04000E+01 3.57110E+01 0.00000E+00
 -1      3398 5.19000E+01 3.57110E+01 0.00000E+00
 -1      3399 4.96500E+01 3.44120E+01 0.00000E+00
 -1      3400 5.34000E+01 3.57110E+01 0.00000E+00
 -1      3401 5.49000E+01 3.57110E+01 0.00000E+00
 -1      3402 5.26500E+01 3.44120E+01 0.00000E+00
 -1      3403 5.64000E+01 3.57110E+01 0.00000E+00
 -1      3404 5.79000E+01 3.57110E+01 0.00000E+00
 -1      3405 5.56500E+01 3.44120E+01 0.00000E+00
 -1      3406 5.94000E+01 3.57110E+01 0.00000E+00
 -1      3407 6.09000E+01 3.57110E+01 0.00000E+00
 -1      3408 5.86500E+01 3.44120E+01 0.00000E+00
 -1      3409 6.24000E+01 3.57110E+01 0.00000E+00
 -1      3410 6.39000E+01 3.57110E+01 0.00000E+00
 -1      3411 6.16500E+01 3.44120E+01 0.00000E+00
 -1      3412 6.54000E+01 3.57110E+01 0.00000E+00
 -1      3413 6.69000E+01 3.57110E+01 0.00000E+00
 -1      3414 6.46500E+01 3.44120E+01 0.00000E+00
 -1      3415 6.84000E+01 3.57110E+01 0.00000E+00
 -1      3416 6.99000E+01 3.57110E+01 0.00000E+00
 -1      3417 6.76500E+01 3.44120E+01 0.00000E+00
 -1      3418 7.14000E+01 3.57110E+01 0.00000E+00
 -1      3419 7.29000E+01 3.57110E+01 0.00000E+00
 -1      3420 7.06500E+01 3.44120E+01 0.00000E+00
 -1      3421 7.44000E+01 3.57110E+01 0.00000E+00
 -1      3422 7.59000E+01 3.57110E+01 0.00000E+00
 -1      3423 7.36500E+01 3.44120E+01 0.00000E+00
 -1      3424 7.74000E+01 3.57110E+01 0.00000E+00
 -1      3425 7.89000E+01 3.57110E+01 0.00000E+00
 -1      3426 7.66500E+01 3.44120E+01 0.00000E+00
 -1      3427 8.04000E+01 3.57110E+01 0.00000E+00
 -1      3428 8.19000E+01 3.57110E+01 0.00000E+00
 -1      3429 7.96500E+01 3.44120E+01 0.00000E+00
 -1      3430 8.34000E+01 3.57110E+01 0.00000E+00
 -1      3431 8.49000E+01 3.57110E+01 0.00000E+00
 -1      3432 8.26500E+01 3.44120E+01 0.00000E+00
 -1      3433 8.64000E+01 3.57110E+01 0.00000E+00
 -1      3434 8.79000E+01 3.57110E+01 0.00000E+00
 -1      3435 8.56500E+01 3.44120E+01 0.00000E+00
 -1      3436 8.94000E+01 3.57110E+01 0.00000E+00
 -1      3437 9.09000E+01 3.57110E+01 0.00000E+00
 -1      3438 8.86500E+01 3.44120E+01 0.00000E+00
 -1      3439 9.24000E+01 3.57110E+01 0.00000E+00
 -1      3440 9.39000E+01 3.57110E+01 0.00000E+00
 -1      3441 9.16500E+01 3.44120E+01 0.00000E+00
 -1      3442 9.54000E+01 3.57110E+01 0.00000E+00
 -1      3443 9.69000E+01 3.57110E+01 0.00000E+00
 -1      3444 9.46500E+01 3.44120E+01 0.00000E+00
 -1      3445 9.84000E+01 3.57110E+01 0.00000E+00
 -1      3446 9.99000E+01 3.57110E+01 0.00000E+00
 -1      3447 9.76500E+01 3.44120E+01 0.00000E+00
 -1      3448 1.01400E+02 3.57110E+01 0.00000E+00
 -1      3449 1.02900E+02 3.57110E+01 0.00000E+00
 -1      3450 1.00650E+02 3.44120E+01 0.00000E+00
 -1      3451 1.04587E+02 3.47901E+01 0.00000E+00
 -1      3452 1.06275E+02 2.20476E+01 0.00000E+00
 -1      3453 1.06932E+02 2.08030E+01 0.00000E+00
 -1      3454 1.29256E+02 3.92017E+01 0.00000E+00
 -1      3455 1.35899E+02 2.93177E+01 0.00000E+00
 -1      3456 1.35899E+02 2.78677E+01 0.00000E+00
 -1      3457 1.05133E+02 2.75613E+01 0.00000E+00
 -1      3458 4.52850E+01 1.30992E+01 0.00000E+00
 -1      3459 4.37850E+01 1.30992E+01 0.00000E+00
 -1      3460 4.22850E+01 1.30992E+01 0.00000E+00
 -1      3461 4.07850E+01 1.30992E+01 0.00000E+00
 -1      3462 4.30350E+01 1.43982E+01 0.00000E+00
 -1      3463 5.12850E+01 1.30992E+01 0.00000E+00
 -1      3464 4.97850E+01 1.30992E+01 0.00000E+00
 -1      3465 5.42850E+01 1.30992E+01 0.00000E+00
 -1      3466 5.27850E+01 1.30992E+01 0.00000E+00
 -1      3467 5.20350E+01 1.43982E+01 0.00000E+00
 -1      3468 5.72850E+01 1.30992E+01 0.00000E+00
 -1      3469 5.57850E+01 1.30992E+01 0.00000E+00
 -1      3470 5.50350E+01 1.43982E+01 0.00000E+00
 -1      3471 6.02850E+01 1.30992E+01 0.00000E+00
 -1      3472 5.87850E+01 1.30992E+01 0.00000E+00
 -1      3473 5.80350E+01 1.43982E+01 0.00000E+00
 -1      3474 6.32850E+01 1.30992E+01 0.00000E+00
 -1      3475 6.17850E+01 1.30992E+01 0.00000E+00
 -1      3476 6.10350E+01 1.43982E+01 0.00000E+00
 -1      3477 6.62850E+01 1.30992E+01 0.00000E+00
 -1      3478 6.47850E+01 1.30992E+01 0.00000E+00
 -1      3479 6.40350E+01 1.43982E+01 0.00000E+00
 -1      3480 6.92850E+01 1.30992E+01 0.00000E+00
 -1      3481 6.77850E+01 1.30992E+01 0.00000E+00
 -1      3482 6.70350E+01 1.43982E+01 0.00000E+00
 -1      3483 7.22850E+01 1.30992E+01 0.00000E+00
 -1      3484 7.07850E+01 1.30992E+01 0.00000E+00
 -1      3485 7.00350E+01 1.43982E+01 0.00000E+00
 -1      3486 7.52850E+01 1.30992E+01 0.00000E+00
 -1      3487 7.37850E+01 1.30992E+01 0.00000E+00
 -1      3488 7.30350E+01 1.43982E+01 0.00000E+00
 -1      3489 7.82850E+01 1.30992E+01 0.00000E+00
 -1      3490 7.67850E+01 1.30992E+01 0.00000E+00
 -1      3491 7.60350E+01 1.43982E+01 0.00000E+00
 -1      3492 8.12850E+01 1.30992E+01 0.00000E+00
 -1      3493 7.97850E+01 1.30992E+01 0.00000E+00
 -1      3494 7.90350E+01 1.43982E+01 0.00000E+00
 -1      3495 8.42850E+01 1.30992E+01 0.00000E+00
 -1      3496 8.27850E+01 1.30992E+01 0.00000E+00
 -1      3497 8.20350E+01 1.43982E+01 0.00000E+00
 -1      3498 8.72850E+01 1.30992E+01 0.00000E+00
 -1      3499 8.57850E+01 1.30992E+01 0.00000E+00
 -1      3500 8.50350E+01 1.43982E+01 0.00000E+00
 -1      3501 9.02850E+01 1.30992E+01 0.00000E+00
 -1      3502 8.87850E+01 1.30992E+01 0.00000E+00
 -1      3503 8.80350E+01 1.43982E+01 0.00000E+00
 -1      3504 9.32850E+01 1.30992E+01 0.00000E+00
 -1      3505 9.17850E+01 1.30992E+01 0.00000E+00
 -1      3506 9.10350E+01 1.43982E+01 0.00000E+00
 -1      3507 9.62850E+01 1.30992E+01 0.00000E+00
 -1      3508 9.47850E+01 1.30992E+01 0.00000E+00
 -1      3509 9.40350E+01 1.43982E+01 0.00000E+00
 -1      3510 9.92850E+01 1.30992E+01 0.00000E+00
 -1      3511 9.77850E+01 1.30992E+01 0.00000E+00
 -1      3512 9.70350E+01 1.43982E+01 0.00000E+00
 -1      3513 1.02285E+02 1.30992E+01 0.00000E+00
 -1      3514 1.00785E+02 1.30992E+01 0.00000E+00
 -1      3515 1.00035E+02 1.43982E+01 0.00000E+00
 -1      3516 1.05285E+02 1.30992E+01 0.00000E+00
 -1      3517 1.03785E+02 1.30992E+01 0.00000E+00
 -1      3518 1.03035E+02 1.43982E+01 0.00000E+00
 -1      3519 1.08285E+02 1.30992E+01 0.00000E+00
 -1      3520 1.06785E+02 1.30992E+01 0.00000E+00
 -1      3521 1.06035E+02 1.43982E+01 0.00000E+00
 -1      3522 1.11285E+02 1.30992E+01 0.00000E+00
 -1      3523 1.09785E+02 1.30992E+01 0.00000E+00
 -1      3524 1.09035E+02 1.43982E+01 0.00000E+00
 -1      3525 1.15236E+02 1.35106E+01 0.00000E+00
 -1      3526 1.13736E+02 1.35106E+01 0.00000E+00
 -1      3527 1.16736E+02 1.35106E+01 0.00000E+00
 -1      3528 1.25169E+02 1.31118E+01 0.00000E+00
 -1      3529 1.26389E+02 1.28194E+01 0.00000E+00
 -1      3530 1.29978E+02 1.41325E+01 0.00000E+00
 -1      3531 1.28478E+02 1.41325E+01 0.00000E+00
 -1      3532 1.35983E+02 2.63927E+01 0.00000E+00
 -1      3533 1.10636E+02 1.78794E+01 0.00000E+00
 -1      3534 1.11502E+02 1.68669E+01 0.00000E+00
 -1      3535 1.36111E+02 3.22176E+01 0.00000E+00
 -1      3536 1.04153E+02 3.23248E+01 0.00000E+00
 -1      3537 1.03641E+02 3.09832E+01 0.00000E+00
 -1      3538 1.05041E+02 2.40560E+01 0.00000E+00
 -1      3539 1.05658E+02 2.30518E+01 0.00000E+00
 -1      3540 1.04932E+02 2.18723E+01 0.00000E+00
 -1      3541 1.32840E+02 1.31067E+01 0.00000E+00
 -1      3542 1.31340E+02 1.31067E+01 0.00000E+00
 -1      3543 1.31283E+02 1.54390E+01 0.00000E+00
 -1      3544 1.34008E+02 1.33874E+01 0.00000E+00
 -1      3545 1.30756E+02 3.92017E+01 0.00000E+00
 -1      3546 1.74000E+01 3.57110E+01 0.00000E+00
 -1      3547 1.89000E+01 3.57110E+01 0.00000E+00
 -1      3548 4.82850E+01 1.30992E+01 0.00000E+00
 -1      3549 4.67850E+01 1.30992E+01 0.00000E+00
 -1      3550 4.60350E+01 1.43982E+01 0.00000E+00
 -1      3551 4.90350E+01 1.43982E+01 0.00000E+00
 -1      3552 1.16910E+01 2.71844E+01 0.00000E+00
 -1      3553 1.16910E+01 2.86531E+01 0.00000E+00
 -1      3554 1.29900E+01 2.93875E+01 0.00000E+00
 -1      3555 3.32850E+01 1.30992E+01 0.00000E+00
 -1      3556 3.17850E+01 1.30992E+01 0.00000E+00
 -1      3557 2.12850E+01 1.30992E+01 0.00000E+00
 -1      3558 1.97850E+01 1.30992E+01 0.00000E+00
 -1      3559 1.17118E+02 1.49103E+01 0.00000E+00
 -1      3560 2.04000E+01 3.57110E+01 0.00000E+00
 -1      3561 2.19000E+01 3.57110E+01 0.00000E+00
 -1      3562 2.26500E+01 3.44120E+01 0.00000E+00
 -1      3563 1.33489E+02 2.17335E+01 0.00000E+00
 -1      3564 1.34554E+02 2.30534E+01 0.00000E+00
 -1      3565 1.35899E+02 2.19485E+01 0.00000E+00
 -1      3566 1.35888E+02 2.04735E+01 0.00000E+00
 -1      3567 1.34776E+01 3.53477E+01 0.00000E+00
 -1      3568 1.21786E+01 3.60821E+01 0.00000E+00
 -1      3569 1.12406E+02 1.44408E+01 0.00000E+00
 -1      3570 1.35895E+02 2.46648E+01 0.00000E+00
 -1      3571 1.35699E+02 2.31997E+01 0.00000E+00
 -1      3572 1.42890E+01 2.27625E+01 0.00000E+00
 -1      3573 1.42890E+01 2.42375E+01 0.00000E+00
 -1      3574 1.42890E+01 1.39344E+01 0.00000E+00
 -1      3575 1.42890E+01 1.54031E+01 0.00000E+00
 -1      3576 1.07164E+02 2.00520E+01 0.00000E+00
 -1      3577 1.07395E+02 1.93009E+01 0.00000E+00
 -1      3578 1.05780E+02 2.01170E+01 0.00000E+00
 -1      3579 1.42890E+01 2.12938E+01 0.00000E+00
 -1      3580 1.55880E+01 2.20313E+01 0.00000E+00
 -1      3581 1.42890E+01 1.98250E+01 0.00000E+00
 -1      3582 3.62850E+01 1.30992E+01 0.00000E+00
 -1      3583 3.47850E+01 1.30992E+01 0.00000E+00
 -1      3584 3.40350E+01 1.43982E+01 0.00000E+00
 -1      3585 1.03837E+02 3.34911E+01 0.00000E+00
 -1      3586 1.96500E+01 3.44120E+01 0.00000E+00
 -1      3587 2.65350E+01 1.18003E+01 0.00000E+00
 -1      3588 3.02850E+01 1.30992E+01 0.00000E+00
 -1      3589 2.87850E+01 1.30992E+01 0.00000E+00
 -1      3590 3.10350E+01 1.43982E+01 0.00000E+00
 -1      3591 1.03827E+02 2.84546E+01 0.00000E+00
 -1      3592 1.04460E+02 2.61289E+01 0.00000E+00
 -1      3593 1.29900E+01 2.64469E+01 0.00000E+00
 -1      3594 4.00350E+01 1.43982E+01 0.00000E+00
 -1      3595 3.92850E+01 1.30992E+01 0.00000E+00
 -1      3596 3.77850E+01 1.30992E+01 0.00000E+00
 -1      3597 1.29900E+01 1.76125E+01 0.00000E+00
 -1      3598 1.03735E+02 2.49494E+01 0.00000E+00
 -1      3599 1.03009E+02 2.37698E+01 0.00000E+00
 -1      3600 1.02429E+02 2.58427E+01 0.00000E+00
 -1      3601 1.36330E+02 3.09196E+01 0.00000E+00
 -1      3602 1.42890E+01 3.15906E+01 0.00000E+00
 -1      3603 1.42890E+01 3.30594E+01 0.00000E+00
 -1      3604 1.02466E+02 3.32457E+01 0.00000E+00
 -1      3605 1.45545E+01 3.42306E+01 0.00000E+00
 -1      3606 1.50421E+01 3.57846E+01 0.00000E+00
 -1      3607 1.63845E+01 3.58387E+01 0.00000E+00
 -1      3608 1.58535E+01 3.34963E+01 0.00000E+00
 -1      3609 1.27620E+02 1.40083E+01 0.00000E+00
 -1      3610 1.84669E+01 1.29495E+01 0.00000E+00
 -1      3611 1.71488E+01 1.27997E+01 0.00000E+00
 -1      3612 1.92169E+01 1.42485E+01 0.00000E+00
 -1      3613 1.33586E+02 2.06457E+01 0.00000E+00
 -1      3614 1.02110E+02 3.06471E+01 0.00000E+00
 -1      3615 1.02969E+02 2.95509E+01 0.00000E+00
 -1      3616 1.02296E+02 2.81185E+01 0.00000E+00
 -1      3617 2.42850E+01 1.30992E+01 0.00000E+00
 -1      3618 2.27850E+01 1.30992E+01 0.00000E+00
 -1      3619 2.20350E+01 1.43982E+01 0.00000E+00
 -1      3620 1.35755E+02 1.84568E+01 0.00000E+00
 -1      3621 1.35818E+02 1.72115E+01 0.00000E+00
 -1      3622 1.71345E+01 3.45397E+01 0.00000E+00
 -1      3623 1.09502E+02 1.79441E+01 0.00000E+00
 -1      3624 1.34622E+02 1.97854E+01 0.00000E+00
 -1      3625 1.35607E+02 3.00604E+01 0.00000E+00
 -1      3626 1.31226E+02 1.67080E+01 0.00000E+00
 -1      3627 1.31552E+02 1.79446E+01 0.00000E+00
 -1      3628 1.32476E+02 1.82202E+01 0.00000E+00
 -1      3629 1.32589E+02 1.56822E+01 0.00000E+00
 -1      3630 2.79000E+01 3.31130E+01 0.00000E+00
 -1      3631 2.94000E+01 3.31130E+01 0.00000E+00
 -1      3632 3.09000E+01 3.31130E+01 0.00000E+00
 -1      3633 3.24000E+01 3.31130E+01 0.00000E+00
 -1      3634 3.01500E+01 3.18140E+01 0.00000E+00
 -1      3635 3.39000E+01 3.31130E+01 0.00000E+00
 -1      3636 3.54000E+01 3.31130E+01 0.00000E+00
 -1      3637 3.31500E+01 3.18140E+01 0.00000E+00
 -1      3638 3.69000E+01 3.31130E+01 0.00000E+00
 -1      3639 3.84000E+01 3.31130E+01 0.00000E+00
 -1      3640 3.61500E+01 3.18140E+01 0.00000E+00
 -1      3641 3.99000E+01 3.31130E+01 0.00000E+00
 -1      3642 4.14000E+01 3.31130E+01 0.00000E+00
 -1      3643 3.91500E+01 3.18140E+01 0.00000E+00
 -1      3644 4.29000E+01 3.31130E+01 0.00000E+00
 -1      3645 4.44000E+01 3.31130E+01 0.00000E+00
 -1      3646 4.21500E+01 3.18140E+01 0.00000E+00
 -1      3647 4.59000E+01 3.31130E+01 0.00000E+00
 -1      3648 4.74000E+01 3.31130E+01 0.00000E+00
 -1      3649 4.51500E+01 3.18140E+01 0.00000E+00
 -1      3650 4.89000E+01 3.31130E+01 0.00000E+00
 -1      3651 5.04000E+01 3.31130E+01 0.00000E+00
 -1      3652 4.81500E+01 3.18140E+01 0.00000E+00
 -1      3653 5.19000E+01 3.31130E+01 0.00000E+00
 -1      3654 5.34000E+01 3.31130E+01 0.00000E+00
 -1      3655 5.11500E+01 3.18140E+01 0.00000E+00
 -1      3656 5.49000E+01 3.31130E+01 0.00000E+00
 -1      3657 5.64000E+01 3.31130E+01 0.00000E+00
 -1      3658 5.41500E+01 3.18140E+01 0.00000E+00
 -1      3659 5.79000E+01 3.31130E+01 0.00000E+00
 -1      3660 5.94000E+01 3.31130E+01 0.00000E+00
 -1      3661 5.71500E+01 3.18140E+01 0.00000E+00
 -1      3662 6.09000E+01 3.31130E+01 0.00000E+00
 -1      3663 6.24000E+01 3.31130E+01 0.00000E+00
 -1      3664 6.01500E+01 3.18140E+01 0.00000E+00
 -1      3665 6.39000E+01 3.31130E+01 0.00000E+00
 -1      3666 6.54000E+01 3.31130E+01 0.00000E+00
 -1      3667 6.31500E+01 3.18140E+01 0.00000E+00
 -1      3668 6.69000E+01 3.31130E+01 0.00000E+00
 -1      3669 6.84000E+01 3.31130E+01 0.00000E+00
 -1      3670 6.61500E+01 3.18140E+01 0.00000E+00
 -1      3671 6.99000E+01 3.31130E+01 0.00000E+00
 -1      3672 7.14000E+01 3.31130E+01 0.00000E+00
 -1      3673 6.91500E+01 3.18140E+01 0.00000E+00
 -1      3674 7.29000E+01 3.31130E+01 0.00000E+00
 -1      3675 7.44000E+01 3.31130E+01 0.00000E+00
 -1      3676 7.21500E+01 3.18140E+01 0.00000E+00
 -1      3677 7.59000E+01 3.31130E+01 0.00000E+00
 -1      3678 7.74000E+01 3.31130E+01 0.00000E+00
 -1      3679 7.51500E+01 3.18140E+01 0.00000E+00
 -1      3680 7.89000E+01 3.31130E+01 0.00000E+00
 -1      3681 8.04000E+01 3.31130E+01 0.00000E+00
 -1      3682 7.81500E+01 3.18140E+01 0.00000E+00
 -1      3683 8.19000E+01 3.31130E+01 0.00000E+00
 -1      3684 8.34000E+01 3.31130E+01 0.00000E+00
 -1      3685 8.11500E+01 3.18140E+01 0.00000E+00
 -1      3686 8.49000E+01 3.31130E+01 0.00000E+00
 -1      3687 8.64000E+01 3.31130E+01 0.00000E+00
 -1      3688 8.41500E+01 3.18140E+01 0.00000E+00
 -1      3689 8.79000E+01 3.31130E+01 0.00000E+00
 -1      3690 8.94000E+01 3.31130E+01 0.00000E+00
 -1      3691 8.71500E+01 3.18140E+01 0.00000E+00
 -1      3692 9.09000E+01 3.31130E+01 0.00000E+00
 -1      3693 9.24000E+01 3.31130E+01 0.00000E+00
 -1      3694 9.01500E+01 3.18140E+01 0.00000E+00
 -1      3695 9.39000E+01 3.31130E+01 0.00000E+00
 -1      3696 9.54000E+01 3.31130E+01 0.00000E+00
 -1      3697 9.31500E+01 3.18140E+01 0.00000E+00
 -1      3698 9.69000E+01 3.31130E+01 0.00000E+00
 -1      3699 9.84000E+01 3.31130E+01 0.00000E+00
 -1      3700 9.61500E+01 3.18140E+01 0.00000E+00
 -1      3701 9.96832E+01 3.31794E+01 0.00000E+00
 -1      3702 1.01183E+02 3.31794E+01 0.00000E+00
 -1      3703 1.01499E+02 3.20131E+01 0.00000E+00
 -1      3704 9.89332E+01 3.18804E+01 0.00000E+00
 -1      3705 4.37850E+01 1.56973E+01 0.00000E+00
 -1      3706 4.22850E+01 1.56973E+01 0.00000E+00
 -1      3707 1.42890E+01 2.57094E+01 0.00000E+00
 -1      3708 1.42890E+01 2.71812E+01 0.00000E+00
 -1      3709 1.55880E+01 2.49719E+01 0.00000E+00
 -1      3710 5.57850E+01 1.56973E+01 0.00000E+00
 -1      3711 5.42850E+01 1.56973E+01 0.00000E+00
 -1      3712 5.27850E+01 1.56973E+01 0.00000E+00
 -1      3713 5.12850E+01 1.56973E+01 0.00000E+00
 -1      3714 5.35350E+01 1.69963E+01 0.00000E+00
 -1      3715 6.17850E+01 1.56973E+01 0.00000E+00
 -1      3716 6.02850E+01 1.56973E+01 0.00000E+00
 -1      3717 6.47850E+01 1.56973E+01 0.00000E+00
 -1      3718 6.32850E+01 1.56973E+01 0.00000E+00
 -1      3719 6.25350E+01 1.69963E+01 0.00000E+00
 -1      3720 6.77850E+01 1.56973E+01 0.00000E+00
 -1      3721 6.62850E+01 1.56973E+01 0.00000E+00
 -1      3722 6.55350E+01 1.69963E+01 0.00000E+00
 -1      3723 7.07850E+01 1.56973E+01 0.00000E+00
 -1      3724 6.92850E+01 1.56973E+01 0.00000E+00
 -1      3725 6.85350E+01 1.69963E+01 0.00000E+00
 -1      3726 7.37850E+01 1.56973E+01 0.00000E+00
 -1      3727 7.22850E+01 1.56973E+01 0.00000E+00
 -1      3728 7.15350E+01 1.69963E+01 0.00000E+00
 -1      3729 7.67850E+01 1.56973E+01 0.00000E+00
 -1      3730 7.52850E+01 1.56973E+01 0.00000E+00
 -1      3731 7.45350E+01 1.69963E+01 0.00000E+00
 -1      3732 7.97850E+01 1.56973E+01 0.00000E+00
 -1      3733 7.82850E+01 1.56973E+01 0.00000E+00
 -1      3734 7.75350E+01 1.69963E+01 0.00000E+00
 -1      3735 8.27850E+01 1.56973E+01 0.00000E+00
 -1      3736 8.12850E+01 1.56973E+01 0.00000E+00
 -1      3737 8.05350E+01 1.69963E+01 0.00000E+00
 -1      3738 8.57850E+01 1.56973E+01 0.00000E+00
 -1      3739 8.42850E+01 1.56973E+01 0.00000E+00
 -1      3740 8.35350E+01 1.69963E+01 0.00000E+00
 -1      3741 8.87850E+01 1.56973E+01 0.00000E+00
 -1      3742 8.72850E+01 1.56973E+01 0.00000E+00
 -1      3743 8.65350E+01 1.69963E+01 0.00000E+00
 -1      3744 9.17850E+01 1.56973E+01 0.00000E+00
 -1      3745 9.02850E+01 1.56973E+01 0.00000E+00
 -1      3746 8.95350E+01 1.69963E+01 0.00000E+00
 -1      3747 9.47850E+01 1.56973E+01 0.00000E+00
 -1      3748 9.32850E+01 1.56973E+01 0.00000E+00
 -1      3749 9.25350E+01 1.69963E+01 0.00000E+00
 -1      3750 9.77850E+01 1.56973E+01 0.00000E+00
 -1      3751 9.62850E+01 1.56973E+01 0.00000E+00
 -1      3752 9.55350E+01 1.69963E+01 0.00000E+00
 -1      3753 1.00785E+02 1.56973E+01 0.00000E+00
 -1      3754 9.92850E+01 1.56973E+01 0.00000E+00
 -1      3755 9.85350E+01 1.69963E+01 0.00000E+00
 -1      3756 1.03785E+02 1.56973E+01 0.00000E+00
 -1      3757 1.02285E+02 1.56973E+01 0.00000E+00
 -1      3758 1.01535E+02 1.69963E+01 0.00000E+00
 -1      3759 1.06773E+02 1.68821E+01 0.00000E+00
 -1      3760 1.05273E+02 1.68821E+01 0.00000E+00
 -1      3761 1.10381E+02 1.55253E+01 0.00000E+00
 -1      3762 1.08881E+02 1.55253E+01 0.00000E+00
 -1      3763 1.11656E+02 1.57398E+01 0.00000E+00
 -1      3764 1.36322E+02 1.32626E+01 0.00000E+00
 -1      3765 1.42890E+01 3.01219E+01 0.00000E+00
 -1      3766 1.55880E+01 3.08563E+01 0.00000E+00
 -1      3767 1.42890E+01 2.86531E+01 0.00000E+00
 -1      3768 1.66035E+01 3.21973E+01 0.00000E+00
 -1      3769 1.68690E+01 3.33685E+01 0.00000E+00
 -1      3770 1.78845E+01 3.32407E+01 0.00000E+00
 -1      3771 1.03607E+02 2.17500E+01 0.00000E+00
 -1      3772 1.04224E+02 2.07458E+01 0.00000E+00
 -1      3773 1.42890E+01 1.68766E+01 0.00000E+00
 -1      3774 1.42890E+01 1.83516E+01 0.00000E+00
 -1      3775 1.55880E+01 1.90891E+01 0.00000E+00
 -1      3776 1.55880E+01 1.61422E+01 0.00000E+00
 -1      3777 1.36038E+02 1.58597E+01 0.00000E+00
 -1      3778 1.36101E+02 1.46144E+01 0.00000E+00
 -1      3779 1.35150E+02 1.37134E+01 0.00000E+00
 -1      3780 1.34710E+02 1.64169E+01 0.00000E+00
 -1      3781 1.93845E+01 3.32407E+01 0.00000E+00
 -1      3782 2.08845E+01 3.32407E+01 0.00000E+00
 -1      3783 1.91190E+01 3.20695E+01 0.00000E+00
 -1      3784 1.33454E+02 1.86290E+01 0.00000E+00
 -1      3785 2.72850E+01 1.30992E+01 0.00000E+00
 -1      3786 2.57850E+01 1.30992E+01 0.00000E+00
 -1      3787 2.50350E+01 1.43982E+01 0.00000E+00
 -1      3788 2.49000E+01 3.31130E+01 0.00000E+00
 -1      3789 2.64000E+01 3.31130E+01 0.00000E+00
 -1      3790 2.71500E+01 3.18140E+01 0.00000E+00
 -1      3791 2.21423E+01 3.31769E+01 0.00000E+00
 -1      3792 2.36423E+01 3.31769E+01 0.00000E+00
 -1      3793 2.43923E+01 3.18779E+01 0.00000E+00
 -1      3794 2.18768E+01 3.20056E+01 0.00000E+00
 -1      3795 1.33511E+02 1.73600E+01 0.00000E+00
 -1      3796 1.46944E+01 1.23503E+01 0.00000E+00
 -1      3797 1.59934E+01 1.30847E+01 0.00000E+00
 -1      3798 5.87850E+01 1.56973E+01 0.00000E+00
 -1      3799 5.72850E+01 1.56973E+01 0.00000E+00
 -1      3800 5.95350E+01 1.69963E+01 0.00000E+00
 -1      3801 1.67434E+01 1.43837E+01 0.00000E+00
 -1      3802 1.33788E+02 1.47392E+01 0.00000E+00
 -1      3803 1.33731E+02 1.60082E+01 0.00000E+00
 -1      3804 3.70350E+01 1.43982E+01 0.00000E+00
 -1      3805 4.15350E+01 1.69963E+01 0.00000E+00
 -1      3806 4.07850E+01 1.56973E+01 0.00000E+00
 -1      3807 3.92850E+01 1.56973E+01 0.00000E+00
 -1      3808 1.68870E+01 2.42359E+01 0.00000E+00
 -1      3809 1.68870E+01 2.57078E+01 0.00000E+00
 -1      3810 1.55880E+01 2.79156E+01 0.00000E+00
 -1      3811 1.00827E+02 3.05807E+01 0.00000E+00
 -1      3812 3.17850E+01 1.56973E+01 0.00000E+00
 -1      3813 3.02850E+01 1.56973E+01 0.00000E+00
 -1      3814 2.27850E+01 1.56973E+01 0.00000E+00
 -1      3815 2.12850E+01 1.56973E+01 0.00000E+00
 -1      3816 5.65350E+01 1.69963E+01 0.00000E+00
 -1      3817 5.05350E+01 1.69963E+01 0.00000E+00
 -1      3818 4.97850E+01 1.56973E+01 0.00000E+00
 -1      3819 4.82850E+01 1.56973E+01 0.00000E+00
 -1      3820 1.08119E+02 1.80092E+01 0.00000E+00
 -1      3821 1.67434E+01 1.58572E+01 0.00000E+00
 -1      3822 1.67434E+01 1.73306E+01 0.00000E+00
 -1      3823 1.78988E+01 1.55721E+01 0.00000E+00
 -1      3824 1.01571E+02 2.69390E+01 0.00000E+00
 -1      3825 1.00845E+02 2.57594E+01 0.00000E+00
 -1      3826 1.00713E+02 2.80352E+01 0.00000E+00
 -1      3827 3.47850E+01 1.56973E+01 0.00000E+00
 -1      3828 3.32850E+01 1.56973E+01 0.00000E+00
 -1      3829 3.25350E+01 1.69963E+01 0.00000E+00
 -1      3830 1.66035E+01 3.07285E+01 0.00000E+00
 -1      3831 1.00995E+02 2.35367E+01 0.00000E+00
 -1      3832 1.02301E+02 2.26434E+01 0.00000E+00
 -1      3833 1.01594E+02 2.15169E+01 0.00000E+00
 -1      3834 4.52850E+01 1.56973E+01 0.00000E+00
 -1      3835 4.45350E+01 1.69963E+01 0.00000E+00
 -1      3836 4.67850E+01 1.56973E+01 0.00000E+00
 -1      3837 1.92169E+01 1.57219E+01 0.00000E+00
 -1      3838 1.03131E+02 1.98726E+01 0.00000E+00
 -1      3839 1.04456E+02 1.99948E+01 0.00000E+00
 -1      3840 1.04687E+02 1.92438E+01 0.00000E+00
 -1      3841 1.99669E+01 1.70209E+01 0.00000E+00
 -1      3842 1.68870E+01 2.12984E+01 0.00000E+00
 -1      3843 1.68870E+01 2.27672E+01 0.00000E+00
 -1      3844 1.81860E+01 2.35031E+01 0.00000E+00
 -1      3845 2.80350E+01 1.43982E+01 0.00000E+00
 -1      3846 2.87850E+01 1.56973E+01 0.00000E+00
 -1      3847 2.72850E+01 1.56973E+01 0.00000E+00
 -1      3848 2.95350E+01 1.69963E+01 0.00000E+00
 -1      3849 3.24000E+01 3.05150E+01 0.00000E+00
 -1      3850 3.39000E+01 3.05150E+01 0.00000E+00
 -1      3851 3.54000E+01 3.05150E+01 0.00000E+00
 -1      3852 3.69000E+01 3.05150E+01 0.00000E+00
 -1      3853 3.46500E+01 2.92160E+01 0.00000E+00
 -1      3854 3.84000E+01 3.05150E+01 0.00000E+00
 -1      3855 3.99000E+01 3.05150E+01 0.00000E+00
 -1      3856 3.76500E+01 2.92160E+01 0.00000E+00
 -1      3857 4.14000E+01 3.05150E+01 0.00000E+00
 -1      3858 4.29000E+01 3.05150E+01 0.00000E+00
 -1      3859 4.06500E+01 2.92160E+01 0.00000E+00
 -1      3860 4.44000E+01 3.05150E+01 0.00000E+00
 -1      3861 4.59000E+01 3.05150E+01 0.00000E+00
 -1      3862 4.36500E+01 2.92160E+01 0.00000E+00
 -1      3863 4.74000E+01 3.05150E+01 0.00000E+00
 -1      3864 4.89000E+01 3.05150E+01 0.00000E+00
 -1      3865 4.66500E+01 2.92160E+01 0.00000E+00
 -1      3866 5.04000E+01 3.05150E+01 0.00000E+00
 -1      3867 5.19000E+01 3.05150E+01 0.00000E+00
 -1      3868 4.96500E+01 2.92160E+01 0.00000E+00
 -1      3869 5.34000E+01 3.05150E+01 0.00000E+00
 -1      3870 5.49000E+01 3.05150E+01 0.00000E+00
 -1      3871 5.26500E+01 2.92160E+01 0.00000E+00
 -1      3872 5.64000E+01 3.05150E+01 0.00000E+00
 -1      3873 5.79000E+01 3.05150E+01 0.00000E+00
 -1      3874 5.56500E+01 2.92160E+01 0.00000E+00
 -1      3875 5.94000E+01 3.05150E+01 0.00000E+00
 -1      3876 6.09000E+01 3.05150E+01 0.00000E+00
 -1      3877 5.86500E+01 2.92160E+01 0.00000E+00
 -1      3878 6.24000E+01 3.05150E+01 0.00000E+00
 -1      3879 6.39000E+01 3.05150E+01 0.00000E+00
 -1      3880 6.16500E+01 2.92160E+01 0.00000E+00
 -1      3881 6.54000E+01 3.05150E+01 0.00000E+00
 -1      3882 6.69000E+01 3.05150E+01 0.00000E+00
 -1      3883 6.46500E+01 2.92160E+01 0.00000E+00
 -1      3884 6.84000E+01 3.05150E+01 0.00000E+00
 -1      3885 6.99000E+01 3.05150E+01 0.00000E+00
 -1      3886 6.76500E+01 2.92160E+01 0.00000E+00
 -1      3887 7.14000E+01 3.05150E+01 0.00000E+00
 -1      3888 7.29000E+01 3.05150E+01 0.00000E+00
 -1      3889 7.06500E+01 2.92160E+01 0.00000E+00
 -1      3890 7.44000E+01 3.05150E+01 0.00000E+00
 -1      3891 7.59000E+01 3.05150E+01 0.00000E+00
 -1      3892 7.36500E+01 2.92160E+01 0.00000E+00
 -1      3893 7.74000E+01 3.05150E+01 0.00000E+00
 -1      3894 7.89000E+01 3.05150E+01 0.00000E+00
 -1      3895 7.66500E+01 2.92160E+01 0.00000E+00
 -1      3896 8.04000E+01 3.05150E+01 0.00000E+00
 -1      3897 8.19000E+01 3.05150E+01 0.00000E+00
 -1      3898 7.96500E+01 2.92160E+01 0.00000E+00
 -1      3899 8.34000E+01 3.05150E+01 0.00000E+00
 -1      3900 8.49000E+01 3.05150E+01 0.00000E+00
 -1      3901 8.26500E+01 2.92160E+01 0.00000E+00
 -1      3902 8.64000E+01 3.05150E+01 0.00000E+00
 -1      3903 8.79000E+01 3.05150E+01 0.00000E+00
 -1      3904 8.56500E+01 2.92160E+01 0.00000E+00
 -1      3905 8.94000E+01 3.05150E+01 0.00000E+00
 -1      3906 9.09000E+01 3.05150E+01 0.00000E+00
 -1      3907 8.86500E+01 2.92160E+01 0.00000E+00
 -1      3908 9.24000E+01 3.05150E+01 0.00000E+00
 -1      3909 9.39000E+01 3.05150E+01 0.00000E+00
 -1      3910 9.16500E+01 2.92160E+01 0.00000E+00
 -1      3911 9.54000E+01 3.05150E+01 0.00000E+00
 -1      3912 9.69000E+01 3.05150E+01 0.00000E+00
 -1      3913 9.46500E+01 2.92160E+01 0.00000E+00
 -1      3914 9.81832E+01 3.05814E+01 0.00000E+00
 -1      3915 9.94663E+01 3.06477E+01 0.00000E+00
 -1      3916 9.74332E+01 2.92824E+01 0.00000E+00
 -1      3917 1.68870E+01 2.71797E+01 0.00000E+00
 -1      3918 1.68870E+01 2.86516E+01 0.00000E+00
 -1      3919 1.81860E+01 2.64438E+01 0.00000E+00
 -1      3920 2.42850E+01 1.56973E+01 0.00000E+00
 -1      3921 2.35350E+01 1.69963E+01 0.00000E+00
 -1      3922 2.57850E+01 1.56973E+01 0.00000E+00
 -1      3923 1.79025E+01 2.99926E+01 0.00000E+00
 -1      3924 5.72850E+01 1.82952E+01 0.00000E+00
 -1      3925 5.57850E+01 1.82952E+01 0.00000E+00
 -1      3926 6.62850E+01 1.82952E+01 0.00000E+00
 -1      3927 6.47850E+01 1.82952E+01 0.00000E+00
 -1      3928 6.32850E+01 1.82952E+01 0.00000E+00
 -1      3929 6.17850E+01 1.82952E+01 0.00000E+00
 -1      3930 6.40350E+01 1.95942E+01 0.00000E+00
 -1      3931 7.22850E+01 1.82952E+01 0.00000E+00
 -1      3932 7.07850E+01 1.82952E+01 0.00000E+00
 -1      3933 7.52850E+01 1.82952E+01 0.00000E+00
 -1      3934 7.37850E+01 1.82952E+01 0.00000E+00
 -1      3935 7.30350E+01 1.95942E+01 0.00000E+00
 -1      3936 7.82850E+01 1.82952E+01 0.00000E+00
 -1      3937 7.67850E+01 1.82952E+01 0.00000E+00
 -1      3938 7.60350E+01 1.95942E+01 0.00000E+00
 -1      3939 8.12850E+01 1.82952E+01 0.00000E+00
 -1      3940 7.97850E+01 1.82952E+01 0.00000E+00
 -1      3941 7.90350E+01 1.95942E+01 0.00000E+00
 -1      3942 8.42850E+01 1.82952E+01 0.00000E+00
 -1      3943 8.27850E+01 1.82952E+01 0.00000E+00
 -1      3944 8.20350E+01 1.95942E+01 0.00000E+00
 -1      3945 8.72850E+01 1.82952E+01 0.00000E+00
 -1      3946 8.57850E+01 1.82952E+01 0.00000E+00
 -1      3947 8.50350E+01 1.95942E+01 0.00000E+00
 -1      3948 9.02850E+01 1.82952E+01 0.00000E+00
 -1      3949 8.87850E+01 1.82952E+01 0.00000E+00
 -1      3950 8.80350E+01 1.95942E+01 0.00000E+00
 -1      3951 9.32850E+01 1.82952E+01 0.00000E+00
 -1      3952 9.17850E+01 1.82952E+01 0.00000E+00
 -1      3953 9.10350E+01 1.95942E+01 0.00000E+00
 -1      3954 9.62850E+01 1.82952E+01 0.00000E+00
 -1      3955 9.47850E+01 1.82952E+01 0.00000E+00
 -1      3956 9.40350E+01 1.95942E+01 0.00000E+00
 -1      3957 9.92850E+01 1.82952E+01 0.00000E+00
 -1      3958 9.77850E+01 1.82952E+01 0.00000E+00
 -1      3959 9.70350E+01 1.95942E+01 0.00000E+00
 -1      3960 1.04523E+02 1.81811E+01 0.00000E+00
 -1      3961 1.94025E+01 2.99926E+01 0.00000E+00
 -1      3962 1.00077E+02 2.92817E+01 0.00000E+00
 -1      3963 1.68152E+01 1.85778E+01 0.00000E+00
 -1      3964 1.68152E+01 2.00512E+01 0.00000E+00
 -1      3965 1.81142E+01 2.07872E+01 0.00000E+00
 -1      3966 1.79706E+01 1.82928E+01 0.00000E+00
 -1      3967 6.02850E+01 1.82952E+01 0.00000E+00
 -1      3968 5.87850E+01 1.82952E+01 0.00000E+00
 -1      3969 5.80350E+01 1.95942E+01 0.00000E+00
 -1      3970 5.42850E+01 1.82952E+01 0.00000E+00
 -1      3971 5.27850E+01 1.82952E+01 0.00000E+00
 -1      3972 5.50350E+01 1.95942E+01 0.00000E+00
 -1      3973 6.92850E+01 1.82952E+01 0.00000E+00
 -1      3974 6.77850E+01 1.82952E+01 0.00000E+00
 -1      3975 6.70350E+01 1.95942E+01 0.00000E+00
 -1      3976 3.77850E+01 1.56973E+01 0.00000E+00
 -1      3977 3.62850E+01 1.56973E+01 0.00000E+00
 -1      3978 3.55350E+01 1.69963E+01 0.00000E+00
 -1      3979 3.85350E+01 1.69963E+01 0.00000E+00
 -1      3980 2.64000E+01 3.05150E+01 0.00000E+00
 -1      3981 2.79000E+01 3.05150E+01 0.00000E+00
 -1      3982 2.00387E+01 1.82681E+01 0.00000E+00
 -1      3983 2.94000E+01 3.05150E+01 0.00000E+00
 -1      3984 3.09000E+01 3.05150E+01 0.00000E+00
 -1      3985 3.16500E+01 2.92160E+01 0.00000E+00
 -1      3986 7.00350E+01 1.95942E+01 0.00000E+00
 -1      3987 4.22850E+01 1.82952E+01 0.00000E+00
 -1      3988 4.07850E+01 1.82952E+01 0.00000E+00
 -1      3989 1.94850E+01 2.57078E+01 0.00000E+00
 -1      3990 1.94850E+01 2.71797E+01 0.00000E+00
 -1      3991 2.65350E+01 1.69963E+01 0.00000E+00
 -1      3992 1.94850E+01 2.27703E+01 0.00000E+00
 -1      3993 1.94850E+01 2.42391E+01 0.00000E+00
 -1      3994 2.07840E+01 2.49750E+01 0.00000E+00
 -1      3995 5.12850E+01 1.82952E+01 0.00000E+00
 -1      3996 4.97850E+01 1.82952E+01 0.00000E+00
 -1      3997 5.20350E+01 1.95942E+01 0.00000E+00
 -1      3998 2.42850E+01 1.82952E+01 0.00000E+00
 -1      3999 2.27850E+01 1.82952E+01 0.00000E+00
 -1      4000 6.10350E+01 1.95942E+01 0.00000E+00
 -1      4001 1.03199E+02 1.80589E+01 0.00000E+00
 -1      4002 1.02285E+02 1.82952E+01 0.00000E+00
 -1      4003 1.00785E+02 1.82952E+01 0.00000E+00
 -1      4004 2.00726E+01 2.85542E+01 0.00000E+00
 -1      4005 2.12891E+01 3.06311E+01 0.00000E+00
 -1      4006 2.25469E+01 3.05672E+01 0.00000E+00
 -1      4007 2.13716E+01 2.78183E+01 0.00000E+00
 -1      4008 1.00035E+02 1.95942E+01 0.00000E+00
 -1      4009 3.02850E+01 1.82952E+01 0.00000E+00
 -1      4010 2.87850E+01 1.82952E+01 0.00000E+00
 -1      4011 9.93516E+01 2.81022E+01 0.00000E+00
 -1      4012 2.51423E+01 3.05789E+01 0.00000E+00
 -1      4013 2.58923E+01 2.92799E+01 0.00000E+00
 -1      4014 2.38845E+01 3.06427E+01 0.00000E+00
 -1      4015 1.00137E+02 2.46330E+01 0.00000E+00
 -1      4016 9.94295E+01 2.35065E+01 0.00000E+00
 -1      4017 9.92792E+01 2.57292E+01 0.00000E+00
 -1      4018 4.75350E+01 1.69963E+01 0.00000E+00
 -1      4019 4.52850E+01 1.82952E+01 0.00000E+00
 -1      4020 4.37850E+01 1.82952E+01 0.00000E+00
 -1      4021 4.30350E+01 1.95942E+01 0.00000E+00
 -1      4022 1.02217E+02 2.01089E+01 0.00000E+00
 -1      4023 1.02449E+02 1.93579E+01 0.00000E+00
 -1      4024 2.07887E+01 1.95671E+01 0.00000E+00
 -1      4025 3.32850E+01 1.82952E+01 0.00000E+00
 -1      4026 3.17850E+01 1.82952E+01 0.00000E+00
 -1      4027 3.10350E+01 1.95942E+01 0.00000E+00
 -1      4028 2.86500E+01 2.92160E+01 0.00000E+00
 -1      4029 1.00911E+02 2.10023E+01 0.00000E+00
 -1      4030 9.94113E+01 2.10023E+01 0.00000E+00
 -1      4031 7.07850E+01 2.08932E+01 0.00000E+00
 -1      4032 6.92850E+01 2.08932E+01 0.00000E+00
 -1      4033 3.69000E+01 2.79170E+01 0.00000E+00
 -1      4034 3.84000E+01 2.79170E+01 0.00000E+00
 -1      4035 3.99000E+01 2.79170E+01 0.00000E+00
 -1      4036 4.14000E+01 2.79170E+01 0.00000E+00
 -1      4037 3.91500E+01 2.66180E+01 0.00000E+00
 -1      4038 4.29000E+01 2.79170E+01 0.00000E+00
 -1      4039 4.44000E+01 2.79170E+01 0.00000E+00
 -1      4040 4.21500E+01 2.66180E+01 0.00000E+00
 -1      4041 4.59000E+01 2.79170E+01 0.00000E+00
 -1      4042 4.74000E+01 2.79170E+01 0.00000E+00
 -1      4043 4.51500E+01 2.66180E+01 0.00000E+00
 -1      4044 4.89000E+01 2.79170E+01 0.00000E+00
 -1      4045 5.04000E+01 2.79170E+01 0.00000E+00
 -1      4046 4.81500E+01 2.66180E+01 0.00000E+00
 -1      4047 5.19000E+01 2.79170E+01 0.00000E+00
 -1      4048 5.34000E+01 2.79170E+01 0.00000E+00
 -1      4049 5.11500E+01 2.66180E+01 0.00000E+00
 -1      4050 5.49000E+01 2.79170E+01 0.00000E+00
 -1      4051 5.64000E+01 2.79170E+01 0.00000E+00
 -1      4052 5.41500E+01 2.66180E+01 0.00000E+00
 -1      4053 5.79000E+01 2.79170E+01 0.00000E+00
 -1      4054 5.94000E+01 2.79170E+01 0.00000E+00
 -1      4055 5.71500E+01 2.66180E+01 0.00000E+00
 -1      4056 6.09000E+01 2.79170E+01 0.00000E+00
 -1      4057 6.24000E+01 2.79170E+01 0.00000E+00
 -1      4058 6.01500E+01 2.66180E+01 0.00000E+00
 -1      4059 6.39000E+01 2.79170E+01 0.00000E+00
 -1      4060 6.54000E+01 2.79170E+01 0.00000E+00
 -1      4061 6.31500E+01 2.66180E+01 0.00000E+00
 -1      4062 6.69000E+01 2.79170E+01 0.00000E+00
 -1      4063 6.84000E+01 2.79170E+01 0.00000E+00
 -1      4064 6.61500E+01 2.66180E+01 0.00000E+00
 -1      4065 6.99000E+01 2.79170E+01 0.00000E+00
 -1      4066 7.14000E+01 2.79170E+01 0.00000E+00
 -1      4067 6.91500E+01 2.66180E+01 0.00000E+00
 -1      4068 7.29000E+01 2.79170E+01 0.00000E+00
 -1      4069 7.44000E+01 2.79170E+01 0.00000E+00
 -1      4070 7.21500E+01 2.66180E+01 0.00000E+00
 -1      4071 7.59000E+01 2.79170E+01 0.00000E+00
 -1      4072 7.74000E+01 2.79170E+01 0.00000E+00
 -1      4073 7.51500E+01 2.66180E+01 0.00000E+00
 -1      4074 7.89000E+01 2.79170E+01 0.00000E+00
 -1      4075 8.04000E+01 2.79170E+01 0.00000E+00
 -1      4076 7.81500E+01 2.66180E+01 0.00000E+00
 -1      4077 8.19000E+01 2.79170E+01 0.00000E+00
 -1      4078 8.34000E+01 2.79170E+01 0.00000E+00
 -1      4079 8.11500E+01 2.66180E+01 0.00000E+00
 -1      4080 8.49000E+01 2.79170E+01 0.00000E+00
 -1      4081 8.64000E+01 2.79170E+01 0.00000E+00
 -1      4082 8.41500E+01 2.66180E+01 0.00000E+00
 -1      4083 8.79000E+01 2.79170E+01 0.00000E+00
 -1      4084 8.94000E+01 2.79170E+01 0.00000E+00
 -1      4085 8.71500E+01 2.66180E+01 0.00000E+00
 -1      4086 9.09000E+01 2.79170E+01 0.00000E+00
 -1      4087 9.24000E+01 2.79170E+01 0.00000E+00
 -1      4088 9.01500E+01 2.66180E+01 0.00000E+00
 -1      4089 9.39000E+01 2.79170E+01 0.00000E+00
 -1      4090 9.54000E+01 2.79170E+01 0.00000E+00
 -1      4091 9.31500E+01 2.66180E+01 0.00000E+00
 -1      4092 9.67342E+01 2.79764E+01 0.00000E+00
 -1      4093 9.80174E+01 2.80428E+01 0.00000E+00
 -1      4094 9.86527E+01 2.67963E+01 0.00000E+00
 -1      4095 9.59842E+01 2.66774E+01 0.00000E+00
 -1      4096 2.72850E+01 1.82952E+01 0.00000E+00
 -1      4097 2.57850E+01 1.82952E+01 0.00000E+00
 -1      4098 2.80350E+01 1.95942E+01 0.00000E+00
 -1      4099 4.00350E+01 1.95942E+01 0.00000E+00
 -1      4100 3.92850E+01 1.82952E+01 0.00000E+00
 -1      4101 3.77850E+01 1.82952E+01 0.00000E+00
 -1      4102 2.50350E+01 1.95942E+01 0.00000E+00
 -1      4103 6.17850E+01 2.08932E+01 0.00000E+00
 -1      4104 6.02850E+01 2.08932E+01 0.00000E+00
 -1      4105 7.67850E+01 2.08932E+01 0.00000E+00
 -1      4106 7.52850E+01 2.08932E+01 0.00000E+00
 -1      4107 7.37850E+01 2.08932E+01 0.00000E+00
 -1      4108 7.22850E+01 2.08932E+01 0.00000E+00
 -1      4109 7.15350E+01 2.21922E+01 0.00000E+00
 -1      4110 7.45350E+01 2.21922E+01 0.00000E+00
 -1      4111 8.27850E+01 2.08932E+01 0.00000E+00
 -1      4112 8.12850E+01 2.08932E+01 0.00000E+00
 -1      4113 8.57850E+01 2.08932E+01 0.00000E+00
 -1      4114 8.42850E+01 2.08932E+01 0.00000E+00
 -1      4115 8.35350E+01 2.21922E+01 0.00000E+00
 -1      4116 8.87850E+01 2.08932E+01 0.00000E+00
 -1      4117 8.72850E+01 2.08932E+01 0.00000E+00
 -1      4118 8.65350E+01 2.21922E+01 0.00000E+00
 -1      4119 9.17850E+01 2.08932E+01 0.00000E+00
 -1      4120 9.02850E+01 2.08932E+01 0.00000E+00
 -1      4121 8.95350E+01 2.21922E+01 0.00000E+00
 -1      4122 9.47850E+01 2.08932E+01 0.00000E+00
 -1      4123 9.32850E+01 2.08932E+01 0.00000E+00
 -1      4124 9.25350E+01 2.21922E+01 0.00000E+00
 -1      4125 9.78481E+01 2.09478E+01 0.00000E+00
 -1      4126 9.63481E+01 2.09478E+01 0.00000E+00
 -1      4127 9.55981E+01 2.22468E+01 0.00000E+00
 -1      4128 9.87244E+01 2.23558E+01 0.00000E+00
 -1      4129 5.87850E+01 2.08932E+01 0.00000E+00
 -1      4130 5.72850E+01 2.08932E+01 0.00000E+00
 -1      4131 5.95350E+01 2.21922E+01 0.00000E+00
 -1      4132 2.79000E+01 2.79170E+01 0.00000E+00
 -1      4133 2.94000E+01 2.79170E+01 0.00000E+00
 -1      4134 3.09000E+01 2.79170E+01 0.00000E+00
 -1      4135 3.24000E+01 2.79170E+01 0.00000E+00
 -1      4136 3.01500E+01 2.66180E+01 0.00000E+00
 -1      4137 6.77850E+01 2.08932E+01 0.00000E+00
 -1      4138 6.62850E+01 2.08932E+01 0.00000E+00
 -1      4139 6.85350E+01 2.21922E+01 0.00000E+00
 -1      4140 4.82850E+01 1.82952E+01 0.00000E+00
 -1      4141 4.67850E+01 1.82952E+01 0.00000E+00
 -1      4142 4.90350E+01 1.95942E+01 0.00000E+00
 -1      4143 7.97850E+01 2.08932E+01 0.00000E+00
 -1      4144 7.82850E+01 2.08932E+01 0.00000E+00
 -1      4145 8.05350E+01 2.21922E+01 0.00000E+00
 -1      4146 3.39000E+01 2.79170E+01 0.00000E+00
 -1      4147 3.54000E+01 2.79170E+01 0.00000E+00
 -1      4148 3.31500E+01 2.66180E+01 0.00000E+00
 -1      4149 5.57850E+01 2.08932E+01 0.00000E+00
 -1      4150 5.42850E+01 2.08932E+01 0.00000E+00
 -1      4151 5.65350E+01 2.21922E+01 0.00000E+00
 -1      4152 6.47850E+01 2.08932E+01 0.00000E+00
 -1      4153 6.32850E+01 2.08932E+01 0.00000E+00
 -1      4154 6.25350E+01 2.21922E+01 0.00000E+00
 -1      4155 3.47850E+01 1.82952E+01 0.00000E+00
 -1      4156 3.40350E+01 1.95942E+01 0.00000E+00
 -1      4157 3.62850E+01 1.82952E+01 0.00000E+00
 -1      4158 9.79449E+01 2.56698E+01 0.00000E+00
 -1      4159 6.55350E+01 2.21922E+01 0.00000E+00
 -1      4160 4.07850E+01 2.08932E+01 0.00000E+00
 -1      4161 3.92850E+01 2.08932E+01 0.00000E+00
 -1      4162 5.27850E+01 2.08932E+01 0.00000E+00
 -1      4163 5.12850E+01 2.08932E+01 0.00000E+00
 -1      4164 5.35350E+01 2.21922E+01 0.00000E+00
 -1      4165 7.75350E+01 2.21922E+01 0.00000E+00
 -1      4166 3.61500E+01 2.66180E+01 0.00000E+00
 -1      4167 9.78664E+01 2.34520E+01 0.00000E+00
 -1      4168 3.17850E+01 2.08932E+01 0.00000E+00
 -1      4169 3.02850E+01 2.08932E+01 0.00000E+00
 -1      4170 2.32969E+01 2.92682E+01 0.00000E+00
 -1      4171 2.66423E+01 2.79809E+01 0.00000E+00
 -1      4172 2.73923E+01 2.66819E+01 0.00000E+00
 -1      4173 2.53845E+01 2.80448E+01 0.00000E+00
 -1      4174 2.87850E+01 2.08932E+01 0.00000E+00
 -1      4175 2.72850E+01 2.08932E+01 0.00000E+00
 -1      4176 2.95350E+01 2.21922E+01 0.00000E+00
 -1      4177 4.60350E+01 1.95942E+01 0.00000E+00
 -1      4178 2.21490E+01 2.08796E+01 0.00000E+00
 -1      4179 1.94027E+01 2.08525E+01 0.00000E+00
 -1      4180 1.94745E+01 2.20997E+01 0.00000E+00
 -1      4181 2.57850E+01 2.08932E+01 0.00000E+00
 -1      4182 2.42850E+01 2.08932E+01 0.00000E+00
 -1      4183 2.65350E+01 2.21922E+01 0.00000E+00
 -1      4184 4.37850E+01 2.08932E+01 0.00000E+00
 -1      4185 4.22850E+01 2.08932E+01 0.00000E+00
 -1      4186 4.15350E+01 2.21922E+01 0.00000E+00
 -1      4187 2.28990E+01 2.21786E+01 0.00000E+00
 -1      4188 8.68425E+01 2.44051E+01 0.00000E+00
 -1      4189 8.53425E+01 2.44051E+01 0.00000E+00
 -1      4190 4.18425E+01 2.44051E+01 0.00000E+00
 -1      4191 4.33425E+01 2.44051E+01 0.00000E+00
 -1      4192 4.74000E+01 2.53190E+01 0.00000E+00
 -1      4193 4.89000E+01 2.53190E+01 0.00000E+00
 -1      4194 5.08425E+01 2.44051E+01 0.00000E+00
 -1      4195 5.23425E+01 2.44051E+01 0.00000E+00
 -1      4196 5.38425E+01 2.44051E+01 0.00000E+00
 -1      4197 5.53425E+01 2.44051E+01 0.00000E+00
 -1      4198 5.68425E+01 2.44051E+01 0.00000E+00
 -1      4199 5.83425E+01 2.44051E+01 0.00000E+00
 -1      4200 5.98425E+01 2.44051E+01 0.00000E+00
 -1      4201 6.13425E+01 2.44051E+01 0.00000E+00
 -1      4202 6.28425E+01 2.44051E+01 0.00000E+00
 -1      4203 6.43425E+01 2.44051E+01 0.00000E+00
 -1      4204 6.58425E+01 2.44051E+01 0.00000E+00
 -1      4205 6.73425E+01 2.44051E+01 0.00000E+00
 -1      4206 6.88425E+01 2.44051E+01 0.00000E+00
 -1      4207 7.03425E+01 2.44051E+01 0.00000E+00
 -1      4208 7.18425E+01 2.44051E+01 0.00000E+00
 -1      4209 7.33425E+01 2.44051E+01 0.00000E+00
 -1      4210 7.48425E+01 2.44051E+01 0.00000E+00
 -1      4211 7.63425E+01 2.44051E+01 0.00000E+00
 -1      4212 7.78425E+01 2.44051E+01 0.00000E+00
 -1      4213 7.93425E+01 2.44051E+01 0.00000E+00
 -1      4214 8.08425E+01 2.44051E+01 0.00000E+00
 -1      4215 8.23425E+01 2.44051E+01 0.00000E+00
 -1      4216 8.38425E+01 2.44051E+01 0.00000E+00
 -1      4217 8.83425E+01 2.44051E+01 0.00000E+00
 -1      4218 8.98425E+01 2.44051E+01 0.00000E+00
 -1      4219 9.13425E+01 2.44051E+01 0.00000E+00
 -1      4220 9.28425E+01 2.44051E+01 0.00000E+00
 -1      4221 9.43425E+01 2.44051E+01 0.00000E+00
 -1      4222 2.22722E+01 2.66204E+01 0.00000E+00
 -1      4223 2.28599E+01 2.79949E+01 0.00000E+00
 -1      4224 9.59056E+01 2.44596E+01 0.00000E+00
 -1      4225 3.32850E+01 2.08932E+01 0.00000E+00
 -1      4226 3.25350E+01 2.21922E+01 0.00000E+00
 -1      4227 3.47850E+01 2.08932E+01 0.00000E+00
 -1      4228 2.98425E+01 2.44051E+01 0.00000E+00
 -1      4229 3.13425E+01 2.44051E+01 0.00000E+00
 -1      4230 2.41975E+01 2.80704E+01 0.00000E+00
 -1      4231 3.70350E+01 1.95942E+01 0.00000E+00
 -1      4232 4.93425E+01 2.18071E+01 0.00000E+00
 -1      4233 4.78425E+01 2.18071E+01 0.00000E+00
 -1      4234 3.28425E+01 2.44051E+01 0.00000E+00
 -1      4235 3.43425E+01 2.44051E+01 0.00000E+00
 -1      4236 3.88425E+01 2.44051E+01 0.00000E+00
 -1      4237 4.03425E+01 2.44051E+01 0.00000E+00
 -1      4238 4.65638E+01 2.13502E+01 0.00000E+00
 -1      4239 4.50638E+01 2.13502E+01 0.00000E+00
 -1      4240 4.43138E+01 2.26492E+01 0.00000E+00
 -1      4241 4.68713E+01 2.35631E+01 0.00000E+00
 -1      4242 2.20830E+01 2.42406E+01 0.00000E+00
 -1      4243 2.20830E+01 2.57094E+01 0.00000E+00
 -1      4244 2.35712E+01 2.58860E+01 0.00000E+00
 -1      4245 2.83425E+01 2.44051E+01 0.00000E+00
 -1      4246 2.49475E+01 2.67714E+01 0.00000E+00
 -1      4247 3.71027E+01 2.48953E+01 0.00000E+00
 -1      4248 3.82952E+01 2.26825E+01 0.00000E+00
 -1      4249 2.45690E+01 2.49494E+01 0.00000E+00
 -1      4250 2.47582E+01 2.58604E+01 0.00000E+00
 -1      4251 2.59453E+01 2.58348E+01 0.00000E+00
 -1      4252 4.46213E+01 2.48621E+01 0.00000E+00
 -1      4253 3.75452E+01 2.13835E+01 0.00000E+00
 -1      4254 3.60452E+01 2.13835E+01 0.00000E+00
 -1      4255 5.00925E+01 2.31061E+01 0.00000E+00
 -1      4256 4.61213E+01 2.48621E+01 0.00000E+00
 -1      4257 3.52952E+01 2.26825E+01 0.00000E+00
 -1      4258 3.56027E+01 2.48953E+01 0.00000E+00
 -1      4259 9.72399E+01 2.45190E+01 0.00000E+00
 -1      4260 2.07735E+01 2.28356E+01 0.00000E+00
 -1      4261 2.68955E+01 2.35580E+01 0.00000E+00
 -1      4262 2.53955E+01 2.35580E+01 0.00000E+00
 -1      4263 2.29095E+01 2.28493E+01 0.00000E+00
 -1      4264 2.42085E+01 2.35836E+01 0.00000E+00
 -1      4265 2.70847E+01 2.44690E+01 0.00000E+00
 -3
    3C                          2051                                     1
 -1       164    8    0    1
 -2         6         7        23      1108      1271      1125
 -1       165    8    0    1
 -2         7         8       164      1109      1272      1273
 -1       166    8    0    1
 -2         8         9       165      1110      1274      1275
 -1       167    8    0    1
 -2         8       165       164      1275      1276      1272
 -1       168    8    0    1
 -2         9        10       166      1111      1277      1278
 -1       169    8    0    1
 -2         9       166       165      1278      1279      1274
 -1       170    8    0    1
 -2        10        11       167      1112      1280      1281
 -1       171    8    0    1
 -2        10       167       166      1281      1282      1277
 -1       172    8    0    1
 -2        11        12       168      1113      1283      1284
 -1       173    8    0    1
 -2        11       168       167      1284      1285      1280
 -1       174    8    0    1
 -2        12        13       169      1114      1286      1287
 -1       175    8    0    1
 -2        12       169       168      1287      1288      1283
 -1       176    8    0    1
 -2        13        14       170      1115      1289      1290
 -1       177    8    0    1
 -2        13       170       169      1290      1291      1286
 -1       178    8    0    1
 -2        14        15       171      1116      1292      1293
 -1       179    8    0    1
 -2        14       171       170      1293      1294      1289
 -1       180    8    0    1
 -2        15        16       172      1117      1295      1296
 -1       181    8    0    1
 -2        15       172       171      1296      1297      1292
 -1       182    8    0    1
 -2        16        17       173      1118      1298      1299
 -1       183    8    0    1
 -2        16       173       172      1299      1300      1295
 -1       184    8    0    1
 -2        17        18       174      1119      1301      1302
 -1       185    8    0    1
 -2        17       174       173      1302      1303      1298
 -1       186    8    0    1
 -2        18        19       175      1120      1304      1305
 -1       187    8    0    1
 -2        18       175       174      1305      1306      1301
 -1       188    8    0    1
 -2        19        20       176      1121      1307      1308
 -1       189    8    0    1
 -2        19       176       175      1308      1309      1304
 -1       190    8    0    1
 -2        20        21       177      1122      1310      1311
 -1       191    8    0    1
 -2        20       177       176      1311      1312      1307
 -1       192    8    0    1
 -2        21        22       178      1123      1313      1314
 -1       193    8    0    1
 -2        21       178       177      1314      1315      1310
 -1       194    8    0    1
 -2        22         5       179      1124      1316      1317
 -1       195    8    0    1
 -2       178        22       179      1313      1317      1318
 -1       196    8    0    1
 -2         5        72       179      1175      1319      1316
 -1       197    8    0    1
 -2        24        23       180      1126      1320      1321
 -1       198    8    0    1
 -2        25        24       181      1127      1322      1323
 -1       199    8    0    1
 -2        24       180       181      1321      1324      1322
 -1       200    8    0    1
 -2        26        25       182      1128      1325      1326
 -1       201    8    0    1
 -2        25       181       182      1323      1327      1325
 -1       202    8    0    1
 -2        27        26       183      1129      1328      1329
 -1       203    8    0    1
 -2        26       182       183      1326      1330      1328
 -1       204    8    0    1
 -2        28        27       184      1130      1331      1332
 -1       205    8    0    1
 -2        27       183       184      1329      1333      1331
 -1       206    8    0    1
 -2        29        28       185      1131      1334      1335
 -1       207    8    0    1
 -2        28       184       185      1332      1336      1334
 -1       208    8    0    1
 -2        30        29       186      1132      1337      1338
 -1       209    8    0    1
 -2        29       185       186      1335      1339      1337
 -1       210    8    0    1
 -2        31        30       187      1133      1340      1341
 -1       211    8    0    1
 -2        30       186       187      1338      1342      1340
 -1       212    8    0    1
 -2        32        31       188      1134      1343      1344
 -1       213    8    0    1
 -2        31       187       188      1341      1345      1343
 -1       214    8    0    1
 -2        33        32       189      1135      1346      1347
 -1       215    8    0    1
 -2        32       188       189      1344      1348      1346
 -1       216    8    0    1
 -2        34        33       190      1136      1349      1350
 -1       217    8    0    1
 -2        33       189       190      1347      1351      1349
 -1       218    8    0    1
 -2        35        34       191      1137      1352      1353
 -1       219    8    0    1
 -2        34       190       191      1350      1354      1352
 -1       220    8    0    1
 -2        36        35       192      1138      1355      1356
 -1       221    8    0    1
 -2        35       191       192      1353      1357      1355
 -1       222    8    0    1
 -2        37        36       193      1139      1358      1359
 -1       223    8    0    1
 -2        36       192       193      1356      1360      1358
 -1       224    8    0    1
 -2        38        37       194      1140      1361      1362
 -1       225    8    0    1
 -2        37       193       194      1359      1363      1361
 -1       226    8    0    1
 -2        39        38       195      1141      1364      1365
 -1       227    8    0    1
 -2        38       194       195      1362      1366      1364
 -1       228    8    0    1
 -2        40        39       196      1142      1367      1368
 -1       229    8    0    1
 -2        39       195       196      1365      1369      1367
 -1       230    8    0    1
 -2        41        40       197      1143      1370      1371
 -1       231    8    0    1
 -2        40       196       197      1368      1372      1370
 -1       232    8    0    1
 -2        42        41       198      1144      1373      1374
 -1       233    8    0    1
 -2        41       197       198      1371      1375      1373
 -1       234    8    0    1
 -2        43        42       199      1145      1376      1377
 -1       235    8    0    1
 -2        42       198       199      1374      1378      1376
 -1       236    8    0    1
 -2        44        43       200      1146      1379      1380
 -1       237    8    0    1
 -2        43       199       200      1377      1381      1379
 -1       238    8    0    1
 -2        45        44       201      1147      1382      1383
 -1       239    8    0    1
 -2        44       200       201      1380      1384      1382
 -1       240    8    0    1
 -2        46        45       202      1148      1385      1386
 -1       241    8    0    1
 -2        45       201       202      1383      1387      1385
 -1       242    8    0    1
 -2        47        46       203      1149      1388      1389
 -1       243    8    0    1
 -2        46       202       203      1386      1390      1388
 -1       244    8    0    1
 -2        48        47       204      1150      1391      1392
 -1       245    8    0    1
 -2        47       203       204      1389      1393      1391
 -1       246    8    0    1
 -2        49        48       205      1151      1394      1395
 -1       247    8    0    1
 -2        48       204       205      1392      1396      1394
 -1       248    8    0    1
 -2        50        49       206      1152      1397      1398
 -1       249    8    0    1
 -2        49       205       206      1395      1399      1397
 -1       250    8    0    1
 -2        51        50       207      1153      1400      1401
 -1       251    8    0    1
 -2        50       206       207      1398      1402      1400
 -1       252    8    0    1
 -2        52        51       208      1154      1403      1404
 -1       253    8    0    1
 -2        51       207       208      1401      1405      1403
 -1       254    8    0    1
 -2        53        52       209      1155      1406      1407
 -1       255    8    0    1
 -2        52       208       209      1404      1408      1406
 -1       256    8    0    1
 -2        54        53       210      1156      1409      1410
 -1       257    8    0    1
 -2        53       209       210      1407      1411      1409
 -1       258    8    0    1
 -2        55        54       211      1157      1412      1413
 -1       259    8    0    1
 -2        54       210       211      1410      1414      1412
 -1       260    8    0    1
 -2        56        55       212      1158      1415      1416
 -1       261    8    0    1
 -2        55       211       212      1413      1417      1415
 -1       262    8    0    1
 -2        57        56       213      1159      1418      1419
 -1       263    8    0    1
 -2        56       212       213      1416      1420      1418
 -1       264    8    0    1
 -2        58        57       214      1160      1421      1422
 -1       265    8    0    1
 -2        57       213       214      1419      1423      1421
 -1       266    8    0    1
 -2        59        58       215      1161      1424      1425
 -1       267    8    0    1
 -2        58       214       215      1422      1426      1424
 -1       268    8    0    1
 -2        60        59       216      1162      1427      1428
 -1       269    8    0    1
 -2        59       215       216      1425      1429      1427
 -1       270    8    0    1
 -2        61        60       217      1163      1430      1431
 -1       271    8    0    1
 -2        60       216       217      1428      1432      1430
 -1       272    8    0    1
 -2        62        61       218      1164      1433      1434
 -1       273    8    0    1
 -2        61       217       218      1431      1435      1433
 -1       274    8    0    1
 -2        63        62       219      1165      1436      1437
 -1       275    8    0    1
 -2        62       218       219      1434      1438      1436
 -1       276    8    0    1
 -2        64        63       220      1166      1439      1440
 -1       277    8    0    1
 -2        63       219       220      1437      1441      1439
 -1       278    8    0    1
 -2        65        64       221      1167      1442      1443
 -1       279    8    0    1
 -2        64       220       221      1440      1444      1442
 -1       280    8    0    1
 -2        66        65       222      1168      1445      1446
 -1       281    8    0    1
 -2        65       221       222      1443      1447      1445
 -1       282    8    0    1
 -2        67        66       223      1169      1448      1449
 -1       283    8    0    1
 -2        66       222       223      1446      1450      1448
 -1       284    8    0    1
 -2        68        67       224      1170      1451      1452
 -1       285    8    0    1
 -2        67       223       224      1449      1453      1451
 -1       286    8    0    1
 -2        69        68       225      1171      1454      1455
 -1       287    8    0    1
 -2        68       224       225      1452      1456      1454
 -1       288    8    0    1
 -2        70        69       226      1172      1457      1458
 -1       289    8    0    1
 -2        69       225       226      1455      1459      1457
 -1       290    8    0    1
 -2        71        70       227      1173      1460      1461
 -1       291    8    0    1
 -2        70       226       227      1458      1462      1460
 -1       292    8    0    1
 -2         4        71       136      1174      1463      1241
 -1       293    8    0    1
 -2       136        71       227      1463      1461      1464
 -1       294    8    0    1
 -2        72        73       228      1176      1465      1466
 -1       295    8    0    1
 -2        72       228       179      1466      1467      1319
 -1       296    8    0    1
 -2        73        74       229      1177      1468      1469
 -1       297    8    0    1
 -2        73       229       228      1469      1470      1465
 -1       298    8    0    1
 -2        74        75       230      1178      1471      1472
 -1       299    8    0    1
 -2        74       230       229      1472      1473      1468
 -1       300    8    0    1
 -2        75        76       231      1179      1474      1475
 -1       301    8    0    1
 -2        75       231       230      1475      1476      1471
 -1       302    8    0    1
 -2        76        77       232      1180      1477      1478
 -1       303    8    0    1
 -2        76       232       231      1478      1479      1474
 -1       304    8    0    1
 -2        77        78       233      1181      1480      1481
 -1       305    8    0    1
 -2        77       233       232      1481      1482      1477
 -1       306    8    0    1
 -2        78        79       234      1182      1483      1484
 -1       307    8    0    1
 -2        78       234       233      1484      1485      1480
 -1       308    8    0    1
 -2        79        80       235      1183      1486      1487
 -1       309    8    0    1
 -2        79       235       234      1487      1488      1483
 -1       310    8    0    1
 -2        80        81       236      1184      1489      1490
 -1       311    8    0    1
 -2        80       236       235      1490      1491      1486
 -1       312    8    0    1
 -2        81        82       237      1185      1492      1493
 -1       313    8    0    1
 -2        81       237       236      1493      1494      1489
 -1       314    8    0    1
 -2        82        83       238      1186      1495      1496
 -1       315    8    0    1
 -2        82       238       237      1496      1497      1492
 -1       316    8    0    1
 -2        83        84       239      1187      1498      1499
 -1       317    8    0    1
 -2        83       239       238      1499      1500      1495
 -1       318    8    0    1
 -2        84        85       240      1188      1501      1502
 -1       319    8    0    1
 -2        84       240       239      1502      1503      1498
 -1       320    8    0    1
 -2        85        86       241      1189      1504      1505
 -1       321    8    0    1
 -2        85       241       240      1505      1506      1501
 -1       322    8    0    1
 -2        86        87       242      1190      1507      1508
 -1       323    8    0    1
 -2        86       242       241      1508      1509      1504
 -1       324    8    0    1
 -2        87        88       243      1191      1510      1511
 -1       325    8    0    1
 -2        87       243       242      1511      1512      1507
 -1       326    8    0    1
 -2        88        89       244      1192      1513      1514
 -1       327    8    0    1
 -2        88       244       243      1514      1515      1510
 -1       328    8    0    1
 -2        89        90       245      1193      1516      1517
 -1       329    8    0    1
 -2        89       245       244      1517      1518      1513
 -1       330    8    0    1
 -2        90        91       246      1194      1519      1520
 -1       331    8    0    1
 -2        90       246       245      1520      1521      1516
 -1       332    8    0    1
 -2        91        92       247      1195      1522      1523
 -1       333    8    0    1
 -2        91       247       246      1523      1524      1519
 -1       334    8    0    1
 -2        92        93       248      1196      1525      1526
 -1       335    8    0    1
 -2        92       248       247      1526      1527      1522
 -1       336    8    0    1
 -2        93        94       249      1197      1528      1529
 -1       337    8    0    1
 -2        93       249       248      1529      1530      1525
 -1       338    8    0    1
 -2        94        95       250      1198      1531      1532
 -1       339    8    0    1
 -2        94       250       249      1532      1533      1528
 -1       340    8    0    1
 -2        95        96       251      1199      1534      1535
 -1       341    8    0    1
 -2        95       251       250      1535      1536      1531
 -1       342    8    0    1
 -2        96        97       252      1200      1537      1538
 -1       343    8    0    1
 -2        96       252       251      1538      1539      1534
 -1       344    8    0    1
 -2        97        98       253      1201      1540      1541
 -1       345    8    0    1
 -2        97       253       252      1541      1542      1537
 -1       346    8    0    1
 -2        98        99       254      1202      1543      1544
 -1       347    8    0    1
 -2        98       254       253      1544      1545      1540
 -1       348    8    0    1
 -2        99       100       255      1203      1546      1547
 -1       349    8    0    1
 -2        99       255       254      1547      1548      1543
 -1       350    8    0    1
 -2       100       101       256      1204      1549      1550
 -1       351    8    0    1
 -2       100       256       255      1550      1551      1546
 -1       352    8    0    1
 -2       101       102       257      1205      1552      1553
 -1       353    8    0    1
 -2       101       257       256      1553      1554      1549
 -1       354    8    0    1
 -2       102       103       258      1206      1555      1556
 -1       355    8    0    1
 -2       102       258       257      1556      1557      1552
 -1       356    8    0    1
 -2       103       104       259      1207      1558      1559
 -1       357    8    0    1
 -2       103       259       258      1559      1560      1555
 -1       358    8    0    1
 -2       104       105       260      1208      1561      1562
 -1       359    8    0    1
 -2       104       260       259      1562      1563      1558
 -1       360    8    0    1
 -2       105       106       261      1209      1564      1565
 -1       361    8    0    1
 -2       105       261       260      1565      1566      1561
 -1       362    8    0    1
 -2       106       107       262      1210      1567      1568
 -1       363    8    0    1
 -2       106       262       261      1568      1569      1564
 -1       364    8    0    1
 -2       107       108       263      1211      1570      1571
 -1       365    8    0    1
 -2       107       263       262      1571      1572      1567
 -1       366    8    0    1
 -2       108       109       264      1212      1573      1574
 -1       367    8    0    1
 -2       108       264       263      1574      1575      1570
 -1       368    8    0    1
 -2       109       110       265      1213      1576      1577
 -1       369    8    0    1
 -2       109       265       264      1577      1578      1573
 -1       370    8    0    1
 -2       110       111       266      1214      1579      1580
 -1       371    8    0    1
 -2       110       266       265      1580      1581      1576
 -1       372    8    0    1
 -2       111       112       267      1215      1582      1583
 -1       373    8    0    1
 -2       111       267       266      1583      1584      1579
 -1       374    8    0    1
 -2       112       113       268      1216      1585      1586
 -1       375    8    0    1
 -2       112       268       267      1586      1587      1582
 -1       376    8    0    1
 -2       113       114       269      1217      1588      1589
 -1       377    8    0    1
 -2       113       269       268      1589      1590      1585
 -1       378    8    0    1
 -2       114       115       270      1218      1591      1592
 -1       379    8    0    1
 -2       114       270       269      1592      1593      1588
 -1       380    8    0    1
 -2       115       116       271      1219      1594      1595
 -1       381    8    0    1
 -2       115       271       270      1595      1596      1591
 -1       382    8    0    1
 -2       116       117       272      1220      1597      1598
 -1       383    8    0    1
 -2       116       272       271      1598      1599      1594
 -1       384    8    0    1
 -2       117       118       273      1221      1600      1601
 -1       385    8    0    1
 -2       117       273       272      1601      1602      1597
 -1       386    8    0    1
 -2       118       119       274      1222      1603      1604
 -1       387    8    0    1
 -2       118       274       273      1604      1605      1600
 -1       388    8    0    1
 -2       119       120       275      1223      1606      1607
 -1       389    8    0    1
 -2       119       275       274      1607      1608      1603
 -1       390    8    0    1
 -2       120         3       121      1224      1225      1609
 -1       391    8    0    1
 -2       121       122       276      1226      1610      1611
 -1       392    8    0    1
 -2       122       123       277      1227      1612      1613
 -1       393    8    0    1
 -2       122       277       276      1613      1614      1610
 -1       394    8    0    1
 -2       123       124       278      1228      1615      1616
 -1       395    8    0    1
 -2       123       278       277      1616      1617      1612
 -1       396    8    0    1
 -2       124       125       279      1229      1618      1619
 -1       397    8    0    1
 -2       124       279       278      1619      1620      1615
 -1       398    8    0    1
 -2       125       126       280      1230      1621      1622
 -1       399    8    0    1
 -2       125       280       279      1622      1623      1618
 -1       400    8    0    1
 -2       126       127       281      1231      1624      1625
 -1       401    8    0    1
 -2       126       281       280      1625      1626      1621
 -1       402    8    0    1
 -2       127       128       282      1232      1627      1628
 -1       403    8    0    1
 -2       127       282       281      1628      1629      1624
 -1       404    8    0    1
 -2       128       129       283      1233      1630      1631
 -1       405    8    0    1
 -2       128       283       282      1631      1632      1627
 -1       406    8    0    1
 -2       129       130       284      1234      1633      1634
 -1       407    8    0    1
 -2       129       284       283      1634      1635      1630
 -1       408    8    0    1
 -2       130       131       285      1235      1636      1637
 -1       409    8    0    1
 -2       130       285       284      1637      1638      1633
 -1       410    8    0    1
 -2       131       132       286      1236      1639      1640
 -1       411    8    0    1
 -2       131       286       285      1640      1641      1636
 -1       412    8    0    1
 -2       132       133       287      1237      1642      1643
 -1       413    8    0    1
 -2       132       287       286      1643      1644      1639
 -1       414    8    0    1
 -2       133       134       288      1238      1645      1646
 -1       415    8    0    1
 -2       133       288       287      1646      1647      1642
 -1       416    8    0    1
 -2       134       135       289      1239      1648      1649
 -1       417    8    0    1
 -2       134       289       288      1649      1650      1645
 -1       418    8    0    1
 -2       135       136       290      1240      1651      1652
 -1       419    8    0    1
 -2       289       135       290      1648      1652      1653
 -1       420    8    0    1
 -2       136       227       290      1464      1654      1651
 -1       421    8    0    1
 -2         2       137       291      1242      1655      1656
 -1       422    8    0    1
 -2       137       138       292      1243      1657      1658
 -1       423    8    0    1
 -2       138       139       293      1244      1659      1660
 -1       424    8    0    1
 -2       139       140       294      1245      1661      1662
 -1       425    8    0    1
 -2       140       141       295      1246      1663      1664
 -1       426    8    0    1
 -2       141       142       296      1247      1665      1666
 -1       427    8    0    1
 -2       142       143       297      1248      1667      1668
 -1       428    8    0    1
 -2       143       144       298      1249      1669      1670
 -1       429    8    0    1
 -2       144       145       299      1250      1671      1672
 -1       430    8    0    1
 -2       145       146       300      1251      1673      1674
 -1       431    8    0    1
 -2       146       147       301      1252      1675      1676
 -1       432    8    0    1
 -2       147       148       302      1253      1677      1678
 -1       433    8    0    1
 -2       148       149       303      1254      1679      1680
 -1       434    8    0    1
 -2       149       150       304      1255      1681      1682
 -1       435    8    0    1
 -2       150       151       305      1256      1683      1684
 -1       436    8    0    1
 -2       151       152       306      1257      1685      1686
 -1       437    8    0    1
 -2       152       153       307      1258      1687      1688
 -1       438    8    0    1
 -2       153       154       308      1259      1689      1690
 -1       439    8    0    1
 -2       154       155       309      1260      1691      1692
 -1       440    8    0    1
 -2       155       156       310      1261      1693      1694
 -1       441    8    0    1
 -2       156       157       311      1262      1695      1696
 -1       442    8    0    1
 -2       157       158       312      1263      1697      1698
 -1       443    8    0    1
 -2       158         1       313      1264      1699      1700
 -1       444    8    0    1
 -2         1       159       314      1265      1701      1702
 -1       445    8    0    1
 -2       159       160       315      1266      1703      1704
 -1       446    8    0    1
 -2       160       161       316      1267      1705      1706
 -1       447    8    0    1
 -2       161       162       317      1268      1707      1708
 -1       448    8    0    1
 -2       162       163       318      1269      1709      1710
 -1       449    8    0    1
 -2       163         2       319      1270      1711      1712
 -1       450    8    0    1
 -2       294       140       295      1661      1664      1713
 -1       451    8    0    1
 -2       293       139       294      1659      1662      1714
 -1       452    8    0    1
 -2       120       121       275      1609      1715      1606
 -1       453    8    0    1
 -2       121       276       275      1611      1716      1715
 -1       454    8    0    1
 -2       291       137       292      1655      1658      1717
 -1       455    8    0    1
 -2       292       138       293      1657      1660      1718
 -1       456    8    0    1
 -2         2       291       319      1656      1719      1711
 -1       457    8    0    1
 -2       141       296       295      1666      1720      1663
 -1       458    8    0    1
 -2       142       297       296      1668      1721      1665
 -1       459    8    0    1
 -2       143       298       297      1670      1722      1667
 -1       460    8    0    1
 -2       144       299       298      1672      1723      1669
 -1       461    8    0    1
 -2       145       300       299      1674      1724      1671
 -1       462    8    0    1
 -2       146       301       300      1676      1725      1673
 -1       463    8    0    1
 -2       147       302       301      1678      1726      1675
 -1       464    8    0    1
 -2       148       303       302      1680      1727      1677
 -1       465    8    0    1
 -2       149       304       303      1682      1728      1679
 -1       466    8    0    1
 -2       150       305       304      1684      1729      1681
 -1       467    8    0    1
 -2       151       306       305      1686      1730      1683
 -1       468    8    0    1
 -2       152       307       306      1688      1731      1685
 -1       469    8    0    1
 -2       153       308       307      1690      1732      1687
 -1       470    8    0    1
 -2       154       309       308      1692      1733      1689
 -1       471    8    0    1
 -2       155       310       309      1694      1734      1691
 -1       472    8    0    1
 -2       156       311       310      1696      1735      1693
 -1       473    8    0    1
 -2       157       312       311      1698      1736      1695
 -1       474    8    0    1
 -2       158       313       312      1700      1737      1697
 -1       475    8    0    1
 -2         1       314       313      1702      1738      1699
 -1       476    8    0    1
 -2       159       315       314      1704      1739      1701
 -1       477    8    0    1
 -2       160       316       315      1706      1740      1703
 -1       478    8    0    1
 -2       161       317       316      1708      1741      1705
 -1       479    8    0    1
 -2       162       318       317      1710      1742      1707
 -1       480    8    0    1
 -2       163       319       318      1712      1743      1709
 -1       481    8    0    1
 -2        23         7       164      1271      1273      1744
 -1       482    8    0    1
 -2       165       166       320      1279      1745      1746
 -1       483    8    0    1
 -2       164       165       321      1276      1747      1748
 -1       484    8    0    1
 -2       165       320       321      1746      1749      1747
 -1       485    8    0    1
 -2       167       168       322      1285      1750      1751
 -1       486    8    0    1
 -2       168       169       323      1288      1752      1753
 -1       487    8    0    1
 -2       168       323       322      1753      1754      1750
 -1       488    8    0    1
 -2       169       170       324      1291      1755      1756
 -1       489    8    0    1
 -2       169       324       323      1756      1757      1752
 -1       490    8    0    1
 -2       170       171       325      1294      1758      1759
 -1       491    8    0    1
 -2       170       325       324      1759      1760      1755
 -1       492    8    0    1
 -2       171       172       326      1297      1761      1762
 -1       493    8    0    1
 -2       171       326       325      1762      1763      1758
 -1       494    8    0    1
 -2       172       173       327      1300      1764      1765
 -1       495    8    0    1
 -2       172       327       326      1765      1766      1761
 -1       496    8    0    1
 -2       173       174       328      1303      1767      1768
 -1       497    8    0    1
 -2       173       328       327      1768      1769      1764
 -1       498    8    0    1
 -2       174       175       329      1306      1770      1771
 -1       499    8    0    1
 -2       174       329       328      1771      1772      1767
 -1       500    8    0    1
 -2       175       176       330      1309      1773      1774
 -1       501    8    0    1
 -2       175       330       329      1774      1775      1770
 -1       502    8    0    1
 -2       176       177       331      1312      1776      1777
 -1       503    8    0    1
 -2       176       331       330      1777      1778      1773
 -1       504    8    0    1
 -2       177       178       332      1315      1779      1780
 -1       505    8    0    1
 -2       177       332       331      1780      1781      1776
 -1       506    8    0    1
 -2       178       179       333      1318      1782      1783
 -1       507    8    0    1
 -2       332       178       333      1779      1783      1784
 -1       508    8    0    1
 -2       179       228       333      1467      1785      1782
 -1       509    8    0    1
 -2       180        23       164      1320      1744      1786
 -1       510    8    0    1
 -2       228       229       334      1470      1787      1788
 -1       511    8    0    1
 -2       228       334       333      1788      1789      1785
 -1       512    8    0    1
 -2       180       164       321      1786      1748      1790
 -1       513    8    0    1
 -2       182       181       335      1327      1791      1792
 -1       514    8    0    1
 -2       183       182       336      1330      1793      1794
 -1       515    8    0    1
 -2       182       335       336      1792      1795      1793
 -1       516    8    0    1
 -2       184       183       337      1333      1796      1797
 -1       517    8    0    1
 -2       183       336       337      1794      1798      1796
 -1       518    8    0    1
 -2       185       184       338      1336      1799      1800
 -1       519    8    0    1
 -2       184       337       338      1797      1801      1799
 -1       520    8    0    1
 -2       186       185       339      1339      1802      1803
 -1       521    8    0    1
 -2       185       338       339      1800      1804      1802
 -1       522    8    0    1
 -2       187       186       340      1342      1805      1806
 -1       523    8    0    1
 -2       186       339       340      1803      1807      1805
 -1       524    8    0    1
 -2       188       187       341      1345      1808      1809
 -1       525    8    0    1
 -2       187       340       341      1806      1810      1808
 -1       526    8    0    1
 -2       189       188       342      1348      1811      1812
 -1       527    8    0    1
 -2       188       341       342      1809      1813      1811
 -1       528    8    0    1
 -2       190       189       343      1351      1814      1815
 -1       529    8    0    1
 -2       189       342       343      1812      1816      1814
 -1       530    8    0    1
 -2       191       190       344      1354      1817      1818
 -1       531    8    0    1
 -2       190       343       344      1815      1819      1817
 -1       532    8    0    1
 -2       192       191       345      1357      1820      1821
 -1       533    8    0    1
 -2       191       344       345      1818      1822      1820
 -1       534    8    0    1
 -2       193       192       346      1360      1823      1824
 -1       535    8    0    1
 -2       192       345       346      1821      1825      1823
 -1       536    8    0    1
 -2       194       193       347      1363      1826      1827
 -1       537    8    0    1
 -2       193       346       347      1824      1828      1826
 -1       538    8    0    1
 -2       195       194       348      1366      1829      1830
 -1       539    8    0    1
 -2       194       347       348      1827      1831      1829
 -1       540    8    0    1
 -2       196       195       349      1369      1832      1833
 -1       541    8    0    1
 -2       195       348       349      1830      1834      1832
 -1       542    8    0    1
 -2       197       196       350      1372      1835      1836
 -1       543    8    0    1
 -2       196       349       350      1833      1837      1835
 -1       544    8    0    1
 -2       198       197       351      1375      1838      1839
 -1       545    8    0    1
 -2       197       350       351      1836      1840      1838
 -1       546    8    0    1
 -2       199       198       352      1378      1841      1842
 -1       547    8    0    1
 -2       198       351       352      1839      1843      1841
 -1       548    8    0    1
 -2       200       199       353      1381      1844      1845
 -1       549    8    0    1
 -2       199       352       353      1842      1846      1844
 -1       550    8    0    1
 -2       201       200       354      1384      1847      1848
 -1       551    8    0    1
 -2       200       353       354      1845      1849      1847
 -1       552    8    0    1
 -2       202       201       355      1387      1850      1851
 -1       553    8    0    1
 -2       201       354       355      1848      1852      1850
 -1       554    8    0    1
 -2       203       202       356      1390      1853      1854
 -1       555    8    0    1
 -2       202       355       356      1851      1855      1853
 -1       556    8    0    1
 -2       204       203       357      1393      1856      1857
 -1       557    8    0    1
 -2       203       356       357      1854      1858      1856
 -1       558    8    0    1
 -2       205       204       358      1396      1859      1860
 -1       559    8    0    1
 -2       204       357       358      1857      1861      1859
 -1       560    8    0    1
 -2       206       205       359      1399      1862      1863
 -1       561    8    0    1
 -2       205       358       359      1860      1864      1862
 -1       562    8    0    1
 -2       207       206       360      1402      1865      1866
 -1       563    8    0    1
 -2       206       359       360      1863      1867      1865
 -1       564    8    0    1
 -2       208       207       361      1405      1868      1869
 -1       565    8    0    1
 -2       207       360       361      1866      1870      1868
 -1       566    8    0    1
 -2       209       208       362      1408      1871      1872
 -1       567    8    0    1
 -2       208       361       362      1869      1873      1871
 -1       568    8    0    1
 -2       210       209       363      1411      1874      1875
 -1       569    8    0    1
 -2       209       362       363      1872      1876      1874
 -1       570    8    0    1
 -2       211       210       364      1414      1877      1878
 -1       571    8    0    1
 -2       210       363       364      1875      1879      1877
 -1       572    8    0    1
 -2       212       211       365      1417      1880      1881
 -1       573    8    0    1
 -2       211       364       365      1878      1882      1880
 -1       574    8    0    1
 -2       213       212       366      1420      1883      1884
 -1       575    8    0    1
 -2       212       365       366      1881      1885      1883
 -1       576    8    0    1
 -2       214       213       367      1423      1886      1887
 -1       577    8    0    1
 -2       213       366       367      1884      1888      1886
 -1       578    8    0    1
 -2       215       214       368      1426      1889      1890
 -1       579    8    0    1
 -2       214       367       368      1887      1891      1889
 -1       580    8    0    1
 -2       216       215       369      1429      1892      1893
 -1       581    8    0    1
 -2       215       368       369      1890      1894      1892
 -1       582    8    0    1
 -2       217       216       370      1432      1895      1896
 -1       583    8    0    1
 -2       216       369       370      1893      1897      1895
 -1       584    8    0    1
 -2       218       217       371      1435      1898      1899
 -1       585    8    0    1
 -2       217       370       371      1896      1900      1898
 -1       586    8    0    1
 -2       219       218       372      1438      1901      1902
 -1       587    8    0    1
 -2       218       371       372      1899      1903      1901
 -1       588    8    0    1
 -2       220       219       373      1441      1904      1905
 -1       589    8    0    1
 -2       219       372       373      1902      1906      1904
 -1       590    8    0    1
 -2       221       220       374      1444      1907      1908
 -1       591    8    0    1
 -2       220       373       374      1905      1909      1907
 -1       592    8    0    1
 -2       222       221       375      1447      1910      1911
 -1       593    8    0    1
 -2       221       374       375      1908      1912      1910
 -1       594    8    0    1
 -2       223       222       376      1450      1913      1914
 -1       595    8    0    1
 -2       222       375       376      1911      1915      1913
 -1       596    8    0    1
 -2       224       223       377      1453      1916      1917
 -1       597    8    0    1
 -2       223       376       377      1914      1918      1916
 -1       598    8    0    1
 -2       225       224       378      1456      1919      1920
 -1       599    8    0    1
 -2       224       377       378      1917      1921      1919
 -1       600    8    0    1
 -2       226       225       379      1459      1922      1923
 -1       601    8    0    1
 -2       225       378       379      1920      1924      1922
 -1       602    8    0    1
 -2       227       226       380      1462      1925      1926
 -1       603    8    0    1
 -2       290       227       380      1654      1926      1927
 -1       604    8    0    1
 -2       226       379       380      1923      1928      1925
 -1       605    8    0    1
 -2       229       230       381      1473      1929      1930
 -1       606    8    0    1
 -2       229       381       334      1930      1931      1787
 -1       607    8    0    1
 -2       230       231       382      1476      1932      1933
 -1       608    8    0    1
 -2       230       382       381      1933      1934      1929
 -1       609    8    0    1
 -2       231       232       383      1479      1935      1936
 -1       610    8    0    1
 -2       231       383       382      1936      1937      1932
 -1       611    8    0    1
 -2       232       233       384      1482      1938      1939
 -1       612    8    0    1
 -2       232       384       383      1939      1940      1935
 -1       613    8    0    1
 -2       233       234       385      1485      1941      1942
 -1       614    8    0    1
 -2       233       385       384      1942      1943      1938
 -1       615    8    0    1
 -2       234       235       386      1488      1944      1945
 -1       616    8    0    1
 -2       234       386       385      1945      1946      1941
 -1       617    8    0    1
 -2       235       236       387      1491      1947      1948
 -1       618    8    0    1
 -2       235       387       386      1948      1949      1944
 -1       619    8    0    1
 -2       236       237       388      1494      1950      1951
 -1       620    8    0    1
 -2       236       388       387      1951      1952      1947
 -1       621    8    0    1
 -2       237       238       389      1497      1953      1954
 -1       622    8    0    1
 -2       237       389       388      1954      1955      1950
 -1       623    8    0    1
 -2       238       239       390      1500      1956      1957
 -1       624    8    0    1
 -2       238       390       389      1957      1958      1953
 -1       625    8    0    1
 -2       239       240       391      1503      1959      1960
 -1       626    8    0    1
 -2       239       391       390      1960      1961      1956
 -1       627    8    0    1
 -2       240       241       392      1506      1962      1963
 -1       628    8    0    1
 -2       240       392       391      1963      1964      1959
 -1       629    8    0    1
 -2       241       242       393      1509      1965      1966
 -1       630    8    0    1
 -2       241       393       392      1966      1967      1962
 -1       631    8    0    1
 -2       242       243       394      1512      1968      1969
 -1       632    8    0    1
 -2       242       394       393      1969      1970      1965
 -1       633    8    0    1
 -2       243       244       395      1515      1971      1972
 -1       634    8    0    1
 -2       243       395       394      1972      1973      1968
 -1       635    8    0    1
 -2       244       245       396      1518      1974      1975
 -1       636    8    0    1
 -2       244       396       395      1975      1976      1971
 -1       637    8    0    1
 -2       245       246       397      1521      1977      1978
 -1       638    8    0    1
 -2       245       397       396      1978      1979      1974
 -1       639    8    0    1
 -2       246       247       398      1524      1980      1981
 -1       640    8    0    1
 -2       246       398       397      1981      1982      1977
 -1       641    8    0    1
 -2       247       248       399      1527      1983      1984
 -1       642    8    0    1
 -2       247       399       398      1984      1985      1980
 -1       643    8    0    1
 -2       248       249       400      1530      1986      1987
 -1       644    8    0    1
 -2       248       400       399      1987      1988      1983
 -1       645    8    0    1
 -2       249       250       401      1533      1989      1990
 -1       646    8    0    1
 -2       249       401       400      1990      1991      1986
 -1       647    8    0    1
 -2       250       251       402      1536      1992      1993
 -1       648    8    0    1
 -2       250       402       401      1993      1994      1989
 -1       649    8    0    1
 -2       251       252       403      1539      1995      1996
 -1       650    8    0    1
 -2       251       403       402      1996      1997      1992
 -1       651    8    0    1
 -2       252       253       404      1542      1998      1999
 -1       652    8    0    1
 -2       252       404       403      1999      2000      1995
 -1       653    8    0    1
 -2       253       254       405      1545      2001      2002
 -1       654    8    0    1
 -2       253       405       404      2002      2003      1998
 -1       655    8    0    1
 -2       254       255       406      1548      2004      2005
 -1       656    8    0    1
 -2       254       406       405      2005      2006      2001
 -1       657    8    0    1
 -2       255       256       407      1551      2007      2008
 -1       658    8    0    1
 -2       255       407       406      2008      2009      2004
 -1       659    8    0    1
 -2       256       257       408      1554      2010      2011
 -1       660    8    0    1
 -2       256       408       407      2011      2012      2007
 -1       661    8    0    1
 -2       257       258       409      1557      2013      2014
 -1       662    8    0    1
 -2       257       409       408      2014      2015      2010
 -1       663    8    0    1
 -2       258       259       410      1560      2016      2017
 -1       664    8    0    1
 -2       258       410       409      2017      2018      2013
 -1       665    8    0    1
 -2       259       260       411      1563      2019      2020
 -1       666    8    0    1
 -2       259       411       410      2020      2021      2016
 -1       667    8    0    1
 -2       260       261       412      1566      2022      2023
 -1       668    8    0    1
 -2       260       412       411      2023      2024      2019
 -1       669    8    0    1
 -2       261       262       413      1569      2025      2026
 -1       670    8    0    1
 -2       261       413       412      2026      2027      2022
 -1       671    8    0    1
 -2       262       263       414      1572      2028      2029
 -1       672    8    0    1
 -2       262       414       413      2029      2030      2025
 -1       673    8    0    1
 -2       263       264       415      1575      2031      2032
 -1       674    8    0    1
 -2       263       415       414      2032      2033      2028
 -1       675    8    0    1
 -2       264       265       416      1578      2034      2035
 -1       676    8    0    1
 -2       264       416       415      2035      2036      2031
 -1       677    8    0    1
 -2       265       266       417      1581      2037      2038
 -1       678    8    0    1
 -2       265       417       416      2038      2039      2034
 -1       679    8    0    1
 -2       266       267       418      1584      2040      2041
 -1       680    8    0    1
 -2       266       418       417      2041      2042      2037
 -1       681    8    0    1
 -2       267       268       419      1587      2043      2044
 -1       682    8    0    1
 -2       267       419       418      2044      2045      2040
 -1       683    8    0    1
 -2       268       269       420      1590      2046      2047
 -1       684    8    0    1
 -2       268       420       419      2047      2048      2043
 -1       685    8    0    1
 -2       269       270       421      1593      2049      2050
 -1       686    8    0    1
 -2       269       421       420      2050      2051      2046
 -1       687    8    0    1
 -2       270       271       422      1596      2052      2053
 -1       688    8    0    1
 -2       270       422       421      2053      2054      2049
 -1       689    8    0    1
 -2       271       272       423      1599      2055      2056
 -1       690    8    0    1
 -2       271       423       422      2056      2057      2052
 -1       691    8    0    1
 -2       272       273       424      1602      2058      2059
 -1       692    8    0    1
 -2       272       424       423      2059      2060      2055
 -1       693    8    0    1
 -2       273       274       425      1605      2061      2062
 -1       694    8    0    1
 -2       273       425       424      2062      2063      2058
 -1       695    8    0    1
 -2       274       275       426      1608      2064      2065
 -1       696    8    0    1
 -2       425       274       426      2061      2065      2066
 -1       697    8    0    1
 -2       275       276       426      1716      2067      2064
 -1       698    8    0    1
 -2       278       279       427      1620      2068      2069
 -1       699    8    0    1
 -2       277       278       428      1617      2070      2071
 -1       700    8    0    1
 -2       278       427       428      2069      2072      2070
 -1       701    8    0    1
 -2       276       277       429      1614      2073      2074
 -1       702    8    0    1
 -2       426       276       429      2067      2074      2075
 -1       703    8    0    1
 -2       277       428       429      2071      2076      2073
 -1       704    8    0    1
 -2       279       280       430      1623      2077      2078
 -1       705    8    0    1
 -2       279       430       427      2078      2079      2068
 -1       706    8    0    1
 -2       280       281       431      1626      2080      2081
 -1       707    8    0    1
 -2       280       431       430      2081      2082      2077
 -1       708    8    0    1
 -2       281       282       432      1629      2083      2084
 -1       709    8    0    1
 -2       281       432       431      2084      2085      2080
 -1       710    8    0    1
 -2       282       283       433      1632      2086      2087
 -1       711    8    0    1
 -2       282       433       432      2087      2088      2083
 -1       712    8    0    1
 -2       283       284       434      1635      2089      2090
 -1       713    8    0    1
 -2       283       434       433      2090      2091      2086
 -1       714    8    0    1
 -2       284       285       435      1638      2092      2093
 -1       715    8    0    1
 -2       284       435       434      2093      2094      2089
 -1       716    8    0    1
 -2       285       286       436      1641      2095      2096
 -1       717    8    0    1
 -2       285       436       435      2096      2097      2092
 -1       718    8    0    1
 -2       286       287       437      1644      2098      2099
 -1       719    8    0    1
 -2       286       437       436      2099      2100      2095
 -1       720    8    0    1
 -2       287       288       438      1647      2101      2102
 -1       721    8    0    1
 -2       287       438       437      2102      2103      2098
 -1       722    8    0    1
 -2       288       289       439      1650      2104      2105
 -1       723    8    0    1
 -2       288       439       438      2105      2106      2101
 -1       724    8    0    1
 -2       292       293       440      1718      2107      2108
 -1       725    8    0    1
 -2       319       291       441      1719      2109      2110
 -1       726    8    0    1
 -2       291       292       442      1717      2111      2112
 -1       727    8    0    1
 -2       293       294       443      1714      2113      2114
 -1       728    8    0    1
 -2       294       295       444      1713      2115      2116
 -1       729    8    0    1
 -2       166       167       445      1282      2117      2118
 -1       730    8    0    1
 -2       320       166       445      1745      2118      2119
 -1       731    8    0    1
 -2       167       322       445      1751      2120      2117
 -1       732    8    0    1
 -2       296       297       446      1721      2121      2122
 -1       733    8    0    1
 -2       297       298       447      1722      2123      2124
 -1       734    8    0    1
 -2       297       447       446      2124      2125      2121
 -1       735    8    0    1
 -2       298       299       448      1723      2126      2127
 -1       736    8    0    1
 -2       299       300       449      1724      2128      2129
 -1       737    8    0    1
 -2       299       449       448      2129      2130      2126
 -1       738    8    0    1
 -2       300       301       450      1725      2131      2132
 -1       739    8    0    1
 -2       301       302       451      1726      2133      2134
 -1       740    8    0    1
 -2       302       303       452      1727      2135      2136
 -1       741    8    0    1
 -2       303       304       453      1728      2137      2138
 -1       742    8    0    1
 -2       304       305       454      1729      2139      2140
 -1       743    8    0    1
 -2       305       306       455      1730      2141      2142
 -1       744    8    0    1
 -2       306       307       456      1731      2143      2144
 -1       745    8    0    1
 -2       307       308       457      1732      2145      2146
 -1       746    8    0    1
 -2       307       457       456      2146      2147      2143
 -1       747    8    0    1
 -2       308       309       458      1733      2148      2149
 -1       748    8    0    1
 -2       309       310       459      1734      2150      2151
 -1       749    8    0    1
 -2       309       459       458      2151      2152      2148
 -1       750    8    0    1
 -2       310       311       460      1735      2153      2154
 -1       751    8    0    1
 -2       311       312       461      1736      2155      2156
 -1       752    8    0    1
 -2       312       313       462      1737      2157      2158
 -1       753    8    0    1
 -2       313       314       463      1738      2159      2160
 -1       754    8    0    1
 -2       314       315       464      1739      2161      2162
 -1       755    8    0    1
 -2       315       316       465      1740      2163      2164
 -1       756    8    0    1
 -2       316       317       466      1741      2165      2166
 -1       757    8    0    1
 -2       317       318       467      1742      2167      2168
 -1       758    8    0    1
 -2       318       319       468      1743      2169      2170
 -1       759    8    0    1
 -2       295       296       469      1720      2171      2172
 -1       760    8    0    1
 -2       295       469       444      2172      2173      2115
 -1       761    8    0    1
 -2       443       294       444      2113      2116      2174
 -1       762    8    0    1
 -2       180       321       181      1790      2175      1324
 -1       763    8    0    1
 -2       296       446       469      2122      2176      2171
 -1       764    8    0    1
 -2       335       181       321      1791      2175      2177
 -1       765    8    0    1
 -2       442       292       470      2111      2178      2179
 -1       766    8    0    1
 -2       292       440       470      2108      2180      2178
 -1       767    8    0    1
 -2       441       291       442      2109      2112      2181
 -1       768    8    0    1
 -2       439       289       290      2104      1653      2182
 -1       769    8    0    1
 -2       440       293       443      2107      2114      2183
 -1       770    8    0    1
 -2       319       441       468      2110      2184      2169
 -1       771    8    0    1
 -2       467       318       468      2167      2170      2185
 -1       772    8    0    1
 -2       466       317       467      2165      2168      2186
 -1       773    8    0    1
 -2       465       316       466      2163      2166      2187
 -1       774    8    0    1
 -2       464       315       465      2161      2164      2188
 -1       775    8    0    1
 -2       463       314       464      2159      2162      2189
 -1       776    8    0    1
 -2       462       313       463      2157      2160      2190
 -1       777    8    0    1
 -2       461       312       462      2155      2158      2191
 -1       778    8    0    1
 -2       459       310       460      2150      2154      2192
 -1       779    8    0    1
 -2       457       308       458      2145      2149      2193
 -1       780    8    0    1
 -2       455       306       456      2141      2144      2194
 -1       781    8    0    1
 -2       454       305       455      2139      2142      2195
 -1       782    8    0    1
 -2       453       304       454      2137      2140      2196
 -1       783    8    0    1
 -2       452       303       453      2135      2138      2197
 -1       784    8    0    1
 -2       451       302       452      2133      2136      2198
 -1       785    8    0    1
 -2       449       300       471      2128      2199      2200
 -1       786    8    0    1
 -2       300       450       471      2132      2201      2199
 -1       787    8    0    1
 -2       298       448       447      2127      2202      2123
 -1       788    8    0    1
 -2       450       301       451      2131      2134      2203
 -1       789    8    0    1
 -2       460       311       461      2153      2156      2204
 -1       790    8    0    1
 -2       334       381       472      1931      2205      2206
 -1       791    8    0    1
 -2       323       324       473      1757      2207      2208
 -1       792    8    0    1
 -2       322       323       474      1754      2209      2210
 -1       793    8    0    1
 -2       323       473       474      2208      2211      2209
 -1       794    8    0    1
 -2       325       326       475      1763      2212      2213
 -1       795    8    0    1
 -2       326       327       476      1766      2214      2215
 -1       796    8    0    1
 -2       326       476       475      2215      2216      2212
 -1       797    8    0    1
 -2       327       328       477      1769      2217      2218
 -1       798    8    0    1
 -2       327       477       476      2218      2219      2214
 -1       799    8    0    1
 -2       328       329       478      1772      2220      2221
 -1       800    8    0    1
 -2       328       478       477      2221      2222      2217
 -1       801    8    0    1
 -2       329       330       479      1775      2223      2224
 -1       802    8    0    1
 -2       329       479       478      2224      2225      2220
 -1       803    8    0    1
 -2       330       331       480      1778      2226      2227
 -1       804    8    0    1
 -2       330       480       479      2227      2228      2223
 -1       805    8    0    1
 -2       443       444       481      2174      2229      2230
 -1       806    8    0    1
 -2       381       382       482      1934      2231      2232
 -1       807    8    0    1
 -2       381       482       472      2232      2233      2205
 -1       808    8    0    1
 -2       336       335       483      1795      2234      2235
 -1       809    8    0    1
 -2       469       446       484      2176      2236      2237
 -1       810    8    0    1
 -2       337       336       485      1798      2238      2239
 -1       811    8    0    1
 -2       336       483       485      2235      2240      2238
 -1       812    8    0    1
 -2       338       337       486      1801      2241      2242
 -1       813    8    0    1
 -2       337       485       486      2239      2243      2241
 -1       814    8    0    1
 -2       339       338       487      1804      2244      2245
 -1       815    8    0    1
 -2       338       486       487      2242      2246      2244
 -1       816    8    0    1
 -2       340       339       488      1807      2247      2248
 -1       817    8    0    1
 -2       339       487       488      2245      2249      2247
 -1       818    8    0    1
 -2       341       340       489      1810      2250      2251
 -1       819    8    0    1
 -2       340       488       489      2248      2252      2250
 -1       820    8    0    1
 -2       342       341       490      1813      2253      2254
 -1       821    8    0    1
 -2       341       489       490      2251      2255      2253
 -1       822    8    0    1
 -2       343       342       491      1816      2256      2257
 -1       823    8    0    1
 -2       342       490       491      2254      2258      2256
 -1       824    8    0    1
 -2       344       343       492      1819      2259      2260
 -1       825    8    0    1
 -2       343       491       492      2257      2261      2259
 -1       826    8    0    1
 -2       345       344       493      1822      2262      2263
 -1       827    8    0    1
 -2       344       492       493      2260      2264      2262
 -1       828    8    0    1
 -2       346       345       494      1825      2265      2266
 -1       829    8    0    1
 -2       345       493       494      2263      2267      2265
 -1       830    8    0    1
 -2       347       346       495      1828      2268      2269
 -1       831    8    0    1
 -2       346       494       495      2266      2270      2268
 -1       832    8    0    1
 -2       348       347       496      1831      2271      2272
 -1       833    8    0    1
 -2       347       495       496      2269      2273      2271
 -1       834    8    0    1
 -2       349       348       497      1834      2274      2275
 -1       835    8    0    1
 -2       348       496       497      2272      2276      2274
 -1       836    8    0    1
 -2       350       349       498      1837      2277      2278
 -1       837    8    0    1
 -2       349       497       498      2275      2279      2277
 -1       838    8    0    1
 -2       351       350       499      1840      2280      2281
 -1       839    8    0    1
 -2       350       498       499      2278      2282      2280
 -1       840    8    0    1
 -2       352       351       500      1843      2283      2284
 -1       841    8    0    1
 -2       351       499       500      2281      2285      2283
 -1       842    8    0    1
 -2       353       352       501      1846      2286      2287
 -1       843    8    0    1
 -2       352       500       501      2284      2288      2286
 -1       844    8    0    1
 -2       354       353       502      1849      2289      2290
 -1       845    8    0    1
 -2       353       501       502      2287      2291      2289
 -1       846    8    0    1
 -2       355       354       503      1852      2292      2293
 -1       847    8    0    1
 -2       354       502       503      2290      2294      2292
 -1       848    8    0    1
 -2       356       355       504      1855      2295      2296
 -1       849    8    0    1
 -2       355       503       504      2293      2297      2295
 -1       850    8    0    1
 -2       357       356       505      1858      2298      2299
 -1       851    8    0    1
 -2       356       504       505      2296      2300      2298
 -1       852    8    0    1
 -2       358       357       506      1861      2301      2302
 -1       853    8    0    1
 -2       357       505       506      2299      2303      2301
 -1       854    8    0    1
 -2       359       358       507      1864      2304      2305
 -1       855    8    0    1
 -2       358       506       507      2302      2306      2304
 -1       856    8    0    1
 -2       360       359       508      1867      2307      2308
 -1       857    8    0    1
 -2       359       507       508      2305      2309      2307
 -1       858    8    0    1
 -2       361       360       509      1870      2310      2311
 -1       859    8    0    1
 -2       360       508       509      2308      2312      2310
 -1       860    8    0    1
 -2       362       361       510      1873      2313      2314
 -1       861    8    0    1
 -2       361       509       510      2311      2315      2313
 -1       862    8    0    1
 -2       363       362       511      1876      2316      2317
 -1       863    8    0    1
 -2       362       510       511      2314      2318      2316
 -1       864    8    0    1
 -2       364       363       512      1879      2319      2320
 -1       865    8    0    1
 -2       363       511       512      2317      2321      2319
 -1       866    8    0    1
 -2       365       364       513      1882      2322      2323
 -1       867    8    0    1
 -2       364       512       513      2320      2324      2322
 -1       868    8    0    1
 -2       366       365       514      1885      2325      2326
 -1       869    8    0    1
 -2       365       513       514      2323      2327      2325
 -1       870    8    0    1
 -2       367       366       515      1888      2328      2329
 -1       871    8    0    1
 -2       366       514       515      2326      2330      2328
 -1       872    8    0    1
 -2       368       367       516      1891      2331      2332
 -1       873    8    0    1
 -2       367       515       516      2329      2333      2331
 -1       874    8    0    1
 -2       369       368       517      1894      2334      2335
 -1       875    8    0    1
 -2       368       516       517      2332      2336      2334
 -1       876    8    0    1
 -2       370       369       518      1897      2337      2338
 -1       877    8    0    1
 -2       369       517       518      2335      2339      2337
 -1       878    8    0    1
 -2       371       370       519      1900      2340      2341
 -1       879    8    0    1
 -2       370       518       519      2338      2342      2340
 -1       880    8    0    1
 -2       372       371       520      1903      2343      2344
 -1       881    8    0    1
 -2       371       519       520      2341      2345      2343
 -1       882    8    0    1
 -2       373       372       521      1906      2346      2347
 -1       883    8    0    1
 -2       372       520       521      2344      2348      2346
 -1       884    8    0    1
 -2       374       373       522      1909      2349      2350
 -1       885    8    0    1
 -2       373       521       522      2347      2351      2349
 -1       886    8    0    1
 -2       375       374       523      1912      2352      2353
 -1       887    8    0    1
 -2       374       522       523      2350      2354      2352
 -1       888    8    0    1
 -2       376       375       524      1915      2355      2356
 -1       889    8    0    1
 -2       375       523       524      2353      2357      2355
 -1       890    8    0    1
 -2       377       376       525      1918      2358      2359
 -1       891    8    0    1
 -2       376       524       525      2356      2360      2358
 -1       892    8    0    1
 -2       378       377       526      1921      2361      2362
 -1       893    8    0    1
 -2       377       525       526      2359      2363      2361
 -1       894    8    0    1
 -2       379       378       527      1924      2364      2365
 -1       895    8    0    1
 -2       378       526       527      2362      2366      2364
 -1       896    8    0    1
 -2       383       384       528      1940      2367      2368
 -1       897    8    0    1
 -2       384       385       529      1943      2369      2370
 -1       898    8    0    1
 -2       384       529       528      2370      2371      2367
 -1       899    8    0    1
 -2       385       386       530      1946      2372      2373
 -1       900    8    0    1
 -2       385       530       529      2373      2374      2369
 -1       901    8    0    1
 -2       386       387       531      1949      2375      2376
 -1       902    8    0    1
 -2       386       531       530      2376      2377      2372
 -1       903    8    0    1
 -2       387       388       532      1952      2378      2379
 -1       904    8    0    1
 -2       387       532       531      2379      2380      2375
 -1       905    8    0    1
 -2       388       389       533      1955      2381      2382
 -1       906    8    0    1
 -2       388       533       532      2382      2383      2378
 -1       907    8    0    1
 -2       389       390       534      1958      2384      2385
 -1       908    8    0    1
 -2       389       534       533      2385      2386      2381
 -1       909    8    0    1
 -2       390       391       535      1961      2387      2388
 -1       910    8    0    1
 -2       390       535       534      2388      2389      2384
 -1       911    8    0    1
 -2       391       392       536      1964      2390      2391
 -1       912    8    0    1
 -2       391       536       535      2391      2392      2387
 -1       913    8    0    1
 -2       392       393       537      1967      2393      2394
 -1       914    8    0    1
 -2       392       537       536      2394      2395      2390
 -1       915    8    0    1
 -2       393       394       538      1970      2396      2397
 -1       916    8    0    1
 -2       393       538       537      2397      2398      2393
 -1       917    8    0    1
 -2       394       395       539      1973      2399      2400
 -1       918    8    0    1
 -2       394       539       538      2400      2401      2396
 -1       919    8    0    1
 -2       395       396       540      1976      2402      2403
 -1       920    8    0    1
 -2       395       540       539      2403      2404      2399
 -1       921    8    0    1
 -2       396       397       541      1979      2405      2406
 -1       922    8    0    1
 -2       396       541       540      2406      2407      2402
 -1       923    8    0    1
 -2       397       398       542      1982      2408      2409
 -1       924    8    0    1
 -2       397       542       541      2409      2410      2405
 -1       925    8    0    1
 -2       398       399       543      1985      2411      2412
 -1       926    8    0    1
 -2       398       543       542      2412      2413      2408
 -1       927    8    0    1
 -2       399       400       544      1988      2414      2415
 -1       928    8    0    1
 -2       399       544       543      2415      2416      2411
 -1       929    8    0    1
 -2       400       401       545      1991      2417      2418
 -1       930    8    0    1
 -2       400       545       544      2418      2419      2414
 -1       931    8    0    1
 -2       401       402       546      1994      2420      2421
 -1       932    8    0    1
 -2       401       546       545      2421      2422      2417
 -1       933    8    0    1
 -2       402       403       547      1997      2423      2424
 -1       934    8    0    1
 -2       402       547       546      2424      2425      2420
 -1       935    8    0    1
 -2       403       404       548      2000      2426      2427
 -1       936    8    0    1
 -2       403       548       547      2427      2428      2423
 -1       937    8    0    1
 -2       404       405       549      2003      2429      2430
 -1       938    8    0    1
 -2       404       549       548      2430      2431      2426
 -1       939    8    0    1
 -2       405       406       550      2006      2432      2433
 -1       940    8    0    1
 -2       405       550       549      2433      2434      2429
 -1       941    8    0    1
 -2       406       407       551      2009      2435      2436
 -1       942    8    0    1
 -2       406       551       550      2436      2437      2432
 -1       943    8    0    1
 -2       407       408       552      2012      2438      2439
 -1       944    8    0    1
 -2       407       552       551      2439      2440      2435
 -1       945    8    0    1
 -2       408       409       553      2015      2441      2442
 -1       946    8    0    1
 -2       408       553       552      2442      2443      2438
 -1       947    8    0    1
 -2       409       410       554      2018      2444      2445
 -1       948    8    0    1
 -2       409       554       553      2445      2446      2441
 -1       949    8    0    1
 -2       410       411       555      2021      2447      2448
 -1       950    8    0    1
 -2       410       555       554      2448      2449      2444
 -1       951    8    0    1
 -2       411       412       556      2024      2450      2451
 -1       952    8    0    1
 -2       411       556       555      2451      2452      2447
 -1       953    8    0    1
 -2       412       413       557      2027      2453      2454
 -1       954    8    0    1
 -2       412       557       556      2454      2455      2450
 -1       955    8    0    1
 -2       413       414       558      2030      2456      2457
 -1       956    8    0    1
 -2       413       558       557      2457      2458      2453
 -1       957    8    0    1
 -2       414       415       559      2033      2459      2460
 -1       958    8    0    1
 -2       414       559       558      2460      2461      2456
 -1       959    8    0    1
 -2       415       416       560      2036      2462      2463
 -1       960    8    0    1
 -2       415       560       559      2463      2464      2459
 -1       961    8    0    1
 -2       416       417       561      2039      2465      2466
 -1       962    8    0    1
 -2       416       561       560      2466      2467      2462
 -1       963    8    0    1
 -2       417       418       562      2042      2468      2469
 -1       964    8    0    1
 -2       417       562       561      2469      2470      2465
 -1       965    8    0    1
 -2       418       419       563      2045      2471      2472
 -1       966    8    0    1
 -2       418       563       562      2472      2473      2468
 -1       967    8    0    1
 -2       419       420       564      2048      2474      2475
 -1       968    8    0    1
 -2       419       564       563      2475      2476      2471
 -1       969    8    0    1
 -2       420       421       565      2051      2477      2478
 -1       970    8    0    1
 -2       420       565       564      2478      2479      2474
 -1       971    8    0    1
 -2       421       422       566      2054      2480      2481
 -1       972    8    0    1
 -2       421       566       565      2481      2482      2477
 -1       973    8    0    1
 -2       422       423       567      2057      2483      2484
 -1       974    8    0    1
 -2       422       567       566      2484      2485      2480
 -1       975    8    0    1
 -2       423       424       568      2060      2486      2487
 -1       976    8    0    1
 -2       423       568       567      2487      2488      2483
 -1       977    8    0    1
 -2       424       425       569      2063      2489      2490
 -1       978    8    0    1
 -2       424       569       568      2490      2491      2486
 -1       979    8    0    1
 -2       425       426       429      2066      2075      2492
 -1       980    8    0    1
 -2       430       431       570      2082      2493      2494
 -1       981    8    0    1
 -2       431       432       571      2085      2495      2496
 -1       982    8    0    1
 -2       431       571       570      2496      2497      2493
 -1       983    8    0    1
 -2       428       427       572      2072      2498      2499
 -1       984    8    0    1
 -2       427       430       573      2079      2500      2501
 -1       985    8    0    1
 -2       572       427       573      2498      2501      2502
 -1       986    8    0    1
 -2       430       570       573      2494      2503      2500
 -1       987    8    0    1
 -2       432       433       574      2088      2504      2505
 -1       988    8    0    1
 -2       432       574       571      2505      2506      2495
 -1       989    8    0    1
 -2       433       434       575      2091      2507      2508
 -1       990    8    0    1
 -2       433       575       574      2508      2509      2504
 -1       991    8    0    1
 -2       434       435       576      2094      2510      2511
 -1       992    8    0    1
 -2       434       576       575      2511      2512      2507
 -1       993    8    0    1
 -2       435       436       577      2097      2513      2514
 -1       994    8    0    1
 -2       435       577       576      2514      2515      2510
 -1       995    8    0    1
 -2       436       437       578      2100      2516      2517
 -1       996    8    0    1
 -2       436       578       577      2517      2518      2513
 -1       997    8    0    1
 -2       437       438       579      2103      2519      2520
 -1       998    8    0    1
 -2       437       579       578      2520      2521      2516
 -1       999    8    0    1
 -2       438       439       580      2106      2522      2523
 -1      1000    8    0    1
 -2       438       580       579      2523      2524      2519
 -1      1001    8    0    1
 -2       441       442       581      2181      2525      2526
 -1      1002    8    0    1
 -2       440       443       582      2183      2527      2528
 -1      1003    8    0    1
 -2       382       383       583      1937      2529      2530
 -1      1004    8    0    1
 -2       383       528       583      2368      2531      2529
 -1      1005    8    0    1
 -2       439       290       380      2182      1927      2532
 -1      1006    8    0    1
 -2       468       441       584      2184      2533      2534
 -1      1007    8    0    1
 -2       335       321       585      2177      2535      2536
 -1      1008    8    0    1
 -2       483       335       585      2234      2536      2537
 -1      1009    8    0    1
 -2       321       320       585      1749      2538      2535
 -1      1010    8    0    1
 -2       467       468       586      2185      2539      2540
 -1      1011    8    0    1
 -2       468       584       586      2534      2541      2539
 -1      1012    8    0    1
 -2       455       456       587      2194      2542      2543
 -1      1013    8    0    1
 -2       324       325       588      1760      2544      2545
 -1      1014    8    0    1
 -2       473       324       588      2207      2545      2546
 -1      1015    8    0    1
 -2       325       475       588      2213      2547      2544
 -1      1016    8    0    1
 -2       450       451       589      2203      2548      2549
 -1      1017    8    0    1
 -2       446       447       590      2125      2550      2551
 -1      1018    8    0    1
 -2       447       448       591      2202      2552      2553
 -1      1019    8    0    1
 -2       448       449       592      2130      2554      2555
 -1      1020    8    0    1
 -2       460       461       593      2204      2556      2557
 -1      1021    8    0    1
 -2       451       452       594      2198      2558      2559
 -1      1022    8    0    1
 -2       451       594       589      2559      2560      2548
 -1      1023    8    0    1
 -2       452       453       595      2197      2561      2562
 -1      1024    8    0    1
 -2       453       454       596      2196      2563      2564
 -1      1025    8    0    1
 -2       453       596       595      2564      2565      2561
 -1      1026    8    0    1
 -2       454       455       597      2195      2566      2567
 -1      1027    8    0    1
 -2       455       587       597      2543      2568      2566
 -1      1028    8    0    1
 -2       456       457       598      2147      2569      2570
 -1      1029    8    0    1
 -2       457       458       599      2193      2571      2572
 -1      1030    8    0    1
 -2       458       459       600      2152      2573      2574
 -1      1031    8    0    1
 -2       459       460       601      2192      2575      2576
 -1      1032    8    0    1
 -2       461       462       602      2191      2577      2578
 -1      1033    8    0    1
 -2       462       463       603      2190      2579      2580
 -1      1034    8    0    1
 -2       463       464       604      2189      2581      2582
 -1      1035    8    0    1
 -2       464       465       605      2188      2583      2584
 -1      1036    8    0    1
 -2       465       466       606      2187      2585      2586
 -1      1037    8    0    1
 -2       466       467       607      2186      2587      2588
 -1      1038    8    0    1
 -2       444       469       608      2173      2589      2590
 -1      1039    8    0    1
 -2       333       334       609      1789      2591      2592
 -1      1040    8    0    1
 -2       332       333       609      1784      2592      2593
 -1      1041    8    0    1
 -2       334       472       609      2206      2594      2591
 -1      1042    8    0    1
 -2       450       589       610      2549      2595      2596
 -1      1043    8    0    1
 -2       450       610       471      2596      2597      2201
 -1      1044    8    0    1
 -2       322       474       611      2210      2598      2599
 -1      1045    8    0    1
 -2       322       611       445      2599      2600      2120
 -1      1046    8    0    1
 -2       443       481       612      2230      2601      2602
 -1      1047    8    0    1
 -2       443       612       582      2602      2603      2527
 -1      1048    8    0    1
 -2       481       444       608      2229      2590      2604
 -1      1049    8    0    1
 -2       331       332       609      1781      2593      2605
 -1      1050    8    0    1
 -2       608       469       484      2589      2237      2606
 -1      1051    8    0    1
 -2       607       467       586      2587      2540      2607
 -1      1052    8    0    1
 -2       606       466       607      2585      2588      2608
 -1      1053    8    0    1
 -2       470       440       582      2180      2528      2609
 -1      1054    8    0    1
 -2       456       598       587      2570      2610      2542
 -1      1055    8    0    1
 -2       605       465       606      2583      2586      2611
 -1      1056    8    0    1
 -2       425       429       569      2492      2612      2489
 -1      1057    8    0    1
 -2       429       428       569      2076      2613      2612
 -1      1058    8    0    1
 -2       604       464       605      2581      2584      2614
 -1      1059    8    0    1
 -2       441       581       584      2526      2615      2533
 -1      1060    8    0    1
 -2       581       442       613      2525      2616      2617
 -1      1061    8    0    1
 -2       442       470       613      2179      2618      2616
 -1      1062    8    0    1
 -2       603       463       604      2579      2582      2619
 -1      1063    8    0    1
 -2       602       462       603      2577      2580      2620
 -1      1064    8    0    1
 -2       382       583       482      2530      2621      2231
 -1      1065    8    0    1
 -2       585       320       445      2538      2119      2622
 -1      1066    8    0    1
 -2       601       460       593      2575      2557      2623
 -1      1067    8    0    1
 -2       600       459       601      2573      2576      2624
 -1      1068    8    0    1
 -2       599       458       600      2571      2574      2625
 -1      1069    8    0    1
 -2       596       454       597      2563      2567      2626
 -1      1070    8    0    1
 -2       594       452       595      2558      2562      2627
 -1      1071    8    0    1
 -2       593       461       602      2556      2578      2628
 -1      1072    8    0    1
 -2       592       449       471      2554      2200      2629
 -1      1073    8    0    1
 -2       591       448       592      2552      2555      2630
 -1      1074    8    0    1
 -2       484       446       590      2236      2551      2631
 -1      1075    8    0    1
 -2       590       447       591      2550      2553      2632
 -1      1076    8    0    1
 -2       598       457       599      2569      2572      2633
 -1      1077    8    0    1
 -2       439       380       614      2532      2634      2635
 -1      1078    8    0    1
 -2       580       439       614      2522      2635      2636
 -1      1079    8    0    1
 -2       380       379       614      1928      2637      2634
 -1      1080    8    0    1
 -2       331       609       480      2605      2638      2226
 -1      1081    8    0    1
 -2       569       428       572      2613      2499      2639
 -1      1082    8    0    1
 -2       614       379       527      2637      2365      2640
 -1      1083    8    0    1
 -2       476       477       615      2219      2641      2642
 -1      1084    8    0    1
 -2       475       476       616      2216      2643      2644
 -1      1085    8    0    1
 -2       476       615       616      2642      2645      2643
 -1      1086    8    0    1
 -2       478       479       617      2225      2646      2647
 -1      1087    8    0    1
 -2       479       480       618      2228      2648      2649
 -1      1088    8    0    1
 -2       479       618       617      2649      2650      2646
 -1      1089    8    0    1
 -2       569       572       619      2639      2651      2652
 -1      1090    8    0    1
 -2       569       619       568      2652      2653      2491
 -1      1091    8    0    1
 -2       472       482       620      2233      2654      2655
 -1      1092    8    0    1
 -2       586       584       621      2541      2656      2657
 -1      1093    8    0    1
 -2       607       586       622      2607      2658      2659
 -1      1094    8    0    1
 -2       486       485       623      2243      2660      2661
 -1      1095    8    0    1
 -2       487       486       624      2246      2662      2663
 -1      1096    8    0    1
 -2       486       623       624      2661      2664      2662
 -1      1097    8    0    1
 -2       488       487       625      2249      2665      2666
 -1      1098    8    0    1
 -2       487       624       625      2663      2667      2665
 -1      1099    8    0    1
 -2       489       488       626      2252      2668      2669
 -1      1100    8    0    1
 -2       488       625       626      2666      2670      2668
 -1      1101    8    0    1
 -2       490       489       627      2255      2671      2672
 -1      1102    8    0    1
 -2       489       626       627      2669      2673      2671
 -1      1103    8    0    1
 -2       491       490       628      2258      2674      2675
 -1      1104    8    0    1
 -2       490       627       628      2672      2676      2674
 -1      1105    8    0    1
 -2       492       491       629      2261      2677      2678
 -1      1106    8    0    1
 -2       491       628       629      2675      2679      2677
 -1      1107    8    0    1
 -2       493       492       630      2264      2680      2681
 -1      1108    8    0    1
 -2       492       629       630      2678      2682      2680
 -1      1109    8    0    1
 -2       494       493       631      2267      2683      2684
 -1      1110    8    0    1
 -2       493       630       631      2681      2685      2683
 -1      1111    8    0    1
 -2       495       494       632      2270      2686      2687
 -1      1112    8    0    1
 -2       494       631       632      2684      2688      2686
 -1      1113    8    0    1
 -2       496       495       633      2273      2689      2690
 -1      1114    8    0    1
 -2       495       632       633      2687      2691      2689
 -1      1115    8    0    1
 -2       497       496       634      2276      2692      2693
 -1      1116    8    0    1
 -2       496       633       634      2690      2694      2692
 -1      1117    8    0    1
 -2       498       497       635      2279      2695      2696
 -1      1118    8    0    1
 -2       497       634       635      2693      2697      2695
 -1      1119    8    0    1
 -2       499       498       636      2282      2698      2699
 -1      1120    8    0    1
 -2       498       635       636      2696      2700      2698
 -1      1121    8    0    1
 -2       500       499       637      2285      2701      2702
 -1      1122    8    0    1
 -2       499       636       637      2699      2703      2701
 -1      1123    8    0    1
 -2       501       500       638      2288      2704      2705
 -1      1124    8    0    1
 -2       500       637       638      2702      2706      2704
 -1      1125    8    0    1
 -2       502       501       639      2291      2707      2708
 -1      1126    8    0    1
 -2       501       638       639      2705      2709      2707
 -1      1127    8    0    1
 -2       503       502       640      2294      2710      2711
 -1      1128    8    0    1
 -2       502       639       640      2708      2712      2710
 -1      1129    8    0    1
 -2       504       503       641      2297      2713      2714
 -1      1130    8    0    1
 -2       503       640       641      2711      2715      2713
 -1      1131    8    0    1
 -2       505       504       642      2300      2716      2717
 -1      1132    8    0    1
 -2       504       641       642      2714      2718      2716
 -1      1133    8    0    1
 -2       506       505       643      2303      2719      2720
 -1      1134    8    0    1
 -2       505       642       643      2717      2721      2719
 -1      1135    8    0    1
 -2       507       506       644      2306      2722      2723
 -1      1136    8    0    1
 -2       506       643       644      2720      2724      2722
 -1      1137    8    0    1
 -2       508       507       645      2309      2725      2726
 -1      1138    8    0    1
 -2       507       644       645      2723      2727      2725
 -1      1139    8    0    1
 -2       509       508       646      2312      2728      2729
 -1      1140    8    0    1
 -2       508       645       646      2726      2730      2728
 -1      1141    8    0    1
 -2       510       509       647      2315      2731      2732
 -1      1142    8    0    1
 -2       509       646       647      2729      2733      2731
 -1      1143    8    0    1
 -2       511       510       648      2318      2734      2735
 -1      1144    8    0    1
 -2       510       647       648      2732      2736      2734
 -1      1145    8    0    1
 -2       512       511       649      2321      2737      2738
 -1      1146    8    0    1
 -2       511       648       649      2735      2739      2737
 -1      1147    8    0    1
 -2       513       512       650      2324      2740      2741
 -1      1148    8    0    1
 -2       512       649       650      2738      2742      2740
 -1      1149    8    0    1
 -2       514       513       651      2327      2743      2744
 -1      1150    8    0    1
 -2       513       650       651      2741      2745      2743
 -1      1151    8    0    1
 -2       515       514       652      2330      2746      2747
 -1      1152    8    0    1
 -2       514       651       652      2744      2748      2746
 -1      1153    8    0    1
 -2       516       515       653      2333      2749      2750
 -1      1154    8    0    1
 -2       515       652       653      2747      2751      2749
 -1      1155    8    0    1
 -2       517       516       654      2336      2752      2753
 -1      1156    8    0    1
 -2       516       653       654      2750      2754      2752
 -1      1157    8    0    1
 -2       519       518       601      2342      2755      2756
 -1      1158    8    0    1
 -2       521       520       602      2348      2757      2758
 -1      1159    8    0    1
 -2       522       521       603      2351      2759      2760
 -1      1160    8    0    1
 -2       524       523       655      2357      2761      2762
 -1      1161    8    0    1
 -2       525       524       656      2360      2763      2764
 -1      1162    8    0    1
 -2       524       655       656      2762      2765      2763
 -1      1163    8    0    1
 -2       526       525       657      2363      2766      2767
 -1      1164    8    0    1
 -2       525       656       657      2764      2768      2766
 -1      1165    8    0    1
 -2       527       526       658      2366      2769      2770
 -1      1166    8    0    1
 -2       526       657       658      2767      2771      2769
 -1      1167    8    0    1
 -2       529       530       659      2374      2772      2773
 -1      1168    8    0    1
 -2       480       609       472      2638      2594      2774
 -1      1169    8    0    1
 -2       528       529       660      2371      2775      2776
 -1      1170    8    0    1
 -2       529       659       660      2773      2777      2775
 -1      1171    8    0    1
 -2       531       532       661      2380      2778      2779
 -1      1172    8    0    1
 -2       532       533       662      2383      2780      2781
 -1      1173    8    0    1
 -2       532       662       661      2781      2782      2778
 -1      1174    8    0    1
 -2       533       534       663      2386      2783      2784
 -1      1175    8    0    1
 -2       533       663       662      2784      2785      2780
 -1      1176    8    0    1
 -2       534       535       664      2389      2786      2787
 -1      1177    8    0    1
 -2       534       664       663      2787      2788      2783
 -1      1178    8    0    1
 -2       535       536       665      2392      2789      2790
 -1      1179    8    0    1
 -2       535       665       664      2790      2791      2786
 -1      1180    8    0    1
 -2       536       537       666      2395      2792      2793
 -1      1181    8    0    1
 -2       536       666       665      2793      2794      2789
 -1      1182    8    0    1
 -2       537       538       667      2398      2795      2796
 -1      1183    8    0    1
 -2       537       667       666      2796      2797      2792
 -1      1184    8    0    1
 -2       538       539       668      2401      2798      2799
 -1      1185    8    0    1
 -2       538       668       667      2799      2800      2795
 -1      1186    8    0    1
 -2       539       540       669      2404      2801      2802
 -1      1187    8    0    1
 -2       539       669       668      2802      2803      2798
 -1      1188    8    0    1
 -2       540       541       670      2407      2804      2805
 -1      1189    8    0    1
 -2       540       670       669      2805      2806      2801
 -1      1190    8    0    1
 -2       541       542       671      2410      2807      2808
 -1      1191    8    0    1
 -2       541       671       670      2808      2809      2804
 -1      1192    8    0    1
 -2       542       543       672      2413      2810      2811
 -1      1193    8    0    1
 -2       542       672       671      2811      2812      2807
 -1      1194    8    0    1
 -2       543       544       673      2416      2813      2814
 -1      1195    8    0    1
 -2       543       673       672      2814      2815      2810
 -1      1196    8    0    1
 -2       544       545       674      2419      2816      2817
 -1      1197    8    0    1
 -2       544       674       673      2817      2818      2813
 -1      1198    8    0    1
 -2       545       546       675      2422      2819      2820
 -1      1199    8    0    1
 -2       545       675       674      2820      2821      2816
 -1      1200    8    0    1
 -2       546       547       676      2425      2822      2823
 -1      1201    8    0    1
 -2       546       676       675      2823      2824      2819
 -1      1202    8    0    1
 -2       547       548       677      2428      2825      2826
 -1      1203    8    0    1
 -2       547       677       676      2826      2827      2822
 -1      1204    8    0    1
 -2       548       549       678      2431      2828      2829
 -1      1205    8    0    1
 -2       548       678       677      2829      2830      2825
 -1      1206    8    0    1
 -2       549       550       679      2434      2831      2832
 -1      1207    8    0    1
 -2       549       679       678      2832      2833      2828
 -1      1208    8    0    1
 -2       550       551       680      2437      2834      2835
 -1      1209    8    0    1
 -2       550       680       679      2835      2836      2831
 -1      1210    8    0    1
 -2       551       552       681      2440      2837      2838
 -1      1211    8    0    1
 -2       551       681       680      2838      2839      2834
 -1      1212    8    0    1
 -2       552       553       682      2443      2840      2841
 -1      1213    8    0    1
 -2       552       682       681      2841      2842      2837
 -1      1214    8    0    1
 -2       553       554       683      2446      2843      2844
 -1      1215    8    0    1
 -2       553       683       682      2844      2845      2840
 -1      1216    8    0    1
 -2       554       555       684      2449      2846      2847
 -1      1217    8    0    1
 -2       554       684       683      2847      2848      2843
 -1      1218    8    0    1
 -2       555       556       685      2452      2849      2850
 -1      1219    8    0    1
 -2       555       685       684      2850      2851      2846
 -1      1220    8    0    1
 -2       556       557       686      2455      2852      2853
 -1      1221    8    0    1
 -2       556       686       685      2853      2854      2849
 -1      1222    8    0    1
 -2       557       558       687      2458      2855      2856
 -1      1223    8    0    1
 -2       557       687       686      2856      2857      2852
 -1      1224    8    0    1
 -2       558       559       688      2461      2858      2859
 -1      1225    8    0    1
 -2       558       688       687      2859      2860      2855
 -1      1226    8    0    1
 -2       559       560       689      2464      2861      2862
 -1      1227    8    0    1
 -2       559       689       688      2862      2863      2858
 -1      1228    8    0    1
 -2       560       561       690      2467      2864      2865
 -1      1229    8    0    1
 -2       560       690       689      2865      2866      2861
 -1      1230    8    0    1
 -2       561       562       691      2470      2867      2868
 -1      1231    8    0    1
 -2       561       691       690      2868      2869      2864
 -1      1232    8    0    1
 -2       562       563       692      2473      2870      2871
 -1      1233    8    0    1
 -2       562       692       691      2871      2872      2867
 -1      1234    8    0    1
 -2       563       564       693      2476      2873      2874
 -1      1235    8    0    1
 -2       563       693       692      2874      2875      2870
 -1      1236    8    0    1
 -2       564       565       694      2479      2876      2877
 -1      1237    8    0    1
 -2       564       694       693      2877      2878      2873
 -1      1238    8    0    1
 -2       565       566       695      2482      2879      2880
 -1      1239    8    0    1
 -2       565       695       694      2880      2881      2876
 -1      1240    8    0    1
 -2       566       567       696      2485      2882      2883
 -1      1241    8    0    1
 -2       566       696       695      2883      2884      2879
 -1      1242    8    0    1
 -2       567       568       697      2488      2885      2886
 -1      1243    8    0    1
 -2       696       567       697      2882      2886      2887
 -1      1244    8    0    1
 -2       568       619       697      2653      2888      2885
 -1      1245    8    0    1
 -2       574       575       698      2509      2889      2890
 -1      1246    8    0    1
 -2       614       527       699      2640      2891      2892
 -1      1247    8    0    1
 -2       580       614       699      2636      2892      2893
 -1      1248    8    0    1
 -2       527       658       699      2770      2894      2891
 -1      1249    8    0    1
 -2       570       571       700      2497      2895      2896
 -1      1250    8    0    1
 -2       575       576       701      2512      2897      2898
 -1      1251    8    0    1
 -2       575       701       698      2898      2899      2889
 -1      1252    8    0    1
 -2       571       574       702      2506      2900      2901
 -1      1253    8    0    1
 -2       700       571       702      2895      2901      2902
 -1      1254    8    0    1
 -2       574       698       702      2890      2903      2900
 -1      1255    8    0    1
 -2       481       608       703      2604      2904      2905
 -1      1256    8    0    1
 -2       576       577       704      2515      2906      2907
 -1      1257    8    0    1
 -2       576       704       701      2907      2908      2897
 -1      1258    8    0    1
 -2       577       578       705      2518      2909      2910
 -1      1259    8    0    1
 -2       577       705       704      2910      2911      2906
 -1      1260    8    0    1
 -2       578       579       706      2521      2912      2913
 -1      1261    8    0    1
 -2       578       706       705      2913      2914      2909
 -1      1262    8    0    1
 -2       579       580       707      2524      2915      2916
 -1      1263    8    0    1
 -2       706       579       707      2912      2916      2917
 -1      1264    8    0    1
 -2       580       699       707      2893      2918      2915
 -1      1265    8    0    1
 -2       587       598       708      2610      2919      2920
 -1      1266    8    0    1
 -2       483       585       709      2537      2921      2922
 -1      1267    8    0    1
 -2       605       606       710      2611      2923      2924
 -1      1268    8    0    1
 -2       603       521       602      2759      2758      2620
 -1      1269    8    0    1
 -2       602       520       593      2757      2925      2628
 -1      1270    8    0    1
 -2       583       528       711      2531      2926      2927
 -1      1271    8    0    1
 -2       528       660       711      2776      2928      2926
 -1      1272    8    0    1
 -2       530       531       712      2377      2929      2930
 -1      1273    8    0    1
 -2       659       530       712      2772      2930      2931
 -1      1274    8    0    1
 -2       531       661       712      2779      2932      2929
 -1      1275    8    0    1
 -2       485       483       713      2240      2933      2934
 -1      1276    8    0    1
 -2       623       485       713      2660      2934      2935
 -1      1277    8    0    1
 -2       483       709       713      2922      2936      2933
 -1      1278    8    0    1
 -2       585       445       709      2622      2937      2921
 -1      1279    8    0    1
 -2       477       478       714      2222      2938      2939
 -1      1280    8    0    1
 -2       615       477       714      2641      2939      2940
 -1      1281    8    0    1
 -2       478       617       714      2647      2941      2938
 -1      1282    8    0    1
 -2       606       607       715      2608      2942      2943
 -1      1283    8    0    1
 -2       474       473       716      2211      2944      2945
 -1      1284    8    0    1
 -2       590       591       717      2632      2946      2947
 -1      1285    8    0    1
 -2       598       599       718      2633      2948      2949
 -1      1286    8    0    1
 -2       484       590       719      2631      2950      2951
 -1      1287    8    0    1
 -2       600       601       518      2624      2755      2952
 -1      1288    8    0    1
 -2       589       594       720      2560      2953      2954
 -1      1289    8    0    1
 -2       591       592       721      2630      2955      2956
 -1      1290    8    0    1
 -2       594       595       722      2627      2957      2958
 -1      1291    8    0    1
 -2       595       596       723      2565      2959      2960
 -1      1292    8    0    1
 -2       597       587       724      2568      2961      2962
 -1      1293    8    0    1
 -2       596       597       725      2626      2963      2964
 -1      1294    8    0    1
 -2       723       596       725      2959      2964      2965
 -1      1295    8    0    1
 -2       597       724       725      2962      2966      2963
 -1      1296    8    0    1
 -2       599       600       726      2625      2967      2968
 -1      1297    8    0    1
 -2       592       471       727      2629      2969      2970
 -1      1298    8    0    1
 -2       482       583       728      2621      2971      2972
 -1      1299    8    0    1
 -2       620       482       728      2654      2972      2973
 -1      1300    8    0    1
 -2       583       711       728      2927      2974      2971
 -1      1301    8    0    1
 -2       593       520       519      2925      2345      2975
 -1      1302    8    0    1
 -2       584       581       729      2615      2976      2977
 -1      1303    8    0    1
 -2       604       605       730      2614      2978      2979
 -1      1304    8    0    1
 -2       470       582       731      2609      2980      2981
 -1      1305    8    0    1
 -2       608       484       732      2606      2982      2983
 -1      1306    8    0    1
 -2       484       719       732      2951      2984      2982
 -1      1307    8    0    1
 -2       519       601       593      2756      2623      2975
 -1      1308    8    0    1
 -2       600       518       726      2952      2985      2967
 -1      1309    8    0    1
 -2       611       474       733      2598      2986      2987
 -1      1310    8    0    1
 -2       474       716       733      2945      2988      2986
 -1      1311    8    0    1
 -2       612       481       734      2601      2989      2990
 -1      1312    8    0    1
 -2       481       703       734      2905      2991      2989
 -1      1313    8    0    1
 -2       475       616       735      2644      2992      2993
 -1      1314    8    0    1
 -2       475       735       588      2993      2994      2547
 -1      1315    8    0    1
 -2       619       572       573      2651      2502      2995
 -1      1316    8    0    1
 -2       730       605       710      2978      2924      2996
 -1      1317    8    0    1
 -2       610       589       736      2595      2997      2998
 -1      1318    8    0    1
 -2       589       720       736      2954      2999      2997
 -1      1319    8    0    1
 -2       586       621       622      2657      3000      2658
 -1      1320    8    0    1
 -2       607       622       715      2659      3001      2942
 -1      1321    8    0    1
 -2       606       715       710      2943      3002      2923
 -1      1322    8    0    1
 -2       517       654       726      2753      3003      3004
 -1      1323    8    0    1
 -2       518       517       726      2339      3004      2985
 -1      1324    8    0    1
 -2       721       592       727      2955      2970      3005
 -1      1325    8    0    1
 -2       584       729       621      2977      3006      2656
 -1      1326    8    0    1
 -2       522       603       737      2760      3007      3008
 -1      1327    8    0    1
 -2       523       522       730      2354      3009      3010
 -1      1328    8    0    1
 -2       570       700       738      2896      3011      3012
 -1      1329    8    0    1
 -2       570       738       573      3012      3013      2503
 -1      1330    8    0    1
 -2       480       472       620      2774      2655      3014
 -1      1331    8    0    1
 -2       587       708       724      2920      3015      2961
 -1      1332    8    0    1
 -2       708       598       718      2919      2949      3016
 -1      1333    8    0    1
 -2       613       470       731      2618      2981      3017
 -1      1334    8    0    1
 -2       709       445       611      2937      2600      3018
 -1      1335    8    0    1
 -2       581       613       739      2617      3019      3020
 -1      1336    8    0    1
 -2       581       739       729      3020      3021      2976
 -1      1337    8    0    1
 -2       603       604       737      2619      3022      3007
 -1      1338    8    0    1
 -2       722       595       723      2957      2960      3023
 -1      1339    8    0    1
 -2       480       620       618      3014      3024      2648
 -1      1340    8    0    1
 -2       473       588       740      2546      3025      3026
 -1      1341    8    0    1
 -2       716       473       740      2944      3026      3027
 -1      1342    8    0    1
 -2       588       735       740      2994      3028      3025
 -1      1343    8    0    1
 -2       719       590       717      2950      2947      3029
 -1      1344    8    0    1
 -2       718       599       726      2948      2968      3030
 -1      1345    8    0    1
 -2       582       612       741      2603      3031      3032
 -1      1346    8    0    1
 -2       582       741       731      3032      3033      2980
 -1      1347    8    0    1
 -2       717       591       742      2946      3034      3035
 -1      1348    8    0    1
 -2       591       721       742      2956      3036      3034
 -1      1349    8    0    1
 -2       720       594       722      2953      2958      3037
 -1      1350    8    0    1
 -2       703       608       743      2904      3038      3039
 -1      1351    8    0    1
 -2       608       732       743      2983      3040      3038
 -1      1352    8    0    1
 -2       727       471       610      2969      2597      3041
 -1      1353    8    0    1
 -2       719       717       744      3029      3042      3043
 -1      1354    8    0    1
 -2       617       618       745      2650      3044      3045
 -1      1355    8    0    1
 -2       726       654       718      3003      3046      3030
 -1      1356    8    0    1
 -2       625       624       746      2667      3047      3048
 -1      1357    8    0    1
 -2       626       625       747      2670      3049      3050
 -1      1358    8    0    1
 -2       625       746       747      3048      3051      3049
 -1      1359    8    0    1
 -2       627       626       748      2673      3052      3053
 -1      1360    8    0    1
 -2       626       747       748      3050      3054      3052
 -1      1361    8    0    1
 -2       628       627       749      2676      3055      3056
 -1      1362    8    0    1
 -2       627       748       749      3053      3057      3055
 -1      1363    8    0    1
 -2       629       628       750      2679      3058      3059
 -1      1364    8    0    1
 -2       628       749       750      3056      3060      3058
 -1      1365    8    0    1
 -2       630       629       751      2682      3061      3062
 -1      1366    8    0    1
 -2       629       750       751      3059      3063      3061
 -1      1367    8    0    1
 -2       631       630       752      2685      3064      3065
 -1      1368    8    0    1
 -2       630       751       752      3062      3066      3064
 -1      1369    8    0    1
 -2       632       631       753      2688      3067      3068
 -1      1370    8    0    1
 -2       631       752       753      3065      3069      3067
 -1      1371    8    0    1
 -2       633       632       754      2691      3070      3071
 -1      1372    8    0    1
 -2       632       753       754      3068      3072      3070
 -1      1373    8    0    1
 -2       634       633       755      2694      3073      3074
 -1      1374    8    0    1
 -2       633       754       755      3071      3075      3073
 -1      1375    8    0    1
 -2       635       634       756      2697      3076      3077
 -1      1376    8    0    1
 -2       634       755       756      3074      3078      3076
 -1      1377    8    0    1
 -2       636       635       757      2700      3079      3080
 -1      1378    8    0    1
 -2       635       756       757      3077      3081      3079
 -1      1379    8    0    1
 -2       637       636       758      2703      3082      3083
 -1      1380    8    0    1
 -2       636       757       758      3080      3084      3082
 -1      1381    8    0    1
 -2       638       637       759      2706      3085      3086
 -1      1382    8    0    1
 -2       637       758       759      3083      3087      3085
 -1      1383    8    0    1
 -2       639       638       760      2709      3088      3089
 -1      1384    8    0    1
 -2       638       759       760      3086      3090      3088
 -1      1385    8    0    1
 -2       640       639       761      2712      3091      3092
 -1      1386    8    0    1
 -2       639       760       761      3089      3093      3091
 -1      1387    8    0    1
 -2       641       640       762      2715      3094      3095
 -1      1388    8    0    1
 -2       640       761       762      3092      3096      3094
 -1      1389    8    0    1
 -2       642       641       763      2718      3097      3098
 -1      1390    8    0    1
 -2       641       762       763      3095      3099      3097
 -1      1391    8    0    1
 -2       643       642       764      2721      3100      3101
 -1      1392    8    0    1
 -2       642       763       764      3098      3102      3100
 -1      1393    8    0    1
 -2       644       643       765      2724      3103      3104
 -1      1394    8    0    1
 -2       643       764       765      3101      3105      3103
 -1      1395    8    0    1
 -2       645       644       766      2727      3106      3107
 -1      1396    8    0    1
 -2       644       765       766      3104      3108      3106
 -1      1397    8    0    1
 -2       646       645       767      2730      3109      3110
 -1      1398    8    0    1
 -2       645       766       767      3107      3111      3109
 -1      1399    8    0    1
 -2       647       646       768      2733      3112      3113
 -1      1400    8    0    1
 -2       646       767       768      3110      3114      3112
 -1      1401    8    0    1
 -2       648       647       769      2736      3115      3116
 -1      1402    8    0    1
 -2       647       768       769      3113      3117      3115
 -1      1403    8    0    1
 -2       649       648       770      2739      3118      3119
 -1      1404    8    0    1
 -2       648       769       770      3116      3120      3118
 -1      1405    8    0    1
 -2       650       649       771      2742      3121      3122
 -1      1406    8    0    1
 -2       649       770       771      3119      3123      3121
 -1      1407    8    0    1
 -2       651       650       772      2745      3124      3125
 -1      1408    8    0    1
 -2       650       771       772      3122      3126      3124
 -1      1409    8    0    1
 -2       652       651       773      2748      3127      3128
 -1      1410    8    0    1
 -2       651       772       773      3125      3129      3127
 -1      1411    8    0    1
 -2       653       652       774      2751      3130      3131
 -1      1412    8    0    1
 -2       652       773       774      3128      3132      3130
 -1      1413    8    0    1
 -2       654       653       775      2754      3133      3134
 -1      1414    8    0    1
 -2       718       654       775      3046      3134      3135
 -1      1415    8    0    1
 -2       653       774       775      3131      3136      3133
 -1      1416    8    0    1
 -2       622       621       776      3000      3137      3138
 -1      1417    8    0    1
 -2       722       723       777      3023      3139      3140
 -1      1418    8    0    1
 -2       523       730       655      3010      3141      2761
 -1      1419    8    0    1
 -2       657       656       778      2768      3142      3143
 -1      1420    8    0    1
 -2       658       657       779      2771      3144      3145
 -1      1421    8    0    1
 -2       657       778       779      3143      3146      3144
 -1      1422    8    0    1
 -2       660       659       780      2777      3147      3148
 -1      1423    8    0    1
 -2       662       663       781      2785      3149      3150
 -1      1424    8    0    1
 -2       661       662       782      2782      3151      3152
 -1      1425    8    0    1
 -2       662       781       782      3150      3153      3151
 -1      1426    8    0    1
 -2       664       665       783      2791      3154      3155
 -1      1427    8    0    1
 -2       665       666       784      2794      3156      3157
 -1      1428    8    0    1
 -2       665       784       783      3157      3158      3154
 -1      1429    8    0    1
 -2       666       667       785      2797      3159      3160
 -1      1430    8    0    1
 -2       666       785       784      3160      3161      3156
 -1      1431    8    0    1
 -2       667       668       786      2800      3162      3163
 -1      1432    8    0    1
 -2       667       786       785      3163      3164      3159
 -1      1433    8    0    1
 -2       668       669       787      2803      3165      3166
 -1      1434    8    0    1
 -2       668       787       786      3166      3167      3162
 -1      1435    8    0    1
 -2       669       670       788      2806      3168      3169
 -1      1436    8    0    1
 -2       669       788       787      3169      3170      3165
 -1      1437    8    0    1
 -2       670       671       789      2809      3171      3172
 -1      1438    8    0    1
 -2       670       789       788      3172      3173      3168
 -1      1439    8    0    1
 -2       671       672       790      2812      3174      3175
 -1      1440    8    0    1
 -2       671       790       789      3175      3176      3171
 -1      1441    8    0    1
 -2       672       673       791      2815      3177      3178
 -1      1442    8    0    1
 -2       672       791       790      3178      3179      3174
 -1      1443    8    0    1
 -2       673       674       792      2818      3180      3181
 -1      1444    8    0    1
 -2       673       792       791      3181      3182      3177
 -1      1445    8    0    1
 -2       674       675       793      2821      3183      3184
 -1      1446    8    0    1
 -2       674       793       792      3184      3185      3180
 -1      1447    8    0    1
 -2       675       676       794      2824      3186      3187
 -1      1448    8    0    1
 -2       675       794       793      3187      3188      3183
 -1      1449    8    0    1
 -2       676       677       795      2827      3189      3190
 -1      1450    8    0    1
 -2       676       795       794      3190      3191      3186
 -1      1451    8    0    1
 -2       677       678       796      2830      3192      3193
 -1      1452    8    0    1
 -2       677       796       795      3193      3194      3189
 -1      1453    8    0    1
 -2       678       679       797      2833      3195      3196
 -1      1454    8    0    1
 -2       678       797       796      3196      3197      3192
 -1      1455    8    0    1
 -2       679       680       798      2836      3198      3199
 -1      1456    8    0    1
 -2       679       798       797      3199      3200      3195
 -1      1457    8    0    1
 -2       680       681       799      2839      3201      3202
 -1      1458    8    0    1
 -2       680       799       798      3202      3203      3198
 -1      1459    8    0    1
 -2       681       682       800      2842      3204      3205
 -1      1460    8    0    1
 -2       681       800       799      3205      3206      3201
 -1      1461    8    0    1
 -2       682       683       801      2845      3207      3208
 -1      1462    8    0    1
 -2       682       801       800      3208      3209      3204
 -1      1463    8    0    1
 -2       683       684       802      2848      3210      3211
 -1      1464    8    0    1
 -2       683       802       801      3211      3212      3207
 -1      1465    8    0    1
 -2       684       685       803      2851      3213      3214
 -1      1466    8    0    1
 -2       684       803       802      3214      3215      3210
 -1      1467    8    0    1
 -2       685       686       804      2854      3216      3217
 -1      1468    8    0    1
 -2       685       804       803      3217      3218      3213
 -1      1469    8    0    1
 -2       686       687       805      2857      3219      3220
 -1      1470    8    0    1
 -2       686       805       804      3220      3221      3216
 -1      1471    8    0    1
 -2       687       688       806      2860      3222      3223
 -1      1472    8    0    1
 -2       687       806       805      3223      3224      3219
 -1      1473    8    0    1
 -2       688       689       807      2863      3225      3226
 -1      1474    8    0    1
 -2       688       807       806      3226      3227      3222
 -1      1475    8    0    1
 -2       689       690       808      2866      3228      3229
 -1      1476    8    0    1
 -2       689       808       807      3229      3230      3225
 -1      1477    8    0    1
 -2       690       691       809      2869      3231      3232
 -1      1478    8    0    1
 -2       690       809       808      3232      3233      3228
 -1      1479    8    0    1
 -2       691       692       744      2872      3234      3235
 -1      1480    8    0    1
 -2       693       694       810      2878      3236      3237
 -1      1481    8    0    1
 -2       694       695       811      2881      3238      3239
 -1      1482    8    0    1
 -2       694       811       810      3239      3240      3236
 -1      1483    8    0    1
 -2       695       696       812      2884      3241      3242
 -1      1484    8    0    1
 -2       695       812       811      3242      3243      3238
 -1      1485    8    0    1
 -2       699       658       707      2894      3244      2918
 -1      1486    8    0    1
 -2       724       708       813      3015      3245      3246
 -1      1487    8    0    1
 -2       616       615       814      2645      3247      3248
 -1      1488    8    0    1
 -2       704       705       815      2911      3249      3250
 -1      1489    8    0    1
 -2       698       701       816      2899      3251      3252
 -1      1490    8    0    1
 -2       705       706       776      2914      3253      3254
 -1      1491    8    0    1
 -2       701       704       817      2908      3255      3256
 -1      1492    8    0    1
 -2       704       815       817      3250      3257      3255
 -1      1493    8    0    1
 -2       732       719       818      2984      3258      3259
 -1      1494    8    0    1
 -2       619       573       738      2995      3013      3260
 -1      1495    8    0    1
 -2       708       718       775      3016      3135      3261
 -1      1496    8    0    1
 -2       663       664       819      2788      3262      3263
 -1      1497    8    0    1
 -2       781       663       819      3149      3263      3264
 -1      1498    8    0    1
 -2       664       783       819      3155      3265      3262
 -1      1499    8    0    1
 -2       711       660       820      2928      3266      3267
 -1      1500    8    0    1
 -2       660       780       820      3148      3268      3266
 -1      1501    8    0    1
 -2       624       623       821      2664      3269      3270
 -1      1502    8    0    1
 -2       624       821       746      3270      3271      3047
 -1      1503    8    0    1
 -2       613       731       822      3017      3272      3273
 -1      1504    8    0    1
 -2       721       727       823      3005      3274      3275
 -1      1505    8    0    1
 -2       720       722       824      3037      3276      3277
 -1      1506    8    0    1
 -2       618       620       825      3024      3278      3279
 -1      1507    8    0    1
 -2       745       618       825      3044      3279      3280
 -1      1508    8    0    1
 -2       620       728       825      2973      3281      3278
 -1      1509    8    0    1
 -2       621       729       826      3006      3282      3283
 -1      1510    8    0    1
 -2       715       622       778      3001      3284      3285
 -1      1511    8    0    1
 -2       737       604       730      3022      2979      3286
 -1      1512    8    0    1
 -2       709       611       733      3018      2987      3287
 -1      1513    8    0    1
 -2       727       610       827      3041      3288      3289
 -1      1514    8    0    1
 -2       734       703       828      2991      3290      3291
 -1      1515    8    0    1
 -2       703       743       828      3039      3292      3290
 -1      1516    8    0    1
 -2       735       616       829      2992      3293      3294
 -1      1517    8    0    1
 -2       616       814       829      3248      3295      3293
 -1      1518    8    0    1
 -2       617       745       830      3045      3296      3297
 -1      1519    8    0    1
 -2       617       830       714      3297      3298      2941
 -1      1520    8    0    1
 -2       776       621       826      3137      3283      3299
 -1      1521    8    0    1
 -2       736       720       831      2999      3300      3301
 -1      1522    8    0    1
 -2       720       824       831      3277      3302      3300
 -1      1523    8    0    1
 -2       613       822       739      3273      3303      3019
 -1      1524    8    0    1
 -2       777       723       832      3139      3304      3305
 -1      1525    8    0    1
 -2       722       777       824      3140      3306      3276
 -1      1526    8    0    1
 -2       730       522       737      3009      3008      3286
 -1      1527    8    0    1
 -2       778       656       715      3142      3307      3285
 -1      1528    8    0    1
 -2       623       713       833      2935      3308      3309
 -1      1529    8    0    1
 -2       623       833       821      3309      3310      3269
 -1      1530    8    0    1
 -2       708       775       813      3261      3311      3245
 -1      1531    8    0    1
 -2       658       779       707      3145      3312      3244
 -1      1532    8    0    1
 -2       780       659       834      3147      3313      3314
 -1      1533    8    0    1
 -2       659       712       834      2931      3315      3313
 -1      1534    8    0    1
 -2       713       709       733      2936      3287      3316
 -1      1535    8    0    1
 -2       661       782       835      3152      3317      3318
 -1      1536    8    0    1
 -2       661       835       712      3318      3319      2932
 -1      1537    8    0    1
 -2       691       744       809      3235      3320      3231
 -1      1538    8    0    1
 -2       744       692       836      3234      3321      3322
 -1      1539    8    0    1
 -2       719       744       836      3043      3322      3323
 -1      1540    8    0    1
 -2       692       693       836      2875      3324      3321
 -1      1541    8    0    1
 -2       693       810       836      3237      3325      3324
 -1      1542    8    0    1
 -2       812       696       837      3241      3326      3327
 -1      1543    8    0    1
 -2       696       697       837      2887      3328      3326
 -1      1544    8    0    1
 -2       814       615       838      3247      3329      3330
 -1      1545    8    0    1
 -2       615       714       838      2940      3331      3329
 -1      1546    8    0    1
 -2       700       702       839      2902      3332      3333
 -1      1547    8    0    1
 -2       697       619       840      2888      3334      3335
 -1      1548    8    0    1
 -2       619       738       840      3260      3336      3334
 -1      1549    8    0    1
 -2       732       818       743      3259      3337      3040
 -1      1550    8    0    1
 -2       702       698       841      2903      3338      3339
 -1      1551    8    0    1
 -2       702       841       839      3339      3340      3332
 -1      1552    8    0    1
 -2       701       817       816      3256      3341      3251
 -1      1553    8    0    1
 -2       706       707       779      2917      3312      3342
 -1      1554    8    0    1
 -2       706       779       776      3342      3343      3253
 -1      1555    8    0    1
 -2       724       813       842      3246      3344      3345
 -1      1556    8    0    1
 -2       728       711       843      2974      3346      3347
 -1      1557    8    0    1
 -2       825       728       843      3281      3347      3348
 -1      1558    8    0    1
 -2       711       820       843      3267      3349      3346
 -1      1559    8    0    1
 -2       725       724       842      2966      3345      3350
 -1      1560    8    0    1
 -2       610       736       827      2998      3351      3288
 -1      1561    8    0    1
 -2       727       827       823      3289      3352      3274
 -1      1562    8    0    1
 -2       738       700       844      3011      3353      3354
 -1      1563    8    0    1
 -2       840       738       844      3336      3354      3355
 -1      1564    8    0    1
 -2       700       839       844      3333      3356      3353
 -1      1565    8    0    1
 -2       741       612       845      3031      3357      3358
 -1      1566    8    0    1
 -2       612       734       845      2990      3359      3357
 -1      1567    8    0    1
 -2       822       731       741      3272      3033      3360
 -1      1568    8    0    1
 -2       622       776       778      3138      3361      3284
 -1      1569    8    0    1
 -2       733       716       846      2988      3362      3363
 -1      1570    8    0    1
 -2       723       725       832      2965      3364      3304
 -1      1571    8    0    1
 -2       744       717       742      3042      3035      3365
 -1      1572    8    0    1
 -2       841       698       816      3338      3252      3366
 -1      1573    8    0    1
 -2       846       716       847      3362      3367      3368
 -1      1574    8    0    1
 -2       716       740       847      3027      3369      3367
 -1      1575    8    0    1
 -2       744       742       809      3365      3370      3320
 -1      1576    8    0    1
 -2       748       747       848      3054      3371      3372
 -1      1577    8    0    1
 -2       749       748       849      3057      3373      3374
 -1      1578    8    0    1
 -2       748       848       849      3372      3375      3373
 -1      1579    8    0    1
 -2       750       749       850      3060      3376      3377
 -1      1580    8    0    1
 -2       749       849       850      3374      3378      3376
 -1      1581    8    0    1
 -2       751       750       851      3063      3379      3380
 -1      1582    8    0    1
 -2       750       850       851      3377      3381      3379
 -1      1583    8    0    1
 -2       752       751       852      3066      3382      3383
 -1      1584    8    0    1
 -2       751       851       852      3380      3384      3382
 -1      1585    8    0    1
 -2       753       752       853      3069      3385      3386
 -1      1586    8    0    1
 -2       752       852       853      3383      3387      3385
 -1      1587    8    0    1
 -2       754       753       854      3072      3388      3389
 -1      1588    8    0    1
 -2       753       853       854      3386      3390      3388
 -1      1589    8    0    1
 -2       755       754       855      3075      3391      3392
 -1      1590    8    0    1
 -2       754       854       855      3389      3393      3391
 -1      1591    8    0    1
 -2       756       755       856      3078      3394      3395
 -1      1592    8    0    1
 -2       755       855       856      3392      3396      3394
 -1      1593    8    0    1
 -2       757       756       857      3081      3397      3398
 -1      1594    8    0    1
 -2       756       856       857      3395      3399      3397
 -1      1595    8    0    1
 -2       758       757       858      3084      3400      3401
 -1      1596    8    0    1
 -2       757       857       858      3398      3402      3400
 -1      1597    8    0    1
 -2       759       758       859      3087      3403      3404
 -1      1598    8    0    1
 -2       758       858       859      3401      3405      3403
 -1      1599    8    0    1
 -2       760       759       860      3090      3406      3407
 -1      1600    8    0    1
 -2       759       859       860      3404      3408      3406
 -1      1601    8    0    1
 -2       761       760       861      3093      3409      3410
 -1      1602    8    0    1
 -2       760       860       861      3407      3411      3409
 -1      1603    8    0    1
 -2       762       761       862      3096      3412      3413
 -1      1604    8    0    1
 -2       761       861       862      3410      3414      3412
 -1      1605    8    0    1
 -2       763       762       863      3099      3415      3416
 -1      1606    8    0    1
 -2       762       862       863      3413      3417      3415
 -1      1607    8    0    1
 -2       764       763       864      3102      3418      3419
 -1      1608    8    0    1
 -2       763       863       864      3416      3420      3418
 -1      1609    8    0    1
 -2       765       764       865      3105      3421      3422
 -1      1610    8    0    1
 -2       764       864       865      3419      3423      3421
 -1      1611    8    0    1
 -2       766       765       866      3108      3424      3425
 -1      1612    8    0    1
 -2       765       865       866      3422      3426      3424
 -1      1613    8    0    1
 -2       767       766       867      3111      3427      3428
 -1      1614    8    0    1
 -2       766       866       867      3425      3429      3427
 -1      1615    8    0    1
 -2       768       767       868      3114      3430      3431
 -1      1616    8    0    1
 -2       767       867       868      3428      3432      3430
 -1      1617    8    0    1
 -2       769       768       869      3117      3433      3434
 -1      1618    8    0    1
 -2       768       868       869      3431      3435      3433
 -1      1619    8    0    1
 -2       770       769       870      3120      3436      3437
 -1      1620    8    0    1
 -2       769       869       870      3434      3438      3436
 -1      1621    8    0    1
 -2       771       770       871      3123      3439      3440
 -1      1622    8    0    1
 -2       770       870       871      3437      3441      3439
 -1      1623    8    0    1
 -2       772       771       872      3126      3442      3443
 -1      1624    8    0    1
 -2       771       871       872      3440      3444      3442
 -1      1625    8    0    1
 -2       773       772       873      3129      3445      3446
 -1      1626    8    0    1
 -2       772       872       873      3443      3447      3445
 -1      1627    8    0    1
 -2       774       773       874      3132      3448      3449
 -1      1628    8    0    1
 -2       773       873       874      3446      3450      3448
 -1      1629    8    0    1
 -2       775       774       813      3136      3451      3311
 -1      1630    8    0    1
 -2       824       777       875      3306      3452      3453
 -1      1631    8    0    1
 -2       655       730       710      3141      2996      3454
 -1      1632    8    0    1
 -2       817       815       739      3257      3455      3456
 -1      1633    8    0    1
 -2       725       842       832      3350      3457      3364
 -1      1634    8    0    1
 -2       784       785       876      3161      3458      3459
 -1      1635    8    0    1
 -2       783       784       877      3158      3460      3461
 -1      1636    8    0    1
 -2       784       876       877      3459      3462      3460
 -1      1637    8    0    1
 -2       786       787       878      3167      3463      3464
 -1      1638    8    0    1
 -2       787       788       879      3170      3465      3466
 -1      1639    8    0    1
 -2       787       879       878      3466      3467      3463
 -1      1640    8    0    1
 -2       788       789       880      3173      3468      3469
 -1      1641    8    0    1
 -2       788       880       879      3469      3470      3465
 -1      1642    8    0    1
 -2       789       790       881      3176      3471      3472
 -1      1643    8    0    1
 -2       789       881       880      3472      3473      3468
 -1      1644    8    0    1
 -2       790       791       882      3179      3474      3475
 -1      1645    8    0    1
 -2       790       882       881      3475      3476      3471
 -1      1646    8    0    1
 -2       791       792       883      3182      3477      3478
 -1      1647    8    0    1
 -2       791       883       882      3478      3479      3474
 -1      1648    8    0    1
 -2       792       793       884      3185      3480      3481
 -1      1649    8    0    1
 -2       792       884       883      3481      3482      3477
 -1      1650    8    0    1
 -2       793       794       885      3188      3483      3484
 -1      1651    8    0    1
 -2       793       885       884      3484      3485      3480
 -1      1652    8    0    1
 -2       794       795       886      3191      3486      3487
 -1      1653    8    0    1
 -2       794       886       885      3487      3488      3483
 -1      1654    8    0    1
 -2       795       796       887      3194      3489      3490
 -1      1655    8    0    1
 -2       795       887       886      3490      3491      3486
 -1      1656    8    0    1
 -2       796       797       888      3197      3492      3493
 -1      1657    8    0    1
 -2       796       888       887      3493      3494      3489
 -1      1658    8    0    1
 -2       797       798       889      3200      3495      3496
 -1      1659    8    0    1
 -2       797       889       888      3496      3497      3492
 -1      1660    8    0    1
 -2       798       799       890      3203      3498      3499
 -1      1661    8    0    1
 -2       798       890       889      3499      3500      3495
 -1      1662    8    0    1
 -2       799       800       891      3206      3501      3502
 -1      1663    8    0    1
 -2       799       891       890      3502      3503      3498
 -1      1664    8    0    1
 -2       800       801       892      3209      3504      3505
 -1      1665    8    0    1
 -2       800       892       891      3505      3506      3501
 -1      1666    8    0    1
 -2       801       802       893      3212      3507      3508
 -1      1667    8    0    1
 -2       801       893       892      3508      3509      3504
 -1      1668    8    0    1
 -2       802       803       894      3215      3510      3511
 -1      1669    8    0    1
 -2       802       894       893      3511      3512      3507
 -1      1670    8    0    1
 -2       803       804       895      3218      3513      3514
 -1      1671    8    0    1
 -2       803       895       894      3514      3515      3510
 -1      1672    8    0    1
 -2       804       805       896      3221      3516      3517
 -1      1673    8    0    1
 -2       804       896       895      3517      3518      3513
 -1      1674    8    0    1
 -2       805       806       897      3224      3519      3520
 -1      1675    8    0    1
 -2       805       897       896      3520      3521      3516
 -1      1676    8    0    1
 -2       806       807       898      3227      3522      3523
 -1      1677    8    0    1
 -2       806       898       897      3523      3524      3519
 -1      1678    8    0    1
 -2       807       808       823      3230      3525      3526
 -1      1679    8    0    1
 -2       808       809       823      3233      3527      3525
 -1      1680    8    0    1
 -2       719       836       818      3323      3528      3258
 -1      1681    8    0    1
 -2       836       810       818      3325      3529      3528
 -1      1682    8    0    1
 -2       810       811       828      3240      3530      3531
 -1      1683    8    0    1
 -2       816       817       739      3341      3456      3532
 -1      1684    8    0    1
 -2       776       779       778      3343      3146      3361
 -1      1685    8    0    1
 -2       827       736       899      3351      3533      3534
 -1      1686    8    0    1
 -2       705       776       815      3254      3535      3249
 -1      1687    8    0    1
 -2       842       813       900      3344      3536      3537
 -1      1688    8    0    1
 -2       777       832       901      3305      3538      3539
 -1      1689    8    0    1
 -2       777       901       875      3539      3540      3452
 -1      1690    8    0    1
 -2       811       812       902      3243      3541      3542
 -1      1691    8    0    1
 -2       828       811       902      3530      3542      3543
 -1      1692    8    0    1
 -2       812       837       902      3327      3544      3541
 -1      1693    8    0    1
 -2       656       655       710      2765      3454      3545
 -1      1694    8    0    1
 -2       746       821       903      3271      3546      3547
 -1      1695    8    0    1
 -2       785       786       904      3164      3548      3549
 -1      1696    8    0    1
 -2       876       785       904      3458      3549      3550
 -1      1697    8    0    1
 -2       786       878       904      3464      3551      3548
 -1      1698    8    0    1
 -2       740       735       905      3028      3552      3553
 -1      1699    8    0    1
 -2       740       905       847      3553      3554      3369
 -1      1700    8    0    1
 -2       782       781       906      3153      3555      3556
 -1      1701    8    0    1
 -2       820       780       907      3268      3557      3558
 -1      1702    8    0    1
 -2       742       721       823      3036      3275      3559
 -1      1703    8    0    1
 -2       747       746       908      3051      3560      3561
 -1      1704    8    0    1
 -2       747       908       848      3561      3562      3371
 -1      1705    8    0    1
 -2       822       741       909      3360      3563      3564
 -1      1706    8    0    1
 -2       839       841       909      3340      3565      3566
 -1      1707    8    0    1
 -2       733       846       833      3363      3567      3568
 -1      1708    8    0    1
 -2       710       715       656      3002      3307      3545
 -1      1709    8    0    1
 -2       823       827       807      3352      3569      3526
 -1      1710    8    0    1
 -2       809       742       823      3370      3559      3527
 -1      1711    8    0    1
 -2       713       733       833      3316      3568      3308
 -1      1712    8    0    1
 -2       816       739       822      3532      3303      3570
 -1      1713    8    0    1
 -2       816       822       841      3570      3571      3366
 -1      1714    8    0    1
 -2       841       822       909      3571      3564      3565
 -1      1715    8    0    1
 -2       829       814       910      3295      3572      3573
 -1      1716    8    0    1
 -2       830       745       911      3296      3574      3575
 -1      1717    8    0    1
 -2       831       824       912      3302      3576      3577
 -1      1718    8    0    1
 -2       824       875       912      3453      3578      3576
 -1      1719    8    0    1
 -2       910       814       913      3572      3579      3580
 -1      1720    8    0    1
 -2       814       838       913      3330      3581      3579
 -1      1721    8    0    1
 -2       781       819       914      3264      3582      3583
 -1      1722    8    0    1
 -2       781       914       906      3583      3584      3555
 -1      1723    8    0    1
 -2       813       774       874      3451      3449      3585
 -1      1724    8    0    1
 -2       746       903       908      3547      3586      3560
 -1      1725    8    0    1
 -2       834       712       835      3315      3319      3587
 -1      1726    8    0    1
 -2       835       782       915      3317      3588      3589
 -1      1727    8    0    1
 -2       782       906       915      3556      3590      3588
 -1      1728    8    0    1
 -2       832       842       916      3457      3591      3592
 -1      1729    8    0    1
 -2       905       735       829      3552      3294      3593
 -1      1730    8    0    1
 -2       783       877       917      3461      3594      3595
 -1      1731    8    0    1
 -2       783       917       819      3595      3596      3265
 -1      1732    8    0    1
 -2       838       714       830      3331      3298      3597
 -1      1733    8    0    1
 -2       901       832       918      3538      3598      3599
 -1      1734    8    0    1
 -2       832       916       918      3592      3600      3598
 -1      1735    8    0    1
 -2       815       776       826      3535      3299      3601
 -1      1736    8    0    1
 -2       846       847       919      3368      3602      3603
 -1      1737    8    0    1
 -2       900       813       874      3536      3585      3604
 -1      1738    8    0    1
 -2       833       846       920      3567      3605      3606
 -1      1739    8    0    1
 -2       821       833       920      3310      3606      3607
 -1      1740    8    0    1
 -2       846       919       920      3603      3608      3605
 -1      1741    8    0    1
 -2       818       810       743      3529      3609      3337
 -1      1742    8    0    1
 -2       843       820       921      3349      3610      3611
 -1      1743    8    0    1
 -2       820       907       921      3558      3612      3610
 -1      1744    8    0    1
 -2       741       845       909      3358      3613      3563
 -1      1745    8    0    1
 -2       842       900       922      3537      3614      3615
 -1      1746    8    0    1
 -2       842       922       916      3615      3616      3591
 -1      1747    8    0    1
 -2       780       834       923      3314      3617      3618
 -1      1748    8    0    1
 -2       780       923       907      3618      3619      3557
 -1      1749    8    0    1
 -2       844       839       924      3356      3620      3621
 -1      1750    8    0    1
 -2       903       821       920      3546      3607      3622
 -1      1751    8    0    1
 -2       899       736       831      3533      3301      3623
 -1      1752    8    0    1
 -2       924       839       909      3620      3566      3624
 -1      1753    8    0    1
 -2       729       739       815      3021      3455      3625
 -1      1754    8    0    1
 -2       734       828       925      3291      3626      3627
 -1      1755    8    0    1
 -2       845       734       925      3359      3627      3628
 -1      1756    8    0    1
 -2       828       902       925      3543      3629      3626
 -1      1757    8    0    1
 -2       850       849       926      3378      3630      3631
 -1      1758    8    0    1
 -2       851       850       927      3381      3632      3633
 -1      1759    8    0    1
 -2       850       926       927      3631      3634      3632
 -1      1760    8    0    1
 -2       852       851       928      3384      3635      3636
 -1      1761    8    0    1
 -2       851       927       928      3633      3637      3635
 -1      1762    8    0    1
 -2       853       852       929      3387      3638      3639
 -1      1763    8    0    1
 -2       852       928       929      3636      3640      3638
 -1      1764    8    0    1
 -2       854       853       930      3390      3641      3642
 -1      1765    8    0    1
 -2       853       929       930      3639      3643      3641
 -1      1766    8    0    1
 -2       855       854       931      3393      3644      3645
 -1      1767    8    0    1
 -2       854       930       931      3642      3646      3644
 -1      1768    8    0    1
 -2       856       855       932      3396      3647      3648
 -1      1769    8    0    1
 -2       855       931       932      3645      3649      3647
 -1      1770    8    0    1
 -2       857       856       933      3399      3650      3651
 -1      1771    8    0    1
 -2       856       932       933      3648      3652      3650
 -1      1772    8    0    1
 -2       858       857       934      3402      3653      3654
 -1      1773    8    0    1
 -2       857       933       934      3651      3655      3653
 -1      1774    8    0    1
 -2       859       858       935      3405      3656      3657
 -1      1775    8    0    1
 -2       858       934       935      3654      3658      3656
 -1      1776    8    0    1
 -2       860       859       936      3408      3659      3660
 -1      1777    8    0    1
 -2       859       935       936      3657      3661      3659
 -1      1778    8    0    1
 -2       861       860       937      3411      3662      3663
 -1      1779    8    0    1
 -2       860       936       937      3660      3664      3662
 -1      1780    8    0    1
 -2       862       861       938      3414      3665      3666
 -1      1781    8    0    1
 -2       861       937       938      3663      3667      3665
 -1      1782    8    0    1
 -2       863       862       939      3417      3668      3669
 -1      1783    8    0    1
 -2       862       938       939      3666      3670      3668
 -1      1784    8    0    1
 -2       864       863       940      3420      3671      3672
 -1      1785    8    0    1
 -2       863       939       940      3669      3673      3671
 -1      1786    8    0    1
 -2       865       864       941      3423      3674      3675
 -1      1787    8    0    1
 -2       864       940       941      3672      3676      3674
 -1      1788    8    0    1
 -2       866       865       942      3426      3677      3678
 -1      1789    8    0    1
 -2       865       941       942      3675      3679      3677
 -1      1790    8    0    1
 -2       867       866       943      3429      3680      3681
 -1      1791    8    0    1
 -2       866       942       943      3678      3682      3680
 -1      1792    8    0    1
 -2       868       867       944      3432      3683      3684
 -1      1793    8    0    1
 -2       867       943       944      3681      3685      3683
 -1      1794    8    0    1
 -2       869       868       945      3435      3686      3687
 -1      1795    8    0    1
 -2       868       944       945      3684      3688      3686
 -1      1796    8    0    1
 -2       870       869       946      3438      3689      3690
 -1      1797    8    0    1
 -2       869       945       946      3687      3691      3689
 -1      1798    8    0    1
 -2       871       870       947      3441      3692      3693
 -1      1799    8    0    1
 -2       870       946       947      3690      3694      3692
 -1      1800    8    0    1
 -2       872       871       948      3444      3695      3696
 -1      1801    8    0    1
 -2       871       947       948      3693      3697      3695
 -1      1802    8    0    1
 -2       873       872       949      3447      3698      3699
 -1      1803    8    0    1
 -2       872       948       949      3696      3700      3698
 -1      1804    8    0    1
 -2       874       873       950      3450      3701      3702
 -1      1805    8    0    1
 -2       900       874       950      3604      3702      3703
 -1      1806    8    0    1
 -2       873       949       950      3699      3704      3701
 -1      1807    8    0    1
 -2       877       876       951      3462      3705      3706
 -1      1808    8    0    1
 -2       905       829       952      3593      3707      3708
 -1      1809    8    0    1
 -2       829       910       952      3573      3709      3707
 -1      1810    8    0    1
 -2       879       880       953      3470      3710      3711
 -1      1811    8    0    1
 -2       878       879       954      3467      3712      3713
 -1      1812    8    0    1
 -2       879       953       954      3711      3714      3712
 -1      1813    8    0    1
 -2       881       882       955      3476      3715      3716
 -1      1814    8    0    1
 -2       882       883       956      3479      3717      3718
 -1      1815    8    0    1
 -2       882       956       955      3718      3719      3715
 -1      1816    8    0    1
 -2       883       884       957      3482      3720      3721
 -1      1817    8    0    1
 -2       883       957       956      3721      3722      3717
 -1      1818    8    0    1
 -2       884       885       958      3485      3723      3724
 -1      1819    8    0    1
 -2       884       958       957      3724      3725      3720
 -1      1820    8    0    1
 -2       885       886       959      3488      3726      3727
 -1      1821    8    0    1
 -2       885       959       958      3727      3728      3723
 -1      1822    8    0    1
 -2       886       887       960      3491      3729      3730
 -1      1823    8    0    1
 -2       886       960       959      3730      3731      3726
 -1      1824    8    0    1
 -2       887       888       961      3494      3732      3733
 -1      1825    8    0    1
 -2       887       961       960      3733      3734      3729
 -1      1826    8    0    1
 -2       888       889       962      3497      3735      3736
 -1      1827    8    0    1
 -2       888       962       961      3736      3737      3732
 -1      1828    8    0    1
 -2       889       890       963      3500      3738      3739
 -1      1829    8    0    1
 -2       889       963       962      3739      3740      3735
 -1      1830    8    0    1
 -2       890       891       964      3503      3741      3742
 -1      1831    8    0    1
 -2       890       964       963      3742      3743      3738
 -1      1832    8    0    1
 -2       891       892       965      3506      3744      3745
 -1      1833    8    0    1
 -2       891       965       964      3745      3746      3741
 -1      1834    8    0    1
 -2       892       893       966      3509      3747      3748
 -1      1835    8    0    1
 -2       892       966       965      3748      3749      3744
 -1      1836    8    0    1
 -2       893       894       967      3512      3750      3751
 -1      1837    8    0    1
 -2       893       967       966      3751      3752      3747
 -1      1838    8    0    1
 -2       894       895       968      3515      3753      3754
 -1      1839    8    0    1
 -2       894       968       967      3754      3755      3750
 -1      1840    8    0    1
 -2       895       896       969      3518      3756      3757
 -1      1841    8    0    1
 -2       895       969       968      3757      3758      3753
 -1      1842    8    0    1
 -2       896       897       912      3521      3759      3760
 -1      1843    8    0    1
 -2       897       898       899      3524      3761      3762
 -1      1844    8    0    1
 -2       807       827       898      3569      3763      3522
 -1      1845    8    0    1
 -2       837       697       840      3328      3335      3764
 -1      1846    8    0    1
 -2       919       847       970      3602      3765      3766
 -1      1847    8    0    1
 -2       847       905       970      3554      3767      3765
 -1      1848    8    0    1
 -2       920       919       971      3608      3768      3769
 -1      1849    8    0    1
 -2       920       971       903      3769      3770      3622
 -1      1850    8    0    1
 -2       875       901       972      3540      3771      3772
 -1      1851    8    0    1
 -2       838       830       973      3597      3773      3774
 -1      1852    8    0    1
 -2       913       838       973      3581      3774      3775
 -1      1853    8    0    1
 -2       830       911       973      3575      3776      3773
 -1      1854    8    0    1
 -2       840       844       974      3355      3777      3778
 -1      1855    8    0    1
 -2       837       840       974      3764      3778      3779
 -1      1856    8    0    1
 -2       844       924       974      3621      3780      3777
 -1      1857    8    0    1
 -2       899       898       827      3761      3763      3534
 -1      1858    8    0    1
 -2       908       903       975      3586      3781      3782
 -1      1859    8    0    1
 -2       903       971       975      3770      3783      3781
 -1      1860    8    0    1
 -2       909       845       924      3613      3784      3624
 -1      1861    8    0    1
 -2       834       835       976      3587      3785      3786
 -1      1862    8    0    1
 -2       834       976       923      3786      3787      3617
 -1      1863    8    0    1
 -2       729       815       826      3625      3601      3282
 -1      1864    8    0    1
 -2       849       848       977      3375      3788      3789
 -1      1865    8    0    1
 -2       849       977       926      3789      3790      3630
 -1      1866    8    0    1
 -2       848       908       978      3562      3791      3792
 -1      1867    8    0    1
 -2       977       848       978      3788      3792      3793
 -1      1868    8    0    1
 -2       908       975       978      3782      3794      3791
 -1      1869    8    0    1
 -2       924       845       925      3784      3628      3795
 -1      1870    8    0    1
 -2       911       745       843      3574      3796      3797
 -1      1871    8    0    1
 -2       745       825       843      3280      3348      3796
 -1      1872    8    0    1
 -2       880       881       979      3473      3798      3799
 -1      1873    8    0    1
 -2       881       955       979      3716      3800      3798
 -1      1874    8    0    1
 -2       911       843       921      3797      3611      3801
 -1      1875    8    0    1
 -2       837       974       902      3779      3802      3544
 -1      1876    8    0    1
 -2       974       924       925      3780      3795      3803
 -1      1877    8    0    1
 -2       914       819       917      3582      3596      3804
 -1      1878    8    0    1
 -2       877       951       980      3706      3805      3806
 -1      1879    8    0    1
 -2       877       980       917      3806      3807      3594
 -1      1880    8    0    1
 -2       952       910       981      3709      3808      3809
 -1      1881    8    0    1
 -2       905       952       970      3708      3810      3767
 -1      1882    8    0    1
 -2       900       950       922      3703      3811      3614
 -1      1883    8    0    1
 -2       915       906       982      3590      3812      3813
 -1      1884    8    0    1
 -2       907       923       983      3619      3814      3815
 -1      1885    8    0    1
 -2       953       880       979      3710      3799      3816
 -1      1886    8    0    1
 -2       878       954       984      3713      3817      3818
 -1      1887    8    0    1
 -2       878       984       904      3818      3819      3551
 -1      1888    8    0    1
 -2       897       899       912      3762      3820      3759
 -1      1889    8    0    1
 -2       973       911       985      3776      3821      3822
 -1      1890    8    0    1
 -2       911       921       985      3801      3823      3821
 -1      1891    8    0    1
 -2       918       916       986      3600      3824      3825
 -1      1892    8    0    1
 -2       916       922       986      3616      3826      3824
 -1      1893    8    0    1
 -2       906       914       987      3584      3827      3828
 -1      1894    8    0    1
 -2       906       987       982      3828      3829      3812
 -1      1895    8    0    1
 -2       919       970       971      3766      3830      3768
 -1      1896    8    0    1
 -2       901       918       988      3599      3831      3832
 -1      1897    8    0    1
 -2       901       988       972      3832      3833      3771
 -1      1898    8    0    1
 -2       951       876       989      3705      3834      3835
 -1      1899    8    0    1
 -2       876       904       989      3550      3836      3834
 -1      1900    8    0    1
 -2       921       907       985      3612      3837      3823
 -1      1901    8    0    1
 -2       875       972       990      3772      3838      3839
 -1      1902    8    0    1
 -2       875       990       912      3839      3840      3578
 -1      1903    8    0    1
 -2       985       907       983      3837      3815      3841
 -1      1904    8    0    1
 -2       910       913       991      3580      3842      3843
 -1      1905    8    0    1
 -2       910       991       981      3843      3844      3808
 -1      1906    8    0    1
 -2       976       835       915      3785      3589      3845
 -1      1907    8    0    1
 -2       743       810       828      3609      3531      3292
 -1      1908    8    0    1
 -2       976       915       992      3845      3846      3847
 -1      1909    8    0    1
 -2       915       982       992      3813      3848      3846
 -1      1910    8    0    1
 -2       928       927       993      3637      3849      3850
 -1      1911    8    0    1
 -2       929       928       994      3640      3851      3852
 -1      1912    8    0    1
 -2       928       993       994      3850      3853      3851
 -1      1913    8    0    1
 -2       930       929       995      3643      3854      3855
 -1      1914    8    0    1
 -2       929       994       995      3852      3856      3854
 -1      1915    8    0    1
 -2       931       930       996      3646      3857      3858
 -1      1916    8    0    1
 -2       930       995       996      3855      3859      3857
 -1      1917    8    0    1
 -2       932       931       997      3649      3860      3861
 -1      1918    8    0    1
 -2       931       996       997      3858      3862      3860
 -1      1919    8    0    1
 -2       933       932       998      3652      3863      3864
 -1      1920    8    0    1
 -2       932       997       998      3861      3865      3863
 -1      1921    8    0    1
 -2       934       933       999      3655      3866      3867
 -1      1922    8    0    1
 -2       933       998       999      3864      3868      3866
 -1      1923    8    0    1
 -2       935       934      1000      3658      3869      3870
 -1      1924    8    0    1
 -2       934       999      1000      3867      3871      3869
 -1      1925    8    0    1
 -2       936       935      1001      3661      3872      3873
 -1      1926    8    0    1
 -2       935      1000      1001      3870      3874      3872
 -1      1927    8    0    1
 -2       937       936      1002      3664      3875      3876
 -1      1928    8    0    1
 -2       936      1001      1002      3873      3877      3875
 -1      1929    8    0    1
 -2       938       937      1003      3667      3878      3879
 -1      1930    8    0    1
 -2       937      1002      1003      3876      3880      3878
 -1      1931    8    0    1
 -2       939       938      1004      3670      3881      3882
 -1      1932    8    0    1
 -2       938      1003      1004      3879      3883      3881
 -1      1933    8    0    1
 -2       940       939      1005      3673      3884      3885
 -1      1934    8    0    1
 -2       939      1004      1005      3882      3886      3884
 -1      1935    8    0    1
 -2       941       940      1006      3676      3887      3888
 -1      1936    8    0    1
 -2       940      1005      1006      3885      3889      3887
 -1      1937    8    0    1
 -2       942       941      1007      3679      3890      3891
 -1      1938    8    0    1
 -2       941      1006      1007      3888      3892      3890
 -1      1939    8    0    1
 -2       943       942      1008      3682      3893      3894
 -1      1940    8    0    1
 -2       942      1007      1008      3891      3895      3893
 -1      1941    8    0    1
 -2       944       943      1009      3685      3896      3897
 -1      1942    8    0    1
 -2       943      1008      1009      3894      3898      3896
 -1      1943    8    0    1
 -2       945       944      1010      3688      3899      3900
 -1      1944    8    0    1
 -2       944      1009      1010      3897      3901      3899
 -1      1945    8    0    1
 -2       946       945      1011      3691      3902      3903
 -1      1946    8    0    1
 -2       945      1010      1011      3900      3904      3902
 -1      1947    8    0    1
 -2       947       946      1012      3694      3905      3906
 -1      1948    8    0    1
 -2       946      1011      1012      3903      3907      3905
 -1      1949    8    0    1
 -2       948       947      1013      3697      3908      3909
 -1      1950    8    0    1
 -2       947      1012      1013      3906      3910      3908
 -1      1951    8    0    1
 -2       949       948      1014      3700      3911      3912
 -1      1952    8    0    1
 -2       948      1013      1014      3909      3913      3911
 -1      1953    8    0    1
 -2       950       949      1015      3704      3914      3915
 -1      1954    8    0    1
 -2       949      1014      1015      3912      3916      3914
 -1      1955    8    0    1
 -2       970       952      1016      3810      3917      3918
 -1      1956    8    0    1
 -2       952       981      1016      3809      3919      3917
 -1      1957    8    0    1
 -2       983       923      1017      3814      3920      3921
 -1      1958    8    0    1
 -2       923       976      1017      3787      3922      3920
 -1      1959    8    0    1
 -2       971       970      1016      3830      3918      3923
 -1      1960    8    0    1
 -2       953       979      1018      3816      3924      3925
 -1      1961    8    0    1
 -2       956       957      1019      3722      3926      3927
 -1      1962    8    0    1
 -2       955       956      1020      3719      3928      3929
 -1      1963    8    0    1
 -2       956      1019      1020      3927      3930      3928
 -1      1964    8    0    1
 -2       958       959      1021      3728      3931      3932
 -1      1965    8    0    1
 -2       959       960      1022      3731      3933      3934
 -1      1966    8    0    1
 -2       959      1022      1021      3934      3935      3931
 -1      1967    8    0    1
 -2       960       961      1023      3734      3936      3937
 -1      1968    8    0    1
 -2       960      1023      1022      3937      3938      3933
 -1      1969    8    0    1
 -2       961       962      1024      3737      3939      3940
 -1      1970    8    0    1
 -2       961      1024      1023      3940      3941      3936
 -1      1971    8    0    1
 -2       962       963      1025      3740      3942      3943
 -1      1972    8    0    1
 -2       962      1025      1024      3943      3944      3939
 -1      1973    8    0    1
 -2       963       964      1026      3743      3945      3946
 -1      1974    8    0    1
 -2       963      1026      1025      3946      3947      3942
 -1      1975    8    0    1
 -2       964       965      1027      3746      3948      3949
 -1      1976    8    0    1
 -2       964      1027      1026      3949      3950      3945
 -1      1977    8    0    1
 -2       965       966      1028      3749      3951      3952
 -1      1978    8    0    1
 -2       965      1028      1027      3952      3953      3948
 -1      1979    8    0    1
 -2       966       967      1029      3752      3954      3955
 -1      1980    8    0    1
 -2       966      1029      1028      3955      3956      3951
 -1      1981    8    0    1
 -2       967       968      1030      3755      3957      3958
 -1      1982    8    0    1
 -2       967      1030      1029      3958      3959      3954
 -1      1983    8    0    1
 -2       896       912       969      3760      3960      3756
 -1      1984    8    0    1
 -2       975       971      1016      3783      3923      3961
 -1      1985    8    0    1
 -2       922       950      1015      3811      3915      3962
 -1      1986    8    0    1
 -2       913       973      1031      3775      3963      3964
 -1      1987    8    0    1
 -2       991       913      1031      3842      3964      3965
 -1      1988    8    0    1
 -2       973       985      1031      3822      3966      3963
 -1      1989    8    0    1
 -2       979       955      1032      3800      3967      3968
 -1      1990    8    0    1
 -2       979      1032      1018      3968      3969      3924
 -1      1991    8    0    1
 -2       974       925       902      3803      3629      3802
 -1      1992    8    0    1
 -2       954       953      1033      3714      3970      3971
 -1      1993    8    0    1
 -2       953      1018      1033      3925      3972      3970
 -1      1994    8    0    1
 -2       899       831       912      3623      3577      3820
 -1      1995    8    0    1
 -2       957       958      1034      3725      3973      3974
 -1      1996    8    0    1
 -2       957      1034      1019      3974      3975      3926
 -1      1997    8    0    1
 -2       914       917      1035      3804      3976      3977
 -1      1998    8    0    1
 -2       987       914      1035      3827      3977      3978
 -1      1999    8    0    1
 -2       917       980      1035      3807      3979      3976
 -1      2000    8    0    1
 -2       926       977      1036      3790      3980      3981
 -1      2001    8    0    1
 -2       985       983      1031      3841      3982      3966
 -1      2002    8    0    1
 -2       927       926      1037      3634      3983      3984
 -1      2003    8    0    1
 -2       927      1037       993      3984      3985      3849
 -1      2004    8    0    1
 -2      1034       958      1021      3973      3932      3986
 -1      2005    8    0    1
 -2       980       951      1038      3805      3987      3988
 -1      2006    8    0    1
 -2      1016       981      1039      3919      3989      3990
 -1      2007    8    0    1
 -2      1017       976       992      3922      3847      3991
 -1      2008    8    0    1
 -2       981       991      1040      3844      3992      3993
 -1      2009    8    0    1
 -2       981      1040      1039      3993      3994      3989
 -1      2010    8    0    1
 -2       984       954      1041      3817      3995      3996
 -1      2011    8    0    1
 -2       954      1033      1041      3971      3997      3995
 -1      2012    8    0    1
 -2       983      1017      1042      3921      3998      3999
 -1      2013    8    0    1
 -2       955      1020      1032      3929      4000      3967
 -1      2014    8    0    1
 -2       969       912       990      3960      3840      4001
 -1      2015    8    0    1
 -2       968       969      1043      3758      4002      4003
 -1      2016    8    0    1
 -2       975      1016      1044      3961      4004      4005
 -1      2017    8    0    1
 -2       978       975      1044      3794      4005      4006
 -1      2018    8    0    1
 -2      1016      1039      1044      3990      4007      4004
 -1      2019    8    0    1
 -2       968      1043      1030      4003      4008      3957
 -1      2020    8    0    1
 -2       992       982      1045      3848      4009      4010
 -1      2021    8    0    1
 -2       986       922      1015      3826      3962      4011
 -1      2022    8    0    1
 -2      1036       977      1046      3980      4012      4013
 -1      2023    8    0    1
 -2       977       978      1046      3793      4014      4012
 -1      2024    8    0    1
 -2       988       918      1047      3831      4015      4016
 -1      2025    8    0    1
 -2       918       986      1047      3825      4017      4015
 -1      2026    8    0    1
 -2       989       904       984      3836      3819      4018
 -1      2027    8    0    1
 -2       951       989      1048      3835      4019      4020
 -1      2028    8    0    1
 -2       951      1048      1038      4020      4021      3987
 -1      2029    8    0    1
 -2       990       972      1043      3838      4022      4023
 -1      2030    8    0    1
 -2       983      1042      1031      3999      4024      3982
 -1      2031    8    0    1
 -2       969       990      1043      4001      4023      4002
 -1      2032    8    0    1
 -2       982       987      1049      3829      4025      4026
 -1      2033    8    0    1
 -2       982      1049      1045      4026      4027      4009
 -1      2034    8    0    1
 -2       926      1036      1037      3981      4028      3983
 -1      2035    8    0    1
 -2      1043       972       988      4022      3833      4029
 -1      2036    8    0    1
 -2      1030      1043       988      4008      4029      4030
 -1      2037    8    0    1
 -2      1034      1021      1050      3986      4031      4032
 -1      2038    8    0    1
 -2       995       994      1051      3856      4033      4034
 -1      2039    8    0    1
 -2       996       995      1052      3859      4035      4036
 -1      2040    8    0    1
 -2       995      1051      1052      4034      4037      4035
 -1      2041    8    0    1
 -2       997       996      1053      3862      4038      4039
 -1      2042    8    0    1
 -2       996      1052      1053      4036      4040      4038
 -1      2043    8    0    1
 -2       998       997      1054      3865      4041      4042
 -1      2044    8    0    1
 -2       997      1053      1054      4039      4043      4041
 -1      2045    8    0    1
 -2       999       998      1055      3868      4044      4045
 -1      2046    8    0    1
 -2       998      1054      1055      4042      4046      4044
 -1      2047    8    0    1
 -2      1000       999      1056      3871      4047      4048
 -1      2048    8    0    1
 -2       999      1055      1056      4045      4049      4047
 -1      2049    8    0    1
 -2      1001      1000      1057      3874      4050      4051
 -1      2050    8    0    1
 -2      1000      1056      1057      4048      4052      4050
 -1      2051    8    0    1
 -2      1002      1001      1058      3877      4053      4054
 -1      2052    8    0    1
 -2      1001      1057      1058      4051      4055      4053
 -1      2053    8    0    1
 -2      1003      1002      1059      3880      4056      4057
 -1      2054    8    0    1
 -2      1002      1058      1059      4054      4058      4056
 -1      2055    8    0    1
 -2      1004      1003      1060      3883      4059      4060
 -1      2056    8    0    1
 -2      1003      1059      1060      4057      4061      4059
 -1      2057    8    0    1
 -2      1005      1004      1061      3886      4062      4063
 -1      2058    8    0    1
 -2      1004      1060      1061      4060      4064      4062
 -1      2059    8    0    1
 -2      1006      1005      1062      3889      4065      4066
 -1      2060    8    0    1
 -2      1005      1061      1062      4063      4067      4065
 -1      2061    8    0    1
 -2      1007      1006      1063      3892      4068      4069
 -1      2062    8    0    1
 -2      1006      1062      1063      4066      4070      4068
 -1      2063    8    0    1
 -2      1008      1007      1064      3895      4071      4072
 -1      2064    8    0    1
 -2      1007      1063      1064      4069      4073      4071
 -1      2065    8    0    1
 -2      1009      1008      1065      3898      4074      4075
 -1      2066    8    0    1
 -2      1008      1064      1065      4072      4076      4074
 -1      2067    8    0    1
 -2      1010      1009      1066      3901      4077      4078
 -1      2068    8    0    1
 -2      1009      1065      1066      4075      4079      4077
 -1      2069    8    0    1
 -2      1011      1010      1067      3904      4080      4081
 -1      2070    8    0    1
 -2      1010      1066      1067      4078      4082      4080
 -1      2071    8    0    1
 -2      1012      1011      1068      3907      4083      4084
 -1      2072    8    0    1
 -2      1011      1067      1068      4081      4085      4083
 -1      2073    8    0    1
 -2      1013      1012      1069      3910      4086      4087
 -1      2074    8    0    1
 -2      1012      1068      1069      4084      4088      4086
 -1      2075    8    0    1
 -2      1014      1013      1070      3913      4089      4090
 -1      2076    8    0    1
 -2      1013      1069      1070      4087      4091      4089
 -1      2077    8    0    1
 -2      1015      1014      1071      3916      4092      4093
 -1      2078    8    0    1
 -2       986      1015      1071      4011      4093      4094
 -1      2079    8    0    1
 -2      1014      1070      1071      4090      4095      4092
 -1      2080    8    0    1
 -2      1017       992      1072      3991      4096      4097
 -1      2081    8    0    1
 -2       992      1045      1072      4010      4098      4096
 -1      2082    8    0    1
 -2       980      1038      1073      3988      4099      4100
 -1      2083    8    0    1
 -2       980      1073      1035      4100      4101      3979
 -1      2084    8    0    1
 -2      1042      1017      1072      3998      4097      4102
 -1      2085    8    0    1
 -2      1032      1020      1074      4000      4103      4104
 -1      2086    8    0    1
 -2      1022      1023      1075      3938      4105      4106
 -1      2087    8    0    1
 -2      1021      1022      1076      3935      4107      4108
 -1      2088    8    0    1
 -2      1050      1021      1076      4031      4108      4109
 -1      2089    8    0    1
 -2      1022      1075      1076      4106      4110      4107
 -1      2090    8    0    1
 -2      1024      1025      1077      3944      4111      4112
 -1      2091    8    0    1
 -2      1025      1026      1078      3947      4113      4114
 -1      2092    8    0    1
 -2      1025      1078      1077      4114      4115      4111
 -1      2093    8    0    1
 -2      1026      1027      1079      3950      4116      4117
 -1      2094    8    0    1
 -2      1026      1079      1078      4117      4118      4113
 -1      2095    8    0    1
 -2      1027      1028      1080      3953      4119      4120
 -1      2096    8    0    1
 -2      1027      1080      1079      4120      4121      4116
 -1      2097    8    0    1
 -2      1028      1029      1081      3956      4122      4123
 -1      2098    8    0    1
 -2      1028      1081      1080      4123      4124      4119
 -1      2099    8    0    1
 -2      1029      1030      1082      3959      4125      4126
 -1      2100    8    0    1
 -2      1081      1029      1082      4122      4126      4127
 -1      2101    8    0    1
 -2      1030       988      1082      4030      4128      4125
 -1      2102    8    0    1
 -2      1018      1032      1083      3969      4129      4130
 -1      2103    8    0    1
 -2      1032      1074      1083      4104      4131      4129
 -1      2104    8    0    1
 -2      1037      1036      1084      4028      4132      4133
 -1      2105    8    0    1
 -2       993      1037      1085      3985      4134      4135
 -1      2106    8    0    1
 -2      1037      1084      1085      4133      4136      4134
 -1      2107    8    0    1
 -2      1019      1034      1086      3975      4137      4138
 -1      2108    8    0    1
 -2      1034      1050      1086      4032      4139      4137
 -1      2109    8    0    1
 -2       989       984      1087      4018      4140      4141
 -1      2110    8    0    1
 -2       984      1041      1087      3996      4142      4140
 -1      2111    8    0    1
 -2      1023      1024      1088      3941      4143      4144
 -1      2112    8    0    1
 -2      1024      1077      1088      4112      4145      4143
 -1      2113    8    0    1
 -2       994       993      1089      3853      4146      4147
 -1      2114    8    0    1
 -2       993      1085      1089      4135      4148      4146
 -1      2115    8    0    1
 -2      1033      1018      1090      3972      4149      4150
 -1      2116    8    0    1
 -2      1018      1083      1090      4130      4151      4149
 -1      2117    8    0    1
 -2      1020      1019      1091      3930      4152      4153
 -1      2118    8    0    1
 -2      1020      1091      1074      4153      4154      4103
 -1      2119    8    0    1
 -2      1049       987      1092      4025      4155      4156
 -1      2120    8    0    1
 -2       987      1035      1092      3978      4157      4155
 -1      2121    8    0    1
 -2       986      1071      1047      4094      4158      4017
 -1      2122    8    0    1
 -2      1019      1086      1091      4138      4159      4152
 -1      2123    8    0    1
 -2      1073      1038      1093      4099      4160      4161
 -1      2124    8    0    1
 -2      1041      1033      1094      3997      4162      4163
 -1      2125    8    0    1
 -2      1033      1090      1094      4150      4164      4162
 -1      2126    8    0    1
 -2      1075      1023      1088      4105      4144      4165
 -1      2127    8    0    1
 -2       994      1089      1051      4147      4166      4033
 -1      2128    8    0    1
 -2      1082       988      1047      4128      4016      4167
 -1      2129    8    0    1
 -2      1045      1049      1095      4027      4168      4169
 -1      2130    8    0    1
 -2       978      1044      1046      4006      4170      4014
 -1      2131    8    0    1
 -2      1084      1036      1096      4132      4171      4172
 -1      2132    8    0    1
 -2      1036      1046      1096      4013      4173      4171
 -1      2133    8    0    1
 -2      1072      1045      1097      4098      4174      4175
 -1      2134    8    0    1
 -2      1045      1095      1097      4169      4176      4174
 -1      2135    8    0    1
 -2      1048       989      1087      4019      4141      4177
 -1      2136    8    0    1
 -2      1031      1042      1098      4024      4178      4179
 -1      2137    8    0    1
 -2       991      1031      1098      3965      4179      4180
 -1      2138    8    0    1
 -2      1042      1072      1099      4102      4181      4182
 -1      2139    8    0    1
 -2      1072      1097      1099      4175      4183      4181
 -1      2140    8    0    1
 -2      1038      1048      1100      4021      4184      4185
 -1      2141    8    0    1
 -2      1038      1100      1093      4185      4186      4160
 -1      2142    8    0    1
 -2      1042      1099      1098      4182      4187      4178
 -1      2143    8    0    1
 -2      1078      1079      1067      4118      4188      4189
 -1      2144    8    0    1
 -2      1053      1052      1100      4040      4190      4191
 -1      2145    8    0    1
 -2      1055      1054      1101      4046      4192      4193
 -1      2146    8    0    1
 -2      1056      1055      1094      4049      4194      4195
 -1      2147    8    0    1
 -2      1057      1056      1090      4052      4196      4197
 -1      2148    8    0    1
 -2      1058      1057      1083      4055      4198      4199
 -1      2149    8    0    1
 -2      1059      1058      1074      4058      4200      4201
 -1      2150    8    0    1
 -2      1060      1059      1091      4061      4202      4203
 -1      2151    8    0    1
 -2      1061      1060      1086      4064      4204      4205
 -1      2152    8    0    1
 -2      1062      1061      1050      4067      4206      4207
 -1      2153    8    0    1
 -2      1063      1062      1076      4070      4208      4209
 -1      2154    8    0    1
 -2      1064      1063      1075      4073      4210      4211
 -1      2155    8    0    1
 -2      1065      1064      1088      4076      4212      4213
 -1      2156    8    0    1
 -2      1066      1065      1077      4079      4214      4215
 -1      2157    8    0    1
 -2      1067      1066      1078      4082      4216      4189
 -1      2158    8    0    1
 -2      1068      1067      1079      4085      4188      4217
 -1      2159    8    0    1
 -2      1069      1068      1080      4088      4218      4219
 -1      2160    8    0    1
 -2      1070      1069      1081      4091      4220      4221
 -1      2161    8    0    1
 -2      1083      1057      1090      4198      4197      4151
 -1      2162    8    0    1
 -2      1090      1056      1094      4196      4195      4164
 -1      2163    8    0    1
 -2      1044      1039      1102      4007      4222      4223
 -1      2164    8    0    1
 -2      1079      1080      1068      4121      4218      4217
 -1      2165    8    0    1
 -2      1077      1078      1066      4115      4216      4215
 -1      2166    8    0    1
 -2      1080      1081      1069      4124      4220      4219
 -1      2167    8    0    1
 -2      1081      1082      1070      4127      4224      4221
 -1      2168    8    0    1
 -2      1083      1074      1058      4131      4200      4199
 -1      2169    8    0    1
 -2      1095      1049      1103      4168      4225      4226
 -1      2170    8    0    1
 -2      1049      1092      1103      4156      4227      4225
 -1      2171    8    0    1
 -2      1085      1084      1095      4136      4228      4229
 -1      2172    8    0    1
 -2      1046      1044      1102      4170      4223      4230
 -1      2173    8    0    1
 -2      1035      1073      1092      4101      4231      4157
 -1      2174    8    0    1
 -2      1077      1065      1088      4214      4213      4145
 -1      2175    8    0    1
 -2      1075      1088      1064      4165      4212      4211
 -1      2176    8    0    1
 -2      1086      1050      1061      4139      4206      4205
 -1      2177    8    0    1
 -2      1087      1041      1101      4142      4232      4233
 -1      2178    8    0    1
 -2      1091      1086      1060      4159      4204      4203
 -1      2179    8    0    1
 -2      1075      1063      1076      4210      4209      4110
 -1      2180    8    0    1
 -2      1074      1091      1059      4154      4202      4201
 -1      2181    8    0    1
 -2      1089      1085      1103      4148      4234      4235
 -1      2182    8    0    1
 -2      1052      1051      1093      4037      4236      4237
 -1      2183    8    0    1
 -2      1048      1087      1104      4177      4238      4239
 -1      2184    8    0    1
 -2      1100      1048      1104      4184      4239      4240
 -1      2185    8    0    1
 -2      1087      1101      1104      4233      4241      4238
 -1      2186    8    0    1
 -2      1039      1040      1105      3994      4242      4243
 -1      2187    8    0    1
 -2      1102      1039      1105      4222      4243      4244
 -1      2188    8    0    1
 -2      1062      1050      1076      4207      4109      4208
 -1      2189    8    0    1
 -2      1085      1095      1103      4229      4226      4234
 -1      2190    8    0    1
 -2      1095      1084      1097      4228      4245      4176
 -1      2191    8    0    1
 -2      1046      1102      1096      4230      4246      4173
 -1      2192    8    0    1
 -2      1093      1051      1106      4236      4247      4248
 -1      2193    8    0    1
 -2      1052      1093      1100      4237      4186      4190
 -1      2194    8    0    1
 -2      1102      1105      1107      4244      4249      4250
 -1      2195    8    0    1
 -2      1102      1107      1096      4250      4251      4246
 -1      2196    8    0    1
 -2      1053      1100      1104      4191      4240      4252
 -1      2197    8    0    1
 -2      1092      1073      1106      4231      4253      4254
 -1      2198    8    0    1
 -2      1055      1101      1094      4193      4255      4194
 -1      2199    8    0    1
 -2      1054      1053      1104      4043      4252      4256
 -1      2200    8    0    1
 -2      1089      1103      1106      4235      4257      4258
 -1      2201    8    0    1
 -2      1071      1070      1082      4095      4224      4259
 -1      2202    8    0    1
 -2      1041      1094      1101      4163      4255      4232
 -1      2203    8    0    1
 -2      1040       991      1098      3992      4180      4260
 -1      2204    8    0    1
 -2      1054      1104      1101      4256      4241      4192
 -1      2205    8    0    1
 -2      1106      1051      1089      4247      4166      4258
 -1      2206    8    0    1
 -2      1093      1106      1073      4248      4253      4161
 -1      2207    8    0    1
 -2      1099      1097      1107      4183      4261      4262
 -1      2208    8    0    1
 -2      1105      1040      1099      4242      4263      4264
 -1      2209    8    0    1
 -2      1099      1107      1105      4262      4249      4264
 -1      2210    8    0    1
 -2      1103      1092      1106      4227      4254      4257
 -1      2211    8    0    1
 -2      1071      1082      1047      4259      4167      4158
 -1      2212    8    0    1
 -2      1084      1096      1097      4172      4265      4245
 -1      2213    8    0    1
 -2      1098      1099      1040      4187      4263      4260
 -1      2214    8    0    1
 -2      1107      1097      1096      4261      4265      4251
 -3
    1PSTEP                         1           1           1          
  100CL  101 1.000000000        4265                     0    1           1
 -4  DISP        4    1
 -5  D1          1    2    1    0
 -5  D2          1    2    2    0
 -5  D3          1    2    3    0
 -5  ALL         1    2    0    0    1ALL
 -1         1 1.27614E-02-1.27138E-03-6.03784E-14
 -1         2 1.43124E-02-4.13037E-04-6.36258E-14
 -1         3 1.43242E-02-1.93608E-04-8.02370E-14
 -1         4 1.51172E-02-8.16871E-04-9.16780E-14
 -1         5 0.00000E+00 0.00000E+00 0.00000E+00
 -1         6 0.00000E+00 0.00000E+00 0.00000E+00
 -1         7 0.00000E+00 0.00000E+00 0.00000E+00
 -1         8 0.00000E+00 0.00000E+00 0.00000E+00
 -1         9 0.00000E+00 0.00000E+00 0.00000E+00
 -1        10 0.00000E+00 0.00000E+00 0.00000E+00
 -1        11 0.00000E+00 0.00000E+00 0.00000E+00
 -1        12 0.00000E+00 0.00000E+00 0.00000E+00
 -1        13 0.00000E+00 0.00000E+00 0.00000E+00
 -1        14 0.00000E+00 0.00000E+00 0.00000E+00
 -1        15 0.00000E+00 0.00000E+00 0.00000E+00
 -1        16 0.00000E+00 0.00000E+00 0.00000E+00
 -1        17 0.00000E+00 0.00000E+00 0.00000E+00
 -1        18 0.00000E+00 0.00000E+00 0.00000E+00
 -1        19 0.00000E+00 0.00000E+00 0.00000E+00
 -1        20 0.00000E+00 0.00000E+00 0.00000E+00
 -1        21 0.00000E+00 0.00000E+00 0.00000E+00
 -1        22 0.00000E+00 0.00000E+00 0.00000E+00
 -1        23 4.11409E-04-2.60749E-04-2.31071E-18
 -1        24 7.03419E-04-4.01006E-04-1.06882E-16
 -1        25 9.73517E-04-4.98401E-04-3.07232E-16
 -1        26 1.23804E-03-5.67170E-04-5.98124E-16
 -1        27 1.50159E-03-6.16455E-04-9.75819E-16
 -1        28 1.76629E-03-6.51642E-04-1.43730E-15
 -1        29 2.03307E-03-6.76441E-04-1.98357E-15
 -1        30 2.30230E-03-6.93551E-04-2.61357E-15
 -1        31 2.57402E-03-7.04989E-04-3.32680E-15
 -1        32 2.84811E-03-7.12282E-04-4.11786E-15
 -1        33 3.12431E-03-7.16579E-04-4.98246E-15
 -1        34 3.40236E-03-7.18738E-04-5.91726E-15
 -1        35 3.68197E-03-7.19383E-04-6.92372E-15
 -1        36 3.96287E-03-7.18957E-04-8.00343E-15
 -1        37 4.24481E-03-7.17760E-04-9.15407E-15
 -1        38 4.52761E-03-7.15976E-04-1.03775E-14
 -1        39 4.81111E-03-7.13702E-04-1.16725E-14
 -1        40 5.09522E-03-7.10968E-04-1.30407E-14
 -1        41 5.37990E-03-7.07752E-04-1.44818E-14
 -1        42 5.66519E-03-7.03998E-04-1.59971E-14
 -1        43 5.95120E-03-6.99631E-04-1.75844E-14
 -1        44 6.23814E-03-6.94572E-04-1.92424E-14
 -1        45 6.52633E-03-6.88764E-04-2.09712E-14
 -1        46 6.81626E-03-6.82197E-04-2.27835E-14
 -1        47 7.10856E-03-6.74957E-04-2.46719E-14
 -1        48 7.40410E-03-6.67278E-04-2.66269E-14
 -1        49 7.70402E-03-6.59637E-04-2.86443E-14
 -1        50 8.00976E-03-6.52876E-04-3.07313E-14
 -1        51 8.32311E-03-6.48385E-04-3.28892E-14
 -1        52 8.64622E-03-6.48350E-04-3.51168E-14
 -1        53 8.98142E-03-6.56069E-04-3.74047E-14
 -1        54 9.33095E-03-6.76301E-04-3.97471E-14
 -1        55 9.69623E-03-7.15501E-04-4.21427E-14
 -1        56 1.00765E-02-7.81582E-04-4.45876E-14
 -1        57 1.04671E-02-8.82516E-04-4.70895E-14
 -1        58 1.08570E-02-1.02280E-03-4.96427E-14
 -1        59 1.12293E-02-1.19734E-03-5.22451E-14
 -1        60 1.15649E-02-1.38484E-03-5.49010E-14
 -1        61 1.18532E-02-1.54716E-03-5.76190E-14
 -1        62 1.21031E-02-1.64188E-03-6.04129E-14
 -1        63 1.23426E-02-1.64524E-03-6.32971E-14
 -1        64 1.26034E-02-1.56722E-03-6.62618E-14
 -1        65 1.29018E-02-1.44367E-03-6.93048E-14
 -1        66 1.32331E-02-1.31349E-03-7.24178E-14
 -1        67 1.35796E-02-1.20104E-03-7.55851E-14
 -1        68 1.39225E-02-1.11248E-03-7.87940E-14
 -1        69 1.42494E-02-1.04101E-03-8.20321E-14
 -1        70 1.45561E-02-9.73897E-04-8.52757E-14
 -1        71 1.48467E-02-8.99079E-04-8.85428E-14
 -1        72 4.13854E-04 2.61454E-04 6.67496E-17
 -1        73 7.03243E-04 4.03713E-04 8.58891E-17
 -1        74 9.74052E-04 5.00175E-04 5.35901E-17
 -1        75 1.23886E-03 5.68881E-04-3.65952E-17
 -1        76 1.50255E-03 6.18214E-04-1.89220E-16
 -1        77 1.76731E-03 6.53492E-04-4.06332E-16
 -1        78 2.03413E-03 6.78402E-04-6.88404E-16
 -1        79 2.30338E-03 6.95633E-04-1.03307E-15
 -1        80 2.57512E-03 7.07199E-04-1.44477E-15
 -1        81 2.84922E-03 7.14623E-04-1.92774E-15
 -1        82 3.12544E-03 7.19052E-04-2.48226E-15
 -1        83 3.40349E-03 7.21343E-04-3.10585E-15
 -1        84 3.68311E-03 7.22122E-04-3.80290E-15
 -1        85 3.96402E-03 7.21832E-04-4.57630E-15
 -1        86 4.24598E-03 7.20773E-04-5.43070E-15
 -1        87 4.52880E-03 7.19133E-04-6.36749E-15
 -1        88 4.81233E-03 7.17014E-04-7.37929E-15
 -1        89 5.09648E-03 7.14454E-04-8.46038E-15
 -1        90 5.38122E-03 7.11445E-04-9.61332E-15
 -1        91 5.66658E-03 7.07950E-04-1.08436E-14
 -1        92 5.95267E-03 7.03926E-04-1.21520E-14
 -1        93 6.23969E-03 6.99340E-04-1.35323E-14
 -1        94 6.52792E-03 6.94200E-04-1.49913E-14
 -1        95 6.81778E-03 6.88588E-04-1.65212E-14
 -1        96 7.10976E-03 6.82700E-04-1.81121E-14
 -1        97 7.40449E-03 6.76906E-04-1.97655E-14
 -1        98 7.70269E-03 6.71812E-04-2.14887E-14
 -1        99 8.00514E-03 6.68333E-04-2.32842E-14
 -1       100 8.31256E-03 6.67765E-04-2.51481E-14
 -1       101 8.62552E-03 6.71828E-04-2.70926E-14
 -1       102 8.94413E-03 6.82647E-04-2.91113E-14
 -1       103 9.26780E-03 7.02597E-04-3.11921E-14
 -1       104 9.59478E-03 7.33925E-04-3.33207E-14
 -1       105 9.92188E-03 7.78053E-04-3.55133E-14
 -1       106 1.02443E-02 8.34529E-04-3.77822E-14
 -1       107 1.05561E-02 8.99784E-04-4.01378E-14
 -1       108 1.08514E-02 9.66191E-04-4.25833E-14
 -1       109 1.11264E-02 1.02222E-03-4.51249E-14
 -1       110 1.13818E-02 1.05445E-03-4.77363E-14
 -1       111 1.16230E-02 1.05130E-03-5.04119E-14
 -1       112 1.18598E-02 1.00702E-03-5.31566E-14
 -1       113 1.21021E-02 9.23699E-04-5.59767E-14
 -1       114 1.23567E-02 8.09985E-04-5.88672E-14
 -1       115 1.26256E-02 6.77304E-04-6.18138E-14
 -1       116 1.29060E-02 5.35738E-04-6.48121E-14
 -1       117 1.31927E-02 3.91500E-04-6.78515E-14
 -1       118 1.34810E-02 2.46581E-04-7.09389E-14
 -1       119 1.37679E-02 1.00088E-04-7.40701E-14
 -1       120 1.40532E-02-4.94287E-05-7.72316E-14
 -1       121 1.44739E-02-2.78320E-04-8.09840E-14
 -1       122 1.46262E-02-3.63075E-04-8.17265E-14
 -1       123 1.47839E-02-4.45201E-04-8.24629E-14
 -1       124 1.49475E-02-5.20290E-04-8.32017E-14
 -1       125 1.51148E-02-5.82604E-04-8.39456E-14
 -1       126 1.52771E-02-6.25486E-04-8.47045E-14
 -1       127 1.54297E-02-6.45862E-04-8.54734E-14
 -1       128 1.55566E-02-6.41930E-04-8.62116E-14
 -1       129 1.56439E-02-6.18320E-04-8.69193E-14
 -1       130 1.56819E-02-5.85131E-04-8.75899E-14
 -1       131 1.56685E-02-5.55587E-04-8.82231E-14
 -1       132 1.56113E-02-5.42278E-04-8.88418E-14
 -1       133 1.55208E-02-5.53071E-04-8.94472E-14
 -1       134 1.54135E-02-5.91169E-04-9.00280E-14
 -1       135 1.53045E-02-6.54089E-04-9.05990E-14
 -1       136 1.52044E-02-7.33087E-04-9.11415E-14
 -1       137 1.42443E-02-2.15129E-04-6.31619E-14
 -1       138 1.40496E-02-9.19200E-06-6.23334E-14
 -1       139 1.37812E-02 1.61075E-04-6.13519E-14
 -1       140 1.33749E-02 3.30582E-04-5.99800E-14
 -1       141 1.29501E-02 4.47677E-04-5.86365E-14
 -1       142 1.24268E-02 5.36223E-04-5.70458E-14
 -1       143 1.19494E-02 5.70424E-04-5.56680E-14
 -1       144 1.14667E-02 5.63300E-04-5.43259E-14
 -1       145 1.10133E-02 5.15628E-04-5.31293E-14
 -1       146 1.05674E-02 4.18594E-04-5.20202E-14
 -1       147 1.02501E-02 3.06997E-04-5.12987E-14
 -1       148 9.99387E-03 1.67853E-04-5.07884E-14
 -1       149 9.81230E-03 3.32958E-08-5.05272E-14
 -1       150 9.73112E-03-1.79491E-04-5.05640E-14
 -1       151 9.75273E-03-3.70476E-04-5.09036E-14
 -1       152 9.87453E-03-5.58763E-04-5.15118E-14
 -1       153 1.01022E-02-7.49919E-04-5.24122E-14
 -1       154 1.04384E-02-9.34270E-04-5.35850E-14
 -1       155 1.08357E-02-1.08555E-03-5.48627E-14
 -1       156 1.12904E-02-1.20344E-03-5.62560E-14
 -1       157 1.17872E-02-1.27731E-03-5.76983E-14
 -1       158 1.22659E-02-1.29963E-03-5.90330E-14
 -1       159 1.31923E-02-1.20070E-03-6.15042E-14
 -1       160 1.35657E-02-1.09519E-03-6.24276E-14
 -1       161 1.38804E-02-9.58161E-04-6.31377E-14
 -1       162 1.41327E-02-7.84279E-04-6.36196E-14
 -1       163 1.42722E-02-6.05233E-04-6.37776E-14
 -1       164 2.40419E-04-1.25523E-04-3.17976E-17
 -1       165 2.25281E-04-9.46190E-05-4.02442E-17
 -1       166 2.19516E-04-7.27771E-05-4.35477E-17
 -1       167 2.16712E-04-5.51022E-05-4.44760E-17
 -1       168 2.15215E-04-3.99647E-05-4.37781E-17
 -1       169 2.14377E-04-2.59154E-05-4.21992E-17
 -1       170 2.13957E-04-1.26444E-05-4.01121E-17
 -1       171 2.13835E-04 2.72600E-07-3.78522E-17
 -1       172 2.13976E-04 1.32019E-05-3.46809E-17
 -1       173 2.14418E-04 2.65127E-05-3.09167E-17
 -1       174 2.15264E-04 4.03926E-05-2.63359E-17
 -1       175 2.16815E-04 5.59130E-05-2.02136E-17
 -1       176 2.19675E-04 7.38161E-05-1.21058E-17
 -1       177 2.25452E-04 9.60189E-05-5.72594E-19
 -1       178 2.39348E-04 1.27599E-04 1.62732E-17
 -1       179 2.97728E-04 1.85508E-04 3.60057E-17
 -1       180 4.68654E-04-2.63564E-04-8.26399E-17
 -1       181 7.66818E-04-3.82167E-04-2.45839E-16
 -1       182 1.05069E-03-4.65069E-04-4.95873E-16
 -1       183 1.32810E-03-5.23868E-04-8.31163E-16
 -1       184 1.60271E-03-5.65586E-04-1.24888E-15
 -1       185 1.87662E-03-5.94910E-04-1.74850E-15
 -1       186 2.15094E-03-6.15147E-04-2.33001E-15
 -1       187 2.42626E-03-6.28720E-04-2.99204E-15
 -1       188 2.70285E-03-6.37440E-04-3.73197E-15
 -1       189 2.98077E-03-6.42663E-04-4.54688E-15
 -1       190 3.25998E-03-6.45401E-04-5.43321E-15
 -1       191 3.54034E-03-6.46394E-04-6.38860E-15
 -1       192 3.82173E-03-6.46169E-04-7.41644E-15
 -1       193 4.10401E-03-6.45088E-04-8.51680E-15
 -1       194 4.38703E-03-6.43381E-04-9.69005E-15
 -1       195 4.67071E-03-6.41177E-04-1.09363E-14
 -1       196 4.95496E-03-6.38524E-04-1.22534E-14
 -1       197 5.23977E-03-6.35412E-04-1.36422E-14
 -1       198 5.52514E-03-6.31783E-04-1.51058E-14
 -1       199 5.81117E-03-6.27551E-04-1.66392E-14
 -1       200 6.09799E-03-6.22615E-04-1.82475E-14
 -1       201 6.38584E-03-6.16878E-04-1.99286E-14
 -1       202 6.67504E-03-6.10269E-04-2.16876E-14
 -1       203 6.96604E-03-6.02780E-04-2.35226E-14
 -1       204 7.25944E-03-5.94515E-04-2.54277E-14
 -1       205 7.55599E-03-5.85759E-04-2.73990E-14
 -1       206 7.85662E-03-5.77085E-04-2.94359E-14
 -1       207 8.16248E-03-5.69510E-04-3.15436E-14
 -1       208 8.47491E-03-5.64718E-04-3.37201E-14
 -1       209 8.79537E-03-5.65357E-04-3.59616E-14
 -1       210 9.12533E-03-5.75426E-04-3.82610E-14
 -1       211 9.46593E-03-6.00659E-04-4.06149E-14
 -1       212 9.81757E-03-6.48697E-04-4.30189E-14
 -1       213 1.01790E-02-7.28527E-04-4.54753E-14
 -1       214 1.05466E-02-8.48231E-04-4.79867E-14
 -1       215 1.09133E-02-1.00994E-03-5.05537E-14
 -1       216 1.12691E-02-1.20207E-03-5.31746E-14
 -1       217 1.16046E-02-1.39294E-03-5.58550E-14
 -1       218 1.19171E-02-1.53526E-03-5.86046E-14
 -1       219 1.22155E-02-1.58773E-03-6.14345E-14
 -1       220 1.25159E-02-1.54184E-03-6.43520E-14
 -1       221 1.28310E-02-1.42722E-03-6.73486E-14
 -1       222 1.31619E-02-1.28949E-03-7.04132E-14
 -1       223 1.35008E-02-1.16407E-03-7.35403E-14
 -1       224 1.38375E-02-1.06553E-03-7.67180E-14
 -1       225 1.41643E-02-9.91063E-04-7.99358E-14
 -1       226 1.44775E-02-9.28399E-04-8.31697E-14
 -1       227 1.47770E-02-8.62676E-04-8.64270E-14
 -1       228 6.04605E-04 3.31055E-04 3.65071E-17
 -1       229 8.93719E-04 4.32686E-04-1.24412E-17
 -1       230 1.17263E-03 5.04451E-04-1.17517E-16
 -1       231 1.44699E-03 5.55561E-04-2.83302E-16
 -1       232 1.71982E-03 5.91838E-04-5.12563E-16
 -1       233 1.99274E-03 6.17262E-04-8.06968E-16
 -1       234 2.26657E-03 6.34705E-04-1.16589E-15
 -1       235 2.54173E-03 6.46298E-04-1.59158E-15
 -1       236 2.81835E-03 6.53643E-04-2.08617E-15
 -1       237 3.09641E-03 6.57938E-04-2.65032E-15
 -1       238 3.37581E-03 6.60073E-04-3.28486E-15
 -1       239 3.65638E-03 6.60694E-04-3.99215E-15
 -1       240 3.93798E-03 6.60257E-04-4.77442E-15
 -1       241 4.22045E-03 6.59069E-04-5.63501E-15
 -1       242 4.50367E-03 6.57318E-04-6.57516E-15
 -1       243 4.78752E-03 6.55105E-04-7.59108E-15
 -1       244 5.07195E-03 6.52461E-04-8.67966E-15
 -1       245 5.35695E-03 6.49370E-04-9.83889E-15
 -1       246 5.64256E-03 6.45783E-04-1.10729E-14
 -1       247 5.92887E-03 6.41640E-04-1.23880E-14
 -1       248 6.21604E-03 6.36891E-04-1.37764E-14
 -1       249 6.50432E-03 6.31518E-04-1.52405E-14
 -1       250 6.79402E-03 6.25572E-04-1.67704E-14
 -1       251 7.08555E-03 6.19216E-04-1.83646E-14
 -1       252 7.37938E-03 6.12781E-04-2.00283E-14
 -1       253 7.67606E-03 6.06832E-04-2.17612E-14
 -1       254 7.97617E-03 6.02247E-04-2.35625E-14
 -1       255 8.28022E-03 6.00303E-04-2.54331E-14
 -1       256 8.58860E-03 6.02729E-04-2.73790E-14
 -1       257 8.90140E-03 6.11716E-04-2.93980E-14
 -1       258 9.21818E-03 6.29794E-04-3.14790E-14
 -1       259 9.53777E-03 6.59483E-04-3.36173E-14
 -1       260 9.85807E-03 7.02622E-04-3.58167E-14
 -1       261 1.01759E-02 7.59280E-04-3.80925E-14
 -1       262 1.04875E-02 8.26397E-04-4.04478E-14
 -1       263 1.07888E-02 8.96609E-04-4.28884E-14
 -1       264 1.10772E-02 9.58120E-04-4.54155E-14
 -1       265 1.13527E-02 9.96576E-04-4.80218E-14
 -1       266 1.16184E-02 9.99038E-04-5.06965E-14
 -1       267 1.18801E-02 9.58548E-04-5.34427E-14
 -1       268 1.21442E-02 8.76731E-04-5.62575E-14
 -1       269 1.24153E-02 7.62670E-04-5.91433E-14
 -1       270 1.26947E-02 6.28756E-04-6.20896E-14
 -1       271 1.29809E-02 4.86034E-04-6.50880E-14
 -1       272 1.32708E-02 3.41309E-04-6.81256E-14
 -1       273 1.35612E-02 1.96676E-04-7.12122E-14
 -1       274 1.38502E-02 5.09274E-05-7.43395E-14
 -1       275 1.41372E-02-9.79618E-05-7.74946E-14
 -1       276 1.43020E-02-1.87996E-04-7.86195E-14
 -1       277 1.44575E-02-2.69909E-04-7.93634E-14
 -1       278 1.46197E-02-3.47791E-04-8.01007E-14
 -1       279 1.47885E-02-4.18475E-04-8.08405E-14
 -1       280 1.49570E-02-4.77269E-04-8.15750E-14
 -1       281 1.51228E-02-5.22797E-04-8.23171E-14
 -1       282 1.52701E-02-5.52136E-04-8.30465E-14
 -1       283 1.53834E-02-5.66532E-04-8.37545E-14
 -1       284 1.54492E-02-5.70928E-04-8.44279E-14
 -1       285 1.54604E-02-5.73216E-04-8.50783E-14
 -1       286 1.54204E-02-5.81864E-04-8.56975E-14
 -1       287 1.53387E-02-6.04055E-04-8.63010E-14
 -1       288 1.52316E-02-6.43354E-04-8.68874E-14
 -1       289 1.51160E-02-6.99772E-04-8.74557E-14
 -1       290 1.49434E-02-7.77633E-04-8.69419E-14
 -1       291 1.43168E-02-3.73485E-04-6.47939E-14
 -1       292 1.41324E-02-2.60831E-04-6.41618E-14
 -1       293 1.38249E-02-8.43690E-05-6.28342E-14
 -1       294 1.34039E-02 1.00965E-04-6.15499E-14
 -1       295 1.29802E-02 3.31717E-04-5.97608E-14
 -1       296 1.25298E-02 5.18841E-04-5.80161E-14
 -1       297 1.21269E-02 6.27064E-04-5.62336E-14
 -1       298 1.17417E-02 6.50911E-04-5.45902E-14
 -1       299 1.13493E-02 5.75723E-04-5.31628E-14
 -1       300 1.09551E-02 4.30141E-04-5.16717E-14
 -1       301 1.05448E-02 2.65257E-04-5.07717E-14
 -1       302 1.02097E-02 1.09675E-04-5.00675E-14
 -1       303 9.92651E-03-3.13018E-05-4.96340E-14
 -1       304 9.74441E-03-1.52071E-04-4.94462E-14
 -1       305 9.70116E-03-2.53871E-04-4.97426E-14
 -1       306 9.80308E-03-3.66687E-04-5.02915E-14
 -1       307 1.00396E-02-5.10668E-04-5.11564E-14
 -1       308 1.04105E-02-6.84408E-04-5.22115E-14
 -1       309 1.08061E-02-9.23840E-04-5.37637E-14
 -1       310 1.12416E-02-1.13361E-03-5.52780E-14
 -1       311 1.16434E-02-1.29811E-03-5.69648E-14
 -1       312 1.20391E-02-1.37349E-03-5.85975E-14
 -1       313 1.24265E-02-1.35484E-03-6.02503E-14
 -1       314 1.28324E-02-1.23909E-03-6.16496E-14
 -1       315 1.32189E-02-1.08084E-03-6.28687E-14
 -1       316 1.35930E-02-9.05457E-04-6.38516E-14
 -1       317 1.39345E-02-7.21981E-04-6.47427E-14
 -1       318 1.42006E-02-5.85376E-04-6.50573E-14
 -1       319 1.43324E-02-4.74507E-04-6.50720E-14
 -1       320 4.55400E-04-1.64816E-04-1.45293E-16
 -1       321 4.74281E-04-2.12993E-04-1.34034E-16
 -1       322 4.40433E-04-9.40226E-05-1.49159E-16
 -1       323 4.37469E-04-6.49166E-05-1.45835E-16
 -1       324 4.35846E-04-3.79080E-05-1.40580E-16
 -1       325 4.35135E-04-1.20183E-05-1.34133E-16
 -1       326 4.35165E-04 1.35362E-05-1.26266E-16
 -1       327 4.35944E-04 3.94830E-05-1.16396E-16
 -1       328 4.37613E-04 6.61405E-05-1.04443E-16
 -1       329 4.40674E-04 9.54166E-05-8.94839E-17
 -1       330 4.46068E-04 1.28330E-04-7.11677E-17
 -1       331 4.55909E-04 1.67311E-04-4.71221E-17
 -1       332 4.75911E-04 2.17055E-04-1.50874E-17
 -1       333 5.32046E-04 2.69986E-04 6.43406E-18
 -1       334 8.24542E-04 3.73533E-04-5.35393E-17
 -1       335 8.63313E-04-3.57426E-04-3.93691E-16
 -1       336 1.14968E-03-4.26204E-04-6.89082E-16
 -1       337 1.43248E-03-4.75398E-04-1.06524E-15
 -1       338 1.71321E-03-5.10159E-04-1.52039E-15
 -1       339 1.99299E-03-5.34287E-04-2.05560E-15
 -1       340 2.27259E-03-5.50604E-04-2.66952E-15
 -1       341 2.55248E-03-5.61226E-04-3.35978E-15
 -1       342 2.83291E-03-5.67740E-04-4.12493E-15
 -1       343 3.11400E-03-5.71331E-04-4.96259E-15
 -1       344 3.39577E-03-5.72872E-04-5.86961E-15
 -1       345 3.67821E-03-5.72993E-04-6.84692E-15
 -1       346 3.96125E-03-5.72131E-04-7.89579E-15
 -1       347 4.24484E-03-5.70574E-04-9.01847E-15
 -1       348 4.52892E-03-5.68491E-04-1.02145E-14
 -1       349 4.81345E-03-5.65961E-04-1.14816E-14
 -1       350 5.09841E-03-5.62993E-04-1.28197E-14
 -1       351 5.38381E-03-5.59542E-04-1.42308E-14
 -1       352 5.66970E-03-5.55523E-04-1.57140E-14
 -1       353 5.95616E-03-5.50827E-04-1.72711E-14
 -1       354 6.24334E-03-5.45339E-04-1.89029E-14
 -1       355 6.53142E-03-5.38954E-04-2.06095E-14
 -1       356 6.82068E-03-5.31605E-04-2.23934E-14
 -1       357 7.11145E-03-5.23308E-04-2.42471E-14
 -1       358 7.40416E-03-5.14211E-04-2.61702E-14
 -1       359 7.69935E-03-5.04686E-04-2.81591E-14
 -1       360 7.99764E-03-4.95450E-04-3.02155E-14
 -1       361 8.29980E-03-4.87740E-04-3.23430E-14
 -1       362 8.60670E-03-4.83566E-04-3.45356E-14
 -1       363 8.91936E-03-4.86038E-04-3.67882E-14
 -1       364 9.23899E-03-4.99764E-04-3.90997E-14
 -1       365 9.56699E-03-5.31213E-04-4.14660E-14
 -1       366 9.90492E-03-5.88813E-04-4.38831E-14
 -1       367 1.02542E-02-6.82178E-04-4.63507E-14
 -1       368 1.06147E-02-8.19372E-04-4.88737E-14
 -1       369 1.09829E-02-1.00060E-03-5.14535E-14
 -1       370 1.13497E-02-1.20803E-03-5.40966E-14
 -1       371 1.17036E-02-1.39754E-03-5.68030E-14
 -1       372 1.20411E-02-1.50941E-03-5.95830E-14
 -1       373 1.23736E-02-1.50658E-03-6.24507E-14
 -1       374 1.27155E-02-1.40609E-03-6.54015E-14
 -1       375 1.30690E-02-1.26213E-03-6.84263E-14
 -1       376 1.34241E-02-1.12414E-03-7.15119E-14
 -1       377 1.37702E-02-1.01557E-03-7.46564E-14
 -1       378 1.41019E-02-9.37395E-04-7.78477E-14
 -1       379 1.44183E-02-8.78392E-04-8.10668E-14
 -1       380 1.46854E-02-8.32381E-04-8.39918E-14
 -1       381 1.11004E-03 4.47869E-04-1.68607E-16
 -1       382 1.39080E-03 5.00952E-04-3.43546E-16
 -1       383 1.66913E-03 5.38589E-04-5.81122E-16
 -1       384 1.94654E-03 5.64903E-04-8.83354E-16
 -1       385 2.22397E-03 5.82900E-04-1.25059E-15
 -1       386 2.50196E-03 5.94817E-04-1.68449E-15
 -1       387 2.78078E-03 6.02330E-04-2.18607E-15
 -1       388 3.06053E-03 6.06692E-04-2.75675E-15
 -1       389 3.34120E-03 6.08832E-04-3.39744E-15
 -1       390 3.62275E-03 6.09424E-04-4.11006E-15
 -1       391 3.90509E-03 6.08943E-04-4.89644E-15
 -1       392 4.18811E-03 6.07705E-04-5.75938E-15
 -1       393 4.47174E-03 6.05910E-04-6.70109E-15
 -1       394 4.75591E-03 6.03658E-04-7.71851E-15
 -1       395 5.04058E-03 6.00983E-04-8.80920E-15
 -1       396 5.32576E-03 5.97864E-04-9.97107E-15
 -1       397 5.61146E-03 5.94248E-04-1.12076E-14
 -1       398 5.89777E-03 5.90065E-04-1.25234E-14
 -1       399 6.18483E-03 5.85250E-04-1.39155E-14
 -1       400 6.47283E-03 5.79768E-04-1.53813E-14
 -1       401 6.76201E-03 5.73647E-04-1.69125E-14
 -1       402 7.05270E-03 5.67017E-04-1.85091E-14
 -1       403 7.34527E-03 5.60170E-04-2.01756E-14
 -1       404 7.64016E-03 5.53624E-04-2.19120E-14
 -1       405 7.93782E-03 5.48206E-04-2.37165E-14
 -1       406 8.23873E-03 5.45136E-04-2.55889E-14
 -1       407 8.54326E-03 5.46098E-04-2.75349E-14
 -1       408 8.85163E-03 5.53270E-04-2.95525E-14
 -1       409 9.16377E-03 5.69230E-04-3.16336E-14
 -1       410 9.47913E-03 5.96672E-04-3.37725E-14
 -1       411 9.79650E-03 6.37788E-04-3.59764E-14
 -1       412 1.01138E-02 6.93231E-04-3.82508E-14
 -1       413 1.04283E-02 7.60693E-04-4.06048E-14
 -1       414 1.07365E-02 8.33485E-04-4.30410E-14
 -1       415 1.10356E-02 8.99982E-04-4.55573E-14
 -1       416 1.13246E-02 9.45071E-04-4.81522E-14
 -1       417 1.16051E-02 9.54218E-04-5.08261E-14
 -1       418 1.18819E-02 9.18761E-04-5.35694E-14
 -1       419 1.21601E-02 8.39484E-04-5.63817E-14
 -1       420 1.24438E-02 7.25829E-04-5.92620E-14
 -1       421 1.27336E-02 5.91267E-04-6.22035E-14
 -1       422 1.30278E-02 4.47910E-04-6.51992E-14
 -1       423 1.33235E-02 3.03210E-04-6.82371E-14
 -1       424 1.36179E-02 1.59415E-04-7.13213E-14
 -1       425 1.39094E-02 1.50634E-05-7.44448E-14
 -1       426 1.41063E-02-8.55449E-05-7.65301E-14
 -1       427 1.44551E-02-2.64572E-04-7.77376E-14
 -1       428 1.42885E-02-1.84026E-04-7.69991E-14
 -1       429 1.41954E-02-1.34838E-04-7.67670E-14
 -1       430 1.46256E-02-3.38701E-04-7.84599E-14
 -1       431 1.48003E-02-4.05559E-04-7.91852E-14
 -1       432 1.49653E-02-4.60506E-04-7.99008E-14
 -1       433 1.51046E-02-5.01865E-04-8.06009E-14
 -1       434 1.52008E-02-5.31304E-04-8.12826E-14
 -1       435 1.52410E-02-5.54447E-04-8.19386E-14
 -1       436 1.52228E-02-5.78887E-04-8.25614E-14
 -1       437 1.51536E-02-6.12741E-04-8.31722E-14
 -1       438 1.50496E-02-6.59789E-04-8.37614E-14
 -1       439 1.49296E-02-7.20432E-04-8.43363E-14
 -1       440 1.39435E-02-2.33731E-04-6.44720E-14
 -1       441 1.43687E-02-4.37581E-04-6.66396E-14
 -1       442 1.42677E-02-3.75958E-04-6.61051E-14
 -1       443 1.36015E-02-8.87365E-05-6.33685E-14
 -1       444 1.30696E-02 1.87849E-04-6.12175E-14
 -1       445 4.45680E-04-1.26424E-04-1.49210E-16
 -1       446 1.22326E-02 6.17206E-04-5.69402E-14
 -1       447 1.19440E-02 6.84073E-04-5.52800E-14
 -1       448 1.15518E-02 6.42103E-04-5.32797E-14
 -1       449 1.12200E-02 5.21025E-04-5.17912E-14
 -1       450 1.07731E-02 2.98518E-04-5.00638E-14
 -1       451 1.04211E-02 1.32641E-04-4.94175E-14
 -1       452 1.00822E-02-2.49965E-05-4.86365E-14
 -1       453 9.82389E-03-1.30337E-04-4.84369E-14
 -1       454 9.68604E-03-2.07268E-04-4.84427E-14
 -1       455 9.72285E-03-2.68939E-04-4.89191E-14
 -1       456 9.92026E-03-3.51920E-04-4.94933E-14
 -1       457 1.02081E-02-4.82088E-04-5.05187E-14
 -1       458 1.07268E-02-7.57080E-04-5.23685E-14
 -1       459 1.10814E-02-9.73929E-04-5.38515E-14
 -1       460 1.15361E-02-1.24522E-03-5.60898E-14
 -1       461 1.18754E-02-1.38037E-03-5.79028E-14
 -1       462 1.22033E-02-1.41260E-03-5.97080E-14
 -1       463 1.26010E-02-1.31168E-03-6.17788E-14
 -1       464 1.29548E-02-1.14735E-03-6.31787E-14
 -1       465 1.33390E-02-9.44210E-04-6.45567E-14
 -1       466 1.37058E-02-7.60664E-04-6.55325E-14
 -1       467 1.40799E-02-5.88916E-04-6.64978E-14
 -1       468 1.42967E-02-4.97822E-04-6.66086E-14
 -1       469 1.26978E-02 3.97644E-04-5.94330E-14
 -1       470 1.41460E-02-3.42004E-04-6.64069E-14
 -1       471 1.09947E-02 4.10575E-04-5.01762E-14
 -1       472 9.31287E-04 3.46062E-04-1.74756E-16
 -1       473 6.65824E-04-7.51438E-05-3.01933E-16
 -1       474 6.69792E-04-1.15908E-04-3.10028E-16
 -1       475 6.63151E-04 1.10450E-06-2.76675E-16
 -1       476 6.63871E-04 3.87713E-05-2.59561E-16
 -1       477 6.66011E-04 7.68294E-05-2.39260E-16
 -1       478 6.70105E-04 1.17745E-04-2.14282E-16
 -1       479 6.77116E-04 1.62366E-04-1.83932E-16
 -1       480 6.89035E-04 2.12732E-04-1.47055E-16
 -1       481 1.33339E-02 1.42399E-05-6.32040E-14
 -1       482 1.21718E-03 4.06567E-04-3.41940E-16
 -1       483 9.76326E-04-3.28656E-04-5.51391E-16
 -1       484 1.24282E-02 5.25223E-04-5.83606E-14
 -1       485 1.26224E-03-3.83561E-04-8.87796E-16
 -1       486 1.54727E-03-4.23332E-04-1.30087E-15
 -1       487 1.83141E-03-4.51416E-04-1.79145E-15
 -1       488 2.11495E-03-4.70713E-04-2.35889E-15
 -1       489 2.39822E-03-4.83513E-04-3.00118E-15
 -1       490 2.68147E-03-4.91582E-04-3.71741E-15
 -1       491 2.96486E-03-4.96261E-04-4.50582E-15
 -1       492 3.24848E-03-4.98550E-04-5.36483E-15
 -1       493 3.53237E-03-4.99182E-04-6.29322E-15
 -1       494 3.81654E-03-4.98673E-04-7.29215E-15
 -1       495 4.10100E-03-4.97374E-04-8.36318E-15
 -1       496 4.38573E-03-4.95502E-04-9.50736E-15
 -1       497 4.67071E-03-4.93174E-04-1.07244E-14
 -1       498 4.95594E-03-4.90427E-04-1.20128E-14
 -1       499 5.24143E-03-4.87237E-04-1.33725E-14
 -1       500 5.52720E-03-4.83534E-04-1.48052E-14
 -1       501 5.81328E-03-4.79215E-04-1.63136E-14
 -1       502 6.09974E-03-4.74165E-04-1.78964E-14
 -1       503 6.38666E-03-4.68264E-04-1.95518E-14
 -1       504 6.67416E-03-4.61420E-04-2.12828E-14
 -1       505 6.96236E-03-4.53592E-04-2.30867E-14
 -1       506 7.25144E-03-4.44842E-04-2.49593E-14
 -1       507 7.54161E-03-4.35395E-04-2.68988E-14
 -1       508 7.83308E-03-4.25732E-04-2.89044E-14
 -1       509 8.12614E-03-4.16718E-04-3.09810E-14
 -1       510 8.42118E-03-4.09783E-04-3.31272E-14
 -1       511 8.71874E-03-4.07152E-04-3.53337E-14
 -1       512 9.01975E-03-4.12152E-04-3.76001E-14
 -1       513 9.32578E-03-4.29564E-04-3.99261E-14
 -1       514 9.63956E-03-4.66017E-04-4.23036E-14
 -1       515 9.96538E-03-5.30295E-04-4.47296E-14
 -1       516 1.03089E-02-6.33179E-04-4.72103E-14
 -1       517 1.06744E-02-7.85397E-04-4.97450E-14
 -1       518 1.10603E-02-9.88852E-04-5.23415E-14
 -1       519 1.14533E-02-1.21900E-03-5.50078E-14
 -1       520 1.18343E-02-1.40726E-03-5.77417E-14
 -1       521 1.22023E-02-1.46991E-03-6.05546E-14
 -1       522 1.25756E-02-1.38857E-03-6.34590E-14
 -1       523 1.29617E-02-1.23009E-03-6.64436E-14
 -1       524 1.33467E-02-1.07289E-03-6.94909E-14
 -1       525 1.37130E-02-9.53861E-04-7.26000E-14
 -1       526 1.40549E-02-8.74317E-04-7.57642E-14
 -1       527 1.43750E-02-8.21164E-04-7.89650E-14
 -1       528 1.78405E-03 4.81175E-04-8.62093E-16
 -1       529 2.06605E-03 5.02555E-04-1.21844E-15
 -1       530 2.34780E-03 5.16900E-04-1.64003E-15
 -1       531 2.62964E-03 5.26120E-04-2.12860E-15
 -1       532 2.91177E-03 5.31656E-04-2.68482E-15
 -1       533 3.19432E-03 5.34587E-04-3.31072E-15
 -1       534 3.47731E-03 5.35701E-04-4.00684E-15
 -1       535 3.76074E-03 5.35564E-04-4.77460E-15
 -1       536 4.04459E-03 5.34561E-04-5.61629E-15
 -1       537 4.32883E-03 5.32940E-04-6.53511E-15
 -1       538 4.61343E-03 5.30843E-04-7.52855E-15
 -1       539 4.89837E-03 5.28329E-04-8.59790E-15
 -1       540 5.18365E-03 5.25393E-04-9.73938E-15
 -1       541 5.46928E-03 5.21991E-04-1.09558E-14
 -1       542 5.75531E-03 5.18049E-04-1.22466E-14
 -1       543 6.04181E-03 5.13488E-04-1.36163E-14
 -1       544 6.32890E-03 5.08239E-04-1.50605E-14
 -1       545 6.61671E-03 5.02279E-04-1.65732E-14
 -1       546 6.90545E-03 4.95657E-04-1.81516E-14
 -1       547 7.19535E-03 4.88548E-04-1.98002E-14
 -1       548 7.48671E-03 4.81310E-04-2.15149E-14
 -1       549 7.77988E-03 4.74557E-04-2.32985E-14
 -1       550 8.07527E-03 4.69241E-04-2.51503E-14
 -1       551 8.37335E-03 4.66742E-04-2.70732E-14
 -1       552 8.67462E-03 4.68934E-04-2.90679E-14
 -1       553 8.97962E-03 4.78198E-04-3.11268E-14
 -1       554 9.28878E-03 4.97311E-04-3.32479E-14
 -1       555 9.60233E-03 5.29108E-04-3.54309E-14
 -1       556 9.91991E-03 5.75780E-04-3.76806E-14
 -1       557 1.02402E-02 6.37636E-04-4.00068E-14
 -1       558 1.05605E-02 7.11340E-04-4.24105E-14
 -1       559 1.08769E-02 7.88110E-04-4.48916E-14
 -1       560 1.11858E-02 8.53114E-04-4.74491E-14
 -1       561 1.14858E-02 8.88036E-04-5.00856E-14
 -1       562 1.17797E-02 8.77624E-04-5.28039E-14
 -1       563 1.20733E-02 8.16575E-04-5.55891E-14
 -1       564 1.23718E-02 7.12441E-04-5.84362E-14
 -1       565 1.26767E-02 5.80742E-04-6.13553E-14
 -1       566 1.29854E-02 4.37270E-04-6.43302E-14
 -1       567 1.32939E-02 2.92599E-04-6.73560E-14
 -1       568 1.35985E-02 1.50718E-04-7.04251E-14
 -1       569 1.38971E-02 1.04771E-05-7.35358E-14
 -1       570 1.44617E-02-2.84295E-04-7.60793E-14
 -1       571 1.46414E-02-3.63021E-04-7.67857E-14
 -1       572 1.41153E-02-1.09804E-04-7.46442E-14
 -1       573 1.42844E-02-1.98605E-04-7.53671E-14
 -1       574 1.48074E-02-4.28933E-04-7.74789E-14
 -1       575 1.49388E-02-4.79529E-04-7.81561E-14
 -1       576 1.50148E-02-5.17842E-04-7.88158E-14
 -1       577 1.50238E-02-5.52034E-04-7.94411E-14
 -1       578 1.49697E-02-5.93608E-04-8.00550E-14
 -1       579 1.48688E-02-6.48604E-04-8.06507E-14
 -1       580 1.47435E-02-7.17809E-04-8.12303E-14
 -1       581 1.43883E-02-4.30625E-04-6.83006E-14
 -1       582 1.38114E-02-2.13416E-04-6.51564E-14
 -1       583 1.50130E-03 4.50261E-04-5.70392E-16
 -1       584 1.43863E-02-4.72594E-04-6.84360E-14
 -1       585 7.12666E-04-2.51751E-04-3.16119E-16
 -1       586 1.42522E-02-5.23501E-04-6.83160E-14
 -1       587 9.75171E-03-2.62184E-04-4.76806E-14
 -1       588 6.63760E-04-3.65267E-05-2.90878E-16
 -1       589 1.05416E-02 1.77852E-04-4.83520E-14
 -1       590 1.20572E-02 6.75203E-04-5.59127E-14
 -1       591 1.16998E-02 6.96859E-04-5.35040E-14
 -1       592 1.13904E-02 6.04167E-04-5.17908E-14
 -1       593 1.17474E-02-1.34732E-03-5.71082E-14
 -1       594 1.02272E-02 2.93111E-05-4.75841E-14
 -1       595 9.90503E-03-1.00373E-04-4.70768E-14
 -1       596 9.71502E-03-1.70317E-04-4.70881E-14
 -1       597 9.65397E-03-2.19386E-04-4.72114E-14
 -1       598 1.00383E-02-3.72132E-04-4.88460E-14
 -1       599 1.04462E-02-5.66735E-04-5.03742E-14
 -1       600 1.09213E-02-8.46702E-04-5.24753E-14
 -1       601 1.13584E-02-1.13091E-03-5.47751E-14
 -1       602 1.20425E-02-1.43115E-03-5.90282E-14
 -1       603 1.23916E-02-1.40194E-03-6.13507E-14
 -1       604 1.27850E-02-1.23137E-03-6.34288E-14
 -1       605 1.31261E-02-1.04658E-03-6.50914E-14
 -1       606 1.35268E-02-8.30946E-04-6.64103E-14
 -1       607 1.38987E-02-6.57732E-04-6.74831E-14
 -1       608 1.28483E-02 2.87079E-04-6.08675E-14
 -1       609 7.03841E-04 2.90914E-04-7.50979E-17
 -1       610 1.07381E-02 2.93532E-04-4.84534E-14
 -1       611 6.76590E-04-1.60141E-04-3.13870E-16
 -1       612 1.35795E-02-1.09841E-04-6.49868E-14
 -1       613 1.43328E-02-4.07031E-04-6.86001E-14
 -1       614 1.45790E-02-7.93501E-04-8.11531E-14
 -1       615 8.99767E-04 7.41281E-05-4.32370E-16
 -1       616 8.97678E-04 2.51841E-05-4.62168E-16
 -1       617 9.11837E-04 1.78261E-04-3.55012E-16
 -1       618 9.24212E-04 2.36830E-04-3.04674E-16
 -1       619 1.38096E-02 1.96358E-05-7.15227E-14
 -1       620 1.04890E-03 3.13967E-04-3.21009E-16
 -1       621 1.43873E-02-5.05686E-04-7.01012E-14
 -1       622 1.41412E-02-5.92693E-04-6.97962E-14
 -1       623 1.38331E-03-3.37124E-04-1.09144E-15
 -1       624 1.66951E-03-3.68060E-04-1.53858E-15
 -1       625 1.95572E-03-3.89864E-04-2.06049E-15
 -1       626 2.24177E-03-4.04687E-04-2.65642E-15
 -1       627 2.52762E-03-4.14315E-04-3.32471E-15
 -1       628 2.81334E-03-4.20163E-04-4.06447E-15
 -1       629 3.09896E-03-4.23315E-04-4.87557E-15
 -1       630 3.38453E-03-4.24581E-04-5.75547E-15
 -1       631 3.67009E-03-4.24545E-04-6.70584E-15
 -1       632 3.95566E-03-4.23615E-04-7.72590E-15
 -1       633 4.24125E-03-4.22057E-04-8.81791E-15
 -1       634 4.52686E-03-4.20026E-04-9.98379E-15
 -1       635 4.81252E-03-4.17591E-04-1.12212E-14
 -1       636 5.09823E-03-4.14757E-04-1.25313E-14
 -1       637 5.38398E-03-4.11475E-04-1.39149E-14
 -1       638 5.66979E-03-4.07662E-04-1.53719E-14
 -1       639 5.95567E-03-4.03214E-04-1.69055E-14
 -1       640 6.24160E-03-3.98018E-04-1.85130E-14
 -1       641 6.52759E-03-3.91975E-04-2.01919E-14
 -1       642 6.81362E-03-3.85020E-04-2.19446E-14
 -1       643 7.09967E-03-3.77165E-04-2.37652E-14
 -1       644 7.38568E-03-3.68538E-04-2.56556E-14
 -1       645 7.67157E-03-3.59453E-04-2.76137E-14
 -1       646 7.95726E-03-3.50498E-04-2.96379E-14
 -1       647 8.24267E-03-3.42642E-04-3.17340E-14
 -1       648 8.52782E-03-3.37381E-04-3.38934E-14
 -1       649 8.81301E-03-3.36908E-04-3.61154E-14
 -1       650 9.09918E-03-3.44326E-04-3.83980E-14
 -1       651 9.38845E-03-3.63961E-04-4.07364E-14
 -1       652 9.68516E-03-4.01947E-04-4.31227E-14
 -1       653 9.99659E-03-4.67303E-04-4.55606E-14
 -1       654 1.03338E-02-5.73790E-04-4.80512E-14
 -1       655 1.32742E-02-1.02273E-03-6.75128E-14
 -1       656 1.36635E-02-8.86209E-04-7.05888E-14
 -1       657 1.40145E-02-8.05766E-04-7.37275E-14
 -1       658 1.43357E-02-7.60430E-04-7.69056E-14
 -1       659 2.19070E-03 4.37580E-04-1.57626E-15
 -1       660 1.90570E-03 4.20801E-04-1.16612E-15
 -1       661 2.76014E-03 4.55495E-04-2.59363E-15
 -1       662 3.04482E-03 4.59383E-04-3.20422E-15
 -1       663 3.32956E-03 4.61177E-04-3.88445E-15
 -1       664 3.61441E-03 4.61525E-04-4.63551E-15
 -1       665 3.89938E-03 4.60880E-04-5.45836E-15
 -1       666 4.18448E-03 4.59543E-04-6.35493E-15
 -1       667 4.46972E-03 4.57697E-04-7.32652E-15
 -1       668 4.75510E-03 4.55434E-04-8.37173E-15
 -1       669 5.04061E-03 4.52775E-04-9.49202E-15
 -1       670 5.32626E-03 4.49690E-04-1.06877E-14
 -1       671 5.61208E-03 4.46114E-04-1.19571E-14
 -1       672 5.89810E-03 4.41964E-04-1.33033E-14
 -1       673 6.18435E-03 4.37157E-04-1.47248E-14
 -1       674 6.47090E-03 4.31628E-04-1.62184E-14
 -1       675 6.75785E-03 4.25367E-04-1.77790E-14
 -1       676 7.04531E-03 4.18446E-04-1.94096E-14
 -1       677 7.33346E-03 4.11073E-04-2.11073E-14
 -1       678 7.62252E-03 4.03649E-04-2.28687E-14
 -1       679 7.91284E-03 3.96841E-04-2.46986E-14
 -1       680 8.20488E-03 3.91665E-04-2.66005E-14
 -1       681 8.49929E-03 3.89570E-04-2.85735E-14
 -1       682 8.79696E-03 3.92517E-04-3.06118E-14
 -1       683 9.09901E-03 4.03009E-04-3.27132E-14
 -1       684 9.40678E-03 4.24033E-04-3.48764E-14
 -1       685 9.72154E-03 4.58781E-04-3.71030E-14
 -1       686 1.00439E-02 5.09966E-04-3.93996E-14
 -1       687 1.03728E-02 5.78294E-04-4.17740E-14
 -1       688 1.07046E-02 6.59871E-04-4.42225E-14
 -1       689 1.10334E-02 7.43166E-04-4.67447E-14
 -1       690 1.13536E-02 8.07711E-04-4.93463E-14
 -1       691 1.16643E-02 8.29362E-04-5.20319E-14
 -1       692 1.19712E-02 7.91834E-04-5.47870E-14
 -1       693 1.22831E-02 6.98153E-04-5.76089E-14
 -1       694 1.26040E-02 5.66423E-04-6.04994E-14
 -1       695 1.29306E-02 4.19465E-04-6.34574E-14
 -1       696 1.32564E-02 2.72963E-04-6.64707E-14
 -1       697 1.35342E-02 1.43130E-04-6.89834E-14
 -1       698 1.46610E-02-4.19343E-04-7.51159E-14
 -1       699 1.45431E-02-7.37948E-04-7.90614E-14
 -1       700 1.42948E-02-2.51598E-04-7.37095E-14
 -1       701 1.47840E-02-4.73506E-04-7.57729E-14
 -1       702 1.44874E-02-3.44412E-04-7.44205E-14
 -1       703 1.31248E-02 1.33510E-04-6.29402E-14
 -1       704 1.48317E-02-5.14374E-04-7.63981E-14
 -1       705 1.47980E-02-5.58488E-04-7.70161E-14
 -1       706 1.46987E-02-6.18325E-04-7.76166E-14
 -1       707 1.46235E-02-6.75043E-04-7.83427E-14
 -1       708 9.82067E-03-2.89044E-04-4.68933E-14
 -1       709 8.72362E-04-2.47188E-04-4.77750E-16
 -1       710 1.33901E-02-9.37363E-04-6.74915E-14
 -1       711 1.62035E-03 3.96298E-04-8.21144E-16
 -1       712 2.47547E-03 4.48625E-04-2.05168E-15
 -1       713 1.12694E-03-2.97161E-04-7.54554E-16
 -1       714 9.04217E-04 1.24642E-04-3.97021E-16
 -1       715 1.37546E-02-7.46597E-04-6.85264E-14
 -1       716 9.03844E-04-1.22230E-04-5.22911E-16
 -1       717 1.18521E-02 7.18888E-04-5.43219E-14
 -1       718 1.01623E-02-4.34407E-04-4.82772E-14
 -1       719 1.22359E-02 6.24036E-04-5.72259E-14
 -1       720 1.03317E-02 1.11576E-04-4.66386E-14
 -1       721 1.14855E-02 6.69027E-04-5.17520E-14
 -1       722 1.00029E-02-3.43904E-05-4.59794E-14
 -1       723 9.72725E-03-1.30006E-04-4.54920E-14
 -1       724 9.61686E-03-2.16144E-04-4.57829E-14
 -1       725 9.60274E-03-1.81107E-04-4.56445E-14
 -1       726 1.06520E-02-6.93796E-04-5.05813E-14
 -1       727 1.11362E-02 5.14562E-04-4.98789E-14
 -1       728 1.33464E-03 3.61612E-04-5.39936E-16
 -1       729 1.44813E-02-4.67657E-04-7.03635E-14
 -1       730 1.29557E-02-1.16856E-03-6.52608E-14
 -1       731 1.40415E-02-3.06835E-04-6.71610E-14
 -1       732 1.25842E-02 4.47505E-04-5.97128E-14
 -1       733 9.11236E-04-1.75622E-04-5.33112E-16
 -1       734 1.33756E-02 1.06077E-05-6.47161E-14
 -1       735 8.97616E-04-2.31629E-05-4.87210E-16
 -1       736 1.05025E-02 2.16346E-04-4.67288E-14
 -1       737 1.27063E-02-1.28724E-03-6.35706E-14
 -1       738 1.41083E-02-1.50675E-04-7.30134E-14
 -1       739 1.44888E-02-4.50971E-04-7.06647E-14
 -1       740 8.99560E-04-7.18417E-05-5.07359E-16
 -1       741 1.38471E-02-2.18925E-04-6.69873E-14
 -1       742 1.16411E-02 7.28571E-04-5.25476E-14
 -1       743 1.28537E-02 3.10737E-04-6.17579E-14
 -1       744 1.19858E-02 7.21295E-04-5.52023E-14
 -1       745 1.16154E-03 2.43675E-04-5.23151E-16
 -1       746 1.79731E-03-3.09579E-04-1.77645E-15
 -1       747 2.08498E-03-3.25680E-04-2.32609E-15
 -1       748 2.37278E-03-3.36473E-04-2.94781E-15
 -1       749 2.66049E-03-3.43307E-04-3.64051E-15
 -1       750 2.94799E-03-3.47265E-04-4.40342E-15
 -1       751 3.23526E-03-3.49181E-04-5.23544E-15
 -1       752 3.52229E-03-3.49676E-04-6.13661E-15
 -1       753 3.80909E-03-3.49193E-04-7.10763E-15
 -1       754 4.09568E-03-3.48033E-04-8.14866E-15
 -1       755 4.38208E-03-3.46385E-04-9.26261E-15
 -1       756 4.66831E-03-3.44349E-04-1.04489E-14
 -1       757 4.95438E-03-3.41957E-04-1.17077E-14
 -1       758 5.24028E-03-3.39189E-04-1.30412E-14
 -1       759 5.52600E-03-3.35986E-04-1.44482E-14
 -1       760 5.81151E-03-3.32265E-04-1.59306E-14
 -1       761 6.09675E-03-3.27933E-04-1.74887E-14
 -1       762 6.38164E-03-3.22898E-04-1.91197E-14
 -1       763 6.66606E-03-3.17097E-04-2.08218E-14
 -1       764 6.94985E-03-3.10518E-04-2.25923E-14
 -1       765 7.23279E-03-3.03235E-04-2.44330E-14
 -1       766 7.51458E-03-2.95458E-04-2.63413E-14
 -1       767 7.79487E-03-2.87588E-04-2.83186E-14
 -1       768 8.07323E-03-2.80285E-04-3.03608E-14
 -1       769 8.34920E-03-2.74538E-04-3.24728E-14
 -1       770 8.62240E-03-2.71740E-04-3.46456E-14
 -1       771 8.89273E-03-2.73749E-04-3.68841E-14
 -1       772 9.16075E-03-2.82980E-04-3.91804E-14
 -1       773 9.42842E-03-3.02650E-04-4.15267E-14
 -1       774 9.70063E-03-3.37611E-04-4.39230E-14
 -1       775 9.92934E-03-3.73231E-04-4.60802E-14
 -1       776 1.43925E-02-5.61745E-04-7.22945E-14
 -1       777 9.77815E-03-6.33496E-05-4.41929E-14
 -1       778 1.40149E-02-7.14928E-04-7.16620E-14
 -1       779 1.43232E-02-6.82094E-04-7.48166E-14
 -1       780 2.03275E-03 3.57749E-04-1.49337E-15
 -1       781 3.18004E-03 3.85805E-04-3.74425E-15
 -1       782 2.89347E-03 3.83272E-04-3.08057E-15
 -1       783 3.75272E-03 3.86534E-04-5.28384E-15
 -1       784 4.03888E-03 3.85579E-04-6.16060E-15
 -1       785 4.32493E-03 3.84080E-04-7.10952E-15
 -1       786 4.61090E-03 3.82162E-04-8.13266E-15
 -1       787 4.89680E-03 3.79873E-04-9.23064E-15
 -1       788 5.18263E-03 3.77206E-04-1.04038E-14
 -1       789 5.46839E-03 3.74113E-04-1.16538E-14
 -1       790 5.75408E-03 3.70516E-04-1.29772E-14
 -1       791 6.03970E-03 3.66329E-04-1.43773E-14
 -1       792 6.32524E-03 3.61470E-04-1.58492E-14
 -1       793 6.61071E-03 3.55880E-04-1.73912E-14
 -1       794 6.89613E-03 3.49556E-04-1.90028E-14
 -1       795 7.18154E-03 3.42578E-04-2.06824E-14
 -1       796 7.46706E-03 3.35159E-04-2.24271E-14
 -1       797 7.75289E-03 3.27692E-04-2.42377E-14
 -1       798 8.03939E-03 3.20826E-04-2.61167E-14
 -1       799 8.32715E-03 3.15533E-04-2.80683E-14
 -1       800 8.61713E-03 3.13213E-04-3.00869E-14
 -1       801 8.91073E-03 3.15795E-04-3.21699E-14
 -1       802 9.20992E-03 3.25866E-04-3.43108E-14
 -1       803 9.51716E-03 3.46767E-04-3.65172E-14
 -1       804 9.83509E-03 3.82566E-04-3.87853E-14
 -1       805 1.01656E-02 4.37556E-04-4.11291E-14
 -1       806 1.05078E-02 5.14306E-04-4.35509E-14
 -1       807 1.08553E-02 6.08655E-04-4.60457E-14
 -1       808 1.12010E-02 7.03988E-04-4.86128E-14
 -1       809 1.15334E-02 7.67934E-04-5.12603E-14
 -1       810 1.25195E-02 5.54030E-04-5.96372E-14
 -1       811 1.28667E-02 3.96724E-04-6.25734E-14
 -1       812 1.32136E-02 2.42859E-04-6.55785E-14
 -1       813 9.60774E-03-2.35325E-04-4.46948E-14
 -1       814 1.13827E-03 5.90711E-05-6.84989E-16
 -1       815 1.46541E-02-5.17313E-04-7.41841E-14
 -1       816 1.45590E-02-4.25726E-04-7.31167E-14
 -1       817 1.46521E-02-4.75353E-04-7.35749E-14
 -1       818 1.24341E-02 5.57546E-04-5.88414E-14
 -1       819 3.46645E-03 3.86725E-04-4.47839E-15
 -1       820 1.74570E-03 3.39165E-04-1.09575E-15
 -1       821 1.51022E-03-2.86603E-04-1.29860E-15
 -1       822 1.42845E-02-3.73762E-04-6.97500E-14
 -1       823 1.12335E-02 6.14365E-04-4.97021E-14
 -1       824 1.00693E-02 5.31545E-05-4.47833E-14
 -1       825 1.24622E-03 3.00905E-04-5.36175E-16
 -1       826 1.45334E-02-5.05515E-04-7.22295E-14
 -1       827 1.08409E-02 4.08688E-04-4.77908E-14
 -1       828 1.30945E-02 1.88493E-04-6.35170E-14
 -1       829 1.13691E-03 1.19597E-06-7.23976E-16
 -1       830 1.14982E-03 1.79154E-04-5.85937E-16
 -1       831 1.02196E-02 1.40392E-04-4.48680E-14
 -1       832 9.58638E-03-1.15600E-04-4.35766E-14
 -1       833 1.25389E-03-2.56271E-04-9.32614E-16
 -1       834 2.31980E-03 3.70325E-04-1.95688E-15
 -1       835 2.60672E-03 3.78425E-04-2.48530E-15
 -1       836 1.22583E-02 6.52976E-04-5.74313E-14
 -1       837 1.35079E-02 1.09626E-04-6.80800E-14
 -1       838 1.14238E-03 1.17839E-04-6.39473E-16
 -1       839 1.41320E-02-2.37121E-04-7.13638E-14
 -1       840 1.38241E-02-4.38485E-05-7.04623E-14
 -1       841 1.43466E-02-3.43344E-04-7.20571E-14
 -1       842 9.46037E-03-1.80333E-04-4.34030E-14
 -1       843 1.49561E-03 3.24213E-04-7.89801E-16
 -1       844 1.39708E-02-1.40742E-04-7.09211E-14
 -1       845 1.36549E-02-1.09815E-04-6.67136E-14
 -1       846 1.14924E-03-1.76165E-04-8.02225E-16
 -1       847 1.14204E-03-1.15225E-04-7.82940E-16
 -1       848 2.21837E-03-2.58954E-04-2.58830E-15
 -1       849 2.50745E-03-2.66257E-04-3.23334E-15
 -1       850 2.79648E-03-2.70728E-04-3.94923E-15
 -1       851 3.08525E-03-2.73149E-04-4.73431E-15
 -1       852 3.37367E-03-2.74121E-04-5.58738E-15
 -1       853 3.66170E-03-2.74090E-04-6.50844E-15
 -1       854 3.94935E-03-2.73367E-04-7.49914E-15
 -1       855 4.23661E-03-2.72158E-04-8.56099E-15
 -1       856 4.52352E-03-2.70584E-04-9.69714E-15
 -1       857 4.81007E-03-2.68700E-04-1.09049E-14
 -1       858 5.09627E-03-2.66513E-04-1.21866E-14
 -1       859 5.38209E-03-2.63990E-04-1.35428E-14
 -1       860 5.66748E-03-2.61075E-04-1.49738E-14
 -1       861 5.95236E-03-2.57698E-04-1.64807E-14
 -1       862 6.23660E-03-2.53790E-04-1.80641E-14
 -1       863 6.52001E-03-2.49299E-04-1.97176E-14
 -1       864 6.80237E-03-2.44212E-04-2.14402E-14
 -1       865 7.08335E-03-2.38579E-04-2.32285E-14
 -1       866 7.36253E-03-2.32552E-04-2.50895E-14
 -1       867 7.63941E-03-2.26421E-04-2.70172E-14
 -1       868 7.91333E-03-2.20657E-04-2.90114E-14
 -1       869 8.18352E-03-2.15952E-04-3.10714E-14
 -1       870 8.44912E-03-2.13233E-04-3.31978E-14
 -1       871 8.70916E-03-2.13659E-04-3.53870E-14
 -1       872 8.96272E-03-2.18564E-04-3.76375E-14
 -1       873 9.20910E-03-2.29393E-04-3.99443E-14
 -1       874 9.44860E-03-2.48059E-04-4.22990E-14
 -1       875 9.78622E-03 2.61988E-05-4.25719E-14
 -1       876 4.17929E-03 3.09883E-04-6.88004E-15
 -1       877 3.89231E-03 3.10965E-04-5.95194E-15
 -1       878 4.75240E-03 3.06549E-04-8.95595E-15
 -1       879 5.03855E-03 3.04386E-04-1.01074E-14
 -1       880 5.32443E-03 3.01868E-04-1.13356E-14
 -1       881 5.61000E-03 2.98935E-04-1.26390E-14
 -1       882 5.89524E-03 2.95509E-04-1.40172E-14
 -1       883 6.18010E-03 2.91503E-04-1.54689E-14
 -1       884 6.46450E-03 2.86835E-04-1.69905E-14
 -1       885 6.74839E-03 2.81450E-04-1.85812E-14
 -1       886 7.03169E-03 2.75336E-04-2.02424E-14
 -1       887 7.31438E-03 2.68555E-04-2.19696E-14
 -1       888 7.59652E-03 2.61277E-04-2.37635E-14
 -1       889 7.87826E-03 2.53823E-04-2.56223E-14
 -1       890 8.15999E-03 2.46722E-04-2.75515E-14
 -1       891 8.44246E-03 2.40786E-04-2.95492E-14
 -1       892 8.72690E-03 2.37217E-04-3.16125E-14
 -1       893 9.01527E-03 2.37796E-04-3.37369E-14
 -1       894 9.31046E-03 2.45180E-04-3.59209E-14
 -1       895 9.61636E-03 2.63350E-04-3.81677E-14
 -1       896 9.93699E-03 2.98058E-04-4.04838E-14
 -1       897 1.02780E-02 3.56476E-04-4.28736E-14
 -1       898 1.06370E-02 4.46081E-04-4.53395E-14
 -1       899 1.05274E-02 3.23219E-04-4.55471E-14
 -1       900 9.40881E-03-2.03489E-04-4.24118E-14
 -1       901 9.58213E-03-4.27292E-05-4.19762E-14
 -1       902 1.33082E-02 1.44562E-04-6.57970E-14
 -1       903 1.64162E-03-2.31811E-04-1.50862E-15
 -1       904 4.46598E-03 3.08387E-04-7.88019E-15
 -1       905 1.13811E-03-5.65319E-05-7.56624E-16
 -1       906 3.02947E-03 3.09721E-04-3.58816E-15
 -1       907 1.87594E-03 2.78829E-04-1.39492E-15
 -1       908 1.92957E-03-2.47848E-04-2.01391E-15
 -1       909 1.41123E-02-2.91846E-04-6.96207E-14
 -1       910 1.38106E-03 3.41178E-05-9.97896E-16
 -1       911 1.40131E-03 2.37124E-04-8.02787E-16
 -1       912 9.90884E-03 9.26771E-05-4.26483E-14
 -1       913 1.38420E-03 9.98709E-05-9.42460E-16
 -1       914 3.31741E-03 3.11190E-04-4.30619E-15
 -1       915 2.74124E-03 3.06557E-04-2.93983E-15
 -1       916 9.37906E-03-1.27280E-04-4.18235E-14
 -1       917 3.60502E-03 3.11482E-04-5.09308E-15
 -1       918 9.32471E-03-7.05120E-05-4.02604E-14
 -1       919 1.39024E-03-1.64264E-04-1.11649E-15
 -1       920 1.44861E-03-2.23775E-04-1.20860E-15
 -1       921 1.62453E-03 2.70154E-04-1.04369E-15
 -1       922 9.26650E-03-1.48012E-04-4.08639E-14
 -1       923 2.16424E-03 2.92134E-04-1.84457E-15
 -1       924 1.37534E-02-9.98224E-05-6.84443E-14
 -1       925 1.34602E-02 2.26469E-05-6.62631E-14
 -1       926 2.64534E-03-1.94236E-04-3.51357E-15
 -1       927 2.93526E-03-1.96816E-04-4.25160E-15
 -1       928 3.22485E-03-1.98072E-04-5.05698E-15
 -1       929 3.51400E-03-1.98397E-04-5.92963E-15
 -1       930 3.80264E-03-1.98079E-04-6.86968E-15
 -1       931 4.09077E-03-1.97314E-04-7.88035E-15
 -1       932 4.37838E-03-1.96227E-04-8.96588E-15
 -1       933 4.66550E-03-1.94885E-04-1.01224E-14
 -1       934 4.95211E-03-1.93313E-04-1.13534E-14
 -1       935 5.23819E-03-1.91502E-04-1.26575E-14
 -1       936 5.52369E-03-1.89423E-04-1.40370E-14
 -1       937 5.80851E-03-1.87032E-04-1.54926E-14
 -1       938 6.09251E-03-1.84285E-04-1.70246E-14
 -1       939 6.37549E-03-1.81151E-04-1.86298E-14
 -1       940 6.65717E-03-1.77627E-04-2.03047E-14
 -1       941 6.93720E-03-1.73758E-04-2.20445E-14
 -1       942 7.21512E-03-1.69666E-04-2.38544E-14
 -1       943 7.49035E-03-1.65577E-04-2.57337E-14
 -1       944 7.76219E-03-1.61854E-04-2.76788E-14
 -1       945 8.02974E-03-1.59020E-04-2.96888E-14
 -1       946 8.29192E-03-1.57772E-04-3.17655E-14
 -1       947 8.54739E-03-1.58951E-04-3.39086E-14
 -1       948 8.79443E-03-1.63479E-04-3.61121E-14
 -1       949 9.03081E-03-1.72226E-04-3.83738E-14
 -1       950 9.22531E-03-1.85926E-04-4.03753E-14
 -1       951 4.03310E-03 2.35060E-04-6.63732E-15
 -1       952 1.38096E-03-3.12641E-05-1.04552E-15
 -1       953 5.18035E-03 2.29208E-04-1.10043E-14
 -1       954 4.89420E-03 2.31088E-04-9.79873E-15
 -1       955 5.75114E-03 2.24436E-04-1.36419E-14
 -1       956 6.03565E-03 2.21404E-04-1.50727E-14
 -1       957 6.31943E-03 2.17830E-04-1.65759E-14
 -1       958 6.60235E-03 2.13634E-04-1.81458E-14
 -1       959 6.88424E-03 2.08750E-04-1.97872E-14
 -1       960 7.16496E-03 2.03138E-04-2.14967E-14
 -1       961 7.44439E-03 1.96807E-04-2.32736E-14
 -1       962 7.72248E-03 1.89832E-04-2.51171E-14
 -1       963 7.99933E-03 1.82386E-04-2.70233E-14
 -1       964 8.27529E-03 1.74779E-04-2.90004E-14
 -1       965 8.55110E-03 1.67530E-04-3.10451E-14
 -1       966 8.82815E-03 1.61499E-04-3.31493E-14
 -1       967 9.10877E-03 1.58169E-04-3.53159E-14
 -1       968 9.39666E-03 1.60194E-04-3.75421E-14
 -1       969 9.69762E-03 1.72261E-04-3.98337E-14
 -1       970 1.38392E-03-9.71207E-05-1.08553E-15
 -1       971 1.58295E-03-1.69943E-04-1.40266E-15
 -1       972 9.55192E-03 3.52387E-05-4.04331E-14
 -1       973 1.39075E-03 1.67300E-04-8.77912E-16
 -1       974 1.36173E-02 1.07994E-05-6.82713E-14
 -1       975 1.87067E-03-1.83175E-04-1.88634E-15
 -1       976 2.45277E-03 3.00997E-04-2.35946E-15
 -1       977 2.35533E-03-1.89816E-04-2.84570E-15
 -1       978 2.11270E-03-1.87721E-04-2.34219E-15
 -1       979 5.46601E-03 2.27012E-04-1.22855E-14
 -1       980 3.74518E-03 2.35702E-04-5.72777E-15
 -1       981 1.62757E-03 1.56222E-06-1.37083E-15
 -1       982 2.87869E-03 2.33254E-04-3.41662E-15
 -1       983 2.01020E-03 2.15282E-04-1.71770E-15
 -1       984 4.60761E-03 2.32692E-04-8.66949E-15
 -1       985 1.61274E-03 1.95261E-04-1.13632E-15
 -1       986 9.16924E-03-1.00060E-04-3.93272E-14
 -1       987 3.16794E-03 2.35098E-04-4.11769E-15
 -1       988 9.26992E-03-7.53103E-06-3.87540E-14
 -1       989 4.32058E-03 2.34027E-04-7.61728E-15
 -1       990 9.65348E-03 9.01001E-05-4.05044E-14
 -1       991 1.62932E-03 7.31148E-05-1.30600E-15
 -1       992 2.58914E-03 2.29781E-04-2.78401E-15
 -1       993 3.07649E-03-1.21841E-04-4.54516E-15
 -1       994 3.36651E-03-1.22309E-04-5.37020E-15
 -1       995 3.65600E-03-1.22275E-04-6.26176E-15
 -1       996 3.94489E-03-1.21894E-04-7.22153E-15
 -1       997 4.23318E-03-1.21270E-04-8.25356E-15
 -1       998 4.52087E-03-1.20463E-04-9.36023E-15
 -1       999 4.80795E-03-1.19505E-04-1.05404E-14
 -1      1000 5.09440E-03-1.18401E-04-1.17931E-14
 -1      1001 5.38017E-03-1.17143E-04-1.31201E-14
 -1      1002 5.66518E-03-1.15713E-04-1.45229E-14
 -1      1003 5.94928E-03-1.14093E-04-1.60039E-14
 -1      1004 6.23228E-03-1.12274E-04-1.75583E-14
 -1      1005 6.51391E-03-1.10268E-04-1.91837E-14
 -1      1006 6.79383E-03-1.08126E-04-2.08757E-14
 -1      1007 7.07158E-03-1.05952E-04-2.26361E-14
 -1      1008 7.34661E-03-1.03933E-04-2.44668E-14
 -1      1009 7.61825E-03-1.02359E-04-2.63638E-14
 -1      1010 7.88566E-03-1.01650E-04-2.83250E-14
 -1      1011 8.14780E-03-1.02365E-04-3.03515E-14
 -1      1012 8.40337E-03-1.05205E-04-3.24459E-14
 -1      1013 8.65065E-03-1.10963E-04-3.46035E-14
 -1      1014 8.88728E-03-1.20485E-04-3.68193E-14
 -1      1015 9.07953E-03-1.34287E-04-3.87823E-14
 -1      1016 1.62911E-03-7.01350E-05-1.42639E-15
 -1      1017 2.29952E-03 2.24050E-04-2.21818E-15
 -1      1018 5.32219E-03 1.54566E-04-1.19196E-14
 -1      1019 6.17550E-03 1.48476E-04-1.61456E-14
 -1      1020 5.89192E-03 1.50870E-04-1.46629E-14
 -1      1021 6.73919E-03 1.42191E-04-1.93194E-14
 -1      1022 7.01883E-03 1.38124E-04-2.10099E-14
 -1      1023 7.29666E-03 1.33322E-04-2.27675E-14
 -1      1024 7.57243E-03 1.27705E-04-2.45967E-14
 -1      1025 7.84596E-03 1.21207E-04-2.64867E-14
 -1      1026 8.11716E-03 1.13785E-04-2.84418E-14
 -1      1027 8.38619E-03 1.05450E-04-3.04658E-14
 -1      1028 8.65357E-03 9.63225E-05-3.25533E-14
 -1      1029 8.92041E-03 8.67848E-05-3.47000E-14
 -1      1030 9.18889E-03 7.78384E-05-3.69068E-14
 -1      1031 1.61970E-03 1.33918E-04-1.22437E-15
 -1      1032 5.60744E-03 1.52876E-04-1.32546E-14
 -1      1033 5.03627E-03 1.55999E-04-1.06617E-14
 -1      1034 6.45800E-03 1.45612E-04-1.76999E-14
 -1      1035 3.45678E-03 2.35796E-04-4.88846E-15
 -1      1036 2.49544E-03-1.18470E-04-3.09774E-15
 -1      1037 2.78606E-03-1.20657E-04-3.78777E-15
 -1      1038 3.88674E-03 1.59640E-04-6.38034E-15
 -1      1039 1.87716E-03-3.65403E-05-1.80397E-15
 -1      1040 1.87725E-03 3.97282E-05-1.73078E-15
 -1      1041 4.74974E-03 1.57217E-04-9.47842E-15
 -1      1042 2.14800E-03 1.48565E-04-2.06340E-15
 -1      1043 9.46297E-03 7.20350E-05-3.91793E-14
 -1      1044 1.99336E-03-1.10570E-04-2.06825E-15
 -1      1045 2.72851E-03 1.56901E-04-3.23078E-15
 -1      1046 2.25209E-03-1.19136E-04-2.57642E-15
 -1      1047 9.08968E-03-4.78255E-05-3.78509E-14
 -1      1048 4.17497E-03 1.59061E-04-7.33997E-15
 -1      1049 3.01874E-03 1.58771E-04-3.91514E-15
 -1      1050 6.59624E-03 7.50704E-05-1.88407E-14
 -1      1051 3.50989E-03-4.61500E-05-5.67222E-15
 -1      1052 3.79938E-03-4.60185E-05-6.58354E-15
 -1      1053 4.08822E-03-4.57755E-05-7.56381E-15
 -1      1054 4.37640E-03-4.54525E-05-8.61685E-15
 -1      1055 4.66392E-03-4.50667E-05-9.74447E-15
 -1      1056 4.95078E-03-4.46266E-05-1.09473E-14
 -1      1057 5.23692E-03-4.41374E-05-1.22224E-14
 -1      1058 5.52227E-03-4.35992E-05-1.35731E-14
 -1      1059 5.80671E-03-4.30163E-05-1.50004E-14
 -1      1060 6.09008E-03-4.24017E-05-1.65045E-14
 -1      1061 6.37212E-03-4.17847E-05-1.80803E-14
 -1      1062 6.65254E-03-4.12215E-05-1.97225E-14
 -1      1063 6.93093E-03-4.08083E-05-2.14342E-14
 -1      1064 7.20682E-03-4.06986E-05-2.32158E-14
 -1      1065 7.47961E-03-4.11218E-05-2.50649E-14
 -1      1066 7.74863E-03-4.24044E-05-2.69749E-14
 -1      1067 8.01304E-03-4.49884E-05-2.89540E-14
 -1      1068 8.27183E-03-4.94428E-05-3.09990E-14
 -1      1069 8.52377E-03-5.64586E-05-3.31080E-14
 -1      1070 8.76713E-03-6.67900E-05-3.52774E-14
 -1      1071 8.97376E-03-8.17479E-05-3.72813E-14
 -1      1072 2.43813E-03 1.53673E-04-2.61400E-15
 -1      1073 3.59795E-03 1.59890E-04-5.49008E-15
 -1      1074 5.74882E-03 7.96577E-05-1.42412E-14
 -1      1075 7.15296E-03 6.98116E-05-2.22486E-14
 -1      1076 6.87564E-03 7.27362E-05-2.05105E-14
 -1      1077 7.69975E-03 6.15275E-05-2.59322E-14
 -1      1078 7.96839E-03 5.57321E-05-2.78724E-14
 -1      1079 8.23335E-03 4.84646E-05-2.98773E-14
 -1      1080 8.49435E-03 3.93997E-05-3.19452E-14
 -1      1081 8.75130E-03 2.82233E-05-3.40758E-14
 -1      1082 9.01298E-03 1.15210E-05-3.63812E-14
 -1      1083 5.46412E-03 8.06521E-05-1.28551E-14
 -1      1084 2.63833E-03-4.52396E-05-3.34406E-15
 -1      1085 2.92922E-03-4.58437E-05-4.05346E-15
 -1      1086 6.31511E-03 7.69387E-05-1.72376E-14
 -1      1087 4.46264E-03 1.58238E-04-8.37177E-15
 -1      1088 7.42780E-03 6.61404E-05-2.40605E-14
 -1      1089 3.21981E-03-4.61120E-05-4.82961E-15
 -1      1090 5.17858E-03 8.14739E-05-1.15432E-14
 -1      1091 6.03255E-03 7.84411E-05-1.57026E-14
 -1      1092 3.30859E-03 1.59670E-04-4.66827E-15
 -1      1093 3.74062E-03 8.37328E-05-6.11049E-15
 -1      1094 4.89230E-03 8.21579E-05-1.03072E-14
 -1      1095 2.87048E-03 8.26486E-05-3.70045E-15
 -1      1096 2.39450E-03-4.79706E-05-2.80565E-15
 -1      1097 2.57968E-03 8.12766E-05-3.03202E-15
 -1      1098 1.87639E-03 7.46410E-05-1.69066E-15
 -1      1099 2.28898E-03 7.90561E-05-2.43178E-15
 -1      1100 4.02950E-03 8.35396E-05-7.05103E-15
 -1      1101 4.52022E-03 2.99629E-05-8.96980E-15
 -1      1102 2.16465E-03-4.80843E-05-2.33910E-15
 -1      1103 3.16104E-03 8.34010E-05-4.43521E-15
 -1      1104 4.27502E-03 5.66582E-05-7.97986E-15
 -1      1105 2.12749E-03 1.71472E-06-2.21698E-15
 -1      1106 3.40427E-03 5.49404E-05-5.16491E-15
 -1      1107 2.35733E-03 3.20538E-06-2.66898E-15
 -1      1108 0.00000E+00 0.00000E+00 0.00000E+00
 -1      1109 0.00000E+00 0.00000E+00 0.00000E+00
 -1      1110 0.00000E+00 0.00000E+00 0.00000E+00
 -1      1111 0.00000E+00 0.00000E+00 0.00000E+00
 -1      1112 0.00000E+00 0.00000E+00 0.00000E+00
 -1      1113 0.00000E+00 0.00000E+00 0.00000E+00
 -1      1114 0.00000E+00 0.00000E+00 0.00000E+00
 -1      1115 0.00000E+00 0.00000E+00 0.00000E+00
 -1      1116 0.00000E+00 0.00000E+00 0.00000E+00
 -1      1117 0.00000E+00 0.00000E+00 0.00000E+00
 -1      1118 0.00000E+00 0.00000E+00 0.00000E+00
 -1      1119 0.00000E+00 0.00000E+00 0.00000E+00
 -1      1120 0.00000E+00 0.00000E+00 0.00000E+00
 -1      1121 0.00000E+00 0.00000E+00 0.00000E+00
 -1      1122 0.00000E+00 0.00000E+00 0.00000E+00
 -1      1123 0.00000E+00 0.00000E+00 0.00000E+00
 -1      1124 0.00000E+00 0.00000E+00 0.00000E+00
 -1      1125 2.11677E-04-1.48336E-04-2.79182E-18
 -1      1126 5.51666E-04-3.37522E-04-6.83047E-17
 -1      1127 8.33509E-04-4.59021E-04-2.18141E-16
 -1      1128 1.10311E-03-5.40716E-04-4.63889E-16
 -1      1129 1.36855E-03-5.97983E-04-7.98976E-16
 -1      1130 1.63339E-03-6.38717E-04-1.21887E-15
 -1      1131 1.89948E-03-6.67565E-04-1.72221E-15
 -1      1132 2.16766E-03-6.87650E-04-2.31014E-15
 -1      1133 2.43823E-03-7.01258E-04-2.98133E-15
 -1      1134 2.71118E-03-7.10112E-04-3.73330E-15
 -1      1135 2.98635E-03-7.15516E-04-4.55995E-15
 -1      1136 3.26348E-03-7.18450E-04-5.45988E-15
 -1      1137 3.54230E-03-7.19635E-04-6.43058E-15
 -1      1138 3.82254E-03-7.19590E-04-7.47476E-15
 -1      1139 4.10395E-03-7.18673E-04-8.59072E-15
 -1      1140 4.38631E-03-7.17115E-04-9.77687E-15
 -1      1141 4.66946E-03-7.15049E-04-1.10350E-14
 -1      1142 4.95326E-03-7.12530E-04-1.23661E-14
 -1      1143 5.23766E-03-7.09556E-04-1.37711E-14
 -1      1144 5.52266E-03-7.06080E-04-1.52511E-14
 -1      1145 5.80834E-03-7.02030E-04-1.68033E-14
 -1      1146 6.09485E-03-6.97318E-04-1.84272E-14
 -1      1147 6.38247E-03-6.91866E-04-2.01194E-14
 -1      1148 6.67160E-03-6.85624E-04-2.18883E-14
 -1      1149 6.96280E-03-6.78610E-04-2.37383E-14
 -1      1150 7.25683E-03-6.70950E-04-2.56611E-14
 -1      1151 7.55468E-03-6.62960E-04-2.76464E-14
 -1      1152 7.85765E-03-6.55239E-04-2.96961E-14
 -1      1153 8.16735E-03-6.48830E-04-3.18209E-14
 -1      1154 8.48570E-03-6.45431E-04-3.40140E-14
 -1      1155 8.81490E-03-6.47696E-04-3.62677E-14
 -1      1156 9.15720E-03-6.59616E-04-3.85838E-14
 -1      1157 9.51435E-03-6.86906E-04-4.09514E-14
 -1      1158 9.88671E-03-7.37174E-04-4.33717E-14
 -1      1159 1.02717E-02-8.19314E-04-4.58457E-14
 -1      1160 1.06617E-02-9.41117E-04-4.83726E-14
 -1      1161 1.10433E-02-1.10399E-03-5.09511E-14
 -1      1162 1.13981E-02-1.29529E-03-5.35846E-14
 -1      1163 1.17106E-02-1.48298E-03-5.62704E-14
 -1      1164 1.19789E-02-1.62155E-03-5.90235E-14
 -1      1165 1.22218E-02-1.67277E-03-6.18659E-14
 -1      1166 1.24708E-02-1.62880E-03-6.47905E-14
 -1      1167 1.27505E-02-1.51665E-03-6.77927E-14
 -1      1168 1.30663E-02-1.37944E-03-7.08726E-14
 -1      1169 1.34059E-02-1.25233E-03-7.40138E-14
 -1      1170 1.37508E-02-1.15092E-03-7.71984E-14
 -1      1171 1.40857E-02-1.07327E-03-8.04197E-14
 -1      1172 1.44023E-02-1.00757E-03-8.36594E-14
 -1      1173 1.47004E-02-9.39182E-04-8.69133E-14
 -1      1174 1.49797E-02-8.60877E-04-9.01162E-14
 -1      1175 2.28436E-04 1.60714E-04 3.31766E-17
 -1      1176 5.53839E-04 3.42154E-04 7.09068E-17
 -1      1177 8.34439E-04 4.61190E-04 6.34936E-17
 -1      1178 1.10401E-03 5.42404E-04 9.35124E-19
 -1      1179 1.36945E-03 5.99664E-04-1.21661E-16
 -1      1180 1.63434E-03 6.40485E-04-3.07060E-16
 -1      1181 1.90048E-03 6.69439E-04-5.57605E-16
 -1      1182 2.16871E-03 6.89643E-04-8.70696E-16
 -1      1183 2.43931E-03 7.03379E-04-1.24853E-15
 -1      1184 2.71228E-03 7.12365E-04-1.69542E-15
 -1      1185 2.98746E-03 7.17903E-04-2.21498E-15
 -1      1186 3.26460E-03 7.20973E-04-2.80456E-15
 -1      1187 3.54343E-03 7.22294E-04-3.46522E-15
 -1      1188 3.82368E-03 7.22385E-04-4.20111E-15
 -1      1189 4.10510E-03 7.21606E-04-5.01438E-15
 -1      1190 4.38749E-03 7.20190E-04-5.91019E-15
 -1      1191 4.67066E-03 7.18274E-04-6.88365E-15
 -1      1192 4.95450E-03 7.15917E-04-7.92942E-15
 -1      1193 5.23895E-03 7.13129E-04-9.04856E-15
 -1      1194 5.52401E-03 7.09878E-04-1.02419E-14
 -1      1195 5.80976E-03 7.06117E-04-1.15094E-14
 -1      1196 6.09634E-03 7.01797E-04-1.28506E-14
 -1      1197 6.38401E-03 6.96895E-04-1.42689E-14
 -1      1198 6.67310E-03 6.91439E-04-1.57656E-14
 -1      1199 6.96406E-03 6.85551E-04-1.73308E-14
 -1      1200 7.25748E-03 6.79494E-04-1.89517E-14
 -1      1201 7.55399E-03 6.73733E-04-2.06366E-14
 -1      1202 7.85436E-03 6.69009E-04-2.23953E-14
 -1      1203 8.15931E-03 6.66415E-04-2.42258E-14
 -1      1204 8.46947E-03 6.67473E-04-2.61296E-14
 -1      1205 8.78517E-03 6.74156E-04-2.81104E-14
 -1      1206 9.10616E-03 6.88831E-04-3.01619E-14
 -1      1207 9.43128E-03 7.14016E-04-3.22670E-14
 -1      1208 9.75809E-03 7.51847E-04-3.44261E-14
 -1      1209 1.00827E-02 8.03166E-04-3.66570E-14
 -1      1210 1.03997E-02 8.66256E-04-3.89679E-14
 -1      1211 1.07032E-02 9.35557E-04-4.13690E-14
 -1      1212 1.09885E-02 1.00106E-03-4.38690E-14
 -1      1213 1.12538E-02 1.04936E-03-4.64439E-14
 -1      1214 1.15021E-02 1.06674E-03-4.90851E-14
 -1      1215 1.17411E-02 1.04365E-03-5.17934E-14
 -1      1216 1.19806E-02 9.78136E-04-5.45765E-14
 -1      1217 1.22292E-02 8.76353E-04-5.74328E-14
 -1      1218 1.24912E-02 7.49561E-04-6.03505E-14
 -1      1219 1.27659E-02 6.09576E-04-6.33145E-14
 -1      1220 1.30495E-02 4.65045E-04-6.63388E-14
 -1      1221 1.33370E-02 3.19963E-04-6.94051E-14
 -1      1222 1.36245E-02 1.74351E-04-7.25099E-14
 -1      1223 1.39103E-02 2.64023E-05-7.56520E-14
 -1      1224 1.41883E-02-1.20796E-04-7.87366E-14
 -1      1225 1.43985E-02-2.35253E-04-8.06109E-14
 -1      1226 1.45489E-02-3.19932E-04-8.13542E-14
 -1      1227 1.47037E-02-4.03198E-04-8.20910E-14
 -1      1228 1.48649E-02-4.81583E-04-8.28289E-14
 -1      1229 1.50321E-02-5.50134E-04-8.35695E-14
 -1      1230 1.51998E-02-6.02653E-04-8.43149E-14
 -1      1231 1.53614E-02-6.34563E-04-8.50882E-14
 -1      1232 1.55056E-02-6.43117E-04-8.58426E-14
 -1      1233 1.56164E-02-6.29727E-04-8.65659E-14
 -1      1234 1.56809E-02-6.01697E-04-8.72577E-14
 -1      1235 1.56925E-02-5.70689E-04-8.79041E-14
 -1      1236 1.56540E-02-5.49703E-04-8.85278E-14
 -1      1237 1.55756E-02-5.48656E-04-8.91467E-14
 -1      1238 1.54716E-02-5.73275E-04-8.97340E-14
 -1      1239 1.53589E-02-6.23810E-04-9.03126E-14
 -1      1240 1.52517E-02-6.95116E-04-9.08725E-14
 -1      1241 1.51579E-02-7.77485E-04-9.14171E-14
 -1      1242 1.43348E-02-3.28815E-04-6.34393E-14
 -1      1243 1.41860E-02-1.48712E-04-6.27979E-14
 -1      1244 1.39224E-02 3.33476E-05-6.18810E-14
 -1      1245 1.35584E-02 2.17083E-04-6.07137E-14
 -1      1246 1.31252E-02 3.87119E-04-5.93548E-14
 -1      1247 1.26560E-02 5.19522E-04-5.78838E-14
 -1      1248 1.21746E-02 5.99088E-04-5.63894E-14
 -1      1249 1.17195E-02 6.12509E-04-5.50172E-14
 -1      1250 1.12714E-02 5.68924E-04-5.37301E-14
 -1      1251 1.08259E-02 4.68970E-04-5.25570E-14
 -1      1252 1.04346E-02 3.37695E-04-5.16445E-14
 -1      1253 1.01240E-02 1.98007E-04-5.10227E-14
 -1      1254 9.87609E-03 4.57893E-05-5.06258E-14
 -1      1255 9.72346E-03-1.11138E-04-5.05070E-14
 -1      1256 9.68631E-03-2.70127E-04-5.06962E-14
 -1      1257 9.76935E-03-4.34964E-04-5.11767E-14
 -1      1258 9.96807E-03-6.11642E-04-5.19382E-14
 -1      1259 1.02797E-02-8.04592E-04-5.29877E-14
 -1      1260 1.06690E-02-9.95179E-04-5.42276E-14
 -1      1261 1.11002E-02-1.15952E-03-5.55779E-14
 -1      1262 1.15632E-02-1.28219E-03-5.70097E-14
 -1      1263 1.20271E-02-1.34028E-03-5.84056E-14
 -1      1264 1.24904E-02-1.32849E-03-5.97484E-14
 -1      1265 1.29393E-02-1.25536E-03-6.09807E-14
 -1      1266 1.33434E-02-1.13879E-03-6.20089E-14
 -1      1267 1.37054E-02-9.94149E-04-6.28302E-14
 -1      1268 1.40187E-02-8.28844E-04-6.34243E-14
 -1      1269 1.42418E-02-6.59788E-04-6.37394E-14
 -1      1270 1.43491E-02-4.96092E-04-6.37477E-14
 -1      1271 1.66708E-04-1.10344E-04-1.49891E-17
 -1      1272 1.12546E-04-5.69745E-05-2.55194E-17
 -1      1273 1.17628E-04-6.75831E-05-2.23617E-17
 -1      1274 1.08424E-04-4.34900E-05-3.04661E-17
 -1      1275 1.10289E-04-4.96051E-05-2.92870E-17
 -1      1276 2.26339E-04-1.07625E-04-6.90908E-17
 -1      1277 1.06842E-04-3.36122E-05-3.21873E-17
 -1      1278 1.07688E-04-3.83339E-05-3.17536E-17
 -1      1279 2.19107E-04-8.24578E-05-7.67344E-17
 -1      1280 1.06062E-04-2.53514E-05-3.28107E-17
 -1      1281 1.06493E-04-2.93843E-05-3.27700E-17
 -1      1282 2.15868E-04-6.32784E-05-7.95533E-17
 -1      1283 1.05657E-04-1.80917E-05-3.22279E-17
 -1      1284 1.05888E-04-2.16592E-05-3.24854E-17
 -1      1285 2.14206E-04-4.71879E-05-7.98921E-17
 -1      1286 1.05436E-04-1.12398E-05-3.13470E-17
 -1      1287 1.05559E-04-1.46249E-05-3.17400E-17
 -1      1288 2.13287E-04-3.27546E-05-7.83743E-17
 -1      1289 1.05336E-04-4.68954E-06-3.00460E-17
 -1      1290 1.05388E-04-7.94303E-06-3.04796E-17
 -1      1291 2.12790E-04-1.91915E-05-7.58128E-17
 -1      1292 1.05324E-04 1.74295E-06-2.82841E-17
 -1      1293 1.05322E-04-1.47069E-06-2.87991E-17
 -1      1294 2.12576E-04-6.16099E-06-7.23840E-17
 -1      1295 1.05397E-04 8.22505E-06-2.60209E-17
 -1      1296 1.05340E-04 4.96505E-06-2.66172E-17
 -1      1297 2.12584E-04 6.70868E-06-6.78575E-17
 -1      1298 1.05575E-04 1.49326E-05-2.36085E-17
 -1      1299 1.05447E-04 1.15325E-05-2.43945E-17
 -1      1300 2.12816E-04 1.97651E-05-6.24229E-17
 -1      1301 1.05910E-04 2.19516E-05-2.03017E-17
 -1      1302 1.05674E-04 1.83603E-05-2.13317E-17
 -1      1303 2.13329E-04 3.32680E-05-5.60261E-17
 -1      1304 1.06535E-04 2.98185E-05-1.61275E-17
 -1      1305 1.06095E-04 2.57415E-05-1.75912E-17
 -1      1306 2.14272E-04 4.77962E-05-4.79353E-17
 -1      1307 1.07727E-04 3.89175E-05-1.08420E-17
 -1      1308 1.06875E-04 3.41238E-05-1.28342E-17
 -1      1309 2.15979E-04 6.42094E-05-3.78793E-17
 -1      1310 1.10268E-04 5.03448E-05-3.41524E-18
 -1      1311 1.08429E-04 4.41608E-05-6.53232E-18
 -1      1312 2.19209E-04 8.37079E-05-2.48824E-17
 -1      1313 1.16943E-04 6.76186E-05 7.07442E-18
 -1      1314 1.12192E-04 5.77736E-05 2.15485E-18
 -1      1315 2.26326E-04 1.09444E-04-7.50810E-18
 -1      1316 1.57587E-04 1.09860E-04 2.19144E-17
 -1      1317 1.35669E-04 8.60909E-05 1.36067E-17
 -1      1318 2.56052E-04 1.52093E-04 1.26445E-17
 -1      1319 3.35102E-04 2.20740E-04 3.86925E-17
 -1      1320 4.21562E-04-2.61742E-04-6.74509E-17
 -1      1321 5.74668E-04-3.36803E-04-1.20157E-16
 -1      1322 7.21866E-04-3.97408E-04-1.98870E-16
 -1      1323 8.65044E-04-4.46708E-04-3.00771E-16
 -1      1324 6.12104E-04-3.30896E-04-1.77972E-16
 -1      1325 1.00508E-03-4.87787E-04-4.24357E-16
 -1      1326 1.14293E-03-5.21783E-04-5.69979E-16
 -1      1327 9.05356E-04-4.31603E-04-3.84011E-16
 -1      1328 1.27944E-03-5.50566E-04-7.37081E-16
 -1      1329 1.41509E-03-5.74612E-04-9.26071E-16
 -1      1330 1.18780E-03-5.01040E-04-6.76339E-16
 -1      1331 1.55035E-03-5.94988E-04-1.13544E-15
 -1      1332 1.68545E-03-6.12027E-04-1.36538E-15
 -1      1333 1.46475E-03-5.49832E-04-1.05277E-15
 -1      1334 1.82065E-03-6.26358E-04-1.61622E-15
 -1      1335 1.95604E-03-6.38273E-04-1.88737E-15
 -1      1336 1.73945E-03-5.84160E-04-1.51131E-15
 -1      1337 2.09177E-03-6.48175E-04-2.17934E-15
 -1      1338 2.22786E-03-6.56312E-04-2.49261E-15
 -1      1339 2.01378E-03-6.08006E-04-2.05143E-15
 -1      1340 2.36437E-03-6.62962E-04-2.82578E-15
 -1      1341 2.50131E-03-6.68327E-04-3.17862E-15
 -1      1342 2.28871E-03-6.24184E-04-2.67259E-15
 -1      1343 2.63871E-03-6.72603E-04-3.55174E-15
 -1      1344 2.77653E-03-6.75954E-04-3.94361E-15
 -1      1345 2.56471E-03-6.34765E-04-3.37341E-15
 -1      1346 2.91479E-03-6.78519E-04-4.35349E-15
 -1      1347 3.05346E-03-6.80425E-04-4.78168E-15
 -1      1348 2.84199E-03-6.41301E-04-4.15031E-15
 -1      1349 3.19252E-03-6.81772E-04-5.22781E-15
 -1      1350 3.33195E-03-6.82656E-04-5.69191E-15
 -1      1351 3.12055E-03-6.44950E-04-4.99989E-15
 -1      1352 3.47172E-03-6.83146E-04-6.17354E-15
 -1      1353 3.61181E-03-6.83316E-04-6.67358E-15
 -1      1354 3.40032E-03-6.46566E-04-5.92026E-15
 -1      1355 3.75219E-03-6.83208E-04-7.19234E-15
 -1      1356 3.89284E-03-6.82877E-04-7.72853E-15
 -1      1357 3.68118E-03-6.46769E-04-6.91347E-15
 -1      1358 4.03374E-03-6.82349E-04-8.28253E-15
 -1      1359 4.17486E-03-6.81660E-04-8.85438E-15
 -1      1360 3.96300E-03-6.45989E-04-7.97840E-15
 -1      1361 4.31619E-03-6.80824E-04-9.44396E-15
 -1      1362 4.45770E-03-6.79866E-04-1.00518E-14
 -1      1363 4.24563E-03-6.44510E-04-9.11479E-15
 -1      1364 4.59939E-03-6.78785E-04-1.06773E-14
 -1      1365 4.74125E-03-6.77598E-04-1.13216E-14
 -1      1366 4.52897E-03-6.42503E-04-1.03234E-14
 -1      1367 4.88326E-03-6.76298E-04-1.19840E-14
 -1      1368 5.02542E-03-6.74891E-04-1.26635E-14
 -1      1369 4.81293E-03-6.40049E-04-1.16047E-14
 -1      1370 5.16772E-03-6.73365E-04-1.33626E-14
 -1      1371 5.31017E-03-6.71722E-04-1.40807E-14
 -1      1372 5.09746E-03-6.37159E-04-1.29584E-14
 -1      1373 5.45278E-03-6.69943E-04-1.48159E-14
 -1      1374 5.59555E-03-6.68027E-04-1.55688E-14
 -1      1375 5.38256E-03-6.33792E-04-1.43845E-14
 -1      1376 5.73850E-03-6.65953E-04-1.63411E-14
 -1      1377 5.88165E-03-6.63719E-04-1.71317E-14
 -1      1378 5.66828E-03-6.29869E-04-1.58840E-14
 -1      1379 6.02502E-03-6.61300E-04-1.79399E-14
 -1      1380 6.16865E-03-6.58699E-04-1.87648E-14
 -1      1381 5.95474E-03-6.25289E-04-1.74561E-14
 -1      1382 6.31258E-03-6.55887E-04-1.96093E-14
 -1      1383 6.45684E-03-6.52877E-04-2.04713E-14
 -1      1384 6.24212E-03-6.19943E-04-1.91021E-14
 -1      1385 6.60150E-03-6.49640E-04-2.13534E-14
 -1      1386 6.74663E-03-6.46200E-04-2.22551E-14
 -1      1387 6.53071E-03-6.13732E-04-2.08216E-14
 -1      1388 6.89228E-03-6.42532E-04-2.31751E-14
 -1      1389 7.03855E-03-6.38683E-04-2.41140E-14
 -1      1390 6.82090E-03-6.06600E-04-2.26174E-14
 -1      1391 7.18555E-03-6.34635E-04-2.50706E-14
 -1      1392 7.33336E-03-6.30467E-04-2.60445E-14
 -1      1393 7.11321E-03-5.98570E-04-2.44861E-14
 -1      1394 7.48213E-03-6.26179E-04-2.70338E-14
 -1      1395 7.63199E-03-6.21893E-04-2.80380E-14
 -1      1396 7.40831E-03-5.89799E-04-2.64239E-14
 -1      1397 7.78310E-03-6.17646E-04-2.90605E-14
 -1      1398 7.93562E-03-6.13621E-04-3.01001E-14
 -1      1399 7.70706E-03-5.80669E-04-2.84282E-14
 -1      1400 8.08974E-03-6.09914E-04-3.11580E-14
 -1      1401 8.24567E-03-6.06793E-04-3.22347E-14
 -1      1402 8.01048E-03-5.71912E-04-3.05007E-14
 -1      1403 8.40363E-03-6.04453E-04-3.33263E-14
 -1      1404 8.56382E-03-6.03279E-04-3.44331E-14
 -1      1405 8.31980E-03-5.64798E-04-3.26419E-14
 -1      1406 8.72648E-03-6.03620E-04-3.55569E-14
 -1      1407 8.89182E-03-6.06010E-04-3.66960E-14
 -1      1408 8.63639E-03-5.61403E-04-3.48507E-14
 -1      1409 9.06005E-03-6.11031E-04-3.78499E-14
 -1      1410 9.23132E-03-6.19392E-04-3.90172E-14
 -1      1411 8.96165E-03-5.64979E-04-3.71197E-14
 -1      1412 9.40575E-03-6.31992E-04-4.01968E-14
 -1      1413 9.58333E-03-6.49717E-04-4.13891E-14
 -1      1414 9.29681E-03-5.80394E-04-3.94456E-14
 -1      1415 9.76398E-03-6.73815E-04-4.25962E-14
 -1      1416 9.94741E-03-7.05271E-04-4.38162E-14
 -1      1417 9.64257E-03-6.14538E-04-4.18251E-14
 -1      1418 1.01332E-02-7.45552E-04-4.50498E-14
 -1      1419 1.03206E-02-7.95480E-04-4.62957E-14
 -1      1420 9.99849E-03-6.76321E-04-4.42568E-14
 -1      1421 1.05087E-02-8.56243E-04-4.75551E-14
 -1      1422 1.06962E-02-9.27936E-04-4.88273E-14
 -1      1423 1.03623E-02-7.75478E-04-4.67413E-14
 -1      1424 1.08817E-02-1.01046E-03-5.01132E-14
 -1      1425 1.10635E-02-1.10218E-03-5.14137E-14
 -1      1426 1.07290E-02-9.18941E-04-4.92795E-14
 -1      1427 1.12400E-02-1.20049E-03-5.27270E-14
 -1      1428 1.14097E-02-1.30126E-03-5.40568E-14
 -1      1429 1.10906E-02-1.10368E-03-5.18732E-14
 -1      1430 1.15717E-02-1.39890E-03-5.53984E-14
 -1      1431 1.17257E-02-1.48730E-03-5.67543E-14
 -1      1432 1.14370E-02-1.30777E-03-5.45248E-14
 -1      1433 1.18723E-02-1.55987E-03-5.81318E-14
 -1      1434 1.20132E-02-1.61126E-03-5.95302E-14
 -1      1435 1.17614E-02-1.48773E-03-5.72412E-14
 -1      1436 1.21506E-02-1.63770E-03-6.09472E-14
 -1      1437 1.22877E-02-1.63808E-03-6.23871E-14
 -1      1438 1.20660E-02-1.59251E-03-6.00312E-14
 -1      1439 1.24267E-02-1.61410E-03-6.38475E-14
 -1      1440 1.25703E-02-1.56954E-03-6.53265E-14
 -1      1441 1.23644E-02-1.59291E-03-6.29049E-14
 -1      1442 1.27195E-02-1.51021E-03-6.68252E-14
 -1      1443 1.28748E-02-1.44197E-03-6.83429E-14
 -1      1444 1.26721E-02-1.50173E-03-6.58611E-14
 -1      1445 1.30357E-02-1.37078E-03-6.98797E-14
 -1      1446 1.32009E-02-1.30124E-03-7.14319E-14
 -1      1447 1.29959E-02-1.36318E-03-6.88908E-14
 -1      1448 1.33691E-02-1.23670E-03-7.29972E-14
 -1      1449 1.35384E-02-1.17908E-03-7.45771E-14
 -1      1450 1.33314E-02-1.22320E-03-7.19871E-14
 -1      1451 1.37075E-02-1.12877E-03-7.61668E-14
 -1      1452 1.38748E-02-1.08559E-03-7.77645E-14
 -1      1453 1.36692E-02-1.10832E-03-7.51376E-14
 -1      1454 1.40395E-02-1.04798E-03-7.93721E-14
 -1      1455 1.42007E-02-1.01464E-03-8.09863E-14
 -1      1456 1.40005E-02-1.02313E-03-7.83308E-14
 -1      1457 1.43581E-02-9.83282E-04-8.26082E-14
 -1      1458 1.45117E-02-9.52209E-04-8.42306E-14
 -1      1459 1.43202E-02-9.58054E-04-8.15564E-14
 -1      1460 1.46616E-02-9.19340E-04-8.58599E-14
 -1      1461 1.48085E-02-8.83204E-04-8.74947E-14
 -1      1462 1.46265E-02-8.97657E-04-8.48033E-14
 -1      1463 1.50220E-02-8.19739E-04-8.98479E-14
 -1      1464 1.49903E-02-8.04738E-04-8.87858E-14
 -1      1465 6.43115E-04 3.72020E-04 4.71357E-17
 -1      1466 4.92979E-04 3.03695E-04 4.88704E-17
 -1      1467 4.44907E-04 2.65896E-04 2.96665E-17
 -1      1468 9.28720E-04 4.71992E-04 4.10642E-18
 -1      1469 7.87847E-04 4.26497E-04 3.23499E-17
 -1      1470 7.44785E-04 3.90724E-04 4.89246E-18
 -1      1471 1.20363E-03 5.41426E-04-9.48406E-17
 -1      1472 1.06696E-03 5.09739E-04-3.78251E-17
 -1      1473 1.03085E-03 4.76174E-04-7.32108E-17
 -1      1474 1.47420E-03 5.90641E-04-2.55479E-16
 -1      1475 1.33914E-03 5.68172E-04-1.67292E-16
 -1      1476 1.30878E-03 5.36014E-04-2.09400E-16
 -1      1477 1.74375E-03 6.25559E-04-4.79136E-16
 -1      1478 1.60893E-03 6.09646E-04-3.59061E-16
 -1      1479 1.58302E-03 5.78322E-04-4.07619E-16
 -1      1480 2.01397E-03 6.50048E-04-7.67263E-16
 -1      1481 1.87869E-03 6.38935E-04-6.15000E-16
 -1      1482 1.85620E-03 6.08074E-04-6.69549E-16
 -1      1483 2.28566E-03 6.66856E-04-1.11926E-15
 -1      1484 2.14959E-03 6.59281E-04-9.35314E-16
 -1      1485 2.12973E-03 6.28655E-04-9.96138E-16
 -1      1486 2.55915E-03 6.78022E-04-1.53836E-15
 -1      1487 2.42217E-03 6.73043E-04-1.32021E-15
 -1      1488 2.40430E-03 6.42512E-04-1.38819E-15
 -1      1489 2.83448E-03 6.85084E-04-2.02689E-15
 -1      1490 2.69659E-03 6.81989E-04-1.77380E-15
 -1      1491 2.68022E-03 6.51469E-04-1.84808E-15
 -1      1492 3.11156E-03 6.89199E-04-2.58722E-15
 -1      1493 2.97281E-03 6.87452E-04-2.29832E-15
 -1      1494 2.95756E-03 6.56895E-04-2.37783E-15
 -1      1495 3.39020E-03 6.91226E-04-3.21696E-15
 -1      1496 3.25070E-03 6.90431E-04-2.89287E-15
 -1      1497 3.23628E-03 6.59813E-04-2.97775E-15
 -1      1498 3.67022E-03 6.91788E-04-3.91989E-15
 -1      1499 3.53006E-03 6.91660E-04-3.55903E-15
 -1      1500 3.51625E-03 6.60970E-04-3.64877E-15
 -1      1501 3.95140E-03 6.91326E-04-4.69853E-15
 -1      1502 3.81068E-03 6.91664E-04-4.29986E-15
 -1      1503 3.79732E-03 6.60904E-04-4.39431E-15
 -1      1504 4.23356E-03 6.90135E-04-5.55603E-15
 -1      1505 4.09237E-03 6.90808E-04-5.11689E-15
 -1      1506 4.07934E-03 6.59982E-04-5.21539E-15
 -1      1507 4.51653E-03 6.88396E-04-6.49300E-15
 -1      1508 4.37495E-03 6.89326E-04-6.01480E-15
 -1      1509 4.36217E-03 6.58441E-04-6.11570E-15
 -1      1510 4.80019E-03 6.86204E-04-7.50562E-15
 -1      1511 4.65828E-03 6.87353E-04-6.99034E-15
 -1      1512 4.64569E-03 6.56416E-04-7.09334E-15
 -1      1513 5.08448E-03 6.83588E-04-8.58970E-15
 -1      1514 4.94226E-03 6.84948E-04-8.03871E-15
 -1      1515 4.92983E-03 6.53967E-04-8.14478E-15
 -1      1516 5.36937E-03 6.80529E-04-9.75054E-15
 -1      1517 5.22685E-03 6.82114E-04-9.16070E-15
 -1      1518 5.21455E-03 6.51091E-04-9.27002E-15
 -1      1519 5.65489E-03 6.76980E-04-1.09832E-14
 -1      1520 5.51205E-03 6.78817E-04-1.03570E-14
 -1      1521 5.49987E-03 6.47750E-04-1.04686E-14
 -1      1522 5.94117E-03 6.72882E-04-1.22912E-14
 -1      1523 5.79793E-03 6.74999E-04-1.16279E-14
 -1      1524 5.78584E-03 6.43882E-04-1.17421E-14
 -1      1525 6.22837E-03 6.68186E-04-1.36751E-14
 -1      1526 6.08464E-03 6.70605E-04-1.29737E-14
 -1      1527 6.07262E-03 6.39420E-04-1.30925E-14
 -1      1528 6.51677E-03 6.62876E-04-1.51339E-14
 -1      1529 6.37240E-03 6.65598E-04-1.43952E-14
 -1      1530 6.36038E-03 6.34320E-04-1.45176E-14
 -1      1531 6.80672E-03 6.57009E-04-1.66656E-14
 -1      1532 6.66153E-03 6.59995E-04-1.58909E-14
 -1      1533 6.64942E-03 6.28585E-04-1.60143E-14
 -1      1534 7.09868E-03 6.50751E-04-1.82630E-14
 -1      1535 6.95242E-03 6.53900E-04-1.74561E-14
 -1      1536 6.94010E-03 6.22304E-04-1.75794E-14
 -1      1537 7.39319E-03 6.44438E-04-1.99183E-14
 -1      1538 7.24558E-03 6.47557E-04-1.90823E-14
 -1      1539 7.23285E-03 6.15704E-04-1.92094E-14
 -1      1540 7.69086E-03 6.38643E-04-2.16451E-14
 -1      1541 7.54159E-03 6.41413E-04-2.07735E-14
 -1      1542 7.52818E-03 6.09213E-04-2.09059E-14
 -1      1543 7.99232E-03 6.34255E-04-2.34437E-14
 -1      1544 7.84107E-03 6.36187E-04-2.25349E-14
 -1      1545 7.82663E-03 6.03532E-04-2.26726E-14
 -1      1546 8.29817E-03 6.32564E-04-2.53118E-14
 -1      1547 8.14466E-03 6.32963E-04-2.43686E-14
 -1      1548 8.12874E-03 5.99728E-04-2.45079E-14
 -1      1549 8.60879E-03 6.35323E-04-2.72568E-14
 -1      1550 8.45286E-03 6.33257E-04-2.62751E-14
 -1      1551 8.43494E-03 5.99311E-04-2.64163E-14
 -1      1552 8.92421E-03 6.44751E-04-2.92722E-14
 -1      1553 8.76591E-03 6.39062E-04-2.82553E-14
 -1      1554 8.74545E-03 6.04286E-04-2.83973E-14
 -1      1555 9.24381E-03 6.63415E-04-3.13516E-14
 -1      1556 9.08354E-03 6.52801E-04-3.03045E-14
 -1      1557 9.06007E-03 6.17114E-04-3.04463E-14
 -1      1558 9.56610E-03 6.93873E-04-3.34877E-14
 -1      1559 9.40474E-03 6.77096E-04-3.24127E-14
 -1      1560 9.37800E-03 6.40508E-04-3.25554E-14
 -1      1561 9.88844E-03 7.37968E-04-3.56862E-14
 -1      1562 9.72746E-03 7.14257E-04-3.45785E-14
 -1      1563 9.69762E-03 6.76927E-04-3.47260E-14
 -1      1564 1.02071E-02 7.95714E-04-3.79588E-14
 -1      1565 1.00485E-02 7.65365E-04-3.68127E-14
 -1      1566 1.00164E-02 7.27672E-04-3.69643E-14
 -1      1567 1.05174E-02 8.63889E-04-4.03148E-14
 -1      1568 1.03636E-02 8.28979E-04-3.91275E-14
 -1      1569 1.03308E-02 7.91568E-04-3.92798E-14
 -1      1570 1.08150E-02 9.34848E-04-4.27607E-14
 -1      1571 1.06680E-02 8.99755E-04-4.15255E-14
 -1      1572 1.06371E-02 8.63511E-04-4.16791E-14
 -1      1573 1.10971E-02 9.96473E-04-4.52961E-14
 -1      1574 1.09581E-02 9.67713E-04-4.40177E-14
 -1      1575 1.09320E-02 9.33591E-04-4.41651E-14
 -1      1576 1.13640E-02 1.03419E-03-4.78995E-14
 -1      1577 1.12323E-02 1.01913E-03-4.65894E-14
 -1      1578 1.12142E-02 9.87857E-04-4.67302E-14
 -1      1579 1.16198E-02 1.03507E-03-5.05753E-14
 -1      1580 1.14929E-02 1.03970E-03-4.92300E-14
 -1      1581 1.14850E-02 1.01145E-03-4.93709E-14
 -1      1582 1.18714E-02 9.92434E-04-5.33207E-14
 -1      1583 1.17456E-02 1.01913E-03-5.19387E-14
 -1      1584 1.17490E-02 9.93384E-04-5.20817E-14
 -1      1585 1.21262E-02 9.08325E-04-5.61386E-14
 -1      1586 1.19979E-02 9.55018E-04-5.47206E-14
 -1      1587 1.20122E-02 9.30767E-04-5.48623E-14
 -1      1588 1.23896E-02 7.92196E-04-5.90248E-14
 -1      1589 1.22566E-02 8.53465E-04-5.75727E-14
 -1      1590 1.22800E-02 8.29652E-04-5.77125E-14
 -1      1591 1.26631E-02 6.56700E-04-6.19665E-14
 -1      1592 1.25251E-02 7.26126E-04-6.04900E-14
 -1      1593 1.25554E-02 7.02015E-04-6.06258E-14
 -1      1594 1.29452E-02 5.12925E-04-6.49590E-14
 -1      1595 1.28033E-02 5.85360E-04-6.34569E-14
 -1      1596 1.28382E-02 5.60703E-04-6.35948E-14
 -1      1597 1.32323E-02 3.67567E-04-6.80059E-14
 -1      1598 1.30884E-02 4.40264E-04-6.64761E-14
 -1      1599 1.31262E-02 4.15214E-04-6.66145E-14
 -1      1600 1.35209E-02 2.22500E-04-7.10906E-14
 -1      1601 1.33766E-02 2.95041E-04-6.95423E-14
 -1      1602 1.34162E-02 2.69950E-04-6.96778E-14
 -1      1603 1.38085E-02 7.63135E-05-7.42138E-14
 -1      1604 1.36649E-02 1.49668E-04-7.26480E-14
 -1      1605 1.37058E-02 1.24871E-04-7.27837E-14
 -1      1606 1.40947E-02-7.30137E-05-7.73637E-14
 -1      1607 1.39518E-02 2.08850E-06-7.57857E-14
 -1      1608 1.39936E-02-2.22774E-05-7.59206E-14
 -1      1609 1.42628E-02-1.62909E-04-7.91086E-14
 -1      1610 1.44634E-02-2.73826E-04-8.01692E-14
 -1      1611 1.43873E-02-2.32292E-04-7.97991E-14
 -1      1612 1.46201E-02-3.54613E-04-8.09099E-14
 -1      1613 1.45409E-02-3.14713E-04-8.05404E-14
 -1      1614 1.43784E-02-2.28135E-04-7.89877E-14
 -1      1615 1.47840E-02-4.29702E-04-8.16504E-14
 -1      1616 1.47012E-02-3.93105E-04-8.12794E-14
 -1      1617 1.45374E-02-3.07711E-04-7.97286E-14
 -1      1618 1.49539E-02-4.95038E-04-8.23899E-14
 -1      1619 1.48684E-02-4.63870E-04-8.20228E-14
 -1      1620 1.47039E-02-3.81673E-04-8.04690E-14
 -1      1621 1.51221E-02-5.45455E-04-8.31319E-14
 -1      1622 1.50383E-02-5.22208E-04-8.27567E-14
 -1      1623 1.48749E-02-4.46163E-04-8.12041E-14
 -1      1624 1.52846E-02-5.79198E-04-8.38872E-14
 -1      1625 1.52051E-02-5.64682E-04-8.35102E-14
 -1      1626 1.50456E-02-4.98394E-04-8.19424E-14
 -1      1627 1.54248E-02-5.94160E-04-8.46207E-14
 -1      1628 1.53584E-02-5.88961E-04-8.42564E-14
 -1      1629 1.52066E-02-5.36089E-04-8.26771E-14
 -1      1630 1.55273E-02-5.93039E-04-8.53280E-14
 -1      1631 1.54816E-02-5.95279E-04-8.49786E-14
 -1      1632 1.53412E-02-5.58412E-04-8.33960E-14
 -1      1633 1.55797E-02-5.82617E-04-8.60045E-14
 -1      1634 1.55602E-02-5.88439E-04-8.56717E-14
 -1      1635 1.54338E-02-5.68364E-04-8.40904E-14
 -1      1636 1.55772E-02-5.72444E-04-8.66433E-14
 -1      1637 1.55853E-02-5.76866E-04-8.63279E-14
 -1      1638 1.54730E-02-5.72291E-04-8.47517E-14
 -1      1639 1.55257E-02-5.72133E-04-8.72620E-14
 -1      1640 1.55569E-02-5.70572E-04-8.69534E-14
 -1      1641 1.54564E-02-5.78372E-04-8.53833E-14
 -1      1642 1.54358E-02-5.88884E-04-8.78709E-14
 -1      1643 1.54845E-02-5.78054E-04-8.75720E-14
 -1      1644 1.53916E-02-5.94239E-04-8.59983E-14
 -1      1645 1.53248E-02-6.26139E-04-8.84535E-14
 -1      1646 1.53819E-02-6.04903E-04-8.81648E-14
 -1      1647 1.52920E-02-6.25293E-04-8.65973E-14
 -1      1648 1.52094E-02-6.83033E-04-8.90270E-14
 -1      1649 1.52667E-02-6.52333E-04-8.87414E-14
 -1      1650 1.51757E-02-6.73164E-04-8.71744E-14
 -1      1651 1.50715E-02-7.60726E-04-8.90453E-14
 -1      1652 1.51238E-02-7.23382E-04-8.87696E-14
 -1      1653 1.50289E-02-7.40632E-04-8.72047E-14
 -1      1654 1.48574E-02-8.21496E-04-8.66925E-14
 -1      1655 1.43250E-02-3.38020E-04-6.39847E-14
 -1      1656 1.43685E-02-3.89227E-04-6.42147E-14
 -1      1657 1.41037E-02-2.05665E-04-6.32515E-14
 -1      1658 1.42265E-02-2.73601E-04-6.36716E-14
 -1      1659 1.37814E-02-2.36716E-05-6.21024E-14
 -1      1660 1.39387E-02-1.03125E-04-6.25958E-14
 -1      1661 1.33371E-02 1.79115E-04-6.07818E-14
 -1      1662 1.35490E-02 7.31047E-05-6.14702E-14
 -1      1663 1.29146E-02 3.95433E-04-5.92314E-14
 -1      1664 1.31092E-02 3.06303E-04-5.99046E-14
 -1      1665 1.24522E-02 5.69599E-04-5.75647E-14
 -1      1666 1.26626E-02 4.93773E-04-5.83663E-14
 -1      1667 1.20483E-02 6.53325E-04-5.59855E-14
 -1      1668 1.22303E-02 6.25963E-04-5.66745E-14
 -1      1669 1.16531E-02 6.51700E-04-5.44876E-14
 -1      1670 1.18337E-02 6.65596E-04-5.51614E-14
 -1      1671 1.12494E-02 5.61957E-04-5.31653E-14
 -1      1672 1.14331E-02 6.11109E-04-5.37651E-14
 -1      1673 1.08349E-02 4.00220E-04-5.18601E-14
 -1      1674 1.10354E-02 4.83081E-04-5.24122E-14
 -1      1675 1.04412E-02 2.39060E-04-5.10493E-14
 -1      1676 1.06047E-02 3.13437E-04-5.14057E-14
 -1      1677 1.01117E-02 8.35712E-05-5.04422E-14
 -1      1678 1.02587E-02 1.54297E-04-5.06949E-14
 -1      1679 9.84367E-03-5.67161E-05-5.00864E-14
 -1      1680 9.95734E-03 5.93471E-06-5.02164E-14
 -1      1681 9.69093E-03-1.76056E-04-5.00055E-14
 -1      1682 9.74540E-03-1.25612E-04-4.99863E-14
 -1      1683 9.67970E-03-2.84889E-04-5.03241E-14
 -1      1684 9.66654E-03-2.33800E-04-5.01525E-14
 -1      1685 9.81228E-03-4.07402E-04-5.09034E-14
 -1      1686 9.73405E-03-3.48290E-04-5.06012E-14
 -1      1687 1.00772E-02-5.66620E-04-5.17914E-14
 -1      1688 9.93874E-03-4.87573E-04-5.13424E-14
 -1      1689 1.04677E-02-7.58066E-04-5.29119E-14
 -1      1690 1.02813E-02-6.57327E-04-5.23297E-14
 -1      1691 1.08729E-02-9.93017E-04-5.43336E-14
 -1      1692 1.06784E-02-8.91320E-04-5.36954E-14
 -1      1693 1.13106E-02-1.19458E-03-5.57929E-14
 -1      1694 1.11158E-02-1.10351E-03-5.50987E-14
 -1      1695 1.17250E-02-1.34059E-03-5.73630E-14
 -1      1696 1.15301E-02-1.28294E-03-5.66409E-14
 -1      1697 1.21240E-02-1.39190E-03-5.88494E-14
 -1      1698 1.19438E-02-1.38057E-03-5.81806E-14
 -1      1699 1.25283E-02-1.34702E-03-6.03418E-14
 -1      1700 1.23390E-02-1.38231E-03-5.96706E-14
 -1      1701 1.29396E-02-1.22021E-03-6.15959E-14
 -1      1702 1.27561E-02-1.28514E-03-6.10331E-14
 -1      1703 1.33305E-02-1.05466E-03-6.26694E-14
 -1      1704 1.31516E-02-1.13452E-03-6.22023E-14
 -1      1705 1.37044E-02-8.77448E-04-6.35136E-14
 -1      1706 1.35350E-02-9.59555E-04-6.31554E-14
 -1      1707 1.40394E-02-6.96754E-04-6.41888E-14
 -1      1708 1.38879E-02-7.74035E-04-6.39484E-14
 -1      1709 1.42758E-02-5.62667E-04-6.44243E-14
 -1      1710 1.41845E-02-6.21036E-04-6.43398E-14
 -1      1711 1.43762E-02-4.48549E-04-6.43551E-14
 -1      1712 1.43476E-02-4.99073E-04-6.44295E-14
 -1      1713 1.31579E-02 1.96321E-04-6.06743E-14
 -1      1714 1.36019E-02-3.49109E-05-6.22024E-14
 -1      1715 1.43051E-02-1.87093E-04-7.92408E-14
 -1      1716 1.42188E-02-1.42251E-04-7.80548E-14
 -1      1717 1.42751E-02-3.44838E-04-6.44789E-14
 -1      1718 1.40006E-02-2.21664E-04-6.35007E-14
 -1      1719 1.43838E-02-4.22964E-04-6.49350E-14
 -1      1720 1.27102E-02 4.36308E-04-5.89205E-14
 -1      1721 1.23066E-02 6.12652E-04-5.71556E-14
 -1      1722 1.19298E-02 6.86956E-04-5.54402E-14
 -1      1723 1.15750E-02 6.51454E-04-5.38982E-14
 -1      1724 1.11892E-02 5.18603E-04-5.24297E-14
 -1      1725 1.07910E-02 3.29980E-04-5.12331E-14
 -1      1726 1.03966E-02 1.48288E-04-5.04321E-14
 -1      1727 1.00585E-02-7.03920E-06-4.98607E-14
 -1      1728 9.79769E-03-1.28219E-04-4.95418E-14
 -1      1729 9.66892E-03-2.11962E-04-4.95934E-14
 -1      1730 9.70034E-03-2.90858E-04-5.00167E-14
 -1      1731 9.88907E-03-3.96893E-04-5.07266E-14
 -1      1732 1.02232E-02-5.50799E-04-5.16939E-14
 -1      1733 1.06343E-02-7.70905E-04-5.30020E-14
 -1      1734 1.10687E-02-1.02422E-03-5.45420E-14
 -1      1735 1.14764E-02-1.24464E-03-5.61467E-14
 -1      1736 1.18565E-02-1.38493E-03-5.78096E-14
 -1      1737 1.22231E-02-1.41395E-03-5.94502E-14
 -1      1738 1.25892E-02-1.32688E-03-6.09705E-14
 -1      1739 1.29814E-02-1.16120E-03-6.22770E-14
 -1      1740 1.33722E-02-9.65581E-04-6.33782E-14
 -1      1741 1.37563E-02-7.67378E-04-6.43086E-14
 -1      1742 1.40917E-02-6.08050E-04-6.49049E-14
 -1      1743 1.43157E-02-5.01484E-04-6.50668E-14
 -1      1744 2.85255E-04-1.76231E-04-5.42779E-17
 -1      1745 3.32174E-04-1.16770E-04-1.19005E-16
 -1      1746 3.36328E-04-1.33016E-04-1.15942E-16
 -1      1747 3.42222E-04-1.52004E-04-1.11226E-16
 -1      1748 3.51778E-04-1.74007E-04-1.03216E-16
 -1      1749 4.58342E-04-1.88084E-04-1.68824E-16
 -1      1750 3.24551E-04-6.53777E-05-1.21322E-16
 -1      1751 3.25698E-04-7.66667E-05-1.22108E-16
 -1      1752 3.23064E-04-4.38858E-05-1.18679E-16
 -1      1753 3.23716E-04-5.43742E-05-1.20265E-16
 -1      1754 4.36493E-04-7.92900E-05-1.77470E-16
 -1      1755 3.22281E-04-2.37693E-05-1.14099E-16
 -1      1756 3.22612E-04-3.36818E-05-1.16416E-16
 -1      1757 4.34502E-04-5.13144E-05-1.72619E-16
 -1      1758 3.21988E-04-4.33693E-06-1.08664E-16
 -1      1759 3.22085E-04-1.39882E-05-1.11646E-16
 -1      1760 4.33483E-04-2.49218E-05-1.65951E-16
 -1      1761 3.22110E-04 1.49787E-05-1.01752E-16
 -1      1762 3.21996E-04 5.31746E-06-1.05642E-16
 -1      1763 4.33186E-04 7.56933E-07-1.57819E-16
 -1      1764 3.22676E-04 3.47253E-05-9.33363E-17
 -1      1765 3.22325E-04 2.47806E-05-9.77137E-17
 -1      1766 4.33542E-04 2.64642E-05-1.47438E-16
 -1      1767 3.23804E-04 5.51602E-05-8.31312E-17
 -1      1768 3.23141E-04 4.47988E-05-8.87013E-17
 -1      1769 4.34617E-04 5.27167E-05-1.34902E-16
 -1      1770 3.25861E-04 7.78090E-05-7.05409E-17
 -1      1771 3.24663E-04 6.62292E-05-7.73849E-17
 -1      1772 4.36671E-04 8.05934E-05-1.19899E-16
 -1      1773 3.29551E-04 1.03645E-04-5.48200E-17
 -1      1774 3.27402E-04 9.02957E-05-6.34123E-17
 -1      1775 4.40320E-04 1.11560E-04-1.01414E-16
 -1      1776 3.36587E-04 1.35103E-04-3.38813E-17
 -1      1777 3.32404E-04 1.18604E-04-4.52383E-17
 -1      1778 4.46791E-04 1.47327E-04-7.80355E-17
 -1      1779 3.52315E-04 1.77598E-04-6.51877E-18
 -1      1780 3.42819E-04 1.54751E-04-2.15079E-17
 -1      1781 4.59328E-04 1.91449E-04-4.77320E-17
 -1      1782 4.07719E-04 2.33682E-04 1.62495E-17
 -1      1783 3.78106E-04 2.02657E-04 2.60209E-18
 -1      1784 4.95875E-04 2.43989E-04-1.91497E-17
 -1      1785 5.58574E-04 3.02501E-04 7.34547E-18
 -1      1786 3.40039E-04-1.90907E-04-8.24807E-17
 -1      1787 8.53612E-04 4.07116E-04-4.92634E-17
 -1      1788 7.07199E-04 3.59374E-04-1.42030E-17
 -1      1789 6.73431E-04 3.28805E-04-3.12928E-17
 -1      1790 4.58975E-04-2.36713E-04-1.36257E-16
 -1      1791 8.07269E-04-3.74110E-04-3.43042E-16
 -1      1792 9.52545E-04-4.15297E-04-4.68958E-16
 -1      1793 1.09539E-03-4.49990E-04-6.15786E-16
 -1      1794 1.23707E-03-4.78891E-04-7.83214E-16
 -1      1795 1.00397E-03-3.97914E-04-5.55735E-16
 -1      1796 1.37748E-03-5.03381E-04-9.71079E-16
 -1      1797 1.51718E-03-5.23758E-04-1.17946E-15
 -1      1798 1.28967E-03-4.55889E-04-8.90984E-16
 -1      1799 1.65635E-03-5.40943E-04-1.40797E-15
 -1      1800 1.79520E-03-5.55174E-04-1.65653E-15
 -1      1801 1.57209E-03-4.96845E-04-1.30611E-15
 -1      1802 1.93393E-03-5.67060E-04-1.92514E-15
 -1      1803 2.07259E-03-5.76803E-04-2.21363E-15
 -1      1804 1.85272E-03-5.25402E-04-1.80101E-15
 -1      1805 2.21134E-03-5.84822E-04-2.52233E-15
 -1      1806 2.35019E-03-5.91287E-04-2.85064E-15
 -1      1807 2.13263E-03-5.44898E-04-2.37477E-15
 -1      1808 2.48923E-03-5.96494E-04-3.19815E-15
 -1      1809 2.62845E-03-6.00582E-04-3.56491E-15
 -1      1810 2.41250E-03-5.57785E-04-3.02636E-15
 -1      1811 2.76792E-03-6.03765E-04-3.95044E-15
 -1      1812 2.90759E-03-6.06152E-04-4.35399E-15
 -1      1813 2.69273E-03-5.65893E-04-3.75352E-15
 -1      1814 3.04752E-03-6.07896E-04-4.77538E-15
 -1      1815 3.18766E-03-6.09082E-04-5.21427E-15
 -1      1816 2.97353E-03-5.70587E-04-4.55441E-15
 -1      1817 3.32806E-03-6.09819E-04-5.67160E-15
 -1      1818 3.46865E-03-6.10170E-04-6.14630E-15
 -1      1819 3.25498E-03-5.72879E-04-5.42611E-15
 -1      1820 3.60948E-03-6.10209E-04-6.63902E-15
 -1      1821 3.75048E-03-6.09984E-04-7.15027E-15
 -1      1822 3.53709E-03-5.73505E-04-6.36917E-15
 -1      1823 3.89169E-03-6.09541E-04-7.67848E-15
 -1      1824 4.03307E-03-6.08915E-04-8.22506E-15
 -1      1825 3.81983E-03-5.72986E-04-7.38260E-15
 -1      1826 4.17462E-03-6.08131E-04-8.78994E-15
 -1      1827 4.31632E-03-6.07213E-04-9.37259E-15
 -1      1828 4.10314E-03-5.71672E-04-8.46849E-15
 -1      1829 4.45817E-03-6.06173E-04-9.97356E-15
 -1      1830 4.60015E-03-6.05023E-04-1.05923E-14
 -1      1831 4.38697E-03-5.69783E-04-9.62735E-15
 -1      1832 4.74227E-03-6.03763E-04-1.12300E-14
 -1      1833 4.88452E-03-6.02401E-04-1.18849E-14
 -1      1834 4.67128E-03-5.67435E-04-1.08588E-14
 -1      1835 5.02689E-03-6.00926E-04-1.25576E-14
 -1      1836 5.16940E-03-5.99340E-04-1.32488E-14
 -1      1837 4.95602E-03-5.64665E-04-1.21614E-14
 -1      1838 5.31203E-03-5.97625E-04-1.39584E-14
 -1      1839 5.45481E-03-5.95782E-04-1.46857E-14
 -1      1840 5.24121E-03-5.61448E-04-1.35357E-14
 -1      1841 5.59773E-03-5.93785E-04-1.54315E-14
 -1      1842 5.74081E-03-5.91635E-04-1.61959E-14
 -1      1843 5.52688E-03-5.57711E-04-1.49840E-14
 -1      1844 5.88406E-03-5.89302E-04-1.69787E-14
 -1      1845 6.02752E-03-5.86786E-04-1.77797E-14
 -1      1846 5.81308E-03-5.53351E-04-1.65050E-14
 -1      1847 6.17120E-03-5.84057E-04-1.85986E-14
 -1      1848 6.31514E-03-5.81118E-04-1.94368E-14
 -1      1849 6.09993E-03-5.48247E-04-1.81006E-14
 -1      1850 6.45935E-03-5.77938E-04-2.02931E-14
 -1      1851 6.60391E-03-5.74529E-04-2.11691E-14
 -1      1852 6.38761E-03-5.42276E-04-1.97692E-14
 -1      1853 6.74883E-03-5.70863E-04-2.20639E-14
 -1      1854 6.89421E-03-5.66965E-04-2.29754E-14
 -1      1855 6.67635E-03-5.35337E-04-2.15141E-14
 -1      1856 7.04005E-03-5.62817E-04-2.39060E-14
 -1      1857 7.18649E-03-5.58460E-04-2.48545E-14
 -1      1858 6.96644E-03-5.27384E-04-2.33314E-14
 -1      1859 7.33353E-03-5.53898E-04-2.58187E-14
 -1      1860 7.48134E-03-5.49200E-04-2.68002E-14
 -1      1861 7.25827E-03-5.18471E-04-2.52186E-14
 -1      1862 7.62992E-03-5.44404E-04-2.77996E-14
 -1      1863 7.77948E-03-5.39617E-04-2.88144E-14
 -1      1864 7.55232E-03-5.08818E-04-2.71743E-14
 -1      1865 7.93001E-03-5.34939E-04-2.98463E-14
 -1      1866 8.08178E-03-5.30531E-04-3.08968E-14
 -1      1867 7.84916E-03-4.98920E-04-2.91972E-14
 -1      1868 8.23475E-03-5.26586E-04-3.19639E-14
 -1      1869 8.38924E-03-5.23347E-04-3.30471E-14
 -1      1870 8.14948E-03-4.89689E-04-3.12890E-14
 -1      1871 8.54519E-03-5.21152E-04-3.41467E-14
 -1      1872 8.70296E-03-5.20356E-04-3.52617E-14
 -1      1873 8.45405E-03-4.82674E-04-3.34480E-14
 -1      1874 8.86249E-03-5.21504E-04-3.63931E-14
 -1      1875 9.02411E-03-5.25110E-04-3.75385E-14
 -1      1876 8.76380E-03-4.80362E-04-3.56703E-14
 -1      1877 9.18780E-03-5.31995E-04-3.86987E-14
 -1      1878 9.35378E-03-5.42886E-04-3.98702E-14
 -1      1879 9.07977E-03-4.86568E-04-3.79539E-14
 -1      1880 9.52216E-03-5.58911E-04-4.10551E-14
 -1      1881 9.69284E-03-5.81058E-04-4.22550E-14
 -1      1882 9.40323E-03-5.06887E-04-4.02917E-14
 -1      1883 9.86623E-03-6.10676E-04-4.34660E-14
 -1      1884 1.00416E-02-6.48989E-04-4.46915E-14
 -1      1885 9.73569E-03-5.49041E-04-4.26810E-14
 -1      1886 1.02199E-02-6.97241E-04-4.59317E-14
 -1      1887 1.03994E-02-7.56603E-04-4.71825E-14
 -1      1888 1.00789E-02-6.22744E-04-4.51235E-14
 -1      1889 1.05815E-02-8.27492E-04-4.84476E-14
 -1      1890 1.07633E-02-9.10241E-04-4.97271E-14
 -1      1891 1.04340E-02-7.38182E-04-4.76212E-14
 -1      1892 1.09463E-02-1.00344E-03-5.10197E-14
 -1      1893 1.11269E-02-1.10481E-03-5.23291E-14
 -1      1894 1.07999E-02-9.01659E-04-5.01717E-14
 -1      1895 1.13057E-02-1.21007E-03-5.36535E-14
 -1      1896 1.14801E-02-1.31351E-03-5.49928E-14
 -1      1897 1.11703E-02-1.10620E-03-5.27826E-14
 -1      1898 1.16493E-02-1.40853E-03-5.63485E-14
 -1      1899 1.18144E-02-1.48676E-03-5.77230E-14
 -1      1900 1.15325E-02-1.31981E-03-5.54589E-14
 -1      1901 1.19733E-02-1.54243E-03-5.91183E-14
 -1      1902 1.21320E-02-1.57028E-03-6.05315E-14
 -1      1903 1.18758E-02-1.48428E-03-5.82054E-14
 -1      1904 1.22877E-02-1.56909E-03-6.19655E-14
 -1      1905 1.24477E-02-1.54137E-03-6.34215E-14
 -1      1906 1.22050E-02-1.54173E-03-6.10288E-14
 -1      1907 1.26093E-02-1.49139E-03-6.48979E-14
 -1      1908 1.27756E-02-1.42668E-03-6.63927E-14
 -1      1909 1.25383E-02-1.48037E-03-6.39357E-14
 -1      1910 1.29453E-02-1.35364E-03-6.79061E-14
 -1      1911 1.31166E-02-1.27913E-03-6.94360E-14
 -1      1912 1.28867E-02-1.34349E-03-6.69240E-14
 -1      1913 1.32899E-02-1.20796E-03-7.09821E-14
 -1      1914 1.34616E-02-1.14315E-03-7.25424E-14
 -1      1915 1.32439E-02-1.19131E-03-6.99789E-14
 -1      1916 1.36330E-02-1.08654E-03-7.41118E-14
 -1      1917 1.38010E-02-1.03809E-03-7.56965E-14
 -1      1918 1.35968E-02-1.06317E-03-7.30914E-14
 -1      1919 1.39671E-02-9.97230E-04-7.72926E-14
 -1      1920 1.41291E-02-9.62418E-04-7.88948E-14
 -1      1921 1.39366E-02-9.69944E-04-7.62535E-14
 -1      1922 1.42883E-02-9.31792E-04-8.05076E-14
 -1      1923 1.44439E-02-9.03355E-04-8.21254E-14
 -1      1924 1.42608E-02-9.04272E-04-7.94607E-14
 -1      1925 1.45783E-02-8.79730E-04-8.35885E-14
 -1      1926 1.47280E-02-8.49601E-04-8.52170E-14
 -1      1927 1.48144E-02-8.08206E-04-8.54691E-14
 -1      1928 1.45521E-02-8.55528E-04-8.25333E-14
 -1      1929 1.13868E-03 4.80086E-04-1.60489E-16
 -1      1930 9.96902E-04 4.46832E-04-9.76595E-17
 -1      1931 9.64514E-04 4.17376E-04-1.19615E-16
 -1      1932 1.41781E-03 5.31577E-04-3.32078E-16
 -1      1933 1.27865E-03 5.08123E-04-2.38362E-16
 -1      1934 1.24900E-03 4.79985E-04-2.65020E-16
 -1      1935 1.69421E-03 5.67885E-04-5.65994E-16
 -1      1936 1.55617E-03 5.51384E-04-4.41108E-16
 -1      1937 1.52929E-03 5.24210E-04-4.71940E-16
 -1      1938 1.96979E-03 5.93188E-04-8.64190E-16
 -1      1939 1.83201E-03 5.81742E-04-7.07090E-16
 -1      1940 1.80754E-03 5.55206E-04-7.42014E-16
 -1      1941 2.24563E-03 6.10441E-04-1.22737E-15
 -1      1942 2.10763E-03 6.02695E-04-1.03761E-15
 -1      1943 2.08517E-03 5.76565E-04-1.07672E-15
 -1      1944 2.52230E-03 6.21818E-04-1.65747E-15
 -1      1945 2.38385E-03 6.16770E-04-1.43393E-15
 -1      1946 2.36300E-03 5.90887E-04-1.47686E-15
 -1      1947 2.80004E-03 6.28945E-04-2.15522E-15
 -1      1948 2.66103E-03 6.25843E-04-1.89777E-15
 -1      1949 2.64146E-03 6.00101E-04-1.94454E-15
 -1      1950 3.07893E-03 6.33038E-04-2.72354E-15
 -1      1951 2.93935E-03 6.31319E-04-2.43040E-15
 -1      1952 2.92077E-03 6.05650E-04-2.48049E-15
 -1      1953 3.35892E-03 6.34993E-04-3.36147E-15
 -1      1954 3.21880E-03 6.34245E-04-3.03367E-15
 -1      1955 3.20100E-03 6.08603E-04-3.08668E-15
 -1      1956 3.63994E-03 6.35462E-04-4.07224E-15
 -1      1957 3.49931E-03 6.35387E-04-3.70755E-15
 -1      1958 3.48211E-03 6.09745E-04-3.76347E-15
 -1      1959 3.92186E-03 6.34902E-04-4.85720E-15
 -1      1960 3.78080E-03 6.35293E-04-4.45510E-15
 -1      1961 3.76404E-03 6.09637E-04-4.51359E-15
 -1      1962 4.20456E-03 6.33617E-04-5.71963E-15
 -1      1963 4.06312E-03 6.34339E-04-5.27879E-15
 -1      1964 4.04671E-03 6.08663E-04-5.33831E-15
 -1      1965 4.48795E-03 6.31795E-04-6.65973E-15
 -1      1966 4.34618E-03 6.32767E-04-6.18040E-15
 -1      1967 4.33003E-03 6.07069E-04-6.24196E-15
 -1      1968 4.77195E-03 6.29530E-04-7.67545E-15
 -1      1969 4.62988E-03 6.30715E-04-7.15820E-15
 -1      1970 4.61392E-03 6.04997E-04-7.22075E-15
 -1      1971 5.05650E-03 6.26849E-04-8.76378E-15
 -1      1972 4.91415E-03 6.28242E-04-8.21060E-15
 -1      1973 4.89834E-03 6.02507E-04-8.27386E-15
 -1      1974 5.34160E-03 6.23728E-04-9.92729E-15
 -1      1975 5.19898E-03 6.25345E-04-9.33570E-15
 -1      1976 5.18327E-03 5.99597E-04-9.40015E-15
 -1      1977 5.62728E-03 6.20110E-04-1.11639E-14
 -1      1978 5.48436E-03 6.21983E-04-1.05360E-14
 -1      1979 5.46872E-03 5.96223E-04-1.06006E-14
 -1      1980 5.91365E-03 6.15925E-04-1.24776E-14
 -1      1981 5.77038E-03 6.18090E-04-1.18115E-14
 -1      1982 5.75475E-03 5.92316E-04-1.18773E-14
 -1      1983 6.20085E-03 6.11107E-04-1.38668E-14
 -1      1984 6.05713E-03 6.13594E-04-1.31628E-14
 -1      1985 6.04146E-03 5.87798E-04-1.32306E-14
 -1      1986 6.48909E-03 6.05620E-04-1.53285E-14
 -1      1987 6.34482E-03 6.08442E-04-1.45890E-14
 -1      1988 6.32903E-03 5.82610E-04-1.46579E-14
 -1      1989 6.77866E-03 5.99495E-04-1.68606E-14
 -1      1990 6.63369E-03 6.02626E-04-1.60867E-14
 -1      1991 6.61766E-03 5.76733E-04-1.61563E-14
 -1      1992 7.06991E-03 5.92866E-04-1.84595E-14
 -1      1993 6.92405E-03 5.96223E-04-1.76509E-14
 -1      1994 6.90765E-03 5.70231E-04-1.77221E-14
 -1      1995 7.36328E-03 5.86034E-04-2.01232E-14
 -1      1996 7.21630E-03 5.89442E-04-1.92831E-14
 -1      1997 7.19933E-03 5.63297E-04-1.93544E-14
 -1      1998 7.65922E-03 5.79529E-04-2.18580E-14
 -1      1999 7.51088E-03 5.82691E-04-2.09820E-14
 -1      2000 7.49310E-03 5.56316E-04-2.10554E-14
 -1      2001 7.95824E-03 5.74202E-04-2.36597E-14
 -1      2002 7.80830E-03 5.76649E-04-2.27504E-14
 -1      2003 7.78942E-03 5.49942E-04-2.28258E-14
 -1      2004 8.26078E-03 5.71305E-04-2.55319E-14
 -1      2005 8.10903E-03 5.72357E-04-2.45866E-14
 -1      2006 8.08871E-03 5.45186E-04-2.46629E-14
 -1      2007 8.56720E-03 5.72575E-04-2.74774E-14
 -1      2008 8.41348E-03 5.71302E-04-2.64948E-14
 -1      2009 8.39140E-03 5.43507E-04-2.65716E-14
 -1      2010 8.87758E-03 5.80253E-04-2.94927E-14
 -1      2011 8.72189E-03 5.75478E-04-2.84764E-14
 -1      2012 8.69776E-03 5.46871E-04-2.85527E-14
 -1      2013 9.19164E-03 5.96997E-04-3.15708E-14
 -1      2014 9.03420E-03 5.87354E-04-3.05239E-14
 -1      2015 9.00786E-03 5.57747E-04-3.06011E-14
 -1      2016 9.50849E-03 6.25565E-04-3.37125E-14
 -1      2017 9.34982E-03 6.09694E-04-3.26351E-14
 -1      2018 9.32139E-03 5.78939E-04-3.27107E-14
 -1      2019 9.82650E-03 6.68157E-04-3.59166E-14
 -1      2020 9.66754E-03 6.45083E-04-3.48057E-14
 -1      2021 9.63752E-03 6.13151E-04-3.48835E-14
 -1      2022 1.01432E-02 7.25306E-04-3.81929E-14
 -1      2023 9.98528E-03 6.95048E-04-3.70463E-14
 -1      2024 9.95471E-03 6.62147E-04-3.71240E-14
 -1      2025 1.04554E-02 7.94402E-04-4.05495E-14
 -1      2026 1.03002E-02 7.58737E-04-3.93611E-14
 -1      2027 1.02706E-02 7.25435E-04-3.94392E-14
 -1      2028 1.07598E-02 8.68289E-04-4.29877E-14
 -1      2029 1.06089E-02 8.31402E-04-4.17574E-14
 -1      2030 1.05821E-02 7.98684E-04-4.18344E-14
 -1      2031 1.10537E-02 9.34860E-04-4.55097E-14
 -1      2032 1.09082E-02 9.03354E-04-4.42388E-14
 -1      2033 1.08860E-02 8.72486E-04-4.43109E-14
 -1      2034 1.13367E-02 9.78784E-04-4.81094E-14
 -1      2035 1.11965E-02 9.60505E-04-4.68009E-14
 -1      2036 1.11802E-02 9.32637E-04-4.68676E-14
 -1      2037 1.16110E-02 9.85761E-04-5.07834E-14
 -1      2038 1.14745E-02 9.87428E-04-4.94362E-14
 -1      2039 1.14648E-02 9.63062E-04-4.95027E-14
 -1      2040 1.18815E-02 9.47686E-04-5.35273E-14
 -1      2041 1.17462E-02 9.72352E-04-5.21469E-14
 -1      2042 1.17431E-02 9.51066E-04-5.22103E-14
 -1      2043 1.21536E-02 8.65916E-04-5.63420E-14
 -1      2044 1.20169E-02 9.11737E-04-5.49257E-14
 -1      2045 1.20204E-02 8.92398E-04-5.49879E-14
 -1      2046 1.24314E-02 7.50155E-04-5.92209E-14
 -1      2047 1.22916E-02 8.11476E-04-5.77728E-14
 -1      2048 1.23013E-02 7.92843E-04-5.78320E-14
 -1      2049 1.27158E-02 6.13963E-04-6.21617E-14
 -1      2050 1.25728E-02 6.83863E-04-6.06849E-14
 -1      2051 1.25883E-02 6.65110E-04-6.07417E-14
 -1      2052 1.30054E-02 4.69373E-04-6.51538E-14
 -1      2053 1.28602E-02 5.42236E-04-6.36519E-14
 -1      2054 1.28807E-02 5.23136E-04-6.37076E-14
 -1      2055 1.32975E-02 3.23732E-04-6.81959E-14
 -1      2056 1.31514E-02 3.96530E-04-6.66693E-14
 -1      2057 1.31759E-02 3.77293E-04-6.67243E-14
 -1      2058 1.35894E-02 1.79111E-04-7.12813E-14
 -1      2059 1.34437E-02 2.51381E-04-6.97337E-14
 -1      2060 1.34710E-02 2.32419E-04-6.97873E-14
 -1      2061 1.38793E-02 3.38953E-05-7.44019E-14
 -1      2062 1.37347E-02 1.06749E-04-7.28374E-14
 -1      2063 1.37639E-02 8.84308E-05-7.28908E-14
 -1      2064 1.41212E-02-9.08084E-05-7.70141E-14
 -1      2065 1.39775E-02-1.64719E-05-7.54401E-14
 -1      2066 1.40076E-02-3.41658E-05-7.54924E-14
 -1      2067 1.42038E-02-1.35604E-04-7.75736E-14
 -1      2068 1.46236E-02-3.38761E-04-7.92906E-14
 -1      2069 1.45380E-02-3.02128E-04-7.89206E-14
 -1      2070 1.44545E-02-2.63662E-04-7.85506E-14
 -1      2071 1.43729E-02-2.24261E-04-7.81801E-14
 -1      2072 1.43711E-02-2.23239E-04-7.73716E-14
 -1      2073 1.43262E-02-2.00657E-04-7.80625E-14
 -1      2074 1.42481E-02-1.59848E-04-7.76906E-14
 -1      2075 1.41499E-02-1.09245E-04-7.66499E-14
 -1      2076 1.42411E-02-1.58226E-04-7.68847E-14
 -1      2077 1.47953E-02-4.04965E-04-8.00131E-14
 -1      2078 1.47090E-02-3.73144E-04-7.96517E-14
 -1      2079 1.45411E-02-3.00735E-04-7.81023E-14
 -1      2080 1.49684E-02-4.61412E-04-8.07469E-14
 -1      2081 1.48826E-02-4.34847E-04-8.03806E-14
 -1      2082 1.47165E-02-3.71666E-04-7.88247E-14
 -1      2083 1.51273E-02-5.04457E-04-8.14677E-14
 -1      2084 1.50505E-02-4.84690E-04-8.11089E-14
 -1      2085 1.48903E-02-4.33136E-04-7.95451E-14
 -1      2086 1.52558E-02-5.33893E-04-8.21737E-14
 -1      2087 1.51964E-02-5.20631E-04-8.18242E-14
 -1      2088 1.50471E-02-4.81741E-04-8.02552E-14
 -1      2089 1.53377E-02-5.52852E-04-8.28532E-14
 -1      2090 1.53034E-02-5.44083E-04-8.25146E-14
 -1      2091 1.51688E-02-5.17193E-04-8.09457E-14
 -1      2092 1.53627E-02-5.67753E-04-8.35043E-14
 -1      2093 1.53576E-02-5.60003E-04-8.31831E-14
 -1      2094 1.52391E-02-5.43095E-04-8.16131E-14
 -1      2095 1.53317E-02-5.86088E-04-8.41259E-14
 -1      2096 1.53537E-02-5.75727E-04-8.38169E-14
 -1      2097 1.52492E-02-5.66378E-04-8.22540E-14
 -1      2098 1.52534E-02-6.15126E-04-8.47368E-14
 -1      2099 1.52975E-02-5.98826E-04-8.44320E-14
 -1      2100 1.52024E-02-5.95227E-04-8.28697E-14
 -1      2101 1.51446E-02-6.58223E-04-8.53237E-14
 -1      2102 1.52017E-02-6.34793E-04-8.50337E-14
 -1      2103 1.51110E-02-6.35805E-04-8.34702E-14
 -1      2104 1.50239E-02-7.15701E-04-8.58990E-14
 -1      2105 1.50847E-02-6.85339E-04-8.56139E-14
 -1      2106 1.49938E-02-6.89979E-04-8.40545E-14
 -1      2107 1.38806E-02-2.16068E-04-6.36571E-14
 -1      2108 1.40513E-02-2.89304E-04-6.43220E-14
 -1      2109 1.43851E-02-4.21648E-04-6.57181E-14
 -1      2110 1.43919E-02-4.39524E-04-6.58573E-14
 -1      2111 1.42292E-02-3.62167E-04-6.51323E-14
 -1      2112 1.43276E-02-3.91792E-04-6.54511E-14
 -1      2113 1.34763E-02-4.08129E-05-6.24684E-14
 -1      2114 1.36898E-02-1.37972E-04-6.31146E-14
 -1      2115 1.29765E-02 2.40927E-04-6.05142E-14
 -1      2116 1.31849E-02 1.12142E-04-6.14054E-14
 -1      2117 3.27170E-04-8.89602E-05-1.21905E-16
 -1      2118 3.29254E-04-1.02130E-04-1.20848E-16
 -1      2119 4.46294E-04-1.45098E-04-1.76915E-16
 -1      2120 4.39995E-04-1.09932E-04-1.79151E-16
 -1      2121 1.21680E-02 6.62481E-04-5.66187E-14
 -1      2122 1.23301E-02 5.94744E-04-5.75130E-14
 -1      2123 1.18645E-02 7.10274E-04-5.49647E-14
 -1      2124 1.20124E-02 6.98875E-04-5.57885E-14
 -1      2125 1.20754E-02 6.89857E-04-5.61380E-14
 -1      2126 1.14996E-02 6.36420E-04-5.32416E-14
 -1      2127 1.16586E-02 6.84390E-04-5.39584E-14
 -1      2128 1.11450E-02 4.75937E-04-5.17461E-14
 -1      2129 1.13219E-02 5.66256E-04-5.24920E-14
 -1      2130 1.14195E-02 6.06024E-04-5.25513E-14
 -1      2131 1.07156E-02 2.49067E-04-5.04328E-14
 -1      2132 1.09072E-02 3.48887E-04-5.08777E-14
 -1      2133 1.03446E-02 7.39893E-05-4.97597E-14
 -1      2134 1.05175E-02 1.57515E-04-5.01057E-14
 -1      2135 1.00038E-02-7.58973E-05-4.91447E-14
 -1      2136 1.01575E-02-1.39188E-05-4.93628E-14
 -1      2137 9.75534E-03-1.68810E-04-4.89479E-14
 -1      2138 9.85834E-03-1.30724E-04-4.90424E-14
 -1      2139 9.65365E-03-2.26478E-04-4.90963E-14
 -1      2140 9.67807E-03-2.05611E-04-4.89467E-14
 -1      2141 9.72939E-03-2.82555E-04-4.96069E-14
 -1      2142 9.67215E-03-2.55694E-04-4.93334E-14
 -1      2143 9.97127E-03-3.73549E-04-5.03295E-14
 -1      2144 9.84063E-03-3.23196E-04-4.98995E-14
 -1      2145 1.03244E-02-5.27954E-04-5.13753E-14
 -1      2146 1.01335E-02-4.44632E-04-5.08501E-14
 -1      2147 1.00500E-02-3.74081E-04-5.00146E-14
 -1      2148 1.08138E-02-8.06478E-04-5.30822E-14
 -1      2149 1.06118E-02-6.78667E-04-5.23091E-14
 -1      2150 1.12062E-02-1.05169E-03-5.45854E-14
 -1      2151 1.10104E-02-9.28335E-04-5.38298E-14
 -1      2152 1.09393E-02-8.47327E-04-5.31262E-14
 -1      2153 1.16189E-02-1.30285E-03-5.65516E-14
 -1      2154 1.14485E-02-1.20374E-03-5.57087E-14
 -1      2155 1.19541E-02-1.42327E-03-5.82796E-14
 -1      2156 1.17988E-02-1.37880E-03-5.74608E-14
 -1      2157 1.22795E-02-1.42321E-03-6.00073E-14
 -1      2158 1.21268E-02-1.43965E-03-5.91820E-14
 -1      2159 1.26554E-02-1.29093E-03-6.17365E-14
 -1      2160 1.24877E-02-1.36475E-03-6.10375E-14
 -1      2161 1.30237E-02-1.10019E-03-6.30458E-14
 -1      2162 1.28476E-02-1.19794E-03-6.24320E-14
 -1      2163 1.34176E-02-8.84436E-04-6.42243E-14
 -1      2164 1.32329E-02-9.84737E-04-6.37278E-14
 -1      2165 1.38033E-02-6.91557E-04-6.51505E-14
 -1      2166 1.36205E-02-7.81898E-04-6.47050E-14
 -1      2167 1.41542E-02-5.44116E-04-6.57828E-14
 -1      2168 1.40093E-02-5.97411E-04-6.56247E-14
 -1      2169 1.43523E-02-4.68950E-04-6.58456E-14
 -1      2170 1.42776E-02-4.97270E-04-6.58359E-14
 -1      2171 1.25769E-02 4.71653E-04-5.87557E-14
 -1      2172 1.27732E-02 3.59453E-04-5.96322E-14
 -1      2173 1.28447E-02 2.87744E-04-6.03484E-14
 -1      2174 1.33121E-02 1.81837E-05-6.23052E-14
 -1      2175 6.07904E-04-2.98120E-04-2.13683E-16
 -1      2176 1.24302E-02 5.36378E-04-5.82111E-14
 -1      2177 6.63621E-04-2.92404E-04-2.72785E-16
 -1      2178 1.41481E-02-3.48952E-04-6.52882E-14
 -1      2179 1.42306E-02-3.84891E-04-6.62556E-14
 -1      2180 1.40599E-02-3.31529E-04-6.54394E-14
 -1      2181 1.43701E-02-4.19051E-04-6.63696E-14
 -1      2182 1.49342E-02-7.51334E-04-8.56458E-14
 -1      2183 1.37720E-02-2.04101E-04-6.39264E-14
 -1      2184 1.43837E-02-4.51935E-04-6.66246E-14
 -1      2185 1.42224E-02-5.07597E-04-6.65567E-14
 -1      2186 1.39028E-02-6.26960E-04-6.60211E-14
 -1      2187 1.34997E-02-8.16329E-04-6.50576E-14
 -1      2188 1.31084E-02-1.03225E-03-6.38836E-14
 -1      2189 1.27354E-02-1.24383E-03-6.24979E-14
 -1      2190 1.23778E-02-1.40493E-03-6.07623E-14
 -1      2191 1.20419E-02-1.44459E-03-5.88280E-14
 -1      2192 1.13454E-02-1.12299E-03-5.49848E-14
 -1      2193 1.04770E-02-5.77398E-04-5.14546E-14
 -1      2194 9.78178E-03-2.82107E-04-4.92114E-14
 -1      2195 9.65397E-03-2.33056E-04-4.86851E-14
 -1      2196 9.70813E-03-1.92994E-04-4.84478E-14
 -1      2197 9.93221E-03-1.18357E-04-4.85469E-14
 -1      2198 1.02572E-02 1.01357E-05-4.90380E-14
 -1      2199 1.10369E-02 4.08052E-04-5.09352E-14
 -1      2200 1.11422E-02 4.65528E-04-5.09933E-14
 -1      2201 1.09287E-02 3.43346E-04-5.01334E-14
 -1      2202 1.17657E-02 7.10039E-04-5.43005E-14
 -1      2203 1.06297E-02 1.86943E-04-4.97546E-14
 -1      2204 1.17294E-02-1.35069E-03-5.70158E-14
 -1      2205 1.01662E-03 3.99816E-04-1.90792E-16
 -1      2206 8.72155E-04 3.63429E-04-1.27028E-16
 -1      2207 5.47772E-04-5.53029E-05-2.42143E-16
 -1      2208 5.48810E-04-7.20214E-05-2.46263E-16
 -1      2209 5.50231E-04-8.93461E-05-2.49434E-16
 -1      2210 5.52094E-04-1.07334E-04-2.51765E-16
 -1      2211 6.65277E-04-9.54970E-05-3.34531E-16
 -1      2212 5.46388E-04 8.85648E-06-2.20432E-16
 -1      2213 5.46368E-04-6.98180E-06-2.26829E-16
 -1      2214 5.47144E-04 4.08688E-05-2.05632E-16
 -1      2215 5.46643E-04 2.47937E-05-2.13574E-16
 -1      2216 6.61323E-04 1.99315E-05-2.94063E-16
 -1      2217 5.48973E-04 7.34914E-05-1.88177E-16
 -1      2218 5.47909E-04 5.69987E-05-1.97487E-16
 -1      2219 6.62651E-04 5.77894E-05-2.74262E-16
 -1      2220 5.52369E-04 1.08964E-04-1.66628E-16
 -1      2221 5.50443E-04 9.08894E-05-1.77931E-16
 -1      2222 6.65516E-04 9.72597E-05-2.50247E-16
 -1      2223 5.58255E-04 1.48298E-04-1.40404E-16
 -1      2224 5.54933E-04 1.28074E-04-1.54187E-16
 -1      2225 6.70611E-04 1.40031E-04-2.21001E-16
 -1      2226 5.68591E-04 1.93896E-04-1.07580E-16
 -1      2227 5.62748E-04 1.70178E-04-1.25130E-16
 -1      2228 6.79269E-04 1.87575E-04-1.85778E-16
 -1      2229 1.31752E-02 7.38681E-05-6.22265E-14
 -1      2230 1.34376E-02-6.85426E-05-6.33029E-14
 -1      2231 1.30209E-03 4.56763E-04-3.62693E-16
 -1      2232 1.15976E-03 4.30818E-04-2.69167E-16
 -1      2233 1.07180E-03 3.81338E-04-2.68001E-16
 -1      2234 9.15206E-04-3.46372E-04-4.96375E-16
 -1      2235 1.05930E-03-3.79697E-04-6.44355E-16
 -1      2236 1.23108E-02 5.93654E-04-5.76789E-14
 -1      2237 1.25166E-02 4.74558E-04-5.89291E-14
 -1      2238 1.20256E-03-4.08093E-04-8.11878E-16
 -1      2239 1.34537E-03-4.31969E-04-9.99309E-16
 -1      2240 1.11698E-03-3.60524E-04-7.34493E-16
 -1      2241 1.48755E-03-4.52188E-04-1.20626E-15
 -1      2242 1.62933E-03-4.69028E-04-1.43294E-15
 -1      2243 1.40332E-03-4.07291E-04-1.10861E-15
 -1      2244 1.77076E-03-4.83162E-04-1.67929E-15
 -1      2245 1.91194E-03-4.94804E-04-1.94511E-15
 -1      2246 1.68845E-03-4.40531E-04-1.55984E-15
 -1      2247 2.05297E-03-5.04448E-04-2.22999E-15
 -1      2248 2.19388E-03-5.12269E-04-2.53438E-15
 -1      2249 1.97264E-03-4.63581E-04-2.08806E-15
 -1      2250 2.33478E-03-5.18628E-04-2.85740E-15
 -1      2251 2.47567E-03-5.23667E-04-3.19953E-15
 -1      2252 2.25627E-03-4.79080E-04-2.69184E-15
 -1      2253 2.61661E-03-5.27649E-04-3.56063E-15
 -1      2254 2.75760E-03-5.30689E-04-3.93980E-15
 -1      2255 2.53968E-03-4.89061E-04-3.37101E-15
 -1      2256 2.89870E-03-5.32976E-04-4.33685E-15
 -1      2257 3.03987E-03-5.34600E-04-4.75172E-15
 -1      2258 2.82309E-03-4.95071E-04-4.12298E-15
 -1      2259 3.18117E-03-5.35697E-04-5.18384E-15
 -1      2260 3.32256E-03-5.36335E-04-5.63440E-15
 -1      2261 3.10666E-03-4.98270E-04-4.94606E-15
 -1      2262 3.46408E-03-5.36609E-04-6.10273E-15
 -1      2263 3.60569E-03-5.36568E-04-6.58826E-15
 -1      2264 3.39045E-03-4.99510E-04-5.83969E-15
 -1      2265 3.74743E-03-5.36278E-04-7.09117E-15
 -1      2266 3.88926E-03-5.35773E-04-7.61233E-15
 -1      2267 3.67451E-03-4.99407E-04-6.80402E-15
 -1      2268 4.03121E-03-5.35093E-04-8.15152E-15
 -1      2269 4.17325E-03-5.34262E-04-8.70902E-15
 -1      2270 3.95884E-03-4.98383E-04-7.83909E-15
 -1      2271 4.31540E-03-5.33300E-04-9.28535E-15
 -1      2272 4.45762E-03-5.32223E-04-9.87918E-15
 -1      2273 4.24344E-03-4.96714E-04-8.94651E-15
 -1      2274 4.59995E-03-5.31037E-04-1.04908E-14
 -1      2275 4.74236E-03-5.29749E-04-1.11211E-14
 -1      2276 4.52830E-03-4.94560E-04-1.01275E-14
 -1      2277 4.88486E-03-5.28356E-04-1.17691E-14
 -1      2278 5.02745E-03-5.26858E-04-1.24345E-14
 -1      2279 4.81342E-03-4.91989E-04-1.13799E-14
 -1      2280 5.17013E-03-5.25242E-04-1.31180E-14
 -1      2281 5.31290E-03-5.23507E-04-1.38201E-14
 -1      2282 5.09879E-03-4.89002E-04-1.27043E-14
 -1      2283 5.45577E-03-5.21633E-04-1.45405E-14
 -1      2284 5.59874E-03-5.19615E-04-1.52790E-14
 -1      2285 5.38444E-03-4.85544E-04-1.41011E-14
 -1      2286 5.74183E-03-5.17428E-04-1.60361E-14
 -1      2287 5.88505E-03-5.15068E-04-1.68130E-14
 -1      2288 5.67038E-03-4.81524E-04-1.55719E-14
 -1      2289 6.02840E-03-5.12506E-04-1.76067E-14
 -1      2290 6.17191E-03-5.09740E-04-1.84190E-14
 -1      2291 5.95668E-03-4.76824E-04-1.71172E-14
 -1      2292 6.31559E-03-5.06741E-04-1.92517E-14
 -1      2293 6.45948E-03-5.03509E-04-2.01015E-14
 -1      2294 6.24341E-03-4.71315E-04-1.87373E-14
 -1      2295 6.60357E-03-5.00020E-04-2.09702E-14
 -1      2296 6.74792E-03-4.96280E-04-2.18572E-14
 -1      2297 6.53066E-03-4.64881E-04-2.04309E-14
 -1      2298 6.89254E-03-4.92274E-04-2.27611E-14
 -1      2299 7.03749E-03-4.88021E-04-2.36833E-14
 -1      2300 6.81857E-03-4.57436E-04-2.21962E-14
 -1      2301 7.18276E-03-4.83521E-04-2.46246E-14
 -1      2302 7.32846E-03-4.78811E-04-2.55812E-14
 -1      2303 7.10727E-03-4.48971E-04-2.40329E-14
 -1      2304 7.47455E-03-4.73921E-04-2.65548E-14
 -1      2305 7.62118E-03-4.68916E-04-2.75464E-14
 -1      2306 7.39695E-03-4.39597E-04-2.59408E-14
 -1      2307 7.76829E-03-4.63873E-04-2.85532E-14
 -1      2308 7.91607E-03-4.58894E-04-2.95773E-14
 -1      2309 7.68782E-03-4.29629E-04-2.79130E-14
 -1      2310 8.06443E-03-4.54135E-04-3.06192E-14
 -1      2311 8.21361E-03-4.49752E-04-3.16785E-14
 -1      2312 7.98011E-03-4.19692E-04-2.99531E-14
 -1      2313 8.36351E-03-4.46013E-04-3.27546E-14
 -1      2314 8.51440E-03-4.43161E-04-3.38455E-14
 -1      2315 8.27413E-03-4.10874E-04-3.20640E-14
 -1      2316 8.66620E-03-4.41616E-04-3.49522E-14
 -1      2317 8.81921E-03-4.41756E-04-3.60755E-14
 -1      2318 8.57031E-03-4.04938E-04-3.42393E-14
 -1      2319 8.97340E-03-4.44194E-04-3.72116E-14
 -1      2320 9.12910E-03-4.49516E-04-3.83641E-14
 -1      2321 8.86932E-03-4.04598E-04-3.64748E-14
 -1      2322 9.28643E-03-4.58546E-04-3.95293E-14
 -1      2323 9.44570E-03-4.72191E-04-4.07075E-14
 -1      2324 9.17238E-03-4.13869E-04-3.87697E-14
 -1      2325 9.60733E-03-4.91443E-04-4.18997E-14
 -1      2326 9.77148E-03-5.17662E-04-4.31040E-14
 -1      2327 9.48168E-03-4.38482E-04-4.11212E-14
 -1      2328 9.93909E-03-5.51839E-04-4.43217E-14
 -1      2329 1.01099E-02-5.95889E-04-4.55532E-14
 -1      2330 9.80091E-03-4.86318E-04-4.35233E-14
 -1      2331 1.02855E-02-6.50453E-04-4.67973E-14
 -1      2332 1.04646E-02-7.17659E-04-4.80546E-14
 -1      2333 1.01357E-02-5.67704E-04-4.59768E-14
 -1      2334 1.06492E-02-7.97251E-04-4.93276E-14
 -1      2335 1.08363E-02-8.90182E-04-5.06133E-14
 -1      2336 1.04922E-02-6.94923E-04-4.84857E-14
 -1      2337 1.10282E-02-9.94251E-04-5.19167E-14
 -1      2338 1.12187E-02-1.10608E-03-5.32368E-14
 -1      2339 1.08730E-02-8.77379E-04-5.10535E-14
 -1      2340 1.14083E-02-1.22057E-03-5.45701E-14
 -1      2341 1.15934E-02-1.32745E-03-5.59223E-14
 -1      2342 1.12690E-02-1.10847E-03-5.36841E-14
 -1      2343 1.17714E-02-1.41998E-03-5.72937E-14
 -1      2344 1.19464E-02-1.48362E-03-5.86850E-14
 -1      2345 1.16556E-02-1.34046E-03-5.63843E-14
 -1      2346 1.21147E-02-1.51442E-03-6.00949E-14
 -1      2347 1.22868E-02-1.50943E-03-6.15254E-14
 -1      2348 1.20202E-02-1.48107E-03-5.91604E-14
 -1      2349 1.24589E-02-1.47079E-03-6.29754E-14
 -1      2350 1.26383E-02-1.40957E-03-6.44486E-14
 -1      2351 1.23786E-02-1.46441E-03-6.20189E-14
 -1      2352 1.28221E-02-1.33166E-03-6.59414E-14
 -1      2353 1.30081E-02-1.25025E-03-6.74513E-14
 -1      2354 1.27553E-02-1.32338E-03-6.49593E-14
 -1      2355 1.31959E-02-1.17062E-03-6.89756E-14
 -1      2356 1.33800E-02-1.09812E-03-7.05168E-14
 -1      2357 1.31461E-02-1.14875E-03-6.79755E-14
 -1      2358 1.35620E-02-1.03548E-03-7.20743E-14
 -1      2359 1.37379E-02-9.82416E-04-7.36409E-14
 -1      2360 1.35277E-02-1.00418E-03-7.10528E-14
 -1      2361 1.39097E-02-9.39302E-04-7.52191E-14
 -1      2362 1.40756E-02-9.03673E-04-7.68115E-14
 -1      2363 1.38852E-02-9.04977E-04-7.41887E-14
 -1      2364 1.42375E-02-8.74488E-04-7.84115E-14
 -1      2365 1.43946E-02-8.48964E-04-8.00207E-14
 -1      2366 1.42173E-02-8.41843E-04-7.73669E-14
 -1      2367 1.86526E-03 5.25268E-04-8.93166E-16
 -1      2368 1.72504E-03 5.12522E-04-7.36526E-16
 -1      2369 2.14534E-03 5.44533E-04-1.25498E-15
 -1      2370 2.00535E-03 5.35879E-04-1.06597E-15
 -1      2371 1.92458E-03 4.94649E-04-1.05004E-15
 -1      2372 2.42538E-03 5.57293E-04-1.68263E-15
 -1      2373 2.28535E-03 5.51621E-04-1.46034E-15
 -1      2374 2.20667E-03 5.11892E-04-1.43906E-15
 -1      2375 2.70578E-03 5.65346E-04-2.17777E-15
 -1      2376 2.56553E-03 5.61827E-04-1.92195E-15
 -1      2377 2.48860E-03 5.23169E-04-1.89409E-15
 -1      2378 2.98672E-03 5.70041E-04-2.74170E-15
 -1      2379 2.84618E-03 5.68051E-04-2.45081E-15
 -1      2380 2.77068E-03 5.30144E-04-2.41651E-15
 -1      2381 3.26830E-03 5.72373E-04-3.37553E-15
 -1      2382 3.12744E-03 5.71456E-04-3.05016E-15
 -1      2383 3.05307E-03 5.34062E-04-3.00789E-15
 -1      2384 3.55051E-03 5.73068E-04-4.08004E-15
 -1      2385 3.40933E-03 5.72891E-04-3.71845E-15
 -1      2386 3.33587E-03 5.35842E-04-3.66910E-15
 -1      2387 3.83334E-03 5.72638E-04-4.85750E-15
 -1      2388 3.69186E-03 5.72969E-04-4.45953E-15
 -1      2389 3.61910E-03 5.36149E-04-4.40099E-15
 -1      2390 4.11673E-03 5.71428E-04-5.71114E-15
 -1      2391 3.97497E-03 5.72114E-04-5.27472E-15
 -1      2392 3.90275E-03 5.35447E-04-5.20669E-15
 -1      2393 4.40062E-03 5.69654E-04-6.64001E-15
 -1      2394 4.25862E-03 5.70601E-04-6.16583E-15
 -1      2395 4.18680E-03 5.34042E-04-6.08690E-15
 -1      2396 4.68497E-03 5.67432E-04-7.64487E-15
 -1      2397 4.54274E-03 5.68593E-04-7.13324E-15
 -1      2398 4.47122E-03 5.32122E-04-7.04237E-15
 -1      2399 4.96976E-03 5.64802E-04-8.72395E-15
 -1      2400 4.82732E-03 5.66166E-04-8.17549E-15
 -1      2401 4.75599E-03 5.29778E-04-8.07319E-15
 -1      2402 5.25499E-03 5.61745E-04-9.87727E-15
 -1      2403 5.11232E-03 5.63327E-04-9.29131E-15
 -1      2404 5.04111E-03 5.27030E-04-9.17892E-15
 -1      2405 5.54067E-03 5.58207E-04-1.11042E-14
 -1      2406 5.39777E-03 5.60038E-04-1.04809E-14
 -1      2407 5.32657E-03 5.23848E-04-1.03584E-14
 -1      2408 5.82687E-03 5.54108E-04-1.24085E-14
 -1      2409 5.68370E-03 5.56230E-04-1.17470E-14
 -1      2410 5.61242E-03 5.20164E-04-1.16128E-14
 -1      2411 6.11370E-03 5.49367E-04-1.37882E-14
 -1      2412 5.97020E-03 5.51819E-04-1.30889E-14
 -1      2413 5.89871E-03 5.15894E-04-1.29435E-14
 -1      2414 6.40130E-03 5.43925E-04-1.52395E-14
 -1      2415 6.25739E-03 5.46733E-04-1.45048E-14
 -1      2416 6.18553E-03 5.10955E-04-1.43488E-14
 -1      2417 6.68987E-03 5.37772E-04-1.67628E-14
 -1      2418 6.54544E-03 5.40932E-04-1.59926E-14
 -1      2419 6.47300E-03 5.05290E-04-1.58264E-14
 -1      2420 6.97965E-03 5.30987E-04-1.83525E-14
 -1      2421 6.83458E-03 5.34447E-04-1.75492E-14
 -1      2422 6.76131E-03 4.98897E-04-1.73727E-14
 -1      2423 7.27096E-03 5.23792E-04-2.00079E-14
 -1      2424 7.12508E-03 5.27419E-04-1.91711E-14
 -1      2425 7.05066E-03 4.91875E-04-1.89860E-14
 -1      2426 7.56413E-03 5.16614E-04-2.17346E-14
 -1      2427 7.41727E-03 5.20165E-04-2.08626E-14
 -1      2428 7.34131E-03 4.84471E-04-2.06670E-14
 -1      2429 7.85958E-03 5.10169E-04-2.35276E-14
 -1      2430 7.71153E-03 5.13245E-04-2.26230E-14
 -1      2431 7.63358E-03 4.77154E-04-2.24167E-14
 -1      2432 8.15770E-03 5.05549E-04-2.53914E-14
 -1      2433 8.00827E-03 5.07552E-04-2.44518E-14
 -1      2434 7.92784E-03 4.70693E-04-2.42358E-14
 -1      2435 8.45892E-03 5.04315E-04-2.73246E-14
 -1      2436 8.30790E-03 5.04402E-04-2.63485E-14
 -1      2437 8.22452E-03 4.66250E-04-2.61228E-14
 -1      2438 8.76360E-03 5.08550E-04-2.93281E-14
 -1      2439 8.61082E-03 5.05612E-04-2.83178E-14
 -1      2440 8.52409E-03 4.65468E-04-2.80806E-14
 -1      2441 9.07197E-03 5.20839E-04-3.13963E-14
 -1      2442 8.91735E-03 5.13526E-04-3.03549E-14
 -1      2443 8.82708E-03 4.70522E-04-3.01062E-14
 -1      2444 9.38402E-03 5.44079E-04-3.35287E-14
 -1      2445 9.22761E-03 5.30921E-04-3.24545E-14
 -1      2446 9.13401E-03 4.84096E-04-3.21969E-14
 -1      2447 9.69932E-03 5.81000E-04-3.57234E-14
 -1      2448 9.54141E-03 5.60694E-04-3.46174E-14
 -1      2449 9.44524E-03 5.09177E-04-3.43487E-14
 -1      2450 1.00168E-02 6.33245E-04-3.79886E-14
 -1      2451 9.85801E-03 6.05180E-04-3.68472E-14
 -1      2452 9.76084E-03 5.48561E-04-3.65676E-14
 -1      2453 1.03343E-02 6.99940E-04-4.03289E-14
 -1      2454 1.01758E-02 6.64974E-04-3.91477E-14
 -1      2455 1.00801E-02 6.03866E-04-3.88554E-14
 -1      2456 1.06489E-02 7.75961E-04-4.27473E-14
 -1      2457 1.04923E-02 7.37302E-04-4.15275E-14
 -1      2458 1.04009E-02 6.73949E-04-4.12198E-14
 -1      2459 1.09571E-02 8.50616E-04-4.52452E-14
 -1      2460 1.08040E-02 8.14348E-04-4.39860E-14
 -1      2461 1.07201E-02 7.52915E-04-4.36613E-14
 -1      2462 1.12563E-02 9.08141E-04-4.78230E-14
 -1      2463 1.11078E-02 8.82642E-04-4.65247E-14
 -1      2464 1.10333E-02 8.28573E-04-4.61812E-14
 -1      2465 1.15467E-02 9.31392E-04-5.04789E-14
 -1      2466 1.14022E-02 9.25014E-04-4.91413E-14
 -1      2467 1.13374E-02 8.83133E-04-4.87797E-14
 -1      2468 1.18323E-02 9.08132E-04-5.32072E-14
 -1      2469 1.16895E-02 9.25948E-04-5.18329E-14
 -1      2470 1.16331E-02 8.98116E-04-5.14572E-14
 -1      2471 1.21184E-02 8.36647E-04-5.60048E-14
 -1      2472 1.19747E-02 8.78085E-04-5.45986E-14
 -1      2473 1.19253E-02 8.62201E-04-5.42070E-14
 -1      2474 1.24097E-02 7.25843E-04-5.88679E-14
 -1      2475 1.22632E-02 7.85252E-04-5.74283E-14
 -1      2476 1.22204E-02 7.76771E-04-5.70227E-14
 -1      2477 1.27069E-02 5.90858E-04-6.17946E-14
 -1      2478 1.25576E-02 6.60396E-04-6.03242E-14
 -1      2479 1.25222E-02 6.54699E-04-5.99051E-14
 -1      2480 1.30080E-02 4.45942E-04-6.47784E-14
 -1      2481 1.28573E-02 5.18925E-04-6.32815E-14
 -1      2482 1.28297E-02 5.13341E-04-6.28527E-14
 -1      2483 1.33095E-02 3.00290E-04-6.78100E-14
 -1      2484 1.31591E-02 3.72888E-04-6.62881E-14
 -1      2485 1.31392E-02 3.66798E-04-6.58532E-14
 -1      2486 1.36085E-02 1.56976E-04-7.08876E-14
 -1      2487 1.34596E-02 2.28367E-04-6.93436E-14
 -1      2488 1.34464E-02 2.22564E-04-6.88982E-14
 -1      2489 1.39030E-02 1.43694E-05-7.39987E-14
 -1      2490 1.37564E-02 8.58006E-05-7.24384E-14
 -1      2491 1.37484E-02 8.16671E-05-7.19872E-14
 -1      2492 1.40514E-02-5.91536E-05-7.56095E-14
 -1      2493 1.46365E-02-3.45161E-04-7.76320E-14
 -1      2494 1.45466E-02-3.07637E-04-7.72739E-14
 -1      2495 1.48118E-02-4.12559E-04-7.83442E-14
 -1      2496 1.47256E-02-3.80421E-04-7.79898E-14
 -1      2497 1.45561E-02-3.25239E-04-7.64423E-14
 -1      2498 1.42862E-02-1.86493E-04-7.61944E-14
 -1      2499 1.42027E-02-1.44188E-04-7.58246E-14
 -1      2500 1.44580E-02-2.68272E-04-7.69138E-14
 -1      2501 1.43714E-02-2.28171E-04-7.65557E-14
 -1      2502 1.41991E-02-1.53552E-04-7.50126E-14
 -1      2503 1.43743E-02-2.41742E-04-7.57301E-14
 -1      2504 1.49669E-02-4.66598E-04-7.90406E-14
 -1      2505 1.48931E-02-4.41326E-04-7.86939E-14
 -1      2506 1.47337E-02-3.98655E-04-7.71435E-14
 -1      2507 1.50820E-02-5.06845E-04-7.97194E-14
 -1      2508 1.50307E-02-4.88095E-04-7.93830E-14
 -1      2509 1.48876E-02-4.57113E-04-7.78292E-14
 -1      2510 1.51397E-02-5.37797E-04-8.03774E-14
 -1      2511 1.51188E-02-5.22684E-04-8.00492E-14
 -1      2512 1.49953E-02-5.00393E-04-7.84955E-14
 -1      2513 1.51334E-02-5.67521E-04-8.10002E-14
 -1      2514 1.51443E-02-5.51844E-04-8.06907E-14
 -1      2515 1.50386E-02-5.34529E-04-7.91344E-14
 -1      2516 1.50693E-02-6.05824E-04-8.16135E-14
 -1      2517 1.51077E-02-5.85006E-04-8.13099E-14
 -1      2518 1.50137E-02-5.70502E-04-7.97552E-14
 -1      2519 1.49642E-02-6.57228E-04-8.22097E-14
 -1      2520 1.50205E-02-6.29685E-04-8.19152E-14
 -1      2521 1.49312E-02-6.18064E-04-8.03635E-14
 -1      2522 1.48389E-02-7.22004E-04-8.27894E-14
 -1      2523 1.49028E-02-6.88148E-04-8.24987E-14
 -1      2524 1.48123E-02-6.80600E-04-8.09523E-14
 -1      2525 1.43592E-02-4.23802E-04-6.72038E-14
 -1      2526 1.44097E-02-4.35804E-04-6.74731E-14
 -1      2527 1.36996E-02-1.92835E-04-6.42672E-14
 -1      2528 1.38715E-02-2.62923E-04-6.48196E-14
 -1      2529 1.58452E-03 4.97092E-04-5.96203E-16
 -1      2530 1.44358E-03 4.78766E-04-4.71479E-16
 -1      2531 1.64185E-03 4.69237E-04-7.25995E-16
 -1      2532 1.48068E-02-7.74613E-04-8.41719E-14
 -1      2533 1.44115E-02-4.50882E-04-6.75409E-14
 -1      2534 1.43708E-02-4.61991E-04-6.75278E-14
 -1      2535 5.88490E-04-2.37976E-04-2.43891E-16
 -1      2536 7.81320E-04-3.04795E-04-3.81571E-16
 -1      2537 8.40735E-04-2.93604E-04-4.51868E-16
 -1      2538 5.78971E-04-2.10204E-04-2.50383E-16
 -1      2539 1.42951E-02-4.84877E-04-6.74675E-14
 -1      2540 1.41842E-02-5.16075E-04-6.74097E-14
 -1      2541 1.43551E-02-4.76566E-04-6.83832E-14
 -1      2542 9.81234E-03-2.71497E-04-4.85914E-14
 -1      2543 9.71466E-03-2.47209E-04-4.83060E-14
 -1      2544 5.46582E-04-2.29024E-05-2.32602E-16
 -1      2545 5.47040E-04-3.89442E-05-2.37657E-16
 -1      2546 6.62502E-04-5.58193E-05-3.24326E-16
 -1      2547 6.61270E-04-1.77068E-05-3.10773E-16
 -1      2548 1.05183E-02 1.21676E-04-4.89003E-14
 -1      2549 1.06856E-02 2.10665E-04-4.92181E-14
 -1      2550 1.19996E-02 7.11970E-04-5.56256E-14
 -1      2551 1.21200E-02 6.75833E-04-5.64576E-14
 -1      2552 1.16575E-02 7.00779E-04-5.34132E-14
 -1      2553 1.18176E-02 7.26663E-04-5.44142E-14
 -1      2554 1.13509E-02 5.76135E-04-5.18070E-14
 -1      2555 1.14946E-02 6.45465E-04-5.25518E-14
 -1      2556 1.18239E-02-1.39582E-03-5.75282E-14
 -1      2557 1.16794E-02-1.32245E-03-5.66203E-14
 -1      2558 1.01694E-02-3.68814E-05-4.81221E-14
 -1      2559 1.03414E-02 3.71256E-05-4.85102E-14
 -1      2560 1.03982E-02 7.30044E-05-4.79790E-14
 -1      2561 9.85501E-03-1.48364E-04-4.77707E-14
 -1      2562 9.98722E-03-1.06634E-04-4.78676E-14
 -1      2563 9.67017E-03-2.00756E-04-4.77752E-14
 -1      2564 9.74545E-03-1.82216E-04-4.77730E-14
 -1      2565 9.78175E-03-1.63154E-04-4.70980E-14
 -1      2566 9.65847E-03-2.28946E-04-4.80702E-14
 -1      2567 9.63672E-03-2.19148E-04-4.78335E-14
 -1      2568 9.66667E-03-2.26947E-04-4.74547E-14
 -1      2569 1.01224E-02-3.83678E-04-4.96934E-14
 -1      2570 9.97493E-03-3.27463E-04-4.91820E-14
 -1      2571 1.06053E-02-6.23892E-04-5.13839E-14
 -1      2572 1.03493E-02-4.87616E-04-5.04636E-14
 -1      2573 1.10346E-02-8.95302E-04-5.31805E-14
 -1      2574 1.08642E-02-7.81347E-04-5.24414E-14
 -1      2575 1.14767E-02-1.20055E-03-5.54512E-14
 -1      2576 1.12683E-02-1.05516E-03-5.43338E-14
 -1      2577 1.21104E-02-1.45937E-03-5.93946E-14
 -1      2578 1.19755E-02-1.44287E-03-5.84907E-14
 -1      2579 1.24567E-02-1.38393E-03-6.15884E-14
 -1      2580 1.22889E-02-1.44151E-03-6.05525E-14
 -1      2581 1.28202E-02-1.19238E-03-6.33273E-14
 -1      2582 1.26619E-02-1.28515E-03-6.26245E-14
 -1      2583 1.31854E-02-9.76380E-04-6.48429E-14
 -1      2584 1.30028E-02-1.08595E-03-6.41503E-14
 -1      2585 1.35878E-02-7.59876E-04-6.59856E-14
 -1      2586 1.34053E-02-8.54531E-04-6.54956E-14
 -1      2587 1.39885E-02-5.85328E-04-6.69979E-14
 -1      2588 1.37937E-02-6.63575E-04-6.65147E-14
 -1      2589 1.27388E-02 3.38740E-04-6.01778E-14
 -1      2590 1.29138E-02 2.26878E-04-6.10696E-14
 -1      2591 7.57911E-04 3.34222E-04-8.16269E-17
 -1      2592 6.11492E-04 2.84859E-04-4.34358E-17
 -1      2593 5.84766E-04 2.58089E-04-5.53892E-17
 -1      2594 8.13733E-04 3.22896E-04-1.35918E-16
 -1      2595 1.06684E-02 2.18694E-04-4.84188E-14
 -1      2596 1.07976E-02 2.75051E-04-4.92740E-14
 -1      2597 1.08941E-02 3.39867E-04-4.93252E-14
 -1      2598 6.70196E-04-1.37985E-04-3.40711E-16
 -1      2599 5.54549E-04-1.26246E-04-2.53053E-16
 -1      2600 5.57743E-04-1.46245E-04-2.53202E-16
 -1      2601 1.34438E-02-7.52697E-05-6.41065E-14
 -1      2602 1.35631E-02-1.36969E-04-6.41888E-14
 -1      2603 1.36830E-02-1.90352E-04-6.50798E-14
 -1      2604 1.30608E-02 1.37272E-04-6.20538E-14
 -1      2605 5.72263E-04 2.27892E-04-7.81303E-17
 -1      2606 1.26069E-02 4.17729E-04-5.96350E-14
 -1      2607 1.41019E-02-5.50971E-04-6.79062E-14
 -1      2608 1.37068E-02-7.08555E-04-6.69552E-14
 -1      2609 1.39961E-02-3.14321E-04-6.57827E-14
 -1      2610 9.86520E-03-2.84506E-04-4.82739E-14
 -1      2611 1.32994E-02-9.18769E-04-6.57634E-14
 -1      2612 1.40467E-02-6.05131E-05-7.51508E-14
 -1      2613 1.40924E-02-8.61932E-05-7.52697E-14
 -1      2614 1.29229E-02-1.13996E-03-6.42770E-14
 -1      2615 1.44360E-02-4.49052E-04-6.83763E-14
 -1      2616 1.43165E-02-4.13674E-04-6.73546E-14
 -1      2617 1.43881E-02-4.30663E-04-6.84581E-14
 -1      2618 1.42636E-02-4.00973E-04-6.75053E-14
 -1      2619 1.25556E-02-1.34657E-03-6.24077E-14
 -1      2620 1.22094E-02-1.46106E-03-6.02059E-14
 -1      2621 1.35782E-03 4.32747E-04-4.66071E-16
 -1      2622 5.71736E-04-1.85326E-04-2.54408E-16
 -1      2623 1.15799E-02-1.26590E-03-5.59559E-14
 -1      2624 1.11690E-02-9.87714E-04-5.36377E-14
 -1      2625 1.07011E-02-6.80551E-04-5.14371E-14
 -1      2626 9.63330E-03-2.04455E-04-4.71620E-14
 -1      2627 1.00570E-02-7.22634E-05-4.73440E-14
 -1      2628 1.19058E-02-1.42832E-03-5.80861E-14
 -1      2629 1.12316E-02 5.21168E-04-5.09928E-14
 -1      2630 1.15695E-02 6.82315E-04-5.26602E-14
 -1      2631 1.22205E-02 6.33806E-04-5.71592E-14
 -1      2632 1.18793E-02 7.29134E-04-5.47243E-14
 -1      2633 1.02385E-02-4.32142E-04-4.96231E-14
 -1      2634 1.46306E-02-8.14475E-04-8.25794E-14
 -1      2635 1.47579E-02-7.57103E-04-8.27478E-14
 -1      2636 1.46633E-02-7.53334E-04-8.12022E-14
 -1      2637 1.44975E-02-8.33931E-04-8.11190E-14
 -1      2638 6.89546E-04 2.51247E-04-1.30186E-16
 -1      2639 1.40043E-02-4.85863E-05-7.40987E-14
 -1      2640 1.44785E-02-8.05277E-04-8.00629E-14
 -1      2641 7.80186E-04 7.73418E-05-3.51905E-16
 -1      2642 7.78925E-04 5.54780E-05-3.65498E-16
 -1      2643 7.78078E-04 3.35636E-05-3.78034E-16
 -1      2644 7.77656E-04 1.18971E-05-3.89608E-16
 -1      2645 8.96490E-04 4.96869E-05-4.71696E-16
 -1      2646 7.91533E-04 1.73145E-04-2.82611E-16
 -1      2647 7.87526E-04 1.47729E-04-3.02492E-16
 -1      2648 8.03400E-04 2.28344E-04-2.37278E-16
 -1      2649 7.96775E-04 1.99952E-04-2.61198E-16
 -1      2650 9.14834E-04 2.07846E-04-3.51078E-16
 -1      2651 1.39638E-02-4.45686E-05-7.30879E-14
 -1      2652 1.38540E-02 1.90812E-05-7.25368E-14
 -1      2653 1.37015E-02 8.69828E-05-7.09870E-14
 -1      2654 1.12982E-03 3.61978E-04-3.51647E-16
 -1      2655 9.86218E-04 3.32907E-04-2.62228E-16
 -1      2656 1.44099E-02-4.76076E-04-6.92769E-14
 -1      2657 1.43407E-02-4.92177E-04-6.92142E-14
 -1      2658 1.42066E-02-5.32900E-04-6.90665E-14
 -1      2659 1.40268E-02-5.90527E-04-6.86467E-14
 -1      2660 1.32014E-03-3.62798E-04-1.01315E-15
 -1      2661 1.46336E-03-3.81784E-04-1.21871E-15
 -1      2662 1.60641E-03-3.97868E-04-1.44313E-15
 -1      2663 1.74934E-03-4.11280E-04-1.68677E-15
 -1      2664 1.52497E-03-3.55456E-04-1.32942E-15
 -1      2665 1.89211E-03-4.22490E-04-1.94933E-15
 -1      2666 2.03476E-03-4.31683E-04-2.23027E-15
 -1      2667 1.81165E-03-3.81363E-04-1.81336E-15
 -1      2668 2.17731E-03-4.39236E-04-2.53011E-15
 -1      2669 2.31978E-03-4.45301E-04-2.84833E-15
 -1      2670 2.09811E-03-3.99219E-04-2.37165E-15
 -1      2671 2.46219E-03-4.50165E-04-3.18465E-15
 -1      2672 2.60455E-03-4.53951E-04-3.53988E-15
 -1      2673 2.38429E-03-4.11036E-04-3.00266E-15
 -1      2674 2.74690E-03-4.56875E-04-3.91340E-15
 -1      2675 2.88923E-03-4.59031E-04-4.30386E-15
 -1      2676 2.67023E-03-4.18430E-04-3.70681E-15
 -1      2677 3.03158E-03-4.60579E-04-4.71213E-15
 -1      2678 3.17393E-03-4.61592E-04-5.13763E-15
 -1      2679 2.95601E-03-4.22650E-04-4.48227E-15
 -1      2680 3.31630E-03-4.62183E-04-5.58088E-15
 -1      2681 3.45869E-03-4.62406E-04-6.04256E-15
 -1      2682 3.24168E-03-4.24636E-04-5.32723E-15
 -1      2683 3.60112E-03-4.62341E-04-6.52129E-15
 -1      2684 3.74357E-03-4.62024E-04-7.01747E-15
 -1      2685 3.52730E-03-4.25080E-04-6.24254E-15
 -1      2686 3.88606E-03-4.61510E-04-7.53130E-15
 -1      2687 4.02858E-03-4.60822E-04-8.06280E-15
 -1      2688 3.81290E-03-4.24469E-04-7.22812E-15
 -1      2689 4.17114E-03-4.59994E-04-8.61339E-15
 -1      2690 4.31373E-03-4.59039E-04-9.18188E-15
 -1      2691 4.09850E-03-4.23132E-04-8.28470E-15
 -1      2692 4.45636E-03-4.57975E-04-9.76808E-15
 -1      2693 4.59902E-03-4.56807E-04-1.03724E-14
 -1      2694 4.38412E-03-4.21273E-04-9.41334E-15
 -1      2695 4.74172E-03-4.55539E-04-1.09955E-14
 -1      2696 4.88446E-03-4.54174E-04-1.16361E-14
 -1      2697 4.66978E-03-4.18997E-04-1.06152E-14
 -1      2698 5.02724E-03-4.52703E-04-1.22948E-14
 -1      2699 5.17005E-03-4.51125E-04-1.29715E-14
 -1      2700 4.95548E-03-4.16335E-04-1.18895E-14
 -1      2701 5.31291E-03-4.49425E-04-1.36660E-14
 -1      2702 5.45582E-03-4.47596E-04-1.43797E-14
 -1      2703 5.24122E-03-4.13259E-04-1.32357E-14
 -1      2704 5.59877E-03-4.45620E-04-1.51118E-14
 -1      2705 5.74177E-03-4.43489E-04-1.58630E-14
 -1      2706 5.52703E-03-4.09697E-04-1.46562E-14
 -1      2707 5.88483E-03-4.41180E-04-1.66322E-14
 -1      2708 6.02795E-03-4.38685E-04-1.74199E-14
 -1      2709 5.81290E-03-4.05548E-04-1.61509E-14
 -1      2710 6.17113E-03-4.35980E-04-1.82272E-14
 -1      2711 6.31439E-03-4.33058E-04-1.90533E-14
 -1      2712 6.09883E-03-4.00696E-04-1.77213E-14
 -1      2713 6.45772E-03-4.29900E-04-1.98958E-14
 -1      2714 6.60114E-03-4.26501E-04-2.07563E-14
 -1      2715 6.38483E-03-3.95024E-04-1.93649E-14
 -1      2716 6.74464E-03-4.22850E-04-2.16366E-14
 -1      2717 6.88826E-03-4.18947E-04-2.25322E-14
 -1      2718 6.67088E-03-3.88437E-04-2.10799E-14
 -1      2719 7.03195E-03-4.14797E-04-2.34472E-14
 -1      2720 7.17579E-03-4.10412E-04-2.43799E-14
 -1      2721 6.95696E-03-3.80892E-04-2.28669E-14
 -1      2722 7.31971E-03-4.05818E-04-2.53288E-14
 -1      2723 7.46380E-03-4.01045E-04-2.62945E-14
 -1      2724 7.24302E-03-3.72434E-04-2.47224E-14
 -1      2725 7.60797E-03-3.96160E-04-2.72778E-14
 -1      2726 7.75234E-03-3.91214E-04-2.82771E-14
 -1      2727 7.52898E-03-3.63260E-04-2.66464E-14
 -1      2728 7.89680E-03-3.86332E-04-2.92937E-14
 -1      2729 8.04148E-03-3.81603E-04-3.03268E-14
 -1      2730 7.81476E-03-3.53782E-04-2.86391E-14
 -1      2731 8.18627E-03-3.77232E-04-3.13778E-14
 -1      2732 8.33134E-03-3.73363E-04-3.24464E-14
 -1      2733 8.10023E-03-3.44738E-04-3.06975E-14
 -1      2734 8.47657E-03-3.70308E-04-3.35306E-14
 -1      2735 8.62218E-03-3.68298E-04-3.46293E-14
 -1      2736 8.38534E-03-3.37310E-04-3.28254E-14
 -1      2737 8.76810E-03-3.67774E-04-3.57430E-14
 -1      2738 8.91463E-03-3.69111E-04-3.68720E-14
 -1      2739 8.67019E-03-3.33285E-04-3.50151E-14
 -1      2740 9.06179E-03-3.72880E-04-3.80159E-14
 -1      2741 9.21005E-03-3.79706E-04-3.91739E-14
 -1      2742 8.95534E-03-3.35242E-04-3.72652E-14
 -1      2743 9.35963E-03-3.90251E-04-4.03450E-14
 -1      2744 9.51119E-03-4.05592E-04-4.15298E-14
 -1      2745 9.24231E-03-3.46796E-04-3.95738E-14
 -1      2746 9.66541E-03-4.26383E-04-4.27277E-14
 -1      2747 9.82307E-03-4.54479E-04-4.39377E-14
 -1      2748 9.53443E-03-3.73013E-04-4.19351E-14
 -1      2749 9.98561E-03-4.90262E-04-4.51612E-14
 -1      2750 1.01536E-02-5.37035E-04-4.63974E-14
 -1      2751 9.83808E-03-4.21259E-04-4.43482E-14
 -1      2752 1.03295E-02-5.94750E-04-4.76470E-14
 -1      2753 1.05125E-02-6.67912E-04-4.89120E-14
 -1      2754 1.01636E-02-5.03084E-04-4.68135E-14
 -1      2755 1.12295E-02-1.05260E-03-5.35751E-14
 -1      2756 1.14375E-02-1.18514E-03-5.49129E-14
 -1      2757 1.19364E-02-1.44983E-03-5.84059E-14
 -1      2758 1.21261E-02-1.47979E-03-5.98165E-14
 -1      2759 1.22766E-02-1.46654E-03-6.09785E-14
 -1      2760 1.24704E-02-1.41422E-03-6.24234E-14
 -1      2761 1.30947E-02-1.12872E-03-6.69957E-14
 -1      2762 1.32960E-02-1.04370E-03-6.85174E-14
 -1      2763 1.34933E-02-9.72866E-04-7.00562E-14
 -1      2764 1.36805E-02-9.14771E-04-7.16119E-14
 -1      2765 1.34624E-02-9.38388E-04-6.90614E-14
 -1      2766 1.38605E-02-8.70580E-04-7.31768E-14
 -1      2767 1.40316E-02-8.35730E-04-7.47542E-14
 -1      2768 1.38400E-02-8.31727E-04-7.21658E-14
 -1      2769 1.41963E-02-8.09697E-04-7.63412E-14
 -1      2770 1.43547E-02-7.88484E-04-7.79383E-14
 -1      2771 1.41788E-02-7.73751E-04-7.53184E-14
 -1      2772 2.26917E-03 4.78610E-04-1.62892E-15
 -1      2773 2.12735E-03 4.71769E-04-1.41269E-15
 -1      2774 8.03093E-04 2.78251E-04-1.82119E-16
 -1      2775 1.98544E-03 4.63301E-04-1.21314E-15
 -1      2776 1.84339E-03 4.53045E-04-1.02964E-15
 -1      2777 2.04761E-03 4.31369E-04-1.38171E-15
 -1      2778 2.83621E-03 4.94482E-04-2.66014E-15
 -1      2779 2.69444E-03 4.91909E-04-2.37718E-15
 -1      2780 3.11987E-03 4.97704E-04-3.27876E-15
 -1      2781 2.97802E-03 4.96387E-04-2.96059E-15
 -1      2782 2.90237E-03 4.58449E-04-2.90923E-15
 -1      2783 3.40375E-03 4.99005E-04-3.96731E-15
 -1      2784 3.26179E-03 4.98557E-04-3.61461E-15
 -1      2785 3.18715E-03 4.61041E-04-3.55461E-15
 -1      2786 3.68789E-03 4.98987E-04-4.72688E-15
 -1      2787 3.54580E-03 4.99134E-04-4.33795E-15
 -1      2788 3.47199E-03 4.61921E-04-4.27060E-15
 -1      2789 3.97228E-03 4.98065E-04-5.56007E-15
 -1      2790 3.83006E-03 4.98621E-04-5.13432E-15
 -1      2791 3.75693E-03 4.61629E-04-5.05779E-15
 -1      2792 4.25694E-03 4.96512E-04-6.46731E-15
 -1      2793 4.11458E-03 4.97356E-04-6.00430E-15
 -1      2794 4.04199E-03 4.60533E-04-5.91775E-15
 -1      2795 4.54184E-03 4.94483E-04-7.44886E-15
 -1      2796 4.39936E-03 4.95550E-04-6.94869E-15
 -1      2797 4.32718E-03 4.58869E-04-6.85166E-15
 -1      2798 4.82698E-03 4.92049E-04-8.50596E-15
 -1      2799 4.68438E-03 4.93314E-04-7.96838E-15
 -1      2800 4.61249E-03 4.56765E-04-7.85948E-15
 -1      2801 5.11237E-03 4.89214E-04-9.63837E-15
 -1      2802 4.96964E-03 4.90682E-04-9.06308E-15
 -1      2803 4.89795E-03 4.54272E-04-8.94327E-15
 -1      2804 5.39801E-03 4.85934E-04-1.08433E-14
 -1      2805 5.25515E-03 4.87632E-04-1.02308E-14
 -1      2806 5.18354E-03 4.51380E-04-1.01009E-14
 -1      2807 5.68394E-03 4.82135E-04-1.21254E-14
 -1      2808 5.54094E-03 4.84104E-04-1.14749E-14
 -1      2809 5.46929E-03 4.48034E-04-1.13333E-14
 -1      2810 5.97022E-03 4.77728E-04-1.34823E-14
 -1      2811 5.82703E-03 4.80012E-04-1.27941E-14
 -1      2812 5.75523E-03 4.44152E-04-1.26411E-14
 -1      2813 6.25690E-03 4.72629E-04-1.49129E-14
 -1      2814 6.11350E-03 4.75268E-04-1.41889E-14
 -1      2815 6.04138E-03 4.39645E-04-1.40250E-14
 -1      2816 6.54411E-03 4.66785E-04-1.64154E-14
 -1      2817 6.40043E-03 4.69800E-04-1.56559E-14
 -1      2818 6.32781E-03 4.34429E-04-1.54818E-14
 -1      2819 6.83197E-03 4.60204E-04-1.79871E-14
 -1      2820 6.68794E-03 4.63582E-04-1.71927E-14
 -1      2821 6.61458E-03 4.28455E-04-1.70090E-14
 -1      2822 7.12065E-03 4.53001E-04-1.96240E-14
 -1      2823 6.97618E-03 4.56668E-04-1.87966E-14
 -1      2824 6.90179E-03 4.21742E-04-1.86040E-14
 -1      2825 7.41039E-03 4.45446E-04-2.13298E-14
 -1      2826 7.26536E-03 4.49244E-04-2.04676E-14
 -1      2827 7.18960E-03 4.14415E-04-2.02661E-14
 -1      2828 7.70148E-03 4.38040E-04-2.31033E-14
 -1      2829 7.55574E-03 4.41685E-04-2.22088E-14
 -1      2830 7.47818E-03 4.06764E-04-2.19960E-14
 -1      2831 7.99428E-03 4.31591E-04-2.49472E-14
 -1      2832 7.84763E-03 4.34635E-04-2.40164E-14
 -1      2833 7.76783E-03 3.99306E-04-2.37948E-14
 -1      2834 8.28927E-03 4.27308E-04-2.68587E-14
 -1      2835 8.14146E-03 4.29090E-04-2.58943E-14
 -1      2836 8.05892E-03 3.92873E-04-2.56623E-14
 -1      2837 8.58704E-03 4.26888E-04-2.88392E-14
 -1      2838 8.43777E-03 4.26492E-04-2.78401E-14
 -1      2839 8.35201E-03 3.88694E-04-2.75976E-14
 -1      2840 8.88835E-03 4.32569E-04-3.08873E-14
 -1      2841 8.73722E-03 4.28803E-04-2.98560E-14
 -1      2842 8.64787E-03 3.88490E-04-2.96017E-14
 -1      2843 9.19406E-03 4.47114E-04-3.29985E-14
 -1      2844 9.04064E-03 4.38534E-04-3.19352E-14
 -1      2845 8.94754E-03 3.94538E-04-3.16727E-14
 -1      2846 9.50504E-03 4.73622E-04-3.51717E-14
 -1      2847 9.34892E-03 4.58653E-04-3.40769E-14
 -1      2848 9.25233E-03 4.09678E-04-3.38034E-14
 -1      2849 9.82186E-03 5.15045E-04-3.74134E-14
 -1      2850 9.66282E-03 4.92276E-04-3.62842E-14
 -1      2851 9.56365E-03 4.37177E-04-3.59993E-14
 -1      2852 1.01442E-02 5.73171E-04-3.97257E-14
 -1      2853 9.98256E-03 5.41963E-04-3.85610E-14
 -1      2854 9.88263E-03 4.80309E-04-3.82631E-14
 -1      2855 1.04699E-02 6.46799E-04-4.21134E-14
 -1      2856 1.03070E-02 6.08288E-04-4.09096E-14
 -1      2857 1.02092E-02 5.41276E-04-4.05986E-14
 -1      2858 1.07950E-02 7.29360E-04-4.45776E-14
 -1      2859 1.06330E-02 6.87694E-04-4.33365E-14
 -1      2860 1.05411E-02 6.19054E-04-4.30104E-14
 -1      2861 1.11140E-02 8.06860E-04-4.71204E-14
 -1      2862 1.09556E-02 7.70048E-04-4.58393E-14
 -1      2863 1.08730E-02 7.06288E-04-4.54974E-14
 -1      2864 1.14231E-02 8.58760E-04-4.97401E-14
 -1      2865 1.12697E-02 8.37623E-04-4.84202E-14
 -1      2866 1.11979E-02 7.86450E-04-4.80611E-14
 -1      2867 1.17238E-02 8.64381E-04-5.24371E-14
 -1      2868 1.15739E-02 8.68362E-04-5.10795E-14
 -1      2869 1.15118E-02 8.34712E-04-5.07013E-14
 -1      2870 1.20223E-02 8.13808E-04-5.52066E-14
 -1      2871 1.18722E-02 8.46159E-04-5.38123E-14
 -1      2872 1.18170E-02 8.28978E-04-5.34195E-14
 -1      2873 1.23268E-02 7.12644E-04-5.80420E-14
 -1      2874 1.21733E-02 7.68447E-04-5.66162E-14
 -1      2875 1.21234E-02 7.60761E-04-5.62067E-14
 -1      2876 1.26396E-02 5.78933E-04-6.09450E-14
 -1      2877 1.24822E-02 6.48410E-04-5.94854E-14
 -1      2878 1.24390E-02 6.42615E-04-5.90634E-14
 -1      2879 1.29576E-02 4.32055E-04-6.39116E-14
 -1      2880 1.27984E-02 5.05980E-04-6.24206E-14
 -1      2881 1.27637E-02 4.97990E-04-6.19889E-14
 -1      2882 1.32749E-02 2.85470E-04-6.69272E-14
 -1      2883 1.31169E-02 3.58279E-04-6.54143E-14
 -1      2884 1.30918E-02 3.47719E-04-6.49732E-14
 -1      2885 1.35667E-02 1.49951E-04-6.97164E-14
 -1      2886 1.34108E-02 2.19985E-04-6.81815E-14
 -1      2887 1.33940E-02 2.08313E-04-6.77361E-14
 -1      2888 1.36718E-02 8.11009E-05-7.02592E-14
 -1      2889 1.48126E-02-4.53005E-04-7.66421E-14
 -1      2890 1.47410E-02-4.24374E-04-7.63056E-14
 -1      2891 1.44603E-02-7.75680E-04-7.90190E-14
 -1      2892 1.45614E-02-7.65089E-04-8.01145E-14
 -1      2893 1.46468E-02-7.26145E-04-8.01516E-14
 -1      2894 1.44426E-02-7.44872E-04-7.79876E-14
 -1      2895 1.44752E-02-3.11127E-04-7.52515E-14
 -1      2896 1.43813E-02-2.66591E-04-7.48997E-14
 -1      2897 1.49124E-02-4.97598E-04-7.72961E-14
 -1      2898 1.48710E-02-4.76800E-04-7.69732E-14
 -1      2899 1.47411E-02-4.51557E-04-7.54573E-14
 -1      2900 1.46578E-02-3.90976E-04-7.59541E-14
 -1      2901 1.45691E-02-3.53201E-04-7.56109E-14
 -1      2902 1.43963E-02-3.02638E-04-7.40754E-14
 -1      2903 1.45859E-02-3.87995E-04-7.47799E-14
 -1      2904 1.29649E-02 1.98206E-04-6.19220E-14
 -1      2905 1.31982E-02 5.87418E-05-6.30911E-14
 -1      2906 1.49390E-02-5.33310E-04-7.79222E-14
 -1      2907 1.49351E-02-5.15198E-04-7.76113E-14
 -1      2908 1.48301E-02-4.95423E-04-7.60971E-14
 -1      2909 1.48922E-02-5.75416E-04-7.85390E-14
 -1      2910 1.49240E-02-5.52610E-04-7.82318E-14
 -1      2911 1.48364E-02-5.33451E-04-7.67185E-14
 -1      2912 1.47894E-02-6.32839E-04-7.91387E-14
 -1      2913 1.48460E-02-6.01664E-04-7.88398E-14
 -1      2914 1.47644E-02-5.82447E-04-7.73251E-14
 -1      2915 1.46863E-02-6.96543E-04-7.97933E-14
 -1      2916 1.47532E-02-6.58917E-04-7.95035E-14
 -1      2917 1.46689E-02-6.42207E-04-7.79879E-14
 -1      2918 1.45871E-02-7.03078E-04-7.87105E-14
 -1      2919 9.91623E-03-2.99843E-04-4.78803E-14
 -1      2920 9.77333E-03-2.55103E-04-4.72987E-14
 -1      2921 7.88854E-04-2.52519E-04-4.20535E-16
 -1      2922 9.20040E-04-2.88307E-04-5.41044E-16
 -1      2923 1.34281E-02-8.65192E-04-6.69685E-14
 -1      2924 1.32369E-02-9.74603E-04-6.63053E-14
 -1      2925 1.18087E-02-1.40103E-03-5.74480E-14
 -1      2926 1.70118E-03 4.40581E-04-8.62171E-16
 -1      2927 1.55873E-03 4.25705E-04-7.11101E-16
 -1      2928 1.76211E-03 4.11258E-04-1.00458E-15
 -1      2929 2.55269E-03 4.88497E-04-2.11093E-15
 -1      2930 2.41095E-03 4.84143E-04-1.86126E-15
 -1      2931 2.33272E-03 4.44816E-04-1.82416E-15
 -1      2932 2.61759E-03 4.53385E-04-2.33292E-15
 -1      2933 1.04825E-03-3.15878E-04-6.75851E-16
 -1      2934 1.19152E-03-3.41530E-04-8.45285E-16
 -1      2935 1.25305E-03-3.19965E-04-9.39949E-16
 -1      2936 9.96738E-04-2.74881E-04-6.34136E-16
 -1      2937 6.52864E-04-1.88410E-04-3.18877E-16
 -1      2938 7.84379E-04 1.23472E-04-3.20314E-16
 -1      2939 7.81991E-04 1.00034E-04-3.36821E-16
 -1      2940 8.99603E-04 9.94615E-05-4.38072E-16
 -1      2941 9.05342E-04 1.51606E-04-3.98363E-16
 -1      2942 1.38145E-02-6.74066E-04-6.80182E-14
 -1      2943 1.36294E-02-7.58297E-04-6.74793E-14
 -1      2944 7.81724E-04-9.79768E-05-4.32326E-16
 -1      2945 7.84037E-04-1.21329E-04-4.37652E-16
 -1      2946 1.17868E-02 7.35978E-04-5.39331E-14
 -1      2947 1.19450E-02 7.25372E-04-5.51423E-14
 -1      2948 1.03063E-02-4.67920E-04-4.93371E-14
 -1      2949 1.01070E-02-3.76144E-04-4.85785E-14
 -1      2950 1.21387E-02 6.72450E-04-5.65952E-14
 -1      2951 1.23038E-02 5.94246E-04-5.78230E-14
 -1      2952 1.10318E-02-9.15534E-04-5.24338E-14
 -1      2953 1.02977E-02 4.46596E-05-4.71267E-14
 -1      2954 1.04520E-02 1.17907E-04-4.75077E-14
 -1      2955 1.14662E-02 6.54957E-04-5.17902E-14
 -1      2956 1.16030E-02 7.06360E-04-5.26461E-14
 -1      2957 9.95416E-03-9.48333E-05-4.65464E-14
 -1      2958 1.01153E-02-3.52470E-05-4.67925E-14
 -1      2959 9.70654E-03-1.68762E-04-4.63049E-14
 -1      2960 9.80012E-03-1.43078E-04-4.62988E-14
 -1      2961 9.66159E-03-2.22490E-04-4.67383E-14
 -1      2962 9.61471E-03-2.11179E-04-4.65074E-14
 -1      2963 9.60100E-03-1.99210E-04-4.64371E-14
 -1      2964 9.63291E-03-1.90341E-04-4.63780E-14
 -1      2965 9.63136E-03-1.70982E-04-4.55850E-14
 -1      2966 9.57330E-03-1.96354E-04-4.57288E-14
 -1      2967 1.08036E-02-7.50090E-04-5.15422E-14
 -1      2968 1.05729E-02-6.09619E-04-5.04971E-14
 -1      2969 1.11064E-02 4.64660E-04-5.00419E-14
 -1      2970 1.12866E-02 5.68869E-04-5.08457E-14
 -1      2971 1.41606E-03 4.07881E-04-5.75684E-16
 -1      2972 1.27301E-03 3.86847E-04-4.55948E-16
 -1      2973 1.18966E-03 3.41525E-04-4.41379E-16
 -1      2974 1.47610E-03 3.82233E-04-6.91436E-16
 -1      2975 1.16113E-02-1.29980E-03-5.60729E-14
 -1      2976 1.44644E-02-4.53624E-04-6.93367E-14
 -1      2977 1.44593E-02-4.62164E-04-6.94061E-14
 -1      2978 1.30054E-02-1.10571E-03-6.51957E-14
 -1      2979 1.28438E-02-1.20191E-03-6.43641E-14
 -1      2980 1.39337E-02-2.93905E-04-6.61597E-14
 -1      2981 1.41014E-02-3.51423E-04-6.67874E-14
 -1      2982 1.24853E-02 4.94056E-04-5.90651E-14
 -1      2983 1.26792E-02 3.74623E-04-6.03200E-14
 -1      2984 1.23891E-02 5.55816E-04-5.84908E-14
 -1      2985 1.08867E-02-8.38164E-04-5.14802E-14
 -1      2986 7.87091E-04-1.45470E-04-4.41650E-16
 -1      2987 7.90955E-04-1.70626E-04-4.44265E-16
 -1      2988 9.04869E-04-1.49071E-04-5.55220E-16
 -1      2989 1.33301E-02-8.51066E-06-6.39757E-14
 -1      2990 1.34593E-02-6.64269E-05-6.48632E-14
 -1      2991 1.32364E-02 5.77457E-05-6.38401E-14
 -1      2992 8.95465E-04 1.01005E-06-4.99926E-16
 -1      2993 7.77626E-04-9.72237E-06-4.00071E-16
 -1      2994 7.77990E-04-3.13723E-05-4.09774E-16
 -1      2995 1.40471E-02-9.23213E-05-7.34460E-14
 -1      2996 1.31512E-02-1.04583E-03-6.63918E-14
 -1      2997 1.05490E-02 1.76589E-04-4.75586E-14
 -1      2998 1.06381E-02 2.38038E-04-4.76075E-14
 -1      2999 1.04331E-02 1.47126E-04-4.67047E-14
 -1      3000 1.42930E-02-5.23975E-04-6.99601E-14
 -1      3001 1.39580E-02-6.37525E-04-6.91760E-14
 -1      3002 1.35587E-02-8.21203E-04-6.80259E-14
 -1      3003 1.04995E-02-6.12157E-04-4.93257E-14
 -1      3004 1.06864E-02-7.31684E-04-5.01848E-14
 -1      3005 1.13378E-02 6.12644E-04-5.08288E-14
 -1      3006 1.44708E-02-4.76121E-04-7.02397E-14
 -1      3007 1.25302E-02-1.36911E-03-6.24776E-14
 -1      3008 1.26162E-02-1.35435E-03-6.35369E-14
 -1      3009 1.27337E-02-1.29906E-03-6.43767E-14
 -1      3010 1.29375E-02-1.20271E-03-6.58713E-14
 -1      3011 1.42023E-02-2.03397E-04-7.33725E-14
 -1      3012 1.42888E-02-2.20071E-04-7.45509E-14
 -1      3013 1.41984E-02-1.72755E-04-7.41954E-14
 -1      3014 8.64854E-04 2.66573E-04-2.43729E-16
 -1      3015 9.68688E-03-2.33080E-04-4.63519E-14
 -1      3016 9.97630E-03-3.31990E-04-4.76000E-14
 -1      3017 1.42181E-02-3.83602E-04-6.78866E-14
 -1      3018 7.69982E-04-2.02415E-04-4.19532E-16
 -1      3019 1.44382E-02-4.40252E-04-6.96366E-14
 -1      3020 1.44575E-02-4.47283E-04-6.94872E-14
 -1      3021 1.45109E-02-4.60612E-04-7.05211E-14
 -1      3022 1.27151E-02-1.26915E-03-6.35232E-14
 -1      3023 9.84490E-03-1.10277E-04-4.57540E-14
 -1      3024 9.82947E-04 2.75815E-04-3.33514E-16
 -1      3025 7.78769E-04-5.31592E-05-4.18163E-16
 -1      3026 7.79987E-04-7.53500E-05-4.25753E-16
 -1      3027 8.99320E-04-9.71091E-05-5.41993E-16
 -1      3028 8.96361E-04-4.75343E-05-5.23331E-16
 -1      3029 1.20377E-02 7.07417E-04-5.57879E-14
 -1      3030 1.04097E-02-5.34345E-04-4.94413E-14
 -1      3031 1.37126E-02-1.90438E-04-6.59920E-14
 -1      3032 1.38194E-02-2.45399E-04-6.60760E-14
 -1      3033 1.39464E-02-2.86487E-04-6.70796E-14
 -1      3034 1.16809E-02 7.32721E-04-5.30483E-14
 -1      3035 1.17483E-02 7.46944E-04-5.34544E-14
 -1      3036 1.15785E-02 7.20233E-04-5.21703E-14
 -1      3037 1.01688E-02 1.08469E-05-4.63268E-14
 -1      3038 1.28206E-02 2.94728E-04-6.13404E-14
 -1      3039 1.29619E-02 2.20947E-04-6.23688E-14
 -1      3040 1.27028E-02 3.81343E-04-6.07558E-14
 -1      3041 1.09708E-02 4.05026E-04-4.91795E-14
 -1      3042 1.19205E-02 7.40266E-04-5.47843E-14
 -1      3043 1.20976E-02 6.95690E-04-5.62369E-14
 -1      3044 1.04027E-03 2.43295E-04-4.25766E-16
 -1      3045 1.03365E-03 2.11571E-04-4.56043E-16
 -1      3046 1.02650E-02-4.88234E-04-4.81837E-14
 -1      3047 1.73167E-03-3.40520E-04-1.68085E-15
 -1      3048 1.87534E-03-3.50730E-04-1.93960E-15
 -1      3049 2.01899E-03-3.59221E-04-2.21650E-15
 -1      3050 2.16264E-03-3.66148E-04-2.51154E-15
 -1      3051 1.94016E-03-3.19412E-04-2.06523E-15
 -1      3052 2.30624E-03-3.71786E-04-2.82483E-15
 -1      3053 2.44978E-03-3.76261E-04-3.15545E-15
 -1      3054 2.22820E-03-3.32532E-04-2.65037E-15
 -1      3055 2.59328E-03-3.79795E-04-3.50459E-15
 -1      3056 2.73671E-03-3.82485E-04-3.87205E-15
 -1      3057 2.51617E-03-3.41047E-04-3.30714E-15
 -1      3058 2.88010E-03-3.84503E-04-4.25631E-15
 -1      3059 3.02342E-03-3.85922E-04-4.65791E-15
 -1      3060 2.80394E-03-3.46188E-04-4.03459E-15
 -1      3061 3.16671E-03-3.86871E-04-5.07756E-15
 -1      3062 3.30994E-03-3.87403E-04-5.51427E-15
 -1      3063 3.09145E-03-3.48916E-04-4.83218E-15
 -1      3064 3.45314E-03-3.87613E-04-5.96795E-15
 -1      3065 3.59629E-03-3.87537E-04-6.43981E-15
 -1      3066 3.37868E-03-3.49955E-04-5.69876E-15
 -1      3067 3.73942E-03-3.87241E-04-6.92892E-15
 -1      3068 3.88251E-03-3.86750E-04-7.43527E-15
 -1      3069 3.66566E-03-3.49832E-04-6.63441E-15
 -1      3070 4.02558E-03-3.86106E-04-7.95990E-15
 -1      3071 4.16862E-03-3.85324E-04-8.50287E-15
 -1      3072 3.95240E-03-3.48915E-04-7.64068E-15
 -1      3073 4.31164E-03-3.84430E-04-9.06404E-15
 -1      3074 4.45464E-03-3.83431E-04-9.64266E-15
 -1      3075 4.23893E-03-3.47441E-04-8.71845E-15
 -1      3076 4.59762E-03-3.82337E-04-1.02391E-14
 -1      3077 4.74059E-03-3.81151E-04-1.08546E-14
 -1      3078 4.52527E-03-3.45551E-04-9.86928E-15
 -1      3079 4.88354E-03-3.79873E-04-1.14884E-14
 -1      3080 5.02647E-03-3.78499E-04-1.21400E-14
 -1      3081 4.81144E-03-3.43304E-04-1.10918E-14
 -1      3082 5.16939E-03-3.77024E-04-1.28099E-14
 -1      3083 5.31230E-03-3.75438E-04-1.34979E-14
 -1      3084 5.09744E-03-3.40701E-04-1.23884E-14
 -1      3085 5.45519E-03-3.73731E-04-1.42046E-14
 -1      3086 5.59806E-03-3.71891E-04-1.49306E-14
 -1      3087 5.38328E-03-3.37698E-04-1.37581E-14
 -1      3088 5.74091E-03-3.69905E-04-1.56751E-14
 -1      3089 5.88374E-03-3.67760E-04-1.64376E-14
 -1      3090 5.66891E-03-3.34217E-04-1.52023E-14
 -1      3091 6.02654E-03-3.65440E-04-1.72193E-14
 -1      3092 6.16932E-03-3.62932E-04-1.80206E-14
 -1      3093 5.95431E-03-3.30164E-04-1.67226E-14
 -1      3094 6.31204E-03-3.60224E-04-1.88388E-14
 -1      3095 6.45473E-03-3.57304E-04-1.96745E-14
 -1      3096 6.23941E-03-3.25438E-04-1.83163E-14
 -1      3097 6.59734E-03-3.54166E-04-2.05289E-14
 -1      3098 6.73990E-03-3.50801E-04-2.14006E-14
 -1      3099 6.52409E-03-3.19952E-04-1.99822E-14
 -1      3100 6.88236E-03-3.47216E-04-2.22899E-14
 -1      3101 7.02473E-03-3.43406E-04-2.31967E-14
 -1      3102 6.80823E-03-3.13654E-04-2.17185E-14
 -1      3103 7.16695E-03-3.39401E-04-2.41209E-14
 -1      3104 7.30906E-03-3.35203E-04-2.50620E-14
 -1      3105 7.09161E-03-3.06560E-04-2.35239E-14
 -1      3106 7.45095E-03-3.30874E-04-2.60198E-14
 -1      3107 7.59268E-03-3.26429E-04-2.69956E-14
 -1      3108 7.37397E-03-2.98792E-04-2.53992E-14
 -1      3109 7.73412E-03-3.21975E-04-2.79883E-14
 -1      3110 7.87533E-03-3.17545E-04-2.89972E-14
 -1      3111 7.65497E-03-2.90632E-04-2.73420E-14
 -1      3112 8.01617E-03-3.13308E-04-3.00226E-14
 -1      3113 8.15673E-03-3.09324E-04-3.10647E-14
 -1      3114 7.93420E-03-2.82580E-04-2.93515E-14
 -1      3115 8.29683E-03-3.05838E-04-3.21234E-14
 -1      3116 8.43662E-03-3.02950E-04-3.31995E-14
 -1      3117 8.21117E-03-2.75429E-04-3.14289E-14
 -1      3118 8.57590E-03-3.00994E-04-3.42905E-14
 -1      3119 8.71492E-03-3.00135E-04-3.53968E-14
 -1      3120 8.48543E-03-2.70329E-04-3.35701E-14
 -1      3121 8.85351E-03-3.00787E-04-3.65186E-14
 -1      3122 8.99205E-03-3.03238E-04-3.76555E-14
 -1      3123 8.75667E-03-2.68847E-04-3.57753E-14
 -1      3124 9.13049E-03-3.07950E-04-3.88046E-14
 -1      3125 9.26952E-03-3.15454E-04-3.99679E-14
 -1      3126 9.02506E-03-2.73018E-04-3.80400E-14
 -1      3127 9.40923E-03-3.26163E-04-4.11458E-14
 -1      3128 9.55090E-03-3.41213E-04-4.23354E-14
 -1      3129 9.29185E-03-2.85427E-04-4.03602E-14
 -1      3130 9.69505E-03-3.60762E-04-4.35375E-14
 -1      3131 9.84368E-03-3.87424E-04-4.47536E-14
 -1      3132 9.56059E-03-3.09546E-04-4.27307E-14
 -1      3133 9.96920E-03-4.08251E-04-4.58378E-14
 -1      3134 1.01290E-02-4.51749E-04-4.70778E-14
 -1      3135 1.00440E-02-3.81679E-04-4.71887E-14
 -1      3136 9.81218E-03-3.41194E-04-4.50102E-14
 -1      3137 1.44020E-02-5.19758E-04-7.12037E-14
 -1      3138 1.42810E-02-5.56140E-04-7.10510E-14
 -1      3139 9.74593E-03-1.14245E-04-4.48609E-14
 -1      3140 9.88304E-03-7.20483E-05-4.50994E-14
 -1      3141 1.30980E-02-1.08964E-03-6.64013E-14
 -1      3142 1.38357E-02-7.84167E-04-7.11413E-14
 -1      3143 1.40090E-02-7.51646E-04-7.27054E-14
 -1      3144 1.41727E-02-7.31071E-04-7.42808E-14
 -1      3145 1.43292E-02-7.16177E-04-7.58650E-14
 -1      3146 1.41745E-02-6.84141E-04-7.32436E-14
 -1      3147 2.11106E-03 3.98808E-04-1.55594E-15
 -1      3148 1.96784E-03 3.90885E-04-1.34610E-15
 -1      3149 3.25491E-03 4.24071E-04-3.83657E-15
 -1      3150 3.11206E-03 4.23287E-04-3.49128E-15
 -1      3151 2.96917E-03 4.22038E-04-3.16346E-15
 -1      3152 2.82627E-03 4.20261E-04-2.85357E-15
 -1      3153 3.03659E-03 3.85322E-04-3.42368E-15
 -1      3154 3.82623E-03 4.24082E-04-5.39349E-15
 -1      3155 3.68342E-03 4.24446E-04-4.97677E-15
 -1      3156 4.11187E-03 4.22860E-04-6.27985E-15
 -1      3157 3.96906E-03 4.23547E-04-5.82763E-15
 -1      3158 3.89582E-03 3.86395E-04-5.73345E-15
 -1      3159 4.39752E-03 4.21127E-04-7.23948E-15
 -1      3160 4.25470E-03 4.22050E-04-6.75070E-15
 -1      3161 4.18195E-03 3.85088E-04-6.64562E-15
 -1      3162 4.68319E-03 4.18987E-04-8.27395E-15
 -1      3163 4.54035E-03 4.20105E-04-7.74740E-15
 -1      3164 4.46799E-03 3.83324E-04-7.63213E-15
 -1      3165 4.96889E-03 4.16472E-04-9.38469E-15
 -1      3166 4.82604E-03 4.17777E-04-8.81985E-15
 -1      3167 4.75394E-03 3.81183E-04-8.69325E-15
 -1      3168 5.25463E-03 4.13558E-04-1.05676E-14
 -1      3169 5.11175E-03 4.15068E-04-9.96676E-15
 -1      3170 5.03982E-03 3.78680E-04-9.82904E-15
 -1      3171 5.54042E-03 4.10183E-04-1.18279E-14
 -1      3172 5.39751E-03 4.11933E-04-1.11881E-14
 -1      3173 5.32563E-03 3.75781E-04-1.10398E-14
 -1      3174 5.82627E-03 4.06263E-04-1.31630E-14
 -1      3175 5.68333E-03 4.08297E-04-1.24863E-14
 -1      3176 5.61137E-03 3.72417E-04-1.23276E-14
 -1      3177 6.11219E-03 4.01704E-04-1.45724E-14
 -1      3178 5.96922E-03 4.04068E-04-1.38583E-14
 -1      3179 5.89704E-03 3.68502E-04-1.36893E-14
 -1      3180 6.39823E-03 3.96425E-04-1.60542E-14
 -1      3181 6.25519E-03 3.99158E-04-1.53044E-14
 -1      3182 6.18264E-03 3.63943E-04-1.51245E-14
 -1      3183 6.68441E-03 3.90384E-04-1.76070E-14
 -1      3184 6.54129E-03 3.93501E-04-1.68216E-14
 -1      3185 6.46816E-03 3.58660E-04-1.66314E-14
 -1      3186 6.97081E-03 3.83602E-04-1.92255E-14
 -1      3187 6.82757E-03 3.87082E-04-1.84081E-14
 -1      3188 6.75360E-03 3.52614E-04-1.82071E-14
 -1      3189 7.25752E-03 3.76215E-04-2.09127E-14
 -1      3190 7.11411E-03 3.79973E-04-2.00612E-14
 -1      3191 7.03901E-03 3.45829E-04-1.98516E-14
 -1      3192 7.54473E-03 3.68517E-04-2.26670E-14
 -1      3193 7.40104E-03 3.72382E-04-2.17814E-14
 -1      3194 7.32444E-03 3.38441E-04-2.15637E-14
 -1      3195 7.83269E-03 3.61031E-04-2.44897E-14
 -1      3196 7.68858E-03 3.64707E-04-2.35698E-14
 -1      3197 7.61005E-03 3.30737E-04-2.33420E-14
 -1      3198 8.12184E-03 3.54583E-04-2.63815E-14
 -1      3199 7.97707E-03 3.57613E-04-2.54262E-14
 -1      3200 7.89610E-03 3.23224E-04-2.51882E-14
 -1      3201 8.41282E-03 3.50395E-04-2.83408E-14
 -1      3202 8.26704E-03 3.52111E-04-2.73529E-14
 -1      3203 8.18307E-03 3.16700E-04-2.71037E-14
 -1      3204 8.70661E-03 3.50175E-04-3.03679E-14
 -1      3205 8.55929E-03 3.49652E-04-2.93453E-14
 -1      3206 8.47173E-03 3.12342E-04-2.90881E-14
 -1      3207 9.00457E-03 3.56210E-04-3.24587E-14
 -1      3208 8.85498E-03 3.52222E-04-3.14054E-14
 -1      3209 8.76327E-03 3.11812E-04-3.11369E-14
 -1      3210 9.30850E-03 3.71421E-04-3.46121E-14
 -1      3211 9.15570E-03 3.62419E-04-3.35276E-14
 -1      3212 9.05944E-03 3.17384E-04-3.32488E-14
 -1      3213 9.62046E-03 3.99308E-04-3.68294E-14
 -1      3214 9.46342E-03 3.83476E-04-3.57122E-14
 -1      3215 9.36258E-03 3.32084E-04-3.54236E-14
 -1      3216 9.94224E-03 4.43649E-04-3.91149E-14
 -1      3217 9.78018E-03 4.19106E-04-3.79627E-14
 -1      3218 9.67546E-03 3.59765E-04-3.76613E-14
 -1      3219 1.02742E-02 5.07439E-04-4.14742E-14
 -1      3220 1.01072E-02 4.72966E-04-4.02859E-14
 -1      3221 1.00007E-02 4.05036E-04-3.99697E-14
 -1      3222 1.06136E-02 5.90113E-04-4.39090E-14
 -1      3223 1.04436E-02 5.46705E-04-4.26820E-14
 -1      3224 1.03390E-02 4.72078E-04-4.23534E-14
 -1      3225 1.09535E-02 6.83603E-04-4.64183E-14
 -1      3226 1.07841E-02 6.36528E-04-4.51538E-14
 -1      3227 1.06868E-02 5.61313E-04-4.48100E-14
 -1      3228 1.12852E-02 7.67924E-04-4.90035E-14
 -1      3229 1.11209E-02 7.29075E-04-4.77019E-14
 -1      3230 1.10354E-02 6.63077E-04-4.73427E-14
 -1      3231 1.16037E-02 8.12449E-04-5.16664E-14
 -1      3232 1.14455E-02 7.97473E-04-5.03254E-14
 -1      3233 1.13739E-02 7.52766E-04-4.99496E-14
 -1      3234 1.19762E-02 7.65693E-04-5.50215E-14
 -1      3235 1.18175E-02 7.91127E-04-5.36391E-14
 -1      3236 1.25576E-02 5.66017E-04-6.00895E-14
 -1      3237 1.23920E-02 6.37943E-04-5.86424E-14
 -1      3238 1.28954E-02 4.11368E-04-6.30358E-14
 -1      3239 1.27263E-02 4.88891E-04-6.15528E-14
 -1      3240 1.26865E-02 4.80766E-04-6.11176E-14
 -1      3241 1.32328E-02 2.60144E-04-6.60379E-14
 -1      3242 1.30649E-02 3.34481E-04-6.45288E-14
 -1      3243 1.30366E-02 3.19668E-04-6.40854E-14
 -1      3244 1.44862E-02-7.09849E-04-7.76308E-14
 -1      3245 9.69939E-03-2.44134E-04-4.58037E-14
 -1      3246 9.59863E-03-2.14867E-04-4.52530E-14
 -1      3247 1.01656E-03 6.82161E-05-5.74383E-16
 -1      3248 1.01539E-03 4.12299E-05-5.92923E-16
 -1      3249 1.47369E-02-5.34816E-04-7.56027E-14
 -1      3250 1.47583E-02-5.12849E-04-7.52977E-14
 -1      3251 1.46869E-02-4.54564E-04-7.44478E-14
 -1      3252 1.46182E-02-4.26321E-04-7.41225E-14
 -1      3253 1.45452E-02-5.84069E-04-7.49522E-14
 -1      3254 1.46101E-02-5.49422E-04-7.46547E-14
 -1      3255 1.47568E-02-4.95400E-04-7.49903E-14
 -1      3256 1.47308E-02-4.75802E-04-7.46798E-14
 -1      3257 1.46824E-02-4.94522E-04-7.38854E-14
 -1      3258 1.23251E-02 6.02665E-04-5.80558E-14
 -1      3259 1.24881E-02 5.13555E-04-5.93055E-14
 -1      3260 1.39552E-02-6.58906E-05-7.22804E-14
 -1      3261 9.87724E-03-3.11962E-04-4.65035E-14
 -1      3262 3.54059E-03 4.24593E-04-4.57841E-15
 -1      3263 3.39776E-03 4.24492E-04-4.19829E-15
 -1      3264 3.32316E-03 3.86859E-04-4.12238E-15
 -1      3265 3.60956E-03 3.87077E-04-4.89187E-15
 -1      3266 1.82456E-03 3.81213E-04-1.15226E-15
 -1      3267 1.68120E-03 3.69619E-04-9.74738E-16
 -1      3268 1.88825E-03 3.50496E-04-1.30594E-15
 -1      3269 1.44458E-03-3.13793E-04-1.21887E-15
 -1      3270 1.58808E-03-3.28272E-04-1.44066E-15
 -1      3271 1.65237E-03-3.00192E-04-1.55214E-15
 -1      3272 1.41776E-02-3.63430E-04-6.84577E-14
 -1      3273 1.43235E-02-4.05634E-04-6.91833E-14
 -1      3274 1.12112E-02 5.74068E-04-4.98087E-14
 -1      3275 1.13731E-02 6.54870E-04-5.07428E-14
 -1      3276 1.00438E-02-1.06717E-05-4.54013E-14
 -1      3277 1.02039E-02 5.92153E-05-4.57249E-14
 -1      3278 1.14500E-03 3.10602E-04-4.41026E-16
 -1      3279 1.08236E-03 2.71674E-04-4.31296E-16
 -1      3280 1.20146E-03 2.73112E-04-5.50287E-16
 -1      3281 1.28816E-03 3.32576E-04-5.58256E-16
 -1      3282 1.45300E-02-4.82559E-04-7.13019E-14
 -1      3283 1.44790E-02-4.94670E-04-7.11702E-14
 -1      3284 1.40735E-02-6.35267E-04-7.07424E-14
 -1      3285 1.38826E-02-7.07961E-04-7.01028E-14
 -1      3286 1.28089E-02-1.23505E-03-6.44337E-14
 -1      3287 8.87890E-04-2.11844E-04-5.33780E-16
 -1      3288 1.08204E-02 3.45996E-04-4.81400E-14
 -1      3289 1.10073E-02 4.59846E-04-4.88450E-14
 -1      3290 1.30884E-02 1.54712E-04-6.32475E-14
 -1      3291 1.32155E-02 9.37759E-05-6.41322E-14
 -1      3292 1.29607E-02 2.47669E-04-6.26524E-14
 -1      3293 1.01479E-03 1.44499E-05-6.09593E-16
 -1      3294 1.01476E-03-1.22310E-05-6.25097E-16
 -1      3295 1.13548E-03 3.01698E-05-7.28611E-16
 -1      3296 1.15307E-03 2.11843E-04-5.76131E-16
 -1      3297 1.02832E-03 1.81190E-04-4.83839E-16
 -1      3298 1.02414E-03 1.51859E-04-5.09399E-16
 -1      3299 1.44878E-02-5.21254E-04-7.22704E-14
 -1      3300 1.02884E-02 1.08358E-04-4.57702E-14
 -1      3301 1.03685E-02 1.60459E-04-4.58157E-14
 -1      3302 1.01504E-02 8.17187E-05-4.48479E-14
 -1      3303 1.44248E-02-4.27691E-04-7.02156E-14
 -1      3304 9.64568E-03-1.37177E-04-4.45474E-14
 -1      3305 9.66551E-03-1.05829E-04-4.39022E-14
 -1      3306 9.91599E-03-2.75413E-05-4.45081E-14
 -1      3307 1.36866E-02-8.03207E-04-6.95767E-14
 -1      3308 1.18783E-03-2.78799E-04-8.67213E-16
 -1      3309 1.31608E-03-2.97338E-04-1.03559E-15
 -1      3310 1.38020E-03-2.73483E-04-1.13253E-15
 -1      3311 9.74799E-03-2.80955E-04-4.54048E-14
 -1      3312 1.44789E-02-6.72460E-04-7.65824E-14
 -1      3313 2.25421E-03 4.05294E-04-1.78218E-15
 -1      3314 2.17561E-03 3.65696E-04-1.73592E-15
 -1      3315 2.39730E-03 4.10482E-04-2.02505E-15
 -1      3316 1.01425E-03-2.34426E-04-6.66500E-16
 -1      3317 2.74982E-03 3.81871E-04-2.79346E-15
 -1      3318 2.68332E-03 4.17816E-04-2.56063E-15
 -1      3319 2.54034E-03 4.14619E-04-2.28445E-15
 -1      3320 1.17560E-02 7.75614E-04-5.32381E-14
 -1      3321 1.21052E-02 7.39273E-04-5.61249E-14
 -1      3322 1.21182E-02 7.05100E-04-5.63322E-14
 -1      3323 1.22369E-02 6.49718E-04-5.73546E-14
 -1      3324 1.22665E-02 6.83776E-04-5.75414E-14
 -1      3325 1.23821E-02 6.14426E-04-5.85504E-14
 -1      3326 1.33765E-02 1.93147E-04-6.72869E-14
 -1      3327 1.33584E-02 1.74856E-04-6.68362E-14
 -1      3328 1.35193E-02 1.28259E-04-6.85418E-14
 -1      3329 1.01836E-03 9.54811E-05-5.54366E-16
 -1      3330 1.13814E-03 8.85750E-05-6.85663E-16
 -1      3331 1.02083E-03 1.23254E-04-5.32682E-16
 -1      3332 1.43188E-02-2.99180E-04-7.28981E-14
 -1      3333 1.42156E-02-2.46597E-04-7.25454E-14
 -1      3334 1.38147E-02-8.72012E-06-7.10040E-14
 -1      3335 1.36726E-02 5.09882E-05-6.97354E-14
 -1      3336 1.39677E-02-9.97567E-05-7.17451E-14
 -1      3337 1.26206E-02 4.47928E-04-6.03134E-14
 -1      3338 1.45172E-02-3.89750E-04-7.35908E-14
 -1      3339 1.44210E-02-3.47721E-04-7.32448E-14
 -1      3340 1.42450E-02-2.99815E-04-7.17207E-14
 -1      3341 1.46310E-02-4.56184E-04-7.33514E-14
 -1      3342 1.45251E-02-6.38394E-04-7.62202E-14
 -1      3343 1.43601E-02-6.10902E-04-7.35624E-14
 -1      3344 9.50947E-03-1.98295E-04-4.40647E-14
 -1      3345 9.52399E-03-1.91654E-04-4.46014E-14
 -1      3346 1.55630E-03 3.61545E-04-8.26325E-16
 -1      3347 1.41294E-03 3.45359E-04-6.79022E-16
 -1      3348 1.36910E-03 3.15111E-04-6.75661E-16
 -1      3349 1.61929E-03 3.33937E-04-9.55684E-16
 -1      3350 9.51300E-03-1.81255E-04-4.45345E-14
 -1      3351 1.06931E-02 3.04748E-04-4.72768E-14
 -1      3352 1.10614E-02 5.21176E-04-4.87596E-14
 -1      3353 1.41370E-02-2.01415E-04-7.23205E-14
 -1      3354 1.40402E-02-1.45684E-04-7.19770E-14
 -1      3355 1.38953E-02-9.43374E-05-7.07030E-14
 -1      3356 1.40516E-02-1.94075E-04-7.11538E-14
 -1      3357 1.36049E-02-1.29487E-04-6.58571E-14
 -1      3358 1.37447E-02-1.81457E-04-6.68573E-14
 -1      3359 1.35099E-02-6.57934E-05-6.57209E-14
 -1      3360 1.40896E-02-3.25284E-04-6.83709E-14
 -1      3361 1.42219E-02-6.13856E-04-7.19905E-14
 -1      3362 1.02366E-03-1.49129E-04-6.81014E-16
 -1      3363 1.02771E-03-1.78366E-04-6.87330E-16
 -1      3364 9.57585E-03-1.58216E-04-4.46220E-14
 -1      3365 1.18181E-02 7.55672E-04-5.38864E-14
 -1      3366 1.44699E-02-3.95410E-04-7.25931E-14
 -1      3367 1.02047E-03-1.20720E-04-6.72883E-16
 -1      3368 1.14328E-03-1.45923E-04-8.18153E-16
 -1      3369 1.01809E-03-9.30058E-05-6.62990E-16
 -1      3370 1.15925E-02 7.61868E-04-5.19276E-14
 -1      3371 2.15041E-03-2.93445E-04-2.48023E-15
 -1      3372 2.29476E-03-2.98349E-04-2.78782E-15
 -1      3373 2.43912E-03-3.02295E-04-3.11353E-15
 -1      3374 2.58344E-03-3.05381E-04-3.45669E-15
 -1      3375 2.36222E-03-2.63645E-04-2.92443E-15
 -1      3376 2.72771E-03-3.07770E-04-3.81688E-15
 -1      3377 2.87191E-03-3.09534E-04-4.19542E-15
 -1      3378 2.65149E-03-2.69321E-04-3.60417E-15
 -1      3379 3.01603E-03-3.10804E-04-4.59082E-15
 -1      3380 3.16007E-03-3.11633E-04-5.00361E-15
 -1      3381 2.94055E-03-2.72585E-04-4.35417E-15
 -1      3382 3.30404E-03-3.12118E-04-5.43398E-15
 -1      3383 3.44790E-03-3.12297E-04-5.88050E-15
 -1      3384 3.22926E-03-2.74133E-04-5.17315E-15
 -1      3385 3.59169E-03-3.12241E-04-6.34478E-15
 -1      3386 3.73539E-03-3.11976E-04-6.82637E-15
 -1      3387 3.51758E-03-2.74485E-04-6.06036E-15
 -1      3388 3.87902E-03-3.11550E-04-7.32617E-15
 -1      3389 4.02256E-03-3.10978E-04-7.84343E-15
 -1      3390 3.80549E-03-2.74017E-04-7.01640E-15
 -1      3391 4.16603E-03-3.10293E-04-8.37829E-15
 -1      3392 4.30943E-03-3.09501E-04-8.93197E-15
 -1      3393 4.09299E-03-2.72984E-04-8.04322E-15
 -1      3394 4.45276E-03-3.08622E-04-9.50343E-15
 -1      3395 4.59602E-03-3.07655E-04-1.00928E-14
 -1      3396 4.38012E-03-2.71543E-04-9.14237E-15
 -1      3397 4.73921E-03-3.06610E-04-1.07004E-14
 -1      3398 4.88234E-03-3.05482E-04-1.13266E-14
 -1      3399 4.66688E-03-2.69779E-04-1.03146E-14
 -1      3400 5.02540E-03-3.04272E-04-1.19717E-14
 -1      3401 5.16839E-03-3.02972E-04-1.26350E-14
 -1      3402 4.95328E-03-2.67719E-04-1.15597E-14
 -1      3403 5.31131E-03-3.01577E-04-1.33164E-14
 -1      3404 5.45416E-03-3.00076E-04-1.40163E-14
 -1      3405 5.23931E-03-2.65345E-04-1.28792E-14
 -1      3406 5.59692E-03-2.98462E-04-1.47348E-14
 -1      3407 5.73959E-03-2.96721E-04-1.54730E-14
 -1      3408 5.52494E-03-2.62608E-04-1.42725E-14
 -1      3409 5.88216E-03-2.94845E-04-1.62294E-14
 -1      3410 6.02462E-03-2.92819E-04-1.70046E-14
 -1      3411 5.81010E-03-2.59440E-04-1.57412E-14
 -1      3412 6.16695E-03-2.90638E-04-1.77990E-14
 -1      3413 6.30914E-03-2.88285E-04-1.86110E-14
 -1      3414 6.09468E-03-2.55765E-04-1.72854E-14
 -1      3415 6.45115E-03-2.85761E-04-1.94399E-14
 -1      3416 6.59299E-03-2.83051E-04-2.02871E-14
 -1      3417 6.37853E-03-2.51514E-04-1.89028E-14
 -1      3418 6.73458E-03-2.80166E-04-2.11522E-14
 -1      3419 6.87594E-03-2.77094E-04-2.20335E-14
 -1      3420 6.66144E-03-2.46647E-04-2.05896E-14
 -1      3421 7.01699E-03-2.73863E-04-2.29323E-14
 -1      3422 7.15773E-03-2.70464E-04-2.38487E-14
 -1      3423 6.94311E-03-2.41169E-04-2.23456E-14
 -1      3424 7.29805E-03-2.66954E-04-2.47823E-14
 -1      3425 7.43796E-03-2.63326E-04-2.57330E-14
 -1      3426 7.22318E-03-2.35170E-04-2.41697E-14
 -1      3427 7.57733E-03-2.59675E-04-2.67006E-14
 -1      3428 7.71617E-03-2.56001E-04-2.76857E-14
 -1      3429 7.50116E-03-2.28853E-04-2.60640E-14
 -1      3430 7.85432E-03-2.52449E-04-2.86864E-14
 -1      3431 7.99178E-03-2.49026E-04-2.97039E-14
 -1      3432 7.77646E-03-2.22583E-04-2.80250E-14
 -1      3433 8.12838E-03-2.45937E-04-3.07381E-14
 -1      3434 8.26413E-03-2.43196E-04-3.17887E-14
 -1      3435 8.04834E-03-2.16920E-04-3.00522E-14
 -1      3436 8.39882E-03-2.41079E-04-3.28546E-14
 -1      3437 8.53251E-03-2.39605E-04-3.39377E-14
 -1      3438 8.31594E-03-2.12652E-04-3.21451E-14
 -1      3439 8.66496E-03-2.39118E-04-3.50367E-14
 -1      3440 8.79632E-03-2.39644E-04-3.61510E-14
 -1      3441 8.57827E-03-2.10792E-04-3.43020E-14
 -1      3442 8.92629E-03-2.41582E-04-3.72795E-14
 -1      3443 9.05528E-03-2.44981E-04-3.84206E-14
 -1      3444 8.83433E-03-2.12523E-04-3.65217E-14
 -1      3445 9.18286E-03-2.50272E-04-3.95753E-14
 -1      3446 9.30998E-03-2.57597E-04-4.07460E-14
 -1      3447 9.08316E-03-2.19107E-04-3.87973E-14
 -1      3448 9.43593E-03-2.67304E-04-4.19289E-14
 -1      3449 9.56275E-03-2.79957E-04-4.31229E-14
 -1      3450 9.32436E-03-2.31729E-04-4.11287E-14
 -1      3451 9.65232E-03-2.71545E-04-4.43290E-14
 -1      3452 9.78479E-03-3.21784E-05-4.34002E-14
 -1      3453 9.92466E-03 2.19594E-05-4.36907E-14
 -1      3454 1.33135E-02-9.71374E-04-6.75212E-14
 -1      3455 1.46006E-02-4.83494E-04-7.24263E-14
 -1      3456 1.45842E-02-4.65283E-04-7.21227E-14
 -1      3457 9.47523E-03-1.56093E-04-4.35120E-14
 -1      3458 4.25222E-03 3.47232E-04-7.01631E-15
 -1      3459 4.10898E-03 3.47965E-04-6.53806E-15
 -1      3460 3.96568E-03 3.48578E-04-6.07797E-15
 -1      3461 3.82233E-03 3.49063E-04-5.63529E-15
 -1      3462 4.03581E-03 3.10679E-04-6.42706E-15
 -1      3463 4.82473E-03 3.43374E-04-9.11665E-15
 -1      3464 4.68167E-03 3.44469E-04-8.56312E-15
 -1      3465 5.11072E-03 3.40923E-04-1.02788E-14
 -1      3466 4.96775E-03 3.42195E-04-9.68842E-15
 -1      3467 4.89557E-03 3.05597E-04-9.54376E-15
 -1      3468 5.39653E-03 3.38081E-04-1.15172E-14
 -1      3469 5.25365E-03 3.39555E-04-1.08885E-14
 -1      3470 5.18160E-03 3.03236E-04-1.07338E-14
 -1      3471 5.68216E-03 3.34777E-04-1.28321E-14
 -1      3472 5.53937E-03 3.36493E-04-1.21647E-14
 -1      3473 5.46735E-03 3.00494E-04-1.19992E-14
 -1      3474 5.96757E-03 3.30921E-04-1.42188E-14
 -1      3475 5.82489E-03 3.32924E-04-1.35160E-14
 -1      3476 5.75278E-03 2.97297E-04-1.33390E-14
 -1      3477 6.25273E-03 3.26421E-04-1.56793E-14
 -1      3478 6.11018E-03 3.28758E-04-1.49398E-14
 -1      3479 6.03784E-03 2.93555E-04-1.47524E-14
 -1      3480 6.53762E-03 3.21202E-04-1.72121E-14
 -1      3481 6.39521E-03 3.23907E-04-1.64379E-14
 -1      3482 6.32248E-03 2.89178E-04-1.62401E-14
 -1      3483 6.82220E-03 3.15222E-04-1.88124E-14
 -1      3484 6.67994E-03 3.18310E-04-1.80039E-14
 -1      3485 6.60662E-03 2.84091E-04-1.77966E-14
 -1      3486 7.10645E-03 3.08505E-04-2.04808E-14
 -1      3487 6.96435E-03 3.11954E-04-1.96378E-14
 -1      3488 6.89020E-03 2.78249E-04-1.94215E-14
 -1      3489 7.39042E-03 3.01176E-04-2.22176E-14
 -1      3490 7.24846E-03 3.04908E-04-2.13409E-14
 -1      3491 7.17316E-03 2.71669E-04-2.11150E-14
 -1      3492 7.67423E-03 2.93502E-04-2.40204E-14
 -1      3493 7.53232E-03 2.97362E-04-2.31103E-14
 -1      3494 7.45550E-03 2.64453E-04-2.28759E-14
 -1      3495 7.95815E-03 2.85954E-04-2.58908E-14
 -1      3496 7.81614E-03 2.89677E-04-2.49473E-14
 -1      3497 7.73732E-03 2.56834E-04-2.47029E-14
 -1      3498 8.24270E-03 2.79269E-04-2.78304E-14
 -1      3499 8.10029E-03 2.82444E-04-2.68518E-14
 -1      3500 8.01888E-03 2.49220E-04-2.65976E-14
 -1      3501 8.52876E-03 2.74546E-04-2.98366E-14
 -1      3502 8.38546E-03 2.76569E-04-2.88259E-14
 -1      3503 8.30075E-03 2.42258E-04-2.85603E-14
 -1      3504 8.81775E-03 2.73363E-04-3.19096E-14
 -1      3505 8.67277E-03 2.73368E-04-3.08654E-14
 -1      3506 8.58390E-03 2.36929E-04-3.05903E-14
 -1      3507 9.11179E-03 2.77955E-04-3.40411E-14
 -1      3508 8.96398E-03 2.74718E-04-3.29671E-14
 -1      3509 8.86998E-03 2.34683E-04-3.26842E-14
 -1      3510 9.41382E-03 2.91458E-04-3.62371E-14
 -1      3511 9.26162E-03 2.83265E-04-3.51319E-14
 -1      3512 9.16148E-03 2.37687E-04-3.48369E-14
 -1      3513 9.72740E-03 3.18178E-04-3.84975E-14
 -1      3514 9.56901E-03 3.02718E-04-3.73591E-14
 -1      3515 9.46201E-03 2.49234E-04-3.70540E-14
 -1      3516 1.00561E-02 3.63824E-04-4.08285E-14
 -1      3517 9.88984E-03 3.38038E-04-3.96540E-14
 -1      3518 9.77598E-03 2.74311E-04-3.93371E-14
 -1      3519 1.04021E-02 4.34308E-04-4.32350E-14
 -1      3520 1.02275E-02 3.95532E-04-4.20232E-14
 -1      3521 1.01086E-02 3.19841E-04-4.16916E-14
 -1      3522 1.07610E-02 5.31420E-04-4.57154E-14
 -1      3523 1.05808E-02 4.79675E-04-4.44655E-14
 -1      3524 1.04627E-02 3.95071E-04-4.41195E-14
 -1      3525 1.12315E-02 6.67442E-04-4.91818E-14
 -1      3526 1.10529E-02 6.10312E-04-4.78839E-14
 -1      3527 1.14063E-02 7.16722E-04-5.04971E-14
 -1      3528 1.23351E-02 6.18097E-04-5.81558E-14
 -1      3529 1.24680E-02 5.62900E-04-5.92643E-14
 -1      3530 1.29579E-02 2.99712E-04-6.30695E-14
 -1      3531 1.27713E-02 3.89371E-04-6.15859E-14
 -1      3532 1.45380E-02-4.44301E-04-7.18961E-14
 -1      3533 1.05354E-02 2.61005E-04-4.61631E-14
 -1      3534 1.06950E-02 3.56666E-04-4.66827E-14
 -1      3535 1.45524E-02-5.26136E-04-7.32462E-14
 -1      3536 9.49867E-03-2.10286E-04-4.35636E-14
 -1      3537 9.42190E-03-1.86302E-04-4.29247E-14
 -1      3538 9.57794E-03-8.98620E-05-4.27915E-14
 -1      3539 9.67554E-03-6.58260E-05-4.30964E-14
 -1      3540 9.67634E-03-2.16354E-05-4.22915E-14
 -1      3541 1.32534E-02 1.94969E-04-6.56981E-14
 -1      3542 1.30746E-02 2.72489E-04-6.41915E-14
 -1      3543 1.31943E-02 1.62000E-04-6.46676E-14
 -1      3544 1.34060E-02 1.26171E-04-6.69456E-14
 -1      3545 1.35169E-02-8.95380E-04-6.90539E-14
 -1      3546 1.57401E-03-2.60740E-04-1.42701E-15
 -1      3547 1.71782E-03-2.71218E-04-1.66361E-15
 -1      3548 4.53857E-03 3.45478E-04-8.02903E-15
 -1      3549 4.39542E-03 3.46402E-04-7.51385E-15
 -1      3550 4.32268E-03 3.09333E-04-7.39187E-15
 -1      3551 4.60926E-03 3.07626E-04-8.43028E-15
 -1      3552 1.01528E-03-3.89410E-05-6.39164E-16
 -1      3553 1.01637E-03-6.57844E-05-6.51849E-16
 -1      3554 1.13789E-03-8.59953E-05-7.95005E-16
 -1      3555 3.10463E-03 3.48300E-04-3.68869E-15
 -1      3556 2.96089E-03 3.47174E-04-3.35116E-15
 -1      3557 1.95317E-03 3.19073E-04-1.46553E-15
 -1      3558 1.80918E-03 3.10477E-04-1.26201E-15
 -1      3559 1.14524E-02 6.98036E-04-5.11341E-14
 -1      3560 1.86187E-03-2.80050E-04-1.91839E-15
 -1      3561 2.00610E-03-2.87388E-04-2.19045E-15
 -1      3562 2.07300E-03-2.54673E-04-2.31466E-15
 -1      3563 1.39851E-02-2.74841E-04-6.83042E-14
 -1      3564 1.42081E-02-3.47865E-04-6.96907E-14
 -1      3565 1.42373E-02-3.28882E-04-7.08404E-14
 -1      3566 1.41194E-02-2.71665E-04-7.05007E-14
 -1      3567 1.19875E-03-2.15988E-04-8.91661E-16
 -1      3568 1.07915E-03-2.16814E-04-7.44874E-16
 -1      3569 1.08784E-02 5.15577E-04-4.69443E-14
 -1      3570 1.44359E-02-4.11172E-04-7.14319E-14
 -1      3571 1.43180E-02-3.68602E-04-7.09113E-14
 -1      3572 1.25747E-03 4.78602E-05-8.56750E-16
 -1      3573 1.25674E-03 1.67873E-05-8.79518E-16
 -1      3574 1.27929E-03 2.42936E-04-6.75499E-16
 -1      3575 1.27315E-03 2.08731E-04-7.11874E-16
 -1      3576 9.99431E-03 5.93409E-05-4.37316E-14
 -1      3577 1.00644E-02 1.00746E-04-4.37724E-14
 -1      3578 9.84738E-03 4.77905E-05-4.26299E-14
 -1      3579 1.25893E-03 7.90169E-05-8.32328E-16
 -1      3580 1.38065E-03 6.71085E-05-9.93482E-16
 -1      3581 1.26113E-03 1.10508E-04-8.05481E-16
 -1      3582 3.39190E-03 3.49408E-04-4.41388E-15
 -1      3583 3.24831E-03 3.49030E-04-4.04279E-15
 -1      3584 3.17325E-03 3.11035E-04-3.95826E-15
 -1      3585 9.52778E-03-2.31450E-04-4.35071E-14
 -1      3586 1.78426E-03-2.41324E-04-1.77544E-15
 -1      3587 2.46282E-03 3.75690E-04-2.23164E-15
 -1      3588 2.81708E-03 3.45542E-04-3.03170E-15
 -1      3589 2.67321E-03 3.43340E-04-2.72924E-15
 -1      3590 2.88505E-03 3.08893E-04-3.27543E-15
 -1      3591 9.39879E-03-1.54296E-04-4.26298E-14
 -1      3592 9.46641E-03-1.28882E-04-4.27132E-14
 -1      3593 1.13540E-03-2.77036E-05-7.64945E-16
 -1      3594 3.74863E-03 3.11558E-04-5.53313E-15
 -1      3595 3.67891E-03 3.49381E-04-5.21023E-15
 -1      3596 3.53544E-03 3.49515E-04-4.80314E-15
 -1      3597 1.14374E-03 1.48731E-04-6.35275E-16
 -1      3598 9.45277E-03-9.94033E-05-4.19200E-14
 -1      3599 9.44055E-03-6.56416E-05-4.11303E-14
 -1      3600 9.34289E-03-1.03576E-04-4.10566E-14
 -1      3601 1.46081E-02-5.06104E-04-7.32108E-14
 -1      3602 1.26377E-03-1.39734E-04-9.66512E-16
 -1      3603 1.26758E-03-1.72258E-04-9.78167E-16
 -1      3604 9.41942E-03-2.17748E-04-4.23732E-14
 -1      3605 1.29654E-03-2.01072E-04-1.01973E-15
 -1      3606 1.34915E-03-2.42250E-04-1.09170E-15
 -1      3607 1.47748E-03-2.55812E-04-1.27803E-15
 -1      3608 1.41743E-03-1.94322E-04-1.18648E-15
 -1      3609 1.26586E-02 4.47046E-04-6.07206E-14
 -1      3610 1.68356E-03 3.05481E-04-1.09086E-15
 -1      3611 1.55811E-03 2.98880E-04-9.33091E-16
 -1      3612 1.74891E-03 2.76128E-04-1.23230E-15
 -1      3613 1.38918E-02-2.23177E-04-6.81667E-14
 -1      3614 9.32017E-03-1.71532E-04-4.16545E-14
 -1      3615 9.35523E-03-1.61899E-04-4.21421E-14
 -1      3616 9.30907E-03-1.38355E-04-4.13598E-14
 -1      3617 2.24124E-03 3.32004E-04-1.92152E-15
 -1      3618 2.09719E-03 3.26203E-04-1.68546E-15
 -1      3619 2.01911E-03 2.86971E-04-1.63105E-15
 -1      3620 1.39478E-02-1.80108E-04-6.99086E-14
 -1      3621 1.38624E-02-1.25423E-04-6.96862E-14
 -1      3622 1.54355E-03-2.29102E-04-1.37803E-15
 -1      3623 1.03868E-02 2.19460E-04-4.52320E-14
 -1      3624 1.39300E-02-2.09522E-04-6.90391E-14
 -1      3625 1.45812E-02-4.89306E-04-7.22736E-14
 -1      3626 1.32706E-02 9.65170E-05-6.48970E-14
 -1      3627 1.34059E-02 6.94413E-06-6.54995E-14
 -1      3628 1.35465E-02-5.24085E-05-6.64954E-14
 -1      3629 1.33739E-02 8.13485E-05-6.60377E-14
 -1      3630 2.57545E-03-2.30937E-04-3.39678E-15
 -1      3631 2.72032E-03-2.32866E-04-3.75069E-15
 -1      3632 2.86512E-03-2.34319E-04-4.12211E-15
 -1      3633 3.00985E-03-2.35344E-04-4.51113E-15
 -1      3634 2.78984E-03-1.96071E-04-3.89554E-15
 -1      3635 3.15448E-03-2.36035E-04-4.91717E-15
 -1      3636 3.29900E-03-2.36424E-04-5.34062E-15
 -1      3637 3.07975E-03-1.97869E-04-4.66627E-15
 -1      3638 3.44341E-03-2.36583E-04-5.78029E-15
 -1      3639 3.58770E-03-2.36532E-04-6.23670E-15
 -1      3640 3.36924E-03-1.98562E-04-5.50505E-15
 -1      3641 3.73187E-03-2.36325E-04-6.71190E-15
 -1      3642 3.87592E-03-2.35973E-04-7.20367E-15
 -1      3643 3.65822E-03-1.98488E-04-6.41201E-15
 -1      3644 4.01986E-03-2.35513E-04-7.71327E-15
 -1      3645 4.16368E-03-2.34950E-04-8.24094E-15
 -1      3646 3.94667E-03-1.97887E-04-7.38831E-15
 -1      3647 4.30738E-03-2.34308E-04-8.78658E-15
 -1      3648 4.45098E-03-2.33587E-04-9.35112E-15
 -1      3649 4.23459E-03-1.96917E-04-8.43607E-15
 -1      3650 4.59446E-03-2.32802E-04-9.93307E-15
 -1      3651 4.73784E-03-2.31947E-04-1.05334E-14
 -1      3652 4.52200E-03-1.95671E-04-9.55665E-15
 -1      3653 4.88111E-03-2.31030E-04-1.11525E-14
 -1      3654 5.02426E-03-2.30042E-04-1.17904E-14
 -1      3655 4.80890E-03-1.94191E-04-1.07506E-14
 -1      3656 5.16730E-03-2.28986E-04-1.24465E-14
 -1      3657 5.31021E-03-2.27851E-04-1.31205E-14
 -1      3658 5.09527E-03-1.92482E-04-1.20184E-14
 -1      3659 5.45300E-03-2.26636E-04-1.38145E-14
 -1      3660 5.59564E-03-2.25328E-04-1.45267E-14
 -1      3661 5.38109E-03-1.90522E-04-1.33610E-14
 -1      3662 5.73814E-03-2.23926E-04-1.52574E-14
 -1      3663 5.88047E-03-2.22414E-04-1.60067E-14
 -1      3664 5.66627E-03-1.88269E-04-1.47782E-14
 -1      3665 6.02260E-03-2.20793E-04-1.67764E-14
 -1      3666 6.16453E-03-2.19048E-04-1.75641E-14
 -1      3667 5.95071E-03-1.85676E-04-1.62714E-14
 -1      3668 6.30622E-03-2.17183E-04-1.83691E-14
 -1      3669 6.44765E-03-2.15181E-04-1.91909E-14
 -1      3670 6.23421E-03-1.82700E-04-1.78396E-14
 -1      3671 6.58877E-03-2.13059E-04-2.00313E-14
 -1      3672 6.72956E-03-2.10800E-04-2.08891E-14
 -1      3673 6.51656E-03-1.79318E-04-1.94775E-14
 -1      3674 6.86994E-03-2.08434E-04-2.17630E-14
 -1      3675 7.00989E-03-2.05944E-04-2.26539E-14
 -1      3676 6.79741E-03-1.75542E-04-2.11843E-14
 -1      3677 7.14932E-03-2.03385E-04-2.35630E-14
 -1      3678 7.28819E-03-2.00741E-04-2.44891E-14
 -1      3679 7.07637E-03-1.71448E-04-2.29601E-14
 -1      3680 7.42640E-03-1.98095E-04-2.54323E-14
 -1      3681 7.56389E-03-1.95434E-04-2.63927E-14
 -1      3682 7.35290E-03-1.67200E-04-2.48054E-14
 -1      3683 7.70053E-03-1.92883E-04-2.73679E-14
 -1      3684 7.83627E-03-1.90425E-04-2.83613E-14
 -1      3685 7.62634E-03-1.63082E-04-2.67164E-14
 -1      3686 7.97093E-03-1.88238E-04-2.93712E-14
 -1      3687 8.10445E-03-1.86296E-04-3.03958E-14
 -1      3688 7.89587E-03-1.59529E-04-2.86932E-14
 -1      3689 8.23661E-03-1.84840E-04-3.14386E-14
 -1      3690 8.36736E-03-1.83822E-04-3.24970E-14
 -1      3691 8.16048E-03-1.57143E-04-3.07362E-14
 -1      3692 8.49641E-03-1.83553E-04-3.35714E-14
 -1      3693 8.62373E-03-1.83937E-04-3.46623E-14
 -1      3694 8.41889E-03-1.56684E-04-3.28453E-14
 -1      3695 8.74894E-03-1.85364E-04-3.57690E-14
 -1      3696 8.87206E-03-1.87641E-04-3.68885E-14
 -1      3697 8.66951E-03-1.59019E-04-3.50187E-14
 -1      3698 8.99255E-03-1.91249E-04-3.80225E-14
 -1      3699 9.11058E-03-1.95830E-04-3.91698E-14
 -1      3700 8.91028E-03-1.64994E-04-3.72512E-14
 -1      3701 9.21077E-03-2.02266E-04-4.01724E-14
 -1      3702 9.32348E-03-2.09121E-04-4.13462E-14
 -1      3703 9.31099E-03-1.89513E-04-4.14027E-14
 -1      3704 9.12379E-03-1.75452E-04-3.93822E-14
 -1      3705 4.10621E-03 2.72713E-04-6.78048E-15
 -1      3706 3.96251E-03 2.73226E-04-6.31235E-15
 -1      3707 1.25669E-03-1.41554E-05-9.00498E-16
 -1      3708 1.25734E-03-4.51513E-05-9.19905E-16
 -1      3709 1.37905E-03 1.42816E-06-1.04543E-15
 -1      3710 5.25247E-03 2.65648E-04-1.11929E-14
 -1      3711 5.10951E-03 2.66805E-04-1.05751E-14
 -1      3712 4.96646E-03 2.67875E-04-9.97700E-15
 -1      3713 4.82331E-03 2.68871E-04-9.39683E-15
 -1      3714 5.03738E-03 2.30243E-04-1.04141E-14
 -1      3715 5.82324E-03 2.60017E-04-1.38509E-14
 -1      3716 5.68072E-03 2.61597E-04-1.31590E-14
 -1      3717 6.10788E-03 2.56450E-04-1.52919E-14
 -1      3718 5.96563E-03 2.58307E-04-1.45629E-14
 -1      3719 5.89356E-03 2.22970E-04-1.43683E-14
 -1      3720 6.39192E-03 2.52266E-04-1.68039E-14
 -1      3721 6.24998E-03 2.54443E-04-1.60384E-14
 -1      3722 6.17772E-03 2.19643E-04-1.58349E-14
 -1      3723 6.67522E-03 2.47386E-04-1.83856E-14
 -1      3724 6.53366E-03 2.49920E-04-1.75861E-14
 -1      3725 6.46107E-03 2.15721E-04-1.73718E-14
 -1      3726 6.95770E-03 2.41761E-04-2.00343E-14
 -1      3727 6.81657E-03 2.44672E-04-1.92015E-14
 -1      3728 6.74346E-03 2.11125E-04-1.89786E-14
 -1      3729 7.23924E-03 2.35390E-04-2.17531E-14
 -1      3730 7.09858E-03 2.38671E-04-2.08852E-14
 -1      3731 7.02473E-03 2.05794E-04-2.06523E-14
 -1      3732 7.51980E-03 2.28347E-04-2.35387E-14
 -1      3733 7.37963E-03 2.31950E-04-2.26367E-14
 -1      3734 7.30474E-03 1.99703E-04-2.23949E-14
 -1      3735 7.79945E-03 2.20808E-04-2.53887E-14
 -1      3736 7.65972E-03 2.24629E-04-2.44546E-14
 -1      3737 7.58339E-03 1.92884E-04-2.42042E-14
 -1      3738 8.07843E-03 2.13101E-04-2.73087E-14
 -1      3739 7.93898E-03 2.16952E-04-2.63416E-14
 -1      3740 7.86068E-03 1.85444E-04-2.60799E-14
 -1      3741 8.35731E-03 2.05753E-04-2.92941E-14
 -1      3742 8.21781E-03 2.09337E-04-2.82926E-14
 -1      3743 8.13685E-03 1.77601E-04-2.80226E-14
 -1      3744 8.63714E-03 1.99591E-04-3.13467E-14
 -1      3745 8.49699E-03 2.02444E-04-3.03129E-14
 -1      3746 8.41241E-03 1.69733E-04-3.00331E-14
 -1      3747 8.91971E-03 1.95900E-04-3.34608E-14
 -1      3748 8.77791E-03 1.97295E-04-3.23964E-14
 -1      3749 8.68844E-03 1.62470E-04-3.21061E-14
 -1      3750 9.20788E-03 1.96741E-04-3.56366E-14
 -1      3751 9.06283E-03 1.95506E-04-3.45412E-14
 -1      3752 8.96682E-03 1.56877E-04-3.42419E-14
 -1      3753 9.50585E-03 2.05537E-04-3.78750E-14
 -1      3754 9.35526E-03 1.99698E-04-3.67473E-14
 -1      3755 9.25066E-03 1.54853E-04-3.64389E-14
 -1      3756 9.81940E-03 2.28060E-04-4.01808E-14
 -1      3757 9.66019E-03 2.14373E-04-3.90189E-14
 -1      3758 9.54480E-03 1.59981E-04-3.86995E-14
 -1      3759 1.01085E-02 2.14553E-04-4.27874E-14
 -1      3760 9.94063E-03 1.91371E-04-4.15880E-14
 -1      3761 1.05966E-02 3.82268E-04-4.54690E-14
 -1      3762 1.04115E-02 3.33279E-04-4.42276E-14
 -1      3763 1.07533E-02 4.22806E-04-4.65796E-14
 -1      3764 1.36639E-02 3.02208E-05-6.92783E-14
 -1      3765 1.26082E-03-1.07806E-04-9.53081E-16
 -1      3766 1.38502E-03-1.30933E-04-1.12555E-15
 -1      3767 1.25871E-03-7.63518E-05-9.37496E-16
 -1      3768 1.48490E-03-1.68079E-04-1.27918E-15
 -1      3769 1.51385E-03-1.98227E-04-1.32896E-15
 -1      3770 1.61056E-03-2.01260E-04-1.47907E-15
 -1      3771 9.56629E-03-1.20911E-05-4.12209E-14
 -1      3772 9.66641E-03 2.07850E-05-4.15152E-14
 -1      3773 1.26814E-03 1.75304E-04-7.45403E-16
 -1      3774 1.26419E-03 1.42579E-04-7.76573E-16
 -1      3775 1.38540E-03 1.33833E-04-9.33254E-16
 -1      3776 1.39382E-03 2.02646E-04-8.62795E-16
 -1      3777 1.37942E-02-7.15061E-05-6.96019E-14
 -1      3778 1.37206E-02-1.89170E-05-6.93748E-14
 -1      3779 1.35577E-02 6.00869E-05-6.81874E-14
 -1      3780 1.36793E-02-4.81988E-05-6.83667E-14
 -1      3781 1.75444E-03-2.09232E-04-1.71702E-15
 -1      3782 1.89873E-03-2.15963E-04-1.97280E-15
 -1      3783 1.72527E-03-1.77663E-04-1.65863E-15
 -1      3784 1.36986E-02-1.14291E-04-6.75846E-14
 -1      3785 2.52926E-03 3.40423E-04-2.44345E-15
 -1      3786 2.38527E-03 3.36707E-04-2.17418E-15
 -1      3787 2.30782E-03 2.97781E-04-2.11312E-15
 -1      3788 2.28567E-03-2.25237E-04-2.74002E-15
 -1      3789 2.43055E-03-2.28417E-04-3.05963E-15
 -1      3790 2.49967E-03-1.92709E-04-3.19335E-15
 -1      3791 2.01971E-03-2.19001E-04-2.19971E-15
 -1      3792 2.16443E-03-2.23736E-04-2.48689E-15
 -1      3793 2.23313E-03-1.89517E-04-2.61050E-15
 -1      3794 1.99055E-03-1.86328E-04-2.13070E-15
 -1      3795 1.36046E-02-4.81329E-05-6.73568E-14
 -1      3796 1.32613E-03 2.85636E-04-6.69834E-16
 -1      3797 1.44604E-03 2.81021E-04-8.19196E-16
 -1      3798 5.53808E-03 2.63053E-04-1.24857E-14
 -1      3799 5.39532E-03 2.64402E-04-1.18306E-14
 -1      3800 5.60873E-03 2.25790E-04-1.29757E-14
 -1      3801 1.51126E-03 2.54949E-04-9.39502E-16
 -1      3802 1.34597E-02 7.30705E-05-6.70391E-14
 -1      3803 1.35346E-02 1.22258E-05-6.72743E-14
 -1      3804 3.46111E-03 3.11777E-04-4.71093E-15
 -1      3805 3.88910E-03 2.35614E-04-6.19353E-15
 -1      3806 3.81870E-03 2.73619E-04-5.86110E-15
 -1      3807 3.67480E-03 2.73883E-04-5.42757E-15
 -1      3808 1.50241E-03 1.87219E-05-1.19955E-15
 -1      3809 1.50236E-03-1.57213E-05-1.22668E-15
 -1      3810 1.38046E-03-6.43002E-05-1.08968E-15
 -1      3811 9.23420E-03-1.63583E-04-4.06353E-14
 -1      3812 2.95371E-03 2.71925E-04-3.52435E-15
 -1      3813 2.80921E-03 2.70540E-04-3.19517E-15
 -1      3814 2.08606E-03 2.54168E-04-1.80239E-15
 -1      3815 1.94157E-03 2.48228E-04-1.57327E-15
 -1      3816 5.32331E-03 2.28190E-04-1.16581E-14
 -1      3817 4.75099E-03 2.32003E-04-9.24698E-15
 -1      3818 4.68007E-03 2.69789E-04-8.83576E-15
 -1      3819 4.53675E-03 2.70638E-04-8.29455E-15
 -1      3820 1.02162E-02 1.82414E-04-4.41067E-14
 -1      3821 1.50506E-03 2.18205E-04-9.83507E-16
 -1      3822 1.49999E-03 1.82075E-04-1.02416E-15
 -1      3823 1.61674E-03 2.33281E-04-1.11173E-15
 -1      3824 9.26961E-03-1.14890E-04-4.05828E-14
 -1      3825 9.23546E-03-8.89098E-05-3.98093E-14
 -1      3826 9.20702E-03-1.24870E-04-4.01092E-14
 -1      3827 3.24245E-03 2.73532E-04-4.23415E-15
 -1      3828 3.09813E-03 2.72908E-04-3.87090E-15
 -1      3829 3.02301E-03 2.34695E-04-3.77888E-15
 -1      3830 1.48128E-03-1.32976E-04-1.26261E-15
 -1      3831 9.29291E-03-4.38874E-05-3.95235E-14
 -1      3832 9.42326E-03-3.12713E-05-4.03688E-14
 -1      3833 9.40229E-03 5.46104E-06-3.96095E-14
 -1      3834 4.24982E-03 2.72106E-04-7.26666E-15
 -1      3835 4.17685E-03 2.34722E-04-7.13844E-15
 -1      3836 4.39333E-03 2.71409E-04-7.77115E-15
 -1      3837 1.74257E-03 2.37291E-04-1.28508E-15
 -1      3838 9.60074E-03 5.47095E-05-4.04898E-14
 -1      3839 9.72250E-03 4.97534E-05-4.15533E-14
 -1      3840 9.77976E-03 8.13220E-05-4.15907E-14
 -1      3841 1.80992E-03 2.06944E-04-1.43178E-15
 -1      3842 1.50489E-03 8.77578E-05-1.13872E-15
 -1      3843 1.50325E-03 5.31512E-05-1.17010E-15
 -1      3844 1.62665E-03 3.74137E-05-1.36219E-15
 -1      3845 2.59654E-03 3.04744E-04-2.66073E-15
 -1      3846 2.66462E-03 2.68645E-04-2.88352E-15
 -1      3847 2.51999E-03 2.66182E-04-2.58845E-15
 -1      3848 2.73345E-03 2.32183E-04-3.11180E-15
 -1      3849 3.00519E-03-1.59691E-04-4.42002E-15
 -1      3850 3.15023E-03-1.60173E-04-4.81922E-15
 -1      3851 3.29516E-03-1.60459E-04-5.23506E-15
 -1      3852 3.43995E-03-1.60562E-04-5.66752E-15
 -1      3853 3.22123E-03-1.22311E-04-4.96960E-15
 -1      3854 3.58461E-03-1.60530E-04-6.11731E-15
 -1      3855 3.72912E-03-1.60370E-04-6.58463E-15
 -1      3856 3.51109E-03-1.22474E-04-5.82802E-15
 -1      3857 3.87349E-03-1.60119E-04-7.06870E-15
 -1      3858 4.01771E-03-1.59779E-04-7.57082E-15
 -1      3859 3.80036E-03-1.22223E-04-6.75428E-15
 -1      3860 4.16180E-03-1.59375E-04-8.09095E-15
 -1      3861 4.30573E-03-1.58905E-04-8.62927E-15
 -1      3862 4.08902E-03-1.21688E-04-7.75083E-15
 -1      3863 4.44952E-03-1.58387E-04-9.18567E-15
 -1      3864 4.59317E-03-1.57814E-04-9.76058E-15
 -1      3865 4.37706E-03-1.20949E-04-8.82003E-15
 -1      3866 4.73668E-03-1.57199E-04-1.03539E-14
 -1      3867 4.88005E-03-1.56534E-04-1.09660E-14
 -1      3868 4.66448E-03-1.20049E-04-9.96245E-15
 -1      3869 5.02326E-03-1.55825E-04-1.15966E-14
 -1      3870 5.16633E-03-1.55063E-04-1.22451E-14
 -1      3871 4.95128E-03-1.19003E-04-1.11791E-14
 -1      3872 5.30923E-03-1.54252E-04-1.29124E-14
 -1      3873 5.45196E-03-1.53381E-04-1.35990E-14
 -1      3874 5.23742E-03-1.17811E-04-1.24696E-14
 -1      3875 5.59451E-03-1.52453E-04-1.43047E-14
 -1      3876 5.73686E-03-1.51456E-04-1.50285E-14
 -1      3877 5.52283E-03-1.16455E-04-1.38351E-14
 -1      3878 5.87898E-03-1.50395E-04-1.57712E-14
 -1      3879 6.02087E-03-1.49254E-04-1.65341E-14
 -1      3880 5.80741E-03-1.14914E-04-1.52768E-14
 -1      3881 6.16248E-03-1.48046E-04-1.73140E-14
 -1      3882 6.30379E-03-1.46753E-04-1.81118E-14
 -1      3883 6.09098E-03-1.13172E-04-1.67931E-14
 -1      3884 6.44475E-03-1.45395E-04-1.89270E-14
 -1      3885 6.58534E-03-1.43953E-04-1.97593E-14
 -1      3886 6.37331E-03-1.11226E-04-1.83814E-14
 -1      3887 6.72549E-03-1.42460E-04-2.06099E-14
 -1      3888 6.86516E-03-1.40897E-04-2.14767E-14
 -1      3889 6.65408E-03-1.09103E-04-2.00385E-14
 -1      3890 7.00427E-03-1.39315E-04-2.23607E-14
 -1      3891 7.14278E-03-1.37695E-04-2.32625E-14
 -1      3892 6.93290E-03-1.06876E-04-2.17653E-14
 -1      3893 7.28058E-03-1.36112E-04-2.41809E-14
 -1      3894 7.41761E-03-1.34546E-04-2.51164E-14
 -1      3895 7.20925E-03-1.04685E-04-2.35604E-14
 -1      3896 7.55375E-03-1.33107E-04-2.60686E-14
 -1      3897 7.68892E-03-1.31770E-04-2.70355E-14
 -1      3898 7.48250E-03-1.02764E-04-2.54241E-14
 -1      3899 7.82297E-03-1.30690E-04-2.80211E-14
 -1      3900 7.95581E-03-1.29832E-04-2.90221E-14
 -1      3901 7.75188E-03-1.01464E-04-2.73528E-14
 -1      3902 8.08724E-03-1.29406E-04-3.00398E-14
 -1      3903 8.21714E-03-1.29351E-04-3.10742E-14
 -1      3904 8.01642E-03-1.01277E-04-2.93475E-14
 -1      3905 8.34529E-03-1.29948E-04-3.21243E-14
 -1      3906 8.47150E-03-1.31082E-04-3.31909E-14
 -1      3907 8.27493E-03-1.02840E-04-3.14080E-14
 -1      3908 8.59547E-03-1.33126E-04-3.42732E-14
 -1      3909 8.71698E-03-1.35852E-04-3.53708E-14
 -1      3910 8.52583E-03-1.06916E-04-3.35325E-14
 -1      3911 8.83558E-03-1.39773E-04-3.64834E-14
 -1      3912 8.95098E-03-1.44429E-04-3.76096E-14
 -1      3913 8.76700E-03-1.14323E-04-3.57182E-14
 -1      3914 9.04742E-03-1.50678E-04-3.85945E-14
 -1      3915 9.14105E-03-1.57265E-04-3.95895E-14
 -1      3916 8.97982E-03-1.25969E-04-3.78101E-14
 -1      3917 1.50310E-03-5.02157E-05-1.25158E-15
 -1      3918 1.50465E-03-8.48726E-05-1.27441E-15
 -1      3919 1.62655E-03-3.43553E-05-1.42264E-15
 -1      3920 2.23066E-03 2.59065E-04-2.04819E-15
 -1      3921 2.15391E-03 2.20694E-04-1.97962E-15
 -1      3922 2.37532E-03 2.63015E-04-2.31006E-15
 -1      3923 1.60374E-03-1.20552E-04-1.44073E-15
 -1      3924 5.39414E-03 1.90889E-04-1.21264E-14
 -1      3925 5.25132E-03 1.91844E-04-1.14810E-14
 -1      3926 6.24739E-03 1.83169E-04-1.63821E-14
 -1      3927 6.10570E-03 1.84747E-04-1.56271E-14
 -1      3928 5.96377E-03 1.86190E-04-1.48900E-14
 -1      3929 5.82164E-03 1.87519E-04-1.41704E-14
 -1      3930 6.03389E-03 1.49706E-04-1.54154E-14
 -1      3931 6.81142E-03 1.75353E-04-1.95744E-14
 -1      3932 6.67087E-03 1.77560E-04-1.87510E-14
 -1      3933 7.09142E-03 1.70398E-04-2.12736E-14
 -1      3934 6.95160E-03 1.72976E-04-2.04156E-14
 -1      3935 6.87916E-03 1.40102E-04-2.01756E-14
 -1      3936 7.36981E-03 1.64665E-04-2.30412E-14
 -1      3937 7.23082E-03 1.67639E-04-2.21489E-14
 -1      3938 7.15784E-03 1.35606E-04-2.18989E-14
 -1      3939 7.64643E-03 1.58131E-04-2.48739E-14
 -1      3940 7.50834E-03 1.61507E-04-2.39494E-14
 -1      3941 7.43454E-03 1.30306E-04-2.36911E-14
 -1      3942 7.92123E-03 1.50821E-04-2.67759E-14
 -1      3943 7.78404E-03 1.54578E-04-2.58165E-14
 -1      3944 7.70904E-03 1.24117E-04-2.55504E-14
 -1      3945 8.19433E-03 1.42829E-04-2.87415E-14
 -1      3946 8.05795E-03 1.46907E-04-2.77508E-14
 -1      3947 7.98118E-03 1.16966E-04-2.74748E-14
 -1      3948 8.46621E-03 1.34362E-04-3.07746E-14
 -1      3949 8.33035E-03 1.38637E-04-2.97490E-14
 -1      3950 8.25099E-03 1.08805E-04-2.94643E-14
 -1      3951 8.73785E-03 1.25824E-04-3.28688E-14
 -1      3952 8.60193E-03 1.30052E-04-3.18140E-14
 -1      3953 8.51878E-03 9.96447E-05-3.15192E-14
 -1      3954 9.01110E-03 1.18020E-04-3.50263E-14
 -1      3955 8.87405E-03 1.21712E-04-3.39403E-14
 -1      3956 8.78537E-03 8.96245E-05-3.36373E-14
 -1      3957 9.28916E-03 1.12664E-04-3.72455E-14
 -1      3958 9.14918E-03 1.14788E-04-3.61284E-14
 -1      3959 9.05240E-03 7.92332E-05-3.58156E-14
 -1      3960 9.80811E-03 1.25917E-04-4.12526E-14
 -1      3961 1.74752E-03-1.25545E-04-1.67240E-15
 -1      3962 9.16801E-03-1.39601E-04-3.98324E-14
 -1      3963 1.50334E-03 1.52315E-04-1.06536E-15
 -1      3964 1.50010E-03 1.17070E-04-1.10135E-15
 -1      3965 1.62282E-03 1.03824E-04-1.28794E-15
 -1      3966 1.61452E-03 1.65069E-04-1.20239E-15
 -1      3967 5.67931E-03 1.88736E-04-1.34708E-14
 -1      3968 5.53681E-03 1.89859E-04-1.27903E-14
 -1      3969 5.46496E-03 1.53774E-04-1.25994E-14
 -1      3970 5.10835E-03 1.92722E-04-1.08562E-14
 -1      3971 4.96524E-03 1.93539E-04-1.02505E-14
 -1      3972 5.17935E-03 1.55344E-04-1.13033E-14
 -1      3973 6.53001E-03 1.79585E-04-1.79445E-14
 -1      3974 6.38883E-03 1.81456E-04-1.71540E-14
 -1      3975 6.31693E-03 1.47059E-04-1.69341E-14
 -1      3976 3.53078E-03 2.73975E-04-5.01242E-15
 -1      3977 3.38667E-03 2.73878E-04-4.61446E-15
 -1      3978 3.31217E-03 2.35847E-04-4.51462E-15
 -1      3979 3.60088E-03 2.36054E-04-5.31878E-15
 -1      3980 2.42430E-03-1.54750E-04-2.99488E-15
 -1      3981 2.56956E-03-1.56536E-04-3.32560E-15
 -1      3982 1.81307E-03 1.74549E-04-1.48387E-15
 -1      3983 2.71482E-03-1.57922E-04-3.67347E-15
 -1      3984 2.86005E-03-1.58948E-04-4.03783E-15
 -1      3985 2.93086E-03-1.21553E-04-4.17903E-15
 -1      3986 6.59877E-03 1.43889E-04-1.85203E-14
 -1      3987 3.95983E-03 1.97558E-04-6.53038E-15
 -1      3988 3.81567E-03 1.97850E-04-6.07127E-15
 -1      3989 1.75075E-03-1.69712E-05-1.60245E-15
 -1      3990 1.75153E-03-5.42157E-05-1.63349E-15
 -1      3991 2.44366E-03 2.27751E-04-2.51269E-15
 -1      3992 1.75167E-03 5.73093E-05-1.53302E-15
 -1      3993 1.75080E-03 2.01428E-05-1.56887E-15
 -1      3994 1.87561E-03 1.59926E-06-1.79094E-15
 -1      3995 4.82200E-03 1.94290E-04-9.66223E-15
 -1      3996 4.67863E-03 1.94988E-04-9.09356E-15
 -1      3997 4.89310E-03 1.56681E-04-1.00828E-14
 -1      3998 2.22265E-03 1.86535E-04-2.16227E-15
 -1      3999 2.07771E-03 1.82847E-04-1.90774E-15
 -1      4000 5.74985E-03 1.51917E-04-1.39712E-14
 -1      4001 9.67671E-03 1.24713E-04-4.01909E-14
 -1      4002 9.57709E-03 1.13361E-04-3.95279E-14
 -1      4003 9.43138E-03 1.11695E-04-3.83778E-14
 -1      4004 1.80954E-03-9.03343E-05-1.75467E-15
 -1      4005 1.93044E-03-1.47739E-04-2.00024E-15
 -1      4006 2.05167E-03-1.49217E-04-2.22602E-15
 -1      4007 1.93374E-03-7.33296E-05-1.95675E-15
 -1      4008 9.32299E-03 6.98933E-05-3.80559E-14
 -1      4009 2.80299E-03 1.95365E-04-3.34558E-15
 -1      4010 2.65792E-03 1.93910E-04-3.02479E-15
 -1      4011 9.11400E-03-1.17183E-04-3.90706E-14
 -1      4012 2.30266E-03-1.54672E-04-2.73287E-15
 -1      4013 2.37295E-03-1.19236E-04-2.85397E-15
 -1      4014 2.18111E-03-1.54178E-04-2.48271E-15
 -1      4015 9.20321E-03-6.17200E-05-3.90631E-14
 -1      4016 9.17125E-03-3.22607E-05-3.83205E-14
 -1      4017 9.12302E-03-7.63857E-05-3.86032E-14
 -1      4018 4.46415E-03 2.33500E-04-8.15527E-15
 -1      4019 4.24774E-03 1.96726E-04-7.50109E-15
 -1      4020 4.10385E-03 1.97183E-04-7.00704E-15
 -1      4021 4.03084E-03 1.59494E-04-6.87204E-15
 -1      4022 9.50630E-03 4.77572E-05-3.98242E-14
 -1      4023 9.55551E-03 7.39268E-05-3.98605E-14
 -1      4024 1.88204E-03 1.42998E-04-1.63705E-15
 -1      4025 3.09291E-03 1.97215E-04-4.03896E-15
 -1      4026 2.94800E-03 1.96455E-04-3.68359E-15
 -1      4027 2.87318E-03 1.58244E-04-3.58527E-15
 -1      4028 2.64014E-03-1.19946E-04-3.45579E-15
 -1      4029 9.35932E-03 2.41411E-05-3.89881E-14
 -1      4030 9.22875E-03 3.09431E-05-3.78477E-14
 -1      4031 6.66745E-03 1.08658E-04-1.91004E-14
 -1      4032 6.52711E-03 1.10068E-04-1.82858E-14
 -1      4033 3.43774E-03-8.43564E-05-5.54244E-15
 -1      4034 3.58263E-03-8.43197E-05-5.98482E-15
 -1      4035 3.72736E-03-8.42236E-05-6.44450E-15
 -1      4036 3.87192E-03-8.40675E-05-6.92126E-15
 -1      4037 3.65450E-03-4.61378E-05-6.13938E-15
 -1      4038 4.01633E-03-8.38727E-05-7.41617E-15
 -1      4039 4.16057E-03-8.36336E-05-7.92847E-15
 -1      4040 3.94375E-03-4.59395E-05-7.08584E-15
 -1      4041 4.30465E-03-8.33673E-05-8.45947E-15
 -1      4042 4.44856E-03-8.30663E-05-9.00811E-15
 -1      4043 4.23232E-03-4.56487E-05-8.10331E-15
 -1      4044 4.59232E-03-8.27437E-05-9.57544E-15
 -1      4045 4.73591E-03-8.23911E-05-1.01618E-14
 -1      4046 4.52022E-03-4.52866E-05-9.19372E-15
 -1      4047 4.87933E-03-8.20178E-05-1.07664E-14
 -1      4048 5.02259E-03-8.16166E-05-1.13897E-14
 -1      4049 4.80744E-03-4.48644E-05-1.03584E-14
 -1      4050 5.16566E-03-8.11942E-05-1.20312E-14
 -1      4051 5.30855E-03-8.07420E-05-1.26913E-14
 -1      4052 5.09397E-03-4.43946E-05-1.15974E-14
 -1      4053 5.45125E-03-8.02661E-05-1.33702E-14
 -1      4054 5.59373E-03-7.97579E-05-1.40688E-14
 -1      4055 5.37974E-03-4.38748E-05-1.29108E-14
 -1      4056 5.73598E-03-7.92244E-05-1.47854E-14
 -1      4057 5.87798E-03-7.86565E-05-1.55215E-14
 -1      4058 5.66466E-03-4.33066E-05-1.42993E-14
 -1      4059 6.01970E-03-7.80646E-05-1.62767E-14
 -1      4060 6.16111E-03-7.74389E-05-1.70489E-14
 -1      4061 5.94858E-03-4.26972E-05-1.57639E-14
 -1      4062 6.30218E-03-7.67957E-05-1.78399E-14
 -1      4063 6.44287E-03-7.61245E-05-1.86477E-14
 -1      4064 6.23130E-03-4.20659E-05-1.73022E-14
 -1      4065 6.58313E-03-7.54512E-05-1.94737E-14
 -1      4066 6.72291E-03-7.47645E-05-2.03159E-14
 -1      4067 6.51253E-03-4.14536E-05-1.89124E-14
 -1      4068 6.86216E-03-7.41045E-05-2.11750E-14
 -1      4069 7.00081E-03-7.34584E-05-2.20521E-14
 -1      4070 6.79192E-03-4.09346E-05-2.05886E-14
 -1      4071 7.13879E-03-7.28868E-05-2.29455E-14
 -1      4072 7.27603E-03-7.23746E-05-2.38566E-14
 -1      4073 7.06902E-03-4.06321E-05-2.23346E-14
 -1      4074 7.41243E-03-7.20100E-05-2.47850E-14
 -1      4075 7.54791E-03-7.17732E-05-2.57290E-14
 -1      4076 7.34328E-03-4.07371E-05-2.41494E-14
 -1      4077 7.68235E-03-7.17898E-05-2.66877E-14
 -1      4078 7.81566E-03-7.20300E-05-2.76651E-14
 -1      4079 7.61406E-03-4.15296E-05-2.60286E-14
 -1      4080 7.94769E-03-7.26684E-05-2.86581E-14
 -1      4081 8.07831E-03-7.36546E-05-2.96685E-14
 -1      4082 7.88056E-03-4.34006E-05-2.79728E-14
 -1      4083 8.20734E-03-7.52287E-05-3.06955E-14
 -1      4084 8.33463E-03-7.72974E-05-3.17371E-14
 -1      4085 8.14186E-03-4.68707E-05-2.99859E-14
 -1      4086 8.45993E-03-8.01917E-05-3.27952E-14
 -1      4087 8.58302E-03-8.37296E-05-3.38688E-14
 -1      4088 8.39677E-03-5.26003E-05-3.20617E-14
 -1      4089 8.70359E-03-8.83771E-05-3.49586E-14
 -1      4090 8.82126E-03-9.37863E-05-3.60633E-14
 -1      4091 8.64378E-03-6.13797E-05-3.42017E-14
 -1      4092 8.92322E-03-1.00869E-04-3.70673E-14
 -1      4093 9.01837E-03-1.08321E-04-3.80446E-14
 -1      4094 9.06769E-03-9.12189E-05-3.83135E-14
 -1      4095 8.86770E-03-7.43528E-05-3.62893E-14
 -1      4096 2.51281E-03 1.91997E-04-2.72100E-15
 -1      4097 2.36770E-03 1.89578E-04-2.43341E-15
 -1      4098 2.58268E-03 1.55801E-04-2.93449E-15
 -1      4099 3.74226E-03 1.59952E-04-5.94602E-15
 -1      4100 3.67138E-03 1.98030E-04-5.63003E-15
 -1      4101 3.52696E-03 1.98093E-04-5.20643E-15
 -1      4102 2.29218E-03 1.51768E-04-2.35073E-15
 -1      4103 5.82036E-03 1.15357E-04-1.44746E-14
 -1      4104 5.67818E-03 1.16148E-04-1.37675E-14
 -1      4105 7.22414E-03 1.01448E-04-2.25298E-14
 -1      4106 7.08573E-03 1.03526E-04-2.16467E-14
 -1      4107 6.94680E-03 1.05401E-04-2.07800E-14
 -1      4108 6.80735E-03 1.07115E-04-1.99316E-14
 -1      4109 6.73611E-03 7.39202E-05-1.96851E-14
 -1      4110 7.01443E-03 7.12785E-05-2.13899E-14
 -1      4111 7.77145E-03 9.08957E-05-2.62297E-14
 -1      4112 7.63563E-03 9.39216E-05-2.52789E-14
 -1      4113 8.04083E-03 8.39636E-05-2.81770E-14
 -1      4114 7.90649E-03 8.75931E-05-2.71944E-14
 -1      4115 7.83382E-03 5.85111E-05-2.69111E-14
 -1      4116 8.30713E-03 7.56746E-05-3.01898E-14
 -1      4117 8.17432E-03 8.00038E-05-2.91762E-14
 -1      4118 8.10035E-03 5.18673E-05-2.88835E-14
 -1      4119 8.57045E-03 6.58397E-05-3.22680E-14
 -1      4120 8.43908E-03 7.09554E-05-3.12217E-14
 -1      4121 8.36295E-03 4.35024E-05-3.09209E-14
 -1      4122 8.83126E-03 5.43360E-05-3.44066E-14
 -1      4123 8.70101E-03 6.02789E-05-3.33295E-14
 -1      4124 8.62141E-03 3.30245E-05-3.30209E-14
 -1      4125 9.09506E-03 3.95934E-05-3.66659E-14
 -1      4126 8.96534E-03 4.62871E-05-3.55565E-14
 -1      4127 8.88018E-03 1.84846E-05-3.52375E-14
 -1      4128 9.13843E-03-7.88413E-07-3.75787E-14
 -1      4129 5.53579E-03 1.16865E-04-1.30778E-14
 -1      4130 5.39319E-03 1.17526E-04-1.24061E-14
 -1      4131 5.60663E-03 8.01857E-05-1.35596E-14
 -1      4132 2.56590E-03-8.22339E-05-3.24370E-15
 -1      4133 2.71139E-03-8.29710E-05-3.58454E-15
 -1      4134 2.85686E-03-8.35255E-05-3.94224E-15
 -1      4135 3.00225E-03-8.39117E-05-4.31716E-15
 -1      4136 2.78324E-03-4.56588E-05-3.71105E-15
 -1      4137 6.38641E-03 1.11337E-04-1.74893E-14
 -1      4138 6.24534E-03 1.12496E-04-1.67092E-14
 -1      4139 6.45586E-03 7.60282E-05-1.80487E-14
 -1      4140 4.53513E-03 1.95624E-04-8.54392E-15
 -1      4141 4.39150E-03 1.96207E-04-8.01276E-15
 -1      4142 4.60626E-03 1.57815E-04-8.93717E-15
 -1      4143 7.49913E-03 9.66650E-05-2.43459E-14
 -1      4144 7.36194E-03 9.91772E-05-2.34300E-14
 -1      4145 7.56371E-03 6.37797E-05-2.50056E-14
 -1      4146 3.14754E-03-8.41695E-05-4.70884E-15
 -1      4147 3.29271E-03-8.43059E-05-5.11734E-15
 -1      4148 3.07415E-03-4.60707E-05-4.45279E-15
 -1      4149 5.25040E-03 1.18128E-04-1.17550E-14
 -1      4150 5.10743E-03 1.18684E-04-1.11228E-14
 -1      4151 5.32148E-03 8.10958E-05-1.22116E-14
 -1      4152 6.10396E-03 1.13540E-04-1.59462E-14
 -1      4153 5.96229E-03 1.14495E-04-1.52013E-14
 -1      4154 5.89087E-03 7.90786E-05-1.49837E-14
 -1      4155 3.23772E-03 1.97720E-04-4.41108E-15
 -1      4156 3.16337E-03 1.59539E-04-4.30366E-15
 -1      4157 3.38240E-03 1.97993E-04-4.79994E-15
 -1      4158 9.02448E-03-6.65151E-05-3.75827E-14
 -1      4159 6.17402E-03 7.77172E-05-1.64810E-14
 -1      4160 3.81347E-03 1.21835E-04-6.26665E-15
 -1      4161 3.66892E-03 1.21941E-04-5.81756E-15
 -1      4162 4.96429E-03 1.19193E-04-1.05081E-14
 -1      4163 4.82098E-03 1.19666E-04-9.91237E-15
 -1      4164 5.03555E-03 8.18527E-05-1.09382E-14
 -1      4165 7.29044E-03 6.79591E-05-2.31646E-14
 -1      4166 3.36462E-03-4.62071E-05-5.26211E-15
 -1      4167 9.04746E-03-2.10061E-05-3.71310E-14
 -1      4168 2.94400E-03 1.20841E-04-3.82990E-15
 -1      4169 2.79867E-03 1.20138E-04-3.48300E-15
 -1      4170 2.12168E-03-1.15318E-04-2.33754E-15
 -1      4171 2.44398E-03-8.32504E-05-2.97322E-15
 -1      4172 2.51568E-03-4.67569E-05-3.09065E-15
 -1      4173 2.32212E-03-8.40521E-05-2.71440E-15
 -1      4174 2.65328E-03 1.19181E-04-3.15291E-15
 -1      4175 2.50787E-03 1.17958E-04-2.84041E-15
 -1      4176 2.72451E-03 8.21902E-05-3.37770E-15
 -1      4177 4.31883E-03 1.58761E-04-7.86792E-15
 -1      4178 2.01072E-03 1.11287E-04-1.89565E-15
 -1      4179 1.74622E-03 1.05805E-04-1.46995E-15
 -1      4180 1.75136E-03 7.42911E-05-1.51405E-15
 -1      4181 2.36250E-03 1.16391E-04-2.54489E-15
 -1      4182 2.21722E-03 1.14456E-04-2.26501E-15
 -1      4183 2.43353E-03 8.04575E-05-2.74391E-15
 -1      4184 4.10211E-03 1.21441E-04-7.21833E-15
 -1      4185 3.95787E-03 1.21670E-04-6.73390E-15
 -1      4186 3.88500E-03 8.37194E-05-6.59257E-15
 -1      4187 2.08139E-03 7.73759E-05-2.06532E-15
 -1      4188 8.11849E-03 1.48528E-06-2.94395E-14
 -1      4189 7.98742E-03 4.41219E-06-2.84342E-14
 -1      4190 3.91401E-03 1.88678E-05-6.84264E-15
 -1      4191 4.05843E-03 1.88708E-05-7.33211E-15
 -1      4192 4.44821E-03-7.69011E-06-8.81715E-15
 -1      4193 4.59200E-03-7.62195E-06-9.37614E-15
 -1      4194 4.77799E-03 1.87571E-05-1.00526E-14
 -1      4195 4.92138E-03 1.87169E-05-1.06528E-14
 -1      4196 5.06459E-03 1.86617E-05-1.12717E-14
 -1      4197 5.20761E-03 1.86041E-05-1.19094E-14
 -1      4198 5.35044E-03 1.85277E-05-1.25642E-14
 -1      4199 5.49306E-03 1.84448E-05-1.32399E-14
 -1      4200 5.63545E-03 1.83369E-05-1.39342E-14
 -1      4201 5.77759E-03 1.82171E-05-1.46463E-14
 -1      4202 5.91947E-03 1.80622E-05-1.53784E-14
 -1      4203 6.06106E-03 1.78878E-05-1.61279E-14
 -1      4204 6.20232E-03 1.76634E-05-1.68954E-14
 -1      4205 6.34322E-03 1.74081E-05-1.76811E-14
 -1      4206 6.48372E-03 1.70810E-05-1.84836E-14
 -1      4207 6.62379E-03 1.67064E-05-1.93042E-14
 -1      4208 6.76337E-03 1.62289E-05-2.01412E-14
 -1      4209 6.90241E-03 1.56797E-05-2.09946E-14
 -1      4210 7.04085E-03 1.49836E-05-2.18676E-14
 -1      4211 7.17863E-03 1.41811E-05-2.27554E-14
 -1      4212 7.31568E-03 1.31712E-05-2.36605E-14
 -1      4213 7.45194E-03 1.20058E-05-2.45835E-14
 -1      4214 7.58733E-03 1.05508E-05-2.55212E-14
 -1      4215 7.72176E-03 8.87373E-06-2.64751E-14
 -1      4216 7.85517E-03 6.79763E-06-2.74462E-14
 -1      4217 8.24820E-03-1.85930E-06-3.04596E-14
 -1      4218 8.37654E-03-5.92636E-06-3.14956E-14
 -1      4219 8.50324E-03-1.05356E-05-3.25471E-14
 -1      4220 8.62841E-03-1.60910E-05-3.36134E-14
 -1      4221 8.75162E-03-2.23137E-05-3.46965E-14
 -1      4222 2.01966E-03-4.23908E-05-2.08518E-15
 -1      4223 2.07766E-03-8.00226E-05-2.22499E-15
 -1      4224 8.87761E-03-3.12144E-05-3.58517E-14
 -1      4225 3.08924E-03 1.21354E-04-4.19295E-15
 -1      4226 3.01537E-03 8.32044E-05-4.07926E-15
 -1      4227 3.23437E-03 1.21686E-04-4.57325E-15
 -1      4228 2.75311E-03 1.83559E-05-3.54760E-15
 -1      4229 2.89864E-03 1.85097E-05-3.89985E-15
 -1      4230 2.20717E-03-8.36140E-05-2.47972E-15
 -1      4231 3.45309E-03 1.60021E-04-5.09106E-15
 -1      4232 4.63488E-03 9.38267E-05-9.25072E-15
 -1      4233 4.49119E-03 9.41261E-05-8.69560E-15
 -1      4234 3.04410E-03 1.86129E-05-4.26930E-15
 -1      4235 3.18945E-03 1.87069E-05-4.65550E-15
 -1      4236 3.62467E-03 1.88444E-05-5.91623E-15
 -1      4237 3.76942E-03 1.88672E-05-6.37096E-15
 -1      4238 4.36872E-03 1.07625E-04-8.19979E-15
 -1      4239 4.22475E-03 1.07903E-04-7.68152E-15
 -1      4240 4.15221E-03 7.01261E-05-7.52934E-15
 -1      4241 4.39761E-03 4.33040E-05-8.48892E-15
 -1      4242 2.00104E-03 2.12686E-05-1.98822E-15
 -1      4243 2.00099E-03-1.79407E-05-2.02826E-15
 -1      4244 2.14494E-03-2.31749E-05-2.30005E-15
 -1      4245 2.60754E-03 1.81836E-05-3.21127E-15
 -1      4246 2.27865E-03-4.82073E-05-2.58917E-15
 -1      4247 3.45652E-03 4.41062E-06-5.43841E-15
 -1      4248 3.57232E-03 6.94403E-05-5.64825E-15
 -1      4249 2.24145E-03 2.44651E-06-2.45934E-15
 -1      4250 2.25990E-03-2.28232E-05-2.52439E-15
 -1      4251 2.37497E-03-2.23843E-05-2.75939E-15
 -1      4252 4.18138E-03 5.52621E-06-7.79619E-15
 -1      4253 3.50068E-03 1.07563E-04-5.35032E-15
 -1      4254 3.35577E-03 1.07484E-04-4.93717E-15
 -1      4255 4.70638E-03 5.62268E-05-9.64936E-15
 -1      4256 4.32549E-03 5.55441E-06-8.32044E-15
 -1      4257 3.28233E-03 6.93034E-05-4.81284E-15
 -1      4258 3.31141E-03 4.36543E-06-5.01977E-15
 -1      4259 8.98279E-03-3.94977E-05-3.68524E-14
 -1      4260 1.87557E-03 5.73448E-05-1.73288E-15
 -1      4261 2.46744E-03 4.19767E-05-2.87110E-15
 -1      4262 2.32197E-03 4.13667E-05-2.57152E-15
 -1      4263 2.08174E-03 5.92269E-05-2.08904E-15
 -1      4264 2.20693E-03 4.00592E-05-2.34667E-15
 -1      4265 2.48547E-03 1.61765E-05-2.94533E-15
 -3
    1PSTEP                         2           1           1          
  100CL  101 1.000000000        4265                     0    1           1
 -4  STRESS      6    1
 -5  SXX         1    4    1    1
 -5  SYY         1    4    2    2
 -5  SZZ         1    4    3    3
 -5  SXY         1    4    1    2
 -5  SYZ         1    4    2    3
 -5  SZX         1    4    3    1
 -1         1 5.47951E+01 6.43383E+00 3.16550E+00-1.74956E+01-6.34978E-13 1.87073E-12
 -1         2-8.55657E-01-2.75711E+01-3.72831E+00-6.42122E-02-8.17593E-14 5.36723E-14
 -1         3 1.99923E+01-7.54682E-03 3.31103E-02-8.00066E-03-3.76532E-13-3.92620E-13
 -1         4 1.99389E+01-6.24703E-02 7.53594E-02 6.24097E-02 1.83841E-13 5.16640E-14
 -1         5 3.27686E+01 6.14284E+00 2.74246E+00 6.22432E+00-3.57561E-14 2.14419E-12
 -1         6 3.57527E+01 1.22635E+01 5.12546E+00-8.64671E+00-1.32672E-13 1.21048E-12
 -1         7 2.08193E+01 6.09986E+00-1.28629E-01-4.72546E+00-2.17742E-14-1.07296E-13
 -1         8 1.96723E+01 5.93509E+00 5.09850E-02-3.27461E+00-1.22818E-14-4.28483E-13
 -1         9 1.91372E+01 5.77194E+00 4.90995E-02-2.52638E+00-7.60503E-15-5.63248E-13
 -1        10 1.88953E+01 5.69214E+00 5.10611E-02-1.95122E+00-2.32800E-15-6.10865E-13
 -1        11 1.87737E+01 5.65121E+00 5.02613E-02-1.45600E+00-1.51485E-15-6.12165E-13
 -1        12 1.87099E+01 5.62953E+00 4.87427E-02-1.01511E+00 6.27905E-15-5.85539E-13
 -1        13 1.86763E+01 5.61810E+00 4.74207E-02-5.95353E-01 9.62251E-15-5.47579E-13
 -1        14 1.86622E+01 5.61326E+00 4.67033E-02-1.91213E-01 6.64017E-15-5.02919E-13
 -1        15 1.86627E+01 5.61342E+00 4.67451E-02 2.08194E-01 1.53098E-14-4.49214E-13
 -1        16 1.86779E+01 5.61859E+00 4.75651E-02 6.13168E-01 1.83493E-14-3.94850E-13
 -1        17 1.87127E+01 5.63031E+00 4.90791E-02 1.03493E+00 1.58946E-14-3.19868E-13
 -1        18 1.87777E+01 5.65236E+00 5.08274E-02 1.47900E+00 2.20986E-14-2.10281E-13
 -1        19 1.89010E+01 5.69378E+00 5.15371E-02 1.98011E+00 2.68232E-14-6.12180E-14
 -1        20 1.91426E+01 5.77454E+00 4.87908E-02 2.56370E+00 2.79481E-14 1.52631E-13
 -1        21 1.96678E+01 5.94969E+00 4.59353E-02 3.30869E+00 2.79013E-14 5.03689E-13
 -1        22 2.12021E+01 6.38161E+00 1.39716E-01 4.52299E+00 3.23352E-15 1.09192E-12
 -1        23 2.30302E+01-1.37924E+00-9.38359E-01-7.11141E-01-9.61280E-14 7.67178E-13
 -1        24 1.93678E+01-9.94924E-02-3.09836E-01 6.32327E-02-2.27362E-14 3.85973E-13
 -1        25 1.86795E+01-5.63204E-02-6.87738E-02 6.07258E-02-1.53204E-14 5.86614E-14
 -1        26 1.84770E+01-2.20836E-02-6.46819E-03 3.29682E-02 3.47411E-15-1.75915E-13
 -1        27 1.84883E+01-1.17959E-02 1.59064E-03 2.26086E-02-2.87075E-15-2.92938E-13
 -1        28 1.86023E+01-6.22946E-03 1.80242E-03 1.63093E-02-1.12297E-14-3.29976E-13
 -1        29 1.87619E+01-3.07203E-03 1.74528E-03 1.21559E-02-2.67904E-15-4.87718E-13
 -1        30 1.89358E+01-1.21526E-03 1.93099E-03 9.19388E-03-4.23961E-15-6.04137E-13
 -1        31 1.91060E+01-1.19959E-04 2.09512E-03 6.96445E-03 9.18143E-15-7.12218E-13
 -1        32 1.92629E+01 5.03768E-04 2.12889E-03 5.23404E-03 1.07685E-15-7.52440E-13
 -1        33 1.94016E+01 8.24142E-04 2.03821E-03 3.87131E-03 3.02592E-14-8.50762E-13
 -1        34 1.95204E+01 9.45138E-04 1.85938E-03 2.79295E-03-2.34719E-14-9.35976E-13
 -1        35 1.96197E+01 9.33466E-04 1.62583E-03 1.94003E-03 1.40604E-14-1.02261E-12
 -1        36 1.97011E+01 8.32151E-04 1.36069E-03 1.26784E-03-6.34481E-15-9.69852E-13
 -1        37 1.97673E+01 6.67892E-04 1.07683E-03 7.41337E-04 9.77708E-15-8.09968E-13
 -1        38 1.98213E+01 4.55414E-04 7.78299E-04 3.33307E-04-3.33966E-14-8.28093E-13
 -1        39 1.98667E+01 2.00240E-04 4.61605E-04 2.38179E-05-1.31038E-14-9.58797E-13
 -1        40 1.99076E+01-9.94637E-05 1.16572E-04-1.99644E-04-1.38995E-14-1.02607E-12
 -1        41 1.99483E+01-4.51616E-04-2.73257E-04-3.41450E-04 3.65517E-15-1.18725E-12
 -1        42 1.99942E+01-8.69293E-04-7.30646E-04-3.96497E-04 2.64274E-15-1.20568E-12
 -1        43 2.00512E+01-1.36994E-03-1.28514E-03-3.48058E-04 2.23732E-16-1.10721E-12
 -1        44 2.01269E+01-1.97436E-03-1.97388E-03-1.64438E-04 5.11764E-14-7.30555E-13
 -1        45 2.02301E+01-2.70505E-03-2.84259E-03 2.06134E-04-2.21086E-14-7.65182E-13
 -1        46 2.03722E+01-3.58260E-03-3.94562E-03 8.43092E-04-1.62165E-14-1.03646E-12
 -1        47 2.05669E+01-4.61848E-03-5.34337E-03 1.86431E-03 3.91763E-14-1.01781E-12
 -1        48 2.08312E+01-5.80057E-03-7.09177E-03 3.44015E-03 1.73076E-14-5.76958E-13
 -1        49 2.11853E+01-7.06576E-03-9.21352E-03 5.80851E-03 1.94191E-15-5.34029E-13
 -1        50 2.16524E+01-8.25081E-03-1.16287E-02 9.28205E-03-2.31347E-14-7.35878E-13
 -1        51 2.22568E+01-9.01102E-03-1.40043E-02 1.42224E-02 4.41613E-14-6.43284E-13
 -1        52 2.30191E+01-8.70188E-03-1.54609E-02 2.09205E-02-3.07602E-14-5.43402E-13
 -1        53 2.39455E+01-6.24997E-03-1.40897E-02 2.92573E-02-5.68352E-14-8.53401E-13
 -1        54 2.50075E+01-1.26112E-04-6.38723E-03 3.79291E-02 6.68147E-14-1.00310E-12
 -1        55 2.61088E+01 1.12692E-02 1.27501E-02 4.30214E-02-5.98832E-14-9.38402E-13
 -1        56 2.70406E+01 2.82911E-02 4.78223E-02 3.61623E-02-1.34922E-14-9.39557E-13
 -1        57 2.74484E+01 4.73187E-02 9.57072E-02 4.19896E-03-1.50826E-14-5.84423E-13
 -1        58 2.68713E+01 5.81951E-02 1.34577E-01-6.43162E-02 4.08050E-15-7.46923E-13
 -1        59 2.49554E+01 4.58598E-02 1.18730E-01-1.59484E-01-8.24080E-15-6.02643E-13
 -1        60 2.18695E+01 2.98816E-03 1.27549E-02-2.28408E-01-5.10432E-15-2.57565E-13
 -1        61 1.86285E+01-5.35740E-02-1.49943E-01-1.94887E-01-3.55046E-14-2.66544E-13
 -1        62 1.67661E+01-8.62770E-02-2.50439E-01-4.04757E-02-3.35522E-14-8.05264E-13
 -1        63 1.72291E+01-6.96514E-02-1.97704E-01 1.37610E-01 5.94863E-14-7.91221E-13
 -1        64 1.95288E+01-1.69175E-02-4.06808E-02 2.16770E-01-7.82945E-14-8.73010E-13
 -1        65 2.21893E+01 3.39150E-02 9.49170E-02 1.74305E-01 6.91899E-14-1.16247E-12
 -1        66 2.39230E+01 5.62108E-02 1.40213E-01 7.72689E-02 5.55719E-14-1.12648E-12
 -1        67 2.42847E+01 4.95111E-02 1.13250E-01-7.59080E-03 2.56266E-14-7.42557E-13
 -1        68 2.35233E+01 2.68265E-02 5.74154E-02-5.59954E-02 1.06217E-14-1.36752E-13
 -1        69 2.21759E+01 1.90045E-04-5.68796E-04-7.02631E-02 2.16868E-14-6.36574E-14
 -1        70 2.08225E+01-1.74027E-02-4.59424E-02-4.85672E-02 5.04529E-14 2.96490E-13
 -1        71 2.00083E+01 1.01882E-02-3.34339E-02 2.50133E-03-1.21779E-13 2.92988E-13
 -1        72 2.10428E+01-4.04895E-01-9.80419E-01-3.11622E-01 1.79544E-14 2.11639E-12
 -1        73 1.93322E+01-6.58827E-02-2.91129E-01-5.38331E-02 4.58010E-15 1.86767E-12
 -1        74 1.86889E+01-2.05045E-02-6.42694E-02-2.03459E-02 4.10002E-15 1.67276E-12
 -1        75 1.84861E+01-9.87621E-03-9.30681E-03-1.54479E-02 1.20782E-14 1.52527E-12
 -1        76 1.84974E+01-5.16199E-03 6.87194E-04-1.23799E-02-3.08737E-15 1.42620E-12
 -1        77 1.86106E+01-2.60993E-03 1.75402E-03-1.01075E-02 4.33898E-15 1.32103E-12
 -1        78 1.87692E+01-1.13947E-03 1.89112E-03-8.36494E-03-1.63016E-14 1.42212E-12
 -1        79 1.89419E+01-2.75535E-04 2.08498E-03-6.92857E-03 2.83066E-15 1.41615E-12
 -1        80 1.91113E+01 2.22614E-04 2.22670E-03-5.69165E-03 1.55404E-14 1.33281E-12
 -1        81 1.92673E+01 4.89430E-04 2.23762E-03-4.61036E-03 4.85316E-15 1.18328E-12
 -1        82 1.94053E+01 6.05887E-04 2.12587E-03-3.66510E-03-1.44597E-14 1.17132E-12
 -1        83 1.95235E+01 6.23057E-04 1.92708E-03-2.84344E-03 1.73781E-14 1.09991E-12
 -1        84 1.96223E+01 5.73824E-04 1.67430E-03-2.13349E-03 7.52284E-15 1.01915E-12
 -1        85 1.97035E+01 4.79066E-04 1.39037E-03-1.52235E-03 3.18015E-15 1.03893E-12
 -1        86 1.97696E+01 3.51255E-04 1.08785E-03-9.96411E-04 1.30252E-14 7.62718E-13
 -1        87 1.98238E+01 1.96789E-04 7.70673E-04-5.42422E-04-1.77790E-14 7.15133E-13
 -1        88 1.98696E+01 1.77239E-05 4.35862E-04-1.48779E-04-6.26460E-15 7.02687E-13
 -1        89 1.99111E+01-1.86753E-04 7.50681E-05 1.92879E-04 5.56460E-14 4.83718E-13
 -1        90 1.99526E+01-4.18848E-04-3.23834E-04 4.85835E-04-5.85021E-14 4.64665E-13
 -1        91 1.99992E+01-6.80448E-04-7.74848E-04 7.26070E-04-1.38905E-14 7.77141E-13
 -1        92 2.00563E+01-9.70897E-04-1.29126E-03 8.99534E-04-3.21429E-14 8.61611E-13
 -1        93 2.01305E+01-1.28393E-03-1.88170E-03 9.78802E-04 5.01861E-14 5.78633E-13
 -1        94 2.02288E+01-1.60343E-03-2.54400E-03 9.19158E-04-6.25101E-15 1.10438E-14
 -1        95 2.03591E+01-1.89750E-03-3.25550E-03 6.54473E-04-2.40370E-14 1.16515E-13
 -1        96 2.05293E+01-2.11087E-03-3.95802E-03 9.40272E-05-2.49389E-14 7.48196E-13
 -1        97 2.07470E+01-2.15576E-03-4.53557E-03-8.77120E-04-1.58356E-14 1.08835E-12
 -1        98 2.10177E+01-1.90337E-03-4.78346E-03-2.38876E-03 4.62321E-14 9.37770E-13
 -1        99 2.13424E+01-1.18090E-03-4.37120E-03-4.55712E-03-7.27770E-14 7.19168E-13
 -1       100 2.17140E+01 2.15189E-04-2.81126E-03-7.42103E-03 8.59886E-15 8.68430E-13
 -1       101 2.21121E+01 2.47100E-03 5.32190E-04-1.08209E-02 3.87558E-14 4.62531E-13
 -1       102 2.24966E+01 5.64649E-03 6.32375E-03-1.42031E-02-8.83964E-15 2.70448E-13
 -1       103 2.28023E+01 9.48584E-03 1.49123E-02-1.63685E-02 2.75076E-14 5.79958E-13
 -1       104 2.29362E+01 1.31751E-02 2.56520E-02-1.52916E-02-4.64969E-14 9.71522E-13
 -1       105 2.27864E+01 1.52083E-02 3.59946E-02-8.35055E-03 3.09142E-14 8.34470E-13
 -1       106 2.22493E+01 1.36552E-02 4.09706E-02 6.55715E-03-5.86534E-14 7.95182E-13
 -1       107 2.12788E+01 7.13398E-03 3.42644E-02 2.88116E-02 9.88120E-15 2.93241E-13
 -1       108 1.99487E+01-3.67349E-03 1.18993E-02 5.26316E-02 7.26827E-14-3.76917E-13
 -1       109 1.84916E+01-1.52174E-02-2.25211E-02 6.71219E-02-2.51592E-14 2.44190E-13
 -1       110 1.72616E+01-2.24258E-02-5.57983E-02 6.16509E-02 4.90623E-15 6.42130E-13
 -1       111 1.66020E+01-2.17678E-02-7.10458E-02 3.41775E-02 3.49068E-14 5.73512E-13
 -1       112 1.66753E+01-1.38937E-02-5.95141E-02-4.70118E-03-2.56149E-14 3.29249E-13
 -1       113 1.73710E+01-2.88228E-03-2.73239E-02-3.76481E-02 4.97597E-14 8.56450E-14
 -1       114 1.83674E+01 6.37292E-03 8.13766E-03-5.20359E-02-9.16490E-15 3.15803E-13
 -1       115 1.93015E+01 1.09059E-02 3.16734E-02-4.66927E-02 3.21661E-15 2.45656E-13
 -1       116 1.99268E+01 1.02271E-02 3.70239E-02-2.91145E-02 1.06916E-13-3.23605E-13
 -1       117 2.01777E+01 5.91230E-03 2.70883E-02-9.23899E-03 2.45629E-14-7.71206E-13
 -1       118 2.01465E+01 7.22732E-04 9.21680E-03 4.85391E-03-1.47082E-13-3.94361E-13
 -1       119 2.00137E+01-1.95714E-03-5.55940E-03 7.38063E-03 1.25709E-13-3.40398E-13
 -1       120 1.99639E+01 7.16338E-03 4.51775E-03-7.66985E-03 1.41185E-13-6.73795E-13
 -1       121 1.99977E+01-3.16523E-02-7.00253E-04-1.71734E-02-2.33269E-13 2.02038E-13
 -1       122 1.99849E+01 2.99066E-02-2.24506E-02-8.63171E-03 5.69492E-13-1.45758E-13
 -1       123 1.99792E+01 3.59701E-01-3.43723E-02 3.56533E-03 3.69072E-13 9.94117E-14
 -1       124 1.99763E+01 1.05380E+00-4.20982E-02 2.18512E-02-9.55390E-14 1.67308E-13
 -1       125 1.99799E+01 2.18080E+00-4.00889E-02 4.56579E-02-2.73318E-13-2.54591E-13
 -1       126 1.99908E+01 3.68224E+00-2.37876E-02 6.66307E-02-1.86566E-12-1.28740E-13
 -1       127 2.00094E+01 5.42390E+00 8.53530E-03 7.76755E-02-1.61744E-12 3.08223E-13
 -1       128 2.00307E+01 7.04463E+00 4.87101E-02 6.78599E-02-1.03378E-12-2.24455E-13
 -1       129 2.00471E+01 8.13101E+00 8.09785E-02 3.50192E-02-6.73017E-13 5.75447E-14
 -1       130 2.00518E+01 8.35499E+00 9.03224E-02-1.16809E-02 1.15575E-13 1.74848E-13
 -1       131 2.00419E+01 7.62378E+00 7.21477E-02-5.63007E-02 1.35975E-13-1.45440E-13
 -1       132 2.00234E+01 6.15137E+00 3.71090E-02-8.13248E-02-6.53068E-13 3.46363E-13
 -1       133 2.00012E+01 4.25548E+00-2.93439E-03-8.66189E-02-1.26541E-13 7.71070E-14
 -1       134 1.99776E+01 2.36253E+00-4.09449E-02-7.84553E-02-1.62405E-13-1.82440E-13
 -1       135 1.99713E+01 8.76028E-01-5.63787E-02-6.76510E-02-2.23415E-14-1.13195E-13
 -1       136 1.99687E+01 9.54022E-02-2.79109E-02 2.53469E-02-1.26500E-13 6.10474E-14
 -1       137-1.71751E+00-2.19486E+01-3.34024E+00-4.23057E+00 1.64635E-12 2.29369E-13
 -1       138-1.31245E+00-8.25921E+00-2.26703E+00-2.64035E+00 2.89335E-12 1.50399E-12
 -1       139 4.40768E+00 4.63298E+00-8.34039E-01 4.82311E+00 3.10080E-12 2.54780E-12
 -1       140 2.05843E+01 1.15242E+01 8.91090E-01 1.51290E+01 2.57250E-12 3.31007E-12
 -1       141 4.14246E+01 9.52636E+00 2.34244E+00 1.90741E+01 1.26205E-12 2.21706E-12
 -1       142 6.11281E+01 3.75406E+00 3.36838E+00 1.31985E+01 3.05977E-13 1.06998E-12
 -1       143 6.80917E+01 8.55915E-01 3.64558E+00 2.69651E-01 1.05103E-13 4.06003E-14
 -1       144 6.11312E+01 3.28763E+00 3.27730E+00-1.22767E+01 3.30316E-13-1.68487E-12
 -1       145 4.32233E+01 8.74992E+00 2.29134E+00-1.86967E+01 6.83814E-13-1.99113E-12
 -1       146 2.12505E+01 1.12374E+01 8.42587E-01-1.52334E+01 1.25533E-12-1.52856E-12
 -1       147 6.61490E+00 7.07354E+00-5.43922E-01-6.93960E+00 1.25772E-12-1.25749E-12
 -1       148-6.07007E-01-3.60143E+00-1.82465E+00 1.16369E+00 1.58029E-12-6.98108E-13
 -1       149-1.72615E+00-1.69426E+01-2.85530E+00 4.32179E+00 1.48487E-12-4.88831E-13
 -1       150-7.93320E-01-2.52701E+01-3.38753E+00 1.60852E+00 2.45901E-13-2.64230E-13
 -1       151-1.13982E+00-2.42156E+01-3.36879E+00-3.38221E+00-1.06329E-12-1.68550E-13
 -1       152-2.23531E+00-1.44354E+01-2.80063E+00-4.85972E+00-2.27424E-12-9.74207E-13
 -1       153 4.26395E-01-9.53206E-01-1.66639E+00 3.52555E-01-2.73276E-12-1.76109E-12
 -1       154 1.19304E+01 8.67821E+00-1.46655E-01 1.02537E+01-1.80306E-12-1.82870E-12
 -1       155 3.15966E+01 1.01805E+01 1.52597E+00 1.74716E+01-1.23379E-12-2.25164E-12
 -1       156 5.31965E+01 5.96325E+00 2.94015E+00 1.66636E+01-6.01796E-13-1.14964E-12
 -1       157 6.80498E+01 1.41308E+00 3.82693E+00 6.38924E+00-1.85442E-15 2.13662E-13
 -1       158 6.83808E+01 1.72815E+00 3.89578E+00-7.33459E+00-2.27218E-13 1.49039E-12
 -1       159 3.44548E+01 1.11665E+01 1.88704E+00-1.91443E+01-1.12793E-12 1.77669E-12
 -1       160 1.55997E+01 1.09243E+01 3.98369E-01-1.29641E+01-1.83970E-12 1.84014E-12
 -1       161 3.10675E+00 3.22518E+00-1.14656E+00-3.52507E+00-2.66898E-12 1.80811E-12
 -1       162-1.89030E+00-1.04843E+01-2.53721E+00 3.68263E+00-1.70763E-12 9.98229E-13
 -1       163-1.55976E+00-2.26813E+01-3.42205E+00 4.28084E+00-7.98583E-13 1.25421E-13
 -1       164 2.10139E+01 3.69403E+00-5.73721E-02-3.61038E+00-2.36984E-13-2.33664E-13
 -1       165 1.99913E+01 4.20738E+00-4.58019E-02-2.80914E+00-1.58971E-13-4.08402E-13
 -1       166 1.95069E+01 4.47798E+00-3.17255E-02-2.19505E+00-8.14288E-14-4.95203E-13
 -1       167 1.92681E+01 4.61450E+00-2.38251E-02-1.67472E+00-1.85787E-14-5.20981E-13
 -1       168 1.91369E+01 4.69713E+00-1.95871E-02-1.21903E+00 2.29562E-14-5.07472E-13
 -1       169 1.90631E+01 4.74786E+00-1.74509E-02-7.92164E-01 6.09456E-14-4.76348E-13
 -1       170 1.90259E+01 4.77567E+00-1.64282E-02-3.86923E-01 1.14216E-13-4.35789E-13
 -1       171 1.90150E+01 4.78421E+00-1.61342E-02 8.26328E-03 1.53304E-13-4.01237E-13
 -1       172 1.90276E+01 4.77440E+00-1.64666E-02 4.03777E-01 1.82922E-13-3.59953E-13
 -1       173 1.90668E+01 4.74487E+00-1.75200E-02 8.10047E-01 2.12009E-13-2.95155E-13
 -1       174 1.91414E+01 4.69246E+00-1.96878E-02 1.23155E+00 2.41003E-13-2.02746E-13
 -1       175 1.92770E+01 4.60533E+00-2.40071E-02 1.69824E+00 2.84568E-13-8.47655E-14
 -1       176 1.95240E+01 4.45955E+00-3.28511E-02 2.22660E+00 3.09260E-13 7.39218E-14
 -1       177 2.00136E+01 4.18384E+00-4.72127E-02 2.84683E+00 2.92637E-13 3.22641E-13
 -1       178 2.11355E+01 3.46368E+00-5.97795E-02 3.53675E+00 2.28076E-13 7.07649E-13
 -1       179 2.24199E+01 1.14336E+00-3.36470E-01 3.01485E+00 1.18724E-13 1.16926E-12
 -1       180 2.19721E+01 8.58306E-01 6.07656E-04-1.95888E+00-2.27329E-13 4.36699E-14
 -1       181 2.04479E+01 1.90047E-01-9.98874E-03-7.64148E-01-1.79544E-13-4.11190E-14
 -1       182 1.96722E+01 1.01654E-01 1.35716E-02-2.85787E-01-1.18862E-13-9.47489E-14
 -1       183 1.93324E+01 4.72097E-02 1.00104E-02-6.80475E-02-8.82103E-14-1.61280E-13
 -1       184 1.92026E+01 2.25492E-02 5.16876E-03 3.92328E-02-3.77242E-14-2.15548E-13
 -1       185 1.91890E+01 9.49024E-03 2.43300E-03 9.17899E-02-7.21790E-14-2.20551E-13
 -1       186 1.92374E+01 2.08978E-03 1.12733E-03 1.14093E-01-6.33583E-14-2.52971E-13
 -1       187 1.93163E+01-2.14411E-03 4.92846E-04 1.18938E-01-6.27912E-14-2.40031E-13
 -1       188 1.94069E+01-4.44255E-03 1.58430E-04 1.13751E-01-5.39706E-14-2.81639E-13
 -1       189 1.94981E+01-5.50284E-03-2.65464E-05 1.03155E-01-7.05244E-14-2.63343E-13
 -1       190 1.95837E+01-5.75812E-03-1.24943E-04 9.01289E-02-7.40107E-14-3.57906E-13
 -1       191 1.96604E+01-5.49029E-03-1.67803E-04 7.66225E-02-6.34704E-14-4.27513E-13
 -1       192 1.97273E+01-4.88366E-03-1.73169E-04 6.39150E-02 2.00438E-14-4.41180E-13
 -1       193 1.97846E+01-4.05385E-03-1.52294E-04 5.28532E-02 3.72891E-14-4.30718E-13
 -1       194 1.98339E+01-3.06506E-03-1.12060E-04 4.40209E-02-4.51479E-14-4.33125E-13
 -1       195 1.98770E+01-1.94132E-03-5.62072E-05 3.78657E-02-5.97536E-14-4.60980E-13
 -1       196 1.99167E+01-6.73974E-04 1.39082E-05 3.47995E-02-3.98430E-14-4.69951E-13
 -1       197 1.99562E+01 7.73425E-04 9.87992E-05 3.52802E-02-6.87219E-14-5.54091E-13
 -1       198 1.99992E+01 2.46213E-03 2.00456E-04 3.98812E-02-1.04316E-13-5.41933E-13
 -1       199 2.00501E+01 4.47657E-03 3.21988E-04 4.93538E-02 1.03945E-14-6.56228E-13
 -1       200 2.01143E+01 6.92337E-03 4.67173E-04 6.46832E-02 1.50013E-13-6.91779E-13
 -1       201 2.01982E+01 9.92982E-03 6.39715E-04 8.71397E-02 5.61026E-14-6.06386E-13
 -1       202 2.03093E+01 1.36388E-02 8.41876E-04 1.18316E-01 2.61964E-14-3.55902E-13
 -1       203 2.04568E+01 1.81942E-02 1.07188E-03 1.60137E-01 2.24863E-14-1.09107E-13
 -1       204 2.06516E+01 2.37056E-02 1.31918E-03 2.14795E-01 7.02864E-14-2.55201E-13
 -1       205 2.09058E+01 3.01677E-02 1.55622E-03 2.84539E-01 4.08371E-14-2.97866E-13
 -1       206 2.12331E+01 3.72945E-02 1.72575E-03 3.71143E-01-1.06879E-13-3.64628E-13
 -1       207 2.16468E+01 4.41954E-02 1.72440E-03 4.74786E-01 1.94971E-14-3.46505E-13
 -1       208 2.21578E+01 4.87914E-02 1.39007E-03 5.91838E-01 6.28153E-14-3.21411E-13
 -1       209 2.27695E+01 4.68778E-02 5.15491E-04 7.10904E-01-1.09619E-13-3.24228E-13
 -1       210 2.34697E+01 3.09212E-02-1.07087E-03 8.06494E-01-1.14970E-13-2.39213E-13
 -1       211 2.42184E+01-1.06247E-02-3.30232E-03 8.30751E-01-8.85981E-14-3.16442E-13
 -1       212 2.49328E+01-9.10072E-02-5.59361E-03 7.07392E-01 3.11181E-14-3.31998E-13
 -1       213 2.54733E+01-2.14497E-01-6.67014E-03 3.40568E-01 2.49529E-13-2.20143E-13
 -1       214 2.56467E+01-3.51984E-01-5.31392E-03-3.36570E-01-9.26993E-14-1.02957E-13
 -1       215 2.52519E+01-4.10580E-01-1.59382E-03-1.25142E+00-1.24692E-14-7.73557E-14
 -1       216 2.42007E+01-2.51937E-01-1.43286E-03-2.05970E+00 4.27575E-14-3.43182E-13
 -1       217 2.27182E+01 1.62771E-01-8.81901E-03-2.19194E+00 5.50341E-16-1.80056E-13
 -1       218 2.14218E+01 6.07050E-01-1.85832E-02-1.28284E+00-2.77400E-13-7.97175E-14
 -1       219 2.10002E+01 6.91868E-01-2.03258E-02 2.77596E-01-1.23053E-13-2.60518E-13
 -1       220 2.15870E+01 3.34928E-01-1.15527E-02 1.50194E+00-1.04312E-13-6.32248E-13
 -1       221 2.26281E+01-1.33732E-01-2.34803E-03 1.72025E+00-8.47824E-14-7.59165E-13
 -1       222 2.34190E+01-3.89559E-01-7.82245E-04 1.07674E+00 8.02657E-15-4.37103E-13
 -1       223 2.35976E+01-3.88594E-01-2.86484E-03 1.44712E-01 2.90316E-13-4.02904E-13
 -1       224 2.31793E+01-2.51375E-01-4.09546E-03-6.13835E-01 3.71468E-13-2.24248E-13
 -1       225 2.23778E+01-8.32784E-02-3.18830E-03-1.00625E+00 3.66402E-14-1.94173E-13
 -1       226 2.14567E+01 8.01042E-02-1.10728E-03-1.01169E+00 1.83555E-13-1.48397E-13
 -1       227 2.06270E+01 2.31168E-01-6.36384E-04-6.72465E-01-4.11903E-14-1.74925E-14
 -1       228 2.09639E+01 2.77021E-01-5.13338E-02 1.16488E+00 1.37161E-13 1.04225E-12
 -1       229 1.98692E+01 1.26841E-01 8.30933E-03 4.43183E-01 1.14138E-13 9.03841E-13
 -1       230 1.93628E+01 5.80591E-02 1.27341E-02 1.50149E-01 9.11654E-14 7.96942E-13
 -1       231 1.91531E+01 2.77074E-02 7.62842E-03 1.09031E-02 6.67899E-14 7.17518E-13
 -1       232 1.91031E+01 1.30549E-02 3.82320E-03-5.81835E-02 3.68179E-14 6.81393E-13
 -1       233 1.91388E+01 5.10792E-03 1.90585E-03-9.05602E-02-2.83361E-14 6.41007E-13
 -1       234 1.92176E+01 5.69209E-04 1.00300E-03-1.02277E-01 4.30831E-14 6.09393E-13
 -1       235 1.93149E+01-2.01214E-03 5.43614E-04-1.02058E-01 4.60290E-14 5.52069E-13
 -1       236 1.94162E+01-3.37760E-03 2.82273E-04-9.51155E-02 6.80959E-14 5.05909E-13
 -1       237 1.95129E+01-3.95783E-03 1.24353E-04-8.47475E-02-8.53735E-15 5.09084E-13
 -1       238 1.96006E+01-4.02558E-03 3.00214E-05-7.30972E-02 8.45625E-14 5.40884E-13
 -1       239 1.96776E+01-3.75984E-03-2.15159E-05-6.15671E-02 4.55972E-14 4.55427E-13
 -1       240 1.97435E+01-3.27698E-03-4.31616E-05-5.10768E-02 4.78443E-14 3.73410E-13
 -1       241 1.97996E+01-2.64875E-03-4.35112E-05-4.22368E-02 6.97211E-14 3.85675E-13
 -1       242 1.98477E+01-1.91377E-03-2.83819E-05-3.54751E-02 2.72824E-14 3.76328E-13
 -1       243 1.98902E+01-1.08579E-03-1.72204E-06-3.11284E-02 5.52216E-14 2.62540E-13
 -1       244 1.99301E+01-1.60138E-04 3.37049E-05-2.95115E-02 1.04771E-13 1.52438E-13
 -1       245 1.99709E+01 8.80381E-04 7.57437E-05-3.09644E-02-4.76898E-14 2.19537E-13
 -1       246 2.00164E+01 2.05927E-03 1.22283E-04-3.58810E-02-1.10242E-13 1.72315E-13
 -1       247 2.00712E+01 3.39861E-03 1.70639E-04-4.47138E-02-1.93354E-14 2.46322E-13
 -1       248 2.01401E+01 4.90853E-03 2.16843E-04-5.79504E-02 2.03206E-13 1.30919E-13
 -1       249 2.02287E+01 6.57175E-03 2.54827E-04-7.60483E-02 1.72840E-13 1.36428E-13
 -1       250 2.03425E+01 8.32090E-03 2.75597E-04-9.93108E-02-8.71980E-14 7.83225E-14
 -1       251 2.04875E+01 1.00054E-02 2.66622E-04-1.27679E-01-2.46379E-13 8.93146E-14
 -1       252 2.06685E+01 1.13453E-02 2.12056E-04-1.60404E-01-1.14728E-13 3.43801E-13
 -1       253 2.08886E+01 1.18706E-02 9.49361E-05-1.95568E-01 2.53002E-14 4.78412E-13
 -1       254 2.11473E+01 1.08547E-02-9.68367E-05-2.29426E-01 5.19918E-14 6.70397E-13
 -1       255 2.14381E+01 7.26391E-03-3.58594E-04-2.55602E-01-3.41949E-14 2.79562E-13
 -1       256 2.17451E+01-2.13174E-04-6.50539E-04-2.64286E-01 1.54804E-13 3.79042E-13
 -1       257 2.20399E+01-1.29356E-02-8.77893E-04-2.41878E-01-2.71317E-14 4.14440E-13
 -1       258 2.22783E+01-3.16836E-02-8.87461E-04-1.71923E-01-1.47925E-13 3.16863E-13
 -1       259 2.24006E+01-5.54115E-02-5.11556E-04-3.87844E-02-5.16709E-14 2.27770E-13
 -1       260 2.23376E+01-7.94318E-02 2.95372E-04 1.64322E-01 1.81669E-14 3.86060E-13
 -1       261 2.20270E+01-9.39967E-02 1.27203E-03 4.22718E-01 6.42810E-14 3.23245E-13
 -1       262 2.14416E+01-8.54755E-02 1.79511E-03 6.87533E-01 3.75587E-13-5.64908E-14
 -1       263 2.06238E+01-4.27572E-02 1.16089E-03 8.73969E-01 7.20316E-14-9.56154E-14
 -1       264 1.97088E+01 3.10345E-02-8.08105E-04 8.85802E-01-3.20659E-13 8.17315E-14
 -1       265 1.89072E+01 1.10366E-01-3.21227E-03 6.69854E-01 3.79479E-14 1.18521E-13
 -1       266 1.84310E+01 1.56892E-01-4.21045E-03 2.69004E-01-1.87628E-14 1.49690E-13
 -1       267 1.83924E+01 1.44084E-01-2.67424E-03-1.77125E-01 1.25957E-13 4.25129E-13
 -1       268 1.87407E+01 7.96310E-02 6.29159E-04-5.02596E-01-5.32306E-14 3.34669E-13
 -1       269 1.92914E+01-9.54301E-04 3.18193E-03-6.09341E-01-1.63873E-13 4.75328E-13
 -1       270 1.98257E+01-6.04417E-02 3.78590E-03-5.09636E-01 2.06995E-13 3.83762E-13
 -1       271 2.01879E+01-8.13332E-02 2.64738E-03-2.94978E-01 3.32659E-13 2.12000E-13
 -1       272 2.03270E+01-6.64737E-02 8.84270E-04-7.55385E-02 1.23229E-13 2.66614E-13
 -1       273 2.02861E+01-3.02385E-02-9.98685E-04 6.57837E-02-1.60763E-13 1.11620E-13
 -1       274 2.01595E+01 1.19315E-02-1.59376E-03 9.23029E-02 1.33937E-13 1.45266E-13
 -1       275 2.00451E+01 3.20182E-02 1.43817E-03 2.76390E-02 1.27880E-13 2.39192E-13
 -1       276 2.00588E+01 1.15986E-01 2.47151E-03 9.10728E-02 1.01676E-13 7.30600E-13
 -1       277 2.00958E+01 3.30502E-01 3.41871E-03 2.79003E-01 4.54192E-13-1.61882E-13
 -1       278 2.01251E+01 7.30805E-01 2.92774E-03 5.50443E-01 2.65718E-13-2.40890E-13
 -1       279 2.01351E+01 1.37616E+00 2.27550E-03 8.70501E-01-1.07860E-13-2.96384E-13
 -1       280 2.01048E+01 2.25619E+00 2.99874E-04 1.15831E+00-5.34738E-13-8.78480E-13
 -1       281 2.00228E+01 3.33162E+00-2.06829E-03 1.31217E+00-3.11529E-13 7.76648E-15
 -1       282 1.98997E+01 4.42479E+00-4.45110E-03 1.21406E+00-4.49342E-13 3.08774E-13
 -1       283 1.97752E+01 5.30065E+00-6.06805E-03 8.11390E-01 1.11721E-13 2.25632E-13
 -1       284 1.97036E+01 5.72537E+00-6.85754E-03 1.67311E-01 9.62919E-14 1.27524E-13
 -1       285 1.97201E+01 5.56600E+00-6.67677E-03-5.44727E-01-2.24644E-13 2.61014E-13
 -1       286 1.98127E+01 4.87238E+00-5.21267E-03-1.11138E+00 1.48187E-13-3.75706E-13
 -1       287 1.99412E+01 3.79800E+00-2.92392E-03-1.41390E+00 1.12698E-13 1.98548E-13
 -1       288 2.00604E+01 2.60016E+00 2.71308E-05-1.41152E+00 1.09666E-13 9.54660E-14
 -1       289 2.01687E+01 1.50094E+00 2.08443E-03-1.13188E+00 4.81629E-14-9.57025E-14
 -1       290 2.03656E+01 7.76451E-01 3.82593E-03-1.01787E+00-5.51583E-14-3.58511E-13
 -1       291-7.77002E-01-1.11283E+01-8.73079E-01 1.60134E+00 6.92460E-13 1.05538E-12
 -1       292 4.31963E+00-8.67750E+00-5.58870E-01 4.99536E+00 1.27057E-12 1.25989E-12
 -1       293 1.12356E+01-5.45541E+00-4.23678E-01 6.27599E+00 1.46200E-12 1.23763E-12
 -1       294 2.25815E+01-2.00114E+00-1.12814E-03 7.24472E+00 1.10356E-12 9.48880E-13
 -1       295 3.25151E+01 2.95938E+00 4.20779E-01 7.40300E+00 1.47175E-12 6.08513E-13
 -1       296 4.08046E+01 5.67914E+00 6.62587E-01 4.70100E+00 8.93757E-13 5.09454E-13
 -1       297 4.75090E+01 6.82625E+00 1.03577E+00 2.38371E+00 6.64316E-13 1.86115E-13
 -1       298 4.59787E+01 7.09316E+00 8.77168E-01-1.35806E+00 7.26696E-13-3.67914E-13
 -1       299 4.24629E+01 5.74150E+00 8.46668E-01-5.47716E+00 3.74041E-13-5.15865E-13
 -1       300 3.29612E+01 2.56603E+00 3.35427E-01-6.13120E+00 2.20865E-13-7.42156E-13
 -1       301 2.21439E+01 2.67282E-01 3.87221E-02-7.69632E+00 4.68459E-13-4.51639E-13
 -1       302 1.24733E+01-3.60762E+00-3.73955E-01-6.31039E+00 3.67761E-13-4.36887E-13
 -1       303 4.65420E+00-7.84055E+00-7.31513E-01-4.19669E+00 3.05145E-13-9.06430E-14
 -1       304 1.19584E-02-1.06721E+01-8.84512E-01-2.26000E+00 9.90874E-14-6.49661E-13
 -1       305-1.47520E+00-1.22806E+01-1.05815E+00-5.91467E-02-1.81560E-13-6.00187E-13
 -1       306 6.90926E-01-1.07834E+01-9.63374E-01 2.01724E+00-7.53730E-13-9.71709E-13
 -1       307 6.54087E+00-7.35862E+00-6.94104E-01 4.31338E+00-1.02612E-12-9.64367E-13
 -1       308 1.73582E+01-3.90023E+00-2.30225E-01 6.32330E+00-1.03451E-12-4.61603E-13
 -1       309 2.75794E+01 9.28377E-01 1.91362E-01 7.02670E+00-7.68663E-13-1.02723E-12
 -1       310 3.79207E+01 3.66491E+00 5.60201E-01 4.95919E+00-9.76921E-13-1.94872E-13
 -1       311 4.63841E+01 6.05672E+00 1.05276E+00 3.18253E+00-5.97897E-13 4.02733E-14
 -1       312 4.92553E+01 6.88341E+00 1.18835E+00-5.65847E-01-5.73902E-13 3.07445E-14
 -1       313 4.52755E+01 6.68026E+00 9.08343E-01-3.56481E+00-4.75495E-13 2.73143E-13
 -1       314 3.95219E+01 4.86640E+00 7.69251E-01-6.97583E+00-5.24313E-13 8.55316E-13
 -1       315 2.97628E+01 2.13486E+00 3.44673E-01-7.98327E+00-6.70380E-13 6.53422E-13
 -1       316 1.93026E+01-1.61312E+00-1.21832E-01-7.41742E+00-9.11216E-13 5.57498E-13
 -1       317 1.04327E+01-6.30621E+00-4.82505E-01-6.10052E+00-6.49536E-13 8.34319E-13
 -1       318 2.79961E+00-9.79653E+00-8.23680E-01-3.73672E+00-4.43784E-13 8.92043E-13
 -1       319-9.51224E-01-1.18334E+01-9.90520E-01-1.22389E+00 2.87576E-13 5.14422E-13
 -1       320 2.01461E+01 3.01494E+00-1.78021E-02-2.11026E+00-1.47002E-13-3.24641E-13
 -1       321 2.07553E+01 2.20990E+00-1.78584E-02-2.36345E+00-2.15483E-13-2.20584E-13
 -1       322 1.95825E+01 3.69208E+00-1.56049E-02-1.31860E+00-4.21489E-15-4.00855E-13
 -1       323 1.94603E+01 3.84824E+00-1.36950E-02-9.23915E-01 4.70507E-14-3.85544E-13
 -1       324 1.93912E+01 3.93928E+00-1.27072E-02-5.43917E-01 1.18366E-13-3.44715E-13
 -1       325 1.93606E+01 3.98064E+00-1.22928E-02-1.73255E-01 1.65900E-13-3.29648E-13
 -1       326 1.93619E+01 3.97905E+00-1.23118E-02 1.94410E-01 1.98660E-13-2.98216E-13
 -1       327 1.93953E+01 3.93416E+00-1.27579E-02 5.65399E-01 2.34368E-13-2.55958E-13
 -1       328 1.94662E+01 3.84089E+00-1.37652E-02 9.39357E-01 2.63604E-13-1.81775E-13
 -1       329 1.95931E+01 3.67865E+00-1.56529E-02 1.33340E+00 3.04669E-13-6.24917E-14
 -1       330 1.98088E+01 3.40997E+00-1.88304E-02 1.73867E+00 3.50243E-13 4.11017E-14
 -1       331 2.01794E+01 2.95520E+00-2.29397E-02 2.12723E+00 3.38305E-13 1.84714E-13
 -1       332 2.07493E+01 2.12942E+00-3.04694E-02 2.32220E+00 2.85030E-13 4.56912E-13
 -1       333 2.10959E+01 1.18771E+00-2.49230E-02 1.92195E+00 2.13931E-13 6.83226E-13
 -1       334 2.03922E+01 4.89270E-01 8.33178E-03 9.27375E-01 1.85088E-13 5.70834E-13
 -1       335 2.04590E+01 6.75093E-01 1.25582E-02-1.02585E+00-1.61904E-13-1.70211E-13
 -1       336 2.00368E+01 3.37191E-01 7.18545E-03-4.58069E-01-1.24726E-13-1.57596E-13
 -1       337 1.97827E+01 1.76482E-01 4.16751E-03-1.48949E-01-8.78594E-14-1.50588E-13
 -1       338 1.96472E+01 9.03734E-02 1.90473E-03 2.21139E-02-6.26614E-14-1.73584E-13
 -1       339 1.95916E+01 4.12319E-02 7.89922E-04 1.13160E-01-5.66659E-14-1.36553E-13
 -1       340 1.95861E+01 1.22674E-02 2.70118E-04 1.56221E-01-2.86965E-14-1.30121E-13
 -1       341 1.96099E+01-4.69361E-03 1.34090E-05 1.70214E-01-7.04338E-14-1.08579E-13
 -1       342 1.96492E+01-1.40929E-02-1.20083E-04 1.66926E-01-6.32220E-14-1.09179E-13
 -1       343 1.96949E+01-1.85757E-02-1.85658E-04 1.53990E-01-1.11781E-13-1.16765E-13
 -1       344 1.97416E+01-1.98204E-02-2.08983E-04 1.36461E-01-1.29218E-13-1.38571E-13
 -1       345 1.97862E+01-1.89233E-02-2.04591E-04 1.17717E-01-4.47992E-14-1.35673E-13
 -1       346 1.98272E+01-1.65961E-02-1.81533E-04 1.00035E-01 3.16442E-14-1.52215E-13
 -1       347 1.98644E+01-1.32765E-02-1.45369E-04 8.49827E-02-2.58460E-14-2.10479E-13
 -1       348 1.98985E+01-9.19723E-03-9.91193E-05 7.37017E-02-5.76922E-14-2.99237E-13
 -1       349 1.99307E+01-4.43086E-03-4.38320E-05 6.71199E-02-8.58036E-14-2.81703E-13
 -1       350 1.99628E+01 1.08002E-03 2.10273E-05 6.61203E-02-7.30567E-14-3.21735E-13
 -1       351 1.99972E+01 7.50227E-03 9.73111E-05 7.16765E-02-4.77906E-14-3.20008E-13
 -1       352 2.00365E+01 1.50981E-02 1.88005E-04 8.49648E-02-1.52881E-13-3.85186E-13
 -1       353 2.00842E+01 2.42145E-02 2.97053E-04 1.07458E-01 1.09794E-13-3.16952E-13
 -1       354 2.01441E+01 3.52714E-02 4.29108E-04 1.41002E-01 2.51513E-13-2.47255E-13
 -1       355 2.02208E+01 4.87403E-02 5.89027E-04 1.87865E-01 1.95203E-13-1.81243E-13
 -1       356 2.03194E+01 6.50964E-02 7.80805E-04 2.50750E-01 1.36126E-13-1.41282E-13
 -1       357 2.04460E+01 8.47123E-02 1.00534E-03 3.32706E-01 6.39586E-14-4.23204E-14
 -1       358 2.06070E+01 1.07634E-01 1.25603E-03 4.36886E-01 5.42923E-14-1.14794E-13
 -1       359 2.08092E+01 1.33133E-01 1.51062E-03 5.65960E-01-1.95152E-14-9.45641E-14
 -1       360 2.10597E+01 1.58855E-01 1.71749E-03 7.20934E-01-5.75721E-14-1.45301E-13
 -1       361 2.13648E+01 1.79318E-01 1.77534E-03 8.98936E-01 6.60900E-14-1.93265E-13
 -1       362 2.17303E+01 1.83464E-01 1.51060E-03 1.08932E+00-8.52452E-14-3.48488E-13
 -1       363 2.21606E+01 1.51293E-01 6.69581E-04 1.26737E+00-5.67560E-14-3.06035E-13
 -1       364 2.26597E+01 5.08086E-02-1.04044E-03 1.38533E+00-6.68936E-14-2.00077E-13
 -1       365 2.32306E+01-1.60072E-01-3.77710E-03 1.36227E+00 8.99964E-14 9.59579E-14
 -1       366 2.38716E+01-5.15317E-01-7.29446E-03 1.08002E+00 1.41642E-13 7.73438E-14
 -1       367 2.45550E+01-9.86944E-01-1.06091E-02 4.04157E-01 1.49962E-13 2.23844E-15
 -1       368 2.51783E+01-1.38985E+00-1.28353E-02-7.29499E-01 3.49000E-14 2.17652E-13
 -1       369 2.55182E+01-1.31732E+00-1.21799E-02-2.12845E+00-1.22105E-13 1.61646E-13
 -1       370 2.52673E+01-3.27937E-01-2.38598E-02-3.12378E+00-1.95074E-14 2.80980E-14
 -1       371 2.44869E+01 1.34946E+00-3.86078E-02-2.77652E+00-1.13977E-13-2.27780E-13
 -1       372 2.38453E+01 2.44600E+00-4.81262E-02-8.36467E-01-2.42372E-13-2.83479E-13
 -1       373 2.39521E+01 1.87313E+00-4.40802E-02 1.42009E+00-1.69351E-13-1.90964E-13
 -1       374 2.44830E+01 2.23159E-01-2.71880E-02 2.38044E+00-1.73550E-13-1.30144E-13
 -1       375 2.46634E+01-1.08262E+00-1.67792E-02 1.75955E+00 1.73569E-13 4.81445E-14
 -1       376 2.42372E+01-1.43853E+00-1.22039E-02 4.06310E-01 2.21757E-13 2.18411E-13
 -1       377 2.34270E+01-1.11910E+00-1.01762E-02-8.36724E-01 3.83058E-13 2.18951E-13
 -1       378 2.25105E+01-5.55768E-01-6.33428E-03-1.59159E+00 4.27286E-14 6.63517E-14
 -1       379 2.16481E+01 1.37225E-02-1.23312E-03-1.80192E+00-4.13217E-14 1.31759E-14
 -1       380 2.09824E+01 4.41183E-01 4.73344E-03-1.55937E+00 4.83093E-14-1.96307E-13
 -1       381 1.98905E+01 2.28458E-01 1.07950E-02 3.98754E-01 1.45777E-13 5.09983E-13
 -1       382 1.96018E+01 1.15287E-01 6.17482E-03 1.20130E-01 1.09123E-13 4.52977E-13
 -1       383 1.94671E+01 5.75725E-02 2.80732E-03-2.85964E-02 6.90161E-14 3.92472E-13
 -1       384 1.94271E+01 2.56690E-02 1.17638E-03-1.05334E-01-1.00831E-17 3.19815E-13
 -1       385 1.94427E+01 7.21818E-03 4.47110E-04-1.40405E-01 3.42222E-14 2.88644E-13
 -1       386 1.94885E+01-3.47951E-03 9.96864E-05-1.50759E-01 9.31648E-14 2.66985E-13
 -1       387 1.95485E+01-9.37298E-03-8.08636E-05-1.46622E-01 8.92129E-14 2.59658E-13
 -1       388 1.96128E+01-1.21670E-02-1.74590E-04-1.34491E-01-1.64090E-14 2.55898E-13
 -1       389 1.96755E+01-1.29308E-02-2.14977E-04-1.18619E-01 8.03725E-14 2.43208E-13
 -1       390 1.97334E+01-1.23613E-02-2.20140E-04-1.01818E-01 1.19624E-13 2.48509E-13
 -1       391 1.97852E+01-1.09131E-02-2.01501E-04-8.59648E-02 1.18685E-13 1.46608E-13
 -1       392 1.98310E+01-8.87059E-03-1.66416E-04-7.23243E-02 1.29944E-14 1.48549E-13
 -1       393 1.98717E+01-6.39443E-03-1.19372E-04-6.17882E-02 5.35195E-14 2.02938E-13
 -1       394 1.99087E+01-3.55346E-03-6.27586E-05-5.50430E-02 9.49738E-14 2.18144E-13
 -1       395 1.99444E+01-3.49689E-04 2.47622E-06-5.26942E-02 1.84190E-13 1.63167E-13
 -1       396 1.99812E+01 3.25942E-03 7.62633E-05-5.53527E-02 2.27795E-14 3.13496E-14
 -1       397 2.00222E+01 7.33777E-03 1.58812E-04-6.36847E-02-9.32511E-14-2.47290E-14
 -1       398 2.00707E+01 1.19427E-02 2.49896E-04-7.84226E-02-2.22007E-14-1.08668E-13
 -1       399 2.01307E+01 1.70878E-02 3.47910E-04-1.00326E-01 1.02145E-13-1.48715E-13
 -1       400 2.02062E+01 2.26901E-02 4.48621E-04-1.30080E-01 1.69626E-13-5.20197E-14
 -1       401 2.03017E+01 2.84946E-02 5.43470E-04-1.68093E-01-3.53939E-14 4.04303E-14
 -1       402 2.04216E+01 3.39668E-02 6.17448E-04-2.14178E-01-2.88356E-13 4.97506E-14
 -1       403 2.05695E+01 3.81472E-02 6.46721E-04-2.67052E-01-2.50317E-13 6.50336E-14
 -1       404 2.07481E+01 3.94698E-02 5.96696E-04-3.23620E-01-5.29854E-14 1.98535E-13
 -1       405 2.09576E+01 3.55693E-02 4.22130E-04-3.78022E-01 5.49439E-14 3.52440E-13
 -1       406 2.11944E+01 2.31615E-02 7.21443E-05-4.20482E-01 8.87066E-14 5.30728E-13
 -1       407 2.14493E+01-1.81235E-03-4.95579E-04-4.36215E-01 1.09553E-13 6.49909E-13
 -1       408 2.17053E+01-4.34156E-02-1.28777E-03-4.04958E-01 5.33144E-14 6.54260E-13
 -1       409 2.19355E+01-1.03762E-01-2.23423E-03-3.02326E-01-1.23810E-14 2.77403E-13
 -1       410 2.21021E+01-1.79302E-01-3.14710E-03-1.04858E-01-2.33372E-14 1.24088E-13
 -1       411 2.21575E+01-2.55424E-01-3.70592E-03 1.98918E-01-7.68964E-14 1.85761E-14
 -1       412 2.20505E+01-3.02182E-01-3.59545E-03 5.90540E-01 2.11836E-13 8.41185E-14
 -1       413 2.17429E+01-2.77667E-01-2.60494E-03 1.00214E+00 4.08114E-13 2.36067E-13
 -1       414 2.12356E+01-1.46424E-01-7.54601E-04 1.31037E+00 5.78858E-14 4.86335E-13
 -1       415 2.06000E+01 8.53723E-02 1.58306E-03 1.36652E+00-1.97112E-13 1.65168E-13
 -1       416 1.99877E+01 3.41266E-01 3.46773E-03 1.07544E+00-5.27200E-14-5.20786E-14
 -1       417 1.95822E+01 4.99312E-01 4.29844E-03 4.85412E-01-1.51151E-13 7.18123E-14
 -1       418 1.95025E+01 4.69873E-01 4.66623E-03-1.98770E-01-9.92123E-14 4.27857E-13
 -1       419 1.97237E+01 2.70215E-01 4.70457E-03-7.14330E-01 4.43881E-14 8.62104E-13
 -1       420 2.00928E+01 1.04836E-02 2.70662E-03-8.97731E-01-9.32129E-14 6.02451E-13
 -1       421 2.04293E+01-1.86765E-01 1.07203E-05-7.59071E-01 2.39016E-13 3.58050E-13
 -1       422 2.06150E+01-2.61672E-01-2.34703E-03-4.35832E-01 3.12669E-13 5.22149E-13
 -1       423 2.06214E+01-2.20237E-01-2.69277E-03-9.62501E-02 1.19975E-13 5.28972E-13
 -1       424 2.04872E+01-1.06634E-01-1.65275E-03 1.32642E-01-6.82410E-14 4.50326E-13
 -1       425 2.02875E+01 1.91767E-02-6.77974E-04 1.95406E-01-3.43431E-14 7.24502E-13
 -1       426 2.01701E+01 8.39265E-02 1.11394E-03 1.67073E-01 1.09879E-13 6.68263E-13
 -1       427 2.05058E+01 5.72093E-01 4.50596E-03 1.15840E+00-1.42712E-13-4.11999E-13
 -1       428 2.04152E+01 2.84857E-01 2.59267E-03 6.84272E-01-2.02975E-14-2.16305E-13
 -1       429 2.02812E+01 1.73671E-01 2.25413E-03 3.73388E-01-4.38201E-14 2.41306E-13
 -1       430 2.04691E+01 1.03531E+00 2.94679E-03 1.66329E+00-3.79565E-13-1.16849E-12
 -1       431 2.02569E+01 1.70179E+00 6.83055E-04 2.05956E+00-1.66919E-13-9.14942E-14
 -1       432 1.98578E+01 2.51222E+00-2.63812E-03 2.14119E+00 1.05690E-13 2.38986E-13
 -1       433 1.93659E+01 3.31629E+00-5.78888E-03 1.74510E+00-6.73313E-14 3.83117E-13
 -1       434 1.89702E+01 3.88910E+00-7.87670E-03 8.59037E-01-3.02630E-13-1.21791E-13
 -1       435 1.88597E+01 4.02898E+00-8.80161E-03-3.10679E-01-2.22813E-13 7.75439E-14
 -1       436 1.90826E+01 3.69108E+00-7.67131E-03-1.39419E+00-1.27549E-13 2.18066E-13
 -1       437 1.95305E+01 2.99034E+00-4.66568E-03-2.11870E+00 9.08267E-14 1.23596E-13
 -1       438 2.00166E+01 2.15090E+00-2.14133E-04-2.33777E+00 1.59541E-13 8.49618E-14
 -1       439 2.04110E+01 1.37310E+00 5.51133E-03-2.11506E+00 2.82320E-14-3.23602E-13
 -1       440 1.24506E+01-6.36316E+00-2.45301E-02 7.59762E+00 5.06928E-13 6.31502E-13
 -1       441 1.87147E+00-4.31367E+00 2.47368E-02-4.64559E-02 7.38326E-13 7.83124E-13
 -1       442 4.86893E+00-4.55392E+00 8.33334E-02 4.92126E+00 5.81507E-13 1.19693E-12
 -1       443 2.09915E+01-6.27487E+00-3.40043E-03 7.07074E+00 2.34396E-13 1.27516E-13
 -1       444 2.97409E+01-2.95605E+00 2.14998E-02 3.46145E+00 4.15896E-13-3.29306E-13
 -1       445 1.98031E+01 3.43114E+00-1.76716E-02-1.73813E+00-5.96179E-14-3.97371E-13
 -1       446 3.53218E+01 6.88128E+00-1.59627E-03-2.30941E-01 8.76563E-13 6.29080E-14
 -1       447 3.56563E+01 8.43568E+00-1.03187E-02 2.52830E-01 9.16850E-13-1.04765E-13
 -1       448 3.66910E+01 6.60417E+00 8.45381E-02 1.50316E-01 4.92120E-13-1.98397E-13
 -1       449 3.41268E+01 3.00996E+00 4.87321E-02-1.02685E+00 1.57187E-13-2.99399E-13
 -1       450 2.86432E+01-2.80417E+00-1.56028E-02-3.51563E+00 8.42590E-14-2.67411E-13
 -1       451 2.16542E+01-4.89073E+00-2.23527E-02-6.35830E+00 1.74721E-14-3.01981E-13
 -1       452 1.35145E+01-6.04941E+00-3.55712E-02-7.34743E+00-1.32644E-13-2.30170E-13
 -1       453 5.55212E+00-5.90450E+00-8.56570E-02-5.83939E+00-3.20521E-13 6.12010E-15
 -1       454 1.03131E+00-5.23213E+00-9.51526E-02-1.88266E+00-2.55927E-13-6.33493E-13
 -1       455 1.84963E+00-5.49004E+00-7.58272E-02 2.58984E+00-1.09489E-13-1.00937E-12
 -1       456 8.30505E+00-5.71677E+00 2.45980E-02 6.15460E+00 4.54914E-14-6.20379E-13
 -1       457 1.59931E+01-6.62655E+00-3.33418E-02 6.68165E+00-1.46674E-13-7.05278E-14
 -1       458 2.69784E+01-5.01906E+00 2.31609E-02 3.68658E+00-2.81095E-13-1.34254E-13
 -1       459 3.16953E+01-1.72790E+00-5.45548E-02 7.62943E-01-4.88370E-13 1.36807E-13
 -1       460 3.58842E+01 4.29736E+00 5.37066E-02-1.02972E+00-8.67237E-13-7.50372E-14
 -1       461 3.77405E+01 7.57299E+00 1.20894E-01-9.18010E-01-5.22415E-13-3.91499E-13
 -1       462 3.74816E+01 7.87610E+00 1.07751E-01-3.04711E-01-4.57578E-13-6.12024E-13
 -1       463 3.59263E+01 4.33205E+00 3.98028E-02-1.78463E-01-2.06904E-13-8.65280E-13
 -1       464 3.34108E+01 8.68174E-02 4.81203E-02-2.19005E+00-4.97380E-14-2.23072E-13
 -1       465 2.78264E+01-4.09629E+00-1.11461E-03-4.73873E+00-2.46025E-13-1.03792E-13
 -1       466 2.02746E+01-6.23312E+00-1.74785E-02-7.03905E+00-4.45199E-14 3.16934E-13
 -1       467 1.10070E+01-6.32175E+00-2.51591E-02-7.40995E+00 1.31645E-13 5.37806E-13
 -1       468 4.07528E+00-5.47326E+00-2.91676E-02-4.65314E+00 3.54994E-13 9.82839E-13
 -1       469 3.32732E+01 1.40360E+00-3.40534E-02 9.88263E-01 6.97838E-13-1.54876E-14
 -1       470 1.06399E+01-4.36706E+00 1.24226E-01 7.01023E+00 4.24105E-14 1.44745E-13
 -1       471 3.05592E+01-1.27334E+00-8.04847E-02-2.15612E-01-1.13208E-13 2.19866E-13
 -1       472 2.03734E+01 8.31945E-01 4.00994E-03 9.72066E-01 2.19851E-13 2.61845E-13
 -1       473 1.97328E+01 3.10383E+00-5.34036E-03-6.33853E-01 8.30735E-14-3.18954E-13
 -1       474 1.98295E+01 2.93013E+00-5.72130E-03-9.49709E-01 3.02968E-14-3.49625E-13
 -1       475 1.96651E+01 3.22647E+00-5.02102E-03 8.82880E-03 1.67422E-13-2.82564E-13
 -1       476 1.96836E+01 3.19347E+00-5.10205E-03 3.30479E-01 2.00850E-13-2.57448E-13
 -1       477 1.97374E+01 3.09668E+00-5.41294E-03 6.45917E-01 2.32945E-13-2.01613E-13
 -1       478 1.98360E+01 2.91885E+00-5.94488E-03 9.61564E-01 2.73680E-13-1.04836E-13
 -1       479 1.99913E+01 2.63382E+00-6.52729E-03 1.25678E+00 2.99599E-13 2.30343E-14
 -1       480 2.02336E+01 2.18771E+00-5.70388E-03 1.50155E+00 3.06507E-13 9.85687E-14
 -1       481 2.63190E+01-5.67354E+00-2.95401E-02 4.25219E+00 3.09912E-13-1.32869E-13
 -1       482 2.01117E+01 4.53505E-01 5.07372E-03 4.64223E-01 1.53016E-13 2.06783E-13
 -1       483 2.03441E+01 9.72806E-01 2.77900E-03-9.40160E-01-1.29199E-13-2.01533E-13
 -1       484 3.08749E+01 3.34404E+00-1.47135E-01-1.57147E+00 7.67490E-13 7.54119E-14
 -1       485 2.01719E+01 5.45317E-01 2.33972E-03-4.67961E-01-8.99037E-14-1.68046E-13
 -1       486 2.00243E+01 3.03530E-01 1.11942E-03-1.66780E-01-6.63383E-14-1.27916E-13
 -1       487 1.99235E+01 1.61441E-01 4.66592E-04 1.45783E-02-5.02776E-14-1.07887E-13
 -1       488 1.98646E+01 7.51644E-02 1.58546E-04 1.17056E-01-7.67086E-14-9.68141E-14
 -1       489 1.98371E+01 2.25022E-02 2.13741E-05 1.68316E-01-7.87816E-14-1.41272E-13
 -1       490 1.98309E+01-8.86508E-03-4.70800E-05 1.86967E-01-5.12921E-14-1.81259E-13
 -1       491 1.98381E+01-2.62939E-02-8.16508E-05 1.85634E-01-9.01454E-14-1.52529E-13
 -1       492 1.98530E+01-3.44447E-02-9.58738E-05 1.72938E-01-9.57550E-14-1.02745E-13
 -1       493 1.98719E+01-3.63771E-02-9.67823E-05 1.54788E-01-2.63946E-14-2.30308E-14
 -1       494 1.98923E+01-3.41177E-02-8.87490E-05 1.35242E-01-3.05274E-16 8.95148E-15
 -1       495 1.99129E+01-2.89771E-02-7.46023E-05 1.17117E-01-3.64796E-14-7.29262E-14
 -1       496 1.99333E+01-2.17416E-02-5.60274E-05 1.02418E-01-8.68283E-14-4.15483E-14
 -1       497 1.99537E+01-1.27991E-02-3.37764E-05 9.26767E-02-7.91710E-14-2.58426E-14
 -1       498 1.99746E+01-2.22431E-03-7.86026E-06 8.91959E-02-1.37280E-13 1.66814E-14
 -1       499 1.99970E+01 1.01627E-02 2.23179E-05 9.32501E-02-7.53869E-14-6.77513E-14
 -1       500 2.00221E+01 2.47532E-02 5.78802E-05 1.06241E-01-8.80122E-14-4.58590E-14
 -1       501 2.00516E+01 4.21170E-02 1.00415E-04 1.29822E-01 1.32113E-14 6.38485E-14
 -1       502 2.00873E+01 6.29707E-02 1.51909E-04 1.65988E-01 1.74191E-13-1.65186E-13
 -1       503 2.01311E+01 8.81358E-02 2.14635E-04 2.17139E-01 2.36982E-13-2.25431E-13
 -1       504 2.01851E+01 1.18462E-01 2.90902E-04 2.86089E-01 1.66396E-13-9.50713E-14
 -1       505 2.02516E+01 1.54676E-01 3.82494E-04 3.76008E-01 9.88414E-14-1.32395E-13
 -1       506 2.03326E+01 1.97077E-01 4.89490E-04 4.90234E-01 5.37157E-14-1.67733E-13
 -1       507 2.04300E+01 2.44947E-01 6.07906E-04 6.31863E-01-3.48686E-14-2.30790E-13
 -1       508 2.05457E+01 2.95457E-01 7.25315E-04 8.02979E-01-5.34824E-14-1.55484E-13
 -1       509 2.06820E+01 3.41734E-01 8.13429E-04 1.00328E+00-6.60645E-14-9.00465E-14
 -1       510 2.08431E+01 3.69656E-01 8.17246E-04 1.22779E+00-2.06503E-14 1.94986E-14
 -1       511 2.10388E+01 3.53077E-01 6.44902E-04 1.46312E+00-3.12788E-14 2.74908E-14
 -1       512 2.12908E+01 2.47991E-01 1.75064E-04 1.68175E+00-1.53261E-14 1.15203E-13
 -1       513 2.16434E+01-1.10857E-02-7.12725E-04 1.83317E+00 1.18038E-13 4.78994E-14
 -1       514 2.21739E+01-5.01924E-01-2.00771E-03 1.83106E+00 6.03832E-14 3.03435E-14
 -1       515 2.29925E+01-1.27052E+00-3.61388E-03 1.53901E+00 1.33230E-13 8.33028E-14
 -1       516 2.41909E+01-2.20476E+00-4.97360E-03 7.60258E-01 1.16144E-13 1.86778E-14
 -1       517 2.56935E+01-2.82123E+00-1.45454E-02-6.86867E-01 6.47728E-14 9.54722E-14
 -1       518 2.69806E+01-2.20188E+00-3.24322E-02-2.55302E+00-1.63133E-13 1.30030E-13
 -1       519 2.72226E+01 5.29459E-01-1.02102E-01-3.63798E+00-4.17749E-13 9.94985E-14
 -1       520 2.69146E+01 3.87833E+00-1.46018E-01-2.45800E+00-4.33507E-13-2.85872E-13
 -1       521 2.67577E+01 4.59959E+00-1.52579E-01 4.95029E-01-9.14685E-14-3.24890E-13
 -1       522 2.70934E+01 1.83911E+00-1.11936E-01 2.49936E+00 1.16920E-14-1.23996E-13
 -1       523 2.69119E+01-1.39473E+00-5.11074E-02 2.03564E+00 8.38392E-15 3.33674E-14
 -1       524 2.57231E+01-2.77607E+00-1.77747E-02 2.85016E-01 1.90762E-13-3.65706E-14
 -1       525 2.41379E+01-2.45849E+00-5.78666E-03-1.29844E+00 2.62886E-13 9.46704E-14
 -1       526 2.27124E+01-1.45053E+00-3.49174E-03-2.23006E+00 2.96891E-13 2.11648E-13
 -1       527 2.16689E+01-3.80820E-01 5.76759E-05-2.51804E+00-3.15641E-14 8.76144E-14
 -1       528 1.98092E+01 1.28761E-01 1.00225E-03-1.92850E-02 9.20929E-14 1.51968E-13
 -1       529 1.97512E+01 5.93925E-02 3.66369E-04-1.17659E-01 6.13691E-14 8.03721E-14
 -1       530 1.97322E+01 1.77042E-02 8.28156E-05-1.65737E-01 4.71660E-14 4.55242E-14
 -1       531 1.97380E+01-6.94810E-03-5.24842E-05-1.82412E-01 5.53934E-14 8.70285E-14
 -1       532 1.97583E+01-2.06166E-02-1.20860E-04-1.80074E-01 1.78278E-14 1.87926E-13
 -1       533 1.97860E+01-2.70426E-02-1.51211E-04-1.67021E-01 7.57557E-14 1.20933E-13
 -1       534 1.98165E+01-2.86521E-02-1.57171E-04-1.48855E-01 1.19782E-13 9.28567E-14
 -1       535 1.98471E+01-2.70442E-02-1.46945E-04-1.29380E-01 1.10855E-13 1.48152E-13
 -1       536 1.98764E+01-2.32593E-02-1.25857E-04-1.11195E-01 7.55776E-14 1.67572E-13
 -1       537 1.99041E+01-1.79398E-02-9.72693E-05-9.61157E-02-5.61606E-15 1.38779E-13
 -1       538 1.99304E+01-1.14371E-02-6.30215E-05-8.54753E-02 6.19065E-14 1.13438E-13
 -1       539 1.99563E+01-3.89037E-03-2.39221E-05-8.03463E-02 1.36341E-13 5.80278E-14
 -1       540 1.99830E+01 4.70975E-03 1.99346E-05-8.16980E-02 1.71944E-13 1.95399E-13
 -1       541 2.00123E+01 1.44593E-02 6.88238E-05-9.04991E-02-3.47403E-14 1.06520E-13
 -1       542 2.00460E+01 2.54742E-02 1.23008E-04-1.07766E-01-2.56121E-14 1.88836E-14
 -1       543 2.00864E+01 3.78073E-02 1.82235E-04-1.34549E-01 6.75428E-14 4.93189E-14
 -1       544 2.01362E+01 5.13368E-02 2.45107E-04-1.71839E-01 1.28873E-13 6.10313E-14
 -1       545 2.01980E+01 6.56110E-02 3.08193E-04-2.20378E-01 3.11457E-14 1.09484E-13
 -1       546 2.02748E+01 7.96333E-02 3.64838E-04-2.80328E-01-1.54359E-13 1.28097E-13
 -1       547 2.03695E+01 9.15700E-02 4.03666E-04-3.50761E-01-2.73727E-13 2.75821E-14
 -1       548 2.04851E+01 9.83798E-02 4.06933E-04-4.28918E-01-1.96697E-13-3.17942E-14
 -1       549 2.06240E+01 9.53959E-02 3.49228E-04-5.09204E-01 5.39884E-14-1.66459E-13
 -1       550 2.07885E+01 7.59761E-02 1.97644E-04-5.81919E-01-2.84133E-14-9.84355E-14
 -1       551 2.09795E+01 3.15098E-02-8.45165E-05-6.31844E-01-9.20895E-14 1.45835E-13
 -1       552 2.11966E+01-4.76341E-02-5.26911E-04-6.37061E-01 2.01504E-14 1.04004E-13
 -1       553 2.14366E+01-1.69227E-01-1.13110E-03-5.68844E-01 1.69621E-13 2.95202E-13
 -1       554 2.16905E+01-3.33056E-01-1.82684E-03-3.94225E-01 2.56876E-14 3.00701E-13
 -1       555 2.19386E+01-5.20584E-01-2.42732E-03-8.37710E-02-4.22910E-14 4.22806E-13
 -1       556 2.21435E+01-6.81728E-01-2.60203E-03 3.71623E-01 7.72730E-14 3.83130E-13
 -1       557 2.22452E+01-7.29472E-01-2.28014E-03 9.32540E-01 1.45568E-13 4.53173E-13
 -1       558 2.21747E+01-5.60982E-01-1.38406E-03 1.48185E+00 1.21446E-13 5.80268E-13
 -1       559 2.18912E+01-1.19235E-01 2.39909E-04 1.81970E+00 3.53415E-14 5.49848E-13
 -1       560 2.14490E+01 5.09057E-01 2.38737E-03 1.72660E+00-4.28072E-14 4.87140E-13
 -1       561 2.10266E+01 1.05543E+00 2.29790E-03 1.11989E+00 1.24464E-13 2.73147E-13
 -1       562 2.08274E+01 1.22953E+00 6.62725E-04 1.82231E-01-1.91758E-13-1.19716E-13
 -1       563 2.09402E+01 9.06507E-01 3.09929E-03-6.83258E-01-1.37832E-13-1.48855E-13
 -1       564 2.12184E+01 2.93995E-01 2.63797E-03-1.13035E+00 8.67152E-14-1.94208E-14
 -1       565 2.14474E+01-2.80569E-01 7.57112E-04-1.06706E+00 2.38723E-13-1.87231E-13
 -1       566 2.14837E+01-5.92935E-01-2.20574E-03-6.60077E-01 2.04126E-13-7.71424E-14
 -1       567 2.13150E+01-6.03177E-01-3.46154E-03-1.60464E-01 1.52513E-13-1.23675E-13
 -1       568 2.10068E+01-3.95004E-01-1.98103E-03 2.37391E-01-3.80903E-14 1.15646E-13
 -1       569 2.06397E+01-9.30746E-02-4.50415E-04 4.27642E-01-1.61022E-13 3.49154E-13
 -1       570 2.08273E+01 2.87467E-01 1.78259E-03 2.36624E+00 9.41503E-14-3.42041E-13
 -1       571 2.02084E+01 8.42674E-01-2.22390E-04 2.80600E+00 1.13908E-13 3.16617E-13
 -1       572 2.09462E+01-1.08784E-01 1.26537E-03 1.04734E+00-1.67201E-13-4.61623E-13
 -1       573 2.10480E+01-1.74115E-02 1.93452E-03 1.70808E+00-2.30863E-13-8.52422E-13
 -1       574 1.92384E+01 1.61529E+00-6.16344E-04 2.71779E+00 7.57565E-14 1.49548E-13
 -1       575 1.82236E+01 2.38913E+00-9.66853E-04 1.89451E+00-8.50803E-14-1.82248E-14
 -1       576 1.76305E+01 2.83927E+00-1.26525E-03 4.34297E-01-3.54223E-13 1.94727E-13
 -1       577 1.77673E+01 2.74887E+00-2.60986E-03-1.17982E+00-3.70833E-14 2.62730E-13
 -1       578 1.85569E+01 2.17920E+00-1.88423E-03-2.43290E+00 8.05224E-14 5.96769E-14
 -1       579 1.96077E+01 1.42045E+00-2.22035E-03-2.97262E+00 5.94064E-14 8.25059E-15
 -1       580 2.05085E+01 7.84188E-01 1.49240E-03-2.83698E+00-3.70610E-13-2.87140E-13
 -1       581 6.77826E+00-1.31254E+00 2.13008E-01 2.36917E+00 6.16862E-13 7.14567E-13
 -1       582 1.84598E+01-5.94231E+00 9.55222E-02 7.41368E+00-4.21746E-14-8.40890E-14
 -1       583 1.99242E+01 2.46189E-01 2.45783E-03 1.58993E-01 1.40413E-13 1.67241E-13
 -1       584 6.38540E+00-1.83599E+00 1.95588E-01-2.94300E+00 6.32969E-13 1.28703E-12
 -1       585 2.03973E+01 1.75565E+00-5.96504E-03-1.53711E+00-1.47017E-13-2.57339E-13
 -1       586 1.02109E+01-3.59375E+00 1.44259E-01-6.33245E+00 3.59102E-13 8.57994E-13
 -1       587 7.70292E+00-2.58237E+00 1.74894E-01 4.45316E+00 1.56125E-13-5.14769E-13
 -1       588 1.96807E+01 3.19787E+00-5.09815E-03-3.12894E-01 1.38635E-13-3.09670E-13
 -1       589 2.55893E+01-5.35175E+00 2.22839E-03-3.86376E+00-3.14200E-13 5.56846E-14
 -1       590 3.00448E+01 6.95397E+00-1.87544E-01-6.85661E-01 9.89403E-13-1.70773E-13
 -1       591 3.00932E+01 6.89452E+00-1.96572E-01 1.44077E+00 6.44831E-13 2.06245E-13
 -1       592 3.13169E+01 3.82168E+00-1.43628E-01 1.90636E+00 5.54834E-14 1.56541E-14
 -1       593 3.14260E+01 5.22034E+00-1.67531E-01-2.57307E+00-6.25444E-13-2.36026E-13
 -1       594 2.01011E+01-5.88302E+00 7.62131E-02-6.42056E+00-3.99292E-13 2.76038E-16
 -1       595 1.22771E+01-4.46918E+00 1.30350E-01-7.05401E+00-3.22908E-13-8.81378E-14
 -1       596 6.15310E+00-2.75877E+00 1.60348E-01-4.66792E+00-5.06949E-13-3.89577E-13
 -1       597 4.66459E+00-1.62915E+00 1.95363E-01 7.81154E-01-3.52893E-13-5.67435E-13
 -1       598 1.49735E+01-5.01375E+00 1.18396E-01 6.42375E+00 2.13753E-13-2.46261E-13
 -1       599 2.32940E+01-6.26181E+00 3.66816E-02 4.44915E+00-1.38084E-15 7.77850E-15
 -1       600 2.90777E+01-4.39291E+00-6.09449E-02 2.00739E-01-2.05917E-13 1.39874E-13
 -1       601 3.12612E+01 3.35540E-01-1.20229E-01-2.60773E+00-6.12593E-13 1.97550E-14
 -1       602 3.14779E+01 7.14908E+00-1.73870E-01-7.55176E-01-3.32928E-13-2.71898E-13
 -1       603 3.12679E+01 5.30709E+00-1.70022E-01 1.50753E+00-1.69989E-13-4.30642E-13
 -1       604 3.19440E+01 5.77595E-01-1.28133E-01 1.08700E+00 3.99750E-14-8.48321E-13
 -1       605 3.01474E+01-3.53655E+00-5.63200E-02-1.02334E+00 2.09884E-13-7.83519E-13
 -1       606 2.56197E+01-6.18504E+00 7.54250E-03-4.77818E+00 3.17378E-13-6.80116E-13
 -1       607 1.86509E+01-6.09516E+00 8.90862E-02-7.26575E+00 5.01710E-13-8.72080E-14
 -1       608 3.01854E+01-2.03184E+00-8.44284E-02 1.72955E-01 4.71095E-13 4.07570E-13
 -1       609 2.05853E+01 1.30522E+00-1.00000E-03 1.54796E+00 2.63864E-13 3.53310E-13
 -1       610 2.78473E+01-4.12542E+00-5.64039E-02-1.21194E+00-2.77521E-13 4.45918E-13
 -1       611 1.99728E+01 2.64912E+00-9.82627E-03-1.23920E+00-2.77907E-14-3.59445E-13
 -1       612 2.36472E+01-5.82016E+00 5.01517E-02 5.34683E+00-1.08819E-13-1.25886E-13
 -1       613 1.00888E+01-1.57406E+00 1.47456E-01 4.66254E+00 3.00628E-13 4.04440E-13
 -1       614 2.11453E+01 2.69213E-01 1.55096E-03-2.42524E+00-2.69429E-13 1.02715E-13
 -1       615 1.99603E+01 2.44897E+00-1.58558E-03 3.94290E-01 1.91163E-13-1.95926E-13
 -1       616 1.99285E+01 2.52384E+00-1.51382E-03 1.35800E-01 1.63271E-13-2.58539E-13
 -1       617 2.01203E+01 2.04573E+00-1.58227E-03 8.50604E-01 2.34368E-13-3.14280E-14
 -1       618 2.02394E+01 1.67517E+00-2.21824E-03 9.92044E-01 2.41373E-13 5.47225E-14
 -1       619 2.16297E+01-7.57797E-01 2.13701E-03 9.00189E-01-2.46878E-13-4.40662E-13
 -1       620 2.03191E+01 1.03671E+00 2.85922E-03 8.31755E-01 2.16166E-13 1.13577E-13
 -1       621 1.08779E+01-1.31803E+00 1.40789E-01-4.54196E+00 7.80022E-13 1.12394E-12
 -1       622 1.66504E+01-3.79932E+00 9.90970E-02-6.59244E+00 7.01241E-13-5.24889E-13
 -1       623 2.02393E+01 6.74867E-01 6.25967E-04-3.94977E-01-5.71620E-14-1.80695E-13
 -1       624 2.01672E+01 3.91416E-01 1.97792E-04-1.40381E-01-4.73004E-14-1.36411E-13
 -1       625 2.01018E+01 2.12011E-01 5.61685E-05 2.13601E-02-5.18903E-14-1.25083E-13
 -1       626 2.00515E+01 9.78351E-02 4.90476E-06 1.16248E-01-1.09512E-13-1.06750E-13
 -1       627 2.00165E+01 2.63447E-02-1.56793E-05 1.64975E-01-9.71026E-14-9.17461E-14
 -1       628 1.99941E+01-1.65881E-02-2.64304E-05 1.83209E-01-3.13776E-14-6.91922E-14
 -1       629 1.99814E+01-4.01793E-02-3.14382E-05 1.82382E-01-6.73999E-14-1.46776E-15
 -1       630 1.99754E+01-5.06030E-02-3.24745E-05 1.70685E-01-4.14779E-14-3.21781E-14
 -1       631 1.99743E+01-5.20432E-02-3.06250E-05 1.53917E-01-2.82816E-14-6.30213E-14
 -1       632 1.99765E+01-4.73031E-02-2.66961E-05 1.36173E-01-4.35493E-14-1.07435E-13
 -1       633 1.99810E+01-3.81794E-02-2.13267E-05 1.20366E-01-9.59976E-14-1.22361E-13
 -1       634 1.99872E+01-2.57122E-02-1.48522E-05 1.08650E-01-1.48665E-14-1.22993E-13
 -1       635 1.99947E+01-1.03575E-02-7.36615E-06 1.02732E-01-7.49284E-14-5.73894E-14
 -1       636 2.00037E+01 7.89111E-03 1.25488E-06 1.04121E-01-1.48364E-13 5.05264E-14
 -1       637 2.00140E+01 2.94137E-02 1.13033E-05 1.14322E-01-8.09460E-14 9.17932E-14
 -1       638 2.00259E+01 5.48926E-02 2.32187E-05 1.34981E-01-5.64271E-15 1.34109E-14
 -1       639 2.00395E+01 8.52505E-02 3.75793E-05 1.67987E-01-2.20671E-14-1.02912E-14
 -1       640 2.00547E+01 1.21583E-01 5.51009E-05 2.15538E-01 9.47015E-14-4.92813E-14
 -1       641 2.00715E+01 1.65063E-01 7.66245E-05 2.80157E-01 2.51095E-13-1.49897E-13
 -1       642 2.00891E+01 2.16767E-01 1.03061E-04 3.64653E-01 8.52530E-14-1.72136E-13
 -1       643 2.01064E+01 2.77371E-01 1.35264E-04 4.72005E-01-4.64474E-15-2.20678E-13
 -1       644 2.01216E+01 3.46571E-01 1.73726E-04 6.05136E-01 6.29086E-15-1.87676E-13
 -1       645 2.01323E+01 4.22057E-01 2.17878E-04 7.66566E-01 6.50456E-14-1.15366E-13
 -1       646 2.01361E+01 4.97703E-01 2.64617E-04 9.57892E-01 1.15037E-13 1.38810E-14
 -1       647 2.01321E+01 5.60575E-01 3.05737E-04 1.17912E+00 1.25005E-14 2.06252E-13
 -1       648 2.01249E+01 5.86242E-01 3.25377E-04 1.42779E+00-5.94095E-14 2.09974E-13
 -1       649 2.01312E+01 5.32124E-01 3.13199E-04 1.69785E+00 8.94337E-14 2.49828E-13
 -1       650 2.01930E+01 3.29639E-01 3.47713E-04 1.97730E+00 3.47025E-14 2.49864E-13
 -1       651 2.03991E+01-1.21078E-01 7.90747E-04 2.24122E+00 5.27951E-14 2.20763E-13
 -1       652 2.09114E+01-9.36277E-01 2.96173E-03 2.42707E+00-8.15942E-14 1.38841E-13
 -1       653 2.19703E+01-2.18466E+00 3.79850E-03 2.39518E+00 1.71348E-13 8.89241E-14
 -1       654 2.38913E+01-3.68049E+00 1.54670E-02 1.87200E+00 6.40169E-14 8.44290E-14
 -1       655 2.74421E+01-3.87420E+00-2.61422E-02-3.42968E-01 7.99283E-14-4.54468E-13
 -1       656 2.48864E+01-4.02798E+00-4.01506E-03-2.22931E+00 2.65022E-13-4.10939E-13
 -1       657 2.27262E+01-2.55364E+00 4.42447E-03-3.12183E+00 4.50095E-13-5.13760E-13
 -1       658 2.14000E+01-9.90459E-01 2.82421E-03-3.27003E+00 1.13488E-13-3.78770E-13
 -1       659 1.99727E+01 8.76706E-02 5.54023E-05-1.18663E-01 8.99236E-14 4.97277E-14
 -1       660 2.00265E+01 1.88978E-01 1.85931E-04-2.02599E-02 1.11259E-13 6.83939E-14
 -1       661 1.99252E+01-1.29624E-02-2.88784E-05-1.87001E-01 2.28383E-14 1.98803E-14
 -1       662 1.99207E+01-3.37588E-02-4.40412E-05-1.85820E-01 3.67819E-14-2.15903E-14
 -1       663 1.99235E+01-4.31584E-02-5.02124E-05-1.73505E-01 1.07114E-13 4.01937E-14
 -1       664 1.99308E+01-4.48421E-02-4.99167E-05-1.55940E-01 1.03849E-13 5.46269E-14
 -1       665 1.99407E+01-4.12717E-02-4.50525E-05-1.37228E-01 2.70226E-14 1.27920E-13
 -1       666 1.99520E+01-3.40466E-02-3.70209E-05-1.20248E-01 5.06597E-14 2.43236E-13
 -1       667 1.99642E+01-2.41368E-02-2.66613E-05-1.07076E-01 7.29036E-14 1.78779E-13
 -1       668 1.99773E+01-1.20504E-02-1.44712E-05-9.92989E-02 1.43149E-13 1.50917E-13
 -1       669 1.99915E+01 2.03723E-03-5.85893E-07-9.82388E-02 8.49671E-14 9.11449E-14
 -1       670 2.00072E+01 1.81695E-02 1.50929E-05-1.05119E-01 9.71236E-14 1.66381E-13
 -1       671 2.00252E+01 3.64941E-02 3.27685E-05-1.21162E-01 1.24814E-14 4.25848E-14
 -1       672 2.00464E+01 5.71322E-02 5.25229E-05-1.47620E-01 5.80286E-14-1.34308E-14
 -1       673 2.00721E+01 8.00142E-02 7.42197E-05-1.85736E-01 4.00965E-14-4.05885E-14
 -1       674 2.01034E+01 1.04659E-01 9.72155E-05-2.36611E-01 9.27987E-14 8.51290E-14
 -1       675 2.01422E+01 1.29873E-01 1.20029E-04-3.00959E-01-8.68073E-14 2.21209E-13
 -1       676 2.01904E+01 1.53348E-01 1.39866E-04-3.78710E-01-1.90206E-13 2.41796E-13
 -1       677 2.02508E+01 1.71129E-01 1.52015E-04-4.68426E-01-8.67671E-14-3.12124E-14
 -1       678 2.03270E+01 1.76995E-01 1.49166E-04-5.66487E-01 8.05957E-15-2.46474E-13
 -1       679 2.04241E+01 1.61801E-01 1.20775E-04-6.66013E-01-3.45490E-14-9.70317E-14
 -1       680 2.05496E+01 1.13087E-01 5.26916E-05-7.55495E-01-1.31794E-13-9.41277E-14
 -1       681 2.07137E+01 1.54872E-02-7.25102E-05-8.17210E-01-1.87550E-14-1.63314E-13
 -1       682 2.09298E+01-1.46914E-01-2.71316E-04-8.25623E-01-8.14081E-14 9.24242E-15
 -1       683 2.12127E+01-3.84457E-01-5.51163E-04-7.46492E-01-4.66473E-14 1.84431E-13
 -1       684 2.15727E+01-6.89770E-01-8.43148E-04-5.38371E-01-1.77786E-13 2.23843E-13
 -1       685 2.20038E+01-1.01811E+00-9.37821E-04-1.59300E-01 6.10793E-14 5.02746E-14
 -1       686 2.24604E+01-1.26058E+00-5.14345E-04 4.12118E-01 8.39517E-14 1.25220E-13
 -1       687 2.28364E+01-1.24002E+00-1.22072E-03 1.12897E+00 9.43868E-14 2.28295E-13
 -1       688 2.29972E+01-7.75205E-01-2.84995E-03 1.81905E+00 6.28369E-14 1.33833E-13
 -1       689 2.28222E+01 2.08481E-01-3.10253E-03 2.17034E+00 8.97619E-14 1.49402E-13
 -1       690 2.24210E+01 1.38995E+00-1.19538E-03 1.84178E+00 2.04667E-14 2.49144E-13
 -1       691 2.20595E+01 2.17115E+00-3.95877E-03 8.36755E-01 1.08963E-13 3.18765E-13
 -1       692 2.20957E+01 1.96511E+00-5.91170E-03-4.10812E-01 1.22984E-13-9.02841E-14
 -1       693 2.24239E+01 1.00931E+00-1.96621E-03-1.24022E+00 1.52558E-13-5.65251E-13
 -1       694 2.27006E+01-1.64191E-01-4.38441E-04-1.31774E+00 4.02083E-13-9.26542E-13
 -1       695 2.26628E+01-9.38942E-01-4.20797E-03-8.26555E-01-5.99620E-14-9.66520E-13
 -1       696 2.23135E+01-1.13908E+00-2.81321E-03-1.41423E-01 3.95355E-14-3.16632E-13
 -1       697 2.20420E+01-1.07475E+00-2.04653E-03 4.36711E-01 2.42777E-14-2.26012E-13
 -1       698 1.79455E+01 8.55669E-01 1.12146E-02 3.16786E+00-2.80310E-13-5.73036E-14
 -1       699 2.08426E+01-4.95386E-02-1.19632E-03-3.12245E+00-6.75884E-14-3.19517E-13
 -1       700 2.10943E+01-7.23200E-01-1.19703E-04 3.04602E+00-1.88650E-14 1.70708E-16
 -1       701 1.63697E+01 1.71941E+00 8.50332E-03 1.68792E+00-5.25469E-15-2.49717E-13
 -1       702 1.97763E+01-1.15878E-01 2.62498E-03 3.54106E+00-7.35457E-14 2.42210E-13
 -1       703 2.76184E+01-4.18993E+00-4.29809E-02 1.49103E+00 1.67155E-13 8.30065E-14
 -1       704 1.59002E+01 2.00575E+00 6.67991E-03-4.58089E-01 1.12370E-13 6.04872E-13
 -1       705 1.68375E+01 1.55840E+00 1.23178E-02-2.45090E+00 3.88417E-13 4.53907E-13
 -1       706 1.86771E+01 6.31625E-01 5.31754E-03-3.47836E+00 2.93218E-13-9.35059E-15
 -1       707 1.99308E+01 1.86631E-01 4.09714E-03-3.51175E+00 5.85760E-14-3.65907E-13
 -1       708 1.33133E+01-2.49351E+00 1.10325E-01 5.16684E+00 2.17309E-13-3.64098E-13
 -1       709 2.02807E+01 1.67885E+00 7.96658E-05-1.14079E+00-8.34056E-14-2.69111E-13
 -1       710 2.73321E+01-5.03024E+00-1.10134E-02-1.90466E+00 1.47720E-13-7.06771E-13
 -1       711 2.01050E+01 3.52791E-01 6.38362E-04 1.49492E-01 1.08079E-13 8.70690E-14
 -1       712 1.99408E+01 2.47300E-02-4.60141E-07-1.68621E-01 2.47210E-14 3.18355E-14
 -1       713 2.02908E+01 1.07613E+00-1.61053E-04-7.23352E-01-5.50418E-14-2.33479E-13
 -1       714 2.00241E+01 2.29448E+00-1.65111E-03 6.38030E-01 2.34746E-13-1.22844E-13
 -1       715 2.32761E+01-5.73609E+00 5.39062E-02-5.21629E+00 6.74336E-13-4.88963E-13
 -1       716 2.00188E+01 2.30490E+00-1.55269E-03-6.29641E-01 5.77839E-14-2.78116E-13
 -1       717 2.70468E+01 6.29112E+00-1.49545E-01 3.98953E-01 5.72251E-13 1.27537E-13
 -1       718 2.03156E+01-4.77207E+00 6.79690E-02 4.79867E+00 1.60191E-13 9.40654E-15
 -1       719 2.70138E+01 3.92945E+00-1.37092E-01-1.74079E+00 9.51902E-13 4.59407E-14
 -1       720 2.33667E+01-5.41563E+00 3.61648E-02-4.28745E+00-4.71248E-13 2.70327E-13
 -1       721 2.78684E+01 4.26315E+00-1.34013E-01 2.43218E+00 1.59928E-13 5.66217E-13
 -1       722 1.75409E+01-4.58760E+00 8.60283E-02-6.30754E+00-3.84890E-13 6.90697E-14
 -1       723 1.14532E+01-2.14697E+00 1.49357E-01-5.47655E+00-4.97997E-13-1.95208E-13
 -1       724 9.04102E+00-3.54132E-01 1.64452E-01 2.26231E+00-2.31586E-14-1.03334E-13
 -1       725 7.56731E+00-4.18549E-01 1.34213E-01-1.99088E+00-3.77169E-13-4.00228E-13
 -1       726 2.63354E+01-5.06357E+00 1.63100E-02 1.30445E+00-6.12687E-14 6.22419E-15
 -1       727 2.90522E+01 1.85496E-01-9.29990E-02 2.04087E+00-3.09041E-13 2.05676E-13
 -1       728 2.02057E+01 6.13650E-01 9.76007E-04 4.20635E-01 1.70618E-13 7.80931E-14
 -1       729 9.43653E+00 3.93923E-02 1.51652E-01-6.60661E-01 3.05825E-13 8.41494E-13
 -1       730 2.93325E+01-1.87711E+00-1.02447E-01 1.36891E+00 1.22288E-13-7.11500E-13
 -1       731 1.59283E+01-4.05722E+00 1.16459E-01 6.99388E+00 3.42157E-14-1.70523E-13
 -1       732 2.81299E+01 5.58444E-01-9.96152E-02-1.76156E+00 6.09960E-13-9.60967E-14
 -1       733 2.01191E+01 2.06293E+00-1.17405E-03-8.54541E-01-8.64037E-15-3.14623E-13
 -1       734 2.58591E+01-4.91839E+00 6.24677E-03 2.91742E+00-1.11312E-13 6.49533E-14
 -1       735 1.99275E+01 2.52553E+00-1.50292E-03-1.26607E-01 1.31222E-13-2.78380E-13
 -1       736 2.55548E+01-4.85183E+00-8.41951E-03-2.12301E+00-5.65091E-13 2.29225E-13
 -1       737 3.01071E+01 1.23207E+00-1.11459E-01 2.17505E+00 1.61607E-13-7.70738E-13
 -1       738 2.16913E+01-9.05550E-01 1.50628E-03 2.17863E+00-1.20811E-13-5.77767E-13
 -1       739 1.06252E+01 2.18063E-01 1.11679E-01 1.70468E+00 3.70992E-14 6.33910E-13
 -1       740 1.99573E+01 2.45470E+00-1.53252E-03-3.84489E-01 9.54146E-14-2.51515E-13
 -1       741 2.06972E+01-4.71564E+00 6.47223E-02 6.04436E+00 6.73246E-14-1.44149E-13
 -1       742 2.57812E+01 4.66667E+00-9.33762E-02 1.65880E+00 3.37914E-13 9.25822E-14
 -1       743 2.72765E+01-1.91638E+00-3.68487E-02-8.82624E-01 1.83936E-13 5.22273E-14
 -1       744 2.47164E+01 4.37981E+00-7.84207E-02-4.65743E-01 8.51142E-13 1.99625E-13
 -1       745 2.02716E+01 1.30099E+00 8.20890E-04 6.31175E-01 1.97011E-13 3.52785E-14
 -1       746 2.02621E+01 4.32292E-01-5.98977E-05-9.44903E-02-1.39073E-14-1.41010E-13
 -1       747 2.02220E+01 2.33793E-01-2.00530E-05 3.49678E-02-1.07488E-13-1.31682E-13
 -1       748 2.01807E+01 1.03517E-01-1.54182E-05 1.12108E-01-1.06039E-13-1.35601E-13
 -1       749 2.01434E+01 2.09102E-02-1.09601E-05 1.51768E-01-6.12878E-14-1.08361E-13
 -1       750 2.01117E+01-2.85300E-02-9.96781E-06 1.66147E-01 1.60322E-15-1.50429E-13
 -1       751 2.00860E+01-5.49072E-02-9.13964E-06 1.64622E-01-3.33865E-14-4.09414E-14
 -1       752 2.00657E+01-6.52881E-02-8.35716E-06 1.54172E-01-3.98785E-14 7.77916E-15
 -1       753 2.00501E+01-6.45774E-02-7.33296E-06 1.39867E-01-7.53078E-14 1.20581E-15
 -1       754 2.00385E+01-5.60686E-02-6.02359E-06 1.25366E-01-8.33562E-14-7.10652E-14
 -1       755 2.00300E+01-4.18341E-02-4.53313E-06 1.13344E-01-7.08299E-14-3.90001E-14
 -1       756 2.00238E+01-2.30126E-02-2.97413E-06 1.05840E-01-7.41953E-14-6.43946E-14
 -1       757 2.00193E+01-1.18895E-05-1.27522E-06 1.04524E-01-7.03552E-14-1.02079E-13
 -1       758 2.00155E+01 2.73426E-02 7.07954E-07 1.10916E-01-7.94429E-14-3.97793E-14
 -1       759 2.00117E+01 5.96827E-02 3.06308E-06 1.26542E-01-5.78082E-14 2.48626E-14
 -1       760 2.00067E+01 9.79937E-02 5.87249E-06 1.53047E-01 3.43684E-14 8.74431E-14
 -1       761 1.99991E+01 1.43515E-01 9.27708E-06 1.92251E-01 2.31654E-15 2.21302E-14
 -1       762 1.99871E+01 1.97619E-01 1.35112E-05 2.46168E-01 7.83353E-14 1.18884E-13
 -1       763 1.99681E+01 2.61643E-01 1.89003E-05 3.16972E-01 1.81210E-13-6.70791E-14
 -1       764 1.99388E+01 3.36601E-01 2.59120E-05 4.06913E-01 7.37666E-15-4.95847E-14
 -1       765 1.98949E+01 4.22710E-01 3.52318E-05 5.18198E-01 2.31906E-14-5.96861E-14
 -1       766 1.98306E+01 5.18574E-01 4.78215E-05 6.52868E-01 9.61866E-14-1.54899E-13
 -1       767 1.97396E+01 6.19822E-01 6.47831E-05 8.12770E-01 1.34441E-13-6.23242E-14
 -1       768 1.96150E+01 7.16884E-01 8.65622E-05 9.99806E-01 1.67404E-13 3.18060E-16
 -1       769 1.94520E+01 7.91507E-01 1.11383E-04 1.21680E+00 8.39898E-14 1.65538E-13
 -1       770 1.92516E+01 8.11559E-01 1.37436E-04 1.46943E+00-6.32514E-14 2.65454E-13
 -1       771 1.90287E+01 7.23660E-01 2.23739E-04 1.76974E+00-1.92026E-14 1.63525E-13
 -1       772 1.88280E+01 4.43632E-01 9.10979E-04 2.14003E+00-9.52717E-14 1.65906E-14
 -1       773 1.87454E+01-1.52406E-01 2.62380E-03 2.61786E+00-2.93340E-14-1.84881E-13
 -1       774 1.90484E+01-1.27341E+00 3.56972E-03 3.24455E+00 9.22899E-14 1.09855E-13
 -1       775 1.93962E+01-2.75048E+00 3.72058E-02 4.02323E+00-2.63930E-14-1.34523E-13
 -1       776 1.56630E+01-1.26302E+00 5.62359E-02-4.99359E+00 5.62083E-13 1.11132E-13
 -1       777 1.59500E+01-2.66797E+00 6.24822E-02-5.28494E+00-4.26912E-13-1.38610E-13
 -1       778 2.17627E+01-3.67784E+00 4.68723E-02-4.75593E+00 3.47507E-13-1.97690E-13
 -1       779 2.02442E+01-1.56611E+00 2.42228E-03-4.25761E+00 2.82732E-13-4.20573E-13
 -1       780 2.01705E+01 2.23714E-01 2.00697E-05-3.13933E-02 1.08511E-13 2.92026E-14
 -1       781 2.00417E+01-4.82563E-02-1.34846E-05-1.74060E-01 3.95647E-14-4.41599E-14
 -1       782 2.00620E+01-2.31401E-02-1.20417E-05-1.75467E-01 7.10839E-14 1.87481E-15
 -1       783 2.00180E+01-5.89272E-02-1.30901E-05-1.47329E-01 6.58417E-14 3.82196E-14
 -1       784 2.00121E+01-5.21621E-02-1.14898E-05-1.31271E-01-2.76827E-14-4.20186E-14
 -1       785 2.00091E+01-4.03561E-02-8.67412E-06-1.17482E-01 7.89452E-14 3.18760E-14
 -1       786 2.00081E+01-2.46876E-02-5.51951E-06-1.08031E-01 9.43165E-14 1.96780E-14
 -1       787 2.00088E+01-5.73319E-03-2.14677E-06-1.04559E-01 1.08038E-13 5.72953E-14
 -1       788 2.00107E+01 1.63533E-02 1.57943E-06-1.08491E-01 1.02853E-13 2.61983E-14
 -1       789 2.00136E+01 4.16738E-02 5.94156E-06-1.21180E-01 7.51106E-14-1.43492E-14
 -1       790 2.00173E+01 7.04085E-02 1.09294E-05-1.43993E-01-5.81930E-14-4.46053E-14
 -1       791 2.00217E+01 1.02611E-01 1.66501E-05-1.78333E-01-5.70654E-15 5.36553E-14
 -1       792 2.00269E+01 1.37944E-01 2.30821E-05-2.25583E-01-4.53954E-14 1.24160E-13
 -1       793 2.00333E+01 1.75333E-01 3.01085E-05-2.86977E-01-8.31340E-14 1.87176E-13
 -1       794 2.00417E+01 2.12501E-01 3.74152E-05-3.63362E-01-9.43897E-14 7.46254E-14
 -1       795 2.00539E+01 2.45363E-01 4.43640E-05-4.54840E-01 8.41013E-14-6.62721E-14
 -1       796 2.00731E+01 2.67266E-01 4.98254E-05-5.60258E-01 6.23483E-14-1.62307E-13
 -1       797 2.01049E+01 2.68118E-01 5.19339E-05-6.76504E-01-1.33655E-13-1.43051E-13
 -1       798 2.01585E+01 2.33561E-01 4.75719E-05-7.97547E-01-7.03291E-14-1.58175E-13
 -1       799 2.02488E+01 1.44548E-01 3.08839E-05-9.13083E-01-1.03675E-13-4.36071E-14
 -1       800 2.03976E+01-2.18052E-02-1.07784E-05-1.00654E+00-1.58622E-13 2.72010E-14
 -1       801 2.06355E+01-2.88429E-01-9.67721E-05-1.05212E+00-2.30873E-13-5.41188E-14
 -1       802 2.09991E+01-6.68541E-01-2.63740E-04-1.01077E+00-1.10067E-13 8.87698E-14
 -1       803 2.15219E+01-1.14602E+00-4.75839E-04-8.27619E-01 8.23669E-14-1.96607E-14
 -1       804 2.22214E+01-1.64769E+00 1.02141E-04-4.30712E-01 3.19971E-14 1.11737E-13
 -1       805 2.30329E+01-1.97082E+00 2.04102E-03 2.45697E-01 1.40297E-13-1.72231E-15
 -1       806 2.37816E+01-1.79913E+00-1.23630E-03 1.18912E+00 1.45212E-13-1.26619E-13
 -1       807 2.41294E+01-8.06323E-01-1.10321E-02 2.14593E+00-8.23317E-14-5.00704E-14
 -1       808 2.40761E+01 9.94862E-01-1.07559E-02 2.48950E+00-3.34899E-13 3.53479E-13
 -1       809 2.35239E+01 2.90922E+00-5.80421E-02 1.78132E+00 1.58285E-14 5.05351E-13
 -1       810 2.41921E+01 4.14634E-01-2.48375E-02-1.71337E+00 4.85092E-13-5.23240E-13
 -1       811 2.41564E+01-1.18362E+00-5.88458E-03-1.04250E+00 7.67875E-14-3.77448E-13
 -1       812 2.35412E+01-1.79514E+00 8.42825E-04-2.60512E-02-2.91404E-13-5.28286E-13
 -1       813 1.32496E+01-5.16704E-01 5.49143E-02 3.37686E+00-9.65217E-14-2.59520E-13
 -1       814 2.01392E+01 1.88814E+00-3.28355E-04 1.99360E-01 1.37958E-13-2.01792E-13
 -1       815 1.43386E+01 1.14374E+00 6.27056E-02-2.09073E+00 1.93212E-13 8.73790E-13
 -1       816 1.58510E+01 4.35065E-01 3.13462E-02 3.38661E+00-2.70993E-13 4.88273E-14
 -1       817 1.39620E+01 1.22866E+00 5.21230E-02 9.30408E-01 6.79084E-14 2.85259E-13
 -1       818 2.55553E+01 1.29309E+00-6.14827E-02-1.79851E+00 6.60043E-13-8.11177E-14
 -1       819 2.00275E+01-5.86583E-02-1.38406E-05-1.62878E-01 5.65235E-14-1.27020E-14
 -1       820 2.02197E+01 4.13393E-01-1.76745E-04 1.11753E-01 1.24620E-13 1.88864E-14
 -1       821 2.02878E+01 7.31542E-01 3.68805E-05-2.91322E-01-5.42029E-15-2.34207E-13
 -1       822 1.51411E+01-1.66781E+00 1.12113E-01 5.44352E+00 1.85355E-14-1.87341E-13
 -1       823 2.66177E+01 1.35299E+00-7.75909E-02 2.69950E+00-3.59272E-13 3.67038E-13
 -1       824 2.08653E+01-4.40882E+00 3.33425E-02-4.56049E+00-2.85586E-13 3.31089E-13
 -1       825 2.02761E+01 9.43500E-01 2.59749E-05 5.53345E-01 1.84941E-13 7.44895E-14
 -1       826 1.25941E+01 2.75783E-01 9.68716E-02-2.79355E+00 5.08010E-13 1.08516E-12
 -1       827 2.72759E+01-2.59032E+00-4.52830E-02 9.95516E-01-3.50488E-13 5.39666E-13
 -1       828 2.65712E+01-3.27577E+00-2.49975E-02 3.30142E-01 6.82220E-14 3.41194E-14
 -1       829 2.01276E+01 1.92639E+00-3.20563E-04 3.26195E-03 1.05531E-13-2.50432E-13
 -1       830 2.02193E+01 1.58177E+00-2.64274E-04 5.34483E-01 1.88619E-13-9.26712E-14
 -1       831 2.29286E+01-4.60586E+00-3.74238E-02-3.25841E+00-2.33360E-13 6.24518E-14
 -1       832 1.28877E+01-7.16791E-01 8.05007E-02-4.00892E+00-3.26239E-13-1.57816E-13
 -1       833 2.02880E+01 1.12293E+00 3.14751E-04-5.35135E-01-2.39569E-14-2.54392E-13
 -1       834 2.01258E+01 1.00939E-01-1.00721E-05-1.16164E-01 6.28987E-14 4.11321E-14
 -1       835 2.00896E+01 2.33550E-02-1.04892E-05-1.59597E-01 4.69101E-14 1.84853E-14
 -1       836 2.42144E+01 2.10082E+00-3.41403E-02-1.50795E+00 5.39288E-13-2.59861E-13
 -1       837 2.30339E+01-1.83851E+00 5.77144E-03 8.21835E-01-3.48970E-13-5.11540E-13
 -1       838 2.01712E+01 1.77522E+00-3.55462E-04 3.81507E-01 1.75487E-13-1.18409E-13
 -1       839 2.12056E+01-1.90435E+00 9.03667E-03 3.83206E+00 1.30648E-13 5.26851E-14
 -1       840 2.25278E+01-1.71532E+00 5.97211E-04 1.81702E+00-1.57218E-13-7.39034E-13
 -1       841 1.86950E+01-1.08702E+00 7.02109E-03 4.41662E+00-2.94575E-13-1.53507E-13
 -1       842 1.15778E+01 7.68101E-01 6.59244E-02 7.33514E-01 6.17293E-14-1.56002E-13
 -1       843 2.02535E+01 6.30132E-01-4.51850E-04 2.97102E-01 1.51560E-13 2.71571E-14
 -1       844 2.22323E+01-1.98699E+00-4.20487E-04 2.84715E+00 2.15873E-14-7.52784E-14
 -1       845 2.36842E+01-4.59018E+00 3.74635E-02 4.14227E+00 9.02793E-14-8.47976E-14
 -1       846 2.02157E+01 1.58969E+00-8.40699E-04-5.29641E-01 1.44014E-14-2.47656E-13
 -1       847 2.01691E+01 1.78137E+00-2.66338E-04-3.76044E-01 5.65622E-14-2.42724E-13
 -1       848 2.03048E+01 2.27723E-01 3.87785E-05 4.66944E-02-7.06562E-14-1.30881E-13
 -1       849 2.02691E+01 9.21546E-02-1.62458E-05 1.02454E-01-6.79979E-14-8.41878E-14
 -1       850 2.02300E+01 6.56263E-03-5.77143E-06 1.30456E-01-5.14944E-14-5.30796E-14
 -1       851 2.01921E+01-4.37782E-02-3.93967E-06 1.39587E-01 7.47654E-16-1.19994E-13
 -1       852 2.01576E+01-6.91410E-02-2.55968E-06 1.36983E-01-2.55449E-15-8.91975E-14
 -1       853 2.01272E+01-7.69493E-02-2.05612E-06 1.28067E-01-8.11814E-14-7.36314E-14
 -1       854 2.01012E+01-7.24067E-02-1.66130E-06 1.16833E-01-1.09549E-13-8.44095E-14
 -1       855 2.00790E+01-5.89659E-02-9.13715E-07 1.06218E-01-7.81721E-14-6.01443E-14
 -1       856 2.00600E+01-3.87417E-02-7.42637E-07 9.84303E-02-4.03528E-14-4.23839E-14
 -1       857 2.00431E+01-1.28122E-02-1.01656E-06 9.51880E-02-7.83041E-14 2.24684E-14
 -1       858 2.00270E+01 1.85778E-02-1.16971E-06 9.79320E-02-3.94453E-14 4.74458E-14
 -1       859 2.00101E+01 5.58299E-02-1.17419E-06 1.07998E-01-1.06202E-13 1.15897E-13
 -1       860 1.99907E+01 9.98268E-02-1.19537E-06 1.26716E-01 7.19284E-14 1.23375E-13
 -1       861 1.99662E+01 1.51796E-01-1.33851E-06 1.55458E-01-5.26636E-14 1.55040E-13
 -1       862 1.99340E+01 2.13166E-01-1.54858E-06 1.95652E-01 7.62706E-14 1.40024E-13
 -1       863 1.98904E+01 2.85378E-01-1.74263E-06 2.48738E-01 8.10731E-14 1.36521E-13
 -1       864 1.98306E+01 3.69635E-01-1.78643E-06 3.16082E-01 8.20288E-14 1.36916E-13
 -1       865 1.97490E+01 4.66517E-01-1.45411E-06 3.98872E-01-6.09345E-14 1.12746E-13
 -1       866 1.96381E+01 5.75391E-01-4.20853E-07 4.98038E-01 8.92738E-15 3.47035E-14
 -1       867 1.94888E+01 6.93502E-01 1.55293E-06 6.14318E-01 1.54748E-13-3.47278E-14
 -1       868 1.92904E+01 8.14595E-01 3.63695E-06 7.48690E-01 3.07588E-13 9.68258E-14
 -1       869 1.90304E+01 9.26851E-01 3.45677E-07 9.03585E-01 5.82899E-14 1.67994E-13
 -1       870 1.86953E+01 1.00992E+00-2.75664E-05 1.08548E+00 2.83576E-14 3.32303E-15
 -1       871 1.82725E+01 1.03071E+00-1.26834E-04 1.30987E+00 2.18310E-14 6.55933E-14
 -1       872 1.77534E+01 9.37114E-01-1.81378E-04 1.60965E+00-1.90006E-13 2.77481E-14
 -1       873 1.71401E+01 6.40929E-01-7.56692E-04 2.04798E+00-1.30178E-13 1.61079E-13
 -1       874 1.65413E+01 1.80194E-02 1.14180E-02 2.71730E+00 6.76474E-14 1.05206E-13
 -1       875 1.90935E+01-2.72742E+00 2.90633E-02-4.05167E+00-3.62445E-13 1.37156E-13
 -1       876 2.00619E+01-5.77914E-02-7.98062E-07-1.15516E-01 8.84089E-15-7.76860E-14
 -1       877 2.00797E+01-6.89724E-02-1.74796E-06-1.27941E-01 4.25008E-14 2.03104E-14
 -1       878 2.00349E+01-1.81256E-02 1.11671E-06-1.00684E-01 4.55990E-14-2.18104E-14
 -1       879 2.00239E+01 8.59499E-03 5.94691E-07-1.01675E-01 9.70424E-14 1.57493E-14
 -1       880 2.00132E+01 3.96663E-02 9.63414E-07-1.10173E-01 5.83823E-14 9.03129E-14
 -1       881 2.00019E+01 7.52663E-02 1.49476E-06-1.27556E-01 4.83276E-14 1.21250E-13
 -1       882 1.99888E+01 1.15590E-01 2.39253E-06-1.55257E-01-3.15993E-14 9.17278E-14
 -1       883 1.99729E+01 1.60556E-01 3.64324E-06-1.94789E-01-2.17359E-15 3.87847E-14
 -1       884 1.99533E+01 2.09451E-01 5.31487E-06-2.47715E-01-9.19004E-16-9.83499E-14
 -1       885 1.99295E+01 2.60453E-01 7.52649E-06-3.15566E-01-9.05906E-14-8.91504E-14
 -1       886 1.99017E+01 3.10024E-01 1.04420E-05-3.99700E-01 3.16367E-14-1.30188E-13
 -1       887 1.98716E+01 3.52129E-01 1.42938E-05-5.01095E-01 1.04543E-13-9.01620E-14
 -1       888 1.98431E+01 3.77282E-01 1.94423E-05-6.20070E-01-1.38065E-13 1.68145E-14
 -1       889 1.98238E+01 3.71484E-01 2.64116E-05-7.55872E-01-1.91016E-13 9.44254E-14
 -1       890 1.98272E+01 3.15192E-01 3.54876E-05-9.06039E-01-1.03072E-13 5.63316E-14
 -1       891 1.98751E+01 1.82709E-01 4.40953E-05-1.06517E+00-1.05261E-13-1.58794E-14
 -1       892 2.00017E+01-5.71125E-02 3.58098E-05-1.22233E+00 5.31743E-14 1.62729E-14
 -1       893 2.02567E+01-4.36718E-01-2.20762E-05-1.35564E+00-1.42832E-13-3.23713E-13
 -1       894 2.07063E+01-9.77697E-01-2.37398E-04-1.42189E+00 1.36237E-14-4.69414E-13
 -1       895 2.14185E+01-1.65640E+00 1.53651E-04-1.34102E+00-7.49519E-14-4.53512E-13
 -1       896 2.24687E+01-2.37987E+00-7.82920E-03-9.75934E-01-6.17388E-14-2.64419E-13
 -1       897 2.37996E+01-2.88816E+00-3.94998E-03-2.25081E-01 1.56611E-13 1.14488E-13
 -1       898 2.49995E+01-2.41664E+00-1.52624E-02 9.24877E-01-2.04283E-14 2.85623E-13
 -1       899 2.54866E+01-3.72214E+00 1.89700E-02-3.78318E-01-2.22017E-13 3.84439E-13
 -1       900 1.42706E+01 5.47136E-01 1.26910E-02 2.02039E+00-9.40981E-14-3.74246E-13
 -1       901 1.64726E+01-1.36687E+00 2.21096E-02-3.94336E+00-3.92149E-13-9.99504E-14
 -1       902 2.44885E+01-2.74760E+00-4.65076E-03 7.64249E-01-1.33395E-13-2.04205E-13
 -1       903 2.03327E+01 7.26412E-01-2.48094E-04-1.87915E-01 2.67884E-14-2.23917E-13
 -1       904 2.00472E+01-4.04353E-02 8.59054E-07-1.05811E-01 4.31172E-14-9.69257E-14
 -1       905 2.01378E+01 1.89136E+00-3.02629E-04-1.92871E-01 8.03502E-14-2.55027E-13
 -1       906 2.01582E+01-3.71089E-02-1.66524E-06-1.52876E-01 6.56094E-14-2.39751E-14
 -1       907 2.03024E+01 4.25882E-01-3.37066E-04 6.59966E-02 1.00811E-13 1.50309E-14
 -1       908 2.03303E+01 4.31037E-01 1.11103E-04-4.67116E-02-2.50683E-14-2.21365E-13
 -1       909 1.93236E+01-2.79041E+00 2.40280E-02 5.33999E+00 4.43239E-14-2.80505E-13
 -1       910 2.02759E+01 1.40535E+00-5.55895E-05 6.95448E-02 9.42608E-14-2.06842E-13
 -1       911 2.03031E+01 1.00299E+00-2.77600E-04 3.66704E-01 1.66759E-13-3.10757E-15
 -1       912 2.10455E+01-3.38648E+00 1.79953E-02-3.40715E+00-2.41097E-13 3.82984E-14
 -1       913 2.02847E+01 1.33740E+00-2.70726E-04 1.97061E-01 1.26823E-13-1.40624E-13
 -1       914 2.01275E+01-6.28854E-02-2.80927E-07-1.50495E-01 4.10529E-14-2.89973E-14
 -1       915 2.01934E+01 1.27323E-02-3.45301E-06-1.41747E-01 7.18870E-14-5.88214E-14
 -1       916 1.31025E+01 5.98177E-01 1.54197E-02-1.73460E+00-1.51978E-13-7.63226E-14
 -1       917 2.01013E+01-7.18077E-02 4.41540E-07-1.40682E-01 5.41548E-14-5.33580E-14
 -1       918 1.54249E+01 1.52589E-01 1.28474E-02-2.48328E+00-2.25765E-13-1.61402E-14
 -1       919 2.02967E+01 1.21125E+00 2.04717E-04-3.00558E-01 2.56646E-14-2.17807E-13
 -1       920 2.03125E+01 9.77533E-01 5.52182E-05-3.19375E-01 9.02141E-15-2.11667E-13
 -1       921 2.03059E+01 6.66950E-01 2.54961E-04 2.05995E-01 1.43164E-13 3.95891E-14
 -1       922 1.39824E+01 1.06421E+00 1.12492E-02 5.48262E-02-1.77133E-13-9.28093E-14
 -1       923 2.02695E+01 2.29448E-01 1.03268E-05-4.45524E-02 7.86256E-14 2.63509E-15
 -1       924 2.32397E+01-3.33752E+00 5.89615E-03 3.22537E+00 9.58645E-14 1.01230E-13
 -1       925 2.47529E+01-3.76418E+00-2.49145E-04 2.11284E+00-1.99417E-15 1.32170E-13
 -1       926 2.03254E+01 6.71877E-02-1.02075E-05 8.50738E-02-8.90496E-15-1.45483E-13
 -1       927 2.02840E+01-1.41330E-02-1.45249E-06 1.01689E-01-3.90918E-15-6.89540E-14
 -1       928 2.02413E+01-6.02668E-02-9.13901E-08 1.05906E-01 2.71143E-14-2.13988E-14
 -1       929 2.02006E+01-8.11739E-02 1.55460E-06 1.02676E-01-2.60787E-14-4.80583E-14
 -1       930 2.01633E+01-8.42513E-02 2.87804E-07 9.57303E-02-6.55042E-14 1.56135E-16
 -1       931 2.01298E+01-7.45625E-02 7.91523E-07 8.78519E-02-2.40948E-14 1.17326E-13
 -1       932 2.00999E+01-5.54168E-02 9.21414E-07 8.11490E-02-7.32277E-14 1.49340E-13
 -1       933 2.00726E+01-2.87829E-02-4.07230E-07 7.72183E-02-4.18162E-14 1.31877E-13
 -1       934 2.00465E+01 4.45665E-03-2.16930E-06 7.72951E-02-3.10336E-14 1.21183E-13
 -1       935 2.00197E+01 4.43198E-02-3.56688E-06 8.24540E-02-6.32726E-14 9.00191E-14
 -1       936 1.99900E+01 9.14267E-02-5.36612E-06 9.36800E-02 3.04006E-14 2.19051E-13
 -1       937 1.99546E+01 1.46844E-01-7.93717E-06 1.11890E-01 2.82599E-14 1.19071E-13
 -1       938 1.99100E+01 2.11908E-01-1.13259E-05 1.37936E-01 7.69052E-14 1.57950E-13
 -1       939 1.98522E+01 2.88016E-01-1.56337E-05 1.72559E-01 6.17672E-14 2.60966E-13
 -1       940 1.97760E+01 3.76377E-01-2.10352E-05 2.16277E-01 2.98725E-14 6.60803E-14
 -1       941 1.96751E+01 4.77677E-01-2.77972E-05 2.69253E-01 1.18550E-14 1.15942E-13
 -1       942 1.95418E+01 5.91638E-01-3.63900E-05 3.31156E-01-3.46085E-14 1.61556E-13
 -1       943 1.93663E+01 7.16412E-01-4.78119E-05 4.01102E-01 1.29794E-13 2.45203E-13
 -1       944 1.91364E+01 8.47783E-01-6.44035E-05 4.77833E-01 1.43898E-13 1.24314E-13
 -1       945 1.88368E+01 9.78145E-01-9.18157E-05 5.60425E-01 1.33239E-13-1.28723E-13
 -1       946 1.84474E+01 1.09522E+00-1.42873E-04 6.49988E-01 6.66622E-14-8.55344E-14
 -1       947 1.79411E+01 1.18052E+00-2.31583E-04 7.53002E-01 3.83992E-15-1.89712E-15
 -1       948 1.72791E+01 1.20779E+00-3.03712E-04 8.87195E-01-1.76864E-13-1.43556E-13
 -1       949 1.63990E+01 1.13817E+00 1.00136E-03 1.09385E+00-1.13913E-13-1.38160E-13
 -1       950 1.54592E+01 9.54616E-01 9.45359E-03 1.44184E+00-6.97774E-14-3.39893E-13
 -1       951 2.01180E+01-7.37354E-02 3.19280E-06-1.01295E-01 9.99734E-14-5.20006E-14
 -1       952 2.02756E+01 1.40684E+00 2.02177E-05-6.52306E-02 7.45082E-14-2.46639E-13
 -1       953 2.00233E+01 3.06860E-02 9.70275E-07-9.05444E-02 4.13748E-14 7.53166E-15
 -1       954 2.00452E+01-4.24850E-03 1.62148E-06-8.60250E-02 8.10700E-14-2.81075E-14
 -1       955 1.99738E+01 1.17542E-01-1.66388E-06-1.21828E-01 3.09078E-14 3.91994E-14
 -1       956 1.99423E+01 1.69969E-01-3.16132E-06-1.51365E-01 3.51352E-14-5.68055E-15
 -1       957 1.99038E+01 2.28223E-01-4.68108E-06-1.92279E-01-2.26907E-14 3.89502E-14
 -1       958 1.98563E+01 2.91185E-01-6.22490E-06-2.46411E-01-4.51793E-14 1.75201E-13
 -1       959 1.97985E+01 3.56295E-01-7.76305E-06-3.15834E-01-2.64410E-14 2.88025E-14
 -1       960 1.97297E+01 4.18834E-01-9.21357E-06-4.02880E-01 1.18031E-13 7.53886E-14
 -1       961 1.96512E+01 4.71035E-01-1.03778E-05-5.10195E-01-2.99251E-14 4.83581E-14
 -1       962 1.95667E+01 5.01023E-01-1.08521E-05-6.40807E-01-1.62649E-13-6.21904E-14
 -1       963 1.94847E+01 4.91607E-01-1.01206E-05-7.98212E-01-1.40788E-13-1.76517E-13
 -1       964 1.94203E+01 4.19002E-01-8.73185E-06-9.86304E-01-4.22294E-14-8.21860E-14
 -1       965 1.93997E+01 2.51627E-01-1.21041E-05-1.20872E+00-7.21972E-14-1.66372E-13
 -1       966 1.94659E+01-5.06109E-02-5.72178E-05-1.46614E+00 1.02552E-13-5.78113E-14
 -1       967 1.96878E+01-5.34494E-01-2.22466E-04-1.74856E+00 1.03477E-13-2.69248E-14
 -1       968 2.01674E+01-1.24253E+00-1.76542E-03-2.01994E+00-7.02893E-14 1.81882E-14
 -1       969 2.11052E+01-2.16882E+00 1.07752E-02-2.19767E+00-1.64101E-13 8.67665E-14
 -1       970 2.02850E+01 1.34229E+00 1.67477E-04-1.94324E-01 4.60956E-14-2.25321E-13
 -1       971 2.03467E+01 9.19284E-01 2.56845E-04-1.92544E-01 1.93024E-14-2.38743E-13
 -1       972 1.85973E+01-1.59163E+00 6.86258E-03-3.25329E+00-3.38376E-13 9.34036E-14
 -1       973 2.02988E+01 1.20314E+00-1.00578E-04 3.01613E-01 1.09841E-13-9.18458E-14
 -1       974 2.34929E+01-2.60306E+00 2.25614E-03 1.79896E+00 1.71291E-13-3.98888E-13
 -1       975 2.03783E+01 5.62648E-01-2.82814E-04-7.01098E-02 9.69545E-15-2.30943E-13
 -1       976 2.02315E+01 9.68213E-02-1.34750E-05-1.09064E-01 8.20473E-14-2.67330E-14
 -1       977 2.03602E+01 1.97804E-01-7.94910E-06 4.99619E-02-4.35258E-14-1.85346E-13
 -1       978 2.03761E+01 3.53905E-01-2.43195E-05 2.17973E-03-1.87632E-14-1.77821E-13
 -1       979 2.00002E+01 7.11792E-02-1.29348E-07-1.02039E-01 3.11338E-14 2.32647E-14
 -1       980 2.01484E+01-8.12010E-02 5.38622E-06-1.10793E-01 7.00814E-14-3.55598E-14
 -1       981 2.03691E+01 9.97815E-01-8.50049E-06 1.36917E-03 5.38492E-14-2.38828E-13
 -1       982 2.02616E+01-5.42427E-03 6.27846E-06-1.16123E-01 4.85119E-14-1.87909E-14
 -1       983 2.03615E+01 4.00205E-01-3.63484E-04 2.30441E-02 9.92994E-14-1.47594E-14
 -1       984 2.00674E+01-3.36652E-02 3.98989E-06-8.72030E-02 1.07685E-15 5.95649E-15
 -1       985 2.03484E+01 8.33214E-01 9.24987E-04 1.89152E-01 1.14174E-13-6.83638E-15
 -1       986 1.50883E+01 9.21675E-01 6.32655E-03-1.14549E+00-1.28724E-13 2.38093E-14
 -1       987 2.02210E+01-5.32794E-02 7.91457E-06-1.22131E-01 6.77959E-14 1.82727E-14
 -1       988 1.71993E+01-2.59188E-01 1.73995E-03-2.56040E+00-2.57624E-13 4.58139E-14
 -1       989 2.00912E+01-5.72181E-02 5.65012E-06-9.28200E-02 3.67378E-14-2.23290E-14
 -1       990 1.98508E+01-2.11571E+00-1.22266E-02-2.93012E+00-2.69505E-13-2.53620E-13
 -1       991 2.03674E+01 9.71312E-01 4.62663E-04 7.71884E-02 8.77131E-14-1.31674E-13
 -1       992 2.03018E+01 7.75092E-02-1.42218E-05-9.50020E-02 7.40912E-14 7.77843E-15
 -1       993 2.03097E+01-3.75637E-02-1.83439E-05 6.63925E-02 4.71262E-14-1.00391E-13
 -1       994 2.02635E+01-7.54491E-02 9.37278E-07 6.72086E-02-8.16727E-16-5.65878E-14
 -1       995 2.02188E+01-8.94088E-02-5.68169E-06 6.43942E-02-4.46902E-15-2.50883E-15
 -1       996 2.01772E+01-8.63074E-02 9.62886E-07 5.98493E-02 4.25788E-14 1.41024E-13
 -1       997 2.01391E+01-7.07233E-02 1.11881E-06 5.53129E-02-1.77598E-15 1.20990E-13
 -1       998 2.01040E+01-4.57042E-02 4.34692E-07 5.20294E-02-4.42723E-14 1.07567E-13
 -1       999 2.00706E+01-1.29008E-02-6.00817E-06 5.08824E-02-5.00566E-14 8.17235E-14
 -1      1000 2.00372E+01 2.71983E-02-9.68403E-06 5.25377E-02-4.60607E-14 8.62673E-14
 -1      1001 2.00012E+01 7.48464E-02-1.60486E-05 5.76635E-02 3.91545E-17 1.11421E-13
 -1      1002 1.99599E+01 1.30802E-01-2.36293E-05 6.67197E-02 2.69458E-14 1.46582E-13
 -1      1003 1.99097E+01 1.96201E-01-3.30620E-05 8.00445E-02 6.59672E-14 2.23303E-13
 -1      1004 1.98465E+01 2.72285E-01-4.43958E-05 9.77839E-02 1.10724E-13 1.57765E-13
 -1      1005 1.97651E+01 3.60129E-01-5.78421E-05 1.19768E-01 1.12147E-14 1.70998E-13
 -1      1006 1.96597E+01 4.60323E-01-7.37884E-05 1.45342E-01-4.45040E-14 2.18639E-13
 -1      1007 1.95228E+01 5.72581E-01-9.29819E-05 1.73163E-01 1.42416E-14 1.16766E-13
 -1      1008 1.93457E+01 6.95259E-01-1.17013E-04 2.00980E-01 8.91414E-14 1.38457E-13
 -1      1009 1.91173E+01 8.24816E-01-1.49326E-04 2.25475E-01 2.89002E-14 1.77012E-14
 -1      1010 1.88234E+01 9.55252E-01-1.96836E-04 2.42266E-01 7.47734E-14-6.37761E-14
 -1      1011 1.84451E+01 1.07764E+00-2.70820E-04 2.46281E-01 1.41826E-13 1.22485E-14
 -1      1012 1.79550E+01 1.17986E+00-3.88589E-04 2.32848E-01 5.56336E-14-1.61340E-13
 -1      1013 1.73119E+01 1.24600E+00-5.44382E-04 1.99912E-01-5.49064E-14-2.55759E-13
 -1      1014 1.64519E+01 1.25620E+00 8.10811E-04 1.43877E-01-2.68263E-13-1.94510E-13
 -1      1015 1.54559E+01 1.20839E+00 2.18312E-03 1.50384E-01-1.72630E-13-1.99328E-13
 -1      1016 2.03702E+01 9.69697E-01-9.49305E-05-8.01606E-02 2.59560E-14-1.76390E-13
 -1      1017 2.03374E+01 2.08994E-01 1.38624E-05-5.16527E-02 1.11666E-13-1.39219E-15
 -1      1018 2.00099E+01 5.90980E-02-5.79190E-06-7.08541E-02 4.22371E-14 7.96119E-14
 -1      1019 1.98832E+01 2.30281E-01-2.39510E-05-1.29206E-01 1.02714E-14 1.77460E-13
 -1      1020 1.99334E+01 1.65867E-01-1.75275E-05-1.01819E-01-1.69350E-14 6.56178E-14
 -1      1021 1.97440E+01 3.78915E-01-3.65793E-05-2.16713E-01 5.61655E-14-4.31210E-14
 -1      1022 1.96495E+01 4.58604E-01-4.19222E-05-2.81856E-01 1.79942E-15-4.95317E-14
 -1      1023 1.95357E+01 5.35304E-01-4.57391E-05-3.65858E-01 2.00293E-14-7.43065E-15
 -1      1024 1.94021E+01 6.00153E-01-4.71241E-05-4.73577E-01-1.02595E-13 9.94495E-14
 -1      1025 1.92507E+01 6.39904E-01-4.53257E-05-6.11589E-01-8.24825E-14-3.77773E-14
 -1      1026 1.90875E+01 6.35695E-01-4.12234E-05-7.88887E-01-1.76550E-13 7.42553E-15
 -1      1027 1.89244E+01 5.61587E-01-4.05540E-05-1.01774E+00-3.58794E-14-3.18919E-14
 -1      1028 1.87840E+01 3.82571E-01-8.25237E-05-1.31470E+00-2.14423E-14 4.99292E-14
 -1      1029 1.87087E+01 5.07208E-02 8.63264E-05-1.69984E+00 8.36593E-14-1.32993E-13
 -1      1030 1.87759E+01-5.00205E-01 8.53602E-04-2.18707E+00 1.10003E-14-1.90201E-13
 -1      1031 2.03658E+01 9.12128E-01 2.27563E-04 1.38012E-01 9.17056E-14-9.63905E-14
 -1      1032 1.99747E+01 1.08883E-01-1.14007E-05-8.28457E-02 1.31811E-15 1.32891E-13
 -1      1033 2.00415E+01 1.61112E-02 3.67252E-06-6.46678E-02 3.25782E-14 5.37232E-14
 -1      1034 1.98210E+01 3.01772E-01-3.04197E-05-1.66768E-01-4.51606E-15 2.40278E-14
 -1      1035 2.01829E+01-7.61341E-02 4.07485E-06-1.18836E-01 4.93065E-14 2.67873E-14
 -1      1036 2.03916E+01 1.51257E-01-3.42842E-05 4.14189E-02-8.84074E-15-1.52722E-13
 -1      1037 2.03544E+01 3.35843E-02-3.09735E-05 5.88989E-02 3.87379E-14-1.00867E-13
 -1      1038 2.01720E+01-8.56682E-02 1.37037E-05-7.61554E-02 9.39560E-14 3.51387E-14
 -1      1039 2.04183E+01 6.62366E-01-4.08474E-04-1.63286E-02 2.59726E-15-2.04058E-13
 -1      1040 2.04217E+01 6.59149E-01 3.83914E-04 1.88904E-02 8.56170E-14-1.34716E-13
 -1      1041 2.00718E+01-2.04792E-02-4.22692E-05-6.33401E-02 1.54330E-14-6.85138E-16
 -1      1042 2.04037E+01 3.48922E-01 1.87317E-04-5.48580E-03 1.05450E-13-1.00639E-13
 -1      1043 1.91085E+01-1.33317E+00 5.56221E-03-2.75774E+00-1.95302E-13-2.60071E-13
 -1      1044 2.04166E+01 5.08581E-01 3.25674E-04-2.57375E-02 2.40312E-15-1.91126E-13
 -1      1045 2.03432E+01 4.72320E-02-3.01403E-05-7.25683E-02 5.74471E-14-8.48023E-15
 -1      1046 2.04099E+01 2.95078E-01 1.52240E-05 1.67590E-02-3.63955E-14-1.72944E-13
 -1      1047 1.63638E+01 5.96053E-01-7.02520E-03-1.67663E+00-1.88444E-13 1.93247E-13
 -1      1048 2.01358E+01-7.25280E-02 2.73702E-05-7.00511E-02 3.68089E-14 6.49847E-14
 -1      1049 2.02999E+01-2.80587E-02 2.98343E-06-8.34027E-02 1.90051E-14 1.33654E-14
 -1      1050 1.97312E+01 3.77501E-01-2.79075E-05-1.15008E-01 6.25336E-14 5.78943E-14
 -1      1051 2.02632E+01-8.67595E-02 4.03913E-05 2.58256E-02 1.88671E-14-4.50859E-14
 -1      1052 2.02169E+01-9.24000E-02 2.42712E-05 2.43578E-02 7.49406E-14-6.22129E-14
 -1      1053 2.01730E+01-8.23548E-02-4.22357E-06 2.28867E-02 2.16856E-14-1.67522E-14
 -1      1054 2.01327E+01-6.10841E-02 8.82743E-06 2.15024E-02-1.27759E-14 6.25094E-14
 -1      1055 2.00952E+01-3.10328E-02 3.25380E-05 2.04277E-02-8.43299E-14 1.10402E-13
 -1      1056 2.00580E+01 7.35970E-03 1.29739E-05 2.04821E-02-5.66107E-14 1.15562E-13
 -1      1057 2.00192E+01 5.33555E-02 2.02548E-05 2.17193E-02 1.53536E-14 1.32026E-13
 -1      1058 1.99761E+01 1.07405E-01 2.16423E-05 2.40236E-02 9.35827E-14 2.21094E-13
 -1      1059 1.99254E+01 1.70415E-01 2.43714E-05 2.73449E-02 7.38283E-14 1.81318E-13
 -1      1060 1.98631E+01 2.43396E-01 2.81137E-05 3.13627E-02 1.07652E-14 7.60115E-14
 -1      1061 1.97846E+01 3.27224E-01 3.22536E-05 3.54020E-02-2.99186E-16-2.16328E-14
 -1      1062 1.96845E+01 4.22298E-01 3.56965E-05 3.82632E-02 3.53016E-14-2.52454E-15
 -1      1063 1.95566E+01 5.28143E-01 3.65929E-05 3.79881E-02 6.57312E-15 1.13566E-13
 -1      1064 1.93936E+01 6.42937E-01 3.18290E-05 3.15553E-02-2.77230E-14 8.89244E-14
 -1      1065 1.91867E+01 7.63001E-01 1.60474E-05 1.45050E-02-4.21262E-14-2.97330E-15
 -1      1066 1.89254E+01 8.82275E-01-2.02482E-05-1.95177E-02 8.12069E-14-5.20641E-14
 -1      1067 1.85961E+01 9.91881E-01-9.36365E-05-7.93477E-02 1.33452E-13-1.39647E-13
 -1      1068 1.81799E+01 1.07989E+00-2.26262E-04-1.77196E-01-1.99134E-14-1.58184E-13
 -1      1069 1.76487E+01 1.13158E+00-3.62461E-04-3.30512E-01-9.37428E-14-1.35820E-13
 -1      1070 1.69560E+01 1.12890E+00-2.16378E-04-5.64854E-01-1.60462E-13-7.99981E-14
 -1      1071 1.61769E+01 1.04826E+00 1.45295E-03-8.14394E-01-2.15847E-13 4.15030E-14
 -1      1072 2.03794E+01 1.69537E-01-5.97019E-05-4.84364E-02 6.53528E-14-8.43589E-14
 -1      1073 2.02123E+01-8.65423E-02-3.41110E-05-8.21151E-02 1.00243E-13 2.41855E-15
 -1      1074 1.99412E+01 1.50329E-01-9.02056E-06-5.16615E-02 4.75823E-14-1.91429E-15
 -1      1075 1.94909E+01 5.63628E-01-5.07747E-05-2.08328E-01-6.82884E-14 7.39957E-14
 -1      1076 1.96239E+01 4.68758E-01-3.87344E-05-1.54473E-01 4.87341E-14 4.08007E-14
 -1      1077 1.91312E+01 7.37792E-01-6.90984E-05-3.81499E-01-1.12768E-15 1.60393E-14
 -1      1078 1.88981E+01 7.94815E-01-6.99336E-05-5.18064E-01-3.25143E-14-1.44414E-13
 -1      1079 1.86271E+01 8.08955E-01-7.21438E-05-7.05774E-01-4.47490E-14-3.26062E-13
 -1      1080 1.83193E+01 7.55110E-01-1.03192E-04-9.65226E-01-2.50353E-14-4.38406E-13
 -1      1081 1.79809E+01 5.99350E-01-2.95485E-04-1.32543E+00 1.07983E-13-3.91436E-13
 -1      1082 1.75693E+01 3.07090E-01 2.52341E-03-1.84655E+00 1.38414E-14-2.00986E-13
 -1      1083 1.99872E+01 9.18592E-02-6.79391E-06-4.24055E-02 6.54592E-14 8.84802E-14
 -1      1084 2.04008E+01 9.73220E-02 6.15806E-06 1.97528E-02 5.18765E-14-5.74355E-14
 -1      1085 2.03593E+01-1.58509E-03 8.42230E-05 2.46896E-02 5.64444E-14-5.45453E-14
 -1      1086 1.98171E+01 2.93176E-01-1.92513E-05-8.63277E-02 7.52764E-14 2.80833E-15
 -1      1087 2.01029E+01-5.02491E-02-1.67338E-05-6.55282E-02 3.27866E-14 4.91225E-14
 -1      1088 1.93279E+01 6.56324E-01-6.19658E-05-2.81628E-01-8.95020E-14 1.08118E-13
 -1      1089 2.03111E+01-5.87435E-02 3.32884E-05 2.62623E-02 5.53427E-14-1.02697E-13
 -1      1090 2.00272E+01 4.13292E-02-3.25221E-06-3.70184E-02 1.97503E-16 1.53941E-13
 -1      1091 1.98857E+01 2.17329E-01-1.30105E-05-6.58398E-02-8.92998E-14 1.32677E-15
 -1      1092 2.02552E+01-6.90536E-02 1.09334E-05-8.54004E-02 7.51562E-14 2.83658E-14
 -1      1093 2.02196E+01-9.18636E-02 1.81997E-05-4.25672E-02 3.49977E-14-6.07539E-14
 -1      1094 2.00638E+01-1.75692E-03 2.11729E-05-3.45776E-02-5.29324E-15 1.48932E-15
 -1      1095 2.03598E+01 1.25701E-02-1.72955E-06-4.10233E-02 1.00355E-14-1.18114E-13
 -1      1096 2.04237E+01 2.22416E-01 1.27711E-05 1.28511E-02-1.89193E-15-1.05429E-13
 -1      1097 2.03995E+01 1.19381E-01-1.14039E-04-3.05918E-02 4.07871E-14-9.83701E-14
 -1      1098 2.04166E+01 6.44076E-01-1.40527E-04 3.48905E-02 9.86142E-14-9.68318E-14
 -1      1099 2.04243E+01 2.78507E-01-3.29079E-04-1.21744E-02 4.62048E-14-3.74964E-14
 -1      1100 2.01769E+01-8.49112E-02 5.77386E-06-3.96008E-02 9.35647E-14 2.41912E-15
 -1      1101 2.01150E+01-4.73819E-02 1.59539E-05-1.26221E-02-7.04598E-15-1.05279E-14
 -1      1102 2.04335E+01 3.82553E-01 1.48451E-04 6.13588E-04 1.59404E-14-1.65704E-13
 -1      1103 2.03139E+01-5.09535E-02-1.64789E-06-4.50951E-02 1.82926E-14-1.36704E-13
 -1      1104 2.01463E+01-6.99399E-02-2.87022E-05-2.54130E-02 4.71944E-14-1.49845E-14
 -1      1105 2.04366E+01 4.16975E-01-3.00801E-04-1.14045E-03 4.19560E-14-1.18604E-13
 -1      1106 2.02798E+01-7.94112E-02-6.93993E-06-2.96394E-02 6.33984E-14-1.02855E-13
 -1      1107 2.04312E+01 2.48811E-01 3.60766E-04 1.70048E-03 4.81680E-14-8.88511E-14
 -1      1108 2.79638E+01 9.08680E+00 2.32536E+00-6.69838E+00-4.22995E-14 5.33656E-13
 -1      1109 2.05481E+01 6.22737E+00 2.09774E-01-3.90405E+00-1.65701E-14-2.23689E-13
 -1      1110 1.94346E+01 5.85299E+00 7.53044E-02-2.88792E+00-9.60343E-15-4.86633E-13
 -1      1111 1.90261E+01 5.72597E+00 6.04005E-02-2.23515E+00-4.88845E-15-5.77186E-13
 -1      1112 1.88396E+01 5.66916E+00 5.75456E-02-1.70157E+00-1.72432E-15-6.02785E-13
 -1      1113 1.87459E+01 5.64044E+00 5.55135E-02-1.23417E+00 5.03937E-16-5.88824E-13
 -1      1114 1.86968E+01 5.62516E+00 5.37453E-02-8.04393E-01 2.85796E-15-5.58388E-13
 -1      1115 1.86727E+01 5.61758E+00 5.25239E-02-3.92890E-01 3.12575E-15-5.20558E-13
 -1      1116 1.86659E+01 5.61541E+00 5.21337E-02 8.47046E-03 4.46442E-15-4.64125E-13
 -1      1117 1.86738E+01 5.61794E+00 5.26464E-02 4.10240E-01 6.50239E-15-4.13388E-13
 -1      1118 1.86990E+01 5.62591E+00 5.40343E-02 8.23111E-01 7.74381E-15-3.53407E-13
 -1      1119 1.87497E+01 5.64179E+00 5.62410E-02 1.25555E+00 9.37184E-15-2.53233E-13
 -1      1120 1.88450E+01 5.67105E+00 5.84515E-02 1.72736E+00 1.12254E-14-1.27835E-13
 -1      1121 1.90316E+01 5.72760E+00 6.04032E-02 2.26842E+00 1.20182E-14 5.46169E-14
 -1      1122 1.94314E+01 5.85019E+00 6.92223E-02 2.92857E+00 1.39611E-14 3.35587E-13
 -1      1123 2.04541E+01 6.18222E+00 1.53299E-01 3.87861E+00 1.08524E-14 8.05387E-13
 -1      1124 2.52181E+01 7.99460E+00 1.43047E+00 5.84650E+00 6.82787E-15 1.59459E-12
 -1      1125 2.88135E+01 3.61640E+00 1.27125E+00-4.21715E+00-1.51490E-13 9.95537E-13
 -1      1126 2.02285E+01-1.77767E-01-6.16361E-01-1.09877E-01-5.23470E-14 6.40155E-13
 -1      1127 1.88345E+01-9.63540E-02-2.36343E-01 6.25333E-02-1.82944E-14 2.03561E-13
 -1      1128 1.85006E+01-4.80590E-02-5.95809E-02 4.05074E-02-1.33652E-14-6.26166E-14
 -1      1129 1.84454E+01-2.46206E-02-1.51970E-02 2.67945E-02-3.61386E-15-2.58030E-13
 -1      1130 1.85271E+01-1.30458E-02-4.96428E-03 1.90734E-02-1.35612E-14-2.94455E-13
 -1      1131 1.86739E+01-6.59821E-03-1.45352E-03 1.41269E-02-1.35977E-14-4.07240E-13
 -1      1132 1.88462E+01-2.82466E-03 5.87643E-04 1.06929E-02-1.25009E-16-5.50313E-13
 -1      1133 1.90214E+01-5.89641E-04 1.90962E-03 8.15052E-03-1.66847E-14-6.69222E-13
 -1      1134 1.91868E+01 7.04227E-04 2.65724E-03 6.18997E-03 1.72446E-14-7.47534E-13
 -1      1135 1.93354E+01 1.39716E-03 2.96401E-03 4.64606E-03 7.06421E-15-8.23441E-13
 -1      1136 1.94645E+01 1.69714E-03 2.96148E-03 3.42012E-03 1.39897E-15-8.96222E-13
 -1      1137 1.95734E+01 1.73731E-03 2.75435E-03 2.44560E-03-1.48246E-15-9.98063E-13
 -1      1138 1.96634E+01 1.60434E-03 2.41604E-03 1.67332E-03-9.27887E-16-1.03601E-12
 -1      1139 1.97367E+01 1.35345E-03 1.99312E-03 1.06497E-03 2.72952E-15-8.82013E-13
 -1      1140 1.97962E+01 1.01709E-03 1.51060E-03 5.90515E-04-1.27371E-14-8.43987E-13
 -1      1141 1.98452E+01 6.10447E-04 9.76113E-04 2.27181E-04-1.83051E-14-8.93937E-13
 -1      1142 1.98875E+01 1.35051E-04 3.82871E-04-4.05320E-05-6.17310E-15-1.02191E-12
 -1      1143 1.99273E+01-4.18778E-04-2.88453E-04-2.20319E-04-1.55808E-14-1.13686E-12
 -1      1144 1.99695E+01-1.07022E-03-1.06870E-03-3.10940E-04 9.72070E-15-1.21052E-12
 -1      1145 2.00196E+01-1.84672E-03-1.99986E-03-3.00413E-04-6.43021E-15-1.20936E-12
 -1      1146 2.00844E+01-2.78280E-03-3.13526E-03-1.63210E-04 3.24737E-14-9.48594E-13
 -1      1147 2.01719E+01-3.91832E-03-4.53960E-03 1.43957E-04 1.07701E-14-6.48568E-13
 -1      1148 2.02921E+01-5.29506E-03-6.28784E-03 6.88368E-04-2.64545E-14-9.51986E-13
 -1      1149 2.04576E+01-6.94929E-03-8.46006E-03 1.57012E-03 1.36988E-14-1.08601E-12
 -1      1150 2.06835E+01-8.89627E-03-1.11266E-02 2.93374E-03 1.94716E-14-8.35559E-13
 -1      1151 2.09886E+01-1.10992E-02-1.43112E-02 4.98112E-03 1.21680E-14-4.95499E-13
 -1      1152 2.13948E+01-1.34101E-02-1.79088E-02 7.97975E-03-7.21146E-15-6.32816E-13
 -1      1153 2.19265E+01-1.54646E-02-2.15145E-02 1.22487E-02 2.03078E-14-7.49239E-13
 -1      1154 2.26076E+01-1.65071E-02-2.40991E-02 1.80802E-02 1.35326E-14-6.16725E-13
 -1      1155 2.34542E+01-1.51392E-02-2.34681E-02 2.55057E-02-6.51094E-14-7.00627E-13
 -1      1156 2.44600E+01-9.05162E-03-1.55627E-02 3.37468E-02-2.94816E-15-9.39172E-13
 -1      1157 2.55693E+01 5.00253E-03 5.87603E-03 4.01552E-02 1.20148E-14-1.01468E-12
 -1      1158 2.66365E+01 3.02774E-02 4.77169E-02 3.86564E-02-1.54269E-14-9.30957E-13
 -1      1159 2.73797E+01 6.69256E-02 1.10970E-01 1.87554E-02 2.33459E-14-7.50219E-13
 -1      1160 2.73698E+01 1.05356E-01 1.77702E-01-3.15849E-02 1.97967E-14-6.83474E-13
 -1      1161 2.61445E+01 1.20025E-01 1.98353E-01-1.13366E-01-2.54657E-15-6.56863E-13
 -1      1162 2.35412E+01 7.29770E-02 1.09103E-01-1.95937E-01 3.02805E-14-4.52305E-13
 -1      1163 2.01458E+01-4.48292E-02-9.67067E-02-2.14520E-01-4.85289E-15-2.00479E-13
 -1      1164 1.73621E+01-1.69602E-01-3.03759E-01-1.19764E-01-6.34319E-14-5.97092E-13
 -1      1165 1.66189E+01-1.93371E-01-3.41956E-01 4.92993E-02 2.99361E-14-8.71150E-13
 -1      1166 1.81848E+01-9.34005E-02-1.76624E-01 1.79593E-01-2.40519E-15-7.60697E-13
 -1      1167 2.09191E+01 3.86866E-02 4.97857E-02 1.97370E-01-1.97446E-14-1.01547E-12
 -1      1168 2.32693E+01 1.11790E-01 1.84636E-01 1.26889E-01 5.19914E-14-1.18916E-12
 -1      1169 2.43293E+01 1.13096E-01 1.94462E-01 3.60440E-02 5.13097E-14-9.05095E-13
 -1      1170 2.40558E+01 7.39164E-02 1.29536E-01-3.03249E-02 1.36315E-14-4.00076E-13
 -1      1171 2.29018E+01 2.38693E-02 4.29818E-02-6.18077E-02-4.51332E-14-1.86781E-13
 -1      1172 2.14528E+01-2.26476E-02-3.77393E-02-6.03681E-02 4.69924E-14 2.15689E-13
 -1      1173 2.02979E+01-6.19076E-02-8.38256E-02-2.21023E-02-2.48078E-14 2.88377E-13
 -1      1174 1.99422E+01 1.75056E-02 2.49141E-02 2.14168E-02 1.19509E-14 1.55393E-13
 -1      1175 2.77932E+01 5.25755E-01 3.77025E-01 1.96668E+00-2.70964E-14 2.19558E-12
 -1      1176 2.00861E+01-6.62459E-02-5.73632E-01 1.29464E-01 3.92741E-15 2.00695E-12
 -1      1177 1.89090E+01-4.06127E-02-1.93236E-01 1.94112E-02 5.51642E-16 1.78262E-12
 -1      1178 1.85294E+01-2.14260E-02-5.05686E-02 1.45487E-03 6.57460E-15 1.61769E-12
 -1      1179 1.84581E+01-1.24128E-02-1.34177E-02-4.08509E-03 1.11478E-15 1.48951E-12
 -1      1180 1.85335E+01-7.40622E-03-4.66952E-03-5.54331E-03 1.41022E-15 1.38330E-12
 -1      1181 1.86772E+01-4.32717E-03-1.93672E-03-5.73364E-03-1.54764E-15 1.36746E-12
 -1      1182 1.88478E+01-2.35265E-03-3.47143E-04-5.45458E-03-1.63862E-14 1.46839E-12
 -1      1183 1.90221E+01-1.07629E-03 7.76503E-04-4.95842E-03-2.23417E-15 1.38709E-12
 -1      1184 1.91869E+01-2.67198E-04 1.49347E-03-4.35840E-03 1.73340E-14 1.27929E-12
 -1      1185 1.93354E+01 2.20124E-04 1.86553E-03-3.72041E-03-8.04502E-15 1.16001E-12
 -1      1186 1.94644E+01 4.82516E-04 1.97791E-03-3.08579E-03 3.60458E-15 1.14952E-12
 -1      1187 1.95734E+01 5.85446E-04 1.90764E-03-2.47926E-03 1.36608E-14 1.06813E-12
 -1      1188 1.96637E+01 5.72638E-04 1.71165E-03-1.91328E-03-2.48158E-14 1.05396E-12
 -1      1189 1.97374E+01 4.71911E-04 1.42681E-03-1.39157E-03 2.48347E-14 9.01146E-13
 -1      1190 1.97974E+01 2.98997E-04 1.07302E-03-9.11950E-04 4.17037E-15 7.26164E-13
 -1      1191 1.98471E+01 6.02889E-05 6.56433E-04-4.68767E-04-8.29804E-15 7.08198E-13
 -1      1192 1.98904E+01-2.44924E-04 1.72213E-04-5.51888E-05 2.67934E-14 6.46362E-13
 -1      1193 1.99313E+01-6.22303E-04-3.92895E-04 3.34522E-04 1.85805E-14 4.32134E-13
 -1      1194 1.99746E+01-1.07997E-03-1.05765E-03 7.02488E-04-3.13407E-14 6.58701E-13
 -1      1195 2.00256E+01-1.62519E-03-1.84252E-03 1.04421E-03-4.23579E-15 8.61456E-13
 -1      1196 2.00901E+01-2.25966E-03-2.76416E-03 1.34480E-03-2.25393E-14 7.78396E-13
 -1      1197 2.01750E+01-2.97235E-03-3.82676E-03 1.57416E-03 3.13113E-14 3.24822E-13
 -1      1198 2.02876E+01-3.72906E-03-5.00866E-03 1.68105E-03 2.57628E-15 1.13449E-14
 -1      1199 2.04361E+01-4.45733E-03-6.24153E-03 1.58612E-03-1.89871E-14 3.47851E-13
 -1      1200 2.06283E+01-5.02586E-03-7.37959E-03 1.17526E-03-2.33938E-14 9.83759E-13
 -1      1201 2.08710E+01-5.21920E-03-8.15649E-03 2.96169E-04 2.68942E-15 1.06979E-12
 -1      1202 2.11680E+01-4.71236E-03-8.13169E-03-1.23479E-03 1.19970E-14 7.55832E-13
 -1      1203 2.15171E+01-3.05946E-03-6.63887E-03-3.60231E-03-6.10603E-14 8.76545E-13
 -1      1204 2.19055E+01 2.73785E-04-2.77326E-03-6.91654E-03 2.86512E-14 6.62293E-13
 -1      1205 2.23045E+01 5.78027E-03 4.50162E-03-1.10634E-02 2.08380E-14 2.91354E-13
 -1      1206 2.26625E+01 1.36118E-02 1.59908E-02-1.54601E-02 2.98320E-14 3.76187E-13
 -1      1207 2.29009E+01 2.30618E-02 3.14868E-02-1.87511E-02-1.59868E-14 8.15553E-13
 -1      1208 2.29153E+01 3.19431E-02 4.85730E-02-1.86327E-02-2.54926E-14 9.52924E-13
 -1      1209 2.25924E+01 3.63533E-02 6.15571E-02-1.22206E-02-4.27301E-14 8.93643E-13
 -1      1210 2.18477E+01 3.16282E-02 6.18803E-02 2.56778E-03-3.07011E-14 6.05911E-13
 -1      1211 2.06847E+01 1.51139E-02 4.16371E-02 2.45951E-02 8.06542E-14 6.18255E-15
 -1      1212 1.92523E+01-1.01477E-02 2.45405E-04 4.74354E-02 3.65814E-14-2.30461E-13
 -1      1213 1.78527E+01-3.44693E-02-5.01245E-02 6.05238E-02-2.62516E-14 5.16039E-13
 -1      1214 1.68569E+01-4.63078E-02-8.74625E-02 5.49625E-02 6.82440E-15 6.23297E-13
 -1      1215 1.65409E+01-4.02758E-02-9.30341E-02 3.04301E-02 4.12777E-15 4.71544E-13
 -1      1216 1.69392E+01-2.12043E-02-6.47057E-02-2.83198E-03 2.74806E-14 2.46747E-13
 -1      1217 1.78241E+01 1.89327E-05-1.89276E-02-3.04672E-02-7.65512E-15 1.54883E-13
 -1      1218 1.88316E+01 1.43316E-02 2.17157E-02-4.26524E-02-3.09061E-14 3.67553E-13
 -1      1219 1.96393E+01 1.82172E-02 4.23452E-02-3.86509E-02 4.23596E-14 2.15800E-14
 -1      1220 2.00843E+01 1.30723E-02 4.03336E-02-2.42913E-02 7.77119E-14-6.04386E-13
 -1      1221 2.01825E+01 2.78307E-03 2.20949E-02-7.69416E-03-7.56621E-15-5.58084E-13
 -1      1222 2.00783E+01-6.92767E-03-6.12288E-04 3.48810E-03-9.12738E-15-2.81388E-13
 -1      1223 1.99670E+01-7.01145E-03-8.31929E-03 1.74028E-03 1.18430E-13-5.68289E-13
 -1      1224 1.99790E+01 8.54311E-03 2.07557E-02-7.11956E-03-3.35054E-14-4.82957E-13
 -1      1225 2.00060E+01-2.31909E-02 1.64899E-02-8.45105E-03-4.41390E-13-7.92836E-14
 -1      1226 1.99820E+01-4.28152E-02-2.39516E-02-1.28300E-02 2.91468E-13 2.58597E-14
 -1      1227 1.99680E+01 1.35524E-01-4.65808E-02-1.84504E-03 4.56456E-13 3.48549E-14
 -1      1228 1.99580E+01 6.29983E-01-6.21146E-02 1.33634E-02 1.71320E-13-3.07575E-14
 -1      1229 1.99562E+01 1.53708E+00-6.62643E-02 3.39797E-02 6.52881E-14 4.20441E-14
 -1      1230 1.99667E+01 2.87310E+00-5.08502E-02 5.62823E-02-1.31101E-12-2.55003E-13
 -1      1231 1.99949E+01 4.54380E+00-1.08925E-02 7.21414E-02-1.89002E-12 1.19727E-13
 -1      1232 2.00354E+01 6.29850E+00 4.86059E-02 7.24896E-02-1.29437E-12-3.79887E-14
 -1      1233 2.00757E+01 7.72422E+00 1.07970E-01 5.11838E-02-8.46920E-13-9.87075E-14
 -1      1234 2.00987E+01 8.42041E+00 1.41958E-01 1.14844E-02-3.14526E-13 1.24924E-13
 -1      1235 2.00926E+01 8.15751E+00 1.34354E-01-3.36588E-02 3.18374E-13-1.32745E-13
 -1      1236 2.00638E+01 7.00027E+00 9.06143E-02-6.89169E-02-4.44395E-13-1.44615E-14
 -1      1237 2.00206E+01 5.24251E+00 2.89146E-02-8.39864E-02-4.40037E-13 1.77780E-13
 -1      1238 1.99805E+01 3.27416E+00-3.24416E-02-8.11830E-02-5.76345E-14-7.17850E-15
 -1      1239 1.99457E+01 1.48362E+00-8.97056E-02-7.28618E-02-2.45373E-13-1.50419E-13
 -1      1240 1.99178E+01 3.28072E-01-9.71955E-02-6.43096E-03 1.92063E-13-6.30589E-14
 -1      1241 2.00241E+01-5.07368E-02 2.51259E-02 1.32743E-02-2.17959E-14 7.60173E-14
 -1      1242-1.38027E+00-2.69673E+01-4.15966E+00-2.52431E+00 8.62255E-13 1.85598E-13
 -1      1243-2.00185E+00-1.63791E+01-3.26660E+00-4.22946E+00 2.16449E-12 8.66085E-13
 -1      1244 8.42809E-01-1.99655E+00-1.79189E+00 4.03079E-01 3.21299E-12 1.99896E-12
 -1      1245 1.20487E+01 8.89961E+00 1.39864E-01 1.00732E+01 2.94120E-12 2.96607E-12
 -1      1246 3.16013E+01 1.14773E+01 2.05321E+00 1.80120E+01 2.04059E-12 3.03890E-12
 -1      1247 5.29741E+01 7.22794E+00 3.46754E+00 1.70672E+01 7.00273E-13 1.54432E-12
 -1      1248 6.73717E+01 2.30609E+00 4.27914E+00 7.12454E+00 1.42983E-13 6.26499E-13
 -1      1249 6.68777E+01 2.38689E+00 4.17394E+00-6.31346E+00 2.73673E-13-8.31335E-13
 -1      1250 5.40695E+01 6.37515E+00 3.40835E+00-1.64479E+01 5.48839E-13-2.02727E-12
 -1      1251 3.27125E+01 1.08454E+01 1.92917E+00-1.76833E+01 9.56235E-13-1.68310E-12
 -1      1252 1.37101E+01 9.90865E+00 3.19772E-01-1.12661E+01 1.31650E-12-1.51168E-12
 -1      1253 2.45606E+00 1.88991E+00-1.28811E+00-2.53823E+00 1.41975E-12-9.63452E-13
 -1      1254-1.55580E+00-1.10441E+01-2.64743E+00 3.46208E+00 1.67799E-12-7.33247E-13
 -1      1255-1.38701E+00-2.26179E+01-3.56012E+00 3.41854E+00 1.02118E-12-3.24435E-13
 -1      1256-8.79367E-01-2.66038E+01-3.84846E+00-9.78529E-01-4.82503E-13-1.60344E-13
 -1      1257-1.84814E+00-2.06992E+01-3.49460E+00-4.71686E+00-1.68376E-12-4.86694E-13
 -1      1258-1.41240E+00-8.24098E+00-2.49935E+00-3.02776E+00-2.72160E-12-1.60250E-12
 -1      1259 5.53571E+00 4.25360E+00-9.63400E-01 5.04319E+00-2.24665E-12-1.70952E-12
 -1      1260 2.16957E+01 1.02452E+01 8.97385E-01 1.44150E+01-1.53721E-12-2.12563E-12
 -1      1261 4.33845E+01 8.82683E+00 2.71763E+00 1.78807E+01-9.01501E-13-1.94200E-12
 -1      1262 6.28820E+01 3.83621E+00 4.03731E+00 1.22779E+01-2.38837E-13-3.93796E-13
 -1      1263 7.09499E+01 1.64523E+00 4.64606E+00-4.92705E-01-1.21771E-13 9.59260E-13
 -1      1264 6.37691E+01 4.50004E+00 4.24275E+00-1.30725E+01-4.67265E-13 1.83287E-12
 -1      1265 4.59002E+01 9.50036E+00 3.08695E+00-1.92712E+01-8.29004E-13 1.64269E-12
 -1      1266 2.51801E+01 1.18590E+01 1.41634E+00-1.65877E+01-1.48348E-12 1.78457E-12
 -1      1267 8.84238E+00 7.59269E+00-3.75021E-01-8.18651E+00-2.32392E-12 1.92313E-12
 -1      1268-6.33539E-02-3.90888E+00-2.09289E+00 7.09785E-01-2.41474E-12 1.60716E-12
 -1      1269-2.07994E+00-1.79289E+01-3.44154E+00 4.73342E+00-1.11422E-12 5.10147E-13
 -1      1270-1.27674E+00-2.72075E+01-4.16003E+00 2.43983E+00-6.37101E-13-2.87270E-14
 -1      1271 2.22674E+01 1.83822E+00-7.25897E-01-2.79067E+00-6.35048E-14 3.22520E-13
 -1      1272 2.03599E+01 4.69025E+00-4.86452E-02-3.30711E+00-1.09759E-13-3.49755E-13
 -1      1273 2.08673E+01 4.81075E+00-1.13374E-01-4.16134E+00-1.64507E-13-2.11997E-13
 -1      1274 1.95317E+01 4.99322E+00-1.96967E-02-2.65450E+00-8.17957E-14-5.24716E-13
 -1      1275 1.98301E+01 5.09016E+00 2.49332E-04-3.04560E+00-1.03299E-13-4.58793E-13
 -1      1276 2.05265E+01 3.95274E+00-2.59008E-02-3.07512E+00-1.79860E-13-3.01717E-13
 -1      1277 1.91841E+01 5.08440E+00-3.55050E-03-2.07085E+00-3.94684E-14-5.88744E-13
 -1      1278 1.93328E+01 5.13962E+00 1.05534E-02-2.36366E+00-5.41685E-14-5.64201E-13
 -1      1279 1.97534E+01 4.36585E+00-2.45204E-02-2.48938E+00-1.15503E-13-4.47906E-13
 -1      1280 1.90092E+01 5.13079E+00 3.27721E-03-1.56467E+00-7.43242E-15-6.03587E-13
 -1      1281 1.90869E+01 5.16037E+00 1.25461E-02-1.81473E+00-1.41328E-14-6.01970E-13
 -1      1282 1.93916E+01 4.55483E+00-2.00481E-02-1.93206E+00-4.66432E-14-5.05523E-13
 -1      1283 1.89153E+01 5.16068E+00 6.51682E-03-1.11708E+00 2.16251E-14-5.81826E-13
 -1      1284 1.89578E+01 5.17701E+00 1.26743E-02-1.33850E+00 6.77410E-15-5.93883E-13
 -1      1285 1.92057E+01 4.66150E+00-1.61247E-02-1.44456E+00-2.90133E-15-5.07733E-13
 -1      1286 1.88639E+01 5.18040E+00 8.18474E-03-6.93897E-01 4.41073E-14-5.46953E-13
 -1      1287 1.88868E+01 5.18923E+00 1.19587E-02-9.04112E-01 3.43553E-14-5.69598E-13
 -1      1288 1.91026E+01 4.72683E+00-1.40397E-02-1.00437E+00 4.15592E-14-4.94153E-13
 -1      1289 1.88400E+01 5.19228E+00 9.28610E-03-2.89201E-01 6.84061E-14-5.05476E-13
 -1      1290 1.88499E+01 5.19611E+00 1.10593E-02-4.91318E-01 6.37251E-14-5.27514E-13
 -1      1291 1.90469E+01 4.76565E+00-1.29366E-02-5.88866E-01 8.35720E-14-4.49450E-13
 -1      1292 1.88363E+01 5.19723E+00 1.02192E-02 1.08210E-01 9.02600E-14-4.62160E-13
 -1      1293 1.88359E+01 5.19709E+00 1.01475E-02-9.14602E-02 8.36776E-14-4.91322E-13
 -1      1294 1.90228E+01 4.78365E+00-1.24797E-02-1.89126E-01 1.31290E-13-4.17694E-13
 -1      1295 1.88516E+01 5.19575E+00 1.11580E-02 5.08650E-01 1.13678E-13-4.04232E-13
 -1      1296 1.88410E+01 5.19165E+00 9.22413E-03 3.06113E-01 1.05666E-13-4.37603E-13
 -1      1297 1.90236E+01 4.78302E+00-1.24956E-02 2.05781E-01 1.52980E-13-3.79027E-13
 -1      1298 1.88902E+01 5.18808E+00 1.20920E-02 9.22926E-01 1.27221E-13-3.32774E-13
 -1      1299 1.88664E+01 5.17905E+00 8.13283E-03 7.11747E-01 1.23106E-13-3.73323E-13
 -1      1300 1.90496E+01 4.76359E+00-1.29811E-02 6.06191E-01 1.87206E-13-3.22443E-13
 -1      1301 1.89621E+01 5.17511E+00 1.28980E-02 1.35615E+00 1.47249E-13-2.32517E-13
 -1      1302 1.89188E+01 5.15837E+00 6.44722E-03 1.13326E+00 1.36661E-13-2.91749E-13
 -1      1303 1.91070E+01 4.72318E+00-1.40033E-02 1.01953E+00 2.15029E-13-2.46955E-13
 -1      1304 1.90949E+01 5.15668E+00 1.28270E-02 1.84082E+00 1.72667E-13-9.55971E-14
 -1      1305 1.90153E+01 5.12632E+00 3.14110E-03 1.58801E+00 1.60261E-13-1.72787E-13
 -1      1306 1.92125E+01 4.65484E+00-1.61468E-02 1.46265E+00 2.47780E-13-1.37286E-13
 -1      1307 1.93437E+01 5.13346E+00 1.01725E-02 2.39792E+00 1.89817E-13 9.30471E-14
 -1      1308 1.91935E+01 5.07633E+00-4.38052E-03 2.10064E+00 1.78038E-13-1.84852E-14
 -1      1309 1.94052E+01 4.54242E+00-1.99847E-02 1.95835E+00 2.81428E-13-2.51188E-15
 -1      1310 1.98554E+01 5.09944E+00 6.05345E-03 3.08403E+00 1.81230E-13 3.95649E-13
 -1      1311 1.95433E+01 4.98442E+00-2.05457E-02 2.69665E+00 1.69878E-13 2.18360E-13
 -1      1312 1.97747E+01 4.34642E+00-2.45613E-02 2.52821E+00 2.85442E-13 2.05794E-13
 -1      1313 2.11034E+01 4.90702E+00 8.31549E-03 4.05409E+00 1.26787E-13 8.77853E-13
 -1      1314 2.03343E+01 4.73387E+00-4.79702E-02 3.41643E+00 1.30548E-13 5.92144E-13
 -1      1315 2.05646E+01 3.91595E+00-2.24109E-02 3.17856E+00 2.48038E-13 5.22665E-13
 -1      1316 2.72031E+01 3.20543E+00 9.29052E-01 4.58239E+00 2.79915E-14 1.63292E-12
 -1      1317 2.20202E+01 3.52221E+00-1.82002E-01 3.88513E+00 4.48530E-14 1.12998E-12
 -1      1318 2.21125E+01 2.56181E+00-3.25484E-02 3.45674E+00 1.82298E-13 9.46743E-13
 -1      1319 2.14271E+01 3.59585E-01-7.63536E-01 1.18392E+00 7.56617E-14 1.63192E-12
 -1      1320 2.20015E+01 1.31419E-01-4.00897E-01-1.28572E+00-1.49727E-13 3.89244E-13
 -1      1321 2.06787E+01 3.06709E-01-1.64846E-01-8.05756E-01-1.28612E-13 2.12670E-13
 -1      1322 2.00811E+01 1.53472E-01-7.35259E-02-4.02162E-01-9.93060E-14 1.56762E-13
 -1      1323 1.96112E+01 9.11658E-02-1.49290E-02-3.30013E-01-9.18640E-14 8.28851E-15
 -1      1324 2.09726E+01 3.69038E-01-1.04293E-01-1.27390E+00-2.19352E-13-3.36536E-16
 -1      1325 1.92538E+01 6.44964E-02 3.03924E-03-1.35426E-01-7.46738E-14-1.45543E-14
 -1      1326 1.90993E+01 4.12664E-02 1.32213E-02-1.17629E-01-6.01429E-14-1.23540E-13
 -1      1327 1.99218E+01 1.33891E-01-3.51409E-02-5.04097E-01-1.48541E-13-6.45543E-14
 -1      1328 1.89389E+01 3.15355E-02 1.32420E-02-2.81048E-02-4.01758E-14-1.68126E-13
 -1      1329 1.89194E+01 1.93903E-02 1.10575E-02-1.87193E-02-4.27922E-14-2.29754E-13
 -1      1330 1.94443E+01 5.54539E-02-8.51506E-03-1.70178E-01-1.08361E-13-1.32151E-13
 -1      1331 1.88632E+01 1.60059E-02 8.77921E-03 2.49206E-02-1.17298E-14-2.53143E-13
 -1      1332 1.89054E+01 9.06346E-03 6.43931E-03 2.95450E-02-1.71787E-14-2.70556E-13
 -1      1333 1.92353E+01 2.44145E-02-3.49421E-03-1.13361E-02-6.43530E-14-1.91994E-13
 -1      1334 1.89053E+01 7.83965E-03 4.67549E-03 5.06761E-02-3.87477E-14-2.85397E-13
 -1      1335 1.89755E+01 3.48528E-03 3.64344E-03 5.25568E-02-3.75096E-14-3.47651E-13
 -1      1336 1.91782E+01 1.01721E-02-2.20898E-03 6.72936E-02-5.76058E-14-2.19016E-13
 -1      1337 1.90048E+01 3.16823E-03 2.44544E-03 6.13120E-02-2.55365E-14-3.69657E-13
 -1      1338 1.90851E+01 3.11621E-04 2.21265E-03 6.15689E-02-2.90418E-14-4.14947E-13
 -1      1339 1.92040E+01 2.74504E-03-1.31646E-03 1.04036E-01-6.61477E-14-2.35892E-13
 -1      1340 1.91284E+01 4.22461E-04 1.33618E-03 6.32099E-02-3.34118E-14-4.25850E-13
 -1      1341 1.92089E+01-1.48212E-03 1.44210E-03 6.25161E-02-2.35532E-14-4.56217E-13
 -1      1342 1.92727E+01-1.33933E-03-5.53075E-04 1.17206E-01-6.79446E-14-2.64476E-13
 -1      1343 1.92572E+01-1.16060E-03 7.53182E-04 6.00911E-02-2.07463E-14-4.91216E-13
 -1      1344 1.93324E+01-2.42093E-03 9.75525E-04 5.88800E-02-2.75728E-14-5.09836E-13
 -1      1345 1.93604E+01-3.54177E-03 4.93529E-06 1.16775E-01-5.29211E-14-2.53788E-13
 -1      1346 1.93802E+01-2.00308E-03 4.19475E-04 5.42818E-02-4.44971E-14-5.13802E-13
 -1      1347 1.94473E+01-2.81084E-03 6.67188E-04 5.28394E-02-2.79720E-14-5.55906E-13
 -1      1348 1.94531E+01-4.59445E-03 3.55208E-04 1.08708E-01-6.59130E-14-3.03828E-13
 -1      1349 1.94918E+01-2.36148E-03 2.19080E-04 4.72861E-02-1.24898E-14-5.96670E-13
 -1      1350 1.95497E+01-2.84487E-03 4.56323E-04 4.58014E-02-5.12166E-14-6.41338E-13
 -1      1351 1.95424E+01-4.91732E-03 5.41188E-04 9.67753E-02-6.38750E-14-3.08035E-13
 -1      1352 1.95893E+01-2.40079E-03 9.97413E-05 4.00879E-02-5.63826E-14-6.51821E-13
 -1      1353 1.96380E+01-2.64906E-03 3.13009E-04 3.86843E-02-4.07116E-14-7.19704E-13
 -1      1354 1.96240E+01-4.77285E-03 6.10001E-04 8.34246E-02-7.27741E-14-3.96133E-13
 -1      1355 1.96723E+01-2.22914E-03 3.38132E-05 3.33306E-02 1.00205E-14-7.08168E-13
 -1      1356 1.97125E+01-2.30514E-03 2.19613E-04 3.20878E-02-3.42787E-15-6.91274E-13
 -1      1357 1.96958E+01-4.33060E-03 5.98502E-04 7.02586E-02-2.58504E-14-4.55036E-13
 -1      1358 1.97417E+01-1.91601E-03 4.52388E-06 2.74374E-02 2.53386E-14-6.68683E-13
 -1      1359 1.97747E+01-1.86333E-03 1.64609E-04 2.64077E-02 2.84246E-14-6.13444E-13
 -1      1360 1.97578E+01-3.69839E-03 5.32257E-04 5.83319E-02 2.90385E-14-4.38889E-13
 -1      1361 1.97996E+01-1.50261E-03 8.92998E-07 2.26964E-02-1.88761E-14-6.18420E-13
 -1      1362 1.98267E+01-1.35017E-03 1.40206E-04 2.19169E-02-5.70667E-14-6.26635E-13
 -1      1363 1.98107E+01-2.93939E-03 4.27575E-04 4.83536E-02 5.06279E-15-4.41745E-13
 -1      1364 1.98485E+01-1.00841E-03 1.54487E-05 1.93261E-02-4.18335E-14-6.30586E-13
 -1      1365 1.98715E+01-7.73660E-04 1.41175E-04 1.88283E-02-4.49245E-14-6.92717E-13
 -1      1366 1.98564E+01-2.08258E-03 2.93568E-04 4.08344E-02-6.12232E-14-4.62970E-13
 -1      1367 1.98914E+01-4.35433E-04 4.29347E-05 1.75253E-02-2.45578E-14-7.06763E-13
 -1      1368 1.99122E+01-1.26851E-04 1.64150E-04 1.73435E-02-2.40215E-14-7.36665E-13
 -1      1369 1.98973E+01-1.12940E-03 1.33712E-04 3.62001E-02-5.91044E-14-4.77236E-13
 -1      1370 1.99319E+01 2.28965E-04 7.94161E-05 1.75162E-02-4.89794E-14-7.56074E-13
 -1      1371 1.99529E+01 6.09872E-04 2.07105E-04 1.76937E-02-4.55348E-14-8.34372E-13
 -1      1372 1.99361E+01-5.82140E-05-5.30560E-05 3.48823E-02-6.51569E-14-5.27998E-13
 -1      1373 1.99743E+01 1.01036E-03 1.21534E-04 1.95790E-02-4.54801E-14-8.47228E-13
 -1      1374 1.99979E+01 1.46723E-03 2.68864E-04 2.01750E-02-4.36570E-14-8.59106E-13
 -1      1375 1.99765E+01 1.17311E-03-2.71540E-04 3.73940E-02-9.10458E-14-5.75479E-13
 -1      1376 2.00232E+01 1.94624E-03 1.65749E-04 2.40848E-02-1.29711E-15-9.00015E-13
 -1      1377 2.00526E+01 2.48603E-03 3.48512E-04 2.51796E-02-1.46700E-14-8.64859E-13
 -1      1378 2.00224E+01 2.62585E-03-5.29721E-04 4.43952E-02-2.65217E-14-5.83441E-13
 -1      1379 2.00846E+01 3.08548E-03 2.07398E-04 3.15245E-02 8.11448E-14-8.17306E-13
 -1      1380 2.01234E+01 3.71620E-03 4.44510E-04 3.32254E-02 1.02462E-13-6.86066E-13
 -1      1381 2.00788E+01 4.38002E-03-8.38313E-04 5.67522E-02 7.96388E-14-6.96845E-13
 -1      1382 2.01653E+01 4.48767E-03 2.39388E-04 4.25365E-02 5.68560E-14-6.56335E-13
 -1      1383 2.02179E+01 5.21511E-03 5.53252E-04 4.49833E-02-1.40552E-14-6.58048E-13
 -1      1384 2.01514E+01 6.53404E-03-1.21037E-03 7.55916E-02 1.19078E-13-6.67639E-13
 -1      1385 2.02737E+01 6.22122E-03 2.50234E-04 5.79281E-02-7.32465E-15-6.04918E-13
 -1      1386 2.03457E+01 7.04331E-03 6.66663E-04 6.12976E-02-6.07554E-15-6.62603E-13
 -1      1387 2.02472E+01 9.20292E-03-1.66071E-03 1.02345E-01 1.70053E-14-4.85710E-13
 -1      1388 2.04201E+01 8.35777E-03 2.21179E-04 7.86848E-02-4.02282E-15-5.64715E-13
 -1      1389 2.05183E+01 9.25446E-03 7.68307E-04 8.31929E-02 4.16352E-14-5.45438E-13
 -1      1390 2.03745E+01 1.25113E-02-2.20485E-03 1.38772E-01 1.26086E-14-2.25587E-13
 -1      1391 2.06166E+01 1.09582E-02 1.22144E-04 1.05947E-01 6.01947E-14-6.37837E-13
 -1      1392 2.07493E+01 1.18727E-02 8.27569E-04 1.11843E-01 4.79382E-14-4.74866E-13
 -1      1393 2.05432E+01 1.65738E-02-2.85678E-03 1.86938E-01 4.48328E-14-1.98923E-13
 -1      1394 2.08782E+01 1.40408E-02-9.30606E-05 1.40916E-01 5.30726E-14-4.31096E-13
 -1      1395 2.10551E+01 1.48453E-02 7.92256E-04 1.48458E-01 3.14425E-14-4.39894E-13
 -1      1396 2.07650E+01 2.14478E-02-3.62407E-03 2.49079E-01 7.59913E-14-2.71190E-13
 -1      1397 2.12215E+01 1.75141E-02-4.89850E-04 1.84607E-01-5.06754E-14-4.17664E-13
 -1      1398 2.14537E+01 1.79493E-02 5.82854E-04 1.94006E-01-8.95514E-14-4.96660E-13
 -1      1399 2.10530E+01 2.70304E-02-4.49762E-03 3.27243E-01-2.13406E-14-3.32541E-13
 -1      1400 2.16648E+01 2.10447E-02-1.14658E-03 2.37318E-01 2.79507E-15-5.39008E-13
 -1      1401 2.19634E+01 2.06183E-02 9.90107E-05 2.48593E-01 4.36630E-14-4.89873E-13
 -1      1402 2.14209E+01 3.28488E-02-5.43004E-03 4.22475E-01-6.39567E-14-3.96207E-13
 -1      1403 2.22251E+01 2.38148E-02-2.11971E-03 2.97548E-01 3.36083E-14-4.84774E-13
 -1      1404 2.25989E+01 2.16488E-02-7.36737E-04 3.10249E-01 1.31748E-14-4.52870E-13
 -1      1405 2.18817E+01 3.76673E-02-6.29187E-03 5.33180E-01 4.38534E-14-3.04464E-13
 -1      1406 2.29134E+01 2.41201E-02-3.34310E-03 3.60032E-01-5.99356E-14-4.32288E-13
 -1      1407 2.33631E+01 1.87679E-02-1.85496E-03 3.72708E-01-7.59384E-14-5.80215E-13
 -1      1408 2.24439E+01 3.88206E-02-6.78754E-03 6.52077E-01-2.63799E-14-3.50522E-13
 -1      1409 2.37245E+01 1.88166E-02-4.41277E-03 4.12508E-01-5.87960E-14-5.33969E-13
 -1      1410 2.42333E+01 8.17791E-03-2.79329E-03 4.21817E-01-2.00236E-14-5.55469E-13
 -1      1411 2.31051E+01 3.12693E-02-6.31378E-03 7.61079E-01-1.06584E-13-3.28575E-13
 -1      1412 2.46212E+01 2.87164E-03-4.25245E-03 4.31297E-01 1.57537E-14-6.48932E-13
 -1      1413 2.51387E+01-1.53991E-02-2.39009E-03 4.30806E-01-5.12275E-14-6.77382E-13
 -1      1414 2.38422E+01 6.76252E-03-3.77873E-03 8.23939E-01-1.06538E-13-2.11293E-13
 -1      1415 2.55093E+01-3.00689E-02-8.93964E-04 3.77554E-01-1.09661E-14-6.04031E-13
 -1      1416 2.59330E+01-5.68013E-02 1.23543E-03 3.56870E-01 9.80466E-15-6.73805E-13
 -1      1417 2.45968E+01-4.54072E-02 2.46035E-03 7.78766E-01-4.95875E-14-3.72165E-13
 -1      1418 2.62118E+01-8.38906E-02 7.92254E-03 2.00364E-01 1.21901E-13-5.18662E-13
 -1      1419 2.63761E+01-1.14207E-01 9.52218E-03 1.46807E-01 1.28212E-13-3.79885E-13
 -1      1420 2.52587E+01-1.32577E-01 1.40690E-02 5.38505E-01 1.32710E-13-2.86552E-13
 -1      1421 2.64581E+01-1.50173E-01 2.20249E-02-1.40488E-01-9.10435E-14-2.99104E-13
 -1      1422 2.61608E+01-1.67496E-01 2.04286E-02-2.33375E-01-8.82870E-14-4.33410E-13
 -1      1423 2.56558E+01-2.42846E-01 3.07739E-02 1.80072E-02 1.02966E-13-1.52811E-13
 -1      1424 2.59356E+01-1.93428E-01 3.43780E-02-6.18788E-01 8.17749E-15-4.60895E-13
 -1      1425 2.50390E+01-1.68851E-01 2.41355E-02-7.32529E-01 8.86270E-15-3.86746E-13
 -1      1426 2.55731E+01-3.22464E-01 4.62780E-02-7.87517E-01-9.76753E-14-1.43025E-13
 -1      1427 2.44575E+01-1.51085E-01 2.81174E-02-1.06836E+00 6.39801E-14-4.52832E-13
 -1      1428 2.30646E+01-6.42265E-02 6.49103E-03-1.14297E+00 3.64405E-14-3.32706E-13
 -1      1429 2.48349E+01-2.69610E-01 4.53433E-02-1.67647E+00 4.89643E-14-2.16403E-13
 -1      1430 2.22497E+01 1.35004E-02-7.00745E-03-1.19141E+00-7.12971E-15-1.71002E-13
 -1      1431 2.08163E+01 1.35104E-01-3.43159E-02-1.15047E+00-1.30555E-14-2.38240E-13
 -1      1432 2.34835E+01-2.22583E-02 7.36711E-03-2.18020E+00 3.52123E-14-2.42081E-13
 -1      1433 2.01077E+01 2.27183E-01-5.45152E-02-7.65635E-01-1.76036E-13-2.30163E-13
 -1      1434 1.92852E+01 3.01054E-01-7.06311E-02-5.96264E-01-1.93970E-13-4.36491E-13
 -1      1435 2.19646E+01 3.31831E-01-5.80798E-02-1.79671E+00-1.46494E-13-1.81070E-13
 -1      1436 1.90613E+01 3.18352E-01-7.39827E-02 5.65149E-02-4.62061E-14-5.21865E-13
 -1      1437 1.92419E+01 2.81916E-01-6.65617E-02 2.50710E-01-2.46261E-14-6.00839E-13
 -1      1438 2.10244E+01 5.43944E-01-1.01034E-01-5.14151E-01-1.96440E-13-1.58790E-13
 -1      1439 1.95763E+01 2.05065E-01-4.78575E-02 7.65484E-01-1.18967E-14-7.26419E-13
 -1      1440 2.05580E+01 9.13584E-02-2.38400E-02 8.55830E-01-5.69544E-14-7.98417E-13
 -1      1441 2.11486E+01 4.35170E-01-7.83905E-02 9.37266E-01-1.06928E-13-4.45699E-13
 -1      1442 2.11455E+01-3.01103E-03-3.83273E-03 9.53825E-01-1.23724E-13-8.23369E-13
 -1      1443 2.23092E+01-1.06612E-01 1.96190E-02 9.11400E-01-1.15095E-14-9.58414E-13
 -1      1444 2.20869E+01 9.91651E-02-1.32855E-02 1.67250E+00-1.25329E-13-7.22287E-13
 -1      1445 2.27622E+01-1.48480E-01 2.32468E-02 6.46241E-01-4.26048E-15-8.04398E-13
 -1      1446 2.35442E+01-1.91359E-01 3.58074E-02 5.36147E-01-1.19887E-14-7.97938E-13
 -1      1447 2.31092E+01-2.09341E-01 3.63552E-02 1.43135E+00 1.61208E-14-6.07521E-13
 -1      1448 2.36632E+01-1.78494E-01 2.62208E-02 1.44720E-01 1.75636E-13-7.85302E-13
 -1      1449 2.38442E+01-1.67687E-01 2.90437E-02 3.97740E-02 1.63756E-13-6.72281E-13
 -1      1450 2.36301E+01-3.26749E-01 4.86456E-02 6.11037E-01 1.47833E-13-4.19996E-13
 -1      1451 2.36377E+01-1.31928E-01 1.70109E-02-2.81638E-01 1.77485E-13-5.01336E-13
 -1      1452 2.33071E+01-9.51886E-02 1.45323E-02-3.46867E-01 2.00989E-13-2.06005E-13
 -1      1453 2.34884E+01-2.74499E-01 3.61209E-02-2.50855E-01 3.17914E-13-3.62241E-13
 -1      1454 2.28919E+01-5.93036E-02 5.91546E-03-5.14540E-01 5.04978E-15-1.65163E-13
 -1      1455 2.22853E+01-1.64785E-02 1.39721E-03-5.34905E-01 2.29660E-14-1.03292E-13
 -1      1456 2.28296E+01-1.46855E-01 1.57694E-02-8.30063E-01 1.90568E-13-2.74048E-13
 -1      1457 2.18044E+01 1.45348E-02-4.45182E-03-5.38602E-01 1.05439E-13-3.88162E-14
 -1      1458 2.11864E+01 5.58372E-02-7.47891E-03-5.17075E-01 9.50832E-14 9.07538E-14
 -1      1459 2.19168E+01-6.39120E-03-3.10324E-03-1.02730E+00 9.56948E-14-1.72789E-13
 -1      1460 2.07628E+01 8.77862E-02-1.21118E-02-3.66966E-01 4.88910E-14 1.22905E-13
 -1      1461 2.03663E+01 1.06286E-01-7.18286E-03-3.15006E-01-6.59390E-14 1.79898E-13
 -1      1462 2.10081E+01 1.35924E-01-1.53572E-02-8.56051E-01 1.40358E-13-1.08667E-13
 -1      1463 2.00303E+01 6.37261E-02-1.43745E-02-1.99052E-02-1.57132E-13 1.86580E-13
 -1      1464 2.02311E+01 2.27380E-01-1.50029E-02-3.20346E-01-1.29908E-13 5.78466E-14
 -1      1465 2.02597E+01 7.54759E-02-1.52095E-01 4.83915E-01 7.97001E-14 1.44225E-12
 -1      1466 2.15301E+01 2.16133E-01-2.29288E-01 7.20909E-01 7.31776E-14 1.54970E-12
 -1      1467 2.17287E+01 8.81771E-01-8.54696E-02 2.06495E+00 1.28758E-13 1.13272E-12
 -1      1468 1.93313E+01 3.23804E-02-2.13334E-02 1.86077E-01 6.11212E-14 1.27078E-12
 -1      1469 1.97520E+01 1.13618E-01-6.27019E-02 2.38087E-01 5.66248E-14 1.35745E-12
 -1      1470 2.03033E+01 1.87677E-01-5.51922E-02 7.86297E-01 1.27259E-13 9.82057E-13
 -1      1471 1.89493E+01 1.51027E-02 5.66708E-03 5.35806E-02 4.99037E-14 1.15055E-12
 -1      1472 1.90880E+01 5.16238E-02 9.76834E-04 7.98932E-02 4.35763E-14 1.22085E-12
 -1      1473 1.95581E+01 7.18362E-02-1.21561E-02 2.99116E-01 1.02106E-13 8.67386E-13
 -1      1474 1.88387E+01 7.11551E-03 6.97776E-03-8.89853E-03 3.50466E-14 1.05438E-12
 -1      1475 1.88534E+01 2.58536E-02 1.10890E-02 5.49717E-03 3.75333E-14 1.10350E-12
 -1      1476 1.92225E+01 3.10284E-02-2.46195E-03 8.36429E-02 7.40241E-14 7.66448E-13
 -1      1477 1.88644E+01 3.20187E-03 4.78509E-03-3.91217E-02 2.68444E-14 9.78743E-13
 -1      1478 1.88208E+01 1.37979E-02 8.52069E-03-3.10096E-02 2.83302E-14 1.02799E-12
 -1      1479 1.91057E+01 1.32495E-02-1.61603E-03-2.12929E-02 5.60155E-14 7.04986E-13
 -1      1480 1.89581E+01 1.04419E-03 3.29634E-03-5.25134E-02-1.65376E-14 1.00913E-12
 -1      1481 1.88879E+01 7.26593E-03 5.36773E-03-4.80505E-02-1.85837E-14 9.74212E-13
 -1      1482 1.91066E+01 4.52063E-03-1.63022E-03-7.27167E-02-7.87673E-15 6.78204E-13
 -1      1483 1.90819E+01-2.02888E-04 2.51334E-03-5.64223E-02 2.64035E-14 9.95997E-13
 -1      1484 1.90021E+01 3.43127E-03 3.43075E-03-5.42186E-02 1.05020E-14 1.00736E-12
 -1      1485 1.91689E+01-1.32785E-04-1.37471E-03-9.52786E-02 6.98074E-15 6.32765E-13
 -1      1486 1.92140E+01-9.07643E-04 2.04840E-03-5.48861E-02 3.20566E-14 9.29846E-13
 -1      1487 1.91342E+01 1.10079E-03 2.32857E-03-5.41023E-02 2.52667E-14 9.57026E-13
 -1      1488 1.92604E+01-2.64710E-03-9.98889E-04-1.01394E-01 4.04627E-14 5.89057E-13
 -1      1489 1.93419E+01-1.26477E-03 1.70410E-03-5.03440E-02 3.45376E-14 8.49534E-13
 -1      1490 1.92674E+01-3.02191E-04 1.65140E-03-5.04371E-02 4.53047E-14 9.10302E-13
 -1      1491 1.93619E+01-3.90973E-03-6.56172E-04-9.80713E-02 5.79575E-14 5.35634E-13
 -1      1492 1.94588E+01-1.39292E-03 1.41306E-03-4.43485E-02-9.18319E-16 8.38264E-13
 -1      1493 1.93924E+01-1.09924E-03 1.19292E-03-4.49541E-02 6.18475E-15 8.21592E-13
 -1      1494 1.94624E+01-4.39661E-03-3.93205E-04-8.95969E-02 3.39566E-14 5.05013E-13
 -1      1495 1.95615E+01-1.37011E-03 1.15702E-03-3.79088E-02 5.94032E-14 7.94167E-13
 -1      1496 1.95042E+01-1.48950E-03 8.63690E-04-3.87782E-02 3.21283E-14 8.41899E-13
 -1      1497 1.95557E+01-4.39336E-03-2.07341E-04-7.87124E-02 2.76042E-14 5.49418E-13
 -1      1498 1.96493E+01-1.24843E-03 9.31170E-04-3.16829E-02 3.33306E-14 7.30439E-13
 -1      1499 1.96011E+01-1.60344E-03 6.22260E-04-3.26443E-02 3.81327E-14 7.46259E-13
 -1      1500 1.96387E+01-4.08308E-03-8.43486E-05-6.72047E-02 8.09395E-14 4.96984E-13
 -1      1501 1.97229E+01-1.06162E-03 7.32991E-04-2.60986E-02 1.50842E-14 7.10169E-13
 -1      1502 1.96831E+01-1.52756E-03 4.45622E-04-2.70323E-02 5.71816E-15 7.05005E-13
 -1      1503 1.97105E+01-3.58453E-03-1.10258E-05-5.62444E-02 2.30380E-14 4.40636E-13
 -1      1504 1.97841E+01-8.29889E-04 5.59523E-04-2.14382E-02 4.42395E-14 5.83897E-13
 -1      1505 1.97515E+01-1.31765E-03 3.18760E-04-2.22581E-02 5.98536E-14 6.76616E-13
 -1      1506 1.97717E+01-2.97224E-03 2.22140E-05-4.66031E-02 7.26626E-14 3.56942E-13
 -1      1507 1.98353E+01-5.63243E-04 4.06887E-04-1.78994E-02 1.96376E-16 5.42362E-13
 -1      1508 1.98084E+01-1.00683E-03 2.30936E-04-1.85390E-02 2.14386E-14 5.63017E-13
 -1      1509 1.98238E+01-2.28879E-03 2.13387E-05-3.88038E-02 4.59624E-14 4.01507E-13
 -1      1510 1.98797E+01-2.63948E-04 2.70345E-04-1.56406E-02 1.83068E-14 4.65057E-13
 -1      1511 1.98568E+01-6.11035E-04 1.74112E-04-1.60424E-02 1.81372E-14 4.87659E-13
 -1      1512 1.98689E+01-1.55315E-03-1.08963E-05-3.32308E-02 4.34453E-14 3.18030E-13
 -1      1513 1.99207E+01 7.13587E-05 1.44464E-04-1.48148E-02 8.44720E-14 3.10295E-13
 -1      1514 1.98998E+01-1.33031E-04 1.42087E-04-1.49215E-02 5.85538E-14 4.08272E-13
 -1      1515 1.99099E+01-7.66845E-04-7.45650E-05-3.02103E-02 6.80713E-14 2.00595E-13
 -1      1516 1.99622E+01 4.49649E-04 2.33400E-05-1.55934E-02-7.46091E-14 3.30297E-13
 -1      1517 1.99411E+01 4.34068E-04 1.29899E-04-1.53413E-02 5.27268E-15 3.11242E-13
 -1      1518 1.99499E+01 8.07977E-05-1.72195E-04-3.00690E-02 5.17462E-14 1.74797E-13
 -1      1519 2.00086E+01 8.79212E-04-9.91139E-05-1.81799E-02-4.96890E-14 4.65860E-13
 -1      1520 1.99850E+01 1.10325E-03 1.33325E-04-1.74941E-02-8.65508E-14 3.45671E-13
 -1      1521 1.99926E+01 1.00768E-03-3.08296E-04-3.31724E-02-9.79244E-14 2.21927E-13
 -1      1522 2.00650E+01 1.36671E-03-2.28750E-04-2.28119E-02-2.55114E-14 5.55949E-13
 -1      1523 2.00361E+01 1.88932E-03 1.48392E-04-2.16045E-02-2.15724E-14 4.97886E-13
 -1      1524 2.00421E+01 2.03328E-03-4.88662E-04-3.99422E-02-5.47598E-14 2.22670E-13
 -1      1525 2.01371E+01 1.91304E-03-3.70508E-04-2.97486E-02 1.47751E-13 3.58171E-13
 -1      1526 2.00997E+01 2.80298E-03 1.70835E-04-2.79199E-02 7.22757E-14 4.85456E-13
 -1      1527 2.01031E+01 3.17142E-03-7.19237E-04-5.08479E-02 6.24092E-14 2.22052E-13
 -1      1528 2.02311E+01 2.50727E-03-5.27228E-04-3.92362E-02 7.45177E-14 9.34693E-14
 -1      1529 2.01819E+01 3.84227E-03 1.95518E-04-3.66817E-02 1.18669E-13 3.04514E-13
 -1      1530 2.01809E+01 4.42014E-03-1.00422E-03-6.63637E-02 2.14064E-13 1.32045E-13
 -1      1531 2.03538E+01 3.11775E-03-6.97526E-04-5.14414E-02-6.62757E-14 1.10088E-13
 -1      1532 2.02889E+01 4.97958E-03 2.15879E-04-4.80677E-02-3.63471E-14 2.22801E-14
 -1      1533 2.02810E+01 5.74689E-03-1.34291E-03-8.68762E-02 5.68924E-14 1.30144E-13
 -1      1534 2.05119E+01 3.67939E-03-8.72073E-04-6.63412E-02-1.30142E-13 3.83882E-13
 -1      1535 2.04276E+01 6.14259E-03 2.23654E-04-6.20942E-02-1.25643E-13 1.02781E-13
 -1      1536 2.04092E+01 7.06696E-03-1.72466E-03-1.12521E-01-1.77315E-13 8.79500E-14
 -1      1537 2.07118E+01 4.07633E-03-1.02725E-03-8.35464E-02-5.45600E-14 7.12867E-13
 -1      1538 2.06044E+01 7.18688E-03 2.09390E-04-7.84602E-02-9.01318E-14 5.80578E-13
 -1      1539 2.05710E+01 8.21259E-03-2.12088E-03-1.42922E-01-2.10469E-13 2.25373E-13
 -1      1540 2.09574E+01 4.12032E-03-1.11494E-03-1.02043E-01 3.29271E-14 6.82555E-13
 -1      1541 2.08245E+01 7.85928E-03 1.64772E-04-9.63156E-02 4.94483E-15 7.56729E-13
 -1      1542 2.07706E+01 8.89132E-03-2.47324E-03-1.76789E-01-3.23472E-14 4.49687E-13
 -1      1543 2.12487E+01 3.52878E-03-1.04759E-03-1.19834E-01-1.27935E-14 6.74256E-13
 -1      1544 2.10903E+01 7.75426E-03 8.83443E-05-1.13939E-01 4.60014E-14 7.71298E-13
 -1      1545 2.10097E+01 8.63535E-03-2.67737E-03-2.11361E-01 5.05515E-14 5.75999E-13
 -1      1546 2.15787E+01 1.91385E-03-6.80603E-04-1.33496E-01 1.21629E-14 5.92843E-13
 -1      1547 2.13985E+01 6.27538E-03-3.58137E-06-1.28330E-01-6.95709E-14 5.46284E-13
 -1      1548 2.12852E+01 6.75338E-03-2.56392E-03-2.41675E-01-4.47897E-14 4.99236E-13
 -1      1549 2.19286E+01-1.19132E-03 1.98839E-04-1.37740E-01 1.07324E-13 4.59081E-13
 -1      1550 2.17372E+01 2.63262E-03-6.05346E-05-1.34788E-01 9.39929E-14 6.12936E-13
 -1      1551 2.15865E+01 2.31756E-03-1.88414E-03-2.59761E-01 9.56375E-14 3.23463E-13
 -1      1552 2.22640E+01-6.22095E-03 1.85098E-03-1.25200E-01-2.93906E-14 3.16202E-13
 -1      1553 2.20809E+01-4.05939E-03 1.86689E-05-1.26658E-01 4.32581E-14 3.99346E-13
 -1      1554 2.18924E+01-5.74324E-03-3.19372E-04-2.54034E-01 1.05924E-13 3.82742E-13
 -1      1555 2.25297E+01-1.33091E-02 4.48233E-03-8.69504E-02-6.91057E-14 4.25532E-13
 -1      1556 2.23868E+01-1.44748E-02 3.84409E-04-9.56530E-02-7.61004E-14 3.35402E-13
 -1      1557 2.21671E+01-1.83160E-02 2.44868E-03-2.09522E-01-8.07722E-14 3.76127E-13
 -1      1558 2.26502E+01-2.18012E-02 8.00008E-03-1.45353E-02-6.62660E-14 5.92008E-13
 -1      1559 2.25916E+01-2.84300E-02 1.17971E-03-3.34296E-02-4.06081E-14 4.39541E-13
 -1      1560 2.23589E+01-3.53698E-02 6.55226E-03-1.10049E-01-1.40947E-13 2.52483E-13
 -1      1561 2.25367E+01-2.96236E-02 1.16153E-02 9.55625E-02 7.63964E-14 5.54033E-13
 -1      1562 2.26141E+01-4.38798E-02 2.37967E-03 6.47212E-02 9.47766E-15 6.55506E-13
 -1      1563 2.24022E+01-5.47046E-02 1.16062E-02 5.60710E-02-1.98244E-14 3.14409E-13
 -1      1564 2.21089E+01-3.29619E-02 1.35047E-02 2.34956E-01-1.40773E-14 5.35218E-13
 -1      1565 2.23691E+01-5.59709E-02 3.54464E-03 1.93761E-01-2.62203E-15 5.65277E-13
 -1      1566 2.22280E+01-7.05542E-02 1.63189E-02 2.85780E-01 2.05825E-15 4.06010E-13
 -1      1567 2.13340E+01-2.70688E-02 1.10629E-02 3.76433E-01 1.83897E-13 1.54609E-13
 -1      1568 2.17953E+01-5.72399E-02 3.67748E-03 3.32110E-01 1.68202E-13 3.84900E-13
 -1      1569 2.17863E+01-7.32344E-02 1.84514E-02 5.48390E-01 2.52414E-13 1.76787E-13
 -1      1570 2.02725E+01-9.01344E-03 2.28561E-03 4.73366E-01 1.07061E-13-2.57065E-13
 -1      1571 2.08975E+01-4.04092E-02 1.51007E-03 4.39249E-01 1.02130E-13 4.57620E-15
 -1      1572 2.10792E+01-5.19604E-02 1.55795E-02 7.77667E-01 2.42024E-13-1.15498E-13
 -1      1573 1.91062E+01 1.81944E-02-1.18511E-02 4.73814E-01-1.64508E-13 1.35489E-13
 -1      1574 1.97857E+01-4.22432E-03-3.53790E-03 4.65331E-01-1.53182E-13-1.88405E-13
 -1      1575 2.01929E+01-2.22366E-03 6.87277E-03 8.82213E-01-1.59385E-13 5.00953E-14
 -1      1576 1.81107E+01 4.39895E-02-2.59064E-02 3.50622E-01-3.92048E-14 4.02400E-13
 -1      1577 1.86823E+01 4.11765E-02-1.01189E-02 3.76489E-01-5.18682E-14 2.05370E-13
 -1      1578 1.93048E+01 6.49280E-02-5.25450E-03 7.84676E-01-1.22870E-13 8.60857E-14
 -1      1579 1.75545E+01 5.52726E-02-3.20342E-02 1.29657E-01 2.43234E-14 3.69506E-13
 -1      1580 1.78626E+01 7.63100E-02-1.47823E-02 1.83901E-01 1.77636E-15 3.74884E-13
 -1      1581 1.86372E+01 1.21671E-01-1.55514E-02 4.77289E-01-1.91860E-15 1.30668E-13
 -1      1582 1.75697E+01 4.54469E-02-2.56739E-02-1.11455E-01 3.54595E-14 2.93314E-13
 -1      1583 1.75413E+01 8.36287E-02-1.40278E-02-4.91504E-02 5.89181E-14 4.34567E-13
 -1      1584 1.83640E+01 1.37895E-01-1.90290E-02 5.08235E-02 6.87818E-14 3.40494E-13
 -1      1585 1.80777E+01 2.03335E-02-9.52172E-03-2.82935E-01 3.47196E-14 1.95025E-13
 -1      1586 1.77627E+01 6.03346E-02-7.40907E-03-2.36079E-01-3.46797E-14 2.58751E-13
 -1      1587 1.85207E+01 1.02493E-01-1.48543E-02-3.39384E-01 2.16025E-14 2.96731E-13
 -1      1588 1.88332E+01-6.75475E-03 7.58568E-03-3.33943E-01-8.47182E-14 2.76612E-13
 -1      1589 1.83773E+01 2.03962E-02 1.75410E-03-3.16179E-01-7.12069E-14 1.94310E-13
 -1      1590 1.89854E+01 3.41836E-02-6.71194E-03-5.58490E-01-7.15608E-14 4.76799E-13
 -1      1591 1.95535E+01-2.41300E-02 1.82028E-02-2.74111E-01 9.57203E-14 3.12923E-13
 -1      1592 1.91221E+01-1.61863E-02 8.78344E-03-2.83719E-01 9.97171E-14 3.75831E-13
 -1      1593 1.95471E+01-3.23118E-02 7.39869E-04-5.62390E-01 1.26249E-14 4.78824E-13
 -1      1594 2.00414E+01-2.77876E-02 1.96728E-02-1.55074E-01 1.59909E-13-2.27093E-14
 -1      1595 1.97487E+01-3.58869E-02 1.12500E-02-1.79961E-01 1.71869E-13 1.66867E-13
 -1      1596 2.00104E+01-7.04103E-02 4.76675E-03-4.03889E-01 3.13970E-13 2.79170E-13
 -1      1597 2.02391E+01-2.00380E-02 1.40883E-02-3.69130E-02 5.61348E-14-2.97037E-13
 -1      1598 2.01169E+01-3.57986E-02 9.38407E-03-6.24688E-02 1.49768E-13-1.22964E-13
 -1      1599 2.02676E+01-7.29711E-02 4.96506E-03-1.84810E-01 2.35328E-13 2.55044E-13
 -1      1600 2.02113E+01-6.34966E-03 5.29565E-03 3.65274E-02-1.86983E-13-2.19459E-13
 -1      1601 2.02190E+01-2.09079E-02 5.01632E-03 2.13772E-02-9.39851E-14-3.67411E-13
 -1      1602 2.03142E+01-4.86390E-02 2.12046E-03-2.45268E-03-3.61226E-14 2.37414E-13
 -1      1603 2.00907E+01 6.55608E-03-1.77674E-03 4.73430E-02 1.17931E-13-1.98648E-13
 -1      1604 2.01473E+01 1.81678E-04 3.44031E-04 4.75920E-02-5.34628E-14-1.88064E-13
 -1      1605 2.02227E+01-1.12296E-02-1.67888E-03 8.33231E-02-6.23863E-14 1.38824E-13
 -1      1606 2.00105E+01 1.26293E-02 2.93127E-03 8.87513E-03 8.88035E-14-3.71101E-13
 -1      1607 2.00348E+01 1.57803E-02-4.99075E-04 2.17226E-02 1.67539E-13-1.13972E-13
 -1      1608 2.00957E+01 2.22864E-02-1.73149E-03 6.33221E-02 2.24206E-13 2.54881E-13
 -1      1609 1.99921E+01-7.02825E-04 6.07352E-03-8.82068E-03-1.31974E-13-1.76618E-13
 -1      1610 2.00306E+01 9.57474E-02-1.37661E-03 4.99122E-02 3.10106E-13 2.01411E-13
 -1      1611 2.00246E+01 4.60992E-02 2.80880E-03 3.50627E-02 3.57527E-14 4.57783E-13
 -1      1612 2.00477E+01 3.77262E-01-2.14868E-03 1.52800E-01 3.80996E-13 1.99554E-14
 -1      1613 2.00408E+01 2.03112E-01-2.38833E-03 1.29352E-01 5.29779E-13-1.30219E-13
 -1      1614 2.00645E+01 1.89341E-01-9.54597E-03 1.79717E-01 2.91254E-13 1.91564E-13
 -1      1615 2.00595E+01 9.27697E-01-3.67001E-03 2.98341E-01 6.97463E-14-1.58888E-13
 -1      1616 2.00567E+01 5.81242E-01-5.14822E-03 2.66341E-01 3.11255E-13-8.89306E-14
 -1      1617 2.00920E+01 4.84758E-01-1.40188E-02 4.11561E-01 3.34610E-13-1.77150E-13
 -1      1618 2.00592E+01 1.80559E+00-5.07379E-03 4.67770E-01-1.58758E-13-2.92075E-13
 -1      1619 2.00647E+01 1.25935E+00-7.59589E-03 4.32078E-01-7.78405E-14 6.78277E-14
 -1      1620 2.01054E+01 9.99959E-01-1.85066E-02 7.09675E-01 1.56291E-13-2.01028E-13
 -1      1621 2.00381E+01 2.97467E+00-5.33140E-03 6.16100E-01-1.09415E-12-4.82060E-13
 -1      1622 2.00561E+01 2.26225E+00-8.49815E-03 5.88181E-01-4.58109E-13-5.70099E-13
 -1      1623 2.00962E+01 1.77031E+00-1.77623E-02 1.01851E+00-4.05901E-13-7.25951E-13
 -1      1624 1.99934E+01 4.35062E+00-2.84931E-03 6.87744E-01-9.54112E-13 1.93992E-13
 -1      1625 2.00239E+01 3.53639E+00-6.68993E-03 6.79833E-01-1.00391E-12 3.19948E-15
 -1      1626 2.00506E+01 2.77209E+00-1.06071E-02 1.24581E+00-4.33995E-13-3.80318E-13
 -1      1627 1.99344E+01 5.67251E+00 2.19296E-03 6.21414E-01-7.68663E-13 5.06001E-14
 -1      1628 1.99699E+01 4.92420E+00-1.57609E-03 6.46083E-01-1.02326E-12 2.94863E-13
 -1      1629 1.99676E+01 3.89928E+00 3.83647E-03 1.27884E+00-4.57405E-13 8.93621E-14
 -1      1630 1.98818E+01 6.63043E+00 7.66236E-03 3.94853E-01-2.18259E-13 1.45984E-13
 -1      1631 1.99093E+01 6.13357E+00 5.03116E-03 4.53054E-01-4.58321E-13 4.14686E-14
 -1      1632 1.98690E+01 4.93428E+00 2.23881E-02 1.02855E+00-2.21528E-13 3.83329E-13
 -1      1633 1.98593E+01 6.95463E+00 1.03123E-02 4.86821E-02 5.14142E-14 2.51530E-13
 -1      1634 1.98668E+01 6.85455E+00 9.83816E-03 1.26353E-01-2.47968E-13 1.68407E-13
 -1      1635 1.97917E+01 5.62407E+00 3.76240E-02 4.98392E-01 1.79107E-13 1.28749E-13
 -1      1636 1.98780E+01 6.53317E+00 8.27174E-03-3.21127E-01 4.94466E-14 3.61343E-15
 -1      1637 1.98631E+01 6.87100E+00 1.05446E-02-2.48028E-01-7.70859E-14 1.95009E-13
 -1      1638 1.97693E+01 5.76781E+00 4.17408E-02-1.90943E-01-1.47295E-13 2.57808E-13
 -1      1639 1.99282E+01 5.48789E+00 3.35697E-03-6.04814E-01-1.32026E-13-5.85729E-15
 -1      1640 1.98969E+01 6.16719E+00 6.97199E-03-5.58065E-01 1.02984E-13-2.73621E-13
 -1      1641 1.98132E+01 5.31702E+00 3.32482E-02-8.39954E-01-1.08389E-13-1.58110E-13
 -1      1642 1.99901E+01 4.04129E+00-2.53683E-03-7.46061E-01-5.69544E-14 1.22455E-13
 -1      1643 1.99536E+01 4.92221E+00 2.23606E-03-7.31863E-01-2.34028E-13 3.28142E-13
 -1      1644 1.98990E+01 4.38848E+00 1.60416E-02-1.27908E+00 1.50085E-13 2.91850E-14
 -1      1645 2.00440E+01 2.53030E+00-7.16804E-03-7.30975E-01-5.13062E-14-6.46887E-14
 -1      1646 2.00110E+01 3.41219E+00-2.34380E-03-7.45628E-01-3.50137E-14 1.54174E-13
 -1      1647 1.99988E+01 3.20063E+00-1.80854E-03-1.42769E+00 9.39821E-14 1.87019E-13
 -1      1648 2.00897E+01 1.26597E+00-2.32859E-03-5.81692E-01-9.88723E-14-1.65944E-14
 -1      1649 2.00551E+01 1.96159E+00-6.85750E-03-6.17008E-01-3.58324E-14-1.65903E-13
 -1      1650 2.00932E+01 2.01116E+00-1.42874E-02-1.28984E+00 1.09432E-13-1.16531E-13
 -1      1651 2.01756E+01 4.97879E-01 7.44674E-03-4.52419E-01-1.05522E-13-1.70674E-13
 -1      1652 2.01563E+01 8.96358E-01-4.20573E-03-5.54492E-01 3.34767E-14-2.04536E-13
 -1      1653 2.02321E+01 1.07838E+00-2.41395E-02-1.06923E+00 5.26406E-14-9.44834E-14
 -1      1654 2.04849E+01 4.60630E-01-1.33271E-02-8.46720E-01-1.49703E-13-2.54181E-13
 -1      1655-6.41529E-01-1.58478E+01-1.69236E+00-9.30299E-01 1.14508E-12 6.30579E-13
 -1      1656-6.44942E-01-1.83399E+01-1.94671E+00 4.49807E-01 3.82888E-13 6.05072E-13
 -1      1657 2.26263E+00-8.33585E+00-1.07410E+00 1.30889E+00 1.95333E-12 1.35045E-12
 -1      1658 1.18757E+00-1.41093E+01-1.64693E+00 4.61305E-01 1.44929E-12 7.35960E-13
 -1      1659 8.14474E+00-3.09358E-01-4.45991E-01 5.26341E+00 2.27263E-12 1.86540E-12
 -1      1660 4.70154E+00-6.15520E+00-1.25629E+00 2.13799E+00 2.24820E-12 1.43374E-12
 -1      1661 2.14689E+01 4.61538E+00 4.46566E-01 1.05660E+01 1.84408E-12 2.04570E-12
 -1      1662 1.36374E+01 1.10541E+00-5.15164E-01 6.59440E+00 2.04503E-12 1.80544E-12
 -1      1663 3.59777E+01 6.49596E+00 1.20467E+00 1.29466E+01 1.48404E-12 1.44618E-12
 -1      1664 2.62968E+01 6.62096E+00 3.39214E-01 1.14710E+01 1.98208E-12 1.97620E-12
 -1      1665 4.96571E+01 4.79627E+00 1.67813E+00 8.96501E+00 6.01436E-13 7.79821E-13
 -1      1666 4.09057E+01 6.53794E+00 1.06318E+00 1.15724E+01 9.80244E-13 1.31495E-12
 -1      1667 5.67097E+01 3.55208E+00 1.92589E+00 1.73681E+00 3.06449E-13 1.36655E-13
 -1      1668 5.35379E+01 4.57295E+00 1.73193E+00 7.33146E+00 4.38871E-13 6.17506E-13
 -1      1669 5.27930E+01 4.51441E+00 1.62600E+00-6.30228E+00 5.05124E-13-9.20930E-13
 -1      1670 5.58156E+01 3.71697E+00 1.82644E+00-9.93650E-01 4.66960E-13-1.94844E-13
 -1      1671 4.24277E+01 6.43478E+00 1.16526E+00-1.18892E+01 5.30964E-13-1.26321E-12
 -1      1672 5.05775E+01 4.57801E+00 1.73675E+00-8.98895E+00 3.76069E-13-1.08191E-12
 -1      1673 2.72198E+01 6.17863E+00 3.27061E-01-1.08978E+01 6.97331E-13-1.03340E-12
 -1      1674 3.71491E+01 5.83728E+00 1.12999E+00-1.20352E+01 4.47087E-13-1.26699E-12
 -1      1675 1.41498E+01 3.48785E+00-4.18909E-01-7.66815E+00 7.99805E-13-9.17155E-13
 -1      1676 2.12891E+01 5.84628E+00 4.01471E-01-1.10261E+01 8.81295E-13-9.88098E-13
 -1      1677 5.71624E+00-3.26892E+00-1.11190E+00-2.92326E+00 9.27258E-13-4.95270E-13
 -1      1678 9.85470E+00 1.75875E+00-3.11332E-01-6.32204E+00 8.14682E-13-8.03468E-13
 -1      1679 1.26689E+00-1.16156E+01-1.65004E+00-1.45609E-02 8.53984E-13-4.03136E-13
 -1      1680 2.63289E+00-5.59695E+00-1.01563E+00-1.50486E+00 9.43023E-13-3.75422E-13
 -1      1681-3.55739E-01-1.70623E+01-1.87064E+00-1.26967E-01 2.21656E-13-4.69014E-13
 -1      1682-2.37589E-01-1.34244E+01-1.54355E+00 7.16349E-01 7.72382E-13-4.15501E-13
 -1      1683-9.20853E-01-1.76537E+01-1.90893E+00-1.35570E+00-6.21003E-13-3.35315E-13
 -1      1684-8.37039E-01-1.80854E+01-1.92053E+00 4.35860E-01-4.55747E-14-4.19498E-13
 -1      1685-8.15085E-02-1.23071E+01-1.55390E+00-1.18449E+00-1.49902E-12-8.47641E-13
 -1      1686-2.59100E-01-1.66835E+01-1.94712E+00-8.30724E-01-9.10549E-13-5.90306E-13
 -1      1687 3.96822E+00-4.02512E+00-9.47410E-01 2.15698E+00-1.92468E-12-1.32300E-12
 -1      1688 1.79127E+00-1.02281E+01-1.68499E+00-1.85594E-01-1.61815E-12-1.11877E-12
 -1      1689 1.49611E+01 2.28070E+00-5.24035E-02 7.82657E+00-1.40421E-12-1.16551E-12
 -1      1690 8.92720E+00-2.28595E+00-9.64205E-01 3.92016E+00-1.72617E-12-1.07314E-12
 -1      1691 2.89403E+01 5.88758E+00 8.09189E-01 1.19389E+01-1.04250E-12-1.63025E-12
 -1      1692 1.94871E+01 4.56473E+00-1.83697E-01 9.01742E+00-1.26110E-12-1.47726E-12
 -1      1693 4.44405E+01 4.94178E+00 1.50082E+00 1.05826E+01-8.41938E-13-7.14873E-13
 -1      1694 3.47315E+01 5.94001E+00 6.79370E-01 1.11214E+01-1.03900E-12-1.18572E-12
 -1      1695 5.60686E+01 3.70314E+00 2.09815E+00 5.09905E+00-2.48301E-13 5.32907E-14
 -1      1696 4.92838E+01 5.18006E+00 1.55897E+00 9.56702E+00-5.70891E-13-4.19553E-13
 -1      1697 5.77547E+01 3.77391E+00 2.05893E+00-3.44800E+00-3.34344E-13 7.45820E-13
 -1      1698 5.76934E+01 3.68412E+00 2.07202E+00 2.40541E+00-3.02147E-13 1.68976E-13
 -1      1699 4.94874E+01 5.67031E+00 1.56955E+00-1.00020E+01-5.75942E-13 1.13054E-12
 -1      1700 5.54479E+01 4.11836E+00 1.97909E+00-5.68367E+00-3.62210E-13 8.08742E-13
 -1      1701 3.67182E+01 7.19430E+00 9.58116E-01-1.30020E+01-8.39717E-13 1.34115E-12
 -1      1702 4.59185E+01 5.75213E+00 1.66296E+00-1.21500E+01-6.11788E-13 1.37201E-12
 -1      1703 2.25832E+01 5.98627E+00 1.25918E-01-1.07339E+01-1.19749E-12 1.28053E-12
 -1      1704 3.15084E+01 6.78987E+00 1.02575E+00-1.31656E+01-9.28702E-13 1.27542E-12
 -1      1705 1.10291E+01 9.19041E-01-7.06220E-01-5.89587E+00-1.71729E-12 1.14242E-12
 -1      1706 1.74529E+01 4.79387E+00 2.30601E-01-9.78505E+00-1.42375E-12 1.12754E-12
 -1      1707 4.15621E+00-7.72679E+00-1.39666E+00-1.60194E+00-1.16684E-12 1.09329E-12
 -1      1708 7.39756E+00-1.59474E+00-5.81294E-01-4.61486E+00-1.62004E-12 1.27875E-12
 -1      1709 5.13655E-01-1.52609E+01-1.88612E+00 2.83034E-01-5.94857E-13 5.51045E-13
 -1      1710 1.17317E+00-9.86752E+00-1.34130E+00-1.82386E-01-1.03417E-12 8.62616E-13
 -1      1711-6.83270E-01-1.87307E+01-2.00295E+00-3.12754E-01 7.74242E-14 2.31315E-13
 -1      1712-7.13924E-01-1.66381E+01-1.83509E+00 1.17583E+00-2.76057E-13 2.62929E-13
 -1      1713 2.77818E+01 7.27008E-01 3.78667E-01 7.21885E+00 1.29574E-12 8.27893E-13
 -1      1714 1.70150E+01-3.67055E+00-1.87049E-01 7.00883E+00 1.34248E-12 1.13709E-12
 -1      1715 2.00185E+01 1.05656E-02 1.65785E-03 3.20171E-03-1.00598E-13 1.79112E-13
 -1      1716 2.00460E+01 6.47174E-02-2.81076E-03 5.62422E-02 7.74667E-14 6.31606E-13
 -1      1717 1.17466E+00-1.06832E+01-1.07733E+00 3.26361E+00 1.05105E-12 1.08186E-12
 -1      1718 7.29966E+00-7.90317E+00-8.06349E-01 5.37952E+00 1.31628E-12 1.27345E-12
 -1      1719-1.49138E+00-1.25887E+01-1.39902E+00 1.72608E-01 4.73468E-13 8.18068E-13
 -1      1720 3.78241E+01 4.88450E+00 9.99848E-01 6.32427E+00 1.23884E-12 6.72129E-13
 -1      1721 4.53604E+01 7.03615E+00 1.40367E+00 3.69581E+00 7.94864E-13 2.84828E-13
 -1      1722 4.81721E+01 7.73032E+00 1.56753E+00 4.98909E-01 7.20146E-13-1.34955E-13
 -1      1723 4.56194E+01 7.00339E+00 1.39986E+00-3.53744E+00 5.02154E-13-4.26603E-13
 -1      1724 3.82135E+01 4.68572E+00 8.82193E-01-5.92726E+00 3.02133E-13-7.12763E-13
 -1      1725 2.83093E+01 1.86284E+00 4.96467E-01-7.32132E+00 4.33265E-13-5.55334E-13
 -1      1726 1.73118E+01-1.58946E+00-1.31556E-01-7.02992E+00 3.76921E-13-5.50893E-13
 -1      1727 8.30617E+00-6.06838E+00-7.10649E-01-5.19517E+00 3.65930E-13-1.93207E-13
 -1      1728 1.91715E+00-1.00351E+01-1.11846E+00-3.11498E+00 2.91656E-13-3.97682E-13
 -1      1729-1.23131E+00-1.23312E+01-1.33284E+00-1.13981E+00-5.36515E-14-7.62501E-13
 -1      1730-8.74524E-01-1.24737E+01-1.38574E+00 8.98542E-01-4.85612E-13-7.72382E-13
 -1      1731 3.14282E+00-9.74323E+00-1.12652E+00 3.03111E+00-9.03499E-13-1.07057E-12
 -1      1732 1.18299E+01-5.70219E+00-5.24502E-01 5.49868E+00-1.10068E-12-6.29941E-13
 -1      1733 2.24358E+01-1.52495E+00-5.57064E-03 6.49502E+00-9.26703E-13-8.68638E-13
 -1      1734 3.36487E+01 2.75739E+00 7.34418E-01 6.28143E+00-8.35998E-13-6.91003E-13
 -1      1735 4.30859E+01 5.50055E+00 1.24847E+00 4.18723E+00-9.01529E-13-1.86517E-14
 -1      1736 4.93063E+01 7.17370E+00 1.72001E+00 1.39403E+00-5.84088E-13 6.33937E-14
 -1      1737 4.86012E+01 7.54787E+00 1.63371E+00-2.17759E+00-4.69902E-13 1.60205E-13
 -1      1738 4.37303E+01 6.41699E+00 1.37731E+00-5.43051E+00-5.27189E-13 7.02771E-13
 -1      1739 3.53752E+01 4.00563E+00 9.06752E-01-7.68841E+00-6.13232E-13 7.18980E-13
 -1      1740 2.47768E+01 4.91182E-01 2.44521E-01-7.80184E+00-7.73936E-13 6.07625E-13
 -1      1741 1.46672E+01-4.27595E+00-4.22013E-01-6.60084E+00-8.35221E-13 6.62914E-13
 -1      1742 6.21993E+00-8.57629E+00-9.06687E-01-4.88973E+00-5.86420E-13 1.04361E-12
 -1      1743 3.76506E-01-1.18012E+01-1.31924E+00-2.38542E+00-9.08162E-14 5.98299E-13
 -1      1744 2.28603E+01 1.98500E+00-2.35753E-02-2.72249E+00-1.76938E-13 2.27429E-13
 -1      1745 1.98235E+01 3.71439E+00-3.55612E-02-2.15214E+00-1.08373E-13-3.81375E-13
 -1      1746 2.00587E+01 3.56216E+00-4.02596E-02-2.44513E+00-1.56359E-13-3.36044E-13
 -1      1747 2.03642E+01 3.18182E+00-4.57182E-02-2.58505E+00-1.80339E-13-2.70228E-13
 -1      1748 2.05842E+01 2.81006E+00-1.42528E-01-2.85346E+00-2.21895E-13-1.98487E-13
 -1      1749 2.04241E+01 2.69342E+00-4.44231E-03-2.22608E+00-1.82144E-13-2.69201E-13
 -1      1750 1.93542E+01 4.18948E+00-2.02063E-02-1.27083E+00 6.75024E-15-4.20410E-13
 -1      1751 1.94275E+01 4.14916E+00-1.75086E-02-1.49509E+00-1.40877E-14-4.27752E-13
 -1      1752 1.92580E+01 4.29460E+00-1.67989E-02-8.59800E-01 5.08768E-14-3.94847E-13
 -1      1753 1.93007E+01 4.27087E+00-1.43387E-02-1.07054E+00 3.68171E-14-4.15635E-13
 -1      1754 1.95265E+01 3.78279E+00-9.21493E-03-1.12031E+00 1.83266E-14-3.96875E-13
 -1      1755 1.92064E+01 4.35500E+00-1.48070E-02-4.66805E-01 1.16381E-13-3.51644E-13
 -1      1756 1.92284E+01 4.34221E+00-1.33142E-02-6.67114E-01 8.73952E-14-3.72577E-13
 -1      1757 1.94294E+01 3.90308E+00-9.19950E-03-7.33301E-01 7.64671E-14-3.65027E-13
 -1      1758 1.91870E+01 4.38063E+00-1.36706E-02-8.36264E-02 1.65511E-13-3.25493E-13
 -1      1759 1.91934E+01 4.37671E+00-1.32185E-02-2.79077E-01 1.40122E-13-3.52269E-13
 -1      1760 1.93790E+01 3.96764E+00-9.15848E-03-3.58298E-01 1.39593E-13-3.39810E-13
 -1      1761 1.91951E+01 4.37535E+00-1.31713E-02 2.98127E-01 1.91459E-13-2.99155E-13
 -1      1762 1.91875E+01 4.37981E+00-1.37534E-02 1.02520E-01 1.79550E-13-3.12531E-13
 -1      1763 1.93642E+01 3.98707E+00-9.14665E-03 1.05654E-02 1.80200E-13-3.12044E-13
 -1      1764 1.92324E+01 4.33818E+00-1.33293E-02 6.86860E-01 2.24528E-13-2.45588E-13
 -1      1765 1.92092E+01 4.35186E+00-1.49169E-02 4.86057E-01 2.09084E-13-2.79481E-13
 -1      1766 1.93817E+01 3.96437E+00-9.18857E-03 3.79609E-01 2.07756E-13-2.81126E-13
 -1      1767 1.93061E+01 4.26479E+00-1.44105E-02 1.08452E+00 2.53712E-13-1.62391E-13
 -1      1768 1.92626E+01 4.28925E+00-1.69720E-02 8.76547E-01 2.36029E-13-2.17279E-13
 -1      1769 1.94346E+01 3.89690E+00-9.19338E-03 7.51769E-01 2.42445E-13-2.19311E-13
 -1      1770 1.94378E+01 4.13762E+00-1.74037E-02 1.51451E+00 3.02618E-13-4.89088E-14
 -1      1771 1.93613E+01 4.18019E+00-2.05012E-02 1.28498E+00 2.72038E-13-1.07379E-13
 -1      1772 1.95343E+01 3.77302E+00-9.23958E-03 1.13552E+00 2.75000E-13-1.18464E-13
 -1      1773 1.96673E+01 3.92109E+00-2.51939E-02 1.97956E+00 3.30097E-13 7.42392E-14
 -1      1774 1.95343E+01 3.99785E+00-2.69029E-02 1.72223E+00 3.18353E-13-6.31439E-15
 -1      1775 1.97079E+01 3.56597E+00-8.69588E-03 1.53521E+00 3.25273E-13-1.09357E-14
 -1      1776 2.00762E+01 3.52278E+00-4.51854E-02 2.47198E+00 3.18556E-13 2.67165E-13
 -1      1777 1.98360E+01 3.68323E+00-3.97236E-02 2.18288E+00 3.23095E-13 1.50342E-13
 -1      1778 2.00046E+01 3.22285E+00-5.27123E-03 1.93451E+00 3.37911E-13 1.21585E-13
 -1      1779 2.09218E+01 2.68182E+00-5.76489E-02 2.85769E+00 2.57898E-13 5.87336E-13
 -1      1780 2.04143E+01 3.09694E+00-5.04291E-02 2.61590E+00 2.85765E-13 3.98924E-13
 -1      1781 2.05180E+01 2.60992E+00 3.18779E-03 2.24448E+00 3.07101E-13 3.18367E-13
 -1      1782 2.17323E+01 1.21298E+00-1.22094E-01 2.32978E+00 1.74250E-13 9.29160E-13
 -1      1783 2.12757E+01 2.26305E+00 1.17517E-04 2.74036E+00 2.20221E-13 7.09585E-13
 -1      1784 2.09384E+01 1.68502E+00-2.29593E-02 2.14011E+00 2.51087E-13 5.74350E-13
 -1      1785 2.09537E+01 7.78677E-01-6.24485E-02 1.52408E+00 1.71647E-13 8.69234E-13
 -1      1786 2.17981E+01 2.45829E+00 9.08544E-02-3.04813E+00-2.24728E-13-4.62685E-14
 -1      1787 2.01029E+01 2.97941E-01-8.91595E-03 6.56940E-01 1.54508E-13 7.50813E-13
 -1      1788 2.06549E+01 4.40409E-01-1.24677E-02 1.03398E+00 1.58526E-13 8.01781E-13
 -1      1789 2.07460E+01 8.45123E-01 2.24746E-03 1.41504E+00 1.97092E-13 6.33604E-13
 -1      1790 2.15083E+01 1.74277E+00 7.94486E-02-2.33706E+00-2.17309E-13-9.35571E-14
 -1      1791 2.05226E+01 5.00443E-01 3.25304E-02-9.21550E-01-1.60809E-13-1.06893E-13
 -1      1792 2.00905E+01 3.51834E-01 7.57906E-03-6.29779E-01-1.23493E-13-1.44894E-13
 -1      1793 1.98959E+01 2.57356E-01 2.74157E-02-3.91415E-01-1.21740E-13-1.31587E-13
 -1      1794 1.97049E+01 1.78105E-01 1.04047E-02-2.53560E-01-1.04380E-13-1.61227E-13
 -1      1795 2.02003E+01 4.83792E-01-5.72467E-03-7.23016E-01-1.45023E-13-1.65696E-13
 -1      1796 1.95829E+01 1.32709E-01 1.66798E-02-1.20001E-01-8.89870E-14-1.48375E-13
 -1      1797 1.95047E+01 9.29823E-02 6.97505E-03-4.92641E-02-6.51935E-14-1.76479E-13
 -1      1798 1.98740E+01 2.44072E-01-5.70182E-03-2.95776E-01-1.12218E-13-1.54574E-13
 -1      1799 1.94398E+01 6.82687E-02 8.69163E-03 2.41496E-02-5.96934E-14-1.84827E-13
 -1      1800 1.94251E+01 4.65450E-02 4.10684E-03 6.02311E-02-6.31520E-14-1.90364E-13
 -1      1801 1.96913E+01 1.25059E-01-4.60773E-03-5.91117E-02-7.75753E-14-1.65096E-13
 -1      1802 1.93989E+01 3.21857E-02 4.23293E-03 9.87980E-02-7.25661E-14-1.74124E-13
 -1      1803 1.94184E+01 1.97238E-02 2.42191E-03 1.15445E-01-6.02784E-14-2.01954E-13
 -1      1804 1.96045E+01 6.06561E-02-3.44709E-03 7.01878E-02-6.74990E-14-1.61588E-13
 -1      1805 1.94165E+01 1.10719E-02 1.84878E-03 1.33195E-01-4.73923E-14-1.94625E-13
 -1      1806 1.94532E+01 3.87582E-03 1.43593E-03 1.38473E-01-3.81224E-14-1.86675E-13
 -1      1807 1.95800E+01 2.37115E-02-2.33042E-03 1.36243E-01-4.34931E-14-1.38721E-13
 -1      1808 1.94655E+01-1.32555E-03 5.48344E-04 1.43672E-01-7.03204E-14-1.59516E-13
 -1      1809 1.95092E+01-5.31579E-03 8.23189E-04 1.42298E-01-5.33547E-14-1.79706E-13
 -1      1810 1.95930E+01 2.14209E-03-1.43259E-03 1.64162E-01-4.92893E-14-1.26075E-13
 -1      1811 1.95289E+01-8.30370E-03-1.71075E-04 1.40085E-01-6.23623E-14-1.90426E-13
 -1      1812 1.95737E+01-1.02605E-02 4.30199E-04 1.35008E-01-5.65492E-14-1.75143E-13
 -1      1813 1.96271E+01-1.01324E-02-7.89169E-04 1.69123E-01-6.78096E-14-1.12614E-13
 -1      1814 1.95965E+01-1.17833E-02-5.54054E-04 1.28704E-01-8.58140E-14-1.65054E-13
 -1      1815 1.96390E+01-1.24261E-02 1.83523E-04 1.21835E-01-9.46053E-14-2.12174E-13
 -1      1816 1.96711E+01-1.65049E-02-3.60375E-04 1.60752E-01-9.13241E-14-1.24821E-13
 -1      1817 1.96621E+01-1.29667E-02-7.29605E-04 1.13635E-01-1.00968E-13-2.42056E-13
 -1      1818 1.97005E+01-1.27569E-02 4.16970E-05 1.06232E-01-6.65322E-14-2.77805E-13
 -1      1819 1.97183E+01-1.90356E-02-9.29289E-05 1.45345E-01-1.23358E-13-1.42711E-13
 -1      1820 1.97225E+01-1.26360E-02-7.73644E-04 9.75990E-02-3.77908E-14-2.90171E-13
 -1      1821 1.97562E+01-1.18720E-02-2.16747E-05 9.04965E-02-5.29579E-15-2.84107E-13
 -1      1822 1.97645E+01-1.90415E-02 5.78476E-05 1.27090E-01-8.61348E-14-1.51103E-13
 -1      1823 1.97764E+01-1.13012E-02-7.34185E-04 8.24124E-02 3.08390E-14-3.25197E-13
 -1      1824 1.98055E+01-1.01699E-02-2.36223E-05 7.61684E-02 2.13696E-14-2.96324E-13
 -1      1825 1.98075E+01-1.73779E-02 1.24958E-04 1.08796E-01-7.22187E-15-1.40841E-13
 -1      1826 1.98238E+01-9.28218E-03-6.42399E-04 6.93078E-02 4.98616E-15-3.36623E-13
 -1      1827 1.98489E+01-7.88901E-03 2.57892E-05 6.43105E-02-8.63017E-15-3.16204E-13
 -1      1828 1.98466E+01-1.45864E-02 1.31535E-04 9.23715E-02-4.99249E-15-1.80012E-13
 -1      1829 1.98656E+01-6.75780E-03-5.18289E-04 5.91634E-02-4.72681E-14-3.49702E-13
 -1      1830 1.98877E+01-5.14586E-03 1.22117E-04 5.57104E-02-4.64790E-14-3.60428E-13
 -1      1831 1.98820E+01-1.09806E-02 9.31275E-05 7.91613E-02-4.43882E-14-2.76314E-13
 -1      1832 1.99035E+01-3.79809E-03-3.74096E-04 5.26765E-02-6.61237E-14-3.61452E-13
 -1      1833 1.99240E+01-1.96071E-03 2.65688E-04 5.10360E-02-5.36355E-14-3.67999E-13
 -1      1834 1.99148E+01-6.70029E-03 1.95975E-05 7.01916E-02-7.18226E-14-3.05617E-13
 -1      1835 1.99397E+01-3.85484E-04-2.16606E-04 5.04988E-02-6.34518E-14-3.92473E-13
 -1      1836 1.99601E+01 1.72545E-03 4.61021E-04 5.09595E-02-7.07818E-14-4.39671E-13
 -1      1837 1.99465E+01-1.74688E-03-8.34486E-05 6.63615E-02-8.20577E-14-3.16137E-13
 -1      1838 1.99769E+01 3.57066E-03-4.88247E-05 5.33463E-02-2.83243E-14-4.47838E-13
 -1      1839 1.99992E+01 6.03938E-03 7.16421E-04 5.62592E-02-6.52853E-14-4.35143E-13
 -1      1840 1.99792E+01 3.99282E-03-2.13544E-04 6.85944E-02-5.03758E-14-3.09191E-13
 -1      1841 2.00184E+01 8.22429E-03 1.28684E-04 6.20911E-02-1.37344E-13-4.37030E-13
 -1      1842 2.00449E+01 1.11677E-02 1.04363E-03 6.79060E-02-7.24877E-14-5.32235E-13
 -1      1843 2.00154E+01 1.07306E-02-3.70374E-04 7.79606E-02-1.11290E-13-3.43322E-13
 -1      1844 2.00682E+01 1.37857E-02 3.16600E-04 7.78404E-02 3.77771E-14-5.36527E-13
 -1      1845 2.01015E+01 1.73505E-02 1.45730E-03 8.71379E-02 1.22108E-13-5.68707E-13
 -1      1846 2.00581E+01 1.87657E-02-5.54834E-04 9.57811E-02-4.53678E-14-3.74689E-13
 -1      1847 2.01308E+01 2.05148E-02 5.15633E-04 1.02003E-01 1.85356E-13-5.21116E-13
 -1      1848 2.01741E+01 2.48735E-02 1.97397E-03 1.15522E-01 1.58889E-13-4.34445E-13
 -1      1849 2.01109E+01 2.84750E-02-7.68064E-04 1.23712E-01 2.08122E-13-2.67693E-13
 -1      1850 2.02116E+01 2.87102E-02 7.25105E-04 1.36344E-01 1.31184E-13-3.75290E-13
 -1      1851 2.02689E+01 3.40511E-02 2.60980E-03 1.54998E-01 1.33146E-13-2.82524E-13
 -1      1852 2.01781E+01 4.02978E-02-1.01036E-03 1.63810E-01 2.12401E-13-1.77139E-13
 -1      1853 2.03172E+01 3.86852E-02 9.41154E-04 1.83003E-01 9.45313E-14-2.45708E-13
 -1      1854 2.03931E+01 4.51888E-02 3.37581E-03 2.07882E-01 9.27278E-14-1.25534E-13
 -1      1855 2.02646E+01 5.47035E-02-1.27997E-03 2.18560E-01 1.55479E-13-1.76636E-13
 -1      1856 2.04551E+01 5.07126E-02 1.15432E-03 2.44467E-01 2.47826E-14-8.34788E-14
 -1      1857 2.05549E+01 5.84989E-02 4.26850E-03 2.76790E-01 4.01758E-14-9.40789E-14
 -1      1858 2.03758E+01 7.21181E-02-1.57188E-03 2.90844E-01 1.03881E-13-1.05341E-13
 -1      1859 2.06338E+01 6.49063E-02 1.34650E-03 3.23413E-01 6.44710E-14-1.43750E-13
 -1      1860 2.07637E+01 7.39236E-02 5.25225E-03 3.64396E-01 1.85134E-14-1.81379E-13
 -1      1861 2.05182E+01 9.27638E-02-1.87707E-03 3.83780E-01 7.41907E-14-6.94961E-14
 -1      1862 2.08629E+01 8.09793E-02 1.48766E-03 4.22319E-01-8.12371E-15-2.24819E-13
 -1      1863 2.10295E+01 9.07848E-02 6.22867E-03 4.72857E-01-3.45106E-14-2.63199E-13
 -1      1864 2.06983E+01 1.16330E-01-2.18353E-03 5.00313E-01-2.47209E-15-1.09959E-13
 -1      1865 2.11526E+01 9.77744E-02 1.53447E-03 5.42616E-01-8.24523E-14-2.85613E-13
 -1      1866 2.13624E+01 1.07127E-01 6.98742E-03 6.02640E-01-3.29389E-14-2.43474E-13
 -1      1867 2.09234E+01 1.41335E-01-2.48117E-03 6.42350E-01-3.57865E-14-1.14761E-13
 -1      1868 2.15126E+01 1.12411E-01 1.43618E-03 6.83022E-01 5.46277E-14-2.32064E-13
 -1      1869 2.17703E+01 1.18571E-01 7.13757E-03 7.50268E-01 1.03032E-13-2.20589E-13
 -1      1870 2.12003E+01 1.63956E-01-2.77429E-03 8.09088E-01 9.60733E-15-1.81968E-13
 -1      1871 2.19511E+01 1.18850E-01 1.15940E-03 8.36505E-01-1.23855E-14-3.19312E-13
 -1      1872 2.22572E+01 1.16505E-01 6.03453E-03 9.04363E-01-1.05803E-13-3.16346E-13
 -1      1873 2.15355E+01 1.76061E-01-3.10456E-03 9.93990E-01-3.04947E-14-2.39187E-13
 -1      1874 2.24716E+01 1.05801E-01 7.48231E-04 9.85153E-01-8.27699E-14-2.97889E-13
 -1      1875 2.28183E+01 8.57753E-02 2.75550E-03 1.03933E+00-9.19586E-14-2.81311E-13
 -1      1876 2.19343E+01 1.62289E-01-3.57951E-03 1.17974E+00-4.21362E-14-3.27220E-13
 -1      1877 2.30698E+01 5.44611E-02 4.16591E-04 1.09250E+00-1.36168E-13-2.34804E-13
 -1      1878 2.34345E+01 3.13721E-03-3.74287E-03 1.10677E+00-7.97156E-14-2.03905E-13
 -1      1879 2.24009E+01 9.67893E-02-4.37576E-03 1.33058E+00-9.87689E-14-2.61455E-13
 -1      1880 2.37270E+01-6.15478E-02 6.03216E-04 1.09437E+00-6.59767E-14-1.11811E-13
 -1      1881 2.40654E+01-1.59338E-01-1.40669E-02 1.02773E+00 2.35072E-14-1.03201E-13
 -1      1882 2.29390E+01-5.74457E-02-5.61977E-03 1.38270E+00 3.62872E-14-4.47871E-14
 -1      1883 2.44002E+01-2.67809E-01 1.66089E-03 8.93920E-01 1.01844E-13-8.92940E-14
 -1      1884 2.46413E+01-4.16633E-01-2.70847E-02 6.95435E-01 2.09371E-13-9.75257E-14
 -1      1885 2.35491E+01-3.38529E-01-6.98781E-03 1.23662E+00 9.63079E-14 9.84430E-14
 -1      1886 2.50048E+01-5.60422E-01 2.83777E-03 3.77149E-01 1.94945E-13-1.54998E-13
 -1      1887 2.50565E+01-7.26475E-01-3.79204E-02 1.08021E-02 9.95384E-14-5.04334E-14
 -1      1888 2.42182E+01-7.49590E-01-6.95188E-03 7.64362E-01 1.62780E-13 1.97771E-14
 -1      1889 2.53902E+01-8.47960E-01 3.21969E-04-5.18869E-01-1.02487E-14 3.44651E-14
 -1      1890 2.51693E+01-9.25187E-01-3.70311E-02-1.01752E+00-4.11841E-14 2.19097E-13
 -1      1891 2.48847E+01-1.18107E+00-2.52241E-03-1.39199E-01 9.73076E-14 6.99334E-14
 -1      1892 2.53441E+01-8.96835E-01-1.07178E-02-1.66135E+00-5.34676E-14 8.90763E-14
 -1      1893 2.48371E+01-7.21357E-01-1.62109E-02-2.11535E+00-9.05838E-14-7.26884E-14
 -1      1894 2.53860E+01-1.33935E+00 6.29513E-03-1.42225E+00-2.61518E-14 2.44422E-13
 -1      1895 2.46862E+01-4.09353E-01-3.56999E-02-2.55459E+00 3.87537E-15-1.36887E-13
 -1      1896 2.40222E+01 7.09197E-02 9.10040E-03-2.65131E+00 8.35269E-15-7.19043E-14
 -1      1897 2.54518E+01-7.89901E-01 1.10996E-02-2.67308E+00-7.72832E-14 9.96479E-14
 -1      1898 2.35802E+01 5.99886E-01-5.03840E-02-2.46905E+00-8.06438E-14-1.67092E-13
 -1      1899 2.30169E+01 1.12244E+00 1.14261E-02-1.98606E+00-1.79037E-13-1.25528E-13
 -1      1900 2.49200E+01 5.25420E-01-1.73554E-02-3.04710E+00-8.87936E-14-5.28197E-14
 -1      1901 2.26633E+01 1.46890E+00-3.07156E-02-1.09056E+00-2.35825E-13-9.88636E-14
 -1      1902 2.24678E+01 1.56863E+00-2.02582E-02-2.35870E-01-2.22766E-13-1.76185E-13
 -1      1903 2.41501E+01 1.88854E+00-5.93766E-02-1.87443E+00-1.72709E-13-2.84713E-13
 -1      1904 2.25407E+01 1.38954E+00 5.98952E-03 7.99276E-01-1.68386E-13-1.93343E-13
 -1      1905 2.27626E+01 9.67847E-01-4.95077E-02 1.46044E+00-1.39160E-13-2.70076E-13
 -1      1906 2.38662E+01 2.13933E+00-7.15204E-02 3.29663E-01-2.13635E-13-3.16929E-13
 -1      1907 2.30796E+01 4.49326E-01 1.79827E-02 1.91948E+00-2.00794E-13-3.67468E-13
 -1      1908 2.35125E+01-9.75174E-02-4.40718E-02 2.01612E+00-1.14538E-13-4.08059E-13
 -1      1909 2.42346E+01 1.05942E+00-3.25184E-02 1.99898E+00-1.77029E-13-1.57430E-13
 -1      1910 2.36429E+01-5.10835E-01-4.20472E-03 1.75208E+00 7.26186E-14-3.40084E-13
 -1      1911 2.39984E+01-8.00709E-01-2.13103E-02 1.38527E+00 1.65435E-13-1.61079E-13
 -1      1912 2.46297E+01-4.03002E-01 3.39448E-03 2.13406E+00-4.89712E-15-3.00111E-14
 -1      1913 2.37904E+01-9.15614E-01-2.89875E-02 7.67434E-01 1.93396E-13-7.07351E-14
 -1      1914 2.38924E+01-9.04211E-01-2.71782E-03 2.58547E-01 2.90060E-13 8.86144E-14
 -1      1915 2.44989E+01-1.23939E+00 1.00146E-02 1.09166E+00 2.71600E-13 7.76358E-14
 -1      1916 2.34689E+01-8.07991E-01-3.57088E-02-3.21878E-01 3.07865E-13 6.06936E-16
 -1      1917 2.32970E+01-6.39319E-01 5.62040E-03-7.29330E-01 4.19701E-13 1.47261E-14
 -1      1918 2.38524E+01-1.27030E+00 4.36897E-04-2.35808E-01 2.16144E-13 2.69045E-13
 -1      1919 2.28134E+01-4.67159E-01-2.77723E-02-1.08728E+00 1.99505E-13-8.22476E-14
 -1      1920 2.24522E+01-2.64839E-01 9.16786E-03-1.29410E+00 4.89053E-14-8.29475E-14
 -1      1921 2.29674E+01-8.38034E-01-7.21000E-03-1.24178E+00 2.66591E-13 3.03290E-14
 -1      1922 2.19961E+01-9.12478E-02-1.55860E-02-1.40072E+00-5.90695E-15-1.31703E-13
 -1      1923 2.15664E+01 9.54468E-02 1.12955E-02-1.39790E+00 8.17091E-14-6.08975E-14
 -1      1924 2.20660E+01-2.80859E-01-8.47277E-03-1.72222E+00-3.60753E-14 6.06945E-14
 -1      1925 2.12086E+01 2.27514E-01-6.63960E-03-1.28207E+00 1.58215E-13-1.41318E-13
 -1      1926 2.08240E+01 3.85115E-01 1.65158E-02-1.10090E+00 3.49031E-14-1.37595E-13
 -1      1927 2.06754E+01 5.84683E-01-3.32764E-03-1.30503E+00-4.79391E-15-3.26504E-13
 -1      1928 2.12916E+01 2.36080E-01-3.90398E-03-1.69399E+00 3.96933E-14-1.40878E-13
 -1      1929 1.96202E+01 1.42028E-01 7.88194E-03 2.59323E-01 1.27719E-13 6.56751E-13
 -1      1930 1.98923E+01 2.04092E-01 1.64333E-02 4.32321E-01 1.32087E-13 7.09682E-13
 -1      1931 2.01037E+01 3.50546E-01-1.53213E-03 6.54877E-01 1.64813E-13 5.46825E-13
 -1      1932 1.93779E+01 7.18902E-02 6.94754E-03 5.63770E-02 8.86183E-14 5.87564E-13
 -1      1933 1.94929E+01 1.01781E-01 1.41954E-02 1.44882E-01 9.77100E-14 6.18700E-13
 -1      1934 1.97110E+01 1.65166E-01-1.94260E-03 2.56142E-01 1.21579E-13 4.90323E-13
 -1      1935 1.92874E+01 3.61169E-02 4.43025E-03-4.90345E-02 4.48396E-14 5.50750E-13
 -1      1936 1.93175E+01 5.19328E-02 8.33604E-03-1.84676E-03 6.56938E-14 5.66188E-13
 -1      1937 1.95107E+01 8.06416E-02-2.82143E-03 4.42044E-02 9.17868E-14 4.29467E-13
 -1      1938 1.92856E+01 1.61762E-02 2.86130E-03-1.01471E-01-1.34461E-14 4.92209E-13
 -1      1939 1.92704E+01 2.50368E-02 4.35100E-03-7.68723E-02 4.62293E-15 5.23804E-13
 -1      1940 1.94316E+01 3.74340E-02-2.83769E-03-6.76331E-02 2.94690E-14 3.53814E-13
 -1      1941 1.93326E+01 4.55228E-03 1.98577E-03-1.23517E-01 3.94336E-14 4.67730E-13
 -1      1942 1.92944E+01 9.58094E-03 2.14578E-03-1.12107E-01 6.91347E-15 4.71067E-13
 -1      1943 1.94250E+01 1.36064E-02-2.31011E-03-1.23119E-01 1.70466E-14 3.04758E-13
 -1      1944 1.94039E+01-2.22329E-03 1.44361E-03-1.27702E-01 6.15665E-14 4.18858E-13
 -1      1945 1.93555E+01 5.16219E-04 9.48246E-04-1.24215E-01 6.46361E-14 4.48096E-13
 -1      1946 1.94594E+01 3.84557E-05-1.69181E-03-1.45621E-01 6.35249E-14 2.82280E-13
 -1      1947 1.94842E+01-5.96731E-03 1.06446E-03-1.21581E-01 6.78193E-14 3.57134E-13
 -1      1948 1.94334E+01-4.65752E-03 2.77692E-04-1.22800E-01 7.11542E-14 4.00644E-13
 -1      1949 1.95148E+01-7.53749E-03-1.17068E-03-1.48621E-01 1.05976E-13 2.76978E-13
 -1      1950 1.95644E+01-7.74251E-03 7.83662E-04-1.09952E-01-1.71394E-14 3.79106E-13
 -1      1951 1.95156E+01-7.34058E-03-1.01397E-04-1.13803E-01 3.24494E-14 3.72127E-13
 -1      1952 1.95786E+01-1.13861E-02-7.80938E-04-1.40431E-01 3.00796E-14 2.57894E-13
 -1      1953 1.96393E+01-8.22139E-03 5.74830E-04-9.59524E-02 7.91052E-14 4.17868E-13
 -1      1954 1.95949E+01-8.39173E-03-3.03720E-04-1.01061E-01 2.42525E-14 3.89344E-13
 -1      1955 1.96432E+01-1.28379E-02-5.04188E-04-1.26402E-01 3.10192E-14 2.53048E-13
 -1      1956 1.97065E+01-7.84433E-03 4.23708E-04-8.16499E-02 8.53612E-14 3.80625E-13
 -1      1957 1.96674E+01-8.36674E-03-3.91949E-04-8.70918E-02 9.60287E-14 4.10427E-13
 -1      1958 1.97041E+01-1.27327E-02-3.14828E-04-1.10054E-01 8.49855E-14 2.39023E-13
 -1      1959 1.97652E+01-6.89852E-03 3.20833E-04-6.84146E-02 1.04771E-13 2.48471E-13
 -1      1960 1.97316E+01-7.62989E-03-4.04371E-04-7.35645E-02 7.22129E-14 3.18255E-13
 -1      1961 1.97594E+01-1.16141E-02-1.91809E-04-9.37226E-02 1.27255E-13 2.28182E-13
 -1      1962 1.98160E+01-5.56306E-03 2.59677E-04-5.71673E-02 3.09824E-14 2.59522E-13
 -1      1963 1.97873E+01-6.41423E-03-3.65630E-04-6.15917E-02 4.70864E-14 2.37890E-13
 -1      1964 1.98083E+01-9.82870E-03-1.19636E-04-7.89718E-02 6.40330E-14 1.32902E-13
 -1      1965 1.98603E+01-3.93778E-03 2.36033E-04-4.85559E-02 2.36925E-14 2.92279E-13
 -1      1966 1.98356E+01-4.85815E-03-2.91562E-04-5.19383E-02 4.02696E-14 3.02069E-13
 -1      1967 1.98515E+01-7.58352E-03-8.74145E-05-6.68761E-02 4.32144E-14 1.65972E-13
 -1      1968 1.99000E+01-2.06362E-03 2.47604E-04-4.30862E-02 7.04119E-14 2.58791E-13
 -1      1969 1.98782E+01-3.03002E-03-1.91918E-04-4.51695E-02 4.85669E-14 2.64600E-13
 -1      1970 1.98902E+01-4.98352E-03-8.77986E-05-5.82206E-02 6.63780E-14 1.85248E-13
 -1      1971 1.99378E+01 6.13102E-05 2.93564E-04-4.12159E-02 1.19615E-13 1.60306E-13
 -1      1972 1.99173E+01-9.46590E-04-7.22059E-05-4.17610E-02 1.06978E-13 2.19346E-13
 -1      1973 1.99263E+01-2.05882E-03-1.16193E-04-5.36484E-02 1.41555E-13 2.26095E-13
 -1      1974 1.99767E+01 2.46712E-03 3.74015E-04-4.34209E-02 1.86808E-14 1.17488E-13
 -1      1975 1.99558E+01 1.41141E-03 6.48535E-05-4.21762E-02 7.31582E-14 1.05225E-13
 -1      1976 1.99622E+01 1.21284E-03-1.70101E-04-5.37652E-02 9.99347E-14 9.87556E-14
 -1      1977 2.00201E+01 5.19664E-03 4.89201E-04-5.02334E-02-1.03194E-13 3.44717E-14
 -1      1978 1.99968E+01 4.08380E-03 2.18040E-04-4.69169E-02-5.81321E-14 1.19087E-13
 -1      1979 2.00006E+01 4.88442E-03-2.48524E-04-5.92078E-02-2.03628E-14 1.91372E-14
 -1      1980 2.00720E+01 8.28651E-03 6.38323E-04-6.22483E-02-7.15031E-17 4.57238E-14
 -1      1981 2.00441E+01 7.11326E-03 3.86300E-04-5.65430E-02-8.27925E-14 1.71897E-14
 -1      1982 2.00448E+01 9.01540E-03-3.51360E-04-7.06750E-02-7.85647E-14-7.29780E-14
 -1      1983 2.01368E+01 1.17416E-02 8.17735E-04-8.00905E-02 1.52135E-13-3.75105E-14
 -1      1984 2.01017E+01 1.05223E-02 5.67221E-04-7.16582E-02 5.83351E-14-1.74238E-15
 -1      1985 2.00984E+01 1.36407E-02-4.78727E-04-8.89145E-02 4.94756E-14-1.44584E-13
 -1      1986 2.02192E+01 1.54985E-02 1.01828E-03-1.04327E-01 1.59701E-13 1.94127E-14
 -1      1987 2.01743E+01 1.42810E-02 7.55146E-04-9.28474E-02 1.87628E-13 1.67319E-14
 -1      1988 2.01654E+01 1.87276E-02-6.30129E-04-1.14653E-01 1.66495E-13-4.03893E-14
 -1      1989 2.03243E+01 1.93732E-02 1.22152E-03-1.35303E-01-7.11777E-14 4.95731E-14
 -1      1990 2.02667E+01 1.82612E-02 9.38795E-04-1.20550E-01 5.47738E-14 8.70574E-14
 -1      1991 2.02502E+01 2.41148E-02-8.03368E-04-1.48447E-01 5.99709E-14-6.05767E-15
 -1      1992 2.04571E+01 2.29871E-02 1.39472E-03-1.72871E-01-2.53106E-13 6.12683E-14
 -1      1993 2.03841E+01 2.21701E-02 1.09835E-03-1.54838E-01-1.97072E-13 3.87696E-14
 -1      1994 2.03571E+01 2.94243E-02-9.93095E-04-1.90427E-01-1.79229E-13 4.53451E-14
 -1      1995 2.06219E+01 2.56667E-02 1.48500E-03-2.15968E-01-1.71906E-13 1.59211E-13
 -1      1996 2.05310E+01 2.54598E-02 1.20217E-03-1.95075E-01-2.79592E-13 5.85570E-14
 -1      1997 2.04903E+01 3.39406E-02-1.18877E-03-2.39886E-01-2.75578E-13 7.97069E-14
 -1      1998 2.08213E+01 2.63199E-02 1.41411E-03-2.62010E-01-2.42902E-14 3.62353E-13
 -1      1999 2.07113E+01 2.72097E-02 1.20383E-03-2.39398E-01-6.85754E-14 2.40311E-13
 -1      2000 2.06531E+01 3.64534E-02-1.37167E-03-2.94684E-01-1.27970E-13 1.11495E-13
 -1      2001 2.10551E+01 2.33088E-02 1.07755E-03-3.06075E-01 4.27700E-14 5.63062E-13
 -1      2002 2.09264E+01 2.59932E-02 1.04106E-03-2.84017E-01 2.66176E-14 4.10772E-13
 -1      2003 2.08472E+01 3.50786E-02-1.51040E-03-3.50407E-01 1.87191E-14 2.56266E-13
 -1      2004 2.13178E+01 1.43807E-02 3.55083E-04-3.39919E-01-3.11350E-14 3.90332E-13
 -1      2005 2.11742E+01 1.97696E-02 6.39378E-04-3.22320E-01 6.78237E-14 6.01371E-13
 -1      2006 2.10712E+01 2.71098E-02-1.55396E-03-3.99326E-01 7.69102E-14 4.92170E-13
 -1      2007 2.15967E+01-3.20449E-03-8.55805E-04-3.51031E-01 1.09096E-13 4.96235E-13
 -1      2008 2.14464E+01 5.90401E-03-7.50608E-05-3.43934E-01 3.64928E-14 3.94107E-13
 -1      2009 2.13190E+01 9.03471E-03-1.42204E-03-4.29253E-01 6.32430E-14 5.42757E-13
 -1      2010 2.18688E+01-3.20920E-02-2.57127E-03-3.22255E-01-1.73824E-14 5.44000E-13
 -1      2011 2.17264E+01-1.84793E-02-1.14900E-03-3.34082E-01 8.20432E-14 4.60030E-13
 -1      2012 2.15778E+01-2.30139E-02-9.94346E-04-4.22733E-01 9.88154E-14 6.79496E-13
 -1      2013 2.20987E+01-7.34138E-02-4.61317E-03-2.33020E-01-5.69536E-14 2.70629E-13
 -1      2014 2.19861E+01-5.54700E-02-2.55958E-03-2.74028E-01-7.97201E-14 3.85337E-13
 -1      2015 2.18262E+01-7.19301E-02-1.07050E-04-3.57405E-01 7.61414E-15 4.70094E-13
 -1      2016 2.22383E+01-1.24169E-01-6.49113E-03-6.38698E-02-1.79865E-14 1.39503E-13
 -1      2017 2.21844E+01-1.04256E-01-4.16474E-03-1.43959E-01-9.40459E-14 2.23546E-13
 -1      2018 2.20315E+01-1.36878E-01 1.42347E-03-2.09076E-01 4.22058E-15 2.03983E-13
 -1      2019 2.22308E+01-1.73627E-01-7.39464E-03 1.93720E-01-5.78478E-14 2.27943E-13
 -1      2020 2.22677E+01-1.57742E-01-5.66145E-03 6.98906E-02-3.58906E-14 1.33997E-13
 -1      2021 2.21506E+01-2.08882E-01 3.71062E-03 4.03973E-02-4.56562E-14 5.44397E-14
 -1      2022 2.20216E+01-2.00898E-01-6.50325E-03 5.21835E-01 1.69835E-13 2.06790E-13
 -1      2023 2.21771E+01-1.99096E-01-6.61452E-03 3.62594E-01 7.50736E-14 3.03201E-13
 -1      2024 2.21323E+01-2.66240E-01 6.54282E-03 3.88661E-01 5.51755E-14 7.33668E-14
 -1      2025 2.15797E+01-1.78135E-01-3.58053E-03 8.60168E-01 4.22703E-13 6.12748E-14
 -1      2026 2.18640E+01-2.01848E-01-6.48743E-03 6.94690E-01 2.70715E-13 1.68181E-13
 -1      2027 2.19290E+01-2.74545E-01 9.01768E-03 7.93726E-01 2.75413E-13 4.35442E-14
 -1      2028 2.09261E+01-8.41977E-02 3.09292E-04 1.10292E+00 2.93220E-14 1.59170E-13
 -1      2029 2.13178E+01-1.38727E-01-4.73556E-03 9.82465E-01 2.09976E-13 1.13983E-13
 -1      2030 2.15182E+01-1.97359E-01 9.61071E-03 1.16024E+00 2.89435E-13 4.45390E-13
 -1      2031 2.01596E+01 7.19427E-02 2.75571E-03 1.12780E+00-2.55100E-13 4.82496E-14
 -1      2032 2.05973E+01-2.34690E-03-1.03156E-03 1.11073E+00-1.58849E-13 1.44345E-13
 -1      2033 2.09338E+01-2.23598E-02 6.73039E-03 1.34994E+00-8.56374E-14 4.05341E-13
 -1      2034 1.94557E+01 2.35742E-01 1.67178E-03 8.64085E-01 5.93813E-14 8.53328E-14
 -1      2035 1.98451E+01 1.71769E-01 4.06628E-03 9.82193E-01-1.94565E-13 4.84604E-14
 -1      2036 2.02895E+01 2.09459E-01 3.18573E-04 1.23584E+00-1.53645E-13-4.97779E-14
 -1      2037 1.90104E+01 3.28120E-01-2.11854E-03 3.61990E-01-1.14101E-13 1.19164E-13
 -1      2038 1.92543E+01 3.08433E-01 8.84025E-03 5.89163E-01 1.28370E-16 1.01851E-13
 -1      2039 1.97615E+01 4.04881E-01-6.44840E-03 7.90645E-01-7.06163E-14 1.85355E-14
 -1      2040 1.89439E+01 2.96781E-01-4.78524E-03-2.03048E-01 7.56877E-14 5.63573E-13
 -1      2041 1.89855E+01 3.35242E-01 1.14584E-02 5.03794E-02-4.98594E-14 3.23030E-13
 -1      2042 1.95107E+01 4.64663E-01-9.19103E-03 1.42351E-01-1.56564E-13 2.17153E-13
 -1      2043 1.92254E+01 1.60523E-01-3.38520E-03-6.18575E-01-8.02422E-14 6.29252E-13
 -1      2044 1.90780E+01 2.36751E-01 1.03892E-02-4.33863E-01 9.32050E-14 6.78017E-13
 -1      2045 1.95882E+01 3.57915E-01-4.73181E-03-4.67508E-01 3.51021E-14 6.70332E-13
 -1      2046 1.96886E+01-6.36482E-03 4.39309E-04-7.57081E-01-1.44028E-13 5.99798E-13
 -1      2047 1.94316E+01 6.91264E-02 5.66038E-03-6.94882E-01-1.07506E-13 5.50244E-13
 -1      2048 1.98980E+01 1.39493E-01 1.37651E-03-8.19821E-01-5.89416E-14 6.88826E-13
 -1      2049 2.01308E+01-1.27485E-01 4.29013E-03-6.32730E-01 2.22467E-13 3.34613E-13
 -1      2050 1.98670E+01-8.34649E-02-4.49158E-04-6.83998E-01 2.06337E-14 4.67467E-13
 -1      2051 2.02637E+01-8.09747E-02 4.59468E-03-8.37627E-01 5.90535E-14 4.69906E-13
 -1      2052 2.04109E+01-1.68464E-01 6.29152E-03-3.61190E-01 3.66759E-13 3.70240E-13
 -1      2053 2.02202E+01-1.64198E-01-5.10240E-03-4.74868E-01 3.04565E-13 3.75840E-13
 -1      2054 2.05315E+01-2.15329E-01 4.04822E-03-5.99553E-01 3.35775E-13 3.86619E-13
 -1      2055 2.04873E+01-1.35995E-01 6.78826E-03-8.18918E-02 1.18162E-13 4.25797E-13
 -1      2056 2.04011E+01-1.62304E-01-6.69888E-03-1.97539E-01 2.36033E-13 4.14795E-13
 -1      2057 2.06279E+01-2.34336E-01 1.91225E-03-2.62072E-01 1.78767E-13 6.28492E-13
 -1      2058 2.04003E+01-6.00364E-02 5.86166E-03 1.00430E-01-6.86361E-14 3.74835E-13
 -1      2059 2.04039E+01-1.00260E-01-5.60472E-03 2.85548E-02-2.87834E-15 4.37157E-13
 -1      2060 2.05603E+01-1.60628E-01 1.14600E-04 2.58926E-02 4.48443E-14 3.73087E-13
 -1      2061 2.02338E+01 2.33826E-02 4.37171E-03 1.42155E-01 8.27876E-14 4.43466E-13
 -1      2062 2.02868E+01-1.53787E-02-3.36185E-03 1.33928E-01-4.01415E-14 4.41493E-13
 -1      2063 2.03878E+01-4.60360E-02-1.89622E-03 1.72554E-01-5.82772E-14 5.81287E-13
 -1      2064 2.01067E+01 6.66229E-02 4.31122E-03 9.59290E-02 1.04108E-13 5.72649E-13
 -1      2065 2.01644E+01 4.28023E-02-1.76850E-03 1.29760E-01 1.36985E-13 4.99990E-13
 -1      2066 2.02281E+01 4.04414E-02-3.24585E-03 1.80922E-01 4.62933E-14 6.79584E-13
 -1      2067 2.01202E+01 1.07238E-01 4.71335E-03 1.30184E-01 9.65404E-14 7.67541E-13
 -1      2068 2.03294E+01 9.95030E-01 1.43959E-02 1.02728E+00-3.42686E-14-4.10748E-13
 -1      2069 2.03153E+01 6.66865E-01 4.37782E-03 8.43841E-01 8.87480E-14-2.13721E-13
 -1      2070 2.02865E+01 5.29827E-01 1.41448E-02 6.29235E-01 1.24535E-13-3.09315E-13
 -1      2071 2.02505E+01 3.20677E-01 3.11376E-03 4.77484E-01 1.71900E-13-1.85951E-13
 -1      2072 2.04472E+01 4.00170E-01-7.79403E-03 9.13831E-01-7.69488E-14-2.27076E-13
 -1      2073 2.02023E+01 2.70407E-01 1.08272E-02 3.30206E-01 1.89844E-13-4.65752E-14
 -1      2074 2.01638E+01 1.54619E-01 3.68553E-03 2.25283E-01 6.36693E-14 5.18091E-13
 -1      2075 2.02215E+01 1.27115E-01 7.66457E-04 2.63716E-01 9.28537E-14 4.72854E-13
 -1      2076 2.03507E+01 2.17358E-01-5.83514E-04 5.24155E-01-9.74998E-14-4.97020E-14
 -1      2077 2.02781E+01 1.65733E+00 7.32141E-03 1.41939E+00-5.09989E-13-1.01707E-12
 -1      2078 2.03158E+01 1.22485E+00 6.59392E-03 1.25541E+00-3.03525E-13-6.88913E-13
 -1      2079 2.04705E+01 7.71337E-01-1.04640E-02 1.41203E+00-2.63766E-13-8.42300E-13
 -1      2080 2.01072E+01 2.51044E+00-4.50941E-03 1.68567E+00-2.41899E-13-1.07550E-13
 -1      2081 2.02107E+01 1.99638E+00 7.16213E-03 1.59744E+00-4.22683E-13-4.13187E-13
 -1      2082 2.03485E+01 1.34149E+00-1.06118E-02 1.87119E+00-2.64162E-13-6.34655E-13
 -1      2083 1.98261E+01 3.44010E+00-1.82165E-02 1.66453E+00-1.47422E-13 1.87855E-13
 -1      2084 1.99822E+01 2.93037E+00 5.13634E-03 1.72074E+00-1.65531E-13 1.32407E-13
 -1      2085 2.00509E+01 2.09982E+00-5.78366E-03 2.12037E+00-6.59438E-14 6.95097E-14
 -1      2086 1.95143E+01 4.26211E+00-2.76019E-02 1.25268E+00-2.80470E-14 3.29423E-13
 -1      2087 1.96724E+01 3.86216E+00-1.40761E-03 1.48470E+00-1.79462E-13 4.24656E-13
 -1      2088 1.96219E+01 2.94045E+00 5.23095E-03 1.96906E+00 8.49295E-14 2.54019E-13
 -1      2089 1.92997E+01 4.75560E+00-2.81776E-02 4.81997E-01-2.02398E-14-1.00765E-13
 -1      2090 1.93909E+01 4.56541E+00-1.19856E-02 8.54223E-01-2.96464E-14 2.99014E-14
 -1      2091 1.91978E+01 3.66548E+00 1.89559E-02 1.32359E+00-2.86028E-13 2.02109E-13
 -1      2092 1.92859E+01 4.75601E+00-2.05534E-02-4.53843E-01-2.61034E-13 2.95122E-13
 -1      2093 1.92659E+01 4.83098E+00-2.28175E-02-4.25024E-02-1.18478E-13 1.11440E-13
 -1      2094 1.89566E+01 4.04374E+00 2.73600E-02 2.80184E-01-2.64809E-13-1.54723E-13
 -1      2095 1.94744E+01 4.25990E+00-9.01457E-03-1.26622E+00-9.47194E-14-1.40823E-13
 -1      2096 1.93561E+01 4.57779E+00-2.79360E-02-9.40191E-01-2.62720E-13 2.90858E-13
 -1      2097 1.90113E+01 3.93733E+00 2.49074E-02-8.64955E-01-2.07250E-13 1.78903E-13
 -1      2098 1.97783E+01 3.39347E+00 1.02558E-03-1.76663E+00 1.25208E-13 2.15543E-13
 -1      2099 1.96153E+01 3.89172E+00-2.32983E-02-1.59424E+00 1.08648E-13-5.86926E-14
 -1      2100 1.93277E+01 3.38886E+00 1.30300E-02-1.78067E+00 2.11896E-15 2.92925E-14
 -1      2101 2.00816E+01 2.38879E+00 7.56008E-03-1.86446E+00 1.75110E-13 1.15855E-13
 -1      2102 1.99308E+01 2.95467E+00-1.17217E-02-1.86802E+00 1.90159E-13 1.36738E-13
 -1      2103 1.97752E+01 2.58144E+00 5.57140E-04-2.25270E+00 1.52433E-13 1.31993E-13
 -1      2104 2.03250E+01 1.44725E+00 7.23832E-03-1.62200E+00 8.11061E-14-2.31516E-13
 -1      2105 2.01940E+01 1.98028E+00-2.70762E-03-1.76357E+00 9.21711E-14-1.48669E-13
 -1      2106 2.02003E+01 1.74097E+00-6.87366E-03-2.23923E+00 1.29272E-14-1.53406E-13
 -1      2107 1.19900E+01-6.02528E+00-1.72645E-01 7.07026E+00 9.63785E-13 9.06226E-13
 -1      2108 8.33558E+00-7.22782E+00-2.74409E-01 6.29584E+00 8.69693E-13 1.00489E-12
 -1      2109 6.67152E-01-7.37215E+00-3.03800E-01 9.95907E-01 7.13346E-13 9.32032E-13
 -1      2110 6.08536E-01-7.71466E+00-3.56209E-01-9.00152E-01 5.01793E-13 7.21923E-13
 -1      2111 4.62075E+00-6.56988E+00-1.91018E-01 5.08112E+00 1.00858E-12 1.19799E-12
 -1      2112 2.03118E+00-7.64967E+00-3.76478E-01 3.08098E+00 6.52117E-13 1.15274E-12
 -1      2113 2.14926E+01-4.13055E+00-1.51033E-02 7.20000E+00 7.02660E-13 4.61409E-13
 -1      2114 1.62209E+01-5.88517E+00-2.56342E-01 6.66901E+00 8.37108E-13 6.22058E-13
 -1      2115 3.09393E+01-1.19592E-01 2.07104E-01 5.34259E+00 8.84626E-13 1.05138E-13
 -1      2116 2.61336E+01-2.56957E+00-9.42066E-02 5.23312E+00 7.23976E-13 2.58293E-13
 -1      2117 1.95240E+01 4.01758E+00-2.49879E-02-1.69986E+00-3.40869E-14-4.20265E-13
 -1      2118 1.96481E+01 3.94385E+00-2.46578E-02-1.95621E+00-7.52402E-14-4.08076E-13
 -1      2119 1.99642E+01 3.23740E+00-1.87409E-02-1.92572E+00-1.01377E-13-3.67264E-13
 -1      2120 1.96951E+01 3.58946E+00-6.68005E-03-1.52019E+00-2.39305E-14-3.97633E-13
 -1      2121 4.07652E+01 6.82229E+00 3.72818E-01 1.28810E+00 7.78266E-13 9.57845E-14
 -1      2122 3.76627E+01 5.99677E+00 1.03066E-01 1.88711E+00 8.43492E-13 2.16605E-13
 -1      2123 4.02948E+01 7.61760E+00 2.41699E-01-1.75244E-01 8.33889E-13-2.21795E-13
 -1      2124 4.10000E+01 7.37789E+00 3.04318E-01 9.15245E-01 8.34499E-13 5.30409E-14
 -1      2125 3.60195E+01 8.09587E+00 2.86361E-01 4.98329E-03 8.62088E-13-2.98650E-14
 -1      2126 3.94650E+01 5.82233E+00 3.25904E-01-2.31807E+00 3.60323E-13-3.59546E-13
 -1      2127 4.07699E+01 6.74552E+00 3.08656E-01-8.53206E-01 5.78648E-13-2.78833E-13
 -1      2128 3.36170E+01 2.64193E+00 1.38005E-01-3.55310E+00 1.78239E-13-5.55112E-13
 -1      2129 3.81153E+01 4.46463E+00 4.77395E-01-3.43482E+00 3.16289E-13-4.29878E-13
 -1      2130 3.60364E+01 5.09428E+00 3.16962E-01-4.24485E-01 3.00898E-13-3.04756E-13
 -1      2131 2.55635E+01-1.61035E+00-1.05347E-01-5.44048E+00 2.66898E-13-3.18634E-13
 -1      2132 3.01856E+01-2.49887E-01 1.16184E-02-4.68876E+00 1.71529E-13-5.11868E-13
 -1      2133 1.69462E+01-4.29522E+00-2.99526E-01-6.31577E+00 1.25677E-13-4.38927E-13
 -1      2134 2.18096E+01-2.32894E+00 2.31102E-02-6.95871E+00 2.25819E-13-3.24740E-13
 -1      2135 9.09896E+00-6.76886E+00-3.94411E-01-5.81436E+00 5.08482E-14-5.71262E-14
 -1      2136 1.32136E+01-4.83228E+00-9.59057E-02-6.91540E+00 1.07692E-13-3.22964E-13
 -1      2137 2.74112E+00-8.00852E+00-4.50464E-01-3.90601E+00-1.44107E-13-3.63487E-13
 -1      2138 5.34185E+00-6.76696E+00-2.92580E-01-5.21324E+00 4.09672E-14 5.57887E-14
 -1      2139-1.08499E-01-8.43303E+00-4.81768E-01-7.32863E-01-2.13923E-13-6.57197E-13
 -1      2140 6.68898E-01-7.69278E+00-3.73629E-01-2.28721E+00-1.10190E-13-7.25142E-13
 -1      2141 1.44498E+00-7.87514E+00-3.86433E-01 2.54196E+00-4.33653E-13-9.79328E-13
 -1      2142 2.09933E-01-8.54006E+00-4.79765E-01 1.04856E+00-1.04139E-13-8.02525E-13
 -1      2143 7.76242E+00-6.51665E+00-1.96332E-01 5.46095E+00-4.61742E-13-7.77628E-13
 -1      2144 4.48847E+00-7.84373E+00-4.13766E-01 4.10364E+00-3.20854E-13-8.82072E-13
 -1      2145 1.65295E+01-5.24176E+00-1.00821E-01 6.55687E+00-6.23723E-13-1.85324E-13
 -1      2146 1.13768E+01-6.92229E+00-3.72257E-01 5.53800E+00-5.17919E-13-5.04326E-13
 -1      2147 1.21580E+01-6.35224E+00-3.50049E-02 6.41320E+00-5.30687E-14-3.63154E-13
 -1      2148 2.72945E+01-2.27869E+00 1.10389E-01 5.22045E+00-5.06151E-13-5.22082E-13
 -1      2149 2.22213E+01-4.49198E+00-1.77620E-01 4.95029E+00-6.39877E-13-3.27627E-13
 -1      2150 3.42991E+01 9.18594E-01 1.68500E-01 2.85456E+00-6.58584E-13-2.83107E-14
 -1      2151 2.97852E+01-8.80975E-01-8.09392E-02 3.66212E+00-5.62522E-13-3.71259E-13
 -1      2152 2.96470E+01-3.25636E+00 1.07227E-01 2.17756E+00-3.57936E-13-4.30211E-14
 -1      2153 4.06294E+01 5.17327E+00 4.62367E-01 1.23631E+00-7.76323E-13-7.41629E-14
 -1      2154 3.66015E+01 3.72495E+00 1.08396E-01 1.69517E+00-9.45799E-13-2.59792E-14
 -1      2155 4.29272E+01 7.08550E+00 4.69451E-01-4.25091E-01-5.74762E-13-2.34174E-13
 -1      2156 4.16157E+01 6.52293E+00 3.64188E-01 7.41248E-01-5.68712E-13-1.67921E-13
 -1      2157 4.09435E+01 7.00860E+00 2.98803E-01-1.60826E+00-4.71623E-13-2.57572E-13
 -1      2158 4.28803E+01 7.28220E+00 5.11191E-01-7.76053E-01-5.68767E-13-4.28074E-13
 -1      2159 3.76123E+01 4.18992E+00 2.38878E-01-3.19514E+00-3.51330E-13-4.13003E-14
 -1      2160 3.99752E+01 5.43500E+00 3.21276E-01-2.06974E+00-4.08451E-13-3.12028E-13
 -1      2161 3.14687E+01 7.50188E-01 9.47401E-03-4.89792E+00-3.56465E-13 1.77636E-13
 -1      2162 3.60094E+01 2.44540E+00 3.23907E-01-4.55932E+00-1.93665E-13 1.49991E-13
 -1      2163 2.36184E+01-3.10829E+00-1.85441E-01-6.07323E+00-5.33518E-13 2.65232E-13
 -1      2164 2.86563E+01-9.99066E-01 1.92303E-01-6.29821E+00-4.31211E-13 2.14717E-13
 -1      2165 1.52839E+01-6.13883E+00-2.92681E-01-6.55371E+00-3.39728E-13 4.39981E-13
 -1      2166 1.99527E+01-3.95383E+00 1.29124E-02-7.25336E+00-4.69957E-13 4.53804E-13
 -1      2167 6.95132E+00-7.79663E+00-4.04686E-01-5.55575E+00-1.42941E-13 8.93147E-13
 -1      2168 1.08968E+01-6.23457E+00-1.41466E-01-6.90852E+00-2.54907E-13 6.08145E-13
 -1      2169 1.58073E+00-8.26035E+00-4.27633E-01-2.79302E+00 3.72202E-13 7.41962E-13
 -1      2170 3.63405E+00-7.43136E+00-2.96390E-01-4.42126E+00-3.70814E-14 9.00169E-13
 -1      2171 3.64346E+01 3.52662E+00 1.94903E-01 2.93258E+00 8.51402E-13 2.12275E-13
 -1      2172 3.28943E+01 1.74071E+00 3.22081E-02 3.90800E+00 1.02370E-12 2.48912E-13
 -1      2173 3.18482E+01-6.04169E-01 1.50895E-01 2.17220E+00 5.61391E-13-1.36502E-13
 -1      2174 2.55866E+01-4.80242E+00 1.85733E-02 5.42051E+00 3.73146E-13-1.39888E-13
 -1      2175 2.07361E+01 1.10846E+00-2.09105E-02-1.61565E+00-1.94875E-13-1.32824E-13
 -1      2176 3.50149E+01 4.42126E+00 1.94633E-01 3.89798E-01 8.20677E-13 5.90639E-14
 -1      2177 2.06276E+01 1.33218E+00-1.78591E-02-1.67736E+00-1.98220E-13-1.80512E-13
 -1      2178 7.86239E+00-6.23978E+00-1.07768E-01 6.17524E+00 7.03215E-13 7.98334E-13
 -1      2179 7.89064E+00-4.34678E+00 1.43037E-01 6.08761E+00 3.71758E-13 6.77014E-13
 -1      2180 1.12137E+01-5.64019E+00-9.60866E-02 7.30714E+00 2.69562E-13 4.01401E-13
 -1      2181 3.07999E+00-4.82272E+00-8.56137E-02 2.49796E+00 6.57169E-13 1.05704E-12
 -1      2182 2.04220E+01 1.09901E+00 9.86258E-03-1.55725E+00 1.11206E-13-2.30200E-13
 -1      2183 1.67656E+01-6.30742E+00 1.33859E-02 7.45672E+00 4.35318E-13 4.35443E-13
 -1      2184 2.66740E+00-5.29613E+00-1.64473E-01-2.33387E+00 5.87697E-13 8.12961E-13
 -1      2185 7.37418E+00-6.16367E+00-1.31477E-01-6.12032E+00 1.23235E-13 9.11271E-13
 -1      2186 1.55987E+01-6.57077E+00-6.75146E-02-7.24643E+00 7.06102E-14 3.25406E-13
 -1      2187 2.42334E+01-5.19753E+00 2.87778E-02-5.93867E+00-2.08777E-13 1.38556E-13
 -1      2188 3.09749E+01-1.88287E+00 1.59812E-01-3.46588E+00-1.71307E-13-7.23865E-14
 -1      2189 3.52652E+01 2.49265E+00 2.77302E-01-1.23251E+00-4.57273E-14-5.50060E-13
 -1      2190 3.73795E+01 6.44663E+00 3.10951E-01-2.30449E-01-3.69205E-13-6.73905E-13
 -1      2191 3.83088E+01 8.16670E+00 4.13618E-01-6.17345E-01-4.85723E-13-5.43999E-13
 -1      2192 3.43237E+01 1.46027E+00 1.77444E-01-1.59111E-01-7.20424E-13 1.09357E-13
 -1      2193 2.16942E+01-5.99636E+00 2.00676E-02 5.38539E+00-2.98594E-13-1.23984E-13
 -1      2194 4.80986E+00-5.89448E+00-1.57523E-01 4.47524E+00-3.94129E-14-8.40883E-13
 -1      2195 1.16833E+00-5.75334E+00-2.39021E-01 3.18370E-01-1.86080E-13-7.88258E-13
 -1      2196 3.03224E+00-5.93134E+00-2.09022E-01-3.86859E+00-3.48610E-13-4.76674E-13
 -1      2197 9.43600E+00-6.18204E+00-1.35926E-01-6.68097E+00-1.23623E-13 6.10623E-15
 -1      2198 1.76062E+01-5.64986E+00-4.26387E-02-6.84624E+00-1.12133E-13-3.36606E-13
 -1      2199 3.17026E+01 3.87715E-01 1.01413E-01-2.80660E+00 7.87426E-14-2.76335E-13
 -1      2200 3.19716E+01 4.85580E-01-1.97864E-01-5.44416E-01 2.10248E-14-4.40759E-14
 -1      2201 2.99540E+01-1.77449E+00 1.24229E-01-1.95812E+00 1.09912E-14 1.09912E-14
 -1      2202 3.69666E+01 7.90841E+00 2.93199E-01 2.10659E-01 7.57838E-13-1.26510E-13
 -1      2203 2.55904E+01-3.61836E+00 1.35327E-01-5.06526E+00 7.26086E-14-2.55851E-13
 -1      2204 3.73996E+01 6.34732E+00 3.51848E-01-9.85470E-01-6.77902E-13-2.04281E-13
 -1      2205 2.01483E+01 5.06428E-01 3.72809E-03 6.77980E-01 1.86341E-13 3.81020E-13
 -1      2206 2.04162E+01 6.99971E-01 2.07818E-02 9.69578E-01 2.04434E-13 4.13835E-13
 -1      2207 1.95598E+01 3.51589E+00-1.11133E-02-5.91521E-01 1.03747E-13-3.31229E-13
 -1      2208 1.95953E+01 3.46985E+00-1.05104E-02-7.75995E-01 6.48408E-14-3.50220E-13
 -1      2209 1.96423E+01 3.38133E+00-1.27923E-02-9.40266E-01 4.30293E-14-3.69671E-13
 -1      2210 1.97032E+01 3.30073E+00-1.27718E-02-1.13018E+00 1.10361E-14-3.77491E-13
 -1      2211 1.97868E+01 3.03312E+00 3.07069E-04-7.91972E-01 5.37787E-14-3.34544E-13
 -1      2212 1.95124E+01 3.59848E+00-9.61827E-03 9.94757E-02 1.87314E-13-2.87696E-13
 -1      2213 1.95117E+01 3.59929E+00-9.62588E-03-8.00563E-02 1.63887E-13-3.04612E-13
 -1      2214 1.95386E+01 3.55908E+00-9.72041E-03 4.45628E-01 2.22630E-13-2.61871E-13
 -1      2215 1.95211E+01 3.58164E+00-1.01381E-02 2.64746E-01 1.96323E-13-2.84249E-13
 -1      2216 1.96786E+01 3.22117E+00-9.00319E-04 1.69644E-01 1.82357E-13-2.72923E-13
 -1      2217 1.96005E+01 3.46257E+00-1.06069E-02 7.89699E-01 2.51571E-13-1.97588E-13
 -1      2218 1.95641E+01 3.50957E+00-1.12078E-02 6.08215E-01 2.33820E-13-2.34491E-13
 -1      2219 1.97154E+01 3.15766E+00-5.00754E-04 4.88193E-01 2.17051E-13-2.28281E-13
 -1      2220 1.97112E+01 3.28886E+00-1.29489E-02 1.14314E+00 2.85937E-13-8.17740E-14
 -1      2221 1.96485E+01 3.37217E+00-1.28714E-02 9.53829E-01 2.67805E-13-1.47245E-13
 -1      2222 1.97925E+01 3.02403E+00 2.72249E-04 8.03971E-01 2.52482E-13-1.57252E-13
 -1      2223 1.98906E+01 3.00333E+00-1.81676E-02 1.49021E+00 3.31203E-13 3.36536E-14
 -1      2224 1.97910E+01 3.14460E+00-1.51773E-02 1.29979E+00 2.96517E-13-2.21342E-14
 -1      2225 1.99218E+01 2.79893E+00 1.95986E-03 1.11030E+00 2.74880E-13-3.68473E-14
 -1      2226 2.01692E+01 2.54380E+00-2.83990E-02 1.79457E+00 3.29598E-13 1.44549E-13
 -1      2227 2.00179E+01 2.78315E+00-1.70922E-02 1.62008E+00 3.28142E-13 8.03541E-14
 -1      2228 2.01166E+01 2.44830E+00 5.81747E-03 1.37606E+00 3.04538E-13 6.70687E-14
 -1      2229 2.77046E+01-4.46411E+00-8.28288E-02 4.01171E+00 3.96017E-13-3.14138E-13
 -1      2230 2.39272E+01-5.76825E+00 6.58833E-02 5.63183E+00 1.93040E-13-6.88061E-14
 -1      2231 1.98711E+01 2.68163E-01 4.72722E-03 2.85476E-01 1.30789E-13 3.28672E-13
 -1      2232 2.00319E+01 3.67952E-01 2.01698E-02 4.42604E-01 1.44464E-13 3.60511E-13
 -1      2233 2.02108E+01 6.34553E-01-2.24633E-03 7.04890E-01 1.87425E-13 2.38593E-13
 -1      2234 2.04021E+01 8.55580E-01 1.35223E-02-9.99651E-01-1.42884E-13-1.86034E-13
 -1      2235 2.01896E+01 6.26889E-01-4.68294E-03-6.91833E-01-1.20529E-13-1.82552E-13
 -1      2236 3.28520E+01 4.95039E+00-1.61592E-01-7.61828E-01 8.84431E-13 1.09163E-13
 -1      2237 3.21494E+01 2.47794E+00-7.75002E-02-4.19660E-01 6.54449E-13 9.07607E-14
 -1      2238 2.01244E+01 4.69748E-01 1.62015E-02-4.74971E-01-1.07163E-13-1.58963E-13
 -1      2239 1.99836E+01 3.44348E-01 8.82482E-05-3.03607E-01-8.76855E-14-1.60622E-13
 -1      2240 2.02452E+01 7.49279E-01-6.63654E-04-6.94069E-01-1.16176E-13-1.84892E-13
 -1      2241 1.99200E+01 2.59331E-01 1.08815E-02-1.66376E-01-7.98370E-14-1.40226E-13
 -1      2242 1.98412E+01 1.87824E-01 7.25577E-04-6.92463E-02-6.33885E-14-1.53115E-13
 -1      2243 2.00805E+01 4.15921E-01-3.62657E-03-3.10818E-01-8.35673E-14-1.46668E-13
 -1      2244 1.97968E+01 1.38297E-01 6.40725E-03 1.27145E-02-4.94746E-14-1.36987E-13
 -1      2245 1.97616E+01 9.59254E-02 7.16404E-04 6.59034E-02-4.81986E-14-1.13573E-13
 -1      2246 1.99594E+01 2.26939E-01-3.60822E-03-7.19544E-02-5.36330E-14-1.20021E-13
 -1      2247 1.97356E+01 6.60013E-02 3.58032E-03 1.11477E-01-5.04977E-14-1.10200E-13
 -1      2248 1.97281E+01 4.04505E-02 6.11871E-04 1.37905E-01-4.14711E-14-1.09193E-13
 -1      2249 1.98835E+01 1.14445E-01-2.92389E-03 6.84804E-02-7.27773E-14-1.07499E-13
 -1      2250 1.97163E+01 2.21897E-02 1.85696E-03 1.60005E-01-6.12838E-14-1.31517E-13
 -1      2251 1.97252E+01 6.94191E-03 4.92333E-04 1.69997E-01-7.09910E-14-1.32158E-13
 -1      2252 1.98436E+01 4.62694E-02-2.12183E-03 1.44396E-01-7.74126E-14-1.05880E-13
 -1      2253 1.97232E+01-3.95688E-03 7.96031E-04 1.77252E-01-5.46638E-14-1.48890E-13
 -1      2254 1.97411E+01-1.26111E-02 3.79778E-04 1.77323E-01-4.35077E-14-1.41006E-13
 -1      2255 1.98293E+01 5.19560E-03-1.43710E-03 1.78711E-01-6.39287E-14-1.71116E-13
 -1      2256 1.97451E+01-1.86868E-02 1.47144E-04 1.75558E-01-8.32294E-14-1.39188E-13
 -1      2257 1.97671E+01-2.30158E-02 2.89041E-04 1.69964E-01-1.04272E-13-1.18272E-13
 -1      2258 1.98316E+01-1.85423E-02-9.21453E-04 1.86936E-01-6.41320E-14-1.65776E-13
 -1      2259 1.97746E+01-2.58727E-02-2.34665E-04 1.63143E-01-9.64578E-14-1.39848E-13
 -1      2260 1.97976E+01-2.73344E-02 2.26825E-04 1.54723E-01-1.08354E-13-1.28293E-13
 -1      2261 1.98439E+01-3.08867E-02-5.57795E-04 1.79624E-01-1.07270E-13-1.27312E-13
 -1      2262 1.98068E+01-2.80268E-02-4.40255E-04 1.45551E-01-8.46059E-14-8.95857E-14
 -1      2263 1.98292E+01-2.75801E-02 1.94686E-04 1.36215E-01-2.77154E-14-8.43856E-14
 -1      2264 1.98616E+01-3.56438E-02-3.15162E-04 1.63997E-01-6.40969E-14-6.98393E-14
 -1      2265 1.98390E+01-2.68086E-02-5.29989E-04 1.26548E-01-2.34225E-14-4.45523E-14
 -1      2266 1.98598E+01-2.50792E-02 1.92551E-04 1.17593E-01 2.20724E-14-3.85432E-14
 -1      2267 1.98817E+01-3.53150E-02-1.64737E-04 1.45007E-01-5.10230E-15-7.30197E-16
 -1      2268 1.98697E+01-2.32981E-02-5.45257E-04 1.08709E-01 2.38843E-15-1.12054E-13
 -1      2269 1.98888E+01-2.06748E-02 2.20767E-04 1.01034E-01-4.30762E-14-1.24259E-13
 -1      2270 1.99025E+01-3.15376E-02-8.34935E-05 1.26073E-01-2.40886E-14-2.88319E-14
 -1      2271 1.98985E+01-1.81576E-02-5.14732E-04 9.38456E-02-7.28989E-14-1.42495E-13
 -1      2272 1.99162E+01-1.48521E-02 2.81019E-04 8.81056E-02-6.84031E-14-1.83098E-13
 -1      2273 1.99231E+01-2.53377E-02-5.42372E-05 1.09588E-01-7.07840E-14-7.02661E-14
 -1      2274 1.99258E+01-1.17344E-02-4.58252E-04 8.33065E-02-7.36005E-14-1.98494E-13
 -1      2275 1.99426E+01-7.82121E-03 3.76711E-04 8.00331E-02-9.28049E-14-1.53451E-13
 -1      2276 1.99434E+01-1.72869E-02-6.45237E-05 9.73093E-02-7.78217E-14-4.57283E-14
 -1      2277 1.99525E+01-4.12962E-03-3.89518E-04 7.82177E-02-1.06215E-13-1.44512E-13
 -1      2278 1.99693E+01 4.26606E-04 5.13074E-04 7.79082E-02-1.00536E-13-1.64462E-13
 -1      2279 1.99638E+01-7.60603E-03-1.05516E-04 9.06450E-02-1.08624E-13-1.75098E-14
 -1      2280 1.99798E+01 4.75411E-03-3.18051E-04 7.96643E-02-5.87115E-14-2.07914E-13
 -1      2281 1.99980E+01 1.00802E-02 6.97144E-04 8.28554E-02-5.09115E-14-1.87638E-13
 -1      2282 1.99852E+01 3.76405E-03-1.71010E-04 9.08761E-02-1.16634E-13-2.53682E-14
 -1      2283 2.00098E+01 1.51797E-02-2.50673E-04 8.88372E-02-1.19466E-13-2.03815E-13
 -1      2284 2.00306E+01 2.14801E-02 9.37606E-04 9.61653E-02-1.34355E-13-2.13639E-13
 -1      2285 2.00086E+01 1.71129E-02-2.56431E-04 9.93350E-02-6.93153E-14-8.06673E-14
 -1      2286 2.00444E+01 2.75504E-02-1.92721E-04 1.07153E-01-5.22508E-14-1.78207E-13
 -1      2287 2.00696E+01 3.50966E-02 1.24450E-03 1.19402E-01 7.62904E-14-1.12752E-13
 -1      2288 2.00356E+01 3.29235E-02-3.57784E-04 1.17545E-01-6.17106E-14 1.02668E-14
 -1      2289 2.00863E+01 4.23885E-02-1.49060E-04 1.36347E-01 1.74707E-13-2.07600E-13
 -1      2290 2.01178E+01 5.15065E-02 1.62851E-03 1.54488E-01 2.43463E-13-2.03006E-13
 -1      2291 2.00677E+01 5.18419E-02-4.70585E-04 1.47325E-01 9.01858E-14-4.03773E-14
 -1      2292 2.01384E+01 6.03084E-02-1.24860E-04 1.78541E-01 2.49269E-13-2.19147E-13
 -1      2293 2.01786E+01 7.13590E-02 2.09963E-03 2.03754E-01 2.20535E-13-2.14093E-13
 -1      2294 2.01069E+01 7.46412E-02-5.88774E-04 1.90874E-01 2.22699E-13-1.90201E-13
 -1      2295 2.02040E+01 8.19699E-02-1.25992E-04 2.36282E-01 1.69425E-13-1.71156E-13
 -1      2296 2.02556E+01 9.53080E-02 2.66443E-03 2.69953E-01 1.48088E-13-1.30179E-13
 -1      2297 2.01553E+01 1.02164E-01-7.03660E-04 2.50796E-01 2.04521E-13-1.53220E-13
 -1      2298 2.02868E+01 1.07984E-01-1.58680E-04 3.12509E-01 1.25602E-13-1.62177E-13
 -1      2299 2.03528E+01 1.23874E-01 3.32117E-03 3.56180E-01 1.04692E-13-1.14112E-13
 -1      2300 2.02150E+01 1.35212E-01-8.03327E-04 3.30091E-01 1.24392E-13-1.27212E-13
 -1      2301 2.03907E+01 1.38717E-01-2.27564E-04 4.10422E-01 8.19297E-14-1.56779E-13
 -1      2302 2.04744E+01 1.57163E-01 4.05122E-03 4.65653E-01 8.27580E-14-1.22628E-13
 -1      2303 2.02883E+01 1.74314E-01-8.73427E-04 4.32023E-01 8.05742E-14-1.70877E-13
 -1      2304 2.05201E+01 1.73905E-01-3.30584E-04 5.33155E-01 3.27891E-14-1.51651E-13
 -1      2305 2.06247E+01 1.94324E-01 4.80491E-03 6.01212E-01-1.36386E-14-1.21594E-13
 -1      2306 2.03772E+01 2.19288E-01-9.01442E-04 5.59831E-01-7.81493E-16-1.50772E-13
 -1      2307 2.06792E+01 2.11916E-01-4.47808E-04 6.83088E-01-5.55829E-14-7.01888E-14
 -1      2308 2.08082E+01 2.32533E-01 5.47947E-03 7.64341E-01-7.70022E-14-9.95904E-14
 -1      2309 2.04836E+01 2.68387E-01-8.88331E-04 7.16151E-01-2.74058E-14-2.10990E-13
 -1      2310 2.08727E+01 2.48419E-01-5.19414E-04 8.60565E-01-6.12347E-14-1.68827E-13
 -1      2311 2.10289E+01 2.65220E-01 5.88807E-03 9.53381E-01 4.20172E-15-2.22676E-13
 -1      2312 2.06096E+01 3.16774E-01-8.74367E-04 9.01951E-01-1.03298E-13-8.13330E-14
 -1      2313 2.11063E+01 2.74108E-01-4.06067E-04 1.06159E+00 1.85283E-14-1.53796E-13
 -1      2314 2.12918E+01 2.79176E-01 5.72112E-03 1.16045E+00-4.93260E-14-1.40140E-13
 -1      2315 2.07583E+01 3.53918E-01-9.88842E-04 1.11471E+00-2.92854E-15-1.36116E-13
 -1      2316 2.13881E+01 2.71205E-01 1.74999E-04 1.27399E+00-4.75488E-14-2.41823E-13
 -1      2317 2.16041E+01 2.50416E-01 4.50791E-03 1.36653E+00-1.57322E-14-1.62733E-13
 -1      2318 2.09361E+01 3.59530E-01-1.53172E-03 1.34546E+00-6.41321E-14 7.15222E-14
 -1      2319 2.17320E+01 2.08945E-01 1.73274E-03 1.47125E+00-5.90601E-14-1.73562E-13
 -1      2320 2.19786E+01 1.39726E-01 1.58695E-03 1.53416E+00-3.95406E-14-6.63890E-14
 -1      2321 2.11573E+01 2.98122E-01-3.07429E-03 1.57404E+00 5.47018E-15 8.98732E-14
 -1      2322 2.21633E+01 4.01396E-02 5.02099E-03 1.60355E+00 4.36235E-14-1.08618E-13
 -1      2323 2.24394E+01-1.07926E-01-3.85432E-03 1.59809E+00 1.55046E-13 2.80362E-14
 -1      2324 2.14526E+01 1.14087E-01-6.50369E-03 1.76192E+00 3.94871E-14 1.08552E-13
 -1      2325 2.27235E+01-2.94080E-01 1.07939E-02 1.58642E+00 1.10130E-13 4.58338E-14
 -1      2326 2.30238E+01-5.48654E-01-1.25900E-02 1.45671E+00 6.65440E-14 5.77953E-14
 -1      2327 2.18800E+01-2.65707E-01-1.27633E-02 1.84140E+00 7.95956E-14 1.43616E-14
 -1      2328 2.34642E+01-8.34951E-01 1.85253E-02 1.29242E+00 1.38414E-13 8.03845E-14
 -1      2329 2.37703E+01-1.18754E+00-2.48425E-02 9.74629E-01 1.54357E-13 5.46399E-14
 -1      2330 2.25312E+01-9.03767E-01-2.18261E-02 1.70212E+00 8.57383E-14 6.29244E-14
 -1      2331 2.44079E+01-1.52348E+00 2.38837E-02 5.60945E-01 1.19465E-13 9.91481E-15
 -1      2332 2.46717E+01-1.85578E+00-3.60212E-02 1.98968E-02 1.01864E-13 4.65170E-14
 -1      2333 2.35141E+01-1.77123E+00-3.13848E-02 1.17837E+00 1.14447E-13 2.74923E-14
 -1      2334 2.54310E+01-2.04353E+00 1.37482E-02-6.98318E-01 4.11637E-14 1.31643E-13
 -1      2335 2.55731E+01-2.06451E+00-3.30034E-02-1.37264E+00-6.52048E-14 1.50711E-13
 -1      2336 2.48264E+01-2.56006E+00-4.31031E-02 7.37045E-02 1.22442E-13 8.86470E-14
 -1      2337 2.62179E+01-1.77899E+00-2.55601E-02-2.27764E+00-1.56751E-13 1.43609E-13
 -1      2338 2.61309E+01-1.09191E+00-1.23884E-02-2.79309E+00-1.26933E-13 1.25276E-13
 -1      2339 2.62650E+01-2.56413E+00-6.41774E-02-1.61422E+00-5.50879E-14 8.89289E-14
 -1      2340 2.62361E+01-9.84492E-02-1.06442E-01-3.30554E+00-2.11931E-13-1.24518E-14
 -1      2341 2.59188E+01 1.18584E+00-3.08834E-02-3.18513E+00-2.13878E-13-1.67625E-13
 -1      2342 2.72437E+01-9.27338E-01-1.62539E-02-3.12168E+00-3.00232E-13 1.44149E-13
 -1      2343 2.56724E+01 2.42864E+00-1.21313E-01-2.57540E+00-2.39211E-13-3.13435E-13
 -1      2344 2.53800E+01 3.28864E+00-7.11662E-02-1.63669E+00-3.18842E-13-3.32272E-13
 -1      2345 2.72819E+01 2.25022E+00-6.47634E-02-3.11204E+00-3.74395E-13-1.05922E-13
 -1      2346 2.52883E+01 3.55446E+00-8.27077E-02-1.77670E-01-1.84464E-13-3.93264E-13
 -1      2347 2.52976E+01 3.08699E+00-1.26436E-01 9.37751E-01-1.36446E-13-3.04994E-13
 -1      2348 2.69758E+01 4.42097E+00-1.04040E-01-9.98702E-01-3.36564E-13-3.21101E-13
 -1      2349 2.55197E+01 2.07886E+00-2.98942E-02 1.93800E+00-5.76622E-14-2.54029E-13
 -1      2350 2.57110E+01 7.99441E-01-1.14322E-01 2.37566E+00-4.22232E-14-1.43296E-13
 -1      2351 2.70263E+01 3.29336E+00-9.81011E-02 1.60287E+00 6.24500E-15-2.64615E-13
 -1      2352 2.56806E+01-4.14142E-01-2.05169E-02 2.21090E+00-4.51895E-14-1.33369E-13
 -1      2353 2.57329E+01-1.34946E+00-5.57355E-02 1.86186E+00 1.13652E-13-1.06287E-14
 -1      2354 2.70811E+01 2.15485E-01-6.09899E-02 2.36555E+00-1.20737E-14-1.77497E-14
 -1      2355 2.51889E+01-1.89680E+00-3.08620E-02 1.03035E+00 2.18975E-13 4.95060E-14
 -1      2356 2.49866E+01-2.08617E+00-1.30048E-03 3.51203E-01 2.29699E-13 8.22103E-14
 -1      2357 2.63317E+01-2.14277E+00-2.59755E-02 1.17156E+00 1.27242E-13 1.70385E-14
 -1      2358 2.41824E+01-1.99702E+00-3.36310E-02-4.44466E-01 1.51591E-13 1.81240E-14
 -1      2359 2.38212E+01-1.71618E+00 2.25162E-02-1.04385E+00 3.13853E-13 1.60926E-13
 -1      2360 2.48732E+01-2.64415E+00-2.31814E-02-5.33748E-01 2.14678E-13-1.00625E-13
 -1      2361 2.30695E+01-1.35473E+00-2.73330E-02-1.53611E+00 3.35782E-13 1.75136E-13
 -1      2362 2.26561E+01-9.27913E-01 2.47622E-02-1.88779E+00 2.18669E-13 4.11693E-14
 -1      2363 2.33464E+01-1.98714E+00-2.93553E-02-1.79909E+00 2.95587E-13 2.50642E-13
 -1      2364 2.20847E+01-5.28914E-01-1.64400E-02-2.06249E+00 1.14500E-14 1.10901E-13
 -1      2365 2.16883E+01-1.33783E-01 1.70675E-02-2.14446E+00-8.61222E-14 9.67052E-14
 -1      2366 2.21258E+01-9.38317E-01-2.24147E-02-2.40383E+00 1.63424E-13 1.09985E-13
 -1      2367 1.96234E+01 7.24622E-02 2.06925E-03-6.57963E-02 3.72846E-14 2.26885E-13
 -1      2368 1.96509E+01 1.04193E-01 6.91286E-03-1.96968E-02 7.79753E-14 2.63220E-13
 -1      2369 1.95997E+01 3.06365E-02 1.33631E-03-1.31388E-01 4.12208E-14 1.67010E-13
 -1      2370 1.95967E+01 4.95392E-02 3.68251E-03-1.08918E-01 3.54919E-14 1.86126E-13
 -1      2371 1.97680E+01 8.97103E-02-3.16872E-03-7.10784E-02 7.44002E-14 1.19344E-13
 -1      2372 1.96115E+01 5.63354E-03 8.69661E-04-1.59784E-01 7.00529E-14 1.43134E-13
 -1      2373 1.95916E+01 1.68648E-02 1.81622E-03-1.51566E-01 4.53721E-14 1.52572E-13
 -1      2374 1.97337E+01 3.57671E-02-2.28541E-03-1.43336E-01 5.16844E-14 6.36707E-14
 -1      2375 1.96435E+01-8.91447E-03 5.53566E-04-1.65476E-01 8.15142E-14 1.85741E-13
 -1      2376 1.96153E+01-2.51830E-03 7.19100E-04-1.65778E-01 8.12768E-14 1.74105E-13
 -1      2377 1.97302E+01 3.70919E-03-1.51685E-03-1.75097E-01 4.92436E-14 6.04908E-14
 -1      2378 1.96853E+01-1.66857E-02 3.37684E-04-1.57849E-01 3.57651E-17 2.14886E-13
 -1      2379 1.96541E+01-1.34393E-02 6.81431E-05-1.62986E-01 5.67319E-14 2.28711E-13
 -1      2380 1.97454E+01-1.46961E-02-9.42828E-04-1.81851E-01 4.99687E-14 1.45233E-13
 -1      2381 1.97302E+01-1.99796E-02 1.98243E-04-1.43130E-01 7.10871E-14 1.67482E-13
 -1      2382 1.96993E+01-1.88123E-02-3.04283E-04-1.50672E-01 2.43002E-14 1.83730E-13
 -1      2383 1.97708E+01-2.42471E-02-5.44150E-04-1.73875E-01 4.21980E-14 1.48995E-13
 -1      2384 1.97743E+01-2.02961E-02 1.19933E-04-1.25491E-01 1.01425E-13 1.40102E-13
 -1      2385 1.97454E+01-2.05067E-02-4.96004E-04-1.33814E-01 9.44337E-14 1.62671E-13
 -1      2386 1.98007E+01-2.79570E-02-2.82001E-04-1.58074E-01 1.03968E-13 1.01243E-13
 -1      2387 1.98156E+01-1.86219E-02 9.16927E-05-1.07749E-01 1.27980E-13 1.49992E-13
 -1      2388 1.97895E+01-1.97517E-02-5.69417E-04-1.15759E-01 1.36876E-13 1.76109E-13
 -1      2389 1.98318E+01-2.77866E-02-1.21868E-04-1.39122E-01 9.83387E-14 1.14312E-13
 -1      2390 1.98533E+01-1.55921E-02 1.06032E-04-9.18192E-02 3.05399E-14 1.59275E-13
 -1      2391 1.98300E+01-1.73509E-02-5.66123E-04-9.87692E-02 8.41839E-14 1.52838E-13
 -1      2392 1.98619E+01-2.50182E-02-3.70749E-05-1.20201E-01 1.09020E-13 1.73615E-13
 -1      2393 1.98876E+01-1.15880E-02 1.58640E-04-7.90436E-02 3.30801E-14 1.62807E-13
 -1      2394 1.98668E+01-1.38079E-02-5.14236E-04-8.44015E-02 1.11350E-14 1.53960E-13
 -1      2395 1.98905E+01-2.04664E-02-8.13814E-06-1.03503E-01 3.46436E-14 1.35192E-13
 -1      2396 1.99196E+01-6.80483E-03 2.47875E-04-7.04261E-02 8.97906E-14 1.53131E-13
 -1      2397 1.99005E+01-9.40777E-03-4.32538E-04-7.37805E-02 8.38270E-14 1.79683E-13
 -1      2398 1.99174E+01-1.46099E-02-2.12618E-05-9.05921E-02 3.16911E-14 1.43845E-13
 -1      2399 1.99507E+01-1.30207E-03 3.74010E-04-6.68025E-02 1.75222E-13 1.43950E-13
 -1      2400 1.99322E+01-4.27505E-03-3.33252E-04-6.77934E-02 1.19972E-13 1.87721E-13
 -1      2401 1.99432E+01-7.68196E-03-6.69302E-05-8.26642E-02 7.98912E-14 7.27405E-14
 -1      2402 1.99828E+01 4.95286E-03 5.38338E-04-6.89619E-02 7.39331E-14 1.18348E-13
 -1      2403 1.99637E+01 1.58002E-03-2.23991E-04-6.72331E-02 1.93009E-13 1.88850E-13
 -1      2404 1.99692E+01 2.60049E-04-1.38757E-04-8.07344E-02 1.65585E-13 1.34767E-13
 -1      2405 2.00183E+01 1.20417E-02 7.41963E-04-7.77219E-02-7.36817E-14 4.64764E-14
 -1      2406 1.99970E+01 8.21897E-03-1.09187E-04-7.28928E-02-2.70949E-14 5.02964E-14
 -1      2407 1.99968E+01 9.27333E-03-2.32487E-04-8.57685E-02 6.84062E-14 1.42731E-13
 -1      2408 2.00598E+01 2.00463E-02 9.84143E-04-9.39558E-02-1.61287E-14-3.39357E-14
 -1      2409 2.00347E+01 1.57300E-02 8.77487E-06-8.56161E-02-6.75663E-14-1.81937E-14
 -1      2410 2.00278E+01 1.94669E-02-3.45082E-04-9.87583E-02-4.23272E-14 7.40965E-14
 -1      2411 2.01104E+01 2.89855E-02 1.25992E-03-1.18565E-01 5.63185E-14-4.90141E-14
 -1      2412 2.00796E+01 2.41733E-02 1.28652E-04-1.06296E-01 3.10603E-14-2.27636E-14
 -1      2413 2.00644E+01 3.09281E-02-4.73953E-04-1.20739E-01 3.01667E-14 2.11683E-14
 -1      2414 2.01735E+01 3.87293E-02 1.55680E-03-1.52379E-01 1.57401E-13-1.17328E-14
 -1      2415 2.01348E+01 3.35087E-02 2.49619E-04-1.35811E-01 1.11539E-13-7.13348E-14
 -1      2416 2.01089E+01 4.36269E-02-6.16247E-04-1.52737E-01 1.06228E-13 4.89067E-14
 -1      2417 2.02525E+01 4.88777E-02 1.85028E-03-1.95954E-01-9.36989E-15 8.05264E-14
 -1      2418 2.02039E+01 4.34944E-02 3.70727E-04-1.74876E-01 6.85406E-14-9.28009E-17
 -1      2419 2.01642E+01 5.72839E-02-7.68306E-04-1.95631E-01 7.65120E-14 7.13713E-14
 -1      2420 2.03511E+01 5.85926E-02 2.09788E-03-2.49247E-01-2.31584E-13 8.44845E-14
 -1      2421 2.02904E+01 5.35450E-02 4.90588E-04-2.23779E-01-7.19062E-14 4.58316E-14
 -1      2422 2.02329E+01 7.11873E-02-9.25441E-04-2.49889E-01-5.46534E-14 1.25689E-13
 -1      2423 2.04725E+01 6.63720E-02 2.23213E-03-3.11098E-01-2.60083E-13 8.12645E-14
 -1      2424 2.03980E+01 6.25375E-02 6.07401E-04-2.81965E-01-3.11649E-13 5.43115E-14
 -1      2425 2.03182E+01 8.39403E-02-1.08218E-03-3.15154E-01-2.53651E-13 5.37699E-14
 -1      2426 2.06193E+01 6.97687E-02 2.15341E-03-3.78507E-01-1.20833E-13 6.54005E-14
 -1      2427 2.05299E+01 6.85572E-02 7.19450E-04-3.47415E-01-2.13188E-13 3.77836E-14
 -1      2428 2.04230E+01 9.31311E-02-1.23313E-03-3.89621E-01-2.35156E-13 1.18478E-14
 -1      2429 2.07927E+01 6.50870E-02 1.72555E-03-4.45637E-01 6.82160E-14 4.53064E-14
 -1      2430 2.06887E+01 6.85985E-02 8.26015E-04-4.15782E-01 6.51627E-15 5.39838E-14
 -1      2431 2.05501E+01 9.49385E-02-1.37426E-03-4.69163E-01-4.65164E-14-7.65896E-14
 -1      2432 2.09918E+01 4.71714E-02 7.80135E-04-5.02613E-01 3.84794E-14 2.23447E-13
 -1      2433 2.08754E+01 5.82847E-02 9.28069E-04-4.79276E-01 1.65109E-14 1.11789E-13
 -1      2434 2.07020E+01 8.37463E-02-1.50337E-03-5.46193E-01 1.99753E-14-2.02283E-13
 -1      2435 2.12125E+01 9.54508E-03-8.59581E-04-5.34281E-01-6.85905E-15 4.35924E-13
 -1      2436 2.10887E+01 3.17777E-02 1.02653E-03-5.25385E-01 2.21815E-14 3.83682E-13
 -1      2437 2.08802E+01 5.19703E-02-1.61650E-03-6.08316E-01-4.33793E-14 4.29003E-14
 -1      2438 2.14460E+01-5.45961E-02-3.31843E-03-5.19411E-01 3.28360E-14 4.60437E-13
 -1      2439 2.13237E+01-1.77571E-02 1.11325E-03-5.35738E-01 6.39155E-14 4.97125E-13
 -1      2440 2.10853E+01-9.46495E-03-1.69335E-03-6.37006E-01-5.45993E-14 1.30625E-13
 -1      2441 2.16773E+01-1.49728E-01-6.55182E-03-4.31391E-01 1.33312E-13 3.10646E-13
 -1      2442 2.15701E+01-9.64811E-02 1.14592E-03-4.85842E-01 1.68961E-13 5.46723E-13
 -1      2443 2.13155E+01-1.09201E-01-1.66252E-03-6.06916E-01 9.12766E-14 1.98761E-13
 -1      2444 2.18835E+01-2.72740E-01-1.01593E-02-2.42150E-01-3.52799E-15 1.95189E-13
 -1      2445 2.18098E+01-2.06086E-01 1.00393E-03-3.47097E-01 3.52461E-14 2.64627E-13
 -1      2446 2.15649E+01-2.50918E-01-1.33939E-03-4.87014E-01 1.19227E-13 2.60535E-13
 -1      2447 2.20319E+01-4.04695E-01-1.31230E-02 6.82959E-02-4.39006E-14 1.89309E-13
 -1      2448 2.20140E+01-3.37066E-01 4.21490E-04-9.33079E-02-2.08791E-14 2.32984E-13
 -1      2449 2.18197E+01-4.25071E-01-3.50100E-04-2.45629E-01-2.68451E-14 3.46822E-13
 -1      2450 2.20802E+01-5.02319E-01-1.37450E-02 4.94201E-01 1.47460E-13 2.01117E-13
 -1      2451 2.21402E+01-4.59531E-01-1.02226E-03 2.85303E-01 1.25828E-14 1.50684E-13
 -1      2452 2.20518E+01-5.96968E-01 1.88865E-03 1.37535E-01 2.00211E-14 4.16659E-13
 -1      2453 2.19817E+01-4.98728E-01-1.02248E-02 9.80169E-01 1.83101E-13 3.58375E-13
 -1      2454 2.21333E+01-5.17465E-01-3.81748E-03 7.59295E-01 1.49791E-13 2.62731E-13
 -1      2455 2.22124E+01-6.97631E-01 5.59739E-03 6.48913E-01 1.39489E-13 3.97387E-13
 -1      2456 2.17040E+01-3.26227E-01-1.72098E-03 1.40423E+00 1.06411E-13 5.60703E-13
 -1      2457 2.19414E+01-4.38578E-01-7.64448E-03 1.23631E+00 2.46471E-13 5.26370E-13
 -1      2458 2.22345E+01-6.33360E-01 9.49746E-03 1.21142E+00 8.23842E-14 4.78378E-13
 -1      2459 2.12608E+01 3.04568E-02 9.53238E-03 1.59145E+00-4.06425E-14 4.21833E-13
 -1      2460 2.15480E+01-1.71614E-01-1.04215E-02 1.55641E+00 3.12660E-14 5.53827E-13
 -1      2461 2.20578E+01-3.26637E-01 1.10953E-02 1.66636E+00 1.01818E-13 5.47143E-13
 -1      2462 2.07472E+01 4.73312E-01 1.69334E-02 1.38785E+00-1.18182E-13 2.06806E-13
 -1      2463 2.10192E+01 2.49289E-01-8.53228E-03 1.53905E+00-1.01892E-13 3.74709E-13
 -1      2464 2.16827E+01 2.02649E-01 6.83532E-03 1.79853E+00 6.65607E-14 5.21896E-13
 -1      2465 2.03355E+01 8.00164E-01 1.43452E-02 7.84785E-01-2.23346E-15 1.56039E-13
 -1      2466 2.05191E+01 6.63798E-01-8.42636E-04 1.09655E+00 8.00909E-14 1.11261E-13
 -1      2467 2.12275E+01 7.76511E-01-3.70076E-03 1.44676E+00-1.99754E-14 3.99689E-13
 -1      2468 2.01833E+01 8.29426E-01 3.13877E-03-2.01779E-02-1.84906E-13 1.11311E-13
 -1      2469 2.02336E+01 8.61203E-01 9.79800E-03 3.41784E-01-1.97560E-13 1.48847E-14
 -1      2470 2.09003E+01 1.12338E+00-1.40939E-02 6.59788E-01-7.22547E-14 1.05329E-13
 -1      2471 2.03298E+01 5.40001E-01-5.70607E-03-6.98817E-01-5.06708E-14 3.98945E-13
 -1      2472 2.02532E+01 7.19671E-01 1.86718E-02-4.31445E-01-1.74206E-13 1.26292E-13
 -1      2473 2.08626E+01 1.05633E+00-9.58753E-03-2.66411E-01-1.39838E-13-1.94911E-13
 -1      2474 2.06386E+01 1.01769E-01-9.86647E-03-1.00437E+00 3.69924E-14 2.79646E-13
 -1      2475 2.04912E+01 3.27560E-01 1.73933E-02-9.16001E-01 1.09412E-13 4.24493E-13
 -1      2476 2.10768E+01 5.99909E-01 1.04219E-03-9.33212E-01-4.13669E-14 2.15811E-14
 -1      2477 2.09167E+01-2.64028E-01-8.02548E-03-9.02490E-01 2.00414E-13 1.45719E-13
 -1      2478 2.07711E+01-9.95835E-02 7.26008E-03-9.81651E-01 1.31178E-13 2.46711E-13
 -1      2479 2.13500E+01 1.73699E-02 1.01386E-02-1.12076E+00 1.87818E-13-1.94438E-13
 -1      2480 2.10320E+01-4.32563E-01-3.87886E-03-5.41742E-01 2.50616E-13 2.10755E-13
 -1      2481 2.09431E+01-3.75948E-01-4.32440E-03-7.12858E-01 2.07685E-13 2.24919E-13
 -1      2482 2.14890E+01-4.24881E-01 1.05289E-02-8.73256E-01 1.78542E-13-7.86294E-14
 -1      2483 2.09609E+01-3.97682E-01 1.74846E-03-1.24728E-01 1.54274E-13 2.32520E-13
 -1      2484 2.09475E+01-4.39534E-01-1.14414E-02-3.00862E-01 1.55691E-13 3.17998E-13
 -1      2485 2.14209E+01-5.90940E-01 6.82897E-03-4.08675E-01 1.76198E-13-6.96580E-14
 -1      2486 2.07501E+01-2.27227E-01 6.95573E-03 1.86950E-01-5.36838E-14 3.09117E-13
 -1      2487 2.07980E+01-3.28894E-01-1.31185E-02 6.80681E-02 8.89193E-14 3.21128E-13
 -1      2488 2.11797E+01-4.88630E-01 6.93562E-03 4.62821E-02 8.83618E-14-3.97325E-14
 -1      2489 2.04650E+01-1.83878E-02 5.72176E-03 3.06059E-01-1.60344E-13 5.24684E-13
 -1      2490 2.05498E+01-1.23976E-01-1.11653E-02 2.74012E-01-1.49086E-13 4.07245E-13
 -1      2491 2.08352E+01-2.25654E-01 7.33597E-03 3.43266E-01-1.17567E-13 2.55605E-13
 -1      2492 2.02843E+01 8.36056E-02-2.33023E-03 2.84494E-01-6.05904E-14 5.45136E-13
 -1      2493 2.05128E+01 9.94613E-01-9.79214E-04 2.21522E+00 1.08507E-15-2.14600E-13
 -1      2494 2.06718E+01 6.78084E-01 9.40071E-03 2.00304E+00-7.92009E-14-8.29936E-13
 -1      2495 1.99705E+01 1.65859E+00-1.73747E-02 2.46736E+00 1.38145E-13 3.25891E-13
 -1      2496 2.02849E+01 1.29621E+00 1.64414E-02 2.41806E+00-1.29640E-14 1.58667E-13
 -1      2497 2.05042E+01 5.38840E-01-1.26823E-02 2.60344E+00 5.56289E-14 1.62165E-14
 -1      2498 2.07495E+01 2.51349E-01 1.71844E-02 1.10494E+00-2.04193E-13-4.60111E-13
 -1      2499 2.06665E+01 8.58308E-02-4.37397E-03 8.57227E-01-7.15291E-14-2.43282E-13
 -1      2500 2.07520E+01 5.26852E-01 9.67500E-03 1.69113E+00-3.11574E-13-1.10456E-12
 -1      2501 2.07733E+01 2.86101E-01 1.02384E-03 1.42953E+00-2.17836E-13-6.48737E-13
 -1      2502 2.10163E+01-7.14183E-02 3.70962E-03 1.37370E+00-1.57167E-13-6.26488E-13
 -1      2503 2.09163E+01 1.15369E-01-1.17041E-02 2.03878E+00-8.71449E-14-7.21773E-13
 -1      2504 1.92211E+01 2.42718E+00-3.07737E-02 2.21309E+00 8.34753E-14 2.49628E-13
 -1      2505 1.96190E+01 2.08479E+00 1.86163E-02 2.41679E+00 1.26139E-13 1.90452E-13
 -1      2506 1.97141E+01 1.21699E+00-7.67629E-03 2.79419E+00 9.57796E-14 2.03800E-13
 -1      2507 1.85307E+01 3.09311E+00-3.26839E-02 1.35006E+00-2.80972E-13 2.75526E-14
 -1      2508 1.88560E+01 2.85747E+00 1.05625E-02 1.81868E+00-1.36609E-13 1.04066E-13
 -1      2509 1.87410E+01 2.02385E+00 9.05324E-03 2.34325E+00 3.10680E-14 8.92108E-14
 -1      2510 1.82266E+01 3.39888E+00-2.06874E-02 3.86246E-02-2.33190E-13 1.41775E-13
 -1      2511 1.83187E+01 3.34417E+00-6.99794E-03 6.61894E-01-3.93794E-13-4.35095E-14
 -1      2512 1.79549E+01 2.67171E+00 2.59935E-02 1.18722E+00-2.74390E-13 5.44053E-15
 -1      2513 1.84624E+01 3.20988E+00-1.13299E-03-1.29575E+00-6.80799E-14 3.03360E-13
 -1      2514 1.82764E+01 3.34814E+00-2.58982E-02-7.19516E-01-8.47369E-14 4.30905E-14
 -1      2515 1.77369E+01 2.86056E+00 3.11057E-02-3.77803E-01-1.56562E-13 1.66285E-13
 -1      2516 1.91129E+01 2.59825E+00 1.40400E-02-2.26819E+00 2.64454E-14-2.37696E-14
 -1      2517 1.87462E+01 2.89072E+00-3.28077E-02-1.88940E+00 1.49551E-14 6.91929E-14
 -1      2518 1.81860E+01 2.50559E+00 1.85814E-02-1.83724E+00 3.87169E-16 2.57266E-13
 -1      2519 1.98736E+01 1.81141E+00 1.76668E-02-2.64458E+00 9.92190E-14 2.40880E-14
 -1      2520 1.94867E+01 2.17959E+00-2.53562E-02-2.53556E+00 6.37767E-14 1.26417E-13
 -1      2521 1.90703E+01 1.80588E+00-2.00731E-03-2.74027E+00 7.72160E-14 6.44010E-14
 -1      2522 2.05015E+01 1.10678E+00 1.97801E-02-2.46148E+00-2.30936E-13-3.37874E-13
 -1      2523 2.02034E+01 1.45950E+00-9.01548E-03-2.58576E+00-9.95174E-14-1.36474E-13
 -1      2524 2.00683E+01 1.09167E+00-5.84824E-04-2.92783E+00-9.11252E-14-1.95223E-13
 -1      2525 5.75922E+00-2.92847E+00 1.33229E-01 3.68337E+00 5.57610E-13 9.34530E-13
 -1      2526 4.41386E+00-2.71918E+00 1.45865E-01 1.13218E+00 7.05002E-13 6.25944E-13
 -1      2527 1.93335E+01-6.20622E+00-5.68993E-02 7.20690E+00 9.41747E-14 8.89115E-14
 -1      2528 1.56469E+01-6.17425E+00 5.65434E-02 7.36777E+00 1.55542E-13 2.24251E-13
 -1      2529 1.97046E+01 1.43244E-01 3.26833E-03 6.01946E-02 1.07030E-13 2.81443E-13
 -1      2530 1.97832E+01 1.98071E-01 1.23826E-02 1.46372E-01 1.24142E-13 3.18070E-13
 -1      2531 1.98490E+01 1.80790E-01-3.86028E-03 6.57003E-02 1.18221E-13 1.56312E-13
 -1      2532 2.06855E+01 8.51728E-01-5.80862E-03-1.84509E+00 4.74748E-14-1.38102E-13
 -1      2533 4.09040E+00-2.99504E+00 9.88980E-02-1.46856E+00 6.96176E-13 9.14990E-13
 -1      2534 5.28405E+00-3.60375E+00 9.58956E-02-3.87973E+00 5.12368E-13 1.06160E-12
 -1      2535 2.05476E+01 1.95510E+00-1.37202E-02-1.89574E+00-1.75296E-13-2.40655E-13
 -1      2536 2.04096E+01 1.20896E+00-8.81905E-03-1.28942E+00-1.60210E-13-2.10262E-13
 -1      2537 2.03823E+01 1.38492E+00 9.19007E-03-1.23832E+00-1.39892E-13-2.26847E-13
 -1      2538 2.02952E+01 2.39752E+00 7.01636E-04-1.83599E+00-1.47219E-13-2.82451E-13
 -1      2539 7.29867E+00-4.39341E+00 8.87229E-02-5.40266E+00 3.17579E-13 1.02729E-12
 -1      2540 1.04003E+01-4.96800E+00 1.49370E-02-6.96112E+00 1.74860E-13 6.31911E-13
 -1      2541 8.33130E+00-2.76789E+00 1.78415E-01-4.64241E+00 5.01779E-13 1.22524E-12
 -1      2542 7.78227E+00-4.14132E+00 6.11827E-02 5.33287E+00 1.27010E-13-5.14699E-13
 -1      2543 4.94806E+00-3.85851E+00 9.33284E-02 3.45640E+00 2.97262E-14-7.51788E-13
 -1      2544 1.95191E+01 3.58466E+00-1.00929E-02-2.45323E-01 1.53038E-13-3.23972E-13
 -1      2545 1.95351E+01 3.56394E+00-9.66893E-03-4.26100E-01 1.29060E-13-3.30390E-13
 -1      2546 1.97115E+01 3.16339E+00-5.60188E-04-4.73388E-01 1.10672E-13-3.09239E-13
 -1      2547 1.96772E+01 3.22328E+00-9.14588E-04-1.52027E-01 1.45500E-13-3.01392E-13
 -1      2548 2.38175E+01-5.16606E+00-1.12016E-02-5.00232E+00-9.28702E-14-1.21653E-13
 -1      2549 2.67557E+01-4.20736E+00-1.00532E-01-3.68052E+00-9.51045E-14-1.28508E-13
 -1      2550 3.25855E+01 7.58512E+00-1.62574E-01-8.29323E-02 9.19487E-13-1.26742E-13
 -1      2551 3.25045E+01 6.86795E+00-1.31979E-01-6.28853E-01 9.40470E-13 1.02418E-14
 -1      2552 3.32395E+01 6.73230E+00-1.04367E-01 1.02104E+00 5.83866E-13-1.51545E-14
 -1      2553 3.26107E+01 7.62537E+00-1.93610E-01 7.38892E-01 7.81208E-13 7.56339E-16
 -1      2554 3.27975E+01 3.36616E+00-6.03372E-02 6.97689E-01 6.70020E-14-1.80633E-13
 -1      2555 3.35611E+01 5.06613E+00-1.40603E-01 9.29639E-01 2.81997E-13-8.81240E-14
 -1      2556 3.43719E+01 6.26689E+00-9.42460E-02-1.56931E+00-5.82923E-13-3.45168E-13
 -1      2557 3.35154E+01 4.81240E+00-1.13064E-01-1.97670E+00-7.15317E-13-2.21045E-13
 -1      2558 1.69649E+01-5.86061E+00 4.50773E-02-6.81059E+00-2.60514E-13-2.33471E-13
 -1      2559 2.07077E+01-5.55211E+00-1.79898E-02-6.43412E+00-1.96620E-13-1.98758E-13
 -1      2560 2.30469E+01-5.64396E+00 9.21537E-02-5.15407E+00-3.80057E-13 3.15720E-14
 -1      2561 9.09097E+00-5.02853E+00 5.79695E-02-6.39426E+00-2.78499E-13 2.43139E-14
 -1      2562 1.27209E+01-5.29196E+00 1.14470E-02-7.27184E+00-1.75360E-13-2.01686E-13
 -1      2563 3.58605E+00-3.84528E+00 5.18558E-02-3.23809E+00-3.71606E-13-5.08538E-13
 -1      2564 5.84007E+00-4.31559E+00 3.48487E-02-5.35264E+00-4.55636E-13-2.13385E-13
 -1      2565 9.27083E+00-3.70727E+00 1.44263E-01-5.93961E+00-4.32293E-13-1.58901E-13
 -1      2566 3.32411E+00-3.43788E+00 8.03391E-02 1.77936E+00-2.54075E-13-7.37466E-13
 -1      2567 2.83184E+00-3.25054E+00 8.03105E-02-6.11023E-01-3.27686E-13-5.25191E-13
 -1      2568 6.25971E+00-2.22468E+00 1.72193E-01 2.64024E+00-8.36969E-14-5.60524E-13
 -1      2569 1.52517E+01-5.88668E+00-3.42349E-02 6.64879E+00 1.28786E-14-1.26052E-13
 -1      2570 1.17970E+01-5.24105E+00 1.08363E-01 6.15924E+00 1.25899E-13-4.24383E-13
 -1      2571 2.47168E+01-5.88089E+00-9.48655E-02 4.16628E+00-1.78080E-13 6.93889E-16
 -1      2572 1.99576E+01-6.26845E+00 7.09963E-02 5.49772E+00-1.14048E-13 4.11685E-14
 -1      2573 3.00558E+01-3.22255E+00-1.56762E-01 7.16177E-01-4.00367E-13 1.01280E-13
 -1      2574 2.81028E+01-4.53177E+00 1.62582E-02 1.79135E+00-1.92485E-13-2.90878E-14
 -1      2575 3.33638E+01 2.16570E+00-1.09024E-01-1.66601E+00-7.52814E-13-1.52434E-13
 -1      2576 3.15820E+01-4.56000E-01-6.44817E-02-1.02116E+00-5.98924E-13 1.18017E-13
 -1      2577 3.42396E+01 7.44667E+00-1.10592E-01-3.66137E-01-3.94573E-13-3.86913E-13
 -1      2578 3.44010E+01 7.25021E+00-1.08770E-01-1.00504E+00-4.65961E-13-4.04593E-13
 -1      2579 3.35438E+01 4.86537E+00-9.37833E-02 8.43735E-01-1.69975E-13-7.19702E-13
 -1      2580 3.40663E+01 6.47377E+00-1.20627E-01 4.48169E-01-2.66009E-13-4.37497E-13
 -1      2581 3.26836E+01 3.52150E-01-4.98109E-02-3.78468E-01-1.38639E-14-5.05540E-13
 -1      2582 3.36264E+01 2.32900E+00-1.33585E-01 3.68861E-01-7.38853E-14-8.57703E-13
 -1      2583 2.91135E+01-3.75692E+00-2.73617E-02-2.73977E+00 3.82055E-14-4.87610E-13
 -1      2584 3.15006E+01-1.90906E+00-7.74779E-02-1.66904E+00 1.97620E-14-4.56246E-13
 -1      2585 2.30775E+01-6.10032E+00 1.32129E-02-5.79242E+00 1.45772E-13-1.56070E-13
 -1      2586 2.64514E+01-5.25820E+00-6.75965E-02-4.84378E+00 3.19189E-14-3.19300E-13
 -1      2587 1.49779E+01-6.06084E+00 7.28670E-02-7.26941E+00 3.23908E-13 1.24775E-13
 -1      2588 1.92831E+01-6.31475E+00-2.73231E-02-7.22880E+00 1.92346E-13 1.99955E-13
 -1      2589 3.14039E+01-5.14794E-01-1.52914E-01 7.49953E-01 5.31047E-13 1.53655E-13
 -1      2590 3.00574E+01-2.34149E+00 8.78498E-03 1.63056E+00 3.83950E-13 1.88738E-15
 -1      2591 2.04907E+01 8.74929E-01-7.31528E-03 1.22680E+00 2.26612E-13 4.59844E-13
 -1      2592 2.08412E+01 1.25692E+00-6.05310E-03 1.72750E+00 2.39572E-13 5.13695E-13
 -1      2593 2.06471E+01 1.71561E+00-1.57939E-02 1.92166E+00 2.75269E-13 4.09509E-13
 -1      2594 2.04492E+01 1.05801E+00-9.39848E-03 1.24160E+00 2.44754E-13 3.21492E-13
 -1      2595 2.68611E+01-4.56394E+00 5.80930E-02-2.62802E+00-3.16108E-13 2.49981E-13
 -1      2596 2.83629E+01-3.52437E+00 1.34986E-02-2.31731E+00-6.10345E-14 1.02918E-13
 -1      2597 2.88070E+01-2.94995E+00-2.23304E-01-7.49818E-01-1.85846E-13 3.63515E-13
 -1      2598 1.99131E+01 2.81039E+00 1.13754E-03-1.09754E+00 2.58924E-15-3.57674E-13
 -1      2599 1.97801E+01 3.15621E+00-1.61798E-02-1.28722E+00-1.12612E-14-3.78375E-13
 -1      2600 1.98831E+01 3.01279E+00-1.85364E-02-1.47714E+00-4.38654E-14-3.79305E-13
 -1      2601 2.47512E+01-5.83523E+00-5.47357E-02 4.73894E+00 1.10328E-14-1.18919E-13
 -1      2602 2.25636E+01-6.08204E+00 5.41371E-02 6.18533E+00-3.40283E-14-1.14214E-14
 -1      2603 2.12827E+01-5.78831E+00 1.26661E-01 6.45356E+00 2.78111E-14-1.63106E-13
 -1      2604 2.85400E+01-3.97740E+00-2.90904E-02 2.30268E+00 4.61187E-13 1.43913E-13
 -1      2605 2.04226E+01 2.11575E+00-1.27786E-02 1.87467E+00 2.95798E-13 2.63012E-13
 -1      2606 3.07815E+01 7.03748E-01-5.42497E-02-7.89430E-01 5.97633E-13 1.91791E-13
 -1      2607 1.43903E+01-4.93649E+00 1.37600E-01-6.96445E+00 3.71592E-13 2.11345E-13
 -1      2608 2.22965E+01-6.21348E+00 8.50287E-02-6.05933E+00 4.34819E-13-3.04909E-13
 -1      2609 1.46181E+01-5.20174E+00 1.60570E-01 7.34079E+00-3.61378E-14 4.51444E-14
 -1      2610 1.12504E+01-3.83689E+00 1.65253E-01 5.56787E+00 2.24043E-13-4.75703E-13
 -1      2611 2.81791E+01-4.91141E+00 2.75924E-02-2.93254E+00 2.44360E-13-7.63667E-13
 -1      2612 2.04604E+01 3.41216E-02-1.32947E-03 4.13703E-01-1.28330E-13 3.02127E-13
 -1      2613 2.05526E+01 9.29772E-02 8.73869E-03 5.67777E-01-5.24966E-14 2.98706E-14
 -1      2614 3.12263E+01-1.41657E+00-1.72765E-02 9.82709E-02 9.03028E-14-8.11157E-13
 -1      2615 6.37725E+00-1.63037E+00 1.87375E-01-2.37955E-01 6.76414E-13 9.06442E-13
 -1      2616 7.83379E+00-2.97193E+00 1.67811E-01 4.76257E+00 3.97016E-13 7.24421E-13
 -1      2617 8.45343E+00-1.45906E+00 1.60513E-01 3.61018E+00 4.82968E-13 6.72018E-13
 -1      2618 1.00607E+01-3.03785E+00 3.83321E-02 5.72622E+00 1.29091E-13 1.64146E-13
 -1      2619 3.19679E+01 3.12492E+00-7.03949E-02 1.36944E+00-6.86395E-14-7.40297E-13
 -1      2620 3.16958E+01 6.45929E+00-6.01118E-02 4.10769E-01-2.61569E-13-2.53769E-13
 -1      2621 1.99948E+01 3.40146E-01-3.53223E-03 3.04784E-01 1.49600E-13 1.89341E-13
 -1      2622 2.01190E+01 2.61293E+00-1.00003E-02-1.67629E+00-1.06166E-13-3.37020E-13
 -1      2623 3.16802E+01 2.91318E+00-6.04308E-02-2.64177E+00-6.78096E-13-1.39055E-13
 -1      2624 3.04620E+01-2.02684E+00-1.92533E-02-1.34170E+00-4.19519E-13 1.43191E-13
 -1      2625 2.64626E+01-5.43020E+00 4.89966E-02 2.42024E+00-4.46865E-14 5.44009E-15
 -1      2626 5.09831E+00-2.23146E+00 1.60532E-01-1.95479E+00-4.19671E-13-5.59663E-13
 -1      2627 1.62597E+01-5.28276E+00 1.14772E-01-6.84699E+00-3.38785E-13-8.44463E-14
 -1      2628 3.18050E+01 6.39190E+00-4.10082E-02-1.64094E+00-4.68070E-13-2.95722E-13
 -1      2629 3.13499E+01 1.37283E+00-2.89234E-02 7.96853E-01-6.58779E-14 1.00558E-13
 -1      2630 3.09945E+01 5.56058E+00-6.20355E-02 1.70991E+00 3.87884E-13 1.05096E-13
 -1      2631 3.07191E+01 5.27818E+00-9.13839E-02-1.14763E+00 8.98587E-13 4.54220E-14
 -1      2632 3.03379E+01 7.15601E+00-1.13534E-01 3.40414E-01 8.34999E-13-1.20208E-13
 -1      2633 1.93544E+01-5.70810E+00 1.25496E-01 5.54437E+00 6.11733E-14-7.38437E-14
 -1      2634 2.10924E+01 3.99704E-01 1.71132E-02-1.98288E+00-9.43892E-14-3.68728E-14
 -1      2635 2.07351E+01 8.11219E-01-2.40273E-03-2.29125E+00-9.73349E-14-1.59823E-13
 -1      2636 2.08217E+01 4.96989E-01-4.74609E-03-2.64367E+00-3.81942E-13-7.96652E-14
 -1      2637 2.14049E+01 1.04521E-01-8.01279E-03-2.10537E+00-1.48923E-13 5.31675E-14
 -1      2638 2.04366E+01 1.80799E+00 1.25379E-02 1.56244E+00 2.83248E-13 2.17451E-13
 -1      2639 2.07819E+01-1.22350E-01-9.39206E-03 7.26507E-01-1.38547E-13-5.80664E-14
 -1      2640 2.13794E+01-6.19608E-02-9.43308E-03-2.47220E+00-1.94048E-13 4.49428E-14
 -1      2641 1.98451E+01 2.76474E+00-6.29792E-03 5.16391E-01 2.12556E-13-1.96173E-13
 -1      2642 1.98202E+01 2.81449E+00-5.69586E-03 3.65488E-01 1.97424E-13-2.25843E-13
 -1      2643 1.98033E+01 2.85198E+00-5.61413E-03 2.29930E-01 1.82748E-13-2.60038E-13
 -1      2644 1.97948E+01 2.86887E+00-5.43161E-03 7.52664E-02 1.69984E-13-2.68170E-13
 -1      2645 1.99498E+01 2.50065E+00 3.64212E-03 2.65334E-01 1.74874E-13-2.35873E-13
 -1      2646 2.00436E+01 2.32380E+00-1.07283E-02 1.04621E+00 2.74176E-13-8.03654E-15
 -1      2647 1.99795E+01 2.47272E+00-6.30536E-03 9.10612E-01 2.56616E-13-7.09268E-14
 -1      2648 2.02170E+01 1.90804E+00-1.20271E-02 1.22750E+00 2.71117E-13 7.16775E-14
 -1      2649 2.01245E+01 2.14614E+00-4.79774E-03 1.13406E+00 2.72860E-13 3.89020E-14
 -1      2650 2.01894E+01 1.88635E+00 6.44172E-03 9.26750E-01 2.40330E-13 2.02671E-14
 -1      2651 2.12715E+01-4.32979E-01 1.70267E-03 9.97544E-01-2.25129E-13-4.51913E-13
 -1      2652 2.11073E+01-3.88712E-01 3.14994E-03 6.45552E-01-1.99172E-13-9.25243E-14
 -1      2653 2.12784E+01-5.86300E-01-1.49815E-02 5.53132E-01-1.69393E-13-2.28065E-13
 -1      2654 2.02127E+01 7.26834E-01-3.49592E-03 6.42948E-01 1.87364E-13 1.59408E-13
 -1      2655 2.03547E+01 9.51734E-01 9.14539E-03 9.06750E-01 2.11310E-13 1.85852E-13
 -1      2656 8.66247E+00-1.57812E+00 1.51755E-01-3.69306E+00 6.57745E-13 1.28889E-12
 -1      2657 1.04205E+01-2.51908E+00 7.82720E-02-5.44810E+00 5.89237E-13 1.02049E-12
 -1      2658 1.35810E+01-3.59893E+00 1.59369E-01-6.45920E+00 5.85781E-13 8.71525E-14
 -1      2659 1.73207E+01-5.06507E+00-8.17499E-03-6.99326E+00 5.93275E-13-3.87732E-13
 -1      2660 2.02153E+01 6.26954E-01 7.80792E-03-4.37751E-01-6.68271E-14-1.75873E-13
 -1      2661 2.01323E+01 4.75818E-01-3.08101E-03-2.78650E-01-5.67528E-14-1.55444E-13
 -1      2662 2.01061E+01 3.62260E-01 6.62343E-03-1.59117E-01-4.69138E-14-1.37138E-13
 -1      2663 2.00469E+01 2.67566E-01-1.74371E-03-6.14671E-02-4.21336E-14-1.41035E-13
 -1      2664 2.01955E+01 5.28391E-01-1.52230E-03-2.62504E-01-5.64955E-14-1.47839E-13
 -1      2665 2.00208E+01 1.97329E-01 4.53660E-03 1.38042E-02-5.01225E-14-1.28239E-13
 -1      2666 1.99849E+01 1.37813E-01-8.32486E-04 7.03427E-02-6.78538E-14-1.17981E-13
 -1      2667 2.01263E+01 2.98431E-01-2.07191E-03-5.60743E-02-5.04742E-14-1.32045E-13
 -1      2668 1.99639E+01 9.37186E-02 2.90053E-03 1.13692E-01-9.28093E-14-9.46158E-14
 -1      2669 1.99458E+01 5.65108E-02-2.91636E-04 1.43123E-01-8.65863E-14-1.14062E-13
 -1      2670 2.00698E+01 1.52319E-01-1.90284E-03 7.11696E-02-8.02736E-14-1.24519E-13
 -1      2671 1.99308E+01 2.91465E-02 1.73574E-03 1.64624E-01-9.66246E-14-1.14708E-13
 -1      2672 1.99249E+01 6.52202E-03 1.15564E-05 1.76569E-01-8.50127E-14-1.42107E-13
 -1      2673 2.00287E+01 6.01431E-02-1.52597E-03 1.42197E-01-1.04180E-13-7.24788E-14
 -1      2674 1.99152E+01-9.79002E-03 9.29296E-04 1.83758E-01-5.47395E-14-1.24598E-13
 -1      2675 1.99171E+01-2.26773E-02 1.75978E-04 1.84838E-01-5.37002E-14-1.28839E-13
 -1      2676 2.00014E+01 3.47622E-03-1.14809E-03 1.75108E-01-6.39805E-14-7.98125E-14
 -1      2677 1.99114E+01-3.15557E-02 3.88601E-04 1.83173E-01-7.06503E-14-9.51032E-14
 -1      2678 1.99179E+01-3.78752E-02 2.63718E-04 1.77950E-01-7.61861E-14-5.53099E-14
 -1      2679 1.99850E+01-2.93636E-02-8.31217E-04 1.83404E-01-5.42404E-14-3.34830E-14
 -1      2680 1.99152E+01-4.17131E-02 3.91408E-05 1.71320E-01-6.68173E-14-5.34247E-14
 -1      2681 1.99242E+01-4.35869E-02 3.11636E-04 1.62946E-01-3.87065E-14-4.33281E-14
 -1      2682 1.99765E+01-4.60601E-02-5.87125E-04 1.76853E-01-4.94529E-14-5.67860E-15
 -1      2683 1.99235E+01-4.39946E-02-1.76189E-04 1.54092E-01-1.68783E-14-3.42054E-14
 -1      2684 1.99338E+01-4.28472E-02 3.42267E-04 1.44746E-01 9.28809E-16-5.03415E-14
 -1      2685 1.99736E+01-5.17735E-02-4.09594E-04 1.62417E-01-3.54192E-14-5.45892E-14
 -1      2686 1.99345E+01-4.08990E-02-3.00584E-04 1.35595E-01-3.37846E-14-7.15448E-14
 -1      2687 1.99452E+01-3.76618E-02 3.70511E-04 1.26798E-01-4.19636E-14-6.86009E-14
 -1      2688 1.99745E+01-4.99781E-02-2.87126E-04 1.45017E-01-4.34611E-14-8.59343E-14
 -1      2689 1.99469E+01-3.40436E-02-3.66511E-04 1.18717E-01-4.98546E-14-9.99373E-14
 -1      2690 1.99576E+01-2.92836E-02 4.07089E-04 1.11559E-01-7.93885E-14-8.64853E-14
 -1      2691 1.99781E+01-4.29578E-02-2.08392E-04 1.28138E-01-6.53076E-14-1.00717E-13
 -1      2692 1.99601E+01-2.43901E-02-3.98205E-04 1.05554E-01-5.00278E-14-5.94484E-14
 -1      2693 1.99710E+01-1.83971E-02 4.60470E-04 1.00865E-01-4.24653E-14-4.57836E-14
 -1      2694 1.99836E+01-3.21178E-02-1.63607E-04 1.14297E-01-5.42904E-14-1.47353E-13
 -1      2695 1.99741E+01-1.23977E-02-4.13936E-04 9.77382E-02-8.17045E-14-4.88676E-15
 -1      2696 1.99853E+01-5.24441E-03 5.37981E-04 9.62209E-02-1.05334E-13 1.12883E-14
 -1      2697 1.99905E+01-1.81957E-02-1.44381E-04 1.05414E-01-5.84415E-14-1.04988E-13
 -1      2698 1.99890E+01 1.87071E-03-4.27859E-04 9.66854E-02-1.52824E-13 6.02406E-14
 -1      2699 2.00011E+01 1.02864E-02 6.46346E-04 9.90159E-02-1.31244E-13 1.24548E-14
 -1      2700 1.99987E+01-1.40765E-03-1.43521E-04 1.03088E-01-1.09393E-13-1.03720E-14
 -1      2701 2.00053E+01 1.86721E-02-4.51382E-04 1.03792E-01-7.40660E-14 1.91628E-14
 -1      2702 2.00190E+01 2.85951E-02 7.91823E-04 1.10702E-01-3.55419E-14 1.58009E-14
 -1      2703 2.00083E+01 1.84469E-02-1.54562E-04 1.08818E-01-1.09114E-13 1.01745E-13
 -1      2704 2.00239E+01 3.85253E-02-4.94304E-04 1.20589E-01-1.87441E-14 2.64142E-15
 -1      2705 2.00400E+01 5.03181E-02 9.80140E-04 1.32926E-01-4.84218E-15 3.72955E-14
 -1      2706 2.00193E+01 4.19061E-02-1.70841E-04 1.24174E-01-3.96566E-14 4.56236E-14
 -1      2707 2.00454E+01 6.21625E-02-5.65772E-04 1.48853E-01-1.87855E-15 1.81334E-14
 -1      2708 2.00648E+01 7.62802E-02 1.21618E-03 1.67627E-01 5.47523E-14-8.14898E-14
 -1      2709 2.00319E+01 6.97808E-02-1.84595E-04 1.50921E-01-1.67674E-14-2.86006E-14
 -1      2710 2.00709E+01 9.04797E-02-6.74910E-04 1.90687E-01 1.35187E-13-1.07709E-13
 -1      2711 2.00946E+01 1.07439E-01 1.50330E-03 2.17097E-01 1.88486E-13-1.64056E-13
 -1      2712 2.00463E+01 1.03090E-01-1.86087E-04 1.91100E-01 2.94654E-14-2.70264E-16
 -1      2713 2.01011E+01 1.24468E-01-8.30958E-04 2.48559E-01 2.35534E-13-1.67955E-13
 -1      2714 2.01303E+01 1.44796E-01 1.84220E-03 2.83992E-01 2.22752E-13-1.22753E-13
 -1      2715 2.00623E+01 1.42983E-01-1.62748E-04 2.47073E-01 1.76427E-13-9.34424E-14
 -1      2716 2.01368E+01 1.65093E-01-1.04260E-03 3.25293E-01 1.37087E-13-1.36866E-13
 -1      2717 2.01726E+01 1.89228E-01 2.22937E-03 3.71286E-01 9.97500E-14-1.19684E-13
 -1      2718 2.00796E+01 1.90601E-01-9.87881E-05 3.21508E-01 1.73596E-13-2.12388E-13
 -1      2719 2.01785E+01 2.13071E-01-1.31568E-03 4.23972E-01 3.81561E-14-1.53340E-13
 -1      2720 2.02219E+01 2.41178E-01 2.65534E-03 4.82112E-01 1.72522E-14-2.45547E-13
 -1      2721 2.00973E+01 2.46845E-01 2.38653E-05 4.17307E-01 3.03106E-14-1.29334E-13
 -1      2722 2.02263E+01 2.68437E-01-1.64807E-03 5.47739E-01-1.75437E-15-1.94722E-13
 -1      2723 2.02783E+01 3.00066E-01 3.10316E-03 6.19452E-01-6.16963E-14-2.45008E-13
 -1      2724 2.01141E+01 3.11928E-01 2.21553E-04 5.37432E-01 7.74156E-15-2.47370E-13
 -1      2725 2.02799E+01 3.29757E-01-2.01929E-03 6.99405E-01 6.76005E-15-2.31235E-13
 -1      2726 2.03414E+01 3.63215E-01 3.54861E-03 7.85578E-01 6.54941E-14-2.23088E-13
 -1      2727 2.01278E+01 3.84566E-01 4.98484E-04 6.84626E-01 2.20929E-14-1.25958E-13
 -1      2728 2.03393E+01 3.92703E-01-2.37143E-03 8.80790E-01 5.24578E-14-1.39947E-13
 -1      2729 2.04113E+01 4.23978E-01 3.96455E-03 9.81132E-01-3.18371E-15 1.82667E-14
 -1      2730 2.01361E+01 4.60544E-01 8.24156E-04 8.60972E-01 1.18798E-13-7.11307E-14
 -1      2731 2.04053E+01 4.47632E-01-2.57545E-03 1.09167E+00-1.07168E-14 6.61888E-14
 -1      2732 2.04899E+01 4.68640E-01 4.33201E-03 1.20367E+00 6.67538E-15 8.48432E-14
 -1      2733 2.01370E+01 5.30277E-01 1.08942E-03 1.06730E+00 4.98416E-14 8.69831E-14
 -1      2734 2.04830E+01 4.75727E-01-2.37306E-03 1.32811E+00-4.61874E-14 1.62344E-13
 -1      2735 2.05847E+01 4.71668E-01 4.65706E-03 1.44548E+00-7.53065E-14 1.52240E-13
 -1      2736 2.01317E+01 5.74901E-01 1.02902E-03 1.30244E+00-5.03276E-15 2.00137E-13
 -1      2737 2.05866E+01 4.43418E-01-1.27206E-03 1.57995E+00 4.03770E-14 2.02522E-13
 -1      2738 2.07159E+01 3.89386E-01 4.97886E-03 1.69023E+00 5.66439E-14 2.09450E-13
 -1      2739 2.01294E+01 5.60475E-01 1.02704E-04 1.56216E+00 8.95909E-15 2.41215E-13
 -1      2740 2.07499E+01 2.95836E-01 1.64702E-03 1.82648E+00-1.83952E-14 1.83245E-13
 -1      2741 2.09282E+01 1.53873E-01 5.26880E-03 1.90754E+00 7.88960E-14 1.87262E-13
 -1      2742 2.01567E+01 4.30499E-01-2.63781E-03 1.83753E+00 2.89787E-14 1.80896E-13
 -1      2743 2.10420E+01-4.70046E-02 7.94875E-03 2.02824E+00 6.84075E-14 1.20522E-13
 -1      2744 2.13056E+01-3.26026E-01 4.98865E-03 2.04312E+00 5.20358E-14 1.33939E-13
 -1      2745 2.02738E+01 9.92590E-02-8.57728E-03 2.11049E+00 6.10186E-14 2.01063E-13
 -1      2746 2.15849E+01-6.78751E-01 1.98352E-02 2.10876E+00 4.19874E-14 7.38873E-14
 -1      2747 2.19853E+01-1.13303E+00 4.00007E-03 1.99807E+00 7.81875E-14 6.45922E-14
 -1      2748 2.05998E+01-5.45808E-01-1.91565E-02 2.33937E+00-4.04264E-14 2.31201E-13
 -1      2749 2.25495E+01-1.65410E+00 3.62385E-02 1.93283E+00 1.52297E-13 5.62115E-14
 -1      2750 2.31341E+01-2.25239E+00-7.45011E-04 1.60830E+00 1.49861E-13 2.49152E-14
 -1      2751 2.13225E+01-1.58810E+00-3.48545E-02 2.42391E+00 6.79515E-14 6.56974E-14
 -1      2752 2.41362E+01-2.83309E+00 5.95516E-02 1.25457E+00 6.65839E-14 1.30462E-13
 -1      2753 2.49277E+01-3.30966E+00 1.34140E-02 6.00144E-01 7.52974E-14 8.24141E-14
 -1      2754 2.27132E+01-3.01438E+00-6.05113E-02 2.17143E+00 1.36183E-13 1.46938E-13
 -1      2755 2.86611E+01-1.30881E+00-1.57652E-01-2.53087E+00-3.39624E-13 1.07733E-13
 -1      2756 2.90350E+01 4.96034E-01-1.27776E-01-3.21795E+00-5.69253E-13 1.51781E-13
 -1      2757 2.89438E+01 5.48767E+00-1.99899E-01-1.57065E+00-3.87135E-13-2.41411E-13
 -1      2758 2.89279E+01 5.80061E+00-2.09060E-01-2.14175E-01-1.65146E-13-2.72240E-13
 -1      2759 2.88488E+01 5.08764E+00-1.61582E-01 1.05723E+00-1.33921E-13-2.32925E-13
 -1      2760 2.89212E+01 3.31078E+00-1.93240E-01 1.92092E+00-8.67084E-14-2.90407E-13
 -1      2761 2.72558E+01-2.66903E+00-6.61203E-02 8.23113E-01 3.27099E-14-9.62633E-14
 -1      2762 2.66440E+01-3.34066E+00-5.83126E-03 2.99006E-03 8.51593E-14-1.87718E-13
 -1      2763 2.53579E+01-3.43150E+00-1.56193E-02-1.00957E+00 1.74227E-13-2.80309E-13
 -1      2764 2.45760E+01-3.11387E+00 4.48026E-02-1.72117E+00 2.90770E-13-1.41867E-13
 -1      2765 2.60956E+01-4.05067E+00-1.08938E-02-1.30078E+00 1.30800E-13-3.88212E-13
 -1      2766 2.34567E+01-2.57676E+00-1.41021E-02-2.24560E+00 3.87579E-13-5.13459E-14
 -1      2767 2.27955E+01-1.90471E+00 4.36026E-02-2.63200E+00 3.68986E-13-5.79307E-14
 -1      2768 2.35916E+01-3.34200E+00-6.07950E-02-2.72469E+00 4.47061E-13-4.82803E-13
 -1      2769 2.20767E+01-1.27148E+00-5.24269E-03-2.77591E+00 1.47427E-13-1.14091E-14
 -1      2770 2.15899E+01-6.26986E-01 2.69194E-02-2.86873E+00 5.11762E-14-7.63859E-14
 -1      2771 2.19401E+01-1.81807E+00-3.83974E-02-3.22405E+00 2.36411E-13-4.50154E-13
 -1      2772 1.98544E+01 4.91950E-02 4.79061E-05-1.43193E-01 6.71354E-14 6.32171E-14
 -1      2773 1.98685E+01 8.10313E-02 3.16291E-03-1.14901E-01 8.47687E-14 7.66067E-14
 -1      2774 2.03381E+01 1.50022E+00-1.89941E-03 1.26722E+00 2.60710E-13 1.75083E-13
 -1      2775 1.98915E+01 1.18561E-01-2.48643E-04-7.04304E-02 8.32563E-14 8.64293E-14
 -1      2776 1.99273E+01 1.70120E-01 5.20409E-03-1.49933E-02 1.01803E-13 1.16642E-13
 -1      2777 1.99913E+01 1.35211E-01-2.34184E-03-7.19590E-02 1.02605E-13 5.24082E-14
 -1      2778 1.98427E+01-1.79503E-02 2.54217E-04-1.83927E-01 2.51194E-14 1.08028E-13
 -1      2779 1.98343E+01-7.00277E-03 8.80922E-04-1.83373E-01 4.70589E-14 5.69629E-14
 -1      2780 1.98540E+01-3.09345E-02 2.73384E-04-1.76646E-01 6.77525E-14 7.02787E-14
 -1      2781 1.98411E+01-2.55234E-02 2.95802E-04-1.82164E-01 2.18015E-14 8.64890E-14
 -1      2782 1.99202E+01-2.43328E-02-8.61635E-04-1.87034E-01 2.70755E-14-1.45741E-14
 -1      2783 1.98705E+01-3.60093E-02 2.78443E-04-1.61307E-01 1.15393E-13 8.58418E-14
 -1      2784 1.98556E+01-3.43138E-02-6.79584E-05-1.69850E-01 1.01425E-13 8.27312E-14
 -1      2785 1.99203E+01-3.90637E-02-5.66625E-04-1.79992E-01 8.05845E-14-1.20489E-14
 -1      2786 1.98893E+01-3.57446E-02 2.84521E-04-1.42738E-01 7.82356E-14 1.12906E-13
 -1      2787 1.98740E+01-3.65513E-02-2.80369E-04-1.52224E-01 1.12248E-13 9.46954E-14
 -1      2788 1.99261E+01-4.43590E-02-3.61617E-04-1.64846E-01 1.05938E-13 5.50504E-14
 -1      2789 1.99088E+01-3.18434E-02 3.00566E-04-1.24279E-01 6.32114E-14 1.70696E-13
 -1      2790 1.98939E+01-3.43548E-02-3.91168E-04-1.33275E-01 7.59178E-14 1.33604E-13
 -1      2791 1.99351E+01-4.32620E-02-2.27927E-04-1.46564E-01 7.25223E-14 6.17602E-14
 -1      2792 1.99283E+01-2.53915E-02 3.32709E-04-1.08269E-01 1.33573E-14 1.94021E-13
 -1      2793 1.99140E+01-2.91090E-02-4.36210E-04-1.15771E-01 5.31130E-14 2.09695E-13
 -1      2794 1.99459E+01-3.77802E-02-1.48954E-04-1.28616E-01 3.60904E-14 2.10673E-13
 -1      2795 1.99477E+01-1.70239E-02 3.85831E-04-9.64081E-02 5.83609E-14 1.45165E-13
 -1      2796 1.99339E+01-2.16680E-02-4.41231E-04-1.01675E-01 4.13318E-14 1.65827E-13
 -1      2797 1.99578E+01-2.91815E-02-1.11669E-04-1.13465E-01 6.92488E-14 2.04328E-13
 -1      2798 1.99673E+01-7.04513E-03 4.64032E-04-9.00203E-02 1.37645E-13 6.74139E-14
 -1      2799 1.99536E+01-1.24963E-02-4.24474E-04-9.24617E-02 8.62653E-14 1.21476E-13
 -1      2800 1.99705E+01-1.81922E-02-1.06236E-04-1.02931E-01 9.59335E-14 1.69289E-13
 -1      2801 1.99879E+01 4.47457E-03 5.70759E-04-9.02495E-02 1.23597E-13 1.36039E-13
 -1      2802 1.99737E+01-1.77572E-03-3.98682E-04-8.93379E-02 1.14310E-13 2.48839E-14
 -1      2803 1.99840E+01-5.14488E-03-1.25234E-04-9.84591E-02 1.22115E-13 1.10511E-13
 -1      2804 2.00106E+01 1.76118E-02 7.08376E-04-9.81894E-02 4.93438E-14 1.59108E-13
 -1      2805 1.99950E+01 1.05041E-02-3.72353E-04-9.34065E-02 1.23729E-13 1.80857E-13
 -1      2806 1.99988E+01 9.90137E-03-1.63127E-04-1.01318E-01 8.17509E-14 1.47352E-13
 -1      2807 2.00367E+01 3.24977E-02 8.77367E-04-1.14956E-01-8.67263E-15 6.35788E-14
 -1      2808 2.00187E+01 2.44573E-02-3.50525E-04-1.05767E-01 8.93323E-15 9.84547E-14
 -1      2809 2.00154E+01 2.70471E-02-2.15853E-04-1.12727E-01 6.78885E-14 9.71643E-14
 -1      2810 2.00678E+01 4.92099E-02 1.07502E-03-1.41696E-01 3.60913E-14 4.09075E-15
 -1      2811 2.00463E+01 4.02037E-02-3.35112E-04-1.27557E-01 7.99735E-15 7.75475E-15
 -1      2812 2.00348E+01 4.64307E-02-2.80505E-04-1.33924E-01 5.01095E-14 3.27349E-14
 -1      2813 2.01057E+01 6.76307E-02 1.29364E-03-1.79520E-01 1.00075E-13 9.34372E-14
 -1      2814 2.00795E+01 5.77463E-02-3.24661E-04-1.59924E-01 6.31958E-14 3.09112E-14
 -1      2815 2.00580E+01 6.80815E-02-3.55244E-04-1.66160E-01 2.44481E-14-6.21726E-14
 -1      2816 2.01526E+01 8.72557E-02 1.51805E-03-2.29339E-01 8.16043E-14 1.28486E-13
 -1      2817 2.01202E+01 7.68087E-02-3.13472E-04-2.03914E-01 1.26113E-13 1.29660E-13
 -1      2818 2.00863E+01 9.17272E-02-4.39611E-04-2.10615E-01 1.07509E-13 6.15561E-15
 -1      2819 2.02106E+01 1.06930E-01 1.72239E-03-2.91576E-01-1.04195E-13 1.94078E-13
 -1      2820 2.01706E+01 9.66112E-02-2.89966E-04-2.60253E-01 6.86547E-15 2.10035E-13
 -1      2821 2.01210E+01 1.16533E-01-5.35546E-04-2.68209E-01-2.44355E-14 1.73232E-13
 -1      2822 2.02822E+01 1.24496E-01 1.86630E-03-3.65715E-01-2.11530E-13 1.41519E-13
 -1      2823 2.02333E+01 1.15566E-01-2.34104E-04-3.28982E-01-1.69982E-13 2.45486E-13
 -1      2824 2.01643E+01 1.40748E-01-6.49346E-04-3.39286E-01-1.37214E-13 2.26516E-13
 -1      2825 2.03702E+01 1.36338E-01 1.89069E-03-4.49635E-01-1.73662E-13-4.57870E-14
 -1      2826 2.03112E+01 1.30877E-01-1.13847E-04-4.08909E-01-1.75799E-13 6.93189E-14
 -1      2827 2.02182E+01 1.61236E-01-7.94892E-04-4.23121E-01-1.53419E-13 1.15484E-13
 -1      2828 2.04776E+01 1.36855E-01 1.71371E-03-5.38711E-01 2.06531E-14-1.91577E-13
 -1      2829 2.04074E+01 1.38043E-01 1.18967E-04-4.96827E-01-5.78609E-14-1.43382E-13
 -1      2830 2.02861E+01 1.72894E-01-9.98163E-04-5.17227E-01-1.14759E-14-1.98340E-13
 -1      2831 2.06079E+01 1.17971E-01 1.22822E-03-6.24634E-01-5.15110E-15-9.92674E-14
 -1      2832 2.05260E+01 1.30328E-01 5.31831E-04-5.86468E-01 5.25230E-14-1.47514E-13
 -1      2833 2.03722E+01 1.68009E-01-1.30210E-03-6.16404E-01-1.43890E-14-1.68661E-13
 -1      2834 2.07655E+01 6.89578E-02 3.02800E-04-6.94040E-01-1.15226E-13-1.77027E-14
 -1      2835 2.06719E+01 9.83757E-02 1.20986E-03-6.67182E-01-8.12405E-14-6.68708E-14
 -1      2836 2.04826E+01 1.35725E-01-1.76841E-03-7.11525E-01-1.14062E-13-1.13926E-13
 -1      2837 2.09551E+01-2.28305E-02-1.20721E-03-7.27119E-01 1.27626E-14-1.02327E-13
 -1      2838 2.08507E+01 3.03722E-02 2.24012E-03-7.22445E-01-4.54969E-14-3.27414E-14
 -1      2839 2.06260E+01 6.20485E-02-2.46801E-03-7.88048E-01-4.40678E-14-1.37820E-13
 -1      2840 2.11818E+01-1.69208E-01-3.42442E-03-6.96760E-01-3.97458E-15 7.65416E-14
 -1      2841 2.10691E+01-8.64093E-02 3.66673E-03-7.28497E-01 9.04268E-15-3.59101E-14
 -1      2842 2.08142E+01-6.87467E-02-3.44245E-03-8.24413E-01-6.26599E-14-6.09990E-14
 -1      2843 2.14481E+01-3.74787E-01-6.35368E-03-5.69353E-01 1.09587E-14 2.62187E-13
 -1      2844 2.13324E+01-2.61340E-01 5.39281E-03-6.53915E-01 4.48885E-14 2.11295E-13
 -1      2845 2.10611E+01-2.69805E-01-4.61084E-03-7.90758E-01-5.65789E-14 6.73403E-14
 -1      2846 2.17495E+01-6.25348E-01-9.70717E-03-3.09418E-01-1.21892E-13 3.27582E-13
 -1      2847 2.16408E+01-4.91679E-01 7.03981E-03-4.61783E-01-8.22059E-14 3.11779E-13
 -1      2848 2.13802E+01-5.42406E-01-5.59690E-03-6.49115E-01-1.17319E-13 2.37069E-13
 -1      2849 2.20642E+01-8.70298E-01-1.23754E-02 1.08888E-01 4.82017E-14 2.82747E-13
 -1      2850 2.19797E+01-7.48212E-01 7.71177E-03-1.17227E-01-2.41170E-15 3.04750E-13
 -1      2851 2.17752E+01-8.60030E-01-5.51829E-03-3.57484E-01-3.79163E-14 1.23817E-13
 -1      2852 2.23413E+01-1.00661E+00-1.22132E-02 6.76548E-01 1.41036E-13 3.54005E-13
 -1      2853 2.23055E+01-9.56218E-01 5.83807E-03 3.93495E-01 5.55122E-14 2.82234E-13
 -1      2854 2.22243E+01-1.14429E+00-2.63502E-03 1.17415E-01 6.35942E-14 3.78992E-14
 -1      2855 2.24969E+01-8.89975E-01-7.22230E-03 1.31004E+00 6.31788E-14 3.67694E-13
 -1      2856 2.25339E+01-9.88564E-01-1.02124E-03 1.02585E+00 1.24863E-13 3.64433E-13
 -1      2857 2.26547E+01-1.24884E+00 3.93300E-03 7.65814E-01 1.02504E-13 2.76576E-13
 -1      2858 2.24445E+01-3.99587E-01 4.38982E-03 1.82193E+00 4.56672E-14 3.43867E-13
 -1      2859 2.25617E+01-7.00680E-01-1.26621E-02 1.63620E+00 1.10184E-13 4.16818E-13
 -1      2860 2.29378E+01-9.95065E-01 1.02186E-02 1.47890E+00 7.39488E-14 1.68103E-13
 -1      2861 2.21546E+01 4.29739E-01 1.80621E-02 1.94423E+00 9.91950E-14 2.13407E-13
 -1      2862 2.23256E+01-2.53373E-02-2.28299E-02 1.97468E+00 1.05826E-13 3.24345E-13
 -1      2863 2.29457E+01-2.66828E-01 1.29055E-02 2.02369E+00 9.76669E-14 1.57473E-13
 -1      2864 2.17462E+01 1.28082E+00 1.95884E-02 1.46821E+00 8.88443E-14 1.85763E-13
 -1      2865 2.19065E+01 8.74566E-01-2.16353E-02 1.77172E+00 3.74236E-14 3.24374E-13
 -1      2866 2.26502E+01 8.14593E-01 7.63727E-03 2.04586E+00 6.41254E-14 2.19351E-13
 -1      2867 2.14506E+01 1.69683E+00-4.60978E-03 5.04961E-01-4.03583E-14 6.75718E-14
 -1      2868 2.15535E+01 1.56365E+00-1.00623E-02 9.82626E-01 9.16055E-14 3.03274E-13
 -1      2869 2.22662E+01 1.76944E+00-6.43426E-03 1.36843E+00 3.54057E-15 2.40666E-13
 -1      2870 2.15058E+01 1.37971E+00-2.13409E-02-5.43148E-01 3.23305E-14-2.01716E-13
 -1      2871 2.14938E+01 1.63277E+00 1.10352E-02-1.16390E-01-1.04240E-14-1.41123E-13
 -1      2872 2.20852E+01 2.07204E+00-4.75385E-03 1.80784E-01 1.24894E-13 1.38226E-13
 -1      2873 2.17914E+01 5.73312E-01-2.43138E-02-1.17006E+00 5.30424E-14-3.40797E-13
 -1      2874 2.17072E+01 1.03212E+00 2.39480E-02-9.57065E-01 1.00432E-14-3.35896E-13
 -1      2875 2.22846E+01 1.53667E+00 6.29418E-03-8.66092E-01 1.30150E-13-2.59032E-13
 -1      2876 2.20441E+01-2.74829E-01-1.81902E-02-1.17362E+00 2.75957E-13-6.40513E-13
 -1      2877 2.19689E+01 1.33330E-01 1.61606E-02-1.22310E+00 2.16188E-13-4.96679E-13
 -1      2878 2.25948E+01 4.41592E-01 1.23514E-02-1.31668E+00 2.98206E-13-7.41796E-13
 -1      2879 2.20577E+01-7.83764E-01-9.10465E-03-7.31930E-01 9.47457E-14-5.70724E-13
 -1      2880 2.20514E+01-5.77275E-01 6.33062E-05-9.49982E-01 1.26204E-13-5.44742E-13
 -1      2881 2.27084E+01-5.40079E-01 1.04803E-02-1.08745E+00 1.67476E-13-9.69369E-13
 -1      2882 2.18030E+01-8.68666E-01-3.60633E-03-1.46516E-01 1.13565E-13-2.31995E-13
 -1      2883 2.18868E+01-8.70370E-01-1.07124E-02-3.99256E-01 1.53816E-13-2.11133E-13
 -1      2884 2.25096E+01-1.03814E+00 7.09604E-03-4.79649E-01-1.49056E-14-6.59346E-13
 -1      2885 2.15090E+01-7.20793E-01 9.81597E-04 3.35093E-01-6.60403E-14-1.41207E-13
 -1      2886 2.16550E+01-8.50706E-01-1.38586E-02 1.34820E-01 7.37333E-14-2.36165E-13
 -1      2887 2.22036E+01-1.08823E+00 1.33519E-02 1.53013E-01 7.27050E-14-2.15659E-13
 -1      2888 2.18397E+01-8.92543E-01 9.37991E-03 6.76737E-01-1.23845E-13-3.84312E-13
 -1      2889 1.79746E+01 1.57276E+00-3.61798E-02 2.50682E+00-1.39175E-13 2.10318E-14
 -1      2890 1.87020E+01 1.27226E+00 3.89386E-02 2.92043E+00-7.29720E-14 1.22116E-14
 -1      2891 2.12899E+01-2.38559E-01 2.60815E-03-2.81558E+00-1.71326E-14-7.44466E-14
 -1      2892 2.10391E+01 1.38478E-01 1.44520E-02-2.75377E+00-1.78845E-13-1.72209E-14
 -1      2893 2.06427E+01 3.70037E-01-9.63213E-03-2.97536E+00-2.77383E-13-3.63499E-13
 -1      2894 2.10743E+01-5.29166E-01-1.16378E-02-3.20076E+00 5.32790E-14-3.54601E-13
 -1      2895 2.05953E+01 5.35655E-02-9.66101E-03 2.92816E+00-3.03902E-15 1.86601E-13
 -1      2896 2.10002E+01-1.88417E-01 1.71885E-02 2.69373E+00 1.68379E-14-1.61573E-13
 -1      2897 1.69401E+01 2.23664E+00-2.61860E-02 1.03342E+00-1.43884E-13-3.65446E-14
 -1      2898 1.73733E+01 2.06594E+00 2.21049E-02 1.79263E+00-5.49062E-14-2.10725E-13
 -1      2899 1.71727E+01 1.31409E+00 2.68676E-02 2.47732E+00-2.31181E-13-1.46506E-13
 -1      2900 1.94041E+01 7.20279E-01-2.87353E-02 3.12049E+00-2.09385E-14 2.13166E-13
 -1      2901 2.00758E+01 4.06375E-01 3.15308E-02 3.14743E+00-1.78280E-14 2.93984E-13
 -1      2902 2.04160E+01-4.57742E-01-1.78914E-02 3.32071E+00-9.66237E-14 2.40785E-13
 -1      2903 1.88526E+01 3.46426E-01-2.42156E-03 3.40753E+00-6.30173E-14 6.76121E-14
 -1      2904 2.87400E+01-3.27076E+00-1.08152E-01 9.04821E-01 3.97602E-13 2.99663E-13
 -1      2905 2.71930E+01-4.85740E+00 1.43440E-02 2.81240E+00 2.79429E-13 1.28023E-13
 -1      2906 1.68678E+01 2.36353E+00 2.02239E-03-8.34596E-01 1.38366E-15 4.66460E-13
 -1      2907 1.67681E+01 2.39751E+00-7.27001E-03 1.14035E-02-1.37399E-13 4.52472E-13
 -1      2908 1.61593E+01 1.91937E+00 3.82091E-02 6.34603E-01 1.03296E-13 2.30470E-13
 -1      2909 1.78142E+01 1.89743E+00 3.97167E-02-2.43098E+00 2.34013E-13 2.94252E-13
 -1      2910 1.72303E+01 2.08723E+00-3.21094E-02-1.78916E+00 1.66893E-13 4.24796E-13
 -1      2911 1.64009E+01 1.80425E+00 3.28699E-02-1.49077E+00 2.81706E-13 5.57721E-13
 -1      2912 1.92169E+01 1.06225E+00 3.02633E-02-3.19284E+00 2.01846E-13-2.41090E-14
 -1      2913 1.84867E+01 1.34763E+00-3.95698E-02-2.95517E+00 2.55659E-13 7.75248E-14
 -1      2914 1.77692E+01 1.08219E+00 7.51114E-03-3.05338E+00 3.28919E-13 2.62787E-13
 -1      2915 2.02838E+01 5.08535E-01 1.38472E-02-3.14647E+00-9.83491E-14-2.96221E-13
 -1      2916 1.97023E+01 7.99344E-01-1.87577E-02-3.22834E+00 4.61891E-14-1.42749E-13
 -1      2917 1.92329E+01 4.12960E-01-6.81057E-03-3.50960E+00 1.30482E-13-2.22975E-13
 -1      2918 2.04294E+01 6.11020E-02 1.02357E-02-3.31785E+00-2.59168E-15-4.08342E-13
 -1      2919 1.37804E+01-3.84625E+00 4.19815E-04 5.82356E+00 2.42376E-13-2.84286E-13
 -1      2920 1.06056E+01-2.47497E+00 1.65621E-01 4.77544E+00 1.86101E-13-4.62436E-13
 -1      2921 2.03200E+01 1.70966E+00-9.82630E-03-1.33194E+00-1.14199E-13-2.72019E-13
 -1      2922 2.02874E+01 1.32806E+00-7.05247E-03-1.03484E+00-1.09118E-13-2.46196E-13
 -1      2923 2.67043E+01-5.43193E+00 6.63733E-02-3.16763E+00 2.55213E-13-7.49706E-13
 -1      2924 2.84536E+01-4.50455E+00-1.38452E-01-1.55351E+00 2.48072E-13-6.58446E-13
 -1      2925 2.89850E+01 4.52249E+00-1.81682E-01-2.61059E+00-4.73926E-13-2.44929E-13
 -1      2926 1.99609E+01 2.31001E-01-7.74225E-04 6.30294E-02 1.00725E-13 1.16667E-13
 -1      2927 2.00265E+01 3.14885E-01 7.82282E-03 1.60772E-01 1.20369E-13 1.23339E-13
 -1      2928 2.00560E+01 2.65674E-01-2.68495E-03 6.10267E-02 1.05244E-13 7.07640E-14
 -1      2929 1.98408E+01 6.79919E-03 1.93875E-04-1.76155E-01 3.83163E-14 5.35763E-14
 -1      2930 1.98408E+01 2.60401E-02 1.78740E-03-1.65050E-01 4.20101E-14 4.22370E-14
 -1      2931 1.99507E+01 5.40054E-02-1.77498E-03-1.45292E-01 5.19973E-14 5.08880E-14
 -1      2932 1.99288E+01 4.39279E-03-1.26351E-03-1.78857E-01 2.87304E-14 3.01268E-14
 -1      2933 2.03187E+01 1.03573E+00 5.01550E-03-8.33738E-01-8.96355E-14-2.17727E-13
 -1      2934 2.02251E+01 7.98633E-01-5.15468E-03-5.93490E-01-7.04788E-14-2.02183E-13
 -1      2935 2.02617E+01 8.78632E-01 2.26606E-03-5.54542E-01-5.69015E-14-2.05849E-13
 -1      2936 2.02795E+01 1.38607E+00 1.95186E-03-9.20018E-01-7.37686E-14-2.50941E-13
 -1      2937 2.00854E+01 2.52664E+00-2.11157E-03-1.45772E+00-7.46103E-14-3.28642E-13
 -1      2938 1.99236E+01 2.59568E+00-7.88493E-03 7.94671E-01 2.63337E-13-1.18061E-13
 -1      2939 1.98798E+01 2.68783E+00-6.12260E-03 6.45649E-01 2.31844E-13-1.58508E-13
 -1      2940 1.99985E+01 2.38813E+00 4.33467E-03 5.16933E-01 2.06650E-13-1.56388E-13
 -1      2941 2.00799E+01 2.19039E+00 5.59790E-03 7.45993E-01 2.30193E-13-8.19117E-14
 -1      2942 2.11243E+01-5.78518E+00 1.18970E-01-6.12372E+00 6.95735E-13-4.30784E-13
 -1      2943 2.40930E+01-6.11706E+00-8.32438E-02-5.08343E+00 5.14352E-13-6.84171E-13
 -1      2944 1.98748E+01 2.69675E+00-5.98453E-03-6.35367E-01 7.27145E-14-3.02776E-13
 -1      2945 1.99177E+01 2.60711E+00-7.57965E-03-7.84483E-01 4.04030E-14-3.07996E-13
 -1      2946 2.85301E+01 6.55308E+00-1.84703E-01 9.32161E-01 5.90916E-13 1.71276E-13
 -1      2947 2.85459E+01 6.72111E+00-1.41426E-01-1.85017E-01 7.85816E-13-1.34330E-13
 -1      2948 2.13323E+01-5.70586E+00-1.03572E-01 4.74562E+00 9.24955E-14-6.70644E-15
 -1      2949 1.79157E+01-4.75827E+00 1.69333E-01 5.49812E+00 2.18894E-13-2.91572E-14
 -1      2950 2.83738E+01 5.32514E+00-2.13036E-01-1.17587E+00 9.64229E-13-9.07746E-14
 -1      2951 2.89093E+01 3.75897E+00-1.16191E-01-1.73929E+00 8.36831E-13-2.88380E-14
 -1      2952 2.81394E+01-3.07524E+00 1.65749E-02-1.46817E+00-2.16278E-13 1.55126E-13
 -1      2953 2.19207E+01-5.54473E+00 1.01851E-01-5.22717E+00-4.13794E-13 2.01665E-13
 -1      2954 2.42528E+01-5.46309E+00-4.68407E-02-4.10870E+00-4.11920E-13 2.05280E-13
 -1      2955 2.96587E+01 4.13224E+00-8.60002E-02 2.27251E+00 1.17323E-13 3.12361E-13
 -1      2956 2.88303E+01 5.49644E+00-1.99228E-01 1.92179E+00 3.95045E-13 4.62463E-13
 -1      2957 1.50888E+01-4.42762E+00 1.57687E-01-6.60115E+00-4.03233E-13-9.27869E-14
 -1      2958 1.85265E+01-5.36152E+00-2.12541E-02-6.41878E+00-3.89244E-13 7.92907E-14
 -1      2959 8.97870E+00-2.41590E+00 1.68218E-01-4.99321E+00-5.27245E-13-2.16521E-13
 -1      2960 1.16220E+01-3.35849E+00 6.53537E-02-6.29286E+00-4.37581E-13-1.16157E-13
 -1      2961 8.24743E+00-1.49380E+00 1.13107E-01 3.34092E+00 4.35901E-14-2.70839E-13
 -1      2962 7.02609E+00-9.98461E-01 1.85686E-01 1.47158E+00-1.54911E-13-3.48221E-13
 -1      2963 5.99828E+00-1.06482E+00 1.16392E-01-6.28145E-01-3.49725E-13-4.54442E-13
 -1      2964 6.73950E+00-1.56518E+00 1.22754E-01-3.32011E+00-4.67765E-13-4.14307E-13
 -1      2965 9.53133E+00-1.23540E+00 1.93729E-01-3.74970E+00-4.84335E-13-2.62401E-13
 -1      2966 8.40355E+00-3.85592E-01 2.02235E-01 1.85501E-01-1.52671E-13-2.91378E-13
 -1      2967 2.73918E+01-4.90702E+00-1.32900E-01 8.11974E-01-1.12372E-13 1.41484E-13
 -1      2968 2.50624E+01-5.48100E+00 1.22060E-01 2.73351E+00 9.45077E-15-1.71668E-14
 -1      2969 2.99926E+01-3.32707E-01-8.23461E-04 9.76164E-01-2.02227E-13 2.27124E-13
 -1      2970 2.99254E+01 1.81223E+00-2.15038E-01 1.90373E+00-1.52628E-13 1.55445E-13
 -1      2971 2.00699E+01 4.15335E-01-1.54730E-03 2.88174E-01 1.60035E-13 1.14627E-13
 -1      2972 2.01711E+01 5.53635E-01 1.04310E-02 4.50837E-01 1.57727E-13 1.35339E-13
 -1      2973 2.02535E+01 8.21389E-01 6.08653E-04 6.17538E-01 1.93627E-13 9.11392E-14
 -1      2974 2.01458E+01 4.76819E-01-2.14599E-03 2.80820E-01 1.46348E-13 9.03527E-14
 -1      2975 2.89996E+01 2.66109E+00-1.98641E-01-3.11367E+00-5.43537E-13 4.21885E-14
 -1      2976 7.93525E+00-6.59409E-01 1.33235E-01 8.12127E-01 3.80453E-13 7.04881E-13
 -1      2977 7.88878E+00-8.52283E-01 1.75760E-01-1.75953E+00 4.50681E-13 1.10534E-12
 -1      2978 2.97858E+01-2.50762E+00-2.59424E-02 2.77534E-01 1.74388E-13-7.96030E-13
 -1      2979 3.04712E+01-8.06022E-01-1.49488E-01 1.09837E+00 1.05853E-13-7.61891E-13
 -1      2980 1.69555E+01-5.08087E+00 3.40557E-02 7.18613E+00-4.44089E-16-1.22152E-13
 -1      2981 1.34828E+01-4.11713E+00 1.80233E-01 6.91352E+00-9.49241E-15-4.77951E-14
 -1      2982 2.93330E+01 1.75045E+00-1.82573E-01-1.57333E+00 7.21354E-13-7.29139E-14
 -1      2983 2.91664E+01-5.52669E-01-7.44206E-02-8.50513E-01 5.51323E-13 1.78191E-13
 -1      2984 2.77940E+01 2.23651E+00-7.91215E-02-1.80639E+00 7.30874E-13-8.83182E-14
 -1      2985 2.69882E+01-3.54846E+00 5.94765E-03-7.17949E-01-1.29160E-13 4.76147E-14
 -1      2986 1.99723E+01 2.48943E+00-5.42125E-03-9.01881E-01 1.61850E-14-3.36246E-13
 -1      2987 2.00332E+01 2.35982E+00-6.76334E-03-1.03622E+00-1.70236E-14-3.38542E-13
 -1      2988 2.00730E+01 2.20477E+00 5.91711E-03-7.39784E-01 2.29053E-14-3.01885E-13
 -1      2989 2.61592E+01-5.34120E+00 2.94669E-03 3.57015E+00 6.73628E-14 4.86625E-14
 -1      2990 2.48003E+01-5.28450E+00 4.81864E-02 4.16670E+00-1.13000E-13-4.81733E-15
 -1      2991 2.66770E+01-4.59804E+00-3.38493E-02 2.17414E+00-4.68375E-16 1.10051E-13
 -1      2992 1.99332E+01 2.53818E+00 3.43644E-03 4.60456E-03 1.44442E-13-2.57845E-13
 -1      2993 1.97941E+01 2.86972E+00-5.48127E-03-6.19080E-02 1.48286E-13-2.79408E-13
 -1      2994 1.98016E+01 2.85509E+00-5.53875E-03-2.16651E-01 1.36076E-13-3.00726E-13
 -1      2995 2.13651E+01-4.24242E-01 5.44396E-03 1.32671E+00-2.29581E-13-5.22610E-13
 -1      2996 2.84267E+01-3.53998E+00-4.67456E-02-2.54442E-01 1.65418E-13-7.24115E-13
 -1      2997 2.56443E+01-5.03514E+00 3.04373E-02-2.94291E+00-5.04166E-13 1.63126E-13
 -1      2998 2.64087E+01-4.59748E+00-1.27642E-01-1.71778E+00-4.47052E-13 3.94150E-13
 -1      2999 2.44799E+01-5.06542E+00 3.23805E-02-3.23301E+00-5.65839E-13 1.93148E-13
 -1      3000 1.38055E+01-2.51619E+00 1.74089E-01-5.69075E+00 8.13571E-13 3.05020E-13
 -1      3001 2.01384E+01-4.81504E+00 1.50312E-01-5.97782E+00 7.32803E-13-4.77687E-13
 -1      3002 2.55471E+01-5.37470E+00 7.08625E-02-3.55571E+00 3.38618E-13-5.67262E-13
 -1      3003 2.47727E+01-4.52055E+00-8.01421E-02 1.65629E+00-1.08524E-14-1.25212E-14
 -1      3004 2.61337E+01-3.82596E+00 4.05513E-02 1.65586E-01-1.20789E-14-6.22766E-15
 -1      3005 2.85865E+01 2.22804E+00-1.11091E-01 2.27306E+00-1.08885E-13 3.66068E-13
 -1      3006 1.01009E+01-6.15898E-01 1.77502E-01-2.56110E+00 5.78572E-13 1.14300E-12
 -1      3007 3.07557E+01 3.14577E+00-1.52094E-01 1.86130E+00 1.46549E-14-6.59944E-13
 -1      3008 2.85569E+01 1.60311E+00-1.16397E-01 2.35362E+00 5.65936E-14-4.10991E-13
 -1      3009 2.83687E+01 1.94661E-01-9.12734E-02 2.02618E+00 3.10585E-14-3.16080E-13
 -1      3010 2.81459E+01-1.61135E+00-6.50821E-02 1.75132E+00-4.86416E-15-2.65510E-13
 -1      3011 2.13867E+01-8.43436E-01-1.30488E-02 2.61904E+00-7.51825E-14-4.01741E-13
 -1      3012 2.12474E+01-2.99980E-01 8.43948E-03 2.27617E+00 2.95419E-14-4.59590E-13
 -1      3013 2.13672E+01-4.58722E-01 7.99628E-04 1.93816E+00-1.27301E-13-6.95349E-13
 -1      3014 2.02905E+01 1.58783E+00-1.13124E-03 1.16618E+00 2.55522E-13 1.13556E-13
 -1      3015 1.11332E+01-1.35709E+00 1.89606E-01 3.76205E+00 6.82301E-14-3.11112E-13
 -1      3016 1.70161E+01-3.57948E+00 1.80033E-01 5.06928E+00 2.53436E-13-8.61117E-14
 -1      3017 1.31002E+01-2.86104E+00 1.93718E-01 5.94666E+00 1.27190E-13 1.12813E-13
 -1      3018 2.01444E+01 2.17302E+00 5.13490E-04-1.20696E+00-5.31963E-14-3.09620E-13
 -1      3019 1.01131E+01-7.56131E-01 5.37375E-02 3.17018E+00 1.54397E-13 6.22169E-13
 -1      3020 9.08195E+00-5.25726E-01 2.42816E-01 1.93792E+00 2.41532E-13 7.03826E-13
 -1      3021 9.91591E+00 1.25116E-01 9.59810E-02 5.03729E-01 1.47834E-13 6.75293E-13
 -1      3022 3.10364E+01 9.30479E-01-1.09342E-01 1.60352E+00 1.23762E-13-8.31224E-13
 -1      3023 1.44665E+01-3.36871E+00 1.45749E-01-6.00023E+00-4.60895E-13-1.07858E-13
 -1      3024 2.02803E+01 1.36643E+00 2.30806E-03 9.20204E-01 2.29566E-13 8.31196E-14
 -1      3025 1.98172E+01 2.81965E+00-5.67772E-03-3.51841E-01 1.21924E-13-2.72565E-13
 -1      3026 1.98413E+01 2.77139E+00-6.15990E-03-5.05458E-01 8.59936E-14-2.83139E-13
 -1      3027 1.99943E+01 2.39591E+00 4.34412E-03-5.07827E-01 7.24367E-14-2.68928E-13
 -1      3028 1.99479E+01 2.50422E+00 3.65846E-03-2.55831E-01 1.15511E-13-2.74986E-13
 -1      3029 2.71279E+01 5.23681E+00-1.28409E-01-7.28285E-01 8.22425E-13 5.50393E-14
 -1      3030 2.35309E+01-5.02286E+00 1.01210E-01 3.15252E+00 2.92960E-14-7.93601E-14
 -1      3031 2.19592E+01-5.31390E+00-4.69312E-03 5.59623E+00-1.11439E-14-1.29461E-13
 -1      3032 1.98441E+01-5.29890E+00 1.19685E-01 6.65687E+00 3.37230E-14-1.54741E-13
 -1      3033 1.84495E+01-4.39004E+00 1.08320E-01 6.53192E+00 9.96564E-14-2.21545E-13
 -1      3034 2.77859E+01 5.54101E+00-1.68313E-01 1.52477E+00 4.23245E-13 2.57822E-13
 -1      3035 2.63729E+01 5.53950E+00-9.49045E-02 1.02741E+00 4.25340E-13 1.03901E-13
 -1      3036 2.68717E+01 4.58477E+00-5.80660E-02 2.08326E+00 2.35742E-13 3.22558E-13
 -1      3037 2.06127E+01-5.08985E+00 8.46606E-02-5.35934E+00-3.71370E-13 2.47852E-13
 -1      3038 2.86661E+01-2.05098E+00-5.29936E-02-3.66465E-01 3.07893E-13 2.20032E-13
 -1      3039 2.74812E+01-3.11577E+00-6.09140E-02 4.09844E-01 1.43916E-13-5.56707E-14
 -1      3040 2.76081E+01-7.69156E-01-9.51914E-02-1.33306E+00 4.05766E-13-1.34476E-14
 -1      3041 2.87393E+01-1.98113E+00-3.71524E-02 3.98877E-01-2.61895E-13 2.70076E-13
 -1      3042 2.58457E+01 5.19847E+00-1.60879E-01-1.74513E-02 7.03215E-13 2.63366E-13
 -1      3043 2.58971E+01 4.28236E+00-8.21186E-02-1.10237E+00 9.60385E-13 1.86396E-13
 -1      3044 2.02398E+01 1.47508E+00-8.01418E-03 8.01372E-01 2.13269E-13 3.33994E-14
 -1      3045 2.02003E+01 1.66959E+00-4.57602E-04 7.46561E-01 2.13198E-13 3.76175E-15
 -1      3046 2.22990E+01-4.14246E+00 7.53698E-02 3.21348E+00 6.24726E-14-5.74263E-14
 -1      3047 2.02209E+01 4.22376E-01 4.00887E-03-1.20904E-01-3.93742E-14-1.25154E-13
 -1      3048 2.01817E+01 3.14726E-01-2.29906E-03-3.60981E-02-4.06889E-14-1.26702E-13
 -1      3049 2.01674E+01 2.31136E-01 3.15396E-03 2.52665E-02-8.85844E-14-1.11165E-13
 -1      3050 2.01372E+01 1.60625E-01-1.30038E-03 7.61490E-02-1.20157E-13-1.35944E-13
 -1      3051 2.02377E+01 3.31226E-01-8.99696E-04-2.71629E-02-5.99308E-14-1.31596E-13
 -1      3052 2.01205E+01 1.06626E-01 2.23305E-03 1.11939E-01-1.13317E-13-1.18070E-13
 -1      3053 2.00994E+01 6.15491E-02-6.23367E-04 1.39070E-01-9.24068E-14-1.25334E-13
 -1      3054 2.01971E+01 1.66950E-01-1.03814E-03 7.54372E-02-1.09718E-13-1.30712E-13
 -1      3055 2.00832E+01 2.76942E-02 1.46535E-03 1.56717E-01-7.11663E-14-1.22002E-13
 -1      3056 2.00696E+01 1.08613E-04-1.84798E-04 1.67969E-01-2.99084E-14-8.87255E-14
 -1      3057 2.01583E+01 6.07981E-02-9.78800E-04 1.33249E-01-8.72155E-14-1.18714E-13
 -1      3058 2.00552E+01-1.99390E-02 8.79214E-04 1.73496E-01-1.49051E-14-8.60156E-14
 -1      3059 2.00474E+01-3.54575E-02 8.88764E-05 1.74686E-01-4.67187E-14-4.87186E-14
 -1      3060 2.01244E+01-4.95976E-03-8.49888E-04 1.59807E-01-2.39142E-14-1.24112E-13
 -1      3061 2.00352E+01-4.59921E-02 4.55158E-04 1.72684E-01-6.72594E-14-1.26575E-14
 -1      3062 2.00315E+01-5.31880E-02 2.54981E-04 1.68021E-01-4.96348E-14-1.58406E-14
 -1      3063 2.00963E+01-4.26345E-02-7.05307E-04 1.65891E-01-1.87274E-14-1.05198E-13
 -1      3064 2.00216E+01-5.71666E-02 1.59348E-04 1.61882E-01-5.14830E-14-6.92609E-15
 -1      3065 2.00207E+01-5.86297E-02 3.53437E-04 1.54368E-01-4.40998E-14-3.06826E-14
 -1      3066 2.00739E+01-6.08156E-02-5.70030E-04 1.59652E-01-5.24540E-14-7.80720E-16
 -1      3067 2.00128E+01-5.80822E-02-4.18963E-05 1.46544E-01-7.35943E-14-2.91081E-14
 -1      3068 2.00140E+01-5.55729E-02 4.12575E-04 1.38312E-01-5.27775E-14-4.99582E-14
 -1      3069 2.00564E+01-6.54903E-02-4.52990E-04 1.47095E-01-5.34339E-14 4.18779E-15
 -1      3070 2.00078E+01-5.18524E-02-1.78211E-04 1.30562E-01-5.06749E-14-8.38116E-14
 -1      3071 2.00104E+01-4.65126E-02 4.52679E-04 1.23140E-01-1.03977E-13-7.97554E-14
 -1      3072 2.00431E+01-6.07538E-02-3.55341E-04 1.32562E-01-6.73931E-14-1.04984E-14
 -1      3073 2.00056E+01-4.04645E-02-2.73899E-04 1.16748E-01-7.69476E-14-7.50508E-14
 -1      3074 2.00092E+01-3.29673E-02 4.88265E-04 1.11265E-01-2.84155E-14-6.32452E-14
 -1      3075 2.00333E+01-4.92843E-02-2.75315E-04 1.19204E-01-6.66042E-14-9.90648E-14
 -1      3076 2.00054E+01-2.50495E-02-3.48432E-04 1.07207E-01-4.69580E-14-1.22243E-13
 -1      3077 2.00099E+01-1.57054E-02 5.29987E-04 1.04560E-01-5.92658E-14-1.27975E-13
 -1      3078 2.00262E+01-3.26809E-02-2.09104E-04 1.09365E-01-8.63925E-14-9.48711E-15
 -1      3079 2.00068E+01-6.07257E-03-4.17805E-04 1.03642E-01-7.58635E-14-1.40357E-13
 -1      3080 2.00122E+01 5.09453E-03 5.85953E-04 1.04612E-01-1.14805E-13-4.59700E-14
 -1      3081 2.00210E+01-1.17091E-02-1.51366E-04 1.04890E-01-5.86670E-14-1.31598E-13
 -1      3082 2.00093E+01 1.65300E-02-4.95432E-04 1.07574E-01-9.39291E-14-1.42512E-14
 -1      3083 2.00155E+01 2.97253E-02 6.61964E-04 1.12931E-01-9.53694E-14 2.35484E-14
 -1      3084 2.00170E+01 1.35216E-02-9.62057E-05 1.07365E-01-7.22451E-14-5.44537E-14
 -1      3085 2.00125E+01 4.32434E-02-5.92940E-04 1.20529E-01-8.89196E-14 4.70141E-14
 -1      3086 2.00196E+01 5.88535E-02 7.61619E-04 1.31100E-01-4.02268E-14 3.04803E-14
 -1      3087 2.00133E+01 4.34228E-02-3.65449E-05 1.18308E-01-7.27951E-14-2.78972E-14
 -1      3088 2.00158E+01 7.48852E-02-7.21108E-04 1.44158E-01 2.32211E-14 5.56665E-14
 -1      3089 2.00239E+01 9.34362E-02 8.86380E-04 1.60877E-01 1.56595E-14 4.62770E-14
 -1      3090 2.00091E+01 7.88138E-02 3.66684E-05 1.39301E-01-1.25746E-14 5.81224E-14
 -1      3091 2.00186E+01 1.12524E-01-8.90482E-04 1.80327E-01-1.15027E-15 9.88292E-15
 -1      3092 2.00278E+01 1.34637E-01 1.03531E-03 2.04264E-01 3.81637E-14 1.69654E-14
 -1      3093 2.00030E+01 1.20820E-01 1.34838E-04 1.72075E-01 7.66162E-15 4.48045E-14
 -1      3094 2.00200E+01 1.57388E-01-1.11161E-03 2.31153E-01 4.77659E-14 5.69984E-14
 -1      3095 2.00302E+01 1.83718E-01 1.20473E-03 2.63515E-01 1.53599E-13-1.63042E-14
 -1      3096 1.99936E+01 1.70764E-01 2.72453E-04 2.18548E-01 2.77741E-14 9.79808E-14
 -1      3097 2.00185E+01 2.10725E-01-1.39494E-03 2.98996E-01 2.08369E-13-1.13203E-13
 -1      3098 2.00295E+01 2.41865E-01 1.38808E-03 3.41102E-01 1.39351E-13-1.59139E-13
 -1      3099 1.99786E+01 2.30022E-01 4.67592E-04 2.80816E-01 1.27987E-13 1.86083E-14
 -1      3100 2.00122E+01 2.73586E-01-1.75003E-03 3.86402E-01 3.00360E-14-1.17562E-13
 -1      3101 2.00233E+01 3.09893E-01 1.57701E-03 4.39616E-01-2.25429E-14-1.33030E-13
 -1      3102 1.99553E+01 2.99797E-01 7.41638E-04 3.61096E-01 1.26553E-13-4.89913E-14
 -1      3103 1.99983E+01 3.46425E-01-2.18370E-03 4.95979E-01 9.49787E-15-1.22855E-13
 -1      3104 2.00086E+01 3.87725E-01 1.76493E-03 5.61597E-01 4.37487E-14-6.66694E-14
 -1      3105 1.99197E+01 3.80735E-01 1.11724E-03 4.61622E-01-1.37411E-14-1.03890E-13
 -1      3106 1.99730E+01 4.28411E-01-2.69625E-03 6.30226E-01 5.13718E-14-1.15045E-13
 -1      3107 1.99813E+01 4.73478E-01 1.95599E-03 7.09304E-01 3.29835E-14-9.53030E-14
 -1      3108 1.98671E+01 4.72280E-01 1.61263E-03 5.84526E-01 7.85749E-14-8.29537E-14
 -1      3109 1.99319E+01 5.16225E-01-3.27496E-03 7.91329E-01 9.54262E-14-5.06708E-14
 -1      3110 1.99371E+01 5.61908E-01 2.18360E-03 8.84459E-01 1.45861E-13 4.44273E-14
 -1      3111 1.97913E+01 5.71572E-01 2.22902E-03 7.31749E-01 1.11062E-13-1.78090E-13
 -1      3112 1.98706E+01 6.02049E-01-3.88252E-03 9.81012E-01 1.36183E-13 5.62049E-14
 -1      3113 1.98724E+01 6.41842E-01 2.54454E-03 1.08807E+00 8.71104E-14 1.13600E-13
 -1      3114 1.96857E+01 6.71632E-01 2.92555E-03 9.05148E-01 1.57234E-13-1.46570E-14
 -1      3115 1.97864E+01 6.70328E-01-4.43501E-03 1.20058E+00 3.89492E-14 2.07448E-13
 -1      3116 1.97873E+01 6.92166E-01 3.25523E-03 1.32050E+00 1.07933E-14 2.02209E-13
 -1      3117 1.95442E+01 7.58471E-01 3.57341E-03 1.10703E+00 1.41853E-13 5.24912E-14
 -1      3118 1.96828E+01 6.92865E-01-4.74903E-03 1.45142E+00-8.65998E-14 2.56422E-13
 -1      3119 1.96919E+01 6.75943E-01 4.73690E-03 1.58197E+00-1.95519E-14 2.91884E-13
 -1      3120 1.93640E+01 8.06681E-01 3.87875E-03 1.34152E+00-4.69252E-15 2.25097E-13
 -1      3121 1.95772E+01 6.21990E-01-4.37550E-03 1.73592E+00 2.13787E-14 1.68955E-13
 -1      3122 1.96165E+01 5.32622E-01 7.72996E-03 1.87326E+00 1.25732E-14 2.09958E-13
 -1      3123 1.91515E+01 7.73034E-01 3.27193E-03 1.61726E+00-1.68048E-14 2.15721E-13
 -1      3124 1.95155E+01 3.82413E-01-2.08283E-03 2.05802E+00-3.51330E-15 2.06119E-13
 -1      3125 1.96314E+01 1.70290E-01 1.36861E-02 2.19436E+00 1.50605E-14 1.59386E-13
 -1      3126 1.89332E+01 5.87639E-01 8.45977E-04 1.95125E+00-6.28464E-14 9.07587E-14
 -1      3127 1.95987E+01-1.35789E-01 4.98985E-03 2.42043E+00 5.23062E-15 9.14032E-14
 -1      3128 1.98719E+01-5.38883E-01 2.28836E-02 2.53484E+00-1.33012E-13 4.04332E-14
 -1      3129 1.87745E+01 1.46163E-01-4.13205E-03 2.37167E+00-6.14674E-14-1.35316E-13
 -1      3130 2.00379E+01-1.08093E+00 2.26149E-02 2.78996E+00-5.23083E-14 1.51535E-13
 -1      3131 2.06210E+01-1.71192E+00 4.72457E-02 2.81090E+00 1.28295E-13 1.24624E-13
 -1      3132 1.88421E+01-7.01364E-01-4.82248E-03 2.92518E+00 1.34023E-14-7.64666E-15
 -1      3133 2.07753E+01-2.42175E+00 4.32321E-02 3.12787E+00 4.86750E-14 1.32624E-14
 -1      3134 2.18022E+01-3.21745E+00 7.52598E-02 2.97758E+00 1.92485E-14-4.13463E-14
 -1      3135 1.95940E+01-3.88065E+00-6.06239E-02 4.42176E+00 3.34871E-14 2.10942E-15
 -1      3136 1.90894E+01-2.06941E+00-3.30782E-02 3.62240E+00 5.50913E-14-5.77281E-14
 -1      3137 1.34056E+01-1.22677E+00 1.30695E-01-4.73874E+00 7.32470E-13 6.24695E-13
 -1      3138 1.58977E+01-2.65632E+00-2.07199E-02-5.83252E+00 6.02143E-13-1.43302E-13
 -1      3139 1.37332E+01-2.38283E+00 1.00541E-01-5.35677E+00-4.83003E-13-2.06959E-13
 -1      3140 1.65247E+01-3.69860E+00 6.30575E-03-5.83272E+00-3.71092E-13-5.90777E-14
 -1      3141 2.83303E+01-2.97898E+00-8.52603E-02 4.66278E-01 1.18971E-13-6.51409E-13
 -1      3142 2.34847E+01-3.87193E+00 4.88921E-02-3.48497E+00 3.64653E-13-3.52863E-13
 -1      3143 2.23572E+01-3.00471E+00 7.25423E-02-3.81643E+00 4.39067E-13-4.95354E-13
 -1      3144 2.15923E+01-2.10870E+00 2.74497E-02-3.72449E+00 3.21204E-13-4.89691E-13
 -1      3145 2.09111E+01-1.23927E+00 2.82658E-02-3.73374E+00 2.18239E-13-4.54578E-13
 -1      3146 2.07813E+01-2.70194E+00-4.83160E-02-4.53103E+00 3.46320E-13-3.05072E-13
 -1      3147 2.00725E+01 1.50283E-01-1.12678E-03-7.57904E-02 9.53623E-14 3.70313E-14
 -1      3148 2.01051E+01 2.15535E-01 3.69210E-03-2.23696E-02 1.16434E-13 5.74198E-14
 -1      3149 1.99834E+01-4.62012E-02 2.62296E-04-1.74116E-01 6.85426E-14-1.89603E-14
 -1      3150 1.99828E+01-3.93993E-02 4.35082E-04-1.79115E-01 3.39403E-14-3.80214E-14
 -1      3151 1.99922E+01-2.96195E-02 1.25694E-04-1.81060E-01 4.53547E-14-1.52733E-14
 -1      3152 1.99960E+01-1.52922E-02 9.08128E-04-1.79991E-01 3.85284E-14 7.19975E-15
 -1      3153 2.00492E+01-3.66376E-02-7.50091E-04-1.75314E-01 6.09916E-14-3.00877E-14
 -1      3154 1.99799E+01-4.97884E-02 3.89179E-04-1.42517E-01 2.73002E-14 4.94273E-14
 -1      3155 1.99749E+01-5.16651E-02-9.38454E-05-1.51324E-01 9.90386E-14 3.63367E-14
 -1      3156 1.99826E+01-4.25491E-02 4.23748E-04-1.25982E-01 2.30290E-14 1.20379E-13
 -1      3157 1.99766E+01-4.68961E-02-2.26283E-04-1.34083E-01-2.33270E-14 7.54234E-14
 -1      3158 2.00140E+01-5.59211E-02-3.22134E-04-1.39256E-01-2.41236E-15-1.62058E-15
 -1      3159 1.99872E+01-3.14985E-02 4.58236E-04-1.12502E-01 8.08254E-14 1.29732E-13
 -1      3160 1.99806E+01-3.76633E-02-3.09411E-04-1.18794E-01 9.55181E-14 1.63212E-13
 -1      3161 2.00098E+01-4.65418E-02-2.43863E-04-1.24233E-01 4.19167E-14 1.06948E-15
 -1      3162 1.99933E+01-1.74520E-02 5.01648E-04-1.03904E-01 1.09702E-13 9.52105E-14
 -1      3163 1.99861E+01-2.50837E-02-3.64174E-04-1.07542E-01 7.81443E-14 1.23467E-13
 -1      3164 2.00080E+01-3.27421E-02-1.88187E-04-1.12537E-01 8.08538E-14 4.92382E-14
 -1      3165 2.00008E+01-7.65756E-04 5.60683E-04-1.01667E-01 1.03269E-13 9.47447E-14
 -1      3166 1.99929E+01-9.73175E-03-4.06145E-04-1.01951E-01 1.26000E-13 1.07889E-13
 -1      3167 2.00080E+01-1.53929E-02-1.50712E-04-1.06013E-01 8.82681E-14 1.82597E-14
 -1      3168 2.00097E+01 1.85176E-02 6.40132E-04-1.07114E-01 1.05443E-13 6.69015E-14
 -1      3169 2.00009E+01 8.20476E-03-4.46613E-04-1.03405E-01 1.14246E-13 7.61238E-14
 -1      3170 2.00093E+01 5.14831E-03-1.26168E-04-1.06185E-01 1.20840E-13 6.03930E-14
 -1      3171 2.00203E+01 4.05282E-02 7.42734E-04-1.21528E-01 3.15897E-14-1.76047E-14
 -1      3172 2.00102E+01 2.87842E-02-4.93153E-04-1.13197E-01 1.05316E-13 4.83894E-14
 -1      3173 2.00118E+01 2.88608E-02-1.10681E-04-1.14438E-01 8.42438E-14-2.50118E-14
 -1      3174 2.00329E+01 6.54144E-02 8.68744E-04-1.46217E-01 1.80274E-14-2.95019E-14
 -1      3175 2.00210E+01 5.21649E-02-5.49799E-04-1.32627E-01-1.94102E-14-1.29212E-14
 -1      3176 2.00151E+01 5.58899E-02-1.01565E-04-1.32132E-01 3.71922E-16-2.93172E-14
 -1      3177 2.00480E+01 9.31564E-02 1.01560E-03-1.82499E-01-1.13934E-14-1.33879E-14
 -1      3178 2.00338E+01 7.84383E-02-6.16597E-04-1.63022E-01 3.69784E-14 4.29259E-14
 -1      3179 2.00191E+01 8.63558E-02-9.77547E-05-1.60649E-01-2.81275E-14 3.54091E-15
 -1      3180 2.00665E+01 1.23322E-01 1.17710E-03-2.31612E-01 5.18435E-14 1.04129E-13
 -1      3181 2.00492E+01 1.07417E-01-6.88447E-04-2.05697E-01 2.68710E-14 4.21763E-14
 -1      3182 2.00239E+01 1.20118E-01-1.00576E-04-2.01388E-01-1.81376E-14 7.62698E-14
 -1      3183 2.00892E+01 1.54741E-01 1.34251E-03-2.94523E-01-9.25422E-14 2.03501E-13
 -1      3184 2.00681E+01 1.38355E-01-7.53207E-04-2.61813E-01-1.97138E-14 1.59561E-13
 -1      3185 2.00297E+01 1.56469E-01-1.15578E-04-2.55665E-01-6.70341E-14 1.94607E-13
 -1      3186 2.01176E+01 1.85066E-01 1.49568E-03-3.71618E-01-1.55738E-13 1.50191E-13
 -1      3187 2.00917E+01 1.69568E-01-7.88675E-04-3.32142E-01-8.49859E-14 1.39955E-13
 -1      3188 2.00371E+01 1.93724E-01-1.55276E-04-3.24532E-01-6.67058E-14 1.14191E-13
 -1      3189 2.01540E+01 2.10206E-01 1.61391E-03-4.62229E-01 1.11487E-14-7.27649E-14
 -1      3190 2.01221E+01 1.97937E-01-7.58378E-04-4.16679E-01-5.20169E-14 6.05688E-14
 -1      3191 2.00472E+01 2.28684E-01-2.43447E-04-4.08483E-01-1.69937E-14 1.69070E-14
 -1      3192 2.02018E+01 2.23628E-01 1.66675E-03-5.63980E-01-2.56974E-15-2.57271E-13
 -1      3193 2.01622E+01 2.18272E-01-6.06037E-04-5.14096E-01 2.26936E-14-1.77654E-13
 -1      3194 2.00626E+01 2.55946E-01-4.21285E-04-5.07017E-01 9.40212E-14-1.28002E-13
 -1      3195 2.02664E+01 2.15596E-01 1.61297E-03-6.71898E-01-1.35889E-13-1.03101E-13
 -1      3196 2.02168E+01 2.22571E-01-2.48983E-04-6.20970E-01-8.89248E-14-1.94062E-13
 -1      3197 2.00874E+01 2.67075E-01-7.55304E-04-6.18035E-01-4.43629E-14-1.66783E-13
 -1      3198 2.03562E+01 1.72543E-01 1.39300E-03-7.77263E-01-9.15359E-14-1.55530E-13
 -1      3199 2.02933E+01 1.99295E-01 4.28068E-04-7.30760E-01-7.53010E-14-1.34167E-13
 -1      3200 2.01287E+01 2.49747E-01-1.34564E-03-7.37014E-01-1.33059E-13-1.30459E-13
 -1      3201 2.04838E+01 7.70641E-02 9.10417E-04-8.66130E-01-8.28948E-14-1.32024E-13
 -1      3202 2.04030E+01 1.32964E-01 1.57434E-03-8.32437E-01-9.24768E-14-1.11750E-13
 -1      3203 2.01984E+01 1.87108E-01-2.33018E-03-8.55852E-01-6.25457E-14-1.54680E-13
 -1      3204 2.06669E+01-9.05006E-02 6.65862E-08-9.17519E-01-1.64260E-13 3.06685E-14
 -1      3205 2.05624E+01 4.77794E-03 3.35673E-03-9.08699E-01-1.13697E-13-4.64289E-14
 -1      3206 2.03141E+01 5.79869E-02-3.87253E-03-9.61215E-01-1.31775E-13 3.50686E-14
 -1      3207 2.09277E+01-3.47041E-01-1.60373E-03-9.01416E-01-1.48551E-13 1.00010E-13
 -1      3208 2.07934E+01-2.04390E-01 5.90208E-03-9.33740E-01-1.54912E-13 4.22658E-14
 -1      3209 2.05017E+01-1.60756E-01-6.10271E-03-1.03207E+00-2.04405E-13-7.00721E-14
 -1      3210 2.12893E+01-6.95426E-01-4.16701E-03-7.77405E-01-1.16740E-13 1.75415E-13
 -1      3211 2.11215E+01-5.06348E-01 9.14106E-03-8.70972E-01-6.15149E-14 1.59428E-13
 -1      3212 2.07948E+01-4.87323E-01-8.95775E-03-1.03622E+00-1.68159E-13 2.91536E-14
 -1      3213 2.17645E+01-1.10488E+00-7.93595E-03-4.96870E-01 8.72371E-14-1.84615E-14
 -1      3214 2.15677E+01-8.90292E-01 1.26249E-02-6.72631E-01-5.86766E-14 3.72316E-14
 -1      3215 2.12298E+01-9.19884E-01-1.18445E-02-9.26677E-01-1.88929E-14-8.24861E-15
 -1      3216 2.23363E+01-1.47842E+00-1.17214E-02-1.18495E-02 9.24321E-14 2.27164E-14
 -1      3217 2.21325E+01-1.29861E+00 1.50951E-02-2.83548E-01 8.51709E-14 3.47417E-14
 -1      3218 2.18330E+01-1.41218E+00-1.33908E-02-6.41621E-01 6.22196E-14 1.19556E-13
 -1      3219 2.29241E+01-1.62206E+00-1.35892E-02 6.89965E-01 1.27065E-13 8.54184E-14
 -1      3220 2.27606E+01-1.58913E+00 1.35910E-02 3.37882E-01 9.96456E-14 3.04729E-14
 -1      3221 2.25940E+01-1.82978E+00-1.01711E-02-1.05242E-01 6.78116E-14 5.76000E-14
 -1      3222 2.33772E+01-1.26080E+00-6.70285E-03 1.50412E+00 9.10092E-14-1.24542E-14
 -1      3223 2.32964E+01-1.51803E+00-1.78010E-04 1.15166E+00 1.57373E-13 5.19654E-14
 -1      3224 2.34008E+01-1.89087E+00 2.70749E-03 7.04066E-01 1.61423E-13-1.01823E-13
 -1      3225 2.35173E+01-2.22491E-01 1.05569E-02 2.11294E+00-1.95703E-14 7.39866E-14
 -1      3226 2.35260E+01-8.47968E-01-3.28863E-02 1.91767E+00 3.13942E-14-3.69500E-14
 -1      3227 2.39378E+01-1.30764E+00-1.63842E-02 1.68004E+00 7.77919E-14-1.46977E-13
 -1      3228 2.32479E+01 1.31766E+00 1.81976E-02 2.15846E+00-1.45136E-13 3.98227E-13
 -1      3229 2.33885E+01 4.94791E-01-4.43737E-02 2.29225E+00-1.47514E-13 3.20316E-13
 -1      3230 2.41977E+01-5.08181E-03 7.67951E-03 2.30305E+00-2.69502E-13 2.05991E-13
 -1      3231 2.28250E+01 2.58494E+00 3.75253E-04 1.29243E+00 5.12992E-14 4.13019E-13
 -1      3232 2.29573E+01 2.00533E+00-5.31307E-02 1.74487E+00-9.68123E-14 3.98578E-13
 -1      3233 2.38667E+01 2.05610E+00-2.22810E-03 2.17362E+00-1.65909E-13 4.15366E-13
 -1      3234 2.33398E+01 3.00657E+00-5.26701E-02-4.12745E-01 4.72662E-13 4.68419E-14
 -1      3235 2.32958E+01 3.22303E+00-4.71775E-02 2.48471E-01 5.04225E-13 2.15423E-13
 -1      3236 2.34001E+01 9.56538E-03-2.77571E-02-1.44394E+00 4.42188E-13-6.51938E-13
 -1      3237 2.32898E+01 7.67675E-01 1.14672E-02-1.40080E+00 3.38252E-13-6.36502E-13
 -1      3238 2.33652E+01-1.08594E+00-1.07838E-02-8.98608E-01 5.37287E-15-6.67084E-13
 -1      3239 2.33845E+01-6.25851E-01-2.05650E-03-1.13552E+00 3.51765E-13-7.11952E-13
 -1      3240 2.41744E+01-4.24583E-01-2.48139E-02-1.38084E+00 2.96721E-13-3.64907E-13
 -1      3241 2.29142E+01-1.47077E+00-4.80643E-03-8.21641E-02-1.95831E-13-4.44650E-13
 -1      3242 2.30839E+01-1.38074E+00-1.71771E-02-4.13990E-01-2.29465E-13-7.21791E-13
 -1      3243 2.38247E+01-1.56631E+00-1.89246E-02-5.15301E-01-9.75149E-14-4.07958E-13
 -1      3244 2.06922E+01-4.10103E-01 1.84326E-02-3.39963E+00 9.92748E-14-4.34831E-13
 -1      3245 1.30767E+01-1.57068E+00 1.37054E-02 4.27287E+00 2.31551E-14-3.54758E-13
 -1      3246 1.11080E+01-4.34025E-01 9.21333E-02 2.75671E+00-3.15824E-14-1.80883E-13
 -1      3247 2.00452E+01 2.16013E+00-4.29705E-03 2.92840E-01 1.66627E-13-2.01201E-13
 -1      3248 2.00320E+01 2.19892E+00-3.31401E-03 1.71018E-01 1.42667E-13-2.33056E-13
 -1      3249 1.56291E+01 1.30671E+00 3.22773E-02-2.20110E+00 3.09423E-13 7.03004E-13
 -1      3250 1.50622E+01 1.52712E+00 7.17651E-03-1.25676E+00 1.90589E-13 6.72871E-13
 -1      3251 1.59517E+01 1.01996E+00-3.28938E-02 2.49836E+00-1.53504E-13-3.70745E-14
 -1      3252 1.70335E+01 6.86275E-01 6.74796E-02 3.25168E+00-3.07757E-13-3.26857E-14
 -1      3253 1.73946E+01-2.80462E-01 4.05003E-02-4.14598E+00 3.74199E-13 2.62299E-14
 -1      3254 1.60737E+01 2.34558E-01 9.79399E-03-3.58227E+00 4.73327E-13 2.58470E-13
 -1      3255 1.48666E+01 1.57594E+00-2.63002E-03 2.36442E-01 9.25475E-14 3.94665E-13
 -1      3256 1.52242E+01 1.47490E+00 3.92230E-02 1.31127E+00 8.73880E-14 1.86830E-14
 -1      3257 1.39642E+01 1.20120E+00 3.28761E-02-6.00723E-01 9.43447E-14 5.56465E-13
 -1      3258 2.61961E+01 2.47524E+00-1.23755E-01-1.72957E+00 7.32657E-13 5.84532E-14
 -1      3259 2.69790E+01 9.93450E-01-2.73892E-02-1.86170E+00 5.61877E-13-2.88450E-14
 -1      3260 2.16972E+01-8.70695E-01-5.56763E-03 1.52792E+00-1.63943E-13-4.42197E-13
 -1      3261 1.65695E+01-2.59994E+00 9.60251E-02 4.57796E+00 1.00257E-13-1.55077E-13
 -1      3262 1.99798E+01-5.17721E-02 3.41398E-04-1.59684E-01 1.07158E-13 1.99230E-14
 -1      3263 1.99765E+01-5.01168E-02 1.15143E-04-1.67669E-01 1.00731E-13 3.26783E-14
 -1      3264 2.00327E+01-5.41513E-02-5.69799E-04-1.68752E-01 4.00680E-14-3.50102E-14
 -1      3265 2.00213E+01-5.93028E-02-4.28623E-04-1.55195E-01 8.40177E-14 3.16901E-14
 -1      3266 2.01242E+01 2.93041E-01-1.99044E-03 4.48277E-02 1.30785E-13 3.98153E-14
 -1      3267 2.01695E+01 3.94059E-01 4.36189E-03 1.35015E-01 1.24680E-13 5.49731E-14
 -1      3268 2.01896E+01 3.15219E-01-1.55480E-03 3.69455E-02 1.25260E-13 2.08145E-14
 -1      3269 2.02672E+01 7.12758E-01 3.37788E-03-3.46663E-01-4.02043E-14-2.12736E-13
 -1      3270 2.02264E+01 5.51232E-01-3.40755E-03-2.15469E-01-3.20067E-14-1.96523E-13
 -1      3271 2.02724E+01 5.78562E-01-4.80119E-04-1.89290E-01-3.09041E-15-1.88498E-13
 -1      3272 1.53002E+01-2.92640E+00 4.97889E-02 6.25701E+00 1.47243E-14-2.42681E-13
 -1      3273 1.27519E+01-1.52338E+00 1.85131E-01 5.06481E+00 1.65729E-13 1.15588E-13
 -1      3274 2.80146E+01 9.08001E-01 4.62533E-03 2.45422E+00-3.32567E-13 3.39340E-13
 -1      3275 2.71277E+01 2.62460E+00-1.86853E-01 2.49972E+00-4.47420E-14 4.29309E-13
 -1      3276 1.94123E+01-4.41888E+00 1.10096E-01-5.37154E+00-3.32345E-13 2.07015E-13
 -1      3277 2.19381E+01-5.00376E+00-2.16488E-02-4.46330E+00-3.57853E-13 2.57816E-13
 -1      3278 2.02896E+01 9.89613E-01-7.78149E-04 6.90320E-01 2.04144E-13 8.39377E-14
 -1      3279 2.02685E+01 1.31121E+00 4.57486E-03 7.73621E-01 2.12940E-13 6.27507E-14
 -1      3280 2.02832E+01 1.13070E+00 5.35243E-03 5.97669E-01 1.85567E-13 5.29148E-14
 -1      3281 2.02319E+01 7.75622E-01-3.85037E-03 4.83200E-01 1.79378E-13 7.85514E-14
 -1      3282 1.11485E+01 1.33515E-01 1.46708E-01-1.76192E+00 4.32869E-13 9.62716E-13
 -1      3283 1.16802E+01-5.28151E-01 9.03507E-02-3.65001E+00 6.64149E-13 1.07252E-12
 -1      3284 1.94667E+01-3.68881E+00 1.14799E-01-5.61261E+00 4.63171E-13-3.01890E-13
 -1      3285 2.22513E+01-4.83393E+00-5.12217E-02-5.01856E+00 4.79457E-13-2.08972E-13
 -1      3286 2.97152E+01-3.22810E-01-1.02676E-01 1.72856E+00 1.61052E-13-6.86590E-13
 -1      3287 2.01968E+01 1.89098E+00 1.07032E-03-1.00717E+00-4.16671E-14-2.87983E-13
 -1      3288 2.77579E+01-3.17743E+00 2.48256E-02-7.28399E-02-3.19326E-13 3.35121E-13
 -1      3289 2.78821E+01-1.40648E+00-1.84961E-01 1.41396E+00-2.98074E-13 3.30153E-13
 -1      3290 2.72025E+01-3.74157E+00-6.73352E-04 9.36353E-01 2.18753E-14-7.29521E-14
 -1      3291 2.62495E+01-4.08605E+00-4.43811E-03 1.69247E+00-3.05173E-14-4.03445E-14
 -1      3292 2.68436E+01-2.67150E+00-8.22200E-02-2.52056E-01 1.17746E-13 8.63754E-14
 -1      3293 2.00249E+01 2.21770E+00-3.67541E-03 6.60064E-02 1.38143E-13-2.46659E-13
 -1      3294 2.00246E+01 2.21860E+00-3.62934E-03-5.81277E-02 1.17381E-13-2.51587E-13
 -1      3295 2.01391E+01 1.92182E+00 4.96327E-03 1.01582E-01 1.17528E-13-2.28792E-13
 -1      3296 2.02511E+01 1.46194E+00 6.26453E-03 5.86754E-01 1.94670E-13-2.04842E-14
 -1      3297 2.01589E+01 1.80078E+00-6.98230E-03 6.85886E-01 2.04391E-13-7.06565E-14
 -1      3298 2.01238E+01 1.93040E+00-2.49936E-03 5.90270E-01 2.11269E-13-1.12736E-13
 -1      3299 1.39987E+01-4.69330E-01 7.35331E-02-3.92357E+00 6.17922E-13 6.48606E-13
 -1      3300 2.32226E+01-4.93941E+00 3.86130E-02-3.69928E+00-3.65513E-13 1.99911E-13
 -1      3301 2.40858E+01-4.70853E+00-4.49341E-02-2.70079E+00-3.66523E-13 1.92610E-13
 -1      3302 2.19250E+01-4.53970E+00-8.75552E-03-3.93312E+00-2.35992E-13 1.96374E-13
 -1      3303 1.27752E+01-6.57410E-01 1.44816E-01 3.76096E+00 1.42664E-14 2.36047E-13
 -1      3304 1.22496E+01-1.47938E+00 9.91467E-02-4.76470E+00-4.11546E-13-2.16167E-13
 -1      3305 1.44922E+01-1.71164E+00 9.60085E-02-4.62140E+00-4.26253E-13-2.21573E-13
 -1      3306 1.85121E+01-3.58219E+00 8.08376E-02-5.01955E+00-3.46272E-13 1.53835E-13
 -1      3307 2.43000E+01-4.73144E+00 6.30461E-02-3.57190E+00 3.56663E-13-3.76600E-13
 -1      3308 2.02858E+01 1.10285E+00-6.56440E-04-6.31804E-01-3.40585E-14-2.48051E-13
 -1      3309 2.02568E+01 8.92368E-01-4.34682E-03-4.64131E-01-4.07281E-14-2.34359E-13
 -1      3310 2.02874E+01 9.28814E-01 1.83034E-03-4.09277E-01-1.84067E-14-2.42238E-13
 -1      3311 1.63631E+01-1.59536E+00 1.01432E-01 3.89106E+00-7.18869E-14-2.53866E-13
 -1      3312 2.00375E+01-6.48076E-01 8.26985E-03-3.88360E+00 1.39747E-13-4.69284E-13
 -1      3313 2.00543E+01 1.00813E-01 2.51420E-03-1.14887E-01 7.07389E-14 5.83793E-14
 -1      3314 2.01428E+01 1.60335E-01-1.38176E-03-7.59016E-02 7.21751E-14 3.43604E-14
 -1      3315 2.00343E+01 5.93077E-02-5.05281E-04-1.43036E-01 3.84862E-14 4.89294E-14
 -1      3316 2.02175E+01 1.56809E+00-1.95352E-03-8.08044E-01-3.65276E-14-2.71841E-13
 -1      3317 2.00724E+01-1.14218E-03-9.65007E-04-1.68453E-01 5.04920E-14 2.05748E-14
 -1      3318 2.00084E+01 3.05530E-03-1.09558E-04-1.73822E-01 2.45669E-14 2.87089E-14
 -1      3319 2.00188E+01 2.83982E-02 1.58455E-03-1.62306E-01 3.28381E-14 2.07475E-14
 -1      3320 2.41430E+01 3.77891E+00-4.70056E-02 7.49076E-01 4.82461E-13 3.05221E-13
 -1      3321 2.31215E+01 2.14861E+00-4.49192E-03-9.18805E-01 3.61652E-13-2.74718E-13
 -1      3322 2.45128E+01 3.25780E+00-3.19075E-02-1.09901E+00 7.31817E-13-4.47767E-14
 -1      3323 2.55507E+01 2.84221E+00-1.04457E-01-1.58010E+00 7.67365E-13 7.54362E-14
 -1      3324 2.32630E+01 1.46852E+00-5.11937E-02-1.34006E+00 3.51832E-13-4.39950E-13
 -1      3325 2.42439E+01 1.23823E+00-5.99588E-03-1.60276E+00 4.79202E-13-4.83646E-13
 -1      3326 2.26597E+01-1.49878E+00-1.31984E-02 3.31777E-01-1.02058E-13-3.97524E-13
 -1      3327 2.33141E+01-1.82163E+00 1.50823E-02 3.98617E-01-2.66566E-13-5.02177E-13
 -1      3328 2.25236E+01-1.45907E+00-6.84792E-03 6.18097E-01-9.05066E-14-3.28746E-13
 -1      3329 2.00655E+01 2.10478E+00-3.06061E-03 3.91448E-01 1.82210E-13-1.52321E-13
 -1      3330 2.01613E+01 1.84706E+00 5.24013E-03 2.91301E-01 1.57877E-13-1.63058E-13
 -1      3331 2.00907E+01 2.02454E+00-5.40909E-03 5.04805E-01 2.09699E-13-1.21803E-13
 -1      3332 2.03808E+01-1.04232E+00-2.12313E-02 3.68771E+00 1.96826E-14 2.87160E-14
 -1      3333 2.11899E+01-1.26701E+00 2.88768E-02 3.41395E+00 1.15577E-13 1.31243E-14
 -1      3334 2.21149E+01-1.21577E+00 7.98870E-03 1.32335E+00-2.12399E-13-5.21914E-13
 -1      3335 2.23323E+01-1.42354E+00-7.46823E-03 1.09809E+00-8.01769E-14-4.60368E-13
 -1      3336 2.20863E+01-1.28134E+00 6.85663E-03 2.00342E+00-2.12216E-13-5.87777E-13
 -1      3337 2.66077E+01-2.04569E-01-4.02219E-03-1.46628E+00 4.87374E-13-3.20646E-14
 -1      3338 1.81314E+01-1.52409E-01-3.71794E-02 3.77503E+00-3.32782E-13-1.34301E-13
 -1      3339 1.93595E+01-5.25416E-01 5.83067E-02 3.95011E+00-1.52595E-13 5.86456E-15
 -1      3340 2.00341E+01-1.52510E+00 1.88121E-02 4.18399E+00-8.66147E-14-2.14720E-14
 -1      3341 1.49257E+01 8.93539E-01 7.18590E-02 2.17432E+00-8.09908E-14 1.69994E-13
 -1      3342 1.93914E+01-4.16777E-01 1.00929E-02-3.84330E+00 2.47326E-13-2.23526E-13
 -1      3343 1.82265E+01-1.46617E+00 4.54496E-02-4.71469E+00 4.03330E-13-2.03854E-13
 -1      3344 1.23934E+01 1.50587E-01 8.24621E-02 1.97472E+00 3.58324E-14-1.74583E-13
 -1      3345 1.03355E+01 1.72703E-01 7.33700E-02 1.51630E+00 5.32699E-14-7.04714E-14
 -1      3346 2.01761E+01 4.88468E-01-2.08415E-03 2.21460E-01 1.34361E-13 5.91714E-14
 -1      3347 2.02324E+01 6.34679E-01 4.14426E-03 3.62774E-01 1.57130E-13 5.25369E-14
 -1      3348 2.02561E+01 7.76602E-01-4.83857E-03 4.20038E-01 1.65238E-13 4.81127E-14
 -1      3349 2.02288E+01 5.23517E-01-1.37988E-03 2.00196E-01 1.35698E-13 3.24803E-14
 -1      3350 9.62319E+00 2.58853E-01 1.06920E-01-5.25547E-01-8.59434E-14-2.66440E-13
 -1      3351 2.67028E+01-3.75677E+00 2.35858E-02-6.24737E-01-4.23810E-13 3.16809E-13
 -1      3352 2.71821E+01-6.69725E-01-3.05725E-02 1.93385E+00-3.98140E-13 5.57311E-13
 -1      3353 2.16290E+01-1.33767E+00 2.07562E-04 2.94350E+00 1.18979E-14-1.23421E-14
 -1      3354 2.19861E+01-1.41981E+00 1.03085E-02 2.49941E+00-1.54432E-13-3.13814E-13
 -1      3355 2.23700E+01-1.85336E+00-5.94181E-03 2.33440E+00-7.99209E-14-5.27484E-13
 -1      3356 2.16485E+01-1.96142E+00-2.01943E-02 3.35286E+00 1.48430E-13 1.01402E-13
 -1      3357 2.36916E+01-5.17537E+00 5.78355E-02 4.70281E+00 1.68823E-14-2.59376E-14
 -1      3358 2.21611E+01-4.61050E+00 3.81056E-02 5.06549E+00 6.97498E-14-1.24536E-13
 -1      3359 2.46917E+01-4.77567E+00 6.63392E-03 3.49903E+00-1.62578E-14 6.67244E-14
 -1      3360 1.77782E+01-3.30738E+00 8.17268E-02 5.88365E+00 2.68605E-14-1.99833E-13
 -1      3361 1.88522E+01-2.52815E+00 1.02175E-01-5.10409E+00 3.63667E-13-8.74422E-14
 -1      3362 2.01203E+01 1.93994E+00-2.37592E-03-5.84183E-01 4.16440E-14-2.58660E-13
 -1      3363 2.01565E+01 1.80883E+00-7.36288E-03-6.82905E-01 6.05099E-15-2.80936E-13
 -1      3364 1.01458E+01-5.82102E-01 6.41698E-02-3.12780E+00-3.61766E-13-2.00076E-13
 -1      3365 2.52616E+01 4.73416E+00-6.54796E-02 4.93228E-01 6.18741E-13 1.31745E-13
 -1      3366 1.73242E+01-3.31268E-01 4.46132E-02 3.96994E+00-3.02734E-13-5.29871E-14
 -1      3367 2.00870E+01 2.03285E+00-5.29081E-03-4.98184E-01 5.67455E-14-2.60315E-13
 -1      3368 2.01988E+01 1.70273E+00 5.37100E-03-4.54408E-01 3.25476E-14-2.42859E-13
 -1      3369 2.00626E+01 2.11075E+00-3.06511E-03-3.83795E-01 7.90868E-14-2.46274E-13
 -1      3370 2.45179E+01 3.65051E+00-1.49707E-01 1.71553E+00 2.46039E-13 3.61081E-13
 -1      3371 2.02668E+01 2.36333E-01 1.97367E-03 3.89142E-02-9.77810E-14-1.41071E-13
 -1      3372 2.02429E+01 1.61205E-01-1.22794E-03 7.96904E-02-9.12275E-14-1.38811E-13
 -1      3373 2.02280E+01 1.02323E-01 1.59167E-03 1.05640E-01-9.06390E-14-1.12656E-13
 -1      3374 2.02066E+01 5.38084E-02-6.44469E-04 1.27470E-01-7.85183E-14-8.59889E-14
 -1      3375 2.02845E+01 1.58353E-01-4.97721E-04 7.59870E-02-6.25410E-14-1.03237E-13
 -1      3376 2.01892E+01 1.69203E-02 1.12524E-03 1.39815E-01-6.85624E-14-8.66709E-14
 -1      3377 2.01715E+01-1.26086E-02-2.09876E-04 1.48717E-01-2.01183E-14-1.28537E-13
 -1      3378 2.02468E+01 4.83394E-02-5.98602E-04 1.17443E-01-6.27713E-14-5.21576E-14
 -1      3379 2.01538E+01-3.40565E-02 7.22762E-04 1.51869E-01-3.78899E-15-1.49888E-13
 -1      3380 2.01398E+01-5.01522E-02 7.82708E-05 1.52533E-01-3.04135E-15-1.11939E-13
 -1      3381 2.02086E+01-1.95550E-02-6.30226E-04 1.35654E-01-2.75430E-14-8.03452E-14
 -1      3382 2.01232E+01-6.07622E-02 4.13168E-04 1.50057E-01-1.30751E-14-7.23510E-14
 -1      3383 2.01125E+01-6.74416E-02 2.58884E-04 1.45993E-01-1.73041E-14-4.73011E-14
 -1      3384 2.01726E+01-5.72988E-02-6.01642E-04 1.38652E-01-4.20332E-15-1.23383E-13
 -1      3385 2.00974E+01-7.04819E-02 1.81940E-04 1.40579E-01-4.88593E-14-4.37836E-14
 -1      3386 2.00895E+01-7.05833E-02 3.66071E-04 1.34357E-01-8.15056E-14-5.68825E-14
 -1      3387 2.01405E+01-7.37649E-02-5.40953E-04 1.32696E-01-3.14379E-14-6.12711E-14
 -1      3388 2.00763E+01-6.83196E-02 9.85395E-06 1.27974E-01-8.65341E-14-6.93230E-14
 -1      3389 2.00706E+01-6.37712E-02 4.27517E-04 1.21458E-01-9.68115E-14-8.93679E-14
 -1      3390 2.01126E+01-7.52741E-02-4.62258E-04 1.22478E-01-9.81598E-14-8.35453E-14
 -1      3391 2.00591E+01-5.76963E-02-1.22318E-04 1.15548E-01-9.43091E-14-8.72249E-14
 -1      3392 2.00552E+01-4.97253E-02 4.63274E-04 1.10109E-01-8.04828E-14-9.60123E-14
 -1      3393 2.00888E+01-6.61647E-02-3.75943E-04 1.11448E-01-9.79099E-14-6.11421E-14
 -1      3394 2.00452E+01-4.07444E-02-2.31488E-04 1.05750E-01-7.41728E-14-3.49965E-14
 -1      3395 2.00426E+01-3.00412E-02 4.86874E-04 1.02433E-01-8.79608E-14 2.12308E-15
 -1      3396 2.00686E+01-4.92206E-02-2.85960E-04 1.02166E-01-1.96850E-14-7.57348E-14
 -1      3397 2.00334E+01-1.86044E-02-3.32471E-04 1.00470E-01-9.24082E-14 1.88420E-15
 -1      3398 2.00318E+01-5.43687E-03 5.08609E-04 1.00126E-01-5.27713E-14-3.42256E-14
 -1      3399 2.00509E+01-2.60346E-02-1.91774E-04 9.65867E-02-1.02387E-13 7.61690E-15
 -1      3400 2.00229E+01 8.36944E-03-4.38390E-04 1.01270E-01-5.13639E-14-5.72950E-16
 -1      3401 2.00218E+01 2.40699E-02 5.35393E-04 1.04665E-01-7.50603E-14 3.91800E-14
 -1      3402 2.00346E+01 2.73729E-03-8.96368E-05 9.62805E-02-2.61802E-14 3.97600E-15
 -1      3403 2.00124E+01 4.04439E-02-5.60447E-04 1.09588E-01-8.97715E-14 5.33088E-14
 -1      3404 2.00114E+01 5.90048E-02 5.70168E-04 1.17477E-01-6.24195E-14 6.04272E-14
 -1      3405 2.00185E+01 3.71786E-02 2.50789E-05 1.02630E-01-9.70941E-14 8.44624E-14
 -1      3406 2.00005E+01 7.83607E-02-7.08945E-04 1.26860E-01 5.61700E-15 8.23537E-14
 -1      3407 1.99991E+01 1.00303E-01 6.12701E-04 1.40041E-01 6.42370E-14 7.16974E-14
 -1      3408 2.00007E+01 7.79431E-02 1.61018E-04 1.16966E-01-2.50711E-14 1.14497E-13
 -1      3409 1.99855E+01 1.23215E-01-8.93958E-04 1.54604E-01-3.56161E-14 1.21732E-13
 -1      3410 1.99830E+01 1.49194E-01 6.59670E-04 1.73944E-01-5.31593E-14 7.64564E-14
 -1      3411 1.99792E+01 1.26099E-01 3.29151E-04 1.40637E-01 3.05941E-14 1.43476E-13
 -1      3412 1.99653E+01 1.76331E-01-1.12530E-03 1.94457E-01 4.62055E-14 4.48303E-14
 -1      3413 1.99607E+01 2.07064E-01 7.04450E-04 2.20891E-01 1.04240E-13 1.00333E-13
 -1      3414 1.99514E+01 1.82991E-01 5.43680E-04 1.75045E-01 1.25701E-15 1.39670E-13
 -1      3415 1.99370E+01 2.39113E-01-1.41287E-03 2.48158E-01 8.60128E-14 8.74570E-14
 -1      3416 1.99291E+01 2.75282E-01 7.37217E-04 2.82671E-01 1.18802E-13 9.61632E-15
 -1      3417 1.99143E+01 2.50076E-01 8.22734E-04 2.21625E-01 7.43721E-14 1.55802E-13
 -1      3418 1.98970E+01 3.12829E-01-1.76713E-03 3.17497E-01 1.53757E-13 5.92885E-14
 -1      3419 1.98841E+01 3.54931E-01 7.46223E-04 3.61068E-01 7.64126E-14 9.65009E-14
 -1      3420 1.98636E+01 3.28704E-01 1.18870E-03 2.81787E-01 1.11877E-13 1.07479E-13
 -1      3421 1.98408E+01 3.98271E-01-2.19987E-03 4.04211E-01-3.67483E-14 6.37540E-14
 -1      3422 1.98207E+01 4.46382E-01 7.21502E-04 4.57751E-01-3.31180E-14 8.39643E-16
 -1      3423 1.97943E+01 4.19798E-01 1.66814E-03 3.56813E-01-8.80109E-15 1.29186E-13
 -1      3424 1.97623E+01 4.95219E-01-2.72594E-03 5.09895E-01 2.17849E-14-1.05293E-14
 -1      3425 1.97323E+01 5.48617E-01 6.63371E-04 5.74179E-01 7.54383E-14-2.78495E-14
 -1      3426 1.96998E+01 5.23373E-01 2.29085E-03 4.47764E-01-5.41776E-15 2.91161E-14
 -1      3427 1.96544E+01 6.01560E-01-3.36702E-03 6.35964E-01 1.28627E-13-1.93349E-13
 -1      3428 1.96110E+01 6.58114E-01 5.99436E-04 7.11628E-01 1.17923E-13-1.11029E-13
 -1      3429 1.95721E+01 6.37778E-01 3.08696E-03 5.55468E-01 5.68714E-14-9.04588E-15
 -1      3430 1.95081E+01 7.11885E-01-4.15922E-03 7.83860E-01 2.06472E-13-4.35919E-14
 -1      3431 1.94483E+01 7.67110E-01 6.15070E-04 8.71551E-01 2.45013E-13 1.72089E-14
 -1      3432 1.94014E+01 7.58553E-01 4.08094E-03 6.80756E-01 2.41065E-13 8.34809E-16
 -1      3433 1.93140E+01 8.15301E-01-5.16654E-03 9.55766E-01 1.16874E-13 1.09177E-13
 -1      3434 1.92356E+01 8.60924E-01 9.03391E-04 1.05665E+00 9.81999E-14 1.62395E-13
 -1      3435 1.91759E+01 8.76696E-01 5.27963E-03 8.25259E-01 1.79779E-13 1.82863E-13
 -1      3436 1.90629E+01 8.92137E-01-6.49865E-03 1.15632E+00 6.65744E-14 9.33452E-14
 -1      3437 1.89672E+01 9.13998E-01 1.84480E-03 1.27318E+00 1.92690E-14 1.46786E-13
 -1      3438 1.88829E+01 9.76133E-01 6.65002E-03 9.93279E-01 4.05144E-14 5.33359E-14
 -1      3439 1.87493E+01 9.09194E-01-8.30723E-03 1.39605E+00-3.49292E-15 1.46783E-13
 -1      3440 1.86453E+01 8.84257E-01 4.14726E-03 1.53532E+00-2.29813E-15 1.54151E-13
 -1      3441 1.85092E+01 1.03012E+00 8.08538E-03 1.19551E+00 2.48725E-14 2.16837E-14
 -1      3442 1.83772E+01 8.13142E-01-1.05638E-02 1.69728E+00-1.18958E-13 8.11246E-14
 -1      3443 1.82895E+01 7.05134E-01 9.22533E-03 1.87173E+00-1.50129E-13 9.61606E-15
 -1      3444 1.80435E+01 9.95934E-01 9.36611E-03 1.45571E+00-7.46683E-14 6.44844E-14
 -1      3445 1.79734E+01 5.18512E-01-1.28528E-02 2.10159E+00-1.69770E-13-3.07913E-17
 -1      3446 1.79472E+01 2.70738E-01 1.62614E-02 2.33270E+00-7.31796E-14-7.61644E-14
 -1      3447 1.74810E+01 8.04593E-01 9.77363E-03 1.82094E+00-1.73704E-13 3.54896E-14
 -1      3448 1.75957E+01-9.47425E-02-1.48854E-02 2.66230E+00 6.66966E-14-2.36766E-14
 -1      3449 1.77523E+01-5.92115E-01 1.38828E-02 3.00179E+00 8.89796E-14 5.69748E-14
 -1      3450 1.68638E+01 3.54072E-01 1.83741E-02 2.36309E+00 2.51264E-15 2.31440E-13
 -1      3451 1.63177E+01-9.67775E-01 2.67195E-02 3.46016E+00-2.15487E-14-1.21490E-13
 -1      3452 1.76305E+01-2.68270E+00 5.74141E-02-4.66242E+00-3.84392E-13 4.45893E-14
 -1      3453 1.98380E+01-3.60598E+00-5.76569E-03-4.31607E+00-3.45239E-13 2.42157E-13
 -1      3454 2.73695E+01-4.32628E+00 1.71948E-02-1.11994E+00 8.30447E-14-6.46760E-13
 -1      3455 1.23944E+01 6.94001E-01 6.18920E-02-4.41964E-01 2.28966E-13 6.91079E-13
 -1      3456 1.23448E+01 7.15750E-01 6.23115E-02 1.28013E+00 9.23549E-14 5.27592E-13
 -1      3457 1.17917E+01 1.87646E-01 8.49892E-02-1.68507E+00-1.33042E-13-7.55437E-14
 -1      3458 2.00362E+01-4.84231E-02 4.63143E-04-1.16802E-01 1.65397E-14-7.82035E-14
 -1      3459 2.00373E+01-5.51549E-02-1.45593E-04-1.23167E-01-1.54666E-14-8.00889E-14
 -1      3460 2.00466E+01-6.01393E-02 4.25112E-04-1.29935E-01 2.78232E-15-4.40585E-14
 -1      3461 2.00494E+01-6.37582E-02-1.16233E-05-1.37274E-01 4.72417E-14 7.27154E-15
 -1      3462 2.00695E+01-6.38391E-02-3.64444E-04-1.21659E-01 2.94330E-14 3.28145E-15
 -1      3463 2.00225E+01-1.09537E-02 5.23281E-04-1.02893E-01 6.72171E-14 1.94362E-14
 -1      3464 2.00215E+01-2.20939E-02-3.34020E-04-1.04317E-01 7.15241E-14-1.45609E-14
 -1      3465 2.00180E+01 1.35965E-02 5.62706E-04-1.05346E-01 1.03327E-13 5.94595E-14
 -1      3466 2.00162E+01 5.43538E-04-4.17221E-04-1.03145E-01 1.24507E-13 3.93345E-14
 -1      3467 2.00289E+01-4.94099E-03-1.26612E-04-1.00893E-01 6.41667E-14-6.63261E-16
 -1      3468 2.00141E+01 4.19448E-02 6.16967E-04-1.15935E-01 5.67971E-14 5.78843E-14
 -1      3469 2.00117E+01 2.69278E-02-5.06267E-04-1.09421E-01 6.33153E-14 7.45637E-14
 -1      3470 2.00183E+01 2.40361E-02-5.29587E-05-1.05580E-01 7.85494E-14 5.36197E-14
 -1      3471 2.00103E+01 7.42761E-02 6.88868E-04-1.36031E-01-1.14379E-14 3.90916E-14
 -1      3472 2.00073E+01 5.71885E-02-6.07260E-04-1.24516E-01 6.49514E-14 4.63912E-14
 -1      3473 2.00075E+01 5.74525E-02 2.21452E-05-1.18463E-01 6.36809E-14 1.01783E-13
 -1      3474 2.00060E+01 1.10713E-01 7.79954E-04-1.67047E-01-3.42668E-14 8.27237E-14
 -1      3475 2.00025E+01 9.15085E-02-7.23050E-04-1.49834E-01-6.19263E-14 4.41638E-14
 -1      3476 1.99955E+01 9.54987E-02 9.93138E-05-1.40944E-01-8.21018E-15 1.15581E-13
 -1      3477 2.00006E+01 1.51038E-01 8.90381E-04-2.10431E-01-6.51390E-14 4.66655E-14
 -1      3478 1.99966E+01 1.29879E-01-8.52060E-04-1.86832E-01 7.32374E-15 3.96142E-14
 -1      3479 1.99812E+01 1.38234E-01 1.77537E-04-1.74496E-01-8.20463E-15 9.37547E-14
 -1      3480 1.99941E+01 1.94340E-01 1.01968E-03-2.67579E-01-5.27031E-14 4.25483E-14
 -1      3481 1.99892E+01 1.71791E-01-9.87128E-04-2.36982E-01-6.87476E-14-1.02493E-14
 -1      3482 1.99637E+01 1.85258E-01 2.51318E-04-2.20660E-01-1.42501E-14-2.31432E-14
 -1      3483 1.99864E+01 2.38550E-01 1.16761E-03-3.39685E-01-9.02434E-14-2.51244E-14
 -1      3484 1.99804E+01 2.15825E-01-1.11300E-03-3.01656E-01-7.27443E-14-1.75220E-14
 -1      3485 1.99422E+01 2.35295E-01 3.08164E-04-2.80987E-01-3.71665E-14-1.14528E-13
 -1      3486 1.99788E+01 2.79827E-01 1.33560E-03-4.27490E-01 3.65677E-14-1.02657E-13
 -1      3487 1.99707E+01 2.59122E-01-1.20300E-03-3.81939E-01-5.05083E-14-6.49121E-14
 -1      3488 1.99166E+01 2.85647E-01 3.24384E-04-3.56931E-01-4.27902E-14-1.03374E-13
 -1      3489 1.99735E+01 3.11791E-01 1.52848E-03-5.30929E-01 9.88627E-14-7.47630E-14
 -1      3490 1.99618E+01 2.96692E-01-1.21432E-03-4.78339E-01 8.37347E-14-7.63712E-14
 -1      3491 1.98876E+01 3.31490E-01 2.58962E-04-4.49669E-01 7.26170E-14-1.05006E-13
 -1      3492 1.99755E+01 3.24613E-01 1.75545E-03-6.48649E-01-1.19415E-13-7.39703E-14
 -1      3493 1.99575E+01 3.20572E-01-1.08104E-03-5.90381E-01-2.83161E-14-3.89516E-14
 -1      3494 1.98580E+01 3.65003E-01 4.49867E-05-5.59862E-01 9.60617E-15-7.67068E-14
 -1      3495 1.99934E+01 3.04048E-01 2.02672E-03-7.77333E-01-1.16196E-13-2.05748E-14
 -1      3496 1.99646E+01 3.18873E-01-7.04041E-04-7.16046E-01-1.27354E-13 9.44455E-16
 -1      3497 1.98331E+01 3.74340E-01-4.21854E-04-6.87312E-01-1.87830E-13 7.06838E-14
 -1      3498 2.00415E+01 2.30679E-01 2.33701E-03-9.10708E-01-1.33567E-13 4.99001E-14
 -1      3499 1.99947E+01 2.74884E-01 6.40276E-05-8.50947E-01-1.07599E-13 2.86420E-15
 -1      3500 1.98230E+01 3.42571E-01-1.29781E-03-8.30443E-01-1.23322E-13 4.36222E-14
 -1      3501 2.01418E+01 7.99459E-02 2.61625E-03-1.03793E+00-1.10218E-13 4.86804E-14
 -1      3502 2.00666E+01 1.66620E-01 1.43858E-03-9.87018E-01-9.53651E-14 4.76986E-14
 -1      3503 1.98449E+01 2.46836E-01-2.80736E-03-9.85384E-01-1.10110E-13-1.68329E-14
 -1      3504 2.03267E+01-1.75755E-01 2.62926E-03-1.14079E+00-9.60668E-14-1.05292E-13
 -1      3505 2.02088E+01-3.23153E-02 3.71594E-03-1.11021E+00-5.42789E-14 7.40719E-15
 -1      3506 1.99258E+01 5.83624E-02-5.25371E-03-1.14411E+00-4.28858E-14 3.69454E-14
 -1      3507 2.06390E+01-5.60257E-01 1.79178E-03-1.18887E+00-1.67916E-13-1.69598E-13
 -1      3508 2.04619E+01-3.48696E-01 7.24806E-03-1.19631E+00-1.84557E-13-1.98755E-13
 -1      3509 2.01066E+01-2.55128E-01-8.97888E-03-1.29055E+00-1.89049E-14-1.40048E-13
 -1      3510 2.11269E+01-1.07724E+00-8.42086E-04-1.13256E+00 6.32476E-14-2.15932E-13
 -1      3511 2.08769E+01-7.98948E-01 1.21938E-02-1.20397E+00-7.74359E-14-1.42648E-13
 -1      3512 2.04445E+01-7.21058E-01-1.41705E-02-1.39279E+00-9.37102E-14-4.36144E-13
 -1      3513 2.18350E+01-1.67718E+00-3.68318E-03-8.97373E-01-5.65435E-14-1.29806E-13
 -1      3514 2.15037E+01-1.36427E+00 1.84855E-02-1.06692E+00 2.57398E-14-1.91211E-13
 -1      3515 2.10094E+01-1.34096E+00-2.03110E-02-1.38976E+00 1.32804E-14-4.74429E-13
 -1      3516 2.27532E+01-2.21118E+00-8.83678E-03-4.04585E-01 6.26140E-14-5.66332E-14
 -1      3517 2.23643E+01-1.95934E+00 2.27526E-02-7.02661E-01-4.24617E-15-5.30843E-14
 -1      3518 2.18302E+01-2.04849E+00-3.47391E-02-1.17603E+00-7.92231E-14-3.69855E-13
 -1      3519 2.37952E+01-2.34871E+00-1.05722E-02 4.97859E-01 1.85388E-13 1.66831E-14
 -1      3520 2.34595E+01-2.36582E+00 3.13847E-02 3.58746E-02 1.77160E-13 7.21190E-14
 -1      3521 2.30789E+01-2.68657E+00-3.59568E-02-6.37802E-01 4.69590E-15-7.16822E-14
 -1      3522 2.47174E+01-1.55775E+00 1.36893E-02 1.61180E+00-5.63820E-14 1.06394E-13
 -1      3523 2.44566E+01-2.11025E+00 8.62229E-03 1.07295E+00 6.16445E-14 4.65441E-14
 -1      3524 2.43672E+01-2.62003E+00 5.56034E-03 3.75676E-01 1.28128E-13 2.05416E-13
 -1      3525 2.51798E+01 1.15362E+00-6.89843E-02 2.55456E+00-3.58172E-13 3.15121E-13
 -1      3526 2.51589E+01 4.25919E-02-8.77910E-02 2.36171E+00-3.30812E-13 2.68811E-13
 -1      3527 2.50592E+01 2.42273E+00-3.86871E-02 2.26679E+00-1.29140E-13 4.14014E-13
 -1      3528 2.48619E+01 1.73760E+00-3.55499E-02-1.60100E+00 6.15522E-13-9.54679E-14
 -1      3529 2.47295E+01 7.24268E-01-1.07912E-01-1.69772E+00 6.30183E-13-4.26980E-13
 -1      3530 2.53984E+01-2.07825E+00-3.05931E-04-4.79230E-01 4.72504E-14-1.69044E-13
 -1      3531 2.55633E+01-1.25543E+00-1.61873E-02-9.40118E-01 3.57436E-13-1.54970E-13
 -1      3532 1.33309E+01 3.58543E-01 7.30618E-02 2.71463E+00-1.72045E-13 2.77660E-13
 -1      3533 2.56468E+01-4.18860E+00 4.28457E-02-1.15411E+00-3.61941E-13 2.70714E-13
 -1      3534 2.62682E+01-3.21565E+00-3.46399E-02 2.63366E-01-3.19961E-13 5.63327E-13
 -1      3535 1.47826E+01-4.01007E-02 5.69513E-02-3.45995E+00 4.21739E-13 6.70124E-13
 -1      3536 1.37306E+01 5.01906E-02 2.71995E-02 2.61277E+00-1.16403E-13-2.68091E-13
 -1      3537 1.29164E+01 5.50677E-01-5.03026E-03 1.40350E+00-2.06613E-14-3.39499E-13
 -1      3538 1.47169E+01-1.15603E+00 2.90260E-03-4.01648E+00-3.44134E-13-1.84353E-13
 -1      3539 1.61928E+01-2.02129E+00 2.71623E-02-4.60772E+00-4.35086E-13-1.43073E-13
 -1      3540 1.78580E+01-2.05425E+00 5.57036E-02-4.01437E+00-3.97615E-13 3.42643E-14
 -1      3541 2.40672E+01-2.23933E+00 1.29944E-02 3.46629E-01-1.48661E-13-4.13834E-13
 -1      3542 2.44602E+01-2.01381E+00 4.18699E-03-1.98781E-01-5.88149E-14-3.13267E-13
 -1      3543 2.53852E+01-3.07188E+00-3.56462E-02 6.17907E-01-3.90070E-14-6.32237E-14
 -1      3544 2.37073E+01-2.31293E+00-1.19760E-02 8.29374E-01-2.86319E-13-3.79078E-13
 -1      3545 2.58546E+01-4.65176E+00-8.84260E-02-2.12858E+00 9.76337E-14-5.75637E-13
 -1      3546 2.03119E+01 7.34851E-01 1.31797E-03-2.41628E-01 1.50898E-14-2.21480E-13
 -1      3547 2.02971E+01 5.72529E-01-2.46414E-03-1.42475E-01 1.07222E-14-1.97869E-13
 -1      3548 2.00283E+01-3.17367E-02 4.92763E-04-1.07204E-01 8.33896E-14-4.61153E-14
 -1      3549 2.00283E+01-4.08552E-02-2.47368E-04-1.11525E-01 6.43848E-14-5.56196E-14
 -1      3550 2.00536E+01-4.94633E-02-2.78670E-04-1.10506E-01 2.92059E-14-1.03830E-13
 -1      3551 2.00404E+01-2.95385E-02-1.99787E-04-1.03020E-01 5.61304E-14-5.36692E-14
 -1      3552 2.00308E+01 2.20130E+00-3.34334E-03-1.63093E-01 1.14724E-13-2.66770E-13
 -1      3553 2.00430E+01 2.16468E+00-4.22037E-03-2.84688E-01 8.51583E-14-2.56032E-13
 -1      3554 2.01595E+01 1.85189E+00 5.32848E-03-2.85163E-01 6.18328E-14-2.45424E-13
 -1      3555 2.01008E+01-4.36228E-02 8.27950E-05-1.63889E-01 6.14774E-14-2.32753E-14
 -1      3556 2.01122E+01-2.78067E-02 7.92239E-04-1.63101E-01 7.43363E-14-1.03955E-16
 -1      3557 2.02349E+01 3.20736E-01-1.99502E-03 1.70175E-02 1.06812E-13 1.25402E-14
 -1      3558 2.02662E+01 4.29270E-01 3.19375E-03 9.15564E-02 1.06926E-13 4.82906E-15
 -1      3559 2.63013E+01 3.15517E+00-6.77035E-02 2.33403E+00 4.25632E-14 1.84242E-13
 -1      3560 2.02994E+01 4.38259E-01 2.17345E-03-7.29154E-02-9.97911E-15-1.93820E-13
 -1      3561 2.02760E+01 3.26411E-01-1.86653E-03-6.08839E-03-5.24085E-14-1.81651E-13
 -1      3562 2.03161E+01 3.27646E-01-1.75941E-05 1.56411E-03-5.32503E-14-1.58606E-13
 -1      3563 1.98394E+01-3.71291E+00 4.07642E-02 5.74950E+00 9.98923E-14-1.15713E-13
 -1      3564 1.73290E+01-2.19424E+00 9.93680E-02 5.39239E+00 6.75709E-14-2.15640E-13
 -1      3565 1.88411E+01-1.94444E+00-4.22018E-02 4.82073E+00-6.68276E-14-2.90882E-13
 -1      3566 2.04802E+01-2.30821E+00 5.19017E-02 4.50519E+00 7.84876E-15-9.38364E-14
 -1      3567 2.02579E+01 1.36693E+00 3.33243E-03-5.38734E-01-9.72153E-15-2.56922E-13
 -1      3568 2.02186E+01 1.58272E+00 2.00614E-03-6.99865E-01-2.17868E-14-2.73761E-13
 -1      3569 2.56420E+01-1.49533E+00-4.10596E-03 1.70725E+00-2.29098E-13 3.10533E-13
 -1      3570 1.53263E+01-6.59193E-01-8.27632E-04 4.36673E+00-8.67015E-14 1.95816E-14
 -1      3571 1.71288E+01-1.38350E+00 6.07800E-02 4.81539E+00-9.78818E-14-1.35666E-13
 -1      3572 2.02034E+01 1.63882E+00-3.35255E-03 1.30651E-01 1.22232E-13-1.96557E-13
 -1      3573 2.01994E+01 1.65874E+00-2.66397E-03 3.99631E-02 1.05034E-13-2.45963E-13
 -1      3574 2.02777E+01 1.14079E+00-5.12729E-03 4.93928E-01 1.84277E-13 1.56699E-14
 -1      3575 2.02667E+01 1.28596E+00 3.25141E-05 4.54311E-01 1.75139E-13-4.59974E-14
 -1      3576 2.09474E+01-3.74671E+00 6.65520E-02-3.88594E+00-2.49866E-13 2.50270E-13
 -1      3577 2.18433E+01-4.04249E+00-3.67182E-02-3.42487E+00-2.45717E-13-2.63990E-14
 -1      3578 2.00264E+01-2.98140E+00 4.10981E-02-3.75252E+00-2.83068E-13 1.04642E-13
 -1      3579 2.02120E+01 1.60592E+00-2.03519E-03 2.01712E-01 1.37697E-13-1.79056E-13
 -1      3580 2.02862E+01 1.38499E+00 4.81026E-03 1.33952E-01 1.10965E-13-1.58004E-13
 -1      3581 2.02223E+01 1.54749E+00-4.09350E-03 2.85298E-01 1.48702E-13-1.45131E-13
 -1      3582 2.00783E+01-6.10890E-02 2.59511E-04-1.57077E-01 1.21825E-14-3.23429E-14
 -1      3583 2.00860E+01-5.41871E-02 4.34543E-04-1.61504E-01 4.55146E-14-3.24668E-14
 -1      3584 2.01405E+01-5.08657E-02-6.36195E-04-1.52113E-01 6.29118E-14-3.56743E-14
 -1      3585 1.50805E+01-2.65945E-01 3.37184E-02 3.02111E+00-6.43166E-14-1.23519E-13
 -1      3586 2.03316E+01 5.76753E-01 4.68481E-04-1.15548E-01-2.80807E-15-2.34718E-13
 -1      3587 2.01033E+01 6.05324E-02-1.19380E-03-1.39312E-01 6.27859E-14 2.03059E-14
 -1      3588 2.01284E+01-7.01805E-03-2.02010E-04-1.59044E-01 7.20845E-14-1.38219E-14
 -1      3589 2.01443E+01 2.15954E-02 1.26812E-03-1.49231E-01 5.64200E-14-1.25705E-14
 -1      3590 2.01731E+01-1.32095E-02-7.10043E-04-1.48037E-01 6.64311E-14-4.74436E-14
 -1      3591 1.22005E+01 6.82449E-01 3.02686E-02-5.88136E-01-9.48425E-14-1.22777E-13
 -1      3592 1.29448E+01 6.39946E-02 8.91182E-02-2.78232E+00-2.30753E-13-7.93046E-14
 -1      3593 2.01384E+01 1.92339E+00 4.98250E-03-9.50210E-02 9.48049E-14-2.54274E-13
 -1      3594 2.00889E+01-7.09666E-02-4.51942E-04-1.34359E-01 6.05914E-14-4.26453E-14
 -1      3595 2.00604E+01-6.52477E-02 3.64904E-04-1.44366E-01 9.01386E-14-2.03780E-15
 -1      3596 2.00654E+01-6.45413E-02 1.74381E-04-1.51241E-01 5.22488E-14-3.79829E-14
 -1      3597 2.02020E+01 1.69548E+00 5.73782E-03 4.59754E-01 1.87242E-13-1.05138E-13
 -1      3598 1.43473E+01-2.69349E-01 5.70198E-02-3.15322E+00-2.57689E-13-6.63740E-14
 -1      3599 1.58980E+01-5.45711E-01 2.93197E-02-3.17207E+00-2.92270E-13-7.42635E-14
 -1      3600 1.42890E+01 3.18078E-01-5.97297E-03-2.17907E+00-1.68969E-13 2.75856E-14
 -1      3601 1.35021E+01 7.35913E-01 8.93182E-02-2.38681E+00 2.94528E-13 1.03559E-12
 -1      3602 2.02362E+01 1.48878E+00-9.51051E-04-3.41948E-01 4.37447E-14-2.27478E-13
 -1      3603 2.02488E+01 1.39077E+00-4.45398E-03-4.09590E-01 1.51272E-14-2.27183E-13
 -1      3604 1.54172E+01 2.31338E-01-4.88011E-03 2.42985E+00-5.33358E-14-1.33259E-13
 -1      3605 2.02707E+01 1.28132E+00 1.97851E-03-4.26544E-01 1.23244E-14-2.35335E-13
 -1      3606 2.02944E+01 1.04505E+00-2.72900E-03-4.23964E-01-1.35931E-14-2.32904E-13
 -1      3607 2.02945E+01 8.54862E-01-2.15588E-03-3.04980E-01-3.50948E-15-2.20538E-13
 -1      3608 2.03062E+01 1.09838E+00 1.34934E-03-3.11710E-01 1.96366E-14-2.23597E-13
 -1      3609 2.58359E+01-4.84536E-01 2.08980E-02-1.42532E+00 3.78156E-13-1.78291E-13
 -1      3610 2.02613E+01 5.33642E-01-2.50442E-03 1.57317E-01 1.29652E-13 2.58397E-14
 -1      3611 2.02800E+01 6.52768E-01-6.35744E-05 2.53431E-01 1.51595E-13 3.38209E-14
 -1      3612 2.03011E+01 5.39421E-01-2.21740E-03 1.32153E-01 1.26545E-13 1.67483E-14
 -1      3613 2.14521E+01-3.77943E+00 2.80173E-02 4.83790E+00 6.24015E-14-2.01733E-13
 -1      3614 1.40718E+01 8.38350E-01 1.88801E-02 9.90851E-01-9.78146E-14-2.65498E-13
 -1      3615 1.30234E+01 9.22597E-01 8.19933E-02 3.61632E-01-9.42983E-14-1.66447E-13
 -1      3616 1.34518E+01 8.19915E-01-1.43976E-02-7.85071E-01-1.92018E-13-9.82339E-14
 -1      3617 2.01976E+01 1.60587E-01-1.31481E-03-8.06545E-02 6.55446E-14 5.33586E-15
 -1      3618 2.02246E+01 2.33755E-01 2.69528E-03-3.56810E-02 8.51631E-14 8.27164E-15
 -1      3619 2.02812E+01 3.28781E-01-4.79408E-04 7.66854E-03 8.40773E-14 2.04093E-14
 -1      3620 2.21447E+01-2.66964E+00-1.47938E-02 3.57574E+00 5.34568E-14 6.80567E-14
 -1      3621 2.27298E+01-2.64736E+00 1.51962E-02 3.03766E+00 6.78225E-14 3.25347E-14
 -1      3622 2.03208E+01 8.58626E-01 1.44021E-03-2.52531E-01 2.02033E-14-1.99033E-13
 -1      3623 2.43875E+01-4.19109E+00 2.14796E-02-1.77723E+00-2.01271E-13 1.43848E-13
 -1      3624 2.14855E+01-3.18517E+00 1.09698E-02 4.34823E+00 2.16355E-14-7.16779E-14
 -1      3625 1.22028E+01 6.26021E-01 1.50199E-01-1.48083E+00 2.52985E-13 7.46125E-13
 -1      3626 2.56516E+01-3.59753E+00 3.02753E-03 1.28523E+00 8.01442E-15 1.77431E-13
 -1      3627 2.53085E+01-4.33084E+00 7.83815E-03 2.50548E+00-2.26659E-14 1.62280E-13
 -1      3628 2.41997E+01-4.16161E+00-5.34331E-03 3.14134E+00 6.22731E-14 6.33894E-14
 -1      3629 2.45782E+01-3.19866E+00-6.43766E-04 1.42262E+00-8.10714E-14-9.95983E-14
 -1      3630 2.02994E+01 8.27913E-02 1.04755E-03 9.25978E-02-3.18010E-14-1.11046E-13
 -1      3631 2.02780E+01 3.49565E-02-5.03382E-04 1.08079E-01-2.19797E-14-8.03078E-14
 -1      3632 2.02589E+01-1.51366E-03 7.88516E-04 1.15071E-01-2.81283E-14-6.17557E-14
 -1      3633 2.02387E+01-3.00361E-02-1.32119E-04 1.21047E-01-4.24129E-15-8.28474E-14
 -1      3634 2.03026E+01 2.57457E-02-3.77602E-04 9.40421E-02-6.31751E-15-1.14697E-13
 -1      3635 2.02182E+01-5.04990E-02 5.39292E-04 1.21920E-01 2.32570E-14-6.16366E-14
 -1      3636 2.02002E+01-6.51515E-02 1.18809E-04 1.21892E-01 1.36243E-14-6.09368E-14
 -1      3637 2.02605E+01-3.80167E-02-4.97109E-04 1.04210E-01 1.15573E-14-4.15791E-14
 -1      3638 2.01803E+01-7.42342E-02 3.33630E-04 1.19167E-01-1.37487E-14-5.03385E-14
 -1      3639 2.01647E+01-7.90691E-02 2.72779E-04 1.15818E-01-5.11947E-14-5.51602E-14
 -1      3640 2.02189E+01-7.15023E-02-5.32676E-04 1.04513E-01-2.28291E-15-4.59904E-14
 -1      3641 2.01461E+01-8.01378E-02 1.66672E-04 1.11393E-01-7.43336E-14-4.18155E-14
 -1      3642 2.01331E+01-7.80315E-02 3.59480E-04 1.06701E-01-1.01212E-13-5.74372E-15
 -1      3643 2.01801E+01-8.34072E-02-5.05524E-04 9.92942E-02-4.61884E-14-4.10160E-14
 -1      3644 2.01161E+01-7.33824E-02 2.79446E-05 1.01974E-01-7.90045E-14 3.47120E-14
 -1      3645 2.01052E+01-6.62541E-02 4.03672E-04 9.74132E-02-5.43987E-14 5.73024E-14
 -1      3646 2.01450E+01-7.99975E-02-4.43768E-04 9.17820E-02-5.26582E-14 7.25122E-14
 -1      3647 2.00899E+01-5.73786E-02-9.18387E-05 9.34383E-02-4.61185E-14 6.06250E-14
 -1      3648 2.00807E+01-4.64231E-02 4.19657E-04 9.01169E-02-2.92139E-14 4.19306E-14
 -1      3649 2.01137E+01-6.54632E-02-3.57581E-04 8.44140E-02-3.58629E-14 1.23341E-13
 -1      3650 2.00665E+01-3.41929E-02-2.04302E-04 8.76936E-02-6.68411E-14 2.82345E-14
 -1      3651 2.00585E+01-2.00396E-02 4.18671E-04 8.64716E-02-8.25251E-14 6.75314E-14
 -1      3652 2.00854E+01-4.24390E-02-2.49657E-04 7.90381E-02-7.03622E-14 1.43883E-13
 -1      3653 2.00447E+01-4.82866E-03-3.20269E-04 8.62255E-02-3.30527E-14 9.29442E-14
 -1      3654 2.00372E+01 1.23577E-02 4.10307E-04 8.78163E-02-1.71628E-14 9.65321E-14
 -1      3655 2.00591E+01-1.23539E-02-1.22256E-04 7.70654E-02-2.37418E-14 1.20336E-13
 -1      3656 2.00230E+01 3.05788E-02-4.48745E-04 9.02941E-02-5.84426E-14 8.04486E-14
 -1      3657 2.00153E+01 5.09840E-02 3.97420E-04 9.53524E-02-8.71097E-14 9.98781E-14
 -1      3658 2.00330E+01 2.43558E-02 2.25884E-05 7.96394E-02-6.65195E-14 1.14698E-13
 -1      3659 1.99994E+01 7.25290E-02-5.97340E-04 1.01070E-01-3.33121E-14 1.70526E-13
 -1      3660 1.99905E+01 9.65911E-02 3.78880E-04 1.10229E-01 3.74409E-14 1.84027E-13
 -1      3661 2.00053E+01 6.80250E-02 1.93632E-04 8.77921E-02 6.79592E-15 1.13229E-13
 -1      3662 1.99717E+01 1.21987E-01-7.74795E-04 1.19686E-01 5.29117E-14 1.47907E-13
 -1      3663 1.99603E+01 1.50320E-01 3.50376E-04 1.33582E-01 1.32693E-14 1.32392E-13
 -1      3664 1.99732E+01 1.19508E-01 3.99599E-04 1.02472E-01 1.86324E-14 1.87149E-13
 -1      3665 1.99368E+01 1.80228E-01-9.88930E-04 1.47265E-01 1.23252E-14 1.63863E-13
 -1      3666 1.99216E+01 2.13539E-01 3.03792E-04 1.66537E-01 6.32832E-14 1.76747E-13
 -1      3667 1.99339E+01 1.80019E-01 6.52045E-04 1.24567E-01 4.40565E-14 1.24164E-13
 -1      3668 1.98912E+01 2.48663E-01-1.24714E-03 1.84903E-01 5.98308E-14 2.29522E-13
 -1      3669 1.98704E+01 2.87645E-01 2.26925E-04 2.10166E-01 6.76631E-14 2.25736E-13
 -1      3670 1.98836E+01 2.50945E-01 9.66739E-04 1.54874E-01 7.05448E-14 2.27428E-13
 -1      3671 1.98307E+01 3.28618E-01-1.55744E-03 2.33596E-01 1.08581E-13 1.48145E-13
 -1      3672 1.98019E+01 3.73815E-01 1.04032E-04 2.65387E-01 6.79396E-14 1.22108E-13
 -1      3673 1.98177E+01 3.33614E-01 1.36371E-03 1.94029E-01 3.97363E-14 1.33978E-13
 -1      3674 1.97496E+01 4.21036E-01-1.93011E-03 2.94130E-01 8.82079E-15 1.71934E-13
 -1      3675 1.97098E+01 4.72652E-01-8.23680E-05 3.32849E-01-1.88013E-14 1.80333E-13
 -1      3676 1.97307E+01 4.29004E-01 1.86814E-03 2.42381E-01 2.78217E-14 8.60867E-14
 -1      3677 1.96411E+01 5.26055E-01-2.38129E-03 3.66958E-01-1.14750E-14 1.45240E-13
 -1      3678 1.95866E+01 5.83680E-01-3.47111E-04 4.12818E-01 1.27902E-14 8.29367E-14
 -1      3679 1.96154E+01 5.37358E-01 2.51202E-03 2.99851E-01-1.34682E-14 1.35402E-13
 -1      3680 1.94966E+01 6.42393E-01-2.94068E-03 4.52142E-01 4.50055E-14 1.28234E-13
 -1      3681 1.94228E+01 7.04613E-01-6.93490E-04 5.05184E-01 1.37522E-13 1.71710E-13
 -1      3682 1.94635E+01 6.57662E-01 3.33697E-03 3.65832E-01 4.71752E-14 1.99599E-13
 -1      3683 1.93053E+01 7.66459E-01-3.66655E-03 5.49474E-01 1.74765E-13 1.59906E-13
 -1      3684 1.92068E+01 8.30306E-01-1.09721E-03 6.09775E-01 2.28899E-13 1.32713E-13
 -1      3685 1.92641E+01 7.86952E-01 4.39982E-03 4.39240E-01 1.43476E-13 2.14060E-13
 -1      3686 1.90540E+01 8.91095E-01-4.67337E-03 6.59066E-01 2.07924E-13 1.07804E-14
 -1      3687 1.89247E+01 9.51284E-01-1.48077E-03 7.27315E-01 9.51089E-14-6.35126E-15
 -1      3688 1.90036E+01 9.19414E-01 5.78354E-03 5.18941E-01 1.14088E-13-4.41286E-14
 -1      3689 1.87261E+01 1.00381E+00-6.17875E-03 7.82811E-01 2.72662E-14 1.40341E-14
 -1      3690 1.85598E+01 1.05171E+00-1.67968E-03 8.61581E-01 1.40369E-14-1.79041E-14
 -1      3691 1.86649E+01 1.04526E+00 7.61761E-03 6.04926E-01 1.00946E-13-1.18128E-13
 -1      3692 1.83009E+01 1.08440E+00-8.57359E-03 9.27392E-01-1.32239E-14 2.26273E-16
 -1      3693 1.80920E+01 1.10668E+00-1.37607E-03 1.02353E+00 3.79386E-14 1.00744E-14
 -1      3694 1.82252E+01 1.14930E+00 1.01160E-02 7.00806E-01 2.11309E-14-3.34090E-14
 -1      3695 1.77520E+01 1.10186E+00-1.24554E-02 1.10986E+00-5.30906E-14-6.48081E-14
 -1      3696 1.74984E+01 1.07871E+00 3.49858E-04 1.23855E+00-1.56017E-13-6.05968E-14
 -1      3697 1.76528E+01 1.20946E+00 1.36904E-02 8.18347E-01-7.08279E-14-6.23915E-14
 -1      3698 1.70457E+01 1.01072E+00-1.75826E-02 1.36853E+00-1.65036E-13-1.96283E-14
 -1      3699 1.67466E+01 9.06524E-01 4.70453E-03 1.56227E+00-9.47843E-14 5.38914E-15
 -1      3700 1.68997E+01 1.19401E+00 1.88786E-02 9.85978E-01-1.40964E-13-1.33924E-13
 -1      3701 1.62434E+01 7.47510E-01-2.74047E-02 1.76482E+00-9.25948E-14 5.49517E-15
 -1      3702 1.59396E+01 5.03719E-01 1.19825E-02 2.07270E+00 1.18395E-15-4.77163E-14
 -1      3703 1.49648E+01 8.23084E-01 5.74386E-02 1.71236E+00-4.79755E-14-3.33825E-13
 -1      3704 1.60175E+01 1.07419E+00 3.38641E-02 1.25708E+00-9.89094E-14-2.76905E-13
 -1      3705 2.00907E+01-6.52638E-02 4.20011E-04-1.08776E-01 6.30417E-14-3.16358E-14
 -1      3706 2.00994E+01-7.12309E-02 1.84812E-05-1.14249E-01 7.73594E-14 1.25260E-14
 -1      3707 2.01991E+01 1.65934E+00-2.70038E-03-3.45338E-02 9.14282E-14-2.46754E-13
 -1      3708 2.02028E+01 1.64123E+00-3.21114E-03-1.25179E-01 7.62109E-14-2.50691E-13
 -1      3709 2.02811E+01 1.42007E+00 4.98803E-03 2.13672E-03 8.61046E-14-2.36776E-13
 -1      3710 2.00188E+01 3.62127E-02 4.87754E-04-1.00552E-01 4.04731E-14 1.85311E-14
 -1      3711 2.00233E+01 1.87426E-02-4.33963E-04-9.61806E-02 5.80177E-14-1.11679E-15
 -1      3712 2.00351E+01 3.10487E-03 4.71247E-04-9.40860E-02 5.77537E-14-3.03087E-14
 -1      3713 2.00400E+01-1.18578E-02-3.21121E-04-9.33231E-02 4.65493E-14-4.01974E-14
 -1      3714 2.00340E+01 1.31290E-02-4.49100E-05-8.80143E-02 5.80208E-14 6.42125E-15
 -1      3715 1.99816E+01 1.17859E-01 5.55769E-04-1.38633E-01 4.56975E-15 3.87387E-14
 -1      3716 1.99871E+01 9.50386E-02-7.03777E-04-1.24974E-01 3.08476E-14 9.60361E-14
 -1      3717 1.99579E+01 1.66706E-01 6.15486E-04-1.73107E-01 2.92072E-15 7.41569E-15
 -1      3718 1.99646E+01 1.41149E-01-8.68357E-04-1.53712E-01 5.54238E-15 4.24786E-15
 -1      3719 1.99590E+01 1.44113E-01 3.59928E-04-1.36158E-01 2.19399E-14 6.76910E-15
 -1      3720 1.99287E+01 2.20447E-01 6.98937E-04-2.19962E-01 1.14540E-14-1.20397E-14
 -1      3721 1.99371E+01 1.92472E-01-1.05263E-03-1.94063E-01 1.07494E-14 4.79134E-15
 -1      3722 1.99244E+01 1.99635E-01 5.12893E-04-1.71312E-01 5.84881E-15 2.23863E-15
 -1      3723 1.98930E+01 2.77613E-01 8.14444E-04-2.80888E-01-7.04186E-14 4.28290E-14
 -1      3724 1.99033E+01 2.48100E-01-1.25077E-03-2.47726E-01 1.50601E-14 2.41130E-14
 -1      3725 1.98819E+01 2.60435E-01 6.65123E-04-2.18755E-01-2.80771E-14 1.53943E-13
 -1      3726 1.98503E+01 3.35159E-01 9.76107E-04-3.57613E-01-2.80760E-15-3.08870E-14
 -1      3727 1.98622E+01 3.05859E-01-1.45029E-03-3.16491E-01-7.58962E-14-6.92842E-15
 -1      3728 1.98297E+01 3.24662E-01 7.99569E-04-2.80442E-01-2.32040E-14 9.78507E-14
 -1      3729 1.98010E+01 3.87718E-01 1.20757E-03-4.51818E-01 1.00686E-13 2.19208E-14
 -1      3730 1.98137E+01 3.61649E-01-1.62935E-03-4.02183E-01 6.83048E-14-1.75009E-14
 -1      3731 1.97667E+01 3.88652E-01 8.85841E-04-3.58575E-01 1.88569E-14-1.40901E-14
 -1      3732 1.97478E+01 4.26685E-01 1.54664E-03-5.65027E-01-9.17624E-14 4.00096E-15
 -1      3733 1.97594E+01 4.08610E-01-1.75247E-03-5.06572E-01 3.50005E-14-1.85072E-14
 -1      3734 1.96933E+01 4.46116E-01 8.73424E-04-4.55640E-01 8.19283E-14 1.22176E-13
 -1      3735 1.96966E+01 4.39153E-01 2.04944E-03-6.98454E-01-2.03943E-13 1.24111E-14
 -1      3736 1.97032E+01 4.36134E-01-1.76291E-03-6.31268E-01-1.57516E-13 3.77867E-14
 -1      3737 1.96116E+01 4.87158E-01 6.81700E-04-5.74468E-01-1.16855E-13-9.16696E-15
 -1      3738 1.96586E+01 4.06772E-01 2.78988E-03-8.52727E-01-7.02165E-14-3.64100E-14
 -1      3739 1.96533E+01 4.28746E-01-1.56805E-03-7.77534E-01-1.54187E-13-1.13401E-14
 -1      3740 1.95273E+01 4.97123E-01 1.84570E-04-7.18316E-01-1.31973E-13-1.94606E-13
 -1      3741 1.96526E+01 3.04743E-01 3.84199E-03-1.02726E+00-9.16600E-14-1.07510E-13
 -1      3742 1.96245E+01 3.65020E-01-1.00997E-03-9.45906E-01-5.26276E-14-1.81272E-14
 -1      3743 1.94518E+01 4.55334E-01-8.14797E-04-8.90879E-01-1.03481E-13-1.19511E-13
 -1      3744 1.97094E+01 1.01373E-01 5.20384E-03-1.21868E+00-3.86890E-14-2.35002E-14
 -1      3745 1.96416E+01 2.16812E-01 1.93073E-04-1.13519E+00-1.34167E-13-9.73503E-14
 -1      3746 1.94048E+01 3.33809E-01-2.62928E-03-1.09595E+00-7.18032E-14-1.47566E-13
 -1      3747 1.98755E+01-2.40558E-01 6.62201E-03-1.41672E+00 3.04270E-14-1.22730E-13
 -1      3748 1.97439E+01-5.04494E-02 2.53993E-03-1.33978E+00 1.15699E-13 3.53820E-14
 -1      3749 1.94193E+01 9.61945E-02-5.77803E-03-1.33587E+00 1.31632E-14-1.23249E-13
 -1      3750 2.02188E+01-7.57075E-01 7.34630E-03-1.59505E+00 8.70484E-15-2.96491E-13
 -1      3751 1.99922E+01-4.74414E-01 6.86284E-03-1.54299E+00-3.25589E-14-2.21483E-13
 -1      3752 1.95490E+01-3.01984E-01-1.10986E-02-1.60657E+00 1.20885E-13-9.20989E-14
 -1      3753 2.08249E+01-1.46263E+00 5.33085E-03-1.69346E+00-7.84787E-14-2.34843E-13
 -1      3754 2.04736E+01-1.08483E+00 1.38867E-02-1.70391E+00-2.24785E-14-3.05950E-13
 -1      3755 1.98767E+01-9.05023E-01-1.94505E-02-1.88575E+00 6.24880E-15-3.21512E-14
 -1      3756 2.18768E+01-2.27629E+00 1.84626E-02-1.55144E+00-1.34642E-13-1.78659E-13
 -1      3757 2.13136E+01-1.87535E+00 2.80876E-02-1.73021E+00-1.24743E-13-2.54814E-13
 -1      3758 2.05448E+01-1.73526E+00-2.49050E-02-2.11956E+00-1.13320E-13 8.74934E-14
 -1      3759 2.26811E+01-3.27273E+00 1.03000E-02-1.84011E+00-1.04824E-13 2.32006E-14
 -1      3760 2.20071E+01-2.86809E+00 2.72273E-02-2.07520E+00-2.00414E-13-7.55524E-14
 -1      3761 2.50503E+01-2.99085E+00-3.66431E-02 2.46011E-01-1.16419E-13 4.20053E-13
 -1      3762 2.45801E+01-3.31425E+00 1.02631E-04-3.56571E-01-5.08118E-14 2.28987E-13
 -1      3763 2.59443E+01-2.51856E+00-5.55709E-02 9.56068E-01-2.22218E-13 4.88374E-13
 -1      3764 2.28241E+01-1.78371E+00 1.54626E-02 1.31989E+00-2.54934E-13-6.38554E-13
 -1      3765 2.02204E+01 1.55257E+00-4.04825E-03-2.80295E-01 5.30025E-14-2.43909E-13
 -1      3766 2.02964E+01 1.28832E+00 4.33931E-03-2.49678E-01 4.04036E-14-2.21149E-13
 -1      3767 2.02100E+01 1.60909E+00-2.31476E-03-1.97000E-01 6.07592E-14-2.38567E-13
 -1      3768 2.03203E+01 1.06440E+00-1.26708E-04-2.45214E-01 2.40427E-14-2.30099E-13
 -1      3769 2.03289E+01 9.50050E-01-3.01659E-05-2.55536E-01 2.66985E-14-2.26686E-13
 -1      3770 2.03351E+01 8.22971E-01-1.49732E-03-1.88797E-01 2.77873E-14-2.39420E-13
 -1      3771 1.75470E+01-1.50542E+00 2.80405E-03-3.59232E+00-3.87902E-13 3.19623E-14
 -1      3772 1.87938E+01-2.18429E+00-2.59724E-03-3.63799E+00-3.47391E-13 1.32576E-13
 -1      3773 2.02512E+01 1.38209E+00-4.85939E-03 4.13823E-01 1.52889E-13-9.45254E-14
 -1      3774 2.02374E+01 1.48205E+00-1.28753E-03 3.45130E-01 1.42044E-13-1.07913E-13
 -1      3775 2.02974E+01 1.28353E+00 4.50225E-03 2.50210E-01 1.20986E-13-1.16829E-13
 -1      3776 2.03058E+01 1.11475E+00 3.64518E-03 3.35757E-01 1.35283E-13-4.24423E-14
 -1      3777 2.29003E+01-2.31108E+00 1.35670E-02 2.33423E+00 1.28432E-13-3.93036E-13
 -1      3778 2.29556E+01-2.18031E+00-1.32698E-02 1.83370E+00 4.86269E-14-6.50038E-13
 -1      3779 2.32629E+01-2.18380E+00 1.06184E-02 1.29490E+00-1.81799E-13-4.90335E-13
 -1      3780 2.33512E+01-2.93783E+00 2.63717E-04 2.47003E+00 1.90566E-13-2.09789E-13
 -1      3781 2.03562E+01 6.44012E-01 9.22078E-05-1.26086E-01 1.42223E-14-2.34445E-13
 -1      3782 2.03506E+01 4.98155E-01-1.04912E-03-5.75172E-02-1.53724E-14-2.35501E-13
 -1      3783 2.03634E+01 7.38604E-01 5.12066E-04-1.27822E-01 5.68264E-15-2.23987E-13
 -1      3784 2.34918E+01-3.92399E+00 3.54556E-02 3.68255E+00 1.04642E-13-7.16354E-15
 -1      3785 2.01611E+01 5.70643E-02-6.50871E-04-1.34752E-01 6.80381E-14-1.77352E-14
 -1      3786 2.01823E+01 1.04015E-01 1.87318E-03-1.10756E-01 7.28578E-14-1.42429E-14
 -1      3787 2.02472E+01 1.61952E-01-6.47030E-04-7.83935E-02 7.86293E-14-2.74894E-14
 -1      3788 2.03344E+01 2.16119E-01 1.00937E-03 4.70552E-02-4.90555E-14-1.56886E-13
 -1      3789 2.03146E+01 1.41920E-01-9.08309E-04 7.64074E-02-5.44675E-14-1.37682E-13
 -1      3790 2.03412E+01 1.31236E-01-1.92794E-04 6.85736E-02-3.36706E-14-1.61274E-13
 -1      3791 2.03544E+01 3.94294E-01 5.62568E-04-2.23076E-02-2.10018E-14-1.83565E-13
 -1      3792 2.03395E+01 2.88635E-01-1.11104E-03 2.46499E-02-3.90648E-14-1.48179E-13
 -1      3793 2.03670E+01 2.76734E-01 3.51217E-04 2.67397E-02-3.76898E-14-1.79368E-13
 -1      3794 2.03759E+01 4.62457E-01 1.23583E-03-3.32891E-02 4.20026E-15-2.00771E-13
 -1      3795 2.39672E+01-3.52143E+00 9.41250E-03 2.63362E+00 9.38904E-14 7.00863E-14
 -1      3796 2.02718E+01 9.56342E-01 2.05468E-03 4.63611E-01 1.75944E-13 3.73991E-14
 -1      3797 2.02857E+01 8.22636E-01 2.13706E-03 3.37399E-01 1.63708E-13 2.17024E-14
 -1      3798 2.00014E+01 7.43813E-02 5.14527E-04-1.14942E-01 3.69827E-14 8.32784E-14
 -1      3799 2.00062E+01 5.43007E-02-5.59630E-04-1.06280E-01 4.52987E-14 5.42157E-14
 -1      3800 1.99874E+01 9.45524E-02 2.14711E-04-1.11558E-01 1.99146E-14 1.93455E-14
 -1      3801 2.03048E+01 8.39134E-01 1.61666E-03 2.88735E-01 1.50739E-13 2.72524E-14
 -1      3802 2.39922E+01-2.66025E+00 1.04127E-02 1.27371E+00 9.08128E-16-1.54079E-13
 -1      3803 2.40890E+01-3.19687E+00-1.00759E-02 1.96654E+00 6.42600E-14-1.70519E-13
 -1      3804 2.01125E+01-6.80559E-02-5.40992E-04-1.45794E-01 3.18096E-14-3.63932E-14
 -1      3805 2.01316E+01-7.80411E-02-4.44329E-04-1.06040E-01 9.03836E-14-7.55128E-14
 -1      3806 2.01148E+01-7.48228E-02 3.67828E-04-1.19767E-01 5.03098E-14-2.22993E-15
 -1      3807 2.01258E+01-7.59626E-02 1.75410E-04-1.25217E-01 3.96254E-14-3.13890E-14
 -1      3808 2.03191E+01 1.19461E+00-2.72320E-03 3.20459E-02 7.40675E-14-2.21651E-13
 -1      3809 2.03194E+01 1.19552E+00-2.51669E-03-2.86288E-02 6.60928E-14-2.51939E-13
 -1      3810 2.02864E+01 1.38777E+00 5.18301E-03-1.30241E-01 5.35878E-14-2.32513E-13
 -1      3811 1.46345E+01 9.55328E-01-2.43159E-02 7.99084E-01-1.17713E-13-2.89754E-13
 -1      3812 2.02105E+01-2.25849E-02-1.63009E-04-1.34904E-01 5.71863E-14-1.96055E-14
 -1      3813 2.02296E+01 6.30425E-03 9.33739E-04-1.27818E-01 5.68700E-14-3.61253E-14
 -1      3814 2.03128E+01 3.13226E-01-2.14760E-03-1.05838E-02 9.11962E-14 1.37142E-14
 -1      3815 2.03382E+01 4.23771E-01 3.86140E-03 4.63114E-02 9.51651E-14 2.53577E-14
 -1      3816 2.00118E+01 5.09745E-02 8.04202E-05-9.59742E-02 4.23966E-14-1.07305E-14
 -1      3817 2.00557E+01-1.92066E-02-1.68680E-04-8.64077E-02 4.24029E-14-4.28035E-15
 -1      3818 2.00518E+01-2.50864E-02 4.62760E-04-9.42282E-02 2.52333E-14-6.04458E-16
 -1      3819 2.00574E+01-3.75055E-02-2.14871E-04-9.63807E-02 1.11250E-14-4.73305E-14
 -1      3820 2.33338E+01-3.81156E+00 1.26223E-02-2.07153E+00-2.19063E-13 9.97813E-14
 -1      3821 2.03196E+01 9.17519E-01-2.17459E-03 2.74362E-01 1.36822E-13-7.70206E-15
 -1      3822 2.03233E+01 1.01719E+00 1.81495E-04 2.48712E-01 1.03089E-13-5.64683E-14
 -1      3823 2.03300E+01 7.60811E-01 3.57201E-03 1.99963E-01 1.25157E-13 2.91556E-14
 -1      3824 1.42573E+01 8.08013E-01 5.29236E-02-1.42170E+00-1.52260E-13-4.35971E-14
 -1      3825 1.52159E+01 5.41861E-01 1.03508E-02-1.79677E+00-1.58419E-13 4.79452E-14
 -1      3826 1.44749E+01 9.69024E-01-1.36655E-02-5.84724E-01-1.75912E-13-3.94650E-14
 -1      3827 2.01750E+01-5.86887E-02 1.03294E-04-1.36754E-01 4.94925E-14-1.06515E-14
 -1      3828 2.01913E+01-4.34264E-02 6.19923E-04-1.36612E-01 6.30851E-14-9.05552E-15
 -1      3829 2.02390E+01-3.01946E-02-5.31722E-04-1.19634E-01 6.25786E-14-1.46098E-14
 -1      3830 2.03171E+01 1.12650E+00-1.18796E-03-1.98299E-01 3.18698E-14-2.28884E-13
 -1      3831 1.62636E+01-9.77184E-02-2.00297E-02-2.53510E+00-2.75293E-13-5.95674E-14
 -1      3832 1.68759E+01-7.71200E-01 2.51353E-02-3.20806E+00-3.04449E-13-2.70487E-14
 -1      3833 1.78465E+01-8.97776E-01 6.07558E-03-2.90272E+00-3.00950E-13 1.00737E-13
 -1      3834 2.00769E+01-5.76925E-02-1.04912E-04-1.03928E-01 3.28208E-14-4.34132E-14
 -1      3835 2.01034E+01-6.59444E-02-3.61470E-04-9.69716E-02 7.66618E-14-3.08442E-14
 -1      3836 2.00700E+01-4.81472E-02 4.49204E-04-9.96406E-02 7.23933E-15-4.59107E-14
 -1      3837 2.03249E+01 6.17144E-01-2.98223E-03 1.27643E-01 1.18990E-13 2.37270E-14
 -1      3838 1.92713E+01-1.88191E+00 3.34260E-03-3.11056E+00-2.97325E-13-1.23151E-13
 -1      3839 1.95202E+01-2.38972E+00 2.23576E-02-3.44441E+00-3.43795E-13-7.97955E-14
 -1      3840 2.02916E+01-2.67764E+00-1.42765E-02-3.13085E+00-2.44464E-13-1.09598E-13
 -1      3841 2.03529E+01 6.01473E-01-2.66781E-03 1.01507E-01 1.11349E-13 1.02322E-16
 -1      3842 2.03229E+01 1.14614E+00-2.85754E-03 1.34312E-01 1.08232E-13-1.30424E-13
 -1      3843 2.03217E+01 1.18157E+00-1.50985E-03 7.72785E-02 7.67439E-14-1.72524E-13
 -1      3844 2.03726E+01 9.96123E-01 4.10872E-03 4.04197E-02 6.55786E-14-1.79823E-13
 -1      3845 2.02094E+01 5.36057E-02-7.42354E-04-1.26521E-01 7.71431E-14-2.78828E-14
 -1      3846 2.02479E+01 4.28425E-02-5.75578E-04-1.18700E-01 6.87617E-14-2.01654E-14
 -1      3847 2.02692E+01 9.08669E-02 1.27546E-03-1.00684E-01 7.71452E-14 1.77899E-15
 -1      3848 2.02794E+01 3.51950E-02-4.47647E-04-1.06359E-01 6.25922E-14 5.88604E-15
 -1      3849 2.02982E+01-2.43513E-02 5.01289E-04 8.32530E-02 2.68583E-14-8.08421E-14
 -1      3850 2.02762E+01-4.93954E-02 7.83124E-07 8.65669E-02 2.08987E-14-5.78388E-14
 -1      3851 2.02536E+01-6.68135E-02 3.80761E-04 8.58664E-02 7.76456E-15-3.26414E-14
 -1      3852 2.02328E+01-7.83515E-02 1.85283E-04 8.54117E-02-1.33203E-14-4.21695E-14
 -1      3853 2.02846E+01-5.73305E-02-5.03091E-04 6.70123E-02 1.78382E-14-9.24465E-14
 -1      3854 2.02107E+01-8.46369E-02 2.64128E-04 8.29604E-02-1.50375E-14-2.53237E-14
 -1      3855 2.01919E+01-8.66292E-02 2.87198E-04 8.05058E-02-2.31741E-14 3.03010E-15
 -1      3856 2.02391E+01-8.31762E-02-5.34399E-04 6.58812E-02-1.37663E-14-3.45458E-14
 -1      3857 2.01710E+01-8.49442E-02 1.49776E-04 7.73264E-02-2.10054E-15 5.80540E-14
 -1      3858 2.01543E+01-8.00532E-02 3.36143E-04 7.42585E-02 1.87254E-14 1.18441E-13
 -1      3859 2.01963E+01-8.85708E-02-5.05081E-04 6.21370E-02 2.31007E-14 9.16231E-14
 -1      3860 2.01350E+01-7.25741E-02 4.36455E-05 7.12328E-02 1.99423E-15 1.19273E-13
 -1      3861 2.01202E+01-6.25803E-02 3.43965E-04 6.85853E-02-5.36557E-14 1.46194E-13
 -1      3862 2.01567E+01-7.91090E-02-4.31129E-04 5.75430E-02 4.09351E-14 1.61333E-13
 -1      3863 2.01023E+01-5.07065E-02-5.93618E-05 6.63649E-02-7.08743E-14 1.35765E-13
 -1      3864 2.00889E+01-3.66878E-02 3.27862E-04 6.49050E-02-1.80203E-14 1.53711E-13
 -1      3865 2.01204E+01-5.86412E-02-3.20640E-04 5.36007E-02-4.97865E-14 1.03871E-13
 -1      3866 2.00717E+01-2.11847E-02-1.71091E-04 6.39541E-02-1.58094E-14 8.94320E-14
 -1      3867 2.00590E+01-3.64127E-03 2.94977E-04 6.42766E-02-4.18205E-14 8.45663E-14
 -1      3868 2.00866E+01-2.95560E-02-1.85147E-04 5.13448E-02-2.43630E-14 7.39049E-14
 -1      3869 2.00417E+01 1.52919E-02-2.95396E-04 6.49455E-02-4.97375E-14 5.69854E-14
 -1      3870 2.00287E+01 3.63543E-02 2.47620E-04 6.75818E-02-3.86242E-14 9.16015E-14
 -1      3871 2.00536E+01 7.04522E-03-3.68267E-05 5.15711E-02-7.39675E-14 7.74176E-14
 -1      3872 2.00100E+01 5.88511E-02-4.33364E-04 7.02281E-02-1.69210E-14 1.07116E-13
 -1      3873 1.99956E+01 8.37089E-02 1.84074E-04 7.56333E-02 3.02057E-14 1.34500E-13
 -1      3874 2.00194E+01 5.11332E-02 1.46474E-04 5.49337E-02-4.89625E-15 1.09540E-13
 -1      3875 1.99741E+01 1.10177E-01-5.93160E-04 8.05308E-02 1.30315E-14 1.51633E-13
 -1      3876 1.99569E+01 1.39340E-01 1.00758E-04 8.91131E-02 1.24188E-14 1.27519E-13
 -1      3877 1.99814E+01 1.03179E-01 3.66297E-04 6.20057E-02 2.08913E-14 9.23499E-14
 -1      3878 1.99309E+01 1.70367E-01-7.80174E-04 9.64878E-02 5.22797E-14 1.59218E-13
 -1      3879 1.99091E+01 2.04468E-01-1.08156E-05 1.08605E-01 1.03127E-13 1.46215E-13
 -1      3880 1.99364E+01 1.64147E-01 6.29281E-04 7.31819E-02 2.74117E-14 1.87586E-13
 -1      3881 1.98765E+01 2.40710E-01-9.98094E-04 1.18609E-01 9.25610E-14 1.36728E-13
 -1      3882 1.98481E+01 2.80387E-01-1.63831E-04 1.34534E-01 7.82327E-14 1.96161E-13
 -1      3883 1.98806E+01 2.35242E-01 9.48342E-04 8.87098E-02 1.07929E-13 1.82515E-13
 -1      3884 1.98064E+01 3.22447E-01-1.25076E-03 1.47191E-01 3.16662E-14 1.94268E-13
 -1      3885 1.97687E+01 3.68205E-01-3.76304E-04 1.67056E-01-3.28128E-14 1.32468E-13
 -1      3886 1.98094E+01 3.17643E-01 1.34007E-03 1.08583E-01 4.62318E-14 1.12670E-13
 -1      3887 1.97148E+01 4.16482E-01-1.54289E-03 1.82183E-01-2.14056E-14 1.18415E-13
 -1      3888 1.96647E+01 4.68521E-01-6.71194E-04 2.05898E-01 7.28139E-15 1.19075E-13
 -1      3889 1.97175E+01 4.12207E-01 1.82551E-03 1.32399E-01-1.10052E-14 2.29629E-13
 -1      3890 1.95951E+01 5.23017E-01-1.88285E-03 2.23014E-01 8.61396E-15 6.45374E-14
 -1      3891 1.95285E+01 5.81010E-01-1.07602E-03 2.50190E-01-3.42429E-14 1.19446E-13
 -1      3892 1.95981E+01 5.19120E-01 2.43225E-03 1.59170E-01-1.81834E-14 1.78195E-13
 -1      3893 1.94387E+01 6.41075E-01-2.28908E-03 2.68427E-01 1.58707E-15 1.77800E-13
 -1      3894 1.93507E+01 7.03890E-01-1.62183E-03 2.98324E-01 1.25992E-13 1.85274E-13
 -1      3895 1.94435E+01 6.37458E-01 3.19861E-03 1.87107E-01 5.13493E-14 1.46766E-13
 -1      3896 1.92353E+01 7.67904E-01-2.80278E-03 3.16367E-01 8.76480E-14 1.55193E-13
 -1      3897 1.91195E+01 8.33274E-01-2.34167E-03 3.47956E-01 9.30509E-14 3.34404E-14
 -1      3898 1.92437E+01 7.64694E-01 4.18174E-03 2.13434E-01 5.81505E-14 7.52005E-14
 -1      3899 1.89714E+01 8.98259E-01-3.51194E-03 3.64102E-01 1.09466E-13-3.55387E-14
 -1      3900 1.88201E+01 9.62402E-01-3.26934E-03 3.96352E-01 1.13929E-13-6.06728E-14
 -1      3901 1.89866E+01 8.96152E-01 5.47411E-03 2.34298E-01 5.96036E-14-8.90002E-14
 -1      3902 1.86295E+01 1.02358E+00-4.59292E-03 4.08783E-01 1.27651E-13-6.93569E-14
 -1      3903 1.84326E+01 1.08082E+00-4.43640E-03 4.41400E-01 1.12217E-13-6.14721E-14
 -1      3904 1.86561E+01 1.02453E+00 7.23666E-03 2.44948E-01 1.08661E-13-5.36449E-14
 -1      3905 1.81853E+01 1.13113E+00-6.37286E-03 4.48901E-01 9.30088E-14-1.87294E-13
 -1      3906 1.79292E+01 1.17343E+00-5.88388E-03 4.83793E-01 3.96504E-14-1.34774E-13
 -1      3907 1.82301E+01 1.13958E+00 9.76283E-03 2.40438E-01 8.78880E-14-3.26000E-14
 -1      3908 1.76035E+01 1.20292E+00-9.38971E-03 4.87011E-01-4.33095E-15-1.95892E-13
 -1      3909 1.72688E+01 1.21922E+00-7.78908E-03 5.30920E-01-1.23220E-13-1.58097E-13
 -1      3910 1.76756E+01 1.22787E+00 1.35663E-02 2.17242E-01 2.73208E-15-2.76733E-13
 -1      3911 1.68300E+01 1.21686E+00-1.37183E-02 5.33392E-01-2.31578E-13-1.60886E-13
 -1      3912 1.63862E+01 1.19354E+00-8.04666E-03 6.02353E-01-1.72018E-13-1.74171E-13
 -1      3913 1.69420E+01 1.27203E+00 1.94269E-02 1.74260E-01-1.67652E-13-1.80684E-13
 -1      3914 1.58645E+01 1.14218E+00-2.29338E-02 6.43091E-01-1.88690E-13-1.91148E-13
 -1      3915 1.54005E+01 1.07141E+00-8.38397E-03 7.77356E-01-1.70637E-13-3.35791E-13
 -1      3916 1.60388E+01 1.26560E+00 3.16966E-02 1.42798E-01-2.11438E-13-1.81853E-13
 -1      3917 2.03200E+01 1.18292E+00-1.92223E-03-7.46312E-02 6.67973E-14-2.15665E-13
 -1      3918 2.03226E+01 1.15227E+00-2.24678E-03-1.31574E-01 3.81996E-14-1.93161E-13
 -1      3919 2.03735E+01 9.97067E-01 4.48352E-03-3.89150E-02 4.36462E-14-2.24246E-13
 -1      3920 2.03066E+01 2.24392E-01 1.83517E-03-4.67433E-02 1.01444E-13 5.15019E-15
 -1      3921 2.03465E+01 3.09657E-01 5.65275E-04-1.65334E-02 1.08848E-13-1.99517E-14
 -1      3922 2.02841E+01 1.49365E-01-1.19599E-03-8.05576E-02 9.88857E-14-6.28467E-15
 -1      3923 2.03611E+01 9.56429E-01 2.43334E-03-1.39528E-01 1.46590E-14-1.93360E-13
 -1      3924 2.00052E+01 6.59813E-02 3.43719E-04-8.65165E-02 7.14624E-14 4.56708E-14
 -1      3925 2.00162E+01 4.40438E-02-4.43549E-04-8.08380E-02 7.16478E-14 4.89886E-14
 -1      3926 1.98932E+01 2.30391E-01 3.67651E-04-1.60499E-01-3.05263E-14 1.27716E-13
 -1      3927 1.99114E+01 1.98411E-01-9.91153E-04-1.40888E-01 4.70415E-14 1.07484E-13
 -1      3928 1.99378E+01 1.68933E-01 3.42104E-04-1.26463E-01 2.18632E-14 8.59783E-14
 -1      3929 1.99526E+01 1.40322E-01-7.79129E-04-1.12253E-01 1.56666E-14 8.15491E-14
 -1      3930 1.99100E+01 1.98773E-01 6.55594E-04-1.15123E-01 4.05148E-15 1.20510E-13
 -1      3931 1.97706E+01 3.69131E-01 5.30363E-04-2.65786E-01 5.97195E-14-2.43667E-15
 -1      3932 1.97979E+01 3.32498E-01-1.51420E-03-2.32567E-01 2.38240E-14 6.26023E-14
 -1      3933 1.96890E+01 4.40561E-01 7.14249E-04-3.41779E-01 3.22996E-14-9.65116E-16
 -1      3934 1.97213E+01 4.04372E-01-1.82348E-03-3.00067E-01-3.62568E-14-1.09502E-14
 -1      3935 1.97008E+01 4.20409E-01 1.40713E-03-2.48557E-01 4.31548E-14-4.50032E-14
 -1      3936 1.95929E+01 5.05474E-01 1.02155E-03-4.37386E-01 4.00564E-14 5.20938E-14
 -1      3937 1.96296E+01 4.73383E-01-2.15813E-03-3.85796E-01 1.18228E-13 8.67113E-14
 -1      3938 1.95974E+01 4.98952E-01 1.64326E-03-3.22938E-01 2.48350E-15-1.80293E-14
 -1      3939 1.94843E+01 5.53583E-01 1.52214E-03-5.56605E-01-1.53680E-13 4.16139E-14
 -1      3940 1.95232E+01 5.31203E-01-2.50672E-03-4.93474E-01-7.62459E-14 8.09590E-14
 -1      3941 1.94745E+01 5.70049E-01 1.81884E-03-4.18538E-01-2.58507E-14 2.15335E-14
 -1      3942 1.93685E+01 5.69781E-01 2.31977E-03-7.04557E-01-1.35913E-13-1.19273E-13
 -1      3943 1.94052E+01 5.65264E-01-2.84677E-03-6.27843E-01-1.19917E-13-6.05553E-14
 -1      3944 1.93324E+01 6.22589E-01 1.87047E-03-5.41042E-01-1.02998E-13 4.55115E-14
 -1      3945 1.92564E+01 5.32879E-01 3.56267E-03-8.87818E-01-1.04473E-13-3.80432E-14
 -1      3946 1.92828E+01 5.57563E-01-3.13058E-03-7.95046E-01-1.89799E-13-5.56778E-14
 -1      3947 1.91750E+01 6.40429E-01 1.69494E-03-6.98190E-01-1.31148E-13-6.42287E-15
 -1      3948 1.91677E+01 4.14229E-01 5.46031E-03-1.11454E+00-3.12094E-15-6.53627E-14
 -1      3949 1.91703E+01 4.83353E-01-3.24837E-03-1.00298E+00-2.42107E-14-1.39121E-14
 -1      3950 1.90107E+01 6.01017E-01 1.11780E-03-9.00554E-01-1.20920E-13-1.46508E-14
 -1      3951 1.91362E+01 1.75970E-01 8.19011E-03-1.39375E+00-1.66678E-14-2.58184E-14
 -1      3952 1.90928E+01 3.09726E-01-2.92208E-03-1.26134E+00-2.45913E-14-3.18352E-14
 -1      3953 1.88559E+01 4.73654E-01-1.78384E-04-1.16240E+00-9.69265E-15 4.43235E-14
 -1      3954 1.92179E+01-2.30430E-01 1.17749E-02-1.73171E+00 8.68298E-14-1.65089E-14
 -1      3955 1.90943E+01-5.56244E-03-1.27249E-03-1.57967E+00 4.56957E-14-8.01553E-14
 -1      3956 1.87404E+01 2.16226E-01-2.87384E-03-1.50208E+00 4.55238E-14-7.01954E-14
 -1      3957 1.95004E+01-8.60989E-01 1.44701E-02-2.11815E+00 3.00302E-15-4.18424E-14
 -1      3958 1.92508E+01-5.16136E-01 3.25938E-03-1.95814E+00 9.52808E-14 2.49592E-14
 -1      3959 1.87189E+01-2.33681E-01-9.32670E-03-1.93798E+00 1.13305E-14-1.72060E-13
 -1      3960 2.09827E+01-2.77437E+00-3.09669E-02-2.73923E+00-2.09713E-13 1.20488E-13
 -1      3961 2.03792E+01 7.63211E-01-8.13030E-04-8.25103E-02 1.09252E-14-1.90587E-13
 -1      3962 1.48447E+01 1.17876E+00 4.82527E-02 1.04339E-01-1.61404E-13-1.38425E-13
 -1      3963 2.03245E+01 1.05567E+00-3.32421E-03 2.16022E-01 1.02931E-13-1.04719E-13
 -1      3964 2.03216E+01 1.12342E+00-1.74494E-03 1.71201E-01 1.09682E-13-1.07450E-13
 -1      3965 2.03671E+01 9.54362E-01 2.89616E-03 1.07138E-01 1.01189E-13-1.02581E-13
 -1      3966 2.03633E+01 8.86704E-01 5.79799E-03 1.66050E-01 9.58867E-14-7.32342E-14
 -1      3967 1.99743E+01 1.14132E-01 3.36625E-04-1.02313E-01 1.07139E-15 1.05148E-13
 -1      3968 1.99867E+01 8.89338E-02-5.97555E-04-9.27182E-02 5.68335E-15 7.79478E-14
 -1      3969 1.99928E+01 8.42116E-02 2.41715E-04-7.65827E-02 1.62658E-14 9.24881E-14
 -1      3970 2.00328E+01 2.41763E-02 3.58040E-04-7.77553E-02 1.85336E-14 7.67292E-14
 -1      3971 2.00432E+01 5.32521E-03-2.98597E-04-7.53476E-02 4.45822E-14 5.36291E-14
 -1      3972 2.00257E+01 3.76157E-02 6.63242E-05-6.75368E-02 5.06057E-14 7.46078E-14
 -1      3973 1.98382E+01 2.97781E-01 4.24432E-04-2.06223E-01-7.16494E-14 1.24305E-13
 -1      3974 1.98606E+01 2.62896E-01-1.23603E-03-1.80319E-01-4.89455E-14 5.75256E-14
 -1      3975 1.98545E+01 2.67013E-01 8.94995E-04-1.47512E-01-4.89029E-15 1.07546E-13
 -1      3976 2.01429E+01-7.40626E-02 2.72513E-04-1.30183E-01 2.84888E-14 3.65705E-15
 -1      3977 2.01564E+01-6.84431E-02 3.72363E-04-1.33981E-01 5.44115E-14 2.79785E-15
 -1      3978 2.01998E+01-6.55403E-02-5.59986E-04-1.20773E-01 6.00313E-14 1.97476E-14
 -1      3979 2.01638E+01-7.93739E-02-5.19067E-04-1.14946E-01 5.48023E-14 1.27171E-14
 -1      3980 2.03770E+01 1.76399E-01 4.65566E-04 4.50465E-02-1.81746E-14-1.71852E-13
 -1      3981 2.03586E+01 1.07435E-01-5.71086E-04 6.33940E-02-1.86938E-14-1.62542E-13
 -1      3982 2.03647E+01 6.37613E-01-3.45682E-03 8.41758E-02 9.19474E-14-5.31587E-14
 -1      3983 2.03413E+01 5.24043E-02 6.03525E-04 7.11732E-02 1.21299E-14-1.35214E-13
 -1      3984 2.03196E+01 8.73175E-03-2.75988E-04 8.06219E-02 2.71644E-14-9.16232E-14
 -1      3985 2.03301E+01-2.75188E-03-3.86311E-04 6.29535E-02 5.31161E-14-9.48914E-14
 -1      3986 1.97857E+01 3.41650E-01 1.14983E-03-1.91156E-01 3.05648E-14-1.44725E-14
 -1      3987 2.01458E+01-7.93137E-02 3.63672E-04-8.91292E-02 8.95293E-14-3.38453E-14
 -1      3988 2.01610E+01-8.30292E-02 1.75214E-04-9.29956E-02 8.97923E-14-2.42224E-14
 -1      3989 2.03929E+01 8.25123E-01-1.68132E-03-1.10719E-02 2.66456E-14-2.19214E-13
 -1      3990 2.03918E+01 8.08350E-01-2.48064E-03-4.50714E-02 1.03773E-14-2.04993E-13
 -1      3991 2.03175E+01 1.42488E-01-2.43871E-04-7.43788E-02 8.69666E-14-6.55360E-15
 -1      3992 2.03910E+01 8.11138E-01-1.71944E-03 4.53466E-02 9.25165E-14-1.32389E-13
 -1      3993 2.03931E+01 8.25504E-01-1.40473E-03 1.31469E-02 7.13600E-14-1.95156E-13
 -1      3994 2.04228E+01 6.73930E-01 3.46566E-03 1.43769E-03 4.07242E-14-1.65468E-13
 -1      3995 2.00589E+01-1.15565E-02 3.65820E-04-7.47669E-02 6.01839E-14-1.08664E-14
 -1      3996 2.00696E+01-2.74012E-02-1.78388E-04-7.49332E-02 1.44885E-14 5.59028E-15
 -1      3997 2.00560E+01-2.31575E-03-1.59075E-04-6.38304E-02 9.87866E-15 3.12742E-14
 -1      3998 2.03677E+01 2.74792E-01-2.73858E-03-2.77309E-02 1.04696E-13-4.57707E-14
 -1      3999 2.03878E+01 3.83704E-01 3.52812E-03 8.23189E-03 1.02435E-13-6.76931E-14
 -1      4000 1.99552E+01 1.37820E-01 4.37428E-04-9.20104E-02-2.87967E-15 9.23527E-14
 -1      4001 2.04856E+01-2.12639E+00 5.60498E-03-2.58527E+00-2.07636E-13 3.97438E-14
 -1      4002 2.00965E+01-1.76400E+00 8.10155E-03-2.51735E+00-1.99753E-13-9.32561E-14
 -1      4003 1.96719E+01-1.27700E+00 8.09125E-03-2.36550E+00-1.04046E-13-2.79698E-14
 -1      4004 2.03963E+01 7.32141E-01 4.27031E-04-5.40418E-02 6.03097E-15-1.81098E-13
 -1      4005 2.03967E+01 5.37695E-01-3.34130E-04-4.95688E-02 2.03712E-14-2.11540E-13
 -1      4006 2.03952E+01 4.29825E-01-1.08965E-03-1.15219E-02 7.58047E-16-1.98702E-13
 -1      4007 2.04195E+01 5.89824E-01 1.60340E-03-2.22572E-02-1.02237E-14-1.92252E-13
 -1      4008 1.88979E+01-9.42249E-01-1.79024E-02-2.47467E+00-6.20129E-14-1.85032E-13
 -1      4009 2.03026E+01 1.95300E-02-3.96645E-04-9.46451E-02 5.24627E-14-1.32800E-14
 -1      4010 2.03242E+01 6.49511E-02 8.08024E-04-8.28481E-02 6.95178E-14 1.66904E-15
 -1      4011 1.52107E+01 1.04626E+00-1.35396E-02-4.73600E-01-1.28179E-13-8.82198E-14
 -1      4012 2.03847E+01 2.45362E-01-6.86502E-04 3.34145E-02-3.87946E-14-1.86562E-13
 -1      4013 2.03998E+01 2.23420E-01 2.07097E-04 2.93918E-02-1.18530E-14-1.55306E-13
 -1      4014 2.03933E+01 3.25730E-01 5.24734E-05 8.87910E-03-3.43627E-14-1.84847E-13
 -1      4015 1.59469E+01 3.94103E-01 2.20405E-02-2.06980E+00-1.94896E-13 6.00553E-14
 -1      4016 1.68055E+01 1.93362E-01 1.59697E-02-2.09808E+00-2.64937E-13 1.20569E-13
 -1      4017 1.56751E+01 7.25068E-01-2.55005E-02-1.43700E+00-1.15044E-13 1.48808E-13
 -1      4018 2.00784E+01-4.57993E-02-2.63454E-04-8.98458E-02 8.23917E-15-2.77312E-14
 -1      4019 2.01143E+01-6.43627E-02 4.23217E-04-8.18556E-02 5.71644E-14 5.09551E-14
 -1      4020 2.01273E+01-7.31010E-02 1.71625E-05-8.53671E-02 6.99690E-14 2.61664E-14
 -1      4021 2.01522E+01-7.96870E-02-4.54115E-04-7.30473E-02 5.26573E-14 6.11332E-14
 -1      4022 1.88958E+01-1.41836E+00 3.26632E-02-2.99880E+00-2.57841E-13-1.31789E-13
 -1      4023 1.94266E+01-1.74961E+00-2.31397E-02-2.85811E+00-2.25297E-13-3.01687E-13
 -1      4024 2.03881E+01 6.12217E-01-8.11497E-04 6.19830E-02 9.84189E-14-8.92975E-14
 -1      4025 2.02611E+01-4.13271E-02-3.11993E-05-1.03159E-01 5.23722E-14 1.07866E-14
 -1      4026 2.02823E+01-1.48756E-02 6.38365E-04-9.89109E-02 3.99741E-14-1.24832E-14
 -1      4027 2.03195E+01 8.82011E-03-3.98332E-04-7.84797E-02 4.07686E-14 1.05489E-14
 -1      4028 2.03716E+01 9.13330E-02-1.77916E-04 5.07317E-02 4.11037E-15-1.37459E-13
 -1      4029 1.81411E+01-8.04664E-01 8.20632E-03-2.69448E+00-2.07161E-13-5.30832E-14
 -1      4030 1.80116E+01-3.89593E-01 3.52088E-04-2.37754E+00-1.01442E-13-1.18262E-13
 -1      4031 1.97376E+01 3.78350E-01 4.89322E-06-1.64915E-01 2.17843E-14 1.25780E-14
 -1      4032 1.97748E+01 3.36541E-01-1.51505E-03-1.42153E-01 4.65355E-14 4.34300E-14
 -1      4033 2.02637E+01-8.01566E-02 3.12416E-04 4.60016E-02-4.67465E-15-3.77101E-14
 -1      4034 2.02417E+01-8.75127E-02 4.25000E-04 4.60529E-02-1.97042E-14-2.14279E-14
 -1      4035 2.02181E+01-9.04736E-02 2.17781E-04 4.37348E-02 4.49595E-14-3.34894E-14
 -1      4036 2.01975E+01-8.88545E-02 3.89126E-04 4.27586E-02 5.89969E-14 2.84624E-14
 -1      4037 2.02372E+01-9.11959E-02-9.63967E-04 2.47565E-02 4.17308E-14-4.96835E-14
 -1      4038 2.01756E+01-8.41577E-02 1.73762E-04 4.07114E-02 2.96194E-14 7.07990E-14
 -1      4039 2.01565E+01-7.61791E-02 2.90645E-04 3.94255E-02 1.61519E-14 5.98229E-14
 -1      4040 2.01925E+01-8.86139E-02-7.92159E-04 2.34739E-02 5.25994E-14-4.47363E-14
 -1      4041 2.01363E+01-6.58324E-02 9.59115E-05 3.79584E-02-2.47096E-14 7.15411E-14
 -1      4042 2.01188E+01-5.30441E-02 2.45690E-04 3.69889E-02-4.72310E-14 9.23377E-14
 -1      4043 2.01510E+01-7.24880E-02-5.41507E-04 2.21575E-02 5.49868E-15 1.94517E-14
 -1      4044 2.00997E+01-3.83277E-02-7.12218E-06 3.61038E-02-7.04287E-14 1.06065E-13
 -1      4045 2.00833E+01-2.15154E-02 2.62302E-04 3.59981E-02-7.22637E-14 9.02026E-14
 -1      4046 2.01125E+01-4.64023E-02-3.19691E-04 2.09181E-02-5.15831E-14 1.16336E-13
 -1      4047 2.00642E+01-3.09330E-03-1.40431E-04 3.55041E-02-6.33406E-14 1.09746E-13
 -1      4048 2.00478E+01 1.75655E-02 1.73978E-04 3.65847E-02-6.04791E-14 1.43984E-13
 -1      4049 2.00761E+01-1.21519E-02-1.26310E-04 2.02711E-02-5.64396E-14 7.92995E-14
 -1      4050 2.00279E+01 3.97333E-02-2.61877E-04 3.70314E-02-2.52800E-14 1.61463E-13
 -1      4051 2.00102E+01 6.42206E-02 7.75522E-05 3.95321E-02 4.16108E-15 1.28693E-13
 -1      4052 2.00387E+01 3.04140E-02 1.60394E-04 2.09800E-02-2.67091E-14 1.28666E-13
 -1      4053 1.99882E+01 9.03000E-02-4.20330E-04 4.08640E-02 1.51890E-14 2.16776E-13
 -1      4054 1.99679E+01 1.18996E-01-4.66673E-05 4.49584E-02 6.37930E-14 2.57661E-13
 -1      4055 1.99989E+01 8.08674E-02 5.65663E-04 2.27793E-02 5.22290E-14 1.74101E-13
 -1      4056 1.99420E+01 1.49469E-01-5.98943E-04 4.71944E-02 4.60906E-14 2.58056E-13
 -1      4057 1.99173E+01 1.82892E-01-2.07393E-04 5.29788E-02 4.33636E-14 2.52584E-13
 -1      4058 1.99533E+01 1.39936E-01 1.05584E-03 2.56493E-02 9.33044E-14 2.26263E-13
 -1      4059 1.98856E+01 2.18314E-01-8.00093E-04 5.60464E-02 3.28640E-14 2.21290E-13
 -1      4060 1.98542E+01 2.57006E-01-4.21263E-04 6.34902E-02 8.17515E-14 1.79037E-13
 -1      4061 1.98983E+01 2.08584E-01 1.64816E-03 2.94124E-02 3.97148E-14 9.33802E-14
 -1      4062 1.98145E+01 2.97896E-01-1.02377E-03 6.71747E-02 7.31589E-14 9.55495E-14
 -1      4063 1.97740E+01 3.42268E-01-7.11253E-04 7.60520E-02 2.74257E-14 8.69843E-14
 -1      4064 1.98299E+01 2.87794E-01 2.37035E-03 3.35907E-02 1.94673E-14 9.89622E-15
 -1      4065 1.97236E+01 3.88958E-01-1.26832E-03 7.99205E-02 5.17414E-14 7.89341E-14
 -1      4066 1.96707E+01 4.39119E-01-1.10846E-03 8.97167E-02-2.34460E-14 1.20197E-13
 -1      4067 1.97430E+01 3.78252E-01 3.25774E-03 3.72734E-02 1.07743E-14-2.23949E-14
 -1      4068 1.96067E+01 4.91564E-01-1.53156E-03 9.30131E-02-1.20415E-14 1.38741E-13
 -1      4069 1.95377E+01 5.47104E-01-1.65454E-03 1.02808E-01 3.59120E-14 1.46249E-13
 -1      4070 1.96319E+01 4.79983E-01 4.35537E-03 3.89168E-02 9.19235E-15 5.57006E-14
 -1      4071 1.94566E+01 6.04664E-01-1.81372E-03 1.04320E-01 4.58496E-14 1.03624E-13
 -1      4072 1.93667E+01 6.64403E-01-2.40582E-03 1.12659E-01 6.91659E-14 1.45943E-13
 -1      4073 1.94902E+01 5.91922E-01 5.72360E-03 3.60761E-02 8.77445E-16 1.22179E-13
 -1      4074 1.92645E+01 7.25581E-01-2.12395E-03 1.10559E-01 4.18769E-14 4.67867E-14
 -1      4075 1.91477E+01 7.87292E-01-3.44117E-03 1.15336E-01 1.99443E-14 2.34962E-14
 -1      4076 1.93100E+01 7.11434E-01 7.44902E-03 2.50690E-02-5.67179E-14 4.35511E-14
 -1      4077 1.90195E+01 8.49464E-01-2.49291E-03 1.07009E-01 1.68894E-14-2.45659E-14
 -1      4078 1.88683E+01 9.09593E-01-4.87862E-03 1.05403E-01 4.05711E-14-4.71118E-14
 -1      4079 1.90821E+01 8.33822E-01 9.66455E-03 5.65461E-04 9.71364E-15 7.31826E-15
 -1      4080 1.87076E+01 9.68758E-01-2.99407E-03 8.72604E-02 7.10109E-14-6.80447E-14
 -1      4081 1.85118E+01 1.02219E+00-6.91078E-03 7.57993E-02 1.57476E-13-5.09844E-14
 -1      4082 1.87951E+01 9.51880E-01 1.25838E-02-4.49184E-02 1.06872E-13-1.28483E-13
 -1      4083 1.83099E+01 1.07283E+00-3.77437E-03 4.30552E-02 6.03261E-14-3.11079E-14
 -1      4084 1.80545E+01 1.11275E+00-9.87292E-03 1.79074E-02-2.90139E-14-3.99944E-14
 -1      4085 1.84338E+01 1.05561E+00 1.65544E-02-1.21724E-01 8.63539E-14-2.10409E-13
 -1      4086 1.77977E+01 1.14803E+00-5.05891E-03-3.56722E-02-4.91978E-14-1.21719E-13
 -1      4087 1.74604E+01 1.16589E+00-1.40895E-02-7.81609E-02-1.01234E-13-1.82751E-13
 -1      4088 1.79764E+01 1.13216E+00 2.21120E-02-2.44286E-01-7.38857E-14-1.33500E-13
 -1      4089 1.71264E+01 1.17636E+00-7.36318E-03-1.59005E-01-1.29810E-13-1.46565E-13
 -1      4090 1.66779E+01 1.16198E+00-1.79972E-02-2.24282E-01-2.53372E-13-1.15396E-13
 -1      4091 1.73868E+01 1.16588E+00 2.95660E-02-4.33020E-01-1.21438E-13-1.70781E-13
 -1      4092 1.62706E+01 1.14885E+00-1.11122E-02-3.03839E-01-2.13292E-13-8.39336E-14
 -1      4093 1.57830E+01 1.11141E+00-1.20636E-02-3.38438E-01-1.07856E-13-3.12224E-14
 -1      4094 1.57392E+01 1.01040E+00 3.65776E-02-9.76335E-01-1.40636E-13 6.57285E-14
 -1      4095 1.66359E+01 1.13819E+00 3.22647E-02-6.84115E-01-2.28274E-13-7.54462E-14
 -1      4096 2.03402E+01 1.21212E-01-9.22883E-04-7.16984E-02 7.50200E-14-4.35195E-14
 -1      4097 2.03601E+01 1.92893E-01 1.07133E-03-4.89960E-02 8.90225E-14-4.75799E-14
 -1      4098 2.03597E+01 1.07764E-01-1.65692E-04-6.10933E-02 6.01210E-14-3.75979E-14
 -1      4099 2.01899E+01-8.66436E-02-5.83896E-04-7.92323E-02 1.03829E-13 9.93894E-15
 -1      4100 2.01809E+01-8.35200E-02 2.77465E-04-9.67623E-02 8.80694E-14-4.47186E-15
 -1      4101 2.01987E+01-8.03553E-02 3.73722E-04-9.96136E-02 6.05375E-14 3.86214E-15
 -1      4102 2.03892E+01 2.62233E-01 2.77436E-04-2.67506E-02 8.58053E-14-1.01610E-13
 -1      4103 1.99372E+01 1.58376E-01 6.79695E-05-7.64900E-02 1.73898E-14-2.27049E-14
 -1      4104 1.99574E+01 1.28305E-01-6.21286E-04-6.76418E-02 6.52631E-14 5.94685E-14
 -1      4105 1.95140E+01 5.49908E-01 2.84139E-04-2.85289E-01-3.18623E-14 2.66155E-14
 -1      4106 1.95683E+01 5.05902E-01-2.54437E-03-2.47100E-01 4.49853E-15-1.17739E-14
 -1      4107 1.96370E+01 4.63903E-01 8.80617E-05-2.16843E-01 5.56189E-14-1.54862E-14
 -1      4108 1.96824E+01 4.19812E-01-1.97093E-03-1.87219E-01 1.94524E-14-9.90385E-16
 -1      4109 1.96866E+01 4.27048E-01 3.38891E-03-1.33867E-01 6.25543E-14 5.07530E-14
 -1      4110 1.95692E+01 5.21478E-01 4.41909E-03-1.80118E-01-1.53071E-14 6.60093E-14
 -1      4111 1.91942E+01 6.90522E-01 1.31477E-03-4.93309E-01 2.88926E-15-4.72416E-14
 -1      4112 1.92641E+01 6.60189E-01-4.20319E-03-4.30255E-01-1.00313E-14 4.29327E-14
 -1      4113 1.89984E+01 7.18238E-01 2.39927E-03-6.49180E-01-1.16797E-13-1.20606E-13
 -1      4114 1.90717E+01 7.05869E-01-5.41376E-03-5.67748E-01-5.94592E-14-4.60492E-14
 -1      4115 1.90389E+01 7.78269E-01 9.12027E-03-4.45876E-01-2.06471E-14-2.23301E-14
 -1      4116 1.87854E+01 6.90323E-01 4.12873E-03-8.56041E-01-7.18173E-14-2.58639E-13
 -1      4117 1.88546E+01 7.07185E-01-7.00959E-03-7.50193E-01-1.07685E-13-1.44540E-13
 -1      4118 1.87932E+01 8.17495E-01 1.15569E-02-6.06310E-01-5.50621E-14-2.63687E-13
 -1      4119 1.85675E+01 5.77090E-01 6.78861E-03-1.13225E+00 1.79388E-14-2.15586E-13
 -1      4120 1.86199E+01 6.38322E-01-9.13723E-03-9.93791E-01-1.52359E-14-2.51992E-13
 -1      4121 1.85118E+01 8.02509E-01 1.46899E-02-8.27465E-01-4.14398E-14-3.96262E-13
 -1      4122 1.83710E+01 3.38484E-01 1.12113E-02-1.50229E+00 1.44191E-13-2.70054E-13
 -1      4123 1.83816E+01 4.64948E-01-1.18856E-02-1.32114E+00 8.87162E-14-1.59771E-13
 -1      4124 1.81984E+01 7.04132E-01 1.86200E-02-1.13386E+00 3.74503E-14-4.70992E-13
 -1      4125 1.82085E+01-9.09430E-02 1.44838E-02-2.01296E+00-2.74513E-14-2.70978E-13
 -1      4126 1.81465E+01 1.43910E-01-1.28166E-02-1.77382E+00 9.68248E-14-2.50633E-13
 -1      4127 1.78314E+01 4.81960E-01 2.12011E-02-1.56479E+00 6.89874E-14-3.67640E-13
 -1      4128 1.74197E+01 1.94153E-02 4.01247E-03-2.18501E+00-1.23502E-13-9.51457E-14
 -1      4129 1.99810E+01 1.00738E-01 1.29504E-04-6.25183E-02 1.77031E-14 1.05900E-13
 -1      4130 1.99982E+01 7.45680E-02-4.27076E-04-5.67919E-02 1.26197E-14 8.45729E-14
 -1      4131 1.99661E+01 1.21774E-01 7.28917E-04-4.68817E-02 5.32130E-14 7.08431E-14
 -1      4132 2.03959E+01 1.24978E-01 1.29715E-04 2.97350E-02 2.38944E-14-1.17570E-13
 -1      4133 2.03776E+01 6.48955E-02 4.70498E-05 3.99008E-02 4.61589E-14-8.33448E-14
 -1      4134 2.03568E+01 1.69126E-02 2.94041E-04 4.07018E-02 5.17722E-14-7.51416E-14
 -1      4135 2.03347E+01-1.96830E-02 2.12549E-04 4.62257E-02 5.56916E-14-7.63003E-14
 -1      4136 2.03767E+01 4.56772E-02-8.50525E-04 2.16253E-02 5.44873E-14-4.23655E-14
 -1      4137 1.98189E+01 2.97621E-01-9.02437E-06-1.25894E-01 5.51163E-14 4.86162E-14
 -1      4138 1.98491E+01 2.59367E-01-1.15067E-03-1.08704E-01 4.91191E-14 8.97939E-14
 -1      4139 1.97808E+01 3.38167E-01 2.53503E-03-1.00079E-01 6.10009E-14 3.79785E-14
 -1      4140 2.00857E+01-4.13429E-02 4.25590E-04-7.66108E-02 5.76289E-15 1.39940E-14
 -1      4141 2.00972E+01-5.39648E-02-1.03753E-04-7.88467E-02 3.24691E-14 2.10294E-14
 -1      4142 2.00865E+01-3.58002E-02-2.93062E-04-6.43960E-02 2.51735E-14-1.75837E-15
 -1      4143 1.93667E+01 6.29124E-01 6.59597E-04-3.75175E-01-1.05986E-13 8.33433E-14
 -1      4144 1.94296E+01 5.89059E-01-3.27139E-03-3.26129E-01-8.49767E-14 4.10095E-14
 -1      4145 1.92488E+01 7.06236E-01 7.20476E-03-3.28853E-01-3.85965E-14 9.91860E-14
 -1      4146 2.03110E+01-4.76058E-02 2.97003E-04 4.52542E-02 5.50557E-14-1.06315E-13
 -1      4147 2.02877E+01-6.71314E-02 2.14535E-04 4.72282E-02 3.26372E-14-9.61877E-14
 -1      4148 2.03322E+01-3.22308E-02-8.81617E-04 2.52038E-02 5.40108E-14-8.47738E-14
 -1      4149 2.00186E+01 5.06667E-02 1.96449E-04-5.39516E-02-2.57294E-15 1.42035E-13
 -1      4150 2.00341E+01 2.81393E-02-2.52746E-04-5.08150E-02 4.31004E-14 9.17285E-14
 -1      4151 2.00079E+01 6.68006E-02 3.05448E-04-3.96376E-02 4.92931E-14 1.29718E-13
 -1      4152 1.98843E+01 2.24005E-01 1.80123E-05-9.70950E-02-4.61870E-14 7.36392E-14
 -1      4153 1.99088E+01 1.89823E-01-8.58008E-04-8.44748E-02-4.90693E-14 5.78005E-15
 -1      4154 1.99166E+01 1.85082E-01 1.22968E-03-5.84982E-02-3.28033E-14-8.30756E-16
 -1      4155 2.02392E+01-5.99911E-02 4.43350E-04-1.03103E-01 7.37755E-14 3.39160E-14
 -1      4156 2.02751E+01-4.93543E-02-5.28950E-04-8.46122E-02 4.36934E-14 1.47357E-14
 -1      4157 2.02198E+01-7.29956E-02 1.55977E-04-1.02751E-01 5.53220E-14 2.62006E-14
 -1      4158 1.62120E+01 7.97681E-01-2.27869E-02-1.26189E+00-2.36592E-13 1.23249E-13
 -1      4159 1.98562E+01 2.57209E-01 1.82425E-03-7.56928E-02-2.36319E-15-6.50985E-15
 -1      4160 2.01962E+01-8.83944E-02 3.41537E-04-5.99168E-02 6.96605E-14 7.05329E-15
 -1      4161 2.02171E+01-8.84851E-02 5.19630E-04-6.17061E-02 7.48296E-14-1.68664E-14
 -1      4162 2.00530E+01 7.62398E-03 2.78837E-04-4.97692E-02 3.74555E-14 1.00739E-14
 -1      4163 2.00683E+01-1.14439E-02 3.49792E-06-4.89018E-02 5.33157E-15 2.23745E-14
 -1      4164 2.00453E+01 1.95928E-02-4.30545E-05-3.57877E-02 2.13992E-15 8.08547E-14
 -1      4165 1.94245E+01 6.16979E-01 5.66977E-03-2.43107E-01-8.46613E-14 6.62619E-14
 -1      4166 2.02832E+01-7.40938E-02-1.00041E-03 2.59004E-02 4.34745E-14-6.55005E-14
 -1      4167 1.70074E+01 4.58234E-01 1.15749E-02-1.76808E+00-1.19490E-13 2.58118E-14
 -1      4168 2.03293E+01-8.32810E-03-1.29766E-04-6.31375E-02 9.31279E-15-5.05080E-14
 -1      4169 2.03524E+01 3.16891E-02 7.64601E-04-5.58707E-02 2.76331E-14-7.60796E-14
 -1      4170 2.04131E+01 4.01870E-01 7.14097E-04-3.67143E-03-1.79527E-14-1.83626E-13
 -1      4171 2.04079E+01 1.86816E-01-2.65346E-05 2.78658E-02-1.63804E-14-1.32325E-13
 -1      4172 2.04102E+01 1.59273E-01-4.28009E-04 1.56919E-02 2.88556E-14-9.84115E-14
 -1      4173 2.04164E+01 2.58981E-01-2.30558E-04 1.45378E-02-2.61290E-14-1.32123E-13
 -1      4174 2.03703E+01 8.16882E-02-6.02664E-04-5.27363E-02 5.29829E-14-8.07096E-14
 -1      4175 2.03903E+01 1.46356E-01 7.31590E-04-3.89285E-02 5.02031E-14-8.80732E-14
 -1      4176 2.03763E+01 6.41989E-02-8.35089E-04-3.72083E-02 2.30548E-14-1.35312E-13
 -1      4177 2.01179E+01-6.19481E-02-4.04488E-04-6.77080E-02 4.68141E-14 7.02807E-14
 -1      4178 2.04080E+01 4.88865E-01-2.34098E-03 1.43153E-02 1.03480E-13-1.02710E-13
 -1      4179 2.03923E+01 7.83086E-01 1.39186E-03 8.31692E-02 9.50584E-14-9.98566E-14
 -1      4180 2.03899E+01 8.08088E-01-2.87867E-04 5.77489E-02 9.65020E-14-1.15475E-13
 -1      4181 2.04007E+01 2.23462E-01-1.35396E-03-3.09672E-02 5.22065E-14-6.99439E-14
 -1      4182 2.04157E+01 3.22905E-01 2.10582E-03-7.15624E-03 7.89034E-14-9.10012E-14
 -1      4183 2.04096E+01 1.99239E-01-2.66680E-04-2.28990E-02 4.65883E-14-5.67591E-14
 -1      4184 2.01568E+01-7.79772E-02 4.72652E-04-5.49289E-02 5.59958E-14 3.12413E-14
 -1      4185 2.01748E+01-8.48021E-02 2.54155E-04-5.70690E-02 8.39325E-14 5.92192E-14
 -1      4186 2.01951E+01-8.96562E-02-9.68383E-04-4.14293E-02 4.74258E-14-3.05688E-14
 -1      4187 2.04203E+01 4.52979E-01-1.00911E-03 8.28738E-03 7.48501E-14-6.66215E-14
 -1      4188 1.85670E+01 9.02454E-01-8.02787E-03-3.95128E-01 5.90209E-14-2.05123E-13
 -1      4189 1.87092E+01 8.82617E-01-1.07161E-02-3.08881E-01 6.44485E-14-1.65673E-13
 -1      4190 2.01998E+01-8.84450E-02 5.20169E-04-8.09619E-03 7.56366E-14-4.09340E-14
 -1      4191 2.01775E+01-8.30262E-02 3.99797E-04-7.92483E-03 7.16046E-14-2.71831E-14
 -1      4192 2.01247E+01-5.40548E-02 2.62166E-04 4.48652E-03 2.49167E-15 1.73907E-14
 -1      4193 2.01057E+01-3.91420E-02 2.63883E-04 4.25424E-03-3.74352E-14 8.05705E-14
 -1      4194 2.00799E+01-1.63897E-02 2.71568E-05-7.35997E-03-4.26151E-14 3.33905E-14
 -1      4195 2.00614E+01 3.18484E-03 6.47677E-05-6.95383E-03-4.34712E-14 5.80118E-14
 -1      4196 2.00427E+01 2.43484E-02-7.60313E-05-8.13050E-03-4.35941E-14 1.14099E-13
 -1      4197 2.00228E+01 4.76029E-02-1.46188E-04-7.65672E-03 1.16970E-14 1.09658E-13
 -1      4198 2.00023E+01 7.24888E-02-3.32864E-04-9.96721E-03 5.47226E-14 9.64704E-14
 -1      4199 1.99801E+01 9.98145E-02-4.09992E-04-9.36605E-03 9.14632E-14 9.75030E-14
 -1      4200 1.99565E+01 1.28614E-01-6.56205E-04-1.31872E-02 6.34487E-14 7.17861E-14
 -1      4201 1.99303E+01 1.60436E-01-7.38527E-04-1.25424E-02 5.26923E-14 5.46770E-14
 -1      4202 1.99018E+01 1.93485E-01-1.03639E-03-1.83489E-02-1.14097E-14 3.42616E-14
 -1      4203 1.98697E+01 2.30232E-01-1.14967E-03-1.79031E-02-3.41938E-14 1.06965E-15
 -1      4204 1.98345E+01 2.67780E-01-1.48092E-03-2.63257E-02 2.99345E-14-1.69819E-15
 -1      4205 1.97941E+01 3.09746E-01-1.67196E-03-2.65150E-02 2.42699E-14-3.46468E-14
 -1      4206 1.97500E+01 3.51772E-01-2.00052E-03-3.84265E-02 9.06655E-15 2.63916E-15
 -1      4207 1.96985E+01 3.98928E-01-2.34364E-03-3.99663E-02 5.21415E-14 4.39363E-14
 -1      4208 1.96434E+01 4.44916E-01-2.60798E-03-5.65924E-02 5.82030E-14 4.51813E-14
 -1      4209 1.95777E+01 4.96678E-01-3.21596E-03-6.05976E-02-5.63311E-16 6.52689E-14
 -1      4210 1.95093E+01 5.45353E-01-3.31977E-03-8.36711E-02-5.66069E-14 1.09596E-13
 -1      4211 1.94255E+01 6.00314E-01-4.35960E-03-9.18128E-02-9.42107E-14 5.71983E-14
 -1      4212 1.93416E+01 6.49327E-01-4.16065E-03-1.23792E-01-7.79866E-14 8.41241E-14
 -1      4213 1.92353E+01 7.04952E-01-5.87609E-03-1.38499E-01-5.22498E-14 6.40492E-14
 -1      4214 1.91337E+01 7.50535E-01-5.17218E-03-1.82876E-01-6.17594E-14 5.06795E-14
 -1      4215 1.89995E+01 8.02832E-01-7.91723E-03-2.07592E-01 2.59486E-14 1.24063E-14
 -1      4216 1.88783E+01 8.39420E-01-6.42531E-03-2.69347E-01 8.30470E-14-9.72719E-14
 -1      4217 1.83534E+01 9.28659E-01-1.46215E-02-4.56226E-01 2.46326E-14-2.51392E-13
 -1      4218 1.81898E+01 9.21365E-01-1.00656E-02-5.77112E-01-2.54290E-14-2.45059E-13
 -1      4219 1.79179E+01 9.20167E-01-2.00318E-02-6.69598E-01-4.46766E-14-2.35433E-13
 -1      4220 1.77350E+01 8.72070E-01-1.21814E-02-8.39558E-01 7.15899E-16-2.26388E-13
 -1      4221 1.73857E+01 8.31775E-01-2.60773E-02-9.78477E-01-1.51634E-14-2.22836E-13
 -1      4222 2.04260E+01 5.21504E-01 3.26820E-04-8.68827E-03 1.21199E-14-1.77077E-13
 -1      4223 2.04237E+01 4.43781E-01-1.02177E-03-1.20409E-02 2.07787E-16-1.73117E-13
 -1      4224 1.71591E+01 7.35066E-01-9.87310E-03-1.21335E+00-8.98935E-14-1.25004E-13
 -1      4225 2.03076E+01-3.81951E-02 6.24927E-04-6.31165E-02 3.09599E-14-6.17016E-14
 -1      4226 2.03328E+01-2.09660E-02-1.07503E-03-4.41863E-02 2.17851E-14-1.15164E-13
 -1      4227 2.02849E+01-5.97594E-02 3.31039E-04-6.53982E-02 6.44504E-14-8.13699E-14
 -1      4228 2.03847E+01 5.45110E-02 2.38294E-04-9.44262E-03 3.02335E-14-6.70563E-14
 -1      4229 2.03639E+01 8.18751E-03 9.18834E-04-6.88558E-03 2.98367E-14-6.08179E-14
 -1      4230 2.04216E+01 3.39915E-01-9.01307E-05 9.09560E-03-1.69503E-14-1.69369E-13
 -1      4231 2.02318E+01-7.90271E-02-6.86366E-04-8.41235E-02 8.86284E-14 1.27566E-14
 -1      4232 2.00939E+01-3.35452E-02 1.53649E-04-3.86550E-02-2.31686E-15 6.53978E-15
 -1      4233 2.01099E+01-4.86451E-02 1.22315E-05-3.91407E-02 1.08508E-14 2.05673E-14
 -1      4234 2.03406E+01-2.64122E-02 4.22819E-04-9.90466E-03 2.00667E-14-7.70445E-14
 -1      4235 2.03162E+01-5.30260E-02 6.58502E-04-8.54959E-03 2.04286E-14-9.83052E-14
 -1      4236 2.02445E+01-8.93365E-02 4.65707E-04-8.95934E-03 4.33856E-14-9.47474E-14
 -1      4237 2.02215E+01-9.09562E-02 6.85382E-04-8.42256E-03 4.10346E-14-8.01328E-14
 -1      4238 2.01254E+01-5.95757E-02 3.50992E-04-4.58259E-02 3.39837E-14 5.06850E-14
 -1      4239 2.01416E+01-7.10230E-02 3.38598E-05-4.73472E-02 1.87617E-14 1.57829E-14
 -1      4240 2.01596E+01-7.82311E-02-7.00691E-04-3.27003E-02 7.33144E-14-5.60008E-15
 -1      4241 2.01294E+01-5.91514E-02-4.10245E-04-1.90810E-02 2.73804E-14-3.37118E-14
 -1      4242 2.04281E+01 5.33201E-01-1.45333E-03 7.38856E-03 5.98485E-14-1.15775E-13
 -1      4243 2.04263E+01 5.35560E-01-1.63607E-03-5.66437E-03 2.71811E-14-1.65014E-13
 -1      4244 2.04366E+01 4.03446E-01 1.34807E-03-4.25550E-04 3.13171E-14-1.40852E-13
 -1      4245 2.04043E+01 1.12151E-01 8.35745E-04-4.19896E-03 4.11108E-14-7.52221E-14
 -1      4246 2.04268E+01 3.02332E-01 5.96063E-05 6.23995E-03 7.90728E-15-1.40602E-13
 -1      4247 2.02747E+01-8.23178E-02 8.60208E-04-1.11303E-03 5.85635E-14-1.04161E-13
 -1      4248 2.02458E+01-8.74479E-02-1.07199E-03-3.64512E-02 5.37783E-14-7.72876E-14
 -1      4249 2.04325E+01 3.34960E-01 4.67003E-04-1.06885E-03 4.76833E-14-1.14872E-13
 -1      4250 2.04311E+01 3.13460E-01-5.80159E-04 1.15882E-03 3.40568E-14-1.35005E-13
 -1      4251 2.04282E+01 2.36455E-01 4.55933E-04 7.25889E-03 2.80104E-14-8.48010E-14
 -1      4252 2.01615E+01-7.57741E-02 4.41761E-04-1.31027E-03 5.41662E-14-1.60829E-14
 -1      4253 2.02466E+01-8.31680E-02 4.83315E-05-5.68564E-02 9.29187E-14-4.71972E-14
 -1      4254 2.02689E+01-7.26234E-02 4.30338E-04-5.67978E-02 8.37943E-14-4.94896E-14
 -1      4255 2.00880E+01-2.51063E-02-2.95130E-04-2.34941E-02-1.04307E-14 7.93227E-15
 -1      4256 2.01405E+01-6.52095E-02 2.04936E-04-1.46014E-03 4.84718E-14 3.82154E-16
 -1      4257 2.02936E+01-6.62530E-02-1.04819E-03-3.81425E-02 3.77898E-14-1.27264E-13
 -1      4258 2.02987E+01-6.88242E-02 6.57172E-04-1.40523E-03 5.22711E-14-9.37613E-14
 -1      4259 1.67786E+01 6.61314E-01-1.83230E-02-1.37764E+00-1.92429E-13-1.62023E-15
 -1      4260 2.04232E+01 6.56026E-01 2.66613E-03 2.72189E-02 9.16337E-14-1.07792E-13
 -1      4261 2.04149E+01 1.82530E-01-5.24765E-04-1.33712E-02 4.41258E-14-6.97551E-14
 -1      4262 2.04285E+01 2.68171E-01 6.16469E-04-4.33947E-03 5.18951E-14-6.26462E-14
 -1      4263 2.04229E+01 4.58777E-01-1.10790E-03 4.32698E-03 6.35028E-14-7.42287E-14
 -1      4264 2.04325E+01 3.51866E-01 9.35034E-04-4.97673E-03 4.16728E-14-6.70724E-14
 -1      4265 2.04157E+01 1.72684E-01 2.43553E-04-6.96410E-03 2.85871E-14-7.90515E-14
 -3
    1PSTEP                         3           1           1          
  100CL  101 1.000000000        4265                     0    1           1
 -4  TOSTRAIN    6    1
 -5  EXX         1    4    1    1
 -5  EYY         1    4    2    2
 -5  EZZ         1    4    3    3
 -5  EXY         1    4    1    2
 -5  EYZ         1    4    2    3
 -5  EZX         1    4    3    1
 -1         1 2.47215E-04-5.21635E-05-7.23960E-05-1.08306E-04-3.93119E-18 1.15823E-17
 -1         2 4.06389E-05-1.24743E-04 2.28558E-05-3.97504E-07-5.05983E-19 3.32249E-19
 -1         3 9.51648E-05-2.86436E-05-2.83919E-05-4.95279E-08-2.33091E-18-2.43050E-18
 -1         4 9.49287E-05-2.88893E-05-2.80360E-05 3.86346E-07 1.13806E-18 3.19814E-19
 -1         5 1.43348E-04-2.14785E-05-4.25285E-05 3.85315E-05-2.21446E-19 1.32726E-17
 -1         6 1.45410E-04 2.57574E-10-4.41876E-05-5.35272E-05-8.21304E-19 7.49296E-18
 -1         7 9.06093E-05-5.11187E-07-3.90685E-05-2.92528E-05-1.34890E-19-6.64206E-19
 -1         8 8.51260E-05 8.62545E-08-3.63392E-05-2.02714E-05-7.60477E-20-2.65248E-18
 -1         9 8.28136E-05 7.64943E-08-3.53506E-05-1.56395E-05-4.70500E-20-3.48677E-18
 -1        10 8.17732E-05 3.91484E-08-3.48818E-05-1.20790E-05-1.43996E-20-3.78154E-18
 -1        11 8.12536E-05 1.91629E-08-3.46534E-05-9.01331E-06-9.35376E-21-3.78958E-18
 -1        12 8.09831E-05 9.19026E-09-3.45386E-05-6.28400E-06 3.88709E-20-3.62476E-18
 -1        13 8.08413E-05 4.63326E-09-3.44805E-05-3.68552E-06 5.95678E-20-3.38977E-18
 -1        14 8.07821E-05 2.75155E-09-3.44569E-05-1.18370E-06 4.11053E-20-3.11330E-18
 -1        15 8.07842E-05 2.73485E-09-3.44576E-05 1.28882E-06 9.47765E-20-2.78085E-18
 -1        16 8.08478E-05 4.52411E-09-3.44828E-05 3.79580E-06 1.13591E-19-2.44431E-18
 -1        17 8.09948E-05 8.40860E-09-3.45421E-05 6.40670E-06 9.84014E-20-1.98014E-18
 -1        18 8.12700E-05 1.81746E-08-3.46580E-05 9.15570E-06 1.36802E-19-1.30174E-18
 -1        19 8.17971E-05 3.81966E-08-3.48899E-05 1.22578E-05 1.66032E-19-3.78971E-19
 -1        20 8.28362E-05 8.15214E-08-3.53636E-05 1.58705E-05 1.73006E-19 9.44860E-19
 -1        21 8.50908E-05 1.69447E-07-3.63776E-05 2.04824E-05 1.72715E-19 3.11804E-18
 -1        22 9.16462E-05-9.97000E-08-3.87400E-05 2.79994E-05 2.03288E-20 6.75953E-18
 -1        23 1.12979E-04-3.81276E-05-3.53984E-05-4.40230E-06-5.94908E-19 4.74942E-18
 -1        24 9.28122E-05-2.76994E-05-2.90015E-05 3.91440E-07-1.40753E-19 2.38937E-18
 -1        25 8.91288E-05-2.68550E-05-2.69321E-05 3.75922E-07-9.48296E-20 3.63152E-19
 -1        26 8.80266E-05-2.64917E-05-2.63950E-05 2.04089E-07 2.15059E-20-1.08891E-18
 -1        27 8.80541E-05-2.64703E-05-2.63874E-05 1.39958E-07-1.77699E-20-1.81342E-18
 -1        28 8.85889E-05-2.66070E-05-2.65573E-05 1.00962E-07-6.95165E-20-2.04269E-18
 -1        29 8.93445E-05-2.68199E-05-2.67901E-05 7.52505E-08-1.65839E-20-3.01920E-18
 -1        30 9.01692E-05-2.70596E-05-2.70401E-05 5.69145E-08-2.62456E-20-3.73990E-18
 -1        31 9.09782E-05-2.72979E-05-2.72842E-05 4.31133E-08 5.68374E-20-4.40897E-18
 -1        32 9.17244E-05-2.75191E-05-2.75090E-05 3.24012E-08 6.66617E-21-4.65796E-18
 -1        33 9.23845E-05-2.77156E-05-2.77080E-05 2.39653E-08 1.87319E-19-5.26662E-18
 -1        34 9.29502E-05-2.78844E-05-2.78788E-05 1.72897E-08-1.45302E-19-5.79413E-18
 -1        35 9.34233E-05-2.80260E-05-2.80217E-05 1.20097E-08 8.70406E-20-6.33045E-18
 -1        36 9.38116E-05-2.81424E-05-2.81391E-05 7.84856E-09-3.92775E-20-6.00385E-18
 -1        37 9.41274E-05-2.82373E-05-2.82348E-05 4.58923E-09 6.05248E-20-5.01409E-18
 -1        38 9.43853E-05-2.83151E-05-2.83131E-05 2.06333E-09-2.06741E-19-5.12629E-18
 -1        39 9.46025E-05-2.83807E-05-2.83791E-05 1.47444E-10-8.11190E-20-5.93541E-18
 -1        40 9.47979E-05-2.84400E-05-2.84387E-05-1.23589E-09-8.60446E-20-6.35185E-18
 -1        41 9.49930E-05-2.84993E-05-2.84982E-05-2.11374E-09 2.26273E-20-7.34962E-18
 -1        42 9.52125E-05-2.85662E-05-2.85653E-05-2.45451E-09 1.63601E-20-7.46374E-18
 -1        43 9.54857E-05-2.86493E-05-2.86487E-05-2.15464E-09 1.38532E-21-6.85419E-18
 -1        44 9.58478E-05-2.87592E-05-2.87592E-05-1.01795E-09 3.16806E-19-4.52249E-18
 -1        45 9.63419E-05-2.89090E-05-2.89099E-05 1.27607E-09-1.36862E-19-4.73684E-18
 -1        46 9.70214E-05-2.91146E-05-2.91169E-05 5.21914E-09-1.00388E-19-6.41618E-18
 -1        47 9.79521E-05-2.93957E-05-2.94002E-05 1.15410E-08 2.42520E-19-6.30072E-18
 -1        48 9.92146E-05-2.97763E-05-2.97843E-05 2.12961E-08 1.07141E-19-3.57164E-18
 -1        49 1.00905E-04-3.02851E-05-3.02984E-05 3.59574E-08 1.20214E-20-3.30589E-18
 -1        50 1.03135E-04-3.09546E-05-3.09755E-05 5.74603E-08-1.43216E-19-4.55542E-18
 -1        51 1.06018E-04-3.18183E-05-3.18493E-05 8.80432E-08 2.73383E-19-3.98224E-18
 -1        52 1.09649E-04-3.29038E-05-3.29457E-05 1.29508E-07-1.90422E-19-3.36390E-18
 -1        53 1.14055E-04-3.42174E-05-3.42660E-05 1.81117E-07-3.51837E-19-5.28296E-18
 -1        54 1.19092E-04-3.57164E-05-3.57552E-05 2.34799E-07 4.13615E-19-6.20968E-18
 -1        55 1.24293E-04-3.72628E-05-3.72536E-05 2.66323E-07-3.70705E-19-5.80911E-18
 -1        56 1.28656E-04-3.85631E-05-3.84422E-05 2.23862E-07-8.35254E-20-5.81629E-18
 -1        57 1.30502E-04-3.91234E-05-3.88238E-05 2.59936E-08-9.33788E-20-3.61787E-18
 -1        58 1.27683E-04-3.83027E-05-3.78298E-05-3.98148E-07 2.52489E-20-4.62393E-18
 -1        59 1.18600E-04-3.56018E-05-3.51507E-05-9.87285E-07-5.10238E-20-3.73092E-18
 -1        60 1.04118E-04-3.12461E-05-3.11856E-05-1.41396E-06-3.16033E-20-1.59433E-18
 -1        61 8.89981E-05-2.66531E-05-2.72497E-05-1.20644E-06-2.19792E-19-1.64986E-18
 -1        62 8.03197E-05-2.40047E-05-2.50209E-05-2.50564E-07-2.07722E-19-4.98503E-18
 -1        63 8.24253E-05-2.46623E-05-2.54550E-05 8.51874E-07 3.68271E-19-4.89818E-18
 -1        64 9.30767E-05-2.79208E-05-2.80679E-05 1.34191E-06-4.84682E-19-5.40449E-18
 -1        65 1.05479E-04-3.16731E-05-3.12954E-05 1.07903E-06 4.28317E-19-7.19607E-18
 -1        66 1.13639E-04-3.41084E-05-3.35884E-05 4.78331E-07 3.43998E-19-6.97349E-18
 -1        67 1.15409E-04-3.46185E-05-3.42239E-05-4.69906E-08 1.58643E-19-4.59678E-18
 -1        68 1.11895E-04-3.35590E-05-3.33696E-05-3.46638E-07 6.57526E-20-8.46596E-19
 -1        69 1.05600E-04-3.16782E-05-3.16829E-05-4.34962E-07 1.34251E-19-3.94135E-19
 -1        70 9.92452E-05-2.97636E-05-2.99403E-05-3.00654E-07 3.12329E-19 1.83545E-18
 -1        71 9.53108E-05-2.84870E-05-2.87570E-05 1.54844E-08-7.53868E-19 1.81373E-18
 -1        72 1.02183E-04-3.05886E-05-3.41514E-05-1.92909E-06 1.11147E-19 1.31014E-17
 -1        73 9.25683E-05-2.75153E-05-2.89097E-05-3.33252E-07 2.83491E-20 1.15617E-17
 -1        74 8.91159E-05-2.67043E-05-2.69752E-05-1.25951E-07 2.53771E-20 1.03552E-17
 -1        75 8.80566E-05-2.64425E-05-2.64390E-05-9.56296E-08 7.47664E-20 9.44218E-18
 -1        76 8.80891E-05-2.64504E-05-2.64142E-05-7.66374E-08-1.91137E-20 8.82890E-18
 -1        77 8.86231E-05-2.66015E-05-2.65745E-05-6.25699E-08 2.68600E-20 8.17778E-18
 -1        78 8.93759E-05-2.68212E-05-2.68025E-05-5.17829E-08-1.00915E-19 8.80357E-18
 -1        79 9.01972E-05-2.70642E-05-2.70496E-05-4.28912E-08 1.75232E-20 8.76662E-18
 -1        80 9.10025E-05-2.73039E-05-2.72915E-05-3.52340E-08 9.62023E-20 8.25074E-18
 -1        81 9.17453E-05-2.75256E-05-2.75148E-05-2.85403E-08 3.00433E-20 7.32509E-18
 -1        82 9.24023E-05-2.77220E-05-2.77126E-05-2.26887E-08-8.95122E-20 7.25104E-18
 -1        83 9.29654E-05-2.78905E-05-2.78824E-05-1.76023E-08 1.07579E-19 6.80895E-18
 -1        84 9.34365E-05-2.80316E-05-2.80248E-05-1.32073E-08 4.65699E-20 6.30902E-18
 -1        85 9.38236E-05-2.81476E-05-2.81420E-05-9.42405E-09 1.96866E-20 6.43147E-18
 -1        86 9.41390E-05-2.82422E-05-2.82376E-05-6.16826E-09 8.06321E-20 4.72159E-18
 -1        87 9.43976E-05-2.83199E-05-2.83163E-05-3.35785E-09-1.10061E-19 4.42701E-18
 -1        88 9.46166E-05-2.83857E-05-2.83831E-05-9.21015E-10-3.87809E-20 4.34997E-18
 -1        89 9.48149E-05-2.84454E-05-2.84438E-05 1.19401E-09 3.44475E-19 2.99445E-18
 -1        90 9.50135E-05-2.85053E-05-2.85047E-05 3.00755E-09-3.62156E-19 2.87650E-18
 -1        91 9.52362E-05-2.85724E-05-2.85730E-05 4.49472E-09-8.59888E-20 4.81087E-18
 -1        92 9.55097E-05-2.86547E-05-2.86567E-05 5.56854E-09-1.98980E-19 5.33378E-18
 -1        93 9.58642E-05-2.87613E-05-2.87650E-05 6.05925E-09 3.10676E-19 3.58201E-18
 -1        94 9.63337E-05-2.89023E-05-2.89082E-05 5.69002E-09-3.86970E-20 6.83671E-20
 -1        95 9.69553E-05-2.90888E-05-2.90972E-05 4.05150E-09-1.48800E-19 7.21285E-19
 -1        96 9.77671E-05-2.93319E-05-2.93434E-05 5.82073E-10-1.54384E-19 4.63169E-18
 -1        97 9.88047E-05-2.96423E-05-2.96571E-05-5.42979E-09-9.80298E-20 6.73742E-18
 -1        98 1.00094E-04-3.00275E-05-3.00453E-05-1.47876E-08 2.86199E-19 5.80525E-18
 -1        99 1.01638E-04-3.04885E-05-3.05083E-05-2.82108E-08-4.50524E-19 4.45199E-18
 -1       100 1.03404E-04-3.10150E-05-3.10337E-05-4.59397E-08 5.32312E-20 5.37601E-18
 -1       101 1.05291E-04-3.15777E-05-3.15897E-05-6.69863E-08 2.39917E-19 2.86330E-18
 -1       102 1.07110E-04-3.21202E-05-3.21160E-05-8.79240E-08-5.47213E-20 1.67421E-18
 -1       103 1.08547E-04-3.25508E-05-3.25172E-05-1.01329E-07 1.70285E-19 3.59021E-18
 -1       104 1.09164E-04-3.27398E-05-3.26626E-05-9.46624E-08-2.87836E-19 6.01418E-18
 -1       105 1.08434E-04-3.25311E-05-3.24024E-05-5.16939E-08 1.91375E-19 5.16575E-18
 -1       106 1.05871E-04-3.17782E-05-3.16092E-05 4.05918E-08-3.63091E-19 4.92257E-18
 -1       107 1.01268E-04-3.04132E-05-3.02453E-05 1.78357E-07 6.11684E-20 1.81527E-18
 -1       108 9.49822E-05-2.85327E-05-2.84363E-05 3.25815E-07 4.49941E-19-2.33323E-18
 -1       109 8.81090E-05-2.64568E-05-2.65020E-05 4.15517E-07-1.55744E-19 1.51158E-18
 -1       110 8.23097E-05-2.46865E-05-2.48931E-05 3.81649E-07 3.03774E-20 3.97507E-18
 -1       111 7.91899E-05-2.37193E-05-2.40244E-05 2.11575E-07 2.16091E-19 3.55033E-18
 -1       112 7.95113E-05-2.38031E-05-2.40855E-05-2.91025E-08-1.58566E-19 2.03817E-18
 -1       113 8.27622E-05-2.47904E-05-2.49417E-05-2.33060E-07 3.08037E-19 5.30229E-19
 -1       114 8.74430E-05-2.62204E-05-2.62095E-05-3.22127E-07-5.67368E-20 1.95495E-18
 -1       115 9.18513E-05-2.75669E-05-2.74384E-05-2.89050E-07 1.99115E-20 1.52073E-18
 -1       116 9.48219E-05-2.84710E-05-2.83051E-05-1.80232E-07 6.61862E-19-2.00327E-18
 -1       117 9.60372E-05-2.88359E-05-2.87048E-05-5.71938E-08 1.52054E-19-4.77413E-18
 -1       118 9.59216E-05-2.87905E-05-2.87379E-05 3.00480E-08-9.10511E-19-2.44128E-18
 -1       119 9.53142E-05-2.85924E-05-2.86147E-05 4.56896E-08 7.78198E-19-2.10723E-18
 -1       120 9.50497E-05-2.84923E-05-2.85086E-05-4.74800E-08 8.74000E-19-4.17111E-18
 -1       121 9.52735E-05-2.87179E-05-2.85263E-05-1.06312E-07-1.44404E-18 1.25071E-18
 -1       122 9.51556E-05-2.83754E-05-2.86995E-05-5.34344E-08 3.52542E-18-9.02307E-19
 -1       123 9.46743E-05-2.67798E-05-2.92193E-05 2.20711E-08 2.28474E-18 6.15402E-19
 -1       124 9.36801E-05-2.34594E-05-3.02435E-05 1.35269E-07-5.91434E-19 1.03572E-18
 -1       125 9.20841E-05-1.81007E-05-3.18490E-05 2.82644E-07-1.69191E-18-1.57604E-18
 -1       126 8.99680E-05-1.09898E-05-3.39319E-05 4.12476E-07-1.15493E-17-7.96962E-19
 -1       127 8.75222E-05-2.76897E-06-3.62926E-05 4.80848E-07-1.00127E-17 1.90805E-18
 -1       128 8.52510E-05 4.86096E-06-3.84471E-05 4.20085E-07-6.39957E-18-1.38948E-18
 -1       129 8.37309E-05 9.96473E-06-3.98688E-05 2.16785E-07-4.16628E-18 3.56237E-19
 -1       130 8.34200E-05 1.10112E-05-4.01510E-05-7.23105E-08 7.15462E-19 1.08240E-18
 -1       131 8.44433E-05 7.56940E-06-3.91788E-05-3.48528E-07 8.41752E-19-9.00318E-19
 -1       132 8.65090E-05 6.34318E-07-3.72159E-05-5.03439E-07-4.04276E-18 2.14416E-18
 -1       133 8.91689E-05-8.30480E-06-3.46664E-05-5.36212E-07-7.83294E-19 4.77325E-19
 -1       134 9.18147E-05-1.72307E-05-3.21094E-05-4.85676E-07-1.00540E-18-1.12940E-18
 -1       135 9.39303E-05-2.42783E-05-3.00503E-05-4.18792E-07-1.38305E-19-7.00733E-19
 -1       136 9.49925E-05-2.80325E-05-2.87959E-05 1.56909E-07-7.83098E-19 3.77916E-19
 -1       137 2.79484E-05-9.72920E-05 1.79029E-05-2.61892E-05 1.01926E-17 1.41992E-18
 -1       138 8.78774E-06-3.42160E-05 2.87840E-06-1.63450E-05 1.79101E-17 9.30974E-18
 -1       139 1.55619E-05 1.69566E-05-1.68868E-05 2.98573E-05 1.91959E-17 1.57709E-17
 -1       140 8.02844E-05 2.41978E-05-4.16259E-05 9.36555E-05 1.59234E-17 2.04897E-17
 -1       141 1.80305E-04-1.71608E-05-6.16326E-05 1.18078E-04 7.81282E-18 1.37270E-17
 -1       142 2.80911E-04-7.42613E-05-7.66489E-05 8.17053E-05 1.89410E-18 6.62380E-18
 -1       143 3.17815E-04-9.84060E-05-8.11366E-05 1.66927E-06 6.50707E-19 2.51291E-19
 -1       144 2.81723E-04-7.63568E-05-7.64207E-05-7.59987E-05 2.04484E-18-1.04308E-17
 -1       145 1.90052E-04-2.33546E-05-6.33363E-05-1.15741E-04 4.23220E-18-1.23303E-17
 -1       146 8.39359E-05 2.19499E-05-4.23990E-05-9.43022E-05 7.77110E-18-9.46263E-18
 -1       147 2.21715E-05 2.50107E-05-2.21450E-05-4.29595E-05 7.78593E-18-7.78466E-18
 -1       148 4.86103E-06-1.36759E-05-2.67675E-06 7.20381E-06 9.78365E-18-4.32156E-18
 -1       149 2.00630E-05-7.41341E-05 1.30730E-05 2.67539E-05 9.19115E-18-3.02603E-18
 -1       150 3.71618E-05-1.14361E-04 2.11024E-05 9.95749E-06 1.52159E-18-1.63581E-18
 -1       151 3.39786E-05-1.08872E-04 2.01802E-05-2.09375E-05-6.58293E-18-1.04336E-18
 -1       152 1.39786E-05-6.15460E-05 1.04790E-05-3.00840E-05-1.40798E-17-6.03087E-18
 -1       153 5.77272E-06-2.76766E-06-7.18258E-06 2.18248E-06-1.69174E-17-1.09034E-17
 -1       154 4.46237E-05 2.44908E-05-3.01393E-05 6.34753E-05-1.11643E-17-1.13202E-17
 -1       155 1.33737E-04 1.16055E-06-5.24151E-05 1.08157E-04-7.63727E-18-1.39409E-17
 -1       156 2.40597E-04-5.17988E-05-7.05132E-05 1.03155E-04-3.72567E-18-7.11550E-18
 -1       157 3.16561E-04-9.59520E-05-8.10092E-05 3.95524E-05-1.15276E-20 1.32222E-18
 -1       158 3.17588E-04-9.50229E-05-8.16043E-05-4.54046E-05-1.40655E-18 9.22620E-18
 -1       159 1.45423E-04 1.25697E-06-5.61874E-05-1.18512E-04-6.98209E-18 1.10017E-17
 -1       160 5.81091E-05 2.91659E-05-3.59944E-05-8.02539E-05-1.13892E-17 1.13901E-17
 -1       161 1.18246E-05 1.25577E-05-1.45054E-05-2.18219E-05-1.65226E-17 1.11948E-17
 -1       162 9.60074E-06-4.36002E-05 5.59604E-06 2.27973E-05-1.05693E-17 6.18016E-18
 -1       163 2.98630E-05-1.00889E-04 1.83346E-05 2.65005E-05-4.94350E-18 7.76491E-19
 -1       164 9.48711E-05-1.23473E-05-3.55703E-05-2.23500E-05-1.46710E-18-1.44644E-18
 -1       165 8.92516E-05-8.45846E-06-3.47877E-05-1.73899E-05-9.84113E-19-2.52818E-18
 -1       166 8.65383E-05-6.49800E-06-3.44152E-05-1.35884E-05-5.04074E-19-3.06556E-18
 -1       167 8.51946E-05-5.51794E-06-3.42314E-05-1.03673E-05-1.15011E-19-3.22513E-18
 -1       168 8.44457E-05-4.94308E-06-3.41418E-05-7.54640E-06 1.42110E-19-3.14147E-18
 -1       169 8.40189E-05-4.59920E-06-3.40987E-05-4.90387E-06 3.77284E-19-2.94881E-18
 -1       170 8.38007E-05-4.41513E-06-3.40805E-05-2.39524E-06 7.07050E-19-2.69773E-18
 -1       171 8.37363E-05-4.35937E-06-3.40758E-05 5.11536E-08 9.49022E-19-2.48384E-18
 -1       172 8.38106E-05-4.42353E-06-3.40813E-05 2.49957E-06 1.13238E-18-2.22829E-18
 -1       173 8.40410E-05-4.61866E-06-3.41001E-05 5.01457E-06 1.31244E-18-1.82715E-18
 -1       174 8.44742E-05-4.97171E-06-3.41421E-05 7.62386E-06 1.49192E-18-1.25508E-18
 -1       175 8.52506E-05-5.57417E-06-3.42320E-05 1.05129E-05 1.76162E-18-5.24737E-19
 -1       176 8.66475E-05-6.60851E-06-3.44186E-05 1.37837E-05 1.91447E-18 4.57636E-19
 -1       177 8.93935E-05-8.60038E-06-3.47926E-05 1.76233E-05 1.81158E-18 1.99724E-18
 -1       178 9.57824E-05-1.36144E-05-3.54263E-05 2.18942E-05 1.41190E-18 4.38075E-18
 -1       179 1.05609E-04-2.61032E-05-3.52641E-05 1.86633E-05 7.34947E-19 7.23827E-18
 -1       180 1.03402E-04-2.73024E-05-3.26120E-05-1.21264E-05-1.40716E-18 2.70336E-19
 -1       181 9.71137E-05-2.82920E-05-2.95303E-05-4.73044E-06-1.11149E-18-2.54550E-19
 -1       182 9.35126E-05-2.76385E-05-2.81838E-05-1.76916E-06-7.35810E-19-5.86557E-19
 -1       183 9.19772E-05-2.74072E-05-2.76375E-05-4.21246E-07-5.46073E-19-9.98407E-19
 -1       184 9.14014E-05-2.73323E-05-2.74399E-05 2.42870E-07-2.33533E-19-1.33434E-18
 -1       185 9.13593E-05-2.73712E-05-2.74149E-05 5.68223E-07-4.46823E-19-1.36532E-18
 -1       186 9.16023E-05-2.74737E-05-2.74797E-05 7.06290E-07-3.92218E-19-1.56601E-18
 -1       187 9.19848E-05-2.76057E-05-2.75893E-05 7.36281E-07-3.88707E-19-1.48591E-18
 -1       188 9.24200E-05-2.77455E-05-2.77171E-05 7.04175E-07-3.34104E-19-1.74348E-18
 -1       189 9.28561E-05-2.78806E-05-2.78467E-05 6.38578E-07-4.36579E-19-1.63022E-18
 -1       190 9.32640E-05-2.80039E-05-2.79690E-05 5.57941E-07-4.58161E-19-2.21561E-18
 -1       191 9.36290E-05-2.81122E-05-2.80792E-05 4.74330E-07-3.92912E-19-2.64651E-18
 -1       192 9.39466E-05-2.82048E-05-2.81756E-05 3.95665E-07 1.24081E-19-2.73111E-18
 -1       193 9.42186E-05-2.82829E-05-2.82587E-05 3.27187E-07 2.30837E-19-2.66635E-18
 -1       194 9.44515E-05-2.83485E-05-2.83303E-05 2.72510E-07-2.79487E-19-2.68125E-18
 -1       195 9.46554E-05-2.84049E-05-2.83932E-05 2.34406E-07-3.69903E-19-2.85368E-18
 -1       196 9.48426E-05-2.84557E-05-2.84515E-05 2.15426E-07-2.46647E-19-2.90922E-18
 -1       197 9.50282E-05-2.85053E-05-2.85095E-05 2.18401E-07-4.25421E-19-3.43009E-18
 -1       198 9.52303E-05-2.85588E-05-2.85728E-05 2.46884E-07-6.45766E-19-3.35482E-18
 -1       199 9.54697E-05-2.86221E-05-2.86478E-05 3.05523E-07 6.43467E-20-4.06236E-18
 -1       200 9.57718E-05-2.87024E-05-2.87424E-05 4.00420E-07 9.28651E-19-4.28244E-18
 -1       201 9.61666E-05-2.88081E-05-2.88656E-05 5.39436E-07 3.47302E-19-3.75382E-18
 -1       202 9.66902E-05-2.89495E-05-2.90287E-05 7.32434E-07 1.62168E-19-2.20320E-18
 -1       203 9.73860E-05-2.91390E-05-2.92449E-05 9.91325E-07 1.39202E-19-6.75423E-19
 -1       204 9.83051E-05-2.93912E-05-2.95298E-05 1.32968E-06 4.35107E-19-1.57981E-18
 -1       205 9.95062E-05-2.97240E-05-2.99011E-05 1.76143E-06 2.52800E-19-1.84393E-18
 -1       206 1.01054E-04-3.01579E-05-3.03780E-05 2.29755E-06-6.61629E-19-2.25722E-18
 -1       207 1.03015E-04-3.07160E-05-3.09790E-05 2.93915E-06 1.20696E-19-2.14503E-18
 -1       208 1.05442E-04-3.14237E-05-3.17171E-05 3.66376E-06 3.88856E-19-1.98969E-18
 -1       209 1.08359E-04-3.23054E-05-3.25924E-05 4.40083E-06-6.78589E-19-2.00713E-18
 -1       210 1.11718E-04-3.33793E-05-3.35774E-05 4.99258E-06-7.11722E-19-1.48084E-18
 -1       211 1.15346E-04-3.46436E-05-3.45983E-05 5.14274E-06-5.48463E-19-1.95894E-18
 -1       212 1.18866E-04-3.60436E-05-3.55149E-05 4.37909E-06 1.92635E-19-2.05523E-18
 -1       213 1.21617E-04-3.74023E-05-3.61158E-05 2.10828E-06 1.54470E-18-1.36277E-18
 -1       214 1.22638E-04-3.83067E-05-3.61606E-05-2.08353E-06-5.73845E-19-6.37349E-19
 -1       215 1.20836E-04-3.80270E-05-3.54951E-05-7.74688E-06-7.71859E-20-4.78881E-19
 -1       216 1.15603E-04-3.57700E-05-3.42193E-05-1.27505E-05 2.64681E-19-2.12446E-18
 -1       217 1.07962E-04-3.16669E-05-3.27292E-05-1.35692E-05 3.39144E-21-1.11463E-18
 -1       218 1.01168E-04-2.76853E-05-3.15583E-05-7.94137E-06-1.71724E-18-4.93503E-19
 -1       219 9.90415E-05-2.66766E-05-3.10854E-05 1.71845E-06-7.61747E-19-1.61272E-18
 -1       220 1.02333E-04-2.92272E-05-3.13721E-05 9.29773E-06-6.45750E-19-3.91395E-18
 -1       221 1.07947E-04-3.29593E-05-3.21460E-05 1.06492E-05-5.24843E-19-4.69966E-18
 -1       222 1.12076E-04-3.53096E-05-3.29029E-05 6.66554E-06 4.96904E-20-2.70587E-18
 -1       223 1.12929E-04-3.55572E-05-3.31694E-05 8.95836E-07 1.79717E-18-2.49417E-18
 -1       224 1.10742E-04-3.43044E-05-3.27736E-05-3.79993E-06 2.29956E-18-1.38820E-18
 -1       225 1.06684E-04-3.23603E-05-3.18645E-05-6.22915E-06 2.26825E-19-1.20202E-18
 -1       226 1.02062E-04-3.02694E-05-3.07721E-05-6.26285E-06 1.13630E-18-9.18644E-19
 -1       227 9.78946E-05-2.83655E-05-2.98005E-05-4.16288E-06-2.54987E-19-1.08283E-19
 -1       228 9.95059E-05-2.85560E-05-3.05887E-05 7.21116E-06 8.49151E-19 6.45203E-18
 -1       229 9.44220E-05-2.77924E-05-2.85262E-05 2.74351E-06 7.06584E-19 5.59522E-18
 -1       230 9.21026E-05-2.74028E-05-2.76834E-05 9.29494E-07 5.64352E-19 4.93346E-18
 -1       231 9.11545E-05-2.72405E-05-2.73648E-05 6.74954E-08 4.13457E-19 4.44178E-18
 -1       232 9.09433E-05-2.72335E-05-2.72907E-05-3.60183E-07 2.27920E-19 4.21815E-18
 -1       233 9.11269E-05-2.73195E-05-2.73393E-05-5.60611E-07-1.75415E-19 3.96814E-18
 -1       234 9.15101E-05-2.74524E-05-2.74497E-05-6.33145E-07 2.66705E-19 3.77243E-18
 -1       235 9.19780E-05-2.76031E-05-2.75873E-05-6.31788E-07 2.84942E-19 3.41757E-18
 -1       236 9.24624E-05-2.77539E-05-2.77312E-05-5.88810E-07 4.21546E-19 3.13182E-18
 -1       237 9.29241E-05-2.78946E-05-2.78693E-05-5.24627E-07-5.28505E-20 3.15147E-18
 -1       238 9.33421E-05-2.80201E-05-2.79950E-05-4.52506E-07 5.23482E-19 3.34833E-18
 -1       239 9.37081E-05-2.81287E-05-2.81055E-05-3.81130E-07 2.82268E-19 2.81931E-18
 -1       240 9.40215E-05-2.82206E-05-2.82006E-05-3.16189E-07 2.96179E-19 2.31159E-18
 -1       241 9.42877E-05-2.82977E-05-2.82816E-05-2.61466E-07 4.31607E-19 2.38751E-18
 -1       242 9.45154E-05-2.83629E-05-2.83512E-05-2.19608E-07 1.68891E-19 2.32965E-18
 -1       243 9.47166E-05-2.84197E-05-2.84130E-05-1.92700E-07 3.41848E-19 1.62525E-18
 -1       244 9.49054E-05-2.84724E-05-2.84712E-05-1.82690E-07 6.48580E-19 9.43663E-19
 -1       245 9.50981E-05-2.85258E-05-2.85307E-05-1.91684E-07-2.95222E-19 1.35904E-18
 -1       246 9.53133E-05-2.85853E-05-2.85973E-05-2.22120E-07-6.82452E-19 1.06671E-18
 -1       247 9.55721E-05-2.86572E-05-2.86772E-05-2.76800E-07-1.19696E-19 1.52485E-18
 -1       248 9.58981E-05-2.87486E-05-2.87776E-05-3.58741E-07 1.25794E-18 8.10453E-19
 -1       249 9.63172E-05-2.88672E-05-2.89063E-05-4.70775E-07 1.06996E-18 8.44555E-19
 -1       250 9.68570E-05-2.90215E-05-2.90713E-05-6.14781E-07-5.39796E-19 4.84853E-19
 -1       251 9.75448E-05-2.92206E-05-2.92809E-05-7.90392E-07-1.52520E-18 5.52899E-19
 -1       252 9.84048E-05-2.94727E-05-2.95416E-05-9.92975E-07-7.10221E-19 2.12829E-18
 -1       253 9.94523E-05-2.97844E-05-2.98573E-05-1.21066E-06 1.56620E-19 2.96160E-18
 -1       254 1.00686E-04-3.01586E-05-3.02264E-05-1.42026E-06 3.21854E-19 4.15007E-18
 -1       255 1.02076E-04-3.05908E-05-3.06379E-05-1.58230E-06-2.11683E-19 1.73062E-18
 -1       256 1.03550E-04-3.10646E-05-3.10673E-05-1.63606E-06 9.58310E-19 2.34645E-18
 -1       257 1.04972E-04-3.15459E-05-3.14713E-05-1.49734E-06-1.67956E-19 2.56558E-18
 -1       258 1.06134E-04-3.19757E-05-3.17851E-05-1.06429E-06-9.15723E-19 1.96154E-18
 -1       259 1.06749E-04-3.22639E-05-3.19241E-05-2.40094E-07-3.19871E-19 1.41001E-18
 -1       260 1.06483E-04-3.22895E-05-3.17960E-05 1.01723E-06 1.12455E-19 2.38989E-18
 -1       261 1.05023E-04-3.19166E-05-3.13268E-05 2.61683E-06 3.97928E-19 2.00104E-18
 -1       262 1.02222E-04-3.10404E-05-3.05002E-05 4.25616E-06 2.32506E-18-3.49696E-19
 -1       263 9.82681E-05-2.96679E-05-2.93960E-05 5.41029E-06 4.45911E-19-5.91881E-19
 -1       264 9.38085E-05-2.80066E-05-2.82037E-05 5.48354E-06-1.98503E-18 5.05953E-19
 -1       265 8.98813E-05-2.64802E-05-2.71833E-05 4.14672E-06 2.34913E-19 7.33703E-19
 -1       266 8.75487E-05-2.55769E-05-2.65742E-05 1.66526E-06-1.16149E-19 9.26652E-19
 -1       267 8.73810E-05-2.55850E-05-2.64935E-05-1.09649E-06 7.79727E-19 2.63176E-18
 -1       268 8.91270E-05-2.63942E-05-2.68832E-05-3.11131E-06-3.29526E-19 2.07176E-18
 -1       269 9.18607E-05-2.75682E-05-2.75426E-05-3.77211E-06-1.01445E-18 2.94251E-18
 -1       270 9.44893E-05-2.86157E-05-2.82181E-05-3.15489E-06 1.28140E-18 2.37567E-18
 -1       271 9.62452E-05-2.92309E-05-2.87110E-05-1.82606E-06 2.05933E-18 1.31238E-18
 -1       272 9.68889E-05-2.93564E-05-2.89394E-05-4.67620E-07 7.62841E-19 1.65047E-18
 -1       273 9.66452E-05-2.91227E-05-2.89417E-05 4.07232E-07-9.95199E-19 6.90983E-19
 -1       274 9.59827E-05-2.87401E-05-2.88239E-05 5.71399E-07 8.29132E-19 8.99269E-19
 -1       275 9.54052E-05-2.84855E-05-2.86748E-05 1.71099E-07 7.91640E-19 1.48071E-18
 -1       276 9.53490E-05-2.81067E-05-2.88094E-05 5.63784E-07 6.29425E-19 4.52276E-18
 -1       277 9.52174E-05-2.71394E-05-2.91642E-05 1.72716E-06 2.81167E-18-1.00213E-18
 -1       278 9.47856E-05-2.52743E-05-2.97802E-05 3.40750E-06 1.64492E-18-1.49122E-18
 -1       279 9.39124E-05-2.22146E-05-3.07196E-05 5.38881E-06-6.67702E-19-1.83475E-18
 -1       280 9.25134E-05-1.79778E-05-3.19428E-05 7.17051E-06-3.31028E-18-5.43821E-18
 -1       281 9.05901E-05-1.27362E-05-3.33733E-05 8.12294E-06-1.92852E-18 4.80780E-20
 -1       282 8.84455E-05-7.35128E-06-3.47704E-05 7.51562E-06-2.78165E-18 1.91146E-18
 -1       283 8.66042E-05-3.00049E-06-3.58516E-05 5.02289E-06 6.91609E-19 1.39678E-18
 -1       284 8.56573E-05-8.74491E-07-3.63597E-05 1.03573E-06 5.96090E-19 7.89441E-19
 -1       285 8.59635E-05-1.65734E-06-3.61548E-05-3.37212E-06-1.39066E-18 1.61582E-18
 -1       286 8.73931E-05-5.09459E-06-3.52892E-05-6.87997E-06 9.17350E-19-2.32580E-18
 -1       287 8.95366E-05-1.03976E-05-3.39271E-05-8.75272E-06 6.97657E-19 1.22911E-18
 -1       288 9.18114E-05-1.62761E-05-3.23722E-05-8.73801E-06 6.78880E-19 5.90978E-19
 -1       289 9.38941E-05-2.16680E-05-3.09467E-05-7.00689E-06 2.98152E-19-5.92450E-19
 -1       290 9.58642E-05-2.54018E-05-3.01847E-05-6.30109E-06-3.41456E-19-2.21935E-18
 -1       291 1.34448E-05-5.06347E-05 1.28501E-05 9.91304E-06 4.28683E-18 6.53327E-18
 -1       292 3.37645E-05-4.66939E-05 3.56423E-06 3.09237E-05 7.86534E-18 7.79959E-18
 -1       293 6.19014E-05-4.14237E-05-1.02749E-05 3.88513E-05 9.05118E-18 7.66162E-18
 -1       294 1.10392E-04-4.17870E-05-2.94060E-05 4.48483E-05 6.83196E-18 5.87439E-18
 -1       295 1.50005E-04-3.29590E-05-4.86742E-05 4.58281E-05 9.11058E-18 3.76781E-18
 -1       296 1.85248E-04-3.21953E-05-6.32501E-05 2.91015E-05 5.53255E-18 3.15393E-18
 -1       297 2.15002E-04-3.68437E-05-7.26895E-05 1.47563E-05 4.11256E-18 1.15239E-18
 -1       298 2.07560E-04-3.31600E-05-7.16399E-05-8.40705E-06 4.49817E-18-2.27746E-18
 -1       299 1.92793E-04-3.45303E-05-6.48316E-05-3.39062E-05 2.31542E-18-3.19310E-18
 -1       300 1.52813E-04-3.53474E-05-4.91559E-05-3.79551E-05 1.36722E-18-4.59409E-18
 -1       301 1.05010E-04-3.04168E-05-3.18317E-05-4.76439E-05 2.89939E-18-2.79648E-18
 -1       302 6.50848E-05-3.44640E-05-1.44460E-05-3.90643E-05 2.27725E-18-2.70447E-18
 -1       303 3.44086E-05-4.29398E-05 1.06854E-06-2.59795E-05 1.88888E-18-5.61166E-19
 -1       304 1.65664E-05-4.95729E-05 1.10168E-05-1.39905E-05 6.13675E-19-4.02224E-18
 -1       305 1.20306E-05-5.48599E-05 1.46123E-05-3.66146E-07-1.12389E-18-3.71540E-18
 -1       306 2.00712E-05-5.09602E-05 9.83028E-06 1.24877E-05-4.66546E-18-6.01520E-18
 -1       307 4.26509E-05-4.33936E-05-2.13704E-06 2.67019E-05-6.35232E-18-5.96986E-18
 -1       308 8.85586E-05-4.30410E-05-2.03219E-05 3.91442E-05-6.40442E-18-2.85715E-18
 -1       309 1.29731E-04-3.52517E-05-3.98142E-05 4.34986E-05-4.75821E-18-6.35804E-18
 -1       310 1.74539E-04-3.75208E-05-5.67404E-05 3.06997E-05-6.04757E-18-1.20639E-18
 -1       311 2.10720E-04-3.89254E-05-6.99023E-05 1.97014E-05-3.70153E-18 2.49239E-19
 -1       312 2.23018E-04-3.92843E-05-7.45394E-05-3.50286E-06-3.55235E-18 1.90404E-19
 -1       313 2.04757E-04-3.41661E-05-6.98970E-05-2.20678E-05-2.94291E-18 1.69089E-18
 -1       314 1.80148E-04-3.43854E-05-5.97487E-05-4.31837E-05-3.24575E-18 5.29480E-18
 -1       315 1.38185E-04-3.28447E-05-4.39268E-05-4.94203E-05-4.15004E-18 4.04458E-18
 -1       316 9.43956E-05-3.50826E-05-2.58508E-05-4.59173E-05-5.64060E-18 3.45166E-18
 -1       317 5.93775E-05-4.42441E-05-8.19259E-06-3.77652E-05-4.02023E-18 5.16500E-18
 -1       318 2.85032E-05-4.94729E-05 6.07332E-06-2.31321E-05-2.74693E-18 5.52213E-18
 -1       319 1.37902E-05-5.35754E-05 1.35469E-05-7.57644E-06 1.77993E-18 3.18484E-18
 -1       320 9.16522E-05-1.43979E-05-3.31720E-05-1.30635E-05-9.10010E-19-2.00968E-18
 -1       321 9.57031E-05-1.91015E-05-3.28924E-05-1.46309E-05-1.33395E-18-1.36552E-18
 -1       322 8.79979E-05-1.03714E-05-3.33237E-05-8.16275E-06-2.60909E-20-2.48149E-18
 -1       323 8.71900E-05-9.45585E-06-3.33631E-05-5.71947E-06 2.91267E-19-2.38670E-18
 -1       324 8.67296E-05-8.92508E-06-3.33898E-05-3.36710E-06 7.32742E-19-2.13394E-18
 -1       325 8.65243E-05-8.68501E-06-3.34032E-05-1.07253E-06 1.02700E-18-2.04067E-18
 -1       326 8.65329E-05-8.69446E-06-3.34029E-05 1.20349E-06 1.22980E-18-1.84610E-18
 -1       327 8.67568E-05-8.95531E-06-3.33886E-05 3.50009E-06 1.45085E-18-1.58451E-18
 -1       328 8.72288E-05-9.49923E-06-3.33614E-05 5.81507E-06 1.63183E-18-1.12527E-18
 -1       329 8.80678E-05-1.04505E-05-3.33200E-05 8.25437E-06 1.88605E-18-3.86856E-19
 -1       330 8.94830E-05-1.20334E-05-3.32593E-05 1.07632E-05 2.16817E-18 2.54428E-19
 -1       331 9.19035E-05-1.47226E-05-3.31587E-05 1.31686E-05 2.09427E-18 1.14347E-18
 -1       332 9.58076E-05-1.94582E-05-3.28290E-05 1.43755E-05 1.76448E-18 2.82855E-18
 -1       333 9.87954E-05-2.44456E-05-3.19524E-05 1.18978E-05 1.32434E-18 4.22947E-18
 -1       334 9.63946E-05-2.68137E-05-2.97909E-05 5.74089E-06 1.14580E-18 3.53373E-18
 -1       335 9.64412E-05-2.60303E-05-3.01317E-05-6.35053E-06-1.00228E-18-1.05369E-18
 -1       336 9.49213E-05-2.70286E-05-2.90715E-05-2.83567E-06-7.72114E-19-9.75596E-19
 -1       337 9.39454E-05-2.74266E-05-2.84933E-05-9.22062E-07-5.43892E-19-9.32211E-19
 -1       338 9.34262E-05-2.76398E-05-2.81874E-05 1.36896E-07-3.87904E-19-1.07457E-18
 -1       339 9.32335E-05-2.77928E-05-2.80432E-05 7.00517E-07-3.50788E-19-8.45331E-19
 -1       340 9.32495E-05-2.79222E-05-2.79964E-05 9.67083E-07-1.77645E-19-8.05512E-19
 -1       341 9.33874E-05-2.80366E-05-2.80074E-05 1.05371E-06-4.36019E-19-6.72153E-19
 -1       342 9.35878E-05-2.81372E-05-2.80507E-05 1.03335E-06-3.91375E-19-6.75867E-19
 -1       343 9.38120E-05-2.82237E-05-2.81099E-05 9.53273E-07-6.91977E-19-7.22832E-19
 -1       344 9.40362E-05-2.82963E-05-2.81749E-05 8.44759E-07-7.99919E-19-8.57818E-19
 -1       345 9.42472E-05-2.83558E-05-2.82399E-05 7.28722E-07-2.77328E-19-8.39882E-19
 -1       346 9.44392E-05-2.84033E-05-2.83017E-05 6.19262E-07 1.95893E-19-9.42281E-19
 -1       347 9.46117E-05-2.84408E-05-2.83595E-05 5.26083E-07-1.59999E-19-1.30297E-18
 -1       348 9.47681E-05-2.84701E-05-2.84138E-05 4.56249E-07-3.57142E-19-1.85242E-18
 -1       349 9.49145E-05-2.84935E-05-2.84663E-05 4.15504E-07-5.31165E-19-1.74388E-18
 -1       350 9.50595E-05-2.85132E-05-2.85198E-05 4.09316E-07-4.52256E-19-1.99169E-18
 -1       351 9.52137E-05-2.85318E-05-2.85776E-05 4.43712E-07-2.95846E-19-1.98100E-18
 -1       352 9.53901E-05-2.85520E-05-2.86443E-05 5.25973E-07-9.46403E-19-2.38448E-18
 -1       353 9.56040E-05-2.85768E-05-2.87249E-05 6.65217E-07 6.79678E-19-1.96208E-18
 -1       354 9.58733E-05-2.86099E-05-2.88256E-05 8.72868E-07 1.55699E-18-1.53063E-18
 -1       355 9.62189E-05-2.86556E-05-2.89536E-05 1.16298E-06 1.20840E-18-1.12198E-18
 -1       356 9.66652E-05-2.87189E-05-2.91171E-05 1.55226E-06 8.42685E-19-8.74605E-19
 -1       357 9.72395E-05-2.88066E-05-2.93248E-05 2.05961E-06 3.95933E-19-2.61983E-19
 -1       358 9.79729E-05-2.89278E-05-2.95863E-05 2.70454E-06 3.36095E-19-7.10628E-19
 -1       359 9.88992E-05-2.90957E-05-2.99105E-05 3.50356E-06-1.20809E-19-5.85397E-19
 -1       360 1.00055E-04-2.93312E-05-3.03040E-05 4.46292E-06-3.56397E-19-8.99482E-19
 -1       361 1.01479E-04-2.96698E-05-3.07689E-05 5.56484E-06 4.09129E-19-1.19640E-18
 -1       362 1.03213E-04-3.01718E-05-3.12982E-05 6.74340E-06-5.27709E-19-2.15731E-18
 -1       363 1.05310E-04-3.09386E-05-3.18710E-05 7.84565E-06-3.51345E-19-1.89450E-18
 -1       364 1.07832E-04-3.21275E-05-3.24485E-05 8.57586E-06-4.14103E-19-1.23857E-18
 -1       365 1.10856E-04-3.39435E-05-3.29759E-05 8.43309E-06 5.57121E-19 5.94022E-19
 -1       366 1.14421E-04-3.65458E-05-3.34009E-05 6.68585E-06 8.76838E-19 4.78794E-19
 -1       367 1.18354E-04-3.97632E-05-3.37192E-05 2.50192E-06 9.28340E-19 1.38578E-20
 -1       368 1.21900E-04-4.25690E-05-3.40446E-05-4.51595E-06 2.16046E-19 1.34737E-18
 -1       369 1.23414E-04-4.27101E-05-3.46306E-05-1.31761E-05-7.55888E-19 1.00066E-18
 -1       370 1.20823E-04-3.76236E-05-3.57412E-05-1.93377E-05-1.20778E-19 1.73932E-19
 -1       371 1.14731E-04-2.85001E-05-3.70929E-05-1.71880E-05-7.05578E-19-1.41006E-18
 -1       372 1.10124E-04-2.23484E-05-3.77882E-05-5.17813E-06-1.50045E-18-1.75486E-18
 -1       373 1.11445E-04-2.52346E-05-3.71031E-05 8.79105E-06-1.04835E-18-1.18217E-18
 -1       374 1.16306E-04-3.38742E-05-3.54239E-05 1.47361E-05-1.07434E-18-8.05659E-19
 -1       375 1.19015E-04-4.03648E-05-3.37667E-05 1.08924E-05 1.07448E-18 2.98040E-19
 -1       376 1.17488E-04-4.14572E-05-3.26276E-05 2.51525E-06 1.37278E-18 1.35207E-18
 -1       377 1.13171E-04-3.87817E-05-3.19170E-05-5.17972E-06 2.37131E-18 1.35541E-18
 -1       378 1.07996E-04-3.47953E-05-3.13940E-05-9.85270E-06 2.64508E-19 4.10748E-19
 -1       379 1.03068E-04-3.08587E-05-3.09513E-05-1.11547E-05-2.55801E-19 8.15625E-20
 -1       380 9.92792E-05-2.78807E-05-3.05826E-05-9.65322E-06 2.99057E-19-1.21524E-18
 -1       381 9.43749E-05-2.73425E-05-2.86900E-05 2.46848E-06 9.02424E-19 3.15704E-18
 -1       382 9.31685E-05-2.74625E-05-2.81379E-05 7.43664E-07 6.75525E-19 2.80415E-18
 -1       383 9.26143E-05-2.75400E-05-2.78790E-05-1.77025E-07 4.27242E-19 2.42959E-18
 -1       384 9.24718E-05-2.76325E-05-2.77841E-05-6.52066E-07-6.26589E-23 1.97980E-18
 -1       385 9.25732E-05-2.77415E-05-2.77834E-05-8.69173E-07 2.11852E-19 1.78685E-18
 -1       386 9.28070E-05-2.78574E-05-2.78352E-05-9.33270E-07 5.76735E-19 1.65277E-18
 -1       387 9.31015E-05-2.79709E-05-2.79134E-05-9.07660E-07 5.52270E-19 1.60741E-18
 -1       388 9.34119E-05-2.80760E-05-2.80017E-05-8.32566E-07-1.01580E-19 1.58413E-18
 -1       389 9.37116E-05-2.81691E-05-2.80904E-05-7.34306E-07 4.97544E-19 1.50557E-18
 -1       390 9.39866E-05-2.82491E-05-2.81740E-05-6.30304E-07 7.40532E-19 1.53839E-18
 -1       391 9.42313E-05-2.83163E-05-2.82500E-05-5.32163E-07 7.34714E-19 9.07576E-19
 -1       392 9.44464E-05-2.83720E-05-2.83182E-05-4.47722E-07 8.04417E-20 9.19590E-19
 -1       393 9.46362E-05-2.84184E-05-2.83795E-05-3.82499E-07 3.31311E-19 1.25628E-18
 -1       394 9.48087E-05-2.84579E-05-2.84363E-05-3.40742E-07 5.87933E-19 1.35042E-18
 -1       395 9.49738E-05-2.84937E-05-2.84915E-05-3.26202E-07 1.14022E-18 1.01008E-18
 -1       396 9.51438E-05-2.85291E-05-2.85489E-05-3.42659E-07 1.41016E-19 1.94069E-19
 -1       397 9.53329E-05-2.85684E-05-2.86128E-05-3.94239E-07-5.77269E-19-1.53084E-19
 -1       398 9.55573E-05-2.86159E-05-2.86883E-05-4.85473E-07-1.37433E-19-6.72708E-19
 -1       399 9.58354E-05-2.86772E-05-2.87808E-05-6.21069E-07 6.32327E-19-9.20617E-19
 -1       400 9.61870E-05-2.87586E-05-2.88963E-05-8.05256E-07 1.05007E-18-3.22026E-19
 -1       401 9.66335E-05-2.88676E-05-2.90406E-05-1.04057E-06-2.19105E-19 2.50283E-19
 -1       402 9.71962E-05-2.90128E-05-2.92193E-05-1.32586E-06-1.78506E-18 3.07980E-19
 -1       403 9.78946E-05-2.92043E-05-2.94364E-05-1.65318E-06-1.54958E-18 4.02589E-19
 -1       404 9.87433E-05-2.94531E-05-2.96937E-05-2.00336E-06-3.28005E-19 1.22903E-18
 -1       405 9.97466E-05-2.97706E-05-2.99882E-05-2.34014E-06 3.40129E-19 2.18177E-18
 -1       406 1.00892E-04-3.01675E-05-3.03104E-05-2.60299E-06 5.49136E-19 3.28546E-18
 -1       407 1.02143E-04-3.06498E-05-3.06416E-05-2.70038E-06 6.78187E-19 4.02325E-18
 -1       408 1.03422E-04-3.12124E-05-3.09516E-05-2.50689E-06 3.30042E-19 4.05018E-18
 -1       409 1.04606E-04-3.18274E-05-3.11989E-05-1.87154E-06-7.66441E-20 1.71726E-18
 -1       410 1.05509E-04-3.24238E-05-3.13333E-05-6.49123E-07-1.44470E-19 7.68166E-19
 -1       411 1.05882E-04-3.28646E-05-3.13063E-05 1.23139E-06-4.76033E-19 1.14995E-19
 -1       412 1.05439E-04-3.29346E-05-3.10862E-05 3.65572E-06 1.31136E-18 5.20733E-19
 -1       413 1.03938E-04-3.23798E-05-3.06770E-05 6.20369E-06 2.52642E-18 1.46137E-18
 -1       414 1.01332E-04-3.10327E-05-3.01309E-05 8.11179E-06 3.58342E-19 3.01064E-18
 -1       415 9.79710E-05-2.90243E-05-2.95430E-05 8.45944E-06-1.22022E-18 1.02246E-18
 -1       416 9.46870E-05-2.69337E-05-2.90249E-05 6.65751E-06-3.26367E-19-3.22394E-19
 -1       417 9.25289E-05-2.56030E-05-2.86673E-05 3.00493E-06-9.35703E-19 4.44554E-19
 -1       418 9.21912E-05-2.56299E-05-2.85098E-05-1.23048E-06-6.14172E-19 2.64864E-18
 -1       419 9.35294E-05-2.68966E-05-2.85403E-05-4.42204E-06 2.74786E-19 5.33684E-18
 -1       420 9.56614E-05-2.86580E-05-2.87062E-05-5.55738E-06-5.77031E-19 3.72946E-18
 -1       421 9.75493E-05-3.00741E-05-2.89179E-05-4.69901E-06 1.47962E-18 2.21650E-18
 -1       422 9.85438E-05-3.06927E-05-2.90874E-05-2.69801E-06 1.93556E-18 3.23235E-18
 -1       423 9.85155E-05-3.05040E-05-2.91573E-05-5.95834E-07 7.42700E-19 3.27459E-18
 -1       424 9.77130E-05-2.97729E-05-2.91230E-05 8.21120E-07-4.22444E-19 2.78773E-18
 -1       425 9.65809E-05-2.88899E-05-2.90128E-05 1.20966E-06-2.12600E-19 4.48501E-18
 -1       426 9.59266E-05-2.84164E-05-2.89290E-05 1.03426E-06 6.80203E-19 4.13686E-18
 -1       427 9.68229E-05-2.65762E-05-3.00898E-05 7.17107E-06-8.83457E-19-2.55047E-18
 -1       428 9.68047E-05-2.78119E-05-2.95592E-05 4.23597E-06-1.25651E-19-1.33903E-18
 -1       429 9.63257E-05-2.81493E-05-2.92105E-05 2.31145E-06-2.71268E-19 1.49381E-18
 -1       430 9.59887E-05-2.43157E-05-3.07066E-05 1.02966E-05-2.34969E-18-7.23349E-18
 -1       431 9.40295E-05-2.08357E-05-3.13663E-05 1.27497E-05-1.03331E-18-5.66392E-19
 -1       432 9.09761E-05-1.64016E-05-3.19698E-05 1.32550E-05 6.54269E-19 1.47944E-18
 -1       433 8.74893E-05-1.18654E-05-3.24307E-05 1.08030E-05-4.16818E-19 2.37168E-18
 -1       434 8.47898E-05-8.56953E-06-3.26937E-05 5.31785E-06-1.87342E-18-7.53945E-19
 -1       435 8.40650E-05-7.74422E-06-3.27400E-05-1.92325E-06-1.37932E-18 4.80026E-19
 -1       436 8.56074E-05-9.67331E-06-3.25703E-05-8.63072E-06-7.89584E-19 1.34993E-18
 -1       437 8.87370E-05-1.36543E-05-3.21948E-05-1.31157E-05 5.62264E-19 7.65120E-19
 -1       438 9.22446E-05-1.83524E-05-3.16688E-05-1.44719E-05 9.87637E-19 5.25955E-19
 -1       439 9.52260E-05-2.26279E-05-3.10940E-05-1.30932E-05 1.74767E-19-2.00325E-18
 -1       440 6.84139E-05-4.80523E-05-8.81317E-06 4.70329E-05 3.13805E-18 3.90927E-18
 -1       441 1.50388E-05-2.32501E-05 3.60666E-06-2.87584E-07 4.57060E-18 4.84757E-18
 -1       442 2.95719E-05-2.87600E-05-5.31921E-08 3.04650E-05 3.59978E-18 7.40942E-18
 -1       443 1.08929E-04-5.98634E-05-2.10400E-05 4.37713E-05 1.45086E-18 7.89223E-19
 -1       444 1.45816E-04-5.65942E-05-3.81617E-05 2.14280E-05 2.57469E-18-2.03860E-18
 -1       445 8.94240E-05-1.19261E-05-3.32759E-05-1.07599E-05-3.69066E-19-2.45991E-18
 -1       446 1.58371E-04-1.76895E-05-6.02978E-05-1.42963E-06 5.42609E-18 3.89582E-19
 -1       447 1.57756E-04-1.07530E-05-6.30377E-05 1.56514E-06 5.67554E-18-6.48589E-19
 -1       448 1.65164E-04-2.10880E-05-6.14476E-05 9.30528E-07 3.04625E-18-1.22809E-18
 -1       449 1.58139E-04-3.44891E-05-5.28205E-05-6.35667E-06 9.72923E-19-1.85352E-18
 -1       450 1.40424E-04-5.42497E-05-3.69872E-05-2.17634E-05 5.21561E-19-1.65553E-18
 -1       451 1.10134E-04-5.41918E-05-2.40542E-05-3.93609E-05 1.07997E-19-1.86935E-18
 -1       452 7.30476E-05-4.80623E-05-1.08338E-05-4.54841E-05-8.21198E-19-1.42492E-18
 -1       453 3.49960E-05-3.59259E-05 9.55157E-08-3.61486E-05-1.98460E-18 3.79047E-20
 -1       454 1.25214E-05-2.62523E-05 5.54807E-06-1.16546E-05-1.58435E-18-3.92155E-18
 -1       455 1.67590E-05-2.86770E-05 4.83950E-06 1.60323E-05-6.77838E-19-6.24835E-18
 -1       456 4.76795E-05-3.91222E-05-3.58041E-06 3.80999E-05 2.81956E-19-3.84055E-18
 -1       457 8.56717E-05-5.43547E-05-1.35395E-05 4.13626E-05-9.07913E-19-4.36586E-19
 -1       458 1.35606E-04-6.24740E-05-3.12602E-05 2.28217E-05-1.74007E-18-8.30939E-19
 -1       459 1.53476E-04-5.34292E-05-4.30704E-05 4.72298E-06-3.02317E-18 8.46927E-19
 -1       460 1.64661E-04-3.08762E-05-5.71465E-05-6.37446E-06-5.36860E-18-4.64703E-19
 -1       461 1.68725E-04-1.80259E-05-6.41579E-05-5.68292E-06-3.23408E-18-2.42352E-18
 -1       462 1.67078E-04-1.61938E-05-6.42836E-05-1.88630E-06-2.83237E-18-3.78883E-18
 -1       463 1.64832E-04-3.07513E-05-5.73224E-05-1.10477E-06-1.28082E-18-5.35621E-18
 -1       464 1.58906E-04-4.73850E-05-4.76246E-05-1.35575E-05-3.07863E-19-1.38119E-18
 -1       465 1.38360E-04-5.92566E-05-3.39055E-05-2.93350E-05-1.52275E-18-6.42369E-19
 -1       466 1.05475E-04-5.86202E-05-2.01424E-05-4.35751E-05-2.75392E-19 1.96189E-18
 -1       467 6.14812E-05-4.57919E-05-6.81298E-06-4.58711E-05 8.15163E-19 3.32926E-18
 -1       468 2.72667E-05-3.18433E-05 1.85823E-06-2.88052E-05 2.19763E-18 6.08445E-18
 -1       469 1.56487E-04-4.08007E-05-4.97005E-05 6.11782E-06 4.31992E-18-9.59265E-20
 -1       470 5.67272E-05-3.61728E-05-8.36958E-06 4.33967E-05 2.62580E-19 8.95949E-19
 -1       471 1.47454E-04-4.96046E-05-4.22203E-05-1.33474E-06-7.00801E-19 1.36139E-18
 -1       472 9.58219E-05-2.51489E-05-3.02742E-05 6.01755E-06 1.36098E-18 1.62094E-18
 -1       473 8.95393E-05-1.34020E-05-3.26492E-05-3.92385E-06 5.14265E-19-1.97448E-18
 -1       474 9.02485E-05-1.43667E-05-3.25410E-05-5.87915E-06 1.87552E-19-2.16434E-18
 -1       475 8.90413E-05-1.27217E-05-3.27262E-05 5.46545E-08 1.03642E-18-1.74921E-18
 -1       476 8.91766E-05-1.29051E-05-3.27058E-05 2.04583E-06 1.24336E-18-1.59373E-18
 -1       477 8.95714E-05-1.34424E-05-3.26458E-05 3.99854E-06 1.44204E-18-1.24808E-18
 -1       478 9.02957E-05-1.44293E-05-3.25352E-05 5.95254E-06 1.69421E-18-6.48989E-19
 -1       479 9.14435E-05-1.60077E-05-3.23527E-05 7.78004E-06 1.85466E-18 1.42596E-19
 -1       480 9.32331E-05-1.84793E-05-3.20576E-05 9.29532E-06 1.89742E-18 6.10191E-19
 -1       481 1.33476E-04-6.45732E-05-2.96342E-05 2.63231E-05 1.91853E-18-8.22522E-19
 -1       482 9.51147E-05-2.65786E-05-2.93546E-05 2.87376E-06 9.47245E-19 1.28009E-18
 -1       483 9.54828E-05-2.44345E-05-3.04394E-05-5.82004E-06-7.99801E-19-1.24758E-18
 -1       484 1.42456E-04-2.79728E-05-4.95848E-05-9.72815E-06 4.75122E-18 4.67033E-19
 -1       485 9.52742E-05-2.62236E-05-2.95849E-05-2.89690E-06-5.56547E-19-1.04029E-18
 -1       486 9.49185E-05-2.71623E-05-2.90344E-05-1.03245E-06-4.10666E-19-7.91860E-19
 -1       487 9.46423E-05-2.76940E-05-2.86905E-05 9.02467E-08-3.11242E-19-6.67874E-19
 -1       488 9.44855E-05-2.80202E-05-2.84846E-05 7.24633E-07-4.74863E-19-5.99326E-19
 -1       489 9.44300E-05-2.82315E-05-2.83707E-05 1.04195E-06-4.87695E-19-8.74542E-19
 -1       490 9.44455E-05-2.83720E-05-2.83174E-05 1.15741E-06-3.17522E-19-1.12208E-18
 -1       491 9.45048E-05-2.84652E-05-2.83029E-05 1.14916E-06-5.58043E-19-9.44230E-19
 -1       492 9.45876E-05-2.85253E-05-2.83127E-05 1.07057E-06-5.92769E-19-6.36040E-19
 -1       493 9.46801E-05-2.85615E-05-2.83369E-05 9.58211E-07-1.63395E-19-1.42572E-19
 -1       494 9.47739E-05-2.85799E-05-2.83692E-05 8.37215E-07-1.88976E-21 5.54139E-20
 -1       495 9.48649E-05-2.85849E-05-2.84060E-05 7.25007E-07-2.25826E-19-4.51448E-19
 -1       496 9.49518E-05-2.85797E-05-2.84454E-05 6.34017E-07-5.37509E-19-2.57204E-19
 -1       497 9.50360E-05-2.85662E-05-2.84872E-05 5.73713E-07-4.90106E-19-1.59978E-19
 -1       498 9.51203E-05-2.85457E-05-2.85320E-05 5.52165E-07-8.49828E-19 1.03266E-19
 -1       499 9.52091E-05-2.85187E-05-2.85815E-05 5.77262E-07-4.66681E-19-4.19413E-19
 -1       500 9.53080E-05-2.84852E-05-2.86381E-05 6.57684E-07-5.44837E-19-2.83889E-19
 -1       501 9.54237E-05-2.84448E-05-2.87049E-05 8.03659E-07 8.17843E-20 3.95252E-19
 -1       502 9.55636E-05-2.83965E-05-2.87854E-05 1.02755E-06 1.07832E-18-1.02258E-18
 -1       503 9.57361E-05-2.83393E-05-2.88836E-05 1.34419E-06 1.46703E-18-1.39552E-18
 -1       504 9.59500E-05-2.82722E-05-2.90037E-05 1.77102E-06 1.03007E-18-5.88537E-19
 -1       505 9.62146E-05-2.81948E-05-2.91500E-05 2.32767E-06 6.11875E-19-8.19586E-19
 -1       506 9.65395E-05-2.81088E-05-2.93257E-05 3.03478E-06 3.32526E-19-1.03835E-18
 -1       507 9.69348E-05-2.80201E-05-2.95327E-05 3.91153E-06-2.15853E-19-1.42870E-18
 -1       508 9.74134E-05-2.79450E-05-2.97696E-05 4.97082E-06-3.31082E-19-9.62518E-19
 -1       509 9.79962E-05-2.79195E-05-3.00300E-05 6.21080E-06-4.08971E-19-5.57431E-19
 -1       510 9.87236E-05-2.80168E-05-3.03001E-05 7.60060E-06-1.27835E-19 1.20706E-19
 -1       511 9.96795E-05-2.83750E-05-3.05568E-05 9.05743E-06-1.93631E-19 1.70182E-19
 -1       512 1.01030E-04-2.92348E-05-3.07689E-05 1.04109E-05-9.48759E-20 7.13161E-19
 -1       513 1.03081E-04-3.09709E-05-3.09067E-05 1.13482E-05 7.30709E-19 2.96521E-19
 -1       514 1.06310E-04-3.40643E-05-3.09696E-05 1.13351E-05 3.73799E-19 1.87841E-19
 -1       515 1.11308E-04-3.88913E-05-3.10485E-05 9.52719E-06 8.24751E-19 5.15689E-19
 -1       516 1.18352E-04-4.50502E-05-3.14325E-05 4.70636E-06 7.18982E-19 1.15622E-19
 -1       517 1.26401E-04-5.01187E-05-3.27439E-05-4.25204E-06 4.00972E-19 5.91034E-19
 -1       518 1.31671E-04-4.89825E-05-3.55526E-05-1.58044E-05-1.00987E-18 8.04944E-19
 -1       519 1.29021E-04-3.62224E-05-4.01320E-05-2.25208E-05-2.58615E-18 6.15978E-19
 -1       520 1.22833E-04-1.97726E-05-4.46853E-05-1.52162E-05-2.68361E-18-1.76974E-18
 -1       521 1.21065E-04-1.61046E-05-4.55227E-05 3.06447E-06-5.66189E-19-2.01121E-18
 -1       522 1.26549E-04-2.97873E-05-4.18652E-05 1.54722E-05 7.24478E-20-7.67591E-19
 -1       523 1.30217E-04-4.50141E-05-3.66964E-05 1.26016E-05 5.18940E-20 2.06597E-19
 -1       524 1.26482E-04-4.99413E-05-3.28661E-05 1.76438E-06 1.18091E-18-2.26376E-19
 -1       525 1.18463E-04-4.61816E-05-3.09982E-05-8.03798E-06 1.62739E-18 5.86058E-19
 -1       526 1.10232E-04-3.93486E-05-3.03908E-05-1.38051E-05 1.83789E-18 1.31020E-18
 -1       527 1.03729E-04-3.27691E-05-3.04113E-05-1.55879E-05-1.95397E-19 5.42376E-19
 -1       528 9.41444E-05-2.76872E-05-2.84781E-05-1.19383E-07 5.70100E-19 9.40755E-19
 -1       529 9.39678E-05-2.79336E-05-2.82990E-05-7.28366E-07 3.79904E-19 4.97542E-19
 -1       530 9.39373E-05-2.81046E-05-2.82137E-05-1.02599E-06 2.91980E-19 2.81817E-19
 -1       531 9.40006E-05-2.82302E-05-2.81875E-05-1.12922E-06 3.42911E-19 5.38748E-19
 -1       532 9.41170E-05-2.83242E-05-2.81973E-05-1.11474E-06 1.10363E-19 1.16335E-18
 -1       533 9.42580E-05-2.83943E-05-2.82278E-05-1.03394E-06 4.68964E-19 7.48630E-19
 -1       534 9.44055E-05-2.84455E-05-2.82691E-05-9.21486E-07 7.41505E-19 5.74827E-19
 -1       535 9.45488E-05-2.84816E-05-2.83151E-05-8.00925E-07 6.86247E-19 9.17132E-19
 -1       536 9.46830E-05-2.85054E-05-2.83622E-05-6.88351E-07 4.67862E-19 1.03735E-18
 -1       537 9.48071E-05-2.85197E-05-2.84092E-05-5.95002E-07-3.47661E-20 8.59107E-19
 -1       538 9.49232E-05-2.85264E-05-2.84560E-05-5.29133E-07 3.83231E-19 7.02237E-19
 -1       539 9.50356E-05-2.85275E-05-2.85036E-05-4.97382E-07 8.44014E-19 3.59220E-19
 -1       540 9.51505E-05-2.85248E-05-2.85538E-05-5.05749E-07 1.06442E-18 1.20961E-18
 -1       541 9.52757E-05-2.85202E-05-2.86093E-05-5.60233E-07-2.15059E-19 6.59407E-19
 -1       542 9.54204E-05-2.85160E-05-2.86729E-05-6.67123E-07-1.58551E-19 1.16899E-19
 -1       543 9.55953E-05-2.85151E-05-2.87480E-05-8.32919E-07 4.18122E-19 3.05307E-19
 -1       544 9.58128E-05-2.85218E-05-2.88381E-05-1.06376E-06 7.97786E-19 3.77813E-19
 -1       545 9.60866E-05-2.85422E-05-2.89465E-05-1.36424E-06 1.92807E-19 6.77760E-19
 -1       546 9.64322E-05-2.85853E-05-2.90760E-05-1.73537E-06-9.55553E-19 7.92984E-19
 -1       547 9.68662E-05-2.86638E-05-2.92282E-05-2.17138E-06-1.69450E-18 1.70747E-19
 -1       548 9.74068E-05-2.87965E-05-2.94030E-05-2.65520E-06-1.21765E-18-1.96821E-19
 -1       549 9.80729E-05-2.90091E-05-2.95975E-05-3.15222E-06 3.34214E-19-1.03046E-18
 -1       550 9.88838E-05-2.93363E-05-2.98054E-05-3.60236E-06-1.75892E-19-6.09362E-19
 -1       551 9.98573E-05-2.98205E-05-3.00161E-05-3.91142E-06-5.70078E-19 9.02791E-19
 -1       552 1.01005E-04-3.05070E-05-3.02154E-05-3.94371E-06 1.24740E-19 6.43835E-19
 -1       553 1.02323E-04-3.14280E-05-3.03874E-05-3.52142E-06 1.05003E-18 1.82744E-18
 -1       554 1.03767E-04-3.25698E-05-3.05193E-05-2.44044E-06 1.59020E-19 1.86148E-18
 -1       555 1.05217E-04-3.38164E-05-3.06088E-05-5.18582E-07-2.61801E-19 2.61737E-18
 -1       556 1.06423E-04-3.48761E-05-3.06720E-05 2.30052E-06 4.78356E-19 2.37176E-18
 -1       557 1.06975E-04-3.52493E-05-3.07476E-05 5.77287E-06 9.01138E-19 2.80536E-18
 -1       558 1.06397E-04-3.43475E-05-3.08833E-05 9.17338E-06 7.51810E-19 3.59214E-18
 -1       559 1.04414E-04-3.18413E-05-3.11017E-05 1.12648E-05 2.18782E-19 3.40383E-18
 -1       560 1.01407E-04-2.82208E-05-3.13573E-05 1.06885E-05-2.64994E-19 3.01563E-18
 -1       561 9.86155E-05-2.50154E-05-3.15348E-05 6.93265E-06 7.70487E-19 1.69091E-18
 -1       562 9.74205E-05-2.38994E-05-3.15067E-05 1.12809E-06-1.18707E-18-7.41097E-19
 -1       563 9.84157E-05-2.56023E-05-3.11948E-05-4.22969E-06-8.53243E-19-9.21480E-19
 -1       564 1.00616E-04-2.89158E-05-3.07195E-05-6.99738E-06 5.36808E-19-1.20226E-19
 -1       565 1.02530E-04-3.19763E-05-3.02348E-05-6.60561E-06 1.47781E-18-1.15905E-18
 -1       566 1.03154E-04-3.35113E-05-2.98545E-05-4.08619E-06 1.26364E-18-4.77547E-19
 -1       567 1.02367E-04-3.33173E-05-2.96048E-05-9.93350E-07 9.44127E-19-7.65610E-19
 -1       568 1.00600E-04-3.18879E-05-2.94549E-05 1.46956E-06-2.35797E-19 7.15906E-19
 -1       569 9.84177E-05-2.99278E-05-2.93544E-05 2.64731E-06-9.96804E-19 2.16143E-18
 -1       570 9.87645E-05-2.83870E-05-3.01555E-05 1.46481E-05 5.82834E-19-2.11740E-18
 -1       571 9.50269E-05-2.48561E-05-3.00740E-05 1.73705E-05 7.05145E-19 1.96001E-18
 -1       572 9.98973E-05-3.04430E-05-2.97617E-05 6.48356E-06-1.03506E-18-2.85766E-18
 -1       573 1.00251E-04-3.01542E-05-3.00345E-05 1.05738E-05-1.42915E-18-5.27690E-18
 -1       574 8.93049E-05-1.97907E-05-2.97940E-05 1.68244E-05 4.68968E-19 9.25770E-19
 -1       575 8.33674E-05-1.46555E-05-2.94514E-05 1.17279E-05-5.26687E-19-1.12822E-19
 -1       576 7.99004E-05-1.16642E-05-2.92485E-05 2.68850E-06-2.19281E-18 1.20545E-18
 -1       577 8.06830E-05-1.22883E-05-2.93212E-05-7.30368E-06-2.29566E-19 1.62643E-18
 -1       578 8.52555E-05-1.61299E-05-2.96319E-05-1.50608E-05 4.98474E-19 3.69430E-19
 -1       579 9.13438E-05-2.12437E-05-3.00507E-05-1.84019E-05 3.67752E-19 5.10743E-20
 -1       580 9.65372E-05-2.55658E-05-3.04111E-05-1.75623E-05-2.29425E-18-1.77753E-18
 -1       581 3.38482E-05-1.62377E-05-6.79384E-06 1.46663E-05 3.81869E-18 4.42374E-18
 -1       582 9.62564E-05-5.48043E-05-1.74273E-05 4.58942E-05-2.60992E-19-5.20489E-19
 -1       583 9.45220E-05-2.72943E-05-2.88032E-05 9.84241E-07 8.69221E-19 1.03530E-18
 -1       584 3.27501E-05-1.81442E-05-5.56780E-06-1.82186E-05 3.91833E-18 7.96740E-18
 -1       585 9.46307E-05-2.07703E-05-3.16755E-05-9.51542E-06-9.10096E-19-1.59305E-18
 -1       586 5.35513E-05-3.19062E-05-8.76615E-06-3.92009E-05 2.22314E-18 5.31116E-18
 -1       587 4.01198E-05-2.35510E-05-6.48223E-06 2.75672E-05 9.66570E-19-3.18649E-18
 -1       588 8.91567E-05-1.28801E-05-3.27080E-05-1.93696E-06 8.58219E-19-1.91701E-18
 -1       589 1.29496E-04-6.20439E-05-2.89002E-05-2.39185E-05-1.94521E-18 3.44742E-19
 -1       590 1.33404E-04-9.53899E-06-5.37484E-05-4.24457E-06 6.12511E-18-1.05714E-18
 -1       591 1.33732E-04-9.87844E-06-5.37757E-05 8.91904E-06 3.99207E-18 1.27685E-18
 -1       592 1.43874E-04-2.63348E-05-5.08820E-05 1.18013E-05 3.43525E-19 9.68794E-20
 -1       593 1.42429E-04-1.97962E-05-5.31497E-05-1.59285E-05-3.87168E-18-1.46087E-18
 -1       594 1.04015E-04-5.68391E-05-1.99486E-05-3.97463E-05-2.47191E-18 1.70730E-21
 -1       595 6.46609E-05-3.90068E-05-1.05335E-05-4.36677E-05-1.99894E-18-5.45648E-19
 -1       596 3.30125E-05-2.21562E-05-4.08547E-06-2.88966E-05-3.13844E-18-2.41171E-18
 -1       597 2.42606E-05-1.47007E-05-3.40604E-06 4.83572E-06-2.18460E-18-3.51286E-18
 -1       598 7.82959E-05-4.54349E-05-1.36645E-05 3.97660E-05 1.32301E-18-1.52439E-18
 -1       599 1.19817E-04-6.31477E-05-2.41570E-05 2.75424E-05-8.41739E-21 4.81750E-20
 -1       600 1.44828E-04-6.23711E-05-3.55541E-05 1.24267E-06-1.27477E-18 8.65932E-19
 -1       601 1.48555E-04-4.28893E-05-4.57107E-05-1.61431E-05-3.79219E-18 1.22290E-19
 -1       602 1.39930E-04-1.06768E-05-5.60093E-05-4.67490E-06-2.06094E-18-1.68316E-18
 -1       603 1.41556E-04-1.91537E-05-5.30597E-05 9.33233E-06-1.05223E-18-2.66604E-18
 -1       604 1.51472E-04-4.27008E-05-4.70696E-05 6.72907E-06 2.47598E-19-5.25176E-18
 -1       605 1.48692E-04-5.98280E-05-3.82837E-05-6.33494E-06 1.29927E-18-4.85016E-18
 -1       606 1.30824E-04-6.60629E-05-2.77279E-05-2.95792E-05 1.96475E-18-4.21036E-18
 -1       607 9.73940E-05-5.57960E-05-1.75126E-05-4.49785E-05 3.10570E-18-5.39891E-19
 -1       608 1.46763E-04-5.26768E-05-4.06214E-05 1.07067E-06 2.91631E-18 2.52315E-18
 -1       609 9.61622E-05-2.31909E-05-3.12770E-05 9.58260E-06 1.63344E-18 2.18716E-18
 -1       610 1.38580E-04-5.93461E-05-3.41570E-05-7.50248E-06-1.71798E-18 2.76048E-18
 -1       611 9.13380E-05-1.59036E-05-3.23638E-05-7.67127E-06-1.72037E-19-2.22514E-18
 -1       612 1.20848E-04-6.15684E-05-2.52283E-05 3.30994E-05-6.73629E-19-7.79284E-19
 -1       613 5.00798E-05-2.21187E-05-1.14617E-05 2.88634E-05 1.86106E-18 2.50362E-18
 -1       614 1.00305E-04-2.89279E-05-3.05848E-05-1.50134E-05-1.66790E-18 6.35855E-19
 -1       615 9.15528E-05-1.68507E-05-3.20208E-05 2.44084E-06 1.18339E-18-1.21287E-18
 -1       616 9.12942E-05-1.64488E-05-3.20820E-05 8.40669E-07 1.01072E-18-1.60048E-18
 -1       617 9.28909E-05-1.89995E-05-3.16733E-05 5.26564E-06 1.45085E-18-1.94555E-19
 -1       618 9.39884E-05-2.09333E-05-3.13172E-05 6.14123E-06 1.49421E-18 3.38759E-19
 -1       619 1.04078E-04-3.45112E-05-2.98068E-05 5.57260E-06-1.52829E-18-2.72791E-18
 -1       620 9.52724E-05-2.40946E-05-3.04947E-05 5.14896E-06 1.33817E-18 7.03093E-19
 -1       621 5.34811E-05-2.20173E-05-1.29865E-05-2.81169E-05 4.82874E-18 6.95785E-18
 -1       622 8.45739E-05-4.20199E-05-1.78869E-05-4.08104E-05 4.34104E-18-3.24935E-18
 -1       623 9.54124E-05-2.57005E-05-2.98743E-05-2.44510E-06-3.53860E-19-1.11859E-18
 -1       624 9.54746E-05-2.69466E-05-2.93684E-05-8.69025E-07-2.92812E-19-8.44451E-19
 -1       625 9.54197E-05-2.77073E-05-2.90194E-05 1.32229E-07-3.21226E-19-7.74327E-19
 -1       626 9.53434E-05-2.81791E-05-2.87847E-05 7.19629E-07-6.77930E-19-6.60832E-19
 -1       627 9.52790E-05-2.84695E-05-2.86327E-05 1.02127E-06-6.01111E-19-5.67952E-19
 -1       628 9.52339E-05-2.86420E-05-2.85395E-05 1.13415E-06-1.94242E-19-4.28333E-19
 -1       629 9.52068E-05-2.87361E-05-2.84875E-05 1.12903E-06-4.17238E-19-9.08612E-21
 -1       630 9.51935E-05-2.87773E-05-2.84642E-05 1.05662E-06-2.56768E-19-1.99198E-19
 -1       631 9.51902E-05-2.87825E-05-2.84606E-05 9.52822E-07-1.75077E-19-3.90132E-19
 -1       632 9.51938E-05-2.87631E-05-2.84704E-05 8.42973E-07-2.69591E-19-6.65075E-19
 -1       633 9.52021E-05-2.87260E-05-2.84898E-05 7.45123E-07-5.94271E-19-7.57473E-19
 -1       634 9.52137E-05-2.86755E-05-2.85164E-05 6.72595E-07-9.20305E-20-7.61383E-19
 -1       635 9.52279E-05-2.86132E-05-2.85492E-05 6.35959E-07-4.63843E-19-3.55268E-19
 -1       636 9.52443E-05-2.85391E-05-2.85879E-05 6.44559E-07-9.18446E-19 3.12782E-19
 -1       637 9.52628E-05-2.84514E-05-2.86334E-05 7.07710E-07-5.01094E-19 5.68244E-19
 -1       638 9.52829E-05-2.83471E-05-2.86867E-05 8.35597E-07-3.49311E-20 8.30198E-20
 -1       639 9.53042E-05-2.82219E-05-2.87494E-05 1.03992E-06-1.36606E-19-6.37074E-20
 -1       640 9.53249E-05-2.80707E-05-2.88230E-05 1.33428E-06 5.86247E-19-3.05075E-19
 -1       641 9.53425E-05-2.78876E-05-2.89090E-05 1.73430E-06 1.55439E-18-9.27937E-19
 -1       642 9.53525E-05-2.76666E-05-2.90079E-05 2.25738E-06 5.27757E-19-1.06560E-18
 -1       643 9.53483E-05-2.74028E-05-2.91190E-05 2.92193E-06-2.87531E-20-1.36610E-18
 -1       644 9.53218E-05-2.70951E-05-2.92394E-05 3.74608E-06 3.89433E-20-1.16180E-18
 -1       645 9.52649E-05-2.67509E-05-2.93623E-05 4.74541E-06 4.02663E-19-7.14171E-19
 -1       646 9.51747E-05-2.63962E-05-2.94756E-05 5.92981E-06 7.12135E-19 8.59299E-20
 -1       647 9.50661E-05-2.60912E-05-2.95596E-05 7.29929E-06 7.73841E-20 1.27680E-18
 -1       648 9.49949E-05-2.59587E-05-2.95858E-05 8.83869E-06-3.67773E-19 1.29984E-18
 -1       649 9.51020E-05-2.62253E-05-2.95175E-05 1.05105E-05 5.53638E-19 1.54655E-18
 -1       650 9.56858E-05-2.72780E-05-2.93164E-05 1.22404E-05 2.14826E-19 1.54678E-18
 -1       651 9.73104E-05-2.97193E-05-2.89648E-05 1.38742E-05 3.26825E-19 1.36663E-18
 -1       652 1.00911E-04-3.43361E-05-2.85217E-05 1.50247E-05-5.05105E-19 8.59495E-19
 -1       653 1.07736E-04-4.17948E-05-2.82472E-05 1.48273E-05 1.06073E-18 5.50479E-19
 -1       654 1.19004E-04-5.16787E-05-2.87990E-05 1.15886E-05 3.96272E-19 5.22652E-19
 -1       655 1.36248E-04-5.76142E-05-3.37929E-05-2.12313E-06 4.94810E-19-2.81336E-18
 -1       656 1.24267E-04-5.47272E-05-2.98169E-05-1.38005E-05 1.64060E-18-2.54389E-18
 -1       657 1.11862E-04-4.46325E-05-2.87969E-05-1.93256E-05 2.78630E-18-3.18042E-18
 -1       658 1.03316E-04-3.52920E-05-2.91431E-05-2.02430E-05 7.02544E-19-2.34477E-18
 -1       659 9.49828E-05-2.81150E-05-2.86574E-05-7.34579E-07 5.56669E-19 3.07839E-19
 -1       660 9.50942E-05-2.77097E-05-2.88784E-05-1.25418E-07 6.88747E-19 4.23391E-19
 -1       661 9.49004E-05-2.85262E-05-2.84462E-05-1.15763E-06 1.41380E-19 1.23069E-19
 -1       662 9.49089E-05-2.86189E-05-2.84102E-05-1.15031E-06 2.27697E-19-1.33654E-19
 -1       663 9.49357E-05-2.86676E-05-2.84008E-05-1.07408E-06 6.63085E-19 2.48818E-19
 -1       664 9.49727E-05-2.86860E-05-2.84088E-05-9.65344E-07 6.42877E-19 3.38167E-19
 -1       665 9.50145E-05-2.86831E-05-2.84279E-05-8.49505E-07 1.67283E-19 7.91886E-19
 -1       666 9.50581E-05-2.86649E-05-2.84544E-05-7.44390E-07 3.13608E-19 1.50574E-18
 -1       667 9.51023E-05-2.86352E-05-2.84860E-05-6.62854E-07 4.51308E-19 1.10673E-18
 -1       668 9.51473E-05-2.85964E-05-2.85219E-05-6.14708E-07 8.86163E-19 9.34247E-19
 -1       669 9.51945E-05-2.85495E-05-2.85621E-05-6.08145E-07 5.25987E-19 5.64230E-19
 -1       670 9.52462E-05-2.84952E-05-2.86076E-05-6.50739E-07 6.01241E-19 1.02997E-18
 -1       671 9.53058E-05-2.84337E-05-2.86594E-05-7.50052E-07 7.72660E-20 2.63620E-19
 -1       672 9.53775E-05-2.83658E-05-2.87191E-05-9.13838E-07 3.59225E-19-8.31431E-20
 -1       673 9.54668E-05-2.82935E-05-2.87883E-05-1.14979E-06 2.48217E-19-2.51262E-19
 -1       674 9.55810E-05-2.82210E-05-2.88682E-05-1.46473E-06 5.74468E-19 5.26989E-19
 -1       675 9.57296E-05-2.81563E-05-2.89596E-05-1.86308E-06-5.37378E-19 1.36939E-18
 -1       676 9.59257E-05-2.81135E-05-2.90619E-05-2.34439E-06-1.17746E-18 1.49683E-18
 -1       677 9.61878E-05-2.81151E-05-2.91735E-05-2.89978E-06-5.37130E-19-1.93220E-19
 -1       678 9.65421E-05-2.81959E-05-2.92907E-05-3.50683E-06 4.98925E-20-1.52579E-18
 -1       679 9.70263E-05-2.84070E-05-2.94079E-05-4.12294E-06-2.13875E-19-6.00672E-19
 -1       680 9.76935E-05-2.88181E-05-2.95178E-05-4.67687E-06-8.15867E-19-5.82695E-19
 -1       681 9.86145E-05-2.95171E-05-2.96134E-05-5.05892E-06-1.16102E-19-1.01099E-18
 -1       682 9.98760E-05-3.05989E-05-2.96911E-05-5.11100E-06-5.03955E-19 5.72150E-20
 -1       683 1.01563E-04-3.21338E-05-2.97572E-05-4.62114E-06-2.88768E-19 1.14172E-18
 -1       684 1.03714E-04-3.41015E-05-2.98367E-05-3.33277E-06-1.10058E-18 1.38570E-18
 -1       685 1.06236E-04-3.62808E-05-2.99840E-05-9.86144E-07 3.78109E-19 3.11223E-19
 -1       686 1.08756E-04-3.80884E-05-3.02880E-05 2.55121E-06 5.19702E-19 7.75175E-19
 -1       687 1.10518E-04-3.85265E-05-3.08577E-05 6.98888E-06 5.84298E-19 1.41325E-18
 -1       688 1.10622E-04-3.65406E-05-3.17593E-05 1.12608E-05 3.88988E-19 8.28487E-19
 -1       689 1.08384E-04-3.16059E-05-3.29157E-05 1.34355E-05 5.55672E-19 9.24870E-19
 -1       690 1.04783E-04-2.54095E-05-3.40213E-05 1.14015E-05 1.26702E-19 1.54232E-18
 -1       691 1.01949E-04-2.11691E-05-3.46341E-05 5.17991E-06 6.74546E-19 1.97330E-18
 -1       692 1.02419E-04-2.21992E-05-3.44007E-05-2.54312E-06 7.61334E-19-5.58891E-19
 -1       693 1.05341E-04-2.72250E-05-3.34853E-05-7.67755E-06 9.44410E-19-3.49916E-18
 -1       694 1.08333E-04-3.32107E-05-3.21970E-05-8.15745E-06 2.48909E-18-5.73574E-18
 -1       695 1.09265E-04-3.68405E-05-3.10541E-05-5.11677E-06-3.71193E-19-5.98322E-18
 -1       696 1.07886E-04-3.72966E-05-3.02626E-05-8.75474E-07 2.44744E-19-1.96010E-18
 -1       697 1.06500E-04-3.66035E-05-2.99629E-05 2.70345E-06 1.50291E-19-1.39912E-18
 -1       698 8.42164E-05-2.15779E-05-2.68054E-05 1.96106E-05-1.73525E-18-3.54728E-19
 -1       699 9.93232E-05-3.00094E-05-2.97101E-05-1.93294E-05-4.18404E-19-1.97796E-18
 -1       700 1.01483E-04-3.35784E-05-2.91022E-05 1.88563E-05-1.16784E-19 1.05879E-21
 -1       701 7.54826E-05-1.52098E-05-2.58011E-05 1.04490E-05-3.25330E-20-1.54586E-18
 -1       702 9.43345E-05-2.88074E-05-2.80738E-05 2.19208E-05-4.55286E-19 1.49940E-18
 -1       703 1.37563E-04-5.93455E-05-3.36739E-05 9.23016E-06 1.03478E-18 5.13792E-19
 -1       704 7.28401E-05-1.31729E-05-2.55481E-05-2.83579E-06 6.95626E-19 3.74445E-18
 -1       705 7.79349E-05-1.66503E-05-2.62212E-05-1.51722E-05 2.40450E-18 2.80990E-18
 -1       706 8.80288E-05-2.36815E-05-2.75586E-05-2.15327E-05 1.81516E-18-5.78977E-20
 -1       707 9.46359E-05-2.75896E-05-2.87196E-05-2.17394E-05 3.62613E-19-2.26514E-18
 -1       708 6.68013E-05-3.10505E-05-1.49315E-05 3.19852E-05 1.34525E-18-2.25388E-18
 -1       709 9.41762E-05-2.09780E-05-3.13704E-05-7.06202E-06-5.16322E-19-1.66592E-18
 -1       710 1.37355E-04-6.29837E-05-3.19122E-05-1.17907E-05 9.14491E-19-4.37526E-18
 -1       711 9.52333E-05-2.70424E-05-2.92224E-05 9.25426E-07 6.69057E-19 5.38998E-19
 -1       712 9.49210E-05-2.83691E-05-2.85222E-05-1.04384E-06 1.53035E-19 1.97077E-19
 -1       713 9.50857E-05-2.38622E-05-3.05249E-05-4.47789E-06-3.40734E-19-1.44535E-18
 -1       714 9.20775E-05-1.76774E-05-3.18916E-05 3.94971E-06 1.45319E-18-7.60465E-19
 -1       715 1.18956E-04-6.06432E-05-2.48004E-05-3.22913E-05 4.17444E-18-3.02685E-18
 -1       716 9.20370E-05-1.76203E-05-3.18983E-05-3.89778E-06 3.57710E-19-1.72167E-18
 -1       717 1.20021E-04-8.46692E-06-4.83377E-05 2.46971E-06 3.54245E-18 7.89519E-19
 -1       718 1.03461E-04-5.18435E-05-2.18813E-05 2.97060E-05 9.91756E-19 5.82269E-20
 -1       719 1.23220E-04-1.96836E-05-4.48575E-05-1.07763E-05 5.89270E-18 2.84391E-19
 -1       720 1.18955E-04-5.92213E-05-2.54721E-05-2.65414E-05-2.91734E-18 1.67346E-18
 -1       721 1.26808E-04-1.93198E-05-4.65403E-05 1.50564E-05 9.90076E-19 3.50515E-18
 -1       722 8.99588E-05-4.70270E-05-1.80950E-05-3.90467E-05-2.38262E-18 4.27580E-19
 -1       723 5.73928E-05-2.67987E-05-1.25834E-05-3.39024E-05-3.08291E-18-1.20848E-18
 -1       724 4.33234E-05-1.48370E-05-1.16267E-05 1.40048E-05-1.43360E-19-6.39616E-19
 -1       725 3.64410E-05-1.29953E-05-9.57340E-06-1.23245E-05-2.33485E-18-2.47752E-18
 -1       726 1.32617E-04-6.17576E-05-3.03107E-05 8.07514E-06-3.79279E-19 3.85069E-20
 -1       727 1.38212E-04-4.04870E-05-4.22110E-05 1.26340E-05-1.91316E-18 1.27320E-18
 -1       728 9.53395E-05-2.59445E-05-2.97373E-05 2.60393E-06 1.05621E-18 4.83434E-19
 -1       729 4.46629E-05-1.35098E-05-1.28149E-05-4.08981E-06 1.89318E-18 5.20920E-18
 -1       730 1.42507E-04-5.06958E-05-3.97098E-05 8.47421E-06 7.56996E-19-4.40452E-18
 -1       731 8.14789E-05-4.22412E-05-1.64042E-05 4.32954E-05 2.11917E-19-1.05561E-18
 -1       732 1.33296E-04-3.73840E-05-4.14577E-05-1.09049E-05 3.77591E-18-5.94882E-19
 -1       733 9.28599E-05-1.89164E-05-3.16942E-05-5.29002E-06-5.34876E-20-1.94767E-18
 -1       734 1.30156E-04-6.03715E-05-2.98856E-05 1.80602E-05-6.89061E-19 4.02076E-19
 -1       735 9.12873E-05-1.64394E-05-3.20830E-05-7.83761E-07 8.12328E-19-1.72331E-18
 -1       736 1.28633E-04-5.95987E-05-2.96157E-05-1.31424E-05-3.49817E-18 1.41899E-18
 -1       737 1.41766E-04-3.69839E-05-4.53010E-05 1.34646E-05 1.00040E-18-4.77112E-18
 -1       738 1.04584E-04-3.53019E-05-2.96868E-05 1.34868E-05-7.47877E-19-3.57665E-18
 -1       739 5.01251E-05-1.43000E-05-1.49586E-05 1.05528E-05 2.29668E-19 3.92420E-18
 -1       740 9.15301E-05-1.68192E-05-3.20244E-05-2.38017E-06 5.90662E-19-1.55700E-18
 -1       741 1.05202E-04-5.21154E-05-2.25227E-05 3.74174E-05 4.16740E-19-8.92356E-19
 -1       742 1.16234E-04-1.44746E-05-4.39415E-05 1.02687E-05 2.09177E-18 5.73119E-19
 -1       743 1.32678E-04-4.80394E-05-3.64042E-05-5.46386E-06 1.13864E-18 3.23289E-19
 -1       744 1.11552E-04-1.43408E-05-4.19394E-05-2.88317E-06 5.26897E-18 1.23578E-18
 -1       745 9.46719E-05-2.27655E-05-3.08141E-05 3.90727E-06 1.21959E-18 2.18391E-19
 -1       746 9.58687E-05-2.68872E-05-2.95637E-05-5.84940E-07-8.60930E-20-8.72922E-19
 -1       747 9.59613E-05-2.77753E-05-2.92227E-05 2.16467E-07-6.65403E-19-8.15172E-19
 -1       748 9.59509E-05-2.83367E-05-2.89776E-05 6.94002E-07-6.56431E-19-8.39432E-19
 -1       749 9.58909E-05-2.86766E-05-2.88062E-05 9.39518E-07-3.79401E-19-6.70804E-19
 -1       750 9.58108E-05-2.88668E-05-2.86903E-05 1.02853E-06 9.92468E-21-9.31225E-19
 -1       751 9.57259E-05-2.89557E-05-2.86159E-05 1.01909E-06-2.06678E-19-2.53447E-19
 -1       752 9.56442E-05-2.89762E-05-2.85721E-05 9.54396E-07-2.46867E-19 4.81567E-20
 -1       753 9.55691E-05-2.89506E-05-2.85508E-05 8.65845E-07-4.66191E-19 7.46451E-21
 -1       754 9.55015E-05-2.88934E-05-2.85464E-05 7.76078E-07-5.16015E-19-4.39928E-19
 -1       755 9.54406E-05-2.88134E-05-2.85545E-05 7.01656E-07-4.38471E-19-2.41429E-19
 -1       756 9.53843E-05-2.87150E-05-2.85726E-05 6.55200E-07-4.59304E-19-3.98633E-19
 -1       757 9.53298E-05-2.85990E-05-2.85989E-05 6.47054E-07-4.35532E-19-6.31920E-19
 -1       758 9.52729E-05-2.84634E-05-2.86326E-05 6.86621E-07-4.91789E-19-2.46253E-19
 -1       759 9.52084E-05-2.83039E-05-2.86734E-05 7.83356E-07-3.57861E-19 1.53911E-19
 -1       760 9.51298E-05-2.81143E-05-2.87209E-05 9.47434E-07 2.12757E-19 5.41315E-19
 -1       761 9.50287E-05-2.78867E-05-2.87751E-05 1.19012E-06 1.43404E-20 1.36996E-19
 -1       762 9.48941E-05-2.76119E-05-2.88352E-05 1.52390E-06 4.84933E-19 7.35951E-19
 -1       763 9.47124E-05-2.72800E-05-2.88995E-05 1.96221E-06 1.12177E-18-4.15252E-19
 -1       764 9.44659E-05-2.68812E-05-2.89648E-05 2.51899E-06 4.56650E-20-3.06953E-19
 -1       765 9.41335E-05-2.64084E-05-2.90249E-05 3.20790E-06 1.43561E-19-3.69486E-19
 -1       766 9.36907E-05-2.58601E-05-2.90701E-05 4.04157E-06 5.95441E-19-9.58898E-19
 -1       767 9.31125E-05-2.52480E-05-2.90846E-05 5.03143E-06 8.32251E-19-3.85816E-19
 -1       768 9.23807E-05-2.46079E-05-2.90452E-05 6.18928E-06 1.03631E-18 1.96904E-21
 -1       769 9.14978E-05-2.40197E-05-2.89188E-05 7.53255E-06 5.19937E-19 1.02476E-18
 -1       770 9.05145E-05-2.36379E-05-2.86609E-05 9.09647E-06-3.91556E-19 1.64329E-18
 -1       771 8.95786E-05-2.37381E-05-2.82165E-05 1.09555E-05-1.18874E-19 1.01230E-18
 -1       772 8.90222E-05-2.47859E-05-2.75266E-05 1.32478E-05-5.89778E-19 1.02703E-19
 -1       773 8.94777E-05-2.75086E-05-2.65489E-05 1.62058E-05-1.81590E-19-1.14451E-18
 -1       774 9.25207E-05-3.32810E-05-2.53758E-05 2.00853E-05 5.71324E-19 6.80068E-19
 -1       775 9.62388E-05-4.08595E-05-2.36024E-05 2.49057E-05-1.63424E-19-8.32774E-19
 -1       776 7.63099E-05-2.84705E-05-2.03037E-05-3.09127E-05 3.47960E-18 6.87976E-19
 -1       777 7.96744E-05-3.55795E-05-1.86768E-05-3.27163E-05-2.64280E-18-8.58071E-19
 -1       778 1.08819E-04-4.86700E-05-2.56123E-05-2.94415E-05 2.15125E-18-1.22381E-18
 -1       779 9.86347E-05-3.63814E-05-2.66714E-05-2.63566E-05 1.75025E-18-2.60355E-18
 -1       780 9.57305E-05-2.77498E-05-2.91345E-05-1.94339E-07 6.71733E-19 1.80778E-19
 -1       781 9.55057E-05-2.88608E-05-2.85621E-05-1.07751E-06 2.44924E-19-2.73371E-19
 -1       782 9.55662E-05-2.87701E-05-2.86269E-05-1.08622E-06 4.40043E-19 1.16059E-20
 -1       783 9.54080E-05-2.88777E-05-2.85130E-05-9.12037E-07 4.07592E-19 2.36597E-19
 -1       784 9.53705E-05-2.88372E-05-2.85143E-05-8.12632E-07-1.71369E-19-2.60115E-19
 -1       785 9.53390E-05-2.87766E-05-2.85268E-05-7.27272E-07 4.88708E-19 1.97328E-19
 -1       786 9.53121E-05-2.87006E-05-2.85478E-05-6.68763E-07 5.83864E-19 1.21816E-19
 -1       787 9.52883E-05-2.86113E-05-2.85759E-05-6.47271E-07 6.68805E-19 3.54685E-19
 -1       788 9.52659E-05-2.85089E-05-2.86101E-05-6.71609E-07 6.36709E-19 1.62180E-19
 -1       789 9.52435E-05-2.83925E-05-2.86504E-05-7.50160E-07 4.64970E-19-8.88285E-20
 -1       790 9.52200E-05-2.82609E-05-2.86967E-05-8.91387E-07-3.60242E-19-2.76128E-19
 -1       791 9.51950E-05-2.81139E-05-2.87490E-05-1.10397E-06-3.53262E-20 3.32152E-19
 -1       792 9.51693E-05-2.79531E-05-2.88069E-05-1.39647E-06-2.81019E-19 7.68611E-19
 -1       793 9.51462E-05-2.77841E-05-2.88694E-05-1.77653E-06-5.14639E-19 1.15871E-18
 -1       794 9.51332E-05-2.76192E-05-2.89345E-05-2.24939E-06-5.84317E-19 4.61967E-19
 -1       795 9.51444E-05-2.74802E-05-2.89988E-05-2.81568E-06 5.20627E-19-4.10256E-19
 -1       796 9.52044E-05-2.74033E-05-2.90575E-05-3.46826E-06 3.85966E-19-1.00476E-18
 -1       797 9.53544E-05-2.74446E-05-2.91040E-05-4.18788E-06-8.27389E-19-8.85552E-19
 -1       798 9.56592E-05-2.76858E-05-2.91313E-05-4.93719E-06-4.35371E-19-9.79178E-19
 -1       799 9.62162E-05-2.82385E-05-2.91332E-05-5.65242E-06-6.41800E-19-2.69949E-19
 -1       800 9.71628E-05-2.92433E-05-2.91084E-05-6.23099E-06-9.81947E-19 1.68387E-19
 -1       801 9.86764E-05-3.08526E-05-2.90677E-05-6.51310E-06-1.42921E-18-3.35021E-19
 -1       802 1.00951E-04-3.31818E-05-2.90449E-05-6.25712E-06-6.81366E-19 5.49527E-19
 -1       803 1.04123E-04-3.62021E-05-2.91106E-05-5.12335E-06 5.09892E-19-1.21711E-19
 -1       804 1.08170E-04-3.95911E-05-2.93906E-05-2.66631E-06 1.98075E-19 6.91705E-19
 -1       805 1.12493E-04-4.22919E-05-3.00789E-05 1.52098E-06 8.68507E-19-1.06603E-20
 -1       806 1.15818E-04-4.25392E-05-3.14094E-05 7.36120E-06 8.98934E-19-7.83830E-19
 -1       807 1.16070E-04-3.82945E-05-3.33713E-05 1.32843E-05-5.09692E-19-3.09955E-19
 -1       808 1.13242E-04-2.96416E-05-3.58669E-05 1.54112E-05-2.07319E-18 2.18822E-18
 -1       809 1.07945E-04-1.96692E-05-3.80380E-05 1.10272E-05 9.79911E-20 3.12836E-18
 -1       810 1.14644E-04-3.25503E-05-3.52708E-05-1.06066E-05 3.00297E-18-3.23911E-18
 -1       811 1.16730E-04-4.01370E-05-3.28463E-05-6.45354E-06 4.75334E-19-2.33659E-18
 -1       812 1.14664E-04-4.21798E-05-3.10619E-05-1.61269E-07-1.80393E-18-3.27034E-18
 -1       813 6.37531E-05-2.14670E-05-1.79284E-05 2.09044E-05-5.97512E-19-1.60658E-18
 -1       814 9.32040E-05-1.97787E-05-3.14692E-05 1.23414E-06 8.54025E-19-1.24919E-18
 -1       815 6.65555E-05-1.51269E-05-2.18190E-05-1.29426E-05 1.19607E-18 5.40918E-18
 -1       816 7.48146E-05-2.06173E-05-2.31165E-05 2.09647E-05-1.67757E-18 3.02252E-19
 -1       817 6.46562E-05-1.41695E-05-2.14528E-05 5.75967E-06 4.20393E-19 1.76589E-18
 -1       818 1.19932E-04-3.02621E-05-3.86476E-05-1.11337E-05 4.08601E-18-5.02164E-19
 -1       819 9.54528E-05-2.88900E-05-2.85270E-05-1.00829E-06 3.49907E-19-7.86315E-20
 -1       820 9.56938E-05-2.69164E-05-2.94766E-05 6.91804E-07 7.71457E-19 1.16916E-19
 -1       821 9.55636E-05-2.54991E-05-3.00275E-05-1.80342E-06-3.35542E-20-1.44985E-18
 -1       822 7.43228E-05-2.97323E-05-1.87137E-05 3.36980E-05 1.14746E-19-1.15975E-18
 -1       823 1.24929E-04-3.14716E-05-4.03276E-05 1.67112E-05-2.22410E-18 2.27213E-18
 -1       824 1.05609E-04-5.08497E-05-2.33505E-05-2.82316E-05-1.76794E-18 2.04963E-18
 -1       825 9.52050E-05-2.44731E-05-3.03136E-05 3.42547E-06 1.14487E-18 4.61125E-19
 -1       826 5.94396E-05-1.68167E-05-1.79243E-05-1.72934E-05 3.14482E-18 6.71766E-18
 -1       827 1.33650E-04-5.12357E-05-3.54807E-05 6.16272E-06-2.16968E-18 3.34080E-18
 -1       828 1.31245E-04-5.35221E-05-3.33982E-05 2.04374E-06 4.22325E-19 2.11209E-19
 -1       829 9.30940E-05-1.95799E-05-3.15072E-05 2.01931E-08 6.53286E-19-1.55029E-18
 -1       830 9.40233E-05-2.13522E-05-3.11457E-05 3.30870E-06 1.16764E-18-5.73680E-19
 -1       831 1.15817E-04-5.46344E-05-2.63536E-05-2.01711E-05-1.44463E-18 3.86631E-19
 -1       832 6.22789E-05-2.19393E-05-1.70037E-05-2.48171E-05-2.01956E-18-9.76880E-19
 -1       833 9.50051E-05-2.36361E-05-3.05856E-05-3.31274E-06-1.48305E-19-1.57481E-18
 -1       834 9.56928E-05-2.82704E-05-2.88953E-05-7.19108E-07 3.89373E-19 2.54627E-19
 -1       835 9.56315E-05-2.85882E-05-2.87329E-05-9.87982E-07 2.90396E-19 1.14433E-19
 -1       836 1.12354E-04-2.45393E-05-3.77557E-05-9.33494E-06 3.33845E-18-1.60867E-18
 -1       837 1.12303E-04-4.16686E-05-3.02516E-05 5.08755E-06-2.16029E-18-3.16668E-18
 -1       838 9.35180E-05-2.03621E-05-3.13538E-05 2.36171E-06 1.08635E-18-7.33008E-19
 -1       839 1.03687E-04-3.93749E-05-2.75301E-05 2.37223E-05 8.08773E-19 3.26149E-19
 -1       840 1.09725E-04-4.03517E-05-2.97293E-05 1.12482E-05-9.73252E-19-4.57498E-18
 -1       841 9.05667E-05-3.18935E-05-2.51208E-05 2.73410E-05-1.82355E-18-9.50275E-19
 -1       842 5.39411E-05-1.29763E-05-1.73231E-05 4.54080E-06 3.82136E-19-9.65717E-19
 -1       843 9.55455E-05-2.59323E-05-2.98359E-05 1.83921E-06 9.38226E-19 1.68116E-19
 -1       844 1.08707E-04-4.12217E-05-2.89239E-05 1.76252E-05 1.33639E-19-4.66010E-19
 -1       845 1.19286E-04-5.57461E-05-2.70988E-05 2.56426E-05 5.58870E-19-5.24935E-19
 -1       846 9.39954E-05-2.13084E-05-3.11545E-05-3.27873E-06 8.91518E-20-1.53311E-18
 -1       847 9.34989E-05-2.03299E-05-3.13591E-05-2.32789E-06 3.50147E-19-1.50258E-18
 -1       848 9.63643E-05-2.79226E-05-2.93320E-05 2.89060E-07-4.37396E-19-8.10215E-19
 -1       849 9.63877E-05-2.85169E-05-2.90875E-05 6.34240E-07-4.20939E-19-5.21162E-19
 -1       850 9.63241E-05-2.88688E-05-2.89094E-05 8.07588E-07-3.18775E-19-3.28588E-19
 -1       851 9.62156E-05-2.90544E-05-2.87834E-05 8.64108E-07 4.62832E-21-7.42819E-19
 -1       852 9.60872E-05-2.91258E-05-2.86978E-05 8.47989E-07-1.58135E-20-5.52175E-19
 -1       853 9.59538E-05-2.91196E-05-2.86432E-05 7.92796E-07-5.02551E-19-4.55814E-19
 -1       854 9.58233E-05-2.90608E-05-2.86125E-05 7.23249E-07-6.78160E-19-5.22535E-19
 -1       855 9.56987E-05-2.89651E-05-2.86001E-05 6.57541E-07-4.83922E-19-3.72322E-19
 -1       856 9.55792E-05-2.88417E-05-2.86018E-05 6.09331E-07-2.49803E-19-2.62377E-19
 -1       857 9.54616E-05-2.86940E-05-2.86147E-05 5.89259E-07-4.84740E-19 1.39090E-19
 -1       858 9.53401E-05-2.85215E-05-2.86365E-05 6.06246E-07-2.44185E-19 2.93712E-19
 -1       859 9.52066E-05-2.83200E-05-2.86657E-05 6.68561E-07-6.57444E-19 7.17457E-19
 -1       860 9.50510E-05-2.80827E-05-2.87007E-05 7.84432E-07 4.45271E-19 7.63753E-19
 -1       861 9.48605E-05-2.78004E-05-2.87401E-05 9.62360E-07-3.26013E-19 9.59769E-19
 -1       862 9.46194E-05-2.74621E-05-2.87817E-05 1.21118E-06 4.72151E-19 8.66816E-19
 -1       863 9.43083E-05-2.70559E-05-2.88225E-05 1.53980E-06 5.01881E-19 8.45129E-19
 -1       864 9.39035E-05-2.65693E-05-2.88575E-05 1.95670E-06 5.07797E-19 8.47577E-19
 -1       865 9.33763E-05-2.59913E-05-2.88793E-05 2.46921E-06-3.77213E-19 6.97951E-19
 -1       866 9.26926E-05-2.53144E-05-2.88764E-05 3.08309E-06 5.52649E-20 2.14831E-19
 -1       867 9.18133E-05-2.45388E-05-2.88319E-05 3.80292E-06 9.57961E-19-2.14982E-19
 -1       868 9.06954E-05-2.36787E-05-2.87214E-05 4.63475E-06 1.90411E-18 5.99398E-19
 -1       869 8.92967E-05-2.27727E-05-2.85103E-05 5.59362E-06 3.60842E-19 1.03997E-18
 -1       870 8.75826E-05-2.18984E-05-2.81505E-05 6.71962E-06 1.75547E-19 2.05711E-20
 -1       871 8.55397E-05-2.11953E-05-2.75766E-05 8.10871E-06 1.35144E-19 4.06053E-19
 -1       872 8.32016E-05-2.08993E-05-2.67016E-05 9.96448E-06-1.17623E-18 1.71774E-19
 -1       873 8.07050E-05-2.14327E-05-2.54051E-05 1.26780E-05-8.05863E-19 9.97153E-19
 -1       874 7.87258E-05-2.35609E-05-2.36017E-05 1.68214E-05 4.18773E-19 6.51286E-19
 -1       875 9.47764E-05-4.03057E-05-2.32418E-05-2.50818E-05-2.24371E-18 8.49068E-19
 -1       876 9.56152E-05-2.89350E-05-2.85773E-05-7.15100E-07 5.47293E-20-4.80914E-19
 -1       877 9.57159E-05-2.90137E-05-2.85867E-05-7.92017E-07 2.63100E-19 1.25731E-19
 -1       878 9.54300E-05-2.87076E-05-2.85953E-05-6.23279E-07 2.82280E-19-1.35017E-19
 -1       879 9.53395E-05-2.85646E-05-2.86178E-05-6.29414E-07 6.00739E-19 9.74957E-20
 -1       880 9.52445E-05-2.84015E-05-2.86470E-05-6.82024E-07 3.61414E-19 5.59080E-19
 -1       881 9.51396E-05-2.82157E-05-2.86817E-05-7.89635E-07 2.99171E-19 7.50595E-19
 -1       882 9.50196E-05-2.80050E-05-2.87205E-05-9.61117E-07-1.95614E-19 5.67839E-19
 -1       883 9.48796E-05-2.77682E-05-2.87620E-05-1.20584E-06-1.34555E-20 2.40096E-19
 -1       884 9.47164E-05-2.75073E-05-2.88039E-05-1.53347E-06-5.68904E-21-6.08833E-19
 -1       885 9.45302E-05-2.72305E-05-2.88427E-05-1.95350E-06-5.60799E-19-5.51884E-19
 -1       886 9.43273E-05-2.69548E-05-2.88739E-05-2.47433E-06 1.95846E-19-8.05925E-19
 -1       887 9.41238E-05-2.67113E-05-2.88910E-05-3.10202E-06 6.47170E-19-5.58146E-19
 -1       888 9.39521E-05-2.65508E-05-2.88862E-05-3.83853E-06-8.54686E-19 1.04090E-19
 -1       889 9.38685E-05-2.65508E-05-2.88503E-05-4.67921E-06-1.18248E-18 5.84538E-19
 -1       890 9.39647E-05-2.68237E-05-2.87746E-05-5.60881E-06-6.38067E-19 3.48720E-19
 -1       891 9.43822E-05-2.75230E-05-2.86538E-05-6.59388E-06-6.51617E-19-9.83011E-20
 -1       892 9.53278E-05-2.88459E-05-2.84921E-05-7.56678E-06 3.29174E-19 1.00737E-19
 -1       893 9.70844E-05-3.10177E-05-2.83144E-05-8.39204E-06-8.84197E-19-2.00394E-18
 -1       894 9.99983E-05-3.42357E-05-2.81848E-05-8.80218E-06 8.43373E-20-2.90589E-18
 -1       895 1.04359E-04-3.84857E-05-2.82309E-05-8.30158E-06-4.63991E-19-2.80745E-18
 -1       896 1.10405E-04-4.34197E-05-2.87356E-05-6.04149E-06-3.82197E-19-1.63689E-18
 -1       897 1.17463E-04-4.77469E-05-2.98923E-05-1.39336E-06 9.69492E-19 7.08738E-19
 -1       898 1.22519E-04-4.71995E-05-3.23339E-05 5.72543E-06-1.26463E-19 1.76813E-18
 -1       899 1.26655E-04-5.41610E-05-3.10018E-05-2.34197E-06-1.37441E-18 2.37986E-18
 -1       900 6.71554E-05-1.77993E-05-2.11077E-05 1.25072E-05-5.82508E-19-2.31677E-18
 -1       901 8.03620E-05-3.00727E-05-2.14743E-05-2.44113E-05-2.42759E-18-6.18731E-19
 -1       902 1.20544E-04-4.80607E-05-3.10806E-05 4.73107E-06-8.25778E-19-1.26412E-18
 -1       903 9.57849E-05-2.55872E-05-3.00856E-05-1.16329E-06 1.65833E-19-1.38615E-18
 -1       904 9.55207E-05-2.88314E-05-2.85811E-05-6.55018E-07 2.66916E-19-6.00016E-19
 -1       905 9.31927E-05-1.97614E-05-3.14716E-05-1.19396E-06 4.97406E-19-1.57874E-18
 -1       906 9.60446E-05-2.89742E-05-2.87445E-05-9.46378E-07 4.06154E-19-1.48417E-19
 -1       907 9.60703E-05-2.69750E-05-2.96135E-05 4.08551E-07 6.24070E-19 9.30485E-20
 -1       908 9.61948E-05-2.69908E-05-2.96585E-05-2.89167E-07-1.55185E-19-1.37036E-18
 -1       909 9.59693E-05-4.09272E-05-2.35045E-05 3.30571E-05 2.74399E-19-1.73645E-18
 -1       910 9.45443E-05-2.22733E-05-3.09735E-05 4.30515E-07 5.83519E-19-1.28045E-18
 -1       911 9.52492E-05-2.42280E-05-3.04386E-05 2.27007E-06 1.03232E-18-1.92374E-20
 -1       912 1.05029E-04-4.62168E-05-2.51415E-05-2.10919E-05-1.49250E-18 2.37090E-19
 -1       913 9.46837E-05-2.26092E-05-3.08900E-05 1.21990E-06 7.85096E-19-8.70527E-19
 -1       914 9.59349E-05-2.90530E-05-2.86637E-05-9.31634E-07 2.54137E-19-1.79507E-19
 -1       915 9.61408E-05-2.87871E-05-2.88659E-05-8.77484E-07 4.45015E-19-3.64133E-19
 -1       916 6.15164E-05-1.58915E-05-1.94990E-05-1.07380E-05-9.40819E-19-4.72472E-19
 -1       917 9.58232E-05-2.90581E-05-2.86136E-05-8.70887E-07 3.35244E-19-3.30311E-19
 -1       918 7.32157E-05-2.13273E-05-2.21924E-05-1.53727E-05-1.39759E-18-9.99197E-20
 -1       919 9.49203E-05-2.32277E-05-3.07246E-05-1.86060E-06 1.58876E-19-1.34833E-18
 -1       920 9.53295E-05-2.43630E-05-3.04140E-05-1.97708E-06 5.58467E-20-1.31032E-18
 -1       921 9.57414E-05-2.58328E-05-2.99599E-05 1.27521E-06 8.86255E-19 2.45075E-19
 -1       922 6.50466E-05-1.49233E-05-2.14416E-05 3.39400E-07-1.09654E-18-5.74545E-19
 -1       923 9.61935E-05-2.78638E-05-2.92841E-05-2.75801E-07 4.86730E-19 1.63124E-20
 -1       924 1.15425E-04-4.91010E-05-2.84037E-05 1.99666E-05 5.93446E-19 6.26659E-19
 -1       925 1.23249E-04-5.32856E-05-2.99850E-05 1.30795E-05-1.23432E-20 8.18191E-19
 -1       926 9.66917E-05-2.87163E-05-2.91323E-05 5.26647E-07-5.51260E-20-9.00608E-19
 -1       927 9.66105E-05-2.90444E-05-2.89569E-05 6.29504E-07-2.41997E-20-4.26858E-19
 -1       928 9.64733E-05-2.92032E-05-2.88301E-05 6.55608E-07 1.67851E-19-1.32469E-19
 -1       929 9.63091E-05-2.92445E-05-2.87420E-05 6.35611E-07-1.61440E-19-2.97504E-19
 -1       930 9.61359E-05-2.92059E-05-2.86843E-05 5.92616E-07-4.05502E-19 9.66557E-22
 -1       931 9.59629E-05-2.91120E-05-2.86504E-05 5.43845E-07-1.49158E-19 7.26303E-19
 -1       932 9.57932E-05-2.89781E-05-2.86350E-05 5.02351E-07-4.53314E-19 9.24483E-19
 -1       933 9.56251E-05-2.88123E-05-2.86341E-05 4.78018E-07-2.58862E-19 8.16384E-19
 -1       934 9.54533E-05-2.86167E-05-2.86443E-05 4.78493E-07-1.92113E-19 7.50182E-19
 -1       935 9.52688E-05-2.83886E-05-2.86630E-05 5.10430E-07-3.91687E-19 5.57261E-19
 -1       936 9.50599E-05-2.81218E-05-2.86878E-05 5.79924E-07 1.88194E-19 1.35603E-18
 -1       937 9.48120E-05-2.78073E-05-2.87163E-05 6.92650E-07 1.74942E-19 7.37106E-19
 -1       938 9.45068E-05-2.74338E-05-2.87456E-05 8.53892E-07 4.76080E-19 9.77787E-19
 -1       939 9.41228E-05-2.69887E-05-2.87718E-05 1.06822E-06 3.82368E-19 1.61550E-18
 -1       940 9.36338E-05-2.64591E-05-2.87892E-05 1.33886E-06 1.84925E-19 4.09069E-19
 -1       941 9.30088E-05-2.58326E-05-2.87899E-05 1.66680E-06 7.33878E-20 7.17737E-19
 -1       942 9.22111E-05-2.50995E-05-2.87622E-05 2.05001E-06-2.14243E-19 1.00011E-18
 -1       943 9.11970E-05-2.42546E-05-2.86898E-05 2.48301E-06 8.03484E-19 1.51793E-18
 -1       944 8.99148E-05-2.33006E-05-2.85492E-05 2.95801E-06 8.90798E-19 7.69565E-19
 -1       945 8.83019E-05-2.22518E-05-2.83075E-05 3.46930E-06 8.24815E-19-7.96858E-19
 -1       946 8.62802E-05-2.11378E-05-2.79187E-05 4.02374E-06 4.12670E-19-5.29499E-19
 -1       947 8.37475E-05-2.00082E-05-2.73176E-05 4.66144E-06 2.37715E-20-1.17436E-20
 -1       948 8.05562E-05-1.89325E-05-2.64112E-05 5.49216E-06-1.09487E-18-8.88683E-19
 -1       949 7.64631E-05-1.80087E-05-2.50483E-05 6.77148E-06-7.05176E-19-8.55275E-19
 -1       950 7.22381E-05-1.75523E-05-2.34033E-05 8.92567E-06-4.31954E-19-2.10410E-18
 -1       951 9.59051E-05-2.90911E-05-2.86346E-05-6.27065E-07 6.18883E-19-3.21908E-19
 -1       952 9.45405E-05-2.22659E-05-3.09748E-05-4.03809E-07 4.61241E-19-1.52681E-18
 -1       953 9.53054E-05-2.84587E-05-2.86486E-05-5.60513E-07 2.56130E-19 4.66246E-20
 -1       954 9.54594E-05-2.86562E-05-2.86299E-05-5.32536E-07 5.01862E-19-1.73999E-19
 -1       955 9.49454E-05-2.79743E-05-2.87019E-05-7.54173E-07 1.91334E-19 2.42663E-19
 -1       956 9.47208E-05-2.76797E-05-2.87319E-05-9.37022E-07 2.17504E-19-3.51653E-20
 -1       957 9.44540E-05-2.73472E-05-2.87601E-05-1.19030E-06-1.40467E-19 2.41120E-19
 -1       958 9.41379E-05-2.69796E-05-2.87822E-05-1.52540E-06-2.79682E-19 1.08458E-18
 -1       959 9.37694E-05-2.65869E-05-2.87926E-05-1.95516E-06-1.63682E-19 1.78301E-19
 -1       960 9.33528E-05-2.61909E-05-2.87837E-05-2.49402E-06 7.30666E-19 4.66692E-19
 -1       961 9.29043E-05-2.58301E-05-2.87461E-05-3.15835E-06-1.85251E-19 2.99359E-19
 -1       962 9.24593E-05-2.55667E-05-2.86683E-05-3.96690E-06-1.00688E-18-3.84988E-19
 -1       963 9.20819E-05-2.54943E-05-2.85376E-05-4.94131E-06-8.71543E-19-1.09272E-18
 -1       964 9.18790E-05-2.57480E-05-2.83419E-05-6.10569E-06-2.61421E-19-5.08770E-19
 -1       965 9.20201E-05-2.65156E-05-2.80734E-05-7.48253E-06-4.46935E-19-1.02992E-18
 -1       966 9.27673E-05-2.80494E-05-2.77365E-05-9.07609E-06 6.34846E-19-3.57879E-19
 -1       967 9.45152E-05-3.06703E-05-2.73629E-05-1.08244E-05 6.40569E-19-1.66678E-19
 -1       968 9.78129E-05-3.47249E-05-2.70440E-05-1.25044E-05-4.35124E-19 1.12595E-19
 -1       969 1.03584E-04-4.04934E-05-2.70007E-05-1.36046E-05-1.01586E-18 5.37135E-19
 -1       970 9.46776E-05-2.25870E-05-3.08954E-05-1.20296E-06 2.85354E-19-1.39485E-18
 -1       971 9.55754E-05-2.46895E-05-3.03788E-05-1.19194E-06 1.19491E-19-1.47793E-18
 -1       972 9.08227E-05-3.41566E-05-2.42612E-05-2.01394E-05-2.09471E-18 5.78209E-19
 -1       973 9.49424E-05-2.32689E-05-3.07176E-05 1.86713E-06 6.79966E-19-5.68569E-19
 -1       974 1.15586E-04-4.59601E-05-2.98319E-05 1.11364E-05 1.06037E-18-2.46930E-18
 -1       975 9.62363E-05-2.64322E-05-2.99170E-05-4.34013E-07 6.00194E-20-1.42965E-18
 -1       976 9.62023E-05-2.84411E-05-2.90406E-05-6.75158E-07 5.07912E-19-1.65490E-19
 -1       977 9.66707E-05-2.81440E-05-2.93686E-05 3.09288E-07-2.69446E-19-1.14738E-18
 -1       978 9.65236E-05-2.74235E-05-2.96145E-05 1.34936E-08-1.16153E-19-1.10080E-18
 -1       979 9.51372E-05-2.82327E-05-2.86733E-05-6.31670E-07 1.92733E-19 1.44020E-19
 -1       980 9.60608E-05-2.91701E-05-2.86674E-05-6.85864E-07 4.33837E-19-2.20132E-19
 -1       981 9.55705E-05-2.43473E-05-3.05243E-05 8.47581E-09 3.33352E-19-1.47846E-18
 -1       982 9.64914E-05-2.89709E-05-2.89373E-05-7.18859E-07 3.00312E-19-1.16324E-19
 -1       983 9.63881E-05-2.71815E-05-2.96612E-05 1.42654E-07 6.14710E-19-9.13678E-20
 -1       984 9.56070E-05-2.88280E-05-2.86195E-05-5.39828E-07 6.66623E-21 3.68735E-20
 -1       985 9.57055E-05-2.51028E-05-3.02550E-05 1.17094E-06 7.06793E-19-4.23205E-20
 -1       986 7.05231E-05-1.71748E-05-2.28412E-05-7.09110E-06-7.96858E-19 1.47392E-19
 -1       987 9.63666E-05-2.91409E-05-2.88110E-05-7.56046E-07 4.19689E-19 1.13117E-19
 -1       988 8.22690E-05-2.58071E-05-2.41918E-05-1.58501E-05-1.59482E-18 2.83611E-19
 -1       989 9.57543E-05-2.89743E-05-2.86200E-05-5.74600E-07 2.27424E-19-1.38227E-19
 -1       990 9.75674E-05-3.84156E-05-2.53940E-05-1.81389E-05-1.66837E-18-1.57003E-18
 -1       991 9.55992E-05-2.44716E-05-3.04816E-05 4.77833E-07 5.42986E-19-8.15127E-19
 -1       992 9.65646E-05-2.86335E-05-2.91134E-05-5.88108E-07 4.58660E-19 4.81522E-20
 -1       993 9.67667E-05-2.91927E-05-2.89603E-05 4.11001E-07 2.91733E-19-6.21468E-19
 -1       994 9.66006E-05-2.93071E-05-2.88401E-05 4.16053E-07-5.05593E-21-3.50305E-19
 -1       995 9.64077E-05-2.93097E-05-2.87563E-05 3.98631E-07-2.76654E-20-1.55309E-20
 -1       996 9.62053E-05-2.92356E-05-2.87013E-05 3.70496E-07 2.63583E-19 8.73008E-19
 -1       997 9.60015E-05-2.91069E-05-2.86691E-05 3.42413E-07-1.09942E-20 7.48984E-19
 -1       998 9.57986E-05-2.89376E-05-2.86547E-05 3.22087E-07-2.74067E-19 6.65889E-19
 -1       999 9.55929E-05-2.87338E-05-2.86539E-05 3.14986E-07-3.09874E-19 5.05907E-19
 -1      1000 9.53762E-05-2.84950E-05-2.86634E-05 3.25234E-07-2.85138E-19 5.34036E-19
 -1      1001 9.51369E-05-2.82167E-05-2.86801E-05 3.56965E-07 2.42398E-22 6.89749E-19
 -1      1002 9.48602E-05-2.78912E-05-2.87011E-05 4.13026E-07 1.66807E-19 9.07413E-19
 -1      1003 9.45278E-05-2.75081E-05-2.87229E-05 4.95514E-07 4.08369E-19 1.38235E-18
 -1      1004 9.41180E-05-2.70554E-05-2.87413E-05 6.05329E-07 6.85433E-19 9.76638E-19
 -1      1005 9.36053E-05-2.65209E-05-2.87507E-05 7.41418E-07 6.94244E-20 1.05856E-18
 -1      1006 9.29601E-05-2.58932E-05-2.87432E-05 8.99734E-07-2.75501E-19 1.35348E-18
 -1      1007 9.21481E-05-2.51631E-05-2.87082E-05 1.07196E-06 8.81625E-20 7.22835E-19
 -1      1008 9.11294E-05-2.43258E-05-2.86305E-05 1.24416E-06 5.51828E-19 8.57116E-19
 -1      1009 8.98566E-05-2.33825E-05-2.84894E-05 1.39580E-06 1.78906E-19 1.09579E-19
 -1      1010 8.82710E-05-2.23415E-05-2.82562E-05 1.49974E-06 4.62883E-19-3.94804E-19
 -1      1011 8.62948E-05-2.12182E-05-2.78909E-05 1.52460E-06 8.77967E-19 7.58238E-20
 -1      1012 8.38152E-05-2.00311E-05-2.73374E-05 1.44144E-06 3.44398E-19-9.98774E-19
 -1      1013 8.06582E-05-1.87972E-05-2.65138E-05 1.23755E-06-3.39895E-19-1.58327E-18
 -1      1014 7.65467E-05-1.75220E-05-2.52935E-05 8.90664E-07-1.66067E-18-1.20411E-18
 -1      1015 7.18702E-05-1.63288E-05-2.37957E-05 9.30946E-07-1.06866E-18-1.23394E-18
 -1      1016 9.56158E-05-2.44826E-05-3.04860E-05-4.96233E-07 1.60680E-19-1.09194E-18
 -1      1017 9.65461E-05-2.80582E-05-2.93519E-05-3.19755E-07 6.91268E-19-8.61838E-21
 -1      1018 9.52007E-05-2.83041E-05-2.86700E-05-4.38621E-07 2.61468E-19 4.92836E-19
 -1      1019 9.43527E-05-2.73079E-05-2.87336E-05-7.99846E-07 6.35850E-20 1.09856E-18
 -1      1020 9.46841E-05-2.76864E-05-2.87133E-05-6.30308E-07-1.04835E-19 4.06205E-19
 -1      1021 9.34776E-05-2.64013E-05-2.87471E-05-1.34156E-06 3.47691E-19-2.66939E-19
 -1      1022 9.29139E-05-2.58868E-05-2.87261E-05-1.74482E-06 1.11391E-20-3.06625E-19
 -1      1023 9.22625E-05-2.53590E-05-2.86731E-05-2.26483E-06 1.23991E-19-4.59992E-20
 -1      1024 9.15338E-05-2.48594E-05-2.85749E-05-2.93167E-06-6.35115E-19 6.15640E-19
 -1      1025 9.07562E-05-2.44538E-05-2.84154E-05-3.78603E-06-5.10606E-19-2.33860E-19
 -1      1026 8.99846E-05-2.42406E-05-2.81761E-05-4.88359E-06-1.09293E-18 4.59679E-20
 -1      1027 8.93141E-05-2.43606E-05-2.78373E-05-6.30029E-06-2.22111E-19-1.97426E-19
 -1      1028 8.89012E-05-2.50124E-05-2.73812E-05-8.13861E-06-1.32738E-19 3.09086E-19
 -1      1029 8.90164E-05-2.64853E-05-2.67987E-05-1.05228E-05 5.17890E-19-8.23290E-19
 -1      1030 9.01223E-05-2.92058E-05-2.61040E-05-1.35390E-05 6.80968E-20-1.17744E-18
 -1      1031 9.56766E-05-2.47509E-05-3.03959E-05 8.54358E-07 5.67702E-19-5.96703E-19
 -1      1032 9.49621E-05-2.80168E-05-2.86909E-05-5.12854E-07 8.15973E-21 8.22661E-19
 -1      1033 9.54125E-05-2.85539E-05-2.86536E-05-4.00325E-07 2.01675E-19 3.32572E-19
 -1      1034 9.39545E-05-2.68786E-05-2.87469E-05-1.03237E-06-2.79565E-20 1.48743E-19
 -1      1035 9.62177E-05-2.91952E-05-2.87239E-05-7.35650E-07 3.05231E-19 1.65826E-19
 -1      1036 9.68866E-05-2.84105E-05-2.93470E-05 2.56403E-07-5.47284E-20-9.45421E-19
 -1      1037 9.68776E-05-2.89177E-05-2.91258E-05 3.64612E-07 2.39806E-19-6.24413E-19
 -1      1038 9.61795E-05-2.92251E-05-2.86947E-05-4.71438E-07 5.81632E-19 2.17525E-19
 -1      1039 9.62842E-05-2.60142E-05-3.01171E-05-1.01082E-07 1.60784E-20-1.26322E-18
 -1      1040 9.63039E-05-2.60356E-05-3.01136E-05 1.16941E-07 5.30010E-19-8.33954E-19
 -1      1041 9.56092E-05-2.87714E-05-2.86449E-05-3.92106E-07 9.55376E-20-4.24131E-21
 -1      1042 9.66616E-05-2.74868E-05-2.96457E-05-3.39597E-08 6.52783E-19-6.23006E-19
 -1      1043 9.28896E-05-3.36543E-05-2.53669E-05-1.70717E-05-1.20901E-18-1.60996E-18
 -1      1044 9.64948E-05-2.67452E-05-2.98915E-05-1.59327E-07 1.48765E-20-1.18316E-18
 -1      1045 9.68048E-05-2.88367E-05-2.91293E-05-4.49233E-07 3.55625E-19-5.24966E-20
 -1      1046 9.67687E-05-2.77520E-05-2.95785E-05 1.03746E-07-2.25305E-19-1.07060E-18
 -1      1047 7.70815E-05-2.05285E-05-2.42618E-05-1.03792E-05-1.16656E-18 1.19629E-18
 -1      1048 9.59883E-05-2.91108E-05-2.86617E-05-4.33650E-07 2.27864E-19 4.02286E-19
 -1      1049 9.67064E-05-2.91335E-05-2.89598E-05-5.16302E-07 1.17650E-19 8.27381E-20
 -1      1050 9.34189E-05-2.63898E-05-2.87269E-05-7.11952E-07 3.87113E-19 3.58394E-19
 -1      1051 9.66152E-05-2.93606E-05-2.88233E-05 1.59873E-07 1.16796E-19-2.79103E-19
 -1      1052 9.64028E-05-2.93213E-05-2.87491E-05 1.50786E-07 4.63918E-19-3.85128E-19
 -1      1053 9.61797E-05-2.92108E-05-2.87010E-05 1.41680E-07 1.34244E-19-1.03704E-19
 -1      1054 9.59570E-05-2.90518E-05-2.86736E-05 1.33110E-07-7.90892E-20 3.86963E-19
 -1      1055 9.57355E-05-2.88552E-05-2.86629E-05 1.26457E-07-5.22042E-19 6.83443E-19
 -1      1056 9.55037E-05-2.86192E-05-2.86647E-05 1.26794E-07-3.50447E-19 7.15383E-19
 -1      1057 9.52532E-05-2.83448E-05-2.86750E-05 1.34453E-07 9.50460E-20 8.17302E-19
 -1      1058 9.49709E-05-2.80259E-05-2.86906E-05 1.48718E-07 5.79322E-19 1.36868E-18
 -1      1059 9.46393E-05-2.76534E-05-2.87082E-05 1.69278E-07 4.57032E-19 1.12244E-18
 -1      1060 9.42384E-05-2.72169E-05-2.87234E-05 1.94150E-07 6.66419E-20 4.70547E-19
 -1      1061 9.37449E-05-2.67055E-05-2.87310E-05 2.19155E-07-1.85195E-21-1.33917E-19
 -1      1062 9.31325E-05-2.61099E-05-2.87239E-05 2.36868E-07 2.18534E-19-1.56280E-20
 -1      1063 9.23723E-05-2.54231E-05-2.86924E-05 2.35164E-07 4.06904E-20 7.03025E-19
 -1      1064 9.14319E-05-2.46436E-05-2.86235E-05 1.95342E-07-1.71618E-19 5.50485E-19
 -1      1065 9.02753E-05-2.37763E-05-2.84995E-05 8.97928E-08-2.60782E-19-1.84058E-20
 -1      1066 8.88608E-05-2.28350E-05-2.82968E-05-1.20824E-07 5.02709E-19-3.22301E-19
 -1      1067 8.71360E-05-2.18425E-05-2.79833E-05-4.91200E-07 8.26128E-19-8.64481E-19
 -1      1068 8.50287E-05-2.08287E-05-2.75151E-05-1.09693E-06-1.23275E-19-9.79235E-19
 -1      1069 8.24256E-05-1.98235E-05-2.68308E-05-2.04602E-06-5.80312E-19-8.40793E-19
 -1      1070 7.91302E-05-1.88468E-05-2.58365E-05-3.49671E-06-9.93337E-19-4.95226E-19
 -1      1071 7.55332E-05-1.81202E-05-2.46005E-05-5.04149E-06-1.33619E-18 2.56925E-19
 -1      1072 9.68028E-05-2.83061E-05-2.93559E-05-2.99844E-07 4.04565E-19-5.22221E-19
 -1      1073 9.63726E-05-2.92867E-05-2.87512E-05-5.08332E-07 6.20553E-19 1.49719E-20
 -1      1074 9.47433E-05-2.77716E-05-2.87022E-05-3.19810E-07 2.94557E-19-1.18504E-20
 -1      1075 9.20085E-05-2.51601E-05-2.86495E-05-1.28965E-06-4.22738E-19 4.58068E-19
 -1      1076 9.27777E-05-2.58019E-05-2.87040E-05-9.56259E-07 3.01688E-19 2.52576E-19
 -1      1077 9.00470E-05-2.38169E-05-2.83846E-05-2.36166E-06-6.97996E-21 9.92911E-20
 -1      1078 8.88554E-05-2.32123E-05-2.81330E-05-3.20707E-06-2.01278E-19-8.93990E-19
 -1      1079 8.75447E-05-2.27578E-05-2.77661E-05-4.36908E-06-2.77016E-19-2.01848E-18
 -1      1080 8.61562E-05-2.25745E-05-2.72497E-05-5.97521E-06-1.54980E-19-2.71394E-18
 -1      1081 8.47676E-05-2.28326E-05-2.65447E-05-8.20506E-06 6.68468E-19-2.42317E-18
 -1      1082 8.32213E-05-2.36403E-05-2.55258E-05-1.14310E-05 8.56864E-20-1.24420E-18
 -1      1083 9.50461E-05-2.81158E-05-2.86845E-05-2.62510E-07 4.05224E-19 5.47734E-19
 -1      1084 9.70078E-05-2.86806E-05-2.92830E-05 1.22279E-07 3.21140E-19-3.55553E-19
 -1      1085 9.69512E-05-2.90924E-05-2.90820E-05 1.52840E-07 3.49418E-19-3.37661E-19
 -1      1086 9.39481E-05-2.69140E-05-2.87290E-05-5.34410E-07 4.65997E-19 1.73849E-20
 -1      1087 9.57997E-05-2.89576E-05-2.86467E-05-4.05650E-07 2.02965E-19 3.04091E-19
 -1      1088 9.10999E-05-2.44858E-05-2.85491E-05-1.74341E-06-5.54060E-19 6.69303E-19
 -1      1089 9.68033E-05-2.92956E-05-2.89318E-05 1.62576E-07 3.42598E-19-6.35743E-19
 -1      1090 9.53085E-05-2.84134E-05-2.86693E-05-2.29162E-07 1.22261E-21 9.52965E-19
 -1      1091 9.43834E-05-2.73732E-05-2.87187E-05-4.07579E-07-5.52808E-19 8.21331E-21
 -1      1092 9.65519E-05-2.92648E-05-2.88373E-05-5.28669E-07 4.65253E-19 1.75598E-19
 -1      1093 9.64148E-05-2.93226E-05-2.87538E-05-2.63511E-07 2.16652E-19-3.76096E-19
 -1      1094 9.55444E-05-2.86710E-05-2.86600E-05-2.14052E-07-3.27677E-20 9.21953E-21
 -1      1095 9.69336E-05-2.90256E-05-2.91034E-05-2.53954E-07 6.21245E-20-7.31185E-19
 -1      1096 9.69379E-05-2.81176E-05-2.94944E-05 7.95543E-08-1.17119E-20-6.52656E-19
 -1      1097 9.69700E-05-2.85735E-05-2.93132E-05-1.89378E-07 2.52492E-19-6.08958E-19
 -1      1098 9.63019E-05-2.60993E-05-3.00873E-05 2.15989E-07 6.10469E-19-5.99435E-19
 -1      1099 9.68611E-05-2.78509E-05-2.95770E-05-7.53656E-08 2.86030E-19-2.32121E-19
 -1      1100 9.62018E-05-2.92285E-05-2.87028E-05-2.45148E-07 5.79210E-19 1.49755E-20
 -1      1101 9.58533E-05-2.89614E-05-2.86679E-05-7.81368E-08-4.36180E-20-6.51726E-20
 -1      1102 9.67558E-05-2.73693E-05-2.97365E-05 3.79840E-09 9.86788E-20-1.02578E-18
 -1      1103 9.68056E-05-2.92625E-05-2.89471E-05-2.79160E-07 1.13240E-19-8.46263E-19
 -1      1104 9.60349E-05-2.91135E-05-2.86807E-05-1.57318E-07 2.92156E-19-9.27612E-20
 -1      1105 9.67220E-05-2.72091E-05-2.97923E-05-7.05990E-09 2.59728E-19-7.34215E-19
 -1      1106 9.66839E-05-2.93493E-05-2.88577E-05-1.83482E-07 3.92466E-19-6.36724E-19
 -1      1107 9.69353E-05-2.80031E-05-2.95411E-05 1.05268E-08 2.98183E-19-5.50030E-19
 -1      1108 1.16858E-04 2.57574E-10-4.18563E-05-4.14662E-05-2.62157E-19 3.30322E-18
 -1      1109 8.86520E-05 7.19226E-11-3.72517E-05-2.41679E-05-1.02703E-19-1.38469E-18
 -1      1110 8.40769E-05 4.14584E-11-3.57666E-05-1.78776E-05-5.96629E-20-3.01247E-18
 -1      1111 8.23344E-05 3.20115E-11-3.50725E-05-1.38366E-05-3.02550E-20-3.57304E-18
 -1      1112 8.15315E-05 2.73421E-11-3.47385E-05-1.05335E-05-1.06409E-20-3.73152E-18
 -1      1113 8.11292E-05 2.46032E-11-3.45733E-05-7.64008E-06 3.12343E-21-3.64509E-18
 -1      1114 8.09195E-05 2.29499E-11-3.44897E-05-4.97958E-06 1.76950E-20-3.45669E-18
 -1      1115 8.08176E-05 2.20576E-11-3.44503E-05-2.43217E-06 1.93478E-20-3.22251E-18
 -1      1116 8.07886E-05 2.17874E-11-3.44393E-05 5.24362E-08 2.76369E-20-2.87316E-18
 -1      1117 8.08220E-05 2.21017E-11-3.44518E-05 2.53958E-06 4.02523E-20-2.55907E-18
 -1      1118 8.09285E-05 2.30516E-11-3.44925E-05 5.09545E-06 4.79434E-20-2.18775E-18
 -1      1119 8.11443E-05 2.47677E-11-3.45772E-05 7.77248E-06 5.80218E-20-1.56763E-18
 -1      1120 8.15532E-05 2.76406E-11-3.47446E-05 1.06932E-05 6.94832E-20-7.91347E-19
 -1      1121 8.23580E-05 3.24999E-11-3.50826E-05 1.40426E-05 7.44330E-20 3.38098E-19
 -1      1122 8.40741E-05 4.19253E-11-3.57869E-05 1.81292E-05 8.63444E-20 2.07740E-18
 -1      1123 8.83496E-05 6.67459E-11-3.73218E-05 2.40105E-05 6.70215E-20 4.98574E-18
 -1      1124 1.06622E-04 1.63928E-10-4.06349E-05 3.61926E-05 4.23516E-20 9.87047E-18
 -1      1125 1.30225E-04-2.57573E-05-4.02748E-05-2.61062E-05-9.37665E-19 6.16301E-18
 -1      1126 9.74606E-05-2.88638E-05-3.15789E-05-6.80188E-07-3.24096E-19 3.96306E-18
 -1      1127 9.01634E-05-2.70276E-05-2.78942E-05 3.87111E-07-1.13238E-19 1.26011E-18
 -1      1128 8.82517E-05-2.65731E-05-2.66444E-05 2.50760E-07-8.27379E-20-3.87518E-19
 -1      1129 8.78920E-05-2.64461E-05-2.63877E-05 1.65871E-07-2.23719E-20-1.59729E-18
 -1      1130 8.82499E-05-2.65223E-05-2.64723E-05 1.18074E-07-8.39489E-20-1.82281E-18
 -1      1131 8.89347E-05-2.67063E-05-2.66745E-05 8.74524E-08-8.41760E-20-2.52103E-18
 -1      1132 8.97469E-05-2.69374E-05-2.69163E-05 6.61940E-08-7.74034E-22-3.40669E-18
 -1      1133 9.05763E-05-2.71790E-05-2.71635E-05 5.04556E-08-1.03286E-19-4.14280E-18
 -1      1134 9.13608E-05-2.74101E-05-2.73980E-05 3.83188E-08 1.06752E-19-4.62759E-18
 -1      1135 9.20673E-05-2.76197E-05-2.76100E-05 2.87613E-08 4.37309E-20-5.09749E-18
 -1      1136 9.26813E-05-2.78025E-05-2.77947E-05 2.11721E-08 8.66017E-21-5.54804E-18
 -1      1137 9.32003E-05-2.79577E-05-2.79514E-05 1.51394E-08-9.17736E-21-6.17848E-18
 -1      1138 9.36297E-05-2.80864E-05-2.80814E-05 1.03586E-08-5.74415E-21-6.41338E-18
 -1      1139 9.39797E-05-2.81917E-05-2.81878E-05 6.59270E-09 1.68968E-20-5.46008E-18
 -1      1140 9.42640E-05-2.82776E-05-2.82746E-05 3.65557E-09-7.88486E-20-5.22468E-18
 -1      1141 9.44987E-05-2.83488E-05-2.83465E-05 1.40636E-09-1.13317E-19-5.53390E-18
 -1      1142 9.47017E-05-2.84106E-05-2.84091E-05-2.50912E-10-3.82144E-20-6.32611E-18
 -1      1143 9.48931E-05-2.84692E-05-2.84684E-05-1.36388E-09-9.64524E-20-7.03768E-18
 -1      1144 9.50960E-05-2.85315E-05-2.85314E-05-1.92487E-09 6.01759E-20-7.49367E-18
 -1      1145 9.53371E-05-2.86054E-05-2.86064E-05-1.85970E-09-3.98056E-20-7.48653E-18
 -1      1146 9.56483E-05-2.87007E-05-2.87029E-05-1.01035E-09 2.01028E-19-5.87225E-18
 -1      1147 9.60685E-05-2.88291E-05-2.88330E-05 8.91162E-10 6.66720E-20-4.01495E-18
 -1      1148 9.66457E-05-2.90050E-05-2.90111E-05 4.26132E-09-1.63766E-19-5.89325E-18
 -1      1149 9.74389E-05-2.92461E-05-2.92554E-05 9.71980E-09 8.48017E-20-6.72289E-18
 -1      1150 9.85214E-05-2.95743E-05-2.95881E-05 1.81613E-08 1.20539E-19-5.17251E-18
 -1      1151 9.99819E-05-3.00161E-05-3.00360E-05 3.08355E-08 7.53255E-20-3.06738E-18
 -1      1152 1.01925E-04-3.06022E-05-3.06301E-05 4.93985E-08-4.46438E-20-3.91742E-18
 -1      1153 1.04465E-04-3.13665E-05-3.14039E-05 7.58256E-08 1.25717E-19-4.63814E-18
 -1      1154 1.07713E-04-3.23408E-05-3.23878E-05 1.11925E-07 8.37735E-20-3.81784E-18
 -1      1155 1.11742E-04-3.35446E-05-3.35962E-05 1.57892E-07-4.03057E-19-4.33721E-18
 -1      1156 1.16511E-04-3.49637E-05-3.50040E-05 2.08909E-07-1.82493E-20-5.81398E-18
 -1      1157 1.21743E-04-3.65122E-05-3.65068E-05 2.48580E-07 7.43768E-20-6.28133E-18
 -1      1158 1.26729E-04-3.79762E-05-3.78682E-05 2.39301E-07-9.54963E-20-5.76300E-18
 -1      1159 1.30125E-04-3.89536E-05-3.86810E-05 1.16105E-07 1.44518E-19-4.64422E-18
 -1      1160 1.29928E-04-3.88519E-05-3.84040E-05-1.95526E-07 1.22542E-19-4.23104E-18
 -1      1161 1.24043E-04-3.70610E-05-3.65761E-05-7.01787E-07-1.57826E-20-4.06629E-18
 -1      1162 1.11841E-04-3.34386E-05-3.32149E-05-1.21294E-06 1.87449E-19-2.79966E-18
 -1      1163 9.61344E-05-2.88550E-05-2.91761E-05-1.32798E-06-3.00465E-20-1.24112E-18
 -1      1164 8.33527E-05-2.51766E-05-2.60071E-05-7.41393E-07-3.92679E-19-3.69613E-18
 -1      1165 7.99024E-05-2.41736E-05-2.50934E-05 3.05186E-07 1.85341E-19-5.39287E-18
 -1      1166 8.69800E-05-2.61707E-05-2.66859E-05 1.11177E-06-1.48959E-20-4.70929E-18
 -1      1167 9.94881E-05-2.97713E-05-2.97026E-05 1.22181E-06-1.22224E-19-6.28604E-18
 -1      1168 1.10383E-04-3.29732E-05-3.25223E-05 7.85505E-07 3.21839E-19-7.36146E-18
 -1      1169 1.15414E-04-3.44953E-05-3.39916E-05 2.23130E-07 3.17637E-19-5.60291E-18
 -1      1170 1.14261E-04-3.41985E-05-3.38542E-05-1.87726E-07 8.43857E-20-2.47670E-18
 -1      1171 1.08960E-04-3.26645E-05-3.25462E-05-3.82619E-07-2.79398E-19-1.15625E-18
 -1      1172 1.02242E-04-3.07008E-05-3.07942E-05-3.73707E-07 2.90905E-19 1.33519E-18
 -1      1173 9.68650E-05-2.91721E-05-2.93078E-05-1.36824E-07-1.53571E-19 1.78520E-18
 -1      1174 9.49023E-05-2.84411E-05-2.83952E-05 1.32580E-07 7.39797E-20 9.61950E-19
 -1      1175 1.31059E-04-3.77396E-05-3.86603E-05 1.21747E-05-1.67633E-19 1.35911E-17
 -1      1176 9.65622E-05-2.81904E-05-3.13314E-05 8.01445E-07 2.42728E-20 1.24241E-17
 -1      1177 9.03771E-05-2.69302E-05-2.78751E-05 1.20164E-07 3.40798E-21 1.10353E-17
 -1      1178 8.83381E-05-2.65004E-05-2.66808E-05 9.00634E-09 4.06940E-20 1.00143E-17
 -1      1179 8.79326E-05-2.64087E-05-2.64149E-05-2.52887E-08 6.90034E-21 9.22072E-18
 -1      1180 8.82721E-05-2.65050E-05-2.64881E-05-3.43157E-08 8.72841E-21 8.56329E-18
 -1      1181 8.89478E-05-2.66995E-05-2.66847E-05-3.54940E-08-9.58082E-21 8.46525E-18
 -1      1182 8.97551E-05-2.69361E-05-2.69237E-05-3.37664E-08-1.01438E-19 9.09004E-18
 -1      1183 9.05817E-05-2.71806E-05-2.71691E-05-3.06950E-08-1.38306E-20 8.58674E-18
 -1      1184 9.13645E-05-2.74133E-05-2.74024E-05-2.69806E-08 1.07306E-19 7.91941E-18
 -1      1185 9.20702E-05-2.76236E-05-2.76134E-05-2.30311E-08-4.98025E-20 7.18105E-18
 -1      1186 9.26839E-05-2.78068E-05-2.77975E-05-1.91025E-08 2.23142E-20 7.11608E-18
 -1      1187 9.32031E-05-2.79619E-05-2.79538E-05-1.53478E-08 8.45665E-20 6.61222E-18
 -1      1188 9.36333E-05-2.80907E-05-2.80836E-05-1.18441E-08-1.53622E-19 6.52450E-18
 -1      1189 9.39847E-05-2.81960E-05-2.81901E-05-8.61449E-09 1.53739E-19 5.57853E-18
 -1      1190 9.42713E-05-2.82821E-05-2.82773E-05-5.64541E-09 2.58167E-20 4.49530E-18
 -1      1191 9.45091E-05-2.83537E-05-2.83500E-05-2.90189E-09-5.13688E-20 4.38408E-18
 -1      1192 9.47161E-05-2.84162E-05-2.84136E-05-3.41645E-10 1.65864E-19 4.00129E-18
 -1      1193 9.49124E-05-2.84757E-05-2.84743E-05 2.07085E-09 1.15022E-19 2.67512E-18
 -1      1194 9.51203E-05-2.85388E-05-2.85387E-05 4.34873E-09-1.94014E-19 4.07767E-18
 -1      1195 9.53648E-05-2.86130E-05-2.86144E-05 6.46416E-09-2.62218E-20 5.33283E-18
 -1      1196 9.56743E-05-2.87070E-05-2.87101E-05 8.32494E-09-1.39529E-19 4.81864E-18
 -1      1197 9.60810E-05-2.88301E-05-2.88354E-05 9.74481E-09 1.93832E-19 2.01080E-18
 -1      1198 9.66202E-05-2.89929E-05-2.90009E-05 1.04065E-08 1.59487E-20 7.02309E-20
 -1      1199 9.73300E-05-2.92067E-05-2.92178E-05 9.81885E-09-1.17539E-19 2.15336E-18
 -1      1200 9.82476E-05-2.94823E-05-2.94969E-05 7.27542E-09-1.44819E-19 6.08994E-18
 -1      1201 9.94048E-05-2.98289E-05-2.98471E-05 1.83343E-09 1.66495E-20 6.62251E-18
 -1      1202 1.00818E-04-3.02508E-05-3.02720E-05-7.64392E-09 7.42672E-20 4.67896E-18
 -1      1203 1.02476E-04-3.07438E-05-3.07659E-05-2.23000E-08-3.77991E-19 5.42625E-18
 -1      1204 1.04316E-04-3.12883E-05-3.13072E-05-4.28167E-08 1.77365E-19 4.09992E-18
 -1      1205 1.06197E-04-3.18424E-05-3.18504E-05-6.84877E-08 1.28998E-19 1.80362E-18
 -1      1206 1.07874E-04-3.23331E-05-3.23183E-05-9.57056E-08 1.84675E-19 2.32879E-18
 -1      1207 1.08974E-04-3.26507E-05-3.25986E-05-1.16078E-07-9.89655E-20 5.04866E-18
 -1      1208 1.09006E-04-3.26535E-05-3.25505E-05-1.15345E-07-1.57808E-19 5.89905E-18
 -1      1209 1.07443E-04-3.21897E-05-3.20337E-05-7.56511E-08-2.64522E-19 5.53208E-18
 -1      1210 1.03903E-04-3.11488E-05-3.09615E-05 1.58958E-08-1.90053E-19 3.75082E-18
 -1      1211 9.84177E-05-2.95371E-05-2.93729E-05 1.52255E-07 4.99285E-19 3.83282E-20
 -1      1212 9.16916E-05-2.75519E-05-2.74876E-05 2.93648E-07 2.26456E-19-1.42662E-18
 -1      1213 8.51337E-05-2.55964E-05-2.56933E-05 3.74671E-07-1.62501E-19 3.19448E-18
 -1      1214 8.04622E-05-2.41769E-05-2.44316E-05 3.40244E-07 4.22458E-20 3.85850E-18
 -1      1215 7.89568E-05-2.36888E-05-2.40154E-05 1.88377E-07 2.55566E-20 2.91909E-18
 -1      1216 8.07855E-05-2.42074E-05-2.44767E-05-1.75313E-08 1.70118E-19 1.52747E-18
 -1      1217 8.49035E-05-2.54358E-05-2.55531E-05-1.88607E-07-4.73900E-20 9.58841E-19
 -1      1218 8.96227E-05-2.68650E-05-2.68193E-05-2.64039E-07-1.91325E-19 2.27534E-18
 -1      1219 9.34338E-05-2.80299E-05-2.78805E-05-2.39268E-07 2.62223E-19 1.33567E-19
 -1      1220 9.55633E-05-2.86872E-05-2.85185E-05-1.50375E-07 4.81075E-19-3.74142E-18
 -1      1221 9.60716E-05-2.88504E-05-2.87309E-05-4.76305E-08-4.68391E-20-3.45480E-18
 -1      1222 9.56216E-05-2.87154E-05-2.86763E-05 2.15930E-08-5.65029E-20-1.74193E-18
 -1      1223 9.51027E-05-2.85457E-05-2.85538E-05 1.07732E-08 7.33137E-19-3.51798E-18
 -1      1224 9.50960E-05-2.85303E-05-2.84547E-05-4.40735E-08-2.07415E-19-2.98974E-18
 -1      1225 9.52763E-05-2.87140E-05-2.84684E-05-5.23160E-08-2.73240E-18-4.90804E-19
 -1      1226 9.52478E-05-2.87154E-05-2.85986E-05-7.94240E-08 1.80433E-18 1.60086E-19
 -1      1227 9.49585E-05-2.78138E-05-2.89411E-05-1.14217E-08 2.82568E-18 2.15775E-19
 -1      1228 9.42266E-05-2.54227E-05-2.97071E-05 8.27261E-08 1.06055E-18-1.90410E-19
 -1      1229 9.29284E-05-2.10948E-05-3.10202E-05 2.10350E-07 4.04194E-19 2.60271E-19
 -1      1230 9.10479E-05-1.47698E-05-3.28705E-05 3.48414E-07-8.11569E-18-1.57858E-18
 -1      1231 8.87383E-05-6.91147E-06-3.51072E-05 4.46590E-07-1.16999E-17 7.41166E-19
 -1      1232 8.63394E-05 1.30142E-06-3.73884E-05 4.48745E-07-8.01283E-18-2.35167E-19
 -1      1233 8.44098E-05 7.94817E-06-3.92001E-05 3.16852E-07-5.24282E-18-6.11042E-19
 -1      1234 8.34760E-05 1.11820E-05-4.00655E-05 7.10938E-08-1.94706E-18 7.73354E-19
 -1      1235 8.38333E-05 9.94970E-06-3.97175E-05-2.08364E-07 1.97083E-18-8.21734E-19
 -1      1236 8.54122E-05 4.54255E-06-3.82315E-05-4.26629E-07-2.75100E-18-8.95274E-20
 -1      1237 8.78057E-05-3.67785E-06-3.59525E-05-5.19916E-07-2.72395E-18 1.10054E-18
 -1      1238 9.05143E-05-1.29060E-05-3.33754E-05-5.02561E-07-3.56866E-19-4.44444E-20
 -1      1239 9.29884E-05-2.13009E-05-3.10405E-05-4.51049E-07-1.51899E-18-9.31164E-19
 -1      1240 9.45168E-05-2.67529E-05-2.93855E-05-3.98107E-08 1.18896E-18-3.90353E-19
 -1      1241 9.53896E-05-2.88834E-05-2.84138E-05 8.21741E-08-1.34923E-19 4.70576E-19
 -1      1242 3.78944E-05-1.20502E-04 2.06887E-05-1.56267E-05 5.33800E-18 1.14895E-18
 -1      1243 1.85326E-05-7.04692E-05 1.07032E-05-2.61824E-05 1.34001E-17 5.36172E-18
 -1      1244 9.42544E-06-8.15157E-06-6.88460E-06 2.49525E-06 1.98883E-17 1.23752E-17
 -1      1245 4.44613E-05 2.49669E-05-2.92601E-05 6.23579E-05 1.82078E-17 1.83603E-17
 -1      1246 1.31153E-04 6.57575E-06-5.17637E-05 1.11503E-04 1.26326E-17 1.88143E-17
 -1      1247 2.36978E-04-4.62122E-05-6.94909E-05 1.05654E-04 4.33511E-18 9.56131E-18
 -1      1248 3.11410E-04-9.13769E-05-7.91628E-05 4.41043E-05 8.85149E-19 3.87772E-18
 -1      1249 3.09093E-04-9.01362E-05-7.90735E-05-3.90833E-05 1.69409E-18-5.14742E-18
 -1      1250 2.43497E-04-5.17534E-05-7.01193E-05-1.01820E-04 3.39766E-18-1.25522E-17
 -1      1251 1.37524E-04 2.15678E-06-5.30391E-05-1.09468E-04 5.91822E-18-1.04185E-17
 -1      1252 5.06742E-05 2.71414E-05-3.22184E-05-6.97426E-05 8.14846E-18-9.35802E-18
 -1      1253 1.08358E-05 7.33106E-06-1.23424E-05-1.57129E-05 8.78712E-18-5.96565E-18
 -1      1254 1.21508E-05-4.65863E-05 5.39303E-06 2.14319E-05 1.03906E-17-4.53967E-18
 -1      1255 3.07924E-05-1.00637E-04 1.73398E-05 2.11624E-05 6.32056E-18-2.00800E-18
 -1      1256 3.93157E-05-1.19931E-04 2.09356E-05-6.05756E-06-2.98727E-18-9.92749E-19
 -1      1257 2.57620E-05-9.09353E-05 1.55696E-05-2.91996E-05-1.04244E-17-3.01268E-18
 -1      1258 8.61762E-06-3.36545E-05 1.88889E-06-1.87433E-05-1.68475E-17-9.92130E-18
 -1      1259 2.16603E-05 1.37234E-05-1.85724E-05 3.12197E-05-1.39083E-17-1.05837E-17
 -1      1260 8.73950E-05 1.65109E-05-4.13567E-05 8.92358E-05-9.51557E-18-1.31578E-17
 -1      1261 1.90101E-04-2.38276E-05-6.16465E-05 1.10690E-04-5.58068E-18-1.20211E-17
 -1      1262 2.88190E-04-7.73314E-05-7.60864E-05 7.60058E-05-1.47860E-18-2.43776E-18
 -1      1263 3.28869E-04-1.00160E-04-8.15832E-05-3.05008E-06-7.53965E-19 5.93812E-18
 -1      1264 2.91173E-04-7.57311E-05-7.73238E-05-8.09248E-05-2.89251E-18 1.13469E-17
 -1      1265 2.00590E-04-2.47418E-05-6.44439E-05-1.19298E-04-5.13217E-18 1.01695E-17
 -1      1266 1.00941E-04 1.84764E-05-4.61686E-05-1.02685E-04-9.18184E-18 1.10504E-17
 -1      1267 3.17956E-05 2.40594E-05-2.52645E-05-5.06784E-05-1.43877E-17 1.19025E-17
 -1      1268 8.27227E-06-1.55333E-05-4.29153E-06 4.39390E-06-1.49467E-17 9.95010E-18
 -1      1269 2.06247E-05-7.74877E-05 1.21957E-05 2.93021E-05-6.89654E-18 3.15943E-18
 -1      1270 3.87310E-05-1.21793E-04 2.08821E-05 1.51037E-05-3.94379E-18-1.77877E-19
 -1      1271 1.04446E-04-2.20201E-05-3.78932E-05-1.72756E-05-3.92812E-19 1.99688E-18
 -1      1272 9.03209E-05-6.68150E-06-3.60175E-05-2.04726E-05-6.79426E-19-2.16502E-18
 -1      1273 9.26577E-05-6.74017E-06-3.72228E-05-2.57607E-05-1.01856E-18-1.31227E-18
 -1      1274 8.59029E-05-4.09700E-06-3.51293E-05-1.64326E-05-5.06367E-19-3.24824E-18
 -1      1275 8.71571E-05-4.09022E-06-3.55992E-05-1.88537E-05-6.39563E-19-2.84002E-18
 -1      1276 9.21355E-05-1.04640E-05-3.50937E-05-1.90365E-05-1.11340E-18-1.86760E-18
 -1      1277 8.40943E-05-3.18931E-06-3.46861E-05-1.28195E-05-2.44343E-19-3.64458E-18
 -1      1278 8.47033E-05-3.15893E-06-3.49103E-05-1.46322E-05-3.35266E-19-3.49269E-18
 -1      1279 8.78617E-05-7.39429E-06-3.45728E-05-1.54105E-05-7.15041E-19-2.77282E-18
 -1      1280 8.31854E-05-2.72831E-06-3.44700E-05-9.68608E-06-4.59912E-20-3.73649E-18
 -1      1281 8.35000E-05-2.71169E-06-3.45792E-05-1.12340E-05-8.74826E-20-3.72647E-18
 -1      1282 8.58628E-05-5.98401E-06-3.43047E-05-1.19604E-05-2.88739E-19-3.12944E-18
 -1      1283 8.26914E-05-2.45656E-06-3.43633E-05-6.91523E-06 1.33868E-19-3.60177E-18
 -1      1284 8.28615E-05-2.44828E-06-3.44180E-05-8.28597E-06 4.19480E-20-3.67639E-18
 -1      1285 8.48196E-05-5.21608E-06-3.41728E-05-8.94250E-06-1.79597E-20-3.14313E-18
 -1      1286 8.24159E-05-2.29158E-06-3.43100E-05-4.29555E-06 2.73046E-19-3.38591E-18
 -1      1287 8.25070E-05-2.28765E-06-3.43374E-05-5.59688E-06 2.12678E-19-3.52605E-18
 -1      1288 8.42321E-05-4.76065E-06-3.41089E-05-6.21755E-06 2.57273E-19-3.05903E-18
 -1      1289 8.22834E-05-2.20237E-06-3.42876E-05-1.79029E-06 4.23466E-19-3.12915E-18
 -1      1290 8.23224E-05-2.20078E-06-3.42987E-05-3.04149E-06 3.94487E-19-3.26558E-18
 -1      1291 8.39100E-05-4.49783E-06-3.40796E-05-3.64536E-06 5.17353E-19-2.78232E-18
 -1      1292 8.22573E-05-2.17487E-06-3.42849E-05 6.69870E-07 5.58754E-19-2.86097E-18
 -1      1293 8.22560E-05-2.17491E-06-3.42846E-05-5.66182E-07 5.18004E-19-3.04152E-18
 -1      1294 8.37687E-05-4.37828E-06-3.40686E-05-1.17078E-06 8.12744E-19-2.58573E-18
 -1      1295 8.23311E-05-2.20510E-06-3.43002E-05 3.14878E-06 7.03719E-19-2.50239E-18
 -1      1296 8.22891E-05-2.20673E-06-3.42884E-05 1.89498E-06 6.54122E-19-2.70898E-18
 -1      1297 8.37736E-05-4.38246E-06-3.40690E-05 1.27388E-06 9.47021E-19-2.34632E-18
 -1      1298 8.25245E-05-2.29810E-06-3.43400E-05 5.71335E-06 7.87565E-19-2.06004E-18
 -1      1299 8.24298E-05-2.30147E-06-3.43119E-05 4.40605E-06 7.62086E-19-2.31105E-18
 -1      1300 8.39257E-05-4.51135E-06-3.40806E-05 3.75261E-06 1.15890E-18-1.99611E-18
 -1      1301 8.28844E-05-2.46378E-06-3.44203E-05 8.39523E-06 9.11546E-19-1.43937E-18
 -1      1302 8.27114E-05-2.47246E-06-3.43653E-05 7.01540E-06 8.45997E-19-1.80607E-18
 -1      1303 8.42584E-05-4.78439E-06-3.41098E-05 6.31136E-06 1.33113E-18-1.52876E-18
 -1      1304 8.35429E-05-2.74107E-06-3.45840E-05 1.13955E-05 1.06889E-18-5.91811E-19
 -1      1305 8.32213E-05-2.75816E-06-3.44731E-05 9.83055E-06 9.92094E-19-1.06964E-18
 -1      1306 8.48615E-05-5.25752E-06-3.41731E-05 9.05453E-06 1.53388E-18-8.49865E-19
 -1      1307 8.47646E-05-3.20329E-06-3.49189E-05 1.48443E-05 1.17505E-18 5.76009E-19
 -1      1308 8.41519E-05-3.24002E-06-3.46920E-05 1.30039E-05 1.10214E-18-1.14455E-19
 -1      1309 8.59453E-05-6.06266E-06-3.43061E-05 1.21231E-05 1.74217E-18-1.55378E-20
 -1      1310 8.72560E-05-4.09047E-06-3.56209E-05 1.90916E-05 1.12190E-18 2.44922E-18
 -1      1311 8.59722E-05-4.15433E-06-3.51375E-05 1.66936E-05 1.05162E-18 1.35173E-18
 -1      1312 8.79911E-05-7.51721E-06-3.45757E-05 1.56508E-05 1.76704E-18 1.27388E-18
 -1      1313 9.34704E-05-6.79279E-06-3.71181E-05 2.50968E-05 7.84882E-19 5.43435E-18
 -1      1314 9.01359E-05-6.43826E-06-3.60401E-05 2.11493E-05 8.08228E-19 3.66554E-18
 -1      1315 9.23643E-05-1.06986E-05-3.50789E-05 1.96768E-05 1.53549E-18 3.23545E-18
 -1      1316 1.23632E-04-2.49249E-05-3.90167E-05 2.83672E-05 1.73324E-19 1.01085E-17
 -1      1317 1.00086E-04-1.44250E-05-3.73559E-05 2.40508E-05 2.77615E-19 6.99501E-18
 -1      1318 1.01684E-04-1.93437E-05-3.54040E-05 2.13989E-05 1.12850E-18 5.86062E-18
 -1      1319 1.02611E-04-2.78071E-05-3.47598E-05 7.32901E-06 4.68330E-19 1.01019E-17
 -1      1320 1.05154E-04-3.02321E-05-3.35274E-05-7.95923E-06-9.26760E-19 2.40960E-18
 -1      1321 9.82676E-05-2.78451E-05-3.07642E-05-4.98801E-06-7.96105E-19 1.31650E-18
 -1      1322 9.55101E-05-2.78514E-05-2.92567E-05-2.48957E-06-6.14734E-19 9.70432E-19
 -1      1323 9.32779E-05-2.75606E-05-2.82174E-05-2.04294E-06-5.68677E-19 5.13249E-20
 -1      1324 9.94912E-05-2.80545E-05-3.09846E-05-7.88606E-06-1.35785E-18-2.09111E-21
 -1      1325 9.15881E-05-2.72026E-05-2.75830E-05-8.38349E-07-4.62255E-19-9.00502E-20
 -1      1326 9.08714E-05-2.71072E-05-2.72808E-05-7.28178E-07-3.72324E-19-7.64712E-19
 -1      1327 9.47245E-05-2.77719E-05-2.88183E-05-3.12060E-06-9.19560E-19-3.99641E-19
 -1      1328 9.01213E-05-2.69243E-05-2.70376E-05-1.73982E-07-2.48710E-19-1.04079E-18
 -1      1329 9.00487E-05-2.69511E-05-2.70027E-05-1.15881E-07-2.64903E-19-1.42227E-18
 -1      1330 9.25250E-05-2.75014E-05-2.78974E-05-1.05348E-06-6.70817E-19-8.18075E-19
 -1      1331 8.97893E-05-2.68837E-05-2.69285E-05 1.54270E-07-7.26132E-20-1.56706E-18
 -1      1332 9.00038E-05-2.69738E-05-2.69901E-05 1.82898E-07-1.06346E-19-1.67485E-18
 -1      1333 9.15666E-05-2.73577E-05-2.75305E-05-7.01760E-08-3.98377E-19-1.18855E-18
 -1      1334 9.00075E-05-2.69769E-05-2.69965E-05 3.13709E-07-2.39866E-19-1.76675E-18
 -1      1335 9.03493E-05-2.70965E-05-2.70955E-05 3.25352E-07-2.32203E-19-2.15213E-18
 -1      1336 9.13134E-05-2.73459E-05-2.74225E-05 4.16580E-07-3.56607E-19-1.35582E-18
 -1      1337 9.04909E-05-2.71381E-05-2.71426E-05 3.79550E-07-1.58084E-19-2.28835E-18
 -1      1338 9.08777E-05-2.72661E-05-2.72543E-05 3.81141E-07-1.79782E-19-2.56872E-18
 -1      1339 9.14458E-05-2.74194E-05-2.74445E-05 6.44033E-07-4.09488E-19-1.46028E-18
 -1      1340 9.10851E-05-2.73262E-05-2.73205E-05 3.91299E-07-2.06835E-19-2.63622E-18
 -1      1341 9.14710E-05-2.74504E-05-2.74323E-05 3.87004E-07-1.45805E-19-2.82420E-18
 -1      1342 9.17774E-05-2.75380E-05-2.75331E-05 7.25560E-07-4.20609E-19-1.63723E-18
 -1      1343 9.17014E-05-2.75168E-05-2.75050E-05 3.71992E-07-1.28429E-19-3.04087E-18
 -1      1344 9.20609E-05-2.76306E-05-2.76096E-05 3.64495E-07-1.70689E-19-3.15613E-18
 -1      1345 9.21975E-05-2.76746E-05-2.76526E-05 7.22892E-07-3.27607E-19-1.57107E-18
 -1      1346 9.22890E-05-2.76962E-05-2.76812E-05 3.36030E-07-2.75458E-19-3.18067E-18
 -1      1347 9.26093E-05-2.77962E-05-2.77747E-05 3.27101E-07-1.73160E-19-3.44132E-18
 -1      1348 9.26397E-05-2.78125E-05-2.77819E-05 6.72953E-07-4.08033E-19-1.88084E-18
 -1      1349 9.28210E-05-2.78569E-05-2.78410E-05 2.92724E-07-7.73178E-20-3.69367E-18
 -1      1350 9.30971E-05-2.79423E-05-2.79219E-05 2.83533E-07-3.17055E-19-3.97019E-18
 -1      1351 9.30653E-05-2.79419E-05-2.79081E-05 5.99085E-07-3.95417E-19-1.90688E-18
 -1      1352 9.32855E-05-2.79962E-05-2.79808E-05 2.48163E-07-3.49035E-19-4.03509E-18
 -1      1353 9.35175E-05-2.80673E-05-2.80490E-05 2.39474E-07-2.52025E-19-4.45531E-18
 -1      1354 9.34534E-05-2.80578E-05-2.80245E-05 5.16438E-07-4.50506E-19-2.45225E-18
 -1      1355 9.36806E-05-2.81139E-05-2.80999E-05 2.06332E-07 6.20317E-20-4.38390E-18
 -1      1356 9.38719E-05-2.81720E-05-2.81563E-05 1.98639E-07-2.12201E-20-4.27931E-18
 -1      1357 9.37950E-05-2.81584E-05-2.81279E-05 4.34934E-07-1.60026E-19-2.81689E-18
 -1      1358 9.40111E-05-2.82116E-05-2.81997E-05 1.69850E-07 1.56858E-19-4.13946E-18
 -1      1359 9.41674E-05-2.82586E-05-2.82461E-05 1.63476E-07 1.75962E-19-3.79751E-18
 -1      1360 9.40892E-05-2.82438E-05-2.82176E-05 3.61103E-07 1.79762E-19-2.71693E-18
 -1      1361 9.42861E-05-2.82923E-05-2.82830E-05 1.40502E-07-1.16852E-19-3.82832E-18
 -1      1362 9.44146E-05-2.83305E-05-2.83213E-05 1.35676E-07-3.53270E-19-3.87917E-18
 -1      1363 9.43404E-05-2.83156E-05-2.82948E-05 2.99332E-07 3.13415E-20-2.73461E-18
 -1      1364 9.45179E-05-2.83598E-05-2.83534E-05 1.19637E-07-2.58969E-19-3.90363E-18
 -1      1365 9.46269E-05-2.83917E-05-2.83860E-05 1.16556E-07-2.78104E-19-4.28825E-18
 -1      1366 9.45570E-05-2.83767E-05-2.83620E-05 2.52784E-07-3.79001E-19-2.86600E-18
 -1      1367 9.47213E-05-2.84184E-05-2.84154E-05 1.08490E-07-1.52025E-19-4.37520E-18
 -1      1368 9.48200E-05-2.84469E-05-2.84451E-05 1.07364E-07-1.48705E-19-4.56031E-18
 -1      1369 9.47503E-05-2.84302E-05-2.84224E-05 2.24096E-07-3.65884E-19-2.95432E-18
 -1      1370 9.49134E-05-2.84732E-05-2.84741E-05 1.08434E-07-3.03206E-19-4.68046E-18
 -1      1371 9.50125E-05-2.85015E-05-2.85040E-05 1.09533E-07-2.81882E-19-5.16516E-18
 -1      1372 9.49341E-05-2.84804E-05-2.84804E-05 2.15938E-07-4.03353E-19-3.26856E-18
 -1      1373 9.51139E-05-2.85300E-05-2.85355E-05 1.21203E-07-2.81544E-19-5.24475E-18
 -1      1374 9.52255E-05-2.85618E-05-2.85692E-05 1.24893E-07-2.70258E-19-5.31827E-18
 -1      1375 9.51249E-05-2.85319E-05-2.85408E-05 2.31487E-07-5.63617E-19-3.56249E-18
 -1      1376 9.53458E-05-2.85956E-05-2.86066E-05 1.49096E-07-8.02944E-21-5.57152E-18
 -1      1377 9.54845E-05-2.86352E-05-2.86485E-05 1.55873E-07-9.08145E-20-5.35389E-18
 -1      1378 9.53419E-05-2.85902E-05-2.86098E-05 2.74827E-07-1.64182E-19-3.61178E-18
 -1      1379 9.56364E-05-2.86779E-05-2.86958E-05 1.95152E-07 5.02325E-19-5.05951E-18
 -1      1380 9.58196E-05-2.87306E-05-2.87509E-05 2.05681E-07 6.34290E-19-4.24708E-18
 -1      1381 9.56083E-05-2.86620E-05-2.86943E-05 3.51323E-07 4.93002E-19-4.31380E-18
 -1      1382 9.60186E-05-2.87866E-05-2.88129E-05 2.63321E-07 3.51965E-19-4.06303E-18
 -1      1383 9.62677E-05-2.88587E-05-2.88876E-05 2.78468E-07-8.70078E-20-4.07363E-18
 -1      1384 9.59514E-05-2.87549E-05-2.88028E-05 4.67948E-07 7.37147E-19-4.13300E-18
 -1      1385 9.65323E-05-2.89332E-05-2.89702E-05 3.58602E-07-4.53444E-20-3.74473E-18
 -1      1386 9.68735E-05-2.90328E-05-2.90722E-05 3.79461E-07-3.76102E-20-4.10183E-18
 -1      1387 9.64043E-05-2.88783E-05-2.89456E-05 6.33562E-07 1.05269E-19-3.00678E-18
 -1      1388 9.72261E-05-2.91320E-05-2.91824E-05 4.87096E-07-2.49023E-20-3.49585E-18
 -1      1389 9.76917E-05-2.92688E-05-2.93214E-05 5.15003E-07 2.57741E-19-3.37652E-18
 -1      1390 9.70065E-05-2.90436E-05-2.91347E-05 8.59062E-07 7.80536E-20-1.39649E-18
 -1      1391 9.81587E-05-2.94003E-05-2.94674E-05 6.55863E-07 3.72634E-19-3.94851E-18
 -1      1392 9.87881E-05-2.95865E-05-2.96549E-05 6.92360E-07 2.96759E-19-2.93964E-18
 -1      1393 9.78052E-05-2.92644E-05-2.93847E-05 1.15723E-06 2.77537E-19-1.23143E-18
 -1      1394 9.93999E-05-2.97590E-05-2.98465E-05 8.72335E-07 3.28543E-19-2.66869E-18
 -1      1395 1.00240E-04-3.00091E-05-3.00961E-05 9.19028E-07 1.94646E-19-2.72315E-18
 -1      1396 9.88556E-05-2.95570E-05-2.97122E-05 1.54192E-06 4.70421E-19-1.67880E-18
 -1      1397 1.01030E-04-3.02323E-05-3.03438E-05 1.14281E-06-3.13703E-19-2.58553E-18
 -1      1398 1.02134E-04-3.05635E-05-3.06710E-05 1.20099E-06-5.54365E-19-3.07456E-18
 -1      1399 1.00220E-04-2.99405E-05-3.01357E-05 2.02579E-06-1.32111E-19-2.05859E-18
 -1      1400 1.03137E-04-3.08478E-05-3.09852E-05 1.46911E-06 1.73046E-20-3.33671E-18
 -1      1401 1.04558E-04-3.12782E-05-3.14053E-05 1.53891E-06 2.70298E-19-3.03254E-18
 -1      1402 1.01965E-04-3.04371E-05-3.06741E-05 2.61532E-06-3.95922E-19-2.45271E-18
 -1      1403 1.05803E-04-3.16337E-05-3.17943E-05 1.84196E-06 2.08056E-19-3.00098E-18
 -1      1404 1.07584E-04-3.21800E-05-3.23185E-05 1.92059E-06 8.15600E-20-2.80347E-18
 -1      1405 1.04154E-04-3.10713E-05-3.13434E-05 3.30064E-06 2.71477E-19-1.88478E-18
 -1      1406 1.09082E-04-3.26138E-05-3.27838E-05 2.22877E-06-3.71030E-19-2.67606E-18
 -1      1407 1.11229E-04-3.32839E-05-3.34115E-05 2.30724E-06-4.70095E-19-3.59182E-18
 -1      1408 1.06830E-04-3.18681E-05-3.21505E-05 4.03667E-06-1.63302E-19-2.16990E-18
 -1      1409 1.12953E-04-3.37963E-05-3.39401E-05 2.55362E-06-3.63974E-19-3.30555E-18
 -1      1410 1.15389E-04-3.45761E-05-3.46440E-05 2.61125E-06-1.23955E-19-3.43861E-18
 -1      1411 1.09988E-04-3.28493E-05-3.30820E-05 4.71144E-06-6.59809E-19-2.03403E-18
 -1      1412 1.17246E-04-3.51534E-05-3.51975E-05 2.66993E-06 9.75229E-20-4.01716E-18
 -1      1413 1.19734E-04-3.59824E-05-3.59018E-05 2.66690E-06-3.17122E-19-4.19329E-18
 -1      1414 1.13530E-04-3.40226E-05-3.40879E-05 5.10057E-06-6.59518E-19-1.30801E-18
 -1      1415 1.21517E-04-3.65838E-05-3.64032E-05 2.33724E-06-6.78851E-20-3.73920E-18
 -1      1416 1.23570E-04-3.73194E-05-3.69602E-05 2.20919E-06 6.06919E-20-4.17117E-18
 -1      1417 1.17189E-04-3.53580E-05-3.50617E-05 4.82093E-06-3.06970E-19-2.30389E-18
 -1      1418 1.24927E-04-3.78562E-05-3.72878E-05 1.24035E-06 7.54607E-19-3.21073E-18
 -1      1419 1.25750E-04-3.82375E-05-3.74716E-05 9.08803E-07 7.93683E-19-2.35166E-18
 -1      1420 1.20449E-04-3.67352E-05-3.58274E-05 3.33360E-06 8.21543E-19-1.77389E-18
 -1      1421 1.26174E-04-3.85438E-05-3.74778E-05-8.69686E-07-5.63595E-19-1.85159E-18
 -1      1422 1.24785E-04-3.81993E-05-3.70360E-05-1.44470E-06-5.46535E-19-2.68306E-18
 -1      1423 1.22474E-04-3.78516E-05-3.61577E-05 1.11473E-07 6.37406E-19-9.45970E-19
 -1      1424 1.23730E-04-3.80210E-05-3.66108E-05-3.83059E-06 5.06235E-20-2.85323E-18
 -1      1425 1.19440E-04-3.66085E-05-3.54139E-05-4.53470E-06 5.48454E-20-2.39435E-18
 -1      1426 1.22171E-04-3.81347E-05-3.58520E-05-4.87511E-06-6.04649E-19-8.85374E-19
 -1      1427 1.16640E-04-3.56990E-05-3.45896E-05-6.61368E-06 3.96067E-19-2.80326E-18
 -1      1428 1.09914E-04-3.32645E-05-3.28267E-05-7.07555E-06 2.25582E-19-2.05956E-18
 -1      1429 1.18582E-04-3.68271E-05-3.48774E-05-1.03781E-05 3.03105E-19-1.33969E-18
 -1      1430 1.05941E-04-3.17109E-05-3.18379E-05-7.37540E-06-4.41384E-20-1.05858E-18
 -1      1431 9.89814E-05-2.90452E-05-3.00940E-05-7.12193E-06-8.08255E-20-1.47479E-18
 -1      1432 1.11847E-04-3.36644E-05-3.34810E-05-1.34965E-05 2.17960E-19-1.49856E-18
 -1      1433 9.55041E-05-2.75655E-05-2.93094E-05-4.73964E-06-1.08973E-18-1.42482E-18
 -1      1434 9.15051E-05-2.60158E-05-2.83167E-05-3.69116E-06-1.20075E-18-2.70211E-18
 -1      1435 1.04202E-04-2.97149E-05-3.21286E-05-1.11225E-05-9.06881E-19-1.12094E-18
 -1      1436 9.04188E-05-2.56087E-05-2.80375E-05 3.49854E-07-2.86085E-19-3.23061E-18
 -1      1437 9.13206E-05-2.60509E-05-2.82082E-05 1.55201E-06-1.52413E-19-3.71943E-18
 -1      1438 9.94834E-05-2.73003E-05-3.12930E-05-3.18284E-06-1.21605E-18-9.82975E-19
 -1      1439 9.29957E-05-2.69212E-05-2.84869E-05 4.73871E-06-7.36389E-20-4.49700E-18
 -1      1440 9.77990E-05-2.88995E-05-2.96127E-05 5.29800E-06-3.52577E-19-4.94265E-18
 -1      1441 1.00198E-04-2.80281E-05-3.12072E-05 5.80212E-06-6.61956E-19-2.75910E-18
 -1      1442 1.00703E-04-3.02168E-05-3.02219E-05 5.90463E-06-7.65910E-19-5.09713E-18
 -1      1443 1.06359E-04-3.24061E-05-3.16246E-05 5.64200E-06-7.12467E-20-5.93294E-18
 -1      1444 1.05053E-04-3.10615E-05-3.17576E-05 1.03536E-05-7.75869E-19-4.47133E-18
 -1      1445 1.08571E-04-3.32577E-05-3.21947E-05 4.00054E-06-2.63771E-20-4.97971E-18
 -1      1446 1.12338E-04-3.45970E-05-3.31908E-05 3.31901E-06-7.42477E-20-4.93963E-18
 -1      1447 1.10291E-04-3.40619E-05-3.25409E-05 8.86072E-06 9.98043E-20-3.76083E-18
 -1      1448 1.12900E-04-3.46920E-05-3.34248E-05 8.95887E-07 1.08726E-18-4.86139E-18
 -1      1449 1.13742E-04-3.49032E-05-3.36853E-05 2.46220E-07 1.01374E-18-4.16174E-18
 -1      1450 1.12922E-04-3.53828E-05-3.30589E-05 3.78261E-06 9.15179E-19-2.59999E-18
 -1      1451 1.12725E-04-3.44207E-05-3.34987E-05-1.74348E-06 1.09871E-18-3.10352E-18
 -1      1452 1.11101E-04-3.37698E-05-3.30906E-05-2.14727E-06 1.24421E-18-1.27529E-18
 -1      1453 1.12190E-04-3.49136E-05-3.29907E-05-1.55291E-06 1.96805E-18-2.24245E-18
 -1      1454 1.09086E-04-3.29936E-05-3.25899E-05-3.18525E-06 3.12575E-20-1.02245E-18
 -1      1455 1.06142E-04-3.19166E-05-3.18059E-05-3.31131E-06 1.42169E-19-6.39404E-19
 -1      1456 1.08900E-04-3.33355E-05-3.23288E-05-5.13848E-06 1.17971E-18-1.69647E-18
 -1      1457 1.03816E-04-3.10736E-05-3.11911E-05-3.33420E-06 6.52715E-19-2.40346E-19
 -1      1458 1.00819E-04-2.99898E-05-3.03817E-05-3.20094E-06 5.88612E-19 5.61821E-19
 -1      1459 1.04379E-04-3.13357E-05-3.13154E-05-6.35949E-06 5.92399E-19-1.06963E-18
 -1      1460 9.87622E-05-2.92258E-05-2.98442E-05-2.27170E-06 3.02660E-19 7.60847E-19
 -1      1461 9.68407E-05-2.85783E-05-2.92807E-05-1.95003E-06-4.08197E-19 1.11365E-18
 -1      1462 9.98664E-05-2.93424E-05-3.02789E-05-5.29936E-06 8.68887E-19-6.72696E-19
 -1      1463 9.53121E-05-2.82908E-05-2.87743E-05-1.23223E-07-9.72718E-19 1.15502E-18
 -1      1464 9.60349E-05-2.77973E-05-2.92978E-05-1.98309E-06-8.04191E-19 3.58099E-19
 -1      1465 9.65843E-05-2.83658E-05-2.97745E-05 2.99567E-06 4.93344E-19 8.92823E-18
 -1      1466 1.02543E-04-2.94005E-05-3.21579E-05 4.46277E-06 4.53004E-19 9.59339E-18
 -1      1467 1.02332E-04-2.67199E-05-3.27076E-05 1.27831E-05 7.97111E-19 7.01216E-18
 -1      1468 9.20379E-05-2.74314E-05-2.77640E-05 1.15190E-06 3.78359E-19 7.86671E-18
 -1      1469 9.39845E-05-2.75865E-05-2.86781E-05 1.47387E-06 3.50579E-19 8.40324E-18
 -1      1470 9.64932E-05-2.80322E-05-2.95357E-05 4.86755E-06 7.87794E-19 6.07940E-18
 -1      1471 9.02053E-05-2.70067E-05-2.70651E-05 3.31690E-07 3.08929E-19 7.12246E-18
 -1      1472 9.08201E-05-2.70242E-05-2.73377E-05 4.94577E-07 2.69754E-19 7.55770E-18
 -1      1473 9.30485E-05-2.75807E-05-2.81006E-05 1.85167E-06 6.32098E-19 5.36958E-18
 -1      1474 8.96877E-05-2.68884E-05-2.68893E-05-5.50862E-08 2.16953E-19 6.52708E-18
 -1      1475 8.97252E-05-2.68261E-05-2.69175E-05 3.40301E-08 2.32352E-19 6.83120E-18
 -1      1476 9.14951E-05-2.73095E-05-2.75168E-05 5.17789E-07 4.58232E-19 4.74469E-18
 -1      1477 8.98190E-05-2.69407E-05-2.69309E-05-2.42182E-07 1.66177E-19 6.05889E-18
 -1      1478 8.95908E-05-2.68333E-05-2.68659E-05-1.91964E-07 1.75374E-19 6.36376E-18
 -1      1479 9.09630E-05-2.72285E-05-2.73205E-05-1.31813E-07 3.46759E-19 4.36421E-18
 -1      1480 9.02705E-05-2.70828E-05-2.70688E-05-3.25083E-07-1.02374E-19 6.24702E-18
 -1      1481 8.99241E-05-2.69557E-05-2.69675E-05-2.97456E-07-1.15042E-19 6.03083E-18
 -1      1482 9.09797E-05-2.72713E-05-2.73094E-05-4.50151E-07-4.87606E-20 4.19840E-18
 -1      1483 9.08628E-05-2.72644E-05-2.72476E-05-3.49281E-07 1.63450E-19 6.16571E-18
 -1      1484 9.04762E-05-2.71344E-05-2.71344E-05-3.35639E-07 6.50123E-20 6.23606E-18
 -1      1485 9.12827E-05-2.73828E-05-2.73905E-05-5.89820E-07 4.32144E-20 3.91712E-18
 -1      1486 9.14934E-05-2.74558E-05-2.74375E-05-3.39771E-07 1.98445E-19 5.75618E-18
 -1      1487 9.11101E-05-2.73326E-05-2.73250E-05-3.34919E-07 1.56413E-19 5.92445E-18
 -1      1488 9.17212E-05-2.75260E-05-2.75158E-05-6.27676E-07 2.50483E-19 3.64655E-18
 -1      1489 9.21034E-05-2.76397E-05-2.76213E-05-3.11653E-07 2.13804E-19 5.25903E-18
 -1      1490 9.17475E-05-2.75286E-05-2.75165E-05-3.12230E-07 2.80458E-19 5.63520E-18
 -1      1491 9.22061E-05-2.76776E-05-2.76574E-05-6.07108E-07 3.58785E-19 3.31583E-18
 -1      1492 9.26607E-05-2.78069E-05-2.77895E-05-2.74538E-07-5.68480E-21 5.18926E-18
 -1      1493 9.23444E-05-2.77103E-05-2.76961E-05-2.78288E-07 3.82865E-20 5.08605E-18
 -1      1494 9.26850E-05-2.78238E-05-2.77991E-05-5.54648E-07 2.10208E-19 3.12627E-18
 -1      1495 9.31503E-05-2.79532E-05-2.79375E-05-2.34674E-07 3.67734E-19 4.91628E-18
 -1      1496 9.28782E-05-2.78715E-05-2.78569E-05-2.40055E-07 1.98890E-19 5.21176E-18
 -1      1497 9.31288E-05-2.79573E-05-2.79314E-05-4.87267E-07 1.70884E-19 3.40116E-18
 -1      1498 9.35685E-05-2.80777E-05-2.80642E-05-1.96132E-07 2.06332E-19 4.52177E-18
 -1      1499 9.33401E-05-2.80101E-05-2.79964E-05-2.02084E-07 2.36059E-19 4.61970E-18
 -1      1500 9.35234E-05-2.80746E-05-2.80498E-05-4.16029E-07 5.01054E-19 3.07657E-18
 -1      1501 9.39190E-05-2.81816E-05-2.81705E-05-1.61563E-07 9.33785E-20 4.39628E-18
 -1      1502 9.37306E-05-2.81266E-05-2.81144E-05-1.67343E-07 3.53984E-20 4.36432E-18
 -1      1503 9.38646E-05-2.81749E-05-2.81528E-05-3.48180E-07 1.42616E-19 2.72775E-18
 -1      1504 9.42102E-05-2.82677E-05-2.82591E-05-1.32713E-07 2.73863E-19 3.61460E-18
 -1      1505 9.40561E-05-2.82231E-05-2.82130E-05-1.37788E-07 3.70522E-19 4.18857E-18
 -1      1506 9.41551E-05-2.82595E-05-2.82409E-05-2.88495E-07 4.49816E-19 2.20964E-18
 -1      1507 9.44542E-05-2.83395E-05-2.83335E-05-1.10806E-07 1.21554E-21 3.35748E-18
 -1      1508 9.43270E-05-2.83029E-05-2.82952E-05-1.14765E-07 1.32715E-19 3.48535E-18
 -1      1509 9.44022E-05-2.83306E-05-2.83163E-05-2.40214E-07 2.84529E-19 2.48552E-18
 -1      1510 9.46653E-05-2.84012E-05-2.83979E-05-9.68226E-08 1.13328E-19 2.87893E-18
 -1      1511 9.45568E-05-2.83700E-05-2.83651E-05-9.93100E-08 1.12278E-19 3.01884E-18
 -1      1512 9.46162E-05-2.83916E-05-2.83820E-05-2.05714E-07 2.68947E-19 1.96876E-18
 -1      1513 9.48601E-05-2.84580E-05-2.84575E-05-9.17107E-08 5.22922E-19 1.92087E-18
 -1      1514 9.47608E-05-2.84291E-05-2.84274E-05-9.23711E-08 3.62476E-19 2.52740E-18
 -1      1515 9.48103E-05-2.84463E-05-2.84420E-05-1.87016E-07 4.21394E-19 1.24178E-18
 -1      1516 9.50572E-05-2.85153E-05-2.85179E-05-9.65307E-08-4.61866E-19 2.04470E-18
 -1      1517 9.49569E-05-2.84854E-05-2.84873E-05-9.49697E-08 3.26403E-20 1.92674E-18
 -1      1518 9.49996E-05-2.84992E-05-2.85008E-05-1.86141E-07 3.20333E-19 1.08208E-18
 -1      1519 9.52779E-05-2.85794E-05-2.85854E-05-1.12542E-07-3.07599E-19 2.88389E-18
 -1      1520 9.51648E-05-2.85449E-05-2.85509E-05-1.08297E-07-5.35791E-19 2.13987E-18
 -1      1521 9.52017E-05-2.85556E-05-2.85637E-05-2.05353E-07-6.06198E-19 1.37383E-18
 -1      1522 9.55461E-05-2.86575E-05-2.86674E-05-1.41216E-07-1.57928E-19 3.44159E-18
 -1      1523 9.54071E-05-2.86142E-05-2.86250E-05-1.33742E-07-1.33544E-19 3.08215E-18
 -1      1524 9.54362E-05-2.86212E-05-2.86368E-05-2.47261E-07-3.38989E-19 1.37843E-18
 -1      1525 9.58887E-05-2.87576E-05-2.87718E-05-1.84158E-07 9.14652E-19 2.21725E-18
 -1      1526 9.57088E-05-2.87008E-05-2.87171E-05-1.72838E-07 4.47422E-19 3.00521E-18
 -1      1527 9.57256E-05-2.87026E-05-2.87267E-05-3.14773E-07 3.86343E-19 1.37461E-18
 -1      1528 9.63357E-05-2.88889E-05-2.89076E-05-2.42890E-07 4.61300E-19 5.78619E-19
 -1      1529 9.60983E-05-2.88132E-05-2.88358E-05-2.27077E-07 7.34619E-19 1.88509E-18
 -1      1530 9.60945E-05-2.88073E-05-2.88409E-05-4.10823E-07 1.32516E-18 8.17421E-19
 -1      1531 9.69192E-05-2.90610E-05-2.90846E-05-3.18447E-07-4.10277E-19 6.81499E-19
 -1      1532 9.66063E-05-2.89607E-05-2.89902E-05-2.97562E-07-2.25006E-19 1.37925E-19
 -1      1533 9.65698E-05-2.89435E-05-2.89874E-05-5.37805E-07 3.52190E-19 8.05651E-19
 -1      1534 9.76719E-05-2.92840E-05-2.93122E-05-4.10683E-07-8.05645E-19 2.37641E-18
 -1      1535 9.72650E-05-2.91533E-05-2.91899E-05-3.84393E-07-7.77790E-19 6.36266E-19
 -1      1536 9.71791E-05-2.91199E-05-2.91743E-05-6.96561E-07-1.09766E-18 5.44452E-19
 -1      1537 9.86231E-05-2.95674E-05-2.95990E-05-5.17192E-07-3.37752E-19 4.41299E-18
 -1      1538 9.81055E-05-2.94009E-05-2.94441E-05-4.85706E-07-5.57958E-19 3.59406E-18
 -1      1539 9.79485E-05-2.93450E-05-2.94090E-05-8.84754E-07-1.30290E-18 1.39517E-18
 -1      1540 9.97927E-05-2.99179E-05-2.99503E-05-6.31695E-07 2.03834E-19 4.22534E-18
 -1      1541 9.91530E-05-2.97121E-05-2.97598E-05-5.96239E-07 3.06106E-20 4.68452E-18
 -1      1542 9.88986E-05-2.96265E-05-2.96968E-05-1.09441E-06-2.00244E-19 2.78378E-18
 -1      1543 1.01181E-04-3.03371E-05-3.03654E-05-7.41829E-07-7.91976E-20 4.17396E-18
 -1      1544 1.00419E-04-3.00922E-05-3.01396E-05-7.05334E-07 2.84770E-19 4.77470E-18
 -1      1545 1.00038E-04-2.99689E-05-3.00390E-05-1.30843E-06 3.12937E-19 3.56571E-18
 -1      1546 1.02754E-04-3.08166E-05-3.08327E-05-8.26405E-07 7.52943E-20 3.66998E-18
 -1      1547 1.01889E-04-3.05394E-05-3.05783E-05-7.94422E-07-4.30676E-19 3.38177E-18
 -1      1548 1.01352E-04-3.03716E-05-3.04293E-05-1.49609E-06-2.77270E-19 3.09051E-18
 -1      1549 1.04424E-04-3.13326E-05-3.13240E-05-8.52675E-07 6.64384E-19 2.84193E-18
 -1      1550 1.03507E-04-3.10405E-05-3.10571E-05-8.34402E-07 5.81861E-19 3.79436E-18
 -1      1551 1.02792E-04-3.08242E-05-3.08502E-05-1.60804E-06 5.92042E-19 2.00239E-18
 -1      1552 1.06025E-04-3.18379E-05-3.17879E-05-7.75047E-07-1.81943E-19 1.95745E-18
 -1      1553 1.05153E-04-3.15636E-05-3.15383E-05-7.84076E-07 2.67790E-19 2.47215E-18
 -1      1554 1.04258E-04-3.13017E-05-3.12682E-05-1.57259E-06 6.55723E-19 2.36936E-18
 -1      1555 1.07297E-04-3.22551E-05-3.21450E-05-5.38264E-07-4.27798E-19 2.63425E-18
 -1      1556 1.06624E-04-3.20507E-05-3.19587E-05-5.92138E-07-4.71096E-19 2.07630E-18
 -1      1557 1.05580E-04-3.17580E-05-3.16295E-05-1.29704E-06-5.00014E-19 2.32841E-18
 -1      1558 1.07878E-04-3.24727E-05-3.22882E-05-8.99806E-08-4.10215E-19 3.66481E-18
 -1      1559 1.07618E-04-3.24107E-05-3.22274E-05-2.06945E-07-2.51383E-19 2.72096E-18
 -1      1560 1.06512E-04-3.21191E-05-3.18596E-05-6.81257E-07-8.72533E-19 1.56299E-18
 -1      1561 1.07343E-04-3.23529E-05-3.20976E-05 5.91577E-07 4.72926E-19 3.42972E-18
 -1      1562 1.07745E-04-3.25182E-05-3.22318E-05 4.00655E-07 5.86703E-20 4.05789E-18
 -1      1563 1.06739E-04-3.22802E-05-3.18697E-05 3.47106E-07-1.22721E-19 1.94634E-18
 -1      1564 1.05308E-04-3.17604E-05-3.14727E-05 1.45449E-06-8.71484E-20 3.31328E-18
 -1      1565 1.06594E-04-3.22275E-05-3.18590E-05 1.19947E-06-1.62326E-20 3.49932E-18
 -1      1566 1.05925E-04-3.21135E-05-3.15757E-05 1.76911E-06 1.27320E-20 2.51340E-18
 -1      1567 1.01613E-04-3.06219E-05-3.03858E-05 2.33030E-06 1.13842E-18 9.57094E-19
 -1      1568 1.03864E-04-3.14140E-05-3.10369E-05 2.05592E-06 1.04125E-18 2.38270E-18
 -1      1569 1.03823E-04-3.14984E-05-3.09308E-05 3.39480E-06 1.56257E-18 1.09440E-18
 -1      1570 9.65454E-05-2.90069E-05-2.89370E-05 2.93036E-06 6.62762E-19-1.59131E-18
 -1      1571 9.95673E-05-3.00481E-05-2.97886E-05 2.71916E-06 6.32234E-19 2.83756E-20
 -1      1572 1.00429E-04-3.03828E-05-2.99647E-05 4.81413E-06 1.49824E-18-7.14988E-19
 -1      1573 9.09731E-05-2.71911E-05-2.73771E-05 2.93314E-06-1.01839E-18 8.38721E-19
 -1      1574 9.42289E-05-2.82804E-05-2.82762E-05 2.88062E-06-9.48272E-19-1.16631E-18
 -1      1575 9.61501E-05-2.88674E-05-2.88111E-05 5.46132E-06-9.86667E-19 3.10120E-19
 -1      1576 8.62155E-05-2.56259E-05-2.60586E-05 2.17052E-06-2.42695E-19 2.49104E-18
 -1      1577 8.89187E-05-2.64784E-05-2.67959E-05 2.33065E-06-3.21105E-19 1.27129E-18
 -1      1578 9.18423E-05-2.72616E-05-2.76960E-05 4.85752E-06-7.60622E-19 5.32916E-19
 -1      1579 8.35597E-05-2.47689E-05-2.53094E-05 8.02635E-07 1.50567E-19 2.28743E-18
 -1      1580 8.49721E-05-2.51335E-05-2.56974E-05 1.13843E-06 1.10114E-20 2.32068E-18
 -1      1581 8.85969E-05-2.60229E-05-2.68724E-05 2.95465E-06-1.18717E-20 8.08903E-19
 -1      1582 8.36370E-05-2.48465E-05-2.52867E-05-6.89957E-07 2.19520E-19 1.81576E-18
 -1      1583 8.34304E-05-2.46407E-05-2.52452E-05-3.04264E-07 3.64727E-19 2.69018E-18
 -1      1584 8.72779E-05-2.55505E-05-2.65219E-05 3.14622E-07 4.25780E-19 2.10782E-18
 -1      1585 8.60689E-05-2.57149E-05-2.58997E-05-1.75150E-06 2.14935E-19 1.20737E-18
 -1      1586 8.45087E-05-2.50774E-05-2.54968E-05-1.46144E-06-2.14686E-19 1.60177E-18
 -1      1587 8.80687E-05-2.59489E-05-2.66753E-05-2.10095E-06 1.33725E-19 1.83691E-18
 -1      1588 8.96809E-05-2.69476E-05-2.68588E-05-2.06727E-06-5.24446E-19 1.71238E-18
 -1      1589 8.74795E-05-2.61587E-05-2.62741E-05-1.95730E-06-4.40805E-19 1.20287E-18
 -1      1590 9.03673E-05-2.69496E-05-2.72027E-05-3.45732E-06-4.43002E-19 2.95162E-18
 -1      1591 9.31203E-05-2.80745E-05-2.78124E-05-1.69688E-06 5.92559E-19 1.93714E-18
 -1      1592 9.10683E-05-2.74069E-05-2.72524E-05-1.75635E-06 6.17295E-19 2.32656E-18
 -1      1593 9.31264E-05-2.80793E-05-2.78747E-05-3.48146E-06 7.81620E-20 2.96417E-18
 -1      1594 9.54471E-05-2.87911E-05-2.84973E-05-9.59980E-07 9.89914E-19-1.40581E-19
 -1      1595 9.40767E-05-2.83994E-05-2.81076E-05-1.11404E-06 1.06395E-18 1.03301E-18
 -1      1596 9.53815E-05-2.89284E-05-2.84630E-05-2.50027E-06 1.94362E-18 1.72820E-18
 -1      1597 9.63849E-05-2.90285E-05-2.88172E-05-2.28509E-07 3.47495E-19-1.83880E-18
 -1      1598 9.58326E-05-2.89223E-05-2.86426E-05-3.86712E-07 9.27131E-19-7.61211E-19
 -1      1599 9.66095E-05-2.93083E-05-2.88258E-05-1.14406E-06 1.45679E-18 1.57885E-18
 -1      1600 9.62456E-05-2.89110E-05-2.88389E-05 2.26122E-07-1.15752E-18-1.35855E-18
 -1      1601 9.63038E-05-2.89911E-05-2.88306E-05 1.32335E-07-5.81817E-19-2.27445E-18
 -1      1602 9.68009E-05-2.92550E-05-2.89408E-05-1.51833E-08-2.23617E-19 1.46971E-18
 -1      1603 9.56631E-05-2.86672E-05-2.87188E-05 2.93076E-07 7.30050E-19-1.22972E-18
 -1      1604 9.59387E-05-2.87815E-05-2.87804E-05 2.94617E-07-3.30960E-19-1.16421E-18
 -1      1605 9.63172E-05-2.89407E-05-2.88816E-05 5.15810E-07-3.86202E-19 8.59384E-19
 -1      1606 9.52661E-05-2.85305E-05-2.85906E-05 5.49413E-08 5.49737E-19-2.29729E-18
 -1      1607 9.53818E-05-2.85452E-05-2.86460E-05 1.34473E-07 1.03715E-18-7.05539E-19
 -1      1608 9.56643E-05-2.85995E-05-2.87482E-05 3.91994E-07 1.38794E-18 1.57783E-18
 -1      1609 9.51930E-05-2.85722E-05-2.85303E-05-5.46042E-08-8.16977E-19-1.09334E-18
 -1      1610 9.52491E-05-2.81573E-05-2.87585E-05 3.08980E-07 1.91971E-18 1.24683E-18
 -1      1611 9.52856E-05-2.83911E-05-2.86591E-05 2.17055E-07 2.21334E-19 2.83389E-18
 -1      1612 9.49292E-05-2.68400E-05-2.91887E-05 9.45904E-07 2.35855E-18 1.23525E-19
 -1      1613 9.51457E-05-2.76591E-05-2.89313E-05 8.00753E-07 3.27958E-18-8.06111E-19
 -1      1614 9.52884E-05-2.77483E-05-2.89795E-05 1.11254E-06 1.80300E-18 1.18586E-18
 -1      1615 9.42014E-05-2.42336E-05-2.99992E-05 1.84687E-06 4.31775E-19-9.83591E-19
 -1      1616 9.46850E-05-2.58772E-05-2.95073E-05 1.64878E-06 1.92682E-18-5.50532E-19
 -1      1617 9.50038E-05-2.63745E-05-2.94622E-05 2.54776E-06 2.07139E-18-1.09664E-18
 -1      1618 9.29480E-05-2.00507E-05-3.12596E-05 2.89572E-06-9.82770E-19-1.80809E-18
 -1      1619 9.37581E-05-2.26561E-05-3.04991E-05 2.67477E-06-4.81869E-19 4.19890E-19
 -1      1620 9.43381E-05-2.39339E-05-3.02387E-05 4.39323E-06 9.67523E-19-1.24446E-18
 -1      1621 9.11776E-05-1.44531E-05-3.29008E-05 3.81395E-06-6.77335E-18-2.98418E-18
 -1      1622 9.22856E-05-1.78668E-05-3.19238E-05 3.64112E-06-2.83584E-18-3.52918E-18
 -1      1623 9.31924E-05-2.02534E-05-3.13224E-05 6.30509E-06-2.51271E-18-4.49400E-18
 -1      1624 8.89954E-05-7.84064E-06-3.47907E-05 4.25747E-06-5.90641E-18 1.20090E-18
 -1      1625 9.03095E-05-1.17561E-05-3.36894E-05 4.20849E-06-6.21463E-18 1.98048E-20
 -1      1626 9.15343E-05-1.54282E-05-3.26544E-05 7.71217E-06-2.68664E-18-2.35435E-18
 -1      1627 8.68190E-05-1.46891E-06-3.65709E-05 3.84685E-06-4.75831E-18 3.13247E-19
 -1      1628 8.80625E-05-5.07761E-06-3.55705E-05 3.99956E-06-6.33451E-18 1.82535E-18
 -1      1629 8.95077E-05-9.96256E-06-3.40772E-05 7.91664E-06-2.83158E-18 5.53199E-19
 -1      1630 8.51923E-05 3.15994E-06-3.78382E-05 2.44433E-06-1.35112E-18 9.03705E-19
 -1      1631 8.60366E-05 7.58491E-07-3.71801E-05 2.80462E-06-2.83719E-18 2.56717E-19
 -1      1632 8.75332E-05-4.91967E-06-3.53266E-05 6.36721E-06-1.37136E-18 2.37299E-18
 -1      1633 8.46182E-05 4.73213E-06-3.82565E-05 3.01365E-07 3.18278E-19 1.55708E-18
 -1      1634 8.47976E-05 4.24548E-06-3.81265E-05 7.82186E-07-1.53504E-18 1.04254E-18
 -1      1635 8.61579E-05-1.54627E-06-3.61291E-05 3.08528E-06 1.10875E-18 7.97018E-19
 -1      1636 8.53120E-05 2.70145E-06-3.76908E-05-1.98793E-06 3.06097E-19 2.23802E-20
 -1      1637 8.47552E-05 4.32818E-06-3.81413E-05-1.53541E-06-4.77204E-19 1.20719E-18
 -1      1638 8.58403E-05-8.35782E-07-3.62829E-05-1.18203E-06-9.11836E-19 1.59597E-18
 -1      1639 8.70516E-05-2.34085E-06-3.62927E-05-3.74409E-06-8.17228E-19-3.62636E-20
 -1      1640 8.59268E-05 9.33484E-07-3.72012E-05-3.45469E-06 6.37578E-19-1.69383E-18
 -1      1641 8.67053E-05-3.03291E-06-3.57420E-05-5.19971E-06-6.70976E-19-9.78773E-19
 -1      1642 8.94214E-05-9.30946E-06-3.43427E-05-4.61847E-06-3.52577E-19 7.58055E-19
 -1      1643 8.79824E-05-5.06929E-06-3.55263E-05-4.53058E-06-1.44869E-18 2.03136E-18
 -1      1644 8.84649E-05-7.55251E-06-3.46200E-05-7.91812E-06 9.29102E-19 1.80663E-19
 -1      1645 9.18433E-05-1.65750E-05-3.22832E-05-4.52508E-06-3.17637E-19-4.00456E-19
 -1      1646 9.04192E-05-1.23353E-05-3.34728E-05-4.61579E-06-2.16787E-19 9.54408E-19
 -1      1647 9.06628E-05-1.33261E-05-3.31507E-05-8.83808E-06 5.81753E-19 1.15773E-18
 -1      1648 9.38601E-05-2.26679E-05-3.05192E-05-3.60095E-06-6.12087E-19-1.02723E-19
 -1      1649 9.27080E-05-1.92994E-05-3.14851E-05-3.81957E-06-2.21870E-19-1.02701E-18
 -1      1650 9.28290E-05-1.91071E-05-3.16456E-05-7.98472E-06 6.77428E-19-7.21374E-19
 -1      1651 9.53525E-05-2.64621E-05-2.94981E-05-2.80069E-06-6.53228E-19-1.05656E-18
 -1      1652 9.47080E-05-2.45204E-05-3.00953E-05-3.43257E-06 2.07232E-19-1.26618E-18
 -1      1653 9.48374E-05-2.37334E-05-3.05585E-05-6.61902E-06 3.25869E-19-5.84896E-19
 -1      1654 9.69083E-05-2.70517E-05-2.99857E-05-5.24160E-06-9.26733E-19-1.57350E-18
 -1      1655 2.20024E-05-7.21314E-05 1.54972E-05-5.75899E-06 7.08882E-18 3.90355E-18
 -1      1656 2.59098E-05-8.36306E-05 1.78512E-05 2.78452E-06 2.37021E-18 3.74621E-18
 -1      1657 2.42172E-05-4.13924E-05 3.56127E-06 8.10264E-06 1.20922E-17 8.36022E-18
 -1      1658 2.81639E-05-6.65308E-05 1.06170E-05 2.85570E-06 8.97177E-18 4.55595E-18
 -1      1659 3.98635E-05-1.24713E-05-1.33172E-05 3.25830E-05 1.40692E-17 1.15468E-17
 -1      1660 3.29761E-05-3.42322E-05-3.90567E-06 1.32352E-05 1.39168E-17 8.87606E-18
 -1      1661 9.50013E-05-9.32977E-06-3.51367E-05 6.54087E-05 1.14138E-17 1.26631E-17
 -1      1662 6.40966E-05-1.34821E-05-2.35143E-05 4.08225E-05 1.26606E-17 1.11758E-17
 -1      1663 1.60321E-04-2.21845E-05-5.49401E-05 8.01453E-05 9.18692E-18 8.95314E-18
 -1      1664 1.15280E-04-6.52308E-06-4.54100E-05 7.10110E-05 1.22693E-17 1.22328E-17
 -1      1665 2.27213E-04-5.04966E-05-6.97994E-05 5.54977E-05 3.72308E-18 4.82639E-18
 -1      1666 1.83930E-04-2.88224E-05-6.27138E-05 7.16389E-05 6.06772E-18 8.13999E-18
 -1      1667 2.62221E-04-6.68505E-05-7.69174E-05 1.07517E-05 1.89693E-18 8.46080E-19
 -1      1668 2.45936E-04-5.71810E-05-7.47682E-05 4.53852E-05 2.71686E-18 3.82308E-18
 -1      1669 2.42623E-04-5.62442E-05-7.41249E-05-3.90141E-05 3.12661E-18-5.70223E-18
 -1      1670 2.57869E-04-6.46459E-05-7.63491E-05-6.15116E-06 2.89029E-18-1.20628E-18
 -1      1671 1.91180E-04-3.16339E-05-6.42547E-05-7.35995E-05 3.28670E-18-7.82150E-18
 -1      1672 2.31824E-04-5.29346E-05-7.05234E-05-5.56459E-05 2.32800E-18-6.69749E-18
 -1      1673 1.20324E-04-9.93066E-06-4.61547E-05-6.74629E-05 4.31690E-18-6.39595E-18
 -1      1674 1.66947E-04-2.68879E-05-5.60283E-05-7.45035E-05 2.76726E-18-7.84522E-18
 -1      1675 6.29960E-05-3.00681E-06-2.71915E-05-4.74695E-05 4.95091E-18-5.67851E-18
 -1      1676 9.24511E-05-3.14704E-06-3.68530E-05-6.82568E-05 5.45574E-18-6.11727E-18
 -1      1677 3.34785E-05-2.21439E-05-8.79092E-06-1.80964E-05 5.73950E-18-3.06541E-18
 -1      1678 4.48594E-05-5.25840E-06-1.80732E-05-3.91365E-05 5.04408E-18-4.97462E-18
 -1      1679 2.49838E-05-5.47651E-05 6.92653E-06-9.01388E-08 5.28633E-18-2.49557E-18
 -1      1680 2.19841E-05-2.89625E-05-6.01984E-07-9.31583E-06 5.83945E-18-2.32383E-18
 -1      1681 2.53530E-05-7.80684E-05 1.59750E-05-7.85987E-07 1.37177E-18-2.90363E-18
 -1      1682 2.02514E-05-6.13812E-05 1.21669E-05 4.43454E-06 4.78235E-18-2.57223E-18
 -1      1683 2.35616E-05-8.00227E-05 1.74449E-05-8.39243E-06-3.84468E-18-2.07565E-18
 -1      1684 2.45940E-05-8.21816E-05 1.78867E-05 2.69818E-06-2.82380E-19-2.59700E-18
 -1      1685 1.94133E-05-5.62691E-05 1.02985E-05-7.33256E-06-9.28009E-18-5.24732E-18
 -1      1686 2.53813E-05-7.62934E-05 1.49317E-05-5.14257E-06-5.63658E-18-3.65431E-18
 -1      1687 2.59999E-05-2.34827E-05-4.43020E-06 1.33527E-05-1.19144E-17-8.18996E-18
 -1      1688 2.55485E-05-4.88570E-05 4.02880E-06-1.14892E-06-1.00170E-17-6.92576E-18
 -1      1689 6.80600E-05-1.04376E-05-2.48806E-05 4.84502E-05-8.69310E-18-7.21503E-18
 -1      1690 4.71536E-05-2.22612E-05-1.40790E-05 2.42676E-05-1.06862E-17-6.64413E-18
 -1      1691 1.28244E-04-1.44631E-05-4.59008E-05 7.39073E-05-6.45270E-18-1.00916E-17
 -1      1692 8.65371E-05-5.83948E-06-3.52345E-05 5.58221E-05-7.80795E-18-9.14457E-18
 -1      1693 2.02418E-04-4.20982E-05-6.33993E-05 6.55113E-05-5.21201E-18-4.42575E-18
 -1      1694 1.55932E-04-2.23012E-05-5.48670E-05 6.88469E-05-6.43237E-18-7.34123E-18
 -1      1695 2.58706E-04-6.54613E-05-7.53970E-05 3.15656E-05-1.53694E-18 3.29919E-19
 -1      1696 2.25057E-04-4.79655E-05-7.03818E-05 5.92244E-05-3.53424E-18-2.59616E-18
 -1      1697 2.66690E-04-6.74770E-05-7.80935E-05-2.13448E-05-2.06973E-18 4.61675E-18
 -1      1698 2.66508E-04-6.78358E-05-7.78154E-05 1.48906E-05-1.87046E-18 1.04630E-18
 -1      1699 2.25311E-04-4.59370E-05-7.13227E-05-6.19168E-05-3.56532E-18 6.99903E-18
 -1      1700 2.55327E-04-6.24273E-05-7.56704E-05-3.51846E-05-2.24231E-18 5.00639E-18
 -1      1701 1.63202E-04-1.95648E-05-5.81697E-05-8.04884E-05-5.19824E-18 8.30262E-18
 -1      1702 2.08067E-04-4.05824E-05-6.58963E-05-7.52146E-05-3.78751E-18 8.49235E-18
 -1      1703 9.88073E-05-3.93551E-06-4.02139E-05-6.64482E-05-7.41154E-18 7.92738E-18
 -1      1704 1.38875E-04-1.41446E-05-4.98272E-05-8.15016E-05-5.74881E-18 7.89774E-18
 -1      1705 5.22157E-05-1.03706E-05-2.04318E-05-3.64982E-05-1.06328E-17 7.07188E-18
 -1      1706 7.59310E-05-2.43411E-06-3.06829E-05-6.05741E-05-8.81422E-18 6.97955E-18
 -1      1707 3.28250E-05-4.07365E-05-1.54993E-06-9.91679E-06-7.22350E-18 6.76864E-18
 -1      1708 3.83351E-05-1.73315E-05-1.10578E-05-2.85682E-05-1.00289E-17 7.91722E-18
 -1      1709 2.69417E-05-7.07102E-05 1.20860E-05 1.75212E-06-3.68205E-18 3.41129E-18
 -1      1710 2.15991E-05-4.67480E-05 6.03334E-06-1.12906E-06-6.40018E-18 5.34023E-18
 -1      1711 2.63658E-05-8.53562E-05 1.81964E-05-1.93610E-06 4.79209E-19 1.43191E-18
 -1      1712 2.29906E-05-7.55876E-05 1.60501E-05 7.27896E-06-1.70847E-18 1.62757E-18
 -1      1713 1.30715E-04-3.67673E-05-3.89237E-05 4.46881E-05 8.02055E-18 5.12540E-18
 -1      1714 8.65345E-05-4.15187E-05-1.99542E-05 4.33880E-05 8.31193E-18 7.03927E-18
 -1      1715 9.53087E-05-2.85499E-05-2.86051E-05 1.98201E-08-6.22741E-19 1.10879E-18
 -1      1716 9.53686E-05-2.83249E-05-2.87430E-05 3.48166E-07 4.79566E-19 3.90994E-18
 -1      1717 2.23944E-05-5.10115E-05 8.45350E-06 2.02033E-05 6.50648E-18 6.69685E-18
 -1      1718 4.72025E-05-4.69103E-05-2.97759E-06 3.33018E-05 8.14761E-18 7.88344E-18
 -1      1719 1.28807E-05-5.58172E-05 1.34524E-05 1.06853E-06 2.93100E-18 5.06441E-18
 -1      1720 1.71708E-04-3.22032E-05-5.62511E-05 3.91502E-05 7.66888E-18 4.15978E-18
 -1      1721 2.03945E-04-3.33003E-05-6.81681E-05 2.28788E-05 4.92084E-18 1.76395E-18
 -1      1722 2.16109E-04-3.42456E-05-7.23962E-05 3.08848E-06 4.45793E-18-8.35016E-19
 -1      1723 2.05231E-04-3.38209E-05-6.85094E-05-2.18985E-05 3.10819E-18-2.64063E-18
 -1      1724 1.74015E-04-3.35381E-05-5.70838E-05-3.66925E-05 1.87041E-18-4.41219E-18
 -1      1725 1.31436E-04-3.22804E-05-4.07389E-05-4.53224E-05 2.68213E-18-3.43811E-18
 -1      1726 8.48958E-05-3.21121E-05-2.30870E-05-4.35186E-05 2.33273E-18-3.41100E-18
 -1      1727 4.92375E-05-3.97478E-05-6.58088E-06-3.21606E-05 2.26581E-18-1.19643E-18
 -1      1728 2.50629E-05-4.89271E-05 6.27107E-06-1.92832E-05 1.80503E-18-2.46211E-18
 -1      1729 1.36566E-05-5.50568E-05 1.30281E-05-7.05597E-06-3.32460E-19-4.71967E-18
 -1      1730 1.56347E-05-5.61694E-05 1.24701E-05 5.56240E-06-3.00570E-18-4.78108E-18
 -1      1731 3.04940E-05-4.92768E-05 4.06480E-06 1.87640E-05-5.59211E-18-6.62745E-18
 -1      1732 6.52282E-05-4.33039E-05-1.12515E-05 3.40394E-05-6.81269E-18-3.89932E-18
 -1      1733 1.09024E-04-3.93049E-05-2.98992E-05 4.02073E-05-5.73695E-18-5.37612E-18
 -1      1734 1.55243E-04-3.59883E-05-4.85114E-05 3.88851E-05-5.17495E-18-4.27667E-18
 -1      1735 1.95530E-04-3.71417E-05-6.34641E-05 2.59210E-05-5.58089E-18-1.14349E-19
 -1      1736 2.22087E-04-3.87343E-05-7.24952E-05 8.62969E-06-3.61641E-18 3.92600E-19
 -1      1737 2.18318E-04-3.58219E-05-7.24333E-05-1.34803E-05-2.90829E-18 9.92087E-19
 -1      1738 1.97105E-04-3.38824E-05-6.50803E-05-3.36175E-05-3.26341E-18 4.34951E-18
 -1      1739 1.61436E-04-3.27570E-05-5.19405E-05-4.75949E-05-3.79640E-18 4.45116E-18
 -1      1740 1.16934E-04-3.34058E-05-3.49327E-05-4.82971E-05-4.79124E-18 3.76167E-18
 -1      1741 7.65550E-05-4.07119E-05-1.68542E-05-4.08624E-05-5.17114E-18 4.10430E-18
 -1      1742 4.31658E-05-4.84298E-05-9.51341E-07-3.02698E-05-3.62954E-18 6.46056E-18
 -1      1743 2.05364E-05-5.48494E-05 1.00389E-05-1.47669E-05-5.62006E-19 3.70344E-18
 -1      1744 1.06056E-04-2.31715E-05-3.56055E-05-1.68535E-05-1.09525E-18 1.40798E-18
 -1      1745 8.91420E-05-1.05809E-05-3.37949E-05-1.33228E-05-6.70880E-19-2.36092E-18
 -1      1746 9.04864E-05-1.16351E-05-3.39358E-05-1.51365E-05-9.67934E-19-2.08026E-18
 -1      1747 9.24923E-05-1.38749E-05-3.38549E-05-1.60027E-05-1.11639E-18-1.67284E-18
 -1      1748 9.42094E-05-1.58212E-05-3.40991E-05-1.76643E-05-1.37368E-18-1.22867E-18
 -1      1749 9.34160E-05-1.63451E-05-3.30461E-05-1.37805E-05-1.12756E-18-1.66648E-18
 -1      1750 8.62066E-05-7.67003E-06-3.37300E-05-7.86706E-06 4.17875E-20-2.60255E-18
 -1      1751 8.66095E-05-7.97066E-06-3.37643E-05-9.25531E-06-8.72113E-20-2.64798E-18
 -1      1752 8.55934E-05-7.03689E-06-3.37265E-05-5.32257E-06 3.14954E-19-2.44426E-18
 -1      1753 8.58271E-05-7.21442E-06-3.37419E-05-6.62716E-06 2.27916E-19-2.57297E-18
 -1      1754 8.75924E-05-9.86852E-06-3.33428E-05-6.93523E-06 1.13451E-19-2.45685E-18
 -1      1755 8.52588E-05-6.67847E-06-3.37297E-05-2.88974E-06 7.20453E-19-2.17685E-18
 -1      1756 8.53796E-05-6.77291E-06-3.37357E-05-4.12976E-06 5.41018E-19-2.30644E-18
 -1      1757 8.69583E-05-9.15704E-06-3.33759E-05-4.53949E-06 4.73368E-19-2.25969E-18
 -1      1758 8.51281E-05-6.53031E-06-3.37331E-05-5.17687E-07 1.02459E-18-2.01496E-18
 -1      1759 8.51637E-05-6.55882E-06-3.37346E-05-1.72762E-06 8.67424E-19-2.18070E-18
 -1      1760 8.66261E-05-8.77770E-06-3.33960E-05-2.21804E-06 8.64146E-19-2.10359E-18
 -1      1761 8.51735E-05-6.56774E-06-3.37348E-05 1.84555E-06 1.18522E-18-1.85191E-18
 -1      1762 8.51318E-05-6.53482E-06-3.37330E-05 6.34645E-07 1.11150E-18-1.93470E-18
 -1      1763 8.65279E-05-8.66406E-06-3.34026E-05 6.54049E-08 1.11553E-18-1.93169E-18
 -1      1764 8.54046E-05-6.79787E-06-3.37358E-05 4.25199E-06 1.38993E-18-1.52031E-18
 -1      1765 8.52766E-05-6.69722E-06-3.37297E-05 3.00892E-06 1.29433E-18-1.73013E-18
 -1      1766 8.66435E-05-8.79705E-06-3.33953E-05 2.34996E-06 1.28611E-18-1.74030E-18
 -1      1767 8.58616E-05-7.25095E-06-3.37413E-05 6.71367E-06 1.57060E-18-1.00527E-18
 -1      1768 8.56235E-05-7.06879E-06-3.37264E-05 5.42625E-06 1.46113E-18-1.34508E-18
 -1      1769 8.69917E-05-9.19390E-06-3.33745E-05 4.65381E-06 1.50085E-18-1.35764E-18
 -1      1770 8.66751E-05-8.04053E-06-3.37621E-05 9.37552E-06 1.87335E-18-3.02761E-19
 -1      1771 8.62541E-05-7.72401E-06-3.37283E-05 7.95463E-06 1.68405E-18-6.64736E-19
 -1      1772 8.76439E-05-9.92627E-06-3.33402E-05 7.02941E-06 1.70238E-18-7.33358E-19
 -1      1773 8.80881E-05-9.38823E-06-3.38176E-05 1.22544E-05 2.04345E-18 4.59515E-19
 -1      1774 8.73477E-05-8.83032E-06-3.37455E-05 1.06614E-05 1.97076E-18-3.90826E-20
 -1      1775 8.87654E-05-1.11609E-05-3.32898E-05 9.50369E-06 2.01360E-18-6.76832E-20
 -1      1776 9.06330E-05-1.18406E-05-3.39280E-05 1.53027E-05 1.97203E-18 1.65383E-18
 -1      1777 8.92521E-05-1.07412E-05-3.37880E-05 1.35131E-05 2.00012E-18 9.30704E-19
 -1      1778 9.06634E-05-1.32235E-05-3.32072E-05 1.19756E-05 2.09182E-18 7.52668E-19
 -1      1779 9.58789E-05-1.70354E-05-3.39940E-05 1.76905E-05 1.59651E-18 3.63599E-18
 -1      1780 9.28587E-05-1.43439E-05-3.38276E-05 1.61937E-05 1.76904E-18 2.46955E-18
 -1      1781 9.39719E-05-1.68878E-05-3.30247E-05 1.38944E-05 1.90110E-18 1.97089E-18
 -1      1782 1.01929E-04-2.50957E-05-3.33604E-05 1.44224E-05 1.07870E-18 5.75209E-18
 -1      1783 9.80799E-05-1.96176E-05-3.36263E-05 1.69641E-05 1.36324E-18 4.39271E-18
 -1      1784 9.73324E-05-2.18553E-05-3.24285E-05 1.32483E-05 1.55435E-18 3.55550E-18
 -1      1785 9.87562E-05-2.61366E-05-3.13436E-05 9.43481E-06 1.06255E-18 5.38099E-18
 -1      1786 1.00159E-04-1.95638E-05-3.42193E-05-1.88694E-05-1.39117E-18-2.86403E-19
 -1      1787 9.53151E-05-2.72869E-05-2.91865E-05 4.06677E-06 9.56485E-19 4.64789E-18
 -1      1788 9.77455E-05-2.73921E-05-3.01956E-05 6.40081E-06 9.81367E-19 4.96340E-18
 -1      1789 9.75800E-05-2.56160E-05-3.08338E-05 8.75978E-06 1.22010E-18 3.92231E-18
 -1      1790 9.98173E-05-2.25407E-05-3.28375E-05-1.44675E-05-1.34517E-18-5.79053E-19
 -1      1791 9.69651E-05-2.69813E-05-2.98779E-05-5.70484E-06-9.95528E-19-6.61724E-19
 -1      1792 9.51558E-05-2.70362E-05-2.91673E-05-3.89863E-06-7.64487E-19-8.96968E-19
 -1      1793 9.43356E-05-2.72364E-05-2.86598E-05-2.42305E-06-7.53634E-19-8.14594E-19
 -1      1794 9.35634E-05-2.73166E-05-2.83547E-05-1.56966E-06-6.46167E-19-9.98063E-19
 -1      1795 9.55090E-05-2.65456E-05-2.95760E-05-4.47581E-06-8.97756E-19-1.02573E-18
 -1      1796 9.30385E-05-2.73675E-05-2.80857E-05-7.42866E-07-5.50879E-19-9.18518E-19
 -1      1797 9.27367E-05-2.74311E-05-2.79635E-05-3.04968E-07-4.03581E-19-1.09250E-18
 -1      1798 9.42977E-05-2.72211E-05-2.87673E-05-1.83099E-06-6.94686E-19-9.56889E-19
 -1      1799 9.24603E-05-2.74584E-05-2.78272E-05 1.49498E-07-3.69528E-19-1.14417E-18
 -1      1800 9.24281E-05-2.75344E-05-2.77971E-05 3.72859E-07-3.90940E-19-1.17845E-18
 -1      1801 9.35961E-05-2.75283E-05-2.83310E-05-3.65930E-07-4.80230E-19-1.02202E-18
 -1      1802 9.23237E-05-2.75655E-05-2.77385E-05 6.11607E-07-4.49219E-19-1.07791E-18
 -1      1803 9.24371E-05-2.76502E-05-2.77573E-05 7.14661E-07-3.73154E-19-1.25019E-18
 -1      1804 9.32732E-05-2.77127E-05-2.81096E-05 4.34496E-07-4.17850E-19-1.00030E-18
 -1      1805 9.24411E-05-2.76878E-05-2.77449E-05 8.24540E-07-2.93381E-19-1.20482E-18
 -1      1806 9.26268E-05-2.77739E-05-2.77890E-05 8.57216E-07-2.35996E-19-1.15561E-18
 -1      1807 9.32073E-05-2.78551E-05-2.80163E-05 8.43410E-07-2.69243E-19-8.58752E-19
 -1      1808 9.26938E-05-2.78149E-05-2.78033E-05 8.89397E-07-4.35317E-19-9.87483E-19
 -1      1809 9.29075E-05-2.78968E-05-2.78588E-05 8.80894E-07-3.30291E-19-1.11247E-18
 -1      1810 9.32991E-05-2.79778E-05-2.79999E-05 1.01624E-06-3.05124E-19-7.80463E-19
 -1      1811 9.30069E-05-2.79377E-05-2.78874E-05 8.67192E-07-3.86053E-19-1.17883E-18
 -1      1812 9.32223E-05-2.80120E-05-2.79458E-05 8.35762E-07-3.50067E-19-1.08422E-18
 -1      1813 9.34778E-05-2.80858E-05-2.80280E-05 1.04695E-06-4.19774E-19-6.97133E-19
 -1      1814 9.33342E-05-2.80503E-05-2.79808E-05 7.96740E-07-5.31229E-19-1.02176E-18
 -1      1815 9.35364E-05-2.81151E-05-2.80370E-05 7.54216E-07-5.85652E-19-1.31346E-18
 -1      1816 9.36962E-05-2.81797E-05-2.80798E-05 9.95130E-07-5.65340E-19-7.72701E-19
 -1      1817 9.36487E-05-2.81494E-05-2.80737E-05 7.03456E-07-6.25039E-19-1.49844E-18
 -1      1818 9.38300E-05-2.82044E-05-2.81251E-05 6.57629E-07-4.11866E-19-1.71975E-18
 -1      1819 9.39240E-05-2.82595E-05-2.81423E-05 8.99753E-07-7.63647E-19-8.83451E-19
 -1      1820 9.39360E-05-2.82341E-05-2.81607E-05 6.04184E-07-2.33943E-19-1.79630E-18
 -1      1821 9.40941E-05-2.82796E-05-2.82063E-05 5.60217E-07-3.27836E-20-1.75876E-18
 -1      1822 9.41436E-05-2.83257E-05-2.82075E-05 7.86746E-07-5.33215E-19-9.35398E-19
 -1      1823 9.41907E-05-2.83048E-05-2.82394E-05 5.10172E-07 1.90909E-19-2.01312E-18
 -1      1824 9.43263E-05-2.83419E-05-2.82791E-05 4.71518E-07 1.32288E-19-1.83439E-18
 -1      1825 9.43459E-05-2.83793E-05-2.82709E-05 6.73497E-07-4.47071E-20-8.71876E-19
 -1      1826 9.44132E-05-2.83630E-05-2.83095E-05 4.29048E-07 3.08665E-20-2.08386E-18
 -1      1827 9.45296E-05-2.83931E-05-2.83441E-05 3.98113E-07-5.34247E-20-1.95745E-18
 -1      1828 9.45280E-05-2.84219E-05-2.83308E-05 5.71824E-07-3.09057E-20-1.11436E-18
 -1      1829 9.46086E-05-2.84109E-05-2.83723E-05 3.66249E-07-2.92612E-19-2.16482E-18
 -1      1830 9.47106E-05-2.84357E-05-2.84031E-05 3.44874E-07-2.87728E-19-2.23122E-18
 -1      1831 9.46918E-05-2.84553E-05-2.83867E-05 4.90046E-07-2.74784E-19-1.71052E-18
 -1      1832 9.47845E-05-2.84511E-05-2.84299E-05 3.26093E-07-4.09337E-19-2.23756E-18
 -1      1833 9.48784E-05-2.84725E-05-2.84587E-05 3.15937E-07-3.32030E-19-2.27809E-18
 -1      1834 9.48420E-05-2.84817E-05-2.84401E-05 4.34519E-07-4.44616E-19-1.89191E-18
 -1      1835 9.49518E-05-2.84868E-05-2.84858E-05 3.12612E-07-3.92797E-19-2.42960E-18
 -1      1836 9.50450E-05-2.85069E-05-2.85147E-05 3.15464E-07-4.38173E-19-2.72178E-18
 -1      1837 9.49860E-05-2.85032E-05-2.84929E-05 4.10809E-07-5.07976E-19-1.95704E-18
 -1      1838 9.51231E-05-2.85214E-05-2.85438E-05 3.30239E-07-1.75341E-19-2.77233E-18
 -1      1839 9.52246E-05-2.85425E-05-2.85755E-05 3.48271E-07-4.04147E-19-2.69374E-18
 -1      1840 9.51335E-05-2.85224E-05-2.85484E-05 4.24632E-07-3.11850E-19-1.91404E-18
 -1      1841 9.53140E-05-2.85588E-05-2.86089E-05 3.84373E-07-8.50226E-19-2.70542E-18
 -1      1842 9.54343E-05-2.85838E-05-2.86465E-05 4.20371E-07-4.48733E-19-3.29479E-18
 -1      1843 9.52964E-05-2.85417E-05-2.86105E-05 4.82613E-07-6.88935E-19-2.12533E-18
 -1      1844 9.55427E-05-2.86037E-05-2.86870E-05 4.81869E-07 2.33857E-19-3.32136E-18
 -1      1845 9.56944E-05-2.86358E-05-2.87342E-05 5.39425E-07 7.55908E-19-3.52057E-18
 -1      1846 9.54886E-05-2.85642E-05-2.86838E-05 5.92930E-07-2.80848E-19-2.31951E-18
 -1      1847 9.58308E-05-2.86613E-05-2.87851E-05 6.31450E-07 1.14744E-18-3.22595E-18
 -1      1848 9.60288E-05-2.87045E-05-2.88463E-05 7.15137E-07 9.83601E-19-2.68942E-18
 -1      1849 9.57268E-05-2.85932E-05-2.87742E-05 7.65837E-07 1.28837E-18-1.65715E-18
 -1      1850 9.62039E-05-2.87381E-05-2.89113E-05 8.44032E-07 8.12094E-19-2.32322E-18
 -1      1851 9.64663E-05-2.87972E-05-2.89918E-05 9.59512E-07 8.24237E-19-1.74896E-18
 -1      1852 9.60303E-05-2.86326E-05-2.88883E-05 1.01406E-06 1.31486E-18-1.09657E-18
 -1      1853 9.66921E-05-2.88418E-05-2.90754E-05 1.13287E-06 5.85195E-19-1.52105E-18
 -1      1854 9.70405E-05-2.89226E-05-2.91814E-05 1.28689E-06 5.74029E-19-7.77115E-19
 -1      1855 9.64217E-05-2.86871E-05-2.90336E-05 1.35299E-06 9.62491E-19-1.09346E-18
 -1      1856 9.73310E-05-2.89817E-05-2.92885E-05 1.51336E-06 1.53416E-19-5.16774E-19
 -1      1857 9.77907E-05-2.90916E-05-2.94273E-05 1.71347E-06 2.48708E-19-5.82393E-19
 -1      1858 9.69270E-05-2.87627E-05-2.92188E-05 1.80046E-06 6.43072E-19-6.52112E-19
 -1      1859 9.81614E-05-2.91697E-05-2.95631E-05 2.00208E-06 3.99108E-19-8.89881E-19
 -1      1860 9.87616E-05-2.93179E-05-2.97430E-05 2.25578E-06 1.14604E-19-1.12282E-18
 -1      1861 9.75756E-05-2.88672E-05-2.94531E-05 2.37578E-06 4.59275E-19-4.30214E-19
 -1      1862 9.92293E-05-2.94207E-05-2.99127E-05 2.61436E-06-5.02909E-20-1.39174E-18
 -1      1863 1.00002E-04-2.96188E-05-3.01422E-05 2.92721E-06-2.13639E-19-1.62933E-18
 -1      1864 9.84003E-05-2.90119E-05-2.97456E-05 3.09718E-06-1.53045E-20-6.80697E-19
 -1      1865 1.00585E-04-2.97546E-05-3.03503E-05 3.35905E-06-5.10413E-19-1.76808E-18
 -1      1866 1.01563E-04-3.00175E-05-3.06374E-05 3.73063E-06-2.03908E-19-1.50722E-18
 -1      1867 9.94368E-05-2.92140E-05-3.01043E-05 3.97645E-06-2.21536E-19-7.10424E-19
 -1      1868 1.02279E-04-3.01991E-05-3.08861E-05 4.22823E-06 3.38173E-19-1.43658E-18
 -1      1869 1.03489E-04-3.05461E-05-3.12359E-05 4.64452E-06 6.37814E-19-1.36555E-18
 -1      1870 1.00724E-04-2.95015E-05-3.05336E-05 5.00864E-06 5.94759E-20-1.12647E-18
 -1      1871 1.04358E-04-3.07944E-05-3.15230E-05 5.17836E-06-7.66730E-20-1.97670E-18
 -1      1872 1.05812E-04-3.12499E-05-3.19338E-05 5.59844E-06-6.54972E-19-1.95834E-18
 -1      1873 1.02303E-04-2.99222E-05-3.10313E-05 6.15327E-06-1.88778E-19-1.48068E-18
 -1      1874 1.06855E-04-3.15996E-05-3.22499E-05 6.09857E-06-5.12385E-19-1.84408E-18
 -1      1875 1.08532E-04-3.21931E-05-3.27070E-05 6.43392E-06-5.69267E-19-1.74144E-18
 -1      1876 1.04222E-04-3.05568E-05-3.15836E-05 7.30313E-06-2.60842E-19-2.02565E-18
 -1      1877 1.09778E-04-3.26981E-05-3.30327E-05 6.76313E-06-8.42947E-19-1.45355E-18
 -1      1878 1.11594E-04-3.34576E-05-3.35002E-05 6.85146E-06-4.93477E-19-1.26227E-18
 -1      1879 1.06539E-04-3.15342E-05-3.21604E-05 8.23694E-06-6.11426E-19-1.61853E-18
 -1      1880 1.13073E-04-3.41896E-05-3.38049E-05 6.77468E-06-4.08425E-19-6.92162E-19
 -1      1881 1.14845E-04-3.51178E-05-3.42185E-05 6.36213E-06 1.45521E-19-6.38868E-19
 -1      1882 1.09323E-04-3.30355E-05-3.27147E-05 8.55956E-06 2.24633E-19-2.77253E-19
 -1      1883 1.16572E-04-3.61351E-05-3.44669E-05 5.53379E-06 6.30464E-19-5.52768E-19
 -1      1884 1.17973E-04-3.71471E-05-3.47356E-05 4.30507E-06 1.29611E-18-6.03726E-19
 -1      1885 1.12632E-04-3.52436E-05-3.31912E-05 7.65525E-06 5.96192E-19 6.09410E-19
 -1      1886 1.19867E-04-3.83938E-05-3.49070E-05 2.33473E-06 1.20680E-18-9.59503E-19
 -1      1887 1.20409E-04-3.92003E-05-3.49378E-05 6.68702E-08 6.16190E-19-3.12205E-19
 -1      1888 1.16405E-04-3.81570E-05-3.35597E-05 4.73177E-06 1.00770E-18 1.22431E-19
 -1      1889 1.22117E-04-4.03100E-05-3.50588E-05-3.21205E-06-6.34348E-20 2.13358E-19
 -1      1890 1.21228E-04-4.03088E-05-3.48107E-05-6.29891E-06-2.54930E-19 1.35631E-18
 -1      1891 1.20189E-04-4.11701E-05-3.38743E-05-8.61707E-07 6.02379E-19 4.32920E-19
 -1      1892 1.21983E-04-4.04612E-05-3.49757E-05-1.02845E-05-3.30978E-19 5.51405E-19
 -1      1893 1.19325E-04-3.88934E-05-3.45282E-05-1.30951E-05-5.60769E-19-4.49999E-19
 -1      1894 1.22790E-04-4.26526E-05-3.43224E-05-8.80441E-06-1.61889E-19 1.51309E-18
 -1      1895 1.18189E-04-3.71643E-05-3.48513E-05-1.58141E-05 2.39767E-20-8.47377E-19
 -1      1896 1.14277E-04-3.39927E-05-3.43754E-05-1.64128E-05 5.16955E-20-4.45116E-19
 -1      1897 1.22312E-04-4.01370E-05-3.51784E-05-1.65477E-05-4.78428E-19 6.16862E-19
 -1      1898 1.11501E-04-3.07574E-05-3.47828E-05-1.52846E-05-4.99247E-19-1.03440E-18
 -1      1899 1.07984E-04-2.75526E-05-3.44303E-05-1.22946E-05-1.10829E-18-7.77093E-19
 -1      1900 1.17941E-04-3.30732E-05-3.64332E-05-1.88630E-05-5.49671E-19-3.26988E-19
 -1      1901 1.05866E-04-2.53374E-05-3.46208E-05-6.75106E-06-1.45991E-18-6.12008E-19
 -1      1902 1.04777E-04-2.45982E-05-3.44342E-05-1.46015E-06-1.37902E-18-1.09066E-18
 -1      1903 1.12387E-04-2.54222E-05-3.74807E-05-1.16036E-05-1.06917E-18-1.76250E-18
 -1      1904 1.05343E-04-2.55927E-05-3.41575E-05 4.94790E-06-1.04238E-18-1.19687E-18
 -1      1905 1.07081E-04-2.78385E-05-3.41364E-05 9.04085E-06-8.61485E-19-1.67190E-18
 -1      1906 1.10695E-04-2.38051E-05-3.74913E-05 2.04077E-06-1.32254E-18-1.96195E-18
 -1      1907 1.09235E-04-3.08569E-05-3.35271E-05 1.18825E-05-1.24302E-18-2.27480E-18
 -1      1908 1.12167E-04-3.39907E-05-3.36598E-05 1.24808E-05-7.09033E-19-2.52610E-18
 -1      1909 1.13936E-04-2.95296E-05-3.62892E-05 1.23747E-05-1.09588E-18-9.74564E-19
 -1      1910 1.13321E-04-3.62021E-05-3.30658E-05 1.08462E-05 4.49546E-19-2.10530E-18
 -1      1911 1.15452E-04-3.80658E-05-3.32410E-05 8.57547E-06 1.02413E-18-9.97156E-19
 -1      1912 1.17855E-04-3.71093E-05-3.45935E-05 1.32108E-05-3.03079E-20-1.85785E-19
 -1      1913 1.14637E-04-3.83050E-05-3.28163E-05 4.75078E-06 1.19720E-18-4.37909E-19
 -1      1914 1.15069E-04-3.84338E-05-3.28531E-05 1.60053E-06 1.79560E-18 5.48561E-19
 -1      1915 1.18417E-04-4.09145E-05-3.31801E-05 6.75790E-06 1.68134E-18 4.80604E-19
 -1      1916 1.12962E-04-3.73236E-05-3.25428E-05-1.99258E-06 1.90582E-18 3.76202E-21
 -1      1917 1.11843E-04-3.63338E-05-3.23413E-05-4.51490E-06 2.59815E-18 9.11619E-20
 -1      1918 1.15397E-04-4.01245E-05-3.22581E-05-1.45977E-06 1.33803E-18 1.66552E-18
 -1      1919 1.09343E-04-3.47755E-05-3.20555E-05-6.73076E-06 1.23503E-18-5.09146E-19
 -1      1920 1.07280E-04-3.33488E-05-3.16525E-05-8.01110E-06 3.02751E-19-5.13481E-19
 -1      1921 1.10576E-04-3.67909E-05-3.16477E-05-7.68718E-06 1.65031E-18 1.87747E-19
 -1      1922 1.04896E-04-3.18352E-05-3.13668E-05-8.67112E-06-3.65647E-20-8.15302E-19
 -1      1923 1.02545E-04-3.03707E-05-3.08917E-05-8.65366E-06 5.05818E-19-3.76983E-19
 -1      1924 1.05490E-04-3.28482E-05-3.11620E-05-1.06613E-05-2.23330E-19 3.75732E-19
 -1      1925 1.00678E-04-2.92051E-05-3.06546E-05-7.93661E-06 9.79428E-19-8.74826E-19
 -1      1926 9.85881E-05-2.79383E-05-3.02201E-05-6.81510E-06 2.16066E-19-8.51778E-19
 -1      1927 9.76238E-05-2.67473E-05-3.03874E-05-8.07876E-06-2.96743E-20-2.02121E-18
 -1      1928 1.01057E-04-2.92868E-05-3.07724E-05-1.04866E-05 2.45721E-19-8.72103E-19
 -1      1929 9.32153E-05-2.73638E-05-2.81942E-05 1.60533E-06 7.90639E-19 4.06559E-18
 -1      1930 9.44100E-05-2.74691E-05-2.86308E-05 2.67627E-06 8.17678E-19 4.39330E-18
 -1      1931 9.52334E-05-2.70481E-05-2.92277E-05 4.05400E-06 1.02028E-18 3.38510E-18
 -1      1932 9.21629E-05-2.73503E-05-2.77523E-05 3.49001E-07 5.48586E-19 3.63730E-18
 -1      1933 9.26574E-05-2.73825E-05-2.79247E-05 8.96890E-07 6.04858E-19 3.83004E-18
 -1      1934 9.36287E-05-2.73693E-05-2.84038E-05 1.58564E-06 7.52628E-19 3.03534E-18
 -1      1935 9.17867E-05-2.73877E-05-2.75839E-05-3.03547E-07 2.77579E-19 3.40941E-18
 -1      1936 9.19021E-05-2.73611E-05-2.76310E-05-1.14323E-08 4.06678E-19 3.50497E-18
 -1      1937 9.27970E-05-2.74844E-05-2.80011E-05 2.73646E-07 5.68202E-19 2.65861E-18
 -1      1938 9.18088E-05-2.74779E-05-2.75603E-05-6.28156E-07-8.32384E-20 3.04701E-18
 -1      1939 9.17217E-05-2.74161E-05-2.75442E-05-4.75876E-07 2.86180E-20 3.24259E-18
 -1      1940 9.24820E-05-2.75771E-05-2.78264E-05-4.18681E-07 1.82429E-19 2.19028E-18
 -1      1941 9.20508E-05-2.75992E-05-2.76151E-05-7.64627E-07 2.44111E-19 2.89547E-18
 -1      1942 9.18611E-05-2.75208E-05-2.75668E-05-6.93997E-07 4.27977E-20 2.91613E-18
 -1      1943 9.24837E-05-2.76819E-05-2.77804E-05-7.62162E-07 1.05526E-19 1.88660E-18
 -1      1944 9.24006E-05-2.77325E-05-2.77098E-05-7.90538E-07 3.81126E-19 2.59293E-18
 -1      1945 9.21670E-05-2.76496E-05-2.76470E-05-7.68950E-07 4.00129E-19 2.77392E-18
 -1      1946 9.26659E-05-2.77965E-05-2.78072E-05-9.01464E-07 3.93249E-19 1.74745E-18
 -1      1947 9.27889E-05-2.78645E-05-2.78210E-05-7.52643E-07 4.19834E-19 2.21083E-18
 -1      1948 9.25461E-05-2.77845E-05-2.77540E-05-7.60188E-07 4.40478E-19 2.48018E-18
 -1      1949 9.29399E-05-2.79124E-05-2.78730E-05-9.20036E-07 6.56044E-19 1.71463E-18
 -1      1950 9.31738E-05-2.79871E-05-2.79344E-05-6.80657E-07-1.06101E-19 2.34685E-18
 -1      1951 9.29419E-05-2.79142E-05-2.78694E-05-7.04497E-07 2.00877E-19 2.30364E-18
 -1      1952 9.32487E-05-2.80225E-05-2.79569E-05-8.69336E-07 1.86207E-19 1.59649E-18
 -1      1953 9.35316E-05-2.80962E-05-2.80417E-05-5.93991E-07 4.89699E-19 2.58680E-18
 -1      1954 9.33212E-05-2.80322E-05-2.79821E-05-6.25614E-07 1.50134E-19 2.41022E-18
 -1      1955 9.35579E-05-2.81221E-05-2.80457E-05-7.82491E-07 1.92023E-19 1.56649E-18
 -1      1956 9.38511E-05-2.81901E-05-2.81389E-05-5.05452E-07 5.28426E-19 2.35625E-18
 -1      1957 9.36668E-05-2.81356E-05-2.80862E-05-5.39140E-07 5.94463E-19 2.54074E-18
 -1      1958 9.38478E-05-2.82089E-05-2.81321E-05-6.81288E-07 5.26100E-19 1.47967E-18
 -1      1959 9.41295E-05-2.82693E-05-2.82246E-05-4.23519E-07 6.48584E-19 1.53815E-18
 -1      1960 9.39714E-05-2.82237E-05-2.81790E-05-4.55399E-07 4.47032E-19 1.97015E-18
 -1      1961 9.41091E-05-2.82827E-05-2.82120E-05-5.80187E-07 7.87767E-19 1.41255E-18
 -1      1962 9.43695E-05-2.83354E-05-2.82994E-05-3.53893E-07 1.91796E-19 1.60656E-18
 -1      1963 9.42351E-05-2.82976E-05-2.82602E-05-3.81282E-07 2.91488E-19 1.47265E-18
 -1      1964 9.43396E-05-2.83442E-05-2.82841E-05-4.88873E-07 3.96395E-19 8.22725E-19
 -1      1965 9.45779E-05-2.83909E-05-2.83650E-05-3.00584E-07 1.46668E-19 1.80934E-18
 -1      1966 9.44628E-05-2.83593E-05-2.83311E-05-3.21523E-07 2.49288E-19 1.86995E-18
 -1      1967 9.45420E-05-2.83953E-05-2.83489E-05-4.13995E-07 2.67518E-19 1.02745E-18
 -1      1968 9.47646E-05-2.84388E-05-2.84245E-05-2.66724E-07 4.35883E-19 1.60204E-18
 -1      1969 9.46627E-05-2.84116E-05-2.83940E-05-2.79621E-07 3.00652E-19 1.63800E-18
 -1      1970 9.47225E-05-2.84382E-05-2.84079E-05-3.60413E-07 4.10911E-19 1.14678E-18
 -1      1971 9.49416E-05-2.84827E-05-2.84813E-05-2.55146E-07 7.40476E-19 9.92368E-19
 -1      1972 9.48459E-05-2.84577E-05-2.84523E-05-2.58520E-07 6.62246E-19 1.35786E-18
 -1      1973 9.48903E-05-2.84758E-05-2.84638E-05-3.32109E-07 8.76290E-19 1.39963E-18
 -1      1974 9.51232E-05-2.85270E-05-2.85399E-05-2.68796E-07 1.15643E-19 7.27304E-19
 -1      1975 9.50255E-05-2.85017E-05-2.85100E-05-2.61091E-07 4.52884E-19 6.51391E-19
 -1      1976 9.50565E-05-2.85114E-05-2.85199E-05-3.32832E-07 6.18643E-19 6.11344E-19
 -1      1977 9.53259E-05-2.85762E-05-2.86053E-05-3.10969E-07-6.38822E-19 2.13396E-19
 -1      1978 9.52168E-05-2.85478E-05-2.85717E-05-2.90438E-07-3.59866E-19 7.37207E-19
 -1      1979 9.52343E-05-2.85487E-05-2.85804E-05-3.66524E-07-1.26056E-19 1.18468E-19
 -1      1980 9.55683E-05-2.86358E-05-2.86831E-05-3.85347E-07-4.42542E-22 2.83052E-19
 -1      1981 9.54373E-05-2.86011E-05-2.86427E-05-3.50028E-07-5.12525E-19 1.06412E-19
 -1      1982 9.54390E-05-2.85920E-05-2.86500E-05-4.37512E-07-4.86353E-19-4.51769E-19
 -1      1983 9.58715E-05-2.87121E-05-2.87797E-05-4.95798E-07 9.41788E-19-2.32208E-19
 -1      1984 9.57066E-05-2.86674E-05-2.87291E-05-4.43599E-07 3.61122E-19-1.07861E-20
 -1      1985 9.56878E-05-2.86463E-05-2.87337E-05-5.50423E-07 3.06277E-19-8.95042E-19
 -1      1986 9.62582E-05-2.88122E-05-2.89018E-05-6.45834E-07 9.88627E-19 1.20174E-19
 -1      1987 9.60466E-05-2.87535E-05-2.88372E-05-5.74770E-07 1.16151E-18 1.03578E-19
 -1      1988 9.59999E-05-2.87176E-05-2.88375E-05-7.09756E-07 1.03069E-18-2.50029E-19
 -1      1989 9.67530E-05-2.89442E-05-2.90566E-05-8.37593E-07-4.40623E-19 3.06881E-19
 -1      1990 9.64809E-05-2.88669E-05-2.89741E-05-7.46260E-07 3.39076E-19 5.38927E-19
 -1      1991 9.63960E-05-2.88128E-05-2.89671E-05-9.18959E-07 3.71249E-19-3.74997E-20
 -1      1992 9.73799E-05-2.91170E-05-2.92506E-05-1.07015E-06-1.56685E-18 3.79280E-19
 -1      1993 9.70338E-05-2.90161E-05-2.91465E-05-9.58522E-07-1.21997E-18 2.40002E-19
 -1      1994 9.68978E-05-2.89400E-05-2.91283E-05-1.17883E-06-1.10951E-18 2.80708E-19
 -1      1995 9.81606E-05-2.93397E-05-2.94894E-05-1.33694E-06-1.06418E-18 9.85590E-19
 -1      1996 9.77286E-05-2.92105E-05-2.93607E-05-1.20761E-06-1.73081E-18 3.62495E-19
 -1      1997 9.75260E-05-2.91085E-05-2.93260E-05-1.48501E-06-1.70596E-18 4.93423E-19
 -1      1998 9.91095E-05-2.96214E-05-2.97756E-05-1.62196E-06-1.50369E-19 2.24314E-18
 -1      1999 9.85845E-05-2.94597E-05-2.96207E-05-1.48199E-06-4.24512E-19 1.48764E-18
 -1      2000 9.82982E-05-2.93289E-05-2.95631E-05-1.82423E-06-7.92194E-19 6.90207E-19
 -1      2001 1.00227E-04-2.99692E-05-3.01068E-05-1.89475E-06 2.64768E-19 3.48562E-18
 -1      2002 9.96109E-05-2.97726E-05-2.99270E-05-1.75820E-06 1.64774E-19 2.54288E-18
 -1      2003 9.92246E-05-2.96126E-05-2.98391E-05-2.16919E-06 1.15880E-19 1.58641E-18
 -1      2004 1.01492E-04-3.03861E-05-3.04729E-05-2.10426E-06-1.92741E-19 2.41634E-18
 -1      2005 1.00800E-04-3.01556E-05-3.02740E-05-1.99531E-06 4.19861E-19 3.72277E-18
 -1      2006 1.00302E-04-2.99704E-05-3.01478E-05-2.47202E-06 4.76109E-19 3.04677E-18
 -1      2007 1.02847E-04-3.08665E-05-3.08520E-05-2.17305E-06 6.75357E-19 3.07193E-18
 -1      2008 1.02117E-04-3.06095E-05-3.06465E-05-2.12912E-06 2.25908E-19 2.43971E-18
 -1      2009 1.01508E-04-3.04106E-05-3.04754E-05-2.65728E-06 3.91504E-19 3.35992E-18
 -1      2010 1.04187E-04-3.13903E-05-3.12076E-05-1.99491E-06-1.07605E-19 3.36762E-18
 -1      2011 1.03487E-04-3.11241E-05-3.10168E-05-2.06813E-06 5.07886E-19 2.84781E-18
 -1      2012 1.02786E-04-3.09337E-05-3.07974E-05-2.61692E-06 6.11715E-19 4.20641E-18
 -1      2013 1.05344E-04-3.19126E-05-3.14867E-05-1.44250E-06-3.52571E-19 1.67532E-18
 -1      2014 1.04779E-04-3.16692E-05-3.13417E-05-1.69636E-06-4.93508E-19 2.38542E-18
 -1      2015 1.04037E-04-3.15226E-05-3.10780E-05-2.21250E-06 4.71361E-20 2.91011E-18
 -1      2016 1.06083E-04-3.23511E-05-3.16226E-05-3.95385E-07-1.11348E-19 8.63592E-19
 -1      2017 1.05795E-04-3.21825E-05-3.15628E-05-8.91177E-07-5.82186E-19 1.38386E-18
 -1      2018 1.05106E-04-3.21275E-05-3.12713E-05-1.29428E-06 2.61224E-20 1.26275E-18
 -1      2019 1.06119E-04-3.25745E-05-3.15454E-05 1.19922E-06-3.58103E-19 1.41108E-18
 -1      2020 1.06270E-04-3.25541E-05-3.16126E-05 4.32656E-07-2.22187E-19 8.29510E-19
 -1      2021 1.05772E-04-3.26437E-05-3.13277E-05 2.50079E-07-2.82638E-19 3.37007E-19
 -1      2022 1.05161E-04-3.24068E-05-3.12034E-05 3.23041E-06 1.05136E-18 1.28012E-18
 -1      2023 1.05899E-04-3.26202E-05-3.14286E-05 2.24463E-06 4.64743E-19 1.87695E-18
 -1      2024 1.05763E-04-3.28948E-05-3.12061E-05 2.40600E-06 3.41566E-19 4.54174E-19
 -1      2025 1.03020E-04-3.16713E-05-3.05907E-05 5.32485E-06 2.61673E-18 3.79305E-19
 -1      2026 1.04412E-04-3.21862E-05-3.09768E-05 4.30046E-06 1.67586E-18 1.04112E-18
 -1      2027 1.04803E-04-3.26473E-05-3.08920E-05 4.91354E-06 1.70494E-18 2.69560E-19
 -1      2028 9.97680E-05-3.02958E-05-2.97727E-05 6.82758E-06 1.81520E-19 9.85338E-19
 -1      2029 1.01718E-04-3.11078E-05-3.02784E-05 6.08193E-06 1.29985E-18 7.05605E-19
 -1      2030 1.02736E-04-3.16938E-05-3.04126E-05 7.18245E-06 1.79174E-18 2.75718E-18
 -1      2031 9.58914E-05-2.84608E-05-2.88891E-05 6.98159E-06-1.57919E-18 2.98678E-19
 -1      2032 9.80870E-05-2.94344E-05-2.94262E-05 6.87596E-06-9.83353E-19 8.93573E-19
 -1      2033 9.97071E-05-3.00215E-05-2.98415E-05 8.35678E-06-5.30136E-19 2.50925E-18
 -1      2034 9.23069E-05-2.66736E-05-2.81226E-05 5.34910E-06 3.67599E-19 5.28257E-19
 -1      2035 9.42491E-05-2.75380E-05-2.85761E-05 6.08024E-06-1.20444E-18 2.99995E-19
 -1      2036 9.63171E-05-2.79881E-05-2.92827E-05 7.65046E-06-9.51139E-19-3.08161E-19
 -1      2037 9.00599E-05-2.55922E-05-2.76365E-05 2.24089E-06-7.06339E-19 7.37678E-19
 -1      2038 9.12340E-05-2.60501E-05-2.79047E-05 3.64720E-06 8.13946E-22 6.30507E-19
 -1      2039 9.35333E-05-2.62935E-05-2.88399E-05 4.89447E-06-4.37148E-19 1.14753E-19
 -1      2040 8.97920E-05-2.56427E-05-2.75095E-05-1.25696E-06 4.68548E-19 3.48878E-18
 -1      2041 8.99117E-05-2.55421E-05-2.75465E-05 3.11872E-07-3.08651E-19 1.99971E-18
 -1      2042 9.22575E-05-2.56466E-05-2.85800E-05 8.81218E-07-9.69211E-19 1.34428E-18
 -1      2043 9.13253E-05-2.66957E-05-2.77104E-05-3.82927E-06-4.96742E-19 3.89537E-18
 -1      2044 9.04948E-05-2.61418E-05-2.75431E-05-2.68582E-06 5.76975E-19 4.19725E-18
 -1      2045 9.27726E-05-2.62720E-05-2.85170E-05-2.89410E-06 2.17310E-19 4.14968E-18
 -1      2046 9.37637E-05-2.81575E-05-2.81154E-05-4.68669E-06-8.91600E-19 3.71304E-18
 -1      2047 9.24245E-05-2.74383E-05-2.78312E-05-4.30165E-06-6.65518E-19 3.40628E-18
 -1      2048 9.45510E-05-2.77634E-05-2.86184E-05-5.07508E-06-3.64878E-19 4.26416E-18
 -1      2049 9.60367E-05-2.93714E-05-2.85557E-05-3.91690E-06 1.37718E-18 2.07141E-18
 -1      2050 9.47246E-05-2.87782E-05-2.82643E-05-4.23428E-06 1.27730E-19 2.89386E-18
 -1      2051 9.66031E-05-2.93403E-05-2.88106E-05-5.18531E-06 3.65561E-19 2.90895E-18
 -1      2052 9.74264E-05-2.99696E-05-2.88878E-05-2.23594E-06 2.27042E-18 2.29196E-18
 -1      2053 9.65286E-05-2.96606E-05-2.86758E-05-2.93966E-06 1.88540E-18 2.32663E-18
 -1      2054 9.80707E-05-3.03618E-05-2.90038E-05-3.71152E-06 2.07861E-18 2.39336E-18
 -1      2055 9.77432E-05-2.99249E-05-2.90410E-05-5.06949E-07 7.31479E-19 2.63589E-18
 -1      2056 9.73894E-05-2.99077E-05-2.89444E-05-1.22286E-06 1.46116E-18 2.56778E-18
 -1      2057 9.85600E-05-3.05870E-05-2.91245E-05-1.62235E-06 1.10665E-18 3.89066E-18
 -1      2058 9.72218E-05-2.94376E-05-2.90296E-05 6.21708E-07-4.24891E-19 2.32041E-18
 -1      2059 9.73129E-05-2.96179E-05-2.90320E-05 1.76768E-07-1.78208E-20 2.70621E-18
 -1      2060 9.81353E-05-3.01368E-05-2.91418E-05 1.60288E-07 2.77608E-19 2.30959E-18
 -1      2061 9.63116E-05-2.88003E-05-2.89180E-05 8.80005E-07 5.12495E-19 2.74527E-18
 -1      2062 9.66307E-05-2.90496E-05-2.89752E-05 8.29077E-07-2.48493E-19 2.73305E-18
 -1      2063 9.71532E-05-2.93419E-05-2.90687E-05 1.06819E-06-3.60763E-19 3.59845E-18
 -1      2064 9.56448E-05-2.84128E-05-2.87985E-05 5.93846E-07 6.44476E-19 3.54497E-18
 -1      2065 9.59625E-05-2.86000E-05-2.88759E-05 8.03276E-07 8.48005E-19 3.09518E-18
 -1      2066 9.62712E-05-2.87001E-05-2.89705E-05 1.12000E-06 2.86577E-19 4.20695E-18
 -1      2067 9.56506E-05-2.82392E-05-2.88739E-05 8.05902E-07 5.97635E-19 4.75144E-18
 -1      2068 9.53646E-05-2.43243E-05-3.03949E-05 6.35936E-06-2.12140E-19-2.54273E-18
 -1      2069 9.57808E-05-2.58526E-05-2.99537E-05 5.22378E-06 5.49393E-19-1.32304E-18
 -1      2070 9.58251E-05-2.64779E-05-2.96702E-05 3.89527E-06 7.70928E-19-1.91480E-18
 -1      2071 9.59685E-05-2.74067E-05-2.93726E-05 2.95585E-06 1.06414E-18-1.15114E-18
 -1      2072 9.68072E-05-2.72936E-05-2.98191E-05 5.65705E-06-4.76350E-19-1.40571E-18
 -1      2073 9.57999E-05-2.75883E-05-2.91952E-05 2.04413E-06 1.17522E-18-2.88325E-19
 -1      2074 9.57918E-05-2.80744E-05-2.90087E-05 1.39461E-06 3.94143E-19 3.20723E-18
 -1      2075 9.61101E-05-2.82836E-05-2.90658E-05 1.63253E-06 5.74809E-19 2.92719E-18
 -1      2076 9.65985E-05-2.80366E-05-2.93857E-05 3.24477E-06-6.03571E-19-3.07685E-19
 -1      2077 9.41843E-05-2.10871E-05-3.13015E-05 8.78667E-06-3.15707E-18-6.29617E-18
 -1      2078 9.49829E-05-2.31994E-05-3.07410E-05 7.77161E-06-1.87896E-18-4.26471E-18
 -1      2079 9.63916E-05-2.55556E-05-3.03953E-05 8.74116E-06-1.63284E-18-5.21424E-18
 -1      2080 9.21689E-05-1.67637E-05-3.23324E-05 1.04351E-05-1.49748E-18-6.65788E-19
 -1      2081 9.33790E-05-1.93760E-05-3.16902E-05 9.88892E-06-2.61660E-18-2.55783E-18
 -1      2082 9.49963E-05-2.26661E-05-3.10362E-05 1.15836E-05-1.63528E-18-3.92881E-18
 -1      2083 8.95214E-05-1.19155E-05-3.33241E-05 1.03042E-05-9.12612E-19 1.16291E-18
 -1      2084 9.09596E-05-1.45991E-05-3.27078E-05 1.06522E-05-1.02473E-18 8.19665E-19
 -1      2085 9.24888E-05-1.86367E-05-3.16714E-05 1.31261E-05-4.08224E-19 4.30297E-19
 -1      2086 8.68759E-05-7.54235E-06-3.40977E-05 7.75469E-06-1.73632E-19 2.03928E-18
 -1      2087 8.81628E-05-9.71020E-06-3.36275E-05 9.19099E-06-1.11094E-18 2.62882E-18
 -1      2088 8.92294E-05-1.40366E-05-3.22070E-05 1.21894E-05 5.25756E-19 1.57250E-18
 -1      2089 8.51497E-05-4.88499E-06-3.44988E-05 2.98379E-06-1.25293E-19-6.23787E-19
 -1      2090 8.58328E-05-5.94416E-06-3.42804E-05 5.28805E-06-1.83535E-19 1.85103E-19
 -1      2091 8.61548E-05-9.99788E-06-3.25716E-05 8.19364E-06-1.77065E-18 1.25115E-18
 -1      2092 8.50729E-05-4.87434E-06-3.44435E-05-2.80950E-06-1.61593E-18 1.82694E-18
 -1      2093 8.48736E-05-4.48546E-06-3.45328E-05-2.63110E-07-7.33440E-19 6.89869E-19
 -1      2094 8.44535E-05-7.86398E-06-3.27273E-05 1.73447E-06-1.63929E-18-9.57816E-19
 -1      2095 8.66624E-05-7.52239E-06-3.39490E-05-7.83852E-06-5.86352E-19-8.71769E-19
 -1      2096 8.56723E-05-5.81269E-06-3.43243E-05-5.82023E-06-1.62636E-18 1.80055E-18
 -1      2097 8.48696E-05-8.44537E-06-3.26651E-05-5.35448E-06-1.28298E-18 1.10750E-18
 -1      2098 8.93333E-05-1.20968E-05-3.30977E-05-1.09363E-05 7.75108E-19 1.33431E-18
 -1      2099 8.78801E-05-9.45664E-06-3.36925E-05-9.86908E-06 6.72590E-19-3.63344E-19
 -1      2100 8.71766E-05-1.14921E-05-3.23901E-05-1.10232E-05 1.31158E-20 1.81338E-19
 -1      2101 9.22033E-05-1.73236E-05-3.20645E-05-1.15419E-05 1.08401E-18 7.17196E-19
 -1      2102 9.07041E-05-1.43859E-05-3.27493E-05-1.15640E-05 1.17716E-18 8.46475E-19
 -1      2103 9.04791E-05-1.59585E-05-3.19354E-05-1.39453E-05 9.43631E-19 8.17101E-19
 -1      2104 9.47078E-05-2.21544E-05-3.10687E-05-1.00410E-05 5.02079E-19-1.43320E-18
 -1      2105 9.33368E-05-1.94148E-05-3.16904E-05-1.09173E-05 5.70589E-19-9.20334E-19
 -1      2106 9.37145E-05-2.05574E-05-3.13774E-05-1.38619E-05 8.00281E-20-9.49657E-19
 -1      2107 6.59496E-05-4.55738E-05-9.34319E-06 4.37683E-05 5.96735E-18 5.60985E-18
 -1      2108 5.04107E-05-4.59341E-05-2.88922E-06 3.89742E-05 5.38374E-18 6.22061E-18
 -1      2109 1.41426E-05-3.56245E-05 8.13190E-06 6.16514E-06 4.41622E-18 5.77041E-18
 -1      2110 1.44276E-05-3.70970E-05 8.45537E-06-5.57237E-06 3.10618E-18 4.46895E-18
 -1      2111 3.16620E-05-3.76133E-05 1.87486E-06 3.14545E-05 6.24433E-18 7.41599E-18
 -1      2112 2.11382E-05-3.87909E-05 6.23367E-06 1.90727E-05 4.03696E-18 7.13625E-18
 -1      2113 1.08268E-04-5.03514E-05-2.48748E-05 4.45714E-05 4.35036E-18 2.85662E-18
 -1      2114 8.60159E-05-5.08311E-05-1.59860E-05 4.12843E-05 5.18215E-18 3.85019E-18
 -1      2115 1.47205E-04-4.50644E-05-4.30420E-05 3.30732E-05 5.47628E-18 6.51368E-19
 -1      2116 1.28251E-04-4.94353E-05-3.41116E-05 3.23955E-05 4.48144E-18 1.59877E-18
 -1      2117 8.72675E-05-8.72434E-06-3.37498E-05-1.05230E-05-2.11017E-19-2.60164E-18
 -1      2118 8.79636E-05-9.25327E-06-3.38202E-05-1.21098E-05-4.65779E-19-2.52617E-18
 -1      2119 9.04694E-05-1.30773E-05-3.32343E-05-1.19211E-05-6.27572E-19-2.27352E-18
 -1      2120 8.86681E-05-1.10337E-05-3.32955E-05-9.41072E-06-1.48135E-19-2.46154E-18
 -1      2121 1.83841E-04-2.62814E-05-6.62067E-05 7.97398E-06 4.81792E-18 5.93135E-19
 -1      2122 1.70632E-04-2.53950E-05-6.18798E-05 1.16821E-05 5.22111E-18 1.34170E-18
 -1      2123 1.80652E-04-2.16349E-05-6.72953E-05-1.08484E-06 5.16140E-18-1.37293E-18
 -1      2124 1.84263E-04-2.38733E-05-6.76621E-05 5.66580E-06 5.16605E-18 3.28437E-19
 -1      2125 1.59547E-04-1.33137E-05-6.16583E-05 3.08489E-08 5.33715E-18-1.84865E-19
 -1      2126 1.79145E-04-2.91187E-05-6.31442E-05-1.43500E-05 2.23066E-18-2.22558E-18
 -1      2127 1.84065E-04-2.65621E-05-6.64094E-05-5.28175E-06 3.58210E-18-1.72583E-18
 -1      2128 1.56110E-04-3.56409E-05-5.11414E-05-2.19954E-05 1.10331E-18-3.43557E-18
 -1      2129 1.74441E-04-3.38722E-05-5.85551E-05-2.12632E-05 1.95813E-18-2.66095E-18
 -1      2130 1.63872E-04-2.76749E-05-5.72488E-05-2.62777E-06 1.86305E-18-1.88677E-18
 -1      2131 1.24182E-04-4.40372E-05-3.47205E-05-3.36791E-05 1.65214E-18-1.97274E-18
 -1      2132 1.44081E-04-4.43289E-05-4.27100E-05-2.90257E-05 1.06218E-18-3.16875E-18
 -1      2133 8.72602E-05-4.42344E-05-1.94992E-05-3.90976E-05 7.77153E-19-2.71771E-18
 -1      2134 1.07149E-04-4.22798E-05-2.77194E-05-4.30777E-05 1.39760E-18-2.01086E-18
 -1      2135 5.35616E-05-4.46677E-05-5.20686E-06-3.59937E-05 3.14673E-19-3.53623E-19
 -1      2136 6.99621E-05-4.17504E-05-1.24300E-05-4.28096E-05 6.65768E-19-1.99963E-18
 -1      2137 2.51372E-05-4.14082E-05 5.37979E-06-2.41800E-05-8.92349E-19-2.25099E-18
 -1      2138 3.55224E-05-3.94368E-05 6.42632E-07-3.22724E-05 2.52839E-19 3.45378E-19
 -1      2139 1.22188E-05-3.93140E-05 9.90804E-06-4.53677E-06-1.32431E-18-4.06830E-18
 -1      2140 1.47087E-05-3.70541E-05 8.25492E-06-1.41589E-05-6.81862E-19-4.48927E-18
 -1      2141 1.86831E-05-3.90129E-05 7.34578E-06 1.57359E-05-2.68425E-18-6.06221E-18
 -1      2142 1.38851E-05-4.02815E-05 9.61558E-06 6.49111E-06-6.44592E-19-4.96742E-18
 -1      2143 4.65539E-05-4.18404E-05-2.71458E-06 3.38059E-05-2.85831E-18-4.81411E-18
 -1      2144 3.31701E-05-4.31721E-05 2.82291E-06 2.54035E-05-1.98545E-18-5.46019E-18
 -1      2145 8.63442E-05-4.84303E-05-1.66054E-05 4.05901E-05-3.86120E-18-1.14752E-18
 -1      2146 6.45958E-05-4.86840E-05-8.13618E-06 3.42828E-05-3.20602E-18-3.12195E-18
 -1      2147 6.70201E-05-4.75674E-05-8.46070E-06 3.97008E-05-3.28225E-19-2.24824E-18
 -1      2148 1.33071E-04-5.00007E-05-3.52111E-05 3.23171E-05-3.13360E-18-3.23228E-18
 -1      2149 1.12487E-04-5.28814E-05-2.61735E-05 3.06447E-05-3.96200E-18-2.02737E-18
 -1      2150 1.61776E-04-4.48651E-05-4.95085E-05 1.76711E-05-4.07688E-18-1.75336E-19
 -1      2151 1.43208E-04-4.66297E-05-4.16771E-05 2.26702E-05-3.48258E-18-2.29885E-18
 -1      2152 1.45675E-04-5.80126E-05-3.71904E-05 1.34801E-05-2.21584E-18-2.66392E-19
 -1      2153 1.85422E-04-3.40678E-05-6.32306E-05 7.65335E-06-4.80606E-18-4.59092E-19
 -1      2154 1.68817E-04-3.47049E-05-5.70931E-05 1.04939E-05-5.85469E-18-1.61360E-19
 -1      2155 1.93622E-04-2.82547E-05-6.92112E-05-2.63151E-06-3.55796E-18-1.44970E-18
 -1      2156 1.88331E-04-2.89098E-05-6.70353E-05 4.58868E-06-3.52112E-18-1.03973E-18
 -1      2157 1.84530E-04-2.55433E-05-6.70802E-05-9.95587E-06-2.91930E-18-1.59454E-18
 -1      2158 1.93058E-04-2.73107E-05-6.92265E-05-4.80414E-06-3.52112E-18-2.64994E-18
 -1      2159 1.72779E-04-3.41211E-05-5.85800E-05-1.97794E-05-2.17486E-18-2.54533E-19
 -1      2160 1.82135E-04-3.16854E-05-6.33418E-05-1.28127E-05-2.52839E-18-1.93251E-18
 -1      2161 1.48766E-04-4.13966E-05-4.59819E-05-3.03204E-05-2.20694E-18 1.09860E-18
 -1      2162 1.67517E-04-4.02600E-05-5.33930E-05-2.82244E-05-1.19882E-18 9.28348E-19
 -1      2163 1.17174E-04-4.82771E-05-3.01832E-05-3.75962E-05-3.30258E-18 1.64197E-18
 -1      2164 1.37611E-04-4.59698E-05-3.85946E-05-3.89889E-05-2.67027E-18 1.33027E-18
 -1      2165 8.19684E-05-5.06486E-05-1.44581E-05-4.05706E-05-2.10234E-18 2.72363E-18
 -1      2166 1.00643E-04-4.73500E-05-2.27940E-05-4.49018E-05-2.90913E-18 2.80961E-18
 -1      2167 4.48177E-05-4.64792E-05-7.19483E-07-3.43928E-05-8.85149E-19 5.52911E-18
 -1      2168 6.09983E-05-4.50532E-05-7.33404E-06-4.27670E-05-1.57802E-18 3.76485E-18
 -1      2169 1.99387E-05-4.09823E-05 7.50596E-06-1.72901E-05 2.30372E-18 4.59304E-18
 -1      2170 2.83447E-05-4.01555E-05 4.01334E-06-2.73697E-05-2.29969E-19 5.57221E-18
 -1      2171 1.68182E-04-3.55345E-05-5.61594E-05 1.81541E-05 5.27045E-18 1.31375E-18
 -1      2172 1.54107E-04-3.87488E-05-4.93252E-05 2.41924E-05 6.33724E-18 1.54075E-18
 -1      2173 1.52306E-04-4.85900E-05-4.39158E-05 1.34470E-05 3.47540E-18-8.44492E-19
 -1      2174 1.28675E-04-5.94475E-05-2.96033E-05 3.35555E-05 2.30965E-18-8.66091E-19
 -1      2175 9.71898E-05-2.43148E-05-3.13061E-05-1.00016E-05-1.20639E-18-8.22244E-19
 -1      2176 1.60143E-04-2.92457E-05-5.54105E-05 2.41304E-06 5.08008E-18 3.65495E-19
 -1      2177 9.63489E-05-2.30987E-05-3.14561E-05-1.03836E-05-1.22707E-18-1.11749E-18
 -1      2178 4.65079E-05-4.07913E-05-2.83120E-06 3.82277E-05 4.35375E-18 4.94244E-18
 -1      2179 4.35798E-05-3.21756E-05-4.38152E-06 3.76852E-05 2.30160E-18 4.19091E-18
 -1      2180 6.15935E-05-4.27404E-05-8.41978E-06 4.52347E-05 1.66844E-18 2.48477E-18
 -1      2181 2.16785E-05-2.72430E-05 2.08192E-06 1.54635E-05 4.06830E-18 6.54375E-18
 -1      2182 9.56634E-05-2.39549E-05-3.06973E-05-9.64015E-06 6.88413E-19-1.42503E-18
 -1      2183 8.88276E-05-5.40053E-05-1.48765E-05 4.61606E-05 2.69484E-18 2.69558E-18
 -1      2184 2.05028E-05-2.87953E-05 2.97212E-06-1.44478E-05 3.63801E-18 5.03180E-18
 -1      2185 4.41082E-05-3.96975E-05-2.35538E-06-3.78877E-05 7.63177E-19 5.64124E-18
 -1      2186 8.37627E-05-5.34768E-05-1.32185E-05-4.48589E-05 4.37916E-19 2.01454E-18
 -1      2187 1.22781E-04-5.94104E-05-2.70570E-05-3.67632E-05-1.29257E-18 8.57621E-19
 -1      2188 1.49961E-04-5.34442E-05-4.07991E-05-2.14555E-05-1.06059E-18-4.47657E-19
 -1      2189 1.63972E-04-3.89052E-05-5.26192E-05-7.62980E-06-2.83015E-19-3.40465E-18
 -1      2190 1.68344E-04-2.31453E-05-6.11281E-05-1.42659E-06-2.28572E-18-4.17206E-18
 -1      2191 1.70165E-04-1.64287E-05-6.44240E-05-3.82166E-06-3.00654E-18-3.36749E-18
 -1      2192 1.61107E-04-4.23337E-05-5.02750E-05-9.84970E-07-4.45963E-18 6.76356E-19
 -1      2193 1.11843E-04-5.95745E-05-2.23299E-05 3.33381E-05-1.84865E-18-7.67412E-19
 -1      2194 3.15498E-05-3.47152E-05 7.99346E-07 2.77039E-05-2.44157E-19-5.20544E-18
 -1      2195 1.41240E-05-2.87244E-05 5.41181E-06 1.97086E-06-1.15207E-18-4.87933E-18
 -1      2196 2.32112E-05-3.22777E-05 3.14623E-06-2.39484E-05-2.15824E-18-2.95064E-18
 -1      2197 5.39590E-05-4.27241E-05-5.29578E-06-4.13584E-05-7.66141E-19 3.79047E-20
 -1      2198 9.19710E-05-5.19948E-05-1.72835E-05-4.23815E-05-6.94567E-19-2.08391E-18
 -1      2199 1.50266E-04-4.35880E-05-4.53604E-05-1.73742E-05 4.87362E-19-1.71058E-18
 -1      2200 1.51835E-04-4.30787E-05-4.73096E-05-3.37020E-06 1.30020E-19-2.72533E-19
 -1      2201 1.44996E-04-5.14188E-05-3.96648E-05-1.21217E-05 6.79744E-20 6.79744E-20
 -1      2202 1.64315E-04-1.55691E-05-6.27109E-05 1.30408E-06 4.69172E-18-7.83082E-19
 -1      2203 1.26835E-04-5.39813E-05-3.07442E-05-3.13564E-05 4.49351E-19-1.58395E-18
 -1      2204 1.68523E-04-2.37053E-05-6.08202E-05-6.10053E-06-4.19662E-18-1.26504E-18
 -1      2205 9.52154E-05-2.63770E-05-2.94890E-05 4.19702E-06 1.15354E-18 2.35870E-18
 -1      2206 9.61903E-05-2.58625E-05-3.00670E-05 6.00215E-06 1.26555E-18 2.56183E-18
 -1      2207 8.81350E-05-1.11844E-05-3.30182E-05-3.66180E-06 6.42241E-19-2.05046E-18
 -1      2208 8.83693E-05-1.14553E-05-3.30003E-05-4.80378E-06 4.01396E-19-2.16803E-18
 -1      2209 8.87224E-05-1.19405E-05-3.29518E-05-5.82069E-06 2.66372E-19-2.28843E-18
 -1      2210 8.91277E-05-1.24114E-05-3.29236E-05-6.99633E-06 6.83181E-20-2.33684E-18
 -1      2211 8.98892E-05-1.38238E-05-3.25984E-05-4.90269E-06 3.32916E-19-2.07099E-18
 -1      2212 8.77894E-05-1.07256E-05-3.30614E-05 6.15802E-07 1.15957E-18-1.78097E-18
 -1      2213 8.77850E-05-1.07207E-05-3.30616E-05-4.95587E-07 1.01454E-18-1.88568E-18
 -1      2214 8.79702E-05-1.09503E-05-3.30429E-05 2.75865E-06 1.37819E-18-1.62110E-18
 -1      2215 8.78555E-05-1.08174E-05-3.30522E-05 1.63890E-06 1.21533E-18-1.75964E-18
 -1      2216 8.91073E-05-1.27721E-05-3.27182E-05 1.05018E-06 1.12888E-18-1.68953E-18
 -1      2217 8.84042E-05-1.14971E-05-3.29977E-05 4.88861E-06 1.55734E-18-1.22316E-18
 -1      2218 8.81649E-05-1.12205E-05-3.30158E-05 3.76514E-06 1.44746E-18-1.45161E-18
 -1      2219 8.93729E-05-1.31277E-05-3.26783E-05 3.02215E-06 1.34365E-18-1.41317E-18
 -1      2220 8.91832E-05-1.24792E-05-3.29190E-05 7.07658E-06 1.77009E-18-5.06221E-19
 -1      2221 8.87655E-05-1.19930E-05-3.29480E-05 5.90465E-06 1.65784E-18-9.11520E-19
 -1      2222 8.99298E-05-1.38753E-05-3.25938E-05 4.97697E-06 1.56299E-18-9.73472E-19
 -1      2223 9.04525E-05-1.40876E-05-3.27921E-05 9.22508E-06 2.05030E-18 2.08330E-19
 -1      2224 8.97721E-05-1.32768E-05-3.28374E-05 8.04632E-06 1.83558E-18-1.37021E-19
 -1      2225 9.08645E-05-1.51343E-05-3.24489E-05 6.87331E-06 1.70164E-18-2.28100E-19
 -1      2226 9.24505E-05-1.66593E-05-3.25824E-05 1.11092E-05 2.04037E-18 8.94851E-19
 -1      2227 9.13718E-05-1.53195E-05-3.26543E-05 1.00291E-05 2.03135E-18 4.97440E-19
 -1      2228 9.22875E-05-1.70878E-05-3.22079E-05 8.51844E-06 1.88523E-18 4.15188E-19
 -1      2229 1.38422E-04-6.07173E-05-3.35951E-05 2.48344E-05 2.45174E-18-1.94479E-18
 -1      2230 1.22085E-04-6.17436E-05-2.56276E-05 3.48637E-05 1.19495E-18-4.25952E-19
 -1      2231 9.42345E-05-2.71171E-05-2.87479E-05 1.76723E-06 8.09644E-19 2.03464E-18
 -1      2232 9.48354E-05-2.68936E-05-2.90465E-05 2.73993E-06 8.94301E-19 2.23173E-18
 -1      2233 9.53387E-05-2.58477E-05-2.97898E-05 4.36360E-06 1.16025E-18 1.47701E-18
 -1      2234 9.59114E-05-2.50910E-05-3.03038E-05-6.18831E-06-8.84527E-19-1.15164E-18
 -1      2235 9.52519E-05-2.58504E-05-2.97601E-05-4.28277E-06-7.46130E-19-1.13008E-18
 -1      2236 1.49597E-04-2.31273E-05-5.47729E-05-4.71608E-06 5.47480E-18 6.75932E-19
 -1      2237 1.49663E-04-3.40172E-05-4.98366E-05-2.59790E-06 4.05157E-18 5.62006E-19
 -1      2238 9.51364E-05-2.65354E-05-2.93431E-05-2.94029E-06-6.63384E-19-9.84060E-19
 -1      2239 9.46681E-05-2.69084E-05-2.90396E-05-1.87947E-06-5.42816E-19-9.94327E-19
 -1      2240 9.53362E-05-2.53528E-05-2.99953E-05-4.29662E-06-7.19182E-19-1.14457E-18
 -1      2241 9.44713E-05-2.72378E-05-2.87758E-05-1.02995E-06-4.94228E-19-8.68063E-19
 -1      2242 9.42128E-05-2.74513E-05-2.86095E-05-4.28667E-07-3.92405E-19-9.47853E-19
 -1      2243 9.50326E-05-2.67007E-05-2.92979E-05-1.92411E-06-5.17321E-19-9.07947E-19
 -1      2244 9.40637E-05-2.76317E-05-2.84482E-05 7.87087E-08-3.06272E-19-8.48016E-19
 -1      2245 9.39647E-05-2.77751E-05-2.83645E-05 4.07974E-07-2.98372E-19-7.03072E-19
 -1      2246 9.47258E-05-2.74276E-05-2.88548E-05-4.45432E-07-3.32015E-19-7.42986E-19
 -1      2247 9.38797E-05-2.78845E-05-2.82710E-05 6.90094E-07-3.12605E-19-6.82191E-19
 -1      2248 9.38846E-05-2.79912E-05-2.82379E-05 8.53697E-07-2.56726E-19-6.75957E-19
 -1      2249 9.45240E-05-2.78558E-05-2.85824E-05 4.23927E-07-4.50526E-19-6.65470E-19
 -1      2250 9.38527E-05-2.80631E-05-2.81890E-05 9.90507E-07-3.79376E-19-8.14151E-19
 -1      2251 9.39191E-05-2.81466E-05-2.81865E-05 1.05236E-06-4.39468E-19-8.18123E-19
 -1      2252 9.44304E-05-2.81247E-05-2.84243E-05 8.93878E-07-4.79220E-19-6.55445E-19
 -1      2253 9.39243E-05-2.81959E-05-2.81665E-05 1.09727E-06-3.38395E-19-9.21701E-19
 -1      2254 9.40225E-05-2.82621E-05-2.81817E-05 1.09771E-06-2.69333E-19-8.72895E-19
 -1      2255 9.44199E-05-2.83008E-05-2.83419E-05 1.10631E-06-3.95749E-19-1.05929E-18
 -1      2256 9.40507E-05-2.82965E-05-2.81799E-05 1.08679E-06-5.15230E-19-8.61637E-19
 -1      2257 9.41613E-05-2.83487E-05-2.82044E-05 1.05216E-06-6.45496E-19-7.32161E-19
 -1      2258 9.44641E-05-2.84179E-05-2.83088E-05 1.15722E-06-3.97008E-19-1.02623E-18
 -1      2259 9.42019E-05-2.83723E-05-2.82136E-05 1.00993E-06-5.97120E-19-8.65728E-19
 -1      2260 9.43130E-05-2.84128E-05-2.82421E-05 9.57806E-07-6.70761E-19-7.94197E-19
 -1      2261 9.45398E-05-2.84947E-05-2.83070E-05 1.11196E-06-6.64055E-19-7.88122E-19
 -1      2262 9.43589E-05-2.84283E-05-2.82575E-05 9.01033E-07-5.23751E-19-5.54578E-19
 -1      2263 9.44637E-05-2.84590E-05-2.82870E-05 8.43237E-07-1.71571E-19-5.22387E-19
 -1      2264 9.46305E-05-2.85430E-05-2.83243E-05 1.01522E-06-3.96790E-19-4.32339E-19
 -1      2265 9.45106E-05-2.84684E-05-2.83057E-05 7.83392E-07-1.44996E-19-2.75800E-19
 -1      2266 9.46061E-05-2.84909E-05-2.83344E-05 7.27954E-07 1.36639E-19-2.38601E-19
 -1      2267 9.47255E-05-2.85704E-05-2.83528E-05 8.97665E-07-3.15857E-20-4.52023E-21
 -1      2268 9.46518E-05-2.84955E-05-2.83546E-05 6.72963E-07 1.47856E-20-6.93668E-19
 -1      2269 9.47378E-05-2.85113E-05-2.83820E-05 6.25447E-07-2.66662E-19-7.69220E-19
 -1      2270 9.48188E-05-2.85822E-05-2.83874E-05 7.80449E-07-1.49120E-19-1.78483E-19
 -1      2271 9.47816E-05-2.85122E-05-2.84030E-05 5.80949E-07-4.51279E-19-8.82113E-19
 -1      2272 9.48597E-05-2.85228E-05-2.84291E-05 5.45416E-07-4.23448E-19-1.13346E-18
 -1      2273 9.49080E-05-2.85821E-05-2.84256E-05 6.78399E-07-4.38186E-19-4.34981E-19
 -1      2274 9.49022E-05-2.85207E-05-2.84509E-05 5.15707E-07-4.55622E-19-1.22877E-18
 -1      2275 9.49754E-05-2.85272E-05-2.84765E-05 4.95443E-07-5.74507E-19-9.49935E-19
 -1      2276 9.49933E-05-2.85728E-05-2.84662E-05 6.02391E-07-4.81754E-19-2.83080E-19
 -1      2277 9.50181E-05-2.85226E-05-2.84995E-05 4.84205E-07-6.57520E-19-8.94599E-19
 -1      2278 9.50907E-05-2.85263E-05-2.85258E-05 4.82289E-07-6.22366E-19-1.01810E-18
 -1      2279 9.50769E-05-2.85558E-05-2.85094E-05 5.61136E-07-6.72431E-19-1.08394E-19
 -1      2280 9.51358E-05-2.85195E-05-2.85509E-05 4.93160E-07-3.63452E-19-1.28709E-18
 -1      2281 9.52130E-05-2.85215E-05-2.85796E-05 5.12914E-07-3.15166E-19-1.16157E-18
 -1      2282 9.51625E-05-2.85321E-05-2.85565E-05 5.62566E-07-7.22018E-19-1.57042E-19
 -1      2283 9.52633E-05-2.85127E-05-2.86083E-05 5.49945E-07-7.39554E-19-1.26171E-18
 -1      2284 9.53516E-05-2.85142E-05-2.86413E-05 5.95309E-07-8.31719E-19-1.32253E-18
 -1      2285 9.52551E-05-2.85019E-05-2.86094E-05 6.14931E-07-4.29095E-19-4.99369E-19
 -1      2286 9.54105E-05-2.85034E-05-2.86751E-05 6.63327E-07-3.23458E-19-1.10319E-18
 -1      2287 9.55175E-05-2.85055E-05-2.87150E-05 7.39157E-07 4.72273E-19-6.97989E-19
 -1      2288 9.53609E-05-2.84649E-05-2.86710E-05 7.27656E-07-3.82018E-19 6.35562E-20
 -1      2289 9.55887E-05-2.84926E-05-2.87560E-05 8.44050E-07 1.08152E-18-1.28514E-18
 -1      2290 9.57234E-05-2.84968E-05-2.88056E-05 9.56353E-07 1.50715E-18-1.25671E-18
 -1      2291 9.54870E-05-2.84206E-05-2.87444E-05 9.12015E-07 5.58293E-19-2.49955E-19
 -1      2292 9.58110E-05-2.84817E-05-2.88559E-05 1.10526E-06 1.54309E-18-1.35662E-18
 -1      2293 9.59838E-05-2.84898E-05-2.89186E-05 1.26134E-06 1.36522E-18-1.32534E-18
 -1      2294 9.56413E-05-2.83679E-05-2.88336E-05 1.18160E-06 1.37861E-18-1.17744E-18
 -1      2295 9.60925E-05-2.84723E-05-2.89805E-05 1.46270E-06 1.04882E-18-1.05953E-18
 -1      2296 9.63153E-05-2.84865E-05-2.90601E-05 1.67114E-06 9.16733E-19-8.05867E-19
 -1      2297 9.58326E-05-2.83058E-05-2.89426E-05 1.55255E-06 1.26608E-18-9.48505E-19
 -1      2298 9.64496E-05-2.84667E-05-2.91361E-05 1.93458E-06 7.77538E-19-1.00395E-18
 -1      2299 9.67363E-05-2.84903E-05-2.92365E-05 2.20492E-06 6.48091E-19-7.06406E-19
 -1      2300 9.60701E-05-2.82336E-05-2.90756E-05 2.04342E-06 7.70047E-19-7.87503E-19
 -1      2301 9.69009E-05-2.84687E-05-2.93289E-05 2.54071E-06 5.07183E-19-9.70538E-19
 -1      2302 9.72667E-05-2.85065E-05-2.94543E-05 2.88261E-06 5.12312E-19-7.59124E-19
 -1      2303 9.63632E-05-2.81520E-05-2.92365E-05 2.67443E-06 4.98792E-19-1.05781E-18
 -1      2304 9.74667E-05-2.84858E-05-2.95644E-05 3.30048E-06 2.02979E-19-9.38795E-19
 -1      2305 9.79285E-05-2.85454E-05-2.97186E-05 3.72179E-06-8.44312E-20-7.52722E-19
 -1      2306 9.67222E-05-2.80647E-05-2.94278E-05 3.46562E-06-4.83777E-21-9.33352E-19
 -1      2307 9.81702E-05-2.85319E-05-2.98466E-05 4.22864E-06-3.44086E-19-4.34502E-19
 -1      2308 9.87464E-05-2.86265E-05-3.00320E-05 4.73164E-06-4.76681E-19-6.16512E-19
 -1      2309 9.71588E-05-2.79830E-05-2.96499E-05 4.43332E-06-1.69656E-19-1.30613E-18
 -1      2310 9.90399E-05-2.86345E-05-3.01756E-05 5.32731E-06-3.79070E-19-1.04512E-18
 -1      2311 9.97504E-05-2.87868E-05-3.03921E-05 5.90188E-06 2.60107E-20-1.37847E-18
 -1      2312 9.76897E-05-2.79326E-05-2.98990E-05 5.58351E-06-6.39466E-19-5.03490E-19
 -1      2313 1.00115E-04-2.88460E-05-3.05454E-05 6.57177E-06 1.14699E-19-9.52070E-19
 -1      2314 1.00983E-04-2.90957E-05-3.07885E-05 7.18376E-06-3.05351E-19-8.67535E-19
 -1      2315 9.83448E-05-2.79680E-05-3.01650E-05 6.90061E-06-1.81285E-20-8.42622E-19
 -1      2316 1.01460E-04-2.92632E-05-3.09410E-05 7.88661E-06-2.94349E-19-1.49700E-18
 -1      2317 1.02513E-04-2.96770E-05-3.11993E-05 8.45949E-06-9.73881E-20-1.00740E-18
 -1      2318 9.91841E-05-2.81944E-05-3.04296E-05 8.32904E-06-3.97009E-19 4.42756E-19
 -1      2319 1.03185E-04-3.00532E-05-3.13359E-05 9.10774E-06-3.65609E-19-1.07443E-18
 -1      2320 1.04458E-04-3.07350E-05-3.15901E-05 9.49719E-06-2.44775E-19-4.10980E-19
 -1      2321 1.00327E-04-2.88006E-05-3.06652E-05 9.74407E-06 3.38631E-20 5.56358E-19
 -1      2322 1.05475E-04-3.14780E-05-3.16954E-05 9.92671E-06 2.70050E-19-6.72399E-19
 -1      2323 1.07014E-04-3.25647E-05-3.19204E-05 9.89296E-06 9.59804E-19 1.73555E-19
 -1      2324 1.02002E-04-3.00940E-05-3.08405E-05 1.09071E-05 2.44444E-19 6.71987E-19
 -1      2325 1.08612E-04-3.38780E-05-3.19907E-05 9.82072E-06 6.81756E-19 2.83728E-19
 -1      2326 1.10439E-04-3.54857E-05-3.21672E-05 9.01772E-06 4.11936E-19 3.57779E-19
 -1      2327 1.04588E-04-3.25042E-05-3.09384E-05 1.13991E-05 4.92733E-19 8.89062E-20
 -1      2328 1.12901E-04-3.75227E-05-3.22393E-05 8.00068E-06 8.56850E-19 4.97615E-19
 -1      2329 1.14924E-04-3.95770E-05-3.23793E-05 6.03342E-06 9.55546E-19 3.38247E-19
 -1      2330 1.08614E-04-3.64599E-05-3.10003E-05 1.05369E-05 5.30760E-19 3.89531E-19
 -1      2331 1.18370E-04-4.21572E-05-3.25782E-05 3.47252E-06 7.39539E-19 6.13702E-20
 -1      2332 1.20187E-04-4.40309E-05-3.27657E-05 1.23171E-07 6.30583E-19 2.87971E-19
 -1      2333 1.14547E-04-4.19811E-05-3.12107E-05 7.29466E-06 7.08474E-19 1.70191E-19
 -1      2334 1.24000E-04-4.60808E-05-3.33452E-05-4.32292E-06 2.54821E-19 8.14945E-19
 -1      2335 1.24773E-04-4.63168E-05-3.37408E-05-8.49728E-06-4.03638E-19 9.32980E-19
 -1      2336 1.21940E-04-4.75955E-05-3.20143E-05 4.56266E-07 7.57967E-19 5.48765E-19
 -1      2337 1.27425E-04-4.58890E-05-3.50344E-05-1.40997E-05-9.70352E-19 8.89014E-19
 -1      2338 1.26010E-04-4.25117E-05-3.58289E-05-1.72905E-05-7.85795E-19 7.75505E-19
 -1      2339 1.28826E-04-4.96399E-05-3.41640E-05-9.99277E-06-3.40997E-19 5.50518E-19
 -1      2340 1.25227E-04-3.77969E-05-3.78464E-05-2.04629E-05-1.31200E-18-7.71065E-20
 -1      2341 1.21773E-04-3.13359E-05-3.88680E-05-1.97175E-05-1.32407E-18-1.03763E-18
 -1      2342 1.31080E-04-4.33122E-05-3.76722E-05-1.93247E-05-1.85868E-18 8.92376E-19
 -1      2343 1.18953E-04-2.49366E-05-4.07220E-05-1.59429E-05-1.48077E-18-1.94028E-18
 -1      2344 1.16261E-04-2.04953E-05-4.12941E-05-1.01319E-05-1.97401E-18-2.05694E-18
 -1      2345 1.26792E-04-2.81664E-05-4.24972E-05-1.92650E-05-2.31759E-18-6.55709E-19
 -1      2346 1.15461E-04-1.90820E-05-4.15978E-05-1.09986E-06-1.14201E-18-2.43449E-18
 -1      2347 1.16235E-04-2.12589E-05-4.11515E-05 5.80513E-06-8.44704E-19-1.88808E-18
 -1      2348 1.22289E-04-1.73361E-05-4.53480E-05-6.18244E-06-2.08338E-18-1.98777E-18
 -1      2349 1.18595E-04-2.65146E-05-3.95688E-05 1.19971E-05-3.56919E-19-1.57257E-18
 -1      2350 1.21455E-04-3.27598E-05-3.84164E-05 1.47064E-05-2.61363E-19-8.87095E-19
 -1      2351 1.24132E-04-2.27862E-05-4.37809E-05 9.92251E-06 3.85400E-20-1.63808E-18
 -1      2352 1.22910E-04-3.86294E-05-3.61927E-05 1.36865E-05-2.79733E-19-8.25592E-19
 -1      2353 1.24545E-04-4.31077E-05-3.50990E-05 1.15258E-05 7.03554E-19-6.58171E-20
 -1      2354 1.28737E-04-3.75740E-05-3.92855E-05 1.46439E-05-7.47507E-20-1.09797E-19
 -1      2355 1.22701E-04-4.49724E-05-3.34214E-05 6.37836E-06 1.35556E-18 3.06470E-19
 -1      2356 1.21966E-04-4.56275E-05-3.27211E-05 2.17411E-06 1.42195E-18 5.08921E-19
 -1      2357 1.28487E-04-4.77833E-05-3.46794E-05 7.25250E-06 7.87688E-19 1.05429E-19
 -1      2358 1.18055E-04-4.40079E-05-3.18536E-05-2.75146E-06 9.38426E-19 1.12202E-19
 -1      2359 1.15854E-04-4.22348E-05-3.14714E-05-6.46193E-06 1.94290E-18 9.96207E-19
 -1      2360 1.22254E-04-4.80912E-05-3.18662E-05-3.30415E-06 1.32895E-18-6.22913E-19
 -1      2361 1.11829E-04-3.93685E-05-3.11512E-05-9.50927E-06 2.07865E-18 1.08417E-18
 -1      2362 1.09176E-04-3.68199E-05-3.09224E-05-1.16863E-05 1.35367E-18 2.54861E-19
 -1      2363 1.14054E-04-4.27727E-05-3.06530E-05-1.11372E-05 1.82982E-18 1.55159E-18
 -1      2364 1.05944E-04-3.40447E-05-3.08723E-05-1.27678E-05 7.08728E-20 6.86530E-19
 -1      2365 1.03445E-04-3.16448E-05-3.07110E-05-1.32752E-05-5.33137E-19 5.98650E-19
 -1      2366 1.06734E-04-3.60445E-05-3.03746E-05-1.48808E-05 1.01167E-18 6.80860E-19
 -1      2367 9.33384E-05-2.76914E-05-2.81271E-05-4.07311E-07 2.30812E-19 1.40453E-18
 -1      2368 9.34169E-05-2.75864E-05-2.81886E-05-1.21933E-07 4.82705E-19 1.62946E-18
 -1      2369 9.32862E-05-2.78556E-05-2.80370E-05-8.13356E-07 2.55176E-19 1.03387E-18
 -1      2370 9.32416E-05-2.77647E-05-2.80485E-05-6.74252E-07 2.19712E-19 1.15221E-18
 -1      2371 9.40097E-05-2.78083E-05-2.83832E-05-4.40009E-07 4.60574E-19 7.38797E-19
 -1      2372 9.33790E-05-2.79909E-05-2.80204E-05-9.89141E-07 4.33660E-19 8.86069E-19
 -1      2373 9.32667E-05-2.79103E-05-2.80035E-05-9.38264E-07 2.80875E-19 9.44495E-19
 -1      2374 9.39221E-05-2.80174E-05-2.82530E-05-8.87318E-07 3.19951E-19 3.94152E-19
 -1      2375 9.35526E-05-2.81054E-05-2.80468E-05-1.02438E-06 5.04612E-19 1.14983E-18
 -1      2376 9.34086E-05-2.80348E-05-2.80148E-05-1.02624E-06 5.03142E-19 1.07780E-18
 -1      2377 9.39501E-05-2.81662E-05-2.81985E-05-1.08393E-06 3.04841E-19 3.74467E-19
 -1      2378 9.37629E-05-2.82018E-05-2.80964E-05-9.77162E-07 2.21374E-22 1.33025E-18
 -1      2379 9.36100E-05-2.81414E-05-2.80577E-05-1.00896E-06 3.51198E-19 1.41583E-18
 -1      2380 9.40479E-05-2.82763E-05-2.81912E-05-1.12575E-06 3.09330E-19 8.99064E-19
 -1      2381 9.39816E-05-2.82814E-05-2.81565E-05-8.86040E-07 4.40063E-19 1.03679E-18
 -1      2382 9.38334E-05-2.82310E-05-2.81164E-05-9.32728E-07 1.50430E-19 1.13738E-18
 -1      2383 9.41819E-05-2.83586E-05-2.82119E-05-1.07637E-06 2.61225E-19 9.22350E-19
 -1      2384 9.41922E-05-2.83458E-05-2.82195E-05-7.76852E-07 6.27871E-19 8.67297E-19
 -1      2385 9.40558E-05-2.83047E-05-2.81808E-05-8.28374E-07 5.84590E-19 1.00701E-18
 -1      2386 9.43295E-05-2.84195E-05-2.82481E-05-9.78556E-07 6.43612E-19 6.26743E-19
 -1      2387 9.43864E-05-2.83968E-05-2.82809E-05-6.67020E-07 7.92258E-19 9.28524E-19
 -1      2388 9.42646E-05-2.83639E-05-2.82452E-05-7.16606E-07 8.47329E-19 1.09020E-18
 -1      2389 9.44768E-05-2.84632E-05-2.82920E-05-8.61234E-07 6.08763E-19 7.07644E-19
 -1      2390 9.45615E-05-2.84362E-05-2.83390E-05-5.68405E-07 1.89057E-19 9.85986E-19
 -1      2391 9.44543E-05-2.84104E-05-2.83065E-05-6.11428E-07 5.21138E-19 9.46142E-19
 -1      2392 9.46164E-05-2.84933E-05-2.83386E-05-7.44100E-07 6.74886E-19 1.07476E-18
 -1      2393 9.47193E-05-2.84663E-05-2.83936E-05-4.89318E-07 2.04782E-19 1.00785E-18
 -1      2394 9.46245E-05-2.84462E-05-2.83639E-05-5.22485E-07 6.89310E-20 9.53088E-19
 -1      2395 9.47457E-05-2.85124E-05-2.83857E-05-6.40731E-07 2.14460E-19 8.36904E-19
 -1      2396 9.48646E-05-2.84893E-05-2.84457E-05-4.35971E-07 5.55847E-19 9.47957E-19
 -1      2397 9.47783E-05-2.84735E-05-2.84179E-05-4.56736E-07 5.18929E-19 1.11232E-18
 -1      2398 9.48654E-05-2.85229E-05-2.84326E-05-5.60808E-07 1.96183E-19 8.90467E-19
 -1      2399 9.50045E-05-2.85077E-05-2.84973E-05-4.13539E-07 1.08471E-18 8.91118E-19
 -1      2400 9.49219E-05-2.84945E-05-2.84701E-05-4.19674E-07 7.42686E-19 1.16208E-18
 -1      2401 9.49789E-05-2.85268E-05-2.84797E-05-5.11731E-07 4.94565E-19 4.50298E-19
 -1      2402 9.51483E-05-2.85240E-05-2.85513E-05-4.26907E-07 4.57681E-19 7.32630E-19
 -1      2403 9.50632E-05-2.85117E-05-2.85229E-05-4.16205E-07 1.19482E-18 1.16907E-18
 -1      2404 9.50914E-05-2.85260E-05-2.85285E-05-4.99784E-07 1.02505E-18 8.34274E-19
 -1      2405 9.53068E-05-2.85412E-05-2.86112E-05-4.81135E-07-4.56125E-19 2.87711E-19
 -1      2406 9.52123E-05-2.85279E-05-2.85794E-05-4.51241E-07-1.67730E-19 3.11359E-19
 -1      2407 9.52100E-05-2.85224E-05-2.85812E-05-5.30948E-07 4.23467E-19 8.83571E-19
 -1      2408 9.54928E-05-2.85628E-05-2.86808E-05-5.81631E-07-9.98445E-20-2.10078E-19
 -1      2409 9.53808E-05-2.85461E-05-2.86434E-05-5.30005E-07-4.18267E-19-1.12628E-19
 -1      2410 9.53433E-05-2.85180E-05-2.86406E-05-6.11361E-07-2.62025E-19 4.58693E-19
 -1      2411 9.57208E-05-2.85930E-05-2.87646E-05-7.33975E-07 3.48638E-19-3.03420E-19
 -1      2412 9.55822E-05-2.85702E-05-2.87190E-05-6.58024E-07 1.92278E-19-1.40918E-19
 -1      2413 9.55012E-05-2.85155E-05-2.87099E-05-7.47432E-07 1.86746E-19 1.31042E-19
 -1      2414 9.60068E-05-2.86371E-05-2.88672E-05-9.43297E-07 9.74385E-19-7.26320E-20
 -1      2415 9.58317E-05-2.86048E-05-2.88107E-05-8.40735E-07 6.90481E-19-4.41596E-19
 -1      2416 9.56954E-05-2.85184E-05-2.87923E-05-9.45516E-07 6.57599E-19 3.02756E-19
 -1      2417 9.63682E-05-2.87021E-05-2.89932E-05-1.21305E-06-5.80040E-20 4.98497E-19
 -1      2418 9.61462E-05-2.86561E-05-2.89230E-05-1.08256E-06 4.24299E-19-5.74477E-22
 -1      2419 9.59390E-05-2.85321E-05-2.88914E-05-1.21105E-06 4.73646E-19 4.41822E-19
 -1      2420 9.68233E-05-2.87970E-05-2.91467E-05-1.54295E-06-1.43362E-18 5.22999E-19
 -1      2421 9.65437E-05-2.87320E-05-2.90604E-05-1.38530E-06-4.45133E-19 2.83719E-19
 -1      2422 9.62468E-05-2.85638E-05-2.90102E-05-1.54693E-06-3.38330E-19 7.78076E-19
 -1      2423 9.73900E-05-2.89335E-05-2.93306E-05-1.92585E-06-1.61004E-18 5.03066E-19
 -1      2424 9.70430E-05-2.88430E-05-2.92264E-05-1.74550E-06-1.92925E-18 3.36214E-19
 -1      2425 9.66349E-05-2.86247E-05-2.91510E-05-1.95095E-06-1.57022E-18 3.32861E-19
 -1      2426 9.80842E-05-2.91269E-05-2.95455E-05-2.34314E-06-7.48014E-19 4.04860E-19
 -1      2427 9.76626E-05-2.90030E-05-2.94230E-05-2.15066E-06-1.31973E-18 2.33898E-19
 -1      2428 9.71210E-05-2.87304E-05-2.93146E-05-2.41194E-06-1.45572E-18 7.33439E-20
 -1      2429 9.89173E-05-2.93964E-05-2.97886E-05-2.75870E-06 4.22290E-19 2.80468E-19
 -1      2430 9.84185E-05-2.92298E-05-2.96494E-05-2.57389E-06 4.03383E-20 3.34185E-19
 -1      2431 9.77240E-05-2.89032E-05-2.94995E-05-2.90434E-06-2.87959E-19-4.74126E-19
 -1      2432 9.98926E-05-2.97648E-05-3.00520E-05-3.11142E-06 2.38205E-19 1.38324E-18
 -1      2433 9.93222E-05-2.95458E-05-2.99009E-05-2.96695E-06 1.02211E-19 6.92028E-19
 -1      2434 9.84633E-05-2.91733E-05-2.97010E-05-3.38120E-06 1.23657E-19-1.25223E-18
 -1      2435 1.01000E-04-3.02569E-05-3.03213E-05-3.30745E-06-4.24607E-20 2.69858E-18
 -1      2436 1.00376E-04-2.99769E-05-3.01672E-05-3.25239E-06 1.37314E-19 2.37517E-18
 -1      2437 9.93576E-05-2.95791E-05-2.99108E-05-3.76577E-06-2.68538E-19 2.65573E-19
 -1      2438 1.02207E-04-3.08924E-05-3.05750E-05-3.21540E-06 2.03271E-19 2.85033E-18
 -1      2439 1.01565E-04-3.05486E-05-3.04317E-05-3.31647E-06 3.95667E-19 3.07744E-18
 -1      2440 1.00422E-04-3.01645E-05-3.01164E-05-3.94337E-06-3.37996E-19 8.08631E-19
 -1      2441 1.03449E-04-3.16712E-05-3.07849E-05-2.67052E-06 8.25262E-19 1.92305E-18
 -1      2442 1.02851E-04-3.12754E-05-3.06711E-05-3.00760E-06 1.04595E-18 3.38447E-18
 -1      2443 1.01661E-04-3.09684E-05-3.03027E-05-3.75710E-06 5.65045E-19 1.23043E-18
 -1      2444 1.04611E-04-3.25464E-05-3.09209E-05-1.49903E-06-2.18376E-20 1.20832E-18
 -1      2445 1.04149E-04-3.21396E-05-3.08577E-05-2.14869E-06 2.18194E-19 1.63817E-18
 -1      2446 1.03051E-04-3.20000E-05-3.04550E-05-3.01485E-06 7.38075E-19 1.61284E-18
 -1      2447 1.05511E-04-3.33826E-05-3.09585E-05 4.22784E-07-2.71772E-19 1.17191E-18
 -1      2448 1.05310E-04-3.30543E-05-3.09651E-05-5.77621E-07-1.29255E-19 1.44228E-18
 -1      2449 1.04511E-04-3.31946E-05-3.05654E-05-1.52056E-06-1.66185E-19 2.14699E-18
 -1      2450 1.05881E-04-3.39155E-05-3.08910E-05 3.05934E-06 9.12843E-19 1.24501E-18
 -1      2451 1.06087E-04-3.38156E-05-3.09772E-05 1.76616E-06 7.78906E-20 9.32802E-19
 -1      2452 1.05859E-04-3.43479E-05-3.06407E-05 8.51405E-07 1.23941E-19 2.57932E-18
 -1      2453 1.05402E-04-3.37627E-05-3.07387E-05 6.06771E-06 1.13349E-18 2.21851E-18
 -1      2454 1.06141E-04-3.40777E-05-3.08980E-05 4.70040E-06 9.27279E-19 1.62643E-18
 -1      2455 1.06762E-04-3.50621E-05-3.07088E-05 4.01708E-06 8.63507E-19 2.46002E-18
 -1      2456 1.03821E-04-3.25567E-05-3.05478E-05 8.69286E-06 6.58740E-19 3.47102E-18
 -1      2457 1.05120E-04-3.34224E-05-3.07547E-05 7.65336E-06 1.52577E-18 3.25847E-18
 -1      2458 1.06770E-04-3.47931E-05-3.08135E-05 7.49930E-06 5.09997E-19 2.96139E-18
 -1      2459 1.01185E-04-3.02412E-05-3.03708E-05 9.85186E-06-2.51597E-19 2.61135E-18
 -1      2460 1.02870E-04-3.15852E-05-3.05873E-05 9.63494E-06 1.93553E-19 3.42845E-18
 -1      2461 1.05488E-04-3.30824E-05-3.09917E-05 1.03156E-05 6.30302E-19 3.38708E-18
 -1      2462 9.80956E-05-2.74091E-05-3.02343E-05 8.59143E-06-7.31608E-19 1.28023E-18
 -1      2463 9.97476E-05-2.88282E-05-3.04242E-05 9.52744E-06-6.30763E-19 2.31963E-18
 -1      2464 1.02952E-04-3.00200E-05-3.12322E-05 1.11338E-05 4.12043E-19 3.23078E-18
 -1      2465 9.56723E-05-2.52610E-05-3.01255E-05 4.85819E-06-1.38238E-20 9.65958E-19
 -1      2466 9.67628E-05-2.61508E-05-3.02653E-05 6.78817E-06 4.95799E-19 6.88760E-19
 -1      2467 9.99791E-05-2.66220E-05-3.14519E-05 8.95613E-06-1.23659E-19 2.47426E-18
 -1      2468 9.49215E-05-2.48881E-05-3.00032E-05-1.24911E-07-1.14465E-18 6.89069E-19
 -1      2469 9.51063E-05-2.48182E-05-3.00888E-05 2.11581E-06-1.22299E-18 9.21430E-20
 -1      2470 9.79407E-05-2.44880E-05-3.15296E-05 4.08440E-06-4.47293E-19 6.52036E-19
 -1      2471 9.60452E-05-2.64629E-05-2.98411E-05-4.32601E-06-3.13677E-19 2.46966E-18
 -1      2472 9.53892E-05-2.55329E-05-2.98724E-05-2.67085E-06-1.07842E-18 7.81811E-19
 -1      2473 9.78504E-05-2.47599E-05-3.13584E-05-1.64921E-06-8.65661E-19-1.20659E-18
 -1      2474 9.81480E-05-2.89851E-05-2.96761E-05-6.21755E-06 2.29001E-19 1.73114E-18
 -1      2475 9.70844E-05-2.77382E-05-2.96583E-05-5.67048E-06 6.77310E-19 2.62781E-18
 -1      2476 9.95070E-05-2.72544E-05-3.09617E-05-5.77703E-06-2.56086E-19 1.33595E-19
 -1      2477 9.99921E-05-3.11268E-05-2.95421E-05-5.58684E-06 1.24066E-18 9.02080E-19
 -1      2478 9.90417E-05-3.01575E-05-2.94961E-05-6.07689E-06 8.12053E-19 1.52725E-18
 -1      2479 1.01628E-04-3.04318E-05-3.04766E-05-6.93805E-06 1.16268E-18-1.20366E-18
 -1      2480 1.00776E-04-3.21000E-05-2.94462E-05-3.35364E-06 1.55143E-18 1.30467E-18
 -1      2481 1.00272E-04-3.17028E-05-2.94023E-05-4.41293E-06 1.28567E-18 1.39237E-18
 -1      2482 1.02921E-04-3.27369E-05-3.00415E-05-5.40587E-06 1.10526E-18-4.86750E-19
 -1      2483 1.00379E-04-3.18404E-05-2.93677E-05-7.72128E-07 9.55028E-19 1.43941E-18
 -1      2484 1.00394E-04-3.20016E-05-2.93515E-05-1.86248E-06 9.63794E-19 1.96856E-18
 -1      2485 1.02839E-04-3.34251E-05-2.97246E-05-2.52990E-06 1.09075E-18-4.31217E-19
 -1      2486 9.91246E-05-3.07349E-05-2.92852E-05 1.15731E-06-3.32328E-19 1.91358E-18
 -1      2487 9.95269E-05-3.12589E-05-2.93041E-05 4.21374E-07 5.50452E-19 1.98794E-18
 -1      2488 1.01544E-04-3.25934E-05-2.95256E-05 2.86508E-07 5.47002E-19-2.45964E-19
 -1      2489 9.74707E-05-2.93315E-05-2.91823E-05 1.89465E-06-9.92606E-19 3.24804E-18
 -1      2490 9.80491E-05-2.99312E-05-2.92329E-05 1.69627E-06-9.22915E-19 2.52104E-18
 -1      2491 9.95273E-05-3.08496E-05-2.94073E-05 2.12498E-06-7.27792E-19 1.58232E-18
 -1      2492 9.64757E-05-2.85761E-05-2.91081E-05 1.76115E-06-3.75087E-19 3.37465E-18
 -1      2493 9.62604E-05-2.45663E-05-3.07295E-05 1.37133E-05 6.71505E-21-1.32848E-18
 -1      2494 9.74551E-05-2.63156E-05-3.04551E-05 1.23998E-05-4.90291E-19-5.13770E-18
 -1      2495 9.27528E-05-2.06063E-05-3.09814E-05 1.52741E-05 8.55179E-19 2.01742E-18
 -1      2496 9.47194E-05-2.28294E-05-3.07518E-05 1.49690E-05-8.02531E-20 9.82222E-19
 -1      2497 9.68872E-05-2.67076E-05-3.01218E-05 1.61165E-05 3.44369E-19 1.00386E-19
 -1      2498 9.84237E-05-2.84698E-05-2.99194E-05 6.84010E-06-1.26405E-18-2.84831E-18
 -1      2499 9.82957E-05-2.91087E-05-2.96671E-05 5.30665E-06-4.42798E-19-1.50603E-18
 -1      2500 9.80524E-05-2.71507E-05-3.03522E-05 1.04689E-05-1.92879E-18-6.83775E-18
 -1      2501 9.85101E-05-2.83152E-05-3.00799E-05 8.84949E-06-1.34851E-18-4.01599E-18
 -1      2502 1.00174E-04-3.03686E-05-2.99036E-05 8.50386E-06-9.72940E-19-3.87826E-18
 -1      2503 9.94533E-05-2.93143E-05-3.01010E-05 1.26211E-05-5.39469E-19-4.46812E-18
 -1      2504 8.81058E-05-1.58568E-05-3.10727E-05 1.37001E-05 5.16746E-19 1.54531E-18
 -1      2505 9.04189E-05-1.81262E-05-3.09167E-05 1.49611E-05 7.80865E-19 1.17899E-18
 -1      2506 9.21491E-05-2.23569E-05-2.99381E-05 1.72974E-05 5.92921E-19 1.26162E-18
 -1      2507 8.38692E-05-1.16966E-05-3.10467E-05 8.35752E-06-1.73935E-18 1.70558E-19
 -1      2508 8.56933E-05-1.33452E-05-3.09689E-05 1.12585E-05-8.45685E-19 6.44215E-19
 -1      2509 8.63388E-05-1.71484E-05-2.96210E-05 1.45058E-05 1.92324E-19 5.52254E-19
 -1      2510 8.19671E-05-9.82325E-06-3.09920E-05 2.39105E-07-1.44356E-18 8.77652E-19
 -1      2511 8.24647E-05-1.02350E-05-3.09803E-05 4.09744E-06-2.43777E-18-2.69343E-19
 -1      2512 8.16456E-05-1.29645E-05-2.93428E-05 7.34946E-06-1.69860E-18 3.36729E-20
 -1      2513 8.33324E-05-1.10881E-05-3.09658E-05-8.02132E-06-4.21445E-19 1.87794E-18
 -1      2514 8.22844E-05-1.01286E-05-3.10155E-05-4.45415E-06-5.24562E-19 2.66743E-19
 -1      2515 8.03305E-05-1.17612E-05-2.92768E-05-2.33878E-06-9.69193E-19 1.02939E-18
 -1      2516 8.72819E-05-1.49516E-05-3.09490E-05-1.40412E-05 1.63707E-19-1.47146E-19
 -1      2517 8.51851E-05-1.29681E-05-3.10662E-05-1.16963E-05 9.25797E-20 4.28327E-19
 -1      2518 8.29943E-05-1.40752E-05-2.94710E-05-1.13734E-05 2.39303E-21 1.59260E-18
 -1      2519 9.20232E-05-1.97903E-05-3.08945E-05-1.63712E-05 6.14215E-19 1.49116E-19
 -1      2520 8.97165E-05-1.74229E-05-3.10726E-05-1.56963E-05 3.94808E-19 7.82581E-19
 -1      2521 8.82339E-05-1.86410E-05-2.98326E-05-1.69636E-05 4.78004E-19 3.98675E-19
 -1      2522 9.60167E-05-2.40457E-05-3.07748E-05-1.52377E-05-1.42960E-18-2.09160E-18
 -1      2523 9.41345E-05-2.18991E-05-3.09899E-05-1.60071E-05-6.16063E-19-8.44841E-19
 -1      2524 9.40045E-05-2.34697E-05-3.02313E-05-1.81247E-05-5.64108E-19-1.20852E-18
 -1      2525 3.14181E-05-2.23629E-05-3.40951E-06 2.28018E-05 3.45166E-18 5.78566E-18
 -1      2526 2.46945E-05-1.94623E-05-1.72638E-06 7.00876E-06 4.36431E-18 3.87433E-18
 -1      2527 1.01012E-04-5.70915E-05-1.90243E-05 4.46141E-05 5.83394E-19 5.50466E-19
 -1      2528 8.32485E-05-5.18346E-05-1.32630E-05 4.56100E-05 9.62865E-19 1.38829E-18
 -1      2529 9.36220E-05-2.74720E-05-2.83385E-05 3.72634E-07 6.62568E-19 1.74226E-18
 -1      2530 9.39050E-05-2.73362E-05-2.84857E-05 9.06113E-07 7.68495E-19 1.96900E-18
 -1      2531 9.42665E-05-2.74894E-05-2.86324E-05 4.06716E-07 7.31844E-19 9.67647E-19
 -1      2532 9.72939E-05-2.54866E-05-3.07951E-05-1.14220E-05 2.93891E-19-8.54918E-19
 -1      2533 2.36155E-05-2.02468E-05-1.09387E-06-9.09111E-06 4.30965E-18 5.66453E-18
 -1      2534 3.01733E-05-2.48463E-05-1.94378E-06-2.40174E-05 3.17150E-18 6.57213E-18
 -1      2535 9.50724E-05-2.00242E-05-3.22121E-05-1.17356E-05-1.08516E-18-1.48977E-18
 -1      2536 9.54741E-05-2.33870E-05-3.09257E-05-7.98215E-06-9.91776E-19-1.30163E-18
 -1      2537 9.50670E-05-2.25359E-05-3.10523E-05-7.66581E-06-8.65995E-19-1.40429E-18
 -1      2538 9.32178E-05-1.75774E-05-3.24148E-05-1.13656E-05-9.11351E-19-1.74849E-18
 -1      2539 4.09051E-05-3.14744E-05-3.72789E-06-3.34450E-05 1.96596E-18 6.35952E-18
 -1      2540 5.66012E-05-3.85361E-05-7.68934E-06-4.30926E-05 1.08230E-18 3.91160E-18
 -1      2541 4.33721E-05-2.53372E-05-7.09813E-06-2.87387E-05 3.10618E-18 7.58476E-18
 -1      2542 4.28872E-05-3.09255E-05-4.91001E-06 3.30130E-05 7.86047E-19-3.18633E-18
 -1      2543 2.89410E-05-2.55758E-05-1.11208E-06 2.13968E-05 1.84018E-19-4.65360E-18
 -1      2544 8.78414E-05-1.08002E-05-3.30534E-05-1.51867E-06 9.47377E-19-2.00554E-18
 -1      2545 8.79468E-05-1.09223E-05-3.30447E-05-2.63776E-06 7.98940E-19-2.04527E-18
 -1      2546 8.93459E-05-1.30947E-05-3.26811E-05-2.93050E-06 6.85113E-19-1.91434E-18
 -1      2547 8.90975E-05-1.27600E-05-3.27193E-05-9.41120E-07 9.00713E-19-1.86576E-18
 -1      2548 1.20813E-04-5.86093E-05-2.66982E-05-3.09667E-05-5.74924E-19-7.53012E-19
 -1      2549 1.33562E-04-5.81139E-05-3.26906E-05-2.27841E-05-5.88794E-19-7.95576E-19
 -1      2550 1.44565E-04-1.01988E-05-5.81607E-05-5.13390E-07 5.69248E-18-7.84591E-19
 -1      2551 1.45161E-04-1.35420E-05-5.68749E-05-3.89290E-06 5.82250E-18 6.35275E-20
 -1      2552 1.48815E-04-1.52774E-05-5.75995E-05 6.32073E-06 3.61492E-18-9.33854E-20
 -1      2553 1.44672E-04-9.99883E-06-5.84021E-05 4.57409E-06 4.83571E-18 4.63221E-21
 -1      2554 1.51456E-04-3.07380E-05-5.19497E-05 4.31903E-06 4.14834E-19-1.11830E-18
 -1      2555 1.52779E-04-2.36192E-05-5.58514E-05 5.75491E-06 1.74573E-18-5.45489E-19
 -1      2556 1.54858E-04-1.91258E-05-5.85042E-05-9.71477E-06-3.60878E-18-2.13675E-18
 -1      2557 1.52884E-04-2.48014E-05-5.52924E-05-1.22367E-05-4.42829E-18-1.36838E-18
 -1      2558 8.90929E-05-5.22076E-05-1.56486E-05-4.21608E-05-1.61275E-18-1.44531E-18
 -1      2559 1.06565E-04-5.59954E-05-2.17365E-05-3.98303E-05-1.21719E-18-1.23047E-18
 -1      2560 1.17678E-04-5.99318E-05-2.44225E-05-3.19061E-05-2.35285E-18 1.95347E-19
 -1      2561 5.03911E-05-3.70153E-05-5.52743E-06-3.95835E-05-1.72456E-18 1.50560E-19
 -1      2562 6.81195E-05-4.33889E-05-1.05583E-05-4.50161E-05-1.08590E-18-1.24874E-18
 -1      2563 2.24956E-05-2.35078E-05 6.17259E-07-2.00453E-05-2.30054E-18-3.14800E-18
 -1      2564 3.39252E-05-2.89432E-05-2.01189E-06-3.31354E-05-2.82104E-18-1.32095E-18
 -1      2565 4.92368E-05-3.11038E-05-7.26097E-06-3.67690E-05-2.67662E-18-9.83617E-19
 -1      2566 2.06256E-05-2.12344E-05 5.45097E-07 1.10151E-05-1.57294E-18-4.56508E-18
 -1      2567 1.80139E-05-1.96390E-05 9.80579E-07-3.78252E-06-2.02859E-18-3.25091E-18
 -1      2568 3.27403E-05-1.97822E-05-4.94436E-06 1.63443E-05-5.18014E-19-3.46987E-18
 -1      2569 8.10858E-05-4.97711E-05-1.35417E-05 4.11591E-05 8.00446E-20-7.80329E-19
 -1      2570 6.35086E-05-4.19651E-05-8.84963E-06 3.81286E-05 7.79270E-19-2.62728E-18
 -1      2571 1.26236E-04-6.31784E-05-2.73602E-05 2.57912E-05-1.10199E-18 4.12929E-21
 -1      2572 1.03890E-04-5.84621E-05-1.92179E-05 3.40335E-05-7.05790E-19 2.54851E-19
 -1      2573 1.47950E-04-5.80583E-05-3.90797E-05 4.43348E-06-2.47842E-18 6.26804E-19
 -1      2574 1.40274E-04-6.17499E-05-3.35955E-05 1.10893E-05-1.19167E-18-1.79995E-19
 -1      2575 1.55937E-04-3.71940E-05-5.12757E-05-1.03134E-05-4.66038E-18-9.43806E-19
 -1      2576 1.51134E-04-4.71964E-05-4.47727E-05-6.32144E-06-3.70757E-18 7.30142E-19
 -1      2577 1.52566E-04-1.32954E-05-6.00785E-05-2.26656E-06-2.44200E-18-2.39514E-18
 -1      2578 1.53612E-04-1.44641E-05-6.00196E-05-6.22165E-06-2.88415E-18-2.50446E-18
 -1      2579 1.52916E-04-2.46174E-05-5.53169E-05 5.22312E-06-1.05223E-18-4.45561E-18
 -1      2580 1.53145E-04-1.76664E-05-5.84889E-05 2.77438E-06-1.64579E-18-2.70839E-18
 -1      2581 1.55204E-04-4.49428E-05-4.74311E-05-2.34290E-06-8.57621E-20-3.13021E-18
 -1      2582 1.56990E-04-3.67564E-05-5.20010E-05 2.28342E-06-4.57610E-19-5.30899E-18
 -1      2583 1.44042E-04-5.94417E-05-3.63540E-05-1.69605E-05 2.36534E-19-3.01840E-18
 -1      2584 1.52841E-04-5.39809E-05-4.26425E-05-1.03321E-05 1.22317E-19-2.82422E-18
 -1      2585 1.18589E-04-6.20359E-05-2.41902E-05-3.58578E-05 9.02937E-19-9.66147E-19
 -1      2586 1.33567E-04-6.27302E-05-3.05979E-05-2.99853E-05 1.97570E-19-1.97655E-18
 -1      2587 7.98777E-05-5.03623E-05-1.23917E-05-4.50011E-05 2.00514E-18 7.72388E-19
 -1      2588 1.00885E-04-5.75786E-05-1.86564E-05-4.47497E-05 1.19093E-18 1.23775E-18
 -1      2589 1.50496E-04-4.70957E-05-4.48555E-05 4.64256E-06 3.28744E-18 9.51006E-19
 -1      2590 1.46463E-04-5.41016E-05-3.95523E-05 1.00940E-05 2.37685E-18 1.16467E-20
 -1      2591 9.63352E-05-2.50956E-05-3.05571E-05 7.59451E-06 1.40283E-18 2.84666E-18
 -1      2592 9.74569E-05-2.37792E-05-3.15976E-05 1.06941E-05 1.48308E-18 3.18000E-18
 -1      2593 9.58910E-05-2.13036E-05-3.20219E-05 1.18960E-05 1.70406E-18 2.53508E-18
 -1      2594 9.58792E-05-2.41616E-05-3.07694E-05 7.68606E-06 1.51515E-18 1.99018E-18
 -1      2595 1.34347E-04-6.01891E-05-3.15765E-05-1.62687E-05-1.95686E-18 1.54764E-18
 -1      2596 1.40077E-04-5.73205E-05-3.54194E-05-1.43452E-05-3.77988E-19 6.36969E-19
 -1      2597 1.41709E-04-5.48812E-05-3.80019E-05-4.64173E-06-1.15048E-18 2.25025E-18
 -1      2598 9.08080E-05-1.50662E-05-3.24568E-05-6.79427E-06 1.60287E-20-2.21417E-18
 -1      2599 8.97054E-05-1.32046E-05-3.28433E-05-7.96848E-06-6.97104E-20-2.34234E-18
 -1      2600 9.04038E-05-1.40313E-05-3.27967E-05-9.14421E-06-2.71547E-19-2.34808E-18
 -1      2601 1.26277E-04-6.30675E-05-2.72835E-05 2.93363E-05 6.83979E-20-7.36072E-19
 -1      2602 1.16057E-04-6.12732E-05-2.32873E-05 3.82901E-05-2.10488E-19-7.06743E-20
 -1      2603 1.09434E-04-5.81482E-05-2.15318E-05 3.99506E-05 1.72054E-19-1.00966E-18
 -1      2604 1.41628E-04-5.96699E-05-3.52280E-05 1.42547E-05 2.85498E-18 8.90761E-19
 -1      2605 9.42464E-05-1.90819E-05-3.22585E-05 1.16051E-05 1.83113E-18 1.62816E-18
 -1      2606 1.45651E-04-4.05450E-05-4.52373E-05-4.88695E-06 3.69963E-18 1.18712E-18
 -1      2607 7.53809E-05-4.42613E-05-1.28502E-05-4.31133E-05 2.30012E-18 1.30824E-18
 -1      2608 1.14929E-04-6.15616E-05-2.25708E-05-3.75101E-05 2.69145E-18-1.88751E-18
 -1      2609 7.68115E-05-4.58825E-05-1.26873E-05 4.54430E-05-2.23617E-19 2.79415E-19
 -1      2610 5.88184E-05-3.45789E-05-9.80376E-06 3.44678E-05 1.38691E-18-2.94492E-18
 -1      2611 1.41163E-04-6.36829E-05-3.31082E-05-1.81538E-05 1.51248E-18-4.72750E-18
 -1      2612 9.73835E-05-2.90647E-05-2.92842E-05 2.56102E-06-7.94426E-19 1.87031E-18
 -1      2613 9.77241E-05-2.89305E-05-2.94520E-05 3.51481E-06-3.24976E-19 1.84911E-19
 -1      2614 1.50745E-04-5.13300E-05-4.26677E-05 6.08344E-07 5.59042E-19-5.02163E-18
 -1      2615 3.24293E-05-1.71417E-05-5.88901E-06-1.47305E-06 4.18741E-18 5.61138E-18
 -1      2616 4.13096E-05-2.55829E-05-6.14641E-06 2.94826E-05 2.45767E-18 4.48440E-18
 -1      2617 4.21095E-05-1.92535E-05-9.22761E-06 2.23487E-05 2.98981E-18 4.16041E-18
 -1      2618 5.21932E-05-2.88932E-05-9.85014E-06 3.54480E-05 7.99176E-19 1.01623E-18
 -1      2619 1.47865E-04-3.06874E-05-5.04679E-05 8.47746E-06-4.24999E-19-4.58287E-18
 -1      2620 1.41790E-04-1.44352E-05-5.47935E-05 2.54285E-06-1.61932E-18-1.57103E-18
 -1      2621 9.47325E-05-2.69392E-05-2.90668E-05 1.88676E-06 9.26093E-19 1.17211E-18
 -1      2622 9.20862E-05-1.62846E-05-3.25218E-05-1.03770E-05-6.57217E-19-2.08631E-18
 -1      2623 1.46783E-04-3.12988E-05-4.97069E-05-1.63538E-05-4.19790E-18-8.60374E-19
 -1      2624 1.47980E-04-5.31413E-05-4.07133E-05-8.30577E-06-2.59704E-18 8.85996E-19
 -1      2625 1.33700E-04-6.37318E-05-2.98129E-05 1.49824E-05-2.76662E-19 3.36696E-20
 -1      2626 2.72361E-05-1.81386E-05-3.33106E-06-1.21011E-05-2.59806E-18-3.46458E-18
 -1      2627 8.48102E-05-4.85482E-05-1.51349E-05-4.23861E-05-2.09704E-18-5.22725E-19
 -1      2628 1.42379E-04-1.49394E-05-5.47622E-05-1.01582E-05-2.89728E-18-1.83060E-18
 -1      2629 1.47365E-04-3.82070E-05-4.68845E-05 4.93290E-06-4.07635E-19 6.22569E-19
 -1      2630 1.39738E-04-1.77103E-05-5.25170E-05 1.05851E-05 2.40176E-18 6.50839E-19
 -1      2631 1.38872E-04-1.86198E-05-5.18599E-05-7.10435E-06 5.56289E-18 2.81215E-19
 -1      2632 1.34405E-04-9.10141E-06-5.41034E-05 2.10732E-06 5.16902E-18-7.44158E-19
 -1      2633 1.00139E-04-5.50098E-05-1.88971E-05 3.43223E-05 3.78624E-19-4.57027E-19
 -1      2634 9.98446E-05-2.82531E-05-3.06215E-05-1.22750E-05-5.84315E-19-2.28259E-19
 -1      2635 9.75831E-05-2.57552E-05-3.07919E-05-1.41839E-05-6.02548E-19-9.89380E-19
 -1      2636 9.84479E-05-2.73719E-05-3.04779E-05-1.63656E-05-2.36440E-18-4.93161E-19
 -1      2637 1.01790E-04-3.00693E-05-3.07659E-05-1.30333E-05-9.21905E-19 3.29125E-19
 -1      2638 9.47165E-05-2.06036E-05-3.17183E-05 9.67226E-06 1.75344E-18 1.34613E-18
 -1      2639 9.91497E-05-3.02576E-05-2.95584E-05 4.49743E-06-8.57669E-19-3.59459E-19
 -1      2640 1.01909E-04-3.08236E-05-3.04984E-05-1.53041E-05-1.20125E-18 2.78217E-19
 -1      2641 9.05597E-05-1.51757E-05-3.23297E-05 3.19671E-06 1.31582E-18-1.21440E-18
 -1      2642 9.03696E-05-1.49042E-05-3.23625E-05 2.26254E-06 1.22215E-18-1.39808E-18
 -1      2643 9.02353E-05-1.47016E-05-3.23915E-05 1.42338E-06 1.13130E-18-1.60976E-18
 -1      2644 9.01702E-05-1.46092E-05-3.24025E-05 4.65935E-07 1.05228E-18-1.66010E-18
 -1      2645 9.14215E-05-1.65971E-05-3.20547E-05 1.64254E-06 1.08256E-18-1.46016E-18
 -1      2646 9.21414E-05-1.75527E-05-3.20045E-05 6.47653E-06 1.69728E-18-4.97483E-20
 -1      2647 9.16170E-05-1.67583E-05-3.21046E-05 5.63712E-06 1.58858E-18-4.39076E-19
 -1      2648 9.35627E-05-1.97783E-05-3.16644E-05 7.59884E-06 1.67835E-18 4.43720E-19
 -1      2649 9.27717E-05-1.85227E-05-3.18380E-05 7.02039E-06 1.68914E-18 2.40822E-19
 -1      2650 9.34361E-05-1.98686E-05-3.15061E-05 5.73702E-06 1.48776E-18 1.25463E-19
 -1      2651 1.01909E-04-3.24521E-05-2.97612E-05 6.17527E-06-1.39366E-18-2.79755E-18
 -1      2652 1.01062E-04-3.20088E-05-2.95830E-05 3.99627E-06-1.23297E-18-5.72771E-19
 -1      2653 1.02185E-04-3.31682E-05-2.96315E-05 3.42415E-06-1.04862E-18-1.41183E-18
 -1      2654 9.52174E-05-2.54091E-05-2.99302E-05 3.98015E-06 1.15987E-18 9.86814E-19
 -1      2655 9.55543E-05-2.45591E-05-3.03942E-05 5.61321E-06 1.30811E-18 1.15051E-18
 -1      2656 4.32875E-05-2.01066E-05-9.39785E-06-2.28618E-05 4.07179E-18 7.97884E-18
 -1      2657 5.31082E-05-2.69938E-05-1.09150E-05-3.37263E-05 3.64775E-18 6.31760E-18
 -1      2658 6.95851E-05-3.67669E-05-1.35012E-05-3.99855E-05 3.62625E-18 5.39348E-19
 -1      2659 8.97272E-05-4.88516E-05-1.75470E-05-4.32916E-05 3.67273E-18-2.40007E-18
 -1      2660 9.53566E-05-2.59047E-05-2.97375E-05-2.70989E-06-4.13691E-19-1.08874E-18
 -1      2661 9.51928E-05-2.64902E-05-2.94548E-05-1.72498E-06-3.51327E-19-9.62274E-19
 -1      2662 9.52163E-05-2.70074E-05-2.92090E-05-9.85009E-07-2.90418E-19-8.48947E-19
 -1      2663 9.50818E-05-2.73619E-05-2.90290E-05-3.80510E-07-2.60828E-19-8.73076E-19
 -1      2664 9.54165E-05-2.63324E-05-2.96128E-05-1.62502E-06-3.49735E-19-9.15197E-19
 -1      2665 9.50488E-05-2.76680E-05-2.88614E-05 8.54546E-08-3.10282E-19-7.93860E-19
 -1      2666 9.49706E-05-2.78924E-05-2.87507E-05 4.35455E-07-4.20048E-19-7.30361E-19
 -1      2667 9.54161E-05-2.73278E-05-2.91881E-05-3.47127E-07-3.12460E-19-8.17420E-19
 -1      2668 9.49284E-05-2.80778E-05-2.86400E-05 7.03806E-07-5.74534E-19-5.85717E-19
 -1      2669 9.48997E-05-2.82245E-05-2.85761E-05 8.85998E-07-5.36010E-19-7.06099E-19
 -1      2670 9.53554E-05-2.79430E-05-2.88978E-05 4.40574E-07-4.96932E-19-7.70831E-19
 -1      2671 9.48646E-05-2.83363E-05-2.85060E-05 1.01910E-06-5.98153E-19-7.10097E-19
 -1      2672 9.48712E-05-2.84331E-05-2.84734E-05 1.09305E-06-5.26269E-19-8.79713E-19
 -1      2673 9.52910E-05-2.83239E-05-2.87056E-05 8.80268E-07-6.44924E-19-4.48678E-19
 -1      2674 9.48467E-05-2.84982E-05-2.84318E-05 1.13755E-06-3.38864E-19-7.71323E-19
 -1      2675 9.48753E-05-2.85612E-05-2.84197E-05 1.14423E-06-3.32430E-19-7.97577E-19
 -1      2676 9.52416E-05-2.85553E-05-2.85839E-05 1.08400E-06-3.96070E-19-4.94078E-19
 -1      2677 9.48605E-05-2.85956E-05-2.83979E-05 1.13393E-06-4.37359E-19-5.88734E-19
 -1      2678 9.49009E-05-2.86349E-05-2.83988E-05 1.10159E-06-4.71628E-19-3.42395E-19
 -1      2679 9.52098E-05-2.86886E-05-2.85120E-05 1.13536E-06-3.35774E-19-2.07276E-19
 -1      2680 9.48936E-05-2.86489E-05-2.83905E-05 1.06055E-06-4.13631E-19-3.30724E-19
 -1      2681 9.49391E-05-2.86712E-05-2.83994E-05 1.00871E-06-2.39611E-19-2.68222E-19
 -1      2682 9.51928E-05-2.87563E-05-2.84748E-05 1.09480E-06-3.06137E-19-3.51532E-20
 -1      2683 9.49371E-05-2.86715E-05-2.84002E-05 9.53906E-07-1.04485E-19-2.11747E-19
 -1      2684 9.49835E-05-2.86814E-05-2.84140E-05 8.96048E-07 5.74977E-21-3.11638E-19
 -1      2685 9.51868E-05-2.87796E-05-2.84617E-05 1.00544E-06-2.19262E-19-3.37933E-19
 -1      2686 9.49852E-05-2.86722E-05-2.84209E-05 8.39400E-07-2.09142E-19-4.42896E-19
 -1      2687 9.50302E-05-2.86730E-05-2.84375E-05 7.84943E-07-2.59774E-19-4.24672E-19
 -1      2688 9.51885E-05-2.87726E-05-2.84650E-05 8.97726E-07-2.69045E-19-5.31974E-19
 -1      2689 9.50344E-05-2.86572E-05-2.84487E-05 7.34914E-07-3.08624E-19-6.18659E-19
 -1      2690 9.50776E-05-2.86509E-05-2.84671E-05 6.90603E-07-4.91453E-19-5.35385E-19
 -1      2691 9.51954E-05-2.87444E-05-2.84798E-05 7.93233E-07-4.04285E-19-6.23487E-19
 -1      2692 9.50836E-05-2.86300E-05-2.84815E-05 6.53430E-07-3.09696E-19-3.68014E-19
 -1      2693 9.51254E-05-2.86182E-05-2.85015E-05 6.24405E-07-2.62881E-19-2.83422E-19
 -1      2694 9.52059E-05-2.87006E-05-2.85028E-05 7.07555E-07-3.36083E-19-9.12186E-19
 -1      2695 9.51328E-05-2.85928E-05-2.85186E-05 6.05046E-07-5.05790E-19-3.02514E-20
 -1      2696 9.51748E-05-2.85762E-05-2.85404E-05 5.95653E-07-6.52069E-19 6.98797E-20
 -1      2697 9.52190E-05-2.86443E-05-2.85325E-05 6.52565E-07-3.61781E-19-6.49924E-19
 -1      2698 9.51835E-05-2.85461E-05-2.85604E-05 5.98529E-07-9.46053E-19 3.72918E-19
 -1      2699 9.52277E-05-2.85249E-05-2.85846E-05 6.12955E-07-8.12462E-19 7.71014E-20
 -1      2700 9.52342E-05-2.85761E-05-2.85683E-05 6.38163E-07-6.77194E-19-6.42074E-20
 -1      2701 9.52375E-05-2.84895E-05-2.86079E-05 6.42525E-07-4.58504E-19 1.18627E-19
 -1      2702 9.52868E-05-2.84636E-05-2.86357E-05 6.85299E-07-2.20021E-19 9.78149E-20
 -1      2703 9.52514E-05-2.84952E-05-2.86104E-05 6.73635E-07-6.75466E-19 6.29848E-19
 -1      2704 9.52975E-05-2.84214E-05-2.86629E-05 7.46505E-07-1.16035E-19 1.63516E-20
 -1      2705 9.53551E-05-2.83903E-05-2.86957E-05 8.22877E-07-2.99754E-20 2.30877E-19
 -1      2706 9.52704E-05-2.83992E-05-2.86597E-05 7.68698E-07-2.45494E-19 2.82432E-19
 -1      2707 9.53664E-05-2.83395E-05-2.87278E-05 9.21470E-07-1.16290E-20 1.12255E-19
 -1      2708 9.54361E-05-2.83025E-05-2.87672E-05 1.03769E-06 3.38943E-19-5.04461E-19
 -1      2709 9.52908E-05-2.82845E-05-2.87176E-05 9.34272E-07-1.03798E-19-1.77051E-19
 -1      2710 9.54473E-05-2.82409E-05-2.88051E-05 1.18044E-06 8.36874E-19-6.66769E-19
 -1      2711 9.55331E-05-2.81972E-05-2.88529E-05 1.34393E-06 1.16682E-18-1.01558E-18
 -1      2712 9.53115E-05-2.81464E-05-2.87857E-05 1.18300E-06 1.82405E-19-1.67305E-21
 -1      2713 9.55428E-05-2.81219E-05-2.88976E-05 1.53870E-06 1.45806E-18-1.03972E-18
 -1      2714 9.56491E-05-2.80707E-05-2.89557E-05 1.75805E-06 1.37894E-18-7.59900E-19
 -1      2715 9.53307E-05-2.79793E-05-2.88654E-05 1.52950E-06 1.09217E-18-5.78453E-19
 -1      2716 9.56551E-05-2.79792E-05-2.90076E-05 2.01372E-06 8.48636E-19-8.47267E-19
 -1      2717 9.57864E-05-2.79201E-05-2.90777E-05 2.29844E-06 6.17500E-19-7.40900E-19
 -1      2718 9.53449E-05-2.77773E-05-2.89579E-05 1.99029E-06 1.07464E-18-1.31478E-18
 -1      2719 9.57854E-05-2.78099E-05-2.91370E-05 2.62459E-06 2.36204E-19-9.49246E-19
 -1      2720 9.59465E-05-2.77438E-05-2.92203E-05 2.98451E-06 1.06799E-19-1.52006E-18
 -1      2721 9.53488E-05-2.75350E-05-2.90630E-05 2.58333E-06 1.87637E-19-8.00636E-19
 -1      2722 9.59344E-05-2.76140E-05-2.92860E-05 3.39077E-06-1.08601E-20-1.20542E-18
 -1      2723 9.61302E-05-2.75445E-05-2.93829E-05 3.83470E-06-3.81929E-19-1.51671E-18
 -1      2724 9.53355E-05-2.72494E-05-2.91790E-05 3.32696E-06 4.79239E-20-1.53134E-18
 -1      2725 9.61028E-05-2.73982E-05-2.94520E-05 4.32965E-06 4.18475E-20-1.43145E-18
 -1      2726 9.63400E-05-2.73347E-05-2.95612E-05 4.86310E-06 4.05440E-19-1.38102E-18
 -1      2727 9.52967E-05-2.69235E-05-2.93010E-05 4.23816E-06 1.36766E-19-7.79741E-19
 -1      2728 9.62961E-05-2.71827E-05-2.96284E-05 5.45251E-06 3.24739E-19-8.66341E-19
 -1      2729 9.65854E-05-2.71458E-05-2.97458E-05 6.07367E-06-1.97084E-20 1.13079E-19
 -1      2730 9.52269E-05-2.65739E-05-2.94198E-05 5.32983E-06 7.35418E-19-4.40333E-19
 -1      2731 9.65325E-05-2.70152E-05-2.98022E-05 6.75794E-06-6.63422E-20 4.09740E-19
 -1      2732 9.68952E-05-2.70458E-05-2.99201E-05 7.45131E-06 4.13247E-20 5.25220E-19
 -1      2733 9.51313E-05-2.62435E-05-2.95195E-05 6.60712E-06 3.08543E-19 5.38467E-19
 -1      2734 9.68618E-05-2.69927E-05-2.99523E-05 8.22165E-06-2.85922E-19 1.00499E-18
 -1      2735 9.73417E-05-2.71673E-05-3.00583E-05 8.94824E-06-4.66183E-19 9.42439E-19
 -1      2736 9.50425E-05-2.60234E-05-2.95760E-05 8.06270E-06-3.11554E-20 1.23895E-18
 -1      2737 9.73996E-05-2.72960E-05-3.00489E-05 9.78065E-06 2.49953E-19 1.25371E-18
 -1      2738 9.80836E-05-2.77470E-05-3.01267E-05 1.04633E-05 3.50653E-19 1.29659E-18
 -1      2739 9.50535E-05-2.60875E-05-2.95565E-05 9.67050E-06 5.54614E-20 1.49323E-18
 -1      2740 9.83840E-05-2.82363E-05-3.00575E-05 1.13068E-05-1.13875E-19 1.13437E-18
 -1      2741 9.94306E-05-2.91722E-05-3.00921E-05 1.18086E-05 4.88404E-19 1.15924E-18
 -1      2742 9.53730E-05-2.67415E-05-2.94228E-05 1.13752E-05 1.79393E-19 1.11983E-18
 -1      2743 1.00256E-04-3.02953E-05-2.99551E-05 1.25558E-05 4.23474E-19 7.46089E-19
 -1      2744 1.01914E-04-3.19962E-05-2.99471E-05 1.26479E-05 3.22124E-19 8.29149E-19
 -1      2745 9.64126E-05-2.84777E-05-2.91453E-05 1.30650E-05 3.77735E-19 1.24468E-18
 -1      2746 1.03727E-04-3.40961E-05-2.97715E-05 1.30542E-05 2.59922E-19 4.57396E-19
 -1      2747 1.06305E-04-3.68087E-05-2.97699E-05 1.23690E-05 4.84020E-19 3.99862E-19
 -1      2748 9.89012E-05-3.20000E-05-2.87397E-05 1.44818E-05-2.50261E-19 1.43125E-18
 -1      2749 1.09690E-04-4.01420E-05-2.96780E-05 1.19651E-05 9.42784E-19 3.47982E-19
 -1      2750 1.13381E-04-4.37733E-05-2.98345E-05 9.95614E-06 9.27706E-19 1.54232E-19
 -1      2751 1.03854E-04-3.79733E-05-2.83579E-05 1.50052E-05 4.20653E-19 4.06702E-19
 -1      2752 1.18896E-04-4.80563E-05-3.01494E-05 7.76639E-06 4.12181E-19 8.07621E-19
 -1      2753 1.23412E-04-5.13904E-05-3.08190E-05 3.71518E-06 4.66106E-19 5.10192E-19
 -1      2754 1.12551E-04-4.67152E-05-2.84293E-05 1.34422E-05 8.43049E-19 9.09634E-19
 -1      2755 1.38577E-04-4.69517E-05-3.98255E-05-1.56673E-05-2.10239E-18 6.66774E-19
 -1      2756 1.37736E-04-3.89340E-05-4.27957E-05-1.99207E-05-3.52408E-18 9.39783E-19
 -1      2757 1.30274E-04-1.49310E-05-5.01398E-05-9.72305E-06-2.39647E-18-1.49446E-18
 -1      2758 1.29764E-04-1.34050E-05-5.06077E-05-1.32585E-06-1.02237E-18-1.68529E-18
 -1      2759 1.30338E-04-1.67549E-05-4.92501E-05 6.54475E-06-8.28822E-19-1.44197E-18
 -1      2760 1.33266E-04-2.52743E-05-4.69659E-05 1.18914E-05-5.37019E-19-1.79777E-18
 -1      2761 1.33697E-04-5.15521E-05-3.54388E-05 5.09546E-06 2.02467E-19-5.95914E-19
 -1      2762 1.31657E-04-5.39624E-05-3.33182E-05 1.85099E-08 5.27192E-19-1.16205E-18
 -1      2763 1.25676E-04-5.25438E-05-3.13978E-05-6.24971E-06 1.07855E-18-1.73525E-18
 -1      2764 1.21413E-04-5.00005E-05-3.04469E-05-1.06549E-05 1.79999E-18-8.78208E-19
 -1      2765 1.30067E-04-5.65527E-05-3.15446E-05-8.05246E-06 8.09711E-19-2.40323E-18
 -1      2766 1.15400E-04-4.57597E-05-2.98957E-05-1.39013E-05 2.39930E-18-3.17851E-19
 -1      2767 1.11209E-04-4.16973E-05-2.96363E-05-1.62933E-05 2.28419E-18-3.58623E-19
 -1      2768 1.17202E-04-4.95298E-05-2.92175E-05-1.68671E-05 2.76751E-18-2.98878E-18
 -1      2769 1.06951E-04-3.75853E-05-2.97467E-05-1.71842E-05 9.12638E-19-7.06346E-20
 -1      2770 1.03666E-04-3.38668E-05-2.98188E-05-1.77588E-05 3.16807E-19-4.72863E-19
 -1      2771 1.07129E-04-3.99456E-05-2.89286E-05-1.99584E-05 1.46349E-18-2.78667E-18
 -1      2772 9.44746E-05-2.81293E-05-2.84335E-05-8.86434E-07 4.15600E-19 3.91344E-19
 -1      2773 9.44916E-05-2.80022E-05-2.84842E-05-7.11289E-07 5.24759E-19 4.74232E-19
 -1      2774 9.47076E-05-2.19078E-05-3.12066E-05 7.84471E-06 1.61392E-18 1.08385E-18
 -1      2775 9.45524E-05-2.78515E-05-2.85870E-05-4.35998E-07 5.15396E-19 5.35038E-19
 -1      2776 9.46413E-05-2.76649E-05-2.86858E-05-9.28155E-08 6.30208E-19 7.22067E-19
 -1      2777 9.50069E-05-2.79118E-05-2.87633E-05-4.45460E-07 6.35175E-19 3.24432E-19
 -1      2778 9.45144E-05-2.84326E-05-2.83199E-05-1.13860E-06 1.55501E-19 6.68744E-19
 -1      2779 9.44578E-05-2.83693E-05-2.83205E-05-1.13517E-06 2.91317E-19 3.52628E-19
 -1      2780 9.45867E-05-2.85106E-05-2.83174E-05-1.09352E-06 4.19420E-19 4.35059E-19
 -1      2781 9.45174E-05-2.84664E-05-2.83065E-05-1.12768E-06 1.34961E-19 5.35408E-19
 -1      2782 9.48939E-05-2.85720E-05-2.84267E-05-1.15783E-06 1.67610E-19-9.02207E-20
 -1      2783 9.46723E-05-2.85582E-05-2.83336E-05-9.98566E-07 7.14339E-19 5.31402E-19
 -1      2784 9.45995E-05-2.85284E-05-2.83164E-05-1.05145E-06 6.27872E-19 5.12146E-19
 -1      2785 9.49154E-05-2.86428E-05-2.84045E-05-1.11423E-06 4.98856E-19-7.45881E-20
 -1      2786 9.47615E-05-2.85839E-05-2.83608E-05-8.83616E-07 4.84315E-19 6.98944E-19
 -1      2787 9.46905E-05-2.85650E-05-2.83405E-05-9.42339E-07 6.94865E-19 5.86210E-19
 -1      2788 9.49499E-05-2.86765E-05-2.84042E-05-1.02048E-06 6.55806E-19 3.40788E-19
 -1      2789 9.48490E-05-2.85932E-05-2.83943E-05-7.69347E-07 3.91309E-19 1.05669E-18
 -1      2790 9.47824E-05-2.85829E-05-2.83726E-05-8.25038E-07 4.69967E-19 8.27070E-19
 -1      2791 9.49910E-05-2.86843E-05-2.84179E-05-9.07302E-07 4.48948E-19 3.82325E-19
 -1      2792 9.49327E-05-2.85904E-05-2.84312E-05-6.70239E-07 8.26883E-20 1.20108E-18
 -1      2793 9.48709E-05-2.85866E-05-2.84091E-05-7.16676E-07 3.28795E-19 1.29811E-18
 -1      2794 9.50346E-05-2.86738E-05-2.84409E-05-7.96195E-07 2.23417E-19 1.30417E-18
 -1      2795 9.50129E-05-2.85784E-05-2.84706E-05-5.96812E-07 3.61282E-19 8.98640E-19
 -1      2796 9.49551E-05-2.85796E-05-2.84482E-05-6.29418E-07 2.55864E-19 1.02655E-18
 -1      2797 9.50790E-05-2.86499E-05-2.84700E-05-7.02403E-07 4.28683E-19 1.26489E-18
 -1      2798 9.50919E-05-2.85590E-05-2.85125E-05-5.57268E-07 8.52085E-19 4.17324E-19
 -1      2799 9.50358E-05-2.85641E-05-2.84894E-05-5.72382E-07 5.34023E-19 7.51997E-19
 -1      2800 9.51236E-05-2.86157E-05-2.85037E-05-6.37190E-07 5.93874E-19 1.04798E-18
 -1      2801 9.51733E-05-2.85337E-05-2.85578E-05-5.58687E-07 7.65127E-19 8.42144E-19
 -1      2802 9.51160E-05-2.85417E-05-2.85332E-05-5.53044E-07 7.07635E-19 1.54043E-19
 -1      2803 9.51694E-05-2.85729E-05-2.85418E-05-6.09509E-07 7.55952E-19 6.84115E-19
 -1      2804 9.52623E-05-2.85037E-05-2.86083E-05-6.07839E-07 3.05461E-19 9.84954E-19
 -1      2805 9.51998E-05-2.85137E-05-2.85811E-05-5.78231E-07 7.65943E-19 1.11959E-18
 -1      2806 9.52183E-05-2.85223E-05-2.85846E-05-6.27207E-07 5.06077E-19 9.12177E-19
 -1      2807 9.53650E-05-2.84703E-05-2.86661E-05-7.11633E-07-5.36877E-20 3.93583E-19
 -1      2808 9.52928E-05-2.84812E-05-2.86348E-05-6.54750E-07 5.53010E-20 6.09482E-19
 -1      2809 9.52733E-05-2.84644E-05-2.86331E-05-6.97836E-07 4.20262E-19 6.01493E-19
 -1      2810 9.54890E-05-2.84355E-05-2.87334E-05-8.77166E-07 2.23422E-19 2.53237E-20
 -1      2811 9.54016E-05-2.84457E-05-2.86966E-05-7.89639E-07 4.95075E-20 4.80057E-20
 -1      2812 9.53381E-05-2.83997E-05-2.86889E-05-8.29055E-07 3.10202E-19 2.02645E-19
 -1      2813 9.56431E-05-2.84023E-05-2.88129E-05-1.11131E-06 6.19509E-19 5.78421E-19
 -1      2814 9.55345E-05-2.84095E-05-2.87690E-05-9.90003E-07 3.91212E-19 1.91355E-19
 -1      2815 9.54176E-05-2.83296E-05-2.87533E-05-1.02861E-06 1.51345E-19-3.84878E-19
 -1      2816 9.58378E-05-2.83761E-05-2.89068E-05-1.41972E-06 5.05169E-19 7.95388E-19
 -1      2817 9.57011E-05-2.83769E-05-2.88543E-05-1.26232E-06 7.80701E-19 8.02655E-19
 -1      2818 9.55184E-05-2.82572E-05-2.88278E-05-1.30381E-06 6.65529E-19 3.81061E-20
 -1      2819 9.60856E-05-2.83655E-05-2.90168E-05-1.80500E-06-6.45017E-19 1.20143E-18
 -1      2820 9.59130E-05-2.83547E-05-2.89546E-05-1.61109E-06 4.25005E-20 1.30022E-18
 -1      2821 9.56488E-05-2.81887E-05-2.89134E-05-1.66034E-06-1.51267E-19 1.07239E-18
 -1      2822 9.64014E-05-2.83844E-05-2.91435E-05-2.26395E-06-1.30947E-18 8.76072E-19
 -1      2823 9.61845E-05-2.83541E-05-2.90710E-05-2.03656E-06-1.05227E-18 1.51968E-18
 -1      2824 9.58201E-05-2.81349E-05-2.90102E-05-2.10034E-06-8.49423E-19 1.40224E-18
 -1      2825 9.68034E-05-2.84537E-05-2.92860E-05-2.78346E-06-1.07505E-18-2.83444E-19
 -1      2826 9.65330E-05-2.83926E-05-2.92035E-05-2.53134E-06-1.08828E-18 4.29117E-19
 -1      2827 9.60481E-05-2.81143E-05-2.91173E-05-2.61932E-06-9.49737E-19 7.14902E-19
 -1      2828 9.73143E-05-2.86044E-05-2.94410E-05-3.33487E-06 1.27853E-19-1.18595E-18
 -1      2829 9.69808E-05-2.84963E-05-2.93501E-05-3.07560E-06-3.58186E-19-8.87600E-19
 -1      2830 9.63549E-05-2.81554E-05-2.92319E-05-3.20188E-06-7.10416E-20-1.22782E-18
 -1      2831 9.79628E-05-2.88799E-05-2.96026E-05-3.86678E-06-3.18874E-20-6.14512E-19
 -1      2832 9.75561E-05-2.87031E-05-2.95066E-05-3.63051E-06 3.25142E-19-9.13181E-19
 -1      2833 9.67723E-05-2.83012E-05-2.93493E-05-3.81584E-06-8.90745E-20-1.04409E-18
 -1      2834 9.87844E-05-2.93371E-05-2.97621E-05-4.29644E-06-7.13304E-19-1.09588E-19
 -1      2835 9.82951E-05-2.90645E-05-2.96660E-05-4.13017E-06-5.02918E-19-4.13962E-19
 -1      2836 9.73449E-05-2.86120E-05-2.94632E-05-4.40468E-06-7.06096E-19-7.05259E-19
 -1      2837 9.98207E-05-3.00429E-05-2.99090E-05-4.50121E-06 7.90068E-20-6.33455E-19
 -1      2838 9.92425E-05-2.96453E-05-2.98194E-05-4.47228E-06-2.81647E-19-2.02684E-19
 -1      2839 9.81341E-05-2.91668E-05-2.95662E-05-4.87839E-06-2.72801E-19-8.53169E-19
 -1      2840 1.01112E-04-3.10605E-05-3.00342E-05-4.31327E-06-2.46053E-20 4.73829E-19
 -1      2841 1.00447E-04-3.05154E-05-2.99578E-05-4.50974E-06 5.59784E-20-2.22300E-19
 -1      2842 9.92182E-05-3.00570E-05-2.96527E-05-5.10351E-06-3.87895E-19-3.77613E-19
 -1      2843 1.02678E-04-3.24158E-05-3.01350E-05-3.52456E-06 6.78404E-20 1.62306E-18
 -1      2844 1.01949E-04-3.17271E-05-3.00759E-05-4.04805E-06 2.77881E-19 1.30802E-18
 -1      2845 1.00683E-04-3.13655E-05-2.97238E-05-4.89517E-06-3.50250E-19 4.16869E-19
 -1      2846 1.04476E-04-3.40347E-05-3.02236E-05-1.91545E-06-7.54572E-19 2.02788E-18
 -1      2847 1.03744E-04-3.32668E-05-3.01795E-05-2.85866E-06-5.08894E-19 1.93006E-18
 -1      2848 1.02593E-04-3.31180E-05-2.97949E-05-4.01833E-06-7.26256E-19 1.46757E-18
 -1      2849 1.06329E-04-3.56469E-05-3.03360E-05 6.74070E-07 2.98389E-19 1.75034E-18
 -1      2850 1.05723E-04-3.49736E-05-3.02940E-05-7.25693E-07-1.49298E-20 1.88655E-18
 -1      2851 1.04928E-04-3.51950E-05-2.99051E-05-2.21300E-06-2.34721E-19 7.66484E-19
 -1      2852 1.07843E-04-3.66921E-05-3.05363E-05 4.18815E-06 8.73079E-19 2.19146E-18
 -1      2853 1.07574E-04-3.64268E-05-3.04712E-05 2.43592E-06 3.43647E-19 1.74716E-18
 -1      2854 1.07469E-04-3.71943E-05-3.01269E-05 7.26853E-07 3.93678E-19 2.34613E-19
 -1      2855 1.08410E-04-3.63662E-05-3.09015E-05 8.10975E-06 3.91106E-19 2.27621E-18
 -1      2856 1.08718E-04-3.68973E-05-3.07840E-05 6.35048E-06 7.72964E-19 2.25602E-18
 -1      2857 1.09658E-04-3.83163E-05-3.05610E-05 4.74075E-06 6.34544E-19 1.71214E-18
 -1      2858 1.07443E-04-3.39727E-05-3.14719E-05 1.12786E-05 2.82702E-19 2.12870E-18
 -1      2859 1.08456E-04-3.55494E-05-3.12903E-05 1.01289E-05 6.82093E-19 2.58030E-18
 -1      2860 1.10635E-04-3.75213E-05-3.12981E-05 9.15507E-06 4.57777E-19 1.04064E-18
 -1      2861 1.04858E-04-2.96288E-05-3.21773E-05 1.20357E-05 6.14062E-19 1.32109E-18
 -1      2862 1.06381E-04-3.19817E-05-3.19662E-05 1.22242E-05 6.55117E-19 2.00785E-18
 -1      2863 1.09628E-04-3.40686E-05-3.23369E-05 1.25276E-05 6.04605E-19 9.74832E-19
 -1      2864 1.01695E-04-2.49948E-05-3.28024E-05 9.08894E-06 5.49986E-19 1.14997E-18
 -1      2865 1.03098E-04-2.70995E-05-3.26474E-05 1.09678E-05 2.31671E-19 2.00803E-18
 -1      2866 1.06683E-04-2.84893E-05-3.34847E-05 1.26648E-05 3.96974E-19 1.35789E-18
 -1      2867 9.97283E-05-2.25570E-05-3.30897E-05 3.12595E-06-2.49842E-19 4.18302E-19
 -1      2868 1.00416E-04-2.33304E-05-3.30725E-05 6.08292E-06 5.67075E-19 1.87741E-18
 -1      2869 1.03511E-04-2.33738E-05-3.43673E-05 8.47121E-06 2.19071E-20 1.48984E-18
 -1      2870 1.00468E-04-2.41221E-05-3.27952E-05-3.36235E-06 2.00140E-19-1.24872E-18
 -1      2871 1.00003E-04-2.29461E-05-3.29854E-05-7.20512E-07-6.45267E-20-8.73621E-19
 -1      2872 1.02214E-04-2.16766E-05-3.45330E-05 1.11914E-06 7.73169E-19 8.55682E-19
 -1      2873 1.02984E-04-2.83658E-05-3.20654E-05-7.24321E-06 3.28357E-19-2.10969E-18
 -1      2874 1.01859E-04-2.61297E-05-3.23707E-05-5.92469E-06 6.21676E-20-2.07936E-18
 -1      2875 1.03913E-04-2.45267E-05-3.40004E-05-5.36152E-06 8.05697E-19-1.60353E-18
 -1      2876 1.05391E-04-3.27743E-05-3.11856E-05-7.26527E-06 1.70831E-18-3.96509E-18
 -1      2877 1.04400E-04-3.07723E-05-3.14976E-05-7.57159E-06 1.33831E-18-3.07468E-18
 -1      2878 1.06946E-04-3.01931E-05-3.28503E-05-8.15089E-06 1.84604E-18-4.59207E-18
 -1      2879 1.06169E-04-3.52302E-05-3.04347E-05-4.53100E-06 5.86522E-19-3.53305E-18
 -1      2880 1.05831E-04-3.42510E-05-3.06770E-05-5.88084E-06 7.81266E-19-3.37221E-18
 -1      2881 1.08892E-04-3.50274E-05-3.16192E-05-6.73185E-06 1.03675E-18-6.00086E-18
 -1      2882 1.05070E-04-3.52786E-05-2.99234E-05-9.07007E-07 7.03019E-19-1.43616E-18
 -1      2883 1.05482E-04-3.53962E-05-3.00745E-05-2.47159E-06 9.52197E-19-1.30701E-18
 -1      2884 1.08662E-04-3.71102E-05-3.06398E-05-2.96926E-06-9.22712E-20-4.08167E-18
 -1      2885 1.03452E-04-3.41609E-05-2.96928E-05 2.07438E-06-4.08821E-19-8.74139E-19
 -1      2886 1.04354E-04-3.49668E-05-2.97864E-05 8.34601E-07 4.56443E-19-1.46197E-18
 -1      2887 1.07267E-04-3.69206E-05-3.01012E-05 9.47222E-07 4.50079E-19-1.33503E-18
 -1      2888 1.05260E-04-3.54632E-05-2.98799E-05 4.18933E-06-7.66661E-19-2.37908E-18
 -1      2889 8.33982E-05-1.81370E-05-2.80971E-05 1.55184E-05-8.61558E-19 1.30205E-19
 -1      2890 8.71840E-05-2.07144E-05-2.83492E-05 1.80789E-05-4.51734E-19 7.55927E-20
 -1      2891 1.01717E-04-3.15538E-05-3.00609E-05-1.74298E-05-1.06064E-19-4.60860E-19
 -1      2892 9.99677E-05-2.94171E-05-3.01849E-05-1.70472E-05-1.10713E-18-1.06602E-19
 -1      2893 9.77836E-05-2.77137E-05-3.00640E-05-1.84189E-05-1.71713E-18-2.25024E-18
 -1      2894 1.01126E-04-3.26094E-05-2.94056E-05-1.98142E-05 3.29818E-19-2.19515E-18
 -1      2895 9.80102E-05-2.91530E-05-2.95444E-05 1.81267E-05-1.88167E-20 1.15515E-18
 -1      2896 1.00246E-04-3.09221E-05-2.96493E-05 1.66755E-05 1.04235E-19-1.00021E-18
 -1      2897 7.75094E-05-1.35121E-05-2.75200E-05 6.39733E-06-8.90711E-19-2.26250E-19
 -1      2898 7.97471E-05-1.50128E-05-2.76651E-05 1.10972E-05-3.39895E-19-1.30448E-18
 -1      2899 7.98591E-05-1.83132E-05-2.62818E-05 1.53358E-05-1.43112E-18-9.06927E-19
 -1      2900 9.14124E-05-2.42491E-05-2.88859E-05 1.93173E-05-1.29621E-19 1.31959E-18
 -1      2901 9.49734E-05-2.67896E-05-2.91101E-05 1.94841E-05-1.10365E-19 1.81990E-18
 -1      2902 9.78986E-05-3.13199E-05-2.85970E-05 2.05568E-05-5.98148E-19 1.49058E-18
 -1      2903 8.92831E-05-2.52792E-05-2.74388E-05 2.10942E-05-3.90118E-19 4.18547E-19
 -1      2904 1.41684E-04-5.64777E-05-3.68997E-05 5.60127E-06 2.46136E-18 1.85500E-18
 -1      2905 1.36409E-04-6.19982E-05-3.18398E-05 1.74101E-05 1.72977E-18 7.92399E-19
 -1      2906 7.69436E-05-1.28449E-05-2.74637E-05-5.16655E-06 8.56504E-21 2.88761E-18
 -1      2907 7.64332E-05-1.25273E-05-2.74140E-05 7.05929E-08-8.50565E-19 2.80102E-18
 -1      2908 7.41527E-05-1.39995E-05-2.56448E-05 3.92850E-06 6.39450E-19 1.42671E-18
 -1      2909 8.20621E-05-1.64702E-05-2.79703E-05-1.50489E-05 1.44866E-18 1.82156E-18
 -1      2910 7.91133E-05-1.46297E-05-2.77494E-05-1.10758E-05 1.03315E-18 2.62969E-18
 -1      2911 7.54748E-05-1.48851E-05-2.58508E-05-9.22859E-06 1.74390E-18 3.45255E-18
 -1      2912 8.99485E-05-2.24377E-05-2.88261E-05-1.97652E-05 1.24952E-18-1.49245E-19
 -1      2913 8.61634E-05-1.99358E-05-2.85232E-05-1.82939E-05 1.58266E-18 4.79914E-19
 -1      2914 8.30585E-05-2.02420E-05-2.68948E-05-1.89019E-05 2.03617E-18 1.62676E-18
 -1      2915 9.58434E-05-2.65751E-05-2.96374E-05-1.94781E-05-6.08825E-19-1.83375E-18
 -1      2916 9.27055E-05-2.43130E-05-2.93774E-05-1.99849E-05 2.85931E-19-8.83684E-19
 -1      2917 9.10052E-05-2.54994E-05-2.80980E-05-2.17261E-05 8.07752E-19-1.38032E-18
 -1      2918 9.71808E-05-2.89085E-05-2.92234E-05-2.05391E-05-1.60473E-20-2.52783E-18
 -1      2919 7.11148E-05-3.80023E-05-1.41896E-05 3.60506E-05 1.50052E-18-1.75971E-18
 -1      2920 5.38021E-05-2.71731E-05-1.08266E-05 2.95622E-05 1.15202E-18-2.86276E-18
 -1      2921 9.43335E-05-2.08733E-05-3.15177E-05-8.24533E-06-7.06945E-19-1.68393E-18
 -1      2922 9.47193E-05-2.26478E-05-3.09127E-05-6.40613E-06-6.75496E-19-1.52407E-18
 -1      2923 1.34828E-04-6.41102E-05-3.00730E-05-1.96091E-05 1.57988E-18-4.64111E-18
 -1      2924 1.42126E-04-6.19005E-05-3.48722E-05-9.61694E-06 1.53572E-18-4.07613E-18
 -1      2925 1.31822E-04-1.96119E-05-4.87330E-05-1.61608E-05-2.93349E-18-1.51608E-18
 -1      2926 9.47230E-05-2.74145E-05-2.88493E-05 3.90182E-07 6.23537E-19 7.22223E-19
 -1      2927 9.49032E-05-2.71210E-05-2.90218E-05 9.95252E-07 7.45140E-19 7.63528E-19
 -1      2928 9.51293E-05-2.73825E-05-2.90438E-05 3.77784E-07 6.51512E-19 4.38063E-19
 -1      2929 9.44702E-05-2.83120E-05-2.83528E-05-1.09048E-06 2.37196E-19 3.31663E-19
 -1      2930 9.44403E-05-2.82226E-05-2.83727E-05-1.02174E-06 2.60062E-19 2.61467E-19
 -1      2931 9.49289E-05-2.82413E-05-2.85866E-05-8.99428E-07 3.21888E-19 3.15021E-19
 -1      2932 9.48946E-05-2.84470E-05-2.84820E-05-1.10721E-06 1.77855E-19 1.86499E-19
 -1      2933 9.52691E-05-2.41019E-05-3.04825E-05-5.16123E-06-5.54888E-19-1.34783E-18
 -1      2934 9.51764E-05-2.50826E-05-3.00584E-05-3.67399E-06-4.36296E-19-1.25161E-18
 -1      2935 9.52260E-05-2.47646E-05-3.01897E-05-3.43288E-06-3.52247E-19-1.27430E-18
 -1      2936 9.45862E-05-2.23732E-05-3.09415E-05-5.69535E-06-4.56662E-19-1.55344E-18
 -1      2937 9.20383E-05-1.66588E-05-3.23130E-05-9.02396E-06-4.61873E-19-2.03444E-18
 -1      2938 9.11774E-05-1.60906E-05-3.22079E-05 4.91939E-06 1.63018E-18-7.30859E-19
 -1      2939 9.08346E-05-1.55918E-05-3.22686E-05 3.99688E-06 1.43522E-18-9.81243E-19
 -1      2940 9.18130E-05-1.72034E-05-3.19602E-05 3.20006E-06 1.27926E-18-9.68119E-19
 -1      2941 9.24813E-05-1.82631E-05-3.17880E-05 4.61805E-06 1.42501E-18-5.07072E-19
 -1      2942 1.08687E-04-5.78960E-05-2.13465E-05-3.79087E-05 4.30695E-18-2.66674E-18
 -1      2943 1.23586E-04-6.34285E-05-2.60763E-05-3.14688E-05 3.18421E-18-4.23543E-18
 -1      2944 9.07982E-05-1.55424E-05-3.22736E-05-3.93322E-06 4.50138E-19-1.87433E-18
 -1      2945 9.11327E-05-1.60283E-05-3.22144E-05-4.85633E-06 2.50114E-19-1.90664E-18
 -1      2946 1.26760E-04-9.28826E-06-5.09983E-05 5.77052E-06 3.65791E-18 1.06027E-18
 -1      2947 1.26534E-04-8.57258E-06-5.10550E-05-1.14534E-06 4.86451E-18-8.31548E-19
 -1      2948 1.09882E-04-5.74975E-05-2.28167E-05 2.93777E-05 5.72700E-19-4.15046E-20
 -1      2949 9.18687E-05-4.84943E-05-1.79900E-05 3.40360E-05 1.35483E-18-1.80418E-19
 -1      2950 1.27810E-04-1.48718E-05-4.91558E-05-7.27921E-06 5.96915E-18-5.61953E-19
 -1      2951 1.32460E-04-2.32332E-05-4.72223E-05-1.07670E-05 5.18056E-18-1.78512E-19
 -1      2952 1.38367E-04-5.48668E-05-3.57270E-05-9.08867E-06-1.33889E-18 9.60271E-19
 -1      2953 1.12160E-04-5.78642E-05-2.29092E-05-3.23587E-05-2.56175E-18 1.24841E-18
 -1      2954 1.23361E-04-6.05946E-05-2.70654E-05-2.54348E-05-2.55020E-18 1.27076E-18
 -1      2955 1.35452E-04-2.25694E-05-4.86823E-05 1.40679E-05 7.25907E-19 1.93378E-18
 -1      2956 1.29720E-04-1.47281E-05-4.99870E-05 1.18968E-05 2.44581E-18 2.86292E-18
 -1      2957 7.79513E-05-4.28646E-05-1.44794E-05-4.08643E-05-2.49621E-18-5.74500E-19
 -1      2958 9.59112E-05-5.19671E-05-1.89083E-05-3.97353E-05-2.40991E-18 4.90856E-19
 -1      2959 4.59667E-05-2.45713E-05-8.57439E-06-3.09104E-05-3.26399E-18-1.34043E-18
 -1      2960 6.00475E-05-3.26890E-05-1.14938E-05-3.89558E-05-2.70881E-18-7.19131E-19
 -1      2961 4.12459E-05-1.90570E-05-9.10944E-06 2.06819E-05 2.69886E-19-1.67670E-18
 -1      2962 3.46187E-05-1.50571E-05-7.72668E-06 9.10981E-06-9.58947E-19-2.15591E-18
 -1      2963 2.99181E-05-1.38058E-05-6.49355E-06-3.88851E-06-2.16497E-18-2.81300E-18
 -1      2964 3.41534E-05-1.72564E-05-6.80735E-06-2.05531E-05-2.89574E-18-2.56460E-18
 -1      2965 4.68754E-05-1.97758E-05-1.09288E-05-2.32124E-05-2.99828E-18-1.62440E-18
 -1      2966 4.02789E-05-1.41301E-05-1.04912E-05 1.14834E-06-9.45117E-19-1.80354E-18
 -1      2967 1.37637E-04-6.23081E-05-3.27540E-05 5.02650E-06-6.95679E-19 8.75938E-19
 -1      2968 1.27001E-04-6.20778E-05-2.73923E-05 1.69217E-05 5.85512E-20-1.06303E-19
 -1      2969 1.43298E-04-4.44297E-05-4.23751E-05 6.04292E-06-1.25181E-18 1.40586E-18
 -1      2970 1.40220E-04-3.38138E-05-4.63635E-05 1.17850E-05-9.44653E-19 9.62335E-19
 -1      2971 9.49799E-05-2.66913E-05-2.92720E-05 1.78394E-06 9.90693E-19 7.09599E-19
 -1      2972 9.52470E-05-2.61944E-05-2.95571E-05 2.79090E-06 9.76410E-19 8.37816E-19
 -1      2973 9.52707E-05-2.50230E-05-3.01040E-05 3.82285E-06 1.19864E-18 5.64195E-19
 -1      2974 9.52541E-05-2.65060E-05-2.94711E-05 1.73841E-06 9.05965E-19 5.59327E-19
 -1      2975 1.34576E-04-2.84724E-05-4.61755E-05-1.92751E-05-3.36463E-18 2.61416E-19
 -1      2976 3.85386E-05-1.46665E-05-9.75961E-06 5.02746E-06 2.35521E-18 4.36370E-18
 -1      2977 3.85321E-05-1.55793E-05-9.21518E-06-1.08923E-05 2.78994E-18 6.84254E-18
 -1      2978 1.45457E-04-5.44552E-05-3.90924E-05 1.71807E-06 1.07946E-18-4.92772E-18
 -1      2979 1.46466E-04-4.71549E-05-4.30907E-05 6.79942E-06 6.55392E-19-4.71628E-18
 -1      2980 8.79503E-05-4.84654E-05-1.68016E-05 4.44856E-05-2.32934E-21-7.55977E-19
 -1      2981 6.98281E-05-3.91240E-05-1.25213E-05 4.27980E-05-5.88688E-20-2.95614E-19
 -1      2982 1.37441E-04-3.33079E-05-4.52743E-05-9.73965E-06 4.46556E-18-4.51363E-19
 -1      2983 1.39783E-04-4.41917E-05-4.12311E-05-5.26508E-06 3.41296E-18 1.10326E-18
 -1      2984 1.29270E-04-2.89426E-05-4.32775E-05-1.11824E-05 4.52443E-18-5.46654E-19
 -1      2985 1.33576E-04-5.54606E-05-3.34571E-05-4.44445E-06-7.99573E-19 2.94728E-19
 -1      2986 9.15576E-05-1.66697E-05-3.21140E-05-5.58307E-06 1.00193E-19-2.08153E-18
 -1      2987 9.20348E-05-1.73720E-05-3.20223E-05-6.41470E-06-1.05384E-19-2.09573E-18
 -1      2988 9.24276E-05-1.81853E-05-3.17972E-05-4.57962E-06 1.41795E-19-1.86881E-18
 -1      2989 1.32194E-04-6.28088E-05-2.97260E-05 2.21009E-05 4.17058E-19 3.01226E-19
 -1      2990 1.25577E-04-6.06621E-05-2.76502E-05 2.57939E-05-6.99490E-19-2.98248E-20
 -1      2991 1.33650E-04-5.99570E-05-3.17025E-05 1.34590E-05-2.89182E-21 6.81226E-19
 -1      2992 9.12892E-05-1.63943E-05-3.20856E-05 2.85044E-08 8.94165E-19-1.59618E-18
 -1      2993 9.01660E-05-1.46042E-05-3.24030E-05-3.83240E-07 9.17959E-19-1.72967E-18
 -1      2994 9.02226E-05-1.46844E-05-3.23931E-05-1.34118E-06 8.42373E-19-1.86164E-18
 -1      2995 1.02337E-04-3.25495E-05-2.98895E-05 8.21299E-06-1.42121E-18-3.23521E-18
 -1      2996 1.40489E-04-5.73998E-05-3.57751E-05-1.57512E-06 1.02405E-18-4.48271E-18
 -1      2997 1.29265E-04-6.06550E-05-2.92967E-05-1.82180E-05-3.12100E-18 1.00988E-18
 -1      2998 1.32506E-04-5.94372E-05-3.17668E-05-1.06339E-05-2.76742E-18 2.44004E-18
 -1      2999 1.23761E-04-5.91386E-05-2.75808E-05-2.00138E-05-3.50280E-18 1.19567E-18
 -1      3000 6.90865E-05-3.19528E-05-1.52987E-05-3.52284E-05 5.03640E-18 1.88835E-18
 -1      3001 1.02561E-04-5.19125E-05-2.11747E-05-3.70056E-05 4.53639E-18-2.95712E-18
 -1      3002 1.29230E-04-6.21909E-05-2.84803E-05-2.20115E-05 2.09630E-18-3.51159E-18
 -1      3003 1.24538E-04-5.68015E-05-2.93133E-05 1.02532E-05-6.72068E-20-7.75565E-20
 -1      3004 1.29854E-04-5.56106E-05-3.16751E-05 1.02506E-06-7.47639E-20-3.85665E-20
 -1      3005 1.33102E-04-3.00694E-05-4.45497E-05 1.40713E-05-6.73921E-19 2.26624E-18
 -1      3006 4.87259E-05-1.76163E-05-1.27048E-05-1.58544E-05 3.58163E-18 7.07580E-18
 -1      3007 1.42179E-04-2.87396E-05-4.91550E-05 1.15223E-05 9.06325E-20-4.08524E-18
 -1      3008 1.33861E-04-3.29954E-05-4.36399E-05 1.45700E-05 3.50248E-19-2.54417E-18
 -1      3009 1.34941E-04-3.94693E-05-4.12394E-05 1.25430E-05 1.92276E-19-1.95665E-18
 -1      3010 1.36423E-04-4.77885E-05-3.82164E-05 1.08415E-05-3.01491E-20-1.64361E-18
 -1      3011 1.03065E-04-3.45502E-05-2.94097E-05 1.62131E-05-4.65416E-19-2.48696E-18
 -1      3012 1.01595E-04-3.17940E-05-2.98847E-05 1.40906E-05 1.82876E-19-2.84508E-18
 -1      3013 1.02403E-04-3.27100E-05-2.98654E-05 1.19982E-05-7.88052E-19-4.30454E-18
 -1      3014 9.43548E-05-2.14238E-05-3.12602E-05 7.21923E-06 1.58180E-18 7.02968E-19
 -1      3015 5.46830E-05-2.26378E-05-1.30630E-05 2.32889E-05 4.22352E-19-1.92584E-18
 -1      3016 8.58854E-05-4.16110E-05-1.83379E-05 3.13812E-05 1.56892E-18-5.32943E-19
 -1      3017 6.61926E-05-3.26154E-05-1.37050E-05 3.68126E-05 7.87423E-19 6.98273E-19
 -1      3018 9.28206E-05-1.84307E-05-3.18795E-05-7.47167E-06-3.29311E-19-1.91669E-18
 -1      3019 4.91612E-05-1.81247E-05-1.31113E-05 1.96250E-05 9.55824E-19 3.85146E-18
 -1      3020 4.36515E-05-1.58245E-05-1.10669E-05 1.19967E-05 1.49519E-18 4.35693E-18
 -1      3021 4.69028E-05-1.37069E-05-1.38873E-05 3.11832E-06 9.15156E-19 4.18043E-18
 -1      3022 1.46619E-04-3.97506E-05-4.61876E-05 9.92657E-06 7.66353E-19-5.14551E-18
 -1      3023 7.34921E-05-3.69161E-05-1.51599E-05-3.71443E-05-2.85323E-18-6.67780E-19
 -1      3024 9.46176E-05-2.24684E-05-3.09129E-05 5.69650E-06 1.42112E-18 5.14550E-19
 -1      3025 9.03477E-05-1.48753E-05-3.23654E-05-2.17807E-06 7.54765E-19-1.68731E-18
 -1      3026 9.05323E-05-1.51389E-05-3.23332E-05-3.12902E-06 5.32341E-19-1.75277E-18
 -1      3027 9.17821E-05-1.71604E-05-3.19654E-05-3.14369E-06 4.48418E-19-1.66479E-18
 -1      3028 9.14072E-05-1.65773E-05-3.20570E-05-1.58372E-06 7.15068E-19-1.70229E-18
 -1      3029 1.21883E-04-1.36336E-05-4.68468E-05-4.50843E-06 5.09109E-18 3.40693E-19
 -1      3030 1.19083E-04-5.76785E-05-2.59581E-05 1.95156E-05 1.81424E-19-4.91319E-19
 -1      3031 1.12166E-04-5.66679E-05-2.38014E-05 3.46433E-05-6.90332E-20-8.01426E-19
 -1      3032 1.01895E-04-5.37526E-05-2.02089E-05 4.12092E-05 2.08794E-19-9.57862E-19
 -1      3033 9.39713E-05-4.74161E-05-1.95691E-05 4.04357E-05 6.16852E-19-1.37151E-18
 -1      3034 1.24639E-04-1.30680E-05-4.84114E-05 9.43903E-06 2.62008E-18 1.59613E-18
 -1      3035 1.17807E-04-1.11614E-05-4.60411E-05 6.36013E-06 2.63300E-18 6.43189E-19
 -1      3036 1.21494E-04-1.64729E-05-4.52143E-05 1.28964E-05 1.45954E-18 1.99677E-18
 -1      3037 1.05306E-04-5.38051E-05-2.17724E-05-3.31769E-05-2.29895E-18 1.53435E-18
 -1      3038 1.39511E-04-5.06425E-05-3.82740E-05-2.26859E-06 1.90598E-18 1.36224E-18
 -1      3039 1.35401E-04-5.40088E-05-3.50978E-05 2.53713E-06 8.90893E-19-3.44689E-19
 -1      3040 1.32702E-04-4.29668E-05-3.87947E-05-8.25226E-06 2.51182E-18-8.32210E-20
 -1      3041 1.39737E-04-5.04370E-05-3.84029E-05 2.46924E-06-1.62130E-18 1.67183E-18
 -1      3042 1.15878E-04-1.19379E-05-4.51148E-05-1.08032E-07 4.35322E-18 1.63035E-18
 -1      3043 1.17319E-04-1.64864E-05-4.35046E-05-6.82422E-06 5.94511E-18 1.15390E-18
 -1      3044 9.42840E-05-2.18783E-05-3.10594E-05 4.96087E-06 1.32024E-18 2.06759E-19
 -1      3045 9.38074E-05-2.09065E-05-3.12449E-05 4.62157E-06 1.31980E-18 2.32868E-20
 -1      3046 1.11996E-04-5.16894E-05-2.55790E-05 1.98930E-05 3.86723E-19-3.55516E-19
 -1      3047 9.56806E-05-2.68813E-05-2.94712E-05-7.48453E-07-2.43745E-19-7.74763E-19
 -1      3048 9.56570E-05-2.73290E-05-2.92916E-05-2.23465E-07-2.51884E-19-7.84345E-19
 -1      3049 9.57007E-05-2.77145E-05-2.91258E-05 1.56411E-07-5.48380E-19-6.88166E-19
 -1      3050 9.56639E-05-2.80007E-05-2.90031E-05 4.71399E-07-7.43827E-19-8.41558E-19
 -1      3051 9.58983E-05-2.73325E-05-2.93885E-05-1.68151E-07-3.71001E-19-8.14640E-19
 -1      3052 9.56564E-05-2.82390E-05-2.88853E-05 6.92958E-07-7.01489E-19-7.30912E-19
 -1      3053 9.56243E-05-2.84194E-05-2.88043E-05 8.60910E-07-5.72042E-19-7.75876E-19
 -1      3054 9.59398E-05-2.80566E-05-2.90965E-05 4.66992E-07-6.79207E-19-8.09168E-19
 -1      3055 9.55925E-05-2.85605E-05-2.87228E-05 9.70151E-07-4.40553E-19-7.55248E-19
 -1      3056 9.55696E-05-2.86701E-05-2.86719E-05 1.03981E-06-1.85147E-19-5.49253E-19
 -1      3057 9.59065E-05-2.85067E-05-2.88891E-05 8.24874E-07-5.39905E-19-7.34898E-19
 -1      3058 9.55283E-05-2.87465E-05-2.86176E-05 1.07402E-06-9.22696E-20-5.32478E-19
 -1      3059 9.55142E-05-2.88081E-05-2.85880E-05 1.08139E-06-2.89211E-19-3.01591E-19
 -1      3060 9.58389E-05-2.87716E-05-2.87461E-05 9.89281E-07-1.48040E-19-7.68311E-19
 -1      3061 9.54709E-05-2.88414E-05-2.85539E-05 1.06900E-06-4.16368E-19-7.83558E-20
 -1      3062 9.54637E-05-2.88701E-05-2.85392E-05 1.04013E-06-3.07263E-19-9.80607E-20
 -1      3063 9.57588E-05-2.89111E-05-2.86515E-05 1.02694E-06-1.15932E-19-6.51226E-19
 -1      3064 9.54223E-05-2.88747E-05-2.85198E-05 1.00213E-06-3.18704E-19-4.28758E-20
 -1      3065 9.54201E-05-2.88808E-05-2.85156E-05 9.55614E-07-2.72999E-19-1.89940E-19
 -1      3066 9.56776E-05-2.89658E-05-2.85928E-05 9.88324E-07-3.24715E-19-4.83306E-21
 -1      3067 9.53823E-05-2.88663E-05-2.85070E-05 9.07176E-07-4.55584E-19-1.80193E-19
 -1      3068 9.53836E-05-2.88567E-05-2.85101E-05 8.56218E-07-3.26718E-19-3.09265E-19
 -1      3069 9.56009E-05-2.89632E-05-2.85606E-05 9.10588E-07-3.30781E-19 2.59244E-20
 -1      3070 9.53496E-05-2.88293E-05-2.85094E-05 8.08243E-07-3.13702E-19-5.18834E-19
 -1      3071 9.53534E-05-2.88084E-05-2.85177E-05 7.62294E-07-6.43666E-19-4.93724E-19
 -1      3072 9.55308E-05-2.89219E-05-2.85480E-05 8.20625E-07-4.17195E-19-6.49899E-20
 -1      3073 9.53229E-05-2.87717E-05-2.85229E-05 7.22723E-07-4.76342E-19-4.64600E-19
 -1      3074 9.53283E-05-2.87423E-05-2.85352E-05 6.88784E-07-1.75906E-19-3.91518E-19
 -1      3075 9.54676E-05-2.88533E-05-2.85499E-05 7.37932E-07-4.12311E-19-6.13259E-19
 -1      3076 9.53003E-05-2.86980E-05-2.85451E-05 6.63665E-07-2.90693E-19-7.56743E-19
 -1      3077 9.53071E-05-2.86612E-05-2.85607E-05 6.47273E-07-3.66884E-19-7.92226E-19
 -1      3078 9.54098E-05-2.87642E-05-2.85631E-05 6.77023E-07-5.34811E-19-5.87297E-20
 -1      3079 9.52800E-05-2.86095E-05-2.85745E-05 6.41594E-07-4.69631E-19-8.68877E-19
 -1      3080 9.52879E-05-2.85654E-05-2.85933E-05 6.47597E-07-7.10697E-19-2.84576E-19
 -1      3081 9.53550E-05-2.86570E-05-2.85854E-05 6.49318E-07-3.63177E-19-8.14652E-19
 -1      3082 9.52596E-05-2.85053E-05-2.86107E-05 6.65937E-07-5.81466E-19-8.82218E-20
 -1      3083 9.52685E-05-2.84530E-05-2.86329E-05 6.99098E-07-5.90382E-19 1.45776E-19
 -1      3084 9.52998E-05-2.85312E-05-2.86155E-05 6.64640E-07-4.47231E-19-3.37094E-19
 -1      3085 9.52365E-05-2.83825E-05-2.86538E-05 7.46131E-07-5.50454E-19 2.91039E-19
 -1      3086 9.52462E-05-2.83203E-05-2.86799E-05 8.11569E-07-2.49023E-19 1.88687E-19
 -1      3087 9.52397E-05-2.83837E-05-2.86527E-05 7.32383E-07-4.50637E-19-1.72697E-19
 -1      3088 9.52073E-05-2.82363E-05-2.87044E-05 8.92409E-07 1.43750E-19 3.44602E-19
 -1      3089 9.52174E-05-2.81620E-05-2.87349E-05 9.95907E-07 9.69398E-20 2.86477E-19
 -1      3090 9.51688E-05-2.82092E-05-2.86968E-05 8.62341E-07-7.78425E-20 3.59806E-19
 -1      3091 9.51671E-05-2.80609E-05-2.87630E-05 1.11631E-06-7.12069E-21 6.11799E-20
 -1      3092 9.51768E-05-2.79715E-05-2.87986E-05 1.26449E-06 2.36252E-19 1.05024E-19
 -1      3093 9.50798E-05-2.80006E-05-2.87477E-05 1.06523E-06 4.74290E-20 2.77361E-19
 -1      3094 9.51099E-05-2.78489E-05-2.88301E-05 1.43094E-06 2.95694E-19 3.52847E-19
 -1      3095 9.51177E-05-2.77414E-05-2.88713E-05 1.63128E-06 9.50848E-19-1.00931E-19
 -1      3096 9.49633E-05-2.77495E-05-2.88049E-05 1.35292E-06 1.71935E-19 6.06548E-19
 -1      3097 9.50271E-05-2.75924E-05-2.89055E-05 1.85093E-06 1.28990E-18-7.00778E-19
 -1      3098 9.50309E-05-2.74638E-05-2.89524E-05 2.11158E-06 8.62649E-19-9.85148E-19
 -1      3099 9.48071E-05-2.74462E-05-2.88673E-05 1.73838E-06 7.92301E-19 1.15194E-19
 -1      3100 9.49079E-05-2.72836E-05-2.89880E-05 2.39201E-06 1.85937E-19-7.27765E-19
 -1      3101 9.49041E-05-2.71313E-05-2.90399E-05 2.72143E-06-1.39551E-19-8.23522E-19
 -1      3102 9.45958E-05-2.70810E-05-2.89323E-05 2.23535E-06 7.83425E-19-3.03280E-19
 -1      3103 9.47381E-05-2.69162E-05-2.90742E-05 3.07035E-06 5.87963E-20-7.60533E-19
 -1      3104 9.47226E-05-2.67399E-05-2.91292E-05 3.47656E-06 2.70825E-19-4.12715E-19
 -1      3105 9.43104E-05-2.66453E-05-2.89954E-05 2.85766E-06-8.50640E-20-6.43128E-19
 -1      3106 9.45012E-05-2.64889E-05-2.91577E-05 3.90140E-06 3.18016E-19-7.12180E-19
 -1      3107 9.44700E-05-2.62929E-05-2.92119E-05 4.39093E-06 2.04184E-19-5.89971E-19
 -1      3108 9.39282E-05-2.61349E-05-2.90486E-05 3.61849E-06 4.86416E-19-5.13523E-19
 -1      3109 9.41809E-05-2.60112E-05-2.92272E-05 4.89871E-06 5.90734E-19-3.13677E-19
 -1      3110 9.41328E-05-2.58090E-05-2.92739E-05 5.47522E-06 9.02948E-19 2.75026E-19
 -1      3111 9.34246E-05-2.55547E-05-2.90792E-05 4.52987E-06 6.87528E-19-1.10246E-18
 -1      3112 9.37672E-05-2.55141E-05-2.92651E-05 6.07293E-06 8.43036E-19 3.47935E-19
 -1      3113 9.37097E-05-2.53363E-05-2.92939E-05 6.73569E-06 5.39255E-19 7.03238E-19
 -1      3114 9.27779E-05-2.49284E-05-2.90680E-05 5.60330E-06 9.73356E-19-9.07334E-20
 -1      3115 9.32698E-05-2.50679E-05-2.92451E-05 7.43219E-06 2.41114E-19 1.28420E-18
 -1      3116 9.32318E-05-2.49762E-05-2.92409E-05 8.17455E-06 6.68151E-20 1.25177E-18
 -1      3117 9.19791E-05-2.43136E-05-2.89868E-05 6.85304E-06 8.78139E-19 3.24945E-19
 -1      3118 9.27448E-05-2.48122E-05-2.91308E-05 8.98496E-06-5.36094E-19 1.58738E-18
 -1      3119 9.27984E-05-2.49192E-05-2.90743E-05 9.79316E-06-1.21035E-19 1.80690E-18
 -1      3120 9.10517E-05-2.38271E-05-2.87968E-05 8.30466E-06-2.90485E-20 1.39346E-18
 -1      3121 9.23422E-05-2.49992E-05-2.88768E-05 1.07462E-05 1.32344E-19 1.04591E-18
 -1      3122 9.26399E-05-2.54983E-05-2.87476E-05 1.15964E-05 7.78347E-20 1.29974E-18
 -1      3123 9.00887E-05-2.36829E-05-2.84481E-05 1.00116E-05-1.04030E-19 1.33541E-18
 -1      3124 9.23877E-05-2.60553E-05-2.84355E-05 1.27401E-05-2.17492E-20 1.27598E-18
 -1      3125 9.32201E-05-2.72535E-05-2.82230E-05 1.35841E-05 9.32319E-20 9.86678E-19
 -1      3126 8.93172E-05-2.42503E-05-2.78828E-05 1.20792E-05-3.89050E-19 5.61839E-19
 -1      3127 9.35142E-05-2.86519E-05-2.77805E-05 1.49836E-05 3.23800E-20 5.65830E-19
 -1      3128 9.53653E-05-3.09873E-05-2.75097E-05 1.56919E-05-8.23409E-19 2.50300E-19
 -1      3129 8.91995E-05-2.61188E-05-2.70492E-05 1.46818E-05-3.80513E-19-8.37676E-19
 -1      3130 9.69305E-05-3.38052E-05-2.69737E-05 1.72712E-05-3.23814E-19 9.38069E-19
 -1      3131 1.00573E-04-3.76780E-05-2.67880E-05 1.74008E-05 7.94219E-19 7.71485E-19
 -1      3132 9.07331E-05-3.02502E-05-2.59383E-05 1.81083E-05 8.29662E-20-4.73412E-20
 -1      3133 1.02328E-04-4.12730E-05-2.60136E-05 1.93630E-05 3.01325E-19 8.20960E-20
 -1      3134 1.08309E-04-4.65747E-05-2.61913E-05 1.84326E-05 1.19088E-19-2.55969E-19
 -1      3135 9.89350E-05-4.63841E-05-2.27363E-05 2.73728E-05 2.07311E-19 1.30761E-20
 -1      3136 9.39056E-05-3.70777E-05-2.44718E-05 2.24244E-05 3.41050E-19-3.57342E-19
 -1      3137 6.54021E-05-2.51793E-05-1.67760E-05-2.93350E-05 4.53441E-18 3.86723E-18
 -1      3138 7.95275E-05-3.53305E-05-1.90149E-05-3.61061E-05 3.72758E-18-8.87055E-19
 -1      3139 6.86564E-05-3.11092E-05-1.57360E-05-3.31610E-05-2.99008E-18-1.28130E-18
 -1      3140 8.39639E-05-4.12281E-05-1.82930E-05-3.61073E-05-2.29726E-18-3.65812E-19
 -1      3141 1.39284E-04-5.45357E-05-3.66222E-05 2.88648E-06 7.36495E-19-4.03262E-18
 -1      3142 1.17294E-04-5.20572E-05-2.77855E-05-2.15736E-05 2.25734E-18-2.18439E-18
 -1      3143 1.10651E-04-4.63506E-05-2.73009E-05-2.36255E-05 2.71803E-18-3.06648E-18
 -1      3144 1.05794E-04-4.09268E-05-2.77030E-05-2.30564E-05 1.98840E-18-3.03143E-18
 -1      3145 1.01307E-04-3.58146E-05-2.79680E-05-2.31136E-05 1.35101E-18-2.81406E-18
 -1      3146 1.02888E-04-4.24850E-05-2.60578E-05-2.80492E-05 2.14392E-18-1.88857E-18
 -1      3147 9.53704E-05-2.79578E-05-2.88951E-05-4.69179E-07 5.90338E-19 2.29241E-19
 -1      3148 9.54254E-05-2.77005E-05-2.90119E-05-1.38479E-07 7.20782E-19 3.55455E-19
 -1      3149 9.52246E-05-2.87681E-05-2.84804E-05-1.07786E-06 4.24311E-19-1.17373E-19
 -1      3150 9.52119E-05-2.87351E-05-2.84885E-05-1.10881E-06 2.10107E-19-2.35371E-19
 -1      3151 9.52431E-05-2.87015E-05-2.85174E-05-1.12085E-06 2.80767E-19-9.45488E-20
 -1      3152 9.52396E-05-2.86398E-05-2.85396E-05-1.11423E-06 2.38509E-19 4.45697E-20
 -1      3153 9.55260E-05-2.88152E-05-2.85930E-05-1.08528E-06 3.77567E-19-1.86257E-19
 -1      3154 9.52131E-05-2.87804E-05-2.84698E-05-8.82248E-07 1.69001E-19 3.05978E-19
 -1      3155 9.51927E-05-2.87815E-05-2.84623E-05-9.36769E-07 6.13096E-19 2.24941E-19
 -1      3156 9.52156E-05-2.87498E-05-2.84838E-05-7.79886E-07 1.42561E-19 7.45203E-19
 -1      3157 9.51942E-05-2.87610E-05-2.84721E-05-8.30041E-07-1.44405E-19 4.66907E-19
 -1      3158 9.53852E-05-2.88573E-05-2.85131E-05-8.62061E-07-1.49336E-20-1.00321E-20
 -1      3159 9.52216E-05-2.87038E-05-2.85060E-05-6.96443E-07 5.00348E-19 8.03102E-19
 -1      3160 9.51999E-05-2.87226E-05-2.84914E-05-7.35390E-07 5.91303E-19 1.01036E-18
 -1      3161 9.53517E-05-2.88067E-05-2.85201E-05-7.69064E-07 2.59484E-19 6.62059E-21
 -1      3162 9.52305E-05-2.86457E-05-2.85346E-05-6.43216E-07 6.79105E-19 5.89398E-19
 -1      3163 9.52083E-05-2.86705E-05-2.85175E-05-6.65735E-07 4.83751E-19 7.64320E-19
 -1      3164 9.53232E-05-2.87385E-05-2.85370E-05-6.96659E-07 5.00524E-19 3.04808E-19
 -1      3165 9.52422E-05-2.85770E-05-2.85688E-05-6.29369E-07 6.39287E-19 5.86515E-19
 -1      3166 9.52188E-05-2.86071E-05-2.85493E-05-6.31128E-07 7.79998E-19 6.67885E-19
 -1      3167 9.52983E-05-2.86559E-05-2.85615E-05-6.56268E-07 5.46422E-19 1.13036E-19
 -1      3168 9.52569E-05-2.84980E-05-2.86087E-05-6.63084E-07 6.52742E-19 4.14152E-19
 -1      3169 9.52313E-05-2.85330E-05-2.85866E-05-6.40127E-07 7.07237E-19 4.71242E-19
 -1      3170 9.52754E-05-2.85601E-05-2.85927E-05-6.57335E-07 7.48056E-19 3.73861E-19
 -1      3171 9.52756E-05-2.84084E-05-2.86547E-05-7.52317E-07 1.95555E-19-1.08981E-19
 -1      3172 9.52461E-05-2.84482E-05-2.86294E-05-7.00746E-07 6.51959E-19 2.99553E-19
 -1      3173 9.52531E-05-2.84507E-05-2.86300E-05-7.08428E-07 5.21509E-19-1.54835E-19
 -1      3174 9.52999E-05-2.83081E-05-2.87077E-05-9.05156E-07 1.11598E-19-1.82631E-19
 -1      3175 9.52643E-05-2.83522E-05-2.86785E-05-8.21023E-07-1.20158E-19-7.99883E-20
 -1      3176 9.52303E-05-2.83267E-05-2.86733E-05-8.17957E-07 2.30235E-21-1.81488E-19
 -1      3177 9.53322E-05-2.81979E-05-2.87683E-05-1.12976E-06-7.05306E-20-8.28773E-20
 -1      3178 9.52878E-05-2.82453E-05-2.87347E-05-1.00918E-06 2.28914E-19 2.65732E-19
 -1      3179 9.52060E-05-2.81874E-05-2.87226E-05-9.94494E-07-1.74122E-19 2.19199E-20
 -1      3180 9.53767E-05-2.80808E-05-2.88369E-05-1.43379E-06 3.20936E-19 6.44608E-19
 -1      3181 9.53199E-05-2.81292E-05-2.87984E-05-1.27336E-06 1.66344E-19 2.61091E-19
 -1      3182 9.51806E-05-2.80335E-05-2.87777E-05-1.24669E-06-1.12280E-19 4.72147E-19
 -1      3183 9.54397E-05-2.79639E-05-2.89135E-05-1.82324E-06-5.72881E-19 1.25977E-18
 -1      3184 9.53657E-05-2.80088E-05-2.88699E-05-1.62075E-06-1.22038E-19 9.87757E-19
 -1      3185 9.51562E-05-2.78686E-05-2.88379E-05-1.58269E-06-4.14973E-19 1.20471E-18
 -1      3186 9.55317E-05-2.78603E-05-2.89967E-05-2.30049E-06-9.64095E-19 9.29754E-19
 -1      3187 9.54338E-05-2.78939E-05-2.89485E-05-2.05612E-06-5.26103E-19 8.66387E-19
 -1      3188 9.51380E-05-2.77016E-05-2.89018E-05-2.00901E-06-4.12941E-19 7.06894E-19
 -1      3189 9.56689E-05-2.77928E-05-2.90841E-05-2.86142E-06 6.90156E-20-4.50449E-19
 -1      3190 9.55378E-05-2.78022E-05-2.90322E-05-2.57944E-06-3.22010E-19 3.74949E-19
 -1      3191 9.51366E-05-2.75496E-05-2.89667E-05-2.52870E-06-1.05199E-19 1.04662E-19
 -1      3192 9.58773E-05-2.77972E-05-2.91713E-05-3.49130E-06-1.59079E-20-1.59263E-18
 -1      3193 9.56996E-05-2.77629E-05-2.91179E-05-3.18250E-06 1.40484E-19-1.09976E-18
 -1      3194 9.51710E-05-2.74414E-05-2.90285E-05-3.13867E-06 5.82036E-19-7.92396E-19
 -1      3195 9.61964E-05-2.79277E-05-2.92523E-05-4.15937E-06-8.41219E-19-6.38243E-19
 -1      3196 9.59529E-05-2.78209E-05-2.92003E-05-3.84410E-06-5.50487E-19-1.20133E-18
 -1      3197 9.52736E-05-2.74234E-05-2.90814E-05-3.82593E-06-2.74628E-19-1.03246E-18
 -1      3198 9.66859E-05-2.82607E-05-2.93202E-05-4.81163E-06-5.66651E-19-9.62808E-19
 -1      3199 9.63495E-05-2.80420E-05-2.92731E-05-4.52375E-06-4.66149E-19-8.30555E-19
 -1      3200 9.54963E-05-2.75641E-05-2.91185E-05-4.56247E-06-8.23700E-19-8.07605E-19
 -1      3201 9.74306E-05-2.88969E-05-2.93683E-05-5.36176E-06-5.13158E-19-8.17294E-19
 -1      3202 9.69651E-05-2.85163E-05-2.93297E-05-5.15318E-06-5.72475E-19-6.91788E-19
 -1      3203 9.59187E-05-2.79605E-05-2.91332E-05-5.29813E-06-3.87188E-19-9.57540E-19
 -1      3204 9.85429E-05-2.99550E-05-2.93948E-05-5.67988E-06-1.01685E-18 1.89853E-19
 -1      3205 9.79045E-05-2.93569E-05-2.93657E-05-5.62528E-06-7.03839E-19-2.87417E-19
 -1      3206 9.66565E-05-2.87385E-05-2.91214E-05-5.95038E-06-8.15751E-19 2.17091E-19
 -1      3207 1.00154E-04-3.15469E-05-2.94085E-05-5.58019E-06-9.19600E-19 6.19108E-19
 -1      3208 9.92997E-05-3.06866E-05-2.93847E-05-5.78030E-06-9.58980E-19 2.61646E-19
 -1      3209 9.78656E-05-3.00450E-05-2.90876E-05-6.38902E-06-1.26536E-18-4.33780E-19
 -1      3210 1.02377E-04-3.37188E-05-2.94396E-05-4.81251E-06-7.22676E-19 1.08590E-18
 -1      3211 1.01289E-04-3.25978E-05-2.94066E-05-5.39173E-06-3.80805E-19 9.86933E-19
 -1      3212 9.97320E-05-3.20147E-05-2.90534E-05-6.41472E-06-1.04098E-18 1.80475E-19
 -1      3213 1.05230E-04-3.63421E-05-2.95515E-05-3.07586E-06 5.40040E-19-1.14287E-19
 -1      3214 1.03957E-04-3.50685E-05-2.94790E-05-4.16391E-06-3.63237E-19 2.30482E-19
 -1      3215 1.02426E-04-3.46918E-05-2.90706E-05-5.73657E-06-1.16955E-19-5.10627E-20
 -1      3216 1.08492E-04-3.89324E-05-2.98529E-05-7.33544E-08 5.72201E-19 1.40626E-19
 -1      3217 1.07227E-04-3.78233E-05-2.96908E-05-1.75530E-06 5.27247E-19 2.15067E-19
 -1      3218 1.06003E-04-3.78955E-05-2.92364E-05-3.97194E-06 3.85171E-19 7.40107E-19
 -1      3219 1.11499E-04-4.04534E-05-3.04962E-05 4.27121E-06 7.86593E-19 5.28779E-19
 -1      3220 1.10635E-04-4.01019E-05-3.01803E-05 2.09165E-06 6.16853E-19 1.88642E-19
 -1      3221 1.10219E-04-4.09758E-05-2.97116E-05-6.51496E-07 4.19786E-19 3.56573E-19
 -1      3222 1.13131E-04-3.93902E-05-3.16267E-05 9.31124E-06 5.63391E-19-7.70999E-20
 -1      3223 1.13104E-04-4.05090E-05-3.11128E-05 7.12933E-06 9.74211E-19 3.21691E-19
 -1      3224 1.14130E-04-4.24377E-05-3.07155E-05 4.35851E-06 9.99285E-19-6.30328E-19
 -1      3225 1.12290E-04-3.46707E-05-3.32280E-05 1.30801E-05-1.21152E-19 4.58020E-19
 -1      3226 1.13287E-04-3.75995E-05-3.25538E-05 1.18713E-05 1.94339E-19-2.28735E-19
 -1      3227 1.15881E-04-4.04003E-05-3.24068E-05 1.04003E-05 4.81571E-19-9.09846E-19
 -1      3228 1.08796E-04-2.69628E-05-3.50071E-05 1.33619E-05-8.98450E-19 2.46522E-18
 -1      3229 1.10731E-04-3.09927E-05-3.43303E-05 1.41901E-05-9.13181E-19 1.98290E-18
 -1      3230 1.15224E-04-3.46033E-05-3.45243E-05 1.42570E-05-1.66835E-18 1.27521E-18
 -1      3231 1.04997E-04-2.02984E-05-3.62981E-05 8.00074E-06 3.17584E-19 2.55679E-18
 -1      3232 1.06532E-04-2.31711E-05-3.59139E-05 1.08016E-05-5.99316E-19 2.46740E-18
 -1      3233 1.10717E-04-2.43011E-05-3.70431E-05 1.34558E-05-1.02711E-18 2.57133E-18
 -1      3234 1.06922E-04-1.89504E-05-3.78885E-05-2.55509E-06 2.92601E-18 2.90010E-19
 -1      3235 1.06395E-04-1.78645E-05-3.81087E-05 1.53816E-06 3.12142E-18 1.33355E-18
 -1      3236 1.11455E-04-3.33435E-05-3.35746E-05-8.93866E-06 2.73737E-18-4.03580E-18
 -1      3237 1.09791E-04-2.96319E-05-3.43132E-05-8.67162E-06 2.09394E-18-3.94025E-18
 -1      3238 1.12829E-04-3.85345E-05-3.18788E-05-5.56281E-06 3.32560E-20-4.12958E-18
 -1      3239 1.12252E-04-3.63837E-05-3.25221E-05-7.02940E-06 2.17759E-18-4.40733E-18
 -1      3240 1.15758E-04-3.65213E-05-3.40465E-05-8.54804E-06 1.83684E-18-2.25896E-18
 -1      3241 1.11223E-04-3.97314E-05-3.06564E-05-5.08635E-07-1.21229E-18-2.75260E-18
 -1      3242 1.11921E-04-3.95275E-05-3.10864E-05-2.56280E-06-1.42049E-18-4.46822E-18
 -1      3243 1.15715E-04-4.14668E-05-3.18878E-05-3.18996E-06-6.03670E-19-2.52547E-18
 -1      3244 9.90936E-05-3.15394E-05-2.88866E-05-2.10453E-05 6.14552E-19-2.69181E-18
 -1      3245 6.44943E-05-2.61800E-05-1.63719E-05 2.64511E-05 1.43334E-19-2.19604E-18
 -1      3246 5.33838E-05-1.80670E-05-1.48099E-05 1.70654E-05-1.95532E-19-1.11951E-18
 -1      3247 9.23735E-05-1.83435E-05-3.17423E-05 1.81282E-06 1.03150E-18-1.24553E-18
 -1      3248 9.22541E-05-1.81414E-05-3.17743E-05 1.05868E-06 8.83175E-19-1.44273E-18
 -1      3249 7.25115E-05-1.61510E-05-2.40403E-05-1.36259E-05 1.91549E-18 4.35192E-18
 -1      3250 6.95330E-05-1.42557E-05-2.36649E-05-7.77997E-06 1.17984E-18 4.16539E-18
 -1      3251 7.45502E-05-1.78841E-05-2.44018E-05 1.54660E-05-9.50272E-19-2.29519E-19
 -1      3252 8.00352E-05-2.11620E-05-2.49927E-05 2.01294E-05-1.90516E-18-2.02335E-19
 -1      3253 8.31743E-05-2.62429E-05-2.42559E-05-2.56656E-05 2.31647E-18 1.62366E-19
 -1      3254 7.61921E-05-2.18594E-05-2.32508E-05-2.21759E-05 2.93012E-18 1.60005E-18
 -1      3255 6.85457E-05-1.37297E-05-2.35019E-05 1.46369E-06 5.72912E-19 2.44316E-18
 -1      3256 7.03331E-05-1.47815E-05-2.36691E-05 8.11736E-06 5.40973E-19 1.15650E-19
 -1      3257 6.47332E-05-1.42758E-05-2.15083E-05-3.71876E-06 5.84003E-19 3.44478E-18
 -1      3258 1.21384E-04-2.54593E-05-4.15483E-05-1.07069E-05 4.53554E-18 3.61829E-19
 -1      3259 1.27092E-04-3.37716E-05-4.00911E-05-1.15248E-05 3.47823E-18-1.78459E-19
 -1      3260 1.04572E-04-3.51343E-05-2.97787E-05 9.45853E-06-1.01489E-18-2.73741E-18
 -1      3261 8.24793E-05-3.61885E-05-1.94992E-05 2.83397E-05 6.20663E-19-9.59979E-19
 -1      3262 9.52154E-05-2.87896E-05-2.84670E-05-9.88518E-07 6.63356E-19 1.23333E-19
 -1      3263 9.51975E-05-2.87766E-05-2.84657E-05-1.03795E-06 6.23574E-19 2.02294E-19
 -1      3264 9.54718E-05-2.88751E-05-2.85435E-05-1.04466E-06 2.48040E-19-2.16730E-19
 -1      3265 9.54249E-05-2.88837E-05-2.85192E-05-9.60733E-07 5.20110E-19 1.96177E-19
 -1      3266 9.54135E-05-2.73505E-05-2.91769E-05 2.77505E-07 8.09620E-19 2.46476E-19
 -1      3267 9.54759E-05-2.69433E-05-2.93557E-05 8.35806E-07 7.71830E-19 3.40310E-19
 -1      3268 9.56929E-05-2.73390E-05-2.93000E-05 2.28710E-07 7.75419E-19 1.28852E-19
 -1      3269 9.54873E-05-2.55639E-05-2.99553E-05-2.14601E-06-2.48884E-19-1.31694E-18
 -1      3270 9.55337E-05-2.62651E-05-2.96986E-05-1.33386E-06-1.98137E-19-1.21657E-18
 -1      3271 9.57095E-05-2.62048E-05-2.97894E-05-1.17179E-06-1.91311E-20-1.16689E-18
 -1      3272 7.69675E-05-3.58638E-05-1.74398E-05 3.87339E-05 9.12149E-20-1.50253E-18
 -1      3273 6.26349E-05-2.57356E-05-1.51591E-05 3.13536E-05 1.02586E-18 7.15531E-19
 -1      3274 1.32099E-04-3.57036E-05-4.12959E-05 1.51928E-05-2.05882E-18 2.10080E-18
 -1      3275 1.25697E-04-2.59889E-05-4.33931E-05 1.54744E-05-2.76980E-19 2.65757E-18
 -1      3276 9.85951E-05-4.89315E-05-2.08950E-05-3.32524E-05-2.05734E-18 1.28153E-18
 -1      3277 1.11646E-04-5.51366E-05-2.42950E-05-2.76300E-05-2.21536E-18 1.59602E-18
 -1      3278 9.52044E-05-2.42715E-05-3.04025E-05 4.27341E-06 1.26375E-18 5.19614E-19
 -1      3279 9.46372E-05-2.27178E-05-3.08064E-05 4.78908E-06 1.31820E-18 3.88456E-19
 -1      3280 9.49636E-05-2.35993E-05-3.05658E-05 3.69985E-06 1.14875E-18 3.27568E-19
 -1      3281 9.52398E-05-2.52038E-05-3.00291E-05 2.99124E-06 1.11044E-18 4.86271E-19
 -1      3282 5.26877E-05-1.55002E-05-1.54185E-05-1.09071E-05 2.67969E-18 5.95951E-18
 -1      3283 5.62455E-05-1.93301E-05-1.55013E-05-2.25953E-05 4.11139E-18 6.63947E-18
 -1      3284 9.78045E-05-4.55394E-05-2.19932E-05-3.47447E-05 2.86721E-18-1.86887E-18
 -1      3285 1.12937E-04-5.47331E-05-2.51259E-05-3.10673E-05 2.96806E-18-1.29364E-18
 -1      3286 1.42109E-04-4.38407E-05-4.24780E-05 1.07006E-05 9.96958E-19-4.25009E-18
 -1      3287 9.34724E-05-1.98495E-05-3.15489E-05-6.23486E-06-2.57939E-19-1.78275E-18
 -1      3288 1.36684E-04-5.48202E-05-3.49967E-05-4.50914E-07-1.97680E-18 2.07470E-18
 -1      3289 1.35045E-04-4.62648E-05-3.87030E-05 8.75312E-06-1.84534E-18 2.04368E-18
 -1      3290 1.34882E-04-5.66767E-05-3.35188E-05 5.79647E-06 1.35411E-19-4.51574E-19
 -1      3291 1.30841E-04-5.69503E-05-3.16832E-05 1.04772E-05-1.88941E-19-2.49742E-19
 -1      3292 1.31761E-04-5.09520E-05-3.49231E-05-1.56035E-06 7.28885E-19 5.34690E-19
 -1      3293 9.21940E-05-1.80413E-05-3.17927E-05 4.08611E-07 8.55169E-19-1.52694E-18
 -1      3294 9.21908E-05-1.80366E-05-3.17932E-05-3.59838E-07 7.26647E-19-1.55744E-18
 -1      3295 9.31477E-05-1.96256E-05-3.14919E-05 6.28841E-07 7.27552E-19-1.41633E-18
 -1      3296 9.43364E-05-2.19775E-05-3.09888E-05 3.63229E-06 1.20510E-18-1.26808E-19
 -1      3297 9.34322E-05-2.02133E-05-3.14042E-05 4.24596E-06 1.26528E-18-4.37398E-19
 -1      3298 9.30733E-05-1.95523E-05-3.15179E-05 3.65405E-06 1.30785E-18-6.97889E-19
 -1      3299 6.72258E-05-2.23381E-05-1.89775E-05-2.42887E-05 3.82520E-18 4.01525E-18
 -1      3300 1.17585E-04-5.67513E-05-2.59350E-05-2.29003E-05-2.26274E-18 1.23755E-18
 -1      3301 1.21485E-04-5.67656E-05-2.78957E-05-1.67192E-05-2.26899E-18 1.19233E-18
 -1      3302 1.10903E-04-5.29266E-05-2.48779E-05-2.43479E-05-1.46095E-18 1.21565E-18
 -1      3303 6.15668E-05-2.15877E-05-1.66216E-05 2.32821E-05 8.82767E-20 1.46129E-18
 -1      3304 6.03034E-05-2.46858E-05-1.49140E-05-2.94957E-05-2.54756E-18-1.33821E-18
 -1      3305 7.13186E-05-2.89910E-05-1.78008E-05-2.86087E-05-2.63872E-18-1.37166E-18
 -1      3306 9.31546E-05-4.36193E-05-2.09434E-05-3.10734E-05-2.14363E-18 9.52330E-19
 -1      3307 1.22383E-04-5.73350E-05-2.76548E-05-2.21118E-05 2.20788E-18-2.33125E-18
 -1      3308 9.50247E-05-2.37272E-05-3.05584E-05-3.91117E-06-2.10838E-19-1.53556E-18
 -1      3309 9.51922E-05-2.46827E-05-3.02338E-05-2.87319E-06-2.52127E-19-1.45079E-18
 -1      3310 9.52773E-05-2.45617E-05-3.03002E-05-2.53362E-06-1.13947E-19-1.49957E-18
 -1      3311 8.00537E-05-3.11177E-05-2.06137E-05 2.40875E-05-4.45010E-19-1.57156E-18
 -1      3312 9.63309E-05-3.17229E-05-2.76599E-05-2.40413E-05 8.65092E-19-2.90510E-18
 -1      3313 9.53489E-05-2.81725E-05-2.87810E-05-7.11203E-07 4.37907E-19 3.61396E-19
 -1      3314 9.56911E-05-2.80100E-05-2.90111E-05-4.69867E-07 4.46798E-19 2.12707E-19
 -1      3315 9.53176E-05-2.83373E-05-2.87076E-05-8.85464E-07 2.38248E-19 3.02896E-19
 -1      3316 9.40364E-05-2.14122E-05-3.11316E-05-5.00218E-06-2.26123E-19-1.68283E-18
 -1      3317 9.55857E-05-2.86789E-05-2.86778E-05-1.04281E-06 3.12569E-19 1.27368E-19
 -1      3318 9.52738E-05-2.85687E-05-2.85883E-05-1.07604E-06 1.52081E-19 1.77722E-19
 -1      3319 9.52848E-05-2.84653E-05-2.86313E-05-1.00475E-06 2.03283E-19 1.28436E-19
 -1      3320 1.09635E-04-1.64280E-05-4.01122E-05 4.63713E-06 2.98664E-18 1.88944E-18
 -1      3321 1.07039E-04-2.27928E-05-3.61215E-05-5.68784E-06 2.23880E-18-1.70062E-18
 -1      3322 1.12119E-04-1.94594E-05-3.98242E-05-6.80337E-06 4.53025E-18-2.77192E-19
 -1      3323 1.17759E-04-2.28174E-05-4.10587E-05-9.78159E-06 4.75029E-18 4.66980E-19
 -1      3324 1.08751E-04-2.61667E-05-3.55745E-05-8.29561E-06 2.17801E-18-2.72349E-18
 -1      3325 1.13687E-04-2.87292E-05-3.64316E-05-9.92187E-06 2.96649E-18-2.99402E-18
 -1      3326 1.10063E-04-3.94892E-05-3.02928E-05 2.05386E-06-6.31784E-19-2.46086E-18
 -1      3327 1.13600E-04-4.20018E-05-3.06317E-05 2.46763E-06-1.65016E-18-3.10872E-18
 -1      3328 1.09349E-04-3.91148E-05-3.01248E-05 3.82631E-06-5.60278E-19-2.03510E-18
 -1      3329 9.25473E-05-1.86378E-05-3.16864E-05 2.42325E-06 1.12797E-18-9.42941E-19
 -1      3330 9.33601E-05-2.00139E-05-3.14156E-05 1.80329E-06 9.77333E-19-1.00941E-18
 -1      3331 9.27854E-05-1.90526E-05-3.16189E-05 3.12498E-06 1.29813E-18-7.54018E-19
 -1      3332 9.85706E-05-3.40485E-05-2.77274E-05 2.28287E-05 1.21845E-19 1.77767E-19
 -1      3333 1.02673E-04-3.63459E-05-2.83238E-05 2.11340E-05 7.15476E-19 8.12490E-20
 -1      3334 1.07034E-04-3.73934E-05-2.98178E-05 8.19214E-06-1.31485E-18-3.23090E-18
 -1      3335 1.08388E-04-3.86714E-05-2.99052E-05 6.79773E-06-4.96333E-19-2.84990E-18
 -1      3336 1.06994E-04-3.76633E-05-2.96888E-05 1.24021E-05-1.31372E-18-3.63862E-18
 -1      3337 1.27001E-04-3.89794E-05-3.77379E-05-9.07694E-06 3.01708E-18-1.98550E-19
 -1      3338 8.66106E-05-2.65746E-05-2.58613E-05 2.33692E-05-2.06008E-18-8.31363E-19
 -1      3339 9.28556E-05-3.02418E-05-2.66282E-05 2.44531E-05-9.44632E-19 3.62975E-20
 -1      3340 9.75521E-05-3.59093E-05-2.63518E-05 2.59009E-05-5.36182E-19-1.32916E-19
 -1      3341 6.96954E-05-1.71701E-05-2.22567E-05 1.34601E-05-5.01377E-19 1.05232E-18
 -1      3342 9.29210E-05-2.97011E-05-2.70585E-05-2.37919E-05 1.53107E-18-1.38372E-18
 -1      3343 8.88225E-05-3.30846E-05-2.37269E-05-2.91862E-05 2.49684E-18-1.26197E-18
 -1      3344 5.86835E-05-1.71056E-05-1.75274E-05 1.22244E-05 2.21813E-19-1.08076E-18
 -1      3345 4.88652E-05-1.40474E-05-1.46624E-05 9.38664E-06 3.29761E-19-4.36169E-19
 -1      3346 9.53817E-05-2.64940E-05-2.95307E-05 1.37094E-06 8.31756E-19 3.66300E-19
 -1      3347 9.54320E-05-2.58870E-05-2.97903E-05 2.24574E-06 9.72712E-19 3.25229E-19
 -1      3348 9.53550E-05-2.52322E-05-3.00697E-05 2.60023E-06 1.02290E-18 2.97841E-19
 -1      3349 9.55818E-05-2.64034E-05-2.96528E-05 1.23931E-06 8.40034E-19 2.01069E-19
 -1      3350 4.53022E-05-1.26675E-05-1.36081E-05-3.25339E-06-5.32046E-19-1.64938E-18
 -1      3351 1.32489E-04-5.60700E-05-3.26678E-05-3.86742E-06-2.62357E-18 1.96120E-18
 -1      3352 1.30439E-04-4.19771E-05-3.80205E-05 1.19714E-05-2.46475E-18 3.45007E-18
 -1      3353 1.04906E-04-3.72687E-05-2.89866E-05 1.82217E-05 7.36567E-20-7.64025E-20
 -1      3354 1.06709E-04-3.81845E-05-2.93314E-05 1.54725E-05-9.56007E-19-1.94266E-18
 -1      3355 1.09180E-04-4.07742E-05-2.93378E-05 1.44511E-05-4.94747E-19-3.26538E-18
 -1      3356 1.05919E-04-4.02377E-05-2.82205E-05 2.07558E-05 9.18851E-19 6.27724E-19
 -1      3357 1.20128E-04-5.85724E-05-2.61763E-05 2.91126E-05 1.04556E-19-1.60566E-19
 -1      3358 1.12061E-04-5.36678E-05-2.48908E-05 3.13578E-05 4.31775E-19-7.70965E-19
 -1      3359 1.24392E-04-5.80246E-05-2.84198E-05 2.16607E-05-1.00638E-19 4.13061E-19
 -1      3360 8.92663E-05-4.12636E-05-2.02835E-05 3.64226E-05 1.66389E-19-1.23714E-18
 -1      3361 9.32382E-05-3.91165E-05-2.28336E-05-3.15967E-05 2.25131E-18-5.41294E-19
 -1      3362 9.30432E-05-1.95021E-05-3.15260E-05-3.61637E-06 2.57796E-19-1.60123E-18
 -1      3363 9.34097E-05-2.01710E-05-3.14141E-05-4.22751E-06 3.74589E-20-1.73913E-18
 -1      3364 4.90534E-05-1.73576E-05-1.33569E-05-1.93626E-05-2.23956E-18-1.23857E-18
 -1      3365 1.13624E-04-1.34509E-05-4.31629E-05 3.05332E-06 3.83018E-18 8.15547E-19
 -1      3366 8.29059E-05-2.63901E-05-2.40632E-05 2.45758E-05-1.87407E-18-3.27987E-19
 -1      3367 9.27558E-05-1.90079E-05-3.16250E-05-3.08400E-06 3.51282E-19-1.61147E-18
 -1      3368 9.37445E-05-2.07548E-05-3.12623E-05-2.81300E-06 2.01485E-19-1.50342E-18
 -1      3369 9.25253E-05-1.86053E-05-3.16908E-05-2.37588E-06 4.89585E-19-1.52455E-18
 -1      3370 1.11751E-04-1.74283E-05-4.09534E-05 1.06199E-05 1.52302E-18 2.23524E-18
 -1      3371 9.61682E-05-2.78300E-05-2.92808E-05 2.40898E-07-6.05311E-19-8.73295E-19
 -1      3372 9.61662E-05-2.81490E-05-2.91546E-05 4.93322E-07-5.64742E-19-8.59303E-19
 -1      3373 9.61754E-05-2.84122E-05-2.90358E-05 6.53964E-07-5.61099E-19-6.97395E-19
 -1      3374 9.61459E-05-2.86094E-05-2.89465E-05 7.89097E-07-4.86065E-19-5.32312E-19
 -1      3375 9.63675E-05-2.82231E-05-2.92065E-05 4.70396E-07-3.87159E-19-6.39084E-19
 -1      3376 9.61132E-05-2.87627E-05-2.88605E-05 8.65520E-07-4.24434E-19-5.36534E-19
 -1      3377 9.60731E-05-2.88762E-05-2.87994E-05 9.20630E-07-1.24542E-19-7.95702E-19
 -1      3378 9.63453E-05-2.86930E-05-2.89960E-05 7.27029E-07-3.88584E-19-3.22881E-19
 -1      3379 9.60181E-05-2.89544E-05-2.87391E-05 9.40141E-07-2.34556E-20-9.27879E-19
 -1      3380 9.59755E-05-2.90101E-05-2.86992E-05 9.44250E-07-1.88274E-20-6.92956E-19
 -1      3381 9.62601E-05-2.89616E-05-2.88444E-05 8.39762E-07-1.70505E-19-4.97375E-19
 -1      3382 9.59108E-05-2.90373E-05-2.86586E-05 9.28925E-07-8.09409E-20-4.47887E-19
 -1      3383 9.58696E-05-2.90536E-05-2.86345E-05 9.03766E-07-1.07121E-19-2.92817E-19
 -1      3384 9.61428E-05-2.90900E-05-2.87390E-05 8.58322E-07-2.60206E-20-7.63798E-19
 -1      3385 9.58025E-05-2.90465E-05-2.86091E-05 8.70248E-07-3.02462E-19-2.71041E-19
 -1      3386 9.57645E-05-2.90359E-05-2.85967E-05 8.31731E-07-5.04559E-19-3.52130E-19
 -1      3387 9.60132E-05-2.91226E-05-2.86693E-05 8.21451E-07-1.94616E-19-3.79297E-19
 -1      3388 9.56990E-05-2.90058E-05-2.85828E-05 7.92218E-07-5.35687E-19-4.29142E-19
 -1      3389 9.56648E-05-2.89766E-05-2.85792E-05 7.51882E-07-5.99309E-19-5.53230E-19
 -1      3390 9.58826E-05-2.90901E-05-2.86270E-05 7.58199E-07-6.07656E-19-5.17185E-19
 -1      3391 9.56023E-05-2.89305E-05-2.85741E-05 7.15296E-07-5.83818E-19-5.39964E-19
 -1      3392 9.55715E-05-2.88878E-05-2.85771E-05 6.81626E-07-4.98227E-19-5.94362E-19
 -1      3393 9.57562E-05-2.90129E-05-2.86056E-05 6.89916E-07-6.06109E-19-3.78499E-19
 -1      3394 9.55116E-05-2.88296E-05-2.85788E-05 6.54645E-07-4.59165E-19-2.16645E-19
 -1      3395 9.54831E-05-2.87760E-05-2.85870E-05 6.34111E-07-5.44519E-19 1.31429E-20
 -1      3396 9.56353E-05-2.89033E-05-2.86004E-05 6.32457E-07-1.21859E-19-4.68834E-19
 -1      3397 9.54243E-05-2.87073E-05-2.85942E-05 6.21956E-07-5.72051E-19 1.16641E-20
 -1      3398 9.53966E-05-2.86435E-05-2.86067E-05 6.19826E-07-3.26680E-19-2.11873E-19
 -1      3399 9.55178E-05-2.87678E-05-2.86078E-05 5.97918E-07-6.33826E-19 4.71522E-20
 -1      3400 9.53358E-05-2.85637E-05-2.86182E-05 6.26913E-07-3.17967E-19-3.54685E-21
 -1      3401 9.53069E-05-2.84888E-05-2.86344E-05 6.47923E-07-4.64659E-19 2.42543E-19
 -1      3402 9.53993E-05-2.86078E-05-2.86253E-05 5.96022E-07-1.62068E-19 2.46133E-20
 -1      3403 9.52401E-05-2.83957E-05-2.86496E-05 6.78401E-07-5.55728E-19 3.30007E-19
 -1      3404 9.52074E-05-2.83076E-05-2.86693E-05 7.27236E-07-3.86406E-19 3.74073E-19
 -1      3405 9.52729E-05-2.84208E-05-2.86508E-05 6.35330E-07-6.01059E-19 5.22863E-19
 -1      3406 9.51296E-05-2.81980E-05-2.86875E-05 7.85321E-07 3.47719E-20 5.09809E-19
 -1      3407 9.50896E-05-2.80934E-05-2.87105E-05 8.66919E-07 3.97657E-19 4.43841E-19
 -1      3408 9.51297E-05-2.82015E-05-2.86830E-05 7.24074E-07-1.55202E-19 7.08790E-19
 -1      3409 9.49944E-05-2.79627E-05-2.87310E-05 9.57072E-07-2.20481E-19 7.53580E-19
 -1      3410 9.49430E-05-2.78376E-05-2.87571E-05 1.07679E-06-3.29081E-19 4.73301E-19
 -1      3411 9.49583E-05-2.79417E-05-2.87203E-05 8.70609E-07 1.89392E-19 8.88188E-19
 -1      3412 9.48224E-05-2.76805E-05-2.87791E-05 1.20378E-06 2.86034E-19 2.77521E-19
 -1      3413 9.47540E-05-2.75302E-05-2.88077E-05 1.36742E-06 6.45292E-19 6.21108E-19
 -1      3414 9.47447E-05-2.76315E-05-2.87609E-05 1.08361E-06 7.78149E-21 8.64625E-19
 -1      3415 9.45983E-05-2.73407E-05-2.88297E-05 1.53622E-06 5.32460E-19 5.41401E-19
 -1      3416 9.45061E-05-2.71603E-05-2.88599E-05 1.74987E-06 7.35439E-19 5.95297E-20
 -1      3417 9.44715E-05-2.72593E-05-2.88023E-05 1.37197E-06 4.60398E-19 9.64489E-19
 -1      3418 9.43033E-05-2.69321E-05-2.88796E-05 1.96545E-06 9.51826E-19 3.67024E-19
 -1      3419 9.41783E-05-2.67168E-05-2.89094E-05 2.23518E-06 4.73030E-19 5.97386E-19
 -1      3420 9.41173E-05-2.68130E-05-2.88405E-05 1.74440E-06 6.92574E-19 6.65344E-19
 -1      3421 9.39141E-05-2.64443E-05-2.89234E-05 2.50226E-06-2.27489E-19 3.94668E-19
 -1      3422 9.37456E-05-2.61907E-05-2.89495E-05 2.83370E-06-2.05016E-19 5.19787E-21
 -1      3423 9.36564E-05-2.62809E-05-2.88693E-05 2.20884E-06-5.44830E-20 7.99724E-19
 -1      3424 9.34029E-05-2.58698E-05-2.89524E-05 3.15649E-06 1.34859E-19-6.51816E-20
 -1      3425 9.31785E-05-2.55774E-05-2.89695E-05 3.55444E-06 4.66999E-19-1.72402E-19
 -1      3426 9.30578E-05-2.56536E-05-2.88794E-05 2.77187E-06-3.35384E-20 1.80243E-19
 -1      3427 9.27376E-05-2.52083E-05-2.89531E-05 3.93692E-06 7.96260E-19-1.19692E-18
 -1      3428 9.24449E-05-2.48827E-05-2.89531E-05 4.40531E-06 7.30000E-19-6.87324E-19
 -1      3429 9.22851E-05-2.49276E-05-2.88566E-05 3.43861E-06 3.52061E-19-5.59987E-20
 -1      3430 9.18847E-05-2.44728E-05-2.89055E-05 4.85247E-06 1.27816E-18-2.69855E-19
 -1      3431 9.15142E-05-2.41312E-05-2.88762E-05 5.39531E-06 1.51674E-18 1.06531E-19
 -1      3432 9.12979E-05-2.41099E-05-2.87804E-05 4.21420E-06 1.49230E-18 5.16802E-21
 -1      3433 9.08139E-05-2.37016E-05-2.87807E-05 5.91665E-06 7.23507E-19 6.75858E-19
 -1      3434 9.03668E-05-2.33810E-05-2.87050E-05 6.54114E-06 6.07904E-19 1.00530E-18
 -1      3435 9.00540E-05-2.32270E-05-2.86215E-05 5.10875E-06 1.11292E-18 1.13201E-18
 -1      3436 8.95105E-05-2.29752E-05-2.85381E-05 7.15819E-06 4.12127E-19 5.77851E-19
 -1      3437 8.90116E-05-2.27462E-05-2.83929E-05 7.88161E-06 1.19284E-19 9.08677E-19
 -1      3438 8.85148E-05-2.23369E-05-2.83384E-05 6.14887E-06 2.50803E-19 3.30175E-19
 -1      3439 8.79955E-05-2.24434E-05-2.81231E-05 8.64222E-06-2.16225E-20 9.08659E-19
 -1      3440 8.75180E-05-2.24313E-05-2.78796E-05 9.50436E-06-1.42267E-20 9.54272E-19
 -1      3441 8.66560E-05-2.15480E-05-2.78748E-05 7.40075E-06 1.53972E-19 1.34232E-19
 -1      3442 8.63641E-05-2.23660E-05-2.74651E-05 1.05070E-05-7.36406E-19 5.02200E-19
 -1      3443 8.60724E-05-2.27833E-05-2.70913E-05 1.15869E-05-9.29373E-19 5.95272E-20
 -1      3444 8.44852E-05-2.10472E-05-2.71546E-05 9.01154E-06-4.62233E-19 3.99190E-19
 -1      3445 8.48655E-05-2.31889E-05-2.64783E-05 1.30098E-05-1.05096E-18-1.89838E-22
 -1      3446 8.50527E-05-2.43728E-05-2.59481E-05 1.44405E-05-4.53017E-19-4.71497E-19
 -1      3447 8.20793E-05-2.11554E-05-2.60757E-05 1.12725E-05-1.07531E-18 2.19696E-19
 -1      3448 8.39455E-05-2.55665E-05-2.50722E-05 1.64809E-05 4.12879E-19-1.46573E-19
 -1      3449 8.53610E-05-2.81999E-05-2.44485E-05 1.85825E-05 5.50820E-19 3.52713E-19
 -1      3450 7.97715E-05-2.24313E-05-2.45094E-05 1.46287E-05 1.55526E-20 1.43273E-18
 -1      3451 7.90478E-05-2.79577E-05-2.18013E-05 2.14200E-05-1.33394E-19-7.52059E-19
 -1      3452 8.77050E-05-3.80432E-05-2.10805E-05-2.88626E-05-2.37955E-18 2.76053E-19
 -1      3453 9.96263E-05-4.55031E-05-2.32160E-05-2.67185E-05-2.13720E-18 1.49909E-18
 -1      3454 1.36487E-04-5.97252E-05-3.28370E-05-6.93293E-06 5.14096E-19-4.00387E-18
 -1      3455 5.79409E-05-1.44899E-05-1.84029E-05-2.73597E-06 1.41740E-18 4.27805E-18
 -1      3456 5.76730E-05-1.43160E-05-1.83611E-05 7.92459E-06 5.71708E-19 3.26605E-18
 -1      3457 5.57617E-05-1.60732E-05-1.67087E-05-1.04314E-05-8.23581E-19-4.67562E-19
 -1      3458 9.54788E-05-2.88543E-05-2.85517E-05-7.23062E-07 1.02388E-19-4.84117E-19
 -1      3459 9.54949E-05-2.88872E-05-2.85467E-05-7.62464E-07-9.57455E-20-4.95788E-19
 -1      3460 9.55455E-05-2.89250E-05-2.85501E-05-8.04362E-07 1.72239E-20-2.72743E-19
 -1      3461 9.55646E-05-2.89457E-05-2.85510E-05-8.49789E-07 2.92449E-19 4.50143E-20
 -1      3462 9.56609E-05-2.89742E-05-2.85813E-05-7.53126E-07 1.82204E-19 2.03137E-20
 -1      3463 9.53601E-05-2.86565E-05-2.85854E-05-6.36954E-07 4.16106E-19 1.20319E-19
 -1      3464 9.53724E-05-2.87068E-05-2.85721E-05-6.45774E-07 4.42768E-19-9.01389E-20
 -1      3465 9.53034E-05-2.85331E-05-2.86138E-05-6.52140E-07 6.39645E-19 3.68082E-19
 -1      3466 9.53149E-05-2.85913E-05-2.85973E-05-6.38516E-07 7.70756E-19 2.43499E-19
 -1      3467 9.53830E-05-2.86361E-05-2.86063E-05-6.24578E-07 3.97222E-19-4.10592E-21
 -1      3468 9.52444E-05-2.83927E-05-2.86485E-05-7.17695E-07 3.51601E-19 3.58331E-19
 -1      3469 9.52559E-05-2.84592E-05-2.86290E-05-6.77368E-07 3.91952E-19 4.61585E-19
 -1      3470 9.52909E-05-2.84830E-05-2.86322E-05-6.53592E-07 4.86258E-19 3.31931E-19
 -1      3471 9.51800E-05-2.82334E-05-2.86889E-05-8.42097E-07-7.08063E-20 2.41996E-19
 -1      3472 9.51921E-05-2.83087E-05-2.86665E-05-7.70816E-07 4.02080E-19 2.87183E-19
 -1      3473 9.51918E-05-2.83086E-05-2.86641E-05-7.33344E-07 3.94215E-19 6.30087E-19
 -1      3474 9.51072E-05-2.80538E-05-2.87344E-05-1.03410E-06-2.12128E-19 5.12099E-19
 -1      3475 9.51201E-05-2.81382E-05-2.87091E-05-9.27545E-07-3.83353E-19 2.73395E-19
 -1      3476 9.50802E-05-2.81104E-05-2.87010E-05-8.72509E-07-5.08249E-20 7.15501E-19
 -1      3477 9.50241E-05-2.78544E-05-2.87839E-05-1.30267E-06-4.03242E-19 2.88882E-19
 -1      3478 9.50374E-05-2.79468E-05-2.87561E-05-1.15658E-06 4.53374E-20 2.45231E-19
 -1      3479 9.49510E-05-2.78866E-05-2.87412E-05-1.08021E-06-5.07905E-20 5.80386E-19
 -1      3480 9.49308E-05-2.76390E-05-2.88357E-05-1.65644E-06-3.26257E-19 2.63394E-19
 -1      3481 9.49427E-05-2.77366E-05-2.88061E-05-1.46703E-06-4.25580E-19-6.34480E-20
 -1      3482 9.48003E-05-2.76378E-05-2.87830E-05-1.36599E-06-8.82146E-20-1.43268E-19
 -1      3483 9.48311E-05-2.74178E-05-2.88873E-05-2.10281E-06-5.58649E-19-1.55532E-19
 -1      3484 9.48380E-05-2.75141E-05-2.88570E-05-1.86740E-06-4.50322E-19-1.08470E-19
 -1      3485 9.46264E-05-2.73689E-05-2.88236E-05-1.73945E-06-2.30078E-19-7.08980E-19
 -1      3486 9.47353E-05-2.72105E-05-2.89345E-05-2.64636E-06 2.26372E-19-6.35495E-19
 -1      3487 9.47300E-05-2.72939E-05-2.89054E-05-2.36439E-06-3.12670E-19-4.01837E-19
 -1      3488 9.44324E-05-2.70925E-05-2.88588E-05-2.20957E-06-2.64892E-19-6.39935E-19
 -1      3489 9.46644E-05-2.70511E-05-2.89717E-05-3.28670E-06 6.12007E-19-4.62818E-19
 -1      3490 9.46342E-05-2.71024E-05-2.89465E-05-2.96114E-06 5.18358E-19-4.72774E-19
 -1      3491 9.42291E-05-2.68328E-05-2.88832E-05-2.78366E-06 4.49533E-19-6.50036E-19
 -1      3492 9.46554E-05-2.69932E-05-2.89919E-05-4.01545E-06-7.39236E-19-4.57912E-19
 -1      3493 9.45795E-05-2.69827E-05-2.89739E-05-3.65474E-06-1.75290E-19-2.41129E-19
 -1      3494 9.40403E-05-2.66305E-05-2.88897E-05-3.46581E-06 5.94668E-20-4.74852E-19
 -1      3495 9.47696E-05-2.71171E-05-2.89867E-05-4.81206E-06-7.19309E-19-1.27368E-19
 -1      3496 9.46151E-05-2.70014E-05-2.89798E-05-4.43267E-06-7.88383E-19 5.84667E-21
 -1      3497 9.39090E-05-2.65498E-05-2.88697E-05-4.25479E-06-1.16275E-18 4.37567E-19
 -1      3498 9.51026E-05-2.75355E-05-2.89491E-05-5.63772E-06-8.26843E-19 3.08905E-19
 -1      3499 9.48202E-05-2.72550E-05-2.89563E-05-5.26777E-06-6.66090E-19 1.77308E-20
 -1      3500 9.39079E-05-2.66855E-05-2.88142E-05-5.14084E-06-7.63425E-19 2.70042E-19
 -1      3501 9.57953E-05-2.83970E-05-2.88757E-05-6.42531E-06-6.82299E-19 3.01355E-19
 -1      3502 9.53151E-05-2.78752E-05-2.88977E-05-6.11011E-06-5.90356E-19 2.95277E-19
 -1      3503 9.41509E-05-2.71704E-05-2.87158E-05-6.10000E-06-6.81636E-19-1.04203E-19
 -1      3504 9.70412E-05-2.98788E-05-2.87746E-05-7.06204E-06-5.94699E-19-6.51810E-19
 -1      3505 9.62733E-05-2.90289E-05-2.88059E-05-6.87273E-06-3.36013E-19 4.58546E-20
 -1      3506 9.48089E-05-2.81800E-05-2.85738E-05-7.08262E-06-2.65484E-19 2.28709E-19
 -1      3507 9.90788E-05-3.21547E-05-2.86754E-05-7.35965E-06-1.03948E-18-1.04990E-18
 -1      3508 9.79252E-05-3.09020E-05-2.86986E-05-7.40573E-06-1.14249E-18-1.23039E-18
 -1      3509 9.61229E-05-2.99258E-05-2.84020E-05-7.98909E-06-1.17030E-19-8.66962E-19
 -1      3510 1.02144E-04-3.53098E-05-2.86464E-05-7.01106E-06 3.91534E-19-1.33672E-18
 -1      3511 1.00538E-04-3.36460E-05-2.86247E-05-7.45317E-06-4.79364E-19-8.83061E-19
 -1      3512 9.84049E-05-3.26197E-05-2.82438E-05-8.62203E-06-5.80111E-19-2.69994E-18
 -1      3513 1.06378E-04-3.91742E-05-2.88145E-05-5.55517E-06-3.50031E-19-8.03558E-19
 -1      3514 1.04321E-04-3.72424E-05-2.86825E-05-6.60476E-06 1.59343E-19-1.18369E-18
 -1      3515 1.01990E-04-3.63700E-05-2.81945E-05-8.60325E-06 8.22110E-20-2.93694E-18
 -1      3516 1.11520E-04-4.30215E-05-2.93879E-05-2.50458E-06 3.87617E-19-3.50584E-19
 -1      3517 1.09263E-04-4.13117E-05-2.90416E-05-4.34981E-06-2.62895E-20-3.28617E-19
 -1      3518 1.06930E-04-4.08912E-05-2.84251E-05-7.28020E-06-4.90432E-19-2.28958E-18
 -1      3519 1.16681E-04-4.51624E-05-3.06882E-05 3.08198E-06 1.14765E-18 1.03282E-19
 -1      3520 1.15047E-04-4.48242E-05-2.99844E-05 2.22081E-07 1.09671E-18 4.46456E-19
 -1      3521 1.13789E-04-4.57117E-05-2.93031E-05-3.94830E-06 2.90704E-20-4.43766E-19
 -1      3522 1.19907E-04-4.27479E-05-3.30200E-05 9.97778E-06-3.49031E-19 6.58628E-19
 -1      3523 1.19462E-04-4.49991E-05-3.18823E-05 6.64207E-06 3.81610E-19 2.88132E-19
 -1      3524 1.19769E-04-4.72945E-05-3.10409E-05 2.32561E-06 7.93182E-19 1.27163E-18
 -1      3525 1.18354E-04-3.03792E-05-3.79477E-05 1.58139E-05-2.21729E-18 1.95076E-18
 -1      3526 1.19869E-04-3.56131E-05-3.64202E-05 1.46201E-05-2.04790E-18 1.66407E-18
 -1      3527 1.15924E-04-2.42067E-05-3.94441E-05 1.40325E-05-7.99387E-19 2.56292E-18
 -1      3528 1.15959E-04-2.71920E-05-3.81686E-05-9.91093E-06 3.81040E-18-5.90997E-19
 -1      3529 1.16879E-04-3.17248E-05-3.68764E-05-1.05097E-05 3.90114E-18-2.64322E-18
 -1      3530 1.23914E-04-4.61795E-05-3.33160E-05-2.96666E-06 2.92491E-19-1.04644E-18
 -1      3531 1.23547E-04-4.24742E-05-3.48026E-05-5.81978E-06 2.21271E-18-9.59344E-19
 -1      3532 6.28637E-05-1.74411E-05-1.92084E-05 1.68048E-05-1.06503E-18 1.71889E-18
 -1      3533 1.28050E-04-5.66452E-05-3.04505E-05-7.14447E-06-2.24060E-18 1.67593E-18
 -1      3534 1.29730E-04-5.27892E-05-3.30972E-05 1.63036E-06-1.98073E-18 3.48731E-18
 -1      3535 7.03690E-05-2.13902E-05-2.07894E-05-2.14187E-05 2.61077E-18 4.14840E-18
 -1      3536 6.52734E-05-1.94151E-05-1.95574E-05 1.61743E-05-7.20587E-19-1.65960E-18
 -1      3537 6.07273E-05-1.58226E-05-1.92627E-05 8.68832E-06-1.27906E-19-2.10167E-18
 -1      3538 7.17278E-05-2.65332E-05-1.93589E-05-2.48640E-05-2.13037E-18-1.14122E-18
 -1      3539 7.99575E-05-3.27966E-05-2.01157E-05-2.85240E-05-2.69341E-18-8.85679E-19
 -1      3540 8.78931E-05-3.53731E-05-2.23115E-05-2.48509E-05-2.46142E-18 2.12142E-19
 -1      3541 1.17786E-04-4.50637E-05-3.11208E-05 2.14580E-06-9.20288E-19-2.56183E-18
 -1      3542 1.19348E-04-4.45387E-05-3.20463E-05-1.23055E-06-3.64098E-19-1.93926E-18
 -1      3543 1.25321E-04-5.08416E-05-3.20459E-05 3.82514E-06-2.41484E-19-3.91382E-19
 -1      3544 1.16213E-04-4.48643E-05-3.06203E-05 5.13422E-06-1.77245E-18-2.34667E-18
 -1      3545 1.29889E-04-5.89600E-05-3.07108E-05-1.31769E-05 6.04411E-19-3.56348E-18
 -1      3546 9.56716E-05-2.55196E-05-3.00605E-05-1.49579E-06 9.34135E-20-1.37107E-18
 -1      3547 9.58385E-05-2.62660E-05-2.98255E-05-8.81987E-07 6.63756E-20-1.22490E-18
 -1      3548 9.54177E-05-2.87638E-05-2.85642E-05-6.63647E-07 5.16221E-19-2.85476E-19
 -1      3549 9.54315E-05-2.88060E-05-2.85547E-05-6.90390E-07 3.98573E-19-3.44312E-19
 -1      3550 9.55644E-05-2.88832E-05-2.85787E-05-6.84087E-07 1.80798E-19-6.42758E-19
 -1      3551 9.54728E-05-2.87695E-05-2.85878E-05-6.37746E-07 3.47474E-19-3.32238E-19
 -1      3552 9.22447E-05-1.81282E-05-3.17760E-05-1.00962E-06 7.10194E-19-1.65143E-18
 -1      3553 9.23566E-05-1.83189E-05-3.17454E-05-1.76235E-06 5.27171E-19-1.58496E-18
 -1      3554 9.33445E-05-1.99884E-05-3.14195E-05-1.76529E-06 3.82775E-19-1.51929E-18
 -1      3555 9.57801E-05-2.89232E-05-2.86527E-05-1.01455E-06 3.80575E-19-1.44085E-19
 -1      3556 9.58107E-05-2.88652E-05-2.86881E-05-1.00967E-06 4.60177E-19-6.43521E-22
 -1      3557 9.59011E-05-2.73768E-05-2.93746E-05 1.05346E-07 6.61218E-19 7.76301E-20
 -1      3558 9.58877E-05-2.69121E-05-2.95497E-05 5.66778E-07 6.61923E-19 2.98939E-20
 -1      3559 1.20834E-04-2.24519E-05-4.24031E-05 1.44488E-05 2.63480E-19 1.14050E-18
 -1      3560 9.60346E-05-2.69153E-05-2.96149E-05-4.51381E-07-6.17755E-20-1.19984E-18
 -1      3561 9.60887E-05-2.74087E-05-2.94409E-05-3.76900E-08-3.24434E-19-1.12451E-18
 -1      3562 9.62753E-05-2.74628E-05-2.94912E-05 9.68258E-09-3.29645E-19-9.81847E-19
 -1      3563 9.97190E-05-4.60807E-05-2.28437E-05 3.55921E-05 6.18440E-19-7.16378E-19
 -1      3564 8.55116E-05-3.53464E-05-2.11479E-05 3.33814E-05 4.18381E-19-1.33490E-18
 -1      3565 9.25577E-05-3.61148E-05-2.43391E-05 2.98426E-05-4.13663E-19-1.80069E-18
 -1      3566 1.00748E-04-4.03231E-05-2.57129E-05 2.78893E-05 4.85919E-20-5.80893E-19
 -1      3567 9.45088E-05-2.24355E-05-3.08768E-05-3.33502E-06-6.01811E-20-1.59047E-18
 -1      3568 9.40151E-05-2.13498E-05-3.11352E-05-4.33250E-06-1.34871E-19-1.69471E-18
 -1      3569 1.24247E-04-4.37462E-05-3.45148E-05 1.05687E-05-1.41825E-18 1.92235E-18
 -1      3570 7.39254E-05-2.50326E-05-2.09570E-05 2.70321E-05-5.36767E-19 1.21232E-19
 -1      3571 8.34551E-05-3.11446E-05-2.22038E-05 2.98096E-05-6.05900E-19-8.39793E-19
 -1      3572 9.38703E-05-2.10533E-05-3.12191E-05 8.08795E-07 7.56674E-19-1.21678E-18
 -1      3573 9.38216E-05-2.09537E-05-3.12385E-05 2.47390E-07 6.50210E-19-1.52263E-18
 -1      3574 9.49381E-05-2.35285E-05-3.06223E-05 3.05765E-06 1.14076E-18 9.70031E-20
 -1      3575 9.46708E-05-2.28288E-05-3.07893E-05 2.81240E-06 1.08419E-18-2.84747E-19
 -1      3576 1.05007E-04-4.78614E-05-2.42555E-05-2.40558E-05-1.54679E-18 1.54933E-18
 -1      3577 1.09843E-04-5.04023E-05-2.56046E-05-2.12016E-05-1.52109E-18-1.63371E-19
 -1      3578 9.95643E-05-4.28650E-05-2.41543E-05-2.32299E-05-1.75234E-18 6.47821E-19
 -1      3579 9.39564E-05-2.12241E-05-3.11782E-05 1.24869E-06 8.52408E-19-1.10844E-18
 -1      3580 9.46154E-05-2.23919E-05-3.09359E-05 8.29227E-07 6.86928E-19-9.78120E-19
 -1      3581 9.40917E-05-2.15141E-05-3.11192E-05 1.76613E-06 9.20534E-19-8.98429E-19
 -1      3582 9.56977E-05-2.89745E-05-2.85947E-05-9.72380E-07 7.54154E-20-2.00218E-19
 -1      3583 9.57246E-05-2.89530E-05-2.86149E-05-9.99787E-07 2.81757E-19-2.00985E-19
 -1      3584 9.59808E-05-2.90135E-05-2.87025E-05-9.41653E-07 3.89454E-19-2.20841E-19
 -1      3585 7.21438E-05-2.28582E-05-2.10031E-05 1.87021E-05-3.98145E-19-7.64626E-19
 -1      3586 9.59923E-05-2.62993E-05-2.98668E-05-7.15298E-07-1.73834E-20-1.45302E-18
 -1      3587 9.56454E-05-2.84291E-05-2.88112E-05-8.62405E-07 3.88675E-19 1.25703E-19
 -1      3588 9.58598E-05-2.87880E-05-2.87458E-05-9.84560E-07 4.46237E-19-8.55640E-20
 -1      3589 9.58926E-05-2.86765E-05-2.88024E-05-9.23812E-07 3.49267E-19-7.78177E-20
 -1      3590 9.60821E-05-2.88806E-05-2.88032E-05-9.16417E-07 4.11240E-19-2.93699E-19
 -1      3591 5.70793E-05-1.42227E-05-1.82600E-05-3.64084E-06-5.87113E-19-7.60000E-19
 -1      3592 6.14230E-05-1.83151E-05-1.81596E-05-1.72239E-05-1.42846E-18-4.90961E-19
 -1      3593 9.31423E-05-1.96172E-05-3.14931E-05-5.88225E-07 5.86888E-19-1.57407E-18
 -1      3594 9.57637E-05-2.90358E-05-2.85993E-05-8.31748E-07 3.75090E-19-2.63995E-19
 -1      3595 9.56186E-05-2.89690E-05-2.85628E-05-8.93694E-07 5.58001E-19-1.26150E-20
 -1      3596 9.56414E-05-2.89724E-05-2.85718E-05-9.36252E-07 3.23445E-19-2.35132E-19
 -1      3597 9.37699E-05-2.07945E-05-3.12549E-05 2.84610E-06 1.15912E-18-6.50852E-19
 -1      3598 6.86239E-05-2.18603E-05-1.98399E-05-1.95200E-05-1.59522E-18-4.10884E-19
 -1      3599 7.64422E-05-2.53519E-05-2.17922E-05-1.96366E-05-1.80930E-18-4.59721E-19
 -1      3600 6.75971E-05-1.88897E-05-2.08957E-05-1.34895E-05-1.04601E-18 1.70770E-19
 -1      3601 6.31168E-05-1.59120E-05-1.99147E-05-1.47755E-05 1.82326E-18 6.41080E-18
 -1      3602 9.42372E-05-2.18180E-05-3.10401E-05-2.11682E-06 2.70800E-19-1.40820E-18
 -1      3603 9.44426E-05-2.22978E-05-3.09349E-05-2.53556E-06 9.36447E-20-1.40637E-18
 -1      3604 7.30919E-05-2.09160E-05-2.23784E-05 1.50419E-05-3.30164E-19-8.24931E-19
 -1      3605 9.46937E-05-2.28594E-05-3.07791E-05-2.64051E-06 7.62938E-20-1.45683E-18
 -1      3606 9.51510E-05-2.40117E-05-3.04979E-05-2.62454E-06-8.41478E-20-1.44179E-18
 -1      3607 9.54224E-05-2.49183E-05-3.02237E-05-1.88797E-06-2.17255E-20-1.36524E-18
 -1      3608 9.51251E-05-2.37804E-05-3.05715E-05-1.92963E-06 1.21560E-19-1.38417E-18
 -1      3609 1.23690E-04-3.92455E-05-3.61167E-05-8.82340E-06 2.34096E-18-1.10374E-18
 -1      3610 9.57238E-05-2.64000E-05-2.97190E-05 9.73868E-07 8.02609E-19 1.59960E-19
 -1      3611 9.56390E-05-2.58629E-05-2.99043E-05 1.56886E-06 9.38448E-19 2.09367E-19
 -1      3612 9.59043E-05-2.64297E-05-2.97827E-05 8.18090E-07 7.83374E-19 1.03680E-19
 -1      3613 1.07512E-04-4.86832E-05-2.51133E-05 2.99489E-05 3.86247E-19-1.24882E-18
 -1      3614 6.57838E-05-1.61374E-05-2.12103E-05 6.13384E-06-6.05518E-19-1.64356E-18
 -1      3615 6.05809E-05-1.43286E-05-1.95324E-05 2.23867E-06-5.83765E-19-1.03040E-18
 -1      3616 6.29056E-05-1.52920E-05-2.04568E-05-4.85996E-06-1.18869E-18-6.08143E-19
 -1      3617 9.59516E-05-2.80872E-05-2.90894E-05-4.99290E-07 4.05752E-19 3.30315E-20
 -1      3618 9.59700E-05-2.77831E-05-2.92135E-05-2.20882E-07 5.27200E-19 5.12053E-20
 -1      3619 9.61084E-05-2.74069E-05-2.94452E-05 4.74719E-08 5.20478E-19 1.26343E-19
 -1      3620 1.09286E-04-4.43267E-05-2.78919E-05 2.21356E-05 3.30912E-19 4.21303E-19
 -1      3621 1.11997E-04-4.50993E-05-2.86168E-05 1.88046E-05 4.19857E-19 2.01395E-19
 -1      3622 9.55369E-05-2.49430E-05-3.02494E-05-1.56329E-06 1.25068E-19-1.23211E-18
 -1      3623 1.22088E-04-5.48276E-05-2.87498E-05-1.10019E-05-1.24596E-18 8.90523E-19
 -1      3624 1.06847E-04-4.58768E-05-2.60911E-05 2.69176E-05 1.33937E-19-4.43706E-19
 -1      3625 5.69997E-05-1.46661E-05-1.76116E-05-9.16703E-06 1.56606E-18 4.61887E-18
 -1      3626 1.27286E-04-5.37806E-05-3.14914E-05 7.95621E-06 4.96176E-20 1.09838E-18
 -1      3627 1.26692E-04-5.67893E-05-2.99308E-05 1.55101E-05-1.40330E-19 1.00458E-18
 -1      3628 1.21189E-04-5.43806E-05-2.86513E-05 1.94464E-05 3.85499E-19 3.92414E-19
 -1      3629 1.21609E-04-5.03424E-05-3.05452E-05 8.80672E-06-5.01864E-19-6.16561E-19
 -1      3630 9.65440E-05-2.86064E-05-2.91124E-05 5.73225E-07-1.96863E-19-6.87428E-19
 -1      3631 9.65128E-05-2.88014E-05-2.90209E-05 6.69060E-07-1.36065E-19-4.97144E-19
 -1      3632 9.64718E-05-2.89496E-05-2.89353E-05 7.12343E-07-1.74127E-19-3.82297E-19
 -1      3633 9.64177E-05-2.90552E-05-2.88701E-05 7.49336E-07-2.62556E-20-5.12865E-19
 -1      3634 9.66429E-05-2.88806E-05-2.90423E-05 5.82166E-07-3.91085E-20-7.10032E-19
 -1      3635 9.63487E-05-2.91245E-05-2.88085E-05 7.54746E-07 1.43972E-19-3.81560E-19
 -1      3636 9.62845E-05-2.91679E-05-2.87638E-05 7.54571E-07 8.43409E-20-3.77228E-19
 -1      3637 9.65336E-05-2.91239E-05-2.88916E-05 6.45107E-07 7.15450E-20-2.57394E-19
 -1      3638 9.62020E-05-2.91829E-05-2.87213E-05 7.37703E-07-8.51109E-20-3.11619E-19
 -1      3639 9.61351E-05-2.91837E-05-2.86925E-05 7.16966E-07-3.16920E-19-3.41468E-19
 -1      3640 9.63834E-05-2.92239E-05-2.87845E-05 6.46988E-07-1.41323E-20-2.84703E-19
 -1      3641 9.60482E-05-2.91620E-05-2.86649E-05 6.89575E-07-4.60161E-19-2.58858E-19
 -1      3642 9.59827E-05-2.91336E-05-2.86483E-05 6.60528E-07-6.26553E-19-3.55563E-20
 -1      3643 9.62156E-05-2.92252E-05-2.87120E-05 6.14678E-07-2.85928E-19-2.53909E-19
 -1      3644 9.58959E-05-2.90868E-05-2.86324E-05 6.31269E-07-4.89076E-19 2.14884E-19
 -1      3645 9.58332E-05-2.90378E-05-2.86252E-05 6.03034E-07-3.36754E-19 3.54729E-19
 -1      3646 9.60436E-05-2.91589E-05-2.86664E-05 5.68174E-07-3.25979E-19 4.48885E-19
 -1      3647 9.57481E-05-2.89729E-05-2.86183E-05 5.78427E-07-2.85495E-19 3.75298E-19
 -1      3648 9.56880E-05-2.89083E-05-2.86184E-05 5.57866E-07-1.80848E-19 2.59571E-19
 -1      3649 9.58734E-05-2.90450E-05-2.86420E-05 5.22563E-07-2.22009E-19 7.63541E-19
 -1      3650 9.56038E-05-2.88289E-05-2.86185E-05 5.42865E-07-4.13778E-19 1.74785E-19
 -1      3651 9.55445E-05-2.87510E-05-2.86243E-05 5.35301E-07-5.10870E-19 4.18051E-19
 -1      3652 9.57058E-05-2.88952E-05-2.86340E-05 4.89283E-07-4.35575E-19 8.90704E-19
 -1      3653 9.54584E-05-2.86578E-05-2.86299E-05 5.33777E-07-2.04612E-19 5.75369E-19
 -1      3654 9.53971E-05-2.85663E-05-2.86403E-05 5.43625E-07-1.06246E-19 5.97580E-19
 -1      3655 9.55372E-05-2.87145E-05-2.86388E-05 4.77071E-07-1.46973E-19 7.44939E-19
 -1      3656 9.53047E-05-2.84581E-05-2.86501E-05 5.58963E-07-3.61787E-19 4.98015E-19
 -1      3657 9.52374E-05-2.83510E-05-2.86642E-05 5.90277E-07-5.39251E-19 6.18293E-19
 -1      3658 9.53606E-05-2.85027E-05-2.86533E-05 4.93006E-07-4.11787E-19 7.10034E-19
 -1      3659 9.51327E-05-2.82244E-05-2.86771E-05 6.25672E-07-2.06218E-19 1.05564E-18
 -1      3660 9.50542E-05-2.80984E-05-2.86940E-05 6.82371E-07 2.31777E-19 1.13921E-18
 -1      3661 9.51656E-05-2.82553E-05-2.86752E-05 5.43475E-07 4.20700E-20 7.00938E-19
 -1      3662 9.49299E-05-2.79489E-05-2.87089E-05 7.40911E-07 3.27548E-19 9.15618E-19
 -1      3663 9.48339E-05-2.77994E-05-2.87278E-05 8.26936E-07 8.21430E-20 8.19568E-19
 -1      3664 9.49393E-05-2.79647E-05-2.87020E-05 6.34354E-07 1.15343E-19 1.15854E-18
 -1      3665 9.46809E-05-2.76215E-05-2.87433E-05 9.11639E-07 7.62986E-20 1.01439E-18
 -1      3666 9.45593E-05-2.74430E-05-2.87631E-05 1.03094E-06 3.91753E-19 1.09415E-18
 -1      3667 9.46653E-05-2.76207E-05-2.87311E-05 7.71126E-07 2.72731E-19 7.68632E-19
 -1      3668 9.43668E-05-2.72302E-05-2.87772E-05 1.14464E-06 3.70381E-19 1.42085E-18
 -1      3669 9.42099E-05-2.70169E-05-2.87962E-05 1.30103E-06 4.18867E-19 1.39741E-18
 -1      3670 9.43239E-05-2.72115E-05-2.87590E-05 9.58743E-07 4.36706E-19 1.40789E-18
 -1      3671 9.39646E-05-2.67625E-05-2.88064E-05 1.44607E-06 6.72166E-19 9.17090E-19
 -1      3672 9.37606E-05-2.65085E-05-2.88219E-05 1.64287E-06 4.20578E-19 7.55907E-19
 -1      3673 9.38916E-05-2.67243E-05-2.87811E-05 1.20113E-06 2.45987E-19 8.29386E-19
 -1      3674 9.34470E-05-2.62060E-05-2.88244E-05 1.82080E-06 5.46050E-20 1.06435E-18
 -1      3675 9.31812E-05-2.59061E-05-2.88325E-05 2.06050E-06-1.16389E-19 1.11635E-18
 -1      3676 9.33400E-05-2.61464E-05-2.87906E-05 1.50045E-06 1.72230E-19 5.32918E-19
 -1      3677 9.27809E-05-2.55503E-05-2.88215E-05 2.27165E-06-7.10358E-20 8.99104E-19
 -1      3678 9.24363E-05-2.52010E-05-2.88164E-05 2.55554E-06 7.91778E-20 5.13418E-19
 -1      3679 9.26357E-05-2.54668E-05-2.87778E-05 1.85622E-06-8.33744E-20 8.38204E-19
 -1      3680 9.19273E-05-2.47890E-05-2.87839E-05 2.79897E-06 2.78605E-19 7.93827E-19
 -1      3681 9.14840E-05-2.43906E-05-2.87568E-05 3.12733E-06 8.51328E-19 1.06297E-18
 -1      3682 9.17390E-05-2.46780E-05-2.87286E-05 2.26467E-06 2.92038E-19 1.23561E-18
 -1      3683 9.08403E-05-2.39240E-05-2.86914E-05 3.40151E-06 1.08188E-18 9.89891E-19
 -1      3684 9.02766E-05-2.34829E-05-2.86297E-05 3.77480E-06 1.41699E-18 8.21556E-19
 -1      3685 9.06031E-05-2.37790E-05-2.86233E-05 2.71910E-06 8.88183E-19 1.32514E-18
 -1      3686 8.94670E-05-2.29700E-05-2.85152E-05 4.07993E-06 1.28715E-18 6.67356E-20
 -1      3687 8.87609E-05-2.25033E-05-2.84014E-05 4.50243E-06 5.88769E-19-3.93167E-20
 -1      3688 8.91718E-05-2.27781E-05-2.84340E-05 3.21249E-06 7.06258E-19-2.73177E-19
 -1      3689 8.77466E-05-2.19627E-05-2.82150E-05 4.84598E-06 1.68790E-19 8.68780E-20
 -1      3690 8.68798E-05-2.15034E-05-2.80244E-05 5.33360E-06 8.68953E-20-1.10834E-19
 -1      3691 8.73766E-05-2.16977E-05-2.81211E-05 3.74478E-06 6.24903E-19-7.31268E-19
 -1      3692 8.56102E-05-2.09681E-05-2.77341E-05 5.74100E-06-8.18615E-20 1.40062E-21
 -1      3693 8.45735E-05-2.05739E-05-2.74333E-05 6.33615E-06 2.34858E-19 6.23644E-20
 -1      3694 8.51303E-05-2.05775E-05-2.76297E-05 4.33832E-06 1.30810E-19-2.06817E-19
 -1      3695 8.29772E-05-2.00953E-05-2.69934E-05 6.87058E-06-3.28656E-19-4.01194E-19
 -1      3696 8.17842E-05-1.98615E-05-2.65371E-05 7.66720E-06-9.65819E-19-3.75123E-19
 -1      3697 8.23137E-05-1.94785E-05-2.68809E-05 5.06596E-06-4.38458E-19-3.86233E-19
 -1      3698 7.97512E-05-1.95129E-05-2.58786E-05 8.47187E-06-1.02165E-18-1.21509E-19
 -1      3699 7.84442E-05-1.96137E-05-2.51964E-05 9.67122E-06-5.86760E-19 3.33567E-20
 -1      3700 7.87419E-05-1.84836E-05-2.57582E-05 6.10367E-06-8.72631E-19-8.29057E-19
 -1      3701 7.63209E-05-1.96062E-05-2.44033E-05 1.09251E-05-5.73203E-19 3.40120E-20
 -1      3702 7.51660E-05-2.03893E-05-2.34334E-05 1.28310E-05 7.32882E-21-2.95389E-19
 -1      3703 7.00033E-05-1.75410E-05-2.22807E-05 1.06003E-05-2.96988E-19-2.06652E-18
 -1      3704 7.46910E-05-1.78154E-05-2.42555E-05 7.78192E-06-6.12299E-19-1.71418E-18
 -1      3705 9.57626E-05-2.90124E-05-2.86058E-05-6.73375E-07 3.90258E-19-1.95841E-19
 -1      3706 9.58133E-05-2.90527E-05-2.86116E-05-7.07257E-07 4.78892E-19 7.75421E-20
 -1      3707 9.38194E-05-2.09503E-05-3.12392E-05-2.13781E-07 5.65984E-19-1.52753E-18
 -1      3708 9.38636E-05-2.10411E-05-3.12210E-05-7.74919E-07 4.71782E-19-1.55190E-18
 -1      3709 9.45411E-05-2.22179E-05-3.09780E-05 1.32273E-08 5.33028E-19-1.46575E-18
 -1      3710 9.52751E-05-2.84265E-05-2.86477E-05-6.22464E-07 2.50548E-19 1.14716E-19
 -1      3711 9.53231E-05-2.85149E-05-2.86336E-05-5.95404E-07 3.59157E-19-6.91350E-21
 -1      3712 9.54001E-05-2.86075E-05-2.86238E-05-5.82437E-07 3.57523E-19-1.87625E-19
 -1      3713 9.54458E-05-2.86845E-05-2.86131E-05-5.77714E-07 2.88163E-19-2.48841E-19
 -1      3714 9.53813E-05-2.85574E-05-2.86390E-05-5.44850E-07 3.59176E-19 3.97506E-20
 -1      3715 9.49815E-05-2.79848E-05-2.87109E-05-8.58203E-07 2.82889E-20 2.39811E-19
 -1      3716 9.50420E-05-2.80995E-05-2.86922E-05-7.73650E-07 1.90962E-19 5.94509E-19
 -1      3717 9.47985E-05-2.77183E-05-2.87465E-05-1.07162E-06 1.80806E-20 4.59066E-20
 -1      3718 9.48691E-05-2.78475E-05-2.87266E-05-9.51548E-07 3.43100E-20 2.62963E-20
 -1      3719 9.48362E-05-2.78271E-05-2.87170E-05-8.42881E-07 1.35819E-19 4.19040E-20
 -1      3720 9.45828E-05-2.74209E-05-2.87812E-05-1.36167E-06 7.09057E-20-7.45312E-20
 -1      3721 9.46650E-05-2.75635E-05-2.87615E-05-1.20134E-06 6.65442E-20 2.96607E-20
 -1      3722 9.45922E-05-2.75135E-05-2.87462E-05-1.06050E-06 3.62069E-20 1.38582E-20
 -1      3723 9.43310E-05-2.70978E-05-2.88113E-05-1.73883E-06-4.35924E-19 2.65132E-19
 -1      3724 9.44248E-05-2.72500E-05-2.87936E-05-1.53354E-06 9.32294E-20 1.49271E-19
 -1      3725 9.43025E-05-2.71634E-05-2.87715E-05-1.35420E-06-1.73811E-19 9.52978E-19
 -1      3726 9.40448E-05-2.67629E-05-2.88317E-05-2.21380E-06-1.73804E-20-1.91205E-19
 -1      3727 9.41469E-05-2.69160E-05-2.88184E-05-1.95923E-06-4.69834E-19-4.28903E-20
 -1      3728 9.39620E-05-2.67832E-05-2.87881E-05-1.73607E-06-1.43644E-19 6.05743E-19
 -1      3729 9.37347E-05-2.64425E-05-2.88352E-05-2.79697E-06 6.23296E-19 1.35700E-19
 -1      3730 9.38368E-05-2.65809E-05-2.88297E-05-2.48970E-06 4.22839E-19-1.08339E-19
 -1      3731 9.35709E-05-2.63888E-05-2.87892E-05-2.21975E-06 1.16733E-19-8.72242E-20
 -1      3732 9.34252E-05-2.61815E-05-2.88133E-05-3.49779E-06-5.68053E-19 2.47681E-20
 -1      3733 9.35111E-05-2.62794E-05-2.88198E-05-3.13592E-06 2.16670E-19-1.14569E-19
 -1      3734 9.31390E-05-2.60102E-05-2.87664E-05-2.82063E-06 5.07175E-19 7.56329E-19
 -1      3735 9.31630E-05-2.60497E-05-2.87556E-05-4.32376E-06-1.26250E-18 7.68306E-20
 -1      3736 9.32042E-05-2.60681E-05-2.87789E-05-3.90785E-06-9.75097E-19 2.33918E-19
 -1      3737 9.26915E-05-2.56977E-05-2.87092E-05-3.55623E-06-7.23386E-19-5.67478E-20
 -1      3738 9.30271E-05-2.61506E-05-2.86515E-05-5.27879E-06-4.34674E-19-2.25395E-19
 -1      3739 9.29770E-05-2.60323E-05-2.86961E-05-4.81331E-06-9.54492E-19-7.02008E-20
 -1      3740 9.22768E-05-2.55292E-05-2.86055E-05-4.44672E-06-8.16973E-19-1.20470E-18
 -1      3741 9.31431E-05-2.66295E-05-2.84922E-05-6.35926E-06-5.67419E-19-6.65540E-19
 -1      3742 9.29302E-05-2.62954E-05-2.85613E-05-5.85561E-06-3.25790E-19-1.12216E-19
 -1      3743 9.19782E-05-2.56188E-05-2.84426E-05-5.51497E-06-6.40595E-19-7.39831E-19
 -1      3744 9.37018E-05-2.76809E-05-2.82763E-05-7.54418E-06-2.39504E-19-1.45478E-19
 -1      3745 9.32212E-05-2.70272E-05-2.83682E-05-7.02738E-06-8.30557E-19-6.02645E-19
 -1      3746 9.19305E-05-2.61278E-05-2.82105E-05-6.78447E-06-4.44496E-19-9.13501E-19
 -1      3747 9.49794E-05-2.95485E-05-2.80184E-05-8.77015E-06 1.88356E-19-7.59759E-19
 -1      3748 9.40869E-05-2.84494E-05-2.81214E-05-8.29387E-06 7.16231E-19 2.19031E-19
 -1      3749 9.23437E-05-2.72755E-05-2.79068E-05-8.26964E-06 8.14864E-20-7.62969E-19
 -1      3750 9.73509E-05-3.24996E-05-2.77674E-05-9.87413E-06 5.38863E-20-1.83542E-18
 -1      3751 9.58691E-05-3.08293E-05-2.78499E-05-9.55182E-06-2.01556E-19-1.37108E-18
 -1      3752 9.35376E-05-2.93493E-05-2.75485E-05-9.94540E-06 7.48338E-19-5.70135E-19
 -1      3753 1.01248E-04-3.67224E-05-2.76351E-05-1.04833E-05-4.85822E-19-1.45378E-18
 -1      3754 9.90233E-05-3.44337E-05-2.76321E-05-1.05480E-05-1.39153E-19-1.89398E-18
 -1      3755 9.59716E-05-3.26771E-05-2.71950E-05-1.16737E-05 3.86823E-20-1.99034E-19
 -1      3756 1.07401E-04-4.21184E-05-2.79128E-05-9.60415E-06-8.33502E-19-1.10600E-18
 -1      3757 1.04133E-04-3.94184E-05-2.76352E-05-1.07108E-05-7.72221E-19-1.57743E-18
 -1      3758 1.00347E-04-3.75772E-05-2.69893E-05-1.31211E-05-7.01502E-19 5.41625E-19
 -1      3759 1.12666E-04-4.80007E-05-2.76772E-05-1.13911E-05-6.48907E-19 1.43625E-19
 -1      3760 1.08854E-04-4.51351E-05-2.72117E-05-1.28465E-05-1.24065E-18-4.67708E-19
 -1      3761 1.23612E-04-4.99759E-05-3.16880E-05 1.52293E-06-7.20693E-19 2.60032E-18
 -1      3762 1.21783E-04-5.08968E-05-3.03793E-05-2.20735E-06-3.14550E-19 1.41754E-18
 -1      3763 1.27222E-04-4.89771E-05-3.37300E-05 5.91851E-06-1.37563E-18 3.02327E-18
 -1      3764 1.11212E-04-4.11217E-05-2.99840E-05 8.17075E-06-1.57816E-18-3.95295E-18
 -1      3765 9.40756E-05-2.14874E-05-3.11236E-05-1.73516E-06 3.28110E-19-1.50992E-18
 -1      3766 9.48030E-05-2.28662E-05-3.08147E-05-1.54562E-06 2.50118E-19-1.36902E-18
 -1      3767 9.39426E-05-2.12058E-05-3.11811E-05-1.21952E-06 3.76129E-19-1.47684E-18
 -1      3768 9.52428E-05-2.39602E-05-3.05501E-05-1.51799E-06 1.48836E-19-1.42442E-18
 -1      3769 9.54470E-05-2.45171E-05-3.03986E-05-1.58189E-06 1.65276E-19-1.40330E-18
 -1      3770 9.56603E-05-2.51291E-05-3.02330E-05-1.16874E-06 1.72017E-19-1.48212E-18
 -1      3771 8.57039E-05-3.22399E-05-2.29032E-05-2.22382E-05-2.40131E-18 1.97888E-19
 -1      3772 9.26185E-05-3.72460E-05-2.37403E-05-2.25209E-05-2.15052E-18 8.20709E-19
 -1      3773 9.44669E-05-2.23420E-05-3.09279E-05 2.56176E-06 9.46456E-19-5.85157E-19
 -1      3774 9.42530E-05-2.18513E-05-3.10339E-05 2.13652E-06 8.79317E-19-6.68033E-19
 -1      3775 9.48141E-05-2.28906E-05-3.08084E-05 1.54892E-06 7.48963E-19-7.23224E-19
 -1      3776 9.50965E-05-2.37051E-05-3.05834E-05 2.07850E-06 8.37468E-19-2.62738E-19
 -1      3777 1.12331E-04-4.37393E-05-2.93486E-05 1.44500E-05 7.95056E-19-2.43307E-18
 -1      3778 1.12446E-04-4.31572E-05-2.97422E-05 1.13515E-05 3.01024E-19-4.02405E-18
 -1      3779 1.13880E-04-4.36470E-05-3.00625E-05 8.01604E-06-1.12542E-18-3.03541E-18
 -1      3780 1.15393E-04-4.73489E-05-2.91607E-05 1.52907E-05 1.17969E-18-1.29869E-18
 -1      3781 9.60143E-05-2.60137E-05-2.99999E-05-7.80533E-07 8.80428E-20-1.45132E-18
 -1      3782 9.61973E-05-2.66986E-05-2.97889E-05-3.56059E-07-9.51624E-20-1.45787E-18
 -1      3783 9.59128E-05-2.55742E-05-3.01433E-05-7.91276E-07 3.51781E-20-1.38659E-18
 -1      3784 1.17421E-04-5.22960E-05-2.77852E-05 2.27967E-05 6.47782E-19-4.43501E-20
 -1      3785 9.59245E-05-2.85289E-05-2.88862E-05-8.34179E-07 4.21188E-19-1.09790E-19
 -1      3786 9.59549E-05-2.83392E-05-2.89715E-05-6.85631E-07 4.51025E-19-8.81708E-20
 -1      3787 9.61849E-05-2.81525E-05-2.91590E-05-4.85293E-07 4.86753E-19-1.70172E-19
 -1      3788 9.65205E-05-2.80215E-05-2.93531E-05 2.91294E-07-3.03677E-19-9.71198E-19
 -1      3789 9.65348E-05-2.83438E-05-2.92279E-05 4.72998E-07-3.37180E-19-8.52318E-19
 -1      3790 9.66758E-05-2.84337E-05-2.92473E-05 4.24503E-07-2.08437E-19-9.98361E-19
 -1      3791 9.63616E-05-2.72009E-05-2.96383E-05-1.38095E-07-1.30011E-19-1.13635E-18
 -1      3792 9.64440E-05-2.76804E-05-2.94741E-05 1.52594E-07-2.41830E-19-9.17296E-19
 -1      3793 9.65896E-05-2.77784E-05-2.94893E-05 1.65532E-07-2.33318E-19-1.11037E-18
 -1      3794 9.63655E-05-2.69080E-05-2.97631E-05-2.06075E-07 2.60016E-20-1.24287E-18
 -1      3795 1.19146E-04-5.10209E-05-2.91634E-05 1.63034E-05 5.81225E-19 4.33865E-19
 -1      3796 9.51634E-05-2.44087E-05-3.03162E-05 2.86997E-06 1.08918E-18 2.31518E-19
 -1      3797 9.54205E-05-2.50654E-05-3.01446E-05 2.08866E-06 1.01343E-18 1.34348E-19
 -1      3798 9.51380E-05-2.82200E-05-2.86773E-05-7.11544E-07 2.28941E-19 5.15533E-19
 -1      3799 9.51909E-05-2.83209E-05-2.86605E-05-6.57921E-07 2.80420E-19 3.35621E-19
 -1      3800 9.50429E-05-2.81035E-05-2.86875E-05-6.90598E-07 1.23281E-19 1.19758E-19
 -1      3801 9.54885E-05-2.50133E-05-3.01979E-05 1.78741E-06 9.33147E-19 1.68706E-19
 -1      3802 1.18034E-04-4.69573E-05-3.04246E-05 7.88488E-06 5.62152E-21-9.53825E-19
 -1      3803 1.19291E-04-4.96216E-05-2.98939E-05 1.21738E-05 3.97800E-19-1.05559E-18
 -1      3804 9.58717E-05-2.90554E-05-2.86375E-05-9.02532E-07 1.96917E-19-2.25291E-19
 -1      3805 9.59770E-05-2.91305E-05-2.86501E-05-6.56436E-07 5.59517E-19-4.67460E-19
 -1      3806 9.58913E-05-2.90923E-05-2.86269E-05-7.41414E-07 3.11442E-19-1.38043E-20
 -1      3807 9.59453E-05-2.91131E-05-2.86418E-05-7.75156E-07 2.45300E-19-1.94313E-19
 -1      3808 9.50551E-05-2.33348E-05-3.07469E-05 1.98379E-07 4.58513E-19-1.37213E-18
 -1      3809 9.50547E-05-2.33311E-05-3.07476E-05-1.77226E-07 4.09146E-19-1.55962E-18
 -1      3810 9.46118E-05-2.23795E-05-3.09384E-05-8.06254E-07 3.31734E-19-1.43937E-18
 -1      3811 6.83581E-05-1.63225E-05-2.23870E-05 4.94671E-06-7.28693E-19-1.79371E-18
 -1      3812 9.62731E-05-2.89795E-05-2.88407E-05-8.35118E-07 3.54010E-19-1.21368E-19
 -1      3813 9.63211E-05-2.88707E-05-2.89040E-05-7.91255E-07 3.52053E-19-2.23633E-19
 -1      3814 9.62833E-05-2.75237E-05-2.94760E-05-6.55187E-08 5.64548E-19 8.48975E-20
 -1      3815 9.62378E-05-2.70422E-05-2.96416E-05 2.86689E-07 5.89118E-19 1.56976E-19
 -1      3816 9.52215E-05-2.83457E-05-2.86608E-05-5.94126E-07 2.62455E-19-6.64270E-20
 -1      3817 9.55309E-05-2.87422E-05-2.86243E-05-5.34905E-07 2.62494E-19-2.64974E-20
 -1      3818 9.55198E-05-2.87655E-05-2.86073E-05-5.83317E-07 1.56206E-19-3.74189E-21
 -1      3819 9.55655E-05-2.88318E-05-2.86009E-05-5.96642E-07 6.88691E-20-2.92998E-19
 -1      3820 1.16541E-04-5.15023E-05-2.78289E-05-1.28237E-05-1.35610E-18 6.17699E-19
 -1      3821 9.54526E-05-2.46558E-05-3.03492E-05 1.69843E-06 8.46992E-19-4.76791E-20
 -1      3822 9.53241E-05-2.41897E-05-3.04855E-05 1.53965E-06 6.38173E-19-3.49566E-19
 -1      3823 9.57177E-05-2.54251E-05-3.01128E-05 1.23787E-06 7.74781E-19 1.80487E-19
 -1      3824 6.66621E-05-1.65955E-05-2.12699E-05-8.80102E-06-9.42559E-19-2.69912E-19
 -1      3825 7.16676E-05-1.91714E-05-2.24618E-05-1.11229E-05-9.80684E-19 2.96806E-19
 -1      3826 6.75632E-05-1.60445E-05-2.21278E-05-3.61972E-06-1.08898E-18-2.44316E-19
 -1      3827 9.61551E-05-2.91010E-05-2.87371E-05-8.46573E-07 3.06382E-19-6.59376E-20
 -1      3828 9.62101E-05-2.90524E-05-2.87797E-05-8.45691E-07 3.90527E-19-5.60579E-20
 -1      3829 9.64201E-05-2.90559E-05-2.88723E-05-7.40589E-07 3.87391E-19-9.04418E-20
 -1      3830 9.51404E-05-2.36584E-05-3.06394E-05-1.22757E-06 1.97289E-19-1.41690E-18
 -1      3831 7.76141E-05-2.36705E-05-2.31896E-05-1.56935E-05-1.70420E-18-3.68757E-19
 -1      3832 8.14272E-05-2.78167E-05-2.28870E-05-1.98594E-05-1.88469E-18-1.67435E-19
 -1      3833 8.62573E-05-2.97788E-05-2.41836E-05-1.79692E-05-1.86303E-18 6.23615E-19
 -1      3834 9.56869E-05-2.89559E-05-2.85994E-05-6.43361E-07 2.03176E-19-2.68748E-19
 -1      3835 9.58250E-05-2.90326E-05-2.86266E-05-6.00300E-07 4.74573E-19-1.90940E-19
 -1      3836 9.56393E-05-2.89013E-05-2.86004E-05-6.16823E-07 4.48149E-20-2.84209E-19
 -1      3837 9.59078E-05-2.60925E-05-2.99314E-05 7.90174E-07 7.36602E-19 1.46881E-19
 -1      3838 9.44516E-05-3.64966E-05-2.48260E-05-1.92558E-05-1.84058E-18-7.62389E-19
 -1      3839 9.63353E-05-3.92975E-05-2.43656E-05-2.13225E-05-2.12826E-18-4.93972E-19
 -1      3840 1.00472E-04-4.17183E-05-2.52308E-05-1.93815E-05-1.51334E-18-6.78447E-19
 -1      3841 9.60630E-05-2.62076E-05-2.99475E-05 6.28377E-07 6.89303E-19 6.33414E-22
 -1      3842 9.51426E-05-2.35709E-05-3.06837E-05 8.31458E-07 6.70007E-19-8.07387E-19
 -1      3843 9.50841E-05-2.34023E-05-3.07261E-05 4.78390E-07 4.75081E-19-1.06801E-18
 -1      3844 9.55834E-05-2.43661E-05-3.05072E-05 2.50217E-07 4.05963E-19-1.11319E-18
 -1      3845 9.61596E-05-2.86142E-05-2.89506E-05-7.83223E-07 4.77553E-19-1.72608E-19
 -1      3846 9.63583E-05-2.87208E-05-2.89895E-05-7.34812E-07 4.25668E-19-1.24833E-19
 -1      3847 9.63885E-05-2.85252E-05-2.90798E-05-6.23281E-07 4.77566E-19 1.10129E-20
 -1      3848 9.65189E-05-2.88023E-05-2.90230E-05-6.58415E-07 3.87475E-19 3.64375E-20
 -1      3849 9.66922E-05-2.91141E-05-2.89603E-05 5.15375E-07 1.66266E-19-5.00451E-19
 -1      3850 9.66240E-05-2.92013E-05-2.88955E-05 5.35890E-07 1.29373E-19-3.58050E-19
 -1      3851 9.65406E-05-2.92524E-05-2.88364E-05 5.31554E-07 4.80663E-20-2.02066E-19
 -1      3852 9.64585E-05-2.92774E-05-2.87912E-05 5.28739E-07-8.24590E-20-2.61049E-19
 -1      3853 9.66758E-05-2.92502E-05-2.88984E-05 4.14838E-07 1.10427E-19-5.72288E-19
 -1      3854 9.63619E-05-2.92758E-05-2.87502E-05 5.13565E-07-9.30890E-20-1.56766E-19
 -1      3855 9.62752E-05-2.92585E-05-2.87204E-05 4.98369E-07-1.43459E-19 1.87578E-20
 -1      3856 9.64964E-05-2.93084E-05-2.87968E-05 4.07836E-07-8.52199E-20-2.13855E-19
 -1      3857 9.61737E-05-2.92205E-05-2.86937E-05 4.78687E-07-1.30033E-20 3.59382E-19
 -1      3858 9.60869E-05-2.91736E-05-2.86760E-05 4.59695E-07 1.15919E-19 7.33204E-19
 -1      3859 9.62999E-05-2.92729E-05-2.87277E-05 3.84657E-07 1.43004E-19 5.67191E-19
 -1      3860 9.59848E-05-2.91100E-05-2.86605E-05 4.40965E-07 1.23452E-20 7.38357E-19
 -1      3861 9.58995E-05-2.90417E-05-2.86521E-05 4.24576E-07-3.32154E-19 9.05011E-19
 -1      3862 9.60979E-05-2.91714E-05-2.86843E-05 3.56219E-07 2.53408E-19 9.98728E-19
 -1      3863 9.57978E-05-2.89589E-05-2.86454E-05 4.10830E-07-4.38746E-19 8.40450E-19
 -1      3864 9.57133E-05-2.88736E-05-2.86444E-05 4.01793E-07-1.11554E-19 9.51546E-19
 -1      3865 9.58958E-05-2.90222E-05-2.86612E-05 3.31814E-07-3.08202E-19 6.43008E-19
 -1      3866 9.56102E-05-2.87745E-05-2.86444E-05 3.95906E-07-9.78680E-20 5.53627E-19
 -1      3867 9.55238E-05-2.86735E-05-2.86491E-05 3.97903E-07-2.58889E-19 5.23506E-19
 -1      3868 9.56930E-05-2.88356E-05-2.86538E-05 3.17848E-07-1.50819E-19 4.57506E-19
 -1      3869 9.54150E-05-2.85577E-05-2.86542E-05 4.02043E-07-3.07899E-19 3.52767E-19
 -1      3870 9.53223E-05-2.84396E-05-2.86631E-05 4.18364E-07-2.39102E-19 5.67057E-19
 -1      3871 9.54835E-05-2.86145E-05-2.86583E-05 3.19250E-07-4.57894E-19 4.79252E-19
 -1      3872 9.52022E-05-2.83048E-05-2.86718E-05 4.34746E-07-1.04749E-19 6.63096E-19
 -1      3873 9.50972E-05-2.81668E-05-2.86838E-05 4.68206E-07 1.86988E-19 8.32622E-19
 -1      3874 9.52574E-05-2.83559E-05-2.86715E-05 3.40066E-07-3.03101E-20 6.78104E-19
 -1      3875 9.49584E-05-2.80090E-05-2.86947E-05 4.98524E-07 8.06709E-20 9.38681E-19
 -1      3876 9.48336E-05-2.78465E-05-2.87084E-05 5.51652E-07 7.68781E-20 7.89403E-19
 -1      3877 9.50016E-05-2.80541E-05-2.86905E-05 3.83845E-07 1.29327E-19 5.71690E-19
 -1      3878 9.46669E-05-2.76604E-05-2.87198E-05 5.97306E-07 3.23636E-19 9.85634E-19
 -1      3879 9.45134E-05-2.74680E-05-2.87338E-05 6.72315E-07 6.38408E-19 9.05137E-19
 -1      3880 9.46998E-05-2.76998E-05-2.87121E-05 4.53031E-07 1.69692E-19 1.16125E-18
 -1      3881 9.43077E-05-2.72474E-05-2.87437E-05 7.34247E-07 5.72997E-19 8.46410E-19
 -1      3882 9.41146E-05-2.70191E-05-2.87558E-05 8.32832E-07 4.84297E-19 1.21433E-18
 -1      3883 9.43321E-05-2.72820E-05-2.87324E-05 5.49156E-07 6.68134E-19 1.12986E-18
 -1      3884 9.38572E-05-2.67576E-05-2.87614E-05 9.11183E-07 1.96029E-19 1.20261E-18
 -1      3885 9.36113E-05-2.64871E-05-2.87688E-05 1.03416E-06-2.03127E-19 8.20039E-19
 -1      3886 9.38750E-05-2.67885E-05-2.87466E-05 6.72183E-07 2.86197E-19 6.97478E-19
 -1      3887 9.32874E-05-2.61786E-05-2.87664E-05 1.12780E-06-1.32511E-19 7.33045E-19
 -1      3888 9.29732E-05-2.58604E-05-2.87650E-05 1.27461E-06 4.50751E-20 7.37132E-19
 -1      3889 9.33013E-05-2.62075E-05-2.87480E-05 8.19615E-07-6.81272E-20 1.42151E-18
 -1      3890 9.25655E-05-2.54997E-05-2.87491E-05 1.38057E-06 5.33244E-20 3.99518E-19
 -1      3891 9.21644E-05-2.51296E-05-2.87330E-05 1.54880E-06-2.11980E-19 7.39426E-19
 -1      3892 9.25794E-05-2.55288E-05-2.87274E-05 9.85335E-07-1.12564E-19 1.10311E-18
 -1      3893 9.16528E-05-2.47136E-05-2.86963E-05 1.66169E-06 9.82473E-21 1.10067E-18
 -1      3894 9.11428E-05-2.42896E-05-2.86571E-05 1.84677E-06 7.79953E-19 1.14693E-18
 -1      3895 9.16727E-05-2.47454E-05-2.86718E-05 1.15828E-06 3.17877E-19 9.08553E-19
 -1      3896 9.05035E-05-2.38183E-05-2.85893E-05 1.95846E-06 5.42583E-19 9.60717E-19
 -1      3897 8.98583E-05-2.33423E-05-2.85152E-05 2.15401E-06 5.76030E-19 2.07012E-19
 -1      3898 9.05383E-05-2.38556E-05-2.85635E-05 1.32126E-06 3.59979E-19 4.65527E-19
 -1      3899 8.90617E-05-2.28195E-05-2.84019E-05 2.25396E-06 6.77649E-19-2.20002E-19
 -1      3900 8.82494E-05-2.22983E-05-2.82763E-05 2.45361E-06 7.05276E-19-3.75594E-19
 -1      3901 8.91244E-05-2.28642E-05-2.83779E-05 1.45041E-06 3.68975E-19-5.50953E-19
 -1      3902 8.72561E-05-2.17328E-05-2.80977E-05 2.53056E-06 7.90218E-19-4.29352E-19
 -1      3903 8.62364E-05-2.11792E-05-2.78974E-05 2.73248E-06 6.94675E-19-3.80542E-19
 -1      3904 8.73648E-05-2.17832E-05-2.80808E-05 1.51634E-06 6.72665E-19-3.32088E-19
 -1      3905 8.49898E-05-2.05836E-05-2.76252E-05 2.77891E-06 5.75768E-19-1.15944E-18
 -1      3906 8.37092E-05-2.00170E-05-2.73175E-05 2.99491E-06 2.45454E-19-8.34316E-19
 -1      3907 8.51679E-05-2.06303E-05-2.76244E-05 1.48842E-06 5.44067E-19-2.01809E-19
 -1      3908 8.21211E-05-1.94062E-05-2.69110E-05 3.01483E-06-2.68098E-20-1.21267E-18
 -1      3909 8.05019E-05-1.88528E-05-2.64486E-05 3.28665E-06-7.62791E-19-9.78697E-19
 -1      3910 8.23962E-05-1.94233E-05-2.69404E-05 1.34483E-06 1.69117E-20-1.71311E-18
 -1      3911 7.84238E-05-1.82286E-05-2.58465E-05 3.30195E-06-1.43358E-18-9.95966E-19
 -1      3912 7.63357E-05-1.77138E-05-2.51522E-05 3.72885E-06-1.06487E-18-1.07820E-18
 -1      3913 7.88310E-05-1.81732E-05-2.59275E-05 1.07875E-06-1.03784E-18-1.11852E-18
 -1      3914 7.39462E-05-1.71919E-05-2.44044E-05 3.98104E-06-1.16808E-18-1.18330E-18
 -1      3915 7.18169E-05-1.68867E-05-2.35712E-05 4.81220E-06-1.05632E-18-2.07871E-18
 -1      3916 7.45222E-05-1.69313E-05-2.45697E-05 8.83985E-07-1.30890E-18-1.12576E-18
 -1      3917 9.50746E-05-2.33928E-05-3.07276E-05-4.62002E-07 4.13507E-19-1.33507E-18
 -1      3918 9.51316E-05-2.35421E-05-3.06892E-05-8.14505E-07 2.36473E-19-1.19576E-18
 -1      3919 9.55858E-05-2.43635E-05-3.05080E-05-2.40903E-07 2.70191E-19-1.38819E-18
 -1      3920 9.63748E-05-2.79435E-05-2.93212E-05-2.89363E-07 6.27987E-19 3.18822E-20
 -1      3921 9.64447E-05-2.75926E-05-2.95060E-05-1.02350E-07 6.73820E-19-1.23511E-19
 -1      3922 9.63793E-05-2.82643E-05-2.91964E-05-4.98690E-07 6.12150E-19-3.89051E-20
 -1      3923 9.55877E-05-2.45363E-05-3.04420E-05-8.63746E-07 9.07464E-20-1.19699E-18
 -1      3924 9.51683E-05-2.82652E-05-2.86715E-05-5.35578E-07 4.42386E-19 2.82724E-19
 -1      3925 9.52529E-05-2.83842E-05-2.86596E-05-5.00426E-07 4.43534E-19 3.03263E-19
 -1      3926 9.43998E-05-2.73223E-05-2.87462E-05-9.93565E-07-1.88972E-19 7.90622E-19
 -1      3927 9.45340E-05-2.74986E-05-2.87330E-05-8.72164E-07 2.91209E-19 6.65377E-19
 -1      3928 9.46999E-05-2.76786E-05-2.87222E-05-7.82869E-07 1.35344E-19 5.32247E-19
 -1      3929 9.48130E-05-2.78344E-05-2.87079E-05-6.94901E-07 9.69836E-20 5.04828E-19
 -1      3930 9.45246E-05-2.74973E-05-2.87237E-05-7.12666E-07 2.50806E-20 7.46016E-19
 -1      3931 9.36178E-05-2.64868E-05-2.87686E-05-1.64534E-06 3.69692E-19-1.50842E-20
 -1      3932 9.38029E-05-2.66972E-05-2.87649E-05-1.43970E-06 1.47482E-19 3.87538E-19
 -1      3933 9.31267E-05-2.60302E-05-2.87531E-05-2.11577E-06 1.99950E-19-5.97442E-21
 -1      3934 9.33358E-05-2.62451E-05-2.87596E-05-1.85755E-06-2.24447E-19-6.77868E-20
 -1      3935 9.32105E-05-2.61440E-05-2.87378E-05-1.53869E-06 2.67148E-19-2.78591E-19
 -1      3936 9.25761E-05-2.55843E-05-2.87071E-05-2.70763E-06 2.47968E-19 3.22485E-19
 -1      3937 9.28011E-05-2.57850E-05-2.87288E-05-2.38826E-06 7.31890E-19 5.36784E-19
 -1      3938 9.26060E-05-2.56227E-05-2.87013E-05-1.99914E-06 1.53739E-20-1.11610E-19
 -1      3939 9.19895E-05-2.52008E-05-2.86183E-05-3.44565E-06-9.51351E-19 2.57610E-19
 -1      3940 9.22124E-05-2.53572E-05-2.86611E-05-3.05484E-06-4.71998E-19 5.01174E-19
 -1      3941 9.19186E-05-2.51087E-05-2.86264E-05-2.59095E-06-1.60028E-19 1.33303E-19
 -1      3942 9.14137E-05-2.49594E-05-2.84722E-05-4.36155E-06-8.41365E-19-7.38354E-19
 -1      3943 9.16022E-05-2.50259E-05-2.85428E-05-3.88665E-06-7.42343E-19-3.74866E-19
 -1      3944 9.11671E-05-2.46557E-05-2.84983E-05-3.34931E-06-6.37605E-19 2.81738E-19
 -1      3945 9.09309E-05-2.49767E-05-2.82535E-05-5.49602E-06-6.46740E-19-2.35505E-19
 -1      3946 9.10309E-05-2.48874E-05-2.83583E-05-4.92171E-06-1.17494E-18-3.44672E-19
 -1      3947 9.03921E-05-2.43456E-05-2.82997E-05-4.32213E-06-8.11871E-19-3.97607E-20
 -1      3948 9.06754E-05-2.54178E-05-2.79483E-05-6.89955E-06-1.93200E-20-4.04626E-19
 -1      3949 9.06014E-05-2.50798E-05-2.80921E-05-6.20894E-06-1.49876E-19-8.61219E-20
 -1      3950 8.96668E-05-2.42977E-05-2.80114E-05-5.57486E-06-7.48553E-19-9.06954E-20
 -1      3951 9.08617E-05-2.65112E-05-2.75498E-05-8.62795E-06-1.03182E-19-1.59828E-19
 -1      3952 9.04800E-05-2.57964E-05-2.77319E-05-7.80831E-06-1.52232E-19-1.97076E-19
 -1      3953 8.91134E-05-2.46812E-05-2.76144E-05-7.19580E-06-6.00018E-20 2.74383E-19
 -1      3954 9.18262E-05-2.85683E-05-2.70689E-05-1.07201E-05 5.37517E-19-1.02197E-19
 -1      3955 9.09352E-05-2.73023E-05-2.72757E-05-9.77890E-06 2.82878E-19-4.96199E-19
 -1      3956 8.89352E-05-2.57382E-05-2.70946E-05-9.29862E-06 2.81814E-19-4.34542E-19
 -1      3957 9.40686E-05-3.19784E-05-2.65589E-05-1.31124E-05 1.85917E-20-2.59021E-19
 -1      3958 9.24033E-05-2.99636E-05-2.67483E-05-1.21218E-05 5.89831E-19 1.54510E-19
 -1      3959 8.94848E-05-2.78407E-05-2.64519E-05-1.19970E-05 7.01408E-20-1.06514E-18
 -1      3960 1.03925E-04-4.31423E-05-2.61593E-05-1.69571E-05-1.29821E-18 7.45879E-19
 -1      3961 9.59544E-05-2.54776E-05-3.02072E-05-5.10778E-07 6.76320E-20-1.17982E-18
 -1      3962 6.89363E-05-1.56626E-05-2.26609E-05 6.45905E-07-9.99168E-19-8.56924E-19
 -1      3963 9.52798E-05-2.40032E-05-3.05589E-05 1.33728E-06 6.37195E-19-6.48263E-19
 -1      3964 9.51673E-05-2.36788E-05-3.06441E-05 1.05981E-06 6.78984E-19-6.65167E-19
 -1      3965 9.56189E-05-2.45555E-05-3.04455E-05 6.63233E-07 6.26406E-19-6.35025E-19
 -1      3966 9.56932E-05-2.48763E-05-3.03296E-05 1.02793E-06 5.93584E-19-4.53354E-19
 -1      3967 9.49523E-05-2.79917E-05-2.86962E-05-6.33364E-07 6.63245E-21 6.50918E-19
 -1      3968 9.50488E-05-2.81281E-05-2.86824E-05-5.73970E-07 3.51826E-20 4.82534E-19
 -1      3969 9.50833E-05-2.81605E-05-2.86803E-05-4.74083E-07 1.00693E-19 5.72545E-19
 -1      3970 9.53590E-05-2.85036E-05-2.86511E-05-4.81342E-07 1.14732E-19 4.74990E-19
 -1      3971 9.54366E-05-2.86073E-05-2.86422E-05-4.66438E-07 2.75985E-19 3.31990E-19
 -1      3972 9.53066E-05-2.84291E-05-2.86616E-05-4.18085E-07 3.13274E-19 4.61858E-19
 -1      3973 9.40416E-05-2.69229E-05-2.87637E-05-1.27662E-06-4.43544E-19 7.69505E-19
 -1      3974 9.42005E-05-2.71186E-05-2.87537E-05-1.11626E-06-3.02996E-19 3.56111E-19
 -1      3975 9.41625E-05-2.70933E-05-2.87407E-05-9.13171E-07-3.02732E-20 6.65761E-19
 -1      3976 9.60241E-05-2.91287E-05-2.86685E-05-8.05897E-07 1.76359E-19 2.26389E-20
 -1      3977 9.60803E-05-2.91214E-05-2.86954E-05-8.29403E-07 3.36833E-19 1.73200E-20
 -1      3978 9.62841E-05-2.91682E-05-2.87659E-05-7.47644E-07 3.71622E-19 1.22247E-19
 -1      3979 9.61322E-05-2.91826E-05-2.86945E-05-7.11571E-07 3.39252E-19 7.87247E-20
 -1      3980 9.67805E-05-2.82706E-05-2.93597E-05 2.78859E-07-1.12510E-19-1.06385E-18
 -1      3981 9.67931E-05-2.85713E-05-2.92399E-05 3.92439E-07-1.15724E-19-1.00621E-18
 -1      3982 9.60688E-05-2.60512E-05-3.00197E-05 5.21088E-07 5.69199E-19-3.29077E-19
 -1      3983 9.67877E-05-2.88103E-05-2.91310E-05 4.40596E-07 7.50900E-20-8.37042E-19
 -1      3984 9.67478E-05-2.89860E-05-2.90417E-05 4.99088E-07 1.68161E-19-5.67191E-19
 -1      3985 9.68146E-05-2.90556E-05-2.90409E-05 3.89712E-07 3.28814E-19-5.87423E-19
 -1      3986 9.37278E-05-2.66400E-05-2.87478E-05-1.18335E-06 1.89211E-19-8.95916E-20
 -1      3987 9.60451E-05-2.91579E-05-2.86647E-05-5.51752E-07 5.54229E-19-2.09518E-19
 -1      3988 9.61233E-05-2.91971E-05-2.86820E-05-5.75687E-07 5.55857E-19-1.49949E-19
 -1      3989 9.59328E-05-2.52012E-05-3.03195E-05-6.85404E-08 1.64949E-19-1.35704E-18
 -1      3990 9.59524E-05-2.52783E-05-3.02977E-05-2.79014E-07 6.42402E-20-1.26900E-18
 -1      3991 9.65469E-05-2.83462E-05-2.92297E-05-4.60440E-07 5.38364E-19-4.05700E-20
 -1      3992 9.59437E-05-2.52650E-05-3.02970E-05 2.80717E-07 5.72721E-19-8.19550E-19
 -1      3993 9.59327E-05-2.52000E-05-3.03190E-05 8.13854E-08 4.41752E-19-1.20811E-18
 -1      3994 9.62835E-05-2.59711E-05-3.01216E-05 8.90001E-09 2.52102E-19-1.02433E-18
 -1      3995 9.55345E-05-2.87111E-05-2.86373E-05-4.62843E-07 3.72567E-19-6.72682E-20
 -1      3996 9.56091E-05-2.88011E-05-2.86326E-05-4.63872E-07 8.96908E-20 3.46065E-20
 -1      3997 9.55081E-05-2.86622E-05-2.86488E-05-3.95140E-07 6.11536E-20 1.93602E-19
 -1      3998 9.66006E-05-2.77843E-05-2.95024E-05-1.71667E-07 6.48119E-19-2.83343E-19
 -1      3999 9.65314E-05-2.73032E-05-2.96567E-05 5.09593E-08 6.34119E-19-4.19053E-19
 -1      4000 9.48270E-05-2.78517E-05-2.87022E-05-5.69588E-07-1.78265E-20 5.71707E-19
 -1      4001 1.00580E-04-3.93989E-05-2.62008E-05-1.60041E-05-1.28537E-18 2.46040E-19
 -1      4002 9.82059E-05-3.71208E-05-2.61507E-05-1.55836E-05-1.23658E-18-5.77296E-19
 -1      4003 9.54885E-05-3.41952E-05-2.62399E-05-1.46436E-05-6.44095E-19-1.73149E-19
 -1      4004 9.60786E-05-2.56518E-05-3.01814E-05-3.34545E-07 3.73346E-20-1.12108E-18
 -1      4005 9.63597E-05-2.65773E-05-2.99079E-05-3.06854E-07 1.26107E-19-1.30953E-18
 -1      4006 9.65077E-05-2.70877E-05-2.97553E-05-7.13261E-08 4.69265E-21-1.23006E-18
 -1      4007 9.63909E-05-2.63643E-05-3.00057E-05-1.37783E-07-6.32894E-20-1.19013E-18
 -1      4008 9.13617E-05-3.14583E-05-2.57362E-05-1.53194E-05-3.83885E-19-1.14544E-18
 -1      4009 9.66518E-05-2.89102E-05-2.90335E-05-5.85898E-07 3.24769E-19-8.22094E-20
 -1      4010 9.66880E-05-2.87264E-05-2.91235E-05-5.12869E-07 4.30349E-19 1.03321E-20
 -1      4011 7.09564E-05-1.67280E-05-2.32887E-05-2.93181E-06-7.93488E-19-5.46118E-19
 -1      4012 9.67203E-05-2.79516E-05-2.94747E-05 2.06851E-07-2.40157E-19-1.15490E-18
 -1      4013 9.68223E-05-2.80789E-05-2.94607E-05 1.81949E-07-7.33758E-20-9.61418E-19
 -1      4014 9.66455E-05-2.75822E-05-2.95983E-05 5.49659E-08-2.12722E-19-1.14429E-18
 -1      4015 7.53433E-05-2.09361E-05-2.32394E-05-1.28130E-05-1.20650E-18 3.71770E-19
 -1      4016 7.97271E-05-2.31099E-05-2.42080E-05-1.29881E-05-1.64009E-18 7.46380E-19
 -1      4017 7.36440E-05-1.89039E-05-2.35503E-05-8.89569E-06-7.12178E-19 9.21201E-19
 -1      4018 9.56772E-05-2.89011E-05-2.86192E-05-5.56188E-07 5.10044E-20-1.71669E-19
 -1      4019 9.58737E-05-2.90418E-05-2.86407E-05-5.06725E-07 3.53875E-19 3.15436E-19
 -1      4020 9.59488E-05-2.91014E-05-2.86488E-05-5.28463E-07 4.33142E-19 1.61982E-19
 -1      4021 9.60774E-05-2.91677E-05-2.86772E-05-4.52197E-07 3.25974E-19 3.78444E-19
 -1      4022 9.19597E-05-3.37948E-05-2.48123E-05-1.85640E-05-1.59615E-18-8.15832E-19
 -1      4023 9.50399E-05-3.60506E-05-2.53630E-05-1.76931E-05-1.39470E-18-1.86759E-18
 -1      4024 9.62125E-05-2.62093E-05-3.00042E-05 3.83705E-07 6.09260E-19-5.52794E-19
 -1      4025 9.65405E-05-2.91412E-05-2.88855E-05-6.38606E-07 3.24209E-19 6.67744E-20
 -1      4026 9.66027E-05-2.90465E-05-2.89504E-05-6.12306E-07 2.47459E-19-7.72772E-20
 -1      4027 9.67475E-05-2.89853E-05-2.90424E-05-4.85827E-07 2.52377E-19 6.53028E-20
 -1      4028 9.68772E-05-2.86671E-05-2.92336E-05 3.14053E-07 2.54451E-20-8.50935E-19
 -1      4029 8.75241E-05-2.97593E-05-2.47273E-05-1.66801E-05-1.28243E-18-3.28607E-19
 -1      4030 8.63255E-05-2.75865E-05-2.51726E-05-1.47181E-05-6.27979E-19-7.32096E-19
 -1      4031 9.34480E-05-2.63949E-05-2.87370E-05-1.02090E-06 1.34855E-19 7.78641E-20
 -1      4032 9.36873E-05-2.66450E-05-2.87378E-05-8.79996E-07 2.88077E-19 2.68852E-19
 -1      4033 9.66077E-05-2.93302E-05-2.88321E-05 2.84772E-07-2.89383E-20-2.33443E-19
 -1      4034 9.65132E-05-2.93340E-05-2.87896E-05 2.85089E-07-1.21978E-19-1.32649E-19
 -1      4035 9.64058E-05-2.93142E-05-2.87528E-05 2.70739E-07 2.78321E-19-2.07315E-19
 -1      4036 9.63050E-05-2.92773E-05-2.87248E-05 2.64696E-07 3.65219E-19 1.76196E-19
 -1      4037 9.64991E-05-2.93431E-05-2.87845E-05 1.53254E-07 2.58334E-19-3.07565E-19
 -1      4038 9.61944E-05-2.92233E-05-2.87013E-05 2.52023E-07 1.83358E-19 4.38280E-19
 -1      4039 9.60917E-05-2.91582E-05-2.86848E-05 2.44063E-07 9.99878E-20 3.70332E-19
 -1      4040 9.62824E-05-2.92672E-05-2.87236E-05 1.45315E-07 3.25615E-19-2.76939E-19
 -1      4041 9.59813E-05-2.90798E-05-2.86717E-05 2.34980E-07-1.52964E-19 4.42873E-19
 -1      4042 9.58792E-05-2.89941E-05-2.86642E-05 2.28979E-07-2.92382E-19 5.71614E-19
 -1      4043 9.60615E-05-2.91316E-05-2.86862E-05 1.37166E-07 3.40395E-20 1.20415E-19
 -1      4044 9.57676E-05-2.88963E-05-2.86591E-05 2.23500E-07-4.35987E-19 6.56592E-19
 -1      4045 9.56651E-05-2.87933E-05-2.86584E-05 2.22846E-07-4.47347E-19 5.58397E-19
 -1      4046 9.58407E-05-2.89527E-05-2.86674E-05 1.29493E-07-3.19324E-19 7.20172E-19
 -1      4047 9.55485E-05-2.86777E-05-2.86594E-05 2.19787E-07-3.92108E-19 6.79382E-19
 -1      4048 9.54402E-05-2.85563E-05-2.86639E-05 2.26477E-07-3.74395E-19 8.91327E-19
 -1      4049 9.56179E-05-2.87378E-05-2.86633E-05 1.25487E-07-3.49388E-19 4.90901E-19
 -1      4050 9.53147E-05-2.84217E-05-2.86693E-05 2.29242E-07-1.56495E-19 9.99536E-19
 -1      4051 9.51950E-05-2.82804E-05-2.86774E-05 2.44723E-07 2.57591E-20 7.96672E-19
 -1      4052 9.53788E-05-2.84821E-05-2.86694E-05 1.29876E-07-1.65342E-19 7.96501E-19
 -1      4053 9.50536E-05-2.81240E-05-2.86856E-05 2.52967E-07 9.40269E-20 1.34194E-18
 -1      4054 9.49153E-05-2.79589E-05-2.86958E-05 2.78314E-07 3.94909E-19 1.59504E-18
 -1      4055 9.51164E-05-2.81855E-05-2.86827E-05 1.41015E-07 3.23322E-19 1.07777E-18
 -1      4056 9.47493E-05-2.77760E-05-2.87050E-05 2.92156E-07 2.85323E-19 1.59749E-18
 -1      4057 9.45831E-05-2.75820E-05-2.87155E-05 3.27964E-07 2.68442E-19 1.56362E-18
 -1      4058 9.48142E-05-2.78398E-05-2.86996E-05 1.58781E-07 5.77599E-19 1.40068E-18
 -1      4059 9.43824E-05-2.73672E-05-2.87236E-05 3.46954E-07 2.03444E-19 1.36989E-18
 -1      4060 9.41774E-05-2.71388E-05-2.87324E-05 3.93035E-07 5.06081E-19 1.10833E-18
 -1      4061 9.44536E-05-2.74353E-05-2.87163E-05 1.82077E-07 2.45853E-19 5.78068E-19
 -1      4062 9.39306E-05-2.68864E-05-2.87368E-05 4.15843E-07 4.52889E-19 5.91497E-19
 -1      4063 9.36739E-05-2.66177E-05-2.87409E-05 4.70798E-07 1.69778E-19 5.38475E-19
 -1      4064 9.40134E-05-2.69613E-05-2.87282E-05 2.07942E-07 1.20512E-19 6.12621E-20
 -1      4065 9.33680E-05-2.63225E-05-2.87382E-05 4.94746E-07 3.20304E-19 4.88639E-19
 -1      4066 9.30445E-05-2.60084E-05-2.87336E-05 5.55389E-07-1.45142E-19 7.44078E-19
 -1      4067 9.34690E-05-2.64077E-05-2.87291E-05 2.30740E-07 6.66980E-20-1.38635E-19
 -1      4068 9.26652E-05-2.56666E-05-2.87191E-05 5.75796E-07-7.45426E-20 8.58871E-19
 -1      4069 9.22574E-05-2.53034E-05-2.87005E-05 6.36432E-07 2.22312E-19 9.05349E-19
 -1      4070 9.27935E-05-2.57662E-05-2.87106E-05 2.40913E-07 5.69055E-20 3.44813E-19
 -1      4071 9.17892E-05-2.49132E-05-2.86676E-05 6.45791E-07 2.83831E-19 6.41484E-19
 -1      4072 9.12766E-05-2.44994E-05-2.86273E-05 6.97414E-07 4.28170E-19 9.03456E-19
 -1      4073 9.19567E-05-2.50327E-05-2.86615E-05 2.23328E-07 5.43147E-21 7.56347E-19
 -1      4074 9.07020E-05-2.40625E-05-2.85673E-05 6.84415E-07 2.59238E-19 2.89632E-19
 -1      4075 9.00600E-05-2.36000E-05-2.84950E-05 7.13984E-07 1.23464E-19 1.45453E-19
 -1      4076 9.09255E-05-2.42086E-05-2.85666E-05 1.55189E-07-3.51111E-19 2.69602E-19
 -1      4077 8.93589E-05-2.31220E-05-2.83960E-05 6.62439E-07 1.04553E-19-1.52074E-19
 -1      4078 8.85568E-05-2.26164E-05-2.82774E-05 6.52495E-07 2.51154E-19-2.91645E-19
 -1      4079 8.96624E-05-2.33034E-05-2.84054E-05 3.50047E-09 6.01311E-20 4.53039E-20
 -1      4080 8.77044E-05-2.21078E-05-2.81234E-05 5.40183E-07 4.39591E-19-4.21229E-19
 -1      4081 8.67012E-05-2.15680E-05-2.79387E-05 4.69234E-07 9.74851E-19-3.15616E-19
 -1      4082 8.81227E-05-2.23354E-05-2.81501E-05-2.78066E-07 6.61586E-19-7.95371E-19
 -1      4083 8.56627E-05-2.10429E-05-2.77076E-05 2.66532E-07 3.73447E-19-1.92573E-19
 -1      4084 8.43982E-05-2.04792E-05-2.74288E-05 1.10855E-07-1.79612E-19-2.47583E-19
 -1      4085 8.62482E-05-2.13309E-05-2.77631E-05-7.53530E-07 5.34569E-19-1.30253E-18
 -1      4086 8.31182E-05-1.99513E-05-2.70894E-05-2.20828E-07-3.04559E-19-7.53497E-19
 -1      4087 8.14993E-05-1.93714E-05-2.66761E-05-4.83853E-07-6.26684E-19-1.13132E-18
 -1      4088 8.39529E-05-2.03209E-05-2.71926E-05-1.51225E-06-4.57390E-19-8.26426E-19
 -1      4089 7.98845E-05-1.88541E-05-2.61819E-05-9.84319E-07-8.03587E-19-9.07309E-19
 -1      4090 7.77844E-05-1.82666E-05-2.55713E-05-1.38841E-06-1.56849E-18-7.14358E-19
 -1      4091 8.10864E-05-1.93287E-05-2.63630E-05-2.68060E-06-7.51757E-19-1.05722E-18
 -1      4092 7.58538E-05-1.77572E-05-2.49379E-05-1.88091E-06-1.32038E-18-5.19588E-19
 -1      4093 7.35866E-05-1.72375E-05-2.41923E-05-2.09509E-06-6.67682E-19-1.93280E-19
 -1      4094 7.34528E-05-1.77254E-05-2.37538E-05-6.04398E-06-8.70602E-19 4.06893E-19
 -1      4095 7.75464E-05-1.83917E-05-2.52379E-05-4.23500E-06-1.41313E-18-4.67048E-19
 -1      4096 9.66865E-05-2.84790E-05-2.92350E-05-4.43847E-07 4.64409E-19-2.69407E-19
 -1      4097 9.66757E-05-2.81688E-05-2.93563E-05-3.03309E-07 5.51092E-19-2.94542E-19
 -1      4098 9.67971E-05-2.85719E-05-2.92400E-05-3.78197E-07 3.72178E-19-2.32749E-19
 -1      4099 9.62670E-05-2.92545E-05-2.87217E-05-4.90485E-07 6.42749E-19 6.15268E-20
 -1      4100 9.62185E-05-2.92280E-05-2.87092E-05-5.99005E-07 5.45192E-19-2.76830E-20
 -1      4101 9.62984E-05-2.92384E-05-2.87387E-05-6.16656E-07 3.74756E-19 2.39085E-20
 -1      4102 9.67163E-05-2.78791E-05-2.95007E-05-1.65599E-07 5.31176E-19-6.29016E-19
 -1      4103 9.47129E-05-2.77277E-05-2.87077E-05-4.73509E-07 1.07651E-19-1.40554E-19
 -1      4104 9.48528E-05-2.78987E-05-2.86968E-05-4.18735E-07 4.04010E-19 3.68138E-19
 -1      4105 9.21380E-05-2.52590E-05-2.86614E-05-1.76607E-06-1.97243E-19 1.64762E-19
 -1      4106 9.24632E-05-2.55420E-05-2.86895E-05-1.52967E-06 2.78478E-20-7.28858E-20
 -1      4107 9.28465E-05-2.58439E-05-2.87151E-05-1.34236E-06 3.44307E-19-9.58671E-20
 -1      4108 9.31287E-05-2.61158E-05-2.87268E-05-1.15897E-06 1.20420E-19-6.13086E-21
 -1      4109 9.31307E-05-2.60950E-05-2.87176E-05-8.28701E-07 3.87241E-19 3.14186E-19
 -1      4110 9.24353E-05-2.54791E-05-2.86799E-05-1.11501E-06-9.47577E-20 4.08629E-19
 -1      4111 9.04124E-05-2.41339E-05-2.84004E-05-3.05382E-06 1.78863E-20-2.92447E-19
 -1      4112 9.07969E-05-2.43704E-05-2.84833E-05-2.66348E-06-6.20988E-20 2.65774E-19
 -1      4113 8.94392E-05-2.37239E-05-2.81552E-05-4.01873E-06-7.23030E-19-7.46607E-19
 -1      4114 8.98170E-05-2.38763E-05-2.82795E-05-3.51463E-06-3.68081E-19-2.85066E-19
 -1      4115 8.95368E-05-2.35055E-05-2.82669E-05-2.76019E-06-1.27816E-19-1.38233E-19
 -1      4116 8.84622E-05-2.35549E-05-2.78028E-05-5.29930E-06-4.44583E-19-1.60110E-18
 -1      4117 8.87838E-05-2.35576E-05-2.79789E-05-4.64405E-06-6.66619E-19-8.94770E-19
 -1      4118 8.83071E-05-2.29711E-05-2.79603E-05-3.75335E-06-3.40858E-19-1.63235E-18
 -1      4119 8.75827E-05-2.37867E-05-2.73171E-05-7.00917E-06 1.11050E-19-1.33458E-18
 -1      4120 8.77672E-05-2.35471E-05-2.75552E-05-6.15204E-06-9.43170E-20-1.55995E-18
 -1      4121 8.69841E-05-2.26450E-05-2.75220E-05-5.12240E-06-2.56532E-19-2.45305E-18
 -1      4122 8.69814E-05-2.46485E-05-2.66745E-05-9.29991E-06 8.92616E-19-1.67176E-18
 -1      4123 8.68843E-05-2.40284E-05-2.69803E-05-8.17847E-06 5.49195E-19-9.89059E-19
 -1      4124 8.56266E-05-2.26713E-05-2.69150E-05-7.01911E-06 2.31836E-19-2.91566E-18
 -1      4125 8.68162E-05-2.64658E-05-2.58132E-05-1.24612E-05-1.69937E-19-1.67748E-18
 -1      4126 8.62248E-05-2.52200E-05-2.61903E-05-1.09808E-05 5.99391E-19-1.55154E-18
 -1      4127 8.41925E-05-2.32086E-05-2.60609E-05-9.68681E-06 4.27065E-19-2.27587E-18
 -1      4128 8.29175E-05-2.47986E-05-2.48939E-05-1.35263E-05-7.64540E-19-5.88996E-19
 -1      4129 9.50035E-05-2.80647E-05-2.86876E-05-3.87018E-07 1.09591E-19 6.55568E-19
 -1      4130 9.51235E-05-2.82131E-05-2.86774E-05-3.51569E-07 7.81217E-20 5.23546E-19
 -1      4131 9.49015E-05-2.79441E-05-2.86934E-05-2.90220E-07 3.29414E-19 4.38553E-19
 -1      4132 9.69447E-05-2.85421E-05-2.93149E-05 1.84074E-07 1.47918E-19-7.27817E-19
 -1      4133 9.69435E-05-2.88019E-05-2.92034E-05 2.47005E-07 2.85745E-19-5.15944E-19
 -1      4134 9.69127E-05-2.90011E-05-2.91040E-05 2.51963E-07 3.20495E-19-4.65162E-19
 -1      4135 9.68597E-05-2.91436E-05-2.90204E-05 2.86159E-07 3.44757E-19-4.72335E-19
 -1      4136 9.69677E-05-2.88908E-05-2.91788E-05 1.33871E-07 3.37302E-19-2.62263E-19
 -1      4137 9.39506E-05-2.68955E-05-2.87379E-05-7.79342E-07 3.41196E-19 3.00957E-19
 -1      4138 9.41507E-05-2.71191E-05-2.87319E-05-6.72930E-07 3.04071E-19 5.55867E-19
 -1      4139 9.37077E-05-2.66516E-05-2.87294E-05-6.19538E-07 3.77625E-19 2.35105E-19
 -1      4140 9.57049E-05-2.88914E-05-2.86328E-05-4.74257E-07 3.56751E-20 8.66293E-20
 -1      4141 9.57782E-05-2.89671E-05-2.86337E-05-4.88099E-07 2.00999E-19 1.30182E-19
 -1      4142 9.57018E-05-2.88651E-05-2.86453E-05-3.98642E-07 1.55836E-19-1.08851E-20
 -1      4143 9.13225E-05-2.46718E-05-2.85623E-05-2.32251E-06-6.56106E-19 5.15935E-19
 -1      4144 9.16848E-05-2.49468E-05-2.86136E-05-2.01890E-06-5.26046E-19 2.53869E-19
 -1      4145 9.06416E-05-2.41455E-05-2.84728E-05-2.03576E-06-2.38930E-19 6.14009E-19
 -1      4146 9.67866E-05-2.92428E-05-2.89463E-05 2.80145E-07 3.40821E-19-6.58139E-19
 -1      4147 9.67035E-05-2.93024E-05-2.88854E-05 2.92365E-07 2.02040E-19-5.95447E-19
 -1      4148 9.68674E-05-2.91982E-05-2.90042E-05 1.56023E-07 3.34353E-19-5.24790E-19
 -1      4149 9.52541E-05-2.83570E-05-2.86695E-05-3.33986E-07-1.59277E-20 8.79265E-19
 -1      4150 9.53608E-05-2.84858E-05-2.86616E-05-3.14569E-07 2.66812E-19 5.67843E-19
 -1      4151 9.51799E-05-2.82651E-05-2.86767E-05-2.45375E-07 3.05148E-19 8.03014E-19
 -1      4152 9.43672E-05-2.73395E-05-2.87261E-05-6.01064E-07-2.85920E-19 4.55862E-19
 -1      4153 9.45338E-05-2.75360E-05-2.87164E-05-5.22939E-07-3.03762E-19 3.57813E-20
 -1      4154 9.45749E-05-2.75727E-05-2.87109E-05-3.62132E-07-2.03068E-19-5.14289E-21
 -1      4155 9.64624E-05-2.91995E-05-2.88254E-05-6.38254E-07 4.56706E-19 2.09956E-19
 -1      4156 9.66195E-05-2.91987E-05-2.88965E-05-5.23790E-07 2.70483E-19 9.12213E-20
 -1      4157 9.63887E-05-2.92332E-05-2.87804E-05-6.36075E-07 3.42470E-19 1.62194E-19
 -1      4158 7.60931E-05-1.93290E-05-2.44081E-05-7.81170E-06-1.46462E-18 7.62965E-19
 -1      4159 9.41831E-05-2.71437E-05-2.87247E-05-4.68575E-07-1.46292E-20-4.02990E-20
 -1      4160 9.62980E-05-2.92731E-05-2.87238E-05-3.70914E-07 4.31232E-19 4.36632E-20
 -1      4161 9.63975E-05-2.93036E-05-2.87527E-05-3.81990E-07 4.63231E-19-1.04411E-19
 -1      4162 9.54791E-05-2.86112E-05-2.86567E-05-3.08095E-07 2.31867E-19 6.23625E-20
 -1      4163 9.55796E-05-2.87235E-05-2.86526E-05-3.02726E-07 3.30050E-20 1.38509E-19
 -1      4164 9.54257E-05-2.85427E-05-2.86643E-05-2.21543E-07 1.32471E-20 5.00529E-19
 -1      4165 9.16082E-05-2.48194E-05-2.86037E-05-1.50495E-06-5.24093E-19 4.10192E-19
 -1      4166 9.66941E-05-2.93274E-05-2.88750E-05 1.60336E-07 2.69128E-19-4.05479E-19
 -1      4167 8.03163E-05-2.21307E-05-2.48957E-05-1.09453E-05-7.39696E-19 1.59788E-19
 -1      4168 9.68183E-05-2.90813E-05-2.90306E-05-3.90851E-07 5.76506E-20-3.12668E-19
 -1      4169 9.68698E-05-2.89251E-05-2.91165E-05-3.45866E-07 1.71062E-19-4.70969E-19
 -1      4170 9.66299E-05-2.72489E-05-2.97322E-05-2.27279E-08-1.11136E-19-1.13673E-18
 -1      4171 9.69138E-05-2.82646E-05-2.94212E-05 1.72503E-07-1.01402E-19-8.19153E-19
 -1      4172 9.69643E-05-2.83983E-05-2.93869E-05 9.71402E-08 1.78630E-19-6.09214E-19
 -1      4173 9.68513E-05-2.79327E-05-2.95373E-05 8.99957E-08-1.61751E-19-8.17904E-19
 -1      4174 9.68854E-05-2.87105E-05-2.92199E-05-3.26463E-07 3.27989E-19-4.99631E-19
 -1      4175 9.68866E-05-2.84331E-05-2.93346E-05-2.40986E-07 3.10781E-19-5.45215E-19
 -1      4176 9.69392E-05-2.88020E-05-2.92046E-05-2.30337E-07 1.42720E-19-8.37644E-19
 -1      4177 9.58887E-05-2.90343E-05-2.86533E-05-4.19145E-07 2.89802E-19 4.35071E-19
 -1      4178 9.64857E-05-2.68230E-05-2.98638E-05 8.86185E-08 6.40592E-19-6.35824E-19
 -1      4179 9.59856E-05-2.54049E-05-3.02439E-05 5.14857E-07 5.88457E-19-6.18160E-19
 -1      4180 9.59407E-05-2.52800E-05-3.02842E-05 3.57493E-07 5.97394E-19-7.14843E-19
 -1      4181 9.68287E-05-2.80778E-05-2.94695E-05-1.91702E-07 3.23183E-19-4.32986E-19
 -1      4182 9.67531E-05-2.76306E-05-2.96165E-05-4.43005E-08 4.88450E-19-5.63341E-19
 -1      4183 9.69042E-05-2.82074E-05-2.94424E-05-1.41756E-07 2.88404E-19-3.51366E-19
 -1      4184 9.60957E-05-2.91675E-05-2.86818E-05-3.40036E-07 3.46641E-19 1.93399E-19
 -1      4185 9.61911E-05-2.92253E-05-2.86987E-05-3.53284E-07 5.19582E-19 3.66595E-19
 -1      4186 9.62968E-05-2.92758E-05-2.87267E-05-2.56467E-07 2.93588E-19-1.89235E-19
 -1      4187 9.65938E-05-2.70133E-05-2.98237E-05 5.13028E-08 4.63358E-19-4.12419E-19
 -1      4188 8.71368E-05-2.22155E-05-2.78518E-05-2.44603E-06 3.65369E-19-1.26981E-18
 -1      4189 8.78458E-05-2.25092E-05-2.80393E-05-1.91212E-06 3.98969E-19-1.02559E-18
 -1      4190 9.63151E-05-2.92788E-05-2.87280E-05-5.01193E-08 4.68227E-19-2.53401E-19
 -1      4191 9.62012E-05-2.92209E-05-2.87044E-05-4.90585E-08 4.43267E-19-1.68276E-19
 -1      4192 9.59086E-05-2.90073E-05-2.86710E-05 2.77737E-08 1.54245E-20 1.07657E-19
 -1      4193 9.57972E-05-2.89093E-05-2.86653E-05 2.63358E-08-2.31742E-19 4.98770E-19
 -1      4194 9.56421E-05-2.87637E-05-2.86621E-05-4.55617E-08-2.63808E-19 2.06703E-19
 -1      4195 9.55257E-05-2.86440E-05-2.86634E-05-4.30475E-08-2.69107E-19 3.59121E-19
 -1      4196 9.54066E-05-2.85163E-05-2.86675E-05-5.03316E-08-2.69868E-19 7.06329E-19
 -1      4197 9.52787E-05-2.83771E-05-2.86727E-05-4.73987E-08 7.24100E-20 6.78832E-19
 -1      4198 9.51460E-05-2.82291E-05-2.86799E-05-6.17017E-08 3.38759E-19 5.97198E-19
 -1      4199 9.50014E-05-2.80671E-05-2.86876E-05-5.79803E-08 5.66201E-19 6.03590E-19
 -1      4200 9.48481E-05-2.78959E-05-2.86961E-05-8.16348E-08 3.92778E-19 4.44390E-19
 -1      4201 9.46782E-05-2.77069E-05-2.87046E-05-7.76433E-08 3.26190E-19 3.38477E-19
 -1      4202 9.44958E-05-2.75084E-05-2.87126E-05-1.13588E-07-7.06312E-20 2.12095E-19
 -1      4203 9.42905E-05-2.72873E-05-2.87197E-05-1.10828E-07-2.11676E-19 6.62153E-21
 -1      4204 9.40696E-05-2.70577E-05-2.87246E-05-1.62969E-07 1.85309E-19-1.05126E-20
 -1      4205 9.38173E-05-2.67999E-05-2.87277E-05-1.64140E-07 1.50242E-19-2.14480E-19
 -1      4206 9.35481E-05-2.65364E-05-2.87264E-05-2.37878E-07 5.61263E-20 1.63379E-20
 -1      4207 9.32359E-05-2.62377E-05-2.87218E-05-2.47411E-07 3.22781E-19 2.71987E-19
 -1      4208 9.29083E-05-2.59397E-05-2.87101E-05-3.50334E-07 3.60305E-19 2.79693E-19
 -1      4209 9.25220E-05-2.55984E-05-2.86929E-05-3.75128E-07-3.48667E-21 4.04045E-19
 -1      4210 9.21271E-05-2.52688E-05-2.86653E-05-5.17964E-07-3.50424E-19 6.78450E-19
 -1      4211 9.16510E-05-2.48858E-05-2.86291E-05-5.68365E-07-5.83209E-19 3.54085E-19
 -1      4212 9.11811E-05-2.45328E-05-2.85782E-05-7.66328E-07-4.82774E-19 5.20768E-19
 -1      4213 9.05980E-05-2.41137E-05-2.85141E-05-8.57372E-07-3.23452E-19 3.96495E-19
 -1      4214 9.00480E-05-2.37525E-05-2.84307E-05-1.13209E-06-3.82321E-19 3.13730E-19
 -1      4215 8.93382E-05-2.33078E-05-2.83267E-05-1.28509E-06 1.60635E-19 7.68004E-20
 -1      4216 8.87068E-05-2.29626E-05-2.81988E-05-1.66739E-06 5.14102E-19-6.02158E-19
 -1      4217 8.60914E-05-2.17761E-05-2.76154E-05-2.82426E-06 1.52486E-19-1.55624E-18
 -1      4218 8.53161E-05-2.15836E-05-2.73495E-05-3.57260E-06-1.57418E-19-1.51703E-18
 -1      4219 8.40372E-05-2.11866E-05-2.70068E-05-4.14513E-06-2.76569E-19-1.45744E-18
 -1      4220 8.32242E-05-2.11657E-05-2.66396E-05-5.19726E-06 4.43369E-21-1.40145E-18
 -1      4221 8.16382E-05-2.08387E-05-2.61492E-05-6.05724E-06-9.38668E-20-1.37946E-18
 -1      4222 9.65210E-05-2.66971E-05-2.99234E-05-5.37845E-08 7.50282E-20-1.09619E-18
 -1      4223 9.66232E-05-2.70620E-05-2.98156E-05-7.45387E-08 1.28637E-21-1.07167E-18
 -1      4224 8.06741E-05-2.09986E-05-2.56101E-05-7.51120E-06-5.56479E-19-7.73832E-19
 -1      4225 9.67566E-05-2.91937E-05-2.89533E-05-3.90721E-07 1.91656E-19-3.81962E-19
 -1      4226 9.68544E-05-2.91452E-05-2.90220E-05-2.73534E-07 1.34860E-19-7.12920E-19
 -1      4227 9.66796E-05-2.92634E-05-2.88915E-05-4.04846E-07 3.98979E-19-5.03719E-19
 -1      4228 9.69917E-05-2.88617E-05-2.91977E-05-5.84543E-08 1.87160E-19-4.15111E-19
 -1      4229 9.69580E-05-2.90536E-05-2.90986E-05-4.26250E-08 1.84704E-19-3.76492E-19
 -1      4230 9.67600E-05-2.75549E-05-2.96597E-05 5.63061E-08-1.04930E-19-1.04848E-18
 -1      4231 9.64556E-05-2.92779E-05-2.87929E-05-5.20764E-07 5.48652E-19 7.89693E-20
 -1      4232 9.57329E-05-2.88655E-05-2.86569E-05-2.39293E-07-1.43424E-20 4.04843E-20
 -1      4233 9.58311E-05-2.89601E-05-2.86589E-05-2.42300E-07 6.71714E-20 1.27321E-19
 -1      4234 9.68973E-05-2.91844E-05-2.90183E-05-6.13146E-08 1.24222E-19-4.76942E-19
 -1      4235 9.68188E-05-2.92767E-05-2.89443E-05-5.29260E-08 1.26463E-19-6.08556E-19
 -1      4236 9.65293E-05-2.93468E-05-2.87909E-05-5.54626E-08 2.68578E-19-5.86532E-19
 -1      4237 9.64221E-05-2.93220E-05-2.87547E-05-5.21396E-08 2.54023E-19-4.96060E-19
 -1      4238 9.59199E-05-2.90348E-05-2.86638E-05-2.83684E-07 2.10375E-19 3.13764E-19
 -1      4239 9.60138E-05-2.91120E-05-2.86721E-05-2.93101E-07 1.16144E-19 9.77039E-20
 -1      4240 9.61109E-05-2.91710E-05-2.86910E-05-2.02430E-07 4.53851E-19-3.46672E-20
 -1      4241 9.59394E-05-2.90374E-05-2.86737E-05-1.18120E-07 1.69498E-19-2.08692E-19
 -1      4242 9.65169E-05-2.66418E-05-2.99516E-05 4.57387E-08 3.70491E-19-7.16702E-19
 -1      4243 9.65051E-05-2.66277E-05-2.99532E-05-3.50651E-08 1.68264E-19-1.02152E-18
 -1      4244 9.67390E-05-2.72759E-05-2.97651E-05-2.63435E-09 1.93868E-19-8.71942E-19
 -1      4245 9.70020E-05-2.86162E-05-2.93053E-05-2.59936E-08 2.54496E-19-4.65661E-19
 -1      4246 9.68386E-05-2.77416E-05-2.96128E-05 3.86282E-08 4.89498E-20-8.70392E-19
 -1      4247 9.66625E-05-2.93571E-05-2.88421E-05-6.89017E-09 3.62536E-19-6.44805E-19
 -1      4248 9.65351E-05-2.93375E-05-2.88028E-05-2.25650E-07 3.32913E-19-4.78447E-19
 -1      4249 9.68182E-05-2.75948E-05-2.96655E-05-6.61670E-09 2.95182E-19-7.11113E-19
 -1      4250 9.68439E-05-2.76938E-05-2.96378E-05 7.17364E-09 2.10828E-19-8.35742E-19
 -1      4251 9.69386E-05-2.80578E-05-2.95187E-05 4.49360E-08 1.73398E-19-5.24959E-19
 -1      4252 9.61149E-05-2.91636E-05-2.86918E-05-8.11121E-09 3.35314E-19-9.95605E-20
 -1      4253 9.65311E-05-2.93198E-05-2.88047E-05-3.51968E-07 5.75211E-19-2.92173E-19
 -1      4254 9.66216E-05-2.93020E-05-2.88497E-05-3.51606E-07 5.18727E-19-3.06365E-19
 -1      4255 9.56934E-05-2.88163E-05-2.86627E-05-1.45440E-07-6.45709E-20 4.91045E-20
 -1      4256 9.60001E-05-2.90830E-05-2.86781E-05-9.03893E-09 3.00064E-19 2.36576E-21
 -1      4257 9.67325E-05-2.93049E-05-2.89013E-05-2.36120E-07 2.33937E-19-7.87824E-19
 -1      4258 9.67581E-05-2.93269E-05-2.88968E-05-8.69906E-09 3.23583E-19-5.80427E-19
 -1      4259 7.89798E-05-2.07942E-05-2.50015E-05-8.52824E-06-1.19123E-18-1.00287E-20
 -1      4260 9.63125E-05-2.60559E-05-3.01005E-05 1.68498E-07 5.67257E-19-6.67284E-19
 -1      4261 9.69538E-05-2.82942E-05-2.94274E-05-8.27741E-08 2.73160E-19-4.31817E-19
 -1      4262 9.68946E-05-2.79074E-05-2.95637E-05-2.68634E-08 3.21255E-19-3.87810E-19
 -1      4263 9.65981E-05-2.69893E-05-2.98362E-05 2.67861E-08 3.93113E-19-4.59511E-19
 -1      4264 9.67934E-05-2.75150E-05-2.96874E-05-3.08084E-08 2.57975E-19-4.15210E-19
 -1      4265 9.69706E-05-2.83433E-05-2.94108E-05-4.31111E-08 1.76968E-19-4.89367E-19
 -3
    1PSTEP                         4           1           1          
  100CL  101 1.000000000        4265                     0    1           1
 -4  ERROR       1    1
 -5  STR(%)      1    1    0    0
 -1         1 1.29896E+01
 -1         2 2.52003E+01
 -1         3 6.73625E-02
 -1         4 2.34474E-01
 -1         5 1.40395E+01
 -1         6 1.31438E+01
 -1         7 1.31438E+01
 -1         8 3.66370E+00
 -1         9 1.82502E+00
 -1        10 1.28916E+00
 -1        11 1.04633E+00
 -1        12 8.99976E-01
 -1        13 8.08930E-01
 -1        14 7.53996E-01
 -1        15 7.55956E-01
 -1        16 8.13201E-01
 -1        17 9.00851E-01
 -1        18 1.05259E+00
 -1        19 1.30774E+00
 -1        20 1.83572E+00
 -1        21 3.50550E+00
 -1        22 8.64160E+00
 -1        23 1.31438E+01
 -1        24 4.31790E+00
 -1        25 3.34102E+00
 -1        26 2.11164E+00
 -1        27 1.36306E+00
 -1        28 1.01429E+00
 -1        29 7.75422E-01
 -1        30 5.95795E-01
 -1        31 4.55864E-01
 -1        32 3.48705E-01
 -1        33 2.70360E-01
 -1        34 2.07671E-01
 -1        35 1.58616E-01
 -1        36 1.21260E-01
 -1        37 9.38464E-02
 -1        38 7.48338E-02
 -1        39 6.29004E-02
 -1        40 6.03151E-02
 -1        41 6.94814E-02
 -1        42 8.30722E-02
 -1        43 1.00431E-01
 -1        44 1.33664E-01
 -1        45 1.81490E-01
 -1        46 2.44144E-01
 -1        47 3.23772E-01
 -1        48 4.21768E-01
 -1        49 5.37627E-01
 -1        50 6.67011E-01
 -1        51 8.16966E-01
 -1        52 1.08229E+00
 -1        53 1.37352E+00
 -1        54 1.74204E+00
 -1        55 2.08545E+00
 -1        56 2.21787E+00
 -1        57 2.23950E+00
 -1        58 2.23950E+00
 -1        59 2.79881E+00
 -1        60 4.84750E+00
 -1        61 6.71683E+00
 -1        62 6.71683E+00
 -1        63 6.53610E+00
 -1        64 5.75466E+00
 -1        65 3.09411E+00
 -1        66 1.74284E+00
 -1        67 1.68012E+00
 -1        68 1.68012E+00
 -1        69 1.43779E+00
 -1        70 1.43779E+00
 -1        71 1.16370E+00
 -1        72 1.40395E+01
 -1        73 3.39483E+00
 -1        74 2.41328E+00
 -1        75 1.66610E+00
 -1        76 1.14504E+00
 -1        77 9.05950E-01
 -1        78 7.31354E-01
 -1        79 5.88049E-01
 -1        80 4.68739E-01
 -1        81 3.69605E-01
 -1        82 2.95669E-01
 -1        83 2.34504E-01
 -1        84 1.84379E-01
 -1        85 1.44573E-01
 -1        86 1.14179E-01
 -1        87 9.22666E-02
 -1        88 7.79695E-02
 -1        89 7.28721E-02
 -1        90 8.24020E-02
 -1        91 9.75148E-02
 -1        92 1.17408E-01
 -1        93 1.40850E-01
 -1        94 1.65867E-01
 -1        95 2.06504E-01
 -1        96 2.57173E-01
 -1        97 3.09902E-01
 -1        98 3.58291E-01
 -1        99 3.92376E-01
 -1       100 4.03721E-01
 -1       101 4.85591E-01
 -1       102 6.17076E-01
 -1       103 7.16754E-01
 -1       104 8.61289E-01
 -1       105 1.08736E+00
 -1       106 1.15136E+00
 -1       107 1.42332E+00
 -1       108 1.62734E+00
 -1       109 2.23649E+00
 -1       110 2.80379E+00
 -1       111 2.86660E+00
 -1       112 3.04259E+00
 -1       113 3.04259E+00
 -1       114 2.53938E+00
 -1       115 1.74557E+00
 -1       116 1.01606E+00
 -1       117 4.45193E-01
 -1       118 2.25194E-01
 -1       119 2.02378E-01
 -1       120 1.66551E-01
 -1       121 1.15100E-01
 -1       122 2.08664E-01
 -1       123 2.85442E-01
 -1       124 3.37577E-01
 -1       125 3.37577E-01
 -1       126 3.16140E-01
 -1       127 1.77974E-01
 -1       128 4.52020E-01
 -1       129 6.40657E-01
 -1       130 6.40657E-01
 -1       131 5.87475E-01
 -1       132 3.34887E-01
 -1       133 2.71973E-01
 -1       134 4.20493E-01
 -1       135 6.93992E-01
 -1       136 8.11977E-01
 -1       137 2.52003E+01
 -1       138 4.65275E+01
 -1       139 4.65275E+01
 -1       140 1.91906E+01
 -1       141 1.30744E+01
 -1       142 1.30744E+01
 -1       143 1.25671E+01
 -1       144 1.25671E+01
 -1       145 1.21798E+01
 -1       146 1.49028E+01
 -1       147 4.01195E+01
 -1       148 4.01195E+01
 -1       149 2.49820E+01
 -1       150 2.43174E+01
 -1       151 2.39656E+01
 -1       152 2.79770E+01
 -1       153 3.26017E+01
 -1       154 3.05247E+01
 -1       155 1.34050E+01
 -1       156 1.22461E+01
 -1       157 1.22322E+01
 -1       158 1.29896E+01
 -1       159 1.21004E+01
 -1       160 2.13037E+01
 -1       161 4.79257E+01
 -1       162 4.79257E+01
 -1       163 2.44388E+01
 -1       164 6.07783E+00
 -1       165 2.29884E+00
 -1       166 1.50762E+00
 -1       167 1.15792E+00
 -1       168 9.73561E-01
 -1       169 8.64624E-01
 -1       170 7.96117E-01
 -1       171 7.55956E-01
 -1       172 7.99543E-01
 -1       173 8.67279E-01
 -1       174 9.81013E-01
 -1       175 1.17247E+00
 -1       176 1.52753E+00
 -1       177 2.26077E+00
 -1       178 3.93117E+00
 -1       179 1.40395E+01
 -1       180 4.31790E+00
 -1       181 3.34102E+00
 -1       182 2.11164E+00
 -1       183 1.44755E+00
 -1       184 1.02598E+00
 -1       185 7.75422E-01
 -1       186 5.95795E-01
 -1       187 4.68667E-01
 -1       188 3.68962E-01
 -1       189 2.91249E-01
 -1       190 2.35005E-01
 -1       191 1.87487E-01
 -1       192 1.48532E-01
 -1       193 1.17508E-01
 -1       194 9.35511E-02
 -1       195 7.56955E-02
 -1       196 6.29390E-02
 -1       197 6.03151E-02
 -1       198 6.94814E-02
 -1       199 8.34748E-02
 -1       200 1.10084E-01
 -1       201 1.46100E-01
 -1       202 1.93111E-01
 -1       203 2.52613E-01
 -1       204 3.25590E-01
 -1       205 4.54565E-01
 -1       206 6.18547E-01
 -1       207 8.16068E-01
 -1       208 1.03834E+00
 -1       209 1.26214E+00
 -1       210 1.45162E+00
 -1       211 1.74204E+00
 -1       212 2.08545E+00
 -1       213 2.21787E+00
 -1       214 2.23950E+00
 -1       215 2.08073E+00
 -1       216 2.79881E+00
 -1       217 4.84750E+00
 -1       218 6.71683E+00
 -1       219 6.53610E+00
 -1       220 5.75466E+00
 -1       221 3.51553E+00
 -1       222 1.74284E+00
 -1       223 1.47889E+00
 -1       224 1.68012E+00
 -1       225 1.41034E+00
 -1       226 1.43779E+00
 -1       227 1.16370E+00
 -1       228 3.39483E+00
 -1       229 2.41328E+00
 -1       230 1.66610E+00
 -1       231 1.14504E+00
 -1       232 9.05950E-01
 -1       233 7.31354E-01
 -1       234 5.88049E-01
 -1       235 4.68739E-01
 -1       236 3.69605E-01
 -1       237 2.95669E-01
 -1       238 2.34504E-01
 -1       239 1.86951E-01
 -1       240 1.48830E-01
 -1       241 1.18742E-01
 -1       242 9.60634E-02
 -1       243 8.00975E-02
 -1       244 7.05232E-02
 -1       245 7.47156E-02
 -1       246 8.42824E-02
 -1       247 9.75148E-02
 -1       248 1.17408E-01
 -1       249 1.45729E-01
 -1       250 1.83011E-01
 -1       251 2.24288E-01
 -1       252 2.66337E-01
 -1       253 3.09902E-01
 -1       254 3.58291E-01
 -1       255 3.92376E-01
 -1       256 4.20117E-01
 -1       257 5.07598E-01
 -1       258 6.17076E-01
 -1       259 7.16754E-01
 -1       260 8.61289E-01
 -1       261 1.08736E+00
 -1       262 1.15136E+00
 -1       263 1.42332E+00
 -1       264 1.66842E+00
 -1       265 2.23649E+00
 -1       266 2.80379E+00
 -1       267 2.86660E+00
 -1       268 3.04259E+00
 -1       269 2.53938E+00
 -1       270 1.74557E+00
 -1       271 1.12720E+00
 -1       272 6.02853E-01
 -1       273 3.06696E-01
 -1       274 2.25194E-01
 -1       275 1.75362E-01
 -1       276 2.98226E-01
 -1       277 4.54843E-01
 -1       278 6.08866E-01
 -1       279 6.30801E-01
 -1       280 6.30801E-01
 -1       281 5.74156E-01
 -1       282 7.13410E-01
 -1       283 1.19743E+00
 -1       284 1.27268E+00
 -1       285 1.27268E+00
 -1       286 1.04327E+00
 -1       287 5.12412E-01
 -1       288 6.87433E-01
 -1       289 6.87433E-01
 -1       290 7.92851E-01
 -1       291 3.11908E+01
 -1       292 2.59977E+01
 -1       293 4.65275E+01
 -1       294 2.11872E+01
 -1       295 1.14240E+01
 -1       296 1.30744E+01
 -1       297 1.19550E+01
 -1       298 1.25671E+01
 -1       299 1.21798E+01
 -1       300 1.16707E+01
 -1       301 1.49906E+01
 -1       302 4.01195E+01
 -1       303 3.65698E+01
 -1       304 2.69163E+01
 -1       305 2.69163E+01
 -1       306 2.52142E+01
 -1       307 3.26017E+01
 -1       308 3.26017E+01
 -1       309 1.34050E+01
 -1       310 1.22461E+01
 -1       311 1.22322E+01
 -1       312 1.18067E+01
 -1       313 1.29896E+01
 -1       314 1.21004E+01
 -1       315 1.12938E+01
 -1       316 2.27353E+01
 -1       317 4.79257E+01
 -1       318 2.93701E+01
 -1       319 3.11908E+01
 -1       320 1.04817E+00
 -1       321 2.48000E+00
 -1       322 7.95212E-01
 -1       323 6.94983E-01
 -1       324 6.31913E-01
 -1       325 5.87720E-01
 -1       326 5.90913E-01
 -1       327 6.34561E-01
 -1       328 7.01247E-01
 -1       329 7.96404E-01
 -1       330 9.31816E-01
 -1       331 1.16009E+00
 -1       332 1.32907E+00
 -1       333 2.20085E+00
 -1       334 1.91438E+00
 -1       335 1.72955E+00
 -1       336 1.26774E+00
 -1       337 9.07545E-01
 -1       338 6.56602E-01
 -1       339 5.38933E-01
 -1       340 4.42018E-01
 -1       341 3.56756E-01
 -1       342 2.91586E-01
 -1       343 2.36764E-01
 -1       344 1.89848E-01
 -1       345 1.54179E-01
 -1       346 1.25276E-01
 -1       347 1.01072E-01
 -1       348 8.12445E-02
 -1       349 6.51838E-02
 -1       350 5.55766E-02
 -1       351 5.48333E-02
 -1       352 6.47986E-02
 -1       353 8.34748E-02
 -1       354 1.10084E-01
 -1       355 1.53233E-01
 -1       356 2.20953E-01
 -1       357 3.09968E-01
 -1       358 4.24567E-01
 -1       359 5.68158E-01
 -1       360 7.41577E-01
 -1       361 9.40165E-01
 -1       362 1.14936E+00
 -1       363 1.33925E+00
 -1       364 1.48370E+00
 -1       365 1.65742E+00
 -1       366 1.73583E+00
 -1       367 1.74221E+00
 -1       368 1.77704E+00
 -1       369 2.06920E+00
 -1       370 2.76601E+00
 -1       371 3.68651E+00
 -1       372 4.51936E+00
 -1       373 4.12933E+00
 -1       374 3.13146E+00
 -1       375 2.61926E+00
 -1       376 1.95732E+00
 -1       377 1.62557E+00
 -1       378 1.21954E+00
 -1       379 1.00046E+00
 -1       380 1.03485E+00
 -1       381 1.13060E+00
 -1       382 8.91558E-01
 -1       383 7.04181E-01
 -1       384 5.45525E-01
 -1       385 4.38157E-01
 -1       386 3.71828E-01
 -1       387 3.08323E-01
 -1       388 2.53004E-01
 -1       389 2.07998E-01
 -1       390 1.68676E-01
 -1       391 1.35506E-01
 -1       392 1.09366E-01
 -1       393 8.94364E-02
 -1       394 7.49376E-02
 -1       395 6.54299E-02
 -1       396 6.29739E-02
 -1       397 6.67854E-02
 -1       398 7.67237E-02
 -1       399 9.69150E-02
 -1       400 1.21959E-01
 -1       401 1.63068E-01
 -1       402 2.20407E-01
 -1       403 2.86823E-01
 -1       404 3.58906E-01
 -1       405 4.29849E-01
 -1       406 4.88550E-01
 -1       407 5.47992E-01
 -1       408 5.68046E-01
 -1       409 5.68046E-01
 -1       410 5.19925E-01
 -1       411 4.48858E-01
 -1       412 5.28667E-01
 -1       413 9.07636E-01
 -1       414 1.40200E+00
 -1       415 1.79131E+00
 -1       416 1.91041E+00
 -1       417 1.91041E+00
 -1       418 1.83989E+00
 -1       419 1.87184E+00
 -1       420 1.76508E+00
 -1       421 1.45191E+00
 -1       422 1.10467E+00
 -1       423 8.82028E-01
 -1       424 6.71162E-01
 -1       425 4.39146E-01
 -1       426 2.13376E-01
 -1       427 7.86209E-01
 -1       428 7.53758E-01
 -1       429 4.39146E-01
 -1       430 9.07329E-01
 -1       431 9.07329E-01
 -1       432 1.01923E+00
 -1       433 1.61535E+00
 -1       434 2.00195E+00
 -1       435 2.00195E+00
 -1       436 1.97933E+00
 -1       437 1.28198E+00
 -1       438 9.57642E-01
 -1       439 1.03485E+00
 -1       440 2.59977E+01
 -1       441 3.22063E+01
 -1       442 3.22063E+01
 -1       443 1.54094E+01
 -1       444 9.27629E+00
 -1       445 9.10885E-01
 -1       446 1.11244E+01
 -1       447 1.13985E+01
 -1       448 9.45387E+00
 -1       449 7.97474E+00
 -1       450 7.81745E+00
 -1       451 1.41667E+01
 -1       452 2.48517E+01
 -1       453 2.14943E+01
 -1       454 3.57446E+01
 -1       455 3.57446E+01
 -1       456 2.56258E+01
 -1       457 2.10899E+01
 -1       458 1.27128E+01
 -1       459 6.45984E+00
 -1       460 9.55907E+00
 -1       461 1.06894E+01
 -1       462 1.08989E+01
 -1       463 9.34669E+00
 -1       464 7.02548E+00
 -1       465 9.72003E+00
 -1       466 1.68478E+01
 -1       467 2.93701E+01
 -1       468 2.95237E+01
 -1       469 8.06602E+00
 -1       470 2.15639E+01
 -1       471 4.59153E+00
 -1       472 1.04801E+00
 -1       473 4.86529E-01
 -1       474 5.14486E-01
 -1       475 4.31683E-01
 -1       476 4.57572E-01
 -1       477 4.87116E-01
 -1       478 5.11144E-01
 -1       479 5.11144E-01
 -1       480 6.08926E-01
 -1       481 7.14363E+00
 -1       482 8.91558E-01
 -1       483 8.03292E-01
 -1       484 5.64993E+00
 -1       485 7.02499E-01
 -1       486 5.89336E-01
 -1       487 4.77073E-01
 -1       488 3.78543E-01
 -1       489 3.23746E-01
 -1       490 2.74002E-01
 -1       491 2.27046E-01
 -1       492 1.88442E-01
 -1       493 1.55084E-01
 -1       494 1.26040E-01
 -1       495 1.01497E-01
 -1       496 8.12445E-02
 -1       497 6.51838E-02
 -1       498 5.29907E-02
 -1       499 4.50095E-02
 -1       500 5.07417E-02
 -1       501 6.29174E-02
 -1       502 9.10636E-02
 -1       503 1.35091E-01
 -1       504 1.92573E-01
 -1       505 2.67085E-01
 -1       506 3.62510E-01
 -1       507 4.82747E-01
 -1       508 6.31086E-01
 -1       509 8.09066E-01
 -1       510 1.01455E+00
 -1       511 1.23873E+00
 -1       512 1.46204E+00
 -1       513 1.64885E+00
 -1       514 1.94381E+00
 -1       515 2.39041E+00
 -1       516 2.81584E+00
 -1       517 2.94368E+00
 -1       518 4.28442E+00
 -1       519 4.72206E+00
 -1       520 6.55209E+00
 -1       521 6.81444E+00
 -1       522 4.32727E+00
 -1       523 2.67319E+00
 -1       524 2.98043E+00
 -1       525 2.45124E+00
 -1       526 1.66731E+00
 -1       527 1.21954E+00
 -1       528 5.45525E-01
 -1       529 4.38157E-01
 -1       530 3.71828E-01
 -1       531 3.08323E-01
 -1       532 2.53004E-01
 -1       533 2.08564E-01
 -1       534 1.69732E-01
 -1       535 1.36644E-01
 -1       536 1.10274E-01
 -1       537 8.91017E-02
 -1       538 7.10333E-02
 -1       539 5.62243E-02
 -1       540 4.83883E-02
 -1       541 5.05914E-02
 -1       542 6.13752E-02
 -1       543 7.67237E-02
 -1       544 1.08386E-01
 -1       545 1.50913E-01
 -1       546 2.02050E-01
 -1       547 2.61287E-01
 -1       548 3.26395E-01
 -1       549 3.92618E-01
 -1       550 4.51825E-01
 -1       551 5.08662E-01
 -1       552 5.47992E-01
 -1       553 5.68046E-01
 -1       554 5.45932E-01
 -1       555 5.25866E-01
 -1       556 6.07923E-01
 -1       557 7.82859E-01
 -1       558 1.16027E+00
 -1       559 1.53167E+00
 -1       560 1.79131E+00
 -1       561 1.91041E+00
 -1       562 1.79595E+00
 -1       563 1.86685E+00
 -1       564 1.76508E+00
 -1       565 1.61456E+00
 -1       566 1.43003E+00
 -1       567 1.24334E+00
 -1       568 1.34189E+00
 -1       569 1.22438E+00
 -1       570 1.32763E+00
 -1       571 1.59510E+00
 -1       572 1.22438E+00
 -1       573 1.12543E+00
 -1       574 1.89904E+00
 -1       575 2.93319E+00
 -1       576 3.07624E+00
 -1       577 3.07624E+00
 -1       578 2.55174E+00
 -1       579 1.82259E+00
 -1       580 1.34398E+00
 -1       581 3.22063E+01
 -1       582 1.34210E+01
 -1       583 7.04181E-01
 -1       584 2.95237E+01
 -1       585 8.72303E-01
 -1       586 2.03647E+01
 -1       587 2.56258E+01
 -1       588 4.57497E-01
 -1       589 7.14437E+00
 -1       590 7.87577E+00
 -1       591 8.52529E+00
 -1       592 6.43339E+00
 -1       593 7.40607E+00
 -1       594 1.16514E+01
 -1       595 1.79140E+01
 -1       596 2.28994E+01
 -1       597 3.57446E+01
 -1       598 1.55107E+01
 -1       599 1.09041E+01
 -1       600 6.94937E+00
 -1       601 4.72206E+00
 -1       602 8.46088E+00
 -1       603 7.60582E+00
 -1       604 4.59865E+00
 -1       605 5.54506E+00
 -1       606 8.39265E+00
 -1       607 1.35701E+01
 -1       608 4.94860E+00
 -1       609 1.32819E+00
 -1       610 4.04085E+00
 -1       611 5.31161E-01
 -1       612 8.14423E+00
 -1       613 1.41769E+01
 -1       614 1.03485E+00
 -1       615 3.58565E-01
 -1       616 3.42949E-01
 -1       617 3.62023E-01
 -1       618 3.38003E-01
 -1       619 1.34189E+00
 -1       620 5.44032E-01
 -1       621 1.35478E+01
 -1       622 1.19258E+01
 -1       623 3.97529E-01
 -1       624 3.84753E-01
 -1       625 3.43822E-01
 -1       626 2.94349E-01
 -1       627 2.44837E-01
 -1       628 2.13488E-01
 -1       629 1.81061E-01
 -1       630 1.50044E-01
 -1       631 1.21911E-01
 -1       632 9.93231E-02
 -1       633 8.02968E-02
 -1       634 6.40714E-02
 -1       635 5.03801E-02
 -1       636 3.82275E-02
 -1       637 3.40651E-02
 -1       638 4.19843E-02
 -1       639 6.99842E-02
 -1       640 1.05347E-01
 -1       641 1.50448E-01
 -1       642 2.08049E-01
 -1       643 2.81368E-01
 -1       644 3.74190E-01
 -1       645 4.91073E-01
 -1       646 6.37742E-01
 -1       647 8.28033E-01
 -1       648 1.06702E+00
 -1       649 1.35652E+00
 -1       650 1.72274E+00
 -1       651 2.18076E+00
 -1       652 2.65065E+00
 -1       653 3.68213E+00
 -1       654 5.23711E+00
 -1       655 2.98043E+00
 -1       656 4.00672E+00
 -1       657 2.92300E+00
 -1       658 1.92823E+00
 -1       659 3.28503E-01
 -1       660 3.97044E-01
 -1       661 2.34638E-01
 -1       662 1.97758E-01
 -1       663 1.63673E-01
 -1       664 1.35543E-01
 -1       665 1.10673E-01
 -1       666 8.91017E-02
 -1       667 7.10333E-02
 -1       668 5.56922E-02
 -1       669 4.39939E-02
 -1       670 3.75229E-02
 -1       671 4.42681E-02
 -1       672 6.03270E-02
 -1       673 9.06975E-02
 -1       674 1.27848E-01
 -1       675 1.72769E-01
 -1       676 2.25905E-01
 -1       677 2.86744E-01
 -1       678 3.53270E-01
 -1       679 4.21269E-01
 -1       680 4.85742E-01
 -1       681 5.41958E-01
 -1       682 6.17072E-01
 -1       683 6.86253E-01
 -1       684 7.19639E-01
 -1       685 8.52174E-01
 -1       686 1.06210E+00
 -1       687 1.18741E+00
 -1       688 1.34189E+00
 -1       689 1.62803E+00
 -1       690 2.05995E+00
 -1       691 3.23451E+00
 -1       692 3.17621E+00
 -1       693 2.06228E+00
 -1       694 1.82003E+00
 -1       695 1.70616E+00
 -1       696 1.51950E+00
 -1       697 1.34189E+00
 -1       698 3.26256E+00
 -1       699 1.50535E+00
 -1       700 2.04236E+00
 -1       701 4.61094E+00
 -1       702 2.97163E+00
 -1       703 2.95982E+00
 -1       704 4.61094E+00
 -1       705 4.24357E+00
 -1       706 4.11816E+00
 -1       707 2.56432E+00
 -1       708 1.31582E+01
 -1       709 5.31161E-01
 -1       710 5.39405E+00
 -1       711 4.64540E-01
 -1       712 2.73847E-01
 -1       713 4.02524E-01
 -1       714 3.62023E-01
 -1       715 8.00727E+00
 -1       716 3.58860E-01
 -1       717 5.29172E+00
 -1       718 9.94002E+00
 -1       719 5.23751E+00
 -1       720 7.47864E+00
 -1       721 4.89547E+00
 -1       722 1.01119E+01
 -1       723 1.40030E+01
 -1       724 1.50374E+01
 -1       725 1.50374E+01
 -1       726 7.26874E+00
 -1       727 2.98079E+00
 -1       728 5.15648E-01
 -1       729 1.09783E+01
 -1       730 3.01719E+00
 -1       731 1.20587E+01
 -1       732 3.29434E+00
 -1       733 3.78593E-01
 -1       734 3.90953E+00
 -1       735 3.42473E-01
 -1       736 3.70978E+00
 -1       737 4.32727E+00
 -1       738 1.45717E+00
 -1       739 1.07533E+01
 -1       740 3.57615E-01
 -1       741 7.50547E+00
 -1       742 4.97180E+00
 -1       743 3.28387E+00
 -1       744 3.71607E+00
 -1       745 2.40781E-01
 -1       746 2.55957E-01
 -1       747 2.49105E-01
 -1       748 2.27406E-01
 -1       749 1.99124E-01
 -1       750 1.72390E-01
 -1       751 1.51139E-01
 -1       752 1.28669E-01
 -1       753 1.06796E-01
 -1       754 8.64472E-02
 -1       755 6.79008E-02
 -1       756 5.09784E-02
 -1       757 3.51725E-02
 -1       758 2.31118E-02
 -1       759 2.62671E-02
 -1       760 4.96699E-02
 -1       761 7.95784E-02
 -1       762 1.18709E-01
 -1       763 1.71873E-01
 -1       764 2.41326E-01
 -1       765 3.31546E-01
 -1       766 4.47810E-01
 -1       767 5.96162E-01
 -1       768 7.83139E-01
 -1       769 1.01489E+00
 -1       770 1.29457E+00
 -1       771 1.63936E+00
 -1       772 2.19466E+00
 -1       773 3.43520E+00
 -1       774 7.33228E+00
 -1       775 8.84702E+00
 -1       776 9.08088E+00
 -1       777 8.79928E+00
 -1       778 7.90208E+00
 -1       779 5.71067E+00
 -1       780 2.87140E-01
 -1       781 1.63745E-01
 -1       782 1.89476E-01
 -1       783 1.13333E-01
 -1       784 9.11100E-02
 -1       785 7.12657E-02
 -1       786 5.37837E-02
 -1       787 4.00204E-02
 -1       788 2.68916E-02
 -1       789 2.57460E-02
 -1       790 4.19191E-02
 -1       791 6.71453E-02
 -1       792 9.78733E-02
 -1       793 1.35462E-01
 -1       794 1.81215E-01
 -1       795 2.36235E-01
 -1       796 3.02812E-01
 -1       797 3.79900E-01
 -1       798 4.63572E-01
 -1       799 5.47191E-01
 -1       800 6.30531E-01
 -1       801 7.61115E-01
 -1       802 9.15296E-01
 -1       803 1.05322E+00
 -1       804 1.20030E+00
 -1       805 1.77358E+00
 -1       806 1.66820E+00
 -1       807 3.49778E+00
 -1       808 2.56978E+00
 -1       809 3.93570E+00
 -1       810 3.28387E+00
 -1       811 2.44472E+00
 -1       812 1.70616E+00
 -1       813 9.79085E+00
 -1       814 2.88606E-01
 -1       815 1.00912E+01
 -1       816 9.31501E+00
 -1       817 9.31501E+00
 -1       818 3.29434E+00
 -1       819 1.37800E-01
 -1       820 3.06261E-01
 -1       821 2.32989E-01
 -1       822 1.07533E+01
 -1       823 3.93570E+00
 -1       824 6.47716E+00
 -1       825 2.81950E-01
 -1       826 8.14854E+00
 -1       827 3.49778E+00
 -1       828 2.84807E+00
 -1       829 2.81886E-01
 -1       830 2.80203E-01
 -1       831 4.64468E+00
 -1       832 1.21754E+01
 -1       833 2.64518E-01
 -1       834 2.54660E-01
 -1       835 2.18027E-01
 -1       836 3.17621E+00
 -1       837 1.79636E+00
 -1       838 2.88606E-01
 -1       839 3.44378E+00
 -1       840 1.31963E+00
 -1       841 4.51767E+00
 -1       842 1.13059E+01
 -1       843 2.72605E-01
 -1       844 2.62979E+00
 -1       845 4.54020E+00
 -1       846 2.82589E-01
 -1       847 2.88942E-01
 -1       848 1.82975E-01
 -1       849 1.75794E-01
 -1       850 1.60021E-01
 -1       851 1.40246E-01
 -1       852 1.23605E-01
 -1       853 1.06914E-01
 -1       854 8.98088E-02
 -1       855 7.32777E-02
 -1       856 5.77204E-02
 -1       857 4.31330E-02
 -1       858 3.41403E-02
 -1       859 3.68204E-02
 -1       860 4.67169E-02
 -1       861 7.33136E-02
 -1       862 1.09194E-01
 -1       863 1.55627E-01
 -1       864 2.15732E-01
 -1       865 2.93420E-01
 -1       866 3.93738E-01
 -1       867 5.23483E-01
 -1       868 6.92303E-01
 -1       869 9.14617E-01
 -1       870 1.21308E+00
 -1       871 1.62333E+00
 -1       872 2.19466E+00
 -1       873 2.88382E+00
 -1       874 6.32827E+00
 -1       875 5.13595E+00
 -1       876 7.90322E-02
 -1       877 9.72278E-02
 -1       878 4.64403E-02
 -1       879 3.15342E-02
 -1       880 2.97324E-02
 -1       881 3.49809E-02
 -1       882 5.71692E-02
 -1       883 8.62656E-02
 -1       884 1.21853E-01
 -1       885 1.64780E-01
 -1       886 2.15345E-01
 -1       887 2.72857E-01
 -1       888 3.34977E-01
 -1       889 4.14073E-01
 -1       890 5.22057E-01
 -1       891 6.50390E-01
 -1       892 8.11316E-01
 -1       893 9.78344E-01
 -1       894 1.25782E+00
 -1       895 1.54427E+00
 -1       896 1.82259E+00
 -1       897 4.22937E+00
 -1       898 2.93519E+00
 -1       899 4.64468E+00
 -1       900 5.12657E+00
 -1       901 5.38096E+00
 -1       902 2.61884E+00
 -1       903 1.42190E-01
 -1       904 6.21353E-02
 -1       905 2.88942E-01
 -1       906 1.52638E-01
 -1       907 2.09546E-01
 -1       908 1.74916E-01
 -1       909 7.02595E+00
 -1       910 2.17627E-01
 -1       911 1.66028E-01
 -1       912 4.64468E+00
 -1       913 2.17627E-01
 -1       914 1.35394E-01
 -1       915 1.76398E-01
 -1       916 4.99366E+00
 -1       917 1.16333E-01
 -1       918 4.28051E+00
 -1       919 2.05653E-01
 -1       920 1.76144E-01
 -1       921 1.66835E-01
 -1       922 4.90758E+00
 -1       923 2.09924E-01
 -1       924 4.54020E+00
 -1       925 2.92862E+00
 -1       926 1.35746E-01
 -1       927 1.26807E-01
 -1       928 1.13373E-01
 -1       929 9.82351E-02
 -1       930 8.56013E-02
 -1       931 7.23733E-02
 -1       932 5.93879E-02
 -1       933 4.70642E-02
 -1       934 4.16682E-02
 -1       935 4.36180E-02
 -1       936 4.87894E-02
 -1       937 6.18299E-02
 -1       938 9.05624E-02
 -1       939 1.27401E-01
 -1       940 1.74572E-01
 -1       941 2.34854E-01
 -1       942 3.11893E-01
 -1       943 4.10843E-01
 -1       944 5.39666E-01
 -1       945 7.11764E-01
 -1       946 9.51124E-01
 -1       947 1.30355E+00
 -1       948 1.86159E+00
 -1       949 2.40298E+00
 -1       950 3.37525E+00
 -1       951 8.00595E-02
 -1       952 2.17019E-01
 -1       953 3.91443E-02
 -1       954 3.87859E-02
 -1       955 5.29805E-02
 -1       956 7.93910E-02
 -1       957 1.12337E-01
 -1       958 1.53159E-01
 -1       959 2.03109E-01
 -1       960 2.63165E-01
 -1       961 3.33724E-01
 -1       962 4.14073E-01
 -1       963 5.01437E-01
 -1       964 6.28223E-01
 -1       965 7.90597E-01
 -1       966 1.08223E+00
 -1       967 1.43652E+00
 -1       968 1.90991E+00
 -1       969 2.41047E+00
 -1       970 2.17019E-01
 -1       971 1.30129E-01
 -1       972 3.30759E+00
 -1       973 2.04529E-01
 -1       974 1.88913E+00
 -1       975 9.14690E-02
 -1       976 1.97104E-01
 -1       977 1.36376E-01
 -1       978 1.16405E-01
 -1       979 4.24549E-02
 -1       980 9.50633E-02
 -1       981 1.53622E-01
 -1       982 1.40990E-01
 -1       983 1.46571E-01
 -1       984 5.18232E-02
 -1       985 1.15638E-01
 -1       986 3.45230E+00
 -1       987 1.24953E-01
 -1       988 2.79808E+00
 -1       989 6.55280E-02
 -1       990 2.41047E+00
 -1       991 1.53622E-01
 -1       992 1.52643E-01
 -1       993 9.79684E-02
 -1       994 8.84985E-02
 -1       995 7.70566E-02
 -1       996 6.52177E-02
 -1       997 5.53966E-02
 -1       998 4.75455E-02
 -1       999 4.66179E-02
 -1      1000 4.69618E-02
 -1      1001 5.09467E-02
 -1      1002 5.90174E-02
 -1      1003 7.57020E-02
 -1      1004 9.87324E-02
 -1      1005 1.29594E-01
 -1      1006 1.70217E-01
 -1      1007 2.23210E-01
 -1      1008 2.94357E-01
 -1      1009 3.88669E-01
 -1      1010 5.14864E-01
 -1      1011 6.88463E-01
 -1      1012 9.37592E-01
 -1      1013 1.31761E+00
 -1      1014 1.65540E+00
 -1      1015 2.64900E+00
 -1      1016 1.53004E-01
 -1      1017 1.55665E-01
 -1      1018 4.71905E-02
 -1      1019 9.39365E-02
 -1      1020 6.62802E-02
 -1      1021 1.74014E-01
 -1      1022 2.30448E-01
 -1      1023 3.01061E-01
 -1      1024 3.88773E-01
 -1      1025 4.96807E-01
 -1      1026 6.28223E-01
 -1      1027 7.84684E-01
 -1      1028 1.03655E+00
 -1      1029 1.48323E+00
 -1      1030 2.26978E+00
 -1      1031 1.40935E-01
 -1      1032 5.31722E-02
 -1      1033 4.43849E-02
 -1      1034 1.29230E-01
 -1      1035 1.09324E-01
 -1      1036 1.02060E-01
 -1      1037 1.03445E-01
 -1      1038 7.34781E-02
 -1      1039 1.01195E-01
 -1      1040 1.01195E-01
 -1      1041 5.85376E-02
 -1      1042 1.04598E-01
 -1      1043 2.79808E+00
 -1      1044 9.40448E-02
 -1      1045 1.17485E-01
 -1      1046 8.47700E-02
 -1      1047 2.65630E+00
 -1      1048 6.29572E-02
 -1      1049 1.10598E-01
 -1      1050 1.35572E-01
 -1      1051 8.13561E-02
 -1      1052 6.76094E-02
 -1      1053 5.69217E-02
 -1      1054 5.09417E-02
 -1      1055 6.43331E-02
 -1      1056 4.69618E-02
 -1      1057 5.09467E-02
 -1      1058 5.90061E-02
 -1      1059 7.39033E-02
 -1      1060 9.44788E-02
 -1      1061 1.21798E-01
 -1      1062 1.57133E-01
 -1      1063 2.02072E-01
 -1      1064 2.60446E-01
 -1      1065 3.35683E-01
 -1      1066 4.36918E-01
 -1      1067 6.22992E-01
 -1      1068 8.99613E-01
 -1      1069 1.31763E+00
 -1      1070 1.94926E+00
 -1      1071 2.65630E+00
 -1      1072 1.16303E-01
 -1      1073 9.47939E-02
 -1      1074 6.55483E-02
 -1      1075 2.41089E-01
 -1      1076 1.79638E-01
 -1      1077 4.36918E-01
 -1      1078 6.22992E-01
 -1      1079 8.99613E-01
 -1      1080 1.31763E+00
 -1      1081 1.94926E+00
 -1      1082 2.65630E+00
 -1      1083 5.31722E-02
 -1      1084 8.14243E-02
 -1      1085 8.49342E-02
 -1      1086 1.06137E-01
 -1      1087 5.87371E-02
 -1      1088 3.22209E-01
 -1      1089 7.21992E-02
 -1      1090 4.71905E-02
 -1      1091 8.30264E-02
 -1      1092 9.94919E-02
 -1      1093 8.13561E-02
 -1      1094 6.43331E-02
 -1      1095 8.86734E-02
 -1      1096 6.09466E-02
 -1      1097 8.72120E-02
 -1      1098 9.90481E-02
 -1      1099 7.76611E-02
 -1      1100 6.76094E-02
 -1      1101 6.43331E-02
 -1      1102 5.87573E-02
 -1      1103 8.49342E-02
 -1      1104 5.87371E-02
 -1      1105 5.87573E-02
 -1      1106 9.47939E-02
 -1      1107 6.21168E-02
 -1      1108 1.31438E+01
 -1      1109 8.40374E+00
 -1      1110 2.74436E+00
 -1      1111 1.55709E+00
 -1      1112 1.16775E+00
 -1      1113 9.73154E-01
 -1      1114 8.54453E-01
 -1      1115 7.81463E-01
 -1      1116 7.54976E-01
 -1      1117 7.84579E-01
 -1      1118 8.57026E-01
 -1      1119 9.76718E-01
 -1      1120 1.18016E+00
 -1      1121 1.57173E+00
 -1      1122 2.67061E+00
 -1      1123 6.07355E+00
 -1      1124 1.13405E+01
 -1      1125 1.31438E+01
 -1      1126 8.73083E+00
 -1      1127 3.82946E+00
 -1      1128 2.72633E+00
 -1      1129 1.73735E+00
 -1      1130 1.18868E+00
 -1      1131 8.94856E-01
 -1      1132 6.85608E-01
 -1      1133 5.25829E-01
 -1      1134 4.02285E-01
 -1      1135 3.09533E-01
 -1      1136 2.39016E-01
 -1      1137 1.83144E-01
 -1      1138 1.39938E-01
 -1      1139 1.07553E-01
 -1      1140 8.43401E-02
 -1      1141 6.88671E-02
 -1      1142 6.16078E-02
 -1      1143 6.48982E-02
 -1      1144 7.62768E-02
 -1      1145 9.17516E-02
 -1      1146 1.17048E-01
 -1      1147 1.57577E-01
 -1      1148 2.12817E-01
 -1      1149 2.83958E-01
 -1      1150 3.72770E-01
 -1      1151 4.79697E-01
 -1      1152 6.02319E-01
 -1      1153 7.41989E-01
 -1      1154 9.49629E-01
 -1      1155 1.22791E+00
 -1      1156 1.55778E+00
 -1      1157 1.91374E+00
 -1      1158 2.15166E+00
 -1      1159 2.22869E+00
 -1      1160 2.23950E+00
 -1      1161 2.51915E+00
 -1      1162 3.82316E+00
 -1      1163 5.78217E+00
 -1      1164 6.71683E+00
 -1      1165 6.62647E+00
 -1      1166 6.14538E+00
 -1      1167 4.42438E+00
 -1      1168 2.41847E+00
 -1      1169 1.71148E+00
 -1      1170 1.68012E+00
 -1      1171 1.55895E+00
 -1      1172 1.43779E+00
 -1      1173 1.30074E+00
 -1      1174 6.99087E-01
 -1      1175 1.40395E+01
 -1      1176 8.71716E+00
 -1      1177 2.90405E+00
 -1      1178 2.03969E+00
 -1      1179 1.40557E+00
 -1      1180 1.02549E+00
 -1      1181 8.18652E-01
 -1      1182 6.59701E-01
 -1      1183 5.28394E-01
 -1      1184 4.19172E-01
 -1      1185 3.32637E-01
 -1      1186 2.65087E-01
 -1      1187 2.09442E-01
 -1      1188 1.64476E-01
 -1      1189 1.29376E-01
 -1      1190 1.03223E-01
 -1      1191 8.51181E-02
 -1      1192 7.54208E-02
 -1      1193 7.76371E-02
 -1      1194 8.99584E-02
 -1      1195 1.07462E-01
 -1      1196 1.29129E-01
 -1      1197 1.53359E-01
 -1      1198 1.86186E-01
 -1      1199 2.31839E-01
 -1      1200 2.83538E-01
 -1      1201 3.34097E-01
 -1      1202 3.75334E-01
 -1      1203 3.98049E-01
 -1      1204 4.44656E-01
 -1      1205 5.51334E-01
 -1      1206 6.66915E-01
 -1      1207 7.89022E-01
 -1      1208 9.74323E-01
 -1      1209 1.11936E+00
 -1      1210 1.28734E+00
 -1      1211 1.52533E+00
 -1      1212 1.93192E+00
 -1      1213 2.52014E+00
 -1      1214 2.83519E+00
 -1      1215 2.95460E+00
 -1      1216 3.04259E+00
 -1      1217 2.79098E+00
 -1      1218 2.14247E+00
 -1      1219 1.38082E+00
 -1      1220 7.30627E-01
 -1      1221 3.35194E-01
 -1      1222 2.13786E-01
 -1      1223 1.84464E-01
 -1      1224 1.16957E-01
 -1      1225 9.12313E-02
 -1      1226 1.61882E-01
 -1      1227 2.47053E-01
 -1      1228 3.11510E-01
 -1      1229 3.37577E-01
 -1      1230 3.26859E-01
 -1      1231 2.47057E-01
 -1      1232 3.14997E-01
 -1      1233 5.46339E-01
 -1      1234 6.40657E-01
 -1      1235 6.14066E-01
 -1      1236 4.61181E-01
 -1      1237 3.03430E-01
 -1      1238 3.46233E-01
 -1      1239 5.57243E-01
 -1      1240 7.52984E-01
 -1      1241 5.23226E-01
 -1      1242 2.52003E+01
 -1      1243 3.58639E+01
 -1      1244 4.65275E+01
 -1      1245 3.28590E+01
 -1      1246 1.61325E+01
 -1      1247 1.30744E+01
 -1      1248 1.28208E+01
 -1      1249 1.25671E+01
 -1      1250 1.23734E+01
 -1      1251 1.35413E+01
 -1      1252 2.75112E+01
 -1      1253 4.01195E+01
 -1      1254 3.25508E+01
 -1      1255 2.46497E+01
 -1      1256 2.41415E+01
 -1      1257 2.59713E+01
 -1      1258 3.02894E+01
 -1      1259 3.15632E+01
 -1      1260 2.19649E+01
 -1      1261 1.28256E+01
 -1      1262 1.22391E+01
 -1      1263 1.26109E+01
 -1      1264 1.29896E+01
 -1      1265 1.25450E+01
 -1      1266 1.67021E+01
 -1      1267 3.46147E+01
 -1      1268 4.79257E+01
 -1      1269 3.61823E+01
 -1      1270 2.48196E+01
 -1      1271 1.31438E+01
 -1      1272 4.87077E+00
 -1      1273 9.61080E+00
 -1      1274 2.06193E+00
 -1      1275 2.98127E+00
 -1      1276 4.18833E+00
 -1      1277 1.39839E+00
 -1      1278 1.66632E+00
 -1      1279 1.90323E+00
 -1      1280 1.10213E+00
 -1      1281 1.22354E+00
 -1      1282 1.33277E+00
 -1      1283 9.36769E-01
 -1      1284 1.00995E+00
 -1      1285 1.06574E+00
 -1      1286 8.36777E-01
 -1      1287 8.82300E-01
 -1      1288 9.19093E-01
 -1      1289 7.75056E-01
 -1      1290 8.02524E-01
 -1      1291 8.30371E-01
 -1      1292 7.55956E-01
 -1      1293 7.54976E-01
 -1      1294 7.76037E-01
 -1      1295 8.06372E-01
 -1      1296 7.77750E-01
 -1      1297 7.77750E-01
 -1      1298 8.84065E-01
 -1      1299 8.40240E-01
 -1      1300 8.33411E-01
 -1      1301 1.01680E+00
 -1      1302 9.40932E-01
 -1      1303 9.24146E-01
 -1      1304 1.24010E+00
 -1      1305 1.11253E+00
 -1      1306 1.07674E+00
 -1      1307 1.68162E+00
 -1      1308 1.41763E+00
 -1      1309 1.35000E+00
 -1      1310 2.88313E+00
 -1      1311 2.04824E+00
 -1      1312 1.89415E+00
 -1      1313 6.28639E+00
 -1      1314 3.71834E+00
 -1      1315 3.09597E+00
 -1      1316 1.40395E+01
 -1      1317 1.13405E+01
 -1      1318 8.98533E+00
 -1      1319 1.40395E+01
 -1      1320 8.73083E+00
 -1      1321 4.31790E+00
 -1      1322 3.82946E+00
 -1      1323 3.34102E+00
 -1      1324 3.82946E+00
 -1      1325 2.72633E+00
 -1      1326 2.11164E+00
 -1      1327 2.72633E+00
 -1      1328 1.77960E+00
 -1      1329 1.40531E+00
 -1      1330 1.77960E+00
 -1      1331 1.19452E+00
 -1      1332 1.02013E+00
 -1      1333 1.23676E+00
 -1      1334 8.94856E-01
 -1      1335 7.75422E-01
 -1      1336 9.00700E-01
 -1      1337 6.85608E-01
 -1      1338 5.95795E-01
 -1      1339 6.85608E-01
 -1      1340 5.32231E-01
 -1      1341 4.62266E-01
 -1      1342 5.32231E-01
 -1      1343 4.12413E-01
 -1      1344 3.58834E-01
 -1      1345 4.18815E-01
 -1      1346 3.19977E-01
 -1      1347 2.80805E-01
 -1      1348 3.30105E-01
 -1      1349 2.52683E-01
 -1      1350 2.21338E-01
 -1      1351 2.63127E-01
 -1      1352 1.97579E-01
 -1      1353 1.73052E-01
 -1      1354 2.11246E-01
 -1      1355 1.53574E-01
 -1      1356 1.34896E-01
 -1      1357 1.68010E-01
 -1      1358 1.19384E-01
 -1      1359 1.05677E-01
 -1      1360 1.33020E-01
 -1      1361 9.36987E-02
 -1      1362 8.41925E-02
 -1      1363 1.05530E-01
 -1      1364 7.52646E-02
 -1      1365 6.92980E-02
 -1      1366 8.46233E-02
 -1      1367 6.29197E-02
 -1      1368 6.16271E-02
 -1      1369 6.93173E-02
 -1      1370 6.03151E-02
 -1      1371 6.48982E-02
 -1      1372 6.16271E-02
 -1      1373 6.94814E-02
 -1      1374 7.62768E-02
 -1      1375 6.48982E-02
 -1      1376 8.32735E-02
 -1      1377 9.19529E-02
 -1      1378 7.64781E-02
 -1      1379 1.05257E-01
 -1      1380 1.21874E-01
 -1      1381 9.67793E-02
 -1      1382 1.39882E-01
 -1      1383 1.63795E-01
 -1      1384 1.28092E-01
 -1      1385 1.87301E-01
 -1      1386 2.18628E-01
 -1      1387 1.69606E-01
 -1      1388 2.48378E-01
 -1      1389 2.88192E-01
 -1      1390 2.22862E-01
 -1      1391 3.24681E-01
 -1      1392 3.73679E-01
 -1      1393 2.89101E-01
 -1      1394 4.38166E-01
 -1      1395 4.96096E-01
 -1      1396 3.90077E-01
 -1      1397 5.78087E-01
 -1      1398 6.42779E-01
 -1      1399 5.36556E-01
 -1      1400 7.41539E-01
 -1      1401 8.16517E-01
 -1      1402 7.17307E-01
 -1      1403 9.27653E-01
 -1      1404 1.06032E+00
 -1      1405 9.27204E-01
 -1      1406 1.17222E+00
 -1      1407 1.31783E+00
 -1      1408 1.15024E+00
 -1      1409 1.41257E+00
 -1      1410 1.59683E+00
 -1      1411 1.35688E+00
 -1      1412 1.74204E+00
 -1      1413 1.91374E+00
 -1      1414 1.59683E+00
 -1      1415 2.08545E+00
 -1      1416 2.15166E+00
 -1      1417 1.91374E+00
 -1      1418 2.21787E+00
 -1      1419 2.22869E+00
 -1      1420 2.15166E+00
 -1      1421 2.23950E+00
 -1      1422 2.23950E+00
 -1      1423 2.22869E+00
 -1      1424 2.16012E+00
 -1      1425 2.43977E+00
 -1      1426 2.16012E+00
 -1      1427 2.79881E+00
 -1      1428 3.82316E+00
 -1      1429 2.43977E+00
 -1      1430 4.84750E+00
 -1      1431 5.78217E+00
 -1      1432 3.82316E+00
 -1      1433 6.71683E+00
 -1      1434 6.71683E+00
 -1      1435 5.78217E+00
 -1      1436 6.62647E+00
 -1      1437 6.53610E+00
 -1      1438 6.62647E+00
 -1      1439 6.14538E+00
 -1      1440 5.75466E+00
 -1      1441 6.14538E+00
 -1      1442 4.63509E+00
 -1      1443 3.30482E+00
 -1      1444 4.63509E+00
 -1      1445 2.41847E+00
 -1      1446 1.74284E+00
 -1      1447 2.62918E+00
 -1      1448 1.61086E+00
 -1      1449 1.57951E+00
 -1      1450 1.61086E+00
 -1      1451 1.68012E+00
 -1      1452 1.68012E+00
 -1      1453 1.57951E+00
 -1      1454 1.54523E+00
 -1      1455 1.42406E+00
 -1      1456 1.54523E+00
 -1      1457 1.43779E+00
 -1      1458 1.43779E+00
 -1      1459 1.42406E+00
 -1      1460 1.30074E+00
 -1      1461 1.16370E+00
 -1      1462 1.30074E+00
 -1      1463 9.87838E-01
 -1      1464 9.87838E-01
 -1      1465 3.39483E+00
 -1      1466 8.71716E+00
 -1      1467 8.71716E+00
 -1      1468 2.41328E+00
 -1      1469 2.90405E+00
 -1      1470 2.90405E+00
 -1      1471 1.66610E+00
 -1      1472 2.03969E+00
 -1      1473 2.03969E+00
 -1      1474 1.14504E+00
 -1      1475 1.40557E+00
 -1      1476 1.40557E+00
 -1      1477 9.05950E-01
 -1      1478 1.02549E+00
 -1      1479 1.02549E+00
 -1      1480 7.31354E-01
 -1      1481 8.18652E-01
 -1      1482 8.18652E-01
 -1      1483 5.88049E-01
 -1      1484 6.59701E-01
 -1      1485 6.59701E-01
 -1      1486 4.68739E-01
 -1      1487 5.28394E-01
 -1      1488 5.28394E-01
 -1      1489 3.69605E-01
 -1      1490 4.19172E-01
 -1      1491 4.19172E-01
 -1      1492 2.95669E-01
 -1      1493 3.32637E-01
 -1      1494 3.32637E-01
 -1      1495 2.34504E-01
 -1      1496 2.65087E-01
 -1      1497 2.65087E-01
 -1      1498 1.85665E-01
 -1      1499 2.10728E-01
 -1      1500 2.10728E-01
 -1      1501 1.46701E-01
 -1      1502 1.66604E-01
 -1      1503 1.67890E-01
 -1      1504 1.16460E-01
 -1      1505 1.31657E-01
 -1      1506 1.33786E-01
 -1      1507 9.41650E-02
 -1      1508 1.05121E-01
 -1      1509 1.07403E-01
 -1      1510 7.90335E-02
 -1      1511 8.61821E-02
 -1      1512 8.80805E-02
 -1      1513 7.16977E-02
 -1      1514 7.42463E-02
 -1      1515 7.53104E-02
 -1      1516 7.85588E-02
 -1      1517 7.37939E-02
 -1      1518 7.26194E-02
 -1      1519 9.08986E-02
 -1      1520 8.33422E-02
 -1      1521 7.94990E-02
 -1      1522 1.07462E-01
 -1      1523 9.75148E-02
 -1      1524 9.08986E-02
 -1      1525 1.29129E-01
 -1      1526 1.17408E-01
 -1      1527 1.07462E-01
 -1      1528 1.55798E-01
 -1      1529 1.43290E-01
 -1      1530 1.31569E-01
 -1      1531 1.94758E-01
 -1      1532 1.74439E-01
 -1      1533 1.64370E-01
 -1      1534 2.40731E-01
 -1      1535 2.15396E-01
 -1      1536 2.03650E-01
 -1      1537 2.88119E-01
 -1      1538 2.61755E-01
 -1      1539 2.45312E-01
 -1      1540 3.34097E-01
 -1      1541 3.09902E-01
 -1      1542 2.88119E-01
 -1      1543 3.75334E-01
 -1      1544 3.58291E-01
 -1      1545 3.34097E-01
 -1      1546 3.98049E-01
 -1      1547 3.92376E-01
 -1      1548 3.75334E-01
 -1      1549 4.52854E-01
 -1      1550 4.11919E-01
 -1      1551 4.06247E-01
 -1      1552 5.62337E-01
 -1      1553 4.96595E-01
 -1      1554 4.63857E-01
 -1      1555 6.66915E-01
 -1      1556 6.17076E-01
 -1      1557 5.62337E-01
 -1      1558 7.89022E-01
 -1      1559 7.16754E-01
 -1      1560 6.66915E-01
 -1      1561 9.74323E-01
 -1      1562 8.61289E-01
 -1      1563 7.89022E-01
 -1      1564 1.11936E+00
 -1      1565 1.08736E+00
 -1      1566 9.74323E-01
 -1      1567 1.28734E+00
 -1      1568 1.15136E+00
 -1      1569 1.11936E+00
 -1      1570 1.52533E+00
 -1      1571 1.42332E+00
 -1      1572 1.28734E+00
 -1      1573 1.95245E+00
 -1      1574 1.64788E+00
 -1      1575 1.54587E+00
 -1      1576 2.52014E+00
 -1      1577 2.23649E+00
 -1      1578 1.95245E+00
 -1      1579 2.83519E+00
 -1      1580 2.80379E+00
 -1      1581 2.52014E+00
 -1      1582 2.95460E+00
 -1      1583 2.86660E+00
 -1      1584 2.83519E+00
 -1      1585 3.04259E+00
 -1      1586 3.04259E+00
 -1      1587 2.95460E+00
 -1      1588 2.53938E+00
 -1      1589 2.79098E+00
 -1      1590 2.79098E+00
 -1      1591 1.74557E+00
 -1      1592 2.14247E+00
 -1      1593 2.14247E+00
 -1      1594 1.07163E+00
 -1      1595 1.43638E+00
 -1      1596 1.43638E+00
 -1      1597 5.24023E-01
 -1      1598 8.09457E-01
 -1      1599 8.65026E-01
 -1      1600 2.65945E-01
 -1      1601 3.75944E-01
 -1      1602 4.54774E-01
 -1      1603 2.13786E-01
 -1      1604 2.25194E-01
 -1      1605 2.65945E-01
 -1      1606 1.70957E-01
 -1      1607 1.88870E-01
 -1      1608 2.00278E-01
 -1      1609 1.40826E-01
 -1      1610 2.53445E-01
 -1      1611 2.06663E-01
 -1      1612 3.70142E-01
 -1      1613 3.31753E-01
 -1      1614 3.76534E-01
 -1      1615 4.73222E-01
 -1      1616 4.47154E-01
 -1      1617 5.31854E-01
 -1      1618 4.84189E-01
 -1      1619 4.84189E-01
 -1      1620 6.19833E-01
 -1      1621 4.73470E-01
 -1      1622 4.84189E-01
 -1      1623 6.30801E-01
 -1      1624 3.76065E-01
 -1      1625 4.45148E-01
 -1      1626 6.02478E-01
 -1      1627 5.82715E-01
 -1      1628 4.45692E-01
 -1      1629 6.43783E-01
 -1      1630 9.19044E-01
 -1      1631 8.24725E-01
 -1      1632 9.55420E-01
 -1      1633 9.56671E-01
 -1      1634 9.56671E-01
 -1      1635 1.23506E+00
 -1      1636 9.30079E-01
 -1      1637 9.56671E-01
 -1      1638 1.27268E+00
 -1      1639 6.89076E-01
 -1      1640 8.15370E-01
 -1      1641 1.15797E+00
 -1      1642 3.92192E-01
 -1      1643 4.23649E-01
 -1      1644 7.77838E-01
 -1      1645 5.53963E-01
 -1      1646 4.79703E-01
 -1      1647 5.99922E-01
 -1      1648 6.90713E-01
 -1      1649 5.53963E-01
 -1      1650 6.87433E-01
 -1      1651 8.02414E-01
 -1      1652 7.43422E-01
 -1      1653 7.40142E-01
 -1      1654 9.78275E-01
 -1      1655 2.81956E+01
 -1      1656 2.81956E+01
 -1      1657 3.62626E+01
 -1      1658 2.55990E+01
 -1      1659 4.65275E+01
 -1      1660 4.65275E+01
 -1      1661 2.01889E+01
 -1      1662 3.38573E+01
 -1      1663 1.22492E+01
 -1      1664 1.53073E+01
 -1      1665 1.30744E+01
 -1      1666 1.30744E+01
 -1      1667 1.22610E+01
 -1      1668 1.25147E+01
 -1      1669 1.25671E+01
 -1      1670 1.25671E+01
 -1      1671 1.21798E+01
 -1      1672 1.23734E+01
 -1      1673 1.32867E+01
 -1      1674 1.19253E+01
 -1      1675 2.75551E+01
 -1      1676 1.49467E+01
 -1      1677 4.01195E+01
 -1      1678 4.01195E+01
 -1      1679 3.07759E+01
 -1      1680 3.83447E+01
 -1      1681 2.56169E+01
 -1      1682 2.59492E+01
 -1      1683 2.54410E+01
 -1      1684 2.56169E+01
 -1      1685 2.65956E+01
 -1      1686 2.45899E+01
 -1      1687 3.26017E+01
 -1      1688 3.02894E+01
 -1      1689 3.15632E+01
 -1      1690 3.26017E+01
 -1      1691 1.34050E+01
 -1      1692 2.19649E+01
 -1      1693 1.22461E+01
 -1      1694 1.28256E+01
 -1      1695 1.22322E+01
 -1      1696 1.22391E+01
 -1      1697 1.23982E+01
 -1      1698 1.20194E+01
 -1      1699 1.29896E+01
 -1      1700 1.29896E+01
 -1      1701 1.21004E+01
 -1      1702 1.25450E+01
 -1      1703 1.62988E+01
 -1      1704 1.16971E+01
 -1      1705 3.53305E+01
 -1      1706 2.20195E+01
 -1      1707 4.79257E+01
 -1      1708 4.79257E+01
 -1      1709 2.69045E+01
 -1      1710 3.86479E+01
 -1      1711 2.81956E+01
 -1      1712 2.78148E+01
 -1      1713 1.63056E+01
 -1      1714 3.38573E+01
 -1      1715 1.45231E-01
 -1      1716 2.36794E-01
 -1      1717 2.85943E+01
 -1      1718 3.62626E+01
 -1      1719 3.11908E+01
 -1      1720 1.22492E+01
 -1      1721 1.25147E+01
 -1      1722 1.22610E+01
 -1      1723 1.23734E+01
 -1      1724 1.19253E+01
 -1      1725 1.33306E+01
 -1      1726 2.75551E+01
 -1      1727 3.83447E+01
 -1      1728 3.17431E+01
 -1      1729 2.69163E+01
 -1      1730 2.60653E+01
 -1      1731 2.89080E+01
 -1      1732 3.26017E+01
 -1      1733 2.30034E+01
 -1      1734 1.28256E+01
 -1      1735 1.22391E+01
 -1      1736 1.20194E+01
 -1      1737 1.23982E+01
 -1      1738 1.25450E+01
 -1      1739 1.16971E+01
 -1      1740 1.70146E+01
 -1      1741 3.53305E+01
 -1      1742 3.86479E+01
 -1      1743 3.02805E+01
 -1      1744 9.61080E+00
 -1      1745 1.27790E+00
 -1      1746 1.67350E+00
 -1      1747 2.38942E+00
 -1      1748 4.27892E+00
 -1      1749 1.76409E+00
 -1      1750 8.84387E-01
 -1      1751 9.76569E-01
 -1      1752 7.79804E-01
 -1      1753 8.34272E-01
 -1      1754 7.45098E-01
 -1      1755 7.14015E-01
 -1      1756 7.48268E-01
 -1      1757 6.63448E-01
 -1      1758 6.71838E-01
 -1      1759 6.91918E-01
 -1      1760 6.09816E-01
 -1      1761 6.95228E-01
 -1      1762 6.73435E-01
 -1      1763 5.89316E-01
 -1      1764 7.50920E-01
 -1      1765 7.17052E-01
 -1      1766 6.12737E-01
 -1      1767 8.41130E-01
 -1      1768 7.84263E-01
 -1      1769 6.67904E-01
 -1      1770 9.84438E-01
 -1      1771 8.88708E-01
 -1      1772 7.48825E-01
 -1      1773 1.22967E+00
 -1      1774 1.05214E+00
 -1      1775 8.64110E-01
 -1      1776 1.71043E+00
 -1      1777 1.34381E+00
 -1      1778 1.04595E+00
 -1      1779 2.63012E+00
 -1      1780 1.79492E+00
 -1      1781 1.24458E+00
 -1      1782 8.12017E+00
 -1      1783 3.06601E+00
 -1      1784 1.76496E+00
 -1      1785 2.79784E+00
 -1      1786 5.19786E+00
 -1      1787 2.16383E+00
 -1      1788 2.65461E+00
 -1      1789 2.05762E+00
 -1      1790 3.39895E+00
 -1      1791 2.53529E+00
 -1      1792 1.92060E+00
 -1      1793 1.68969E+00
 -1      1794 1.35765E+00
 -1      1795 1.49865E+00
 -1      1796 1.17755E+00
 -1      1797 9.66762E-01
 -1      1798 1.08764E+00
 -1      1799 8.41290E-01
 -1      1800 7.16012E-01
 -1      1801 7.82074E-01
 -1      1802 6.57177E-01
 -1      1803 5.67364E-01
 -1      1804 5.97767E-01
 -1      1805 5.18906E-01
 -1      1806 4.55342E-01
 -1      1807 4.90475E-01
 -1      1808 4.12712E-01
 -1      1809 3.62859E-01
 -1      1810 3.99387E-01
 -1      1811 3.30274E-01
 -1      1812 2.91418E-01
 -1      1813 3.24171E-01
 -1      1814 2.64006E-01
 -1      1815 2.35884E-01
 -1      1816 2.64175E-01
 -1      1817 2.12426E-01
 -1      1818 1.88667E-01
 -1      1819 2.13306E-01
 -1      1820 1.70833E-01
 -1      1821 1.51356E-01
 -1      1822 1.72013E-01
 -1      1823 1.36904E-01
 -1      1824 1.21392E-01
 -1      1825 1.39728E-01
 -1      1826 1.09290E-01
 -1      1827 9.73114E-02
 -1      1828 1.13174E-01
 -1      1829 8.73978E-02
 -1      1830 7.84700E-02
 -1      1831 9.11581E-02
 -1      1832 7.04397E-02
 -1      1833 6.40614E-02
 -1      1834 7.32141E-02
 -1      1835 5.92578E-02
 -1      1836 5.79459E-02
 -1      1837 6.03802E-02
 -1      1838 5.75742E-02
 -1      1839 6.21573E-02
 -1      1840 5.52050E-02
 -1      1841 6.71400E-02
 -1      1842 7.41367E-02
 -1      1843 5.98160E-02
 -1      1844 8.34748E-02
 -1      1845 9.67793E-02
 -1      1846 7.41367E-02
 -1      1847 1.10084E-01
 -1      1848 1.28092E-01
 -1      1849 9.67793E-02
 -1      1850 1.49667E-01
 -1      1851 1.73172E-01
 -1      1852 1.31659E-01
 -1      1853 2.07032E-01
 -1      1854 2.36783E-01
 -1      1855 1.87093E-01
 -1      1856 2.81290E-01
 -1      1857 3.17779E-01
 -1      1858 2.65460E-01
 -1      1859 3.75078E-01
 -1      1860 4.39566E-01
 -1      1861 3.67267E-01
 -1      1862 5.11361E-01
 -1      1863 5.93352E-01
 -1      1864 4.96362E-01
 -1      1865 6.80062E-01
 -1      1866 7.78822E-01
 -1      1867 6.54867E-01
 -1      1868 8.78117E-01
 -1      1869 9.89252E-01
 -1      1870 8.40871E-01
 -1      1871 1.09385E+00
 -1      1872 1.20575E+00
 -1      1873 1.04476E+00
 -1      1874 1.30070E+00
 -1      1875 1.39543E+00
 -1      1876 1.24431E+00
 -1      1877 1.46766E+00
 -1      1878 1.61287E+00
 -1      1879 1.41147E+00
 -1      1880 1.69973E+00
 -1      1881 1.87144E+00
 -1      1882 1.57056E+00
 -1      1883 1.91064E+00
 -1      1884 1.97685E+00
 -1      1885 1.69663E+00
 -1      1886 1.98004E+00
 -1      1887 1.99085E+00
 -1      1888 1.73902E+00
 -1      1889 2.00827E+00
 -1      1890 1.92888E+00
 -1      1891 1.75962E+00
 -1      1892 2.07496E+00
 -1      1893 2.43400E+00
 -1      1894 1.92312E+00
 -1      1895 2.78241E+00
 -1      1896 3.80676E+00
 -1      1897 2.41760E+00
 -1      1898 4.26700E+00
 -1      1899 5.20167E+00
 -1      1900 3.22626E+00
 -1      1901 5.61810E+00
 -1      1902 5.52773E+00
 -1      1903 4.10293E+00
 -1      1904 5.33271E+00
 -1      1905 4.94199E+00
 -1      1906 4.32434E+00
 -1      1907 4.44306E+00
 -1      1908 3.32349E+00
 -1      1909 3.63040E+00
 -1      1910 3.06739E+00
 -1      1911 2.18105E+00
 -1      1912 2.87536E+00
 -1      1913 1.85008E+00
 -1      1914 1.71811E+00
 -1      1915 2.28829E+00
 -1      1916 1.55223E+00
 -1      1917 1.65284E+00
 -1      1918 1.79144E+00
 -1      1919 1.44983E+00
 -1      1920 1.31494E+00
 -1      1921 1.42255E+00
 -1      1922 1.20540E+00
 -1      1923 1.21912E+00
 -1      1924 1.11000E+00
 -1      1925 1.23632E+00
 -1      1926 1.09928E+00
 -1      1927 9.13851E-01
 -1      1928 1.01766E+00
 -1      1929 1.39835E+00
 -1      1930 1.77194E+00
 -1      1931 1.52249E+00
 -1      1932 1.01830E+00
 -1      1933 1.27883E+00
 -1      1934 1.01108E+00
 -1      1935 8.05066E-01
 -1      1936 9.24610E-01
 -1      1937 7.97870E-01
 -1      1938 6.38439E-01
 -1      1939 7.25737E-01
 -1      1940 6.24853E-01
 -1      1941 5.13103E-01
 -1      1942 5.84755E-01
 -1      1943 4.91841E-01
 -1      1944 4.20283E-01
 -1      1945 4.79939E-01
 -1      1946 4.04992E-01
 -1      1947 3.38964E-01
 -1      1948 3.88531E-01
 -1      1949 3.40076E-01
 -1      1950 2.74336E-01
 -1      1951 3.11304E-01
 -1      1952 2.80663E-01
 -1      1953 2.21251E-01
 -1      1954 2.51833E-01
 -1      1955 2.30501E-01
 -1      1956 1.77813E-01
 -1      1957 2.01590E-01
 -1      1958 1.88337E-01
 -1      1959 1.42168E-01
 -1      1960 1.61228E-01
 -1      1961 1.52091E-01
 -1      1962 1.14054E-01
 -1      1963 1.29098E-01
 -1      1964 1.22436E-01
 -1      1965 9.27499E-02
 -1      1966 1.04089E-01
 -1      1967 9.94010E-02
 -1      1968 7.75176E-02
 -1      1969 8.55005E-02
 -1      1970 8.21870E-02
 -1      1971 6.79765E-02
 -1      1972 7.27637E-02
 -1      1973 7.01837E-02
 -1      1974 6.88448E-02
 -1      1975 6.67486E-02
 -1      1976 6.42019E-02
 -1      1977 7.55339E-02
 -1      1978 7.07505E-02
 -1      1979 6.48796E-02
 -1      1980 8.71193E-02
 -1      1981 8.05031E-02
 -1      1982 7.17545E-02
 -1      1983 1.07162E-01
 -1      1984 9.72149E-02
 -1      1985 8.68194E-02
 -1      1986 1.33844E-01
 -1      1987 1.19684E-01
 -1      1988 1.09437E-01
 -1      1989 1.73039E-01
 -1      1990 1.54398E-01
 -1      1991 1.42513E-01
 -1      1992 2.22348E-01
 -1      1993 2.01709E-01
 -1      1994 1.91737E-01
 -1      1995 2.76580E-01
 -1      1996 2.55556E-01
 -1      1997 2.53615E-01
 -1      1998 3.34404E-01
 -1      1999 3.12621E-01
 -1      2000 3.22864E-01
 -1      2001 3.94070E-01
 -1      2002 3.69876E-01
 -1      2003 3.94377E-01
 -1      2004 4.40463E-01
 -1      2005 4.23421E-01
 -1      2006 4.59200E-01
 -1      2007 4.84054E-01
 -1      2008 4.70184E-01
 -1      2009 5.18271E-01
 -1      2010 5.37822E-01
 -1      2011 4.94081E-01
 -1      2012 5.58019E-01
 -1      2013 5.92561E-01
 -1      2014 5.37822E-01
 -1      2015 5.68046E-01
 -1      2016 6.18340E-01
 -1      2017 5.68500E-01
 -1      2018 5.43986E-01
 -1      2019 6.55073E-01
 -1      2020 5.82806E-01
 -1      2021 4.84391E-01
 -1      2022 8.08011E-01
 -1      2023 6.94978E-01
 -1      2024 4.88762E-01
 -1      2025 1.02950E+00
 -1      2026 9.97496E-01
 -1      2027 7.18151E-01
 -1      2028 1.41266E+00
 -1      2029 1.27668E+00
 -1      2030 1.15482E+00
 -1      2031 1.72986E+00
 -1      2032 1.60732E+00
 -1      2033 1.59665E+00
 -1      2034 2.07345E+00
 -1      2035 1.78942E+00
 -1      2036 1.85086E+00
 -1      2037 2.35710E+00
 -1      2038 2.07345E+00
 -1      2039 1.91041E+00
 -1      2040 2.35324E+00
 -1      2041 2.32184E+00
 -1      2042 1.87515E+00
 -1      2043 2.45721E+00
 -1      2044 2.36922E+00
 -1      2045 1.85586E+00
 -1      2046 2.15223E+00
 -1      2047 2.40383E+00
 -1      2048 1.81846E+00
 -1      2049 1.59874E+00
 -1      2050 1.99564E+00
 -1      2051 1.60849E+00
 -1      2052 1.11594E+00
 -1      2053 1.42512E+00
 -1      2054 1.27829E+00
 -1      2055 7.42440E-01
 -1      2056 1.00461E+00
 -1      2057 9.93351E-01
 -1      2058 4.88929E-01
 -1      2059 6.37008E-01
 -1      2060 7.76595E-01
 -1      2061 3.32170E-01
 -1      2062 3.72921E-01
 -1      2063 5.55154E-01
 -1      2064 1.94369E-01
 -1      2065 2.19285E-01
 -1      2066 3.26261E-01
 -1      2067 2.55801E-01
 -1      2068 7.08505E-01
 -1      2069 6.97537E-01
 -1      2070 6.81312E-01
 -1      2071 6.04300E-01
 -1      2072 7.69983E-01
 -1      2073 4.46994E-01
 -1      2074 3.68686E-01
 -1      2075 3.26261E-01
 -1      2076 5.96452E-01
 -1      2077 7.69065E-01
 -1      2078 7.69065E-01
 -1      2079 8.46769E-01
 -1      2080 7.40742E-01
 -1      2081 7.69065E-01
 -1      2082 9.07329E-01
 -1      2083 8.66321E-01
 -1      2084 7.96693E-01
 -1      2085 9.63280E-01
 -1      2086 1.40639E+00
 -1      2087 1.16438E+00
 -1      2088 1.31729E+00
 -1      2089 1.63732E+00
 -1      2090 1.59969E+00
 -1      2091 1.80865E+00
 -1      2092 1.63732E+00
 -1      2093 1.63732E+00
 -1      2094 2.00195E+00
 -1      2095 1.51130E+00
 -1      2096 1.62601E+00
 -1      2097 1.99064E+00
 -1      2098 8.97198E-01
 -1      2099 1.16262E+00
 -1      2100 1.63066E+00
 -1      2101 8.22538E-01
 -1      2102 7.35027E-01
 -1      2103 1.11981E+00
 -1      2104 8.61142E-01
 -1      2105 8.61142E-01
 -1      2106 9.96247E-01
 -1      2107 3.62626E+01
 -1      2108 2.59977E+01
 -1      2109 3.16986E+01
 -1      2110 3.16986E+01
 -1      2111 2.91020E+01
 -1      2112 3.16986E+01
 -1      2113 1.82983E+01
 -1      2114 3.09684E+01
 -1      2115 1.03501E+01
 -1      2116 1.52318E+01
 -1      2117 1.03440E+00
 -1      2118 1.20925E+00
 -1      2119 9.79526E-01
 -1      2120 8.53049E-01
 -1      2121 1.15397E+01
 -1      2122 1.20994E+01
 -1      2123 1.19828E+01
 -1      2124 1.16767E+01
 -1      2125 1.12614E+01
 -1      2126 1.08168E+01
 -1      2127 1.10105E+01
 -1      2128 9.82271E+00
 -1      2129 1.00773E+01
 -1      2130 8.71430E+00
 -1      2131 1.14040E+01
 -1      2132 9.74407E+00
 -1      2133 2.71431E+01
 -1      2134 1.45786E+01
 -1      2135 3.07108E+01
 -1      2136 3.24856E+01
 -1      2137 2.42053E+01
 -1      2138 2.90321E+01
 -1      2139 3.13305E+01
 -1      2140 3.13305E+01
 -1      2141 3.04794E+01
 -1      2142 3.13305E+01
 -1      2143 2.91138E+01
 -1      2144 2.54200E+01
 -1      2145 2.68458E+01
 -1      2146 2.68458E+01
 -1      2147 2.33578E+01
 -1      2148 1.30589E+01
 -1      2149 2.26573E+01
 -1      2150 9.35299E+00
 -1      2151 9.93244E+00
 -1      2152 9.58631E+00
 -1      2153 1.08956E+01
 -1      2154 1.09026E+01
 -1      2155 1.12480E+01
 -1      2156 1.14608E+01
 -1      2157 1.19443E+01
 -1      2158 1.13528E+01
 -1      2159 1.07235E+01
 -1      2160 1.11682E+01
 -1      2161 9.15966E+00
 -1      2162 9.56293E+00
 -1      2163 1.62277E+01
 -1      2164 1.05069E+01
 -1      2165 3.23868E+01
 -1      2166 1.97916E+01
 -1      2167 2.93701E+01
 -1      2168 3.86479E+01
 -1      2169 3.03573E+01
 -1      2170 2.94469E+01
 -1      2171 1.05702E+01
 -1      2172 9.74499E+00
 -1      2173 8.67115E+00
 -1      2174 1.23429E+01
 -1      2175 2.91051E+00
 -1      2176 9.59519E+00
 -1      2177 2.10478E+00
 -1      2178 2.37808E+01
 -1      2179 2.68851E+01
 -1      2180 2.37808E+01
 -1      2181 3.22063E+01
 -1      2182 9.13851E-01
 -1      2183 2.07036E+01
 -1      2184 3.08650E+01
 -1      2185 2.94469E+01
 -1      2186 2.31090E+01
 -1      2187 1.32839E+01
 -1      2188 8.37276E+00
 -1      2189 8.18609E+00
 -1      2190 1.01228E+01
 -1      2191 1.07942E+01
 -1      2192 8.00945E+00
 -1      2193 1.69013E+01
 -1      2194 3.06852E+01
 -1      2195 3.57446E+01
 -1      2196 2.86194E+01
 -1      2197 2.31730E+01
 -1      2198 1.95092E+01
 -1      2199 8.13111E+00
 -1      2200 6.28313E+00
 -1      2201 6.20449E+00
 -1      2202 1.04262E+01
 -1      2203 1.09921E+01
 -1      2204 1.01242E+01
 -1      2205 1.08930E+00
 -1      2206 1.48119E+00
 -1      2207 5.59221E-01
 -1      2208 5.90756E-01
 -1      2209 6.04734E-01
 -1      2210 6.54849E-01
 -1      2211 5.00507E-01
 -1      2212 5.11298E-01
 -1      2213 5.09701E-01
 -1      2214 5.46066E-01
 -1      2215 5.24242E-01
 -1      2216 4.44628E-01
 -1      2217 5.94182E-01
 -1      2218 5.60839E-01
 -1      2219 4.72344E-01
 -1      2220 6.53774E-01
 -1      2221 6.06196E-01
 -1      2222 4.99130E-01
 -1      2223 7.21480E-01
 -1      2224 6.53774E-01
 -1      2225 5.11144E-01
 -1      2226 8.84505E-01
 -1      2227 7.70371E-01
 -1      2228 5.60035E-01
 -1      2229 8.20996E+00
 -1      2230 1.12765E+01
 -1      2231 8.91558E-01
 -1      2232 1.01108E+00
 -1      2233 9.69782E-01
 -1      2234 1.26642E+00
 -1      2235 1.03552E+00
 -1      2236 8.38715E+00
 -1      2237 6.85797E+00
 -1      2238 9.85119E-01
 -1      2239 8.05022E-01
 -1      2240 7.52896E-01
 -1      2241 7.48440E-01
 -1      2242 6.22969E-01
 -1      2243 6.45917E-01
 -1      2244 5.66838E-01
 -1      2245 5.08003E-01
 -1      2246 5.33204E-01
 -1      2247 4.58738E-01
 -1      2248 4.10280E-01
 -1      2249 4.27808E-01
 -1      2250 3.82882E-01
 -1      2251 3.40251E-01
 -1      2252 3.51144E-01
 -1      2253 3.15379E-01
 -1      2254 2.82794E-01
 -1      2255 2.98874E-01
 -1      2256 2.59316E-01
 -1      2257 2.31905E-01
 -1      2258 2.50524E-01
 -1      2259 2.12603E-01
 -1      2260 1.89145E-01
 -1      2261 2.07744E-01
 -1      2262 1.72466E-01
 -1      2263 1.54632E-01
 -1      2264 1.71763E-01
 -1      2265 1.40110E-01
 -1      2266 1.25658E-01
 -1      2267 1.40562E-01
 -1      2268 1.13386E-01
 -1      2269 1.01284E-01
 -1      2270 1.13769E-01
 -1      2271 9.11581E-02
 -1      2272 8.12445E-02
 -1      2273 9.13705E-02
 -1      2274 7.32141E-02
 -1      2275 6.51838E-02
 -1      2276 7.32141E-02
 -1      2277 5.90873E-02
 -1      2278 5.42837E-02
 -1      2279 5.90873E-02
 -1      2280 5.02931E-02
 -1      2281 4.99214E-02
 -1      2282 4.90001E-02
 -1      2283 5.27875E-02
 -1      2284 5.77701E-02
 -1      2285 4.78756E-02
 -1      2286 6.38580E-02
 -1      2287 7.31961E-02
 -1      2288 5.68295E-02
 -1      2289 8.72692E-02
 -1      2290 1.00574E-01
 -1      2291 7.69905E-02
 -1      2292 1.22587E-01
 -1      2293 1.44162E-01
 -1      2294 1.13077E-01
 -1      2295 1.72903E-01
 -1      2296 2.06763E-01
 -1      2297 1.63832E-01
 -1      2298 2.44019E-01
 -1      2299 2.88526E-01
 -1      2300 2.29829E-01
 -1      2301 3.36239E-01
 -1      2302 3.93538E-01
 -1      2303 3.14798E-01
 -1      2304 4.53657E-01
 -1      2305 5.25453E-01
 -1      2306 4.22629E-01
 -1      2307 5.99622E-01
 -1      2308 6.86331E-01
 -1      2309 5.56916E-01
 -1      2310 7.75321E-01
 -1      2311 8.74615E-01
 -1      2312 7.20076E-01
 -1      2313 9.77357E-01
 -1      2314 1.08196E+00
 -1      2315 9.11807E-01
 -1      2316 1.19405E+00
 -1      2317 1.28899E+00
 -1      2318 1.12664E+00
 -1      2319 1.40064E+00
 -1      2320 1.47287E+00
 -1      2321 1.35039E+00
 -1      2322 1.56627E+00
 -1      2323 1.65314E+00
 -1      2324 1.55544E+00
 -1      2325 1.80062E+00
 -1      2326 1.83982E+00
 -1      2327 1.79633E+00
 -1      2328 2.06312E+00
 -1      2329 2.06631E+00
 -1      2330 2.16711E+00
 -1      2331 2.27902E+00
 -1      2332 2.29644E+00
 -1      2333 2.60312E+00
 -1      2334 2.36036E+00
 -1      2335 2.50644E+00
 -1      2336 2.87976E+00
 -1      2337 3.17681E+00
 -1      2338 3.52521E+00
 -1      2339 3.61405E+00
 -1      2340 3.74404E+00
 -1      2341 4.20428E+00
 -1      2342 4.50324E+00
 -1      2343 5.11930E+00
 -1      2344 5.53573E+00
 -1      2345 5.63708E+00
 -1      2346 5.66690E+00
 -1      2347 5.47188E+00
 -1      2348 6.68327E+00
 -1      2349 4.22830E+00
 -1      2350 3.72937E+00
 -1      2351 5.57086E+00
 -1      2352 2.90233E+00
 -1      2353 2.64623E+00
 -1      2354 3.50023E+00
 -1      2355 2.79984E+00
 -1      2356 2.46887E+00
 -1      2357 2.82681E+00
 -1      2358 2.20428E+00
 -1      2359 2.03840E+00
 -1      2360 2.71583E+00
 -1      2361 1.64644E+00
 -1      2362 1.44343E+00
 -1      2363 2.05927E+00
 -1      2364 1.21954E+00
 -1      2365 1.11000E+00
 -1      2366 1.44343E+00
 -1      2367 5.45525E-01
 -1      2368 6.24853E-01
 -1      2369 4.38157E-01
 -1      2370 4.91841E-01
 -1      2371 4.91841E-01
 -1      2372 3.71828E-01
 -1      2373 4.04992E-01
 -1      2374 4.04992E-01
 -1      2375 3.08323E-01
 -1      2376 3.40076E-01
 -1      2377 3.40076E-01
 -1      2378 2.53004E-01
 -1      2379 2.80663E-01
 -1      2380 2.80663E-01
 -1      2381 2.08281E-01
 -1      2382 2.30784E-01
 -1      2383 2.30784E-01
 -1      2384 1.69204E-01
 -1      2385 1.88865E-01
 -1      2386 1.89148E-01
 -1      2387 1.36075E-01
 -1      2388 1.52660E-01
 -1      2389 1.53188E-01
 -1      2390 1.09820E-01
 -1      2391 1.22890E-01
 -1      2392 1.23459E-01
 -1      2393 8.92690E-02
 -1      2394 9.92337E-02
 -1      2395 9.96880E-02
 -1      2396 7.29854E-02
 -1      2397 8.02348E-02
 -1      2398 8.00675E-02
 -1      2399 6.08271E-02
 -1      2400 6.55809E-02
 -1      2401 6.36288E-02
 -1      2402 5.56811E-02
 -1      2403 5.69091E-02
 -1      2404 5.23063E-02
 -1      2405 5.86884E-02
 -1      2406 5.67826E-02
 -1      2407 4.94898E-02
 -1      2408 6.90495E-02
 -1      2409 6.40803E-02
 -1      2410 5.59833E-02
 -1      2411 8.68194E-02
 -1      2412 7.67237E-02
 -1      2413 6.90495E-02
 -1      2414 1.15173E-01
 -1      2415 1.02651E-01
 -1      2416 9.25550E-02
 -1      2417 1.56991E-01
 -1      2418 1.36436E-01
 -1      2419 1.29650E-01
 -1      2420 2.11229E-01
 -1      2421 1.82559E-01
 -1      2422 1.76482E-01
 -1      2423 2.74055E-01
 -1      2424 2.40847E-01
 -1      2425 2.31669E-01
 -1      2426 3.42650E-01
 -1      2427 3.06609E-01
 -1      2428 2.93841E-01
 -1      2429 4.11234E-01
 -1      2430 3.75762E-01
 -1      2431 3.59506E-01
 -1      2432 4.70188E-01
 -1      2433 4.40837E-01
 -1      2434 4.22221E-01
 -1      2435 5.28327E-01
 -1      2436 4.98606E-01
 -1      2437 4.80244E-01
 -1      2438 5.58019E-01
 -1      2439 5.47992E-01
 -1      2440 5.28327E-01
 -1      2441 5.68046E-01
 -1      2442 5.68046E-01
 -1      2443 5.58019E-01
 -1      2444 5.32928E-01
 -1      2445 5.56989E-01
 -1      2446 5.56989E-01
 -1      2447 4.87362E-01
 -1      2448 5.22896E-01
 -1      2449 5.35899E-01
 -1      2450 5.68295E-01
 -1      2451 5.28390E-01
 -1      2452 5.66895E-01
 -1      2453 8.45247E-01
 -1      2454 6.55763E-01
 -1      2455 6.95391E-01
 -1      2456 1.28113E+00
 -1      2457 1.03395E+00
 -1      2458 9.71564E-01
 -1      2459 1.66149E+00
 -1      2460 1.46683E+00
 -1      2461 1.34597E+00
 -1      2462 1.85086E+00
 -1      2463 1.79131E+00
 -1      2464 1.66149E+00
 -1      2465 1.91041E+00
 -1      2466 1.91041E+00
 -1      2467 1.85086E+00
 -1      2468 1.81792E+00
 -1      2469 1.85318E+00
 -1      2470 1.85318E+00
 -1      2471 1.86934E+00
 -1      2472 1.85337E+00
 -1      2473 1.83140E+00
 -1      2474 1.76508E+00
 -1      2475 1.81846E+00
 -1      2476 1.81596E+00
 -1      2477 1.53323E+00
 -1      2478 1.68982E+00
 -1      2479 1.68982E+00
 -1      2480 1.26735E+00
 -1      2481 1.44097E+00
 -1      2482 1.52230E+00
 -1      2483 1.06268E+00
 -1      2484 1.17401E+00
 -1      2485 1.33668E+00
 -1      2486 1.00652E+00
 -1      2487 1.11196E+00
 -1      2488 1.29261E+00
 -1      2489 8.31765E-01
 -1      2490 9.47773E-01
 -1      2491 1.28314E+00
 -1      2492 4.39146E-01
 -1      2493 1.11748E+00
 -1      2494 1.11748E+00
 -1      2495 1.30717E+00
 -1      2496 1.25122E+00
 -1      2497 1.46137E+00
 -1      2498 1.00530E+00
 -1      2499 9.89071E-01
 -1      2500 1.01638E+00
 -1      2501 9.55818E-01
 -1      2502 1.17491E+00
 -1      2503 1.22653E+00
 -1      2504 1.75720E+00
 -1      2505 1.45914E+00
 -1      2506 1.74707E+00
 -1      2507 2.46757E+00
 -1      2508 2.27427E+00
 -1      2509 2.41612E+00
 -1      2510 2.53910E+00
 -1      2511 2.53910E+00
 -1      2512 3.00472E+00
 -1      2513 2.52779E+00
 -1      2514 2.53910E+00
 -1      2515 3.07624E+00
 -1      2516 1.91686E+00
 -1      2517 2.26554E+00
 -1      2518 2.81399E+00
 -1      2519 1.39012E+00
 -1      2520 1.55229E+00
 -1      2521 2.18716E+00
 -1      2522 1.18942E+00
 -1      2523 1.15081E+00
 -1      2524 1.58328E+00
 -1      2525 3.22063E+01
 -1      2526 3.22063E+01
 -1      2527 1.44152E+01
 -1      2528 1.97094E+01
 -1      2529 7.04181E-01
 -1      2530 7.97870E-01
 -1      2531 6.24853E-01
 -1      2532 1.03485E+00
 -1      2533 3.08650E+01
 -1      2534 2.95237E+01
 -1      2535 1.67615E+00
 -1      2536 1.30093E+00
 -1      2537 8.37798E-01
 -1      2538 9.60236E-01
 -1      2539 2.49442E+01
 -1      2540 2.48674E+01
 -1      2541 2.49442E+01
 -1      2542 2.56258E+01
 -1      2543 3.06852E+01
 -1      2544 5.22608E-01
 -1      2545 5.44705E-01
 -1      2546 4.72013E-01
 -1      2547 4.44590E-01
 -1      2548 1.06555E+01
 -1      2549 7.48091E+00
 -1      2550 9.63713E+00
 -1      2551 9.50007E+00
 -1      2552 8.98958E+00
 -1      2553 9.96189E+00
 -1      2554 7.20407E+00
 -1      2555 7.94363E+00
 -1      2556 9.04773E+00
 -1      2557 8.48257E+00
 -1      2558 1.82516E+01
 -1      2559 1.29091E+01
 -1      2560 9.39790E+00
 -1      2561 1.97041E+01
 -1      2562 2.13829E+01
 -1      2563 2.93220E+01
 -1      2564 2.21968E+01
 -1      2565 2.04067E+01
 -1      2566 3.57446E+01
 -1      2567 3.57446E+01
 -1      2568 3.06852E+01
 -1      2569 1.83003E+01
 -1      2570 2.05683E+01
 -1      2571 1.18084E+01
 -1      2572 1.59970E+01
 -1      2573 6.70460E+00
 -1      2574 9.83108E+00
 -1      2575 7.14057E+00
 -1      2576 5.59095E+00
 -1      2577 9.67990E+00
 -1      2578 9.57513E+00
 -1      2579 8.47626E+00
 -1      2580 9.25237E+00
 -1      2581 5.81207E+00
 -1      2582 6.97267E+00
 -1      2583 7.63255E+00
 -1      2584 6.28527E+00
 -1      2585 1.26203E+01
 -1      2586 9.05634E+00
 -1      2587 2.14701E+01
 -1      2588 1.52090E+01
 -1      2589 6.50731E+00
 -1      2590 7.11244E+00
 -1      2591 1.62128E+00
 -1      2592 1.76452E+00
 -1      2593 1.32863E+00
 -1      2594 1.18810E+00
 -1      2595 5.59261E+00
 -1      2596 5.92915E+00
 -1      2597 4.31619E+00
 -1      2598 5.22823E-01
 -1      2599 6.63186E-01
 -1      2600 7.21023E-01
 -1      2601 7.64393E+00
 -1      2602 1.17768E+01
 -1      2603 1.07826E+01
 -1      2604 6.04612E+00
 -1      2605 1.24414E+00
 -1      2606 5.29927E+00
 -1      2607 1.69674E+01
 -1      2608 1.09814E+01
 -1      2609 1.74924E+01
 -1      2610 2.05683E+01
 -1      2611 6.96886E+00
 -1      2612 8.31765E-01
 -1      2613 9.89071E-01
 -1      2614 5.07186E+00
 -1      2615 3.08650E+01
 -1      2616 2.31916E+01
 -1      2617 2.31916E+01
 -1      2618 1.78704E+01
 -1      2619 6.10224E+00
 -1      2620 8.03335E+00
 -1      2621 7.97870E-01
 -1      2622 8.91594E-01
 -1      2623 6.06407E+00
 -1      2624 5.83572E+00
 -1      2625 8.92672E+00
 -1      2626 2.93220E+01
 -1      2627 1.47827E+01
 -1      2628 7.93347E+00
 -1      2629 5.51246E+00
 -1      2630 7.47934E+00
 -1      2631 6.76285E+00
 -1      2632 8.20053E+00
 -1      2633 1.32074E+01
 -1      2634 1.03485E+00
 -1      2635 1.03485E+00
 -1      2636 1.18942E+00
 -1      2637 1.01766E+00
 -1      2638 9.68556E-01
 -1      2639 1.22438E+00
 -1      2640 1.12720E+00
 -1      2641 4.22841E-01
 -1      2642 4.08068E-01
 -1      2643 4.00261E-01
 -1      2644 3.87316E-01
 -1      2645 3.50757E-01
 -1      2646 4.36584E-01
 -1      2647 4.36584E-01
 -1      2648 4.73464E-01
 -1      2649 4.24573E-01
 -1      2650 3.50013E-01
 -1      2651 1.28314E+00
 -1      2652 1.28314E+00
 -1      2653 1.34189E+00
 -1      2654 7.17795E-01
 -1      2655 7.96019E-01
 -1      2656 2.15358E+01
 -1      2657 1.69562E+01
 -1      2658 1.61452E+01
 -1      2659 1.27479E+01
 -1      2660 5.50014E-01
 -1      2661 4.93432E-01
 -1      2662 4.87044E-01
 -1      2663 4.30913E-01
 -1      2664 3.91141E-01
 -1      2665 4.10448E-01
 -1      2666 3.61183E-01
 -1      2667 3.64288E-01
 -1      2668 3.36446E-01
 -1      2669 3.09047E-01
 -1      2670 3.19086E-01
 -1      2671 2.84291E-01
 -1      2672 2.59419E-01
 -1      2673 2.69593E-01
 -1      2674 2.43745E-01
 -1      2675 2.20267E-01
 -1      2676 2.29163E-01
 -1      2677 2.04054E-01
 -1      2678 1.84751E-01
 -1      2679 1.97275E-01
 -1      2680 1.69243E-01
 -1      2681 1.52564E-01
 -1      2682 1.65553E-01
 -1      2683 1.38497E-01
 -1      2684 1.23976E-01
 -1      2685 1.35977E-01
 -1      2686 1.12682E-01
 -1      2687 1.00410E-01
 -1      2688 1.10617E-01
 -1      2689 9.08967E-02
 -1      2690 8.07706E-02
 -1      2691 8.98100E-02
 -1      2692 7.26579E-02
 -1      2693 6.46276E-02
 -1      2694 7.21841E-02
 -1      2695 5.77820E-02
 -1      2696 5.16854E-02
 -1      2697 5.72258E-02
 -1      2698 4.56091E-02
 -1      2699 4.16185E-02
 -1      2700 4.43038E-02
 -1      2701 3.95373E-02
 -1      2702 4.24034E-02
 -1      2703 3.61463E-02
 -1      2704 4.63630E-02
 -1      2705 5.24508E-02
 -1      2706 3.80247E-02
 -1      2707 6.64508E-02
 -1      2708 8.05239E-02
 -1      2709 5.59843E-02
 -1      2710 9.82054E-02
 -1      2711 1.20219E-01
 -1      2712 8.76658E-02
 -1      2713 1.42770E-01
 -1      2714 1.71511E-01
 -1      2715 1.27898E-01
 -1      2716 2.00311E-01
 -1      2717 2.37567E-01
 -1      2718 1.79248E-01
 -1      2719 2.74226E-01
 -1      2720 3.21939E-01
 -1      2721 2.44708E-01
 -1      2722 3.68350E-01
 -1      2723 4.28469E-01
 -1      2724 3.27779E-01
 -1      2725 4.86910E-01
 -1      2726 5.61079E-01
 -1      2727 4.32632E-01
 -1      2728 6.34414E-01
 -1      2729 7.23404E-01
 -1      2730 5.64407E-01
 -1      2731 8.18549E-01
 -1      2732 9.21290E-01
 -1      2733 7.32887E-01
 -1      2734 1.04078E+00
 -1      2735 1.15287E+00
 -1      2736 9.47526E-01
 -1      2737 1.29763E+00
 -1      2738 1.40928E+00
 -1      2739 1.21177E+00
 -1      2740 1.59239E+00
 -1      2741 1.68579E+00
 -1      2742 1.53963E+00
 -1      2743 1.91480E+00
 -1      2744 2.06228E+00
 -1      2745 1.95175E+00
 -1      2746 2.29723E+00
 -1      2747 2.52053E+00
 -1      2748 2.41570E+00
 -1      2749 3.03627E+00
 -1      2750 3.24899E+00
 -1      2751 3.16639E+00
 -1      2752 4.02647E+00
 -1      2753 4.09039E+00
 -1      2754 4.45962E+00
 -1      2755 4.50324E+00
 -1      2756 4.72206E+00
 -1      2757 7.50649E+00
 -1      2758 7.63766E+00
 -1      2759 7.21013E+00
 -1      2760 5.96655E+00
 -1      2761 2.82681E+00
 -1      2762 2.98043E+00
 -1      2763 3.49358E+00
 -1      2764 3.22898E+00
 -1      2765 3.49358E+00
 -1      2766 2.68712E+00
 -1      2767 2.29515E+00
 -1      2768 3.46486E+00
 -1      2769 1.79777E+00
 -1      2770 1.57389E+00
 -1      2771 2.42561E+00
 -1      2772 3.50166E-01
 -1      2773 3.83330E-01
 -1      2774 8.28466E-01
 -1      2775 4.17600E-01
 -1      2776 4.71284E-01
 -1      2777 3.62774E-01
 -1      2778 2.43821E-01
 -1      2779 2.71481E-01
 -1      2780 2.03161E-01
 -1      2781 2.25381E-01
 -1      2782 2.16198E-01
 -1      2783 1.66703E-01
 -1      2784 1.86118E-01
 -1      2785 1.80716E-01
 -1      2786 1.36094E-01
 -1      2787 1.52638E-01
 -1      2788 1.49608E-01
 -1      2789 1.10474E-01
 -1      2790 1.23658E-01
 -1      2791 1.23108E-01
 -1      2792 8.91017E-02
 -1      2793 9.96880E-02
 -1      2794 9.98873E-02
 -1      2795 7.10333E-02
 -1      2796 8.00675E-02
 -1      2797 8.00675E-02
 -1      2798 5.59582E-02
 -1      2799 6.33627E-02
 -1      2800 6.33627E-02
 -1      2801 4.61911E-02
 -1      2802 5.01091E-02
 -1      2803 4.98430E-02
 -1      2804 4.40571E-02
 -1      2805 4.29556E-02
 -1      2806 4.07584E-02
 -1      2807 5.28217E-02
 -1      2808 4.74298E-02
 -1      2809 4.08955E-02
 -1      2810 6.85254E-02
 -1      2811 6.08511E-02
 -1      2812 5.22976E-02
 -1      2813 9.95419E-02
 -1      2814 8.37106E-02
 -1      2815 7.55123E-02
 -1      2816 1.39381E-01
 -1      2817 1.18117E-01
 -1      2818 1.09273E-01
 -1      2819 1.87410E-01
 -1      2820 1.61841E-01
 -1      2821 1.50309E-01
 -1      2822 2.43596E-01
 -1      2823 2.13978E-01
 -1      2824 1.99337E-01
 -1      2825 3.06569E-01
 -1      2826 2.74015E-01
 -1      2827 2.56324E-01
 -1      2828 3.72944E-01
 -1      2829 3.39832E-01
 -1      2830 3.20007E-01
 -1      2831 4.36547E-01
 -1      2832 4.06944E-01
 -1      2833 3.87270E-01
 -1      2834 4.97202E-01
 -1      2835 4.68784E-01
 -1      2836 4.53506E-01
 -1      2837 5.44975E-01
 -1      2838 5.25310E-01
 -1      2839 5.13850E-01
 -1      2840 5.92559E-01
 -1      2841 5.82532E-01
 -1      2842 5.79515E-01
 -1      2843 6.16092E-01
 -1      2844 6.27150E-01
 -1      2845 6.51663E-01
 -1      2846 6.22753E-01
 -1      2847 6.32785E-01
 -1      2848 7.02946E-01
 -1      2849 7.30049E-01
 -1      2850 6.89020E-01
 -1      2851 7.85907E-01
 -1      2852 9.22477E-01
 -1      2853 8.35009E-01
 -1      2854 9.57134E-01
 -1      2855 1.17384E+00
 -1      2856 9.85136E-01
 -1      2857 1.12475E+00
 -1      2858 1.43678E+00
 -1      2859 1.25108E+00
 -1      2860 1.26465E+00
 -1      2861 1.70967E+00
 -1      2862 1.57985E+00
 -1      2863 1.48496E+00
 -1      2864 1.98518E+00
 -1      2865 1.92563E+00
 -1      2866 1.84399E+00
 -1      2867 2.51523E+00
 -1      2868 2.57246E+00
 -1      2869 2.64723E+00
 -1      2870 2.52153E+00
 -1      2871 2.48608E+00
 -1      2872 3.20536E+00
 -1      2873 1.91368E+00
 -1      2874 1.96456E+00
 -1      2875 2.61924E+00
 -1      2876 1.71730E+00
 -1      2877 1.79255E+00
 -1      2878 1.94115E+00
 -1      2879 1.56810E+00
 -1      2880 1.66036E+00
 -1      2881 1.76310E+00
 -1      2882 1.38142E+00
 -1      2883 1.47476E+00
 -1      2884 1.61283E+00
 -1      2885 1.34189E+00
 -1      2886 1.29261E+00
 -1      2887 1.43069E+00
 -1      2888 1.34189E+00
 -1      2889 3.09788E+00
 -1      2890 2.58080E+00
 -1      2891 1.36245E+00
 -1      2892 1.27010E+00
 -1      2893 1.42466E+00
 -1      2894 1.71679E+00
 -1      2895 1.81873E+00
 -1      2896 1.68499E+00
 -1      2897 3.84359E+00
 -1      2898 3.77207E+00
 -1      2899 3.93675E+00
 -1      2900 2.43534E+00
 -1      2901 2.28336E+00
 -1      2902 2.50699E+00
 -1      2903 3.11709E+00
 -1      2904 3.95421E+00
 -1      2905 5.05173E+00
 -1      2906 3.84359E+00
 -1      2907 3.84359E+00
 -1      2908 4.61094E+00
 -1      2909 3.39765E+00
 -1      2910 3.65990E+00
 -1      2911 4.42725E+00
 -1      2912 2.97037E+00
 -1      2913 3.33495E+00
 -1      2914 4.18086E+00
 -1      2915 1.95415E+00
 -1      2916 2.19345E+00
 -1      2917 3.34124E+00
 -1      2918 2.03483E+00
 -1      2919 1.43344E+01
 -1      2920 1.93920E+01
 -1      2921 7.01732E-01
 -1      2922 6.67227E-01
 -1      2923 6.89335E+00
 -1      2924 5.46955E+00
 -1      2925 6.97908E+00
 -1      2926 5.05032E-01
 -1      2927 5.84361E-01
 -1      2928 4.30792E-01
 -1      2929 2.91085E-01
 -1      2930 3.22838E-01
 -1      2931 3.01175E-01
 -1      2932 2.54243E-01
 -1      2933 6.02908E-01
 -1      2934 5.52512E-01
 -1      2935 4.00027E-01
 -1      2936 4.66842E-01
 -1      2937 7.21023E-01
 -1      2938 4.36584E-01
 -1      2939 4.24570E-01
 -1      2940 3.60294E-01
 -1      2941 3.62023E-01
 -1      2942 1.07887E+01
 -1      2943 8.19996E+00
 -1      2944 4.22695E-01
 -1      2945 4.36673E-01
 -1      2946 6.90850E+00
 -1      2947 6.58375E+00
 -1      2948 1.04220E+01
 -1      2949 1.27254E+01
 -1      2950 6.55664E+00
 -1      2951 5.44372E+00
 -1      2952 5.61689E+00
 -1      2953 9.56504E+00
 -1      2954 7.31151E+00
 -1      2955 5.66443E+00
 -1      2956 6.71038E+00
 -1      2957 1.40129E+01
 -1      2958 1.08816E+01
 -1      2959 1.84512E+01
 -1      2960 1.59585E+01
 -1      2961 2.03316E+01
 -1      2962 2.53910E+01
 -1      2963 2.53910E+01
 -1      2964 1.89684E+01
 -1      2965 1.45202E+01
 -1      2966 1.50374E+01
 -1      2967 7.10905E+00
 -1      2968 9.08641E+00
 -1      2969 3.78616E+00
 -1      2970 4.70709E+00
 -1      2971 6.09915E-01
 -1      2972 7.03603E-01
 -1      2973 5.29840E-01
 -1      2974 4.90094E-01
 -1      2975 6.06407E+00
 -1      2976 2.15923E+01
 -1      2977 2.02510E+01
 -1      2978 4.28113E+00
 -1      2979 3.80792E+00
 -1      2980 1.27398E+01
 -1      2981 1.68113E+01
 -1      2982 4.47214E+00
 -1      2983 4.12147E+00
 -1      2984 4.26593E+00
 -1      2985 5.77658E+00
 -1      2986 4.46539E-01
 -1      2987 4.54877E-01
 -1      2988 3.68726E-01
 -1      2989 5.52658E+00
 -1      2990 6.02688E+00
 -1      2991 3.43467E+00
 -1      2992 3.42711E-01
 -1      2993 3.87078E-01
 -1      2994 3.99985E-01
 -1      2995 1.23366E+00
 -1      2996 4.20562E+00
 -1      2997 5.42708E+00
 -1      2998 3.87531E+00
 -1      2999 5.59421E+00
 -1      3000 1.27368E+01
 -1      3001 9.96651E+00
 -1      3002 6.70066E+00
 -1      3003 6.25292E+00
 -1      3004 5.10621E+00
 -1      3005 3.93813E+00
 -1      3006 1.22630E+01
 -1      3007 5.96655E+00
 -1      3008 4.32727E+00
 -1      3009 3.67223E+00
 -1      3010 2.84519E+00
 -1      3011 1.74976E+00
 -1      3012 1.39240E+00
 -1      3013 1.29130E+00
 -1      3014 5.76479E-01
 -1      3015 1.40978E+01
 -1      3016 1.15491E+01
 -1      3017 1.31178E+01
 -1      3018 5.31161E-01
 -1      3019 1.24651E+01
 -1      3020 2.14798E+01
 -1      3021 1.08658E+01
 -1      3022 4.46296E+00
 -1      3023 1.20574E+01
 -1      3024 4.41017E-01
 -1      3025 4.07556E-01
 -1      3026 4.22072E-01
 -1      3027 3.58238E-01
 -1      3028 3.50044E-01
 -1      3029 5.26462E+00
 -1      3030 8.60438E+00
 -1      3031 7.82485E+00
 -1      3032 1.04632E+01
 -1      3033 9.78208E+00
 -1      3034 6.74854E+00
 -1      3035 5.13176E+00
 -1      3036 4.93363E+00
 -1      3037 8.79525E+00
 -1      3038 4.11623E+00
 -1      3039 3.12184E+00
 -1      3040 3.28910E+00
 -1      3041 3.51082E+00
 -1      3042 4.50390E+00
 -1      3043 4.47679E+00
 -1      3044 2.89392E-01
 -1      3045 3.01402E-01
 -1      3046 7.58856E+00
 -1      3047 3.20355E-01
 -1      3048 2.99890E-01
 -1      3049 2.96464E-01
 -1      3050 2.71727E-01
 -1      3051 2.52531E-01
 -1      3052 2.60878E-01
 -1      3053 2.36121E-01
 -1      3054 2.38255E-01
 -1      3055 2.21980E-01
 -1      3056 2.06306E-01
 -1      3057 2.13265E-01
 -1      3058 1.92939E-01
 -1      3059 1.76726E-01
 -1      3060 1.85757E-01
 -1      3061 1.66100E-01
 -1      3062 1.50592E-01
 -1      3063 1.61765E-01
 -1      3064 1.39357E-01
 -1      3065 1.25290E-01
 -1      3066 1.39904E-01
 -1      3067 1.14353E-01
 -1      3068 1.03059E-01
 -1      3069 1.17732E-01
 -1      3070 9.28852E-02
 -1      3071 8.33720E-02
 -1      3072 9.66215E-02
 -1      3073 7.40988E-02
 -1      3074 6.59861E-02
 -1      3075 7.71740E-02
 -1      3076 5.75249E-02
 -1      3077 5.06792E-02
 -1      3078 5.94396E-02
 -1      3079 4.27763E-02
 -1      3080 3.67000E-02
 -1      3081 4.30754E-02
 -1      3082 3.06697E-02
 -1      3083 2.85884E-02
 -1      3084 2.91421E-02
 -1      3085 3.01661E-02
 -1      3086 3.41257E-02
 -1      3087 2.46894E-02
 -1      3088 4.58271E-02
 -1      3089 5.98271E-02
 -1      3090 3.79685E-02
 -1      3091 7.47813E-02
 -1      3092 9.24628E-02
 -1      3093 6.46242E-02
 -1      3094 1.12028E-01
 -1      3095 1.34578E-01
 -1      3096 9.91438E-02
 -1      3097 1.61160E-01
 -1      3098 1.89961E-01
 -1      3099 1.45291E-01
 -1      3100 2.24687E-01
 -1      3101 2.61347E-01
 -1      3102 2.06599E-01
 -1      3103 3.06457E-01
 -1      3104 3.52868E-01
 -1      3105 2.86436E-01
 -1      3106 4.11000E-01
 -1      3107 4.69441E-01
 -1      3108 3.89678E-01
 -1      3109 5.43618E-01
 -1      3110 6.16952E-01
 -1      3111 5.21986E-01
 -1      3112 7.10441E-01
 -1      3113 8.05586E-01
 -1      3114 6.89651E-01
 -1      3115 9.21460E-01
 -1      3116 1.04095E+00
 -1      3117 8.99013E-01
 -1      3118 1.18079E+00
 -1      3119 1.32555E+00
 -1      3120 1.15473E+00
 -1      3121 1.49794E+00
 -1      3122 1.68105E+00
 -1      3123 1.46696E+00
 -1      3124 1.95870E+00
 -1      3125 2.18771E+00
 -1      3126 1.91701E+00
 -1      3127 2.80798E+00
 -1      3128 3.04292E+00
 -1      3129 2.81493E+00
 -1      3130 4.99146E+00
 -1      3131 5.50721E+00
 -1      3132 5.38374E+00
 -1      3133 6.26458E+00
 -1      3134 7.04207E+00
 -1      3135 9.39352E+00
 -1      3136 8.08965E+00
 -1      3137 1.13143E+01
 -1      3138 1.05033E+01
 -1      3139 1.14011E+01
 -1      3140 9.45557E+00
 -1      3141 2.99881E+00
 -1      3142 5.95440E+00
 -1      3143 5.41254E+00
 -1      3144 4.31683E+00
 -1      3145 3.81945E+00
 -1      3146 6.80638E+00
 -1      3147 3.07822E-01
 -1      3148 3.42092E-01
 -1      3149 1.63709E-01
 -1      3150 1.80752E-01
 -1      3151 1.93617E-01
 -1      3152 2.12057E-01
 -1      3153 1.76611E-01
 -1      3154 1.12003E-01
 -1      3155 1.24438E-01
 -1      3156 9.01059E-02
 -1      3157 1.00891E-01
 -1      3158 1.02222E-01
 -1      3159 7.11495E-02
 -1      3160 8.01837E-02
 -1      3161 8.11879E-02
 -1      3162 5.47380E-02
 -1      3163 6.24085E-02
 -1      3164 6.25247E-02
 -1      3165 4.20071E-02
 -1      3166 4.78563E-02
 -1      3167 4.69021E-02
 -1      3168 3.22072E-02
 -1      3169 3.54427E-02
 -1      3170 3.34560E-02
 -1      3171 3.50071E-02
 -1      3172 3.16344E-02
 -1      3173 2.63188E-02
 -1      3174 5.11231E-02
 -1      3175 4.30936E-02
 -1      3176 3.38326E-02
 -1      3177 7.89214E-02
 -1      3178 6.37362E-02
 -1      3179 5.45322E-02
 -1      3180 1.12861E-01
 -1      3181 9.42854E-02
 -1      3182 8.25093E-02
 -1      3183 1.54116E-01
 -1      3184 1.31655E-01
 -1      3185 1.16668E-01
 -1      3186 2.03560E-01
 -1      3187 1.76992E-01
 -1      3188 1.58338E-01
 -1      3189 2.61489E-01
 -1      3190 2.31070E-01
 -1      3191 2.08725E-01
 -1      3192 3.28041E-01
 -1      3193 2.94778E-01
 -1      3194 2.69524E-01
 -1      3195 4.00585E-01
 -1      3196 3.66585E-01
 -1      3197 3.41356E-01
 -1      3198 4.74657E-01
 -1      3199 4.42421E-01
 -1      3200 4.21736E-01
 -1      3201 5.44574E-01
 -1      3202 5.16466E-01
 -1      3203 5.05381E-01
 -1      3204 6.23802E-01
 -1      3205 5.86245E-01
 -1      3206 5.88861E-01
 -1      3207 7.23684E-01
 -1      3208 6.89094E-01
 -1      3209 6.95823E-01
 -1      3210 8.17468E-01
 -1      3211 8.00775E-01
 -1      3212 8.38206E-01
 -1      3213 9.52698E-01
 -1      3214 8.86431E-01
 -1      3215 9.84259E-01
 -1      3216 1.13120E+00
 -1      3217 1.02624E+00
 -1      3218 1.12676E+00
 -1      3219 1.48050E+00
 -1      3220 1.41784E+00
 -1      3221 1.48694E+00
 -1      3222 1.50504E+00
 -1      3223 1.42780E+00
 -1      3224 1.72089E+00
 -1      3225 2.56291E+00
 -1      3226 2.41984E+00
 -1      3227 2.58299E+00
 -1      3228 2.31486E+00
 -1      3229 2.09890E+00
 -1      3230 3.03378E+00
 -1      3231 3.58511E+00
 -1      3232 2.99783E+00
 -1      3233 3.25274E+00
 -1      3234 3.44614E+00
 -1      3235 3.47529E+00
 -1      3236 2.55195E+00
 -1      3237 2.67307E+00
 -1      3238 2.07544E+00
 -1      3239 2.13237E+00
 -1      3240 2.86429E+00
 -1      3241 1.61283E+00
 -1      3242 1.70616E+00
 -1      3243 2.07544E+00
 -1      3244 2.24627E+00
 -1      3245 1.14745E+01
 -1      3246 1.24141E+01
 -1      3247 3.23585E-01
 -1      3248 3.15778E-01
 -1      3249 7.16738E+00
 -1      3250 7.35107E+00
 -1      3251 6.96297E+00
 -1      3252 6.28878E+00
 -1      3253 6.59952E+00
 -1      3254 6.66222E+00
 -1      3255 6.96297E+00
 -1      3256 6.96297E+00
 -1      3257 9.70310E+00
 -1      3258 4.26593E+00
 -1      3259 3.29434E+00
 -1      3260 1.39953E+00
 -1      3261 1.10026E+01
 -1      3262 1.36672E-01
 -1      3263 1.50737E-01
 -1      3264 1.50773E-01
 -1      3265 1.25567E-01
 -1      3266 3.51652E-01
 -1      3267 3.85401E-01
 -1      3268 2.96701E-01
 -1      3269 3.15259E-01
 -1      3270 3.08871E-01
 -1      3271 2.44473E-01
 -1      3272 1.14060E+01
 -1      3273 1.24651E+01
 -1      3274 3.45825E+00
 -1      3275 4.41559E+00
 -1      3276 8.29451E+00
 -1      3277 6.97790E+00
 -1      3278 4.12991E-01
 -1      3279 3.09977E-01
 -1      3280 2.61366E-01
 -1      3281 3.98799E-01
 -1      3282 9.56340E+00
 -1      3283 1.08481E+01
 -1      3284 9.91392E+00
 -1      3285 7.95468E+00
 -1      3286 3.67223E+00
 -1      3287 4.54877E-01
 -1      3288 3.76931E+00
 -1      3289 3.23929E+00
 -1      3290 2.90395E+00
 -1      3291 3.37880E+00
 -1      3292 3.06597E+00
 -1      3293 3.12417E-01
 -1      3294 3.12179E-01
 -1      3295 2.85246E-01
 -1      3296 2.60492E-01
 -1      3297 3.21113E-01
 -1      3298 3.21113E-01
 -1      3299 8.61471E+00
 -1      3300 6.06166E+00
 -1      3301 4.17723E+00
 -1      3302 5.56092E+00
 -1      3303 1.07533E+01
 -1      3304 1.30892E+01
 -1      3305 1.04873E+01
 -1      3306 7.63822E+00
 -1      3307 6.00700E+00
 -1      3308 3.33521E-01
 -1      3309 3.31024E-01
 -1      3310 2.48754E-01
 -1      3311 9.31894E+00
 -1      3312 4.13749E+00
 -1      3313 2.91582E-01
 -1      3314 2.70900E-01
 -1      3315 2.64254E-01
 -1      3316 3.90558E-01
 -1      3317 2.03751E-01
 -1      3318 2.26332E-01
 -1      3319 2.45937E-01
 -1      3320 3.82589E+00
 -1      3321 3.17621E+00
 -1      3322 3.44614E+00
 -1      3323 4.20686E+00
 -1      3324 2.61924E+00
 -1      3325 3.23004E+00
 -1      3326 1.65793E+00
 -1      3327 1.75126E+00
 -1      3328 1.56912E+00
 -1      3329 3.23585E-01
 -1      3330 2.88606E-01
 -1      3331 3.25315E-01
 -1      3332 3.20770E+00
 -1      3333 2.74307E+00
 -1      3334 1.33076E+00
 -1      3335 1.33076E+00
 -1      3336 1.38840E+00
 -1      3337 3.28910E+00
 -1      3338 3.89012E+00
 -1      3339 3.74465E+00
 -1      3340 3.98072E+00
 -1      3341 9.31501E+00
 -1      3342 4.91442E+00
 -1      3343 7.39578E+00
 -1      3344 1.05484E+01
 -1      3345 1.31717E+01
 -1      3346 3.68573E-01
 -1      3347 3.94127E-01
 -1      3348 2.77278E-01
 -1      3349 2.89433E-01
 -1      3350 1.31717E+01
 -1      3351 3.60378E+00
 -1      3352 3.71674E+00
 -1      3353 2.33607E+00
 -1      3354 2.04348E+00
 -1      3355 1.97471E+00
 -1      3356 3.03678E+00
 -1      3357 6.34221E+00
 -1      3358 6.02284E+00
 -1      3359 4.22486E+00
 -1      3360 9.12938E+00
 -1      3361 8.49148E+00
 -1      3362 3.20725E-01
 -1      3363 3.30591E-01
 -1      3364 1.36064E+01
 -1      3365 4.34393E+00
 -1      3366 6.91634E+00
 -1      3367 3.23901E-01
 -1      3368 2.85765E-01
 -1      3369 3.23278E-01
 -1      3370 4.45375E+00
 -1      3371 2.16040E-01
 -1      3372 2.05191E-01
 -1      3373 2.01600E-01
 -1      3374 1.87459E-01
 -1      3375 1.79384E-01
 -1      3376 1.79572E-01
 -1      3377 1.66206E-01
 -1      3378 1.67907E-01
 -1      3379 1.56318E-01
 -1      3380 1.45693E-01
 -1      3381 1.50133E-01
 -1      3382 1.37372E-01
 -1      3383 1.26137E-01
 -1      3384 1.31925E-01
 -1      3385 1.17791E-01
 -1      3386 1.06855E-01
 -1      3387 1.15259E-01
 -1      3388 9.83023E-02
 -1      3389 8.81280E-02
 -1      3390 9.83612E-02
 -1      3391 7.98624E-02
 -1      3392 7.05892E-02
 -1      3393 8.15432E-02
 -1      3394 6.28106E-02
 -1      3395 5.43494E-02
 -1      3396 6.54990E-02
 -1      3397 4.70557E-02
 -1      3398 3.91527E-02
 -1      3399 5.04267E-02
 -1      3400 3.46564E-02
 -1      3401 2.86260E-02
 -1      3402 3.86366E-02
 -1      3403 2.99661E-02
 -1      3404 3.15438E-02
 -1      3405 3.54803E-02
 -1      3406 3.64920E-02
 -1      3407 4.81934E-02
 -1      3408 4.17687E-02
 -1      3409 6.14918E-02
 -1      3410 7.64460E-02
 -1      3411 6.00153E-02
 -1      3412 9.43864E-02
 -1      3413 1.13952E-01
 -1      3414 9.12541E-02
 -1      3415 1.37168E-01
 -1      3416 1.63750E-01
 -1      3417 1.32411E-01
 -1      3418 1.93802E-01
 -1      3419 2.28529E-01
 -1      3420 1.85679E-01
 -1      3421 2.67373E-01
 -1      3422 3.12483E-01
 -1      3423 2.54576E-01
 -1      3424 3.62642E-01
 -1      3425 4.20774E-01
 -1      3426 3.43579E-01
 -1      3427 4.85647E-01
 -1      3428 5.59823E-01
 -1      3429 4.58610E-01
 -1      3430 6.44233E-01
 -1      3431 7.37721E-01
 -1      3432 6.07893E-01
 -1      3433 8.48878E-01
 -1      3434 9.64752E-01
 -1      3435 8.03460E-01
 -1      3436 1.11398E+00
 -1      3437 1.25382E+00
 -1      3438 1.06385E+00
 -1      3439 1.45895E+00
 -1      3440 1.63134E+00
 -1      3441 1.41820E+00
 -1      3442 1.91701E+00
 -1      3443 2.19466E+00
 -1      3444 1.90899E+00
 -1      3445 2.53924E+00
 -1      3446 3.15951E+00
 -1      3447 2.53924E+00
 -1      3448 4.88174E+00
 -1      3449 6.83027E+00
 -1      3450 4.60604E+00
 -1      3451 8.56156E+00
 -1      3452 6.96761E+00
 -1      3453 5.80655E+00
 -1      3454 4.18724E+00
 -1      3455 1.04222E+01
 -1      3456 1.00341E+01
 -1      3457 1.17406E+01
 -1      3458 7.51490E-02
 -1      3459 8.50711E-02
 -1      3460 9.41689E-02
 -1      3461 1.05280E-01
 -1      3462 8.81300E-02
 -1      3463 4.32303E-02
 -1      3464 5.01120E-02
 -1      3465 2.92129E-02
 -1      3466 3.57773E-02
 -1      3467 3.89872E-02
 -1      3468 2.77392E-02
 -1      3469 2.83120E-02
 -1      3470 3.06333E-02
 -1      3471 3.84500E-02
 -1      3472 3.03634E-02
 -1      3473 3.23566E-02
 -1      3474 6.21572E-02
 -1      3475 4.95441E-02
 -1      3476 4.60750E-02
 -1      3477 9.20695E-02
 -1      3478 7.67055E-02
 -1      3479 7.17174E-02
 -1      3480 1.28657E-01
 -1      3481 1.09863E-01
 -1      3482 1.04059E-01
 -1      3483 1.72997E-01
 -1      3484 1.50121E-01
 -1      3485 1.43317E-01
 -1      3486 2.25790E-01
 -1      3487 1.98280E-01
 -1      3488 1.90063E-01
 -1      3489 2.87835E-01
 -1      3490 2.54546E-01
 -1      3491 2.44101E-01
 -1      3492 3.57439E-01
 -1      3493 3.18895E-01
 -1      3494 3.03917E-01
 -1      3495 4.38823E-01
 -1      3496 3.96987E-01
 -1      3497 3.74525E-01
 -1      3498 5.34624E-01
 -1      3499 4.92815E-01
 -1      3500 4.68065E-01
 -1      3501 6.40460E-01
 -1      3502 5.98790E-01
 -1      3503 5.86224E-01
 -1      3504 7.86216E-01
 -1      3505 7.20924E-01
 -1      3506 7.30853E-01
 -1      3507 9.46820E-01
 -1      3508 8.69729E-01
 -1      3509 8.94830E-01
 -1      3510 1.15552E+00
 -1      3511 1.08656E+00
 -1      3512 1.11808E+00
 -1      3513 1.37229E+00
 -1      3514 1.29875E+00
 -1      3515 1.40104E+00
 -1      3516 1.79808E+00
 -1      3517 1.51145E+00
 -1      3518 1.68343E+00
 -1      3519 2.94878E+00
 -1      3520 3.00147E+00
 -1      3521 3.02598E+00
 -1      3522 3.21648E+00
 -1      3523 2.30169E+00
 -1      3524 3.58228E+00
 -1      3525 3.25274E+00
 -1      3526 3.71674E+00
 -1      3527 3.93570E+00
 -1      3528 3.23527E+00
 -1      3529 3.28910E+00
 -1      3530 2.64640E+00
 -1      3531 3.06597E+00
 -1      3532 1.00341E+01
 -1      3533 4.17723E+00
 -1      3534 4.07123E+00
 -1      3535 9.58604E+00
 -1      3536 7.45871E+00
 -1      3537 8.21623E+00
 -1      3538 8.77816E+00
 -1      3539 7.09012E+00
 -1      3540 5.25845E+00
 -1      3541 2.16250E+00
 -1      3542 2.53178E+00
 -1      3543 2.73346E+00
 -1      3544 2.20760E+00
 -1      3545 4.70038E+00
 -1      3546 1.87589E-01
 -1      3547 1.99073E-01
 -1      3548 5.79595E-02
 -1      3549 6.67005E-02
 -1      3550 7.05838E-02
 -1      3551 5.42878E-02
 -1      3552 3.15708E-01
 -1      3553 3.23278E-01
 -1      3554 2.88942E-01
 -1      3555 1.58192E-01
 -1      3556 1.71057E-01
 -1      3557 2.48343E-01
 -1      3558 2.57904E-01
 -1      3559 4.45375E+00
 -1      3560 2.15437E-01
 -1      3561 2.12011E-01
 -1      3562 1.78946E-01
 -1      3563 7.26571E+00
 -1      3564 8.88962E+00
 -1      3565 5.77181E+00
 -1      3566 5.23487E+00
 -1      3567 2.73553E-01
 -1      3568 3.21555E-01
 -1      3569 3.49778E+00
 -1      3570 1.00341E+01
 -1      3571 7.63548E+00
 -1      3572 2.53116E-01
 -1      3573 2.49756E-01
 -1      3574 2.03405E-01
 -1      3575 2.23116E-01
 -1      3576 5.56092E+00
 -1      3577 4.64468E+00
 -1      3578 4.89031E+00
 -1      3579 2.53116E-01
 -1      3580 2.17627E-01
 -1      3581 2.53116E-01
 -1      3582 1.36597E-01
 -1      3583 1.49570E-01
 -1      3584 1.44016E-01
 -1      3585 8.05956E+00
 -1      3586 1.58553E-01
 -1      3587 2.36343E-01
 -1      3588 1.82937E-01
 -1      3589 1.97212E-01
 -1      3590 1.64518E-01
 -1      3591 8.14977E+00
 -1      3592 8.58451E+00
 -1      3593 2.85414E-01
 -1      3594 1.06781E-01
 -1      3595 1.14833E-01
 -1      3596 1.27067E-01
 -1      3597 2.84404E-01
 -1      3598 8.22794E+00
 -1      3599 4.83074E+00
 -1      3600 4.63708E+00
 -1      3601 9.11987E+00
 -1      3602 2.47298E-01
 -1      3603 2.44121E-01
 -1      3604 5.72742E+00
 -1      3605 2.29367E-01
 -1      3606 2.20331E-01
 -1      3607 2.04567E-01
 -1      3608 1.90899E-01
 -1      3609 3.28387E+00
 -1      3610 2.36548E-01
 -1      3611 2.19720E-01
 -1      3612 1.88191E-01
 -1      3613 5.78308E+00
 -1      3614 5.01707E+00
 -1      3615 8.10673E+00
 -1      3616 4.95062E+00
 -1      3617 2.32292E-01
 -1      3618 2.48532E-01
 -1      3619 2.09735E-01
 -1      3620 3.99199E+00
 -1      3621 3.58499E+00
 -1      3622 1.59167E-01
 -1      3623 4.64468E+00
 -1      3624 5.78308E+00
 -1      3625 1.05347E+01
 -1      3626 2.88835E+00
 -1      3627 3.41907E+00
 -1      3628 3.73441E+00
 -1      3629 2.77373E+00
 -1      3630 1.55770E-01
 -1      3631 1.47883E-01
 -1      3632 1.43414E-01
 -1      3633 1.33526E-01
 -1      3634 1.31277E-01
 -1      3635 1.26809E-01
 -1      3636 1.18489E-01
 -1      3637 1.20090E-01
 -1      3638 1.10920E-01
 -1      3639 1.02574E-01
 -1      3640 1.05804E-01
 -1      3641 9.62575E-02
 -1      3642 8.77050E-02
 -1      3643 9.19182E-02
 -1      3644 8.10911E-02
 -1      3645 7.28255E-02
 -1      3646 7.89873E-02
 -1      3647 6.63328E-02
 -1      3648 5.85541E-02
 -1      3649 6.58806E-02
 -1      3650 5.23923E-02
 -1      3651 4.50986E-02
 -1      3652 5.32260E-02
 -1      3653 4.24006E-02
 -1      3654 3.79043E-02
 -1      3655 4.43662E-02
 -1      3656 3.88791E-02
 -1      3657 4.02192E-02
 -1      3658 4.26431E-02
 -1      3659 4.28049E-02
 -1      3660 4.77531E-02
 -1      3661 4.62037E-02
 -1      3662 5.42734E-02
 -1      3663 6.75718E-02
 -1      3664 5.53096E-02
 -1      3665 8.19380E-02
 -1      3666 9.98784E-02
 -1      3667 7.61961E-02
 -1      3668 1.18298E-01
 -1      3669 1.41514E-01
 -1      3670 1.08981E-01
 -1      3671 1.65099E-01
 -1      3672 1.95152E-01
 -1      3673 1.50986E-01
 -1      3674 2.25293E-01
 -1      3675 2.64137E-01
 -1      3676 2.04713E-01
 -1      3677 3.02656E-01
 -1      3678 3.52815E-01
 -1      3679 2.73373E-01
 -1      3680 4.02290E-01
 -1      3681 4.67163E-01
 -1      3682 3.61368E-01
 -1      3683 5.31575E-01
 -1      3684 6.15985E-01
 -1      3685 4.75255E-01
 -1      3686 7.02034E-01
 -1      3687 8.13190E-01
 -1      3688 6.25715E-01
 -1      3689 9.32871E-01
 -1      3690 1.08210E+00
 -1      3691 8.31444E-01
 -1      3692 1.25831E+00
 -1      3693 1.46344E+00
 -1      3694 1.12734E+00
 -1      3695 1.74246E+00
 -1      3696 2.02812E+00
 -1      3697 1.58257E+00
 -1      3698 2.29882E+00
 -1      3699 2.64340E+00
 -1      3700 2.13228E+00
 -1      3701 3.12953E+00
 -1      3702 4.85176E+00
 -1      3703 4.25091E+00
 -1      3704 2.88911E+00
 -1      3705 7.95459E-02
 -1      3706 8.86436E-02
 -1      3707 2.49452E-01
 -1      3708 2.52981E-01
 -1      3709 2.17323E-01
 -1      3710 3.44383E-02
 -1      3711 3.53393E-02
 -1      3712 3.51601E-02
 -1      3713 4.26131E-02
 -1      3714 3.89651E-02
 -1      3715 5.50748E-02
 -1      3716 4.39807E-02
 -1      3717 8.28283E-02
 -1      3718 6.82801E-02
 -1      3719 6.61857E-02
 -1      3720 1.17095E-01
 -1      3721 9.93012E-02
 -1      3722 9.58638E-02
 -1      3723 1.58969E-01
 -1      3724 1.37506E-01
 -1      3725 1.32748E-01
 -1      3726 2.09227E-01
 -1      3727 1.83944E-01
 -1      3728 1.78134E-01
 -1      3729 2.68011E-01
 -1      3730 2.39255E-01
 -1      3731 2.33137E-01
 -1      3732 3.34351E-01
 -1      3733 3.03291E-01
 -1      3734 2.98445E-01
 -1      3735 4.14073E-01
 -1      3736 3.74525E-01
 -1      3737 3.73899E-01
 -1      3738 5.11747E-01
 -1      3739 4.57756E-01
 -1      3740 4.57756E-01
 -1      3741 6.39306E-01
 -1      3742 5.75140E-01
 -1      3743 5.64830E-01
 -1      3744 8.00956E-01
 -1      3745 7.20493E-01
 -1      3746 7.09410E-01
 -1      3747 1.03029E+00
 -1      3748 9.46775E-01
 -1      3749 9.36415E-01
 -1      3750 1.34717E+00
 -1      3751 1.20743E+00
 -1      3752 1.25938E+00
 -1      3753 1.72709E+00
 -1      3754 1.58386E+00
 -1      3755 1.67321E+00
 -1      3756 2.11653E+00
 -1      3757 1.97737E+00
 -1      3758 2.16019E+00
 -1      3759 4.43702E+00
 -1      3760 3.23363E+00
 -1      3761 3.78993E+00
 -1      3762 4.43702E+00
 -1      3763 3.21648E+00
 -1      3764 1.55800E+00
 -1      3765 2.52981E-01
 -1      3766 2.11336E-01
 -1      3767 2.52981E-01
 -1      3768 1.67891E-01
 -1      3769 1.53136E-01
 -1      3770 1.36159E-01
 -1      3771 4.34427E+00
 -1      3772 4.22177E+00
 -1      3773 2.42366E-01
 -1      3774 2.46568E-01
 -1      3775 2.11078E-01
 -1      3776 1.85279E-01
 -1      3777 2.25946E+00
 -1      3778 1.60438E+00
 -1      3779 1.84275E+00
 -1      3780 3.21467E+00
 -1      3781 1.16829E-01
 -1      3782 1.33193E-01
 -1      3783 1.10799E-01
 -1      3784 4.54020E+00
 -1      3785 2.07565E-01
 -1      3786 2.25882E-01
 -1      3787 2.03514E-01
 -1      3788 1.59676E-01
 -1      3789 1.56085E-01
 -1      3790 1.36061E-01
 -1      3791 1.45661E-01
 -1      3792 1.49690E-01
 -1      3793 1.26391E-01
 -1      3794 1.03937E-01
 -1      3795 3.73441E+00
 -1      3796 2.56693E-01
 -1      3797 2.19317E-01
 -1      3798 3.87179E-02
 -1      3799 3.60936E-02
 -1      3800 4.77177E-02
 -1      3801 1.66432E-01
 -1      3802 2.25399E+00
 -1      3803 2.40888E+00
 -1      3804 1.25864E-01
 -1      3805 8.75614E-02
 -1      3806 9.61455E-02
 -1      3807 1.05698E-01
 -1      3808 1.85625E-01
 -1      3809 1.85321E-01
 -1      3810 2.17019E-01
 -1      3811 4.14141E+00
 -1      3812 1.46814E-01
 -1      3813 1.58694E-01
 -1      3814 1.78248E-01
 -1      3815 1.78059E-01
 -1      3816 4.07996E-02
 -1      3817 4.53046E-02
 -1      3818 4.91317E-02
 -1      3819 5.69792E-02
 -1      3820 4.64468E+00
 -1      3821 1.40833E-01
 -1      3822 1.60083E-01
 -1      3823 1.41236E-01
 -1      3824 4.22298E+00
 -1      3825 3.86641E+00
 -1      3826 4.17994E+00
 -1      3827 1.30174E-01
 -1      3828 1.38795E-01
 -1      3829 1.32972E-01
 -1      3830 1.73574E-01
 -1      3831 3.53930E+00
 -1      3832 4.08952E+00
 -1      3833 3.05284E+00
 -1      3834 7.22801E-02
 -1      3835 7.27938E-02
 -1      3836 6.38317E-02
 -1      3837 1.62592E-01
 -1      3838 2.85903E+00
 -1      3839 3.77321E+00
 -1      3840 3.52757E+00
 -1      3841 1.31105E-01
 -1      3842 1.85625E-01
 -1      3843 1.85625E-01
 -1      3844 1.53622E-01
 -1      3845 1.86751E-01
 -1      3846 1.64520E-01
 -1      3847 1.74874E-01
 -1      3848 1.46817E-01
 -1      3849 1.12388E-01
 -1      3850 1.05671E-01
 -1      3851 1.00936E-01
 -1      3852 9.33668E-02
 -1      3853 9.32335E-02
 -1      3854 8.76458E-02
 -1      3855 8.13289E-02
 -1      3856 8.27775E-02
 -1      3857 7.54095E-02
 -1      3858 6.87955E-02
 -1      3859 7.11371E-02
 -1      3860 6.38850E-02
 -1      3861 5.73922E-02
 -1      3862 6.03071E-02
 -1      3863 5.34667E-02
 -1      3864 4.73048E-02
 -1      3865 5.14711E-02
 -1      3866 4.68410E-02
 -1      3867 4.41431E-02
 -1      3868 4.70817E-02
 -1      3869 4.43150E-02
 -1      3870 4.52899E-02
 -1      3871 4.67899E-02
 -1      3872 4.72823E-02
 -1      3873 4.98680E-02
 -1      3874 4.89543E-02
 -1      3875 5.39034E-02
 -1      3876 6.04236E-02
 -1      3877 5.49820E-02
 -1      3878 6.87659E-02
 -1      3879 8.31322E-02
 -1      3880 6.73597E-02
 -1      3881 9.46474E-02
 -1      3882 1.13066E-01
 -1      3883 8.72172E-02
 -1      3884 1.28497E-01
 -1      3885 1.52083E-01
 -1      3886 1.14163E-01
 -1      3887 1.72394E-01
 -1      3888 2.02535E-01
 -1      3889 1.49906E-01
 -1      3890 2.29032E-01
 -1      3891 2.67551E-01
 -1      3892 1.96713E-01
 -1      3893 3.03125E-01
 -1      3894 3.52600E-01
 -1      3895 2.58783E-01
 -1      3896 3.99756E-01
 -1      3897 4.64168E-01
 -1      3898 3.41513E-01
 -1      3899 5.27265E-01
 -1      3900 6.13314E-01
 -1      3901 4.51766E-01
 -1      3902 7.00114E-01
 -1      3903 8.19794E-01
 -1      3904 6.01664E-01
 -1      3905 9.44358E-01
 -1      3906 1.12057E+00
 -1      3907 8.13028E-01
 -1      3908 1.31058E+00
 -1      3909 1.58960E+00
 -1      3910 1.12760E+00
 -1      3911 1.75849E+00
 -1      3912 2.02919E+00
 -1      3913 1.48650E+00
 -1      3914 2.52599E+00
 -1      3915 3.01212E+00
 -1      3916 2.15220E+00
 -1      3917 1.85012E-01
 -1      3918 1.85012E-01
 -1      3919 1.53313E-01
 -1      3920 1.82795E-01
 -1      3921 1.51118E-01
 -1      3922 1.76385E-01
 -1      3923 1.41566E-01
 -1      3924 4.48227E-02
 -1      3925 4.31674E-02
 -1      3926 1.03137E-01
 -1      3927 8.66637E-02
 -1      3928 7.28356E-02
 -1      3929 5.96304E-02
 -1      3930 8.01084E-02
 -1      3931 1.88561E-01
 -1      3932 1.63586E-01
 -1      3933 2.46807E-01
 -1      3934 2.16779E-01
 -1      3935 2.02231E-01
 -1      3936 3.17393E-01
 -1      3937 2.82113E-01
 -1      3938 2.65755E-01
 -1      3939 4.01423E-01
 -1      3940 3.61249E-01
 -1      3941 3.44917E-01
 -1      3942 4.99122E-01
 -1      3943 4.55440E-01
 -1      3944 4.42790E-01
 -1      3945 6.28223E-01
 -1      3946 5.64830E-01
 -1      3947 5.62515E-01
 -1      3948 7.87640E-01
 -1      3949 7.06454E-01
 -1      3950 7.06454E-01
 -1      3951 1.05939E+00
 -1      3952 9.13576E-01
 -1      3953 9.10619E-01
 -1      3954 1.45988E+00
 -1      3955 1.28273E+00
 -1      3956 1.25989E+00
 -1      3957 2.08984E+00
 -1      3958 1.85315E+00
 -1      3959 1.87651E+00
 -1      3960 3.52757E+00
 -1      3961 1.22236E-01
 -1      3962 3.77829E+00
 -1      3963 1.72732E-01
 -1      3964 1.79281E-01
 -1      3965 1.47279E-01
 -1      3966 1.28286E-01
 -1      3967 5.30763E-02
 -1      3968 4.78135E-02
 -1      3969 5.01814E-02
 -1      3970 4.17646E-02
 -1      3971 4.15854E-02
 -1      3972 4.57877E-02
 -1      3973 1.41195E-01
 -1      3974 1.20784E-01
 -1      3975 1.11583E-01
 -1      3976 1.12829E-01
 -1      3977 1.22359E-01
 -1      3978 1.17139E-01
 -1      3979 1.02194E-01
 -1      3980 1.19218E-01
 -1      3981 1.18903E-01
 -1      3982 1.43753E-01
 -1      3983 1.19596E-01
 -1      3984 1.15126E-01
 -1      3985 1.00707E-01
 -1      3986 1.51622E-01
 -1      3987 7.67688E-02
 -1      3988 8.42707E-02
 -1      3989 1.27409E-01
 -1      3990 1.27100E-01
 -1      3991 1.54154E-01
 -1      3992 1.27409E-01
 -1      3993 1.27409E-01
 -1      3994 1.01195E-01
 -1      3995 4.86618E-02
 -1      3996 5.51804E-02
 -1      3997 5.14612E-02
 -1      3998 1.30132E-01
 -1      3999 1.25585E-01
 -1      4000 5.97262E-02
 -1      4001 2.41047E+00
 -1      4002 2.60428E+00
 -1      4003 2.35400E+00
 -1      4004 1.23524E-01
 -1      4005 9.27569E-02
 -1      4006 1.05225E-01
 -1      4007 9.76200E-02
 -1      4008 2.53393E+00
 -1      4009 1.29238E-01
 -1      4010 1.35064E-01
 -1      4011 3.05065E+00
 -1      4012 1.10573E-01
 -1      4013 9.34149E-02
 -1      4014 1.00587E-01
 -1      4015 3.46840E+00
 -1      4016 2.72719E+00
 -1      4017 3.05430E+00
 -1      4018 5.86756E-02
 -1      4019 6.42426E-02
 -1      4020 7.15083E-02
 -1      4021 6.82176E-02
 -1      4022 3.05284E+00
 -1      4023 2.60428E+00
 -1      4024 1.22767E-01
 -1      4025 1.17776E-01
 -1      4026 1.25794E-01
 -1      4027 1.14042E-01
 -1      4028 1.02753E-01
 -1      4029 2.79808E+00
 -1      4030 2.53393E+00
 -1      4031 1.54793E-01
 -1      4032 1.32401E-01
 -1      4033 8.49273E-02
 -1      4034 7.92063E-02
 -1      4035 7.23330E-02
 -1      4036 6.64136E-02
 -1      4037 7.44828E-02
 -1      4038 6.10697E-02
 -1      4039 5.61591E-02
 -1      4040 6.22655E-02
 -1      4041 5.31692E-02
 -1      4042 4.92436E-02
 -1      4043 5.39317E-02
 -1      4044 5.59393E-02
 -1      4045 5.54755E-02
 -1      4046 5.76374E-02
 -1      4047 4.67899E-02
 -1      4048 4.69618E-02
 -1      4049 5.56475E-02
 -1      4050 4.89543E-02
 -1      4051 5.09467E-02
 -1      4052 4.89543E-02
 -1      4053 5.49764E-02
 -1      4054 5.90118E-02
 -1      4055 5.49764E-02
 -1      4056 6.64604E-02
 -1      4057 7.48027E-02
 -1      4058 6.64547E-02
 -1      4059 8.50904E-02
 -1      4060 9.66056E-02
 -1      4061 8.41911E-02
 -1      4062 1.10265E-01
 -1      4063 1.25696E-01
 -1      4064 1.08138E-01
 -1      4065 1.43363E-01
 -1      4066 1.63675E-01
 -1      4067 1.39465E-01
 -1      4068 1.86145E-01
 -1      4069 2.12641E-01
 -1      4070 1.79602E-01
 -1      4071 2.41828E-01
 -1      4072 2.77401E-01
 -1      4073 2.31259E-01
 -1      4074 3.15020E-01
 -1      4075 3.62176E-01
 -1      4076 2.98064E-01
 -1      4077 4.12794E-01
 -1      4078 4.75891E-01
 -1      4079 3.86300E-01
 -1      4080 5.68928E-01
 -1      4081 6.55728E-01
 -1      4082 5.29955E-01
 -1      4083 7.94038E-01
 -1      4084 9.18603E-01
 -1      4085 7.61303E-01
 -1      4086 1.12761E+00
 -1      4087 1.31762E+00
 -1      4088 1.10862E+00
 -1      4089 1.63343E+00
 -1      4090 1.80233E+00
 -1      4091 1.63345E+00
 -1      4092 2.15585E+00
 -1      4093 2.65265E+00
 -1      4094 3.05430E+00
 -1      4095 2.30278E+00
 -1      4096 1.34473E-01
 -1      4097 1.35984E-01
 -1      4098 1.16894E-01
 -1      4099 8.41360E-02
 -1      4100 9.49286E-02
 -1      4101 1.02059E-01
 -1      4102 1.10450E-01
 -1      4103 6.59143E-02
 -1      4104 5.93603E-02
 -1      4105 2.71075E-01
 -1      4106 2.35769E-01
 -1      4107 2.05043E-01
 -1      4108 1.76826E-01
 -1      4109 1.57605E-01
 -1      4110 2.10363E-01
 -1      4111 4.66863E-01
 -1      4112 4.12846E-01
 -1      4113 6.25608E-01
 -1      4114 5.59899E-01
 -1      4115 5.29955E-01
 -1      4116 8.42149E-01
 -1      4117 7.63918E-01
 -1      4118 7.61303E-01
 -1      4119 1.17709E+00
 -1      4120 1.05116E+00
 -1      4121 1.10862E+00
 -1      4122 1.71624E+00
 -1      4123 1.49291E+00
 -1      4124 1.63345E+00
 -1      4125 2.46304E+00
 -1      4126 2.06976E+00
 -1      4127 2.30278E+00
 -1      4128 2.72719E+00
 -1      4129 5.31722E-02
 -1      4130 5.01814E-02
 -1      4131 5.93603E-02
 -1      4132 9.17421E-02
 -1      4133 9.24349E-02
 -1      4134 9.41898E-02
 -1      4135 9.14513E-02
 -1      4136 8.31793E-02
 -1      4137 1.17683E-01
 -1      4138 1.00037E-01
 -1      4139 1.20854E-01
 -1      4140 5.52802E-02
 -1      4141 6.21326E-02
 -1      4142 5.86374E-02
 -1      4143 3.55491E-01
 -1      4144 3.11635E-01
 -1      4145 3.79564E-01
 -1      4146 8.50838E-02
 -1      4147 8.03488E-02
 -1      4148 7.85667E-02
 -1      4149 4.71905E-02
 -1      4150 4.57877E-02
 -1      4151 5.01814E-02
 -1      4152 8.84814E-02
 -1      4153 7.46533E-02
 -1      4154 7.42874E-02
 -1      4155 1.12223E-01
 -1      4156 1.05045E-01
 -1      4157 1.04408E-01
 -1      4158 2.65630E+00
 -1      4159 9.45815E-02
 -1      4160 7.74171E-02
 -1      4161 8.80750E-02
 -1      4162 5.43590E-02
 -1      4163 6.14354E-02
 -1      4164 5.57618E-02
 -1      4165 2.81649E-01
 -1      4166 7.67776E-02
 -1      4167 2.65630E+00
 -1      4168 9.96358E-02
 -1      4169 1.03079E-01
 -1      4170 8.94074E-02
 -1      4171 8.15032E-02
 -1      4172 7.11854E-02
 -1      4173 7.28583E-02
 -1      4174 1.02349E-01
 -1      4175 1.01757E-01
 -1      4176 8.79427E-02
 -1      4177 6.08471E-02
 -1      4178 1.01823E-01
 -1      4179 1.19992E-01
 -1      4180 1.26335E-01
 -1      4181 9.69818E-02
 -1      4182 9.11298E-02
 -1      4183 8.24366E-02
 -1      4184 6.52833E-02
 -1      4185 7.05438E-02
 -1      4186 7.44828E-02
 -1      4187 8.83546E-02
 -1      4188 7.61303E-01
 -1      4189 6.22992E-01
 -1      4190 6.76094E-02
 -1      4191 6.22655E-02
 -1      4192 5.76374E-02
 -1      4193 6.43331E-02
 -1      4194 6.43331E-02
 -1      4195 5.56475E-02
 -1      4196 4.70762E-02
 -1      4197 4.90686E-02
 -1      4198 5.20594E-02
 -1      4199 5.60891E-02
 -1      4200 6.22772E-02
 -1      4201 6.97258E-02
 -1      4202 7.84649E-02
 -1      4203 8.87526E-02
 -1      4204 1.00308E-01
 -1      4205 1.13967E-01
 -1      4206 1.28685E-01
 -1      4207 1.46352E-01
 -1      4208 1.68385E-01
 -1      4209 1.90855E-01
 -1      4210 2.21581E-01
 -1      4211 2.50767E-01
 -1      4212 2.91327E-01
 -1      4213 3.28946E-01
 -1      4214 3.86300E-01
 -1      4215 4.36918E-01
 -1      4216 5.29955E-01
 -1      4217 8.99613E-01
 -1      4218 1.10862E+00
 -1      4219 1.31763E+00
 -1      4220 1.63345E+00
 -1      4221 1.94926E+00
 -1      4222 7.99763E-02
 -1      4223 7.64010E-02
 -1      4224 2.30278E+00
 -1      4225 9.77662E-02
 -1      4226 8.68038E-02
 -1      4227 9.22131E-02
 -1      4228 8.50488E-02
 -1      4229 8.68038E-02
 -1      4230 7.17636E-02
 -1      4231 9.71429E-02
 -1      4232 6.14354E-02
 -1      4233 6.15351E-02
 -1      4234 8.49342E-02
 -1      4235 7.85667E-02
 -1      4236 8.13561E-02
 -1      4237 7.44828E-02
 -1      4238 5.87371E-02
 -1      4239 6.08471E-02
 -1      4240 6.31733E-02
 -1      4241 6.15351E-02
 -1      4242 7.99763E-02
 -1      4243 7.99763E-02
 -1      4244 5.87573E-02
 -1      4245 8.43182E-02
 -1      4246 5.98519E-02
 -1      4247 8.80750E-02
 -1      4248 8.80750E-02
 -1      4249 6.04370E-02
 -1      4250 6.04370E-02
 -1      4251 6.15317E-02
 -1      4252 5.78294E-02
 -1      4253 9.47939E-02
 -1      4254 9.71429E-02
 -1      4255 6.43331E-02
 -1      4256 5.48394E-02
 -1      4257 8.98641E-02
 -1      4258 8.34966E-02
 -1      4259 2.65630E+00
 -1      4260 1.00122E-01
 -1      4261 7.46644E-02
 -1      4262 6.98890E-02
 -1      4263 8.94282E-02
 -1      4264 6.82092E-02
 -1      4265 7.40793E-02
 -3
 9999
