    1C
    1UUSER                                                              
    1UDATE              26.october.2022                                 
    1UTIME              23:55:54                                        
    1UHOST                                                              
    1UPGM               CalculiX                                        
    1UVERSION           Version 2.17                             
    1UCOMPILETIME       Thu Jul 23 21:43:50 CEST 2020                    
    1UDIR                                                               
    1UDBN                                                               
    1UMAT    1SOLIDMATERIAL                                             
    2C                          4320                                     1
 -1         1 7.06983E+01 2.63636E+01 0.00000E+00
 -1         2 8.35882E+01 2.25809E+01 0.00000E+00
 -1         3 1.50000E+02 0.00000E+00 0.00000E+00
 -1         4 1.50000E+02 5.00000E+01 0.00000E+00
 -1         5 0.00000E+00 0.00000E+00 0.00000E+00
 -1         6 0.00000E+00 5.00000E+01 0.00000E+00
 -1         7 0.00000E+00 4.70500E+01 0.00000E+00
 -1         8 0.00000E+00 4.41000E+01 0.00000E+00
 -1         9 0.00000E+00 4.11500E+01 0.00000E+00
 -1        10 0.00000E+00 3.82000E+01 0.00000E+00
 -1        11 0.00000E+00 3.52500E+01 0.00000E+00
 -1        12 0.00000E+00 3.23500E+01 0.00000E+00
 -1        13 0.00000E+00 2.94000E+01 0.00000E+00
 -1        14 0.00000E+00 2.64500E+01 0.00000E+00
 -1        15 0.00000E+00 2.35000E+01 0.00000E+00
 -1        16 0.00000E+00 2.05500E+01 0.00000E+00
 -1        17 0.00000E+00 1.76000E+01 0.00000E+00
 -1        18 0.00000E+00 1.47000E+01 0.00000E+00
 -1        19 0.00000E+00 1.17500E+01 0.00000E+00
 -1        20 0.00000E+00 8.80000E+00 0.00000E+00
 -1        21 0.00000E+00 5.85000E+00 0.00000E+00
 -1        22 0.00000E+00 2.90000E+00 0.00000E+00
 -1        23 3.15000E+00 5.00000E+01 0.00000E+00
 -1        24 6.15000E+00 5.00000E+01 0.00000E+00
 -1        25 9.15000E+00 5.00000E+01 0.00000E+00
 -1        26 1.21500E+01 5.00000E+01 0.00000E+00
 -1        27 1.51500E+01 5.00000E+01 0.00000E+00
 -1        28 1.81500E+01 5.00000E+01 0.00000E+00
 -1        29 2.11500E+01 5.00000E+01 0.00000E+00
 -1        30 2.41500E+01 5.00000E+01 0.00000E+00
 -1        31 2.71500E+01 5.00000E+01 0.00000E+00
 -1        32 3.01500E+01 5.00000E+01 0.00000E+00
 -1        33 3.31500E+01 5.00000E+01 0.00000E+00
 -1        34 3.61500E+01 5.00000E+01 0.00000E+00
 -1        35 3.91500E+01 5.00000E+01 0.00000E+00
 -1        36 4.21500E+01 5.00000E+01 0.00000E+00
 -1        37 4.51500E+01 5.00000E+01 0.00000E+00
 -1        38 4.81500E+01 5.00000E+01 0.00000E+00
 -1        39 5.11500E+01 5.00000E+01 0.00000E+00
 -1        40 5.41500E+01 5.00000E+01 0.00000E+00
 -1        41 5.71500E+01 5.00000E+01 0.00000E+00
 -1        42 6.01500E+01 5.00000E+01 0.00000E+00
 -1        43 6.31500E+01 5.00000E+01 0.00000E+00
 -1        44 6.61500E+01 5.00000E+01 0.00000E+00
 -1        45 6.91500E+01 5.00000E+01 0.00000E+00
 -1        46 7.21500E+01 5.00000E+01 0.00000E+00
 -1        47 7.51500E+01 5.00000E+01 0.00000E+00
 -1        48 7.81500E+01 5.00000E+01 0.00000E+00
 -1        49 8.11500E+01 5.00000E+01 0.00000E+00
 -1        50 8.41500E+01 5.00000E+01 0.00000E+00
 -1        51 8.71500E+01 5.00000E+01 0.00000E+00
 -1        52 9.01500E+01 5.00000E+01 0.00000E+00
 -1        53 9.31500E+01 5.00000E+01 0.00000E+00
 -1        54 9.61500E+01 5.00000E+01 0.00000E+00
 -1        55 9.91500E+01 5.00000E+01 0.00000E+00
 -1        56 1.02150E+02 5.00000E+01 0.00000E+00
 -1        57 1.05150E+02 5.00000E+01 0.00000E+00
 -1        58 1.08150E+02 5.00000E+01 0.00000E+00
 -1        59 1.11150E+02 5.00000E+01 0.00000E+00
 -1        60 1.14150E+02 5.00000E+01 0.00000E+00
 -1        61 1.17150E+02 5.00000E+01 0.00000E+00
 -1        62 1.20150E+02 5.00000E+01 0.00000E+00
 -1        63 1.23150E+02 5.00000E+01 0.00000E+00
 -1        64 1.26150E+02 5.00000E+01 0.00000E+00
 -1        65 1.29150E+02 5.00000E+01 0.00000E+00
 -1        66 1.32150E+02 5.00000E+01 0.00000E+00
 -1        67 1.35150E+02 5.00000E+01 0.00000E+00
 -1        68 1.38150E+02 5.00000E+01 0.00000E+00
 -1        69 1.41150E+02 5.00000E+01 0.00000E+00
 -1        70 1.44150E+02 5.00000E+01 0.00000E+00
 -1        71 1.47150E+02 5.00000E+01 0.00000E+00
 -1        72 3.15000E+00 0.00000E+00 0.00000E+00
 -1        73 6.15000E+00 0.00000E+00 0.00000E+00
 -1        74 9.15000E+00 0.00000E+00 0.00000E+00
 -1        75 1.21500E+01 0.00000E+00 0.00000E+00
 -1        76 1.51500E+01 0.00000E+00 0.00000E+00
 -1        77 1.81500E+01 0.00000E+00 0.00000E+00
 -1        78 2.11500E+01 0.00000E+00 0.00000E+00
 -1        79 2.41500E+01 0.00000E+00 0.00000E+00
 -1        80 2.71500E+01 0.00000E+00 0.00000E+00
 -1        81 3.01500E+01 0.00000E+00 0.00000E+00
 -1        82 3.31500E+01 0.00000E+00 0.00000E+00
 -1        83 3.61500E+01 0.00000E+00 0.00000E+00
 -1        84 3.91500E+01 0.00000E+00 0.00000E+00
 -1        85 4.21500E+01 0.00000E+00 0.00000E+00
 -1        86 4.51500E+01 0.00000E+00 0.00000E+00
 -1        87 4.81500E+01 0.00000E+00 0.00000E+00
 -1        88 5.11500E+01 0.00000E+00 0.00000E+00
 -1        89 5.41500E+01 0.00000E+00 0.00000E+00
 -1        90 5.71500E+01 0.00000E+00 0.00000E+00
 -1        91 6.01500E+01 0.00000E+00 0.00000E+00
 -1        92 6.31500E+01 0.00000E+00 0.00000E+00
 -1        93 6.61500E+01 0.00000E+00 0.00000E+00
 -1        94 6.91500E+01 0.00000E+00 0.00000E+00
 -1        95 7.21500E+01 0.00000E+00 0.00000E+00
 -1        96 7.51500E+01 0.00000E+00 0.00000E+00
 -1        97 7.81500E+01 0.00000E+00 0.00000E+00
 -1        98 8.11500E+01 0.00000E+00 0.00000E+00
 -1        99 8.41500E+01 0.00000E+00 0.00000E+00
 -1       100 8.71500E+01 0.00000E+00 0.00000E+00
 -1       101 9.01500E+01 0.00000E+00 0.00000E+00
 -1       102 9.31500E+01 0.00000E+00 0.00000E+00
 -1       103 9.61500E+01 0.00000E+00 0.00000E+00
 -1       104 9.91500E+01 0.00000E+00 0.00000E+00
 -1       105 1.02150E+02 0.00000E+00 0.00000E+00
 -1       106 1.05150E+02 0.00000E+00 0.00000E+00
 -1       107 1.08150E+02 0.00000E+00 0.00000E+00
 -1       108 1.11150E+02 0.00000E+00 0.00000E+00
 -1       109 1.14150E+02 0.00000E+00 0.00000E+00
 -1       110 1.17150E+02 0.00000E+00 0.00000E+00
 -1       111 1.20150E+02 0.00000E+00 0.00000E+00
 -1       112 1.23150E+02 0.00000E+00 0.00000E+00
 -1       113 1.26150E+02 0.00000E+00 0.00000E+00
 -1       114 1.29150E+02 0.00000E+00 0.00000E+00
 -1       115 1.32150E+02 0.00000E+00 0.00000E+00
 -1       116 1.35150E+02 0.00000E+00 0.00000E+00
 -1       117 1.38150E+02 0.00000E+00 0.00000E+00
 -1       118 1.41150E+02 0.00000E+00 0.00000E+00
 -1       119 1.44150E+02 0.00000E+00 0.00000E+00
 -1       120 1.47150E+02 0.00000E+00 0.00000E+00
 -1       121 1.50000E+02 2.95000E+00 0.00000E+00
 -1       122 1.50000E+02 5.90000E+00 0.00000E+00
 -1       123 1.50000E+02 8.85000E+00 0.00000E+00
 -1       124 1.50000E+02 1.18000E+01 0.00000E+00
 -1       125 1.50000E+02 1.47500E+01 0.00000E+00
 -1       126 1.50000E+02 1.76500E+01 0.00000E+00
 -1       127 1.50000E+02 2.06000E+01 0.00000E+00
 -1       128 1.50000E+02 2.35500E+01 0.00000E+00
 -1       129 1.50000E+02 2.65000E+01 0.00000E+00
 -1       130 1.50000E+02 2.94500E+01 0.00000E+00
 -1       131 1.50000E+02 3.24000E+01 0.00000E+00
 -1       132 1.50000E+02 3.53000E+01 0.00000E+00
 -1       133 1.50000E+02 3.82500E+01 0.00000E+00
 -1       134 1.50000E+02 4.12000E+01 0.00000E+00
 -1       135 1.50000E+02 4.41500E+01 0.00000E+00
 -1       136 1.50000E+02 4.71000E+01 0.00000E+00
 -1       137 8.34491E+01 2.11925E+01 0.00000E+00
 -1       138 8.30078E+01 1.97900E+01 0.00000E+00
 -1       139 8.22608E+01 1.84795E+01 0.00000E+00
 -1       140 8.13367E+01 1.74378E+01 0.00000E+00
 -1       141 8.02378E+01 1.66075E+01 0.00000E+00
 -1       142 7.89335E+01 1.59855E+01 0.00000E+00
 -1       143 7.75388E+01 1.56457E+01 0.00000E+00
 -1       144 7.59703E+01 1.56082E+01 0.00000E+00
 -1       145 7.45486E+01 1.58846E+01 0.00000E+00
 -1       146 7.31740E+01 1.64699E+01 0.00000E+00
 -1       147 7.19890E+01 1.73038E+01 0.00000E+00
 -1       148 7.09673E+01 1.84088E+01 0.00000E+00
 -1       149 7.02419E+01 1.96272E+01 0.00000E+00
 -1       150 6.97794E+01 2.09559E+01 0.00000E+00
 -1       151 6.95923E+01 2.23412E+01 0.00000E+00
 -1       152 6.96834E+01 2.37314E+01 0.00000E+00
 -1       153 7.00733E+01 2.51416E+01 0.00000E+00
 -1       154 7.16437E+01 2.75359E+01 0.00000E+00
 -1       155 7.27723E+01 2.84494E+01 0.00000E+00
 -1       156 7.41329E+01 2.91362E+01 0.00000E+00
 -1       157 7.55829E+01 2.95083E+01 0.00000E+00
 -1       158 7.71433E+01 2.95588E+01 0.00000E+00
 -1       159 7.85546E+01 2.92990E+01 0.00000E+00
 -1       160 7.99589E+01 2.87158E+01 0.00000E+00
 -1       161 8.11807E+01 2.78638E+01 0.00000E+00
 -1       162 8.21842E+01 2.67861E+01 0.00000E+00
 -1       163 8.29510E+01 2.54988E+01 0.00000E+00
 -1       164 8.34158E+01 2.41246E+01 0.00000E+00
 -1       165 2.59800E+00 4.55750E+01 0.00000E+00
 -1       166 2.59800E+00 4.26250E+01 0.00000E+00
 -1       167 2.59800E+00 3.96750E+01 0.00000E+00
 -1       168 2.59800E+00 3.67250E+01 0.00000E+00
 -1       169 2.59800E+00 3.38250E+01 0.00000E+00
 -1       170 2.59800E+00 3.08750E+01 0.00000E+00
 -1       171 2.59800E+00 2.79250E+01 0.00000E+00
 -1       172 2.59800E+00 2.49750E+01 0.00000E+00
 -1       173 2.59800E+00 2.20250E+01 0.00000E+00
 -1       174 2.59800E+00 1.90750E+01 0.00000E+00
 -1       175 2.59800E+00 1.61750E+01 0.00000E+00
 -1       176 2.59800E+00 1.32250E+01 0.00000E+00
 -1       177 2.59800E+00 1.02750E+01 0.00000E+00
 -1       178 2.59800E+00 7.32500E+00 0.00000E+00
 -1       179 2.59800E+00 4.37500E+00 0.00000E+00
 -1       180 2.87400E+00 2.18750E+00 0.00000E+00
 -1       181 4.65000E+00 4.74020E+01 0.00000E+00
 -1       182 7.65000E+00 4.74020E+01 0.00000E+00
 -1       183 1.06500E+01 4.74020E+01 0.00000E+00
 -1       184 1.36500E+01 4.74020E+01 0.00000E+00
 -1       185 1.66500E+01 4.74020E+01 0.00000E+00
 -1       186 1.96500E+01 4.74020E+01 0.00000E+00
 -1       187 2.26500E+01 4.74020E+01 0.00000E+00
 -1       188 2.56500E+01 4.74020E+01 0.00000E+00
 -1       189 2.86500E+01 4.74020E+01 0.00000E+00
 -1       190 3.16500E+01 4.74020E+01 0.00000E+00
 -1       191 3.46500E+01 4.74020E+01 0.00000E+00
 -1       192 3.76500E+01 4.74020E+01 0.00000E+00
 -1       193 4.06500E+01 4.74020E+01 0.00000E+00
 -1       194 4.36500E+01 4.74020E+01 0.00000E+00
 -1       195 4.66500E+01 4.74020E+01 0.00000E+00
 -1       196 4.96500E+01 4.74020E+01 0.00000E+00
 -1       197 5.26500E+01 4.74020E+01 0.00000E+00
 -1       198 5.56500E+01 4.74020E+01 0.00000E+00
 -1       199 5.86500E+01 4.74020E+01 0.00000E+00
 -1       200 6.16500E+01 4.74020E+01 0.00000E+00
 -1       201 6.46500E+01 4.74020E+01 0.00000E+00
 -1       202 6.76500E+01 4.74020E+01 0.00000E+00
 -1       203 7.06500E+01 4.74020E+01 0.00000E+00
 -1       204 7.36500E+01 4.74020E+01 0.00000E+00
 -1       205 7.66500E+01 4.74020E+01 0.00000E+00
 -1       206 7.96500E+01 4.74020E+01 0.00000E+00
 -1       207 8.26500E+01 4.74020E+01 0.00000E+00
 -1       208 8.56500E+01 4.74020E+01 0.00000E+00
 -1       209 8.86500E+01 4.74020E+01 0.00000E+00
 -1       210 9.16500E+01 4.74020E+01 0.00000E+00
 -1       211 9.46500E+01 4.74020E+01 0.00000E+00
 -1       212 9.76500E+01 4.74020E+01 0.00000E+00
 -1       213 1.00650E+02 4.74020E+01 0.00000E+00
 -1       214 1.03650E+02 4.74020E+01 0.00000E+00
 -1       215 1.06650E+02 4.74020E+01 0.00000E+00
 -1       216 1.09650E+02 4.74020E+01 0.00000E+00
 -1       217 1.12650E+02 4.74020E+01 0.00000E+00
 -1       218 1.15650E+02 4.74020E+01 0.00000E+00
 -1       219 1.18650E+02 4.74020E+01 0.00000E+00
 -1       220 1.21650E+02 4.74020E+01 0.00000E+00
 -1       221 1.24650E+02 4.74020E+01 0.00000E+00
 -1       222 1.27650E+02 4.74020E+01 0.00000E+00
 -1       223 1.30650E+02 4.74020E+01 0.00000E+00
 -1       224 1.33650E+02 4.74020E+01 0.00000E+00
 -1       225 1.36650E+02 4.74020E+01 0.00000E+00
 -1       226 1.39650E+02 4.74020E+01 0.00000E+00
 -1       227 1.42650E+02 4.74020E+01 0.00000E+00
 -1       228 1.45650E+02 4.74020E+01 0.00000E+00
 -1       229 5.87400E+00 2.18750E+00 0.00000E+00
 -1       230 8.87400E+00 2.18750E+00 0.00000E+00
 -1       231 1.18740E+01 2.18750E+00 0.00000E+00
 -1       232 1.48740E+01 2.18750E+00 0.00000E+00
 -1       233 1.78740E+01 2.18750E+00 0.00000E+00
 -1       234 2.08740E+01 2.18750E+00 0.00000E+00
 -1       235 2.38740E+01 2.18750E+00 0.00000E+00
 -1       236 2.68740E+01 2.18750E+00 0.00000E+00
 -1       237 2.98740E+01 2.18750E+00 0.00000E+00
 -1       238 3.28740E+01 2.18750E+00 0.00000E+00
 -1       239 3.58740E+01 2.18750E+00 0.00000E+00
 -1       240 3.88740E+01 2.18750E+00 0.00000E+00
 -1       241 4.18740E+01 2.18750E+00 0.00000E+00
 -1       242 4.48740E+01 2.18750E+00 0.00000E+00
 -1       243 4.78740E+01 2.18750E+00 0.00000E+00
 -1       244 5.08740E+01 2.18750E+00 0.00000E+00
 -1       245 5.38740E+01 2.18750E+00 0.00000E+00
 -1       246 5.68740E+01 2.18750E+00 0.00000E+00
 -1       247 5.98740E+01 2.18750E+00 0.00000E+00
 -1       248 6.28740E+01 2.18750E+00 0.00000E+00
 -1       249 6.58740E+01 2.18750E+00 0.00000E+00
 -1       250 6.88740E+01 2.18750E+00 0.00000E+00
 -1       251 7.18740E+01 2.18750E+00 0.00000E+00
 -1       252 7.48740E+01 2.18750E+00 0.00000E+00
 -1       253 7.78740E+01 2.18750E+00 0.00000E+00
 -1       254 8.08740E+01 2.18750E+00 0.00000E+00
 -1       255 8.38740E+01 2.18750E+00 0.00000E+00
 -1       256 8.68740E+01 2.18750E+00 0.00000E+00
 -1       257 8.98740E+01 2.18750E+00 0.00000E+00
 -1       258 9.28740E+01 2.18750E+00 0.00000E+00
 -1       259 9.58740E+01 2.18750E+00 0.00000E+00
 -1       260 9.88740E+01 2.18750E+00 0.00000E+00
 -1       261 1.01874E+02 2.18750E+00 0.00000E+00
 -1       262 1.04874E+02 2.18750E+00 0.00000E+00
 -1       263 1.07874E+02 2.18750E+00 0.00000E+00
 -1       264 1.10874E+02 2.18750E+00 0.00000E+00
 -1       265 1.13874E+02 2.18750E+00 0.00000E+00
 -1       266 1.16874E+02 2.18750E+00 0.00000E+00
 -1       267 1.19874E+02 2.18750E+00 0.00000E+00
 -1       268 1.22874E+02 2.18750E+00 0.00000E+00
 -1       269 1.25874E+02 2.18750E+00 0.00000E+00
 -1       270 1.28874E+02 2.18750E+00 0.00000E+00
 -1       271 1.31874E+02 2.18750E+00 0.00000E+00
 -1       272 1.34874E+02 2.18750E+00 0.00000E+00
 -1       273 1.37874E+02 2.18750E+00 0.00000E+00
 -1       274 1.40874E+02 2.18750E+00 0.00000E+00
 -1       275 1.43874E+02 2.18750E+00 0.00000E+00
 -1       276 1.46874E+02 2.18750E+00 0.00000E+00
 -1       277 1.47402E+02 4.42500E+00 0.00000E+00
 -1       278 1.47402E+02 7.37500E+00 0.00000E+00
 -1       279 1.47402E+02 1.03250E+01 0.00000E+00
 -1       280 1.47402E+02 1.32750E+01 0.00000E+00
 -1       281 1.47402E+02 1.61750E+01 0.00000E+00
 -1       282 1.47402E+02 1.91250E+01 0.00000E+00
 -1       283 1.47402E+02 2.20750E+01 0.00000E+00
 -1       284 1.47402E+02 2.50250E+01 0.00000E+00
 -1       285 1.47402E+02 2.79750E+01 0.00000E+00
 -1       286 1.47402E+02 3.09250E+01 0.00000E+00
 -1       287 1.47402E+02 3.38250E+01 0.00000E+00
 -1       288 1.47402E+02 3.67750E+01 0.00000E+00
 -1       289 1.47402E+02 3.97250E+01 0.00000E+00
 -1       290 1.47402E+02 4.26750E+01 0.00000E+00
 -1       291 1.46526E+02 4.50385E+01 0.00000E+00
 -1       292 8.47250E+01 2.17659E+01 0.00000E+00
 -1       293 8.43849E+01 2.01273E+01 0.00000E+00
 -1       294 8.38332E+01 1.84514E+01 0.00000E+00
 -1       295 8.27057E+01 1.71541E+01 0.00000E+00
 -1       296 8.15181E+01 1.60553E+01 0.00000E+00
 -1       297 8.01797E+01 1.50510E+01 0.00000E+00
 -1       298 7.85429E+01 1.45562E+01 0.00000E+00
 -1       299 7.67876E+01 1.42474E+01 0.00000E+00
 -1       300 7.50281E+01 1.45563E+01 0.00000E+00
 -1       301 7.33535E+01 1.49847E+01 0.00000E+00
 -1       302 7.18838E+01 1.58953E+01 0.00000E+00
 -1       303 7.04649E+01 1.69195E+01 0.00000E+00
 -1       304 6.94909E+01 1.83549E+01 0.00000E+00
 -1       305 6.88656E+01 1.98930E+01 0.00000E+00
 -1       306 6.84843E+01 2.14863E+01 0.00000E+00
 -1       307 6.84280E+01 2.31156E+01 0.00000E+00
 -1       308 6.86291E+01 2.47820E+01 0.00000E+00
 -1       309 6.93064E+01 2.63046E+01 0.00000E+00
 -1       310 7.02273E+01 2.77109E+01 0.00000E+00
 -1       311 7.14453E+01 2.89350E+01 0.00000E+00
 -1       312 7.28685E+01 2.99499E+01 0.00000E+00
 -1       313 7.45357E+01 3.05777E+01 0.00000E+00
 -1       314 7.63185E+01 3.09128E+01 0.00000E+00
 -1       315 7.80685E+01 3.06213E+01 0.00000E+00
 -1       316 7.97538E+01 3.02045E+01 0.00000E+00
 -1       317 8.13113E+01 2.93530E+01 0.00000E+00
 -1       318 8.25697E+01 2.81512E+01 0.00000E+00
 -1       319 8.37532E+01 2.68487E+01 0.00000E+00
 -1       320 8.43319E+01 2.52002E+01 0.00000E+00
 -1       321 8.48734E+01 2.35059E+01 0.00000E+00
 -1       322 5.19600E+00 4.11500E+01 0.00000E+00
 -1       323 5.19600E+00 4.41000E+01 0.00000E+00
 -1       324 5.19600E+00 3.52750E+01 0.00000E+00
 -1       325 5.19600E+00 3.23250E+01 0.00000E+00
 -1       326 5.19600E+00 2.93750E+01 0.00000E+00
 -1       327 5.19600E+00 2.64250E+01 0.00000E+00
 -1       328 5.19600E+00 2.34750E+01 0.00000E+00
 -1       329 5.19600E+00 2.05250E+01 0.00000E+00
 -1       330 5.19600E+00 1.76250E+01 0.00000E+00
 -1       331 5.19600E+00 1.46750E+01 0.00000E+00
 -1       332 5.19600E+00 1.17250E+01 0.00000E+00
 -1       333 5.19600E+00 8.77500E+00 0.00000E+00
 -1       334 5.19600E+00 5.82500E+00 0.00000E+00
 -1       335 5.53500E+00 4.00625E+00 0.00000E+00
 -1       336 8.53500E+00 4.00625E+00 0.00000E+00
 -1       337 9.15000E+00 4.48040E+01 0.00000E+00
 -1       338 1.21500E+01 4.48040E+01 0.00000E+00
 -1       339 1.51500E+01 4.48040E+01 0.00000E+00
 -1       340 1.81500E+01 4.48040E+01 0.00000E+00
 -1       341 2.11500E+01 4.48040E+01 0.00000E+00
 -1       342 2.41500E+01 4.48040E+01 0.00000E+00
 -1       343 2.71500E+01 4.48040E+01 0.00000E+00
 -1       344 3.01500E+01 4.48040E+01 0.00000E+00
 -1       345 3.31500E+01 4.48040E+01 0.00000E+00
 -1       346 3.61500E+01 4.48040E+01 0.00000E+00
 -1       347 3.91500E+01 4.48040E+01 0.00000E+00
 -1       348 4.21500E+01 4.48040E+01 0.00000E+00
 -1       349 4.51500E+01 4.48040E+01 0.00000E+00
 -1       350 4.81500E+01 4.48040E+01 0.00000E+00
 -1       351 5.11500E+01 4.48040E+01 0.00000E+00
 -1       352 5.41500E+01 4.48040E+01 0.00000E+00
 -1       353 5.71500E+01 4.48040E+01 0.00000E+00
 -1       354 6.01500E+01 4.48040E+01 0.00000E+00
 -1       355 6.31500E+01 4.48040E+01 0.00000E+00
 -1       356 6.61500E+01 4.48040E+01 0.00000E+00
 -1       357 6.91500E+01 4.48040E+01 0.00000E+00
 -1       358 7.21500E+01 4.48040E+01 0.00000E+00
 -1       359 7.51500E+01 4.48040E+01 0.00000E+00
 -1       360 7.81500E+01 4.48040E+01 0.00000E+00
 -1       361 8.11500E+01 4.48040E+01 0.00000E+00
 -1       362 8.41500E+01 4.48040E+01 0.00000E+00
 -1       363 8.71500E+01 4.48040E+01 0.00000E+00
 -1       364 9.01500E+01 4.48040E+01 0.00000E+00
 -1       365 9.31500E+01 4.48040E+01 0.00000E+00
 -1       366 9.61500E+01 4.48040E+01 0.00000E+00
 -1       367 9.91500E+01 4.48040E+01 0.00000E+00
 -1       368 1.02150E+02 4.48040E+01 0.00000E+00
 -1       369 1.05150E+02 4.48040E+01 0.00000E+00
 -1       370 1.08150E+02 4.48040E+01 0.00000E+00
 -1       371 1.11150E+02 4.48040E+01 0.00000E+00
 -1       372 1.14150E+02 4.48040E+01 0.00000E+00
 -1       373 1.17150E+02 4.48040E+01 0.00000E+00
 -1       374 1.20150E+02 4.48040E+01 0.00000E+00
 -1       375 1.23150E+02 4.48040E+01 0.00000E+00
 -1       376 1.26150E+02 4.48040E+01 0.00000E+00
 -1       377 1.29150E+02 4.48040E+01 0.00000E+00
 -1       378 1.32150E+02 4.48040E+01 0.00000E+00
 -1       379 1.35150E+02 4.48040E+01 0.00000E+00
 -1       380 1.38150E+02 4.48040E+01 0.00000E+00
 -1       381 1.41150E+02 4.48040E+01 0.00000E+00
 -1       382 1.43838E+02 4.49212E+01 0.00000E+00
 -1       383 1.15350E+01 4.00625E+00 0.00000E+00
 -1       384 1.45350E+01 4.00625E+00 0.00000E+00
 -1       385 1.75350E+01 4.00625E+00 0.00000E+00
 -1       386 2.05350E+01 4.00625E+00 0.00000E+00
 -1       387 2.35350E+01 4.00625E+00 0.00000E+00
 -1       388 2.65350E+01 4.00625E+00 0.00000E+00
 -1       389 2.95350E+01 4.00625E+00 0.00000E+00
 -1       390 3.25350E+01 4.00625E+00 0.00000E+00
 -1       391 3.55350E+01 4.00625E+00 0.00000E+00
 -1       392 3.85350E+01 4.00625E+00 0.00000E+00
 -1       393 4.15350E+01 4.00625E+00 0.00000E+00
 -1       394 4.45350E+01 4.00625E+00 0.00000E+00
 -1       395 4.75350E+01 4.00625E+00 0.00000E+00
 -1       396 5.05350E+01 4.00625E+00 0.00000E+00
 -1       397 5.35350E+01 4.00625E+00 0.00000E+00
 -1       398 5.65350E+01 4.00625E+00 0.00000E+00
 -1       399 5.95350E+01 4.00625E+00 0.00000E+00
 -1       400 6.25350E+01 4.00625E+00 0.00000E+00
 -1       401 6.55350E+01 4.00625E+00 0.00000E+00
 -1       402 6.85350E+01 4.00625E+00 0.00000E+00
 -1       403 7.15350E+01 4.00625E+00 0.00000E+00
 -1       404 7.45350E+01 4.00625E+00 0.00000E+00
 -1       405 7.75350E+01 4.00625E+00 0.00000E+00
 -1       406 8.05350E+01 4.00625E+00 0.00000E+00
 -1       407 8.35350E+01 4.00625E+00 0.00000E+00
 -1       408 8.65350E+01 4.00625E+00 0.00000E+00
 -1       409 8.95350E+01 4.00625E+00 0.00000E+00
 -1       410 9.25350E+01 4.00625E+00 0.00000E+00
 -1       411 9.55350E+01 4.00625E+00 0.00000E+00
 -1       412 9.85350E+01 4.00625E+00 0.00000E+00
 -1       413 1.01535E+02 4.00625E+00 0.00000E+00
 -1       414 1.04535E+02 4.00625E+00 0.00000E+00
 -1       415 1.07535E+02 4.00625E+00 0.00000E+00
 -1       416 1.10535E+02 4.00625E+00 0.00000E+00
 -1       417 1.13535E+02 4.00625E+00 0.00000E+00
 -1       418 1.16535E+02 4.00625E+00 0.00000E+00
 -1       419 1.19535E+02 4.00625E+00 0.00000E+00
 -1       420 1.22535E+02 4.00625E+00 0.00000E+00
 -1       421 1.25535E+02 4.00625E+00 0.00000E+00
 -1       422 1.28535E+02 4.00625E+00 0.00000E+00
 -1       423 1.31535E+02 4.00625E+00 0.00000E+00
 -1       424 1.34535E+02 4.00625E+00 0.00000E+00
 -1       425 1.37535E+02 4.00625E+00 0.00000E+00
 -1       426 1.40535E+02 4.00625E+00 0.00000E+00
 -1       427 1.43535E+02 4.00625E+00 0.00000E+00
 -1       428 1.45469E+02 4.21562E+00 0.00000E+00
 -1       429 1.44804E+02 1.18000E+01 0.00000E+00
 -1       430 1.44804E+02 8.85000E+00 0.00000E+00
 -1       431 1.45136E+02 6.53281E+00 0.00000E+00
 -1       432 1.44804E+02 1.47000E+01 0.00000E+00
 -1       433 1.44804E+02 1.76500E+01 0.00000E+00
 -1       434 1.44804E+02 2.06000E+01 0.00000E+00
 -1       435 1.44804E+02 2.35500E+01 0.00000E+00
 -1       436 1.44804E+02 2.65000E+01 0.00000E+00
 -1       437 1.44804E+02 2.94500E+01 0.00000E+00
 -1       438 1.44804E+02 3.23500E+01 0.00000E+00
 -1       439 1.44804E+02 3.53000E+01 0.00000E+00
 -1       440 1.44804E+02 3.82500E+01 0.00000E+00
 -1       441 1.44804E+02 4.12000E+01 0.00000E+00
 -1       442 8.54994E+01 1.88316E+01 0.00000E+00
 -1       443 8.63412E+01 2.25043E+01 0.00000E+00
 -1       444 8.60011E+01 2.08658E+01 0.00000E+00
 -1       445 8.42478E+01 1.69525E+01 0.00000E+00
 -1       446 8.31059E+01 1.55302E+01 0.00000E+00
 -1       447 5.19600E+00 3.82125E+01 0.00000E+00
 -1       448 7.97364E+01 1.35628E+01 0.00000E+00
 -1       449 7.79480E+01 1.27952E+01 0.00000E+00
 -1       450 7.56258E+01 1.27951E+01 0.00000E+00
 -1       451 7.39511E+01 1.32235E+01 0.00000E+00
 -1       452 7.17153E+01 1.39821E+01 0.00000E+00
 -1       453 7.02964E+01 1.50062E+01 0.00000E+00
 -1       454 6.88360E+01 1.68623E+01 0.00000E+00
 -1       455 6.78998E+01 1.86042E+01 0.00000E+00
 -1       456 6.70884E+01 2.03100E+01 0.00000E+00
 -1       457 6.69096E+01 2.22475E+01 0.00000E+00
 -1       458 6.71585E+01 2.41141E+01 0.00000E+00
 -1       459 6.77834E+01 2.60701E+01 0.00000E+00
 -1       460 6.86124E+01 2.77638E+01 0.00000E+00
 -1       461 6.98580E+01 2.92963E+01 0.00000E+00
 -1       462 7.12585E+01 3.07025E+01 0.00000E+00
 -1       463 7.31567E+01 3.17121E+01 0.00000E+00
 -1       464 7.51257E+01 3.23485E+01 0.00000E+00
 -1       465 7.74478E+01 3.22935E+01 0.00000E+00
 -1       466 7.91331E+01 3.18768E+01 0.00000E+00
 -1       467 8.12348E+01 3.10630E+01 0.00000E+00
 -1       468 8.28357E+01 2.96895E+01 0.00000E+00
 -1       469 8.41208E+01 2.83716E+01 0.00000E+00
 -1       470 8.55027E+01 2.65370E+01 0.00000E+00
 -1       471 8.60443E+01 2.48427E+01 0.00000E+00
 -1       472 8.16269E+01 1.45164E+01 0.00000E+00
 -1       473 1.00350E+01 6.60425E+00 0.00000E+00
 -1       474 7.79400E+00 3.08500E+01 0.00000E+00
 -1       475 7.79400E+00 3.38000E+01 0.00000E+00
 -1       476 7.79400E+00 2.49500E+01 0.00000E+00
 -1       477 7.79400E+00 2.20000E+01 0.00000E+00
 -1       478 7.79400E+00 1.91000E+01 0.00000E+00
 -1       479 7.79400E+00 1.61500E+01 0.00000E+00
 -1       480 7.79400E+00 1.32000E+01 0.00000E+00
 -1       481 7.79400E+00 1.02500E+01 0.00000E+00
 -1       482 1.30350E+01 6.60425E+00 0.00000E+00
 -1       483 1.06500E+01 4.22060E+01 0.00000E+00
 -1       484 8.14540E+01 1.25083E+01 0.00000E+00
 -1       485 1.36500E+01 4.22060E+01 0.00000E+00
 -1       486 1.66500E+01 4.22060E+01 0.00000E+00
 -1       487 1.96500E+01 4.22060E+01 0.00000E+00
 -1       488 2.26500E+01 4.22060E+01 0.00000E+00
 -1       489 2.56500E+01 4.22060E+01 0.00000E+00
 -1       490 2.86500E+01 4.22060E+01 0.00000E+00
 -1       491 3.16500E+01 4.22060E+01 0.00000E+00
 -1       492 3.46500E+01 4.22060E+01 0.00000E+00
 -1       493 3.76500E+01 4.22060E+01 0.00000E+00
 -1       494 4.06500E+01 4.22060E+01 0.00000E+00
 -1       495 4.36500E+01 4.22060E+01 0.00000E+00
 -1       496 4.66500E+01 4.22060E+01 0.00000E+00
 -1       497 4.96500E+01 4.22060E+01 0.00000E+00
 -1       498 5.26500E+01 4.22060E+01 0.00000E+00
 -1       499 5.56500E+01 4.22060E+01 0.00000E+00
 -1       500 5.86500E+01 4.22060E+01 0.00000E+00
 -1       501 6.16500E+01 4.22060E+01 0.00000E+00
 -1       502 6.46500E+01 4.22060E+01 0.00000E+00
 -1       503 6.76500E+01 4.22060E+01 0.00000E+00
 -1       504 7.06500E+01 4.22060E+01 0.00000E+00
 -1       505 7.36500E+01 4.22060E+01 0.00000E+00
 -1       506 7.66500E+01 4.22060E+01 0.00000E+00
 -1       507 7.96500E+01 4.22060E+01 0.00000E+00
 -1       508 8.26500E+01 4.22060E+01 0.00000E+00
 -1       509 8.56500E+01 4.22060E+01 0.00000E+00
 -1       510 8.86500E+01 4.22060E+01 0.00000E+00
 -1       511 9.16500E+01 4.22060E+01 0.00000E+00
 -1       512 9.46500E+01 4.22060E+01 0.00000E+00
 -1       513 9.76500E+01 4.22060E+01 0.00000E+00
 -1       514 1.00650E+02 4.22060E+01 0.00000E+00
 -1       515 1.03650E+02 4.22060E+01 0.00000E+00
 -1       516 1.06650E+02 4.22060E+01 0.00000E+00
 -1       517 1.09650E+02 4.22060E+01 0.00000E+00
 -1       518 1.12650E+02 4.22060E+01 0.00000E+00
 -1       519 1.15650E+02 4.22060E+01 0.00000E+00
 -1       520 1.18650E+02 4.22060E+01 0.00000E+00
 -1       521 1.21650E+02 4.22060E+01 0.00000E+00
 -1       522 1.24650E+02 4.22060E+01 0.00000E+00
 -1       523 1.27650E+02 4.22060E+01 0.00000E+00
 -1       524 1.30650E+02 4.22060E+01 0.00000E+00
 -1       525 1.33650E+02 4.22060E+01 0.00000E+00
 -1       526 1.36650E+02 4.22060E+01 0.00000E+00
 -1       527 1.39650E+02 4.22060E+01 0.00000E+00
 -1       528 1.90350E+01 6.60425E+00 0.00000E+00
 -1       529 2.20350E+01 6.60425E+00 0.00000E+00
 -1       530 2.50350E+01 6.60425E+00 0.00000E+00
 -1       531 2.80350E+01 6.60425E+00 0.00000E+00
 -1       532 3.10350E+01 6.60425E+00 0.00000E+00
 -1       533 3.40350E+01 6.60425E+00 0.00000E+00
 -1       534 3.70350E+01 6.60425E+00 0.00000E+00
 -1       535 4.00350E+01 6.60425E+00 0.00000E+00
 -1       536 4.30350E+01 6.60425E+00 0.00000E+00
 -1       537 4.60350E+01 6.60425E+00 0.00000E+00
 -1       538 4.90350E+01 6.60425E+00 0.00000E+00
 -1       539 5.20350E+01 6.60425E+00 0.00000E+00
 -1       540 5.50350E+01 6.60425E+00 0.00000E+00
 -1       541 5.80350E+01 6.60425E+00 0.00000E+00
 -1       542 6.10350E+01 6.60425E+00 0.00000E+00
 -1       543 6.40350E+01 6.60425E+00 0.00000E+00
 -1       544 6.70350E+01 6.60425E+00 0.00000E+00
 -1       545 7.00350E+01 6.60425E+00 0.00000E+00
 -1       546 7.30350E+01 6.60425E+00 0.00000E+00
 -1       547 7.60350E+01 6.60425E+00 0.00000E+00
 -1       548 7.90350E+01 6.60425E+00 0.00000E+00
 -1       549 8.20350E+01 6.60425E+00 0.00000E+00
 -1       550 8.50350E+01 6.60425E+00 0.00000E+00
 -1       551 8.80350E+01 6.60425E+00 0.00000E+00
 -1       552 9.10350E+01 6.60425E+00 0.00000E+00
 -1       553 9.40350E+01 6.60425E+00 0.00000E+00
 -1       554 9.70350E+01 6.60425E+00 0.00000E+00
 -1       555 1.00035E+02 6.60425E+00 0.00000E+00
 -1       556 1.03035E+02 6.60425E+00 0.00000E+00
 -1       557 1.06035E+02 6.60425E+00 0.00000E+00
 -1       558 1.09035E+02 6.60425E+00 0.00000E+00
 -1       559 1.12035E+02 6.60425E+00 0.00000E+00
 -1       560 1.15035E+02 6.60425E+00 0.00000E+00
 -1       561 1.18035E+02 6.60425E+00 0.00000E+00
 -1       562 1.21035E+02 6.60425E+00 0.00000E+00
 -1       563 1.24035E+02 6.60425E+00 0.00000E+00
 -1       564 1.27035E+02 6.60425E+00 0.00000E+00
 -1       565 1.30035E+02 6.60425E+00 0.00000E+00
 -1       566 1.33035E+02 6.60425E+00 0.00000E+00
 -1       567 1.36035E+02 6.60425E+00 0.00000E+00
 -1       568 1.39035E+02 6.60425E+00 0.00000E+00
 -1       569 1.42035E+02 6.60425E+00 0.00000E+00
 -1       570 1.42206E+02 1.61750E+01 0.00000E+00
 -1       571 1.42206E+02 1.91250E+01 0.00000E+00
 -1       572 1.42206E+02 1.03250E+01 0.00000E+00
 -1       573 1.42206E+02 1.32500E+01 0.00000E+00
 -1       574 1.42206E+02 2.20750E+01 0.00000E+00
 -1       575 1.42206E+02 2.50250E+01 0.00000E+00
 -1       576 1.42206E+02 2.79750E+01 0.00000E+00
 -1       577 1.42206E+02 3.08750E+01 0.00000E+00
 -1       578 1.42206E+02 3.38250E+01 0.00000E+00
 -1       579 1.42206E+02 3.67750E+01 0.00000E+00
 -1       580 1.42206E+02 3.97250E+01 0.00000E+00
 -1       581 8.60919E+01 1.70807E+01 0.00000E+00
 -1       582 8.77279E+01 2.38684E+01 0.00000E+00
 -1       583 1.60350E+01 6.60425E+00 0.00000E+00
 -1       584 8.77684E+01 2.13535E+01 0.00000E+00
 -1       585 8.59809E+01 2.83350E+01 0.00000E+00
 -1       586 8.48836E+01 1.52725E+01 0.00000E+00
 -1       587 8.72667E+01 1.93194E+01 0.00000E+00
 -1       588 7.63274E+01 3.40357E+01 0.00000E+00
 -1       589 7.96656E+01 1.17406E+01 0.00000E+00
 -1       590 7.79400E+00 2.79000E+01 0.00000E+00
 -1       591 7.67869E+01 1.11638E+01 0.00000E+00
 -1       592 6.70048E+01 1.70007E+01 0.00000E+00
 -1       593 7.43841E+01 1.14289E+01 0.00000E+00
 -1       594 7.23360E+01 1.21373E+01 0.00000E+00
 -1       595 7.00511E+01 1.31714E+01 0.00000E+00
 -1       596 8.30975E+01 3.16143E+01 0.00000E+00
 -1       597 6.82183E+01 1.48737E+01 0.00000E+00
 -1       598 6.61933E+01 1.87064E+01 0.00000E+00
 -1       599 6.56249E+01 2.11519E+01 0.00000E+00
 -1       600 6.55831E+01 2.33743E+01 0.00000E+00
 -1       601 6.58372E+01 2.56140E+01 0.00000E+00
 -1       602 6.68832E+01 2.75604E+01 0.00000E+00
 -1       603 6.80343E+01 2.95061E+01 0.00000E+00
 -1       604 6.93430E+01 3.12097E+01 0.00000E+00
 -1       605 7.14416E+01 3.26476E+01 0.00000E+00
 -1       606 7.36395E+01 3.35825E+01 0.00000E+00
 -1       607 7.86821E+01 3.36688E+01 0.00000E+00
 -1       608 8.07427E+01 3.29131E+01 0.00000E+00
 -1       609 8.47062E+01 3.02279E+01 0.00000E+00
 -1       610 8.72476E+01 2.61610E+01 0.00000E+00
 -1       611 7.92300E+00 4.16780E+01 0.00000E+00
 -1       612 7.61550E+00 6.21462E+00 0.00000E+00
 -1       613 8.32887E+01 1.36778E+01 0.00000E+00
 -1       614 7.85046E+01 1.01092E+01 0.00000E+00
 -1       615 7.79400E+00 3.67375E+01 0.00000E+00
 -1       616 1.41678E+02 4.22645E+01 0.00000E+00
 -1       617 6.47298E+01 1.95483E+01 0.00000E+00
 -1       618 1.03920E+01 2.05500E+01 0.00000E+00
 -1       619 1.03920E+01 2.35000E+01 0.00000E+00
 -1       620 1.03920E+01 1.46750E+01 0.00000E+00
 -1       621 1.03920E+01 1.17250E+01 0.00000E+00
 -1       622 1.15350E+01 9.20225E+00 0.00000E+00
 -1       623 6.59826E+01 2.94066E+01 0.00000E+00
 -1       624 1.45350E+01 9.20225E+00 0.00000E+00
 -1       625 8.69051E+01 3.03331E+01 0.00000E+00
 -1       626 1.51500E+01 3.96080E+01 0.00000E+00
 -1       627 1.81500E+01 3.96080E+01 0.00000E+00
 -1       628 2.11500E+01 3.96080E+01 0.00000E+00
 -1       629 2.41500E+01 3.96080E+01 0.00000E+00
 -1       630 2.71500E+01 3.96080E+01 0.00000E+00
 -1       631 3.01500E+01 3.96080E+01 0.00000E+00
 -1       632 3.31500E+01 3.96080E+01 0.00000E+00
 -1       633 3.61500E+01 3.96080E+01 0.00000E+00
 -1       634 3.91500E+01 3.96080E+01 0.00000E+00
 -1       635 4.21500E+01 3.96080E+01 0.00000E+00
 -1       636 4.51500E+01 3.96080E+01 0.00000E+00
 -1       637 4.81500E+01 3.96080E+01 0.00000E+00
 -1       638 5.11500E+01 3.96080E+01 0.00000E+00
 -1       639 5.41500E+01 3.96080E+01 0.00000E+00
 -1       640 5.71500E+01 3.96080E+01 0.00000E+00
 -1       641 6.01500E+01 3.96080E+01 0.00000E+00
 -1       642 6.31500E+01 3.96080E+01 0.00000E+00
 -1       643 6.61500E+01 3.96080E+01 0.00000E+00
 -1       644 6.91500E+01 3.96080E+01 0.00000E+00
 -1       645 7.21500E+01 3.96080E+01 0.00000E+00
 -1       646 7.51500E+01 3.96080E+01 0.00000E+00
 -1       647 7.81500E+01 3.96080E+01 0.00000E+00
 -1       648 8.11500E+01 3.96080E+01 0.00000E+00
 -1       649 8.41500E+01 3.96080E+01 0.00000E+00
 -1       650 8.71500E+01 3.96080E+01 0.00000E+00
 -1       651 9.01500E+01 3.96080E+01 0.00000E+00
 -1       652 9.31500E+01 3.96080E+01 0.00000E+00
 -1       653 9.61500E+01 3.96080E+01 0.00000E+00
 -1       654 9.91500E+01 3.96080E+01 0.00000E+00
 -1       655 1.02150E+02 3.96080E+01 0.00000E+00
 -1       656 1.05150E+02 3.96080E+01 0.00000E+00
 -1       657 1.08150E+02 3.96080E+01 0.00000E+00
 -1       658 1.11150E+02 3.96080E+01 0.00000E+00
 -1       659 1.14150E+02 3.96080E+01 0.00000E+00
 -1       660 1.17150E+02 3.96080E+01 0.00000E+00
 -1       661 1.20150E+02 3.96080E+01 0.00000E+00
 -1       662 1.23150E+02 3.96080E+01 0.00000E+00
 -1       663 1.26150E+02 3.96080E+01 0.00000E+00
 -1       664 1.29150E+02 3.96080E+01 0.00000E+00
 -1       665 1.32150E+02 3.96080E+01 0.00000E+00
 -1       666 1.35150E+02 3.96080E+01 0.00000E+00
 -1       667 1.38150E+02 3.96080E+01 0.00000E+00
 -1       668 2.35350E+01 9.20225E+00 0.00000E+00
 -1       669 6.71956E+01 3.15048E+01 0.00000E+00
 -1       670 2.05350E+01 9.20225E+00 0.00000E+00
 -1       671 2.95350E+01 9.20225E+00 0.00000E+00
 -1       672 3.25350E+01 9.20225E+00 0.00000E+00
 -1       673 3.55350E+01 9.20225E+00 0.00000E+00
 -1       674 3.85350E+01 9.20225E+00 0.00000E+00
 -1       675 4.15350E+01 9.20225E+00 0.00000E+00
 -1       676 4.45350E+01 9.20225E+00 0.00000E+00
 -1       677 4.75350E+01 9.20225E+00 0.00000E+00
 -1       678 5.05350E+01 9.20225E+00 0.00000E+00
 -1       679 5.35350E+01 9.20225E+00 0.00000E+00
 -1       680 5.65350E+01 9.20225E+00 0.00000E+00
 -1       681 5.95350E+01 9.20225E+00 0.00000E+00
 -1       682 6.25350E+01 9.20225E+00 0.00000E+00
 -1       683 6.55350E+01 9.20225E+00 0.00000E+00
 -1       684 6.85350E+01 9.20225E+00 0.00000E+00
 -1       685 7.15350E+01 9.20225E+00 0.00000E+00
 -1       686 8.35350E+01 9.20225E+00 0.00000E+00
 -1       687 8.65350E+01 9.20225E+00 0.00000E+00
 -1       688 8.95350E+01 9.20225E+00 0.00000E+00
 -1       689 9.25350E+01 9.20225E+00 0.00000E+00
 -1       690 9.55350E+01 9.20225E+00 0.00000E+00
 -1       691 9.85350E+01 9.20225E+00 0.00000E+00
 -1       692 1.01535E+02 9.20225E+00 0.00000E+00
 -1       693 1.04535E+02 9.20225E+00 0.00000E+00
 -1       694 1.07535E+02 9.20225E+00 0.00000E+00
 -1       695 1.10535E+02 9.20225E+00 0.00000E+00
 -1       696 1.13535E+02 9.20225E+00 0.00000E+00
 -1       697 1.16535E+02 9.20225E+00 0.00000E+00
 -1       698 1.19535E+02 9.20225E+00 0.00000E+00
 -1       699 1.22535E+02 9.20225E+00 0.00000E+00
 -1       700 1.25535E+02 9.20225E+00 0.00000E+00
 -1       701 1.28535E+02 9.20225E+00 0.00000E+00
 -1       702 1.31535E+02 9.20225E+00 0.00000E+00
 -1       703 1.34535E+02 9.20225E+00 0.00000E+00
 -1       704 1.37535E+02 9.20225E+00 0.00000E+00
 -1       705 1.39870E+02 9.76363E+00 0.00000E+00
 -1       706 1.39608E+02 2.35500E+01 0.00000E+00
 -1       707 1.40178E+02 3.96665E+01 0.00000E+00
 -1       708 1.39608E+02 1.76500E+01 0.00000E+00
 -1       709 1.39608E+02 2.65000E+01 0.00000E+00
 -1       710 1.39608E+02 2.06000E+01 0.00000E+00
 -1       711 1.75350E+01 9.20225E+00 0.00000E+00
 -1       712 1.39608E+02 2.94000E+01 0.00000E+00
 -1       713 1.39608E+02 3.23500E+01 0.00000E+00
 -1       714 1.39608E+02 3.53000E+01 0.00000E+00
 -1       715 8.90844E+01 2.53493E+01 0.00000E+00
 -1       716 8.29912E+01 3.42057E+01 0.00000E+00
 -1       717 7.18692E+01 3.46933E+01 0.00000E+00
 -1       718 8.91828E+01 1.99258E+01 0.00000E+00
 -1       719 8.12363E+01 1.05484E+01 0.00000E+00
 -1       720 8.71924E+01 1.50375E+01 0.00000E+00
 -1       721 2.65350E+01 9.20225E+00 0.00000E+00
 -1       722 1.21500E+01 3.96080E+01 0.00000E+00
 -1       723 6.59763E+01 1.50042E+01 0.00000E+00
 -1       724 8.32933E+01 1.16467E+01 0.00000E+00
 -1       725 7.77688E+01 3.55469E+01 0.00000E+00
 -1       726 1.03920E+01 1.76125E+01 0.00000E+00
 -1       727 1.03920E+01 3.23250E+01 0.00000E+00
 -1       728 8.51309E+01 3.23473E+01 0.00000E+00
 -1       729 8.55359E+01 1.30254E+01 0.00000E+00
 -1       730 8.03029E+01 3.49012E+01 0.00000E+00
 -1       731 6.37216E+01 2.22277E+01 0.00000E+00
 -1       732 7.03482E+01 1.07865E+01 0.00000E+00
 -1       733 6.51649E+01 1.67100E+01 0.00000E+00
 -1       734 6.49366E+01 2.74602E+01 0.00000E+00
 -1       735 8.97982E+01 2.26440E+01 0.00000E+00
 -1       736 8.83673E+01 1.72762E+01 0.00000E+00
 -1       737 6.93281E+01 3.34817E+01 0.00000E+00
 -1       738 6.38395E+01 2.47064E+01 0.00000E+00
 -1       739 7.46983E+01 3.55003E+01 0.00000E+00
 -1       740 8.81718E+01 2.81591E+01 0.00000E+00
 -1       741 6.76254E+01 1.23976E+01 0.00000E+00
 -1       742 1.03920E+01 3.52625E+01 0.00000E+00
 -1       743 1.03920E+01 2.64500E+01 0.00000E+00
 -1       744 1.39608E+02 1.47250E+01 0.00000E+00
 -1       745 7.71494E+01 9.68033E+00 0.00000E+00
 -1       746 1.39739E+02 1.22443E+01 0.00000E+00
 -1       747 6.37013E+01 1.75518E+01 0.00000E+00
 -1       748 6.28266E+01 2.06241E+01 0.00000E+00
 -1       749 1.38879E+02 3.74540E+01 0.00000E+00
 -1       750 1.05210E+01 3.87342E+01 0.00000E+00
 -1       751 1.03920E+01 2.93875E+01 0.00000E+00
 -1       752 9.10996E+01 2.44341E+01 0.00000E+00
 -1       753 1.29900E+01 1.32000E+01 0.00000E+00
 -1       754 1.36500E+01 3.70100E+01 0.00000E+00
 -1       755 1.37625E+01 1.12011E+01 0.00000E+00
 -1       756 1.96500E+01 3.70100E+01 0.00000E+00
 -1       757 2.26500E+01 3.70100E+01 0.00000E+00
 -1       758 2.56500E+01 3.70100E+01 0.00000E+00
 -1       759 2.86500E+01 3.70100E+01 0.00000E+00
 -1       760 3.16500E+01 3.70100E+01 0.00000E+00
 -1       761 3.46500E+01 3.70100E+01 0.00000E+00
 -1       762 3.76500E+01 3.70100E+01 0.00000E+00
 -1       763 4.06500E+01 3.70100E+01 0.00000E+00
 -1       764 4.36500E+01 3.70100E+01 0.00000E+00
 -1       765 4.66500E+01 3.70100E+01 0.00000E+00
 -1       766 4.96500E+01 3.70100E+01 0.00000E+00
 -1       767 5.26500E+01 3.70100E+01 0.00000E+00
 -1       768 5.56500E+01 3.70100E+01 0.00000E+00
 -1       769 5.86500E+01 3.70100E+01 0.00000E+00
 -1       770 6.16500E+01 3.70100E+01 0.00000E+00
 -1       771 6.46500E+01 3.70100E+01 0.00000E+00
 -1       772 6.76500E+01 3.70100E+01 0.00000E+00
 -1       773 7.36500E+01 3.75577E+01 0.00000E+00
 -1       774 8.26500E+01 3.70550E+01 0.00000E+00
 -1       775 8.56500E+01 3.70550E+01 0.00000E+00
 -1       776 8.86500E+01 3.70550E+01 0.00000E+00
 -1       777 9.16500E+01 3.70550E+01 0.00000E+00
 -1       778 9.46500E+01 3.70550E+01 0.00000E+00
 -1       779 9.76500E+01 3.70550E+01 0.00000E+00
 -1       780 1.00650E+02 3.70550E+01 0.00000E+00
 -1       781 1.03650E+02 3.70550E+01 0.00000E+00
 -1       782 1.06650E+02 3.70550E+01 0.00000E+00
 -1       783 1.09650E+02 3.70550E+01 0.00000E+00
 -1       784 1.12650E+02 3.70550E+01 0.00000E+00
 -1       785 1.15650E+02 3.70550E+01 0.00000E+00
 -1       786 1.18650E+02 3.70550E+01 0.00000E+00
 -1       787 1.21650E+02 3.70550E+01 0.00000E+00
 -1       788 1.24650E+02 3.70550E+01 0.00000E+00
 -1       789 1.27650E+02 3.70550E+01 0.00000E+00
 -1       790 1.30650E+02 3.70550E+01 0.00000E+00
 -1       791 1.33650E+02 3.70550E+01 0.00000E+00
 -1       792 1.36264E+02 3.72545E+01 0.00000E+00
 -1       793 1.37010E+02 2.79500E+01 0.00000E+00
 -1       794 3.40350E+01 1.18003E+01 0.00000E+00
 -1       795 3.10350E+01 1.18003E+01 0.00000E+00
 -1       796 4.00350E+01 1.18003E+01 0.00000E+00
 -1       797 4.30350E+01 1.18003E+01 0.00000E+00
 -1       798 4.60350E+01 1.18003E+01 0.00000E+00
 -1       799 4.90350E+01 1.18003E+01 0.00000E+00
 -1       800 5.20350E+01 1.18003E+01 0.00000E+00
 -1       801 5.50350E+01 1.18003E+01 0.00000E+00
 -1       802 5.80350E+01 1.18003E+01 0.00000E+00
 -1       803 6.10350E+01 1.18003E+01 0.00000E+00
 -1       804 6.40350E+01 1.18003E+01 0.00000E+00
 -1       805 9.07375E+01 2.74393E+01 0.00000E+00
 -1       806 8.80350E+01 1.18003E+01 0.00000E+00
 -1       807 9.40350E+01 1.18003E+01 0.00000E+00
 -1       808 9.70350E+01 1.18003E+01 0.00000E+00
 -1       809 1.00035E+02 1.18003E+01 0.00000E+00
 -1       810 1.03035E+02 1.18003E+01 0.00000E+00
 -1       811 1.06035E+02 1.18003E+01 0.00000E+00
 -1       812 1.09035E+02 1.18003E+01 0.00000E+00
 -1       813 1.12035E+02 1.18003E+01 0.00000E+00
 -1       814 1.15035E+02 1.18003E+01 0.00000E+00
 -1       815 1.18035E+02 1.18003E+01 0.00000E+00
 -1       816 1.21035E+02 1.18003E+01 0.00000E+00
 -1       817 1.24035E+02 1.18003E+01 0.00000E+00
 -1       818 1.27035E+02 1.18003E+01 0.00000E+00
 -1       819 1.30035E+02 1.18003E+01 0.00000E+00
 -1       820 1.33035E+02 1.18003E+01 0.00000E+00
 -1       821 1.36035E+02 1.18003E+01 0.00000E+00
 -1       822 1.37887E+02 1.20223E+01 0.00000E+00
 -1       823 1.29900E+01 2.20250E+01 0.00000E+00
 -1       824 1.37010E+02 2.50000E+01 0.00000E+00
 -1       825 6.97162E+01 3.59381E+01 0.00000E+00
 -1       826 9.08947E+01 1.79486E+01 0.00000E+00
 -1       827 1.37010E+02 3.09000E+01 0.00000E+00
 -1       828 9.10350E+01 1.18003E+01 0.00000E+00
 -1       829 3.70350E+01 1.18003E+01 0.00000E+00
 -1       830 2.20350E+01 1.18003E+01 0.00000E+00
 -1       831 1.66500E+01 3.70100E+01 0.00000E+00
 -1       832 1.37010E+02 3.38500E+01 0.00000E+00
 -1       833 6.45240E+01 3.16496E+01 0.00000E+00
 -1       834 6.24834E+01 2.68421E+01 0.00000E+00
 -1       835 9.15101E+01 2.06668E+01 0.00000E+00
 -1       836 1.20210E+01 3.61362E+01 0.00000E+00
 -1       837 7.28132E+01 3.67461E+01 0.00000E+00
 -1       838 6.68680E+01 3.39968E+01 0.00000E+00
 -1       839 6.45128E+01 1.58461E+01 0.00000E+00
 -1       840 8.97437E+01 1.51263E+01 0.00000E+00
 -1       841 8.78080E+01 3.29169E+01 0.00000E+00
 -1       842 6.20674E+01 2.35485E+01 0.00000E+00
 -1       843 6.35037E+01 2.92459E+01 0.00000E+00
 -1       844 8.54055E+01 3.48244E+01 0.00000E+00
 -1       845 8.93100E+01 3.02782E+01 0.00000E+00
 -1       846 1.29900E+01 2.49750E+01 0.00000E+00
 -1       847 1.29900E+01 1.61375E+01 0.00000E+00
 -1       848 1.37010E+02 1.61875E+01 0.00000E+00
 -1       849 8.01675E+01 3.73701E+01 0.00000E+00
 -1       850 2.50350E+01 1.18003E+01 0.00000E+00
 -1       851 1.90350E+01 1.18003E+01 0.00000E+00
 -1       852 1.20210E+01 3.31987E+01 0.00000E+00
 -1       853 2.80350E+01 1.18003E+01 0.00000E+00
 -1       854 8.50350E+01 1.17552E+01 0.00000E+00
 -1       855 1.29900E+01 1.90875E+01 0.00000E+00
 -1       856 1.37010E+02 1.91375E+01 0.00000E+00
 -1       857 9.28116E+01 2.24569E+01 0.00000E+00
 -1       858 1.37010E+02 2.20688E+01 0.00000E+00
 -1       859 6.07113E+01 2.56842E+01 0.00000E+00
 -1       860 6.17981E+01 1.86277E+01 0.00000E+00
 -1       861 6.11723E+01 2.19449E+01 0.00000E+00
 -1       862 1.36637E+02 3.55523E+01 0.00000E+00
 -1       863 1.63988E+01 1.15007E+01 0.00000E+00
 -1       864 1.20210E+01 3.02612E+01 0.00000E+00
 -1       865 1.56263E+01 1.34996E+01 0.00000E+00
 -1       866 2.11500E+01 3.44120E+01 0.00000E+00
 -1       867 2.41500E+01 3.44120E+01 0.00000E+00
 -1       868 2.71500E+01 3.44120E+01 0.00000E+00
 -1       869 3.01500E+01 3.44120E+01 0.00000E+00
 -1       870 3.31500E+01 3.44120E+01 0.00000E+00
 -1       871 3.61500E+01 3.44120E+01 0.00000E+00
 -1       872 3.91500E+01 3.44120E+01 0.00000E+00
 -1       873 4.21500E+01 3.44120E+01 0.00000E+00
 -1       874 4.51500E+01 3.44120E+01 0.00000E+00
 -1       875 4.81500E+01 3.44120E+01 0.00000E+00
 -1       876 5.11500E+01 3.44120E+01 0.00000E+00
 -1       877 5.41500E+01 3.44120E+01 0.00000E+00
 -1       878 5.71500E+01 3.44120E+01 0.00000E+00
 -1       879 6.01500E+01 3.44120E+01 0.00000E+00
 -1       880 6.31500E+01 3.44120E+01 0.00000E+00
 -1       881 9.01500E+01 3.44570E+01 0.00000E+00
 -1       882 9.31500E+01 3.44570E+01 0.00000E+00
 -1       883 9.61500E+01 3.44570E+01 0.00000E+00
 -1       884 9.91500E+01 3.44570E+01 0.00000E+00
 -1       885 1.02150E+02 3.44570E+01 0.00000E+00
 -1       886 1.05150E+02 3.44570E+01 0.00000E+00
 -1       887 1.08150E+02 3.44570E+01 0.00000E+00
 -1       888 1.11150E+02 3.44570E+01 0.00000E+00
 -1       889 1.14150E+02 3.44570E+01 0.00000E+00
 -1       890 1.17150E+02 3.44570E+01 0.00000E+00
 -1       891 1.20150E+02 3.44570E+01 0.00000E+00
 -1       892 1.23150E+02 3.44570E+01 0.00000E+00
 -1       893 1.26150E+02 3.44570E+01 0.00000E+00
 -1       894 1.29150E+02 3.44570E+01 0.00000E+00
 -1       895 1.32150E+02 3.44570E+01 0.00000E+00
 -1       896 4.45350E+01 1.43982E+01 0.00000E+00
 -1       897 4.15350E+01 1.43982E+01 0.00000E+00
 -1       898 5.05350E+01 1.43982E+01 0.00000E+00
 -1       899 5.35350E+01 1.43982E+01 0.00000E+00
 -1       900 5.65350E+01 1.43982E+01 0.00000E+00
 -1       901 5.95350E+01 1.43982E+01 0.00000E+00
 -1       902 9.55350E+01 1.43982E+01 0.00000E+00
 -1       903 1.04535E+02 1.43982E+01 0.00000E+00
 -1       904 1.07535E+02 1.43982E+01 0.00000E+00
 -1       905 1.10535E+02 1.43982E+01 0.00000E+00
 -1       906 1.13535E+02 1.43982E+01 0.00000E+00
 -1       907 1.16535E+02 1.43982E+01 0.00000E+00
 -1       908 1.19535E+02 1.43982E+01 0.00000E+00
 -1       909 1.22535E+02 1.43982E+01 0.00000E+00
 -1       910 1.25535E+02 1.43982E+01 0.00000E+00
 -1       911 1.28535E+02 1.43982E+01 0.00000E+00
 -1       912 1.31535E+02 1.43982E+01 0.00000E+00
 -1       913 1.34535E+02 1.43982E+01 0.00000E+00
 -1       914 1.34412E+02 2.64750E+01 0.00000E+00
 -1       915 1.37449E+02 1.41049E+01 0.00000E+00
 -1       916 1.36500E+01 3.40725E+01 0.00000E+00
 -1       917 1.34412E+02 2.94250E+01 0.00000E+00
 -1       918 9.35289E+01 1.87809E+01 0.00000E+00
 -1       919 9.20052E+01 2.98551E+01 0.00000E+00
 -1       920 6.31089E+01 1.45515E+01 0.00000E+00
 -1       921 1.01535E+02 1.43982E+01 0.00000E+00
 -1       922 9.85350E+01 1.43982E+01 0.00000E+00
 -1       923 4.75350E+01 1.43982E+01 0.00000E+00
 -1       924 9.26393E+01 1.47623E+01 0.00000E+00
 -1       925 1.81500E+01 3.44120E+01 0.00000E+00
 -1       926 3.25350E+01 1.43982E+01 0.00000E+00
 -1       927 9.27877E+01 2.61620E+01 0.00000E+00
 -1       928 1.34412E+02 3.23750E+01 0.00000E+00
 -1       929 6.22974E+01 1.62573E+01 0.00000E+00
 -1       930 1.25055E+01 2.76181E+01 0.00000E+00
 -1       931 9.44996E+01 2.41848E+01 0.00000E+00
 -1       932 2.95350E+01 1.43982E+01 0.00000E+00
 -1       933 1.34394E+02 3.50047E+01 0.00000E+00
 -1       934 2.05350E+01 1.43982E+01 0.00000E+00
 -1       935 3.85350E+01 1.43982E+01 0.00000E+00
 -1       936 1.36500E+01 3.11350E+01 0.00000E+00
 -1       937 3.55350E+01 1.43982E+01 0.00000E+00
 -1       938 1.55880E+01 2.05562E+01 0.00000E+00
 -1       939 1.34412E+02 2.35438E+01 0.00000E+00
 -1       940 9.48304E+01 2.05711E+01 0.00000E+00
 -1       941 6.02926E+01 2.82601E+01 0.00000E+00
 -1       942 5.98162E+01 2.40807E+01 0.00000E+00
 -1       943 9.40554E+01 2.85778E+01 0.00000E+00
 -1       944 6.16224E+01 3.14628E+01 0.00000E+00
 -1       945 1.55880E+01 2.35063E+01 0.00000E+00
 -1       946 6.01438E+01 1.99484E+01 0.00000E+00
 -1       947 2.35350E+01 1.43982E+01 0.00000E+00
 -1       948 1.34250E+02 1.73983E+01 0.00000E+00
 -1       949 2.56500E+01 3.18140E+01 0.00000E+00
 -1       950 2.86500E+01 3.18140E+01 0.00000E+00
 -1       951 3.16500E+01 3.18140E+01 0.00000E+00
 -1       952 3.46500E+01 3.18140E+01 0.00000E+00
 -1       953 3.76500E+01 3.18140E+01 0.00000E+00
 -1       954 4.06500E+01 3.18140E+01 0.00000E+00
 -1       955 4.36500E+01 3.18140E+01 0.00000E+00
 -1       956 4.66500E+01 3.18140E+01 0.00000E+00
 -1       957 4.96500E+01 3.18140E+01 0.00000E+00
 -1       958 5.26500E+01 3.18140E+01 0.00000E+00
 -1       959 5.56500E+01 3.18140E+01 0.00000E+00
 -1       960 5.86500E+01 3.18140E+01 0.00000E+00
 -1       961 4.30350E+01 1.69963E+01 0.00000E+00
 -1       962 1.61458E+01 1.66550E+01 0.00000E+00
 -1       963 9.76500E+01 3.18590E+01 0.00000E+00
 -1       964 1.00650E+02 3.18590E+01 0.00000E+00
 -1       965 1.03650E+02 3.18590E+01 0.00000E+00
 -1       966 1.06650E+02 3.18590E+01 0.00000E+00
 -1       967 1.09650E+02 3.18590E+01 0.00000E+00
 -1       968 1.12650E+02 3.18590E+01 0.00000E+00
 -1       969 1.15650E+02 3.18590E+01 0.00000E+00
 -1       970 1.18650E+02 3.18590E+01 0.00000E+00
 -1       971 1.21650E+02 3.18590E+01 0.00000E+00
 -1       972 1.24650E+02 3.18590E+01 0.00000E+00
 -1       973 1.27650E+02 3.18590E+01 0.00000E+00
 -1       974 1.30650E+02 3.18590E+01 0.00000E+00
 -1       975 2.26500E+01 3.18140E+01 0.00000E+00
 -1       976 5.50350E+01 1.69963E+01 0.00000E+00
 -1       977 5.20350E+01 1.69963E+01 0.00000E+00
 -1       978 1.09035E+02 1.69963E+01 0.00000E+00
 -1       979 1.06035E+02 1.69963E+01 0.00000E+00
 -1       980 1.15035E+02 1.69963E+01 0.00000E+00
 -1       981 1.18035E+02 1.69963E+01 0.00000E+00
 -1       982 1.21035E+02 1.69963E+01 0.00000E+00
 -1       983 1.24035E+02 1.69963E+01 0.00000E+00
 -1       984 1.27035E+02 1.69963E+01 0.00000E+00
 -1       985 1.30035E+02 1.69963E+01 0.00000E+00
 -1       986 9.68942E+01 1.76709E+01 0.00000E+00
 -1       987 5.79821E+01 2.65625E+01 0.00000E+00
 -1       988 1.03035E+02 1.69963E+01 0.00000E+00
 -1       989 1.34412E+02 2.06125E+01 0.00000E+00
 -1       990 1.00035E+02 1.69963E+01 0.00000E+00
 -1       991 1.81500E+01 3.14745E+01 0.00000E+00
 -1       992 5.98394E+01 1.71733E+01 0.00000E+00
 -1       993 1.12035E+02 1.69963E+01 0.00000E+00
 -1       994 1.31814E+02 3.09000E+01 0.00000E+00
 -1       995 1.80806E+01 1.39489E+01 0.00000E+00
 -1       996 2.65350E+01 1.43982E+01 0.00000E+00
 -1       997 5.74372E+01 1.70848E+01 0.00000E+00
 -1       998 2.04000E+01 3.16443E+01 0.00000E+00
 -1       999 1.31814E+02 2.79500E+01 0.00000E+00
 -1      1000 9.51027E+01 3.15174E+01 0.00000E+00
 -1      1001 3.10350E+01 1.69963E+01 0.00000E+00
 -1      1002 4.00350E+01 1.69963E+01 0.00000E+00
 -1      1003 4.60350E+01 1.69963E+01 0.00000E+00
 -1      1004 1.41345E+01 2.84919E+01 0.00000E+00
 -1      1005 1.31814E+02 2.50187E+01 0.00000E+00
 -1      1006 3.40350E+01 1.69963E+01 0.00000E+00
 -1      1007 5.68160E+01 2.91883E+01 0.00000E+00
 -1      1008 5.87878E+01 2.20842E+01 0.00000E+00
 -1      1009 1.81860E+01 2.20313E+01 0.00000E+00
 -1      1010 9.57673E+01 2.66006E+01 0.00000E+00
 -1      1011 1.55676E+01 2.65022E+01 0.00000E+00
 -1      1012 1.30197E+02 2.02104E+01 0.00000E+00
 -1      1013 2.20350E+01 1.69963E+01 0.00000E+00
 -1      1014 4.90350E+01 1.69963E+01 0.00000E+00
 -1      1015 1.81333E+01 1.79901E+01 0.00000E+00
 -1      1016 2.80350E+01 1.69963E+01 0.00000E+00
 -1      1017 2.20877E+01 2.10374E+01 0.00000E+00
 -1      1018 3.01500E+01 2.92160E+01 0.00000E+00
 -1      1019 3.31500E+01 2.92160E+01 0.00000E+00
 -1      1020 3.61500E+01 2.92160E+01 0.00000E+00
 -1      1021 3.91500E+01 2.92160E+01 0.00000E+00
 -1      1022 4.21500E+01 2.92160E+01 0.00000E+00
 -1      1023 4.51500E+01 2.92160E+01 0.00000E+00
 -1      1024 4.81500E+01 2.92160E+01 0.00000E+00
 -1      1025 5.11500E+01 2.92160E+01 0.00000E+00
 -1      1026 5.39830E+01 2.92021E+01 0.00000E+00
 -1      1027 9.79791E+01 2.06273E+01 0.00000E+00
 -1      1028 9.91500E+01 2.92610E+01 0.00000E+00
 -1      1029 1.02150E+02 2.92610E+01 0.00000E+00
 -1      1030 1.05150E+02 2.92610E+01 0.00000E+00
 -1      1031 1.08150E+02 2.92610E+01 0.00000E+00
 -1      1032 1.11150E+02 2.92610E+01 0.00000E+00
 -1      1033 1.14150E+02 2.92610E+01 0.00000E+00
 -1      1034 1.17150E+02 2.92610E+01 0.00000E+00
 -1      1035 1.20150E+02 2.92610E+01 0.00000E+00
 -1      1036 1.23150E+02 2.92610E+01 0.00000E+00
 -1      1037 1.26150E+02 2.92610E+01 0.00000E+00
 -1      1038 5.35350E+01 1.95942E+01 0.00000E+00
 -1      1039 1.04535E+02 1.95942E+01 0.00000E+00
 -1      1040 1.07535E+02 1.95942E+01 0.00000E+00
 -1      1041 1.22535E+02 1.95942E+01 0.00000E+00
 -1      1042 3.70350E+01 1.69963E+01 0.00000E+00
 -1      1043 1.19535E+02 1.95942E+01 0.00000E+00
 -1      1044 1.16535E+02 1.95942E+01 0.00000E+00
 -1      1045 1.25535E+02 1.95942E+01 0.00000E+00
 -1      1046 1.27866E+02 1.99023E+01 0.00000E+00
 -1      1047 5.69536E+01 2.45660E+01 0.00000E+00
 -1      1048 1.81656E+01 2.50272E+01 0.00000E+00
 -1      1049 1.31005E+02 2.26146E+01 0.00000E+00
 -1      1050 1.01535E+02 1.95942E+01 0.00000E+00
 -1      1051 9.66027E+01 2.89194E+01 0.00000E+00
 -1      1052 2.43113E+01 1.77178E+01 0.00000E+00
 -1      1053 2.41500E+01 2.92160E+01 0.00000E+00
 -1      1054 5.81125E+01 1.95845E+01 0.00000E+00
 -1      1055 1.10535E+02 1.95942E+01 0.00000E+00
 -1      1056 5.05350E+01 1.95942E+01 0.00000E+00
 -1      1057 2.71500E+01 2.92160E+01 0.00000E+00
 -1      1058 9.68732E+01 2.36139E+01 0.00000E+00
 -1      1059 1.13535E+02 1.95942E+01 0.00000E+00
 -1      1060 5.51490E+01 2.65764E+01 0.00000E+00
 -1      1061 2.19000E+01 2.90462E+01 0.00000E+00
 -1      1062 1.29150E+02 2.92610E+01 0.00000E+00
 -1      1063 1.96500E+01 2.88765E+01 0.00000E+00
 -1      1064 3.25350E+01 1.95942E+01 0.00000E+00
 -1      1065 1.29150E+02 2.63298E+01 0.00000E+00
 -1      1066 2.95350E+01 1.95942E+01 0.00000E+00
 -1      1067 2.20673E+01 2.40334E+01 0.00000E+00
 -1      1068 4.45350E+01 1.95942E+01 0.00000E+00
 -1      1069 4.15350E+01 1.95942E+01 0.00000E+00
 -1      1070 5.58237E+01 1.95894E+01 0.00000E+00
 -1      1071 4.75350E+01 1.95942E+01 0.00000E+00
 -1      1072 1.24035E+02 2.21922E+01 0.00000E+00
 -1      1073 2.86500E+01 2.66180E+01 0.00000E+00
 -1      1074 3.46500E+01 2.66180E+01 0.00000E+00
 -1      1075 3.76500E+01 2.66180E+01 0.00000E+00
 -1      1076 4.06500E+01 2.66180E+01 0.00000E+00
 -1      1077 4.36500E+01 2.66180E+01 0.00000E+00
 -1      1078 4.66500E+01 2.66180E+01 0.00000E+00
 -1      1079 4.96500E+01 2.66180E+01 0.00000E+00
 -1      1080 4.90350E+01 2.21922E+01 0.00000E+00
 -1      1081 1.03650E+02 2.66630E+01 0.00000E+00
 -1      1082 1.06650E+02 2.66630E+01 0.00000E+00
 -1      1083 1.09650E+02 2.66630E+01 0.00000E+00
 -1      1084 1.12650E+02 2.66630E+01 0.00000E+00
 -1      1085 1.15650E+02 2.66630E+01 0.00000E+00
 -1      1086 1.18650E+02 2.66630E+01 0.00000E+00
 -1      1087 1.21650E+02 2.66630E+01 0.00000E+00
 -1      1088 1.24650E+02 2.66630E+01 0.00000E+00
 -1      1089 5.41515E+01 2.38659E+01 0.00000E+00
 -1      1090 9.83146E+01 2.69422E+01 0.00000E+00
 -1      1091 3.55350E+01 1.95942E+01 0.00000E+00
 -1      1092 1.00482E+02 2.26056E+01 0.00000E+00
 -1      1093 4.60350E+01 2.21922E+01 0.00000E+00
 -1      1094 1.06035E+02 2.21922E+01 0.00000E+00
 -1      1095 1.21035E+02 2.21922E+01 0.00000E+00
 -1      1096 1.12035E+02 2.21922E+01 0.00000E+00
 -1      1097 1.18035E+02 2.21922E+01 0.00000E+00
 -1      1098 1.03258E+02 2.23989E+01 0.00000E+00
 -1      1099 1.15035E+02 2.21922E+01 0.00000E+00
 -1      1100 1.09035E+02 2.21922E+01 0.00000E+00
 -1      1101 5.61320E+01 2.17252E+01 0.00000E+00
 -1      1102 1.26900E+02 2.64964E+01 0.00000E+00
 -1      1103 5.20350E+01 2.21922E+01 0.00000E+00
 -1      1104 2.56500E+01 2.66180E+01 0.00000E+00
 -1      1105 1.00982E+02 2.68026E+01 0.00000E+00
 -1      1106 2.58113E+01 2.03158E+01 0.00000E+00
 -1      1107 3.16500E+01 2.66180E+01 0.00000E+00
 -1      1108 5.23995E+01 2.65972E+01 0.00000E+00
 -1      1109 4.30350E+01 2.21922E+01 0.00000E+00
 -1      1110 1.26366E+02 2.25003E+01 0.00000E+00
 -1      1111 1.28953E+02 2.45555E+01 0.00000E+00
 -1      1112 3.10350E+01 2.21922E+01 0.00000E+00
 -1      1113 1.28686E+02 2.25575E+01 0.00000E+00
 -1      1114 3.85350E+01 1.95942E+01 0.00000E+00
 -1      1115 3.40350E+01 2.21922E+01 0.00000E+00
 -1      1116 2.34000E+01 2.64482E+01 0.00000E+00
 -1      1117 2.57909E+01 2.33118E+01 0.00000E+00
 -1      1118 3.91500E+01 2.40200E+01 0.00000E+00
 -1      1119 2.84130E+01 2.27520E+01 0.00000E+00
 -1      1120 3.65925E+01 2.31061E+01 0.00000E+00
 -1      1121 1.26916E+02 2.40736E+01 0.00000E+00
 -1      1122 0.00000E+00 4.85250E+01 0.00000E+00
 -1      1123 0.00000E+00 4.55750E+01 0.00000E+00
 -1      1124 0.00000E+00 4.26250E+01 0.00000E+00
 -1      1125 0.00000E+00 3.96750E+01 0.00000E+00
 -1      1126 0.00000E+00 3.67250E+01 0.00000E+00
 -1      1127 0.00000E+00 3.38000E+01 0.00000E+00
 -1      1128 0.00000E+00 3.08750E+01 0.00000E+00
 -1      1129 0.00000E+00 2.79250E+01 0.00000E+00
 -1      1130 0.00000E+00 2.49750E+01 0.00000E+00
 -1      1131 0.00000E+00 2.20250E+01 0.00000E+00
 -1      1132 0.00000E+00 1.90750E+01 0.00000E+00
 -1      1133 0.00000E+00 1.61500E+01 0.00000E+00
 -1      1134 0.00000E+00 1.32250E+01 0.00000E+00
 -1      1135 0.00000E+00 1.02750E+01 0.00000E+00
 -1      1136 0.00000E+00 7.32500E+00 0.00000E+00
 -1      1137 0.00000E+00 4.37500E+00 0.00000E+00
 -1      1138 0.00000E+00 1.45000E+00 0.00000E+00
 -1      1139 1.57500E+00 5.00000E+01 0.00000E+00
 -1      1140 4.65000E+00 5.00000E+01 0.00000E+00
 -1      1141 7.65000E+00 5.00000E+01 0.00000E+00
 -1      1142 1.06500E+01 5.00000E+01 0.00000E+00
 -1      1143 1.36500E+01 5.00000E+01 0.00000E+00
 -1      1144 1.66500E+01 5.00000E+01 0.00000E+00
 -1      1145 1.96500E+01 5.00000E+01 0.00000E+00
 -1      1146 2.26500E+01 5.00000E+01 0.00000E+00
 -1      1147 2.56500E+01 5.00000E+01 0.00000E+00
 -1      1148 2.86500E+01 5.00000E+01 0.00000E+00
 -1      1149 3.16500E+01 5.00000E+01 0.00000E+00
 -1      1150 3.46500E+01 5.00000E+01 0.00000E+00
 -1      1151 3.76500E+01 5.00000E+01 0.00000E+00
 -1      1152 4.06500E+01 5.00000E+01 0.00000E+00
 -1      1153 4.36500E+01 5.00000E+01 0.00000E+00
 -1      1154 4.66500E+01 5.00000E+01 0.00000E+00
 -1      1155 4.96500E+01 5.00000E+01 0.00000E+00
 -1      1156 5.26500E+01 5.00000E+01 0.00000E+00
 -1      1157 5.56500E+01 5.00000E+01 0.00000E+00
 -1      1158 5.86500E+01 5.00000E+01 0.00000E+00
 -1      1159 6.16500E+01 5.00000E+01 0.00000E+00
 -1      1160 6.46500E+01 5.00000E+01 0.00000E+00
 -1      1161 6.76500E+01 5.00000E+01 0.00000E+00
 -1      1162 7.06500E+01 5.00000E+01 0.00000E+00
 -1      1163 7.36500E+01 5.00000E+01 0.00000E+00
 -1      1164 7.66500E+01 5.00000E+01 0.00000E+00
 -1      1165 7.96500E+01 5.00000E+01 0.00000E+00
 -1      1166 8.26500E+01 5.00000E+01 0.00000E+00
 -1      1167 8.56500E+01 5.00000E+01 0.00000E+00
 -1      1168 8.86500E+01 5.00000E+01 0.00000E+00
 -1      1169 9.16500E+01 5.00000E+01 0.00000E+00
 -1      1170 9.46500E+01 5.00000E+01 0.00000E+00
 -1      1171 9.76500E+01 5.00000E+01 0.00000E+00
 -1      1172 1.00650E+02 5.00000E+01 0.00000E+00
 -1      1173 1.03650E+02 5.00000E+01 0.00000E+00
 -1      1174 1.06650E+02 5.00000E+01 0.00000E+00
 -1      1175 1.09650E+02 5.00000E+01 0.00000E+00
 -1      1176 1.12650E+02 5.00000E+01 0.00000E+00
 -1      1177 1.15650E+02 5.00000E+01 0.00000E+00
 -1      1178 1.18650E+02 5.00000E+01 0.00000E+00
 -1      1179 1.21650E+02 5.00000E+01 0.00000E+00
 -1      1180 1.24650E+02 5.00000E+01 0.00000E+00
 -1      1181 1.27650E+02 5.00000E+01 0.00000E+00
 -1      1182 1.30650E+02 5.00000E+01 0.00000E+00
 -1      1183 1.33650E+02 5.00000E+01 0.00000E+00
 -1      1184 1.36650E+02 5.00000E+01 0.00000E+00
 -1      1185 1.39650E+02 5.00000E+01 0.00000E+00
 -1      1186 1.42650E+02 5.00000E+01 0.00000E+00
 -1      1187 1.45650E+02 5.00000E+01 0.00000E+00
 -1      1188 1.48575E+02 5.00000E+01 0.00000E+00
 -1      1189 1.57500E+00 0.00000E+00 0.00000E+00
 -1      1190 4.65000E+00 0.00000E+00 0.00000E+00
 -1      1191 7.65000E+00 0.00000E+00 0.00000E+00
 -1      1192 1.06500E+01 0.00000E+00 0.00000E+00
 -1      1193 1.36500E+01 0.00000E+00 0.00000E+00
 -1      1194 1.66500E+01 0.00000E+00 0.00000E+00
 -1      1195 1.96500E+01 0.00000E+00 0.00000E+00
 -1      1196 2.26500E+01 0.00000E+00 0.00000E+00
 -1      1197 2.56500E+01 0.00000E+00 0.00000E+00
 -1      1198 2.86500E+01 0.00000E+00 0.00000E+00
 -1      1199 3.16500E+01 0.00000E+00 0.00000E+00
 -1      1200 3.46500E+01 0.00000E+00 0.00000E+00
 -1      1201 3.76500E+01 0.00000E+00 0.00000E+00
 -1      1202 4.06500E+01 0.00000E+00 0.00000E+00
 -1      1203 4.36500E+01 0.00000E+00 0.00000E+00
 -1      1204 4.66500E+01 0.00000E+00 0.00000E+00
 -1      1205 4.96500E+01 0.00000E+00 0.00000E+00
 -1      1206 5.26500E+01 0.00000E+00 0.00000E+00
 -1      1207 5.56500E+01 0.00000E+00 0.00000E+00
 -1      1208 5.86500E+01 0.00000E+00 0.00000E+00
 -1      1209 6.16500E+01 0.00000E+00 0.00000E+00
 -1      1210 6.46500E+01 0.00000E+00 0.00000E+00
 -1      1211 6.76500E+01 0.00000E+00 0.00000E+00
 -1      1212 7.06500E+01 0.00000E+00 0.00000E+00
 -1      1213 7.36500E+01 0.00000E+00 0.00000E+00
 -1      1214 7.66500E+01 0.00000E+00 0.00000E+00
 -1      1215 7.96500E+01 0.00000E+00 0.00000E+00
 -1      1216 8.26500E+01 0.00000E+00 0.00000E+00
 -1      1217 8.56500E+01 0.00000E+00 0.00000E+00
 -1      1218 8.86500E+01 0.00000E+00 0.00000E+00
 -1      1219 9.16500E+01 0.00000E+00 0.00000E+00
 -1      1220 9.46500E+01 0.00000E+00 0.00000E+00
 -1      1221 9.76500E+01 0.00000E+00 0.00000E+00
 -1      1222 1.00650E+02 0.00000E+00 0.00000E+00
 -1      1223 1.03650E+02 0.00000E+00 0.00000E+00
 -1      1224 1.06650E+02 0.00000E+00 0.00000E+00
 -1      1225 1.09650E+02 0.00000E+00 0.00000E+00
 -1      1226 1.12650E+02 0.00000E+00 0.00000E+00
 -1      1227 1.15650E+02 0.00000E+00 0.00000E+00
 -1      1228 1.18650E+02 0.00000E+00 0.00000E+00
 -1      1229 1.21650E+02 0.00000E+00 0.00000E+00
 -1      1230 1.24650E+02 0.00000E+00 0.00000E+00
 -1      1231 1.27650E+02 0.00000E+00 0.00000E+00
 -1      1232 1.30650E+02 0.00000E+00 0.00000E+00
 -1      1233 1.33650E+02 0.00000E+00 0.00000E+00
 -1      1234 1.36650E+02 0.00000E+00 0.00000E+00
 -1      1235 1.39650E+02 0.00000E+00 0.00000E+00
 -1      1236 1.42650E+02 0.00000E+00 0.00000E+00
 -1      1237 1.45650E+02 0.00000E+00 0.00000E+00
 -1      1238 1.48575E+02 0.00000E+00 0.00000E+00
 -1      1239 1.50000E+02 1.47500E+00 0.00000E+00
 -1      1240 1.50000E+02 4.42500E+00 0.00000E+00
 -1      1241 1.50000E+02 7.37500E+00 0.00000E+00
 -1      1242 1.50000E+02 1.03250E+01 0.00000E+00
 -1      1243 1.50000E+02 1.32750E+01 0.00000E+00
 -1      1244 1.50000E+02 1.62000E+01 0.00000E+00
 -1      1245 1.50000E+02 1.91250E+01 0.00000E+00
 -1      1246 1.50000E+02 2.20750E+01 0.00000E+00
 -1      1247 1.50000E+02 2.50250E+01 0.00000E+00
 -1      1248 1.50000E+02 2.79750E+01 0.00000E+00
 -1      1249 1.50000E+02 3.09250E+01 0.00000E+00
 -1      1250 1.50000E+02 3.38500E+01 0.00000E+00
 -1      1251 1.50000E+02 3.67750E+01 0.00000E+00
 -1      1252 1.50000E+02 3.97250E+01 0.00000E+00
 -1      1253 1.50000E+02 4.26750E+01 0.00000E+00
 -1      1254 1.50000E+02 4.56250E+01 0.00000E+00
 -1      1255 1.50000E+02 4.85500E+01 0.00000E+00
 -1      1256 8.35533E+01 2.18832E+01 0.00000E+00
 -1      1257 8.32654E+01 2.04797E+01 0.00000E+00
 -1      1258 8.26697E+01 1.91146E+01 0.00000E+00
 -1      1259 8.18247E+01 1.79356E+01 0.00000E+00
 -1      1260 8.08077E+01 1.69956E+01 0.00000E+00
 -1      1261 7.96017E+01 1.62628E+01 0.00000E+00
 -1      1262 7.82449E+01 1.57797E+01 0.00000E+00
 -1      1263 7.67556E+01 1.55829E+01 0.00000E+00
 -1      1264 7.52523E+01 1.57095E+01 0.00000E+00
 -1      1265 7.38456E+01 1.61405E+01 0.00000E+00
 -1      1266 7.25599E+01 1.68561E+01 0.00000E+00
 -1      1267 7.14484E+01 1.78288E+01 0.00000E+00
 -1      1268 7.05736E+01 1.89996E+01 0.00000E+00
 -1      1269 6.99772E+01 2.02799E+01 0.00000E+00
 -1      1270 6.96512E+01 2.16439E+01 0.00000E+00
 -1      1271 6.96031E+01 2.30386E+01 0.00000E+00
 -1      1272 6.98414E+01 2.44467E+01 0.00000E+00
 -1      1273 7.03558E+01 2.57680E+01 0.00000E+00
 -1      1274 7.11394E+01 2.69753E+01 0.00000E+00
 -1      1275 7.21843E+01 2.80220E+01 0.00000E+00
 -1      1276 7.34339E+01 2.88299E+01 0.00000E+00
 -1      1277 7.48479E+01 2.93611E+01 0.00000E+00
 -1      1278 7.63617E+01 2.95772E+01 0.00000E+00
 -1      1279 7.78556E+01 2.94652E+01 0.00000E+00
 -1      1280 7.92726E+01 2.90457E+01 0.00000E+00
 -1      1281 8.05925E+01 2.83224E+01 0.00000E+00
 -1      1282 8.17109E+01 2.73514E+01 0.00000E+00
 -1      1283 8.26021E+01 2.61630E+01 0.00000E+00
 -1      1284 8.32191E+01 2.48238E+01 0.00000E+00
 -1      1285 8.35449E+01 2.33575E+01 0.00000E+00
 -1      1286 1.57500E+00 4.85250E+01 0.00000E+00
 -1      1287 1.29900E+00 4.48375E+01 0.00000E+00
 -1      1288 1.29900E+00 4.63125E+01 0.00000E+00
 -1      1289 1.29900E+00 4.18875E+01 0.00000E+00
 -1      1290 1.29900E+00 4.33625E+01 0.00000E+00
 -1      1291 2.59800E+00 4.41000E+01 0.00000E+00
 -1      1292 1.29900E+00 3.89375E+01 0.00000E+00
 -1      1293 1.29900E+00 4.04125E+01 0.00000E+00
 -1      1294 2.59800E+00 4.11500E+01 0.00000E+00
 -1      1295 1.29900E+00 3.59875E+01 0.00000E+00
 -1      1296 1.29900E+00 3.74625E+01 0.00000E+00
 -1      1297 2.59800E+00 3.82000E+01 0.00000E+00
 -1      1298 1.29900E+00 3.30875E+01 0.00000E+00
 -1      1299 1.29900E+00 3.45375E+01 0.00000E+00
 -1      1300 2.59800E+00 3.52750E+01 0.00000E+00
 -1      1301 1.29900E+00 3.01375E+01 0.00000E+00
 -1      1302 1.29900E+00 3.16125E+01 0.00000E+00
 -1      1303 2.59800E+00 3.23500E+01 0.00000E+00
 -1      1304 1.29900E+00 2.71875E+01 0.00000E+00
 -1      1305 1.29900E+00 2.86625E+01 0.00000E+00
 -1      1306 2.59800E+00 2.94000E+01 0.00000E+00
 -1      1307 1.29900E+00 2.42375E+01 0.00000E+00
 -1      1308 1.29900E+00 2.57125E+01 0.00000E+00
 -1      1309 2.59800E+00 2.64500E+01 0.00000E+00
 -1      1310 1.29900E+00 2.12875E+01 0.00000E+00
 -1      1311 1.29900E+00 2.27625E+01 0.00000E+00
 -1      1312 2.59800E+00 2.35000E+01 0.00000E+00
 -1      1313 1.29900E+00 1.83375E+01 0.00000E+00
 -1      1314 1.29900E+00 1.98125E+01 0.00000E+00
 -1      1315 2.59800E+00 2.05500E+01 0.00000E+00
 -1      1316 1.29900E+00 1.54375E+01 0.00000E+00
 -1      1317 1.29900E+00 1.68875E+01 0.00000E+00
 -1      1318 2.59800E+00 1.76250E+01 0.00000E+00
 -1      1319 1.29900E+00 1.24875E+01 0.00000E+00
 -1      1320 1.29900E+00 1.39625E+01 0.00000E+00
 -1      1321 2.59800E+00 1.47000E+01 0.00000E+00
 -1      1322 1.29900E+00 9.53750E+00 0.00000E+00
 -1      1323 1.29900E+00 1.10125E+01 0.00000E+00
 -1      1324 2.59800E+00 1.17500E+01 0.00000E+00
 -1      1325 1.29900E+00 6.58750E+00 0.00000E+00
 -1      1326 1.29900E+00 8.06250E+00 0.00000E+00
 -1      1327 2.59800E+00 8.80000E+00 0.00000E+00
 -1      1328 1.29900E+00 3.63750E+00 0.00000E+00
 -1      1329 1.29900E+00 5.11250E+00 0.00000E+00
 -1      1330 2.59800E+00 5.85000E+00 0.00000E+00
 -1      1331 1.43700E+00 1.09375E+00 0.00000E+00
 -1      1332 1.43700E+00 2.54375E+00 0.00000E+00
 -1      1333 2.73600E+00 3.28125E+00 0.00000E+00
 -1      1334 3.01200E+00 1.09375E+00 0.00000E+00
 -1      1335 3.90000E+00 4.87010E+01 0.00000E+00
 -1      1336 5.40000E+00 4.87010E+01 0.00000E+00
 -1      1337 6.90000E+00 4.87010E+01 0.00000E+00
 -1      1338 8.40000E+00 4.87010E+01 0.00000E+00
 -1      1339 6.15000E+00 4.74020E+01 0.00000E+00
 -1      1340 9.90000E+00 4.87010E+01 0.00000E+00
 -1      1341 1.14000E+01 4.87010E+01 0.00000E+00
 -1      1342 9.15000E+00 4.74020E+01 0.00000E+00
 -1      1343 1.29000E+01 4.87010E+01 0.00000E+00
 -1      1344 1.44000E+01 4.87010E+01 0.00000E+00
 -1      1345 1.21500E+01 4.74020E+01 0.00000E+00
 -1      1346 1.59000E+01 4.87010E+01 0.00000E+00
 -1      1347 1.74000E+01 4.87010E+01 0.00000E+00
 -1      1348 1.51500E+01 4.74020E+01 0.00000E+00
 -1      1349 1.89000E+01 4.87010E+01 0.00000E+00
 -1      1350 2.04000E+01 4.87010E+01 0.00000E+00
 -1      1351 1.81500E+01 4.74020E+01 0.00000E+00
 -1      1352 2.19000E+01 4.87010E+01 0.00000E+00
 -1      1353 2.34000E+01 4.87010E+01 0.00000E+00
 -1      1354 2.11500E+01 4.74020E+01 0.00000E+00
 -1      1355 2.49000E+01 4.87010E+01 0.00000E+00
 -1      1356 2.64000E+01 4.87010E+01 0.00000E+00
 -1      1357 2.41500E+01 4.74020E+01 0.00000E+00
 -1      1358 2.79000E+01 4.87010E+01 0.00000E+00
 -1      1359 2.94000E+01 4.87010E+01 0.00000E+00
 -1      1360 2.71500E+01 4.74020E+01 0.00000E+00
 -1      1361 3.09000E+01 4.87010E+01 0.00000E+00
 -1      1362 3.24000E+01 4.87010E+01 0.00000E+00
 -1      1363 3.01500E+01 4.74020E+01 0.00000E+00
 -1      1364 3.39000E+01 4.87010E+01 0.00000E+00
 -1      1365 3.54000E+01 4.87010E+01 0.00000E+00
 -1      1366 3.31500E+01 4.74020E+01 0.00000E+00
 -1      1367 3.69000E+01 4.87010E+01 0.00000E+00
 -1      1368 3.84000E+01 4.87010E+01 0.00000E+00
 -1      1369 3.61500E+01 4.74020E+01 0.00000E+00
 -1      1370 3.99000E+01 4.87010E+01 0.00000E+00
 -1      1371 4.14000E+01 4.87010E+01 0.00000E+00
 -1      1372 3.91500E+01 4.74020E+01 0.00000E+00
 -1      1373 4.29000E+01 4.87010E+01 0.00000E+00
 -1      1374 4.44000E+01 4.87010E+01 0.00000E+00
 -1      1375 4.21500E+01 4.74020E+01 0.00000E+00
 -1      1376 4.59000E+01 4.87010E+01 0.00000E+00
 -1      1377 4.74000E+01 4.87010E+01 0.00000E+00
 -1      1378 4.51500E+01 4.74020E+01 0.00000E+00
 -1      1379 4.89000E+01 4.87010E+01 0.00000E+00
 -1      1380 5.04000E+01 4.87010E+01 0.00000E+00
 -1      1381 4.81500E+01 4.74020E+01 0.00000E+00
 -1      1382 5.19000E+01 4.87010E+01 0.00000E+00
 -1      1383 5.34000E+01 4.87010E+01 0.00000E+00
 -1      1384 5.11500E+01 4.74020E+01 0.00000E+00
 -1      1385 5.49000E+01 4.87010E+01 0.00000E+00
 -1      1386 5.64000E+01 4.87010E+01 0.00000E+00
 -1      1387 5.41500E+01 4.74020E+01 0.00000E+00
 -1      1388 5.79000E+01 4.87010E+01 0.00000E+00
 -1      1389 5.94000E+01 4.87010E+01 0.00000E+00
 -1      1390 5.71500E+01 4.74020E+01 0.00000E+00
 -1      1391 6.09000E+01 4.87010E+01 0.00000E+00
 -1      1392 6.24000E+01 4.87010E+01 0.00000E+00
 -1      1393 6.01500E+01 4.74020E+01 0.00000E+00
 -1      1394 6.39000E+01 4.87010E+01 0.00000E+00
 -1      1395 6.54000E+01 4.87010E+01 0.00000E+00
 -1      1396 6.31500E+01 4.74020E+01 0.00000E+00
 -1      1397 6.69000E+01 4.87010E+01 0.00000E+00
 -1      1398 6.84000E+01 4.87010E+01 0.00000E+00
 -1      1399 6.61500E+01 4.74020E+01 0.00000E+00
 -1      1400 6.99000E+01 4.87010E+01 0.00000E+00
 -1      1401 7.14000E+01 4.87010E+01 0.00000E+00
 -1      1402 6.91500E+01 4.74020E+01 0.00000E+00
 -1      1403 7.29000E+01 4.87010E+01 0.00000E+00
 -1      1404 7.44000E+01 4.87010E+01 0.00000E+00
 -1      1405 7.21500E+01 4.74020E+01 0.00000E+00
 -1      1406 7.59000E+01 4.87010E+01 0.00000E+00
 -1      1407 7.74000E+01 4.87010E+01 0.00000E+00
 -1      1408 7.51500E+01 4.74020E+01 0.00000E+00
 -1      1409 7.89000E+01 4.87010E+01 0.00000E+00
 -1      1410 8.04000E+01 4.87010E+01 0.00000E+00
 -1      1411 7.81500E+01 4.74020E+01 0.00000E+00
 -1      1412 8.19000E+01 4.87010E+01 0.00000E+00
 -1      1413 8.34000E+01 4.87010E+01 0.00000E+00
 -1      1414 8.11500E+01 4.74020E+01 0.00000E+00
 -1      1415 8.49000E+01 4.87010E+01 0.00000E+00
 -1      1416 8.64000E+01 4.87010E+01 0.00000E+00
 -1      1417 8.41500E+01 4.74020E+01 0.00000E+00
 -1      1418 8.79000E+01 4.87010E+01 0.00000E+00
 -1      1419 8.94000E+01 4.87010E+01 0.00000E+00
 -1      1420 8.71500E+01 4.74020E+01 0.00000E+00
 -1      1421 9.09000E+01 4.87010E+01 0.00000E+00
 -1      1422 9.24000E+01 4.87010E+01 0.00000E+00
 -1      1423 9.01500E+01 4.74020E+01 0.00000E+00
 -1      1424 9.39000E+01 4.87010E+01 0.00000E+00
 -1      1425 9.54000E+01 4.87010E+01 0.00000E+00
 -1      1426 9.31500E+01 4.74020E+01 0.00000E+00
 -1      1427 9.69000E+01 4.87010E+01 0.00000E+00
 -1      1428 9.84000E+01 4.87010E+01 0.00000E+00
 -1      1429 9.61500E+01 4.74020E+01 0.00000E+00
 -1      1430 9.99000E+01 4.87010E+01 0.00000E+00
 -1      1431 1.01400E+02 4.87010E+01 0.00000E+00
 -1      1432 9.91500E+01 4.74020E+01 0.00000E+00
 -1      1433 1.02900E+02 4.87010E+01 0.00000E+00
 -1      1434 1.04400E+02 4.87010E+01 0.00000E+00
 -1      1435 1.02150E+02 4.74020E+01 0.00000E+00
 -1      1436 1.05900E+02 4.87010E+01 0.00000E+00
 -1      1437 1.07400E+02 4.87010E+01 0.00000E+00
 -1      1438 1.05150E+02 4.74020E+01 0.00000E+00
 -1      1439 1.08900E+02 4.87010E+01 0.00000E+00
 -1      1440 1.10400E+02 4.87010E+01 0.00000E+00
 -1      1441 1.08150E+02 4.74020E+01 0.00000E+00
 -1      1442 1.11900E+02 4.87010E+01 0.00000E+00
 -1      1443 1.13400E+02 4.87010E+01 0.00000E+00
 -1      1444 1.11150E+02 4.74020E+01 0.00000E+00
 -1      1445 1.14900E+02 4.87010E+01 0.00000E+00
 -1      1446 1.16400E+02 4.87010E+01 0.00000E+00
 -1      1447 1.14150E+02 4.74020E+01 0.00000E+00
 -1      1448 1.17900E+02 4.87010E+01 0.00000E+00
 -1      1449 1.19400E+02 4.87010E+01 0.00000E+00
 -1      1450 1.17150E+02 4.74020E+01 0.00000E+00
 -1      1451 1.20900E+02 4.87010E+01 0.00000E+00
 -1      1452 1.22400E+02 4.87010E+01 0.00000E+00
 -1      1453 1.20150E+02 4.74020E+01 0.00000E+00
 -1      1454 1.23900E+02 4.87010E+01 0.00000E+00
 -1      1455 1.25400E+02 4.87010E+01 0.00000E+00
 -1      1456 1.23150E+02 4.74020E+01 0.00000E+00
 -1      1457 1.26900E+02 4.87010E+01 0.00000E+00
 -1      1458 1.28400E+02 4.87010E+01 0.00000E+00
 -1      1459 1.26150E+02 4.74020E+01 0.00000E+00
 -1      1460 1.29900E+02 4.87010E+01 0.00000E+00
 -1      1461 1.31400E+02 4.87010E+01 0.00000E+00
 -1      1462 1.29150E+02 4.74020E+01 0.00000E+00
 -1      1463 1.32900E+02 4.87010E+01 0.00000E+00
 -1      1464 1.34400E+02 4.87010E+01 0.00000E+00
 -1      1465 1.32150E+02 4.74020E+01 0.00000E+00
 -1      1466 1.35900E+02 4.87010E+01 0.00000E+00
 -1      1467 1.37400E+02 4.87010E+01 0.00000E+00
 -1      1468 1.35150E+02 4.74020E+01 0.00000E+00
 -1      1469 1.38900E+02 4.87010E+01 0.00000E+00
 -1      1470 1.40400E+02 4.87010E+01 0.00000E+00
 -1      1471 1.38150E+02 4.74020E+01 0.00000E+00
 -1      1472 1.41900E+02 4.87010E+01 0.00000E+00
 -1      1473 1.43400E+02 4.87010E+01 0.00000E+00
 -1      1474 1.41150E+02 4.74020E+01 0.00000E+00
 -1      1475 1.44900E+02 4.87010E+01 0.00000E+00
 -1      1476 1.46400E+02 4.87010E+01 0.00000E+00
 -1      1477 1.44150E+02 4.74020E+01 0.00000E+00
 -1      1478 1.48575E+02 4.85500E+01 0.00000E+00
 -1      1479 1.47825E+02 4.72510E+01 0.00000E+00
 -1      1480 6.01200E+00 1.09375E+00 0.00000E+00
 -1      1481 4.51200E+00 1.09375E+00 0.00000E+00
 -1      1482 4.37400E+00 2.18750E+00 0.00000E+00
 -1      1483 9.01200E+00 1.09375E+00 0.00000E+00
 -1      1484 7.51200E+00 1.09375E+00 0.00000E+00
 -1      1485 7.37400E+00 2.18750E+00 0.00000E+00
 -1      1486 1.20120E+01 1.09375E+00 0.00000E+00
 -1      1487 1.05120E+01 1.09375E+00 0.00000E+00
 -1      1488 1.03740E+01 2.18750E+00 0.00000E+00
 -1      1489 1.50120E+01 1.09375E+00 0.00000E+00
 -1      1490 1.35120E+01 1.09375E+00 0.00000E+00
 -1      1491 1.33740E+01 2.18750E+00 0.00000E+00
 -1      1492 1.80120E+01 1.09375E+00 0.00000E+00
 -1      1493 1.65120E+01 1.09375E+00 0.00000E+00
 -1      1494 1.63740E+01 2.18750E+00 0.00000E+00
 -1      1495 2.10120E+01 1.09375E+00 0.00000E+00
 -1      1496 1.95120E+01 1.09375E+00 0.00000E+00
 -1      1497 1.93740E+01 2.18750E+00 0.00000E+00
 -1      1498 2.40120E+01 1.09375E+00 0.00000E+00
 -1      1499 2.25120E+01 1.09375E+00 0.00000E+00
 -1      1500 2.23740E+01 2.18750E+00 0.00000E+00
 -1      1501 2.70120E+01 1.09375E+00 0.00000E+00
 -1      1502 2.55120E+01 1.09375E+00 0.00000E+00
 -1      1503 2.53740E+01 2.18750E+00 0.00000E+00
 -1      1504 3.00120E+01 1.09375E+00 0.00000E+00
 -1      1505 2.85120E+01 1.09375E+00 0.00000E+00
 -1      1506 2.83740E+01 2.18750E+00 0.00000E+00
 -1      1507 3.30120E+01 1.09375E+00 0.00000E+00
 -1      1508 3.15120E+01 1.09375E+00 0.00000E+00
 -1      1509 3.13740E+01 2.18750E+00 0.00000E+00
 -1      1510 3.60120E+01 1.09375E+00 0.00000E+00
 -1      1511 3.45120E+01 1.09375E+00 0.00000E+00
 -1      1512 3.43740E+01 2.18750E+00 0.00000E+00
 -1      1513 3.90120E+01 1.09375E+00 0.00000E+00
 -1      1514 3.75120E+01 1.09375E+00 0.00000E+00
 -1      1515 3.73740E+01 2.18750E+00 0.00000E+00
 -1      1516 4.20120E+01 1.09375E+00 0.00000E+00
 -1      1517 4.05120E+01 1.09375E+00 0.00000E+00
 -1      1518 4.03740E+01 2.18750E+00 0.00000E+00
 -1      1519 4.50120E+01 1.09375E+00 0.00000E+00
 -1      1520 4.35120E+01 1.09375E+00 0.00000E+00
 -1      1521 4.33740E+01 2.18750E+00 0.00000E+00
 -1      1522 4.80120E+01 1.09375E+00 0.00000E+00
 -1      1523 4.65120E+01 1.09375E+00 0.00000E+00
 -1      1524 4.63740E+01 2.18750E+00 0.00000E+00
 -1      1525 5.10120E+01 1.09375E+00 0.00000E+00
 -1      1526 4.95120E+01 1.09375E+00 0.00000E+00
 -1      1527 4.93740E+01 2.18750E+00 0.00000E+00
 -1      1528 5.40120E+01 1.09375E+00 0.00000E+00
 -1      1529 5.25120E+01 1.09375E+00 0.00000E+00
 -1      1530 5.23740E+01 2.18750E+00 0.00000E+00
 -1      1531 5.70120E+01 1.09375E+00 0.00000E+00
 -1      1532 5.55120E+01 1.09375E+00 0.00000E+00
 -1      1533 5.53740E+01 2.18750E+00 0.00000E+00
 -1      1534 6.00120E+01 1.09375E+00 0.00000E+00
 -1      1535 5.85120E+01 1.09375E+00 0.00000E+00
 -1      1536 5.83740E+01 2.18750E+00 0.00000E+00
 -1      1537 6.30120E+01 1.09375E+00 0.00000E+00
 -1      1538 6.15120E+01 1.09375E+00 0.00000E+00
 -1      1539 6.13740E+01 2.18750E+00 0.00000E+00
 -1      1540 6.60120E+01 1.09375E+00 0.00000E+00
 -1      1541 6.45120E+01 1.09375E+00 0.00000E+00
 -1      1542 6.43740E+01 2.18750E+00 0.00000E+00
 -1      1543 6.90120E+01 1.09375E+00 0.00000E+00
 -1      1544 6.75120E+01 1.09375E+00 0.00000E+00
 -1      1545 6.73740E+01 2.18750E+00 0.00000E+00
 -1      1546 7.20120E+01 1.09375E+00 0.00000E+00
 -1      1547 7.05120E+01 1.09375E+00 0.00000E+00
 -1      1548 7.03740E+01 2.18750E+00 0.00000E+00
 -1      1549 7.50120E+01 1.09375E+00 0.00000E+00
 -1      1550 7.35120E+01 1.09375E+00 0.00000E+00
 -1      1551 7.33740E+01 2.18750E+00 0.00000E+00
 -1      1552 7.80120E+01 1.09375E+00 0.00000E+00
 -1      1553 7.65120E+01 1.09375E+00 0.00000E+00
 -1      1554 7.63740E+01 2.18750E+00 0.00000E+00
 -1      1555 8.10120E+01 1.09375E+00 0.00000E+00
 -1      1556 7.95120E+01 1.09375E+00 0.00000E+00
 -1      1557 7.93740E+01 2.18750E+00 0.00000E+00
 -1      1558 8.40120E+01 1.09375E+00 0.00000E+00
 -1      1559 8.25120E+01 1.09375E+00 0.00000E+00
 -1      1560 8.23740E+01 2.18750E+00 0.00000E+00
 -1      1561 8.70120E+01 1.09375E+00 0.00000E+00
 -1      1562 8.55120E+01 1.09375E+00 0.00000E+00
 -1      1563 8.53740E+01 2.18750E+00 0.00000E+00
 -1      1564 9.00120E+01 1.09375E+00 0.00000E+00
 -1      1565 8.85120E+01 1.09375E+00 0.00000E+00
 -1      1566 8.83740E+01 2.18750E+00 0.00000E+00
 -1      1567 9.30120E+01 1.09375E+00 0.00000E+00
 -1      1568 9.15120E+01 1.09375E+00 0.00000E+00
 -1      1569 9.13740E+01 2.18750E+00 0.00000E+00
 -1      1570 9.60120E+01 1.09375E+00 0.00000E+00
 -1      1571 9.45120E+01 1.09375E+00 0.00000E+00
 -1      1572 9.43740E+01 2.18750E+00 0.00000E+00
 -1      1573 9.90120E+01 1.09375E+00 0.00000E+00
 -1      1574 9.75120E+01 1.09375E+00 0.00000E+00
 -1      1575 9.73740E+01 2.18750E+00 0.00000E+00
 -1      1576 1.02012E+02 1.09375E+00 0.00000E+00
 -1      1577 1.00512E+02 1.09375E+00 0.00000E+00
 -1      1578 1.00374E+02 2.18750E+00 0.00000E+00
 -1      1579 1.05012E+02 1.09375E+00 0.00000E+00
 -1      1580 1.03512E+02 1.09375E+00 0.00000E+00
 -1      1581 1.03374E+02 2.18750E+00 0.00000E+00
 -1      1582 1.08012E+02 1.09375E+00 0.00000E+00
 -1      1583 1.06512E+02 1.09375E+00 0.00000E+00
 -1      1584 1.06374E+02 2.18750E+00 0.00000E+00
 -1      1585 1.11012E+02 1.09375E+00 0.00000E+00
 -1      1586 1.09512E+02 1.09375E+00 0.00000E+00
 -1      1587 1.09374E+02 2.18750E+00 0.00000E+00
 -1      1588 1.14012E+02 1.09375E+00 0.00000E+00
 -1      1589 1.12512E+02 1.09375E+00 0.00000E+00
 -1      1590 1.12374E+02 2.18750E+00 0.00000E+00
 -1      1591 1.17012E+02 1.09375E+00 0.00000E+00
 -1      1592 1.15512E+02 1.09375E+00 0.00000E+00
 -1      1593 1.15374E+02 2.18750E+00 0.00000E+00
 -1      1594 1.20012E+02 1.09375E+00 0.00000E+00
 -1      1595 1.18512E+02 1.09375E+00 0.00000E+00
 -1      1596 1.18374E+02 2.18750E+00 0.00000E+00
 -1      1597 1.23012E+02 1.09375E+00 0.00000E+00
 -1      1598 1.21512E+02 1.09375E+00 0.00000E+00
 -1      1599 1.21374E+02 2.18750E+00 0.00000E+00
 -1      1600 1.26012E+02 1.09375E+00 0.00000E+00
 -1      1601 1.24512E+02 1.09375E+00 0.00000E+00
 -1      1602 1.24374E+02 2.18750E+00 0.00000E+00
 -1      1603 1.29012E+02 1.09375E+00 0.00000E+00
 -1      1604 1.27512E+02 1.09375E+00 0.00000E+00
 -1      1605 1.27374E+02 2.18750E+00 0.00000E+00
 -1      1606 1.32012E+02 1.09375E+00 0.00000E+00
 -1      1607 1.30512E+02 1.09375E+00 0.00000E+00
 -1      1608 1.30374E+02 2.18750E+00 0.00000E+00
 -1      1609 1.35012E+02 1.09375E+00 0.00000E+00
 -1      1610 1.33512E+02 1.09375E+00 0.00000E+00
 -1      1611 1.33374E+02 2.18750E+00 0.00000E+00
 -1      1612 1.38012E+02 1.09375E+00 0.00000E+00
 -1      1613 1.36512E+02 1.09375E+00 0.00000E+00
 -1      1614 1.36374E+02 2.18750E+00 0.00000E+00
 -1      1615 1.41012E+02 1.09375E+00 0.00000E+00
 -1      1616 1.39512E+02 1.09375E+00 0.00000E+00
 -1      1617 1.39374E+02 2.18750E+00 0.00000E+00
 -1      1618 1.44012E+02 1.09375E+00 0.00000E+00
 -1      1619 1.42512E+02 1.09375E+00 0.00000E+00
 -1      1620 1.42374E+02 2.18750E+00 0.00000E+00
 -1      1621 1.47012E+02 1.09375E+00 0.00000E+00
 -1      1622 1.45512E+02 1.09375E+00 0.00000E+00
 -1      1623 1.45374E+02 2.18750E+00 0.00000E+00
 -1      1624 1.48575E+02 1.47500E+00 0.00000E+00
 -1      1625 1.48701E+02 5.16250E+00 0.00000E+00
 -1      1626 1.48701E+02 3.68750E+00 0.00000E+00
 -1      1627 1.48701E+02 8.11250E+00 0.00000E+00
 -1      1628 1.48701E+02 6.63750E+00 0.00000E+00
 -1      1629 1.47402E+02 5.90000E+00 0.00000E+00
 -1      1630 1.48701E+02 1.10625E+01 0.00000E+00
 -1      1631 1.48701E+02 9.58750E+00 0.00000E+00
 -1      1632 1.47402E+02 8.85000E+00 0.00000E+00
 -1      1633 1.48701E+02 1.40125E+01 0.00000E+00
 -1      1634 1.48701E+02 1.25375E+01 0.00000E+00
 -1      1635 1.47402E+02 1.18000E+01 0.00000E+00
 -1      1636 1.48701E+02 1.69125E+01 0.00000E+00
 -1      1637 1.48701E+02 1.54625E+01 0.00000E+00
 -1      1638 1.47402E+02 1.47250E+01 0.00000E+00
 -1      1639 1.48701E+02 1.98625E+01 0.00000E+00
 -1      1640 1.48701E+02 1.83875E+01 0.00000E+00
 -1      1641 1.47402E+02 1.76500E+01 0.00000E+00
 -1      1642 1.48701E+02 2.28125E+01 0.00000E+00
 -1      1643 1.48701E+02 2.13375E+01 0.00000E+00
 -1      1644 1.47402E+02 2.06000E+01 0.00000E+00
 -1      1645 1.48701E+02 2.57625E+01 0.00000E+00
 -1      1646 1.48701E+02 2.42875E+01 0.00000E+00
 -1      1647 1.47402E+02 2.35500E+01 0.00000E+00
 -1      1648 1.48701E+02 2.87125E+01 0.00000E+00
 -1      1649 1.48701E+02 2.72375E+01 0.00000E+00
 -1      1650 1.47402E+02 2.65000E+01 0.00000E+00
 -1      1651 1.48701E+02 3.16625E+01 0.00000E+00
 -1      1652 1.48701E+02 3.01875E+01 0.00000E+00
 -1      1653 1.47402E+02 2.94500E+01 0.00000E+00
 -1      1654 1.48701E+02 3.45625E+01 0.00000E+00
 -1      1655 1.48701E+02 3.31125E+01 0.00000E+00
 -1      1656 1.47402E+02 3.23750E+01 0.00000E+00
 -1      1657 1.48701E+02 3.75125E+01 0.00000E+00
 -1      1658 1.48701E+02 3.60375E+01 0.00000E+00
 -1      1659 1.47402E+02 3.53000E+01 0.00000E+00
 -1      1660 1.48701E+02 4.04625E+01 0.00000E+00
 -1      1661 1.48701E+02 3.89875E+01 0.00000E+00
 -1      1662 1.47402E+02 3.82500E+01 0.00000E+00
 -1      1663 1.48701E+02 4.34125E+01 0.00000E+00
 -1      1664 1.48701E+02 4.19375E+01 0.00000E+00
 -1      1665 1.47402E+02 4.12000E+01 0.00000E+00
 -1      1666 1.48263E+02 4.60692E+01 0.00000E+00
 -1      1667 1.48263E+02 4.45942E+01 0.00000E+00
 -1      1668 1.46964E+02 4.38568E+01 0.00000E+00
 -1      1669 1.46088E+02 4.62202E+01 0.00000E+00
 -1      1670 8.40871E+01 2.14792E+01 0.00000E+00
 -1      1671 8.41566E+01 2.21734E+01 0.00000E+00
 -1      1672 8.36963E+01 1.99587E+01 0.00000E+00
 -1      1673 8.39170E+01 2.06599E+01 0.00000E+00
 -1      1674 8.30470E+01 1.84655E+01 0.00000E+00
 -1      1675 8.34205E+01 1.91207E+01 0.00000E+00
 -1      1676 8.20212E+01 1.72959E+01 0.00000E+00
 -1      1677 8.24833E+01 1.78168E+01 0.00000E+00
 -1      1678 8.08779E+01 1.63314E+01 0.00000E+00
 -1      1679 8.14274E+01 1.67465E+01 0.00000E+00
 -1      1680 7.95566E+01 1.55182E+01 0.00000E+00
 -1      1681 8.02087E+01 1.58293E+01 0.00000E+00
 -1      1682 7.80409E+01 1.51010E+01 0.00000E+00
 -1      1683 7.87382E+01 1.52708E+01 0.00000E+00
 -1      1684 7.63790E+01 1.49278E+01 0.00000E+00
 -1      1685 7.71632E+01 1.49465E+01 0.00000E+00
 -1      1686 7.47884E+01 1.52204E+01 0.00000E+00
 -1      1687 7.54992E+01 1.50822E+01 0.00000E+00
 -1      1688 7.32637E+01 1.57273E+01 0.00000E+00
 -1      1689 7.39510E+01 1.54346E+01 0.00000E+00
 -1      1690 7.19364E+01 1.65996E+01 0.00000E+00
 -1      1691 7.25289E+01 1.61826E+01 0.00000E+00
 -1      1692 7.07161E+01 1.76642E+01 0.00000E+00
 -1      1693 7.12270E+01 1.71116E+01 0.00000E+00
 -1      1694 6.98664E+01 1.89910E+01 0.00000E+00
 -1      1695 7.02291E+01 1.83818E+01 0.00000E+00
 -1      1696 6.93225E+01 2.04244E+01 0.00000E+00
 -1      1697 6.95537E+01 1.97601E+01 0.00000E+00
 -1      1698 6.90383E+01 2.19137E+01 0.00000E+00
 -1      1699 6.91319E+01 2.12211E+01 0.00000E+00
 -1      1700 6.90557E+01 2.34235E+01 0.00000E+00
 -1      1701 6.90101E+01 2.27284E+01 0.00000E+00
 -1      1702 6.93512E+01 2.49618E+01 0.00000E+00
 -1      1703 6.91562E+01 2.42567E+01 0.00000E+00
 -1      1704 7.00023E+01 2.63341E+01 0.00000E+00
 -1      1705 6.96899E+01 2.57231E+01 0.00000E+00
 -1      1706 7.09355E+01 2.76234E+01 0.00000E+00
 -1      1707 7.04628E+01 2.70373E+01 0.00000E+00
 -1      1708 7.21088E+01 2.86922E+01 0.00000E+00
 -1      1709 7.15445E+01 2.82355E+01 0.00000E+00
 -1      1710 7.35007E+01 2.95430E+01 0.00000E+00
 -1      1711 7.28204E+01 2.91996E+01 0.00000E+00
 -1      1712 7.50593E+01 3.00430E+01 0.00000E+00
 -1      1713 7.43343E+01 2.98569E+01 0.00000E+00
 -1      1714 7.67309E+01 3.02358E+01 0.00000E+00
 -1      1715 7.59507E+01 3.02106E+01 0.00000E+00
 -1      1716 7.83115E+01 2.99601E+01 0.00000E+00
 -1      1717 7.76059E+01 3.00900E+01 0.00000E+00
 -1      1718 7.98564E+01 2.94602E+01 0.00000E+00
 -1      1719 7.91542E+01 2.97517E+01 0.00000E+00
 -1      1720 8.12460E+01 2.86084E+01 0.00000E+00
 -1      1721 8.06351E+01 2.90344E+01 0.00000E+00
 -1      1722 8.23770E+01 2.74687E+01 0.00000E+00
 -1      1723 8.18752E+01 2.80075E+01 0.00000E+00
 -1      1724 8.33521E+01 2.61737E+01 0.00000E+00
 -1      1725 8.29687E+01 2.68174E+01 0.00000E+00
 -1      1726 8.38738E+01 2.46624E+01 0.00000E+00
 -1      1727 8.36414E+01 2.53495E+01 0.00000E+00
 -1      1728 8.42308E+01 2.30434E+01 0.00000E+00
 -1      1729 8.41446E+01 2.38153E+01 0.00000E+00
 -1      1730 8.21119E+01 1.66047E+01 0.00000E+00
 -1      1731 8.32695E+01 1.78027E+01 0.00000E+00
 -1      1732 1.48437E+02 2.56875E+00 0.00000E+00
 -1      1733 1.47138E+02 3.30625E+00 0.00000E+00
 -1      1734 8.45550E+01 2.09466E+01 0.00000E+00
 -1      1735 8.41090E+01 1.92894E+01 0.00000E+00
 -1      1736 8.47992E+01 2.26359E+01 0.00000E+00
 -1      1737 8.08489E+01 1.55531E+01 0.00000E+00
 -1      1738 7.93613E+01 1.48036E+01 0.00000E+00
 -1      1739 7.76653E+01 1.44018E+01 0.00000E+00
 -1      1740 7.59079E+01 1.44018E+01 0.00000E+00
 -1      1741 7.41908E+01 1.47705E+01 0.00000E+00
 -1      1742 7.26186E+01 1.54400E+01 0.00000E+00
 -1      1743 7.11743E+01 1.64074E+01 0.00000E+00
 -1      1744 6.99779E+01 1.76372E+01 0.00000E+00
 -1      1745 6.91782E+01 1.91239E+01 0.00000E+00
 -1      1746 6.86750E+01 2.06896E+01 0.00000E+00
 -1      1747 6.84562E+01 2.23009E+01 0.00000E+00
 -1      1748 6.85285E+01 2.39488E+01 0.00000E+00
 -1      1749 6.89677E+01 2.55433E+01 0.00000E+00
 -1      1750 6.97668E+01 2.70077E+01 0.00000E+00
 -1      1751 7.08363E+01 2.83230E+01 0.00000E+00
 -1      1752 7.21569E+01 2.94425E+01 0.00000E+00
 -1      1753 7.37021E+01 3.02638E+01 0.00000E+00
 -1      1754 7.54271E+01 3.07453E+01 0.00000E+00
 -1      1755 7.71935E+01 3.07670E+01 0.00000E+00
 -1      1756 7.89112E+01 3.04129E+01 0.00000E+00
 -1      1757 8.05326E+01 2.97787E+01 0.00000E+00
 -1      1758 8.19405E+01 2.87521E+01 0.00000E+00
 -1      1759 8.31614E+01 2.74999E+01 0.00000E+00
 -1      1760 8.40425E+01 2.60244E+01 0.00000E+00
 -1      1761 8.46027E+01 2.43530E+01 0.00000E+00
 -1      1762 2.87400E+00 4.77875E+01 0.00000E+00
 -1      1763 3.89700E+00 4.04125E+01 0.00000E+00
 -1      1764 3.89700E+00 4.18875E+01 0.00000E+00
 -1      1765 3.89700E+00 4.33625E+01 0.00000E+00
 -1      1766 3.89700E+00 4.48375E+01 0.00000E+00
 -1      1767 5.19600E+00 4.26250E+01 0.00000E+00
 -1      1768 3.89700E+00 3.45500E+01 0.00000E+00
 -1      1769 3.89700E+00 3.60000E+01 0.00000E+00
 -1      1770 3.89700E+00 3.16000E+01 0.00000E+00
 -1      1771 3.89700E+00 3.30750E+01 0.00000E+00
 -1      1772 5.19600E+00 3.38000E+01 0.00000E+00
 -1      1773 3.89700E+00 2.86500E+01 0.00000E+00
 -1      1774 3.89700E+00 3.01250E+01 0.00000E+00
 -1      1775 5.19600E+00 3.08500E+01 0.00000E+00
 -1      1776 3.89700E+00 2.57000E+01 0.00000E+00
 -1      1777 3.89700E+00 2.71750E+01 0.00000E+00
 -1      1778 5.19600E+00 2.79000E+01 0.00000E+00
 -1      1779 3.89700E+00 2.27500E+01 0.00000E+00
 -1      1780 3.89700E+00 2.42250E+01 0.00000E+00
 -1      1781 5.19600E+00 2.49500E+01 0.00000E+00
 -1      1782 3.89700E+00 1.98000E+01 0.00000E+00
 -1      1783 3.89700E+00 2.12750E+01 0.00000E+00
 -1      1784 5.19600E+00 2.20000E+01 0.00000E+00
 -1      1785 3.89700E+00 1.69000E+01 0.00000E+00
 -1      1786 3.89700E+00 1.83500E+01 0.00000E+00
 -1      1787 5.19600E+00 1.90750E+01 0.00000E+00
 -1      1788 3.89700E+00 1.39500E+01 0.00000E+00
 -1      1789 3.89700E+00 1.54250E+01 0.00000E+00
 -1      1790 5.19600E+00 1.61500E+01 0.00000E+00
 -1      1791 3.89700E+00 1.10000E+01 0.00000E+00
 -1      1792 3.89700E+00 1.24750E+01 0.00000E+00
 -1      1793 5.19600E+00 1.32000E+01 0.00000E+00
 -1      1794 3.89700E+00 8.05000E+00 0.00000E+00
 -1      1795 3.89700E+00 9.52500E+00 0.00000E+00
 -1      1796 5.19600E+00 1.02500E+01 0.00000E+00
 -1      1797 3.89700E+00 5.10000E+00 0.00000E+00
 -1      1798 3.89700E+00 6.57500E+00 0.00000E+00
 -1      1799 5.19600E+00 7.30000E+00 0.00000E+00
 -1      1800 4.20450E+00 3.09687E+00 0.00000E+00
 -1      1801 4.06650E+00 4.19063E+00 0.00000E+00
 -1      1802 5.36550E+00 4.91563E+00 0.00000E+00
 -1      1803 5.70450E+00 3.09687E+00 0.00000E+00
 -1      1804 3.62400E+00 4.64885E+01 0.00000E+00
 -1      1805 8.70450E+00 3.09687E+00 0.00000E+00
 -1      1806 7.20450E+00 3.09687E+00 0.00000E+00
 -1      1807 7.03500E+00 4.00625E+00 0.00000E+00
 -1      1808 4.92300E+00 4.57510E+01 0.00000E+00
 -1      1809 8.40000E+00 4.61030E+01 0.00000E+00
 -1      1810 9.90000E+00 4.61030E+01 0.00000E+00
 -1      1811 1.14000E+01 4.61030E+01 0.00000E+00
 -1      1812 1.29000E+01 4.61030E+01 0.00000E+00
 -1      1813 1.06500E+01 4.48040E+01 0.00000E+00
 -1      1814 1.44000E+01 4.61030E+01 0.00000E+00
 -1      1815 1.59000E+01 4.61030E+01 0.00000E+00
 -1      1816 1.36500E+01 4.48040E+01 0.00000E+00
 -1      1817 1.74000E+01 4.61030E+01 0.00000E+00
 -1      1818 1.89000E+01 4.61030E+01 0.00000E+00
 -1      1819 1.66500E+01 4.48040E+01 0.00000E+00
 -1      1820 2.04000E+01 4.61030E+01 0.00000E+00
 -1      1821 2.19000E+01 4.61030E+01 0.00000E+00
 -1      1822 1.96500E+01 4.48040E+01 0.00000E+00
 -1      1823 2.34000E+01 4.61030E+01 0.00000E+00
 -1      1824 2.49000E+01 4.61030E+01 0.00000E+00
 -1      1825 2.26500E+01 4.48040E+01 0.00000E+00
 -1      1826 2.64000E+01 4.61030E+01 0.00000E+00
 -1      1827 2.79000E+01 4.61030E+01 0.00000E+00
 -1      1828 2.56500E+01 4.48040E+01 0.00000E+00
 -1      1829 2.94000E+01 4.61030E+01 0.00000E+00
 -1      1830 3.09000E+01 4.61030E+01 0.00000E+00
 -1      1831 2.86500E+01 4.48040E+01 0.00000E+00
 -1      1832 3.24000E+01 4.61030E+01 0.00000E+00
 -1      1833 3.39000E+01 4.61030E+01 0.00000E+00
 -1      1834 3.16500E+01 4.48040E+01 0.00000E+00
 -1      1835 3.54000E+01 4.61030E+01 0.00000E+00
 -1      1836 3.69000E+01 4.61030E+01 0.00000E+00
 -1      1837 3.46500E+01 4.48040E+01 0.00000E+00
 -1      1838 3.84000E+01 4.61030E+01 0.00000E+00
 -1      1839 3.99000E+01 4.61030E+01 0.00000E+00
 -1      1840 3.76500E+01 4.48040E+01 0.00000E+00
 -1      1841 4.14000E+01 4.61030E+01 0.00000E+00
 -1      1842 4.29000E+01 4.61030E+01 0.00000E+00
 -1      1843 4.06500E+01 4.48040E+01 0.00000E+00
 -1      1844 4.44000E+01 4.61030E+01 0.00000E+00
 -1      1845 4.59000E+01 4.61030E+01 0.00000E+00
 -1      1846 4.36500E+01 4.48040E+01 0.00000E+00
 -1      1847 4.74000E+01 4.61030E+01 0.00000E+00
 -1      1848 4.89000E+01 4.61030E+01 0.00000E+00
 -1      1849 4.66500E+01 4.48040E+01 0.00000E+00
 -1      1850 5.04000E+01 4.61030E+01 0.00000E+00
 -1      1851 5.19000E+01 4.61030E+01 0.00000E+00
 -1      1852 4.96500E+01 4.48040E+01 0.00000E+00
 -1      1853 5.34000E+01 4.61030E+01 0.00000E+00
 -1      1854 5.49000E+01 4.61030E+01 0.00000E+00
 -1      1855 5.26500E+01 4.48040E+01 0.00000E+00
 -1      1856 5.64000E+01 4.61030E+01 0.00000E+00
 -1      1857 5.79000E+01 4.61030E+01 0.00000E+00
 -1      1858 5.56500E+01 4.48040E+01 0.00000E+00
 -1      1859 5.94000E+01 4.61030E+01 0.00000E+00
 -1      1860 6.09000E+01 4.61030E+01 0.00000E+00
 -1      1861 5.86500E+01 4.48040E+01 0.00000E+00
 -1      1862 6.24000E+01 4.61030E+01 0.00000E+00
 -1      1863 6.39000E+01 4.61030E+01 0.00000E+00
 -1      1864 6.16500E+01 4.48040E+01 0.00000E+00
 -1      1865 6.54000E+01 4.61030E+01 0.00000E+00
 -1      1866 6.69000E+01 4.61030E+01 0.00000E+00
 -1      1867 6.46500E+01 4.48040E+01 0.00000E+00
 -1      1868 6.84000E+01 4.61030E+01 0.00000E+00
 -1      1869 6.99000E+01 4.61030E+01 0.00000E+00
 -1      1870 6.76500E+01 4.48040E+01 0.00000E+00
 -1      1871 7.14000E+01 4.61030E+01 0.00000E+00
 -1      1872 7.29000E+01 4.61030E+01 0.00000E+00
 -1      1873 7.06500E+01 4.48040E+01 0.00000E+00
 -1      1874 7.44000E+01 4.61030E+01 0.00000E+00
 -1      1875 7.59000E+01 4.61030E+01 0.00000E+00
 -1      1876 7.36500E+01 4.48040E+01 0.00000E+00
 -1      1877 7.74000E+01 4.61030E+01 0.00000E+00
 -1      1878 7.89000E+01 4.61030E+01 0.00000E+00
 -1      1879 7.66500E+01 4.48040E+01 0.00000E+00
 -1      1880 8.04000E+01 4.61030E+01 0.00000E+00
 -1      1881 8.19000E+01 4.61030E+01 0.00000E+00
 -1      1882 7.96500E+01 4.48040E+01 0.00000E+00
 -1      1883 8.34000E+01 4.61030E+01 0.00000E+00
 -1      1884 8.49000E+01 4.61030E+01 0.00000E+00
 -1      1885 8.26500E+01 4.48040E+01 0.00000E+00
 -1      1886 8.64000E+01 4.61030E+01 0.00000E+00
 -1      1887 8.79000E+01 4.61030E+01 0.00000E+00
 -1      1888 8.56500E+01 4.48040E+01 0.00000E+00
 -1      1889 8.94000E+01 4.61030E+01 0.00000E+00
 -1      1890 9.09000E+01 4.61030E+01 0.00000E+00
 -1      1891 8.86500E+01 4.48040E+01 0.00000E+00
 -1      1892 9.24000E+01 4.61030E+01 0.00000E+00
 -1      1893 9.39000E+01 4.61030E+01 0.00000E+00
 -1      1894 9.16500E+01 4.48040E+01 0.00000E+00
 -1      1895 9.54000E+01 4.61030E+01 0.00000E+00
 -1      1896 9.69000E+01 4.61030E+01 0.00000E+00
 -1      1897 9.46500E+01 4.48040E+01 0.00000E+00
 -1      1898 9.84000E+01 4.61030E+01 0.00000E+00
 -1      1899 9.99000E+01 4.61030E+01 0.00000E+00
 -1      1900 9.76500E+01 4.48040E+01 0.00000E+00
 -1      1901 1.01400E+02 4.61030E+01 0.00000E+00
 -1      1902 1.02900E+02 4.61030E+01 0.00000E+00
 -1      1903 1.00650E+02 4.48040E+01 0.00000E+00
 -1      1904 1.04400E+02 4.61030E+01 0.00000E+00
 -1      1905 1.05900E+02 4.61030E+01 0.00000E+00
 -1      1906 1.03650E+02 4.48040E+01 0.00000E+00
 -1      1907 1.07400E+02 4.61030E+01 0.00000E+00
 -1      1908 1.08900E+02 4.61030E+01 0.00000E+00
 -1      1909 1.06650E+02 4.48040E+01 0.00000E+00
 -1      1910 1.10400E+02 4.61030E+01 0.00000E+00
 -1      1911 1.11900E+02 4.61030E+01 0.00000E+00
 -1      1912 1.09650E+02 4.48040E+01 0.00000E+00
 -1      1913 1.13400E+02 4.61030E+01 0.00000E+00
 -1      1914 1.14900E+02 4.61030E+01 0.00000E+00
 -1      1915 1.12650E+02 4.48040E+01 0.00000E+00
 -1      1916 1.16400E+02 4.61030E+01 0.00000E+00
 -1      1917 1.17900E+02 4.61030E+01 0.00000E+00
 -1      1918 1.15650E+02 4.48040E+01 0.00000E+00
 -1      1919 1.19400E+02 4.61030E+01 0.00000E+00
 -1      1920 1.20900E+02 4.61030E+01 0.00000E+00
 -1      1921 1.18650E+02 4.48040E+01 0.00000E+00
 -1      1922 1.22400E+02 4.61030E+01 0.00000E+00
 -1      1923 1.23900E+02 4.61030E+01 0.00000E+00
 -1      1924 1.21650E+02 4.48040E+01 0.00000E+00
 -1      1925 1.25400E+02 4.61030E+01 0.00000E+00
 -1      1926 1.26900E+02 4.61030E+01 0.00000E+00
 -1      1927 1.24650E+02 4.48040E+01 0.00000E+00
 -1      1928 1.28400E+02 4.61030E+01 0.00000E+00
 -1      1929 1.29900E+02 4.61030E+01 0.00000E+00
 -1      1930 1.27650E+02 4.48040E+01 0.00000E+00
 -1      1931 1.31400E+02 4.61030E+01 0.00000E+00
 -1      1932 1.32900E+02 4.61030E+01 0.00000E+00
 -1      1933 1.30650E+02 4.48040E+01 0.00000E+00
 -1      1934 1.34400E+02 4.61030E+01 0.00000E+00
 -1      1935 1.35900E+02 4.61030E+01 0.00000E+00
 -1      1936 1.33650E+02 4.48040E+01 0.00000E+00
 -1      1937 1.37400E+02 4.61030E+01 0.00000E+00
 -1      1938 1.38900E+02 4.61030E+01 0.00000E+00
 -1      1939 1.36650E+02 4.48040E+01 0.00000E+00
 -1      1940 1.40400E+02 4.61030E+01 0.00000E+00
 -1      1941 1.41900E+02 4.61030E+01 0.00000E+00
 -1      1942 1.39650E+02 4.48040E+01 0.00000E+00
 -1      1943 1.43244E+02 4.61616E+01 0.00000E+00
 -1      1944 1.44744E+02 4.61616E+01 0.00000E+00
 -1      1945 1.45182E+02 4.49799E+01 0.00000E+00
 -1      1946 1.42494E+02 4.48626E+01 0.00000E+00
 -1      1947 1.17045E+01 3.09687E+00 0.00000E+00
 -1      1948 1.02045E+01 3.09687E+00 0.00000E+00
 -1      1949 1.00350E+01 4.00625E+00 0.00000E+00
 -1      1950 1.47045E+01 3.09687E+00 0.00000E+00
 -1      1951 1.32045E+01 3.09687E+00 0.00000E+00
 -1      1952 1.30350E+01 4.00625E+00 0.00000E+00
 -1      1953 1.77045E+01 3.09687E+00 0.00000E+00
 -1      1954 1.62045E+01 3.09687E+00 0.00000E+00
 -1      1955 1.60350E+01 4.00625E+00 0.00000E+00
 -1      1956 2.07045E+01 3.09687E+00 0.00000E+00
 -1      1957 1.92045E+01 3.09687E+00 0.00000E+00
 -1      1958 1.90350E+01 4.00625E+00 0.00000E+00
 -1      1959 2.37045E+01 3.09687E+00 0.00000E+00
 -1      1960 2.22045E+01 3.09687E+00 0.00000E+00
 -1      1961 2.20350E+01 4.00625E+00 0.00000E+00
 -1      1962 2.67045E+01 3.09687E+00 0.00000E+00
 -1      1963 2.52045E+01 3.09687E+00 0.00000E+00
 -1      1964 2.50350E+01 4.00625E+00 0.00000E+00
 -1      1965 2.97045E+01 3.09687E+00 0.00000E+00
 -1      1966 2.82045E+01 3.09687E+00 0.00000E+00
 -1      1967 2.80350E+01 4.00625E+00 0.00000E+00
 -1      1968 3.27045E+01 3.09687E+00 0.00000E+00
 -1      1969 3.12045E+01 3.09687E+00 0.00000E+00
 -1      1970 3.10350E+01 4.00625E+00 0.00000E+00
 -1      1971 3.57045E+01 3.09687E+00 0.00000E+00
 -1      1972 3.42045E+01 3.09687E+00 0.00000E+00
 -1      1973 3.40350E+01 4.00625E+00 0.00000E+00
 -1      1974 3.87045E+01 3.09687E+00 0.00000E+00
 -1      1975 3.72045E+01 3.09687E+00 0.00000E+00
 -1      1976 3.70350E+01 4.00625E+00 0.00000E+00
 -1      1977 4.17045E+01 3.09687E+00 0.00000E+00
 -1      1978 4.02045E+01 3.09687E+00 0.00000E+00
 -1      1979 4.00350E+01 4.00625E+00 0.00000E+00
 -1      1980 4.47045E+01 3.09687E+00 0.00000E+00
 -1      1981 4.32045E+01 3.09687E+00 0.00000E+00
 -1      1982 4.30350E+01 4.00625E+00 0.00000E+00
 -1      1983 4.77045E+01 3.09687E+00 0.00000E+00
 -1      1984 4.62045E+01 3.09687E+00 0.00000E+00
 -1      1985 4.60350E+01 4.00625E+00 0.00000E+00
 -1      1986 5.07045E+01 3.09687E+00 0.00000E+00
 -1      1987 4.92045E+01 3.09687E+00 0.00000E+00
 -1      1988 4.90350E+01 4.00625E+00 0.00000E+00
 -1      1989 5.37045E+01 3.09687E+00 0.00000E+00
 -1      1990 5.22045E+01 3.09687E+00 0.00000E+00
 -1      1991 5.20350E+01 4.00625E+00 0.00000E+00
 -1      1992 5.67045E+01 3.09687E+00 0.00000E+00
 -1      1993 5.52045E+01 3.09687E+00 0.00000E+00
 -1      1994 5.50350E+01 4.00625E+00 0.00000E+00
 -1      1995 5.97045E+01 3.09687E+00 0.00000E+00
 -1      1996 5.82045E+01 3.09687E+00 0.00000E+00
 -1      1997 5.80350E+01 4.00625E+00 0.00000E+00
 -1      1998 6.27045E+01 3.09687E+00 0.00000E+00
 -1      1999 6.12045E+01 3.09687E+00 0.00000E+00
 -1      2000 6.10350E+01 4.00625E+00 0.00000E+00
 -1      2001 6.57045E+01 3.09687E+00 0.00000E+00
 -1      2002 6.42045E+01 3.09687E+00 0.00000E+00
 -1      2003 6.40350E+01 4.00625E+00 0.00000E+00
 -1      2004 6.87045E+01 3.09687E+00 0.00000E+00
 -1      2005 6.72045E+01 3.09687E+00 0.00000E+00
 -1      2006 6.70350E+01 4.00625E+00 0.00000E+00
 -1      2007 7.17045E+01 3.09687E+00 0.00000E+00
 -1      2008 7.02045E+01 3.09687E+00 0.00000E+00
 -1      2009 7.00350E+01 4.00625E+00 0.00000E+00
 -1      2010 7.47045E+01 3.09687E+00 0.00000E+00
 -1      2011 7.32045E+01 3.09687E+00 0.00000E+00
 -1      2012 7.30350E+01 4.00625E+00 0.00000E+00
 -1      2013 7.77045E+01 3.09687E+00 0.00000E+00
 -1      2014 7.62045E+01 3.09687E+00 0.00000E+00
 -1      2015 7.60350E+01 4.00625E+00 0.00000E+00
 -1      2016 8.07045E+01 3.09687E+00 0.00000E+00
 -1      2017 7.92045E+01 3.09687E+00 0.00000E+00
 -1      2018 7.90350E+01 4.00625E+00 0.00000E+00
 -1      2019 8.37045E+01 3.09687E+00 0.00000E+00
 -1      2020 8.22045E+01 3.09687E+00 0.00000E+00
 -1      2021 8.20350E+01 4.00625E+00 0.00000E+00
 -1      2022 8.67045E+01 3.09687E+00 0.00000E+00
 -1      2023 8.52045E+01 3.09687E+00 0.00000E+00
 -1      2024 8.50350E+01 4.00625E+00 0.00000E+00
 -1      2025 8.97045E+01 3.09687E+00 0.00000E+00
 -1      2026 8.82045E+01 3.09687E+00 0.00000E+00
 -1      2027 8.80350E+01 4.00625E+00 0.00000E+00
 -1      2028 9.27045E+01 3.09687E+00 0.00000E+00
 -1      2029 9.12045E+01 3.09687E+00 0.00000E+00
 -1      2030 9.10350E+01 4.00625E+00 0.00000E+00
 -1      2031 9.57045E+01 3.09687E+00 0.00000E+00
 -1      2032 9.42045E+01 3.09687E+00 0.00000E+00
 -1      2033 9.40350E+01 4.00625E+00 0.00000E+00
 -1      2034 9.87045E+01 3.09687E+00 0.00000E+00
 -1      2035 9.72045E+01 3.09687E+00 0.00000E+00
 -1      2036 9.70350E+01 4.00625E+00 0.00000E+00
 -1      2037 1.01704E+02 3.09687E+00 0.00000E+00
 -1      2038 1.00204E+02 3.09687E+00 0.00000E+00
 -1      2039 1.00035E+02 4.00625E+00 0.00000E+00
 -1      2040 1.04704E+02 3.09687E+00 0.00000E+00
 -1      2041 1.03204E+02 3.09687E+00 0.00000E+00
 -1      2042 1.03035E+02 4.00625E+00 0.00000E+00
 -1      2043 1.07704E+02 3.09687E+00 0.00000E+00
 -1      2044 1.06204E+02 3.09687E+00 0.00000E+00
 -1      2045 1.06035E+02 4.00625E+00 0.00000E+00
 -1      2046 1.10704E+02 3.09687E+00 0.00000E+00
 -1      2047 1.09204E+02 3.09687E+00 0.00000E+00
 -1      2048 1.09035E+02 4.00625E+00 0.00000E+00
 -1      2049 1.13704E+02 3.09687E+00 0.00000E+00
 -1      2050 1.12204E+02 3.09687E+00 0.00000E+00
 -1      2051 1.12035E+02 4.00625E+00 0.00000E+00
 -1      2052 1.16704E+02 3.09687E+00 0.00000E+00
 -1      2053 1.15204E+02 3.09687E+00 0.00000E+00
 -1      2054 1.15035E+02 4.00625E+00 0.00000E+00
 -1      2055 1.19704E+02 3.09687E+00 0.00000E+00
 -1      2056 1.18204E+02 3.09687E+00 0.00000E+00
 -1      2057 1.18035E+02 4.00625E+00 0.00000E+00
 -1      2058 1.22704E+02 3.09687E+00 0.00000E+00
 -1      2059 1.21204E+02 3.09687E+00 0.00000E+00
 -1      2060 1.21035E+02 4.00625E+00 0.00000E+00
 -1      2061 1.25704E+02 3.09687E+00 0.00000E+00
 -1      2062 1.24204E+02 3.09687E+00 0.00000E+00
 -1      2063 1.24035E+02 4.00625E+00 0.00000E+00
 -1      2064 1.28704E+02 3.09687E+00 0.00000E+00
 -1      2065 1.27204E+02 3.09687E+00 0.00000E+00
 -1      2066 1.27035E+02 4.00625E+00 0.00000E+00
 -1      2067 1.31704E+02 3.09687E+00 0.00000E+00
 -1      2068 1.30204E+02 3.09687E+00 0.00000E+00
 -1      2069 1.30035E+02 4.00625E+00 0.00000E+00
 -1      2070 1.34704E+02 3.09687E+00 0.00000E+00
 -1      2071 1.33204E+02 3.09687E+00 0.00000E+00
 -1      2072 1.33035E+02 4.00625E+00 0.00000E+00
 -1      2073 1.37704E+02 3.09687E+00 0.00000E+00
 -1      2074 1.36204E+02 3.09687E+00 0.00000E+00
 -1      2075 1.36035E+02 4.00625E+00 0.00000E+00
 -1      2076 1.40704E+02 3.09687E+00 0.00000E+00
 -1      2077 1.39204E+02 3.09687E+00 0.00000E+00
 -1      2078 1.39035E+02 4.00625E+00 0.00000E+00
 -1      2079 1.43704E+02 3.09687E+00 0.00000E+00
 -1      2080 1.42204E+02 3.09687E+00 0.00000E+00
 -1      2081 1.42035E+02 4.00625E+00 0.00000E+00
 -1      2082 1.46171E+02 3.20156E+00 0.00000E+00
 -1      2083 1.44671E+02 3.20156E+00 0.00000E+00
 -1      2084 1.44502E+02 4.11094E+00 0.00000E+00
 -1      2085 1.46435E+02 4.32031E+00 0.00000E+00
 -1      2086 1.46103E+02 1.25375E+01 0.00000E+00
 -1      2087 1.46103E+02 1.10625E+01 0.00000E+00
 -1      2088 1.46103E+02 9.58750E+00 0.00000E+00
 -1      2089 1.46103E+02 8.11250E+00 0.00000E+00
 -1      2090 1.44804E+02 1.03250E+01 0.00000E+00
 -1      2091 1.46269E+02 6.95391E+00 0.00000E+00
 -1      2092 1.46269E+02 5.47891E+00 0.00000E+00
 -1      2093 1.45302E+02 5.37422E+00 0.00000E+00
 -1      2094 1.44970E+02 7.69141E+00 0.00000E+00
 -1      2095 1.46103E+02 1.54375E+01 0.00000E+00
 -1      2096 1.46103E+02 1.39875E+01 0.00000E+00
 -1      2097 1.44804E+02 1.32500E+01 0.00000E+00
 -1      2098 1.46103E+02 1.83875E+01 0.00000E+00
 -1      2099 1.46103E+02 1.69125E+01 0.00000E+00
 -1      2100 1.44804E+02 1.61750E+01 0.00000E+00
 -1      2101 1.46103E+02 2.13375E+01 0.00000E+00
 -1      2102 1.46103E+02 1.98625E+01 0.00000E+00
 -1      2103 1.44804E+02 1.91250E+01 0.00000E+00
 -1      2104 1.46103E+02 2.42875E+01 0.00000E+00
 -1      2105 1.46103E+02 2.28125E+01 0.00000E+00
 -1      2106 1.44804E+02 2.20750E+01 0.00000E+00
 -1      2107 1.46103E+02 2.72375E+01 0.00000E+00
 -1      2108 1.46103E+02 2.57625E+01 0.00000E+00
 -1      2109 1.44804E+02 2.50250E+01 0.00000E+00
 -1      2110 1.46103E+02 3.01875E+01 0.00000E+00
 -1      2111 1.46103E+02 2.87125E+01 0.00000E+00
 -1      2112 1.44804E+02 2.79750E+01 0.00000E+00
 -1      2113 1.46103E+02 3.30875E+01 0.00000E+00
 -1      2114 1.46103E+02 3.16375E+01 0.00000E+00
 -1      2115 1.44804E+02 3.09000E+01 0.00000E+00
 -1      2116 1.46103E+02 3.60375E+01 0.00000E+00
 -1      2117 1.46103E+02 3.45625E+01 0.00000E+00
 -1      2118 1.44804E+02 3.38250E+01 0.00000E+00
 -1      2119 1.46103E+02 3.89875E+01 0.00000E+00
 -1      2120 1.46103E+02 3.75125E+01 0.00000E+00
 -1      2121 1.44804E+02 3.67750E+01 0.00000E+00
 -1      2122 1.46103E+02 4.19375E+01 0.00000E+00
 -1      2123 1.46103E+02 4.04625E+01 0.00000E+00
 -1      2124 1.44804E+02 3.97250E+01 0.00000E+00
 -1      2125 8.46663E+01 1.86415E+01 0.00000E+00
 -1      2126 8.49422E+01 1.94795E+01 0.00000E+00
 -1      2127 8.55331E+01 2.21351E+01 0.00000E+00
 -1      2128 8.56073E+01 2.30051E+01 0.00000E+00
 -1      2129 8.51930E+01 2.04966E+01 0.00000E+00
 -1      2130 8.53630E+01 2.13158E+01 0.00000E+00
 -1      2131 8.61711E+01 2.16851E+01 0.00000E+00
 -1      2132 8.34768E+01 1.70533E+01 0.00000E+00
 -1      2133 8.40405E+01 1.77020E+01 0.00000E+00
 -1      2134 8.23120E+01 1.57928E+01 0.00000E+00
 -1      2135 8.29058E+01 1.63422E+01 0.00000E+00
 -1      2136 3.89700E+00 3.74688E+01 0.00000E+00
 -1      2137 3.89700E+00 3.89437E+01 0.00000E+00
 -1      2138 5.19600E+00 3.96813E+01 0.00000E+00
 -1      2139 5.19600E+00 3.67438E+01 0.00000E+00
 -1      2140 7.91396E+01 1.40595E+01 0.00000E+00
 -1      2141 7.99580E+01 1.43069E+01 0.00000E+00
 -1      2142 7.73678E+01 1.35213E+01 0.00000E+00
 -1      2143 7.82455E+01 1.36757E+01 0.00000E+00
 -1      2144 7.53269E+01 1.36757E+01 0.00000E+00
 -1      2145 7.62067E+01 1.35212E+01 0.00000E+00
 -1      2146 7.36523E+01 1.41041E+01 0.00000E+00
 -1      2147 7.44896E+01 1.38899E+01 0.00000E+00
 -1      2148 7.47885E+01 1.30093E+01 0.00000E+00
 -1      2149 7.17995E+01 1.49387E+01 0.00000E+00
 -1      2150 7.25344E+01 1.44834E+01 0.00000E+00
 -1      2151 7.03806E+01 1.59629E+01 0.00000E+00
 -1      2152 7.10901E+01 1.54508E+01 0.00000E+00
 -1      2153 7.10058E+01 1.44942E+01 0.00000E+00
 -1      2154 6.91634E+01 1.76086E+01 0.00000E+00
 -1      2155 6.96504E+01 1.68909E+01 0.00000E+00
 -1      2156 6.83827E+01 1.92486E+01 0.00000E+00
 -1      2157 6.86954E+01 1.84795E+01 0.00000E+00
 -1      2158 6.77864E+01 2.08981E+01 0.00000E+00
 -1      2159 6.79770E+01 2.01015E+01 0.00000E+00
 -1      2160 6.76688E+01 2.26815E+01 0.00000E+00
 -1      2161 6.76969E+01 2.18669E+01 0.00000E+00
 -1      2162 6.78938E+01 2.44480E+01 0.00000E+00
 -1      2163 6.77933E+01 2.36148E+01 0.00000E+00
 -1      2164 6.85449E+01 2.61874E+01 0.00000E+00
 -1      2165 6.82062E+01 2.54260E+01 0.00000E+00
 -1      2166 6.94198E+01 2.77373E+01 0.00000E+00
 -1      2167 6.89594E+01 2.70342E+01 0.00000E+00
 -1      2168 7.06516E+01 2.91157E+01 0.00000E+00
 -1      2169 7.00426E+01 2.85036E+01 0.00000E+00
 -1      2170 7.20635E+01 3.03262E+01 0.00000E+00
 -1      2171 7.13519E+01 2.98188E+01 0.00000E+00
 -1      2172 7.38462E+01 3.11449E+01 0.00000E+00
 -1      2173 7.30126E+01 3.08310E+01 0.00000E+00
 -1      2174 7.57221E+01 3.16307E+01 0.00000E+00
 -1      2175 7.48307E+01 3.14631E+01 0.00000E+00
 -1      2176 7.77581E+01 3.14574E+01 0.00000E+00
 -1      2177 7.68831E+01 3.16032E+01 0.00000E+00
 -1      2178 7.94435E+01 3.10406E+01 0.00000E+00
 -1      2179 7.86008E+01 3.12490E+01 0.00000E+00
 -1      2180 7.82905E+01 3.20852E+01 0.00000E+00
 -1      2181 8.12730E+01 3.02080E+01 0.00000E+00
 -1      2182 8.04943E+01 3.06338E+01 0.00000E+00
 -1      2183 8.27027E+01 2.89203E+01 0.00000E+00
 -1      2184 8.20735E+01 2.95212E+01 0.00000E+00
 -1      2185 8.39370E+01 2.76101E+01 0.00000E+00
 -1      2186 8.33452E+01 2.82614E+01 0.00000E+00
 -1      2187 8.49173E+01 2.58686E+01 0.00000E+00
 -1      2188 8.46280E+01 2.66928E+01 0.00000E+00
 -1      2189 8.54589E+01 2.41743E+01 0.00000E+00
 -1      2190 8.51881E+01 2.50214E+01 0.00000E+00
 -1      2191 8.57735E+01 2.56898E+01 0.00000E+00
 -1      2192 8.09033E+01 1.47837E+01 0.00000E+00
 -1      2193 8.15725E+01 1.52858E+01 0.00000E+00
 -1      2194 8.23664E+01 1.50233E+01 0.00000E+00
 -1      2195 6.42300E+00 4.57510E+01 0.00000E+00
 -1      2196 8.06816E+01 1.40396E+01 0.00000E+00
 -1      2197 7.17300E+00 4.44520E+01 0.00000E+00
 -1      2198 8.57502E+01 1.98487E+01 0.00000E+00
 -1      2199 8.48736E+01 1.78921E+01 0.00000E+00
 -1      2200 1.45665E+02 4.31193E+01 0.00000E+00
 -1      2201 8.61927E+01 2.36735E+01 0.00000E+00
 -1      2202 8.36769E+01 1.62414E+01 0.00000E+00
 -1      2203 8.48118E+01 2.74543E+01 0.00000E+00
 -1      2204 8.34782E+01 2.90305E+01 0.00000E+00
 -1      2205 8.01840E+01 3.14699E+01 0.00000E+00
 -1      2206 7.62868E+01 3.23210E+01 0.00000E+00
 -1      2207 7.41412E+01 3.20303E+01 0.00000E+00
 -1      2208 7.22076E+01 3.12073E+01 0.00000E+00
 -1      2209 7.05582E+01 2.99994E+01 0.00000E+00
 -1      2210 6.92352E+01 2.85300E+01 0.00000E+00
 -1      2211 6.81979E+01 2.69169E+01 0.00000E+00
 -1      2212 6.74709E+01 2.50921E+01 0.00000E+00
 -1      2213 6.70340E+01 2.31808E+01 0.00000E+00
 -1      2214 6.69990E+01 2.12787E+01 0.00000E+00
 -1      2215 6.74941E+01 1.94571E+01 0.00000E+00
 -1      2216 6.95662E+01 1.59343E+01 0.00000E+00
 -1      2217 7.28332E+01 1.36028E+01 0.00000E+00
 -1      2218 7.88422E+01 1.31790E+01 0.00000E+00
 -1      2219 7.67869E+01 1.27951E+01 0.00000E+00
 -1      2220 6.83679E+01 1.77333E+01 0.00000E+00
 -1      2221 8.20352E+01 3.03763E+01 0.00000E+00
 -1      2222 1.07850E+01 5.30525E+00 0.00000E+00
 -1      2223 9.28500E+00 5.30525E+00 0.00000E+00
 -1      2224 6.49500E+00 3.01125E+01 0.00000E+00
 -1      2225 6.49500E+00 3.15875E+01 0.00000E+00
 -1      2226 6.49500E+00 3.30625E+01 0.00000E+00
 -1      2227 6.49500E+00 3.45375E+01 0.00000E+00
 -1      2228 7.79400E+00 3.23250E+01 0.00000E+00
 -1      2229 6.49500E+00 2.42125E+01 0.00000E+00
 -1      2230 6.49500E+00 2.56875E+01 0.00000E+00
 -1      2231 6.49500E+00 2.12625E+01 0.00000E+00
 -1      2232 6.49500E+00 2.27375E+01 0.00000E+00
 -1      2233 7.79400E+00 2.34750E+01 0.00000E+00
 -1      2234 6.49500E+00 1.83625E+01 0.00000E+00
 -1      2235 6.49500E+00 1.98125E+01 0.00000E+00
 -1      2236 7.79400E+00 2.05500E+01 0.00000E+00
 -1      2237 6.49500E+00 1.54125E+01 0.00000E+00
 -1      2238 6.49500E+00 1.68875E+01 0.00000E+00
 -1      2239 7.79400E+00 1.76250E+01 0.00000E+00
 -1      2240 6.49500E+00 1.24625E+01 0.00000E+00
 -1      2241 6.49500E+00 1.39375E+01 0.00000E+00
 -1      2242 7.79400E+00 1.46750E+01 0.00000E+00
 -1      2243 6.49500E+00 9.51250E+00 0.00000E+00
 -1      2244 6.49500E+00 1.09875E+01 0.00000E+00
 -1      2245 7.79400E+00 1.17250E+01 0.00000E+00
 -1      2246 1.37850E+01 5.30525E+00 0.00000E+00
 -1      2247 1.22850E+01 5.30525E+00 0.00000E+00
 -1      2248 1.15350E+01 6.60425E+00 0.00000E+00
 -1      2249 9.90000E+00 4.35050E+01 0.00000E+00
 -1      2250 1.14000E+01 4.35050E+01 0.00000E+00
 -1      2251 8.05952E+01 1.30356E+01 0.00000E+00
 -1      2252 8.15404E+01 1.35123E+01 0.00000E+00
 -1      2253 1.29000E+01 4.35050E+01 0.00000E+00
 -1      2254 1.44000E+01 4.35050E+01 0.00000E+00
 -1      2255 1.21500E+01 4.22060E+01 0.00000E+00
 -1      2256 1.59000E+01 4.35050E+01 0.00000E+00
 -1      2257 1.74000E+01 4.35050E+01 0.00000E+00
 -1      2258 1.51500E+01 4.22060E+01 0.00000E+00
 -1      2259 1.89000E+01 4.35050E+01 0.00000E+00
 -1      2260 2.04000E+01 4.35050E+01 0.00000E+00
 -1      2261 1.81500E+01 4.22060E+01 0.00000E+00
 -1      2262 2.19000E+01 4.35050E+01 0.00000E+00
 -1      2263 2.34000E+01 4.35050E+01 0.00000E+00
 -1      2264 2.11500E+01 4.22060E+01 0.00000E+00
 -1      2265 2.49000E+01 4.35050E+01 0.00000E+00
 -1      2266 2.64000E+01 4.35050E+01 0.00000E+00
 -1      2267 2.41500E+01 4.22060E+01 0.00000E+00
 -1      2268 2.79000E+01 4.35050E+01 0.00000E+00
 -1      2269 2.94000E+01 4.35050E+01 0.00000E+00
 -1      2270 2.71500E+01 4.22060E+01 0.00000E+00
 -1      2271 3.09000E+01 4.35050E+01 0.00000E+00
 -1      2272 3.24000E+01 4.35050E+01 0.00000E+00
 -1      2273 3.01500E+01 4.22060E+01 0.00000E+00
 -1      2274 3.39000E+01 4.35050E+01 0.00000E+00
 -1      2275 3.54000E+01 4.35050E+01 0.00000E+00
 -1      2276 3.31500E+01 4.22060E+01 0.00000E+00
 -1      2277 3.69000E+01 4.35050E+01 0.00000E+00
 -1      2278 3.84000E+01 4.35050E+01 0.00000E+00
 -1      2279 3.61500E+01 4.22060E+01 0.00000E+00
 -1      2280 3.99000E+01 4.35050E+01 0.00000E+00
 -1      2281 4.14000E+01 4.35050E+01 0.00000E+00
 -1      2282 3.91500E+01 4.22060E+01 0.00000E+00
 -1      2283 4.29000E+01 4.35050E+01 0.00000E+00
 -1      2284 4.44000E+01 4.35050E+01 0.00000E+00
 -1      2285 4.21500E+01 4.22060E+01 0.00000E+00
 -1      2286 4.59000E+01 4.35050E+01 0.00000E+00
 -1      2287 4.74000E+01 4.35050E+01 0.00000E+00
 -1      2288 4.51500E+01 4.22060E+01 0.00000E+00
 -1      2289 4.89000E+01 4.35050E+01 0.00000E+00
 -1      2290 5.04000E+01 4.35050E+01 0.00000E+00
 -1      2291 4.81500E+01 4.22060E+01 0.00000E+00
 -1      2292 5.19000E+01 4.35050E+01 0.00000E+00
 -1      2293 5.34000E+01 4.35050E+01 0.00000E+00
 -1      2294 5.11500E+01 4.22060E+01 0.00000E+00
 -1      2295 5.49000E+01 4.35050E+01 0.00000E+00
 -1      2296 5.64000E+01 4.35050E+01 0.00000E+00
 -1      2297 5.41500E+01 4.22060E+01 0.00000E+00
 -1      2298 5.79000E+01 4.35050E+01 0.00000E+00
 -1      2299 5.94000E+01 4.35050E+01 0.00000E+00
 -1      2300 5.71500E+01 4.22060E+01 0.00000E+00
 -1      2301 6.09000E+01 4.35050E+01 0.00000E+00
 -1      2302 6.24000E+01 4.35050E+01 0.00000E+00
 -1      2303 6.01500E+01 4.22060E+01 0.00000E+00
 -1      2304 6.39000E+01 4.35050E+01 0.00000E+00
 -1      2305 6.54000E+01 4.35050E+01 0.00000E+00
 -1      2306 6.31500E+01 4.22060E+01 0.00000E+00
 -1      2307 6.69000E+01 4.35050E+01 0.00000E+00
 -1      2308 6.84000E+01 4.35050E+01 0.00000E+00
 -1      2309 6.61500E+01 4.22060E+01 0.00000E+00
 -1      2310 6.99000E+01 4.35050E+01 0.00000E+00
 -1      2311 7.14000E+01 4.35050E+01 0.00000E+00
 -1      2312 6.91500E+01 4.22060E+01 0.00000E+00
 -1      2313 7.29000E+01 4.35050E+01 0.00000E+00
 -1      2314 7.44000E+01 4.35050E+01 0.00000E+00
 -1      2315 7.21500E+01 4.22060E+01 0.00000E+00
 -1      2316 7.59000E+01 4.35050E+01 0.00000E+00
 -1      2317 7.74000E+01 4.35050E+01 0.00000E+00
 -1      2318 7.51500E+01 4.22060E+01 0.00000E+00
 -1      2319 7.89000E+01 4.35050E+01 0.00000E+00
 -1      2320 8.04000E+01 4.35050E+01 0.00000E+00
 -1      2321 7.81500E+01 4.22060E+01 0.00000E+00
 -1      2322 8.19000E+01 4.35050E+01 0.00000E+00
 -1      2323 8.34000E+01 4.35050E+01 0.00000E+00
 -1      2324 8.11500E+01 4.22060E+01 0.00000E+00
 -1      2325 8.49000E+01 4.35050E+01 0.00000E+00
 -1      2326 8.64000E+01 4.35050E+01 0.00000E+00
 -1      2327 8.41500E+01 4.22060E+01 0.00000E+00
 -1      2328 8.79000E+01 4.35050E+01 0.00000E+00
 -1      2329 8.94000E+01 4.35050E+01 0.00000E+00
 -1      2330 8.71500E+01 4.22060E+01 0.00000E+00
 -1      2331 9.09000E+01 4.35050E+01 0.00000E+00
 -1      2332 9.24000E+01 4.35050E+01 0.00000E+00
 -1      2333 9.01500E+01 4.22060E+01 0.00000E+00
 -1      2334 9.39000E+01 4.35050E+01 0.00000E+00
 -1      2335 9.54000E+01 4.35050E+01 0.00000E+00
 -1      2336 9.31500E+01 4.22060E+01 0.00000E+00
 -1      2337 9.69000E+01 4.35050E+01 0.00000E+00
 -1      2338 9.84000E+01 4.35050E+01 0.00000E+00
 -1      2339 9.61500E+01 4.22060E+01 0.00000E+00
 -1      2340 9.99000E+01 4.35050E+01 0.00000E+00
 -1      2341 1.01400E+02 4.35050E+01 0.00000E+00
 -1      2342 9.91500E+01 4.22060E+01 0.00000E+00
 -1      2343 1.02900E+02 4.35050E+01 0.00000E+00
 -1      2344 1.04400E+02 4.35050E+01 0.00000E+00
 -1      2345 1.02150E+02 4.22060E+01 0.00000E+00
 -1      2346 1.05900E+02 4.35050E+01 0.00000E+00
 -1      2347 1.07400E+02 4.35050E+01 0.00000E+00
 -1      2348 1.05150E+02 4.22060E+01 0.00000E+00
 -1      2349 1.08900E+02 4.35050E+01 0.00000E+00
 -1      2350 1.10400E+02 4.35050E+01 0.00000E+00
 -1      2351 1.08150E+02 4.22060E+01 0.00000E+00
 -1      2352 1.11900E+02 4.35050E+01 0.00000E+00
 -1      2353 1.13400E+02 4.35050E+01 0.00000E+00
 -1      2354 1.11150E+02 4.22060E+01 0.00000E+00
 -1      2355 1.14900E+02 4.35050E+01 0.00000E+00
 -1      2356 1.16400E+02 4.35050E+01 0.00000E+00
 -1      2357 1.14150E+02 4.22060E+01 0.00000E+00
 -1      2358 1.17900E+02 4.35050E+01 0.00000E+00
 -1      2359 1.19400E+02 4.35050E+01 0.00000E+00
 -1      2360 1.17150E+02 4.22060E+01 0.00000E+00
 -1      2361 1.20900E+02 4.35050E+01 0.00000E+00
 -1      2362 1.22400E+02 4.35050E+01 0.00000E+00
 -1      2363 1.20150E+02 4.22060E+01 0.00000E+00
 -1      2364 1.23900E+02 4.35050E+01 0.00000E+00
 -1      2365 1.25400E+02 4.35050E+01 0.00000E+00
 -1      2366 1.23150E+02 4.22060E+01 0.00000E+00
 -1      2367 1.26900E+02 4.35050E+01 0.00000E+00
 -1      2368 1.28400E+02 4.35050E+01 0.00000E+00
 -1      2369 1.26150E+02 4.22060E+01 0.00000E+00
 -1      2370 1.29900E+02 4.35050E+01 0.00000E+00
 -1      2371 1.31400E+02 4.35050E+01 0.00000E+00
 -1      2372 1.29150E+02 4.22060E+01 0.00000E+00
 -1      2373 1.32900E+02 4.35050E+01 0.00000E+00
 -1      2374 1.34400E+02 4.35050E+01 0.00000E+00
 -1      2375 1.32150E+02 4.22060E+01 0.00000E+00
 -1      2376 1.35900E+02 4.35050E+01 0.00000E+00
 -1      2377 1.37400E+02 4.35050E+01 0.00000E+00
 -1      2378 1.35150E+02 4.22060E+01 0.00000E+00
 -1      2379 1.38900E+02 4.35050E+01 0.00000E+00
 -1      2380 1.40400E+02 4.35050E+01 0.00000E+00
 -1      2381 1.38150E+02 4.22060E+01 0.00000E+00
 -1      2382 1.97850E+01 5.30525E+00 0.00000E+00
 -1      2383 1.82850E+01 5.30525E+00 0.00000E+00
 -1      2384 2.27850E+01 5.30525E+00 0.00000E+00
 -1      2385 2.12850E+01 5.30525E+00 0.00000E+00
 -1      2386 2.05350E+01 6.60425E+00 0.00000E+00
 -1      2387 2.57850E+01 5.30525E+00 0.00000E+00
 -1      2388 2.42850E+01 5.30525E+00 0.00000E+00
 -1      2389 2.35350E+01 6.60425E+00 0.00000E+00
 -1      2390 2.87850E+01 5.30525E+00 0.00000E+00
 -1      2391 2.72850E+01 5.30525E+00 0.00000E+00
 -1      2392 2.65350E+01 6.60425E+00 0.00000E+00
 -1      2393 3.17850E+01 5.30525E+00 0.00000E+00
 -1      2394 3.02850E+01 5.30525E+00 0.00000E+00
 -1      2395 2.95350E+01 6.60425E+00 0.00000E+00
 -1      2396 3.47850E+01 5.30525E+00 0.00000E+00
 -1      2397 3.32850E+01 5.30525E+00 0.00000E+00
 -1      2398 3.25350E+01 6.60425E+00 0.00000E+00
 -1      2399 3.77850E+01 5.30525E+00 0.00000E+00
 -1      2400 3.62850E+01 5.30525E+00 0.00000E+00
 -1      2401 3.55350E+01 6.60425E+00 0.00000E+00
 -1      2402 4.07850E+01 5.30525E+00 0.00000E+00
 -1      2403 3.92850E+01 5.30525E+00 0.00000E+00
 -1      2404 3.85350E+01 6.60425E+00 0.00000E+00
 -1      2405 4.37850E+01 5.30525E+00 0.00000E+00
 -1      2406 4.22850E+01 5.30525E+00 0.00000E+00
 -1      2407 4.15350E+01 6.60425E+00 0.00000E+00
 -1      2408 4.67850E+01 5.30525E+00 0.00000E+00
 -1      2409 4.52850E+01 5.30525E+00 0.00000E+00
 -1      2410 4.45350E+01 6.60425E+00 0.00000E+00
 -1      2411 4.97850E+01 5.30525E+00 0.00000E+00
 -1      2412 4.82850E+01 5.30525E+00 0.00000E+00
 -1      2413 4.75350E+01 6.60425E+00 0.00000E+00
 -1      2414 5.27850E+01 5.30525E+00 0.00000E+00
 -1      2415 5.12850E+01 5.30525E+00 0.00000E+00
 -1      2416 5.05350E+01 6.60425E+00 0.00000E+00
 -1      2417 5.57850E+01 5.30525E+00 0.00000E+00
 -1      2418 5.42850E+01 5.30525E+00 0.00000E+00
 -1      2419 5.35350E+01 6.60425E+00 0.00000E+00
 -1      2420 5.87850E+01 5.30525E+00 0.00000E+00
 -1      2421 5.72850E+01 5.30525E+00 0.00000E+00
 -1      2422 5.65350E+01 6.60425E+00 0.00000E+00
 -1      2423 6.17850E+01 5.30525E+00 0.00000E+00
 -1      2424 6.02850E+01 5.30525E+00 0.00000E+00
 -1      2425 5.95350E+01 6.60425E+00 0.00000E+00
 -1      2426 6.47850E+01 5.30525E+00 0.00000E+00
 -1      2427 6.32850E+01 5.30525E+00 0.00000E+00
 -1      2428 6.25350E+01 6.60425E+00 0.00000E+00
 -1      2429 6.77850E+01 5.30525E+00 0.00000E+00
 -1      2430 6.62850E+01 5.30525E+00 0.00000E+00
 -1      2431 6.55350E+01 6.60425E+00 0.00000E+00
 -1      2432 7.07850E+01 5.30525E+00 0.00000E+00
 -1      2433 6.92850E+01 5.30525E+00 0.00000E+00
 -1      2434 6.85350E+01 6.60425E+00 0.00000E+00
 -1      2435 7.37850E+01 5.30525E+00 0.00000E+00
 -1      2436 7.22850E+01 5.30525E+00 0.00000E+00
 -1      2437 7.15350E+01 6.60425E+00 0.00000E+00
 -1      2438 7.67850E+01 5.30525E+00 0.00000E+00
 -1      2439 7.52850E+01 5.30525E+00 0.00000E+00
 -1      2440 7.45350E+01 6.60425E+00 0.00000E+00
 -1      2441 7.97850E+01 5.30525E+00 0.00000E+00
 -1      2442 7.82850E+01 5.30525E+00 0.00000E+00
 -1      2443 7.75350E+01 6.60425E+00 0.00000E+00
 -1      2444 8.27850E+01 5.30525E+00 0.00000E+00
 -1      2445 8.12850E+01 5.30525E+00 0.00000E+00
 -1      2446 8.05350E+01 6.60425E+00 0.00000E+00
 -1      2447 8.57850E+01 5.30525E+00 0.00000E+00
 -1      2448 8.42850E+01 5.30525E+00 0.00000E+00
 -1      2449 8.35350E+01 6.60425E+00 0.00000E+00
 -1      2450 8.87850E+01 5.30525E+00 0.00000E+00
 -1      2451 8.72850E+01 5.30525E+00 0.00000E+00
 -1      2452 8.65350E+01 6.60425E+00 0.00000E+00
 -1      2453 9.17850E+01 5.30525E+00 0.00000E+00
 -1      2454 9.02850E+01 5.30525E+00 0.00000E+00
 -1      2455 8.95350E+01 6.60425E+00 0.00000E+00
 -1      2456 9.47850E+01 5.30525E+00 0.00000E+00
 -1      2457 9.32850E+01 5.30525E+00 0.00000E+00
 -1      2458 9.25350E+01 6.60425E+00 0.00000E+00
 -1      2459 9.77850E+01 5.30525E+00 0.00000E+00
 -1      2460 9.62850E+01 5.30525E+00 0.00000E+00
 -1      2461 9.55350E+01 6.60425E+00 0.00000E+00
 -1      2462 1.00785E+02 5.30525E+00 0.00000E+00
 -1      2463 9.92850E+01 5.30525E+00 0.00000E+00
 -1      2464 9.85350E+01 6.60425E+00 0.00000E+00
 -1      2465 1.03785E+02 5.30525E+00 0.00000E+00
 -1      2466 1.02285E+02 5.30525E+00 0.00000E+00
 -1      2467 1.01535E+02 6.60425E+00 0.00000E+00
 -1      2468 1.06785E+02 5.30525E+00 0.00000E+00
 -1      2469 1.05285E+02 5.30525E+00 0.00000E+00
 -1      2470 1.04535E+02 6.60425E+00 0.00000E+00
 -1      2471 1.09785E+02 5.30525E+00 0.00000E+00
 -1      2472 1.08285E+02 5.30525E+00 0.00000E+00
 -1      2473 1.07535E+02 6.60425E+00 0.00000E+00
 -1      2474 1.12785E+02 5.30525E+00 0.00000E+00
 -1      2475 1.11285E+02 5.30525E+00 0.00000E+00
 -1      2476 1.10535E+02 6.60425E+00 0.00000E+00
 -1      2477 1.15785E+02 5.30525E+00 0.00000E+00
 -1      2478 1.14285E+02 5.30525E+00 0.00000E+00
 -1      2479 1.13535E+02 6.60425E+00 0.00000E+00
 -1      2480 1.18785E+02 5.30525E+00 0.00000E+00
 -1      2481 1.17285E+02 5.30525E+00 0.00000E+00
 -1      2482 1.16535E+02 6.60425E+00 0.00000E+00
 -1      2483 1.21785E+02 5.30525E+00 0.00000E+00
 -1      2484 1.20285E+02 5.30525E+00 0.00000E+00
 -1      2485 1.19535E+02 6.60425E+00 0.00000E+00
 -1      2486 1.24785E+02 5.30525E+00 0.00000E+00
 -1      2487 1.23285E+02 5.30525E+00 0.00000E+00
 -1      2488 1.22535E+02 6.60425E+00 0.00000E+00
 -1      2489 1.27785E+02 5.30525E+00 0.00000E+00
 -1      2490 1.26285E+02 5.30525E+00 0.00000E+00
 -1      2491 1.25535E+02 6.60425E+00 0.00000E+00
 -1      2492 1.30785E+02 5.30525E+00 0.00000E+00
 -1      2493 1.29285E+02 5.30525E+00 0.00000E+00
 -1      2494 1.28535E+02 6.60425E+00 0.00000E+00
 -1      2495 1.33785E+02 5.30525E+00 0.00000E+00
 -1      2496 1.32285E+02 5.30525E+00 0.00000E+00
 -1      2497 1.31535E+02 6.60425E+00 0.00000E+00
 -1      2498 1.36785E+02 5.30525E+00 0.00000E+00
 -1      2499 1.35285E+02 5.30525E+00 0.00000E+00
 -1      2500 1.34535E+02 6.60425E+00 0.00000E+00
 -1      2501 1.39785E+02 5.30525E+00 0.00000E+00
 -1      2502 1.38285E+02 5.30525E+00 0.00000E+00
 -1      2503 1.37535E+02 6.60425E+00 0.00000E+00
 -1      2504 1.42785E+02 5.30525E+00 0.00000E+00
 -1      2505 1.41285E+02 5.30525E+00 0.00000E+00
 -1      2506 1.40535E+02 6.60425E+00 0.00000E+00
 -1      2507 1.44336E+02 5.26953E+00 0.00000E+00
 -1      2508 1.43505E+02 1.69125E+01 0.00000E+00
 -1      2509 1.43505E+02 1.54375E+01 0.00000E+00
 -1      2510 1.43505E+02 1.98625E+01 0.00000E+00
 -1      2511 1.43505E+02 1.83875E+01 0.00000E+00
 -1      2512 1.42206E+02 1.76500E+01 0.00000E+00
 -1      2513 1.43505E+02 1.10625E+01 0.00000E+00
 -1      2514 1.43505E+02 9.58750E+00 0.00000E+00
 -1      2515 1.43505E+02 1.39750E+01 0.00000E+00
 -1      2516 1.43505E+02 1.25250E+01 0.00000E+00
 -1      2517 1.42206E+02 1.17875E+01 0.00000E+00
 -1      2518 1.42206E+02 1.47125E+01 0.00000E+00
 -1      2519 1.43505E+02 2.28125E+01 0.00000E+00
 -1      2520 1.43505E+02 2.13375E+01 0.00000E+00
 -1      2521 1.42206E+02 2.06000E+01 0.00000E+00
 -1      2522 1.43505E+02 2.57625E+01 0.00000E+00
 -1      2523 1.43505E+02 2.42875E+01 0.00000E+00
 -1      2524 1.42206E+02 2.35500E+01 0.00000E+00
 -1      2525 1.43505E+02 2.87125E+01 0.00000E+00
 -1      2526 1.43505E+02 2.72375E+01 0.00000E+00
 -1      2527 1.42206E+02 2.65000E+01 0.00000E+00
 -1      2528 1.43505E+02 3.16125E+01 0.00000E+00
 -1      2529 1.43505E+02 3.01625E+01 0.00000E+00
 -1      2530 1.42206E+02 2.94250E+01 0.00000E+00
 -1      2531 1.43505E+02 3.45625E+01 0.00000E+00
 -1      2532 1.43505E+02 3.30875E+01 0.00000E+00
 -1      2533 1.42206E+02 3.23500E+01 0.00000E+00
 -1      2534 1.43505E+02 3.75125E+01 0.00000E+00
 -1      2535 1.43505E+02 3.60375E+01 0.00000E+00
 -1      2536 1.42206E+02 3.53000E+01 0.00000E+00
 -1      2537 1.43505E+02 4.04625E+01 0.00000E+00
 -1      2538 1.43505E+02 3.89875E+01 0.00000E+00
 -1      2539 1.42206E+02 3.82500E+01 0.00000E+00
 -1      2540 8.51698E+01 1.70166E+01 0.00000E+00
 -1      2541 8.57956E+01 1.79562E+01 0.00000E+00
 -1      2542 1.44321E+02 4.30606E+01 0.00000E+00
 -1      2543 8.70346E+01 2.31864E+01 0.00000E+00
 -1      2544 8.68861E+01 2.43555E+01 0.00000E+00
 -1      2545 1.67850E+01 5.30525E+00 0.00000E+00
 -1      2546 1.52850E+01 5.30525E+00 0.00000E+00
 -1      2547 1.75350E+01 6.60425E+00 0.00000E+00
 -1      2548 8.68847E+01 2.11097E+01 0.00000E+00
 -1      2549 8.70548E+01 2.19289E+01 0.00000E+00
 -1      2550 8.57418E+01 2.74360E+01 0.00000E+00
 -1      2551 8.50508E+01 2.83533E+01 0.00000E+00
 -1      2552 8.39948E+01 1.54014E+01 0.00000E+00
 -1      2553 8.45657E+01 1.61125E+01 0.00000E+00
 -1      2554 8.63831E+01 1.90755E+01 0.00000E+00
 -1      2555 8.66339E+01 2.00926E+01 0.00000E+00
 -1      2556 8.75176E+01 2.03365E+01 0.00000E+00
 -1      2557 7.68876E+01 3.31646E+01 0.00000E+00
 -1      2558 7.57265E+01 3.31921E+01 0.00000E+00
 -1      2559 7.88068E+01 1.22679E+01 0.00000E+00
 -1      2560 7.97010E+01 1.26517E+01 0.00000E+00
 -1      2561 8.05598E+01 1.21244E+01 0.00000E+00
 -1      2562 6.49500E+00 2.71625E+01 0.00000E+00
 -1      2563 6.49500E+00 2.86375E+01 0.00000E+00
 -1      2564 7.79400E+00 2.93750E+01 0.00000E+00
 -1      2565 7.79400E+00 2.64250E+01 0.00000E+00
 -1      2566 7.62064E+01 1.19794E+01 0.00000E+00
 -1      2567 7.73674E+01 1.19795E+01 0.00000E+00
 -1      2568 6.74523E+01 1.78025E+01 0.00000E+00
 -1      2569 6.79204E+01 1.69315E+01 0.00000E+00
 -1      2570 7.41676E+01 1.23262E+01 0.00000E+00
 -1      2571 7.50050E+01 1.21120E+01 0.00000E+00
 -1      2572 7.20256E+01 1.30597E+01 0.00000E+00
 -1      2573 7.31436E+01 1.26804E+01 0.00000E+00
 -1      2574 7.01738E+01 1.40888E+01 0.00000E+00
 -1      2575 7.08832E+01 1.35768E+01 0.00000E+00
 -1      2576 8.29666E+01 3.06519E+01 0.00000E+00
 -1      2577 8.21661E+01 3.13387E+01 0.00000E+00
 -1      2578 6.85272E+01 1.58680E+01 0.00000E+00
 -1      2579 6.92574E+01 1.49400E+01 0.00000E+00
 -1      2580 6.66409E+01 1.95082E+01 0.00000E+00
 -1      2581 6.70466E+01 1.86553E+01 0.00000E+00
 -1      2582 6.65991E+01 1.78536E+01 0.00000E+00
 -1      2583 6.62672E+01 2.16997E+01 0.00000E+00
 -1      2584 6.63566E+01 2.07309E+01 0.00000E+00
 -1      2585 6.63708E+01 2.37442E+01 0.00000E+00
 -1      2586 6.62463E+01 2.28109E+01 0.00000E+00
 -1      2587 6.68103E+01 2.58421E+01 0.00000E+00
 -1      2588 6.64978E+01 2.48641E+01 0.00000E+00
 -1      2589 6.77478E+01 2.76621E+01 0.00000E+00
 -1      2590 6.73333E+01 2.68153E+01 0.00000E+00
 -1      2591 6.89462E+01 2.94012E+01 0.00000E+00
 -1      2592 6.83233E+01 2.86349E+01 0.00000E+00
 -1      2593 7.03007E+01 3.09561E+01 0.00000E+00
 -1      2594 6.96005E+01 3.02530E+01 0.00000E+00
 -1      2595 7.22991E+01 3.21798E+01 0.00000E+00
 -1      2596 7.13500E+01 3.16750E+01 0.00000E+00
 -1      2597 7.43826E+01 3.29655E+01 0.00000E+00
 -1      2598 7.33981E+01 3.26473E+01 0.00000E+00
 -1      2599 7.89076E+01 3.27728E+01 0.00000E+00
 -1      2600 7.80649E+01 3.29812E+01 0.00000E+00
 -1      2601 8.09887E+01 3.19880E+01 0.00000E+00
 -1      2602 7.99379E+01 3.23949E+01 0.00000E+00
 -1      2603 8.44135E+01 2.92998E+01 0.00000E+00
 -1      2604 8.37709E+01 2.99587E+01 0.00000E+00
 -1      2605 8.66459E+01 2.55018E+01 0.00000E+00
 -1      2606 8.63752E+01 2.63490E+01 0.00000E+00
 -1      2607 6.55950E+00 4.28890E+01 0.00000E+00
 -1      2608 8.53650E+00 4.32410E+01 0.00000E+00
 -1      2609 9.28650E+00 4.19420E+01 0.00000E+00
 -1      2610 6.55950E+00 4.14140E+01 0.00000E+00
 -1      2611 8.07525E+00 5.11044E+00 0.00000E+00
 -1      2612 6.57525E+00 5.11044E+00 0.00000E+00
 -1      2613 6.40575E+00 6.01981E+00 0.00000E+00
 -1      2614 8.82525E+00 6.40944E+00 0.00000E+00
 -1      2615 8.24578E+01 1.40971E+01 0.00000E+00
 -1      2616 8.31973E+01 1.46040E+01 0.00000E+00
 -1      2617 7.76458E+01 1.06365E+01 0.00000E+00
 -1      2618 7.82263E+01 1.14522E+01 0.00000E+00
 -1      2619 7.90851E+01 1.09249E+01 0.00000E+00
 -1      2620 7.79400E+00 3.52687E+01 0.00000E+00
 -1      2621 6.49500E+00 3.60062E+01 0.00000E+00
 -1      2622 6.49500E+00 3.74750E+01 0.00000E+00
 -1      2623 1.45350E+01 6.60425E+00 0.00000E+00
 -1      2624 6.40575E+00 7.49481E+00 0.00000E+00
 -1      2625 8.23714E+01 1.30930E+01 0.00000E+00
 -1      2626 8.53435E+01 2.92815E+01 0.00000E+00
 -1      2627 8.19201E+01 3.22637E+01 0.00000E+00
 -1      2628 7.97124E+01 3.32909E+01 0.00000E+00
 -1      2629 7.49834E+01 3.38091E+01 0.00000E+00
 -1      2630 8.74878E+01 2.50147E+01 0.00000E+00
 -1      2631 7.25405E+01 3.31151E+01 0.00000E+00
 -1      2632 1.43586E+02 6.56853E+00 0.00000E+00
 -1      2633 1.43419E+02 7.72713E+00 0.00000E+00
 -1      2634 7.03923E+01 3.19286E+01 0.00000E+00
 -1      2635 8.66793E+01 1.82000E+01 0.00000E+00
 -1      2636 8.54877E+01 1.61766E+01 0.00000E+00
 -1      2637 1.42758E+02 4.35929E+01 0.00000E+00
 -1      2638 1.43241E+02 4.17323E+01 0.00000E+00
 -1      2639 1.41942E+02 4.09948E+01 0.00000E+00
 -1      2640 1.41414E+02 4.35342E+01 0.00000E+00
 -1      2641 6.86886E+01 3.03579E+01 0.00000E+00
 -1      2642 8.77482E+01 2.26110E+01 0.00000E+00
 -1      2643 7.70475E+00 8.23231E+00 0.00000E+00
 -1      2644 6.74587E+01 2.85333E+01 0.00000E+00
 -1      2645 6.63602E+01 2.65872E+01 0.00000E+00
 -1      2646 6.55950E+00 3.99453E+01 0.00000E+00
 -1      2647 7.75047E+01 3.38522E+01 0.00000E+00
 -1      2648 6.57102E+01 2.44942E+01 0.00000E+00
 -1      2649 6.59091E+01 1.99291E+01 0.00000E+00
 -1      2650 6.54616E+01 1.91274E+01 0.00000E+00
 -1      2651 6.51773E+01 2.03501E+01 0.00000E+00
 -1      2652 6.76115E+01 1.59372E+01 0.00000E+00
 -1      2653 8.39018E+01 3.09211E+01 0.00000E+00
 -1      2654 6.91347E+01 1.40226E+01 0.00000E+00
 -1      2655 7.11936E+01 1.26544E+01 0.00000E+00
 -1      2656 7.33601E+01 1.17831E+01 0.00000E+00
 -1      2657 8.40862E+01 1.44752E+01 0.00000E+00
 -1      2658 8.66143E+01 2.72480E+01 0.00000E+00
 -1      2659 7.55855E+01 1.12963E+01 0.00000E+00
 -1      2660 6.56040E+01 2.22631E+01 0.00000E+00
 -1      2661 1.42120E+02 8.46463E+00 0.00000E+00
 -1      2662 1.40664E+02 4.22352E+01 0.00000E+00
 -1      2663 9.09300E+00 1.98250E+01 0.00000E+00
 -1      2664 9.09300E+00 2.12750E+01 0.00000E+00
 -1      2665 9.09300E+00 2.27500E+01 0.00000E+00
 -1      2666 9.09300E+00 2.42250E+01 0.00000E+00
 -1      2667 1.03920E+01 2.20250E+01 0.00000E+00
 -1      2668 9.09300E+00 1.39375E+01 0.00000E+00
 -1      2669 9.09300E+00 1.54125E+01 0.00000E+00
 -1      2670 9.09300E+00 1.09875E+01 0.00000E+00
 -1      2671 9.09300E+00 1.24625E+01 0.00000E+00
 -1      2672 1.03920E+01 1.32000E+01 0.00000E+00
 -1      2673 1.22850E+01 7.90325E+00 0.00000E+00
 -1      2674 1.07850E+01 7.90325E+00 0.00000E+00
 -1      2675 6.70085E+01 2.94564E+01 0.00000E+00
 -1      2676 6.64329E+01 2.84835E+01 0.00000E+00
 -1      2677 1.52850E+01 7.90325E+00 0.00000E+00
 -1      2678 1.37850E+01 7.90325E+00 0.00000E+00
 -1      2679 1.30350E+01 9.20225E+00 0.00000E+00
 -1      2680 8.91450E+00 8.42712E+00 0.00000E+00
 -1      2681 8.64430E+01 2.93341E+01 0.00000E+00
 -1      2682 8.58057E+01 3.02805E+01 0.00000E+00
 -1      2683 1.44000E+01 4.09070E+01 0.00000E+00
 -1      2684 1.59000E+01 4.09070E+01 0.00000E+00
 -1      2685 1.74000E+01 4.09070E+01 0.00000E+00
 -1      2686 1.89000E+01 4.09070E+01 0.00000E+00
 -1      2687 1.66500E+01 3.96080E+01 0.00000E+00
 -1      2688 2.04000E+01 4.09070E+01 0.00000E+00
 -1      2689 2.19000E+01 4.09070E+01 0.00000E+00
 -1      2690 1.96500E+01 3.96080E+01 0.00000E+00
 -1      2691 2.34000E+01 4.09070E+01 0.00000E+00
 -1      2692 2.49000E+01 4.09070E+01 0.00000E+00
 -1      2693 2.26500E+01 3.96080E+01 0.00000E+00
 -1      2694 2.64000E+01 4.09070E+01 0.00000E+00
 -1      2695 2.79000E+01 4.09070E+01 0.00000E+00
 -1      2696 2.56500E+01 3.96080E+01 0.00000E+00
 -1      2697 2.94000E+01 4.09070E+01 0.00000E+00
 -1      2698 3.09000E+01 4.09070E+01 0.00000E+00
 -1      2699 2.86500E+01 3.96080E+01 0.00000E+00
 -1      2700 3.24000E+01 4.09070E+01 0.00000E+00
 -1      2701 3.39000E+01 4.09070E+01 0.00000E+00
 -1      2702 3.16500E+01 3.96080E+01 0.00000E+00
 -1      2703 3.54000E+01 4.09070E+01 0.00000E+00
 -1      2704 3.69000E+01 4.09070E+01 0.00000E+00
 -1      2705 3.46500E+01 3.96080E+01 0.00000E+00
 -1      2706 3.84000E+01 4.09070E+01 0.00000E+00
 -1      2707 3.99000E+01 4.09070E+01 0.00000E+00
 -1      2708 3.76500E+01 3.96080E+01 0.00000E+00
 -1      2709 4.14000E+01 4.09070E+01 0.00000E+00
 -1      2710 4.29000E+01 4.09070E+01 0.00000E+00
 -1      2711 4.06500E+01 3.96080E+01 0.00000E+00
 -1      2712 4.44000E+01 4.09070E+01 0.00000E+00
 -1      2713 4.59000E+01 4.09070E+01 0.00000E+00
 -1      2714 4.36500E+01 3.96080E+01 0.00000E+00
 -1      2715 4.74000E+01 4.09070E+01 0.00000E+00
 -1      2716 4.89000E+01 4.09070E+01 0.00000E+00
 -1      2717 4.66500E+01 3.96080E+01 0.00000E+00
 -1      2718 5.04000E+01 4.09070E+01 0.00000E+00
 -1      2719 5.19000E+01 4.09070E+01 0.00000E+00
 -1      2720 4.96500E+01 3.96080E+01 0.00000E+00
 -1      2721 5.34000E+01 4.09070E+01 0.00000E+00
 -1      2722 5.49000E+01 4.09070E+01 0.00000E+00
 -1      2723 5.26500E+01 3.96080E+01 0.00000E+00
 -1      2724 5.64000E+01 4.09070E+01 0.00000E+00
 -1      2725 5.79000E+01 4.09070E+01 0.00000E+00
 -1      2726 5.56500E+01 3.96080E+01 0.00000E+00
 -1      2727 5.94000E+01 4.09070E+01 0.00000E+00
 -1      2728 6.09000E+01 4.09070E+01 0.00000E+00
 -1      2729 5.86500E+01 3.96080E+01 0.00000E+00
 -1      2730 6.24000E+01 4.09070E+01 0.00000E+00
 -1      2731 6.39000E+01 4.09070E+01 0.00000E+00
 -1      2732 6.16500E+01 3.96080E+01 0.00000E+00
 -1      2733 6.54000E+01 4.09070E+01 0.00000E+00
 -1      2734 6.69000E+01 4.09070E+01 0.00000E+00
 -1      2735 6.46500E+01 3.96080E+01 0.00000E+00
 -1      2736 6.84000E+01 4.09070E+01 0.00000E+00
 -1      2737 6.99000E+01 4.09070E+01 0.00000E+00
 -1      2738 6.76500E+01 3.96080E+01 0.00000E+00
 -1      2739 7.14000E+01 4.09070E+01 0.00000E+00
 -1      2740 7.29000E+01 4.09070E+01 0.00000E+00
 -1      2741 7.06500E+01 3.96080E+01 0.00000E+00
 -1      2742 7.44000E+01 4.09070E+01 0.00000E+00
 -1      2743 7.59000E+01 4.09070E+01 0.00000E+00
 -1      2744 7.36500E+01 3.96080E+01 0.00000E+00
 -1      2745 7.74000E+01 4.09070E+01 0.00000E+00
 -1      2746 7.89000E+01 4.09070E+01 0.00000E+00
 -1      2747 7.66500E+01 3.96080E+01 0.00000E+00
 -1      2748 8.04000E+01 4.09070E+01 0.00000E+00
 -1      2749 8.19000E+01 4.09070E+01 0.00000E+00
 -1      2750 7.96500E+01 3.96080E+01 0.00000E+00
 -1      2751 8.34000E+01 4.09070E+01 0.00000E+00
 -1      2752 8.49000E+01 4.09070E+01 0.00000E+00
 -1      2753 8.26500E+01 3.96080E+01 0.00000E+00
 -1      2754 8.64000E+01 4.09070E+01 0.00000E+00
 -1      2755 8.79000E+01 4.09070E+01 0.00000E+00
 -1      2756 8.56500E+01 3.96080E+01 0.00000E+00
 -1      2757 8.94000E+01 4.09070E+01 0.00000E+00
 -1      2758 9.09000E+01 4.09070E+01 0.00000E+00
 -1      2759 8.86500E+01 3.96080E+01 0.00000E+00
 -1      2760 9.24000E+01 4.09070E+01 0.00000E+00
 -1      2761 9.39000E+01 4.09070E+01 0.00000E+00
 -1      2762 9.16500E+01 3.96080E+01 0.00000E+00
 -1      2763 9.54000E+01 4.09070E+01 0.00000E+00
 -1      2764 9.69000E+01 4.09070E+01 0.00000E+00
 -1      2765 9.46500E+01 3.96080E+01 0.00000E+00
 -1      2766 9.84000E+01 4.09070E+01 0.00000E+00
 -1      2767 9.99000E+01 4.09070E+01 0.00000E+00
 -1      2768 9.76500E+01 3.96080E+01 0.00000E+00
 -1      2769 1.01400E+02 4.09070E+01 0.00000E+00
 -1      2770 1.02900E+02 4.09070E+01 0.00000E+00
 -1      2771 1.00650E+02 3.96080E+01 0.00000E+00
 -1      2772 1.04400E+02 4.09070E+01 0.00000E+00
 -1      2773 1.05900E+02 4.09070E+01 0.00000E+00
 -1      2774 1.03650E+02 3.96080E+01 0.00000E+00
 -1      2775 1.07400E+02 4.09070E+01 0.00000E+00
 -1      2776 1.08900E+02 4.09070E+01 0.00000E+00
 -1      2777 1.06650E+02 3.96080E+01 0.00000E+00
 -1      2778 1.10400E+02 4.09070E+01 0.00000E+00
 -1      2779 1.11900E+02 4.09070E+01 0.00000E+00
 -1      2780 1.09650E+02 3.96080E+01 0.00000E+00
 -1      2781 1.13400E+02 4.09070E+01 0.00000E+00
 -1      2782 1.14900E+02 4.09070E+01 0.00000E+00
 -1      2783 1.12650E+02 3.96080E+01 0.00000E+00
 -1      2784 1.16400E+02 4.09070E+01 0.00000E+00
 -1      2785 1.17900E+02 4.09070E+01 0.00000E+00
 -1      2786 1.15650E+02 3.96080E+01 0.00000E+00
 -1      2787 1.19400E+02 4.09070E+01 0.00000E+00
 -1      2788 1.20900E+02 4.09070E+01 0.00000E+00
 -1      2789 1.18650E+02 3.96080E+01 0.00000E+00
 -1      2790 1.22400E+02 4.09070E+01 0.00000E+00
 -1      2791 1.23900E+02 4.09070E+01 0.00000E+00
 -1      2792 1.21650E+02 3.96080E+01 0.00000E+00
 -1      2793 1.25400E+02 4.09070E+01 0.00000E+00
 -1      2794 1.26900E+02 4.09070E+01 0.00000E+00
 -1      2795 1.24650E+02 3.96080E+01 0.00000E+00
 -1      2796 1.28400E+02 4.09070E+01 0.00000E+00
 -1      2797 1.29900E+02 4.09070E+01 0.00000E+00
 -1      2798 1.27650E+02 3.96080E+01 0.00000E+00
 -1      2799 1.31400E+02 4.09070E+01 0.00000E+00
 -1      2800 1.32900E+02 4.09070E+01 0.00000E+00
 -1      2801 1.30650E+02 3.96080E+01 0.00000E+00
 -1      2802 1.34400E+02 4.09070E+01 0.00000E+00
 -1      2803 1.35900E+02 4.09070E+01 0.00000E+00
 -1      2804 1.33650E+02 3.96080E+01 0.00000E+00
 -1      2805 1.37400E+02 4.09070E+01 0.00000E+00
 -1      2806 1.38900E+02 4.09070E+01 0.00000E+00
 -1      2807 1.36650E+02 3.96080E+01 0.00000E+00
 -1      2808 2.42850E+01 7.90325E+00 0.00000E+00
 -1      2809 2.27850E+01 7.90325E+00 0.00000E+00
 -1      2810 6.82693E+01 3.13572E+01 0.00000E+00
 -1      2811 6.76150E+01 3.05055E+01 0.00000E+00
 -1      2812 2.12850E+01 7.90325E+00 0.00000E+00
 -1      2813 1.97850E+01 7.90325E+00 0.00000E+00
 -1      2814 2.20350E+01 9.20225E+00 0.00000E+00
 -1      2815 3.02850E+01 7.90325E+00 0.00000E+00
 -1      2816 2.87850E+01 7.90325E+00 0.00000E+00
 -1      2817 3.32850E+01 7.90325E+00 0.00000E+00
 -1      2818 3.17850E+01 7.90325E+00 0.00000E+00
 -1      2819 3.10350E+01 9.20225E+00 0.00000E+00
 -1      2820 3.62850E+01 7.90325E+00 0.00000E+00
 -1      2821 3.47850E+01 7.90325E+00 0.00000E+00
 -1      2822 3.40350E+01 9.20225E+00 0.00000E+00
 -1      2823 3.92850E+01 7.90325E+00 0.00000E+00
 -1      2824 3.77850E+01 7.90325E+00 0.00000E+00
 -1      2825 3.70350E+01 9.20225E+00 0.00000E+00
 -1      2826 4.22850E+01 7.90325E+00 0.00000E+00
 -1      2827 4.07850E+01 7.90325E+00 0.00000E+00
 -1      2828 4.00350E+01 9.20225E+00 0.00000E+00
 -1      2829 4.52850E+01 7.90325E+00 0.00000E+00
 -1      2830 4.37850E+01 7.90325E+00 0.00000E+00
 -1      2831 4.30350E+01 9.20225E+00 0.00000E+00
 -1      2832 4.82850E+01 7.90325E+00 0.00000E+00
 -1      2833 4.67850E+01 7.90325E+00 0.00000E+00
 -1      2834 4.60350E+01 9.20225E+00 0.00000E+00
 -1      2835 5.12850E+01 7.90325E+00 0.00000E+00
 -1      2836 4.97850E+01 7.90325E+00 0.00000E+00
 -1      2837 4.90350E+01 9.20225E+00 0.00000E+00
 -1      2838 5.42850E+01 7.90325E+00 0.00000E+00
 -1      2839 5.27850E+01 7.90325E+00 0.00000E+00
 -1      2840 5.20350E+01 9.20225E+00 0.00000E+00
 -1      2841 5.72850E+01 7.90325E+00 0.00000E+00
 -1      2842 5.57850E+01 7.90325E+00 0.00000E+00
 -1      2843 5.50350E+01 9.20225E+00 0.00000E+00
 -1      2844 6.02850E+01 7.90325E+00 0.00000E+00
 -1      2845 5.87850E+01 7.90325E+00 0.00000E+00
 -1      2846 5.80350E+01 9.20225E+00 0.00000E+00
 -1      2847 6.32850E+01 7.90325E+00 0.00000E+00
 -1      2848 6.17850E+01 7.90325E+00 0.00000E+00
 -1      2849 6.10350E+01 9.20225E+00 0.00000E+00
 -1      2850 6.62850E+01 7.90325E+00 0.00000E+00
 -1      2851 6.47850E+01 7.90325E+00 0.00000E+00
 -1      2852 6.40350E+01 9.20225E+00 0.00000E+00
 -1      2853 6.92850E+01 7.90325E+00 0.00000E+00
 -1      2854 6.77850E+01 7.90325E+00 0.00000E+00
 -1      2855 6.70350E+01 9.20225E+00 0.00000E+00
 -1      2856 7.22850E+01 7.90325E+00 0.00000E+00
 -1      2857 7.07850E+01 7.90325E+00 0.00000E+00
 -1      2858 7.00350E+01 9.20225E+00 0.00000E+00
 -1      2859 7.52096E+01 9.01656E+00 0.00000E+00
 -1      2860 7.37096E+01 9.01656E+00 0.00000E+00
 -1      2861 7.87698E+01 8.35673E+00 0.00000E+00
 -1      2862 7.72698E+01 8.35673E+00 0.00000E+00
 -1      2863 8.02698E+01 8.35673E+00 0.00000E+00
 -1      2864 8.42850E+01 7.90325E+00 0.00000E+00
 -1      2865 8.27850E+01 7.90325E+00 0.00000E+00
 -1      2866 8.72850E+01 7.90325E+00 0.00000E+00
 -1      2867 8.57850E+01 7.90325E+00 0.00000E+00
 -1      2868 8.50350E+01 9.20225E+00 0.00000E+00
 -1      2869 9.02850E+01 7.90325E+00 0.00000E+00
 -1      2870 8.87850E+01 7.90325E+00 0.00000E+00
 -1      2871 8.80350E+01 9.20225E+00 0.00000E+00
 -1      2872 9.32850E+01 7.90325E+00 0.00000E+00
 -1      2873 9.17850E+01 7.90325E+00 0.00000E+00
 -1      2874 9.10350E+01 9.20225E+00 0.00000E+00
 -1      2875 9.62850E+01 7.90325E+00 0.00000E+00
 -1      2876 9.47850E+01 7.90325E+00 0.00000E+00
 -1      2877 9.40350E+01 9.20225E+00 0.00000E+00
 -1      2878 9.92850E+01 7.90325E+00 0.00000E+00
 -1      2879 9.77850E+01 7.90325E+00 0.00000E+00
 -1      2880 9.70350E+01 9.20225E+00 0.00000E+00
 -1      2881 1.02285E+02 7.90325E+00 0.00000E+00
 -1      2882 1.00785E+02 7.90325E+00 0.00000E+00
 -1      2883 1.00035E+02 9.20225E+00 0.00000E+00
 -1      2884 1.05285E+02 7.90325E+00 0.00000E+00
 -1      2885 1.03785E+02 7.90325E+00 0.00000E+00
 -1      2886 1.03035E+02 9.20225E+00 0.00000E+00
 -1      2887 1.08285E+02 7.90325E+00 0.00000E+00
 -1      2888 1.06785E+02 7.90325E+00 0.00000E+00
 -1      2889 1.06035E+02 9.20225E+00 0.00000E+00
 -1      2890 1.11285E+02 7.90325E+00 0.00000E+00
 -1      2891 1.09785E+02 7.90325E+00 0.00000E+00
 -1      2892 1.09035E+02 9.20225E+00 0.00000E+00
 -1      2893 1.14285E+02 7.90325E+00 0.00000E+00
 -1      2894 1.12785E+02 7.90325E+00 0.00000E+00
 -1      2895 1.12035E+02 9.20225E+00 0.00000E+00
 -1      2896 1.17285E+02 7.90325E+00 0.00000E+00
 -1      2897 1.15785E+02 7.90325E+00 0.00000E+00
 -1      2898 1.15035E+02 9.20225E+00 0.00000E+00
 -1      2899 1.20285E+02 7.90325E+00 0.00000E+00
 -1      2900 1.18785E+02 7.90325E+00 0.00000E+00
 -1      2901 1.18035E+02 9.20225E+00 0.00000E+00
 -1      2902 1.23285E+02 7.90325E+00 0.00000E+00
 -1      2903 1.21785E+02 7.90325E+00 0.00000E+00
 -1      2904 1.21035E+02 9.20225E+00 0.00000E+00
 -1      2905 1.26285E+02 7.90325E+00 0.00000E+00
 -1      2906 1.24785E+02 7.90325E+00 0.00000E+00
 -1      2907 1.24035E+02 9.20225E+00 0.00000E+00
 -1      2908 1.29285E+02 7.90325E+00 0.00000E+00
 -1      2909 1.27785E+02 7.90325E+00 0.00000E+00
 -1      2910 1.27035E+02 9.20225E+00 0.00000E+00
 -1      2911 1.32285E+02 7.90325E+00 0.00000E+00
 -1      2912 1.30785E+02 7.90325E+00 0.00000E+00
 -1      2913 1.30035E+02 9.20225E+00 0.00000E+00
 -1      2914 1.35285E+02 7.90325E+00 0.00000E+00
 -1      2915 1.33785E+02 7.90325E+00 0.00000E+00
 -1      2916 1.33035E+02 9.20225E+00 0.00000E+00
 -1      2917 1.38285E+02 7.90325E+00 0.00000E+00
 -1      2918 1.36785E+02 7.90325E+00 0.00000E+00
 -1      2919 1.36035E+02 9.20225E+00 0.00000E+00
 -1      2920 1.40953E+02 8.18394E+00 0.00000E+00
 -1      2921 1.39453E+02 8.18394E+00 0.00000E+00
 -1      2922 1.38703E+02 9.48294E+00 0.00000E+00
 -1      2923 1.41038E+02 1.00443E+01 0.00000E+00
 -1      2924 1.40907E+02 2.42875E+01 0.00000E+00
 -1      2925 1.40907E+02 2.28125E+01 0.00000E+00
 -1      2926 1.39914E+02 4.09362E+01 0.00000E+00
 -1      2927 1.40928E+02 4.09655E+01 0.00000E+00
 -1      2928 1.39164E+02 3.96372E+01 0.00000E+00
 -1      2929 1.40907E+02 1.83875E+01 0.00000E+00
 -1      2930 1.40907E+02 1.69125E+01 0.00000E+00
 -1      2931 1.40907E+02 2.72375E+01 0.00000E+00
 -1      2932 1.40907E+02 2.57625E+01 0.00000E+00
 -1      2933 1.39608E+02 2.50250E+01 0.00000E+00
 -1      2934 1.40907E+02 2.13375E+01 0.00000E+00
 -1      2935 1.40907E+02 1.98625E+01 0.00000E+00
 -1      2936 1.39608E+02 1.91250E+01 0.00000E+00
 -1      2937 1.39608E+02 2.20750E+01 0.00000E+00
 -1      2938 1.82850E+01 7.90325E+00 0.00000E+00
 -1      2939 1.67850E+01 7.90325E+00 0.00000E+00
 -1      2940 1.60350E+01 9.20225E+00 0.00000E+00
 -1      2941 1.90350E+01 9.20225E+00 0.00000E+00
 -1      2942 1.40907E+02 3.01375E+01 0.00000E+00
 -1      2943 1.40907E+02 2.86875E+01 0.00000E+00
 -1      2944 1.39608E+02 2.79500E+01 0.00000E+00
 -1      2945 1.40907E+02 3.30875E+01 0.00000E+00
 -1      2946 1.40907E+02 3.16125E+01 0.00000E+00
 -1      2947 1.39608E+02 3.08750E+01 0.00000E+00
 -1      2948 1.40907E+02 3.60375E+01 0.00000E+00
 -1      2949 1.40907E+02 3.45625E+01 0.00000E+00
 -1      2950 1.39608E+02 3.38250E+01 0.00000E+00
 -1      2951 8.84062E+01 2.46088E+01 0.00000E+00
 -1      2952 8.81660E+01 2.57551E+01 0.00000E+00
 -1      2953 8.30443E+01 3.29100E+01 0.00000E+00
 -1      2954 8.18670E+01 3.35594E+01 0.00000E+00
 -1      2955 1.41192E+02 3.96958E+01 0.00000E+00
 -1      2956 7.27543E+01 3.41379E+01 0.00000E+00
 -1      2957 7.16554E+01 3.36704E+01 0.00000E+00
 -1      2958 8.82247E+01 1.96226E+01 0.00000E+00
 -1      2959 8.84756E+01 2.06397E+01 0.00000E+00
 -1      2960 8.04510E+01 1.11445E+01 0.00000E+00
 -1      2961 8.13452E+01 1.15283E+01 0.00000E+00
 -1      2962 8.60380E+01 1.51550E+01 0.00000E+00
 -1      2963 8.66421E+01 1.60591E+01 0.00000E+00
 -1      2964 2.72850E+01 7.90325E+00 0.00000E+00
 -1      2965 2.57850E+01 7.90325E+00 0.00000E+00
 -1      2966 2.50350E+01 9.20225E+00 0.00000E+00
 -1      2967 2.80350E+01 9.20225E+00 0.00000E+00
 -1      2968 1.14000E+01 4.09070E+01 0.00000E+00
 -1      2969 1.29000E+01 4.09070E+01 0.00000E+00
 -1      2970 1.36500E+01 3.96080E+01 0.00000E+00
 -1      2971 6.64905E+01 1.60024E+01 0.00000E+00
 -1      2972 6.70973E+01 1.49390E+01 0.00000E+00
 -1      2973 8.23736E+01 1.20775E+01 0.00000E+00
 -1      2974 8.32910E+01 1.26623E+01 0.00000E+00
 -1      2975 7.82254E+01 3.46078E+01 0.00000E+00
 -1      2976 7.70480E+01 3.47913E+01 0.00000E+00
 -1      2977 9.09300E+00 1.68813E+01 0.00000E+00
 -1      2978 9.09300E+00 1.83563E+01 0.00000E+00
 -1      2979 1.03920E+01 1.90812E+01 0.00000E+00
 -1      2980 1.03920E+01 1.61437E+01 0.00000E+00
 -1      2981 9.09300E+00 3.15875E+01 0.00000E+00
 -1      2982 9.09300E+00 3.30625E+01 0.00000E+00
 -1      2983 8.49185E+01 3.12876E+01 0.00000E+00
 -1      2984 8.41142E+01 3.19808E+01 0.00000E+00
 -1      2985 8.44123E+01 1.33516E+01 0.00000E+00
 -1      2986 8.52097E+01 1.41490E+01 0.00000E+00
 -1      2987 8.05228E+01 3.39071E+01 0.00000E+00
 -1      2988 7.94925E+01 3.42850E+01 0.00000E+00
 -1      2989 6.46524E+01 2.28010E+01 0.00000E+00
 -1      2990 6.46732E+01 2.16898E+01 0.00000E+00
 -1      2991 7.01996E+01 1.19790E+01 0.00000E+00
 -1      2992 7.13421E+01 1.14619E+01 0.00000E+00
 -1      2993 6.56791E+01 1.77082E+01 0.00000E+00
 -1      2994 6.60848E+01 1.68553E+01 0.00000E+00
 -1      2995 6.55706E+01 1.58571E+01 0.00000E+00
 -1      2996 7.85850E+00 3.92077E+01 0.00000E+00
 -1      2997 6.59099E+01 2.75103E+01 0.00000E+00
 -1      2998 6.53869E+01 2.65371E+01 0.00000E+00
 -1      2999 6.54596E+01 2.84334E+01 0.00000E+00
 -1      3000 8.87833E+01 2.19987E+01 0.00000E+00
 -1      3001 8.87631E+01 2.32562E+01 0.00000E+00
 -1      3002 8.72296E+01 1.71784E+01 0.00000E+00
 -1      3003 8.78170E+01 1.82978E+01 0.00000E+00
 -1      3004 8.77798E+01 1.61568E+01 0.00000E+00
 -1      3005 7.03849E+01 3.30646E+01 0.00000E+00
 -1      3006 6.93356E+01 3.23457E+01 0.00000E+00
 -1      3007 6.48383E+01 2.51602E+01 0.00000E+00
 -1      3008 6.47113E+01 2.40403E+01 0.00000E+00
 -1      3009 7.55128E+01 3.47680E+01 0.00000E+00
 -1      3010 7.41689E+01 3.45414E+01 0.00000E+00
 -1      3011 8.77097E+01 2.71600E+01 0.00000E+00
 -1      3012 8.70764E+01 2.82470E+01 0.00000E+00
 -1      3013 8.75385E+01 2.92461E+01 0.00000E+00
 -1      3014 6.79219E+01 1.36356E+01 0.00000E+00
 -1      3015 6.88382E+01 1.27845E+01 0.00000E+00
 -1      3016 9.09300E+00 3.45313E+01 0.00000E+00
 -1      3017 9.09300E+00 3.60000E+01 0.00000E+00
 -1      3018 1.03920E+01 3.37938E+01 0.00000E+00
 -1      3019 1.03920E+01 2.49750E+01 0.00000E+00
 -1      3020 9.09300E+00 2.57000E+01 0.00000E+00
 -1      3021 9.09300E+00 2.71750E+01 0.00000E+00
 -1      3022 9.66450E+00 9.72612E+00 0.00000E+00
 -1      3023 8.94413E+01 2.39966E+01 0.00000E+00
 -1      3024 6.68008E+01 1.37009E+01 0.00000E+00
 -1      3025 6.89868E+01 1.15920E+01 0.00000E+00
 -1      3026 1.39608E+02 1.61875E+01 0.00000E+00
 -1      3027 1.40907E+02 1.54500E+01 0.00000E+00
 -1      3028 1.40907E+02 1.39875E+01 0.00000E+00
 -1      3029 6.65891E+01 3.04557E+01 0.00000E+00
 -1      3030 7.29596E+01 1.03156E+01 0.00000E+00
 -1      3031 7.65922E+01 8.14229E+00 0.00000E+00
 -1      3032 7.57668E+01 1.05546E+01 0.00000E+00
 -1      3033 8.86281E+01 2.67542E+01 0.00000E+00
 -1      3034 7.05986E+01 3.40875E+01 0.00000E+00
 -1      3035 1.40973E+02 1.27472E+01 0.00000E+00
 -1      3036 1.40973E+02 1.12847E+01 0.00000E+00
 -1      3037 1.39805E+02 1.10040E+01 0.00000E+00
 -1      3038 1.39674E+02 1.34847E+01 0.00000E+00
 -1      3039 8.87750E+01 1.86010E+01 0.00000E+00
 -1      3040 8.40611E+01 3.32765E+01 0.00000E+00
 -1      3041 7.62335E+01 3.55236E+01 0.00000E+00
 -1      3042 6.43881E+01 2.60833E+01 0.00000E+00
 -1      3043 1.41192E+02 3.82207E+01 0.00000E+00
 -1      3044 6.49473E+01 1.81291E+01 0.00000E+00
 -1      3045 6.44331E+01 1.71309E+01 0.00000E+00
 -1      3046 6.42156E+01 1.85501E+01 0.00000E+00
 -1      3047 6.37806E+01 2.34670E+01 0.00000E+00
 -1      3048 8.16471E+01 3.45534E+01 0.00000E+00
 -1      3049 8.44146E+01 1.23361E+01 0.00000E+00
 -1      3050 7.90358E+01 3.52240E+01 0.00000E+00
 -1      3051 7.32837E+01 3.50968E+01 0.00000E+00
 -1      3052 8.63642E+01 1.40314E+01 0.00000E+00
 -1      3053 8.94905E+01 2.12849E+01 0.00000E+00
 -1      3054 8.22648E+01 1.10976E+01 0.00000E+00
 -1      3055 7.98705E+01 1.03288E+01 0.00000E+00
 -1      3056 6.42257E+01 2.08880E+01 0.00000E+00
 -1      3057 6.37782E+01 2.00862E+01 0.00000E+00
 -1      3058 6.32741E+01 2.14259E+01 0.00000E+00
 -1      3059 6.82619E+01 3.24933E+01 0.00000E+00
 -1      3060 1.39529E+02 3.85602E+01 0.00000E+00
 -1      3061 1.40542E+02 3.71145E+01 0.00000E+00
 -1      3062 1.39243E+02 3.63770E+01 0.00000E+00
 -1      3063 1.38514E+02 3.85310E+01 0.00000E+00
 -1      3064 9.15750E+00 3.77359E+01 0.00000E+00
 -1      3065 9.22200E+00 4.02061E+01 0.00000E+00
 -1      3066 1.05855E+01 4.04701E+01 0.00000E+00
 -1      3067 1.04565E+01 3.69984E+01 0.00000E+00
 -1      3068 9.09300E+00 2.86437E+01 0.00000E+00
 -1      3069 9.09300E+00 3.01187E+01 0.00000E+00
 -1      3070 1.03920E+01 3.08563E+01 0.00000E+00
 -1      3071 1.03920E+01 2.79188E+01 0.00000E+00
 -1      3072 1.09635E+01 1.04636E+01 0.00000E+00
 -1      3073 8.60180E+01 3.13402E+01 0.00000E+00
 -1      3074 7.19355E+01 1.06698E+01 0.00000E+00
 -1      3075 1.13355E+01 3.91711E+01 0.00000E+00
 -1      3076 9.04489E+01 2.35390E+01 0.00000E+00
 -1      3077 9.00920E+01 2.48917E+01 0.00000E+00
 -1      3078 1.16910E+01 1.24625E+01 0.00000E+00
 -1      3079 1.16910E+01 1.39375E+01 0.00000E+00
 -1      3080 1.29000E+01 3.83090E+01 0.00000E+00
 -1      3081 1.44000E+01 3.83090E+01 0.00000E+00
 -1      3082 1.26488E+01 1.02017E+01 0.00000E+00
 -1      3083 1.20772E+01 1.14631E+01 0.00000E+00
 -1      3084 1.33763E+01 1.22006E+01 0.00000E+00
 -1      3085 1.41488E+01 1.02017E+01 0.00000E+00
 -1      3086 1.89000E+01 3.83090E+01 0.00000E+00
 -1      3087 2.04000E+01 3.83090E+01 0.00000E+00
 -1      3088 2.19000E+01 3.83090E+01 0.00000E+00
 -1      3089 2.34000E+01 3.83090E+01 0.00000E+00
 -1      3090 2.11500E+01 3.70100E+01 0.00000E+00
 -1      3091 2.49000E+01 3.83090E+01 0.00000E+00
 -1      3092 2.64000E+01 3.83090E+01 0.00000E+00
 -1      3093 2.41500E+01 3.70100E+01 0.00000E+00
 -1      3094 2.79000E+01 3.83090E+01 0.00000E+00
 -1      3095 2.94000E+01 3.83090E+01 0.00000E+00
 -1      3096 2.71500E+01 3.70100E+01 0.00000E+00
 -1      3097 3.09000E+01 3.83090E+01 0.00000E+00
 -1      3098 3.24000E+01 3.83090E+01 0.00000E+00
 -1      3099 3.01500E+01 3.70100E+01 0.00000E+00
 -1      3100 3.39000E+01 3.83090E+01 0.00000E+00
 -1      3101 3.54000E+01 3.83090E+01 0.00000E+00
 -1      3102 3.31500E+01 3.70100E+01 0.00000E+00
 -1      3103 3.69000E+01 3.83090E+01 0.00000E+00
 -1      3104 3.84000E+01 3.83090E+01 0.00000E+00
 -1      3105 3.61500E+01 3.70100E+01 0.00000E+00
 -1      3106 3.99000E+01 3.83090E+01 0.00000E+00
 -1      3107 4.14000E+01 3.83090E+01 0.00000E+00
 -1      3108 3.91500E+01 3.70100E+01 0.00000E+00
 -1      3109 4.29000E+01 3.83090E+01 0.00000E+00
 -1      3110 4.44000E+01 3.83090E+01 0.00000E+00
 -1      3111 4.21500E+01 3.70100E+01 0.00000E+00
 -1      3112 4.59000E+01 3.83090E+01 0.00000E+00
 -1      3113 4.74000E+01 3.83090E+01 0.00000E+00
 -1      3114 4.51500E+01 3.70100E+01 0.00000E+00
 -1      3115 4.89000E+01 3.83090E+01 0.00000E+00
 -1      3116 5.04000E+01 3.83090E+01 0.00000E+00
 -1      3117 4.81500E+01 3.70100E+01 0.00000E+00
 -1      3118 5.19000E+01 3.83090E+01 0.00000E+00
 -1      3119 5.34000E+01 3.83090E+01 0.00000E+00
 -1      3120 5.11500E+01 3.70100E+01 0.00000E+00
 -1      3121 5.49000E+01 3.83090E+01 0.00000E+00
 -1      3122 5.64000E+01 3.83090E+01 0.00000E+00
 -1      3123 5.41500E+01 3.70100E+01 0.00000E+00
 -1      3124 5.79000E+01 3.83090E+01 0.00000E+00
 -1      3125 5.94000E+01 3.83090E+01 0.00000E+00
 -1      3126 5.71500E+01 3.70100E+01 0.00000E+00
 -1      3127 6.09000E+01 3.83090E+01 0.00000E+00
 -1      3128 6.24000E+01 3.83090E+01 0.00000E+00
 -1      3129 6.01500E+01 3.70100E+01 0.00000E+00
 -1      3130 6.39000E+01 3.83090E+01 0.00000E+00
 -1      3131 6.54000E+01 3.83090E+01 0.00000E+00
 -1      3132 6.31500E+01 3.70100E+01 0.00000E+00
 -1      3133 6.69000E+01 3.83090E+01 0.00000E+00
 -1      3134 6.84000E+01 3.83090E+01 0.00000E+00
 -1      3135 6.61500E+01 3.70100E+01 0.00000E+00
 -1      3136 7.29000E+01 3.85829E+01 0.00000E+00
 -1      3137 7.44000E+01 3.85829E+01 0.00000E+00
 -1      3138 7.64594E+01 3.75774E+01 0.00000E+00
 -1      3139 7.79594E+01 3.75774E+01 0.00000E+00
 -1      3140 8.19000E+01 3.83315E+01 0.00000E+00
 -1      3141 8.34000E+01 3.83315E+01 0.00000E+00
 -1      3142 8.49000E+01 3.83315E+01 0.00000E+00
 -1      3143 8.64000E+01 3.83315E+01 0.00000E+00
 -1      3144 8.41500E+01 3.70550E+01 0.00000E+00
 -1      3145 8.79000E+01 3.83315E+01 0.00000E+00
 -1      3146 8.94000E+01 3.83315E+01 0.00000E+00
 -1      3147 8.71500E+01 3.70550E+01 0.00000E+00
 -1      3148 9.09000E+01 3.83315E+01 0.00000E+00
 -1      3149 9.24000E+01 3.83315E+01 0.00000E+00
 -1      3150 9.01500E+01 3.70550E+01 0.00000E+00
 -1      3151 9.39000E+01 3.83315E+01 0.00000E+00
 -1      3152 9.54000E+01 3.83315E+01 0.00000E+00
 -1      3153 9.31500E+01 3.70550E+01 0.00000E+00
 -1      3154 9.69000E+01 3.83315E+01 0.00000E+00
 -1      3155 9.84000E+01 3.83315E+01 0.00000E+00
 -1      3156 9.61500E+01 3.70550E+01 0.00000E+00
 -1      3157 9.99000E+01 3.83315E+01 0.00000E+00
 -1      3158 1.01400E+02 3.83315E+01 0.00000E+00
 -1      3159 9.91500E+01 3.70550E+01 0.00000E+00
 -1      3160 1.02900E+02 3.83315E+01 0.00000E+00
 -1      3161 1.04400E+02 3.83315E+01 0.00000E+00
 -1      3162 1.02150E+02 3.70550E+01 0.00000E+00
 -1      3163 1.05900E+02 3.83315E+01 0.00000E+00
 -1      3164 1.07400E+02 3.83315E+01 0.00000E+00
 -1      3165 1.05150E+02 3.70550E+01 0.00000E+00
 -1      3166 1.08900E+02 3.83315E+01 0.00000E+00
 -1      3167 1.10400E+02 3.83315E+01 0.00000E+00
 -1      3168 1.08150E+02 3.70550E+01 0.00000E+00
 -1      3169 1.11900E+02 3.83315E+01 0.00000E+00
 -1      3170 1.13400E+02 3.83315E+01 0.00000E+00
 -1      3171 1.11150E+02 3.70550E+01 0.00000E+00
 -1      3172 1.14900E+02 3.83315E+01 0.00000E+00
 -1      3173 1.16400E+02 3.83315E+01 0.00000E+00
 -1      3174 1.14150E+02 3.70550E+01 0.00000E+00
 -1      3175 1.17900E+02 3.83315E+01 0.00000E+00
 -1      3176 1.19400E+02 3.83315E+01 0.00000E+00
 -1      3177 1.17150E+02 3.70550E+01 0.00000E+00
 -1      3178 1.20900E+02 3.83315E+01 0.00000E+00
 -1      3179 1.22400E+02 3.83315E+01 0.00000E+00
 -1      3180 1.20150E+02 3.70550E+01 0.00000E+00
 -1      3181 1.23900E+02 3.83315E+01 0.00000E+00
 -1      3182 1.25400E+02 3.83315E+01 0.00000E+00
 -1      3183 1.23150E+02 3.70550E+01 0.00000E+00
 -1      3184 1.26900E+02 3.83315E+01 0.00000E+00
 -1      3185 1.28400E+02 3.83315E+01 0.00000E+00
 -1      3186 1.26150E+02 3.70550E+01 0.00000E+00
 -1      3187 1.29900E+02 3.83315E+01 0.00000E+00
 -1      3188 1.31400E+02 3.83315E+01 0.00000E+00
 -1      3189 1.29150E+02 3.70550E+01 0.00000E+00
 -1      3190 1.32900E+02 3.83315E+01 0.00000E+00
 -1      3191 1.34400E+02 3.83315E+01 0.00000E+00
 -1      3192 1.32150E+02 3.70550E+01 0.00000E+00
 -1      3193 1.35707E+02 3.84313E+01 0.00000E+00
 -1      3194 1.37207E+02 3.84313E+01 0.00000E+00
 -1      3195 1.37572E+02 3.73543E+01 0.00000E+00
 -1      3196 1.34957E+02 3.71548E+01 0.00000E+00
 -1      3197 1.38309E+02 2.86750E+01 0.00000E+00
 -1      3198 1.38309E+02 2.72250E+01 0.00000E+00
 -1      3199 3.47850E+01 1.05013E+01 0.00000E+00
 -1      3200 3.32850E+01 1.05013E+01 0.00000E+00
 -1      3201 3.17850E+01 1.05013E+01 0.00000E+00
 -1      3202 3.02850E+01 1.05013E+01 0.00000E+00
 -1      3203 3.25350E+01 1.18003E+01 0.00000E+00
 -1      3204 4.07850E+01 1.05013E+01 0.00000E+00
 -1      3205 3.92850E+01 1.05013E+01 0.00000E+00
 -1      3206 4.37850E+01 1.05013E+01 0.00000E+00
 -1      3207 4.22850E+01 1.05013E+01 0.00000E+00
 -1      3208 4.15350E+01 1.18003E+01 0.00000E+00
 -1      3209 4.67850E+01 1.05013E+01 0.00000E+00
 -1      3210 4.52850E+01 1.05013E+01 0.00000E+00
 -1      3211 4.45350E+01 1.18003E+01 0.00000E+00
 -1      3212 4.97850E+01 1.05013E+01 0.00000E+00
 -1      3213 4.82850E+01 1.05013E+01 0.00000E+00
 -1      3214 4.75350E+01 1.18003E+01 0.00000E+00
 -1      3215 5.27850E+01 1.05013E+01 0.00000E+00
 -1      3216 5.12850E+01 1.05013E+01 0.00000E+00
 -1      3217 5.05350E+01 1.18003E+01 0.00000E+00
 -1      3218 5.57850E+01 1.05013E+01 0.00000E+00
 -1      3219 5.42850E+01 1.05013E+01 0.00000E+00
 -1      3220 5.35350E+01 1.18003E+01 0.00000E+00
 -1      3221 5.87850E+01 1.05013E+01 0.00000E+00
 -1      3222 5.72850E+01 1.05013E+01 0.00000E+00
 -1      3223 5.65350E+01 1.18003E+01 0.00000E+00
 -1      3224 6.17850E+01 1.05013E+01 0.00000E+00
 -1      3225 6.02850E+01 1.05013E+01 0.00000E+00
 -1      3226 5.95350E+01 1.18003E+01 0.00000E+00
 -1      3227 6.47850E+01 1.05013E+01 0.00000E+00
 -1      3228 6.32850E+01 1.05013E+01 0.00000E+00
 -1      3229 6.25350E+01 1.18003E+01 0.00000E+00
 -1      3230 8.99109E+01 2.63943E+01 0.00000E+00
 -1      3231 8.94546E+01 2.77992E+01 0.00000E+00
 -1      3232 8.10198E+01 9.65573E+00 0.00000E+00
 -1      3233 8.87850E+01 1.05013E+01 0.00000E+00
 -1      3234 8.72850E+01 1.05013E+01 0.00000E+00
 -1      3235 9.47850E+01 1.05013E+01 0.00000E+00
 -1      3236 9.32850E+01 1.05013E+01 0.00000E+00
 -1      3237 9.77850E+01 1.05013E+01 0.00000E+00
 -1      3238 9.62850E+01 1.05013E+01 0.00000E+00
 -1      3239 9.55350E+01 1.18003E+01 0.00000E+00
 -1      3240 1.00785E+02 1.05013E+01 0.00000E+00
 -1      3241 9.92850E+01 1.05013E+01 0.00000E+00
 -1      3242 9.85350E+01 1.18003E+01 0.00000E+00
 -1      3243 1.03785E+02 1.05013E+01 0.00000E+00
 -1      3244 1.02285E+02 1.05013E+01 0.00000E+00
 -1      3245 1.01535E+02 1.18003E+01 0.00000E+00
 -1      3246 1.06785E+02 1.05013E+01 0.00000E+00
 -1      3247 1.05285E+02 1.05013E+01 0.00000E+00
 -1      3248 1.04535E+02 1.18003E+01 0.00000E+00
 -1      3249 1.09785E+02 1.05013E+01 0.00000E+00
 -1      3250 1.08285E+02 1.05013E+01 0.00000E+00
 -1      3251 1.07535E+02 1.18003E+01 0.00000E+00
 -1      3252 1.12785E+02 1.05013E+01 0.00000E+00
 -1      3253 1.11285E+02 1.05013E+01 0.00000E+00
 -1      3254 1.10535E+02 1.18003E+01 0.00000E+00
 -1      3255 1.15785E+02 1.05013E+01 0.00000E+00
 -1      3256 1.14285E+02 1.05013E+01 0.00000E+00
 -1      3257 1.13535E+02 1.18003E+01 0.00000E+00
 -1      3258 1.18785E+02 1.05013E+01 0.00000E+00
 -1      3259 1.17285E+02 1.05013E+01 0.00000E+00
 -1      3260 1.16535E+02 1.18003E+01 0.00000E+00
 -1      3261 1.21785E+02 1.05013E+01 0.00000E+00
 -1      3262 1.20285E+02 1.05013E+01 0.00000E+00
 -1      3263 1.19535E+02 1.18003E+01 0.00000E+00
 -1      3264 1.24785E+02 1.05013E+01 0.00000E+00
 -1      3265 1.23285E+02 1.05013E+01 0.00000E+00
 -1      3266 1.22535E+02 1.18003E+01 0.00000E+00
 -1      3267 1.27785E+02 1.05013E+01 0.00000E+00
 -1      3268 1.26285E+02 1.05013E+01 0.00000E+00
 -1      3269 1.25535E+02 1.18003E+01 0.00000E+00
 -1      3270 1.30785E+02 1.05013E+01 0.00000E+00
 -1      3271 1.29285E+02 1.05013E+01 0.00000E+00
 -1      3272 1.28535E+02 1.18003E+01 0.00000E+00
 -1      3273 1.33785E+02 1.05013E+01 0.00000E+00
 -1      3274 1.32285E+02 1.05013E+01 0.00000E+00
 -1      3275 1.31535E+02 1.18003E+01 0.00000E+00
 -1      3276 1.36785E+02 1.05013E+01 0.00000E+00
 -1      3277 1.35285E+02 1.05013E+01 0.00000E+00
 -1      3278 1.34535E+02 1.18003E+01 0.00000E+00
 -1      3279 1.38879E+02 1.08930E+01 0.00000E+00
 -1      3280 1.37711E+02 1.06123E+01 0.00000E+00
 -1      3281 1.36961E+02 1.19113E+01 0.00000E+00
 -1      3282 1.38813E+02 1.21333E+01 0.00000E+00
 -1      3283 1.16910E+01 2.12875E+01 0.00000E+00
 -1      3284 1.16910E+01 2.27625E+01 0.00000E+00
 -1      3285 1.38309E+02 2.57500E+01 0.00000E+00
 -1      3286 1.38309E+02 2.42750E+01 0.00000E+00
 -1      3287 1.37010E+02 2.64750E+01 0.00000E+00
 -1      3288 7.07927E+01 3.53157E+01 0.00000E+00
 -1      3289 6.95222E+01 3.47099E+01 0.00000E+00
 -1      3290 6.50057E+01 1.34022E+01 0.00000E+00
 -1      3291 6.58302E+01 1.20989E+01 0.00000E+00
 -1      3292 8.96310E+01 1.76124E+01 0.00000E+00
 -1      3293 9.00387E+01 1.89372E+01 0.00000E+00
 -1      3294 1.38309E+02 3.16250E+01 0.00000E+00
 -1      3295 1.38309E+02 3.01500E+01 0.00000E+00
 -1      3296 1.37010E+02 2.94250E+01 0.00000E+00
 -1      3297 9.17850E+01 1.05013E+01 0.00000E+00
 -1      3298 9.02850E+01 1.05013E+01 0.00000E+00
 -1      3299 9.25350E+01 1.18003E+01 0.00000E+00
 -1      3300 3.77850E+01 1.05013E+01 0.00000E+00
 -1      3301 3.62850E+01 1.05013E+01 0.00000E+00
 -1      3302 3.55350E+01 1.18003E+01 0.00000E+00
 -1      3303 3.85350E+01 1.18003E+01 0.00000E+00
 -1      3304 2.27850E+01 1.05013E+01 0.00000E+00
 -1      3305 2.12850E+01 1.05013E+01 0.00000E+00
 -1      3306 1.59000E+01 3.83090E+01 0.00000E+00
 -1      3307 1.74000E+01 3.83090E+01 0.00000E+00
 -1      3308 1.81500E+01 3.70100E+01 0.00000E+00
 -1      3309 1.38309E+02 3.45750E+01 0.00000E+00
 -1      3310 1.38309E+02 3.31000E+01 0.00000E+00
 -1      3311 1.37010E+02 3.23750E+01 0.00000E+00
 -1      3312 6.58598E+01 3.15772E+01 0.00000E+00
 -1      3313 6.52533E+01 3.05281E+01 0.00000E+00
 -1      3314 6.37100E+01 2.71512E+01 0.00000E+00
 -1      3315 6.31614E+01 2.57742E+01 0.00000E+00
 -1      3316 9.03464E+01 2.02963E+01 0.00000E+00
 -1      3317 9.06541E+01 2.16554E+01 0.00000E+00
 -1      3318 9.12024E+01 1.93077E+01 0.00000E+00
 -1      3319 1.12710E+01 3.74352E+01 0.00000E+00
 -1      3320 1.20855E+01 3.78721E+01 0.00000E+00
 -1      3321 1.12065E+01 3.56994E+01 0.00000E+00
 -1      3322 7.37558E+01 3.61232E+01 0.00000E+00
 -1      3323 7.23412E+01 3.57197E+01 0.00000E+00
 -1      3324 6.80981E+01 3.37393E+01 0.00000E+00
 -1      3325 6.70318E+01 3.27508E+01 0.00000E+00
 -1      3326 7.09416E+01 9.99438E+00 0.00000E+00
 -1      3327 6.48388E+01 1.62780E+01 0.00000E+00
 -1      3328 6.52445E+01 1.54251E+01 0.00000E+00
 -1      3329 6.41070E+01 1.66990E+01 0.00000E+00
 -1      3330 8.84680E+01 1.50819E+01 0.00000E+00
 -1      3331 8.90555E+01 1.62012E+01 0.00000E+00
 -1      3332 8.73566E+01 3.16250E+01 0.00000E+00
 -1      3333 8.64695E+01 3.26321E+01 0.00000E+00
 -1      3334 6.29534E+01 2.41274E+01 0.00000E+00
 -1      3335 6.28945E+01 2.28881E+01 0.00000E+00
 -1      3336 6.47432E+01 2.93262E+01 0.00000E+00
 -1      3337 6.42202E+01 2.83530E+01 0.00000E+00
 -1      3338 6.29936E+01 2.80440E+01 0.00000E+00
 -1      3339 6.40139E+01 3.04477E+01 0.00000E+00
 -1      3340 8.52682E+01 3.35858E+01 0.00000E+00
 -1      3341 8.41983E+01 3.45151E+01 0.00000E+00
 -1      3342 8.28206E+01 3.56304E+01 0.00000E+00
 -1      3343 8.14765E+01 3.59781E+01 0.00000E+00
 -1      3344 8.67854E+01 1.24128E+01 0.00000E+00
 -1      3345 8.76137E+01 1.34189E+01 0.00000E+00
 -1      3346 8.87409E+01 2.92187E+01 0.00000E+00
 -1      3347 8.81076E+01 3.03057E+01 0.00000E+00
 -1      3348 7.69682E+01 1.04221E+01 0.00000E+00
 -1      3349 7.78270E+01 9.89477E+00 0.00000E+00
 -1      3350 6.94416E+01 9.99438E+00 0.00000E+00
 -1      3351 6.80802E+01 1.07999E+01 0.00000E+00
 -1      3352 6.65802E+01 1.07999E+01 0.00000E+00
 -1      3353 1.16910E+01 2.42375E+01 0.00000E+00
 -1      3354 1.16910E+01 2.57125E+01 0.00000E+00
 -1      3355 1.29900E+01 2.35000E+01 0.00000E+00
 -1      3356 1.29900E+01 1.46687E+01 0.00000E+00
 -1      3357 1.16910E+01 1.54063E+01 0.00000E+00
 -1      3358 1.16910E+01 1.68750E+01 0.00000E+00
 -1      3359 1.51500E+01 3.70100E+01 0.00000E+00
 -1      3360 6.86831E+01 3.64741E+01 0.00000E+00
 -1      3361 6.94331E+01 3.77731E+01 0.00000E+00
 -1      3362 1.38309E+02 1.69188E+01 0.00000E+00
 -1      3363 1.38309E+02 1.54563E+01 0.00000E+00
 -1      3364 7.09331E+01 3.77731E+01 0.00000E+00
 -1      3365 7.89681E+01 3.64585E+01 0.00000E+00
 -1      3366 7.91587E+01 3.84891E+01 0.00000E+00
 -1      3367 8.06587E+01 3.84891E+01 0.00000E+00
 -1      3368 6.82921E+01 3.49675E+01 0.00000E+00
 -1      3369 2.42850E+01 1.05013E+01 0.00000E+00
 -1      3370 2.35350E+01 1.18003E+01 0.00000E+00
 -1      3371 2.57850E+01 1.05013E+01 0.00000E+00
 -1      3372 9.09186E+01 2.59367E+01 0.00000E+00
 -1      3373 2.05350E+01 1.18003E+01 0.00000E+00
 -1      3374 1.97850E+01 1.05013E+01 0.00000E+00
 -1      3375 1.82850E+01 1.05013E+01 0.00000E+00
 -1      3376 1.12065E+01 3.27619E+01 0.00000E+00
 -1      3377 1.12065E+01 3.42306E+01 0.00000E+00
 -1      3378 1.20210E+01 3.46675E+01 0.00000E+00
 -1      3379 2.95350E+01 1.18003E+01 0.00000E+00
 -1      3380 2.87850E+01 1.05013E+01 0.00000E+00
 -1      3381 2.72850E+01 1.05013E+01 0.00000E+00
 -1      3382 9.00237E+01 2.88587E+01 0.00000E+00
 -1      3383 8.95350E+01 1.18003E+01 0.00000E+00
 -1      3384 8.57850E+01 1.04787E+01 0.00000E+00
 -1      3385 8.42850E+01 1.04787E+01 0.00000E+00
 -1      3386 1.16910E+01 1.98188E+01 0.00000E+00
 -1      3387 1.29900E+01 2.05562E+01 0.00000E+00
 -1      3388 1.16910E+01 1.83500E+01 0.00000E+00
 -1      3389 1.38309E+02 1.98687E+01 0.00000E+00
 -1      3390 1.38309E+02 1.83937E+01 0.00000E+00
 -1      3391 1.37010E+02 1.76625E+01 0.00000E+00
 -1      3392 9.13049E+01 2.25504E+01 0.00000E+00
 -1      3393 9.19556E+01 2.34455E+01 0.00000E+00
 -1      3394 9.21608E+01 2.15618E+01 0.00000E+00
 -1      3395 7.12647E+01 3.63421E+01 0.00000E+00
 -1      3396 1.38309E+02 2.28094E+01 0.00000E+00
 -1      3397 1.38309E+02 2.13344E+01 0.00000E+00
 -1      3398 1.37010E+02 2.06031E+01 0.00000E+00
 -1      3399 1.37010E+02 2.35344E+01 0.00000E+00
 -1      3400 6.22754E+01 2.51953E+01 0.00000E+00
 -1      3401 6.13893E+01 2.46164E+01 0.00000E+00
 -1      3402 6.15974E+01 2.62632E+01 0.00000E+00
 -1      3403 1.28355E+01 3.65731E+01 0.00000E+00
 -1      3404 6.32639E+01 1.90880E+01 0.00000E+00
 -1      3405 6.27497E+01 1.80898E+01 0.00000E+00
 -1      3406 6.23123E+01 1.96259E+01 0.00000E+00
 -1      3407 8.85590E+01 3.15976E+01 0.00000E+00
 -1      3408 7.49241E+01 3.75542E+01 0.00000E+00
 -1      3409 8.66067E+01 3.38707E+01 0.00000E+00
 -1      3410 8.40277E+01 3.59397E+01 0.00000E+00
 -1      3411 9.03192E+01 1.65374E+01 0.00000E+00
 -1      3412 6.24470E+01 2.20863E+01 0.00000E+00
 -1      3413 6.19994E+01 2.12845E+01 0.00000E+00
 -1      3414 6.16198E+01 2.27467E+01 0.00000E+00
 -1      3415 1.37758E+02 3.65031E+01 0.00000E+00
 -1      3416 1.38123E+02 3.54261E+01 0.00000E+00
 -1      3417 1.36824E+02 3.47011E+01 0.00000E+00
 -1      3418 1.36451E+02 3.64034E+01 0.00000E+00
 -1      3419 6.56960E+01 3.28232E+01 0.00000E+00
 -1      3420 8.02352E+01 3.61357E+01 0.00000E+00
 -1      3421 8.88893E+01 1.34633E+01 0.00000E+00
 -1      3422 1.69669E+01 1.03515E+01 0.00000E+00
 -1      3423 1.54669E+01 1.03515E+01 0.00000E+00
 -1      3424 1.50806E+01 1.13509E+01 0.00000E+00
 -1      3425 1.77169E+01 1.16505E+01 0.00000E+00
 -1      3426 1.12065E+01 3.12931E+01 0.00000E+00
 -1      3427 1.20210E+01 3.17300E+01 0.00000E+00
 -1      3428 1.12065E+01 2.98244E+01 0.00000E+00
 -1      3429 6.72590E+01 3.55034E+01 0.00000E+00
 -1      3430 1.46944E+01 1.23503E+01 0.00000E+00
 -1      3431 1.43081E+01 1.33498E+01 0.00000E+00
 -1      3432 1.60125E+01 1.25001E+01 0.00000E+00
 -1      3433 2.04000E+01 3.57110E+01 0.00000E+00
 -1      3434 2.19000E+01 3.57110E+01 0.00000E+00
 -1      3435 2.34000E+01 3.57110E+01 0.00000E+00
 -1      3436 2.49000E+01 3.57110E+01 0.00000E+00
 -1      3437 2.26500E+01 3.44120E+01 0.00000E+00
 -1      3438 2.64000E+01 3.57110E+01 0.00000E+00
 -1      3439 2.79000E+01 3.57110E+01 0.00000E+00
 -1      3440 2.56500E+01 3.44120E+01 0.00000E+00
 -1      3441 2.94000E+01 3.57110E+01 0.00000E+00
 -1      3442 3.09000E+01 3.57110E+01 0.00000E+00
 -1      3443 2.86500E+01 3.44120E+01 0.00000E+00
 -1      3444 3.24000E+01 3.57110E+01 0.00000E+00
 -1      3445 3.39000E+01 3.57110E+01 0.00000E+00
 -1      3446 3.16500E+01 3.44120E+01 0.00000E+00
 -1      3447 3.54000E+01 3.57110E+01 0.00000E+00
 -1      3448 3.69000E+01 3.57110E+01 0.00000E+00
 -1      3449 3.46500E+01 3.44120E+01 0.00000E+00
 -1      3450 3.84000E+01 3.57110E+01 0.00000E+00
 -1      3451 3.99000E+01 3.57110E+01 0.00000E+00
 -1      3452 3.76500E+01 3.44120E+01 0.00000E+00
 -1      3453 4.14000E+01 3.57110E+01 0.00000E+00
 -1      3454 4.29000E+01 3.57110E+01 0.00000E+00
 -1      3455 4.06500E+01 3.44120E+01 0.00000E+00
 -1      3456 4.44000E+01 3.57110E+01 0.00000E+00
 -1      3457 4.59000E+01 3.57110E+01 0.00000E+00
 -1      3458 4.36500E+01 3.44120E+01 0.00000E+00
 -1      3459 4.74000E+01 3.57110E+01 0.00000E+00
 -1      3460 4.89000E+01 3.57110E+01 0.00000E+00
 -1      3461 4.66500E+01 3.44120E+01 0.00000E+00
 -1      3462 5.04000E+01 3.57110E+01 0.00000E+00
 -1      3463 5.19000E+01 3.57110E+01 0.00000E+00
 -1      3464 4.96500E+01 3.44120E+01 0.00000E+00
 -1      3465 5.34000E+01 3.57110E+01 0.00000E+00
 -1      3466 5.49000E+01 3.57110E+01 0.00000E+00
 -1      3467 5.26500E+01 3.44120E+01 0.00000E+00
 -1      3468 5.64000E+01 3.57110E+01 0.00000E+00
 -1      3469 5.79000E+01 3.57110E+01 0.00000E+00
 -1      3470 5.56500E+01 3.44120E+01 0.00000E+00
 -1      3471 5.94000E+01 3.57110E+01 0.00000E+00
 -1      3472 6.09000E+01 3.57110E+01 0.00000E+00
 -1      3473 5.86500E+01 3.44120E+01 0.00000E+00
 -1      3474 6.24000E+01 3.57110E+01 0.00000E+00
 -1      3475 6.39000E+01 3.57110E+01 0.00000E+00
 -1      3476 6.16500E+01 3.44120E+01 0.00000E+00
 -1      3477 6.57590E+01 3.55034E+01 0.00000E+00
 -1      3478 9.03893E+01 1.34633E+01 0.00000E+00
 -1      3479 8.14087E+01 3.72126E+01 0.00000E+00
 -1      3480 6.50090E+01 3.42044E+01 0.00000E+00
 -1      3481 6.38370E+01 3.30308E+01 0.00000E+00
 -1      3482 8.94000E+01 3.57560E+01 0.00000E+00
 -1      3483 9.09000E+01 3.57560E+01 0.00000E+00
 -1      3484 9.24000E+01 3.57560E+01 0.00000E+00
 -1      3485 9.39000E+01 3.57560E+01 0.00000E+00
 -1      3486 9.16500E+01 3.44570E+01 0.00000E+00
 -1      3487 9.54000E+01 3.57560E+01 0.00000E+00
 -1      3488 9.69000E+01 3.57560E+01 0.00000E+00
 -1      3489 9.46500E+01 3.44570E+01 0.00000E+00
 -1      3490 9.84000E+01 3.57560E+01 0.00000E+00
 -1      3491 9.99000E+01 3.57560E+01 0.00000E+00
 -1      3492 9.76500E+01 3.44570E+01 0.00000E+00
 -1      3493 1.01400E+02 3.57560E+01 0.00000E+00
 -1      3494 1.02900E+02 3.57560E+01 0.00000E+00
 -1      3495 1.00650E+02 3.44570E+01 0.00000E+00
 -1      3496 1.04400E+02 3.57560E+01 0.00000E+00
 -1      3497 1.05900E+02 3.57560E+01 0.00000E+00
 -1      3498 1.03650E+02 3.44570E+01 0.00000E+00
 -1      3499 1.07400E+02 3.57560E+01 0.00000E+00
 -1      3500 1.08900E+02 3.57560E+01 0.00000E+00
 -1      3501 1.06650E+02 3.44570E+01 0.00000E+00
 -1      3502 1.10400E+02 3.57560E+01 0.00000E+00
 -1      3503 1.11900E+02 3.57560E+01 0.00000E+00
 -1      3504 1.09650E+02 3.44570E+01 0.00000E+00
 -1      3505 1.13400E+02 3.57560E+01 0.00000E+00
 -1      3506 1.14900E+02 3.57560E+01 0.00000E+00
 -1      3507 1.12650E+02 3.44570E+01 0.00000E+00
 -1      3508 1.16400E+02 3.57560E+01 0.00000E+00
 -1      3509 1.17900E+02 3.57560E+01 0.00000E+00
 -1      3510 1.15650E+02 3.44570E+01 0.00000E+00
 -1      3511 1.19400E+02 3.57560E+01 0.00000E+00
 -1      3512 1.20900E+02 3.57560E+01 0.00000E+00
 -1      3513 1.18650E+02 3.44570E+01 0.00000E+00
 -1      3514 1.22400E+02 3.57560E+01 0.00000E+00
 -1      3515 1.23900E+02 3.57560E+01 0.00000E+00
 -1      3516 1.21650E+02 3.44570E+01 0.00000E+00
 -1      3517 1.25400E+02 3.57560E+01 0.00000E+00
 -1      3518 1.26900E+02 3.57560E+01 0.00000E+00
 -1      3519 1.24650E+02 3.44570E+01 0.00000E+00
 -1      3520 1.28400E+02 3.57560E+01 0.00000E+00
 -1      3521 1.29900E+02 3.57560E+01 0.00000E+00
 -1      3522 1.27650E+02 3.44570E+01 0.00000E+00
 -1      3523 1.31400E+02 3.57560E+01 0.00000E+00
 -1      3524 1.32900E+02 3.57560E+01 0.00000E+00
 -1      3525 1.30650E+02 3.44570E+01 0.00000E+00
 -1      3526 4.52850E+01 1.30992E+01 0.00000E+00
 -1      3527 4.37850E+01 1.30992E+01 0.00000E+00
 -1      3528 4.22850E+01 1.30992E+01 0.00000E+00
 -1      3529 4.07850E+01 1.30992E+01 0.00000E+00
 -1      3530 4.30350E+01 1.43982E+01 0.00000E+00
 -1      3531 5.12850E+01 1.30992E+01 0.00000E+00
 -1      3532 4.97850E+01 1.30992E+01 0.00000E+00
 -1      3533 5.42850E+01 1.30992E+01 0.00000E+00
 -1      3534 5.27850E+01 1.30992E+01 0.00000E+00
 -1      3535 5.20350E+01 1.43982E+01 0.00000E+00
 -1      3536 5.72850E+01 1.30992E+01 0.00000E+00
 -1      3537 5.57850E+01 1.30992E+01 0.00000E+00
 -1      3538 5.50350E+01 1.43982E+01 0.00000E+00
 -1      3539 6.02850E+01 1.30992E+01 0.00000E+00
 -1      3540 5.87850E+01 1.30992E+01 0.00000E+00
 -1      3541 5.80350E+01 1.43982E+01 0.00000E+00
 -1      3542 8.65350E+01 1.17777E+01 0.00000E+00
 -1      3543 9.62850E+01 1.30992E+01 0.00000E+00
 -1      3544 9.47850E+01 1.30992E+01 0.00000E+00
 -1      3545 1.05285E+02 1.30992E+01 0.00000E+00
 -1      3546 1.03785E+02 1.30992E+01 0.00000E+00
 -1      3547 1.08285E+02 1.30992E+01 0.00000E+00
 -1      3548 1.06785E+02 1.30992E+01 0.00000E+00
 -1      3549 1.06035E+02 1.43982E+01 0.00000E+00
 -1      3550 1.11285E+02 1.30992E+01 0.00000E+00
 -1      3551 1.09785E+02 1.30992E+01 0.00000E+00
 -1      3552 1.09035E+02 1.43982E+01 0.00000E+00
 -1      3553 1.14285E+02 1.30992E+01 0.00000E+00
 -1      3554 1.12785E+02 1.30992E+01 0.00000E+00
 -1      3555 1.12035E+02 1.43982E+01 0.00000E+00
 -1      3556 1.17285E+02 1.30992E+01 0.00000E+00
 -1      3557 1.15785E+02 1.30992E+01 0.00000E+00
 -1      3558 1.15035E+02 1.43982E+01 0.00000E+00
 -1      3559 1.20285E+02 1.30992E+01 0.00000E+00
 -1      3560 1.18785E+02 1.30992E+01 0.00000E+00
 -1      3561 1.18035E+02 1.43982E+01 0.00000E+00
 -1      3562 1.23285E+02 1.30992E+01 0.00000E+00
 -1      3563 1.21785E+02 1.30992E+01 0.00000E+00
 -1      3564 1.21035E+02 1.43982E+01 0.00000E+00
 -1      3565 1.26285E+02 1.30992E+01 0.00000E+00
 -1      3566 1.24785E+02 1.30992E+01 0.00000E+00
 -1      3567 1.24035E+02 1.43982E+01 0.00000E+00
 -1      3568 1.29285E+02 1.30992E+01 0.00000E+00
 -1      3569 1.27785E+02 1.30992E+01 0.00000E+00
 -1      3570 1.27035E+02 1.43982E+01 0.00000E+00
 -1      3571 1.32285E+02 1.30992E+01 0.00000E+00
 -1      3572 1.30785E+02 1.30992E+01 0.00000E+00
 -1      3573 1.30035E+02 1.43982E+01 0.00000E+00
 -1      3574 1.35285E+02 1.30992E+01 0.00000E+00
 -1      3575 1.33785E+02 1.30992E+01 0.00000E+00
 -1      3576 1.33035E+02 1.43982E+01 0.00000E+00
 -1      3577 1.35711E+02 2.72125E+01 0.00000E+00
 -1      3578 1.35711E+02 2.57375E+01 0.00000E+00
 -1      3579 1.38528E+02 1.44149E+01 0.00000E+00
 -1      3580 1.38594E+02 1.31746E+01 0.00000E+00
 -1      3581 1.37668E+02 1.30636E+01 0.00000E+00
 -1      3582 1.37229E+02 1.51462E+01 0.00000E+00
 -1      3583 1.28355E+01 3.36356E+01 0.00000E+00
 -1      3584 1.28355E+01 3.51044E+01 0.00000E+00
 -1      3585 1.36500E+01 3.55412E+01 0.00000E+00
 -1      3586 1.35711E+02 3.01625E+01 0.00000E+00
 -1      3587 1.35711E+02 2.86875E+01 0.00000E+00
 -1      3588 1.34412E+02 2.79500E+01 0.00000E+00
 -1      3589 9.22118E+01 1.83648E+01 0.00000E+00
 -1      3590 9.25195E+01 1.97239E+01 0.00000E+00
 -1      3591 1.51500E+01 3.55412E+01 0.00000E+00
 -1      3592 8.41641E+01 1.17010E+01 0.00000E+00
 -1      3593 8.52854E+01 1.23903E+01 0.00000E+00
 -1      3594 9.13713E+01 2.86472E+01 0.00000E+00
 -1      3595 9.06576E+01 3.00666E+01 0.00000E+00
 -1      3596 6.45426E+01 1.47779E+01 0.00000E+00
 -1      3597 6.35719E+01 1.31759E+01 0.00000E+00
 -1      3598 1.02285E+02 1.30992E+01 0.00000E+00
 -1      3599 1.00785E+02 1.30992E+01 0.00000E+00
 -1      3600 1.03035E+02 1.43982E+01 0.00000E+00
 -1      3601 9.92850E+01 1.30992E+01 0.00000E+00
 -1      3602 9.77850E+01 1.30992E+01 0.00000E+00
 -1      3603 1.00035E+02 1.43982E+01 0.00000E+00
 -1      3604 4.82850E+01 1.30992E+01 0.00000E+00
 -1      3605 4.67850E+01 1.30992E+01 0.00000E+00
 -1      3606 4.60350E+01 1.43982E+01 0.00000E+00
 -1      3607 4.90350E+01 1.43982E+01 0.00000E+00
 -1      3608 9.33372E+01 1.32813E+01 0.00000E+00
 -1      3609 9.18372E+01 1.32813E+01 0.00000E+00
 -1      3610 9.11915E+01 1.49443E+01 0.00000E+00
 -1      3611 9.40872E+01 1.45803E+01 0.00000E+00
 -1      3612 8.34141E+01 1.04245E+01 0.00000E+00
 -1      3613 6.20719E+01 1.31759E+01 0.00000E+00
 -1      3614 8.23857E+01 9.87532E+00 0.00000E+00
 -1      3615 1.74000E+01 3.57110E+01 0.00000E+00
 -1      3616 1.89000E+01 3.57110E+01 0.00000E+00
 -1      3617 1.96500E+01 3.44120E+01 0.00000E+00
 -1      3618 3.32850E+01 1.30992E+01 0.00000E+00
 -1      3619 3.17850E+01 1.30992E+01 0.00000E+00
 -1      3620 9.19437E+01 2.52981E+01 0.00000E+00
 -1      3621 9.17626E+01 2.68006E+01 0.00000E+00
 -1      3622 6.38108E+01 1.51988E+01 0.00000E+00
 -1      3623 8.55277E+01 3.59397E+01 0.00000E+00
 -1      3624 7.41741E+01 3.65290E+01 0.00000E+00
 -1      3625 7.32316E+01 3.71519E+01 0.00000E+00
 -1      3626 1.35711E+02 3.31125E+01 0.00000E+00
 -1      3627 1.35711E+02 3.16375E+01 0.00000E+00
 -1      3628 1.34412E+02 3.09000E+01 0.00000E+00
 -1      3629 6.29994E+01 1.69046E+01 0.00000E+00
 -1      3630 6.34051E+01 1.60517E+01 0.00000E+00
 -1      3631 6.27031E+01 1.54044E+01 0.00000E+00
 -1      3632 9.17670E+01 1.63554E+01 0.00000E+00
 -1      3633 8.70277E+01 3.59397E+01 0.00000E+00
 -1      3634 1.14487E+01 2.70341E+01 0.00000E+00
 -1      3635 1.14487E+01 2.85028E+01 0.00000E+00
 -1      3636 1.22633E+01 2.89397E+01 0.00000E+00
 -1      3637 1.27478E+01 2.62966E+01 0.00000E+00
 -1      3638 8.97300E+01 3.23676E+01 0.00000E+00
 -1      3639 8.89790E+01 3.36870E+01 0.00000E+00
 -1      3640 6.13219E+01 1.44749E+01 0.00000E+00
 -1      3641 8.82290E+01 3.49860E+01 0.00000E+00
 -1      3642 1.43081E+01 1.48185E+01 0.00000E+00
 -1      3643 9.36556E+01 2.33209E+01 0.00000E+00
 -1      3644 9.27997E+01 2.43095E+01 0.00000E+00
 -1      3645 9.36437E+01 2.51734E+01 0.00000E+00
 -1      3646 3.10350E+01 1.43982E+01 0.00000E+00
 -1      3647 3.02850E+01 1.30992E+01 0.00000E+00
 -1      3648 2.87850E+01 1.30992E+01 0.00000E+00
 -1      3649 7.24816E+01 3.81771E+01 0.00000E+00
 -1      3650 2.65350E+01 1.18003E+01 0.00000E+00
 -1      3651 1.34022E+02 3.60298E+01 0.00000E+00
 -1      3652 1.35329E+02 3.61296E+01 0.00000E+00
 -1      3653 1.35515E+02 3.52785E+01 0.00000E+00
 -1      3654 1.33272E+02 3.47308E+01 0.00000E+00
 -1      3655 2.12850E+01 1.30992E+01 0.00000E+00
 -1      3656 1.97850E+01 1.30992E+01 0.00000E+00
 -1      3657 4.00350E+01 1.43982E+01 0.00000E+00
 -1      3658 3.92850E+01 1.30992E+01 0.00000E+00
 -1      3659 3.77850E+01 1.30992E+01 0.00000E+00
 -1      3660 1.29900E+01 1.76125E+01 0.00000E+00
 -1      3661 1.28355E+01 3.06981E+01 0.00000E+00
 -1      3662 1.28355E+01 3.21669E+01 0.00000E+00
 -1      3663 1.36500E+01 3.26037E+01 0.00000E+00
 -1      3664 9.70350E+01 1.43982E+01 0.00000E+00
 -1      3665 3.62850E+01 1.30992E+01 0.00000E+00
 -1      3666 3.47850E+01 1.30992E+01 0.00000E+00
 -1      3667 3.40350E+01 1.43982E+01 0.00000E+00
 -1      3668 3.70350E+01 1.43982E+01 0.00000E+00
 -1      3669 1.42890E+01 1.98219E+01 0.00000E+00
 -1      3670 1.42890E+01 2.12906E+01 0.00000E+00
 -1      3671 1.34412E+02 2.50094E+01 0.00000E+00
 -1      3672 1.35711E+02 2.42719E+01 0.00000E+00
 -1      3673 1.35711E+02 2.28062E+01 0.00000E+00
 -1      3674 9.41797E+01 1.96760E+01 0.00000E+00
 -1      3675 9.31702E+01 2.06189E+01 0.00000E+00
 -1      3676 9.38210E+01 2.15140E+01 0.00000E+00
 -1      3677 1.36742E+02 1.29526E+01 0.00000E+00
 -1      3678 6.13880E+01 2.75511E+01 0.00000E+00
 -1      3679 6.05019E+01 2.69722E+01 0.00000E+00
 -1      3680 1.35992E+02 1.42516E+01 0.00000E+00
 -1      3681 6.02638E+01 2.48825E+01 0.00000E+00
 -1      3682 6.09418E+01 2.38146E+01 0.00000E+00
 -1      3683 6.04943E+01 2.30128E+01 0.00000E+00
 -1      3684 9.23964E+01 2.80085E+01 0.00000E+00
 -1      3685 9.30303E+01 2.92164E+01 0.00000E+00
 -1      3686 9.34216E+01 2.73699E+01 0.00000E+00
 -1      3687 6.30732E+01 3.15562E+01 0.00000E+00
 -1      3688 6.25630E+01 3.03543E+01 0.00000E+00
 -1      3689 1.42890E+01 2.27656E+01 0.00000E+00
 -1      3690 1.42890E+01 2.42406E+01 0.00000E+00
 -1      3691 1.55880E+01 2.20313E+01 0.00000E+00
 -1      3692 6.14852E+01 2.02863E+01 0.00000E+00
 -1      3693 6.09710E+01 1.92881E+01 0.00000E+00
 -1      3694 6.06581E+01 2.09467E+01 0.00000E+00
 -1      3695 2.42850E+01 1.30992E+01 0.00000E+00
 -1      3696 2.27850E+01 1.30992E+01 0.00000E+00
 -1      3697 2.20350E+01 1.43982E+01 0.00000E+00
 -1      3698 9.30841E+01 1.67716E+01 0.00000E+00
 -1      3699 1.59000E+01 3.42422E+01 0.00000E+00
 -1      3700 9.10776E+01 3.21560E+01 0.00000E+00
 -1      3701 1.35773E+02 1.52929E+01 0.00000E+00
 -1      3702 6.23862E+01 3.29374E+01 0.00000E+00
 -1      3703 1.35630E+02 1.67929E+01 0.00000E+00
 -1      3704 1.34393E+02 1.58983E+01 0.00000E+00
 -1      3705 1.35630E+02 1.82679E+01 0.00000E+00
 -1      3706 6.20478E+01 1.74425E+01 0.00000E+00
 -1      3707 6.09162E+01 1.53278E+01 0.00000E+00
 -1      3708 1.35702E+02 3.44273E+01 0.00000E+00
 -1      3709 6.18981E+01 2.87530E+01 0.00000E+00
 -1      3710 1.34403E+02 3.36898E+01 0.00000E+00
 -1      3711 2.49000E+01 3.31130E+01 0.00000E+00
 -1      3712 2.64000E+01 3.31130E+01 0.00000E+00
 -1      3713 2.79000E+01 3.31130E+01 0.00000E+00
 -1      3714 2.94000E+01 3.31130E+01 0.00000E+00
 -1      3715 2.71500E+01 3.18140E+01 0.00000E+00
 -1      3716 3.09000E+01 3.31130E+01 0.00000E+00
 -1      3717 3.24000E+01 3.31130E+01 0.00000E+00
 -1      3718 3.01500E+01 3.18140E+01 0.00000E+00
 -1      3719 3.39000E+01 3.31130E+01 0.00000E+00
 -1      3720 3.54000E+01 3.31130E+01 0.00000E+00
 -1      3721 3.31500E+01 3.18140E+01 0.00000E+00
 -1      3722 3.69000E+01 3.31130E+01 0.00000E+00
 -1      3723 3.84000E+01 3.31130E+01 0.00000E+00
 -1      3724 3.61500E+01 3.18140E+01 0.00000E+00
 -1      3725 3.99000E+01 3.31130E+01 0.00000E+00
 -1      3726 4.14000E+01 3.31130E+01 0.00000E+00
 -1      3727 3.91500E+01 3.18140E+01 0.00000E+00
 -1      3728 4.29000E+01 3.31130E+01 0.00000E+00
 -1      3729 4.44000E+01 3.31130E+01 0.00000E+00
 -1      3730 4.21500E+01 3.18140E+01 0.00000E+00
 -1      3731 4.59000E+01 3.31130E+01 0.00000E+00
 -1      3732 4.74000E+01 3.31130E+01 0.00000E+00
 -1      3733 4.51500E+01 3.18140E+01 0.00000E+00
 -1      3734 4.89000E+01 3.31130E+01 0.00000E+00
 -1      3735 5.04000E+01 3.31130E+01 0.00000E+00
 -1      3736 4.81500E+01 3.18140E+01 0.00000E+00
 -1      3737 5.19000E+01 3.31130E+01 0.00000E+00
 -1      3738 5.34000E+01 3.31130E+01 0.00000E+00
 -1      3739 5.11500E+01 3.18140E+01 0.00000E+00
 -1      3740 5.49000E+01 3.31130E+01 0.00000E+00
 -1      3741 5.64000E+01 3.31130E+01 0.00000E+00
 -1      3742 5.41500E+01 3.18140E+01 0.00000E+00
 -1      3743 5.79000E+01 3.31130E+01 0.00000E+00
 -1      3744 5.94000E+01 3.31130E+01 0.00000E+00
 -1      3745 5.71500E+01 3.18140E+01 0.00000E+00
 -1      3746 6.08862E+01 3.29374E+01 0.00000E+00
 -1      3747 4.37850E+01 1.56973E+01 0.00000E+00
 -1      3748 4.22850E+01 1.56973E+01 0.00000E+00
 -1      3749 9.25776E+01 3.21560E+01 0.00000E+00
 -1      3750 1.58860E+01 1.50773E+01 0.00000E+00
 -1      3751 1.45679E+01 1.63963E+01 0.00000E+00
 -1      3752 1.33281E+02 3.34160E+01 0.00000E+00
 -1      3753 9.69000E+01 3.31580E+01 0.00000E+00
 -1      3754 9.84000E+01 3.31580E+01 0.00000E+00
 -1      3755 9.99000E+01 3.31580E+01 0.00000E+00
 -1      3756 1.01400E+02 3.31580E+01 0.00000E+00
 -1      3757 9.91500E+01 3.18590E+01 0.00000E+00
 -1      3758 1.02900E+02 3.31580E+01 0.00000E+00
 -1      3759 1.04400E+02 3.31580E+01 0.00000E+00
 -1      3760 1.02150E+02 3.18590E+01 0.00000E+00
 -1      3761 1.05900E+02 3.31580E+01 0.00000E+00
 -1      3762 1.07400E+02 3.31580E+01 0.00000E+00
 -1      3763 1.05150E+02 3.18590E+01 0.00000E+00
 -1      3764 1.08900E+02 3.31580E+01 0.00000E+00
 -1      3765 1.10400E+02 3.31580E+01 0.00000E+00
 -1      3766 1.08150E+02 3.18590E+01 0.00000E+00
 -1      3767 1.11900E+02 3.31580E+01 0.00000E+00
 -1      3768 1.13400E+02 3.31580E+01 0.00000E+00
 -1      3769 1.11150E+02 3.18590E+01 0.00000E+00
 -1      3770 1.14900E+02 3.31580E+01 0.00000E+00
 -1      3771 1.16400E+02 3.31580E+01 0.00000E+00
 -1      3772 1.14150E+02 3.18590E+01 0.00000E+00
 -1      3773 1.17900E+02 3.31580E+01 0.00000E+00
 -1      3774 1.19400E+02 3.31580E+01 0.00000E+00
 -1      3775 1.17150E+02 3.18590E+01 0.00000E+00
 -1      3776 1.20900E+02 3.31580E+01 0.00000E+00
 -1      3777 1.22400E+02 3.31580E+01 0.00000E+00
 -1      3778 1.20150E+02 3.18590E+01 0.00000E+00
 -1      3779 1.23900E+02 3.31580E+01 0.00000E+00
 -1      3780 1.25400E+02 3.31580E+01 0.00000E+00
 -1      3781 1.23150E+02 3.18590E+01 0.00000E+00
 -1      3782 1.26900E+02 3.31580E+01 0.00000E+00
 -1      3783 1.28400E+02 3.31580E+01 0.00000E+00
 -1      3784 1.26150E+02 3.18590E+01 0.00000E+00
 -1      3785 1.29900E+02 3.31580E+01 0.00000E+00
 -1      3786 1.31400E+02 3.31580E+01 0.00000E+00
 -1      3787 1.29150E+02 3.18590E+01 0.00000E+00
 -1      3788 9.45320E+01 1.65896E+01 0.00000E+00
 -1      3789 2.19000E+01 3.31130E+01 0.00000E+00
 -1      3790 2.34000E+01 3.31130E+01 0.00000E+00
 -1      3791 2.41500E+01 3.18140E+01 0.00000E+00
 -1      3792 5.57850E+01 1.56973E+01 0.00000E+00
 -1      3793 5.42850E+01 1.56973E+01 0.00000E+00
 -1      3794 5.27850E+01 1.56973E+01 0.00000E+00
 -1      3795 5.12850E+01 1.56973E+01 0.00000E+00
 -1      3796 5.35350E+01 1.69963E+01 0.00000E+00
 -1      3797 1.09785E+02 1.56973E+01 0.00000E+00
 -1      3798 1.08285E+02 1.56973E+01 0.00000E+00
 -1      3799 1.06785E+02 1.56973E+01 0.00000E+00
 -1      3800 1.05285E+02 1.56973E+01 0.00000E+00
 -1      3801 1.07535E+02 1.69963E+01 0.00000E+00
 -1      3802 1.15785E+02 1.56973E+01 0.00000E+00
 -1      3803 1.14285E+02 1.56973E+01 0.00000E+00
 -1      3804 1.18785E+02 1.56973E+01 0.00000E+00
 -1      3805 1.17285E+02 1.56973E+01 0.00000E+00
 -1      3806 1.16535E+02 1.69963E+01 0.00000E+00
 -1      3807 1.21785E+02 1.56973E+01 0.00000E+00
 -1      3808 1.20285E+02 1.56973E+01 0.00000E+00
 -1      3809 1.19535E+02 1.69963E+01 0.00000E+00
 -1      3810 1.24785E+02 1.56973E+01 0.00000E+00
 -1      3811 1.23285E+02 1.56973E+01 0.00000E+00
 -1      3812 1.22535E+02 1.69963E+01 0.00000E+00
 -1      3813 1.27785E+02 1.56973E+01 0.00000E+00
 -1      3814 1.26285E+02 1.56973E+01 0.00000E+00
 -1      3815 1.25535E+02 1.69963E+01 0.00000E+00
 -1      3816 1.30785E+02 1.56973E+01 0.00000E+00
 -1      3817 1.29285E+02 1.56973E+01 0.00000E+00
 -1      3818 1.28535E+02 1.69963E+01 0.00000E+00
 -1      3819 1.32893E+02 1.58983E+01 0.00000E+00
 -1      3820 9.62146E+01 1.60346E+01 0.00000E+00
 -1      3821 9.52116E+01 1.82259E+01 0.00000E+00
 -1      3822 5.91373E+01 2.74113E+01 0.00000E+00
 -1      3823 5.93467E+01 2.61234E+01 0.00000E+00
 -1      3824 1.03785E+02 1.56973E+01 0.00000E+00
 -1      3825 1.02285E+02 1.56973E+01 0.00000E+00
 -1      3826 1.04535E+02 1.69963E+01 0.00000E+00
 -1      3827 1.35711E+02 2.13406E+01 0.00000E+00
 -1      3828 1.35711E+02 1.98750E+01 0.00000E+00
 -1      3829 1.34412E+02 2.20781E+01 0.00000E+00
 -1      3830 1.00785E+02 1.56973E+01 0.00000E+00
 -1      3831 9.92850E+01 1.56973E+01 0.00000E+00
 -1      3832 1.01535E+02 1.69963E+01 0.00000E+00
 -1      3833 1.45679E+01 1.78713E+01 0.00000E+00
 -1      3834 1.58669E+01 1.86056E+01 0.00000E+00
 -1      3835 6.09575E+01 2.98615E+01 0.00000E+00
 -1      3836 1.59000E+01 3.27735E+01 0.00000E+00
 -1      3837 1.81500E+01 3.29432E+01 0.00000E+00
 -1      3838 1.59000E+01 3.13048E+01 0.00000E+00
 -1      3839 6.01362E+01 3.16384E+01 0.00000E+00
 -1      3840 6.08188E+01 1.79005E+01 0.00000E+00
 -1      3841 6.10684E+01 1.67153E+01 0.00000E+00
 -1      3842 5.96872E+01 1.57858E+01 0.00000E+00
 -1      3843 5.99916E+01 1.85609E+01 0.00000E+00
 -1      3844 1.34331E+02 1.90054E+01 0.00000E+00
 -1      3845 1.12785E+02 1.56973E+01 0.00000E+00
 -1      3846 1.11285E+02 1.56973E+01 0.00000E+00
 -1      3847 1.10535E+02 1.69963E+01 0.00000E+00
 -1      3848 1.33113E+02 3.16375E+01 0.00000E+00
 -1      3849 1.33113E+02 3.01625E+01 0.00000E+00
 -1      3850 1.85578E+01 1.28746E+01 0.00000E+00
 -1      3851 1.72397E+01 1.27248E+01 0.00000E+00
 -1      3852 1.68534E+01 1.37242E+01 0.00000E+00
 -1      3853 1.93078E+01 1.41736E+01 0.00000E+00
 -1      3854 2.72850E+01 1.30992E+01 0.00000E+00
 -1      3855 2.57850E+01 1.30992E+01 0.00000E+00
 -1      3856 2.80350E+01 1.43982E+01 0.00000E+00
 -1      3857 5.84861E+01 1.57415E+01 0.00000E+00
 -1      3858 5.69861E+01 1.57415E+01 0.00000E+00
 -1      3859 5.62361E+01 1.70405E+01 0.00000E+00
 -1      3860 5.86383E+01 1.71291E+01 0.00000E+00
 -1      3861 1.92750E+01 3.30281E+01 0.00000E+00
 -1      3862 2.07750E+01 3.30281E+01 0.00000E+00
 -1      3863 2.15250E+01 3.17291E+01 0.00000E+00
 -1      3864 1.92750E+01 3.15594E+01 0.00000E+00
 -1      3865 1.33113E+02 2.86875E+01 0.00000E+00
 -1      3866 1.33113E+02 2.72125E+01 0.00000E+00
 -1      3867 1.31814E+02 2.94250E+01 0.00000E+00
 -1      3868 9.35539E+01 3.06862E+01 0.00000E+00
 -1      3869 9.41264E+01 3.29872E+01 0.00000E+00
 -1      3870 9.56264E+01 3.29872E+01 0.00000E+00
 -1      3871 9.45791E+01 3.00476E+01 0.00000E+00
 -1      3872 1.32143E+02 1.71973E+01 0.00000E+00
 -1      3873 5.94713E+01 3.00370E+01 0.00000E+00
 -1      3874 9.46650E+01 2.23780E+01 0.00000E+00
 -1      3875 3.17850E+01 1.56973E+01 0.00000E+00
 -1      3876 3.02850E+01 1.56973E+01 0.00000E+00
 -1      3877 4.07850E+01 1.56973E+01 0.00000E+00
 -1      3878 3.92850E+01 1.56973E+01 0.00000E+00
 -1      3879 4.15350E+01 1.69963E+01 0.00000E+00
 -1      3880 4.52850E+01 1.56973E+01 0.00000E+00
 -1      3881 4.45350E+01 1.69963E+01 0.00000E+00
 -1      3882 4.67850E+01 1.56973E+01 0.00000E+00
 -1      3883 1.71132E+01 1.53020E+01 0.00000E+00
 -1      3884 1.31982E+02 3.26785E+01 0.00000E+00
 -1      3885 2.50350E+01 1.43982E+01 0.00000E+00
 -1      3886 9.63764E+01 3.16882E+01 0.00000E+00
 -1      3887 1.33200E+01 2.80550E+01 0.00000E+00
 -1      3888 1.30778E+01 2.93766E+01 0.00000E+00
 -1      3889 1.38923E+01 2.98134E+01 0.00000E+00
 -1      3890 9.77146E+01 1.60346E+01 0.00000E+00
 -1      3891 1.33113E+02 2.57469E+01 0.00000E+00
 -1      3892 1.33113E+02 2.42813E+01 0.00000E+00
 -1      3893 1.31814E+02 2.64844E+01 0.00000E+00
 -1      3894 9.84646E+01 1.73336E+01 0.00000E+00
 -1      3895 3.47850E+01 1.56973E+01 0.00000E+00
 -1      3896 3.32850E+01 1.56973E+01 0.00000E+00
 -1      3897 3.25350E+01 1.69963E+01 0.00000E+00
 -1      3898 5.77330E+01 3.05011E+01 0.00000E+00
 -1      3899 5.85543E+01 2.87242E+01 0.00000E+00
 -1      3900 5.73990E+01 2.78754E+01 0.00000E+00
 -1      3901 5.62330E+01 3.05011E+01 0.00000E+00
 -1      3902 9.58623E+01 1.91210E+01 0.00000E+00
 -1      3903 5.93020E+01 2.30825E+01 0.00000E+00
 -1      3904 5.99800E+01 2.20146E+01 0.00000E+00
 -1      3905 5.94658E+01 2.10163E+01 0.00000E+00
 -1      3906 1.68870E+01 2.12938E+01 0.00000E+00
 -1      3907 1.68870E+01 2.27687E+01 0.00000E+00
 -1      3908 5.88991E+01 2.53216E+01 0.00000E+00
 -1      3909 9.42775E+01 2.63813E+01 0.00000E+00
 -1      3910 9.49114E+01 2.75892E+01 0.00000E+00
 -1      3911 9.51335E+01 2.53927E+01 0.00000E+00
 -1      3912 1.55778E+01 2.50042E+01 0.00000E+00
 -1      3913 1.42788E+01 2.57386E+01 0.00000E+00
 -1      3914 1.32223E+02 1.88044E+01 0.00000E+00
 -1      3915 1.30116E+02 1.86033E+01 0.00000E+00
 -1      3916 1.32304E+02 2.04115E+01 0.00000E+00
 -1      3917 2.27850E+01 1.56973E+01 0.00000E+00
 -1      3918 2.12850E+01 1.56973E+01 0.00000E+00
 -1      3919 4.97850E+01 1.56973E+01 0.00000E+00
 -1      3920 4.82850E+01 1.56973E+01 0.00000E+00
 -1      3921 4.75350E+01 1.69963E+01 0.00000E+00
 -1      3922 1.71395E+01 1.73225E+01 0.00000E+00
 -1      3923 1.68607E+01 1.92732E+01 0.00000E+00
 -1      3924 1.81597E+01 2.00107E+01 0.00000E+00
 -1      3925 1.81070E+01 1.59695E+01 0.00000E+00
 -1      3926 1.40365E+01 2.70602E+01 0.00000E+00
 -1      3927 1.13535E+02 1.69963E+01 0.00000E+00
 -1      3928 1.93342E+01 1.61942E+01 0.00000E+00
 -1      3929 2.00842E+01 1.74932E+01 0.00000E+00
 -1      3930 5.05350E+01 1.69963E+01 0.00000E+00
 -1      3931 2.87850E+01 1.56973E+01 0.00000E+00
 -1      3932 2.72850E+01 1.56973E+01 0.00000E+00
 -1      3933 2.95350E+01 1.69963E+01 0.00000E+00
 -1      3934 2.01105E+01 1.95138E+01 0.00000E+00
 -1      3935 2.01368E+01 2.15343E+01 0.00000E+00
 -1      3936 2.20613E+01 1.90168E+01 0.00000E+00
 -1      3937 2.94000E+01 3.05150E+01 0.00000E+00
 -1      3938 3.09000E+01 3.05150E+01 0.00000E+00
 -1      3939 3.24000E+01 3.05150E+01 0.00000E+00
 -1      3940 3.39000E+01 3.05150E+01 0.00000E+00
 -1      3941 3.16500E+01 2.92160E+01 0.00000E+00
 -1      3942 3.54000E+01 3.05150E+01 0.00000E+00
 -1      3943 3.69000E+01 3.05150E+01 0.00000E+00
 -1      3944 3.46500E+01 2.92160E+01 0.00000E+00
 -1      3945 3.84000E+01 3.05150E+01 0.00000E+00
 -1      3946 3.99000E+01 3.05150E+01 0.00000E+00
 -1      3947 3.76500E+01 2.92160E+01 0.00000E+00
 -1      3948 4.14000E+01 3.05150E+01 0.00000E+00
 -1      3949 4.29000E+01 3.05150E+01 0.00000E+00
 -1      3950 4.06500E+01 2.92160E+01 0.00000E+00
 -1      3951 4.44000E+01 3.05150E+01 0.00000E+00
 -1      3952 4.59000E+01 3.05150E+01 0.00000E+00
 -1      3953 4.36500E+01 2.92160E+01 0.00000E+00
 -1      3954 4.74000E+01 3.05150E+01 0.00000E+00
 -1      3955 4.89000E+01 3.05150E+01 0.00000E+00
 -1      3956 4.66500E+01 2.92160E+01 0.00000E+00
 -1      3957 5.04000E+01 3.05150E+01 0.00000E+00
 -1      3958 5.19000E+01 3.05150E+01 0.00000E+00
 -1      3959 4.96500E+01 2.92160E+01 0.00000E+00
 -1      3960 5.33165E+01 3.05081E+01 0.00000E+00
 -1      3961 5.48165E+01 3.05081E+01 0.00000E+00
 -1      3962 5.53995E+01 2.91952E+01 0.00000E+00
 -1      3963 5.25665E+01 2.92091E+01 0.00000E+00
 -1      3964 9.74367E+01 1.91491E+01 0.00000E+00
 -1      3965 9.64047E+01 2.05992E+01 0.00000E+00
 -1      3966 9.84000E+01 3.05600E+01 0.00000E+00
 -1      3967 9.99000E+01 3.05600E+01 0.00000E+00
 -1      3968 1.01400E+02 3.05600E+01 0.00000E+00
 -1      3969 1.02900E+02 3.05600E+01 0.00000E+00
 -1      3970 1.00650E+02 2.92610E+01 0.00000E+00
 -1      3971 1.04400E+02 3.05600E+01 0.00000E+00
 -1      3972 1.05900E+02 3.05600E+01 0.00000E+00
 -1      3973 1.03650E+02 2.92610E+01 0.00000E+00
 -1      3974 1.07400E+02 3.05600E+01 0.00000E+00
 -1      3975 1.08900E+02 3.05600E+01 0.00000E+00
 -1      3976 1.06650E+02 2.92610E+01 0.00000E+00
 -1      3977 1.10400E+02 3.05600E+01 0.00000E+00
 -1      3978 1.11900E+02 3.05600E+01 0.00000E+00
 -1      3979 1.09650E+02 2.92610E+01 0.00000E+00
 -1      3980 1.13400E+02 3.05600E+01 0.00000E+00
 -1      3981 1.14900E+02 3.05600E+01 0.00000E+00
 -1      3982 1.12650E+02 2.92610E+01 0.00000E+00
 -1      3983 1.16400E+02 3.05600E+01 0.00000E+00
 -1      3984 1.17900E+02 3.05600E+01 0.00000E+00
 -1      3985 1.15650E+02 2.92610E+01 0.00000E+00
 -1      3986 1.19400E+02 3.05600E+01 0.00000E+00
 -1      3987 1.20900E+02 3.05600E+01 0.00000E+00
 -1      3988 1.18650E+02 2.92610E+01 0.00000E+00
 -1      3989 1.22400E+02 3.05600E+01 0.00000E+00
 -1      3990 1.23900E+02 3.05600E+01 0.00000E+00
 -1      3991 1.21650E+02 2.92610E+01 0.00000E+00
 -1      3992 1.25400E+02 3.05600E+01 0.00000E+00
 -1      3993 1.26900E+02 3.05600E+01 0.00000E+00
 -1      3994 1.24650E+02 2.92610E+01 0.00000E+00
 -1      3995 5.42850E+01 1.82952E+01 0.00000E+00
 -1      3996 5.27850E+01 1.82952E+01 0.00000E+00
 -1      3997 1.05285E+02 1.82952E+01 0.00000E+00
 -1      3998 1.03785E+02 1.82952E+01 0.00000E+00
 -1      3999 1.08285E+02 1.82952E+01 0.00000E+00
 -1      4000 1.06785E+02 1.82952E+01 0.00000E+00
 -1      4001 1.06035E+02 1.95942E+01 0.00000E+00
 -1      4002 1.23285E+02 1.82952E+01 0.00000E+00
 -1      4003 1.21785E+02 1.82952E+01 0.00000E+00
 -1      4004 3.77850E+01 1.56973E+01 0.00000E+00
 -1      4005 3.62850E+01 1.56973E+01 0.00000E+00
 -1      4006 3.55350E+01 1.69963E+01 0.00000E+00
 -1      4007 3.85350E+01 1.69963E+01 0.00000E+00
 -1      4008 1.20285E+02 1.82952E+01 0.00000E+00
 -1      4009 1.18785E+02 1.82952E+01 0.00000E+00
 -1      4010 1.21035E+02 1.95942E+01 0.00000E+00
 -1      4011 1.17285E+02 1.82952E+01 0.00000E+00
 -1      4012 1.15785E+02 1.82952E+01 0.00000E+00
 -1      4013 1.18035E+02 1.95942E+01 0.00000E+00
 -1      4014 1.26285E+02 1.82952E+01 0.00000E+00
 -1      4015 1.24785E+02 1.82952E+01 0.00000E+00
 -1      4016 1.24035E+02 1.95942E+01 0.00000E+00
 -1      4017 1.28950E+02 1.84493E+01 0.00000E+00
 -1      4018 1.27450E+02 1.84493E+01 0.00000E+00
 -1      4019 1.26700E+02 1.97483E+01 0.00000E+00
 -1      4020 1.29031E+02 2.00564E+01 0.00000E+00
 -1      4021 5.74678E+01 2.55643E+01 0.00000E+00
 -1      4022 5.83849E+01 2.43234E+01 0.00000E+00
 -1      4023 5.78707E+01 2.33251E+01 0.00000E+00
 -1      4024 1.68768E+01 2.42667E+01 0.00000E+00
 -1      4025 1.68666E+01 2.57647E+01 0.00000E+00
 -1      4026 1.81758E+01 2.35292E+01 0.00000E+00
 -1      4027 1.32709E+02 2.30792E+01 0.00000E+00
 -1      4028 1.32709E+02 2.16135E+01 0.00000E+00
 -1      4029 1.30601E+02 2.14125E+01 0.00000E+00
 -1      4030 1.31410E+02 2.38167E+01 0.00000E+00
 -1      4031 1.02285E+02 1.82952E+01 0.00000E+00
 -1      4032 1.00785E+02 1.82952E+01 0.00000E+00
 -1      4033 1.03035E+02 1.95942E+01 0.00000E+00
 -1      4034 9.58527E+01 3.02184E+01 0.00000E+00
 -1      4035 9.71264E+01 3.03892E+01 0.00000E+00
 -1      4036 9.78764E+01 2.90902E+01 0.00000E+00
 -1      4037 9.53291E+01 2.87486E+01 0.00000E+00
 -1      4038 2.39232E+01 1.60580E+01 0.00000E+00
 -1      4039 2.31732E+01 1.73570E+01 0.00000E+00
 -1      4040 2.31995E+01 1.93776E+01 0.00000E+00
 -1      4041 2.54232E+01 1.60580E+01 0.00000E+00
 -1      4042 2.34000E+01 3.05150E+01 0.00000E+00
 -1      4043 2.49000E+01 3.05150E+01 0.00000E+00
 -1      4044 1.61423E+01 2.99832E+01 0.00000E+00
 -1      4045 5.91282E+01 1.97665E+01 0.00000E+00
 -1      4046 5.89760E+01 1.83789E+01 0.00000E+00
 -1      4047 5.77749E+01 1.83347E+01 0.00000E+00
 -1      4048 5.84501E+01 2.08344E+01 0.00000E+00
 -1      4049 1.11285E+02 1.82952E+01 0.00000E+00
 -1      4050 1.09785E+02 1.82952E+01 0.00000E+00
 -1      4051 1.09035E+02 1.95942E+01 0.00000E+00
 -1      4052 5.12850E+01 1.82952E+01 0.00000E+00
 -1      4053 4.97850E+01 1.82952E+01 0.00000E+00
 -1      4054 5.20350E+01 1.95942E+01 0.00000E+00
 -1      4055 9.90070E+01 1.88118E+01 0.00000E+00
 -1      4056 2.64000E+01 3.05150E+01 0.00000E+00
 -1      4057 2.79000E+01 3.05150E+01 0.00000E+00
 -1      4058 2.56500E+01 2.92160E+01 0.00000E+00
 -1      4059 9.58518E+01 2.20925E+01 0.00000E+00
 -1      4060 9.56864E+01 2.38994E+01 0.00000E+00
 -1      4061 9.63203E+01 2.51073E+01 0.00000E+00
 -1      4062 9.74261E+01 2.21206E+01 0.00000E+00
 -1      4063 1.14285E+02 1.82952E+01 0.00000E+00
 -1      4064 1.12785E+02 1.82952E+01 0.00000E+00
 -1      4065 1.15035E+02 1.95942E+01 0.00000E+00
 -1      4066 5.59825E+01 2.78823E+01 0.00000E+00
 -1      4067 5.65656E+01 2.65695E+01 0.00000E+00
 -1      4068 5.45660E+01 2.78893E+01 0.00000E+00
 -1      4069 2.22750E+01 3.04301E+01 0.00000E+00
 -1      4070 2.30250E+01 2.91311E+01 0.00000E+00
 -1      4071 2.11500E+01 3.03452E+01 0.00000E+00
 -1      4072 2.86500E+01 2.92160E+01 0.00000E+00
 -1      4073 1.12035E+02 1.95942E+01 0.00000E+00
 -1      4074 2.61732E+01 1.73570E+01 0.00000E+00
 -1      4075 9.97570E+01 2.01108E+01 0.00000E+00
 -1      4076 1.31232E+02 3.13795E+01 0.00000E+00
 -1      4077 1.28400E+02 3.05600E+01 0.00000E+00
 -1      4078 1.29900E+02 3.05600E+01 0.00000E+00
 -1      4079 1.30482E+02 3.00805E+01 0.00000E+00
 -1      4080 1.30482E+02 2.86055E+01 0.00000E+00
 -1      4081 1.89000E+01 3.01755E+01 0.00000E+00
 -1      4082 2.00250E+01 3.02604E+01 0.00000E+00
 -1      4083 2.07750E+01 2.89614E+01 0.00000E+00
 -1      4084 3.32850E+01 1.82952E+01 0.00000E+00
 -1      4085 3.17850E+01 1.82952E+01 0.00000E+00
 -1      4086 1.30482E+02 2.71399E+01 0.00000E+00
 -1      4087 1.30482E+02 2.56743E+01 0.00000E+00
 -1      4088 1.29150E+02 2.77954E+01 0.00000E+00
 -1      4089 5.60513E+01 2.55712E+01 0.00000E+00
 -1      4090 3.02850E+01 1.82952E+01 0.00000E+00
 -1      4091 2.87850E+01 1.82952E+01 0.00000E+00
 -1      4092 3.10350E+01 1.95942E+01 0.00000E+00
 -1      4093 1.68923E+01 2.86842E+01 0.00000E+00
 -1      4094 1.27650E+02 2.92610E+01 0.00000E+00
 -1      4095 2.01266E+01 2.30323E+01 0.00000E+00
 -1      4096 2.01164E+01 2.45303E+01 0.00000E+00
 -1      4097 2.20775E+01 2.25354E+01 0.00000E+00
 -1      4098 4.52850E+01 1.82952E+01 0.00000E+00
 -1      4099 4.37850E+01 1.82952E+01 0.00000E+00
 -1      4100 4.22850E+01 1.82952E+01 0.00000E+00
 -1      4101 4.07850E+01 1.82952E+01 0.00000E+00
 -1      4102 4.30350E+01 1.95942E+01 0.00000E+00
 -1      4103 9.61850E+01 2.77600E+01 0.00000E+00
 -1      4104 5.66305E+01 1.83371E+01 0.00000E+00
 -1      4105 5.54294E+01 1.82928E+01 0.00000E+00
 -1      4106 5.46794E+01 1.95918E+01 0.00000E+00
 -1      4107 5.69681E+01 1.95869E+01 0.00000E+00
 -1      4108 4.82850E+01 1.82952E+01 0.00000E+00
 -1      4109 4.67850E+01 1.82952E+01 0.00000E+00
 -1      4110 4.60350E+01 1.95942E+01 0.00000E+00
 -1      4111 1.48510E+01 2.74971E+01 0.00000E+00
 -1      4112 4.90350E+01 1.95942E+01 0.00000E+00
 -1      4113 1.24785E+02 2.08932E+01 0.00000E+00
 -1      4114 1.23285E+02 2.08932E+01 0.00000E+00
 -1      4115 2.79000E+01 2.79170E+01 0.00000E+00
 -1      4116 2.94000E+01 2.79170E+01 0.00000E+00
 -1      4117 3.39000E+01 2.79170E+01 0.00000E+00
 -1      4118 3.54000E+01 2.79170E+01 0.00000E+00
 -1      4119 3.69000E+01 2.79170E+01 0.00000E+00
 -1      4120 3.84000E+01 2.79170E+01 0.00000E+00
 -1      4121 3.61500E+01 2.66180E+01 0.00000E+00
 -1      4122 3.99000E+01 2.79170E+01 0.00000E+00
 -1      4123 4.14000E+01 2.79170E+01 0.00000E+00
 -1      4124 3.91500E+01 2.66180E+01 0.00000E+00
 -1      4125 4.29000E+01 2.79170E+01 0.00000E+00
 -1      4126 4.44000E+01 2.79170E+01 0.00000E+00
 -1      4127 4.21500E+01 2.66180E+01 0.00000E+00
 -1      4128 4.59000E+01 2.79170E+01 0.00000E+00
 -1      4129 4.74000E+01 2.79170E+01 0.00000E+00
 -1      4130 4.51500E+01 2.66180E+01 0.00000E+00
 -1      4131 4.89000E+01 2.79170E+01 0.00000E+00
 -1      4132 5.04000E+01 2.79170E+01 0.00000E+00
 -1      4133 4.81500E+01 2.66180E+01 0.00000E+00
 -1      4134 4.97850E+01 2.08932E+01 0.00000E+00
 -1      4135 4.82850E+01 2.08932E+01 0.00000E+00
 -1      4136 1.02900E+02 2.79620E+01 0.00000E+00
 -1      4137 1.04400E+02 2.79620E+01 0.00000E+00
 -1      4138 1.05900E+02 2.79620E+01 0.00000E+00
 -1      4139 1.07400E+02 2.79620E+01 0.00000E+00
 -1      4140 1.05150E+02 2.66630E+01 0.00000E+00
 -1      4141 1.08900E+02 2.79620E+01 0.00000E+00
 -1      4142 1.10400E+02 2.79620E+01 0.00000E+00
 -1      4143 1.08150E+02 2.66630E+01 0.00000E+00
 -1      4144 1.11900E+02 2.79620E+01 0.00000E+00
 -1      4145 1.13400E+02 2.79620E+01 0.00000E+00
 -1      4146 1.11150E+02 2.66630E+01 0.00000E+00
 -1      4147 1.14900E+02 2.79620E+01 0.00000E+00
 -1      4148 1.16400E+02 2.79620E+01 0.00000E+00
 -1      4149 1.14150E+02 2.66630E+01 0.00000E+00
 -1      4150 1.17900E+02 2.79620E+01 0.00000E+00
 -1      4151 1.19400E+02 2.79620E+01 0.00000E+00
 -1      4152 1.17150E+02 2.66630E+01 0.00000E+00
 -1      4153 1.20900E+02 2.79620E+01 0.00000E+00
 -1      4154 1.22400E+02 2.79620E+01 0.00000E+00
 -1      4155 1.20150E+02 2.66630E+01 0.00000E+00
 -1      4156 1.23900E+02 2.79620E+01 0.00000E+00
 -1      4157 1.25400E+02 2.79620E+01 0.00000E+00
 -1      4158 1.23150E+02 2.66630E+01 0.00000E+00
 -1      4159 5.46503E+01 2.52211E+01 0.00000E+00
 -1      4160 5.55526E+01 2.42160E+01 0.00000E+00
 -1      4161 9.74587E+01 2.79308E+01 0.00000E+00
 -1      4162 9.87323E+01 2.81016E+01 0.00000E+00
 -1      4163 9.70410E+01 2.67714E+01 0.00000E+00
 -1      4164 3.47850E+01 1.82952E+01 0.00000E+00
 -1      4165 3.40350E+01 1.95942E+01 0.00000E+00
 -1      4166 3.62850E+01 1.82952E+01 0.00000E+00
 -1      4167 1.01008E+02 2.10999E+01 0.00000E+00
 -1      4168 9.92305E+01 2.16165E+01 0.00000E+00
 -1      4169 4.67850E+01 2.08932E+01 0.00000E+00
 -1      4170 4.52850E+01 2.08932E+01 0.00000E+00
 -1      4171 4.75350E+01 2.21922E+01 0.00000E+00
 -1      4172 1.06785E+02 2.08932E+01 0.00000E+00
 -1      4173 1.05285E+02 2.08932E+01 0.00000E+00
 -1      4174 1.21785E+02 2.08932E+01 0.00000E+00
 -1      4175 1.20285E+02 2.08932E+01 0.00000E+00
 -1      4176 1.22535E+02 2.21922E+01 0.00000E+00
 -1      4177 1.12785E+02 2.08932E+01 0.00000E+00
 -1      4178 1.11285E+02 2.08932E+01 0.00000E+00
 -1      4179 1.18785E+02 2.08932E+01 0.00000E+00
 -1      4180 1.17285E+02 2.08932E+01 0.00000E+00
 -1      4181 1.19535E+02 2.21922E+01 0.00000E+00
 -1      4182 1.03897E+02 2.09966E+01 0.00000E+00
 -1      4183 1.02397E+02 2.09966E+01 0.00000E+00
 -1      4184 1.01870E+02 2.25023E+01 0.00000E+00
 -1      4185 1.04647E+02 2.22956E+01 0.00000E+00
 -1      4186 1.89078E+01 2.69519E+01 0.00000E+00
 -1      4187 1.76088E+01 2.76894E+01 0.00000E+00
 -1      4188 1.15785E+02 2.08932E+01 0.00000E+00
 -1      4189 1.14285E+02 2.08932E+01 0.00000E+00
 -1      4190 1.16535E+02 2.21922E+01 0.00000E+00
 -1      4191 1.09785E+02 2.08932E+01 0.00000E+00
 -1      4192 1.08285E+02 2.08932E+01 0.00000E+00
 -1      4193 1.07535E+02 2.21922E+01 0.00000E+00
 -1      4194 5.65428E+01 2.31456E+01 0.00000E+00
 -1      4195 5.74599E+01 2.19047E+01 0.00000E+00
 -1      4196 5.71222E+01 2.06548E+01 0.00000E+00
 -1      4197 5.51417E+01 2.27955E+01 0.00000E+00
 -1      4198 1.26525E+02 2.78787E+01 0.00000E+00
 -1      4199 1.28025E+02 2.78787E+01 0.00000E+00
 -1      4200 1.28025E+02 2.64131E+01 0.00000E+00
 -1      4201 1.25775E+02 2.65797E+01 0.00000E+00
 -1      4202 5.27850E+01 2.08932E+01 0.00000E+00
 -1      4203 5.12850E+01 2.08932E+01 0.00000E+00
 -1      4204 5.05350E+01 2.21922E+01 0.00000E+00
 -1      4205 2.49000E+01 2.79170E+01 0.00000E+00
 -1      4206 2.64000E+01 2.79170E+01 0.00000E+00
 -1      4207 2.71500E+01 2.66180E+01 0.00000E+00
 -1      4208 1.00066E+02 2.80318E+01 0.00000E+00
 -1      4209 1.01566E+02 2.80318E+01 0.00000E+00
 -1      4210 1.02316E+02 2.67328E+01 0.00000E+00
 -1      4211 9.96485E+01 2.68724E+01 0.00000E+00
 -1      4212 2.69232E+01 1.86560E+01 0.00000E+00
 -1      4213 2.50613E+01 1.90168E+01 0.00000E+00
 -1      4214 2.76732E+01 1.99550E+01 0.00000E+00
 -1      4215 2.39495E+01 2.06766E+01 0.00000E+00
 -1      4216 3.09000E+01 2.79170E+01 0.00000E+00
 -1      4217 3.24000E+01 2.79170E+01 0.00000E+00
 -1      4218 3.01500E+01 2.66180E+01 0.00000E+00
 -1      4219 2.08586E+01 2.64550E+01 0.00000E+00
 -1      4220 5.48335E+01 2.06597E+01 0.00000E+00
 -1      4221 5.40835E+01 2.19587E+01 0.00000E+00
 -1      4222 5.17748E+01 2.79066E+01 0.00000E+00
 -1      4223 5.31913E+01 2.78997E+01 0.00000E+00
 -1      4224 5.37743E+01 2.65868E+01 0.00000E+00
 -1      4225 5.10248E+01 2.66076E+01 0.00000E+00
 -1      4226 9.75939E+01 2.52781E+01 0.00000E+00
 -1      4227 5.32755E+01 2.52315E+01 0.00000E+00
 -1      4228 1.10535E+02 2.21922E+01 0.00000E+00
 -1      4229 3.31500E+01 2.66180E+01 0.00000E+00
 -1      4230 4.45350E+01 2.21922E+01 0.00000E+00
 -1      4231 4.37850E+01 2.08932E+01 0.00000E+00
 -1      4232 4.22850E+01 2.08932E+01 0.00000E+00
 -1      4233 1.27116E+02 2.12013E+01 0.00000E+00
 -1      4234 1.25950E+02 2.10473E+01 0.00000E+00
 -1      4235 1.25200E+02 2.23463E+01 0.00000E+00
 -1      4236 1.29051E+02 2.54426E+01 0.00000E+00
 -1      4237 1.30383E+02 2.47871E+01 0.00000E+00
 -1      4238 1.29979E+02 2.35850E+01 0.00000E+00
 -1      4239 1.27926E+02 2.55260E+01 0.00000E+00
 -1      4240 9.86775E+01 2.31098E+01 0.00000E+00
 -1      4241 1.13535E+02 2.21922E+01 0.00000E+00
 -1      4242 3.17850E+01 2.08932E+01 0.00000E+00
 -1      4243 3.02850E+01 2.08932E+01 0.00000E+00
 -1      4244 1.29441E+02 2.13840E+01 0.00000E+00
 -1      4245 1.28276E+02 2.12299E+01 0.00000E+00
 -1      4246 1.27526E+02 2.25289E+01 0.00000E+00
 -1      4247 1.29845E+02 2.25860E+01 0.00000E+00
 -1      4248 3.92850E+01 1.82952E+01 0.00000E+00
 -1      4249 3.77850E+01 1.82952E+01 0.00000E+00
 -1      4250 3.70350E+01 1.95942E+01 0.00000E+00
 -1      4251 4.00350E+01 1.95942E+01 0.00000E+00
 -1      4252 3.47850E+01 2.08932E+01 0.00000E+00
 -1      4253 3.32850E+01 2.08932E+01 0.00000E+00
 -1      4254 3.25350E+01 2.21922E+01 0.00000E+00
 -1      4255 2.26500E+01 2.77472E+01 0.00000E+00
 -1      4256 2.37750E+01 2.78321E+01 0.00000E+00
 -1      4257 2.45250E+01 2.65331E+01 0.00000E+00
 -1      4258 2.58011E+01 2.18138E+01 0.00000E+00
 -1      4259 2.39393E+01 2.21746E+01 0.00000E+00
 -1      4260 2.39291E+01 2.36726E+01 0.00000E+00
 -1      4261 5.59779E+01 2.06573E+01 0.00000E+00
 -1      4262 2.27336E+01 2.52408E+01 0.00000E+00
 -1      4263 2.15250E+01 2.76624E+01 0.00000E+00
 -1      4264 5.08425E+01 2.44051E+01 0.00000E+00
 -1      4265 5.22173E+01 2.43947E+01 0.00000E+00
 -1      4266 1.10842E+02 2.44276E+01 0.00000E+00
 -1      4267 1.09342E+02 2.44276E+01 0.00000E+00
 -1      4268 9.93982E+01 2.47739E+01 0.00000E+00
 -1      4269 3.84000E+01 2.53190E+01 0.00000E+00
 -1      4270 3.99000E+01 2.53190E+01 0.00000E+00
 -1      4271 4.18425E+01 2.44051E+01 0.00000E+00
 -1      4272 4.33425E+01 2.44051E+01 0.00000E+00
 -1      4273 4.48425E+01 2.44051E+01 0.00000E+00
 -1      4274 4.63425E+01 2.44051E+01 0.00000E+00
 -1      4275 4.78425E+01 2.44051E+01 0.00000E+00
 -1      4276 4.93425E+01 2.44051E+01 0.00000E+00
 -1      4277 2.57205E+01 2.49649E+01 0.00000E+00
 -1      4278 2.72205E+01 2.49649E+01 0.00000E+00
 -1      4279 1.04842E+02 2.44276E+01 0.00000E+00
 -1      4280 1.06342E+02 2.44276E+01 0.00000E+00
 -1      4281 1.07842E+02 2.44276E+01 0.00000E+00
 -1      4282 1.12342E+02 2.44276E+01 0.00000E+00
 -1      4283 1.13842E+02 2.44276E+01 0.00000E+00
 -1      4284 1.15342E+02 2.44276E+01 0.00000E+00
 -1      4285 1.16842E+02 2.44276E+01 0.00000E+00
 -1      4286 1.18342E+02 2.44276E+01 0.00000E+00
 -1      4287 1.19842E+02 2.44276E+01 0.00000E+00
 -1      4288 1.21342E+02 2.44276E+01 0.00000E+00
 -1      4289 1.22842E+02 2.44276E+01 0.00000E+00
 -1      4290 1.24342E+02 2.44276E+01 0.00000E+00
 -1      4291 4.03425E+01 2.18071E+01 0.00000E+00
 -1      4292 3.88425E+01 2.18071E+01 0.00000E+00
 -1      4293 1.03454E+02 2.45310E+01 0.00000E+00
 -1      4294 2.45955E+01 2.48800E+01 0.00000E+00
 -1      4295 3.28425E+01 2.44051E+01 0.00000E+00
 -1      4296 3.43425E+01 2.44051E+01 0.00000E+00
 -1      4297 2.89740E+01 2.11731E+01 0.00000E+00
 -1      4298 2.71122E+01 2.15339E+01 0.00000E+00
 -1      4299 2.71019E+01 2.30319E+01 0.00000E+00
 -1      4300 2.97240E+01 2.24721E+01 0.00000E+00
 -1      4301 3.75638E+01 2.13502E+01 0.00000E+00
 -1      4302 3.60638E+01 2.13502E+01 0.00000E+00
 -1      4303 3.53138E+01 2.26492E+01 0.00000E+00
 -1      4304 3.78713E+01 2.35631E+01 0.00000E+00
 -1      4305 1.00732E+02 2.47041E+01 0.00000E+00
 -1      4306 2.98425E+01 2.44051E+01 0.00000E+00
 -1      4307 3.13425E+01 2.44051E+01 0.00000E+00
 -1      4308 5.30932E+01 2.30291E+01 0.00000E+00
 -1      4309 2.85315E+01 2.46850E+01 0.00000E+00
 -1      4310 3.71213E+01 2.48621E+01 0.00000E+00
 -1      4311 4.10925E+01 2.31061E+01 0.00000E+00
 -1      4312 1.02120E+02 2.46008E+01 0.00000E+00
 -1      4313 1.25476E+02 2.31329E+01 0.00000E+00
 -1      4314 1.25783E+02 2.53683E+01 0.00000E+00
 -1      4315 1.26908E+02 2.52850E+01 0.00000E+00
 -1      4316 1.28819E+02 2.35565E+01 0.00000E+00
 -1      4317 3.56213E+01 2.48621E+01 0.00000E+00
 -1      4318 1.27934E+02 2.43146E+01 0.00000E+00
 -1      4319 1.27659E+02 2.35279E+01 0.00000E+00
 -1      4320 1.26641E+02 2.32870E+01 0.00000E+00
 -3
    3C                          2078                                     1
 -1       165    8    0    1
 -2         6         7        23      1122      1286      1139
 -1       166    8    0    1
 -2         7         8       165      1123      1287      1288
 -1       167    8    0    1
 -2         8         9       166      1124      1289      1290
 -1       168    8    0    1
 -2         8       166       165      1290      1291      1287
 -1       169    8    0    1
 -2         9        10       167      1125      1292      1293
 -1       170    8    0    1
 -2         9       167       166      1293      1294      1289
 -1       171    8    0    1
 -2        10        11       168      1126      1295      1296
 -1       172    8    0    1
 -2        10       168       167      1296      1297      1292
 -1       173    8    0    1
 -2        11        12       169      1127      1298      1299
 -1       174    8    0    1
 -2        11       169       168      1299      1300      1295
 -1       175    8    0    1
 -2        12        13       170      1128      1301      1302
 -1       176    8    0    1
 -2        12       170       169      1302      1303      1298
 -1       177    8    0    1
 -2        13        14       171      1129      1304      1305
 -1       178    8    0    1
 -2        13       171       170      1305      1306      1301
 -1       179    8    0    1
 -2        14        15       172      1130      1307      1308
 -1       180    8    0    1
 -2        14       172       171      1308      1309      1304
 -1       181    8    0    1
 -2        15        16       173      1131      1310      1311
 -1       182    8    0    1
 -2        15       173       172      1311      1312      1307
 -1       183    8    0    1
 -2        16        17       174      1132      1313      1314
 -1       184    8    0    1
 -2        16       174       173      1314      1315      1310
 -1       185    8    0    1
 -2        17        18       175      1133      1316      1317
 -1       186    8    0    1
 -2        17       175       174      1317      1318      1313
 -1       187    8    0    1
 -2        18        19       176      1134      1319      1320
 -1       188    8    0    1
 -2        18       176       175      1320      1321      1316
 -1       189    8    0    1
 -2        19        20       177      1135      1322      1323
 -1       190    8    0    1
 -2        19       177       176      1323      1324      1319
 -1       191    8    0    1
 -2        20        21       178      1136      1325      1326
 -1       192    8    0    1
 -2        20       178       177      1326      1327      1322
 -1       193    8    0    1
 -2        21        22       179      1137      1328      1329
 -1       194    8    0    1
 -2        21       179       178      1329      1330      1325
 -1       195    8    0    1
 -2        22         5       180      1138      1331      1332
 -1       196    8    0    1
 -2       179        22       180      1328      1332      1333
 -1       197    8    0    1
 -2         5        72       180      1189      1334      1331
 -1       198    8    0    1
 -2        24        23       181      1140      1335      1336
 -1       199    8    0    1
 -2        25        24       182      1141      1337      1338
 -1       200    8    0    1
 -2        24       181       182      1336      1339      1337
 -1       201    8    0    1
 -2        26        25       183      1142      1340      1341
 -1       202    8    0    1
 -2        25       182       183      1338      1342      1340
 -1       203    8    0    1
 -2        27        26       184      1143      1343      1344
 -1       204    8    0    1
 -2        26       183       184      1341      1345      1343
 -1       205    8    0    1
 -2        28        27       185      1144      1346      1347
 -1       206    8    0    1
 -2        27       184       185      1344      1348      1346
 -1       207    8    0    1
 -2        29        28       186      1145      1349      1350
 -1       208    8    0    1
 -2        28       185       186      1347      1351      1349
 -1       209    8    0    1
 -2        30        29       187      1146      1352      1353
 -1       210    8    0    1
 -2        29       186       187      1350      1354      1352
 -1       211    8    0    1
 -2        31        30       188      1147      1355      1356
 -1       212    8    0    1
 -2        30       187       188      1353      1357      1355
 -1       213    8    0    1
 -2        32        31       189      1148      1358      1359
 -1       214    8    0    1
 -2        31       188       189      1356      1360      1358
 -1       215    8    0    1
 -2        33        32       190      1149      1361      1362
 -1       216    8    0    1
 -2        32       189       190      1359      1363      1361
 -1       217    8    0    1
 -2        34        33       191      1150      1364      1365
 -1       218    8    0    1
 -2        33       190       191      1362      1366      1364
 -1       219    8    0    1
 -2        35        34       192      1151      1367      1368
 -1       220    8    0    1
 -2        34       191       192      1365      1369      1367
 -1       221    8    0    1
 -2        36        35       193      1152      1370      1371
 -1       222    8    0    1
 -2        35       192       193      1368      1372      1370
 -1       223    8    0    1
 -2        37        36       194      1153      1373      1374
 -1       224    8    0    1
 -2        36       193       194      1371      1375      1373
 -1       225    8    0    1
 -2        38        37       195      1154      1376      1377
 -1       226    8    0    1
 -2        37       194       195      1374      1378      1376
 -1       227    8    0    1
 -2        39        38       196      1155      1379      1380
 -1       228    8    0    1
 -2        38       195       196      1377      1381      1379
 -1       229    8    0    1
 -2        40        39       197      1156      1382      1383
 -1       230    8    0    1
 -2        39       196       197      1380      1384      1382
 -1       231    8    0    1
 -2        41        40       198      1157      1385      1386
 -1       232    8    0    1
 -2        40       197       198      1383      1387      1385
 -1       233    8    0    1
 -2        42        41       199      1158      1388      1389
 -1       234    8    0    1
 -2        41       198       199      1386      1390      1388
 -1       235    8    0    1
 -2        43        42       200      1159      1391      1392
 -1       236    8    0    1
 -2        42       199       200      1389      1393      1391
 -1       237    8    0    1
 -2        44        43       201      1160      1394      1395
 -1       238    8    0    1
 -2        43       200       201      1392      1396      1394
 -1       239    8    0    1
 -2        45        44       202      1161      1397      1398
 -1       240    8    0    1
 -2        44       201       202      1395      1399      1397
 -1       241    8    0    1
 -2        46        45       203      1162      1400      1401
 -1       242    8    0    1
 -2        45       202       203      1398      1402      1400
 -1       243    8    0    1
 -2        47        46       204      1163      1403      1404
 -1       244    8    0    1
 -2        46       203       204      1401      1405      1403
 -1       245    8    0    1
 -2        48        47       205      1164      1406      1407
 -1       246    8    0    1
 -2        47       204       205      1404      1408      1406
 -1       247    8    0    1
 -2        49        48       206      1165      1409      1410
 -1       248    8    0    1
 -2        48       205       206      1407      1411      1409
 -1       249    8    0    1
 -2        50        49       207      1166      1412      1413
 -1       250    8    0    1
 -2        49       206       207      1410      1414      1412
 -1       251    8    0    1
 -2        51        50       208      1167      1415      1416
 -1       252    8    0    1
 -2        50       207       208      1413      1417      1415
 -1       253    8    0    1
 -2        52        51       209      1168      1418      1419
 -1       254    8    0    1
 -2        51       208       209      1416      1420      1418
 -1       255    8    0    1
 -2        53        52       210      1169      1421      1422
 -1       256    8    0    1
 -2        52       209       210      1419      1423      1421
 -1       257    8    0    1
 -2        54        53       211      1170      1424      1425
 -1       258    8    0    1
 -2        53       210       211      1422      1426      1424
 -1       259    8    0    1
 -2        55        54       212      1171      1427      1428
 -1       260    8    0    1
 -2        54       211       212      1425      1429      1427
 -1       261    8    0    1
 -2        56        55       213      1172      1430      1431
 -1       262    8    0    1
 -2        55       212       213      1428      1432      1430
 -1       263    8    0    1
 -2        57        56       214      1173      1433      1434
 -1       264    8    0    1
 -2        56       213       214      1431      1435      1433
 -1       265    8    0    1
 -2        58        57       215      1174      1436      1437
 -1       266    8    0    1
 -2        57       214       215      1434      1438      1436
 -1       267    8    0    1
 -2        59        58       216      1175      1439      1440
 -1       268    8    0    1
 -2        58       215       216      1437      1441      1439
 -1       269    8    0    1
 -2        60        59       217      1176      1442      1443
 -1       270    8    0    1
 -2        59       216       217      1440      1444      1442
 -1       271    8    0    1
 -2        61        60       218      1177      1445      1446
 -1       272    8    0    1
 -2        60       217       218      1443      1447      1445
 -1       273    8    0    1
 -2        62        61       219      1178      1448      1449
 -1       274    8    0    1
 -2        61       218       219      1446      1450      1448
 -1       275    8    0    1
 -2        63        62       220      1179      1451      1452
 -1       276    8    0    1
 -2        62       219       220      1449      1453      1451
 -1       277    8    0    1
 -2        64        63       221      1180      1454      1455
 -1       278    8    0    1
 -2        63       220       221      1452      1456      1454
 -1       279    8    0    1
 -2        65        64       222      1181      1457      1458
 -1       280    8    0    1
 -2        64       221       222      1455      1459      1457
 -1       281    8    0    1
 -2        66        65       223      1182      1460      1461
 -1       282    8    0    1
 -2        65       222       223      1458      1462      1460
 -1       283    8    0    1
 -2        67        66       224      1183      1463      1464
 -1       284    8    0    1
 -2        66       223       224      1461      1465      1463
 -1       285    8    0    1
 -2        68        67       225      1184      1466      1467
 -1       286    8    0    1
 -2        67       224       225      1464      1468      1466
 -1       287    8    0    1
 -2        69        68       226      1185      1469      1470
 -1       288    8    0    1
 -2        68       225       226      1467      1471      1469
 -1       289    8    0    1
 -2        70        69       227      1186      1472      1473
 -1       290    8    0    1
 -2        69       226       227      1470      1474      1472
 -1       291    8    0    1
 -2        71        70       228      1187      1475      1476
 -1       292    8    0    1
 -2        70       227       228      1473      1477      1475
 -1       293    8    0    1
 -2         4        71       136      1188      1478      1255
 -1       294    8    0    1
 -2       136        71       228      1478      1476      1479
 -1       295    8    0    1
 -2        72        73       229      1190      1480      1481
 -1       296    8    0    1
 -2        72       229       180      1481      1482      1334
 -1       297    8    0    1
 -2        73        74       230      1191      1483      1484
 -1       298    8    0    1
 -2        73       230       229      1484      1485      1480
 -1       299    8    0    1
 -2        74        75       231      1192      1486      1487
 -1       300    8    0    1
 -2        74       231       230      1487      1488      1483
 -1       301    8    0    1
 -2        75        76       232      1193      1489      1490
 -1       302    8    0    1
 -2        75       232       231      1490      1491      1486
 -1       303    8    0    1
 -2        76        77       233      1194      1492      1493
 -1       304    8    0    1
 -2        76       233       232      1493      1494      1489
 -1       305    8    0    1
 -2        77        78       234      1195      1495      1496
 -1       306    8    0    1
 -2        77       234       233      1496      1497      1492
 -1       307    8    0    1
 -2        78        79       235      1196      1498      1499
 -1       308    8    0    1
 -2        78       235       234      1499      1500      1495
 -1       309    8    0    1
 -2        79        80       236      1197      1501      1502
 -1       310    8    0    1
 -2        79       236       235      1502      1503      1498
 -1       311    8    0    1
 -2        80        81       237      1198      1504      1505
 -1       312    8    0    1
 -2        80       237       236      1505      1506      1501
 -1       313    8    0    1
 -2        81        82       238      1199      1507      1508
 -1       314    8    0    1
 -2        81       238       237      1508      1509      1504
 -1       315    8    0    1
 -2        82        83       239      1200      1510      1511
 -1       316    8    0    1
 -2        82       239       238      1511      1512      1507
 -1       317    8    0    1
 -2        83        84       240      1201      1513      1514
 -1       318    8    0    1
 -2        83       240       239      1514      1515      1510
 -1       319    8    0    1
 -2        84        85       241      1202      1516      1517
 -1       320    8    0    1
 -2        84       241       240      1517      1518      1513
 -1       321    8    0    1
 -2        85        86       242      1203      1519      1520
 -1       322    8    0    1
 -2        85       242       241      1520      1521      1516
 -1       323    8    0    1
 -2        86        87       243      1204      1522      1523
 -1       324    8    0    1
 -2        86       243       242      1523      1524      1519
 -1       325    8    0    1
 -2        87        88       244      1205      1525      1526
 -1       326    8    0    1
 -2        87       244       243      1526      1527      1522
 -1       327    8    0    1
 -2        88        89       245      1206      1528      1529
 -1       328    8    0    1
 -2        88       245       244      1529      1530      1525
 -1       329    8    0    1
 -2        89        90       246      1207      1531      1532
 -1       330    8    0    1
 -2        89       246       245      1532      1533      1528
 -1       331    8    0    1
 -2        90        91       247      1208      1534      1535
 -1       332    8    0    1
 -2        90       247       246      1535      1536      1531
 -1       333    8    0    1
 -2        91        92       248      1209      1537      1538
 -1       334    8    0    1
 -2        91       248       247      1538      1539      1534
 -1       335    8    0    1
 -2        92        93       249      1210      1540      1541
 -1       336    8    0    1
 -2        92       249       248      1541      1542      1537
 -1       337    8    0    1
 -2        93        94       250      1211      1543      1544
 -1       338    8    0    1
 -2        93       250       249      1544      1545      1540
 -1       339    8    0    1
 -2        94        95       251      1212      1546      1547
 -1       340    8    0    1
 -2        94       251       250      1547      1548      1543
 -1       341    8    0    1
 -2        95        96       252      1213      1549      1550
 -1       342    8    0    1
 -2        95       252       251      1550      1551      1546
 -1       343    8    0    1
 -2        96        97       253      1214      1552      1553
 -1       344    8    0    1
 -2        96       253       252      1553      1554      1549
 -1       345    8    0    1
 -2        97        98       254      1215      1555      1556
 -1       346    8    0    1
 -2        97       254       253      1556      1557      1552
 -1       347    8    0    1
 -2        98        99       255      1216      1558      1559
 -1       348    8    0    1
 -2        98       255       254      1559      1560      1555
 -1       349    8    0    1
 -2        99       100       256      1217      1561      1562
 -1       350    8    0    1
 -2        99       256       255      1562      1563      1558
 -1       351    8    0    1
 -2       100       101       257      1218      1564      1565
 -1       352    8    0    1
 -2       100       257       256      1565      1566      1561
 -1       353    8    0    1
 -2       101       102       258      1219      1567      1568
 -1       354    8    0    1
 -2       101       258       257      1568      1569      1564
 -1       355    8    0    1
 -2       102       103       259      1220      1570      1571
 -1       356    8    0    1
 -2       102       259       258      1571      1572      1567
 -1       357    8    0    1
 -2       103       104       260      1221      1573      1574
 -1       358    8    0    1
 -2       103       260       259      1574      1575      1570
 -1       359    8    0    1
 -2       104       105       261      1222      1576      1577
 -1       360    8    0    1
 -2       104       261       260      1577      1578      1573
 -1       361    8    0    1
 -2       105       106       262      1223      1579      1580
 -1       362    8    0    1
 -2       105       262       261      1580      1581      1576
 -1       363    8    0    1
 -2       106       107       263      1224      1582      1583
 -1       364    8    0    1
 -2       106       263       262      1583      1584      1579
 -1       365    8    0    1
 -2       107       108       264      1225      1585      1586
 -1       366    8    0    1
 -2       107       264       263      1586      1587      1582
 -1       367    8    0    1
 -2       108       109       265      1226      1588      1589
 -1       368    8    0    1
 -2       108       265       264      1589      1590      1585
 -1       369    8    0    1
 -2       109       110       266      1227      1591      1592
 -1       370    8    0    1
 -2       109       266       265      1592      1593      1588
 -1       371    8    0    1
 -2       110       111       267      1228      1594      1595
 -1       372    8    0    1
 -2       110       267       266      1595      1596      1591
 -1       373    8    0    1
 -2       111       112       268      1229      1597      1598
 -1       374    8    0    1
 -2       111       268       267      1598      1599      1594
 -1       375    8    0    1
 -2       112       113       269      1230      1600      1601
 -1       376    8    0    1
 -2       112       269       268      1601      1602      1597
 -1       377    8    0    1
 -2       113       114       270      1231      1603      1604
 -1       378    8    0    1
 -2       113       270       269      1604      1605      1600
 -1       379    8    0    1
 -2       114       115       271      1232      1606      1607
 -1       380    8    0    1
 -2       114       271       270      1607      1608      1603
 -1       381    8    0    1
 -2       115       116       272      1233      1609      1610
 -1       382    8    0    1
 -2       115       272       271      1610      1611      1606
 -1       383    8    0    1
 -2       116       117       273      1234      1612      1613
 -1       384    8    0    1
 -2       116       273       272      1613      1614      1609
 -1       385    8    0    1
 -2       117       118       274      1235      1615      1616
 -1       386    8    0    1
 -2       117       274       273      1616      1617      1612
 -1       387    8    0    1
 -2       118       119       275      1236      1618      1619
 -1       388    8    0    1
 -2       118       275       274      1619      1620      1615
 -1       389    8    0    1
 -2       119       120       276      1237      1621      1622
 -1       390    8    0    1
 -2       119       276       275      1622      1623      1618
 -1       391    8    0    1
 -2       120         3       121      1238      1239      1624
 -1       392    8    0    1
 -2       121       122       277      1240      1625      1626
 -1       393    8    0    1
 -2       122       123       278      1241      1627      1628
 -1       394    8    0    1
 -2       122       278       277      1628      1629      1625
 -1       395    8    0    1
 -2       123       124       279      1242      1630      1631
 -1       396    8    0    1
 -2       123       279       278      1631      1632      1627
 -1       397    8    0    1
 -2       124       125       280      1243      1633      1634
 -1       398    8    0    1
 -2       124       280       279      1634      1635      1630
 -1       399    8    0    1
 -2       125       126       281      1244      1636      1637
 -1       400    8    0    1
 -2       125       281       280      1637      1638      1633
 -1       401    8    0    1
 -2       126       127       282      1245      1639      1640
 -1       402    8    0    1
 -2       126       282       281      1640      1641      1636
 -1       403    8    0    1
 -2       127       128       283      1246      1642      1643
 -1       404    8    0    1
 -2       127       283       282      1643      1644      1639
 -1       405    8    0    1
 -2       128       129       284      1247      1645      1646
 -1       406    8    0    1
 -2       128       284       283      1646      1647      1642
 -1       407    8    0    1
 -2       129       130       285      1248      1648      1649
 -1       408    8    0    1
 -2       129       285       284      1649      1650      1645
 -1       409    8    0    1
 -2       130       131       286      1249      1651      1652
 -1       410    8    0    1
 -2       130       286       285      1652      1653      1648
 -1       411    8    0    1
 -2       131       132       287      1250      1654      1655
 -1       412    8    0    1
 -2       131       287       286      1655      1656      1651
 -1       413    8    0    1
 -2       132       133       288      1251      1657      1658
 -1       414    8    0    1
 -2       132       288       287      1658      1659      1654
 -1       415    8    0    1
 -2       133       134       289      1252      1660      1661
 -1       416    8    0    1
 -2       133       289       288      1661      1662      1657
 -1       417    8    0    1
 -2       134       135       290      1253      1663      1664
 -1       418    8    0    1
 -2       134       290       289      1664      1665      1660
 -1       419    8    0    1
 -2       135       136       291      1254      1666      1667
 -1       420    8    0    1
 -2       290       135       291      1663      1667      1668
 -1       421    8    0    1
 -2       136       228       291      1479      1669      1666
 -1       422    8    0    1
 -2         2       137       292      1256      1670      1671
 -1       423    8    0    1
 -2       137       138       293      1257      1672      1673
 -1       424    8    0    1
 -2       138       139       294      1258      1674      1675
 -1       425    8    0    1
 -2       139       140       295      1259      1676      1677
 -1       426    8    0    1
 -2       140       141       296      1260      1678      1679
 -1       427    8    0    1
 -2       141       142       297      1261      1680      1681
 -1       428    8    0    1
 -2       142       143       298      1262      1682      1683
 -1       429    8    0    1
 -2       143       144       299      1263      1684      1685
 -1       430    8    0    1
 -2       144       145       300      1264      1686      1687
 -1       431    8    0    1
 -2       145       146       301      1265      1688      1689
 -1       432    8    0    1
 -2       146       147       302      1266      1690      1691
 -1       433    8    0    1
 -2       147       148       303      1267      1692      1693
 -1       434    8    0    1
 -2       148       149       304      1268      1694      1695
 -1       435    8    0    1
 -2       149       150       305      1269      1696      1697
 -1       436    8    0    1
 -2       150       151       306      1270      1698      1699
 -1       437    8    0    1
 -2       151       152       307      1271      1700      1701
 -1       438    8    0    1
 -2       152       153       308      1272      1702      1703
 -1       439    8    0    1
 -2       153         1       309      1273      1704      1705
 -1       440    8    0    1
 -2         1       154       310      1274      1706      1707
 -1       441    8    0    1
 -2       154       155       311      1275      1708      1709
 -1       442    8    0    1
 -2       155       156       312      1276      1710      1711
 -1       443    8    0    1
 -2       156       157       313      1277      1712      1713
 -1       444    8    0    1
 -2       157       158       314      1278      1714      1715
 -1       445    8    0    1
 -2       158       159       315      1279      1716      1717
 -1       446    8    0    1
 -2       159       160       316      1280      1718      1719
 -1       447    8    0    1
 -2       160       161       317      1281      1720      1721
 -1       448    8    0    1
 -2       161       162       318      1282      1722      1723
 -1       449    8    0    1
 -2       162       163       319      1283      1724      1725
 -1       450    8    0    1
 -2       163       164       320      1284      1726      1727
 -1       451    8    0    1
 -2       164         2       321      1285      1728      1729
 -1       452    8    0    1
 -2       295       140       296      1676      1679      1730
 -1       453    8    0    1
 -2       294       139       295      1674      1677      1731
 -1       454    8    0    1
 -2       120       121       276      1624      1732      1621
 -1       455    8    0    1
 -2       121       277       276      1626      1733      1732
 -1       456    8    0    1
 -2       292       137       293      1670      1673      1734
 -1       457    8    0    1
 -2       293       138       294      1672      1675      1735
 -1       458    8    0    1
 -2         2       292       321      1671      1736      1728
 -1       459    8    0    1
 -2       141       297       296      1681      1737      1678
 -1       460    8    0    1
 -2       142       298       297      1683      1738      1680
 -1       461    8    0    1
 -2       143       299       298      1685      1739      1682
 -1       462    8    0    1
 -2       144       300       299      1687      1740      1684
 -1       463    8    0    1
 -2       145       301       300      1689      1741      1686
 -1       464    8    0    1
 -2       146       302       301      1691      1742      1688
 -1       465    8    0    1
 -2       147       303       302      1693      1743      1690
 -1       466    8    0    1
 -2       148       304       303      1695      1744      1692
 -1       467    8    0    1
 -2       149       305       304      1697      1745      1694
 -1       468    8    0    1
 -2       150       306       305      1699      1746      1696
 -1       469    8    0    1
 -2       151       307       306      1701      1747      1698
 -1       470    8    0    1
 -2       152       308       307      1703      1748      1700
 -1       471    8    0    1
 -2       153       309       308      1705      1749      1702
 -1       472    8    0    1
 -2         1       310       309      1707      1750      1704
 -1       473    8    0    1
 -2       154       311       310      1709      1751      1706
 -1       474    8    0    1
 -2       155       312       311      1711      1752      1708
 -1       475    8    0    1
 -2       156       313       312      1713      1753      1710
 -1       476    8    0    1
 -2       157       314       313      1715      1754      1712
 -1       477    8    0    1
 -2       158       315       314      1717      1755      1714
 -1       478    8    0    1
 -2       159       316       315      1719      1756      1716
 -1       479    8    0    1
 -2       160       317       316      1721      1757      1718
 -1       480    8    0    1
 -2       161       318       317      1723      1758      1720
 -1       481    8    0    1
 -2       162       319       318      1725      1759      1722
 -1       482    8    0    1
 -2       163       320       319      1727      1760      1724
 -1       483    8    0    1
 -2       164       321       320      1729      1761      1726
 -1       484    8    0    1
 -2        23         7       165      1286      1288      1762
 -1       485    8    0    1
 -2       166       167       322      1294      1763      1764
 -1       486    8    0    1
 -2       165       166       323      1291      1765      1766
 -1       487    8    0    1
 -2       166       322       323      1764      1767      1765
 -1       488    8    0    1
 -2       168       169       324      1300      1768      1769
 -1       489    8    0    1
 -2       169       170       325      1303      1770      1771
 -1       490    8    0    1
 -2       169       325       324      1771      1772      1768
 -1       491    8    0    1
 -2       170       171       326      1306      1773      1774
 -1       492    8    0    1
 -2       170       326       325      1774      1775      1770
 -1       493    8    0    1
 -2       171       172       327      1309      1776      1777
 -1       494    8    0    1
 -2       171       327       326      1777      1778      1773
 -1       495    8    0    1
 -2       172       173       328      1312      1779      1780
 -1       496    8    0    1
 -2       172       328       327      1780      1781      1776
 -1       497    8    0    1
 -2       173       174       329      1315      1782      1783
 -1       498    8    0    1
 -2       173       329       328      1783      1784      1779
 -1       499    8    0    1
 -2       174       175       330      1318      1785      1786
 -1       500    8    0    1
 -2       174       330       329      1786      1787      1782
 -1       501    8    0    1
 -2       175       176       331      1321      1788      1789
 -1       502    8    0    1
 -2       175       331       330      1789      1790      1785
 -1       503    8    0    1
 -2       176       177       332      1324      1791      1792
 -1       504    8    0    1
 -2       176       332       331      1792      1793      1788
 -1       505    8    0    1
 -2       177       178       333      1327      1794      1795
 -1       506    8    0    1
 -2       177       333       332      1795      1796      1791
 -1       507    8    0    1
 -2       178       179       334      1330      1797      1798
 -1       508    8    0    1
 -2       178       334       333      1798      1799      1794
 -1       509    8    0    1
 -2       179       180       335      1333      1800      1801
 -1       510    8    0    1
 -2       334       179       335      1797      1801      1802
 -1       511    8    0    1
 -2       180       229       335      1482      1803      1800
 -1       512    8    0    1
 -2       181        23       165      1335      1762      1804
 -1       513    8    0    1
 -2       229       230       336      1485      1805      1806
 -1       514    8    0    1
 -2       229       336       335      1806      1807      1803
 -1       515    8    0    1
 -2       181       165       323      1804      1766      1808
 -1       516    8    0    1
 -2       183       182       337      1342      1809      1810
 -1       517    8    0    1
 -2       184       183       338      1345      1811      1812
 -1       518    8    0    1
 -2       183       337       338      1810      1813      1811
 -1       519    8    0    1
 -2       185       184       339      1348      1814      1815
 -1       520    8    0    1
 -2       184       338       339      1812      1816      1814
 -1       521    8    0    1
 -2       186       185       340      1351      1817      1818
 -1       522    8    0    1
 -2       185       339       340      1815      1819      1817
 -1       523    8    0    1
 -2       187       186       341      1354      1820      1821
 -1       524    8    0    1
 -2       186       340       341      1818      1822      1820
 -1       525    8    0    1
 -2       188       187       342      1357      1823      1824
 -1       526    8    0    1
 -2       187       341       342      1821      1825      1823
 -1       527    8    0    1
 -2       189       188       343      1360      1826      1827
 -1       528    8    0    1
 -2       188       342       343      1824      1828      1826
 -1       529    8    0    1
 -2       190       189       344      1363      1829      1830
 -1       530    8    0    1
 -2       189       343       344      1827      1831      1829
 -1       531    8    0    1
 -2       191       190       345      1366      1832      1833
 -1       532    8    0    1
 -2       190       344       345      1830      1834      1832
 -1       533    8    0    1
 -2       192       191       346      1369      1835      1836
 -1       534    8    0    1
 -2       191       345       346      1833      1837      1835
 -1       535    8    0    1
 -2       193       192       347      1372      1838      1839
 -1       536    8    0    1
 -2       192       346       347      1836      1840      1838
 -1       537    8    0    1
 -2       194       193       348      1375      1841      1842
 -1       538    8    0    1
 -2       193       347       348      1839      1843      1841
 -1       539    8    0    1
 -2       195       194       349      1378      1844      1845
 -1       540    8    0    1
 -2       194       348       349      1842      1846      1844
 -1       541    8    0    1
 -2       196       195       350      1381      1847      1848
 -1       542    8    0    1
 -2       195       349       350      1845      1849      1847
 -1       543    8    0    1
 -2       197       196       351      1384      1850      1851
 -1       544    8    0    1
 -2       196       350       351      1848      1852      1850
 -1       545    8    0    1
 -2       198       197       352      1387      1853      1854
 -1       546    8    0    1
 -2       197       351       352      1851      1855      1853
 -1       547    8    0    1
 -2       199       198       353      1390      1856      1857
 -1       548    8    0    1
 -2       198       352       353      1854      1858      1856
 -1       549    8    0    1
 -2       200       199       354      1393      1859      1860
 -1       550    8    0    1
 -2       199       353       354      1857      1861      1859
 -1       551    8    0    1
 -2       201       200       355      1396      1862      1863
 -1       552    8    0    1
 -2       200       354       355      1860      1864      1862
 -1       553    8    0    1
 -2       202       201       356      1399      1865      1866
 -1       554    8    0    1
 -2       201       355       356      1863      1867      1865
 -1       555    8    0    1
 -2       203       202       357      1402      1868      1869
 -1       556    8    0    1
 -2       202       356       357      1866      1870      1868
 -1       557    8    0    1
 -2       204       203       358      1405      1871      1872
 -1       558    8    0    1
 -2       203       357       358      1869      1873      1871
 -1       559    8    0    1
 -2       205       204       359      1408      1874      1875
 -1       560    8    0    1
 -2       204       358       359      1872      1876      1874
 -1       561    8    0    1
 -2       206       205       360      1411      1877      1878
 -1       562    8    0    1
 -2       205       359       360      1875      1879      1877
 -1       563    8    0    1
 -2       207       206       361      1414      1880      1881
 -1       564    8    0    1
 -2       206       360       361      1878      1882      1880
 -1       565    8    0    1
 -2       208       207       362      1417      1883      1884
 -1       566    8    0    1
 -2       207       361       362      1881      1885      1883
 -1       567    8    0    1
 -2       209       208       363      1420      1886      1887
 -1       568    8    0    1
 -2       208       362       363      1884      1888      1886
 -1       569    8    0    1
 -2       210       209       364      1423      1889      1890
 -1       570    8    0    1
 -2       209       363       364      1887      1891      1889
 -1       571    8    0    1
 -2       211       210       365      1426      1892      1893
 -1       572    8    0    1
 -2       210       364       365      1890      1894      1892
 -1       573    8    0    1
 -2       212       211       366      1429      1895      1896
 -1       574    8    0    1
 -2       211       365       366      1893      1897      1895
 -1       575    8    0    1
 -2       213       212       367      1432      1898      1899
 -1       576    8    0    1
 -2       212       366       367      1896      1900      1898
 -1       577    8    0    1
 -2       214       213       368      1435      1901      1902
 -1       578    8    0    1
 -2       213       367       368      1899      1903      1901
 -1       579    8    0    1
 -2       215       214       369      1438      1904      1905
 -1       580    8    0    1
 -2       214       368       369      1902      1906      1904
 -1       581    8    0    1
 -2       216       215       370      1441      1907      1908
 -1       582    8    0    1
 -2       215       369       370      1905      1909      1907
 -1       583    8    0    1
 -2       217       216       371      1444      1910      1911
 -1       584    8    0    1
 -2       216       370       371      1908      1912      1910
 -1       585    8    0    1
 -2       218       217       372      1447      1913      1914
 -1       586    8    0    1
 -2       217       371       372      1911      1915      1913
 -1       587    8    0    1
 -2       219       218       373      1450      1916      1917
 -1       588    8    0    1
 -2       218       372       373      1914      1918      1916
 -1       589    8    0    1
 -2       220       219       374      1453      1919      1920
 -1       590    8    0    1
 -2       219       373       374      1917      1921      1919
 -1       591    8    0    1
 -2       221       220       375      1456      1922      1923
 -1       592    8    0    1
 -2       220       374       375      1920      1924      1922
 -1       593    8    0    1
 -2       222       221       376      1459      1925      1926
 -1       594    8    0    1
 -2       221       375       376      1923      1927      1925
 -1       595    8    0    1
 -2       223       222       377      1462      1928      1929
 -1       596    8    0    1
 -2       222       376       377      1926      1930      1928
 -1       597    8    0    1
 -2       224       223       378      1465      1931      1932
 -1       598    8    0    1
 -2       223       377       378      1929      1933      1931
 -1       599    8    0    1
 -2       225       224       379      1468      1934      1935
 -1       600    8    0    1
 -2       224       378       379      1932      1936      1934
 -1       601    8    0    1
 -2       226       225       380      1471      1937      1938
 -1       602    8    0    1
 -2       225       379       380      1935      1939      1937
 -1       603    8    0    1
 -2       227       226       381      1474      1940      1941
 -1       604    8    0    1
 -2       226       380       381      1938      1942      1940
 -1       605    8    0    1
 -2       228       227       382      1477      1943      1944
 -1       606    8    0    1
 -2       291       228       382      1669      1944      1945
 -1       607    8    0    1
 -2       227       381       382      1941      1946      1943
 -1       608    8    0    1
 -2       230       231       383      1488      1947      1948
 -1       609    8    0    1
 -2       230       383       336      1948      1949      1805
 -1       610    8    0    1
 -2       231       232       384      1491      1950      1951
 -1       611    8    0    1
 -2       231       384       383      1951      1952      1947
 -1       612    8    0    1
 -2       232       233       385      1494      1953      1954
 -1       613    8    0    1
 -2       232       385       384      1954      1955      1950
 -1       614    8    0    1
 -2       233       234       386      1497      1956      1957
 -1       615    8    0    1
 -2       233       386       385      1957      1958      1953
 -1       616    8    0    1
 -2       234       235       387      1500      1959      1960
 -1       617    8    0    1
 -2       234       387       386      1960      1961      1956
 -1       618    8    0    1
 -2       235       236       388      1503      1962      1963
 -1       619    8    0    1
 -2       235       388       387      1963      1964      1959
 -1       620    8    0    1
 -2       236       237       389      1506      1965      1966
 -1       621    8    0    1
 -2       236       389       388      1966      1967      1962
 -1       622    8    0    1
 -2       237       238       390      1509      1968      1969
 -1       623    8    0    1
 -2       237       390       389      1969      1970      1965
 -1       624    8    0    1
 -2       238       239       391      1512      1971      1972
 -1       625    8    0    1
 -2       238       391       390      1972      1973      1968
 -1       626    8    0    1
 -2       239       240       392      1515      1974      1975
 -1       627    8    0    1
 -2       239       392       391      1975      1976      1971
 -1       628    8    0    1
 -2       240       241       393      1518      1977      1978
 -1       629    8    0    1
 -2       240       393       392      1978      1979      1974
 -1       630    8    0    1
 -2       241       242       394      1521      1980      1981
 -1       631    8    0    1
 -2       241       394       393      1981      1982      1977
 -1       632    8    0    1
 -2       242       243       395      1524      1983      1984
 -1       633    8    0    1
 -2       242       395       394      1984      1985      1980
 -1       634    8    0    1
 -2       243       244       396      1527      1986      1987
 -1       635    8    0    1
 -2       243       396       395      1987      1988      1983
 -1       636    8    0    1
 -2       244       245       397      1530      1989      1990
 -1       637    8    0    1
 -2       244       397       396      1990      1991      1986
 -1       638    8    0    1
 -2       245       246       398      1533      1992      1993
 -1       639    8    0    1
 -2       245       398       397      1993      1994      1989
 -1       640    8    0    1
 -2       246       247       399      1536      1995      1996
 -1       641    8    0    1
 -2       246       399       398      1996      1997      1992
 -1       642    8    0    1
 -2       247       248       400      1539      1998      1999
 -1       643    8    0    1
 -2       247       400       399      1999      2000      1995
 -1       644    8    0    1
 -2       248       249       401      1542      2001      2002
 -1       645    8    0    1
 -2       248       401       400      2002      2003      1998
 -1       646    8    0    1
 -2       249       250       402      1545      2004      2005
 -1       647    8    0    1
 -2       249       402       401      2005      2006      2001
 -1       648    8    0    1
 -2       250       251       403      1548      2007      2008
 -1       649    8    0    1
 -2       250       403       402      2008      2009      2004
 -1       650    8    0    1
 -2       251       252       404      1551      2010      2011
 -1       651    8    0    1
 -2       251       404       403      2011      2012      2007
 -1       652    8    0    1
 -2       252       253       405      1554      2013      2014
 -1       653    8    0    1
 -2       252       405       404      2014      2015      2010
 -1       654    8    0    1
 -2       253       254       406      1557      2016      2017
 -1       655    8    0    1
 -2       253       406       405      2017      2018      2013
 -1       656    8    0    1
 -2       254       255       407      1560      2019      2020
 -1       657    8    0    1
 -2       254       407       406      2020      2021      2016
 -1       658    8    0    1
 -2       255       256       408      1563      2022      2023
 -1       659    8    0    1
 -2       255       408       407      2023      2024      2019
 -1       660    8    0    1
 -2       256       257       409      1566      2025      2026
 -1       661    8    0    1
 -2       256       409       408      2026      2027      2022
 -1       662    8    0    1
 -2       257       258       410      1569      2028      2029
 -1       663    8    0    1
 -2       257       410       409      2029      2030      2025
 -1       664    8    0    1
 -2       258       259       411      1572      2031      2032
 -1       665    8    0    1
 -2       258       411       410      2032      2033      2028
 -1       666    8    0    1
 -2       259       260       412      1575      2034      2035
 -1       667    8    0    1
 -2       259       412       411      2035      2036      2031
 -1       668    8    0    1
 -2       260       261       413      1578      2037      2038
 -1       669    8    0    1
 -2       260       413       412      2038      2039      2034
 -1       670    8    0    1
 -2       261       262       414      1581      2040      2041
 -1       671    8    0    1
 -2       261       414       413      2041      2042      2037
 -1       672    8    0    1
 -2       262       263       415      1584      2043      2044
 -1       673    8    0    1
 -2       262       415       414      2044      2045      2040
 -1       674    8    0    1
 -2       263       264       416      1587      2046      2047
 -1       675    8    0    1
 -2       263       416       415      2047      2048      2043
 -1       676    8    0    1
 -2       264       265       417      1590      2049      2050
 -1       677    8    0    1
 -2       264       417       416      2050      2051      2046
 -1       678    8    0    1
 -2       265       266       418      1593      2052      2053
 -1       679    8    0    1
 -2       265       418       417      2053      2054      2049
 -1       680    8    0    1
 -2       266       267       419      1596      2055      2056
 -1       681    8    0    1
 -2       266       419       418      2056      2057      2052
 -1       682    8    0    1
 -2       267       268       420      1599      2058      2059
 -1       683    8    0    1
 -2       267       420       419      2059      2060      2055
 -1       684    8    0    1
 -2       268       269       421      1602      2061      2062
 -1       685    8    0    1
 -2       268       421       420      2062      2063      2058
 -1       686    8    0    1
 -2       269       270       422      1605      2064      2065
 -1       687    8    0    1
 -2       269       422       421      2065      2066      2061
 -1       688    8    0    1
 -2       270       271       423      1608      2067      2068
 -1       689    8    0    1
 -2       270       423       422      2068      2069      2064
 -1       690    8    0    1
 -2       271       272       424      1611      2070      2071
 -1       691    8    0    1
 -2       271       424       423      2071      2072      2067
 -1       692    8    0    1
 -2       272       273       425      1614      2073      2074
 -1       693    8    0    1
 -2       272       425       424      2074      2075      2070
 -1       694    8    0    1
 -2       273       274       426      1617      2076      2077
 -1       695    8    0    1
 -2       273       426       425      2077      2078      2073
 -1       696    8    0    1
 -2       274       275       427      1620      2079      2080
 -1       697    8    0    1
 -2       274       427       426      2080      2081      2076
 -1       698    8    0    1
 -2       275       276       428      1623      2082      2083
 -1       699    8    0    1
 -2       427       275       428      2079      2083      2084
 -1       700    8    0    1
 -2       276       277       428      1733      2085      2082
 -1       701    8    0    1
 -2       279       280       429      1635      2086      2087
 -1       702    8    0    1
 -2       278       279       430      1632      2088      2089
 -1       703    8    0    1
 -2       279       429       430      2087      2090      2088
 -1       704    8    0    1
 -2       277       278       431      1629      2091      2092
 -1       705    8    0    1
 -2       428       277       431      2085      2092      2093
 -1       706    8    0    1
 -2       278       430       431      2089      2094      2091
 -1       707    8    0    1
 -2       280       281       432      1638      2095      2096
 -1       708    8    0    1
 -2       280       432       429      2096      2097      2086
 -1       709    8    0    1
 -2       281       282       433      1641      2098      2099
 -1       710    8    0    1
 -2       281       433       432      2099      2100      2095
 -1       711    8    0    1
 -2       282       283       434      1644      2101      2102
 -1       712    8    0    1
 -2       282       434       433      2102      2103      2098
 -1       713    8    0    1
 -2       283       284       435      1647      2104      2105
 -1       714    8    0    1
 -2       283       435       434      2105      2106      2101
 -1       715    8    0    1
 -2       284       285       436      1650      2107      2108
 -1       716    8    0    1
 -2       284       436       435      2108      2109      2104
 -1       717    8    0    1
 -2       285       286       437      1653      2110      2111
 -1       718    8    0    1
 -2       285       437       436      2111      2112      2107
 -1       719    8    0    1
 -2       286       287       438      1656      2113      2114
 -1       720    8    0    1
 -2       286       438       437      2114      2115      2110
 -1       721    8    0    1
 -2       287       288       439      1659      2116      2117
 -1       722    8    0    1
 -2       287       439       438      2117      2118      2113
 -1       723    8    0    1
 -2       288       289       440      1662      2119      2120
 -1       724    8    0    1
 -2       288       440       439      2120      2121      2116
 -1       725    8    0    1
 -2       289       290       441      1665      2122      2123
 -1       726    8    0    1
 -2       289       441       440      2123      2124      2119
 -1       727    8    0    1
 -2       293       294       442      1735      2125      2126
 -1       728    8    0    1
 -2       321       292       443      1736      2127      2128
 -1       729    8    0    1
 -2       292       293       444      1734      2129      2130
 -1       730    8    0    1
 -2       292       444       443      2130      2131      2127
 -1       731    8    0    1
 -2       294       295       445      1731      2132      2133
 -1       732    8    0    1
 -2       295       296       446      1730      2134      2135
 -1       733    8    0    1
 -2       167       168       447      1297      2136      2137
 -1       734    8    0    1
 -2       322       167       447      1763      2137      2138
 -1       735    8    0    1
 -2       168       324       447      1769      2139      2136
 -1       736    8    0    1
 -2       297       298       448      1738      2140      2141
 -1       737    8    0    1
 -2       298       299       449      1739      2142      2143
 -1       738    8    0    1
 -2       299       300       450      1740      2144      2145
 -1       739    8    0    1
 -2       300       301       451      1741      2146      2147
 -1       740    8    0    1
 -2       300       451       450      2147      2148      2144
 -1       741    8    0    1
 -2       301       302       452      1742      2149      2150
 -1       742    8    0    1
 -2       302       303       453      1743      2151      2152
 -1       743    8    0    1
 -2       302       453       452      2152      2153      2149
 -1       744    8    0    1
 -2       303       304       454      1744      2154      2155
 -1       745    8    0    1
 -2       304       305       455      1745      2156      2157
 -1       746    8    0    1
 -2       305       306       456      1746      2158      2159
 -1       747    8    0    1
 -2       306       307       457      1747      2160      2161
 -1       748    8    0    1
 -2       307       308       458      1748      2162      2163
 -1       749    8    0    1
 -2       308       309       459      1749      2164      2165
 -1       750    8    0    1
 -2       309       310       460      1750      2166      2167
 -1       751    8    0    1
 -2       310       311       461      1751      2168      2169
 -1       752    8    0    1
 -2       311       312       462      1752      2170      2171
 -1       753    8    0    1
 -2       312       313       463      1753      2172      2173
 -1       754    8    0    1
 -2       313       314       464      1754      2174      2175
 -1       755    8    0    1
 -2       314       315       465      1755      2176      2177
 -1       756    8    0    1
 -2       315       316       466      1756      2178      2179
 -1       757    8    0    1
 -2       315       466       465      2179      2180      2176
 -1       758    8    0    1
 -2       316       317       467      1757      2181      2182
 -1       759    8    0    1
 -2       317       318       468      1758      2183      2184
 -1       760    8    0    1
 -2       318       319       469      1759      2185      2186
 -1       761    8    0    1
 -2       319       320       470      1760      2187      2188
 -1       762    8    0    1
 -2       320       321       471      1761      2189      2190
 -1       763    8    0    1
 -2       320       471       470      2190      2191      2187
 -1       764    8    0    1
 -2       296       297       472      1737      2192      2193
 -1       765    8    0    1
 -2       446       296       472      2134      2193      2194
 -1       766    8    0    1
 -2       181       323       182      1808      2195      1339
 -1       767    8    0    1
 -2       297       448       472      2141      2196      2192
 -1       768    8    0    1
 -2       337       182       323      1809      2195      2197
 -1       769    8    0    1
 -2       444       293       442      2129      2126      2198
 -1       770    8    0    1
 -2       294       445       442      2133      2199      2125
 -1       771    8    0    1
 -2       441       290       291      2122      1668      2200
 -1       772    8    0    1
 -2       321       443       471      2128      2201      2189
 -1       773    8    0    1
 -2       445       295       446      2132      2135      2202
 -1       774    8    0    1
 -2       469       319       470      2185      2188      2203
 -1       775    8    0    1
 -2       468       318       469      2183      2186      2204
 -1       776    8    0    1
 -2       466       316       467      2178      2182      2205
 -1       777    8    0    1
 -2       464       314       465      2174      2177      2206
 -1       778    8    0    1
 -2       463       313       464      2172      2175      2207
 -1       779    8    0    1
 -2       462       312       463      2170      2173      2208
 -1       780    8    0    1
 -2       461       311       462      2168      2171      2209
 -1       781    8    0    1
 -2       460       310       461      2166      2169      2210
 -1       782    8    0    1
 -2       459       309       460      2164      2167      2211
 -1       783    8    0    1
 -2       458       308       459      2162      2165      2212
 -1       784    8    0    1
 -2       457       307       458      2160      2163      2213
 -1       785    8    0    1
 -2       456       306       457      2158      2161      2214
 -1       786    8    0    1
 -2       455       305       456      2156      2159      2215
 -1       787    8    0    1
 -2       453       303       454      2151      2155      2216
 -1       788    8    0    1
 -2       451       301       452      2146      2150      2217
 -1       789    8    0    1
 -2       448       298       449      2140      2143      2218
 -1       790    8    0    1
 -2       449       299       450      2142      2145      2219
 -1       791    8    0    1
 -2       454       304       455      2154      2157      2220
 -1       792    8    0    1
 -2       467       317       468      2181      2184      2221
 -1       793    8    0    1
 -2       336       383       473      1949      2222      2223
 -1       794    8    0    1
 -2       325       326       474      1775      2224      2225
 -1       795    8    0    1
 -2       324       325       475      1772      2226      2227
 -1       796    8    0    1
 -2       325       474       475      2225      2228      2226
 -1       797    8    0    1
 -2       327       328       476      1781      2229      2230
 -1       798    8    0    1
 -2       328       329       477      1784      2231      2232
 -1       799    8    0    1
 -2       328       477       476      2232      2233      2229
 -1       800    8    0    1
 -2       329       330       478      1787      2234      2235
 -1       801    8    0    1
 -2       329       478       477      2235      2236      2231
 -1       802    8    0    1
 -2       330       331       479      1790      2237      2238
 -1       803    8    0    1
 -2       330       479       478      2238      2239      2234
 -1       804    8    0    1
 -2       331       332       480      1793      2240      2241
 -1       805    8    0    1
 -2       331       480       479      2241      2242      2237
 -1       806    8    0    1
 -2       332       333       481      1796      2243      2244
 -1       807    8    0    1
 -2       332       481       480      2244      2245      2240
 -1       808    8    0    1
 -2       383       384       482      1952      2246      2247
 -1       809    8    0    1
 -2       383       482       473      2247      2248      2222
 -1       810    8    0    1
 -2       338       337       483      1813      2249      2250
 -1       811    8    0    1
 -2       472       448       484      2196      2251      2252
 -1       812    8    0    1
 -2       339       338       485      1816      2253      2254
 -1       813    8    0    1
 -2       338       483       485      2250      2255      2253
 -1       814    8    0    1
 -2       340       339       486      1819      2256      2257
 -1       815    8    0    1
 -2       339       485       486      2254      2258      2256
 -1       816    8    0    1
 -2       341       340       487      1822      2259      2260
 -1       817    8    0    1
 -2       340       486       487      2257      2261      2259
 -1       818    8    0    1
 -2       342       341       488      1825      2262      2263
 -1       819    8    0    1
 -2       341       487       488      2260      2264      2262
 -1       820    8    0    1
 -2       343       342       489      1828      2265      2266
 -1       821    8    0    1
 -2       342       488       489      2263      2267      2265
 -1       822    8    0    1
 -2       344       343       490      1831      2268      2269
 -1       823    8    0    1
 -2       343       489       490      2266      2270      2268
 -1       824    8    0    1
 -2       345       344       491      1834      2271      2272
 -1       825    8    0    1
 -2       344       490       491      2269      2273      2271
 -1       826    8    0    1
 -2       346       345       492      1837      2274      2275
 -1       827    8    0    1
 -2       345       491       492      2272      2276      2274
 -1       828    8    0    1
 -2       347       346       493      1840      2277      2278
 -1       829    8    0    1
 -2       346       492       493      2275      2279      2277
 -1       830    8    0    1
 -2       348       347       494      1843      2280      2281
 -1       831    8    0    1
 -2       347       493       494      2278      2282      2280
 -1       832    8    0    1
 -2       349       348       495      1846      2283      2284
 -1       833    8    0    1
 -2       348       494       495      2281      2285      2283
 -1       834    8    0    1
 -2       350       349       496      1849      2286      2287
 -1       835    8    0    1
 -2       349       495       496      2284      2288      2286
 -1       836    8    0    1
 -2       351       350       497      1852      2289      2290
 -1       837    8    0    1
 -2       350       496       497      2287      2291      2289
 -1       838    8    0    1
 -2       352       351       498      1855      2292      2293
 -1       839    8    0    1
 -2       351       497       498      2290      2294      2292
 -1       840    8    0    1
 -2       353       352       499      1858      2295      2296
 -1       841    8    0    1
 -2       352       498       499      2293      2297      2295
 -1       842    8    0    1
 -2       354       353       500      1861      2298      2299
 -1       843    8    0    1
 -2       353       499       500      2296      2300      2298
 -1       844    8    0    1
 -2       355       354       501      1864      2301      2302
 -1       845    8    0    1
 -2       354       500       501      2299      2303      2301
 -1       846    8    0    1
 -2       356       355       502      1867      2304      2305
 -1       847    8    0    1
 -2       355       501       502      2302      2306      2304
 -1       848    8    0    1
 -2       357       356       503      1870      2307      2308
 -1       849    8    0    1
 -2       356       502       503      2305      2309      2307
 -1       850    8    0    1
 -2       358       357       504      1873      2310      2311
 -1       851    8    0    1
 -2       357       503       504      2308      2312      2310
 -1       852    8    0    1
 -2       359       358       505      1876      2313      2314
 -1       853    8    0    1
 -2       358       504       505      2311      2315      2313
 -1       854    8    0    1
 -2       360       359       506      1879      2316      2317
 -1       855    8    0    1
 -2       359       505       506      2314      2318      2316
 -1       856    8    0    1
 -2       361       360       507      1882      2319      2320
 -1       857    8    0    1
 -2       360       506       507      2317      2321      2319
 -1       858    8    0    1
 -2       362       361       508      1885      2322      2323
 -1       859    8    0    1
 -2       361       507       508      2320      2324      2322
 -1       860    8    0    1
 -2       363       362       509      1888      2325      2326
 -1       861    8    0    1
 -2       362       508       509      2323      2327      2325
 -1       862    8    0    1
 -2       364       363       510      1891      2328      2329
 -1       863    8    0    1
 -2       363       509       510      2326      2330      2328
 -1       864    8    0    1
 -2       365       364       511      1894      2331      2332
 -1       865    8    0    1
 -2       364       510       511      2329      2333      2331
 -1       866    8    0    1
 -2       366       365       512      1897      2334      2335
 -1       867    8    0    1
 -2       365       511       512      2332      2336      2334
 -1       868    8    0    1
 -2       367       366       513      1900      2337      2338
 -1       869    8    0    1
 -2       366       512       513      2335      2339      2337
 -1       870    8    0    1
 -2       368       367       514      1903      2340      2341
 -1       871    8    0    1
 -2       367       513       514      2338      2342      2340
 -1       872    8    0    1
 -2       369       368       515      1906      2343      2344
 -1       873    8    0    1
 -2       368       514       515      2341      2345      2343
 -1       874    8    0    1
 -2       370       369       516      1909      2346      2347
 -1       875    8    0    1
 -2       369       515       516      2344      2348      2346
 -1       876    8    0    1
 -2       371       370       517      1912      2349      2350
 -1       877    8    0    1
 -2       370       516       517      2347      2351      2349
 -1       878    8    0    1
 -2       372       371       518      1915      2352      2353
 -1       879    8    0    1
 -2       371       517       518      2350      2354      2352
 -1       880    8    0    1
 -2       373       372       519      1918      2355      2356
 -1       881    8    0    1
 -2       372       518       519      2353      2357      2355
 -1       882    8    0    1
 -2       374       373       520      1921      2358      2359
 -1       883    8    0    1
 -2       373       519       520      2356      2360      2358
 -1       884    8    0    1
 -2       375       374       521      1924      2361      2362
 -1       885    8    0    1
 -2       374       520       521      2359      2363      2361
 -1       886    8    0    1
 -2       376       375       522      1927      2364      2365
 -1       887    8    0    1
 -2       375       521       522      2362      2366      2364
 -1       888    8    0    1
 -2       377       376       523      1930      2367      2368
 -1       889    8    0    1
 -2       376       522       523      2365      2369      2367
 -1       890    8    0    1
 -2       378       377       524      1933      2370      2371
 -1       891    8    0    1
 -2       377       523       524      2368      2372      2370
 -1       892    8    0    1
 -2       379       378       525      1936      2373      2374
 -1       893    8    0    1
 -2       378       524       525      2371      2375      2373
 -1       894    8    0    1
 -2       380       379       526      1939      2376      2377
 -1       895    8    0    1
 -2       379       525       526      2374      2378      2376
 -1       896    8    0    1
 -2       381       380       527      1942      2379      2380
 -1       897    8    0    1
 -2       380       526       527      2377      2381      2379
 -1       898    8    0    1
 -2       385       386       528      1958      2382      2383
 -1       899    8    0    1
 -2       386       387       529      1961      2384      2385
 -1       900    8    0    1
 -2       386       529       528      2385      2386      2382
 -1       901    8    0    1
 -2       387       388       530      1964      2387      2388
 -1       902    8    0    1
 -2       387       530       529      2388      2389      2384
 -1       903    8    0    1
 -2       388       389       531      1967      2390      2391
 -1       904    8    0    1
 -2       388       531       530      2391      2392      2387
 -1       905    8    0    1
 -2       389       390       532      1970      2393      2394
 -1       906    8    0    1
 -2       389       532       531      2394      2395      2390
 -1       907    8    0    1
 -2       390       391       533      1973      2396      2397
 -1       908    8    0    1
 -2       390       533       532      2397      2398      2393
 -1       909    8    0    1
 -2       391       392       534      1976      2399      2400
 -1       910    8    0    1
 -2       391       534       533      2400      2401      2396
 -1       911    8    0    1
 -2       392       393       535      1979      2402      2403
 -1       912    8    0    1
 -2       392       535       534      2403      2404      2399
 -1       913    8    0    1
 -2       393       394       536      1982      2405      2406
 -1       914    8    0    1
 -2       393       536       535      2406      2407      2402
 -1       915    8    0    1
 -2       394       395       537      1985      2408      2409
 -1       916    8    0    1
 -2       394       537       536      2409      2410      2405
 -1       917    8    0    1
 -2       395       396       538      1988      2411      2412
 -1       918    8    0    1
 -2       395       538       537      2412      2413      2408
 -1       919    8    0    1
 -2       396       397       539      1991      2414      2415
 -1       920    8    0    1
 -2       396       539       538      2415      2416      2411
 -1       921    8    0    1
 -2       397       398       540      1994      2417      2418
 -1       922    8    0    1
 -2       397       540       539      2418      2419      2414
 -1       923    8    0    1
 -2       398       399       541      1997      2420      2421
 -1       924    8    0    1
 -2       398       541       540      2421      2422      2417
 -1       925    8    0    1
 -2       399       400       542      2000      2423      2424
 -1       926    8    0    1
 -2       399       542       541      2424      2425      2420
 -1       927    8    0    1
 -2       400       401       543      2003      2426      2427
 -1       928    8    0    1
 -2       400       543       542      2427      2428      2423
 -1       929    8    0    1
 -2       401       402       544      2006      2429      2430
 -1       930    8    0    1
 -2       401       544       543      2430      2431      2426
 -1       931    8    0    1
 -2       402       403       545      2009      2432      2433
 -1       932    8    0    1
 -2       402       545       544      2433      2434      2429
 -1       933    8    0    1
 -2       403       404       546      2012      2435      2436
 -1       934    8    0    1
 -2       403       546       545      2436      2437      2432
 -1       935    8    0    1
 -2       404       405       547      2015      2438      2439
 -1       936    8    0    1
 -2       404       547       546      2439      2440      2435
 -1       937    8    0    1
 -2       405       406       548      2018      2441      2442
 -1       938    8    0    1
 -2       405       548       547      2442      2443      2438
 -1       939    8    0    1
 -2       406       407       549      2021      2444      2445
 -1       940    8    0    1
 -2       406       549       548      2445      2446      2441
 -1       941    8    0    1
 -2       407       408       550      2024      2447      2448
 -1       942    8    0    1
 -2       407       550       549      2448      2449      2444
 -1       943    8    0    1
 -2       408       409       551      2027      2450      2451
 -1       944    8    0    1
 -2       408       551       550      2451      2452      2447
 -1       945    8    0    1
 -2       409       410       552      2030      2453      2454
 -1       946    8    0    1
 -2       409       552       551      2454      2455      2450
 -1       947    8    0    1
 -2       410       411       553      2033      2456      2457
 -1       948    8    0    1
 -2       410       553       552      2457      2458      2453
 -1       949    8    0    1
 -2       411       412       554      2036      2459      2460
 -1       950    8    0    1
 -2       411       554       553      2460      2461      2456
 -1       951    8    0    1
 -2       412       413       555      2039      2462      2463
 -1       952    8    0    1
 -2       412       555       554      2463      2464      2459
 -1       953    8    0    1
 -2       413       414       556      2042      2465      2466
 -1       954    8    0    1
 -2       413       556       555      2466      2467      2462
 -1       955    8    0    1
 -2       414       415       557      2045      2468      2469
 -1       956    8    0    1
 -2       414       557       556      2469      2470      2465
 -1       957    8    0    1
 -2       415       416       558      2048      2471      2472
 -1       958    8    0    1
 -2       415       558       557      2472      2473      2468
 -1       959    8    0    1
 -2       416       417       559      2051      2474      2475
 -1       960    8    0    1
 -2       416       559       558      2475      2476      2471
 -1       961    8    0    1
 -2       417       418       560      2054      2477      2478
 -1       962    8    0    1
 -2       417       560       559      2478      2479      2474
 -1       963    8    0    1
 -2       418       419       561      2057      2480      2481
 -1       964    8    0    1
 -2       418       561       560      2481      2482      2477
 -1       965    8    0    1
 -2       419       420       562      2060      2483      2484
 -1       966    8    0    1
 -2       419       562       561      2484      2485      2480
 -1       967    8    0    1
 -2       420       421       563      2063      2486      2487
 -1       968    8    0    1
 -2       420       563       562      2487      2488      2483
 -1       969    8    0    1
 -2       421       422       564      2066      2489      2490
 -1       970    8    0    1
 -2       421       564       563      2490      2491      2486
 -1       971    8    0    1
 -2       422       423       565      2069      2492      2493
 -1       972    8    0    1
 -2       422       565       564      2493      2494      2489
 -1       973    8    0    1
 -2       423       424       566      2072      2495      2496
 -1       974    8    0    1
 -2       423       566       565      2496      2497      2492
 -1       975    8    0    1
 -2       424       425       567      2075      2498      2499
 -1       976    8    0    1
 -2       424       567       566      2499      2500      2495
 -1       977    8    0    1
 -2       425       426       568      2078      2501      2502
 -1       978    8    0    1
 -2       425       568       567      2502      2503      2498
 -1       979    8    0    1
 -2       426       427       569      2081      2504      2505
 -1       980    8    0    1
 -2       426       569       568      2505      2506      2501
 -1       981    8    0    1
 -2       427       428       431      2084      2093      2507
 -1       982    8    0    1
 -2       432       433       570      2100      2508      2509
 -1       983    8    0    1
 -2       433       434       571      2103      2510      2511
 -1       984    8    0    1
 -2       433       571       570      2511      2512      2508
 -1       985    8    0    1
 -2       430       429       572      2090      2513      2514
 -1       986    8    0    1
 -2       429       432       573      2097      2515      2516
 -1       987    8    0    1
 -2       572       429       573      2513      2516      2517
 -1       988    8    0    1
 -2       432       570       573      2509      2518      2515
 -1       989    8    0    1
 -2       434       435       574      2106      2519      2520
 -1       990    8    0    1
 -2       434       574       571      2520      2521      2510
 -1       991    8    0    1
 -2       435       436       575      2109      2522      2523
 -1       992    8    0    1
 -2       435       575       574      2523      2524      2519
 -1       993    8    0    1
 -2       436       437       576      2112      2525      2526
 -1       994    8    0    1
 -2       436       576       575      2526      2527      2522
 -1       995    8    0    1
 -2       437       438       577      2115      2528      2529
 -1       996    8    0    1
 -2       437       577       576      2529      2530      2525
 -1       997    8    0    1
 -2       438       439       578      2118      2531      2532
 -1       998    8    0    1
 -2       438       578       577      2532      2533      2528
 -1       999    8    0    1
 -2       439       440       579      2121      2534      2535
 -1      1000    8    0    1
 -2       439       579       578      2535      2536      2531
 -1      1001    8    0    1
 -2       440       441       580      2124      2537      2538
 -1      1002    8    0    1
 -2       440       580       579      2538      2539      2534
 -1      1003    8    0    1
 -2       442       445       581      2199      2540      2541
 -1      1004    8    0    1
 -2       441       291       382      2200      1945      2542
 -1      1005    8    0    1
 -2       471       443       582      2201      2543      2544
 -1      1006    8    0    1
 -2       384       385       583      1955      2545      2546
 -1      1007    8    0    1
 -2       385       528       583      2383      2547      2545
 -1      1008    8    0    1
 -2       443       444       584      2131      2548      2549
 -1      1009    8    0    1
 -2       469       470       585      2203      2550      2551
 -1      1010    8    0    1
 -2       445       446       586      2202      2552      2553
 -1      1011    8    0    1
 -2       444       442       587      2198      2554      2555
 -1      1012    8    0    1
 -2       444       587       584      2555      2556      2548
 -1      1013    8    0    1
 -2       464       465       588      2206      2557      2558
 -1      1014    8    0    1
 -2       448       449       589      2218      2559      2560
 -1      1015    8    0    1
 -2       448       589       484      2560      2561      2251
 -1      1016    8    0    1
 -2       326       327       590      1778      2562      2563
 -1      1017    8    0    1
 -2       474       326       590      2224      2563      2564
 -1      1018    8    0    1
 -2       327       476       590      2230      2565      2562
 -1      1019    8    0    1
 -2       449       450       591      2219      2566      2567
 -1      1020    8    0    1
 -2       454       455       592      2220      2568      2569
 -1      1021    8    0    1
 -2       450       451       593      2148      2570      2571
 -1      1022    8    0    1
 -2       451       452       594      2217      2572      2573
 -1      1023    8    0    1
 -2       452       453       595      2153      2574      2575
 -1      1024    8    0    1
 -2       467       468       596      2221      2576      2577
 -1      1025    8    0    1
 -2       453       454       597      2216      2578      2579
 -1      1026    8    0    1
 -2       455       456       598      2215      2580      2581
 -1      1027    8    0    1
 -2       455       598       592      2581      2582      2568
 -1      1028    8    0    1
 -2       456       457       599      2214      2583      2584
 -1      1029    8    0    1
 -2       457       458       600      2213      2585      2586
 -1      1030    8    0    1
 -2       458       459       601      2212      2587      2588
 -1      1031    8    0    1
 -2       459       460       602      2211      2589      2590
 -1      1032    8    0    1
 -2       460       461       603      2210      2591      2592
 -1      1033    8    0    1
 -2       461       462       604      2209      2593      2594
 -1      1034    8    0    1
 -2       462       463       605      2208      2595      2596
 -1      1035    8    0    1
 -2       463       464       606      2207      2597      2598
 -1      1036    8    0    1
 -2       465       466       607      2180      2599      2600
 -1      1037    8    0    1
 -2       466       467       608      2205      2601      2602
 -1      1038    8    0    1
 -2       468       469       609      2204      2603      2604
 -1      1039    8    0    1
 -2       470       471       610      2191      2605      2606
 -1      1040    8    0    1
 -2       337       323       611      2197      2607      2608
 -1      1041    8    0    1
 -2       483       337       611      2249      2608      2609
 -1      1042    8    0    1
 -2       323       322       611      1767      2610      2607
 -1      1043    8    0    1
 -2       335       336       612      1807      2611      2612
 -1      1044    8    0    1
 -2       334       335       612      1802      2612      2613
 -1      1045    8    0    1
 -2       336       473       612      2223      2614      2611
 -1      1046    8    0    1
 -2       446       472       613      2194      2615      2616
 -1      1047    8    0    1
 -2       449       591       614      2567      2617      2618
 -1      1048    8    0    1
 -2       449       614       589      2618      2619      2559
 -1      1049    8    0    1
 -2       324       475       615      2227      2620      2621
 -1      1050    8    0    1
 -2       324       615       447      2621      2622      2139
 -1      1051    8    0    1
 -2       482       384       583      2246      2546      2623
 -1      1052    8    0    1
 -2       333       334       612      1799      2613      2624
 -1      1053    8    0    1
 -2       613       472       484      2615      2252      2625
 -1      1054    8    0    1
 -2       609       469       585      2603      2551      2626
 -1      1055    8    0    1
 -2       608       467       596      2601      2577      2627
 -1      1056    8    0    1
 -2       607       466       608      2599      2602      2628
 -1      1057    8    0    1
 -2       606       464       588      2597      2558      2629
 -1      1058    8    0    1
 -2       471       582       610      2544      2630      2605
 -1      1059    8    0    1
 -2       605       463       606      2595      2598      2631
 -1      1060    8    0    1
 -2       427       431       569      2507      2632      2504
 -1      1061    8    0    1
 -2       431       430       569      2094      2633      2632
 -1      1062    8    0    1
 -2       604       462       605      2593      2596      2634
 -1      1063    8    0    1
 -2       442       581       587      2541      2635      2554
 -1      1064    8    0    1
 -2       581       445       586      2540      2553      2636
 -1      1065    8    0    1
 -2       441       382       616      2542      2637      2638
 -1      1066    8    0    1
 -2       580       441       616      2537      2638      2639
 -1      1067    8    0    1
 -2       382       381       616      1946      2640      2637
 -1      1068    8    0    1
 -2       603       461       604      2591      2594      2641
 -1      1069    8    0    1
 -2       582       443       584      2543      2549      2642
 -1      1070    8    0    1
 -2       333       612       481      2624      2643      2243
 -1      1071    8    0    1
 -2       602       460       603      2589      2592      2644
 -1      1072    8    0    1
 -2       601       459       602      2587      2590      2645
 -1      1073    8    0    1
 -2       611       322       447      2610      2138      2646
 -1      1074    8    0    1
 -2       588       465       607      2557      2600      2647
 -1      1075    8    0    1
 -2       600       458       601      2585      2588      2648
 -1      1076    8    0    1
 -2       598       456       617      2580      2649      2650
 -1      1077    8    0    1
 -2       456       599       617      2584      2651      2649
 -1      1078    8    0    1
 -2       597       454       592      2578      2569      2652
 -1      1079    8    0    1
 -2       596       468       609      2576      2604      2653
 -1      1080    8    0    1
 -2       595       453       597      2574      2579      2654
 -1      1081    8    0    1
 -2       594       452       595      2572      2575      2655
 -1      1082    8    0    1
 -2       593       451       594      2570      2573      2656
 -1      1083    8    0    1
 -2       586       446       613      2552      2616      2657
 -1      1084    8    0    1
 -2       585       470       610      2550      2606      2658
 -1      1085    8    0    1
 -2       450       593       591      2571      2659      2566
 -1      1086    8    0    1
 -2       599       457       600      2583      2586      2660
 -1      1087    8    0    1
 -2       569       430       572      2633      2514      2661
 -1      1088    8    0    1
 -2       616       381       527      2640      2380      2662
 -1      1089    8    0    1
 -2       477       478       618      2236      2663      2664
 -1      1090    8    0    1
 -2       476       477       619      2233      2665      2666
 -1      1091    8    0    1
 -2       477       618       619      2664      2667      2665
 -1      1092    8    0    1
 -2       479       480       620      2242      2668      2669
 -1      1093    8    0    1
 -2       480       481       621      2245      2670      2671
 -1      1094    8    0    1
 -2       480       621       620      2671      2672      2668
 -1      1095    8    0    1
 -2       473       482       622      2248      2673      2674
 -1      1096    8    0    1
 -2       602       603       623      2644      2675      2676
 -1      1097    8    0    1
 -2       482       583       624      2623      2677      2678
 -1      1098    8    0    1
 -2       482       624       622      2678      2679      2673
 -1      1099    8    0    1
 -2       612       473       481      2614      2680      2643
 -1      1100    8    0    1
 -2       609       585       625      2626      2681      2682
 -1      1101    8    0    1
 -2       486       485       626      2258      2683      2684
 -1      1102    8    0    1
 -2       487       486       627      2261      2685      2686
 -1      1103    8    0    1
 -2       486       626       627      2684      2687      2685
 -1      1104    8    0    1
 -2       488       487       628      2264      2688      2689
 -1      1105    8    0    1
 -2       487       627       628      2686      2690      2688
 -1      1106    8    0    1
 -2       489       488       629      2267      2691      2692
 -1      1107    8    0    1
 -2       488       628       629      2689      2693      2691
 -1      1108    8    0    1
 -2       490       489       630      2270      2694      2695
 -1      1109    8    0    1
 -2       489       629       630      2692      2696      2694
 -1      1110    8    0    1
 -2       491       490       631      2273      2697      2698
 -1      1111    8    0    1
 -2       490       630       631      2695      2699      2697
 -1      1112    8    0    1
 -2       492       491       632      2276      2700      2701
 -1      1113    8    0    1
 -2       491       631       632      2698      2702      2700
 -1      1114    8    0    1
 -2       493       492       633      2279      2703      2704
 -1      1115    8    0    1
 -2       492       632       633      2701      2705      2703
 -1      1116    8    0    1
 -2       494       493       634      2282      2706      2707
 -1      1117    8    0    1
 -2       493       633       634      2704      2708      2706
 -1      1118    8    0    1
 -2       495       494       635      2285      2709      2710
 -1      1119    8    0    1
 -2       494       634       635      2707      2711      2709
 -1      1120    8    0    1
 -2       496       495       636      2288      2712      2713
 -1      1121    8    0    1
 -2       495       635       636      2710      2714      2712
 -1      1122    8    0    1
 -2       497       496       637      2291      2715      2716
 -1      1123    8    0    1
 -2       496       636       637      2713      2717      2715
 -1      1124    8    0    1
 -2       498       497       638      2294      2718      2719
 -1      1125    8    0    1
 -2       497       637       638      2716      2720      2718
 -1      1126    8    0    1
 -2       499       498       639      2297      2721      2722
 -1      1127    8    0    1
 -2       498       638       639      2719      2723      2721
 -1      1128    8    0    1
 -2       500       499       640      2300      2724      2725
 -1      1129    8    0    1
 -2       499       639       640      2722      2726      2724
 -1      1130    8    0    1
 -2       501       500       641      2303      2727      2728
 -1      1131    8    0    1
 -2       500       640       641      2725      2729      2727
 -1      1132    8    0    1
 -2       502       501       642      2306      2730      2731
 -1      1133    8    0    1
 -2       501       641       642      2728      2732      2730
 -1      1134    8    0    1
 -2       503       502       643      2309      2733      2734
 -1      1135    8    0    1
 -2       502       642       643      2731      2735      2733
 -1      1136    8    0    1
 -2       504       503       644      2312      2736      2737
 -1      1137    8    0    1
 -2       503       643       644      2734      2738      2736
 -1      1138    8    0    1
 -2       505       504       645      2315      2739      2740
 -1      1139    8    0    1
 -2       504       644       645      2737      2741      2739
 -1      1140    8    0    1
 -2       506       505       646      2318      2742      2743
 -1      1141    8    0    1
 -2       505       645       646      2740      2744      2742
 -1      1142    8    0    1
 -2       507       506       647      2321      2745      2746
 -1      1143    8    0    1
 -2       506       646       647      2743      2747      2745
 -1      1144    8    0    1
 -2       508       507       648      2324      2748      2749
 -1      1145    8    0    1
 -2       507       647       648      2746      2750      2748
 -1      1146    8    0    1
 -2       509       508       649      2327      2751      2752
 -1      1147    8    0    1
 -2       508       648       649      2749      2753      2751
 -1      1148    8    0    1
 -2       510       509       650      2330      2754      2755
 -1      1149    8    0    1
 -2       509       649       650      2752      2756      2754
 -1      1150    8    0    1
 -2       511       510       651      2333      2757      2758
 -1      1151    8    0    1
 -2       510       650       651      2755      2759      2757
 -1      1152    8    0    1
 -2       512       511       652      2336      2760      2761
 -1      1153    8    0    1
 -2       511       651       652      2758      2762      2760
 -1      1154    8    0    1
 -2       513       512       653      2339      2763      2764
 -1      1155    8    0    1
 -2       512       652       653      2761      2765      2763
 -1      1156    8    0    1
 -2       514       513       654      2342      2766      2767
 -1      1157    8    0    1
 -2       513       653       654      2764      2768      2766
 -1      1158    8    0    1
 -2       515       514       655      2345      2769      2770
 -1      1159    8    0    1
 -2       514       654       655      2767      2771      2769
 -1      1160    8    0    1
 -2       516       515       656      2348      2772      2773
 -1      1161    8    0    1
 -2       515       655       656      2770      2774      2772
 -1      1162    8    0    1
 -2       517       516       657      2351      2775      2776
 -1      1163    8    0    1
 -2       516       656       657      2773      2777      2775
 -1      1164    8    0    1
 -2       518       517       658      2354      2778      2779
 -1      1165    8    0    1
 -2       517       657       658      2776      2780      2778
 -1      1166    8    0    1
 -2       519       518       659      2357      2781      2782
 -1      1167    8    0    1
 -2       518       658       659      2779      2783      2781
 -1      1168    8    0    1
 -2       520       519       660      2360      2784      2785
 -1      1169    8    0    1
 -2       519       659       660      2782      2786      2784
 -1      1170    8    0    1
 -2       521       520       661      2363      2787      2788
 -1      1171    8    0    1
 -2       520       660       661      2785      2789      2787
 -1      1172    8    0    1
 -2       522       521       662      2366      2790      2791
 -1      1173    8    0    1
 -2       521       661       662      2788      2792      2790
 -1      1174    8    0    1
 -2       523       522       663      2369      2793      2794
 -1      1175    8    0    1
 -2       522       662       663      2791      2795      2793
 -1      1176    8    0    1
 -2       524       523       664      2372      2796      2797
 -1      1177    8    0    1
 -2       523       663       664      2794      2798      2796
 -1      1178    8    0    1
 -2       525       524       665      2375      2799      2800
 -1      1179    8    0    1
 -2       524       664       665      2797      2801      2799
 -1      1180    8    0    1
 -2       526       525       666      2378      2802      2803
 -1      1181    8    0    1
 -2       525       665       666      2800      2804      2802
 -1      1182    8    0    1
 -2       527       526       667      2381      2805      2806
 -1      1183    8    0    1
 -2       526       666       667      2803      2807      2805
 -1      1184    8    0    1
 -2       529       530       668      2389      2808      2809
 -1      1185    8    0    1
 -2       603       604       669      2641      2810      2811
 -1      1186    8    0    1
 -2       528       529       670      2386      2812      2813
 -1      1187    8    0    1
 -2       529       668       670      2809      2814      2812
 -1      1188    8    0    1
 -2       531       532       671      2395      2815      2816
 -1      1189    8    0    1
 -2       532       533       672      2398      2817      2818
 -1      1190    8    0    1
 -2       532       672       671      2818      2819      2815
 -1      1191    8    0    1
 -2       533       534       673      2401      2820      2821
 -1      1192    8    0    1
 -2       533       673       672      2821      2822      2817
 -1      1193    8    0    1
 -2       534       535       674      2404      2823      2824
 -1      1194    8    0    1
 -2       534       674       673      2824      2825      2820
 -1      1195    8    0    1
 -2       535       536       675      2407      2826      2827
 -1      1196    8    0    1
 -2       535       675       674      2827      2828      2823
 -1      1197    8    0    1
 -2       536       537       676      2410      2829      2830
 -1      1198    8    0    1
 -2       536       676       675      2830      2831      2826
 -1      1199    8    0    1
 -2       537       538       677      2413      2832      2833
 -1      1200    8    0    1
 -2       537       677       676      2833      2834      2829
 -1      1201    8    0    1
 -2       538       539       678      2416      2835      2836
 -1      1202    8    0    1
 -2       538       678       677      2836      2837      2832
 -1      1203    8    0    1
 -2       539       540       679      2419      2838      2839
 -1      1204    8    0    1
 -2       539       679       678      2839      2840      2835
 -1      1205    8    0    1
 -2       540       541       680      2422      2841      2842
 -1      1206    8    0    1
 -2       540       680       679      2842      2843      2838
 -1      1207    8    0    1
 -2       541       542       681      2425      2844      2845
 -1      1208    8    0    1
 -2       541       681       680      2845      2846      2841
 -1      1209    8    0    1
 -2       542       543       682      2428      2847      2848
 -1      1210    8    0    1
 -2       542       682       681      2848      2849      2844
 -1      1211    8    0    1
 -2       543       544       683      2431      2850      2851
 -1      1212    8    0    1
 -2       543       683       682      2851      2852      2847
 -1      1213    8    0    1
 -2       544       545       684      2434      2853      2854
 -1      1214    8    0    1
 -2       544       684       683      2854      2855      2850
 -1      1215    8    0    1
 -2       545       546       685      2437      2856      2857
 -1      1216    8    0    1
 -2       545       685       684      2857      2858      2853
 -1      1217    8    0    1
 -2       546       547       593      2440      2859      2860
 -1      1218    8    0    1
 -2       547       548       614      2443      2861      2862
 -1      1219    8    0    1
 -2       548       549       614      2446      2863      2861
 -1      1220    8    0    1
 -2       549       550       686      2449      2864      2865
 -1      1221    8    0    1
 -2       550       551       687      2452      2866      2867
 -1      1222    8    0    1
 -2       550       687       686      2867      2868      2864
 -1      1223    8    0    1
 -2       551       552       688      2455      2869      2870
 -1      1224    8    0    1
 -2       551       688       687      2870      2871      2866
 -1      1225    8    0    1
 -2       552       553       689      2458      2872      2873
 -1      1226    8    0    1
 -2       552       689       688      2873      2874      2869
 -1      1227    8    0    1
 -2       553       554       690      2461      2875      2876
 -1      1228    8    0    1
 -2       553       690       689      2876      2877      2872
 -1      1229    8    0    1
 -2       554       555       691      2464      2878      2879
 -1      1230    8    0    1
 -2       554       691       690      2879      2880      2875
 -1      1231    8    0    1
 -2       555       556       692      2467      2881      2882
 -1      1232    8    0    1
 -2       555       692       691      2882      2883      2878
 -1      1233    8    0    1
 -2       556       557       693      2470      2884      2885
 -1      1234    8    0    1
 -2       556       693       692      2885      2886      2881
 -1      1235    8    0    1
 -2       557       558       694      2473      2887      2888
 -1      1236    8    0    1
 -2       557       694       693      2888      2889      2884
 -1      1237    8    0    1
 -2       558       559       695      2476      2890      2891
 -1      1238    8    0    1
 -2       558       695       694      2891      2892      2887
 -1      1239    8    0    1
 -2       559       560       696      2479      2893      2894
 -1      1240    8    0    1
 -2       559       696       695      2894      2895      2890
 -1      1241    8    0    1
 -2       560       561       697      2482      2896      2897
 -1      1242    8    0    1
 -2       560       697       696      2897      2898      2893
 -1      1243    8    0    1
 -2       561       562       698      2485      2899      2900
 -1      1244    8    0    1
 -2       561       698       697      2900      2901      2896
 -1      1245    8    0    1
 -2       562       563       699      2488      2902      2903
 -1      1246    8    0    1
 -2       562       699       698      2903      2904      2899
 -1      1247    8    0    1
 -2       563       564       700      2491      2905      2906
 -1      1248    8    0    1
 -2       563       700       699      2906      2907      2902
 -1      1249    8    0    1
 -2       564       565       701      2494      2908      2909
 -1      1250    8    0    1
 -2       564       701       700      2909      2910      2905
 -1      1251    8    0    1
 -2       565       566       702      2497      2911      2912
 -1      1252    8    0    1
 -2       565       702       701      2912      2913      2908
 -1      1253    8    0    1
 -2       566       567       703      2500      2914      2915
 -1      1254    8    0    1
 -2       566       703       702      2915      2916      2911
 -1      1255    8    0    1
 -2       567       568       704      2503      2917      2918
 -1      1256    8    0    1
 -2       567       704       703      2918      2919      2914
 -1      1257    8    0    1
 -2       568       569       705      2506      2920      2921
 -1      1258    8    0    1
 -2       704       568       705      2917      2921      2922
 -1      1259    8    0    1
 -2       569       572       705      2661      2923      2920
 -1      1260    8    0    1
 -2       574       575       706      2524      2924      2925
 -1      1261    8    0    1
 -2       616       527       707      2662      2926      2927
 -1      1262    8    0    1
 -2       527       667       707      2806      2928      2926
 -1      1263    8    0    1
 -2       570       571       708      2512      2929      2930
 -1      1264    8    0    1
 -2       575       576       709      2527      2931      2932
 -1      1265    8    0    1
 -2       575       709       706      2932      2933      2924
 -1      1266    8    0    1
 -2       571       574       710      2521      2934      2935
 -1      1267    8    0    1
 -2       708       571       710      2929      2935      2936
 -1      1268    8    0    1
 -2       574       706       710      2925      2937      2934
 -1      1269    8    0    1
 -2       583       528       711      2547      2938      2939
 -1      1270    8    0    1
 -2       624       583       711      2677      2939      2940
 -1      1271    8    0    1
 -2       528       670       711      2813      2941      2938
 -1      1272    8    0    1
 -2       576       577       712      2530      2942      2943
 -1      1273    8    0    1
 -2       576       712       709      2943      2944      2931
 -1      1274    8    0    1
 -2       577       578       713      2533      2945      2946
 -1      1275    8    0    1
 -2       577       713       712      2946      2947      2942
 -1      1276    8    0    1
 -2       578       579       714      2536      2948      2949
 -1      1277    8    0    1
 -2       578       714       713      2949      2950      2945
 -1      1278    8    0    1
 -2       610       582       715      2630      2951      2952
 -1      1279    8    0    1
 -2       608       596       716      2627      2953      2954
 -1      1280    8    0    1
 -2       580       616       707      2639      2927      2955
 -1      1281    8    0    1
 -2       605       606       717      2631      2956      2957
 -1      1282    8    0    1
 -2       584       587       718      2556      2958      2959
 -1      1283    8    0    1
 -2       484       589       719      2561      2960      2961
 -1      1284    8    0    1
 -2       581       586       720      2636      2962      2963
 -1      1285    8    0    1
 -2       530       531       721      2392      2964      2965
 -1      1286    8    0    1
 -2       668       530       721      2808      2965      2966
 -1      1287    8    0    1
 -2       531       671       721      2816      2967      2964
 -1      1288    8    0    1
 -2       485       483       722      2255      2968      2969
 -1      1289    8    0    1
 -2       485       722       626      2969      2970      2683
 -1      1290    8    0    1
 -2       597       592       723      2652      2971      2972
 -1      1291    8    0    1
 -2       613       484       724      2625      2973      2974
 -1      1292    8    0    1
 -2       588       607       725      2647      2975      2976
 -1      1293    8    0    1
 -2       478       479       726      2239      2977      2978
 -1      1294    8    0    1
 -2       618       478       726      2663      2978      2979
 -1      1295    8    0    1
 -2       479       620       726      2669      2980      2977
 -1      1296    8    0    1
 -2       475       474       727      2228      2981      2982
 -1      1297    8    0    1
 -2       596       609       728      2653      2983      2984
 -1      1298    8    0    1
 -2       586       613       729      2657      2985      2986
 -1      1299    8    0    1
 -2       607       608       730      2628      2987      2988
 -1      1300    8    0    1
 -2       599       600       731      2660      2989      2990
 -1      1301    8    0    1
 -2       594       595       732      2655      2991      2992
 -1      1302    8    0    1
 -2       592       598       733      2582      2993      2994
 -1      1303    8    0    1
 -2       592       733       723      2994      2995      2971
 -1      1304    8    0    1
 -2       611       447       615      2646      2622      2996
 -1      1305    8    0    1
 -2       601       602       734      2645      2997      2998
 -1      1306    8    0    1
 -2       602       623       734      2676      2999      2997
 -1      1307    8    0    1
 -2       582       584       735      2642      3000      3001
 -1      1308    8    0    1
 -2       587       581       736      2635      3002      3003
 -1      1309    8    0    1
 -2       581       720       736      2963      3004      3002
 -1      1310    8    0    1
 -2       604       605       737      2634      3005      3006
 -1      1311    8    0    1
 -2       600       601       738      2648      3007      3008
 -1      1312    8    0    1
 -2       606       588       739      2629      3009      3010
 -1      1313    8    0    1
 -2       585       610       740      2658      3011      3012
 -1      1314    8    0    1
 -2       585       740       625      3012      3013      2681
 -1      1315    8    0    1
 -2       595       597       741      2654      3014      3015
 -1      1316    8    0    1
 -2       615       475       742      2620      3016      3017
 -1      1317    8    0    1
 -2       475       727       742      2982      3018      3016
 -1      1318    8    0    1
 -2       476       619       743      2666      3019      3020
 -1      1319    8    0    1
 -2       476       743       590      3020      3021      2565
 -1      1320    8    0    1
 -2       481       473       622      2680      2674      3022
 -1      1321    8    0    1
 -2       582       735       715      3001      3023      2951
 -1      1322    8    0    1
 -2       597       723       741      2972      3024      3014
 -1      1323    8    0    1
 -2       595       741       732      3015      3025      2991
 -1      1324    8    0    1
 -2       570       708       744      2930      3026      3027
 -1      1325    8    0    1
 -2       570       744       573      3027      3028      2518
 -1      1326    8    0    1
 -2       603       669       623      2811      3029      2675
 -1      1327    8    0    1
 -2       546       593       685      2860      3030      2856
 -1      1328    8    0    1
 -2       593       547       745      2859      3031      3032
 -1      1329    8    0    1
 -2       740       610       715      3011      2952      3033
 -1      1330    8    0    1
 -2       605       717       737      2957      3034      3005
 -1      1331    8    0    1
 -2       572       573       746      2517      3035      3036
 -1      1332    8    0    1
 -2       705       572       746      2923      3036      3037
 -1      1333    8    0    1
 -2       573       744       746      3028      3038      3035
 -1      1334    8    0    1
 -2       718       587       736      2958      3003      3039
 -1      1335    8    0    1
 -2       716       596       728      2953      2984      3040
 -1      1336    8    0    1
 -2       739       588       725      3009      2976      3041
 -1      1337    8    0    1
 -2       738       601       734      3007      2998      3042
 -1      1338    8    0    1
 -2       579       580       707      2539      2955      3043
 -1      1339    8    0    1
 -2       733       598       747      2993      3044      3045
 -1      1340    8    0    1
 -2       598       617       747      2650      3046      3044
 -1      1341    8    0    1
 -2       731       600       738      2989      3008      3047
 -1      1342    8    0    1
 -2       730       608       716      2987      2954      3048
 -1      1343    8    0    1
 -2       729       613       724      2985      2974      3049
 -1      1344    8    0    1
 -2       725       607       730      2975      2988      3050
 -1      1345    8    0    1
 -2       717       606       739      2956      3010      3051
 -1      1346    8    0    1
 -2       720       586       729      2962      2986      3052
 -1      1347    8    0    1
 -2       584       718       735      2959      3053      3000
 -1      1348    8    0    1
 -2       484       719       724      2961      3054      2973
 -1      1349    8    0    1
 -2       719       589       614      2960      2619      3055
 -1      1350    8    0    1
 -2       617       599       748      2651      3056      3057
 -1      1351    8    0    1
 -2       599       731       748      2990      3058      3056
 -1      1352    8    0    1
 -2       604       737       669      3006      3059      2810
 -1      1353    8    0    1
 -2       579       707       749      3043      3060      3061
 -1      1354    8    0    1
 -2       714       579       749      2948      3061      3062
 -1      1355    8    0    1
 -2       707       667       749      2928      3063      3060
 -1      1356    8    0    1
 -2       611       615       750      2996      3064      3065
 -1      1357    8    0    1
 -2       483       611       750      2609      3065      3066
 -1      1358    8    0    1
 -2       615       742       750      3017      3067      3064
 -1      1359    8    0    1
 -2       474       590       751      2564      3068      3069
 -1      1360    8    0    1
 -2       727       474       751      2981      3069      3070
 -1      1361    8    0    1
 -2       590       743       751      3021      3071      3068
 -1      1362    8    0    1
 -2       481       622       621      3022      3072      2670
 -1      1363    8    0    1
 -2       728       609       625      2983      2682      3073
 -1      1364    8    0    1
 -2       593       594       685      2656      3074      3030
 -1      1365    8    0    1
 -2       483       750       722      3066      3075      2968
 -1      1366    8    0    1
 -2       715       735       752      3023      3076      3077
 -1      1367    8    0    1
 -2       620       621       753      2672      3078      3079
 -1      1368    8    0    1
 -2       626       722       754      2970      3080      3081
 -1      1369    8    0    1
 -2       621       622       755      3072      3082      3083
 -1      1370    8    0    1
 -2       753       621       755      3078      3083      3084
 -1      1371    8    0    1
 -2       622       624       755      2679      3085      3082
 -1      1372    8    0    1
 -2       628       627       756      2690      3086      3087
 -1      1373    8    0    1
 -2       629       628       757      2693      3088      3089
 -1      1374    8    0    1
 -2       628       756       757      3087      3090      3088
 -1      1375    8    0    1
 -2       630       629       758      2696      3091      3092
 -1      1376    8    0    1
 -2       629       757       758      3089      3093      3091
 -1      1377    8    0    1
 -2       631       630       759      2699      3094      3095
 -1      1378    8    0    1
 -2       630       758       759      3092      3096      3094
 -1      1379    8    0    1
 -2       632       631       760      2702      3097      3098
 -1      1380    8    0    1
 -2       631       759       760      3095      3099      3097
 -1      1381    8    0    1
 -2       633       632       761      2705      3100      3101
 -1      1382    8    0    1
 -2       632       760       761      3098      3102      3100
 -1      1383    8    0    1
 -2       634       633       762      2708      3103      3104
 -1      1384    8    0    1
 -2       633       761       762      3101      3105      3103
 -1      1385    8    0    1
 -2       635       634       763      2711      3106      3107
 -1      1386    8    0    1
 -2       634       762       763      3104      3108      3106
 -1      1387    8    0    1
 -2       636       635       764      2714      3109      3110
 -1      1388    8    0    1
 -2       635       763       764      3107      3111      3109
 -1      1389    8    0    1
 -2       637       636       765      2717      3112      3113
 -1      1390    8    0    1
 -2       636       764       765      3110      3114      3112
 -1      1391    8    0    1
 -2       638       637       766      2720      3115      3116
 -1      1392    8    0    1
 -2       637       765       766      3113      3117      3115
 -1      1393    8    0    1
 -2       639       638       767      2723      3118      3119
 -1      1394    8    0    1
 -2       638       766       767      3116      3120      3118
 -1      1395    8    0    1
 -2       640       639       768      2726      3121      3122
 -1      1396    8    0    1
 -2       639       767       768      3119      3123      3121
 -1      1397    8    0    1
 -2       641       640       769      2729      3124      3125
 -1      1398    8    0    1
 -2       640       768       769      3122      3126      3124
 -1      1399    8    0    1
 -2       642       641       770      2732      3127      3128
 -1      1400    8    0    1
 -2       641       769       770      3125      3129      3127
 -1      1401    8    0    1
 -2       643       642       771      2735      3130      3131
 -1      1402    8    0    1
 -2       642       770       771      3128      3132      3130
 -1      1403    8    0    1
 -2       644       643       772      2738      3133      3134
 -1      1404    8    0    1
 -2       643       771       772      3131      3135      3133
 -1      1405    8    0    1
 -2       646       645       773      2744      3136      3137
 -1      1406    8    0    1
 -2       647       646       725      2747      3138      3139
 -1      1407    8    0    1
 -2       649       648       774      2753      3140      3141
 -1      1408    8    0    1
 -2       650       649       775      2756      3142      3143
 -1      1409    8    0    1
 -2       649       774       775      3141      3144      3142
 -1      1410    8    0    1
 -2       651       650       776      2759      3145      3146
 -1      1411    8    0    1
 -2       650       775       776      3143      3147      3145
 -1      1412    8    0    1
 -2       652       651       777      2762      3148      3149
 -1      1413    8    0    1
 -2       651       776       777      3146      3150      3148
 -1      1414    8    0    1
 -2       653       652       778      2765      3151      3152
 -1      1415    8    0    1
 -2       652       777       778      3149      3153      3151
 -1      1416    8    0    1
 -2       654       653       779      2768      3154      3155
 -1      1417    8    0    1
 -2       653       778       779      3152      3156      3154
 -1      1418    8    0    1
 -2       655       654       780      2771      3157      3158
 -1      1419    8    0    1
 -2       654       779       780      3155      3159      3157
 -1      1420    8    0    1
 -2       656       655       781      2774      3160      3161
 -1      1421    8    0    1
 -2       655       780       781      3158      3162      3160
 -1      1422    8    0    1
 -2       657       656       782      2777      3163      3164
 -1      1423    8    0    1
 -2       656       781       782      3161      3165      3163
 -1      1424    8    0    1
 -2       658       657       783      2780      3166      3167
 -1      1425    8    0    1
 -2       657       782       783      3164      3168      3166
 -1      1426    8    0    1
 -2       659       658       784      2783      3169      3170
 -1      1427    8    0    1
 -2       658       783       784      3167      3171      3169
 -1      1428    8    0    1
 -2       660       659       785      2786      3172      3173
 -1      1429    8    0    1
 -2       659       784       785      3170      3174      3172
 -1      1430    8    0    1
 -2       661       660       786      2789      3175      3176
 -1      1431    8    0    1
 -2       660       785       786      3173      3177      3175
 -1      1432    8    0    1
 -2       662       661       787      2792      3178      3179
 -1      1433    8    0    1
 -2       661       786       787      3176      3180      3178
 -1      1434    8    0    1
 -2       663       662       788      2795      3181      3182
 -1      1435    8    0    1
 -2       662       787       788      3179      3183      3181
 -1      1436    8    0    1
 -2       664       663       789      2798      3184      3185
 -1      1437    8    0    1
 -2       663       788       789      3182      3186      3184
 -1      1438    8    0    1
 -2       665       664       790      2801      3187      3188
 -1      1439    8    0    1
 -2       664       789       790      3185      3189      3187
 -1      1440    8    0    1
 -2       666       665       791      2804      3190      3191
 -1      1441    8    0    1
 -2       665       790       791      3188      3192      3190
 -1      1442    8    0    1
 -2       667       666       792      2807      3193      3194
 -1      1443    8    0    1
 -2       749       667       792      3063      3194      3195
 -1      1444    8    0    1
 -2       666       791       792      3191      3196      3193
 -1      1445    8    0    1
 -2       709       712       793      2944      3197      3198
 -1      1446    8    0    1
 -2       672       673       794      2822      3199      3200
 -1      1447    8    0    1
 -2       671       672       795      2819      3201      3202
 -1      1448    8    0    1
 -2       672       794       795      3200      3203      3201
 -1      1449    8    0    1
 -2       674       675       796      2828      3204      3205
 -1      1450    8    0    1
 -2       675       676       797      2831      3206      3207
 -1      1451    8    0    1
 -2       675       797       796      3207      3208      3204
 -1      1452    8    0    1
 -2       676       677       798      2834      3209      3210
 -1      1453    8    0    1
 -2       676       798       797      3210      3211      3206
 -1      1454    8    0    1
 -2       677       678       799      2837      3212      3213
 -1      1455    8    0    1
 -2       677       799       798      3213      3214      3209
 -1      1456    8    0    1
 -2       678       679       800      2840      3215      3216
 -1      1457    8    0    1
 -2       678       800       799      3216      3217      3212
 -1      1458    8    0    1
 -2       679       680       801      2843      3218      3219
 -1      1459    8    0    1
 -2       679       801       800      3219      3220      3215
 -1      1460    8    0    1
 -2       680       681       802      2846      3221      3222
 -1      1461    8    0    1
 -2       680       802       801      3222      3223      3218
 -1      1462    8    0    1
 -2       681       682       803      2849      3224      3225
 -1      1463    8    0    1
 -2       681       803       802      3225      3226      3221
 -1      1464    8    0    1
 -2       682       683       804      2852      3227      3228
 -1      1465    8    0    1
 -2       682       804       803      3228      3229      3224
 -1      1466    8    0    1
 -2       740       715       805      3033      3230      3231
 -1      1467    8    0    1
 -2       614       549       686      2863      2865      3232
 -1      1468    8    0    1
 -2       687       688       806      2871      3233      3234
 -1      1469    8    0    1
 -2       689       690       807      2877      3235      3236
 -1      1470    8    0    1
 -2       690       691       808      2880      3237      3238
 -1      1471    8    0    1
 -2       690       808       807      3238      3239      3235
 -1      1472    8    0    1
 -2       691       692       809      2883      3240      3241
 -1      1473    8    0    1
 -2       691       809       808      3241      3242      3237
 -1      1474    8    0    1
 -2       692       693       810      2886      3243      3244
 -1      1475    8    0    1
 -2       692       810       809      3244      3245      3240
 -1      1476    8    0    1
 -2       693       694       811      2889      3246      3247
 -1      1477    8    0    1
 -2       693       811       810      3247      3248      3243
 -1      1478    8    0    1
 -2       694       695       812      2892      3249      3250
 -1      1479    8    0    1
 -2       694       812       811      3250      3251      3246
 -1      1480    8    0    1
 -2       695       696       813      2895      3252      3253
 -1      1481    8    0    1
 -2       695       813       812      3253      3254      3249
 -1      1482    8    0    1
 -2       696       697       814      2898      3255      3256
 -1      1483    8    0    1
 -2       696       814       813      3256      3257      3252
 -1      1484    8    0    1
 -2       697       698       815      2901      3258      3259
 -1      1485    8    0    1
 -2       697       815       814      3259      3260      3255
 -1      1486    8    0    1
 -2       698       699       816      2904      3261      3262
 -1      1487    8    0    1
 -2       698       816       815      3262      3263      3258
 -1      1488    8    0    1
 -2       699       700       817      2907      3264      3265
 -1      1489    8    0    1
 -2       699       817       816      3265      3266      3261
 -1      1490    8    0    1
 -2       700       701       818      2910      3267      3268
 -1      1491    8    0    1
 -2       700       818       817      3268      3269      3264
 -1      1492    8    0    1
 -2       701       702       819      2913      3270      3271
 -1      1493    8    0    1
 -2       701       819       818      3271      3272      3267
 -1      1494    8    0    1
 -2       702       703       820      2916      3273      3274
 -1      1495    8    0    1
 -2       702       820       819      3274      3275      3270
 -1      1496    8    0    1
 -2       703       704       821      2919      3276      3277
 -1      1497    8    0    1
 -2       703       821       820      3277      3278      3273
 -1      1498    8    0    1
 -2       704       705       822      2922      3279      3280
 -1      1499    8    0    1
 -2       821       704       822      3276      3280      3281
 -1      1500    8    0    1
 -2       705       746       822      3037      3282      3279
 -1      1501    8    0    1
 -2       619       618       823      2667      3283      3284
 -1      1502    8    0    1
 -2       706       709       824      2933      3285      3286
 -1      1503    8    0    1
 -2       709       793       824      3198      3287      3285
 -1      1504    8    0    1
 -2       737       717       825      3034      3288      3289
 -1      1505    8    0    1
 -2       741       723       804      3024      3290      3291
 -1      1506    8    0    1
 -2       718       736       826      3039      3292      3293
 -1      1507    8    0    1
 -2       712       713       827      2947      3294      3295
 -1      1508    8    0    1
 -2       712       827       793      3295      3296      3197
 -1      1509    8    0    1
 -2       688       689       828      2874      3297      3298
 -1      1510    8    0    1
 -2       689       807       828      3236      3299      3297
 -1      1511    8    0    1
 -2       673       674       829      2825      3300      3301
 -1      1512    8    0    1
 -2       794       673       829      3199      3301      3302
 -1      1513    8    0    1
 -2       674       796       829      3205      3303      3300
 -1      1514    8    0    1
 -2       670       668       830      2814      3304      3305
 -1      1515    8    0    1
 -2       627       626       831      2687      3306      3307
 -1      1516    8    0    1
 -2       627       831       756      3307      3308      3086
 -1      1517    8    0    1
 -2       713       714       832      2950      3309      3310
 -1      1518    8    0    1
 -2       713       832       827      3310      3311      3294
 -1      1519    8    0    1
 -2       623       669       833      3029      3312      3313
 -1      1520    8    0    1
 -2       738       734       834      3042      3314      3315
 -1      1521    8    0    1
 -2       735       718       835      3053      3316      3317
 -1      1522    8    0    1
 -2       718       826       835      3293      3318      3316
 -1      1523    8    0    1
 -2       722       750       836      3075      3319      3320
 -1      1524    8    0    1
 -2       750       742       836      3067      3321      3319
 -1      1525    8    0    1
 -2       717       739       837      3051      3322      3323
 -1      1526    8    0    1
 -2       669       737       838      3059      3324      3325
 -1      1527    8    0    1
 -2       594       732       685      2992      3326      3074
 -1      1528    8    0    1
 -2       723       733       839      2995      3327      3328
 -1      1529    8    0    1
 -2       733       747       839      3045      3329      3327
 -1      1530    8    0    1
 -2       736       720       840      3004      3330      3331
 -1      1531    8    0    1
 -2       728       625       841      3073      3332      3333
 -1      1532    8    0    1
 -2       731       738       842      3047      3334      3335
 -1      1533    8    0    1
 -2       734       623       843      2999      3336      3337
 -1      1534    8    0    1
 -2       834       734       843      3314      3337      3338
 -1      1535    8    0    1
 -2       623       833       843      3313      3339      3336
 -1      1536    8    0    1
 -2       716       728       844      3040      3340      3341
 -1      1537    8    0    1
 -2       730       716       774      3048      3342      3343
 -1      1538    8    0    1
 -2       720       729       806      3052      3344      3345
 -1      1539    8    0    1
 -2       625       740       845      3013      3346      3347
 -1      1540    8    0    1
 -2       591       593       745      2659      3032      3348
 -1      1541    8    0    1
 -2       614       591       745      2617      3348      3349
 -1      1542    8    0    1
 -2       685       732       684      3326      3350      2858
 -1      1543    8    0    1
 -2       684       732       741      3350      3025      3351
 -1      1544    8    0    1
 -2       684       741       683      3351      3352      2855
 -1      1545    8    0    1
 -2       683       741       804      3352      3291      3227
 -1      1546    8    0    1
 -2       743       619       846      3019      3353      3354
 -1      1547    8    0    1
 -2       619       823       846      3284      3355      3353
 -1      1548    8    0    1
 -2       620       753       847      3079      3356      3357
 -1      1549    8    0    1
 -2       620       847       726      3357      3358      2980
 -1      1550    8    0    1
 -2       626       754       831      3081      3359      3306
 -1      1551    8    0    1
 -2       644       772       825      3134      3360      3361
 -1      1552    8    0    1
 -2       744       708       848      3026      3362      3363
 -1      1553    8    0    1
 -2       645       644       825      2741      3361      3364
 -1      1554    8    0    1
 -2       647       725       849      3139      3365      3366
 -1      1555    8    0    1
 -2       648       647       849      2750      3366      3367
 -1      1556    8    0    1
 -2       737       825       838      3289      3368      3324
 -1      1557    8    0    1
 -2       830       668       850      3304      3369      3370
 -1      1558    8    0    1
 -2       668       721       850      2966      3371      3369
 -1      1559    8    0    1
 -2       715       752       805      3077      3372      3230
 -1      1560    8    0    1
 -2       670       830       851      3305      3373      3374
 -1      1561    8    0    1
 -2       670       851       711      3374      3375      2941
 -1      1562    8    0    1
 -2       742       727       852      3018      3376      3377
 -1      1563    8    0    1
 -2       742       852       836      3377      3378      3321
 -1      1564    8    0    1
 -2       671       795       853      3202      3379      3380
 -1      1565    8    0    1
 -2       671       853       721      3380      3381      2967
 -1      1566    8    0    1
 -2       740       805       845      3231      3382      3346
 -1      1567    8    0    1
 -2       806       688       828      3233      3298      3383
 -1      1568    8    0    1
 -2       686       687       854      2868      3384      3385
 -1      1569    8    0    1
 -2       823       618       855      3283      3386      3387
 -1      1570    8    0    1
 -2       618       726       855      2979      3388      3386
 -1      1571    8    0    1
 -2       708       710       856      2936      3389      3390
 -1      1572    8    0    1
 -2       708       856       848      3390      3391      3362
 -1      1573    8    0    1
 -2       752       735       857      3076      3392      3393
 -1      1574    8    0    1
 -2       735       835       857      3317      3394      3392
 -1      1575    8    0    1
 -2       825       717       837      3288      3323      3395
 -1      1576    8    0    1
 -2       710       706       858      2937      3396      3397
 -1      1577    8    0    1
 -2       856       710       858      3389      3397      3398
 -1      1578    8    0    1
 -2       706       824       858      3286      3399      3396
 -1      1579    8    0    1
 -2       842       738       859      3334      3400      3401
 -1      1580    8    0    1
 -2       738       834       859      3315      3402      3400
 -1      1581    8    0    1
 -2       722       836       754      3320      3403      3080
 -1      1582    8    0    1
 -2       747       617       860      3046      3404      3405
 -1      1583    8    0    1
 -2       617       748       860      3057      3406      3404
 -1      1584    8    0    1
 -2       841       625       845      3332      3347      3407
 -1      1585    8    0    1
 -2       725       646       739      3138      3408      3041
 -1      1586    8    0    1
 -2       844       728       841      3340      3333      3409
 -1      1587    8    0    1
 -2       716       844       774      3341      3410      3342
 -1      1588    8    0    1
 -2       736       840       826      3331      3411      3292
 -1      1589    8    0    1
 -2       748       731       861      3058      3412      3413
 -1      1590    8    0    1
 -2       731       842       861      3335      3414      3412
 -1      1591    8    0    1
 -2       714       749       862      3062      3415      3416
 -1      1592    8    0    1
 -2       832       714       862      3309      3416      3417
 -1      1593    8    0    1
 -2       749       792       862      3195      3418      3415
 -1      1594    8    0    1
 -2       833       669       838      3312      3325      3419
 -1      1595    8    0    1
 -2       725       730       849      3050      3420      3365
 -1      1596    8    0    1
 -2       840       720       806      3330      3345      3421
 -1      1597    8    0    1
 -2       624       711       863      2940      3422      3423
 -1      1598    8    0    1
 -2       755       624       863      3085      3423      3424
 -1      1599    8    0    1
 -2       711       851       863      3375      3425      3422
 -1      1600    8    0    1
 -2       852       727       864      3376      3426      3427
 -1      1601    8    0    1
 -2       727       751       864      3070      3428      3426
 -1      1602    8    0    1
 -2       825       772       838      3360      3429      3368
 -1      1603    8    0    1
 -2       753       755       865      3084      3430      3431
 -1      1604    8    0    1
 -2       755       863       865      3424      3432      3430
 -1      1605    8    0    1
 -2       757       756       866      3090      3433      3434
 -1      1606    8    0    1
 -2       758       757       867      3093      3435      3436
 -1      1607    8    0    1
 -2       757       866       867      3434      3437      3435
 -1      1608    8    0    1
 -2       759       758       868      3096      3438      3439
 -1      1609    8    0    1
 -2       758       867       868      3436      3440      3438
 -1      1610    8    0    1
 -2       760       759       869      3099      3441      3442
 -1      1611    8    0    1
 -2       759       868       869      3439      3443      3441
 -1      1612    8    0    1
 -2       761       760       870      3102      3444      3445
 -1      1613    8    0    1
 -2       760       869       870      3442      3446      3444
 -1      1614    8    0    1
 -2       762       761       871      3105      3447      3448
 -1      1615    8    0    1
 -2       761       870       871      3445      3449      3447
 -1      1616    8    0    1
 -2       763       762       872      3108      3450      3451
 -1      1617    8    0    1
 -2       762       871       872      3448      3452      3450
 -1      1618    8    0    1
 -2       764       763       873      3111      3453      3454
 -1      1619    8    0    1
 -2       763       872       873      3451      3455      3453
 -1      1620    8    0    1
 -2       765       764       874      3114      3456      3457
 -1      1621    8    0    1
 -2       764       873       874      3454      3458      3456
 -1      1622    8    0    1
 -2       766       765       875      3117      3459      3460
 -1      1623    8    0    1
 -2       765       874       875      3457      3461      3459
 -1      1624    8    0    1
 -2       767       766       876      3120      3462      3463
 -1      1625    8    0    1
 -2       766       875       876      3460      3464      3462
 -1      1626    8    0    1
 -2       768       767       877      3123      3465      3466
 -1      1627    8    0    1
 -2       767       876       877      3463      3467      3465
 -1      1628    8    0    1
 -2       769       768       878      3126      3468      3469
 -1      1629    8    0    1
 -2       768       877       878      3466      3470      3468
 -1      1630    8    0    1
 -2       770       769       879      3129      3471      3472
 -1      1631    8    0    1
 -2       769       878       879      3469      3473      3471
 -1      1632    8    0    1
 -2       771       770       880      3132      3474      3475
 -1      1633    8    0    1
 -2       770       879       880      3472      3476      3474
 -1      1634    8    0    1
 -2       772       771       838      3135      3477      3429
 -1      1635    8    0    1
 -2       840       806       828      3421      3383      3478
 -1      1636    8    0    1
 -2       648       849       774      3367      3479      3140
 -1      1637    8    0    1
 -2       833       838       880      3419      3480      3481
 -1      1638    8    0    1
 -2       777       776       881      3150      3482      3483
 -1      1639    8    0    1
 -2       778       777       882      3153      3484      3485
 -1      1640    8    0    1
 -2       777       881       882      3483      3486      3484
 -1      1641    8    0    1
 -2       779       778       883      3156      3487      3488
 -1      1642    8    0    1
 -2       778       882       883      3485      3489      3487
 -1      1643    8    0    1
 -2       780       779       884      3159      3490      3491
 -1      1644    8    0    1
 -2       779       883       884      3488      3492      3490
 -1      1645    8    0    1
 -2       781       780       885      3162      3493      3494
 -1      1646    8    0    1
 -2       780       884       885      3491      3495      3493
 -1      1647    8    0    1
 -2       782       781       886      3165      3496      3497
 -1      1648    8    0    1
 -2       781       885       886      3494      3498      3496
 -1      1649    8    0    1
 -2       783       782       887      3168      3499      3500
 -1      1650    8    0    1
 -2       782       886       887      3497      3501      3499
 -1      1651    8    0    1
 -2       784       783       888      3171      3502      3503
 -1      1652    8    0    1
 -2       783       887       888      3500      3504      3502
 -1      1653    8    0    1
 -2       785       784       889      3174      3505      3506
 -1      1654    8    0    1
 -2       784       888       889      3503      3507      3505
 -1      1655    8    0    1
 -2       786       785       890      3177      3508      3509
 -1      1656    8    0    1
 -2       785       889       890      3506      3510      3508
 -1      1657    8    0    1
 -2       787       786       891      3180      3511      3512
 -1      1658    8    0    1
 -2       786       890       891      3509      3513      3511
 -1      1659    8    0    1
 -2       788       787       892      3183      3514      3515
 -1      1660    8    0    1
 -2       787       891       892      3512      3516      3514
 -1      1661    8    0    1
 -2       789       788       893      3186      3517      3518
 -1      1662    8    0    1
 -2       788       892       893      3515      3519      3517
 -1      1663    8    0    1
 -2       790       789       894      3189      3520      3521
 -1      1664    8    0    1
 -2       789       893       894      3518      3522      3520
 -1      1665    8    0    1
 -2       791       790       895      3192      3523      3524
 -1      1666    8    0    1
 -2       790       894       895      3521      3525      3523
 -1      1667    8    0    1
 -2       797       798       896      3211      3526      3527
 -1      1668    8    0    1
 -2       796       797       897      3208      3528      3529
 -1      1669    8    0    1
 -2       797       896       897      3527      3530      3528
 -1      1670    8    0    1
 -2       799       800       898      3217      3531      3532
 -1      1671    8    0    1
 -2       800       801       899      3220      3533      3534
 -1      1672    8    0    1
 -2       800       899       898      3534      3535      3531
 -1      1673    8    0    1
 -2       801       802       900      3223      3536      3537
 -1      1674    8    0    1
 -2       801       900       899      3537      3538      3533
 -1      1675    8    0    1
 -2       802       803       901      3226      3539      3540
 -1      1676    8    0    1
 -2       802       901       900      3540      3541      3536
 -1      1677    8    0    1
 -2       854       687       806      3384      3234      3542
 -1      1678    8    0    1
 -2       807       808       902      3239      3543      3544
 -1      1679    8    0    1
 -2       810       811       903      3248      3545      3546
 -1      1680    8    0    1
 -2       811       812       904      3251      3547      3548
 -1      1681    8    0    1
 -2       811       904       903      3548      3549      3545
 -1      1682    8    0    1
 -2       812       813       905      3254      3550      3551
 -1      1683    8    0    1
 -2       812       905       904      3551      3552      3547
 -1      1684    8    0    1
 -2       813       814       906      3257      3553      3554
 -1      1685    8    0    1
 -2       813       906       905      3554      3555      3550
 -1      1686    8    0    1
 -2       814       815       907      3260      3556      3557
 -1      1687    8    0    1
 -2       814       907       906      3557      3558      3553
 -1      1688    8    0    1
 -2       815       816       908      3263      3559      3560
 -1      1689    8    0    1
 -2       815       908       907      3560      3561      3556
 -1      1690    8    0    1
 -2       816       817       909      3266      3562      3563
 -1      1691    8    0    1
 -2       816       909       908      3563      3564      3559
 -1      1692    8    0    1
 -2       817       818       910      3269      3565      3566
 -1      1693    8    0    1
 -2       817       910       909      3566      3567      3562
 -1      1694    8    0    1
 -2       818       819       911      3272      3568      3569
 -1      1695    8    0    1
 -2       818       911       910      3569      3570      3565
 -1      1696    8    0    1
 -2       819       820       912      3275      3571      3572
 -1      1697    8    0    1
 -2       819       912       911      3572      3573      3568
 -1      1698    8    0    1
 -2       820       821       913      3278      3574      3575
 -1      1699    8    0    1
 -2       820       913       912      3575      3576      3571
 -1      1700    8    0    1
 -2       824       793       914      3287      3577      3578
 -1      1701    8    0    1
 -2       746       744       915      3038      3579      3580
 -1      1702    8    0    1
 -2       822       746       915      3282      3580      3581
 -1      1703    8    0    1
 -2       744       848       915      3363      3582      3579
 -1      1704    8    0    1
 -2       836       852       916      3378      3583      3584
 -1      1705    8    0    1
 -2       836       916       754      3584      3585      3403
 -1      1706    8    0    1
 -2       774       849       730      3479      3420      3343
 -1      1707    8    0    1
 -2       793       827       917      3296      3586      3587
 -1      1708    8    0    1
 -2       793       917       914      3587      3588      3577
 -1      1709    8    0    1
 -2       835       826       918      3318      3589      3590
 -1      1710    8    0    1
 -2       831       754       916      3359      3585      3591
 -1      1711    8    0    1
 -2       729       724       854      3049      3592      3593
 -1      1712    8    0    1
 -2       845       805       919      3382      3594      3595
 -1      1713    8    0    1
 -2       804       723       920      3290      3596      3597
 -1      1714    8    0    1
 -2       809       810       921      3245      3598      3599
 -1      1715    8    0    1
 -2       810       903       921      3546      3600      3598
 -1      1716    8    0    1
 -2       808       809       922      3242      3601      3602
 -1      1717    8    0    1
 -2       809       921       922      3599      3603      3601
 -1      1718    8    0    1
 -2       798       799       923      3214      3604      3605
 -1      1719    8    0    1
 -2       896       798       923      3526      3605      3606
 -1      1720    8    0    1
 -2       799       898       923      3532      3607      3604
 -1      1721    8    0    1
 -2       828       807       924      3299      3608      3609
 -1      1722    8    0    1
 -2       840       828       924      3478      3609      3610
 -1      1723    8    0    1
 -2       807       902       924      3544      3611      3608
 -1      1724    8    0    1
 -2       686       854       724      3385      3592      3612
 -1      1725    8    0    1
 -2       729       854       806      3593      3542      3344
 -1      1726    8    0    1
 -2       838       771       880      3477      3475      3480
 -1      1727    8    0    1
 -2       804       920       803      3597      3613      3229
 -1      1728    8    0    1
 -2       686       724       719      3612      3054      3614
 -1      1729    8    0    1
 -2       756       831       925      3308      3615      3616
 -1      1730    8    0    1
 -2       756       925       866      3616      3617      3433
 -1      1731    8    0    1
 -2       795       794       926      3203      3618      3619
 -1      1732    8    0    1
 -2       805       752       927      3372      3620      3621
 -1      1733    8    0    1
 -2       920       723       839      3596      3328      3622
 -1      1734    8    0    1
 -2       775       774       844      3144      3410      3623
 -1      1735    8    0    1
 -2       837       739       773      3322      3624      3625
 -1      1736    8    0    1
 -2       827       832       928      3311      3626      3627
 -1      1737    8    0    1
 -2       827       928       917      3627      3628      3586
 -1      1738    8    0    1
 -2       839       747       929      3329      3629      3630
 -1      1739    8    0    1
 -2       839       929       920      3630      3631      3622
 -1      1740    8    0    1
 -2       826       840       924      3411      3610      3632
 -1      1741    8    0    1
 -2       739       646       773      3408      3137      3624
 -1      1742    8    0    1
 -2       775       844       776      3623      3633      3147
 -1      1743    8    0    1
 -2       751       743       930      3071      3634      3635
 -1      1744    8    0    1
 -2       864       751       930      3428      3635      3636
 -1      1745    8    0    1
 -2       743       846       930      3354      3637      3634
 -1      1746    8    0    1
 -2       841       845       881      3407      3638      3639
 -1      1747    8    0    1
 -2       803       920       901      3613      3640      3539
 -1      1748    8    0    1
 -2       776       844       841      3633      3409      3641
 -1      1749    8    0    1
 -2       776       841       881      3641      3639      3482
 -1      1750    8    0    1
 -2       847       753       865      3356      3431      3642
 -1      1751    8    0    1
 -2       752       857       931      3393      3643      3644
 -1      1752    8    0    1
 -2       752       931       927      3644      3645      3620
 -1      1753    8    0    1
 -2       795       926       932      3619      3646      3647
 -1      1754    8    0    1
 -2       795       932       853      3647      3648      3379
 -1      1755    8    0    1
 -2       773       645       837      3136      3649      3625
 -1      1756    8    0    1
 -2       850       721       853      3371      3381      3650
 -1      1757    8    0    1
 -2       792       791       933      3196      3651      3652
 -1      1758    8    0    1
 -2       862       792       933      3418      3652      3653
 -1      1759    8    0    1
 -2       791       895       933      3524      3654      3651
 -1      1760    8    0    1
 -2       851       830       934      3373      3655      3656
 -1      1761    8    0    1
 -2       837       645       825      3649      3364      3395
 -1      1762    8    0    1
 -2       796       897       935      3529      3657      3658
 -1      1763    8    0    1
 -2       796       935       829      3658      3659      3303
 -1      1764    8    0    1
 -2       855       726       847      3388      3358      3660
 -1      1765    8    0    1
 -2       852       864       936      3427      3661      3662
 -1      1766    8    0    1
 -2       852       936       916      3662      3663      3583
 -1      1767    8    0    1
 -2       745       547       614      3031      2862      3349
 -1      1768    8    0    1
 -2       902       808       922      3543      3602      3664
 -1      1769    8    0    1
 -2       794       829       937      3302      3665      3666
 -1      1770    8    0    1
 -2       926       794       937      3618      3666      3667
 -1      1771    8    0    1
 -2       829       935       937      3659      3668      3665
 -1      1772    8    0    1
 -2       823       855       938      3387      3669      3670
 -1      1773    8    0    1
 -2       824       914       939      3578      3671      3672
 -1      1774    8    0    1
 -2       824       939       858      3672      3673      3399
 -1      1775    8    0    1
 -2       835       918       940      3590      3674      3675
 -1      1776    8    0    1
 -2       835       940       857      3675      3676      3394
 -1      1777    8    0    1
 -2       821       822       915      3281      3581      3677
 -1      1778    8    0    1
 -2       859       834       941      3402      3678      3679
 -1      1779    8    0    1
 -2       821       915       913      3677      3680      3574
 -1      1780    8    0    1
 -2       842       859       942      3401      3681      3682
 -1      1781    8    0    1
 -2       842       942       861      3682      3683      3414
 -1      1782    8    0    1
 -2       919       805       943      3594      3684      3685
 -1      1783    8    0    1
 -2       805       927       943      3621      3686      3684
 -1      1784    8    0    1
 -2       843       833       944      3339      3687      3688
 -1      1785    8    0    1
 -2       846       823       945      3355      3689      3690
 -1      1786    8    0    1
 -2       823       938       945      3670      3691      3689
 -1      1787    8    0    1
 -2       860       748       946      3406      3692      3693
 -1      1788    8    0    1
 -2       748       861       946      3413      3694      3692
 -1      1789    8    0    1
 -2       830       850       947      3370      3695      3696
 -1      1790    8    0    1
 -2       830       947       934      3696      3697      3655
 -1      1791    8    0    1
 -2       918       826       924      3589      3632      3698
 -1      1792    8    0    1
 -2       831       916       925      3591      3699      3615
 -1      1793    8    0    1
 -2       845       919       881      3595      3700      3638
 -1      1794    8    0    1
 -2       915       848       913      3582      3701      3680
 -1      1795    8    0    1
 -2       833       880       944      3481      3702      3687
 -1      1796    8    0    1
 -2       913       848       948      3701      3703      3704
 -1      1797    8    0    1
 -2       848       856       948      3391      3705      3703
 -1      1798    8    0    1
 -2       747       860       929      3405      3706      3629
 -1      1799    8    0    1
 -2       920       929       901      3631      3707      3640
 -1      1800    8    0    1
 -2       832       862       933      3417      3653      3708
 -1      1801    8    0    1
 -2       834       843       941      3338      3709      3678
 -1      1802    8    0    1
 -2       832       933       928      3708      3710      3626
 -1      1803    8    0    1
 -2       868       867       949      3440      3711      3712
 -1      1804    8    0    1
 -2       869       868       950      3443      3713      3714
 -1      1805    8    0    1
 -2       868       949       950      3712      3715      3713
 -1      1806    8    0    1
 -2       870       869       951      3446      3716      3717
 -1      1807    8    0    1
 -2       869       950       951      3714      3718      3716
 -1      1808    8    0    1
 -2       871       870       952      3449      3719      3720
 -1      1809    8    0    1
 -2       870       951       952      3717      3721      3719
 -1      1810    8    0    1
 -2       872       871       953      3452      3722      3723
 -1      1811    8    0    1
 -2       871       952       953      3720      3724      3722
 -1      1812    8    0    1
 -2       873       872       954      3455      3725      3726
 -1      1813    8    0    1
 -2       872       953       954      3723      3727      3725
 -1      1814    8    0    1
 -2       874       873       955      3458      3728      3729
 -1      1815    8    0    1
 -2       873       954       955      3726      3730      3728
 -1      1816    8    0    1
 -2       875       874       956      3461      3731      3732
 -1      1817    8    0    1
 -2       874       955       956      3729      3733      3731
 -1      1818    8    0    1
 -2       876       875       957      3464      3734      3735
 -1      1819    8    0    1
 -2       875       956       957      3732      3736      3734
 -1      1820    8    0    1
 -2       877       876       958      3467      3737      3738
 -1      1821    8    0    1
 -2       876       957       958      3735      3739      3737
 -1      1822    8    0    1
 -2       878       877       959      3470      3740      3741
 -1      1823    8    0    1
 -2       877       958       959      3738      3742      3740
 -1      1824    8    0    1
 -2       879       878       960      3473      3743      3744
 -1      1825    8    0    1
 -2       878       959       960      3741      3745      3743
 -1      1826    8    0    1
 -2       880       879       944      3476      3746      3702
 -1      1827    8    0    1
 -2       897       896       961      3530      3747      3748
 -1      1828    8    0    1
 -2       882       881       919      3486      3700      3749
 -1      1829    8    0    1
 -2       847       865       962      3642      3750      3751
 -1      1830    8    0    1
 -2       933       895       928      3654      3752      3710
 -1      1831    8    0    1
 -2       884       883       963      3492      3753      3754
 -1      1832    8    0    1
 -2       885       884       964      3495      3755      3756
 -1      1833    8    0    1
 -2       884       963       964      3754      3757      3755
 -1      1834    8    0    1
 -2       886       885       965      3498      3758      3759
 -1      1835    8    0    1
 -2       885       964       965      3756      3760      3758
 -1      1836    8    0    1
 -2       887       886       966      3501      3761      3762
 -1      1837    8    0    1
 -2       886       965       966      3759      3763      3761
 -1      1838    8    0    1
 -2       888       887       967      3504      3764      3765
 -1      1839    8    0    1
 -2       887       966       967      3762      3766      3764
 -1      1840    8    0    1
 -2       889       888       968      3507      3767      3768
 -1      1841    8    0    1
 -2       888       967       968      3765      3769      3767
 -1      1842    8    0    1
 -2       890       889       969      3510      3770      3771
 -1      1843    8    0    1
 -2       889       968       969      3768      3772      3770
 -1      1844    8    0    1
 -2       891       890       970      3513      3773      3774
 -1      1845    8    0    1
 -2       890       969       970      3771      3775      3773
 -1      1846    8    0    1
 -2       892       891       971      3516      3776      3777
 -1      1847    8    0    1
 -2       891       970       971      3774      3778      3776
 -1      1848    8    0    1
 -2       893       892       972      3519      3779      3780
 -1      1849    8    0    1
 -2       892       971       972      3777      3781      3779
 -1      1850    8    0    1
 -2       894       893       973      3522      3782      3783
 -1      1851    8    0    1
 -2       893       972       973      3780      3784      3782
 -1      1852    8    0    1
 -2       895       894       974      3525      3785      3786
 -1      1853    8    0    1
 -2       894       973       974      3783      3787      3785
 -1      1854    8    0    1
 -2       924       902       918      3611      3788      3698
 -1      1855    8    0    1
 -2       867       866       975      3437      3789      3790
 -1      1856    8    0    1
 -2       867       975       949      3790      3791      3711
 -1      1857    8    0    1
 -2       899       900       976      3538      3792      3793
 -1      1858    8    0    1
 -2       898       899       977      3535      3794      3795
 -1      1859    8    0    1
 -2       899       976       977      3793      3796      3794
 -1      1860    8    0    1
 -2       904       905       978      3552      3797      3798
 -1      1861    8    0    1
 -2       614       686       719      3232      3614      3055
 -1      1862    8    0    1
 -2       903       904       979      3549      3799      3800
 -1      1863    8    0    1
 -2       904       978       979      3798      3801      3799
 -1      1864    8    0    1
 -2       906       907       980      3558      3802      3803
 -1      1865    8    0    1
 -2       907       908       981      3561      3804      3805
 -1      1866    8    0    1
 -2       907       981       980      3805      3806      3802
 -1      1867    8    0    1
 -2       908       909       982      3564      3807      3808
 -1      1868    8    0    1
 -2       908       982       981      3808      3809      3804
 -1      1869    8    0    1
 -2       909       910       983      3567      3810      3811
 -1      1870    8    0    1
 -2       909       983       982      3811      3812      3807
 -1      1871    8    0    1
 -2       910       911       984      3570      3813      3814
 -1      1872    8    0    1
 -2       910       984       983      3814      3815      3810
 -1      1873    8    0    1
 -2       911       912       985      3573      3816      3817
 -1      1874    8    0    1
 -2       911       985       984      3817      3818      3813
 -1      1875    8    0    1
 -2       912       913       948      3576      3704      3819
 -1      1876    8    0    1
 -2       918       902       986      3788      3820      3821
 -1      1877    8    0    1
 -2       859       941       987      3679      3822      3823
 -1      1878    8    0    1
 -2       921       903       988      3600      3824      3825
 -1      1879    8    0    1
 -2       903       979       988      3800      3826      3824
 -1      1880    8    0    1
 -2       856       858       989      3398      3827      3828
 -1      1881    8    0    1
 -2       858       939       989      3673      3829      3827
 -1      1882    8    0    1
 -2       922       921       990      3603      3830      3831
 -1      1883    8    0    1
 -2       921       988       990      3825      3832      3830
 -1      1884    8    0    1
 -2       855       847       962      3660      3751      3833
 -1      1885    8    0    1
 -2       938       855       962      3669      3833      3834
 -1      1886    8    0    1
 -2       843       944       941      3688      3835      3709
 -1      1887    8    0    1
 -2       925       916       991      3699      3836      3837
 -1      1888    8    0    1
 -2       916       936       991      3663      3838      3836
 -1      1889    8    0    1
 -2       944       879       960      3746      3744      3839
 -1      1890    8    0    1
 -2       929       860       992      3706      3840      3841
 -1      1891    8    0    1
 -2       901       929       992      3707      3841      3842
 -1      1892    8    0    1
 -2       860       946       992      3693      3843      3840
 -1      1893    8    0    1
 -2       948       856       989      3705      3828      3844
 -1      1894    8    0    1
 -2       905       906       993      3555      3845      3846
 -1      1895    8    0    1
 -2       905       993       978      3846      3847      3797
 -1      1896    8    0    1
 -2       917       928       994      3628      3848      3849
 -1      1897    8    0    1
 -2       863       851       995      3425      3850      3851
 -1      1898    8    0    1
 -2       865       863       995      3432      3851      3852
 -1      1899    8    0    1
 -2       851       934       995      3656      3853      3850
 -1      1900    8    0    1
 -2       850       853       996      3650      3854      3855
 -1      1901    8    0    1
 -2       853       932       996      3648      3856      3854
 -1      1902    8    0    1
 -2       900       901       997      3541      3857      3858
 -1      1903    8    0    1
 -2       976       900       997      3792      3858      3859
 -1      1904    8    0    1
 -2       901       992       997      3842      3860      3857
 -1      1905    8    0    1
 -2       866       925       998      3617      3861      3862
 -1      1906    8    0    1
 -2       975       866       998      3789      3862      3863
 -1      1907    8    0    1
 -2       925       991       998      3837      3864      3861
 -1      1908    8    0    1
 -2       914       917       999      3588      3865      3866
 -1      1909    8    0    1
 -2       917       994       999      3849      3867      3865
 -1      1910    8    0    1
 -2       882       919      1000      3749      3868      3869
 -1      1911    8    0    1
 -2       883       882      1000      3489      3869      3870
 -1      1912    8    0    1
 -2       919       943      1000      3685      3871      3868
 -1      1913    8    0    1
 -2       912       948       985      3819      3872      3816
 -1      1914    8    0    1
 -2       941       944       960      3835      3839      3873
 -1      1915    8    0    1
 -2       931       857       940      3643      3676      3874
 -1      1916    8    0    1
 -2       932       926      1001      3646      3875      3876
 -1      1917    8    0    1
 -2       935       897      1002      3657      3877      3878
 -1      1918    8    0    1
 -2       897       961      1002      3748      3879      3877
 -1      1919    8    0    1
 -2       961       896      1003      3747      3880      3881
 -1      1920    8    0    1
 -2       896       923      1003      3606      3882      3880
 -1      1921    8    0    1
 -2       962       865       995      3750      3852      3883
 -1      1922    8    0    1
 -2       928       895       994      3752      3884      3848
 -1      1923    8    0    1
 -2       850       996       947      3855      3885      3695
 -1      1924    8    0    1
 -2       963       883      1000      3753      3870      3886
 -1      1925    8    0    1
 -2       864       930      1004      3636      3887      3888
 -1      1926    8    0    1
 -2       864      1004       936      3888      3889      3661
 -1      1927    8    0    1
 -2       902       922       986      3664      3890      3820
 -1      1928    8    0    1
 -2       939       914      1005      3671      3891      3892
 -1      1929    8    0    1
 -2       914       999      1005      3866      3893      3891
 -1      1930    8    0    1
 -2       922       990       986      3831      3894      3890
 -1      1931    8    0    1
 -2       926       937      1006      3667      3895      3896
 -1      1932    8    0    1
 -2       926      1006      1001      3896      3897      3875
 -1      1933    8    0    1
 -2       941       960      1007      3873      3898      3899
 -1      1934    8    0    1
 -2       987       941      1007      3822      3899      3900
 -1      1935    8    0    1
 -2       960       959      1007      3745      3901      3898
 -1      1936    8    0    1
 -2       940       918       986      3674      3821      3902
 -1      1937    8    0    1
 -2       861       942      1008      3683      3903      3904
 -1      1938    8    0    1
 -2       861      1008       946      3904      3905      3694
 -1      1939    8    0    1
 -2       945       938      1009      3691      3906      3907
 -1      1940    8    0    1
 -2       859       987       942      3823      3908      3681
 -1      1941    8    0    1
 -2       943       927      1010      3686      3909      3910
 -1      1942    8    0    1
 -2       927       931      1010      3645      3911      3909
 -1      1943    8    0    1
 -2       846       945      1011      3690      3912      3913
 -1      1944    8    0    1
 -2       985       948      1012      3872      3914      3915
 -1      1945    8    0    1
 -2       948       989      1012      3844      3916      3914
 -1      1946    8    0    1
 -2       934       947      1013      3697      3917      3918
 -1      1947    8    0    1
 -2       923       898      1014      3607      3919      3920
 -1      1948    8    0    1
 -2       923      1014      1003      3920      3921      3882
 -1      1949    8    0    1
 -2       938       962      1015      3834      3922      3923
 -1      1950    8    0    1
 -2      1009       938      1015      3906      3923      3924
 -1      1951    8    0    1
 -2       962       995      1015      3883      3925      3922
 -1      1952    8    0    1
 -2       846      1011       930      3913      3926      3637
 -1      1953    8    0    1
 -2       993       906       980      3845      3803      3927
 -1      1954    8    0    1
 -2       995       934      1015      3853      3928      3925
 -1      1955    8    0    1
 -2      1015       934      1013      3928      3918      3929
 -1      1956    8    0    1
 -2      1014       898       977      3919      3795      3930
 -1      1957    8    0    1
 -2       996       932      1016      3856      3931      3932
 -1      1958    8    0    1
 -2       932      1001      1016      3876      3933      3931
 -1      1959    8    0    1
 -2      1009      1015      1017      3924      3934      3935
 -1      1960    8    0    1
 -2      1015      1013      1017      3929      3936      3934
 -1      1961    8    0    1
 -2       951       950      1018      3718      3937      3938
 -1      1962    8    0    1
 -2       952       951      1019      3721      3939      3940
 -1      1963    8    0    1
 -2       951      1018      1019      3938      3941      3939
 -1      1964    8    0    1
 -2       953       952      1020      3724      3942      3943
 -1      1965    8    0    1
 -2       952      1019      1020      3940      3944      3942
 -1      1966    8    0    1
 -2       954       953      1021      3727      3945      3946
 -1      1967    8    0    1
 -2       953      1020      1021      3943      3947      3945
 -1      1968    8    0    1
 -2       955       954      1022      3730      3948      3949
 -1      1969    8    0    1
 -2       954      1021      1022      3946      3950      3948
 -1      1970    8    0    1
 -2       956       955      1023      3733      3951      3952
 -1      1971    8    0    1
 -2       955      1022      1023      3949      3953      3951
 -1      1972    8    0    1
 -2       957       956      1024      3736      3954      3955
 -1      1973    8    0    1
 -2       956      1023      1024      3952      3956      3954
 -1      1974    8    0    1
 -2       958       957      1025      3739      3957      3958
 -1      1975    8    0    1
 -2       957      1024      1025      3955      3959      3957
 -1      1976    8    0    1
 -2       959       958      1026      3742      3960      3961
 -1      1977    8    0    1
 -2      1007       959      1026      3901      3961      3962
 -1      1978    8    0    1
 -2       958      1025      1026      3958      3963      3960
 -1      1979    8    0    1
 -2       940       986      1027      3902      3964      3965
 -1      1980    8    0    1
 -2       964       963      1028      3757      3966      3967
 -1      1981    8    0    1
 -2       965       964      1029      3760      3968      3969
 -1      1982    8    0    1
 -2       964      1028      1029      3967      3970      3968
 -1      1983    8    0    1
 -2       966       965      1030      3763      3971      3972
 -1      1984    8    0    1
 -2       965      1029      1030      3969      3973      3971
 -1      1985    8    0    1
 -2       967       966      1031      3766      3974      3975
 -1      1986    8    0    1
 -2       966      1030      1031      3972      3976      3974
 -1      1987    8    0    1
 -2       968       967      1032      3769      3977      3978
 -1      1988    8    0    1
 -2       967      1031      1032      3975      3979      3977
 -1      1989    8    0    1
 -2       969       968      1033      3772      3980      3981
 -1      1990    8    0    1
 -2       968      1032      1033      3978      3982      3980
 -1      1991    8    0    1
 -2       970       969      1034      3775      3983      3984
 -1      1992    8    0    1
 -2       969      1033      1034      3981      3985      3983
 -1      1993    8    0    1
 -2       971       970      1035      3778      3986      3987
 -1      1994    8    0    1
 -2       970      1034      1035      3984      3988      3986
 -1      1995    8    0    1
 -2       972       971      1036      3781      3989      3990
 -1      1996    8    0    1
 -2       971      1035      1036      3987      3991      3989
 -1      1997    8    0    1
 -2       973       972      1037      3784      3992      3993
 -1      1998    8    0    1
 -2       972      1036      1037      3990      3994      3992
 -1      1999    8    0    1
 -2       977       976      1038      3796      3995      3996
 -1      2000    8    0    1
 -2       988       979      1039      3826      3997      3998
 -1      2001    8    0    1
 -2       979       978      1040      3801      3999      4000
 -1      2002    8    0    1
 -2       979      1040      1039      4000      4001      3997
 -1      2003    8    0    1
 -2       982       983      1041      3812      4002      4003
 -1      2004    8    0    1
 -2       937       935      1042      3668      4004      4005
 -1      2005    8    0    1
 -2      1006       937      1042      3895      4005      4006
 -1      2006    8    0    1
 -2       935      1002      1042      3878      4007      4004
 -1      2007    8    0    1
 -2       981       982      1043      3809      4008      4009
 -1      2008    8    0    1
 -2       982      1041      1043      4003      4010      4008
 -1      2009    8    0    1
 -2       980       981      1044      3806      4011      4012
 -1      2010    8    0    1
 -2       981      1043      1044      4009      4013      4011
 -1      2011    8    0    1
 -2       983       984      1045      3815      4014      4015
 -1      2012    8    0    1
 -2       983      1045      1041      4015      4016      4002
 -1      2013    8    0    1
 -2       984       985      1046      3818      4017      4018
 -1      2014    8    0    1
 -2      1045       984      1046      4014      4018      4019
 -1      2015    8    0    1
 -2       985      1012      1046      3915      4020      4017
 -1      2016    8    0    1
 -2       942       987      1047      3908      4021      4022
 -1      2017    8    0    1
 -2       942      1047      1008      4022      4023      3903
 -1      2018    8    0    1
 -2      1011       945      1048      3912      4024      4025
 -1      2019    8    0    1
 -2       945      1009      1048      3907      4026      4024
 -1      2020    8    0    1
 -2       989       939      1049      3829      4027      4028
 -1      2021    8    0    1
 -2      1012       989      1049      3916      4028      4029
 -1      2022    8    0    1
 -2       939      1005      1049      3892      4030      4027
 -1      2023    8    0    1
 -2       990       988      1050      3832      4031      4032
 -1      2024    8    0    1
 -2       988      1039      1050      3998      4033      4031
 -1      2025    8    0    1
 -2       963      1000      1051      3886      4034      4035
 -1      2026    8    0    1
 -2      1028       963      1051      3966      4035      4036
 -1      2027    8    0    1
 -2      1000       943      1051      3871      4037      4034
 -1      2028    8    0    1
 -2      1013       947      1052      3917      4038      4039
 -1      2029    8    0    1
 -2      1017      1013      1052      3936      4039      4040
 -1      2030    8    0    1
 -2       947       996      1052      3885      4041      4038
 -1      2031    8    0    1
 -2       949       975      1053      3791      4042      4043
 -1      2032    8    0    1
 -2       991       936      1004      3838      3889      4044
 -1      2033    8    0    1
 -2       992       946      1054      3843      4045      4046
 -1      2034    8    0    1
 -2       997       992      1054      3860      4046      4047
 -1      2035    8    0    1
 -2       946      1008      1054      3905      4048      4045
 -1      2036    8    0    1
 -2       978       993      1055      3847      4049      4050
 -1      2037    8    0    1
 -2       978      1055      1040      4050      4051      3999
 -1      2038    8    0    1
 -2      1014       977      1056      3930      4052      4053
 -1      2039    8    0    1
 -2       977      1038      1056      3996      4054      4052
 -1      2040    8    0    1
 -2       986       990      1027      3894      4055      3964
 -1      2041    8    0    1
 -2       950       949      1057      3715      4056      4057
 -1      2042    8    0    1
 -2       949      1053      1057      4043      4058      4056
 -1      2043    8    0    1
 -2       931       940      1058      3874      4059      4060
 -1      2044    8    0    1
 -2      1010       931      1058      3911      4060      4061
 -1      2045    8    0    1
 -2       940      1027      1058      3965      4062      4059
 -1      2046    8    0    1
 -2       993       980      1059      3927      4063      4064
 -1      2047    8    0    1
 -2       980      1044      1059      4012      4065      4063
 -1      2048    8    0    1
 -2       987      1007      1060      3900      4066      4067
 -1      2049    8    0    1
 -2      1007      1026      1060      3962      4068      4066
 -1      2050    8    0    1
 -2      1053       975      1061      4042      4069      4070
 -1      2051    8    0    1
 -2       975       998      1061      3863      4071      4069
 -1      2052    8    0    1
 -2      1018       950      1057      3937      4057      4072
 -1      2053    8    0    1
 -2       993      1059      1055      4064      4073      4049
 -1      2054    8    0    1
 -2      1052       996      1016      4041      3932      4074
 -1      2055    8    0    1
 -2      1027       990      1050      4055      4032      4075
 -1      2056    8    0    1
 -2       895       974       994      3786      4076      3884
 -1      2057    8    0    1
 -2       974       973      1062      3787      4077      4078
 -1      2058    8    0    1
 -2       999       994      1062      3867      4079      4080
 -1      2059    8    0    1
 -2       998       991      1063      3864      4081      4082
 -1      2060    8    0    1
 -2       998      1063      1061      4082      4083      4071
 -1      2061    8    0    1
 -2      1001      1006      1064      3897      4084      4085
 -1      2062    8    0    1
 -2      1005       999      1065      3893      4086      4087
 -1      2063    8    0    1
 -2       999      1062      1065      4080      4088      4086
 -1      2064    8    0    1
 -2      1047       987      1060      4021      4067      4089
 -1      2065    8    0    1
 -2      1016      1001      1066      3933      4090      4091
 -1      2066    8    0    1
 -2      1001      1064      1066      4085      4092      4090
 -1      2067    8    0    1
 -2      1063       991      1004      4081      4044      4093
 -1      2068    8    0    1
 -2      1062       973      1037      4077      3993      4094
 -1      2069    8    0    1
 -2       994       974      1062      4076      4078      4079
 -1      2070    8    0    1
 -2      1048      1009      1067      4026      4095      4096
 -1      2071    8    0    1
 -2      1009      1017      1067      3935      4097      4095
 -1      2072    8    0    1
 -2       961      1003      1068      3881      4098      4099
 -1      2073    8    0    1
 -2      1002       961      1069      3879      4100      4101
 -1      2074    8    0    1
 -2       961      1068      1069      4099      4102      4100
 -1      2075    8    0    1
 -2       943      1010      1051      3910      4103      4037
 -1      2076    8    0    1
 -2       976       997      1070      3859      4104      4105
 -1      2077    8    0    1
 -2      1038       976      1070      3995      4105      4106
 -1      2078    8    0    1
 -2       997      1054      1070      4047      4107      4104
 -1      2079    8    0    1
 -2      1003      1014      1071      3921      4108      4109
 -1      2080    8    0    1
 -2      1003      1071      1068      4109      4110      4098
 -1      2081    8    0    1
 -2       930      1011      1004      3926      4111      3887
 -1      2082    8    0    1
 -2      1014      1056      1071      4053      4112      4108
 -1      2083    8    0    1
 -2      1041      1045      1072      4016      4113      4114
 -1      2084    8    0    1
 -2      1018      1057      1073      4072      4115      4116
 -1      2085    8    0    1
 -2      1020      1019      1074      3944      4117      4118
 -1      2086    8    0    1
 -2      1021      1020      1075      3947      4119      4120
 -1      2087    8    0    1
 -2      1020      1074      1075      4118      4121      4119
 -1      2088    8    0    1
 -2      1022      1021      1076      3950      4122      4123
 -1      2089    8    0    1
 -2      1021      1075      1076      4120      4124      4122
 -1      2090    8    0    1
 -2      1023      1022      1077      3953      4125      4126
 -1      2091    8    0    1
 -2      1022      1076      1077      4123      4127      4125
 -1      2092    8    0    1
 -2      1024      1023      1078      3956      4128      4129
 -1      2093    8    0    1
 -2      1023      1077      1078      4126      4130      4128
 -1      2094    8    0    1
 -2      1025      1024      1079      3959      4131      4132
 -1      2095    8    0    1
 -2      1024      1078      1079      4129      4133      4131
 -1      2096    8    0    1
 -2      1071      1056      1080      4112      4134      4135
 -1      2097    8    0    1
 -2      1030      1029      1081      3973      4136      4137
 -1      2098    8    0    1
 -2      1031      1030      1082      3976      4138      4139
 -1      2099    8    0    1
 -2      1030      1081      1082      4137      4140      4138
 -1      2100    8    0    1
 -2      1032      1031      1083      3979      4141      4142
 -1      2101    8    0    1
 -2      1031      1082      1083      4139      4143      4141
 -1      2102    8    0    1
 -2      1033      1032      1084      3982      4144      4145
 -1      2103    8    0    1
 -2      1032      1083      1084      4142      4146      4144
 -1      2104    8    0    1
 -2      1034      1033      1085      3985      4147      4148
 -1      2105    8    0    1
 -2      1033      1084      1085      4145      4149      4147
 -1      2106    8    0    1
 -2      1035      1034      1086      3988      4150      4151
 -1      2107    8    0    1
 -2      1034      1085      1086      4148      4152      4150
 -1      2108    8    0    1
 -2      1036      1035      1087      3991      4153      4154
 -1      2109    8    0    1
 -2      1035      1086      1087      4151      4155      4153
 -1      2110    8    0    1
 -2      1037      1036      1088      3994      4156      4157
 -1      2111    8    0    1
 -2      1036      1087      1088      4154      4158      4156
 -1      2112    8    0    1
 -2      1047      1060      1089      4089      4159      4160
 -1      2113    8    0    1
 -2      1028      1051      1090      4036      4161      4162
 -1      2114    8    0    1
 -2      1051      1010      1090      4103      4163      4161
 -1      2115    8    0    1
 -2      1064      1006      1091      4084      4164      4165
 -1      2116    8    0    1
 -2      1006      1042      1091      4006      4166      4164
 -1      2117    8    0    1
 -2      1027      1050      1092      4075      4167      4168
 -1      2118    8    0    1
 -2      1068      1071      1093      4110      4169      4170
 -1      2119    8    0    1
 -2      1071      1080      1093      4135      4171      4169
 -1      2120    8    0    1
 -2      1039      1040      1094      4001      4172      4173
 -1      2121    8    0    1
 -2      1043      1041      1095      4010      4174      4175
 -1      2122    8    0    1
 -2      1041      1072      1095      4114      4176      4174
 -1      2123    8    0    1
 -2      1055      1059      1096      4073      4177      4178
 -1      2124    8    0    1
 -2      1044      1043      1097      4013      4179      4180
 -1      2125    8    0    1
 -2      1043      1095      1097      4175      4181      4179
 -1      2126    8    0    1
 -2      1050      1039      1098      4033      4182      4183
 -1      2127    8    0    1
 -2      1092      1050      1098      4167      4183      4184
 -1      2128    8    0    1
 -2      1039      1094      1098      4173      4185      4182
 -1      2129    8    0    1
 -2      1011      1048      1063      4025      4186      4187
 -1      2130    8    0    1
 -2      1059      1044      1099      4065      4188      4189
 -1      2131    8    0    1
 -2      1044      1097      1099      4180      4190      4188
 -1      2132    8    0    1
 -2      1040      1055      1100      4051      4191      4192
 -1      2133    8    0    1
 -2      1040      1100      1094      4192      4193      4172
 -1      2134    8    0    1
 -2      1008      1047      1101      4023      4194      4195
 -1      2135    8    0    1
 -2      1054      1008      1101      4048      4195      4196
 -1      2136    8    0    1
 -2      1047      1089      1101      4160      4197      4194
 -1      2137    8    0    1
 -2      1062      1037      1102      4094      4198      4199
 -1      2138    8    0    1
 -2      1065      1062      1102      4088      4199      4200
 -1      2139    8    0    1
 -2      1037      1088      1102      4157      4201      4198
 -1      2140    8    0    1
 -2      1056      1038      1103      4054      4202      4203
 -1      2141    8    0    1
 -2      1056      1103      1080      4203      4204      4134
 -1      2142    8    0    1
 -2      1057      1053      1104      4058      4205      4206
 -1      2143    8    0    1
 -2      1057      1104      1073      4206      4207      4115
 -1      2144    8    0    1
 -2      1029      1028      1105      3970      4208      4209
 -1      2145    8    0    1
 -2      1081      1029      1105      4136      4209      4210
 -1      2146    8    0    1
 -2      1028      1090      1105      4162      4211      4208
 -1      2147    8    0    1
 -2      1052      1016      1106      4074      4212      4213
 -1      2148    8    0    1
 -2      1016      1066      1106      4091      4214      4212
 -1      2149    8    0    1
 -2      1017      1052      1106      4040      4213      4215
 -1      2150    8    0    1
 -2      1019      1018      1107      3941      4216      4217
 -1      2151    8    0    1
 -2      1018      1073      1107      4116      4218      4216
 -1      2152    8    0    1
 -2      1063      1048      1067      4186      4096      4219
 -1      2153    8    0    1
 -2      1011      1063      1004      4187      4093      4111
 -1      2154    8    0    1
 -2      1103      1038      1101      4202      4220      4221
 -1      2155    8    0    1
 -2      1026      1025      1108      3963      4222      4223
 -1      2156    8    0    1
 -2      1060      1026      1108      4068      4223      4224
 -1      2157    8    0    1
 -2      1025      1079      1108      4132      4225      4222
 -1      2158    8    0    1
 -2      1090      1010      1058      4163      4061      4226
 -1      2159    8    0    1
 -2      1089      1060      1108      4159      4224      4227
 -1      2160    8    0    1
 -2      1055      1096      1100      4178      4228      4191
 -1      2161    8    0    1
 -2      1019      1107      1074      4217      4229      4117
 -1      2162    8    0    1
 -2      1068      1093      1109      4170      4230      4231
 -1      2163    8    0    1
 -2      1068      1109      1069      4231      4232      4102
 -1      2164    8    0    1
 -2      1045      1046      1110      4019      4233      4234
 -1      2165    8    0    1
 -2      1045      1110      1072      4234      4235      4113
 -1      2166    8    0    1
 -2      1005      1065      1111      4087      4236      4237
 -1      2167    8    0    1
 -2      1049      1005      1111      4030      4237      4238
 -1      2168    8    0    1
 -2      1065      1102      1111      4200      4239      4236
 -1      2169    8    0    1
 -2      1027      1092      1058      4168      4240      4062
 -1      2170    8    0    1
 -2      1096      1059      1099      4177      4189      4241
 -1      2171    8    0    1
 -2      1066      1064      1112      4092      4242      4243
 -1      2172    8    0    1
 -2      1046      1012      1113      4020      4244      4245
 -1      2173    8    0    1
 -2      1110      1046      1113      4233      4245      4246
 -1      2174    8    0    1
 -2      1012      1049      1113      4029      4247      4244
 -1      2175    8    0    1
 -2      1042      1002      1114      4007      4248      4249
 -1      2176    8    0    1
 -2      1042      1114      1091      4249      4250      4166
 -1      2177    8    0    1
 -2      1002      1069      1114      4101      4251      4248
 -1      2178    8    0    1
 -2      1064      1091      1115      4165      4252      4253
 -1      2179    8    0    1
 -2      1064      1115      1112      4253      4254      4242
 -1      2180    8    0    1
 -2      1053      1061      1116      4070      4255      4256
 -1      2181    8    0    1
 -2      1053      1116      1104      4256      4257      4205
 -1      2182    8    0    1
 -2      1017      1106      1117      4215      4258      4259
 -1      2183    8    0    1
 -2      1017      1117      1067      4259      4260      4097
 -1      2184    8    0    1
 -2      1101      1038      1070      4220      4106      4261
 -1      2185    8    0    1
 -2      1063      1067      1116      4219      4262      4263
 -1      2186    8    0    1
 -2      1108      1079      1103      4225      4264      4265
 -1      2187    8    0    1
 -2      1100      1096      1083      4228      4266      4267
 -1      2188    8    0    1
 -2      1090      1058      1092      4226      4240      4268
 -1      2189    8    0    1
 -2      1076      1075      1118      4124      4269      4270
 -1      2190    8    0    1
 -2      1077      1076      1109      4127      4271      4272
 -1      2191    8    0    1
 -2      1078      1077      1093      4130      4273      4274
 -1      2192    8    0    1
 -2      1079      1078      1080      4133      4275      4276
 -1      2193    8    0    1
 -2      1073      1104      1117      4207      4277      4278
 -1      2194    8    0    1
 -2      1093      1080      1078      4171      4275      4274
 -1      2195    8    0    1
 -2      1082      1081      1094      4140      4279      4280
 -1      2196    8    0    1
 -2      1080      1103      1079      4204      4264      4276
 -1      2197    8    0    1
 -2      1083      1082      1100      4143      4281      4267
 -1      2198    8    0    1
 -2      1084      1083      1096      4146      4266      4282
 -1      2199    8    0    1
 -2      1085      1084      1099      4149      4283      4284
 -1      2200    8    0    1
 -2      1086      1085      1097      4152      4285      4286
 -1      2201    8    0    1
 -2      1087      1086      1095      4155      4287      4288
 -1      2202    8    0    1
 -2      1088      1087      1072      4158      4289      4290
 -1      2203    8    0    1
 -2      1114      1069      1118      4251      4291      4292
 -1      2204    8    0    1
 -2      1054      1101      1070      4196      4261      4107
 -1      2205    8    0    1
 -2      1094      1081      1098      4279      4293      4185
 -1      2206    8    0    1
 -2      1097      1095      1086      4181      4287      4286
 -1      2207    8    0    1
 -2      1104      1116      1117      4257      4294      4277
 -1      2208    8    0    1
 -2      1094      1100      1082      4193      4281      4280
 -1      2209    8    0    1
 -2      1095      1072      1087      4176      4289      4288
 -1      2210    8    0    1
 -2      1099      1097      1085      4190      4285      4284
 -1      2211    8    0    1
 -2      1074      1107      1115      4229      4295      4296
 -1      2212    8    0    1
 -2      1106      1066      1119      4214      4297      4298
 -1      2213    8    0    1
 -2      1117      1106      1119      4258      4298      4299
 -1      2214    8    0    1
 -2      1066      1112      1119      4243      4300      4297
 -1      2215    8    0    1
 -2      1093      1077      1109      4273      4272      4230
 -1      2216    8    0    1
 -2      1091      1114      1120      4250      4301      4302
 -1      2217    8    0    1
 -2      1115      1091      1120      4252      4302      4303
 -1      2218    8    0    1
 -2      1114      1118      1120      4292      4304      4301
 -1      2219    8    0    1
 -2      1116      1067      1117      4262      4260      4294
 -1      2220    8    0    1
 -2      1084      1096      1099      4282      4241      4283
 -1      2221    8    0    1
 -2      1090      1092      1105      4268      4305      4211
 -1      2222    8    0    1
 -2      1107      1073      1112      4218      4306      4307
 -1      2223    8    0    1
 -2      1107      1112      1115      4307      4254      4295
 -1      2224    8    0    1
 -2      1108      1103      1089      4265      4308      4227
 -1      2225    8    0    1
 -2      1112      1073      1119      4306      4309      4300
 -1      2226    8    0    1
 -2      1118      1075      1120      4269      4310      4304
 -1      2227    8    0    1
 -2      1073      1117      1119      4278      4299      4309
 -1      2228    8    0    1
 -2      1118      1069      1109      4291      4232      4311
 -1      2229    8    0    1
 -2      1076      1118      1109      4270      4311      4271
 -1      2230    8    0    1
 -2      1089      1103      1101      4308      4221      4197
 -1      2231    8    0    1
 -2      1105      1092      1098      4305      4184      4312
 -1      2232    8    0    1
 -2      1088      1072      1121      4290      4313      4314
 -1      2233    8    0    1
 -2      1061      1063      1116      4083      4263      4255
 -1      2234    8    0    1
 -2      1088      1121      1102      4314      4315      4201
 -1      2235    8    0    1
 -2      1113      1049      1111      4247      4238      4316
 -1      2236    8    0    1
 -2      1120      1075      1074      4310      4121      4317
 -1      2237    8    0    1
 -2      1074      1115      1120      4296      4303      4317
 -1      2238    8    0    1
 -2      1098      1081      1105      4293      4210      4312
 -1      2239    8    0    1
 -2      1111      1102      1121      4239      4315      4318
 -1      2240    8    0    1
 -2      1110      1113      1111      4246      4316      4319
 -1      2241    8    0    1
 -2      1121      1072      1110      4313      4235      4320
 -1      2242    8    0    1
 -2      1110      1111      1121      4319      4318      4320
 -3
    1PSTEP                         1           1           1          
  100CL  101 1.000000000        4320                     0    1           1
 -4  DISP        4    1
 -5  D1          1    2    1    0
 -5  D2          1    2    2    0
 -5  D3          1    2    3    0
 -5  ALL         1    2    0    0    1ALL
 -1         1 5.87108E-03-2.83426E-04-4.90463E-14
 -1         2 9.92577E-03 2.28169E-04-6.84300E-14
 -1         3 1.54804E-02 1.54485E-03-2.06601E-13
 -1         4 1.49135E-02 1.23188E-04-2.11084E-13
 -1         5 0.00000E+00 0.00000E+00 0.00000E+00
 -1         6 0.00000E+00 0.00000E+00 0.00000E+00
 -1         7 0.00000E+00 0.00000E+00 0.00000E+00
 -1         8 0.00000E+00 0.00000E+00 0.00000E+00
 -1         9 0.00000E+00 0.00000E+00 0.00000E+00
 -1        10 0.00000E+00 0.00000E+00 0.00000E+00
 -1        11 0.00000E+00 0.00000E+00 0.00000E+00
 -1        12 0.00000E+00 0.00000E+00 0.00000E+00
 -1        13 0.00000E+00 0.00000E+00 0.00000E+00
 -1        14 0.00000E+00 0.00000E+00 0.00000E+00
 -1        15 0.00000E+00 0.00000E+00 0.00000E+00
 -1        16 0.00000E+00 0.00000E+00 0.00000E+00
 -1        17 0.00000E+00 0.00000E+00 0.00000E+00
 -1        18 0.00000E+00 0.00000E+00 0.00000E+00
 -1        19 0.00000E+00 0.00000E+00 0.00000E+00
 -1        20 0.00000E+00 0.00000E+00 0.00000E+00
 -1        21 0.00000E+00 0.00000E+00 0.00000E+00
 -1        22 0.00000E+00 0.00000E+00 0.00000E+00
 -1        23 4.09894E-04-2.59451E-04 6.02816E-17
 -1        24 7.00948E-04-3.98209E-04-9.19912E-17
 -1        25 9.70373E-04-4.93708E-04-4.51743E-16
 -1        26 1.23449E-03-5.60130E-04-1.01681E-15
 -1        27 1.49801E-03-6.06543E-04-1.78421E-15
 -1        28 1.76316E-03-6.38259E-04-2.75092E-15
 -1        29 2.03111E-03-6.58930E-04-3.91374E-15
 -1        30 2.30254E-03-6.71228E-04-5.27007E-15
 -1        31 2.57790E-03-6.77209E-04-6.81880E-15
 -1        32 2.85759E-03-6.78539E-04-8.55632E-15
 -1        33 3.14201E-03-6.76660E-04-1.04811E-14
 -1        34 3.43168E-03-6.72940E-04-1.25842E-14
 -1        35 3.72718E-03-6.68810E-04-1.48630E-14
 -1        36 4.02918E-03-6.65908E-04-1.73096E-14
 -1        37 4.33833E-03-6.66200E-04-1.99259E-14
 -1        38 4.65504E-03-6.72060E-04-2.27114E-14
 -1        39 4.97922E-03-6.86255E-04-2.56589E-14
 -1        40 5.30984E-03-7.11723E-04-2.87741E-14
 -1        41 5.64446E-03-7.51041E-04-3.20614E-14
 -1        42 5.97885E-03-8.05435E-04-3.55187E-14
 -1        43 6.30701E-03-8.73363E-04-3.91544E-14
 -1        44 6.62210E-03-9.49013E-04-4.29736E-14
 -1        45 6.91847E-03-1.02159E-03-4.69790E-14
 -1        46 7.19446E-03-1.07657E-03-5.11865E-14
 -1        47 7.45444E-03-1.09952E-03-5.55893E-14
 -1        48 7.70851E-03-1.08140E-03-6.01960E-14
 -1        49 7.96902E-03-1.02237E-03-6.50052E-14
 -1        50 8.24589E-03-9.31802E-04-7.00127E-14
 -1        51 8.54326E-03-8.24226E-04-7.52094E-14
 -1        52 8.85927E-03-7.14052E-04-8.05861E-14
 -1        53 9.18820E-03-6.11859E-04-8.61106E-14
 -1        54 9.52330E-03-5.23255E-04-9.17814E-14
 -1        55 9.85870E-03-4.49653E-04-9.75923E-14
 -1        56 1.01904E-02-3.89782E-04-1.03536E-13
 -1        57 1.05160E-02-3.41101E-04-1.09608E-13
 -1        58 1.08349E-02-3.00780E-04-1.15804E-13
 -1        59 1.11471E-02-2.66234E-04-1.22105E-13
 -1        60 1.14532E-02-2.35353E-04-1.28504E-13
 -1        61 1.17542E-02-2.06536E-04-1.35003E-13
 -1        62 1.20511E-02-1.78643E-04-1.41604E-13
 -1        63 1.23446E-02-1.50907E-04-1.48299E-13
 -1        64 1.26355E-02-1.22847E-04-1.55096E-13
 -1        65 1.29246E-02-9.41903E-05-1.61978E-13
 -1        66 1.32123E-02-6.48071E-05-1.68926E-13
 -1        67 1.34991E-02-3.46649E-05-1.75931E-13
 -1        68 1.37852E-02-3.79385E-06-1.82969E-13
 -1        69 1.40710E-02 2.77329E-05-1.90039E-13
 -1        70 1.43565E-02 5.98030E-05-1.97144E-13
 -1        71 1.46421E-02 9.22482E-05-2.04283E-13
 -1        72 4.12308E-04 2.60148E-04 9.35971E-17
 -1        73 7.00734E-04 4.00896E-04-2.79182E-18
 -1        74 9.70844E-04 4.95446E-04-2.87192E-16
 -1        75 1.23522E-03 5.61771E-04-7.62807E-16
 -1        76 1.49882E-03 6.08169E-04-1.43041E-15
 -1        77 1.76399E-03 6.39867E-04-2.28772E-15
 -1        78 2.03192E-03 6.60469E-04-3.33374E-15
 -1        79 2.30335E-03 6.72602E-04-4.56581E-15
 -1        80 2.57874E-03 6.78270E-04-5.98184E-15
 -1        81 2.85858E-03 6.79071E-04-7.58127E-15
 -1        82 3.14339E-03 6.76368E-04-9.36269E-15
 -1        83 3.43390E-03 6.71445E-04-1.13233E-14
 -1        84 3.73106E-03 6.65677E-04-1.34623E-14
 -1        85 4.03610E-03 6.60720E-04-1.57797E-14
 -1        86 4.35051E-03 6.58741E-04-1.82766E-14
 -1        87 4.67590E-03 6.62675E-04-2.09494E-14
 -1        88 5.01376E-03 6.76472E-04-2.37929E-14
 -1        89 5.36487E-03 7.05223E-04-2.68116E-14
 -1        90 5.72836E-03 7.54913E-04-3.00097E-14
 -1        91 6.10041E-03 8.31346E-04-3.33866E-14
 -1        92 6.47295E-03 9.37693E-04-3.69348E-14
 -1        93 6.83358E-03 1.07044E-03-4.06554E-14
 -1        94 7.16833E-03 1.21503E-03-4.45660E-14
 -1        95 7.46821E-03 1.34484E-03-4.86741E-14
 -1        96 7.73709E-03 1.42828E-03-5.29830E-14
 -1        97 7.99376E-03 1.44358E-03-5.74876E-14
 -1        98 8.26355E-03 1.39123E-03-6.21881E-14
 -1        99 8.56488E-03 1.29371E-03-6.70783E-14
 -1       100 8.90107E-03 1.18258E-03-7.21536E-14
 -1       101 9.26282E-03 1.08404E-03-7.74015E-14
 -1       102 9.63606E-03 1.01218E-03-8.28083E-14
 -1       103 1.00085E-02 9.70158E-04-8.83791E-14
 -1       104 1.03725E-02 9.54651E-04-9.40976E-14
 -1       105 1.07244E-02 9.59830E-04-9.99574E-14
 -1       106 1.10635E-02 9.79788E-04-1.05958E-13
 -1       107 1.13909E-02 1.00958E-03-1.12103E-13
 -1       108 1.17082E-02 1.04546E-03-1.18385E-13
 -1       109 1.20173E-02 1.08477E-03-1.24781E-13
 -1       110 1.23199E-02 1.12573E-03-1.31288E-13
 -1       111 1.26176E-02 1.16718E-03-1.37893E-13
 -1       112 1.29115E-02 1.20840E-03-1.44582E-13
 -1       113 1.32026E-02 1.24900E-03-1.51343E-13
 -1       114 1.34917E-02 1.28879E-03-1.58174E-13
 -1       115 1.37793E-02 1.32770E-03-1.65046E-13
 -1       116 1.40660E-02 1.36575E-03-1.71942E-13
 -1       117 1.43521E-02 1.40300E-03-1.78880E-13
 -1       118 1.46378E-02 1.43955E-03-1.85860E-13
 -1       119 1.49234E-02 1.47554E-03-1.92883E-13
 -1       120 1.52090E-02 1.51114E-03-1.99926E-13
 -1       121 1.54455E-02 1.46053E-03-2.06957E-13
 -1       122 1.54107E-02 1.37613E-03-2.07331E-13
 -1       123 1.53763E-02 1.29174E-03-2.07673E-13
 -1       124 1.53422E-02 1.20751E-03-2.07967E-13
 -1       125 1.53085E-02 1.12355E-03-2.08239E-13
 -1       126 1.52756E-02 1.04132E-03-2.08542E-13
 -1       127 1.52423E-02 9.57964E-04-2.08881E-13
 -1       128 1.52089E-02 8.74808E-04-2.09198E-13
 -1       129 1.51755E-02 7.91724E-04-2.09489E-13
 -1       130 1.51420E-02 7.08572E-04-2.09747E-13
 -1       131 1.51085E-02 6.25221E-04-2.09987E-13
 -1       132 1.50757E-02 5.43006E-04-2.10210E-13
 -1       133 1.50425E-02 4.59063E-04-2.10412E-13
 -1       134 1.50096E-02 3.74849E-04-2.10597E-13
 -1       135 1.49772E-02 2.90470E-04-2.10774E-13
 -1       136 1.49450E-02 2.06084E-04-2.10942E-13
 -1       137 9.89541E-03 3.89815E-04-6.81185E-14
 -1       138 9.77124E-03 5.54287E-04-6.73089E-14
 -1       139 9.55005E-03 7.09751E-04-6.60042E-14
 -1       140 9.26915E-03 8.37122E-04-6.44395E-14
 -1       141 8.92824E-03 9.40238E-04-6.26277E-14
 -1       142 8.51927E-03 1.01814E-03-6.05310E-14
 -1       143 8.07573E-03 1.05815E-03-5.83534E-14
 -1       144 7.57556E-03 1.05493E-03-5.59819E-14
 -1       145 7.11885E-03 1.00820E-03-5.38968E-14
 -1       146 6.67956E-03 9.19888E-04-5.19424E-14
 -1       147 6.30167E-03 8.02714E-04-5.03087E-14
 -1       148 5.97775E-03 6.56290E-04-4.89464E-14
 -1       149 5.74800E-03 5.02710E-04-4.80200E-14
 -1       150 5.60114E-03 3.41229E-04-4.74679E-14
 -1       151 5.53996E-03 1.77891E-04-4.72987E-14
 -1       152 5.56469E-03 1.69065E-05-4.75044E-14
 -1       153 5.68150E-03-1.43945E-04-4.81174E-14
 -1       154 6.16020E-03-4.16995E-04-5.04312E-14
 -1       155 6.50759E-03-5.20635E-04-5.20818E-14
 -1       156 6.92829E-03-5.97232E-04-5.40835E-14
 -1       157 7.37941E-03-6.35210E-04-5.62345E-14
 -1       158 7.86541E-03-6.32560E-04-5.85802E-14
 -1       159 8.30882E-03-5.92066E-04-6.07263E-14
 -1       160 8.75015E-03-5.11948E-04-6.28837E-14
 -1       161 9.13610E-03-4.01638E-04-6.47810E-14
 -1       162 9.45574E-03-2.67379E-04-6.63498E-14
 -1       163 9.70345E-03-1.12837E-04-6.75397E-14
 -1       164 9.85875E-03 4.98099E-05-6.82346E-14
 -1       165 2.40119E-04-1.24702E-04-3.63885E-17
 -1       166 2.25266E-04-9.37784E-05-6.59297E-17
 -1       167 2.19657E-04-7.19186E-05-8.20165E-17
 -1       168 2.16907E-04-5.42878E-05-9.09307E-17
 -1       169 2.15432E-04-3.92592E-05-9.50235E-17
 -1       170 2.14584E-04-2.53941E-05-9.66702E-17
 -1       171 2.14150E-04-1.23702E-05-9.65990E-17
 -1       172 2.14023E-04 2.66921E-07-9.57418E-17
 -1       173 2.14173E-04 1.29170E-05-9.39122E-17
 -1       174 2.14632E-04 2.59822E-05-9.09375E-17
 -1       175 2.15489E-04 3.96796E-05-8.63533E-17
 -1       176 2.17025E-04 5.50896E-05-7.90146E-17
 -1       177 2.19814E-04 7.29575E-05-6.70579E-17
 -1       178 2.25434E-04 9.51784E-05-4.71323E-17
 -1       179 2.39043E-04 1.26778E-04-1.32916E-17
 -1       180 2.96991E-04 1.84504E-04 2.34560E-17
 -1       181 4.67673E-04-2.61745E-04-1.00763E-16
 -1       182 7.65391E-04-3.78604E-04-3.98600E-16
 -1       183 1.04906E-03-4.59326E-04-8.90858E-16
 -1       184 1.32660E-03-5.15434E-04-1.57934E-15
 -1       185 1.60177E-03-5.53863E-04-2.46318E-15
 -1       186 1.87681E-03-5.79216E-04-3.54041E-15
 -1       187 2.15307E-03-5.94732E-04-4.80911E-15
 -1       188 2.43145E-03-6.02814E-04-6.26702E-15
 -1       189 2.71256E-03-6.05330E-04-7.91210E-15
 -1       190 2.99693E-03-6.03820E-04-9.74307E-15
 -1       191 3.28505E-03-5.99657E-04-1.17547E-14
 -1       192 3.57740E-03-5.94206E-04-1.39416E-14
 -1       193 3.87450E-03-5.88974E-04-1.63009E-14
 -1       194 4.17684E-03-5.85755E-04-1.88278E-14
 -1       195 4.48480E-03-5.86757E-04-2.15245E-14
 -1       196 4.79850E-03-5.94668E-04-2.43863E-14
 -1       197 5.11760E-03-6.12574E-04-2.74118E-14
 -1       198 5.44106E-03-6.43620E-04-3.06080E-14
 -1       199 5.76686E-03-6.90251E-04-3.39743E-14
 -1       200 6.09191E-03-7.52917E-04-3.75122E-14
 -1       201 6.41228E-03-8.28363E-04-4.12322E-14
 -1       202 6.72397E-03-9.08111E-04-4.51357E-14
 -1       203 7.02440E-03-9.78350E-04-4.92324E-14
 -1       204 7.31400E-03-1.02257E-03-5.35260E-14
 -1       205 7.59695E-03-1.02697E-03-5.80188E-14
 -1       206 7.88006E-03-9.86241E-04-6.27160E-14
 -1       207 8.17013E-03-9.06078E-04-6.76115E-14
 -1       208 8.47118E-03-8.00526E-04-7.27047E-14
 -1       209 8.78352E-03-6.86063E-04-7.79792E-14
 -1       210 9.10450E-03-5.76281E-04-8.34210E-14
 -1       211 9.43014E-03-4.79410E-04-8.90079E-14
 -1       212 9.75661E-03-3.98519E-04-9.47380E-14
 -1       213 1.00809E-02-3.33064E-04-1.00607E-13
 -1       214 1.04012E-02-2.80597E-04-1.06606E-13
 -1       215 1.07165E-02-2.38041E-04-1.12728E-13
 -1       216 1.10267E-02-2.02452E-04-1.18967E-13
 -1       217 1.13320E-02-1.71362E-04-1.25306E-13
 -1       218 1.16330E-02-1.42871E-04-1.31743E-13
 -1       219 1.19303E-02-1.15608E-04-1.38284E-13
 -1       220 1.22246E-02-8.86450E-05-1.44923E-13
 -1       221 1.25164E-02-6.13921E-05-1.51655E-13
 -1       222 1.28064E-02-3.35088E-05-1.58481E-13
 -1       223 1.30950E-02-4.82814E-06-1.65379E-13
 -1       224 1.33826E-02 2.47012E-05-1.72343E-13
 -1       225 1.36694E-02 5.50567E-05-1.79353E-13
 -1       226 1.39557E-02 8.61687E-05-1.86401E-13
 -1       227 1.42416E-02 1.17933E-04-1.93483E-13
 -1       228 1.45274E-02 1.50203E-04-2.00596E-13
 -1       229 6.03225E-04 3.28542E-04-1.04043E-16
 -1       230 8.91923E-04 4.28250E-04-4.07711E-16
 -1       231 1.17069E-03 4.97617E-04-8.95659E-16
 -1       232 1.44528E-03 5.45761E-04-1.57025E-15
 -1       233 1.71882E-03 5.78398E-04-2.43157E-15
 -1       234 1.99315E-03 5.99405E-04-3.47951E-15
 -1       235 2.26937E-03 6.11572E-04-4.71177E-15
 -1       236 2.54827E-03 6.16987E-04-6.12636E-15
 -1       237 2.83046E-03 6.17284E-04-7.72184E-15
 -1       238 3.11654E-03 6.13825E-04-9.49807E-15
 -1       239 3.40718E-03 6.07861E-04-1.14541E-14
 -1       240 3.70317E-03 6.00703E-04-1.35877E-14
 -1       241 4.00545E-03 5.93926E-04-1.58980E-14
 -1       242 4.31511E-03 5.89598E-04-1.83847E-14
 -1       243 4.63327E-03 5.90560E-04-2.10460E-14
 -1       244 4.96092E-03 6.00714E-04-2.38788E-14
 -1       245 5.29859E-03 6.25223E-04-2.68863E-14
 -1       246 5.64580E-03 6.70386E-04-3.00693E-14
 -1       247 6.00038E-03 7.42735E-04-3.34262E-14
 -1       248 6.35780E-03 8.46692E-04-3.69605E-14
 -1       249 6.71099E-03 9.80371E-04-4.06673E-14
 -1       250 7.05169E-03 1.13043E-03-4.45584E-14
 -1       251 7.37385E-03 1.26971E-03-4.86434E-14
 -1       252 7.67827E-03 1.36344E-03-5.29300E-14
 -1       253 7.97466E-03 1.38553E-03-5.74177E-14
 -1       254 8.27727E-03 1.33410E-03-6.21032E-14
 -1       255 8.59681E-03 1.23266E-03-6.69779E-14
 -1       256 8.93536E-03 1.11573E-03-7.20370E-14
 -1       257 9.28758E-03 1.01208E-03-7.72716E-14
 -1       258 9.64531E-03 9.36957E-04-8.26702E-14
 -1       259 1.00012E-02 8.93552E-04-8.82259E-14
 -1       260 1.03505E-02 8.78067E-04-9.39303E-14
 -1       261 1.06908E-02 8.84128E-04-9.97787E-14
 -1       262 1.10214E-02 9.05389E-04-1.05769E-13
 -1       263 1.13430E-02 9.36604E-04-1.11895E-13
 -1       264 1.16567E-02 9.73857E-04-1.18148E-13
 -1       265 1.19636E-02 1.01440E-03-1.24523E-13
 -1       266 1.22652E-02 1.05642E-03-1.31004E-13
 -1       267 1.25624E-02 1.09873E-03-1.37585E-13
 -1       268 1.28563E-02 1.14067E-03-1.44258E-13
 -1       269 1.31477E-02 1.18183E-03-1.51007E-13
 -1       270 1.34372E-02 1.22206E-03-1.57824E-13
 -1       271 1.37254E-02 1.26130E-03-1.64683E-13
 -1       272 1.40126E-02 1.29960E-03-1.71577E-13
 -1       273 1.42991E-02 1.33703E-03-1.78512E-13
 -1       274 1.45852E-02 1.37370E-03-1.85489E-13
 -1       275 1.48711E-02 1.40976E-03-1.92503E-13
 -1       276 1.51568E-02 1.44538E-03-1.99537E-13
 -1       277 1.51806E-02 1.38771E-03-2.01047E-13
 -1       278 1.51460E-02 1.30349E-03-2.01391E-13
 -1       279 1.51118E-02 1.21942E-03-2.01714E-13
 -1       280 1.50780E-02 1.13557E-03-2.02022E-13
 -1       281 1.50451E-02 1.05339E-03-2.02321E-13
 -1       282 1.50118E-02 9.70040E-04-2.02629E-13
 -1       283 1.49785E-02 8.86881E-04-2.02935E-13
 -1       284 1.49451E-02 8.03828E-04-2.03227E-13
 -1       285 1.49117E-02 7.20776E-04-2.03494E-13
 -1       286 1.48781E-02 6.37618E-04-2.03739E-13
 -1       287 1.48451E-02 5.55681E-04-2.03958E-13
 -1       288 1.48117E-02 4.72089E-04-2.04160E-13
 -1       289 1.47786E-02 3.88243E-04-2.04345E-13
 -1       290 1.47459E-02 3.04183E-04-2.04518E-13
 -1       291 1.46366E-02 2.27195E-04-2.02563E-13
 -1       292 9.94466E-03 2.81379E-04-7.03812E-14
 -1       293 9.83484E-03 3.79094E-04-6.96989E-14
 -1       294 9.59753E-03 4.95015E-04-6.86615E-14
 -1       295 9.29225E-03 6.57809E-04-6.66884E-14
 -1       296 8.94941E-03 8.18958E-04-6.46638E-14
 -1       297 8.57022E-03 9.73963E-04-6.24371E-14
 -1       298 8.20333E-03 1.09404E-03-5.98222E-14
 -1       299 7.82199E-03 1.14505E-03-5.71086E-14
 -1       300 7.43328E-03 1.09248E-03-5.45115E-14
 -1       301 7.05217E-03 9.68247E-04-5.21226E-14
 -1       302 6.65219E-03 7.94261E-04-5.01164E-14
 -1       303 6.28180E-03 5.96784E-04-4.82445E-14
 -1       304 5.93834E-03 4.33617E-04-4.70285E-14
 -1       305 5.68576E-03 3.08375E-04-4.62934E-14
 -1       306 5.54124E-03 2.05658E-04-4.58896E-14
 -1       307 5.51647E-03 1.17541E-04-4.59105E-14
 -1       308 5.61590E-03 2.67913E-05-4.62713E-14
 -1       309 5.82436E-03-9.00944E-05-4.72425E-14
 -1       310 6.12003E-03-2.31376E-04-4.85506E-14
 -1       311 6.47742E-03-3.93251E-04-5.02803E-14
 -1       312 6.86369E-03-5.48846E-04-5.23265E-14
 -1       313 7.24786E-03-6.68812E-04-5.47529E-14
 -1       314 7.62921E-03-7.19329E-04-5.74061E-14
 -1       315 8.00725E-03-6.73374E-04-6.00568E-14
 -1       316 8.38245E-03-5.59903E-04-6.26742E-14
 -1       317 8.77707E-03-3.91293E-04-6.51324E-14
 -1       318 9.16514E-03-2.16129E-04-6.71332E-14
 -1       319 9.49993E-03-3.93499E-05-6.90478E-14
 -1       320 9.77037E-03 8.17988E-05-6.99238E-14
 -1       321 9.92690E-03 1.93620E-04-7.07519E-14
 -1       322 4.55558E-04-1.62787E-04-2.81649E-16
 -1       323 4.74039E-04-2.10952E-04-2.33314E-16
 -1       324 4.40796E-04-9.23152E-05-3.26894E-16
 -1       325 4.37779E-04-6.35692E-05-3.35066E-16
 -1       326 4.36089E-04-3.70492E-05-3.38017E-16
 -1       327 4.35336E-04-1.17318E-05-3.37190E-16
 -1       328 4.35371E-04 1.32212E-05-3.33402E-16
 -1       329 4.36199E-04 3.85982E-05-3.26209E-16
 -1       330 4.37937E-04 6.47813E-05-3.15154E-16
 -1       331 4.41047E-04 9.37020E-05-2.98454E-16
 -1       332 4.46409E-04 1.26403E-04-2.73399E-16
 -1       333 4.56069E-04 1.65294E-04-2.35258E-16
 -1       334 4.75654E-04 2.15012E-04-1.77043E-16
 -1       335 5.31339E-04 2.67730E-04-1.51023E-16
 -1       336 8.23624E-04 3.69385E-04-4.64760E-16
 -1       337 8.62842E-04-3.52889E-04-7.42214E-16
 -1       338 1.14937E-03-4.19203E-04-1.35831E-15
 -1       339 1.43261E-03-4.65357E-04-2.16466E-15
 -1       340 1.71420E-03-4.96408E-04-3.16004E-15
 -1       341 1.99539E-03-5.16063E-04-4.34390E-15
 -1       342 2.27713E-03-5.27082E-04-5.71504E-15
 -1       343 2.56014E-03-5.31575E-04-7.27122E-15
 -1       344 2.84495E-03-5.31222E-04-9.01035E-15
 -1       345 3.13204E-03-5.27443E-04-1.09316E-14
 -1       346 3.42186E-03-5.21564E-04-1.30287E-14
 -1       347 3.71483E-03-5.14966E-04-1.52991E-14
 -1       348 4.01142E-03-5.09243E-04-1.77390E-14
 -1       349 4.31208E-03-5.06344E-04-2.03462E-14
 -1       350 4.61726E-03-5.08695E-04-2.31221E-14
 -1       351 4.92730E-03-5.19233E-04-2.60606E-14
 -1       352 5.24232E-03-5.41270E-04-2.91649E-14
 -1       353 5.56203E-03-5.78045E-04-3.24402E-14
 -1       354 5.88540E-03-6.31776E-04-3.58850E-14
 -1       355 6.21036E-03-7.02093E-04-3.95060E-14
 -1       356 6.53365E-03-7.83987E-04-4.33079E-14
 -1       357 6.85141E-03-8.66135E-04-4.72939E-14
 -1       358 7.16093E-03-9.31341E-04-5.14774E-14
 -1       359 7.46279E-03-9.61002E-04-5.58570E-14
 -1       360 7.76159E-03-9.42726E-04-6.04408E-14
 -1       361 8.06375E-03-8.76737E-04-6.52290E-14
 -1       362 8.37373E-03-7.75850E-04-7.02153E-14
 -1       363 8.69196E-03-6.58780E-04-7.53919E-14
 -1       364 9.01562E-03-5.42484E-04-8.07420E-14
 -1       365 9.34091E-03-4.37981E-04-8.62461E-14
 -1       366 9.66464E-03-3.50043E-04-9.18957E-14
 -1       367 9.98483E-03-2.78907E-04-9.76906E-14
 -1       368 1.03006E-02-2.22312E-04-1.03615E-13
 -1       369 1.06116E-02-1.77060E-04-1.09669E-13
 -1       370 1.09181E-02-1.39945E-04-1.15839E-13
 -1       371 1.12207E-02-1.08208E-04-1.22119E-13
 -1       372 1.15196E-02-7.96818E-05-1.28503E-13
 -1       373 1.18156E-02-5.27761E-05-1.34982E-13
 -1       374 1.21091E-02-2.63927E-05-1.41560E-13
 -1       375 1.24007E-02 1.78853E-07-1.48236E-13
 -1       376 1.26906E-02 2.73610E-05-1.55004E-13
 -1       377 1.29793E-02 5.53720E-05-1.61852E-13
 -1       378 1.32670E-02 8.42923E-05-1.68769E-13
 -1       379 1.35541E-02 1.14114E-04-1.75745E-13
 -1       380 1.38406E-02 1.44774E-04-1.82767E-13
 -1       381 1.41268E-02 1.76176E-04-1.89827E-13
 -1       382 1.43818E-02 2.01494E-04-1.96185E-13
 -1       383 1.10914E-03 4.41348E-04-9.57012E-16
 -1       384 1.39024E-03 4.91483E-04-1.63199E-15
 -1       385 1.66934E-03 5.25486E-04-2.49110E-15
 -1       386 1.94813E-03 5.47366E-04-3.53423E-15
 -1       387 2.22776E-03 5.60033E-04-4.76054E-15
 -1       388 2.50908E-03 5.65658E-04-6.16778E-15
 -1       389 2.79272E-03 5.65921E-04-7.75438E-15
 -1       390 3.07926E-03 5.62199E-04-9.52103E-15
 -1       391 3.36929E-03 5.55726E-04-1.14664E-14
 -1       392 3.66346E-03 5.47770E-04-1.35881E-14
 -1       393 3.96248E-03 5.39824E-04-1.58861E-14
 -1       394 4.26720E-03 5.33844E-04-1.83590E-14
 -1       395 4.57851E-03 5.32519E-04-2.10059E-14
 -1       396 4.89732E-03 5.39576E-04-2.38237E-14
 -1       397 5.22441E-03 5.60020E-04-2.68155E-14
 -1       398 5.56018E-03 6.00133E-04-2.99801E-14
 -1       399 5.90430E-03 6.66818E-04-3.33178E-14
 -1       400 6.25496E-03 7.65639E-04-3.68308E-14
 -1       401 6.60819E-03 8.96889E-04-4.05183E-14
 -1       402 6.95751E-03 1.04991E-03-4.43847E-14
 -1       403 7.29591E-03 1.19865E-03-4.84432E-14
 -1       404 7.62049E-03 1.30532E-03-5.27043E-14
 -1       405 7.93731E-03 1.33739E-03-5.71697E-14
 -1       406 8.25807E-03 1.28886E-03-6.18336E-14
 -1       407 8.59148E-03 1.18445E-03-6.66901E-14
 -1       408 8.93767E-03 1.06243E-03-7.17327E-14
 -1       409 9.29058E-03 9.54504E-04-7.69503E-14
 -1       410 9.64315E-03 8.76678E-04-8.23326E-14
 -1       411 9.99049E-03 8.31928E-04-8.78737E-14
 -1       412 1.03302E-02 8.16020E-04-9.35639E-14
 -1       413 1.06614E-02 8.22228E-04-9.93983E-14
 -1       414 1.09845E-02 8.43966E-04-1.05372E-13
 -1       415 1.13002E-02 8.75827E-04-1.11478E-13
 -1       416 1.16096E-02 9.13789E-04-1.17710E-13
 -1       417 1.19135E-02 9.55036E-04-1.24063E-13
 -1       418 1.22130E-02 9.97700E-04-1.30521E-13
 -1       419 1.25090E-02 1.04060E-03-1.37083E-13
 -1       420 1.28023E-02 1.08303E-03-1.43741E-13
 -1       421 1.30933E-02 1.12461E-03-1.50478E-13
 -1       422 1.33827E-02 1.16518E-03-1.57281E-13
 -1       423 1.36709E-02 1.20470E-03-1.64131E-13
 -1       424 1.39583E-02 1.24322E-03-1.71020E-13
 -1       425 1.42449E-02 1.28082E-03-1.77946E-13
 -1       426 1.45312E-02 1.31762E-03-1.84917E-13
 -1       427 1.48172E-02 1.35377E-03-1.91924E-13
 -1       428 1.49989E-02 1.37081E-03-1.96483E-13
 -1       429 1.48475E-02 1.14701E-03-1.95781E-13
 -1       430 1.48814E-02 1.23081E-03-1.95457E-13
 -1       431 1.49400E-02 1.30075E-03-1.95975E-13
 -1       432 1.48146E-02 1.06491E-03-1.96090E-13
 -1       433 1.47813E-02 9.81663E-04-1.96395E-13
 -1       434 1.47481E-02 8.98652E-04-1.96690E-13
 -1       435 1.47149E-02 8.15794E-04-1.96973E-13
 -1       436 1.46814E-02 7.32988E-04-1.97245E-13
 -1       437 1.46479E-02 6.50125E-04-1.97496E-13
 -1       438 1.46148E-02 5.68515E-04-1.97718E-13
 -1       439 1.45812E-02 4.85267E-04-1.97920E-13
 -1       440 1.45478E-02 4.01744E-04-1.98106E-13
 -1       441 1.45148E-02 3.17943E-04-1.98281E-13
 -1       442 9.73664E-03 3.75006E-04-7.15477E-14
 -1       443 9.97350E-03 2.49925E-04-7.32637E-14
 -1       444 9.92868E-03 2.93338E-04-7.25580E-14
 -1       445 9.39605E-03 5.27944E-04-6.92726E-14
 -1       446 9.06160E-03 6.90208E-04-6.72493E-14
 -1       447 4.45928E-04-1.24570E-04-3.10431E-16
 -1       448 8.33165E-03 1.05664E-03-6.16209E-14
 -1       449 8.00558E-03 1.16249E-03-5.87658E-14
 -1       450 7.63370E-03 1.16122E-03-5.52617E-14
 -1       451 7.34462E-03 1.06916E-03-5.28556E-14
 -1       452 6.92345E-03 8.53596E-04-4.97706E-14
 -1       453 6.58982E-03 6.66960E-04-4.79174E-14
 -1       454 6.13797E-03 4.39592E-04-4.61137E-14
 -1       455 5.81142E-03 2.95763E-04-4.50174E-14
 -1       456 5.59331E-03 2.01193E-04-4.40969E-14
 -1       457 5.49480E-03 1.46412E-04-4.39820E-14
 -1       458 5.53508E-03 9.75550E-05-4.43954E-14
 -1       459 5.72314E-03 1.64671E-05-4.52922E-14
 -1       460 6.00020E-03-9.80561E-05-4.64502E-14
 -1       461 6.35278E-03-2.62036E-04-4.81693E-14
 -1       462 6.72546E-03-4.44193E-04-5.01348E-14
 -1       463 7.10840E-03-6.25189E-04-5.28320E-14
 -1       464 7.44751E-03-7.33647E-04-5.57100E-14
 -1       465 7.81369E-03-7.35804E-04-5.91951E-14
 -1       466 8.10079E-03-6.52198E-04-6.17952E-14
 -1       467 8.50310E-03-4.61084E-04-6.51260E-14
 -1       468 8.91529E-03-2.49089E-04-6.76953E-14
 -1       469 9.26922E-03-7.04257E-05-6.97916E-14
 -1       470 9.64701E-03 1.03667E-04-7.20616E-14
 -1       471 9.85646E-03 1.83833E-04-7.28977E-14
 -1       472 8.72286E-03 8.69477E-04-6.47344E-14
 -1       473 9.31256E-04 3.40858E-04-8.17573E-16
 -1       474 6.65992E-04-7.33057E-05-7.18779E-16
 -1       475 6.70120E-04-1.13342E-04-7.08336E-16
 -1       476 6.63144E-04 1.08570E-06-7.17030E-16
 -1       477 6.63924E-04 3.77808E-05-7.06466E-16
 -1       478 6.66203E-04 7.49686E-05-6.89370E-16
 -1       479 6.70467E-04 1.15159E-04-6.63403E-16
 -1       480 6.77584E-04 1.59260E-04-6.26147E-16
 -1       481 6.89432E-04 2.09314E-04-5.72672E-16
 -1       482 1.21742E-03 3.98713E-04-1.43294E-15
 -1       483 9.76575E-04-3.23082E-04-1.12542E-15
 -1       484 8.52402E-03 9.72372E-04-6.42866E-14
 -1       485 1.26279E-03-3.75254E-04-1.85736E-15
 -1       486 1.54831E-03-4.11691E-04-2.77444E-15
 -1       487 1.83322E-03-4.35707E-04-3.87733E-15
 -1       488 2.11792E-03-4.50115E-04-5.16433E-15
 -1       489 2.40286E-03-4.57158E-04-6.63394E-15
 -1       490 2.68844E-03-4.58619E-04-8.28485E-15
 -1       491 2.97503E-03-4.55968E-04-1.01151E-14
 -1       492 3.26296E-03-4.50494E-04-1.21235E-14
 -1       493 3.55259E-03-4.43456E-04-1.43056E-14
 -1       494 3.84432E-03-4.36223E-04-1.66577E-14
 -1       495 4.13866E-03-4.30424E-04-1.91774E-14
 -1       496 4.43622E-03-4.28083E-04-2.18644E-14
 -1       497 4.73783E-03-4.31738E-04-2.47179E-14
 -1       498 5.04447E-03-4.44475E-04-2.77347E-14
 -1       499 5.35722E-03-4.69810E-04-3.09192E-14
 -1       500 5.67695E-03-5.11240E-04-3.42721E-14
 -1       501 6.00367E-03-5.71218E-04-3.77973E-14
 -1       502 6.33559E-03-6.49205E-04-4.14982E-14
 -1       503 6.66846E-03-7.38743E-04-4.53782E-14
 -1       504 6.99640E-03-8.24699E-04-4.94473E-14
 -1       505 7.31542E-03-8.84249E-04-5.37127E-14
 -1       506 7.62726E-03-8.95018E-04-5.81820E-14
 -1       507 7.93926E-03-8.47424E-04-6.28614E-14
 -1       508 8.25874E-03-7.51704E-04-6.77416E-14
 -1       509 8.58711E-03-6.30580E-04-7.28173E-14
 -1       510 8.92016E-03-5.06657E-04-7.80760E-14
 -1       511 9.25210E-03-3.94585E-04-8.34949E-14
 -1       512 9.57880E-03-3.00515E-04-8.90650E-14
 -1       513 9.89857E-03-2.24825E-04-9.47843E-14
 -1       514 1.02115E-02-1.65004E-04-1.00637E-13
 -1       515 1.05185E-02-1.17568E-04-1.06621E-13
 -1       516 1.08207E-02-7.90896E-05-1.12726E-13
 -1       517 1.11191E-02-4.66250E-05-1.18943E-13
 -1       518 1.14145E-02-1.78492E-05-1.25269E-13
 -1       519 1.17077E-02 8.96578E-06-1.31694E-13
 -1       520 1.19990E-02 3.50339E-05-1.38213E-13
 -1       521 1.22889E-02 6.11588E-05-1.44830E-13
 -1       522 1.25777E-02 8.78329E-05-1.51545E-13
 -1       523 1.28657E-02 1.15324E-04-1.58341E-13
 -1       524 1.31530E-02 1.43745E-04-1.65210E-13
 -1       525 1.34398E-02 1.73107E-04-1.72145E-13
 -1       526 1.37263E-02 2.03358E-04-1.79135E-13
 -1       527 1.40125E-02 2.34411E-04-1.86170E-13
 -1       528 1.78571E-03 4.65970E-04-3.20509E-15
 -1       529 2.06909E-03 4.82415E-04-4.36261E-15
 -1       530 2.35287E-03 4.90855E-04-5.69884E-15
 -1       531 2.63759E-03 4.93149E-04-7.21282E-15
 -1       532 2.92372E-03 4.90776E-04-8.90623E-15
 -1       533 3.21167E-03 4.84990E-04-1.07771E-14
 -1       534 3.50185E-03 4.76977E-04-1.28238E-14
 -1       535 3.79469E-03 4.68022E-04-1.50456E-14
 -1       536 4.09071E-03 4.59716E-04-1.74412E-14
 -1       537 4.39055E-03 4.54183E-04-2.00097E-14
 -1       538 4.69501E-03 4.54357E-04-2.27497E-14
 -1       539 5.00525E-03 4.64265E-04-2.56610E-14
 -1       540 5.32282E-03 4.89260E-04-2.87431E-14
 -1       541 5.64979E-03 5.36024E-04-3.19961E-14
 -1       542 5.98835E-03 6.11949E-04-3.54217E-14
 -1       543 6.33958E-03 7.23064E-04-3.90201E-14
 -1       544 6.70098E-03 8.69192E-04-4.27894E-14
 -1       545 7.06444E-03 1.03562E-03-4.67424E-14
 -1       546 7.41921E-03 1.18581E-03-5.08937E-14
 -1       547 7.76026E-03 1.26816E-03-5.52538E-14
 -1       548 8.09951E-03 1.25313E-03-5.98205E-14
 -1       549 8.44964E-03 1.15652E-03-6.45874E-14
 -1       550 8.81075E-03 1.02363E-03-6.95468E-14
 -1       551 9.17436E-03 9.00655E-04-7.46863E-14
 -1       552 9.53011E-03 8.09421E-04-7.99911E-14
 -1       553 9.87365E-03 7.54324E-04-8.54572E-14
 -1       554 1.02051E-02 7.30845E-04-9.10783E-14
 -1       555 1.05264E-02 7.31743E-04-9.68466E-14
 -1       556 1.08399E-02 7.49984E-04-1.02752E-13
 -1       557 1.11474E-02 7.79769E-04-1.08790E-13
 -1       558 1.14501E-02 8.16716E-04-1.14954E-13
 -1       559 1.17491E-02 8.57695E-04-1.21236E-13
 -1       560 1.20451E-02 9.00579E-04-1.27634E-13
 -1       561 1.23386E-02 9.43987E-04-1.34136E-13
 -1       562 1.26303E-02 9.87074E-04-1.40739E-13
 -1       563 1.29204E-02 1.02936E-03-1.47434E-13
 -1       564 1.32093E-02 1.07062E-03-1.54196E-13
 -1       565 1.34972E-02 1.11078E-03-1.61018E-13
 -1       566 1.37845E-02 1.14987E-03-1.67883E-13
 -1       567 1.40712E-02 1.18797E-03-1.74788E-13
 -1       568 1.43576E-02 1.22518E-03-1.81731E-13
 -1       569 1.46437E-02 1.26165E-03-1.88723E-13
 -1       570 1.45509E-02 9.92748E-04-1.90171E-13
 -1       571 1.45178E-02 9.09951E-04-1.90468E-13
 -1       572 1.46170E-02 1.15793E-03-1.89543E-13
 -1       573 1.45838E-02 1.07516E-03-1.89864E-13
 -1       574 1.44847E-02 8.27392E-04-1.90748E-13
 -1       575 1.44514E-02 7.44958E-04-1.91016E-13
 -1       576 1.44179E-02 6.62517E-04-1.91264E-13
 -1       577 1.43847E-02 5.81344E-04-1.91491E-13
 -1       578 1.43509E-02 4.98531E-04-1.91695E-13
 -1       579 1.43172E-02 4.15397E-04-1.91883E-13
 -1       580 1.42838E-02 3.31906E-04-1.92058E-13
 -1       581 9.57816E-03 4.30984E-04-7.24430E-14
 -1       582 9.96688E-03 2.35688E-04-7.58014E-14
 -1       583 1.50207E-03 4.39112E-04-2.22836E-15
 -1       584 9.99136E-03 2.75458E-04-7.56977E-14
 -1       585 9.44880E-03 4.57469E-05-7.30076E-14
 -1       586 9.24775E-03 5.82189E-04-7.02235E-14
 -1       587 9.87001E-03 3.21612E-04-7.46636E-14
 -1       588 7.63300E-03-7.68737E-04-5.75769E-14
 -1       589 8.23187E-03 1.11125E-03-6.13545E-14
 -1       590 6.63798E-04-3.55733E-05-7.21289E-16
 -1       591 7.82349E-03 1.20019E-03-5.68579E-14
 -1       592 5.95136E-03 3.24994E-04-4.37897E-14
 -1       593 7.49128E-03 1.13496E-03-5.33340E-14
 -1       594 7.16836E-03 9.82276E-04-5.04869E-14
 -1       595 6.76129E-03 7.45908E-04-4.74548E-14
 -1       596 8.71194E-03-3.25740E-04-6.82492E-14
 -1       597 6.33869E-03 5.08271E-04-4.51818E-14
 -1       598 5.70268E-03 2.26991E-04-4.28890E-14
 -1       599 5.50012E-03 1.55085E-04-4.23381E-14
 -1       600 5.47297E-03 1.18493E-04-4.24109E-14
 -1       601 5.59056E-03 7.05767E-05-4.28395E-14
 -1       602 5.83648E-03-1.56085E-05-4.42382E-14
 -1       603 6.17039E-03-1.57949E-04-4.57961E-14
 -1       604 6.51342E-03-3.29588E-04-4.75815E-14
 -1       605 6.91770E-03-5.42366E-04-5.04757E-14
 -1       606 7.26628E-03-6.99090E-04-5.36053E-14
 -1       607 7.95389E-03-7.10489E-04-6.11789E-14
 -1       608 8.27465E-03-5.68660E-04-6.44280E-14
 -1       609 9.07543E-03-1.28827E-04-7.09086E-14
 -1       610 9.78477E-03 1.74911E-04-7.50987E-14
 -1       611 7.12840E-04-2.48253E-04-6.32822E-16
 -1       612 7.03636E-04 2.87439E-04-4.37235E-16
 -1       613 8.87586E-03 7.79100E-04-6.74035E-14
 -1       614 8.04680E-03 1.19356E-03-5.93841E-14
 -1       615 6.77056E-04-1.56986E-04-6.87032E-16
 -1       616 1.42051E-02 2.54136E-04-1.90949E-13
 -1       617 5.55621E-03 1.77761E-04-4.11436E-14
 -1       618 8.99500E-04 7.20002E-05-1.20638E-15
 -1       619 8.97224E-04 2.44521E-05-1.22837E-15
 -1       620 9.12202E-04 1.73954E-04-1.12559E-15
 -1       621 9.24749E-04 2.31854E-04-1.05925E-15
 -1       622 1.04943E-03 3.07716E-04-1.21638E-15
 -1       623 5.94382E-03-8.11948E-05-4.31822E-14
 -1       624 1.33543E-03 3.52508E-04-1.94955E-15
 -1       625 9.31875E-03-1.92526E-05-7.47264E-14
 -1       626 1.38404E-03-3.27689E-04-2.38802E-15
 -1       627 1.67043E-03-3.55112E-04-3.41123E-15
 -1       628 1.95692E-03-3.72626E-04-4.61629E-15
 -1       629 2.24333E-03-3.82319E-04-6.00181E-15
 -1       630 2.52971E-03-3.85944E-04-7.56647E-15
 -1       631 2.81615E-03-3.84955E-04-9.30861E-15
 -1       632 3.10281E-03-3.80589E-04-1.12272E-14
 -1       633 3.38988E-03-3.73976E-04-1.33208E-14
 -1       634 3.67765E-03-3.66259E-04-1.55851E-14
 -1       635 3.96651E-03-3.58720E-04-1.80180E-14
 -1       636 4.25710E-03-3.52917E-04-2.06176E-14
 -1       637 4.55037E-03-3.50817E-04-2.33842E-14
 -1       638 4.84773E-03-3.54932E-04-2.63149E-14
 -1       639 5.15112E-03-3.68439E-04-2.94112E-14
 -1       640 5.46291E-03-3.95220E-04-3.26749E-14
 -1       641 5.78545E-03-4.39638E-04-3.61052E-14
 -1       642 6.11986E-03-5.05536E-04-3.97082E-14
 -1       643 6.46403E-03-5.93509E-04-4.34840E-14
 -1       644 6.81141E-03-6.95801E-04-4.74410E-14
 -1       645 7.15166E-03-7.89320E-04-5.15882E-14
 -1       646 7.48104E-03-8.40770E-04-5.59380E-14
 -1       647 7.80378E-03-8.22047E-04-6.05024E-14
 -1       648 8.13336E-03-7.33697E-04-6.52800E-14
 -1       649 8.47440E-03-6.04267E-04-7.02550E-14
 -1       650 8.82167E-03-4.67899E-04-7.54235E-14
 -1       651 9.16557E-03-3.46111E-04-8.07577E-14
 -1       652 9.49953E-03-2.46350E-04-8.62472E-14
 -1       653 9.82165E-03-1.67846E-04-9.18888E-14
 -1       654 1.01331E-02-1.06706E-04-9.76709E-14
 -1       655 1.04363E-02-5.85827E-05-1.03586E-13
 -1       656 1.07336E-02-1.96701E-05-1.09623E-13
 -1       657 1.10268E-02 1.30864E-05-1.15777E-13
 -1       658 1.13175E-02 4.20292E-05-1.22043E-13
 -1       659 1.16064E-02 6.88863E-05-1.28413E-13
 -1       660 1.18943E-02 9.48816E-05-1.34877E-13
 -1       661 1.21815E-02 1.20840E-04-1.41441E-13
 -1       662 1.24683E-02 1.47280E-04-1.48100E-13
 -1       663 1.27547E-02 1.74497E-04-1.54845E-13
 -1       664 1.30409E-02 2.02626E-04-1.61668E-13
 -1       665 1.33270E-02 2.31695E-04-1.68561E-13
 -1       666 1.36129E-02 2.61665E-04-1.75514E-13
 -1       667 1.38988E-02 2.92458E-04-1.82518E-13
 -1       668 2.19322E-03 4.15292E-04-5.21911E-15
 -1       669 6.26355E-03-2.35001E-04-4.47895E-14
 -1       670 1.90743E-03 4.03782E-04-3.95162E-15
 -1       671 2.76518E-03 4.19694E-04-8.28244E-15
 -1       672 3.05173E-03 4.15403E-04-1.00800E-14
 -1       673 3.33890E-03 4.08341E-04-1.20527E-14
 -1       674 3.62685E-03 3.99635E-04-1.41998E-14
 -1       675 3.91577E-03 3.90565E-04-1.65196E-14
 -1       676 4.20598E-03 3.82739E-04-1.90111E-14
 -1       677 4.49802E-03 3.78295E-04-2.16739E-14
 -1       678 4.79287E-03 3.80141E-04-2.45063E-14
 -1       679 5.09229E-03 3.92219E-04-2.75088E-14
 -1       680 5.39924E-03 4.19828E-04-3.06808E-14
 -1       681 5.71825E-03 4.69981E-04-3.40216E-14
 -1       682 6.05499E-03 5.51552E-04-3.75320E-14
 -1       683 6.41397E-03 6.73818E-04-4.12080E-14
 -1       684 6.79323E-03 8.39623E-04-4.50569E-14
 -1       685 7.17983E-03 1.02932E-03-4.90954E-14
 -1       686 8.68049E-03 9.85456E-04-6.73583E-14
 -1       687 9.06485E-03 8.40950E-04-7.24197E-14
 -1       688 9.43219E-03 7.35641E-04-7.76510E-14
 -1       689 9.77694E-03 6.73426E-04-8.30438E-14
 -1       690 1.01019E-02 6.46071E-04-8.85934E-14
 -1       691 1.04129E-02 6.44209E-04-9.42945E-14
 -1       692 1.07149E-02 6.60156E-04-1.00137E-13
 -1       693 1.10116E-02 6.88069E-04-1.06109E-13
 -1       694 1.13050E-02 7.23627E-04-1.12205E-13
 -1       695 1.15963E-02 7.63711E-04-1.18421E-13
 -1       696 1.18864E-02 8.06136E-04-1.24756E-13
 -1       697 1.21754E-02 8.49427E-04-1.31200E-13
 -1       698 1.24638E-02 8.92638E-04-1.37752E-13
 -1       699 1.27515E-02 9.35203E-04-1.44396E-13
 -1       700 1.30388E-02 9.76823E-04-1.51118E-13
 -1       701 1.33257E-02 1.01738E-03-1.57910E-13
 -1       702 1.36123E-02 1.05685E-03-1.64749E-13
 -1       703 1.38986E-02 1.09532E-03-1.71634E-13
 -1       704 1.41847E-02 1.13287E-03-1.78554E-13
 -1       705 1.44009E-02 1.14563E-03-1.84037E-13
 -1       706 1.42216E-02 7.56479E-04-1.84820E-13
 -1       707 1.40913E-02 3.12034E-04-1.87280E-13
 -1       708 1.42876E-02 9.20649E-04-1.84273E-13
 -1       709 1.41882E-02 6.74585E-04-1.85068E-13
 -1       710 1.42547E-02 8.38446E-04-1.84558E-13
 -1       711 1.62152E-03 3.83636E-04-2.86137E-15
 -1       712 1.41550E-02 5.93987E-04-1.85293E-13
 -1       713 1.41210E-02 5.11752E-04-1.85502E-13
 -1       714 1.40870E-02 4.29146E-04-1.85690E-13
 -1       715 9.94055E-03 2.21199E-04-7.83105E-14
 -1       716 8.51049E-03-4.58026E-04-6.81869E-14
 -1       717 7.06069E-03-6.41095E-04-5.11373E-14
 -1       718 9.99624E-03 3.04147E-04-7.80996E-14
 -1       719 8.41315E-03 1.06133E-03-6.37467E-14
 -1       720 9.48579E-03 5.03297E-04-7.41736E-14
 -1       721 2.47907E-03 4.20082E-04-6.66226E-15
 -1       722 1.09830E-03-2.88139E-04-1.54776E-15
 -1       723 6.06641E-03 3.85969E-04-4.23462E-14
 -1       724 8.73850E-03 8.87362E-04-6.72199E-14
 -1       725 7.80058E-03-7.66095E-04-5.98311E-14
 -1       726 9.04259E-04 1.21295E-04-1.17288E-15
 -1       727 9.03863E-04-1.18921E-04-1.23181E-15
 -1       728 8.91937E-03-2.23443E-04-7.17398E-14
 -1       729 9.12730E-03 6.81691E-04-7.11278E-14
 -1       730 8.12950E-03-6.52438E-04-6.38054E-14
 -1       731 5.41142E-03 1.25300E-04-4.00847E-14
 -1       732 6.96204E-03 8.87518E-04-4.76389E-14
 -1       733 5.82391E-03 2.78466E-04-4.14761E-14
 -1       734 5.68270E-03 1.88416E-05-4.18108E-14
 -1       735 1.00669E-02 2.67329E-04-7.94067E-14
 -1       736 9.78131E-03 3.80077E-04-7.64318E-14
 -1       737 6.67412E-03-4.49840E-04-4.76370E-14
 -1       738 5.45158E-03 9.09687E-05-4.03540E-14
 -1       739 7.43067E-03-7.67349E-04-5.52081E-14
 -1       740 9.65489E-03 1.23406E-04-7.68486E-14
 -1       741 6.49394E-03 6.16961E-04-4.42047E-14
 -1       742 9.11591E-04-1.71386E-04-1.20858E-15
 -1       743 8.97155E-04-2.24478E-05-1.23980E-15
 -1       744 1.43201E-02 1.00252E-03-1.83972E-13
 -1       745 7.87636E-03 1.21931E-03-5.72658E-14
 -1       746 1.43604E-02 1.07389E-03-1.84009E-13
 -1       747 5.63726E-03 2.20742E-04-3.97532E-14
 -1       748 5.41087E-03 1.42580E-04-3.89164E-14
 -1       749 1.39929E-02 3.60862E-04-1.84108E-13
 -1       750 9.38759E-04-2.42072E-04-1.18579E-15
 -1       751 8.99278E-04-6.97396E-05-1.24129E-15
 -1       752 1.00841E-02 2.51113E-04-8.18793E-14
 -1       753 1.16195E-03 2.37084E-04-1.69412E-15
 -1       754 1.22488E-03-2.47890E-04-2.00762E-15
 -1       755 1.24687E-03 2.93004E-04-1.82784E-15
 -1       756 1.79697E-03-2.95940E-04-4.07455E-15
 -1       757 2.08399E-03-3.07732E-04-5.37672E-15
 -1       758 2.37086E-03-3.13402E-04-6.85711E-15
 -1       759 2.65731E-03-3.14273E-04-8.51290E-15
 -1       760 2.94320E-03-3.11475E-04-1.03435E-14
 -1       761 3.22848E-03-3.05995E-04-1.23476E-14
 -1       762 3.51322E-03-2.98759E-04-1.45239E-14
 -1       763 3.79762E-03-2.90725E-04-1.68699E-14
 -1       764 4.08211E-03-2.82989E-04-1.93830E-14
 -1       765 4.36747E-03-2.76898E-04-2.20623E-14
 -1       766 4.65502E-03-2.74198E-04-2.49070E-14
 -1       767 4.94682E-03-2.77238E-04-2.79158E-14
 -1       768 5.24589E-03-2.89281E-04-3.10918E-14
 -1       769 5.55627E-03-3.14943E-04-3.44320E-14
 -1       770 5.88240E-03-3.60533E-04-3.79387E-14
 -1       771 6.22715E-03-4.33274E-04-4.16119E-14
 -1       772 6.58789E-03-5.37191E-04-4.54599E-14
 -1       773 7.31476E-03-7.78928E-04-5.37247E-14
 -1       774 8.35953E-03-5.88561E-04-6.77050E-14
 -1       775 8.72578E-03-4.30423E-04-7.27800E-14
 -1       776 9.08660E-03-2.93057E-04-7.80340E-14
 -1       777 9.43005E-03-1.86755E-04-8.34445E-14
 -1       778 9.75546E-03-1.07112E-04-8.90076E-14
 -1       779 1.00652E-02-4.70924E-05-9.47166E-14
 -1       780 1.03638E-02-4.12017E-07-1.00561E-13
 -1       781 1.06551E-02 3.74438E-05-1.06532E-13
 -1       782 1.09422E-02 6.96282E-05-1.12623E-13
 -1       783 1.12269E-02 9.83649E-05-1.18825E-13
 -1       784 1.15107E-02 1.25226E-04-1.25135E-13
 -1       785 1.17941E-02 1.51313E-04-1.31549E-13
 -1       786 1.20777E-02 1.77372E-04-1.38061E-13
 -1       787 1.23615E-02 2.03883E-04-1.44669E-13
 -1       788 1.26457E-02 2.31127E-04-1.51365E-13
 -1       789 1.29302E-02 2.59238E-04-1.58140E-13
 -1       790 1.32151E-02 2.88252E-04-1.64995E-13
 -1       791 1.35002E-02 3.18138E-04-1.71908E-13
 -1       792 1.37464E-02 3.39247E-04-1.77988E-13
 -1       793 1.39256E-02 6.05557E-04-1.79137E-13
 -1       794 3.17686E-03 3.41070E-04-1.12772E-14
 -1       795 2.89166E-03 3.46444E-04-9.37783E-15
 -1       796 3.74501E-03 3.25146E-04-1.55952E-14
 -1       797 4.02782E-03 3.16837E-04-1.80106E-14
 -1       798 4.30985E-03 3.10185E-04-2.05963E-14
 -1       799 4.59156E-03 3.07105E-04-2.33524E-14
 -1       800 4.87403E-03 3.10115E-04-2.62761E-14
 -1       801 5.15960E-03 3.22616E-04-2.93687E-14
 -1       802 5.45252E-03 3.49476E-04-3.26282E-14
 -1       803 5.76001E-03 3.98294E-04-3.60533E-14
 -1       804 6.09200E-03 4.81239E-04-3.96406E-14
 -1       805 9.90646E-03 1.84600E-04-8.14095E-14
 -1       806 9.36400E-03 6.51571E-04-7.53138E-14
 -1       807 1.00234E-02 5.58838E-04-8.61107E-14
 -1       808 1.03205E-02 5.58247E-04-9.17428E-14
 -1       809 1.06080E-02 5.74273E-04-9.75216E-14
 -1       810 1.08911E-02 6.01308E-04-1.03430E-13
 -1       811 1.11727E-02 6.35552E-04-1.09462E-13
 -1       812 1.14542E-02 6.74305E-04-1.15617E-13
 -1       813 1.17363E-02 7.15612E-04-1.21888E-13
 -1       814 1.20192E-02 7.58077E-04-1.28276E-13
 -1       815 1.23028E-02 8.00747E-04-1.34773E-13
 -1       816 1.25870E-02 8.43009E-04-1.41366E-13
 -1       817 1.28716E-02 8.84507E-04-1.48046E-13
 -1       818 1.31566E-02 9.25064E-04-1.54801E-13
 -1       819 1.34418E-02 9.64627E-04-1.61612E-13
 -1       820 1.37272E-02 1.00323E-03-1.68477E-13
 -1       821 1.40128E-02 1.04094E-03-1.75382E-13
 -1       822 1.41866E-02 1.05757E-03-1.79687E-13
 -1       823 1.13712E-03 5.70635E-05-1.86378E-15
 -1       824 1.39593E-02 6.86812E-04-1.78908E-13
 -1       825 6.81786E-03-5.80772E-04-4.82054E-14
 -1       826 1.00068E-02 3.55473E-04-8.10011E-14
 -1       827 1.38914E-02 5.24070E-04-1.79347E-13
 -1       828 9.70830E-03 5.85108E-04-8.06331E-14
 -1       829 3.46135E-03 3.33624E-04-1.33502E-14
 -1       830 2.03292E-03 3.39637E-04-4.73093E-15
 -1       831 1.51034E-03-2.76501E-04-2.95137E-15
 -1       832 1.38570E-02 4.42168E-04-1.79534E-13
 -1       833 5.96351E-03-1.63728E-04-4.14247E-14
 -1       834 5.47333E-03 4.01585E-05-3.88151E-14
 -1       835 1.01351E-02 3.04060E-04-8.23504E-14
 -1       836 1.06694E-03-2.09369E-04-1.58470E-15
 -1       837 7.21207E-03-7.37378E-04-5.25134E-14
 -1       838 6.38108E-03-3.59645E-04-4.44215E-14
 -1       839 5.84298E-03 3.00442E-04-4.06053E-14
 -1       840 9.75134E-03 4.55006E-04-7.86711E-14
 -1       841 9.20836E-03-1.22095E-04-7.64232E-14
 -1       842 5.34238E-03 9.93406E-05-3.81806E-14
 -1       843 5.69863E-03-4.01048E-05-4.01182E-14
 -1       844 8.79278E-03-3.39040E-04-7.23021E-14
 -1       845 9.57244E-03 5.75064E-05-7.89829E-14
 -1       846 1.13559E-03 1.20583E-06-1.88736E-15
 -1       847 1.14967E-03 1.73739E-04-1.76960E-15
 -1       848 1.40572E-02 9.30285E-04-1.78100E-13
 -1       849 8.05686E-03-7.16668E-04-6.36601E-14
 -1       850 2.31958E-03 3.46890E-04-6.10562E-15
 -1       851 1.74611E-03 3.25501E-04-3.53107E-15
 -1       852 1.05666E-03-1.49986E-04-1.61830E-15
 -1       853 2.60587E-03 3.48743E-04-7.65373E-15
 -1       854 8.98082E-03 7.79491E-04-7.01497E-14
 -1       855 1.14164E-03 1.13961E-04-1.82519E-15
 -1       856 1.40248E-02 8.48452E-04-1.78393E-13
 -1       857 1.02129E-02 2.88405E-04-8.48714E-14
 -1       858 1.39922E-02 7.67533E-04-1.78662E-13
 -1       859 5.31329E-03 5.71279E-05-3.66856E-14
 -1       860 5.43953E-03 1.74881E-04-3.75620E-14
 -1       861 5.29860E-03 1.15925E-04-3.70422E-14
 -1       862 1.38017E-02 3.90771E-04-1.78763E-13
 -1       863 1.49620E-03 3.13646E-04-2.60900E-15
 -1       864 1.05023E-03-9.42418E-05-1.63445E-15
 -1       865 1.41054E-03 2.57167E-04-2.44762E-15
 -1       866 1.92682E-03-2.34457E-04-4.76376E-15
 -1       867 2.21368E-03-2.41502E-04-6.15877E-15
 -1       868 2.50011E-03-2.43996E-04-7.72895E-15
 -1       869 2.78559E-03-2.42878E-04-9.47248E-15
 -1       870 3.06980E-03-2.38965E-04-1.13884E-14
 -1       871 3.35251E-03-2.32979E-04-1.34757E-14
 -1       872 3.63365E-03-2.25595E-04-1.57344E-14
 -1       873 3.91333E-03-2.17510E-04-1.81605E-14
 -1       874 4.19193E-03-2.09524E-04-2.07536E-14
 -1       875 4.47029E-03-2.02628E-04-2.35110E-14
 -1       876 4.74993E-03-1.98180E-04-2.64333E-14
 -1       877 5.03339E-03-1.98208E-04-2.95219E-14
 -1       878 5.32475E-03-2.06043E-04-3.27742E-14
 -1       879 5.62990E-03-2.27447E-04-3.61887E-14
 -1       880 5.95669E-03-2.72335E-04-3.97655E-14
 -1       881 9.38427E-03-1.16128E-04-8.06555E-14
 -1       882 9.71079E-03-3.75941E-05-8.61411E-14
 -1       883 1.00147E-02 1.79299E-05-9.17753E-14
 -1       884 1.03053E-02 6.02861E-05-9.75465E-14
 -1       885 1.05880E-02 9.50528E-05-1.03450E-13
 -1       886 1.08668E-02 1.25414E-04-1.09476E-13
 -1       887 1.11440E-02 1.53312E-04-1.15619E-13
 -1       888 1.14212E-02 1.79984E-04-1.21867E-13
 -1       889 1.16992E-02 2.06251E-04-1.28225E-13
 -1       890 1.19782E-02 2.32665E-04-1.34685E-13
 -1       891 1.22584E-02 2.59581E-04-1.41244E-13
 -1       892 1.25397E-02 2.87208E-04-1.47894E-13
 -1       893 1.28220E-02 3.15646E-04-1.54621E-13
 -1       894 1.31052E-02 3.44919E-04-1.61436E-13
 -1       895 1.33890E-02 3.74996E-04-1.68315E-13
 -1       896 4.13283E-03 2.47964E-04-1.95184E-14
 -1       897 3.85785E-03 2.54684E-04-1.70090E-14
 -1       898 4.67369E-03 2.41443E-04-2.50438E-14
 -1       899 4.94042E-03 2.44898E-04-2.80580E-14
 -1       900 5.20697E-03 2.55797E-04-3.12386E-14
 -1       901 5.47791E-03 2.78288E-04-3.45826E-14
 -1       902 1.02508E-02 4.74000E-04-8.91966E-14
 -1       903 1.10509E-02 5.53312E-04-1.06728E-13
 -1       904 1.13207E-02 5.90411E-04-1.12822E-13
 -1       905 1.15935E-02 6.29984E-04-1.19032E-13
 -1       906 1.18688E-02 6.70895E-04-1.25360E-13
 -1       907 1.21466E-02 7.12293E-04-1.31801E-13
 -1       908 1.24262E-02 7.53579E-04-1.38344E-13
 -1       909 1.27074E-02 7.94366E-04-1.44979E-13
 -1       910 1.29899E-02 8.34431E-04-1.51691E-13
 -1       911 1.32732E-02 8.73674E-04-1.58476E-13
 -1       912 1.35573E-02 9.12073E-04-1.65321E-13
 -1       913 1.38418E-02 9.49693E-04-1.72205E-13
 -1       914 1.36970E-02 6.17229E-04-1.73017E-13
 -1       915 1.41218E-02 9.93736E-04-1.78899E-13
 -1       916 1.21195E-03-1.82519E-04-2.05349E-15
 -1       917 1.36629E-02 5.36674E-04-1.73228E-13
 -1       918 1.02182E-02 3.51934E-04-8.58884E-14
 -1       919 9.85429E-03 1.21362E-04-8.38476E-14
 -1       920 5.80787E-03 3.25528E-04-3.87877E-14
 -1       921 1.07836E-02 5.20136E-04-1.00753E-13
 -1       922 1.05178E-02 4.92757E-04-9.49083E-14
 -1       923 4.40475E-03 2.43063E-04-2.21970E-14
 -1       924 1.00022E-02 4.56381E-04-8.38624E-14
 -1       925 1.64020E-03-2.21801E-04-3.54509E-15
 -1       926 3.01728E-03 2.74420E-04-1.04977E-14
 -1       927 1.01151E-02 2.29761E-04-8.50813E-14
 -1       928 1.36281E-02 4.55689E-04-1.73417E-13
 -1       929 5.61669E-03 2.46384E-04-3.79666E-14
 -1       930 1.09179E-03-4.74916E-05-1.76471E-15
 -1       931 1.02878E-02 2.74279E-04-8.81277E-14
 -1       932 2.73312E-03 2.77742E-04-8.67244E-15
 -1       933 1.35952E-02 3.82784E-04-1.73525E-13
 -1       934 1.87436E-03 2.65024E-04-4.23805E-15
 -1       935 3.58003E-03 2.62006E-04-1.46679E-14
 -1       936 1.20354E-03-1.20918E-04-2.07784E-15
 -1       937 3.29971E-03 2.68888E-04-1.24963E-14
 -1       938 1.38215E-03 9.60431E-05-2.61823E-15
 -1       939 1.37303E-02 6.97097E-04-1.72788E-13
 -1       940 1.03331E-02 3.30762E-04-8.84667E-14
 -1       941 5.37940E-03-5.41490E-06-3.62820E-14
 -1       942 5.22585E-03 7.92683E-05-3.55825E-14
 -1       943 1.00956E-02 1.81054E-04-8.75746E-14
 -1       944 5.65143E-03-1.18554E-04-3.79056E-14
 -1       945 1.37852E-03 3.26383E-05-2.65864E-15
 -1       946 5.28215E-03 1.41740E-04-3.57257E-14
 -1       947 2.16120E-03 2.74107E-04-5.54366E-15
 -1       948 1.37825E-02 8.63262E-04-1.71857E-13
 -1       949 2.34573E-03-1.74409E-04-6.95955E-15
 -1       950 2.63105E-03-1.74677E-04-8.61561E-15
 -1       951 2.91479E-03-1.72408E-04-1.04440E-14
 -1       952 3.19645E-03-1.68116E-04-1.24424E-14
 -1       953 3.47566E-03-1.62240E-04-1.46120E-14
 -1       954 3.75216E-03-1.55166E-04-1.69508E-14
 -1       955 4.02588E-03-1.47277E-04-1.94563E-14
 -1       956 4.29701E-03-1.38982E-04-2.21289E-14
 -1       957 4.56615E-03-1.30804E-04-2.49647E-14
 -1       958 4.83461E-03-1.23544E-04-2.79660E-14
 -1       959 5.10483E-03-1.18682E-04-3.11319E-14
 -1       960 5.38127E-03-1.19451E-04-3.44577E-14
 -1       961 3.96770E-03 1.89096E-04-1.84385E-14
 -1       962 1.44561E-03 1.86320E-04-2.71222E-15
 -1       963 1.02620E-02 1.21444E-04-9.45433E-14
 -1       964 1.05316E-02 1.51194E-04-1.00379E-13
 -1       965 1.07990E-02 1.78618E-04-1.06335E-13
 -1       966 1.10668E-02 2.05127E-04-1.12413E-13
 -1       967 1.13362E-02 2.31444E-04-1.18606E-13
 -1       968 1.16078E-02 2.57986E-04-1.24908E-13
 -1       969 1.18816E-02 2.85010E-04-1.31316E-13
 -1       970 1.21576E-02 3.12673E-04-1.37824E-13
 -1       971 1.24356E-02 3.41061E-04-1.44426E-13
 -1       972 1.27153E-02 3.70202E-04-1.51114E-13
 -1       973 1.29965E-02 4.00085E-04-1.57881E-13
 -1       974 1.32789E-02 4.30666E-04-1.64725E-13
 -1       975 2.05949E-03-1.70998E-04-5.47620E-15
 -1       976 4.99540E-03 1.86320E-04-2.98510E-14
 -1       977 4.74827E-03 1.82463E-04-2.67477E-14
 -1       978 1.14551E-02 5.49900E-04-1.16185E-13
 -1       979 1.11926E-02 5.12705E-04-1.10030E-13
 -1       980 1.19937E-02 6.27916E-04-1.28840E-13
 -1       981 1.22683E-02 6.67524E-04-1.35331E-13
 -1       982 1.25456E-02 7.06962E-04-1.41920E-13
 -1       983 1.28250E-02 7.45976E-04-1.48587E-13
 -1       984 1.31061E-02 7.84426E-04-1.55337E-13
 -1       985 1.33885E-02 8.22250E-04-1.62154E-13
 -1       986 1.04424E-02 4.02056E-04-9.20996E-14
 -1       987 5.15118E-03 2.45443E-05-3.36015E-14
 -1       988 1.09358E-02 4.77723E-04-1.03993E-13
 -1       989 1.37628E-02 7.77074E-04-1.72533E-13
 -1       990 1.06851E-02 4.45774E-04-9.80835E-14
 -1       991 1.62934E-03-1.50275E-04-3.58044E-15
 -1       992 5.36901E-03 1.99269E-04-3.51726E-14
 -1       993 1.17224E-02 5.88529E-04-1.22455E-13
 -1       994 1.34002E-02 4.68794E-04-1.67339E-13
 -1       995 1.64216E-03 2.64177E-04-3.28186E-15
 -1       996 2.44763E-03 2.77964E-04-7.02169E-15
 -1       997 5.18515E-03 1.90770E-04-3.24603E-14
 -1       998 1.84415E-03-1.61703E-04-4.47936E-15
 -1       999 1.34352E-02 5.48634E-04-1.67145E-13
 -1      1000 1.00442E-02 1.03326E-04-8.96804E-14
 -1      1001 2.86113E-03 2.07842E-04-9.71847E-15
 -1      1002 3.69667E-03 1.94353E-04-1.60038E-14
 -1      1003 4.23381E-03 1.84775E-04-2.10417E-14
 -1      1004 1.24414E-03-6.93590E-05-2.22814E-15
 -1      1005 1.34690E-02 6.27569E-04-1.66932E-13
 -1      1006 3.14272E-03 2.04457E-04-1.16417E-14
 -1      1007 5.13110E-03-4.21644E-05-3.23739E-14
 -1      1008 5.16025E-03 1.03562E-04-3.43081E-14
 -1      1009 1.62521E-03 6.97144E-05-3.54825E-15
 -1      1010 1.03063E-02 2.39039E-04-9.06717E-14
 -1      1011 1.37651E-03-3.11038E-05-2.67419E-15
 -1      1012 1.33700E-02 7.37680E-04-1.62828E-13
 -1      1013 2.00551E-03 2.02585E-04-4.98122E-15
 -1      1014 4.49425E-03 1.82263E-04-2.38116E-14
 -1      1015 1.62969E-03 1.64962E-04-3.43835E-15
 -1      1016 2.57730E-03 2.09164E-04-7.96678E-15
 -1      1017 1.99793E-03 1.00042E-04-5.13220E-15
 -1      1018 2.76397E-03-1.05978E-04-9.51616E-15
 -1      1019 3.04546E-03-1.03433E-04-1.14257E-14
 -1      1020 3.32401E-03-9.95131E-05-1.35059E-14
 -1      1021 3.59909E-03-9.43714E-05-1.57552E-14
 -1      1022 3.87021E-03-8.81048E-05-1.81727E-14
 -1      1023 4.13697E-03-8.07547E-05-2.07583E-14
 -1      1024 4.39910E-03-7.23106E-05-2.35086E-14
 -1      1025 4.65654E-03-6.27885E-05-2.64223E-14
 -1      1026 4.89535E-03-5.26092E-05-2.93258E-14
 -1      1027 1.05514E-02 3.56678E-04-9.44418E-14
 -1      1028 1.04851E-02 2.03983E-04-9.73127E-14
 -1      1029 1.07373E-02 2.28037E-04-1.03206E-13
 -1      1030 1.09934E-02 2.53029E-04-1.09219E-13
 -1      1031 1.12538E-02 2.79069E-04-1.15350E-13
 -1      1032 1.15182E-02 3.06099E-04-1.21596E-13
 -1      1033 1.17864E-02 3.34042E-04-1.27949E-13
 -1      1034 1.20580E-02 3.62822E-04-1.34407E-13
 -1      1035 1.23325E-02 3.92368E-04-1.40964E-13
 -1      1036 1.26095E-02 4.22610E-04-1.47609E-13
 -1      1037 1.28886E-02 4.53474E-04-1.54335E-13
 -1      1038 4.82199E-03 1.31551E-04-2.84649E-14
 -1      1039 1.10651E-02 4.41524E-04-1.07242E-13
 -1      1040 1.13175E-02 4.75581E-04-1.13340E-13
 -1      1041 1.26613E-02 6.60044E-04-1.45492E-13
 -1      1042 3.42145E-03 1.99727E-04-1.37374E-14
 -1      1043 1.23850E-02 6.22641E-04-1.38866E-13
 -1      1044 1.21116E-02 5.85168E-04-1.32327E-13
 -1      1045 1.29400E-02 6.97201E-04-1.52202E-13
 -1      1046 1.31546E-02 7.17673E-04-1.57496E-13
 -1      1047 5.04551E-03 5.66959E-05-3.23846E-14
 -1      1048 1.62122E-03 3.15300E-07-3.57977E-15
 -1      1049 1.34199E-02 6.82837E-04-1.64885E-13
 -1      1050 1.08215E-02 4.09586E-04-1.01267E-13
 -1      1051 1.02866E-02 1.92335E-04-9.23934E-14
 -1      1052 2.21988E-03 1.87954E-04-6.06277E-15
 -1      1053 2.19490E-03-1.05981E-04-6.20947E-15
 -1      1054 5.15870E-03 1.41557E-04-3.33949E-14
 -1      1055 1.15769E-02 5.11216E-04-1.19556E-13
 -1      1056 4.58376E-03 1.28449E-04-2.54392E-14
 -1      1057 2.48020E-03-1.06924E-04-7.77686E-15
 -1      1058 1.04554E-02 2.99269E-04-9.25649E-14
 -1      1059 1.18420E-02 5.47901E-04-1.25887E-13
 -1      1060 4.94015E-03 1.06275E-05-3.04999E-14
 -1      1061 1.98015E-03-9.95251E-05-5.14623E-15
 -1      1062 1.31693E-02 4.84902E-04-1.61138E-13
 -1      1063 1.76556E-03-9.19073E-05-4.18032E-15
 -1      1064 2.99059E-03 1.39629E-04-1.07899E-14
 -1      1065 1.32040E-02 5.62816E-04-1.60939E-13
 -1      1066 2.70891E-03 1.41067E-04-8.94080E-15
 -1      1067 1.99206E-03 2.52241E-05-5.18376E-15
 -1      1068 4.07785E-03 1.28784E-04-1.98852E-14
 -1      1069 3.81366E-03 1.31107E-04-1.73576E-14
 -1      1070 4.99505E-03 1.35814E-04-3.08835E-14
 -1      1071 4.33503E-03 1.27697E-04-2.25798E-14
 -1      1072 1.27740E-02 6.12151E-04-1.49067E-13
 -1      1073 2.61746E-03-3.95204E-05-8.60763E-15
 -1      1074 3.17843E-03-3.64154E-05-1.24171E-14
 -1      1075 3.45368E-03-3.35897E-05-1.45759E-14
 -1      1076 3.72450E-03-2.97903E-05-1.69042E-14
 -1      1077 3.98991E-03-2.49263E-05-1.94013E-14
 -1      1078 4.24926E-03-1.86235E-05-2.20650E-14
 -1      1079 4.50147E-03-1.06156E-05-2.48919E-14
 -1      1080 4.44236E-03 7.63707E-05-2.41330E-14
 -1      1081 1.09205E-02 2.96124E-04-1.06032E-13
 -1      1082 1.11711E-02 3.22387E-04-1.12101E-13
 -1      1083 1.14282E-02 3.50315E-04-1.18290E-13
 -1      1084 1.16908E-02 3.79572E-04-1.24585E-13
 -1      1085 1.19581E-02 4.09866E-04-1.30992E-13
 -1      1086 1.22292E-02 4.40969E-04-1.37502E-13
 -1      1087 1.25036E-02 4.72702E-04-1.44105E-13
 -1      1088 1.27807E-02 5.04928E-04-1.50790E-13
 -1      1089 4.84032E-03 5.73457E-05-2.93417E-14
 -1      1090 1.04880E-02 2.49256E-04-9.55561E-14
 -1      1091 3.26917E-03 1.37133E-04-1.28083E-14
 -1      1092 1.07295E-02 3.45208E-04-9.94546E-14
 -1      1093 4.19259E-03 7.34770E-05-2.13484E-14
 -1      1094 1.11758E-02 4.06501E-04-1.10503E-13
 -1      1095 1.24975E-02 5.76746E-04-1.42400E-13
 -1      1096 1.16886E-02 4.72017E-04-1.22937E-13
 -1      1097 1.22239E-02 5.41434E-04-1.35815E-13
 -1      1098 1.09477E-02 3.74644E-04-1.04929E-13
 -1      1099 1.19540E-02 5.06430E-04-1.29324E-13
 -1      1100 1.14287E-02 4.38563E-04-1.16661E-13
 -1      1101 4.98751E-03 9.99651E-05-3.13482E-14
 -1      1102 1.29919E-02 5.33716E-04-1.55843E-13
 -1      1103 4.68123E-03 8.13020E-05-2.70818E-14
 -1      1104 2.33330E-03-3.98455E-05-6.95875E-15
 -1      1105 1.07011E-02 2.71682E-04-1.00745E-13
 -1      1106 2.35407E-03 1.21859E-04-6.90910E-15
 -1      1107 2.89944E-03-3.83773E-05-1.04275E-14
 -1      1108 4.72496E-03-1.06300E-06-2.76264E-14
 -1      1109 3.93435E-03 7.22647E-05-1.87298E-14
 -1      1110 1.29871E-02 6.31643E-04-1.54329E-13
 -1      1111 1.32058E-02 6.07570E-04-1.60356E-13
 -1      1112 2.84314E-03 7.40459E-05-9.94013E-15
 -1      1113 1.32030E-02 6.57298E-04-1.59589E-13
 -1      1114 3.54386E-03 1.34128E-04-1.49983E-14
 -1      1115 3.12256E-03 7.34676E-05-1.18833E-14
 -1      1116 2.11921E-03-3.51525E-05-5.83276E-15
 -1      1117 2.34667E-03 4.48035E-05-6.98065E-15
 -1      1118 3.58708E-03 2.93998E-05-1.56522E-14
 -1      1119 2.59561E-03 5.97270E-05-8.39704E-15
 -1      1120 3.35619E-03 5.06579E-05-1.37066E-14
 -1      1121 1.30211E-02 5.97067E-04-1.55699E-13
 -1      1122 0.00000E+00 0.00000E+00 0.00000E+00
 -1      1123 0.00000E+00 0.00000E+00 0.00000E+00
 -1      1124 0.00000E+00 0.00000E+00 0.00000E+00
 -1      1125 0.00000E+00 0.00000E+00 0.00000E+00
 -1      1126 0.00000E+00 0.00000E+00 0.00000E+00
 -1      1127 0.00000E+00 0.00000E+00 0.00000E+00
 -1      1128 0.00000E+00 0.00000E+00 0.00000E+00
 -1      1129 0.00000E+00 0.00000E+00 0.00000E+00
 -1      1130 0.00000E+00 0.00000E+00 0.00000E+00
 -1      1131 0.00000E+00 0.00000E+00 0.00000E+00
 -1      1132 0.00000E+00 0.00000E+00 0.00000E+00
 -1      1133 0.00000E+00 0.00000E+00 0.00000E+00
 -1      1134 0.00000E+00 0.00000E+00 0.00000E+00
 -1      1135 0.00000E+00 0.00000E+00 0.00000E+00
 -1      1136 0.00000E+00 0.00000E+00 0.00000E+00
 -1      1137 0.00000E+00 0.00000E+00 0.00000E+00
 -1      1138 0.00000E+00 0.00000E+00 0.00000E+00
 -1      1139 2.10902E-04-1.47780E-04 2.63461E-17
 -1      1140 5.49707E-04-3.35655E-04-4.43981E-17
 -1      1141 8.30754E-04-4.55447E-04-2.96245E-16
 -1      1142 1.09983E-03-5.35029E-04-7.60148E-16
 -1      1143 1.36507E-03-5.89700E-04-1.42770E-15
 -1      1144 1.63014E-03-6.27273E-04-2.29559E-15
 -1      1145 1.89707E-03-6.52320E-04-3.36036E-15
 -1      1146 2.16699E-03-6.67910E-04-4.61956E-15
 -1      1147 2.44053E-03-6.76323E-04-6.07079E-15
 -1      1148 2.71816E-03-6.79353E-04-7.71342E-15
 -1      1149 3.00030E-03-6.78501E-04-9.54561E-15
 -1      1150 3.28742E-03-6.75122E-04-1.15593E-14
 -1      1151 3.58006E-03-6.70570E-04-1.37491E-14
 -1      1152 3.87884E-03-6.66341E-04-1.61120E-14
 -1      1153 4.18442E-03-6.64216E-04-1.86423E-14
 -1      1154 4.49729E-03-6.66372E-04-2.13439E-14
 -1      1155 4.81761E-03-6.75450E-04-2.42114E-14
 -1      1156 5.14481E-03-6.94461E-04-2.72420E-14
 -1      1157 5.47719E-03-7.26441E-04-3.04424E-14
 -1      1158 5.81146E-03-7.73682E-04-3.38161E-14
 -1      1159 6.14260E-03-8.36446E-04-3.73651E-14
 -1      1160 6.46424E-03-9.11302E-04-4.10950E-14
 -1      1161 6.77012E-03-9.89731E-04-4.50058E-14
 -1      1162 7.05646E-03-1.05820E-03-4.91101E-14
 -1      1163 7.32451E-03-1.10086E-03-5.34150E-14
 -1      1164 7.58148E-03-1.10465E-03-5.79214E-14
 -1      1165 7.83871E-03-1.06459E-03-6.26319E-14
 -1      1166 8.10747E-03-9.86036E-04-6.75372E-14
 -1      1167 8.39476E-03-8.82265E-04-7.26412E-14
 -1      1168 8.70160E-03-7.69117E-04-7.79254E-14
 -1      1169 9.02409E-03-6.59927E-04-8.33694E-14
 -1      1170 9.35597E-03-5.62975E-04-8.89667E-14
 -1      1171 9.69100E-03-4.81514E-04-9.47083E-14
 -1      1172 1.00243E-02-4.15188E-04-1.00582E-13
 -1      1173 1.03528E-02-3.61702E-04-1.06590E-13
 -1      1174 1.06749E-02-3.18089E-04-1.12724E-13
 -1      1175 1.09904E-02-2.81482E-04-1.18971E-13
 -1      1176 1.12996E-02-2.49460E-04-1.25320E-13
 -1      1177 1.16032E-02-2.20147E-04-1.31771E-13
 -1      1178 1.19022E-02-1.92185E-04-1.38318E-13
 -1      1179 1.21975E-02-1.64642E-04-1.44964E-13
 -1      1180 1.24898E-02-1.36922E-04-1.51710E-13
 -1      1181 1.27799E-02-1.08670E-04-1.58551E-13
 -1      1182 1.30683E-02-7.97053E-05-1.65461E-13
 -1      1183 1.33556E-02-4.99625E-05-1.72436E-13
 -1      1184 1.36420E-02-1.94504E-05-1.79456E-13
 -1      1185 1.39280E-02 1.17738E-05-1.86509E-13
 -1      1186 1.42137E-02 4.36163E-05-1.93595E-13
 -1      1187 1.44993E-02 7.59350E-05-2.00717E-13
 -1      1188 1.47778E-02 1.07684E-04-2.07690E-13
 -1      1189 2.27590E-04 1.60114E-04 4.77727E-17
 -1      1190 5.51846E-04 3.40267E-04 2.36898E-17
 -1      1191 8.31629E-04 4.57595E-04-1.67496E-16
 -1      1192 1.10064E-03 5.36675E-04-5.49433E-16
 -1      1193 1.36585E-03 5.91297E-04-1.12230E-15
 -1      1194 1.63092E-03 6.28880E-04-1.88575E-15
 -1      1195 1.89786E-03 6.53899E-04-2.83783E-15
 -1      1196 2.16778E-03 6.69389E-04-3.97643E-15
 -1      1197 2.44135E-03 6.77582E-04-5.30037E-15
 -1      1198 2.71910E-03 6.80211E-04-6.80822E-15
 -1      1199 3.00154E-03 6.78698E-04-8.49913E-15
 -1      1200 3.28931E-03 6.74306E-04-1.03700E-14
 -1      1201 3.58326E-03 6.68297E-04-1.24198E-14
 -1      1202 3.88446E-03 6.62115E-04-1.46475E-14
 -1      1203 4.19427E-03 6.57595E-04-1.70544E-14
 -1      1204 4.51420E-03 6.57221E-04-1.96395E-14
 -1      1205 4.84577E-03 6.64415E-04-2.23979E-14
 -1      1206 5.19007E-03 6.83797E-04-2.53282E-14
 -1      1207 5.54707E-03 7.21225E-04-2.84376E-14
 -1      1208 5.91449E-03 7.83268E-04-3.17270E-14
 -1      1209 6.28659E-03 8.75468E-04-3.51890E-14
 -1      1210 6.65335E-03 9.98826E-04-3.88220E-14
 -1      1211 7.00157E-03 1.14482E-03-4.26364E-14
 -1      1212 7.31933E-03 1.29163E-03-4.66472E-14
 -1      1213 7.60351E-03 1.40675E-03-5.08571E-14
 -1      1214 7.86544E-03 1.45946E-03-5.52644E-14
 -1      1215 8.12783E-03 1.43724E-03-5.98656E-14
 -1      1216 8.41323E-03 1.35345E-03-6.46589E-14
 -1      1217 8.73242E-03 1.23941E-03-6.96418E-14
 -1      1218 9.08187E-03 1.12741E-03-7.48021E-14
 -1      1219 9.44950E-03 1.03870E-03-8.01279E-14
 -1      1220 9.82218E-03 9.81224E-04-8.56168E-14
 -1      1221 1.01901E-02 9.53651E-04-9.12595E-14
 -1      1222 1.05477E-02 9.50338E-04-9.70475E-14
 -1      1223 1.08931E-02 9.64774E-04-1.02975E-13
 -1      1224 1.12263E-02 9.91239E-04-1.09046E-13
 -1      1225 1.15487E-02 1.02531E-03-1.15258E-13
 -1      1226 1.18620E-02 1.06380E-03-1.21599E-13
 -1      1227 1.21680E-02 1.10456E-03-1.28050E-13
 -1      1228 1.24682E-02 1.14618E-03-1.34606E-13
 -1      1229 1.27641E-02 1.18777E-03-1.41252E-13
 -1      1230 1.30567E-02 1.22884E-03-1.47977E-13
 -1      1231 1.33469E-02 1.26912E-03-1.54770E-13
 -1      1232 1.36353E-02 1.30851E-03-1.61617E-13
 -1      1233 1.39225E-02 1.34699E-03-1.68500E-13
 -1      1234 1.42090E-02 1.38462E-03-1.75416E-13
 -1      1235 1.44949E-02 1.42148E-03-1.82371E-13
 -1      1236 1.47806E-02 1.45770E-03-1.89373E-13
 -1      1237 1.50662E-02 1.49343E-03-1.96407E-13
 -1      1238 1.53447E-02 1.52803E-03-2.03269E-13
 -1      1239 1.54629E-02 1.50272E-03-2.06775E-13
 -1      1240 1.54280E-02 1.41836E-03-2.07146E-13
 -1      1241 1.53934E-02 1.33396E-03-2.07506E-13
 -1      1242 1.53591E-02 1.24965E-03-2.07822E-13
 -1      1243 1.53253E-02 1.16555E-03-2.08100E-13
 -1      1244 1.52920E-02 1.08246E-03-2.08379E-13
 -1      1245 1.52589E-02 9.99660E-04-2.08711E-13
 -1      1246 1.52256E-02 9.16395E-04-2.09040E-13
 -1      1247 1.51922E-02 8.33266E-04-2.09344E-13
 -1      1248 1.51588E-02 7.50139E-04-2.09617E-13
 -1      1249 1.51252E-02 6.66880E-04-2.09864E-13
 -1      1250 1.50920E-02 5.84091E-04-2.10098E-13
 -1      1251 1.50590E-02 5.01010E-04-2.10311E-13
 -1      1252 1.50259E-02 4.16931E-04-2.10500E-13
 -1      1253 1.49933E-02 3.32633E-04-2.10679E-13
 -1      1254 1.49610E-02 2.48246E-04-2.10858E-13
 -1      1255 1.49292E-02 1.64603E-04-2.11022E-13
 -1      1256 9.96129E-03 2.97410E-04-6.83359E-14
 -1      1257 9.87072E-03 4.39886E-04-6.77821E-14
 -1      1258 9.67281E-03 5.91103E-04-6.67348E-14
 -1      1259 9.39484E-03 7.39785E-04-6.52992E-14
 -1      1260 9.06650E-03 8.75190E-04-6.36167E-14
 -1      1261 8.68795E-03 9.92088E-04-6.16664E-14
 -1      1262 8.27246E-03 1.07433E-03-5.95272E-14
 -1      1263 7.82302E-03 1.10388E-03-5.72454E-14
 -1      1264 7.36818E-03 1.07184E-03-5.50065E-14
 -1      1265 6.93397E-03 9.82495E-04-5.29644E-14
 -1      1266 6.52432E-03 8.51948E-04-5.11474E-14
 -1      1267 6.15609E-03 6.97440E-04-4.96236E-14
 -1      1268 5.85419E-03 5.37895E-04-4.84642E-14
 -1      1269 5.64097E-03 3.86847E-04-4.77098E-14
 -1      1270 5.52111E-03 2.43260E-04-4.73422E-14
 -1      1271 5.50102E-03 1.05285E-04-4.73620E-14
 -1      1272 5.58388E-03-3.43389E-05-4.77749E-14
 -1      1273 5.76113E-03-1.73873E-04-4.85654E-14
 -1      1274 6.02482E-03-3.15455E-04-4.97329E-14
 -1      1275 6.36367E-03-4.52638E-04-5.12769E-14
 -1      1276 6.75301E-03-5.69224E-04-5.31259E-14
 -1      1277 7.17905E-03-6.49972E-04-5.52286E-14
 -1      1278 7.62587E-03-6.78956E-04-5.74945E-14
 -1      1279 8.06743E-03-6.51688E-04-5.97525E-14
 -1      1280 8.49565E-03-5.71120E-04-6.19087E-14
 -1      1281 8.90961E-03-4.48646E-04-6.39258E-14
 -1      1282 9.27810E-03-3.04224E-04-6.56477E-14
 -1      1283 9.58740E-03-1.49996E-04-6.70221E-14
 -1      1284 9.81438E-03 2.26047E-06-6.79593E-14
 -1      1285 9.94334E-03 1.52596E-04-6.84119E-14
 -1      1286 1.66236E-04-1.09921E-04-3.64563E-18
 -1      1287 1.12450E-04-5.66733E-05-3.95734E-17
 -1      1288 1.17443E-04-6.72846E-05-2.97071E-17
 -1      1289 1.08449E-04-4.31504E-05-5.57280E-17
 -1      1290 1.10260E-04-4.92803E-05-5.08220E-17
 -1      1291 2.26228E-04-1.06896E-04-1.19750E-16
 -1      1292 1.06930E-04-3.32377E-05-6.44965E-17
 -1      1293 1.07751E-04-3.79661E-05-6.19215E-17
 -1      1294 2.19206E-04-8.16774E-05-1.48549E-16
 -1      1295 1.06180E-04-2.49907E-05-6.98497E-17
 -1      1296 1.06599E-04-2.90079E-05-6.85758E-17
 -1      1297 2.16058E-04-6.24783E-05-1.65476E-16
 -1      1298 1.05791E-04-1.77785E-05-7.23705E-17
 -1      1299 1.06018E-04-2.13129E-05-7.18962E-17
 -1      1300 2.14441E-04-4.64496E-05-1.75180E-16
 -1      1301 1.05568E-04-1.10182E-05-7.35767E-17
 -1      1302 1.05693E-04-1.43504E-05-7.34411E-17
 -1      1303 2.13529E-04-3.21479E-05-1.80045E-16
 -1      1304 1.05466E-04-4.59094E-06-7.36851E-17
 -1      1305 1.05520E-04-7.77846E-06-7.38748E-17
 -1      1306 2.13017E-04-1.87959E-05-1.81970E-16
 -1      1307 1.05454E-04 1.70432E-06-7.31972E-17
 -1      1308 1.05452E-04-1.43898E-06-7.34140E-17
 -1      1309 2.12793E-04-6.02756E-06-1.81780E-16
 -1      1310 1.05530E-04 8.05418E-06-7.16793E-17
 -1      1311 1.05471E-04 4.85980E-06-7.21537E-17
 -1      1312 2.12803E-04 6.56274E-06-1.79693E-16
 -1      1313 1.05712E-04 1.46527E-05-6.95109E-17
 -1      1314 1.05582E-04 1.13052E-05-7.02292E-17
 -1      1315 2.13048E-04 1.93586E-05-1.75641E-16
 -1      1316 1.06043E-04 2.16010E-05-6.59737E-17
 -1      1317 1.05810E-04 1.80431E-05-6.70579E-17
 -1      1318 2.13575E-04 3.26539E-05-1.69379E-16
 -1      1319 1.06647E-04 2.94401E-05-6.05798E-17
 -1      1320 1.06220E-04 2.53760E-05-6.24229E-17
 -1      1321 2.14517E-04 4.70486E-05-1.59852E-16
 -1      1322 1.07789E-04 3.85534E-05-5.22043E-17
 -1      1323 1.06967E-04 3.37538E-05-5.54976E-17
 -1      1324 2.16183E-04 6.34104E-05-1.45893E-16
 -1      1325 1.10237E-04 5.00217E-05-3.85705E-17
 -1      1326 1.08452E-04 4.38220E-05-4.44794E-17
 -1      1327 2.19304E-04 8.29293E-05-1.24358E-16
 -1      1328 1.16756E-04 6.73263E-05-1.66967E-17
 -1      1329 1.12095E-04 5.74760E-05-2.73490E-17
 -1      1330 2.26212E-04 1.08718E-04-9.16151E-17
 -1      1331 1.57100E-04 1.09457E-04 1.77809E-17
 -1      1332 1.35370E-04 8.57490E-05-3.48300E-18
 -1      1333 2.55607E-04 1.51315E-04-5.18926E-17
 -1      1334 3.34085E-04 2.19733E-04 5.28549E-18
 -1      1335 4.20374E-04-2.60354E-04-6.96735E-17
 -1      1336 5.73110E-04-3.34637E-04-1.53509E-16
 -1      1337 7.20004E-04-3.94374E-04-2.92192E-16
 -1      1338 8.62940E-04-4.42710E-04-4.81738E-16
 -1      1339 6.10947E-04-3.28372E-04-2.79006E-16
 -1      1340 1.00281E-03-4.82714E-04-7.20330E-16
 -1      1341 1.14057E-03-5.15522E-04-1.00930E-15
 -1      1342 9.03888E-04-4.27118E-04-6.73520E-16
 -1      1343 1.27707E-03-5.42982E-04-1.34802E-15
 -1      1344 1.41283E-03-5.65570E-04-1.73701E-15
 -1      1345 1.18631E-03-4.94131E-04-1.26403E-15
 -1      1346 1.54830E-03-5.84332E-04-2.17462E-15
 -1      1347 1.68377E-03-5.99599E-04-2.66136E-15
 -1      1348 1.46362E-03-5.39945E-04-2.05038E-15
 -1      1349 1.81951E-03-6.11981E-04-3.19673E-15
 -1      1350 1.95564E-03-6.21772E-04-3.78045E-15
 -1      1351 1.73920E-03-5.70646E-04-3.03089E-15
 -1      1352 2.09233E-03-6.29358E-04-4.41209E-15
 -1      1353 2.22966E-03-6.34998E-04-5.09167E-15
 -1      1354 2.01511E-03-5.90133E-04-4.20341E-15
 -1      1355 2.36775E-03-6.38953E-04-5.81914E-15
 -1      1356 2.50664E-03-6.41453E-04-6.59336E-15
 -1      1357 2.29259E-03-6.01162E-04-5.56602E-15
 -1      1358 2.64641E-03-6.42687E-04-7.41581E-15
 -1      1359 2.78712E-03-6.42860E-04-8.28480E-15
 -1      1360 2.57244E-03-6.05811E-04-7.11799E-15
 -1      1361 2.92883E-03-6.42123E-04-9.19921E-15
 -1      1362 3.07159E-03-6.40670E-04-1.01609E-14
 -1      1363 2.85527E-03-6.05731E-04-8.85530E-15
 -1      1364 3.21548E-03-6.38636E-04-1.11669E-14
 -1      1365 3.36056E-03-6.36218E-04-1.22164E-14
 -1      1366 3.14159E-03-6.02331E-04-1.07754E-14
 -1      1367 3.50689E-03-6.33558E-04-1.33106E-14
 -1      1368 3.65454E-03-6.30871E-04-1.44485E-14
 -1      1369 3.43190E-03-5.96936E-04-1.28741E-14
 -1      1370 3.80360E-03-6.28329E-04-1.56285E-14
 -1      1371 3.95411E-03-6.26178E-04-1.68511E-14
 -1      1372 3.72668E-03-5.90940E-04-1.51473E-14
 -1      1373 4.10614E-03-6.24647E-04-1.81161E-14
 -1      1374 4.25975E-03-6.24018E-04-1.94224E-14
 -1      1375 4.02643E-03-5.85962E-04-1.75903E-14
 -1      1376 4.41496E-03-6.24601E-04-2.07717E-14
 -1      1377 4.57178E-03-6.26716E-04-2.21633E-14
 -1      1378 4.33156E-03-5.83993E-04-2.02023E-14
 -1      1379 4.73020E-03-6.30763E-04-2.35948E-14
 -1      1380 4.89015E-03-6.37085E-04-2.50682E-14
 -1      1381 4.64230E-03-5.87513E-04-2.29813E-14
 -1      1382 5.05151E-03-6.46161E-04-2.65832E-14
 -1      1383 5.21410E-03-6.58308E-04-2.81390E-14
 -1      1384 4.95852E-03-5.99509E-04-2.59251E-14
 -1      1385 5.37767E-03-6.74020E-04-2.97376E-14
 -1      1386 5.54189E-03-6.93502E-04-3.13800E-14
 -1      1387 5.27953E-03-6.23304E-04-2.90355E-14
 -1      1388 5.70635E-03-7.17116E-04-3.30652E-14
 -1      1389 5.87056E-03-7.44812E-04-3.47934E-14
 -1      1390 5.60381E-03-6.62024E-04-3.23168E-14
 -1      1391 6.03394E-03-7.76589E-04-3.65662E-14
 -1      1392 6.19589E-03-8.11954E-04-3.83848E-14
 -1      1393 5.92891E-03-7.17546E-04-3.57708E-14
 -1      1394 6.35579E-03-8.50260E-04-4.02469E-14
 -1      1395 6.51302E-03-8.90415E-04-4.21547E-14
 -1      1396 6.25141E-03-7.88866E-04-3.94017E-14
 -1      1397 6.66708E-03-9.30946E-04-4.41097E-14
 -1      1398 6.81762E-03-9.70149E-04-4.61098E-14
 -1      1399 6.56742E-03-8.70235E-04-4.32148E-14
 -1      1400 6.96447E-03-1.00587E-03-4.81605E-14
 -1      1401 7.10776E-03-1.03611E-03-5.02612E-14
 -1      1402 6.87366E-03-9.50014E-04-4.72141E-14
 -1      1403 7.24786E-03-1.05864E-03-5.24104E-14
 -1      1404 7.38549E-03-1.07179E-03-5.46097E-14
 -1      1405 7.16892E-03-1.01183E-03-5.14092E-14
 -1      1406 7.52151E-03-1.07414E-03-5.68603E-14
 -1      1407 7.65705E-03-1.06504E-03-5.91623E-14
 -1      1408 7.45540E-03-1.03897E-03-5.58024E-14
 -1      1409 7.79317E-03-1.04452E-03-6.15126E-14
 -1      1410 7.93100E-03-1.01326E-03-6.39131E-14
 -1      1411 7.73860E-03-1.02074E-03-6.03977E-14
 -1      1412 8.07138E-03-9.72766E-04-6.63642E-14
 -1      1413 8.21500E-03-9.24700E-04-6.88641E-14
 -1      1414 8.02540E-03-9.57374E-04-6.51938E-14
 -1      1415 8.36222E-03-8.71323E-04-7.14121E-14
 -1      1416 8.51315E-03-8.14627E-04-7.40068E-14
 -1      1417 8.32121E-03-8.59893E-04-7.01887E-14
 -1      1418 8.66760E-03-7.56748E-04-7.66459E-14
 -1      1419 8.82522E-03-6.99360E-04-7.93251E-14
 -1      1420 8.62808E-03-7.45126E-04-7.53689E-14
 -1      1421 8.98548E-03-6.43896E-04-8.20449E-14
 -1      1422 9.14778E-03-5.91426E-04-8.48030E-14
 -1      1423 8.94472E-03-6.29293E-04-8.07244E-14
 -1      1424 9.31151E-03-5.42561E-04-8.75994E-14
 -1      1425 9.47607E-03-4.97774E-04-9.04334E-14
 -1      1426 9.26782E-03-5.23760E-04-8.62365E-14
 -1      1427 9.64091E-03-4.57044E-04-9.33008E-14
 -1      1428 9.80554E-03-4.20413E-04-9.62009E-14
 -1      1429 9.59355E-03-4.34045E-04-9.18947E-14
 -1      1430 9.96957E-03-3.87511E-04-9.91365E-14
 -1      1431 1.01327E-02-3.58134E-04-1.02105E-13
 -1      1432 9.91861E-03-3.61001E-04-9.76946E-14
 -1      1433 1.02947E-02-3.31790E-04-1.05107E-13
 -1      1434 1.04554E-02-3.08173E-04-1.08140E-13
 -1      1435 1.02406E-02-3.02703E-04-1.03628E-13
 -1      1436 1.06147E-02-2.86814E-04-1.11203E-13
 -1      1437 1.07726E-02-2.67394E-04-1.14295E-13
 -1      1438 1.05583E-02-2.56057E-04-1.09686E-13
 -1      1439 1.09290E-02-2.49528E-04-1.17415E-13
 -1      1440 1.10841E-02-2.32928E-04-1.20562E-13
 -1      1441 1.08709E-02-2.17845E-04-1.15863E-13
 -1      1442 1.12378E-02-2.17312E-04-1.23735E-13
 -1      1443 1.13902E-02-2.02440E-04-1.26934E-13
 -1      1444 1.11787E-02-1.85257E-04-1.22154E-13
 -1      1445 1.15415E-02-1.88121E-04-1.30156E-13
 -1      1446 1.16917E-02-1.74169E-04-1.33400E-13
 -1      1447 1.14819E-02-1.56069E-04-1.28543E-13
 -1      1448 1.18409E-02-1.60464E-04-1.36673E-13
 -1      1449 1.19891E-02-1.46870E-04-1.39970E-13
 -1      1450 1.17811E-02-1.28647E-04-1.35031E-13
 -1      1451 1.21366E-02-1.33318E-04-1.43290E-13
 -1      1452 1.22834E-02-1.19712E-04-1.46635E-13
 -1      1453 1.20770E-02-1.01859E-04-1.41619E-13
 -1      1454 1.24295E-02-1.06020E-04-1.50006E-13
 -1      1455 1.25751E-02-9.21789E-05-1.53400E-13
 -1      1456 1.23702E-02-7.49704E-05-1.48304E-13
 -1      1457 1.27202E-02-7.81791E-05-1.56815E-13
 -1      1458 1.28649E-02-6.39810E-05-1.60248E-13
 -1      1459 1.26612E-02-4.75413E-05-1.55082E-13
 -1      1460 1.30092E-02-4.95904E-05-1.63700E-13
 -1      1461 1.31532E-02-3.49848E-05-1.67167E-13
 -1      1462 1.29505E-02-1.93391E-05-1.61943E-13
 -1      1463 1.32970E-02-2.01776E-05-1.70648E-13
 -1      1464 1.34405E-02-5.15871E-06-1.74145E-13
 -1      1465 1.32386E-02 9.72816E-06-1.68868E-13
 -1      1466 1.35839E-02 1.00546E-05-1.77654E-13
 -1      1467 1.37271E-02 2.54639E-05-1.81169E-13
 -1      1468 1.35259E-02 3.96623E-05-1.75853E-13
 -1      1469 1.38702E-02 4.10501E-05-1.84694E-13
 -1      1470 1.40132E-02 5.68083E-05-1.88228E-13
 -1      1471 1.38124E-02 7.04093E-05-1.82882E-13
 -1      1472 1.41562E-02 7.27167E-05-1.91771E-13
 -1      1473 1.42991E-02 8.87649E-05-1.95320E-13
 -1      1474 1.40986E-02 1.01878E-04-1.89947E-13
 -1      1475 1.44419E-02 1.04925E-04-1.98878E-13
 -1      1476 1.45848E-02 1.21174E-04-2.02445E-13
 -1      1477 1.43845E-02 1.33945E-04-1.97043E-13
 -1      1478 1.47935E-02 1.49115E-04-2.07618E-13
 -1      1479 1.47362E-02 1.78078E-04-2.05768E-13
 -1      1480 6.41291E-04 3.69484E-04-1.04314E-16
 -1      1481 4.91528E-04 3.01970E-04-2.59802E-17
 -1      1482 4.43883E-04 2.64311E-04-6.82505E-17
 -1      1483 9.26354E-04 4.67536E-04-4.00830E-16
 -1      1484 7.85720E-04 4.23053E-04-2.29295E-16
 -1      1485 7.43244E-04 3.87420E-04-2.81066E-16
 -1      1486 1.20102E-03 5.34586E-04-8.83408E-16
 -1      1487 1.06443E-03 5.04154E-04-6.18470E-16
 -1      1488 1.02904E-03 4.70721E-04-6.77925E-16
 -1      1489 1.47171E-03 5.80857E-04-1.55506E-15
 -1      1490 1.33653E-03 5.59934E-04-1.19556E-15
 -1      1491 1.30703E-03 5.27896E-04-1.25988E-15
 -1      1492 1.74191E-03 6.12167E-04-2.41484E-15
 -1      1493 1.60669E-03 5.98143E-04-1.96128E-15
 -1      1494 1.58177E-03 5.66917E-04-2.02838E-15
 -1      1495 2.01353E-03 6.32282E-04-3.46111E-15
 -1      1496 1.87744E-03 6.23451E-04-2.91465E-15
 -1      1497 1.85605E-03 5.92648E-04-2.98301E-15
 -1      1498 2.28767E-03 6.43870E-04-4.69258E-15
 -1      1499 2.15022E-03 6.39007E-04-4.05402E-15
 -1      1500 2.13153E-03 6.08370E-04-4.12315E-15
 -1      1501 2.56507E-03 6.48931E-04-6.10750E-15
 -1      1502 2.42592E-03 6.47104E-04-5.37720E-15
 -1      1503 2.40923E-03 6.16455E-04-5.44634E-15
 -1      1504 2.84633E-03 6.49043E-04-7.70552E-15
 -1      1505 2.70518E-03 6.49507E-04-6.88361E-15
 -1      1506 2.68988E-03 6.18706E-04-6.95123E-15
 -1      1507 3.13205E-03 6.45528E-04-9.48383E-15
 -1      1508 2.98859E-03 6.47644E-04-8.57237E-15
 -1      1509 2.97413E-03 6.16564E-04-8.63755E-15
 -1      1510 3.42296E-03 6.39612E-04-1.14422E-14
 -1      1511 3.27681E-03 6.42768E-04-1.04402E-14
 -1      1512 3.26260E-03 6.11280E-04-1.05038E-14
 -1      1513 3.71992E-03 6.32591E-04-1.35775E-14
 -1      1514 3.57063E-03 6.36119E-04-1.24878E-14
 -1      1515 3.55605E-03 6.04073E-04-1.25480E-14
 -1      1516 4.02402E-03 6.26032E-04-1.58912E-14
 -1      1517 3.87101E-03 6.29101E-04-1.47118E-14
 -1      1518 3.85532E-03 5.96317E-04-1.47692E-14
 -1      1519 4.33646E-03 6.22010E-04-1.83826E-14
 -1      1520 4.17911E-03 6.23505E-04-1.71146E-14
 -1      1521 4.16141E-03 5.89762E-04-1.71673E-14
 -1      1522 4.65854E-03 6.23391E-04-2.10480E-14
 -1      1523 4.49621E-03 6.21769E-04-1.96938E-14
 -1      1524 4.47539E-03 5.86795E-04-1.97414E-14
 -1      1525 4.99131E-03 6.34141E-04-2.38885E-14
 -1      1526 4.82352E-03 6.27278E-04-2.24470E-14
 -1      1527 4.79828E-03 5.90761E-04-2.24889E-14
 -1      1528 5.33518E-03 6.59544E-04-2.69009E-14
 -1      1529 5.16184E-03 6.44651E-04-2.53724E-14
 -1      1530 5.13078E-03 6.06262E-04-2.54095E-14
 -1      1531 5.68925E-03 7.06094E-04-3.00931E-14
 -1      1532 5.51104E-03 6.79834E-04-2.84748E-14
 -1      1533 5.47287E-03 6.39291E-04-2.85055E-14
 -1      1534 6.05038E-03 7.80541E-04-3.34607E-14
 -1      1535 5.86921E-03 7.39641E-04-3.17549E-14
 -1      1536 5.82324E-03 6.96845E-04-3.17766E-14
 -1      1537 6.41253E-03 8.87409E-04-3.69995E-14
 -1      1538 6.23184E-03 8.30116E-04-3.52087E-14
 -1      1539 6.17871E-03 7.85383E-04-3.52221E-14
 -1      1540 6.76677E-03 1.02451E-03-4.07156E-14
 -1      1541 6.59133E-03 9.53033E-04-3.88346E-14
 -1      1542 6.53371E-03 9.07394E-04-3.88417E-14
 -1      1543 7.10327E-03 1.17761E-03-4.46173E-14
 -1      1544 6.93787E-03 1.10072E-03-4.26429E-14
 -1      1545 6.88079E-03 1.05607E-03-4.26402E-14
 -1      1546 7.41561E-03 1.31826E-03-4.87185E-14
 -1      1547 7.26262E-03 1.25163E-03-4.66429E-14
 -1      1548 7.21263E-03 1.21038E-03-4.66300E-14
 -1      1549 7.70613E-03 1.41088E-03-5.30149E-14
 -1      1550 7.56299E-03 1.37230E-03-5.08415E-14
 -1      1551 7.52618E-03 1.33615E-03-5.08174E-14
 -1      1552 7.98742E-03 1.42979E-03-5.75105E-14
 -1      1553 7.84674E-03 1.42986E-03-5.52374E-14
 -1      1554 7.82646E-03 1.39847E-03-5.52042E-14
 -1      1555 8.27710E-03 1.37393E-03-6.22004E-14
 -1      1556 8.13010E-03 1.40979E-03-5.98318E-14
 -1      1557 8.12582E-03 1.38084E-03-5.97890E-14
 -1      1558 8.58823E-03 1.26828E-03-6.70812E-14
 -1      1559 8.42950E-03 1.32504E-03-6.46179E-14
 -1      1560 8.43715E-03 1.29564E-03-6.45683E-14
 -1      1561 8.92373E-03 1.14838E-03-7.21480E-14
 -1      1562 8.75315E-03 1.20808E-03-6.95922E-14
 -1      1563 8.76664E-03 1.17641E-03-6.95361E-14
 -1      1564 9.27760E-03 1.04330E-03-7.73826E-14
 -1      1565 9.09898E-03 1.09286E-03-7.47440E-14
 -1      1566 9.11220E-03 1.05856E-03-7.46800E-14
 -1      1567 9.64006E-03 9.68056E-04-8.27860E-14
 -1      1568 9.45841E-03 1.00169E-03-8.00641E-14
 -1      1569 9.46691E-03 9.65337E-04-7.99940E-14
 -1      1570 1.00021E-02 9.25293E-04-8.83457E-14
 -1      1571 9.82164E-03 9.42864E-04-8.55464E-14
 -1      1572 9.82321E-03 9.05326E-04-8.54696E-14
 -1      1573 1.03576E-02 9.10680E-04-9.40560E-14
 -1      1574 1.01810E-02 9.14901E-04-9.11828E-14
 -1      1575 1.01753E-02 8.76944E-04-9.11002E-14
 -1      1576 1.07033E-02 9.17517E-04-9.99098E-14
 -1      1577 1.05318E-02 9.11849E-04-9.69648E-14
 -1      1578 1.05197E-02 8.74019E-04-9.68765E-14
 -1      1579 1.10384E-02 9.39320E-04-1.05901E-13
 -1      1580 1.08722E-02 9.26902E-04-1.02888E-13
 -1      1581 1.08550E-02 8.89527E-04-1.02794E-13
 -1      1582 1.13634E-02 9.70834E-04-1.12033E-13
 -1      1583 1.12021E-02 9.54128E-04-1.08950E-13
 -1      1584 1.11811E-02 9.17362E-04-1.08849E-13
 -1      1585 1.16794E-02 1.00819E-03-1.18299E-13
 -1      1586 1.15224E-02 9.88967E-04-1.15150E-13
 -1      1587 1.14988E-02 9.52851E-04-1.15037E-13
 -1      1588 1.19880E-02 1.04870E-03-1.24683E-13
 -1      1589 1.18346E-02 1.02817E-03-1.21478E-13
 -1      1590 1.18093E-02 9.92676E-04-1.21352E-13
 -1      1591 1.22906E-02 1.09059E-03-1.31176E-13
 -1      1592 1.21400E-02 1.06955E-03-1.27917E-13
 -1      1593 1.21137E-02 1.03461E-03-1.27779E-13
 -1      1594 1.25885E-02 1.13274E-03-1.37767E-13
 -1      1595 1.24401E-02 1.11168E-03-1.34460E-13
 -1      1596 1.24132E-02 1.07721E-03-1.34312E-13
 -1      1597 1.28828E-02 1.17450E-03-1.44445E-13
 -1      1598 1.27360E-02 1.15370E-03-1.41095E-13
 -1      1599 1.27089E-02 1.11962E-03-1.40938E-13
 -1      1600 1.31743E-02 1.21549E-03-1.51198E-13
 -1      1601 1.30288E-02 1.19510E-03-1.47813E-13
 -1      1602 1.30017E-02 1.16134E-03-1.47648E-13
 -1      1603 1.34638E-02 1.25555E-03-1.58013E-13
 -1      1604 1.33193E-02 1.23564E-03-1.54598E-13
 -1      1605 1.32922E-02 1.20214E-03-1.54426E-13
 -1      1606 1.37519E-02 1.29466E-03-1.64874E-13
 -1      1607 1.36080E-02 1.27522E-03-1.61440E-13
 -1      1608 1.35811E-02 1.24192E-03-1.61261E-13
 -1      1609 1.40390E-02 1.33283E-03-1.71776E-13
 -1      1610 1.38956E-02 1.31386E-03-1.68320E-13
 -1      1611 1.38689E-02 1.28070E-03-1.68139E-13
 -1      1612 1.43254E-02 1.37016E-03-1.78707E-13
 -1      1613 1.41823E-02 1.35159E-03-1.75238E-13
 -1      1614 1.41558E-02 1.31855E-03-1.75054E-13
 -1      1615 1.46114E-02 1.40675E-03-1.85683E-13
 -1      1616 1.44685E-02 1.38854E-03-1.82189E-13
 -1      1617 1.44421E-02 1.35557E-03-1.82006E-13
 -1      1618 1.48972E-02 1.44273E-03-1.92697E-13
 -1      1619 1.47543E-02 1.42481E-03-1.89185E-13
 -1      1620 1.47281E-02 1.39189E-03-1.88998E-13
 -1      1621 1.51829E-02 1.47831E-03-1.99732E-13
 -1      1622 1.50400E-02 1.46056E-03-1.96215E-13
 -1      1623 1.50139E-02 1.42767E-03-1.96022E-13
 -1      1624 1.53272E-02 1.48588E-03-2.03441E-13
 -1      1625 1.52956E-02 1.38198E-03-2.04184E-13
 -1      1626 1.53130E-02 1.42414E-03-2.04005E-13
 -1      1627 1.52610E-02 1.29772E-03-2.04529E-13
 -1      1628 1.52783E-02 1.33984E-03-2.04359E-13
 -1      1629 1.51632E-02 1.34563E-03-2.01219E-13
 -1      1630 1.52269E-02 1.21360E-03-2.04840E-13
 -1      1631 1.52439E-02 1.25563E-03-2.04689E-13
 -1      1632 1.51288E-02 1.26148E-03-2.01553E-13
 -1      1633 1.51932E-02 1.12970E-03-2.05130E-13
 -1      1634 1.52100E-02 1.17162E-03-2.04988E-13
 -1      1635 1.50948E-02 1.17752E-03-2.01866E-13
 -1      1636 1.51603E-02 1.04748E-03-2.05427E-13
 -1      1637 1.51767E-02 1.08856E-03-2.05276E-13
 -1      1638 1.50615E-02 1.09451E-03-2.02166E-13
 -1      1639 1.51270E-02 9.64093E-04-2.05750E-13
 -1      1640 1.51437E-02 1.00576E-03-2.05587E-13
 -1      1641 1.50284E-02 1.01174E-03-2.02471E-13
 -1      1642 1.50937E-02 8.80888E-04-2.06060E-13
 -1      1643 1.51104E-02 9.22473E-04-2.05908E-13
 -1      1644 1.49951E-02 9.28476E-04-2.02780E-13
 -1      1645 1.50603E-02 7.97770E-04-2.06352E-13
 -1      1646 1.50770E-02 8.39325E-04-2.06209E-13
 -1      1647 1.49618E-02 8.45360E-04-2.03080E-13
 -1      1648 1.50268E-02 7.14624E-04-2.06613E-13
 -1      1649 1.50436E-02 7.56207E-04-2.06486E-13
 -1      1650 1.49284E-02 7.62297E-04-2.03358E-13
 -1      1651 1.49933E-02 6.31340E-04-2.06857E-13
 -1      1652 1.50100E-02 6.73005E-04-2.06736E-13
 -1      1653 1.48949E-02 6.79181E-04-2.03611E-13
 -1      1654 1.49603E-02 5.49255E-04-2.07075E-13
 -1      1655 1.49768E-02 5.90327E-04-2.06970E-13
 -1      1656 1.48616E-02 5.96625E-04-2.03843E-13
 -1      1657 1.49270E-02 4.65497E-04-2.07282E-13
 -1      1658 1.49436E-02 5.07408E-04-2.07183E-13
 -1      1659 1.48283E-02 5.13858E-04-2.04056E-13
 -1      1660 1.48940E-02 3.81491E-04-2.07466E-13
 -1      1661 1.49105E-02 4.23522E-04-2.07376E-13
 -1      1662 1.47951E-02 4.30140E-04-2.04251E-13
 -1      1663 1.48614E-02 2.97297E-04-2.07641E-13
 -1      1664 1.48777E-02 3.39412E-04-2.07555E-13
 -1      1665 1.47621E-02 3.46186E-04-2.04431E-13
 -1      1666 1.47907E-02 2.16612E-04-2.06749E-13
 -1      1667 1.48068E-02 2.58753E-04-2.06668E-13
 -1      1668 1.46911E-02 2.65643E-04-2.03543E-13
 -1      1669 1.45819E-02 1.88651E-04-2.01585E-13
 -1      1670 9.96168E-03 3.01452E-04-6.92549E-14
 -1      1671 9.98330E-03 2.58785E-04-6.94144E-14
 -1      1672 9.82085E-03 4.09726E-04-6.85131E-14
 -1      1673 9.90220E-03 3.56730E-04-6.89213E-14
 -1      1674 9.55736E-03 5.39406E-04-6.73560E-14
 -1      1675 9.69091E-03 4.72189E-04-6.80109E-14
 -1      1676 9.24057E-03 7.05098E-04-6.56025E-14
 -1      1677 9.39360E-03 6.31199E-04-6.63855E-14
 -1      1678 8.88778E-03 8.67971E-04-6.36980E-14
 -1      1679 9.05344E-03 7.92631E-04-6.46063E-14
 -1      1680 8.50088E-03 1.01882E-03-6.15493E-14
 -1      1681 8.67597E-03 9.50148E-04-6.25987E-14
 -1      1682 8.12579E-03 1.12410E-03-5.91653E-14
 -1      1683 8.29876E-03 1.08388E-03-6.02537E-14
 -1      1684 7.72650E-03 1.15269E-03-5.66289E-14
 -1      1685 7.91197E-03 1.15173E-03-5.78139E-14
 -1      1686 7.33211E-03 1.08428E-03-5.42887E-14
 -1      1687 7.50978E-03 1.12434E-03-5.53275E-14
 -1      1688 6.93735E-03 9.44232E-04-5.21054E-14
 -1      1689 7.12309E-03 1.01761E-03-5.30811E-14
 -1      1690 6.53595E-03 7.67378E-04-5.02710E-14
 -1      1691 6.71624E-03 8.51926E-04-5.10842E-14
 -1      1692 6.16323E-03 5.71853E-04-4.86412E-14
 -1      1693 6.33710E-03 6.58495E-04-4.93156E-14
 -1      1694 5.83954E-03 4.15016E-04-4.75527E-14
 -1      1695 5.97578E-03 4.84230E-04-4.80130E-14
 -1      1696 5.61007E-03 2.92019E-04-4.68958E-14
 -1      1697 5.70262E-03 3.47099E-04-4.71701E-14
 -1      1698 5.49327E-03 1.89473E-04-4.66028E-14
 -1      1699 5.53275E-03 2.34156E-04-4.66873E-14
 -1      1700 5.49772E-03 9.73313E-05-4.67172E-14
 -1      1701 5.48034E-03 1.39409E-04-4.66144E-14
 -1      1702 5.62786E-03-2.92382E-06-4.72096E-14
 -1      1703 5.55175E-03 4.62744E-05-4.69052E-14
 -1      1704 5.85581E-03-1.26933E-04-4.81696E-14
 -1      1705 5.74052E-03-6.91268E-05-4.77080E-14
 -1      1706 6.17571E-03-2.79162E-04-4.95283E-14
 -1      1707 6.01573E-03-2.04563E-04-4.88399E-14
 -1      1708 6.54167E-03-4.41763E-04-5.12345E-14
 -1      1709 6.37044E-03-3.66814E-04-5.04122E-14
 -1      1710 6.93806E-03-5.93094E-04-5.32744E-14
 -1      1711 6.75500E-03-5.24993E-04-5.22752E-14
 -1      1712 7.32777E-03-6.97591E-04-5.55776E-14
 -1      1713 7.15060E-03-6.57582E-04-5.45021E-14
 -1      1714 7.72208E-03-7.27137E-04-5.80834E-14
 -1      1715 7.54124E-03-7.25002E-04-5.69096E-14
 -1      1716 8.10501E-03-6.67139E-04-6.04811E-14
 -1      1717 7.93267E-03-7.02490E-04-5.94050E-14
 -1      1718 8.49649E-03-5.37917E-04-6.28595E-14
 -1      1719 8.31108E-03-6.06605E-04-6.17775E-14
 -1      1720 8.89569E-03-3.65547E-04-6.50162E-14
 -1      1721 8.71343E-03-4.47966E-04-6.40685E-14
 -1      1722 9.27861E-03-1.91861E-04-6.67782E-14
 -1      1723 9.10866E-03-2.72678E-04-6.59938E-14
 -1      1724 9.60308E-03-2.25701E-05-6.83174E-14
 -1      1725 9.45737E-03-9.30880E-05-6.77215E-14
 -1      1726 9.84780E-03 9.73188E-05-6.90948E-14
 -1      1727 9.75079E-03 4.21366E-05-6.87456E-14
 -1      1728 9.97408E-03 2.08055E-04-6.95990E-14
 -1      1729 9.93139E-03 1.62195E-04-6.95030E-14
 -1      1730 9.09100E-03 7.08459E-04-6.57180E-14
 -1      1731 9.43964E-03 5.31186E-04-6.77034E-14
 -1      1732 1.53011E-02 1.45300E-03-2.03251E-13
 -1      1733 1.51686E-02 1.41659E-03-2.00292E-13
 -1      1734 9.93465E-03 3.04860E-04-7.00492E-14
 -1      1735 9.73967E-03 3.95427E-04-6.91992E-14
 -1      1736 9.98821E-03 2.36460E-04-7.05741E-14
 -1      1737 8.71630E-03 8.91242E-04-6.36047E-14
 -1      1738 8.35193E-03 1.05800E-03-6.11927E-14
 -1      1739 7.99439E-03 1.16300E-03-5.85361E-14
 -1      1740 7.64220E-03 1.16466E-03-5.58839E-14
 -1      1741 7.27455E-03 1.05993E-03-5.33849E-14
 -1      1742 6.89475E-03 8.81957E-04-5.11772E-14
 -1      1743 6.49760E-03 6.68991E-04-4.92227E-14
 -1      1744 6.11837E-03 4.71398E-04-4.76676E-14
 -1      1745 5.79248E-03 3.27564E-04-4.66792E-14
 -1      1746 5.57195E-03 2.27952E-04-4.61015E-14
 -1      1747 5.47776E-03 1.57024E-04-4.59088E-14
 -1      1748 5.52042E-03 9.27925E-05-4.61039E-14
 -1      1749 5.69445E-03 9.39126E-06-4.67764E-14
 -1      1750 5.97289E-03-1.16294E-04-4.79264E-14
 -1      1751 6.32422E-03-2.80423E-04-4.94577E-14
 -1      1752 6.71116E-03-4.63563E-04-5.13593E-14
 -1      1753 7.09232E-03-6.30020E-04-5.36081E-14
 -1      1754 7.45781E-03-7.34861E-04-5.61561E-14
 -1      1755 7.80525E-03-7.40405E-04-5.88110E-14
 -1      1756 8.16470E-03-6.46424E-04-6.14392E-14
 -1      1757 8.53936E-03-4.78095E-04-6.39639E-14
 -1      1758 8.93862E-03-2.78939E-04-6.61751E-14
 -1      1759 9.32354E-03-8.52571E-05-6.81153E-14
 -1      1760 9.65417E-03 6.33223E-05-6.95044E-14
 -1      1761 9.89152E-03 1.67270E-04-7.03488E-14
 -1      1762 2.84596E-04-1.75375E-04-6.58653E-17
 -1      1763 3.32389E-04-1.15445E-04-2.37129E-16
 -1      1764 3.36425E-04-1.31699E-04-2.21408E-16
 -1      1765 3.42162E-04-1.50706E-04-2.01878E-16
 -1      1766 3.51515E-04-1.72723E-04-1.74800E-16
 -1      1767 4.58390E-04-1.86131E-04-3.21303E-16
 -1      1768 3.24890E-04-6.42371E-05-2.70386E-16
 -1      1769 3.26026E-04-7.54490E-05-2.65413E-16
 -1      1770 3.23369E-04-4.30093E-05-2.76282E-16
 -1      1771 3.24038E-04-5.33528E-05-2.73869E-16
 -1      1772 4.36884E-04-7.77613E-05-4.02144E-16
 -1      1773 3.22552E-04-2.32528E-05-2.78342E-16
 -1      1774 3.22899E-04-3.29752E-05-2.77773E-16
 -1      1775 4.34820E-04-5.02103E-05-4.08988E-16
 -1      1776 3.22241E-04-4.23906E-06-2.77230E-16
 -1      1777 3.22343E-04-1.36761E-05-2.78084E-16
 -1      1778 4.33744E-04-2.43477E-05-4.10696E-16
 -1      1779 3.22374E-04 1.46467E-05-2.73341E-16
 -1      1780 3.22251E-04 5.19906E-06-2.75753E-16
 -1      1781 4.33429E-04 7.41824E-07-4.08175E-16
 -1      1782 3.22972E-04 3.40018E-05-2.66551E-16
 -1      1783 3.22603E-04 2.42455E-05-2.70346E-16
 -1      1784 4.33812E-04 2.58615E-05-4.01643E-16
 -1      1785 3.24135E-04 5.41315E-05-2.56183E-16
 -1      1786 3.23456E-04 4.39110E-05-2.62133E-16
 -1      1787 4.34950E-04 5.15941E-05-3.90950E-16
 -1      1788 3.26199E-04 7.65790E-05-2.40896E-16
 -1      1789 3.25004E-04 6.50853E-05-2.49516E-16
 -1      1790 4.37070E-04 7.90637E-05-3.74985E-16
 -1      1791 3.29824E-04 1.02329E-04-2.17748E-16
 -1      1792 3.27720E-04 8.90089E-05-2.30745E-16
 -1      1793 4.40735E-04 1.09764E-04-3.51336E-16
 -1      1794 3.36676E-04 1.33790E-04-1.82688E-16
 -1      1795 3.32604E-04 1.17281E-04-2.02461E-16
 -1      1796 4.47110E-04 1.45408E-04-3.16126E-16
 -1      1797 3.52040E-04 1.76313E-04-1.29847E-16
 -1      1798 3.42753E-04 1.53455E-04-1.59513E-16
 -1      1799 4.59364E-04 1.89507E-04-2.64220E-16
 -1      1800 4.06992E-04 2.32221E-04-9.21572E-17
 -1      1801 3.77650E-04 2.01286E-04-1.16958E-16
 -1      1802 4.95478E-04 2.41952E-04-2.17139E-16
 -1      1803 5.57629E-04 3.00239E-04-1.78460E-16
 -1      1804 3.39519E-04-1.89747E-04-1.23152E-16
 -1      1805 8.52375E-04 4.02939E-04-4.89260E-16
 -1      1806 7.06082E-04 3.56208E-04-3.11424E-16
 -1      1807 6.72668E-04 3.25769E-04-3.36143E-16
 -1      1808 4.58472E-04-2.34917E-04-2.26287E-16
 -1      1809 8.06423E-04-3.70180E-04-6.20367E-16
 -1      1810 9.51676E-04-4.10269E-04-8.73894E-16
 -1      1811 1.09457E-03-4.43737E-04-1.17533E-15
 -1      1812 1.23638E-03-4.71278E-04-1.52523E-15
 -1      1813 1.00364E-03-3.92306E-04-1.08268E-15
 -1      1814 1.37701E-03-4.94255E-04-1.92300E-15
 -1      1815 1.51704E-03-5.12966E-04-2.36913E-15
 -1      1816 1.28966E-03-4.47532E-04-1.79288E-15
 -1      1817 1.65667E-03-5.28307E-04-2.86282E-15
 -1      1818 1.79614E-03-5.40515E-04-3.40446E-15
 -1      1819 1.57276E-03-4.85116E-04-2.69291E-15
 -1      1820 1.93564E-03-5.50177E-04-3.99329E-15
 -1      1821 2.07529E-03-5.57499E-04-4.62922E-15
 -1      1822 1.85455E-03-5.09572E-04-3.78194E-15
 -1      1823 2.21526E-03-5.62882E-04-5.31279E-15
 -1      1824 2.35560E-03-5.66507E-04-6.04300E-15
 -1      1825 2.13628E-03-5.24148E-04-5.05917E-15
 -1      1826 2.49643E-03-5.68664E-04-6.81954E-15
 -1      1827 2.63781E-03-5.69514E-04-7.64314E-15
 -1      1828 2.41882E-03-5.31253E-04-6.52242E-15
 -1      1829 2.77981E-03-5.69276E-04-8.51233E-15
 -1      1830 2.92249E-03-5.68101E-04-9.42673E-15
 -1      1831 2.70285E-03-5.32743E-04-8.16980E-15
 -1      1832 3.06592E-03-5.66174E-04-1.03868E-14
 -1      1833 3.21016E-03-5.63642E-04-1.13911E-14
 -1      1834 2.98890E-03-5.30130E-04-9.99954E-15
 -1      1835 3.35525E-03-5.60683E-04-1.24398E-14
 -1      1836 3.50128E-03-5.57456E-04-1.35325E-14
 -1      1837 3.27742E-03-5.24748E-04-1.20074E-14
 -1      1838 3.64827E-03-5.54158E-04-1.46681E-14
 -1      1839 3.79632E-03-5.50969E-04-1.58463E-14
 -1      1840 3.56885E-03-5.17913E-04-1.41911E-14
 -1      1841 3.94544E-03-5.48134E-04-1.70665E-14
 -1      1842 4.09572E-03-5.45870E-04-1.83296E-14
 -1      1843 3.86364E-03-5.11079E-04-1.65455E-14
 -1      1844 4.24718E-03-5.44490E-04-1.96350E-14
 -1      1845 4.39988E-03-5.44259E-04-2.09818E-14
 -1      1846 4.16224E-03-5.05998E-04-1.90688E-14
 -1      1847 4.55384E-03-5.45575E-04-2.23688E-14
 -1      1848 4.70904E-03-5.48754E-04-2.37979E-14
 -1      1849 4.46508E-03-5.04867E-04-2.17596E-14
 -1      1850 4.86555E-03-5.54275E-04-2.52704E-14
 -1      1851 5.02320E-03-5.62490E-04-2.67826E-14
 -1      1852 4.77254E-03-5.10421E-04-2.46169E-14
 -1      1853 5.18211E-03-5.73915E-04-2.83366E-14
 -1      1854 5.34191E-03-5.88896E-04-2.99319E-14
 -1      1855 5.08489E-03-5.25915E-04-2.76392E-14
 -1      1856 5.50279E-03-6.07869E-04-3.15718E-14
 -1      1857 5.66409E-03-6.31074E-04-3.32539E-14
 -1      1858 5.40207E-03-5.54862E-04-3.08297E-14
 -1      1859 5.82609E-03-6.58676E-04-3.49781E-14
 -1      1860 5.98784E-03-6.90624E-04-3.67476E-14
 -1      1861 5.72355E-03-6.00351E-04-3.41907E-14
 -1      1862 6.14963E-03-7.26547E-04-3.85612E-14
 -1      1863 6.31032E-03-7.65854E-04-4.04194E-14
 -1      1864 6.04788E-03-6.63751E-04-3.77240E-14
 -1      1865 6.47012E-03-8.07386E-04-4.23231E-14
 -1      1866 6.62803E-03-8.49801E-04-4.42733E-14
 -1      1867 6.37246E-03-7.42740E-04-4.14362E-14
 -1      1868 6.78405E-03-8.91117E-04-4.62720E-14
 -1      1869 6.93779E-03-9.29236E-04-4.83166E-14
 -1      1870 6.69358E-03-8.29154E-04-4.53320E-14
 -1      1871 7.08898E-03-9.61719E-04-5.04104E-14
 -1      1872 7.23834E-03-9.86323E-04-5.25538E-14
 -1      1873 7.00752E-03-9.07937E-04-4.94174E-14
 -1      1874 7.38538E-03-1.00095E-03-5.47471E-14
 -1      1875 7.53189E-03-1.00411E-03-5.69921E-14
 -1      1876 7.31283E-03-9.59587E-04-5.36967E-14
 -1      1877 7.67733E-03-9.94964E-04-5.92869E-14
 -1      1878 7.82391E-03-9.73565E-04-6.16316E-14
 -1      1879 7.61218E-03-9.66893E-04-5.81789E-14
 -1      1880 7.97110E-03-9.40795E-04-6.40283E-14
 -1      1881 8.12065E-03-8.98176E-04-6.64739E-14
 -1      1882 7.91167E-03-9.23021E-04-6.28661E-14
 -1      1883 8.27212E-03-8.47833E-04-6.89683E-14
 -1      1884 8.42612E-03-7.92053E-04-7.15113E-14
 -1      1885 8.21739E-03-8.35288E-04-6.77523E-14
 -1      1886 8.58241E-03-7.33274E-04-7.40987E-14
 -1      1887 8.74058E-03-6.73535E-04-7.67306E-14
 -1      1888 8.53184E-03-7.21208E-04-7.28320E-14
 -1      1889 8.90064E-03-6.14785E-04-7.94063E-14
 -1      1890 9.06157E-03-5.58345E-04-8.21201E-14
 -1      1891 8.85337E-03-6.00197E-04-7.80911E-14
 -1      1892 9.22359E-03-5.05331E-04-8.48748E-14
 -1      1893 9.38558E-03-4.56302E-04-8.76667E-14
 -1      1894 9.17830E-03-4.86974E-04-8.35169E-14
 -1      1895 9.54784E-03-4.11604E-04-9.04936E-14
 -1      1896 9.70944E-03-3.71272E-04-9.33558E-14
 -1      1897 9.50298E-03-3.89426E-04-8.90944E-14
 -1      1898 9.87064E-03-3.35127E-04-9.62535E-14
 -1      1899 1.00308E-02-3.02926E-04-9.91846E-14
 -1      1900 9.82488E-03-3.09672E-04-9.48153E-14
 -1      1901 1.01902E-02-2.74229E-04-1.02149E-13
 -1      1902 1.03483E-02-2.48698E-04-1.05146E-13
 -1      1903 1.01427E-02-2.46259E-04-1.00673E-13
 -1      1904 1.05055E-02-2.25822E-04-1.08174E-13
 -1      1905 1.06614E-02-2.05267E-04-1.11230E-13
 -1      1906 1.04559E-02-1.96094E-04-1.06662E-13
 -1      1907 1.08162E-02-1.86567E-04-1.14317E-13
 -1      1908 1.09699E-02-1.69431E-04-1.17432E-13
 -1      1909 1.07645E-02-1.55740E-04-1.12774E-13
 -1      1910 1.11225E-02-1.53485E-04-1.20572E-13
 -1      1911 1.12741E-02-1.38498E-04-1.23741E-13
 -1      1912 1.10690E-02-1.22080E-04-1.18997E-13
 -1      1913 1.14246E-02-1.24194E-04-1.26933E-13
 -1      1914 1.15744E-02-1.10396E-04-1.30149E-13
 -1      1915 1.13697E-02-9.25918E-05-1.25326E-13
 -1      1916 1.17232E-02-9.69194E-05-1.33393E-13
 -1      1917 1.18714E-02-8.36352E-05-1.36660E-13
 -1      1918 1.16672E-02-6.53813E-05-1.31757E-13
 -1      1919 1.20188E-02-7.04266E-05-1.39952E-13
 -1      1920 1.21656E-02-5.72048E-05-1.43267E-13
 -1      1921 1.19620E-02-3.91131E-05-1.38287E-13
 -1      1922 1.23118E-02-4.39043E-05-1.46606E-13
 -1      1923 1.24576E-02-3.04661E-05-1.49970E-13
 -1      1924 1.22546E-02-1.29022E-05-1.44914E-13
 -1      1925 1.26028E-02-1.68607E-05-1.53356E-13
 -1      1926 1.27478E-02-3.05102E-06-1.56763E-13
 -1      1927 1.25453E-02 1.37956E-05-1.51634E-13
 -1      1928 1.28923E-02 1.09690E-05-1.60190E-13
 -1      1929 1.30366E-02 2.52205E-05-1.63632E-13
 -1      1930 1.28347E-02 4.12797E-05-1.58441E-13
 -1      1931 1.31806E-02 3.96953E-05-1.67095E-13
 -1      1932 1.33244E-02 5.44036E-05-1.70569E-13
 -1      1933 1.31230E-02 6.96817E-05-1.65321E-13
 -1      1934 1.34680E-02 6.93291E-05-1.74056E-13
 -1      1935 1.36115E-02 8.44747E-05-1.77559E-13
 -1      1936 1.34104E-02 9.90237E-05-1.72266E-13
 -1      1937 1.37548E-02 9.98197E-05-1.81071E-13
 -1      1938 1.38980E-02 1.15362E-04-1.84593E-13
 -1      1939 1.36973E-02 1.29260E-04-1.79261E-13
 -1      1940 1.40411E-02 1.31078E-04-1.88124E-13
 -1      1941 1.41841E-02 1.46962E-04-1.91664E-13
 -1      1942 1.39837E-02 1.60305E-04-1.86302E-13
 -1      1943 1.43116E-02 1.59639E-04-1.94841E-13
 -1      1944 1.44545E-02 1.75780E-04-1.98393E-13
 -1      1945 1.45091E-02 2.14250E-04-1.99374E-13
 -1      1946 1.42542E-02 1.88707E-04-1.93008E-13
 -1      1947 1.13742E-03 4.73521E-04-9.79848E-16
 -1      1948 9.95615E-04 4.41524E-04-7.11440E-16
 -1      1949 9.63669E-04 4.12213E-04-7.39250E-16
 -1      1950 1.41688E-03 5.22054E-04-1.65509E-15
 -1      1951 1.27750E-03 5.00155E-04-1.29417E-15
 -1      1952 1.24836E-03 4.72174E-04-1.32275E-15
 -1      1953 1.69409E-03 5.54717E-04-2.51551E-15
 -1      1954 1.55557E-03 5.40128E-04-2.06211E-15
 -1      1955 1.52922E-03 5.13120E-04-2.09011E-15
 -1      1956 1.97116E-03 5.75575E-04-3.56056E-15
 -1      1957 1.83253E-03 5.66454E-04-3.01485E-15
 -1      1958 1.80859E-03 5.40085E-04-3.04125E-15
 -1      1959 2.24943E-03 5.87481E-04-4.78907E-15
 -1      1960 2.11008E-03 5.82521E-04-4.15186E-15
 -1      1961 2.08805E-03 5.56546E-04-4.17563E-15
 -1      1962 2.52979E-03 5.92547E-04-6.19929E-15
 -1      1963 2.38931E-03 5.90769E-04-5.47170E-15
 -1      1964 2.36870E-03 5.65010E-04-5.49165E-15
 -1      1965 2.81293E-03 5.92402E-04-7.79062E-15
 -1      1966 2.67098E-03 5.93042E-04-6.97230E-15
 -1      1967 2.65131E-03 5.67360E-04-6.98839E-15
 -1      1968 3.09947E-03 5.88382E-04-9.56245E-15
 -1      1969 2.95574E-03 5.90799E-04-8.65412E-15
 -1      1970 2.93652E-03 5.65077E-04-8.66545E-15
 -1      1971 3.39006E-03 5.81695E-04-1.15120E-14
 -1      1972 3.24421E-03 5.85292E-04-1.05149E-14
 -1      1973 3.22492E-03 5.59416E-04-1.05215E-14
 -1      1974 3.68542E-03 5.73591E-04-1.36395E-14
 -1      1975 3.53708E-03 5.77727E-04-1.25539E-14
 -1      1976 3.51713E-03 5.51570E-04-1.25545E-14
 -1      1977 3.98636E-03 5.65565E-04-1.59429E-14
 -1      1978 3.83511E-03 5.69451E-04-1.47689E-14
 -1      1979 3.81383E-03 5.42858E-04-1.47638E-14
 -1      1980 4.29381E-03 5.59593E-04-1.84227E-14
 -1      1981 4.13919E-03 5.62166E-04-1.71607E-14
 -1      1982 4.11578E-03 5.34934E-04-1.71493E-14
 -1      1983 4.60871E-03 5.58430E-04-2.10752E-14
 -1      1984 4.45024E-03 5.58201E-04-1.97277E-14
 -1      1985 4.42382E-03 5.30058E-04-1.97092E-14
 -1      1986 4.93192E-03 5.65932E-04-2.39028E-14
 -1      1987 4.76921E-03 5.60823E-04-2.24670E-14
 -1      1988 4.73881E-03 5.31402E-04-2.24416E-14
 -1      1989 5.26396E-03 5.87328E-04-2.69019E-14
 -1      1990 5.09681E-03 5.74552E-04-2.53807E-14
 -1      1991 5.06155E-03 5.43377E-04-2.53472E-14
 -1      1992 5.60470E-03 6.29213E-04-3.00761E-14
 -1      1993 5.43331E-03 6.05333E-04-2.84670E-14
 -1      1994 5.39263E-03 5.71837E-04-2.84255E-14
 -1      1995 5.95289E-03 6.98807E-04-3.34249E-14
 -1      1996 5.77810E-03 6.60232E-04-3.17286E-14
 -1      1997 5.73215E-03 6.23872E-04-3.16764E-14
 -1      1998 6.30559E-03 8.01749E-04-3.69471E-14
 -1      1999 6.12915E-03 7.46071E-04-3.51646E-14
 -1      2000 6.07928E-03 7.06633E-04-3.51026E-14
 -1      2001 6.65773E-03 9.37728E-04-4.06450E-14
 -1      2002 6.48243E-03 8.66177E-04-3.87741E-14
 -1      2003 6.43152E-03 8.24332E-04-3.87027E-14
 -1      2004 7.00242E-03 1.09453E-03-4.45259E-14
 -1      2005 6.83172E-03 1.01498E-03-4.25624E-14
 -1      2006 6.78378E-03 9.72858E-04-4.24796E-14
 -1      2007 7.33333E-03 1.24422E-03-4.86024E-14
 -1      2008 7.16993E-03 1.17250E-03-4.65389E-14
 -1      2009 7.12885E-03 1.13352E-03-4.64434E-14
 -1      2010 7.64904E-03 1.34817E-03-5.28764E-14
 -1      2011 7.49248E-03 1.30393E-03-5.07138E-14
 -1      2012 7.46041E-03 1.27123E-03-5.06049E-14
 -1      2013 7.95715E-03 1.37583E-03-5.73496E-14
 -1      2014 7.80281E-03 1.37216E-03-5.50876E-14
 -1      2015 7.77937E-03 1.34581E-03-5.49671E-14
 -1      2016 8.26998E-03 1.32240E-03-6.20241E-14
 -1      2017 8.11167E-03 1.35779E-03-5.96631E-14
 -1      2018 8.09597E-03 1.33505E-03-5.95304E-14
 -1      2019 8.59707E-03 1.21406E-03-6.68879E-14
 -1      2020 8.43136E-03 1.27277E-03-6.44323E-14
 -1      2021 8.42240E-03 1.24967E-03-6.42917E-14
 -1      2022 8.93889E-03 1.08923E-03-7.19375E-14
 -1      2023 8.76642E-03 1.15166E-03-6.93900E-14
 -1      2024 8.76314E-03 1.12625E-03-6.92399E-14
 -1      2025 9.29009E-03 9.79568E-04-7.71578E-14
 -1      2026 9.11397E-03 1.03143E-03-7.45271E-14
 -1      2027 9.11388E-03 1.00362E-03-7.43684E-14
 -1      2028 9.64361E-03 9.01165E-04-8.25469E-14
 -1      2029 9.46718E-03 9.36275E-04-7.98316E-14
 -1      2030 9.46719E-03 9.06813E-04-7.96665E-14
 -1      2031 9.99388E-03 8.56727E-04-8.80918E-14
 -1      2032 9.81959E-03 8.74995E-04-8.52999E-14
 -1      2033 9.81707E-03 8.44641E-04-8.51261E-14
 -1      2034 1.03375E-02 8.41613E-04-9.37887E-14
 -1      2035 1.01668E-02 8.45950E-04-9.09218E-14
 -1      2036 1.01602E-02 8.15209E-04-9.07401E-14
 -1      2037 1.06729E-02 8.48739E-04-9.96295E-14
 -1      2038 1.05064E-02 8.42816E-04-9.66918E-14
 -1      2039 1.04953E-02 8.11999E-04-9.65027E-14
 -1      2040 1.09999E-02 8.71295E-04-1.05608E-13
 -1      2041 1.08375E-02 8.58422E-04-1.02602E-13
 -1      2042 1.08222E-02 8.27722E-04-1.02406E-13
 -1      2043 1.13188E-02 9.03778E-04-1.11721E-13
 -1      2044 1.11603E-02 8.86536E-04-1.08649E-13
 -1      2045 1.11415E-02 8.56071E-04-1.08445E-13
 -1      2046 1.16307E-02 9.42152E-04-1.17963E-13
 -1      2047 1.14756E-02 9.22392E-04-1.14826E-13
 -1      2048 1.14540E-02 8.92228E-04-1.14612E-13
 -1      2049 1.19366E-02 9.83635E-04-1.24323E-13
 -1      2050 1.17843E-02 9.62610E-04-1.21129E-13
 -1      2051 1.17608E-02 9.32772E-04-1.20904E-13
 -1      2052 1.22375E-02 1.02640E-03-1.30793E-13
 -1      2053 1.20876E-02 1.00492E-03-1.27545E-13
 -1      2054 1.20626E-02 9.75403E-04-1.27310E-13
 -1      2055 1.25345E-02 1.06931E-03-1.37364E-13
 -1      2056 1.23864E-02 1.04787E-03-1.34067E-13
 -1      2057 1.23605E-02 1.01865E-03-1.33820E-13
 -1      2058 1.28283E-02 1.11169E-03-1.44026E-13
 -1      2059 1.26817E-02 1.09058E-03-1.40684E-13
 -1      2060 1.26552E-02 1.06163E-03-1.40430E-13
 -1      2061 1.31198E-02 1.15320E-03-1.50764E-13
 -1      2062 1.29743E-02 1.13256E-03-1.47385E-13
 -1      2063 1.29474E-02 1.10383E-03-1.47125E-13
 -1      2064 1.34095E-02 1.19367E-03-1.57567E-13
 -1      2065 1.32648E-02 1.17357E-03-1.54158E-13
 -1      2066 1.32378E-02 1.14503E-03-1.53889E-13
 -1      2067 1.36978E-02 1.23310E-03-1.64418E-13
 -1      2068 1.35538E-02 1.21352E-03-1.60988E-13
 -1      2069 1.35266E-02 1.18513E-03-1.60714E-13
 -1      2070 1.39852E-02 1.27152E-03-1.71312E-13
 -1      2071 1.38416E-02 1.25243E-03-1.67859E-13
 -1      2072 1.38145E-02 1.22417E-03-1.67582E-13
 -1      2073 1.42718E-02 1.30904E-03-1.78242E-13
 -1      2074 1.41286E-02 1.29039E-03-1.74773E-13
 -1      2075 1.41015E-02 1.26223E-03-1.74490E-13
 -1      2076 1.45581E-02 1.34576E-03-1.85213E-13
 -1      2077 1.44150E-02 1.32749E-03-1.81723E-13
 -1      2078 1.43880E-02 1.29941E-03-1.81437E-13
 -1      2079 1.48440E-02 1.38184E-03-1.92219E-13
 -1      2080 1.47011E-02 1.36387E-03-1.88712E-13
 -1      2081 1.46741E-02 1.33585E-03-1.88425E-13
 -1      2082 1.50778E-02 1.40815E-03-1.98014E-13
 -1      2083 1.49349E-02 1.39036E-03-1.94496E-13
 -1      2084 1.49080E-02 1.36237E-03-1.94208E-13
 -1      2085 1.50897E-02 1.37932E-03-1.98766E-13
 -1      2086 1.49627E-02 1.14141E-03-1.98902E-13
 -1      2087 1.49796E-02 1.18329E-03-1.98746E-13
 -1      2088 1.49965E-02 1.22523E-03-1.98587E-13
 -1      2089 1.50136E-02 1.26722E-03-1.98425E-13
 -1      2090 1.48643E-02 1.18893E-03-1.95625E-13
 -1      2091 1.50429E-02 1.30220E-03-1.98683E-13
 -1      2092 1.50602E-02 1.34428E-03-1.98512E-13
 -1      2093 1.49694E-02 1.33582E-03-1.96233E-13
 -1      2094 1.49106E-02 1.26582E-03-1.95721E-13
 -1      2095 1.49298E-02 1.05927E-03-1.99205E-13
 -1      2096 1.49462E-02 1.10031E-03-1.99053E-13
 -1      2097 1.48310E-02 1.10597E-03-1.95940E-13
 -1      2098 1.48965E-02 9.75956E-04-1.99510E-13
 -1      2099 1.49131E-02 1.01758E-03-1.99356E-13
 -1      2100 1.47979E-02 1.02330E-03-1.96244E-13
 -1      2101 1.48633E-02 8.92841E-04-1.99810E-13
 -1      2102 1.48799E-02 9.34379E-04-1.99662E-13
 -1      2103 1.47647E-02 9.40164E-04-1.96546E-13
 -1      2104 1.48300E-02 8.09848E-04-2.00098E-13
 -1      2105 1.48466E-02 8.51337E-04-1.99955E-13
 -1      2106 1.47315E-02 8.57226E-04-1.96836E-13
 -1      2107 1.47965E-02 7.26881E-04-2.00366E-13
 -1      2108 1.48132E-02 7.68370E-04-2.00236E-13
 -1      2109 1.46981E-02 7.74391E-04-1.97114E-13
 -1      2110 1.47629E-02 6.43837E-04-2.00612E-13
 -1      2111 1.47797E-02 6.85376E-04-2.00492E-13
 -1      2112 1.46646E-02 6.91552E-04-1.97374E-13
 -1      2113 1.47299E-02 5.62040E-04-2.00834E-13
 -1      2114 1.47464E-02 6.02963E-04-2.00725E-13
 -1      2115 1.46313E-02 6.09312E-04-1.97610E-13
 -1      2116 1.46964E-02 4.78608E-04-2.01039E-13
 -1      2117 1.47131E-02 5.20355E-04-2.00938E-13
 -1      2118 1.45979E-02 5.26881E-04-1.97822E-13
 -1      2119 1.46631E-02 3.94923E-04-2.01222E-13
 -1      2120 1.46797E-02 4.36795E-04-2.01131E-13
 -1      2121 1.45644E-02 4.43492E-04-1.98015E-13
 -1      2122 1.46303E-02 3.10992E-04-2.01395E-13
 -1      2123 1.46466E-02 3.52983E-04-2.01311E-13
 -1      2124 1.45312E-02 3.59825E-04-1.98194E-13
 -1      2125 9.67154E-03 3.81742E-04-7.01266E-14
 -1      2126 9.79988E-03 3.37522E-04-7.06474E-14
 -1      2127 9.99622E-03 2.51486E-04-7.18354E-14
 -1      2128 9.98798E-03 2.36883E-04-7.20225E-14
 -1      2129 9.91111E-03 2.95745E-04-7.11408E-14
 -1      2130 9.97067E-03 2.72498E-04-7.14855E-14
 -1      2131 9.99280E-03 2.59298E-04-7.29307E-14
 -1      2132 9.31912E-03 5.43545E-04-6.80150E-14
 -1      2133 9.48334E-03 4.64387E-04-6.90036E-14
 -1      2134 8.96267E-03 7.24139E-04-6.60008E-14
 -1      2135 9.13329E-03 6.33166E-04-6.70159E-14
 -1      2136 3.27435E-04-8.76964E-05-2.58420E-16
 -1      2137 3.29506E-04-1.00808E-04-2.48716E-16
 -1      2138 4.46627E-04-1.43183E-04-3.62801E-16
 -1      2139 4.40392E-04-1.08151E-04-3.87914E-16
 -1      2140 8.23829E-03 1.10168E-03-6.07899E-14
 -1      2141 8.39573E-03 1.02608E-03-6.20962E-14
 -1      2142 7.91462E-03 1.19497E-03-5.80119E-14
 -1      2143 8.06325E-03 1.16291E-03-5.93688E-14
 -1      2144 7.56945E-03 1.16502E-03-5.49673E-14
 -1      2145 7.71904E-03 1.19526E-03-5.62611E-14
 -1      2146 7.25627E-03 1.03664E-03-5.25624E-14
 -1      2147 7.41369E-03 1.11296E-03-5.37570E-14
 -1      2148 7.51150E-03 1.14969E-03-5.41229E-14
 -1      2149 6.85332E-03 8.10035E-04-5.00062E-14
 -1      2150 7.03100E-03 9.14447E-04-5.10036E-14
 -1      2151 6.48398E-03 5.95117E-04-4.81341E-14
 -1      2152 6.66880E-03 7.04725E-04-4.90649E-14
 -1      2153 6.79365E-03 7.48475E-04-4.88924E-14
 -1      2154 6.05579E-03 3.88065E-04-4.66080E-14
 -1      2155 6.23449E-03 4.70592E-04-4.72126E-14
 -1      2156 5.73721E-03 2.60449E-04-4.56787E-14
 -1      2157 5.87407E-03 3.10898E-04-4.60442E-14
 -1      2158 5.53579E-03 1.83267E-04-4.50096E-14
 -1      2159 5.61631E-03 2.10223E-04-4.52088E-14
 -1      2160 5.46750E-03 1.41644E-04-4.49614E-14
 -1      2161 5.48116E-03 1.57089E-04-4.49501E-14
 -1      2162 5.54631E-03 9.78984E-05-4.53506E-14
 -1      2163 5.49052E-03 1.18565E-04-4.51708E-14
 -1      2164 5.76754E-03 1.47965E-05-4.62916E-14
 -1      2165 5.65125E-03 5.73176E-05-4.58080E-14
 -1      2166 6.07967E-03-1.13597E-04-4.75334E-14
 -1      2167 5.92159E-03-4.61121E-05-4.68832E-14
 -1      2168 6.45422E-03-2.94980E-04-4.92699E-14
 -1      2169 6.27436E-03-2.04453E-04-4.84091E-14
 -1      2170 6.83818E-03-4.91669E-04-5.12871E-14
 -1      2171 6.66095E-03-3.96758E-04-5.02691E-14
 -1      2172 7.20763E-03-6.71169E-04-5.38633E-14
 -1      2173 7.04572E-03-5.94933E-04-5.26511E-14
 -1      2174 7.53857E-03-7.65690E-04-5.66383E-14
 -1      2175 7.38985E-03-7.33227E-04-5.53123E-14
 -1      2176 7.87755E-03-7.42203E-04-5.97108E-14
 -1      2177 7.73089E-03-7.68133E-04-5.83820E-14
 -1      2178 8.18690E-03-6.24678E-04-6.23146E-14
 -1      2179 8.03144E-03-6.94929E-04-6.10046E-14
 -1      2180 7.93584E-03-7.27893E-04-6.05655E-14
 -1      2181 8.58021E-03-4.14673E-04-6.51969E-14
 -1      2182 8.40179E-03-5.16240E-04-6.39663E-14
 -1      2183 8.99511E-03-1.96218E-04-6.74604E-14
 -1      2184 8.80497E-03-2.96820E-04-6.64619E-14
 -1      2185 9.36706E-03-8.85690E-06-6.94515E-14
 -1      2186 9.18903E-03-9.70865E-05-6.84924E-14
 -1      2187 9.71831E-03 1.34587E-04-7.10157E-14
 -1      2188 9.57381E-03 8.56189E-05-7.05748E-14
 -1      2189 9.92412E-03 2.06659E-04-7.18390E-14
 -1      2190 9.83557E-03 1.76456E-04-7.14262E-14
 -1      2191 9.77742E-03 1.77863E-04-7.25007E-14
 -1      2192 8.60407E-03 9.19767E-04-6.36396E-14
 -1      2193 8.77799E-03 8.25666E-04-6.47558E-14
 -1      2194 8.85722E-03 7.61532E-04-6.60364E-14
 -1      2195 6.07282E-04-2.95477E-04-3.72329E-16
 -1      2196 8.48737E-03 9.72710E-04-6.32276E-14
 -1      2197 6.63333E-04-2.89318E-04-5.08016E-16
 -1      2198 9.86784E-03 3.01672E-04-7.20770E-14
 -1      2199 9.57792E-03 4.05794E-04-7.04399E-14
 -1      2200 1.45755E-02 2.72558E-04-2.00423E-13
 -1      2201 9.96609E-03 2.31761E-04-7.30997E-14
 -1      2202 9.20874E-03 5.72571E-04-6.83007E-14
 -1      2203 9.46574E-03 6.15608E-05-7.09500E-14
 -1      2204 9.06940E-03-1.26018E-04-6.87791E-14
 -1      2205 8.26619E-03-5.74859E-04-6.35187E-14
 -1      2206 7.63247E-03-7.79164E-04-5.75136E-14
 -1      2207 7.30665E-03-7.09862E-04-5.43315E-14
 -1      2208 6.95593E-03-5.41715E-04-5.15352E-14
 -1      2209 6.57462E-03-3.33255E-04-4.91998E-14
 -1      2210 6.19086E-03-1.41525E-04-4.73475E-14
 -1      2211 5.85148E-03 1.30530E-06-4.59020E-14
 -1      2212 5.59309E-03 8.89863E-05-4.48673E-14
 -1      2213 5.46940E-03 1.31448E-04-4.42092E-14
 -1      2214 5.49990E-03 1.58252E-04-4.40594E-14
 -1      2215 5.67366E-03 2.11623E-04-4.45775E-14
 -1      2216 6.38515E-03 5.19002E-04-4.70535E-14
 -1      2217 7.16889E-03 9.79297E-04-5.13610E-14
 -1      2218 8.13782E-03 1.14210E-03-6.02526E-14
 -1      2219 7.81746E-03 1.20895E-03-5.70698E-14
 -1      2220 5.96983E-03 3.24179E-04-4.55944E-14
 -1      2221 8.66980E-03-3.43933E-04-6.64603E-14
 -1      2222 1.01634E-03 3.94058E-04-9.42687E-16
 -1      2223 8.71799E-04 3.58861E-04-6.87791E-16
 -1      2224 5.48041E-04-5.40196E-05-5.82433E-16
 -1      2225 5.49131E-04-7.04188E-05-5.79560E-16
 -1      2226 5.50607E-04-8.74606E-05-5.75074E-16
 -1      2227 5.52529E-04-1.05198E-04-5.68447E-16
 -1      2228 6.65582E-04-9.32901E-05-7.83377E-16
 -1      2229 5.46566E-04 8.64346E-06-5.78449E-16
 -1      2230 5.46543E-04-6.80434E-06-5.81580E-16
 -1      2231 5.47382E-04 3.99007E-05-5.68230E-16
 -1      2232 5.46844E-04 2.41959E-05-5.74044E-16
 -1      2233 6.61387E-04 1.94226E-05-7.81900E-16
 -1      2234 5.49316E-04 7.18722E-05-5.52347E-16
 -1      2235 5.48196E-04 5.56898E-05-5.61237E-16
 -1      2236 6.62820E-04 5.63562E-05-7.67032E-16
 -1      2237 5.52818E-04 1.06833E-04-5.28399E-16
 -1      2238 5.50844E-04 8.89925E-05-5.41437E-16
 -1      2239 6.65851E-04 9.50294E-05-7.43925E-16
 -1      2240 5.58731E-04 1.45836E-04-4.93529E-16
 -1      2241 5.55411E-04 1.25754E-04-5.12651E-16
 -1      2242 6.71101E-04 1.37189E-04-7.10152E-16
 -1      2243 5.68927E-04 1.91271E-04-4.43222E-16
 -1      2244 5.63182E-04 1.67616E-04-4.70801E-16
 -1      2245 6.79795E-04 1.84338E-04-6.62055E-16
 -1      2246 1.30215E-03 4.48194E-04-1.58764E-15
 -1      2247 1.15961E-03 4.23730E-04-1.24244E-15
 -1      2248 1.07198E-03 3.74967E-04-1.15661E-15
 -1      2249 9.15224E-04-3.41398E-04-9.86204E-16
 -1      2250 1.05943E-03-3.73496E-04-1.29996E-15
 -1      2251 8.39723E-03 1.02331E-03-6.30085E-14
 -1      2252 8.57303E-03 9.19652E-04-6.45682E-14
 -1      2253 1.20287E-03-4.00503E-04-1.66021E-15
 -1      2254 1.34592E-03-4.22859E-04-2.06748E-15
 -1      2255 1.11747E-03-3.53705E-04-1.52582E-15
 -1      2256 1.48840E-03-4.41393E-04-2.52169E-15
 -1      2257 1.63059E-03-4.56372E-04-3.02273E-15
 -1      2258 1.40422E-03-3.97454E-04-2.34926E-15
 -1      2259 1.77252E-03-4.68447E-04-3.57021E-15
 -1      2260 1.91433E-03-4.77831E-04-4.16469E-15
 -1      2261 1.69001E-03-4.26987E-04-3.35813E-15
 -1      2262 2.05612E-03-4.84999E-04-4.80528E-15
 -1      2263 2.19798E-03-4.90129E-04-5.49257E-15
 -1      2264 1.97519E-03-4.45533E-04-4.55193E-15
 -1      2265 2.33999E-03-4.93570E-04-6.22554E-15
 -1      2266 2.48222E-03-4.95474E-04-7.00445E-15
 -1      2267 2.26027E-03-4.55655E-04-5.92953E-15
 -1      2268 2.62472E-03-4.96106E-04-7.82904E-15
 -1      2269 2.76757E-03-4.95600E-04-8.69880E-15
 -1      2270 2.54571E-03-4.59359E-04-7.48963E-15
 -1      2271 2.91081E-03-4.94169E-04-9.61351E-15
 -1      2272 3.05449E-03-4.91940E-04-1.05731E-14
 -1      2273 2.83192E-03-4.58251E-04-9.22972E-15
 -1      2274 3.19866E-03-4.89103E-04-1.15765E-14
 -1      2275 3.34339E-03-4.85788E-04-1.26244E-14
 -1      2276 3.11926E-03-4.53680E-04-1.11479E-14
 -1      2277 3.48870E-03-4.82186E-04-1.37153E-14
 -1      2278 3.63467E-03-4.78446E-04-1.48494E-14
 -1      2279 3.40808E-03-4.46889E-04-1.32422E-14
 -1      2280 3.78133E-03-4.74787E-04-1.60259E-14
 -1      2281 3.92876E-03-4.71389E-04-1.72447E-14
 -1      2282 3.69876E-03-4.39163E-04-1.55083E-14
 -1      2283 4.07701E-03-4.68521E-04-1.85047E-14
 -1      2284 4.22616E-03-4.66413E-04-1.98080E-14
 -1      2285 3.99174E-03-4.31974E-04-1.79439E-14
 -1      2286 4.37626E-03-4.65399E-04-2.11535E-14
 -1      2287 4.52739E-03-4.65780E-04-2.25382E-14
 -1      2288 4.28758E-03-4.27140E-04-2.05471E-14
 -1      2289 4.67967E-03-4.67956E-04-2.39647E-14
 -1      2290 4.83309E-03-4.72309E-04-2.54350E-14
 -1      2291 4.58701E-03-4.26955E-04-2.33172E-14
 -1      2292 4.98785E-03-4.79287E-04-2.69457E-14
 -1      2293 5.14386E-03-4.89349E-04-2.84965E-14
 -1      2294 4.89094E-03-4.34293E-04-2.62525E-14
 -1      2295 5.30141E-03-5.02926E-04-3.00903E-14
 -1      2296 5.46021E-03-5.20505E-04-3.17268E-14
 -1      2297 5.20049E-03-4.52587E-04-2.93546E-14
 -1      2298 5.62066E-03-5.42380E-04-3.34053E-14
 -1      2299 5.78217E-03-5.68933E-04-3.51266E-14
 -1      2300 5.51677E-03-4.85587E-04-3.26233E-14
 -1      2301 5.94518E-03-6.00129E-04-3.68915E-14
 -1      2302 6.10875E-03-6.35953E-04-3.87009E-14
 -1      2303 5.84042E-03-5.36679E-04-3.60632E-14
 -1      2304 6.27319E-03-6.75808E-04-4.05539E-14
 -1      2305 6.43726E-03-7.18839E-04-4.24518E-14
 -1      2306 6.17072E-03-6.07386E-04-3.96760E-14
 -1      2307 6.60100E-03-7.63666E-04-4.43974E-14
 -1      2308 6.76328E-03-8.08245E-04-4.63887E-14
 -1      2309 6.50452E-03-6.94741E-04-4.34673E-14
 -1      2310 6.92375E-03-8.50432E-04-4.84287E-14
 -1      2311 7.08206E-03-8.86977E-04-5.05152E-14
 -1      2312 6.83613E-03-7.88041E-04-4.74434E-14
 -1      2313 7.23762E-03-9.15533E-04-5.26517E-14
 -1      2314 7.39168E-03-9.33045E-04-5.48383E-14
 -1      2315 7.15947E-03-8.66891E-04-5.16117E-14
 -1      2316 7.54362E-03-9.37821E-04-5.70779E-14
 -1      2317 7.69587E-03-9.28616E-04-5.93675E-14
 -1      2318 7.47282E-03-9.06123E-04-5.59791E-14
 -1      2319 7.84780E-03-9.05503E-04-6.17074E-14
 -1      2320 8.00202E-03-8.69746E-04-6.41000E-14
 -1      2321 7.78168E-03-8.87687E-04-6.05537E-14
 -1      2322 8.15787E-03-8.23038E-04-6.65413E-14
 -1      2323 8.31643E-03-7.68617E-04-6.90315E-14
 -1      2324 8.09539E-03-8.11745E-04-6.53325E-14
 -1      2325 8.47712E-03-7.08873E-04-7.15697E-14
 -1      2326 8.63959E-03-6.46900E-04-7.41533E-14
 -1      2327 8.41927E-03-6.97159E-04-7.03090E-14
 -1      2328 8.80351E-03-5.84807E-04-7.67809E-14
 -1      2329 8.96771E-03-5.24633E-04-7.94508E-14
 -1      2330 8.75122E-03-5.69212E-04-7.54738E-14
 -1      2331 9.13224E-03-4.67719E-04-8.21621E-14
 -1      2332 9.29588E-03-4.14849E-04-8.49113E-14
 -1      2333 9.08513E-03-4.47692E-04-8.08105E-14
 -1      2334 9.45897E-03-3.66595E-04-8.76983E-14
 -1      2335 9.62058E-03-3.22958E-04-9.05226E-14
 -1      2336 9.41539E-03-3.42963E-04-8.63053E-14
 -1      2337 9.78115E-03-2.83952E-04-9.33798E-14
 -1      2338 9.94011E-03-2.49189E-04-9.62738E-14
 -1      2339 9.73904E-03-2.57722E-04-9.19484E-14
 -1      2340 1.00979E-02-2.18369E-04-9.92020E-14
 -1      2341 1.02541E-02-1.91008E-04-1.02162E-13
 -1      2342 1.00554E-02-1.90348E-04-9.77324E-14
 -1      2343 1.04092E-02-1.66677E-04-1.05153E-13
 -1      2344 1.05630E-02-1.44931E-04-1.08178E-13
 -1      2345 1.03653E-02-1.37438E-04-1.03650E-13
 -1      2346 1.07157E-02-1.25333E-04-1.11231E-13
 -1      2347 1.08674E-02-1.07519E-04-1.14314E-13
 -1      2348 1.06697E-02-9.52895E-05-1.09692E-13
 -1      2349 1.10181E-02-9.11119E-05-1.17424E-13
 -1      2350 1.11680E-02-7.58341E-05-1.20560E-13
 -1      2351 1.09698E-02-6.05846E-05-1.15852E-13
 -1      2352 1.13170E-02-6.13885E-05-1.23722E-13
 -1      2353 1.14654E-02-4.75742E-05-1.26911E-13
 -1      2354 1.12666E-02-3.06256E-05-1.22122E-13
 -1      2355 1.16131E-02-3.41756E-05-1.30124E-13
 -1      2356 1.17602E-02-2.10521E-05-1.33362E-13
 -1      2357 1.15608E-02-3.36478E-06-1.28495E-13
 -1      2358 1.19067E-02-8.05887E-06-1.36626E-13
 -1      2359 1.20529E-02 4.89858E-06-1.39913E-13
 -1      2360 1.18531E-02 2.26658E-05-1.34966E-13
 -1      2361 1.21985E-02 1.79091E-05-1.43225E-13
 -1      2362 1.23438E-02 3.10336E-05-1.46559E-13
 -1      2363 1.21437E-02 4.84602E-05-1.41537E-13
 -1      2364 1.24887E-02 4.43195E-05-1.49917E-13
 -1      2365 1.26334E-02 5.78035E-05-1.53297E-13
 -1      2366 1.24331E-02 7.46474E-05-1.48203E-13
 -1      2367 1.27777E-02 7.15044E-05-1.56696E-13
 -1      2368 1.29219E-02 8.54423E-05-1.60114E-13
 -1      2369 1.27215E-02 1.01588E-04-1.54956E-13
 -1      2370 1.30658E-02 9.96170E-05-1.63552E-13
 -1      2371 1.32096E-02 1.14037E-04-1.67007E-13
 -1      2372 1.30092E-02 1.29456E-04-1.61788E-13
 -1      2373 1.33532E-02 1.28692E-04-1.70476E-13
 -1      2374 1.34966E-02 1.43582E-04-1.73957E-13
 -1      2375 1.32963E-02 1.58298E-04-1.68688E-13
 -1      2376 1.36400E-02 1.58690E-04-1.77452E-13
 -1      2377 1.37832E-02 1.74013E-04-1.80961E-13
 -1      2378 1.35830E-02 1.88083E-04-1.75648E-13
 -1      2379 1.39264E-02 1.89529E-04-1.84480E-13
 -1      2380 1.40695E-02 2.05232E-04-1.88008E-13
 -1      2381 1.38693E-02 2.18732E-04-1.82659E-13
 -1      2382 1.86723E-03 5.08936E-04-3.42349E-15
 -1      2383 1.72632E-03 4.98433E-04-2.89599E-15
 -1      2384 2.14918E-03 5.23007E-04-4.61442E-15
 -1      2385 2.00815E-03 5.17066E-04-3.99652E-15
 -1      2386 1.92710E-03 4.77127E-04-3.81323E-15
 -1      2387 2.43200E-03 5.29569E-04-5.98484E-15
 -1      2388 2.29044E-03 5.27121E-04-5.27711E-15
 -1      2389 2.21094E-03 4.88911E-04-5.05977E-15
 -1      2390 2.71637E-03 5.30384E-04-7.53545E-15
 -1      2391 2.57396E-03 5.30608E-04-6.73787E-15
 -1      2392 2.49539E-03 4.93694E-04-6.48450E-15
 -1      2393 3.00283E-03 5.26855E-04-9.26551E-15
 -1      2394 2.85930E-03 5.29086E-04-8.37763E-15
 -1      2395 2.78096E-03 4.93116E-04-8.08790E-15
 -1      2396 3.29191E-03 5.20198E-04-1.11723E-14
 -1      2397 3.14700E-03 5.23845E-04-1.01970E-14
 -1      2398 3.06812E-03 4.88503E-04-9.86998E-15
 -1      2399 3.58414E-03 5.11600E-04-1.32565E-14
 -1      2400 3.43758E-03 5.16063E-04-1.21924E-14
 -1      2401 3.35727E-03 4.81029E-04-1.18285E-14
 -1      2402 3.88009E-03 5.02411E-04-1.55150E-14
 -1      2403 3.73158E-03 5.06984E-04-1.43637E-14
 -1      2404 3.64885E-03 4.71879E-04-1.39623E-14
 -1      2405 4.18041E-03 4.94365E-04-1.79493E-14
 -1      2406 4.02963E-03 4.98119E-04-1.67105E-14
 -1      2407 3.94331E-03 4.62431E-04-1.62707E-14
 -1      2408 4.48584E-03 4.89849E-04-2.05558E-14
 -1      2409 4.33240E-03 4.91493E-04-1.92312E-14
 -1      2410 4.24121E-03 4.54485E-04-1.87522E-14
 -1      2411 4.79722E-03 4.92215E-04-2.33353E-14
 -1      2412 4.64070E-03 4.89932E-04-2.19239E-14
 -1      2413 4.54323E-03 4.50521E-04-2.14061E-14
 -1      2414 5.11553E-03 5.06093E-04-2.62864E-14
 -1      2415 4.95545E-03 4.97386E-04-2.47893E-14
 -1      2416 4.85034E-03 4.54006E-04-2.42316E-14
 -1      2417 5.44188E-03 5.37574E-04-2.94096E-14
 -1      2418 5.27770E-03 5.19203E-04-2.78271E-14
 -1      2419 5.16388E-03 4.69694E-04-2.72287E-14
 -1      2420 5.77738E-03 5.93973E-04-3.27056E-14
 -1      2421 5.60860E-03 5.62154E-04-3.10356E-14
 -1      2422 5.48578E-03 5.03820E-04-3.03971E-14
 -1      2423 6.12262E-03 6.82575E-04-3.61749E-14
 -1      2424 5.94910E-03 6.33794E-04-3.44184E-14
 -1      2425 5.81845E-03 5.63935E-04-3.37367E-14
 -1      2426 6.47645E-03 8.07461E-04-3.98170E-14
 -1      2427 6.29909E-03 7.40419E-04-3.79743E-14
 -1      2428 6.16408E-03 6.57780E-04-3.72488E-14
 -1      2429 6.83404E-03 9.63454E-04-4.36380E-14
 -1      2430 6.65569E-03 8.82484E-04-4.17052E-14
 -1      2431 6.52247E-03 7.89956E-04-4.09333E-14
 -1      2432 7.18665E-03 1.12845E-03-4.76459E-14
 -1      2433 7.01178E-03 1.04705E-03-4.56165E-14
 -1      2434 6.88801E-03 9.54418E-04-4.47955E-14
 -1      2435 7.52563E-03 1.26222E-03-5.18558E-14
 -1      2436 7.35777E-03 1.20269E-03-4.97261E-14
 -1      2437 7.24891E-03 1.12521E-03-4.88483E-14
 -1      2438 7.85161E-03 1.31976E-03-5.62667E-14
 -1      2439 7.68809E-03 1.30234E-03-5.40361E-14
 -1      2440 7.59392E-03 1.25360E-03-5.31050E-14
 -1      2441 8.17933E-03 1.28401E-03-6.08806E-14
 -1      2442 8.01354E-03 1.31323E-03-5.85471E-14
 -1      2443 7.92734E-03 1.28989E-03-5.75664E-14
 -1      2444 8.51956E-03 1.17650E-03-6.56924E-14
 -1      2445 8.34710E-03 1.23588E-03-6.32637E-14
 -1      2446 8.26796E-03 1.22413E-03-6.22329E-14
 -1      2447 8.87323E-03 1.04412E-03-7.06904E-14
 -1      2448 8.69551E-03 1.11071E-03-6.81683E-14
 -1      2449 8.62347E-03 1.09602E-03-6.70970E-14
 -1      2450 9.23100E-03 9.24690E-04-7.58643E-14
 -1      2451 9.05266E-03 9.81115E-04-7.32559E-14
 -1      2452 8.98920E-03 9.58339E-04-7.21437E-14
 -1      2453 9.58428E-03 8.37923E-04-8.12056E-14
 -1      2454 9.40895E-03 8.76823E-04-7.85149E-14
 -1      2455 9.35153E-03 8.46113E-04-7.73640E-14
 -1      2456 9.92881E-03 7.87214E-04-8.67070E-14
 -1      2457 9.75801E-03 8.08307E-04-8.39369E-14
 -1      2458 9.70239E-03 7.71677E-04-8.27485E-14
 -1      2459 1.02637E-02 7.67719E-04-9.23619E-14
 -1      2460 1.00976E-02 7.74021E-04-8.95155E-14
 -1      2461 1.00400E-02 7.33201E-04-8.82915E-14
 -1      2462 1.05898E-02 7.72016E-04-9.81609E-14
 -1      2463 1.04279E-02 7.67348E-04-9.52429E-14
 -1      2464 1.03661E-02 7.23536E-04-9.39846E-14
 -1      2465 1.09083E-02 7.92958E-04-1.04098E-13
 -1      2466 1.07499E-02 7.80783E-04-1.01112E-13
 -1      2467 1.06831E-02 7.34871E-04-9.98199E-14
 -1      2468 1.12202E-02 8.24729E-04-1.10168E-13
 -1      2469 1.10650E-02 8.07775E-04-1.07118E-13
 -1      2470 1.09933E-02 7.60482E-04-1.05791E-13
 -1      2471 1.15267E-02 8.63016E-04-1.16362E-13
 -1      2472 1.13741E-02 8.43263E-04-1.13249E-13
 -1      2473 1.12982E-02 7.95164E-04-1.11890E-13
 -1      2474 1.18287E-02 9.04806E-04-1.22678E-13
 -1      2475 1.16782E-02 8.83614E-04-1.19506E-13
 -1      2476 1.15990E-02 8.35148E-04-1.18111E-13
 -1      2477 1.21270E-02 9.48102E-04-1.29104E-13
 -1      2478 1.19782E-02 9.26360E-04-1.25878E-13
 -1      2479 1.18965E-02 8.77837E-04-1.24451E-13
 -1      2480 1.24222E-02 9.91641E-04-1.35638E-13
 -1      2481 1.22749E-02 9.69901E-04-1.32358E-13
 -1      2482 1.21914E-02 9.21525E-04-1.30900E-13
 -1      2483 1.27150E-02 1.03468E-03-1.42266E-13
 -1      2484 1.25688E-02 1.01326E-03-1.38940E-13
 -1      2485 1.24840E-02 9.65146E-04-1.37455E-13
 -1      2486 1.30059E-02 1.07680E-03-1.48974E-13
 -1      2487 1.28606E-02 1.05587E-03-1.45611E-13
 -1      2488 1.27750E-02 1.00808E-03-1.44100E-13
 -1      2489 1.32953E-02 1.11784E-03-1.55752E-13
 -1      2490 1.31507E-02 1.09747E-03-1.52354E-13
 -1      2491 1.30645E-02 1.05001E-03-1.50823E-13
 -1      2492 1.35836E-02 1.15776E-03-1.62584E-13
 -1      2493 1.34395E-02 1.13795E-03-1.59162E-13
 -1      2494 1.33530E-02 1.09082E-03-1.57613E-13
 -1      2495 1.38710E-02 1.19661E-03-1.69462E-13
 -1      2496 1.37274E-02 1.17732E-03-1.66019E-13
 -1      2497 1.36407E-02 1.13049E-03-1.64456E-13
 -1      2498 1.41578E-02 1.23448E-03-1.76379E-13
 -1      2499 1.40145E-02 1.21566E-03-1.72916E-13
 -1      2500 1.39277E-02 1.16910E-03-1.71343E-13
 -1      2501 1.44442E-02 1.27149E-03-1.83337E-13
 -1      2502 1.43011E-02 1.25308E-03-1.79853E-13
 -1      2503 1.42143E-02 1.20675E-03-1.78268E-13
 -1      2504 1.47303E-02 1.30778E-03-1.90330E-13
 -1      2505 1.45873E-02 1.28972E-03-1.86829E-13
 -1      2506 1.45006E-02 1.24357E-03-1.85234E-13
 -1      2507 1.48785E-02 1.32733E-03-1.93954E-13
 -1      2508 1.46661E-02 9.87311E-04-1.93285E-13
 -1      2509 1.46826E-02 1.02887E-03-1.93133E-13
 -1      2510 1.46329E-02 9.04391E-04-1.93581E-13
 -1      2511 1.46495E-02 9.45823E-04-1.93434E-13
 -1      2512 1.45343E-02 9.51338E-04-1.90329E-13
 -1      2513 1.47322E-02 1.15258E-03-1.92666E-13
 -1      2514 1.47491E-02 1.19445E-03-1.92503E-13
 -1      2515 1.46991E-02 1.07015E-03-1.92979E-13
 -1      2516 1.47156E-02 1.11115E-03-1.92824E-13
 -1      2517 1.46003E-02 1.11654E-03-1.89709E-13
 -1      2518 1.45672E-02 1.03395E-03-1.90025E-13
 -1      2519 1.45997E-02 8.21660E-04-1.93862E-13
 -1      2520 1.46163E-02 8.63009E-04-1.93724E-13
 -1      2521 1.45012E-02 8.68663E-04-1.90617E-13
 -1      2522 1.45663E-02 7.39011E-04-1.94133E-13
 -1      2523 1.45831E-02 7.80334E-04-1.94000E-13
 -1      2524 1.44680E-02 7.86172E-04-1.90893E-13
 -1      2525 1.45328E-02 6.56330E-04-1.94380E-13
 -1      2526 1.45496E-02 6.97683E-04-1.94258E-13
 -1      2527 1.44346E-02 7.03740E-04-1.91150E-13
 -1      2528 1.44996E-02 5.74911E-04-1.94604E-13
 -1      2529 1.45162E-02 6.15645E-04-1.94495E-13
 -1      2530 1.44012E-02 6.21937E-04-1.91386E-13
 -1      2531 1.44659E-02 4.91857E-04-1.94809E-13
 -1      2532 1.44828E-02 5.33418E-04-1.94709E-13
 -1      2533 1.43677E-02 5.39947E-04-1.91601E-13
 -1      2534 1.44324E-02 4.08508E-04-1.94996E-13
 -1      2535 1.44491E-02 4.50220E-04-1.94906E-13
 -1      2536 1.43340E-02 4.56972E-04-1.91798E-13
 -1      2537 1.43992E-02 3.24844E-04-1.95167E-13
 -1      2538 1.44157E-02 3.66713E-04-1.95082E-13
 -1      2539 1.43004E-02 3.73650E-04-1.91978E-13
 -1      2540 9.48061E-03 4.35177E-04-7.08900E-14
 -1      2541 9.65814E-03 3.66310E-04-7.20315E-14
 -1      2542 1.44481E-02 2.59689E-04-1.97237E-13
 -1      2543 1.00013E-02 2.45726E-04-7.45547E-14
 -1      2544 9.94012E-03 2.32624E-04-7.43701E-14
 -1      2545 1.58528E-03 4.85040E-04-2.41460E-15
 -1      2546 1.44393E-03 4.68545E-04-1.97798E-15
 -1      2547 1.64320E-03 4.56225E-04-2.74665E-15
 -1      2548 9.98631E-03 2.65682E-04-7.41497E-14
 -1      2549 1.00123E-02 2.59270E-04-7.45064E-14
 -1      2550 9.54534E-03 1.10918E-04-7.25663E-14
 -1      2551 9.34879E-03 3.03449E-05-7.14274E-14
 -1      2552 9.13004E-03 6.02131E-04-6.87743E-14
 -1      2553 9.29579E-03 5.18724E-04-6.97925E-14
 -1      2554 9.81895E-03 3.11315E-04-7.31318E-14
 -1      2555 9.92053E-03 2.84726E-04-7.36392E-14
 -1      2556 9.96499E-03 2.78443E-04-7.52149E-14
 -1      2557 7.71110E-03-7.84680E-04-5.84600E-14
 -1      2558 7.55867E-03-7.83043E-04-5.67139E-14
 -1      2559 8.10435E-03 1.16441E-03-6.01189E-14
 -1      2560 8.24359E-03 1.10140E-03-6.15543E-14
 -1      2561 8.34889E-03 1.05795E-03-6.28692E-14
 -1      2562 5.46773E-04-2.23395E-05-5.83274E-16
 -1      2563 5.47263E-04-3.80094E-05-5.83612E-16
 -1      2564 6.62651E-04-5.44169E-05-7.90573E-16
 -1      2565 6.61327E-04-1.72374E-05-7.89841E-16
 -1      2566 7.74141E-03 1.21391E-03-5.61299E-14
 -1      2567 7.89762E-03 1.21501E-03-5.78792E-14
 -1      2568 5.88534E-03 2.72599E-04-4.44371E-14
 -1      2569 6.05149E-03 3.39354E-04-4.49812E-14
 -1      2570 7.44870E-03 1.12581E-03-5.31648E-14
 -1      2571 7.57159E-03 1.17670E-03-5.43647E-14
 -1      2572 7.09077E-03 9.24408E-04-5.01900E-14
 -1      2573 7.28178E-03 1.04142E-03-5.17299E-14
 -1      2574 6.71772E-03 6.89931E-04-4.77416E-14
 -1      2575 6.87580E-03 7.90014E-04-4.86614E-14
 -1      2576 8.76742E-03-2.68270E-04-6.80272E-14
 -1      2577 8.57443E-03-3.83757E-04-6.67389E-14
 -1      2578 6.26754E-03 4.39165E-04-4.56939E-14
 -1      2579 6.48792E-03 5.56350E-04-4.65863E-14
 -1      2580 5.62997E-03 1.87311E-04-4.35191E-14
 -1      2581 5.74787E-03 2.22436E-04-4.39764E-14
 -1      2582 5.81487E-03 2.42020E-04-4.33712E-14
 -1      2583 5.46820E-03 1.44665E-04-4.31829E-14
 -1      2584 5.51876E-03 1.56039E-04-4.32378E-14
 -1      2585 5.47536E-03 1.24714E-04-4.34244E-14
 -1      2586 5.45238E-03 1.32129E-04-4.32193E-14
 -1      2587 5.64066E-03 8.06872E-05-4.40890E-14
 -1      2588 5.54129E-03 1.05244E-04-4.36444E-14
 -1      2589 5.92073E-03-1.38619E-05-4.53751E-14
 -1      2590 5.77771E-03 3.65539E-05-4.48005E-14
 -1      2591 6.28408E-03-1.73683E-04-4.70213E-14
 -1      2592 6.10686E-03-9.10446E-05-4.61674E-14
 -1      2593 6.65137E-03-3.68640E-04-4.89034E-14
 -1      2594 6.47496E-03-2.70222E-04-4.79289E-14
 -1      2595 7.04325E-03-5.90322E-04-5.17107E-14
 -1      2596 6.86902E-03-4.90325E-04-5.03680E-14
 -1      2597 7.37148E-03-7.41563E-04-5.47250E-14
 -1      2598 7.22587E-03-6.80615E-04-5.32879E-14
 -1      2599 7.99610E-03-7.05580E-04-6.15640E-14
 -1      2600 7.87506E-03-7.51955E-04-6.02596E-14
 -1      2601 8.34256E-03-5.21019E-04-6.48450E-14
 -1      2602 8.16224E-03-6.26502E-04-6.31756E-14
 -1      2603 9.14165E-03-6.54735E-05-7.03908E-14
 -1      2604 8.96633E-03-1.57325E-04-6.93406E-14
 -1      2605 9.83659E-03 2.05430E-04-7.40223E-14
 -1      2606 9.72795E-03 1.76216E-04-7.36029E-14
 -1      2607 5.88551E-04-2.35274E-04-4.70503E-16
 -1      2608 7.81345E-04-3.00844E-04-7.50593E-16
 -1      2609 8.41052E-04-2.89131E-04-9.20772E-16
 -1      2610 5.79216E-04-2.07496E-04-5.01471E-16
 -1      2611 7.57479E-04 3.30518E-04-5.06648E-16
 -1      2612 6.11089E-04 2.82124E-04-3.32105E-16
 -1      2613 5.84584E-04 2.55465E-04-3.45210E-16
 -1      2614 8.13683E-04 3.18687E-04-6.65836E-16
 -1      2615 8.76327E-03 8.08848E-04-6.61163E-14
 -1      2616 8.92612E-03 7.12859E-04-6.73787E-14
 -1      2617 7.93291E-03 1.22494E-03-5.81775E-14
 -1      2618 8.01047E-03 1.20200E-03-5.91458E-14
 -1      2619 8.11720E-03 1.17521E-03-6.04266E-14
 -1      2620 6.70693E-04-1.35139E-04-7.66287E-16
 -1      2621 5.55068E-04-1.23906E-04-5.59164E-16
 -1      2622 5.58228E-04-1.43759E-04-5.46587E-16
 -1      2623 1.35843E-03 4.23411E-04-1.86153E-15
 -1      2624 5.72354E-04 2.25280E-04-3.87331E-16
 -1      2625 8.66786E-03 8.73217E-04-6.58888E-14
 -1      2626 9.25288E-03-8.76603E-06-7.19931E-14
 -1      2627 8.45972E-03-4.51627E-04-6.63810E-14
 -1      2628 8.08829E-03-6.64155E-04-6.28587E-14
 -1      2629 7.46433E-03-7.71833E-04-5.56363E-14
 -1      2630 9.91075E-03 2.27142E-04-7.54804E-14
 -1      2631 7.12164E-03-6.38983E-04-5.20885E-14
 -1      2632 1.47918E-02 1.28133E-03-1.92349E-13
 -1      2633 1.47625E-02 1.24634E-03-1.92094E-13
 -1      2634 6.74726E-03-4.30844E-04-4.90702E-14
 -1      2635 9.74692E-03 3.39415E-04-7.35865E-14
 -1      2636 9.40800E-03 4.71201E-04-7.13708E-14
 -1      2637 1.42933E-02 2.27745E-04-1.93568E-13
 -1      2638 1.43599E-02 2.85904E-04-1.94613E-13
 -1      2639 1.42443E-02 2.92990E-04-1.91508E-13
 -1      2640 1.41658E-02 2.15108E-04-1.90395E-13
 -1      2641 6.36408E-03-2.19210E-04-4.67306E-14
 -1      2642 1.00249E-02 2.56136E-04-7.57818E-14
 -1      2643 6.89800E-04 2.47852E-04-5.66943E-16
 -1      2644 6.00442E-03-5.09391E-05-4.50538E-14
 -1      2645 5.69161E-03 6.08367E-05-4.35701E-14
 -1      2646 5.72193E-04-1.82567E-04-5.25811E-16
 -1      2647 7.78415E-03-7.76516E-04-5.94306E-14
 -1      2648 5.49476E-03 1.11995E-04-4.26549E-14
 -1      2649 5.56220E-03 1.64521E-04-4.26409E-14
 -1      2650 5.61094E-03 1.76883E-04-4.20437E-14
 -1      2651 5.50567E-03 1.51284E-04-4.17711E-14
 -1      2652 6.15182E-03 3.82380E-04-4.45236E-14
 -1      2653 8.86839E-03-2.07976E-04-6.96203E-14
 -1      2654 6.57398E-03 6.07260E-04-4.63578E-14
 -1      2655 6.99449E-03 8.67928E-04-4.90115E-14
 -1      2656 7.35402E-03 1.08262E-03-5.19603E-14
 -1      2657 9.03839E-03 6.57460E-04-6.88541E-14
 -1      2658 9.63531E-03 1.46905E-04-7.40830E-14
 -1      2659 7.66524E-03 1.20531E-03-5.51446E-14
 -1      2660 5.44439E-03 1.33958E-04-4.24026E-14
 -1      2661 1.46301E-02 1.20979E-03-1.89142E-13
 -1      2662 1.41087E-02 2.44175E-04-1.88564E-13
 -1      2663 7.80254E-04 7.53182E-05-9.96572E-16
 -1      2664 7.78895E-04 5.39891E-05-1.00825E-15
 -1      2665 7.77975E-04 3.26508E-05-1.01758E-15
 -1      2666 7.77512E-04 1.15798E-05-1.02486E-15
 -1      2667 8.96170E-04 4.82440E-05-1.28459E-15
 -1      2668 7.92056E-04 1.69468E-04-9.19295E-16
 -1      2669 7.87955E-04 1.44374E-04-9.44123E-16
 -1      2670 8.03966E-04 2.24216E-04-8.55910E-16
 -1      2671 7.97351E-04 1.96018E-04-8.90401E-16
 -1      2672 9.15394E-04 2.03202E-04-1.15507E-15
 -1      2673 1.13036E-03 3.55002E-04-1.38130E-15
 -1      2674 9.86612E-04 3.27240E-04-1.06614E-15
 -1      2675 6.06395E-03-8.75655E-05-4.45223E-14
 -1      2676 5.89864E-03-1.94868E-05-4.37520E-14
 -1      2677 1.41702E-03 3.97807E-04-2.14516E-15
 -1      2678 1.27374E-03 3.78407E-04-1.74078E-15
 -1      2679 1.19042E-03 3.33980E-04-1.61667E-15
 -1      2680 8.03440E-04 2.74045E-04-7.52924E-16
 -1      2681 9.36801E-03 4.05753E-05-7.39077E-14
 -1      2682 9.18560E-03-4.48631E-05-7.28504E-14
 -1      2683 1.32099E-03-3.53939E-04-2.17635E-15
 -1      2684 1.46441E-03-3.71280E-04-2.63834E-15
 -1      2685 1.60768E-03-3.85544E-04-3.14596E-15
 -1      2686 1.75089E-03-3.96943E-04-3.69970E-15
 -1      2687 1.52592E-03-3.44378E-04-2.93438E-15
 -1      2688 1.89399E-03-4.05934E-04-4.29898E-15
 -1      2689 2.03704E-03-4.12695E-04-4.94402E-15
 -1      2690 1.81286E-03-3.66361E-04-4.04720E-15
 -1      2691 2.18006E-03-4.17592E-04-5.63456E-15
 -1      2692 2.32309E-03-4.20776E-04-6.37046E-15
 -1      2693 2.09966E-03-3.79465E-04-5.34102E-15
 -1      2694 2.46615E-03-4.22532E-04-7.15151E-15
 -1      2695 2.60929E-03-4.22988E-04-7.97742E-15
 -1      2696 2.38630E-03-3.85645E-04-6.81531E-15
 -1      2697 2.75254E-03-4.22372E-04-8.84815E-15
 -1      2698 2.89593E-03-4.20798E-04-9.76277E-15
 -1      2699 2.67289E-03-3.86505E-04-8.46832E-15
 -1      2700 3.03948E-03-4.18460E-04-1.07218E-14
 -1      2701 3.18326E-03-4.15466E-04-1.17250E-14
 -1      2702 2.95955E-03-3.83378E-04-1.02983E-14
 -1      2703 3.32727E-03-4.12000E-04-1.27714E-14
 -1      2704 3.47158E-03-4.08177E-04-1.38612E-14
 -1      2705 3.24648E-03-3.77423E-04-1.23034E-14
 -1      2706 3.61621E-03-4.04189E-04-1.49933E-14
 -1      2707 3.76124E-03-4.00175E-04-1.61682E-14
 -1      2708 3.53389E-03-3.69754E-04-1.44813E-14
 -1      2709 3.90671E-03-3.96355E-04-1.73852E-14
 -1      2710 4.05271E-03-3.92911E-04-1.86438E-14
 -1      2711 3.82214E-03-3.61556E-04-1.68288E-14
 -1      2712 4.19933E-03-3.90104E-04-1.99448E-14
 -1      2713 4.34666E-03-3.88186E-04-2.12879E-14
 -1      2714 4.11174E-03-3.54230E-04-1.93454E-14
 -1      2715 4.49485E-03-3.87465E-04-2.26715E-14
 -1      2716 4.64403E-03-3.88291E-04-2.40959E-14
 -1      2717 4.40348E-03-3.49523E-04-2.20277E-14
 -1      2718 4.79441E-03-3.91013E-04-2.55629E-14
 -1      2719 4.94612E-03-3.96113E-04-2.70716E-14
 -1      2720 4.69856E-03-3.49678E-04-2.48767E-14
 -1      2721 5.09949E-03-4.03954E-04-2.86213E-14
 -1      2722 5.25459E-03-4.15169E-04-3.02126E-14
 -1      2723 4.99872E-03-3.57575E-04-2.78903E-14
 -1      2724 5.41189E-03-4.30078E-04-3.18450E-14
 -1      2725 5.57126E-03-4.49436E-04-3.35205E-14
 -1      2726 5.30625E-03-3.76839E-04-3.10705E-14
 -1      2727 5.73329E-03-4.73422E-04-3.52381E-14
 -1      2728 5.89746E-03-5.02744E-04-3.69991E-14
 -1      2729 5.62378E-03-4.11831E-04-3.44182E-14
 -1      2730 6.06435E-03-5.37294E-04-3.88032E-14
 -1      2731 6.23277E-03-5.77213E-04-4.06505E-14
 -1      2732 5.95339E-03-4.67204E-04-3.79346E-14
 -1      2733 6.40304E-03-6.21880E-04-4.25428E-14
 -1      2734 6.57337E-03-6.69990E-04-4.44805E-14
 -1      2735 6.29481E-03-5.46161E-04-4.16243E-14
 -1      2736 6.74355E-03-7.20048E-04-4.64646E-14
 -1      2737 6.91177E-03-7.68645E-04-4.84959E-14
 -1      2738 6.64318E-03-6.45976E-04-4.54916E-14
 -1      2739 7.07745E-03-8.13411E-04-5.05758E-14
 -1      2740 7.24019E-03-8.48884E-04-5.27039E-14
 -1      2741 6.98871E-03-7.52180E-04-4.95458E-14
 -1      2742 7.39923E-03-8.72369E-04-5.48853E-14
 -1      2743 7.55709E-03-8.80063E-04-5.71183E-14
 -1      2744 7.32185E-03-8.33177E-04-5.37958E-14
 -1      2745 7.71244E-03-8.71151E-04-5.94035E-14
 -1      2746 7.87035E-03-8.44764E-04-6.17394E-14
 -1      2747 7.64207E-03-8.53619E-04-5.82553E-14
 -1      2748 8.02967E-03-8.02369E-04-6.41261E-14
 -1      2749 8.19271E-03-7.48719E-04-6.65652E-14
 -1      2750 7.96304E-03-7.95758E-04-6.29244E-14
 -1      2751 8.35853E-03-6.86291E-04-6.90530E-14
 -1      2752 8.52698E-03-6.20210E-04-7.15879E-14
 -1      2753 8.29665E-03-6.78129E-04-6.77980E-14
 -1      2754 8.69737E-03-5.52839E-04-7.41702E-14
 -1      2755 8.86774E-03-4.87626E-04-7.67956E-14
 -1      2756 8.64251E-03-5.37278E-04-7.28684E-14
 -1      2757 9.03797E-03-4.26070E-04-7.94623E-14
 -1      2758 9.20630E-03-3.69201E-04-8.21686E-14
 -1      2759 8.99085E-03-4.03456E-04-7.81183E-14
 -1      2760 9.37306E-03-3.17690E-04-8.49159E-14
 -1      2761 9.53711E-03-2.71363E-04-8.77007E-14
 -1      2762 9.33189E-03-2.90824E-04-8.35297E-14
 -1      2763 9.69904E-03-2.30320E-04-9.05197E-14
 -1      2764 9.85832E-03-1.93842E-04-9.33747E-14
 -1      2765 9.66104E-03-2.01509E-04-8.90941E-14
 -1      2766 1.00156E-02-1.61746E-04-9.62661E-14
 -1      2767 1.01706E-02-1.33279E-04-9.91910E-14
 -1      2768 9.97818E-03-1.32293E-04-9.48025E-14
 -1      2769 1.03240E-02-1.08120E-04-1.02148E-13
 -1      2770 1.04758E-02-8.56486E-05-1.05137E-13
 -1      2771 1.02854E-02-7.85197E-05-1.00649E-13
 -1      2772 1.06263E-02-6.55114E-05-1.08156E-13
 -1      2773 1.07756E-02-4.72414E-05-1.11205E-13
 -1      2774 1.05854E-02-3.58731E-05-1.06623E-13
 -1      2775 1.09239E-02-3.05088E-05-1.14284E-13
 -1      2776 1.10715E-02-1.49815E-05-1.17391E-13
 -1      2777 1.08805E-02-8.29348E-07-1.12719E-13
 -1      2778 1.12184E-02-3.81335E-07-1.20524E-13
 -1      2779 1.13647E-02 1.35196E-05-1.23682E-13
 -1      2780 1.11722E-02 2.93479E-05-1.18926E-13
 -1      2781 1.15105E-02 2.69374E-05-1.26867E-13
 -1      2782 1.16559E-02 4.00239E-05-1.30076E-13
 -1      2783 1.14619E-02 5.67017E-05-1.25241E-13
 -1      2784 1.18009E-02 5.29350E-05-1.33312E-13
 -1      2785 1.19456E-02 6.57683E-05-1.36572E-13
 -1      2786 1.17502E-02 8.27014E-05-1.31658E-13
 -1      2787 1.20901E-02 7.86279E-05-1.39854E-13
 -1      2788 1.22343E-02 9.15731E-05-1.43162E-13
 -1      2789 1.20377E-02 1.08357E-04-1.38174E-13
 -1      2790 1.23784E-02 1.04667E-04-1.46493E-13
 -1      2791 1.25223E-02 1.17943E-04-1.49846E-13
 -1      2792 1.23247E-02 1.34323E-04-1.44785E-13
 -1      2793 1.26660E-02 1.31434E-04-1.53219E-13
 -1      2794 1.28096E-02 1.45155E-04-1.56612E-13
 -1      2795 1.26113E-02 1.60990E-04-1.51486E-13
 -1      2796 1.29531E-02 1.59117E-04-1.60026E-13
 -1      2797 1.30965E-02 1.73325E-04-1.63458E-13
 -1      2798 1.28976E-02 1.88555E-04-1.58268E-13
 -1      2799 1.32398E-02 1.87776E-04-1.66906E-13
 -1      2800 1.33831E-02 2.02467E-04-1.70368E-13
 -1      2801 1.31838E-02 2.17088E-04-1.65126E-13
 -1      2802 1.35262E-02 2.17387E-04-1.73846E-13
 -1      2803 1.36693E-02 2.32529E-04-1.77337E-13
 -1      2804 1.34698E-02 2.46571E-04-1.72048E-13
 -1      2805 1.38124E-02 2.47876E-04-1.80837E-13
 -1      2806 1.39554E-02 2.63421E-04-1.84353E-13
 -1      2807 1.37557E-02 2.76938E-04-1.79022E-13
 -1      2808 2.27327E-03 4.54322E-04-5.51169E-15
 -1      2809 2.13066E-03 4.50442E-04-4.83926E-15
 -1      2810 6.40661E-03-2.60039E-04-4.62231E-14
 -1      2811 6.24208E-03-1.73091E-04-4.53412E-14
 -1      2812 1.98809E-03 4.44687E-04-4.21105E-15
 -1      2813 1.84549E-03 4.36895E-04-3.62701E-15
 -1      2814 2.04993E-03 4.11803E-04-4.61610E-15
 -1      2815 2.84507E-03 4.55698E-04-8.64658E-15
 -1      2816 2.70182E-03 4.57140E-04-7.79596E-15
 -1      2817 3.13239E-03 4.50200E-04-1.04796E-14
 -1      2818 2.98857E-03 4.53348E-04-9.54095E-15
 -1      2819 2.90866E-03 4.18300E-04-9.21055E-15
 -1      2820 3.42105E-03 4.42129E-04-1.24893E-14
 -1      2821 3.27652E-03 4.46423E-04-1.14627E-14
 -1      2822 3.19562E-03 4.12114E-04-1.10952E-14
 -1      2823 3.71135E-03 4.32659E-04-1.46726E-14
 -1      2824 3.56596E-03 4.37497E-04-1.35592E-14
 -1      2825 3.48324E-03 4.03658E-04-1.31545E-14
 -1      2826 4.00366E-03 4.23187E-04-1.70301E-14
 -1      2827 3.85720E-03 4.27832E-04-1.58302E-14
 -1      2828 3.77167E-03 3.94092E-04-1.53880E-14
 -1      2829 4.29841E-03 4.15545E-04-1.95592E-14
 -1      2830 4.15066E-03 4.19012E-04-1.82728E-14
 -1      2831 4.06117E-03 3.84809E-04-1.77932E-14
 -1      2832 4.59633E-03 4.12249E-04-2.22600E-14
 -1      2833 4.44689E-03 4.13174E-04-2.08883E-14
 -1      2834 4.35213E-03 3.77633E-04-2.03699E-14
 -1      2835 4.89852E-03 4.16784E-04-2.51320E-14
 -1      2836 4.74677E-03 4.13275E-04-2.36747E-14
 -1      2837 4.64527E-03 3.75041E-04-2.31175E-14
 -1      2838 5.20683E-03 4.33902E-04-2.81742E-14
 -1      2839 5.05177E-03 4.23390E-04-2.66314E-14
 -1      2840 4.94196E-03 3.80427E-04-2.60348E-14
 -1      2841 5.52414E-03 4.69870E-04-3.13863E-14
 -1      2842 5.36421E-03 4.48990E-04-2.97585E-14
 -1      2843 5.24463E-03 3.98410E-04-2.91214E-14
 -1      2844 5.85440E-03 5.32514E-04-3.47692E-14
 -1      2845 5.68755E-03 4.97144E-04-3.30563E-14
 -1      2846 5.55726E-03 4.35228E-04-3.23772E-14
 -1      2847 6.20166E-03 6.30433E-04-3.83217E-14
 -1      2848 6.02606E-03 5.76293E-04-3.65240E-14
 -1      2849 5.88557E-03 4.99221E-04-3.58018E-14
 -1      2850 6.56698E-03 7.69843E-04-4.20471E-14
 -1      2851 6.38283E-03 6.94694E-04-4.01625E-14
 -1      2852 6.23569E-03 6.00815E-04-3.93957E-14
 -1      2853 6.94412E-03 9.44606E-04-4.59502E-14
 -1      2854 6.75584E-03 8.53935E-04-4.39763E-14
 -1      2855 6.61025E-03 7.48749E-04-4.31596E-14
 -1      2856 7.31583E-03 1.12406E-03-5.00507E-14
 -1      2857 7.13181E-03 1.03767E-03-4.79759E-14
 -1      2858 6.99938E-03 9.38252E-04-4.71063E-14
 -1      2859 7.65004E-03 1.22614E-03-5.43663E-14
 -1      2860 7.46802E-03 1.17009E-03-5.21928E-14
 -1      2861 8.06570E-03 1.23714E-03-5.96688E-14
 -1      2862 7.88951E-03 1.25860E-03-5.73692E-14
 -1      2863 8.24574E-03 1.18617E-03-6.20230E-14
 -1      2864 8.73619E-03 1.00605E-03-6.85052E-14
 -1      2865 8.54796E-03 1.08205E-03-6.60236E-14
 -1      2866 9.11259E-03 8.67922E-04-7.36012E-14
 -1      2867 8.92603E-03 9.33298E-04-7.10320E-14
 -1      2868 8.86359E-03 9.08606E-04-6.99187E-14
 -1      2869 9.47624E-03 7.67459E-04-7.88664E-14
 -1      2870 9.29718E-03 8.12622E-04-7.62130E-14
 -1      2871 9.24558E-03 7.77057E-04-7.50632E-14
 -1      2872 9.82154E-03 7.08025E-04-8.42949E-14
 -1      2873 9.65152E-03 7.33202E-04-8.15615E-14
 -1      2874 9.60503E-03 6.92518E-04-8.03736E-14
 -1      2875 1.01503E-02 6.82688E-04-8.98786E-14
 -1      2876 9.98788E-03 6.91813E-04-8.70675E-14
 -1      2877 9.94091E-03 6.49308E-04-8.58447E-14
 -1      2878 1.04666E-02 6.82767E-04-9.56099E-14
 -1      2879 1.03098E-02 6.80137E-04-9.27257E-14
 -1      2880 1.02588E-02 6.36759E-04-9.14676E-14
 -1      2881 1.07746E-02 7.00657E-04-1.01481E-13
 -1      2882 1.06215E-02 6.89920E-04-9.85279E-14
 -1      2883 1.05648E-02 6.45729E-04-9.72366E-14
 -1      2884 1.10768E-02 7.30364E-04-1.07482E-13
 -1      2885 1.09263E-02 7.14343E-04-1.04465E-13
 -1      2886 1.08636E-02 6.69304E-04-1.03141E-13
 -1      2887 1.13751E-02 7.67425E-04-1.13611E-13
 -1      2888 1.12263E-02 7.48190E-04-1.10532E-13
 -1      2889 1.11583E-02 7.02378E-04-1.09173E-13
 -1      2890 1.16706E-02 8.08657E-04-1.19859E-13
 -1      2891 1.15231E-02 7.87666E-04-1.16721E-13
 -1      2892 1.14504E-02 7.41252E-04-1.15332E-13
 -1      2893 1.19639E-02 8.51885E-04-1.26223E-13
 -1      2894 1.18175E-02 8.30118E-04-1.23027E-13
 -1      2895 1.17410E-02 7.83308E-04-1.21606E-13
 -1      2896 1.22555E-02 8.95684E-04-1.32696E-13
 -1      2897 1.21099E-02 8.73774E-04-1.29446E-13
 -1      2898 1.20305E-02 8.26757E-04-1.27995E-13
 -1      2899 1.25458E-02 9.39173E-04-1.39271E-13
 -1      2900 1.24008E-02 9.17504E-04-1.35971E-13
 -1      2901 1.23192E-02 8.70432E-04-1.34490E-13
 -1      2902 1.28350E-02 9.81850E-04-1.45934E-13
 -1      2903 1.26905E-02 9.60633E-04-1.42593E-13
 -1      2904 1.26073E-02 9.13614E-04-1.41086E-13
 -1      2905 1.31233E-02 1.02347E-03-1.52672E-13
 -1      2906 1.29792E-02 1.00280E-03-1.49294E-13
 -1      2907 1.28949E-02 9.55903E-04-1.47766E-13
 -1      2908 1.34109E-02 1.06395E-03-1.59473E-13
 -1      2909 1.32672E-02 1.04385E-03-1.56066E-13
 -1      2910 1.31820E-02 9.97115E-04-1.54520E-13
 -1      2911 1.36980E-02 1.10331E-03-1.66328E-13
 -1      2912 1.35545E-02 1.08377E-03-1.62895E-13
 -1      2913 1.34688E-02 1.03720E-03-1.61334E-13
 -1      2914 1.39846E-02 1.14164E-03-1.73221E-13
 -1      2915 1.38413E-02 1.12260E-03-1.69770E-13
 -1      2916 1.37553E-02 1.07621E-03-1.68198E-13
 -1      2917 1.42709E-02 1.17906E-03-1.80156E-13
 -1      2918 1.41278E-02 1.16046E-03-1.76683E-13
 -1      2919 1.40415E-02 1.11424E-03-1.75101E-13
 -1      2920 1.45221E-02 1.20367E-03-1.86388E-13
 -1      2921 1.43791E-02 1.18542E-03-1.82900E-13
 -1      2922 1.42927E-02 1.13936E-03-1.81306E-13
 -1      2923 1.45089E-02 1.15188E-03-1.86798E-13
 -1      2924 1.43364E-02 7.50786E-04-1.87923E-13
 -1      2925 1.43531E-02 7.91884E-04-1.87792E-13
 -1      2926 1.40517E-02 2.73201E-04-1.86737E-13
 -1      2927 1.41481E-02 2.83061E-04-1.89120E-13
 -1      2928 1.39950E-02 3.02165E-04-1.84906E-13
 -1      2929 1.44027E-02 9.15398E-04-1.87373E-13
 -1      2930 1.44191E-02 9.56700E-04-1.87225E-13
 -1      2931 1.43029E-02 6.68596E-04-1.88170E-13
 -1      2932 1.43197E-02 7.09698E-04-1.88050E-13
 -1      2933 1.42049E-02 7.15531E-04-1.84957E-13
 -1      2934 1.43697E-02 8.33005E-04-1.87656E-13
 -1      2935 1.43862E-02 8.74172E-04-1.87519E-13
 -1      2936 1.42711E-02 8.79517E-04-1.84424E-13
 -1      2937 1.42382E-02 7.97445E-04-1.84701E-13
 -1      2938 1.70283E-03 4.26668E-04-3.08792E-15
 -1      2939 1.55999E-03 4.13810E-04-2.59402E-15
 -1      2940 1.47720E-03 3.71480E-04-2.43817E-15
 -1      2941 1.76372E-03 3.96538E-04-3.43807E-15
 -1      2942 1.42698E-02 5.87686E-04-1.88394E-13
 -1      2943 1.42864E-02 6.28165E-04-1.88284E-13
 -1      2944 1.41716E-02 6.34301E-04-1.85193E-13
 -1      2945 1.42358E-02 5.05134E-04-1.88602E-13
 -1      2946 1.42528E-02 5.46449E-04-1.88500E-13
 -1      2947 1.41380E-02 5.52898E-04-1.85409E-13
 -1      2948 1.42020E-02 4.22233E-04-1.88791E-13
 -1      2949 1.42189E-02 4.63733E-04-1.88699E-13
 -1      2950 1.41039E-02 4.70483E-04-1.85607E-13
 -1      2951 9.97348E-03 2.41152E-04-7.70867E-14
 -1      2952 9.88170E-03 2.20953E-04-7.67329E-14
 -1      2953 8.57205E-03-3.89845E-04-6.82783E-14
 -1      2954 8.36997E-03-5.14519E-04-6.63567E-14
 -1      2955 1.41875E-02 3.21886E-04-1.89673E-13
 -1      2956 7.18172E-03-6.83322E-04-5.24276E-14
 -1      2957 7.02210E-03-6.00216E-04-5.08689E-14
 -1      2958 9.95191E-03 2.91080E-04-7.64100E-14
 -1      2959 1.00144E-02 2.77828E-04-7.69319E-14
 -1      2960 8.30356E-03 1.09846E-03-6.26033E-14
 -1      2961 8.43747E-03 1.02568E-03-6.40735E-14
 -1      2962 9.35746E-03 5.10658E-04-7.22307E-14
 -1      2963 9.51854E-03 4.38518E-04-7.33504E-14
 -1      2964 2.55881E-03 4.57488E-04-6.99035E-15
 -1      2965 2.41597E-03 4.56625E-04-6.22893E-15
 -1      2966 2.33601E-03 4.19424E-04-5.97134E-15
 -1      2967 2.62218E-03 4.21128E-04-7.50231E-15
 -1      2968 1.03428E-03-3.08219E-04-1.39077E-15
 -1      2969 1.17764E-03-3.33012E-04-1.76057E-15
 -1      2970 1.23916E-03-3.11235E-04-2.00416E-15
 -1      2971 6.02259E-03 3.27709E-04-4.31082E-14
 -1      2972 6.21038E-03 4.16864E-04-4.37950E-14
 -1      2973 8.60730E-03 9.27595E-04-6.57998E-14
 -1      2974 8.77297E-03 8.26655E-04-6.73666E-14
 -1      2975 7.86153E-03-7.62304E-04-6.05754E-14
 -1      2976 7.71908E-03-7.93130E-04-5.87678E-14
 -1      2977 7.84690E-04 1.20502E-04-9.64560E-16
 -1      2978 7.82177E-04 9.75110E-05-9.81989E-16
 -1      2979 8.99543E-04 9.67050E-05-1.25563E-15
 -1      2980 9.05622E-04 1.47762E-04-1.21362E-15
 -1      2981 7.81882E-04-9.54861E-05-1.02655E-15
 -1      2982 7.84311E-04-1.18400E-04-1.01941E-15
 -1      2983 8.96793E-03-1.58092E-04-7.13720E-14
 -1      2984 8.79278E-03-2.58042E-04-7.00371E-14
 -1      2985 8.98111E-03 7.09950E-04-6.93050E-14
 -1      2986 9.15892E-03 6.10838E-04-7.07255E-14
 -1      2987 8.17214E-03-6.24612E-04-6.41829E-14
 -1      2988 8.02736E-03-6.99850E-04-6.25528E-14
 -1      2989 5.41793E-03 1.25292E-04-4.12726E-14
 -1      2990 5.43157E-03 1.31695E-04-4.12355E-14
 -1      2991 6.89676E-03 8.15835E-04-4.76043E-14
 -1      2992 7.08676E-03 9.37258E-04-4.91112E-14
 -1      2993 5.76123E-03 2.26112E-04-4.22169E-14
 -1      2994 5.88824E-03 2.70988E-04-4.26628E-14
 -1      2995 5.94453E-03 3.06743E-04-4.19481E-14
 -1      2996 6.89020E-04-2.00672E-04-7.31023E-16
 -1      2997 5.75392E-03 3.25170E-05-4.30548E-14
 -1      2998 5.62621E-03 6.82200E-05-4.23611E-14
 -1      2999 5.80563E-03-3.74110E-06-4.25339E-14
 -1      3000 1.00541E-02 2.65220E-04-7.75811E-14
 -1      3001 1.00411E-02 2.58177E-04-7.76314E-14
 -1      3002 9.68484E-03 3.72077E-04-7.44669E-14
 -1      3003 9.83309E-03 3.25997E-04-7.55873E-14
 -1      3004 9.64038E-03 4.13185E-04-7.53425E-14
 -1      3005 6.81943E-03-4.91006E-04-4.91029E-14
 -1      3006 6.62854E-03-3.81050E-04-4.76649E-14
 -1      3007 5.49963E-03 1.00750E-04-4.16222E-14
 -1      3008 5.44178E-03 1.13860E-04-4.14105E-14
 -1      3009 7.53350E-03-7.93299E-04-5.64551E-14
 -1      3010 7.36954E-03-7.56356E-04-5.44714E-14
 -1      3011 9.72530E-03 1.74348E-04-7.60088E-14
 -1      3012 9.55432E-03 1.17057E-04-7.49566E-14
 -1      3013 9.49011E-03 7.96352E-05-7.58274E-14
 -1      3014 6.44567E-03 5.44744E-04-4.47464E-14
 -1      3015 6.64701E-03 6.64177E-04-4.58675E-14
 -1      3016 7.87489E-04-1.42167E-04-1.00903E-15
 -1      3017 7.91495E-04-1.67027E-04-9.94742E-16
 -1      3018 9.05108E-04-1.45289E-04-1.28679E-15
 -1      3019 8.95041E-04 1.00019E-06-1.30203E-15
 -1      3020 7.77478E-04-9.43839E-06-1.02975E-15
 -1      3021 7.77875E-04-3.04935E-05-1.03254E-15
 -1      3022 8.65387E-04 2.61916E-04-9.22019E-16
 -1      3023 1.00400E-02 2.54370E-04-7.88975E-14
 -1      3024 6.29287E-03 4.79404E-04-4.33155E-14
 -1      3025 6.74856E-03 7.45435E-04-4.59528E-14
 -1      3026 1.43038E-02 9.61549E-04-1.84128E-13
 -1      3027 1.44355E-02 9.97739E-04-1.87075E-13
 -1      3028 1.44518E-02 1.03887E-03-1.86920E-13
 -1      3029 6.11284E-03-1.34055E-04-4.40267E-14
 -1      3030 7.34568E-03 1.09692E-03-5.12581E-14
 -1      3031 7.81408E-03 1.26361E-03-5.63240E-14
 -1      3032 7.69878E-03 1.21795E-03-5.53419E-14
 -1      3033 9.82333E-03 1.98017E-04-7.76193E-14
 -1      3034 6.89208E-03-5.51953E-04-4.94243E-14
 -1      3035 1.44720E-02 1.07463E-03-1.86942E-13
 -1      3036 1.44885E-02 1.11595E-03-1.86782E-13
 -1      3037 1.43805E-02 1.10976E-03-1.84037E-13
 -1      3038 1.43401E-02 1.03819E-03-1.84000E-13
 -1      3039 9.91477E-03 3.17807E-04-7.73048E-14
 -1      3040 8.68979E-03-3.36504E-04-7.00047E-14
 -1      3041 7.61794E-03-8.02411E-04-5.75561E-14
 -1      3042 5.53588E-03 7.86590E-05-4.11180E-14
 -1      3043 1.42042E-02 3.63650E-04-1.89592E-13
 -1      3044 5.66867E-03 1.98669E-04-4.13457E-14
 -1      3045 5.72110E-03 2.26680E-04-4.06459E-14
 -1      3046 5.58598E-03 1.80213E-04-4.04838E-14
 -1      3047 5.39760E-03 1.13981E-04-4.02554E-14
 -1      3048 8.29848E-03-5.67714E-04-6.60352E-14
 -1      3049 8.91354E-03 7.73235E-04-6.92114E-14
 -1      3050 7.95058E-03-7.36895E-04-6.18639E-14
 -1      3051 7.26422E-03-7.30420E-04-5.32099E-14
 -1      3052 9.29765E-03 5.68557E-04-7.26902E-14
 -1      3053 1.00682E-02 2.76369E-04-7.87928E-14
 -1      3054 8.55283E-03 9.82137E-04-6.55249E-14
 -1      3055 8.21313E-03 1.15082E-03-6.16009E-14
 -1      3056 5.44305E-03 1.37604E-04-4.06462E-14
 -1      3057 5.46308E-03 1.45328E-04-4.00577E-14
 -1      3058 5.38944E-03 1.28368E-04-3.95342E-14
 -1      3059 6.48999E-03-3.29915E-04-4.62501E-14
 -1      3060 1.40419E-02 3.36450E-04-1.85703E-13
 -1      3061 1.41550E-02 3.87989E-04-1.88000E-13
 -1      3062 1.40398E-02 3.94992E-04-1.84910E-13
 -1      3063 1.39457E-02 3.26648E-04-1.83324E-13
 -1      3064 8.03617E-04-1.99360E-04-9.85093E-16
 -1      3065 8.22171E-04-2.49562E-04-9.51916E-16
 -1      3066 9.53359E-04-2.82938E-04-1.22099E-15
 -1      3067 9.21682E-04-2.06586E-04-1.26368E-15
 -1      3068 7.78720E-04-5.17058E-05-1.03285E-15
 -1      3069 7.80031E-04-7.33566E-05-1.03094E-15
 -1      3070 8.99229E-04-9.43889E-05-1.30401E-15
 -1      3071 8.96020E-04-4.61154E-05-1.30865E-15
 -1      3072 9.83591E-04 2.70252E-04-1.19715E-15
 -1      3073 9.10607E-03-1.00142E-04-7.32721E-14
 -1      3074 7.20193E-03 1.01377E-03-4.98572E-14
 -1      3075 1.01584E-03-2.66661E-04-1.42169E-15
 -1      3076 1.00959E-02 2.62592E-04-8.06816E-14
 -1      3077 1.00298E-02 2.46873E-04-8.01284E-14
 -1      3078 1.04087E-03 2.37547E-04-1.41717E-15
 -1      3079 1.03410E-03 2.06219E-04-1.45698E-15
 -1      3080 1.15912E-03-2.70070E-04-1.83329E-15
 -1      3081 1.30200E-03-2.88474E-04-2.25620E-15
 -1      3082 1.14575E-03 3.03572E-04-1.56490E-15
 -1      3083 1.08303E-03 2.65374E-04-1.47530E-15
 -1      3084 1.20205E-03 2.65849E-04-1.82059E-15
 -1      3085 1.28902E-03 3.24111E-04-1.94696E-15
 -1      3086 1.73224E-03-3.27121E-04-3.79660E-15
 -1      3087 1.87586E-03-3.35248E-04-4.40049E-15
 -1      3088 2.01944E-03-3.41450E-04-5.04932E-15
 -1      3089 2.16300E-03-3.45873E-04-5.74299E-15
 -1      3090 1.93965E-03-3.03670E-04-4.75988E-15
 -1      3091 2.30649E-03-3.48790E-04-6.48114E-15
 -1      3092 2.44991E-03-3.50318E-04-7.26410E-15
 -1      3093 2.22692E-03-3.12021E-04-6.14968E-15
 -1      3094 2.59325E-03-3.50687E-04-8.09106E-15
 -1      3095 2.73652E-03-3.49994E-04-8.96242E-15
 -1      3096 2.51381E-03-3.14913E-04-7.71650E-15
 -1      3097 2.87971E-03-3.48433E-04-9.87731E-15
 -1      3098 3.02285E-03-3.46089E-04-1.08360E-14
 -1      3099 2.80014E-03-3.13572E-04-9.45919E-15
 -1      3100 3.16593E-03-3.43137E-04-1.18382E-14
 -1      3101 3.30900E-03-3.39659E-04-1.28832E-14
 -1      3102 3.08581E-03-3.09046E-04-1.13757E-14
 -1      3103 3.45205E-03-3.35824E-04-1.39716E-14
 -1      3104 3.59514E-03-3.31727E-04-1.51025E-14
 -1      3105 3.37084E-03-3.02274E-04-1.34653E-14
 -1      3106 3.73830E-03-3.27545E-04-1.62759E-14
 -1      3107 3.88161E-03-3.23401E-04-1.74912E-14
 -1      3108 3.65536E-03-2.94178E-04-1.57260E-14
 -1      3109 4.02511E-03-3.19492E-04-1.87482E-14
 -1      3110 4.16895E-03-3.15995E-04-2.00475E-14
 -1      3111 3.93968E-03-2.85759E-04-1.81549E-14
 -1      3112 4.31322E-03-3.13131E-04-2.13882E-14
 -1      3113 4.45811E-03-3.11164E-04-2.27697E-14
 -1      3114 4.22439E-03-2.78212E-04-2.07508E-14
 -1      3115 4.60379E-03-3.10340E-04-2.41922E-14
 -1      3116 4.75053E-03-3.11059E-04-2.56569E-14
 -1      3117 4.51056E-03-2.73053E-04-2.35123E-14
 -1      3118 4.89863E-03-3.13582E-04-2.71636E-14
 -1      3119 5.04840E-03-3.18517E-04-2.87111E-14
 -1      3120 4.79991E-03-2.72294E-04-2.64388E-14
 -1      3121 5.20033E-03-3.26119E-04-3.02991E-14
 -1      3122 5.35472E-03-3.37294E-04-3.19296E-14
 -1      3123 5.09509E-03-2.78702E-04-2.95319E-14
 -1      3124 5.51225E-03-3.52257E-04-3.36019E-14
 -1      3125 5.67304E-03-3.72265E-04-3.53154E-14
 -1      3126 5.39985E-03-2.96214E-04-3.27892E-14
 -1      3127 5.83795E-03-3.97446E-04-3.70714E-14
 -1      3128 6.00645E-03-4.29241E-04-3.88694E-14
 -1      3129 5.71887E-03-3.30480E-04-3.62126E-14
 -1      3130 6.17947E-03-4.67645E-04-4.07107E-14
 -1      3131 6.35517E-03-5.13244E-04-4.25955E-14
 -1      3132 6.05650E-03-3.89225E-04-3.98030E-14
 -1      3133 6.53446E-03-5.65172E-04-4.45257E-14
 -1      3134 6.71349E-03-6.21866E-04-4.65007E-14
 -1      3135 6.41375E-03-4.79780E-04-4.35652E-14
 -1      3136 7.23981E-03-7.94127E-04-5.27148E-14
 -1      3137 7.40621E-03-8.25690E-04-5.48882E-14
 -1      3138 7.63163E-03-8.24548E-04-5.79449E-14
 -1      3139 7.79785E-03-8.05754E-04-6.02442E-14
 -1      3140 8.23222E-03-6.73351E-04-6.65471E-14
 -1      3141 8.40780E-03-5.99637E-04-6.90347E-14
 -1      3142 8.58692E-03-5.22379E-04-7.15702E-14
 -1      3143 8.76587E-03-4.48599E-04-7.41514E-14
 -1      3144 8.53244E-03-5.10600E-04-7.02744E-14
 -1      3145 8.94468E-03-3.79971E-04-7.67758E-14
 -1      3146 9.12011E-03-3.17639E-04-7.94406E-14
 -1      3147 8.90028E-03-3.55658E-04-7.54373E-14
 -1      3148 9.29278E-03-2.62533E-04-8.21458E-14
 -1      3149 9.46092E-03-2.13854E-04-8.48911E-14
 -1      3150 9.25651E-03-2.32262E-04-8.07673E-14
 -1      3151 9.62551E-03-1.71684E-04-8.76731E-14
 -1      3152 9.78599E-03-1.34612E-04-9.04899E-14
 -1      3153 9.59325E-03-1.39734E-04-8.62540E-14
 -1      3154 9.94325E-03-1.02496E-04-9.33412E-14
 -1      3155 1.00974E-02-7.41065E-05-9.62299E-14
 -1      3156 9.91158E-03-7.12593E-05-9.18864E-14
 -1      3157 1.02491E-02-4.92050E-05-9.91532E-14
 -1      3158 1.03987E-02-2.69182E-05-1.02108E-13
 -1      3159 1.02158E-02-1.92162E-05-9.76589E-14
 -1      3160 1.05466E-02-6.99204E-06-1.05094E-13
 -1      3161 1.06932E-02 1.11636E-05-1.08110E-13
 -1      3162 1.05105E-02 2.19706E-05-1.03566E-13
 -1      3163 1.08388E-02 2.77977E-05-1.11155E-13
 -1      3164 1.09835E-02 4.32936E-05-1.14230E-13
 -1      3165 1.07993E-02 5.61132E-05-1.09595E-13
 -1      3166 1.11276E-02 5.78759E-05-1.17333E-13
 -1      3167 1.12713E-02 7.17893E-05-1.20461E-13
 -1      3168 1.10849E-02 8.58753E-05-1.15740E-13
 -1      3169 1.14146E-02 8.52213E-05-1.23618E-13
 -1      3170 1.15577E-02 9.83250E-05-1.26799E-13
 -1      3171 1.13690E-02 1.13125E-04-1.21996E-13
 -1      3172 1.17006E-02 1.11246E-04-1.30007E-13
 -1      3173 1.18435E-02 1.24078E-04-1.33240E-13
 -1      3174 1.16524E-02 1.39173E-04-1.28359E-13
 -1      3175 1.19862E-02 1.36925E-04-1.36496E-13
 -1      3176 1.21289E-02 1.49841E-04-1.39777E-13
 -1      3177 1.19358E-02 1.64923E-04-1.34820E-13
 -1      3178 1.22716E-02 1.62895E-04-1.43080E-13
 -1      3179 1.24143E-02 1.76115E-04-1.46409E-13
 -1      3180 1.22194E-02 1.90970E-04-1.41379E-13
 -1      3181 1.25570E-02 1.89542E-04-1.49758E-13
 -1      3182 1.26997E-02 2.03185E-04-1.53125E-13
 -1      3183 1.25034E-02 2.17677E-04-1.48030E-13
 -1      3184 1.28424E-02 2.17065E-04-1.56515E-13
 -1      3185 1.29852E-02 2.31181E-04-1.59925E-13
 -1      3186 1.27878E-02 2.45238E-04-1.54766E-13
 -1      3187 1.31279E-02 2.45538E-04-1.63350E-13
 -1      3188 1.32707E-02 2.60129E-04-1.66795E-13
 -1      3189 1.30725E-02 2.73724E-04-1.61580E-13
 -1      3190 1.34135E-02 2.74950E-04-1.70252E-13
 -1      3191 1.35563E-02 2.89989E-04-1.73723E-13
 -1      3192 1.33575E-02 3.03127E-04-1.68460E-13
 -1      3193 1.36796E-02 3.00461E-04-1.76767E-13
 -1      3194 1.38224E-02 3.15877E-04-1.80262E-13
 -1      3195 1.38695E-02 3.49977E-04-1.81057E-13
 -1      3196 1.36232E-02 3.28630E-04-1.74957E-13
 -1      3197 1.40402E-02 5.99828E-04-1.82220E-13
 -1      3198 1.40568E-02 6.39977E-04-1.82111E-13
 -1      3199 3.25792E-03 3.74419E-04-1.17164E-14
 -1      3200 3.11484E-03 3.78064E-04-1.07266E-14
 -1      3201 2.97177E-03 3.81068E-04-9.78052E-15
 -1      3202 2.82865E-03 3.83347E-04-8.87878E-15
 -1      3203 3.03438E-03 3.44147E-04-1.03571E-14
 -1      3204 3.83003E-03 3.56400E-04-1.61073E-14
 -1      3205 3.68699E-03 3.61149E-04-1.49445E-14
 -1      3206 4.11616E-03 3.47522E-04-1.85595E-14
 -1      3207 3.97304E-03 3.51810E-04-1.73122E-14
 -1      3208 3.88653E-03 3.19701E-04-1.68307E-14
 -1      3209 4.40270E-03 3.40951E-04-2.11837E-14
 -1      3210 4.25931E-03 3.43831E-04-1.98499E-14
 -1      3211 4.16876E-03 3.11413E-04-1.93301E-14
 -1      3212 4.69040E-03 3.39049E-04-2.39774E-14
 -1      3213 4.54630E-03 3.39246E-04-2.25596E-14
 -1      3214 4.45030E-03 3.05538E-04-2.20012E-14
 -1      3215 4.98084E-03 3.45006E-04-2.69403E-14
 -1      3216 4.83510E-03 3.40784E-04-2.54379E-14
 -1      3217 4.73190E-03 3.04227E-04-2.48406E-14
 -1      3218 5.27696E-03 3.63180E-04-3.00710E-14
 -1      3219 5.12790E-03 3.52155E-04-2.84846E-14
 -1      3220 5.01526E-03 3.10336E-04-2.78483E-14
 -1      3221 5.58383E-03 3.99670E-04-3.33711E-14
 -1      3222 5.42864E-03 3.78457E-04-3.17001E-14
 -1      3223 5.30380E-03 3.27801E-04-3.10239E-14
 -1      3224 5.90906E-03 4.63466E-04-3.68363E-14
 -1      3225 5.74373E-03 4.27080E-04-3.50830E-14
 -1      3226 5.60366E-03 3.62530E-04-3.43659E-14
 -1      3227 6.26173E-03 5.67320E-04-4.04689E-14
 -1      3228 6.08194E-03 5.08779E-04-3.86317E-14
 -1      3229 5.92467E-03 4.24558E-04-3.78720E-14
 -1      3230 9.93202E-03 2.17897E-04-7.98954E-14
 -1      3231 9.79229E-03 1.75622E-04-7.91575E-14
 -1      3232 8.35372E-03 1.11321E-03-6.33612E-14
 -1      3233 9.38768E-03 6.85926E-04-7.65294E-14
 -1      3234 9.20191E-03 7.37652E-04-7.39137E-14
 -1      3235 1.00593E-02 5.95863E-04-8.73978E-14
 -1      3236 9.90089E-03 6.05357E-04-8.46217E-14
 -1      3237 1.03645E-02 5.95556E-04-9.30604E-14
 -1      3238 1.02136E-02 5.93304E-04-9.02101E-14
 -1      3239 1.01743E-02 5.49242E-04-8.89537E-14
 -1      3240 1.06597E-02 6.12450E-04-9.88656E-14
 -1      3241 1.05130E-02 6.02334E-04-9.59461E-14
 -1      3242 1.04661E-02 5.59448E-04-9.46560E-14
 -1      3243 1.09498E-02 6.40786E-04-1.04802E-13
 -1      3244 1.08052E-02 6.25490E-04-1.01818E-13
 -1      3245 1.07507E-02 5.82789E-04-1.00495E-13
 -1      3246 1.12373E-02 6.76482E-04-1.10865E-13
 -1      3247 1.10937E-02 6.57914E-04-1.07817E-13
 -1      3248 1.10325E-02 6.14782E-04-1.06464E-13
 -1      3249 1.15239E-02 7.16600E-04-1.17051E-13
 -1      3250 1.13806E-02 6.96123E-04-1.13944E-13
 -1      3251 1.13136E-02 6.52318E-04-1.12557E-13
 -1      3252 1.18101E-02 7.59056E-04-1.23354E-13
 -1      3253 1.16670E-02 7.37626E-04-1.20190E-13
 -1      3254 1.15952E-02 6.93144E-04-1.18772E-13
 -1      3255 1.20962E-02 8.02415E-04-1.29768E-13
 -1      3256 1.19531E-02 7.80682E-04-1.26547E-13
 -1      3257 1.18776E-02 7.35629E-04-1.25102E-13
 -1      3258 1.23823E-02 8.45735E-04-1.36286E-13
 -1      3259 1.22392E-02 8.24116E-04-1.33014E-13
 -1      3260 1.21607E-02 7.78640E-04-1.31539E-13
 -1      3261 1.26684E-02 8.88441E-04-1.42903E-13
 -1      3262 1.25253E-02 8.67185E-04-1.39584E-13
 -1      3263 1.24446E-02 8.21425E-04-1.38082E-13
 -1      3264 1.29545E-02 9.30219E-04-1.49598E-13
 -1      3265 1.28115E-02 9.09456E-04-1.46242E-13
 -1      3266 1.27290E-02 8.63528E-04-1.44717E-13
 -1      3267 1.32406E-02 9.70935E-04-1.56367E-13
 -1      3268 1.30976E-02 9.50712E-04-1.52975E-13
 -1      3269 1.30138E-02 9.04705E-04-1.51431E-13
 -1      3270 1.35266E-02 1.01057E-03-1.63194E-13
 -1      3271 1.33836E-02 9.90885E-04-1.59773E-13
 -1      3272 1.32990E-02 9.44861E-04-1.58214E-13
 -1      3273 1.38126E-02 1.04918E-03-1.70066E-13
 -1      3274 1.36696E-02 1.03000E-03-1.66623E-13
 -1      3275 1.35844E-02 9.84000E-04-1.65050E-13
 -1      3276 1.40985E-02 1.08687E-03-1.76979E-13
 -1      3277 1.39555E-02 1.06814E-03-1.73517E-13
 -1      3278 1.38698E-02 1.02219E-03-1.71933E-13
 -1      3279 1.42936E-02 1.10160E-03-1.81871E-13
 -1      3280 1.41855E-02 1.09520E-03-1.79134E-13
 -1      3281 1.40996E-02 1.04931E-03-1.77541E-13
 -1      3282 1.42734E-02 1.06580E-03-1.81857E-13
 -1      3283 1.01597E-03 6.60913E-05-1.58208E-15
 -1      3284 1.01468E-03 3.99376E-05-1.59582E-15
 -1      3285 1.40736E-02 6.80776E-04-1.81993E-13
 -1      3286 1.40904E-02 7.21562E-04-1.81872E-13
 -1      3287 1.39424E-02 6.46200E-04-1.79035E-13
 -1      3288 6.95471E-03-6.14261E-04-4.97196E-14
 -1      3289 6.77145E-03-5.17802E-04-4.79784E-14
 -1      3290 6.10013E-03 4.18466E-04-4.10371E-14
 -1      3291 6.29705E-03 5.27094E-04-4.19414E-14
 -1      3292 9.90634E-03 3.46215E-04-7.87454E-14
 -1      3293 1.00109E-02 3.15086E-04-7.95888E-14
 -1      3294 1.40061E-02 5.17942E-04-1.82429E-13
 -1      3295 1.40232E-02 5.58927E-04-1.82327E-13
 -1      3296 1.39085E-02 5.64856E-04-1.79254E-13
 -1      3297 9.73679E-03 6.21867E-04-8.18852E-14
 -1      3298 9.56654E-03 6.48805E-04-7.91868E-14
 -1      3299 9.86808E-03 5.59238E-04-8.33997E-14
 -1      3300 3.54399E-03 3.65821E-04-1.38253E-14
 -1      3301 3.40094E-03 3.70309E-04-1.27490E-14
 -1      3302 3.31929E-03 3.37261E-04-1.23426E-14
 -1      3303 3.60337E-03 3.28751E-04-1.45012E-14
 -1      3304 2.11256E-03 3.78513E-04-5.02895E-15
 -1      3305 1.96919E-03 3.73169E-04-4.39077E-15
 -1      3306 1.44521E-03-3.03972E-04-2.72436E-15
 -1      3307 1.58870E-03-3.16748E-04-3.23785E-15
 -1      3308 1.65239E-03-2.88410E-04-3.54858E-15
 -1      3309 1.39718E-02 4.35655E-04-1.82617E-13
 -1      3310 1.39890E-02 4.76857E-04-1.82524E-13
 -1      3311 1.38742E-02 4.83180E-04-1.79453E-13
 -1      3312 6.11918E-03-1.77897E-04-4.31375E-14
 -1      3313 5.96761E-03-1.03818E-04-4.23484E-14
 -1      3314 5.56594E-03 4.95650E-05-4.03390E-14
 -1      3315 5.44928E-03 7.86362E-05-3.96217E-14
 -1      3316 1.00817E-02 2.93392E-04-8.02538E-14
 -1      3317 1.01211E-02 2.82122E-04-8.09154E-14
 -1      3318 1.00939E-02 3.16476E-04-8.17205E-14
 -1      3319 1.00014E-03-2.27735E-04-1.44176E-15
 -1      3320 1.07936E-03-2.48977E-04-1.63172E-15
 -1      3321 9.86748E-04-1.91131E-04-1.45359E-15
 -1      3322 7.32917E-03-7.68686E-04-5.39142E-14
 -1      3323 7.15701E-03-7.03255E-04-5.18845E-14
 -1      3324 6.54163E-03-3.93839E-04-4.60665E-14
 -1      3325 6.34485E-03-2.86578E-04-4.46576E-14
 -1      3326 7.09242E-03 9.66561E-04-4.84201E-14
 -1      3327 5.83327E-03 2.68313E-04-4.10770E-14
 -1      3328 5.95333E-03 3.19477E-04-4.15096E-14
 -1      3329 5.73116E-03 2.38909E-04-4.02159E-14
 -1      3330 9.62037E-03 4.54993E-04-7.64531E-14
 -1      3331 9.76301E-03 3.98055E-04-7.75948E-14
 -1      3332 9.24527E-03-5.51872E-05-7.56224E-14
 -1      3333 9.05361E-03-1.54830E-04-7.41134E-14
 -1      3334 5.37767E-03 1.02857E-04-3.92970E-14
 -1      3335 5.35843E-03 1.13006E-04-3.91628E-14
 -1      3336 5.81850E-03-3.63328E-05-4.16789E-14
 -1      3337 5.69167E-03 8.67773E-06-4.10035E-14
 -1      3338 5.57233E-03 1.89514E-05-3.95069E-14
 -1      3339 5.83049E-03-8.27105E-05-4.08149E-14
 -1      3340 8.83141E-03-2.75073E-04-7.20743E-14
 -1      3341 8.63675E-03-3.93093E-04-7.02858E-14
 -1      3342 8.41042E-03-5.30300E-04-6.80085E-14
 -1      3343 8.23147E-03-6.26423E-04-6.58043E-14
 -1      3344 9.23422E-03 6.49198E-04-7.32584E-14
 -1      3345 9.40494E-03 5.61610E-04-7.47950E-14
 -1      3346 9.60887E-03 1.09690E-04-7.79561E-14
 -1      3347 9.44458E-03 4.22167E-05-7.68860E-14
 -1      3348 7.84857E-03 1.23417E-03-5.71286E-14
 -1      3349 7.95486E-03 1.23136E-03-5.83801E-14
 -1      3350 6.89306E-03 8.61351E-04-4.63951E-14
 -1      3351 6.67038E-03 7.26743E-04-4.46858E-14
 -1      3352 6.47323E-03 6.37160E-04-4.27555E-14
 -1      3353 1.01401E-03 1.40186E-05-1.60615E-15
 -1      3354 1.01397E-03-1.17928E-05-1.61341E-15
 -1      3355 1.13427E-03 2.91595E-05-1.94110E-15
 -1      3356 1.15330E-03 2.05799E-04-1.79490E-15
 -1      3357 1.02857E-03 1.76323E-04-1.49076E-15
 -1      3358 1.02416E-03 1.47565E-04-1.51979E-15
 -1      3359 1.36575E-03-2.64576E-04-2.51662E-15
 -1      3360 6.71381E-03-5.57684E-04-4.68779E-14
 -1      3361 6.82993E-03-6.42884E-04-4.78888E-14
 -1      3362 1.41723E-02 9.25567E-04-1.81189E-13
 -1      3363 1.41885E-02 9.66393E-04-1.81039E-13
 -1      3364 7.00904E-03-7.03895E-04-4.99414E-14
 -1      3365 7.92442E-03-7.59744E-04-6.17944E-14
 -1      3366 7.92037E-03-7.87734E-04-6.21349E-14
 -1      3367 8.08800E-03-7.33850E-04-6.45292E-14
 -1      3368 6.61816E-03-4.68240E-04-4.63429E-14
 -1      3369 2.25587E-03 3.82177E-04-5.71102E-15
 -1      3370 2.17580E-03 3.44943E-04-5.44982E-15
 -1      3371 2.39913E-03 3.84294E-04-6.43734E-15
 -1      3372 1.00189E-02 2.31820E-04-8.16909E-14
 -1      3373 1.88873E-03 3.34676E-04-4.16374E-15
 -1      3374 1.82578E-03 3.65845E-04-3.79658E-15
 -1      3375 1.68230E-03 3.56377E-04-3.24647E-15
 -1      3376 9.77933E-04-1.34781E-04-1.48334E-15
 -1      3377 9.81826E-04-1.62427E-04-1.47068E-15
 -1      3378 1.05924E-03-1.79947E-04-1.66654E-15
 -1      3379 2.74875E-03 3.48422E-04-8.54601E-15
 -1      3380 2.68552E-03 3.84724E-04-8.02104E-15
 -1      3381 2.54234E-03 3.85107E-04-7.20721E-15
 -1      3382 9.75310E-03 1.43365E-04-8.02383E-14
 -1      3383 9.53616E-03 6.01489E-04-7.80019E-14
 -1      3384 9.00570E-03 8.03859E-04-7.13346E-14
 -1      3385 8.80629E-03 8.83234E-04-6.88017E-14
 -1      3386 1.01794E-03 9.25682E-05-1.56519E-15
 -1      3387 1.13724E-03 8.56032E-05-1.90947E-15
 -1      3388 1.02062E-03 1.19611E-04-1.54432E-15
 -1      3389 1.41397E-02 8.43545E-04-1.81481E-13
 -1      3390 1.41560E-02 8.84508E-04-1.81337E-13
 -1      3391 1.40409E-02 8.89304E-04-1.78259E-13
 -1      3392 1.01500E-02 2.77327E-04-8.21613E-14
 -1      3393 1.01678E-02 2.72388E-04-8.34148E-14
 -1      3394 1.01922E-02 2.92671E-04-8.36494E-14
 -1      3395 7.03140E-03-6.72424E-04-5.03881E-14
 -1      3396 1.41069E-02 7.62095E-04-1.81746E-13
 -1      3397 1.41234E-02 8.02923E-04-1.81614E-13
 -1      3398 1.40085E-02 8.07949E-04-1.78538E-13
 -1      3399 1.39758E-02 7.27157E-04-1.78795E-13
 -1      3400 5.37627E-03 8.33614E-05-3.85398E-14
 -1      3401 5.31275E-03 8.45687E-05-3.74700E-14
 -1      3402 5.37955E-03 5.91146E-05-3.77832E-14
 -1      3403 1.14368E-03-2.29719E-04-1.85155E-15
 -1      3404 5.49248E-03 1.60740E-04-3.93736E-14
 -1      3405 5.52398E-03 1.81306E-04-3.86879E-14
 -1      3406 5.41034E-03 1.47906E-04-3.82765E-14
 -1      3407 9.38688E-03-1.29879E-05-7.77460E-14
 -1      3408 7.46500E-03-8.17665E-04-5.56488E-14
 -1      3409 8.98841E-03-2.19280E-04-7.44005E-14
 -1      3410 8.55446E-03-4.69757E-04-7.00399E-14
 -1      3411 9.89358E-03 3.83473E-04-7.98804E-14
 -1      3412 5.34287E-03 1.18214E-04-3.85865E-14
 -1      3413 5.33681E-03 1.23796E-04-3.80115E-14
 -1      3414 5.30228E-03 1.08051E-04-3.76479E-14
 -1      3415 1.38971E-02 3.75831E-04-1.81444E-13
 -1      3416 1.39443E-02 4.09859E-04-1.82233E-13
 -1      3417 1.38293E-02 4.16480E-04-1.79161E-13
 -1      3418 1.37740E-02 3.65020E-04-1.78390E-13
 -1      3419 6.18064E-03-2.44918E-04-4.29574E-14
 -1      3420 8.07643E-03-6.97803E-04-6.37992E-14
 -1      3421 9.55581E-03 5.31108E-04-7.70372E-14
 -1      3422 1.55734E-03 3.49943E-04-2.79213E-15
 -1      3423 1.41386E-03 3.35527E-04-2.32621E-15
 -1      3424 1.36987E-03 3.06004E-04-2.25776E-15
 -1      3425 1.61996E-03 3.21896E-04-3.10827E-15
 -1      3426 9.74859E-04-1.08032E-04-1.49196E-15
 -1      3427 1.05114E-03-1.22250E-04-1.69232E-15
 -1      3428 9.72553E-04-8.19897E-05-1.49716E-15
 -1      3429 6.50538E-03-4.48298E-04-4.49947E-14
 -1      3430 1.32667E-03 2.77277E-04-2.18632E-15
 -1      3431 1.28429E-03 2.49315E-04-2.11223E-15
 -1      3432 1.45159E-03 2.86322E-04-2.58703E-15
 -1      3433 1.86057E-03-2.66360E-04-4.47347E-15
 -1      3434 2.00423E-03-2.71657E-04-5.12520E-15
 -1      3435 2.14785E-03-2.75485E-04-5.82103E-15
 -1      3436 2.29141E-03-2.77953E-04-6.56094E-15
 -1      3437 2.06945E-03-2.39263E-04-5.49571E-15
 -1      3438 2.43481E-03-2.79260E-04-7.34467E-15
 -1      3439 2.57804E-03-2.79490E-04-8.17278E-15
 -1      3440 2.35638E-03-2.43751E-04-6.97671E-15
 -1      3441 2.72104E-03-2.78820E-04-9.04382E-15
 -1      3442 2.86381E-03-2.77316E-04-9.95871E-15
 -1      3443 2.64254E-03-2.44146E-04-8.63207E-15
 -1      3444 3.00630E-03-2.75138E-04-1.09171E-14
 -1      3445 3.14854E-03-2.72337E-04-1.19179E-14
 -1      3446 2.92752E-03-2.41329E-04-1.04611E-14
 -1      3447 3.29047E-03-2.69064E-04-1.29625E-14
 -1      3448 3.43214E-03-2.65367E-04-1.40493E-14
 -1      3449 3.21103E-03-2.36062E-04-1.24625E-14
 -1      3450 3.57353E-03-2.61395E-04-1.51782E-14
 -1      3451 3.71471E-03-2.57208E-04-1.63504E-14
 -1      3452 3.49294E-03-2.29025E-04-1.46345E-14
 -1      3453 3.85566E-03-2.52957E-04-1.75640E-14
 -1      3454 3.99651E-03-2.48732E-04-1.88189E-14
 -1      3455 3.77324E-03-2.20885E-04-1.69760E-14
 -1      3456 4.13729E-03-2.44692E-04-2.01163E-14
 -1      3457 4.27818E-03-2.40982E-04-2.14552E-14
 -1      3458 4.05217E-03-2.12362E-04-1.94851E-14
 -1      3459 4.41927E-03-2.37768E-04-2.28345E-14
 -1      3460 4.56085E-03-2.35295E-04-2.42547E-14
 -1      3461 4.33035E-03-2.04310E-04-2.21601E-14
 -1      3462 4.70310E-03-2.33730E-04-2.57177E-14
 -1      3463 4.84646E-03-2.33498E-04-2.72225E-14
 -1      3464 4.60895E-03-1.97838E-04-2.50004E-14
 -1      3465 4.99125E-03-2.34755E-04-2.87673E-14
 -1      3466 5.13809E-03-2.38248E-04-3.03534E-14
 -1      3467 4.89006E-03-1.94529E-04-2.80061E-14
 -1      3468 5.28751E-03-2.44116E-04-3.19806E-14
 -1      3469 5.44024E-03-2.53666E-04-3.36492E-14
 -1      3470 5.17713E-03-1.96870E-04-3.11755E-14
 -1      3471 5.59720E-03-2.66977E-04-3.53584E-14
 -1      3472 5.75892E-03-2.86277E-04-3.71093E-14
 -1      3473 5.47549E-03-2.09178E-04-3.45089E-14
 -1      3474 5.92681E-03-3.11666E-04-3.89009E-14
 -1      3475 6.10033E-03-3.46111E-04-4.07340E-14
 -1      3476 5.79274E-03-2.39228E-04-3.80045E-14
 -1      3477 6.31802E-03-3.90931E-04-4.30650E-14
 -1      3478 9.71915E-03 5.07604E-04-7.97020E-14
 -1      3479 8.19630E-03-6.65307E-04-6.57244E-14
 -1      3480 6.17148E-03-2.99683E-04-4.21109E-14
 -1      3481 5.97252E-03-2.08604E-04-4.06449E-14
 -1      3482 9.22682E-03-1.98001E-04-7.93896E-14
 -1      3483 9.40008E-03-1.46847E-04-8.20951E-14
 -1      3484 9.56754E-03-1.04543E-04-8.48378E-14
 -1      3485 9.72888E-03-6.81962E-05-8.76177E-14
 -1      3486 9.54811E-03-6.63633E-05-8.34246E-14
 -1      3487 9.88541E-03-3.78055E-05-9.04345E-14
 -1      3488 1.00378E-02-1.10612E-05-9.32836E-14
 -1      3489 9.86439E-03-2.50564E-06-8.89831E-14
 -1      3490 1.01868E-02 1.20952E-05-9.61693E-14
 -1      3491 1.03333E-02 3.29391E-05-9.90895E-14
 -1      3492 1.01619E-02 4.42621E-05-9.46840E-14
 -1      3493 1.04778E-02 5.15875E-05-1.02041E-13
 -1      3494 1.06209E-02 6.87767E-05-1.05023E-13
 -1      3495 1.04482E-02 8.13419E-05-1.00519E-13
 -1      3496 1.07628E-02 8.46515E-05-1.08038E-13
 -1      3497 1.09040E-02 9.96291E-05-1.11080E-13
 -1      3498 1.07285E-02 1.12846E-04-1.06481E-13
 -1      3499 1.10446E-02 1.13858E-04-1.14151E-13
 -1      3500 1.11850E-02 1.27573E-04-1.17251E-13
 -1      3501 1.10061E-02 1.41225E-04-1.12565E-13
 -1      3502 1.13253E-02 1.40912E-04-1.20379E-13
 -1      3503 1.14655E-02 1.54007E-04-1.23530E-13
 -1      3504 1.12831E-02 1.67962E-04-1.18761E-13
 -1      3505 1.16058E-02 1.66977E-04-1.26709E-13
 -1      3506 1.17462E-02 1.79893E-04-1.29915E-13
 -1      3507 1.15604E-02 1.94022E-04-1.25064E-13
 -1      3508 1.18868E-02 1.92850E-04-1.33144E-13
 -1      3509 1.20275E-02 2.05881E-04-1.36399E-13
 -1      3510 1.18387E-02 2.20058E-04-1.31471E-13
 -1      3511 1.21684E-02 2.19056E-04-1.39679E-13
 -1      3512 1.23096E-02 2.32387E-04-1.42980E-13
 -1      3513 1.21182E-02 2.46497E-04-1.37979E-13
 -1      3514 1.24509E-02 2.45919E-04-1.46305E-13
 -1      3515 1.25923E-02 2.59652E-04-1.49652E-13
 -1      3516 1.23989E-02 2.73605E-04-1.44582E-13
 -1      3517 1.27340E-02 2.73612E-04-1.53019E-13
 -1      3518 1.28758E-02 2.87790E-04-1.56404E-13
 -1      3519 1.26807E-02 3.01523E-04-1.51272E-13
 -1      3520 1.30178E-02 3.02200E-04-1.59809E-13
 -1      3521 1.31598E-02 3.16827E-04-1.63233E-13
 -1      3522 1.29634E-02 3.30301E-04-1.58041E-13
 -1      3523 1.33020E-02 3.31675E-04-1.66671E-13
 -1      3524 1.34444E-02 3.46725E-04-1.70123E-13
 -1      3525 1.32469E-02 3.59924E-04-1.64883E-13
 -1      3526 4.21940E-03 2.76668E-04-2.01055E-14
 -1      3527 4.08068E-03 2.80238E-04-1.88112E-14
 -1      3528 3.94151E-03 2.84170E-04-1.75590E-14
 -1      3529 3.80179E-03 2.88376E-04-1.63491E-14
 -1      3530 3.99517E-03 2.49897E-04-1.82912E-14
 -1      3531 4.77016E-03 2.70834E-04-2.57080E-14
 -1      3532 4.63281E-03 2.70549E-04-2.42442E-14
 -1      3533 5.04532E-03 2.76805E-04-2.87601E-14
 -1      3534 4.90743E-03 2.72765E-04-2.72131E-14
 -1      3535 4.80537E-03 2.38834E-04-2.65776E-14
 -1      3536 5.32448E-03 2.92953E-04-3.19789E-14
 -1      3537 5.18392E-03 2.83207E-04-3.03484E-14
 -1      3538 5.07107E-03 2.44274E-04-2.96743E-14
 -1      3539 5.61437E-03 3.24720E-04-3.53614E-14
 -1      3540 5.46725E-03 3.06072E-04-3.36494E-14
 -1      3541 5.33873E-03 2.58181E-04-3.29348E-14
 -1      3542 9.16544E-03 6.97393E-04-7.27601E-14
 -1      3543 1.02845E-02 5.09421E-04-9.05149E-14
 -1      3544 1.01422E-02 5.05359E-04-8.76986E-14
 -1      3545 1.11114E-02 5.91119E-04-1.08127E-13
 -1      3546 1.09741E-02 5.73197E-04-1.05111E-13
 -1      3547 1.13870E-02 6.29752E-04-1.14250E-13
 -1      3548 1.12490E-02 6.10024E-04-1.11172E-13
 -1      3549 1.11864E-02 5.69261E-04-1.09791E-13
 -1      3550 1.16643E-02 6.70777E-04-1.20495E-13
 -1      3551 1.15254E-02 6.50033E-04-1.17359E-13
 -1      3552 1.14573E-02 6.08338E-04-1.15945E-13
 -1      3553 1.19434E-02 7.12946E-04-1.26849E-13
 -1      3554 1.18036E-02 6.91765E-04-1.23659E-13
 -1      3555 1.17312E-02 6.49144E-04-1.22216E-13
 -1      3556 1.22241E-02 7.55369E-04-1.33312E-13
 -1      3557 1.20836E-02 7.34156E-04-1.30067E-13
 -1      3558 1.20076E-02 6.90726E-04-1.28598E-13
 -1      3559 1.25060E-02 7.97452E-04-1.39879E-13
 -1      3560 1.23649E-02 7.76471E-04-1.36584E-13
 -1      3561 1.22862E-02 7.32385E-04-1.35088E-13
 -1      3562 1.27890E-02 8.38835E-04-1.46532E-13
 -1      3563 1.26474E-02 8.18240E-04-1.43196E-13
 -1      3564 1.25666E-02 7.73651E-04-1.41676E-13
 -1      3565 1.30728E-02 8.79329E-04-1.53263E-13
 -1      3566 1.29308E-02 8.59195E-04-1.49888E-13
 -1      3567 1.28484E-02 8.14237E-04-1.48348E-13
 -1      3568 1.33571E-02 9.18870E-04-1.60057E-13
 -1      3569 1.32149E-02 8.99217E-04-1.56652E-13
 -1      3570 1.31313E-02 8.54000E-04-1.55094E-13
 -1      3571 1.36419E-02 9.57473E-04-1.66907E-13
 -1      3572 1.34995E-02 9.38282E-04-1.63476E-13
 -1      3573 1.34150E-02 8.92893E-04-1.61902E-13
 -1      3574 1.39270E-02 9.95211E-04-1.73801E-13
 -1      3575 1.37845E-02 9.76446E-04-1.70348E-13
 -1      3576 1.36994E-02 9.30947E-04-1.68764E-13
 -1      3577 1.38112E-02 6.11483E-04-1.76081E-13
 -1      3578 1.38281E-02 6.51910E-04-1.75969E-13
 -1      3579 1.42209E-02 9.98197E-04-1.81438E-13
 -1      3580 1.42409E-02 1.03381E-03-1.81460E-13
 -1      3581 1.41540E-02 1.02563E-03-1.79301E-13
 -1      3582 1.40894E-02 9.61966E-04-1.78507E-13
 -1      3583 1.13216E-03-1.66832E-04-1.89254E-15
 -1      3584 1.13732E-03-1.97703E-04-1.87471E-15
 -1      3585 1.21603E-03-2.15653E-04-2.09498E-15
 -1      3586 1.37770E-02 5.30446E-04-1.76292E-13
 -1      3587 1.37941E-02 5.71007E-04-1.76190E-13
 -1      3588 1.36800E-02 5.76998E-04-1.73135E-13
 -1      3589 1.01240E-02 3.42060E-04-8.34762E-14
 -1      3590 1.01854E-02 3.20458E-04-8.41580E-14
 -1      3591 1.35829E-03-2.29504E-04-2.54628E-15
 -1      3592 8.84261E-03 8.25188E-04-6.87277E-14
 -1      3593 9.03579E-03 7.19671E-04-7.06875E-14
 -1      3594 9.88153E-03 1.65604E-04-8.26702E-14
 -1      3595 9.71836E-03 1.05701E-04-8.14433E-14
 -1      3596 5.93786E-03 3.32969E-04-4.05908E-14
 -1      3597 5.95340E-03 3.87235E-04-3.92600E-14
 -1      3598 1.08371E-02 5.56555E-04-1.02126E-13
 -1      3599 1.06999E-02 5.41492E-04-9.91731E-14
 -1      3600 1.09184E-02 5.33144E-04-1.03759E-13
 -1      3601 1.05625E-02 5.28275E-04-9.62526E-14
 -1      3602 1.04241E-02 5.17544E-04-9.33659E-14
 -1      3603 1.06527E-02 5.01497E-04-9.78514E-14
 -1      3604 4.49541E-03 2.71598E-04-2.28226E-14
 -1      3605 4.35758E-03 2.73742E-04-2.14426E-14
 -1      3606 4.26831E-03 2.43352E-04-2.08848E-14
 -1      3607 4.53825E-03 2.39158E-04-2.36473E-14
 -1      3608 1.00092E-02 4.98554E-04-8.50359E-14
 -1      3609 9.85964E-03 5.04418E-04-8.22937E-14
 -1      3610 9.87975E-03 4.40192E-04-8.12975E-14
 -1      3611 1.01292E-02 4.55345E-04-8.65609E-14
 -1      3612 8.68603E-03 9.38288E-04-6.73460E-14
 -1      3613 5.79215E-03 3.51216E-04-3.74605E-14
 -1      3614 8.53331E-03 1.02889E-03-6.55944E-14
 -1      3615 1.57357E-03-2.50589E-04-3.30323E-15
 -1      3616 1.71699E-03-2.59390E-04-3.86597E-15
 -1      3617 1.78234E-03-2.29664E-04-4.19032E-15
 -1      3618 3.09662E-03 3.07666E-04-1.09396E-14
 -1      3619 2.95443E-03 3.10345E-04-9.98660E-15
 -1      3620 1.01097E-02 2.47676E-04-8.35179E-14
 -1      3621 1.00244E-02 2.19029E-04-8.32795E-14
 -1      3622 5.82796E-03 2.96234E-04-3.97336E-14
 -1      3623 8.74381E-03-3.83792E-04-7.25970E-14
 -1      3624 7.37980E-03-7.87796E-04-5.45313E-14
 -1      3625 7.27371E-03-7.71661E-04-5.31778E-14
 -1      3626 1.37424E-02 4.48976E-04-1.76483E-13
 -1      3627 1.37597E-02 4.89778E-04-1.76391E-13
 -1      3628 1.36455E-02 4.96267E-04-1.73337E-13
 -1      3629 5.62363E-03 2.18040E-04-3.88958E-14
 -1      3630 5.72325E-03 2.53547E-04-3.93151E-14
 -1      3631 5.70688E-03 2.69753E-04-3.84185E-14
 -1      3632 1.00045E-02 3.92212E-04-8.24790E-14
 -1      3633 8.93056E-03-3.07346E-04-7.51971E-14
 -1      3634 9.92187E-04-3.44418E-05-1.55709E-15
 -1      3635 9.93304E-04-6.00188E-05-1.55800E-15
 -1      3636 1.06893E-03-7.13243E-05-1.76500E-15
 -1      3637 1.11166E-03-2.35103E-05-1.89135E-15
 -1      3638 9.46232E-03-1.76565E-05-7.98696E-14
 -1      3639 9.28907E-03-1.08624E-04-7.85756E-14
 -1      3640 5.63832E-03 2.86254E-04-3.67002E-14
 -1      3641 9.12572E-03-2.04064E-04-7.72839E-14
 -1      3642 1.27729E-03 2.15382E-04-2.15810E-15
 -1      3643 1.02627E-02 2.82725E-04-8.65350E-14
 -1      3644 1.01930E-02 2.66187E-04-8.50237E-14
 -1      3645 1.02162E-02 2.57527E-04-8.66415E-14
 -1      3646 2.87513E-03 2.76555E-04-9.61598E-15
 -1      3647 2.81196E-03 3.12325E-04-9.07752E-15
 -1      3648 2.66920E-03 3.13546E-04-8.21275E-15
 -1      3649 7.19184E-03-7.72169E-04-5.21153E-14
 -1      3650 2.46252E-03 3.49069E-04-6.91054E-15
 -1      3651 1.35476E-02 3.50498E-04-1.72730E-13
 -1      3652 1.36706E-02 3.61094E-04-1.75767E-13
 -1      3653 1.36983E-02 3.86757E-04-1.76153E-13
 -1      3654 1.34919E-02 3.78894E-04-1.70928E-13
 -1      3655 1.95252E-03 3.03060E-04-4.53964E-15
 -1      3656 1.80888E-03 2.96580E-04-3.93557E-15
 -1      3657 3.71893E-03 2.57514E-04-1.58664E-14
 -1      3658 3.66164E-03 2.92614E-04-1.51815E-14
 -1      3659 3.52098E-03 2.96819E-04-1.40565E-14
 -1      3660 1.14338E-03 1.44044E-04-1.86153E-15
 -1      3661 1.12482E-03-1.07773E-04-1.91368E-15
 -1      3662 1.12804E-03-1.36915E-04-1.90508E-15
 -1      3663 1.20551E-03-1.51958E-04-2.13054E-15
 -1      3664 1.03872E-02 4.76333E-04-9.20787E-14
 -1      3665 3.37993E-03 3.00787E-04-1.29743E-14
 -1      3666 3.23844E-03 3.04463E-04-1.19354E-14
 -1      3667 3.15852E-03 2.71747E-04-1.15272E-14
 -1      3668 3.43992E-03 2.65113E-04-1.36110E-14
 -1      3669 1.25989E-03 1.06595E-04-2.26609E-15
 -1      3670 1.25742E-03 7.61848E-05-2.28874E-15
 -1      3671 1.37137E-02 6.57165E-04-1.72912E-13
 -1      3672 1.38447E-02 6.92053E-04-1.75852E-13
 -1      3673 1.38611E-02 7.32211E-04-1.75728E-13
 -1      3674 1.02883E-02 3.35337E-04-8.72213E-14
 -1      3675 1.02403E-02 3.12467E-04-8.54290E-14
 -1      3676 1.02846E-02 3.06622E-04-8.67061E-14
 -1      3677 1.40672E-02 1.01736E-03-1.77146E-13
 -1      3678 5.42338E-03 2.77954E-05-3.75824E-14
 -1      3679 5.33508E-03 3.58378E-05-3.65290E-14
 -1      3680 1.39816E-02 9.71780E-04-1.75553E-13
 -1      3681 5.25503E-03 7.33831E-05-3.61730E-14
 -1      3682 5.27433E-03 9.22775E-05-3.69095E-14
 -1      3683 5.24522E-03 9.85634E-05-3.63500E-14
 -1      3684 1.00019E-02 1.92866E-04-8.45120E-14
 -1      3685 9.98299E-03 1.62164E-04-8.57455E-14
 -1      3686 1.01115E-02 2.14037E-04-8.63678E-14
 -1      3687 5.80522E-03-1.24676E-04-3.96922E-14
 -1      3688 5.68037E-03-6.66534E-05-3.90530E-14
 -1      3689 1.25576E-03 4.60390E-05-2.30676E-15
 -1      3690 1.25492E-03 1.61445E-05-2.32079E-15
 -1      3691 1.37836E-03 6.44191E-05-2.70216E-15
 -1      3692 5.33832E-03 1.34725E-04-3.73460E-14
 -1      3693 5.34635E-03 1.49197E-04-3.66792E-14
 -1      3694 5.27510E-03 1.23895E-04-3.64233E-14
 -1      3695 2.23963E-03 3.11144E-04-5.87826E-15
 -1      3696 2.09611E-03 3.07879E-04-5.18705E-15
 -1      3697 2.01700E-03 2.71072E-04-4.92400E-15
 -1      3698 1.01274E-02 3.87458E-04-8.49291E-14
 -1      3699 1.42391E-03-2.04697E-04-2.81006E-15
 -1      3700 9.61963E-03 2.26657E-05-8.22980E-14
 -1      3701 1.39495E-02 9.40081E-04-1.75157E-13
 -1      3702 5.80591E-03-1.81735E-04-3.88801E-14
 -1      3703 1.39196E-02 8.96732E-04-1.74983E-13
 -1      3704 1.38120E-02 9.06343E-04-1.72040E-13
 -1      3705 1.39036E-02 8.55975E-04-1.75130E-13
 -1      3706 5.51455E-03 1.95095E-04-3.78066E-14
 -1      3707 5.54952E-03 2.51100E-04-3.63032E-14
 -1      3708 1.37260E-02 4.12384E-04-1.76537E-13
 -1      3709 5.52755E-03-5.79758E-06-3.82207E-14
 -1      3710 1.36116E-02 4.19324E-04-1.73486E-13
 -1      3711 2.27871E-03-2.08495E-04-6.61240E-15
 -1      3712 2.42189E-03-2.09466E-04-7.39663E-15
 -1      3713 2.56481E-03-2.09601E-04-8.22436E-15
 -1      3714 2.70740E-03-2.08941E-04-9.09507E-15
 -1      3715 2.48790E-03-1.75175E-04-7.82053E-15
 -1      3716 2.84960E-03-2.07625E-04-1.00091E-14
 -1      3717 2.99138E-03-2.05680E-04-1.09665E-14
 -1      3718 2.77260E-03-1.73962E-04-9.56155E-15
 -1      3719 3.13266E-03-2.03233E-04-1.19665E-14
 -1      3720 3.27346E-03-2.00298E-04-1.30092E-14
 -1      3721 3.05540E-03-1.70459E-04-1.14743E-14
 -1      3722 3.41370E-03-1.96997E-04-1.40942E-14
 -1      3723 3.55341E-03-1.93337E-04-1.52213E-14
 -1      3724 3.33585E-03-1.65132E-04-1.35574E-14
 -1      3725 3.69254E-03-1.89438E-04-1.63913E-14
 -1      3726 3.83116E-03-1.85314E-04-1.76030E-14
 -1      3727 3.61363E-03-1.58379E-04-1.58104E-14
 -1      3728 3.96923E-03-1.81085E-04-1.88569E-14
 -1      3729 4.10688E-03-1.76781E-04-2.01527E-14
 -1      3730 3.88857E-03-1.50562E-04-1.82320E-14
 -1      3731 4.24408E-03-1.72521E-04-2.14888E-14
 -1      3732 4.38108E-03-1.68379E-04-2.28661E-14
 -1      3733 4.16071E-03-1.42041E-04-2.08207E-14
 -1      3734 4.51789E-03-1.64467E-04-2.42853E-14
 -1      3735 4.65491E-03-1.60960E-04-2.57463E-14
 -1      3736 4.43044E-03-1.33218E-04-2.35739E-14
 -1      3737 4.79221E-03-1.57946E-04-2.72483E-14
 -1      3738 4.93044E-03-1.55819E-04-2.87908E-14
 -1      3739 4.69871E-03-1.24646E-04-2.64929E-14
 -1      3740 5.06979E-03-1.54617E-04-3.03737E-14
 -1      3741 5.21130E-03-1.55214E-04-3.19981E-14
 -1      3742 4.96743E-03-1.17263E-04-2.95762E-14
 -1      3743 5.35538E-03-1.57561E-04-3.36628E-14
 -1      3744 5.50357E-03-1.63591E-04-3.53678E-14
 -1      3745 5.24021E-03-1.12934E-04-3.28210E-14
 -1      3746 5.64727E-03-1.65628E-04-3.70960E-14
 -1      3747 4.04799E-03 2.17002E-04-1.90272E-14
 -1      3748 3.91229E-03 2.20225E-04-1.77703E-14
 -1      3749 9.77185E-03 5.13785E-05-8.50448E-14
 -1      3750 1.42595E-03 2.22460E-04-2.64117E-15
 -1      3751 1.29559E-03 1.82055E-04-2.27640E-15
 -1      3752 1.35086E-02 4.15272E-04-1.70878E-13
 -1      3753 1.01418E-02 7.66901E-05-9.31983E-14
 -1      3754 1.02830E-02 9.46694E-05-9.60819E-14
 -1      3755 1.04219E-02 1.10824E-04-9.89994E-14
 -1      3756 1.05598E-02 1.26065E-04-1.01947E-13
 -1      3757 1.03991E-02 1.40171E-04-9.74806E-14
 -1      3758 1.06966E-02 1.40433E-04-1.04927E-13
 -1      3759 1.08331E-02 1.54322E-04-1.07938E-13
 -1      3760 1.06669E-02 1.67453E-04-1.03376E-13
 -1      3761 1.09693E-02 1.67806E-04-1.10977E-13
 -1      3762 1.11056E-02 1.81053E-04-1.14046E-13
 -1      3763 1.09340E-02 1.93598E-04-1.09392E-13
 -1      3764 1.12421E-02 1.94154E-04-1.17144E-13
 -1      3765 1.13789E-02 2.07178E-04-1.20269E-13
 -1      3766 1.12022E-02 2.19471E-04-1.15528E-13
 -1      3767 1.15160E-02 2.20214E-04-1.23420E-13
 -1      3768 1.16535E-02 2.33283E-04-1.26597E-13
 -1      3769 1.14724E-02 2.45525E-04-1.21775E-13
 -1      3770 1.17914E-02 2.46464E-04-1.29798E-13
 -1      3771 1.19298E-02 2.59755E-04-1.33026E-13
 -1      3772 1.17448E-02 2.72038E-04-1.28128E-13
 -1      3773 1.20686E-02 2.73219E-04-1.36281E-13
 -1      3774 1.22079E-02 2.86841E-04-1.39559E-13
 -1      3775 1.20196E-02 2.99187E-04-1.34584E-13
 -1      3776 1.23475E-02 3.00668E-04-1.42860E-13
 -1      3777 1.24875E-02 3.14680E-04-1.46182E-13
 -1      3778 1.22965E-02 3.27073E-04-1.41139E-13
 -1      3779 1.26278E-02 3.28910E-04-1.49526E-13
 -1      3780 1.27685E-02 3.43334E-04-1.52891E-13
 -1      3781 1.25753E-02 3.55738E-04-1.47783E-13
 -1      3782 1.29094E-02 3.57972E-04-1.56276E-13
 -1      3783 1.30507E-02 3.72803E-04-1.59678E-13
 -1      3784 1.28558E-02 3.85181E-04-1.54509E-13
 -1      3785 1.31921E-02 3.87834E-04-1.63097E-13
 -1      3786 1.33338E-02 4.03042E-04-1.66532E-13
 -1      3787 1.31375E-02 4.15367E-04-1.61314E-13
 -1      3788 1.02367E-02 4.01977E-04-8.75914E-14
 -1      3789 1.99189E-03-2.03525E-04-5.17430E-15
 -1      3790 2.13535E-03-2.06538E-04-5.87151E-15
 -1      3791 2.20186E-03-1.73536E-04-6.25234E-15
 -1      3792 5.09304E-03 2.13634E-04-3.05905E-14
 -1      3793 4.96589E-03 2.10485E-04-2.90001E-14
 -1      3794 4.83829E-03 2.08686E-04-2.74509E-14
 -1      3795 4.70938E-03 2.08108E-04-2.59423E-14
 -1      3796 4.86927E-03 1.80416E-04-2.83263E-14
 -1      3797 1.15246E-02 5.87895E-04-1.17643E-13
 -1      3798 1.13905E-02 5.68179E-04-1.14534E-13
 -1      3799 1.12574E-02 5.48951E-04-1.11458E-13
 -1      3800 1.11253E-02 5.30201E-04-1.08412E-13
 -1      3801 1.13245E-02 5.29581E-04-1.13128E-13
 -1      3802 1.20700E-02 6.68875E-04-1.30349E-13
 -1      3803 1.19325E-02 6.48448E-04-1.27132E-13
 -1      3804 1.23471E-02 7.09618E-04-1.36864E-13
 -1      3805 1.22082E-02 6.89262E-04-1.33594E-13
 -1      3806 1.21309E-02 6.47139E-04-1.32102E-13
 -1      3807 1.26263E-02 7.49967E-04-1.43471E-13
 -1      3808 1.24864E-02 7.29849E-04-1.40156E-13
 -1      3809 1.24068E-02 6.86875E-04-1.38639E-13
 -1      3810 1.29072E-02 7.89694E-04-1.50163E-13
 -1      3811 1.27665E-02 7.69910E-04-1.46809E-13
 -1      3812 1.26851E-02 7.26256E-04-1.45268E-13
 -1      3813 1.31894E-02 8.28685E-04-1.56923E-13
 -1      3814 1.30481E-02 8.09281E-04-1.53533E-13
 -1      3815 1.29653E-02 7.65096E-04-1.51975E-13
 -1      3816 1.34726E-02 8.66908E-04-1.63748E-13
 -1      3817 1.33309E-02 8.47892E-04-1.60328E-13
 -1      3818 1.32471E-02 8.03302E-04-1.58754E-13
 -1      3819 1.36699E-02 8.87782E-04-1.68593E-13
 -1      3820 1.03580E-02 4.28304E-04-9.06933E-14
 -1      3821 1.03322E-02 3.70590E-04-8.90171E-14
 -1      3822 5.25339E-03 1.80743E-05-3.49743E-14
 -1      3823 5.22756E-03 4.62836E-05-3.51694E-14
 -1      3824 1.09945E-02 5.12189E-04-1.05395E-13
 -1      3825 1.08647E-02 4.94920E-04-1.02410E-13
 -1      3826 1.10653E-02 4.92862E-04-1.07033E-13
 -1      3827 1.38774E-02 7.72406E-04-1.75600E-13
 -1      3828 1.38936E-02 8.12677E-04-1.75469E-13
 -1      3829 1.37466E-02 7.37043E-04-1.72668E-13
 -1      3830 1.07361E-02 4.78654E-04-9.94540E-14
 -1      3831 1.06083E-02 4.63417E-04-9.65326E-14
 -1      3832 1.08124E-02 4.58521E-04-1.01060E-13
 -1      3833 1.29087E-03 1.49667E-04-2.31125E-15
 -1      3834 1.41141E-03 1.40792E-04-2.73069E-15
 -1      3835 5.50541E-03-4.57013E-05-3.71388E-14
 -1      3836 1.41837E-03-1.70594E-04-2.82840E-15
 -1      3837 1.63295E-03-1.86388E-04-3.62491E-15
 -1      3838 1.41394E-03-1.37220E-04-2.84081E-15
 -1      3839 5.51432E-03-1.09330E-04-3.62084E-14
 -1      3840 5.39941E-03 1.77088E-04-3.64020E-14
 -1      3841 5.48269E-03 2.08889E-04-3.65997E-14
 -1      3842 5.41822E-03 2.27678E-04-3.49259E-14
 -1      3843 5.31226E-03 1.60643E-04-3.54963E-14
 -1      3844 1.37726E-02 8.20082E-04-1.72204E-13
 -1      3845 1.17957E-02 6.28116E-04-1.23940E-13
 -1      3846 1.16597E-02 6.07872E-04-1.20777E-13
 -1      3847 1.15890E-02 5.67975E-04-1.19339E-13
 -1      3848 1.35140E-02 4.62341E-04-1.70386E-13
 -1      3849 1.35315E-02 5.02626E-04-1.70291E-13
 -1      3850 1.69274E-03 2.95686E-04-3.46390E-15
 -1      3851 1.56751E-03 2.90648E-04-2.99516E-15
 -1      3852 1.52488E-03 2.62573E-04-2.90698E-15
 -1      3853 1.75713E-03 2.66202E-04-3.80120E-15
 -1      3854 2.52622E-03 3.13827E-04-7.39109E-15
 -1      3855 2.38300E-03 3.13093E-04-6.61282E-15
 -1      3856 2.59014E-03 2.78683E-04-7.87849E-15
 -1      3857 5.31910E-03 2.22365E-04-3.35610E-14
 -1      3858 5.19246E-03 2.16145E-04-3.18976E-14
 -1      3859 5.08635E-03 1.83249E-04-3.11884E-14
 -1      3860 5.27193E-03 1.87243E-04-3.38479E-14
 -1      3861 1.74061E-03-1.93204E-04-4.06047E-15
 -1      3862 1.88397E-03-1.98314E-04-4.68144E-15
 -1      3863 1.95079E-03-1.67070E-04-5.02307E-15
 -1      3864 1.73544E-03-1.56784E-04-4.07627E-15
 -1      3865 1.35489E-02 5.42767E-04-1.70192E-13
 -1      3866 1.35660E-02 5.82805E-04-1.70088E-13
 -1      3867 1.34178E-02 5.08812E-04-1.67256E-13
 -1      3868 9.94753E-03 1.19987E-04-8.67880E-14
 -1      3869 9.88136E-03 4.38563E-05-8.79513E-14
 -1      3870 1.00277E-02 6.59826E-05-9.07713E-14
 -1      3871 1.00717E-02 1.50094E-04-8.86706E-14
 -1      3872 1.35852E-02 8.42878E-04-1.67004E-13
 -1      3873 5.38222E-03-5.33548E-05-3.54183E-14
 -1      3874 1.03323E-02 3.01834E-04-8.83457E-14
 -1      3875 2.93840E-03 2.41196E-04-1.01603E-14
 -1      3876 2.79662E-03 2.42791E-04-9.24465E-15
 -1      3877 3.77563E-03 2.23562E-04-1.65554E-14
 -1      3878 3.63801E-03 2.27006E-04-1.53826E-14
 -1      3879 3.83196E-03 1.90828E-04-1.72488E-14
 -1      3880 4.18257E-03 2.14133E-04-2.03265E-14
 -1      3881 4.10028E-03 1.85547E-04-1.97673E-14
 -1      3882 4.31610E-03 2.11617E-04-2.16673E-14
 -1      3883 1.54184E-03 2.25447E-04-3.05234E-15
 -1      3884 1.33946E-02 4.22111E-04-1.67842E-13
 -1      3885 2.30394E-03 2.77205E-04-6.31472E-15
 -1      3886 1.01553E-02 1.17555E-04-9.21386E-14
 -1      3887 1.16601E-03-5.83505E-05-2.05389E-15
 -1      3888 1.14511E-03-8.32031E-05-1.98493E-15
 -1      3889 1.22182E-03-9.56200E-05-2.21709E-15
 -1      3890 1.04827E-02 4.41084E-04-9.35445E-14
 -1      3891 1.35829E-02 6.22514E-04-1.69979E-13
 -1      3892 1.35995E-02 6.62201E-04-1.69864E-13
 -1      3893 1.34522E-02 5.88136E-04-1.67050E-13
 -1      3894 1.05657E-02 4.19566E-04-9.51137E-14
 -1      3895 3.22029E-03 2.36484E-04-1.21208E-14
 -1      3896 3.07963E-03 2.39083E-04-1.11192E-14
 -1      3897 3.00181E-03 2.06342E-04-1.07110E-14
 -1      3898 5.24788E-03-7.14978E-05-3.34561E-14
 -1      3899 5.25375E-03-1.75514E-05-3.43475E-14
 -1      3900 5.13562E-03-2.77523E-06-3.30322E-14
 -1      3901 5.11631E-03-7.52931E-05-3.17999E-14
 -1      3902 1.03949E-02 3.60472E-04-9.03221E-14
 -1      3903 5.17832E-03 9.21189E-05-3.49862E-14
 -1      3904 5.22046E-03 1.08068E-04-3.57038E-14
 -1      3905 5.20519E-03 1.18866E-04-3.50579E-14
 -1      3906 1.50197E-03 8.40364E-05-3.12700E-15
 -1      3907 1.50003E-03 5.08055E-05-3.14963E-15
 -1      3908 5.17900E-03 5.70671E-05-3.46300E-14
 -1      3909 1.02151E-02 2.39575E-04-8.79008E-14
 -1      3910 1.02118E-02 2.17332E-04-8.91609E-14
 -1      3911 1.03067E-02 2.61089E-04-8.94399E-14
 -1      3912 1.37555E-03 7.52860E-07-2.73041E-15
 -1      3913 1.25392E-03-1.41295E-05-2.32748E-15
 -1      3914 1.35758E-02 8.00105E-04-1.67344E-13
 -1      3915 1.33793E-02 7.79798E-04-1.62506E-13
 -1      3916 1.35661E-02 7.57484E-04-1.67678E-13
 -1      3917 2.08216E-03 2.38751E-04-5.31702E-15
 -1      3918 1.93867E-03 2.34731E-04-4.66126E-15
 -1      3919 4.57955E-03 2.08465E-04-2.44754E-14
 -1      3920 4.44837E-03 2.09731E-04-2.30504E-14
 -1      3921 4.36312E-03 1.81517E-04-2.24539E-14
 -1      3922 1.53613E-03 1.76927E-04-3.12422E-15
 -1      3923 1.50372E-03 1.30041E-04-3.07733E-15
 -1      3924 1.62518E-03 1.17363E-04-3.55822E-15
 -1      3925 1.63366E-03 2.14734E-04-3.42429E-15
 -1      3926 1.23193E-03-4.04063E-05-2.26020E-15
 -1      3927 1.18581E-02 6.07356E-04-1.25666E-13
 -1      3928 1.74987E-03 2.14833E-04-3.89119E-15
 -1      3929 1.81625E-03 1.84903E-04-4.23283E-15
 -1      3930 4.61968E-03 1.79557E-04-2.53069E-14
 -1      3931 2.65440E-03 2.43704E-04-8.37335E-15
 -1      3932 2.51175E-03 2.43896E-04-7.54441E-15
 -1      3933 2.71896E-03 2.08988E-04-8.87437E-15
 -1      3934 1.81213E-03 1.34680E-04-4.30412E-15
 -1      3935 1.81007E-03 8.51475E-05-4.36360E-15
 -1      3936 1.99973E-03 1.51366E-04-5.11978E-15
 -1      3937 2.69661E-03-1.40364E-04-9.11795E-15
 -1      3938 2.83826E-03-1.39261E-04-1.00306E-14
 -1      3939 2.97933E-03-1.37718E-04-1.09859E-14
 -1      3940 3.11976E-03-1.35721E-04-1.19842E-14
 -1      3941 2.90441E-03-1.04917E-04-1.05025E-14
 -1      3942 3.25947E-03-1.33368E-04-1.30249E-14
 -1      3943 3.39843E-03-1.30628E-04-1.41078E-14
 -1      3944 3.18449E-03-1.01546E-04-1.24963E-14
 -1      3945 3.53657E-03-1.27597E-04-1.52334E-14
 -1      3946 3.67387E-03-1.24231E-04-1.64007E-14
 -1      3947 3.46128E-03-9.68586E-05-1.46603E-14
 -1      3948 3.81027E-03-1.20628E-04-1.76106E-14
 -1      3949 3.94579E-03-1.16736E-04-1.88627E-14
 -1      3950 3.73425E-03-9.09600E-05-1.69932E-14
 -1      3951 4.08034E-03-1.12650E-04-2.01560E-14
 -1      3952 4.21404E-03-1.08311E-04-2.14904E-14
 -1      3953 4.00295E-03-8.39048E-05-1.94944E-14
 -1      3954 4.34677E-03-1.03811E-04-2.28656E-14
 -1      3955 4.47878E-03-9.91129E-05-2.42829E-14
 -1      3956 4.26702E-03-7.56552E-05-2.21613E-14
 -1      3957 4.60991E-03-9.43027E-05-2.57410E-14
 -1      3958 4.74063E-03-8.94009E-05-2.72408E-14
 -1      3959 4.52627E-03-6.61295E-05-2.49925E-14
 -1      3960 4.86331E-03-8.45665E-05-2.86938E-14
 -1      3961 4.99362E-03-7.97880E-05-3.02726E-14
 -1      3962 5.00992E-03-4.36865E-05-3.08769E-14
 -1      3963 4.77362E-03-5.54317E-05-2.79023E-14
 -1      3964 1.05088E-02 3.74603E-04-9.33131E-14
 -1      3965 1.04467E-02 3.40914E-04-9.14772E-14
 -1      3966 1.03798E-02 1.68518E-04-9.59661E-14
 -1      3967 1.05097E-02 1.81055E-04-9.88807E-14
 -1      3968 1.06393E-02 1.93407E-04-1.01825E-13
 -1      3969 1.07695E-02 2.05819E-04-1.04803E-13
 -1      3970 1.06135E-02 2.18283E-04-1.00279E-13
 -1      3971 1.09000E-02 2.18329E-04-1.07810E-13
 -1      3972 1.10312E-02 2.30951E-04-1.10847E-13
 -1      3973 1.08669E-02 2.41956E-04-1.06230E-13
 -1      3974 1.11631E-02 2.43756E-04-1.13913E-13
 -1      3975 1.12958E-02 2.56701E-04-1.17009E-13
 -1      3976 1.11246E-02 2.66974E-04-1.12303E-13
 -1      3977 1.14293E-02 2.69860E-04-1.20131E-13
 -1      3978 1.15636E-02 2.83175E-04-1.23281E-13
 -1      3979 1.13866E-02 2.93189E-04-1.18489E-13
 -1      3980 1.16986E-02 2.96714E-04-1.26458E-13
 -1      3981 1.18344E-02 3.10420E-04-1.29659E-13
 -1      3982 1.16526E-02 3.20464E-04-1.24787E-13
 -1      3983 1.19709E-02 3.24350E-04-1.32888E-13
 -1      3984 1.21080E-02 3.38453E-04-1.36142E-13
 -1      3985 1.19223E-02 3.48681E-04-1.31193E-13
 -1      3986 1.22458E-02 3.52773E-04-1.39419E-13
 -1      3987 1.23841E-02 3.67267E-04-1.42719E-13
 -1      3988 1.21952E-02 3.77744E-04-1.37700E-13
 -1      3989 1.25230E-02 3.81966E-04-1.46041E-13
 -1      3990 1.26624E-02 3.96833E-04-1.49383E-13
 -1      3991 1.24709E-02 4.07568E-04-1.44299E-13
 -1      3992 1.28023E-02 4.11890E-04-1.52746E-13
 -1      3993 1.29425E-02 4.27107E-04-1.56129E-13
 -1      3994 1.27489E-02 4.38075E-04-1.50984E-13
 -1      3995 4.89985E-03 1.54544E-04-2.92045E-14
 -1      3996 4.78103E-03 1.53388E-04-2.76524E-14
 -1      3997 1.11311E-02 4.74788E-04-1.08671E-13
 -1      3998 1.10054E-02 4.57362E-04-1.05654E-13
 -1      3999 1.13878E-02 5.10897E-04-1.14799E-13
 -1      4000 1.12586E-02 4.92580E-04-1.11721E-13
 -1      4001 1.11923E-02 4.57169E-04-1.10314E-13
 -1      4002 1.27431E-02 7.02469E-04-1.47063E-13
 -1      4003 1.26039E-02 6.83318E-04-1.43728E-13
 -1      4004 3.49955E-03 2.30345E-04-1.42528E-14
 -1      4005 3.36027E-03 2.33565E-04-1.31652E-14
 -1      4006 3.28203E-03 2.01972E-04-1.27194E-14
 -1      4007 3.55897E-03 1.96565E-04-1.48992E-14
 -1      4008 1.24654E-02 6.64093E-04-1.40415E-13
 -1      4009 1.23274E-02 6.44770E-04-1.37125E-13
 -1      4010 1.25230E-02 6.41118E-04-1.42192E-13
 -1      4011 1.21902E-02 6.25432E-04-1.33856E-13
 -1      4012 1.20538E-02 6.06051E-04-1.30612E-13
 -1      4013 1.22482E-02 6.03549E-04-1.35611E-13
 -1      4014 1.30230E-02 7.40405E-04-1.53788E-13
 -1      4015 1.28828E-02 7.21492E-04-1.50418E-13
 -1      4016 1.28004E-02 6.78491E-04-1.48857E-13
 -1      4017 1.32713E-02 7.69558E-04-1.59838E-13
 -1      4018 1.31305E-02 7.50916E-04-1.56436E-13
 -1      4019 1.30472E-02 7.07384E-04-1.54862E-13
 -1      4020 1.32622E-02 7.27662E-04-1.60171E-13
 -1      4021 5.08739E-03 4.45518E-05-3.30357E-14
 -1      4022 5.13019E-03 6.99974E-05-3.40080E-14
 -1      4023 5.09086E-03 8.14880E-05-3.33869E-14
 -1      4024 1.49807E-03 1.72672E-05-3.16397E-15
 -1      4025 1.49707E-03-1.61941E-05-3.17284E-15
 -1      4026 1.62136E-03 3.50601E-05-3.62716E-15
 -1      4027 1.35749E-02 6.90077E-04-1.68837E-13
 -1      4028 1.35911E-02 7.29730E-04-1.68713E-13
 -1      4029 1.33950E-02 7.10254E-04-1.63869E-13
 -1      4030 1.34445E-02 6.55249E-04-1.65920E-13
 -1      4031 1.08819E-02 4.40619E-04-1.02667E-13
 -1      4032 1.07605E-02 4.24286E-04-9.97120E-14
 -1      4033 1.09450E-02 4.23695E-04-1.04277E-13
 -1      4034 1.01733E-02 1.56185E-04-9.10786E-14
 -1      4035 1.02763E-02 1.62346E-04-9.35091E-14
 -1      4036 1.03887E-02 2.01672E-04-9.48804E-14
 -1      4037 1.01947E-02 1.92239E-04-9.00122E-14
 -1      4038 2.18926E-03 2.31432E-04-5.86019E-15
 -1      4039 2.11187E-03 1.96103E-04-5.56476E-15
 -1      4040 2.10721E-03 1.43933E-04-5.64924E-15
 -1      4041 2.33251E-03 2.33288E-04-6.59353E-15
 -1      4042 2.12595E-03-1.38994E-04-5.89635E-15
 -1      4043 2.26904E-03-1.40308E-04-6.63688E-15
 -1      4044 1.43377E-03-1.08631E-04-2.92908E-15
 -1      4045 5.21305E-03 1.36463E-04-3.45945E-14
 -1      4046 5.24857E-03 1.61143E-04-3.43253E-14
 -1      4047 5.16309E-03 1.59558E-04-3.29753E-14
 -1      4048 5.14565E-03 1.18800E-04-3.38979E-14
 -1      4049 1.16505E-02 5.48405E-04-1.21040E-13
 -1      4050 1.15184E-02 5.29477E-04-1.17904E-13
 -1      4051 1.14477E-02 4.92367E-04-1.16471E-13
 -1      4052 4.65984E-03 1.52672E-04-2.61413E-14
 -1      4053 4.53608E-03 1.52705E-04-2.46715E-14
 -1      4054 4.70068E-03 1.27802E-04-2.69788E-14
 -1      4055 1.06245E-02 3.96437E-04-9.63002E-14
 -1      4056 2.41192E-03-1.40942E-04-7.42084E-15
 -1      4057 2.55448E-03-1.40925E-04-8.24762E-15
 -1      4058 2.33688E-03-1.06910E-04-7.02600E-15
 -1      4059 1.04094E-02 3.13910E-04-9.05535E-14
 -1      4060 1.03784E-02 2.87683E-04-9.03759E-14
 -1      4061 1.03947E-02 2.72767E-04-9.16614E-14
 -1      4062 1.05155E-02 3.26751E-04-9.35451E-14
 -1      4063 1.19183E-02 5.86744E-04-1.27395E-13
 -1      4064 1.17839E-02 5.67476E-04-1.24203E-13
 -1      4065 1.19768E-02 5.66004E-04-1.29125E-13
 -1      4066 5.02548E-03-1.01501E-05-3.14792E-14
 -1      4067 5.04132E-03 2.08519E-05-3.20766E-14
 -1      4068 4.91318E-03-1.71908E-05-2.99605E-14
 -1      4069 2.01833E-03-1.35340E-04-5.36984E-15
 -1      4070 2.08657E-03-1.03157E-04-5.72152E-15
 -1      4071 1.91072E-03-1.31286E-04-4.86754E-15
 -1      4072 2.62164E-03-1.06794E-04-8.67873E-15
 -1      4073 1.17096E-02 5.28805E-04-1.22742E-13
 -1      4074 2.39809E-03 1.99479E-04-7.03776E-15
 -1      4075 1.06879E-02 3.80380E-04-9.78724E-14
 -1      4076 1.33395E-02 4.49743E-04-1.66044E-13
 -1      4077 1.30831E-02 4.42495E-04-1.59530E-13
 -1      4078 1.32240E-02 4.58026E-04-1.62947E-13
 -1      4079 1.32846E-02 4.77019E-04-1.64247E-13
 -1      4080 1.33022E-02 5.16651E-04-1.64152E-13
 -1      4081 1.69580E-03-1.22007E-04-3.93644E-15
 -1      4082 1.80319E-03-1.26831E-04-4.39003E-15
 -1      4083 1.87169E-03-9.61180E-05-4.70915E-15
 -1      4084 3.06555E-03 1.72048E-04-1.12677E-14
 -1      4085 2.92510E-03 1.73527E-04-1.03031E-14
 -1      4086 1.33194E-02 5.55888E-04-1.64051E-13
 -1      4087 1.33364E-02 5.95044E-04-1.63943E-13
 -1      4088 1.31868E-02 5.23949E-04-1.61059E-13
 -1      4089 4.98693E-03 3.65400E-05-3.14831E-14
 -1      4090 2.78398E-03 1.74582E-04-9.38205E-15
 -1      4091 2.64225E-03 1.75191E-04-8.50441E-15
 -1      4092 2.84949E-03 1.40556E-04-9.89657E-15
 -1      4093 1.50227E-03-8.17558E-05-3.19132E-15
 -1      4094 1.30288E-02 4.69193E-04-1.57745E-13
 -1      4095 1.80704E-03 4.87358E-05-4.38741E-15
 -1      4096 1.80514E-03 1.24848E-05-4.40487E-15
 -1      4097 1.99336E-03 6.26967E-05-5.21814E-15
 -1      4098 4.15268E-03 1.55566E-04-2.05121E-14
 -1      4099 4.02130E-03 1.57376E-04-1.92086E-14
 -1      4100 3.88842E-03 1.59349E-04-1.79469E-14
 -1      4101 3.75410E-03 1.61559E-04-1.67276E-14
 -1      4102 3.94531E-03 1.29152E-04-1.86498E-14
 -1      4103 1.03023E-02 2.20921E-04-9.15742E-14
 -1      4104 5.07849E-03 1.57148E-04-3.17159E-14
 -1      4105 4.98842E-03 1.56263E-04-3.04158E-14
 -1      4106 4.90443E-03 1.30792E-04-2.97089E-14
 -1      4107 5.07128E-03 1.34820E-04-3.21728E-14
 -1      4108 4.41025E-03 1.53132E-04-2.32434E-14
 -1      4109 4.28235E-03 1.54193E-04-2.18567E-14
 -1      4110 4.20564E-03 1.27087E-04-2.12603E-14
 -1      4111 1.30848E-03-5.10099E-05-2.50971E-15
 -1      4112 4.45804E-03 1.26495E-04-2.40367E-14
 -1      4113 1.28571E-02 6.54286E-04-1.50653E-13
 -1      4114 1.27181E-02 6.36104E-04-1.47300E-13
 -1      4115 2.54771E-03-7.32946E-05-8.24496E-15
 -1      4116 2.68949E-03-7.28198E-05-9.11313E-15
 -1      4117 3.11092E-03-6.96232E-05-1.19728E-14
 -1      4118 3.24980E-03-6.79701E-05-1.30109E-14
 -1      4119 3.38773E-03-6.60670E-05-1.40911E-14
 -1      4120 3.52466E-03-6.38606E-05-1.52142E-14
 -1      4121 3.31580E-03-3.50418E-05-1.35270E-14
 -1      4122 3.66048E-03-6.14066E-05-1.63792E-14
 -1      4123 3.79514E-03-5.86122E-05-1.75867E-14
 -1      4124 3.58875E-03-3.16770E-05-1.57698E-14
 -1      4125 3.92848E-03-5.55757E-05-1.88363E-14
 -1      4126 4.06053E-03-5.21586E-05-2.01272E-14
 -1      4127 3.85670E-03-2.72802E-05-1.81820E-14
 -1      4128 4.19110E-03-4.84234E-05-2.14593E-14
 -1      4129 4.32026E-03-4.42481E-05-2.28328E-14
 -1      4130 4.11879E-03-2.15451E-05-2.07608E-14
 -1      4131 4.44772E-03-3.96984E-05-2.42479E-14
 -1      4132 4.57365E-03-3.46086E-05-2.57035E-14
 -1      4133 4.37410E-03-1.41576E-05-2.35060E-14
 -1      4134 4.50769E-03 1.01471E-04-2.48337E-14
 -1      4135 4.38508E-03 1.00589E-04-2.34018E-14
 -1      4136 1.08341E-02 2.64160E-04-1.04652E-13
 -1      4137 1.09594E-02 2.76302E-04-1.07657E-13
 -1      4138 1.10860E-02 2.88968E-04-1.10694E-13
 -1      4139 1.12142E-02 3.01993E-04-1.13758E-13
 -1      4140 1.10470E-02 3.09660E-04-1.09086E-13
 -1      4141 1.13437E-02 3.15437E-04-1.16851E-13
 -1      4142 1.14745E-02 3.29174E-04-1.19971E-13
 -1      4143 1.13004E-02 3.36554E-04-1.15213E-13
 -1      4144 1.16064E-02 3.43252E-04-1.23119E-13
 -1      4145 1.17395E-02 3.57567E-04-1.26296E-13
 -1      4146 1.15599E-02 3.65043E-04-1.21453E-13
 -1      4147 1.18736E-02 3.72161E-04-1.29499E-13
 -1      4148 1.20087E-02 3.86950E-04-1.32728E-13
 -1      4149 1.18246E-02 3.94762E-04-1.27806E-13
 -1      4150 1.21446E-02 4.01970E-04-1.35982E-13
 -1      4151 1.22813E-02 4.17154E-04-1.39258E-13
 -1      4152 1.20937E-02 4.25430E-04-1.34263E-13
 -1      4153 1.24187E-02 4.32530E-04-1.42557E-13
 -1      4154 1.25568E-02 4.48044E-04-1.45879E-13
 -1      4155 1.23663E-02 4.56831E-04-1.40817E-13
 -1      4156 1.26955E-02 4.63720E-04-1.49220E-13
 -1      4157 1.28347E-02 4.79511E-04-1.52582E-13
 -1      4158 1.26420E-02 4.88805E-04-1.47458E-13
 -1      4159 4.88061E-03 3.61826E-05-2.99685E-14
 -1      4160 4.93807E-03 5.75685E-05-3.08905E-14
 -1      4161 1.03952E-02 2.25423E-04-9.40125E-14
 -1      4162 1.04910E-02 2.30259E-04-9.64748E-14
 -1      4163 1.04009E-02 2.46999E-04-9.31423E-14
 -1      4164 3.20520E-03 1.70292E-04-1.22743E-14
 -1      4165 3.12971E-03 1.38379E-04-1.18296E-14
 -1      4166 3.34399E-03 1.68255E-04-1.33234E-14
 -1      4167 1.07824E-02 3.75484E-04-1.00404E-13
 -1      4168 1.06469E-02 3.49908E-04-9.69787E-14
 -1      4169 4.26000E-03 9.99918E-05-2.20112E-14
 -1      4170 4.13264E-03 9.99570E-05-2.06629E-14
 -1      4171 4.31631E-03 7.42535E-05-2.27671E-14
 -1      4172 1.12494E-02 4.39727E-04-1.11957E-13
 -1      4173 1.11247E-02 4.23208E-04-1.08907E-13
 -1      4174 1.25796E-02 6.17900E-04-1.43965E-13
 -1      4175 1.24419E-02 5.99652E-04-1.40653E-13
 -1      4176 1.26356E-02 5.94339E-04-1.45741E-13
 -1      4177 1.17665E-02 5.09042E-04-1.24444E-13
 -1      4178 1.16348E-02 4.91265E-04-1.21280E-13
 -1      4179 1.23049E-02 5.81422E-04-1.37366E-13
 -1      4180 1.21688E-02 5.63188E-04-1.34098E-13
 -1      4181 1.23606E-02 5.58916E-04-1.39117E-13
 -1      4182 1.10109E-02 4.06558E-04-1.06123E-13
 -1      4183 1.08910E-02 3.90977E-04-1.03133E-13
 -1      4184 1.08409E-02 3.59191E-04-1.02218E-13
 -1      4185 1.10633E-02 3.89871E-04-1.07740E-13
 -1      4186 1.69109E-03-4.50520E-05-3.93887E-15
 -1      4187 1.56871E-03-6.05715E-05-3.44825E-15
 -1      4188 1.20336E-02 5.45042E-04-1.30855E-13
 -1      4189 1.18994E-02 5.26951E-04-1.27637E-13
 -1      4190 1.20890E-02 5.23677E-04-1.32586E-13
 -1      4191 1.15047E-02 4.73791E-04-1.18145E-13
 -1      4192 1.13761E-02 4.56534E-04-1.15037E-13
 -1      4193 1.13031E-02 4.21940E-04-1.13603E-13
 -1      4194 5.00323E-03 7.86452E-05-3.19138E-14
 -1      4195 5.06817E-03 1.00224E-04-3.28565E-14
 -1      4196 5.06136E-03 1.17555E-04-3.24110E-14
 -1      4197 4.90611E-03 7.85679E-05-3.03854E-14
 -1      4198 1.29405E-02 4.93624E-04-1.55111E-13
 -1      4199 1.30805E-02 5.09646E-04-1.58506E-13
 -1      4200 1.30978E-02 5.48247E-04-1.58404E-13
 -1      4201 1.28862E-02 5.19313E-04-1.53330E-13
 -1      4202 4.74404E-03 1.04996E-04-2.78204E-14
 -1      4203 4.62743E-03 1.03098E-04-2.63067E-14
 -1      4204 4.55998E-03 7.80708E-05-2.56343E-14
 -1      4205 2.26285E-03-7.31637E-05-6.63670E-15
 -1      4206 2.40546E-03-7.34008E-05-7.41910E-15
 -1      4207 2.47478E-03-3.98386E-05-7.81605E-15
 -1      4208 1.06002E-02 2.41164E-04-9.90634E-14
 -1      4209 1.07225E-02 2.52272E-04-1.02011E-13
 -1      4210 1.08130E-02 2.84759E-04-1.03411E-13
 -1      4211 1.05976E-02 2.62049E-04-9.81765E-14
 -1      4212 2.46428E-03 1.65685E-04-7.48899E-15
 -1      4213 2.28587E-03 1.55274E-04-6.53706E-15
 -1      4214 2.53107E-03 1.31960E-04-7.94708E-15
 -1      4215 2.17518E-03 1.11434E-04-6.04474E-15
 -1      4216 2.83068E-03-7.20557E-05-1.00234E-14
 -1      4217 2.97119E-03-7.09700E-05-1.09766E-14
 -1      4218 2.75806E-03-3.90731E-05-9.54965E-15
 -1      4219 1.87622E-03-3.45180E-05-4.73655E-15
 -1      4220 4.89975E-03 1.12805E-04-2.99396E-14
 -1      4221 4.83272E-03 8.93366E-05-2.92240E-14
 -1      4222 4.68721E-03-2.93811E-05-2.70734E-14
 -1      4223 4.80286E-03-2.34495E-05-2.85210E-14
 -1      4224 4.82947E-03 6.49794E-06-2.90928E-14
 -1      4225 4.61110E-03-4.91261E-06-2.62896E-14
 -1      4226 1.04811E-02 2.77567E-04-9.41009E-14
 -1      4227 4.77688E-03 3.01337E-05-2.85296E-14
 -1      4228 1.15591E-02 4.54822E-04-1.19821E-13
 -1      4229 3.03866E-03-3.74802E-05-1.14534E-14
 -1      4230 4.06275E-03 7.23485E-05-2.00664E-14
 -1      4231 4.00331E-03 1.00163E-04-1.93566E-14
 -1      4232 3.87215E-03 1.00741E-04-1.80909E-14
 -1      4233 1.30709E-02 6.74348E-04-1.55930E-13
 -1      4234 1.29639E-02 6.64368E-04-1.53288E-13
 -1      4235 1.28805E-02 6.21859E-04-1.51710E-13
 -1      4236 1.32050E-02 5.85215E-04-1.60663E-13
 -1      4237 1.33372E-02 6.17600E-04-1.63649E-13
 -1      4238 1.33128E-02 6.45012E-04-1.62632E-13
 -1      4239 1.30989E-02 5.70468E-04-1.58114E-13
 -1      4240 1.05958E-02 3.21470E-04-9.60273E-14
 -1      4241 1.18215E-02 4.88870E-04-1.26149E-13
 -1      4242 2.91567E-03 1.06938E-04-1.04169E-14
 -1      4243 2.77500E-03 1.07459E-04-9.49070E-15
 -1      4244 1.32865E-02 6.97264E-04-1.61221E-13
 -1      4245 1.31790E-02 6.87462E-04-1.58559E-13
 -1      4246 1.30950E-02 6.44427E-04-1.56969E-13
 -1      4247 1.33113E-02 6.70042E-04-1.62246E-13
 -1      4248 3.61855E-03 1.63813E-04-1.55504E-14
 -1      4249 3.48180E-03 1.66107E-04-1.44158E-14
 -1      4250 3.40635E-03 1.35394E-04-1.39327E-14
 -1      4251 3.67852E-03 1.32146E-04-1.62068E-14
 -1      4252 3.19451E-03 1.05342E-04-1.23967E-14
 -1      4253 3.05554E-03 1.06242E-04-1.13855E-14
 -1      4254 2.98258E-03 7.37788E-05-1.09427E-14
 -1      4255 2.04824E-03-6.78017E-05-5.54361E-15
 -1      4256 2.15559E-03-7.05544E-05-6.07800E-15
 -1      4257 2.22540E-03-3.76247E-05-6.43849E-15
 -1      4258 2.34892E-03 8.33839E-05-7.00361E-15
 -1      4259 2.17120E-03 7.31929E-05-6.07890E-15
 -1      4260 2.16847E-03 3.50999E-05-6.10573E-15
 -1      4261 4.98206E-03 1.15132E-04-3.11639E-14
 -1      4262 2.05423E-03-4.74926E-06-5.56174E-15
 -1      4263 1.94092E-03-6.48033E-05-5.03371E-15
 -1      4264 4.58319E-03 3.73663E-05-2.60362E-14
 -1      4265 4.69108E-03 4.18770E-05-2.74136E-14
 -1      4266 1.15625E-02 4.10528E-04-1.20645E-13
 -1      4267 1.14333E-02 3.95038E-04-1.17516E-13
 -1      4268 1.06236E-02 2.99181E-04-9.75478E-14
 -1      4269 3.51891E-03-1.67894E-06-1.51643E-14
 -1      4270 3.65379E-03-3.31306E-07-1.63268E-14
 -1      4271 3.82559E-03 2.22325E-05-1.78674E-14
 -1      4272 3.95693E-03 2.37800E-05-1.91254E-14
 -1      4273 4.08645E-03 2.55105E-05-2.04241E-14
 -1      4274 4.21411E-03 2.77955E-05-2.17648E-14
 -1      4275 4.33955E-03 3.03634E-05-2.31474E-14
 -1      4276 4.46275E-03 3.36942E-05-2.45710E-14
 -1      4277 2.33834E-03 2.49053E-06-7.02909E-15
 -1      4278 2.48059E-03 2.72144E-06-7.83215E-15
 -1      4279 1.10563E-02 3.51291E-04-1.08303E-13
 -1      4280 1.11800E-02 3.65321E-04-1.11345E-13
 -1      4281 1.13057E-02 3.80048E-04-1.14417E-13
 -1      4282 1.16932E-02 4.26218E-04-1.23800E-13
 -1      4283 1.18253E-02 4.42269E-04-1.26984E-13
 -1      4284 1.19586E-02 4.58459E-04-1.30197E-13
 -1      4285 1.20930E-02 4.74903E-04-1.33431E-13
 -1      4286 1.22284E-02 4.91437E-04-1.36692E-13
 -1      4287 1.23647E-02 5.08146E-04-1.39973E-13
 -1      4288 1.25019E-02 5.24908E-04-1.43280E-13
 -1      4289 1.26397E-02 5.41787E-04-1.46608E-13
 -1      4290 1.27782E-02 5.58701E-04-1.49954E-13
 -1      4291 3.69666E-03 8.06935E-05-1.65558E-14
 -1      4292 3.56214E-03 8.11648E-05-1.53859E-14
 -1      4293 1.09426E-02 3.36608E-04-1.05523E-13
 -1      4294 2.23142E-03 4.50823E-06-6.45389E-15
 -1      4295 3.00879E-03 1.80465E-05-1.12064E-14
 -1      4296 3.14783E-03 1.84443E-05-1.22112E-14
 -1      4297 2.65080E-03 1.00437E-04-8.72555E-15
 -1      4298 2.47388E-03 9.09979E-05-7.69228E-15
 -1      4299 2.47049E-03 5.23696E-05-7.72726E-15
 -1      4300 2.71887E-03 6.69979E-05-9.20630E-15
 -1      4301 3.44774E-03 9.25319E-05-1.44025E-14
 -1      4302 3.31079E-03 9.33729E-05-1.33120E-14
 -1      4303 3.23895E-03 6.18258E-05-1.28304E-14
 -1      4304 3.47112E-03 3.97394E-05-1.47150E-14
 -1      4305 1.07261E-02 3.10485E-04-1.00146E-13
 -1      4306 2.72817E-03 1.74929E-05-9.32640E-15
 -1      4307 2.86887E-03 1.77773E-05-1.02451E-14
 -1      4308 4.75566E-03 6.87250E-05-2.82496E-14
 -1      4309 2.60457E-03 1.01026E-05-8.56345E-15
 -1      4310 3.40269E-03 8.38985E-06-1.41955E-14
 -1      4311 3.76022E-03 5.11037E-05-1.72096E-14
 -1      4312 1.08356E-02 3.23922E-04-1.02875E-13
 -1      4313 1.28975E-02 6.04824E-04-1.52393E-13
 -1      4314 1.29011E-02 5.50716E-04-1.53259E-13
 -1      4315 1.30067E-02 5.65409E-04-1.55791E-13
 -1      4316 1.32045E-02 6.32416E-04-1.59988E-13
 -1      4317 3.26555E-03 7.60837E-06-1.31128E-14
 -1      4318 1.31134E-02 6.02339E-04-1.58038E-13
 -1      4319 1.30965E-02 6.19806E-04-1.57353E-13
 -1      4320 1.30042E-02 6.14345E-04-1.55032E-13
 -3
    1PSTEP                         2           1           1          
  100CL  101 1.000000000        4320                     0    1           1
 -4  STRESS      6    1
 -5  SXX         1    4    1    1
 -5  SYY         1    4    2    2
 -5  SZZ         1    4    3    3
 -5  SXY         1    4    1    2
 -5  SYZ         1    4    2    3
 -5  SZX         1    4    3    1
 -1         1 9.32789E-01 5.53654E-01-1.41814E+00 1.22531E+00-4.39132E-12-2.95297E-12
 -1         2-7.24748E-01-2.43502E+01-3.35105E+00 1.34388E-01 8.15799E-13 1.66873E-13
 -1         3 1.99999E+01 1.48651E-04 2.83078E-03 1.06000E-04-6.35735E-13-6.71090E-13
 -1         4 1.99998E+01 1.40854E-05 2.73305E-03 2.18019E-05 3.25024E-13-1.43849E-13
 -1         5 3.26438E+01 6.11934E+00 2.72700E+00 6.20401E+00-5.70169E-14 4.37658E-12
 -1         6 3.56159E+01 1.22147E+01 5.09962E+00-8.61599E+00-2.44249E-13 4.09182E-12
 -1         7 2.07790E+01 6.08776E+00-1.26606E-01-4.70731E+00-3.50692E-14 8.18675E-13
 -1         8 1.96598E+01 5.93092E+00 5.22469E-02-3.25565E+00-4.57967E-14-2.00929E-13
 -1         9 1.91438E+01 5.77339E+00 5.01450E-02-2.50457E+00-4.00808E-14-7.54984E-13
 -1        10 1.89116E+01 5.69667E+00 5.14468E-02-1.92783E+00-2.74589E-14-1.03038E-12
 -1        11 1.87955E+01 5.65737E+00 5.02616E-02-1.43398E+00-1.98682E-14-1.15575E-12
 -1        12 1.87339E+01 5.63632E+00 4.83431E-02-9.96792E-01-1.07921E-14-1.19447E-12
 -1        13 1.87005E+01 5.62492E+00 4.65706E-02-5.83292E-01-4.74176E-15-1.19898E-12
 -1        14 1.86862E+01 5.62004E+00 4.56457E-02-1.87139E-01 2.86243E-15-1.17346E-12
 -1        15 1.86869E+01 5.62024E+00 4.56914E-02 2.03698E-01 8.64310E-15-1.15357E-12
 -1        16 1.87024E+01 5.62553E+00 4.67161E-02 6.00731E-01 1.75366E-14-1.11375E-12
 -1        17 1.87372E+01 5.63722E+00 4.86032E-02 1.01627E+00 2.31926E-14-1.05172E-12
 -1        18 1.88003E+01 5.65873E+00 5.08297E-02 1.45667E+00 2.73666E-14-9.45995E-13
 -1        19 1.89182E+01 5.69850E+00 5.20575E-02 1.95684E+00 4.13740E-14-7.60569E-13
 -1        20 1.91488E+01 5.77593E+00 4.97917E-02 2.54199E+00 5.03261E-14-4.14169E-13
 -1        21 1.96549E+01 5.94529E+00 4.72227E-02 3.28995E+00 5.97161E-14 2.44912E-13
 -1        22 2.11577E+01 6.36787E+00 1.40154E-01 4.50575E+00 7.77156E-15 1.54195E-12
 -1        23 2.29490E+01-1.37577E+00-9.37195E-01-7.07154E-01-1.65104E-13 3.23029E-12
 -1        24 1.93119E+01-9.94801E-02-3.09104E-01 6.31292E-02-4.40542E-14 2.48728E-12
 -1        25 1.86419E+01-5.66304E-02-6.88027E-02 6.03614E-02-2.07035E-14 1.74795E-12
 -1        26 1.84608E+01-2.27099E-02-6.97983E-03 3.26042E-02-1.49772E-15 1.20610E-12
 -1        27 1.85015E+01-1.27407E-02 7.14650E-04 2.22623E-02-1.75338E-14 8.33604E-13
 -1        28 1.86576E+01-7.54627E-03 4.77049E-04 1.60818E-02-1.27447E-14 6.02770E-13
 -1        29 1.88775E+01-4.81523E-03-1.03863E-04 1.21879E-02 1.36312E-14 4.19716E-13
 -1        30 1.91367E+01-3.43724E-03-5.39942E-04 9.65818E-03-1.79525E-14 2.21893E-13
 -1        31 1.94250E+01-2.85484E-03-1.09698E-03 8.09020E-03-2.23527E-14-3.70828E-14
 -1        32 1.97410E+01-2.73889E-03-1.85936E-03 7.32307E-03-2.38225E-14-2.57072E-13
 -1        33 2.00890E+01-2.84594E-03-2.75124E-03 7.30321E-03 4.09143E-14-3.24866E-13
 -1        34 2.04755E+01-2.94601E-03-3.59356E-03 8.01332E-03-1.49535E-14-3.22463E-13
 -1        35 2.09068E+01-2.77822E-03-4.09443E-03 9.41462E-03 1.18292E-14-4.66056E-13
 -1        36 2.13848E+01-2.02410E-03-3.80225E-03 1.13709E-02-2.55294E-15-3.56235E-13
 -1        37 2.19017E+01-3.07093E-04-2.05839E-03 1.35311E-02-5.46103E-14-5.47249E-13
 -1        38 2.24331E+01 2.75399E-03 1.98885E-03 1.51566E-02 3.90138E-14-5.55372E-13
 -1        39 2.29296E+01 7.39024E-03 9.18914E-03 1.49188E-02-1.38086E-14-4.75666E-13
 -1        40 2.33097E+01 1.33781E-02 1.98347E-02 1.07864E-02-4.39963E-14-5.46545E-13
 -1        41 2.34596E+01 1.96037E-02 3.26175E-02 3.03486E-04 2.40278E-14-6.28796E-13
 -1        42 2.32493E+01 2.37068E-02 4.33425E-02-1.82541E-02-1.56875E-14-5.68785E-13
 -1        43 2.25772E+01 2.23192E-02 4.46207E-02-4.35434E-02-3.75032E-14-5.30983E-13
 -1        44 2.14434E+01 1.26204E-02 2.86689E-02-6.84740E-02 3.74984E-14-1.32300E-13
 -1        45 2.00251E+01-5.05054E-03-6.42844E-03-8.01084E-02-1.04202E-14-8.60145E-14
 -1        46 1.86885E+01-2.52074E-02-4.97716E-02-6.60902E-02-1.55616E-14-5.50476E-13
 -1        47 1.78762E+01-3.87252E-02-8.01639E-02-2.52355E-02 9.48807E-15-6.60376E-13
 -1        48 1.78954E+01-3.84535E-02-7.96067E-02 2.71188E-02 1.21042E-14-8.19643E-13
 -1        49 1.87400E+01-2.45280E-02-4.83359E-02 6.72276E-02 2.74362E-14-9.20847E-13
 -1        50 2.00934E+01-4.33068E-03-4.77367E-03 8.00350E-02 1.71816E-14-9.55094E-13
 -1        51 2.15117E+01 1.30173E-02 2.95250E-02 6.74838E-02-4.07768E-15-7.59372E-13
 -1        52 2.26363E+01 2.22682E-02 4.45823E-02 4.23775E-02 1.00347E-14-7.20842E-13
 -1        53 2.33002E+01 2.32662E-02 4.26120E-02 1.73674E-02-7.35978E-14-9.33416E-13
 -1        54 2.35103E+01 1.89302E-02 3.15877E-02-7.49781E-04 5.81720E-14-9.04644E-13
 -1        55 2.33719E+01 1.25773E-02 1.87040E-02-1.07944E-02 5.31788E-14-7.71234E-13
 -1        56 2.30166E+01 6.52144E-03 8.02488E-03-1.45289E-02-3.11962E-14-9.46600E-13
 -1        57 2.25591E+01 1.83686E-03 7.79247E-04-1.43884E-02 3.60973E-14-8.60585E-13
 -1        58 2.20815E+01-1.27008E-03-3.36120E-03-1.23602E-02 1.90385E-15-9.58002E-13
 -1        59 2.16342E+01-3.02785E-03-5.24960E-03-9.72091E-03-9.55315E-15-7.83778E-13
 -1        60 2.12429E+01-3.79854E-03-5.72176E-03-7.15812E-03-9.49969E-14-6.02222E-13
 -1        61 2.09167E+01-3.92486E-03-5.40899E-03-4.97321E-03 3.38435E-14-6.48672E-13
 -1        62 2.06548E+01-3.67524E-03-4.72773E-03-3.24962E-03-6.66150E-15-5.33719E-13
 -1        63 2.04510E+01-3.23838E-03-3.92832E-03-1.96342E-03-1.25020E-13-9.38711E-13
 -1        64 2.02969E+01-2.73687E-03-3.14959E-03-1.04683E-03-1.39001E-14-1.28759E-12
 -1        65 2.01836E+01-2.24479E-03-2.46241E-03-4.20618E-04 5.51400E-14-8.63123E-13
 -1        66 2.01031E+01-1.80301E-03-1.90042E-03-7.65183E-06 4.32932E-14-9.98407E-13
 -1        67 2.00485E+01-1.42981E-03-1.47973E-03 2.64611E-04 6.81638E-14-7.62461E-13
 -1        68 2.00140E+01-1.12491E-03-1.20225E-03 4.70763E-04 6.33589E-14-3.94132E-13
 -1        69 1.99956E+01-8.62848E-04-1.01687E-03 6.96328E-04-1.50981E-14-2.62409E-13
 -1        70 1.99903E+01-5.39722E-04-6.75093E-04 1.05755E-03-6.55591E-14-2.93219E-13
 -1        71 1.99953E+01 8.82956E-05 6.59054E-04 1.36998E-03-8.45229E-14-1.75170E-13
 -1        72 2.09665E+01-4.03660E-01-9.78959E-01-3.10656E-01 5.32768E-14 4.01952E-12
 -1        73 1.92748E+01-6.59390E-02-2.90484E-01-5.35415E-02 3.42859E-14 3.11587E-12
 -1        74 1.86488E+01-2.08343E-02-6.42912E-02-1.98082E-02 1.56514E-14 2.42743E-12
 -1        75 1.84666E+01-1.04298E-02-9.79715E-03-1.46472E-02 4.99741E-15 1.97601E-12
 -1        76 1.85064E+01-5.97220E-03-2.29143E-04-1.13416E-02 1.34931E-14 1.59918E-12
 -1        77 1.86612E+01-3.73212E-03 3.56680E-04-8.84903E-03 1.83547E-14 1.32960E-12
 -1        78 1.88805E+01-2.64197E-03-1.02214E-04-6.90661E-03-1.70812E-14 1.21921E-12
 -1        79 1.91408E+01-2.23795E-03-6.64327E-04-5.31551E-03 3.19672E-14 1.06598E-12
 -1        80 1.94339E+01-2.28384E-03-1.47959E-03-4.01509E-03-2.75589E-14 8.70355E-13
 -1        81 1.97615E+01-2.63695E-03-2.66010E-03-3.03962E-03 2.72307E-14 7.91575E-13
 -1        82 2.01328E+01-3.18341E-03-4.21523E-03-2.49381E-03-1.59044E-15 7.24765E-13
 -1        83 2.05626E+01-3.79310E-03-6.08249E-03-2.55915E-03-7.96810E-15 7.00287E-13
 -1        84 2.10693E+01-4.27362E-03-8.09791E-03-3.51618E-03 3.42463E-14 6.58138E-13
 -1        85 2.16719E+01-4.31428E-03-9.88671E-03-5.76637E-03 1.04038E-14 4.39339E-13
 -1        86 2.23858E+01-3.42501E-03-1.06593E-02-9.81740E-03 1.94629E-14 3.05292E-13
 -1        87 2.32127E+01-9.05271E-04-8.91091E-03-1.61471E-02-6.46419E-14 2.24960E-13
 -1        88 2.41261E+01 4.05773E-03-2.13845E-03-2.47757E-02 7.40589E-15 4.15156E-13
 -1        89 2.50470E+01 1.19528E-02 1.29743E-02-3.42865E-02 4.25831E-14 1.25963E-13
 -1        90 2.58152E+01 2.19222E-02 3.88690E-02-4.01637E-02 1.37841E-14 1.22723E-14
 -1        91 2.61722E+01 3.02597E-02 7.25785E-02-3.32525E-02-5.31508E-14 2.11627E-13
 -1        92 2.57936E+01 2.98304E-02 9.90366E-02-1.47871E-03-8.65497E-15 5.52152E-13
 -1        93 2.44311E+01 1.36714E-02 8.98060E-02 6.02140E-02-6.39376E-15 5.85122E-13
 -1        94 2.21751E+01-1.64152E-02 2.03094E-02 1.32194E-01 7.61856E-14 2.43500E-13
 -1        95 1.96886E+01-4.32686E-02-9.31381E-02 1.63910E-01 2.43772E-15 1.71634E-13
 -1        96 1.80700E+01-4.91088E-02-1.78485E-01 1.11344E-01 2.73869E-15 3.61081E-13
 -1        97 1.81694E+01-3.01676E-02-1.68157E-01-4.56875E-03-3.52769E-14 4.11088E-13
 -1        98 1.99355E+01-2.32109E-03-7.47891E-02-1.10529E-01-2.52699E-14 3.30527E-13
 -1        99 2.24536E+01 1.94821E-02 3.37235E-02-1.46981E-01-1.74966E-14-2.54033E-14
 -1       100 2.46496E+01 2.81410E-02 9.45266E-02-1.17856E-01 1.13529E-14 8.50153E-14
 -1       101 2.59191E+01 2.55202E-02 9.69500E-02-6.39637E-02 3.17229E-14-3.40457E-14
 -1       102 2.62215E+01 1.73972E-02 6.79726E-02-1.77726E-02-1.88512E-14-4.36150E-13
 -1       103 2.58262E+01 8.76839E-03 3.45316E-02 1.00414E-02-2.97470E-14-4.87402E-13
 -1       104 2.50563E+01 2.14724E-03 9.68711E-03 2.20073E-02 1.42027E-14-2.39491E-13
 -1       105 2.41622E+01-1.95635E-03-4.51996E-03 2.42567E-02 1.78124E-14-2.82396E-14
 -1       106 2.32961E+01-4.00536E-03-1.07429E-02 2.18513E-02-8.55154E-15-2.14959E-13
 -1       107 2.25326E+01-4.69038E-03-1.22538E-02 1.78499E-02 3.27306E-14-6.38536E-13
 -1       108 2.18968E+01-4.59482E-03-1.14577E-02 1.37718E-02 3.04094E-14-1.10720E-12
 -1       109 2.13874E+01-4.11777E-03-9.77317E-03 1.02305E-02 8.17239E-14-9.61216E-13
 -1       110 2.09906E+01-3.49997E-03-7.92087E-03 7.38526E-03-2.58816E-14-1.19939E-12
 -1       111 2.06885E+01-2.87287E-03-6.21769E-03 5.19937E-03-2.59096E-14-1.38415E-12
 -1       112 2.04631E+01-2.30072E-03-4.77420E-03 3.56911E-03-3.04378E-14-1.27848E-12
 -1       113 2.02983E+01-1.80978E-03-3.60643E-03 2.38079E-03 6.35145E-15-7.06835E-13
 -1       114 2.01805E+01-1.40634E-03-2.69403E-03 1.53246E-03-9.24801E-14-3.32360E-13
 -1       115 2.00987E+01-1.08642E-03-2.00880E-03 9.37954E-04 3.77115E-14-4.97182E-13
 -1       116 2.00443E+01-8.38596E-04-1.52577E-03 5.21161E-04-2.02493E-14-1.81679E-13
 -1       117 2.00108E+01-6.46055E-04-1.21988E-03 2.07229E-04-4.24267E-14-5.45919E-13
 -1       118 1.99936E+01-4.78615E-04-1.02147E-03-9.33407E-05 2.86565E-14-1.25633E-12
 -1       119 1.99896E+01-2.01550E-04-6.13589E-04-5.86530E-04-2.74974E-14-1.59330E-12
 -1       120 1.99952E+01 3.58004E-04 7.06995E-04-1.31145E-03 3.14082E-13-1.49943E-12
 -1       121 1.99999E+01-4.64853E-03 4.77619E-04-1.63261E-03-1.52350E-12 1.74367E-13
 -1       122 1.99994E+01-9.26660E-03-8.55354E-04-7.64388E-04-7.78613E-13-1.60453E-14
 -1       123 1.99994E+01-3.08358E-03-9.88583E-04-7.15793E-06 5.11991E-13 1.85008E-13
 -1       124 1.99995E+01 1.28188E-02-6.17607E-04 4.91116E-04 1.38285E-12 1.56753E-13
 -1       125 1.99998E+01 3.43846E-02-1.13220E-04 7.04967E-04 1.28211E-12-2.44165E-13
 -1       126 2.00001E+01 5.61689E-02 3.40994E-04 6.89975E-04-1.13850E-12-8.66809E-14
 -1       127 2.00003E+01 7.41092E-02 6.82103E-04 4.93779E-04-1.28071E-12 2.38685E-13
 -1       128 2.00004E+01 8.41381E-02 8.62958E-04 1.84464E-04-8.86106E-13 1.72706E-13
 -1       129 2.00004E+01 8.42766E-02 8.62021E-04-1.62549E-04-4.65103E-13 6.45979E-15
 -1       130 2.00003E+01 7.45376E-02 6.81423E-04-4.70548E-04-2.78562E-13-8.08674E-15
 -1       131 2.00001E+01 5.69100E-02 3.42801E-04-6.71552E-04-4.14105E-13-1.05929E-13
 -1       132 1.99998E+01 3.54074E-02-9.89485E-05-6.88607E-04-4.43914E-13 3.34029E-13
 -1       133 1.99996E+01 1.40085E-02-5.85485E-04-4.84043E-04-2.12001E-13 1.02568E-13
 -1       134 1.99993E+01-2.05788E-03-9.97112E-04-6.22899E-05-3.90231E-13-3.77572E-13
 -1       135 1.99995E+01-8.46878E-03-7.71630E-04 9.89645E-04-7.82452E-13-3.15568E-14
 -1       136 1.99996E+01-4.50817E-03 4.56982E-04 2.32302E-03-4.86698E-13 3.29811E-13
 -1       137-1.32129E+00-2.06548E+01-3.15222E+00-3.80177E+00 2.72771E-12 5.57044E-13
 -1       138-1.79512E+00-9.83153E+00-2.43407E+00-3.52399E+00 3.87723E-12 1.73550E-12
 -1       139 2.36626E+00 2.31890E+00-1.27022E+00 2.73696E+00 3.57381E-12 2.56928E-12
 -1       140 1.32057E+01 9.70932E+00 9.06567E-02 1.12951E+01 2.99916E-12 3.18806E-12
 -1       141 3.05499E+01 1.04517E+01 1.49598E+00 1.74161E+01 1.92707E-12 3.06571E-12
 -1       142 5.01413E+01 6.51341E+00 2.75104E+00 1.69285E+01 7.39825E-13 2.17970E-12
 -1       143 6.42682E+01 1.99281E+00 3.57104E+00 8.23986E+00 1.78852E-13 7.65943E-13
 -1       144 6.60469E+01 1.33596E+00 3.66884E+00-5.36315E+00 2.39468E-13-1.40636E-12
 -1       145 5.41012E+01 5.37592E+00 2.99485E+00-1.58295E+01 1.10953E-12-3.63282E-12
 -1       146 3.42906E+01 1.00546E+01 1.76773E+00-1.80773E+01 2.72574E-12-4.70196E-12
 -1       147 1.54050E+01 1.01754E+01 2.88803E-01-1.24705E+01 4.09023E-12-4.64645E-12
 -1       148 2.91695E+00 3.06111E+00-1.15753E+00-3.34414E+00 4.54398E-12-3.38979E-12
 -1       149-1.60200E+00-8.36878E+00-2.30782E+00 3.08966E+00 3.93446E-12-1.77974E-12
 -1       150-1.50145E+00-1.92778E+01-3.06659E+00 4.13421E+00 2.13943E-12-7.11549E-13
 -1       151-6.77424E-01-2.44008E+01-3.35240E+00 7.84649E-01-1.84169E-13 5.02931E-14
 -1       152-1.14888E+00-2.13156E+01-3.15392E+00-3.23169E+00-2.04006E-12-3.42847E-13
 -1       153-1.64539E+00-1.11688E+01-2.45749E+00-3.57836E+00-3.63876E-12-1.40105E-12
 -1       154 1.09507E+01 9.40527E+00-2.74051E-02 1.01349E+01-4.12970E-12-4.17888E-12
 -1       155 2.79453E+01 1.09470E+01 1.37243E+00 1.71382E+01-3.03846E-12-4.68381E-12
 -1       156 4.81024E+01 6.87279E+00 2.60669E+00 1.71806E+01-1.51081E-12-3.79380E-12
 -1       157 6.25293E+01 2.06558E+00 3.36601E+00 8.56489E+00-3.30949E-13-1.67266E-12
 -1       158 6.47427E+01 1.18721E+00 3.46339E+00-4.71410E+00-2.37831E-13 8.33764E-13
 -1       159 5.40114E+01 5.02464E+00 2.91301E+00-1.52532E+01-1.00886E-12 3.29242E-12
 -1       160 3.48520E+01 1.00030E+01 1.82746E+00-1.81359E+01-2.60519E-12 4.62064E-12
 -1       161 1.59947E+01 1.06500E+01 4.49609E-01-1.29296E+01-3.22192E-12 3.93363E-12
 -1       162 3.50377E+00 4.08613E+00-9.81674E-01-4.08518E+00-3.14720E-12 2.31110E-12
 -1       163-1.41082E+00-7.68601E+00-2.18414E+00 2.72663E+00-2.12941E-12 1.10514E-12
 -1       164-1.37707E+00-1.91379E+01-3.02285E+00 3.67991E+00-9.22373E-13 2.24300E-13
 -1       165 2.09905E+01 3.68568E+00-5.69409E-02-3.58647E+00-5.78933E-13 2.76688E-13
 -1       166 1.99913E+01 4.20481E+00-4.53746E-02-2.78336E+00-5.35102E-13-3.64229E-13
 -1       167 1.95218E+01 4.48070E+00-3.13424E-02-2.16678E+00-4.32491E-13-7.19787E-13
 -1       168 1.92856E+01 4.62545E+00-2.35081E-02-1.64873E+00-3.21772E-13-9.04854E-13
 -1       169 1.91564E+01 4.71303E+00-1.92309E-02-1.19570E+00-2.21341E-13-9.73261E-13
 -1       170 1.90813E+01 4.76888E+00-1.71324E-02-7.74734E-01-1.25431E-13-1.00001E-12
 -1       171 1.90425E+01 4.79977E+00-1.61178E-02-3.77762E-01-2.97264E-14-9.85131E-13
 -1       172 1.90311E+01 4.80935E+00-1.58230E-02 8.06781E-03 7.09659E-14-9.65116E-13
 -1       173 1.90446E+01 4.79851E+00-1.61654E-02 3.94258E-01 1.51585E-13-9.42018E-13
 -1       174 1.90855E+01 4.76594E+00-1.72418E-02 7.92376E-01 2.45372E-13-8.95519E-13
 -1       175 1.91615E+01 4.70882E+00-1.94402E-02 1.20794E+00 3.37886E-13-8.07718E-13
 -1       176 1.92962E+01 4.61562E+00-2.37785E-02 1.67131E+00 4.51774E-13-6.84340E-13
 -1       177 1.95373E+01 4.46307E+00-3.26023E-02 2.19909E+00 5.38994E-13-4.38991E-13
 -1       178 2.00135E+01 4.18080E+00-4.68654E-02 2.82097E+00 6.05307E-13 3.95517E-16
 -1       179 2.11103E+01 3.45625E+00-5.94213E-02 3.51381E+00 5.67541E-13 7.83318E-13
 -1       180 2.23680E+01 1.14049E+00-3.35382E-01 2.99782E+00 4.14248E-13 1.82696E-12
 -1       181 2.19326E+01 8.56011E-01 7.08575E-04-1.94231E+00-5.02317E-13 1.03594E-12
 -1       182 2.04252E+01 1.90501E-01-9.82791E-03-7.48188E-01-4.34272E-13 7.84058E-13
 -1       183 1.96699E+01 1.03492E-01 1.37128E-02-2.66648E-01-3.22887E-13 5.73357E-13
 -1       184 1.93565E+01 5.02907E-02 1.02247E-02-4.21537E-02-2.44991E-13 3.60989E-13
 -1       185 1.92624E+01 2.72146E-02 5.46320E-03 7.56081E-02-1.60644E-13 2.35452E-13
 -1       186 1.92981E+01 1.60172E-02 2.83472E-03 1.43138E-01-1.23662E-13 1.27254E-13
 -1       187 1.94137E+01 1.07524E-02 1.63922E-03 1.85580E-01-1.36611E-13 2.35575E-14
 -1       188 1.95830E+01 8.94250E-03 1.11502E-03 2.16433E-01-1.59183E-13-4.54708E-14
 -1       189 1.97929E+01 9.27910E-03 8.80252E-04 2.43710E-01-1.02689E-13-5.65451E-14
 -1       190 2.00382E+01 1.08516E-02 7.65519E-04 2.72216E-01-6.58578E-14-7.84001E-14
 -1       191 2.03178E+01 1.28090E-02 6.77074E-04 3.04281E-01-7.11088E-14-2.61171E-13
 -1       192 2.06325E+01 1.41469E-02 5.40105E-04 3.39735E-01-4.25640E-14-3.18859E-13
 -1       193 2.09817E+01 1.35289E-02 2.81928E-04 3.75368E-01-1.00432E-14-3.61448E-13
 -1       194 2.13605E+01 9.14520E-03-1.64288E-04 4.04002E-01-1.01231E-13-3.81362E-13
 -1       195 2.17558E+01-1.29961E-03-8.38209E-04 4.13404E-01-5.96919E-14-3.03184E-13
 -1       196 2.21425E+01-2.02499E-02-1.71265E-03 3.85640E-01 5.65166E-14-3.48033E-13
 -1       197 2.24794E+01-4.92273E-02-2.64312E-03 2.98160E-01-4.45800E-14-2.61281E-13
 -1       198 2.27088E+01-8.65814E-02-3.33522E-03 1.28868E-01-7.01899E-14-2.91475E-13
 -1       199 2.27614E+01-1.24090E-01-3.38617E-03-1.32155E-01-2.77217E-14-3.10480E-13
 -1       200 2.25724E+01-1.44157E-01-2.50367E-03-4.63574E-01 4.91412E-14-2.61677E-13
 -1       201 2.21123E+01-1.22309E-01-8.11334E-04-7.93146E-01 1.41465E-13-2.47186E-13
 -1       202 2.14271E+01-4.05918E-02 1.22189E-03-9.96752E-01 4.66959E-14-1.44901E-13
 -1       203 2.06664E+01 8.89345E-02 2.58972E-03-9.41371E-01-1.44777E-13 4.46340E-14
 -1       204 2.00627E+01 2.13451E-01 2.99282E-03-5.72718E-01-1.61387E-13-6.78099E-14
 -1       205 1.98382E+01 2.64661E-01 2.93425E-03 1.38899E-02-1.43495E-13-2.19879E-13
 -1       206 2.00846E+01 2.09947E-01 2.88546E-03 5.96322E-01-8.01039E-14-3.19973E-13
 -1       207 2.07042E+01 8.34718E-02 2.54065E-03 9.54004E-01-6.58271E-14-4.64029E-13
 -1       208 2.14712E+01-4.47763E-02 1.10475E-03 9.97529E-01 1.26279E-13-5.38427E-13
 -1       209 2.21561E+01-1.23325E-01-8.22790E-04 7.87856E-01 2.39917E-14-3.28459E-13
 -1       210 2.26146E+01-1.42577E-01-2.50899E-03 4.59238E-01-1.49886E-13-3.88307E-13
 -1       211 2.28058E+01-1.20973E-01-3.29988E-03 1.33856E-01-1.04085E-13-3.77434E-13
 -1       212 2.27622E+01-8.27681E-02-3.18731E-03-1.18362E-01 2.01044E-14-6.80139E-13
 -1       213 2.25502E+01-4.51208E-02-2.45658E-03-2.77559E-01-9.86345E-14-6.60416E-13
 -1       214 2.22403E+01-1.59576E-02-1.50249E-03-3.54294E-01 9.29765E-14-5.86602E-13
 -1       215 2.18906E+01 3.23014E-03-6.14592E-04-3.70774E-01-2.30230E-14-5.61332E-13
 -1       216 2.15429E+01 1.40084E-02 6.41377E-05-3.49413E-01 1.68939E-14-5.94639E-13
 -1       217 2.12225E+01 1.87768E-02 5.03542E-04-3.08034E-01 1.12118E-13-6.02877E-13
 -1       218 2.09429E+01 1.97248E-02 7.36428E-04-2.58968E-01 3.42006E-14-1.98522E-13
 -1       219 2.07083E+01 1.85047E-02 8.17679E-04-2.09859E-01-1.61682E-15-3.02822E-13
 -1       220 2.05179E+01 1.62355E-02 8.00934E-04-1.64911E-01-2.70126E-13-3.60217E-13
 -1       221 2.03676E+01 1.36179E-02 7.29054E-04-1.26024E-01-1.32888E-13-3.16921E-13
 -1       222 2.02521E+01 1.10604E-02 6.32342E-04-9.36709E-02 2.09820E-13-3.70003E-13
 -1       223 2.01657E+01 8.78300E-03 5.29857E-04-6.75007E-02-3.76893E-14-2.34929E-13
 -1       224 2.01029E+01 6.89066E-03 4.30899E-04-4.67260E-02 1.00770E-13-4.07362E-13
 -1       225 2.00590E+01 5.42036E-03 3.36117E-04-3.03715E-02 1.62218E-13-4.35974E-13
 -1       226 2.00300E+01 4.34643E-03 2.42634E-04-1.74426E-02 1.75914E-13-5.25351E-13
 -1       227 2.00124E+01 3.50619E-03 1.75915E-04-7.18832E-03 1.35562E-13-2.30782E-13
 -1       228 2.00031E+01 2.39262E-03 1.40249E-04 4.55240E-04 1.98671E-13 1.87759E-13
 -1       229 2.09263E+01 2.76537E-01-5.10450E-02 1.15166E+00 4.43003E-13 1.57881E-12
 -1       230 1.98494E+01 1.27379E-01 8.44771E-03 4.29634E-01 3.43522E-13 1.27363E-12
 -1       231 1.93652E+01 5.95868E-02 1.28638E-02 1.32916E-01 2.53827E-13 9.68393E-13
 -1       232 1.91852E+01 3.03171E-02 7.80085E-03-1.32327E-02 1.98784E-13 7.42693E-13
 -1       233 1.91770E+01 1.69342E-02 4.05716E-03-9.29028E-02 1.34753E-13 5.92799E-13
 -1       234 1.92710E+01 1.05526E-02 2.21116E-03-1.40303E-01 5.57898E-14 4.95538E-13
 -1       235 1.94311E+01 7.96052E-03 1.38623E-03-1.72516E-01 1.40812E-13 4.02342E-13
 -1       236 1.96398E+01 7.78447E-03 1.00607E-03-1.99521E-01 7.45990E-14 3.29960E-13
 -1       237 1.98912E+01 9.33693E-03 8.16947E-04-2.27951E-01 7.63445E-14 2.27618E-13
 -1       238 2.01871E+01 1.21884E-02 7.07316E-04-2.62559E-01-1.74313E-15 2.64754E-13
 -1       239 2.05343E+01 1.59536E-02 6.07930E-04-3.06699E-01 3.17492E-14 2.69627E-13
 -1       240 2.09425E+01 2.01049E-02 4.52486E-04-3.62192E-01 8.13565E-14 2.62257E-13
 -1       241 2.14219E+01 2.37255E-02 1.68892E-04-4.28532E-01 9.87871E-14 2.07874E-13
 -1       242 2.19789E+01 2.51422E-02-3.04933E-04-5.01213E-01 6.07020E-14 1.36394E-13
 -1       243 2.26104E+01 2.14277E-02-9.65845E-04-5.68862E-01 5.39976E-15 1.81553E-13
 -1       244 2.32950E+01 7.93249E-03-1.63721E-03-6.09155E-01-9.58042E-15 2.11311E-14
 -1       245 2.39804E+01-2.15315E-02-1.82926E-03-5.84583E-01 1.17312E-13 1.16744E-13
 -1       246 2.45711E+01-7.22852E-02-7.27535E-04-4.42151E-01-6.05288E-15 2.39864E-13
 -1       247 2.49240E+01-1.41580E-01 2.36670E-03-1.26476E-01-1.94953E-13 3.95178E-13
 -1       248 2.48676E+01-2.05873E-01 6.73065E-03 3.79874E-01-1.29183E-13 4.50266E-13
 -1       249 2.42701E+01-2.12017E-01 8.44793E-03 9.85501E-01 1.30104E-17 5.50408E-13
 -1       250 2.31637E+01-9.79286E-02 2.31795E-03 1.43421E+00 2.36186E-13 4.43827E-13
 -1       251 2.18670E+01 1.35218E-01-1.28588E-02 1.37717E+00 6.74634E-15 2.94917E-13
 -1       252 2.09570E+01 3.51142E-01-2.53677E-02 6.51775E-01-7.50008E-14 2.45034E-13
 -1       253 2.09296E+01 3.84599E-01-2.11068E-02-4.27366E-01-5.17034E-15 2.85812E-13
 -1       254 2.18086E+01 2.02951E-01-7.38591E-03-1.27022E+00 7.73856E-14 1.64327E-13
 -1       255 2.31121E+01-3.89537E-02 5.92119E-03-1.47892E+00 8.37348E-14 1.79416E-13
 -1       256 2.42587E+01-1.88505E-01 1.05487E-02-1.11805E+00-6.58640E-14 1.31627E-13
 -1       257 2.49024E+01-2.10869E-01 6.52814E-03-5.22976E-01 1.41636E-13 1.18115E-14
 -1       258 2.50008E+01-1.58601E-01 8.55997E-04 1.53183E-02 1.07426E-13-1.06488E-13
 -1       259 2.46834E+01-8.92587E-02-2.45326E-03 3.71473E-01 2.39266E-14-1.19753E-13
 -1       260 2.41234E+01-3.33586E-02-3.15666E-03 5.44805E-01-4.11601E-14-1.43109E-13
 -1       261 2.34674E+01 1.83147E-03-2.41969E-03 5.86187E-01 1.81005E-14-1.47745E-13
 -1       262 2.28144E+01 1.98587E-02-1.30105E-03 5.50517E-01-5.91470E-14-9.45767E-14
 -1       263 2.22204E+01 2.66580E-02-3.51472E-04 4.78813E-01 3.49000E-13-2.56754E-13
 -1       264 2.17099E+01 2.71620E-02 2.71798E-04 3.96522E-01 1.50985E-13-3.62723E-13
 -1       265 2.12882E+01 2.46331E-02 6.01311E-04 3.17320E-01 1.33379E-14-5.60775E-13
 -1       266 2.09501E+01 2.09656E-02 7.25232E-04 2.47414E-01 1.09908E-13-5.20793E-13
 -1       267 2.06852E+01 1.71526E-02 7.26181E-04 1.88775E-01-8.49104E-15-4.96351E-13
 -1       268 2.04821E+01 1.36591E-02 6.63624E-04 1.41201E-01-1.02440E-13-3.50551E-13
 -1       269 2.03292E+01 1.06646E-02 5.74861E-04 1.03504E-01-2.86207E-13-3.33782E-13
 -1       270 2.02165E+01 8.20702E-03 4.80632E-04 7.41524E-02-1.55805E-13-2.38239E-13
 -1       271 2.01354E+01 6.26313E-03 3.90025E-04 5.15746E-02 1.98463E-13-2.82901E-13
 -1       272 2.00787E+01 4.78803E-03 3.03883E-04 3.42992E-02-1.38008E-13-3.06353E-13
 -1       273 2.00410E+01 3.71805E-03 2.16023E-04 2.10169E-02 3.49959E-13-1.81605E-13
 -1       274 2.00177E+01 2.98192E-03 1.28207E-04 1.06746E-02 2.18234E-13-4.22605E-13
 -1       275 2.00054E+01 2.43529E-03 1.36274E-04 2.59263E-03 2.15921E-13-6.12561E-13
 -1       276 2.00006E+01 7.93266E-04 3.00924E-04-2.59917E-03-7.08162E-14-5.59105E-13
 -1       277 2.00024E+01 2.81359E-03 1.17504E-04-1.24105E-04-1.14041E-13 3.86718E-13
 -1       278 2.00031E+01 1.05797E-02 2.75793E-05 6.91615E-03 2.21093E-13 6.71951E-13
 -1       279 2.00022E+01 2.35898E-02 7.09918E-06 1.37009E-02 3.51621E-13 2.73225E-13
 -1       280 2.00007E+01 4.02495E-02-2.79664E-06 1.75490E-02 8.52231E-14-3.18787E-14
 -1       281 1.99992E+01 5.75735E-02-3.78850E-05 1.76665E-02-1.49357E-14-1.37556E-12
 -1       282 1.99978E+01 7.30754E-02-7.43830E-05 1.41745E-02-1.34813E-13-1.87754E-13
 -1       283 1.99969E+01 8.36362E-02-1.02799E-04 7.87667E-03-3.82755E-13 1.63806E-13
 -1       284 1.99966E+01 8.73778E-02-1.13114E-04 7.51541E-05-4.14994E-13 2.92312E-14
 -1       285 1.99969E+01 8.36490E-02-1.03013E-04-7.71168E-03-2.86892E-13 5.35452E-14
 -1       286 1.99978E+01 7.31346E-02-7.52679E-05-1.39838E-02-2.26785E-13 6.95446E-14
 -1       287 1.99991E+01 5.80308E-02-3.66396E-05-1.74498E-02-2.54220E-14 3.32100E-14
 -1       288 2.00007E+01 4.05216E-02-4.45000E-06-1.74328E-02 2.33899E-14 1.30322E-14
 -1       289 2.00021E+01 2.39024E-02 4.37325E-06-1.36915E-02-1.28501E-13 2.80373E-14
 -1       290 2.00030E+01 1.12770E-02 9.10562E-05-7.30017E-03 6.05896E-14-2.23148E-13
 -1       291 2.00047E+01 6.66462E-03 7.93000E-05-3.27165E-03 1.67966E-13-1.67619E-13
 -1       292-9.23456E-01-1.08261E+01-9.76477E-01 8.05091E-01 5.39006E-13 1.02804E-12
 -1       293 2.00981E+00-8.93966E+00-8.69157E-01 2.93345E+00 1.07667E-12 9.66054E-13
 -1       294 9.25708E+00-5.57957E+00-4.79408E-01 5.54693E+00 1.14414E-12 5.94767E-13
 -1       295 1.73858E+01-1.61199E+00-1.89338E-01 6.85864E+00 1.04641E-12 8.98837E-13
 -1       296 2.72740E+01 1.70657E+00 2.32252E-01 7.49253E+00 1.04003E-12 7.32525E-13
 -1       297 3.64921E+01 3.88253E+00 5.25078E-01 5.59929E+00 8.45544E-13 3.95128E-13
 -1       298 4.35873E+01 6.00112E+00 8.56619E-01 3.63125E+00 8.43686E-13 1.71529E-14
 -1       299 4.58181E+01 7.10095E+00 9.29321E-01 3.18686E-01 9.54514E-13-5.60826E-13
 -1       300 4.54184E+01 6.19796E+00 9.98135E-01-3.33283E+00 1.33235E-12-9.92706E-13
 -1       301 3.84516E+01 4.59302E+00 6.67294E-01-5.66233E+00 1.45207E-12-1.45034E-12
 -1       302 2.90405E+01 2.13141E+00 2.96769E-01-7.39928E+00 1.58606E-12-1.69614E-12
 -1       303 1.92712E+01-1.93154E+00-1.23724E-01-6.86561E+00 1.35689E-12-1.53128E-12
 -1       304 9.67761E+00-5.19105E+00-4.83775E-01-5.57538E+00 1.29236E-12-1.61697E-12
 -1       305 2.78468E+00-8.53040E+00-8.21710E-01-3.27583E+00 9.04193E-13-1.41507E-12
 -1       306-6.86333E-01-1.06613E+01-9.77528E-01-1.16868E+00 3.82819E-13-1.25992E-12
 -1       307-1.09425E+00-1.09255E+01-9.90182E-01 8.46291E-01-3.81271E-13-9.39249E-13
 -1       308 1.73308E+00-8.82161E+00-7.91789E-01 3.14024E+00-9.46937E-13-1.18905E-12
 -1       309 7.11671E+00-5.84214E+00-5.96852E-01 4.96646E+00-1.47599E-12-1.54257E-12
 -1       310 1.52721E+01-1.87707E+00-2.34110E-01 6.81578E+00-1.72903E-12-1.68485E-12
 -1       311 2.54629E+01 1.72538E+00 2.02656E-01 7.77318E+00-1.65951E-12-1.83623E-12
 -1       312 3.53222E+01 4.18109E+00 5.53353E-01 6.55337E+00-1.48553E-12-1.64788E-12
 -1       313 4.25604E+01 6.05712E+00 8.17462E-01 4.05918E+00-1.43553E-12-1.18983E-12
 -1       314 4.49645E+01 7.03931E+00 8.67041E-01 5.02443E-01-1.34134E-12-3.21080E-13
 -1       315 4.48066E+01 6.26611E+00 9.51198E-01-3.31974E+00-1.29488E-12 3.86552E-13
 -1       316 3.81735E+01 4.95688E+00 6.65399E-01-5.85845E+00-1.45592E-12 9.19986E-13
 -1       317 2.90548E+01 2.40852E+00 3.12960E-01-7.36141E+00-1.08648E-12 1.66070E-12
 -1       318 1.85505E+01-5.71589E-01-9.18604E-02-7.27184E+00-1.04308E-12 1.75837E-12
 -1       319 1.02542E+01-4.84691E+00-4.08541E-01-5.98984E+00-7.97501E-13 1.31236E-12
 -1       320 2.81967E+00-8.26063E+00-7.81146E-01-3.50914E+00-4.01706E-13 1.00498E-12
 -1       321-6.27703E-01-9.66281E+00-8.16452E-01-1.55356E+00 1.71710E-13 7.66914E-13
 -1       322 2.01548E+01 3.02069E+00-1.78798E-02-2.07633E+00-5.67390E-13-3.51733E-13
 -1       323 2.07504E+01 2.20713E+00-1.76838E-02-2.33473E+00-6.21296E-13 2.59116E-14
 -1       324 1.96000E+01 3.71636E+00-1.49590E-02-1.28431E+00-3.41237E-13-7.05973E-13
 -1       325 1.94728E+01 3.88263E+00-1.33934E-02-8.97173E-01-2.24605E-13-7.52588E-13
 -1       326 1.94001E+01 3.98016E+00-1.24692E-02-5.26815E-01-9.69419E-14-7.51294E-13
 -1       327 1.93674E+01 4.02511E+00-1.20568E-02-1.67527E-01 2.51375E-14-7.29843E-13
 -1       328 1.93689E+01 4.02348E+00-1.20829E-02 1.88088E-01 1.37753E-13-7.26499E-13
 -1       329 1.94049E+01 3.97490E+00-1.25526E-02 5.47771E-01 2.46617E-13-7.05437E-13
 -1       330 1.94796E+01 3.87485E+00-1.36023E-02 9.12643E-01 3.60437E-13-6.33289E-13
 -1       331 1.96098E+01 3.70341E+00-1.55351E-02 1.30062E+00 4.87672E-13-5.26213E-13
 -1       332 1.98253E+01 3.42458E+00-1.87462E-02 1.70367E+00 5.90528E-13-3.69631E-13
 -1       333 2.01894E+01 2.96048E+00-2.28064E-02 2.09370E+00 6.63530E-13-9.39396E-14
 -1       334 2.07426E+01 2.12868E+00-3.02829E-02 2.29419E+00 6.54674E-13 4.04369E-13
 -1       335 2.10749E+01 1.18629E+00-2.46921E-02 1.90010E+00 5.85044E-13 8.82667E-13
 -1       336 2.03858E+01 4.91636E-01 8.46601E-03 9.02924E-01 4.78505E-13 6.96203E-13
 -1       337 2.04636E+01 6.80919E-01 1.24450E-02-9.92467E-01-4.74152E-13 1.08734E-13
 -1       338 2.00614E+01 3.47888E-01 7.31322E-03-4.14355E-01-3.73166E-13 8.77377E-14
 -1       339 1.98333E+01 1.93141E-01 4.32271E-03-8.95267E-02-3.02706E-13 3.58712E-14
 -1       340 1.97329E+01 1.14044E-01 2.16385E-03 1.04621E-01-2.32860E-13-7.06346E-14
 -1       341 1.97246E+01 7.28930E-02 1.15299E-03 2.26859E-01-1.78237E-13-1.20452E-13
 -1       342 1.97816E+01 5.30042E-02 7.38363E-04 3.10339E-01-1.56775E-13-1.73931E-13
 -1       343 1.98866E+01 4.60088E-02 5.85728E-04 3.74995E-01-1.10605E-13-1.37669E-13
 -1       344 2.00296E+01 4.68388E-02 5.49842E-04 4.33149E-01-1.18321E-13-1.57418E-13
 -1       345 2.02054E+01 5.15802E-02 5.56844E-04 4.91938E-01-1.84569E-13-2.21026E-13
 -1       346 2.04119E+01 5.63450E-02 5.50152E-04 5.54100E-01-1.15696E-13-2.36950E-13
 -1       347 2.06481E+01 5.64971E-02 4.69541E-04 6.17765E-01-7.79847E-14-2.93052E-13
 -1       348 2.09131E+01 4.60632E-02 2.45017E-04 6.75553E-01-3.20409E-16-2.34236E-13
 -1       349 2.12041E+01 1.74676E-02-1.98671E-04 7.13254E-01-6.24638E-14-1.41215E-13
 -1       350 2.15147E+01-3.79095E-02-9.22672E-04 7.08590E-01-4.26570E-14-1.90748E-13
 -1       351 2.18329E+01-1.27355E-01-1.93303E-03 6.31240E-01 1.16211E-14-2.97585E-13
 -1       352 2.21383E+01-2.51195E-01-3.11258E-03 4.46353E-01-5.67671E-14-2.56827E-13
 -1       353 2.23980E+01-3.92930E-01-4.13061E-03 1.25129E-01 5.54244E-16-1.56755E-13
 -1       354 2.25640E+01-5.07296E-01-4.39619E-03-3.33685E-01 1.06467E-13-8.44781E-14
 -1       355 2.25760E+01-5.16520E-01-3.42392E-03-8.71687E-01 1.29761E-13 1.09848E-14
 -1       356 2.23838E+01-3.34958E-01-1.34634E-03-1.34270E+00 1.82944E-13-5.92023E-14
 -1       357 2.19962E+01 6.36513E-02 1.85497E-03-1.52664E+00 3.56798E-14-4.25881E-14
 -1       358 2.15356E+01 5.61006E-01 3.73122E-03-1.23232E+00-1.68352E-13 9.06440E-14
 -1       359 2.12185E+01 9.14274E-01 4.03458E-03-4.62994E-01-2.12815E-13 8.85294E-15
 -1       360 2.12268E+01 9.08197E-01 3.98438E-03 5.06404E-01-2.11150E-13-1.92176E-13
 -1       361 2.15592E+01 5.43293E-01 3.76425E-03 1.26253E+00-1.13175E-13-3.05655E-13
 -1       362 2.20253E+01 4.44117E-02 1.34967E-03 1.53615E+00-2.60453E-14-3.18341E-13
 -1       363 2.24108E+01-3.43698E-01-1.35157E-03 1.33815E+00 1.25884E-13-4.95923E-13
 -1       364 2.26004E+01-5.14315E-01-3.57786E-03 8.65235E-01-8.76430E-14-6.21014E-13
 -1       365 2.25901E+01-4.97544E-01-4.33550E-03 3.34783E-01-2.58736E-13-6.16394E-13
 -1       366 2.24311E+01-3.79200E-01-3.97439E-03-1.11071E-01-1.82879E-13-6.33545E-13
 -1       367 2.21839E+01-2.35628E-01-2.92851E-03-4.16588E-01 4.43275E-14-5.43446E-13
 -1       368 2.18968E+01-1.10864E-01-1.74011E-03-5.84422E-01 9.06572E-15-3.92654E-13
 -1       369 2.16027E+01-2.06393E-02-7.22159E-04-6.43886E-01 1.12241E-14-2.13929E-13
 -1       370 2.13220E+01 3.57019E-02 1.26204E-05-6.29853E-01 1.09950E-13-2.76531E-14
 -1       371 2.10668E+01 6.53772E-02 4.66125E-04-5.72608E-01-7.69734E-14 6.12894E-14
 -1       372 2.08431E+01 7.66450E-02 6.95096E-04-4.94699E-01 2.92071E-13-2.40119E-14
 -1       373 2.06527E+01 7.64825E-02 7.68133E-04-4.11191E-01 8.39312E-14-2.48450E-14
 -1       374 2.04949E+01 7.00085E-02 7.44945E-04-3.31189E-01-1.00697E-13-2.97587E-15
 -1       375 2.03670E+01 6.06563E-02 6.70175E-04-2.59517E-01-2.02641E-13-7.49143E-14
 -1       376 2.02657E+01 5.05704E-02 5.74024E-04-1.98161E-01-3.60968E-14 4.80168E-14
 -1       377 2.01871E+01 4.09991E-02 4.75292E-04-1.47340E-01 1.57186E-13-9.91205E-16
 -1       378 2.01275E+01 3.26048E-02 3.84334E-04-1.06261E-01-9.46539E-14 8.81165E-14
 -1       379 2.00834E+01 2.56706E-02 3.04485E-04-7.36193E-02 5.63975E-16-9.74757E-15
 -1       380 2.00515E+01 2.02163E-02 2.38982E-04-4.79752E-02 4.04510E-14 1.48695E-13
 -1       381 2.00290E+01 1.59672E-02 2.12842E-04-2.79427E-02 1.95116E-13 9.20012E-14
 -1       382 2.00147E+01 1.15944E-02 9.86572E-05-1.35766E-02 3.57519E-13 7.62212E-14
 -1       383 1.99041E+01 2.34175E-01 1.09280E-02 3.67287E-01 3.94945E-13 5.52245E-13
 -1       384 1.96427E+01 1.24769E-01 6.38123E-03 7.66165E-02 3.09161E-13 3.92334E-13
 -1       385 1.95454E+01 7.14629E-02 3.10789E-03-9.01669E-02 2.01330E-13 2.74133E-13
 -1       386 1.95567E+01 4.49730E-02 1.59425E-03-1.92229E-01 1.16841E-13 1.97757E-13
 -1       387 1.96421E+01 3.31869E-02 1.00582E-03-2.61521E-01 1.41996E-13 1.44373E-13
 -1       388 1.97815E+01 3.06328E-02 8.21320E-04-3.16920E-01 1.65805E-13 1.28651E-13
 -1       389 1.99655E+01 3.44903E-02 8.25519E-04-3.70779E-01 1.10061E-13 6.53827E-14
 -1       390 2.01913E+01 4.29837E-02 9.29015E-04-4.31693E-01-1.03688E-14 1.07099E-13
 -1       391 2.04607E+01 5.45724E-02 1.07502E-03-5.05536E-01 5.97644E-14 9.42811E-14
 -1       392 2.07784E+01 6.72982E-02 1.19789E-03-5.95439E-01 9.29592E-14 7.28786E-14
 -1       393 2.11500E+01 7.80022E-02 1.20346E-03-7.00757E-01 1.56060E-13 9.52851E-14
 -1       394 2.15798E+01 8.12358E-02 9.56915E-04-8.14835E-01 9.21694E-14 7.16638E-14
 -1       395 2.20679E+01 6.78836E-02 2.89832E-04-9.21233E-01 4.32146E-14 3.72911E-14
 -1       396 2.26062E+01 2.40243E-02-9.50910E-04-9.88454E-01 8.89990E-16-2.28398E-15
 -1       397 2.31738E+01-6.82089E-02-2.79132E-03-9.64560E-01 1.63646E-14 2.84568E-14
 -1       398 2.37302E+01-2.23559E-01-4.91661E-03-7.76432E-01-3.62330E-14 1.88580E-13
 -1       399 2.42073E+01-4.33663E-01-6.51546E-03-3.44990E-01-2.01303E-13 2.69005E-13
 -1       400 2.45015E+01-6.31769E-01-6.37342E-03 3.65424E-01-2.29788E-13 2.72280E-13
 -1       401 2.44806E+01-6.64540E-01-4.56519E-03 1.25243E+00-4.66810E-14 3.96463E-13
 -1       402 2.40475E+01-3.44934E-01-4.82723E-03 1.97928E+00 2.84980E-13 3.86857E-13
 -1       403 2.32841E+01 3.53756E-01-8.58448E-03 2.03004E+00 1.00170E-13 4.87209E-13
 -1       404 2.25846E+01 1.06593E+00-1.45358E-02 1.06906E+00 5.15143E-14 3.16129E-13
 -1       405 2.24698E+01 1.22342E+00-3.76294E-03-4.93013E-01 1.77081E-14 6.10150E-14
 -1       406 2.30304E+01 6.74401E-01-3.67563E-03-1.77439E+00 1.56809E-13-2.73705E-14
 -1       407 2.38412E+01-9.09709E-02-3.03168E-03-2.12218E+00 1.44277E-13 7.06588E-14
 -1       408 2.44278E+01-5.84440E-01-3.06973E-03-1.59673E+00 9.61470E-15 3.76422E-14
 -1       409 2.45897E+01-6.75368E-01-6.90145E-03-7.15765E-01 1.35439E-13 1.76084E-13
 -1       410 2.43898E+01-5.19552E-01-8.38162E-03 8.52687E-02 2.64406E-13 2.48719E-13
 -1       411 2.39661E+01-2.99731E-01-6.92730E-03 6.20745E-01 1.23237E-13-6.97498E-14
 -1       412 2.34383E+01-1.17182E-01-4.24881E-03 8.86808E-01 2.46025E-14-3.58221E-13
 -1       413 2.28872E+01 9.07381E-04-1.74177E-03 9.54880E-01-1.57008E-13-3.56226E-13
 -1       414 2.23617E+01 6.34711E-02 2.92403E-05 9.03848E-01-2.38522E-14-6.77364E-14
 -1       415 2.18885E+01 8.85888E-02 1.03836E-03 7.94295E-01 3.82534E-13-1.05402E-13
 -1       416 2.14795E+01 9.20433E-02 1.47640E-03 6.65161E-01 3.29315E-13 1.32596E-13
 -1       417 2.11369E+01 8.46348E-02 1.55654E-03 5.38352E-01 8.65864E-14-8.16125E-14
 -1       418 2.08573E+01 7.28322E-02 1.44540E-03 4.24504E-01 1.59038E-13-3.56984E-13
 -1       419 2.06339E+01 6.01444E-02 1.25172E-03 3.27563E-01-1.30286E-13-3.28037E-13
 -1       420 2.04589E+01 4.82882E-02 1.03800E-03 2.47849E-01-2.14181E-13 3.70722E-14
 -1       421 2.03244E+01 3.79804E-02 8.36195E-04 1.83908E-01-2.26379E-13 5.89376E-14
 -1       422 2.02229E+01 2.94197E-02 6.60316E-04 1.33564E-01-2.28374E-13-8.02223E-14
 -1       423 2.01478E+01 2.25638E-02 5.13656E-04 9.44659E-02 9.26935E-14 2.95614E-14
 -1       424 2.00936E+01 1.72699E-02 3.93639E-04 6.43550E-02-7.35443E-14-2.28231E-14
 -1       425 2.00557E+01 1.33203E-02 2.95621E-04 4.11996E-02 4.00655E-13-1.13851E-13
 -1       426 2.00301E+01 1.03843E-02 2.04402E-04 2.33890E-02 2.86476E-13-5.36066E-14
 -1       427 2.00138E+01 7.82084E-03 1.37381E-04 9.93981E-03 1.31541E-13 7.69450E-14
 -1       428 2.00072E+01 6.08323E-03 6.66957E-05 4.12933E-03 6.82690E-15 3.47297E-13
 -1       429 2.00056E+01 4.62056E-02 5.17084E-05 3.13789E-02-1.60741E-13-9.66412E-14
 -1       430 2.00103E+01 2.84440E-02 9.10018E-05 2.35503E-02-3.79641E-14 6.90397E-13
 -1       431 2.00103E+01 1.55182E-02 9.99075E-05 1.34044E-02 2.23298E-15 6.80272E-13
 -1       432 1.99997E+01 6.43651E-02-3.26840E-07 3.35954E-02-4.02664E-13-8.31389E-13
 -1       433 1.99939E+01 8.10911E-02-4.84045E-05 2.96239E-02-9.20633E-14-4.10554E-13
 -1       434 1.99895E+01 9.37045E-02-8.76347E-05 2.02067E-02 1.47496E-13-2.31209E-13
 -1       435 1.99871E+01 1.00406E-01-1.09557E-04 7.15856E-03-3.23634E-13 3.21585E-14
 -1       436 1.99871E+01 1.00244E-01-1.09977E-04-7.12992E-03-3.71311E-13 4.30459E-14
 -1       437 1.99895E+01 9.32639E-02-8.83558E-05-2.00969E-02-2.35249E-13-7.92315E-14
 -1       438 1.99939E+01 8.07694E-02-4.96443E-05-2.92932E-02-5.56560E-14 2.25300E-13
 -1       439 1.99995E+01 6.41078E-02-5.67184E-06-3.33361E-02 9.42936E-15 4.13948E-13
 -1       440 2.00054E+01 4.58077E-02 4.02112E-05-3.12379E-02 8.29779E-14 1.67933E-14
 -1       441 2.00101E+01 2.79542E-02 7.89747E-05-2.35145E-02-6.15374E-14-8.82570E-14
 -1       442 9.28549E+00-5.45203E+00-4.61013E-02 6.50581E+00-1.75013E-13 2.09346E-13
 -1       443 1.44374E+00-3.84346E+00-1.23546E-02-9.18897E-02 3.39659E-14 8.78880E-13
 -1       444 2.87863E+00-4.71396E+00-6.37237E-02 3.53055E+00-1.72112E-13 9.24150E-13
 -1       445 1.83124E+01-5.45026E+00-3.44495E-02 6.59293E+00 1.28147E-13-1.35184E-13
 -1       446 2.59017E+01-3.89306E+00-6.56488E-03 4.60339E+00 1.24442E-13-1.41553E-14
 -1       447 1.98025E+01 3.45467E+00-2.07355E-02-1.69144E+00-4.54516E-13-6.09908E-13
 -1       448 3.51576E+01 4.11170E+00 7.71624E-02 1.80775E-01 7.36217E-13-5.24553E-13
 -1       449 3.49055E+01 7.14746E+00-9.22669E-03-6.46387E-01 9.05415E-13-6.75508E-13
 -1       450 3.51461E+01 7.61679E+00 6.78030E-03 4.01445E-01 9.82325E-13-3.51892E-13
 -1       451 3.50935E+01 5.14359E+00 3.04523E-02 5.22513E-01 1.12407E-12-1.62523E-13
 -1       452 3.18936E+01-1.28191E-01-4.79457E-02-9.27734E-01 6.06363E-13-2.10942E-15
 -1       453 2.79093E+01-3.44850E+00 1.80218E-02-3.57765E+00 2.95743E-13-2.48163E-13
 -1       454 1.87597E+01-5.56694E+00-4.06848E-02-6.56565E+00-8.32390E-14-5.50490E-13
 -1       455 1.02472E+01-5.65097E+00-6.09568E-02-6.63332E+00-1.76373E-13-1.01395E-12
 -1       456 4.58098E+00-4.44319E+00 1.24892E-02-4.61613E+00-1.66020E-13-1.21796E-12
 -1       457 1.41083E+00-4.06661E+00-2.23128E-02-5.46013E-01 7.88362E-14-1.32802E-12
 -1       458 2.59324E+00-4.70874E+00-7.64315E-02 3.55664E+00-4.82253E-15-1.17983E-12
 -1       459 8.28648E+00-5.46748E+00-7.75189E-02 6.50495E+00-1.20334E-13-1.07311E-12
 -1       460 1.60599E+01-5.39461E+00-4.39559E-02 7.05627E+00-2.24515E-13-8.20930E-13
 -1       461 2.41344E+01-3.81118E+00-5.69175E-03 5.47331E+00-5.81840E-13-6.94875E-13
 -1       462 3.02536E+01-7.55821E-01 1.68402E-03 2.48158E+00-7.38737E-13-4.24563E-13
 -1       463 3.36308E+01 3.83542E+00-1.61097E-03 2.03496E-01-1.10659E-12-2.56045E-13
 -1       464 3.43077E+01 7.28489E+00-2.88743E-02-4.15842E-01-1.58304E-12-1.38167E-13
 -1       465 3.49474E+01 7.82997E+00 9.28818E-03 2.06214E-01-1.46166E-12-1.32845E-13
 -1       466 3.48346E+01 5.62402E+00 5.00038E-02 2.30498E-02-1.34157E-12-7.96585E-15
 -1       467 3.19034E+01 9.78801E-01 2.10138E-02-1.65723E+00-7.60123E-13 8.42659E-14
 -1       468 2.62960E+01-2.82769E+00 1.03474E-03-4.75146E+00-1.58706E-13 7.53633E-13
 -1       469 1.91699E+01-4.98337E+00-2.26905E-02-6.65602E+00 4.76424E-14 7.22450E-13
 -1       470 1.04135E+01-5.31733E+00-2.70013E-02-6.96796E+00 2.24223E-13 9.58435E-13
 -1       471 4.52751E+00-4.48119E+00-1.59093E-03-4.94780E+00 9.19126E-14 1.10266E-12
 -1       472 3.13826E+01-5.24538E-01 2.47649E-02 2.31525E+00 5.64365E-13-1.91541E-13
 -1       473 2.03897E+01 8.44059E-01 4.06160E-03 9.28835E-01 5.02318E-13 1.59467E-13
 -1       474 1.97339E+01 3.16203E+00-5.27907E-03-6.04742E-01-1.61335E-13-6.61366E-13
 -1       475 1.98365E+01 2.97779E+00-5.74852E-03-9.11232E-01-2.75436E-13-6.47466E-13
 -1       476 1.96592E+01 3.29492E+00-4.94172E-03 8.53002E-03 7.75334E-14-6.37892E-13
 -1       477 1.96800E+01 3.25926E+00-5.02080E-03 3.14423E-01 1.89724E-13-6.47324E-13
 -1       478 1.97392E+01 3.15515E+00-5.35403E-03 6.16216E-01 2.93308E-13-5.79053E-13
 -1       479 1.98451E+01 2.96586E+00-5.91551E-03 9.21632E-01 4.21135E-13-4.91840E-13
 -1       480 2.00066E+01 2.66712E+00-6.50080E-03 1.21183E+00 5.13361E-13-3.89324E-13
 -1       481 2.02499E+01 2.20745E+00-5.67768E-03 1.45690E+00 5.78735E-13-2.27004E-13
 -1       482 2.01459E+01 4.74391E-01 5.17061E-03 4.06001E-01 4.35144E-13 1.29499E-13
 -1       483 2.03645E+01 9.95038E-01 3.00583E-03-8.92046E-01-4.21098E-13-2.05014E-13
 -1       484 3.08019E+01 3.26134E-01-1.04933E-01-1.37202E+00 2.90379E-13-6.76341E-13
 -1       485 2.02077E+01 5.74035E-01 2.00618E-03-3.98280E-01-3.59461E-13-1.81578E-13
 -1       486 2.00817E+01 3.46963E-01 1.16764E-03-7.08581E-02-3.17285E-13-1.60916E-13
 -1       487 2.00087E+01 2.20312E-01 5.76512E-04 1.46039E-01-2.39498E-13-1.93473E-13
 -1       488 1.99862E+01 1.51621E-01 3.36369E-04 2.94854E-01-1.87628E-13-1.86792E-13
 -1       489 2.00056E+01 1.18588E-01 2.45855E-04 4.04623E-01-1.34076E-13-2.07471E-13
 -1       490 2.00589E+01 1.08042E-01 2.23217E-04 4.95035E-01-9.35513E-14-1.86753E-13
 -1       491 2.01407E+01 1.10744E-01 2.29858E-04 5.78920E-01-1.55711E-13-1.26221E-13
 -1       492 2.02481E+01 1.18680E-01 2.41695E-04 6.63575E-01-1.30969E-13-8.01153E-14
 -1       493 2.03808E+01 1.23319E-01 2.35373E-04 7.51099E-01-9.89818E-14 2.77822E-15
 -1       494 2.05404E+01 1.14316E-01 1.82506E-04 8.37934E-01-7.82968E-14 5.43740E-15
 -1       495 2.07309E+01 7.86206E-02 4.83281E-05 9.13794E-01-2.11717E-14-1.12002E-13
 -1       496 2.09589E+01 4.79981E-04-2.05662E-04 9.60169E-01-1.02143E-13-1.08624E-13
 -1       497 2.12329E+01-1.36480E-01-6.12890E-04 9.48896E-01-1.06568E-13-8.61330E-14
 -1       498 2.15619E+01-3.42906E-01-1.18318E-03 8.41913E-01-1.21535E-14-1.13132E-13
 -1       499 2.19482E+01-6.10228E-01-1.85429E-03 5.94796E-01 4.55856E-14-4.38227E-14
 -1       500 2.23746E+01-8.88698E-01-2.36597E-03 1.69254E-01 6.03784E-14 2.81500E-14
 -1       501 2.27839E+01-1.06367E+00-2.16121E-03-4.37317E-01 1.47483E-13 2.64134E-14
 -1       502 2.30668E+01-9.57554E-01-1.51174E-03-1.13986E+00 1.58396E-13-1.40993E-14
 -1       503 2.30915E+01-4.06664E-01-2.59024E-03-1.71278E+00 4.79436E-14-3.83877E-14
 -1       504 2.28257E+01 5.54811E-01-1.94020E-03-1.80312E+00-2.64255E-14-2.22743E-14
 -1       505 2.24316E+01 1.54634E+00-4.91162E-03-1.17408E+00-2.33238E-13-1.18142E-13
 -1       506 2.22506E+01 1.96647E+00-7.42123E-03 2.86169E-02-4.34675E-13-1.78406E-13
 -1       507 2.24541E+01 1.51286E+00-3.40406E-03 1.22523E+00-3.24487E-13-4.01514E-13
 -1       508 2.28458E+01 5.14264E-01-3.03114E-03 1.82670E+00-6.45650E-14-4.11759E-13
 -1       509 2.31072E+01-4.34121E-01-1.81057E-03 1.70692E+00-1.14465E-13-5.40229E-13
 -1       510 2.30712E+01-9.60423E-01-2.19312E-03 1.12903E+00-1.70833E-14-5.10180E-13
 -1       511 2.27866E+01-1.04837E+00-2.18247E-03 4.35082E-01-2.23312E-13-5.87461E-13
 -1       512 2.23818E+01-8.63253E-01-2.17441E-03-1.56053E-01-9.51249E-14-4.28680E-13
 -1       513 2.19646E+01-5.79938E-01-1.66972E-03-5.62891E-01 1.05170E-14-1.66645E-13
 -1       514 2.15907E+01-3.10327E-01-1.05481E-03-7.89835E-01 4.27633E-14-2.43020E-13
 -1       515 2.12766E+01-1.02488E-01-5.18974E-04-8.75904E-01 1.87945E-13-1.66989E-13
 -1       516 2.10194E+01 3.60005E-02-1.15148E-04-8.65612E-01 2.00621E-13-1.85826E-13
 -1       517 2.08100E+01 1.15851E-01 1.43555E-04-7.96964E-01 1.32838E-14-6.80840E-14
 -1       518 2.06393E+01 1.52837E-01 2.82469E-04-6.98456E-01 6.07326E-14-8.46794E-14
 -1       519 2.05001E+01 1.61603E-01 3.37180E-04-5.89637E-01 6.24733E-14-3.40618E-13
 -1       520 2.03868E+01 1.53577E-01 3.38902E-04-4.82851E-01 6.58923E-14-3.25199E-13
 -1       521 2.02951E+01 1.36828E-01 3.11057E-04-3.85131E-01-3.22415E-14 1.13284E-14
 -1       522 2.02216E+01 1.16652E-01 2.69646E-04-2.99841E-01-6.30860E-14 2.62095E-13
 -1       523 2.01634E+01 9.63010E-02 2.24769E-04-2.27948E-01-3.12662E-14 2.62183E-13
 -1       524 2.01179E+01 7.76256E-02 1.82649E-04-1.68963E-01 3.24296E-14 1.05856E-13
 -1       525 2.00828E+01 6.15534E-02 1.46907E-04-1.21583E-01-4.20366E-14 2.97094E-13
 -1       526 2.00559E+01 4.83329E-02 1.16644E-04-8.41695E-02 1.77242E-13 3.69897E-13
 -1       527 2.00356E+01 3.77743E-02 1.03729E-04-5.50502E-02 2.01135E-14 4.00085E-13
 -1       528 1.99017E+01 1.72366E-01 1.20722E-03-1.32250E-01 2.13639E-13 4.72434E-14
 -1       529 1.98880E+01 1.18221E-01 6.57980E-04-2.73757E-01 1.81476E-13-1.05918E-15
 -1       530 1.99271E+01 9.50588E-02 4.70744E-04-3.78498E-01 1.64228E-13-4.77988E-14
 -1       531 2.00081E+01 9.25826E-02 4.44107E-04-4.67994E-01 1.28105E-13 3.64894E-15
 -1       532 2.01240E+01 1.04691E-01 4.96211E-04-5.57262E-01 3.68439E-14 2.36581E-14
 -1       533 2.02716E+01 1.26902E-01 5.92786E-04-6.56841E-01 8.11396E-14-4.48391E-14
 -1       534 2.04503E+01 1.54676E-01 7.01119E-04-7.73480E-01 1.21972E-13-6.72445E-14
 -1       535 2.06613E+01 1.81821E-01 7.77413E-04-9.09756E-01 9.52071E-14-1.03272E-13
 -1       536 2.09080E+01 1.98492E-01 7.54069E-04-1.06257E+00 1.16779E-13-1.06897E-13
 -1       537 2.11959E+01 1.88587E-01 5.30185E-04-1.22031E+00 6.85544E-14-5.23531E-14
 -1       538 2.15348E+01 1.26986E-01-2.32700E-05-1.35832E+00 3.06059E-14 1.46683E-14
 -1       539 2.19410E+01-2.13709E-02-1.03396E-03-1.43296E+00-6.66627E-14-3.58608E-14
 -1       540 2.24391E+01-2.95332E-01-2.57535E-03-1.37551E+00-9.19832E-14 1.44098E-13
 -1       541 2.30561E+01-7.13143E-01-4.39414E-03-1.09053E+00-2.67424E-13 2.56636E-13
 -1       542 2.37940E+01-1.21404E+00-5.78473E-03-4.73618E-01-2.79234E-13 3.04938E-13
 -1       543 2.45698E+01-1.57213E+00-5.61914E-03 5.20847E-01-1.43377E-13 2.67065E-13
 -1       544 2.51499E+01-1.35949E+00-7.51536E-03 1.72109E+00-1.37548E-14 4.70982E-13
 -1       545 2.52195E+01-1.86634E-01-2.38852E-02 2.56234E+00 1.84254E-14 6.49378E-13
 -1       546 2.47666E+01 1.63096E+00-2.18768E-02 2.23055E+00 2.36056E-13 5.89090E-13
 -1       547 2.40862E+01 2.89759E+00-1.08873E-01 4.75046E-01 3.90684E-13 4.87320E-13
 -1       548 2.46285E+01 2.15247E+00-2.77321E-02-1.70554E+00 2.19076E-13 2.56739E-14
 -1       549 2.50326E+01 4.92380E-01-2.27953E-02-2.59812E+00 2.62115E-13-2.75377E-13
 -1       550 2.52646E+01-1.05007E+00-1.08261E-02-2.12912E+00 5.11136E-15-3.25031E-13
 -1       551 2.48372E+01-1.58396E+00-6.57403E-03-9.73546E-01-3.67384E-14-2.16137E-13
 -1       552 2.41060E+01-1.37663E+00-6.48372E-03 1.28729E-01 1.41338E-13-1.89268E-13
 -1       553 2.33448E+01-8.86582E-01-5.47193E-03 8.79063E-01 2.65781E-13-1.54423E-13
 -1       554 2.26904E+01-4.20203E-01-3.46904E-03 1.26485E+00 1.56006E-13-1.50726E-13
 -1       555 2.21641E+01-8.91837E-02-1.54477E-03 1.38140E+00-1.37315E-13-1.73583E-15
 -1       556 2.17434E+01 1.04823E-01-1.76398E-04 1.33125E+00-2.24839E-13 5.92546E-14
 -1       557 2.14014E+01 1.97302E-01 6.08386E-04 1.19327E+00 1.43580E-13 1.24953E-13
 -1       558 2.11191E+01 2.25911E-01 9.67440E-04 1.01988E+00 2.79455E-13 2.79046E-13
 -1       559 2.08844E+01 2.19182E-01 1.05639E-03 8.42471E-01 3.82336E-13 2.03642E-13
 -1       560 2.06898E+01 1.95615E-01 9.96991E-04 6.77876E-01 1.75514E-13 2.88046E-13
 -1       561 2.05300E+01 1.66056E-01 8.70701E-04 5.33713E-01 4.84320E-14 2.80347E-13
 -1       562 2.04004E+01 1.36337E-01 7.25139E-04 4.12176E-01-2.97583E-13 3.35633E-14
 -1       563 2.02970E+01 1.09280E-01 5.85078E-04 3.12489E-01-6.57461E-14-2.69383E-14
 -1       564 2.02158E+01 8.60128E-02 4.61449E-04 2.32423E-01-2.19080E-13-2.16903E-13
 -1       565 2.01531E+01 6.67799E-02 3.58153E-04 1.69183E-01-2.79451E-14-1.99686E-13
 -1       566 2.01055E+01 5.14101E-02 2.73127E-04 1.19882E-01 3.14644E-14-9.79494E-14
 -1       567 2.00700E+01 3.94936E-02 2.16155E-04 8.18277E-02 9.01920E-14-8.48728E-14
 -1       568 2.00439E+01 3.04799E-02 1.96736E-04 5.26981E-02 2.72273E-13 3.01353E-13
 -1       569 2.00249E+01 2.31867E-02 1.50940E-04 3.05115E-02-5.83788E-14 7.43922E-13
 -1       570 1.99919E+01 9.26403E-02-1.42952E-05 4.82350E-02 1.07707E-13-6.40857E-13
 -1       571 1.99810E+01 1.09749E-01-3.13758E-05 3.72731E-02 1.20377E-13-2.22630E-13
 -1       572 2.00159E+01 4.90359E-02-7.62629E-06 4.57547E-02-3.22206E-13 2.11387E-13
 -1       573 2.00044E+01 7.15951E-02 5.13129E-07 5.11715E-02-3.89593E-13-4.81582E-13
 -1       574 1.99738E+01 1.20712E-01-4.54838E-05 2.01558E-02 1.03338E-13-3.60398E-13
 -1       575 1.99713E+01 1.24244E-01-5.12337E-05-2.27885E-04-1.70105E-13-1.29372E-13
 -1       576 1.99740E+01 1.19958E-01-4.59545E-05-2.05078E-02-2.99997E-13 2.68467E-13
 -1       577 1.99811E+01 1.08688E-01-3.18153E-05-3.71066E-02-6.02714E-14 2.08882E-13
 -1       578 1.99918E+01 9.14074E-02-2.18946E-05-4.78622E-02-1.48278E-14 2.46918E-14
 -1       579 2.00039E+01 7.04238E-02-1.71800E-05-5.07348E-02-8.89041E-14 3.46416E-13
 -1       580 2.00152E+01 4.83100E-02 4.30011E-05-4.54409E-02-1.59130E-13 1.00458E-13
 -1       581 1.66641E+01-5.27404E+00 8.49111E-02 6.68788E+00-4.46435E-13-2.10283E-13
 -1       582 5.29043E+00-1.56262E+00 1.72631E-01-2.85027E+00 1.36412E-13 7.01217E-13
 -1       583 1.99832E+01 2.77305E-01 2.58891E-03 7.79148E-02 3.12720E-13 7.25484E-14
 -1       584 5.27587E+00-1.44423E+00 1.78111E-01 2.25952E+00-2.15515E-13 8.17180E-13
 -1       585 1.76214E+01-5.27429E+00 7.84236E-02-6.81137E+00 5.56846E-13 4.80673E-13
 -1       586 2.37376E+01-5.60587E+00 1.75165E-02 4.64183E+00-2.96319E-13-3.04996E-13
 -1       587 9.05350E+00-3.04394E+00 1.38229E-01 5.62651E+00-4.03989E-13 3.10751E-13
 -1       588 2.94061E+01 7.28744E+00-1.70044E-01-2.16873E-01-1.38510E-12-9.09628E-14
 -1       589 3.06851E+01 4.15125E+00-1.28155E-01-2.09111E+00 6.81094E-13-5.16608E-13
 -1       590 1.96766E+01 3.26362E+00-5.02214E-03-2.97413E-01-3.35940E-14-6.50916E-13
 -1       591 3.01125E+01 6.77247E+00-1.79197E-01-9.74665E-02 6.99912E-13-7.80422E-14
 -1       592 1.70224E+01-5.28402E+00 7.54008E-02-6.60509E+00-6.80636E-13-5.25087E-13
 -1       593 3.01961E+01 5.41525E+00-1.51872E-01 1.88470E+00 7.45307E-13 1.37321E-13
 -1       594 3.08658E+01 1.62824E+00-1.33556E-01 1.90922E+00 4.61714E-13 4.74731E-13
 -1       595 2.91737E+01-3.03112E+00-6.92487E-02-3.32457E-01 8.73308E-14 5.26190E-13
 -1       596 2.85979E+01-2.76832E+00-7.15815E-02-1.18172E+00 1.17774E-13-3.19612E-13
 -1       597 2.45685E+01-5.53934E+00 5.85980E-03-4.08786E+00-4.29150E-13-3.62002E-14
 -1       598 1.09865E+01-3.70862E+00 1.32593E-01-6.24410E+00-5.78870E-13-7.22374E-13
 -1       599 5.27489E+00-1.78849E+00 1.68865E-01-2.67288E+00-2.01970E-13-1.13165E-12
 -1       600 4.55576E+00-1.63760E+00 1.63359E-01 1.89718E+00 1.55334E-13-1.15084E-12
 -1       601 8.55941E+00-2.86127E+00 1.45472E-01 5.72340E+00 3.18218E-13-1.01251E-12
 -1       602 1.47623E+01-4.90245E+00 8.73000E-02 7.06222E+00 3.21229E-13-6.68809E-13
 -1       603 2.21839E+01-5.47114E+00 3.50259E-02 5.53168E+00 1.50283E-13-4.11240E-13
 -1       604 2.72755E+01-3.98046E+00-3.98900E-02 2.30196E+00-3.38653E-14 1.94567E-13
 -1       605 2.99331E+01 2.56731E-01-1.02463E-01-8.65225E-01-5.38750E-13 4.00943E-13
 -1       606 2.99669E+01 4.69945E+00-1.61419E-01-1.75260E+00-1.06962E-12 3.78170E-13
 -1       607 3.00087E+01 5.94936E+00-1.70908E-01 1.43632E+00-1.23382E-12-4.95104E-13
 -1       608 3.05004E+01 2.36273E+00-1.12196E-01 1.40079E+00-7.61884E-13-6.45241E-13
 -1       609 2.44995E+01-5.13057E+00 1.13661E-02-4.33744E+00 4.95194E-13 1.62783E-13
 -1       610 1.01060E+01-3.28041E+00 1.28783E-01-6.26725E+00 5.99590E-13 7.86426E-13
 -1       611 2.04052E+01 1.78346E+00-5.66186E-03-1.50466E+00-5.28742E-13-2.72981E-13
 -1       612 2.05891E+01 1.31016E+00-9.55095E-04 1.51415E+00 5.98171E-13 2.53180E-13
 -1       613 2.87783E+01-3.56220E+00-4.26180E-02 1.21722E+00-5.59049E-14-6.71296E-13
 -1       614 2.79852E+01 4.84053E+00-1.17472E-01-1.92212E+00 6.75369E-13 3.35669E-14
 -1       615 1.99929E+01 2.69591E+00-6.57641E-03-1.20964E+00-3.91460E-13-5.75079E-13
 -1       616 2.00247E+01 3.13528E-02 9.78278E-05-3.88267E-02-6.66871E-14 3.88182E-13
 -1       617 9.82849E+00-1.71708E+00 1.54755E-01-4.65041E+00-4.03441E-13-6.86867E-13
 -1       618 1.99450E+01 2.53850E+00-1.55974E-03 3.63568E-01 2.23180E-13-5.29926E-13
 -1       619 1.99070E+01 2.62021E+00-1.48983E-03 1.25184E-01 1.18571E-13-5.62013E-13
 -1       620 2.01279E+01 2.10578E+00-1.60606E-03 7.93328E-01 3.94742E-13-3.84645E-13
 -1       621 2.02561E+01 1.71728E+00-2.22145E-03 9.32779E-01 4.60051E-13-2.65187E-13
 -1       622 2.03441E+01 1.06808E+00 2.90931E-03 7.69574E-01 4.65304E-13-1.17292E-13
 -1       623 1.96875E+01-4.82219E+00 6.08538E-02 5.70997E+00 5.34947E-13-3.85808E-13
 -1       624 2.02429E+01 6.62402E-01 1.18014E-03 3.35320E-01 3.84319E-13-6.90315E-14
 -1       625 2.18676E+01-5.00509E+00 3.82204E-02-4.77979E+00 6.55295E-13 3.16924E-13
 -1       626 2.02709E+01 7.33061E-01 2.01577E-04-2.98764E-01-3.05924E-13-2.95678E-13
 -1       627 2.02092E+01 4.75320E-01 2.14575E-04-1.03473E-02-2.78668E-13-2.04908E-13
 -1       628 2.01576E+01 3.22224E-01 1.05271E-04 1.97228E-01-1.97682E-13-1.89812E-13
 -1       629 2.01249E+01 2.37849E-01 7.06765E-05 3.50530E-01-1.51266E-13-2.11918E-13
 -1       630 2.01119E+01 1.98984E-01 6.27941E-05 4.71828E-01-8.73169E-14-1.60866E-13
 -1       631 2.01170E+01 1.89429E-01 6.70653E-05 5.77849E-01-4.85404E-14-1.11688E-13
 -1       632 2.01390E+01 1.96210E-01 7.56836E-05 6.80093E-01-1.02348E-13-2.82151E-14
 -1       633 2.01784E+01 2.06859E-01 8.29518E-05 7.85229E-01-1.27874E-13-2.55163E-14
 -1       634 2.02380E+01 2.07371E-01 8.22547E-05 8.95038E-01-8.26380E-14-2.58320E-14
 -1       635 2.03250E+01 1.80591E-01 6.34693E-05 1.00588E+00-7.83729E-14 2.87621E-14
 -1       636 2.04517E+01 1.05195E-01 1.26216E-05 1.10759E+00-5.92698E-14 1.15955E-13
 -1       637 2.06383E+01-4.38149E-02-8.95291E-05 1.18162E+00-7.16990E-14 9.41145E-14
 -1       638 2.09136E+01-2.91083E-01-2.73008E-04 1.19832E+00-6.77884E-14 8.52276E-14
 -1       639 2.13123E+01-6.49672E-01-5.94357E-04 1.11349E+00 6.33629E-14 1.22912E-13
 -1       640 2.18635E+01-1.09715E+00-1.09182E-03 8.66681E-01 1.39646E-13 2.10335E-13
 -1       641 2.25625E+01-1.53522E+00-1.54442E-03 3.89692E-01 1.22409E-13 2.46775E-13
 -1       642 2.33238E+01-1.74312E+00-1.07114E-03-3.53378E-01 1.13858E-13 3.22777E-13
 -1       643 2.39417E+01-1.38656E+00-3.29033E-03-1.26420E+00 1.61965E-13 3.10958E-13
 -1       644 2.41690E+01-1.71716E-01-9.44000E-03-2.01957E+00 4.42454E-14 3.66441E-13
 -1       645 2.38413E+01 1.64567E+00-3.09907E-02-1.97603E+00-2.78532E-13 1.91009E-13
 -1       646 2.33864E+01 3.07344E+00-3.51933E-02-8.21328E-01-5.47478E-13-7.06855E-14
 -1       647 2.35083E+01 2.99041E+00-2.09016E-02 8.75049E-01-5.99116E-13-3.03179E-13
 -1       648 2.38837E+01 1.55174E+00-2.74482E-02 1.97441E+00-2.85345E-13-4.83245E-13
 -1       649 2.41517E+01-2.55253E-01-1.30340E-02 1.98872E+00-7.94641E-14-6.61112E-13
 -1       650 2.39227E+01-1.40317E+00-6.16892E-03 1.24808E+00 2.17523E-15-3.28965E-13
 -1       651 2.33029E+01-1.72784E+00-1.20798E-03 3.43227E-01-4.83627E-14-3.03835E-13
 -1       652 2.25405E+01-1.49784E+00-1.04541E-03-3.80620E-01 2.64645E-14 2.60058E-14
 -1       653 2.18500E+01-1.05132E+00-5.48615E-04-8.36689E-01 2.07123E-14 8.58908E-14
 -1       654 2.13079E+01-5.99587E-01-3.27167E-04-1.06218E+00 1.07263E-13 2.12197E-13
 -1       655 2.09186E+01-2.39200E-01-1.91523E-04-1.12564E+00 1.14396E-13 3.81933E-13
 -1       656 2.06511E+01 9.86065E-03-5.01557E-05-1.08761E+00 1.00464E-13 3.55283E-13
 -1       657 2.04705E+01 1.61039E-01 4.65243E-05-9.91733E-01-2.63818E-14 1.73443E-13
 -1       658 2.03480E+01 2.38175E-01 9.65362E-05-8.67866E-01-2.65495E-14 1.64537E-13
 -1       659 2.02629E+01 2.64696E-01 1.15473E-04-7.35555E-01-2.24535E-14 1.06889E-13
 -1       660 2.02018E+01 2.59608E-01 1.15786E-04-6.07010E-01 2.39266E-14-7.67005E-14
 -1       661 2.01564E+01 2.36824E-01 1.05979E-04-4.89289E-01 1.62594E-13-3.40895E-13
 -1       662 2.01216E+01 2.05829E-01 9.14071E-05-3.85897E-01 8.21628E-14-2.48891E-13
 -1       663 2.00942E+01 1.72693E-01 7.55560E-05-2.97962E-01-6.31307E-14-8.83793E-14
 -1       664 2.00724E+01 1.41049E-01 6.06474E-05-2.25104E-01-9.12734E-14-9.76478E-14
 -1       665 2.00548E+01 1.12871E-01 4.72315E-05-1.66059E-01 2.00633E-13 2.45805E-14
 -1       666 2.00405E+01 8.89958E-02 5.34217E-05-1.19085E-01 1.03079E-13 1.55348E-14
 -1       667 2.00287E+01 6.94114E-02 3.19078E-05-8.24315E-02 2.83850E-15 6.95354E-14
 -1       668 2.00750E+01 2.08789E-01 1.74947E-04-3.39564E-01 1.89372E-13-9.87447E-14
 -1       669 2.46677E+01-4.91228E+00 3.14847E-03 3.13997E+00 2.96176E-13 3.00454E-13
 -1       670 2.01018E+01 2.80784E-01 2.52864E-04-1.83078E-01 2.17848E-13-1.47920E-13
 -1       671 2.01011E+01 1.84655E-01 1.66477E-04-5.76498E-01 9.56025E-14-7.53730E-14
 -1       672 2.01448E+01 2.10474E-01 1.98322E-04-6.91131E-01 1.10726E-13-1.55548E-13
 -1       673 2.02042E+01 2.50857E-01 2.41512E-04-8.18436E-01 1.02604E-13-1.26423E-13
 -1       674 2.02776E+01 2.97090E-01 2.87892E-04-9.64916E-01 1.12056E-13-6.49785E-14
 -1       675 2.03657E+01 3.36902E-01 3.20542E-04-1.13283E+00 1.18718E-13 3.87955E-14
 -1       676 2.04736E+01 3.51185E-01 3.11237E-04-1.31910E+00 5.20011E-14 1.19811E-13
 -1       677 2.06149E+01 3.09884E-01 2.11261E-04-1.51322E+00-4.62024E-14 8.72723E-14
 -1       678 2.08183E+01 1.68249E-01-2.93657E-05-1.69357E+00 1.26057E-14 1.80541E-13
 -1       679 2.11367E+01-1.33142E-01-4.37739E-04-1.82116E+00-1.51252E-13 1.55681E-13
 -1       680 2.16550E+01-6.55621E-01-1.12872E-03-1.82870E+00-2.50650E-13 1.74461E-13
 -1       681 2.24842E+01-1.41684E+00-1.79521E-03-1.60185E+00-3.13253E-13 1.27389E-13
 -1       682 2.37080E+01-2.27516E+00-1.87210E-03-9.71760E-01-2.77347E-13 1.99087E-13
 -1       683 2.52394E+01-2.76371E+00-5.23486E-03 2.32321E-01-2.69221E-13 4.04479E-13
 -1       684 2.65339E+01-1.93329E+00-4.81298E-02 1.79827E+00-1.84904E-14 5.42818E-13
 -1       685 2.69533E+01 7.96469E-01-8.83816E-02 2.80304E+00 1.92679E-13 5.10245E-13
 -1       686 2.68619E+01-1.16811E+00-7.41524E-02-2.43830E+00 6.43131E-14-8.16500E-14
 -1       687 2.57861E+01-2.64256E+00-1.01717E-02-8.01863E-01-1.51107E-13 7.33337E-14
 -1       688 2.42585E+01-2.52259E+00-1.29230E-03 5.80059E-01 7.09118E-14-1.91840E-14
 -1       689 2.29013E+01-1.72049E+00-1.55944E-03 1.39855E+00 1.66100E-13-4.41853E-14
 -1       690 2.19366E+01-8.88642E-01-1.38097E-03 1.74051E+00 1.74212E-13 5.09990E-14
 -1       691 2.13232E+01-2.70636E-01-6.74922E-04 1.78991E+00-1.16686E-13 1.09046E-13
 -1       692 2.09499E+01 1.10960E-01-1.01126E-04 1.68176E+00-1.53928E-13 8.81450E-15
 -1       693 2.07198E+01 3.09283E-01 1.80692E-04 1.49756E+00-1.62836E-14-2.06828E-13
 -1       694 2.05686E+01 3.86553E-01 3.20490E-04 1.28543E+00 2.68884E-13-1.82309E-13
 -1       695 2.04597E+01 3.92723E-01 3.67165E-04 1.07305E+00 2.80512E-13-6.54626E-14
 -1       696 2.03740E+01 3.61795E-01 3.55761E-04 8.75575E-01 2.37067E-13 7.96397E-14
 -1       697 2.03028E+01 3.14807E-01 3.16112E-04 7.00459E-01 5.82325E-14 2.58782E-13
 -1       698 2.02424E+01 2.63829E-01 2.66604E-04 5.50348E-01-9.82692E-14 2.15640E-13
 -1       699 2.01910E+01 2.15248E-01 2.17434E-04 4.24982E-01-1.38059E-13 2.84373E-13
 -1       700 2.01480E+01 1.72060E-01 1.73193E-04 3.22469E-01 1.05069E-13-1.97083E-14
 -1       701 2.01124E+01 1.35332E-01 1.34506E-04 2.40119E-01-1.04187E-14-5.25257E-13
 -1       702 2.00834E+01 1.05119E-01 1.00381E-04 1.75010E-01-7.11643E-14-4.86934E-13
 -1       703 2.00602E+01 8.10659E-02 8.16059E-05 1.24211E-01-4.87939E-14-3.09487E-13
 -1       704 2.00417E+01 6.23571E-02 1.09254E-04 8.51035E-02-1.11108E-13-1.07720E-13
 -1       705 2.00272E+01 5.55954E-02 7.00435E-05 6.35970E-02-3.75381E-13 2.45354E-13
 -1       706 1.99506E+01 1.54747E-01-2.06167E-05 1.35127E-02 2.75089E-13-5.42525E-13
 -1       707 2.00217E+01 5.80828E-02 1.32481E-05-6.24033E-02 2.09146E-14-1.27438E-13
 -1       708 1.99741E+01 1.28573E-01-9.47113E-06 6.04511E-02 8.81670E-14-4.63401E-13
 -1       709 1.99509E+01 1.54024E-01-1.81777E-05-1.48849E-02-5.47153E-14-1.98596E-13
 -1       710 1.99588E+01 1.45954E-01-1.29714E-05 3.99773E-02 3.21841E-13-3.16005E-13
 -1       711 2.01590E+01 4.20278E-01 6.42183E-04 3.12755E-02 2.97241E-13-7.78557E-14
 -1       712 1.99592E+01 1.44208E-01-1.32052E-05-4.05068E-02-9.43076E-14 1.57563E-13
 -1       713 1.99745E+01 1.26121E-01-1.71503E-05-6.03581E-02-2.01713E-13 7.03754E-14
 -1       714 1.99942E+01 1.01868E-01-2.69161E-05-7.09439E-02-7.63162E-14 3.68452E-13
 -1       715 9.76039E+00-1.16891E+00 1.34780E-01-4.40583E+00 3.07344E-13 5.76698E-13
 -1       716 2.77295E+01-9.93560E-01-8.17322E-02 1.46328E+00-1.32637E-13-6.95940E-13
 -1       717 2.78655E+01 1.68260E+00-1.09755E-01-2.20162E+00-6.58151E-13 5.42372E-13
 -1       718 9.64953E+00-9.46637E-01 1.39352E-01 3.84414E+00-3.36110E-13 4.06397E-13
 -1       719 2.85951E+01 1.03103E+00-1.73017E-01-2.44963E+00 2.53752E-13-2.89477E-13
 -1       720 2.14122E+01-4.90922E+00 4.88723E-02 4.76399E+00-4.81226E-13-2.31108E-13
 -1       721 2.00764E+01 1.81093E-01 1.57185E-04-4.64152E-01 1.07765E-13-4.19470E-14
 -1       722 2.03125E+01 1.16798E+00 9.29150E-04-6.93456E-01-3.40681E-13-3.56283E-13
 -1       723 2.14681E+01-4.95191E+00 2.67458E-02-4.70137E+00-7.21374E-13-1.52535E-13
 -1       724 2.85270E+01-2.24506E+00-1.01355E-01-1.28951E+00-9.49484E-14-6.23473E-13
 -1       725 2.66805E+01 5.72145E+00-1.40618E-01 9.47727E-01-1.00132E-12-1.12075E-13
 -1       726 2.00193E+01 2.37140E+00-1.64474E-03 5.90759E-01 3.21791E-13-4.32646E-13
 -1       727 2.00110E+01 2.38373E+00-1.84192E-03-5.82146E-01-2.01747E-13-5.79859E-13
 -1       728 2.63045E+01-4.21940E+00-1.90031E-02-1.64046E+00 4.17799E-13-4.55833E-13
 -1       729 2.61950E+01-4.73175E+00 7.59540E-03 1.83186E+00-3.07629E-13-6.29732E-13
 -1       730 2.77030E+01 3.15087E+00-1.35351E-01 2.22074E+00-7.30749E-13-5.57894E-13
 -1       731 7.69732E+00-1.49256E-02 1.61145E-01-3.53005E-01 1.52815E-14-8.81441E-13
 -1       732 2.82806E+01-1.11296E+00-6.99228E-02 1.99153E+00 7.58872E-14 5.99285E-13
 -1       733 1.69195E+01-3.83376E+00 9.58184E-02-5.79343E+00-6.74374E-13-4.80265E-13
 -1       734 1.42223E+01-3.20089E+00 1.15280E-01 6.19030E+00 5.24882E-13-6.12135E-13
 -1       735 8.08603E+00 2.18797E-01 1.54245E-01-2.91785E-01 1.25010E-13 5.12548E-13
 -1       736 1.53331E+01-3.25099E+00 1.10782E-01 5.81121E+00-4.78555E-13-4.21101E-13
 -1       737 2.75991E+01-2.46992E+00-5.62600E-02-4.05908E-01-2.78319E-14 3.79228E-13
 -1       738 9.08973E+00-6.73248E-01 1.50623E-01 3.51082E+00 3.92263E-13-8.61436E-13
 -1       739 2.68946E+01 5.15327E+00-1.54066E-01-1.48377E+00-9.09640E-13 3.53263E-13
 -1       740 1.60221E+01-3.63090E+00 1.04262E-01-6.18947E+00 6.55920E-13 3.55146E-13
 -1       741 2.65416E+01-4.36029E+00-5.84767E-03-1.04937E+00-3.40983E-13 4.94493E-13
 -1       742 2.01141E+01 2.12717E+00-2.34858E-03-7.88292E-01-2.99745E-13-5.13378E-13
 -1       743 1.99048E+01 2.62231E+00-1.66873E-03-1.14964E-01 1.26659E-14-5.49838E-13
 -1       744 1.99942E+01 1.04515E-01-3.98047E-05 7.16673E-02-1.29830E-13-8.13473E-14
 -1       745 2.75374E+01 5.22293E+00-1.86352E-01-6.84154E-01 6.76570E-13 1.68098E-13
 -1       746 2.00120E+01 8.02106E-02-6.55207E-06 7.14991E-02-4.40164E-13-3.44570E-13
 -1       747 1.47989E+01-2.26545E+00 9.06096E-02-5.11970E+00-5.54215E-13-3.39187E-13
 -1       748 1.01680E+01-3.61637E-02 1.15431E-01-2.43580E+00-2.32341E-13-6.65277E-13
 -1       749 2.00100E+01 8.72266E-02-9.31916E-06-7.93125E-02-9.39710E-14 1.14857E-13
 -1       750 2.02738E+01 1.64219E+00-8.24244E-04-9.35037E-01-3.90444E-13-4.28883E-13
 -1       751 1.99398E+01 2.54534E+00-1.79880E-03-3.52072E-01-9.74667E-14-5.46422E-13
 -1       752 1.07720E+01 2.16352E-01 8.41196E-02-2.41245E+00 7.72906E-14 4.94684E-13
 -1       753 2.02748E+01 1.37978E+00 6.15668E-05 5.52555E-01 3.60872E-13-2.78079E-13
 -1       754 2.02888E+01 1.24759E+00 6.42335E-04-4.83629E-01-2.60286E-13-4.10169E-13
 -1       755 2.03013E+01 1.00368E+00 4.94643E-05 4.69122E-01 3.62051E-13-2.04944E-13
 -1       756 2.02658E+01 5.69388E-01 2.43199E-05 6.14190E-02-2.00475E-13-2.76170E-13
 -1       757 2.02204E+01 4.09538E-01 4.28021E-06 2.43061E-01-1.50513E-13-1.87349E-13
 -1       758 2.01710E+01 3.23253E-01 7.03860E-06 3.86185E-01-1.12772E-13-1.89580E-13
 -1       759 2.01231E+01 2.87620E-01 1.06777E-05 5.07254E-01-6.87285E-14-2.21900E-13
 -1       760 2.00787E+01 2.84730E-01 1.64290E-05 6.19624E-01-3.94100E-14-2.43464E-13
 -1       761 2.00397E+01 2.98519E-01 2.27157E-05 7.33294E-01-8.36761E-14-1.60186E-13
 -1       762 2.00095E+01 3.12296E-01 2.96718E-05 8.54766E-01-8.66525E-14-1.06276E-13
 -1       763 1.99946E+01 3.06680E-01 3.70672E-05 9.86964E-01-2.20697E-14-1.01491E-14
 -1       764 2.00077E+01 2.57780E-01 4.21461E-05 1.12895E+00-1.71755E-14-1.65458E-14
 -1       765 2.00707E+01 1.35956E-01 4.32501E-05 1.27488E+00-2.35996E-14 6.57290E-14
 -1       766 2.02186E+01-9.35861E-02 3.88066E-05 1.41153E+00-9.91024E-14 1.85045E-13
 -1       767 2.05031E+01-4.65852E-01 7.76878E-06 1.51274E+00 3.09946E-14 2.24200E-13
 -1       768 2.09928E+01-1.00107E+00-1.91691E-04 1.52879E+00 1.49484E-13 1.93352E-13
 -1       769 2.17600E+01-1.66884E+00-6.59527E-04 1.37124E+00 1.24390E-13 1.81783E-13
 -1       770 2.28342E+01-2.31427E+00-9.87084E-04 9.02750E-01 2.43114E-13 2.67837E-13
 -1       771 2.41132E+01-2.57394E+00-1.06735E-03-8.14108E-03 2.24839E-13 4.73075E-13
 -1       772 2.51445E+01-1.72397E+00-2.58807E-02-1.22125E+00 1.50208E-13 6.03195E-13
 -1       773 2.49067E+01 3.24250E+00-6.91272E-02-1.61910E+00-6.32425E-13 1.55504E-13
 -1       774 2.56534E+01 4.04709E-01-3.92199E-02 2.24867E+00-1.66639E-13-5.01313E-13
 -1       775 2.51185E+01-1.74028E+00-1.15350E-02 1.25271E+00 1.82966E-13-4.27003E-13
 -1       776 2.40670E+01-2.54437E+00-2.75438E-03 1.68065E-02 1.84881E-14-3.01683E-13
 -1       777 2.27926E+01-2.25115E+00 1.40083E-03-8.74242E-01 2.40056E-13-1.23039E-13
 -1       778 2.17330E+01-1.60553E+00 1.20952E-03-1.33147E+00 1.48424E-13 1.33299E-13
 -1       779 2.09721E+01-9.33034E-01 5.25642E-04-1.47186E+00 1.76847E-13 1.62888E-13
 -1       780 2.04895E+01-3.98562E-01 1.30312E-04-1.43885E+00 1.81497E-13 4.60824E-15
 -1       781 2.02060E+01-2.56444E-02 6.10801E-05-1.32182E+00 3.67020E-14-1.88202E-13
 -1       782 2.00539E+01 2.06143E-01 6.30000E-05-1.16797E+00 4.80391E-14 3.23321E-14
 -1       783 1.99824E+01 3.30305E-01 6.05099E-05-1.00363E+00-3.47865E-14 1.22227E-13
 -1       784 1.99564E+01 3.79567E-01 5.34657E-05-8.43146E-01-2.21603E-13 5.63985E-14
 -1       785 1.99542E+01 3.80655E-01 4.51501E-05-6.94301E-01-3.57884E-14 1.51562E-14
 -1       786 1.99624E+01 3.53477E-01 3.70656E-05-5.61149E-01-7.86556E-14 4.52407E-14
 -1       787 1.99740E+01 3.11964E-01 2.93729E-05-4.45387E-01 1.04487E-13-6.38298E-14
 -1       788 1.99852E+01 2.65332E-01 2.19038E-05-3.47155E-01 1.17865E-13 2.57050E-15
 -1       789 1.99943E+01 2.19313E-01 1.45583E-05-2.65578E-01-4.42396E-14-4.88117E-14
 -1       790 2.00009E+01 1.77183E-01 1.00908E-05-1.99139E-01 2.02954E-13 2.23342E-14
 -1       791 2.00052E+01 1.40543E-01 1.39288E-05-1.46147E-01 1.76734E-13-5.53157E-14
 -1       792 2.00094E+01 1.11033E-01 1.52126E-05-1.09119E-01 1.77376E-13-1.37798E-13
 -1       793 1.99272E+01 1.88179E-01-7.37058E-06-3.82687E-02 1.17814E-13 2.64197E-14
 -1       794 2.00443E+01 3.42559E-01 6.03205E-05-7.62355E-01 8.39919E-14-8.78437E-14
 -1       795 2.00786E+01 2.98487E-01 4.91599E-05-6.36139E-01 1.18429E-13-1.09252E-13
 -1       796 1.99647E+01 4.67680E-01 1.04340E-04-1.06401E+00 1.43573E-14-4.53989E-14
 -1       797 1.99175E+01 5.16976E-01 1.31578E-04-1.24960E+00-3.76962E-14 3.46762E-14
 -1       798 1.98731E+01 5.23019E-01 1.48402E-04-1.46134E+00 2.15566E-14 1.04151E-13
 -1       799 1.98522E+01 4.42777E-01 1.19700E-04-1.69868E+00-4.33005E-14-3.40143E-15
 -1       800 1.99005E+01 2.13504E-01 1.07229E-04-1.95773E+00-1.01903E-13 1.50490E-13
 -1       801 2.01058E+01-2.48659E-01 5.86969E-04-2.22445E+00-1.66383E-13 9.07920E-14
 -1       802 2.06130E+01-1.03172E+00 1.45893E-03-2.45533E+00-2.73594E-13-1.74899E-14
 -1       803 2.16643E+01-2.18684E+00 3.07463E-03-2.50494E+00-4.39607E-13 3.02232E-15
 -1       804 2.35003E+01-3.48852E+00 1.29048E-02-2.10111E+00-4.32545E-13 1.44187E-13
 -1       805 1.46038E+01-1.49691E+00 7.22705E-02-4.69857E+00 2.78926E-13 2.58769E-13
 -1       806 2.44222E+01-3.91164E+00 1.00922E-02 1.77167E+00-2.28335E-13-4.22756E-13
 -1       807 2.09281E+01-1.39095E+00 9.92147E-04 2.46741E+00 1.01197E-13 2.05713E-13
 -1       808 2.02511E+01-4.60925E-01 1.04913E-03 2.26711E+00-6.57799E-14 3.14598E-13
 -1       809 1.99540E+01 1.17337E-01 6.39553E-04 1.99384E+00 5.80335E-14 1.39613E-13
 -1       810 1.98595E+01 4.29443E-01 2.92126E-04 1.71310E+00 9.20805E-14 2.73495E-14
 -1       811 1.98599E+01 5.63089E-01 1.79661E-04 1.44848E+00 9.02900E-14-3.01021E-13
 -1       812 1.98953E+01 5.88889E-01 1.47345E-04 1.20714E+00-1.64205E-14-2.61257E-13
 -1       813 1.99368E+01 5.55169E-01 1.24498E-04 9.91324E-01 9.04365E-14 1.12265E-13
 -1       814 1.99722E+01 4.92814E-01 1.03290E-04 8.01968E-01 1.77683E-14 4.48040E-13
 -1       815 1.99979E+01 4.20449E-01 8.36292E-05 6.38957E-01-5.23639E-15 3.98360E-13
 -1       816 2.00144E+01 3.48608E-01 6.65701E-05 5.01226E-01-4.82276E-14 1.76253E-14
 -1       817 2.00235E+01 2.82766E-01 5.29441E-05 3.86921E-01 1.89622E-13-2.29218E-13
 -1       818 2.00271E+01 2.25343E-01 4.29697E-05 2.93626E-01 3.51492E-14-8.53182E-14
 -1       819 2.00271E+01 1.76942E-01 3.36010E-05 2.18650E-01-7.73573E-14-7.10079E-14
 -1       820 2.00247E+01 1.37423E-01 2.86667E-05 1.59584E-01-2.25125E-14-1.77761E-13
 -1       821 2.00209E+01 1.05837E-01 1.99687E-05 1.13514E-01-1.05125E-13-3.30061E-13
 -1       822 2.00159E+01 9.22661E-02-5.74560E-05 9.06354E-02-3.56128E-13-3.43582E-13
 -1       823 2.00992E+01 2.01629E+00-2.45490E-04 1.71593E-01 1.45951E-13-4.51080E-13
 -1       824 1.99205E+01 1.95261E-01-1.48636E-05-1.23745E-03 2.72613E-13-5.81897E-13
 -1       825 2.63431E+01-6.51785E-01-4.37864E-02-1.90885E+00-1.77728E-13 6.88880E-13
 -1       826 1.42961E+01-1.13485E+00 6.07964E-02 4.27374E+00-4.41799E-13-3.55160E-13
 -1       827 1.99456E+01 1.70033E-01-6.23512E-06-6.96809E-02 2.45591E-15 1.14047E-13
 -1       828 2.22449E+01-2.66030E+00 5.00967E-03 2.42316E+00 6.51146E-14-2.13631E-15
 -1       829 2.00071E+01 4.03366E-01 7.77738E-05-9.02860E-01 7.00641E-14-6.14013E-14
 -1       830 2.01968E+01 3.80798E-01 4.43475E-05-2.33517E-01 1.83684E-13-1.32375E-13
 -1       831 2.02999E+01 8.25104E-01-8.52996E-04-1.79204E-01-1.98410E-13-3.52938E-13
 -1       832 1.99727E+01 1.42859E-01-1.10028E-05-9.09521E-02 6.27917E-14 1.40119E-13
 -1       833 2.20557E+01-4.17586E+00 1.54032E-02 3.69130E+00 4.77784E-13 2.22382E-13
 -1       834 1.35986E+01-1.23001E+00 6.39961E-02 4.47908E+00 4.69206E-13-7.13010E-13
 -1       835 1.12778E+01 3.89982E-01 7.81915E-02 2.00895E+00-2.73400E-13 1.29174E-13
 -1       836 2.02320E+01 1.65823E+00 2.83527E-04-6.51456E-01-2.90500E-13-4.63595E-13
 -1       837 2.57969E+01 2.76678E+00-6.79634E-02-2.16286E+00-7.19053E-13 4.01158E-13
 -1       838 2.55612E+01-3.68525E+00-1.13228E-02 7.51813E-01 2.78836E-13 4.33287E-13
 -1       839 1.85525E+01-3.67176E+00 8.54918E-02-5.07175E+00-7.01198E-13-2.56328E-13
 -1       840 1.93812E+01-3.20422E+00 4.60379E-02 4.48167E+00-3.54949E-13-2.44764E-13
 -1       841 2.39598E+01-4.16721E+00 1.59757E-02-2.34828E+00 4.26971E-13-3.48410E-13
 -1       842 1.02353E+01 4.16360E-01 8.67179E-02 1.37195E+00 2.02807E-13-6.01779E-13
 -1       843 1.78100E+01-3.09621E+00 5.03213E-02 5.09946E+00 4.55842E-13-3.79204E-13
 -1       844 2.60783E+01-2.80956E+00-2.41492E-02 3.59668E-01 2.94739E-13-6.58850E-13
 -1       845 1.97236E+01-3.66680E+00 2.94763E-02-4.70530E+00 5.16056E-13 3.11171E-13
 -1       846 2.00837E+01 2.05875E+00-7.75482E-06 4.07917E-03 4.38757E-14-4.67680E-13
 -1       847 2.02130E+01 1.67685E+00 2.75230E-04 4.66201E-01 3.10011E-13-3.76630E-13
 -1       848 1.99715E+01 1.47845E-01 1.72848E-05 9.09797E-02-2.02623E-13 1.90093E-14
 -1       849 2.51433E+01 2.80544E+00-7.23028E-02 2.05050E+00-5.49977E-13-3.77113E-13
 -1       850 2.01523E+01 3.04651E-01 1.99016E-05-3.86108E-01 1.51492E-13-1.40547E-13
 -1       851 2.02441E+01 5.32599E-01-2.11247E-05-3.80962E-02 2.72015E-13-1.51107E-13
 -1       852 2.01397E+01 1.94283E+00-9.95446E-04-5.14311E-01-2.20046E-13-5.35051E-13
 -1       853 2.01136E+01 2.82084E-01 3.89817E-05-5.14889E-01 7.60616E-14-1.52099E-13
 -1       854 2.69639E+01-3.60065E+00-3.34856E-02 7.57491E-02-1.45725E-13-6.40096E-13
 -1       855 2.01464E+01 1.88931E+00 4.47149E-05 3.30729E-01 2.45555E-13-4.20816E-13
 -1       856 1.99440E+01 1.74238E-01 3.76889E-06 6.81708E-02 2.29520E-13-2.41446E-13
 -1       857 1.18181E+01 9.02570E-01 3.78585E-02-1.51858E-02-9.17373E-14 1.47098E-13
 -1       858 1.99264E+01 1.90419E-01-2.41413E-05 3.59569E-02 2.07149E-13-5.24195E-13
 -1       859 1.32136E+01 1.19948E-02 4.33998E-02 2.93299E+00 2.50880E-13-6.66305E-13
 -1       860 1.35648E+01-5.98967E-01 5.64358E-02-3.68168E+00-3.64513E-13-2.91408E-13
 -1       861 1.11507E+01 6.94987E-01 6.68103E-02-5.28379E-01-7.00015E-14-4.09089E-13
 -1       862 1.99901E+01 1.28459E-01 1.63896E-04-1.02058E-01 1.83221E-13 5.52915E-13
 -1       863 2.02748E+01 7.22770E-01 2.26749E-05 1.82209E-01 3.31678E-13-1.80742E-13
 -1       864 2.00724E+01 2.13283E+00-8.88441E-04-3.38196E-01-9.60397E-14-5.11995E-13
 -1       865 2.03018E+01 1.00312E+00-1.01584E-04 2.73441E-01 2.97618E-13-2.57330E-13
 -1       866 2.02769E+01 6.30199E-01-1.13748E-05 1.19314E-01-1.11150E-13-3.14286E-13
 -1       867 2.02214E+01 4.79708E-01-3.47546E-05 2.67423E-01-1.00945E-13-2.37702E-13
 -1       868 2.01467E+01 4.03716E-01-6.84784E-06 3.91585E-01-1.13385E-13-2.08838E-13
 -1       869 2.00588E+01 3.79977E-01-2.84143E-06 5.03633E-01-7.79009E-14-2.77774E-13
 -1       870 1.99616E+01 3.89650E-01-6.65752E-07 6.14626E-01-4.45637E-14-2.75893E-13
 -1       871 1.98584E+01 4.14315E-01 4.68576E-06 7.33729E-01-6.92452E-14-2.42000E-13
 -1       872 1.97538E+01 4.33912E-01 1.00920E-05 8.68348E-01-1.69507E-14-1.78668E-13
 -1       873 1.96568E+01 4.24856E-01 1.54255E-05 1.02452E+00-1.67956E-14-1.57281E-13
 -1       874 1.95832E+01 3.57847E-01 2.38505E-05 1.20731E+00 3.90694E-14-7.99725E-14
 -1       875 1.95611E+01 1.96004E-01 5.95285E-05 1.42014E+00 2.54243E-14-7.22792E-14
 -1       876 1.96372E+01-1.05571E-01 1.99041E-04 1.66210E+00 2.07526E-15-1.85953E-14
 -1       877 1.98870E+01-5.97061E-01 6.19552E-04 1.91958E+00 9.75597E-14 8.94205E-14
 -1       878 2.04255E+01-1.32004E+00 1.35906E-03 2.14259E+00 1.01927E-13 1.74330E-13
 -1       879 2.14003E+01-2.26117E+00-1.50339E-04 2.21078E+00 2.70394E-13 3.31518E-13
 -1       880 2.29577E+01-3.22126E+00 1.14711E-02 1.89001E+00 4.00730E-13 4.06070E-13
 -1       881 2.30211E+01-3.21075E+00 5.24376E-03-1.89214E+00 2.74725E-13-3.02659E-13
 -1       882 2.13543E+01-2.19875E+00-7.57671E-03-2.18646E+00 2.19268E-13-1.94102E-13
 -1       883 2.03856E+01-1.23387E+00 1.97859E-03-2.08305E+00 1.87794E-13-2.34427E-13
 -1       884 1.98609E+01-5.19547E-01 8.45585E-04-1.84835E+00 1.29048E-13-3.38927E-13
 -1       885 1.96053E+01-2.72821E-02 1.56226E-04-1.58385E+00 1.37560E-13-3.49292E-13
 -1       886 1.95172E+01 2.77919E-01 8.53420E-05-1.33031E+00-4.44000E-14-4.37194E-13
 -1       887 1.95222E+01 4.43484E-01 5.45273E-05-1.10382E+00-1.33480E-14-6.47241E-13
 -1       888 1.95734E+01 5.12318E-01 3.50420E-05-9.06486E-01-4.58535E-14-3.96061E-13
 -1       889 1.96430E+01 5.18095E-01 2.22742E-05-7.36526E-01-1.76960E-14-2.41123E-13
 -1       890 1.97152E+01 4.85793E-01 1.45159E-05-5.91466E-01 5.68435E-16-2.00637E-13
 -1       891 1.97818E+01 4.33138E-01 9.24158E-06-4.68912E-01 1.73117E-13 6.04715E-14
 -1       892 1.98390E+01 3.72189E-01 4.21168E-06-3.66590E-01 1.35653E-14 1.88767E-13
 -1       893 1.98857E+01 3.10691E-01-1.90768E-06-2.82263E-01 1.28429E-13 1.93025E-13
 -1       894 1.99224E+01 2.53242E-01 1.78378E-05-2.13884E-01-2.77330E-15 4.25869E-13
 -1       895 1.99498E+01 2.02849E-01 9.11318E-05-1.59553E-01 2.29730E-13 7.04703E-13
 -1       896 1.93470E+01 7.10576E-01 6.46392E-05-1.24169E+00-6.33955E-14-9.13379E-14
 -1       897 1.95418E+01 6.51942E-01 3.11969E-05-1.05391E+00 5.32141E-14-4.13124E-14
 -1       898 1.89008E+01 6.07598E-01-5.01220E-05-1.75460E+00-1.31755E-13-2.66038E-14
 -1       899 1.87104E+01 3.23392E-01 1.83946E-04-2.12471E+00-1.24576E-13-3.83278E-14
 -1       900 1.86474E+01-2.49269E-01 1.48009E-03-2.62287E+00-1.53559E-13-5.74532E-14
 -1       901 1.89193E+01-1.22620E+00 1.12202E-02-3.24826E+00-3.14431E-13-2.18387E-13
 -1       902 1.86992E+01-5.28405E-01 1.47610E-03 2.83057E+00-1.10501E-13-1.80678E-14
 -1       903 1.90073E+01 7.57885E-01 1.95283E-04 1.48426E+00 1.55898E-13 1.38757E-13
 -1       904 1.92194E+01 7.96297E-01 5.80377E-05 1.22107E+00 5.68954E-14 6.86960E-14
 -1       905 1.94077E+01 7.59501E-01 3.11350E-05 1.00229E+00-1.47561E-13 3.54141E-14
 -1       906 1.95636E+01 6.83770E-01 1.98998E-05 8.16723E-01-1.23007E-13 1.87922E-13
 -1       907 1.96871E+01 5.92019E-01 1.30784E-05 6.58378E-01-2.00619E-13 1.42341E-13
 -1       908 1.97816E+01 4.98021E-01 8.93554E-06 5.23870E-01 1.23896E-13 1.06851E-13
 -1       909 1.98521E+01 4.09547E-01 7.23292E-06 4.10851E-01 1.71049E-13 1.72165E-13
 -1       910 1.99034E+01 3.30588E-01 6.36482E-06 3.17229E-01 7.30270E-14 1.44509E-13
 -1       911 1.99400E+01 2.62568E-01 9.92966E-06 2.40805E-01-1.38307E-13 8.20407E-14
 -1       912 1.99649E+01 2.05401E-01-9.28943E-05 1.79019E-01-4.05326E-14 1.03288E-13
 -1       913 1.99819E+01 1.59485E-01 6.45608E-05 1.30588E-01-1.18059E-13 1.95610E-13
 -1       914 1.98845E+01 2.40735E-01-1.88028E-05-2.74449E-02 3.11853E-13-2.60422E-13
 -1       915 1.99952E+01 1.20072E-01 3.14048E-05 9.46394E-02-3.29271E-13 1.17608E-13
 -1       916 2.02401E+01 1.52856E+00-8.04334E-04-4.09916E-01-2.16017E-13-4.77888E-13
 -1       917 1.99030E+01 2.24366E-01 3.24379E-08-7.31114E-02 3.59245E-13-1.67318E-13
 -1       918 1.44470E+01 2.01646E-01 2.16823E-02 2.72874E+00-3.29290E-13-1.71776E-13
 -1       919 1.81359E+01-2.06604E+00 1.43454E-02-4.04601E+00 3.15340E-13 2.78905E-13
 -1       920 1.99720E+01-3.05599E+00 3.94185E-02-4.06771E+00-5.63657E-13-2.75548E-13
 -1       921 1.87943E+01 5.89926E-01 5.40521E-04 1.81359E+00 1.31963E-13 1.75486E-13
 -1       922 1.86439E+01 2.04115E-01 1.19428E-03 2.24714E+00 6.12103E-15 1.94697E-13
 -1       923 1.91276E+01 7.12312E-01 6.51401E-05-1.46942E+00-5.32656E-14-9.33608E-14
 -1       924 1.87987E+01-1.59179E+00 1.93798E-02 3.58996E+00-1.31486E-13-1.07135E-13
 -1       925 2.03053E+01 8.79573E-01 1.25751E-03-6.36089E-02-1.31008E-13-4.02465E-13
 -1       926 1.99634E+01 4.24105E-01 1.29272E-05-6.35729E-01 4.78631E-14-7.55966E-14
 -1       927 1.37631E+01-3.36085E-02 3.45438E-02-3.03307E+00 6.33020E-14 1.07383E-13
 -1       928 1.99360E+01 1.95436E-01-9.45511E-06-1.08717E-01 1.60640E-13 6.10469E-14
 -1       929 1.70888E+01-2.01569E+00 4.94249E-02-4.39376E+00-5.25560E-13-2.31655E-13
 -1       930 2.00644E+01 2.12601E+00-8.79596E-04-1.57122E-01-5.81979E-15-4.77262E-13
 -1       931 1.35281E+01 9.04259E-01 2.70639E-02-1.27382E+00-1.12071E-14 2.75676E-13
 -1       932 2.00622E+01 3.89485E-01 4.24094E-05-5.20063E-01 5.25939E-14-1.50570E-13
 -1       933 1.99741E+01 1.61848E-01 2.84602E-05-1.28570E-01 3.92077E-13 7.36199E-13
 -1       934 2.02736E+01 6.07954E-01-4.86378E-04-1.00883E-01 2.05977E-13-2.05124E-13
 -1       935 1.97076E+01 5.70669E-01 1.54536E-05-8.95255E-01 8.27958E-14-5.08735E-14
 -1       936 2.01801E+01 1.75722E+00 1.91218E-03-2.98668E-01-1.11366E-13-4.49831E-13
 -1       937 1.98466E+01 4.89111E-01 8.30403E-06-7.58094E-01 7.52379E-14-4.08715E-14
 -1       938 2.02268E+01 1.50020E+00-3.43279E-06 1.45713E-01 1.53175E-13-3.76531E-13
 -1       939 1.98837E+01 2.42615E-01-4.86065E-05 2.18693E-02 1.26973E-13-6.72985E-13
 -1       940 1.39328E+01 9.54118E-01 1.91447E-02 1.29377E+00-2.74537E-13-7.60065E-14
 -1       941 1.61409E+01-9.90770E-01 3.08071E-02 3.78171E+00 3.97116E-13-5.65481E-13
 -1       942 1.27213E+01 7.11009E-01 3.97030E-02 1.43700E+00-4.47164E-14-4.60704E-13
 -1       943 1.65983E+01-6.62456E-01 1.51714E-02-3.29138E+00 9.66308E-14 1.60963E-13
 -1       944 2.00114E+01-2.69908E+00 1.74120E-02 3.63131E+00 3.71244E-13 4.59950E-14
 -1       945 2.02044E+01 1.57758E+00 1.22455E-05 5.11481E-02 8.95330E-14-3.99974E-13
 -1       946 1.31675E+01 4.47280E-01 3.58403E-02-2.15067E+00-2.06311E-13-4.26909E-13
 -1       947 2.02170E+01 4.66815E-01 8.46351E-05-2.66473E-01 1.48492E-13-1.39432E-13
 -1       948 1.99349E+01 2.02598E-01-5.53013E-05 1.11810E-01-7.53555E-14 3.04766E-13
 -1       949 2.01772E+01 5.33204E-01-4.28092E-05 2.58415E-01-9.99319E-14-2.64389E-13
 -1       950 2.00697E+01 4.77290E-01-8.38174E-06 3.57407E-01-1.11218E-13-2.10137E-13
 -1       951 1.99373E+01 4.72921E-01-2.00365E-05 4.53666E-01-6.96841E-14-2.73672E-13
 -1       952 1.97836E+01 5.00825E-01-1.99623E-05 5.56424E-01-1.46808E-15-2.00315E-13
 -1       953 1.96114E+01 5.41210E-01-1.18789E-05 6.74659E-01 7.00448E-15-1.49654E-13
 -1       954 1.94244E+01 5.72165E-01-3.94425E-05 8.17567E-01-1.65732E-14-1.51516E-13
 -1       955 1.92293E+01 5.68434E-01-7.78074E-05 9.96029E-01 9.36373E-15-1.72142E-13
 -1       956 1.90399E+01 4.97658E-01-1.21048E-04 1.22389E+00 5.49523E-14-1.56999E-13
 -1       957 1.88819E+01 3.18642E-01-7.28407E-05 1.51822E+00 3.21025E-14-1.78819E-13
 -1       958 1.88016E+01-2.17367E-02 3.62220E-04 1.90007E+00 9.81762E-14-1.48361E-13
 -1       959 1.88830E+01-5.94073E-01 1.31239E-03 2.38704E+00 2.14068E-13-1.41391E-13
 -1       960 1.93114E+01-1.49434E+00 1.45625E-03 2.96373E+00 3.14183E-13-5.15469E-14
 -1       961 1.90488E+01 8.33772E-01-1.50682E-05-9.17632E-01 4.44143E-14-9.38969E-14
 -1       962 2.02866E+01 1.19730E+00-1.32306E-04 2.04275E-01 2.35983E-13-3.19285E-13
 -1       963 1.88744E+01-5.24595E-01-5.63191E-04-2.32617E+00 6.21244E-14-1.93661E-13
 -1       964 1.87656E+01 6.06972E-02-4.44604E-04-1.83718E+00-8.13300E-14-4.42843E-13
 -1       965 1.88270E+01 4.06896E-01-1.40041E-04-1.44917E+00 7.99878E-15-5.77691E-13
 -1       966 1.89614E+01 5.91346E-01-6.24339E-05-1.14642E+00-6.88083E-14-5.05664E-13
 -1       967 1.91215E+01 6.66076E-01-2.85417E-05-9.09002E-01-2.24688E-14-3.39131E-13
 -1       968 1.92821E+01 6.69088E-01-1.99812E-05-7.20491E-01 1.04288E-13-1.08368E-13
 -1       969 1.94299E+01 6.27990E-01-1.52771E-05-5.69122E-01 4.55894E-14 5.43181E-14
 -1       970 1.95590E+01 5.62547E-01-1.14165E-05-4.46729E-01 2.97756E-14-3.88686E-14
 -1       971 1.96676E+01 4.86518E-01-8.80897E-06-3.47615E-01 1.88650E-13-2.53530E-13
 -1       972 1.97560E+01 4.09168E-01-1.35738E-05-2.67585E-01 1.28396E-13 2.24065E-14
 -1       973 1.98262E+01 3.35998E-01-6.40391E-06-2.03361E-01 1.51468E-13-1.59243E-14
 -1       974 1.98798E+01 2.69989E-01-2.98510E-04-1.52525E-01 1.97319E-13 8.26803E-14
 -1       975 2.02538E+01 6.62415E-01-6.69259E-05 1.46621E-01-1.96920E-14-2.86673E-13
 -1       976 1.71769E+01 5.49952E-01 1.13318E-03-2.06520E+00-9.01923E-14-1.66925E-13
 -1       977 1.77621E+01 8.21612E-01-6.39509E-04-1.60808E+00-8.77497E-14-9.57992E-14
 -1       978 1.88256E+01 9.57207E-01-1.33316E-04 8.85050E-01-1.91235E-14 2.48115E-13
 -1       979 1.84689E+01 1.00285E+00-2.16685E-04 1.08113E+00 2.08552E-13 4.21531E-13
 -1       980 1.93383E+01 7.61702E-01-6.26661E-05 5.93081E-01-1.36810E-13 1.83132E-14
 -1       981 1.95148E+01 6.49253E-01-4.59068E-05 4.79351E-01-6.22037E-14 4.86188E-14
 -1       982 1.96505E+01 5.41003E-01-3.23461E-05 3.82333E-01 8.79237E-14 1.67617E-13
 -1       983 1.97534E+01 4.42173E-01-3.51001E-05 3.00392E-01 1.66202E-13 2.56412E-13
 -1       984 1.98303E+01 3.55377E-01-4.90852E-05 2.32434E-01-5.97463E-14 5.81047E-13
 -1       985 1.98869E+01 2.81652E-01 6.81352E-05 1.76977E-01-1.36404E-13 3.05399E-13
 -1       986 1.65132E+01 5.71298E-01 7.91060E-03 2.14883E+00-1.90065E-13-6.92682E-14
 -1       987 1.52632E+01 2.89188E-01 1.56053E-02 2.38914E+00 1.26193E-13-3.30940E-13
 -1       988 1.80325E+01 9.71302E-01-6.27014E-04 1.33999E+00 9.37974E-14 2.70348E-13
 -1       989 1.99009E+01 2.29616E-01-1.09232E-05 6.91857E-02 1.30564E-13-5.20194E-13
 -1       990 1.75212E+01 8.13792E-01 1.21520E-03 1.71363E+00 1.91055E-14 7.36248E-14
 -1       991 2.02937E+01 1.03951E+00-1.46393E-03-5.73960E-02-9.96407E-14-3.85107E-13
 -1       992 1.59909E+01-4.72507E-01 2.24209E-02-3.34599E+00-2.27413E-13-1.57994E-13
 -1       993 1.91119E+01 8.69274E-01-8.87970E-05 7.26363E-01-1.58046E-13 8.34016E-15
 -1       994 1.98819E+01 2.59873E-01-3.40643E-05-1.21782E-01 8.22750E-14-3.06170E-13
 -1       995 2.02948E+01 7.75012E-01 4.51231E-05 6.28140E-02 2.43945E-13-2.28457E-13
 -1       996 2.01468E+01 3.97432E-01-6.66108E-05-4.01014E-01 1.14386E-13-1.39092E-13
 -1       997 1.65914E+01 1.67349E-01 8.49477E-03-2.60247E+00-1.36428E-13-2.35284E-13
 -1       998 2.02855E+01 8.28115E-01-3.51134E-05 5.04106E-02-5.48378E-14-3.76519E-13
 -1       999 1.98455E+01 2.88949E-01-2.17675E-06-6.77611E-02 2.32680E-13-2.54848E-13
 -1      1000 1.90173E+01-1.19177E+00 7.78800E-03-2.88309E+00 2.43082E-13-9.82842E-14
 -1      1001 1.99468E+01 4.94246E-01 2.22533E-05-4.69663E-01 2.43810E-14-1.27482E-13
 -1      1002 1.93420E+01 7.35877E-01-7.76774E-05-7.83305E-01 5.94686E-14-8.90435E-14
 -1      1003 1.86948E+01 9.03784E-01-1.49426E-05-1.08417E+00-6.11423E-14-8.11385E-14
 -1      1004 2.01676E+01 1.76772E+00-9.66147E-04-1.61444E-01-4.80436E-14-4.26929E-13
 -1      1005 1.98319E+01 3.00862E-01-2.53616E-05-4.98581E-03 3.24033E-13-1.80723E-13
 -1      1006 1.97828E+01 5.49806E-01 1.04474E-06-5.65489E-01 1.66561E-14-1.38909E-13
 -1      1007 1.73260E+01-2.76304E-01 3.91817E-03 2.65405E+00 2.61268E-13-3.40707E-13
 -1      1008 1.32321E+01 9.84316E-01 2.33220E-02-2.75259E-01-7.94976E-14-2.98772E-13
 -1      1009 2.02658E+01 1.18356E+00-4.06008E-04 3.28107E-02 1.04211E-13-3.40092E-13
 -1      1010 1.54435E+01 4.22477E-01 1.12387E-02-2.20853E+00 1.23636E-13 4.78294E-14
 -1      1011 2.02061E+01 1.57768E+00 8.97167E-04-5.08593E-02 2.38970E-15-4.10167E-13
 -1      1012 1.98288E+01 3.20091E-01 7.89637E-07 1.12189E-01-7.56394E-14-7.74672E-14
 -1      1013 2.02603E+01 6.62072E-01 7.75223E-04-1.39143E-01 1.19619E-13-2.20263E-13
 -1      1014 1.82685E+01 9.15248E-01-1.11898E-04-1.30168E+00-1.05484E-13-9.15867E-14
 -1      1015 2.02954E+01 1.03136E+00-1.37489E-04 6.47012E-02 1.63028E-13-2.89386E-13
 -1      1016 2.00804E+01 4.81868E-01-9.40873E-05-3.71828E-01 8.68447E-14-1.19890E-13
 -1      1017 2.02531E+01 7.95790E-01 9.33812E-05-6.90398E-02 7.94836E-14-2.51557E-13
 -1      1018 1.99564E+01 5.42610E-01-8.59256E-05 2.76752E-01-1.11123E-13-2.15246E-13
 -1      1019 1.97769E+01 5.63498E-01-1.11222E-04 3.51433E-01-2.49748E-14-1.23319E-13
 -1      1020 1.95649E+01 6.14235E-01-4.35770E-05 4.38579E-01 2.38797E-14-1.62953E-13
 -1      1021 1.93192E+01 6.75811E-01 2.89488E-06 5.46906E-01 6.49040E-15-1.96667E-13
 -1      1022 1.90398E+01 7.25278E-01-1.73206E-04 6.86992E-01 3.21428E-14-9.99974E-14
 -1      1023 1.87242E+01 7.40508E-01-3.88441E-04 8.76213E-01 1.73008E-15-1.02138E-13
 -1      1024 1.83758E+01 6.88655E-01-6.52645E-04 1.13577E+00 6.56569E-14-1.57989E-13
 -1      1025 1.80011E+01 5.29432E-01-7.49942E-04 1.49874E+00 9.56179E-15-1.79455E-13
 -1      1026 1.76341E+01 2.34583E-01-3.82798E-04 1.98126E+00 1.07699E-13-3.02242E-13
 -1      1027 1.55650E+01 1.16601E+00 3.31333E-03 8.89159E-01-8.90728E-14-1.93623E-13
 -1      1028 1.75954E+01 2.89555E-01-1.15128E-03-1.96713E+00-1.84954E-13-7.60739E-14
 -1      1029 1.79487E+01 6.19472E-01-1.23767E-03-1.45162E+00-8.84103E-14-6.38362E-14
 -1      1030 1.82964E+01 7.85341E-01-3.58187E-04-1.08624E+00 5.15457E-14-2.30457E-13
 -1      1031 1.86105E+01 8.43300E-01-2.03823E-04-8.22876E-01 7.75579E-14-1.47323E-13
 -1      1032 1.88864E+01 8.31075E-01-1.31801E-04-6.28366E-01 1.48971E-13-8.90529E-14
 -1      1033 1.91228E+01 7.74872E-01-9.82545E-05-4.81986E-01 5.70051E-14-1.47486E-13
 -1      1034 1.93212E+01 6.93887E-01-7.78589E-05-3.69967E-01-2.21885E-14-2.69303E-13
 -1      1035 1.94846E+01 6.01922E-01-6.64430E-05-2.83192E-01 1.74505E-14-2.71510E-13
 -1      1036 1.96169E+01 5.08432E-01-5.27435E-05-2.15566E-01 9.52321E-14-3.73258E-13
 -1      1037 1.97215E+01 4.20023E-01-9.88189E-05-1.63030E-01 7.29686E-14-5.61829E-13
 -1      1038 1.65240E+01 1.05727E+00 9.10273E-04-1.12631E+00-2.74631E-14-1.97631E-13
 -1      1039 1.77106E+01 1.17987E+00-1.06277E-03 7.43572E-01 6.10341E-14-1.17426E-13
 -1      1040 1.82476E+01 1.12286E+00-5.63396E-04 6.15932E-01 2.32302E-13 1.18097E-13
 -1      1041 1.95940E+01 5.49235E-01-1.00208E-04 2.36435E-01-2.04172E-14 2.10774E-13
 -1      1042 1.95832E+01 6.35861E-01-6.60379E-05-6.67651E-01 8.50079E-14-6.43500E-14
 -1      1043 1.94414E+01 6.63474E-01-1.33696E-04 2.93980E-01-8.98491E-14-7.26956E-14
 -1      1044 1.92438E+01 7.85557E-01-1.66127E-04 3.59298E-01-7.50503E-14 4.83793E-14
 -1      1045 1.97100E+01 4.47225E-01-9.12779E-05 1.87389E-01 7.07688E-14 1.96501E-13
 -1      1046 1.97742E+01 3.80867E-01-3.23035E-05 1.46189E-01 3.66576E-14-3.10339E-14
 -1      1047 1.47402E+01 9.02605E-01 9.90376E-03 1.18546E+00 1.27867E-14-2.94227E-13
 -1      1048 2.02590E+01 1.22145E+00 5.48721E-05 4.86775E-03 4.25972E-14-3.16461E-13
 -1      1049 1.98210E+01 3.17014E-01 7.63310E-05 5.11454E-02 9.64512E-14-4.56600E-13
 -1      1050 1.70155E+01 1.17399E+00-2.33253E-03 9.22628E-01-1.60576E-13-2.60105E-13
 -1      1051 1.71112E+01-8.49496E-02 1.96525E-03-2.53061E+00 1.53978E-14-1.20771E-14
 -1      1052 2.02061E+01 5.80378E-01-3.53914E-04-2.16668E-01 9.68184E-14-1.89013E-13
 -1      1053 2.02082E+01 6.69752E-01 1.91207E-04 1.35445E-01-2.07203E-14-2.62478E-13
 -1      1054 1.46162E+01 7.13286E-01 2.11760E-02-1.83502E+00-1.65285E-13-2.64051E-13
 -1      1055 1.86643E+01 1.02653E+00-3.23597E-04 5.16473E-01-2.41253E-14 1.33993E-13
 -1      1056 1.73736E+01 1.10102E+00-1.12093E-04-8.93705E-01-1.07280E-13-1.88431E-13
 -1      1057 2.01014E+01 5.70968E-01-6.33054E-05 2.06616E-01-7.30185E-14-2.54984E-13
 -1      1058 1.47577E+01 1.14202E+00 4.88670E-03-6.26491E-01-4.04362E-14-7.09090E-14
 -1      1059 1.89897E+01 9.09661E-01-2.24037E-04 4.32842E-01-5.47066E-14 2.52600E-13
 -1      1060 1.62368E+01 6.48917E-01 2.14493E-03 1.66244E+00 1.15988E-13-1.75959E-13
 -1      1061 2.02548E+01 8.07740E-01 1.35557E-04 7.11684E-02 4.23182E-14-2.59512E-13
 -1      1062 1.98036E+01 3.40084E-01 5.89093E-05-1.22229E-01 1.27520E-13-5.08960E-13
 -1      1063 2.02829E+01 9.91835E-01 4.07008E-05 8.60164E-03-1.57040E-14-2.77585E-13
 -1      1064 1.97933E+01 5.86765E-01-1.20175E-04-3.57418E-01 7.97293E-15-5.74691E-14
 -1      1065 1.97705E+01 3.65497E-01 1.34108E-04-4.62766E-02 2.20531E-13-2.89475E-13
 -1      1066 1.99758E+01 5.53690E-01-7.71371E-05-2.91883E-01 5.47765E-14-9.52367E-14
 -1      1067 2.02458E+01 8.43584E-01-6.65951E-05-1.07145E-02 3.29782E-14-2.75878E-13
 -1      1068 1.85441E+01 9.86855E-01-1.45770E-04-6.39357E-01-1.01440E-14-4.37950E-14
 -1      1069 1.89533E+01 8.81210E-01-2.01961E-04-5.54523E-01 4.00464E-14-9.26330E-14
 -1      1070 1.57064E+01 9.19465E-01 9.23662E-03-1.41276E+00-4.48422E-14-1.83864E-13
 -1      1071 1.80263E+01 1.07027E+00-3.72997E-04-7.44816E-01-3.34839E-14-1.22520E-13
 -1      1072 1.95939E+01 5.29372E-01 9.11283E-05 1.03431E-01 4.61484E-14-5.65026E-13
 -1      1073 2.00049E+01 5.96723E-01-1.59967E-04 1.08886E-01-4.19217E-14-2.57767E-13
 -1      1074 1.95976E+01 6.49598E-01 9.98808E-05 1.94174E-01 5.45726E-15-1.75021E-13
 -1      1075 1.93298E+01 7.23095E-01-2.07647E-04 2.55133E-01 3.10107E-15-1.14596E-13
 -1      1076 1.90094E+01 8.11149E-01 1.00686E-03 3.44561E-01 5.68141E-14-1.48715E-13
 -1      1077 1.86229E+01 8.89463E-01 7.54487E-04 4.66790E-01 1.68978E-14-2.03437E-13
 -1      1078 1.81653E+01 9.34101E-01 3.77221E-04 6.36815E-01-2.23698E-14-2.05140E-13
 -1      1079 1.76091E+01 9.24534E-01-2.00094E-05 8.84700E-01 4.02674E-14-1.95414E-13
 -1      1080 1.74413E+01 1.16173E+00-2.96996E-04-1.87406E-01-2.09757E-14-1.26858E-13
 -1      1081 1.75351E+01 1.01978E+00 5.40652E-06-8.54631E-01-4.19094E-14 2.12059E-13
 -1      1082 1.80546E+01 1.03708E+00-2.68385E-04-6.09469E-01-1.02555E-14 7.21381E-14
 -1      1083 1.84723E+01 9.97023E-01-1.60301E-04-4.37614E-01 5.91897E-14-1.24156E-13
 -1      1084 1.88100E+01 9.19529E-01-1.33421E-04-3.16337E-01-5.25901E-14-5.02122E-13
 -1      1085 1.90833E+01 8.20486E-01-1.07679E-04-2.29705E-01 4.68408E-14-6.90439E-13
 -1      1086 1.93035E+01 7.12104E-01-8.99078E-05-1.67303E-01 6.93831E-14-5.12504E-13
 -1      1087 1.94793E+01 6.03283E-01-9.62422E-05-1.22166E-01 4.89567E-14-1.57310E-13
 -1      1088 1.96210E+01 4.99708E-01 4.70991E-04-8.94501E-02-3.49065E-14-1.12157E-13
 -1      1089 1.58471E+01 1.10803E+00-5.44585E-03 5.29953E-01 2.81808E-14-1.74754E-13
 -1      1090 1.63734E+01 6.97706E-01 3.81576E-03-1.69485E+00-6.86209E-14 2.12629E-13
 -1      1091 1.95678E+01 6.62041E-01-9.78319E-05-4.21864E-01 2.02493E-14-1.14474E-13
 -1      1092 1.62448E+01 1.28677E+00-2.21375E-03 1.76872E-02-3.71060E-14-2.43493E-13
 -1      1093 1.80942E+01 1.07978E+00-6.03706E-04-2.07192E-01 5.21772E-17-1.38328E-13
 -1      1094 1.77419E+01 1.22306E+00 4.45198E-04 1.82467E-01-5.37084E-14-3.47470E-13
 -1      1095 1.94423E+01 6.42381E-01 1.04296E-04 1.25931E-01 1.25332E-13-1.83491E-13
 -1      1096 1.86786E+01 1.01650E+00 1.01810E-04 1.78707E-01-1.44408E-13 4.11544E-15
 -1      1097 1.92473E+01 7.64430E-01 8.74643E-05 1.46448E-01 7.26006E-14 3.14818E-13
 -1      1098 1.70946E+01 1.27659E+00 4.40870E-04 1.19737E-01-1.39474E-13-2.55163E-13
 -1      1099 1.89974E+01 8.91534E-01 9.91690E-05 1.64907E-01 8.67644E-15 1.86802E-13
 -1      1100 1.82707E+01 1.13012E+00 9.41141E-05 1.85228E-01 5.79511E-15-3.64949E-14
 -1      1101 1.49569E+01 1.12700E+00 5.85414E-03-4.13216E-01-8.06546E-15-2.58410E-13
 -1      1102 1.97031E+01 4.28872E-01 1.07380E-04-6.52396E-02 4.39222E-14-1.86452E-13
 -1      1103 1.65846E+01 1.20389E+00-1.06705E-03-1.69918E-01-2.02388E-14-2.36675E-13
 -1      1104 2.01437E+01 6.59261E-01 4.77853E-04 7.44627E-02-1.53953E-14-2.91849E-13
 -1      1105 1.69965E+01 9.21879E-01 2.52296E-03-1.19622E+00-7.69243E-14 2.57394E-13
 -1      1106 2.01446E+01 6.11660E-01 3.38632E-04-1.75364E-01 2.55883E-14-1.73749E-13
 -1      1107 1.98219E+01 6.01731E-01 1.17038E-04 1.48426E-01-9.67161E-15-1.70107E-13
 -1      1108 1.70038E+01 8.38941E-01 3.36399E-03 1.20444E+00 3.52071E-14-1.52326E-13
 -1      1109 1.86054E+01 9.73747E-01-7.16467E-04-2.13285E-01-2.27851E-14-1.17254E-13
 -1      1110 1.96874E+01 4.49787E-01 3.22813E-04 7.58099E-02 7.96902E-14-4.06832E-13
 -1      1111 1.97586E+01 3.76393E-01-7.11782E-05 4.11067E-03 1.76239E-13-2.33349E-13
 -1      1112 1.98534E+01 6.06475E-01-2.06191E-04-1.55938E-01 2.04860E-14-1.53119E-13
 -1      1113 1.97612E+01 3.79474E-01 1.88399E-04 6.28249E-02 1.20052E-13-3.47003E-13
 -1      1114 1.92910E+01 7.67113E-01 3.67684E-04-4.84595E-01 8.25401E-14-5.80747E-14
 -1      1115 1.96278E+01 6.60516E-01-9.50662E-05-1.79855E-01 2.52347E-14-1.53449E-13
 -1      1116 2.02176E+01 7.54728E-01-3.82655E-04 4.93260E-02 2.49375E-15-2.73095E-13
 -1      1117 2.01351E+01 6.55928E-01-1.83316E-04-5.75453E-02-1.96749E-14-2.36928E-13
 -1      1118 1.91036E+01 8.21540E-01-8.06210E-04 2.80707E-03 6.92244E-14-2.14706E-13
 -1      1119 2.00118E+01 6.07124E-01 5.85005E-04-1.02794E-01 1.52977E-15-1.84674E-13
 -1      1120 1.93857E+01 7.38588E-01 4.13860E-04-1.06931E-01 3.37621E-15-1.89291E-13
 -1      1121 1.96922E+01 4.37676E-01-3.66058E-04 2.01365E-02-6.59846E-14-3.39831E-13
 -1      1122 2.78781E+01 9.05804E+00 2.31517E+00-6.67452E+00-6.61693E-14 2.41118E-12
 -1      1123 2.05198E+01 6.21904E+00 2.10312E-01-3.88582E+00-3.80251E-14 4.15730E-13
 -1      1124 1.94319E+01 5.85256E+00 7.66433E-02-2.86756E+00-2.65690E-14-4.54211E-13
 -1      1125 1.90376E+01 5.72965E+00 6.12282E-02-2.21234E+00-1.75450E-14-8.69218E-13
 -1      1126 1.88590E+01 5.67506E+00 5.78997E-02-1.67871E+00-1.21882E-14-1.07019E-12
 -1      1127 1.87689E+01 5.64730E+00 5.54107E-02-1.21387E+00-6.72639E-15-1.15424E-12
 -1      1128 1.87210E+01 5.63226E+00 5.31836E-02-7.89083E-01-3.93175E-15-1.17315E-12
 -1      1129 1.86970E+01 5.62458E+00 5.16060E-02-3.84755E-01-8.80806E-16-1.16233E-12
 -1      1130 1.86901E+01 5.62237E+00 5.10997E-02 8.25796E-03 2.11474E-15-1.14236E-12
 -1      1131 1.86983E+01 5.62502E+00 5.17292E-02 4.01706E-01 5.71461E-15-1.10940E-12
 -1      1132 1.87237E+01 5.63314E+00 5.34393E-02 8.07441E-01 8.98023E-15-1.06226E-12
 -1      1133 1.87735E+01 5.64889E+00 5.61227E-02 1.23490E+00 1.23252E-14-9.78555E-13
 -1      1134 1.88652E+01 5.67721E+00 5.88715E-02 1.70440E+00 1.62856E-14-8.26659E-13
 -1      1135 1.90435E+01 5.73146E+00 6.13543E-02 2.24580E+00 2.20553E-14-5.61827E-13
 -1      1136 1.94282E+01 5.84962E+00 7.05274E-02 2.90829E+00 2.95458E-14-6.03944E-14
 -1      1137 2.04256E+01 6.17393E+00 1.54122E-01 3.86086E+00 3.37785E-14 9.00630E-13
 -1      1138 2.51405E+01 7.96918E+00 1.42330E+00 5.82613E+00 6.88338E-14 2.84978E-12
 -1      1139 2.87050E+01 3.59991E+00 1.26123E+00-4.20084E+00-2.79193E-13 3.68178E-12
 -1      1140 2.01618E+01-1.77750E-01-6.15684E-01-1.08860E-01-9.54584E-14 3.03266E-12
 -1      1141 1.87875E+01-9.66896E-02-2.36149E-01 6.23217E-02-3.34073E-14 2.11960E-12
 -1      1142 1.84724E+01-4.88832E-02-6.02912E-02 4.01861E-02-2.46075E-14 1.48128E-12
 -1      1143 1.84417E+01-2.59114E-02-1.65824E-02 2.64817E-02-1.80043E-14 1.02387E-12
 -1      1144 1.85582E+01-1.49410E-02-7.08550E-03 1.88377E-02-1.53957E-14 7.15841E-13
 -1      1145 1.87549E+01-9.18100E-03-4.44315E-03 1.40964E-02-1.28245E-14 5.22100E-13
 -1      1146 1.89987E+01-6.19539E-03-3.41106E-03 1.10283E-02-8.86259E-15 3.31003E-13
 -1      1147 1.92741E+01-4.83604E-03-3.24841E-03 9.05599E-03-2.37111E-14 9.37479E-14
 -1      1148 1.95764E+01-4.46687E-03-3.77861E-03 7.93317E-03-9.68935E-15-1.42945E-13
 -1      1149 1.99076E+01-4.65851E-03-4.77307E-03 7.56659E-03-1.48590E-15-3.37974E-13
 -1      1150 2.02739E+01-5.04201E-03-5.90533E-03 7.92384E-03 1.52379E-14-2.89812E-13
 -1      1151 2.06822E+01-5.22016E-03-6.72296E-03 8.97264E-03-1.56873E-14-4.43619E-13
 -1      1152 2.11375E+01-4.70529E-03-6.58262E-03 1.06156E-02 9.41451E-15-4.08817E-13
 -1      1153 2.16381E+01-2.88183E-03-4.57990E-03 1.25954E-02-3.15854E-14-4.36972E-13
 -1      1154 2.21693E+01 9.77756E-04 4.61594E-04 1.43541E-02 9.79094E-15-6.08914E-13
 -1      1155 2.26955E+01 7.57771E-03 9.81207E-03 1.48551E-02-8.83625E-16-5.00093E-13
 -1      1156 2.31521E+01 1.72383E-02 2.42550E-02 1.24393E-02-1.11098E-14-4.57735E-13
 -1      1157 2.34397E+01 2.92063E-02 4.28849E-02 4.91861E-03-2.13991E-14-6.44865E-13
 -1      1158 2.34311E+01 4.07009E-02 6.13667E-02-9.71507E-03 4.00071E-15-5.82296E-13
 -1      1159 2.29996E+01 4.62235E-02 7.06963E-02-3.15889E-02 1.91687E-16-6.02060E-13
 -1      1160 2.20807E+01 3.84504E-02 5.89630E-02-5.65170E-02 2.98763E-15-3.43947E-13
 -1      1161 2.07546E+01 1.24445E-02 1.83404E-02-7.45928E-02 8.41850E-15 1.48909E-14
 -1      1162 1.93017E+01-2.78728E-02-4.44038E-02-7.32582E-02-2.66523E-14-4.02137E-13
 -1      1163 1.81567E+01-6.62494E-02-1.03695E-01-4.57484E-02 2.17812E-14-5.92713E-13
 -1      1164 1.77316E+01-8.19714E-02-1.27793E-01 9.38459E-04 7.17568E-15-7.75520E-13
 -1      1165 1.81941E+01-6.52142E-02-1.02093E-01 4.72699E-02 3.86843E-16-8.63802E-13
 -1      1166 1.93647E+01-2.61968E-02-4.18802E-02 7.38073E-02 1.79492E-14-1.00132E-12
 -1      1167 2.08253E+01 1.36496E-02 2.03154E-02 7.40741E-02-6.42173E-16-8.17485E-13
 -1      1168 2.21451E+01 3.87482E-02 5.95534E-02 5.54553E-02 2.14342E-14-8.13655E-13
 -1      1169 2.30537E+01 4.56576E-02 6.99971E-02 3.05845E-02-4.88624E-14-7.79224E-13
 -1      1170 2.34799E+01 3.96284E-02 5.98791E-02 9.06487E-03-1.22710E-14-1.05810E-12
 -1      1171 2.34937E+01 2.78641E-02 4.10511E-02-5.12970E-03 7.18731E-14-7.82078E-13
 -1      1172 2.32240E+01 1.57665E-02 2.22848E-02-1.22279E-02-1.07071E-14-8.42749E-13
 -1      1173 2.27993E+01 6.02625E-03 7.75956E-03-1.42467E-02 3.46901E-15-8.83673E-13
 -1      1174 2.23193E+01-6.52334E-04-1.70569E-03-1.33435E-02 3.03980E-14-8.94559E-13
 -1      1175 2.18496E+01-4.60017E-03-6.92096E-03-1.11310E-02-1.22771E-14-9.88841E-13
 -1      1176 2.14269E+01-6.50081E-03-9.13961E-03-8.59522E-03-6.57920E-14-6.82739E-13
 -1      1177 2.10673E+01-7.03625E-03-9.49230E-03-6.24467E-03 1.01038E-14-6.19364E-13
 -1      1178 2.07739E+01-6.75310E-03-8.81579E-03-4.28668E-03-1.35462E-14-6.49735E-13
 -1      1179 2.05424E+01-6.04102E-03-7.66345E-03-2.76311E-03-2.52068E-14-6.21832E-13
 -1      1180 2.03650E+01-5.15612E-03-6.37265E-03-1.63657E-03-5.88093E-14-1.19695E-12
 -1      1181 2.02329E+01-4.25543E-03-5.13462E-03-8.38750E-04 4.11687E-14-1.07198E-12
 -1      1182 2.01375E+01-3.42808E-03-4.04995E-03-2.94305E-04 1.97022E-14-7.98938E-13
 -1      1183 2.00712E+01-2.71853E-03-3.16729E-03 7.02009E-05 4.87670E-14-9.36353E-13
 -1      1184 2.00276E+01-2.14103E-03-2.50377E-03 3.27185E-04 3.55531E-14-6.11238E-13
 -1      1185 2.00019E+01-1.68323E-03-2.02799E-03 5.54938E-04 2.47933E-14-3.00579E-13
 -1      1186 1.99907E+01-1.26761E-03-1.56782E-03 8.35629E-04-2.03627E-14-2.51102E-13
 -1      1187 1.99915E+01-9.44488E-04-4.91130E-04 1.30782E-03-7.02364E-14-4.23395E-13
 -1      1188 1.99979E+01 7.44198E-04 1.82608E-03 6.46528E-04 1.18145E-13-9.01372E-14
 -1      1189 2.76882E+01 5.23724E-01 3.71414E-01 1.96054E+00-5.02445E-14 4.43939E-12
 -1      1190 2.00189E+01-6.64281E-02-5.72940E-01 1.29124E-01 2.58960E-14 3.62116E-12
 -1      1191 1.88600E+01-4.10499E-02-1.93106E-01 1.97110E-02 2.48994E-14 2.78861E-12
 -1      1192 1.84989E+01-2.22114E-02-5.11560E-02 2.14279E-03 5.91584E-15 2.23030E-12
 -1      1193 1.84515E+01-1.36315E-02-1.46729E-02-3.04814E-03 1.83781E-14 1.79966E-12
 -1      1194 1.85610E+01-9.17287E-03-6.67048E-03-4.15618E-03 1.30406E-14 1.47476E-12
 -1      1195 1.87547E+01-6.79404E-03-4.86026E-03-3.97624E-03 8.51489E-15 1.28478E-12
 -1      1196 1.89980E+01-5.70593E-03-4.44765E-03-3.30515E-03-6.18955E-15 1.18685E-12
 -1      1197 1.92759E+01-5.53558E-03-4.82538E-03-2.41268E-03 4.08045E-15 9.52731E-13
 -1      1198 1.95859E+01-6.07404E-03-5.99728E-03-1.45325E-03 1.89755E-14 8.61441E-13
 -1      1199 1.99337E+01-7.17128E-03-7.94437E-03-5.71528E-04 1.40130E-14 7.53608E-13
 -1      1200 2.03313E+01-8.66638E-03-1.05705E-02 5.29873E-05-4.72268E-15 7.10160E-13
 -1      1201 2.07957E+01-1.03106E-02-1.36595E-02 1.63210E-04 8.61225E-15 7.01838E-13
 -1      1202 2.13460E+01-1.16577E-02-1.67445E-02-6.25284E-04 1.66398E-14 5.36585E-13
 -1      1203 2.20007E+01-1.19086E-02-1.88576E-02-2.87056E-03 2.37711E-15 3.95370E-13
 -1      1204 2.27701E+01-9.73006E-03-1.81506E-02-7.30042E-03 1.03915E-14 2.21455E-13
 -1      1205 2.36457E+01-3.16028E-03-1.14777E-02-1.46396E-02-4.73681E-14 3.56881E-13
 -1      1206 2.45798E+01 1.00788E-02 5.63713E-03-2.50313E-02 2.91515E-14 2.93314E-13
 -1      1207 2.54590E+01 3.12174E-02 3.75773E-02-3.67409E-02 1.65848E-14 6.58744E-14
 -1      1208 2.60761E+01 5.73745E-02 8.40657E-02-4.41745E-02-8.24818E-15 9.13315E-14
 -1      1209 2.61295E+01 7.75280E-02 1.31979E-01-3.67145E-02-1.64192E-14 3.91291E-13
 -1      1210 2.53013E+01 7.22363E-02 1.49254E-01-2.47024E-03-2.20570E-15 6.11081E-13
 -1      1211 2.34649E+01 2.60199E-02 9.61470E-02 5.92469E-02-6.43409E-15 4.17541E-13
 -1      1212 2.09711E+01-4.94526E-02-3.56749E-02 1.22260E-01 3.74048E-14 1.57735E-13
 -1      1213 1.87479E+01-1.04843E-01-1.82859E-01 1.39956E-01-1.68502E-14 2.43042E-13
 -1      1214 1.78782E+01-1.01781E-01-2.43282E-01 8.64194E-02-2.41369E-14 3.55334E-13
 -1      1215 1.88287E+01-4.88328E-02-1.77385E-01-1.10934E-02-2.74086E-14 4.19026E-13
 -1      1216 2.10858E+01 9.46519E-03-4.14134E-02-9.17902E-02-1.99862E-15 1.20737E-13
 -1      1217 2.35630E+01 4.12074E-02 7.34433E-02-1.17871E-01-4.24877E-15-2.34812E-14
 -1      1218 2.53612E+01 4.51755E-02 1.18310E-01-9.61712E-02-1.12748E-14 1.15130E-13
 -1      1219 2.61577E+01 3.47166E-02 1.04918E-01-5.56580E-02 3.03403E-14-3.07733E-13
 -1      1220 2.60926E+01 2.09422E-02 6.78211E-02-1.93503E-02 1.87029E-14-4.90461E-13
 -1      1221 2.54845E+01 9.44743E-03 3.20753E-02 4.19726E-03 6.05657E-15-4.44245E-13
 -1      1222 2.46310E+01 1.68192E-03 7.33713E-03 1.57970E-02-4.44955E-14-1.33126E-13
 -1      1223 2.37363E+01-2.79783E-03-6.34011E-03 1.93888E-02-7.54361E-15-8.31835E-14
 -1      1224 2.29129E+01-4.94559E-03-1.22310E-02 1.86543E-02 1.51034E-14-4.06022E-13
 -1      1225 2.22089E+01-5.63765E-03-1.36139E-02 1.60613E-02 1.02213E-13-1.00354E-12
 -1      1226 2.16346E+01-5.51239E-03-1.27722E-02 1.29858E-02 9.91232E-15-8.72562E-13
 -1      1227 2.11812E+01-4.98232E-03-1.10401E-02 1.00845E-02 1.48823E-14-1.17391E-12
 -1      1228 2.08323E+01-4.29399E-03-9.10777E-03 7.60983E-03 8.61718E-15-1.36503E-12
 -1      1229 2.05694E+01-3.58546E-03-7.29431E-03 5.61316E-03 4.28445E-14-1.31856E-12
 -1      1230 2.03753E+01-2.92880E-03-5.72470E-03 4.05834E-03-7.10721E-14-9.38161E-13
 -1      1231 2.02349E+01-2.35857E-03-4.43190E-03 2.87893E-03-3.92901E-14-5.69785E-13
 -1      1232 2.01359E+01-1.88932E-03-3.41152E-03 2.00395E-03 5.07624E-14-4.58401E-13
 -1      1233 2.00685E+01-1.52352E-03-2.64813E-03 1.36563E-03-1.22636E-14-3.26131E-13
 -1      1234 2.00250E+01-1.24998E-03-2.11985E-03 8.96830E-04-5.76567E-14-2.36979E-13
 -1      1235 2.00000E+01-1.04303E-03-1.77568E-03 5.20451E-04-4.21496E-15-9.58677E-13
 -1      1236 1.99896E+01-7.92006E-04-1.39972E-03 9.67243E-05 2.17935E-14-1.38030E-12
 -1      1237 1.99911E+01-9.25831E-05-2.71246E-04-5.91575E-04 1.22063E-13-1.59864E-12
 -1      1238 1.99981E+01 6.21181E-04 1.89062E-03-6.19843E-04-1.32831E-14-1.09559E-12
 -1      1239 2.00003E+01-1.89168E-03 1.70808E-03-6.82814E-04-1.19432E-12-8.26377E-14
 -1      1240 1.99992E+01-8.49487E-03-6.30702E-04-1.13762E-03-1.38281E-12 5.38145E-14
 -1      1241 1.99989E+01-8.02251E-03-1.49860E-03-3.75698E-04-1.67643E-13-7.15289E-14
 -1      1242 1.99991E+01 3.45244E-03-1.23332E-03 2.33389E-04 1.11770E-12 6.97402E-14
 -1      1243 1.99996E+01 2.30700E-02-5.13705E-04 5.81388E-04 1.64205E-12 6.08257E-14
 -1      1244 2.00001E+01 4.57006E-02 2.66196E-04 6.78383E-04 1.22143E-14-2.31224E-13
 -1      1245 2.00006E+01 6.63880E-02 9.23287E-04 5.81288E-04-1.50504E-12 7.02914E-14
 -1      1246 2.00009E+01 8.09326E-02 1.36147E-03 3.33387E-04-1.03736E-12 9.69350E-14
 -1      1247 2.00010E+01 8.62086E-02 1.51193E-03 1.14955E-05-6.72527E-13-6.74855E-14
 -1      1248 2.00009E+01 8.12110E-02 1.35817E-03-3.10290E-04-3.76961E-13 1.09778E-13
 -1      1249 2.00005E+01 6.69712E-02 9.21966E-04-5.57275E-04-3.09117E-13-1.24599E-13
 -1      1250 2.00001E+01 4.65859E-02 2.77618E-04-6.64931E-04-4.38611E-13 1.29086E-13
 -1      1251 1.99996E+01 2.42041E-02-4.83301E-04-5.71884E-04-3.56133E-13 6.02714E-14
 -1      1252 1.99991E+01 4.64997E-03-1.19094E-03-2.47230E-04-2.91500E-13-4.91928E-14
 -1      1253 1.99990E+01-7.24007E-03-1.47262E-03 3.86797E-04-6.15789E-13-4.17691E-14
 -1      1254 1.99991E+01-7.41083E-03-4.02419E-04 1.71092E-03-7.42301E-13-5.02428E-14
 -1      1255 2.00003E+01-2.17837E-03 1.60420E-03 8.34201E-04-9.58738E-15 1.49532E-13
 -1      1256-1.05781E+00-2.42638E+01-3.74756E+00-2.08735E+00 1.85435E-12 3.17090E-13
 -1      1257-1.78568E+00-1.64564E+01-3.17455E+00-4.32871E+00 3.42637E-12 1.24811E-12
 -1      1258-3.00566E-01-4.03593E+00-2.08013E+00-9.54565E-01 3.85003E-12 2.15372E-12
 -1      1259 7.26433E+00 6.40150E+00-6.28395E-01 6.87730E+00 3.44014E-12 3.08797E-12
 -1      1260 2.19826E+01 1.08757E+01 1.05775E+00 1.48431E+01 2.48956E-12 3.19833E-12
 -1      1261 4.13447E+01 9.25324E+00 2.62158E+00 1.79503E+01 1.39588E-12 2.70362E-12
 -1      1262 5.94031E+01 4.65591E+00 3.89388E+00 1.33661E+01 4.13475E-13 1.54377E-12
 -1      1263 6.77589E+01 1.84001E+00 4.37677E+00 1.54187E+00 1.56715E-13-2.23155E-13
 -1      1264 6.24112E+01 3.54781E+00 4.03983E+00-1.12631E+01 6.68438E-13-2.61524E-12
 -1      1265 4.53596E+01 8.35864E+00 2.88131E+00-1.77832E+01 1.93223E-12-4.38205E-12
 -1      1266 2.49769E+01 1.08980E+01 1.28412E+00-1.58593E+01 3.52185E-12-4.85123E-12
 -1      1267 8.65077E+00 7.11063E+00-4.32333E-01-7.80490E+00 4.43912E-12-4.17355E-12
 -1      1268 9.72923E-02-2.87766E+00-1.93539E+00 4.38965E-01 4.35429E-12-2.69385E-12
 -1      1269-1.87152E+00-1.48711E+01-3.05534E+00 4.25695E+00 3.22986E-12-1.31412E-12
 -1      1270-1.17799E+00-2.34174E+01-3.66268E+00 2.77615E+00 9.28868E-13-2.97450E-13
 -1      1271-9.44003E-01-2.45705E+01-3.72978E+00-1.39907E+00-1.11972E-12-1.48888E-13
 -1      1272-1.66122E+00-1.74408E+01-3.19677E+00-3.96911E+00-2.92411E-12-9.33559E-13
 -1      1273-8.38594E-01-5.79309E+00-2.20372E+00-1.77903E+00-4.09695E-12-2.24987E-12
 -1      1274 5.41779E+00 5.32199E+00-7.61213E-01 5.45228E+00-4.44600E-12-3.68616E-12
 -1      1275 1.94388E+01 1.09527E+01 8.94913E-01 1.40409E+01-3.69993E-12-4.57656E-12
 -1      1276 3.89349E+01 9.63200E+00 2.44458E+00 1.79926E+01-2.35478E-12-4.46643E-12
 -1      1277 5.73820E+01 4.82463E+00 3.66318E+00 1.36323E+01-8.89455E-13-2.74891E-12
 -1      1278 6.60896E+01 1.80704E+00 4.13525E+00 2.03004E+00-2.17416E-13-3.87163E-13
 -1      1279 6.16358E+01 3.29008E+00 3.87403E+00-1.05741E+01-5.36779E-13 2.17715E-12
 -1      1280 4.56794E+01 8.09613E+00 2.87240E+00-1.75401E+01-1.83431E-12 4.19398E-12
 -1      1281 2.56748E+01 1.11526E+01 1.44620E+00-1.61037E+01-3.12528E-12 4.56635E-12
 -1      1282 9.28853E+00 7.90375E+00-2.40869E-01-8.48432E+00-3.22453E-12 3.21254E-12
 -1      1283 4.74184E-01-1.95619E+00-1.77314E+00-1.73989E-01-2.75047E-12 1.74605E-12
 -1      1284-1.68078E+00-1.45609E+01-2.99496E+00 3.92844E+00-1.48681E-12 6.36546E-13
 -1      1285-1.15827E+00-2.33944E+01-3.65011E+00 2.19250E+00-1.51379E-13 2.33695E-13
 -1      1286 2.22055E+01 1.83541E+00-7.23667E-01-2.77913E+00-1.03167E-13 1.98597E-12
 -1      1287 2.03415E+01 4.68401E+00-4.78543E-02-3.28657E+00-2.95861E-13 3.76088E-15
 -1      1288 2.08349E+01 4.79997E+00-1.12614E-01-4.14014E+00-3.79363E-13 4.62443E-13
 -1      1289 1.95348E+01 4.99204E+00-1.91479E-02-2.63111E+00-2.95125E-13-6.38045E-13
 -1      1290 1.98238E+01 5.08625E+00 9.62861E-04-3.02311E+00-3.35648E-13-3.62071E-13
 -1      1291 2.05146E+01 3.94776E+00-2.55300E-02-3.05072E+00-5.20896E-13 8.04912E-15
 -1      1292 1.91984E+01 5.08781E+00-3.50523E-03-2.04534E+00-2.33515E-13-9.59462E-13
 -1      1293 1.93431E+01 5.14164E+00 1.11955E-02-2.33881E+00-2.71894E-13-8.14807E-13
 -1      1294 1.97611E+01 4.36686E+00-2.38816E-02-2.46287E+00-4.66033E-13-5.28182E-13
 -1      1295 1.90285E+01 5.13873E+00 3.18984E-03-1.54068E+00-1.76434E-13-1.11861E-12
 -1      1296 1.91041E+01 5.16805E+00 1.29993E-02-1.78980E+00-1.98052E-13-1.05094E-12
 -1      1297 1.94083E+01 4.56310E+00-1.92116E-02-1.90411E+00-3.52962E-13-8.00221E-13
 -1      1298 1.89367E+01 5.17181E+00 6.35065E-03-1.09644E+00-1.16551E-13-1.17424E-12
 -1      1299 1.89787E+01 5.18805E+00 1.29879E-02-1.31583E+00-1.38659E-13-1.14687E-12
 -1      1300 1.92246E+01 4.67505E+00-1.57126E-02-1.41984E+00-2.65011E-13-9.26814E-13
 -1      1301 1.88848E+01 5.19417E+00 7.86104E-03-6.79300E-01-6.21586E-14-1.18805E-12
 -1      1302 1.89082E+01 5.20317E+00 1.20948E-02-8.86203E-01-7.82404E-14-1.18372E-12
 -1      1303 1.91217E+01 4.74574E+00-1.35815E-02-9.83822E-01-1.64538E-13-9.81899E-13
 -1      1304 1.88602E+01 5.20769E+00 8.94909E-03-2.82672E-01-7.05604E-15-1.16711E-12
 -1      1305 1.88704E+01 5.21163E+00 1.09454E-02-4.80673E-01-2.55178E-14-1.17717E-12
 -1      1306 1.90644E+01 4.78858E+00-1.25302E-02-5.75507E-01-7.74645E-14-9.81763E-13
 -1      1307 1.88564E+01 5.21325E+00 9.95852E-03 1.05811E-01 4.89856E-14-1.14493E-12
 -1      1308 1.88560E+01 5.21309E+00 9.88239E-03-8.94682E-02 3.30933E-14-1.15587E-12
 -1      1309 1.90392E+01 4.80859E+00-1.20845E-02-1.84620E-01 2.00896E-14-9.67573E-13
 -1      1310 1.88725E+01 5.21134E+00 1.10408E-02 4.97637E-01 9.86745E-14-1.11003E-12
 -1      1311 1.88614E+01 5.20707E+00 8.88171E-03 2.99193E-01 7.88741E-14-1.13311E-12
 -1      1312 1.90402E+01 4.80797E+00-1.21045E-02 2.00897E-01 1.03336E-13-9.46934E-13
 -1      1313 1.89121E+01 5.20210E+00 1.21595E-02 9.04734E-01 1.51903E-13-1.05537E-12
 -1      1314 1.88878E+01 5.19291E+00 7.79362E-03 6.96826E-01 1.34116E-13-1.08991E-12
 -1      1315 1.90675E+01 4.78653E+00-1.26005E-02 5.92521E-01 1.90304E-13-9.08967E-13
 -1      1316 1.89838E+01 5.18642E+00 1.31610E-02 1.33315E+00 2.07376E-13-9.56436E-13
 -1      1317 1.89407E+01 5.16973E+00 6.19304E-03 1.11232E+00 1.86952E-13-1.01558E-12
 -1      1318 1.91266E+01 4.74230E+00-1.36348E-02 9.98780E-01 2.76374E-13-8.43950E-13
 -1      1319 1.91133E+01 5.16401E+00 1.32755E-02 1.81566E+00 2.78938E-13-7.97820E-13
 -1      1320 1.90358E+01 5.13426E+00 3.05375E-03 1.56362E+00 2.47874E-13-8.96063E-13
 -1      1321 1.92323E+01 4.66860E+00-1.58034E-02 1.43726E+00 3.75356E-13-7.35096E-13
 -1      1322 1.93535E+01 5.13555E+00 1.07689E-02 2.37323E+00 3.35967E-13-4.98518E-13
 -1      1323 1.92084E+01 5.07995E+00-4.22280E-03 2.07553E+00 3.01148E-13-6.80372E-13
 -1      1324 1.94217E+01 4.54979E+00-1.96465E-02 1.93102E+00 4.69625E-13-5.49658E-13
 -1      1325 1.98488E+01 5.09515E+00 6.71036E-03 3.06160E+00 3.80404E-13 5.08066E-14
 -1      1326 1.95461E+01 4.98302E+00-2.00677E-02 2.67320E+00 3.39166E-13-2.78742E-13
 -1      1327 1.97814E+01 4.34708E+00-2.42061E-02 2.50148E+00 5.46962E-13-2.02061E-13
 -1      1328 2.10688E+01 4.89605E+00 8.61475E-03 4.03382E+00 3.20743E-13 1.07762E-12
 -1      1329 2.03154E+01 4.72730E+00-4.72122E-02 3.39589E+00 3.16677E-13 4.53616E-13
 -1      1330 2.05523E+01 3.91087E+00-2.20348E-02 3.15420E+00 5.63573E-13 4.06578E-13
 -1      1331 2.71165E+01 3.19409E+00 9.23178E-01 4.56387E+00 1.53169E-13 2.98650E-12
 -1      1332 2.19711E+01 3.51463E+00-1.80975E-01 3.86773E+00 1.54543E-13 1.66928E-12
 -1      1333 2.20729E+01 2.55596E+00-3.24356E-02 3.43595E+00 5.15190E-13 1.33954E-12
 -1      1334 2.13643E+01 3.58787E-01-7.61814E-01 1.17615E+00 2.76244E-13 2.88075E-12
 -1      1335 2.19437E+01 1.30975E-01-4.00095E-01-1.27589E+00-3.08281E-13 2.09710E-12
 -1      1336 2.06315E+01 3.05949E-01-1.64184E-01-7.97734E-01-2.88172E-13 1.74151E-12
 -1      1337 2.00418E+01 1.53520E-01-7.32039E-02-3.94265E-01-2.28751E-13 1.58958E-12
 -1      1338 1.95815E+01 9.15898E-02-1.46525E-02-3.22110E-01-2.18749E-13 1.25915E-12
 -1      1339 2.09413E+01 3.68445E-01-1.04104E-01-1.25789E+00-5.04652E-13 9.29916E-13
 -1      1340 1.92341E+01 6.52403E-02 3.19293E-03-1.26198E-01-1.77687E-13 1.13197E-12
 -1      1341 1.90909E+01 4.23551E-02 1.34081E-02-1.07928E-01-1.56567E-13 8.86395E-13
 -1      1342 1.99083E+01 1.34499E-01-3.53876E-02-4.86753E-01-3.86906E-13 6.97546E-13
 -1      1343 1.89436E+01 3.28929E-02 1.33723E-02-1.56195E-02-1.24600E-13 7.62036E-13
 -1      1344 1.89393E+01 2.11061E-02 1.12849E-02-5.47401E-03-1.32140E-13 5.84244E-13
 -1      1345 1.94536E+01 5.73031E-02-8.91236E-03-1.47796E-01-2.85334E-13 4.84966E-13
 -1      1346 1.89010E+01 1.80934E-02 8.92561E-03 4.24949E-02-8.55737E-14 5.24194E-13
 -1      1347 1.89648E+01 1.15668E-02 6.70906E-03 4.82737E-02-8.09851E-14 4.11785E-13
 -1      1348 1.92748E+01 2.73429E-02-4.10627E-03 1.96187E-02-2.06401E-13 3.04605E-13
 -1      1349 1.89893E+01 1.08040E-02 4.83363E-03 7.56024E-02-6.38211E-14 3.56892E-13
 -1      1350 1.90903E+01 6.89719E-03 3.96901E-03 7.91045E-02-4.58754E-14 2.66667E-13
 -1      1351 1.92594E+01 1.44809E-02-3.05126E-03 1.10953E-01-1.48109E-13 1.83750E-13
 -1      1352 1.91532E+01 7.14869E-03 2.60388E-03 9.62097E-02-5.24150E-14 2.18455E-13
 -1      1353 1.92768E+01 4.75184E-03 2.58806E-03 9.86250E-02-8.20596E-14 1.29027E-13
 -1      1354 1.93424E+01 8.63811E-03-2.42730E-03 1.65230E-01-1.23756E-13 8.15266E-14
 -1      1355 1.93656E+01 5.56732E-03 1.46690E-03 1.11062E-01-8.45999E-14 8.71837E-14
 -1      1356 1.95055E+01 4.09889E-03 1.85039E-03 1.13142E-01-8.45747E-14-3.60935E-14
 -1      1357 1.94888E+01 6.36869E-03-1.97522E-03 2.01453E-01-1.61077E-13-1.29414E-14
 -1      1358 1.96140E+01 5.27196E-03 8.16328E-04 1.24205E-01-7.19962E-14-5.92816E-14
 -1      1359 1.97688E+01 4.35492E-03 1.38426E-03 1.26445E-01-6.86129E-14-1.55632E-13
 -1      1360 1.96802E+01 6.18932E-03-1.76527E-03 2.30253E-01-1.35026E-13-5.44049E-14
 -1      1361 1.98947E+01 5.75705E-03 3.60878E-04 1.38108E-01-5.45757E-14-1.61474E-13
 -1      1362 2.00659E+01 5.08376E-03 1.02445E-03 1.40807E-01-1.43167E-14-2.08649E-13
 -1      1363 1.99083E+01 7.25698E-03-1.78027E-03 2.57994E-01-9.12508E-14-7.40806E-14
 -1      1364 2.02089E+01 6.59361E-03-2.94788E-05 1.54019E-01-8.46328E-15-2.77014E-13
 -1      1365 2.03993E+01 5.85608E-03 6.87131E-04 1.57281E-01-2.84590E-14-2.81702E-13
 -1      1366 2.01708E+01 8.89950E-03-1.93880E-03 2.88237E-01-6.67175E-14-1.81643E-13
 -1      1367 2.05601E+01 7.31071E-03-4.14324E-04 1.71952E-01-5.07922E-14-3.38531E-13
 -1      1368 2.07720E+01 6.15674E-03 3.22654E-04 1.75640E-01-3.28175E-14-3.95873E-13
 -1      1369 2.04679E+01 1.03916E-02-2.12711E-03 3.22079E-01-6.40730E-14-3.20293E-13
 -1      1370 2.09506E+01 7.30243E-03-8.07642E-04 1.90411E-01 1.18350E-14-4.00001E-13
 -1      1371 2.11843E+01 5.30971E-03-8.79903E-05 1.94060E-01-8.18898E-15-3.81410E-13
 -1      1372 2.08004E+01 1.07939E-02-2.19851E-03 3.57864E-01-2.33330E-14-3.13859E-13
 -1      1373 2.13783E+01 5.75132E-03-1.16705E-03 2.05905E-01-5.93640E-14-3.57766E-13
 -1      1374 2.16293E+01 2.43301E-03-5.12445E-04 2.08594E-01-1.00622E-13-4.37708E-13
 -1      1375 2.11662E+01 8.81912E-03-1.95735E-03 3.90446E-01-5.12698E-14-3.87071E-13
 -1      1376 2.18322E+01 1.59885E-03-1.36438E-03 2.12363E-01-5.23995E-14-4.03954E-13
 -1      1377 2.20877E+01-3.52115E-03-8.32736E-04 2.12567E-01 2.64616E-15-4.38984E-13
 -1      1378 2.15571E+01 2.76693E-03-1.14269E-03 4.10166E-01-9.86860E-14-3.52283E-13
 -1      1379 2.22865E+01-6.35023E-03-1.15682E-03 2.00709E-01 5.65442E-14-4.53320E-13
 -1      1380 2.25219E+01-1.35245E-02-8.18415E-04 1.96220E-01 1.11950E-14-4.23508E-13
 -1      1381 2.19549E+01-9.33707E-03 5.68232E-04 4.01946E-01 1.19418E-14-3.55102E-13
 -1      1382 2.26953E+01-1.90259E-02-2.01076E-04 1.59255E-01-1.95096E-14-3.75407E-13
 -1      1383 2.28712E+01-2.78509E-02-1.55054E-04 1.47352E-01-5.46655E-14-4.07343E-13
 -1      1384 2.23269E+01-2.91345E-02 3.49849E-03 3.45424E-01 3.59565E-15-2.77216E-13
 -1      1385 2.29888E+01-3.61786E-02 1.81448E-03 7.60282E-02-6.08845E-14-4.29404E-13
 -1      1386 2.30519E+01-4.49265E-02 1.39724E-03 5.42259E-02-2.45312E-14-4.37656E-13
 -1      1387 2.26233E+01-5.65064E-02 7.79024E-03 2.17899E-01-7.29798E-14-2.75828E-13
 -1      1388 2.30767E+01-5.48697E-02 4.84315E-03-5.54888E-02 2.19200E-14-4.56833E-13
 -1      1389 2.29684E+01-5.98435E-02 3.65238E-03-8.77242E-02-2.53296E-14-4.32734E-13
 -1      1390 2.27783E+01-8.71746E-02 1.30416E-02 2.59337E-03-3.52903E-14-3.34150E-13
 -1      1391 2.28656E+01-6.79363E-02 7.98634E-03-2.26607E-01 9.06393E-15-4.29087E-13
 -1      1392 2.25434E+01-6.36480E-02 5.58128E-03-2.65192E-01-1.80680E-14-4.13058E-13
 -1      1393 2.27200E+01-1.10153E-01 1.77867E-02-2.95902E-01 1.62717E-15-2.83396E-13
 -1      1394 2.22966E+01-6.43018E-02 9.27759E-03-4.02634E-01 6.90411E-14-3.46539E-13
 -1      1395 2.17670E+01-4.57033E-02 5.36946E-03-4.36585E-01 1.12015E-13-1.97550E-13
 -1      1396 2.23939E+01-1.07939E-01 1.91496E-02-6.31657E-01 7.99083E-14-2.76003E-13
 -1      1397 2.13996E+01-3.38456E-02 6.57229E-03-5.20540E-01 5.27605E-14-1.54210E-13
 -1      1398 2.07485E+01-1.07212E-03 1.33877E-03-5.33194E-01-5.75928E-16-1.08663E-13
 -1      1399 2.18011E+01-6.37637E-02 1.36158E-02-9.05755E-01 1.20117E-13-2.15076E-13
 -1      1400 2.03404E+01 2.21679E-02-7.38152E-04-5.08663E-01-9.44396E-14-8.51333E-14
 -1      1401 1.97345E+01 5.95698E-02-6.03139E-03-4.85982E-01-1.16207E-13-2.69312E-13
 -1      1402 2.10386E+01 2.33259E-02-3.69482E-04-9.85924E-01-6.55942E-14-2.83107E-15
 -1      1403 1.94101E+01 8.37233E-02-9.62058E-03-3.31156E-01-6.55283E-14-2.78309E-13
 -1      1404 1.90448E+01 1.09032E-01-1.30409E-02-2.73692E-01-7.17343E-14-3.58007E-13
 -1      1405 2.03094E+01 1.25705E-01-1.90508E-02-7.73247E-01-1.46291E-13 8.56953E-15
 -1      1406 1.89240E+01 1.19310E-01-1.48111E-02-2.86878E-02-6.03094E-14-4.76480E-13
 -1      1407 1.89328E+01 1.18815E-01-1.47602E-02 4.32642E-02-4.53197E-14-5.50282E-13
 -1      1408 1.98628E+01 1.95421E-01-3.27667E-02-2.86106E-01-1.74489E-13-1.83374E-13
 -1      1409 1.90652E+01 1.07857E-01-1.29219E-02 2.86520E-01-4.22848E-14-5.71836E-13
 -1      1410 1.94453E+01 8.17412E-02-9.41496E-03 3.43002E-01-3.04331E-14-6.22100E-13
 -1      1411 1.98743E+01 1.93900E-01-3.26093E-02 3.12248E-01-1.02713E-13-2.71706E-13
 -1      1412 1.97780E+01 5.72412E-02-5.76810E-03 4.93282E-01-2.11480E-14-6.56523E-13
 -1      1413 2.03921E+01 1.96906E-02-3.64475E-04 5.14444E-01-1.63905E-14-6.87853E-13
 -1      1414 2.03409E+01 1.22219E-01-1.83923E-02 7.91637E-01-7.31559E-14-4.01198E-13
 -1      1415 2.08034E+01-3.22159E-03 1.57931E-03 5.34061E-01 8.96737E-14-7.20493E-13
 -1      1416 2.14552E+01-3.54288E-02 6.78134E-03 5.20255E-01 9.80279E-14-6.08964E-13
 -1      1417 2.10813E+01 1.93456E-02 2.23925E-04 9.92464E-01 7.19477E-15-5.65301E-13
 -1      1418 2.18220E+01-4.65524E-02 5.44495E-03 4.33705E-01-3.62011E-14-5.19987E-13
 -1      1419 2.23483E+01-6.43811E-02 9.34236E-03 3.99522E-01 1.86873E-14-5.03601E-13
 -1      1420 2.18458E+01-6.59702E-02 1.38869E-02 9.03103E-01 7.18241E-14-4.16389E-13
 -1      1421 2.25940E+01-6.32159E-02 5.54445E-03 2.62433E-01-6.66316E-14-5.24129E-13
 -1      1422 2.29130E+01-6.69261E-02 7.91044E-03 2.24297E-01-1.01933E-13-5.93615E-13
 -1      1423 2.24366E+01-1.07868E-01 1.90043E-02 6.26526E-01-2.51309E-14-3.94225E-13
 -1      1424 2.30166E+01-5.85573E-02 3.56937E-03 8.79091E-02-7.55273E-14-6.36451E-13
 -1      1425 2.31254E+01-5.32572E-02 4.77383E-03 5.65037E-02 2.70790E-15-6.08856E-13
 -1      1426 2.27622E+01-1.08312E-01 1.74011E-02 2.94402E-01-1.57971E-13-3.69995E-13
 -1      1427 2.31049E+01-4.31996E-02 1.33789E-03-4.95426E-02 4.61809E-14-7.02967E-13
 -1      1428 2.30478E+01-3.43150E-02 1.79368E-03-7.03624E-02 5.59097E-14-7.39033E-13
 -1      1429 2.28256E+01-8.44054E-02 1.25503E-02 3.42982E-03-2.68075E-14-4.84384E-13
 -1      1430 2.29390E+01-2.59146E-02-1.88235E-04-1.37472E-01-1.51697E-14-7.17644E-13
 -1      1431 2.27755E+01-1.70643E-02-1.69993E-04-1.48336E-01-6.60401E-14-7.85297E-13
 -1      1432 2.26836E+01-5.33264E-02 7.25557E-03-2.02373E-01-2.21082E-14-7.44324E-13
 -1      1433 2.26158E+01-1.14620E-02-8.41389E-04-1.80814E-01 2.58030E-14-7.68273E-13
 -1      1434 2.23997E+01-4.32289E-03-1.08802E-03-1.84227E-01 7.46919E-14-7.38452E-13
 -1      1435 2.24092E+01-2.57586E-02 2.94415E-03-3.19456E-01-3.12012E-14-5.80395E-13
 -1      1436 2.22197E+01-1.32703E-03-8.69931E-04-1.91368E-01-2.06745E-14-6.82924E-13
 -1      1437 2.19908E+01 3.71753E-03-1.28035E-03-1.90032E-01-3.53435E-14-7.17941E-13
 -1      1438 2.20691E+01-5.78447E-03-4.51677E-06-3.64960E-01 4.52908E-14-5.63927E-13
 -1      1439 2.18122E+01 4.79832E-03-5.92231E-04-1.81260E-01 9.04192E-15-7.67258E-13
 -1      1440 2.15954E+01 7.99283E-03-1.09387E-03-1.77352E-01 3.62721E-14-6.64529E-13
 -1      1441 2.17135E+01 6.56683E-03-1.74090E-03-3.61559E-01-2.52275E-14-5.98950E-13
 -1      1442 2.14314E+01 7.87533E-03-2.41657E-04-1.60165E-01 9.26671E-14-6.48990E-13
 -1      1443 2.12402E+01 9.66438E-03-7.75303E-04-1.55193E-01 1.26294E-14-5.34245E-13
 -1      1444 2.13755E+01 1.29445E-02-2.58334E-03-3.29479E-01 1.03983E-13-6.68038E-13
 -1      1445 2.10974E+01 8.90892E-03 5.84773E-05-1.34775E-01-7.56268E-14-3.26662E-13
 -1      1446 2.09370E+01 9.72826E-03-4.60242E-04-1.29670E-01 1.59940E-14-4.52473E-13
 -1      1447 2.10737E+01 1.52697E-02-2.84003E-03-2.83785E-01 1.28242E-14-3.07754E-13
 -1      1448 2.08175E+01 8.71183E-03 2.65892E-04-1.09232E-01 1.17029E-15-4.66184E-13
 -1      1449 2.06879E+01 8.91285E-03-2.05443E-04-1.04507E-01-3.50138E-14-4.80573E-13
 -1      1450 2.08163E+01 1.51458E-02-2.74941E-03-2.34413E-01 4.70539E-14-2.42759E-13
 -1      1451 2.05912E+01 7.86214E-03 3.82481E-04-8.58082E-02-1.06542E-13-4.66190E-13
 -1      1452 2.04898E+01 7.70103E-03-2.33783E-05-8.17014E-02-2.12787E-13-7.14792E-13
 -1      1453 2.06043E+01 1.37216E-02-2.47634E-03-1.87230E-01-9.48781E-14-3.88965E-13
 -1      1454 2.04137E+01 6.73762E-03 4.27709E-04-6.55350E-02-1.91276E-13-7.13394E-13
 -1      1455 2.03366E+01 6.38945E-03 9.35868E-05-6.21144E-02-6.71878E-14-8.83568E-13
 -1      1456 2.04350E+01 1.17447E-02-2.12682E-03-1.45242E-01-3.03008E-13-3.06041E-13
 -1      1457 2.02783E+01 5.56859E-03 4.23727E-04-4.86754E-02 1.04117E-13-7.72904E-13
 -1      1458 2.02213E+01 5.14727E-03 1.59133E-04-4.59130E-02 1.83938E-13-6.47724E-13
 -1      1459 2.03033E+01 9.66591E-03-1.76511E-03-1.09604E-01 4.94880E-14-3.75455E-13
 -1      1460 2.01778E+01 4.48625E-03 3.88336E-04-3.50512E-02 1.57307E-14-5.71061E-13
 -1      1461 2.01370E+01 4.06219E-03 1.85370E-04-3.28684E-02-1.04347E-14-6.02974E-13
 -1      1462 2.02035E+01 7.73753E-03-1.42790E-03-8.03562E-02 1.45675E-13-2.78913E-13
 -1      1463 2.01056E+01 3.55888E-03 3.31750E-04-2.42519E-02 3.13817E-14-7.15881E-13
 -1      1464 2.00777E+01 3.17210E-03 1.78707E-04-2.25465E-02 9.05988E-14-5.65783E-13
 -1      1465 2.01299E+01 6.08811E-03-1.13495E-03-5.69135E-02-3.86444E-14-3.46341E-13
 -1      1466 2.00558E+01 2.81634E-03 2.55112E-04-1.57645E-02 1.32459E-13-6.14537E-13
 -1      1467 2.00380E+01 2.48400E-03 1.40069E-04-1.44256E-02 1.46701E-13-4.34418E-13
 -1      1468 2.00774E+01 4.77391E-03-8.95811E-04-3.83863E-02 1.51848E-13-4.86747E-13
 -1      1469 2.00237E+01 2.25893E-03 1.54806E-04-9.05965E-03 1.28424E-13-4.64768E-13
 -1      1470 2.00139E+01 1.96694E-03 7.90441E-05-7.97978E-03 6.09225E-14-4.09039E-13
 -1      1471 2.00417E+01 3.80596E-03-7.10106E-04-2.37828E-02 1.94215E-13-4.92894E-13
 -1      1472 2.00054E+01 1.81762E-03 4.85202E-05-3.72508E-03 5.79214E-14-2.68494E-13
 -1      1473 2.00021E+01 1.49091E-03 5.70553E-05-2.82831E-03 4.02413E-14-2.28327E-13
 -1      1474 2.00191E+01 3.10918E-03-5.48766E-04-1.22204E-02 1.09322E-13-3.89077E-13
 -1      1475 1.99978E+01 1.51929E-03 9.54124E-05 3.22222E-04 5.30045E-14 3.57017E-15
 -1      1476 1.99992E+01 7.48090E-04 3.57431E-04 1.07131E-03 4.57995E-14 8.86728E-14
 -1      1477 2.00064E+01 2.36720E-03-3.51243E-04-3.35605E-03 1.98732E-13-4.45521E-14
 -1      1478 1.99983E+01-9.61896E-04 8.70797E-04 1.52249E-03-1.75856E-13 2.15946E-13
 -1      1479 2.00007E+01-7.45937E-04 1.36010E-04 1.87042E-03-7.04289E-14 3.25130E-13
 -1      1480 2.02121E+01 7.54196E-02-1.51592E-01 4.77427E-01 2.56638E-13 2.32048E-12
 -1      1481 2.14719E+01 2.15853E-01-2.29023E-01 7.13804E-01 2.17243E-13 2.70904E-12
 -1      1482 2.16830E+01 8.79122E-01-8.54917E-02 2.04995E+00 4.28144E-13 1.80772E-12
 -1      1483 1.93016E+01 3.26858E-02-2.11870E-02 1.79335E-01 1.91113E-13 1.82540E-12
 -1      1484 1.97133E+01 1.13814E-01-6.23834E-02 2.31418E-01 1.91638E-13 2.13009E-12
 -1      1485 2.02742E+01 1.87442E-01-5.51711E-02 7.73126E-01 3.94906E-13 1.45797E-12
 -1      1486 1.89414E+01 1.57631E-02 5.63113E-03 4.49416E-02 1.27509E-13 1.45594E-12
 -1      1487 1.90693E+01 5.23903E-02 1.16765E-03 7.16844E-02 1.26634E-13 1.66853E-12
 -1      1488 1.95487E+01 7.25543E-02-1.23027E-02 2.83913E-01 2.92341E-13 1.15106E-12
 -1      1489 1.88602E+01 8.17646E-03 6.82808E-03-2.11075E-02 1.09953E-13 1.16076E-12
 -1      1490 1.88602E+01 2.72405E-02 1.12442E-02-5.88423E-03 1.02888E-13 1.32908E-12
 -1      1491 1.92386E+01 3.26014E-02-2.76363E-03 6.32175E-02 2.24591E-13 8.66123E-13
 -1      1492 1.89280E+01 4.73953E-03 4.53405E-03-5.68198E-02 8.08967E-14 9.42156E-13
 -1      1493 1.88631E+01 1.59294E-02 8.69798E-03-4.73951E-02 7.28571E-14 1.06959E-12
 -1      1494 1.91569E+01 1.57628E-02-2.09338E-03-5.03588E-02 1.66520E-13 6.79565E-13
 -1      1495 1.90818E+01 3.17201E-03 2.92896E-03-7.80196E-02 1.77805E-14 8.39374E-13
 -1      1496 1.89807E+01 1.03274E-02 5.59362E-03-7.16277E-02 3.78198E-14 8.97003E-13
 -1      1497 1.92069E+01 8.13964E-03-2.33858E-03-1.14442E-01 1.06064E-13 5.61030E-13
 -1      1498 1.92907E+01 2.65731E-03 1.99945E-03-9.26057E-02 8.45606E-14 7.25068E-13
 -1      1499 1.91667E+01 7.66747E-03 3.71955E-03-8.76793E-02 4.89853E-14 7.97534E-13
 -1      1500 1.93380E+01 4.84045E-03-2.39077E-03-1.54576E-01 8.07063E-14 4.68324E-13
 -1      1501 1.95412E+01 2.85169E-03 1.34449E-03-1.05287E-01 1.74518E-14 5.78387E-13
 -1      1502 1.93993E+01 6.81241E-03 2.68821E-03-1.00764E-01 6.10719E-14 6.73915E-13
 -1      1503 1.95243E+01 3.99042E-03-2.42225E-03-1.84311E-01 1.21827E-13 3.74989E-13
 -1      1504 1.98310E+01 3.57407E-03 7.54499E-04-1.19268E-01 4.96295E-14 5.18456E-13
 -1      1505 1.96708E+01 7.23384E-03 2.08290E-03-1.14339E-01 2.50026E-14 5.50933E-13
 -1      1506 1.97548E+01 4.75220E-03-2.60925E-03-2.11988E-01 7.13554E-14 2.81689E-13
 -1      1507 2.01655E+01 4.69526E-03 1.49004E-04-1.36891E-01 7.40922E-15 4.97428E-13
 -1      1508 1.99829E+01 8.63437E-03 1.68605E-03-1.30892E-01 2.01592E-14 5.20084E-13
 -1      1509 2.00279E+01 6.66835E-03-3.02021E-03-2.43329E-01 4.39529E-14 2.48001E-13
 -1      1510 2.05552E+01 6.07647E-03-4.99807E-04-1.59837E-01 1.79602E-14 4.65264E-13
 -1      1511 2.03434E+01 1.07825E-02 1.38773E-03-1.52215E-01 1.02191E-14 4.78932E-13
 -1      1512 2.03479E+01 9.40813E-03-3.66723E-03-2.82416E-01 1.21827E-14 2.72512E-13
 -1      1513 2.10139E+01 7.50439E-03-1.18902E-03-1.89021E-01 5.66780E-14 4.62636E-13
 -1      1514 2.07645E+01 1.33927E-02 1.11473E-03-1.79373E-01 2.23190E-14 4.55742E-13
 -1      1515 2.07234E+01 1.26102E-02-4.52775E-03-3.31885E-01 4.31057E-14 2.65106E-13
 -1      1516 2.15561E+01 8.59847E-03-1.86138E-03-2.24140E-01 5.73317E-14 3.29538E-13
 -1      1517 2.12602E+01 1.59807E-02 8.04266E-04-2.12347E-01 7.00787E-14 4.04472E-13
 -1      1518 2.11647E+01 1.57141E-02-5.52381E-03-3.92482E-01 1.08653E-13 2.38137E-13
 -1      1519 2.21918E+01 8.67443E-03-2.33443E-03-2.62745E-01 2.82894E-14 2.35787E-13
 -1      1520 2.18430E+01 1.76514E-02 4.13119E-04-2.49260E-01 3.10980E-14 2.74451E-13
 -1      1521 2.16809E+01 1.77186E-02-6.46060E-03-4.61868E-01 6.84489E-14 1.85947E-13
 -1      1522 2.29194E+01 6.57391E-03-2.16964E-03-2.98628E-01-3.56695E-14 1.84516E-13
 -1      1523 2.25182E+01 1.68030E-02-3.14868E-05-2.85000E-01 2.56284E-14 2.11532E-13
 -1      1524 2.22749E+01 1.68353E-02-6.91702E-03-5.32394E-01 4.80566E-14 1.63532E-13
 -1      1525 2.37133E+01 5.45682E-04-5.00623E-04-3.19515E-01 4.19989E-15 1.99195E-13
 -1      1526 2.32742E+01 1.08185E-02-3.24410E-04-3.09203E-01-4.67556E-14 1.31360E-13
 -1      1527 2.29365E+01 1.00852E-02-6.09537E-03-5.87664E-01-1.48329E-14 1.03213E-13
 -1      1528 2.45059E+01-1.15453E-02 4.03095E-03-3.04644E-01 9.92585E-14 1.04493E-13
 -1      1529 2.40688E+01-3.95475E-03 6.63076E-05-3.03986E-01 6.98959E-14 2.28081E-13
 -1      1530 2.36316E+01-6.87604E-03-2.71389E-03-5.98322E-01 4.84608E-14 6.13433E-14
 -1      1531 2.51687E+01-3.10562E-02 1.27995E-02-2.24567E-01-1.42889E-14 1.10396E-13
 -1      1532 2.48109E+01-3.11438E-02 2.05006E-03-2.43198E-01 3.02015E-15 1.42025E-13
 -1      1533 2.42895E+01-3.88454E-02 4.79815E-03-5.19495E-01 6.49480E-14 1.73524E-13
 -1      1534 2.55030E+01-5.56241E-02 2.54498E-02-4.86682E-02-1.21496E-13 2.93066E-13
 -1      1535 2.53452E+01-7.08681E-02 6.48729E-03-9.75414E-02-7.28202E-14 2.30576E-13
 -1      1536 2.47917E+01-8.74244E-02 1.72595E-02-2.96459E-01-9.81732E-14 3.44828E-13
 -1      1537 2.52696E+01-7.46901E-02 3.66816E-02 2.31676E-01-7.22174E-14 4.94261E-13
 -1      1538 2.54571E+01-1.13143E-01 1.27423E-02 1.47562E-01-9.63396E-14 3.52168E-13
 -1      1539 2.49758E+01-1.42897E-01 3.24575E-02 1.09783E-01-1.56673E-13 4.16950E-13
 -1      1540 2.42930E+01-6.81050E-02 3.42218E-02 5.63091E-01 5.47340E-14 5.42386E-13
 -1      1541 2.49293E+01-1.32028E-01 1.63995E-02 4.57941E-01-1.21535E-14 5.34975E-13
 -1      1542 2.46748E+01-1.74476E-01 4.24155E-02 6.67199E-01-9.38052E-14 5.19834E-13
 -1      1543 2.26457E+01-1.73006E-02 5.02923E-03 8.00320E-01 1.80352E-13 3.48901E-13
 -1      1544 2.36778E+01-9.25188E-02 9.44462E-03 7.17918E-01 8.84830E-14 5.01085E-13
 -1      1545 2.38157E+01-1.32912E-01 3.47114E-02 1.20602E+00 1.13205E-13 5.31707E-13
 -1      1546 2.08107E+01 6.75809E-02-4.74392E-02 7.50949E-01 6.58675E-15 2.50841E-13
 -1      1547 2.19334E+01 1.73936E-02-1.31529E-02 7.50670E-01 5.22603E-14 2.78749E-13
 -1      1548 2.25602E+01 1.53578E-02 3.85103E-03 1.42007E+00 1.65719E-13 3.28543E-13
 -1      1549 1.95937E+01 1.31294E-01-8.87423E-02 3.34862E-01-3.97286E-14 3.03507E-13
 -1      1550 2.03165E+01 1.47357E-01-4.15183E-02 4.40899E-01-3.75359E-14 2.41661E-13
 -1      1551 2.13738E+01 2.20565E-01-3.64531E-02 1.03800E+00-3.38445E-14 2.99386E-13
 -1      1552 1.96358E+01 1.23849E-01-8.18120E-02-2.64739E-01-2.34483E-14 3.32755E-13
 -1      1553 1.95858E+01 2.06913E-01-5.14797E-02-1.02781E-01-5.28050E-15 3.52610E-13
 -1      1554 2.08456E+01 3.42338E-01-5.55512E-02 1.27137E-01-4.85445E-14 2.50284E-13
 -1      1555 2.09223E+01 5.01475E-02-3.22297E-02-7.20207E-01 1.83985E-14 2.94445E-13
 -1      1556 2.01236E+01 1.55405E-01-3.27455E-02-5.92799E-01 8.16534E-15 3.03577E-13
 -1      1557 2.12633E+01 2.78481E-01-4.51944E-02-8.53109E-01 1.82562E-14 2.08836E-13
 -1      1558 2.27850E+01-2.97735E-02 2.45887E-02-8.18348E-01 1.76538E-14 1.25164E-13
 -1      1559 2.16423E+01 3.92558E-02-1.85955E-05-7.79981E-01 4.72471E-14 2.56142E-13
 -1      1560 2.23881E+01 7.33473E-02-2.05275E-02-1.38570E+00 1.07424E-13 1.72102E-13
 -1      1561 2.44228E+01-7.06924E-02 5.40785E-02-6.06324E-01-1.78590E-14 8.33014E-14
 -1      1562 2.34167E+01-5.93343E-02 2.55841E-02-6.45366E-01-4.66346E-14 7.04159E-14
 -1      1563 2.36596E+01-1.20248E-01 1.40459E-03-1.30582E+00-7.36564E-15 1.79658E-13
 -1      1564 2.53692E+01-7.00332E-02 5.10127E-02-2.75392E-01 8.94172E-14 5.50081E-14
 -1      1565 2.47786E+01-9.87025E-02 3.18011E-02-3.45786E-01 5.35180E-14 1.00794E-13
 -1      1566 2.45904E+01-2.02127E-01 1.18258E-02-8.21414E-01 2.37310E-15 7.89074E-14
 -1      1567 2.55757E+01-4.86781E-02 3.23576E-02 1.55631E-02-5.47305E-15-2.45796E-13
 -1      1568 2.54287E+01-8.97830E-02 2.32289E-02-4.88112E-02 1.06290E-13-1.39631E-13
 -1      1569 2.49797E+01-1.81857E-01 1.26573E-02-2.51716E-01 2.09633E-13-1.20621E-13
 -1      1570 2.52315E+01-2.50350E-02 1.35436E-02 2.02798E-01-2.14004E-14-2.72690E-13
 -1      1571 2.54121E+01-6.04363E-02 1.09197E-02 1.59584E-01 5.07407E-15-2.90090E-13
 -1      1572 2.48734E+01-1.17994E-01 9.36268E-03 1.95498E-01 3.67085E-14-1.31194E-13
 -1      1573 2.45782E+01-7.44226E-03 9.79897E-04 2.90324E-01-2.08670E-14-1.84342E-13
 -1      1574 2.49400E+01-3.08338E-02 1.59184E-03 2.68094E-01-5.08144E-14-2.54800E-13
 -1      1575 2.44293E+01-5.50660E-02 5.62267E-03 4.59197E-01-1.00449E-14-1.01250E-13
 -1      1576 2.38117E+01 2.95921E-03-5.22721E-03 3.08079E-01 4.04324E-14-1.05305E-13
 -1      1577 2.42375E+01-9.21456E-03-3.24107E-03 3.00853E-01-1.63133E-14-1.65926E-13
 -1      1578 2.38129E+01-1.09172E-02 2.80758E-03 5.65691E-01-5.72830E-14-1.66400E-13
 -1      1579 2.30573E+01 7.89382E-03-7.19498E-03 2.86348E-01-3.60078E-14-1.49727E-13
 -1      1580 2.34739E+01 3.71348E-03-4.69324E-03 2.87933E-01-9.24824E-16-6.98643E-14
 -1      1581 2.31505E+01 1.38126E-02 1.05049E-03 5.68151E-01 8.64510E-15-1.58130E-13
 -1      1582 2.23811E+01 9.44562E-03-6.97395E-03 2.46959E-01 1.27670E-13-4.78855E-13
 -1      1583 2.27513E+01 1.00700E-02-4.35023E-03 2.52834E-01 1.34967E-13-2.73743E-13
 -1      1584 2.25210E+01 2.45776E-02 7.08777E-05 5.14409E-01 1.67005E-13-1.21340E-13
 -1      1585 2.18089E+01 9.19597E-03-5.89043E-03 2.03052E-01 1.25704E-13-7.73626E-13
 -1      1586 2.21191E+01 1.22739E-02-3.35842E-03 2.10440E-01 1.60632E-13-4.92608E-13
 -1      1587 2.19647E+01 2.70492E-02-4.31182E-04 4.37516E-01 2.78193E-13-3.00313E-13
 -1      1588 2.13434E+01 8.13636E-03-4.63202E-03 1.61467E-01 4.55265E-14-6.87610E-13
 -1      1589 2.15933E+01 1.21779E-02-2.31965E-03 1.68862E-01-2.75147E-14-7.64314E-13
 -1      1590 2.14964E+01 2.53089E-02-6.62392E-04 3.56909E-01 4.65660E-14-5.46148E-13
 -1      1591 2.09754E+01 6.81855E-03-3.49040E-03 1.25166E-01-2.41534E-14-8.31154E-13
 -1      1592 2.11710E+01 1.09780E-02-1.46679E-03 1.31855E-01 7.15773E-14-7.22392E-13
 -1      1593 2.11154E+01 2.18301E-02-7.43530E-04 2.82472E-01 1.18145E-13-4.74236E-13
 -1      1594 2.06912E+01 5.51958E-03-2.55529E-03 9.49713E-02-3.99950E-14-9.35486E-13
 -1      1595 2.08408E+01 9.36826E-03-8.43995E-04 1.00691E-01 3.23571E-14-8.48909E-13
 -1      1596 2.08136E+01 1.79440E-02-7.41455E-04 2.18277E-01 8.87367E-14-5.39486E-13
 -1      1597 2.04762E+01 4.36154E-03-1.82874E-03 7.06425E-02-5.64045E-14-8.25172E-13
 -1      1598 2.05883E+01 7.71807E-03-4.20948E-04 7.53631E-02-5.53880E-14-8.65182E-13
 -1      1599 2.05797E+01 1.42887E-02-6.94121E-04 1.65211E-01-7.53039E-14-4.42998E-13
 -1      1600 2.03167E+01 3.38574E-03-1.28200E-03 5.14787E-02-1.56055E-13-5.27422E-13
 -1      1601 2.03990E+01 6.20578E-03-1.49106E-04 5.52818E-02-1.85569E-13-7.83198E-13
 -1      1602 2.04021E+01 1.11218E-02-6.24577E-04 1.22589E-01-2.29322E-13-3.36784E-13
 -1      1603 2.02009E+01 2.59515E-03-8.81163E-04 3.66341E-02-2.15506E-13-3.04979E-13
 -1      1604 2.02600E+01 4.90529E-03 1.58799E-05 3.96477E-02-1.05785E-13-4.87570E-13
 -1      1605 2.02697E+01 8.50874E-03-5.48053E-04 8.90600E-02-1.98298E-13-3.26828E-13
 -1      1606 2.01189E+01 1.97733E-03-5.97798E-04 2.52656E-02 1.33476E-13-3.88910E-13
 -1      1607 2.01602E+01 3.83831E-03 1.07236E-04 2.76327E-02 1.27842E-13-2.71026E-13
 -1      1608 2.01733E+01 6.42851E-03-4.76230E-04 6.30825E-02 9.94042E-14-2.75355E-13
 -1      1609 2.00630E+01 1.51448E-03-4.12353E-04 1.65925E-02-4.98439E-14-3.22222E-13
 -1      1610 2.00906E+01 3.00285E-03 1.46143E-04 1.84580E-02-6.31868E-14-4.29144E-13
 -1      1611 2.01048E+01 4.82923E-03-4.19383E-04 4.31423E-02-7.37507E-15-3.05925E-13
 -1      1612 2.00271E+01 1.18130E-03-3.10849E-04 9.92543E-03 1.26092E-13-3.07036E-13
 -1      1613 2.00443E+01 2.38173E-03 1.42914E-04 1.14279E-02 9.74703E-14-1.39416E-13
 -1      1614 2.00579E+01 3.65001E-03-3.86085E-04 2.78531E-02 7.02339E-14-2.25955E-13
 -1      1615 2.00067E+01 9.44747E-04-2.60268E-04 4.70766E-03 6.67390E-14-8.81081E-13
 -1      1616 2.00157E+01 1.94003E-03 1.05727E-04 5.97128E-03 9.29969E-14-6.07092E-13
 -1      1617 2.00277E+01 2.81559E-03-3.76642E-04 1.60314E-02 3.28508E-13-3.63221E-13
 -1      1618 1.99982E+01 7.36564E-04-1.20240E-04 5.72583E-04 2.60733E-14-1.11831E-12
 -1      1619 2.00009E+01 1.59778E-03 7.97825E-05 1.71217E-03 7.97054E-14-9.54299E-13
 -1      1620 2.00101E+01 2.25436E-03-3.36841E-04 6.83073E-03 1.61565E-13-4.92131E-13
 -1      1621 1.99981E+01 2.04108E-04 4.80655E-04-1.95717E-03 1.25490E-14-1.13253E-12
 -1      1622 1.99963E+01 9.12081E-04 2.14818E-04-1.18467E-03 6.45126E-15-1.16017E-12
 -1      1623 2.00018E+01 1.30509E-03-1.61877E-04-6.77347E-06 1.72614E-13-5.56304E-13
 -1      1624 1.99984E+01-1.14805E-03 8.63849E-04-1.45316E-03-5.91028E-13-5.58708E-13
 -1      1625 2.00011E+01-2.35439E-03-1.55121E-04-1.60429E-04-4.17889E-13 2.41518E-13
 -1      1626 2.00008E+01-1.22378E-03 2.76719E-04-7.89768E-04-7.83645E-13 2.88992E-13
 -1      1627 2.00012E+01 4.61190E-03-2.43942E-04 3.73066E-03 2.87518E-13 3.67356E-13
 -1      1628 2.00013E+01 1.36108E-03-1.24744E-04 2.87804E-03-2.12865E-13 2.75860E-13
 -1      1629 2.00025E+01 5.79304E-03-2.60131E-04 3.27162E-03 5.45528E-14 4.14408E-13
 -1      1630 2.00007E+01 1.86292E-02-1.79611E-04 7.21499E-03 7.37833E-13 9.03590E-14
 -1      1631 2.00010E+01 1.10725E-02-1.61885E-04 6.58108E-03 5.11489E-13 3.02144E-13
 -1      1632 2.00022E+01 1.61549E-02-3.76432E-04 1.04080E-02 3.94186E-13 4.77786E-13
 -1      1633 2.00000E+01 3.72368E-02-9.33626E-05 9.08767E-03 6.55203E-13-1.64886E-13
 -1      1634 2.00004E+01 2.71035E-02-1.03018E-04 8.85330E-03 7.17882E-13 1.89147E-13
 -1      1635 2.00012E+01 3.14060E-02-2.04738E-04 1.58002E-02 2.41152E-13 1.50793E-13
 -1      1636 1.99993E+01 5.63348E-02-3.72420E-05 8.99066E-03-4.13620E-13-7.39626E-13
 -1      1637 1.99997E+01 4.61199E-02-4.36035E-05 9.15963E-03 5.53705E-13-7.75533E-13
 -1      1638 2.00000E+01 4.90387E-02 2.42229E-05 1.77921E-02-3.91260E-14-7.56737E-13
 -1      1639 1.99987E+01 7.27404E-02-7.97994E-07 7.03890E-03-7.26658E-13 1.03596E-13
 -1      1640 1.99990E+01 6.43216E-02-5.39355E-06 7.55915E-03-6.61356E-13-1.41462E-13
 -1      1641 1.99988E+01 6.60939E-02 2.41651E-04 1.60876E-02-9.39424E-14-8.80766E-13
 -1      1642 1.99983E+01 8.28985E-02 1.76723E-05 3.68701E-03-5.94293E-13 1.84549E-13
 -1      1643 1.99985E+01 7.81895E-02 1.42683E-05 4.43612E-03-7.79724E-13 2.34458E-13
 -1      1644 1.99979E+01 7.96302E-02 4.06271E-04 1.11360E-02-3.15469E-13 1.07294E-13
 -1      1645 1.99983E+01 8.48995E-02 2.29277E-05-3.70688E-04-3.91475E-13-2.86226E-14
 -1      1646 1.99983E+01 8.48331E-02 2.08315E-05 4.56765E-04-6.49817E-13 1.90541E-13
 -1      1647 1.99975E+01 8.70557E-02 4.93173E-04 4.01412E-03-4.33839E-13 1.28612E-13
 -1      1648 1.99985E+01 7.84074E-02 1.57773E-05-4.34104E-03-3.43625E-13 8.32933E-14
 -1      1649 1.99983E+01 8.29800E-02 1.60510E-05-3.59545E-03-4.19034E-13 1.46141E-13
 -1      1650 1.99975E+01 8.70578E-02 4.91183E-04-3.85740E-03-3.29410E-13 2.21468E-14
 -1      1651 1.99990E+01 6.47139E-02-5.48788E-06-7.45058E-03-2.76162E-13-6.53342E-14
 -1      1652 1.99987E+01 7.29934E-02 3.17697E-07-6.93559E-03-2.32708E-13 6.05300E-14
 -1      1653 1.99979E+01 7.96596E-02 4.00651E-04-1.09577E-02-2.43797E-13 7.28004E-14
 -1      1654 1.99997E+01 4.68564E-02-3.92678E-05-9.04962E-03-1.89287E-13 1.73944E-13
 -1      1655 1.99993E+01 5.69422E-02-3.45201E-05-8.87517E-03-1.57783E-13-1.01569E-13
 -1      1656 1.99988E+01 6.63386E-02 2.42020E-04-1.58746E-02-1.52162E-13-7.41106E-14
 -1      1657 2.00004E+01 2.78153E-02-9.38841E-05-8.79658E-03-1.38026E-13-2.43380E-14
 -1      1658 2.00000E+01 3.78760E-02-8.98370E-05-9.01892E-03-2.52887E-13 2.03663E-13
 -1      1659 1.99999E+01 4.94108E-02 2.66906E-05-1.76289E-02-5.92197E-14 1.15468E-13
 -1      1660 2.00010E+01 1.17280E-02-1.79657E-04-6.59910E-03-3.55140E-13-2.43810E-13
 -1      1661 2.00007E+01 1.93757E-02-1.68060E-04-7.21102E-03-1.93103E-13 1.57684E-13
 -1      1662 2.00012E+01 3.17230E-02-1.97588E-04-1.57474E-02-5.23380E-14 1.57382E-14
 -1      1663 2.00015E+01 1.94468E-03-6.05482E-05-3.11748E-03-3.99507E-13-2.82614E-14
 -1      1664 2.00011E+01 5.36889E-03-2.54806E-04-3.99068E-03-1.38476E-13-2.76456E-13
 -1      1665 2.00020E+01 1.66560E-02-3.66787E-04-1.05079E-02-4.40606E-14-2.11630E-13
 -1      1666 2.00016E+01 6.09179E-04 2.38605E-04-2.13718E-04-2.26910E-13 1.95613E-14
 -1      1667 2.00018E+01 1.28164E-04-2.27674E-04-1.08542E-03-1.95353E-13-1.17742E-13
 -1      1668 2.00040E+01 8.90995E-03 6.18403E-05-5.32657E-03 8.18159E-14-1.60520E-13
 -1      1669 2.00043E+01 4.99794E-03 3.02595E-04-1.53599E-03 1.77272E-13-5.59418E-14
 -1      1670-6.90534E-01-1.52154E+01-1.76263E+00-1.19148E+00 1.62037E-12 7.30860E-13
 -1      1671-6.34749E-01-1.67786E+01-1.86641E+00 1.78603E-01 6.92529E-13 6.07736E-13
 -1      1672 7.17576E-01-9.14453E+00-1.36408E+00-1.83748E-01 2.44083E-12 1.31870E-12
 -1      1673 2.31552E-01-1.39963E+01-1.82381E+00-5.00094E-01 1.88927E-12 8.13863E-13
 -1      1674 6.43110E+00-1.69611E+00-6.55847E-01 4.00633E+00 2.31792E-12 1.46194E-12
 -1      1675 3.63471E+00-7.10518E+00-1.35375E+00 1.38849E+00 2.41274E-12 1.16840E-12
 -1      1676 1.53703E+01 4.16286E+00 5.38838E-02 8.72078E+00 2.02083E-12 1.99984E-12
 -1      1677 9.73190E+00 5.10521E-01-7.72235E-01 5.19499E+00 2.22689E-12 1.78035E-12
 -1      1678 2.83148E+01 6.16503E+00 7.56032E-01 1.20651E+01 1.49247E-12 1.86162E-12
 -1      1679 2.00932E+01 5.27290E+00-5.99346E-02 9.64533E+00 1.91513E-12 1.92779E-12
 -1      1680 4.21883E+01 5.23681E+00 1.35628E+00 1.09735E+01 8.62393E-13 1.29152E-12
 -1      1681 3.34446E+01 6.28944E+00 6.73588E-01 1.14036E+01 1.36174E-12 1.65334E-12
 -1      1682 5.25466E+01 3.94647E+00 1.80464E+00 6.19117E+00 5.67685E-13 3.92908E-13
 -1      1683 4.62973E+01 5.44481E+00 1.35915E+00 9.95588E+00 7.56242E-13 1.06182E-12
 -1      1684 5.49016E+01 3.76832E+00 1.84370E+00-1.99321E+00 6.13121E-13-8.96505E-13
 -1      1685 5.40724E+01 3.95466E+00 1.76408E+00 3.72226E+00 5.65548E-13 3.18079E-14
 -1      1686 4.91805E+01 5.03941E+00 1.57051E+00-9.22807E+00 1.14658E-12-2.17248E-12
 -1      1687 5.45052E+01 3.62876E+00 1.93512E+00-4.70419E+00 8.18873E-13-1.24434E-12
 -1      1688 3.62083E+01 6.40833E+00 8.46293E-01-1.17653E+01 1.99540E-12-3.05400E-12
 -1      1689 4.51924E+01 5.09016E+00 1.57481E+00-1.06661E+01 1.34101E-12-2.57383E-12
 -1      1690 2.19975E+01 5.75069E+00 5.73532E-02-1.02234E+01 2.73925E-12-3.17169E-12
 -1      1691 3.10031E+01 6.37941E+00 9.64300E-01-1.24480E+01 2.24454E-12-3.13549E-12
 -1      1692 1.11089E+01 5.48775E-01-6.95353E-01-5.58008E+00 2.82596E-12-2.47513E-12
 -1      1693 1.74413E+01 4.09505E+00 1.70791E-01-9.21389E+00 2.73181E-12-2.97540E-12
 -1      1694 3.86488E+00-6.26826E+00-1.33340E+00-1.57041E+00 2.53153E-12-1.73350E-12
 -1      1695 6.77338E+00-1.05994E+00-6.25510E-01-4.27633E+00 2.88325E-12-2.39164E-12
 -1      1696 5.01598E-01-1.31203E+01-1.77237E+00 4.59435E-01 1.53777E-12-1.09883E-12
 -1      1697 1.20164E+00-8.23621E+00-1.28343E+00-1.67176E-01 2.40297E-12-1.48720E-12
 -1      1698-5.45705E-01-1.67778E+01-1.90082E+00 5.40543E-02 1.27426E-13-5.93442E-13
 -1      1699-5.74005E-01-1.45045E+01-1.70682E+00 1.17713E+00 1.20054E-12-9.73388E-13
 -1      1700-6.90470E-01-1.55599E+01-1.76064E+00-8.88627E-01-1.16562E-12-5.74041E-13
 -1      1701-6.75700E-01-1.69282E+01-1.88759E+00 5.13633E-01-2.98858E-13-4.30600E-13
 -1      1702 6.74580E-01-9.74721E+00-1.32704E+00-1.01524E-02-2.23643E-12-1.19381E-12
 -1      1703 2.41801E-01-1.41959E+01-1.74702E+00-7.89598E-02-1.50058E-12-8.07965E-13
 -1      1704 4.57885E+00-2.55546E+00-7.73502E-01 3.00378E+00-2.86704E-12-2.14784E-12
 -1      1705 2.57502E+00-7.86101E+00-1.41727E+00 9.09622E-01-2.53808E-12-1.50591E-12
 -1      1706 1.32382E+01 3.82039E+00-2.47595E-02 8.10852E+00-2.93454E-12-2.81264E-12
 -1      1707 7.92288E+00-4.89327E-01-8.72417E-01 4.39180E+00-2.98206E-12-2.31581E-12
 -1      1708 2.61905E+01 6.49143E+00 7.28717E-01 1.20748E+01-2.38043E-12-3.16280E-12
 -1      1709 1.80595E+01 5.18201E+00-1.18763E-01 9.26940E+00-2.78644E-12-2.99583E-12
 -1      1710 4.06819E+01 5.65927E+00 1.34988E+00 1.17023E+01-1.59042E-12-2.73093E-12
 -1      1711 3.15113E+01 6.73897E+00 6.29355E-01 1.18518E+01-2.14512E-12-3.13949E-12
 -1      1712 5.12681E+01 3.99082E+00 1.70642E+00 6.55435E+00-9.36556E-13-1.49980E-12
 -1      1713 4.48594E+01 5.61203E+00 1.28094E+00 1.02800E+01-1.37812E-12-2.40163E-12
 -1      1714 5.38458E+01 3.70174E+00 1.73172E+00-1.62531E+00-7.45681E-13 1.16712E-13
 -1      1715 5.28264E+01 3.97254E+00 1.65065E+00 3.97589E+00-7.95281E-13-9.62841E-13
 -1      1716 4.88164E+01 4.93896E+00 1.51874E+00-8.92333E+00-1.06493E-12 1.69353E-12
 -1      1717 5.35969E+01 3.57528E+00 1.81955E+00-4.35037E+00-8.00415E-13 6.42875E-13
 -1      1718 3.63213E+01 6.60590E+00 8.82522E-01-1.18678E+01-1.87650E-12 2.68052E-12
 -1      1719 4.50172E+01 5.10991E+00 1.53637E+00-1.04894E+01-1.29431E-12 2.10243E-12
 -1      1720 2.24870E+01 5.92987E+00 1.39448E-01-1.03772E+01-2.07112E-12 2.82752E-12
 -1      1721 3.12539E+01 6.31480E+00 9.44849E-01-1.23587E+01-1.89559E-12 3.02891E-12
 -1      1722 1.08531E+01 1.82287E+00-6.15344E-01-6.05326E+00-2.03859E-12 2.02327E-12
 -1      1723 1.71798E+01 5.15231E+00 2.31832E-01-9.70048E+00-2.11897E-12 2.72915E-12
 -1      1724 4.33001E+00-5.75419E+00-1.22107E+00-2.02555E+00-1.44096E-12 1.23401E-12
 -1      1725 7.44621E+00-4.76228E-01-4.99548E-01-4.83703E+00-1.95133E-12 1.70064E-12
 -1      1726 5.67915E-01-1.28647E+01-1.71850E+00 1.51396E-01-6.43929E-13 5.63438E-13
 -1      1727 1.27518E+00-7.73556E+00-1.20503E+00-4.49555E-01-1.24045E-12 9.67670E-13
 -1      1728-5.14374E-01-1.61385E+01-1.77893E+00-4.48574E-01 4.29184E-13 4.89442E-13
 -1      1729-4.64970E-01-1.38897E+01-1.58078E+00 6.96765E-01-3.55993E-13 4.96464E-13
 -1      1730 2.24967E+01 2.29967E-01 1.23711E-01 7.25139E+00 1.08158E-12 8.80629E-13
 -1      1731 1.31135E+01-3.91231E+00-4.57696E-01 6.04679E+00 1.19005E-12 8.21732E-13
 -1      1732 2.00001E+01-1.63780E-03 3.63748E-04-2.30693E-03-7.38550E-13-2.55644E-13
 -1      1733 2.00013E+01 1.93075E-03 1.70885E-04-1.48251E-03-2.28891E-13 1.32173E-13
 -1      1734 6.55035E-02-1.07595E+01-1.28511E+00 1.80180E+00 8.99725E-13 1.01141E-12
 -1      1735 5.30281E+00-7.64718E+00-8.75710E-01 4.23758E+00 1.17417E-12 8.68923E-13
 -1      1736-1.29848E+00-1.11477E+01-1.28108E+00-3.62020E-01 2.93432E-13 9.66449E-13
 -1      1737 3.26807E+01 3.23008E+00 7.11846E-01 6.80836E+00 9.64673E-13 5.71321E-13
 -1      1738 4.10529E+01 5.55595E+00 1.15612E+00 4.75494E+00 8.36831E-13 3.42393E-13
 -1      1739 4.61424E+01 7.31178E+00 1.50045E+00 2.00928E+00 8.93507E-13-2.95319E-13
 -1      1740 4.71545E+01 7.39513E+00 1.59004E+00-1.51957E+00 1.16718E-12-8.04801E-13
 -1      1741 4.31015E+01 6.05852E+00 1.34479E+00-4.65098E+00 1.41295E-12-1.27476E-12
 -1      1742 3.45914E+01 3.84897E+00 8.48083E-01-6.77150E+00 1.59417E-12-1.68521E-12
 -1      1743 2.42541E+01 2.24228E-01 1.71509E-01-7.06918E+00 1.52800E-12-1.70897E-12
 -1      1744 1.43975E+01-3.66623E+00-3.50210E-01-6.26903E+00 1.38722E-12-1.67855E-12
 -1      1745 5.87798E+00-7.30242E+00-8.67872E-01-4.35863E+00 1.18372E-12-1.54597E-12
 -1      1746 5.76694E-01-1.04141E+01-1.24779E+00-2.13111E+00 6.64913E-13-1.43938E-12
 -1      1747-1.38925E+00-1.17448E+01-1.37692E+00-1.36345E-01-1.25178E-14-1.06642E-12
 -1      1748-1.45549E-01-1.06722E+01-1.23373E+00 1.93910E+00-7.22644E-13-1.14964E-12
 -1      1749 4.06549E+00-7.96653E+00-9.56059E-01 3.93214E+00-1.29341E-12-1.36992E-12
 -1      1750 1.09819E+01-4.10045E+00-5.32945E-01 5.84281E+00-1.62881E-12-1.65534E-12
 -1      1751 2.05189E+01 8.01269E-02 7.99147E-02 7.36921E+00-1.78058E-12-1.88760E-12
 -1      1752 3.10877E+01 3.39127E+00 6.91152E-01 7.36303E+00-1.57263E-12-1.82487E-12
 -1      1753 4.00466E+01 5.75123E+00 1.16963E+00 5.48675E+00-1.48688E-12-1.48226E-12
 -1      1754 4.51681E+01 7.27987E+00 1.43117E+00 2.34183E+00-1.41814E-12-7.23921E-13
 -1      1755 4.63335E+01 7.35154E+00 1.50047E+00-1.41081E+00-1.31783E-12 4.45199E-14
 -1      1756 4.25957E+01 6.25685E+00 1.29776E+00-4.73520E+00-1.35267E-12 7.08544E-13
 -1      1757 3.43501E+01 4.14750E+00 8.27027E-01-6.75251E+00-1.34651E-12 1.33915E-12
 -1      1758 2.41461E+01 1.18025E+00 2.75272E-01-7.50078E+00-1.07625E-12 1.87905E-12
 -1      1759 1.42342E+01-2.96011E+00-3.42470E-01-6.48465E+00-9.73555E-13 1.52872E-12
 -1      1760 6.21342E+00-6.89612E+00-7.85248E-01-4.77265E+00-6.35048E-13 1.23295E-12
 -1      1761 6.36129E-01-9.88719E+00-1.15935E+00-2.42188E+00-6.55032E-14 8.89400E-13
 -1      1762 2.28064E+01 1.97965E+00-2.40323E-02-2.70658E+00-3.75464E-13 1.63086E-12
 -1      1763 1.98361E+01 3.71797E+00-3.54534E-02-2.12241E+00-4.91541E-13-4.68684E-13
 -1      1764 2.00634E+01 3.56406E+00-3.98779E-02-2.41509E+00-5.61082E-13-2.98345E-13
 -1      1765 2.03607E+01 3.17935E+00-4.56070E-02-2.55778E+00-5.57336E-13-7.92005E-14
 -1      1766 2.05706E+01 2.80550E+00-1.41876E-01-2.82738E+00-5.99930E-13 2.26555E-13
 -1      1767 2.04269E+01 2.69505E+00-4.03744E-03-2.19319E+00-5.90784E-13-1.53929E-13
 -1      1768 1.93719E+01 4.20890E+00-2.01270E-02-1.24266E+00-2.81572E-13-7.55451E-13
 -1      1769 1.94463E+01 4.16677E+00-1.65905E-02-1.46515E+00-3.38453E-13-7.22415E-13
 -1      1770 1.92729E+01 4.32175E+00-1.67849E-02-8.37892E-01-1.73462E-13-7.90871E-13
 -1      1771 1.93171E+01 4.29578E+00-1.39402E-02-1.04534E+00-2.28319E-13-7.77860E-13
 -1      1772 1.95413E+01 3.81302E+00-8.61958E-03-1.08982E+00-2.80940E-13-7.33946E-13
 -1      1773 1.92189E+01 4.38713E+00-1.47532E-02-4.53821E-01-6.24351E-14-7.81025E-13
 -1      1774 1.92421E+01 4.37299E+00-1.30443E-02-6.49771E-01-1.15200E-13-7.89190E-13
 -1      1775 1.94403E+01 3.94123E+00-8.74892E-03-7.11321E-01-1.57363E-13-7.57195E-13
 -1      1776 1.91983E+01 4.41515E+00-1.35466E-02-8.09889E-02 5.31676E-14-7.60135E-13
 -1      1777 1.92051E+01 4.41078E+00-1.30177E-02-2.71525E-01-5.38361E-15-7.72455E-13
 -1      1778 1.93871E+01 4.01091E+00-8.69323E-03-3.46820E-01-3.72541E-14-7.44564E-13
 -1      1779 1.92071E+01 4.40941E+00-1.29742E-02 2.90103E-01 1.47565E-13-7.49074E-13
 -1      1780 1.91989E+01 4.41430E+00-1.36367E-02 9.93966E-02 1.05338E-13-7.61440E-13
 -1      1781 1.93714E+01 4.03214E+00-8.67389E-03 1.02673E-02 8.18678E-14-7.30374E-13
 -1      1782 1.92467E+01 4.36894E+00-1.30770E-02 6.69126E-01 2.50694E-13-7.15084E-13
 -1      1783 1.92221E+01 4.38392E+00-1.48866E-02 4.72646E-01 1.98615E-13-7.39322E-13
 -1      1784 1.93902E+01 4.00757E+00-8.74019E-03 3.67572E-01 1.86159E-13-7.17379E-13
 -1      1785 1.93231E+01 4.28988E+00-1.41247E-02 1.05928E+00 3.53353E-13-6.38791E-13
 -1      1786 1.92783E+01 4.31634E+00-1.70223E-02 8.54543E-01 3.01088E-13-6.83693E-13
 -1      1787 1.94463E+01 3.93483E+00-8.79492E-03 7.29485E-01 2.98481E-13-6.70308E-13
 -1      1788 1.94561E+01 4.15512E+00-1.71041E-02 1.48458E+00 4.76457E-13-5.29757E-13
 -1      1789 1.93792E+01 4.20031E+00-2.05987E-02 1.25698E+00 4.12197E-13-5.91183E-13
 -1      1790 1.95496E+01 3.80288E+00-8.93912E-03 1.10562E+00 4.17530E-13-5.81079E-13
 -1      1791 1.96825E+01 3.93018E+00-2.48940E-02 1.94822E+00 5.70211E-13-3.35561E-13
 -1      1792 1.95516E+01 4.00991E+00-2.69879E-02 1.69142E+00 5.15229E-13-4.58633E-13
 -1      1793 1.97247E+01 3.58603E+00-8.50106E-03 1.50115E+00 5.28755E-13-4.50103E-13
 -1      1794 2.00813E+01 3.52393E+00-4.48373E-02 2.44229E+00 6.43088E-13 1.45370E-14
 -1      1795 1.98472E+01 3.68738E+00-3.96725E-02 2.15248E+00 5.94238E-13-1.90941E-13
 -1      1796 2.00177E+01 3.23303E+00-5.19143E-03 1.90010E+00 6.20215E-13-2.20971E-13
 -1      1797 2.09061E+01 2.67807E+00-5.72547E-02 2.83241E+00 6.13343E-13 6.34590E-13
 -1      1798 2.04106E+01 3.09505E+00-5.01826E-02 2.58891E+00 6.14484E-13 2.61735E-13
 -1      1799 2.05195E+01 2.61206E+00 3.19238E-03 2.21370E+00 6.46814E-13 1.54519E-13
 -1      1800 2.16962E+01 1.21066E+00-1.21626E-01 2.31097E+00 5.09079E-13 1.40557E-12
 -1      1801 2.12514E+01 2.25866E+00 1.14403E-04 2.71799E+00 5.65275E-13 9.04027E-13
 -1      1802 2.09249E+01 1.68410E+00-2.26120E-02 2.11496E+00 6.29326E-13 6.47257E-13
 -1      1803 2.09249E+01 7.77757E-01-6.20250E-02 1.50628E+00 5.23956E-13 1.24191E-12
 -1      1804 2.17654E+01 2.45225E+00 9.06538E-02-3.02685E+00-5.11140E-13 7.41490E-13
 -1      1805 2.00903E+01 2.99693E-01-8.56516E-03 6.37693E-01 4.11657E-13 9.95537E-13
 -1      1806 2.06332E+01 4.41224E-01-1.22101E-02 1.01542E+00 4.47704E-13 1.13360E-12
 -1      1807 2.07314E+01 8.45285E-01 2.09183E-03 1.39211E+00 5.25989E-13 7.99734E-13
 -1      1808 2.14856E+01 1.74003E+00 7.92349E-02-2.31380E+00-5.55282E-13 5.26829E-13
 -1      1809 2.05138E+01 5.03238E-01 3.25366E-02-8.97312E-01-4.38490E-13 4.44755E-13
 -1      1810 2.00927E+01 3.56585E-01 8.12480E-03-6.03425E-01-3.86930E-13 3.31920E-13
 -1      1811 1.99075E+01 2.63453E-01 2.75893E-02-3.60307E-01-3.45494E-13 3.29625E-13
 -1      1812 1.97303E+01 1.85988E-01 1.11191E-02-2.18308E-01-3.05892E-13 2.25996E-13
 -1      1813 2.02133E+01 4.91269E-01-6.35032E-03-6.84790E-01-4.26497E-13 1.06996E-13
 -1      1814 1.96210E+01 1.42269E-01 1.69326E-02-7.77822E-02-2.63812E-13 2.03886E-13
 -1      1815 1.95614E+01 1.04836E-01 7.90057E-03-6.29251E-04-2.20237E-13 1.32100E-13
 -1      1816 1.99098E+01 2.56914E-01-6.23040E-03-2.44558E-01-3.49630E-13 6.75115E-14
 -1      1817 1.95137E+01 8.21393E-02 9.08381E-03 8.29914E-02-1.99476E-13 8.51333E-14
 -1      1818 1.95244E+01 6.30735E-02 5.34359E-03 1.28127E-01-1.77587E-13 2.57888E-14
 -1      1819 1.97571E+01 1.44345E-01-5.21384E-03 1.15203E-02-2.71702E-13-6.77366E-15
 -1      1820 1.95214E+01 5.10083E-02 4.77303E-03 1.80525E-01-1.66937E-13 1.39193E-14
 -1      1821 1.95755E+01 4.16068E-02 4.01191E-03 2.09264E-01-1.53352E-13-5.67602E-14
 -1      1822 1.97109E+01 8.71307E-02-4.19389E-03 1.67920E-01-2.08973E-13-9.10284E-14
 -1      1823 1.96042E+01 3.55387E-02 2.52965E-03 2.44979E-01-1.55343E-13-8.75915E-14
 -1      1824 1.96873E+01 3.18052E-02 3.41417E-03 2.65789E-01-1.52318E-13-1.07056E-13
 -1      1825 1.97404E+01 5.84142E-02-3.24241E-03 2.69731E-01-1.78352E-13-1.56264E-13
 -1      1826 1.97394E+01 2.94132E-02 1.36165E-03 2.93550E-01-1.37576E-13-9.02078E-14
 -1      1827 1.98441E+01 2.91675E-02 3.19913E-03 3.11467E-01-8.44262E-14-8.39861E-14
 -1      1828 1.98245E+01 4.60276E-02-2.53398E-03 3.43154E-01-1.37699E-13-1.56955E-13
 -1      1829 1.99149E+01 2.90212E-02 7.58963E-04 3.36666E-01-1.11521E-13-8.71414E-14
 -1      1830 2.00379E+01 3.07863E-02 3.16699E-03 3.54709E-01-9.33450E-14-1.11683E-13
 -1      1831 1.99503E+01 4.35061E-02-2.08914E-03 4.04163E-01-1.17915E-13-1.39391E-13
 -1      1832 2.01249E+01 3.17537E-02 4.61321E-04 3.80464E-01-1.12974E-13-1.40280E-13
 -1      1833 2.02655E+01 3.42318E-02 3.16271E-03 4.00121E-01-1.18517E-13-2.19129E-13
 -1      1834 2.01107E+01 4.65410E-02-1.85132E-03 4.62430E-01-1.52644E-13-2.02526E-13
 -1      1835 2.03678E+01 3.51693E-02 3.16613E-04 4.27603E-01-1.06545E-13-2.39635E-13
 -1      1836 2.05258E+01 3.69206E-02 3.01773E-03 4.48853E-01-4.83261E-14-2.90593E-13
 -1      1837 2.03023E+01 5.13836E-02-1.74807E-03 5.22888E-01-1.52220E-13-2.16632E-13
 -1      1838 2.06431E+01 3.64552E-02 2.21404E-04 4.77175E-01-4.80933E-14-2.93884E-13
 -1      1839 2.08178E+01 3.56535E-02 2.52372E-03 4.98213E-01-5.44686E-14-3.02324E-13
 -1      1840 2.05241E+01 5.39156E-02-1.70993E-03 5.86001E-01-9.06398E-14-2.98751E-13
 -1      1841 2.09499E+01 3.20133E-02 1.00152E-04 5.24002E-01-6.88712E-15-3.17602E-13
 -1      1842 2.11381E+01 2.62729E-02 1.42874E-03 5.40750E-01-3.35537E-14-3.00653E-13
 -1      1843 2.07755E+01 4.89803E-02-1.67246E-03 6.47200E-01-4.55201E-14-2.75966E-13
 -1      1844 2.12840E+01 1.72095E-02-9.85013E-05 5.57514E-01-7.63220E-14-2.94494E-13
 -1      1845 2.14786E+01 3.59386E-03-5.34463E-04 5.63055E-01-6.83435E-14-2.12374E-13
 -1      1846 2.10550E+01 2.99601E-02-1.57072E-03 6.95760E-01-3.71754E-14-2.05161E-13
 -1      1847 2.16355E+01-1.34524E-02-4.00719E-04 5.60593E-01-4.44136E-14-2.34148E-13
 -1      1848 2.18232E+01-3.79786E-02-3.56257E-03 5.44867E-01 2.00526E-14-2.58231E-13
 -1      1849 2.13582E+01-1.10804E-02-1.32562E-03 7.13488E-01-5.86030E-14-1.50142E-13
 -1      1850 2.19857E+01-6.51690E-02-8.15851E-04 5.09258E-01 3.83565E-14-3.10100E-13
 -1      1851 2.21454E+01-1.02394E-01-7.60535E-03 4.59715E-01-6.28534E-15-2.48805E-13
 -1      1852 2.16765E+01-8.19393E-02-8.16589E-04 6.74050E-01-7.80094E-15-2.67681E-13
 -1      1853 2.23037E+01-1.39796E-01-1.37082E-03 3.74944E-01-5.43849E-14-2.71067E-13
 -1      1854 2.24069E+01-1.87521E-01-1.20832E-02 2.79364E-01-6.42598E-14-2.72688E-13
 -1      1855 2.19937E+01-1.86296E-01 1.59954E-04 5.44598E-01-3.33253E-14-2.70716E-13
 -1      1856 2.25440E+01-2.30104E-01-2.16755E-03 1.32287E-01-2.93463E-14-2.56336E-13
 -1      1857 2.25583E+01-2.78058E-01-1.55676E-02-1.48348E-02-7.01088E-15-2.40299E-13
 -1      1858 2.22831E+01-3.16006E-01 1.91777E-03 2.92622E-01-2.86056E-14-1.86295E-13
 -1      1859 2.26485E+01-3.12007E-01-3.39638E-03-2.24410E-01 2.51266E-14-1.48688E-13
 -1      1860 2.25459E+01-3.38472E-01-1.57651E-02-4.11465E-01 7.96394E-14-1.49748E-13
 -1      1861 2.25037E+01-4.40317E-01 4.77625E-03-9.82171E-02 5.85669E-14-1.02035E-13
 -1      1862 2.25557E+01-3.39951E-01-5.23559E-03-6.55951E-01 9.13471E-14-9.74509E-14
 -1      1863 2.23284E+01-3.14645E-01-1.04460E-02-8.43218E-01 1.09650E-13-1.38274E-13
 -1      1864 2.25994E+01-4.98319E-01 8.51015E-03-6.01152E-01 9.59866E-14-6.08544E-14
 -1      1865 2.22284E+01-2.57280E-01-7.27891E-03-1.05493E+00 1.51867E-13-1.41735E-13
 -1      1866 2.19050E+01-1.57595E-01 6.36910E-04-1.17326E+00 1.28794E-13-9.74195E-14
 -1      1867 2.25104E+01-4.10220E-01 1.12371E-02-1.11502E+00 1.72334E-13-1.46528E-14
 -1      1868 2.16975E+01-3.30608E-02-7.21629E-03-1.25236E+00 3.10114E-14-3.77996E-14
 -1      1869 2.13506E+01 1.26827E-01 1.33168E-02-1.22529E+00-2.76504E-14 1.74886E-14
 -1      1870 2.22096E+01-1.24226E-01 9.48906E-03-1.45467E+00 1.00722E-13-2.01826E-14
 -1      1871 2.11011E+01 2.81782E-01-2.84341E-03-1.08777E+00-1.35925E-13 4.82366E-14
 -1      1872 2.08330E+01 4.36506E-01 1.99579E-02-8.82390E-01-1.83240E-13 1.76920E-14
 -1      1873 2.17600E+01 3.11171E-01 6.28332E-04-1.40627E+00-5.23921E-14-8.64196E-15
 -1      1874 2.06601E+01 5.46676E-01 6.47015E-03-5.32506E-01-1.89904E-13-5.46221E-14
 -1      1875 2.05620E+01 6.10529E-01 1.63077E-02-2.01513E-01-1.91819E-13-4.92928E-14
 -1      1876 2.13413E+01 7.18622E-01-1.26962E-02-8.67647E-01-2.00755E-13 5.43007E-14
 -1      1877 2.05666E+01 6.08546E-01 1.65495E-02 2.36915E-01-1.91989E-13-1.66045E-13
 -1      1878 2.06745E+01 5.40279E-01 5.93947E-03 5.65569E-01-1.59829E-13-2.40682E-13
 -1      1879 2.11734E+01 8.83308E-01-1.94102E-02 2.19965E-02-1.98800E-13-7.92147E-14
 -1      1880 2.08553E+01 4.26655E-01 1.99064E-02 9.09615E-01-9.97223E-14-3.42631E-13
 -1      1881 2.11312E+01 2.69582E-01-3.09639E-03 1.10872E+00-6.96682E-14-4.08533E-13
 -1      1882 2.13584E+01 7.08169E-01-1.18927E-02 9.05240E-01-1.74939E-13-2.58054E-13
 -1      1883 2.13834E+01 1.14065E-01 1.27473E-02 1.23699E+00-5.89635E-14-4.25264E-13
 -1      1884 2.17338E+01-4.40764E-02-7.35765E-03 1.25724E+00 1.34883E-14-4.43012E-13
 -1      1885 2.17875E+01 2.92878E-01 7.71153E-04 1.42623E+00-5.90322E-14-2.99139E-13
 -1      1886 2.19398E+01-1.65311E-01 6.07811E-05 1.17165E+00 1.13317E-13-4.83955E-13
 -1      1887 2.22640E+01-2.61005E-01-6.97774E-03 1.05018E+00 1.34484E-13-4.83742E-13
 -1      1888 2.22380E+01-1.37806E-01 9.53844E-03 1.45646E+00 1.97915E-14-3.68800E-13
 -1      1889 2.23623E+01-3.15061E-01-1.07547E-02 8.37416E-01-3.87607E-14-4.77188E-13
 -1      1890 2.25896E+01-3.37096E-01-4.98214E-03 6.50863E-01-1.10099E-13-5.50580E-13
 -1      1891 2.25358E+01-4.13800E-01 1.09539E-02 1.10897E+00 1.98188E-14-5.54336E-13
 -1      1892 2.25803E+01-3.33313E-01-1.57624E-02 4.09677E-01-2.13394E-13-5.62585E-13
 -1      1893 2.26844E+01-3.04885E-01-3.02978E-03 2.26177E-01-2.05985E-13-5.34650E-13
 -1      1894 2.26239E+01-4.92645E-01 8.16257E-03 5.98153E-01-1.23561E-13-6.94998E-13
 -1      1895 2.25975E+01-2.69752E-01-1.53246E-02 2.24152E-02-1.76142E-13-5.88573E-13
 -1      1896 2.25880E+01-2.20839E-01-1.72452E-03-1.19598E-01-8.24358E-14-6.74822E-13
 -1      1897 2.25323E+01-4.29006E-01 4.49860E-03 1.05636E-01-2.62202E-13-5.76683E-13
 -1      1898 2.24571E+01-1.77734E-01-1.17455E-02-2.59603E-01 6.03337E-15-6.35031E-13
 -1      1899 2.23627E+01-1.29549E-01-8.57078E-04-3.49322E-01-7.09459E-15-5.96099E-13
 -1      1900 2.23213E+01-3.01836E-01 1.66103E-03-2.70782E-01-5.65624E-14-6.21929E-13
 -1      1901 2.22136E+01-9.19168E-02-7.25457E-03-4.26417E-01-8.56704E-14-5.00090E-13
 -1      1902 2.20675E+01-5.43719E-02-2.24310E-04-4.69711E-01 2.52346E-14-4.39625E-13
 -1      1903 2.20472E+01-1.70780E-01-1.03302E-04-5.06340E-01 4.41882E-14-4.59558E-13
 -1      1904 2.19169E+01-2.70124E-02-3.24049E-03-4.97268E-01 5.07517E-14-4.07367E-13
 -1      1905 2.17479E+01-2.11315E-03 2.74464E-04-5.06435E-01 5.95484E-14-4.29668E-13
 -1      1906 2.17512E+01-6.55880E-02-1.08553E-03-6.18314E-01-2.23255E-14-3.06996E-13
 -1      1907 2.16058E+01 1.51382E-02-2.61912E-04-5.00471E-01 1.05703E-13-3.65845E-13
 -1      1908 2.14351E+01 2.92273E-02 6.56036E-04-4.88007E-01 6.17923E-14-3.03461E-13
 -1      1909 2.14599E+01 6.12971E-03-1.59305E-03-6.39466E-01 1.06206E-13-1.43262E-13
 -1      1910 2.13070E+01 3.85086E-02 1.63745E-03-4.62413E-01-8.09580E-14-2.97783E-13
 -1      1911 2.11481E+01 4.47498E-02 9.12769E-04-4.38352E-01-1.84115E-14-3.92386E-13
 -1      1912 2.11896E+01 4.81953E-02-1.82039E-03-6.02616E-01-1.25522E-14 7.96528E-14
 -1      1913 2.10364E+01 4.85108E-02 2.64842E-03-4.03424E-01 1.74230E-13-3.77468E-13
 -1      1914 2.08966E+01 4.96792E-02 1.04907E-03-3.74789E-01 1.88379E-13-1.49743E-13
 -1      1915 2.09488E+01 6.82112E-02-1.87488E-03-5.34201E-01 1.20669E-13-6.39127E-14
 -1      1916 2.08020E+01 4.99885E-02 3.02359E-03-3.37372E-01 1.12722E-13-1.04536E-13
 -1      1917 2.06840E+01 4.82271E-02 1.08447E-03-3.08577E-01 4.29696E-14-9.08538E-14
 -1      1918 2.07413E+01 7.36587E-02-1.81670E-03-4.52967E-01 1.76587E-13 1.12160E-14
 -1      1919 2.06059E+01 4.66033E-02 2.99227E-03-2.72781E-01-3.14815E-14-1.22075E-13
 -1      1920 2.05096E+01 4.33951E-02 1.04611E-03-2.46294E-01-1.36958E-13-9.42685E-14
 -1      1921 2.05673E+01 7.04663E-02-1.68506E-03-3.70916E-01-3.08564E-15-2.43357E-14
 -1      1922 2.04465E+01 4.08592E-02 2.73109E-03-2.14280E-01-2.81592E-13-1.03099E-13
 -1      1923 2.03701E+01 3.71525E-02 9.61397E-04-1.91251E-01-1.43710E-13-6.92434E-14
 -1      1924 2.04249E+01 6.28143E-02-1.50939E-03-2.94937E-01-1.89061E-13-7.07404E-14
 -1      1925 2.03202E+01 3.43460E-02 2.36263E-03-1.63893E-01-4.45735E-14-9.70730E-14
 -1      1926 2.02613E+01 3.07044E-02 8.53782E-04-1.44640E-01 5.69749E-14-1.26383E-13
 -1      1927 2.03111E+01 5.34208E-02-1.31267E-03-2.28381E-01-5.05732E-14-8.87012E-14
 -1      1928 2.02227E+01 2.80047E-02 1.96486E-03-1.22019E-01 1.69871E-13-1.32001E-13
 -1      1929 2.01784E+01 2.47366E-02 7.40926E-04-1.06374E-01 1.04733E-13-9.00341E-14
 -1      1930 2.02219E+01 4.39339E-02-1.11217E-03-1.72309E-01 2.67513E-14 9.56681E-14
 -1      1931 2.01491E+01 2.23482E-02 1.58252E-03-8.81180E-02-8.09941E-14-6.13288E-14
 -1      1932 2.01168E+01 1.95992E-02 6.33317E-04-7.56494E-02 5.28572E-14-2.57586E-14
 -1      1933 2.01536E+01 3.52787E-02-9.19676E-04-1.26407E-01 3.88800E-14-2.01914E-14
 -1      1934 2.00951E+01 1.76147E-02 1.23620E-03-6.11606E-02 1.09444E-13-1.50913E-13
 -1      1935 2.00724E+01 1.54263E-02 5.32565E-04-5.13268E-02 9.50009E-14-2.38494E-13
 -1      1936 2.01024E+01 2.79107E-02-7.42830E-04-8.96096E-02-6.98054E-14 1.12111E-13
 -1      1937 2.00568E+01 1.38619E-02 9.29269E-04-3.99398E-02 8.06388E-14-2.13450E-13
 -1      1938 2.00417E+01 1.22085E-02 4.42784E-04-3.21995E-02 1.39899E-13-2.54061E-13
 -1      1939 2.00650E+01 2.19824E-02-5.81391E-04-6.05238E-02 7.42391E-14 2.24086E-14
 -1      1940 2.00306E+01 1.09193E-02 6.40338E-04-2.32583E-02 1.94372E-13-2.42201E-13
 -1      1941 2.00214E+01 9.60383E-03 3.48672E-04-1.72198E-02 2.01326E-13-6.56081E-14
 -1      1942 2.00384E+01 1.74421E-02-4.16910E-04-3.77506E-02 7.00045E-14 1.09620E-13
 -1      1943 2.00143E+01 8.32228E-03 4.57715E-04-1.07216E-02 3.02376E-13-6.43718E-14
 -1      1944 2.00092E+01 6.80049E-03 2.82438E-04-6.46393E-03 3.31591E-13 6.54422E-15
 -1      1945 2.00091E+01 8.36951E-03-2.84978E-04-8.21892E-03 2.32680E-13 9.09930E-15
 -1      1946 2.00204E+01 1.30629E-02-4.45715E-04-2.05128E-02 3.07895E-13 9.89867E-14
 -1      1947 1.96287E+01 1.46057E-01 8.24860E-03 2.34636E-01 3.29807E-13 7.64605E-13
 -1      1948 1.98894E+01 2.07237E-01 1.66910E-02 4.10126E-01 3.49363E-13 9.17233E-13
 -1      1949 2.01063E+01 3.54226E-01-1.74193E-03 6.27129E-01 4.35417E-13 6.39030E-13
 -1      1950 1.94151E+01 7.84521E-02 7.42913E-03 2.20383E-02 2.52221E-13 5.65742E-13
 -1      1951 1.95148E+01 1.07380E-01 1.45552E-02 1.14955E-01 2.76060E-13 6.73059E-13
 -1      1952 1.97368E+01 1.72247E-01-2.24719E-03 2.18938E-01 3.52607E-13 4.83395E-13
 -1      1953 1.93644E+01 4.56699E-02 5.09126E-03-9.79236E-02 1.57364E-13 4.29177E-13
 -1      1954 1.93733E+01 6.03885E-02 8.85126E-03-4.40654E-02 1.94111E-13 5.04180E-13
 -1      1955 1.95683E+01 9.16192E-02-3.21818E-03-7.98024E-03 2.66305E-13 3.46578E-13
 -1      1956 1.94179E+01 2.94092E-02 3.76437E-03-1.70830E-01 9.65649E-14 3.41873E-13
 -1      1957 1.93729E+01 3.69633E-02 5.05822E-03-1.36778E-01 1.24634E-13 4.10975E-13
 -1      1958 1.95329E+01 5.30689E-02-3.36049E-03-1.41393E-01 1.56380E-13 2.43148E-13
 -1      1959 1.95410E+01 2.23233E-02 3.19738E-03-2.20608E-01 1.50752E-13 2.76916E-13
 -1      1960 1.94613E+01 2.57882E-02 3.08216E-03-1.96287E-01 9.46957E-14 3.21276E-13
 -1      1961 1.95860E+01 3.49605E-02-2.99207E-03-2.26507E-01 1.22185E-13 1.72346E-13
 -1      1962 1.97155E+01 2.10922E-02 3.03399E-03-2.61396E-01 1.08502E-13 2.29930E-13
 -1      1963 1.96104E+01 2.19796E-02 2.15016E-03-2.40717E-01 1.56990E-13 2.71259E-13
 -1      1964 1.97010E+01 2.84004E-02-2.57421E-03-2.88462E-01 1.69885E-13 1.43208E-13
 -1      1965 1.99337E+01 2.39787E-02 3.10426E-03-3.02529E-01 9.02130E-14 1.29535E-13
 -1      1966 1.98066E+01 2.31556E-02 1.77898E-03-2.81350E-01 9.07649E-14 1.90253E-13
 -1      1967 1.98640E+01 2.92930E-02-2.29881E-03-3.42766E-01 1.38280E-13 9.83544E-14
 -1      1968 2.01953E+01 2.98575E-02 3.32820E-03-3.50587E-01-1.19351E-14 1.75816E-13
 -1      1969 2.00454E+01 2.79262E-02 1.72178E-03-3.25873E-01 3.69162E-14 1.55362E-13
 -1      1970 2.00692E+01 3.54019E-02-2.20209E-03-3.99852E-01 4.67504E-14 8.76274E-14
 -1      1971 2.05044E+01 3.77061E-02 3.63332E-03-4.10106E-01 4.84161E-14 1.77595E-13
 -1      1972 2.03286E+01 3.52243E-02 1.83585E-03-3.79659E-01 1.47710E-14 1.70682E-13
 -1      1973 2.03163E+01 4.51334E-02-2.26902E-03-4.66949E-01 3.27352E-14 1.08602E-13
 -1      1974 2.08683E+01 4.61705E-02 3.90469E-03-4.83466E-01 1.02782E-13 1.93983E-13
 -1      1975 2.06620E+01 4.38490E-02 2.00416E-03-4.46016E-01 5.63139E-14 1.89883E-13
 -1      1976 2.06089E+01 5.68098E-02-2.47694E-03-5.48592E-01 5.81698E-14 7.02426E-14
 -1      1977 2.12945E+01 5.30234E-02 3.94679E-03-5.69942E-01 1.41316E-13 1.42061E-13
 -1      1978 2.10530E+01 5.19716E-02 2.09506E-03-5.25635E-01 1.50463E-13 1.90819E-13
 -1      1979 2.09526E+01 6.79695E-02-2.80548E-03-6.46109E-01 1.56500E-13 8.16900E-14
 -1      1980 2.17877E+01 5.44104E-02 3.45150E-03-6.63692E-01 9.16619E-14 8.55093E-14
 -1      1981 2.15087E+01 5.64647E-02 1.94157E-03-6.15121E-01 7.45378E-14 1.30854E-13
 -1      1982 2.13527E+01 7.44550E-02-3.23171E-03-7.56017E-01 9.52302E-14 1.04985E-13
 -1      1983 2.23457E+01 4.39192E-02 2.00063E-03-7.50374E-01 1.52984E-14 1.11178E-13
 -1      1984 2.20317E+01 5.20085E-02 1.34145E-03-7.04333E-01 4.46167E-14 8.61932E-14
 -1      1985 2.18120E+01 6.92168E-02-3.70902E-03-8.67050E-01 8.39029E-14 5.59290E-14
 -1      1986 2.29524E+01 1.18952E-02-8.33432E-04-8.02403E-01 5.55538E-15 6.71945E-15
 -1      1987 2.26160E+01 3.01879E-02 9.72520E-05-7.72398E-01 7.54312E-15 9.02880E-14
 -1      1988 2.23274E+01 4.10956E-02-4.11635E-03-9.55652E-01 8.85235E-15 3.87450E-15
 -1      1989 2.35701E+01-5.36512E-02-5.18224E-03-7.74166E-01 5.19159E-14 8.79704E-14
 -1      1990 2.32389E+01-2.05594E-02-1.88616E-03-7.83056E-01-1.12787E-14 5.85330E-14
 -1      1991 2.28855E+01-2.52869E-02-4.16368E-03-9.80585E-01 6.94497E-15 1.35287E-14
 -1      1992 2.41307E+01-1.61477E-01-1.02730E-02-6.01764E-01-6.58067E-15 2.59931E-13
 -1      1993 2.38527E+01-1.11870E-01-4.43907E-03-6.82145E-01 2.44787E-14 2.09007E-13
 -1      1994 2.34565E+01-1.45610E-01-3.25208E-03-8.79540E-01-3.81856E-15 8.62357E-14
 -1      1995 2.45321E+01-3.02490E-01-1.37505E-02-2.18007E-01-2.37319E-13 3.29921E-13
 -1      1996 2.43746E+01-2.45085E-01-7.02604E-03-4.04670E-01-1.09635E-13 2.90405E-13
 -1      1997 2.39866E+01-3.22393E-01-3.68312E-04-5.75531E-01-1.05127E-13 2.22047E-13
 -1      1998 2.46449E+01-4.25919E-01-1.19499E-02 4.01151E-01-1.56467E-13 3.56709E-13
 -1      1999 2.46826E+01-3.90150E-01-8.81884E-03 9.52777E-02-1.95358E-13 3.39406E-13
 -1      2000 2.43888E+01-5.17978E-01 5.48854E-03-7.79731E-03-2.01228E-13 2.47350E-13
 -1      2001 2.43476E+01-4.25382E-01-3.54407E-03 1.15214E+00-2.78987E-14 4.94795E-13
 -1      2002 2.46305E+01-4.62093E-01-9.43975E-03 7.79639E-01-8.98222E-14 4.04577E-13
 -1      2003 2.45408E+01-6.23443E-01 1.35883E-02 7.97169E-01-1.68289E-13 3.32692E-13
 -1      2004 2.36079E+01-1.84904E-01 5.09752E-03 1.72970E+00 2.73695E-13 4.27852E-13
 -1      2005 2.41134E+01-3.34087E-01-9.80459E-03 1.44444E+00 1.34436E-13 4.56090E-13
 -1      2006 2.43171E+01-4.74079E-01 1.75083E-02 1.62570E+00 1.28147E-13 4.02600E-13
 -1      2007 2.26045E+01 2.83891E-01 1.09595E-03 1.70092E+00 5.67723E-14 3.44121E-13
 -1      2008 2.31987E+01 6.15113E-02-8.68188E-03 1.71434E+00 1.86960E-13 3.89355E-13
 -1      2009 2.36989E+01 2.18265E-02 6.20737E-03 2.04441E+00 2.11759E-13 4.18577E-13
 -1      2010 2.17970E+01 7.13474E-01-1.83016E-02 8.32516E-01-1.46688E-14 3.02449E-13
 -1      2011 2.22345E+01 5.68362E-01-5.61435E-03 1.24384E+00-1.31457E-14 2.94813E-13
 -1      2012 2.29252E+01 7.02531E-01-1.69903E-02 1.59956E+00 5.06817E-14 4.11707E-13
 -1      2013 2.16970E+01 7.67022E-01-2.81683E-02-4.94173E-01-3.55792E-15 1.87558E-13
 -1      2014 2.17564E+01 8.13903E-01 5.04516E-03 1.17412E-01-6.20892E-14 1.55696E-13
 -1      2015 2.24960E+01 1.10290E+00-2.95360E-02 3.01369E-01 1.94011E-14 2.04997E-13
 -1      2016 2.24027E+01 3.90729E-01-2.33903E-02-1.54456E+00 1.10301E-13 5.34885E-14
 -1      2017 2.20310E+01 6.07515E-01 1.01174E-02-1.07882E+00 8.53068E-14 1.46320E-13
 -1      2018 2.27265E+01 9.37061E-01-1.24333E-02-1.17219E+00 1.08438E-13 2.50173E-14
 -1      2019 2.34704E+01-9.09752E-02-2.64298E-03-1.80556E+00 1.02417E-13 1.12362E-13
 -1      2020 2.28601E+01 1.23080E-01 2.27397E-03-1.68807E+00 1.26310E-13 1.20334E-13
 -1      2021 2.34273E+01 2.90847E-01-5.18733E-03-1.99247E+00 1.43725E-13 2.78198E-14
 -1      2022 2.43600E+01-3.86544E-01 1.54922E-02-1.35446E+00-6.48639E-14 7.73426E-14
 -1      2023 2.37827E+01-2.91775E-01-7.94884E-03-1.53964E+00 3.20230E-14 7.85517E-14
 -1      2024 2.41429E+01-3.15046E-01 7.05922E-03-1.87987E+00 9.59007E-14 2.89213E-14
 -1      2025 2.47732E+01-4.28642E-01 1.81104E-02-6.11403E-01 1.21982E-13 9.37935E-14
 -1      2026 2.44210E+01-4.46762E-01-1.43766E-02-9.17833E-01 1.74635E-14 1.63062E-13
 -1      2027 2.45183E+01-6.17007E-01 1.72141E-03-1.15294E+00 4.80206E-14 1.22690E-13
 -1      2028 2.47188E+01-3.22982E-01 1.17500E-02 5.96209E-02 2.37354E-13 7.89525E-14
 -1      2029 2.46359E+01-3.92122E-01-1.54112E-02-2.19177E-01 2.30344E-13 8.67819E-14
 -1      2030 2.44971E+01-5.93155E-01-4.85759E-03-3.02338E-01 2.15997E-13 2.08037E-13
 -1      2031 2.43383E+01-1.82774E-01 4.36343E-03 5.04192E-01 5.96398E-14-1.43490E-13
 -1      2032 2.44722E+01-2.53515E-01-1.23171E-02 3.16828E-01 6.17596E-14-8.30239E-14
 -1      2033 2.41845E+01-4.10200E-01-6.79488E-03 3.65464E-01 2.12290E-13 7.08435E-14
 -1      2034 2.37850E+01-6.86402E-02-5.38754E-04 7.21391E-01 1.15047E-14-3.30680E-13
 -1      2035 2.40514E+01-1.19710E-01-7.59494E-03 6.26857E-01 4.06784E-14-2.17234E-13
 -1      2036 2.37079E+01-2.10455E-01-5.32014E-03 7.62134E-01 7.83497E-14-1.93488E-13
 -1      2037 2.31753E+01 4.31411E-03-2.71265E-03 7.73506E-01-8.49477E-14-2.05399E-13
 -1      2038 2.34985E+01-2.50613E-02-3.16903E-03 7.47242E-01-9.82374E-14-2.69836E-13
 -1      2039 2.31665E+01-6.02509E-02-3.07337E-03 9.25236E-01-7.45187E-14-3.82386E-13
 -1      2040 2.25831E+01 4.25011E-02-3.11388E-03 7.28061E-01-6.51382E-14-3.46138E-14
 -1      2041 2.29102E+01 2.94188E-02 1.17072E-04 7.42843E-01 8.32385E-15-8.52339E-14
 -1      2042 2.26255E+01 3.01876E-02-1.40337E-03 9.31035E-01-7.55010E-14-2.27946E-13
 -1      2043 2.20487E+01 5.74678E-02-2.68538E-03 6.36026E-01 4.01558E-13-1.10174E-13
 -1      2044 2.23490E+01 5.44764E-02 2.14396E-03 6.70999E-01 1.13943E-13-9.98880E-14
 -1      2045 2.21235E+01 7.40779E-02-5.24968E-04 8.49194E-01 1.74911E-13-9.61334E-14
 -1      2046 2.15893E+01 5.90964E-02-2.01166E-03 5.29513E-01 1.95348E-13-8.54091E-14
 -1      2047 2.18489E+01 6.14711E-02 3.13729E-03 5.71357E-01 3.57801E-13-2.52851E-14
 -1      2048 2.16804E+01 8.83678E-02-2.11115E-04 7.29113E-01 3.64100E-13 7.87922E-14
 -1      2049 2.12081E+01 5.40901E-02-1.37084E-03 4.26149E-01-1.52196E-14-4.24609E-13
 -1      2050 2.14233E+01 5.88201E-02 3.41841E-03 4.67426E-01 5.91493E-14-3.12632E-13
 -1      2051 2.13034E+01 8.64113E-02-1.91608E-04 6.00879E-01 2.52813E-13 1.95767E-14
 -1      2052 2.09001E+01 4.64426E-02-8.58616E-04 3.34201E-01 1.70739E-13-4.25024E-13
 -1      2053 2.10732E+01 5.18211E-02 3.27470E-03 3.71321E-01 7.02632E-14-3.72515E-13
 -1      2054 2.09918E+01 7.68801E-02-2.78509E-04 4.80536E-01 5.85799E-14-2.34868E-13
 -1      2055 2.06569E+01 3.83114E-02-4.84772E-04 2.56505E-01-6.72127E-14-3.83021E-13
 -1      2056 2.07927E+01 4.34683E-02 2.91659E-03 2.88139E-01 6.22263E-14-4.85253E-13
 -1      2057 2.07404E+01 6.47666E-02-3.72160E-04 3.75237E-01 7.66282E-14-4.39718E-13
 -1      2058 2.04686E+01 3.07477E-02-2.27413E-04 1.93037E-01-1.32717E-13-1.23894E-13
 -1      2059 2.05730E+01 3.52992E-02 2.47923E-03 2.19069E-01-1.73096E-13-2.55069E-13
 -1      2060 2.05416E+01 5.26683E-02-4.33247E-04 2.87042E-01-2.67954E-13-1.19378E-13
 -1      2061 2.03255E+01 2.41871E-02-5.77701E-05 1.42424E-01-2.68113E-13-1.65674E-13
 -1      2062 2.04041E+01 2.80108E-02 2.04047E-03 1.63328E-01-1.86053E-13-1.33798E-13
 -1      2063 2.03874E+01 4.17816E-02-4.54882E-04 2.15349E-01-1.72330E-13 8.61307E-14
 -1      2064 2.02188E+01 1.87477E-02 5.03320E-05 1.02782E-01-2.19497E-13-1.59996E-13
 -1      2065 2.02769E+01 2.18499E-02 1.64008E-03 1.19270E-01-2.87249E-13-1.98531E-13
 -1      2066 2.02699E+01 3.25456E-02-4.43874E-04 1.58328E-01-2.45130E-13-4.18766E-14
 -1      2067 2.01411E+01 1.44006E-02 1.16725E-04 7.21297E-02 1.02775E-13-1.22663E-13
 -1      2068 2.01829E+01 1.68425E-02 1.29401E-03 8.49792E-02 7.15593E-14-8.90671E-14
 -1      2069 2.01823E+01 2.50255E-02-4.10871E-04 1.13713E-01 2.85048E-15-6.41920E-14
 -1      2070 2.00859E+01 1.10538E-02 1.53568E-04 4.85946E-02-1.39023E-13-1.14496E-13
 -1      2071 2.01152E+01 1.29175E-02 1.00416E-03 5.85610E-02 2.09197E-14-1.28320E-13
 -1      2072 2.01182E+01 1.91181E-02-3.67309E-04 7.91986E-02 1.79269E-14 3.41809E-14
 -1      2073 2.00482E+01 8.56498E-03 1.62968E-04 3.05013E-02 3.85514E-13-1.59742E-13
 -1      2074 2.00678E+01 9.95464E-03 7.63638E-04 3.82774E-02 1.12402E-13-1.06089E-13
 -1      2075 2.00726E+01 1.46461E-02-3.21056E-04 5.26404E-02 1.32482E-13-1.90116E-14
 -1      2076 2.00239E+01 6.71022E-03 1.38654E-04 1.65350E-02 2.28190E-13-1.51114E-13
 -1      2077 2.00361E+01 7.75250E-03 5.56777E-04 2.26671E-02 3.64969E-13-1.59927E-13
 -1      2078 2.00413E+01 1.13111E-02-2.84303E-04 3.22126E-02 3.44780E-13-1.70213E-13
 -1      2079 2.00098E+01 5.12928E-03 1.88770E-04 6.02191E-03 2.28069E-13-2.94279E-13
 -1      2080 2.00162E+01 5.96502E-03 3.65569E-04 1.06792E-02 2.16194E-13-8.58564E-14
 -1      2081 2.00207E+01 8.74111E-03-2.27881E-04 1.65557E-02 1.82261E-13 5.21484E-14
 -1      2082 2.00038E+01 3.22105E-03 2.36432E-04 6.23369E-04-7.12985E-14 6.85819E-14
 -1      2083 2.00066E+01 4.72497E-03 2.27559E-04 3.52317E-03 1.75760E-13-1.04405E-13
 -1      2084 2.00099E+01 6.96633E-03-1.25698E-04 6.99390E-03 1.19313E-13 1.07662E-13
 -1      2085 2.00048E+01 4.29855E-03 5.80873E-05 1.89096E-03-1.31388E-13 4.18461E-13
 -1      2086 2.00026E+01 4.30940E-02-1.45686E-04 2.44312E-02 2.27425E-15-6.67623E-14
 -1      2087 2.00045E+01 3.52570E-02 2.70363E-04 2.23416E-02 1.02124E-13 1.91146E-13
 -1      2088 2.00060E+01 2.61051E-02-2.46392E-05 1.87427E-02 1.81566E-13 3.36327E-13
 -1      2089 2.00071E+01 1.97759E-02 2.62082E-04 1.48990E-02 1.33024E-13 7.72312E-13
 -1      2090 2.00078E+01 3.70512E-02-6.64703E-05 2.77359E-02-6.30110E-14 1.90309E-13
 -1      2091 2.00067E+01 1.31927E-02 6.96238E-05 1.02486E-02 9.83002E-14 7.25400E-13
 -1      2092 2.00064E+01 8.92113E-03 1.84407E-04 6.32188E-03-5.50002E-16 4.09602E-13
 -1      2093 2.00090E+01 1.05557E-02 9.77587E-05 8.70698E-03 5.13214E-14 4.18001E-13
 -1      2094 2.00098E+01 2.15479E-02-1.86863E-04 1.83041E-02-2.80688E-14 8.51751E-13
 -1      2095 1.99987E+01 6.05858E-02-2.60436E-04 2.54386E-02-2.70818E-13-1.08724E-12
 -1      2096 2.00008E+01 5.24561E-02 1.63733E-04 2.54984E-02-1.76120E-13-3.52661E-13
 -1      2097 2.00027E+01 5.54231E-02 6.09414E-05 3.27844E-02-3.15838E-13-4.36586E-13
 -1      2098 1.99952E+01 7.64847E-02-3.48670E-04 2.15805E-02-6.54519E-14-3.63134E-13
 -1      2099 1.99970E+01 6.92089E-02 6.40440E-06 2.37378E-02-7.21675E-14-8.93634E-13
 -1      2100 1.99971E+01 7.33283E-02 2.01455E-04 3.18979E-02-2.83516E-13-7.80215E-13
 -1      2101 1.99926E+01 8.79552E-02-3.86431E-04 1.36485E-02-1.54245E-13-6.88665E-14
 -1      2102 1.99938E+01 8.29885E-02-1.57412E-04 1.74326E-02 8.39954E-14-1.57217E-13
 -1      2103 1.99921E+01 8.84131E-02 3.26325E-04 2.51350E-02 8.83656E-14-2.61840E-13
 -1      2104 1.99915E+01 9.31747E-02-3.64624E-04 3.21307E-03-4.01286E-13-7.10726E-14
 -1      2105 1.99919E+01 9.14092E-02-2.91036E-04 7.87061E-03-3.18423E-13 7.50138E-14
 -1      2106 1.99889E+01 9.83515E-02 4.07666E-04 1.37999E-02-7.12073E-14-1.04884E-13
 -1      2107 1.99919E+01 9.13430E-02-2.83341E-04-7.76933E-03-2.77286E-13 1.58391E-15
 -1      2108 1.99915E+01 9.30903E-02-3.71540E-04-3.12262E-03-3.64673E-13 3.55529E-14
 -1      2109 1.99877E+01 1.01714E-01 4.33163E-04 1.19838E-05-4.12074E-13-7.57949E-15
 -1      2110 1.99939E+01 8.28029E-02-1.55838E-04-1.72739E-02-2.14415E-13-2.49209E-14
 -1      2111 1.99927E+01 8.77492E-02-3.87325E-04-1.35157E-02-2.50619E-13 4.12728E-14
 -1      2112 1.99889E+01 9.80369E-02 3.98598E-04-1.37345E-02-3.12821E-13 8.89483E-14
 -1      2113 1.99969E+01 6.92695E-02 3.03155E-06-2.34576E-02-6.52140E-14 1.35181E-13
 -1      2114 1.99952E+01 7.63590E-02-3.47067E-04-2.13273E-02-2.38119E-13 2.25375E-13
 -1      2115 1.99922E+01 8.79985E-02 3.19471E-04-2.49075E-02-1.29687E-13-2.60122E-14
 -1      2116 2.00007E+01 5.24589E-02 1.57592E-04-2.53118E-02 6.42457E-14 2.35793E-13
 -1      2117 1.99986E+01 6.06869E-02-2.59959E-04-2.52019E-02 1.11048E-14 3.19489E-13
 -1      2118 1.99969E+01 7.30199E-02 1.88060E-04-3.15965E-02 5.01037E-14 2.38020E-13
 -1      2119 2.00043E+01 3.51898E-02 2.59520E-04-2.22885E-02 9.48579E-15 5.47075E-14
 -1      2120 2.00025E+01 4.30347E-02-1.46474E-04-2.43008E-02 1.15695E-13 1.56891E-14
 -1      2121 2.00024E+01 5.50690E-02 3.89742E-05-3.25686E-02 4.76362E-14 2.10635E-13
 -1      2122 2.00066E+01 1.92087E-02 1.32200E-05-1.49502E-02 3.65774E-14-1.95448E-13
 -1      2123 2.00059E+01 2.61141E-02-4.46443E-06-1.87594E-02-5.23350E-14 2.68177E-14
 -1      2124 2.00076E+01 3.68199E-02-3.13925E-05-2.76294E-02-5.60313E-14 6.80188E-15
 -1      2125 9.38630E+00-5.41419E+00-1.67525E-01 6.13554E+00 4.47975E-13 3.73507E-13
 -1      2126 5.68282E+00-6.98271E+00-4.42660E-01 4.69510E+00 3.42004E-13 6.00880E-13
 -1      2127 4.09161E-01-7.00827E+00-3.86378E-01 5.96461E-01 2.10248E-13 9.14213E-13
 -1      2128 4.96580E-01-6.39892E+00-2.93313E-01-1.00483E+00 1.25913E-13 7.89702E-13
 -1      2129 2.59277E+00-6.66379E+00-3.47082E-01 3.45321E+00 3.97404E-13 7.93421E-13
 -1      2130 1.04572E+00-7.40972E+00-4.31862E-01 2.02842E+00 1.73084E-13 9.44800E-13
 -1      2131 2.00637E+00-4.62785E+00-1.82882E-01 1.69705E+00-1.21819E-13 9.75831E-13
 -1      2132 1.79961E+01-3.53725E+00-3.75289E-02 6.74848E+00 6.29941E-13 3.24574E-13
 -1      2133 1.36758E+01-5.39880E+00-3.03140E-01 6.02377E+00 6.26832E-13 1.82854E-13
 -1      2134 2.64972E+01-1.15016E+00 1.33467E-01 5.98380E+00 6.20892E-13 2.81664E-13
 -1      2135 2.17056E+01-2.97563E+00-2.08168E-01 5.73679E+00 5.25024E-13 4.20830E-13
 -1      2136 1.95352E+01 4.02776E+00-2.70507E-02-1.67217E+00-3.78973E-13-6.69883E-13
 -1      2137 1.96611E+01 3.95512E+00-2.43347E-02-1.92303E+00-4.53072E-13-5.81875E-13
 -1      2138 1.99842E+01 3.25713E+00-1.38173E-02-1.88420E+00-4.96928E-13-4.85088E-13
 -1      2139 1.97131E+01 3.60512E+00-7.01775E-03-1.48701E+00-3.86925E-13-6.54430E-13
 -1      2140 3.88846E+01 4.99308E+00 3.49784E-01 2.03104E+00 7.71438E-13-2.42473E-13
 -1      2141 3.56248E+01 3.76762E+00 1.45498E-01 2.66594E+00 7.50885E-13-5.88418E-15
 -1      2142 3.97153E+01 7.02191E+00 2.61488E-01 1.49858E-01 8.95561E-13-5.80758E-13
 -1      2143 3.89342E+01 6.31776E+00 2.45395E-01 1.08102E+00 8.70470E-13-3.53384E-13
 -1      2144 3.97922E+01 6.65498E+00 2.99426E-01-1.03516E+00 1.15274E-12-7.05547E-13
 -1      2145 3.97632E+01 7.19526E+00 2.28759E-01 8.22298E-02 9.87210E-13-5.05831E-13
 -1      2146 3.64698E+01 4.57599E+00 1.30074E-01-2.23862E+00 1.23374E-12-6.99774E-13
 -1      2147 3.95980E+01 5.59219E+00 3.51569E-01-1.51330E+00 1.26110E-12-6.10290E-13
 -1      2148 3.57456E+01 6.78633E+00 3.17622E-01 4.68230E-01 1.05377E-12-3.22964E-13
 -1      2149 3.04988E+01 5.17727E-01-5.40361E-02-3.91574E+00 9.98313E-13-7.79377E-13
 -1      2150 3.46549E+01 2.18552E+00 2.14916E-01-3.24336E+00 1.01658E-12-6.73295E-13
 -1      2151 2.36510E+01-2.82440E+00-1.54214E-01-5.18687E+00 7.45848E-13-8.55260E-13
 -1      2152 2.84238E+01-8.13783E-01 1.55085E-01-5.35479E+00 9.10605E-13-8.69527E-13
 -1      2153 3.02388E+01-1.65008E+00 1.23705E-01-2.24199E+00 4.81379E-13-1.41331E-13
 -1      2154 1.41719E+01-5.37372E+00-3.24396E-01-6.02540E+00 5.77871E-13-1.06362E-12
 -1      2155 1.89534E+01-3.70519E+00-4.33656E-02-6.74616E+00 6.77347E-13-9.48686E-13
 -1      2156 6.47382E+00-6.86437E+00-4.32921E-01-4.94683E+00 3.59934E-13-1.19947E-12
 -1      2157 1.01115E+01-5.32709E+00-1.65942E-01-6.19222E+00 5.71321E-13-1.23485E-12
 -1      2158 1.94437E+00-7.08756E+00-3.79329E-01-2.81763E+00 1.28370E-13-1.21386E-12
 -1      2159 3.92923E+00-6.27375E+00-2.47032E-01-4.20102E+00 3.31457E-13-1.27370E-12
 -1      2160 2.62994E-01-7.09360E+00-3.78458E-01 3.56541E-01-1.20473E-13-1.11217E-12
 -1      2161 4.96122E-01-6.96524E+00-3.59679E-01-1.07882E+00 2.06890E-13-1.23052E-12
 -1      2162 2.33102E+00-6.54579E+00-3.12157E-01 3.54196E+00-4.82503E-13-1.16995E-12
 -1      2163 7.95843E-01-7.48114E+00-4.55272E-01 2.05474E+00-1.90431E-13-1.08347E-12
 -1      2164 7.93864E+00-5.58020E+00-2.27459E-01 5.87044E+00-8.39551E-13-1.24621E-12
 -1      2165 4.96624E+00-6.90436E+00-4.19338E-01 4.72880E+00-4.98879E-13-1.06565E-12
 -1      2166 1.58194E+01-3.64710E+00-5.29816E-02 6.97164E+00-1.00475E-12-1.18094E-12
 -1      2167 1.15610E+01-5.53749E+00-3.60937E-01 6.04010E+00-7.77267E-13-1.15524E-12
 -1      2168 2.46495E+01-1.07707E+00 9.98820E-02 6.55365E+00-1.16768E-12-1.22724E-12
 -1      2169 1.96691E+01-2.99645E+00-2.28561E-01 6.13382E+00-1.08075E-12-1.22369E-12
 -1      2170 3.23227E+01 1.64911E+00 1.88086E-01 4.46496E+00-1.11794E-12-1.01091E-12
 -1      2171 2.79009E+01 7.51512E-02-5.37703E-02 4.94279E+00-1.12291E-12-1.12421E-12
 -1      2172 3.74516E+01 4.89405E+00 2.58829E-01 2.20935E+00-1.26987E-12-7.62335E-13
 -1      2173 3.42637E+01 3.64517E+00 7.83181E-02 3.04076E+00-1.21064E-12-9.37139E-13
 -1      2174 3.89801E+01 7.06355E+00 2.33667E-01 3.26118E-01-1.51429E-12-2.47441E-13
 -1      2175 3.80335E+01 6.38870E+00 2.00870E-01 1.39294E+00-1.51790E-12-6.19726E-13
 -1      2176 3.94470E+01 6.81815E+00 3.01532E-01-1.15628E+00-1.36435E-12 1.36224E-13
 -1      2177 3.93066E+01 7.27480E+00 2.18236E-01 7.29512E-02-1.42214E-12-1.41321E-13
 -1      2178 3.62699E+01 4.97813E+00 1.59136E-01-2.60217E+00-1.32261E-12 4.22440E-13
 -1      2179 3.92220E+01 5.88809E+00 3.57213E-01-1.77887E+00-1.33027E-12 2.32536E-13
 -1      2180 3.54747E+01 7.13414E+00 3.14268E-01 1.24417E-01-1.41531E-12-9.35640E-14
 -1      2181 3.04461E+01 1.34103E+00 1.49537E-02-4.29319E+00-8.91093E-13 7.97473E-13
 -1      2182 3.45955E+01 2.95424E+00 2.69286E-01-3.79151E+00-1.22053E-12 4.97435E-13
 -1      2183 2.24105E+01-1.91129E+00-1.61645E-01-5.97075E+00-5.29299E-13 1.26271E-12
 -1      2184 2.74097E+01-1.73675E-01 1.41406E-01-6.04810E+00-6.23168E-13 1.22685E-12
 -1      2185 1.45971E+01-4.80330E+00-2.64025E-01-6.28927E+00-3.35842E-13 9.20153E-13
 -1      2186 1.89923E+01-2.78621E+00 1.89132E-02-6.98536E+00-5.36682E-13 1.23679E-12
 -1      2187 6.68748E+00-6.55875E+00-3.84283E-01-5.27957E+00-8.28226E-14 1.11203E-12
 -1      2188 1.04488E+01-4.99434E+00-1.17190E-01-6.59421E+00-2.87326E-13 1.14205E-12
 -1      2189 1.95197E+00-6.69576E+00-3.31661E-01-3.14717E+00 1.28703E-13 8.15792E-13
 -1      2190 3.95382E+00-6.23956E+00-2.71957E-01-4.48828E+00-1.40943E-13 1.09621E-12
 -1      2191 7.40610E+00-5.12113E+00-1.01013E-01-5.98150E+00 1.61426E-13 1.18638E-12
 -1      2192 3.35391E+01 1.71982E+00 2.19618E-01 4.07575E+00 6.77111E-13 9.51461E-14
 -1      2193 2.93015E+01 2.71097E-01-6.05796E-03 4.75864E+00 7.77184E-13 2.84883E-13
 -1      2194 2.89296E+01-2.09774E+00 1.36375E-01 3.44628E+00 3.97127E-13-8.34888E-14
 -1      2195 2.07223E+01 1.10860E+00-2.04003E-02-1.59261E+00-5.29798E-13 3.92417E-13
 -1      2196 3.38345E+01 2.02595E+00 2.42472E-01 1.29349E+00 6.65246E-13-2.47968E-13
 -1      2197 2.06248E+01 1.33224E+00-1.89176E-02-1.64700E+00-5.60867E-13 9.21502E-14
 -1      2198 5.88789E+00-5.31669E+00-1.39660E-01 5.07996E+00-1.76636E-13 5.59219E-13
 -1      2199 1.37217E+01-5.69737E+00-8.37114E-02 6.58960E+00 2.78111E-14 4.21295E-14
 -1      2200 2.00080E+01 1.65426E-02 1.04446E-04-1.33617E-02 4.35629E-14-2.13465E-13
 -1      2201 2.65601E+00-4.51290E+00-1.28011E-01-2.54695E+00 1.26954E-13 9.35252E-13
 -1      2202 2.22842E+01-4.69036E+00 1.29107E-02 5.66623E+00 1.23013E-13 2.66731E-14
 -1      2203 1.47204E+01-5.41082E+00-6.29423E-02-6.84200E+00 1.88738E-13 7.19945E-13
 -1      2204 2.28922E+01-3.90758E+00 3.74287E-02-5.71389E+00-1.10856E-13 8.93730E-13
 -1      2205 3.39344E+01 3.55633E+00 2.30305E-01-8.04651E-01-1.11333E-12 9.70335E-14
 -1      2206 3.53434E+01 7.94996E+00 2.51639E-01-1.07852E-01-1.54882E-12-1.47209E-13
 -1      2207 3.46038E+01 5.92063E+00 2.46359E-01-1.12017E-01-1.37701E-12-2.33424E-13
 -1      2208 3.25040E+01 1.77812E+00 2.06781E-01 1.36394E+00-9.30110E-13-3.71925E-13
 -1      2209 2.76199E+01-2.15355E+00 1.41301E-01 4.07284E+00-7.17204E-13-6.21447E-13
 -1      2210 2.02165E+01-4.66647E+00 5.76450E-03 6.31334E+00-4.06064E-13-8.32667E-13
 -1      2211 1.21134E+01-5.61197E+00-1.16138E-01 6.82816E+00-2.04947E-13-9.84067E-13
 -1      2212 5.22249E+00-5.40909E+00-1.86165E-01 5.05829E+00-5.21805E-14-1.13970E-12
 -1      2213 1.76356E+00-4.74226E+00-1.90982E-01 1.49724E+00 3.34455E-14-1.30823E-12
 -1      2214 2.71055E+00-4.60121E+00-1.45816E-01-2.59064E+00 4.32987E-15-1.30940E-12
 -1      2215 7.16167E+00-5.41809E+00-1.57257E-01-5.59964E+00-1.66311E-13-1.15866E-12
 -1      2216 2.36137E+01-4.57408E+00 3.51736E-02-5.22298E+00 1.18239E-13-4.80699E-13
 -1      2217 3.40961E+01 2.76866E+00 2.00119E-01-2.04544E-01 9.08607E-13-1.10190E-13
 -1      2218 3.56721E+01 6.00447E+00 2.81500E-01-2.21862E-01 8.40605E-13-6.62248E-13
 -1      2219 3.58021E+01 7.77560E+00 2.58300E-01-1.03792E-01 9.36862E-13-5.34649E-13
 -1      2220 1.44602E+01-5.72796E+00-7.22570E-02-6.67798E+00-1.11910E-13-8.16885E-13
 -1      2221 2.95790E+01-8.03155E-01 1.58880E-01-3.31465E+00-4.38594E-13 4.45144E-13
 -1      2222 2.01641E+01 5.16256E-01 4.29873E-03 6.40167E-01 4.50187E-13 3.48981E-13
 -1      2223 2.04216E+01 7.06907E-01 2.08524E-02 9.35922E-01 4.86165E-13 4.29874E-13
 -1      2224 1.95643E+01 3.56501E+00-1.12202E-02-5.68671E-01-1.25602E-13-7.09195E-13
 -1      2225 1.96025E+01 3.51616E+00-1.02255E-02-7.48047E-01-1.97293E-13-7.16066E-13
 -1      2226 1.96516E+01 3.42222E+00-1.28457E-02-9.07695E-01-2.44070E-13-7.07853E-13
 -1      2227 1.97154E+01 3.33717E+00-1.23694E-02-1.09364E+00-3.14693E-13-6.81338E-13
 -1      2228 1.97912E+01 3.08628E+00 4.98608E-04-7.57955E-01-2.18157E-13-6.66070E-13
 -1      2229 1.95129E+01 3.65454E+00-9.60075E-03 9.59700E-02 1.10236E-13-6.91866E-13
 -1      2230 1.95121E+01 3.65538E+00-9.59946E-03-7.71583E-02 4.67463E-14-6.85681E-13
 -1      2231 1.95416E+01 3.61209E+00-9.61994E-03 4.28648E-01 2.22488E-13-6.83242E-13
 -1      2232 1.95225E+01 3.63631E+00-1.02100E-02 2.53776E-01 1.58939E-13-6.95886E-13
 -1      2233 1.96743E+01 3.28912E+00-4.74556E-04 1.61398E-01 1.30915E-13-6.51303E-13
 -1      2234 1.96084E+01 3.50866E+00-1.04313E-02 7.61396E-01 3.31620E-13-6.15560E-13
 -1      2235 1.95694E+01 3.55866E+00-1.13665E-02 5.84797E-01 2.69169E-13-6.54936E-13
 -1      2236 1.97149E+01 3.22059E+00-1.11053E-04 4.65211E-01 2.40109E-13-6.17009E-13
 -1      2237 1.97247E+01 3.32474E+00-1.27115E-02 1.10675E+00 4.61215E-13-5.16035E-13
 -1      2238 1.96592E+01 3.41214E+00-1.31000E-02 9.20748E-01 3.86822E-13-5.72319E-13
 -1      2239 1.97983E+01 3.07743E+00 5.54473E-04 7.68950E-01 3.49193E-13-5.36720E-13
 -1      2240 1.99070E+01 3.02742E+00-1.78910E-02 1.45023E+00 5.60160E-13-3.85133E-13
 -1      2241 1.98062E+01 3.17318E+00-1.54141E-02 1.26113E+00 4.93232E-13-4.64817E-13
 -1      2242 1.99342E+01 2.83957E+00 2.13410E-03 1.06759E+00 4.61467E-13-4.42422E-13
 -1      2243 2.01829E+01 2.55633E+00-2.81653E-02 1.75557E+00 6.35452E-13-1.74668E-13
 -1      2244 2.00337E+01 2.80003E+00-1.72612E-02 1.58055E+00 5.81691E-13-2.97748E-13
 -1      2245 2.01326E+01 2.47520E+00 5.94662E-03 1.33121E+00 5.43257E-13-3.02755E-13
 -1      2246 1.99100E+01 2.84472E-01 5.51602E-03 2.33882E-01 3.67825E-13 2.60402E-13
 -1      2247 2.00565E+01 3.80775E-01 2.02774E-02 3.97912E-01 4.13166E-13 3.39561E-13
 -1      2248 2.02346E+01 6.50525E-01-2.65417E-03 6.54478E-01 4.73806E-13 1.49445E-13
 -1      2249 2.04151E+01 8.67151E-01 1.30814E-02-9.58779E-01-4.39519E-13-5.05418E-14
 -1      2250 2.02142E+01 6.44167E-01-3.40226E-03-6.43110E-01-3.92271E-13-6.09521E-14
 -1      2251 3.26127E+01 2.06826E+00-1.08295E-01-5.42764E-01 5.29271E-13-5.55389E-13
 -1      2252 3.11555E+01-8.22881E-02-5.78870E-02 3.01217E-01 4.37712E-13-4.86000E-13
 -1      2253 2.01555E+01 4.89180E-01 1.61356E-02-4.19091E-01-3.56680E-13-4.99377E-14
 -1      2254 2.00281E+01 3.69115E-01 8.40713E-04-2.38678E-01-3.28472E-13-8.13697E-14
 -1      2255 2.02721E+01 7.69613E-01-2.11612E-03-6.34067E-01-4.05387E-13-1.87861E-13
 -1      2256 1.99746E+01 2.88772E-01 1.08765E-02-8.89894E-02-3.13866E-13-5.78858E-14
 -1      2257 1.99143E+01 2.22918E-01 1.73985E-03 2.06780E-02-2.74113E-13-1.12485E-13
 -1      2258 2.01256E+01 4.52576E-01-4.09077E-03-2.28194E-01-3.38598E-13-1.65756E-13
 -1      2259 1.98829E+01 1.78805E-01 6.41291E-03 1.19282E-01-2.34368E-13-1.21925E-13
 -1      2260 1.98725E+01 1.43008E-01 2.02532E-03 1.89342E-01-1.93574E-13-1.48329E-13
 -1      2261 2.00289E+01 2.77374E-01-4.15112E-03 4.12887E-02-2.84205E-13-1.77819E-13
 -1      2262 1.98638E+01 1.19237E-01 3.63735E-03 2.56693E-01-1.83277E-13-1.61096E-13
 -1      2263 1.98888E+01 1.01155E-01 2.23918E-03 3.04888E-01-1.59024E-13-1.80131E-13
 -1      2264 1.99848E+01 1.81243E-01-3.53127E-03 2.22626E-01-2.25229E-13-1.95907E-13
 -1      2265 1.98993E+01 8.97396E-02 1.94601E-03 3.54555E-01-1.45979E-13-1.87557E-13
 -1      2266 1.99504E+01 8.26968E-02 2.44252E-03 3.91732E-01-1.26649E-13-1.77911E-13
 -1      2267 1.99862E+01 1.31491E-01-2.83040E-03 3.50904E-01-1.57609E-13-1.83776E-13
 -1      2268 1.99767E+01 7.90278E-02 9.21332E-04 4.32868E-01-1.01924E-13-1.67232E-13
 -1      2269 2.00481E+01 7.88099E-02 2.63474E-03 4.65800E-01-8.36612E-14-1.85520E-13
 -1      2270 2.00246E+01 1.10455E-01-2.26819E-03 4.50324E-01-1.16796E-13-2.03369E-13
 -1      2271 2.00881E+01 7.96665E-02 3.28379E-04 5.04347E-01-1.31043E-13-1.53111E-13
 -1      2272 2.01767E+01 8.30093E-02 2.77787E-03 5.36999E-01-1.83966E-13-1.75565E-13
 -1      2273 2.00935E+01 1.07010E-01-1.88268E-03 5.37056E-01-1.16193E-13-1.61983E-13
 -1      2274 2.02291E+01 8.55698E-02 4.10306E-05 5.76304E-01-1.64624E-13-1.61763E-13
 -1      2275 2.03334E+01 8.93041E-02 2.79540E-03 6.10273E-01-1.13149E-13-1.53857E-13
 -1      2276 2.01890E+01 1.12605E-01-1.66135E-03 6.21131E-01-1.54618E-13-1.05177E-13
 -1      2277 2.03985E+01 9.05242E-02 5.38783E-07 6.51219E-01-1.16223E-13-1.33081E-13
 -1      2278 2.05174E+01 9.09754E-02 2.56823E-03 6.85662E-01-8.27985E-14-1.49588E-13
 -1      2279 2.03095E+01 1.19026E-01-1.58833E-03 7.07251E-01-1.12735E-13-6.18720E-14
 -1      2280 2.05965E+01 8.71254E-02 1.95818E-04 7.26415E-01-6.26114E-14-1.29184E-13
 -1      2281 2.07290E+01 7.96591E-02 1.93328E-03 7.57631E-01-2.40878E-14-9.36108E-14
 -1      2282 2.04558E+01 1.16876E-01-1.66552E-03 7.94724E-01-9.11657E-14 1.26698E-14
 -1      2283 2.08247E+01 6.60087E-02 6.52689E-04 7.93072E-01-6.39343E-15-1.35744E-13
 -1      2284 2.09685E+01 4.48093E-02 6.90246E-04 8.13877E-01-3.52998E-14-1.22252E-13
 -1      2285 2.06308E+01 9.44680E-02-1.92117E-03 8.76689E-01-5.55730E-14-4.46336E-14
 -1      2286 2.10849E+01 1.56464E-02 1.41513E-03 8.34828E-01-9.24567E-14-8.31849E-14
 -1      2287 2.12360E+01-2.59316E-02-1.37005E-03 8.33980E-01-9.54887E-14-1.29888E-13
 -1      2288 2.08396E+01 3.73771E-02-2.40202E-03 9.38823E-01-6.41184E-14-1.37183E-13
 -1      2289 2.13782E+01-7.64841E-02 2.49571E-03 8.26468E-01-8.89897E-14-1.59972E-13
 -1      2290 2.15297E+01-1.44298E-01-4.39138E-03 7.88704E-01-6.80601E-14-2.04816E-13
 -1      2291 2.10897E+01-7.05043E-02-3.13413E-03 9.57851E-01-9.23185E-14-9.81098E-14
 -1      2292 2.17029E+01-2.19853E-01 3.76369E-03 7.33901E-01-6.01385E-15-2.25376E-13
 -1      2293 2.18437E+01-3.15015E-01-8.28556E-03 6.41629E-01-7.43047E-15-1.96605E-13
 -1      2294 2.13901E+01-2.42689E-01-4.02246E-03 9.00644E-01-8.78325E-14-1.02711E-13
 -1      2295 2.20491E+01-4.11858E-01 4.75756E-03 5.17840E-01 1.23651E-14-1.49443E-13
 -1      2296 2.21631E+01-5.23477E-01-1.23991E-02 3.56190E-01 2.84482E-14-9.72939E-14
 -1      2297 2.17472E+01-4.80014E-01-4.65866E-03 7.25717E-01 3.72211E-14-9.18488E-14
 -1      2298 2.23903E+01-6.22550E-01 4.50694E-03 1.45562E-01 1.89699E-14-7.33489E-14
 -1      2299 2.24563E+01-7.18093E-01-1.49926E-02-8.73019E-02 7.83505E-14-4.27614E-14
 -1      2300 2.21554E+01-7.52633E-01-4.07139E-03 3.90932E-01 6.27950E-14-1.74883E-14
 -1      2301 2.26718E+01-7.76859E-01 1.62892E-03-3.83586E-01 1.37294E-13-5.61383E-14
 -1      2302 2.26667E+01-7.96905E-01-1.31475E-02-6.60469E-01 1.38366E-13-3.45327E-14
 -1      2303 2.25802E+01-9.76996E-01-7.32462E-04-1.26001E-01 7.86468E-14 4.69627E-14
 -1      2304 2.28083E+01-7.51275E-01-5.25154E-03-9.97105E-01 1.58441E-13 8.75547E-15
 -1      2305 2.27183E+01-6.24677E-01-4.49374E-03-1.24607E+00 1.71600E-13-6.53592E-14
 -1      2306 2.29396E+01-1.00523E+00 6.01180E-03-7.87014E-01 1.51692E-13 3.91451E-16
 -1      2307 2.27132E+01-4.18531E-01-1.54500E-02-1.51095E+00 1.01298E-13-5.88611E-14
 -1      2308 2.25522E+01-1.13595E-01 1.00121E-02-1.61903E+00 5.28308E-14-5.69961E-14
 -1      2309 2.31085E+01-6.68794E-01 1.22371E-02-1.43933E+00 1.06696E-13-2.80467E-14
 -1      2310 2.23816E+01 2.37806E-01-2.09864E-02-1.64796E+00 1.44630E-14-5.03863E-14
 -1      2311 2.22034E+01 6.33405E-01 2.16332E-02-1.50776E+00-9.13536E-14 2.88294E-14
 -1      2312 2.29869E+01 9.01473E-02 1.02832E-02-1.78927E+00 3.02735E-14-3.51530E-14
 -1      2313 2.19696E+01 9.87630E-01-1.66226E-02-1.19728E+00-1.64669E-13 2.43121E-14
 -1      2314 2.18525E+01 1.27547E+00 1.72376E-02-8.01272E-01-2.16402E-13-9.89958E-15
 -1      2315 2.26420E+01 1.05784E+00-3.05406E-04-1.53026E+00-1.36550E-13-9.02533E-14
 -1      2316 2.17454E+01 1.42666E+00 2.81851E-04-2.27887E-01-3.17609E-13-7.47648E-14
 -1      2317 2.17458E+01 1.42142E+00-1.19303E-03 2.77973E-01-2.87523E-13-1.21232E-13
 -1      2318 2.23333E+01 1.74272E+00-1.77473E-02-5.89355E-01-3.37317E-13-1.59690E-13
 -1      2319 2.18668E+01 1.26055E+00 1.87994E-02 8.49468E-01-2.42627E-13-3.25006E-13
 -1      2320 2.19907E+01 9.62481E-01-1.63310E-02 1.23698E+00-1.83911E-13-3.23795E-13
 -1      2321 2.23426E+01 1.73709E+00-1.41005E-02 6.48291E-01-3.94750E-13-2.68538E-13
 -1      2322 2.22258E+01 6.03521E-01 2.10328E-02 1.53436E+00-8.25130E-14-3.54399E-13
 -1      2323 2.24071E+01 2.06899E-01-2.15997E-02 1.66368E+00-3.21226E-14-3.32989E-13
 -1      2324 2.26631E+01 1.01896E+00-8.20256E-04 1.56520E+00-1.60959E-13-4.34406E-13
 -1      2325 2.25735E+01-1.38911E-01 9.25084E-03 1.62113E+00-9.25668E-14-4.44511E-13
 -1      2326 2.27346E+01-4.34584E-01-1.46577E-02 1.50661E+00-2.50082E-15-5.11941E-13
 -1      2327 2.30074E+01 5.72215E-02 1.16511E-02 1.79830E+00-1.31232E-13-4.34424E-13
 -1      2328 2.27341E+01-6.32116E-01-5.11757E-03 1.23854E+00 7.37171E-15-5.35333E-13
 -1      2329 2.28235E+01-7.50243E-01-5.06497E-03 9.88944E-01-5.02096E-14-5.51863E-13
 -1      2330 2.31173E+01-6.84225E-01 1.17914E-02 1.43027E+00-4.38093E-14-5.59708E-13
 -1      2331 2.26803E+01-7.89034E-01-1.34297E-02 6.56020E-01-1.62999E-13-6.40332E-13
 -1      2332 2.26868E+01-7.63426E-01 2.02927E-03 3.83359E-01-2.13390E-13-6.34185E-13
 -1      2333 2.29423E+01-9.99103E-01 5.40082E-03 7.80166E-01-1.38974E-13-4.88148E-13
 -1      2334 2.24731E+01-7.00902E-01-1.48724E-02 9.43159E-02-2.21735E-13-5.19680E-13
 -1      2335 2.24109E+01-6.02450E-01 4.93238E-03-1.31672E-01-1.72898E-13-5.07392E-13
 -1      2336 2.25844E+01-9.56871E-01-9.24610E-04 1.31314E-01-1.38468E-13-5.63578E-13
 -1      2337 2.21882E+01-5.01566E-01-1.21713E-02-3.33369E-01-7.91307E-14-3.78371E-13
 -1      2338 2.20806E+01-3.88585E-01 5.16395E-03-4.86773E-01 5.08046E-14-3.93190E-13
 -1      2339 2.21667E+01-7.24935E-01-4.08730E-03-3.68435E-01-4.85929E-14-2.63790E-13
 -1      2340 2.18813E+01-2.90919E-01-8.08101E-03-6.00902E-01-8.14019E-16-3.92090E-13
 -1      2341 2.17497E+01-1.95028E-01 4.17253E-03-6.84231E-01 5.31377E-14-3.80571E-13
 -1      2342 2.17693E+01-4.48782E-01-4.69147E-03-6.83758E-01 2.57082E-14-1.91348E-13
 -1      2343 2.15838E+01-1.19004E-01-4.24430E-03-7.28997E-01 1.38025E-13-2.74380E-13
 -1      2344 2.14445E+01-5.05511E-02 2.94541E-03-7.57397E-01 8.16052E-14-1.73703E-13
 -1      2345 2.14259E+01-2.09584E-01-4.07660E-03-8.38124E-01 1.43636E-13-2.44083E-13
 -1      2346 2.13106E+01 4.91222E-04-1.28808E-03-7.54551E-01 7.99690E-14-1.62589E-13
 -1      2347 2.11746E+01 4.28413E-02 1.92273E-03-7.45631E-01 1.63166E-13-7.20167E-14
 -1      2348 2.11414E+01-3.59332E-02-3.19696E-03-8.74103E-01 1.28012E-13-1.60234E-13
 -1      2349 2.10673E+01 7.25532E-02 7.09980E-04-7.13956E-01 1.04555E-14-1.40552E-14
 -1      2350 2.09415E+01 9.45582E-02 1.19857E-03-6.83001E-01-1.81220E-14 1.00899E-13
 -1      2351 2.09090E+01 7.35792E-02-2.44652E-03-8.33157E-01 1.60622E-13-1.70972E-13
 -1      2352 2.08554E+01 1.08614E-01 1.89025E-03-6.36589E-01-8.99226E-15 5.58629E-14
 -1      2353 2.07437E+01 1.16594E-01 7.33360E-04-5.95040E-01 1.50682E-13 6.83366E-16
 -1      2354 2.07196E+01 1.32222E-01-1.91306E-03-7.48537E-01-1.33476E-14-4.81980E-14
 -1      2355 2.06746E+01 1.20322E-01 2.45782E-03-5.43517E-01 2.00521E-13-8.85956E-14
 -1      2356 2.05785E+01 1.19572E-01 4.54066E-04-4.99083E-01 7.56021E-14-1.30465E-13
 -1      2357 2.05651E+01 1.55266E-01-1.55742E-03-6.44193E-01 1.03186E-13-2.34076E-13
 -1      2358 2.05229E+01 1.17138E-01 2.60795E-03-4.48485E-01 6.43494E-14-2.16198E-13
 -1      2359 2.04426E+01 1.11554E-01 2.94512E-04-4.05871E-01-2.49850E-14-1.99741E-13
 -1      2360 2.04392E+01 1.55794E-01-1.31490E-03-5.35984E-01 3.12742E-14-3.37017E-13
 -1      2361 2.03981E+01 1.05898E-01 2.49855E-03-3.59609E-01-1.42275E-13-1.06440E-13
 -1      2362 2.03326E+01 9.81109E-02 2.06715E-04-3.21343E-01-1.52545E-13-7.38564E-14
 -1      2363 2.03370E+01 1.43574E-01-1.13396E-03-4.33517E-01 1.84220E-14-1.80116E-13
 -1      2364 2.02972E+01 9.11597E-02 2.24576E-03-2.81027E-01-7.49329E-14 5.92875E-14
 -1      2365 2.02450E+01 8.28260E-02 1.59829E-04-2.48175E-01 1.67660E-14 1.16481E-13
 -1      2366 2.02549E+01 1.25293E-01-9.83121E-04-3.41926E-01-2.62278E-14 1.78012E-13
 -1      2367 2.02171E+01 7.57630E-02 1.92884E-03-2.14254E-01-6.25080E-14 1.76835E-13
 -1      2368 2.01764E+01 6.78553E-02 1.35594E-04-1.86960E-01 5.93385E-14 1.15278E-13
 -1      2369 2.01894E+01 1.05219E-01-8.46441E-04-2.63329E-01-4.19650E-14 2.70527E-13
 -1      2370 2.01547E+01 6.13552E-02 1.59817E-03-1.59180E-01 8.50061E-14-4.90493E-14
 -1      2371 2.01236E+01 5.43911E-02 1.23900E-04-1.37055E-01 1.00795E-14 3.08006E-15
 -1      2372 2.01380E+01 8.58960E-02-7.17164E-04-1.97932E-01-1.29214E-14 2.08946E-13
 -1      2373 2.01070E+01 4.87962E-02 1.28362E-03-1.14776E-01-1.32155E-13 4.98003E-14
 -1      2374 2.00838E+01 4.29915E-02 1.15892E-04-9.71581E-02-8.78002E-14 1.66660E-13
 -1      2375 2.00982E+01 6.87063E-02-5.92445E-04-1.44816E-01-1.48073E-14 9.39057E-14
 -1      2376 2.00711E+01 3.84035E-02 9.97967E-04-7.95733E-02 1.20904E-13 1.70521E-13
 -1      2377 2.00543E+01 3.37864E-02 1.17943E-04-6.57378E-02 1.40285E-13 2.29331E-13
 -1      2378 2.00676E+01 5.42347E-02-4.74950E-04-1.02479E-01 9.43529E-14 4.53287E-13
 -1      2379 2.00445E+01 3.00228E-02 7.14494E-04-5.19966E-02-4.19166E-14 3.73391E-13
 -1      2380 2.00328E+01 2.66028E-02 2.07477E-04-4.13280E-02 4.94320E-14 3.37387E-13
 -1      2381 2.00443E+01 4.26039E-02-3.50015E-04-6.92545E-02 8.98416E-14 2.58510E-13
 -1      2382 1.97368E+01 1.05624E-01 3.46445E-03-1.66991E-01 1.61019E-13 1.17323E-13
 -1      2383 1.97376E+01 1.32254E-01 7.18236E-03-1.06681E-01 2.13441E-13 1.64356E-13
 -1      2384 1.97707E+01 7.51422E-02 3.15973E-03-2.71635E-01 1.42030E-13 5.94009E-14
 -1      2385 1.97317E+01 8.77847E-02 4.05106E-03-2.30052E-01 1.43157E-13 9.20966E-14
 -1      2386 1.98798E+01 1.39824E-01-3.88847E-03-2.05100E-01 1.98078E-13 1.92102E-14
 -1      2387 1.98591E+01 6.39270E-02 3.20107E-03-3.51340E-01 1.67951E-13 2.99223E-14
 -1      2388 1.97910E+01 6.75517E-02 2.28767E-03-3.18062E-01 1.54686E-13 4.99862E-14
 -1      2389 1.98961E+01 1.02476E-01-3.15509E-03-3.27151E-01 1.72485E-13-2.52150E-14
 -1      2390 1.99913E+01 6.58162E-02 3.47008E-03-4.22970E-01 1.24653E-13 3.63246E-14
 -1      2391 1.98996E+01 6.31707E-02 1.29335E-03-3.91125E-01 1.55274E-13 6.48983E-14
 -1      2392 1.99585E+01 9.04539E-02-2.55586E-03-4.23541E-01 1.51316E-13-3.31864E-14
 -1      2393 2.01623E+01 7.70165E-02 3.89713E-03-4.98255E-01 5.92159E-15 7.00193E-14
 -1      2394 2.00487E+01 6.98845E-02 7.43623E-04-4.63060E-01 7.58150E-14 5.73252E-14
 -1      2395 2.00582E+01 9.56903E-02-2.15821E-03-5.12406E-01 8.66938E-14 1.24066E-14
 -1      2396 2.03711E+01 9.45139E-02 4.40887E-03-5.85321E-01 7.00349E-14 3.49516E-14
 -1      2397 2.02351E+01 8.44279E-02 4.65425E-04-5.43522E-01 3.12153E-14 3.52283E-14
 -1      2398 2.01906E+01 1.13008E-01-1.93289E-03-6.06474E-01 5.84867E-14-1.40672E-14
 -1      2399 2.06194E+01 1.14929E-01 4.88616E-03-6.89002E-01 8.78320E-14 3.30893E-15
 -1      2400 2.04592E+01 1.03749E-01 3.56981E-04-6.38886E-01 9.36164E-14 2.57335E-14
 -1      2401 2.03539E+01 1.37990E-01-1.83901E-03-7.14384E-01 1.12319E-13-5.92155E-14
 -1      2402 2.09106E+01 1.33306E-01 5.13296E-03-8.10112E-01 1.12960E-13 4.53953E-15
 -1      2403 2.07237E+01 1.23886E-01 3.58518E-04-7.52037E-01 9.63457E-14-1.06705E-14
 -1      2404 2.05487E+01 1.65355E-01-1.85389E-03-8.40841E-01 1.04076E-13-8.62251E-14
 -1      2405 2.12480E+01 1.41527E-01 4.83884E-03-9.43556E-01 9.80620E-14 1.34766E-15
 -1      2406 2.10330E+01 1.38603E-01 4.50964E-04-8.81105E-01 1.11727E-13 2.28291E-14
 -1      2407 2.07775E+01 1.87150E-01-1.99954E-03-9.85679E-01 1.01170E-13-7.39202E-14
 -1      2408 2.16341E+01 1.26299E-01 3.55174E-03-1.07499E+00 8.41428E-14 2.10034E-14
 -1      2409 2.13918E+01 1.37582E-01 6.71106E-04-1.01689E+00 9.72474E-14 2.64484E-14
 -1      2410 2.10446E+01 1.90421E-01-2.37327E-03-1.14170E+00 9.67483E-14-1.03400E-13
 -1      2411 2.20697E+01 6.73044E-02 6.94970E-04-1.17597E+00-1.09496E-14 1.03665E-14
 -1      2412 2.18051E+01 1.04347E-01 1.13758E-03-1.13867E+00 4.55180E-14 3.45389E-14
 -1      2413 2.13575E+01 1.54497E-01-3.17428E-03-1.29101E+00 6.45432E-14-3.70884E-15
 -1      2414 2.25521E+01-6.24513E-02-4.31409E-03-1.19829E+00-2.58305E-14 2.70628E-14
 -1      2415 2.22771E+01 1.50523E-02 2.05495E-03-1.20858E+00-3.40323E-14 5.39846E-15
 -1      2416 2.17286E+01 4.90872E-02-4.69003E-03-1.39977E+00-2.99140E-14-3.04287E-14
 -1      2417 2.30738E+01-2.88963E-01-1.16973E-02-1.07078E+00-6.73047E-14 1.24881E-13
 -1      2418 2.28095E+01-1.58593E-01 3.58862E-03-1.16590E+00-1.01978E-14 9.13302E-14
 -1      2419 2.21778E+01-1.63100E-01-7.14386E-03-1.41208E+00-7.00944E-14 6.89524E-14
 -1      2420 2.36146E+01-6.12647E-01-2.03898E-02-7.06222E-01-2.13521E-13 2.48851E-13
 -1      2421 2.33953E+01-4.35056E-01 5.50776E-03-9.26360E-01-1.54822E-13 1.98710E-13
 -1      2422 2.27310E+01-5.11011E-01-1.01850E-02-1.24590E+00-1.95477E-13 2.08497E-13
 -1      2423 2.41257E+01-9.58578E-01-2.65803E-02-3.55242E-02-2.70408E-13 2.64326E-13
 -1      2424 2.39992E+01-7.86458E-01 6.29461E-03-3.99718E-01-2.20545E-13 2.74164E-13
 -1      2425 2.34063E+01-9.72486E-01-1.17199E-02-7.99976E-01-2.63088E-13 2.71007E-13
 -1      2426 2.45051E+01-1.11892E+00-2.31294E-02 9.10217E-01-1.13904E-13 2.68087E-13
 -1      2427 2.45244E+01-1.07934E+00 2.44605E-03 4.50162E-01-2.23793E-13 2.57274E-13
 -1      2428 2.41710E+01-1.40084E+00-7.65456E-03 4.97548E-03-2.10218E-13 2.85911E-13
 -1      2429 2.45964E+01-7.79244E-01-6.98500E-03 1.86871E+00 1.32586E-13 3.91018E-13
 -1      2430 2.47871E+01-1.03661E+00-1.18944E-02 1.48118E+00-1.75467E-14 3.58827E-13
 -1      2431 2.48739E+01-1.45975E+00 4.62059E-03 1.11807E+00-8.48098E-14 3.27453E-13
 -1      2432 2.42799E+01 2.23611E-01 8.79840E-03 2.28988E+00 7.07091E-14 5.82193E-13
 -1      2433 2.45962E+01-3.62513E-01-3.85195E-02 2.24547E+00 1.27618E-13 5.26467E-13
 -1      2434 2.52322E+01-7.47419E-01 8.69557E-03 2.18138E+00 1.26227E-14 5.71616E-13
 -1      2435 2.37230E+01 1.50445E+00 6.49576E-03 1.62374E+00 1.80980E-13 4.13670E-13
 -1      2436 2.40066E+01 8.77340E-01-5.51476E-02 2.10088E+00 1.56090E-13 5.32312E-13
 -1      2437 2.50487E+01 7.48549E-01-1.84506E-02 2.47629E+00 1.27412E-13 5.96483E-13
 -1      2438 2.34281E+01 1.99428E+00-3.32012E-02-6.01019E-02 2.05079E-13 1.95340E-13
 -1      2439 2.34467E+01 1.86214E+00-6.34705E-02 7.04621E-01 2.17902E-13 3.51125E-13
 -1      2440 2.45289E+01 2.32601E+00-2.28161E-02 1.41494E+00 3.00100E-13 5.46840E-13
 -1      2441 2.38007E+01 1.30026E+00-4.49746E-02-1.71859E+00 1.97802E-13-2.06762E-14
 -1      2442 2.35787E+01 1.80463E+00 1.01914E-02-1.10462E+00 1.75117E-13 3.36259E-14
 -1      2443 2.45119E+01 2.65272E+00-1.44083E-02-6.84215E-01 3.00149E-13 2.65347E-13
 -1      2444 2.43980E+01 8.05706E-02-4.87726E-02-2.33376E+00 1.86476E-13-1.19347E-13
 -1      2445 2.40758E+01 7.20903E-01 9.79114E-03-2.16996E+00 2.27800E-13-1.39489E-13
 -1      2446 2.48487E+01 1.22537E+00-3.58657E-02-2.16171E+00 2.40813E-13-1.30259E-13
 -1      2447 2.47962E+01-8.65590E-01-1.76952E-02-1.84425E+00 2.76298E-15-1.42796E-13
 -1      2448 2.45432E+01-4.82090E-01 4.04196E-04-2.13412E+00 8.53319E-14-1.56000E-13
 -1      2449 2.52243E+01-2.16686E-01 9.76130E-03-2.44982E+00 1.64375E-13-3.64338E-13
 -1      2450 2.46875E+01-1.11080E+00 1.87172E-03-8.44255E-01 1.74990E-14-3.89960E-15
 -1      2451 2.45928E+01-1.06682E+00-1.99497E-02-1.29102E+00-1.24996E-14-6.69239E-14
 -1      2452 2.50765E+01-1.30753E+00 6.55864E-03-1.55859E+00-4.62079E-14-2.91771E-13
 -1      2453 2.42400E+01-9.03653E-01 7.78374E-03 9.82048E-02 1.67861E-13 5.31606E-14
 -1      2454 2.43093E+01-1.04672E+00-2.63266E-02-2.98284E-01 1.60311E-13 1.25022E-14
 -1      2455 2.44655E+01-1.48538E+00-5.59813E-03-4.07160E-01 5.88154E-14-1.66834E-13
 -1      2456 2.36575E+01-5.51020E-01 6.98327E-03 7.40914E-01 2.45079E-13-8.46610E-14
 -1      2457 2.38410E+01-7.34066E-01-2.21655E-02 4.78852E-01 2.52975E-13 6.11748E-14
 -1      2458 2.37051E+01-1.14174E+00-1.26849E-02 5.22877E-01 1.87041E-13-1.60835E-13
 -1      2459 2.30707E+01-2.38930E-01 4.51268E-03 1.06979E+00 9.39999E-14-2.65760E-13
 -1      2460 2.33151E+01-3.86374E-01-1.38097E-02 9.40614E-01 1.73852E-13-5.95301E-14
 -1      2461 2.29978E+01-6.61586E-01-1.21247E-02 1.08655E+00 2.12818E-13-1.56262E-13
 -1      2462 2.25336E+01-2.66315E-02 2.51718E-03 1.16472E+00-1.46400E-13-2.31003E-13
 -1      2463 2.27978E+01-1.21001E-01-6.09967E-03 1.13318E+00-4.44839E-14-1.84726E-13
 -1      2464 2.24125E+01-2.60405E-01-8.71051E-03 1.33247E+00 1.31117E-14-1.20430E-13
 -1      2465 2.20609E+01 9.27221E-02 1.37897E-03 1.11562E+00-1.49722E-13-1.20782E-13
 -1      2466 2.23183E+01 4.28840E-02-5.96983E-04 1.14339E+00-1.61660E-13-2.25134E-13
 -1      2467 2.19431E+01 3.62297E-03-5.54378E-03 1.36158E+00-1.70569E-13 3.05178E-14
 -1      2468 2.16532E+01 1.45966E-01 8.64442E-04 9.92476E-01 2.84790E-13 2.50733E-15
 -1      2469 2.18882E+01 1.26153E-01 2.71729E-03 1.04985E+00 4.73207E-14-1.74982E-14
 -1      2470 2.15639E+01 1.47545E-01-3.48529E-03 1.26472E+00-7.33261E-14 6.45405E-14
 -1      2471 2.13069E+01 1.58950E-01 6.87541E-04 8.41394E-01 2.56924E-13 1.76678E-13
 -1      2472 2.15121E+01 1.56704E-01 4.35601E-03 9.08974E-01 2.85276E-13 1.29964E-13
 -1      2473 2.12527E+01 2.08358E-01-2.37076E-03 1.10732E+00 2.25452E-13 2.27630E-13
 -1      2474 2.10175E+01 1.50432E-01 6.46451E-04 6.89302E-01 2.57716E-13 1.12990E-13
 -1      2475 2.11907E+01 1.57160E-01 4.87981E-03 7.55957E-01 3.55385E-13 1.36084E-13
 -1      2476 2.09945E+01 2.19439E-01-1.83409E-03 9.30951E-01 3.31226E-13 2.47972E-13
 -1      2477 2.07795E+01 1.32219E-01 6.37198E-04 5.50077E-01 1.68275E-13-2.56051E-14
 -1      2478 2.09217E+01 1.42680E-01 4.74407E-03 6.10260E-01 1.80910E-13 1.84798E-13
 -1      2479 2.07801E+01 2.04456E-01-1.57932E-03 7.59470E-01 2.91433E-13 2.38692E-13
 -1      2480 2.05869E+01 1.11054E-01 6.19091E-04 4.29555E-01-5.88315E-14-3.86984E-14
 -1      2481 2.07011E+01 1.22331E-01 4.26916E-03 4.81105E-01 1.37002E-13-4.26703E-14
 -1      2482 2.06034E+01 1.78124E-01-1.43041E-03 6.04904E-01 1.13507E-13 2.79963E-13
 -1      2483 2.04338E+01 9.04530E-02 5.82968E-04 3.28999E-01-3.01996E-13 2.24092E-14
 -1      2484 2.05236E+01 1.01070E-01 3.65856E-03 3.71635E-01-3.09101E-13-4.90097E-14
 -1      2485 2.04593E+01 1.48772E-01-1.30379E-03 4.72032E-01-1.87979E-13 1.71953E-13
 -1      2486 2.03141E+01 7.20446E-02 5.32431E-04 2.47283E-01-1.55476E-13 7.02705E-14
 -1      2487 2.03834E+01 8.13550E-02 3.03035E-03 2.81675E-01-1.26035E-13 2.96786E-14
 -1      2488 2.03435E+01 1.20701E-01-1.17013E-03 3.61486E-01-1.53384E-13-5.26015E-14
 -1      2489 2.02220E+01 5.64208E-02 4.74648E-04 1.82190E-01-1.55818E-13-1.29055E-13
 -1      2490 2.02745E+01 6.42230E-02 2.44613E-03 2.09415E-01-1.77109E-13-8.86190E-14
 -1      2491 2.02520E+01 9.58588E-02-1.02613E-03 2.71714E-01-1.87245E-13-1.07082E-13
 -1      2492 2.01526E+01 4.36504E-02 4.16611E-04 1.31135E-01 3.57324E-14-6.46073E-14
 -1      2493 2.01915E+01 4.99608E-02 1.93279E-03 1.52385E-01-4.12185E-14-4.42765E-14
 -1      2494 2.01807E+01 7.49134E-02-8.77066E-04 2.00176E-01-9.75298E-14-1.76000E-13
 -1      2495 2.01012E+01 3.35576E-02 3.59626E-04 9.15361E-02 2.76700E-14-1.29451E-13
 -1      2496 2.01294E+01 3.84959E-02 1.49592E-03 1.07974E-01 3.04147E-14-6.68804E-16
 -1      2497 2.01263E+01 5.78936E-02-7.28856E-04 1.44022E-01-3.82290E-14-1.58928E-13
 -1      2498 2.00640E+01 2.58463E-02 3.19315E-04 6.10319E-02 2.49882E-13-1.56283E-13
 -1      2499 2.00839E+01 2.95819E-02 1.13404E-03 7.37019E-02-2.25220E-14-5.71836E-14
 -1      2500 2.00853E+01 4.44955E-02-5.88730E-04 1.00438E-01 5.74907E-14-1.05412E-13
 -1      2501 2.00378E+01 1.99416E-02 2.46864E-04 3.75439E-02 2.72164E-13 1.39180E-13
 -1      2502 2.00512E+01 2.28184E-02 8.26545E-04 4.73116E-02 3.43703E-13 7.06426E-14
 -1      2503 2.00549E+01 3.42753E-02-4.69858E-04 6.69551E-02 1.95440E-13 5.45798E-14
 -1      2504 2.00196E+01 1.51722E-02 1.76190E-04 1.98647E-02-5.61594E-14 3.69080E-13
 -1      2505 2.00285E+01 1.75577E-02 6.07850E-04 2.72427E-02 1.44562E-13 2.80626E-13
 -1      2506 2.00328E+01 2.59386E-02-4.70342E-04 4.11957E-02 1.33766E-13 5.33965E-13
 -1      2507 2.00127E+01 1.21953E-02 3.52063E-04 1.18727E-02 4.65499E-14 3.14880E-13
 -1      2508 1.99919E+01 8.61777E-02-4.60922E-04 3.85864E-02-4.76648E-14-5.57233E-13
 -1      2509 1.99965E+01 7.85407E-02 1.99157E-04 4.09171E-02-1.79655E-13-8.44878E-13
 -1      2510 1.99844E+01 1.00971E-01-4.65052E-04 2.83494E-02 1.27621E-13-2.38824E-13
 -1      2511 1.99880E+01 9.52282E-02 3.49491E-05 3.35780E-02 4.19513E-14-1.16517E-13
 -1      2512 1.99868E+01 1.02144E-01 3.47192E-04 4.30909E-02 1.38241E-13-3.47472E-13
 -1      2513 2.00098E+01 4.73843E-02-2.75308E-04 3.83619E-02-2.21154E-13-8.53579E-15
 -1      2514 2.00137E+01 3.91918E-02 3.51089E-04 3.46618E-02-1.92506E-13 4.92857E-13
 -1      2515 2.00010E+01 6.74753E-02-3.90357E-04 4.21246E-02-3.89543E-13-6.37613E-13
 -1      2516 2.00058E+01 5.91358E-02 3.25154E-04 4.12064E-02-3.44213E-13-3.28408E-13
 -1      2517 2.00104E+01 6.07166E-02 1.73696E-04 4.87920E-02-3.68424E-13-2.97757E-13
 -1      2518 1.99983E+01 8.27406E-02 2.08832E-04 5.00707E-02-1.23514E-13-5.85721E-13
 -1      2519 1.99799E+01 1.09836E-01-4.04241E-04 1.32696E-02-1.07860E-13-1.24773E-13
 -1      2520 1.99818E+01 1.06782E-01-1.44236E-04 2.04302E-02 9.83305E-14-3.33184E-13
 -1      2521 1.99779E+01 1.16449E-01 4.48364E-04 2.89361E-02 1.39472E-13-4.26357E-13
 -1      2522 1.99791E+01 1.11643E-01-2.88041E-04-4.01288E-03-3.23367E-13-9.74552E-14
 -1      2523 1.99790E+01 1.11711E-01-3.01463E-04 3.80425E-03-3.26153E-13-8.60985E-15
 -1      2524 1.99732E+01 1.23836E-01 4.97305E-04 1.00374E-02-6.20898E-14-2.09798E-13
 -1      2525 1.99820E+01 1.06199E-01-1.35299E-04-2.05374E-02-3.15421E-13 8.54472E-14
 -1      2526 1.99800E+01 1.09382E-01-4.10235E-04-1.34344E-02-3.08680E-13 1.32765E-13
 -1      2527 1.99732E+01 1.23447E-01 4.88779E-04-1.04520E-02-1.41343E-13 1.24676E-14
 -1      2528 1.99880E+01 9.45520E-02 3.92900E-05-3.33167E-02 5.74341E-15 2.03119E-13
 -1      2529 1.99845E+01 1.00229E-01-4.62995E-04-2.82232E-02-1.54300E-13-4.63857E-14
 -1      2530 1.99781E+01 1.15486E-01 4.35007E-04-2.90267E-02-2.96223E-13 1.61438E-13
 -1      2531 1.99964E+01 7.78185E-02 1.91855E-04-4.05918E-02-3.30294E-14 1.91083E-13
 -1      2532 1.99918E+01 8.54404E-02-4.51409E-04-3.82531E-02 1.60249E-14 6.52632E-14
 -1      2533 1.99868E+01 1.00946E-01 3.19124E-04-4.28263E-02 2.66718E-14 7.35474E-14
 -1      2534 2.00055E+01 5.81945E-02 2.65702E-04-4.08592E-02-2.47156E-14 1.77418E-13
 -1      2535 2.00009E+01 6.67923E-02-3.49522E-04-4.18363E-02-1.03453E-13 3.85565E-13
 -1      2536 1.99980E+01 8.14926E-02 1.78256E-04-4.96645E-02-4.89478E-14 2.37526E-13
 -1      2537 2.00133E+01 3.83040E-02 2.92133E-04-3.43176E-02-1.52029E-13 4.81242E-14
 -1      2538 2.00096E+01 4.67789E-02-2.01261E-04-3.82660E-02-5.27766E-14 7.39193E-14
 -1      2539 2.00094E+01 5.93425E-02-8.01261E-05-4.84094E-02-1.03666E-13 1.88450E-13
 -1      2540 1.73171E+01-5.48849E+00-2.63580E-02 6.70413E+00-1.68976E-13-1.54630E-13
 -1      2541 1.30514E+01-5.23195E+00 4.09588E-02 6.54324E+00-2.59737E-13-2.02199E-14
 -1      2542 2.00131E+01 2.02437E-02 3.28709E-04-1.89621E-02 1.02272E-13-1.94849E-14
 -1      2543 3.38269E+00-2.65494E+00 8.61166E-02-1.42797E+00 1.28265E-13 7.56117E-13
 -1      2544 4.83061E+00-3.03425E+00 6.51540E-02-3.94685E+00 1.11411E-13 8.84459E-13
 -1      2545 1.97750E+01 1.67135E-01 4.31615E-03-1.20657E-02 2.66488E-13 1.75771E-13
 -1      2546 1.98341E+01 2.17826E-01 1.25667E-02 8.43032E-02 3.12631E-13 2.31407E-13
 -1      2547 1.99226E+01 2.17326E-01-4.44369E-03-3.08922E-02 2.72649E-13 6.79326E-14
 -1      2548 4.18073E+00-3.02052E+00 7.17224E-02 2.96992E+00-1.66755E-13 9.58733E-13
 -1      2549 3.40391E+00-2.54467E+00 9.31985E-02 1.04419E+00-1.46324E-13 8.49931E-13
 -1      2550 1.40951E+01-5.15670E+00 5.53636E-02-6.83369E+00 3.54689E-13 5.04347E-13
 -1      2551 1.82394E+01-5.26869E+00-2.55351E-02-6.79919E+00 2.99205E-13 5.36685E-13
 -1      2552 2.45573E+01-4.85723E+00-6.41966E-02 4.68981E+00-8.27394E-14-1.74250E-13
 -1      2553 2.11759E+01-5.45548E+00 7.02053E-03 5.51059E+00-9.02056E-14-2.44721E-13
 -1      2554 9.07314E+00-4.22958E+00 2.98750E-02 6.15312E+00-2.60930E-13 1.87822E-13
 -1      2555 6.02849E+00-3.73708E+00 5.67395E-02 4.53617E+00-2.90101E-13 6.68687E-13
 -1      2556 7.15981E+00-2.30422E+00 1.60658E-01 3.93576E+00-3.12167E-13 6.81843E-13
 -1      2557 3.20312E+01 7.47117E+00-1.27275E-01 1.37351E-01-1.45223E-12-1.97162E-13
 -1      2558 3.17205E+01 7.27441E+00-1.36476E-01-4.44045E-01-1.50874E-12-8.55011E-14
 -1      2559 3.25502E+01 5.58417E+00-1.22827E-01-1.36809E+00 7.86426E-13-5.75956E-13
 -1      2560 3.28995E+01 4.05398E+00-4.55620E-02-1.15589E+00 6.78790E-13-6.37573E-13
 -1      2561 3.10364E+01 2.35448E+00-1.51062E-02-1.70616E+00 4.75120E-13-5.85448E-13
 -1      2562 1.95201E+01 3.63932E+00-1.01590E-02-2.34961E-01-2.78694E-15-7.00988E-13
 -1      2563 1.95377E+01 3.61705E+00-9.52495E-03-4.09676E-01-6.89083E-14-7.10222E-13
 -1      2564 1.97102E+01 3.22603E+00-2.46548E-04-4.50966E-01-9.53352E-14-6.48980E-13
 -1      2565 1.96725E+01 3.29118E+00-5.11737E-04-1.44384E-01 1.94779E-14-6.42572E-13
 -1      2566 3.25996E+01 7.23729E+00-7.84445E-02 3.22930E-01 8.20566E-13-1.69254E-13
 -1      2567 3.23841E+01 6.94991E+00-1.23067E-01-4.84266E-01 7.94476E-13-4.19081E-13
 -1      2568 1.37206E+01-5.36225E+00 2.03541E-02-6.54959E+00-4.62685E-13-7.13526E-13
 -1      2569 1.76513E+01-5.52402E+00-3.98714E-02-6.66683E+00-3.85525E-13-5.09884E-13
 -1      2570 3.26408E+01 5.14163E+00-1.11685E-01 1.29062E+00 9.41081E-13-9.65894E-15
 -1      2571 3.24144E+01 6.26703E+00-2.05753E-01 9.01336E-01 8.87512E-13-1.23679E-13
 -1      2572 3.14483E+01 9.11168E-01-7.71749E-02 5.71509E-01 5.50449E-13 2.00673E-13
 -1      2573 3.27237E+01 3.29407E+00-1.20182E-01 1.03334E+00 8.11740E-13 1.05943E-13
 -1      2574 2.86010E+01-3.13298E+00 1.26290E-03-1.77045E+00 2.09610E-13 1.57319E-13
 -1      2575 3.02374E+01-1.75488E+00-1.50486E-01-7.85926E-01 3.75264E-13 2.33202E-13
 -1      2576 2.75936E+01-2.77330E+00-2.05782E-02-2.84629E+00-1.49464E-14 1.52378E-13
 -1      2577 2.98818E+01-1.08782E+00-1.36491E-01-1.52233E+00-2.86055E-13-9.47853E-14
 -1      2578 2.19340E+01-5.45099E+00 3.43932E-02-5.23277E+00-3.05173E-13-3.16080E-13
 -1      2579 2.58283E+01-4.67692E+00-1.00646E-01-3.90839E+00-5.59552E-14-1.37057E-13
 -1      2580 7.78883E+00-3.94980E+00 8.76299E-02-5.44894E+00-3.88856E-13-9.70890E-13
 -1      2581 1.05783E+01-4.65599E+00 5.04194E-02-6.51495E+00-3.69427E-13-8.60201E-13
 -1      2582 1.39491E+01-4.57036E+00 9.79175E-02-6.43542E+00-6.13981E-13-6.38073E-13
 -1      2583 3.36353E+00-2.94421E+00 7.10645E-02-1.54006E+00-6.61624E-14-1.22286E-12
 -1      2584 4.84256E+00-3.15427E+00 6.14121E-02-3.63926E+00-1.83770E-13-1.13376E-12
 -1      2585 3.60260E+00-3.12707E+00 4.91783E-02 2.80990E+00 8.26977E-14-1.13615E-12
 -1      2586 2.98986E+00-2.81748E+00 6.79210E-02 6.19584E-01 1.14509E-13-1.24545E-12
 -1      2587 8.38329E+00-4.15659E+00 3.42900E-02 6.20436E+00 1.15186E-13-1.03817E-12
 -1      2588 5.66422E+00-3.63351E+00 6.06973E-02 4.62406E+00 1.84464E-13-1.03445E-12
 -1      2589 1.52561E+01-5.20238E+00-1.41994E-02 7.12761E+00 2.66454E-14-6.88449E-13
 -1      2590 1.16186E+01-5.06118E+00 2.56575E-02 6.71537E+00 1.17850E-13-8.84487E-13
 -1      2591 2.29101E+01-4.77466E+00-5.36066E-02 5.55179E+00-2.05669E-13-5.32435E-13
 -1      2592 1.92586E+01-5.34392E+00 1.54689E-02 6.20856E+00-1.62093E-14-6.76265E-13
 -1      2593 2.84005E+01-2.55608E+00-1.25221E-01 2.47460E+00-3.91479E-13-1.14242E-13
 -1      2594 2.58824E+01-3.87374E+00-4.34868E-03 3.75272E+00-3.14471E-13-2.34118E-13
 -1      2595 3.14531E+01 1.86940E+00-1.51400E-01-2.18330E-01-8.36359E-13 1.25261E-13
 -1      2596 3.01730E+01-1.75455E-01-3.40391E-02 6.43819E-01-6.19865E-13 2.05946E-14
 -1      2597 3.18670E+01 5.85490E+00-1.74594E-01-9.57100E-01-1.28886E-12 1.07664E-13
 -1      2598 3.17707E+01 4.27841E+00-8.30426E-02-9.33551E-01-1.10328E-12 9.74776E-14
 -1      2599 3.22776E+01 5.74807E+00-9.43372E-02 8.84494E-01-1.27948E-12-3.00981E-13
 -1      2600 3.21804E+01 6.75154E+00-1.68033E-01 7.06065E-01-1.31078E-12-3.62682E-13
 -1      2601 3.12541E+01 1.75535E+00-3.67257E-02 6.48238E-02-7.19036E-13-2.77167E-13
 -1      2602 3.23515E+01 3.84322E+00-1.29111E-01 5.85449E-01-1.08114E-12-2.97568E-13
 -1      2603 2.20090E+01-4.98844E+00 6.85151E-03-5.40245E+00 2.69729E-13 4.91274E-13
 -1      2604 2.51688E+01-4.14032E+00-5.79912E-02-4.59071E+00 1.49269E-13 4.30045E-13
 -1      2605 7.46933E+00-3.77208E+00 8.76753E-02-5.51501E+00 3.68261E-13 1.02979E-12
 -1      2606 1.01577E+01-4.30251E+00 1.84020E-02-6.69214E+00 3.99458E-13 8.87096E-13
 -1      2607 2.05522E+01 1.96061E+00-1.33842E-02-1.86390E+00-5.64111E-13-1.38490E-13
 -1      2608 2.04207E+01 1.22361E+00-6.88453E-03-1.24936E+00-5.10156E-13-8.92263E-14
 -1      2609 2.03971E+01 1.39513E+00 6.62316E-03-1.19090E+00-4.66044E-13-2.21339E-13
 -1      2610 2.03003E+01 2.39358E+00-4.97293E-03-1.80482E+00-5.52700E-13-2.97835E-13
 -1      2611 2.04903E+01 8.79140E-01-6.82845E-03 1.19749E+00 5.42889E-13 4.67122E-13
 -1      2612 2.08329E+01 1.25857E+00-5.87784E-03 1.69999E+00 5.80834E-13 5.52986E-13
 -1      2613 2.06451E+01 1.71766E+00-1.57930E-02 1.89090E+00 6.24738E-13 3.31700E-13
 -1      2614 2.04587E+01 1.06634E+00-9.56355E-03 1.20328E+00 5.63842E-13 2.18110E-13
 -1      2615 2.98103E+01-2.21033E+00-8.68168E-02 1.82143E+00 2.39725E-13-5.20084E-13
 -1      2616 2.74139E+01-3.66377E+00-2.52570E-02 2.78487E+00 3.53190E-14-3.66651E-13
 -1      2617 2.89358E+01 5.74031E+00-2.05333E-01-9.75031E-01 6.67189E-13 4.14876E-14
 -1      2618 3.11205E+01 5.66398E+00-1.76974E-01-1.24891E+00 7.33053E-13-2.84175E-13
 -1      2619 2.94163E+01 4.58343E+00-1.04657E-01-2.05757E+00 6.79068E-13-2.25348E-13
 -1      2620 1.99241E+01 2.85612E+00 2.61460E-03-1.05652E+00-3.28121E-13-6.03264E-13
 -1      2621 1.97965E+01 3.18880E+00-1.47972E-02-1.24626E+00-3.54534E-13-6.45361E-13
 -1      2622 1.98923E+01 3.06114E+00-1.71828E-02-1.44321E+00-4.32617E-13-6.04623E-13
 -1      2623 2.00396E+01 3.65424E-01-4.04525E-03 2.35459E-01 3.77442E-13 1.06751E-13
 -1      2624 2.04294E+01 2.12100E+00-1.26638E-02 1.84063E+00 6.20541E-13 7.44110E-14
 -1      2625 3.00724E+01-1.58813E+00-5.48705E-03-1.13072E-01 1.35936E-13-7.04714E-13
 -1      2626 2.12368E+01-5.27998E+00 7.04058E-02-5.65469E+00 5.38292E-13 4.33667E-13
 -1      2627 2.99030E+01-1.72446E-01-1.19328E-02 1.68784E-01-3.10280E-13-4.69236E-13
 -1      2628 3.04910E+01 4.29728E+00-6.00132E-02 1.41961E+00-1.06123E-12-5.24802E-13
 -1      2629 2.99410E+01 6.18226E+00-9.00480E-02-1.02818E+00-1.26654E-12 1.45162E-13
 -1      2630 7.67530E+00-2.45562E+00 1.65330E-01-4.63348E+00 3.90660E-13 8.13849E-13
 -1      2631 3.01958E+01 2.56194E+00-5.95689E-02-1.34511E+00-8.10435E-13 4.15140E-13
 -1      2632 2.00168E+01 1.95591E-02 5.13329E-06 2.17114E-02-7.36133E-14 7.28983E-13
 -1      2633 2.00172E+01 2.60992E-02 4.13959E-05 2.72221E-02-4.35458E-14 8.25443E-13
 -1      2634 2.89174E+01-1.87417E+00-3.29077E-05 6.96464E-01-2.64601E-13 2.53547E-13
 -1      2635 1.28347E+01-4.24403E+00 1.28918E-01 6.25214E+00-3.99208E-13-2.79082E-14
 -1      2636 2.03652E+01-5.50057E+00 8.78665E-02 5.73764E+00-3.68955E-13-2.39215E-13
 -1      2637 2.00203E+01 2.14146E-02 3.04783E-04-2.60746E-02 1.33946E-13 1.80686E-13
 -1      2638 2.00164E+01 2.95002E-02-2.51803E-04-3.09135E-02-4.04285E-14 6.29979E-14
 -1      2639 2.00203E+01 4.01834E-02 2.37391E-04-4.23852E-02-1.31896E-13 2.29993E-13
 -1      2640 2.00278E+01 2.43686E-02 5.96359E-04-3.36931E-02 3.71876E-14 3.63230E-13
 -1      2641 2.49632E+01-4.73504E+00 5.37360E-02 3.98351E+00 2.08444E-14-7.58282E-14
 -1      2642 5.15563E+00-1.54259E+00 1.76496E-01-2.76017E-01-2.73705E-14 7.52620E-13
 -1      2643 2.04474E+01 1.81996E+00 1.24821E-02 1.52269E+00 5.84135E-13 1.15689E-14
 -1      2644 1.85665E+01-5.25498E+00 8.15879E-02 6.40003E+00 2.16799E-13-5.79946E-13
 -1      2645 1.16510E+01-3.97411E+00 1.24270E-01 6.41000E+00 3.21576E-13-9.15185E-13
 -1      2646 2.01272E+01 2.63464E+00-1.17852E-02-1.63959E+00-4.89664E-13-4.39725E-13
 -1      2647 2.99607E+01 6.76726E+00-8.47000E-02 6.32294E-01-1.29294E-12-3.35065E-13
 -1      2648 6.52269E+00-2.32237E+00 1.50191E-01 3.87200E+00 2.45942E-13-1.03983E-12
 -1      2649 7.47785E+00-2.97638E+00 1.29547E-01-4.63833E+00-3.40838E-13-9.22623E-13
 -1      2650 1.02093E+01-2.78592E+00 8.14931E-02-5.36589E+00-5.47964E-13-7.20368E-13
 -1      2651 7.58955E+00-1.72751E+00 1.70621E-01-3.79522E+00-2.77264E-13-8.41133E-13
 -1      2652 2.09604E+01-5.46789E+00 7.77934E-02-5.51332E+00-5.39291E-13-3.37647E-13
 -1      2653 2.67831E+01-3.94854E+00 4.35671E-02-2.77432E+00 3.14873E-13-4.35207E-14
 -1      2654 2.71436E+01-4.36131E+00 2.51520E-02-2.24512E+00-1.67699E-13 2.48246E-13
 -1      2655 3.03401E+01-6.14610E-01-1.59513E-02 8.95652E-01 2.65996E-13 4.92106E-13
 -1      2656 3.09600E+01 3.62849E+00-2.30771E-02 1.85126E+00 6.46871E-13 2.61263E-13
 -1      2657 2.65012E+01-4.62127E+00 3.98713E-02 2.96338E+00-1.61413E-13-3.89577E-13
 -1      2658 1.38721E+01-4.36237E+00 1.24508E-01-6.61168E+00 5.52336E-13 5.64118E-13
 -1      2659 3.04925E+01 6.46600E+00-4.64767E-02 9.61939E-01 7.70550E-13-4.52555E-14
 -1      2660 4.74338E+00-1.79319E+00 1.51387E-01-4.16270E-01-2.62498E-14-1.23579E-12
 -1      2661 2.00211E+01 3.63655E-02 2.47146E-04 3.86327E-02-2.01319E-13 6.00516E-13
 -1      2662 2.00291E+01 3.37796E-02-4.37367E-04-4.67072E-02-4.31813E-14 4.65228E-13
 -1      2663 1.98385E+01 2.83857E+00-6.24240E-03 4.86017E-01 2.60962E-13-5.52183E-13
 -1      2664 1.98102E+01 2.89156E+00-5.98163E-03 3.42354E-01 2.02978E-13-5.88175E-13
 -1      2665 1.97909E+01 2.93264E+00-5.66965E-03 2.16338E-01 1.60672E-13-6.08791E-13
 -1      2666 1.97809E+01 2.95073E+00-5.60230E-03 7.00173E-02 9.90603E-14-6.01009E-13
 -1      2667 1.99319E+01 2.59474E+00 4.11484E-03 2.44465E-01 1.69234E-13-5.54532E-13
 -1      2668 2.00558E+01 2.37060E+00-1.04448E-02 9.95153E-01 4.58770E-13-3.89893E-13
 -1      2669 1.99869E+01 2.52563E+00-6.71811E-03 8.62347E-01 4.07643E-13-4.35720E-13
 -1      2670 2.02343E+01 1.93902E+00-1.17142E-02 1.17583E+00 5.17727E-13-2.52271E-13
 -1      2671 2.01398E+01 2.18304E+00-5.18409E-03 1.08209E+00 4.80218E-13-3.22524E-13
 -1      2672 2.02021E+01 1.93775E+00 6.59466E-03 8.68147E-01 4.21967E-13-3.22360E-13
 -1      2673 2.02434E+01 7.54122E-01-2.79401E-03 5.82370E-01 4.51528E-13 3.11047E-15
 -1      2674 2.03759E+01 9.73035E-01 9.18860E-03 8.54289E-01 4.71568E-13 1.95495E-14
 -1      2675 2.06457E+01-5.27747E+00-4.28632E-02 5.68072E+00 3.28793E-13-3.79424E-13
 -1      2676 1.73941E+01-4.74686E+00 1.16975E-01 6.31889E+00 4.61020E-13-5.42247E-13
 -1      2677 2.01191E+01 4.56452E-01-7.46109E-04 2.04160E-01 3.46783E-13 4.79017E-15
 -1      2678 2.02073E+01 5.87507E-01 1.03748E-02 3.79255E-01 4.08788E-13 3.09051E-14
 -1      2679 2.02838E+01 8.60786E-01 3.97713E-04 5.44331E-01 4.29390E-13-9.37450E-14
 -1      2680 2.03548E+01 1.51685E+00-1.58858E-03 1.22234E+00 5.38104E-13-3.22238E-14
 -1      2681 1.99523E+01-4.99885E+00 1.13328E-01-5.69020E+00 6.40377E-13 4.76525E-13
 -1      2682 2.28639E+01-5.22956E+00-8.13719E-02-4.64207E+00 5.19876E-13 1.88370E-13
 -1      2683 2.02500E+01 6.71670E-01 8.00800E-03-3.54933E-01-3.33351E-13-2.34509E-13
 -1      2684 2.01776E+01 5.28630E-01-2.62741E-03-1.82855E-01-3.09533E-13-2.29707E-13
 -1      2685 2.01559E+01 4.25026E-01 6.29347E-03-4.63089E-02-2.95017E-13-1.91257E-13
 -1      2686 2.01117E+01 3.40684E-01-7.95074E-04 6.98187E-02-2.55439E-13-2.20291E-13
 -1      2687 2.02308E+01 6.00527E-01-1.96744E-03-1.50215E-01-3.00807E-13-2.44530E-13
 -1      2688 2.00914E+01 2.80664E-01 4.12666E-03 1.67307E-01-2.16303E-13-2.03084E-13
 -1      2689 2.00752E+01 2.33090E-01 3.71269E-04 2.47837E-01-1.91013E-13-1.97868E-13
 -1      2690 2.01742E+01 3.95171E-01-2.35137E-03 9.63278E-02-2.41982E-13-1.88890E-13
 -1      2691 2.00617E+01 2.00593E-01 2.43161E-03 3.19538E-01-1.64653E-13-1.81059E-13
 -1      2692 2.00685E+01 1.76759E-01 1.14924E-03 3.79169E-01-1.33743E-13-1.99850E-13
 -1      2693 2.01333E+01 2.77007E-01-2.19564E-03 2.75685E-01-1.79080E-13-2.12475E-13
 -1      2694 2.00630E+01 1.62044E-01 1.19396E-03 4.35961E-01-1.14543E-13-1.77813E-13
 -1      2695 2.00885E+01 1.53668E-01 1.68548E-03 4.84855E-01-1.00169E-13-1.62085E-13
 -1      2696 2.01119E+01 2.15978E-01-1.86780E-03 4.12138E-01-1.26408E-13-1.90027E-13
 -1      2697 2.00908E+01 1.50222E-01 3.44049E-04 5.34809E-01-7.62119E-14-1.44515E-13
 -1      2698 2.01318E+01 1.51252E-01 2.05832E-03 5.79671E-01-9.11014E-14-1.18017E-13
 -1      2699 2.01092E+01 1.92256E-01-1.54785E-03 5.25204E-01-6.38514E-14-1.43620E-13
 -1      2700 2.01419E+01 1.53921E-01-1.80618E-04 6.28278E-01-1.21386E-13-7.51304E-14
 -1      2701 2.01965E+01 1.59076E-01 2.29267E-03 6.73002E-01-1.13082E-13-4.40864E-14
 -1      2702 2.01237E+01 1.91221E-01-1.32008E-03 6.28956E-01-7.73638E-14-6.40340E-14
 -1      2703 2.02149E+01 1.62883E-01-3.99584E-04 7.23370E-01-1.34009E-13-3.93619E-14
 -1      2704 2.02824E+01 1.66610E-01 2.37247E-03 7.69217E-01-1.04054E-13-1.27830E-14
 -1      2705 2.01550E+01 2.00137E-01-1.23339E-03 7.32469E-01-1.16459E-13-2.77411E-14
 -1      2706 2.03111E+01 1.65911E-01-2.85812E-04 8.22012E-01-8.52785E-14 1.39990E-14
 -1      2707 2.03919E+01 1.61585E-01 2.24851E-03 8.67430E-01-8.87940E-14-1.96276E-14
 -1      2708 2.02046E+01 2.05738E-01-1.34401E-03 8.39981E-01-1.01658E-13-2.69507E-14
 -1      2709 2.04351E+01 1.49414E-01 2.37696E-04 9.20557E-01-1.12483E-13-4.92805E-15
 -1      2710 2.05305E+01 1.28746E-01 1.83755E-03 9.60705E-01-5.40436E-14-4.52235E-14
 -1      2711 2.02772E+01 1.92368E-01-1.74236E-03 9.50594E-01-9.90003E-14-1.73776E-14
 -1      2712 2.05953E+01 9.64479E-02 1.29684E-03 1.00867E+00-4.27983E-14-3.06854E-14
 -1      2713 2.07078E+01 4.93503E-02 1.01320E-03 1.03476E+00-7.70594E-14-3.75599E-14
 -1      2714 2.03822E+01 1.40652E-01-2.56570E-03 1.05747E+00-4.96466E-14 7.46767E-14
 -1      2715 2.08052E+01-1.30728E-02 3.04220E-03 1.06770E+00-7.48562E-14-2.01884E-14
 -1      2716 2.09381E+01-9.75135E-02-4.13276E-04 1.06632E+00-7.27989E-14 1.61975E-14
 -1      2717 2.05356E+01 2.72276E-02-3.98230E-03 1.14634E+00-7.47063E-14 9.63411E-14
 -1      2718 2.10836E+01-1.99458E-01 5.56625E-03 1.06859E+00-8.04973E-14 3.11592E-15
 -1      2719 2.12400E+01-3.29626E-01-2.70978E-03 1.02157E+00-5.43778E-14 1.19716E-14
 -1      2720 2.07613E+01-1.72966E-01-6.12478E-03 1.19326E+00-7.27150E-14 6.93193E-14
 -1      2721 2.14519E+01-4.74834E-01 8.69191E-03 9.70313E-01 2.15914E-14 2.36446E-14
 -1      2722 2.16314E+01-6.48868E-01-6.14548E-03 8.56044E-01 4.26188E-14 1.48225E-14
 -1      2723 2.10912E+01-4.78919E-01-8.90716E-03 1.16151E+00 3.96086E-15 1.11987E-13
 -1      2724 2.19241E+01-8.25350E-01 1.15822E-02 7.21120E-01 9.11549E-14 8.48324E-14
 -1      2725 2.21173E+01-1.01716E+00-1.05320E-02 5.19840E-01 1.31937E-13 1.17473E-13
 -1      2726 2.15588E+01-8.85599E-01-1.16306E-02 9.98852E-01 9.70309E-14 1.57290E-13
 -1      2727 2.24858E+01-1.18167E+00 1.22848E-02 2.69764E-01 8.91047E-14 1.56081E-13
 -1      2728 2.26666E+01-1.32236E+00-1.40236E-02-2.34772E-02 1.17372E-13 1.77753E-13
 -1      2729 2.21809E+01-1.33114E+00-1.23539E-02 6.40422E-01 1.32612E-13 2.05969E-13
 -1      2730 2.30605E+01-1.38526E+00 7.65420E-03-3.99588E-01 1.48371E-13 1.84292E-13
 -1      2731 2.31853E+01-1.35468E+00-1.23653E-02-7.49894E-01 1.33335E-13 1.62692E-13
 -1      2732 2.29203E+01-1.65261E+00-7.59694E-03 3.14440E-02 1.11233E-13 2.74018E-13
 -1      2733 2.34879E+01-1.18857E+00-6.87801E-03-1.19280E+00 1.54642E-13 1.83658E-13
 -1      2734 2.35077E+01-8.60776E-01-5.59943E-03-1.49213E+00 9.86380E-14 1.47489E-13
 -1      2735 2.36361E+01-1.56316E+00 4.65775E-03-8.05582E-01 1.38682E-13 3.29822E-13
 -1      2736 2.35835E+01-3.62623E-01-2.82677E-02-1.83429E+00 6.80645E-14 1.72370E-13
 -1      2737 2.34881E+01 2.86055E-01 1.07822E-02-1.90205E+00 3.30048E-14 1.69682E-13
 -1      2738 2.40903E+01-7.90707E-01 6.62405E-03-1.65848E+00 1.15410E-13 3.06762E-13
 -1      2739 2.32961E+01 9.68491E-01-4.81850E-02-1.83485E+00-1.54905E-13 9.47662E-14
 -1      2740 2.31705E+01 1.67744E+00 1.35192E-02-1.54897E+00-3.11372E-13 1.21089E-14
 -1      2741 2.40533E+01 7.93739E-01 1.71878E-05-2.04469E+00-1.18119E-13 2.93312E-13
 -1      2742 2.29332E+01 2.21420E+00-4.14756E-02-9.77573E-01-3.97168E-13-1.33837E-13
 -1      2743 2.28345E+01 2.51726E+00-2.79297E-02-3.96726E-01-4.75210E-13-2.02666E-13
 -1      2744 2.37466E+01 2.38164E+00-7.71092E-03-1.43302E+00-4.51215E-13 7.65256E-14
 -1      2745 2.28914E+01 2.52832E+00-2.15901E-03 4.61529E-01-5.35023E-13-3.21698E-13
 -1      2746 2.29503E+01 2.17815E+00-3.82240E-02 1.04049E+00-4.73118E-13-3.67813E-13
 -1      2747 2.34830E+01 3.10581E+00-1.31648E-02 6.49272E-02-5.89365E-13-2.25296E-13
 -1      2748 2.31889E+01 1.62965E+00 1.40234E-02 1.59169E+00-2.96896E-13-4.23878E-13
 -1      2749 2.33179E+01 9.19344E-01-4.67681E-02 1.86907E+00-1.53688E-13-4.83758E-13
 -1      2750 2.37464E+01 2.33401E+00-1.04797E-02 1.47392E+00-4.13669E-13-3.35578E-13
 -1      2751 2.35055E+01 2.23368E-01 9.78134E-03 1.90935E+00-8.86713E-14-5.39215E-13
 -1      2752 2.35890E+01-4.13635E-01-2.99377E-02 1.82052E+00-9.49823E-14-6.03408E-13
 -1      2753 2.40715E+01 6.72636E-01 2.32452E-03 2.03281E+00-1.84058E-13-5.77715E-13
 -1      2754 2.35105E+01-8.81894E-01-4.60951E-03 1.48285E+00-4.85206E-14-4.99439E-13
 -1      2755 2.34823E+01-1.19809E+00-8.04097E-03 1.17860E+00 5.50117E-14-4.49617E-13
 -1      2756 2.40751E+01-8.21275E-01 7.11510E-03 1.63555E+00-7.72013E-14-5.59842E-13
 -1      2757 2.31765E+01-1.34827E+00-1.29382E-02 7.39456E-01-3.65586E-14-3.53294E-13
 -1      2758 2.30506E+01-1.36790E+00 7.78883E-03 3.93791E-01-1.39501E-13-3.55135E-13
 -1      2759 2.36168E+01-1.56453E+00 2.97338E-03 7.92781E-01 8.30737E-15-2.70464E-13
 -1      2760 2.26579E+01-1.29663E+00-1.37164E-02 2.70223E-02-1.13161E-13-2.84421E-13
 -1      2761 2.24790E+01-1.15027E+00 1.26929E-02-2.58438E-01-5.82390E-15-1.40887E-13
 -1      2762 2.28973E+01-1.62470E+00-7.41291E-03-3.27114E-02-4.61141E-14-2.01826E-13
 -1      2763 2.21145E+01-9.81647E-01-1.00970E-02-4.98119E-01-1.21713E-14-1.37145E-13
 -1      2764 2.19258E+01-7.87276E-01 1.19571E-02-6.90093E-01 3.68493E-15-4.36889E-14
 -1      2765 2.21639E+01-1.28912E+00-1.15743E-02-6.20647E-01 5.24534E-14 7.95077E-14
 -1      2766 2.16376E+01-6.08839E-01-5.92533E-03-8.14440E-01 1.84807E-14 2.16389E-14
 -1      2767 2.14643E+01-4.33556E-01 8.94368E-03-9.18593E-01 8.84831E-14 1.47902E-14
 -1      2768 2.15504E+01-8.37371E-01-1.10408E-02-9.58218E-01 6.29435E-14 1.69502E-13
 -1      2769 2.12569E+01-2.87486E-01-2.67076E-03-9.59186E-01 1.00457E-13 4.99856E-14
 -1      2770 2.11081E+01-1.56505E-01 5.78150E-03-9.95767E-01 1.93546E-13 5.35173E-14
 -1      2771 2.10920E+01-4.27601E-01-8.50663E-03-1.09945E+00 9.07946E-14 2.38548E-13
 -1      2772 2.09663E+01-5.38191E-02-5.09111E-04-9.82841E-01 1.27993E-13 6.34969E-14
 -1      2773 2.08420E+01 3.16186E-02 3.29856E-03-9.73431E-01 1.27781E-13 7.98317E-14
 -1      2774 2.07707E+01-1.19969E-01-5.87326E-03-1.10992E+00 1.50711E-13 3.98275E-13
 -1      2775 2.07473E+01 9.48769E-02 8.43321E-04-9.29584E-01 1.20219E-13-3.28329E-14
 -1      2776 2.06443E+01 1.43065E-01 1.58087E-03-8.92388E-01 2.46771E-14 1.58111E-14
 -1      2777 2.05519E+01 8.21520E-02-3.78507E-03-1.04143E+00 3.07848E-14 2.74612E-13
 -1      2778 2.05813E+01 1.76042E-01 1.61813E-03-8.33293E-01-2.59057E-15-2.71352E-14
 -1      2779 2.04960E+01 1.97406E-01 4.99301E-04-7.81949E-01 4.63117E-14 1.47803E-14
 -1      2780 2.04037E+01 1.97544E-01-2.36092E-03-9.30534E-01-5.26615E-14 1.14152E-13
 -1      2781 2.04534E+01 2.09522E-01 1.99585E-03-7.17915E-01 7.90244E-14-3.32572E-14
 -1      2782 2.03828E+01 2.13352E-01-1.18931E-04-6.61822E-01 3.19908E-14-1.06939E-13
 -1      2783 2.03019E+01 2.50077E-01-1.47767E-03-8.01790E-01-2.52321E-14 1.43651E-13
 -1      2784 2.03533E+01 2.12377E-01 2.10665E-03-5.99269E-01 2.43409E-14-2.62495E-13
 -1      2785 2.02951E+01 2.05822E-01-4.28205E-04-5.44405E-01 7.11112E-14-2.14891E-13
 -1      2786 2.02299E+01 2.61175E-01-9.63345E-04-6.70965E-01-9.87363E-15 5.45680E-14
 -1      2787 2.02738E+01 1.97476E-01 2.04371E-03-4.87023E-01 1.60766E-13-3.02233E-13
 -1      2788 2.02262E+01 1.85569E-01-5.45567E-04-4.36828E-01 1.33526E-13-1.69849E-13
 -1      2789 2.01772E+01 2.47444E-01-6.74861E-04-5.47615E-01 8.07654E-14-2.17509E-13
 -1      2790 2.02105E+01 1.73757E-01 1.87501E-03-3.86438E-01 8.47297E-14-5.49338E-14
 -1      2791 2.01719E+01 1.59811E-01-5.52294E-04-3.42572E-01-3.36629E-15 1.43313E-14
 -1      2792 2.01374E+01 2.20672E-01-5.13506E-04-4.36965E-01 1.59523E-13-2.95783E-13
 -1      2793 2.01598E+01 1.47028E-01 1.64997E-03-2.99762E-01-9.54455E-14 5.30821E-14
 -1      2794 2.01291E+01 1.33084E-01-5.01452E-04-2.62715E-01-2.41441E-14 5.40025E-14
 -1      2795 2.01065E+01 1.88686E-01-4.17998E-04-3.41289E-01-3.11173E-14-1.81909E-13
 -1      2796 2.01196E+01 1.20823E-01 1.40311E-03-2.27298E-01-1.03501E-13 4.42546E-14
 -1      2797 2.00954E+01 1.08046E-01-4.25608E-04-1.96836E-01-3.73817E-14 5.85977E-14
 -1      2798 2.00821E+01 1.56364E-01-3.52596E-04-2.60929E-01-8.15491E-14 6.19538E-15
 -1      2799 2.00878E+01 9.71191E-02 1.15748E-03-1.68179E-01 7.92138E-14 6.83863E-14
 -1      2800 2.00690E+01 8.60926E-02-3.43221E-04-1.43664E-01 1.27384E-13 1.71022E-13
 -1      2801 2.00625E+01 1.26522E-01-2.97393E-04-1.95042E-01 6.32278E-14-8.56726E-14
 -1      2802 2.00628E+01 7.68907E-02 9.39348E-04-1.20897E-01 8.59058E-14 2.91155E-13
 -1      2803 2.00483E+01 6.77521E-02-2.51672E-04-1.01476E-01 1.15318E-13 3.52636E-13
 -1      2804 2.00467E+01 1.00598E-01-2.38632E-04-1.42116E-01 1.61555E-13 2.18391E-14
 -1      2805 2.00431E+01 6.01462E-02 6.93265E-04-8.37692E-02 4.64835E-14 2.62493E-13
 -1      2806 2.00323E+01 5.31721E-02-5.50492E-05-6.87001E-02 7.22056E-14 1.59827E-13
 -1      2807 2.00336E+01 7.87491E-02-2.91634E-04-1.00279E-01 5.43583E-14 5.15432E-14
 -1      2808 2.00053E+01 1.51095E-01 1.83053E-03-3.61047E-01 1.70545E-13-5.42434E-14
 -1      2809 1.99885E+01 1.69535E-01 2.81877E-03-3.03042E-01 1.95846E-13-2.81226E-14
 -1      2810 2.56314E+01-4.63953E+00-1.37432E-01 2.81933E+00 1.29591E-13 2.51965E-13
 -1      2811 2.36347E+01-5.03720E+00 9.26411E-02 4.20363E+00 2.28623E-13 3.24116E-14
 -1      2812 1.99994E+01 1.96076E-01 1.16264E-03-2.30741E-01 1.99366E-13-6.96088E-14
 -1      2813 2.00115E+01 2.36618E-01 4.93030E-03-1.52592E-01 2.11061E-13-4.80451E-14
 -1      2814 2.00785E+01 2.41009E-01-2.78407E-03-2.63185E-01 2.03178E-13-1.38707E-13
 -1      2815 2.01165E+01 1.47092E-01 2.89984E-03-5.68600E-01 6.76446E-14-1.83347E-14
 -1      2816 2.00578E+01 1.39544E-01 2.99196E-04-5.20417E-01 1.04718E-13-8.81512E-15
 -1      2817 2.02122E+01 1.72086E-01 3.38742E-03-6.75644E-01 1.00278E-13-9.05889E-14
 -1      2818 2.01365E+01 1.56989E-01-4.41360E-04-6.22858E-01 7.61522E-14-4.55256E-14
 -1      2819 2.01181E+01 1.95711E-01-1.36284E-03-6.33472E-01 1.00870E-13-1.16542E-13
 -1      2820 2.03312E+01 2.06728E-01 3.83277E-03-7.97547E-01 1.17446E-13-1.02306E-13
 -1      2821 2.02393E+01 1.87310E-01-9.61598E-04-7.36617E-01 1.05304E-13-9.63475E-14
 -1      2822 2.01707E+01 2.29180E-01-1.04058E-03-7.54087E-01 1.12407E-13-1.54516E-13
 -1      2823 2.04734E+01 2.43444E-01 4.17924E-03-9.38805E-01 1.06279E-13-8.95210E-14
 -1      2824 2.03648E+01 2.23913E-01-1.28248E-03-8.68353E-01 1.17830E-13-5.51425E-14
 -1      2825 2.02379E+01 2.72777E-01-8.09533E-04-8.90794E-01 1.02446E-13-7.91588E-14
 -1      2826 2.06407E+01 2.70951E-01 4.32660E-03-1.09898E+00 1.12096E-13-5.45014E-14
 -1      2827 2.05143E+01 2.57742E-01-1.35589E-03-1.02047E+00 1.14286E-13-6.19736E-14
 -1      2828 2.03191E+01 3.16012E-01-7.22483E-04-1.04800E+00 1.26900E-13-2.59547E-14
 -1      2829 2.08386E+01 2.71274E-01 4.11898E-03-1.27077E+00 3.36387E-14-9.76168E-15
 -1      2830 2.06922E+01 2.74682E-01-1.03267E-03-1.18979E+00 8.77599E-14-2.55828E-14
 -1      2831 2.04170E+01 3.43096E-01-9.39242E-04-1.22537E+00 8.73138E-14 1.07448E-13
 -1      2832 2.10790E+01 2.16304E-01 3.32861E-03-1.43675E+00 8.33838E-15 4.67870E-14
 -1      2833 2.09087E+01 2.52274E-01-2.13997E-05-1.36502E+00 4.77675E-15 1.50294E-14
 -1      2834 2.05400E+01 3.29205E-01-1.78317E-03-1.41622E+00 3.11302E-16 6.81623E-14
 -1      2835 2.13847E+01 6.54118E-02 1.61475E-03-1.56464E+00-3.90218E-14 4.62688E-14
 -1      2836 2.11837E+01 1.56512E-01 2.15875E-03-1.52258E+00 1.54690E-14 9.55213E-14
 -1      2837 2.07079E+01 2.36427E-01-3.80696E-03-1.60468E+00-1.01890E-14 1.60777E-13
 -1      2838 2.17948E+01-2.31432E-01-1.59272E-03-1.60105E+00-1.40264E-13 1.44839E-13
 -1      2839 2.15531E+01-5.86546E-02 6.15776E-03-1.62045E+00-1.03550E-13 3.94917E-14
 -1      2840 2.09592E+01 1.17641E-02-7.77077E-03-1.76078E+00-6.06346E-14 1.63235E-13
 -1      2841 2.23641E+01-7.14796E-01-7.24665E-03-1.46508E+00-2.61400E-13 2.38552E-13
 -1      2842 2.20720E+01-4.42238E-01 1.24426E-02-1.58992E+00-1.77097E-13 1.79438E-13
 -1      2843 2.13605E+01-4.06206E-01-1.43831E-02-1.83203E+00-2.03161E-13 1.94337E-13
 -1      2844 2.31459E+01-1.36003E+00-1.57462E-02-1.04624E+00-2.90760E-13 2.31867E-13
 -1      2845 2.28073E+01-1.01320E+00 2.05149E-02-1.32651E+00-2.79067E-13 2.02882E-13
 -1      2846 2.20093E+01-1.05924E+00-2.36467E-02-1.72929E+00-2.82597E-13 1.32657E-13
 -1      2847 2.41366E+01-1.96885E+00-2.40241E-02-2.34358E-01-1.86960E-13 2.71650E-13
 -1      2848 2.37908E+01-1.67881E+00 2.61133E-02-6.97980E-01-2.73880E-13 2.39052E-13
 -1      2849 2.30098E+01-1.88252E+00-3.15745E-02-1.31173E+00-2.77614E-13 1.35496E-13
 -1      2850 2.51882E+01-2.04469E+00-1.86275E-02 9.68748E-01-1.34443E-13 5.30320E-13
 -1      2851 2.49162E+01-2.11253E+00 1.70594E-02 3.84258E-01-2.01159E-13 4.29578E-13
 -1      2852 2.43743E+01-2.56058E+00-3.39730E-02-4.04247E-01-2.73254E-13 3.22120E-13
 -1      2853 2.59150E+01-9.40456E-01-1.36914E-02 2.18969E+00 9.19056E-15 6.42772E-13
 -1      2854 2.58243E+01-1.70024E+00-3.22719E-02 1.73350E+00-2.54857E-14 6.26802E-13
 -1      2855 2.58839E+01-2.33158E+00-1.03717E-02 1.02896E+00-1.26538E-13 4.61194E-13
 -1      2856 2.58663E+01 1.35153E+00-2.11784E-02 2.42587E+00 2.19103E-13 5.68198E-13
 -1      2857 2.60699E+01 1.34266E-01-9.91768E-02 2.59978E+00 1.10488E-13 5.72580E-13
 -1      2858 2.68773E+01-6.20096E-01-4.32036E-02 2.34362E+00 1.07185E-13 5.05936E-13
 -1      2859 2.68377E+01 4.30135E+00-1.26887E-01 1.20730E+00 5.64493E-13 4.18908E-13
 -1      2860 2.70175E+01 3.22688E+00-1.44773E-01 2.07576E+00 4.05870E-13 4.87676E-13
 -1      2861 2.60943E+01 3.48013E+00-7.55668E-02-1.76330E+00 4.40939E-13 2.14030E-14
 -1      2862 2.59542E+01 4.07891E+00-9.51264E-02-5.47813E-01 5.78593E-13 3.29785E-13
 -1      2863 2.63379E+01 2.24413E+00-1.23946E-01-2.35558E+00 4.14696E-13-1.54071E-13
 -1      2864 2.60357E+01-1.27180E+00-7.69431E-02-2.18506E+00 7.81857E-14-2.11423E-13
 -1      2865 2.59534E+01-1.60489E-01-1.48592E-02-2.57119E+00 2.09013E-13-2.10834E-13
 -1      2866 2.53123E+01-2.08794E+00 5.35274E-03-8.90459E-01-7.23887E-14-1.16793E-13
 -1      2867 2.55110E+01-1.80375E+00-2.12449E-02-1.46870E+00-5.58926E-14-9.92382E-14
 -1      2868 2.63573E+01-1.92440E+00-2.11459E-02-1.55372E+00-4.96929E-14 3.84050E-14
 -1      2869 2.42188E+01-1.88463E+00 2.58192E-02 3.30329E-01 9.81060E-14-1.78119E-13
 -1      2870 2.45423E+01-2.08755E+00-2.50439E-02-1.91957E-01 4.06350E-14-1.42014E-13
 -1      2871 2.49520E+01-2.61678E+00-2.34309E-02-7.95290E-02-3.25872E-14-9.94213E-16
 -1      2872 2.31628E+01-1.24410E+00 2.34086E-02 1.11627E+00 1.81024E-13-9.49651E-14
 -1      2873 2.35079E+01-1.59581E+00-1.91469E-02 7.72667E-01 1.36849E-13-1.64572E-13
 -1      2874 2.34903E+01-2.16393E+00-3.19201E-02 1.01816E+00 9.28591E-14-3.76292E-14
 -1      2875 2.23429E+01-6.13829E-01 1.54109E-02 1.48759E+00 1.54463E-13-3.80763E-14
 -1      2876 2.26493E+01-9.22703E-01-1.00903E-02 1.31611E+00 2.33142E-13-9.73095E-14
 -1      2877 2.23482E+01-1.33159E+00-2.67484E-02 1.58667E+00 1.92101E-13-2.86490E-14
 -1      2878 2.17617E+01-1.56150E-01 8.41674E-03 1.57704E+00-1.20989E-13 4.77252E-14
 -1      2879 2.20145E+01-3.66831E-01-3.44106E-03 1.53075E+00 4.05377E-14-3.58871E-17
 -1      2880 2.15858E+01-5.94680E-01-1.75964E-02 1.77446E+00 3.62957E-14 1.14073E-13
 -1      2881 2.13563E+01 1.20061E-01 3.73052E-03 1.50191E+00-2.19441E-13 1.09839E-13
 -1      2882 2.15628E+01-3.18034E-04 5.55584E-04 1.53327E+00-1.59911E-13 1.00723E-13
 -1      2883 2.11128E+01-8.75267E-02-9.91312E-03 1.74049E+00-1.24025E-13 3.91646E-14
 -1      2884 2.10654E+01 2.58234E-01 1.01227E-03 1.34298E+00 6.93035E-14-4.02304E-14
 -1      2885 2.12361E+01 2.02638E-01 2.73827E-03 1.41552E+00-1.08587E-13 8.86766E-15
 -1      2886 2.08231E+01 2.06470E-01-5.03728E-03 1.59171E+00-9.57245E-14-9.75646E-14
 -1      2887 2.08462E+01 3.07048E-01-3.36236E-04 1.15125E+00 2.84238E-13 5.04481E-14
 -1      2888 2.09890E+01 2.91760E-01 3.79897E-03 1.24047E+00 1.83011E-13 6.67542E-14
 -1      2889 2.06386E+01 3.46175E-01-2.37967E-03 1.39201E+00 1.32787E-13-1.52172E-13
 -1      2890 2.06732E+01 3.04630E-01-8.78421E-04 9.56812E-01 3.24179E-13 4.49713E-14
 -1      2891 2.07933E+01 3.11598E-01 4.16262E-03 1.04778E+00 3.38082E-13 1.52406E-13
 -1      2892 2.05111E+01 3.88592E-01-1.13111E-03 1.17889E+00 3.02445E-13-1.38940E-13
 -1      2893 2.05327E+01 2.76435E-01-9.97872E-04 7.75967E-01 2.03786E-13 1.25442E-13
 -1      2894 2.06330E+01 2.94011E-01 4.09638E-03 8.60516E-01 3.38750E-13 1.01239E-13
 -1      2895 2.04146E+01 3.76382E-01-6.43014E-04 9.73499E-01 2.36772E-13-2.27769E-14
 -1      2896 2.04170E+01 2.37891E-01-9.20198E-04 6.16418E-01 1.11686E-13 2.11544E-13
 -1      2897 2.05000E+01 2.59191E-01 3.77884E-03 6.90739E-01 1.53416E-13 2.51884E-13
 -1      2898 2.03363E+01 3.37412E-01-5.08155E-04 7.87001E-01 1.36620E-13 1.93886E-13
 -1      2899 2.03220E+01 1.97631E-01-7.68300E-04 4.80656E-01-1.69630E-13 6.77699E-14
 -1      2900 2.03897E+01 2.18897E-01 3.33420E-03 5.43577E-01-1.50997E-14 2.67214E-13
 -1      2901 2.02704E+01 2.88391E-01-5.03773E-04 6.24343E-01-1.02831E-14 2.14880E-13
 -1      2902 2.02446E+01 1.60071E-01-6.03565E-04 3.68191E-01-9.00658E-14 1.08200E-13
 -1      2903 2.02990E+01 1.79448E-01 2.84550E-03 4.20022E-01-1.59996E-13 1.41597E-13
 -1      2904 2.02145E+01 2.38607E-01-5.23847E-04 4.86655E-01-1.23711E-13 1.75407E-13
 -1      2905 2.01825E+01 1.27164E-01-4.54114E-04 2.76967E-01-8.59050E-14-1.44622E-13
 -1      2906 2.02253E+01 1.43892E-01 2.36461E-03 3.18770E-01 6.30897E-14 4.56267E-14
 -1      2907 2.01674E+01 1.92762E-01-5.27504E-04 3.72817E-01-7.32180E-14 2.98043E-13
 -1      2908 2.01333E+01 9.95072E-02-3.30465E-04 2.04241E-01-4.44152E-14-3.94041E-13
 -1      2909 2.01665E+01 1.13418E-01 1.92028E-03 2.37388E-01-1.46261E-13-3.19662E-13
 -1      2910 2.01282E+01 1.52879E-01-5.06175E-04 2.80507E-01 9.49353E-14-3.58320E-13
 -1      2911 2.00950E+01 7.70246E-02-2.32482E-04 1.47109E-01-4.08466E-14-3.18209E-13
 -1      2912 2.01203E+01 8.82242E-02 1.52493E-03 1.73030E-01-4.55754E-14-4.42393E-13
 -1      2913 2.00961E+01 1.19509E-01-4.61709E-04 2.06898E-01-4.91516E-14-5.18492E-13
 -1      2914 2.00655E+01 5.93297E-02-1.30501E-04 1.02749E-01 2.10649E-14-1.47004E-13
 -1      2915 2.00845E+01 6.80678E-02 1.18297E-03 1.22800E-01-1.32050E-14-2.58657E-13
 -1      2916 2.00703E+01 9.24809E-02-4.00872E-04 1.49061E-01-6.44107E-14-5.03633E-13
 -1      2917 2.00435E+01 4.58843E-02 1.52318E-04 6.87579E-02 9.41473E-14 1.21007E-13
 -1      2918 2.00571E+01 5.22349E-02 8.87203E-04 8.38992E-02 2.61684E-14-9.02669E-15
 -1      2919 2.00495E+01 7.12643E-02-3.35647E-04 1.04147E-01-4.87532E-14-1.34881E-13
 -1      2920 2.00270E+01 3.88963E-02 2.16703E-04 4.68778E-02-2.33565E-13 5.90855E-13
 -1      2921 2.00366E+01 4.40360E-02 6.52407E-04 5.87578E-02-5.74178E-14 3.25762E-13
 -1      2922 2.00327E+01 5.80944E-02-6.28329E-04 7.39774E-02-2.32476E-13-7.29194E-17
 -1      2923 2.00204E+01 5.13473E-02-5.46138E-04 5.44058E-02-3.67656E-13 3.37543E-13
 -1      2924 1.99606E+01 1.38768E-01-3.46341E-04 6.25914E-03 7.32707E-14-3.34420E-13
 -1      2925 1.99623E+01 1.37184E-01-1.84858E-04 1.71398E-02 2.14454E-13-3.91746E-13
 -1      2926 2.00296E+01 4.87754E-02 5.29510E-04-5.91037E-02 8.67517E-15 1.68400E-13
 -1      2927 2.00236E+01 4.45086E-02 6.41743E-05-5.07416E-02-5.99649E-14 1.96415E-13
 -1      2928 2.00245E+01 6.31780E-02-3.44298E-04-7.21216E-02 2.88539E-15-3.66046E-14
 -1      2929 1.99764E+01 1.18245E-01-5.77147E-04 4.84046E-02 9.76548E-14-3.25698E-13
 -1      2930 1.99839E+01 1.10545E-01 1.99165E-04 5.43900E-02 1.71487E-13-4.54204E-13
 -1      2931 1.99625E+01 1.36471E-01-1.64153E-04-1.79813E-02-1.35126E-13 7.33314E-14
 -1      2932 1.99607E+01 1.38397E-01-3.64348E-04-7.16416E-03-8.53459E-14-1.28334E-13
 -1      2933 1.99514E+01 1.55892E-01 6.05608E-04-6.97513E-04 2.98979E-14-3.94304E-13
 -1      2934 1.99654E+01 1.32465E-01-4.92647E-04 2.96256E-02 2.60515E-13-3.56643E-13
 -1      2935 1.99704E+01 1.27550E-01 1.83323E-05 3.88137E-02 2.36673E-13-2.83471E-13
 -1      2936 1.99670E+01 1.38527E-01 5.08229E-04 5.05656E-02 1.49590E-13-2.46390E-13
 -1      2937 1.99553E+01 1.51808E-01 5.86282E-04 2.69283E-02 3.48452E-13-5.18118E-13
 -1      2938 2.00356E+01 2.88352E-01 2.97964E-04-5.33781E-02 2.43750E-13-1.87254E-14
 -1      2939 2.00835E+01 3.63219E-01 7.65446E-03 6.12121E-02 2.91984E-13 3.67680E-16
 -1      2940 2.01903E+01 5.34867E-01-2.25668E-03 1.79230E-01 3.41575E-13-6.57385E-14
 -1      2941 2.01192E+01 3.44887E-01-3.08107E-03-7.90006E-02 2.63385E-13-1.13882E-13
 -1      2942 1.99707E+01 1.26186E-01 3.92925E-05-3.89737E-02-1.15257E-13 2.18706E-13
 -1      2943 1.99657E+01 1.31214E-01-4.97972E-04-3.00830E-02-2.59162E-13 2.69610E-13
 -1      2944 1.99557E+01 1.50498E-01 5.69596E-04-2.78900E-02-3.19032E-14-3.72255E-14
 -1      2945 1.99840E+01 1.08736E-01 1.96297E-04-5.41536E-02-1.49893E-13 6.92927E-14
 -1      2946 1.99766E+01 1.16541E-01-5.67988E-04-4.83187E-02-1.27266E-13 1.95536E-13
 -1      2947 1.99673E+01 1.36339E-01 4.58717E-04-5.08076E-02-1.62748E-13 1.25341E-13
 -1      2948 1.99997E+01 8.59237E-02 9.12420E-05-6.06558E-02-2.07759E-14 3.97620E-13
 -1      2949 1.99918E+01 9.59387E-02-5.18233E-04-5.92145E-02-1.61221E-14 3.21724E-13
 -1      2950 1.99845E+01 1.15038E-01 3.11673E-04-6.62148E-02-1.38866E-13 2.86912E-13
 -1      2951 7.59860E+00-1.32898E+00 1.55195E-01-3.58274E+00 1.72855E-13 6.48953E-13
 -1      2952 9.74358E+00-2.30404E+00 5.53689E-02-5.36695E+00 4.56579E-13 6.22252E-13
 -1      2953 2.83132E+01-1.67592E+00-1.15557E-02 2.80832E-01-1.82493E-14-6.18144E-13
 -1      2954 2.88337E+01 4.41811E-01-1.91145E-01 1.35277E+00-4.32224E-13-6.87478E-13
 -1      2955 2.00182E+01 5.32515E-02-1.24411E-05-5.38199E-02-4.56548E-14-2.14887E-14
 -1      2956 2.87150E+01 3.00845E+00-2.14352E-01-1.89298E+00-8.20455E-13 4.48669E-13
 -1      2957 2.89731E+01 1.15959E+00-3.68799E-02-1.63606E+00-6.05710E-13 4.79575E-13
 -1      2958 9.26501E+00-2.03868E+00 9.24080E-02 4.75995E+00-3.43933E-13 4.58744E-13
 -1      2959 7.46930E+00-1.19911E+00 1.36852E-01 2.99781E+00-3.16441E-13 6.72018E-13
 -1      2960 2.95292E+01 2.60887E+00-1.58157E-01-2.12868E+00 4.84973E-13-3.58213E-13
 -1      2961 2.97481E+01 8.13020E-01-9.28330E-02-1.99897E+00 2.32758E-13-5.19751E-13
 -1      2962 2.22404E+01-5.39055E+00-6.65967E-02 4.77514E+00-3.63570E-13-3.10345E-13
 -1      2963 1.92274E+01-4.97636E+00 1.07532E-01 5.64023E+00-4.83710E-13-2.13135E-13
 -1      2964 2.00463E+01 1.37880E-01 2.39023E-03-4.67900E-01 1.15158E-13-9.08980E-15
 -1      2965 2.00066E+01 1.41144E-01 1.33840E-03-4.18767E-01 1.42843E-13-4.18729E-14
 -1      2966 2.00678E+01 1.91985E-01-2.25253E-03-4.02750E-01 1.54132E-13-8.03684E-14
 -1      2967 2.00826E+01 1.80542E-01-1.76851E-03-5.20503E-01 1.02035E-13-4.08567E-14
 -1      2968 2.03343E+01 1.09021E+00 2.71621E-03-7.96247E-01-3.76973E-13-2.85459E-13
 -1      2969 2.02570E+01 8.54221E-01-4.63071E-03-5.42819E-01-3.52407E-13-2.62918E-13
 -1      2970 2.02883E+01 9.41599E-01-3.11936E-04-4.89156E-01-3.27889E-13-3.20037E-13
 -1      2971 1.94446E+01-4.98111E+00 1.08985E-01-5.58056E+00-7.07420E-13-3.46147E-13
 -1      2972 2.26623E+01-5.41772E+00-1.00931E-01-4.48091E+00-5.75928E-13-8.57682E-14
 -1      2973 2.94543E+01-1.14262E+00-1.81344E-01-1.22844E+00 9.37861E-14-6.21114E-13
 -1      2974 2.87265E+01-2.72341E+00-1.72589E-02-1.49796E-01-9.76840E-14-6.49480E-13
 -1      2975 2.83763E+01 5.83336E+00-1.57664E-01 1.26000E+00-1.12002E-12-3.11348E-13
 -1      2976 2.79721E+01 6.46602E+00-1.86882E-01 2.78511E-01-1.15197E-12-7.40623E-14
 -1      2977 1.99263E+01 2.65759E+00-7.71677E-03 7.51069E-01 3.80245E-13-4.58306E-13
 -1      2978 1.98775E+01 2.75488E+00-6.50185E-03 6.07474E-01 3.01453E-13-5.01239E-13
 -1      2979 1.99889E+01 2.47245E+00 4.79432E-03 4.77768E-01 2.63741E-13-4.83320E-13
 -1      2980 2.00817E+01 2.25955E+00 5.88269E-03 6.93424E-01 3.63345E-13-4.05888E-13
 -1      2981 1.98724E+01 2.76286E+00-6.28171E-03-5.97347E-01-1.78524E-13-6.23986E-13
 -1      2982 1.99195E+01 2.66827E+00-7.44247E-03-7.42583E-01-2.42250E-13-6.23421E-13
 -1      2983 2.55455E+01-4.50126E+00 6.00306E-02-2.85101E+00 4.44839E-13-1.33310E-13
 -1      2984 2.71470E+01-3.68048E+00-1.50690E-01-1.51142E+00 2.78513E-13-3.50303E-13
 -1      2985 2.71970E+01-4.33259E+00-1.13559E-01 1.60797E+00-1.73292E-13-6.18297E-13
 -1      2986 2.51404E+01-5.04079E+00 5.66449E-02 3.08047E+00-3.46750E-13-4.87388E-13
 -1      2987 2.90902E+01 2.88349E+00-9.36403E-02 1.90650E+00-7.53730E-13-6.50494E-13
 -1      2988 2.87185E+01 4.47599E+00-1.99966E-01 1.75157E+00-1.00409E-12-4.50043E-13
 -1      2989 6.07174E+00-7.89143E-01 1.48072E-01 7.56505E-01 5.17607E-14-1.03667E-12
 -1      2990 6.43361E+00-8.87168E-01 1.48578E-01-1.49946E+00-1.23068E-13-1.03309E-12
 -1      2991 2.88037E+01-1.86377E+00-2.15328E-02 1.01544E+00 6.69326E-14 6.06515E-13
 -1      2992 2.92882E+01 8.94675E-02-1.82171E-01 1.92774E+00 2.47552E-13 6.16687E-13
 -1      2993 1.40660E+01-3.73805E+00 1.20447E-01-6.04922E+00-5.92720E-13-5.69156E-13
 -1      2994 1.68725E+01-4.56407E+00 5.43487E-02-6.22917E+00-6.64302E-13-5.35086E-13
 -1      2995 1.92825E+01-4.37900E+00 9.81070E-02-5.28631E+00-6.97609E-13-3.53165E-13
 -1      2996 2.01944E+01 2.29517E+00 1.69100E-04-1.37917E+00-4.58779E-13-4.30907E-13
 -1      2997 1.43739E+01-4.12381E+00 4.65158E-02 6.65959E+00 4.19054E-13-6.27526E-13
 -1      2998 1.14654E+01-2.98666E+00 1.41327E-01 5.92663E+00 4.29656E-13-8.38385E-13
 -1      2999 1.70623E+01-4.04636E+00 1.17057E-01 5.98597E+00 5.37417E-13-5.14269E-13
 -1      3000 6.61895E+00-5.73716E-01 1.50838E-01 9.66543E-01-2.50043E-14 6.00131E-13
 -1      3001 6.64618E+00-6.23097E-01 1.49506E-01-1.56651E+00 9.86086E-14 5.88668E-13
 -1      3002 1.57883E+01-4.35563E+00 2.41362E-02 6.29116E+00-4.29323E-13-3.10627E-13
 -1      3003 1.23157E+01-3.08522E+00 1.45163E-01 5.71542E+00-4.40870E-13-7.81319E-14
 -1      3004 1.85220E+01-4.12087E+00 1.26280E-01 5.37445E+00-4.65683E-13-2.22503E-13
 -1      3005 2.84733E+01-1.35079E+00-1.91384E-01-5.24316E-01-2.90407E-13 3.96322E-13
 -1      3006 2.76236E+01-3.00912E+00 3.92660E-02 8.23532E-01-6.64746E-15 3.10738E-13
 -1      3007 8.64754E+00-1.78734E+00 1.00694E-01 4.62674E+00 3.26628E-13-9.45993E-13
 -1      3008 6.88539E+00-1.09165E+00 1.65568E-01 2.67032E+00 2.98706E-13-9.60287E-13
 -1      3009 2.80812E+01 6.19446E+00-1.85631E-01-7.33325E-01-1.12010E-12 1.69444E-13
 -1      3010 2.84666E+01 5.05843E+00-1.25474E-01-1.67723E+00-1.04450E-12 4.14627E-13
 -1      3011 1.32266E+01-3.37606E+00 1.55019E-01-6.19797E+00 6.39488E-13 4.46074E-13
 -1      3012 1.65763E+01-4.56059E+00 3.81738E-03-6.54515E+00 6.13287E-13 4.42146E-13
 -1      3013 1.90922E+01-4.34091E+00 1.16712E-01-5.53941E+00 6.49120E-13 4.39097E-13
 -1      3014 2.58170E+01-4.74550E+00 9.72418E-02-2.43323E+00-4.18880E-13 2.72338E-13
 -1      3015 2.75114E+01-3.95242E+00-1.61809E-01-8.27843E-01-1.51906E-13 5.53169E-13
 -1      3016 1.99789E+01 2.53830E+00-6.69261E-03-8.53363E-01-2.80525E-13-5.77331E-13
 -1      3017 2.00388E+01 2.38874E+00-1.28665E-02-9.90806E-01-3.49310E-13-5.46164E-13
 -1      3018 2.00689E+01 2.26878E+00 3.03199E-03-6.85080E-01-2.49768E-13-5.50029E-13
 -1      3019 1.99118E+01 2.63479E+00 3.58845E-03 5.04892E-03 6.99747E-14-5.48175E-13
 -1      3020 1.97802E+01 2.95123E+00-5.71934E-03-5.70362E-02 5.21726E-14-5.87610E-13
 -1      3021 1.97889E+01 2.93591E+00-5.48026E-03-2.03647E-01-1.25664E-14-5.97775E-13
 -1      3022 2.03095E+01 1.61300E+00-1.54794E-03 1.11298E+00 5.23321E-13-1.55324E-13
 -1      3023 8.82556E+00-4.17718E-01 1.78850E-01-2.36182E+00 1.39104E-13 5.43038E-13
 -1      3024 2.42796E+01-4.76160E+00 4.81072E-02-2.99571E+00-5.62293E-13 1.28599E-13
 -1      3025 2.76508E+01-2.81562E+00-6.39555E-03 5.73010E-01-1.31532E-13 5.69239E-13
 -1      3026 1.99844E+01 1.17552E-01 3.16275E-04 6.65607E-02-2.89924E-14-2.50160E-13
 -1      3027 1.99917E+01 9.78352E-02-5.64629E-04 5.95526E-02 6.86537E-17-3.50277E-13
 -1      3028 2.00002E+01 8.81201E-02 2.65820E-04 6.12822E-02-2.66463E-13-2.96044E-13
 -1      3029 2.23300E+01-4.91635E+00 6.09822E-02 4.51465E+00 3.86066E-13-3.25243E-14
 -1      3030 2.83619E+01 2.91982E+00-1.47968E-01 2.45328E+00 3.77004E-13 3.82694E-13
 -1      3031 2.54520E+01 3.98315E+00-2.46081E-01-4.35601E-02 5.66047E-13 4.13856E-13
 -1      3032 2.90441E+01 5.63335E+00-1.17073E-01 6.77625E-01 7.09266E-13 1.47965E-13
 -1      3033 1.29044E+01-2.39080E+00 1.58072E-01-5.43416E+00 5.83394E-13 4.59743E-13
 -1      3034 2.78841E+01-4.33941E-01-6.04591E-02-1.36282E+00-3.36217E-13 4.49252E-13
 -1      3035 2.00070E+01 7.51880E-02-5.10571E-04 6.09833E-02-3.97159E-13-3.51440E-13
 -1      3036 2.00149E+01 6.45996E-02 2.70339E-04 5.84590E-02-4.21465E-13-7.96721E-14
 -1      3037 2.00205E+01 6.88591E-02 5.44598E-04 6.79405E-02-4.50064E-13-1.11792E-13
 -1      3038 2.00036E+01 9.31967E-02 3.42749E-04 7.19592E-02-2.33199E-13-2.54846E-13
 -1      3039 1.25026E+01-2.07248E+00 1.66890E-01 4.93711E+00-4.05467E-13-1.96787E-14
 -1      3040 2.72518E+01-2.63146E+00-2.02868E-02-6.20233E-02 1.89923E-13-5.95496E-13
 -1      3041 2.68913E+01 5.66103E+00-1.02529E-01-2.36753E-01-9.46798E-13 1.31361E-13
 -1      3042 1.14830E+01-1.94446E+00 1.43207E-01 4.97988E+00 4.39954E-13-8.28407E-13
 -1      3043 2.00125E+01 6.48882E-02 1.51955E-04-5.68347E-02 2.43934E-14 5.90718E-14
 -1      3044 1.31472E+01-2.95187E+00 1.46094E-01-5.65162E+00-5.67490E-13-5.68934E-13
 -1      3045 1.56906E+01-3.12544E+00 3.32990E-02-5.42987E+00-6.13863E-13-3.96683E-13
 -1      3046 1.23736E+01-1.95628E+00 1.35234E-01-4.98404E+00-4.71206E-13-5.62522E-13
 -1      3047 8.26767E+00-3.22340E-01 1.70317E-01 1.58269E+00 2.28165E-13-8.87790E-13
 -1      3048 2.78513E+01 1.06098E+00-7.76028E-02 1.91433E+00-4.32272E-13-6.05224E-13
 -1      3049 2.74382E+01-3.51420E+00-2.83485E-02 3.03162E-01-1.95236E-13-6.12066E-13
 -1      3050 2.73794E+01 4.53318E+00-1.09128E-01 1.61377E+00-8.89483E-13-3.30840E-13
 -1      3051 2.75334E+01 3.55844E+00-9.76238E-02-1.92944E+00-8.05717E-13 4.78312E-13
 -1      3052 2.40234E+01-4.83686E+00 8.18869E-02 3.27355E+00-3.86829E-13-4.62665E-13
 -1      3053 8.74677E+00-3.22174E-01 1.67851E-01 1.77523E+00-1.03376E-13 5.05790E-13
 -1      3054 2.87115E+01-6.80533E-01-1.31798E-01-1.93204E+00 6.38621E-14-4.53401E-13
 -1      3055 2.85545E+01 3.30549E+00-8.90646E-03-2.33566E+00 5.10786E-13-1.36405E-13
 -1      3056 7.97788E+00-8.29119E-01 1.80917E-01-2.54161E+00-2.43576E-13-9.06886E-13
 -1      3057 9.82827E+00-9.06713E-01 9.09120E-02-3.44684E+00-3.35430E-13-7.07837E-13
 -1      3058 8.94278E+00-5.99633E-02 1.29303E-01-1.49827E+00-8.76382E-14-7.54355E-13
 -1      3059 2.63585E+01-3.76790E+00 4.97869E-03 1.37520E+00 1.35270E-13 2.86549E-13
 -1      3060 2.00157E+01 7.23284E-02-1.66501E-04-7.07422E-02-5.68381E-14-8.95856E-14
 -1      3061 2.00062E+01 7.86742E-02-1.88179E-04-6.45607E-02-3.97646E-14 2.42868E-13
 -1      3062 2.00028E+01 9.53950E-02 4.35504E-04-7.52951E-02-8.34059E-15 2.05655E-13
 -1      3063 2.00202E+01 7.95393E-02 6.03047E-04-8.12068E-02-1.15707E-13 9.38623E-14
 -1      3064 2.01550E+01 2.16405E+00 4.37039E-04-1.08830E+00-3.88461E-13-4.91156E-13
 -1      3065 2.03094E+01 1.70652E+00-1.02910E-02-1.19802E+00-4.57198E-13-3.65564E-13
 -1      3066 2.03081E+01 1.33226E+00-9.21699E-04-9.19912E-01-4.09485E-13-3.23428E-13
 -1      3067 2.02071E+01 1.90267E+00 5.19962E-03-8.68998E-01-3.44637E-13-4.68314E-13
 -1      3068 1.98069E+01 2.89619E+00-5.96610E-03-3.28794E-01-5.94236E-14-5.92390E-13
 -1      3069 1.98346E+01 2.84477E+00-6.00920E-03-4.75778E-01-1.32685E-13-5.99557E-13
 -1      3070 1.99796E+01 2.47707E+00 2.38471E-03-4.67071E-01-1.51299E-13-5.59667E-13
 -1      3071 1.99269E+01 2.59680E+00 2.83548E-03-2.33319E-01-4.21086E-14-5.46836E-13
 -1      3072 2.03008E+01 1.40357E+00 2.36539E-03 8.58562E-01 4.76092E-13-1.90720E-13
 -1      3073 2.42656E+01-4.68537E+00 4.54672E-02-3.25775E+00 5.11848E-13-8.43284E-14
 -1      3074 2.87095E+01 1.12314E+00-1.57758E-01 2.49642E+00 2.89407E-13 5.55764E-13
 -1      3075 2.02978E+01 1.41775E+00 5.00738E-03-8.19530E-01-3.66214E-13-3.86274E-13
 -1      3076 9.36687E+00 1.66901E-01 8.53808E-02-1.40785E+00 1.03622E-13 5.31353E-13
 -1      3077 1.01674E+01-4.90353E-01 7.75307E-02-3.39358E+00 1.38847E-13 5.41081E-13
 -1      3078 2.02548E+01 1.53781E+00-5.93278E-03 7.34455E-01 4.09644E-13-2.74090E-13
 -1      3079 2.02087E+01 1.73446E+00-9.99098E-04 6.79381E-01 3.65400E-13-3.26065E-13
 -1      3080 2.02980E+01 1.21327E+00 1.22961E-03-5.88583E-01-3.04193E-13-3.90100E-13
 -1      3081 2.02748E+01 9.78522E-01-4.86678E-03-3.88923E-01-2.82438E-13-3.62899E-13
 -1      3082 2.03157E+01 1.03448E+00-5.30175E-04 6.17423E-01 4.15769E-13-1.69922E-13
 -1      3083 2.02866E+01 1.35731E+00 2.59285E-03 6.99987E-01 4.17697E-13-2.27612E-13
 -1      3084 2.02882E+01 1.19408E+00 3.04756E-04 5.12116E-01 3.70238E-13-2.44439E-13
 -1      3085 2.02634E+01 8.31248E-01-3.15472E-03 3.99959E-01 3.73369E-13-1.42621E-13
 -1      3086 2.02438E+01 5.31946E-01 3.66110E-03 2.21752E-02-2.41042E-13-2.26372E-13
 -1      3087 2.02124E+01 4.39951E-01-1.43293E-03 1.30038E-01-2.12513E-13-2.18327E-13
 -1      3088 2.01940E+01 3.72550E-01 2.40970E-03 2.17400E-01-1.82854E-13-1.84071E-13
 -1      3089 2.01741E+01 3.20436E-01-2.63241E-04 2.97704E-01-1.59200E-13-1.99003E-13
 -1      3090 2.02389E+01 4.87551E-01-8.01789E-04 1.54240E-01-1.83408E-13-2.35239E-13
 -1      3091 2.01517E+01 2.84669E-01 1.32352E-03 3.66303E-01-1.22503E-13-1.91972E-13
 -1      3092 2.01433E+01 2.59863E-01 5.92987E-04 4.29934E-01-8.45419E-14-1.75204E-13
 -1      3093 2.01917E+01 3.64810E-01-8.98773E-04 3.15903E-01-1.35527E-13-1.81415E-13
 -1      3094 2.01200E+01 2.45374E-01 4.15003E-04 4.88106E-01-7.27081E-14-1.82518E-13
 -1      3095 2.01220E+01 2.38727E-01 1.21438E-03 5.43427E-01-5.65783E-14-1.63775E-13
 -1      3096 2.01437E+01 3.04187E-01-8.08774E-04 4.47360E-01-9.37242E-14-2.03000E-13
 -1      3097 2.00994E+01 2.37654E-01-2.73453E-04 5.97786E-01-4.09217E-14-1.65405E-13
 -1      3098 2.01110E+01 2.41647E-01 1.67197E-03 6.50665E-01-6.77023E-14-1.39546E-13
 -1      3099 2.00983E+01 2.85233E-01-6.72455E-04 5.63579E-01-5.60294E-14-2.38586E-13
 -1      3100 2.00903E+01 2.47017E-01-7.15073E-04 7.06066E-01-1.01682E-13-1.05469E-13
 -1      3101 2.01113E+01 2.54389E-01 2.01581E-03 7.60014E-01-1.02379E-13-9.39502E-14
 -1      3102 2.00572E+01 2.90926E-01-5.86580E-04 6.76252E-01-6.34774E-14-2.09384E-13
 -1      3103 2.00946E+01 2.58932E-01-8.69661E-04 8.19489E-01-1.18926E-13-6.16166E-14
 -1      3104 2.01262E+01 2.61617E-01 2.28254E-03 8.75657E-01-7.73453E-14-7.14986E-14
 -1      3105 2.00228E+01 3.04816E-01-6.45333E-04 7.93627E-01-9.17854E-14-1.16436E-13
 -1      3106 2.01175E+01 2.56813E-01-6.58820E-04 9.40334E-01-6.50968E-14-1.72798E-14
 -1      3107 2.01627E+01 2.45034E-01 2.49677E-03 9.97316E-01-4.65422E-14 1.81237E-14
 -1      3108 1.99998E+01 3.08760E-01-9.69001E-04 9.20420E-01-4.69161E-14-6.64751E-14
 -1      3109 2.01689E+01 2.20351E-01 5.53652E-05 1.06617E+00-3.58509E-14 3.61971E-14
 -1      3110 2.02336E+01 1.81930E-01 2.65577E-03 1.11956E+00-2.58931E-14 7.82255E-14
 -1      3111 1.99973E+01 2.80946E-01-1.73722E-03 1.05764E+00-2.18471E-14 3.14951E-15
 -1      3112 2.02665E+01 1.24438E-01 1.49343E-03 1.18879E+00-3.55579E-14 1.22058E-13
 -1      3113 2.03602E+01 4.47338E-02 2.68769E-03 1.23036E+00-5.33455E-14 1.06800E-13
 -1      3114 2.00318E+01 1.94335E-01-3.20465E-03 1.20196E+00-7.36665E-15-1.06764E-14
 -1      3115 2.04383E+01-6.02088E-02 3.96510E-03 1.29197E+00-8.63715E-14 1.33633E-13
 -1      3116 2.05742E+01-1.96820E-01 2.34529E-03 1.30845E+00-8.05807E-14 1.29218E-13
 -1      3117 2.01307E+01 1.63279E-02-5.69374E-03 1.34398E+00-7.26965E-14 1.28785E-13
 -1      3118 2.07252E+01-3.62537E-01 7.81366E-03 1.34743E+00-1.73565E-14 1.43460E-13
 -1      3119 2.09185E+01-5.67742E-01 1.01344E-03 1.31875E+00 6.38096E-14 1.76155E-13
 -1      3120 2.03365E+01-2.88494E-01-9.54839E-03 1.46434E+00-3.83381E-14 1.80389E-13
 -1      3121 2.11783E+01-7.98390E-01 1.31191E-02 1.30808E+00 1.23355E-13 1.78403E-13
 -1      3122 2.14405E+01-1.06793E+00-2.39199E-03 1.20580E+00 1.35309E-13 2.20648E-13
 -1      3123 2.07085E+01-7.48282E-01-1.49254E-02 1.52578E+00 1.03888E-13 2.02479E-13
 -1      3124 2.18458E+01-1.34188E+00 1.90074E-02 1.10024E+00 9.81567E-14 2.06503E-13
 -1      3125 2.21707E+01-1.63190E+00-8.78647E-03 8.90094E-01 1.28021E-13 2.23480E-13
 -1      3126 2.13187E+01-1.35762E+00-2.11203E-02 1.46027E+00 1.14528E-13 1.66451E-13
 -1      3127 2.27336E+01-1.87339E+00 2.24765E-02 6.25408E-01 2.06798E-13 2.74429E-13
 -1      3128 2.30787E+01-2.06241E+00-1.58376E-02 2.82510E-01 1.87372E-13 3.25415E-13
 -1      3129 2.22260E+01-2.02384E+00-2.53754E-02 1.15555E+00 1.86522E-13 1.95098E-13
 -1      3130 2.37331E+01-2.11341E+00 1.56955E-02-1.90122E-01 1.25981E-13 4.22029E-13
 -1      3131 2.40260E+01-1.97484E+00-1.23092E-02-6.39026E-01 1.62845E-13 4.04345E-13
 -1      3132 2.34044E+01-2.47456E+00-2.26269E-02 4.75606E-01 2.22561E-13 3.90011E-13
 -1      3133 2.45449E+01-1.58598E+00-1.28398E-02-1.23249E+00 1.79050E-13 4.77152E-13
 -1      3134 2.46762E+01-9.59282E-01-2.64635E-02-1.60681E+00 8.62106E-14 4.98759E-13
 -1      3135 2.46408E+01-2.13794E+00 4.40571E-03-6.45754E-01 2.12254E-13 5.47716E-13
 -1      3136 2.43428E+01 2.39173E+00-5.53870E-02-1.81611E+00-4.46032E-13 1.70153E-13
 -1      3137 2.42230E+01 3.22113E+00-1.60667E-02-1.21702E+00-5.98500E-13 9.27956E-14
 -1      3138 2.48265E+01 4.44297E+00-9.01086E-02-4.73736E-03-7.72549E-13-6.36769E-14
 -1      3139 2.49082E+01 4.18336E+00-9.91725E-02 8.71115E-01-7.82832E-13-1.63017E-13
 -1      3140 2.47499E+01 1.12477E+00-1.25309E-02 2.08837E+00-2.50591E-13-4.98082E-13
 -1      3141 2.48465E+01-1.92746E-02-5.03248E-02 2.07832E+00-8.60909E-14-5.50048E-13
 -1      3142 2.46281E+01-9.63585E-01-2.03039E-02 1.61106E+00 2.88346E-14-5.32435E-13
 -1      3143 2.45068E+01-1.61294E+00-1.88542E-02 1.24134E+00 9.30905E-14-3.48629E-13
 -1      3144 2.54170E+01-7.52867E-01-3.91947E-02 1.76545E+00 1.39576E-14-5.22615E-13
 -1      3145 2.40047E+01-1.97258E+00-1.02938E-02 6.10356E-01-3.60000E-14-2.81942E-13
 -1      3146 2.36839E+01-2.09111E+00 1.16925E-02 1.72469E-01 4.10739E-15-3.08972E-13
 -1      3147 2.46188E+01-2.21300E+00 6.00331E-03 6.18952E-01 9.53634E-14-3.52254E-13
 -1      3148 2.30486E+01-2.02052E+00-1.29547E-02-2.75300E-01 8.32609E-14-2.31936E-13
 -1      3149 2.27001E+01-1.82524E+00 2.32738E-02-6.08752E-01 1.24346E-13-7.22920E-14
 -1      3150 2.33270E+01-2.42179E+00-2.99816E-02-4.54338E-01 1.42596E-13-2.03951E-13
 -1      3151 2.21434E+01-1.58099E+00-8.12069E-03-8.65989E-01 7.27734E-14 1.18093E-13
 -1      3152 2.18231E+01-1.28676E+00 1.97189E-02-1.06583E+00 7.04427E-14 1.18786E-13
 -1      3153 2.21949E+01-1.96354E+00-2.32346E-02-1.12038E+00 1.98342E-13-1.11465E-14
 -1      3154 2.14223E+01-1.01117E+00-2.08862E-03-1.16244E+00 9.54757E-14 1.60836E-13
 -1      3155 2.11648E+01-7.39531E-01 1.33408E-02-1.25426E+00 1.40526E-13 2.10064E-13
 -1      3156 2.12952E+01-1.29059E+00-1.94295E-02-1.41205E+00 1.72066E-13 1.59994E-13
 -1      3157 2.09086E+01-5.08968E-01 9.17620E-04-1.25587E+00 1.70637E-13 8.73212E-14
 -1      3158 2.07200E+01-3.03002E-01 7.81349E-03-1.27441E+00 1.64829E-13 2.28433E-13
 -1      3159 2.06931E+01-6.79577E-01-1.38850E-02-1.46003E+00 1.50254E-13 3.74969E-14
 -1      3160 2.05695E+01-1.37114E-01 1.98976E-03-1.22699E+00 5.86640E-14 1.64750E-13
 -1      3161 2.04378E+01 7.22256E-04 4.00952E-03-1.20021E+00 6.92316E-14 1.60277E-13
 -1      3162 2.03247E+01-2.20464E-01-9.01564E-03-1.38257E+00 1.09345E-13-1.05112E-13
 -1      3163 2.03575E+01 1.06381E-01 2.31205E-03-1.12961E+00 4.93560E-14 1.80759E-13
 -1      3164 2.02670E+01 1.87545E-01 1.58139E-03-1.07748E+00 1.44875E-15 1.63809E-13
 -1      3165 2.01171E+01 8.57550E-02-5.29979E-03-1.24573E+00 4.76664E-14-8.28178E-14
 -1      3166 2.02298E+01 2.45867E-01 2.29284E-03-9.98673E-01-3.57928E-14 1.58966E-13
 -1      3167 2.01672E+01 2.85337E-01 1.28069E-04-9.34641E-01-8.18425E-15 1.76723E-13
 -1      3168 2.00117E+01 2.66059E-01-2.83572E-03-1.08588E+00-1.75670E-14 1.21811E-13
 -1      3169 2.01546E+01 3.10151E-01 2.15259E-03-8.56077E-01-1.42591E-13 1.26702E-13
 -1      3170 2.01101E+01 3.21552E-01-6.70015E-04-7.88935E-01-1.48085E-13 2.28322E-14
 -1      3171 1.99666E+01 3.54070E-01-1.34720E-03-9.23054E-01-8.12843E-14 1.10455E-13
 -1      3172 2.01104E+01 3.24585E-01 1.97779E-03-7.15327E-01-3.85940E-14 4.11671E-14
 -1      3173 2.00776E+01 3.18636E-01-1.04800E-03-6.50591E-01 2.55090E-15-7.07021E-14
 -1      3174 1.99545E+01 3.79906E-01-5.14457E-04-7.68158E-01-1.33277E-13 6.18144E-14
 -1      3175 2.00837E+01 3.08770E-01 1.79064E-03-5.84430E-01-4.38633E-14-3.88278E-14
 -1      3176 2.00587E+01 2.93232E-01-1.16789E-03-5.25311E-01 8.28907E-15-1.62178E-13
 -1      3177 1.99584E+01 3.67152E-01-8.91552E-05-6.27043E-01-5.48942E-14-3.13598E-14
 -1      3178 2.00666E+01 2.76716E-01 1.59542E-03-4.67689E-01 1.05132E-13-2.28861E-13
 -1      3179 2.00470E+01 2.56866E-01-1.13821E-03-4.15786E-01 9.36268E-14-2.25241E-13
 -1      3180 1.99686E+01 3.32900E-01 9.88086E-05-5.02547E-01 1.19984E-14 1.19663E-15
 -1      3181 2.00546E+01 2.37838E-01 1.39530E-03-3.66887E-01 5.72812E-14-1.55761E-13
 -1      3182 2.00390E+01 2.17057E-01-1.03012E-03-3.22704E-01 4.51202E-14-5.23117E-14
 -1      3183 1.99800E+01 2.88822E-01 1.57254E-04-3.95565E-01 1.13169E-13-5.52052E-14
 -1      3184 2.00454E+01 1.98092E-01 1.19557E-03-2.82131E-01-7.35884E-14-7.12673E-14
 -1      3185 2.00327E+01 1.78407E-01-8.87905E-04-2.45467E-01-7.99832E-14-1.39776E-13
 -1      3186 1.99901E+01 2.42452E-01 1.52438E-04-3.05709E-01 2.86872E-14 2.35377E-14
 -1      3187 2.00376E+01 1.60979E-01 1.00011E-03-2.12474E-01 8.69277E-14-1.32293E-13
 -1      3188 2.00273E+01 1.43486E-01-7.37349E-04-1.82711E-01 2.29619E-13-1.62415E-14
 -1      3189 1.99978E+01 1.98349E-01 1.27174E-04-2.31768E-01 6.60107E-14-7.01704E-14
 -1      3190 2.00307E+01 1.28358E-01 8.11253E-04-1.56401E-01 1.61487E-13 4.39297E-14
 -1      3191 2.00225E+01 1.13592E-01-5.11546E-04-1.32692E-01 1.19081E-13-2.02976E-14
 -1      3192 2.00031E+01 1.59047E-01 1.25006E-04-1.72126E-01 1.82092E-13 5.59919E-14
 -1      3193 2.00257E+01 1.01402E-01 6.87936E-04-1.14442E-01 8.26819E-14-4.06489E-14
 -1      3194 2.00190E+01 8.93913E-02-2.96628E-04-9.56398E-02 4.33260E-14-7.04699E-15
 -1      3195 2.00091E+01 9.83714E-02-3.53191E-04-9.38648E-02 1.09354E-14-4.57232E-14
 -1      3196 2.00071E+01 1.25462E-01-1.22630E-04-1.27295E-01 2.29557E-13-5.22384E-14
 -1      3197 1.99437E+01 1.65789E-01-1.56674E-05-3.96192E-02 2.93391E-14 1.04567E-13
 -1      3198 1.99383E+01 1.70146E-01-5.11840E-04-2.61020E-02 8.07031E-14-2.79939E-14
 -1      3199 2.01265E+01 2.99596E-01 2.58351E-03-7.91157E-01 7.49795E-14-1.30413E-13
 -1      3200 2.00947E+01 2.74968E-01-1.36707E-03-7.26325E-01 9.90547E-14-1.60568E-13
 -1      3201 2.01141E+01 2.56520E-01 2.15755E-03-6.64591E-01 1.11806E-13-1.44751E-13
 -1      3202 2.00913E+01 2.41520E-01-5.71512E-04-6.05344E-01 1.10442E-13-1.19456E-13
 -1      3203 2.00602E+01 3.20055E-01-2.01658E-04-6.98829E-01 1.12031E-13-1.09514E-13
 -1      3204 2.01671E+01 4.05729E-01 3.32196E-03-1.09870E+00 6.07560E-14-6.95762E-15
 -1      3205 2.01197E+01 3.79232E-01-2.44845E-03-1.01484E+00 6.63794E-14-6.97333E-14
 -1      3206 2.01978E+01 4.37237E-01 3.75436E-03-1.28449E+00 1.83270E-14 1.21054E-13
 -1      3207 2.01401E+01 4.23823E-01-2.61833E-03-1.19174E+00 4.43185E-14 9.60170E-14
 -1      3208 1.99434E+01 4.93408E-01 7.56165E-04-1.15577E+00-8.19857E-15 4.34667E-15
 -1      3209 2.02474E+01 4.18923E-01 4.35725E-03-1.48762E+00-1.65216E-14 9.34820E-14
 -1      3210 2.01728E+01 4.34918E-01-2.29896E-03-1.39048E+00 6.41023E-14 1.36216E-13
 -1      3211 1.98974E+01 5.21180E-01 4.54103E-04-1.35441E+00-7.41536E-15 7.30188E-14
 -1      3212 2.03418E+01 3.06736E-01 5.25984E-03-1.69751E+00-1.21312E-14 1.05082E-13
 -1      3213 2.02360E+01 3.76555E-01-1.09817E-03-1.60510E+00-6.19456E-14 4.96987E-14
 -1      3214 1.98619E+01 4.83441E-01-8.27261E-04-1.57901E+00-2.02568E-14 3.49304E-14
 -1      3215 2.05314E+01 3.87865E-02 6.47367E-03-1.89345E+00-1.19701E-13 1.61190E-13
 -1      3216 2.03686E+01 1.96172E-01 1.75458E-03-1.82198E+00-2.93177E-14 1.47798E-13
 -1      3217 1.98677E+01 3.26412E-01-3.96502E-03-1.82739E+00-7.54104E-14 6.83997E-14
 -1      3218 2.09036E+01-4.59558E-01 7.57826E-03-2.03559E+00-2.22375E-13 1.09295E-13
 -1      3219 2.06430E+01-1.75515E-01 7.65462E-03-2.01307E+00-1.56175E-13 1.41448E-13
 -1      3220 1.99772E+01-2.47012E-02-1.00535E-02-2.09104E+00-1.23005E-13 1.40203E-13
 -1      3221 2.15849E+01-1.24964E+00 5.37300E-03-2.04767E+00-3.32733E-13 4.27701E-14
 -1      3222 2.11781E+01-8.09735E-01 1.84441E-02-2.12079E+00-2.68684E-13 3.63023E-14
 -1      3223 2.03026E+01-6.57297E-01-1.99417E-02-2.34084E+00-2.12798E-13 1.44702E-14
 -1      3224 2.27314E+01-2.27504E+00 1.24451E-03-1.77404E+00-3.73558E-13 1.09605E-13
 -1      3225 2.21454E+01-1.72962E+00 3.72200E-02-2.01885E+00-3.82294E-13 9.80130E-14
 -1      3226 2.10252E+01-1.65508E+00-3.83571E-02-2.49619E+00-3.69252E-13-2.81537E-14
 -1      3227 2.44263E+01-3.19909E+00-2.46158E-03-9.90577E-01-3.46917E-13 2.14535E-13
 -1      3228 2.36913E+01-2.77738E+00 5.47757E-02-1.49554E+00-3.59688E-13 1.95908E-13
 -1      3229 2.23765E+01-2.90599E+00-6.11419E-02-2.32815E+00-4.28196E-13 8.59937E-14
 -1      3230 1.23265E+01-1.28103E+00 1.29588E-01-4.55707E+00 3.48249E-13 3.94948E-13
 -1      3231 1.50207E+01-2.64383E+00-2.66619E-03-5.47257E+00 4.97061E-13 3.43045E-13
 -1      3232 2.75426E+01 1.63405E+00-9.81307E-02-2.45714E+00 3.34455E-13-1.59164E-13
 -1      3233 2.44109E+01-3.08862E+00 5.44315E-02 1.09531E+00-4.88730E-14-1.28691E-13
 -1      3234 2.51497E+01-3.30247E+00-9.89529E-03 4.87593E-01-1.64112E-13-1.61708E-13
 -1      3235 2.14816E+01-1.09462E+00 2.29769E-02 2.07966E+00 1.10298E-13 1.05715E-13
 -1      3236 2.19581E+01-1.58480E+00 6.17154E-03 1.95679E+00 1.72118E-13 3.88336E-14
 -1      3237 2.08153E+01-3.44467E-01 1.10959E-02 2.01562E+00-8.24694E-14 1.61238E-13
 -1      3238 2.11219E+01-6.85914E-01 7.84972E-03 2.01570E+00 8.97286E-14 2.16434E-13
 -1      3239 2.05106E+01-9.45180E-01-2.56603E-02 2.37125E+00 3.13165E-14 3.30766E-13
 -1      3240 2.04650E+01 1.22827E-01 3.89963E-03 1.83229E+00-7.28999E-14 1.02032E-14
 -1      3241 2.06545E+01-8.00193E-02 6.90045E-03 1.89738E+00-9.30436E-14 9.87936E-14
 -1      3242 2.00671E+01-1.81685E-01-1.27530E-02 2.13117E+00-1.36330E-14 1.47889E-13
 -1      3243 2.02941E+01 3.71355E-01 2.18691E-05 1.60368E+00 1.87006E-14-1.91247E-13
 -1      3244 2.04130E+01 2.70342E-01 5.57818E-03 1.69952E+00 1.41008E-14-1.23886E-13
 -1      3245 1.98931E+01 2.70191E-01-5.45973E-03 1.85296E+00 9.54457E-14 1.11300E-13
 -1      3246 2.02145E+01 4.73535E-01-1.74713E-03 1.36698E+00 2.23537E-13-3.62057E-13
 -1      3247 2.02939E+01 4.38013E-01 4.44084E-03 1.47354E+00 3.91468E-14-3.34125E-13
 -1      3248 1.98571E+01 4.96371E-01-1.49589E-03 1.57989E+00 7.95972E-14-7.49317E-14
 -1      3249 2.01760E+01 4.87984E-01-2.37682E-03 1.14070E+00 1.66050E-13-1.05142E-13
 -1      3250 2.02342E+01 4.90433E-01 3.67737E-03 1.24634E+00 1.92013E-13-2.46721E-13
 -1      3251 1.98796E+01 5.77237E-01 3.15853E-04 1.32682E+00 5.91522E-14-3.55395E-13
 -1      3252 2.01534E+01 4.55055E-01-2.43834E-03 9.34148E-01 1.56907E-13 1.88173E-13
 -1      3253 2.01998E+01 4.77198E-01 3.18238E-03 1.03226E+00 1.88945E-13 8.78232E-14
 -1      3254 1.99193E+01 5.73469E-01 9.59190E-04 1.09818E+00 5.20746E-14-7.73514E-14
 -1      3255 2.01357E+01 4.00300E-01-2.23183E-03 7.51810E-01 1.81462E-15 3.85643E-13
 -1      3256 2.01746E+01 4.30817E-01 2.81071E-03 8.39015E-01 1.33756E-13 3.20642E-13
 -1      3257 1.99575E+01 5.25207E-01 1.02248E-03 8.95561E-01 4.92447E-14 3.09984E-13
 -1      3258 2.01186E+01 3.38830E-01-1.91951E-03 5.95095E-01-8.83050E-14 3.22001E-13
 -1      3259 2.01519E+01 3.71162E-01 2.48392E-03 6.70130E-01-3.34501E-14 3.60937E-13
 -1      3260 1.99873E+01 4.57501E-01 8.46162E-04 7.19391E-01-1.93731E-14 4.53728E-13
 -1      3261 2.01016E+01 2.78966E-01-1.58602E-03 4.63402E-01-1.05955E-13 1.26078E-13
 -1      3262 2.01300E+01 3.09588E-01 2.17010E-03 5.26332E-01-8.11789E-14 1.44768E-13
 -1      3263 2.00077E+01 3.85067E-01 6.07966E-04 5.69074E-01 1.61745E-15 2.55803E-13
 -1      3264 2.00849E+01 2.24856E-01-1.27275E-03 3.54877E-01 8.35930E-14-7.44082E-14
 -1      3265 2.01088E+01 2.52085E-01 1.86347E-03 4.06554E-01 2.43405E-14 6.04996E-14
 -1      3266 2.00197E+01 3.15963E-01 3.89424E-04 4.43142E-01 4.71706E-14-1.28546E-13
 -1      3267 2.00692E+01 1.78184E-01-1.00079E-03 2.66971E-01-5.29596E-15-2.64417E-13
 -1      3268 2.00890E+01 2.01417E-01 1.56992E-03 3.08654E-01 7.53670E-14-1.91211E-13
 -1      3269 2.00256E+01 2.54144E-01 2.18398E-04 3.39450E-01 1.38138E-13-2.68047E-13
 -1      3270 2.00549E+01 1.39231E-01-7.79216E-04 1.96890E-01-4.90871E-14-2.34805E-13
 -1      3271 2.00711E+01 1.58462E-01 1.29319E-03 2.29972E-01-1.34389E-14-2.83970E-13
 -1      3272 2.00271E+01 2.01121E-01 1.01343E-04 2.55433E-01-2.58941E-14 6.19561E-14
 -1      3273 2.00422E+01 1.07824E-01-5.79168E-04 1.41888E-01-2.80571E-14-2.91450E-13
 -1      3274 2.00552E+01 1.23183E-01 1.03532E-03 1.67788E-01-3.72974E-14-2.79008E-13
 -1      3275 2.00257E+01 1.57123E-01 5.62824E-05 1.88514E-01-4.73892E-14-9.82433E-14
 -1      3276 2.00316E+01 8.34105E-02-1.44312E-04 9.94393E-02-1.39467E-13-2.54478E-13
 -1      3277 2.00415E+01 9.48806E-02 7.81843E-04 1.19151E-01-7.08580E-14-2.51455E-13
 -1      3278 2.00225E+01 1.21572E-01-1.09583E-05 1.35929E-01-6.57665E-14-2.85808E-13
 -1      3279 2.00224E+01 7.37308E-02 1.45209E-04 7.71417E-02-3.24620E-13-1.19642E-13
 -1      3280 2.00297E+01 7.83298E-02 5.41842E-04 8.84631E-02-2.54162E-13-2.77750E-13
 -1      3281 2.00178E+01 9.90117E-02-1.71896E-04 1.01888E-01-2.29851E-13-3.50700E-13
 -1      3282 2.00130E+01 8.52934E-02-5.72311E-04 8.08197E-02-4.29220E-13-3.84350E-13
 -1      3283 2.00179E+01 2.26855E+00-4.27401E-03 2.63181E-01 1.92365E-13-4.95086E-13
 -1      3284 2.00008E+01 2.31054E+00-3.60379E-03 1.52191E-01 1.23241E-13-5.08434E-13
 -1      3285 1.99355E+01 1.73954E-01-2.67311E-04-8.45159E-03 8.96547E-14-4.11213E-13
 -1      3286 1.99353E+01 1.74248E-01-3.10765E-04 6.52192E-03 2.68708E-13-5.88995E-13
 -1      3287 1.99246E+01 1.93409E-01 7.09613E-04-1.98893E-02 1.99664E-13-2.46081E-13
 -1      3288 2.68997E+01 2.35624E-01-1.76085E-01-1.92273E+00-3.79002E-13 6.14807E-13
 -1      3289 2.71000E+01-1.36311E+00 3.49039E-02-1.23524E+00-8.62088E-14 5.62307E-13
 -1      3290 2.27621E+01-4.09672E+00 9.17975E-02-3.28054E+00-5.78367E-13 5.80352E-15
 -1      3291 2.46924E+01-4.04271E+00-6.98204E-02-1.66119E+00-3.75460E-13 2.88226E-13
 -1      3292 1.45479E+01-2.24892E+00 1.27710E-03 5.03917E+00-4.91142E-13-4.12032E-13
 -1      3293 1.20528E+01-1.02154E+00 9.92062E-02 4.05651E+00-4.28720E-13-7.53148E-14
 -1      3294 1.99610E+01 1.47974E-01 2.05249E-04-6.51201E-02-7.76788E-14 1.11408E-13
 -1      3295 1.99511E+01 1.56080E-01-6.52342E-04-5.45787E-02-4.75258E-14 1.18156E-13
 -1      3296 1.99371E+01 1.80577E-01 6.20044E-04-5.43373E-02 1.84588E-14-1.14901E-14
 -1      3297 2.26413E+01-2.10301E+00 4.22327E-02 1.86550E+00 1.26956E-13 6.86061E-15
 -1      3298 2.32929E+01-2.64877E+00-3.05932E-03 1.53861E+00 5.22421E-14 3.26737E-14
 -1      3299 2.14323E+01-2.07676E+00-4.76641E-02 2.46115E+00 9.81381E-14 9.72954E-14
 -1      3300 2.01444E+01 3.53575E-01 2.95529E-03-9.34415E-01 7.43026E-14-7.98538E-14
 -1      3301 2.01049E+01 3.24519E-01-2.00183E-03-8.60685E-01 6.84365E-14-1.02741E-13
 -1      3302 2.00258E+01 3.73054E-01 2.17219E-04-8.31866E-01 5.38904E-14-7.87750E-14
 -1      3303 1.99873E+01 4.36149E-01 5.76632E-04-9.82499E-01 5.90819E-14-3.53863E-14
 -1      3304 2.01381E+01 2.91635E-01 9.82284E-05-2.87890E-01 1.74284E-13-1.21422E-13
 -1      3305 2.01555E+01 3.38268E-01 2.93412E-03-2.04922E-01 2.00180E-13-1.24022E-13
 -1      3306 2.02928E+01 7.93652E-01 4.97070E-03-2.42861E-01-2.48843E-13-3.22872E-13
 -1      3307 2.02518E+01 6.45400E-01-2.97742E-03-9.40750E-02-2.29490E-13-2.78292E-13
 -1      3308 2.02768E+01 7.00092E-01-2.67461E-04-5.53918E-02-1.93334E-13-3.07394E-13
 -1      3309 1.99842E+01 1.22047E-01 6.00108E-05-8.08425E-02-8.03611E-14 2.54965E-13
 -1      3310 1.99722E+01 1.33492E-01-6.60886E-04-7.53112E-02 4.87947E-15 1.13536E-13
 -1      3311 1.99596E+01 1.57706E-01 4.63690E-04-8.10045E-02 8.74853E-14 2.06417E-13
 -1      3312 2.30490E+01-4.70545E+00-1.00091E-01 3.50711E+00 3.99007E-13 2.61877E-13
 -1      3313 2.10777E+01-4.34454E+00 1.10296E-01 4.59286E+00 5.12916E-13-5.33566E-14
 -1      3314 1.37419E+01-2.23562E+00 4.75847E-02 5.35652E+00 4.83488E-13-6.61901E-13
 -1      3315 1.14302E+01-9.31787E-01 1.18696E-01 4.06076E+00 4.10456E-13-8.19872E-13
 -1      3316 1.04138E+01-2.62960E-01 9.33742E-02 2.90208E+00-2.84630E-13 1.85019E-13
 -1      3317 9.62382E+00 2.78287E-01 8.59098E-02 9.40911E-01-1.81209E-14 3.46334E-13
 -1      3318 1.28157E+01-3.14260E-01 1.21375E-01 3.17522E+00-4.15314E-13-1.19925E-13
 -1      3319 2.02401E+01 1.64290E+00-6.35616E-03-7.87515E-01-3.40731E-13-4.48257E-13
 -1      3320 2.02720E+01 1.42149E+00 4.13922E-04-6.76403E-01-3.26428E-13-4.19619E-13
 -1      3321 2.01787E+01 1.89698E+00 2.02002E-03-7.25532E-01-2.91058E-13-4.70546E-13
 -1      3322 2.62966E+01 3.83453E+00-1.52829E-01-1.83057E+00-8.07285E-13 3.87607E-13
 -1      3323 2.68619E+01 2.42311E+00-3.73412E-02-2.25757E+00-7.23338E-13 5.50768E-13
 -1      3324 2.63135E+01-3.29656E+00-1.49216E-01 2.84284E-01 1.27759E-13 3.72233E-13
 -1      3325 2.53113E+01-4.09029E+00 8.89331E-02 1.83686E+00 2.83639E-13 3.64403E-13
 -1      3326 2.77356E+01 3.27232E-02-5.33715E-03 2.35670E+00 1.70586E-13 4.95257E-13
 -1      3327 1.78613E+01-3.73481E+00 1.34346E-01-5.40549E+00-7.14317E-13-3.81556E-13
 -1      3328 1.98791E+01-4.35557E+00 2.78962E-02-4.91870E+00-6.98018E-13-1.96582E-13
 -1      3329 1.66588E+01-3.02454E+00 8.76209E-02-5.16177E+00-6.17395E-13-3.20834E-13
 -1      3330 2.00900E+01-4.19886E+00-6.40535E-02 4.67874E+00-4.57953E-13-2.13066E-13
 -1      3331 1.75176E+01-3.14325E+00 1.23593E-01 5.04244E+00-4.05766E-13-3.55257E-13
 -1      3332 2.31090E+01-4.44575E+00 9.70544E-02-3.46041E+00 5.77705E-13-3.41446E-14
 -1      3333 2.47960E+01-4.37570E+00-1.11182E-01-2.11709E+00 4.10880E-13-4.20143E-13
 -1      3334 9.57621E+00-1.36636E-01 8.92505E-02 2.36796E+00 3.27004E-13-7.00356E-13
 -1      3335 8.95505E+00 1.89333E-01 1.18835E-01 5.43182E-01 1.15689E-13-7.15844E-13
 -1      3336 1.85152E+01-4.03868E+00-1.98700E-02 5.42412E+00 4.96408E-13-3.70370E-13
 -1      3337 1.61792E+01-3.05746E+00 1.23165E-01 5.55230E+00 4.89372E-13-4.86139E-13
 -1      3338 1.57116E+01-2.19620E+00 6.98343E-02 4.87910E+00 4.52166E-13-5.30742E-13
 -1      3339 2.00601E+01-3.65922E+00 6.01001E-02 4.45708E+00 4.68327E-13-1.00928E-13
 -1      3340 2.63517E+01-3.31869E+00 6.09590E-02-5.12252E-01 3.41458E-13-5.73562E-13
 -1      3341 2.67194E+01-2.05715E+00-1.33920E-01 8.33063E-01 1.17389E-13-6.19650E-13
 -1      3342 2.67281E+01-9.67656E-02-3.03661E-03 1.93578E+00-1.76838E-13-5.91631E-13
 -1      3343 2.65093E+01 1.61031E+00-1.27696E-01 2.17026E+00-4.72504E-13-4.76584E-13
 -1      3344 2.50884E+01-4.44244E+00-6.87582E-02 1.86945E+00-2.70894E-13-6.20745E-13
 -1      3345 2.32059E+01-4.27489E+00 9.67630E-02 3.15702E+00-3.53950E-13-4.25802E-13
 -1      3346 1.80193E+01-3.56345E+00 1.09367E-01-5.37059E+00 5.67352E-13 3.98570E-13
 -1      3347 2.04332E+01-4.43192E+00-8.00664E-02-4.78677E+00 5.90278E-13 3.57353E-13
 -1      3348 2.88550E+01 5.83918E+00-2.12900E-01-4.73025E-01 6.53977E-13 3.87190E-14
 -1      3349 2.78336E+01 5.29364E+00-7.14738E-02-1.13923E+00 7.14401E-13 1.44343E-13
 -1      3350 2.73316E+01-1.71316E+00-1.17316E-01 1.83521E+00 2.94591E-14 4.97342E-13
 -1      3351 2.66786E+01-2.99629E+00-1.97365E-03 4.72215E-01-1.30933E-13 4.70082E-13
 -1      3352 2.58763E+01-3.50768E+00 9.04767E-03-3.24619E-01-2.93423E-13 3.88134E-13
 -1      3353 1.99919E+01 2.33193E+00-3.70574E-03 6.03172E-02 8.74761E-14-4.99334E-13
 -1      3354 1.99922E+01 2.33507E+00-2.71256E-03-5.14229E-02 2.21569E-14-5.04440E-13
 -1      3355 2.00975E+01 2.05316E+00 5.55296E-03 8.76862E-02 9.61460E-14-4.58477E-13
 -1      3356 2.02538E+01 1.54693E+00 7.00823E-03 5.13327E-01 3.33525E-13-3.31284E-13
 -1      3357 2.01590E+01 1.87913E+00-6.64056E-03 6.22381E-01 3.54945E-13-3.82975E-13
 -1      3358 2.01158E+01 2.01544E+00-3.17329E-03 5.32742E-01 3.11120E-13-3.98336E-13
 -1      3359 2.02919E+01 1.02521E+00-2.53383E-03-3.25528E-01-2.37992E-13-3.84457E-13
 -1      3360 2.56840E+01-1.27794E+00-5.59546E-02-1.52630E+00-3.06370E-14 5.84831E-13
 -1      3361 2.51593E+01-3.83705E-01-4.06486E-02-1.97928E+00-1.23289E-13 5.03909E-13
 -1      3362 1.99714E+01 1.37123E-01-6.79866E-04 7.52777E-02-1.35117E-13-2.85258E-13
 -1      3363 1.99838E+01 1.26099E-01 2.20607E-04 8.12128E-02-1.18129E-13 2.36418E-14
 -1      3364 2.51200E+01 7.32133E-01-1.90062E-02-2.02250E+00-2.67560E-13 4.73837E-13
 -1      3365 2.58823E+01 4.25462E+00-9.94416E-02 1.57996E+00-7.73742E-13-2.31239E-13
 -1      3366 2.42938E+01 3.00591E+00-2.93818E-02 1.39983E+00-5.92498E-13-3.15314E-13
 -1      3367 2.44606E+01 2.05595E+00-9.52534E-02 1.96898E+00-4.40096E-13-4.46945E-13
 -1      3368 2.61418E+01-2.25298E+00-1.21282E-02-6.09827E-01 7.59471E-14 5.08260E-13
 -1      3369 2.01182E+01 2.61195E-01 1.57957E-03-3.60389E-01 1.66721E-13-1.16217E-13
 -1      3370 2.01690E+01 3.40601E-01-1.36561E-03-3.11271E-01 1.64777E-13-1.46443E-13
 -1      3371 2.01168E+01 2.41969E-01 9.75833E-04-4.26344E-01 1.24210E-13-9.30482E-14
 -1      3372 1.26592E+01-5.91666E-01 1.14300E-01-3.63701E+00 1.47625E-13 2.98483E-13
 -1      3373 2.02148E+01 4.53059E-01-1.48440E-03-1.38350E-01 2.29543E-13-1.33996E-13
 -1      3374 2.01750E+01 4.00155E-01-1.01802E-03-1.11989E-01 2.48777E-13-1.43091E-13
 -1      3375 2.02081E+01 4.86174E-01 3.79742E-03 8.74068E-04 2.99206E-13-1.20346E-13
 -1      3376 2.00780E+01 2.16234E+00-8.52370E-04-5.51587E-01-2.09138E-13-5.47385E-13
 -1      3377 2.01167E+01 2.02920E+00-5.98832E-03-6.44779E-01-2.65752E-13-5.31211E-13
 -1      3378 2.01875E+01 1.80918E+00 2.26425E-03-5.82689E-01-2.54812E-13-4.98357E-13
 -1      3379 2.00933E+01 2.89275E-01-6.27161E-04-5.75546E-01 1.07374E-13-1.21779E-13
 -1      3380 2.01098E+01 2.34166E-01 1.63812E-03-5.46803E-01 8.60042E-14-1.19437E-13
 -1      3381 2.00978E+01 2.33524E-01 4.00369E-04-4.87877E-01 7.88895E-14-9.72467E-14
 -1      3382 1.71677E+01-2.60990E+00 7.97414E-02-4.84147E+00 4.42750E-13 3.86392E-13
 -1      3383 2.31040E+01-3.37728E+00-6.89374E-02 2.14854E+00-1.03000E-13-1.86273E-13
 -1      3384 2.64530E+01-3.12908E+00 9.82133E-04-4.04279E-01-1.72285E-13-2.10172E-13
 -1      3385 2.70660E+01-2.28201E+00-3.39756E-02-1.12517E+00-6.34284E-14-2.35256E-13
 -1      3386 2.00425E+01 2.20659E+00-3.67971E-03 3.50190E-01 2.31490E-13-4.72942E-13
 -1      3387 2.01293E+01 1.97158E+00 6.61452E-03 2.51773E-01 1.94472E-13-4.40355E-13
 -1      3388 2.00745E+01 2.11973E+00-5.69891E-03 4.53757E-01 2.86949E-13-4.27546E-13
 -1      3389 1.99502E+01 1.58960E-01-6.49984E-04 5.35618E-02 2.17978E-13-2.11226E-13
 -1      3390 1.99600E+01 1.51248E-01 1.86508E-04 6.44720E-02 1.64218E-13-3.15252E-13
 -1      3391 1.99581E+01 1.62204E-01 4.54319E-04 8.03115E-02-1.76602E-14 1.73907E-15
 -1      3392 1.02274E+01 5.70202E-01 1.25464E-01-1.34487E-01-4.93616E-15 3.43128E-13
 -1      3393 1.12739E+01 5.90564E-01 6.50972E-02-1.08189E+00 4.88346E-14 3.82798E-13
 -1      3394 1.15198E+01 6.54422E-01 5.43255E-02 8.91426E-01-2.04501E-13 1.18724E-13
 -1      3395 2.61628E+01 1.12925E+00-2.80776E-02-2.14374E+00-4.29920E-13 5.68483E-13
 -1      3396 1.99377E+01 1.71659E-01-4.89020E-04 2.42451E-02 2.65124E-13-5.03042E-13
 -1      3397 1.99430E+01 1.67707E-01-7.18555E-05 3.82443E-02 2.31838E-13-5.02996E-13
 -1      3398 1.99360E+01 1.83864E-01 6.69621E-04 5.23838E-02 1.58297E-13-4.04203E-13
 -1      3399 1.99242E+01 1.94568E-01 7.19108E-04 1.74429E-02 2.97590E-13-6.29083E-13
 -1      3400 1.14190E+01-3.11485E-01 1.15450E-01 3.19271E+00 3.23869E-13-7.39173E-13
 -1      3401 1.17361E+01 2.13175E-01 6.20860E-02 2.24335E+00 2.08493E-13-6.49078E-13
 -1      3402 1.32950E+01-6.10648E-01 1.77132E-02 3.64911E+00 3.91982E-13-7.06206E-13
 -1      3403 2.02648E+01 1.45621E+00 2.80112E-03-5.72777E-01-2.74597E-13-4.37711E-13
 -1      3404 1.19136E+01-1.09700E+00 1.47661E-01-4.12207E+00-3.72022E-13-5.24247E-13
 -1      3405 1.39972E+01-1.48569E+00 1.57776E-02-4.35826E+00-4.90146E-13-2.74294E-13
 -1      3406 1.18581E+01-3.24463E-01 8.09384E-02-3.14626E+00-2.76921E-13-5.23324E-13
 -1      3407 2.21196E+01-3.87849E+00 1.09617E-01-3.52171E+00 4.77295E-13-7.59358E-14
 -1      3408 2.49158E+01 4.04877E+00-1.16955E-01-1.16152E+00-6.96318E-13 1.30188E-13
 -1      3409 2.51455E+01-3.53559E+00 2.87447E-02-9.96255E-01 3.30541E-13-4.92047E-13
 -1      3410 2.59991E+01-1.20167E+00-3.61222E-02 1.39044E+00 1.01025E-13-6.26214E-13
 -1      3411 1.69265E+01-2.11255E+00 1.18556E-01 4.43400E+00-3.57370E-13-2.86972E-13
 -1      3412 9.63157E+00 3.56639E-01 1.44086E-01-4.26280E-01-1.60666E-14-6.47177E-13
 -1      3413 1.05480E+01 2.89607E-01 5.54273E-02-1.43554E+00-1.34654E-13-5.15976E-13
 -1      3414 1.06371E+01 5.15006E-01 5.49018E-02 3.56077E-01 5.97369E-14-5.16670E-13
 -1      3415 2.00001E+01 1.06851E-01-2.49428E-04-9.06056E-02 3.46086E-14 2.92992E-13
 -1      3416 1.99915E+01 1.14232E-01-3.68382E-04-8.60529E-02 3.18423E-15 3.76930E-13
 -1      3417 1.99817E+01 1.36387E-01 3.86885E-04-9.66732E-02 1.23057E-13 3.67185E-13
 -1      3418 2.00004E+01 1.20696E-01 5.34123E-04-1.05806E-01 1.78441E-13 1.52480E-13
 -1      3419 2.39405E+01-4.03695E+00 1.98925E-02 2.28723E+00 3.93019E-13 3.19765E-13
 -1      3420 2.63936E+01 3.01105E+00-9.13416E-02 2.16940E+00-6.10595E-13-4.27637E-13
 -1      3421 2.21099E+01-3.61002E+00 6.26778E-02 3.21793E+00-3.14210E-13-2.74919E-13
 -1      3422 2.02167E+01 5.64864E-01-1.96960E-03 1.05614E-01 3.23057E-13-1.28673E-13
 -1      3423 2.02627E+01 7.01151E-01 3.53385E-03 2.61968E-01 3.49658E-13-1.28459E-13
 -1      3424 2.02842E+01 8.67196E-01 8.69223E-04 3.23512E-01 3.38771E-13-1.90489E-13
 -1      3425 2.02543E+01 6.26797E-01-8.86192E-04 6.98924E-02 3.15187E-13-1.66008E-13
 -1      3426 2.00358E+01 2.25480E+00-4.15029E-03-4.56636E-01-1.52370E-13-5.50504E-13
 -1      3427 2.01081E+01 2.04585E+00 1.32714E-03-4.26825E-01-1.61854E-13-5.17770E-13
 -1      3428 2.00053E+01 2.33498E+00-2.73748E-03-3.48027E-01-9.73268E-14-5.32041E-13
 -1      3429 2.54522E+01-2.59758E+00 3.68599E-03-3.24420E-01 1.80619E-13 4.91111E-13
 -1      3430 2.03022E+01 1.00846E+00 9.79117E-04 3.71215E-01 3.24801E-13-2.31406E-13
 -1      3431 2.02853E+01 1.18581E+00-1.69668E-03 4.09342E-01 3.34668E-13-2.65400E-13
 -1      3432 2.02836E+01 8.62812E-01-1.80402E-03 2.26111E-01 3.14044E-13-2.20661E-13
 -1      3433 2.02735E+01 6.04733E-01 1.33712E-03 8.83177E-02-1.45022E-13-3.00024E-13
 -1      3434 2.02484E+01 5.15505E-01-1.25905E-03 1.81388E-01-1.18196E-13-2.57186E-13
 -1      3435 2.02233E+01 4.48578E-01 1.01778E-03 2.53726E-01-1.22235E-13-2.15394E-13
 -1      3436 2.01964E+01 3.99077E-01-4.56342E-04 3.27083E-01-1.20214E-13-2.09576E-13
 -1      3437 2.02484E+01 5.53455E-01 1.87950E-04 1.94787E-01-1.09025E-13-2.77378E-13
 -1      3438 2.01605E+01 3.65779E-01 3.46655E-04 3.87857E-01-1.14993E-13-2.05352E-13
 -1      3439 2.01356E+01 3.44854E-01 3.08470E-04 4.49757E-01-8.44784E-14-2.15094E-13
 -1      3440 2.01831E+01 4.41395E-01 1.85892E-04 3.30341E-01-1.04877E-13-2.02510E-13
 -1      3441 2.00917E+01 3.34472E-01-3.56665E-04 5.04863E-01-7.32421E-14-2.51651E-13
 -1      3442 2.00697E+01 3.32819E-01 9.21171E-04 5.61966E-01-6.43957E-14-2.67742E-13
 -1      3443 2.01022E+01 3.91695E-01 1.75240E-04 4.47891E-01-9.95420E-14-2.35532E-13
 -1      3444 2.00202E+01 3.36564E-01-9.39007E-04 6.16937E-01-4.41238E-14-2.67216E-13
 -1      3445 2.00019E+01 3.45519E-01 1.43383E-03 6.74271E-01-5.33516E-14-2.25633E-13
 -1      3446 2.00103E+01 3.84895E-01 2.26891E-04 5.58984E-01-6.64927E-14-2.84405E-13
 -1      3447 1.99485E+01 3.54864E-01-1.35620E-03 7.33603E-01-8.47002E-14-2.12166E-13
 -1      3448 1.99354E+01 3.65458E-01 1.92285E-03 7.94569E-01-8.12961E-14-1.70528E-13
 -1      3449 1.99105E+01 4.02277E-01 2.52922E-04 6.73686E-01-5.57137E-14-2.65963E-13
 -1      3450 1.98810E+01 3.71044E-01-1.55651E-03 8.61744E-01-4.66897E-14-1.50515E-13
 -1      3451 1.98763E+01 3.73008E-01 2.48177E-03 9.28117E-01-7.35654E-15-1.13527E-13
 -1      3452 1.98067E+01 4.24501E-01 1.37990E-04 8.00275E-01-4.65175E-14-1.86755E-13
 -1      3453 1.98257E+01 3.63706E-01-1.45148E-03 1.00572E+00-2.58930E-14-9.75909E-14
 -1      3454 1.98356E+01 3.44503E-01 3.21617E-03 1.07761E+00-1.96306E-14-9.24425E-14
 -1      3455 1.97053E+01 4.29597E-01-2.82499E-04 9.45437E-01-1.90915E-14-1.60624E-13
 -1      3456 1.97972E+01 3.06490E-01-8.68768E-04 1.16740E+00 1.35280E-14-7.89130E-14
 -1      3457 1.98326E+01 2.50427E-01 4.22209E-03 1.24287E+00 2.98273E-14-3.21769E-14
 -1      3458 1.96178E+01 3.90863E-01-1.26292E-03 1.11471E+00 1.28714E-14-1.21711E-13
 -1      3459 1.98212E+01 1.66656E-01 5.15154E-04 1.34522E+00-1.17271E-14 1.74523E-14
 -1      3460 1.98993E+01 5.46352E-02 5.53662E-03 1.41927E+00-6.19461E-14 8.39587E-14
 -1      3461 1.95652E+01 2.74863E-01-3.14673E-03 1.31239E+00 5.72935E-14-7.54167E-14
 -1      3462 1.99396E+01-9.45652E-02 3.28349E-03 1.53152E+00-5.33338E-14 1.00861E-13
 -1      3463 2.00855E+01-2.83885E-01 6.93941E-03 1.59364E+00 2.05955E-14 1.06384E-13
 -1      3464 1.95833E+01 4.01528E-02-6.43824E-03 1.53986E+00-5.23268E-15-3.73419E-14
 -1      3465 2.02175E+01-5.17669E-01 8.40154E-03 1.70541E+00 6.27368E-14 1.89697E-13
 -1      3466 2.04627E+01-8.03005E-01 7.40291E-03 1.73471E+00 1.06833E-13 1.64938E-13
 -1      3467 1.97305E+01-3.61631E-01-1.17652E-02 1.79028E+00 7.31297E-14 2.37093E-15
 -1      3468 2.07471E+01-1.13024E+00 1.69013E-02 1.81642E+00 1.00714E-13 1.60416E-13
 -1      3469 2.11233E+01-1.51072E+00 5.39373E-03 1.77329E+00 1.20464E-13 1.49188E-13
 -1      3470 2.00990E+01-9.78251E-01-1.99394E-02 2.03381E+00 7.97678E-14 1.25074E-13
 -1      3471 2.16359E+01-1.90756E+00 2.83950E-02 1.76187E+00 2.04516E-13 2.50124E-13
 -1      3472 2.21510E+01-2.32888E+00-3.02559E-03 1.58267E+00 2.37887E-13 2.51420E-13
 -1      3473 2.08140E+01-1.82207E+00-3.23574E-02 2.18575E+00 1.85450E-13 2.46872E-13
 -1      3474 2.29681E+01-2.67351E+00 4.46653E-02 1.34640E+00 3.06548E-13 3.56841E-13
 -1      3475 2.35476E+01-2.95630E+00-1.22995E-02 9.70483E-01 3.38741E-13 3.96398E-13
 -1      3476 2.20390E+01-2.81193E+00-4.86989E-02 2.07458E+00 3.33509E-13 3.99360E-13
 -1      3477 2.48220E+01-3.07780E+00 1.18530E-02 3.40358E-01 2.86686E-13 4.78447E-13
 -1      3478 2.10048E+01-2.86987E+00 6.63267E-02 3.38293E+00-1.43109E-13-1.48126E-13
 -1      3479 2.54824E+01 1.61231E+00-2.95949E-02 2.16494E+00-3.69642E-13-3.97519E-13
 -1      3480 2.40265E+01-3.55526E+00-5.10196E-02 1.40988E+00 3.58947E-13 4.19698E-13
 -1      3481 2.26721E+01-3.57526E+00 8.16200E-02 2.71408E+00 4.27644E-13 2.98049E-13
 -1      3482 2.36196E+01-2.82603E+00 2.59126E-02-8.87989E-01 1.79126E-13-2.80298E-13
 -1      3483 2.29534E+01-2.61963E+00 5.27554E-02-1.31622E+00 2.88832E-13-1.57298E-13
 -1      3484 2.21205E+01-2.26242E+00 2.39407E-03-1.55771E+00 2.15378E-13-1.52349E-13
 -1      3485 2.15905E+01-1.84166E+00 2.70174E-02-1.73196E+00 2.07232E-13-4.84693E-14
 -1      3486 2.20204E+01-2.79605E+00-5.80623E-02-2.07861E+00 2.48740E-13-2.40133E-13
 -1      3487 2.10962E+01-1.43471E+00 9.11147E-03-1.72225E+00 2.04871E-13-7.33545E-14
 -1      3488 2.07153E+01-1.05756E+00 1.60229E-02-1.75979E+00 2.07370E-13-6.44185E-14
 -1      3489 2.07554E+01-1.73323E+00-3.21184E-02-2.14400E+00 2.34824E-13-1.69819E-13
 -1      3490 2.04388E+01-7.28893E-01 8.10035E-03-1.66942E+00 1.45756E-13-8.81133E-14
 -1      3491 2.01964E+01-4.45676E-01 8.27237E-03-1.63349E+00 1.07301E-13-2.11237E-13
 -1      3492 2.00689E+01-8.92505E-01-1.80006E-02-1.96693E+00 1.44148E-13-2.70779E-13
 -1      3493 2.00617E+01-2.11734E-01 6.45081E-03-1.51727E+00 1.19395E-13-1.68172E-13
 -1      3494 1.99169E+01-2.13722E-02 3.28799E-03-1.44779E+00 9.68213E-14-3.00793E-13
 -1      3495 1.97030E+01-2.83859E-01-1.13456E-02-1.71624E+00 1.19978E-13-3.87967E-13
 -1      3496 1.98704E+01 1.28998E-01 5.12102E-03-1.32927E+00 4.80130E-14-2.96549E-13
 -1      3497 1.97905E+01 2.42721E-01 5.75043E-04-1.24713E+00 5.24206E-14-1.88865E-13
 -1      3498 1.95465E+01 1.20670E-01-6.06261E-03-1.45595E+00 8.04541E-14-3.63696E-13
 -1      3499 1.97930E+01 3.27900E-01 3.83631E-03-1.13744E+00 9.21567E-14-3.54884E-13
 -1      3500 1.97535E+01 3.85459E-01-8.34564E-04-1.05334E+00 9.15820E-15-2.43585E-13
 -1      3501 1.95140E+01 3.59083E-01-2.72265E-03-1.21579E+00-3.85211E-14-5.99414E-13
 -1      3502 1.97805E+01 4.24212E-01 2.84754E-03-9.55685E-01-3.72862E-14-2.11555E-13
 -1      3503 1.97643E+01 4.43526E-01-1.50162E-03-8.75228E-01-7.96851E-14-1.51812E-13
 -1      3504 1.95469E+01 4.77903E-01-8.15438E-04-1.00397E+00-3.04665E-14-4.51819E-13
 -1      3505 1.98011E+01 4.51506E-01 2.16023E-03-7.90015E-01-1.37137E-13-9.41366E-14
 -1      3506 1.97970E+01 4.46569E-01-1.74894E-03-7.16171E-01-4.41975E-14-4.20106E-14
 -1      3507 1.96097E+01 5.15983E-01 1.96193E-04-8.20433E-01-3.51638E-14-3.02400E-13
 -1      3508 1.98354E+01 4.35705E-01 1.69546E-03-6.42885E-01-2.83817E-14-2.95859E-15
 -1      3509 1.98370E+01 4.16767E-01-1.75917E-03-5.77158E-01-2.87345E-14 8.73118E-15
 -1      3510 1.96816E+01 5.03011E-01 6.71898E-04-6.63027E-01-1.34942E-15-2.62209E-13
 -1      3511 1.98726E+01 3.95614E-01 1.37339E-03-5.14993E-01 9.77206E-15 7.63027E-14
 -1      3512 1.98761E+01 3.69813E-01-1.63928E-03-4.57963E-01 1.29786E-13 8.59904E-14
 -1      3513 1.97512E+01 4.60557E-01 8.38008E-04-5.29312E-01 6.10599E-14-9.85420E-14
 -1      3514 1.99069E+01 3.44200E-01 1.13562E-03-4.05974E-01 9.62820E-14 1.01414E-13
 -1      3515 1.99104E+01 3.16260E-01-1.45557E-03-3.57587E-01 1.31185E-13 6.18475E-14
 -1      3516 1.98128E+01 4.03652E-01 8.35302E-04-4.16963E-01 9.60326E-14 1.89332E-13
 -1      3517 1.99358E+01 2.89936E-01 9.47444E-04-3.14740E-01 5.45492E-14 1.09922E-13
 -1      3518 1.99386E+01 2.62782E-01-1.25436E-03-2.74517E-01 1.36562E-14 2.21904E-13
 -1      3519 1.98644E+01 3.42267E-01 7.45230E-04-3.23730E-01 8.62914E-14 1.27882E-13
 -1      3520 1.99586E+01 2.38013E-01 7.90405E-04-2.39776E-01 4.43851E-14 2.46954E-13
 -1      3521 1.99605E+01 2.13396E-01-1.01528E-03-2.06987E-01 1.10503E-13 2.84906E-13
 -1      3522 1.99056E+01 2.82629E-01 6.27118E-04-2.47419E-01 6.17868E-14 2.66484E-13
 -1      3523 1.99756E+01 1.91119E-01 5.49931E-04-1.79125E-01 1.89201E-13 3.82083E-13
 -1      3524 1.99773E+01 1.70174E-01-5.77119E-04-1.53095E-01 2.04869E-13 3.88124E-13
 -1      3525 1.99372E+01 2.28456E-01 4.72258E-04-1.86066E-01 7.57482E-14 5.43938E-13
 -1      3526 1.96101E+01 6.20895E-01 3.50371E-03-1.35037E+00-5.56192E-14-2.62636E-14
 -1      3527 1.96275E+01 6.08200E-01-4.12230E-03-1.24786E+00-6.69398E-14-6.11313E-14
 -1      3528 1.97292E+01 5.87678E-01 2.56022E-03-1.15070E+00-9.55556E-15-2.48505E-14
 -1      3529 1.97491E+01 5.55212E-01-3.55735E-03-1.06077E+00 1.64414E-14-4.51012E-14
 -1      3530 1.94529E+01 6.84742E-01 2.76629E-03-1.14643E+00-3.96696E-16-4.05377E-14
 -1      3531 1.94087E+01 4.19406E-01 8.43728E-03-1.85742E+00-1.41106E-13 6.54086E-14
 -1      3532 1.93749E+01 5.18209E-01-4.32311E-03-1.72808E+00-9.84283E-14 8.31903E-15
 -1      3533 1.94281E+01 5.03642E-02 1.43245E-02-2.18012E+00-1.42918E-13 2.41479E-14
 -1      3534 1.93113E+01 2.62230E-01-2.60493E-03-2.04008E+00-1.13584E-13 4.01491E-14
 -1      3535 1.88065E+01 4.67661E-01-9.06916E-04-1.93536E+00-1.31502E-13-5.43448E-14
 -1      3536 1.96770E+01-6.27668E-01 2.27986E-02-2.54623E+00-2.10752E-13-2.69269E-14
 -1      3537 1.94022E+01-2.51589E-01 2.53073E-03-2.41337E+00-1.67948E-13 2.44281E-14
 -1      3538 1.86638E+01 3.83021E-02-5.64935E-03-2.36673E+00-1.22488E-13-3.75789E-14
 -1      3539 2.03582E+01-1.72799E+00 2.59477E-02-2.91058E+00-3.95702E-13-1.42459E-13
 -1      3540 1.98255E+01-1.10862E+00 2.17854E-02-2.82930E+00-2.93326E-13-7.26585E-14
 -1      3541 1.87431E+01-7.35826E-01-3.46760E-03-2.92889E+00-2.22154E-13-1.28073E-13
 -1      3542 2.55667E+01-3.81850E+00-1.35509E-02 9.17382E-01-2.10485E-13-5.51070E-13
 -1      3543 1.95020E+01-4.89882E-01 6.45988E-03 2.51826E+00-1.21676E-13 1.86955E-13
 -1      3544 1.98885E+01-9.36035E-01 3.47993E-02 2.64189E+00 2.35750E-14 1.16033E-13
 -1      3545 1.94297E+01 6.53898E-01-4.33147E-03 1.46861E+00 1.13483E-13 6.12973E-14
 -1      3546 1.94370E+01 6.00325E-01 6.20191E-03 1.59830E+00 1.20196E-13 1.42082E-13
 -1      3547 1.95523E+01 6.86701E-01-4.21808E-03 1.21660E+00-1.64334E-14-1.26887E-13
 -1      3548 1.95398E+01 6.84000E-01 3.72581E-03 1.33353E+00 7.82696E-14-9.82670E-14
 -1      3549 1.91233E+01 7.81533E-01 2.96455E-03 1.35057E+00 1.36457E-13 1.22731E-13
 -1      3550 1.96673E+01 6.52109E-01-3.79873E-03 9.99094E-01-3.08073E-14-6.15683E-15
 -1      3551 1.96506E+01 6.77435E-01 2.50662E-03 1.10335E+00-1.02731E-13-1.59027E-13
 -1      3552 1.93236E+01 7.82047E-01 3.18110E-03 1.11018E+00-6.11234E-14 2.65528E-14
 -1      3553 1.97636E+01 5.83661E-01-3.29066E-03 8.11258E-01-4.54924E-14 2.08438E-13
 -1      3554 1.97492E+01 6.22277E-01 1.89402E-03 9.02902E-01-5.38260E-15 8.85355E-14
 -1      3555 1.94944E+01 7.25135E-01 2.90523E-03 9.08325E-01-1.26843E-13 1.83201E-13
 -1      3556 1.98389E+01 5.02151E-01-2.77961E-03 6.50187E-01-8.44565E-14 2.09621E-13
 -1      3557 1.98289E+01 5.45060E-01 1.57550E-03 7.29396E-01-8.21401E-14 2.57963E-13
 -1      3558 1.96324E+01 6.40666E-01 2.42958E-03 7.36529E-01-1.61789E-13 1.53493E-13
 -1      3559 1.98951E+01 4.19751E-01-2.30269E-03 5.13715E-01 4.72869E-14 6.13958E-14
 -1      3560 1.98894E+01 4.61779E-01 1.38172E-03 5.80961E-01 1.41033E-13 2.15568E-13
 -1      3561 1.97397E+01 5.47119E-01 1.92187E-03 5.90199E-01-1.99189E-14 9.25260E-14
 -1      3562 1.99356E+01 3.43094E-01-1.87473E-03 3.99762E-01 1.57165E-13-1.85633E-14
 -1      3563 1.99333E+01 3.81492E-01 1.23004E-03 4.55842E-01 6.19698E-14-1.95744E-15
 -1      3564 1.98208E+01 4.55319E-01 1.46305E-03 4.66514E-01 1.16584E-13 1.42927E-13
 -1      3565 1.99636E+01 2.75380E-01-1.50351E-03 3.06063E-01-1.65531E-14-2.03049E-14
 -1      3566 1.99637E+01 3.08904E-01 1.08896E-03 3.52048E-01 1.39171E-13-4.96864E-14
 -1      3567 1.98806E+01 3.71145E-01 1.08164E-03 3.63276E-01 1.48565E-13 2.27789E-13
 -1      3568 1.99822E+01 2.17685E-01-1.17706E-03 2.30195E-01-8.25488E-14 3.96052E-15
 -1      3569 1.99839E+01 2.45992E-01 9.52857E-04 2.67271E-01 3.78411E-14 6.62773E-14
 -1      3570 1.99236E+01 2.97291E-01 7.59061E-04 2.78285E-01-5.00491E-14 4.33140E-14
 -1      3571 1.99940E+01 1.69554E-01-9.94598E-04 1.70015E-01-5.85399E-14-1.50467E-14
 -1      3572 1.99966E+01 1.92745E-01 7.10981E-04 1.99032E-01-1.27526E-13-1.16939E-13
 -1      3573 1.99538E+01 2.34595E-01 5.49929E-04 2.09250E-01-1.09192E-13 7.01468E-14
 -1      3574 2.00012E+01 1.31482E-01-4.73067E-04 1.22334E-01-6.73052E-14-1.17864E-13
 -1      3575 2.00036E+01 1.49911E-01 6.08503E-04 1.45204E-01-2.58231E-14-1.12056E-13
 -1      3576 1.99744E+01 1.83654E-01 6.49338E-04 1.54537E-01-4.06528E-14 1.98153E-13
 -1      3577 1.99061E+01 2.13878E-01-1.35914E-04-3.31956E-02 2.28098E-13-1.82098E-13
 -1      3578 1.99018E+01 2.16980E-01-5.32678E-04-1.38347E-02 2.82835E-13-4.84741E-13
 -1      3579 1.99937E+01 1.11240E-01-5.85968E-04 8.29002E-02-1.95109E-13-1.63967E-14
 -1      3580 2.00043E+01 9.97048E-02 4.56387E-05 8.29684E-02-3.37645E-13-9.89926E-14
 -1      3581 2.00057E+01 1.06472E-01 1.10857E-04 9.27635E-02-3.49200E-13-9.78655E-14
 -1      3582 1.99831E+01 1.34569E-01 1.38035E-04 9.31435E-02-1.66619E-13-1.08265E-14
 -1      3583 2.01871E+01 1.74192E+00-4.46950E-04-4.68218E-01-2.13757E-13-4.98658E-13
 -1      3584 2.02237E+01 1.59466E+00-3.82701E-03-5.27760E-01-2.56882E-13-4.79599E-13
 -1      3585 2.02705E+01 1.40656E+00 5.47562E-03-4.53309E-01-2.39821E-13-4.45833E-13
 -1      3586 1.99253E+01 1.96975E-01 1.62867E-04-7.15819E-02 1.83982E-13-4.42935E-14
 -1      3587 1.99138E+01 2.05067E-01-7.17577E-04-5.51124E-02 2.17390E-13-1.27528E-13
 -1      3588 1.98946E+01 2.34378E-01 8.01344E-04-5.05817E-02 3.14416E-13-1.45286E-13
 -1      3589 1.42366E+01-4.96958E-01-2.02794E-03 3.47980E+00-3.55528E-13-2.57037E-13
 -1      3590 1.28811E+01 2.79328E-01 4.03044E-02 2.34839E+00-3.36855E-13-6.23668E-14
 -1      3591 2.02770E+01 1.16308E+00-2.64296E-03-3.01265E-01-2.07412E-13-4.24147E-13
 -1      3592 2.76486E+01-3.00964E+00-1.16010E-01-5.29946E-01-1.04784E-13-7.01966E-13
 -1      3593 2.65775E+01-4.01794E+00 3.18496E-02 9.48744E-01-1.88408E-13-6.67931E-13
 -1      3594 1.64454E+01-1.72488E+00 7.01645E-02-4.33007E+00 3.10432E-13 3.54911E-13
 -1      3595 1.87070E+01-2.98224E+00-5.59781E-02-4.42897E+00 4.29237E-13 3.37209E-13
 -1      3596 2.05117E+01-4.02842E+00-1.59680E-02-4.38329E+00-6.06917E-13-2.18339E-13
 -1      3597 2.19271E+01-3.33403E+00 4.71630E-02-3.12361E+00-4.94466E-13-7.83293E-14
 -1      3598 1.93279E+01 5.02130E-01-3.52802E-03 1.76393E+00 9.65610E-14 1.67747E-13
 -1      3599 1.93865E+01 3.63083E-01 1.07065E-02 1.90570E+00 1.63414E-13 1.85171E-13
 -1      3600 1.89084E+01 6.77650E-01 1.88662E-03 1.64512E+00 1.24486E-13 1.42857E-13
 -1      3601 1.93115E+01 1.54058E-01-5.30278E-04 2.11367E+00 6.98293E-14 1.77488E-13
 -1      3602 1.94791E+01-1.15897E-01 1.84103E-02 2.26012E+00-6.07082E-14 2.48245E-13
 -1      3603 1.87191E+01 4.01492E-01 3.58865E-04 2.02450E+00 6.79791E-14 1.87663E-13
 -1      3604 1.94923E+01 5.83408E-01 5.26539E-03-1.58344E+00-3.15951E-14-5.22258E-14
 -1      3605 1.94961E+01 6.11250E-01-4.46491E-03-1.46765E+00-1.21609E-14-1.89402E-14
 -1      3606 1.92467E+01 7.15518E-01 2.83272E-03-1.35367E+00-5.57102E-14-9.73802E-14
 -1      3607 1.90220E+01 6.63956E-01 1.89680E-03-1.60911E+00-9.61996E-14-4.36101E-14
 -1      3608 1.99231E+01-1.47111E+00 2.18450E-02 2.97824E+00-2.46311E-14 4.02125E-14
 -1      3609 2.06442E+01-2.11174E+00 5.61168E-02 3.02608E+00-2.49236E-14-4.56865E-14
 -1      3610 1.88804E+01-2.47518E+00-5.09283E-02 4.03679E+00-2.23405E-13-1.88634E-13
 -1      3611 1.86735E+01-1.09699E+00-2.27450E-02 3.19510E+00-1.03693E-13-7.82707E-14
 -1      3612 2.77848E+01-1.39613E+00 1.18403E-02-1.96162E+00-1.27329E-14-2.81428E-13
 -1      3613 2.09774E+01-2.55321E+00 6.33507E-02-3.22566E+00-4.85606E-13-1.18701E-13
 -1      3614 2.75309E+01-4.00144E-01-2.45744E-01-2.48740E+00 1.13892E-13-2.16091E-13
 -1      3615 2.03046E+01 8.60085E-01 2.65343E-03-1.24437E-01-1.64656E-13-3.73921E-13
 -1      3616 2.02834E+01 7.18832E-01-2.07468E-03-9.70842E-04-1.59142E-13-3.49895E-13
 -1      3617 2.02907E+01 7.52742E-01 6.05774E-04 2.95345E-02-1.27394E-13-3.59376E-13
 -1      3618 2.00043E+01 3.84813E-01 1.37787E-03-6.99073E-01 9.16785E-14-5.56789E-14
 -1      3619 2.00204E+01 3.60275E-01-1.33886E-03-6.35932E-01 8.61753E-14-7.56330E-14
 -1      3620 1.23240E+01 7.93431E-02 6.43125E-02-2.77470E+00 8.39797E-14 2.80630E-13
 -1      3621 1.40467E+01-7.62526E-01 2.62295E-02-3.82425E+00 1.29606E-13 1.40436E-13
 -1      3622 1.92732E+01-3.28035E+00 8.71774E-02-4.50221E+00-6.16542E-13-2.70652E-13
 -1      3623 2.55746E+01-2.19579E+00-7.25750E-03 8.13442E-01 2.03032E-13-6.14437E-13
 -1      3624 2.58048E+01 4.12309E+00-1.15532E-01-1.59004E+00-7.40366E-13 2.19779E-13
 -1      3625 2.53330E+01 2.98436E+00-7.24869E-02-1.81502E+00-6.85486E-13 2.44996E-13
 -1      3626 1.99556E+01 1.69133E-01 2.73817E-04-9.97944E-02 1.16172E-13 1.26493E-13
 -1      3627 1.99392E+01 1.81421E-01-8.14775E-04-8.86307E-02 7.25369E-14 1.32391E-13
 -1      3628 1.99203E+01 2.11367E-01 6.63820E-04-9.16044E-02 2.60718E-13-3.59456E-14
 -1      3629 1.60460E+01-2.05787E+00 1.23902E-01-4.71640E+00-5.41987E-13-2.77799E-13
 -1      3630 1.76703E+01-2.89689E+00 1.63504E-02-4.75972E+00-5.81493E-13-2.55518E-13
 -1      3631 1.85292E+01-2.57907E+00 3.76711E-02-4.26088E+00-5.31138E-13-2.58689E-13
 -1      3632 1.66661E+01-1.36514E+00 4.94392E-02 3.92701E+00-2.49717E-13-2.14481E-13
 -1      3633 2.48796E+01-2.78277E+00-6.25062E-02 1.18251E-01 1.37723E-13-4.83990E-13
 -1      3634 1.99820E+01 2.36664E+00-4.22562E-03-1.39973E-01 4.82375E-15-5.19893E-13
 -1      3635 1.99990E+01 2.33356E+00-2.75025E-03-2.51541E-01-5.06883E-14-5.17798E-13
 -1      3636 2.00708E+01 2.14145E+00 2.97649E-03-2.46493E-01-5.07629E-14-4.93437E-13
 -1      3637 2.00814E+01 2.10376E+00 4.63354E-03-7.54767E-02 7.52608E-15-4.71777E-13
 -1      3638 2.16632E+01-3.38897E+00 6.80356E-02-3.20784E+00 3.56515E-13-1.07437E-13
 -1      3639 2.32508E+01-3.77885E+00-8.82632E-02-2.12454E+00 2.96834E-13-3.17945E-13
 -1      3640 1.92873E+01-2.15364E+00-2.25037E-02-3.63844E+00-4.57977E-13-2.54890E-13
 -1      3641 2.40595E+01-3.22163E+00 2.28465E-02-1.05534E+00 2.00598E-13-3.33238E-13
 -1      3642 2.02611E+01 1.32932E+00-2.17060E-03 3.76011E-01 3.05595E-13-3.26890E-13
 -1      3643 1.25955E+01 8.44980E-01-3.26447E-03-6.58812E-01 2.10292E-15 2.68764E-13
 -1      3644 1.23172E+01 5.87562E-01 7.41808E-02-1.81017E+00 5.06340E-14 4.15799E-13
 -1      3645 1.36565E+01 4.62822E-01 4.51295E-02-2.10256E+00 2.56054E-14 2.21361E-13
 -1      3646 2.00136E+01 4.07142E-01 6.33178E-04-5.77818E-01 4.53238E-14-1.30641E-13
 -1      3647 2.00712E+01 3.44468E-01 9.67379E-04-5.78394E-01 8.62342E-14-1.14765E-13
 -1      3648 2.00887E+01 3.36506E-01-4.26907E-04-5.16838E-01 7.79782E-14-1.41544E-13
 -1      3649 2.47147E+01 2.10601E+00-9.20449E-02-2.03711E+00-4.64146E-13 2.31500E-13
 -1      3650 2.01288E+01 2.91823E-01-1.03215E-03-4.51139E-01 1.09662E-13-1.49971E-13
 -1      3651 1.99899E+01 1.52147E-01 3.80181E-04-1.37545E-01 2.98833E-13 2.82046E-13
 -1      3652 1.99919E+01 1.35579E-01-2.78321E-04-1.19054E-01 3.75922E-13 2.96178E-13
 -1      3653 1.99822E+01 1.44439E-01-7.76040E-05-1.14919E-01 3.57901E-13 7.28646E-13
 -1      3654 1.99631E+01 1.82561E-01 4.43287E-04-1.43746E-01 3.09877E-13 7.92172E-13
 -1      3655 2.02342E+01 4.91250E-01-1.26973E-03-1.67557E-01 2.04669E-13-1.69114E-13
 -1      3656 2.02629E+01 5.77940E-01 2.31892E-03-6.72943E-02 2.35929E-13-1.64626E-13
 -1      3657 1.96313E+01 6.13976E-01 2.29297E-03-9.73608E-01 7.83740E-14-6.31257E-14
 -1      3658 1.98358E+01 5.21820E-01 2.04005E-03-9.78943E-01 4.91490E-14-2.06285E-14
 -1      3659 1.98542E+01 4.83411E-01-2.89215E-03-9.00284E-01 8.96773E-14-3.98742E-14
 -1      3660 2.01899E+01 1.80182E+00 7.89158E-03 4.00741E-01 2.74120E-13-3.83836E-13
 -1      3661 2.01267E+01 1.93987E+00-1.08004E-03-3.19901E-01-8.82474E-14-4.68109E-13
 -1      3662 2.01547E+01 1.84349E+00-3.30409E-03-4.03582E-01-1.66276E-13-5.04878E-13
 -1      3663 2.02089E+01 1.65785E+00 3.61239E-03-3.54064E-01-1.75045E-13-4.74503E-13
 -1      3664 1.86435E+01-1.52150E-01-2.09040E-03 2.52922E+00-5.75937E-14 4.00270E-14
 -1      3665 1.99270E+01 4.48400E-01 1.70532E-03-8.30171E-01 6.53458E-14-6.86610E-14
 -1      3666 1.99436E+01 4.13392E-01-2.15179E-03-7.60851E-01 8.17618E-14-3.55691E-14
 -1      3667 1.99076E+01 4.57661E-01 1.13579E-03-6.96464E-01 7.85099E-14-4.65982E-14
 -1      3668 1.97817E+01 5.31727E-01 1.70849E-03-8.25937E-01 6.54190E-14-6.66998E-14
 -1      3669 2.01803E+01 1.68269E+00-4.80289E-03 2.33509E-01 1.96510E-13-4.08977E-13
 -1      3670 2.01608E+01 1.74872E+00-2.98524E-03 1.61731E-01 1.47789E-13-4.23466E-13
 -1      3671 1.98848E+01 2.43912E-01 8.67749E-04-2.82111E-03 2.39758E-13-5.56307E-13
 -1      3672 1.99016E+01 2.18211E-01-3.74464E-04 9.98132E-03 2.02188E-13-6.46845E-13
 -1      3673 1.99050E+01 2.15700E-01-3.25220E-04 2.93713E-02 1.67846E-13-6.20583E-13
 -1      3674 1.41954E+01 5.92922E-01 2.48729E-02 1.92141E+00-2.96763E-13-1.26168E-13
 -1      3675 1.27896E+01 6.70470E-01 6.74436E-02 1.65154E+00-2.72794E-13 1.05894E-13
 -1      3676 1.28575E+01 9.14689E-01 2.13874E-02 6.68718E-01-2.01751E-13-3.30916E-14
 -1      3677 2.00079E+01 1.13681E-01 2.18837E-04 1.04209E-01-2.30864E-13-1.28874E-13
 -1      3678 1.50374E+01-1.02241E+00 1.08675E-01 4.07776E+00 4.43607E-13-6.25059E-13
 -1      3679 1.46407E+01-5.16633E-01 2.87917E-02 3.40296E+00 3.46785E-13-6.20653E-13
 -1      3680 1.99893E+01 1.39592E-01 2.52330E-04 1.12242E-01-2.58785E-13 1.85950E-13
 -1      3681 1.28495E+01 3.20491E-01 7.61331E-03 2.14068E+00 7.90513E-14-5.58567E-13
 -1      3682 1.16499E+01 6.30896E-01 1.21059E-01 1.42510E+00 6.79110E-14-5.41220E-13
 -1      3683 1.18539E+01 6.85420E-01 3.66116E-02 5.12606E-01-4.43673E-14-4.30565E-13
 -1      3684 1.57494E+01-1.06651E+00 5.50275E-02-3.93434E+00 1.79187E-13 1.80382E-13
 -1      3685 1.72679E+01-1.27796E+00 2.14719E-02-3.58935E+00 2.08182E-13 2.64238E-13
 -1      3686 1.51718E+01-3.88087E-01 2.09435E-03-3.23276E+00 7.86255E-14 6.58917E-14
 -1      3687 2.07662E+01-3.49781E+00-6.53382E-02 3.70401E+00 4.06506E-13 1.46060E-13
 -1      3688 1.90843E+01-2.80654E+00 9.14057E-02 4.29579E+00 4.18192E-13-1.49903E-13
 -1      3689 2.01478E+01 1.78843E+00-3.43064E-03 1.07138E-01 1.15708E-13-4.19653E-13
 -1      3690 2.01419E+01 1.81085E+00-2.52012E-03 3.13758E-02 6.62591E-14-4.48756E-13
 -1      3691 2.02227E+01 1.55341E+00 5.93689E-03 9.80275E-02 1.26381E-13-3.86988E-13
 -1      3692 1.18567E+01 2.37907E-01 1.19043E-01-2.27602E+00-2.12372E-13-5.12645E-13
 -1      3693 1.32271E+01-1.20342E-01-1.07913E-03-2.89648E+00-2.81204E-13-3.49061E-13
 -1      3694 1.20976E+01 5.45788E-01 2.88653E-02-1.40097E+00-1.30776E-13-4.07327E-13
 -1      3695 2.01851E+01 3.82629E-01-4.44206E-04-3.26984E-01 1.48660E-13-1.46847E-13
 -1      3696 2.02106E+01 4.28677E-01 1.67361E-03-2.48020E-01 1.62784E-13-1.45691E-13
 -1      3697 2.02417E+01 5.36979E-01-2.72127E-04-1.85630E-01 1.78412E-13-1.71981E-13
 -1      3698 1.66249E+01-6.44254E-01 6.13225E-02 3.28280E+00-2.33726E-13-6.10588E-14
 -1      3699 2.02768E+01 1.18124E+00-1.77601E-03-2.34210E-01-1.64262E-13-4.26224E-13
 -1      3700 2.07723E+01-2.72966E+00 4.19397E-02-3.12498E+00 3.04156E-13-1.16394E-13
 -1      3701 1.99752E+01 1.52883E-01-5.32121E-04 1.10377E-01-1.77523E-13 1.42932E-13
 -1      3702 2.15754E+01-3.00857E+00 2.26343E-02 2.79800E+00 3.83235E-13 2.29364E-13
 -1      3703 1.99545E+01 1.75777E-01 4.79604E-04 1.01244E-01-1.09353E-13 1.91979E-13
 -1      3704 1.99567E+01 1.81791E-01-2.52812E-04 1.21831E-01-1.19519E-13 2.25842E-13
 -1      3705 1.99374E+01 1.87504E-01-8.23545E-04 8.90113E-02 9.30894E-14 9.94496E-14
 -1      3706 1.52944E+01-1.33416E+00 5.66066E-02-4.11071E+00-4.82437E-13-2.29552E-13
 -1      3707 1.81285E+01-1.55854E+00 6.16027E-02-3.72811E+00-4.13645E-13-2.42611E-13
 -1      3708 1.99721E+01 1.51624E-01-5.02265E-04-1.09231E-01 2.03030E-13 4.18879E-13
 -1      3709 1.67054E+01-2.06000E+00-1.98917E-02 4.45122E+00 3.97920E-13-4.43694E-13
 -1      3710 1.99545E+01 1.79529E-01 1.30086E-04-1.19216E-01 2.39154E-13 3.70147E-13
 -1      3711 2.01998E+01 5.08349E-01-6.20829E-06 2.62499E-01-9.23872E-14-2.58787E-13
 -1      3712 2.01613E+01 4.66872E-01-5.17771E-04 3.24745E-01-1.13736E-13-2.54414E-13
 -1      3713 2.01080E+01 4.41076E-01-5.19884E-04 3.74369E-01-1.16051E-13-2.21652E-13
 -1      3714 2.00640E+01 4.28334E-01 1.27809E-04 4.30344E-01-9.98657E-14-2.51913E-13
 -1      3715 2.01250E+01 5.05902E-01 1.06725E-03 3.08278E-01-1.04104E-13-2.31690E-13
 -1      3716 1.99972E+01 4.25682E-01-1.10516E-03 4.78903E-01-5.95862E-14-2.60755E-13
 -1      3717 1.99494E+01 4.32111E-01 6.82393E-04 5.33955E-01-5.14085E-14-2.71204E-13
 -1      3718 2.00055E+01 4.75962E-01 1.05744E-03 4.05478E-01-1.01808E-13-2.24998E-13
 -1      3719 1.98710E+01 4.43221E-01-1.66625E-03 5.86159E-01-3.49545E-14-2.24469E-13
 -1      3720 1.98211E+01 4.59402E-01 1.22201E-03 6.44839E-01-3.87606E-14-2.12648E-13
 -1      3721 1.98631E+01 4.87986E-01 1.13131E-03 5.04598E-01-3.60602E-14-2.45599E-13
 -1      3722 1.97326E+01 4.74613E-01-2.17237E-03 7.05165E-01-2.33272E-14-1.83079E-13
 -1      3723 1.96831E+01 4.90399E-01 1.84649E-03 7.71282E-01-9.21520E-15-1.66610E-13
 -1      3724 1.97009E+01 5.22467E-01 1.25145E-03 6.14719E-01-4.70811E-15-1.61006E-13
 -1      3725 1.95865E+01 4.98865E-01-2.62325E-03 8.44153E-01-1.31230E-14-1.63985E-13
 -1      3726 1.95419E+01 5.02621E-01 2.70535E-03 9.20998E-01-6.64419E-15-1.45534E-13
 -1      3727 1.95219E+01 5.58396E-01 1.25982E-03 7.44916E-01-4.22600E-15-1.36068E-13
 -1      3728 1.94407E+01 4.91494E-01-2.96075E-03 1.01144E+00-2.59145E-15-1.59587E-13
 -1      3729 1.94093E+01 4.68911E-01 3.99105E-03 1.10218E+00 6.55309E-15-1.24977E-13
 -1      3730 1.93308E+01 5.72075E-01 9.90356E-04 9.05054E-01-7.00605E-16-1.56931E-13
 -1      3731 1.93105E+01 4.21890E-01-3.01844E-03 1.21626E+00 3.78109E-14-1.07595E-13
 -1      3732 1.93068E+01 3.54789E-01 5.95779E-03 1.32369E+00 5.65016E-14-1.37337E-13
 -1      3733 1.91372E+01 5.34459E-01 2.15929E-04 1.10754E+00 3.61695E-14-1.81936E-13
 -1      3734 1.92238E+01 2.51487E-01-2.42064E-03 1.46849E+00 2.39965E-14-1.46756E-13
 -1      3735 1.92716E+01 1.17215E-01 8.99506E-03 1.59401E+00-2.33189E-15-1.12771E-13
 -1      3736 1.89596E+01 4.08372E-01-1.43846E-03 1.36781E+00 3.98237E-14-1.63524E-13
 -1      3737 1.92292E+01-6.79723E-02-4.03327E-04 1.77714E+00 5.69265E-14-6.19908E-14
 -1      3738 1.93670E+01-2.96817E-01 1.35201E-02 1.91672E+00 1.20284E-13-3.99347E-14
 -1      3739 1.88320E+01 1.46483E-01-4.38796E-03 1.70482E+00 5.99718E-14-1.74093E-13
 -1      3740 1.94114E+01-5.93883E-01 4.96935E-03 2.14243E+00 1.62700E-13-1.37349E-14
 -1      3741 1.96965E+01-9.49315E-01 1.88153E-02 2.27688E+00 1.67290E-13 3.43725E-14
 -1      3742 1.88180E+01-3.11693E-01-8.25639E-03 2.13746E+00 1.64233E-13-1.55883E-13
 -1      3743 1.99182E+01-1.38441E+00 1.75093E-02 2.52619E+00 2.02093E-13 9.85995E-14
 -1      3744 2.04361E+01-1.87878E+00 2.68955E-02 2.60091E+00 2.81108E-13 1.28188E-13
 -1      3745 1.90350E+01-1.04796E+00-1.41348E-02 2.67103E+00 2.41924E-13-1.24924E-13
 -1      3746 2.08057E+01-2.41264E+00 4.07374E-02 2.86287E+00 3.31862E-13 1.86334E-13
 -1      3747 1.91940E+01 7.74741E-01 1.44252E-03-1.07702E+00-6.77130E-15-6.90966E-14
 -1      3748 1.92879E+01 7.36225E-01-4.80527E-03-9.89242E-01 5.06183E-14-2.23726E-14
 -1      3749 1.99987E+01-2.15014E+00 3.77346E-02-3.12629E+00 2.63636E-13-7.27773E-14
 -1      3750 2.03027E+01 1.11441E+00 5.38504E-03 2.41413E-01 2.60934E-13-2.94734E-13
 -1      3751 2.02428E+01 1.42301E+00-4.48979E-03 3.28786E-01 2.77082E-13-3.49293E-13
 -1      3752 1.99407E+01 1.98510E-01-6.66469E-04-1.33507E-01 2.34491E-13 3.95189E-13
 -1      3753 1.96715E+01-8.64654E-01 1.91013E-02-2.20770E+00 8.83863E-14-1.73928E-13
 -1      3754 1.93911E+01-5.20427E-01 3.78934E-03-2.07332E+00 9.39765E-14-2.24625E-13
 -1      3755 1.93344E+01-2.18594E-01 1.22258E-02-1.85057E+00 7.33928E-14-4.01579E-13
 -1      3756 1.91952E+01 1.30794E-02-4.25168E-04-1.70673E+00 7.10235E-14-4.32323E-13
 -1      3757 1.87937E+01-2.34026E-01-9.08272E-03-2.07772E+00-2.88644E-14-3.36753E-13
 -1      3758 1.92276E+01 1.99778E-01 8.46483E-03-1.52009E+00 4.95618E-14-5.20201E-13
 -1      3759 1.91740E+01 3.36664E-01-2.40317E-03-1.38927E+00-5.11705E-14-5.97939E-13
 -1      3760 1.87873E+01 2.32216E-01-4.39690E-03-1.63873E+00-3.98838E-14-5.07616E-13
 -1      3761 1.92449E+01 4.42141E-01 5.59034E-03-1.23970E+00-1.36804E-13-5.67401E-13
 -1      3762 1.92402E+01 5.11508E-01-3.00324E-03-1.12611E+00-1.33713E-13-6.18560E-13
 -1      3763 1.88940E+01 4.99866E-01-1.02078E-03-1.29456E+00-6.33495E-15-5.49106E-13
 -1      3764 1.93241E+01 5.60182E-01 3.63756E-03-1.00656E+00-7.29322E-14-4.73273E-13
 -1      3765 1.93444E+01 5.83811E-01-3.02193E-03-9.09295E-01-3.83314E-14-3.62918E-13
 -1      3766 1.90454E+01 6.30617E-01 7.03692E-04-1.02535E+00-8.96035E-14-4.33393E-13
 -1      3767 1.94283E+01 5.94630E-01 2.38589E-03-8.13072E-01-7.92664E-15-2.69800E-13
 -1      3768 1.94590E+01 5.88853E-01-2.81412E-03-7.30198E-01 5.01192E-14-1.34316E-13
 -1      3769 1.92073E+01 6.69920E-01 1.48609E-03-8.12999E-01 5.01142E-14-2.56570E-13
 -1      3770 1.95362E+01 5.76012E-01 1.60922E-03-6.52199E-01 2.04277E-14-8.72358E-14
 -1      3771 1.95691E+01 5.52771E-01-2.51911E-03-5.81908E-01 3.43672E-14-1.10273E-13
 -1      3772 1.93617E+01 6.50905E-01 1.76033E-03-6.43471E-01 8.18590E-14-4.49665E-14
 -1      3773 1.96366E+01 5.26529E-01 1.13349E-03-5.18457E-01 1.88796E-14-2.16221E-13
 -1      3774 1.96673E+01 4.94281E-01-2.19866E-03-4.59259E-01 1.68114E-13-9.54151E-14
 -1      3775 1.94998E+01 5.97451E-01 1.76096E-03-5.06869E-01 3.97565E-15 5.36753E-14
 -1      3776 1.97241E+01 4.61785E-01 8.38173E-04-4.07700E-01 1.74330E-13-1.73261E-13
 -1      3777 1.97506E+01 4.26308E-01-1.87885E-03-3.58332E-01 4.74637E-14-4.92124E-14
 -1      3778 1.96180E+01 5.26426E-01 1.61630E-03-3.96307E-01 1.03716E-13-1.55031E-13
 -1      3779 1.97970E+01 3.92337E-01 6.47058E-04-3.16628E-01 3.44550E-14 5.57124E-14
 -1      3780 1.98186E+01 3.57340E-01-1.58378E-03-2.75927E-01 1.89929E-13 7.07969E-14
 -1      3781 1.97158E+01 4.49425E-01 1.40785E-03-3.06892E-01 1.58100E-13-1.39698E-13
 -1      3782 1.98555E+01 3.24823E-01 5.23580E-04-2.42438E-01 2.00840E-13 5.12716E-14
 -1      3783 1.98725E+01 2.92555E-01-1.23859E-03-2.09397E-01 8.59342E-14 1.74528E-13
 -1      3784 1.97942E+01 3.73820E-01 1.14725E-03-2.34815E-01 1.78291E-13 3.73771E-14
 -1      3785 1.99011E+01 2.62927E-01 4.03336E-04-1.82560E-01 6.08410E-14 2.54097E-13
 -1      3786 1.99150E+01 2.36124E-01-2.23709E-04-1.56798E-01 2.35773E-13 3.52721E-13
 -1      3787 1.98551E+01 3.04245E-01 7.84477E-04-1.77370E-01 1.36649E-13 1.66980E-14
 -1      3788 1.66462E+01-2.13955E-01 3.56138E-03 2.88879E+00-2.34047E-13-2.32869E-14
 -1      3789 2.02653E+01 6.47620E-01-3.32719E-04 1.32247E-01-6.06792E-14-3.05562E-13
 -1      3790 2.02367E+01 5.68202E-01-9.98958E-04 2.06709E-01-5.70895E-14-2.90352E-13
 -1      3791 2.02173E+01 5.97351E-01 1.06111E-03 2.03536E-01-6.46915E-14-2.70733E-13
 -1      3792 1.79142E+01 1.79770E-01 1.66083E-02-2.34813E+00-1.20428E-13-9.03513E-14
 -1      3793 1.79357E+01 4.12384E-01-1.24836E-02-2.09959E+00-1.11103E-13-7.26079E-14
 -1      3794 1.82381E+01 5.89237E-01 9.58726E-03-1.86506E+00-1.21558E-13-7.99405E-14
 -1      3795 1.83195E+01 6.96315E-01-1.06280E-02-1.68777E+00-9.84844E-14-1.00721E-13
 -1      3796 1.75021E+01 6.96918E-01 8.42952E-03-1.82823E+00-8.79647E-14-1.33647E-13
 -1      3797 1.91078E+01 8.51011E-01-5.35919E-03 9.47850E-01-1.07975E-13 1.20340E-13
 -1      3798 1.90177E+01 8.79848E-01 1.38556E-03 1.04984E+00-1.32761E-14 1.45493E-13
 -1      3799 1.88336E+01 8.89481E-01-6.84902E-03 1.15628E+00 1.18788E-13 2.33365E-13
 -1      3800 1.87338E+01 8.86363E-01 3.06467E-03 1.27927E+00 1.76530E-13 2.24479E-13
 -1      3801 1.86670E+01 9.87573E-01 6.23323E-03 9.81253E-01 6.49996E-14 3.15759E-13
 -1      3802 1.95070E+01 6.72258E-01-3.44896E-03 6.28338E-01-1.70476E-13 1.02242E-13
 -1      3803 1.94475E+01 7.24159E-01 4.47372E-04 7.02802E-01-9.70342E-14 1.57155E-13
 -1      3804 1.96437E+01 5.69788E-01-2.80356E-03 5.03633E-01 1.59809E-15 5.84108E-14
 -1      3805 1.95983E+01 6.21981E-01 4.01983E-04 5.67317E-01-1.08922E-13 1.02557E-13
 -1      3806 1.94360E+01 7.09154E-01 3.26939E-03 5.35502E-01-6.12277E-14-5.47750E-15
 -1      3807 1.97478E+01 4.72015E-01-2.27675E-03 3.98146E-01 9.56057E-14 1.80417E-13
 -1      3808 1.97142E+01 5.20889E-01 4.23934E-04 4.52017E-01 3.11049E-14 1.57787E-13
 -1      3809 1.95898E+01 5.97924E-01 2.54533E-03 4.30196E-01-4.97470E-14 1.26019E-13
 -1      3810 1.98257E+01 3.83570E-01-1.86437E-03 3.09976E-01 1.78751E-13 2.79596E-13
 -1      3811 1.98016E+01 4.27262E-01 4.52497E-04 3.54902E-01 2.44843E-13 2.26939E-13
 -1      3812 1.97073E+01 4.93687E-01 1.95230E-03 3.40782E-01 1.61193E-13 2.03670E-13
 -1      3813 1.98829E+01 3.06682E-01-1.52213E-03 2.37214E-01-1.49483E-13 3.03555E-13
 -1      3814 1.98663E+01 3.44620E-01 5.61485E-04 2.74360E-01 9.75891E-14 3.52686E-13
 -1      3815 1.97959E+01 4.00098E-01 1.40942E-03 2.65840E-01 6.58491E-14 4.34359E-13
 -1      3816 1.99235E+01 2.41889E-01-1.25135E-03 1.77646E-01-4.82609E-14 1.87833E-13
 -1      3817 1.99132E+01 2.73890E-01 6.84433E-04 2.08528E-01-1.91031E-13 2.41169E-13
 -1      3818 1.98610E+01 3.18956E-01 7.62160E-04 2.04355E-01-1.35081E-13 4.99128E-13
 -1      3819 1.99488E+01 2.05159E-01 2.34495E-04 1.44776E-01-3.11032E-14 1.94958E-13
 -1      3820 1.75726E+01 5.03734E-02 1.41861E-02 2.50914E+00-1.75997E-13 6.34393E-14
 -1      3821 1.56091E+01 3.93547E-01 3.38101E-02 2.42204E+00-2.44780E-13-1.19151E-13
 -1      3822 1.56004E+01-3.39572E-01 6.56815E-03 3.02878E+00 2.90225E-13-4.83660E-13
 -1      3823 1.43674E+01 2.14544E-01 8.05039E-02 2.65391E+00 1.83569E-13-4.89761E-13
 -1      3824 1.85080E+01 8.50015E-01-8.96440E-03 1.41789E+00 1.26065E-13 2.05897E-13
 -1      3825 1.84100E+01 7.91269E-01 5.50817E-03 1.57300E+00 1.33684E-13 2.02870E-13
 -1      3826 1.82750E+01 9.97255E-01 7.49893E-03 1.20711E+00 1.63062E-13 4.24801E-13
 -1      3827 1.99123E+01 2.09153E-01-5.99454E-04 5.20704E-02 1.58740E-13-4.29045E-13
 -1      3828 1.99231E+01 2.01513E-01 4.49295E-05 6.88861E-02 2.00571E-13-5.10323E-13
 -1      3829 1.98930E+01 2.38612E-01 9.66081E-04 4.57211E-02 8.36576E-14-4.68359E-13
 -1      3830 1.81413E+01 6.78629E-01-1.17494E-02 1.75977E+00 7.28153E-14 1.70748E-13
 -1      3831 1.80683E+01 5.24657E-01 6.17503E-03 1.96727E+00 1.12983E-14 1.82045E-13
 -1      3832 1.78146E+01 9.06631E-01 1.33251E-02 1.51952E+00 5.10048E-14 1.94155E-13
 -1      3833 2.02175E+01 1.53308E+00-2.18355E-03 2.74140E-01 2.37942E-13-3.58253E-13
 -1      3834 2.02622E+01 1.36812E+00 5.67817E-03 1.79109E-01 1.88940E-13-3.24517E-13
 -1      3835 1.80998E+01-1.86459E+00 4.34367E-02 3.80220E+00 3.56371E-13-2.57317E-13
 -1      3836 2.02687E+01 1.27002E+00-2.58674E-03-2.16778E-01-1.48195E-13-4.32305E-13
 -1      3837 2.02973E+01 9.74387E-01 2.31870E-03-6.00903E-02-1.10081E-13-4.01026E-13
 -1      3838 2.02427E+01 1.37615E+00-1.89577E-03-1.77131E-01-1.11880E-13-4.02570E-13
 -1      3839 1.95510E+01-2.15747E+00-3.88552E-02 3.29991E+00 3.44175E-13-3.91701E-14
 -1      3840 1.49193E+01-4.72940E-01 9.26038E-02-3.48604E+00-3.04562E-13-1.67373E-13
 -1      3841 1.64286E+01-1.25633E+00 2.10681E-03-3.86060E+00-3.96585E-13-1.79069E-13
 -1      3842 1.74478E+01-9.12595E-01-7.85932E-03-3.34452E+00-2.47616E-13-1.92409E-13
 -1      3843 1.45299E+01-6.53074E-02 8.79112E-03-2.81865E+00-2.29740E-13-2.48458E-13
 -1      3844 1.99192E+01 2.18268E-01 9.57084E-04 9.11719E-02 2.29272E-14-1.03893E-13
 -1      3845 1.93306E+01 7.70843E-01-4.27019E-03 7.74868E-01-1.65044E-13 2.01106E-13
 -1      3846 1.92555E+01 8.16243E-01 6.91089E-04 8.61633E-01-1.62707E-13 1.31037E-13
 -1      3847 1.89844E+01 9.19310E-01 5.13119E-03 8.04529E-01-8.66347E-14 1.66353E-13
 -1      3848 1.99106E+01 2.27830E-01 4.44515E-04-1.15343E-01 1.45361E-13-1.53248E-13
 -1      3849 1.98903E+01 2.40748E-01-9.88807E-04-9.63975E-02 2.50930E-13-2.19337E-13
 -1      3850 2.02671E+01 6.49761E-01-1.83140E-03 1.07574E-02 2.53599E-13-1.80734E-13
 -1      3851 2.02873E+01 7.53871E-01 1.80584E-03 1.23087E-01 2.89160E-13-2.08103E-13
 -1      3852 2.02918E+01 8.88526E-01-1.23545E-03 1.63495E-01 2.71646E-13-2.49258E-13
 -1      3853 2.02809E+01 6.89318E-01-1.40206E-03-2.28541E-02 2.31167E-13-2.04007E-13
 -1      3854 2.01308E+01 3.39309E-01 3.62604E-04-4.58320E-01 8.78440E-14-1.47898E-13
 -1      3855 2.01519E+01 3.54188E-01 5.93246E-04-3.92103E-01 1.26217E-13-1.36620E-13
 -1      3856 2.01036E+01 3.93881E-01 2.52527E-04-4.61058E-01 8.64854E-14-1.45992E-13
 -1      3857 1.77183E+01-5.18947E-01 1.84417E-02-2.95995E+00-2.03727E-13-1.82268E-13
 -1      3858 1.75960E+01-8.36355E-02-1.69036E-02-2.62508E+00-1.43830E-13-1.11726E-13
 -1      3859 1.69398E+01 3.79314E-01 2.19125E-02-2.31522E+00-1.09231E-13-2.12868E-13
 -1      3860 1.63654E+01-9.46057E-02 5.07719E-02-2.94925E+00-1.73364E-13-2.28323E-13
 -1      3861 2.02952E+01 8.53604E-01-4.43049E-04-4.37909E-03-9.25185E-14-4.01892E-13
 -1      3862 2.02804E+01 7.29360E-01-6.40651E-04 8.46386E-02-8.92874E-14-3.62602E-13
 -1      3863 2.02706E+01 7.46730E-01 1.13136E-03 9.76595E-02-3.39185E-14-3.19785E-13
 -1      3864 2.02856E+01 9.48124E-01 1.60183E-03-6.71446E-03-7.77127E-14-3.84665E-13
 -1      3865 1.98751E+01 2.56126E-01 2.95949E-05-7.06596E-02 2.39979E-13-2.01766E-13
 -1      3866 1.98638E+01 2.63494E-01-7.71227E-04-4.69082E-02 3.50680E-13-2.61615E-13
 -1      3867 1.98643E+01 2.76206E-01 7.68363E-04-9.50662E-02 9.69229E-14-1.49897E-13
 -1      3868 1.85694E+01-1.63258E+00-6.78749E-03-3.43387E+00 2.59209E-13 8.11274E-14
 -1      3869 2.02591E+01-1.67197E+00 2.90862E-02-2.53075E+00 2.19858E-13-1.31581E-13
 -1      3870 1.97362E+01-1.21446E+00 1.10057E-02-2.45680E+00 1.73384E-13-1.56471E-13
 -1      3871 1.77564E+01-9.64883E-01-1.59318E-02-3.10951E+00 1.94254E-13 8.10506E-14
 -1      3872 1.99120E+01 2.40633E-01-7.10878E-05 1.43115E-01-1.27730E-13 2.28632E-13
 -1      3873 1.78211E+01-1.26939E+00 1.53425E-02 3.39487E+00 3.69060E-13-2.70339E-13
 -1      3874 1.35720E+01 9.61721E-01 2.05220E-02 2.59294E-02-1.34298E-13-2.68847E-14
 -1      3875 1.99541E+01 4.59160E-01 2.63712E-04-5.52094E-01 1.33681E-14-1.11768E-13
 -1      3876 2.00034E+01 4.41586E-01-1.09181E-03-4.95132E-01 2.60277E-14-1.35767E-13
 -1      3877 1.94386E+01 6.95651E-01 8.73181E-04-9.16455E-01 7.05301E-14-5.89805E-14
 -1      3878 1.95190E+01 6.48883E-01-3.73015E-03-8.41703E-01 7.97173E-14-9.01335E-14
 -1      3879 1.92084E+01 7.89767E-01 4.40035E-03-8.49167E-01 4.32157E-14-6.94648E-14
 -1      3880 1.90115E+01 7.98427E-01-6.12719E-03-1.16746E+00-4.32471E-14-8.42863E-14
 -1      3881 1.88889E+01 8.75261E-01 5.59348E-03-9.99541E-01 8.66757E-15-1.06032E-13
 -1      3882 1.89071E+01 8.13023E-01 2.64303E-03-1.27364E+00-7.93080E-14-1.02883E-13
 -1      3883 2.02937E+01 9.83071E-01-4.58239E-04 1.37665E-01 2.34965E-13-2.88292E-13
 -1      3884 1.99152E+01 2.32528E-01 2.13960E-04-1.41952E-01 1.33747E-13 9.47134E-14
 -1      3885 2.01804E+01 4.30767E-01-2.29470E-04-3.35451E-01 1.37726E-13-1.33110E-13
 -1      3886 1.89159E+01-8.69567E-01-6.75440E-03-2.59421E+00 1.58277E-13-1.31365E-13
 -1      3887 2.01054E+01 1.94116E+00-6.30539E-03-1.57586E-01-1.83870E-14-4.48999E-13
 -1      3888 2.01133E+01 1.95515E+00-1.95841E-03-2.43245E-01-6.50392E-14-4.73709E-13
 -1      3889 2.01739E+01 1.77629E+00 3.77802E-03-2.31504E-01-6.64477E-14-4.35044E-13
 -1      3890 1.75498E+01 3.51605E-01-1.49459E-02 2.20826E+00-1.18943E-13 1.37756E-13
 -1      3891 1.98583E+01 2.69920E-01-2.60716E-04-1.67037E-02 3.06095E-13-2.40943E-13
 -1      3892 1.98568E+01 2.69940E-01-8.64265E-04 8.53785E-03 2.37925E-13-4.74409E-13
 -1      3893 1.98391E+01 2.97141E-01 8.57749E-04-3.64712E-02 3.33688E-13-2.95194E-13
 -1      3894 1.70828E+01 7.15391E-01 2.59736E-02 1.91866E+00-8.90106E-14-9.28216E-14
 -1      3895 1.98131E+01 5.20102E-01 4.87188E-04-6.60805E-01 6.65698E-14-8.01700E-14
 -1      3896 1.98706E+01 4.85134E-01-1.93897E-03-6.01556E-01 3.22655E-14-1.12218E-13
 -1      3897 1.98691E+01 5.23592E-01 1.80517E-03-5.17445E-01 1.47515E-14-1.54440E-13
 -1      3898 1.83328E+01-8.48077E-01 2.47265E-02 2.81510E+00 3.06437E-13-1.78872E-13
 -1      3899 1.68118E+01-6.32505E-01 2.13061E-02 3.17085E+00 3.54517E-13-4.80263E-13
 -1      3900 1.62284E+01-3.91144E-02-2.33747E-02 2.54012E+00 1.98282E-13-3.76313E-13
 -1      3901 1.80936E+01-4.62953E-01-9.94444E-03 2.51641E+00 2.14080E-13-2.16150E-13
 -1      3902 1.51846E+01 7.01217E-01-2.25643E-02 1.77186E+00-2.17441E-13-7.83332E-14
 -1      3903 1.28746E+01 8.25525E-01 2.88705E-03 5.37277E-01-6.68224E-14-3.68747E-13
 -1      3904 1.23379E+01 9.07991E-01 9.97348E-02-3.93913E-01-9.65491E-14-3.21861E-13
 -1      3905 1.30948E+01 6.99089E-01 5.93744E-03-1.16979E+00-1.22257E-13-3.87482E-13
 -1      3906 2.02411E+01 1.33531E+00-3.63193E-03 8.46170E-02 1.40935E-13-3.62550E-13
 -1      3907 2.02325E+01 1.37451E+00-2.52421E-03 4.58671E-02 9.32247E-14-3.75594E-13
 -1      3908 1.39816E+01 4.55970E-01 4.59488E-03 1.97393E+00 2.75561E-14-3.86401E-13
 -1      3909 1.47295E+01 2.38883E-01 5.83765E-02-2.60637E+00 1.08479E-13 3.50484E-14
 -1      3910 1.59835E+01-1.03138E-01 1.79992E-02-2.73925E+00 8.83796E-14 8.22857E-14
 -1      3911 1.43841E+01 6.05634E-01-2.63972E-02-1.78002E+00 4.48790E-14 1.28402E-13
 -1      3912 2.02098E+01 1.59528E+00 5.90113E-03-5.69578E-04 4.78347E-14-4.01036E-13
 -1      3913 2.01390E+01 1.81151E+00-3.33272E-03-2.75914E-02 2.66976E-14-4.50617E-13
 -1      3914 1.98833E+01 2.59041E-01-6.25562E-04 1.13790E-01-1.14707E-13 1.23297E-13
 -1      3915 1.98588E+01 3.03090E-01 1.03630E-03 1.45194E-01-1.22072E-13 8.41821E-14
 -1      3916 1.98657E+01 2.72582E-01-5.09801E-04 9.02409E-02 1.03227E-14-3.43027E-13
 -1      3917 2.02370E+01 5.60580E-01-1.24189E-03-2.03222E-01 1.31214E-13-1.78360E-13
 -1      3918 2.02673E+01 6.35883E-01 2.10362E-04-1.17870E-01 1.49270E-13-2.20216E-13
 -1      3919 1.85821E+01 7.70922E-01 5.09387E-03-1.52507E+00-1.18799E-13-5.93963E-14
 -1      3920 1.86867E+01 8.01152E-01-8.03471E-03-1.39114E+00-1.03986E-13-1.02607E-13
 -1      3921 1.85030E+01 9.17700E-01 6.74644E-03-1.19027E+00-9.54168E-14-9.72988E-14
 -1      3922 2.02816E+01 1.11037E+00-4.28440E-03 1.31206E-01 2.09210E-13-3.07469E-13
 -1      3923 2.02595E+01 1.26532E+00-9.19826E-04 1.13662E-01 1.47846E-13-3.12033E-13
 -1      3924 2.02866E+01 1.12841E+00 5.93167E-03 4.83346E-02 1.31753E-13-3.03754E-13
 -1      3925 2.02991E+01 9.18596E-01 3.52886E-03 6.96531E-02 2.07068E-13-2.68586E-13
 -1      3926 2.01359E+01 1.85117E+00 5.69449E-04-9.91118E-02-6.01745E-15-4.48396E-13
 -1      3927 1.92374E+01 8.20243E-01 4.13216E-03 6.58863E-01-1.17974E-13 7.29129E-14
 -1      3928 2.02895E+01 8.15561E-01-1.35979E-04-1.35795E-02 1.74820E-13-2.66004E-13
 -1      3929 2.02787E+01 8.32896E-01-1.14594E-03-3.78351E-02 1.44934E-13-2.52437E-13
 -1      3930 1.80414E+01 8.79083E-01 7.84344E-03-1.44987E+00-9.11248E-14-8.14552E-14
 -1      3931 2.00708E+01 4.35052E-01-1.72546E-04-4.45753E-01 6.07990E-14-1.32015E-13
 -1      3932 2.01139E+01 4.40926E-01-3.44646E-04-3.86169E-01 1.04047E-13-1.34999E-13
 -1      3933 2.00161E+01 4.89811E-01 1.32747E-03-4.21076E-01 5.93480E-14-1.16788E-13
 -1      3934 2.02707E+01 9.03649E-01-3.49156E-03-1.38874E-02 1.24759E-13-2.71663E-13
 -1      3935 2.02599E+01 9.76859E-01-2.39936E-03-1.45575E-02 8.49452E-14-2.83667E-13
 -1      3936 2.02578E+01 7.43116E-01 3.36375E-03-1.03563E-01 1.03745E-13-2.44648E-13
 -1      3937 2.00113E+01 5.09174E-01-1.24503E-03 3.17759E-01-1.00778E-13-2.31269E-13
 -1      3938 1.99456E+01 5.08010E-01-7.73392E-05 3.64537E-01-9.99216E-14-2.40543E-13
 -1      3939 1.98545E+01 5.16140E-01-1.83154E-03 4.03587E-01-5.90522E-14-2.30680E-13
 -1      3940 1.97790E+01 5.33312E-01 3.64729E-04 4.53156E-01-6.13165E-15-1.98569E-13
 -1      3941 1.98708E+01 5.54794E-01 1.71556E-03 3.13648E-01-7.78297E-14-1.32725E-13
 -1      3942 1.96707E+01 5.54142E-01-2.43308E-03 4.99010E-01 2.34424E-14-1.89708E-13
 -1      3943 1.95869E+01 5.79865E-01 8.82070E-04 5.55658E-01 1.33691E-14-1.72356E-13
 -1      3944 1.96763E+01 5.91060E-01 2.01870E-03 3.94252E-01 7.69850E-15-1.24007E-13
 -1      3945 1.94609E+01 6.03365E-01-3.14332E-03 6.12745E-01 1.33274E-14-1.66646E-13
 -1      3946 1.93708E+01 6.27078E-01 1.49542E-03 6.81129E-01-1.82706E-14-1.68167E-13
 -1      3947 1.94494E+01 6.47625E-01 2.51165E-03 4.91420E-01 1.81458E-14-1.92711E-13
 -1      3948 1.92264E+01 6.41964E-01-4.13726E-03 7.54928E-01-9.76061E-15-1.56820E-13
 -1      3949 1.91338E+01 6.52263E-01 2.45958E-03 8.40521E-01 2.13820E-14-1.57439E-13
 -1      3950 1.91887E+01 7.04364E-01 3.07443E-03 6.15598E-01 1.16046E-14-1.32849E-13
 -1      3951 1.89702E+01 6.45122E-01-5.36650E-03 9.39179E-01 1.30604E-14-1.48588E-13
 -1      3952 1.88830E+01 6.27106E-01 4.03994E-03 1.04926E+00 3.24187E-14-1.43567E-13
 -1      3953 1.88927E+01 7.37482E-01 3.18861E-03 7.78933E-01 1.65888E-14-8.75640E-14
 -1      3954 1.87009E+01 5.80736E-01-6.79329E-03 1.18325E+00 5.92834E-14-1.17635E-13
 -1      3955 1.86326E+01 5.15797E-01 6.62721E-03 1.32720E+00 5.26720E-14-1.24496E-13
 -1      3956 1.85628E+01 7.19961E-01 3.42598E-03 1.00218E+00 4.17676E-14-1.60806E-13
 -1      3957 1.84358E+01 4.08203E-01-8.20347E-03 1.51156E+00 2.60616E-14-1.44547E-13
 -1      3958 1.84096E+01 2.72768E-01 1.08889E-02 1.70154E+00 3.95761E-14-1.66095E-13
 -1      3959 1.82020E+01 6.14851E-01 3.01133E-03 1.31195E+00 2.78212E-14-1.52865E-13
 -1      3960 1.82140E+01 8.47484E-02-9.73305E-03 1.94358E+00 8.80364E-14-2.24858E-13
 -1      3961 1.82704E+01-1.52902E-01 1.64878E-02 2.18918E+00 1.42612E-13-2.24977E-13
 -1      3962 1.74934E+01-1.05954E-02 7.94697E-03 2.30463E+00 1.61735E-13-3.31657E-13
 -1      3963 1.78327E+01 3.89430E-01 3.75099E-03 1.73133E+00 6.74486E-14-2.43331E-13
 -1      3964 1.59698E+01 8.79507E-01-6.72183E-04 1.50276E+00-1.66672E-13-2.01618E-13
 -1      3965 1.48650E+01 1.09995E+00 4.80770E-02 1.06951E+00-1.69177E-13-5.56352E-14
 -1      3966 1.82389E+01-9.60952E-02 1.15304E-02-2.15750E+00-6.59083E-14-2.08935E-13
 -1      3967 1.81763E+01 1.54773E-01-1.07238E-02-1.90393E+00-1.64726E-13-2.99319E-13
 -1      3968 1.83663E+01 3.58216E-01 1.01639E-02-1.64596E+00-1.06578E-13-2.97060E-13
 -1      3969 1.83820E+01 4.96690E-01-8.52863E-03-1.45425E+00 1.45233E-14-3.05799E-13
 -1      3970 1.77887E+01 4.66747E-01 4.54442E-03-1.70009E+00-1.45978E-13-1.15090E-13
 -1      3971 1.85647E+01 6.07841E-01 6.34748E-03-1.26750E+00 3.87483E-14-3.48625E-13
 -1      3972 1.86214E+01 6.75695E-01-6.72455E-03-1.12001E+00 2.72373E-14-3.19529E-13
 -1      3973 1.81379E+01 7.09556E-01 3.80125E-03-1.26359E+00-1.37599E-14-1.08502E-13
 -1      3974 1.87861E+01 7.24656E-01 3.70383E-03-9.83526E-01 2.28657E-14-3.64789E-13
 -1      3975 1.88589E+01 7.45043E-01-5.36617E-03-8.69275E-01 1.15483E-14-2.63569E-13
 -1      3976 1.84678E+01 8.20204E-01 4.19920E-03-9.50967E-01 5.76116E-14-2.23784E-13
 -1      3977 1.90027E+01 7.53311E-01 2.15197E-03-7.67243E-01 7.24068E-14-1.48002E-13
 -1      3978 1.90779E+01 7.42692E-01-4.30410E-03-6.77393E-01 1.23500E-13-4.52618E-14
 -1      3979 1.87612E+01 8.42336E-01 3.94214E-03-7.23095E-01 1.07969E-13-9.78123E-14
 -1      3980 1.92006E+01 7.25106E-01 1.21900E-03-5.99765E-01 7.42763E-14-9.53713E-14
 -1      3981 1.92709E+01 6.95682E-01-3.47995E-03-5.28107E-01 5.22434E-14-9.02392E-14
 -1      3982 1.90155E+01 8.07360E-01 3.51477E-03-5.53418E-01 1.16051E-13-1.08541E-13
 -1      3983 1.93736E+01 6.63090E-01 6.78663E-04-4.68185E-01 1.75031E-15-1.40494E-13
 -1      3984 1.94355E+01 6.23675E-01-2.82741E-03-4.10497E-01-1.57621E-14-1.32851E-13
 -1      3985 1.92312E+01 7.38066E-01 3.05116E-03-4.24714E-01-1.30943E-14-2.42545E-13
 -1      3986 1.95200E+01 5.83804E-01 3.76822E-04-3.63785E-01 1.69789E-14-1.43181E-13
 -1      3987 1.95723E+01 5.40577E-01-2.30491E-03-3.17169E-01 1.37591E-13-2.39774E-13
 -1      3988 1.94106E+01 6.50957E-01 2.59215E-03-3.25648E-01 1.49914E-14-2.83095E-13
 -1      3989 1.96407E+01 4.98741E-01 2.20450E-04-2.80622E-01 1.63076E-13-2.34798E-13
 -1      3990 1.96833E+01 4.55895E-01-1.88691E-03-2.43004E-01 1.07691E-13-2.13219E-13
 -1      3991 1.95569E+01 5.57646E-01 2.13473E-03-2.48641E-01 2.05226E-14-2.78047E-13
 -1      3992 1.97376E+01 4.15875E-01 2.27728E-04-2.14483E-01 1.31842E-13-1.58841E-13
 -1      3993 1.97714E+01 3.75821E-01-1.47686E-03-1.84071E-01 1.18454E-13-2.77312E-13
 -1      3994 1.96742E+01 4.66060E-01 1.69970E-03-1.88783E-01 1.17516E-13-4.49261E-13
 -1      3995 1.68153E+01 8.11357E-01 4.17904E-04-1.59297E+00-4.64401E-14-2.02943E-13
 -1      3996 1.71088E+01 9.11693E-01-1.77138E-02-1.38246E+00-4.64645E-14-1.37159E-13
 -1      3997 1.80726E+01 1.07755E+00-9.96002E-03 9.19938E-01 1.66670E-13 1.51289E-13
 -1      3998 1.78568E+01 1.07943E+00-1.38893E-03 1.03389E+00 8.04224E-14 6.50389E-14
 -1      3999 1.85234E+01 1.03074E+00-7.02617E-03 7.56638E-01 9.78469E-14 1.58963E-13
 -1      4000 1.83474E+01 1.06340E+00-1.37469E-03 8.42685E-01 2.12154E-13 2.22235E-13
 -1      4001 1.80139E+01 1.16337E+00 1.05484E-02 6.78130E-01 1.75133E-13 1.34428E-14
 -1      4002 1.96700E+01 4.93027E-01-2.04892E-03 2.70068E-01 6.51795E-14 2.06678E-13
 -1      4003 1.96195E+01 5.45355E-01-3.70071E-04 3.07935E-01 1.38158E-13 1.61270E-13
 -1      4004 1.96431E+01 6.04369E-01 6.42820E-04-7.79953E-01 7.48592E-14-7.20067E-14
 -1      4005 1.97110E+01 5.59253E-01-2.79275E-03-7.14580E-01 8.15772E-14-4.99023E-14
 -1      4006 1.96897E+01 5.95387E-01 2.50457E-03-6.16192E-01 5.70950E-14-8.01072E-14
 -1      4007 1.94718E+01 6.89832E-01 3.29250E-03-7.24961E-01 7.63547E-14-9.61685E-14
 -1      4008 1.95413E+01 5.99063E-01-2.50734E-03 3.40277E-01 1.81700E-14 3.15608E-14
 -1      4009 1.94744E+01 6.56236E-01-6.14290E-04 3.84650E-01-1.07979E-13-4.19340E-15
 -1      4010 1.95256E+01 6.09473E-01 2.75316E-03 2.64828E-01-1.06890E-14 5.41192E-14
 -1      4011 1.93733E+01 7.13566E-01-3.11759E-03 4.22078E-01-1.30692E-13 3.59825E-14
 -1      4012 1.92861E+01 7.73187E-01-8.90823E-04 4.73488E-01-1.73060E-13-5.74154E-14
 -1      4013 1.93531E+01 7.28575E-01 3.58702E-03 3.26275E-01-1.18874E-13-5.42031E-14
 -1      4014 1.97672E+01 3.98980E-01-1.71202E-03 2.10910E-01-4.22407E-14 3.66395E-13
 -1      4015 1.97302E+01 4.45286E-01-6.72967E-05 2.42674E-01 5.53913E-14 2.57143E-13
 -1      4016 1.96583E+01 5.00215E-01 2.06967E-03 2.11551E-01 1.09942E-14 2.66835E-13
 -1      4017 1.98297E+01 3.29278E-01-1.07271E-03 1.63462E-01-8.18446E-14 1.85846E-13
 -1      4018 1.98018E+01 3.69414E-01 3.76111E-04 1.89079E-01-7.80660E-14 2.30476E-13
 -1      4019 1.97452E+01 4.15702E-01 1.28387E-03 1.66168E-01 2.60315E-14 2.48394E-15
 -1      4020 1.98026E+01 3.50861E-01 4.12294E-04 1.28683E-01-5.97715E-15-1.80233E-14
 -1      4021 1.49756E+01 5.84464E-01 7.23258E-03 1.75979E+00 5.68152E-14-2.94561E-13
 -1      4022 1.38685E+01 8.42805E-01 6.16790E-02 1.31736E+00-2.79195E-14-3.99535E-13
 -1      4023 1.39147E+01 9.22571E-01-9.76173E-03 5.12368E-01-5.40124E-14-3.21774E-13
 -1      4024 2.02290E+01 1.39013E+00-3.24742E-03 2.32926E-02 7.99774E-14-3.63800E-13
 -1      4025 2.02287E+01 1.38719E+00-4.07327E-03-2.30718E-02 1.77329E-14-3.59914E-13
 -1      4026 2.02702E+01 1.21826E+00 6.20230E-03 1.93973E-02 7.33608E-14-3.31787E-13
 -1      4027 1.98528E+01 2.78204E-01-3.53624E-04 3.60465E-02 9.31486E-14-5.38688E-13
 -1      4028 1.98604E+01 2.71008E-01-9.21702E-04 6.06289E-02 1.23593E-13-4.73299E-13
 -1      4029 1.98250E+01 3.20468E-01 7.82910E-04 8.11315E-02 6.02375E-14-2.92735E-13
 -1      4030 1.98271E+01 3.10589E-01 7.82192E-04 2.25800E-02 1.74742E-13-3.15614E-13
 -1      4031 1.74906E+01 1.05329E+00-1.64962E-02 1.14084E+00-4.36379E-14-2.58359E-14
 -1      4032 1.72252E+01 9.97283E-01-7.96069E-03 1.31652E+00-5.37224E-14-7.25404E-14
 -1      4033 1.74111E+01 1.19631E+00 1.54738E-02 8.27722E-01-3.85259E-14-2.35576E-13
 -1      4034 1.80427E+01-6.13075E-01 1.61754E-02-2.73044E+00 1.56184E-13-2.09674E-14
 -1      4035 1.79814E+01-3.41038E-01-1.61970E-02-2.44357E+00 9.10075E-14-1.31192E-13
 -1      4036 1.73910E+01 1.11801E-01 1.08110E-02-2.23410E+00-6.10870E-14-1.10132E-13
 -1      4037 1.68761E+01-3.43690E-01 2.53354E-02-2.89314E+00 2.45125E-14 1.69156E-13
 -1      4038 2.02133E+01 5.30001E-01 1.03947E-03-2.40735E-01 1.21097E-13-1.67862E-13
 -1      4039 2.02336E+01 6.21347E-01-2.00733E-05-1.82084E-01 1.09958E-13-2.06012E-13
 -1      4040 2.02279E+01 6.88742E-01-8.73799E-04-1.37593E-01 8.48584E-14-2.21879E-13
 -1      4041 2.01755E+01 4.85952E-01-7.72104E-04-3.08031E-01 1.15419E-13-1.55945E-13
 -1      4042 2.02295E+01 6.66669E-01-6.34162E-04 1.41447E-01-1.93914E-14-2.67814E-13
 -1      4043 2.01911E+01 5.99819E-01-7.72518E-04 1.95950E-01-5.94647E-14-2.56188E-13
 -1      4044 2.02365E+01 1.38833E+00-3.19323E-03-1.22121E-01-8.32460E-14-3.97885E-13
 -1      4045 1.39975E+01 6.66846E-01 8.31481E-02-1.98529E+00-1.91114E-13-3.63555E-13
 -1      4046 1.52119E+01 1.18143E-01 9.03357E-03-2.57848E+00-2.11969E-13-2.49172E-13
 -1      4047 1.55225E+01 3.76194E-01-2.72996E-02-2.25059E+00-1.57273E-13-2.82144E-13
 -1      4048 1.38589E+01 8.07268E-01-3.13284E-03-1.10882E+00-9.11120E-14-2.99170E-13
 -1      4049 1.88781E+01 9.41423E-01-5.15394E-03 6.26096E-01-1.16482E-13 6.64005E-15
 -1      4050 1.87365E+01 9.91508E-01-1.33083E-03 6.96152E-01-8.84161E-15 1.51985E-13
 -1      4051 1.84804E+01 1.08387E+00 7.83863E-03 5.65241E-01 1.00910E-13 6.90125E-14
 -1      4052 1.75522E+01 9.70299E-01 1.21136E-03-1.24218E+00-8.88288E-14-1.31545E-13
 -1      4053 1.77984E+01 9.90401E-01-1.21821E-02-1.10779E+00-7.93880E-14-1.33743E-13
 -1      4054 1.70017E+01 1.09908E+00 1.82155E-02-1.00283E+00-7.21390E-14-1.96766E-13
 -1      4055 1.65101E+01 9.52909E-01-1.80466E-02 1.34672E+00-7.56725E-14-1.44263E-13
 -1      4056 2.01381E+01 5.52145E-01-8.84805E-04 2.32853E-01-8.28379E-14-2.38624E-13
 -1      4057 2.00841E+01 5.23406E-01-5.49205E-04 2.81362E-01-8.83126E-14-2.19922E-13
 -1      4058 2.01581E+01 6.19703E-01 1.43316E-03 1.71173E-01-4.80054E-14-2.42823E-13
 -1      4059 1.42206E+01 1.03487E+00-1.41554E-02 2.65960E-01-1.76532E-13-1.40016E-13
 -1      4060 1.42137E+01 1.08077E+00 5.42103E-02-9.41004E-01-4.99531E-14 9.60126E-14
 -1      4061 1.50323E+01 7.96791E-01 3.96938E-03-1.40920E+00 5.45203E-14 2.66107E-14
 -1      4062 1.51215E+01 1.15065E+00-3.18734E-03 1.69730E-01-3.59478E-14-1.35458E-13
 -1      4063 1.91563E+01 8.30839E-01-3.94839E-03 5.16531E-01-1.67714E-13 8.67654E-14
 -1      4064 1.90442E+01 8.88841E-01-1.16499E-03 5.76045E-01-1.08515E-13-1.84320E-14
 -1      4065 1.91305E+01 8.52892E-01 4.62871E-03 3.95669E-01-1.94194E-14 1.36629E-13
 -1      4066 1.67489E+01 2.14115E-01 1.16249E-02 2.16653E+00 1.79249E-13-2.63444E-13
 -1      4067 1.58057E+01 4.88168E-01 2.73456E-02 2.00891E+00 1.27931E-13-2.56391E-13
 -1      4068 1.68932E+01 4.05517E-01-2.21556E-02 1.83768E+00 1.05960E-13-2.39869E-13
 -1      4069 2.02530E+01 7.35728E-01-5.77250E-04 1.08419E-01 6.38138E-16-2.70417E-13
 -1      4070 2.02329E+01 7.42682E-01 1.99415E-03 1.03598E-01 1.17615E-14-2.65082E-13
 -1      4071 2.02680E+01 8.14693E-01-1.87423E-03 6.00494E-02-8.05711E-15-3.03329E-13
 -1      4072 2.00324E+01 5.58524E-01 1.71579E-03 2.41769E-01-8.97160E-14-2.62288E-13
 -1      4073 1.88453E+01 9.74993E-01 5.99412E-03 4.74140E-01-5.32171E-14 2.84976E-13
 -1      4074 2.01440E+01 5.29568E-01 8.62155E-04-2.94671E-01 1.00196E-13-1.37120E-13
 -1      4075 1.63867E+01 1.18354E+00 2.20501E-02 9.02065E-01-1.29598E-13-2.32641E-13
 -1      4076 1.98797E+01 2.63652E-01-8.96851E-04-1.37637E-01 1.22675E-13-1.31174E-13
 -1      4077 1.98140E+01 3.38924E-01 1.97182E-04-1.61909E-01 2.19072E-14-2.73934E-13
 -1      4078 1.98414E+01 3.04326E-01-4.57522E-04-1.38129E-01 1.17566E-13-2.04365E-13
 -1      4079 1.98449E+01 2.99367E-01 3.23085E-04-1.21852E-01 8.81078E-14-3.34329E-13
 -1      4080 1.98233E+01 3.13434E-01-6.46949E-04-9.40470E-02 1.38030E-13-2.56948E-13
 -1      4081 2.02886E+01 1.02818E+00 2.22850E-03-2.46187E-02-6.36755E-14-3.36922E-13
 -1      4082 2.02811E+01 9.11948E-01-1.11846E-03 3.07787E-02-3.87673E-14-3.24604E-13
 -1      4083 2.02657E+01 8.95304E-01-1.90427E-03 4.02813E-02 2.39873E-14-2.62833E-13
 -1      4084 1.97853E+01 5.67371E-01-6.26259E-04-4.60072E-01-1.21172E-14-1.08664E-13
 -1      4085 1.98675E+01 5.39380E-01-1.63251E-03-4.14505E-01 1.84930E-14-1.04817E-13
 -1      4086 1.98083E+01 3.26334E-01-1.94756E-04-5.72961E-02 2.31329E-13-2.63926E-13
 -1      4087 1.98001E+01 3.31895E-01-7.21376E-04-2.49296E-02 2.83936E-13-1.62611E-13
 -1      4088 1.97862E+01 3.54407E-01 4.94205E-04-8.46945E-02 1.95424E-13-4.78378E-13
 -1      4089 1.54473E+01 7.34937E-01-2.13747E-02 1.42566E+00 7.36599E-14-2.35799E-13
 -1      4090 1.99595E+01 5.23218E-01-4.96297E-04-3.80173E-01 4.08198E-14-1.07954E-13
 -1      4091 2.00257E+01 5.17565E-01-1.41345E-03-3.31762E-01 6.49984E-14-1.29765E-13
 -1      4092 1.98897E+01 5.71879E-01 1.96858E-03-3.25182E-01 3.46131E-14-6.84950E-14
 -1      4093 2.02389E+01 1.35635E+00 4.54218E-04-7.99218E-02-5.59361E-14-3.50059E-13
 -1      4094 1.97656E+01 3.80958E-01 1.01465E-03-1.42251E-01 9.98771E-14-5.82837E-13
 -1      4095 2.02522E+01 9.97402E-01-4.67207E-03 2.97405E-03 6.27640E-14-3.19160E-13
 -1      4096 2.02551E+01 1.02781E+00 1.96005E-04-2.87825E-04 3.19750E-14-2.90441E-13
 -1      4097 2.02566E+01 8.34393E-01 6.18622E-03-4.21189E-02 4.94219E-14-2.64475E-13
 -1      4098 1.86101E+01 9.46145E-01-7.61925E-04-8.56750E-01-4.86047E-14-5.10883E-14
 -1      4099 1.87848E+01 9.02796E-01-5.98071E-03-7.84010E-01 2.11044E-14-8.52664E-14
 -1      4100 1.89973E+01 8.55329E-01-7.38398E-04-7.34227E-01 4.92496E-14-9.65562E-14
 -1      4101 1.91388E+01 8.00789E-01-5.62595E-03-6.75941E-01 4.13863E-14-7.69125E-14
 -1      4102 1.87747E+01 9.40782E-01 7.97855E-03-5.96209E-01 3.17070E-14-7.95766E-14
 -1      4103 1.62216E+01 1.22930E-01-2.36746E-02-2.38981E+00 3.46771E-14 6.96982E-14
 -1      4104 1.60915E+01 5.66973E-01 6.26889E-03-1.99611E+00-9.16776E-14-2.19677E-13
 -1      4105 1.63708E+01 7.03920E-01-2.21426E-02-1.75587E+00-5.90730E-14-1.72983E-13
 -1      4106 1.61590E+01 9.93372E-01 1.53398E-02-1.27218E+00-3.05296E-14-1.82462E-13
 -1      4107 1.52553E+01 8.46510E-01 4.44253E-02-1.59488E+00-9.43638E-14-2.21556E-13
 -1      4108 1.81355E+01 9.95687E-01-3.40958E-04-1.01680E+00-6.79702E-14-1.06518E-13
 -1      4109 1.83451E+01 9.75368E-01-8.33062E-03-9.21758E-01-5.83788E-14-5.65237E-14
 -1      4110 1.83127E+01 1.03888E+00 8.97709E-03-6.90758E-01-3.49975E-14-6.62865E-14
 -1      4111 2.01945E+01 1.68074E+00 4.71709E-03-1.00916E-01-2.18585E-14-4.22342E-13
 -1      4112 1.77379E+01 1.09963E+00 1.22640E-02-8.17397E-01-6.87991E-14-1.77358E-13
 -1      4113 1.96505E+01 4.84674E-01-1.72024E-03 1.46374E-01 9.40280E-14-1.71962E-13
 -1      4114 1.95924E+01 5.37307E-01-1.04149E-03 1.67226E-01-3.46292E-14-7.64334E-14
 -1      4115 2.00529E+01 5.82487E-01-8.60100E-04 1.57981E-01-5.79507E-14-2.61024E-13
 -1      4116 1.99798E+01 5.69006E-01-4.80089E-04 1.91532E-01-7.75737E-14-2.29341E-13
 -1      4117 1.96830E+01 6.02318E-01-2.80599E-03 2.74257E-01-6.69334E-15-1.37973E-13
 -1      4118 1.95808E+01 6.32760E-01 3.95279E-04 3.15001E-01 1.18798E-14-1.53243E-13
 -1      4119 1.94418E+01 6.63612E-01-3.46764E-03 3.49606E-01 9.72150E-16-1.41655E-13
 -1      4120 1.93225E+01 7.01375E-01 3.76776E-04 3.99440E-01-1.03617E-14-1.72534E-13
 -1      4121 1.94747E+01 6.90202E-01 3.93408E-03 2.23724E-01 1.43292E-14-1.38133E-13
 -1      4122 1.91601E+01 7.34053E-01-3.99064E-03 4.45510E-01 2.99980E-14-1.67181E-13
 -1      4123 1.90214E+01 7.68508E-01-6.72107E-06 5.08259E-01 5.27132E-14-1.30554E-13
 -1      4124 1.91892E+01 7.70505E-01 6.15101E-03 2.98322E-01 1.16373E-14-9.41742E-14
 -1      4125 1.88249E+01 7.95040E-01-6.45347E-03 5.77446E-01 3.81309E-14-1.36776E-13
 -1      4126 1.86756E+01 8.17922E-01 1.74297E-03 6.63575E-01-1.69667E-15-1.07152E-13
 -1      4127 1.88372E+01 8.62609E-01 9.39304E-03 4.04613E-01 5.28868E-14-1.98101E-13
 -1      4128 1.84366E+01 8.18798E-01-9.63129E-03 7.57816E-01-1.74078E-14-1.46016E-13
 -1      4129 1.82752E+01 8.16837E-01 3.01095E-03 8.76346E-01 2.75296E-14-1.86662E-13
 -1      4130 1.84333E+01 9.26422E-01 1.40803E-02 5.49763E-01-9.98669E-15-2.01308E-13
 -1      4131 1.79811E+01 7.82254E-01-1.34096E-02 1.01241E+00 4.51812E-14-2.10113E-13
 -1      4132 1.78099E+01 7.36281E-01 4.55153E-03 1.18171E+00 1.39639E-14-2.03355E-13
 -1      4133 1.79395E+01 9.49657E-01 1.81761E-02 7.57301E-01 9.02587E-15-2.22714E-13
 -1      4134 1.73895E+01 1.12421E+00-6.91904E-03-5.34164E-01-7.68014E-14-1.48871E-13
 -1      4135 1.77205E+01 1.10213E+00-9.42099E-03-4.82573E-01-1.63248E-14-1.36583E-13
 -1      4136 1.77517E+01 8.27559E-01 4.73642E-03-1.14593E+00-1.36796E-13 1.52162E-13
 -1      4137 1.79094E+01 8.75180E-01-1.33428E-02-9.80384E-01 2.33399E-14-8.39194E-15
 -1      4138 1.81810E+01 9.14291E-01 2.01398E-03-8.40595E-01 3.20518E-14-2.82843E-14
 -1      4139 1.83272E+01 9.20325E-01-9.68659E-03-7.23179E-01 1.36336E-14 3.72905E-14
 -1      4140 1.78574E+01 1.05573E+00 2.22127E-02-7.23805E-01 1.25978E-14 1.67476E-13
 -1      4141 1.85440E+01 9.21372E-01 7.61733E-04-6.24733E-01 9.11255E-14-3.53918E-14
 -1      4142 1.86749E+01 8.99772E-01-7.01432E-03-5.38654E-01 1.71149E-13-1.50003E-13
 -1      4143 1.83106E+01 1.03778E+00 1.68900E-02-5.17872E-01-1.48639E-14-6.50379E-14
 -1      4144 1.88491E+01 8.75428E-01 5.69975E-05-4.68278E-01 5.52602E-14-2.80700E-13
 -1      4145 1.89627E+01 8.36753E-01-5.19066E-03-4.03792E-01 8.40425E-15-3.53795E-13
 -1      4146 1.86764E+01 9.73694E-01 1.26885E-02-3.73160E-01 6.68407E-14-2.05731E-13
 -1      4147 1.91030E+01 7.97267E-01-3.16034E-04-3.52820E-01 2.64356E-14-3.73014E-13
 -1      4148 1.91993E+01 7.49405E-01-3.90736E-03-3.03607E-01-1.75178E-14-3.79607E-13
 -1      4149 1.89734E+01 8.81615E-01 9.66921E-03-2.70437E-01-4.30454E-14-6.75105E-13
 -1      4150 1.93118E+01 7.02378E-01-4.87626E-04-2.66361E-01 1.27383E-15-3.40292E-13
 -1      4151 1.93916E+01 6.51164E-01-2.97599E-03-2.28256E-01 3.31806E-14-2.84496E-13
 -1      4152 1.92139E+01 7.75045E-01 7.42597E-03-1.96773E-01 3.97120E-14-6.54338E-13
 -1      4153 1.94811E+01 6.02113E-01-5.22803E-04-2.00836E-01 9.20130E-15-2.66176E-13
 -1      4154 1.95460E+01 5.51581E-01-2.23749E-03-1.70994E-01 6.96330E-14-2.50763E-13
 -1      4155 1.94069E+01 6.64192E-01 5.60938E-03-1.43620E-01 7.70563E-14-3.50115E-13
 -1      4156 1.96164E+01 5.04189E-01-4.58096E-04-1.50501E-01 1.62772E-14-3.37106E-13
 -1      4157 1.96689E+01 4.57191E-01-1.41764E-03-1.27070E-01-2.19085E-14-4.61531E-13
 -1      4158 1.95590E+01 5.55433E-01 3.45937E-03-1.05398E-01 1.45931E-15-1.27972E-14
 -1      4159 1.60418E+01 8.94952E-01 8.87591E-03 1.07320E+00 9.11474E-14-1.70420E-13
 -1      4160 1.53443E+01 1.03310E+00 2.17005E-02 8.42323E-01 3.48640E-14-2.14637E-13
 -1      4161 1.67481E+01 3.09437E-01 7.06719E-03-2.09938E+00-7.01341E-14 7.09890E-14
 -1      4162 1.69417E+01 4.32204E-01-3.23331E-02-1.85331E+00-1.26839E-13 1.14509E-13
 -1      4163 1.60190E+01 5.99359E-01 4.59746E-02-1.93650E+00 5.95921E-15 1.64056E-13
 -1      4164 1.96724E+01 6.03715E-01-2.11241E-03-4.94493E-01 9.07334E-15-9.83688E-14
 -1      4165 1.96893E+01 6.26960E-01 3.04298E-03-3.89633E-01-2.32532E-15-6.44707E-14
 -1      4166 1.95718E+01 6.47855E-01-9.01907E-04-5.41700E-01 6.13002E-14-1.00347E-13
 -1      4167 1.66329E+01 1.21611E+00-6.62802E-03 5.01603E-01-8.88556E-14-2.33913E-13
 -1      4168 1.58580E+01 1.19208E+00-2.81882E-02 4.33862E-01 1.65735E-14-2.02324E-13
 -1      4169 1.80481E+01 1.06770E+00-5.96771E-03-4.69617E-01-6.22007E-15-1.52946E-13
 -1      4170 1.83108E+01 1.02434E+00-6.42019E-03-4.32960E-01 5.70290E-15-8.31584E-14
 -1      4171 1.78258E+01 1.13898E+00 1.81819E-02-1.97441E-01-8.19939E-15-1.53474E-13
 -1      4172 1.79876E+01 1.15667E+00-8.89900E-03 4.07177E-01 1.39049E-13-1.24320E-13
 -1      4173 1.77111E+01 1.18676E+00-9.45457E-03 4.49840E-01-4.45867E-15-1.89535E-13
 -1      4174 1.95159E+01 5.91816E-01-2.26552E-03 1.82362E-01-3.40936E-14 4.97336E-14
 -1      4175 1.94401E+01 6.50101E-01-1.38121E-03 2.06282E-01 1.18091E-14-2.79959E-14
 -1      4176 1.95309E+01 5.91580E-01 5.00024E-03 1.15831E-01 7.90370E-14-3.81287E-13
 -1      4177 1.88304E+01 9.54802E-01-4.61745E-03 3.09594E-01-8.40942E-14 2.20085E-13
 -1      4178 1.86669E+01 1.01412E+00-3.85069E-03 3.39646E-01-8.35163E-14 1.50779E-13
 -1      4179 1.93416E+01 7.08857E-01-2.88426E-03 2.22108E-01-3.09499E-14 1.23289E-13
 -1      4180 1.92432E+01 7.70965E-01-1.98462E-03 2.48220E-01 2.68580E-14 2.60354E-13
 -1      4181 1.93636E+01 7.11053E-01 7.06837E-03 1.37122E-01 1.04454E-13 7.15270E-14
 -1      4182 1.73899E+01 1.20879E+00-1.13439E-02 4.45144E-01-8.83355E-14-1.65379E-13
 -1      4183 1.70270E+01 1.20514E+00-1.41308E-02 5.04099E-01-1.69839E-13-2.53119E-13
 -1      4184 1.67806E+01 1.33228E+00 4.20256E-02 7.60060E-02-8.05775E-14-2.80173E-13
 -1      4185 1.75081E+01 1.28645E+00 3.31175E-02 1.59063E-01-1.22382E-13-3.27285E-13
 -1      4186 2.02679E+01 1.11768E+00 1.06407E-03 3.00154E-03 6.57161E-15-2.96982E-13
 -1      4187 2.02455E+01 1.26735E+00-2.53070E-03-3.02896E-02-1.22203E-14-3.37663E-13
 -1      4188 1.91175E+01 8.32153E-01-3.59174E-03 2.64803E-01 5.29061E-14 2.36134E-13
 -1      4189 1.89903E+01 8.95058E-01-2.78099E-03 2.92819E-01 6.02854E-14 2.85325E-13
 -1      4190 1.91473E+01 8.38345E-01 9.32354E-03 1.57253E-01 5.41328E-14 3.79027E-13
 -1      4191 1.84626E+01 1.06708E+00-6.22702E-03 3.56288E-01 4.61073E-14-2.69132E-14
 -1      4192 1.82525E+01 1.11693E+00-5.36766E-03 3.89921E-01 2.01549E-13 4.68508E-14
 -1      4193 1.80694E+01 1.20177E+00 2.27124E-02 1.88645E-01-1.45023E-15-1.54625E-13
 -1      4194 1.47920E+01 1.01751E+00 5.08797E-03 3.62974E-01 4.06064E-14-2.87897E-13
 -1      4195 1.41968E+01 1.10597E+00 5.22716E-02-3.37232E-01-3.77309E-14-2.70165E-13
 -1      4196 1.47194E+01 9.18046E-01-2.75240E-03-1.08484E+00-9.36866E-14-2.25775E-13
 -1      4197 1.53950E+01 1.09439E+00-9.16745E-03 8.30205E-02 1.66694E-14-2.33629E-13
 -1      4198 1.97106E+01 4.25224E-01-1.02000E-04-1.13751E-01 3.79215E-14-4.97834E-13
 -1      4199 1.97518E+01 3.83423E-01-7.53686E-04-9.57388E-02 1.94297E-13-4.70459E-13
 -1      4200 1.97384E+01 3.97016E-01 4.43673E-04-5.54160E-02 1.49093E-13-2.79837E-13
 -1      4201 1.96673E+01 4.65549E-01 1.99431E-03-7.66964E-02-6.04594E-15-1.57071E-13
 -1      4202 1.65566E+01 1.12244E+00-2.02113E-03-6.37071E-01-5.39889E-14-2.00160E-13
 -1      4203 1.69540E+01 1.12346E+00-1.58764E-02-5.60629E-01-8.84228E-14-1.84811E-13
 -1      4204 1.70800E+01 1.20520E+00 2.18064E-02-1.75640E-01-3.10395E-14-1.76306E-13
 -1      4205 2.01743E+01 6.62745E-01-9.76363E-04 1.05183E-01-1.97992E-14-2.86662E-13
 -1      4206 2.01203E+01 6.13614E-01-8.69020E-04 1.39933E-01-4.55861E-14-2.96625E-13
 -1      4207 2.00796E+01 6.25436E-01 1.35570E-03 9.13520E-02-4.01122E-14-2.73940E-13
 -1      4208 1.73049E+01 6.23161E-01 8.99423E-03-1.57242E+00-1.25280E-13 1.28938E-13
 -1      4209 1.74543E+01 7.28960E-01-2.09903E-02-1.33614E+00-1.22799E-13 1.26078E-13
 -1      4210 1.73477E+01 1.00792E+00 3.18512E-02-1.01371E+00-9.92529E-14 2.74624E-13
 -1      4211 1.67683E+01 8.66397E-01 4.01725E-02-1.42665E+00-5.82717E-14 1.93830E-13
 -1      4212 2.01113E+01 5.44957E-01-3.01545E-04-2.72453E-01 6.36174E-14-1.43137E-13
 -1      4213 2.01731E+01 5.96277E-01-9.14895E-04-1.94198E-01 5.66265E-14-1.98116E-13
 -1      4214 2.00633E+01 5.79839E-01 1.00548E-03-2.33527E-01 4.48852E-14-1.34567E-13
 -1      4215 2.01982E+01 6.98613E-01-4.78288E-04-1.19984E-01 5.79775E-14-2.08035E-13
 -1      4216 1.98863E+01 5.68848E-01-2.11258E-03 2.12562E-01-5.32359E-14-1.67774E-13
 -1      4217 1.97989E+01 5.82333E-01-6.08222E-05 2.47999E-01-1.44823E-14-1.26086E-13
 -1      4218 1.99202E+01 6.02045E-01 2.95611E-03 1.28711E-01-1.62693E-14-1.91742E-13
 -1      4219 2.02627E+01 9.29300E-01 4.15496E-04 5.34670E-03 1.80198E-14-2.70909E-13
 -1      4220 1.57459E+01 1.08459E+00-4.20947E-03-7.94933E-01-3.29013E-14-2.23734E-13
 -1      4221 1.58872E+01 1.15883E+00 1.62398E-02-2.98574E-01-9.94842E-15-2.62204E-13
 -1      4222 1.74711E+01 6.56882E-01-1.77912E-02 1.36036E+00 1.99294E-14-1.77110E-13
 -1      4223 1.73130E+01 5.57386E-01 8.67478E-03 1.59006E+00 7.06461E-14-2.23272E-13
 -1      4224 1.66790E+01 7.55479E-01 1.85585E-02 1.42259E+00 5.92880E-14-1.72000E-13
 -1      4225 1.73516E+01 8.98852E-01 1.68655E-02 1.03815E+00 4.62269E-14-1.34606E-13
 -1      4226 1.54789E+01 8.71060E-01-3.30477E-02-1.20053E+00-5.14172E-15 9.11224E-14
 -1      4227 1.63907E+01 9.45475E-01-1.73253E-02 8.76767E-01 4.96408E-14-1.59755E-13
 -1      4228 1.85197E+01 1.09211E+00 1.65316E-02 1.85459E-01-9.52438E-14-5.58361E-14
 -1      4229 1.97186E+01 6.28622E-01 3.51404E-03 1.70383E-01-8.52256E-15-1.67854E-13
 -1      4230 1.83883E+01 1.04047E+00 1.21402E-02-2.11830E-01-1.32527E-14-9.38494E-14
 -1      4231 1.85648E+01 9.76051E-01-4.37057E-03-4.21480E-01-1.75147E-15-1.01099E-13
 -1      4232 1.87661E+01 9.20379E-01-7.10641E-03-3.86605E-01 1.24333E-14-1.32502E-13
 -1      4233 1.97278E+01 4.14079E-01-1.10631E-03 1.12174E-01 1.27039E-13-1.56748E-13
 -1      4234 1.96960E+01 4.49282E-01-1.86953E-04 1.31583E-01 1.24327E-13-1.26875E-13
 -1      4235 1.96466E+01 4.88733E-01 1.30254E-03 8.81968E-02 7.57409E-14-5.67230E-13
 -1      4236 1.97643E+01 3.71483E-01 1.48859E-04-2.10981E-02 1.74807E-13-2.91065E-13
 -1      4237 1.97970E+01 3.38475E-01 3.15147E-04-1.11604E-04 3.00873E-13-2.45170E-13
 -1      4238 1.97886E+01 3.46098E-01-5.80724E-04 2.85449E-02 1.74753E-13-3.77075E-13
 -1      4239 1.97293E+01 4.01643E-01-6.83023E-04-2.93081E-02 1.18810E-14-1.53674E-13
 -1      4240 1.56375E+01 1.25671E+00 4.07227E-02-2.89845E-01-4.26224E-14-1.12425E-13
 -1      4241 1.88713E+01 9.67914E-01 1.23282E-02 1.74206E-01-6.73992E-14 1.44707E-14
 -1      4242 1.98202E+01 5.94315E-01-1.46903E-03-2.56010E-01 1.94325E-14-1.06446E-13
 -1      4243 1.99124E+01 5.77622E-01-1.95545E-03-2.25654E-01 3.52980E-14-1.13309E-13
 -1      4244 1.97919E+01 3.48887E-01-1.04834E-03 8.76664E-02-4.44186E-16-1.93411E-13
 -1      4245 1.97660E+01 3.80815E-01-6.74343E-05 1.04140E-01 8.81216E-14-1.33228E-13
 -1      4246 1.97266E+01 4.14578E-01 8.07639E-04 6.91198E-02 7.71924E-14-3.43645E-13
 -1      4247 1.97923E+01 3.48714E-01 5.59135E-04 5.69174E-02 1.18374E-13-3.66068E-13
 -1      4248 1.93123E+01 7.51202E-01-6.65180E-04-6.30200E-01 8.39704E-14-6.52798E-14
 -1      4249 1.94332E+01 6.97479E-01-2.99306E-03-5.78217E-01 9.99460E-14-6.53195E-14
 -1      4250 1.94440E+01 7.18677E-01 4.95546E-03-4.53537E-01 6.01203E-14-1.05458E-13
 -1      4251 1.91359E+01 8.33884E-01 6.14663E-03-5.19000E-01 5.66191E-14-5.78011E-14
 -1      4252 1.95902E+01 6.56766E-01-3.19709E-03-3.00993E-01 2.57147E-14-1.39558E-13
 -1      4253 1.97079E+01 6.21723E-01-1.80019E-03-2.71399E-01 3.55472E-14-1.00160E-13
 -1      4254 1.97508E+01 6.36467E-01 3.56018E-03-1.68966E-01 2.99501E-14-1.37186E-13
 -1      4255 2.02402E+01 7.85494E-01 2.12998E-03 6.38126E-02 2.73122E-14-2.62593E-13
 -1      4256 2.02124E+01 7.12445E-01-6.46646E-04 9.05876E-02-1.46417E-14-2.77047E-13
 -1      4257 2.01805E+01 7.06894E-01 1.81738E-04 5.82919E-02-1.11871E-15-2.77863E-13
 -1      4258 2.01431E+01 6.42241E-01 2.94990E-03-1.18317E-01-9.38487E-15-2.00653E-13
 -1      4259 2.01934E+01 7.18257E-01-2.10870E-03-7.01246E-02 2.93415E-14-2.58971E-13
 -1      4260 2.01939E+01 7.45299E-01 4.80419E-04-3.06845E-02 1.56599E-14-2.53262E-13
 -1      4261 1.52893E+01 1.00252E+00-7.11161E-03-9.22533E-01-4.87058E-14-2.29916E-13
 -1      4262 2.02251E+01 7.98748E-01-2.75872E-03 2.21793E-02 2.71494E-14-2.72996E-13
 -1      4263 2.02526E+01 8.77043E-01 1.61442E-03 3.69242E-02 4.95123E-15-2.64844E-13
 -1      4264 1.70283E+01 1.05463E+00-1.60075E-02 4.04446E-01 3.96560E-14-1.82853E-13
 -1      4265 1.67121E+01 1.04258E+00-2.34621E-03 5.28219E-01 4.57376E-14-1.85990E-13
 -1      4266 1.85303E+01 1.00418E+00-1.01162E-02-1.25348E-01-5.95288E-14-1.33027E-13
 -1      4267 1.83189E+01 1.05471E+00-1.28368E-02-1.35704E-01-7.05933E-14-1.24900E-13
 -1      4268 1.61980E+01 1.01627E+00-9.35030E-03-8.32500E-01-5.95869E-14-1.52300E-14
 -1      4269 1.92059E+01 7.64552E-01-6.26674E-03 1.30623E-01 2.72736E-14-1.80150E-13
 -1      4270 1.90427E+01 8.13682E-01-4.55058E-03 1.74015E-01 3.61807E-14-1.79286E-13
 -1      4271 1.87876E+01 8.89286E-01-4.23690E-03 7.72569E-02 2.14786E-14-1.47841E-13
 -1      4272 1.85814E+01 9.32260E-01-5.39809E-03 1.24280E-01-1.41899E-14-1.78001E-13
 -1      4273 1.83181E+01 9.73346E-01-1.15232E-02 1.43894E-01-8.82324E-16-1.89711E-13
 -1      4274 1.80804E+01 1.00953E+00-7.80943E-03 2.13674E-01-1.60376E-14-1.85854E-13
 -1      4275 1.77473E+01 1.03173E+00-1.63891E-02 2.46000E-01-2.08426E-14-1.78869E-13
 -1      4276 1.74619E+01 1.04795E+00-8.98682E-03 3.48631E-01 1.94420E-14-1.61615E-13
 -1      4277 2.01370E+01 6.64996E-01 9.80399E-04 1.05776E-02-5.70990E-15-2.57651E-13
 -1      4278 2.00660E+01 6.26787E-01-1.36587E-03 1.97214E-02-2.44169E-14-2.60037E-13
 -1      4279 1.75536E+01 1.11769E+00-1.77561E-02-3.30376E-01-4.37424E-14-7.53696E-14
 -1      4280 1.78270E+01 1.11690E+00-1.76177E-02-2.27883E-01-4.59595E-14-9.17260E-14
 -1      4281 1.81004E+01 1.08060E+00-1.35806E-02-2.07571E-01-6.52242E-14-2.56691E-14
 -1      4282 1.87057E+01 9.62111E-01-9.28149E-03-7.53891E-02-6.17714E-14-2.45550E-13
 -1      4283 1.88706E+01 9.03278E-01-7.68186E-03-7.18346E-02-8.88174E-14-3.08618E-13
 -1      4284 1.90117E+01 8.52238E-01-6.77912E-03-3.69418E-02 1.97233E-14-2.89715E-13
 -1      4285 1.91407E+01 7.90445E-01-5.92170E-03-3.79930E-02 1.03673E-13-2.70957E-13
 -1      4286 1.92541E+01 7.36033E-01-4.95672E-03-1.35504E-02 9.33558E-14-2.26120E-13
 -1      4287 1.93549E+01 6.75426E-01-4.52148E-03-1.73206E-02 1.71145E-13-3.89491E-13
 -1      4288 1.94456E+01 6.21725E-01-3.44393E-03-1.96629E-04 1.56283E-13-2.64099E-13
 -1      4289 1.95243E+01 5.66064E-01-2.84063E-03-4.85977E-03 5.29375E-14-3.05348E-13
 -1      4290 1.95967E+01 5.16065E-01-1.47521E-03 5.83246E-03 1.07781E-14-2.21665E-13
 -1      4291 1.90158E+01 8.52251E-01-1.74039E-03-2.66707E-01 7.06814E-14-1.44208E-13
 -1      4292 1.91828E+01 7.94127E-01-2.83747E-03-2.46031E-01 7.66024E-14-1.45887E-13
 -1      4293 1.72175E+01 1.12417E+00-2.63287E-02-3.87160E-01-6.20786E-14-3.31551E-14
 -1      4294 2.01745E+01 7.06028E-01-6.70978E-04-6.35159E-04 6.36977E-15-2.53566E-13
 -1      4295 1.97169E+01 6.27775E-01-3.01896E-03-9.58489E-03-8.26178E-15-1.80186E-13
 -1      4296 1.96048E+01 6.59025E-01-6.22270E-04 6.73521E-03 2.12014E-15-1.73349E-13
 -1      4297 1.99931E+01 5.82406E-01 6.44759E-04-1.96501E-01 3.29792E-14-1.39423E-13
 -1      4298 2.00762E+01 6.04058E-01-2.11869E-03-1.41915E-01 7.54144E-15-1.72044E-13
 -1      4299 2.00731E+01 6.29209E-01-4.32660E-04-7.93146E-02-2.07334E-14-1.96091E-13
 -1      4300 1.99374E+01 6.08831E-01 2.27734E-03-1.28900E-01 1.37442E-14-1.62802E-13
 -1      4301 1.93238E+01 7.46994E-01-4.23868E-03-2.93871E-01 1.59900E-14-1.26277E-13
 -1      4302 1.94697E+01 7.00415E-01-1.65807E-03-2.68419E-01-4.89585E-15-1.61020E-13
 -1      4303 1.95195E+01 7.05096E-01 5.01012E-03-1.45364E-01 1.98031E-15-1.69437E-13
 -1      4304 1.92605E+01 7.87581E-01 6.01260E-03-5.51980E-02 4.50266E-14-1.98820E-13
 -1      4305 1.64978E+01 1.06552E+00-3.45278E-02-6.30265E-01-7.85596E-14-6.22035E-14
 -1      4306 1.99242E+01 6.01347E-01-1.79980E-03-1.67946E-02-4.48613E-15-2.05822E-13
 -1      4307 1.98308E+01 6.07586E-01-1.06528E-03-3.91153E-03 6.05798E-16-1.84583E-13
 -1      4308 1.62211E+01 1.16182E+00-2.40271E-03 1.68219E-01 1.04513E-14-2.34109E-13
 -1      4309 2.00034E+01 6.07206E-01 4.11445E-06 2.79673E-03-1.46989E-14-2.48755E-13
 -1      4310 1.93528E+01 7.33121E-01-1.96264E-04 7.21076E-02 4.36227E-14-1.59066E-13
 -1      4311 1.88838E+01 9.04371E-01 7.96909E-03-1.01030E-01 3.17062E-14-1.54182E-13
 -1      4312 1.69384E+01 1.09321E+00-2.07200E-02-5.35643E-01-7.65082E-14 1.29445E-14
 -1      4313 1.96472E+01 4.84827E-01 1.36226E-03 5.99246E-02-1.81787E-14-5.07837E-13
 -1      4314 1.96526E+01 4.66964E-01-1.42280E-03-3.44560E-02-1.56106E-14-1.64953E-13
 -1      4315 1.96954E+01 4.33708E-01-5.05246E-04-2.33443E-02-1.77820E-14-1.30251E-13
 -1      4316 1.97592E+01 3.78480E-01 7.65530E-05 3.33210E-02 2.43524E-13-3.17284E-13
 -1      4317 1.94823E+01 6.87679E-01-4.28685E-03 4.78323E-02 2.04191E-14-1.94495E-13
 -1      4318 1.97277E+01 4.07424E-01 4.94564E-04 1.16653E-02-7.91056E-15-2.05108E-13
 -1      4319 1.97236E+01 4.12889E-01 2.53188E-04 3.79416E-02 8.55622E-14-2.88982E-13
 -1      4320 1.96906E+01 4.43336E-01 2.30908E-05 4.80942E-02-3.51531E-15-4.88365E-13
 -3
    1PSTEP                         3           1           1          
  100CL  101 1.000000000        4320                     0    1           1
 -4  TOSTRAIN    6    1
 -5  EXX         1    4    1    1
 -5  EYY         1    4    2    2
 -5  EZZ         1    4    3    3
 -5  EXY         1    4    1    2
 -5  EYZ         1    4    2    3
 -5  EZX         1    4    3    1
 -1         1 5.67683E-06 3.32980E-06-8.87653E-06 7.58524E-06-2.71847E-17-1.82811E-17
 -1         2 3.61221E-05-1.10131E-04 1.98640E-05 8.31926E-07 5.05008E-18 1.03327E-18
 -1         3 9.52336E-05-2.85747E-05-2.85581E-05 6.56190E-10-3.93550E-18-4.15437E-18
 -1         4 9.52333E-05-2.85750E-05-2.85582E-05 1.34964E-10 2.01205E-18-8.90496E-19
 -1         5 1.42809E-04-2.13901E-05-4.23903E-05 3.84058E-05-3.53054E-19 2.70933E-17
 -1         6 1.44865E-04 2.56667E-10-4.40456E-05-5.33371E-05-1.51068E-18 2.53314E-17
 -1         7 9.04318E-05-5.14109E-07-3.89840E-05-2.91405E-05-2.17158E-19 5.06804E-18
 -1         8 8.50706E-05 8.24597E-08-3.63093E-05-2.01540E-05-2.83465E-19-1.24386E-18
 -1         9 8.28415E-05 7.24740E-08-3.53572E-05-1.55045E-05-2.48167E-19-4.67374E-18
 -1        10 8.18437E-05 3.69261E-08-3.49097E-05-1.19342E-05-1.69969E-19-6.37853E-18
 -1        11 8.13485E-05 1.73762E-08-3.46933E-05-8.87704E-06-1.22998E-19-7.15466E-18
 -1        12 8.10880E-05 7.87880E-09-3.45843E-05-6.17062E-06-6.68031E-20-7.39435E-18
 -1        13 8.09477E-05 3.85524E-09-3.45288E-05-3.61085E-06-2.93525E-20-7.42229E-18
 -1        14 8.08882E-05 2.28585E-09-3.45059E-05-1.15848E-06 1.77197E-20-7.26429E-18
 -1        15 8.08909E-05 2.25591E-09-3.45069E-05 1.26099E-06 5.35054E-20-7.14111E-18
 -1        16 8.09560E-05 3.73908E-09-3.45318E-05 3.71881E-06 1.08558E-19-6.89463E-18
 -1        17 8.11022E-05 7.04337E-09-3.45892E-05 6.29121E-06 1.43580E-19-6.51068E-18
 -1        18 8.13688E-05 1.61259E-08-3.46994E-05 9.01747E-06 1.69433E-19-5.85617E-18
 -1        19 8.18716E-05 3.53497E-08-3.49188E-05 1.21138E-05 2.56108E-19-4.70827E-18
 -1        20 8.28623E-05 7.78599E-08-3.53696E-05 1.57362E-05 3.11483E-19-2.56387E-18
 -1        21 8.50340E-05 1.65036E-07-3.63468E-05 2.03663E-05 3.69836E-19 1.51611E-18
 -1        22 9.14537E-05-1.02276E-07-3.86548E-05 2.78927E-05 4.77515E-20 9.54535E-18
 -1        23 1.12585E-04-3.79967E-05-3.52818E-05-4.37762E-06-1.02205E-18 1.99971E-17
 -1        24 9.25453E-05-2.76206E-05-2.89183E-05 3.90800E-07-2.72715E-19 1.53974E-17
 -1        25 8.89500E-05-2.68026E-05-2.68780E-05 3.73666E-07-1.28170E-19 1.08206E-17
 -1        26 8.79510E-05-2.64707E-05-2.63734E-05 2.01836E-07-9.27352E-21 7.46632E-18
 -1        27 8.81195E-05-2.64924E-05-2.64091E-05 1.37814E-07-1.08542E-19 5.16042E-18
 -1        28 8.88556E-05-2.66903E-05-2.66406E-05 9.95537E-08-7.88944E-20 3.73142E-18
 -1        29 8.99000E-05-2.69907E-05-2.69615E-05 7.54491E-08 8.43836E-20 2.59825E-18
 -1        30 9.11328E-05-2.73537E-05-2.73358E-05 5.97887E-08-1.11135E-19 1.37364E-18
 -1        31 9.25055E-05-2.77620E-05-2.77511E-05 5.00822E-08-1.38375E-19-2.29556E-19
 -1        32 9.40115E-05-2.82119E-05-2.82064E-05 4.53333E-08-1.47473E-19-1.59140E-18
 -1        33 9.56700E-05-2.87082E-05-2.87076E-05 4.52104E-08 2.53279E-19-2.01107E-18
 -1        34 9.75119E-05-2.92597E-05-2.92637E-05 4.96063E-08-9.25695E-20-1.99620E-18
 -1        35 9.95662E-05-2.98743E-05-2.98824E-05 5.82810E-08 7.32279E-20-2.88510E-18
 -1        36 1.01841E-04-3.05539E-05-3.05649E-05 7.03916E-08-1.58044E-20-2.20528E-18
 -1        37 1.04297E-04-3.12866E-05-3.12975E-05 8.37641E-08-3.38064E-19-3.38773E-18
 -1        38 1.06817E-04-3.20369E-05-3.20417E-05 9.38267E-08 2.41513E-19-3.43802E-18
 -1        39 1.09165E-04-3.27344E-05-3.27233E-05 9.23546E-08-8.54829E-20-2.94462E-18
 -1        40 1.10951E-04-3.32642E-05-3.32243E-05 6.67730E-08-2.72354E-19-3.38339E-18
 -1        41 1.11638E-04-3.34670E-05-3.33865E-05 1.87873E-09 1.48744E-19-3.89255E-18
 -1        42 1.10615E-04-3.31624E-05-3.30408E-05-1.13002E-07-9.71143E-20-3.52101E-18
 -1        43 1.07415E-04-3.22106E-05-3.20725E-05-2.69554E-07-2.32166E-19-3.28703E-18
 -1        44 1.02052E-04-3.06142E-05-3.05149E-05-4.23887E-07 2.32127E-19-8.18949E-19
 -1        45 9.53739E-05-2.86221E-05-2.86307E-05-4.95909E-07-6.45052E-20-5.32466E-19
 -1        46 8.90998E-05-2.67467E-05-2.68988E-05-4.09130E-07-9.63384E-20-3.40771E-18
 -1        47 8.52945E-05-2.56073E-05-2.58638E-05-1.56220E-07 5.87331E-20-4.08805E-18
 -1        48 8.53846E-05-2.56342E-05-2.58889E-05 1.67878E-07 7.49326E-20-5.07399E-18
 -1        49 8.93421E-05-2.68192E-05-2.69665E-05 4.16171E-07 1.69852E-19-5.70054E-18
 -1        50 9.56961E-05-2.87187E-05-2.87215E-05 4.95455E-07 1.06360E-19-5.91250E-18
 -1        51 1.02376E-04-3.07111E-05-3.06089E-05 4.17757E-07-2.52422E-20-4.70082E-18
 -1        52 1.07696E-04-3.22952E-05-3.21571E-05 2.62337E-07 6.21237E-20-4.46235E-18
 -1        53 1.10859E-04-3.32361E-05-3.31163E-05 1.07513E-07-4.55613E-19-5.77829E-18
 -1        54 1.11882E-04-3.35411E-05-3.34628E-05-4.64150E-09 3.60108E-19-5.60018E-18
 -1        55 1.11250E-04-3.33553E-05-3.33173E-05-6.68222E-08 3.29199E-19-4.77429E-18
 -1        56 1.09582E-04-3.28613E-05-3.28520E-05-8.99405E-08-1.93119E-19-5.85991E-18
 -1        57 1.07420E-04-3.22196E-05-3.22261E-05-8.90712E-08 2.23458E-19-5.32742E-18
 -1        58 1.05156E-04-3.15462E-05-3.15591E-05-7.65154E-08 1.17857E-20-5.93049E-18
 -1        59 1.03032E-04-3.09129E-05-3.09266E-05-6.01770E-08-5.91391E-20-4.85196E-18
 -1        60 1.01170E-04-3.03569E-05-3.03688E-05-4.43122E-08-5.88075E-19-3.72805E-18
 -1        61 9.96168E-05-2.98920E-05-2.99012E-05-3.07866E-08 2.09508E-19-4.01559E-18
 -1        62 9.83683E-05-2.95176E-05-2.95242E-05-2.01167E-08-4.12378E-20-3.30397E-18
 -1        63 9.73960E-05-2.92255E-05-2.92298E-05-1.21545E-08-7.73935E-19-5.81107E-18
 -1        64 9.66601E-05-2.90040E-05-2.90066E-05-6.48037E-09-8.60484E-20-7.97079E-18
 -1        65 9.61192E-05-2.88409E-05-2.88423E-05-2.60382E-09 3.41342E-19-5.34314E-18
 -1        66 9.57345E-05-2.87246E-05-2.87252E-05-4.73685E-11 2.68006E-19-6.18062E-18
 -1        67 9.54730E-05-2.86453E-05-2.86456E-05 1.63807E-09 4.21967E-19-4.72000E-18
 -1        68 9.53080E-05-2.85950E-05-2.85955E-05 2.91425E-09 3.92222E-19-2.43986E-18
 -1        69 9.52198E-05-2.85678E-05-2.85687E-05 4.31060E-09-9.34644E-20-1.62444E-18
 -1        70 9.51936E-05-2.85592E-05-2.85600E-05 6.54672E-09-4.05842E-19-1.81517E-18
 -1        71 9.52144E-05-2.85652E-05-2.85616E-05 8.48086E-09-5.23237E-19-1.08439E-18
 -1        72 1.01816E-04-3.04759E-05-3.40372E-05-1.92311E-06 3.29734E-19 2.48831E-17
 -1        73 9.22937E-05-2.74344E-05-2.88244E-05-3.31447E-07 2.12255E-19 1.92887E-17
 -1        74 8.89254E-05-2.66485E-05-2.69175E-05-1.22622E-07 9.68835E-20 1.50269E-17
 -1        75 8.79653E-05-2.64166E-05-2.64127E-05-9.06731E-08 3.09320E-20 1.22324E-17
 -1        76 8.81345E-05-2.64658E-05-2.64303E-05-7.02096E-08 8.35275E-20 9.89968E-18
 -1        77 8.88676E-05-2.66771E-05-2.66518E-05-5.47797E-08 1.13623E-19 8.23086E-18
 -1        78 8.99111E-05-2.69846E-05-2.69689E-05-4.27552E-08-1.05741E-19 7.54747E-18
 -1        79 9.11509E-05-2.73537E-05-2.73440E-05-3.29055E-08 1.97891E-19 6.59894E-18
 -1        80 9.25475E-05-2.77714E-05-2.77664E-05-2.48553E-08-1.70601E-19 5.38791E-18
 -1        81 9.41098E-05-2.82394E-05-2.82396E-05-1.88167E-08 1.68571E-19 4.90023E-18
 -1        82 9.58812E-05-2.87703E-05-2.87767E-05-1.54378E-08-9.84469E-21 4.48665E-18
 -1        83 9.79315E-05-2.93846E-05-2.93988E-05-1.58424E-08-4.93250E-20 4.33509E-18
 -1        84 1.00348E-04-3.01077E-05-3.01314E-05-2.17668E-08 2.12000E-19 4.07420E-18
 -1        85 1.03220E-04-3.09663E-05-3.10008E-05-3.56966E-08 6.44035E-20 2.71971E-18
 -1        86 1.06619E-04-3.19807E-05-3.20255E-05-6.07744E-08 1.20485E-19 1.88989E-18
 -1        87 1.10551E-04-3.31526E-05-3.32022E-05-9.99581E-08-4.00165E-19 1.39262E-18
 -1        88 1.14884E-04-3.44435E-05-3.44819E-05-1.53373E-07 4.58463E-20 2.57002E-18
 -1        89 1.19236E-04-3.57430E-05-3.57367E-05-2.12250E-07 2.63610E-19 7.79813E-19
 -1        90 1.22843E-04-3.68300E-05-3.67251E-05-2.48633E-07 8.53303E-20 7.59683E-20
 -1        91 1.24482E-04-3.73484E-05-3.70864E-05-2.05849E-07-3.29029E-19 1.31007E-18
 -1        92 1.22643E-04-3.68474E-05-3.64190E-05-9.15390E-09-5.35815E-20 3.41802E-18
 -1        93 1.16191E-04-3.49648E-05-3.44935E-05 3.72753E-07-3.95723E-20 3.62189E-18
 -1        94 1.05590E-04-3.17859E-05-3.15586E-05 8.18344E-07 4.71625E-19 1.50735E-18
 -1        95 9.39502E-05-2.81996E-05-2.85083E-05 1.01468E-06 1.50927E-20 1.06234E-18
 -1        96 8.63727E-05-2.57931E-05-2.65940E-05 6.89274E-07 1.69506E-20 2.23528E-18
 -1        97 8.68043E-05-2.58597E-05-2.67139E-05-2.82828E-08-2.18381E-19 2.54479E-18
 -1        98 9.50411E-05-2.83835E-05-2.88321E-05-6.84227E-07-1.56431E-19 2.04611E-18
 -1        99 1.06846E-04-3.20320E-05-3.19438E-05-9.09884E-07-1.08310E-19-1.57178E-19
 -1       100 1.17204E-04-3.52147E-05-3.48038E-05-7.29582E-07 7.02789E-20 5.26166E-19
 -1       101 1.23249E-04-3.70442E-05-3.66021E-05-3.95966E-07 1.96378E-19-2.10779E-19
 -1       102 1.24743E-04-3.74736E-05-3.71605E-05-1.10021E-07-1.16696E-19-2.69998E-18
 -1       103 1.22920E-04-3.69021E-05-3.67426E-05 6.21610E-08-1.84151E-19-3.01726E-18
 -1       104 1.19299E-04-3.57983E-05-3.57517E-05 1.36236E-07 8.79210E-20-1.48256E-18
 -1       105 1.15067E-04-3.45203E-05-3.45362E-05 1.50160E-07 1.10267E-19-1.74813E-19
 -1       106 1.10955E-04-3.32839E-05-3.33256E-05 1.35270E-07-5.29372E-20-1.33067E-18
 -1       107 1.07322E-04-3.21942E-05-3.22410E-05 1.10499E-07 2.02619E-19-3.95284E-18
 -1       108 1.04293E-04-3.12867E-05-3.13291E-05 8.52542E-08 1.88249E-19-6.85408E-18
 -1       109 1.01865E-04-3.05591E-05-3.05941E-05 6.33320E-08 5.05909E-19-5.95039E-18
 -1       110 9.99717E-05-2.99920E-05-3.00193E-05 4.57183E-08-1.60218E-19-7.42477E-18
 -1       111 9.85297E-05-2.95598E-05-2.95805E-05 3.21866E-08-1.60392E-19-8.56857E-18
 -1       112 9.74534E-05-2.92371E-05-2.92524E-05 2.20945E-08-1.88424E-19-7.91437E-18
 -1       113 9.66663E-05-2.90010E-05-2.90122E-05 1.47382E-08 3.93185E-20-4.37565E-18
 -1       114 9.61036E-05-2.88322E-05-2.88401E-05 9.48667E-09-5.72495E-19-2.05747E-18
 -1       115 9.57127E-05-2.87148E-05-2.87205E-05 5.80638E-09 2.33453E-19-3.07779E-18
 -1       116 9.54525E-05-2.86365E-05-2.86408E-05 3.22624E-09-1.25353E-19-1.12468E-18
 -1       117 9.52922E-05-2.85882E-05-2.85918E-05 1.28285E-09-2.62642E-19-3.37950E-18
 -1       118 9.52099E-05-2.85632E-05-2.85665E-05-5.77823E-10 1.77397E-19-7.77726E-18
 -1       119 9.51898E-05-2.85567E-05-2.85592E-05-3.63090E-09-1.70222E-19-9.86331E-18
 -1       120 9.52139E-05-2.85639E-05-2.85618E-05-8.11850E-09 1.94432E-18-9.28216E-18
 -1       121 9.52437E-05-2.85941E-05-2.85624E-05-1.01066E-08-9.43117E-18 1.07941E-18
 -1       122 9.52497E-05-2.86135E-05-2.85614E-05-4.73193E-09-4.81998E-18-9.93280E-20
 -1       123 9.52409E-05-2.85838E-05-2.85708E-05-4.43110E-11 3.16947E-18 1.14529E-18
 -1       124 9.52185E-05-2.85088E-05-2.85920E-05 3.04024E-09 8.56052E-18 9.70377E-19
 -1       125 9.51883E-05-2.84073E-05-2.86208E-05 4.36408E-09 7.93689E-18-1.51149E-18
 -1       126 9.51578E-05-2.83046E-05-2.86502E-05 4.27127E-09-7.04788E-18-5.36596E-19
 -1       127 9.51327E-05-2.82199E-05-2.86745E-05 3.05673E-09-7.92818E-18 1.47757E-18
 -1       128 9.51187E-05-2.81726E-05-2.86881E-05 1.14192E-09-5.48542E-18 1.06913E-18
 -1       129 9.51185E-05-2.81720E-05-2.86883E-05-1.00626E-09-2.87921E-18 3.99891E-20
 -1       130 9.51321E-05-2.82179E-05-2.86751E-05-2.91292E-09-1.72443E-18-5.00609E-20
 -1       131 9.51567E-05-2.83010E-05-2.86512E-05-4.15723E-09-2.56351E-18-6.55753E-19
 -1       132 9.51868E-05-2.84024E-05-2.86222E-05-4.26281E-09-2.74804E-18 2.06780E-18
 -1       133 9.52168E-05-2.85032E-05-2.85936E-05-2.99646E-09-1.31239E-18 6.34945E-19
 -1       134 9.52392E-05-2.85788E-05-2.85723E-05-3.85604E-10-2.41571E-18-2.33735E-18
 -1       135 9.52491E-05-2.86100E-05-2.85623E-05 6.12638E-09-4.84375E-18-1.95352E-19
 -1       136 9.52419E-05-2.85929E-05-2.85622E-05 1.43806E-08-3.01289E-18 2.04169E-18
 -1       137 2.77182E-05-9.19653E-05 1.63838E-05-2.35348E-05 1.68860E-17 3.44848E-18
 -1       138 8.97410E-06-4.07751E-05 5.01868E-06-2.18152E-05 2.40003E-17 1.07434E-17
 -1       139 9.76980E-06 9.47661E-06-1.27418E-05 1.69431E-05 2.21241E-17 1.59035E-17
 -1       140 4.88845E-05 2.72400E-05-3.23041E-05 6.99220E-05 1.85682E-17 1.97367E-17
 -1       141 1.28407E-04 3.99022E-06-5.14499E-05 1.07814E-04 1.19290E-17 1.89786E-17
 -1       142 2.25533E-04-4.45442E-05-6.78350E-05 1.04796E-04 4.58033E-18 1.34928E-17
 -1       143 2.98091E-04-8.74237E-05-7.76537E-05 5.10087E-05 1.10718E-18 4.74211E-18
 -1       144 3.07359E-04-9.32322E-05-7.87905E-05-3.32004E-05 1.48236E-18-8.70580E-18
 -1       145 2.45666E-04-5.59661E-05-7.07061E-05-9.79918E-05 6.86838E-18-2.24904E-17
 -1       146 1.46400E-04-3.63270E-06-5.49327E-05-1.11907E-04 1.68735E-17-2.91074E-17
 -1       147 5.84081E-05 2.60348E-05-3.51682E-05-7.71984E-05 2.53212E-17-2.87623E-17
 -1       148 1.11709E-05 1.20633E-05-1.40522E-05-2.07018E-05 2.81295E-17-2.09827E-17
 -1       149 7.62373E-06-3.42659E-05 3.25435E-06 1.91265E-05 2.43556E-17-1.10169E-17
 -1       150 2.47707E-05-8.52731E-05 1.50818E-05 2.55927E-05 1.32436E-17-4.40470E-18
 -1       151 3.64217E-05-1.10438E-04 1.98623E-05 4.85735E-06-1.14021E-18 3.11602E-19
 -1       152 2.94856E-05-9.53559E-05 1.70734E-05-2.00057E-05-1.26293E-17-2.12239E-18
 -1       153 1.16309E-05-4.73233E-05 6.60359E-06-2.21517E-05-2.25256E-17-8.67256E-18
 -1       154 3.87490E-05 2.91824E-05-2.92104E-05 6.27396E-05-2.55660E-17-2.58680E-17
 -1       155 1.15474E-04 1.02463E-05-4.90251E-05 1.06094E-04-1.88094E-17-2.89956E-17
 -1       156 2.15517E-04-3.97141E-05-6.61232E-05 1.06356E-04-9.35262E-18-2.34853E-17
 -1       157 2.89999E-04-8.43001E-05-7.62498E-05 5.30207E-05-2.04867E-18-1.03541E-17
 -1       158 3.01655E-04-9.17840E-05-7.76933E-05-2.91825E-05-1.47217E-18 5.16129E-18
 -1       159 2.45857E-04-5.73937E-05-7.04657E-05-9.44246E-05-6.24581E-18 2.03813E-17
 -1       160 1.49061E-04-4.76580E-06-5.53763E-05-1.12270E-04-1.61284E-17 2.86051E-17
 -1       161 6.03089E-05 2.72224E-05-3.59230E-05-8.00401E-05-1.99464E-17 2.43497E-17
 -1       162 1.22497E-05 1.58548E-05-1.55174E-05-2.52892E-05-1.94826E-17 1.43081E-17
 -1       163 7.38202E-06-3.14644E-05 2.59482E-06 1.68791E-05-1.31828E-17 6.84149E-18
 -1       164 2.51008E-05-8.48473E-05 1.49126E-05 2.27804E-05-5.71048E-18 1.38842E-18
 -1       165 9.47707E-05-1.23542E-05-3.55228E-05-2.22020E-05-3.58389E-18 1.71286E-18
 -1       166 8.92544E-05-8.47122E-06-3.47819E-05-1.72303E-05-3.31257E-18-2.25478E-18
 -1       167 8.66047E-05-6.50681E-06-3.44385E-05-1.34134E-05-2.67732E-18-4.45583E-18
 -1       168 8.52621E-05-5.49136E-06-3.42706E-05-1.02064E-05-1.99192E-18-5.60145E-18
 -1       169 8.45158E-05-4.89587E-06-3.41908E-05-7.40192E-06-1.37020E-18-6.02492E-18
 -1       170 8.40750E-05-4.52555E-06-3.41532E-05-4.79597E-06-7.76479E-19-6.19057E-18
 -1       171 8.38449E-05-4.32452E-06-3.41372E-05-2.33853E-06-1.84021E-19-6.09842E-18
 -1       172 8.37765E-05-4.26307E-06-3.41332E-05 4.99436E-08 4.39312E-19-5.97453E-18
 -1       173 8.38565E-05-4.33340E-06-3.41385E-05 2.44065E-06 9.38384E-19-5.83155E-18
 -1       174 8.40997E-05-4.54549E-06-3.41556E-05 4.90519E-06 1.51897E-18-5.54369E-18
 -1       175 8.45462E-05-4.92284E-06-3.41930E-05 7.47775E-06 2.09168E-18-5.00017E-18
 -1       176 8.53267E-05-5.55284E-06-3.42729E-05 1.03462E-05 2.79670E-18-4.23641E-18
 -1       177 8.67056E-05-6.61118E-06-3.44415E-05 1.36134E-05 3.33663E-18-2.71756E-18
 -1       178 8.93967E-05-8.61518E-06-3.47864E-05 1.74632E-05 3.74711E-18 2.44845E-21
 -1       179 9.56727E-05-1.36144E-05-3.53781E-05 2.17522E-05 3.51331E-18 4.84910E-18
 -1       180 1.05364E-04-2.60443E-05-3.51806E-05 1.85579E-05 2.56435E-18 1.13099E-17
 -1       181 1.03217E-04-2.72570E-05-3.25518E-05-1.20238E-05-3.10959E-18 6.41297E-18
 -1       182 9.70049E-05-2.82577E-05-2.94979E-05-4.63164E-06-2.68834E-18 4.85369E-18
 -1       183 9.34986E-05-2.76266E-05-2.81824E-05-1.65068E-06-1.99883E-18 3.54936E-18
 -1       184 9.20871E-05-2.74272E-05-2.76752E-05-2.60951E-07-1.51660E-18 2.23469E-18
 -1       185 9.16792E-05-2.73960E-05-2.75306E-05 4.68050E-07-9.94465E-19 1.45756E-18
 -1       186 9.18686E-05-2.74964E-05-2.75780E-05 8.86093E-07-7.65528E-19 7.87769E-19
 -1       187 9.24284E-05-2.76850E-05-2.77414E-05 1.14883E-06-8.45684E-19 1.45834E-19
 -1       188 9.32380E-05-2.79347E-05-2.79832E-05 1.33982E-06-9.85415E-19-2.81487E-19
 -1       189 9.42374E-05-2.82327E-05-2.82846E-05 1.50868E-06-6.35693E-19-3.50042E-19
 -1       190 9.54032E-05-2.85754E-05-2.86378E-05 1.68514E-06-4.07691E-19-4.85334E-19
 -1       191 9.67322E-05-2.89654E-05-2.90405E-05 1.88364E-06-4.40196E-19-1.61677E-18
 -1       192 9.82291E-05-2.94084E-05-2.94927E-05 2.10312E-06-2.63491E-19-1.97389E-18
 -1       193 9.98932E-05-2.99099E-05-2.99919E-05 2.32371E-06-6.21717E-20-2.23754E-18
 -1       194 1.01704E-04-3.04712E-05-3.05288E-05 2.50097E-06-6.26666E-19-2.36081E-18
 -1       195 1.03602E-04-3.10847E-05-3.10819E-05 2.55917E-06-3.69521E-19-1.87685E-18
 -1       196 1.05472E-04-3.17261E-05-3.16113E-05 2.38729E-06 3.49866E-19-2.15449E-18
 -1       197 1.07119E-04-3.23441E-05-3.20557E-05 1.84575E-06-2.75972E-19-1.61746E-18
 -1       198 1.08266E-04-3.28487E-05-3.23334E-05 7.97752E-07-4.34508E-19-1.80437E-18
 -1       199 1.08570E-04-3.31024E-05-3.23552E-05-8.18105E-07-1.71612E-19-1.92202E-18
 -1       200 1.07697E-04-3.29292E-05-3.20523E-05-2.86975E-06 3.04204E-19-1.61990E-18
 -1       201 1.05473E-04-3.21703E-05-3.14182E-05-4.90995E-06 8.75733E-19-1.53020E-18
 -1       202 1.02090E-04-3.08052E-05-3.05463E-05-6.17037E-06 2.89071E-19-8.97021E-19
 -1       203 9.82808E-05-2.91037E-05-2.96382E-05-5.82753E-06-8.96234E-19 2.76321E-19
 -1       204 9.52275E-05-2.76488E-05-2.89517E-05-3.54540E-06-9.99056E-19-4.19778E-19
 -1       205 9.40854E-05-2.70842E-05-2.87044E-05 8.59849E-08-8.88296E-19-1.36115E-18
 -1       206 9.53369E-05-2.76967E-05-2.89785E-05 3.69152E-06-4.95891E-19-1.98079E-18
 -1       207 9.84688E-05-2.91836E-05-2.96846E-05 5.90574E-06-4.07501E-19-2.87255E-18
 -1       208 1.02306E-04-3.08879E-05-3.06039E-05 6.17518E-06 7.81724E-19-3.33311E-18
 -1       209 1.05682E-04-3.22376E-05-3.14793E-05 4.87720E-06 1.48519E-19-2.03332E-18
 -1       210 1.07896E-04-3.29820E-05-3.21149E-05 2.84290E-06-9.27868E-19-2.40381E-18
 -1       211 1.08777E-04-3.31511E-05-3.24226E-05 8.28634E-07-6.44337E-19-2.33649E-18
 -1       212 1.08514E-04-3.29070E-05-3.24144E-05-7.32716E-07 1.24454E-19-4.21038E-18
 -1       213 1.07450E-04-3.24260E-05-3.21619E-05-1.71822E-06-6.10592E-19-4.08829E-18
 -1       214 1.05931E-04-3.18457E-05-3.17562E-05-2.19325E-06 5.75568E-19-3.63135E-18
 -1       215 1.04237E-04-3.12561E-05-3.12799E-05-2.29527E-06-1.42524E-19-3.47491E-18
 -1       216 1.02565E-04-3.07089E-05-3.07952E-05-2.16303E-06 1.04581E-19-3.68109E-18
 -1       217 1.01032E-04-3.02292E-05-3.03423E-05-1.90688E-06 6.94065E-19-3.73209E-18
 -1       218 9.96986E-05-2.98255E-05-2.99430E-05-1.60313E-06 2.11717E-19-1.22894E-18
 -1       219 9.85833E-05-2.94963E-05-2.96058E-05-1.29913E-06-1.00097E-20-1.87461E-18
 -1       220 9.76799E-05-2.92351E-05-2.93307E-05-1.02088E-06-1.67221E-18-2.22992E-18
 -1       221 9.69683E-05-2.90328E-05-2.91126E-05-7.80146E-07-8.22639E-19-1.96189E-18
 -1       222 9.64220E-05-2.88799E-05-2.89444E-05-5.79868E-07 1.29889E-18-2.29050E-18
 -1       223 9.60137E-05-2.87670E-05-2.88181E-05-4.17862E-07-2.33315E-19-1.45432E-18
 -1       224 9.57175E-05-2.86862E-05-2.87262E-05-2.89256E-07 6.23815E-19-2.52176E-18
 -1       225 9.55107E-05-2.86303E-05-2.86618E-05-1.88014E-07 1.00421E-18-2.69889E-18
 -1       226 9.53742E-05-2.85939E-05-2.86193E-05-1.07978E-07 1.08899E-18-3.25217E-18
 -1       227 9.52921E-05-2.85728E-05-2.85934E-05-4.44991E-08 8.39194E-19-1.42865E-18
 -1       228 9.52493E-05-2.85647E-05-2.85786E-05 2.81815E-09 1.22987E-18 1.16232E-18
 -1       229 9.93268E-05-2.85049E-05-3.05328E-05 7.12931E-06 2.74238E-18 9.77360E-18
 -1       230 9.43271E-05-2.77619E-05-2.84981E-05 2.65964E-06 2.12658E-18 7.88440E-18
 -1       231 9.21115E-05-2.73991E-05-2.76884E-05 8.22813E-07 1.57131E-18 5.99481E-18
 -1       232 9.13038E-05-2.72743E-05-2.74136E-05-8.19170E-08 1.23057E-18 4.59762E-18
 -1       233 9.12889E-05-2.73208E-05-2.74006E-05-5.75113E-07 8.34184E-19 3.66971E-18
 -1       234 9.17485E-05-2.74829E-05-2.75346E-05-8.68544E-07 3.45364E-19 3.06762E-18
 -1       235 9.25156E-05-2.77228E-05-2.77635E-05-1.06796E-06 8.71698E-19 2.49069E-18
 -1       236 9.35101E-05-2.80212E-05-2.80631E-05-1.23513E-06 4.61802E-19 2.04261E-18
 -1       237 9.47055E-05-2.83727E-05-2.84254E-05-1.41113E-06 4.72609E-19 1.40907E-18
 -1       238 9.61106E-05-2.87817E-05-2.88528E-05-1.62536E-06-1.07910E-20 1.63895E-18
 -1       239 9.77587E-05-2.92596E-05-2.93546E-05-1.89861E-06 1.96543E-19 1.66912E-18
 -1       240 9.96970E-05-2.98228E-05-2.99445E-05-2.24214E-06 5.03637E-19 1.62350E-18
 -1       241 1.01975E-04-3.04899E-05-3.06358E-05-2.65282E-06 6.11536E-19 1.28684E-18
 -1       242 1.04626E-04-3.12782E-05-3.14357E-05-3.10275E-06 3.75776E-19 8.44343E-19
 -1       243 1.07640E-04-3.21972E-05-3.23358E-05-3.52153E-06 3.34276E-20 1.12389E-18
 -1       244 1.10920E-04-3.32385E-05-3.32977E-05-3.77096E-06-5.93076E-20 1.30810E-19
 -1       245 1.14226E-04-3.43576E-05-3.42356E-05-3.61885E-06 7.26218E-19 7.22708E-19
 -1       246 1.17110E-04-3.54448E-05-3.50018E-05-2.73712E-06-3.74696E-20 1.48488E-18
 -1       247 1.18885E-04-3.62834E-05-3.53923E-05-7.82949E-07-1.20686E-18 2.44634E-18
 -1       248 1.18702E-04-3.65152E-05-3.51991E-05 2.35160E-06-7.99705E-19 2.78737E-18
 -1       249 1.15863E-04-3.56932E-05-3.43284E-05 6.10072E-06 7.94093E-23 3.40727E-18
 -1       250 1.10440E-04-3.35606E-05-3.29401E-05 8.87847E-06 1.46210E-18 2.74747E-18
 -1       251 1.03954E-04-3.05762E-05-3.14929E-05 8.52532E-06 4.17693E-20 1.82566E-18
 -1       252 9.93297E-05-2.82302E-05-3.05610E-05 4.03480E-06-4.64260E-19 1.51688E-18
 -1       253 9.91456E-05-2.80379E-05-3.05494E-05-2.64560E-06-3.19821E-20 1.76931E-18
 -1       254 1.03571E-04-3.01781E-05-3.14802E-05-7.86325E-06 4.79040E-19 1.01727E-18
 -1       255 1.10105E-04-3.32113E-05-3.29335E-05-9.15521E-06 5.18354E-19 1.11067E-18
 -1       256 1.15772E-04-3.55680E-05-3.43357E-05-6.92125E-06-4.07717E-19 8.14839E-19
 -1       257 1.18875E-04-3.65884E-05-3.52426E-05-3.23747E-06 8.76805E-19 7.31079E-20
 -1       258 1.19277E-04-3.64719E-05-3.54848E-05 9.48277E-08 6.65027E-19-6.59210E-19
 -1       259 1.17671E-04-3.56836E-05-3.51462E-05 2.29959E-06 1.48115E-19-7.41336E-19
 -1       260 1.14926E-04-3.46164E-05-3.44294E-05 3.37260E-06-2.54801E-19-8.85917E-19
 -1       261 1.11750E-04-3.35127E-05-3.35390E-05 3.62878E-06 1.12051E-19-9.14615E-19
 -1       262 1.08614E-04-3.24956E-05-3.26266E-05 3.40796E-06-3.66147E-19-5.85478E-19
 -1       263 1.05774E-04-3.16159E-05-3.17831E-05 2.96408E-06 2.16048E-18-1.58943E-18
 -1       264 1.03341E-04-3.08851E-05-3.10516E-05 2.45466E-06 9.34670E-19-2.24543E-18
 -1       265 1.01336E-04-3.02953E-05-3.04440E-05 1.96436E-06 8.25692E-20-3.47147E-18
 -1       266 9.97312E-05-2.98299E-05-2.99552E-05 1.53161E-06 6.80382E-19-3.22396E-18
 -1       267 9.84756E-05-2.94697E-05-2.95714E-05 1.16861E-06-5.25611E-20-3.07265E-18
 -1       268 9.75132E-05-2.91960E-05-2.92765E-05 8.74099E-07-6.34153E-19-2.17008E-18
 -1       269 9.67898E-05-2.89918E-05-2.90542E-05 6.40741E-07-1.77176E-18-2.06627E-18
 -1       270 9.62568E-05-2.88424E-05-2.88902E-05 4.59039E-07-9.64508E-19-1.47481E-18
 -1       271 9.58733E-05-2.87356E-05-2.87719E-05 3.19272E-07 1.22858E-18-1.75129E-18
 -1       272 9.56058E-05-2.86615E-05-2.86893E-05 2.12329E-07-8.54333E-19-1.89647E-18
 -1       273 9.54276E-05-2.86126E-05-2.86342E-05 1.30105E-07 2.16641E-18-1.12422E-18
 -1       274 9.53180E-05-2.85827E-05-2.86004E-05 6.60811E-08 1.35097E-18-2.61612E-18
 -1       275 9.52601E-05-2.85677E-05-2.85820E-05 1.60496E-08 1.33665E-18-3.79205E-18
 -1       276 9.52394E-05-2.85689E-05-2.85720E-05-1.60901E-08-4.38386E-19-3.46113E-18
 -1       277 9.52453E-05-2.85616E-05-2.85783E-05-7.68268E-10-7.05971E-19 2.39397E-18
 -1       278 9.52377E-05-2.85255E-05-2.85908E-05 4.28143E-08 1.36867E-18 4.15969E-18
 -1       279 9.52149E-05-2.84623E-05-2.86082E-05 8.48154E-08 2.17670E-18 1.69139E-18
 -1       280 9.51840E-05-2.83808E-05-2.86300E-05 1.08637E-07 5.27571E-19-1.97344E-19
 -1       281 9.51519E-05-2.82960E-05-2.86527E-05 1.09364E-07-9.24591E-20-8.51535E-18
 -1       282 9.51234E-05-2.82202E-05-2.86730E-05 8.77468E-08-8.34555E-19-1.16228E-18
 -1       283 9.51040E-05-2.81686E-05-2.86870E-05 4.87603E-08-2.36943E-18 1.01404E-18
 -1       284 9.50972E-05-2.81503E-05-2.86919E-05 4.65239E-10-2.56901E-18 1.80955E-19
 -1       285 9.51041E-05-2.81685E-05-2.86870E-05-4.77390E-08-1.77600E-18 3.31470E-19
 -1       286 9.51233E-05-2.82199E-05-2.86731E-05-8.65663E-08-1.40391E-18 4.30514E-19
 -1       287 9.51511E-05-2.82938E-05-2.86532E-05-1.08022E-07-1.57375E-19 2.05585E-19
 -1       288 9.51834E-05-2.83794E-05-2.86303E-05-1.07917E-07 1.44794E-19 8.06753E-20
 -1       289 9.52140E-05-2.84606E-05-2.86086E-05-8.47566E-08-7.95485E-19 1.73564E-19
 -1       290 9.52360E-05-2.85221E-05-2.85913E-05-4.51915E-08 3.75078E-19-1.38139E-18
 -1       291 9.52507E-05-2.85465E-05-2.85873E-05-2.02531E-08 1.03979E-18-1.03764E-18
 -1       292 1.24634E-05-4.88387E-05 1.21352E-05 4.98390E-06 3.33667E-18 6.36429E-18
 -1       293 2.35831E-05-4.41993E-05 5.76094E-06 1.81595E-05 6.66446E-18 5.98042E-18
 -1       294 5.27370E-05-3.91089E-05-7.53648E-06 3.43381E-05 7.08247E-18 3.68168E-18
 -1       295 8.53627E-05-3.22424E-05-2.34356E-05 4.24583E-05 6.47726E-18 5.56458E-18
 -1       296 1.27106E-04-3.11681E-05-4.02948E-05 4.63823E-05 6.43862E-18 4.53544E-18
 -1       297 1.67476E-04-3.43935E-05-5.51777E-05 3.46623E-05 5.23436E-18 2.44623E-18
 -1       298 1.97762E-04-3.49145E-05-6.67615E-05 2.24792E-05 5.22291E-18 1.06514E-19
 -1       299 2.06710E-04-3.29681E-05-7.11734E-05 1.97282E-06 5.90880E-18-3.47172E-18
 -1       300 2.05998E-04-3.67953E-05-6.89847E-05-2.06318E-05 8.24809E-18-6.14491E-18
 -1       301 1.75588E-04-3.40126E-05-5.83147E-05-3.50525E-05 8.98909E-18-8.97749E-18
 -1       302 1.34819E-04-3.17608E-05-4.31181E-05-4.58051E-05 9.81838E-18-1.04994E-17
 -1       303 9.47039E-05-3.65514E-05-2.53602E-05-4.25014E-05 8.39960E-18-9.47915E-18
 -1       304 5.41907E-05-3.78533E-05-8.71306E-06-3.45142E-05 8.00086E-18-1.00098E-17
 -1       305 2.66206E-05-4.34252E-05 4.29526E-06-2.02789E-05 5.59719E-18-8.75991E-18
 -1       306 1.33587E-05-4.83912E-05 1.15560E-05-7.23468E-06 2.36957E-18-7.79980E-18
 -1       307 1.18117E-05-4.90484E-05 1.24559E-05 5.23894E-06-2.36031E-18-5.81403E-18
 -1       308 2.19862E-05-4.33524E-05 6.35606E-06 1.94396E-05-5.86168E-18-7.36072E-18
 -1       309 4.30876E-05-3.71338E-05-4.66297E-06 3.07448E-05-9.13716E-18-9.54924E-18
 -1       310 7.57403E-05-3.04213E-05-2.02506E-05 4.21929E-05-1.07033E-17-1.04299E-17
 -1       311 1.18498E-04-2.84490E-05-3.78754E-05 4.81197E-05-1.02728E-17-1.13678E-17
 -1       312 1.61438E-04-3.13409E-05-5.37983E-05 4.05685E-05-9.19608E-18-1.02015E-17
 -1       313 1.92848E-04-3.31249E-05-6.55609E-05 2.51282E-05-8.88633E-18-7.36643E-18
 -1       314 2.02822E-04-3.19532E-05-7.01625E-05 3.11036E-06-8.30389E-18-1.98775E-18
 -1       315 2.03054E-04-3.55297E-05-6.84315E-05-2.05508E-05-8.01590E-18 2.39255E-18
 -1       316 1.73747E-04-3.18800E-05-5.84463E-05-3.62666E-05-9.01283E-18 5.69439E-18
 -1       317 1.34468E-04-3.04847E-05-4.34573E-05-4.55706E-05-6.72576E-18 1.02798E-17
 -1       318 8.92837E-05-2.90914E-05-2.61217E-05-4.50161E-05-6.45799E-18 1.08846E-17
 -1       319 5.63373E-05-3.71457E-05-9.67012E-06-3.70800E-05-4.93736E-18 8.12410E-18
 -1       320 2.63438E-05-4.22485E-05 4.05307E-06-2.17232E-05-2.48647E-18 6.22143E-18
 -1       321 1.19813E-05-4.39503E-05 1.08129E-05-9.61729E-06 1.06281E-18 4.74751E-18
 -1       322 9.16857E-05-1.43828E-05-3.31930E-05-1.28535E-05-3.51241E-18-2.17740E-18
 -1       323 9.56839E-05-1.91081E-05-3.28808E-05-1.44531E-05-3.84612E-18 1.60427E-19
 -1       324 8.80458E-05-1.02817E-05-3.33804E-05-7.95049E-06-2.11242E-18-4.37030E-18
 -1       325 8.72001E-05-9.31045E-06-3.34287E-05-5.55393E-06-1.39041E-18-4.65888E-18
 -1       326 8.67134E-05-8.74349E-06-3.34598E-05-3.26124E-06-6.00117E-19-4.65087E-18
 -1       327 8.64926E-05-8.48327E-06-3.34752E-05-1.03707E-06 1.55613E-19-4.51808E-18
 -1       328 8.65023E-05-8.49318E-06-3.34752E-05 1.16435E-06 8.52755E-19-4.49737E-18
 -1       329 8.67438E-05-8.77527E-06-3.34595E-05 3.39096E-06 1.52668E-18-4.36698E-18
 -1       330 8.72439E-05-9.35690E-06-3.34283E-05 5.64970E-06 2.23128E-18-3.92036E-18
 -1       331 8.81118E-05-1.03566E-05-3.33786E-05 8.05149E-06 3.01892E-18-3.25751E-18
 -1       332 8.95406E-05-1.19875E-05-3.33033E-05 1.05465E-05 3.65565E-18-2.28818E-18
 -1       333 9.19432E-05-1.47118E-05-3.31798E-05 1.29610E-05 4.10757E-18-5.81521E-19
 -1       334 9.57764E-05-1.94524E-05-3.28174E-05 1.42021E-05 4.05274E-18 2.50325E-18
 -1       335 9.86971E-05-2.44227E-05-3.19192E-05 1.17625E-05 3.62166E-18 5.46410E-18
 -1       336 9.63608E-05-2.67935E-05-2.97846E-05 5.58953E-06 2.96218E-18 4.30983E-18
 -1       337 9.64554E-05-2.60091E-05-3.01472E-05-6.14384E-06-2.93522E-18 6.73107E-19
 -1       338 9.50229E-05-2.70129E-05-2.91212E-05-2.56506E-06-2.31007E-18 5.43138E-19
 -1       339 9.41622E-05-2.74197E-05-2.85886E-05-5.54213E-07-1.87389E-18 2.22061E-19
 -1       340 9.38003E-05-2.76499E-05-2.83425E-05 6.47653E-07-1.44151E-18-4.37262E-19
 -1       341 9.38210E-05-2.78326E-05-2.82767E-05 1.40437E-06-1.10338E-18-7.45658E-19
 -1       342 9.41211E-05-2.80080E-05-2.83316E-05 1.92114E-06-9.70510E-19-1.07672E-18
 -1       343 9.46313E-05-2.81911E-05-2.84723E-05 2.32140E-06-6.84701E-19-8.52239E-19
 -1       344 9.53111E-05-2.83914E-05-2.86779E-05 2.68140E-06-7.32462E-19-9.74495E-19
 -1       345 9.61417E-05-2.86200E-05-2.89359E-05 3.04533E-06-1.14257E-18-1.36826E-18
 -1       346 9.71181E-05-2.88923E-05-2.92377E-05 3.43014E-06-7.16212E-19-1.46683E-18
 -1       347 9.82430E-05-2.92290E-05-2.95758E-05 3.82426E-06-4.82762E-19-1.81413E-18
 -1       348 9.95202E-05-2.96569E-05-2.99405E-05 4.18200E-06-1.98379E-21-1.45003E-18
 -1       349 1.00947E-04-3.02081E-05-3.03174E-05 4.41538E-06-3.86680E-19-8.74186E-19
 -1       350 1.02506E-04-3.09144E-05-3.06855E-05 4.38651E-06-2.64067E-19-1.18082E-18
 -1       351 1.04151E-04-3.17936E-05-3.10171E-05 3.90768E-06 7.19399E-20-1.84219E-18
 -1       352 1.05784E-04-3.28179E-05-3.12821E-05 2.76314E-06-3.51414E-19-1.58988E-18
 -1       353 1.07225E-04-3.38624E-05-3.14555E-05 7.74610E-07 3.43280E-21-9.70387E-19
 -1       354 1.08179E-04-3.46437E-05-3.15305E-05-2.06567E-06 6.59079E-19-5.22960E-19
 -1       355 1.08248E-04-3.47062E-05-3.15299E-05-5.39616E-06 8.03280E-19 6.80011E-20
 -1       356 1.07070E-04-3.35699E-05-3.15047E-05-8.31196E-06 1.13251E-18-3.66491E-19
 -1       357 1.04650E-04-3.11227E-05-3.15053E-05-9.45063E-06 2.20874E-19-2.63637E-19
 -1       358 1.01744E-04-2.80991E-05-3.15489E-05-7.62866E-06-1.04218E-18 5.61127E-19
 -1       359 9.97287E-05-2.59642E-05-3.15991E-05-2.86615E-06-1.31743E-18 5.48061E-20
 -1       360 9.97768E-05-2.60049E-05-3.16024E-05 3.13488E-06-1.30712E-18-1.18966E-18
 -1       361 1.01881E-04-2.82171E-05-3.15571E-05 7.81566E-06-7.00609E-19-1.89215E-18
 -1       362 1.04817E-04-3.12552E-05-3.15218E-05 9.50951E-06-1.61233E-19-1.97068E-18
 -1       363 1.07211E-04-3.36501E-05-3.15308E-05 8.28381E-06 7.79279E-19-3.07000E-18
 -1       364 1.08361E-04-3.47304E-05-3.15686E-05 5.35622E-06-5.42548E-19-3.84437E-18
 -1       365 1.08289E-04-3.46346E-05-3.15814E-05 2.07246E-06-1.60170E-18-3.81577E-18
 -1       366 1.07362E-04-3.38445E-05-3.15217E-05-6.87581E-07-1.13211E-18-3.92195E-18
 -1       367 1.05979E-04-3.28092E-05-3.13687E-05-2.57888E-06 2.74406E-19-3.36419E-18
 -1       368 1.04431E-04-3.18066E-05-3.11311E-05-3.61785E-06 5.61217E-20-2.43071E-18
 -1       369 1.02900E-04-3.09582E-05-3.08349E-05-3.98596E-06 6.94821E-20-1.32433E-18
 -1       370 1.01482E-04-3.02900E-05-3.05110E-05-3.89909E-06 6.80642E-19-1.71186E-19
 -1       371 1.00224E-04-2.97848E-05-3.01867E-05-3.54472E-06-4.76502E-19 3.79410E-19
 -1       372 9.91424E-05-2.94119E-05-2.98821E-05-3.06242E-06 1.80806E-18-1.48645E-19
 -1       373 9.82360E-05-2.91408E-05-2.96095E-05-2.54547E-06 5.19574E-19-1.53802E-19
 -1       374 9.74936E-05-2.89461E-05-2.93749E-05-2.05022E-06-6.23359E-19-1.84220E-20
 -1       375 9.68982E-05-2.88079E-05-2.91792E-05-1.60653E-06-1.25444E-18-4.63755E-19
 -1       376 9.64303E-05-2.87110E-05-2.90205E-05-1.22671E-06-2.23456E-19 2.97247E-19
 -1       377 9.60700E-05-2.86442E-05-2.88951E-05-9.12104E-07 9.73053E-19-6.13605E-21
 -1       378 9.57983E-05-2.85989E-05-2.87984E-05-6.57805E-07-5.85952E-19 5.45483E-19
 -1       379 9.55980E-05-2.85687E-05-2.87258E-05-4.55739E-07 3.49132E-21-6.03422E-20
 -1       380 9.54539E-05-2.85490E-05-2.86727E-05-2.96989E-07 2.50411E-19 9.20492E-19
 -1       381 9.53532E-05-2.85372E-05-2.86347E-05-1.72978E-07 1.20786E-18 5.69531E-19
 -1       382 9.52912E-05-2.85373E-05-2.86085E-05-8.40455E-08 2.21321E-18 4.71845E-19
 -1       383 9.44314E-05-2.73349E-05-2.87169E-05 2.27368E-06 2.44489E-18 3.41866E-18
 -1       384 9.33492E-05-2.74760E-05-2.82088E-05 4.74293E-07 1.91385E-18 2.42873E-18
 -1       385 9.29668E-05-2.75861E-05-2.80093E-05-5.58176E-07 1.24633E-18 1.69701E-18
 -1       386 9.30608E-05-2.77263E-05-2.79949E-05-1.18999E-06 7.23299E-19 1.22421E-18
 -1       387 9.34848E-05-2.79035E-05-2.81027E-05-1.61894E-06 8.79022E-19 8.93736E-19
 -1       388 9.41529E-05-2.81147E-05-2.82992E-05-1.96188E-06 1.02641E-18 7.96412E-19
 -1       389 9.50236E-05-2.83591E-05-2.85675E-05-2.29530E-06 6.81331E-19 4.04750E-19
 -1       390 9.60863E-05-2.86414E-05-2.89017E-05-2.67238E-06-6.41888E-20 6.62996E-19
 -1       391 9.73524E-05-2.89712E-05-2.93024E-05-3.12951E-06 3.69970E-19 5.83645E-19
 -1       392 9.88470E-05-2.93647E-05-2.97739E-05-3.68605E-06 5.75461E-19 4.51153E-19
 -1       393 1.00601E-04-2.98446E-05-3.03200E-05-4.33802E-06 9.66087E-19 5.89860E-19
 -1       394 1.02644E-04-3.04429E-05-3.09398E-05-5.04422E-06 5.70574E-19 4.43634E-19
 -1       395 1.04988E-04-3.12027E-05-3.16211E-05-5.70287E-06 2.67518E-19 2.30850E-19
 -1       396 1.07615E-04-3.21788E-05-3.23334E-05-6.11900E-06 5.50958E-21-1.41349E-20
 -1       397 1.10453E-04-3.34262E-05-3.30212E-05-5.97109E-06 1.01306E-19 1.76162E-19
 -1       398 1.13328E-04-3.49579E-05-3.36044E-05-4.80648E-06-2.24293E-19 1.16740E-18
 -1       399 1.15902E-04-3.66377E-05-3.39934E-05-2.13565E-06-1.24615E-18 1.66527E-18
 -1       400 1.17585E-04-3.80014E-05-3.41299E-05 2.26215E-06-1.42249E-18 1.68554E-18
 -1       401 1.17530E-04-3.81302E-05-3.40447E-05 7.75314E-06-2.88981E-19 2.45430E-18
 -1       402 1.15011E-04-3.59892E-05-3.38838E-05 1.22527E-05 1.76416E-18 2.39483E-18
 -1       403 1.10383E-04-3.15661E-05-3.38092E-05 1.25669E-05 6.20106E-19 3.01605E-18
 -1       404 1.06044E-04-2.71671E-05-3.38557E-05 6.61800E-06 3.18908E-19 1.95699E-18
 -1       405 1.05256E-04-2.62684E-05-3.38653E-05-3.05198E-06 1.09631E-19 3.77711E-19
 -1       406 1.08710E-04-2.96839E-05-3.38815E-05-1.09843E-05 9.70726E-19-1.69446E-19
 -1       407 1.13664E-04-3.44877E-05-3.39433E-05-1.31373E-05 8.93141E-19 4.37400E-19
 -1       408 1.17162E-04-3.76755E-05-3.40766E-05-9.88451E-06 5.95272E-20 2.33025E-19
 -1       409 1.18068E-04-3.83343E-05-3.41962E-05-4.43092E-06 8.38427E-19 1.09004E-18
 -1       410 1.16896E-04-3.73047E-05-3.41403E-05 5.27854E-07 1.63680E-18 1.53969E-18
 -1       411 1.14562E-04-3.56547E-05-3.38421E-05 3.84271E-06 7.62899E-19-4.31780E-19
 -1       412 1.11784E-04-3.40352E-05-3.33360E-05 5.48976E-06 1.52300E-19-2.21756E-18
 -1       413 1.08988E-04-3.26892E-05-3.27055E-05 5.91116E-06-9.71956E-19-2.20521E-18
 -1       414 1.06393E-04-3.16431E-05-3.20358E-05 5.59525E-06-1.47656E-19-4.19319E-19
 -1       415 1.04103E-04-3.08489E-05-3.13909E-05 4.91706E-06 2.36807E-18-6.52490E-19
 -1       416 1.02150E-04-3.02488E-05-3.08095E-05 4.11766E-06 2.03862E-18 8.20834E-19
 -1       417 1.00529E-04-2.97948E-05-3.03091E-05 3.33266E-06 5.36009E-19-5.05220E-19
 -1       418 9.92142E-05-2.94514E-05-2.98933E-05 2.62788E-06 9.84520E-19-2.20990E-18
 -1       419 9.81689E-05-2.91924E-05-2.95569E-05 2.02777E-06-8.06535E-19-2.03070E-18
 -1       420 9.73529E-05-2.89986E-05-2.92911E-05 1.53430E-06-1.32588E-18 2.29494E-19
 -1       421 9.67273E-05-2.88552E-05-2.90851E-05 1.13848E-06-1.40139E-18 3.64851E-19
 -1       422 9.62564E-05-2.87507E-05-2.89287E-05 8.26823E-07-1.41375E-18-4.96614E-19
 -1       423 9.59090E-05-2.86759E-05-2.88124E-05 5.84789E-07 5.73817E-19 1.82999E-19
 -1       424 9.56587E-05-2.86235E-05-2.87280E-05 3.98388E-07-4.55274E-19-1.41286E-19
 -1       425 9.54838E-05-2.85880E-05-2.86686E-05 2.55045E-07 2.48024E-18-7.04791E-19
 -1       426 9.53663E-05-2.85653E-05-2.86283E-05 1.44789E-07 1.77343E-18-3.31850E-19
 -1       427 9.52925E-05-2.85541E-05-2.86017E-05 6.15321E-08 8.14303E-19 4.76326E-19
 -1       428 9.52635E-05-2.85528E-05-2.85901E-05 2.55625E-08 4.22618E-20 2.14993E-18
 -1       429 9.51987E-05-2.83595E-05-2.86452E-05 1.94250E-07-9.95064E-19-5.98255E-19
 -1       430 9.52465E-05-2.84509E-05-2.86264E-05 1.45788E-07-2.35016E-19 4.27389E-18
 -1       431 9.52648E-05-2.85124E-05-2.86078E-05 8.29795E-08 1.38232E-20 4.21121E-18
 -1       432 9.51447E-05-2.82645E-05-2.86629E-05 2.07971E-07-2.49268E-18-5.14669E-18
 -1       433 9.50933E-05-2.81765E-05-2.86788E-05 1.83386E-07-5.69915E-19-2.54153E-18
 -1       434 9.50542E-05-2.81101E-05-2.86907E-05 1.25089E-07 9.13072E-19-1.43130E-18
 -1       435 9.50334E-05-2.80747E-05-2.86970E-05 4.43149E-08-2.00345E-18 1.99076E-19
 -1       436 9.50338E-05-2.80755E-05-2.86968E-05-4.41376E-08-2.29859E-18 2.66474E-19
 -1       437 9.50552E-05-2.81123E-05-2.86901E-05-1.24409E-07-1.45630E-18-4.90481E-19
 -1       438 9.50935E-05-2.81780E-05-2.86783E-05-1.81339E-07-3.44537E-19 1.39471E-18
 -1       439 9.51442E-05-2.82654E-05-2.86623E-05-2.06367E-07 5.83722E-20 2.56253E-18
 -1       440 9.51981E-05-2.83610E-05-2.86443E-05-1.93377E-07 5.13673E-19 1.03958E-19
 -1       441 9.52464E-05-2.84529E-05-2.86255E-05-1.45566E-07-3.80946E-19-5.46353E-19
 -1       442 5.20711E-05-3.91612E-05-5.69589E-06 4.02740E-05-1.08346E-18 1.29591E-18
 -1       443 1.23833E-05-2.03470E-05 3.36934E-06-5.68841E-07 2.10270E-19 5.44070E-18
 -1       444 2.05330E-05-2.64687E-05 2.31845E-06 2.18558E-05-1.06509E-18 5.72075E-18
 -1       445 9.50373E-05-5.20650E-05-1.85386E-05 4.08134E-05 7.93035E-19-8.36657E-19
 -1       446 1.28912E-04-5.55314E-05-3.14722E-05 2.84972E-05 7.70482E-19-8.75620E-20
 -1       447 8.93919E-05-1.18088E-05-3.33232E-05-1.04708E-05-2.81367E-18-3.77562E-18
 -1       448 1.61433E-04-3.07559E-05-5.57316E-05 1.11908E-06 4.55725E-18-3.24710E-18
 -1       449 1.56019E-04-1.58163E-05-6.01196E-05-4.00144E-06 5.60471E-18-4.18164E-18
 -1       450 1.56471E-04-1.39479E-05-6.10575E-05 2.48513E-06 6.08117E-18-2.17852E-18
 -1       451 1.59720E-04-2.56838E-05-5.73365E-05 3.23460E-06 6.95880E-18-1.00617E-18
 -1       452 1.52126E-04-4.61042E-05-4.56075E-05-5.74312E-06 3.75378E-18-1.29173E-20
 -1       453 1.37802E-04-5.63176E-05-3.48582E-05-2.21473E-05 1.83070E-18-1.53631E-18
 -1       454 9.73426E-05-5.32506E-05-1.90405E-05-4.06445E-05-5.15420E-19-3.40772E-18
 -1       455 5.69561E-05-4.14611E-05-6.85631E-06-4.10634E-05-1.09172E-18-6.27694E-18
 -1       456 2.81438E-05-2.77201E-05-1.37369E-07-2.85760E-05-1.02761E-18-7.53986E-18
 -1       457 1.25596E-05-2.13484E-05 3.68772E-06-3.38008E-06 4.88023E-19-8.22088E-18
 -1       458 1.91847E-05-2.60180E-05 2.65818E-06 2.20173E-05-2.99109E-20-7.30407E-18
 -1       459 4.73808E-05-3.77627E-05-4.39627E-06 4.02688E-05-7.44754E-19-6.64296E-18
 -1       460 8.42452E-05-4.85686E-05-1.54455E-05 4.36817E-05-1.38998E-18-5.08191E-18
 -1       461 1.20378E-04-5.26181E-05-2.90603E-05 3.38824E-05-3.60169E-18-4.30197E-18
 -1       462 1.45142E-04-4.68210E-05-4.21317E-05 1.53622E-05-4.57313E-18-2.62771E-18
 -1       463 1.54670E-04-2.97777E-05-5.35308E-05 1.25974E-06-6.85033E-18-1.58480E-18
 -1       464 1.53004E-04-1.42798E-05-5.95555E-05-2.57426E-06-9.79985E-18-8.55344E-19
 -1       465 1.55217E-04-1.26526E-05-6.10663E-05 1.27656E-06-9.04811E-18-8.22337E-19
 -1       466 1.57773E-04-2.30540E-05-5.75599E-05 1.42689E-07-8.30452E-18-4.92338E-20
 -1       467 1.50493E-04-4.09454E-05-4.68746E-05-1.02590E-05-4.70552E-18 5.21561E-19
 -1       468 1.29257E-04-5.10324E-05-3.35212E-05-2.94138E-05-9.82241E-19 4.66535E-18
 -1       469 9.84367E-05-5.10834E-05-2.03745E-05-4.12040E-05 2.94873E-19 4.47233E-18
 -1       470 5.72230E-05-4.01585E-05-7.40886E-06-4.31350E-05 1.38755E-18 5.93325E-18
 -1       471 2.79635E-05-2.78046E-05-7.37503E-08-3.06292E-05 5.69312E-19 6.82634E-18
 -1       472 1.50155E-04-4.73655E-05-4.39650E-05 1.43325E-05 3.49372E-18-1.18574E-18
 -1       473 9.58821E-05-2.51146E-05-3.03146E-05 5.74993E-06 3.10959E-18 9.87176E-19
 -1       474 8.94611E-05-1.31264E-05-3.27335E-05-3.74364E-06-9.98742E-19-4.09417E-18
 -1       475 9.02136E-05-1.41497E-05-3.26192E-05-5.64096E-06-1.70508E-18-4.00813E-18
 -1       476 8.89153E-05-1.23875E-05-3.28151E-05 5.28049E-08 4.79969E-19-3.94885E-18
 -1       477 8.90655E-05-1.25869E-05-3.27943E-05 1.94643E-06 1.17448E-18-4.00724E-18
 -1       478 8.94965E-05-1.31667E-05-3.27317E-05 3.81467E-06 1.81572E-18-3.58461E-18
 -1       479 9.02721E-05-1.42186E-05-3.26153E-05 5.70534E-06 2.60703E-18-3.04473E-18
 -1       480 9.14686E-05-1.58710E-05-3.24220E-05 7.50177E-06 3.17795E-18-2.41010E-18
 -1       481 9.32828E-05-1.84087E-05-3.21090E-05 9.01891E-06 3.58264E-18-1.40526E-18
 -1       482 9.52476E-05-2.65282E-05-2.94329E-05 2.51334E-06 2.69375E-18 8.01663E-19
 -1       483 9.55481E-05-2.43582E-05-3.04993E-05-5.52219E-06-2.60680E-18-1.26914E-18
 -1       484 1.46360E-04-4.22998E-05-4.49683E-05-8.49344E-06 1.79772E-18-4.18694E-18
 -1       485 9.54042E-05-2.61375E-05-2.96786E-05-2.46554E-06-2.22523E-18-1.12405E-18
 -1       486 9.51298E-05-2.70376E-05-2.91782E-05-4.38645E-07-1.96414E-18-9.96149E-19
 -1       487 9.49639E-05-2.75355E-05-2.88958E-05 9.04049E-07-1.48261E-18-1.19769E-18
 -1       488 9.49555E-05-2.78302E-05-2.87668E-05 1.82529E-06-1.16150E-18-1.15633E-18
 -1       489 9.50949E-05-2.80151E-05-2.87477E-05 2.50481E-06-8.29993E-19-1.28435E-18
 -1       490 9.53637E-05-2.81413E-05-2.88088E-05 3.06450E-06-5.79127E-19-1.15609E-18
 -1       491 9.57493E-05-2.82453E-05-2.89295E-05 3.58379E-06-9.63925E-19-7.81365E-19
 -1       492 9.62498E-05-2.83611E-05-2.90943E-05 4.10785E-06-8.10761E-19-4.95952E-19
 -1       493 9.68750E-05-2.85285E-05-2.92905E-05 4.64966E-06-6.12745E-19 1.71986E-20
 -1       494 9.76479E-05-2.87993E-05-2.95059E-05 5.18721E-06-4.84694E-19 3.36603E-20
 -1       495 9.86063E-05-2.92413E-05-2.97277E-05 5.65682E-06-1.31063E-19-6.93347E-19
 -1       496 9.98037E-05-2.99387E-05-2.99429E-05 5.94390E-06-6.32313E-19-6.72436E-19
 -1       497 1.01305E-04-3.09818E-05-3.01407E-05 5.87412E-06-6.59705E-19-5.33205E-19
 -1       498 1.03167E-04-3.24339E-05-3.03184E-05 5.21184E-06-7.52360E-20-7.00342E-19
 -1       499 1.05390E-04-3.42578E-05-3.04917E-05 3.68207E-06 2.82196E-19-2.71283E-19
 -1       500 1.07819E-04-3.61923E-05-3.07055E-05 1.04776E-06 3.73771E-19 1.74262E-19
 -1       501 1.10018E-04-3.76105E-05-3.10392E-05-2.70720E-06 9.12987E-19 1.63511E-19
 -1       502 1.11212E-04-3.75102E-05-3.15919E-05-7.05628E-06 9.80548E-19-8.72813E-20
 -1       503 1.10544E-04-3.49207E-05-3.24193E-05-1.06029E-05 2.96790E-19-2.37640E-19
 -1       504 1.07904E-04-2.99634E-05-3.34099E-05-1.11622E-05-1.63586E-19-1.37883E-19
 -1       505 1.04615E-04-2.46746E-05-3.42776E-05-7.26809E-06-1.44386E-18-7.31350E-19
 -1       506 1.03157E-04-2.24119E-05-3.46312E-05 1.77152E-07-2.69086E-18-1.10442E-18
 -1       507 1.04768E-04-2.48683E-05-3.42547E-05 7.58474E-06-2.00873E-18-2.48556E-18
 -1       508 1.08059E-04-3.01836E-05-3.33859E-05 1.13082E-05-3.99692E-19-2.54898E-18
 -1       509 1.10657E-04-3.50749E-05-3.23987E-05 1.05666E-05-7.08594E-19-3.34427E-18
 -1       510 1.11238E-04-3.75292E-05-3.15973E-05 6.98921E-06-1.05754E-19-3.15826E-18
 -1       511 1.10009E-04-3.75414E-05-3.10650E-05 2.69337E-06-1.38241E-18-3.63667E-18
 -1       512 1.07816E-04-3.60816E-05-3.07512E-05-9.66040E-07-5.88868E-19-2.65373E-18
 -1       513 1.05424E-04-3.41372E-05-3.05575E-05-3.48456E-06 6.51055E-20-1.03162E-18
 -1       514 1.03258E-04-3.23201E-05-3.04055E-05-4.88945E-06 2.64725E-19-1.50441E-18
 -1       515 1.01464E-04-3.08825E-05-3.02512E-05-5.42226E-06 1.16347E-18-1.03374E-18
 -1       516 1.00041E-04-2.98561E-05-3.00797E-05-5.35855E-06 1.24194E-18-1.15035E-18
 -1       517 9.89295E-05-2.91771E-05-2.98934E-05-4.93359E-06 8.22332E-20-4.21473E-19
 -1       518 9.80637E-05-2.87573E-05-2.97017E-05-4.32378E-06 3.75964E-19-5.24206E-19
 -1       519 9.73881E-05-2.85168E-05-2.95151E-05-3.65013E-06 3.86740E-19-2.10858E-18
 -1       520 9.68599E-05-2.83931E-05-2.93417E-05-2.98908E-06 4.07904E-19-2.01314E-18
 -1       521 9.64473E-05-2.83419E-05-2.91870E-05-2.38415E-06-1.99590E-19 7.01279E-20
 -1       522 9.61263E-05-2.83329E-05-2.90534E-05-1.85616E-06-3.90532E-19 1.62250E-18
 -1       523 9.58783E-05-2.83466E-05-2.89414E-05-1.41111E-06-1.93553E-19 1.62303E-18
 -1       524 9.56884E-05-2.83705E-05-2.88499E-05-1.04596E-06 2.00755E-19 6.55299E-19
 -1       525 9.55441E-05-2.83968E-05-2.87769E-05-7.52659E-07-2.60226E-19 1.83915E-18
 -1       526 9.54353E-05-2.84214E-05-2.87198E-05-5.21050E-07 1.09721E-18 2.28984E-18
 -1       527 9.53536E-05-2.84426E-05-2.86758E-05-3.40787E-07 1.24512E-19 2.47672E-18
 -1       528 9.45220E-05-2.76119E-05-2.86715E-05-8.18690E-07 1.32252E-18 2.92460E-19
 -1       529 9.45348E-05-2.78494E-05-2.85771E-05-1.69469E-06 1.12342E-18-6.55660E-21
 -1       530 9.47546E-05-2.80153E-05-2.86009E-05-2.34309E-06 1.01665E-18-2.95898E-19
 -1       531 9.51438E-05-2.81428E-05-2.87131E-05-2.89710E-06 7.93029E-19 2.25887E-20
 -1       532 9.56785E-05-2.82508E-05-2.88958E-05-3.44971E-06 2.28082E-19 1.46455E-19
 -1       533 9.63495E-05-2.83560E-05-2.91380E-05-4.06616E-06 5.02292E-19-2.77575E-19
 -1       534 9.71603E-05-2.84791E-05-2.94323E-05-4.78821E-06 7.55064E-19-4.16275E-19
 -1       535 9.81263E-05-2.86514E-05-2.97722E-05-5.63182E-06 5.89377E-19-6.39304E-19
 -1       536 9.92772E-05-2.89244E-05-3.01485E-05-6.57783E-06 7.22917E-19-6.61742E-19
 -1       537 1.00663E-04-2.93826E-05-3.05468E-05-7.55429E-06 4.24385E-19-3.24091E-19
 -1       538 1.02366E-04-3.01593E-05-3.09456E-05-8.40864E-06 1.89465E-19 9.08040E-20
 -1       539 1.04513E-04-3.14446E-05-3.13187E-05-8.87070E-06-4.12675E-19-2.21995E-19
 -1       540 1.07278E-04-3.34585E-05-3.16462E-05-8.51503E-06-5.69420E-19 8.92036E-19
 -1       541 1.10816E-04-3.63270E-05-3.19395E-05-6.75093E-06-1.65548E-18 1.58870E-18
 -1       542 1.15047E-04-3.97643E-05-3.22846E-05-2.93192E-06-1.72859E-18 1.88771E-18
 -1       543 1.19253E-04-4.25780E-05-3.28806E-05 3.22429E-06-8.87576E-19 1.65326E-18
 -1       544 1.21715E-04-4.23915E-05-3.40221E-05 1.06544E-05-8.51533E-20 2.91560E-18
 -1       545 1.20394E-04-3.68825E-05-3.58750E-05 1.58621E-05 1.14048E-19 4.01998E-18
 -1       546 1.15637E-04-2.75831E-05-3.78149E-05 1.38081E-05 1.46130E-18 3.64674E-18
 -1       547 1.10712E-04-2.04552E-05-3.90667E-05 2.94076E-06 2.41852E-18 3.01676E-18
 -1       548 1.14243E-04-2.48941E-05-3.83906E-05-1.05581E-05 1.35620E-18 1.58925E-19
 -1       549 1.18532E-04-3.33837E-05-3.65728E-05-1.60836E-05 1.62258E-18-1.70472E-18
 -1       550 1.21823E-04-4.10771E-05-3.46437E-05-1.31803E-05 3.16430E-20-2.01209E-18
 -1       551 1.20545E-04-4.30150E-05-3.32503E-05-6.02672E-06-2.27427E-19-1.33799E-18
 -1       552 1.16766E-04-4.09833E-05-3.25014E-05 7.96893E-07 8.74954E-19-1.17166E-18
 -1       553 1.12440E-04-3.75638E-05-3.21093E-05 5.44182E-06 1.64531E-18-9.55955E-19
 -1       554 1.08655E-04-3.44109E-05-3.18311E-05 7.83001E-06 9.65750E-19-9.33069E-19
 -1       555 1.05673E-04-3.20855E-05-3.15430E-05 8.55151E-06-8.50042E-19-1.07457E-20
 -1       556 1.03390E-04-3.05626E-05-3.12126E-05 8.24110E-06-1.39186E-18 3.66814E-19
 -1       557 1.01629E-04-2.96348E-05-3.08524E-05 7.38689E-06 8.88831E-19 7.73519E-19
 -1       558 1.00243E-04-2.90958E-05-3.04883E-05 6.31353E-06 1.72996E-18 1.72743E-18
 -1       559 9.91348E-05-2.87926E-05-3.01429E-05 5.21530E-06 2.36684E-18 1.26064E-18
 -1       560 9.82419E-05-2.86267E-05-2.98315E-05 4.19638E-06 1.08652E-18 1.78314E-18
 -1       561 9.75232E-05-2.85390E-05-2.95616E-05 3.30394E-06 2.99817E-19 1.73548E-18
 -1       562 9.69490E-05-2.84953E-05-2.93348E-05 2.55157E-06-1.84218E-18 2.07773E-19
 -1       563 9.64955E-05-2.84762E-05-2.91491E-05 1.93446E-06-4.06999E-19-1.66761E-19
 -1       564 9.61423E-05-2.84708E-05-2.90004E-05 1.43881E-06-1.35621E-18-1.34273E-18
 -1       565 9.58713E-05-2.84727E-05-2.88839E-05 1.04732E-06-1.72994E-19-1.23615E-18
 -1       566 9.56667E-05-2.84778E-05-2.87943E-05 7.42128E-07 1.94780E-19-6.06354E-19
 -1       567 9.55147E-05-2.84837E-05-2.87268E-05 5.06553E-07 5.58332E-19-5.25403E-19
 -1       568 9.54033E-05-2.84893E-05-2.86767E-05 3.26227E-07 1.68550E-18 1.86552E-18
 -1       569 9.53232E-05-2.84968E-05-2.86394E-05 1.88881E-07-3.61393E-19 4.60523E-18
 -1       570 9.50670E-05-2.81186E-05-2.86922E-05 2.98598E-07 6.66756E-19-3.96721E-18
 -1       571 9.49909E-05-2.80216E-05-2.87012E-05 2.30738E-07 7.45193E-19-1.37818E-18
 -1       572 9.52438E-05-2.83606E-05-2.86643E-05 2.83244E-07-1.99461E-18 1.30859E-18
 -1       573 9.51567E-05-2.82368E-05-2.86800E-05 3.16776E-07-2.41177E-18-2.98122E-18
 -1       574 9.49409E-05-2.79591E-05-2.87067E-05 1.24774E-07 6.39714E-19-2.23104E-18
 -1       575 9.49242E-05-2.79388E-05-2.87082E-05-1.41072E-09-1.05303E-18-8.00873E-19
 -1       576 9.49429E-05-2.79630E-05-2.87058E-05-1.26953E-07-1.85712E-18 1.66194E-18
 -1       577 9.49928E-05-2.80268E-05-2.86998E-05-2.29707E-07-3.73109E-19 1.29308E-18
 -1       578 9.50683E-05-2.81244E-05-2.86903E-05-2.96290E-07-9.17912E-20 1.52854E-19
 -1       579 9.51562E-05-2.82416E-05-2.86777E-05-3.14072E-07-5.50359E-19 2.14448E-18
 -1       580 9.52416E-05-2.83632E-05-2.86620E-05-2.81301E-07-9.85091E-19 6.21884E-19
 -1       581 8.67657E-05-4.90416E-05-1.58671E-05 4.14012E-05-2.76366E-18-1.30170E-18
 -1       582 2.71782E-05-1.52454E-05-4.50339E-06-1.76445E-05 8.44359E-19 4.34062E-18
 -1       583 9.47584E-05-2.72307E-05-2.89313E-05 4.82329E-07 1.93588E-18 4.49110E-19
 -1       584 2.69319E-05-1.46687E-05-4.62562E-06 1.39875E-05-1.33416E-18 5.05869E-18
 -1       585 9.13340E-05-5.04011E-05-1.72653E-05-4.21656E-05 3.44737E-18 2.97563E-18
 -1       586 1.21019E-04-6.06304E-05-2.58190E-05 2.87351E-05-1.83436E-18-1.88806E-18
 -1       587 4.72629E-05-2.76260E-05-7.92684E-06 3.48307E-05-2.50081E-18 1.92382E-18
 -1       588 1.29861E-04-7.06374E-06-5.32291E-05-1.34255E-06-8.57441E-18-5.63092E-19
 -1       589 1.40372E-04-2.38849E-05-5.03765E-05-1.29450E-05 4.21627E-18-3.19808E-18
 -1       590 8.90430E-05-1.25612E-05-3.27957E-05-1.84113E-06-2.07963E-19-4.02948E-18
 -1       591 1.33974E-04-1.05120E-05-5.35461E-05-6.03364E-07 4.33268E-18-4.83100E-19
 -1       592 8.85001E-05-4.95875E-05-1.64101E-05-4.08887E-05-4.21319E-18-3.25054E-18
 -1       593 1.36272E-04-1.71334E-05-5.15965E-05 1.16672E-05 4.61379E-18 8.50183E-19
 -1       594 1.44845E-04-3.61497E-05-4.70560E-05 1.18190E-05 2.85815E-18 2.93889E-18
 -1       595 1.43352E-04-5.60117E-05-3.76763E-05-2.05807E-06 5.40609E-19 3.25742E-18
 -1       596 1.40238E-04-5.39344E-05-3.72403E-05-7.31543E-06 7.29130E-19-1.97840E-18
 -1       597 1.24898E-04-6.14841E-05-2.71567E-05-2.53058E-05-2.65645E-18-2.24120E-19
 -1       598 5.74251E-05-3.35445E-05-9.76552E-06-3.86540E-05-3.58353E-18-4.47154E-18
 -1       599 2.74323E-05-1.62934E-05-4.17644E-06-1.65464E-05-1.25038E-18-7.00549E-18
 -1       600 2.38002E-05-1.45397E-05-3.39090E-06 1.17445E-05 9.61634E-19-7.12439E-18
 -1       601 4.46388E-05-2.60606E-05-7.44749E-06 3.54306E-05 1.96993E-18-6.26804E-18
 -1       602 7.71755E-05-4.45587E-05-1.36698E-05 4.37185E-05 1.98873E-18-4.14019E-18
 -1       603 1.13403E-04-5.77943E-05-2.37085E-05 3.42437E-05 9.30572E-19-2.54577E-18
 -1       604 1.35626E-04-5.78625E-05-3.34685E-05 1.42502E-05-2.09627E-19 1.20437E-18
 -1       605 1.42318E-04-4.13926E-05-4.36162E-05-5.35616E-06-3.33519E-18 2.48223E-18
 -1       606 1.36216E-04-2.02009E-05-5.02920E-05-1.08495E-05-6.62142E-18 2.34104E-18
 -1       607 1.34644E-04-1.42951E-05-5.21825E-05 8.89149E-06-7.63807E-18-3.06494E-18
 -1       608 1.42025E-04-3.21607E-05-4.74817E-05 8.67155E-06-4.71628E-18-3.99445E-18
 -1       609 1.23977E-04-5.94467E-05-2.76157E-05-2.68508E-05 3.06557E-18 1.00768E-18
 -1       610 5.26261E-05-3.02421E-05-9.13758E-06-3.87972E-05 3.71165E-18 4.86827E-18
 -1       611 9.46281E-05-2.06496E-05-3.17251E-05-9.31456E-06-3.27316E-18-1.68989E-18
 -1       612 9.61733E-05-2.31729E-05-3.12893E-05 9.37331E-06 3.70296E-18 1.56730E-18
 -1       613 1.42189E-04-5.80138E-05-3.62259E-05 7.53515E-06-3.46092E-19-4.15570E-18
 -1       614 1.26516E-04-1.67609E-05-4.74533E-05-1.18988E-05 4.18090E-18 2.07761E-19
 -1       615 9.13624E-05-1.57142E-05-3.24439E-05-7.48826E-06-2.42332E-18-3.56002E-18
 -1       616 9.53107E-05-2.84575E-05-2.86510E-05-2.40356E-07-4.12825E-19 2.40303E-18
 -1       617 4.90342E-05-2.24384E-05-1.08508E-05-2.87883E-05-2.49742E-18-4.25211E-18
 -1       618 9.13520E-05-1.64025E-05-3.21267E-05 2.25066E-06 1.38159E-18-3.28049E-18
 -1       619 9.10544E-05-1.59593E-05-3.21889E-05 7.74949E-07 7.34012E-19-3.47913E-18
 -1       620 9.28414E-05-1.87244E-05-3.17701E-05 4.91108E-06 2.44364E-18-2.38114E-18
 -1       621 9.40074E-05-2.07565E-05-3.14011E-05 5.77435E-06 2.84793E-18-1.64164E-18
 -1       622 9.53466E-05-2.39810E-05-3.05750E-05 4.76403E-06 2.88045E-18-7.26091E-19
 -1       623 1.00552E-04-5.11748E-05-2.09464E-05 3.53474E-05 3.31166E-18-2.38832E-18
 -1       624 9.54468E-05-2.57658E-05-2.98591E-05 2.07579E-06 2.37912E-18-4.27338E-19
 -1       625 1.11227E-04-5.51278E-05-2.39074E-05-2.95892E-05 4.05663E-18 1.96192E-18
 -1       626 9.54808E-05-2.54680E-05-3.00048E-05-1.84949E-06-1.89381E-18-1.83039E-18
 -1       627 9.55549E-05-2.66072E-05-2.95483E-05-6.40547E-08-1.72509E-18-1.26848E-18
 -1       628 9.55280E-05-2.72623E-05-2.92564E-05 1.22093E-06-1.22375E-18-1.17503E-18
 -1       629 9.54931E-05-2.76174E-05-2.90893E-05 2.16995E-06-9.36406E-19-1.31187E-18
 -1       630 9.54864E-05-2.77838E-05-2.90152E-05 2.92084E-06-5.40533E-19-9.95838E-19
 -1       631 9.55243E-05-2.78366E-05-2.90088E-05 3.57716E-06-3.00488E-19-6.91402E-19
 -1       632 9.56197E-05-2.78358E-05-2.90500E-05 4.21010E-06-6.33583E-19-1.74665E-19
 -1       633 9.57919E-05-2.78413E-05-2.91214E-05 4.86094E-06-7.91603E-19-1.57958E-19
 -1       634 9.60753E-05-2.79241E-05-2.92074E-05 5.54071E-06-5.11569E-19-1.59912E-19
 -1       635 9.65274E-05-2.81758E-05-2.92933E-05 6.22689E-06-4.85166E-19 1.78051E-19
 -1       636 9.72386E-05-2.87158E-05-2.93669E-05 6.85652E-06-3.66908E-19 7.17818E-19
 -1       637 9.83405E-05-2.96919E-05-2.94212E-05 7.31482E-06-4.43851E-19 5.82613E-19
 -1       638 1.00005E-04-3.12623E-05-2.94621E-05 7.41815E-06-4.19642E-19 5.27599E-19
 -1       639 1.02416E-04-3.35390E-05-2.95209E-05 6.89304E-06 3.92247E-19 7.60888E-19
 -1       640 1.05681E-04-3.64565E-05-2.96714E-05 5.36517E-06 8.64475E-19 1.30207E-18
 -1       641 1.09636E-04-3.95405E-05-3.00463E-05 2.41238E-06 7.57769E-19 1.52766E-18
 -1       642 1.13557E-04-4.16188E-05-3.08346E-05-2.18758E-06 7.04836E-19 1.99814E-18
 -1       643 1.15993E-04-4.08003E-05-3.22372E-05-7.82601E-06 1.00264E-18 1.92498E-18
 -1       644 1.15349E-04-3.53313E-05-3.43267E-05-1.25021E-05 2.73903E-19 2.26845E-18
 -1       645 1.11223E-04-2.61782E-05-3.65575E-05-1.22326E-05-1.72425E-18 1.18244E-18
 -1       646 1.07023E-04-1.87234E-05-3.79673E-05-5.08441E-06-3.38916E-18-4.37584E-19
 -1       647 1.07702E-04-1.93133E-05-3.79548E-05 5.41697E-06-3.70881E-18-1.87682E-18
 -1       648 1.11554E-04-2.66911E-05-3.64670E-05 1.22225E-05-1.76645E-18-2.99151E-18
 -1       649 1.15391E-04-3.56993E-05-3.41998E-05 1.23111E-05-4.91907E-19-4.09260E-18
 -1       650 1.15931E-04-4.08482E-05-3.22001E-05 7.72618E-06 1.34632E-20-2.03645E-18
 -1       651 1.13436E-04-4.15159E-05-3.08272E-05 2.12474E-06-2.99389E-19-1.88088E-18
 -1       652 1.09477E-04-3.93318E-05-3.00659E-05-2.35622E-06 1.63828E-19 1.60988E-19
 -1       653 1.05550E-04-3.62198E-05-2.97151E-05-5.17950E-06 1.28219E-19 5.31705E-19
 -1       654 1.02323E-04-3.32946E-05-2.95849E-05-6.57541E-06 6.64012E-19 1.31360E-18
 -1       655 9.99541E-05-3.10224E-05-2.95428E-05-6.96825E-06 7.08166E-19 2.36435E-18
 -1       656 9.83246E-05-2.94546E-05-2.95159E-05-6.73279E-06 6.21917E-19 2.19937E-18
 -1       657 9.72486E-05-2.84768E-05-2.94734E-05-6.13930E-06-1.63316E-19 1.07369E-18
 -1       658 9.65547E-05-2.79345E-05-2.94083E-05-5.37250E-06-1.64354E-19 1.01856E-18
 -1       659 9.61117E-05-2.76867E-05-2.93246E-05-4.55344E-06-1.38998E-19 6.61697E-19
 -1       660 9.58282E-05-2.76237E-05-2.92301E-05-3.75768E-06 1.48117E-19-4.74812E-19
 -1       661 9.56445E-05-2.76673E-05-2.91327E-05-3.02893E-06 1.00653E-18-2.11030E-18
 -1       662 9.55229E-05-2.77651E-05-2.90387E-05-2.38888E-06 5.08627E-19-1.54076E-18
 -1       663 9.54399E-05-2.78838E-05-2.89524E-05-1.84453E-06-3.90809E-19-5.47110E-19
 -1       664 9.53813E-05-2.80033E-05-2.88761E-05-1.39350E-06-5.65026E-19-6.04486E-19
 -1       665 9.53377E-05-2.81123E-05-2.88107E-05-1.02798E-06 1.24202E-18 1.52165E-19
 -1       666 9.53039E-05-2.82056E-05-2.87562E-05-7.37192E-07 6.38109E-19 9.61680E-20
 -1       667 9.52755E-05-2.82819E-05-2.87114E-05-5.10291E-07 1.75717E-20 4.30457E-19
 -1       668 9.52968E-05-2.76846E-05-2.89760E-05-2.10206E-06 1.17230E-18-6.11276E-19
 -1       669 1.24478E-04-5.86358E-05-2.82070E-05 1.94379E-05 1.83354E-18 1.85998E-18
 -1       670 9.53214E-05-2.73802E-05-2.91168E-05-1.13334E-06 1.34858E-18-9.15698E-19
 -1       671 9.54556E-05-2.78368E-05-2.89789E-05-3.56880E-06 5.91825E-19-4.66595E-19
 -1       672 9.56268E-05-2.77764E-05-2.90781E-05-4.27843E-06 6.85444E-19-9.62915E-19
 -1       673 9.58519E-05-2.76690E-05-2.92204E-05-5.06651E-06 6.35169E-19-7.82621E-19
 -1       674 9.61352E-05-2.75537E-05-2.93911E-05-5.97329E-06 6.93683E-19-4.02248E-19
 -1       675 9.64978E-05-2.74900E-05-2.95736E-05-7.01273E-06 7.34922E-19 2.40162E-19
 -1       676 9.69913E-05-2.75762E-05-2.97482E-05-8.16583E-06 3.21912E-19 7.41688E-19
 -1       677 9.77234E-05-2.79746E-05-2.98916E-05-9.36752E-06-2.86015E-19 5.40257E-19
 -1       678 9.88946E-05-2.89393E-05-2.99810E-05-1.04840E-05 7.80351E-20 1.11764E-18
 -1       679 1.00842E-04-3.08287E-05-3.00072E-05-1.12738E-05-9.36320E-19 9.63741E-19
 -1       680 1.04057E-04-3.40561E-05-3.00044E-05-1.13205E-05-1.55164E-18 1.08000E-18
 -1       681 1.09094E-04-3.88646E-05-3.01048E-05-9.91621E-06-1.93918E-18 7.88598E-19
 -1       682 1.16148E-04-4.47000E-05-3.06272E-05-6.01566E-06-1.71691E-18 1.23244E-18
 -1       683 1.24143E-04-4.92093E-05-3.21331E-05 1.43818E-06-1.66662E-18 2.50393E-18
 -1       684 1.29183E-04-4.70430E-05-3.53729E-05 1.11321E-05-1.14475E-19 3.36030E-18
 -1       685 1.27337E-04-3.45857E-05-4.00634E-05 1.73521E-05 1.19286E-18 3.15864E-18
 -1       686 1.29688E-04-4.38306E-05-3.70585E-05-1.50943E-05 3.98172E-19-5.05467E-19
 -1       687 1.26581E-04-4.94064E-05-3.31107E-05-4.96392E-06-9.35421E-19 4.53972E-19
 -1       688 1.19122E-04-4.66655E-05-3.10575E-05 3.59084E-06 4.38983E-19-1.18757E-19
 -1       689 1.11514E-04-4.09067E-05-3.02657E-05 8.65766E-06 1.02823E-18-2.73522E-19
 -1       690 1.05732E-04-3.55677E-05-3.00751E-05 1.07746E-05 1.07845E-18 3.15709E-19
 -1       691 1.01927E-04-3.17495E-05-3.00783E-05 1.10804E-05-7.22344E-19 6.75046E-19
 -1       692 9.96031E-05-2.93999E-05-3.00874E-05 1.04109E-05-9.52885E-19 5.45655E-20
 -1       693 9.82234E-05-2.81271E-05-3.00406E-05 9.27060E-06-1.00804E-19-1.28036E-18
 -1       694 9.73932E-05-2.75435E-05-2.99345E-05 7.95742E-06 1.66452E-18-1.12858E-18
 -1       695 9.68654E-05-2.73585E-05-2.97874E-05 6.64269E-06 1.73650E-18-4.05245E-19
 -1       696 9.65016E-05-2.73834E-05-2.96208E-05 5.42023E-06 1.46756E-18 4.93008E-19
 -1       697 9.62298E-05-2.75054E-05-2.94522E-05 4.33618E-06 3.60487E-19 1.60198E-18
 -1       698 9.60149E-05-2.76617E-05-2.92933E-05 3.40691E-06-6.08333E-19 1.33492E-18
 -1       699 9.58400E-05-2.78197E-05-2.91508E-05 2.63084E-06-8.54650E-19 1.76040E-18
 -1       700 9.56967E-05-2.79637E-05-2.90278E-05 1.99624E-06 6.50425E-19-1.22004E-19
 -1       701 9.55797E-05-2.80877E-05-2.89247E-05 1.48645E-06-6.44969E-20-3.25159E-18
 -1       702 9.54851E-05-2.81902E-05-2.88403E-05 1.08340E-06-4.40541E-19-3.01436E-18
 -1       703 9.54087E-05-2.82715E-05-2.87728E-05 7.68926E-07-3.02057E-19-1.91587E-18
 -1       704 9.53474E-05-2.83342E-05-2.87195E-05 5.26831E-07-6.87813E-19-6.66839E-19
 -1       705 9.52882E-05-2.83457E-05-2.86894E-05 3.93696E-07-2.32379E-18 1.51886E-18
 -1       706 9.47819E-05-2.77640E-05-2.87220E-05 8.36498E-08 1.70293E-18-3.35849E-18
 -1       707 9.52586E-05-2.83259E-05-2.86854E-05-3.86306E-07 1.29471E-19-7.88900E-19
 -1       708 9.49312E-05-2.79222E-05-2.87182E-05 3.74221E-07 5.45796E-19-2.86867E-18
 -1       709 9.47841E-05-2.77678E-05-2.87214E-05-9.21445E-08-3.38714E-19-1.22941E-18
 -1       710 9.48333E-05-2.78175E-05-2.87211E-05 2.47478E-07 1.99235E-18-1.95622E-18
 -1       711 9.53939E-05-2.67982E-05-2.93959E-05 1.93610E-07 1.84007E-18-4.81964E-19
 -1       712 9.48377E-05-2.78264E-05-2.87192E-05-2.50756E-07-5.83809E-19 9.75391E-19
 -1       713 9.49364E-05-2.79344E-05-2.87152E-05-3.73645E-07-1.24870E-18 4.35657E-19
 -1       714 9.50651E-05-2.80781E-05-2.87088E-05-4.39177E-07-4.72434E-19 2.28090E-18
 -1       715 4.79554E-05-1.97022E-05-1.16317E-05-2.72742E-05 1.90262E-18 3.56987E-18
 -1       716 1.33581E-04-4.42280E-05-3.85833E-05 9.05841E-06-8.21132E-19-4.30817E-18
 -1       717 1.30446E-04-3.16387E-05-4.27342E-05-1.36291E-05-4.07433E-18 3.35756E-18
 -1       718 4.71034E-05-1.84919E-05-1.17691E-05 2.37971E-05-2.08068E-18 2.51590E-18
 -1       719 1.34942E-04-3.56933E-05-4.31470E-05-1.51644E-05 1.57086E-18-1.79195E-18
 -1       720 1.08906E-04-5.40359E-05-2.33429E-05 2.94914E-05-2.97896E-18-1.43070E-18
 -1       721 9.53429E-05-2.78184E-05-2.89385E-05-2.87332E-06 6.67117E-19-2.59672E-19
 -1       722 9.50565E-05-2.34574E-05-3.06821E-05-4.29282E-06-2.10898E-18-2.20556E-18
 -1       723 1.09265E-04-5.42874E-05-2.34672E-05-2.91037E-05-4.46564E-18-9.44243E-19
 -1       724 1.39195E-04-5.12989E-05-3.80283E-05-7.98269E-06-5.87775E-19-3.85969E-18
 -1       725 1.19077E-04-1.06691E-05-4.69581E-05 5.86688E-06-6.19859E-18-6.93839E-19
 -1       726 9.19447E-05-1.73043E-05-3.19946E-05 3.65708E-06 1.99204E-18-2.67829E-18
 -1       727 9.18878E-05-1.72334E-05-3.20012E-05-3.60376E-06-1.24891E-18-3.58960E-18
 -1       728 1.31314E-04-5.76431E-05-3.16406E-05-1.01553E-05 2.58635E-18-2.82184E-18
 -1       729 1.31487E-04-5.99644E-05-3.06256E-05 1.13401E-05-1.90432E-18-3.89835E-18
 -1       730 1.27611E-04-2.43781E-05-4.47214E-05 1.37474E-05-4.52361E-18-3.45359E-18
 -1       731 3.64450E-05-1.12975E-05-1.02075E-05-2.18527E-06 9.46055E-20-5.45648E-18
 -1       732 1.36359E-04-4.56007E-05-3.91438E-05 1.23285E-05 4.69706E-19 3.70978E-18
 -1       733 8.59090E-05-4.25636E-05-1.82377E-05-3.58641E-05-4.17476E-18-2.97303E-18
 -1       734 7.21334E-05-3.57246E-05-1.51960E-05 3.83209E-05 3.24930E-18-3.78936E-18
 -1       735 3.79720E-05-1.07299E-05-1.11295E-05-1.80629E-06 7.73883E-19 3.17304E-18
 -1       736 7.75006E-05-3.75435E-05-1.67326E-05 3.59741E-05-2.96252E-18-2.60680E-18
 -1       737 1.35033E-04-5.11084E-05-3.61667E-05-2.51276E-06-1.72312E-19 2.34766E-18
 -1       738 4.40310E-05-1.64064E-05-1.13063E-05 2.17336E-05 2.42824E-18-5.33281E-18
 -1       739 1.20928E-04-1.36613E-05-4.65163E-05-9.18525E-06-5.63121E-18 2.18685E-18
 -1       740 8.13336E-05-4.03276E-05-1.72052E-05-3.83158E-05 4.06052E-18 2.19858E-18
 -1       741 1.32626E-04-5.86716E-05-3.17155E-05-6.49609E-06-2.11084E-18 3.06114E-18
 -1       742 9.27459E-05-1.86017E-05-3.17844E-05-4.87990E-06-1.85556E-18-3.17805E-18
 -1       743 9.10412E-05-1.59459E-05-3.21896E-05-7.11682E-07 7.84078E-20-3.40376E-18
 -1       744 9.50612E-05-2.80654E-05-2.87126E-05 4.43655E-07-8.03711E-19-5.03579E-19
 -1       745 1.23935E-04-1.42018E-05-4.76878E-05-4.23524E-06 4.18831E-18 1.04061E-18
 -1       746 9.51808E-05-2.82066E-05-2.87032E-05 4.42613E-07-2.72482E-18-2.13305E-18
 -1       747 7.35779E-05-3.20586E-05-1.74735E-05-3.16934E-05-3.43084E-18-2.09977E-18
 -1       748 4.83058E-05-1.48628E-05-1.39244E-05-1.50788E-05-1.43832E-18-4.11849E-18
 -1       749 9.51611E-05-2.81703E-05-2.87104E-05-4.90982E-07-5.81725E-19 7.11022E-19
 -1       750 9.41970E-05-2.11414E-05-3.13124E-05-5.78832E-06-2.41704E-18-2.65499E-18
 -1       751 9.13178E-05-1.63622E-05-3.21302E-05-2.17949E-06-6.03365E-19-3.38261E-18
 -1       752 5.08658E-05-1.44784E-05-1.52970E-05-1.49342E-05 4.78468E-19 3.06239E-18
 -1       753 9.45756E-05-2.23937E-05-3.09349E-05 3.42058E-06 2.23397E-18-1.72144E-18
 -1       754 9.48300E-05-2.30439E-05-3.07632E-05-2.99389E-06-1.61129E-18-2.53914E-18
 -1       755 9.52388E-05-2.42224E-05-3.04354E-05 2.90409E-06 2.24127E-18-1.26870E-18
 -1       756 9.56905E-05-2.62398E-05-2.97645E-05 3.80213E-07-1.24103E-18-1.70962E-18
 -1       757 9.57025E-05-2.69361E-05-2.94713E-05 1.50466E-06-9.31746E-19-1.15978E-18
 -1       758 9.55907E-05-2.72765E-05-2.92775E-05 2.39067E-06-6.98110E-19-1.17359E-18
 -1       759 9.54132E-05-2.73776E-05-2.91581E-05 3.14015E-06-4.25462E-19-1.37367E-18
 -1       760 9.52061E-05-2.73280E-05-2.90905E-05 3.83577E-06-2.43966E-19-1.50716E-18
 -1       761 9.50009E-05-2.72067E-05-2.90546E-05 4.53944E-06-5.17995E-19-9.91630E-19
 -1       762 9.48370E-05-2.70979E-05-2.90309E-05 5.29141E-06-5.36420E-19-6.57902E-19
 -1       763 9.47742E-05-2.71034E-05-2.90016E-05 6.10978E-06-1.36622E-19-6.28276E-20
 -1       764 9.49066E-05-2.73550E-05-2.89505E-05 6.98871E-06-1.06325E-19-1.02427E-19
 -1       765 9.53806E-05-2.80251E-05-2.88665E-05 7.89213E-06-1.46093E-19 4.06894E-19
 -1       766 9.64125E-05-2.93294E-05-2.87498E-05 8.73807E-06-6.13492E-19 1.14552E-18
 -1       767 9.82992E-05-3.15085E-05-2.86246E-05 9.36459E-06 1.91871E-19 1.38790E-18
 -1       768 1.01396E-04-3.47564E-05-2.85605E-05 9.46395E-06 9.25379E-19 1.19694E-18
 -1       769 1.06004E-04-3.90316E-05-2.87048E-05 8.48860E-06 7.70038E-19 1.12532E-18
 -1       770 1.12042E-04-4.36392E-05-2.93188E-05 5.58845E-06 1.50499E-18 1.65804E-18
 -1       771 1.18504E-04-4.67028E-05-3.07755E-05-5.03971E-08 1.39186E-18 2.92856E-18
 -1       772 1.22236E-04-4.40932E-05-3.35812E-05-7.56014E-06 9.29864E-19 3.73405E-18
 -1       773 1.14070E-04-2.00418E-05-4.05424E-05-1.00230E-05-3.91501E-18 9.62650E-19
 -1       774 1.21637E-04-3.46644E-05-3.74126E-05 1.39203E-05-1.03160E-18-3.10335E-18
 -1       775 1.22115E-04-4.41542E-05-3.34524E-05 7.75489E-06 1.13267E-18-2.64334E-18
 -1       776 1.18243E-04-4.64935E-05-3.07597E-05 1.04040E-07 1.14444E-19-1.86756E-18
 -1       777 1.11750E-04-4.32826E-05-2.93382E-05-5.41197E-06 1.48606E-18-7.61673E-19
 -1       778 1.05782E-04-3.86943E-05-2.87478E-05-8.24241E-06 9.18817E-19 8.25184E-19
 -1       779 1.01200E-04-3.44040E-05-2.86248E-05-9.11152E-06 1.09477E-18 1.00835E-18
 -1       780 9.81382E-05-3.11688E-05-2.87007E-05-8.90715E-06 1.12355E-18 2.85262E-20
 -1       781 9.62554E-05-2.89879E-05-2.88287E-05-8.18270E-06 2.27203E-19-1.16506E-18
 -1       782 9.52003E-05-2.76669E-05-2.89426E-05-7.23029E-06 2.97385E-19 2.00151E-19
 -1       783 9.46821E-05-2.69734E-05-2.90178E-05-6.21297E-06-2.15345E-19 7.56644E-19
 -1       784 9.44884E-05-2.67018E-05-2.90512E-05-5.21947E-06-1.37183E-18 3.49134E-19
 -1       785 9.44759E-05-2.66934E-05-2.90495E-05-4.29806E-06-2.21547E-19 9.38239E-20
 -1       786 9.45542E-05-2.68346E-05-2.90225E-05-3.47378E-06-4.86916E-19 2.80061E-19
 -1       787 9.46686E-05-2.70488E-05-2.89798E-05-2.75716E-06 6.46826E-19-3.95137E-19
 -1       788 9.47884E-05-2.72868E-05-2.89292E-05-2.14906E-06 7.29639E-19 1.59127E-20
 -1       789 9.48976E-05-2.75190E-05-2.88765E-05-1.64405E-06-2.73864E-19-3.02168E-19
 -1       790 9.49893E-05-2.77290E-05-2.88258E-05-1.23277E-06 1.25638E-18 1.38259E-19
 -1       791 9.50620E-05-2.79096E-05-2.87796E-05-9.04722E-07 1.09407E-18-3.42430E-19
 -1       792 9.51243E-05-2.80562E-05-2.87434E-05-6.75498E-07 1.09804E-18-8.53034E-19
 -1       793 9.46227E-05-2.75714E-05-2.87363E-05-2.36902E-07 7.29324E-19 1.63551E-19
 -1       794 9.49595E-05-2.70035E-05-2.91238E-05-4.71934E-06 5.19950E-19-5.43795E-19
 -1       795 9.51859E-05-2.72624E-05-2.91099E-05-3.93800E-06 7.33132E-19-6.76322E-19
 -1       796 9.44015E-05-2.62940E-05-2.91886E-05-6.58673E-06 8.88782E-20-2.81041E-19
 -1       797 9.41066E-05-2.59920E-05-2.91915E-05-7.73561E-06-2.33357E-19 2.14662E-19
 -1       798 9.38862E-05-2.58997E-05-2.91365E-05-9.04637E-06 1.33446E-19 6.44742E-19
 -1       799 9.39016E-05-2.62520E-05-2.89923E-05-1.05157E-05-2.68050E-19-2.10566E-20
 -1       800 9.44590E-05-2.74127E-05-2.87338E-05-1.21193E-05-6.30828E-19 9.31607E-19
 -1       801 9.60962E-05-2.99075E-05-2.83645E-05-1.37704E-05-1.02999E-18 5.62046E-19
 -1       802 9.96289E-05-3.43622E-05-2.79663E-05-1.51996E-05-1.69367E-18-1.08271E-19
 -1       803 1.06283E-04-4.13669E-05-2.78103E-05-1.55068E-05-2.72138E-18 1.87183E-20
 -1       804 1.16871E-04-5.02023E-05-2.85268E-05-1.30068E-05-2.67768E-18 8.92578E-19
 -1       805 7.15771E-05-2.80940E-05-1.83800E-05-2.90864E-05 1.72668E-18 1.60186E-18
 -1       806 1.21870E-04-5.35301E-05-2.92527E-05 1.09675E-05-1.41349E-18-2.61706E-18
 -1       807 1.01643E-04-3.65223E-05-2.79055E-05 1.52744E-05 6.26457E-19 1.27347E-18
 -1       808 9.70906E-05-3.11265E-05-2.82666E-05 1.40345E-05-4.07208E-19 1.94751E-18
 -1       809 9.48507E-05-2.79479E-05-2.86704E-05 1.23428E-05 3.59255E-19 8.64273E-19
 -1       810 9.39550E-05-2.63261E-05-2.89828E-05 1.06049E-05 5.70023E-19 1.69307E-19
 -1       811 9.37663E-05-2.56902E-05-2.91748E-05 8.96679E-06 5.58938E-19-1.86346E-18
 -1       812 9.38982E-05-2.56179E-05-2.92625E-05 7.47276E-06-1.01651E-19-1.61731E-18
 -1       813 9.41439E-05-2.58377E-05-2.92736E-05 6.13677E-06 5.59845E-19 6.94973E-19
 -1       814 9.44015E-05-2.61851E-05-2.92352E-05 4.96457E-06 1.09994E-19 2.77358E-18
 -1       815 9.46275E-05-2.65665E-05-2.91687E-05 3.95545E-06-3.24158E-20 2.46604E-18
 -1       816 9.48087E-05-2.69321E-05-2.90897E-05 3.10283E-06-2.98552E-19 1.09109E-19
 -1       817 9.49458E-05-2.72585E-05-2.90086E-05 2.39523E-06 1.17385E-18-1.41897E-18
 -1       818 9.50450E-05-2.75371E-05-2.89318E-05 1.81768E-06 2.17590E-19-5.28161E-19
 -1       819 9.51142E-05-2.77676E-05-2.88627E-05 1.35354E-06-4.78879E-19-4.39573E-19
 -1       820 9.51594E-05-2.79524E-05-2.88029E-05 9.87904E-07-1.39363E-19-1.10042E-18
 -1       821 9.51864E-05-2.80973E-05-2.87524E-05 7.02703E-07-6.50773E-19-2.04324E-18
 -1       822 9.51821E-05-2.81547E-05-2.87262E-05 5.61076E-07-2.20460E-18-2.12694E-18
 -1       823 9.28306E-05-1.91115E-05-3.15948E-05 1.06224E-06 9.03505E-19-2.79240E-18
 -1       824 9.45804E-05-2.75280E-05-2.87368E-05-7.66043E-09 1.68760E-18-3.60222E-18
 -1       825 1.26437E-04-4.06742E-05-3.69104E-05-1.18167E-05-1.10024E-18 4.26455E-18
 -1       826 6.96110E-05-2.59139E-05-1.85123E-05 2.64565E-05-2.73493E-18-2.19854E-18
 -1       827 9.47362E-05-2.76840E-05-2.87367E-05-4.31358E-07 1.52033E-20 7.06008E-19
 -1       828 1.09722E-04-4.44537E-05-2.79542E-05 1.50005E-05 4.03094E-19-1.32150E-20
 -1       829 9.46955E-05-2.66609E-05-2.91574E-05-5.58913E-06 4.33730E-19-3.80103E-19
 -1       830 9.56311E-05-2.70393E-05-2.93963E-05-1.44558E-06 1.13709E-18-8.19466E-19
 -1       831 9.54885E-05-2.50695E-05-3.01826E-05-1.10936E-06-1.22825E-18-2.18485E-18
 -1       832 9.49041E-05-2.78522E-05-2.87366E-05-5.63037E-07 3.88710E-19 8.67402E-19
 -1       833 1.10971E-04-5.14152E-05-2.54693E-05 2.28509E-05 2.95773E-18 1.37664E-18
 -1       834 6.64212E-05-2.53752E-05-1.73647E-05 2.77277E-05 2.90461E-18-4.41389E-18
 -1       835 5.30350E-05-1.43658E-05-1.62959E-05 1.24364E-05-1.69248E-18 7.99665E-19
 -1       836 9.39734E-05-2.10069E-05-3.12704E-05-4.03283E-06-1.79833E-18-2.86987E-18
 -1       837 1.18987E-04-2.35805E-05-4.11289E-05-1.33891E-05-4.45129E-18 2.48333E-18
 -1       838 1.27001E-04-5.40487E-05-3.13053E-05 4.65408E-06 1.72613E-18 2.68228E-18
 -1       839 9.34683E-05-4.41102E-05-2.08510E-05-3.13965E-05-4.34074E-18-1.58677E-18
 -1       840 9.68031E-05-4.30114E-05-2.28907E-05 2.77437E-05-2.19726E-18-1.51524E-18
 -1       841 1.20025E-04-5.40950E-05-2.81991E-05-1.45370E-05 2.64316E-18-2.15683E-18
 -1       842 4.80206E-05-1.27630E-05-1.48037E-05 8.49305E-06 1.25548E-18-3.72515E-18
 -1       843 8.91607E-05-4.02586E-05-2.07801E-05 3.15681E-05 2.82188E-18-2.34745E-18
 -1       844 1.28230E-04-5.05991E-05-3.33560E-05 2.22652E-06 1.82456E-18-4.07856E-18
 -1       845 9.91183E-05-4.56797E-05-2.27980E-05-2.91280E-05 3.19462E-18 1.92632E-18
 -1       846 9.26957E-05-1.88874E-05-3.16321E-05 2.52520E-08 2.71611E-19-2.89516E-18
 -1       847 9.38564E-05-2.08911E-05-3.12699E-05 2.88601E-06 1.91911E-18-2.33152E-18
 -1       848 9.48909E-05-2.78266E-05-2.87418E-05 5.63208E-07-1.25433E-18 1.17677E-19
 -1       849 1.15826E-04-2.24565E-05-4.02711E-05 1.26936E-05-3.40462E-18-2.33452E-18
 -1       850 9.55283E-05-2.73384E-05-2.92242E-05-2.39019E-06 9.37810E-19-8.70051E-19
 -1       851 9.56395E-05-2.63839E-05-2.96811E-05-2.35834E-07 1.68390E-18-9.35426E-19
 -1       852 9.31291E-05-1.95180E-05-3.15511E-05-3.18383E-06-1.36219E-18-3.31222E-18
 -1       853 9.53758E-05-2.73904E-05-2.91364E-05-3.18741E-06 4.70857E-19-9.41564E-19
 -1       854 1.33591E-04-5.56180E-05-3.35355E-05 4.68923E-07-9.02107E-19-3.96251E-18
 -1       855 9.32363E-05-1.97840E-05-3.14794E-05 2.04737E-06 1.52010E-18-2.60505E-18
 -1       856 9.47226E-05-2.76618E-05-2.87404E-05 4.22010E-07 1.42084E-18-1.49466E-18
 -1       857 5.49332E-05-1.26391E-05-1.79921E-05-9.40074E-08-5.67909E-19 9.10587E-19
 -1       858 9.46154E-05-2.75594E-05-2.87384E-05 2.22590E-07 1.28235E-18-3.24502E-18
 -1       859 6.28430E-05-1.88815E-05-1.86871E-05 1.81566E-05 1.55307E-18-4.12472E-18
 -1       860 6.53693E-05-2.23111E-05-1.82539E-05-2.27914E-05-2.25652E-18-1.80394E-18
 -1       861 5.20103E-05-1.27155E-05-1.66043E-05-3.27092E-06-4.33331E-19-2.53243E-18
 -1       862 9.50073E-05-2.79458E-05-2.87400E-05-6.31788E-07 1.13423E-18 3.42281E-18
 -1       863 9.55139E-05-2.55222E-05-2.99964E-05 1.12796E-06 2.05325E-18-1.11888E-18
 -1       864 9.25374E-05-1.85173E-05-3.17261E-05-2.09360E-06-5.94532E-19-3.16949E-18
 -1       865 9.52422E-05-2.42256E-05-3.04360E-05 1.69273E-06 1.84240E-18-1.59299E-18
 -1       866 9.56563E-05-2.59660E-05-2.98673E-05 7.38613E-07-6.88073E-19-1.94558E-18
 -1       867 9.56069E-05-2.66033E-05-2.95731E-05 1.65548E-06-6.24900E-19-1.47149E-18
 -1       868 9.53598E-05-2.68585E-05-2.93577E-05 2.42410E-06-7.01904E-19-1.29281E-18
 -1       869 9.49755E-05-2.68461E-05-2.91983E-05 3.11773E-06-4.82243E-19-1.71955E-18
 -1       870 9.44988E-05-2.66612E-05-2.90733E-05 3.80483E-06-2.75871E-19-1.70791E-18
 -1       871 9.39717E-05-2.63962E-05-2.89609E-05 4.54213E-06-4.28661E-19-1.49810E-18
 -1       872 9.34460E-05-2.61535E-05-2.88396E-05 5.37549E-06-1.04933E-19-1.10604E-18
 -1       873 9.29969E-05-2.60580E-05-2.86880E-05 6.34226E-06-1.03973E-19-9.73644E-19
 -1       874 9.27421E-05-2.62720E-05-2.84871E-05 7.47383E-06 2.41858E-19-4.95068E-19
 -1       875 9.28679E-05-2.70111E-05-2.82241E-05 8.79132E-06 1.57388E-19-4.47443E-19
 -1       876 9.36611E-05-2.85562E-05-2.79014E-05 1.02892E-05 1.28479E-20-1.15114E-19
 -1       877 9.55520E-05-3.12540E-05-2.75541E-05 1.18831E-05 6.03940E-19 5.53557E-19
 -1       878 9.91481E-05-3.54671E-05-2.72870E-05 1.32636E-05 6.30975E-19 1.07919E-18
 -1       879 1.05137E-04-4.13391E-05-2.73424E-05 1.36858E-05 1.67387E-18 2.05225E-18
 -1       880 1.13908E-04-4.81524E-05-2.81403E-05 1.17000E-05 2.48072E-18 2.51377E-18
 -1       881 1.14203E-04-4.81840E-05-2.82755E-05-1.17132E-05 1.70068E-18-1.87360E-18
 -1       882 1.04839E-04-4.09655E-05-2.74011E-05-1.35352E-05 1.35738E-18-1.20158E-18
 -1       883 9.88340E-05-3.50006E-05-2.73501E-05-1.28951E-05 1.16253E-18-1.45122E-18
 -1       884 9.53167E-05-3.08480E-05-2.76265E-05-1.14421E-05 7.98869E-19-2.09812E-18
 -1       885 9.33972E-05-2.81377E-05-2.79678E-05-9.80481E-06 8.51563E-19-2.16228E-18
 -1       886 9.25420E-05-2.65585E-05-2.82784E-05-8.23528E-06-2.74857E-19-2.70644E-18
 -1       887 9.23291E-05-2.57771E-05-2.85221E-05-6.83319E-06-8.26305E-20-4.00673E-18
 -1       888 9.24746E-05-2.55224E-05-2.86937E-05-5.61158E-06-2.83855E-19-2.45181E-18
 -1       889 9.27979E-05-2.55943E-05-2.88015E-05-4.55944E-06-1.09546E-19-1.49267E-18
 -1       890 9.31881E-05-2.58514E-05-2.88586E-05-3.66146E-06 3.51885E-21-1.24204E-18
 -1       891 9.35804E-05-2.61972E-05-2.88785E-05-2.90279E-06 1.07167E-18 3.74347E-19
 -1       892 9.39397E-05-2.65691E-05-2.88731E-05-2.26937E-06 8.39758E-20 1.16856E-18
 -1       893 9.42499E-05-2.69286E-05-2.88520E-05-1.74734E-06 7.95037E-19 1.19492E-18
 -1       894 9.45068E-05-2.72547E-05-2.88223E-05-1.32404E-06-1.71680E-20 2.63633E-18
 -1       895 9.47093E-05-2.75339E-05-2.87891E-05-9.87707E-07 1.42214E-18 4.36245E-18
 -1       896 9.11133E-05-2.42550E-05-2.86534E-05-7.68667E-06-3.92449E-19-5.65425E-19
 -1       897 9.21248E-05-2.48124E-05-2.88481E-05-6.52422E-06 3.29421E-19-2.55743E-19
 -1       898 8.91361E-05-2.41078E-05-2.78694E-05-1.08618E-05-8.15628E-19-1.64690E-19
 -1       899 8.86350E-05-2.51895E-05-2.71903E-05-1.31530E-05-7.71186E-19-2.37268E-19
 -1       900 8.91510E-05-2.78282E-05-2.62759E-05-1.62368E-05-9.50603E-19-3.55665E-19
 -1       901 9.18275E-05-3.28826E-05-2.52224E-05-2.01083E-05-1.94647E-18-1.35192E-18
 -1       902 8.97965E-05-2.92314E-05-2.59512E-05 1.75226E-05-6.84053E-19-1.11841E-19
 -1       903 8.94279E-05-2.35446E-05-2.82350E-05 9.18826E-06 9.65081E-19 8.58974E-19
 -1       904 9.03833E-05-2.36645E-05-2.85936E-05 7.55902E-06 3.52209E-19 4.25260E-19
 -1       905 9.13327E-05-2.41087E-05-2.88102E-05 6.20467E-06-9.13473E-19 2.19230E-19
 -1       906 9.21834E-05-2.46920E-05-2.89248E-05 5.05590E-06-7.61469E-19 1.16332E-18
 -1       907 9.29021E-05-2.53052E-05-2.89700E-05 4.07567E-06-1.24193E-18 8.81158E-19
 -1       908 9.34866E-05-2.58879E-05-2.89708E-05 3.24301E-06 7.66973E-19 6.61459E-19
 -1       909 9.39488E-05-2.64100E-05-2.89452E-05 2.54336E-06 1.05888E-18 1.06579E-18
 -1       910 9.43061E-05-2.68593E-05-2.89057E-05 1.96380E-06 4.52072E-19 8.94582E-19
 -1       911 9.45771E-05-2.72354E-05-2.88607E-05 1.49070E-06-8.56187E-19 5.07871E-19
 -1       912 9.47776E-05-2.75430E-05-2.88151E-05 1.10821E-06-2.50916E-19 6.39402E-19
 -1       913 9.49240E-05-2.77862E-05-2.87731E-05 8.08399E-07-7.30841E-19 1.21092E-18
 -1       914 9.43444E-05-2.72601E-05-2.87505E-05-1.69897E-07 1.93052E-18-1.61213E-18
 -1       915 9.50437E-05-2.79929E-05-2.87360E-05 5.85863E-07-2.03835E-18 7.28047E-19
 -1       916 9.41991E-05-2.16345E-05-3.11020E-05-2.53758E-06-1.33725E-18-2.95835E-18
 -1       917 9.44557E-05-2.73645E-05-2.87534E-05-4.52594E-07 2.22390E-18-1.03578E-18
 -1       918 6.84761E-05-1.97093E-05-2.08234E-05 1.68922E-05-2.03846E-18-1.06338E-18
 -1       919 8.92925E-05-3.57672E-05-2.28887E-05-2.50467E-05 1.95210E-18 1.72654E-18
 -1       920 9.94140E-05-4.31400E-05-2.39780E-05-2.51811E-05-3.48931E-18-1.70577E-18
 -1       921 8.86533E-05-2.40406E-05-2.76892E-05 1.12270E-05 8.16916E-19 1.08634E-18
 -1       922 8.84871E-05-2.56639E-05-2.69200E-05 1.39109E-05 3.78923E-20 1.20527E-18
 -1       923 9.00661E-05-2.39333E-05-2.83424E-05-9.09641E-06-3.29740E-19-5.77948E-19
 -1       924 9.17640E-05-3.44629E-05-2.44890E-05 2.22236E-05-8.13962E-19-6.63211E-19
 -1       925 9.54337E-05-2.48210E-05-3.02582E-05-3.93770E-07-8.11004E-19-2.49145E-18
 -1       926 9.44578E-05-2.64996E-05-2.91249E-05-3.93547E-06 2.96295E-19-4.67979E-19
 -1       927 6.55374E-05-1.98710E-05-1.94491E-05-1.87761E-05 3.91873E-19 6.64762E-19
 -1       928 9.46542E-05-2.75493E-05-2.87593E-05-6.73012E-07 9.94436E-19 3.77909E-19
 -1       929 8.41842E-05-3.40817E-05-2.12977E-05-2.71995E-05-3.25347E-18-1.43406E-18
 -1       930 9.25087E-05-1.85383E-05-3.17047E-05-9.72657E-07-3.60272E-20-2.95448E-18
 -1       931 6.30891E-05-1.50585E-05-2.04888E-05-7.88558E-06-6.93736E-20 1.70655E-18
 -1       932 9.49780E-05-2.68057E-05-2.92166E-05-3.21944E-06 3.25581E-19-9.32099E-19
 -1       933 9.48834E-05-2.77637E-05-2.87655E-05-7.95908E-07 2.42714E-18 4.55742E-18
 -1       934 9.56733E-05-2.60666E-05-2.98331E-05-6.24514E-07 1.27510E-18-1.26982E-18
 -1       935 9.30302E-05-2.54362E-05-2.89688E-05-5.54206E-06 5.12546E-19-3.14931E-19
 -1       936 9.35827E-05-2.04638E-05-3.13299E-05-1.84890E-06-6.89406E-19-2.78467E-18
 -1       937 9.38091E-05-2.60233E-05-2.90510E-05-4.69297E-06 4.65758E-19-2.53014E-19
 -1       938 9.41749E-05-2.17516E-05-3.10386E-05 9.02033E-07 9.48225E-19-2.33091E-18
 -1       939 9.43377E-05-2.72499E-05-2.87521E-05 1.35381E-07 7.86026E-19-4.16610E-18
 -1       940 6.49562E-05-1.53879E-05-2.11758E-05 8.00905E-06-1.69951E-18-4.70510E-19
 -1       941 7.82327E-05-2.78204E-05-2.14963E-05 2.34106E-05 2.45834E-18-3.50062E-18
 -1       942 5.95050E-05-1.48442E-05-1.89999E-05 8.89574E-06-2.76809E-19-2.85201E-18
 -1       943 7.99644E-05-2.68881E-05-2.26933E-05-2.03752E-05 5.98196E-19 9.96447E-19
 -1       944 9.91233E-05-4.14653E-05-2.46490E-05 2.24795E-05 2.29818E-18 2.84740E-19
 -1       945 9.39577E-05-2.13512E-05-3.11171E-05 3.16631E-07 5.54253E-19-2.47603E-18
 -1       946 6.20123E-05-1.67320E-05-1.92790E-05-1.33137E-05-1.27717E-18-2.64273E-18
 -1       947 9.56045E-05-2.66586E-05-2.95479E-05-1.64960E-06 9.19237E-19-8.63152E-19
 -1       948 9.46389E-05-2.75136E-05-2.87682E-05 6.92160E-07-4.66486E-19 1.88665E-18
 -1       949 9.53202E-05-2.62854E-05-2.95865E-05 1.59971E-06-6.18626E-19-1.63669E-18
 -1       950 9.48881E-05-2.63982E-05-2.93529E-05 2.21252E-06-6.88491E-19-1.30085E-18
 -1       951 9.42638E-05-2.62298E-05-2.91575E-05 2.80841E-06-4.31378E-19-1.69416E-18
 -1       952 9.34920E-05-2.58773E-05-2.89778E-05 3.44453E-06-9.08807E-21-1.24004E-18
 -1       953 9.26143E-05-2.54390E-05-2.87895E-05 4.17646E-06 4.33610E-20-9.26429E-19
 -1       954 9.16798E-05-2.50245E-05-2.85667E-05 5.06113E-06-1.02596E-19-9.37954E-19
 -1       955 9.07563E-05-2.47635E-05-2.82829E-05 6.16589E-06 5.79656E-20-1.06564E-18
 -1       956 8.99556E-05-2.48299E-05-2.79114E-05 7.57643E-06 3.40181E-19-9.71898E-19
 -1       957 8.94588E-05-2.54567E-05-2.74297E-05 9.39853E-06 1.98730E-19-1.10698E-18
 -1       958 8.95618E-05-2.69634E-05-2.68266E-05 1.17623E-05 6.07757E-19-9.18429E-19
 -1       959 9.07657E-05-2.98065E-05-2.61207E-05 1.47769E-05 1.32519E-18-8.75276E-19
 -1       960 9.40916E-05-3.47056E-05-2.54460E-05 1.83469E-05 1.94495E-18-3.19101E-19
 -1       961 8.95174E-05-2.32422E-05-2.84037E-05-5.68058E-06 2.74946E-19-5.81266E-19
 -1       962 9.48924E-05-2.32792E-05-3.06918E-05 1.26456E-06 1.46085E-18-1.97653E-18
 -1       963 9.06285E-05-2.94608E-05-2.62167E-05-1.44001E-05 3.84580E-19-1.19886E-18
 -1       964 8.92737E-05-2.65183E-05-2.68968E-05-1.13730E-05-5.03472E-19-2.74141E-18
 -1       965 8.90713E-05-2.49579E-05-2.74777E-05-8.97106E-06 4.95162E-20-3.57618E-18
 -1       966 8.94477E-05-2.42717E-05-2.79328E-05-7.09687E-06-4.25956E-19-3.13030E-18
 -1       967 9.01035E-05-2.41447E-05-2.82682E-05-5.62715E-06-1.39093E-19-2.09938E-18
 -1       968 9.08635E-05-2.43596E-05-2.85017E-05-4.46018E-06 6.45591E-19-6.70850E-19
 -1       969 9.16262E-05-2.47665E-05-2.86542E-05-3.52313E-06 2.82220E-19 3.36255E-19
 -1       970 9.23346E-05-2.52627E-05-2.87452E-05-2.76547E-06 1.84325E-19-2.40615E-19
 -1       971 9.29602E-05-2.57798E-05-2.87916E-05-2.15191E-06 1.16783E-18-1.56947E-18
 -1       972 9.34917E-05-2.62744E-05-2.88074E-05-1.65648E-06 7.94835E-19 1.38707E-19
 -1       973 9.39305E-05-2.67231E-05-2.88032E-05-1.25890E-06 9.37659E-19-9.85793E-20
 -1       974 9.42803E-05-2.71136E-05-2.87868E-05-9.44200E-07 1.22150E-18 5.11831E-19
 -1       975 9.55004E-05-2.57795E-05-2.98806E-05 9.07655E-07-1.21903E-19-1.77464E-18
 -1       976 8.10075E-05-2.19212E-05-2.53187E-05-1.27845E-05-5.58333E-19-1.03334E-18
 -1       977 8.34087E-05-2.14611E-05-2.65512E-05-9.95480E-06-5.43213E-19-5.93043E-19
 -1       978 8.82784E-05-2.23354E-05-2.82618E-05 5.47888E-06-1.18383E-19 1.53595E-18
 -1       979 8.65150E-05-2.16084E-05-2.78179E-05 6.69269E-06 1.29104E-18 2.60948E-18
 -1       980 9.09991E-05-2.39989E-05-2.87146E-05 3.67145E-06-8.46917E-19 1.13367E-19
 -1       981 9.20001E-05-2.47865E-05-2.88060E-05 2.96741E-06-3.85070E-19 3.00974E-19
 -1       982 9.28009E-05-2.54959E-05-2.88451E-05 2.36683E-06 5.44290E-19 1.03763E-18
 -1       983 9.34321E-05-2.61135E-05-2.88510E-05 1.85957E-06 1.02887E-18 1.58731E-18
 -1       984 9.39223E-05-2.66366E-05-2.88369E-05 1.43888E-06-3.69858E-19 3.59696E-18
 -1       985 9.42971E-05-2.70688E-05-2.88119E-05 1.09557E-06-8.44408E-19 1.89056E-18
 -1       986 7.78068E-05-2.08811E-05-2.43687E-05 1.33023E-05-1.17659E-18-4.28801E-19
 -1       987 7.22466E-05-2.04498E-05-2.21434E-05 1.47899E-05 7.81190E-19-2.04867E-18
 -1       988 8.44823E-05-2.11345E-05-2.71512E-05 8.29515E-06 5.80652E-19 1.67358E-18
 -1       989 9.44383E-05-2.73365E-05-2.87580E-05 4.28292E-07 8.08254E-19-3.22025E-18
 -1       990 8.22698E-05-2.11568E-05-2.61870E-05 1.06082E-05 1.18274E-19 4.55772E-19
 -1       991 9.51536E-05-2.40388E-05-3.04829E-05-3.55309E-07-6.16824E-19-2.38400E-18
 -1       992 7.67903E-05-2.51263E-05-2.20624E-05-2.07133E-05-1.40779E-18-9.78052E-19
 -1       993 8.97674E-05-2.31632E-05-2.85450E-05 4.49653E-06-9.78378E-19 5.16298E-20
 -1       994 9.43045E-05-2.71652E-05-2.87741E-05-7.53886E-07 5.09322E-19-1.89534E-18
 -1       995 9.55345E-05-2.53020E-05-3.00995E-05 3.88849E-07 1.51013E-18-1.41426E-18
 -1       996 9.53697E-05-2.68886E-05-2.93493E-05-2.48247E-06 7.08105E-19-8.61045E-19
 -1       997 7.87555E-05-2.29172E-05-2.39006E-05-1.61105E-05-8.44554E-19-1.45652E-18
 -1       998 9.54148E-05-2.50359E-05-3.01625E-05 3.12066E-07-3.39472E-19-2.33083E-18
 -1       999 9.40898E-05-2.69748E-05-2.87636E-05-4.19473E-07 1.44040E-18-1.57763E-18
 -1      1000 9.22498E-05-3.28538E-05-2.54279E-05-1.78477E-05 1.50480E-18-6.08423E-19
 -1      1001 9.42786E-05-2.61419E-05-2.92014E-05-2.90744E-06 1.50930E-19-7.89171E-19
 -1      1002 9.10537E-05-2.41272E-05-2.86831E-05-4.84903E-06 3.68138E-19-5.51222E-19
 -1      1003 8.77320E-05-2.24032E-05-2.79981E-05-6.71156E-06-3.78500E-19-5.02285E-19
 -1      1004 9.35125E-05-2.03918E-05-3.13408E-05-9.99418E-07-2.97413E-19-2.64290E-18
 -1      1005 9.40076E-05-2.68985E-05-2.87611E-05-3.08645E-08 2.00592E-18-1.11876E-18
 -1      1006 9.34182E-05-2.56430E-05-2.90465E-05-3.50065E-06 1.03109E-19-8.59910E-19
 -1      1007 8.28938E-05-2.60727E-05-2.43380E-05 1.64298E-05 1.61737E-18-2.10913E-18
 -1      1008 6.15707E-05-1.42491E-05-2.01982E-05-1.70398E-06-4.92132E-19-1.84953E-18
 -1      1009 9.48137E-05-2.33146E-05-3.06439E-05 2.03114E-07 6.45117E-19-2.10533E-18
 -1      1010 7.29211E-05-2.00665E-05-2.26122E-05-1.36719E-05 7.65365E-19 2.96088E-19
 -1      1011 9.39644E-05-2.13544E-05-3.11154E-05-3.14843E-07 1.47936E-20-2.53913E-18
 -1      1012 9.39654E-05-2.68026E-05-2.87841E-05 6.94502E-07-4.68244E-19-4.79559E-19
 -1      1013 9.55307E-05-2.57917E-05-2.98854E-05-8.61359E-07 7.40501E-19-1.36353E-18
 -1      1014 8.56853E-05-2.17393E-05-2.74058E-05-8.05802E-06-6.52993E-19-5.66966E-19
 -1      1015 9.51715E-05-2.40820E-05-3.04674E-05 4.00531E-07 1.00922E-18-1.79144E-18
 -1      1016 9.49327E-05-2.63915E-05-2.93751E-05-2.30179E-06 5.37610E-19-7.42178E-19
 -1      1017 9.53065E-05-2.51437E-05-3.00694E-05-4.27389E-07 4.92041E-19-1.55726E-18
 -1      1018 9.42556E-05-2.59252E-05-2.92848E-05 1.71322E-06-6.87904E-19-1.33248E-18
 -1      1019 9.33707E-05-2.55692E-05-2.90582E-05 2.17554E-06-1.54606E-19-7.63406E-19
 -1      1020 9.22887E-05-2.50249E-05-2.88275E-05 2.71502E-06 1.47827E-19-1.00876E-18
 -1      1021 9.10306E-05-2.43807E-05-2.85642E-05 3.38561E-06 4.01788E-20-1.21746E-18
 -1      1022 8.96297E-05-2.37457E-05-2.82366E-05 4.25281E-06 1.98979E-19-6.19032E-19
 -1      1023 8.81057E-05-2.32221E-05-2.78086E-05 5.42417E-06 1.07104E-20-6.32282E-19
 -1      1024 8.65207E-05-2.29708E-05-2.72380E-05 7.03097E-06 4.06448E-19-9.78029E-19
 -1      1025 8.49641E-05-2.31936E-05-2.64757E-05 9.27793E-06 5.91919E-20-1.11091E-18
 -1      1026 8.36374E-05-2.40740E-05-2.55285E-05 1.22650E-05 6.66709E-19-1.87102E-18
 -1      1027 7.24484E-05-1.66879E-05-2.38856E-05 5.50432E-06-5.51404E-19-1.19862E-18
 -1      1028 8.33758E-05-2.37559E-05-2.55555E-05-1.21774E-05-1.14495E-18-4.70935E-19
 -1      1029 8.45866E-05-2.26893E-05-2.65318E-05-8.98620E-06-5.47301E-19-3.95178E-19
 -1      1030 8.60042E-05-2.23974E-05-2.72613E-05-6.72432E-06 3.19093E-19-1.42664E-18
 -1      1031 8.74171E-05-2.25704E-05-2.77921E-05-5.09399E-06 4.80120E-19-9.11998E-19
 -1      1032 8.87481E-05-2.30229E-05-2.81684E-05-3.88988E-06 9.22204E-19-5.51280E-19
 -1      1033 8.99541E-05-2.36283E-05-2.84257E-05-2.98372E-06 3.52889E-19-9.13006E-19
 -1      1034 9.10148E-05-2.42974E-05-2.85934E-05-2.29027E-06-1.37357E-19-1.66711E-18
 -1      1035 9.19242E-05-2.49688E-05-2.86954E-05-1.75309E-06 1.08027E-19-1.68078E-18
 -1      1036 9.26876E-05-2.56030E-05-2.87507E-05-1.33445E-06 5.89532E-19-2.31065E-18
 -1      1037 9.33121E-05-2.61733E-05-2.87741E-05-1.00924E-06 4.51711E-19-3.47799E-18
 -1      1038 7.71739E-05-1.85724E-05-2.51117E-05-6.97240E-06-1.70005E-19-1.22343E-18
 -1      1039 8.26522E-05-1.96809E-05-2.69914E-05 4.60306E-06 3.77831E-19-7.26922E-19
 -1      1040 8.52900E-05-2.07202E-05-2.76747E-05 3.81291E-06 1.43806E-18 7.31075E-19
 -1      1041 9.25204E-05-2.53759E-05-2.87766E-05 1.46364E-06-1.26392E-19 1.30479E-18
 -1      1042 9.23450E-05-2.49480E-05-2.88847E-05-4.13308E-06 5.26239E-19-3.98357E-19
 -1      1043 9.16303E-05-2.46138E-05-2.87218E-05 1.81988E-06-5.56209E-19-4.50021E-19
 -1      1044 9.05152E-05-2.37502E-05-2.86142E-05 2.22423E-06-4.64597E-19 2.99491E-19
 -1      1045 9.32182E-05-2.60273E-05-2.87964E-05 1.16003E-06 4.38092E-19 1.21644E-18
 -1      1046 9.36190E-05-2.64352E-05-2.87932E-05 9.04978E-07 2.26928E-19-1.92114E-19
 -1      1047 6.88878E-05-1.67734E-05-2.22997E-05 7.33854E-06 7.91575E-20-1.82140E-18
 -1      1048 9.47264E-05-2.31251E-05-3.06861E-05 3.01337E-08 2.63697E-19-1.95905E-18
 -1      1049 9.39329E-05-2.68063E-05-2.87683E-05 3.16614E-07 5.97079E-19-2.82657E-18
 -1      1050 7.93525E-05-1.87141E-05-2.59961E-05 5.71150E-06-9.94042E-19-1.61017E-18
 -1      1051 8.16005E-05-2.48519E-05-2.43139E-05-1.56657E-05 9.53210E-20-7.47655E-20
 -1      1052 9.53910E-05-2.61017E-05-2.96967E-05-1.34128E-06 5.99352E-19-1.17008E-18
 -1      1053 9.52726E-05-2.56799E-05-2.98248E-05 8.38470E-07-1.28268E-19-1.62486E-18
 -1      1054 6.85518E-05-1.75140E-05-2.17985E-05-1.13597E-05-1.02319E-18-1.63461E-18
 -1      1055 8.74118E-05-2.17746E-05-2.81314E-05 3.19722E-06-1.49346E-19 8.29481E-19
 -1      1056 8.11586E-05-1.95763E-05-2.63928E-05-5.53246E-06-6.64114E-19-1.16648E-18
 -1      1057 9.49056E-05-2.59974E-05-2.95323E-05 1.27905E-06-4.52020E-19-1.57847E-18
 -1      1058 6.86363E-05-1.56512E-05-2.26906E-05-3.87828E-06-2.50321E-19-4.38962E-19
 -1      1059 8.91279E-05-2.27961E-05-2.84287E-05 2.67950E-06-3.38660E-19 1.56371E-18
 -1      1060 7.63882E-05-2.01085E-05-2.41123E-05 1.02913E-05 7.18020E-19-1.08927E-18
 -1      1061 9.52972E-05-2.50892E-05-3.00887E-05 4.40566E-07 2.61970E-19-1.60650E-18
 -1      1062 9.38168E-05-2.66715E-05-2.87764E-05-7.56658E-07 7.89411E-19-3.15071E-18
 -1      1063 9.51682E-05-2.42526E-05-3.03923E-05 5.32482E-08-9.72148E-20-1.71838E-18
 -1      1064 9.34156E-05-2.54818E-05-2.91149E-05-2.21259E-06 4.93564E-20-3.55761E-19
 -1      1065 9.36229E-05-2.65033E-05-2.87651E-05-2.86474E-07 1.36519E-18-1.79199E-18
 -1      1066 9.43319E-05-2.59001E-05-2.93282E-05-1.80690E-06 3.39093E-19-5.89560E-19
 -1      1067 9.52035E-05-2.49054E-05-3.01280E-05-6.63278E-08 2.04151E-19-1.70781E-18
 -1      1068 8.68955E-05-2.17920E-05-2.79020E-05-3.95793E-06-6.27965E-20-2.71112E-19
 -1      1069 8.89951E-05-2.28796E-05-2.83359E-05-3.43276E-06 2.47906E-19-5.73442E-19
 -1      1070 7.34655E-05-1.80725E-05-2.37072E-05-8.74567E-06-2.77595E-19-1.13821E-18
 -1      1071 8.43111E-05-2.06548E-05-2.72826E-05-4.61076E-06-2.07282E-19-7.58456E-19
 -1      1072 9.25478E-05-2.54706E-05-2.87471E-05 6.40286E-07 2.85680E-19-3.49778E-18
 -1      1073 9.44094E-05-2.57367E-05-2.94317E-05 6.74056E-07-2.59515E-19-1.59570E-18
 -1      1074 9.23938E-05-2.49034E-05-2.89241E-05 1.20203E-06 3.37830E-20-1.08347E-18
 -1      1075 9.10139E-05-2.41704E-05-2.86480E-05 1.57939E-06 1.91972E-20-7.09402E-19
 -1      1076 8.93609E-05-2.32952E-05-2.83103E-05 2.13300E-06 3.51705E-19-9.20614E-19
 -1      1077 8.74088E-05-2.23697E-05-2.78712E-05 2.88965E-06 1.04607E-19-1.25937E-18
 -1      1078 8.51663E-05-2.15028E-05-2.72830E-05 3.94219E-06-1.38481E-19-1.26992E-18
 -1      1079 8.25322E-05-2.07533E-05-2.64767E-05 5.47671E-06 2.49274E-19-1.20971E-18
 -1      1080 8.13944E-05-1.93836E-05-2.65771E-05-1.16013E-06-1.29848E-19-7.85311E-19
 -1      1081 8.20435E-05-2.01940E-05-2.65069E-05-5.29057E-06-2.59437E-19 1.31275E-18
 -1      1082 8.44932E-05-2.08534E-05-2.72751E-05-3.77290E-06-6.34874E-20 4.46570E-19
 -1      1083 8.65392E-05-2.16410E-05-2.78141E-05-2.70904E-06 3.66412E-19-7.68588E-19
 -1      1084 8.82579E-05-2.24925E-05-2.81856E-05-1.95828E-06-3.25558E-19-3.10837E-18
 -1      1085 8.97010E-05-2.33547E-05-2.84345E-05-1.42198E-06 2.89967E-19-4.27415E-18
 -1      1086 9.09044E-05-2.41854E-05-2.85942E-05-1.03568E-06 4.29515E-19-3.17265E-18
 -1      1087 9.18971E-05-2.49547E-05-2.86899E-05-7.56268E-07 3.03065E-19-9.73823E-19
 -1      1088 9.27188E-05-2.56511E-05-2.87416E-05-5.53738E-07-2.16087E-19-6.94305E-19
 -1      1089 7.38872E-05-1.73546E-05-2.42475E-05 3.28066E-06 1.74457E-19-1.08180E-18
 -1      1090 7.69665E-05-2.00736E-05-2.43692E-05-1.04920E-05-4.24795E-19 1.31627E-18
 -1      1091 9.22343E-05-2.48013E-05-2.89002E-05-2.61154E-06 1.25353E-19-7.08651E-19
 -1      1092 7.55212E-05-1.70762E-05-2.50557E-05 1.09492E-07-2.29706E-19-1.50734E-18
 -1      1093 8.46212E-05-2.07062E-05-2.73943E-05-1.28262E-06 3.23014E-22-8.56315E-19
 -1      1094 8.27374E-05-1.95221E-05-2.70907E-05 1.12956E-06-3.32477E-19-2.15100E-18
 -1      1095 9.16646E-05-2.47159E-05-2.86919E-05 7.79570E-07 7.75867E-19-1.13589E-18
 -1      1096 8.74932E-05-2.18433E-05-2.81353E-05 1.10628E-06-8.93951E-19 2.54763E-20
 -1      1097 9.05614E-05-2.38561E-05-2.85877E-05 9.06581E-07 4.49432E-19 1.94887E-18
 -1      1098 7.95783E-05-1.83424E-05-2.62424E-05 7.41226E-07-8.63414E-19-1.57958E-18
 -1      1099 8.91900E-05-2.28939E-05-2.84123E-05 1.02085E-06 5.37107E-20 1.15639E-18
 -1      1100 8.53886E-05-2.07196E-05-2.77150E-05 1.14665E-06 3.58759E-20-2.25922E-19
 -1      1101 6.96048E-05-1.60086E-05-2.29491E-05-2.55800E-06-4.99311E-20-1.59969E-18
 -1      1102 9.32112E-05-2.61051E-05-2.87594E-05-4.03864E-07 2.71899E-19-1.15423E-18
 -1      1103 7.72562E-05-1.79580E-05-2.54173E-05-1.05187E-06-1.25287E-19-1.46514E-18
 -1      1104 9.49799E-05-2.56381E-05-2.97162E-05 4.60959E-07-9.53041E-20-1.80668E-18
 -1      1105 7.96150E-05-1.98944E-05-2.55856E-05-7.40516E-06-4.76198E-19 1.59340E-18
 -1      1106 9.50524E-05-2.58658E-05-2.96502E-05-1.08558E-06 1.58404E-19-1.07559E-18
 -1      1107 9.35301E-05-2.54518E-05-2.91760E-05 9.18825E-07-5.98716E-20-1.05305E-18
 -1      1108 7.97673E-05-2.03010E-05-2.54737E-05 7.45608E-06 2.17950E-19-9.42967E-19
 -1      1109 8.72073E-05-2.19413E-05-2.79737E-05-1.32034E-06-1.41050E-19-7.25859E-19
 -1      1110 9.31065E-05-2.59835E-05-2.87659E-05 4.69300E-07 4.93321E-19-2.51848E-18
 -1      1111 9.35509E-05-2.64341E-05-2.87646E-05 2.54470E-08 1.09100E-18-1.44454E-18
 -1      1112 9.36741E-05-2.54738E-05-2.92294E-05-9.65331E-07 1.26818E-19-9.47878E-19
 -1      1113 9.35587E-05-2.64236E-05-2.87715E-05 3.88916E-07 7.43178E-19-2.14812E-18
 -1      1114 9.07653E-05-2.39061E-05-2.86526E-05-2.99987E-06 5.10962E-19-3.59510E-19
 -1      1115 9.25222E-05-2.48943E-05-2.89837E-05-1.11339E-06 1.56215E-19-9.49922E-19
 -1      1116 9.51968E-05-2.52878E-05-2.99623E-05 3.05351E-07 1.54376E-20-1.69059E-18
 -1      1117 9.49446E-05-2.56407E-05-2.97023E-05-3.56233E-07-1.21797E-19-1.46670E-18
 -1      1118 8.97970E-05-2.33776E-05-2.84683E-05 1.73771E-08 4.28532E-19-1.32913E-18
 -1      1119 9.44261E-05-2.56981E-05-2.94528E-05-6.36342E-07 9.46993E-21-1.14322E-18
 -1      1120 9.12573E-05-2.41774E-05-2.87471E-05-6.61957E-07 2.09000E-20-1.17180E-18
 -1      1121 9.31478E-05-2.60471E-05-2.87588E-05 1.24654E-07-4.08476E-19-2.10372E-18
 -1      1122 1.16506E-04 2.56667E-10-4.17413E-05-4.13185E-05-4.08270E-19 1.49266E-17
 -1      1123 8.85285E-05 7.19415E-11-3.71968E-05-2.40551E-05-2.35475E-19 2.57366E-18
 -1      1124 8.40624E-05 4.15587E-11-3.57557E-05-1.77515E-05-1.64483E-19-2.81179E-18
 -1      1125 8.23825E-05 3.20570E-11-3.50902E-05-1.36954E-05-1.08632E-19-5.38089E-18
 -1      1126 8.16146E-05 2.72350E-11-3.47729E-05-1.03920E-05-7.54786E-20-6.62498E-18
 -1      1127 8.12291E-05 2.43749E-11-3.46165E-05-7.51443E-06-4.16436E-20-7.14530E-18
 -1      1128 8.10255E-05 2.25913E-11-3.45371E-05-4.88480E-06-2.43390E-20-7.26236E-18
 -1      1129 8.09244E-05 2.16104E-11-3.44993E-05-2.38182E-06-5.45112E-21-7.19538E-18
 -1      1130 8.08956E-05 2.13105E-11-3.44888E-05 5.11207E-08 1.30901E-20-7.07173E-18
 -1      1131 8.09300E-05 2.16568E-11-3.45013E-05 2.48675E-06 3.53736E-20-6.86773E-18
 -1      1132 8.10366E-05 2.26948E-11-3.45410E-05 4.99844E-06 5.55965E-20-6.57591E-18
 -1      1133 8.12475E-05 2.45375E-11-3.46218E-05 7.64465E-06 7.63124E-20-6.05773E-18
 -1      1134 8.16397E-05 2.75535E-11-3.47802E-05 1.05510E-05 1.00810E-19-5.11742E-18
 -1      1135 8.24078E-05 3.25390E-11-3.51006E-05 1.39026E-05 1.36584E-19-3.47795E-18
 -1      1136 8.40577E-05 4.20318E-11-3.57753E-05 1.80037E-05 1.82959E-19-3.73899E-19
 -1      1137 8.82247E-05 6.67817E-11-3.72654E-05 2.39005E-05 2.09323E-19 5.57525E-18
 -1      1138 1.06299E-04 1.63505E-10-4.05220E-05 3.60665E-05 4.25634E-19 1.76414E-17
 -1      1139 1.29746E-04-2.56665E-05-4.01440E-05-2.60052E-05-1.72784E-18 2.27924E-17
 -1      1140 9.71421E-05-2.87695E-05-3.14805E-05-6.73895E-07-5.90911E-19 1.87735E-17
 -1      1141 8.99399E-05-2.69624E-05-2.78257E-05 3.85801E-07-2.06808E-19 1.31213E-17
 -1      1142 8.81197E-05-2.65358E-05-2.66064E-05 2.48771E-07-1.52337E-19 9.16990E-18
 -1      1143 8.78785E-05-2.64450E-05-2.63873E-05 1.63934E-07-1.11458E-19 6.33819E-18
 -1      1144 8.84036E-05-2.65727E-05-2.65240E-05 1.16614E-07-9.53061E-20 4.43141E-18
 -1      1145 8.93286E-05-2.68301E-05-2.68008E-05 8.72632E-08-7.93903E-20 3.23205E-18
 -1      1146 9.04837E-05-2.71656E-05-2.71484E-05 6.82705E-08-5.48644E-20 2.04908E-18
 -1      1147 9.17928E-05-2.75528E-05-2.75429E-05 5.60609E-08-1.46784E-19 5.80343E-19
 -1      1148 9.32325E-05-2.79821E-05-2.79778E-05 4.91101E-08-5.99818E-20-8.84898E-19
 -1      1149 9.48117E-05-2.84548E-05-2.84555E-05 4.68408E-08-9.19825E-21-2.09222E-18
 -1      1150 9.65579E-05-2.89782E-05-2.89836E-05 4.90523E-08 9.43296E-20-1.79406E-18
 -1      1151 9.85037E-05-2.95612E-05-2.95705E-05 5.55449E-08-9.71114E-20-2.74622E-18
 -1      1152 1.00671E-04-3.02095E-05-3.02211E-05 6.57156E-08 5.82794E-20-2.53079E-18
 -1      1153 1.03049E-04-3.09188E-05-3.09293E-05 7.79713E-08-1.95529E-19-2.70507E-18
 -1      1154 1.05566E-04-3.16664E-05-3.16696E-05 8.88587E-08 6.06107E-20-3.76950E-18
 -1      1155 1.08049E-04-3.24001E-05-3.23863E-05 9.19603E-08-5.47180E-21-3.09584E-18
 -1      1156 1.10189E-04-3.30269E-05-3.29835E-05 7.70049E-08-6.87751E-20-2.83360E-18
 -1      1157 1.11515E-04-3.34075E-05-3.33228E-05 3.04485E-08-1.32470E-19-3.99203E-18
 -1      1158 1.11431E-04-3.33668E-05-3.32389E-05-6.01409E-08 2.47625E-20-3.60468E-18
 -1      1159 1.09355E-04-3.27374E-05-3.25859E-05-1.95551E-07 1.18452E-21-3.72700E-18
 -1      1160 1.05007E-04-3.14450E-05-3.13180E-05-3.49867E-07 1.84858E-20-2.12912E-18
 -1      1161 9.87876E-05-2.96164E-05-2.95799E-05-4.61765E-07 5.21157E-20 9.21148E-20
 -1      1162 9.20163E-05-2.76432E-05-2.77455E-05-4.53503E-07-1.64993E-19-2.48938E-18
 -1      1163 8.67033E-05-2.61055E-05-2.63373E-05-2.83204E-07 1.34837E-19-3.66916E-18
 -1      1164 8.47360E-05-2.55387E-05-2.58223E-05 5.80951E-09 4.44163E-20-4.80086E-18
 -1      1165 8.68775E-05-2.61562E-05-2.63845E-05 2.92623E-07 2.40875E-21-5.34737E-18
 -1      1166 9.23102E-05-2.77288E-05-2.78259E-05 4.56902E-07 1.11114E-19-6.19869E-18
 -1      1167 9.91198E-05-2.97145E-05-2.96732E-05 4.58554E-07-3.97708E-21-5.06060E-18
 -1      1168 1.05312E-04-3.15364E-05-3.14076E-05 3.43294E-07 1.32690E-19-5.03693E-18
 -1      1169 1.09614E-04-3.28164E-05-3.26657E-05 1.89333E-07-3.02483E-19-4.82377E-18
 -1      1170 1.11667E-04-3.34396E-05-3.33142E-05 5.61158E-08-7.59683E-20-6.55016E-18
 -1      1171 1.11776E-04-3.34884E-05-3.34068E-05-3.17553E-08 4.44924E-19-4.84144E-18
 -1      1172 1.10536E-04-3.31339E-05-3.30936E-05-7.56968E-08-6.62820E-20-5.21701E-18
 -1      1173 1.08548E-04-3.25528E-05-3.25420E-05-8.81937E-08 2.14740E-20-5.47035E-18
 -1      1174 1.06286E-04-3.18853E-05-3.18919E-05-8.26026E-08 1.88178E-19-5.53776E-18
 -1      1175 1.04062E-04-3.12257E-05-3.12401E-05-6.89059E-08-7.60014E-20-6.12140E-18
 -1      1176 1.02055E-04-3.06278E-05-3.06441E-05-5.32085E-08-4.07285E-19-4.22647E-18
 -1      1177 1.00344E-04-3.01161E-05-3.01313E-05-3.86575E-08 6.25481E-20-3.83417E-18
 -1      1178 9.89456E-05-2.96966E-05-2.97093E-05-2.65366E-08-8.38571E-20-4.02217E-18
 -1      1179 9.78404E-05-2.93641E-05-2.93741E-05-1.71050E-08-1.56041E-19-3.84943E-18
 -1      1180 9.69927E-05-2.91083E-05-2.91159E-05-1.01312E-08-3.64058E-19-7.40969E-18
 -1      1181 9.63608E-05-2.89171E-05-2.89226E-05-5.19226E-09 2.54853E-19-6.63607E-18
 -1      1182 9.59037E-05-2.87785E-05-2.87823E-05-1.82189E-09 1.21966E-19-4.94580E-18
 -1      1183 9.55855E-05-2.86816E-05-2.86843E-05 4.34577E-10 3.01891E-19-5.79647E-18
 -1      1184 9.53761E-05-2.86175E-05-2.86197E-05 2.02543E-09 2.20091E-19-3.78386E-18
 -1      1185 9.52525E-05-2.85793E-05-2.85814E-05 3.43533E-09 1.53482E-19-1.86073E-18
 -1      1186 9.51978E-05-2.85619E-05-2.85638E-05 5.17294E-09-1.26056E-19-1.55444E-18
 -1      1187 9.51999E-05-2.85631E-05-2.85603E-05 8.09606E-09-4.34797E-19-2.62101E-18
 -1      1188 9.52244E-05-2.85675E-05-2.85608E-05 4.00232E-09 7.31372E-19-5.57992E-19
 -1      1189 1.30570E-04-3.75913E-05-3.85342E-05 1.21367E-05-3.11073E-19 2.74824E-17
 -1      1190 9.62417E-05-2.80963E-05-3.12319E-05 7.99336E-07 1.60248E-19 2.24168E-17
 -1      1191 9.01441E-05-2.68625E-05-2.78038E-05 1.22021E-07 1.54147E-19 1.72628E-17
 -1      1192 8.81947E-05-2.64596E-05-2.66388E-05 1.32649E-08 3.66176E-20 1.38066E-17
 -1      1193 8.79046E-05-2.64032E-05-2.64096E-05-1.88694E-08 1.13770E-19 1.11407E-17
 -1      1194 8.84086E-05-2.65499E-05-2.65344E-05-2.57287E-08 8.07254E-20 9.12948E-18
 -1      1195 8.93248E-05-2.68179E-05-2.68059E-05-2.46148E-08 5.27108E-20 7.95339E-18
 -1      1196 9.04809E-05-2.71607E-05-2.71530E-05-2.04604E-08-3.83179E-20 7.34715E-18
 -1      1197 9.18049E-05-2.75565E-05-2.75521E-05-1.49356E-08 2.52604E-20 5.89785E-18
 -1      1198 9.32834E-05-2.80002E-05-2.79997E-05-8.99632E-09 1.17468E-19 5.33274E-18
 -1      1199 9.49438E-05-2.84994E-05-2.85042E-05-3.53803E-09 8.67477E-20 4.66519E-18
 -1      1200 9.68433E-05-2.90709E-05-2.90827E-05 3.28017E-10-2.92342E-20 4.39623E-18
 -1      1201 9.90613E-05-2.97377E-05-2.97584E-05 1.01035E-09 5.33143E-20 4.34471E-18
 -1      1202 1.01688E-04-3.05259E-05-3.05574E-05-3.87081E-09 1.03007E-19 3.32169E-18
 -1      1203 1.04809E-04-3.14593E-05-3.15023E-05-1.77701E-08 1.47139E-20 2.44750E-18
 -1      1204 1.08469E-04-3.25492E-05-3.26013E-05-4.51931E-08 6.43290E-20 1.37092E-18
 -1      1205 1.12619E-04-3.37782E-05-3.38297E-05-9.06263E-08-2.93231E-19 2.20930E-18
 -1      1206 1.17024E-04-3.50741E-05-3.51016E-05-1.54956E-07 1.80462E-19 1.81577E-18
 -1      1207 1.21135E-04-3.62750E-05-3.62357E-05-2.27443E-07 1.02670E-19 4.07820E-19
 -1      1208 1.23970E-04-3.70985E-05-3.69333E-05-2.73461E-07-5.10602E-20 5.65368E-19
 -1      1209 1.24127E-04-3.71473E-05-3.68102E-05-2.27280E-07-1.01644E-19 2.42222E-18
 -1      1210 1.20166E-04-3.60139E-05-3.55371E-05-1.52920E-08-1.36518E-20 3.78258E-18
 -1      1211 1.11563E-04-3.35348E-05-3.31007E-05 3.66766E-07-3.98271E-20 2.58472E-18
 -1      1212 9.99842E-05-3.01433E-05-3.00580E-05 7.56850E-07 2.31550E-19 9.76311E-19
 -1      1213 8.96865E-05-2.70207E-05-2.75036E-05 8.66395E-07-1.04311E-19 1.50444E-18
 -1      1214 8.56270E-05-2.56773E-05-2.65533E-05 5.34977E-07-1.49422E-19 2.19967E-18
 -1      1215 8.99835E-05-2.68772E-05-2.76730E-05-6.86737E-08-1.69671E-19 2.59404E-18
 -1      1216 1.00454E-04-3.00183E-05-3.03332E-05-5.68225E-07-1.23713E-20 7.47295E-19
 -1      1217 1.12041E-04-3.35701E-05-3.33706E-05-7.29680E-07-2.63043E-20-1.45266E-19
 -1      1218 1.20534E-04-3.61842E-05-3.57315E-05-5.95345E-07-6.97942E-20 7.12672E-19
 -1      1219 1.24361E-04-3.73528E-05-3.69182E-05-3.44549E-07 1.87810E-19-1.90506E-18
 -1      1220 1.24124E-04-3.72724E-05-3.69822E-05-1.19788E-07 1.15779E-19-3.03620E-18
 -1      1221 1.21295E-04-3.64072E-05-3.62671E-05 2.59830E-08 3.74911E-20-2.75010E-18
 -1      1222 1.17278E-04-3.51896E-05-3.51546E-05 9.77908E-08-2.75449E-19-8.24163E-19
 -1      1223 1.13043E-04-3.39133E-05-3.39352E-05 1.20026E-07-4.66985E-20-5.14917E-19
 -1      1224 1.09134E-04-3.27388E-05-3.27839E-05 1.15479E-07 9.34966E-20-2.51346E-18
 -1      1225 1.05784E-04-3.17343E-05-3.17837E-05 9.94268E-08 6.32749E-19-6.21235E-18
 -1      1226 1.03048E-04-3.09145E-05-3.09595E-05 8.03885E-08 6.13603E-20-5.40157E-18
 -1      1227 1.00886E-04-3.02669E-05-3.03044E-05 6.24281E-08 9.21297E-20-7.26703E-18
 -1      1228 9.92207E-05-2.97679E-05-2.97977E-05 4.71085E-08 5.33453E-20-8.45018E-18
 -1      1229 9.79652E-05-2.93915E-05-2.94145E-05 3.47481E-08 2.65228E-19-8.16251E-18
 -1      1230 9.70375E-05-2.91133E-05-2.91306E-05 2.51231E-08-4.39970E-19-5.80766E-18
 -1      1231 9.63665E-05-2.89119E-05-2.89248E-05 1.78219E-08-2.43225E-19-3.52724E-18
 -1      1232 9.58930E-05-2.87697E-05-2.87792E-05 1.24054E-08 3.14243E-19-2.83772E-18
 -1      1233 9.55701E-05-2.86727E-05-2.86797E-05 8.45387E-09-7.59168E-20-2.01891E-18
 -1      1234 9.53619E-05-2.86101E-05-2.86154E-05 5.55181E-09-3.56922E-19-1.46701E-18
 -1      1235 9.52419E-05-2.85738E-05-2.85783E-05 3.22184E-09-2.60926E-20-5.93467E-18
 -1      1236 9.51915E-05-2.85583E-05-2.85621E-05 5.98770E-10 1.34912E-19-8.54471E-18
 -1      1237 9.51962E-05-2.85588E-05-2.85599E-05-3.66213E-09 7.55627E-19-9.89633E-18
 -1      1238 9.52255E-05-2.85685E-05-2.85606E-05-3.83713E-09-8.22288E-20-6.78220E-18
 -1      1239 9.52399E-05-2.85833E-05-2.85611E-05-4.22694E-09-7.39343E-18-5.11566E-19
 -1      1240 9.52473E-05-2.86098E-05-2.85611E-05-7.04239E-09-8.56027E-18 3.33137E-19
 -1      1241 9.52462E-05-2.86059E-05-2.85655E-05-2.32575E-09-1.03779E-18-4.42798E-19
 -1      1242 9.52305E-05-2.85519E-05-2.85809E-05 1.44479E-09 6.91909E-18 4.31725E-19
 -1      1243 9.52038E-05-2.84602E-05-2.86062E-05 3.59907E-09 1.01651E-17 3.76540E-19
 -1      1244 9.51728E-05-2.83543E-05-2.86356E-05 4.19951E-09 7.56109E-20-1.43139E-18
 -1      1245 9.51446E-05-2.82574E-05-2.86627E-05 3.59845E-09-9.31692E-18 4.35137E-19
 -1      1246 9.51247E-05-2.81892E-05-2.86818E-05 2.06383E-09-6.42173E-18 6.00074E-19
 -1      1247 9.51174E-05-2.81645E-05-2.86888E-05 7.11626E-11-4.16326E-18-4.17768E-19
 -1      1248 9.51242E-05-2.81879E-05-2.86822E-05-1.92084E-09-2.33357E-18 6.79578E-19
 -1      1249 9.51437E-05-2.82546E-05-2.86635E-05-3.44980E-09-1.91358E-18-7.71329E-19
 -1      1250 9.51716E-05-2.83501E-05-2.86368E-05-4.11624E-09-2.71521E-18 7.99103E-19
 -1      1251 9.52022E-05-2.84549E-05-2.86077E-05-3.54023E-09-2.20463E-18 3.73109E-19
 -1      1252 9.52288E-05-2.85463E-05-2.85825E-05-1.53047E-09-1.80453E-18-3.04527E-19
 -1      1253 9.52458E-05-2.86024E-05-2.85667E-05 2.39446E-09-3.81203E-18-2.58571E-19
 -1      1254 9.52449E-05-2.86048E-05-2.85615E-05 1.05914E-08-4.59520E-18-3.11027E-19
 -1      1255 9.52406E-05-2.85846E-05-2.85612E-05 5.16410E-09-5.93506E-20 9.25674E-19
 -1      1256 3.49790E-05-1.08677E-04 1.83281E-05-1.29217E-05 1.14794E-17 1.96300E-18
 -1      1257 1.95410E-05-7.12779E-05 1.09432E-05-2.67968E-05 2.12114E-17 7.72642E-18
 -1      1258 7.30595E-06-1.58177E-05-3.71039E-06-5.90921E-06 2.38338E-17 1.33323E-17
 -1      1259 2.63448E-05 2.10034E-05-2.25150E-05 4.25738E-05 2.12978E-17 1.91141E-17
 -1      1260 8.76311E-05 1.88744E-05-4.19035E-05 9.18860E-05 1.54135E-17 1.98002E-17
 -1      1261 1.79916E-04-1.87459E-05-5.97991E-05 1.11121E-04 8.64143E-18 1.67357E-17
 -1      1262 2.70658E-04-6.82532E-05-7.29705E-05 8.27426E-05 2.55995E-18 9.55707E-18
 -1      1263 3.13780E-04-9.42890E-05-7.85853E-05 9.54493E-06 9.70382E-19-1.38130E-18
 -1      1264 2.86357E-04-7.80357E-05-7.49899E-05-6.97242E-05 4.13776E-18-1.61902E-17
 -1      1265 1.99941E-04-2.91125E-05-6.30197E-05-1.10086E-04 1.19614E-17-2.71271E-17
 -1      1266 1.01535E-04 1.43793E-05-4.51350E-05-9.81769E-05 2.18009E-17-3.00307E-17
 -1      1267 3.16537E-05 2.21195E-05-2.45750E-05-4.83160E-05 2.74811E-17-2.58345E-17
 -1      1268 7.33908E-06-1.10773E-05-5.24420E-06 2.71740E-06 2.69543E-17-1.66755E-17
 -1      1269 1.66972E-05-6.37762E-05 9.36871E-06 2.63526E-05 1.99959E-17-8.13490E-18
 -1      1270 3.30763E-05-1.04596E-04 1.76949E-05 1.71857E-05 5.75051E-18-1.84137E-18
 -1      1271 3.59338E-05-1.10326E-04 1.86885E-05-8.66092E-06-6.93148E-18-9.21492E-19
 -1      1272 2.15717E-05-7.61116E-05 1.20659E-05-2.45707E-05-1.81028E-17-5.77909E-18
 -1      1273 7.43070E-06-2.32400E-05-1.02006E-06-1.10130E-05-2.53636E-17-1.39269E-17
 -1      1274 1.92836E-05 1.86906E-05-1.89674E-05 3.37522E-05-2.75218E-17-2.28208E-17
 -1      1275 7.56404E-05 2.31076E-05-3.91549E-05 8.69198E-05-2.29063E-17-2.83282E-17
 -1      1276 1.68152E-04-1.32468E-05-5.77404E-05 1.11383E-04-1.45783E-17-2.76522E-17
 -1      1277 2.61122E-04-6.42330E-05-7.14229E-05 8.43903E-05-5.50635E-18-1.70152E-17
 -1      1278 3.06223E-04-9.17162E-05-7.73035E-05 1.25669E-05-1.34599E-18-2.39626E-18
 -1      1279 2.83269E-04-7.79185E-05-7.43035E-05-6.54587E-05-3.32302E-18 1.34780E-17
 -1      1280 2.01852E-04-3.08067E-05-6.31440E-05-1.08582E-04-1.13562E-17 2.59599E-17
 -1      1281 1.04263E-04 1.43633E-05-4.57240E-05-9.96897E-05-1.93462E-17 2.82689E-17
 -1      1282 3.32841E-05 2.47117E-05-2.57074E-05-5.25220E-05-1.99629E-17 1.98883E-17
 -1      1283 7.58563E-06-7.45953E-06-6.32637E-06-1.07707E-06-1.70254E-17 1.08107E-17
 -1      1284 1.70760E-05-6.26578E-05 8.94061E-06 2.43189E-05-9.20725E-18 3.93997E-18
 -1      1285 3.31195E-05-1.04533E-04 1.76938E-05 1.35726E-05-9.36818E-19 1.44673E-18
 -1      1286 1.04152E-04-2.19483E-05-3.77902E-05-1.72042E-05-6.39086E-19 1.22945E-17
 -1      1287 9.02411E-05-6.68607E-06-3.59786E-05-2.03454E-05-1.83150E-18 2.32405E-20
 -1      1288 9.25176E-05-6.74627E-06-3.71575E-05-2.56295E-05-2.34861E-18 2.86281E-18
 -1      1289 8.59187E-05-4.10788E-06-3.51295E-05-1.62878E-05-1.82697E-18-3.94982E-18
 -1      1290 8.71318E-05-4.10093E-06-3.55813E-05-1.87145E-05-2.07777E-18-2.24146E-18
 -1      1291 9.20854E-05-1.04713E-05-3.50678E-05-1.88854E-05-3.22463E-18 4.98161E-20
 -1      1292 8.41578E-05-3.19364E-06-3.47113E-05-1.26616E-05-1.44554E-18-5.93954E-18
 -1      1293 8.47486E-05-3.16494E-06-3.49248E-05-1.44784E-05-1.68313E-18-5.04408E-18
 -1      1294 8.78960E-05-7.40142E-06-3.45822E-05-1.52464E-05-2.88497E-18-3.26971E-18
 -1      1295 8.32665E-05-2.71803E-06-3.45095E-05-9.53757E-06-1.09222E-18-6.92471E-18
 -1      1296 8.35705E-05-2.70041E-06-3.46126E-05-1.10797E-05-1.22604E-18-6.50585E-18
 -1      1297 8.59291E-05-5.96962E-06-3.43363E-05-1.17874E-05-2.18499E-18-4.95371E-18
 -1      1298 8.27773E-05-2.43379E-06-3.44105E-05-6.78748E-06-7.21503E-19-7.26908E-18
 -1      1299 8.29448E-05-2.42603E-06-3.44621E-05-8.14561E-06-8.58362E-19-7.09964E-18
 -1      1300 8.48898E-05-5.17921E-06-3.42172E-05-8.78950E-06-1.64054E-18-5.73740E-18
 -1      1301 8.24962E-05-2.25539E-06-3.43611E-05-4.20519E-06-3.84791E-19-7.35463E-18
 -1      1302 8.25886E-05-2.25197E-06-3.43872E-05-5.48602E-06-4.84347E-19-7.32779E-18
 -1      1303 8.42953E-05-4.69850E-06-3.41610E-05-6.09033E-06-1.01857E-18-6.07843E-18
 -1      1304 8.23581E-05-2.15737E-06-3.43401E-05-1.74987E-06-4.36803E-20-7.22495E-18
 -1      1305 8.23983E-05-2.15607E-06-3.43508E-05-2.97559E-06-1.57965E-19-7.28724E-18
 -1      1306 8.39601E-05-4.41426E-06-3.41354E-05-3.56266E-06-4.79542E-19-6.07758E-18
 -1      1307 8.23309E-05-2.12701E-06-3.43379E-05 6.55019E-07 3.03243E-19-7.08767E-18
 -1      1308 8.23291E-05-2.12705E-06-3.43374E-05-5.53851E-07 2.04862E-19-7.15536E-18
 -1      1309 8.38109E-05-4.28357E-06-3.41259E-05-1.14289E-06 1.24363E-19-5.98971E-18
 -1      1310 8.24086E-05-2.16063E-06-3.43530E-05 3.08061E-06 6.10840E-19-6.87159E-18
 -1      1311 8.23649E-05-2.16198E-06-3.43413E-05 1.85215E-06 4.88268E-19-7.01448E-18
 -1      1312 8.38166E-05-4.28798E-06-3.41265E-05 1.24365E-06 6.39696E-19-5.86200E-18
 -1      1313 8.26085E-05-2.26269E-06-3.43909E-05 5.60074E-06 9.40352E-19-6.53320E-18
 -1      1314 8.25123E-05-2.26552E-06-3.43639E-05 4.31369E-06 8.30241E-19-6.74703E-18
 -1      1315 8.39779E-05-4.42831E-06-3.41372E-05 3.66799E-06 1.17807E-18-5.62693E-18
 -1      1316 8.29710E-05-2.44125E-06-3.44662E-05 8.25284E-06 1.28376E-18-5.92081E-18
 -1      1317 8.27998E-05-2.44930E-06-3.44140E-05 6.88577E-06 1.15732E-18-6.28693E-18
 -1      1318 8.43237E-05-4.72184E-06-3.41633E-05 6.18293E-06 1.71089E-18-5.22447E-18
 -1      1319 8.36195E-05-2.73314E-06-3.46186E-05 1.12398E-05 1.72676E-18-4.93892E-18
 -1      1320 8.33075E-05-2.74949E-06-3.45141E-05 9.67953E-06 1.53446E-18-5.54707E-18
 -1      1321 8.49356E-05-5.22071E-06-3.42194E-05 8.89733E-06 2.32363E-18-4.55061E-18
 -1      1322 8.48078E-05-3.20827E-06-3.49331E-05 1.46914E-05 2.07978E-18-3.08603E-18
 -1      1323 8.42174E-05-3.24424E-06-3.47177E-05 1.28485E-05 1.86425E-18-4.21179E-18
 -1      1324 8.60124E-05-6.05149E-06-3.43385E-05 1.19539E-05 2.90720E-18-3.40264E-18
 -1      1325 8.72298E-05-4.10242E-06-3.56023E-05 1.89528E-05 2.35480E-18 3.14435E-19
 -1      1326 8.59867E-05-4.16565E-06-3.51372E-05 1.65484E-05 2.09964E-18-1.72556E-18
 -1      1327 8.80218E-05-7.52426E-06-3.45846E-05 1.54853E-05 3.38595E-18-1.25086E-18
 -1      1328 9.33208E-05-6.79601E-06-3.70516E-05 2.49713E-05 1.98523E-18 6.67107E-18
 -1      1329 9.00543E-05-6.44366E-06-3.60001E-05 2.10222E-05 1.96062E-18 2.80813E-18
 -1      1330 9.23128E-05-1.07058E-05-3.50524E-05 1.95260E-05 3.48872E-18 2.51696E-18
 -1      1331 1.23244E-04-2.48467E-05-3.89047E-05 2.82525E-05 9.48042E-19 1.84882E-17
 -1      1332 9.98621E-05-1.43925E-05-3.72700E-05 2.39431E-05 9.56724E-19 1.03338E-17
 -1      1333 1.01504E-04-1.93151E-05-3.53385E-05 2.12702E-05 3.18922E-18 8.29245E-18
 -1      1334 1.02311E-04-2.77236E-05-3.46607E-05 7.28096E-06 1.71003E-18 1.78330E-17
 -1      1335 1.04878E-04-3.01529E-05-3.34404E-05-7.89834E-06-1.90837E-18 1.29821E-17
 -1      1336 9.80429E-05-2.77822E-05-3.06925E-05-4.93835E-06-1.78396E-18 1.07807E-17
 -1      1337 9.53222E-05-2.77954E-05-2.91990E-05-2.44069E-06-1.41605E-18 9.84024E-18
 -1      1338 9.31354E-05-2.75165E-05-2.81742E-05-1.99401E-06-1.35417E-18 7.79471E-18
 -1      1339 9.93431E-05-2.80130E-05-3.09383E-05-7.78697E-06-3.12396E-18 5.75662E-18
 -1      1340 9.14931E-05-2.71712E-05-2.75553E-05-7.81223E-07-1.09996E-18 7.00740E-18
 -1      1341 9.08296E-05-2.70902E-05-2.72694E-05-6.68128E-07-9.69231E-19 5.48719E-18
 -1      1342 9.46599E-05-2.77494E-05-2.88011E-05-3.01324E-06-2.39509E-18 4.31813E-18
 -1      1343 9.01415E-05-2.69248E-05-2.70456E-05-9.66924E-08-7.71336E-19 4.71736E-18
 -1      1344 9.01411E-05-2.69718E-05-2.70326E-05-3.38867E-08-8.18009E-19 3.61675E-18
 -1      1345 9.25671E-05-2.75053E-05-2.79152E-05-9.14929E-07-1.76635E-18 3.00218E-18
 -1      1346 8.99660E-05-2.69280E-05-2.69847E-05 2.63064E-07-5.29743E-19 3.24504E-18
 -1      1347 9.02827E-05-2.70471E-05-2.70772E-05 2.98837E-07-5.01334E-19 2.54917E-18
 -1      1348 9.17518E-05-2.73994E-05-2.75941E-05 1.21449E-07-1.27772E-18 1.88565E-18
 -1      1349 9.04028E-05-2.70830E-05-2.71200E-05 4.68015E-07-3.95082E-19 2.20933E-18
 -1      1350 9.08905E-05-2.72446E-05-2.72628E-05 4.89694E-07-2.83990E-19 1.65081E-18
 -1      1351 9.16951E-05-2.74401E-05-2.75486E-05 6.86851E-07-9.16864E-19 1.13751E-18
 -1      1352 9.11920E-05-2.73315E-05-2.73596E-05 5.95584E-07-3.24474E-19 1.35234E-18
 -1      1353 9.17837E-05-2.75193E-05-2.75327E-05 6.10536E-07-5.07990E-19 7.98745E-19
 -1      1354 9.20979E-05-2.75874E-05-2.76559E-05 1.02285E-06-7.66112E-19 5.04688E-19
 -1      1355 9.22071E-05-2.76407E-05-2.76661E-05 6.87527E-07-5.23713E-19 5.39712E-19
 -1      1356 9.28747E-05-2.78481E-05-2.78620E-05 7.00402E-07-5.23557E-19-2.23428E-19
 -1      1357 9.27973E-05-2.78079E-05-2.78596E-05 1.24709E-06-9.97145E-19-8.01116E-20
 -1      1358 9.33912E-05-2.79960E-05-2.80236E-05 7.68891E-07-4.45692E-19-3.66977E-19
 -1      1359 9.41290E-05-2.82224E-05-2.82408E-05 7.82757E-07-4.24747E-19-9.63440E-19
 -1      1360 9.37088E-05-2.80825E-05-2.81318E-05 1.42538E-06-8.35877E-19-3.36793E-19
 -1      1361 9.47278E-05-2.83941E-05-2.84275E-05 8.54955E-07-3.37851E-19-9.99605E-19
 -1      1362 9.55432E-05-2.86428E-05-2.86680E-05 8.71665E-07-8.86279E-20-1.29164E-18
 -1      1363 9.47938E-05-2.84034E-05-2.84593E-05 1.59710E-06-5.64887E-19-4.58594E-19
 -1      1364 9.62237E-05-2.88385E-05-2.88795E-05 9.53452E-07-5.23928E-20-1.71484E-18
 -1      1365 9.71301E-05-2.91149E-05-2.91469E-05 9.73644E-07-1.76175E-19-1.74386E-18
 -1      1366 9.60414E-05-2.87703E-05-2.88374E-05 1.78432E-06-4.13012E-19-1.12446E-18
 -1      1367 9.78954E-05-2.93362E-05-2.93840E-05 1.06447E-06-3.14427E-19-2.09567E-18
 -1      1368 9.89052E-05-2.96455E-05-2.96816E-05 1.08729E-06-2.03156E-19-2.45064E-18
 -1      1369 9.74545E-05-2.91874E-05-2.92649E-05 1.99382E-06-3.96641E-19-1.98277E-18
 -1      1370 9.97554E-05-2.98935E-05-2.99437E-05 1.17873E-06 7.32646E-20-2.47619E-18
 -1      1371 1.00870E-04-3.02379E-05-3.02713E-05 1.20132E-06-5.06938E-20-2.36112E-18
 -1      1372 9.90371E-05-2.96603E-05-2.97407E-05 2.21535E-06-1.44442E-19-1.94294E-18
 -1      1373 1.01795E-04-3.05114E-05-3.05542E-05 1.27465E-06-3.67491E-19-2.21475E-18
 -1      1374 1.02994E-04-3.08867E-05-3.09049E-05 1.29130E-06-6.22896E-19-2.70963E-18
 -1      1375 1.00781E-04-3.01926E-05-3.02593E-05 2.41705E-06-3.17383E-19-2.39615E-18
 -1      1376 1.03962E-04-3.11793E-05-3.11976E-05 1.31463E-06-3.24378E-19-2.50067E-18
 -1      1377 1.05186E-04-3.15694E-05-3.15528E-05 1.31589E-06 1.63811E-20-2.71754E-18
 -1      1378 1.02651E-04-3.07810E-05-3.08052E-05 2.53913E-06-6.10914E-19-2.18080E-18
 -1      1379 1.06137E-04-3.18664E-05-3.18343E-05 1.24249E-06 3.50036E-19-2.80627E-18
 -1      1380 1.07268E-04-3.22374E-05-3.21588E-05 1.21470E-06 6.93037E-20-2.62173E-18
 -1      1381 1.04560E-04-3.14094E-05-3.13481E-05 2.48824E-06 7.39251E-20-2.19825E-18
 -1      1382 1.08100E-04-3.25122E-05-3.23956E-05 9.85863E-07-1.20770E-19-2.32397E-18
 -1      1383 1.08951E-04-3.28056E-05-3.26342E-05 9.12177E-07-3.38406E-19-2.52165E-18
 -1      1384 1.06355E-04-3.20393E-05-3.18373E-05 2.13834E-06 2.22594E-20-1.71610E-18
 -1      1385 1.09519E-04-3.30160E-05-3.27808E-05 4.70651E-07-3.76907E-19-2.65822E-18
 -1      1386 1.09833E-04-3.31472E-05-3.28604E-05 3.35684E-07-1.51860E-19-2.70930E-18
 -1      1387 1.07800E-04-3.25992E-05-3.22012E-05 1.34890E-06-4.51793E-19-1.70751E-18
 -1      1388 1.09961E-04-3.32349E-05-3.28653E-05-3.43502E-07 1.35697E-19-2.82801E-18
 -1      1389 1.09454E-04-3.31022E-05-3.27091E-05-5.43054E-07-1.56807E-19-2.67883E-18
 -1      1390 1.08574E-04-3.29742E-05-3.23538E-05 1.60542E-08-2.18462E-19-2.06855E-18
 -1      1391 1.08970E-04-3.30001E-05-3.25301E-05-1.40280E-06 5.61027E-20-2.65622E-18
 -1      1392 1.07433E-04-3.25160E-05-3.20874E-05-1.64166E-06-1.11855E-19-2.55703E-18
 -1      1393 1.08322E-04-3.30071E-05-3.22151E-05-1.83177E-06 1.00718E-20-1.75436E-18
 -1      1394 1.06253E-04-3.21718E-05-3.17163E-05-2.49250E-06 4.27391E-19-2.14522E-18
 -1      1395 1.03710E-04-3.13210E-05-3.10048E-05-2.70267E-06 6.93412E-19-1.22285E-18
 -1      1396 1.06764E-04-3.25326E-05-3.17459E-05-3.91026E-06 4.94667E-19-1.70858E-18
 -1      1397 1.01942E-04-3.07415E-05-3.04913E-05-3.22239E-06 3.26609E-19-9.54606E-19
 -1      1398 9.88021E-05-2.96478E-05-2.96328E-05-3.30073E-06-3.56515E-21-6.72650E-19
 -1      1399 1.03886E-04-3.14675E-05-3.09885E-05-5.60705E-06 7.43582E-19-1.33142E-18
 -1      1400 9.68282E-05-2.89510E-05-2.90928E-05-3.14886E-06-5.84631E-19-5.26960E-19
 -1      1401 9.38971E-05-2.78998E-05-2.83059E-05-3.00846E-06-7.19376E-19-1.66723E-18
 -1      1402 1.00151E-04-2.99436E-05-3.00903E-05-6.10334E-06-4.06061E-19-1.75098E-20
 -1      1403 9.23230E-05-2.73162E-05-2.78941E-05-2.05001E-06-4.05643E-19-1.72287E-18
 -1      1404 9.05524E-05-2.66690E-05-2.74247E-05-1.69428E-06-4.44057E-19-2.21622E-18
 -1      1405 9.65592E-05-2.83877E-05-2.92838E-05-4.78677E-06-9.05591E-19 5.30454E-20
 -1      1406 8.99651E-05-2.64450E-05-2.72753E-05-1.77591E-07-3.73356E-19-2.94964E-18
 -1      1407 9.00075E-05-2.64600E-05-2.72869E-05 2.67826E-07-2.80547E-19-3.40652E-18
 -1      1408 9.43522E-05-2.73980E-05-2.88106E-05-1.77113E-06-1.08018E-18-1.13518E-18
 -1      1409 9.06510E-05-2.67039E-05-2.74516E-05 1.77369E-06-2.61780E-19-3.53994E-18
 -1      1410 9.24933E-05-2.73763E-05-2.79406E-05 2.12334E-06-1.88399E-19-3.85114E-18
 -1      1411 9.44093E-05-2.74220E-05-2.88242E-05 1.93297E-06-6.35844E-19-1.68199E-18
 -1      1412 9.41075E-05-2.79735E-05-2.83635E-05 3.05365E-06-1.30913E-19-4.06420E-18
 -1      1413 9.70775E-05-2.90372E-05-2.91614E-05 3.18466E-06-1.01469E-19-4.25814E-18
 -1      1414 9.67132E-05-2.84502E-05-2.93206E-05 4.90061E-06-4.52871E-19-2.48362E-18
 -1      1415 9.90662E-05-2.97367E-05-2.97070E-05 3.30609E-06 5.55124E-19-4.46018E-18
 -1      1416 1.02209E-04-3.08287E-05-3.05674E-05 3.22062E-06 6.06840E-19-3.76975E-18
 -1      1417 1.00359E-04-3.00244E-05-3.01427E-05 6.14383E-06 4.45379E-20-3.49949E-18
 -1      1418 1.03973E-04-3.14038E-05-3.10819E-05 2.68484E-06-2.24110E-19-3.21891E-18
 -1      1419 1.06499E-04-3.22461E-05-3.17897E-05 2.47323E-06 1.15683E-19-3.11753E-18
 -1      1420 1.04102E-04-3.15422E-05-3.10479E-05 5.59063E-06 4.44620E-19-2.57766E-18
 -1      1421 1.07673E-04-3.25861E-05-3.21604E-05 1.62459E-06-4.12485E-19-3.24456E-18
 -1      1422 1.09194E-04-3.30629E-05-3.25996E-05 1.38851E-06-6.31020E-19-3.67475E-18
 -1      1423 1.06968E-04-3.25930E-05-3.18076E-05 3.87849E-06-1.55576E-19-2.44045E-18
 -1      1424 1.09681E-04-3.31648E-05-3.27802E-05 5.44199E-07-4.67562E-19-3.93994E-18
 -1      1425 1.10190E-04-3.32967E-05-3.29374E-05 3.49785E-07 1.67587E-20-3.76911E-18
 -1      1426 1.08521E-04-3.30581E-05-3.22798E-05 1.82249E-06-9.77913E-19-2.29045E-18
 -1      1427 1.10083E-04-3.32146E-05-3.29389E-05-3.06692E-07 2.85884E-19-4.35170E-18
 -1      1428 1.09798E-04-3.30914E-05-3.28679E-05-4.35577E-07 3.46106E-19-4.57496E-18
 -1      1429 1.08796E-04-3.30279E-05-3.24277E-05 2.12322E-08-1.65959E-19-2.99856E-18
 -1      1430 1.09271E-04-3.28932E-05-3.27339E-05-8.51015E-07-9.39082E-20-4.44255E-18
 -1      1431 1.08479E-04-3.26175E-05-3.25129E-05-9.18268E-07-4.08819E-19-4.86136E-18
 -1      1432 1.08083E-04-3.26694E-05-3.22944E-05-1.25278E-06-1.36859E-19-4.60772E-18
 -1      1433 1.07712E-04-3.23617E-05-3.22959E-05-1.11932E-06 1.59734E-19-4.75598E-18
 -1      1434 1.06673E-04-3.20186E-05-3.19985E-05-1.14045E-06 4.62379E-19-4.57135E-18
 -1      1435 1.06743E-04-3.21400E-05-3.19624E-05-1.97759E-06-1.93152E-19-3.59292E-18
 -1      1436 1.05811E-04-3.17475E-05-3.17447E-05-1.18466E-06-1.27985E-19-4.22762E-18
 -1      1437 1.04714E-04-3.13958E-05-3.14268E-05-1.17639E-06-2.18793E-19-4.44441E-18
 -1      1438 1.05099E-04-3.15548E-05-3.15190E-05-2.25928E-06 2.80371E-19-3.49098E-18
 -1      1439 1.03861E-04-3.11365E-05-3.11699E-05-1.12209E-06 5.59741E-20-4.74970E-18
 -1      1440 1.02826E-04-3.08110E-05-3.08673E-05-1.09789E-06 2.24541E-19-4.11376E-18
 -1      1441 1.03391E-04-3.09855E-05-3.10369E-05-2.23822E-06-1.56171E-19-3.70778E-18
 -1      1442 1.02043E-04-3.05785E-05-3.06287E-05-9.91498E-07 5.73654E-19-4.01756E-18
 -1      1443 1.01131E-04-3.02961E-05-3.03607E-05-9.60717E-07 7.81835E-20-3.30723E-18
 -1      1444 1.01773E-04-3.04711E-05-3.05672E-05-2.03963E-06 6.43700E-19-4.13547E-18
 -1      1445 1.00451E-04-3.00968E-05-3.01516E-05-8.34324E-07-4.68167E-19-2.02220E-18
 -1      1446 9.96866E-05-2.98630E-05-2.99260E-05-8.02721E-07 9.90094E-20-2.80103E-18
 -1      1447 1.00333E-04-3.00285E-05-3.01406E-05-1.75677E-06 7.93862E-20-1.90514E-18
 -1      1448 9.91183E-05-2.96982E-05-2.97505E-05-6.76198E-07 7.24445E-21-2.88590E-18
 -1      1449 9.85013E-05-2.95114E-05-2.95678E-05-6.46950E-07-2.16751E-19-2.97498E-18
 -1      1450 9.91074E-05-2.96615E-05-2.97723E-05-1.45113E-06 2.91287E-19-1.50279E-18
 -1      1451 9.80417E-05-2.93792E-05-2.94255E-05-5.31194E-07-6.59547E-19-2.88594E-18
 -1      1452 9.75594E-05-2.92344E-05-2.92822E-05-5.05771E-07-1.31726E-18-4.42490E-18
 -1      1453 9.80999E-05-2.93659E-05-2.94662E-05-1.15904E-06-5.87344E-19-2.40788E-18
 -1      1454 9.71979E-05-2.91310E-05-2.91700E-05-4.05693E-07-1.18409E-18-4.41625E-18
 -1      1455 9.68315E-05-2.90219E-05-2.90609E-05-3.84517E-07-4.15925E-19-5.46971E-18
 -1      1456 9.72958E-05-2.91339E-05-2.92198E-05-8.99116E-07-1.87577E-18-1.89454E-18
 -1      1457 9.65546E-05-2.89430E-05-2.89749E-05-3.01324E-07 6.44533E-19-4.78465E-18
 -1      1458 9.62842E-05-2.88632E-05-2.88941E-05-2.84223E-07 1.13866E-18-4.00972E-18
 -1      1459 9.66710E-05-2.89561E-05-2.90269E-05-6.78503E-07 3.06355E-19-2.32424E-18
 -1      1460 9.60777E-05-2.88046E-05-2.88300E-05-2.16984E-07 9.73803E-20-3.53514E-18
 -1      1461 9.58846E-05-2.87481E-05-2.87721E-05-2.03471E-07-6.45954E-20-3.73270E-18
 -1      1462 9.61979E-05-2.88232E-05-2.88799E-05-4.97443E-07 9.01800E-19-1.72661E-18
 -1      1463 9.57352E-05-2.87058E-05-2.87257E-05-1.50131E-07 1.94268E-19-4.43164E-18
 -1      1464 9.56032E-05-2.86675E-05-2.86861E-05-1.39573E-07 5.60849E-19-3.50246E-18
 -1      1465 9.58495E-05-2.87264E-05-2.87711E-05-3.52322E-07-2.39228E-19-2.14401E-18
 -1      1466 9.54994E-05-2.86381E-05-2.86539E-05-9.75895E-08 8.19986E-19-3.80428E-18
 -1      1467 9.54154E-05-2.86141E-05-2.86286E-05-8.93015E-08 9.08151E-19-2.68925E-18
 -1      1468 9.56013E-05-2.86580E-05-2.86931E-05-2.37629E-07 9.40014E-19-3.01319E-18
 -1      1469 9.53474E-05-2.85947E-05-2.86077E-05-5.60835E-08 7.95007E-19-2.87714E-18
 -1      1470 9.53015E-05-2.85821E-05-2.85937E-05-4.93987E-08 3.77140E-19-2.53214E-18
 -1      1471 9.54324E-05-2.86119E-05-2.86399E-05-1.47227E-07 1.20228E-18-3.05125E-18
 -1      1472 9.52612E-05-2.85706E-05-2.85815E-05-2.30600E-08 3.58561E-19-1.66210E-18
 -1      1473 9.52457E-05-2.85673E-05-2.85762E-05-1.75086E-08 2.49112E-19-1.41345E-18
 -1      1474 9.53256E-05-2.85832E-05-2.86058E-05-7.56503E-08 6.76755E-19-2.40857E-18
 -1      1475 9.52251E-05-2.85611E-05-2.85699E-05 1.99471E-09 3.28123E-19 2.21010E-20
 -1      1476 9.52325E-05-2.85672E-05-2.85696E-05 6.63189E-09 2.83521E-19 5.48925E-19
 -1      1477 9.52658E-05-2.85688E-05-2.85857E-05-2.07756E-08 1.23025E-18-2.75799E-19
 -1      1478 9.52301E-05-2.85748E-05-2.85635E-05 9.42496E-09-1.08863E-18 1.33681E-18
 -1      1479 9.52423E-05-2.85762E-05-2.85707E-05 1.15788E-08-4.35988E-19 2.01271E-18
 -1      1480 9.63570E-05-2.82987E-05-2.97041E-05 2.95550E-06 1.58866E-18 1.43649E-17
 -1      1481 1.02266E-04-2.93191E-05-3.20731E-05 4.41879E-06 1.34477E-18 1.67704E-17
 -1      1482 1.02118E-04-2.66672E-05-3.26386E-05 1.26902E-05 2.65042E-18 1.11906E-17
 -1      1483 9.18961E-05-2.73878E-05-2.77213E-05 1.11017E-06 1.18307E-18 1.13001E-17
 -1      1484 9.37993E-05-2.75307E-05-2.86215E-05 1.43259E-06 1.18630E-18 1.31862E-17
 -1      1485 9.63550E-05-2.79918E-05-2.94937E-05 4.78602E-06 2.44464E-18 9.02552E-18
 -1      1486 9.01664E-05-2.69921E-05-2.70548E-05 2.78210E-07 7.89342E-19 9.01296E-18
 -1      1487 9.07298E-05-2.69941E-05-2.73112E-05 4.43760E-07 7.83922E-19 1.03290E-17
 -1      1488 9.30027E-05-2.75636E-05-2.80889E-05 1.75756E-06 1.80973E-18 7.12565E-18
 -1      1489 8.97890E-05-2.69139E-05-2.69223E-05-1.30665E-07 6.80664E-19 7.18565E-18
 -1      1490 8.97555E-05-2.68295E-05-2.69285E-05-3.64262E-08 6.36929E-19 8.22765E-18
 -1      1491 9.15697E-05-2.73245E-05-2.75434E-05 3.91346E-07 1.39033E-18 5.36171E-18
 -1      1492 9.01200E-05-2.70239E-05-2.70251E-05-3.51742E-07 5.00788E-19 5.83240E-18
 -1      1493 8.97890E-05-2.68838E-05-2.69286E-05-2.93399E-07 4.51020E-19 6.62130E-18
 -1      1494 9.12036E-05-2.72889E-05-2.73994E-05-3.11745E-07 1.03084E-18 4.20683E-18
 -1      1495 9.08572E-05-2.72489E-05-2.72504E-05-4.82978E-07 1.10070E-19 5.19612E-18
 -1      1496 9.03618E-05-2.70742E-05-2.71035E-05-4.43409E-07 2.34122E-19 5.55286E-18
 -1      1497 9.14533E-05-2.73964E-05-2.74612E-05-7.08450E-07 6.56591E-19 3.47305E-18
 -1      1498 9.18539E-05-2.75484E-05-2.75524E-05-5.73273E-07 5.23469E-19 4.48852E-18
 -1      1499 9.12538E-05-2.73498E-05-2.73743E-05-5.42777E-07 3.03243E-19 4.93710E-18
 -1      1500 9.20821E-05-2.75992E-05-2.76440E-05-9.56899E-07 4.99610E-19 2.89914E-18
 -1      1501 9.30473E-05-2.79043E-05-2.79137E-05-6.51775E-07 1.08036E-19 3.58048E-18
 -1      1502 9.23638E-05-2.76846E-05-2.77102E-05-6.23779E-07 3.78064E-19 4.17185E-18
 -1      1503 9.29706E-05-2.78694E-05-2.79091E-05-1.14097E-06 7.54169E-19 2.32136E-18
 -1      1504 9.44273E-05-2.83141E-05-2.83316E-05-7.38323E-07 3.07228E-19 3.20949E-18
 -1      1505 9.36572E-05-2.80697E-05-2.81016E-05-7.07814E-07 1.54777E-19 3.41053E-18
 -1      1506 9.40676E-05-2.81948E-05-2.82404E-05-1.31231E-06 4.41724E-19 1.74379E-18
 -1      1507 9.60192E-05-2.87857E-05-2.88138E-05-8.47420E-07 4.58663E-20 3.07932E-18
 -1      1508 9.51419E-05-2.85083E-05-2.85513E-05-8.10282E-07 1.24796E-19 3.21957E-18
 -1      1509 9.53656E-05-2.85752E-05-2.86351E-05-1.50632E-06 2.72089E-19 1.53524E-18
 -1      1510 9.78738E-05-2.93349E-05-2.93756E-05-9.89469E-07 1.11183E-19 2.88020E-18
 -1      1511 9.68561E-05-2.90127E-05-2.90708E-05-9.42284E-07 6.32611E-20 2.96482E-18
 -1      1512 9.68864E-05-2.90184E-05-2.90993E-05-1.74829E-06 7.54190E-20 1.68698E-18
 -1      1513 1.00057E-04-2.99825E-05-3.00363E-05-1.17013E-06 3.50864E-19 2.86393E-18
 -1      1514 9.88580E-05-2.96014E-05-2.96774E-05-1.11040E-06 1.38167E-19 2.82125E-18
 -1      1515 9.86713E-05-2.95383E-05-2.96444E-05-2.05453E-06 2.66845E-19 1.64113E-18
 -1      1516 1.02638E-04-3.07508E-05-3.08155E-05-1.38754E-06 3.54910E-19 2.04000E-18
 -1      1517 1.01215E-04-3.02968E-05-3.03908E-05-1.31453E-06 4.33821E-19 2.50387E-18
 -1      1518 1.00770E-04-3.01526E-05-3.02841E-05-2.42965E-06 6.72614E-19 1.47418E-18
 -1      1519 1.05666E-04-3.16579E-05-3.17260E-05-1.62652E-06 1.75125E-19 1.45962E-18
 -1      1520 1.03989E-04-3.11209E-05-3.12276E-05-1.54304E-06 1.92511E-19 1.69899E-18
 -1      1521 1.03226E-04-3.08791E-05-3.10288E-05-2.85918E-06 4.23730E-19 1.15110E-18
 -1      1522 1.09134E-04-3.27076E-05-3.27617E-05-1.84865E-06-2.20811E-19 1.14225E-18
 -1      1523 1.07205E-04-3.20887E-05-3.21930E-05-1.76429E-06 1.58653E-19 1.30947E-18
 -1      1524 1.06057E-04-3.17313E-05-3.18783E-05-3.29578E-06 2.97494E-19 1.01234E-18
 -1      1525 1.12920E-04-3.38728E-05-3.38793E-05-1.97795E-06 2.59995E-20 1.23309E-18
 -1      1526 1.10814E-04-3.31968E-05-3.32658E-05-1.91412E-06-2.89440E-19 8.13165E-19
 -1      1527 1.09216E-04-3.27098E-05-3.28099E-05-3.63792E-06-9.18224E-20 6.38928E-19
 -1      1528 1.16706E-04-3.50692E-05-3.49728E-05-1.88589E-06 6.14455E-19 6.46868E-19
 -1      1529 1.14619E-04-3.44029E-05-3.43780E-05-1.88182E-06 4.32687E-19 1.41194E-18
 -1      1530 1.12545E-04-3.37883E-05-3.37626E-05-3.70390E-06 2.99992E-19 3.79749E-19
 -1      1531 1.19877E-04-3.61215E-05-3.58500E-05-1.39017E-06-8.84521E-20 6.83410E-19
 -1      1532 1.18189E-04-3.55953E-05-3.53898E-05-1.50551E-06 1.86976E-20 8.79220E-19
 -1      1533 1.15713E-04-3.48911E-05-3.46209E-05-3.21592E-06 4.02049E-19 1.07421E-18
 -1      1534 1.21486E-04-3.67342E-05-3.62323E-05-3.01279E-07-7.52112E-19 1.81422E-18
 -1      1535 1.20783E-04-3.65541E-05-3.60753E-05-6.03828E-07-4.50787E-19 1.42738E-18
 -1      1536 1.18156E-04-3.58576E-05-3.52096E-05-1.83522E-06-6.07733E-19 2.13466E-18
 -1      1537 1.20386E-04-3.65075E-05-3.58181E-05 1.43419E-06-4.47068E-19 3.05969E-18
 -1      1538 1.21368E-04-3.69242E-05-3.61449E-05 9.13482E-07-5.96391E-19 2.18008E-18
 -1      1539 1.19090E-04-3.64065E-05-3.53210E-05 6.79606E-07-9.69892E-19 2.58111E-18
 -1      1540 1.15729E-04-3.50775E-05-3.44440E-05 3.48580E-06 3.38833E-19 3.35743E-18
 -1      1541 1.18876E-04-3.62654E-05-3.53466E-05 2.83487E-06-7.52271E-20 3.31174E-18
 -1      1542 1.17688E-04-3.61411E-05-3.47985E-05 4.13028E-06-5.80694E-19 3.21801E-18
 -1      1543 1.07854E-04-3.24406E-05-3.23024E-05 4.95436E-06 1.11646E-18 2.15983E-18
 -1      1544 1.12870E-04-3.42794E-05-3.36482E-05 4.44425E-06 5.47759E-19 3.10194E-18
 -1      1545 1.13548E-04-3.47049E-05-3.36672E-05 7.46581E-06 7.00787E-19 3.29146E-18
 -1      1546 9.90698E-05-2.93400E-05-3.00520E-05 4.64873E-06 4.07767E-20 1.55277E-18
 -1      1547 1.04439E-04-3.12318E-05-3.14209E-05 4.64701E-06 3.23514E-19 1.72572E-18
 -1      1548 1.07402E-04-3.21613E-05-3.22325E-05 8.79089E-06 1.02588E-18 2.03381E-18
 -1      1549 9.32428E-05-2.72391E-05-2.86012E-05 2.07296E-06-2.45957E-19 1.87888E-18
 -1      1550 9.65940E-05-2.82626E-05-2.94318E-05 2.72937E-06-2.32365E-19 1.49591E-18
 -1      1551 1.01517E-04-2.94316E-05-3.10227E-05 6.42569E-06-2.09508E-19 1.85336E-18
 -1      1552 9.34439E-05-2.73446E-05-2.86177E-05-1.63886E-06-1.45160E-19 2.05985E-18
 -1      1553 9.30434E-05-2.69208E-05-2.85204E-05-6.36266E-07-3.26902E-20 2.18280E-18
 -1      1554 9.88552E-05-2.80699E-05-3.05331E-05 7.87036E-07-3.00511E-19 1.54938E-18
 -1      1555 9.96046E-05-2.96042E-05-3.01142E-05-4.45843E-06 1.13893E-19 1.82271E-18
 -1      1556 9.56515E-05-2.79612E-05-2.91260E-05-3.66971E-06 5.05440E-20 1.87930E-18
 -1      1557 1.00921E-04-2.89855E-05-3.09892E-05-5.28115E-06 1.13026E-19 1.29278E-18
 -1      1558 1.08507E-04-3.27269E-05-3.23904E-05-5.06596E-06 1.09285E-19 7.74929E-19
 -1      1559 1.03002E-04-3.07305E-05-3.09737E-05-4.82846E-06 2.92484E-19 1.58554E-18
 -1      1560 1.06535E-04-3.16044E-05-3.21856E-05-8.57812E-06 6.65000E-19 1.06541E-18
 -1      1561 1.16323E-04-3.53036E-05-3.45312E-05-3.75343E-06-1.10551E-19 5.15631E-19
 -1      1562 1.11556E-04-3.37715E-05-3.32458E-05-3.99512E-06-2.88699E-19 4.36063E-19
 -1      1563 1.12835E-04-3.43741E-05-3.36210E-05-8.08366E-06-4.56074E-20 1.11218E-18
 -1      1564 1.20833E-04-3.66481E-05-3.58988E-05-1.70481E-06 5.53529E-19 3.40507E-19
 -1      1565 1.18089E-04-3.59135E-05-3.51056E-05-2.14058E-06 3.31309E-19 6.23946E-19
 -1      1566 1.17369E-04-3.61086E-05-3.47841E-05-5.08494E-06 1.46775E-20 4.88487E-19
 -1      1567 1.21812E-04-3.68147E-05-3.63131E-05 9.63429E-08-3.38813E-20-1.52160E-18
 -1      1568 1.21184E-04-3.67874E-05-3.60878E-05-3.02164E-07 6.57999E-19-8.64384E-19
 -1      1569 1.19192E-04-3.65693E-05-3.53652E-05-1.55824E-06 1.29775E-18-7.46706E-19
 -1      1570 1.20166E-04-3.61835E-05-3.59447E-05 1.25541E-06-1.32485E-19-1.68810E-18
 -1      1571 1.21081E-04-3.66064E-05-3.61647E-05 9.87899E-07 3.14064E-20-1.79580E-18
 -1      1572 1.18600E-04-3.61087E-05-3.53203E-05 1.21023E-06 2.27243E-19-8.12152E-19
 -1      1573 1.17048E-04-3.51486E-05-3.50964E-05 1.79725E-06-1.29176E-19-1.14117E-18
 -1      1574 1.18804E-04-3.57776E-05-3.55769E-05 1.65963E-06-3.14564E-19-1.57733E-18
 -1      1575 1.16401E-04-3.51692E-05-3.47936E-05 2.84265E-06-6.21874E-20-6.26791E-19
 -1      1576 1.13392E-04-3.39951E-05-3.40458E-05 1.90716E-06 2.50296E-19-6.51884E-19
 -1      1577 1.15435E-04-3.46643E-05-3.46273E-05 1.86243E-06-1.00987E-19-1.02715E-18
 -1      1578 1.13406E-04-3.40744E-05-3.39895E-05 3.50190E-06-3.54611E-19-1.03009E-18
 -1      1579 1.09796E-04-3.28911E-05-3.29845E-05 1.77263E-06-2.22904E-19-9.26866E-19
 -1      1580 1.11782E-04-3.35098E-05-3.35618E-05 1.78244E-06-5.72492E-21-4.32490E-19
 -1      1581 1.10219E-04-3.30079E-05-3.30869E-05 3.51713E-06 5.35169E-20-9.78912E-19
 -1      1582 1.06573E-04-3.19181E-05-3.20197E-05 1.52879E-06 7.90339E-19-2.96434E-18
 -1      1583 1.08331E-04-3.24477E-05-3.25369E-05 1.56516E-06 8.35510E-19-1.69458E-18
 -1      1584 1.07208E-04-3.20559E-05-3.22076E-05 3.18444E-06 1.03384E-18-7.51153E-19
 -1      1585 1.03847E-04-3.11034E-05-3.11968E-05 1.25699E-06 7.78169E-19-4.78911E-18
 -1      1586 1.05316E-04-3.15355E-05-3.16323E-05 1.30272E-06 9.94389E-19-3.04945E-18
 -1      1587 1.04556E-04-3.12488E-05-3.14189E-05 2.70843E-06 1.72215E-18-1.85908E-18
 -1      1588 1.01630E-04-3.04452E-05-3.05242E-05 9.99556E-07 2.81830E-19-4.25664E-18
 -1      1589 1.02811E-04-3.07862E-05-3.08760E-05 1.04534E-06-1.70328E-19-4.73146E-18
 -1      1590 1.02329E-04-3.05877E-05-3.07484E-05 2.20944E-06 2.88264E-19-3.38091E-18
 -1      1591 9.98781E-05-2.99274E-05-2.99912E-05 7.74835E-07-1.49521E-19-5.14524E-18
 -1      1592 1.00801E-04-3.01899E-05-3.02669E-05 8.16246E-07 4.43097E-19-4.47195E-18
 -1      1593 1.00519E-04-3.00598E-05-3.01996E-05 1.74864E-06 7.31370E-19-2.93575E-18
 -1      1594 9.85254E-05-2.95290E-05-2.95790E-05 5.87917E-07-2.47587E-19-5.79111E-18
 -1      1595 9.92298E-05-2.97268E-05-2.97900E-05 6.23327E-07 2.00306E-19-5.25515E-18
 -1      1596 9.90878E-05-2.96472E-05-2.97629E-05 1.35124E-06 5.49326E-19-3.33967E-18
 -1      1597 9.75022E-05-2.92284E-05-2.92667E-05 4.37311E-07-3.49170E-19-5.10821E-18
 -1      1598 9.80290E-05-2.93745E-05-2.94249E-05 4.66534E-07-3.42878E-19-5.35589E-18
 -1      1599 9.79793E-05-2.93306E-05-2.94233E-05 1.02274E-06-4.66166E-19-2.74237E-18
 -1      1600 9.67432E-05-2.90059E-05-2.90348E-05 3.18677E-07-9.66053E-19-3.26499E-18
 -1      1601 9.71294E-05-2.91116E-05-2.91510E-05 3.42220E-07-1.14876E-18-4.84837E-18
 -1      1602 9.71377E-05-2.90920E-05-2.91647E-05 7.58883E-07-1.41961E-18-2.08485E-18
 -1      1603 9.61922E-05-2.88448E-05-2.88663E-05 2.26782E-07-1.33408E-18-1.88796E-18
 -1      1604 9.64689E-05-2.89195E-05-2.89497E-05 2.45438E-07-6.54860E-19-3.01829E-18
 -1      1605 9.65112E-05-2.89155E-05-2.89715E-05 5.51324E-07-1.22756E-18-2.02322E-18
 -1      1606 9.58025E-05-2.87311E-05-2.87470E-05 1.56406E-07 8.26282E-19-2.40754E-18
 -1      1607 9.59951E-05-2.87821E-05-2.88052E-05 1.71060E-07 7.91404E-19-1.67778E-18
 -1      1608 9.60547E-05-2.87877E-05-2.88304E-05 3.90511E-07 6.15359E-19-1.70458E-18
 -1      1609 9.55366E-05-2.86536E-05-2.86656E-05 1.02716E-07-3.08557E-19-1.99471E-18
 -1      1610 9.56652E-05-2.86868E-05-2.87045E-05 1.14263E-07-3.91156E-19-2.65661E-18
 -1      1611 9.57308E-05-2.86975E-05-2.87300E-05 2.67071E-07-4.56546E-20-1.89382E-18
 -1      1612 9.53659E-05-2.86041E-05-2.86133E-05 6.14431E-08 7.80567E-19-1.90070E-18
 -1      1613 9.54454E-05-2.86236E-05-2.86374E-05 7.07442E-08 6.03388E-19-8.63051E-19
 -1      1614 9.55092E-05-2.86362E-05-2.86612E-05 1.72424E-07 4.34781E-19-1.39877E-18
 -1      1615 9.52688E-05-2.85761E-05-2.85835E-05 2.91426E-08 4.13147E-19-5.45431E-18
 -1      1616 9.53101E-05-2.85848E-05-2.85962E-05 3.69651E-08 5.75695E-19-3.75819E-18
 -1      1617 9.53664E-05-2.85970E-05-2.86168E-05 9.92422E-08 2.03362E-18-2.24851E-18
 -1      1618 9.52285E-05-2.85651E-05-2.85704E-05 3.54456E-09 1.61406E-19-6.92289E-18
 -1      1619 9.52399E-05-2.85652E-05-2.85746E-05 1.05991E-08 4.93414E-19-5.90757E-18
 -1      1620 9.52836E-05-2.85747E-05-2.85907E-05 4.22855E-08 1.00017E-18-3.04653E-18
 -1      1621 9.52281E-05-2.85684E-05-2.85667E-05-1.21158E-08 7.76843E-20-7.01093E-18
 -1      1622 9.52187E-05-2.85621E-05-2.85664E-05-7.33366E-09 3.99364E-20-7.18201E-18
 -1      1623 9.52452E-05-2.85676E-05-2.85767E-05-4.19310E-11 1.06856E-18-3.44379E-18
 -1      1624 9.52311E-05-2.85759E-05-2.85634E-05-8.99578E-09-3.65875E-18-3.45867E-18
 -1      1625 9.52469E-05-2.85840E-05-2.85704E-05-9.93132E-10-2.58693E-18 1.49511E-18
 -1      1626 9.52431E-05-2.85787E-05-2.85695E-05-4.88904E-09-4.85113E-18 1.78900E-18
 -1      1627 9.52378E-05-2.85509E-05-2.85810E-05 2.30946E-08 1.77987E-18 2.27411E-18
 -1      1628 9.52424E-05-2.85666E-05-2.85758E-05 1.78164E-08-1.31773E-18 1.70770E-18
 -1      1629 9.52419E-05-2.85470E-05-2.85845E-05 2.02529E-08 3.37708E-19 2.56538E-18
 -1      1630 9.52153E-05-2.84835E-05-2.86000E-05 4.46642E-08 4.56754E-18 5.59365E-19
 -1      1631 9.52275E-05-2.85200E-05-2.85895E-05 4.07400E-08 3.16636E-18 1.87042E-18
 -1      1632 9.52259E-05-2.84971E-05-2.85994E-05 6.44307E-08 2.44020E-18 2.95773E-18
 -1      1633 9.51851E-05-2.83940E-05-2.86251E-05 5.62570E-08 4.05602E-18-1.02072E-18
 -1      1634 9.52015E-05-2.84428E-05-2.86112E-05 5.48061E-08 4.44403E-18 1.17091E-18
 -1      1635 9.51993E-05-2.84233E-05-2.86190E-05 9.78107E-08 1.49285E-18 9.33482E-19
 -1      1636 9.51543E-05-2.83021E-05-2.86511E-05 5.56564E-08-2.56051E-18-4.57863E-18
 -1      1637 9.51707E-05-2.83513E-05-2.86371E-05 5.67025E-08 3.42770E-18-4.80092E-18
 -1      1638 9.51679E-05-2.83379E-05-2.86413E-05 1.10142E-07-2.42208E-19-4.68456E-18
 -1      1639 9.51279E-05-2.82232E-05-2.86735E-05 4.35742E-08-4.49836E-18 6.41306E-19
 -1      1640 9.51415E-05-2.82637E-05-2.86619E-05 4.67947E-08-4.09411E-18-8.75715E-19
 -1      1641 9.51378E-05-2.82554E-05-2.86630E-05 9.95900E-08-5.81548E-19-5.45236E-18
 -1      1642 9.51117E-05-2.81743E-05-2.86874E-05 2.28244E-08-3.67896E-18 1.14245E-18
 -1      1643 9.51193E-05-2.81970E-05-2.86809E-05 2.74617E-08-4.82686E-18 1.45141E-18
 -1      1644 9.51139E-05-2.81899E-05-2.86803E-05 6.89370E-08-1.95290E-18 6.64204E-19
 -1      1645 9.51086E-05-2.81647E-05-2.86901E-05-2.29474E-09-2.42342E-18-1.77188E-19
 -1      1646 9.51087E-05-2.81650E-05-2.86901E-05 2.82759E-09-4.02267E-18 1.17954E-18
 -1      1647 9.51009E-05-2.81539E-05-2.86898E-05 2.48493E-08-2.68567E-18 7.96168E-19
 -1      1648 9.51190E-05-2.81960E-05-2.86812E-05-2.68731E-08-2.12720E-18 5.15625E-19
 -1      1649 9.51116E-05-2.81739E-05-2.86875E-05-2.22576E-08-2.59402E-18 9.04685E-19
 -1      1650 9.51009E-05-2.81539E-05-2.86898E-05-2.38792E-08-2.03921E-18 1.37099E-19
 -1      1651 9.51409E-05-2.82618E-05-2.86625E-05-4.61226E-08-1.70957E-18-4.04450E-19
 -1      1652 9.51276E-05-2.82220E-05-2.86738E-05-4.29346E-08-1.44058E-18 3.74710E-19
 -1      1653 9.51139E-05-2.81897E-05-2.86804E-05-6.78335E-08-1.50922E-18 4.50669E-19
 -1      1654 9.51696E-05-2.83478E-05-2.86381E-05-5.60215E-08-1.17177E-18 1.07680E-18
 -1      1655 9.51533E-05-2.82992E-05-2.86519E-05-5.49415E-08-9.76751E-19-6.28759E-19
 -1      1656 9.51374E-05-2.82542E-05-2.86634E-05-9.82715E-08-9.41955E-19-4.58780E-19
 -1      1657 9.52003E-05-2.84394E-05-2.86122E-05-5.44550E-08-8.54448E-19-1.50664E-19
 -1      1658 9.51841E-05-2.83909E-05-2.86260E-05-5.58314E-08-1.56549E-18 1.26077E-18
 -1      1659 9.51672E-05-2.83361E-05-2.86418E-05-1.09131E-07-3.66598E-19 7.14805E-19
 -1      1660 9.52262E-05-2.85167E-05-2.85904E-05-4.08516E-08-2.19849E-18-1.50930E-18
 -1      1661 9.52140E-05-2.84799E-05-2.86009E-05-4.46397E-08-1.19540E-18 9.76140E-19
 -1      1662 9.51986E-05-2.84217E-05-2.86194E-05-9.74841E-08-3.23997E-19 9.74272E-20
 -1      1663 9.52426E-05-2.85642E-05-2.85766E-05-1.92987E-08-2.47314E-18-1.74951E-19
 -1      1664 9.52361E-05-2.85471E-05-2.85819E-05-2.47042E-08-8.57235E-19-1.71139E-18
 -1      1665 9.52242E-05-2.84944E-05-2.85998E-05-6.50487E-08-2.72756E-19-1.31009E-18
 -1      1666 9.52445E-05-2.85712E-05-2.85735E-05-1.32302E-09-1.40468E-18 1.21094E-19
 -1      1667 9.52467E-05-2.85730E-05-2.85752E-05-6.71925E-09-1.20933E-18-7.28880E-19
 -1      1668 9.52445E-05-2.85349E-05-2.85896E-05-3.29740E-08 5.06479E-19-9.93696E-19
 -1      1669 9.52510E-05-2.85542E-05-2.85833E-05-9.50848E-09 1.09740E-18-3.46306E-19
 -1      1670 2.09660E-05-6.89497E-05 1.43293E-05-7.37584E-06 1.00306E-17 4.52506E-18
 -1      1671 2.36131E-05-7.63251E-05 1.59886E-05 1.10564E-06 4.28689E-18 3.76252E-18
 -1      1672 1.84293E-05-4.26218E-05 5.54291E-06-1.13749E-06 1.51094E-17 8.16360E-18
 -1      1673 2.37028E-05-6.43743E-05 1.09791E-05-3.09582E-06 1.16946E-17 5.03820E-18
 -1      1674 3.39842E-05-1.63270E-05-9.88735E-06 2.48011E-05 1.43479E-17 9.04928E-18
 -1      1675 2.93923E-05-3.70927E-05-1.48860E-06 8.59538E-06 1.49349E-17 7.23281E-18
 -1      1676 6.71679E-05-2.21139E-06-2.76479E-05 5.39858E-05 1.25107E-17 1.23794E-17
 -1      1677 4.67162E-05-1.03685E-05-1.83093E-05 3.21595E-05 1.37863E-17 1.10191E-17
 -1      1678 1.24945E-04-1.21725E-05-4.56568E-05 7.46890E-05 9.23944E-18 1.15256E-17
 -1      1679 8.82350E-05-3.50993E-06-3.65227E-05 5.97092E-05 1.18568E-17 1.19347E-17
 -1      1680 1.91478E-04-3.72693E-05-6.12917E-05 6.79310E-05 5.33927E-18 7.99430E-18
 -1      1681 1.49313E-04-1.87905E-05-5.35553E-05 7.05939E-05 8.42967E-18 1.02372E-17
 -1      1682 2.42006E-04-5.88520E-05-7.21109E-05 3.83263E-05 3.51423E-18 2.43183E-18
 -1      1683 2.10743E-04-4.21529E-05-6.74451E-05 6.16316E-05 4.68171E-18 6.57298E-18
 -1      1684 2.53419E-04-6.31204E-05-7.50347E-05-1.23389E-05 3.79555E-18-5.54976E-18
 -1      1685 2.49318E-04-6.09348E-05-7.44954E-05 2.30425E-05 3.50121E-18 1.97570E-19
 -1      1686 2.24750E-04-4.85043E-05-6.99784E-05-5.71261E-05 7.09792E-18-1.34492E-17
 -1      1687 2.51600E-04-6.33493E-05-7.38337E-05-2.91212E-05 5.06886E-18-7.70292E-18
 -1      1688 1.62057E-04-2.24193E-05-5.68509E-05-7.28330E-05 1.23531E-17-1.89041E-17
 -1      1689 2.05681E-04-4.25715E-05-6.43332E-05-6.60284E-05 8.30156E-18-1.59327E-17
 -1      1690 9.64529E-05-4.12271E-06-3.93672E-05-6.32875E-05 1.69576E-17-1.96334E-17
 -1      1691 1.37143E-04-1.52896E-05-4.88116E-05-7.70591E-05 1.38939E-17-1.94089E-17
 -1      1692 5.31089E-05-1.22633E-05-1.99650E-05-3.45434E-05 1.74929E-17-1.53211E-17
 -1      1693 7.69599E-05-5.65991E-06-2.99530E-05-5.70383E-05 1.69119E-17-1.84213E-17
 -1      1694 2.92637E-05-3.34653E-05-2.91611E-06-9.72160E-06 1.56718E-17-1.07311E-17
 -1      1695 3.46620E-05-1.38300E-05-1.11407E-05-2.64725E-05 1.78487E-17-1.48053E-17
 -1      1696 2.36637E-05-6.06620E-05 9.58682E-06 2.84412E-06 9.51896E-18-6.80220E-18
 -1      1697 1.93216E-05-3.91032E-05 3.93782E-06-1.03490E-06 1.48739E-17-9.20661E-18
 -1      1698 2.40852E-05-7.63993E-05 1.56963E-05 3.34622E-07 7.88799E-19-3.67337E-18
 -1      1699 2.04257E-05-6.58108E-05 1.34130E-05 7.28697E-06 7.43144E-18-6.02569E-18
 -1      1700 2.14556E-05-7.05930E-05 1.48308E-05-5.50102E-06-7.21630E-18-3.55351E-18
 -1      1701 2.36621E-05-7.69486E-05 1.61599E-05 3.17963E-06-1.85013E-18-2.66561E-18
 -1      1702 1.90326E-05-4.54832E-05 6.64169E-06-6.28481E-08-1.38439E-17-7.38999E-18
 -1      1703 2.39270E-05-6.54491E-05 1.16153E-05-4.88799E-07-9.28899E-18-5.00173E-18
 -1      1704 2.65597E-05-1.76051E-05-6.57390E-06 1.85948E-05-1.77479E-17-1.32967E-17
 -1      1705 2.55167E-05-3.90873E-05 8.02495E-07 5.63099E-06-1.57125E-17-9.32181E-18
 -1      1706 5.76166E-05-6.83974E-07-2.44873E-05 5.01956E-05-1.81655E-17-1.74108E-17
 -1      1707 3.96733E-05-1.24022E-05-1.47737E-05 2.71873E-05-1.84619E-17-1.43369E-17
 -1      1708 1.14402E-04-7.54445E-06-4.32184E-05 7.47489E-05-1.47350E-17-1.95783E-17
 -1      1709 7.87644E-05-9.53380E-07-3.37677E-05 5.73820E-05-1.72490E-17-1.85432E-17
 -1      1710 1.83710E-04-3.30965E-05-5.97737E-05 7.24429E-05-9.84528E-18-1.69068E-17
 -1      1711 1.39527E-04-1.38248E-05-5.16463E-05 7.33683E-05-1.32789E-17-1.94360E-17
 -1      1712 2.35995E-04-5.66740E-05-7.08155E-05 4.05745E-05-5.79762E-18-9.28475E-18
 -1      1713 2.03769E-04-3.91907E-05-6.60023E-05 6.36379E-05-8.53116E-18-1.48671E-17
 -1      1714 2.48647E-04-6.17692E-05-7.39645E-05-1.00615E-05-4.61654E-18 7.22625E-19
 -1      1715 2.43521E-04-5.89075E-05-7.32811E-05 2.46127E-05-4.92338E-18-5.96057E-18
 -1      1716 2.23234E-04-4.83885E-05-6.95613E-05-5.52397E-05-6.59251E-18 1.04829E-17
 -1      1717 2.47517E-04-6.21413E-05-7.30100E-05-2.69309E-05-4.95472E-18 3.97978E-18
 -1      1718 1.62261E-04-2.16916E-05-5.71221E-05-7.34676E-05-1.16166E-17 1.65934E-17
 -1      1719 2.04873E-04-4.21722E-05-6.42941E-05-6.49341E-05-8.01293E-18 1.30138E-17
 -1      1720 9.84106E-05-4.08605E-06-3.99315E-05-6.42398E-05-1.28207E-17 1.75014E-17
 -1      1721 1.38457E-04-1.59277E-05-4.91703E-05-7.65060E-05-1.17339E-17 1.87516E-17
 -1      1722 4.99565E-05-5.94507E-06-2.10388E-05-3.74726E-05-1.26191E-17 1.25251E-17
 -1      1723 7.41168E-05-3.38927E-07-3.07990E-05-6.00506E-05-1.31188E-17 1.68932E-17
 -1      1724 3.05838E-05-3.18422E-05-3.78009E-06-1.25391E-05-8.91926E-18 7.63897E-18
 -1      1725 3.68521E-05-1.21916E-05-1.23359E-05-2.99435E-05-1.20787E-17 1.05282E-17
 -1      1726 2.35375E-05-5.96167E-05 9.38345E-06 9.37212E-07-3.98614E-18 3.48787E-18
 -1      1727 1.88446E-05-3.69362E-05 3.49085E-06-2.78296E-06-7.67920E-18 5.99001E-18
 -1      1728 2.31469E-05-7.35737E-05 1.53187E-05-2.77689E-06 2.65672E-18 3.03026E-18
 -1      1729 1.98866E-05-6.32191E-05 1.29792E-05 4.31331E-06-2.20356E-18 3.07346E-18
 -1      1730 1.06622E-04-3.12199E-05-3.18776E-05 4.48895E-05 6.69495E-18 5.45320E-18
 -1      1731 6.86879E-05-3.67097E-05-1.53240E-05 3.74325E-05 7.36749E-18 5.08728E-18
 -1      1732 9.52405E-05-2.85799E-05-2.85675E-05-1.42810E-08-4.57198E-18-1.58256E-18
 -1      1733 9.52414E-05-2.85644E-05-2.85753E-05-9.17742E-09-1.41694E-18 8.18216E-19
 -1      1734 1.75186E-05-4.94936E-05 9.15761E-06 1.11540E-05 5.56924E-18 6.26127E-18
 -1      1735 3.74270E-05-4.27396E-05-8.20947E-07 2.62327E-05 7.26754E-18 5.37904E-18
 -1      1736 1.15722E-05-4.93993E-05 1.16799E-05-2.24107E-06 1.81625E-18 5.98302E-18
 -1      1737 1.49991E-04-3.23223E-05-4.79114E-05 4.21470E-05 5.97222E-18 3.53636E-18
 -1      1738 1.85901E-04-3.38417E-05-6.10788E-05 2.94354E-05 5.18045E-18 2.12012E-18
 -1      1739 2.07137E-04-3.32433E-05-6.92182E-05 1.24384E-05 5.53240E-18-1.82832E-18
 -1      1740 2.11709E-04-3.44202E-05-7.03564E-05-9.40685E-06 7.22519E-18-4.98161E-18
 -1      1741 1.94669E-04-3.46445E-05-6.38248E-05-2.87918E-05 8.74710E-18-7.89096E-18
 -1      1742 1.58011E-04-3.22994E-05-5.08763E-05-4.19188E-05 9.86836E-18-1.04312E-17
 -1      1743 1.14930E-04-3.38260E-05-3.41523E-05-4.37616E-05 9.45924E-18-1.05803E-17
 -1      1744 7.42973E-05-3.75258E-05-1.69980E-05-3.88083E-05 8.58722E-18-1.03906E-17
 -1      1745 3.96623E-05-4.19307E-05-2.09781E-06-2.69820E-05 7.32853E-18-9.57041E-18
 -1      1746 1.94059E-05-4.86320E-05 8.11149E-06-1.31926E-05 4.11616E-18-8.91015E-18
 -1      1747 1.21299E-05-5.19761E-05 1.22062E-05-8.44039E-07-7.73447E-20-6.60220E-18
 -1      1748 1.63154E-05-4.88498E-05 9.57907E-06 1.20040E-05-4.47318E-18-7.11592E-18
 -1      1749 3.21060E-05-4.23779E-05 1.02026E-06 2.43418E-05-8.00700E-18-8.48028E-18
 -1      1750 5.89141E-05-3.44531E-05-1.23685E-05 3.61698E-05-1.00822E-17-1.02466E-17
 -1      1751 9.74803E-05-2.90453E-05-2.90466E-05 4.56189E-05-1.10216E-17-1.16857E-17
 -1      1752 1.42204E-04-2.92494E-05-4.59644E-05 4.55807E-05-9.73537E-18-1.12977E-17
 -1      1753 1.80811E-04-3.14936E-05-5.98558E-05 3.39656E-05-9.20439E-18-9.17675E-18
 -1      1754 2.02642E-04-3.19043E-05-6.81105E-05 1.44970E-05-8.77950E-18-4.48165E-18
 -1      1755 2.07990E-04-3.33268E-05-6.95478E-05-8.73360E-06-8.15777E-18 2.75392E-19
 -1      1756 1.92044E-04-3.29103E-05-6.36095E-05-2.93131E-05-8.37377E-18 4.38551E-18
 -1      1757 1.56466E-04-3.05031E-05-5.10584E-05-4.18013E-05-8.33544E-18 8.28991E-18
 -1      1758 1.12902E-04-2.92674E-05-3.48696E-05-4.64334E-05-6.66318E-18 1.16323E-17
 -1      1759 7.25000E-05-3.39411E-05-1.77367E-05-4.01431E-05-6.02749E-18 9.46348E-18
 -1      1760 4.05611E-05-4.05932E-05-2.76400E-06-2.95450E-05-3.93023E-18 7.63267E-18
 -1      1761 1.88100E-05-4.63344E-05 7.69510E-06-1.49926E-05-4.05729E-19 5.50550E-18
 -1      1762 1.05808E-04-2.31194E-05-3.55231E-05-1.67550E-05-2.32426E-18 1.00960E-17
 -1      1763 8.91969E-05-1.05821E-05-3.38175E-05-1.31387E-05-3.04288E-18-2.90135E-18
 -1      1764 9.05052E-05-1.16333E-05-3.39433E-05-1.49505E-05-3.47336E-18-1.84693E-18
 -1      1765 9.24789E-05-1.38818E-05-3.38458E-05-1.58338E-05-3.45019E-18-4.90220E-19
 -1      1766 9.41501E-05-1.58244E-05-3.40700E-05-1.75028E-05-3.71384E-18 1.40242E-18
 -1      1767 9.34266E-05-1.63419E-05-3.30506E-05-1.35769E-05-3.65723E-18-9.52859E-19
 -1      1768 8.62634E-05-7.60307E-06-3.37828E-05-7.69265E-06-1.74306E-18-4.67659E-18
 -1      1769 8.66726E-05-7.91498E-06-3.38120E-05-9.06996E-06-2.09518E-18-4.47207E-18
 -1      1770 8.56258E-05-6.92898E-06-3.37866E-05-5.18695E-06-1.07381E-18-4.89588E-18
 -1      1771 8.58693E-05-7.11987E-06-3.37991E-05-6.47115E-06-1.41340E-18-4.81530E-18
 -1      1772 8.76190E-05-9.74660E-06-3.34044E-05-6.74652E-06-1.73915E-18-4.54347E-18
 -1      1773 8.52723E-05-6.54341E-06-3.37932E-05-2.80937E-06-3.86504E-19-4.83490E-18
 -1      1774 8.54004E-05-6.64627E-06-3.37979E-05-4.02239E-06-7.13145E-19-4.88546E-18
 -1      1775 8.69552E-05-8.99166E-06-3.34439E-05-4.40342E-06-9.74150E-19-4.68740E-18
 -1      1776 8.51323E-05-6.38225E-06-3.37980E-05-5.01360E-07 3.29132E-19-4.70560E-18
 -1      1777 8.51704E-05-6.41355E-06-3.37990E-05-1.68087E-06-3.33275E-20-4.78185E-18
 -1      1778 8.66022E-05-8.58390E-06-3.34671E-05-2.14698E-06-2.30620E-19-4.60921E-18
 -1      1779 8.51816E-05-6.42296E-06-3.37996E-05 1.79588E-06 9.13496E-19-4.63715E-18
 -1      1780 8.51365E-05-6.38697E-06-3.37980E-05 6.15312E-07 6.52095E-19-4.71369E-18
 -1      1781 8.64967E-05-8.46031E-06-3.34749E-05 6.35594E-08 5.06801E-19-4.52137E-18
 -1      1782 8.54285E-05-6.67217E-06-3.37990E-05 4.14221E-06 1.55192E-18-4.42670E-18
 -1      1783 8.52924E-05-6.56308E-06-3.37938E-05 2.92591E-06 1.22952E-18-4.57676E-18
 -1      1784 8.66217E-05-8.60414E-06-3.34670E-05 2.27545E-06 1.15241E-18-4.44091E-18
 -1      1785 8.59065E-05-7.15622E-06-3.38001E-05 6.55746E-06 2.18742E-18-3.95443E-18
 -1      1786 8.56594E-05-6.96205E-06-3.37876E-05 5.29003E-06 1.86388E-18-4.23239E-18
 -1      1787 8.69929E-05-9.03063E-06-3.34435E-05 4.51586E-06 1.84774E-18-4.14951E-18
 -1      1788 8.67366E-05-7.98371E-06-3.38117E-05 9.19026E-06 2.94949E-18-3.27943E-18
 -1      1789 8.63107E-05-7.65360E-06-3.37830E-05 7.78129E-06 2.55169E-18-3.65972E-18
 -1      1790 8.76734E-05-9.80629E-06-3.34033E-05 6.84430E-06 2.58471E-18-3.59716E-18
 -1      1791 8.81471E-05-9.36714E-06-3.38509E-05 1.20604E-05 3.52988E-18-2.07730E-18
 -1      1792 8.74132E-05-8.79757E-06-3.37879E-05 1.04707E-05 3.18951E-18-2.83915E-18
 -1      1793 8.88162E-05-1.10896E-05-3.33415E-05 9.29283E-06 3.27324E-18-2.78633E-18
 -1      1794 9.06553E-05-1.18430E-05-3.39353E-05 1.51189E-05 3.98103E-18 8.99973E-20
 -1      1795 8.92997E-05-1.07376E-05-3.38098E-05 1.33249E-05 3.67862E-18-1.18203E-18
 -1      1796 9.07114E-05-1.31940E-05-3.32401E-05 1.17625E-05 3.83943E-18-1.36789E-18
 -1      1797 9.58090E-05-1.70314E-05-3.39644E-05 1.75340E-05 3.79687E-18 3.92827E-18
 -1      1798 9.28433E-05-1.43479E-05-3.38184E-05 1.60266E-05 3.80395E-18 1.62032E-18
 -1      1799 9.39758E-05-1.68797E-05-3.30299E-05 1.37038E-05 4.00408E-18 9.56565E-19
 -1      1800 1.01759E-04-2.50557E-05-3.33032E-05 1.43060E-05 3.15133E-18 8.70104E-18
 -1      1801 9.79703E-05-1.96038E-05-3.35852E-05 1.68256E-05 3.49929E-18 5.59640E-18
 -1      1802 9.72688E-05-2.18409E-05-3.24063E-05 1.30926E-05 3.89582E-18 4.00681E-18
 -1      1803 9.86197E-05-2.61004E-05-3.12991E-05 9.32460E-06 3.24355E-18 7.68803E-18
 -1      1804 1.00012E-04-1.95455E-05-3.41649E-05-1.87377E-05-3.16417E-18 4.59007E-18
 -1      1805 9.52523E-05-2.72611E-05-2.91694E-05 3.94762E-06 2.54839E-18 6.16285E-18
 -1      1806 9.76404E-05-2.73575E-05-3.01644E-05 6.28594E-06 2.77149E-18 7.01751E-18
 -1      1807 9.75103E-05-2.55941E-05-3.08138E-05 8.61782E-06 3.25610E-18 4.95071E-18
 -1      1808 9.97132E-05-2.25210E-05-3.28021E-05-1.43235E-05-3.43742E-18 3.26134E-18
 -1      1809 9.69195E-05-2.69556E-05-2.98694E-05-5.55479E-06-2.71448E-18 2.75324E-18
 -1      1810 9.51585E-05-2.70174E-05-2.91746E-05-3.73549E-06-2.39528E-18 2.05474E-18
 -1      1811 9.43819E-05-2.72242E-05-2.86843E-05-2.23047E-06-2.13878E-18 2.04054E-18
 -1      1812 9.36723E-05-2.73164E-05-2.83989E-05-1.35143E-06-1.89362E-18 1.39901E-18
 -1      1813 9.55612E-05-2.65277E-05-2.96082E-05-4.23918E-06-2.64023E-18 6.62357E-19
 -1      1814 9.32059E-05-2.73767E-05-2.81526E-05-4.81509E-07-1.63312E-18 1.26215E-18
 -1      1815 9.29884E-05-2.74569E-05-2.80570E-05-3.89536E-09-1.36337E-18 8.17764E-19
 -1      1816 9.44505E-05-2.72103E-05-2.88393E-05-1.51393E-06-2.16438E-18 4.17931E-19
 -1      1817 9.27920E-05-2.74985E-05-2.79508E-05 5.13756E-07-1.23485E-18 5.27017E-19
 -1      1818 9.28758E-05-2.75993E-05-2.79567E-05 7.93167E-07-1.09935E-18 1.59646E-19
 -1      1819 9.38828E-05-2.75297E-05-2.84555E-05 7.13160E-08-1.68196E-18-4.19331E-20
 -1      1820 9.28793E-05-2.76516E-05-2.79378E-05 1.11754E-06-1.03342E-18 8.61674E-20
 -1      1821 9.31516E-05-2.77726E-05-2.80054E-05 1.29544E-06-9.49321E-19-3.51373E-19
 -1      1822 9.37431E-05-2.77376E-05-2.83029E-05 1.03950E-06-1.29364E-18-5.63509E-19
 -1      1823 9.32991E-05-2.78404E-05-2.80448E-05 1.51654E-06-9.61645E-19-5.42233E-19
 -1      1824 9.36986E-05-2.79781E-05-2.81539E-05 1.64536E-06-9.42920E-19-6.62726E-19
 -1      1825 9.39233E-05-2.79178E-05-2.82995E-05 1.66976E-06-1.10408E-18-9.67351E-19
 -1      1826 9.39534E-05-2.80611E-05-2.82347E-05 1.81721E-06-8.51661E-19-5.58429E-19
 -1      1827 9.44494E-05-2.82144E-05-2.83751E-05 1.92813E-06-5.22638E-19-5.19914E-19
 -1      1828 9.43405E-05-2.80980E-05-2.83986E-05 2.12429E-06-8.52425E-19-9.71625E-19
 -1      1829 9.47902E-05-2.83127E-05-2.84877E-05 2.08412E-06-6.90369E-19-5.39447E-19
 -1      1830 9.53702E-05-2.84835E-05-2.86545E-05 2.19582E-06-5.77850E-19-6.91373E-19
 -1      1831 9.49423E-05-2.82903E-05-2.85725E-05 2.50196E-06-7.29951E-19-8.62897E-19
 -1      1832 9.57870E-05-2.85994E-05-2.87931E-05 2.35525E-06-6.99362E-19-8.68400E-19
 -1      1833 9.64492E-05-2.87923E-05-2.89846E-05 2.47694E-06-7.33677E-19-1.35651E-18
 -1      1834 9.57012E-05-2.85052E-05-2.88048E-05 2.86266E-06-9.44939E-19-1.25373E-18
 -1      1835 9.69388E-05-2.89298E-05-2.91456E-05 2.64707E-06-6.59567E-19-1.48346E-18
 -1      1836 9.76850E-05-2.91511E-05-2.93610E-05 2.77861E-06-2.99161E-19-1.79891E-18
 -1      1837 9.66068E-05-2.87561E-05-2.90850E-05 3.23693E-06-9.42313E-19-1.34106E-18
 -1      1838 9.82481E-05-2.93169E-05-2.95412E-05 2.95394E-06-2.97721E-19-1.81928E-18
 -1      1839 9.90778E-05-2.95735E-05-2.97786E-05 3.08418E-06-3.37187E-19-1.87153E-18
 -1      1840 9.76594E-05-2.90610E-05-2.94054E-05 3.62763E-06-5.61103E-19-1.84941E-18
 -1      1841 9.97153E-05-2.97761E-05-2.99736E-05 3.24382E-06-4.26350E-20-1.96611E-18
 -1      1842 1.00618E-04-3.00743E-05-3.02281E-05 3.34750E-06-2.07713E-19-1.86119E-18
 -1      1843 9.88636E-05-2.94437E-05-2.97573E-05 4.00648E-06-2.81791E-19-1.70836E-18
 -1      1844 1.01328E-04-3.03236E-05-3.04307E-05 3.45127E-06-4.72469E-19-1.82306E-18
 -1      1845 1.02275E-04-3.06658E-05-3.06914E-05 3.48558E-06-4.23079E-19-1.31470E-18
 -1      1846 1.00221E-04-2.99336E-05-3.01288E-05 4.30708E-06-2.30133E-19-1.27004E-18
 -1      1847 1.03046E-04-3.09714E-05-3.08906E-05 3.47034E-06-2.74940E-19-1.44949E-18
 -1      1848 1.03979E-04-3.13517E-05-3.11387E-05 3.37298E-06 1.24136E-19-1.59857E-18
 -1      1849 1.01724E-04-3.05626E-05-3.05022E-05 4.41683E-06-3.62780E-19-9.29447E-19
 -1      1850 1.04788E-04-3.17173E-05-3.13190E-05 3.15255E-06 2.37444E-19-1.91967E-18
 -1      1851 1.05612E-04-3.21131E-05-3.15263E-05 2.84585E-06-3.89106E-20-1.54022E-18
 -1      1852 1.03340E-04-3.13554E-05-3.08532E-05 4.17269E-06-4.82900E-20-1.65707E-18
 -1      1853 1.06410E-04-3.25261E-05-3.16692E-05 2.32108E-06-3.36663E-19-1.67804E-18
 -1      1854 1.06985E-04-3.28856E-05-3.17996E-05 1.72940E-06-3.97804E-19-1.68807E-18
 -1      1855 1.04998E-04-3.23069E-05-3.11526E-05 3.37132E-06-2.06299E-19-1.67586E-18
 -1      1856 1.07684E-04-3.32984E-05-3.18874E-05 8.18919E-07-1.81665E-19-1.58684E-18
 -1      1857 1.07840E-04-3.35280E-05-3.19030E-05-9.18345E-08-4.33972E-20-1.48756E-18
 -1      1858 1.06559E-04-3.33405E-05-3.13724E-05 1.81147E-06-1.77076E-19-1.15326E-18
 -1      1859 1.08300E-04-3.38359E-05-3.19254E-05-1.38920E-06 1.55550E-19-9.20446E-19
 -1      1860 1.07868E-04-3.37977E-05-3.18000E-05-2.54716E-06 4.93000E-19-9.27013E-19
 -1      1861 1.07783E-04-3.42518E-05-3.14964E-05-6.08011E-07 3.62560E-19-6.31648E-19
 -1      1862 1.07901E-04-3.38338E-05-3.17618E-05-4.06065E-06 5.65481E-19-6.03268E-19
 -1      1863 1.06790E-04-3.33811E-05-3.14979E-05-5.21992E-06 6.78784E-19-8.55993E-19
 -1      1864 1.08316E-04-3.46700E-05-3.15325E-05-3.72142E-06 5.94200E-19-3.76718E-19
 -1      1865 1.06227E-04-3.29696E-05-3.14219E-05-6.53054E-06 9.40127E-19-8.77410E-19
 -1      1866 1.04534E-04-3.20442E-05-3.10647E-05-7.26301E-06 7.97300E-19-6.03074E-19
 -1      1867 1.07763E-04-3.41273E-05-3.15182E-05-6.90250E-06 1.06683E-18-9.07053E-20
 -1      1868 1.03379E-04-3.11435E-05-3.09835E-05-7.75268E-06 1.91975E-19-2.33999E-19
 -1      1869 1.01469E-04-2.99159E-05-3.06186E-05-7.58516E-06-1.71170E-19 1.08261E-19
 -1      1870 1.05924E-04-3.23331E-05-3.15054E-05-9.00510E-06 6.23517E-19-1.24937E-19
 -1      1871 1.00083E-04-2.87986E-05-3.05605E-05-6.73381E-06-8.41441E-19 2.98599E-19
 -1      1872 9.85526E-05-2.77113E-05-3.02900E-05-5.46241E-06-1.13434E-18 1.09525E-19
 -1      1873 1.03174E-04-2.96048E-05-3.15272E-05-8.70545E-06-3.24331E-19-5.35020E-20
 -1      1874 9.75913E-05-2.69205E-05-3.02646E-05-3.29646E-06-1.17560E-18-3.38138E-19
 -1      1875 9.70186E-05-2.64903E-05-3.01688E-05-1.24746E-06-1.18747E-18-3.05147E-19
 -1      1876 1.00617E-04-2.70475E-05-3.15747E-05-5.37115E-06-1.24278E-18 3.36149E-19
 -1      1877 9.70430E-05-2.65066E-05-3.01714E-05 1.46662E-06-1.18849E-18-1.02790E-18
 -1      1878 9.76696E-05-2.69707E-05-3.02785E-05 3.50114E-06-9.89421E-19-1.48993E-18
 -1      1879 9.95914E-05-2.60137E-05-3.16020E-05 1.36169E-07-1.23069E-18-4.90377E-19
 -1      1880 9.86732E-05-2.77901E-05-3.03081E-05 5.63095E-06-6.17322E-19-2.12106E-18
 -1      1881 1.00244E-04-2.88992E-05-3.05872E-05 6.86352E-06-4.31272E-19-2.52902E-18
 -1      1882 1.00712E-04-2.71228E-05-3.15803E-05 5.60387E-06-1.08295E-18-1.59748E-18
 -1      1883 1.01645E-04-3.00228E-05-3.06500E-05 7.65754E-06-3.65013E-19-2.63258E-18
 -1      1884 1.03568E-04-3.12477E-05-3.10204E-05 7.78291E-06 8.34985E-20-2.74245E-18
 -1      1885 1.03330E-04-2.97314E-05-3.15397E-05 8.82905E-06-3.65440E-19-1.85180E-18
 -1      1886 1.04711E-04-3.21298E-05-3.11061E-05 7.25306E-06 7.01482E-19-2.99591E-18
 -1      1887 1.06402E-04-3.30386E-05-3.14661E-05 6.50109E-06 8.32524E-19-2.99459E-18
 -1      1888 1.06079E-04-3.24385E-05-3.15263E-05 9.01617E-06 1.22521E-19-2.28305E-18
 -1      1889 1.06952E-04-3.34310E-05-3.15472E-05 5.18400E-06-2.39945E-19-2.95401E-18
 -1      1890 1.08058E-04-3.38689E-05-3.18130E-05 4.02915E-06-6.81557E-19-3.40836E-18
 -1      1891 1.07889E-04-3.41801E-05-3.15507E-05 6.86505E-06 1.22687E-19-3.43161E-18
 -1      1892 1.08024E-04-3.38222E-05-3.18564E-05 2.53610E-06-1.32101E-18-3.48267E-18
 -1      1893 1.08461E-04-3.38538E-05-3.19852E-05 1.40014E-06-1.27515E-18-3.30974E-18
 -1      1894 1.08425E-04-3.46775E-05-3.15773E-05 3.70285E-06-7.64901E-19-4.30237E-18
 -1      1895 1.08015E-04-3.35448E-05-3.19698E-05 1.38761E-07-1.09041E-18-3.64355E-18
 -1      1896 1.07880E-04-3.33177E-05-3.19613E-05-7.40369E-07-5.10317E-19-4.17747E-18
 -1      1897 1.07903E-04-3.42384E-05-3.15548E-05 6.53935E-07-1.62315E-18-3.56994E-18
 -1      1898 1.07209E-04-3.29112E-05-3.18836E-05-1.60707E-06 3.73422E-20-3.93115E-18
 -1      1899 1.06676E-04-3.25624E-05-3.17658E-05-2.16247E-06-4.39200E-20-3.69014E-18
 -1      1900 1.06721E-04-3.33273E-05-3.14485E-05-1.67627E-06-3.50149E-19-3.85004E-18
 -1      1901 1.05921E-04-3.21610E-05-3.16369E-05-2.63972E-06-5.30339E-19-3.09580E-18
 -1      1902 1.05161E-04-3.17836E-05-3.14484E-05-2.90773E-06 1.56211E-19-2.72149E-18
 -1      1903 1.05231E-04-3.23091E-05-3.12525E-05-3.13448E-06 2.73544E-19-2.84488E-18
 -1      1904 1.04409E-04-3.14338E-05-3.12867E-05-3.07832E-06 3.14177E-19-2.52180E-18
 -1      1905 1.03564E-04-3.10789E-05-3.10641E-05-3.13507E-06 3.68633E-19-2.65985E-18
 -1      1906 1.03672E-04-3.13839E-05-3.09846E-05-3.82766E-06-1.38205E-19-1.90045E-18
 -1      1907 1.02863E-04-3.07929E-05-3.08883E-05-3.09815E-06 6.54349E-19-2.26475E-18
 -1      1908 1.02029E-04-3.04833E-05-3.06602E-05-3.02100E-06 3.82524E-19-1.87857E-18
 -1      1909 1.02184E-04-3.06256E-05-3.06734E-05-3.95860E-06 6.57467E-19-8.86861E-19
 -1      1910 1.01404E-04-3.02575E-05-3.04857E-05-2.86256E-06-5.01167E-19-1.84342E-18
 -1      1911 1.00640E-04-2.99997E-05-3.02711E-05-2.71361E-06-1.13976E-19-2.42905E-18
 -1      1912 1.00836E-04-3.00387E-05-3.03483E-05-3.73048E-06-7.77037E-20 4.93089E-19
 -1      1913 1.00100E-04-2.98248E-05-3.01087E-05-2.49739E-06 1.07857E-18-2.33671E-18
 -1      1914 9.94351E-05-2.96172E-05-2.99183E-05-2.32012E-06 1.16616E-18-9.26979E-19
 -1      1915 9.96614E-05-2.95994E-05-3.00332E-05-3.30696E-06 7.47000E-19-3.95650E-19
 -1      1916 9.89816E-05-2.94835E-05-2.97742E-05-2.08849E-06 6.97803E-19-6.47128E-19
 -1      1917 9.84249E-05-2.93205E-05-2.96123E-05-1.91024E-06 2.66003E-19-5.62429E-19
 -1      1918 9.86654E-05-2.92770E-05-2.97443E-05-2.80408E-06 1.09316E-18 6.94321E-20
 -1      1919 9.80524E-05-2.92193E-05-2.94893E-05-1.68865E-06-1.94886E-19-7.55703E-19
 -1      1920 9.76012E-05-2.90943E-05-2.93564E-05-1.52468E-06-8.47834E-19-5.83567E-19
 -1      1921 9.78412E-05-2.90439E-05-2.94905E-05-2.29614E-06-1.91017E-20-1.50649E-19
 -1      1922 9.73019E-05-2.90186E-05-2.92546E-05-1.32650E-06-1.74318E-18-6.38235E-19
 -1      1923 9.69462E-05-2.89246E-05-2.91487E-05-1.18393E-06-8.89632E-19-4.28649E-19
 -1      1924 9.71740E-05-2.88772E-05-2.92754E-05-1.82580E-06-1.17038E-18-4.37917E-19
 -1      1925 9.67105E-05-2.88687E-05-2.90667E-05-1.01458E-06-2.75931E-19-6.00928E-19
 -1      1926 9.64373E-05-2.87997E-05-2.89845E-05-8.95390E-07 3.52702E-19-7.82371E-19
 -1      1927 9.66448E-05-2.87595E-05-2.90984E-05-1.41379E-06-3.13072E-19-5.49102E-19
 -1      1928 9.62555E-05-2.87590E-05-2.89202E-05-7.55358E-07 1.05159E-18-8.17150E-19
 -1      1929 9.60511E-05-2.87095E-05-2.88581E-05-6.58503E-07 6.48349E-19-5.57354E-19
 -1      1930 9.62335E-05-2.86776E-05-2.89565E-05-1.06667E-06 1.65604E-19 5.92231E-19
 -1      1931 9.59139E-05-2.86803E-05-2.88088E-05-5.45492E-07-5.01393E-19-3.79654E-19
 -1      1932 9.57654E-05-2.86459E-05-2.87633E-05-4.68306E-07 3.27212E-19-1.59457E-19
 -1      1933 9.59203E-05-2.86215E-05-2.88456E-05-7.82521E-07 2.40685E-19-1.24995E-19
 -1      1934 9.56641E-05-2.86252E-05-2.87266E-05-3.78613E-07 6.77511E-19-9.34223E-19
 -1      1935 9.55602E-05-2.86022E-05-2.86944E-05-3.17737E-07 5.88101E-19-1.47639E-18
 -1      1936 9.56869E-05-2.85837E-05-2.87611E-05-5.54726E-07-4.32128E-19 6.94023E-19
 -1      1937 9.54873E-05-2.85878E-05-2.86679E-05-2.47247E-07 4.99193E-19-1.32136E-18
 -1      1938 9.54185E-05-2.85735E-05-2.86463E-05-1.99330E-07 8.66038E-19-1.57276E-18
 -1      1939 9.55171E-05-2.85588E-05-2.86985E-05-3.74671E-07 4.59575E-19 1.38720E-19
 -1      1940 9.53671E-05-2.85640E-05-2.86276E-05-1.43980E-07 1.20326E-18-1.49934E-18
 -1      1941 9.53256E-05-2.85567E-05-2.86140E-05-1.06599E-07 1.24630E-18-4.06145E-19
 -1      1942 9.53965E-05-2.85426E-05-2.86531E-05-2.33694E-07 4.33361E-19 6.78597E-19
 -1      1943 9.52935E-05-2.85528E-05-2.86015E-05-6.63719E-08 1.87185E-18-3.98492E-19
 -1      1944 9.52720E-05-2.85526E-05-2.85930E-05-4.00148E-08 2.05271E-18 4.05118E-20
 -1      1945 9.52700E-05-2.85442E-05-2.85978E-05-5.08790E-08 1.44040E-18 5.63289E-20
 -1      1946 9.53171E-05-2.85377E-05-2.86213E-05-1.26984E-07 1.90602E-18 6.12775E-19
 -1      1947 9.32498E-05-2.73573E-05-2.82104E-05 1.45251E-06 2.04168E-18 4.73327E-18
 -1      1948 9.43916E-05-2.74504E-05-2.86300E-05 2.53888E-06 2.16273E-18 5.67813E-18
 -1      1949 9.52408E-05-2.70340E-05-2.92376E-05 3.88223E-06 2.69544E-18 3.95591E-18
 -1      1950 9.23302E-05-2.73729E-05-2.78126E-05 1.36427E-07 1.56137E-18 3.50221E-18
 -1      1951 9.27534E-05-2.73877E-05-2.79624E-05 7.11623E-07 1.70895E-18 4.16656E-18
 -1      1952 9.37420E-05-2.73720E-05-2.84522E-05 1.35533E-06 2.18280E-18 2.99245E-18
 -1      1953 9.21390E-05-2.74533E-05-2.77045E-05-6.06194E-07 9.74159E-19 2.65680E-18
 -1      1954 9.21547E-05-2.74012E-05-2.77202E-05-2.72786E-07 1.20164E-18 3.12111E-18
 -1      1955 9.30563E-05-2.75139E-05-2.81010E-05-4.94015E-08 1.64855E-18 2.14547E-18
 -1      1956 9.24187E-05-2.76052E-05-2.77639E-05-1.05752E-06 5.97782E-19 2.11635E-18
 -1      1957 9.21918E-05-2.75068E-05-2.77043E-05-8.46719E-07 7.71546E-19 2.54413E-18
 -1      1958 9.29428E-05-2.76466E-05-2.79960E-05-8.75287E-07 9.68064E-19 1.50520E-18
 -1      1959 9.30159E-05-2.78140E-05-2.79324E-05-1.36567E-06 9.33230E-19 1.71424E-18
 -1      1960 9.26318E-05-2.76835E-05-2.78241E-05-1.21511E-06 5.86210E-19 1.98885E-18
 -1      1961 9.32208E-05-2.78092E-05-2.80441E-05-1.40219E-06 7.56385E-19 1.06690E-18
 -1      1962 9.38487E-05-2.80689E-05-2.81806E-05-1.61816E-06 6.71675E-19 1.42338E-18
 -1      1963 9.33486E-05-2.79133E-05-2.80361E-05-1.49016E-06 9.71845E-19 1.67922E-18
 -1      1964 9.37776E-05-2.80054E-05-2.81972E-05-1.78572E-06 1.05167E-18 8.86525E-19
 -1      1965 9.48838E-05-2.83670E-05-2.84962E-05-1.87280E-06 5.58463E-19 8.01884E-19
 -1      1966 9.42815E-05-2.81874E-05-2.83197E-05-1.74169E-06 5.61878E-19 1.17776E-18
 -1      1967 9.45521E-05-2.82344E-05-2.84300E-05-2.12189E-06 8.56017E-19 6.08861E-19
 -1      1968 9.61205E-05-2.87130E-05-2.88772E-05-2.17030E-06-7.38838E-20 1.08839E-18
 -1      1969 9.54120E-05-2.85058E-05-2.86680E-05-2.01731E-06 2.28528E-19 9.61763E-19
 -1      1970 9.55200E-05-2.84985E-05-2.87313E-05-2.47527E-06 2.89407E-19 5.42456E-19
 -1      1971 9.75811E-05-2.91177E-05-2.93286E-05-2.53875E-06 2.99718E-19 1.09940E-18
 -1      1972 9.67501E-05-2.88758E-05-2.90825E-05-2.35027E-06 9.14407E-20 1.05660E-18
 -1      1973 9.66828E-05-2.88051E-05-2.90985E-05-2.89063E-06 2.02646E-19 6.72296E-19
 -1      1974 9.93015E-05-2.95976E-05-2.98593E-05-2.99289E-06 6.36274E-19 1.20084E-18
 -1      1975 9.83250E-05-2.93112E-05-2.95702E-05-2.76105E-06 3.48609E-19 1.17547E-18
 -1      1976 9.80601E-05-2.91673E-05-2.95343E-05-3.39605E-06 3.60100E-19 4.34835E-19
 -1      1977 1.01321E-04-3.01738E-05-3.04776E-05-3.52821E-06 8.74813E-19 8.79427E-19
 -1      1978 1.00175E-04-2.98313E-05-3.01400E-05-3.25393E-06 9.31442E-19 1.18126E-18
 -1      1979 9.96812E-05-2.96046E-05-3.00427E-05-3.99972E-06 9.68807E-19 5.05700E-19
 -1      1980 1.03669E-04-3.08712E-05-3.11866E-05-4.10857E-06 5.67429E-19 5.29339E-19
 -1      1981 1.02339E-04-3.04605E-05-3.07981E-05-3.80789E-06 4.61425E-19 8.10043E-19
 -1      1982 1.01578E-04-3.01447E-05-3.06256E-05-4.68011E-06 5.89523E-19 6.49908E-19
 -1      1983 1.06343E-04-3.17162E-05-3.19757E-05-4.64517E-06 9.47023E-20 6.88244E-19
 -1      1984 1.04837E-04-3.12282E-05-3.15418E-05-4.36015E-06 2.76197E-19 5.33579E-19
 -1      1985 1.03773E-04-3.08251E-05-3.12765E-05-5.36745E-06 5.19401E-19 3.46230E-19
 -1      1986 1.09282E-04-3.27314E-05-3.28102E-05-4.96725E-06 3.43906E-20 4.15939E-20
 -1      1987 1.07652E-04-3.21649E-05-3.23512E-05-4.78151E-06 4.66948E-20 5.58923E-19
 -1      1988 1.06268E-04-3.16947E-05-3.19746E-05-5.91594E-06 5.47999E-20 2.39849E-20
 -1      1989 1.12322E-04-3.39196E-05-3.36195E-05-4.79246E-06 3.21383E-19 5.44576E-19
 -1      1990 1.10693E-04-3.32936E-05-3.31780E-05-4.84749E-06-6.98207E-20 3.62345E-19
 -1      1991 1.09021E-04-3.28080E-05-3.26773E-05-6.07029E-06 4.29944E-20 8.37504E-20
 -1      1992 1.15154E-04-3.52267E-05-3.42907E-05-3.72520E-06-4.07271E-20 1.60910E-18
 -1      1993 1.13750E-04-3.46016E-05-3.39366E-05-4.22280E-06 1.51533E-19 1.29385E-18
 -1      1994 1.11910E-04-3.41980E-05-3.33168E-05-5.44477E-06-2.36408E-20 5.33839E-19
 -1      1995 1.17271E-04-3.64666E-05-3.46792E-05-1.34957E-06-1.46911E-18 2.04237E-18
 -1      1996 1.16430E-04-3.59779E-05-3.45042E-05-2.50510E-06-6.78679E-19 1.79775E-18
 -1      1997 1.14683E-04-3.58013E-05-3.38078E-05-3.56281E-06-6.50773E-19 1.37457E-18
 -1      1998 1.17982E-04-3.72182E-05-3.46555E-05 2.48332E-06-9.68609E-19 2.20821E-18
 -1      1999 1.18106E-04-3.71061E-05-3.47455E-05 5.89814E-07-1.20935E-18 2.10109E-18
 -1      2000 1.16869E-04-3.73156E-05-3.40751E-05-4.82691E-08-1.24567E-18 1.53121E-18
 -1      2001 1.16554E-04-3.68028E-05-3.41914E-05 7.13227E-06-1.72695E-19 3.06302E-18
 -1      2002 1.17962E-04-3.73735E-05-3.45713E-05 4.82633E-06-5.56024E-19 2.50454E-18
 -1      2003 1.17732E-04-3.80465E-05-3.41029E-05 4.93486E-06-1.04177E-18 2.05952E-18
 -1      2004 1.12676E-04-3.46134E-05-3.34372E-05 1.07077E-05 1.69430E-18 2.64862E-18
 -1      2005 1.15317E-04-3.60246E-05-3.40171E-05 8.94175E-06 8.32236E-19 2.82341E-18
 -1      2006 1.16448E-04-3.70212E-05-3.39781E-05 1.00638E-05 7.93293E-19 2.49229E-18
 -1      2007 1.07233E-04-3.09419E-05-3.26925E-05 1.05295E-05 3.51452E-19 2.13026E-18
 -1      2008 1.10395E-04-3.28358E-05-3.32703E-05 1.06126E-05 1.15736E-18 2.41031E-18
 -1      2009 1.12812E-04-3.37604E-05-3.38571E-05 1.26559E-05 1.31089E-18 2.59121E-18
 -1      2010 1.02802E-04-2.77149E-05-3.22450E-05 5.15367E-06-9.07913E-20 1.87230E-18
 -1      2011 1.05075E-04-2.90491E-05-3.26023E-05 7.69999E-06-8.13946E-20 1.82503E-18
 -1      2012 1.08188E-04-2.93806E-05-3.38348E-05 9.90202E-06 3.13746E-19 2.54866E-18
 -1      2013 1.02263E-04-2.73030E-05-3.22256E-05-3.05917E-06-2.20493E-20 1.16110E-18
 -1      2014 1.02432E-04-2.72120E-05-3.22192E-05 7.26839E-07-3.84368E-19 9.63853E-19
 -1      2015 1.05591E-04-2.68431E-05-3.38534E-05 1.86562E-06 1.20120E-19 1.26903E-18
 -1      2016 1.06155E-04-3.01098E-05-3.26734E-05-9.56156E-06 6.82814E-19 3.31137E-19
 -1      2017 1.04027E-04-2.85944E-05-3.22926E-05-6.67844E-06 5.28072E-19 9.05769E-19
 -1      2018 1.06901E-04-2.79865E-05-3.38643E-05-7.25640E-06 6.71274E-19 1.54868E-19
 -1      2019 1.11897E-04-3.39585E-05-3.34117E-05-1.11773E-05 6.34003E-19 6.95573E-19
 -1      2020 1.08679E-04-3.20745E-05-3.28223E-05-1.04499E-05 7.81917E-19 7.44939E-19
 -1      2021 1.11151E-04-3.20752E-05-3.39078E-05-1.23343E-05 8.89715E-19 1.72239E-19
 -1      2022 1.16530E-04-3.66628E-05-3.41740E-05-8.38473E-06-4.01533E-19 4.78785E-19
 -1      2023 1.13679E-04-3.53533E-05-3.35963E-05-9.53112E-06 1.98226E-19 4.86290E-19
 -1      2024 1.15406E-04-3.60001E-05-3.40061E-05-1.16373E-05 5.93671E-19 1.79028E-19
 -1      2025 1.18554E-04-3.74574E-05-3.46917E-05-3.78487E-06 7.55130E-19 5.80626E-19
 -1      2026 1.16949E-04-3.69940E-05-3.43173E-05-5.68182E-06 1.08103E-19 1.00944E-18
 -1      2027 1.17633E-04-3.79667E-05-3.41365E-05-7.13727E-06 2.97269E-19 7.59517E-19
 -1      2028 1.18153E-04-3.68673E-05-3.47952E-05 3.69082E-07 1.46934E-18 4.88758E-19
 -1      2029 1.17896E-04-3.70394E-05-3.47074E-05-1.35681E-06 1.42595E-18 5.37219E-19
 -1      2030 1.17507E-04-3.78134E-05-3.41716E-05-1.87162E-06 1.33712E-18 1.28784E-18
 -1      2031 1.16151E-04-3.56455E-05-3.44871E-05 3.12119E-06 3.69197E-19-8.88273E-19
 -1      2032 1.16914E-04-3.61499E-05-3.46568E-05 1.96132E-06 3.82316E-19-5.13950E-19
 -1      2033 1.15760E-04-3.64929E-05-3.39957E-05 2.26240E-06 1.31418E-18 4.38555E-19
 -1      2034 1.13361E-04-3.43046E-05-3.38830E-05 4.46575E-06 7.12169E-20-2.04707E-18
 -1      2035 1.14712E-04-3.49183E-05-3.42243E-05 3.88055E-06 2.51810E-19-1.34478E-18
 -1      2036 1.13203E-04-3.48630E-05-3.35931E-05 4.71798E-06 4.85026E-19-1.19778E-18
 -1      2037 1.10356E-04-3.30832E-05-3.31267E-05 4.78837E-06-5.25867E-19-1.27152E-18
 -1      2038 1.11938E-04-3.36840E-05-3.35485E-05 4.62578E-06-6.08138E-19-1.67042E-18
 -1      2039 1.10407E-04-3.33775E-05-3.30236E-05 5.72765E-06-4.61309E-19-2.36715E-18
 -1      2040 1.07482E-04-3.20548E-05-3.23372E-05 4.50704E-06-4.03235E-19-2.14276E-19
 -1      2041 1.09054E-04-3.25889E-05-3.27703E-05 4.59855E-06 5.15292E-20-5.27642E-19
 -1      2042 1.07699E-04-3.21764E-05-3.23719E-05 5.76355E-06-4.67387E-19-1.41110E-18
 -1      2043 1.04916E-04-3.12207E-05-3.15931E-05 3.93730E-06 2.48583E-18-6.82032E-19
 -1      2044 1.06343E-04-3.16709E-05-3.19948E-05 4.15380E-06 7.05360E-19-6.18359E-19
 -1      2045 1.05245E-04-3.12515E-05-3.17133E-05 5.25692E-06 1.08278E-18-5.95113E-19
 -1      2046 1.02725E-04-3.05576E-05-3.09359E-05 3.27793E-06 1.20930E-18-5.28722E-19
 -1      2047 1.03950E-04-3.09245E-05-3.12856E-05 3.53697E-06 2.21496E-18-1.56529E-19
 -1      2048 1.03114E-04-3.05509E-05-3.10992E-05 4.51356E-06 2.25396E-18 4.87762E-19
 -1      2049 1.00916E-04-3.00377E-05-3.03811E-05 2.63807E-06-9.42159E-20-2.62853E-18
 -1      2050 1.01927E-04-3.03295E-05-3.06725E-05 2.89359E-06 3.66160E-19-1.93534E-18
 -1      2051 1.01322E-04-3.00217E-05-3.05578E-05 3.71973E-06 1.56503E-18 1.21189E-19
 -1      2052 9.94593E-05-2.96349E-05-2.99278E-05 2.06886E-06 1.05696E-18-2.63110E-18
 -1      2053 1.00270E-04-2.98625E-05-3.01630E-05 2.29865E-06 4.34965E-19-2.30605E-18
 -1      2054 9.98517E-05-2.96219E-05-3.00995E-05 2.97475E-06 3.62636E-19-1.45394E-18
 -1      2055 9.83122E-05-2.93267E-05-2.95669E-05 1.58789E-06-4.16079E-19-2.37108E-18
 -1      2056 9.89468E-05-2.95011E-05-2.97521E-05 1.78372E-06 3.85210E-19-3.00395E-18
 -1      2057 9.86717E-05-2.93202E-05-2.97234E-05 2.32289E-06 4.74367E-19-2.72207E-18
 -1      2058 9.74258E-05-2.90941E-05-2.92858E-05 1.19499E-06-8.21581E-19-7.66960E-19
 -1      2059 9.79125E-05-2.92254E-05-2.94286E-05 1.35614E-06-1.07155E-18-1.57900E-18
 -1      2060 9.77423E-05-2.90937E-05-2.94224E-05 1.77693E-06-1.65876E-18-7.39009E-19
 -1      2061 9.67534E-05-2.89211E-05-2.90712E-05 8.81674E-07-1.65975E-18-1.02560E-18
 -1      2062 9.71195E-05-2.90183E-05-2.91790E-05 1.01108E-06-1.15176E-18-8.28275E-19
 -1      2063 9.70236E-05-2.89252E-05-2.91866E-05 1.33311E-06-1.06680E-18 5.33190E-19
 -1      2064 9.62532E-05-2.87948E-05-2.89106E-05 6.36266E-07-1.35879E-18-9.90453E-19
 -1      2065 9.65231E-05-2.88653E-05-2.89904E-05 7.38337E-07-1.77821E-18-1.22900E-18
 -1      2066 9.64777E-05-2.88014E-05-2.90057E-05 9.80128E-07-1.51747E-18-2.59237E-19
 -1      2067 9.58890E-05-2.87045E-05-2.87929E-05 4.46517E-07 6.36224E-19-7.59341E-19
 -1      2068 9.60833E-05-2.87544E-05-2.88507E-05 5.26061E-07 4.42986E-19-5.51368E-19
 -1      2069 9.60708E-05-2.87120E-05-2.88695E-05 7.03937E-07 1.76462E-20-3.97379E-19
 -1      2070 9.56311E-05-2.86417E-05-2.87092E-05 3.00823E-07-8.60620E-19-7.08783E-19
 -1      2071 9.57667E-05-2.86759E-05-2.87497E-05 3.62521E-07 1.29503E-19-7.94361E-19
 -1      2072 9.57741E-05-2.86487E-05-2.87693E-05 4.90277E-07 1.10975E-19 2.11596E-19
 -1      2073 9.54553E-05-2.85998E-05-2.86518E-05 1.88818E-07 2.38652E-18-9.88878E-19
 -1      2074 9.55457E-05-2.86220E-05-2.86789E-05 2.36955E-07 6.95819E-19-6.56743E-19
 -1      2075 9.55633E-05-2.86049E-05-2.86976E-05 3.25869E-07 8.20129E-19-1.17690E-19
 -1      2076 9.53423E-05-2.85739E-05-2.86146E-05 1.02360E-07 1.41261E-18-9.35466E-19
 -1      2077 9.53981E-05-2.85869E-05-2.86314E-05 1.40320E-07 2.25933E-18-9.90024E-19
 -1      2078 9.54188E-05-2.85761E-05-2.86479E-05 1.99411E-07 2.13435E-18-1.05370E-18
 -1      2079 9.52772E-05-2.85613E-05-2.85919E-05 3.72785E-08 1.41185E-18-1.82173E-18
 -1      2080 9.53063E-05-2.85667E-05-2.86014E-05 6.61091E-08 1.33834E-18-5.31492E-19
 -1      2081 9.53245E-05-2.85591E-05-2.86146E-05 1.02488E-07 1.12828E-18 3.22824E-19
 -1      2082 9.52513E-05-2.85619E-05-2.85804E-05 3.85895E-09-4.41372E-19 4.24555E-19
 -1      2083 9.52625E-05-2.85587E-05-2.85865E-05 2.18101E-08 1.08804E-18-6.46316E-19
 -1      2084 9.52753E-05-2.85522E-05-2.85961E-05 4.32956E-08 7.38606E-19 6.66479E-19
 -1      2085 9.52546E-05-2.85579E-05-2.85841E-05 1.17059E-08-8.13351E-19 2.59047E-18
 -1      2086 9.51891E-05-2.83697E-05-2.86374E-05 1.51241E-07 1.40788E-20-4.13291E-19
 -1      2087 9.52087E-05-2.84103E-05-2.86269E-05 1.38305E-07 6.32197E-19 1.18329E-18
 -1      2088 9.52293E-05-2.84556E-05-2.86174E-05 1.16027E-07 1.12398E-18 2.08202E-18
 -1      2089 9.52431E-05-2.84877E-05-2.86085E-05 9.22320E-08 8.23484E-19 4.78098E-18
 -1      2090 9.52224E-05-2.84060E-05-2.86358E-05 1.71698E-07-3.90068E-19 1.17810E-18
 -1      2091 9.52510E-05-2.85183E-05-2.85995E-05 6.34434E-08 6.08525E-19 4.49057E-18
 -1      2092 9.52554E-05-2.85383E-05-2.85924E-05 3.91354E-08-3.40457E-21 2.53563E-18
 -1      2093 9.52658E-05-2.85342E-05-2.85989E-05 5.39003E-08 3.17704E-19 2.58763E-18
 -1      2094 9.52542E-05-2.84825E-05-2.86171E-05 1.13311E-07-1.73759E-19 5.27274E-18
 -1      2095 9.51460E-05-2.82808E-05-2.86574E-05 1.57477E-07-1.67649E-18-6.73056E-18
 -1      2096 9.51667E-05-2.83230E-05-2.86467E-05 1.57847E-07-1.09027E-18-2.18314E-18
 -1      2097 9.51716E-05-2.83114E-05-2.86541E-05 2.02951E-07-1.95519E-18-2.70268E-18
 -1      2098 9.51064E-05-2.81998E-05-2.86755E-05 1.33594E-07-4.05179E-19-2.24797E-18
 -1      2099 9.51248E-05-2.82375E-05-2.86659E-05 1.46948E-07-4.46752E-19-5.53202E-18
 -1      2100 9.51190E-05-2.82183E-05-2.86710E-05 1.97463E-07-1.75510E-18-4.82990E-18
 -1      2101 9.50780E-05-2.81415E-05-2.86884E-05 8.44908E-08-9.54847E-19-4.26316E-19
 -1      2102 9.50904E-05-2.81672E-05-2.86819E-05 1.07916E-07 5.19972E-19-9.73248E-19
 -1      2103 9.50739E-05-2.81397E-05-2.86850E-05 1.55597E-07 5.47025E-19-1.62091E-18
 -1      2104 9.50651E-05-2.81151E-05-2.86941E-05 1.98904E-08-2.48415E-18-4.39973E-19
 -1      2105 9.50694E-05-2.81242E-05-2.86919E-05 4.87228E-08-1.97119E-18 4.64371E-19
 -1      2106 9.50440E-05-2.80878E-05-2.86941E-05 8.54280E-08-4.40807E-19-6.49282E-19
 -1      2107 9.50696E-05-2.81245E-05-2.86918E-05-4.80958E-08-1.71653E-18 9.80519E-21
 -1      2108 9.50652E-05-2.81155E-05-2.86941E-05-1.93305E-08-2.25750E-18 2.20089E-19
 -1      2109 9.50338E-05-2.80702E-05-2.86972E-05 7.41854E-11-2.55093E-18-4.69206E-20
 -1      2110 9.50908E-05-2.81681E-05-2.86817E-05-1.06934E-07-1.32733E-18-1.54272E-19
 -1      2111 9.50785E-05-2.81426E-05-2.86882E-05-8.36686E-08-1.55145E-18 2.55498E-19
 -1      2112 9.50446E-05-2.80893E-05-2.86937E-05-8.50228E-08-1.93651E-18 5.50632E-19
 -1      2113 9.51244E-05-2.82372E-05-2.86660E-05-1.45214E-07-4.03706E-19 8.36834E-19
 -1      2114 9.51066E-05-2.82004E-05-2.86753E-05-1.32026E-07-1.47407E-18 1.39518E-18
 -1      2115 9.50746E-05-2.81416E-05-2.86844E-05-1.54189E-07-8.02822E-19-1.61028E-19
 -1      2116 9.51661E-05-2.83228E-05-2.86466E-05-1.56692E-07 3.97712E-19 1.45967E-18
 -1      2117 9.51453E-05-2.82801E-05-2.86574E-05-1.56012E-07 6.87442E-20 1.97779E-18
 -1      2118 9.51188E-05-2.82196E-05-2.86704E-05-1.95598E-07 3.10166E-19 1.47345E-18
 -1      2119 9.52081E-05-2.84104E-05-2.86267E-05-1.37976E-07 5.87216E-20 3.38666E-19
 -1      2120 9.51886E-05-2.83698E-05-2.86371E-05-1.50434E-07 7.16206E-19 9.71229E-20
 -1      2121 9.51710E-05-2.83127E-05-2.86534E-05-2.01615E-07 2.94891E-19 1.30393E-18
 -1      2122 9.52419E-05-2.84894E-05-2.86082E-05-9.25491E-08 2.26432E-19-1.20992E-18
 -1      2123 9.52287E-05-2.84554E-05-2.86171E-05-1.16130E-07-3.23978E-19 1.66014E-19
 -1      2124 9.52216E-05-2.84069E-05-2.86350E-05-1.71039E-07-3.46861E-19 4.21069E-20
 -1      2125 5.26706E-05-3.89516E-05-6.47218E-06 3.79819E-05 2.77403E-18 2.31224E-18
 -1      2126 3.76687E-05-4.07369E-05-2.50919E-07 2.90649E-05 2.11674E-18 3.71996E-18
 -1      2127 1.25122E-05-3.34053E-05 7.58740E-06 3.69238E-06 1.30147E-18 5.65945E-18
 -1      2128 1.19250E-05-3.07614E-05 7.03518E-06-6.22038E-06 7.79270E-19 4.88823E-18
 -1      2129 2.23620E-05-3.49404E-05 4.16297E-06 2.13770E-05 2.46021E-18 4.91152E-18
 -1      2130 1.61819E-05-3.61613E-05 7.03495E-06 1.25569E-05 1.07171E-18 5.84919E-18
 -1      2131 1.64266E-05-2.46424E-05 2.87411E-06 1.05056E-05-7.54071E-19 6.04062E-18
 -1      2132 9.08024E-05-4.24991E-05-2.08342E-05 4.17763E-05 3.89932E-18 2.00980E-18
 -1      2133 7.32685E-05-4.48124E-05-1.32678E-05 3.72900E-05 3.88026E-18 1.13185E-18
 -1      2134 1.27630E-04-4.35207E-05-3.55745E-05 3.70425E-05 3.84426E-18 1.74404E-18
 -1      2135 1.07908E-04-4.48803E-05-2.77484E-05 3.55134E-05 3.24964E-18 2.60547E-18
 -1      2136 8.73094E-05-8.68895E-06-3.37902E-05-1.03516E-05-2.34602E-18-4.14689E-18
 -1      2137 8.80091E-05-9.21868E-06-3.38534E-05-1.19045E-05-2.80472E-18-3.60203E-18
 -1      2138 9.05296E-05-1.30190E-05-3.32677E-05-1.16641E-05-3.07622E-18-3.00293E-18
 -1      2139 8.87319E-05-1.09844E-05-3.33452E-05-9.20533E-06-2.39525E-18-4.05124E-18
 -1      2140 1.77532E-04-3.22726E-05-6.10168E-05 1.25731E-05 4.77557E-18-1.50052E-18
 -1      2141 1.64052E-04-3.31594E-05-5.55821E-05 1.65035E-05 4.64831E-18-3.59989E-20
 -1      2142 1.78715E-04-2.36720E-05-6.55222E-05 9.27692E-07 5.54383E-18-3.59502E-18
 -1      2143 1.76025E-04-2.58862E-05-6.34770E-05 6.69200E-06 5.38840E-18-2.18746E-18
 -1      2144 1.79552E-04-2.55834E-05-6.49273E-05-6.40811E-06 7.13583E-18-4.36773E-18
 -1      2145 1.78743E-04-2.28682E-05-6.59941E-05 5.09042E-07 6.11134E-18-3.13130E-18
 -1      2146 1.66943E-04-3.04951E-05-5.80174E-05-1.38581E-05 7.63791E-18-4.33088E-18
 -1      2147 1.80071E-04-3.04414E-05-6.28833E-05-9.36802E-06 7.80753E-18-3.77734E-18
 -1      2148 1.60068E-04-1.92030E-05-5.92473E-05 2.89857E-06 6.52342E-18-1.99984E-18
 -1      2149 1.44570E-04-4.10272E-05-4.45666E-05-2.42403E-05 6.17995E-18-4.82470E-18
 -1      2150 1.61594E-04-3.94067E-05-5.16057E-05-2.00779E-05 6.29330E-18-4.16656E-18
 -1      2151 1.16879E-04-4.70164E-05-3.04866E-05-3.21092E-05 4.61802E-18-5.29438E-18
 -1      2152 1.36292E-04-4.47022E-05-3.87044E-05-3.31487E-05 5.63722E-18-5.38205E-18
 -1      2153 1.46175E-04-5.12325E-05-4.02519E-05-1.38790E-05 2.97997E-18-8.75409E-19
 -1      2154 7.56253E-05-4.53713E-05-1.41135E-05-3.73001E-05 3.57660E-18-6.58441E-18
 -1      2155 9.56092E-05-4.46580E-05-2.19896E-05-4.17619E-05 4.19324E-18-5.87290E-18
 -1      2156 4.12524E-05-4.13173E-05-1.50360E-06-3.06232E-05 2.22770E-18-7.42541E-18
 -1      2157 5.59972E-05-3.95751E-05-7.62509E-06-3.83328E-05 3.53721E-18-7.64442E-18
 -1      2158 1.99259E-05-3.59861E-05 5.54110E-06-1.74425E-05 7.94517E-19-7.51403E-18
 -1      2159 2.80260E-05-3.51353E-05 2.17298E-06-2.60063E-05 2.05236E-18-7.88461E-18
 -1      2160 1.19267E-05-3.36141E-05 7.95583E-06 2.20716E-06-7.45918E-19-6.88468E-18
 -1      2161 1.28267E-05-3.33627E-05 7.52884E-06-6.67839E-06 1.28071E-18-7.61779E-18
 -1      2162 2.08972E-05-3.40545E-05 4.53463E-06 2.19264E-05-2.98664E-18-7.24298E-18
 -1      2163 1.51275E-05-3.61110E-05 7.38246E-06 1.27198E-05-1.17907E-18-6.70681E-18
 -1      2164 4.60997E-05-3.75883E-05-4.45233E-06 3.63408E-05-5.19697E-18-7.71451E-18
 -1      2165 3.41112E-05-3.93735E-05 7.71900E-07 2.92735E-05-3.08828E-18-6.59733E-18
 -1      2166 8.06165E-05-3.98907E-05-1.76414E-05 4.31578E-05-6.21934E-18-7.31116E-18
 -1      2167 6.34787E-05-4.23691E-05-1.03238E-05 3.73911E-05-4.81199E-18-7.15129E-18
 -1      2168 1.18775E-04-4.04852E-05-3.31993E-05 4.05702E-05-7.22858E-18-7.59831E-18
 -1      2169 9.82695E-05-4.20410E-05-2.49065E-05 3.79713E-05-6.68987E-18-7.57544E-18
 -1      2170 1.51293E-04-3.85910E-05-4.76355E-05 2.76402E-05-6.92037E-18-6.25788E-18
 -1      2171 1.32831E-04-3.94238E-05-4.02219E-05 3.05982E-05-6.95160E-18-6.96007E-18
 -1      2172 1.70980E-04-3.05670E-05-5.92612E-05 1.36769E-05-7.86089E-18-4.71967E-18
 -1      2173 1.57841E-04-3.17021E-05-5.37826E-05 1.88238E-05-7.49444E-18-5.80133E-18
 -1      2174 1.75195E-04-2.23837E-05-6.46640E-05 2.01883E-06-9.37496E-18-1.53186E-18
 -1      2175 1.71698E-04-2.41981E-05-6.25037E-05 8.62295E-06-9.39571E-18-3.83664E-18
 -1      2176 1.77672E-04-2.43162E-05-6.46572E-05-7.15795E-06-8.44577E-18 8.43433E-19
 -1      2177 1.76470E-04-2.18221E-05-6.55056E-05 4.51603E-07-8.80364E-18-8.74800E-19
 -1      2178 1.65375E-04-2.83361E-05-5.81680E-05-1.61087E-05-8.18721E-18 2.61479E-18
 -1      2179 1.77850E-04-2.85032E-05-6.27420E-05-1.10120E-05-8.23549E-18 1.43974E-18
 -1      2180 1.58286E-04-1.71550E-05-5.93732E-05 7.70199E-07-8.76171E-18-5.79159E-19
 -1      2181 1.43044E-04-3.71299E-05-4.53389E-05-2.65769E-05-5.51620E-18 4.93608E-18
 -1      2182 1.60135E-04-3.57390E-05-5.23601E-05-2.34712E-05-7.55564E-18 3.07939E-18
 -1      2183 1.09678E-04-4.08854E-05-3.00543E-05-3.69618E-05-3.27675E-18 7.81727E-18
 -1      2184 1.30568E-04-4.01857E-05-3.82352E-05-3.74406E-05-3.85760E-18 7.59407E-18
 -1      2185 7.67488E-05-4.33486E-05-1.52483E-05-3.89336E-05-2.07904E-18 5.69630E-18
 -1      2186 9.43929E-05-4.04266E-05-2.30615E-05-4.32427E-05-3.32249E-18 7.65548E-18
 -1      2187 4.17638E-05-4.02367E-05-2.01382E-06-3.26830E-05-5.12455E-19 6.88405E-18
 -1      2188 5.70586E-05-3.85421E-05-8.35019E-06-4.08213E-05-1.77962E-18 7.06984E-18
 -1      2189 1.93343E-05-3.41993E-05 5.19750E-06-1.94825E-05 7.96634E-19 5.05086E-18
 -1      2190 2.81299E-05-3.49720E-05 1.97030E-06-2.77846E-05-8.72020E-19 6.78622E-18
 -1      2191 4.27273E-05-3.48222E-05-3.74525E-06-3.70283E-05 9.99499E-19 7.34483E-18
 -1      2192 1.56939E-04-4.00371E-05-4.93241E-05 2.52308E-05 4.19170E-18 5.90382E-19
 -1      2193 1.39152E-04-4.05597E-05-4.22754E-05 2.94583E-05 4.81115E-18 1.76395E-18
 -1      2194 1.40562E-04-5.15120E-05-3.76818E-05 2.13341E-05 2.45851E-18-5.16690E-19
 -1      2195 9.71230E-05-2.42951E-05-3.12841E-05-9.85901E-06-3.27971E-18 2.42924E-18
 -1      2196 1.57876E-04-3.90340E-05-5.00746E-05 8.00733E-06 4.11812E-18-1.53482E-18
 -1      2197 9.63372E-05-2.30930E-05-3.14573E-05-1.01957E-05-3.47204E-18 5.70437E-19
 -1      2198 3.58324E-05-3.35293E-05-1.48105E-06 3.14473E-05-1.09331E-18 3.46204E-18
 -1      2199 7.35999E-05-4.66131E-05-1.18619E-05 4.07927E-05 1.71948E-19 2.60754E-19
 -1      2200 9.52524E-05-2.85042E-05-2.86060E-05-8.27154E-08 2.69675E-19-1.32145E-18
 -1      2201 1.92775E-05-2.51014E-05 2.04313E-06-1.57668E-05 7.85835E-19 5.78989E-18
 -1      2202 1.12797E-04-5.41880E-05-2.50725E-05 3.50767E-05 7.62330E-19 1.65171E-19
 -1      2203 7.79167E-05-4.67050E-05-1.35991E-05-4.23552E-05 1.16806E-18 4.45688E-18
 -1      2204 1.14539E-04-5.13642E-05-2.69427E-05-3.53717E-05-6.85673E-19 5.53240E-18
 -1      2205 1.56183E-04-3.18718E-05-5.24615E-05-4.98118E-06-6.89210E-18 6.00546E-19
 -1      2206 1.56585E-04-1.29932E-05-6.06494E-05-6.67656E-07-9.58799E-18-9.11381E-19
 -1      2207 1.55970E-04-2.15924E-05-5.67189E-05-6.93436E-07-8.52412E-18-1.44525E-18
 -1      2208 1.51945E-04-3.82624E-05-4.79898E-05 8.44347E-06-5.75776E-18-2.30139E-18
 -1      2209 1.34398E-04-4.99138E-05-3.57076E-05 2.52128E-05-4.43972E-18-3.84680E-18
 -1      2210 1.02927E-04-5.11102E-05-2.21869E-05 3.90826E-05-2.51357E-18-5.15441E-18
 -1      2211 6.58657E-05-4.38626E-05-9.84076E-06 4.22696E-05-1.26716E-18-6.09165E-18
 -1      2212 3.28622E-05-3.29523E-05-6.19925E-07 3.13132E-05-3.23143E-19-7.05494E-18
 -1      2213 1.54454E-05-2.48287E-05 3.34585E-06 9.26860E-06 2.07152E-19-8.09848E-18
 -1      2214 1.96888E-05-2.55744E-05 2.00659E-06-1.60373E-05 2.66815E-20-8.10568E-18
 -1      2215 4.20680E-05-3.58067E-05-3.23967E-06-3.46644E-05-1.02936E-18-7.17310E-18
 -1      2216 1.18930E-04-5.55654E-05-2.70319E-05-3.23327E-05 7.31836E-19-2.97605E-18
 -1      2217 1.58121E-04-3.58104E-05-5.17109E-05-1.26623E-06 5.62462E-18-6.81862E-19
 -1      2218 1.60887E-04-2.27696E-05-5.81974E-05-1.37343E-06 5.20375E-18-4.09922E-18
 -1      2219 1.59009E-04-1.44882E-05-6.10239E-05-6.42519E-07 5.80048E-18-3.30965E-18
 -1      2220 7.71440E-05-4.78302E-05-1.28187E-05-4.13399E-05-6.92449E-19-5.05706E-18
 -1      2221 1.41773E-04-4.63073E-05-4.03518E-05-2.05193E-05-2.71516E-18 2.75625E-18
 -1      2222 9.52761E-05-2.63537E-05-2.95230E-05 3.96294E-06 2.78684E-18 2.16036E-18
 -1      2223 9.62059E-05-2.58372E-05-3.00842E-05 5.79381E-06 3.00957E-18 2.66113E-18
 -1      2224 8.80867E-05-1.09568E-05-3.30954E-05-3.52034E-06-7.77538E-19-4.39026E-18
 -1      2225 8.83366E-05-1.12453E-05-3.30753E-05-4.63077E-06-1.22134E-18-4.43278E-18
 -1      2226 8.87083E-05-1.17590E-05-3.30237E-05-5.61906E-06-1.51091E-18-4.38194E-18
 -1      2227 8.91333E-05-1.22559E-05-3.29912E-05-6.77013E-06-1.94810E-18-4.21781E-18
 -1      2228 8.98343E-05-1.35774E-05-3.26798E-05-4.69210E-06-1.35049E-18-4.12329E-18
 -1      2229 8.77114E-05-1.04593E-05-3.31420E-05 5.94100E-07 6.82415E-19-4.28299E-18
 -1      2230 8.77065E-05-1.04541E-05-3.31421E-05-4.77646E-07 2.89382E-19-4.24469E-18
 -1      2231 8.79091E-05-1.07024E-05-3.31226E-05 2.65353E-06 1.37731E-18-4.22961E-18
 -1      2232 8.77841E-05-1.05589E-05-3.31326E-05 1.57099E-06 9.83908E-19-4.30786E-18
 -1      2233 8.89889E-05-1.24429E-05-3.28071E-05 9.99130E-07 8.10427E-19-4.03188E-18
 -1      2234 8.83760E-05-1.12892E-05-3.30741E-05 4.71340E-06 2.05289E-18-3.81060E-18
 -1      2235 8.81199E-05-1.09940E-05-3.30942E-05 3.62017E-06 1.66628E-18-4.05437E-18
 -1      2236 8.92800E-05-1.28279E-05-3.27656E-05 2.87988E-06 1.48639E-18-3.81958E-18
 -1      2237 8.91955E-05-1.23278E-05-3.29882E-05 6.85130E-06 2.85514E-18-3.19451E-18
 -1      2238 8.87595E-05-1.18176E-05-3.30214E-05 5.69987E-06 2.39461E-18-3.54293E-18
 -1      2239 8.98806E-05-1.36297E-05-3.26770E-05 4.76016E-06 2.16167E-18-3.32255E-18
 -1      2240 9.04958E-05-1.39967E-05-3.28486E-05 8.97758E-06 3.46766E-18-2.38415E-18
 -1      2241 8.98044E-05-1.31622E-05-3.29012E-05 7.80698E-06 3.05334E-18-2.87744E-18
 -1      2242 9.08653E-05-1.49588E-05-3.25238E-05 6.60891E-06 2.85670E-18-2.73880E-18
 -1      2243 9.24972E-05-1.66194E-05-3.26187E-05 1.08678E-05 3.93375E-18-1.08127E-18
 -1      2244 9.14232E-05-1.52614E-05-3.27018E-05 9.78436E-06 3.60095E-18-1.84320E-18
 -1      2245 9.23249E-05-1.69827E-05-3.22685E-05 8.24080E-06 3.36302E-18-1.87419E-18
 -1      2246 9.43953E-05-2.70961E-05-2.88230E-05 1.44784E-06 2.27701E-18 1.61202E-18
 -1      2247 9.49341E-05-2.68679E-05-2.90995E-05 2.46326E-06 2.55769E-18 2.10204E-18
 -1      2248 9.54298E-05-2.58051E-05-2.98486E-05 4.05153E-06 2.93309E-18 9.25135E-19
 -1      2249 9.59574E-05-2.50539E-05-3.03409E-05-5.93530E-06-2.72083E-18-3.12879E-19
 -1      2250 9.53429E-05-2.58052E-05-2.98139E-05-3.98115E-06-2.42835E-18-3.77326E-19
 -1      2251 1.52499E-04-3.65860E-05-5.00599E-05-3.35997E-06 3.27632E-18-3.43853E-18
 -1      2252 1.48560E-04-4.48171E-05-4.46660E-05 1.86467E-06 2.70976E-18-3.00866E-18
 -1      2253 9.52568E-05-2.64872E-05-2.94156E-05-2.59437E-06-2.20801E-18-3.09136E-19
 -1      2254 9.48436E-05-2.68551E-05-2.91349E-05-1.47753E-06-2.03340E-18-5.03716E-19
 -1      2255 9.54372E-05-2.52922E-05-3.00696E-05-3.92517E-06-2.50954E-18-1.16295E-18
 -1      2256 9.46891E-05-2.71756E-05-2.88959E-05-5.50887E-07-1.94298E-18-3.58340E-19
 -1      2257 9.45090E-05-2.73900E-05-2.87592E-05 1.28007E-07-1.69689E-18-6.96339E-19
 -1      2258 9.51954E-05-2.65899E-05-2.94168E-05-1.41263E-06-2.09608E-18-1.02611E-18
 -1      2259 9.44161E-05-2.75619E-05-2.86291E-05 7.38411E-07-1.45085E-18-7.54776E-19
 -1      2260 9.44238E-05-2.77112E-05-2.85840E-05 1.17212E-06-1.19832E-18-9.18227E-19
 -1      2261 9.49855E-05-2.72860E-05-2.90288E-05 2.55597E-07-1.75936E-18-1.10079E-18
 -1      2262 9.44139E-05-2.78142E-05-2.85299E-05 1.58905E-06-1.13457E-18-9.97262E-19
 -1      2263 9.45610E-05-2.79341E-05-2.85464E-05 1.88740E-06-9.84436E-19-1.11510E-18
 -1      2264 9.49118E-05-2.76816E-05-2.88254E-05 1.37816E-06-1.39428E-18-1.21276E-18
 -1      2265 9.46276E-05-2.80030E-05-2.85465E-05 2.19486E-06-9.03680E-19-1.16107E-18
 -1      2266 9.48801E-05-2.81102E-05-2.86070E-05 2.42501E-06-7.84018E-19-1.10136E-18
 -1      2267 9.49884E-05-2.79215E-05-2.87530E-05 2.17226E-06-9.75676E-19-1.13766E-18
 -1      2268 9.50130E-05-2.81632E-05-2.86467E-05 2.67966E-06-6.30958E-19-1.03525E-18
 -1      2269 9.53508E-05-2.82686E-05-2.87402E-05 2.88352E-06-5.17903E-19-1.14846E-18
 -1      2270 9.52005E-05-2.80773E-05-2.87751E-05 2.78772E-06-7.23026E-19-1.25895E-18
 -1      2271 9.55432E-05-2.83183E-05-2.88095E-05 3.12215E-06-8.11217E-19-9.47831E-19
 -1      2272 9.59568E-05-2.84325E-05-2.89292E-05 3.32428E-06-1.13884E-18-1.08683E-18
 -1      2273 9.55331E-05-2.81927E-05-2.88668E-05 3.32463E-06-7.19291E-19-1.00275E-18
 -1      2274 9.62070E-05-2.84914E-05-2.90208E-05 3.56760E-06-1.01910E-18-1.00139E-18
 -1      2275 9.66940E-05-2.86264E-05-2.91619E-05 3.77788E-06-7.00446E-19-9.52449E-19
 -1      2276 9.59795E-05-2.83028E-05-2.90102E-05 3.84510E-06-9.57157E-19-6.51098E-19
 -1      2277 9.70064E-05-2.87097E-05-2.92700E-05 4.03136E-06-7.19475E-19-8.23838E-19
 -1      2278 9.75683E-05-2.88810E-05-2.94283E-05 4.24457E-06-5.12562E-19-9.26021E-19
 -1      2279 9.65443E-05-2.84446E-05-2.91912E-05 4.37822E-06-6.97883E-19-3.83017E-19
 -1      2280 9.79540E-05-2.90090E-05-2.95471E-05 4.49685E-06-3.87595E-19-7.99711E-19
 -1      2281 9.85928E-05-2.92362E-05-2.97174E-05 4.69010E-06-1.49115E-19-5.79495E-19
 -1      2282 9.72442E-05-2.86637E-05-2.93975E-05 4.91972E-06-5.64359E-19 7.84322E-20
 -1      2283 9.90700E-05-2.94362E-05-2.98407E-05 4.90950E-06-3.95780E-20-8.40320E-19
 -1      2284 9.97850E-05-2.97426E-05-3.00157E-05 5.03829E-06-2.18523E-19-7.56798E-19
 -1      2285 9.81096E-05-2.90200E-05-2.96167E-05 5.42712E-06-3.44023E-19-2.76304E-19
 -1      2286 1.00380E-04-3.00487E-05-3.01368E-05 5.16798E-06-5.72351E-19-5.14955E-19
 -1      2287 1.01163E-04-3.04587E-05-3.03066E-05 5.16273E-06-5.91120E-19-8.04068E-19
 -1      2288 9.91861E-05-2.95894E-05-2.98357E-05 5.81176E-06-3.96924E-19-8.49225E-19
 -1      2289 1.01907E-04-3.09081E-05-3.04191E-05 5.11623E-06-5.50889E-19-9.90303E-19
 -1      2290 1.02735E-04-3.14375E-05-3.05715E-05 4.88245E-06-4.21324E-19-1.26791E-18
 -1      2291 1.00532E-04-3.04594E-05-3.00424E-05 5.92955E-06-5.71496E-19-6.07346E-19
 -1      2292 1.03656E-04-3.20564E-05-3.06721E-05 4.54320E-06-3.72289E-20-1.39519E-18
 -1      2293 1.04479E-04-3.26935E-05-3.07947E-05 3.97199E-06-4.59979E-20-1.21708E-18
 -1      2294 1.02210E-04-3.17073E-05-3.02298E-05 5.57542E-06-5.43725E-19-6.35829E-19
 -1      2295 1.05577E-04-3.34667E-05-3.08877E-05 3.20567E-06 7.65440E-20-9.25123E-19
 -1      2296 1.06304E-04-3.41367E-05-3.09729E-05 2.20498E-06 1.76110E-19-6.02295E-19
 -1      2297 1.04251E-04-3.33466E-05-3.04039E-05 4.49254E-06 2.30415E-19-5.68588E-19
 -1      2298 1.07503E-04-3.49571E-05-3.10753E-05 9.01101E-07 1.17432E-19-4.54063E-19
 -1      2299 1.07982E-04-3.54784E-05-3.11259E-05-5.40440E-07 4.85026E-19-2.64712E-19
 -1      2300 1.06583E-04-3.52288E-05-3.05948E-05 2.42005E-06 3.88729E-19-1.08261E-19
 -1      2301 1.09068E-04-3.60900E-05-3.12707E-05-2.37458E-06 8.49912E-19-3.47522E-19
 -1      2302 1.09094E-04-3.61571E-05-3.13052E-05-4.08862E-06 8.56555E-19-2.13774E-19
 -1      2303 1.08922E-04-3.69088E-05-3.08652E-05-7.80007E-07 4.86859E-19 2.90721E-19
 -1      2304 1.09691E-04-3.61532E-05-3.15350E-05-6.17256E-06 9.80829E-19 5.42004E-20
 -1      2305 1.09081E-04-3.54229E-05-3.15837E-05-7.71377E-06 1.06229E-18-4.04604E-19
 -1      2306 1.10664E-04-3.75663E-05-3.13062E-05-4.87199E-06 9.39044E-19 2.42281E-21
 -1      2307 1.08778E-04-3.44184E-05-3.19231E-05-9.35350E-06 6.27082E-19-3.64380E-19
 -1      2308 1.07539E-04-3.27726E-05-3.20074E-05-1.00226E-05 3.27046E-19-3.52832E-19
 -1      2309 1.10978E-04-3.62144E-05-3.19985E-05-8.91011E-06 6.60500E-19-1.73623E-19
 -1      2310 1.06269E-04-3.08114E-05-3.24134E-05-1.02016E-05 8.95328E-20-3.11920E-19
 -1      2311 1.04795E-04-2.87338E-05-3.25210E-05-9.33375E-06-5.65520E-19 1.78463E-19
 -1      2312 1.09318E-04-3.24239E-05-3.29183E-05-1.10765E-05 1.87404E-19-2.17615E-19
 -1      2313 1.03230E-04-2.66584E-05-3.28752E-05-7.41173E-06-1.01938E-18 1.50501E-19
 -1      2314 1.02213E-04-2.51688E-05-3.29578E-05-4.96026E-06-1.33963E-18-6.12808E-20
 -1      2315 1.06308E-04-2.73079E-05-3.38583E-05-9.47306E-06-8.45321E-19-5.58714E-19
 -1      2316 1.01511E-04-2.42716E-05-3.31016E-05-1.41073E-06-1.96615E-18-4.62826E-19
 -1      2317 1.01523E-04-2.42951E-05-3.31017E-05 1.72079E-06-1.77991E-18-7.50487E-19
 -1      2318 1.03885E-04-2.35807E-05-3.44789E-05-3.64839E-06-2.08814E-18-9.88556E-19
 -1      2319 1.02300E-04-2.52625E-05-3.29495E-05 5.25861E-06-1.50197E-18-2.01194E-18
 -1      2320 1.03366E-04-2.68087E-05-3.28680E-05 7.65747E-06-1.13850E-18-2.00445E-18
 -1      2321 1.03932E-04-2.36260E-05-3.44667E-05 4.01323E-06-2.44370E-18-1.66238E-18
 -1      2322 1.04945E-04-2.89073E-05-3.25132E-05 9.49845E-06-5.10794E-19-2.19390E-18
 -1      2323 1.06436E-04-3.09940E-05-3.24085E-05 1.02990E-05-1.98855E-19-2.06136E-18
 -1      2324 1.06465E-04-2.75225E-05-3.38354E-05 9.68936E-06-9.96418E-19-2.68918E-18
 -1      2325 1.07678E-04-3.29226E-05-3.20054E-05 1.00356E-05-5.73033E-19-2.75173E-18
 -1      2326 1.08902E-04-3.45266E-05-3.19270E-05 9.32666E-06-1.54832E-20-3.16916E-18
 -1      2327 1.09461E-04-3.26119E-05-3.28940E-05 1.11323E-05-8.12394E-19-2.68929E-18
 -1      2328 1.09168E-04-3.54801E-05-3.15987E-05 7.66716E-06 4.56322E-20-3.31397E-18
 -1      2329 1.09762E-04-3.61704E-05-3.15574E-05 6.12204E-06-3.10821E-19-3.41629E-18
 -1      2330 1.11043E-04-3.62998E-05-3.19911E-05 8.85406E-06-2.71201E-19-3.46486E-18
 -1      2331 1.09148E-04-3.61386E-05-3.13372E-05 4.06108E-06-1.00904E-18-3.96396E-18
 -1      2332 1.09120E-04-3.60480E-05-3.13095E-05 2.37318E-06-1.32098E-18-3.92591E-18
 -1      2333 1.10669E-04-3.75401E-05-3.13217E-05 4.82960E-06-8.60317E-19-3.02187E-18
 -1      2334 1.08038E-04-3.54209E-05-3.11740E-05 5.83860E-07-1.37265E-18-3.21707E-18
 -1      2335 1.07572E-04-3.48915E-05-3.11315E-05-8.15111E-07-1.07032E-18-3.14100E-18
 -1      2336 1.08913E-04-3.68187E-05-3.09009E-05 8.12897E-07-8.57182E-19-3.48882E-18
 -1      2337 1.06392E-04-3.40684E-05-3.10389E-05-2.06371E-06-4.89856E-19-2.34229E-18
 -1      2338 1.05693E-04-3.34015E-05-3.09640E-05-3.01335E-06 3.14506E-19-2.43404E-18
 -1      2339 1.06597E-04-3.51129E-05-3.06505E-05-2.28079E-06-3.00811E-19-1.63298E-18
 -1      2340 1.04624E-04-3.26327E-05-3.08818E-05-3.71987E-06-5.03918E-21-2.42722E-18
 -1      2341 1.03843E-04-3.20057E-05-3.07725E-05-4.23572E-06 3.28947E-19-2.35592E-18
 -1      2342 1.04311E-04-3.32294E-05-3.04803E-05-4.23279E-06 1.59146E-19-1.18454E-18
 -1      2343 1.02956E-04-3.13947E-05-3.06842E-05-4.51284E-06 8.54444E-19-1.69854E-18
 -1      2344 1.02185E-04-3.08800E-05-3.05488E-05-4.68865E-06 5.05175E-19-1.07531E-18
 -1      2345 1.02334E-04-3.16007E-05-3.03285E-05-5.18839E-06 8.89177E-19-1.51099E-18
 -1      2346 1.01480E-04-3.04395E-05-3.04505E-05-4.67103E-06 4.95046E-19-1.00650E-18
 -1      2347 1.00767E-04-3.00481E-05-3.03015E-05-4.61581E-06 1.01007E-18-4.45818E-19
 -1      2348 1.00729E-04-3.03686E-05-3.01659E-05-5.41111E-06 7.92455E-19-9.91925E-19
 -1      2349 1.00216E-04-2.97516E-05-3.01963E-05-4.41973E-06 6.47244E-20-8.70084E-20
 -1      2350 9.95846E-05-2.94679E-05-3.00458E-05-4.22810E-06-1.12184E-19 6.24615E-19
 -1      2351 9.94652E-05-2.95162E-05-2.99868E-05-5.15764E-06 9.94326E-19-1.05840E-18
 -1      2352 9.91537E-05-2.92790E-05-2.99396E-05-3.94079E-06-5.56668E-20 3.45818E-19
 -1      2353 9.86121E-05-2.90797E-05-2.97970E-05-3.68358E-06 9.32793E-19 4.23047E-21
 -1      2354 9.84786E-05-2.89671E-05-2.97974E-05-4.63380E-06-8.26280E-20-2.98369E-19
 -1      2355 9.82749E-05-2.89656E-05-2.96953E-05-3.36463E-06 1.24132E-18-5.48449E-19
 -1      2356 9.78215E-05-2.88292E-05-2.95665E-05-3.08956E-06 4.68013E-19-8.07641E-19
 -1      2357 9.77094E-05-2.86371E-05-2.96079E-05-3.98786E-06 6.38772E-19-1.44904E-18
 -1      2358 9.75572E-05-2.87644E-05-2.94734E-05-2.77633E-06 3.98354E-19-1.33837E-18
 -1      2359 9.71860E-05-2.86730E-05-2.93617E-05-2.51254E-06-1.54669E-19-1.23649E-18
 -1      2360 9.71087E-05-2.84550E-05-2.94276E-05-3.31799E-06 1.93602E-19-2.08629E-18
 -1      2361 9.69790E-05-2.86394E-05-2.92795E-05-2.22615E-06-8.80749E-19-6.58916E-19
 -1      2362 9.66814E-05-2.85797E-05-2.91857E-05-1.98927E-06-9.44328E-19-4.57206E-19
 -1      2363 9.66395E-05-2.83676E-05-2.92634E-05-2.68368E-06 1.14041E-19-1.11500E-18
 -1      2364 9.65199E-05-2.85651E-05-2.91155E-05-1.73969E-06-4.63870E-19 3.67018E-19
 -1      2365 9.62860E-05-2.85272E-05-2.90389E-05-1.53632E-06 1.03790E-19 7.21073E-19
 -1      2366 9.62741E-05-2.83375E-05-2.91192E-05-2.11669E-06-1.62363E-19 1.10198E-18
 -1      2367 9.61610E-05-2.85236E-05-2.89806E-05-1.32633E-06-3.86953E-19 1.09469E-18
 -1      2368 9.59808E-05-2.85005E-05-2.89197E-05-1.15737E-06 3.67333E-19 7.13626E-19
 -1      2369 9.59911E-05-2.83398E-05-2.89964E-05-1.63013E-06-2.59783E-19 1.67469E-18
 -1      2370 9.58849E-05-2.85026E-05-2.88725E-05-9.85402E-07 5.26228E-19-3.03639E-19
 -1      2371 9.57490E-05-2.84892E-05-2.88252E-05-8.48437E-07 6.23969E-20 1.90670E-20
 -1      2372 9.57738E-05-2.83586E-05-2.88948E-05-1.22529E-06-7.99892E-20 1.29347E-18
 -1      2373 9.56759E-05-2.84937E-05-2.87878E-05-7.10517E-07-8.18101E-19 3.08288E-19
 -1      2374 9.55756E-05-2.84866E-05-2.87520E-05-6.01455E-07-5.43525E-19 1.03170E-18
 -1      2375 9.56082E-05-2.83836E-05-2.88126E-05-8.96481E-07-9.16645E-20 5.81321E-19
 -1      2376 9.55203E-05-2.84915E-05-2.87231E-05-4.92597E-07 7.48452E-19 1.05561E-18
 -1      2377 9.54481E-05-2.84882E-05-2.86967E-05-4.06948E-07 8.68433E-19 1.41967E-18
 -1      2378 9.54832E-05-2.84090E-05-2.87477E-05-6.34396E-07 5.84089E-19 2.80606E-18
 -1      2379 9.54062E-05-2.84931E-05-2.86745E-05-3.21883E-07-2.59484E-19 2.31147E-18
 -1      2380 9.53562E-05-2.84920E-05-2.86554E-05-2.55840E-07 3.06008E-19 2.08858E-18
 -1      2381 9.53888E-05-2.84314E-05-2.86973E-05-4.28718E-07 5.56162E-19 1.60030E-18
 -1      2382 9.38287E-05-2.76973E-05-2.83298E-05-1.03375E-06 9.96787E-19 7.26285E-19
 -1      2383 9.37893E-05-2.75770E-05-2.83513E-05-6.60407E-07 1.32130E-18 1.01745E-18
 -1      2384 9.40344E-05-2.78906E-05-2.83362E-05-1.68155E-06 8.79231E-19 3.67720E-19
 -1      2385 9.38292E-05-2.77759E-05-2.82942E-05-1.42413E-06 8.86210E-19 5.70122E-19
 -1      2386 9.44716E-05-2.77284E-05-2.86180E-05-1.26967E-06 1.22620E-18 1.18920E-19
 -1      2387 9.44714E-05-2.80703E-05-2.84463E-05-2.17496E-06 1.03969E-18 1.85233E-19
 -1      2388 9.41431E-05-2.79545E-05-2.83585E-05-1.96896E-06 9.57576E-19 3.09438E-19
 -1      2389 9.46014E-05-2.79305E-05-2.85844E-05-2.02522E-06 1.06776E-18-1.56093E-19
 -1      2390 9.50979E-05-2.82506E-05-2.86366E-05-2.61838E-06 7.71662E-19 2.24867E-19
 -1      2391 9.46678E-05-2.81290E-05-2.85121E-05-2.42125E-06 9.61222E-19 4.01752E-19
 -1      2392 9.49147E-05-2.80777E-05-2.86535E-05-2.62192E-06 9.36719E-19-2.05440E-19
 -1      2393 9.58954E-05-2.84421E-05-2.88948E-05-3.08443E-06 3.66573E-20 4.33453E-19
 -1      2394 9.53692E-05-2.83093E-05-2.87373E-05-2.86656E-06 4.69331E-19 3.54870E-19
 -1      2395 9.53818E-05-2.81959E-05-2.88016E-05-3.17204E-06 5.36676E-19 7.68025E-20
 -1      2396 9.68638E-05-2.86578E-05-2.92155E-05-3.62342E-06 4.33549E-19 2.16367E-19
 -1      2397 9.62365E-05-2.85059E-05-2.90257E-05-3.36466E-06 1.93237E-19 2.18080E-19
 -1      2398 9.59872E-05-2.83029E-05-2.90144E-05-3.75436E-06 3.62060E-19-8.70826E-20
 -1      2399 9.80165E-05-2.89160E-05-2.95972E-05-4.26525E-06 5.43721E-19 2.04841E-20
 -1      2400 9.72759E-05-2.87339E-05-2.93739E-05-3.95501E-06 5.79529E-19 1.59303E-19
 -1      2401 9.67290E-05-2.84173E-05-2.92829E-05-4.42238E-06 6.95306E-19-3.66572E-19
 -1      2402 9.93764E-05-2.92448E-05-3.00382E-05-5.01498E-06 6.99274E-19 2.81014E-20
 -1      2403 9.85068E-05-2.90159E-05-2.97806E-05-4.65546E-06 5.96425E-19-6.60552E-20
 -1      2404 9.76176E-05-2.85653E-05-2.96004E-05-5.20521E-06 6.44277E-19-5.33774E-19
 -1      2405 1.00972E-04-2.96872E-05-3.05334E-05-5.84106E-06 6.07051E-19 8.34294E-21
 -1      2406 9.99584E-05-2.93877E-05-3.02430E-05-5.45446E-06 6.91643E-19 1.41323E-19
 -1      2407 9.86760E-05-2.87881E-05-2.99590E-05-6.10182E-06 6.26289E-19-4.57601E-19
 -1      2408 1.02834E-04-3.03095E-05-3.10694E-05-6.65473E-06 5.20886E-19 1.30022E-19
 -1      2409 1.01668E-04-2.99056E-05-3.07531E-05-6.29501E-06 6.02010E-19 1.63728E-19
 -1      2410 9.99438E-05-2.91536E-05-3.03471E-05-7.06767E-06 5.98918E-19-6.40098E-19
 -1      2411 1.04996E-04-3.12086E-05-3.16209E-05-7.27981E-06-6.77829E-20 6.41760E-20
 -1      2412 1.03683E-04-3.06549E-05-3.12938E-05-7.04892E-06 2.81779E-19 2.13813E-19
 -1      2413 1.01486E-04-2.97705E-05-3.07466E-05-7.99198E-06 3.99553E-19-2.29592E-20
 -1      2414 1.07487E-04-3.25086E-05-3.21487E-05-7.41800E-06-1.59904E-19 1.67531E-19
 -1      2415 1.06057E-04-3.17556E-05-3.18361E-05-7.48170E-06-2.10677E-19 3.34214E-20
 -1      2416 1.03406E-04-3.08005E-05-3.11334E-05-8.66526E-06-1.85182E-19-1.88367E-19
 -1      2417 1.10305E-04-3.43219E-05-3.26055E-05-6.62861E-06-4.16651E-19 7.73070E-19
 -1      2418 1.08838E-04-3.33454E-05-3.23414E-05-7.21751E-06-6.31304E-20 5.65378E-19
 -1      2419 1.05852E-04-3.24490E-05-3.14836E-05-8.74146E-06-4.33917E-19 4.26848E-19
 -1      2420 1.13355E-04-3.66235E-05-3.29571E-05-4.37185E-06-1.32178E-18 1.54050E-18
 -1      2421 1.12020E-04-3.55014E-05-3.27741E-05-5.73461E-06-9.58421E-19 1.23010E-18
 -1      2422 1.08987E-04-3.48917E-05-3.17914E-05-7.71270E-06-1.21010E-18 1.29070E-18
 -1      2423 1.16292E-04-3.89920E-05-3.32225E-05-2.19911E-07-1.67394E-18 1.63630E-18
 -1      2424 1.15396E-04-3.80385E-05-3.31310E-05-2.47444E-06-1.36527E-18 1.69721E-18
 -1      2425 1.12864E-04-3.80517E-05-3.21040E-05-4.95223E-06-1.62864E-18 1.67766E-18
 -1      2426 1.18322E-04-4.03024E-05-3.35190E-05 5.63468E-06-7.05128E-19 1.65959E-18
 -1      2427 1.18321E-04-4.01781E-05-3.34813E-05 2.78671E-06-1.38539E-18 1.59265E-18
 -1      2428 1.17112E-04-4.11897E-05-3.25652E-05 3.08006E-08-1.30135E-18 1.76992E-18
 -1      2429 1.18249E-04-3.88384E-05-3.40578E-05 1.15682E-05 8.20765E-19 2.42058E-18
 -1      2430 1.19531E-04-4.03293E-05-3.39859E-05 9.16923E-06-1.08619E-19 2.22131E-18
 -1      2431 1.20526E-04-4.24919E-05-3.34267E-05 6.92141E-06-5.25015E-19 2.02709E-18
 -1      2432 1.15287E-04-3.36333E-05-3.49631E-05 1.41755E-05 4.37731E-19 3.60405E-18
 -1      2433 1.17698E-04-3.68087E-05-3.48030E-05 1.39005E-05 7.89994E-19 3.25908E-18
 -1      2434 1.21208E-04-3.96175E-05-3.49368E-05 1.35038E-05 7.81189E-20 3.53857E-18
 -1      2435 1.10808E-04-2.67352E-05-3.60083E-05 1.00517E-05 1.12041E-18 2.56081E-18
 -1      2436 1.13143E-04-3.00385E-05-3.58111E-05 1.30054E-05 9.66293E-19 3.29526E-18
 -1      2437 1.18236E-04-3.21929E-05-3.69410E-05 1.53294E-05 7.88733E-19 3.69251E-18
 -1      2438 1.08761E-04-2.39246E-05-3.64757E-05-3.72059E-07 1.26952E-18 1.20923E-18
 -1      2439 1.09081E-04-2.45372E-05-3.64577E-05 4.36194E-06 1.34887E-18 2.17364E-18
 -1      2440 1.13514E-04-2.39324E-05-3.84728E-05 8.75915E-06 1.85776E-18 3.38519E-18
 -1      2441 1.11543E-04-2.77449E-05-3.60726E-05-1.06389E-05 1.22449E-18-1.27995E-19
 -1      2442 1.09687E-04-2.51049E-05-3.62133E-05-6.83813E-06 1.08410E-18 2.08152E-19
 -1      2443 1.12954E-04-2.23645E-05-3.88753E-05-4.23562E-06 1.85810E-18 1.64262E-18
 -1      2444 1.16135E-04-3.44009E-05-3.52016E-05-1.44471E-05 1.15432E-18-7.38811E-19
 -1      2445 1.13603E-04-3.09752E-05-3.53773E-05-1.34331E-05 1.41020E-18-8.63484E-19
 -1      2446 1.16628E-04-2.96118E-05-3.74195E-05-1.33820E-05 1.49073E-18-8.06359E-19
 -1      2447 1.19339E-04-3.95198E-05-3.42709E-05-1.14168E-05 1.71061E-20-8.83972E-19
 -1      2448 1.17560E-04-3.73579E-05-3.43711E-05-1.32112E-05 5.28251E-19-9.65723E-19
 -1      2449 1.20411E-04-3.70805E-05-3.56786E-05-1.51655E-05 1.01755E-18-2.25541E-18
 -1      2450 1.19144E-04-4.05601E-05-3.36721E-05-5.22634E-06 1.08321E-19-2.41396E-20
 -1      2451 1.18661E-04-4.01842E-05-3.37036E-05-7.99204E-06-7.73778E-20-4.14285E-19
 -1      2452 1.21270E-04-4.20592E-05-3.39244E-05-9.64844E-06-2.86049E-19-1.80620E-18
 -1      2453 1.16708E-04-3.89428E-05-3.33006E-05 6.07935E-07 1.03914E-18 3.29089E-19
 -1      2454 1.17292E-04-3.96743E-05-3.33576E-05-1.84652E-06 9.92405E-19 7.73923E-20
 -1      2455 1.18632E-04-4.20159E-05-3.28554E-05-2.52051E-06 3.64095E-19-1.03278E-18
 -1      2456 1.13432E-04-3.64303E-05-3.29760E-05 4.58661E-06 1.51716E-18-5.24088E-19
 -1      2457 1.14609E-04-3.75225E-05-3.31155E-05 2.96432E-06 1.56604E-18 3.78703E-19
 -1      2458 1.14531E-04-3.92832E-05-3.22938E-05 3.23686E-06 1.15788E-18-9.95648E-19
 -1      2459 1.10195E-04-3.41024E-05-3.25954E-05 6.62251E-06 5.81907E-19-1.64518E-18
 -1      2460 1.11596E-04-3.51274E-05-3.28210E-05 5.82285E-06 1.07623E-18-3.68522E-19
 -1      2461 1.10476E-04-3.59871E-05-3.19666E-05 6.72626E-06 1.31744E-18-9.67334E-19
 -1      2462 1.07338E-04-3.23213E-05-3.21409E-05 7.21018E-06-9.06288E-19-1.43002E-18
 -1      2463 1.08743E-04-3.31358E-05-3.24245E-05 7.01492E-06-2.75378E-19-1.14354E-18
 -1      2464 1.07111E-04-3.32455E-05-3.16874E-05 8.24864E-06 8.11679E-20-7.45520E-19
 -1      2465 1.04918E-04-3.10760E-05-3.16415E-05 6.90621E-06-9.26852E-19-7.47700E-19
 -1      2466 1.06217E-04-3.16782E-05-3.19473E-05 7.07814E-06-1.00076E-18-1.39369E-18
 -1      2467 1.04494E-04-3.13221E-05-3.13789E-05 8.42881E-06-1.05590E-18 1.88921E-19
 -1      2468 1.02900E-04-3.02392E-05-3.11375E-05 6.14390E-06 1.76299E-18 1.55208E-20
 -1      2469 1.04045E-04-3.06720E-05-3.14361E-05 6.49909E-06 2.92938E-19-1.08322E-19
 -1      2470 1.02480E-04-3.00980E-05-3.10330E-05 7.82925E-06-4.53923E-19 3.99535E-19
 -1      2471 1.01233E-04-2.96825E-05-3.06623E-05 5.20863E-06 1.59048E-18 1.09372E-18
 -1      2472 1.02209E-04-2.99916E-05-3.09347E-05 5.62698E-06 1.76600E-18 8.04537E-19
 -1      2473 1.00909E-04-2.93654E-05-3.06699E-05 6.85481E-06 1.39566E-18 1.40914E-18
 -1      2474 9.98675E-05-2.93096E-05-3.02368E-05 4.26711E-06 1.59538E-18 6.99462E-19
 -1      2475 1.00676E-04-2.95310E-05-3.04736E-05 4.67974E-06 2.20000E-18 8.42426E-19
 -1      2476 9.96629E-05-2.89446E-05-3.03144E-05 5.76303E-06 2.05045E-18 1.53506E-18
 -1      2477 9.87601E-05-2.90562E-05-2.98708E-05 3.40524E-06 1.04170E-18-1.58508E-19
 -1      2478 9.94164E-05-2.92154E-05-3.00693E-05 3.77780E-06 1.11992E-18 1.14399E-18
 -1      2479 9.86632E-05-2.87101E-05-2.99855E-05 4.70148E-06 1.80411E-18 1.47762E-18
 -1      2480 9.78736E-05-2.88820E-05-2.95656E-05 2.65915E-06-3.64196E-19-2.39562E-19
 -1      2481 9.83957E-05-2.89965E-05-2.97274E-05 2.97827E-06 8.48111E-19-2.64150E-19
 -1      2482 9.78589E-05-2.85831E-05-2.96947E-05 3.74464E-06 7.02660E-19 1.73311E-18
 -1      2483 9.71739E-05-2.87613E-05-2.93176E-05 2.03666E-06-1.86950E-18 1.38723E-19
 -1      2484 9.75818E-05-2.88434E-05-2.94464E-05 2.30060E-06-1.91348E-18-3.03393E-19
 -1      2485 9.72145E-05-2.85173E-05-2.94463E-05 2.92211E-06-1.16368E-18 1.06447E-18
 -1      2486 9.66300E-05-2.86778E-05-2.91205E-05 1.53080E-06-9.62468E-19 4.35008E-19
 -1      2487 9.69430E-05-2.87360E-05-2.92209E-05 1.74370E-06-7.80212E-19 1.83725E-19
 -1      2488 9.67032E-05-2.84857E-05-2.92402E-05 2.23777E-06-9.49518E-19-3.25628E-19
 -1      2489 9.62141E-05-2.86206E-05-2.89670E-05 1.12784E-06-9.64586E-19-7.98912E-19
 -1      2490 9.64500E-05-2.86612E-05-2.90437E-05 1.29638E-06-1.09639E-18-5.48594E-19
 -1      2491 9.63024E-05-2.84734E-05-2.90732E-05 1.68204E-06-1.15913E-18-6.62891E-19
 -1      2492 9.59017E-05-2.85821E-05-2.88498E-05 8.11787E-07 2.21201E-19-3.99950E-19
 -1      2493 9.60760E-05-2.86099E-05-2.89072E-05 9.43335E-07-2.55163E-19-2.74093E-19
 -1      2494 9.59930E-05-2.84716E-05-2.89408E-05 1.23919E-06-6.03755E-19-1.08952E-18
 -1      2495 9.56716E-05-2.85567E-05-2.87622E-05 5.66652E-07 1.71291E-19-8.01362E-19
 -1      2496 9.57973E-05-2.85752E-05-2.88042E-05 6.68413E-07 1.88282E-19-4.14025E-21
 -1      2497 9.57578E-05-2.84751E-05-2.88380E-05 8.91563E-07-2.36656E-19-9.83839E-19
 -1      2498 9.55057E-05-2.85403E-05-2.86983E-05 3.77817E-07 1.54689E-18-9.67465E-19
 -1      2499 9.55939E-05-2.85521E-05-2.87282E-05 4.56250E-07-1.39422E-19-3.53994E-19
 -1      2500 9.55817E-05-2.84806E-05-2.87597E-05 6.21759E-07 3.55895E-19-6.52551E-19
 -1      2501 9.53892E-05-2.85308E-05-2.86527E-05 2.32415E-07 1.68483E-18 8.61588E-19
 -1      2502 9.54483E-05-2.85372E-05-2.86733E-05 2.92882E-07 2.12768E-18 4.37311E-19
 -1      2503 9.54513E-05-2.84860E-05-2.87011E-05 4.14484E-07 1.20987E-18 3.37875E-19
 -1      2504 9.53095E-05-2.85274E-05-2.86203E-05 1.22972E-07-3.47654E-19 2.28478E-18
 -1      2505 9.53479E-05-2.85294E-05-2.86343E-05 1.68645E-07 8.94910E-19 1.73721E-18
 -1      2506 9.53578E-05-2.84941E-05-2.86576E-05 2.55021E-07 8.28076E-19 3.30550E-18
 -1      2507 9.52808E-05-2.85321E-05-2.86054E-05 7.34974E-08 2.88166E-19 1.94926E-18
 -1      2508 9.50771E-05-2.81488E-05-2.86852E-05 2.38868E-07-2.95068E-19-3.44954E-18
 -1      2509 9.51092E-05-2.81928E-05-2.86778E-05 2.53296E-07-1.11215E-18-5.23020E-18
 -1      2510 9.50203E-05-2.80677E-05-2.86956E-05 1.75496E-07 7.90036E-19-1.47843E-18
 -1      2511 9.50448E-05-2.81009E-05-2.86901E-05 2.07864E-07 2.59699E-19-7.21296E-19
 -1      2512 9.50290E-05-2.80667E-05-2.86969E-05 2.66753E-07 8.55776E-19-2.15101E-18
 -1      2513 9.52176E-05-2.83594E-05-2.86545E-05 2.37479E-07-1.36905E-18-5.28406E-20
 -1      2514 9.52469E-05-2.84049E-05-2.86453E-05 2.14573E-07-1.19170E-18 3.05102E-18
 -1      2515 9.51471E-05-2.82510E-05-2.86711E-05 2.60771E-07-2.41145E-18-3.94713E-18
 -1      2516 9.51809E-05-2.82986E-05-2.86627E-05 2.55087E-07-2.13085E-18-2.03300E-18
 -1      2517 9.52008E-05-2.82975E-05-2.86723E-05 3.02045E-07-2.28072E-18-1.84325E-18
 -1      2518 9.51116E-05-2.81753E-05-2.86862E-05 3.09961E-07-7.64609E-19-3.62589E-18
 -1      2519 9.49861E-05-2.80191E-05-2.87016E-05 8.21453E-08-6.67706E-19-7.72406E-19
 -1      2520 9.49992E-05-2.80368E-05-2.86987E-05 1.26473E-07 6.08713E-19-2.06257E-18
 -1      2521 9.49660E-05-2.79860E-05-2.87041E-05 1.79128E-07 8.63396E-19-2.63935E-18
 -1      2522 9.49793E-05-2.80095E-05-2.87024E-05-2.48416E-08-2.00180E-18-6.03294E-19
 -1      2523 9.49790E-05-2.80091E-05-2.87025E-05 2.35501E-08-2.01904E-18-5.32991E-20
 -1      2524 9.49327E-05-2.79441E-05-2.87076E-05 6.21360E-08-3.84365E-19-1.29875E-18
 -1      2525 9.50006E-05-2.80397E-05-2.86980E-05-1.27136E-07-1.95261E-18 5.28959E-19
 -1      2526 9.49872E-05-2.80214E-05-2.87011E-05-8.31655E-08-1.91087E-18 8.21881E-19
 -1      2527 9.49336E-05-2.79461E-05-2.87072E-05-6.47032E-08-8.74979E-19 7.71806E-20
 -1      2528 9.50458E-05-2.81041E-05-2.86892E-05-2.06246E-07 3.55545E-20 1.25740E-18
 -1      2529 9.50218E-05-2.80714E-05-2.86947E-05-1.74715E-07-9.55191E-19-2.87149E-19
 -1      2530 9.49681E-05-2.79908E-05-2.87030E-05-1.79689E-07-1.83376E-18 9.99376E-19
 -1      2531 9.51094E-05-2.81960E-05-2.86765E-05-2.51282E-07-2.04468E-19 1.18290E-18
 -1      2532 9.50778E-05-2.81523E-05-2.86840E-05-2.36805E-07 9.92015E-20 4.04010E-19
 -1      2533 9.50306E-05-2.80723E-05-2.86953E-05-2.65115E-07 1.65111E-19 4.55293E-19
 -1      2534 9.51809E-05-2.83026E-05-2.86612E-05-2.52938E-07-1.53001E-19 1.09830E-18
 -1      2535 9.51474E-05-2.82541E-05-2.86698E-05-2.58987E-07-6.40424E-19 2.38683E-18
 -1      2536 9.51121E-05-2.81808E-05-2.86842E-05-3.07447E-07-3.03010E-19 1.47040E-18
 -1      2537 9.52462E-05-2.84084E-05-2.86437E-05-2.12442E-07-9.41129E-19 2.97912E-19
 -1      2538 9.52175E-05-2.83622E-05-2.86530E-05-2.36885E-07-3.26713E-19 4.57596E-19
 -1      2539 9.51983E-05-2.83022E-05-2.86701E-05-2.99677E-07-6.41740E-19 1.16659E-18
 -1      2540 9.03406E-05-5.08367E-05-1.70235E-05 4.15018E-05-1.04651E-18-9.57200E-19
 -1      2541 6.95650E-05-4.36174E-05-1.09755E-05 4.05058E-05-1.60767E-18-1.25149E-19
 -1      2542 9.52709E-05-2.84941E-05-2.86174E-05-1.17385E-07 6.33110E-19-1.20621E-19
 -1      2543 1.97778E-05-1.75980E-05-6.29568E-07-8.83981E-06 7.93961E-19 4.68155E-18
 -1      2544 2.72445E-05-2.14428E-05-2.25597E-06-2.44329E-05 6.89697E-19 5.47522E-18
 -1      2545 9.39219E-05-2.74603E-05-2.84683E-05-7.46922E-08 1.64969E-18 1.08811E-18
 -1      2546 9.41191E-05-2.73151E-05-2.85858E-05 5.21877E-07 1.93533E-18 1.43252E-18
 -1      2547 9.45652E-05-2.74196E-05-2.87924E-05-1.91237E-07 1.68783E-18 4.20537E-19
 -1      2548 2.41208E-05-2.04583E-05-1.31591E-06 1.83852E-05-1.03232E-18 5.93495E-18
 -1      2549 1.97112E-05-1.71133E-05-7.83680E-07 6.46405E-06-9.05849E-19 5.26135E-18
 -1      2550 7.44073E-05-4.47707E-05-1.25056E-05-4.23038E-05 2.19530E-18 3.12227E-18
 -1      2551 9.44175E-05-5.11088E-05-1.86512E-05-4.20902E-05 1.85204E-18 3.32227E-18
 -1      2552 1.23970E-04-5.81198E-05-2.84486E-05 2.90322E-05-5.12243E-19-1.07870E-18
 -1      2553 1.08621E-04-5.62399E-05-2.24244E-05 3.41132E-05-5.58195E-19-1.51471E-18
 -1      2554 4.92050E-05-3.31452E-05-6.77711E-06 3.80908E-05-1.61572E-18 1.16255E-18
 -1      2555 3.39647E-05-2.64888E-05-3.00326E-06 2.80811E-05-1.79550E-18 4.13966E-18
 -1      2556 3.71566E-05-2.14303E-05-6.17152E-06 2.43643E-05-1.93251E-18 4.22119E-18
 -1      2557 1.42038E-04-1.00000E-05-5.70380E-05 8.50267E-07-8.98956E-18-1.22052E-18
 -1      2558 1.40853E-04-1.04799E-05-5.63569E-05-2.74885E-06-9.33981E-18-5.29396E-19
 -1      2559 1.47199E-04-1.97336E-05-5.50626E-05-8.46910E-06 4.86853E-18-3.56569E-18
 -1      2560 1.50938E-04-2.76295E-05-5.30076E-05-7.15554E-06 4.20213E-18-3.94696E-18
 -1      2561 1.44450E-04-3.31043E-05-4.77732E-05-1.05619E-05 2.94143E-18-3.62424E-18
 -1      2562 8.77683E-05-1.05412E-05-3.31332E-05-1.45452E-06-1.72525E-20-4.33945E-18
 -1      2563 8.78829E-05-1.06733E-05-3.31235E-05-2.53609E-06-4.26575E-19-4.39661E-18
 -1      2564 8.92499E-05-1.27950E-05-3.27672E-05-2.79170E-06-5.90170E-19-4.01749E-18
 -1      2565 8.89778E-05-1.24306E-05-3.28077E-05-8.93806E-07 1.20578E-19-3.97782E-18
 -1      2566 1.45009E-04-1.19955E-05-5.72833E-05 1.99909E-06 5.07966E-18-1.04778E-18
 -1      2567 1.44457E-04-1.29923E-05-5.67775E-05-2.99784E-06 4.91830E-18-2.59441E-18
 -1      2568 7.29674E-05-4.51644E-05-1.18435E-05-4.05451E-05-2.86403E-18-4.41685E-18
 -1      2569 9.20023E-05-5.14641E-05-1.75146E-05-4.12708E-05-2.38673E-18-3.15651E-18
 -1      2570 1.48247E-04-2.19862E-05-5.45067E-05 7.98953E-06 5.82589E-18-5.99276E-20
 -1      2571 1.45695E-04-1.61693E-05-5.62389E-05 5.57970E-06 5.49470E-18-7.65718E-19
 -1      2572 1.48563E-04-4.04771E-05-4.65954E-05 3.53792E-06 3.40761E-18 1.24217E-18
 -1      2573 1.51293E-04-3.08904E-05-5.20262E-05 6.39686E-06 5.02502E-18 6.56027E-19
 -1      2574 1.40669E-04-5.57793E-05-3.63769E-05-1.09599E-05 1.29765E-18 9.73453E-19
 -1      2575 1.46709E-04-5.13378E-05-4.14058E-05-4.86526E-06 2.32307E-18 1.44377E-18
 -1      2576 1.35389E-04-5.25962E-05-3.55555E-05-1.76199E-05-9.25383E-20 9.43595E-19
 -1      2577 1.44043E-04-4.76733E-05-4.17842E-05-9.42396E-06-1.77074E-18-5.86570E-19
 -1      2578 1.12186E-04-5.73405E-05-2.33834E-05-3.23934E-05-1.88931E-18-1.95665E-18
 -1      2579 1.29817E-04-5.90249E-05-3.06956E-05-2.41948E-05-3.46860E-19-8.48727E-19
 -1      2580 4.26070E-05-3.00606E-05-5.06704E-06-3.37315E-05-2.40684E-18-6.01012E-18
 -1      2581 5.69523E-05-3.73553E-05-8.22037E-06-4.03306E-05-2.28657E-18-5.32487E-18
 -1      2582 7.28135E-05-4.18308E-05-1.29319E-05-3.98383E-05-3.80064E-18-3.95003E-18
 -1      2583 2.01213E-05-1.89266E-05-2.60625E-07-9.53373E-06-4.09646E-19-7.57036E-18
 -1      2584 2.74782E-05-2.20260E-05-2.11940E-06-2.25287E-05-1.13757E-18-7.01830E-18
 -1      2585 2.15522E-05-2.01077E-05-4.45143E-07 1.73946E-05 5.12243E-19-7.03334E-18
 -1      2586 1.81654E-05-1.77848E-05 7.71800E-08 3.83552E-06 7.08907E-19-7.70969E-18
 -1      2587 4.58094E-05-3.18184E-05-5.87486E-06 3.84080E-05 7.13202E-19-6.42686E-18
 -1      2588 3.20765E-05-2.54809E-05-2.61199E-06 2.86252E-05 1.14222E-18-6.40357E-18
 -1      2589 8.01002E-05-4.65473E-05-1.44300E-05 4.41233E-05 1.65383E-19-4.26179E-18
 -1      2590 6.25203E-05-4.07355E-05-9.24557E-06 4.15713E-05 7.29295E-19-5.47554E-18
 -1      2591 1.15993E-04-5.53886E-05-2.61630E-05 3.43683E-05-1.27267E-18-3.29612E-18
 -1      2592 9.93198E-05-5.29817E-05-1.98045E-05 3.84340E-05-1.00373E-19-4.18635E-18
 -1      2593 1.39071E-04-5.25651E-05-3.75169E-05 1.53189E-05-2.42347E-18-7.07273E-19
 -1      2594 1.28790E-04-5.54150E-05-3.14617E-05 2.32312E-05-1.94648E-18-1.44949E-18
 -1      2595 1.47322E-04-3.58148E-05-4.83245E-05-1.35157E-06-5.17749E-18 7.76094E-19
 -1      2596 1.43980E-04-4.38911E-05-4.30157E-05 3.98555E-06-3.83727E-18 1.27690E-19
 -1      2597 1.43633E-04-1.73944E-05-5.47199E-05-5.92491E-06-7.97820E-18 6.66403E-19
 -1      2598 1.45296E-04-2.48947E-05-5.18941E-05-5.77912E-06-6.83005E-18 6.03723E-19
 -1      2599 1.45626E-04-1.86043E-05-5.47716E-05 5.47544E-06-7.92018E-18-1.86347E-18
 -1      2600 1.43835E-04-1.35817E-05-5.64172E-05 4.37088E-06-8.11479E-18-2.24527E-18
 -1      2601 1.46374E-04-3.62375E-05-4.73312E-05 4.01290E-07-4.45116E-18-1.71630E-18
 -1      2602 1.48749E-04-2.77309E-05-5.23216E-05 3.62421E-06-6.69241E-18-1.84208E-18
 -1      2603 1.11921E-04-5.52058E-05-2.42825E-05-3.34438E-05 1.66971E-18 3.04127E-18
 -1      2604 1.25849E-04-5.55883E-05-3.03168E-05-2.84187E-05 9.23901E-19 2.66201E-18
 -1      2605 4.08317E-05-2.87580E-05-4.86428E-06-3.41406E-05 2.27979E-18 6.37519E-18
 -1      2606 5.44901E-05-3.50254E-05-8.27691E-06-4.14276E-05 2.47291E-18 5.49153E-18
 -1      2607 9.50861E-05-2.00050E-05-3.22250E-05-1.15385E-05-3.49211E-18-8.57316E-19
 -1      2608 9.55034E-05-2.33359E-05-3.09533E-05-7.73413E-06-3.15810E-18-5.52358E-19
 -1      2609 9.51265E-05-2.25047E-05-3.11002E-05-7.37221E-06-2.88504E-18-1.37019E-18
 -1      2610 9.32556E-05-1.75952E-05-3.24434E-05-1.11727E-05-3.42148E-18-1.84373E-18
 -1      2611 9.63265E-05-2.50757E-05-3.05602E-05 7.41304E-06 3.36074E-18 2.89171E-18
 -1      2612 9.74149E-05-2.37597E-05-3.15873E-05 1.05237E-05 3.59560E-18 3.42323E-18
 -1      2613 9.58788E-05-2.12911E-05-3.20220E-05 1.17055E-05 3.86742E-18 2.05341E-18
 -1      2614 9.59125E-05-2.41352E-05-3.07955E-05 7.44886E-06 3.49046E-18 1.35020E-18
 -1      2615 1.45235E-04-5.29875E-05-3.98419E-05 1.12755E-05 1.48400E-18-3.21957E-18
 -1      2616 1.35812E-04-5.65732E-05-3.40490E-05 1.72397E-05 2.18535E-19-2.26962E-18
 -1      2617 1.29882E-04-1.37087E-05-5.05150E-05-6.03591E-06 4.13034E-18 2.56863E-19
 -1      2618 1.40354E-04-1.72337E-05-5.33920E-05-7.73132E-06 4.53777E-18-1.75908E-18
 -1      2619 1.33680E-04-2.00480E-05-4.90695E-05-1.27373E-05 4.20361E-18-1.39517E-18
 -1      2620 9.07927E-05-1.48661E-05-3.25307E-05-6.54039E-06-2.03123E-18-3.73449E-18
 -1      2621 8.97350E-05-1.30749E-05-3.29067E-05-7.71496E-06-2.19473E-18-3.99508E-18
 -1      2622 9.03768E-05-1.38162E-05-3.28725E-05-8.93418E-06-2.67810E-18-3.74291E-18
 -1      2623 9.49106E-05-2.68822E-05-2.91694E-05 1.45761E-06 2.33655E-18 6.60841E-19
 -1      2624 9.42710E-05-1.90668E-05-3.22752E-05 1.13944E-05 3.84144E-18 4.60654E-19
 -1      2625 1.45478E-04-5.05152E-05-4.07179E-05-6.99972E-07 8.41554E-19-4.36243E-18
 -1      2626 1.08570E-04-5.55815E-05-2.24601E-05-3.50052E-05 3.33244E-18 2.68457E-18
 -1      2627 1.42659E-04-4.35228E-05-4.25291E-05 1.04485E-06-1.92065E-18-2.90490E-18
 -1      2628 1.39142E-04-2.30096E-05-4.99833E-05 8.78804E-06-6.56959E-18-3.24879E-18
 -1      2629 1.33873E-04-1.32050E-05-5.20335E-05-6.36494E-06-7.83993E-18 8.98649E-19
 -1      2630 3.98209E-05-2.28943E-05-6.66939E-06-2.86834E-05 2.41817E-18 5.03815E-18
 -1      2631 1.40215E-04-3.08520E-05-4.70804E-05-8.32685E-06-5.01708E-18 2.56990E-18
 -1      2632 9.52900E-05-2.85022E-05-2.86233E-05 1.34404E-07-4.55701E-19 4.51275E-18
 -1      2633 9.52827E-05-2.84718E-05-2.86331E-05 1.68518E-07-2.69569E-19 5.10989E-18
 -1      2634 1.40379E-04-5.02351E-05-3.86333E-05 4.31145E-06-1.63801E-18 1.56955E-18
 -1      2635 6.69965E-05-3.87292E-05-1.16585E-05 3.87037E-05-2.47101E-18-1.72689E-19
 -1      2636 1.04710E-04-5.54120E-05-2.08168E-05 3.55187E-05-2.28402E-18-1.48088E-18
 -1      2637 9.53037E-05-2.84989E-05-2.86295E-05-1.61414E-07 8.29191E-19 1.11853E-18
 -1      2638 9.52744E-05-2.84540E-05-2.86382E-05-1.91369E-07-2.50271E-19 3.89987E-19
 -1      2639 9.52771E-05-2.84094E-05-2.86567E-05-2.62385E-07-8.16502E-19 1.42376E-18
 -1      2640 9.53350E-05-2.84960E-05-2.86432E-05-2.08577E-07 2.30209E-19 2.24856E-18
 -1      2641 1.25560E-04-5.82863E-05-2.86415E-05 2.46598E-05 1.29173E-19-4.69256E-19
 -1      2642 2.65022E-05-1.49630E-05-4.32103E-06-1.70867E-06-1.69512E-19 4.65847E-18
 -1      2643 9.47508E-05-2.05619E-05-3.17511E-05 9.42614E-06 3.61608E-18 7.16272E-20
 -1      2644 9.58023E-05-5.16638E-05-1.86279E-05 3.96193E-05 1.34212E-18-3.59017E-18
 -1      2645 6.09809E-05-3.57462E-05-1.03753E-05 3.96810E-05 1.99032E-18-5.66549E-18
 -1      2646 9.20971E-05-1.61905E-05-3.25731E-05-1.01498E-05-3.03125E-18-2.72210E-18
 -1      2647 1.33124E-04-1.04550E-05-5.28719E-05 3.91420E-06-8.00404E-18-2.07417E-18
 -1      2648 3.41635E-05-2.05916E-05-5.28526E-06 2.39695E-05 1.52254E-18-6.43724E-18
 -1      2649 3.96757E-05-2.50409E-05-5.81378E-06-2.87135E-05-2.10996E-18-5.71154E-18
 -1      2650 5.24793E-05-2.79675E-05-1.02168E-05-3.32174E-05-3.39216E-18-4.45920E-18
 -1      2651 3.83649E-05-1.93122E-05-7.56186E-06-2.34942E-05-1.71651E-18-5.20714E-18
 -1      2652 1.07511E-04-5.60921E-05-2.17617E-05-3.41301E-05-3.33837E-18-2.09029E-18
 -1      2653 1.33117E-04-5.71264E-05-3.24133E-05-1.71744E-05 1.94934E-18-2.69356E-19
 -1      2654 1.35450E-04-5.95807E-05-3.24264E-05-1.38984E-05-1.03814E-18 1.53705E-18
 -1      2655 1.45378E-04-4.62469E-05-4.25410E-05 5.54451E-06 1.64658E-18 3.04657E-18
 -1      2656 1.42278E-04-2.69171E-05-4.95220E-05 1.14602E-05 4.00435E-18 1.61730E-18
 -1      2657 1.32741E-04-5.99219E-05-3.10672E-05 1.83448E-05-9.99075E-19-2.41171E-18
 -1      2658 7.21118E-05-4.07683E-05-1.29925E-05-4.09294E-05 3.41905E-18 3.49211E-18
 -1      2659 1.36032E-04-1.27038E-05-5.30192E-05 5.95486E-06 4.76985E-18-2.80156E-19
 -1      2660 2.49330E-05-1.55315E-05-3.49366E-06-2.57691E-06-1.62511E-19-7.64998E-18
 -1      2661 9.52864E-05-2.84288E-05-2.86524E-05 2.39155E-07-1.24626E-18 3.71748E-18
 -1      2662 9.53288E-05-2.84515E-05-2.86633E-05-2.89140E-07-2.67313E-19 2.87998E-18
 -1      2663 9.04229E-05-1.48148E-05-3.24256E-05 3.00868E-06 1.61548E-18-3.41828E-18
 -1      2664 9.02120E-05-1.45224E-05-3.24596E-05 2.11934E-06 1.25653E-18-3.64108E-18
 -1      2665 9.00608E-05-1.42996E-05-3.24891E-05 1.33923E-06 9.94638E-19-3.76871E-18
 -1      2666 8.99873E-05-1.41993E-05-3.25004E-05 4.33440E-07 6.13230E-19-3.72054E-18
 -1      2667 9.12010E-05-1.61241E-05-3.21613E-05 1.51336E-06 1.04764E-18-3.43282E-18
 -1      2668 9.21324E-05-1.73477E-05-3.20875E-05 6.16047E-06 2.84000E-18-2.41362E-18
 -1      2669 9.15774E-05-1.65163E-05-3.21928E-05 5.33834E-06 2.52350E-18-2.69731E-18
 -1      2670 9.36004E-05-1.96560E-05-3.17319E-05 7.27894E-06 3.20498E-18-1.56168E-18
 -1      2671 9.27927E-05-1.83684E-05-3.19145E-05 6.69863E-06 2.97278E-18-1.99657E-18
 -1      2672 9.34230E-05-1.96422E-05-3.15970E-05 5.37425E-06 2.61218E-18-1.99556E-18
 -1      2673 9.53240E-05-2.53242E-05-3.00098E-05 3.60515E-06 2.79518E-18 1.92580E-20
 -1      2674 9.56251E-05-2.44881E-05-3.04548E-05 5.28845E-06 2.91924E-18 1.21021E-19
 -1      2675 1.05913E-04-5.45635E-05-2.21587E-05 3.51663E-05 2.03563E-18-2.34879E-18
 -1      2676 8.94433E-05-4.76199E-05-1.75105E-05 3.91170E-05 2.85418E-18-3.35674E-18
 -1      2677 9.51541E-05-2.65669E-05-2.93972E-05 1.26385E-06 2.14675E-18 2.96540E-20
 -1      2678 9.53711E-05-2.60847E-05-2.96575E-05 2.34777E-06 2.53059E-18 1.91319E-19
 -1      2679 9.53593E-05-2.48785E-05-3.02047E-05 3.36967E-06 2.65813E-18-5.80326E-19
 -1      2680 9.47630E-05-2.18529E-05-3.12528E-05 7.56685E-06 3.33112E-18-1.99473E-19
 -1      2681 1.01990E-04-5.24693E-05-2.08225E-05-3.52250E-05 3.96443E-18 2.94992E-18
 -1      2682 1.16463E-04-5.74491E-05-2.55794E-05-2.87367E-05 3.21851E-18 1.16611E-18
 -1      2683 9.54576E-05-2.57416E-05-2.98500E-05-2.19721E-06-2.06360E-18-1.45173E-18
 -1      2684 9.53322E-05-2.63040E-05-2.95928E-05-1.13196E-06-1.91615E-18-1.42199E-18
 -1      2685 9.53642E-05-2.67792E-05-2.93713E-05-2.86674E-07-1.82629E-18-1.18397E-18
 -1      2686 9.52845E-05-2.71076E-05-2.92215E-05 4.32211E-07-1.58129E-18-1.36371E-18
 -1      2687 9.54822E-05-2.60387E-05-2.97685E-05-9.29903E-07-1.86214E-18-1.51376E-18
 -1      2688 9.52667E-05-2.73715E-05-2.90834E-05 1.03571E-06-1.33902E-18-1.25719E-18
 -1      2689 9.52625E-05-2.75694E-05-2.90100E-05 1.53423E-06-1.18246E-18-1.22490E-18
 -1      2690 9.55063E-05-2.69351E-05-2.93960E-05 5.96315E-07-1.49798E-18-1.16932E-18
 -1      2691 9.52417E-05-2.77078E-05-2.89345E-05 1.97810E-06-1.01928E-18-1.12084E-18
 -1      2692 9.53102E-05-2.78292E-05-2.89164E-05 2.34724E-06-8.27935E-19-1.23717E-18
 -1      2693 9.54805E-05-2.74397E-05-2.91681E-05 1.70662E-06-1.10859E-18-1.31532E-18
 -1      2694 9.53047E-05-2.78914E-05-2.88872E-05 2.69881E-06-7.09077E-19-1.10075E-18
 -1      2695 9.54377E-05-2.79685E-05-2.89094E-05 3.00148E-06-6.20097E-19-1.00339E-18
 -1      2696 9.54652E-05-2.77002E-05-2.90488E-05 2.55133E-06-7.82529E-19-1.17636E-18
 -1      2697 9.54554E-05-2.79863E-05-2.89141E-05 3.31072E-06-4.71788E-19-8.94615E-19
 -1      2698 9.56469E-05-2.80425E-05-2.89660E-05 3.58844E-06-5.63961E-19-7.30584E-19
 -1      2699 9.54857E-05-2.78097E-05-2.90095E-05 3.25126E-06-3.95271E-19-8.89078E-19
 -1      2700 9.56940E-05-2.80409E-05-2.89948E-05 3.88934E-06-7.51438E-19-4.65093E-19
 -1      2701 9.59433E-05-2.80979E-05-2.90685E-05 4.16620E-06-7.00033E-19-2.72915E-19
 -1      2702 9.55560E-05-2.78357E-05-2.90277E-05 3.89354E-06-4.78919E-19-3.96401E-19
 -1      2703 9.60292E-05-2.81022E-05-2.91130E-05 4.47800E-06-8.29580E-19-2.43669E-19
 -1      2704 9.63414E-05-2.81849E-05-2.92016E-05 4.76182E-06-6.44146E-19-7.91330E-20
 -1      2705 9.56921E-05-2.78381E-05-2.90846E-05 4.53433E-06-7.20937E-19-1.71731E-19
 -1      2706 9.64831E-05-2.82255E-05-2.92543E-05 5.08865E-06-5.27914E-19 8.66603E-20
 -1      2707 9.68702E-05-2.83650E-05-2.93514E-05 5.36981E-06-5.49677E-19-1.21504E-19
 -1      2708 9.59202E-05-2.78820E-05-2.91640E-05 5.19988E-06-6.29311E-19-1.66837E-19
 -1      2709 9.70963E-05-2.84819E-05-2.94053E-05 5.69868E-06-6.96321E-19-3.05069E-20
 -1      2710 9.75778E-05-2.87188E-05-2.95045E-05 5.94722E-06-3.34556E-19-2.79955E-19
 -1      2711 9.62856E-05-2.80489E-05-2.92505E-05 5.88463E-06-6.12859E-19-1.07575E-19
 -1      2712 9.79331E-05-2.89644E-05-2.95534E-05 6.24417E-06-2.64942E-19-1.89957E-19
 -1      2713 9.85365E-05-2.93490E-05-2.96482E-05 6.40567E-06-4.77034E-19-2.32514E-19
 -1      2714 9.68610E-05-2.84440E-05-2.93306E-05 6.54623E-06-3.07336E-19 4.62284E-19
 -1      2715 9.90867E-05-2.97883E-05-2.96885E-05 6.60956E-06-4.63396E-19-1.24976E-19
 -1      2716 9.98451E-05-3.03753E-05-2.97742E-05 6.60105E-06-4.50660E-19 1.00270E-19
 -1      2717 9.77555E-05-2.92013E-05-2.93945E-05 7.09641E-06-4.62467E-19 5.96397E-19
 -1      2718 1.00675E-04-3.10772E-05-2.98080E-05 6.61509E-06-4.98317E-19 1.92886E-20
 -1      2719 1.01617E-04-3.19086E-05-2.98848E-05 6.32399E-06-3.36624E-19 7.41102E-20
 -1      2720 9.91194E-05-3.04740E-05-2.94411E-05 7.38688E-06-4.50140E-19 4.29120E-19
 -1      2721 1.02818E-04-3.29191E-05-2.99258E-05 6.00670E-06 1.33662E-19 1.46372E-19
 -1      2722 1.03942E-04-3.39830E-05-3.00042E-05 5.29932E-06 2.63832E-19 9.17591E-20
 -1      2723 1.01131E-04-3.23981E-05-2.94885E-05 7.19028E-06 2.45201E-20 6.93251E-19
 -1      2724 1.05563E-04-3.52670E-05-3.00860E-05 4.46408E-06 5.64292E-19 5.25154E-19
 -1      2725 1.06788E-04-3.64246E-05-3.01932E-05 3.21806E-06 8.16752E-19 7.27213E-19
 -1      2726 1.03943E-04-3.49988E-05-2.95885E-05 6.18337E-06 6.00669E-19 9.73701E-19
 -1      2727 1.08746E-04-3.77671E-05-3.03760E-05 1.66997E-06 5.51601E-19 9.66214E-19
 -1      2728 1.09845E-04-3.86578E-05-3.05586E-05-1.45335E-07 7.26586E-19 1.10037E-18
 -1      2729 1.07543E-04-3.80081E-05-2.98442E-05 3.96451E-06 8.20934E-19 1.27505E-18
 -1      2730 1.11780E-04-3.95510E-05-3.09282E-05-2.47364E-06 9.18485E-19 1.14086E-18
 -1      2731 1.12359E-04-3.95550E-05-3.12454E-05-4.64220E-06 8.25410E-19 1.00714E-18
 -1      2732 1.11516E-04-4.06020E-05-3.04186E-05 1.94654E-07 6.88584E-19 1.69630E-18
 -1      2733 1.13555E-04-3.92042E-05-3.18890E-05-7.38400E-06 9.57311E-19 1.13693E-18
 -1      2734 1.13179E-04-3.76733E-05-3.23794E-05-9.23701E-06 6.10615E-19 9.13024E-19
 -1      2735 1.14779E-04-4.12161E-05-3.15105E-05-4.98693E-06 8.58506E-19 2.04175E-18
 -1      2736 1.12861E-04-3.53771E-05-3.33073E-05-1.13551E-05 4.21346E-19 1.06706E-18
 -1      2737 1.11424E-04-3.22077E-05-3.39118E-05-1.17746E-05 2.04314E-19 1.05042E-18
 -1      2738 1.15836E-04-3.81894E-05-3.32536E-05-1.02668E-05 7.14433E-19 1.89901E-18
 -1      2739 1.09619E-04-2.85994E-05-3.48932E-05-1.13586E-05-9.58931E-19 5.86653E-19
 -1      2740 1.07920E-04-2.51322E-05-3.54326E-05-9.58888E-06-1.92754E-18 7.49599E-20
 -1      2741 1.13406E-04-3.05822E-05-3.54957E-05-1.26576E-05-7.31214E-19 1.81575E-18
 -1      2742 1.06102E-04-2.21586E-05-3.61224E-05-6.05164E-06-2.45867E-18-8.28504E-19
 -1      2743 1.05180E-04-2.05939E-05-3.63498E-05-2.45592E-06-2.94180E-18-1.25460E-18
 -1      2744 1.09688E-04-2.25716E-05-3.73628E-05-8.87105E-06-2.79325E-18 4.73723E-19
 -1      2745 1.05398E-04-2.06594E-05-3.63242E-05 2.85709E-06-3.31208E-18-1.99146E-18
 -1      2746 1.06230E-04-2.23594E-05-3.60798E-05 6.44113E-06-2.92883E-18-2.27693E-18
 -1      2747 1.07406E-04-1.87387E-05-3.80467E-05 4.01930E-07-3.64846E-18-1.39469E-18
 -1      2748 1.08075E-04-2.53868E-05-3.53883E-05 9.85335E-06-1.83796E-18-2.62401E-18
 -1      2749 1.09791E-04-2.88666E-05-3.48473E-05 1.15704E-05-9.51417E-19-2.99469E-18
 -1      2750 1.09759E-04-2.27941E-05-3.73076E-05 9.12425E-06-2.56079E-18-2.07739E-18
 -1      2751 1.11598E-04-3.25296E-05-3.38518E-05 1.18198E-05-5.48910E-19-3.33800E-18
 -1      2752 1.12962E-04-3.56254E-05-3.32502E-05 1.12699E-05-5.87986E-19-3.73538E-18
 -1      2753 1.13662E-04-3.11881E-05-3.53377E-05 1.25840E-05-1.13940E-18-3.57632E-18
 -1      2754 1.13221E-04-3.77793E-05-3.23485E-05 9.17953E-06-3.00371E-19-3.09176E-18
 -1      2755 1.13544E-04-3.92399E-05-3.18729E-05 7.29607E-06 3.40546E-19-2.78334E-18
 -1      2756 1.15807E-04-3.83140E-05-3.31859E-05 1.01248E-05-4.77909E-19-3.46568E-18
 -1      2757 1.12309E-04-3.95111E-05-3.12448E-05 4.57758E-06-2.26317E-19-2.18706E-18
 -1      2758 1.11708E-04-3.94544E-05-3.09382E-05 2.43775E-06-8.63576E-19-2.19845E-18
 -1      2759 1.14692E-04-4.11926E-05-3.14890E-05 4.90769E-06 5.14291E-20-1.67430E-18
 -1      2760 1.09767E-04-3.85232E-05-3.05814E-05 1.67281E-07-7.00523E-19-1.76071E-18
 -1      2761 1.08668E-04-3.76085E-05-3.04092E-05-1.59985E-06-3.60529E-20-8.72161E-19
 -1      2762 1.11366E-04-4.04365E-05-3.04247E-05-2.02499E-07-2.85471E-19-1.24940E-18
 -1      2763 1.06724E-04-3.62523E-05-3.02379E-05-3.08360E-06-7.53429E-20-8.48993E-19
 -1      2764 1.05516E-04-3.50886E-05-3.01410E-05-4.27201E-06 2.28116E-20-2.70457E-19
 -1      2765 1.07401E-04-3.77849E-05-2.98763E-05-3.84210E-06 3.24712E-19 4.92189E-19
 -1      2766 1.03914E-04-3.38016E-05-3.00693E-05-5.04177E-06 1.14404E-19 1.33956E-19
 -1      2767 1.02817E-04-3.27406E-05-3.00013E-05-5.68653E-06 5.47753E-19 9.15586E-20
 -1      2768 1.03833E-04-3.47579E-05-2.96426E-05-5.93182E-06 3.89653E-19 1.04930E-18
 -1      2769 1.01638E-04-3.17322E-05-2.99691E-05-5.93782E-06 6.21875E-19 3.09435E-19
 -1      2770 1.00730E-04-3.09079E-05-2.99033E-05-6.16427E-06 1.19814E-18 3.31298E-19
 -1      2771 1.01061E-04-3.21555E-05-2.95611E-05-6.80610E-06 5.62062E-19 1.47673E-18
 -1      2772 9.99170E-05-3.02074E-05-2.98774E-05-6.08425E-06 7.92339E-19 3.93076E-19
 -1      2773 9.91977E-05-2.96284E-05-2.98037E-05-6.02600E-06 7.91027E-19 4.94197E-19
 -1      2774 9.90878E-05-3.02353E-05-2.95290E-05-6.87091E-06 9.32974E-19 2.46551E-18
 -1      2775 9.86601E-05-2.91885E-05-2.97706E-05-5.75457E-06 7.44210E-19-2.03251E-19
 -1      2776 9.80996E-05-2.88129E-05-2.96887E-05-5.52431E-06 1.52763E-19 9.78782E-20
 -1      2777 9.77542E-05-2.89632E-05-2.94952E-05-6.44692E-06 1.90572E-19 1.69998E-18
 -1      2778 9.77525E-05-2.85659E-05-2.96457E-05-5.15848E-06-1.60366E-20-1.67980E-19
 -1      2779 9.73172E-05-2.83407E-05-2.95596E-05-4.84064E-06 2.86691E-19 9.14968E-20
 -1      2780 9.68816E-05-2.82041E-05-2.94416E-05-5.76045E-06-3.25999E-19 7.06653E-19
 -1      2781 9.70952E-05-2.82243E-05-2.95090E-05-4.44424E-06 4.89198E-19-2.05878E-19
 -1      2782 9.67564E-05-2.81022E-05-2.94237E-05-4.09699E-06 1.98039E-19-6.62004E-19
 -1      2783 9.63204E-05-2.78097E-05-2.93670E-05-4.96346E-06-1.56199E-19 8.89269E-19
 -1      2784 9.66140E-05-2.80678E-05-2.93695E-05-3.70976E-06 1.50682E-19-1.62497E-18
 -1      2785 9.63497E-05-2.80122E-05-2.92890E-05-3.37013E-06 4.40212E-19-1.33028E-18
 -1      2786 9.59611E-05-2.76548E-05-2.92776E-05-4.15359E-06-6.11224E-20 3.37802E-19
 -1      2787 9.62571E-05-2.80252E-05-2.92350E-05-3.01490E-06 9.95220E-19-1.87096E-18
 -1      2788 9.60510E-05-2.80102E-05-2.91623E-05-2.70417E-06 8.26587E-19-1.05144E-18
 -1      2789 9.57296E-05-2.76454E-05-2.91813E-05-3.39000E-06 4.99976E-19-1.34649E-18
 -1      2790 9.59893E-05-2.80473E-05-2.91114E-05-2.39223E-06 5.24517E-19-3.40066E-19
 -1      2791 9.58292E-05-2.80552E-05-2.90479E-05-2.12068E-06-2.08390E-20 8.87176E-20
 -1      2792 9.55780E-05-2.77162E-05-2.90854E-05-2.70502E-06 9.87523E-19-1.83104E-18
 -1      2793 9.57869E-05-2.81020E-05-2.90020E-05-1.85567E-06-5.90853E-19 3.28604E-19
 -1      2794 9.56632E-05-2.81213E-05-2.89483E-05-1.62633E-06-1.49463E-19 3.34301E-19
 -1      2795 9.54764E-05-2.78245E-05-2.89951E-05-2.11274E-06-1.92631E-19-1.12611E-18
 -1      2796 9.56331E-05-2.81690E-05-2.89082E-05-1.40708E-06-6.40722E-19 2.73957E-19
 -1      2797 9.55384E-05-2.81925E-05-2.88640E-05-1.21851E-06-2.31410E-19 3.62747E-19
 -1      2798 9.54061E-05-2.79436E-05-2.89137E-05-1.61527E-06-5.04828E-19 3.83524E-20
 -1      2799 9.55159E-05-2.82361E-05-2.88301E-05-1.04111E-06 4.90371E-19 4.23344E-19
 -1      2800 9.54439E-05-2.82595E-05-2.87946E-05-8.89350E-07 7.88568E-19 1.05871E-18
 -1      2801 9.53555E-05-2.80578E-05-2.88429E-05-1.20740E-06 3.91410E-19-5.30354E-19
 -1      2802 9.54260E-05-2.82964E-05-2.87665E-05-7.48410E-07 5.31798E-19 1.80239E-18
 -1      2803 9.53719E-05-2.83175E-05-2.87385E-05-6.28184E-07 7.13872E-19 2.18298E-18
 -1      2804 9.53172E-05-2.81588E-05-2.87830E-05-8.79768E-07 1.00010E-18 1.35194E-19
 -1      2805 9.53566E-05-2.83476E-05-2.87157E-05-5.18571E-07 2.87755E-19 1.62496E-18
 -1      2806 9.53162E-05-2.83643E-05-2.86939E-05-4.25287E-07 4.46987E-19 9.89408E-19
 -1      2807 9.52862E-05-2.82441E-05-2.87334E-05-6.20777E-07 3.36504E-19 3.19077E-19
 -1      2808 9.50449E-05-2.78621E-05-2.87861E-05-2.23505E-06 1.05575E-18-3.35792E-19
 -1      2809 9.49371E-05-2.77517E-05-2.87838E-05-1.87597E-06 1.21238E-18-1.74093E-19
 -1      2810 1.28878E-04-5.85129E-05-3.06428E-05 1.74530E-05 8.02352E-19 1.55976E-18
 -1      2811 1.19610E-04-5.78829E-05-2.61267E-05 2.60225E-05 1.41550E-18 2.00694E-19
 -1      2812 9.49536E-05-2.76386E-05-2.88452E-05-1.42839E-06 1.23417E-18-4.30912E-19
 -1      2813 9.49479E-05-2.74682E-05-2.89024E-05-9.44615E-07 1.30657E-18-2.97422E-19
 -1      2814 9.52714E-05-2.75319E-05-2.90411E-05-1.62924E-06 1.25777E-18-8.58659E-19
 -1      2815 9.55788E-05-2.80416E-05-2.89342E-05-3.51991E-06 4.18752E-19-1.13501E-19
 -1      2816 9.53137E-05-2.79900E-05-2.88520E-05-3.22163E-06 6.48252E-19-5.45695E-20
 -1      2817 9.59978E-05-2.80599E-05-2.91043E-05-4.18256E-06 6.20770E-19-5.60788E-19
 -1      2818 9.56646E-05-2.80183E-05-2.89928E-05-3.85579E-06 4.71419E-19-2.81825E-19
 -1      2819 9.55228E-05-2.78062E-05-2.90262E-05-3.92149E-06 6.24431E-19-7.21451E-19
 -1      2820 9.65144E-05-2.80656E-05-2.93216E-05-4.93720E-06 7.27046E-19-6.33321E-19
 -1      2821 9.61112E-05-2.80199E-05-2.91854E-05-4.56001E-06 6.51883E-19-5.96436E-19
 -1      2822 9.57250E-05-2.77225E-05-2.91476E-05-4.66815E-06 6.95854E-19-9.56529E-19
 -1      2823 9.71385E-05-2.80944E-05-2.95755E-05-5.81165E-06 6.57915E-19-5.54177E-19
 -1      2824 9.66573E-05-2.80245E-05-2.94186E-05-5.37552E-06 7.29422E-19-3.41358E-19
 -1      2825 9.59824E-05-2.76112E-05-2.93048E-05-5.51444E-06 6.34187E-19-4.90030E-19
 -1      2826 9.78956E-05-2.82026E-05-2.98531E-05-6.80321E-06 6.93928E-19-3.37390E-19
 -1      2827 9.73210E-05-2.80769E-05-2.96808E-05-6.31720E-06 7.07487E-19-3.83646E-19
 -1      2828 9.63073E-05-2.75215E-05-2.94822E-05-6.48763E-06 7.85572E-19-1.60672E-19
 -1      2829 9.88378E-05-2.84835E-05-3.01373E-05-7.86667E-06 2.08239E-19-6.04296E-20
 -1      2830 9.81435E-05-2.82508E-05-2.99577E-05-7.36538E-06 5.43276E-19-1.58370E-19
 -1      2831 9.67348E-05-2.75319E-05-2.96617E-05-7.58560E-06 5.40514E-19 6.65154E-19
 -1      2832 1.00062E-04-2.90875E-05-3.04060E-05-8.89418E-06 5.16192E-20 2.89633E-19
 -1      2833 9.92047E-05-2.86682E-05-3.02300E-05-8.45012E-06 2.95703E-20 9.30389E-20
 -1      2834 9.73417E-05-2.77726E-05-2.98216E-05-8.76705E-06 1.92723E-21 4.21957E-19
 -1      2835 1.01736E-04-3.02404E-05-3.06354E-05-9.68585E-06-2.41563E-19 2.86427E-19
 -1      2836 1.00648E-04-2.95202E-05-3.04757E-05-9.42549E-06 9.57604E-20 5.91322E-19
 -1      2837 9.82766E-05-2.84514E-05-2.99386E-05-9.93370E-06-6.30750E-20 9.95284E-19
 -1      2838 1.04118E-04-3.22352E-05-3.08124E-05-9.91123E-06-8.68302E-19 8.96621E-19
 -1      2839 1.02709E-04-3.10782E-05-3.06770E-05-1.00314E-05-6.41023E-19 2.44473E-19
 -1      2840 9.98002E-05-2.98747E-05-2.99956E-05-1.09001E-05-3.75358E-19 1.01050E-18
 -1      2841 1.07527E-04-3.53422E-05-3.09621E-05-9.06956E-06-1.61819E-18 1.47675E-18
 -1      2842 1.05719E-04-3.36550E-05-3.08403E-05-9.84235E-06-1.09631E-18 1.11080E-18
 -1      2843 1.02318E-04-3.24288E-05-3.00032E-05-1.13411E-05-1.25766E-18 1.20303E-18
 -1      2844 1.12184E-04-3.95195E-05-3.11977E-05-6.47673E-06-1.79994E-18 1.43537E-18
 -1      2845 1.10024E-04-3.74359E-05-3.10367E-05-8.21171E-06-1.72756E-18 1.25594E-18
 -1      2846 1.06353E-04-3.64521E-05-3.00413E-05-1.07051E-05-1.74941E-18 8.21210E-19
 -1      2847 1.17783E-04-4.38219E-05-3.17826E-05-1.45079E-06-1.15737E-18 1.68164E-18
 -1      2848 1.15651E-04-4.20185E-05-3.14642E-05-4.32083E-06-1.69545E-18 1.47985E-18
 -1      2849 1.12305E-04-4.17905E-05-3.03323E-05-8.12023E-06-1.71856E-18 8.38784E-19
 -1      2850 1.22891E-04-4.56932E-05-3.31509E-05 5.99701E-06-8.32263E-19 3.28294E-18
 -1      2851 1.21642E-04-4.56786E-05-3.24954E-05 2.37874E-06-1.24527E-18 2.65930E-18
 -1      2852 1.19775E-04-4.69652E-05-3.13243E-05-2.50248E-06-1.69159E-18 1.99407E-18
 -1      2853 1.24768E-04-4.14803E-05-3.57432E-05 1.35552E-05 5.68836E-20 3.97907E-18
 -1      2854 1.25448E-04-4.49421E-05-3.46167E-05 1.07312E-05-1.57776E-19 3.88020E-18
 -1      2855 1.26602E-04-4.80649E-05-3.36955E-05 6.36977E-06-7.83347E-19 2.85502E-18
 -1      2856 1.21273E-04-3.04858E-05-3.89835E-05 1.50173E-05 1.35636E-18 3.51742E-18
 -1      2857 1.24092E-04-3.64617E-05-3.79068E-05 1.60939E-05 6.84032E-19 3.54454E-18
 -1      2858 1.28935E-04-4.12873E-05-3.77160E-05 1.45081E-05 6.63544E-19 3.13193E-18
 -1      2859 1.21835E-04-1.76757E-05-4.50885E-05 7.47378E-06 3.49475E-18 2.59330E-18
 -1      2860 1.24252E-04-2.30236E-05-4.38957E-05 1.28499E-05 2.51251E-18 3.01901E-18
 -1      2861 1.19395E-04-2.05976E-05-4.26090E-05-1.09157E-05 2.72956E-18 1.32481E-19
 -1      2862 1.17900E-04-1.75182E-05-4.33574E-05-3.39122E-06 3.58189E-18 2.04155E-18
 -1      2863 1.22390E-04-2.67621E-05-4.14217E-05-1.45822E-05 2.56725E-18-9.53733E-19
 -1      2864 1.25906E-04-4.31402E-05-3.57434E-05-1.35266E-05 4.84013E-19-1.30880E-18
 -1      2865 1.23838E-04-3.78192E-05-3.69177E-05-1.59169E-05 1.29395E-18-1.30516E-18
 -1      2866 1.23510E-04-4.61107E-05-3.31522E-05-5.51236E-06-4.48123E-19-7.23002E-19
 -1      2867 1.24088E-04-4.50032E-05-3.39686E-05-9.09194E-06-3.46002E-19-6.14330E-19
 -1      2868 1.28290E-04-4.67868E-05-3.50048E-05-9.61824E-06-3.07579E-19 2.37738E-19
 -1      2869 1.17983E-04-4.36096E-05-3.17830E-05 2.04489E-06 6.07323E-19-1.10264E-18
 -1      2870 1.19886E-04-4.49654E-05-3.21975E-05-1.18831E-06 2.51549E-19-8.79133E-19
 -1      2871 1.22591E-04-4.80731E-05-3.20191E-05-4.92322E-07-2.01729E-19-6.15505E-21
 -1      2872 1.12043E-04-3.90474E-05-3.12009E-05 6.91023E-06 1.12063E-18-5.87879E-19
 -1      2873 1.14249E-04-4.11544E-05-3.13942E-05 4.78318E-06 8.47159E-19-1.01878E-18
 -1      2874 1.14995E-04-4.38164E-05-3.06182E-05 6.30292E-06 5.74843E-19-2.32941E-19
 -1      2875 1.07250E-04-3.48635E-05-3.09682E-05 9.20886E-06 9.56196E-19-2.35711E-19
 -1      2876 1.09186E-04-3.67356E-05-3.10861E-05 8.14737E-06 1.44326E-18-6.02393E-19
 -1      2877 1.08360E-04-3.82286E-05-3.01511E-05 9.82222E-06 1.18919E-18-1.77351E-19
 -1      2878 1.03838E-04-3.18437E-05-3.08249E-05 9.76262E-06-7.48978E-19 2.95442E-19
 -1      2879 1.05360E-04-3.31912E-05-3.09416E-05 9.47604E-06 2.50947E-19-2.22512E-22
 -1      2880 1.03664E-04-3.36435E-05-3.00711E-05 1.09848E-05 2.24687E-19 7.06169E-19
 -1      2881 1.01520E-04-2.99426E-05-3.06628E-05 9.29754E-06-1.35844E-18 6.79954E-19
 -1      2882 1.02680E-04-3.08063E-05-3.08009E-05 9.49167E-06-9.89924E-19 6.23526E-19
 -1      2883 1.00676E-04-3.05637E-05-3.00833E-05 1.07745E-05-7.67774E-19 2.42447E-19
 -1      2884 9.99410E-05-2.88652E-05-3.04575E-05 8.31368E-06 4.29022E-19-2.49045E-19
 -1      2885 1.00831E-04-2.93762E-05-3.06137E-05 8.76276E-06-6.72207E-19 5.48944E-20
 -1      2886 9.88697E-05-2.87569E-05-3.00662E-05 9.85342E-06-5.92580E-19-6.03971E-19
 -1      2887 9.88293E-05-2.83176E-05-3.02205E-05 7.12682E-06 1.75957E-18 3.12298E-19
 -1      2888 9.95256E-05-2.86004E-05-3.03831E-05 7.67907E-06 1.13293E-18 4.13240E-19
 -1      2889 9.77877E-05-2.78318E-05-2.99895E-05 8.61718E-06 8.22012E-19-9.42016E-19
 -1      2890 9.80100E-05-2.80813E-05-2.99725E-05 5.92312E-06 2.00682E-18 2.78393E-19
 -1      2891 9.85645E-05-2.82268E-05-3.01300E-05 6.48625E-06 2.09289E-18 9.43467E-19
 -1      2892 9.71185E-05-2.74496E-05-2.98621E-05 7.29787E-06 1.87228E-18-8.60103E-19
 -1      2893 9.73811E-05-2.80146E-05-2.97320E-05 4.80360E-06 1.26153E-18 7.76548E-19
 -1      2894 9.78267E-05-2.80816E-05-2.98763E-05 5.32701E-06 2.09702E-18 6.26716E-19
 -1      2895 9.66757E-05-2.73705E-05-2.97045E-05 6.02642E-06 1.46573E-18-1.41000E-19
 -1      2896 9.68854E-05-2.80331E-05-2.95114E-05 3.81592E-06 6.91389E-19 1.30956E-18
 -1      2897 9.72436E-05-2.80569E-05-2.96381E-05 4.27600E-06 9.49720E-19 1.55928E-18
 -1      2898 9.63582E-05-2.74444E-05-2.95363E-05 4.87191E-06 8.45744E-19 1.20025E-18
 -1      2899 9.64903E-05-2.80893E-05-2.93174E-05 2.97549E-06-1.05009E-18 4.19528E-19
 -1      2900 9.67763E-05-2.80905E-05-2.94250E-05 3.36500E-06-9.34747E-20 1.65418E-18
 -1      2901 9.61145E-05-2.75837E-05-2.93721E-05 3.86498E-06-6.36576E-20 1.33021E-18
 -1      2902 9.61753E-05-2.81578E-05-2.91525E-05 2.27928E-06-5.57550E-19 6.69808E-19
 -1      2903 9.64013E-05-2.81480E-05-2.92413E-05 2.60014E-06-9.90450E-19 8.76553E-19
 -1      2904 9.59194E-05-2.77409E-05-2.92212E-05 3.01263E-06-7.65833E-19 1.08585E-18
 -1      2905 9.59260E-05-2.82259E-05-2.90159E-05 1.71456E-06-5.31793E-19-8.95277E-19
 -1      2906 9.61021E-05-2.82115E-05-2.90876E-05 1.97334E-06 3.90555E-19 2.82451E-19
 -1      2907 9.57605E-05-2.78919E-05-2.90884E-05 2.30792E-06-4.53254E-19 1.84503E-18
 -1      2908 9.57311E-05-2.82875E-05-2.89056E-05 1.26435E-06-2.74951E-19-2.43930E-18
 -1      2909 9.58663E-05-2.82720E-05-2.89622E-05 1.46954E-06-9.05428E-19-1.97886E-18
 -1      2910 9.56308E-05-2.80258E-05-2.89754E-05 1.73647E-06 5.87695E-19-2.21817E-18
 -1      2911 9.55805E-05-2.83400E-05-2.88182E-05 9.10675E-07-2.52860E-19-1.96987E-18
 -1      2912 9.56827E-05-2.83253E-05-2.88621E-05 1.07114E-06-2.82134E-19-2.73862E-18
 -1      2913 9.55259E-05-2.81390E-05-2.88817E-05 1.28080E-06-3.04272E-19-3.20971E-18
 -1      2914 9.54655E-05-2.83823E-05-2.87504E-05 6.36067E-07 1.30402E-19-9.10027E-19
 -1      2915 9.55413E-05-2.83696E-05-2.87837E-05 7.60191E-07-8.17455E-20-1.60121E-18
 -1      2916 9.54413E-05-2.82309E-05-2.88059E-05 9.22761E-07-3.98733E-19-3.11773E-18
 -1      2917 9.53796E-05-2.84153E-05-2.86984E-05 4.25644E-07 5.82817E-19 7.49094E-19
 -1      2918 9.54339E-05-2.84055E-05-2.87233E-05 5.19376E-07 1.61995E-19-5.58796E-20
 -1      2919 9.53724E-05-2.83023E-05-2.87455E-05 6.44721E-07-3.01805E-19-8.34977E-19
 -1      2920 9.53106E-05-2.84250E-05-2.86645E-05 2.90196E-07-1.44588E-18 3.65767E-18
 -1      2921 9.53487E-05-2.84150E-05-2.86835E-05 3.63739E-07-3.55444E-19 2.01662E-18
 -1      2922 9.53118E-05-2.83406E-05-2.87041E-05 4.57955E-07-1.43914E-18-4.51382E-22
 -1      2923 9.52628E-05-2.83553E-05-2.86766E-05 3.36798E-07-2.27596E-18 2.08956E-18
 -1      2924 9.48527E-05-2.78538E-05-2.87150E-05 3.87471E-08 4.53581E-19-2.07022E-18
 -1      2925 9.48626E-05-2.78640E-05-2.87144E-05 1.06104E-07 1.32757E-18-2.42509E-18
 -1      2926 9.53087E-05-2.83822E-05-2.86809E-05-3.65880E-07 5.37034E-20 1.04248E-18
 -1      2927 9.52869E-05-2.83933E-05-2.86684E-05-3.14114E-07-3.71211E-19 1.21590E-18
 -1      2928 9.52649E-05-2.83051E-05-2.86983E-05-4.46467E-07 1.78620E-20-2.26600E-19
 -1      2929 9.49576E-05-2.79738E-05-2.87094E-05 2.99647E-07 6.04530E-19-2.01622E-18
 -1      2930 9.50031E-05-2.80223E-05-2.87054E-05 3.36700E-07 1.06159E-18-2.81174E-18
 -1      2931 9.48648E-05-2.78678E-05-2.87136E-05-1.11313E-07-8.36493E-19 4.53956E-19
 -1      2932 9.48536E-05-2.78557E-05-2.87147E-05-4.43496E-08-5.28332E-19-7.94450E-19
 -1      2933 9.47831E-05-2.77605E-05-2.87218E-05-4.31794E-09 1.85082E-19-2.44093E-18
 -1      2934 9.48850E-05-2.78906E-05-2.87136E-05 1.83396E-07 1.61271E-18-2.20779E-18
 -1      2935 9.49149E-05-2.79218E-05-2.87113E-05 2.40275E-07 1.46512E-18-1.75482E-18
 -1      2936 9.48824E-05-2.78654E-05-2.87198E-05 3.13025E-07 9.26032E-19-1.52527E-18
 -1      2937 9.48077E-05-2.77856E-05-2.87217E-05 1.66699E-07 2.15708E-18-3.20740E-18
 -1      2938 9.49953E-05-2.72496E-05-2.90328E-05-3.30436E-07 1.50893E-18-1.15919E-19
 -1      2939 9.51061E-05-2.69721E-05-2.91732E-05 3.78932E-07 1.80752E-18 2.27599E-21
 -1      2940 9.53836E-05-2.62931E-05-2.96182E-05 1.10952E-06 2.11451E-18-4.06953E-19
 -1      2941 9.53175E-05-2.70950E-05-2.92491E-05-4.89052E-07 1.63048E-18-7.04982E-19
 -1      2942 9.49181E-05-2.79287E-05-2.87096E-05-2.41266E-07-7.13498E-19 1.35389E-18
 -1      2943 9.48882E-05-2.78969E-05-2.87123E-05-1.86228E-07-1.60434E-18 1.66902E-18
 -1      2944 9.48112E-05-2.77923E-05-2.87204E-05-1.72652E-07-1.97496E-19-2.30443E-19
 -1      2945 9.50062E-05-2.80310E-05-2.87029E-05-3.35237E-07-9.27908E-19 4.28955E-19
 -1      2946 9.49611E-05-2.79823E-05-2.87072E-05-2.99116E-07-7.87838E-19 1.21046E-18
 -1      2947 9.48870E-05-2.78762E-05-2.87173E-05-3.14523E-07-1.00749E-18 7.75922E-19
 -1      2948 9.51140E-05-2.81620E-05-2.86934E-05-3.75488E-07-1.28613E-19 2.46146E-18
 -1      2949 9.50629E-05-2.81022E-05-2.86993E-05-3.66566E-07-9.98037E-20 1.99162E-18
 -1      2950 9.49996E-05-2.80020E-05-2.87122E-05-4.09901E-07-8.59646E-19 1.77612E-18
 -1      2951 3.78606E-05-1.74053E-05-8.21757E-06-2.21789E-05 1.07007E-18 4.01748E-18
 -1      2952 4.96104E-05-2.49701E-05-1.03642E-05-3.32240E-05 2.82644E-18 3.85188E-18
 -1      2953 1.37235E-04-4.84115E-05-3.81083E-05 1.73848E-06-1.12920E-19-3.82637E-18
 -1      2954 1.36945E-04-3.88141E-05-4.27324E-05 8.37429E-06-2.67578E-18-4.25581E-18
 -1      2955 9.52488E-05-2.83439E-05-2.86736E-05-3.33171E-07-2.82625E-19-1.33025E-19
 -1      2956 1.32746E-04-2.63892E-05-4.63399E-05-1.17184E-05-5.07913E-18 2.77753E-18
 -1      2957 1.36363E-04-3.58157E-05-4.32224E-05-1.01280E-05-3.74981E-18 2.96885E-18
 -1      2958 4.68995E-05-2.30757E-05-9.88329E-06 2.94664E-05-2.12923E-18 2.84010E-18
 -1      2959 3.70856E-05-1.65760E-05-8.30575E-06 1.85579E-05-1.95887E-18 4.16041E-18
 -1      2960 1.37114E-04-2.95354E-05-4.66647E-05-1.31776E-05 3.00210E-18-2.21732E-18
 -1      2961 1.40629E-04-3.84931E-05-4.41007E-05-1.23745E-05 1.44101E-18-3.21745E-18
 -1      2962 1.13702E-04-5.73461E-05-2.43883E-05 2.95604E-05-2.25088E-18-1.92122E-18
 -1      2963 9.85144E-05-5.13182E-05-1.98466E-05 3.49157E-05-2.99447E-18-1.31944E-18
 -1      2964 9.52581E-05-2.79844E-05-2.88231E-05-2.89653E-06 7.12882E-19-5.62701E-20
 -1      2965 9.50659E-05-2.79106E-05-2.87761E-05-2.59237E-06 8.84265E-19-2.59213E-19
 -1      2966 9.52899E-05-2.77509E-05-2.89533E-05-2.49322E-06 9.54151E-19-4.97519E-19
 -1      2967 9.53758E-05-2.78271E-05-2.89557E-05-3.22216E-06 6.31644E-19-2.52923E-19
 -1      2968 9.52689E-05-2.38615E-05-3.05936E-05-4.92915E-06-2.33364E-18-1.76713E-18
 -1      2969 9.52483E-05-2.48643E-05-3.01810E-05-3.36031E-06-2.18156E-18-1.62759E-18
 -1      2970 9.52661E-05-2.44990E-05-3.03299E-05-3.02811E-06-2.02979E-18-1.98118E-18
 -1      2971 9.95536E-05-5.16533E-05-2.01432E-05-3.45464E-05-4.37905E-18-2.14276E-18
 -1      2972 1.15799E-04-5.80292E-05-2.51157E-05-2.77390E-05-3.56516E-18-5.30904E-19
 -1      2973 1.42150E-04-4.72596E-05-4.13088E-05-7.60464E-06 5.80694E-19-3.84500E-18
 -1      2974 1.40708E-04-5.39818E-05-3.72295E-05-9.27308E-07-6.04702E-19-4.02065E-18
 -1      2975 1.27017E-04-1.25345E-05-4.96217E-05 7.79998E-06-6.93339E-18-1.92732E-18
 -1      2976 1.24230E-04-8.90259E-06-5.00872E-05 1.72411E-06-7.13117E-18-4.58483E-19
 -1      2977 9.11017E-05-1.58000E-05-3.22995E-05 4.64948E-06 2.35390E-18-2.83713E-18
 -1      2978 9.07283E-05-1.52686E-05-3.23629E-05 3.76055E-06 1.86614E-18-3.10291E-18
 -1      2979 9.16462E-05-1.67888E-05-3.20648E-05 2.95761E-06 1.63268E-18-2.99198E-18
 -1      2980 9.23908E-05-1.79368E-05-3.18880E-05 4.29262E-06 2.24928E-18-2.51264E-18
 -1      2981 9.06927E-05-1.52238E-05-3.23661E-05-3.69786E-06-1.10515E-18-3.86277E-18
 -1      2982 9.10538E-05-1.57398E-05-3.23038E-05-4.59694E-06-1.49964E-18-3.85927E-18
 -1      2983 1.27990E-04-5.80140E-05-2.97774E-05-1.76491E-05 2.75370E-18-8.25275E-19
 -1      2984 1.34744E-04-5.60922E-05-3.42411E-05-9.35641E-06 1.72411E-18-2.16840E-18
 -1      2985 1.35861E-04-5.93220E-05-3.32042E-05 9.95411E-06-1.07266E-18-3.82742E-18
 -1      2986 1.26837E-04-5.99996E-05-2.84440E-05 1.90696E-05-2.14643E-18-3.01718E-18
 -1      2987 1.34539E-04-2.76928E-05-4.61227E-05 1.18021E-05-4.66588E-18-4.02669E-18
 -1      2988 1.30646E-04-1.94265E-05-4.83729E-05 1.08430E-05-6.21532E-18-2.78600E-18
 -1      2989 2.98288E-05-1.26433E-05-6.84146E-06 4.68313E-06 3.20443E-19-6.41755E-18
 -1      2990 3.16914E-05-1.36277E-05-7.21598E-06-9.28239E-06-7.61853E-19-6.39531E-18
 -1      2991 1.39854E-04-4.99924E-05-3.85881E-05 6.28606E-06 4.14305E-19 3.75458E-18
 -1      2992 1.39600E-04-4.11540E-05-4.28356E-05 1.19336E-05 1.53239E-18 3.81758E-18
 -1      2993 7.21492E-05-3.80667E-05-1.41807E-05-3.74476E-05-3.66945E-18-3.52313E-18
 -1      2994 8.67879E-05-4.59149E-05-1.73247E-05-3.85615E-05-4.11256E-18-3.31243E-18
 -1      2995 9.79369E-05-4.85389E-05-2.08235E-05-3.27248E-05-4.31849E-18-2.18627E-18
 -1      2996 9.28848E-05-1.79200E-05-3.21272E-05-8.53769E-06-2.84006E-18-2.66753E-18
 -1      2997 7.42717E-05-4.02377E-05-1.44214E-05 4.12260E-05 2.59425E-18-3.88470E-18
 -1      2998 5.86619E-05-3.08032E-05-1.14395E-05 3.66887E-05 2.65990E-18-5.19041E-18
 -1      2999 8.68624E-05-4.38103E-05-1.80368E-05 3.70560E-05 3.32693E-18-3.18363E-18
 -1      3000 3.21229E-05-1.24031E-05-7.91777E-06 5.98336E-06-1.54795E-19 3.71530E-18
 -1      3001 3.23250E-05-1.26752E-05-7.89247E-06-9.69745E-06 6.10420E-19 3.64415E-18
 -1      3002 8.13704E-05-4.33304E-05-1.62175E-05 3.89453E-05-2.65778E-18-1.92287E-18
 -1      3003 6.28461E-05-3.24927E-05-1.24951E-05 3.53811E-05-2.72914E-18-4.83550E-19
 -1      3004 9.39066E-05-4.62636E-05-1.99717E-05 3.32704E-05-2.88266E-18-1.37743E-18
 -1      3005 1.37790E-04-4.68350E-05-3.96577E-05-3.24576E-06-1.79775E-18 2.45343E-18
 -1      3006 1.35784E-04-5.38476E-05-3.49766E-05 5.09806E-06-4.11340E-20 1.92361E-18
 -1      3007 4.35883E-05-2.10086E-05-9.32079E-06 2.86417E-05 2.02197E-18-5.85617E-18
 -1      3008 3.41105E-05-1.52711E-05-7.48834E-06 1.65306E-05 1.84918E-18-5.94490E-18
 -1      3009 1.25136E-04-1.03534E-05-4.98492E-05-4.53963E-06-6.93402E-18 1.04894E-18
 -1      3010 1.28508E-04-1.63995E-05-4.84903E-05-1.03828E-05-6.46583E-18 2.56683E-18
 -1      3011 6.75854E-05-3.51931E-05-1.33340E-05-3.83684E-05 3.95861E-18 2.76154E-18
 -1      3012 8.54443E-05-4.54029E-05-1.71471E-05-4.05176E-05 3.79640E-18 2.73708E-18
 -1      3013 9.69500E-05-4.81124E-05-2.05176E-05-3.42916E-05 4.01854E-18 2.71826E-18
 -1      3014 1.29578E-04-5.96180E-05-2.96391E-05-1.50629E-05-2.59290E-18 1.68591E-18
 -1      3015 1.36884E-04-5.78920E-05-3.44262E-05-5.12474E-06-9.40418E-19 3.42445E-18
 -1      3016 9.15212E-05-1.64446E-05-3.21993E-05-5.28272E-06-1.73658E-18-3.57396E-18
 -1      3017 9.20285E-05-1.72335E-05-3.21005E-05-6.13356E-06-2.16239E-18-3.38102E-18
 -1      3018 9.23206E-05-1.78704E-05-3.18965E-05-4.24097E-06-1.54618E-18-3.40495E-18
 -1      3019 9.10492E-05-1.59040E-05-3.21924E-05 3.12552E-08 4.33177E-19-3.39346E-18
 -1      3020 8.99834E-05-1.41957E-05-3.25007E-05-3.53081E-07 3.22974E-19-3.63759E-18
 -1      3021 9.00463E-05-1.42815E-05-3.24900E-05-1.26067E-06-7.77919E-20-3.70051E-18
 -1      3022 9.44097E-05-2.13304E-05-3.13252E-05 6.88986E-06 3.23961E-18-9.61528E-19
 -1      3023 4.23677E-05-1.48526E-05-1.11595E-05-1.46208E-05 8.61115E-19 3.36177E-18
 -1      3024 1.22351E-04-5.74282E-05-2.76538E-05-1.85449E-05-3.48088E-18 7.96132E-19
 -1      3025 1.35702E-04-5.28998E-05-3.55094E-05 3.54720E-06-8.14290E-19 3.52376E-18
 -1      3026 9.49953E-05-2.79898E-05-2.87155E-05 4.12042E-07-1.79477E-19-1.54861E-18
 -1      3027 9.50597E-05-2.80929E-05-2.87020E-05 3.68659E-07 4.25016E-22-2.16838E-18
 -1      3028 9.51129E-05-2.81525E-05-2.86964E-05 3.79366E-07-1.64953E-18-1.83266E-18
 -1      3029 1.13270E-04-5.53983E-05-2.45863E-05 2.79478E-05 2.39012E-18-2.01289E-19
 -1      3030 1.31097E-04-2.64017E-05-4.53927E-05 1.51870E-05 2.33379E-18 2.36926E-18
 -1      3031 1.15861E-04-1.70411E-05-4.32220E-05-2.69658E-07 3.50418E-18 2.56201E-18
 -1      3032 1.30425E-04-1.44989E-05-5.00968E-05 4.19482E-06 4.39060E-18 9.15960E-19
 -1      3033 6.46390E-05-3.00454E-05-1.42667E-05-3.36400E-05 3.61164E-18 2.84624E-18
 -1      3034 1.33488E-04-4.18145E-05-3.95024E-05-8.43652E-06-2.08142E-18 2.78102E-18
 -1      3035 9.51648E-05-2.82227E-05-2.86913E-05 3.77515E-07-2.45861E-18-2.17558E-18
 -1      3036 9.52165E-05-2.82855E-05-2.86838E-05 3.61889E-07-2.60907E-18-4.93208E-19
 -1      3037 9.52366E-05-2.82736E-05-2.86965E-05 4.20584E-07-2.78611E-18-6.92048E-19
 -1      3038 9.51216E-05-2.81333E-05-2.87081E-05 4.45462E-07-1.44361E-18-1.57762E-18
 -1      3039 6.22587E-05-2.79683E-05-1.41055E-05 3.05631E-05-2.50997E-18-1.21761E-19
 -1      3040 1.33559E-04-5.14330E-05-3.52686E-05-3.83954E-07 1.17569E-18-3.68655E-18
 -1      3041 1.20113E-04-1.13124E-05-4.69916E-05-1.46561E-06-5.86136E-18 8.13178E-19
 -1      3042 5.72542E-05-2.58682E-05-1.29446E-05 3.08278E-05 2.72353E-18-5.12826E-18
 -1      3043 9.52049E-05-2.82806E-05-2.86813E-05-3.51834E-07 1.51007E-19 3.65682E-19
 -1      3044 6.66142E-05-3.30470E-05-1.38691E-05-3.49862E-05-3.51318E-18-3.52175E-18
 -1      3045 7.91345E-05-3.73458E-05-1.77917E-05-3.36135E-05-3.80011E-18-2.45576E-18
 -1      3046 6.15235E-05-2.71854E-05-1.42380E-05-3.08536E-05-2.91692E-18-3.48247E-18
 -1      3047 3.95870E-05-1.35892E-05-1.05394E-05 9.79760E-06 1.41245E-18-5.49576E-18
 -1      3048 1.31220E-04-3.46244E-05-4.16728E-05 1.18506E-05-2.67599E-18-3.74674E-18
 -1      3049 1.35719E-04-5.58912E-05-3.43121E-05 1.87671E-06-1.20853E-18-3.78899E-18
 -1      3050 1.24058E-04-1.73710E-05-4.61091E-05 9.99001E-06-5.50624E-18-2.04802E-18
 -1      3051 1.26167E-04-2.22490E-05-4.48818E-05-1.19442E-05-4.98775E-18 2.96091E-18
 -1      3052 1.21190E-04-5.74687E-05-2.70193E-05 2.02648E-05-2.39467E-18-2.86411E-18
 -1      3053 4.18717E-05-1.42693E-05-1.12358E-05 1.09895E-05-6.39960E-19 3.13127E-18
 -1      3054 1.37882E-04-4.40687E-05-4.06718E-05-1.19603E-05 3.95300E-19-2.80675E-18
 -1      3055 1.31264E-04-2.50390E-05-4.55567E-05-1.44589E-05 3.16197E-18-8.44386E-19
 -1      3056 3.89159E-05-1.56036E-05-9.35100E-06-1.57338E-05-1.50790E-18-5.61382E-18
 -1      3057 4.79667E-05-1.84879E-05-1.23122E-05-2.13376E-05-2.07645E-18-4.38181E-18
 -1      3058 4.24856E-05-1.32457E-05-1.20740E-05-9.27501E-06-5.42525E-19-4.66969E-18
 -1      3059 1.30892E-04-5.56046E-05-3.22486E-05 8.51313E-06 8.37398E-19 1.77390E-18
 -1      3060 9.52097E-05-2.82492E-05-2.86980E-05-4.37928E-07-3.51855E-19-5.54578E-19
 -1      3061 9.51557E-05-2.82054E-05-2.86936E-05-3.99662E-07-2.46162E-19 1.50347E-18
 -1      3062 9.51144E-05-2.81218E-05-2.87096E-05-4.66112E-07-5.16322E-20 1.27310E-18
 -1      3063 9.52197E-05-2.82224E-05-2.87110E-05-5.02709E-07-7.16279E-19 5.81053E-19
 -1      3064 9.28840E-05-1.84885E-05-3.18823E-05-6.73711E-06-2.40475E-18-3.04050E-18
 -1      3065 9.42884E-05-2.08725E-05-3.15003E-05-7.41632E-06-2.83027E-18-2.26302E-18
 -1      3066 9.48034E-05-2.26662E-05-3.09192E-05-5.69469E-06-2.53491E-18-2.00217E-18
 -1      3067 9.34988E-05-1.98144E-05-3.15606E-05-5.37951E-06-2.13347E-18-2.89909E-18
 -1      3068 9.01898E-05-1.44957E-05-3.24614E-05-2.03539E-06-3.67861E-19-3.66717E-18
 -1      3069 9.03949E-05-1.47800E-05-3.24277E-05-2.94529E-06-8.21382E-19-3.71154E-18
 -1      3070 9.15987E-05-1.67500E-05-3.20695E-05-2.89139E-06-9.36610E-19-3.46460E-18
 -1      3071 9.11761E-05-1.61053E-05-3.21632E-05-1.44436E-06-2.60672E-19-3.38517E-18
 -1      3072 9.46619E-05-2.23208E-05-3.09950E-05 5.31491E-06 2.94724E-18-1.18065E-18
 -1      3073 1.22179E-04-5.70414E-05-2.77552E-05-2.01670E-05 3.16864E-18-5.22011E-19
 -1      3074 1.35333E-04-3.54399E-05-4.33692E-05 1.54540E-05 1.79169E-18 3.44044E-18
 -1      3075 9.46238E-05-2.22529E-05-3.09984E-05-5.07328E-06-2.26704E-18-2.39122E-18
 -1      3076 4.42437E-05-1.27084E-05-1.32131E-05-8.71524E-06 6.41508E-19 3.28935E-18
 -1      3077 4.90058E-05-1.69706E-05-1.34551E-05-2.10079E-05 8.59553E-19 3.34949E-18
 -1      3078 9.42628E-05-2.16040E-05-3.11605E-05 4.54663E-06 2.53589E-18-1.69675E-18
 -1      3079 9.37555E-05-2.06088E-05-3.13521E-05 4.20569E-06 2.26200E-18-2.01850E-18
 -1      3080 9.49224E-05-2.32215E-05-3.07246E-05-3.64361E-06-1.88310E-18-2.41490E-18
 -1      3081 9.51558E-05-2.42974E-05-3.03851E-05-2.40762E-06-1.74843E-18-2.24651E-18
 -1      3082 9.52642E-05-2.40955E-05-3.05027E-05 3.82214E-06 2.57381E-18-1.05190E-18
 -1      3083 9.46600E-05-2.25212E-05-3.09075E-05 4.33326E-06 2.58574E-18-1.40903E-18
 -1      3084 9.49044E-05-2.32976E-05-3.06876E-05 3.17024E-06 2.29195E-18-1.51320E-18
 -1      3085 9.53096E-05-2.49850E-05-3.01503E-05 2.47594E-06 2.31134E-18-8.82894E-19
 -1      3086 9.56338E-05-2.63918E-05-2.96622E-05 1.37275E-07-1.49217E-18-1.40135E-18
 -1      3087 9.56230E-05-2.67778E-05-2.95101E-05 8.04995E-07-1.31556E-18-1.35155E-18
 -1      3088 9.56264E-05-2.70780E-05-2.93693E-05 1.34581E-06-1.13196E-18-1.13949E-18
 -1      3089 9.56098E-05-2.72939E-05-2.92792E-05 1.84293E-06-9.85522E-19-1.23192E-18
 -1      3090 9.56806E-05-2.65900E-05-2.96131E-05 9.54820E-07-1.13538E-18-1.45624E-18
 -1      3091 9.55521E-05-2.74345E-05-2.91886E-05 2.26759E-06-7.58355E-19-1.18840E-18
 -1      3092 9.55483E-05-2.75395E-05-2.91445E-05 2.66150E-06-5.23354E-19-1.08460E-18
 -1      3093 9.56310E-05-2.71068E-05-2.93707E-05 1.95559E-06-8.38977E-19-1.12305E-18
 -1      3094 9.54583E-05-2.75750E-05-2.90914E-05 3.02161E-06-4.50098E-19-1.12988E-18
 -1      3095 9.54764E-05-2.76107E-05-2.90810E-05 3.36407E-06-3.50247E-19-1.01385E-18
 -1      3096 9.54889E-05-2.73270E-05-2.92151E-05 2.76937E-06-5.80198E-19-1.25666E-18
 -1      3097 9.53721E-05-2.75813E-05-2.90542E-05 3.70058E-06-2.53325E-19-1.02394E-18
 -1      3098 9.54189E-05-2.75816E-05-2.90672E-05 4.02793E-06-4.19109E-19-8.63858E-19
 -1      3099 9.52996E-05-2.73526E-05-2.91225E-05 3.48882E-06-3.46849E-19-1.47696E-18
 -1      3100 9.53161E-05-2.75231E-05-2.90567E-05 4.37088E-06-6.29459E-19-6.52906E-19
 -1      3101 9.54017E-05-2.75219E-05-2.90842E-05 4.70485E-06-6.33777E-19-5.81596E-19
 -1      3102 9.50959E-05-2.72670E-05-2.90716E-05 4.18632E-06-3.92955E-19-1.29619E-18
 -1      3103 9.53200E-05-2.74724E-05-2.90807E-05 5.07303E-06-7.36210E-19-3.81436E-19
 -1      3104 9.54620E-05-2.75092E-05-2.91146E-05 5.42073E-06-4.78804E-19-4.42610E-19
 -1      3105 9.49123E-05-2.71516E-05-2.90426E-05 4.91293E-06-5.68195E-19-7.20791E-19
 -1      3106 9.54316E-05-2.75154E-05-2.91093E-05 5.82111E-06-4.02980E-19-1.06970E-19
 -1      3107 9.56593E-05-2.76406E-05-2.91420E-05 6.17386E-06-2.88119E-19 1.12194E-19
 -1      3108 9.47973E-05-2.70994E-05-2.90168E-05 5.69784E-06-2.90433E-19-4.11512E-19
 -1      3109 9.57274E-05-2.77635E-05-2.91272E-05 6.60011E-06-2.21934E-19 2.24077E-19
 -1      3110 9.60869E-05-2.80426E-05-2.91524E-05 6.93059E-06-1.60291E-19 4.84253E-19
 -1      3111 9.48261E-05-2.72272E-05-2.89771E-05 6.54728E-06-1.35244E-19 1.94970E-20
 -1      3112 9.63271E-05-2.83617E-05-2.91227E-05 7.35915E-06-2.20120E-19 7.55595E-19
 -1      3113 9.68853E-05-2.88768E-05-2.91370E-05 7.61651E-06-3.30234E-19 6.61140E-19
 -1      3114 9.51163E-05-2.76868E-05-2.89097E-05 7.44068E-06-4.56030E-20-6.60920E-20
 -1      3115 9.74057E-05-2.94900E-05-2.90927E-05 7.99788E-06-5.34681E-19 8.27249E-19
 -1      3116 9.82501E-05-3.03323E-05-2.90993E-05 8.09995E-06-4.98834E-19 7.99923E-19
 -1      3117 9.58454E-05-2.86723E-05-2.88086E-05 8.31988E-06-4.50026E-19 7.97242E-19
 -1      3118 9.91980E-05-3.13449E-05-2.90522E-05 8.34125E-06-1.07445E-19 8.88084E-19
 -1      3119 1.00422E-04-3.25886E-05-2.90677E-05 8.16367E-06 3.95013E-19 1.09049E-18
 -1      3120 9.72660E-05-3.04122E-05-2.86854E-05 9.06499E-06-2.37332E-19 1.11669E-18
 -1      3121 1.01971E-04-3.40753E-05-2.90517E-05 8.09764E-06 7.63625E-19 1.10440E-18
 -1      3122 1.03627E-04-3.57113E-05-2.91151E-05 7.46445E-06 8.37624E-19 1.36592E-18
 -1      3123 9.97023E-05-3.31255E-05-2.85857E-05 9.44532E-06 6.43116E-19 1.25344E-18
 -1      3124 1.05917E-04-3.76253E-05-2.92007E-05 6.81104E-06 6.07637E-19 1.27835E-18
 -1      3125 1.07919E-04-3.94308E-05-2.93830E-05 5.51011E-06 7.92511E-19 1.38345E-18
 -1      3126 1.03487E-04-3.68900E-05-2.86164E-05 9.03976E-06 7.08984E-19 1.03041E-18
 -1      3127 1.10899E-04-4.14296E-05-2.96933E-05 3.87157E-06 1.28018E-18 1.69885E-18
 -1      3128 1.12868E-04-4.27680E-05-3.00987E-05 1.74887E-06 1.15993E-18 2.01447E-18
 -1      3129 1.08766E-04-4.13525E-05-2.89811E-05 7.15344E-06 1.15466E-18 1.20775E-18
 -1      3130 1.16012E-04-4.39907E-05-3.08105E-05-1.17694E-06 7.79884E-19 2.61256E-18
 -1      3131 1.17248E-04-4.37093E-05-3.15603E-05-3.95588E-06 1.00809E-18 2.50309E-18
 -1      3132 1.15017E-04-4.51862E-05-3.00075E-05 2.94423E-06 1.37775E-18 2.41435E-18
 -1      3133 1.19164E-04-4.25981E-05-3.28596E-05-7.62970E-06 1.10840E-18 2.95380E-18
 -1      3134 1.18914E-04-3.97819E-05-3.40073E-05-9.94694E-06 5.33670E-19 3.08755E-18
 -1      3135 1.20385E-04-4.53882E-05-3.21260E-05-3.99752E-06 1.31396E-18 3.39062E-18
 -1      3136 1.12580E-04-2.33071E-05-3.84559E-05-1.12426E-05-2.76114E-18 1.05333E-18
 -1      3137 1.10769E-04-1.92426E-05-3.92824E-05-7.53392E-06-3.70498E-18 5.74460E-19
 -1      3138 1.12003E-04-1.41808E-05-4.22427E-05-2.93265E-08-4.78235E-18-3.94214E-19
 -1      3139 1.12776E-04-1.55207E-05-4.20317E-05 5.39261E-06-4.84603E-18-1.00918E-18
 -1      3140 1.16268E-04-2.99831E-05-3.70235E-05 1.29280E-05-1.55129E-18-3.08336E-18
 -1      3141 1.18416E-04-3.55149E-05-3.57071E-05 1.28658E-05-5.32936E-19-3.40505E-18
 -1      3142 1.18682E-04-3.97426E-05-3.39032E-05 9.97324E-06 1.78539E-19-3.29603E-18
 -1      3143 1.19030E-04-4.26635E-05-3.27953E-05 7.68447E-06 5.76274E-19-2.15817E-18
 -1      3144 1.22165E-04-3.98391E-05-3.54211E-05 1.09290E-05 8.63974E-20-3.23524E-18
 -1      3145 1.17141E-04-4.36709E-05-3.15235E-05 3.77840E-06-2.22856E-19-1.74535E-18
 -1      3146 1.15751E-04-4.38086E-05-3.07912E-05 1.06766E-06 2.54267E-20-1.91268E-18
 -1      3147 1.20385E-04-4.57164E-05-3.19797E-05 3.83160E-06 5.90346E-19-2.18061E-18
 -1      3148 1.12660E-04-4.25296E-05-3.01018E-05-1.70424E-06 5.15421E-19-1.43579E-18
 -1      3149 1.10670E-04-4.11536E-05-2.97105E-05-3.76847E-06 7.69763E-19-4.47521E-19
 -1      3150 1.14583E-04-4.48138E-05-3.00073E-05-2.81257E-06 8.82741E-19-1.26256E-18
 -1      3151 1.07715E-04-3.91504E-05-2.94136E-05-5.36088E-06 4.50504E-19 7.31051E-19
 -1      3152 1.05730E-04-3.73315E-05-2.92438E-05-6.59801E-06 4.36074E-19 7.35343E-19
 -1      3153 1.08528E-04-4.10240E-05-2.90126E-05-6.93567E-06 1.22783E-18-6.90034E-20
 -1      3154 1.03459E-04-3.54154E-05-2.91687E-05-7.19604E-06 5.91039E-19 9.95651E-19
 -1      3155 1.01822E-04-3.37761E-05-2.91154E-05-7.76445E-06 8.69923E-19 1.30040E-18
 -1      3156 1.03277E-04-3.65396E-05-2.86705E-05-8.74125E-06 1.06518E-18 9.90438E-19
 -1      3157 1.00290E-04-3.22943E-05-2.91379E-05-7.77441E-06 1.05633E-18 5.40560E-19
 -1      3158 9.90886E-05-3.10541E-05-2.91300E-05-7.88920E-06 1.02037E-18 1.41411E-18
 -1      3159 9.95290E-05-3.27777E-05-2.86568E-05-9.03829E-06 9.30146E-19 2.32122E-19
 -1      3160 9.81429E-05-3.00407E-05-2.91796E-05-7.59563E-06 3.63159E-19 1.01988E-18
 -1      3161 9.73162E-05-2.91992E-05-2.91788E-05-7.42989E-06 4.28576E-19 9.92189E-19
 -1      3162 9.71123E-05-3.00723E-05-2.87633E-05-8.55876E-06 6.76899E-19-6.50692E-19
 -1      3163 9.67851E-05-2.85788E-05-2.92231E-05-6.99285E-06 3.05537E-19 1.11899E-18
 -1      3164 9.62394E-05-2.80621E-05-2.92133E-05-6.67014E-06 8.96850E-21 1.01405E-18
 -1      3165 9.56807E-05-2.83228E-05-2.88864E-05-7.71166E-06 2.95078E-19-5.12682E-19
 -1      3166 9.59779E-05-2.77322E-05-2.92401E-05-6.18226E-06-2.21574E-19 9.84077E-19
 -1      3167 9.56264E-05-2.74517E-05-2.92173E-05-5.78587E-06-5.06645E-20 1.09400E-18
 -1      3168 9.49177E-05-2.73171E-05-2.89817E-05-6.72212E-06-1.08749E-19 7.54067E-19
 -1      3169 9.55281E-05-2.73184E-05-2.92251E-05-5.29953E-06-8.82705E-19 7.84343E-19
 -1      3170 9.53041E-05-2.71966E-05-2.91913E-05-4.88388E-06-9.16720E-19 1.41342E-19
 -1      3171 9.45754E-05-2.68358E-05-2.90360E-05-5.71414E-06-5.03189E-19 6.83768E-19
 -1      3172 9.52972E-05-2.71863E-05-2.91834E-05-4.42822E-06-2.38915E-19 2.54844E-19
 -1      3173 9.51541E-05-2.71635E-05-2.91425E-05-4.02747E-06 1.57912E-20-4.37680E-19
 -1      3174 9.44794E-05-2.66966E-05-2.90516E-05-4.75526E-06-8.25049E-19 3.82661E-19
 -1      3175 9.51929E-05-2.72232E-05-2.91236E-05-3.61790E-06-2.71535E-19-2.40362E-19
 -1      3176 9.51005E-05-2.72573E-05-2.90798E-05-3.25193E-06 5.13133E-20-1.00396E-18
 -1      3177 9.45155E-05-2.67635E-05-2.90369E-05-3.88169E-06-3.39821E-19-1.94132E-19
 -1      3178 9.51576E-05-2.73511E-05-2.90543E-05-2.89522E-06 6.50818E-19-1.41676E-18
 -1      3179 9.50966E-05-2.74138E-05-2.90110E-05-2.57392E-06 5.79595E-19-1.39435E-18
 -1      3180 9.46129E-05-2.69415E-05-2.90017E-05-3.11101E-06 7.42760E-20 7.40766E-21
 -1      3181 9.51564E-05-2.75189E-05-2.89826E-05-2.27121E-06 3.54598E-19-9.64233E-19
 -1      3182 9.51150E-05-2.75920E-05-2.89421E-05-1.99769E-06 2.79315E-19-3.23835E-19
 -1      3183 9.47300E-05-2.71677E-05-2.89547E-05-2.44874E-06 7.00571E-19-3.41747E-19
 -1      3184 9.51695E-05-2.76947E-05-2.89136E-05-1.74653E-06-4.55547E-19-4.41178E-19
 -1      3185 9.51402E-05-2.77673E-05-2.88772E-05-1.51956E-06-4.95134E-19-8.65283E-19
 -1      3186 9.48442E-05-2.74029E-05-2.89029E-05-1.89248E-06 1.77588E-19 1.45710E-19
 -1      3187 9.51859E-05-2.78601E-05-2.88504E-05-1.31531E-06 5.38124E-19-8.18955E-19
 -1      3188 9.51643E-05-2.79262E-05-2.88190E-05-1.13107E-06 1.42145E-18-1.00543E-19
 -1      3189 9.49441E-05-2.76239E-05-2.88510E-05-1.43475E-06 4.08638E-19-4.34388E-19
 -1      3190 9.51998E-05-2.80052E-05-2.87948E-05-9.68195E-07 9.99679E-19 2.71946E-19
 -1      3191 9.51839E-05-2.80620E-05-2.87683E-05-8.21428E-07 7.37168E-19-1.25652E-19
 -1      3192 9.50253E-05-2.78186E-05-2.88024E-05-1.06554E-06 1.12724E-18 3.46616E-19
 -1      3193 9.52147E-05-2.81263E-05-2.87497E-05-7.08453E-07 5.11840E-19-2.51636E-19
 -1      3194 9.52011E-05-2.81724E-05-2.87276E-05-5.92056E-07 2.68208E-19-4.36242E-20
 -1      3195 9.51416E-05-2.81155E-05-2.87267E-05-5.81068E-07 6.76951E-20-2.83049E-19
 -1      3196 9.50927E-05-2.79839E-05-2.87613E-05-7.88019E-07 1.42107E-18-3.23381E-19
 -1      3197 9.47330E-05-2.77014E-05-2.87279E-05-2.45262E-07 1.81623E-19 6.47322E-19
 -1      3198 9.47017E-05-2.76723E-05-2.87287E-05-1.61584E-07 4.99591E-19-1.73296E-19
 -1      3199 9.54087E-05-2.73292E-05-2.91678E-05-4.89764E-06 4.64159E-19-8.07321E-19
 -1      3200 9.52984E-05-2.73954E-05-2.91061E-05-4.49630E-06 6.13196E-19-9.93991E-19
 -1      3201 9.54120E-05-2.75160E-05-2.90906E-05-4.11413E-06 6.92135E-19-8.96080E-19
 -1      3202 9.53285E-05-2.75509E-05-2.90496E-05-3.74737E-06 6.83686E-19-7.39491E-19
 -1      3203 9.50676E-05-2.71330E-05-2.91155E-05-4.32608E-06 6.93524E-19-6.77941E-19
 -1      3204 9.54495E-05-2.68828E-05-2.93739E-05-6.80145E-06 3.76108E-19-4.30713E-20
 -1      3205 9.52698E-05-2.69331E-05-2.92958E-05-6.28236E-06 4.10920E-19-4.31682E-19
 -1      3206 9.55499E-05-2.67772E-05-2.94607E-05-7.95158E-06 1.13453E-19 7.49383E-19
 -1      3207 9.53033E-05-2.67496E-05-2.93894E-05-7.37746E-06 2.74352E-19 5.94390E-19
 -1      3208 9.42628E-05-2.61421E-05-2.91919E-05-7.15474E-06-5.07533E-20 2.69080E-20
 -1      3209 9.58117E-05-2.69363E-05-2.95026E-05-9.20909E-06-1.02276E-19 5.78698E-19
 -1      3210 9.54427E-05-2.67439E-05-2.94505E-05-8.60774E-06 3.96824E-19 8.43242E-19
 -1      3211 9.40041E-05-2.59436E-05-2.91672E-05-8.38444E-06-4.59045E-20 4.52021E-19
 -1      3212 9.64202E-05-2.76066E-05-2.94729E-05-1.05084E-05-7.50982E-20 6.50506E-19
 -1      3213 9.58255E-05-2.71139E-05-2.94517E-05-9.93634E-06-3.83473E-19 3.07658E-19
 -1      3214 9.38909E-05-2.60708E-05-2.90687E-05-9.77484E-06-1.25398E-19 2.16236E-19
 -1      3215 9.77041E-05-2.91552E-05-2.93552E-05-1.17213E-05-7.41006E-19 9.97843E-19
 -1      3216 9.67104E-05-2.81663E-05-2.93698E-05-1.12789E-05-1.81490E-19 9.14941E-19
 -1      3217 9.41472E-05-2.68224E-05-2.88675E-05-1.13124E-05-4.66826E-19 4.23426E-19
 -1      3218 1.00187E-04-3.20615E-05-2.91697E-05-1.26012E-05-1.37660E-18 6.76586E-19
 -1      3219 9.85399E-05-3.03368E-05-2.92029E-05-1.24619E-05-9.66795E-19 8.75632E-19
 -1      3220 9.51791E-05-2.86421E-05-2.85514E-05-1.29445E-05-7.61458E-19 8.67922E-19
 -1      3221 1.04563E-04-3.67939E-05-2.90247E-05-1.26761E-05-2.05977E-18 2.64767E-19
 -1      3222 1.01978E-04-3.41366E-05-2.90098E-05-1.31287E-05-1.66328E-18 2.24728E-19
 -1      3223 9.76465E-05-3.21052E-05-2.81597E-05-1.44909E-05-1.31732E-18 8.95737E-20
 -1      3224 1.11493E-04-4.33087E-05-2.92174E-05-1.09821E-05-2.31249E-18 6.78506E-19
 -1      3225 1.07872E-04-3.99257E-05-2.89881E-05-1.24976E-05-2.36658E-18 6.06747E-19
 -1      3226 1.02539E-04-3.78626E-05-2.78543E-05-1.54526E-05-2.28585E-18-1.74277E-19
 -1      3227 1.20889E-04-5.01250E-05-3.03363E-05-6.13214E-06-2.14760E-18 1.32807E-18
 -1      3228 1.16705E-04-4.71486E-05-2.96162E-05-9.25807E-06-2.22665E-18 1.21276E-18
 -1      3229 1.10794E-04-4.57172E-05-2.81062E-05-1.44124E-05-2.65074E-18 5.32334E-19
 -1      3230 6.03428E-05-2.38946E-05-1.51622E-05-2.82104E-05 2.15583E-18 2.44491E-18
 -1      3231 7.53076E-05-3.40439E-05-1.76939E-05-3.38778E-05 3.07706E-18 2.12356E-18
 -1      3232 1.28961E-04-3.14252E-05-4.21482E-05-1.52109E-05 2.07047E-18-9.85523E-19
 -1      3233 1.20577E-04-4.96582E-05-3.02012E-05 6.78051E-06-3.02543E-19-7.96668E-19
 -1      3234 1.24492E-04-5.16400E-05-3.12574E-05 3.01843E-06-1.01594E-18-1.00104E-18
 -1      3235 1.03824E-04-3.59333E-05-2.90149E-05 1.28741E-05 6.82793E-19 6.54428E-19
 -1      3236 1.06818E-04-3.89242E-05-2.90753E-05 1.21134E-05 1.06548E-18 2.40408E-19
 -1      3237 9.95966E-05-3.13923E-05-2.91912E-05 1.24777E-05-5.10523E-19 9.98142E-19
 -1      3238 1.01549E-04-3.34516E-05-2.91569E-05 1.24782E-05 5.55463E-19 1.33983E-18
 -1      3239 9.90566E-05-3.37651E-05-2.80728E-05 1.46792E-05 1.93865E-19 2.04760E-18
 -1      3240 9.72712E-05-2.86563E-05-2.93926E-05 1.13428E-05-4.51284E-19 6.31619E-20
 -1      3241 9.84590E-05-2.98973E-05-2.93592E-05 1.17457E-05-5.75985E-19 6.11580E-19
 -1      3242 9.58354E-05-2.95142E-05-2.84685E-05 1.31930E-05-8.43964E-20 9.15500E-19
 -1      3243 9.61079E-05-2.72232E-05-2.95219E-05 9.92753E-06 1.15766E-19-1.18391E-18
 -1      3244 9.68105E-05-2.78820E-05-2.95211E-05 1.05208E-05 8.72907E-20-7.66911E-19
 -1      3245 9.43509E-05-2.71243E-05-2.88307E-05 1.14707E-05 5.90856E-19 6.89002E-19
 -1      3246 9.55855E-05-2.66204E-05-2.95627E-05 8.46226E-06 1.38380E-18-2.24131E-18
 -1      3247 9.60057E-05-2.69119E-05-2.95959E-05 9.12193E-06 2.42337E-19-2.06839E-18
 -1      3248 9.38507E-05-2.60015E-05-2.90835E-05 9.78026E-06 4.92745E-19-4.63863E-19
 -1      3249 9.53825E-05-2.64957E-05-2.95313E-05 7.06147E-06 1.02793E-18-6.50877E-19
 -1      3250 9.56474E-05-2.65758E-05-2.95891E-05 7.71543E-06 1.18865E-18-1.52732E-18
 -1      3251 9.38395E-05-2.56511E-05-2.92225E-05 8.21367E-06 3.66180E-19-2.20006E-18
 -1      3252 9.53221E-05-2.66202E-05-2.94523E-05 5.78282E-06 9.71327E-19 1.16488E-18
 -1      3253 9.55033E-05-2.65890E-05-2.95234E-05 6.39016E-06 1.16966E-18 5.43667E-19
 -1      3254 9.40330E-05-2.57267E-05-2.92708E-05 6.79824E-06 3.22367E-19-4.78842E-19
 -1      3255 9.53154E-05-2.68559E-05-2.93477E-05 4.65406E-06 1.12333E-20 2.38731E-18
 -1      3256 9.54499E-05-2.67733E-05-2.94229E-05 5.19390E-06 8.28016E-19 1.98493E-18
 -1      3257 9.42839E-05-2.60112E-05-2.92561E-05 5.54395E-06 3.04848E-19 1.91895E-18
 -1      3258 9.53218E-05-2.71247E-05-2.92341E-05 3.68392E-06-5.46650E-19 1.99334E-18
 -1      3259 9.54277E-05-2.70246E-05-2.93068E-05 4.14842E-06-2.07073E-19 2.23437E-18
 -1      3260 9.45230E-05-2.63760E-05-2.92029E-05 4.45337E-06-1.19929E-19 2.80879E-18
 -1      3261 9.53256E-05-2.73859E-05-2.91226E-05 2.86868E-06-6.55910E-19 7.80481E-19
 -1      3262 9.54117E-05-2.72860E-05-2.91891E-05 3.25824E-06-5.02536E-19 8.96183E-19
 -1      3263 9.47236E-05-2.67496E-05-2.91296E-05 3.52284E-06 1.00128E-20 1.58354E-18
 -1      3264 9.53229E-05-2.76201E-05-2.90200E-05 2.19686E-06 5.17481E-19-4.60622E-19
 -1      3265 9.53936E-05-2.75292E-05-2.90781E-05 2.51676E-06 1.50679E-19 3.74521E-19
 -1      3266 9.48802E-05-2.70956E-05-2.90492E-05 2.74326E-06 2.92009E-19-7.95763E-19
 -1      3267 9.53143E-05-2.78203E-05-2.89295E-05 1.65268E-06-3.27845E-20-1.63687E-18
 -1      3268 9.53720E-05-2.77417E-05-2.89788E-05 1.91071E-06 4.66558E-19-1.18369E-18
 -1      3269 9.49965E-05-2.73981E-05-2.89700E-05 2.10136E-06 8.55139E-19-1.65934E-18
 -1      3270 9.53017E-05-2.79857E-05-2.88524E-05 1.21884E-06-3.03872E-19-1.45355E-18
 -1      3271 9.53483E-05-2.79202E-05-2.88932E-05 1.42363E-06-8.31930E-20-1.75791E-18
 -1      3272 9.50794E-05-2.76525E-05-2.88969E-05 1.58125E-06-1.60297E-19 3.83538E-19
 -1      3273 9.52858E-05-2.81174E-05-2.87885E-05 8.78356E-07-1.73687E-19-1.80421E-18
 -1      3274 9.53237E-05-2.80652E-05-2.88214E-05 1.03869E-06-2.30889E-19-1.72719E-18
 -1      3275 9.51362E-05-2.78601E-05-2.88324E-05 1.16699E-06-2.93362E-19-6.08173E-19
 -1      3276 9.52696E-05-2.82192E-05-2.87364E-05 6.15577E-07-8.63367E-19-1.57534E-18
 -1      3277 9.52990E-05-2.81800E-05-2.87625E-05 7.37604E-07-4.38645E-19-1.55663E-18
 -1      3278 9.51714E-05-2.80246E-05-2.87772E-05 8.41463E-07-4.07126E-19-1.76929E-18
 -1      3279 9.52390E-05-2.82525E-05-2.87080E-05 4.77544E-07-2.00955E-18-7.40642E-19
 -1      3280 9.52671E-05-2.82417E-05-2.87232E-05 5.47629E-07-1.57338E-18-1.71940E-18
 -1      3281 9.51817E-05-2.81251E-05-2.87391E-05 6.30733E-07-1.42289E-18-2.17100E-18
 -1      3282 9.51789E-05-2.81830E-05-2.87146E-05 5.00312E-07-2.65707E-18-2.37931E-18
 -1      3283 9.20888E-05-1.77883E-05-3.18582E-05 1.62922E-06 1.19083E-18-3.06482E-18
 -1      3284 9.19463E-05-1.75648E-05-3.18905E-05 9.42137E-07 7.62921E-19-3.14745E-18
 -1      3285 9.46828E-05-2.76506E-05-2.87291E-05-5.23194E-08 5.55006E-19-2.54560E-18
 -1      3286 9.46816E-05-2.76488E-05-2.87294E-05 4.03738E-08 1.66343E-18-3.64616E-18
 -1      3287 9.46015E-05-2.75437E-05-2.87366E-05-1.23124E-07 1.23601E-18-1.52336E-18
 -1      3288 1.28009E-04-3.70546E-05-3.96033E-05-1.19026E-05-2.34620E-18 3.80593E-18
 -1      3289 1.30945E-04-4.52551E-05-3.66007E-05-7.64671E-06-5.33684E-19 3.48099E-18
 -1      3290 1.14112E-04-5.21566E-05-2.62277E-05-2.03081E-05-3.58041E-18 3.59327E-20
 -1      3291 1.23458E-04-5.44261E-05-2.98320E-05-1.02835E-05-2.32430E-18 1.78425E-18
 -1      3292 7.24867E-05-3.14937E-05-1.75639E-05 3.11948E-05-3.04032E-18-2.55063E-18
 -1      3293 5.87119E-05-2.22245E-05-1.52865E-05 2.51117E-05-2.65397E-18-4.66292E-19
 -1      3294 9.48407E-05-2.78114E-05-2.87261E-05-4.03125E-07-4.80869E-19 6.89671E-19
 -1      3295 9.47833E-05-2.77574E-05-2.87277E-05-3.37868E-07-2.94208E-19 7.31439E-19
 -1      3296 9.46795E-05-2.76225E-05-2.87365E-05-3.36374E-07 1.14269E-19-7.11292E-20
 -1      3297 1.10760E-04-4.24194E-05-2.91393E-05 1.15483E-05 7.85918E-19 4.24774E-20
 -1      3298 1.14707E-04-4.58843E-05-2.95062E-05 9.52474E-06 3.23408E-19 2.02260E-19
 -1      3299 1.05093E-04-4.04388E-05-2.78777E-05 1.52357E-05 6.07518E-19 6.02307E-19
 -1      3300 9.54163E-05-2.70982E-05-2.92687E-05-5.78447E-06 4.59969E-19-4.94333E-19
 -1      3301 9.52768E-05-2.71731E-05-2.91944E-05-5.32805E-06 4.23655E-19-6.36015E-19
 -1      3302 9.48279E-05-2.68322E-05-2.91402E-05-5.14965E-06 3.33608E-19-4.87655E-19
 -1      3303 9.45539E-05-2.64773E-05-2.91737E-05-6.08214E-06 3.65745E-19-2.19058E-19
 -1      3304 9.54790E-05-2.73801E-05-2.91849E-05-1.78218E-06 1.07890E-18-7.51657E-19
 -1      3305 9.54911E-05-2.71870E-05-2.92628E-05-1.26857E-06 1.23921E-18-7.67755E-19
 -1      3306 9.54917E-05-2.52176E-05-3.00999E-05-1.50343E-06-1.54046E-18-1.99873E-18
 -1      3307 9.55195E-05-2.58536E-05-2.98674E-05-5.82369E-07-1.42065E-18-1.72276E-18
 -1      3308 9.55566E-05-2.56327E-05-2.99683E-05-3.42902E-07-1.19683E-18-1.90292E-18
 -1      3309 9.49883E-05-2.79677E-05-2.87229E-05-5.00453E-07-4.97473E-19 1.57836E-18
 -1      3310 9.49160E-05-2.78951E-05-2.87256E-05-4.66212E-07 3.02063E-20 7.02843E-19
 -1      3311 9.48196E-05-2.77633E-05-2.87367E-05-5.01456E-07 5.41575E-19 1.27782E-18
 -1      3312 1.16622E-04-5.51910E-05-2.66817E-05 2.17107E-05 2.47005E-18 1.62116E-18
 -1      3313 1.06419E-04-5.09568E-05-2.33793E-05 2.84320E-05 3.17529E-18-3.30323E-19
 -1      3314 6.85635E-05-3.03451E-05-1.62110E-05 3.31594E-05 2.99299E-18-4.09742E-18
 -1      3315 5.55910E-05-2.09355E-05-1.44325E-05 2.51381E-05 2.54086E-18-5.07553E-18
 -1      3316 4.98316E-05-1.62624E-05-1.40565E-05 1.79653E-05-1.76201E-18 1.14540E-18
 -1      3317 4.53074E-05-1.25459E-05-1.37368E-05 5.82469E-06-1.12179E-19 2.14405E-18
 -1      3318 6.13027E-05-1.99780E-05-1.72812E-05 1.96561E-05-2.57100E-18-7.42424E-19
 -1      3319 9.40433E-05-2.10820E-05-3.12916E-05-4.87509E-06-2.10928E-18-2.77492E-18
 -1      3320 9.45021E-05-2.21916E-05-3.09887E-05-4.18726E-06-2.02074E-18-2.59764E-18
 -1      3321 9.33761E-05-1.97963E-05-3.15270E-05-4.49139E-06-1.80179E-18-2.91290E-18
 -1      3322 1.19962E-04-1.90886E-05-4.37723E-05-1.13321E-05-4.99749E-18 2.39943E-18
 -1      3323 1.24506E-04-2.67822E-05-4.20136E-05-1.39754E-05-4.47784E-18 3.40947E-18
 -1      3324 1.30225E-04-5.30754E-05-3.35919E-05 1.75985E-06 7.90861E-19 2.30430E-18
 -1      3325 1.26246E-04-5.57636E-05-2.98922E-05 1.13710E-05 1.75587E-18 2.25575E-18
 -1      3326 1.32035E-04-3.94588E-05-3.96945E-05 1.45891E-05 1.05609E-18 3.06584E-18
 -1      3327 9.01976E-05-4.34929E-05-1.95410E-05-3.34626E-05-4.42194E-18-2.36200E-18
 -1      3328 1.00845E-04-4.91794E-05-2.20437E-05-3.04491E-05-4.32109E-18-1.21697E-18
 -1      3329 8.35231E-05-3.83260E-05-1.90603E-05-3.19538E-05-3.82202E-18-1.98613E-18
 -1      3330 1.01757E-04-4.86031E-05-2.30066E-05 2.89637E-05-2.83486E-18-1.31899E-18
 -1      3331 8.77311E-05-4.01696E-05-1.99463E-05 3.12151E-05-2.51190E-18-2.19922E-18
 -1      3332 1.16255E-04-5.43218E-05-2.61997E-05-2.14216E-05 3.57631E-18-2.11348E-19
 -1      3333 1.24486E-04-5.61007E-05-2.97013E-05-1.31058E-05 2.54353E-18-2.60085E-18
 -1      3334 4.56687E-05-1.44585E-05-1.30601E-05 1.46588E-05 2.02430E-18-4.33543E-18
 -1      3335 4.22029E-05-1.20611E-05-1.24975E-05 3.36256E-06 7.16173E-19-4.43125E-18
 -1      3336 9.39655E-05-4.56537E-05-2.07754E-05 3.35779E-05 3.07304E-18-2.29276E-18
 -1      3337 8.12356E-05-3.78484E-05-1.81588E-05 3.43714E-05 3.02941E-18-3.00946E-18
 -1      3338 7.78549E-05-3.30030E-05-1.89752E-05 3.02040E-05 2.79913E-18-3.28553E-18
 -1      3339 1.00666E-04-4.61679E-05-2.31436E-05 2.75915E-05 2.89916E-18-6.24779E-19
 -1      3340 1.30138E-04-5.35357E-05-3.26141E-05-3.17108E-06 2.11376E-18-3.55060E-18
 -1      3341 1.30365E-04-4.77752E-05-3.58695E-05 5.15706E-06 7.26675E-19-3.83597E-18
 -1      3342 1.27419E-04-3.86394E-05-3.80592E-05 1.19834E-05-1.09468E-18-3.66252E-18
 -1      3343 1.24117E-04-3.00199E-05-4.07790E-05 1.34349E-05-2.92496E-18-2.95030E-18
 -1      3344 1.25913E-04-5.68968E-05-2.98217E-05 1.15728E-05-1.67697E-18-3.84272E-18
 -1      3345 1.16473E-04-5.36462E-05-2.65836E-05 1.95435E-05-2.19108E-18-2.63591E-18
 -1      3346 9.07405E-05-4.28669E-05-2.01304E-05-3.32465E-05 3.51217E-18 2.46730E-18
 -1      3347 1.03747E-04-5.01803E-05-2.32402E-05-2.96324E-05 3.65405E-18 2.21221E-18
 -1      3348 1.29367E-04-1.31117E-05-5.05770E-05-2.92825E-06 4.04818E-18 2.39657E-19
 -1      3349 1.25081E-04-1.44523E-05-4.76649E-05-7.05240E-06 4.42236E-18 8.93514E-19
 -1      3350 1.32765E-04-4.70354E-05-3.71564E-05 1.13608E-05 1.82364E-19 3.07878E-18
 -1      3351 1.31324E-04-5.23776E-05-3.38413E-05 2.92324E-06-8.10571E-19 2.91003E-18
 -1      3352 1.28219E-04-5.36823E-05-3.19121E-05-2.00955E-06-1.81643E-18 2.40273E-18
 -1      3353 9.18735E-05-1.74501E-05-3.19088E-05 3.73392E-07 5.41519E-19-3.09111E-18
 -1      3354 9.18692E-05-1.74371E-05-3.19091E-05-3.18332E-07 1.37161E-19-3.12273E-18
 -1      3355 9.27614E-05-1.89417E-05-3.16174E-05 5.42819E-07 5.95190E-19-2.83819E-18
 -1      3356 9.42267E-05-2.15777E-05-3.11105E-05 3.17774E-06 2.06468E-18-2.05081E-18
 -1      3357 9.33202E-05-1.98408E-05-3.15146E-05 3.85284E-06 2.19728E-18-2.37080E-18
 -1      3358 9.29150E-05-1.91351E-05-3.16312E-05 3.29792E-06 1.92598E-18-2.46589E-18
 -1      3359 9.51673E-05-2.41029E-05-3.04651E-05-2.01517E-06-1.47328E-18-2.37997E-18
 -1      3360 1.24210E-04-4.26969E-05-3.51322E-05-9.44852E-06-1.89643E-19 3.62040E-18
 -1      3361 1.20413E-04-3.77110E-05-3.55873E-05-1.22527E-05-7.63216E-19 3.11945E-18
 -1      3362 9.49068E-05-2.78766E-05-2.87296E-05 4.66005E-07-8.36438E-19-1.76588E-18
 -1      3363 9.49807E-05-2.79482E-05-2.87274E-05 5.02746E-07-7.31273E-19 1.46354E-19
 -1      3364 1.18600E-04-3.23722E-05-3.70221E-05-1.25202E-05-1.65629E-18 2.93327E-18
 -1      3365 1.17313E-04-1.65725E-05-4.35262E-05 9.78068E-06-4.78965E-18-1.43154E-18
 -1      3366 1.11432E-04-2.03496E-05-3.91395E-05 8.66559E-06-3.66786E-18-1.95193E-18
 -1      3367 1.13678E-04-2.50174E-05-3.83344E-05 1.21889E-05-2.72443E-18-2.76681E-18
 -1      3368 1.27721E-04-4.80566E-05-3.41847E-05-3.77512E-06 4.70146E-19 3.14641E-18
 -1      3369 9.54255E-05-2.74987E-05-2.91059E-05-2.23098E-06 1.03209E-18-7.19436E-19
 -1      3370 9.55585E-05-2.71891E-05-2.93060E-05-1.92692E-06 1.02005E-18-9.06549E-19
 -1      3371 9.54474E-05-2.75875E-05-2.90794E-05-2.63927E-06 7.68919E-19-5.76013E-19
 -1      3372 6.09638E-05-2.10653E-05-1.66950E-05-2.25148E-05 9.13816E-19 1.84775E-18
 -1      3373 9.56161E-05-2.67188E-05-2.95326E-05-8.56454E-07 1.42098E-18-8.29500E-19
 -1      3374 9.55013E-05-2.69145E-05-2.93979E-05-6.93265E-07 1.54005E-18-8.85799E-19
 -1      3375 9.55292E-05-2.65591E-05-2.95452E-05 5.41090E-09 1.85223E-18-7.44999E-19
 -1      3376 9.25217E-05-1.83848E-05-3.17760E-05-3.41459E-06-1.29466E-18-3.38857E-18
 -1      3377 9.29037E-05-1.90668E-05-3.16656E-05-3.99149E-06-1.64513E-18-3.28845E-18
 -1      3378 9.35432E-05-2.02274E-05-3.14130E-05-3.60712E-06-1.57741E-18-3.08507E-18
 -1      3379 9.52701E-05-2.73263E-05-2.91210E-05-3.56291E-06 6.64699E-19-7.53870E-19
 -1      3380 9.54242E-05-2.76156E-05-2.90551E-05-3.38497E-06 5.32407E-19-7.39372E-19
 -1      3381 9.53696E-05-2.75997E-05-2.90428E-05-3.02019E-06 4.88363E-19-6.02003E-19
 -1      3382 8.53652E-05-3.70672E-05-2.04171E-05-2.99710E-05 2.74081E-18 2.39192E-18
 -1      3383 1.14942E-04-4.89895E-05-2.85093E-05 1.33005E-05-6.37604E-19-1.15312E-18
 -1      3384 1.30435E-04-5.26918E-05-3.33152E-05-2.50268E-06-1.06652E-18-1.30104E-18
 -1      3385 1.32194E-04-4.94839E-05-3.55675E-05-6.96534E-06-3.92653E-19-1.45637E-18
 -1      3386 9.22932E-05-1.81193E-05-3.18019E-05 2.16784E-06 1.43303E-18-2.92773E-18
 -1      3387 9.30278E-05-1.93771E-05-3.15412E-05 1.55860E-06 1.20387E-18-2.72601E-18
 -1      3388 9.25729E-05-1.85758E-05-3.17332E-05 2.80897E-06 1.77635E-18-2.64671E-18
 -1      3389 9.47749E-05-2.77424E-05-2.87305E-05 3.31573E-07 1.34939E-18-1.30759E-18
 -1      3390 9.48314E-05-2.77944E-05-2.87295E-05 3.99112E-07 1.01659E-18-1.95156E-18
 -1      3391 9.48064E-05-2.77399E-05-2.87412E-05 4.97167E-07-1.09325E-19 1.07656E-20
 -1      3392 4.77083E-05-1.20746E-05-1.48278E-05-8.32541E-07-3.05627E-20 2.12415E-18
 -1      3393 5.27488E-05-1.33864E-05-1.66393E-05-6.69738E-06 3.02308E-19 2.36968E-18
 -1      3394 5.38436E-05-1.34182E-05-1.71330E-05 5.51835E-06-1.26598E-18 7.35013E-19
 -1      3395 1.23012E-04-3.19580E-05-3.91224E-05-1.32708E-05-2.66148E-18 3.51916E-18
 -1      3396 9.46971E-05-2.76644E-05-2.87301E-05 1.50089E-07 1.64125E-18-3.11407E-18
 -1      3397 9.47270E-05-2.76912E-05-2.87299E-05 2.36750E-07 1.43519E-18-3.11378E-18
 -1      3398 9.46696E-05-2.76054E-05-2.87394E-05 3.24280E-07 9.79933E-19-2.50221E-18
 -1      3399 9.45979E-05-2.75376E-05-2.87376E-05 1.07980E-07 1.84222E-18-3.89433E-18
 -1      3400 5.46564E-05-1.79611E-05-1.53182E-05 1.97644E-05 2.00490E-18-4.57588E-18
 -1      3401 5.54928E-05-1.58394E-05-1.67747E-05 1.38874E-05 1.29072E-18-4.01801E-18
 -1      3402 6.41567E-05-2.19260E-05-1.80362E-05 2.25898E-05 2.42656E-18-4.37175E-18
 -1      3403 9.44148E-05-2.20194E-05-3.10167E-05-3.54576E-06-1.69989E-18-2.70964E-18
 -1      3404 5.80878E-05-2.24542E-05-1.47492E-05-2.55176E-05-2.30303E-18-3.24519E-18
 -1      3405 6.87532E-05-2.70933E-05-1.77985E-05-2.69797E-05-3.03423E-18-1.69793E-18
 -1      3406 5.68150E-05-1.86008E-05-1.60912E-05-1.94768E-05-1.71429E-18-3.23969E-18
 -1      3407 1.10715E-04-5.02250E-05-2.55367E-05-2.18010E-05 2.95472E-18-4.70090E-19
 -1      3408 1.13030E-04-1.61470E-05-4.19349E-05-7.19038E-06-4.31060E-18 8.05925E-19
 -1      3409 1.24750E-04-5.27994E-05-3.07344E-05-6.16730E-06 2.04617E-18-3.04593E-18
 -1      3410 1.25573E-04-4.28121E-05-3.55969E-05 8.60746E-06 6.25428E-19-3.87655E-18
 -1      3411 8.34511E-05-3.44099E-05-2.05983E-05 2.74486E-05-2.21224E-18-1.77639E-18
 -1      3412 4.51493E-05-1.22669E-05-1.35827E-05-2.63888E-06-9.94437E-20-4.00636E-18
 -1      3413 4.97357E-05-1.37687E-05-1.52184E-05-8.88669E-06-8.33565E-19-3.19406E-18
 -1      3414 4.98388E-05-1.28219E-05-1.56702E-05 2.20429E-06 3.69809E-19-3.19840E-18
 -1      3415 9.50864E-05-2.80624E-05-2.87254E-05-5.60892E-07 2.14243E-19 1.81376E-18
 -1      3416 9.50349E-05-2.80148E-05-2.87242E-05-5.32708E-07 1.97119E-20 2.33338E-18
 -1      3417 9.49553E-05-2.78963E-05-2.87382E-05-5.98453E-07 7.61784E-19 2.27305E-18
 -1      3418 9.50666E-05-2.79980E-05-2.87418E-05-6.54989E-07 1.10463E-18 9.43923E-19
 -1      3419 1.19741E-04-5.34527E-05-2.83389E-05 1.41590E-05 2.43300E-18 1.97952E-18
 -1      3420 1.21513E-04-2.32363E-05-4.24416E-05 1.34296E-05-3.77983E-18-2.64724E-18
 -1      3421 1.10353E-04-4.88657E-05-2.61299E-05 1.99205E-05-1.94511E-18-1.70187E-18
 -1      3422 9.54656E-05-2.61883E-05-2.96973E-05 6.53801E-07 1.99988E-18-7.96548E-19
 -1      3423 9.54821E-05-2.56129E-05-2.99315E-05 1.62171E-06 2.16455E-18-7.95224E-19
 -1      3424 9.53512E-05-2.48491E-05-3.02121E-05 2.00270E-06 2.09715E-18-1.17921E-18
 -1      3425 9.55551E-05-2.59488E-05-2.98344E-05 4.32667E-07 1.95116E-18-1.02767E-18
 -1      3426 9.21933E-05-1.78795E-05-3.18635E-05-2.82679E-06-9.43240E-19-3.40788E-18
 -1      3427 9.28282E-05-1.89856E-05-3.16421E-05-2.64225E-06-1.00196E-18-3.20524E-18
 -1      3428 9.19317E-05-1.74562E-05-3.19277E-05-2.15445E-06-6.02499E-19-3.29359E-18
 -1      3429 1.24906E-04-4.87349E-05-3.26319E-05-2.00831E-06 1.11814E-18 3.04021E-18
 -1      3430 9.52349E-05-2.42023E-05-3.04391E-05 2.29800E-06 2.01067E-18-1.43251E-18
 -1      3431 9.49049E-05-2.33298E-05-3.06811E-05 2.53402E-06 2.07176E-18-1.64295E-18
 -1      3432 9.53586E-05-2.48654E-05-3.02178E-05 1.39973E-06 1.94409E-18-1.36600E-18
 -1      3433 9.56749E-05-2.60844E-05-2.98197E-05 5.46729E-07-8.97758E-19-1.85729E-18
 -1      3434 9.56863E-05-2.64697E-05-2.96687E-05 1.12288E-06-7.31691E-19-1.59210E-18
 -1      3435 9.56593E-05-2.67558E-05-2.95265E-05 1.57068E-06-7.56693E-19-1.33339E-18
 -1      3436 9.56041E-05-2.69510E-05-2.94244E-05 2.02480E-06-7.44181E-19-1.29737E-18
 -1      3437 9.56301E-05-2.62911E-05-2.97161E-05 1.20582E-06-6.74916E-19-1.71710E-18
 -1      3438 9.54795E-05-2.70595E-05-2.93217E-05 2.40102E-06-7.11865E-19-1.27123E-18
 -1      3439 9.53905E-05-2.71234E-05-2.92563E-05 2.78421E-06-5.22961E-19-1.33153E-18
 -1      3440 9.54790E-05-2.67313E-05-2.94626E-05 2.04497E-06-6.49238E-19-1.25363E-18
 -1      3441 9.51976E-05-2.71093E-05-2.91820E-05 3.12534E-06-4.53403E-19-1.55784E-18
 -1      3442 9.50934E-05-2.70875E-05-2.91421E-05 3.47884E-06-3.98640E-19-1.65745E-18
 -1      3443 9.51650E-05-2.68525E-05-2.92762E-05 2.77266E-06-6.16212E-19-1.45806E-18
 -1      3444 9.48547E-05-2.69962E-05-2.90855E-05 3.81913E-06-2.73147E-19-1.65420E-18
 -1      3445 9.47514E-05-2.69308E-05-2.90609E-05 4.17406E-06-3.30272E-19-1.39677E-18
 -1      3446 9.47367E-05-2.67536E-05-2.91348E-05 3.46038E-06-4.11621E-19-1.76060E-18
 -1      3447 9.44880E-05-2.68061E-05-2.90113E-05 4.54135E-06-5.24334E-19-1.31341E-18
 -1      3448 9.44056E-05-2.67416E-05-2.89921E-05 4.91876E-06-5.03262E-19-1.05565E-18
 -1      3449 9.42369E-05-2.65283E-05-2.90171E-05 4.17043E-06-3.44895E-19-1.64644E-18
 -1      3450 9.41438E-05-2.66324E-05-2.89390E-05 5.33460E-06-2.89032E-19-9.31761E-19
 -1      3451 9.41127E-05-2.66221E-05-2.89158E-05 5.74548E-06-4.55403E-20-7.02788E-19
 -1      3452 9.37112E-05-2.62741E-05-2.89011E-05 4.95408E-06-2.87965E-19-1.15610E-18
 -1      3453 9.38905E-05-2.65884E-05-2.88489E-05 6.22591E-06-1.60290E-19-6.04134E-19
 -1      3454 9.39586E-05-2.67007E-05-2.88134E-05 6.67092E-06-1.21523E-19-5.72263E-19
 -1      3455 9.32214E-05-2.61043E-05-2.87655E-05 5.85270E-06-1.18186E-19-9.94337E-19
 -1      3456 9.38357E-05-2.68210E-05-2.87237E-05 7.22674E-06 8.37447E-20-4.88509E-19
 -1      3457 9.40771E-05-2.71458E-05-2.86699E-05 7.69397E-06 1.84645E-19-1.99190E-19
 -1      3458 9.28616E-05-2.61624E-05-2.85898E-05 6.90060E-06 7.96802E-20-7.53450E-19
 -1      3459 9.41477E-05-2.75231E-05-2.85516E-05 8.32752E-06-7.25963E-20 1.08038E-19
 -1      3460 9.46725E-05-2.81753E-05-2.84792E-05 8.78597E-06-3.83476E-19 5.19745E-19
 -1      3461 9.27797E-05-2.66370E-05-2.83580E-05 8.12432E-06 3.54674E-19-4.66865E-19
 -1      3462 9.50809E-05-2.89402E-05-2.83344E-05 9.48081E-06-3.30161E-19 6.24380E-19
 -1      3463 9.60407E-05-3.00553E-05-2.82549E-05 9.86541E-06 1.27497E-19 6.58571E-19
 -1      3464 9.32056E-05-2.77757E-05-2.80642E-05 9.53247E-06-3.23932E-20-2.31164E-19
 -1      3465 9.70012E-05-3.13592E-05-2.81026E-05 1.05573E-05 3.88370E-19 1.17432E-18
 -1      3466 9.85780E-05-3.30668E-05-2.80500E-05 1.07387E-05 6.61350E-19 1.02104E-18
 -1      3467 9.44883E-05-2.98917E-05-2.77259E-05 1.10827E-05 4.52709E-19 1.46791E-20
 -1      3468 1.00386E-04-3.50449E-05-2.79436E-05 1.12445E-05 6.23470E-19 9.93049E-19
 -1      3469 1.02737E-04-3.73777E-05-2.79922E-05 1.09775E-05 7.45733E-19 9.23545E-19
 -1      3470 9.71357E-05-3.33428E-05-2.74104E-05 1.25903E-05 4.93800E-19 7.74271E-19
 -1      3471 1.05713E-04-4.00327E-05-2.80482E-05 1.09068E-05 1.26606E-18 1.54839E-18
 -1      3472 1.08812E-04-4.27298E-05-2.83317E-05 9.79748E-06 1.47263E-18 1.55641E-18
 -1      3473 1.01764E-04-3.83646E-05-2.72855E-05 1.35308E-05 1.14802E-18 1.52825E-18
 -1      3474 1.13127E-04-4.56064E-05-2.87796E-05 8.33485E-06 1.89767E-18 2.20902E-18
 -1      3475 1.16372E-04-4.76995E-05-2.94747E-05 6.00775E-06 2.09696E-18 2.45390E-18
 -1      3476 1.09034E-04-4.48049E-05-2.76992E-05 1.28426E-05 2.06459E-18 2.47222E-18
 -1      3477 1.22580E-04-5.01332E-05-3.10068E-05 2.10698E-06 1.77473E-18 2.96182E-18
 -1      3478 1.04028E-04-4.37676E-05-2.55912E-05 2.09419E-05-8.85910E-19-9.16963E-19
 -1      3479 1.19084E-04-2.86835E-05-3.88477E-05 1.34020E-05-2.28826E-18-2.46084E-18
 -1      3480 1.19564E-04-5.11805E-05-2.94876E-05 8.72781E-06 2.22206E-18 2.59814E-18
 -1      3481 1.12953E-04-4.95304E-05-2.68926E-05 1.68015E-05 2.64733E-18 1.84504E-18
 -1      3482 1.16474E-04-4.72365E-05-2.95816E-05-5.49708E-06 1.10888E-18-1.73517E-18
 -1      3483 1.12969E-04-4.53403E-05-2.87970E-05-8.14802E-06 1.78801E-18-9.73750E-19
 -1      3484 1.08564E-04-4.23775E-05-2.83572E-05-9.64298E-06 1.33330E-18-9.43115E-19
 -1      3485 1.05404E-04-3.96520E-05-2.80840E-05-1.07217E-05 1.28287E-18-3.00050E-19
 -1      3486 1.08936E-04-4.46893E-05-2.77399E-05-1.28676E-05 1.53982E-18-1.48654E-18
 -1      3487 1.02495E-04-3.69824E-05-2.80444E-05-1.06615E-05 1.26825E-18-4.54097E-19
 -1      3488 1.00132E-04-3.46522E-05-2.80062E-05-1.08939E-05 1.28372E-18-3.98784E-19
 -1      3489 1.01357E-04-3.78582E-05-2.73275E-05-1.32724E-05 1.45367E-18-1.05127E-18
 -1      3490 9.83573E-05-3.26808E-05-2.81184E-05-1.03345E-05 9.02299E-19-5.45465E-19
 -1      3491 9.67982E-05-3.09861E-05-2.81759E-05-1.01121E-05 6.64244E-19-1.30766E-18
 -1      3492 9.68669E-05-3.28942E-05-2.74806E-05-1.21762E-05 8.92346E-19-1.67625E-18
 -1      3493 9.58253E-05-2.96771E-05-2.83264E-05-9.39261E-06 7.39110E-19-1.04106E-18
 -1      3494 9.48681E-05-2.85591E-05-2.84065E-05-8.96252E-06 5.99370E-19-1.86205E-18
 -1      3495 9.42454E-05-2.94826E-05-2.77956E-05-1.06243E-05 7.42719E-19-2.40170E-18
 -1      3496 9.44292E-05-2.77793E-05-2.85461E-05-8.22883E-06 2.97224E-19-1.83578E-18
 -1      3497 9.38928E-05-2.71171E-05-2.86161E-05-7.72032E-06 3.24509E-19-1.16917E-18
 -1      3498 9.29147E-05-2.73402E-05-2.81248E-05-9.01300E-06 4.98050E-19-2.25145E-18
 -1      3499 9.37785E-05-2.67198E-05-2.87259E-05-7.04127E-06 5.70494E-19-2.19690E-18
 -1      3500 9.35150E-05-2.63826E-05-2.87740E-05-6.52065E-06 5.66937E-20-1.50791E-18
 -1      3501 9.24145E-05-2.61633E-05-2.84030E-05-7.52634E-06-2.38464E-19-3.71066E-18
 -1      3502 9.35828E-05-2.62419E-05-2.88503E-05-5.91615E-06-2.30819E-19-1.30962E-18
 -1      3503 9.34841E-05-2.61205E-05-2.88754E-05-5.41808E-06-4.93289E-19-9.39790E-19
 -1      3504 9.23989E-05-2.56472E-05-2.86107E-05-6.21504E-06-1.88602E-19-2.79698E-18
 -1      3505 9.36428E-05-2.61403E-05-2.89220E-05-4.89057E-06-8.48944E-19-5.82750E-19
 -1      3506 9.36362E-05-2.61525E-05-2.89278E-05-4.43344E-06-2.73604E-19-2.60065E-19
 -1      3507 9.26420E-05-2.55570E-05-2.87500E-05-5.07887E-06-2.17680E-19-1.87200E-18
 -1      3508 9.38296E-05-2.62640E-05-2.89507E-05-3.97976E-06-1.75696E-19-1.83150E-20
 -1      3509 9.38691E-05-2.63515E-05-2.89423E-05-3.57288E-06-1.77880E-19 5.40500E-20
 -1      3510 9.30022E-05-2.57222E-05-2.88319E-05-4.10445E-06-8.35362E-21-1.62320E-18
 -1      3511 9.40642E-05-2.65075E-05-2.89480E-05-3.18805E-06 6.04937E-20 4.72350E-19
 -1      3512 9.41221E-05-2.66311E-05-2.89305E-05-2.83501E-06 8.03437E-19 5.32321E-19
 -1      3513 9.33940E-05-2.60240E-05-2.88699E-05-3.27669E-06 3.77990E-19-6.10022E-19
 -1      3514 9.43012E-05-2.68009E-05-2.89247E-05-2.51317E-06 5.96031E-19 6.27803E-19
 -1      3515 9.43619E-05-2.69354E-05-2.89022E-05-2.21364E-06 8.12099E-19 3.82865E-19
 -1      3516 9.37690E-05-2.63831E-05-2.88767E-05-2.58120E-06 5.94487E-19 1.17205E-18
 -1      3517 9.45166E-05-2.71004E-05-2.88893E-05-1.94839E-06 3.37686E-19 6.80468E-19
 -1      3518 9.45720E-05-2.72306E-05-2.88651E-05-1.69939E-06 8.45382E-20 1.37369E-18
 -1      3519 9.41023E-05-2.67489E-05-2.88631E-05-2.00404E-06 5.34185E-19 7.91653E-19
 -1      3520 9.47000E-05-2.73801E-05-2.88486E-05-1.48433E-06 2.74765E-19 1.52877E-18
 -1      3521 9.47465E-05-2.74974E-05-2.88247E-05-1.28135E-06 6.84064E-19 1.76371E-18
 -1      3522 9.43842E-05-2.70917E-05-2.88374E-05-1.53164E-06 3.82490E-19 1.64966E-18
 -1      3523 9.48480E-05-2.76272E-05-2.88069E-05-1.10887E-06 1.17125E-18 2.36528E-18
 -1      3524 9.48878E-05-2.77278E-05-2.87849E-05-9.47728E-07 1.26824E-18 2.40267E-18
 -1      3525 9.46120E-05-2.73945E-05-2.88058E-05-1.15184E-06 4.68918E-19 3.36723E-18
 -1      3526 9.24895E-05-2.50628E-05-2.88848E-05-8.35945E-06-3.44309E-19-1.62584E-19
 -1      3527 9.26015E-05-2.51373E-05-2.89278E-05-7.72482E-06-4.14389E-19-3.78432E-19
 -1      3528 9.31051E-05-2.53897E-05-2.90119E-05-7.12339E-06-5.91535E-20-1.53836E-19
 -1      3529 9.32552E-05-2.55640E-05-2.90231E-05-6.56665E-06 1.01780E-19-2.79198E-19
 -1      3530 9.16508E-05-2.45332E-05-2.87549E-05-7.09692E-06-2.45554E-21-2.50947E-19
 -1      3531 9.18114E-05-2.57417E-05-2.82857E-05-1.14983E-05-8.73510E-19 4.04910E-19
 -1      3532 9.15274E-05-2.52046E-05-2.84394E-05-1.06976E-05-6.09318E-19 5.14982E-20
 -1      3533 9.24224E-05-2.75351E-05-2.77582E-05-1.34960E-05-8.84729E-19 1.49487E-19
 -1      3534 9.15879E-05-2.63352E-05-2.79747E-05-1.26291E-05-7.03137E-19 2.48542E-19
 -1      3535 8.88878E-05-2.46381E-05-2.75388E-05-1.19808E-05-8.14057E-19-3.36420E-19
 -1      3536 9.45642E-05-3.11315E-05-2.71048E-05-1.57624E-05-1.30465E-18-1.66692E-19
 -1      3537 9.27473E-05-2.89191E-05-2.73460E-05-1.49399E-05-1.03968E-18 1.51220E-19
 -1      3538 8.88286E-05-2.64721E-05-2.67442E-05-1.46512E-05-7.58260E-19-2.32632E-19
 -1      3539 9.93751E-05-3.73487E-05-2.64910E-05-1.80179E-05-2.44959E-18-8.81887E-19
 -1      3540 9.59599E-05-3.36325E-05-2.66347E-05-1.75147E-05-1.81583E-18-4.49787E-19
 -1      3541 9.03089E-05-3.02748E-05-2.57412E-05-1.81312E-05-1.37523E-18-7.92836E-19
 -1      3542 1.27221E-04-5.46878E-05-3.11334E-05 5.67903E-06-1.30301E-18-3.41140E-18
 -1      3543 9.35571E-05-3.02020E-05-2.71294E-05 1.55892E-05-7.53230E-19 1.15734E-18
 -1      3544 9.59946E-05-3.29192E-05-2.69092E-05 1.63545E-05 1.45942E-19 7.18305E-19
 -1      3545 9.15943E-05-2.46367E-05-2.87114E-05 9.09141E-06 7.02516E-19 3.79460E-19
 -1      3546 9.16908E-05-2.49173E-05-2.85953E-05 9.89426E-06 7.44071E-19 8.79559E-19
 -1      3547 9.21313E-05-2.46559E-05-2.89330E-05 7.53131E-06-1.01731E-19-7.85493E-19
 -1      3548 9.20644E-05-2.46622E-05-2.88735E-05 8.25516E-06 4.84526E-19-6.08319E-19
 -1      3549 8.99427E-05-2.36017E-05-2.84214E-05 8.36067E-06 8.44733E-19 7.59764E-19
 -1      3550 9.27277E-05-2.49854E-05-2.90458E-05 6.18487E-06-1.90711E-19-3.81134E-20
 -1      3551 9.26027E-05-2.48499E-05-2.90281E-05 6.83028E-06-6.35954E-19-9.84453E-19
 -1      3552 9.08954E-05-2.38857E-05-2.87072E-05 6.87255E-06-3.78382E-19 1.64374E-19
 -1      3553 9.32831E-05-2.54496E-05-2.90831E-05 5.02207E-06-2.81620E-19 1.29033E-18
 -1      3554 9.31519E-05-2.52526E-05-2.90930E-05 5.58940E-06-3.33211E-20 5.48077E-19
 -1      3555 9.17906E-05-2.44003E-05-2.88713E-05 5.62296E-06-7.85219E-19 1.13410E-18
 -1      3556 9.37576E-05-2.59461E-05-2.90719E-05 4.02497E-06-5.22826E-19 1.29765E-18
 -1      3557 9.36423E-05-2.57337E-05-2.90981E-05 4.51531E-06-5.08486E-19 1.59691E-18
 -1      3558 9.25690E-05-2.49990E-05-2.89500E-05 4.55947E-06-1.00155E-18 9.50192E-19
 -1      3559 9.41425E-05-2.64195E-05-2.90323E-05 3.18014E-06 2.92728E-19 3.80069E-19
 -1      3560 9.40499E-05-2.62165E-05-2.90666E-05 3.59643E-06 8.73060E-19 1.33447E-18
 -1      3561 9.32143E-05-2.55970E-05-2.89721E-05 3.65362E-06-1.23308E-19 5.72780E-19
 -1      3562 9.44438E-05-2.68429E-05-2.89784E-05 2.47472E-06 9.72924E-19-1.14915E-19
 -1      3563 9.43737E-05-2.66613E-05-2.90153E-05 2.82188E-06 3.83622E-19-1.21176E-20
 -1      3564 9.37323E-05-2.61494E-05-2.89590E-05 2.88795E-06 7.21709E-19 8.84787E-19
 -1      3565 9.46733E-05-2.72059E-05-2.89199E-05 1.89467E-06-1.02472E-19-1.25697E-19
 -1      3566 9.46225E-05-2.70502E-05-2.89557E-05 2.17935E-06 8.61532E-19-3.07582E-19
 -1      3567 9.41379E-05-2.66351E-05-2.89259E-05 2.24885E-06 9.19686E-19 1.41012E-18
 -1      3568 9.48440E-05-2.75077E-05-2.88626E-05 1.42502E-06-5.11016E-19 2.45176E-20
 -1      3569 9.48087E-05-2.73784E-05-2.88953E-05 1.65453E-06 2.34254E-19 4.10288E-19
 -1      3570 9.44486E-05-2.70477E-05-2.88834E-05 1.72272E-06-3.09827E-19 2.68134E-19
 -1      3571 9.49687E-05-2.77540E-05-2.88098E-05 1.05248E-06-3.62390E-19-9.31460E-20
 -1      3572 9.49454E-05-2.76497E-05-2.88385E-05 1.23211E-06-7.89445E-19-7.23908E-19
 -1      3573 9.46823E-05-2.73891E-05-2.88380E-05 1.29536E-06-6.75952E-19 4.34242E-19
 -1      3574 9.50568E-05-2.79464E-05-2.87633E-05 7.57305E-07-4.16651E-19-7.29634E-19
 -1      3575 9.50403E-05-2.78636E-05-2.87878E-05 8.98881E-07-1.59857E-19-6.93683E-19
 -1      3576 9.48527E-05-2.76612E-05-2.87941E-05 9.56657E-07-2.51660E-19 1.22666E-18
 -1      3577 9.44858E-05-2.74187E-05-2.87435E-05-2.05496E-07 1.41203E-18-1.12727E-18
 -1      3578 9.44613E-05-2.73972E-05-2.87437E-05-8.56431E-08 1.75088E-18-3.00077E-18
 -1      3579 9.50501E-05-2.80319E-05-2.87241E-05 5.13192E-07-1.20782E-18-1.01503E-19
 -1      3580 9.51162E-05-2.81029E-05-2.87198E-05 5.13614E-07-2.09018E-18-6.12811E-19
 -1      3581 9.51131E-05-2.80727E-05-2.87312E-05 5.74250E-07-2.16172E-18-6.05834E-19
 -1      3582 9.49653E-05-2.79067E-05-2.87389E-05 5.76603E-07-1.03145E-18-6.70213E-20
 -1      3583 9.36412E-05-2.05432E-05-3.13293E-05-2.89850E-06-1.32326E-18-3.08693E-18
 -1      3584 9.40305E-05-2.12918E-05-3.11873E-05-3.26708E-06-1.59022E-18-2.96895E-18
 -1      3585 9.45091E-05-2.22678E-05-3.09412E-05-2.80620E-06-1.48461E-18-2.75992E-18
 -1      3586 9.46006E-05-2.75269E-05-2.87453E-05-4.43126E-07 1.13893E-18-2.74198E-19
 -1      3587 9.45358E-05-2.74708E-05-2.87447E-05-3.41172E-07 1.34575E-18-7.89459E-19
 -1      3588 9.44002E-05-2.73059E-05-2.87518E-05-3.13125E-07 1.94639E-18-8.99387E-19
 -1      3589 6.85062E-05-2.27016E-05-1.96377E-05 2.15416E-05-2.20090E-18-1.59120E-18
 -1      3590 6.08818E-05-1.71290E-05-1.86086E-05 1.45377E-05-2.08529E-18-3.86088E-19
 -1      3591 9.48996E-05-2.34249E-05-3.06413E-05-1.86497E-06-1.28398E-18-2.62567E-18
 -1      3592 1.36125E-04-5.36639E-05-3.57510E-05-3.28062E-06-6.48668E-19-4.34560E-18
 -1      3593 1.32254E-04-5.71464E-05-3.20763E-05 5.87318E-06-1.16639E-18-4.13479E-18
 -1      3594 8.06753E-05-3.18074E-05-2.06952E-05-2.68052E-05 1.92173E-18 2.19704E-18
 -1      3595 9.34215E-05-4.08455E-05-2.27306E-05-2.74174E-05 2.65717E-18 2.08743E-18
 -1      3596 1.03452E-04-4.84625E-05-2.36235E-05-2.71347E-05-3.75712E-18-1.35163E-18
 -1      3597 1.09110E-04-4.72681E-05-2.63369E-05-1.93366E-05-3.06097E-18-4.84893E-19
 -1      3598 9.13254E-05-2.52152E-05-2.83454E-05 1.09195E-05 5.97759E-19 1.03844E-18
 -1      3599 9.17829E-05-2.59814E-05-2.81628E-05 1.17972E-05 1.01161E-18 1.14630E-18
 -1      3600 8.90693E-05-2.37878E-05-2.79711E-05 1.01840E-05 7.70629E-19 8.84355E-19
 -1      3601 9.17403E-05-2.68535E-05-2.78105E-05 1.30846E-05 4.32277E-19 1.09873E-18
 -1      3602 9.28967E-05-2.84054E-05-2.75740E-05 1.39912E-05-3.75812E-19 1.53676E-18
 -1      3603 8.85644E-05-2.48302E-05-2.73134E-05 1.25326E-05 4.20823E-19 1.16172E-18
 -1      3604 9.19795E-05-2.50755E-05-2.86545E-05-9.80227E-06-1.95588E-19-3.23303E-19
 -1      3605 9.19716E-05-2.49344E-05-2.87460E-05-9.08544E-06-7.52811E-20-1.17248E-19
 -1      3606 9.06247E-05-2.40921E-05-2.85040E-05-8.37988E-06-3.44873E-19-6.02829E-19
 -1      3607 8.96298E-05-2.40153E-05-2.81138E-05-9.96115E-06-5.95522E-19-2.69967E-19
 -1      3608 9.69422E-05-3.54980E-05-2.62560E-05 1.84367E-05-1.52492E-19 2.48932E-19
 -1      3609 1.01242E-04-3.96278E-05-2.62077E-05 1.87329E-05-1.54286E-19-2.82810E-19
 -1      3610 9.35154E-05-3.86858E-05-2.36786E-05 2.49896E-05-1.38295E-18-1.16773E-18
 -1      3611 9.05211E-05-3.18677E-05-2.52176E-05 1.97792E-05-6.41919E-19-4.84523E-19
 -1      3612 1.34286E-04-4.63576E-05-3.76417E-05-1.21434E-05-7.88270E-20-1.74224E-18
 -1      3613 1.03449E-04-4.22163E-05-2.60185E-05-1.99683E-05-3.00615E-18-7.34808E-19
 -1      3614 1.32022E-04-4.08842E-05-3.99284E-05-1.53982E-05 7.05062E-19-1.33757E-18
 -1      3615 9.54562E-05-2.49147E-05-3.02226E-05-7.70325E-07-1.01930E-18-2.31475E-18
 -1      3616 9.55638E-05-2.55503E-05-3.00131E-05-6.00998E-09-9.85166E-19-2.16602E-18
 -1      3617 9.55463E-05-2.54031E-05-3.00592E-05 1.82833E-07-7.88627E-19-2.22471E-18
 -1      3618 9.47071E-05-2.67472E-05-2.91208E-05-4.32759E-06 5.67534E-19-3.44679E-19
 -1      3619 9.48225E-05-2.68831E-05-2.91216E-05-3.93672E-06 5.33466E-19-4.68204E-19
 -1      3620 5.84805E-05-1.73198E-05-1.74128E-05-1.71767E-05 5.19866E-19 1.73732E-18
 -1      3621 6.79411E-05-2.37353E-05-1.88526E-05-2.36739E-05 8.02306E-19 8.69347E-19
 -1      3622 9.63386E-05-4.32783E-05-2.24317E-05-2.78708E-05-3.81665E-18-1.67543E-18
 -1      3623 1.24931E-04-4.69809E-05-3.34329E-05 5.03559E-06 1.25686E-18-3.80368E-18
 -1      3624 1.17155E-04-1.70652E-05-4.33043E-05-9.84313E-06-4.58330E-18 1.36052E-18
 -1      3625 1.16474E-04-2.18752E-05-4.07986E-05-1.12358E-05-4.24353E-18 1.51664E-18
 -1      3626 9.47845E-05-2.77030E-05-2.87483E-05-6.17775E-07 7.19158E-19 7.83050E-19
 -1      3627 9.46907E-05-2.76195E-05-2.87477E-05-5.48666E-07 4.49038E-19 8.19566E-19
 -1      3628 9.45556E-05-2.74520E-05-2.87564E-05-5.67075E-07 1.61397E-18-2.22520E-19
 -1      3629 7.91721E-05-3.28992E-05-1.93930E-05-2.91968E-05-3.35515E-18-1.71969E-18
 -1      3630 8.82593E-05-3.90613E-05-2.10270E-05-2.94649E-05-3.59976E-18-1.58178E-18
 -1      3631 9.18648E-05-3.88054E-05-2.26065E-05-2.63769E-05-3.28800E-18-1.60140E-18
 -1      3632 8.12421E-05-3.03800E-05-2.16231E-05 2.43100E-05-1.54587E-18-1.32772E-18
 -1      3633 1.22539E-04-4.87043E-05-3.18645E-05 7.32028E-07 8.52559E-19-2.99613E-18
 -1      3634 9.17775E-05-1.72700E-05-3.19467E-05-8.66500E-07 2.98615E-20-3.21839E-18
 -1      3635 9.19038E-05-1.74539E-05-3.19168E-05-1.55716E-06-3.13785E-19-3.20542E-18
 -1      3636 9.25119E-05-1.84795E-05-3.17176E-05-1.52591E-06-3.14247E-19-3.05461E-18
 -1      3637 9.26135E-05-1.86764E-05-3.16710E-05-4.67237E-07 4.65898E-20-2.92053E-18
 -1      3638 1.07902E-04-4.71826E-05-2.57821E-05-1.98581E-05 2.20699E-18-6.65060E-19
 -1      3639 1.16243E-04-5.10839E-05-2.82374E-05-1.31519E-05 1.83754E-18-1.96823E-18
 -1      3640 9.49531E-05-3.77766E-05-2.45838E-05-2.25237E-05-2.83511E-18-1.57789E-18
 -1      3641 1.19139E-04-4.97445E-05-2.96596E-05-6.53307E-06 1.24178E-18-2.06289E-18
 -1      3642 9.45855E-05-2.26112E-05-3.08538E-05 2.32769E-06 1.89178E-18-2.02360E-18
 -1      3643 5.87760E-05-1.39652E-05-1.92162E-05-4.07836E-06 1.30198E-20 1.66373E-18
 -1      3644 5.77080E-05-1.49041E-05-1.80821E-05-1.12058E-05 3.13455E-19 2.57405E-18
 -1      3645 6.43055E-05-1.73699E-05-1.99556E-05-1.30158E-05 1.58521E-19 1.37033E-18
 -1      3646 9.47205E-05-2.66530E-05-2.91695E-05-3.57697E-06 2.80576E-19-8.08729E-19
 -1      3647 9.50836E-05-2.70342E-05-2.91606E-05-3.58053E-06 5.33830E-19-7.10449E-19
 -1      3648 9.51803E-05-2.70951E-05-2.91809E-05-3.19947E-06 4.82722E-19-8.76224E-19
 -1      3649 1.14812E-04-2.51466E-05-3.87536E-05-1.26107E-05-2.87329E-18 1.43309E-18
 -1      3650 9.54359E-05-2.73643E-05-2.91772E-05-2.79276E-06 6.78859E-19-9.28392E-19
 -1      3651 9.49721E-05-2.78330E-05-2.87725E-05-8.51467E-07 1.84992E-18 1.74600E-18
 -1      3652 9.50063E-05-2.79139E-05-2.87549E-05-7.37003E-07 2.32714E-18 1.83348E-18
 -1      3653 9.49473E-05-2.78581E-05-2.87528E-05-7.11405E-07 2.21558E-18 4.51067E-18
 -1      3654 9.48010E-05-2.76500E-05-2.87774E-05-8.89857E-07 1.91828E-18 4.90392E-18
 -1      3655 9.56534E-05-2.65649E-05-2.96138E-05-1.03726E-06 1.26700E-18-1.04690E-18
 -1      3656 9.56612E-05-2.61983E-05-2.97616E-05-4.16584E-07 1.46052E-18-1.01912E-18
 -1      3657 9.26022E-05-2.51243E-05-2.89110E-05-6.02710E-06 4.85172E-19-3.90778E-19
 -1      3658 9.37077E-05-2.58549E-05-2.90726E-05-6.06012E-06 3.04256E-19-1.27700E-19
 -1      3659 9.38575E-05-2.60571E-05-2.90675E-05-5.57319E-06 5.55145E-19-2.46840E-19
 -1      3660 9.35573E-05-2.02739E-05-3.13792E-05 2.48078E-06 1.69693E-18-2.37613E-18
 -1      3661 9.30717E-05-1.95134E-05-3.15288E-05-1.98034E-06-5.46294E-19-2.89782E-18
 -1      3662 9.33459E-05-2.00092E-05-3.14417E-05-2.49836E-06-1.02933E-18-3.12544E-18
 -1      3663 9.38592E-05-2.09805E-05-3.12210E-05-2.19182E-06-1.08361E-18-2.93740E-18
 -1      3664 8.89989E-05-2.73551E-05-2.64262E-05 1.56571E-05-3.56532E-19 2.47784E-19
 -1      3665 9.42474E-05-2.63343E-05-2.90996E-05-5.13915E-06 4.04522E-19-4.25044E-19
 -1      3666 9.43820E-05-2.65192E-05-2.90916E-05-4.71003E-06 5.06144E-19-2.20190E-19
 -1      3667 9.41428E-05-2.62617E-05-2.90879E-05-4.31144E-06 4.86014E-19-2.88465E-19
 -1      3668 9.34365E-05-2.57300E-05-2.90110E-05-5.11294E-06 4.04975E-19-4.12904E-19
 -1      3669 9.36998E-05-2.08094E-05-3.12558E-05 1.44553E-06 1.21649E-18-2.53176E-18
 -1      3670 9.35098E-05-2.04696E-05-3.13135E-05 1.00119E-06 9.14888E-19-2.62146E-18
 -1      3671 9.43396E-05-2.72466E-05-2.87511E-05-1.74640E-08 1.48421E-18-3.44380E-18
 -1      3672 9.44584E-05-2.73912E-05-2.87444E-05 6.17891E-08 1.25164E-18-4.00428E-18
 -1      3673 9.44778E-05-2.74080E-05-2.87453E-05 1.81822E-07 1.03905E-18-3.84170E-18
 -1      3674 6.67147E-05-1.74913E-05-2.10078E-05 1.18945E-05-1.83710E-18-7.81070E-19
 -1      3675 5.98487E-05-1.51745E-05-1.89075E-05 1.02238E-05-1.68872E-18 6.55551E-19
 -1      3676 5.98892E-05-1.40428E-05-1.95728E-05 4.13968E-06-1.24893E-18-2.04850E-19
 -1      3677 9.51128E-05-2.80416E-05-2.87440E-05 6.45100E-07-1.42916E-18-7.97792E-19
 -1      3678 7.29121E-05-2.65059E-05-1.95040E-05 2.52433E-05 2.74617E-18-3.86941E-18
 -1      3679 7.04147E-05-2.34166E-05-2.00402E-05 2.10659E-05 2.14675E-18-3.84214E-18
 -1      3680 9.49875E-05-2.78918E-05-2.87544E-05 6.94832E-07-1.60200E-18 1.15112E-18
 -1      3681 6.07195E-05-1.68412E-05-1.87780E-05 1.32518E-05 4.89373E-19-3.45780E-18
 -1      3682 5.44014E-05-1.38114E-05-1.69675E-05 8.82207E-06 4.20433E-19-3.35039E-18
 -1      3683 5.54155E-05-1.37225E-05-1.77389E-05 3.17328E-06-2.74664E-19-2.66540E-18
 -1      3684 7.64420E-05-2.76563E-05-2.07135E-05-2.43555E-05 1.10927E-18 1.11665E-18
 -1      3685 8.40232E-05-3.07847E-05-2.27406E-05-2.22198E-05 1.28874E-18 1.63575E-18
 -1      3686 7.27981E-05-2.35250E-05-2.11096E-05-2.00123E-05 4.86740E-19 4.07899E-19
 -1      3687 1.03977E-04-4.62289E-05-2.49802E-05 2.29296E-05 2.51646E-18 9.04194E-19
 -1      3688 9.47564E-05-4.07584E-05-2.28187E-05 2.65930E-05 2.58880E-18-9.27944E-19
 -1      3689 9.33917E-05-2.02613E-05-3.13538E-05 6.63237E-07 7.16288E-19-2.59785E-18
 -1      3690 9.33303E-05-2.01474E-05-3.13730E-05 1.94231E-07 4.10176E-19-2.77801E-18
 -1      3691 9.40712E-05-2.15009E-05-3.10805E-05 6.06837E-07 7.82359E-19-2.39564E-18
 -1      3692 5.59507E-05-1.59754E-05-1.67112E-05-1.40897E-05-1.31469E-18-3.17351E-18
 -1      3693 6.31597E-05-1.94674E-05-1.87291E-05-1.79306E-05-1.74078E-18-2.16083E-18
 -1      3694 5.67869E-05-1.47246E-05-1.79246E-05-8.67265E-06-8.09565E-19-2.52154E-18
 -1      3695 9.55737E-05-2.70132E-05-2.93846E-05-2.02418E-06 9.20279E-19-9.09051E-19
 -1      3696 9.56260E-05-2.68333E-05-2.94767E-05-1.53536E-06 1.00771E-18-9.01897E-19
 -1      3697 9.56226E-05-2.63594E-05-2.96852E-05-1.14914E-06 1.10446E-18-1.06464E-18
 -1      3698 7.99988E-05-2.69053E-05-2.25374E-05 2.03221E-05-1.44688E-18-3.77962E-19
 -1      3699 9.48715E-05-2.33394E-05-3.06629E-05-1.44987E-06-1.01686E-18-2.63853E-18
 -1      3700 1.02755E-04-4.27330E-05-2.55755E-05-1.93451E-05 1.88287E-18-7.20557E-19
 -1      3701 9.49021E-05-2.78072E-05-2.87569E-05 6.83284E-07-1.09895E-18 8.84817E-19
 -1      3702 1.07006E-04-4.51808E-05-2.64162E-05 1.73210E-05 2.37241E-18 1.41987E-18
 -1      3703 9.47694E-05-2.76700E-05-2.87552E-05 6.26750E-07-6.76944E-19 1.18844E-18
 -1      3704 9.47727E-05-2.76436E-05-2.87705E-05 7.54194E-07-7.39879E-19 1.39807E-18
 -1      3705 9.46731E-05-2.75879E-05-2.87537E-05 5.51022E-07 5.76268E-19 6.15641E-19
 -1      3706 7.46557E-05-2.82832E-05-1.96737E-05-2.54472E-05-2.98653E-18-1.42108E-18
 -1      3707 8.84647E-05-3.34075E-05-2.33780E-05-2.30788E-05-2.56066E-18-1.50187E-18
 -1      3708 9.48893E-05-2.78088E-05-2.87506E-05-6.76191E-07 1.25685E-18 2.59306E-18
 -1      3709 8.25206E-05-3.36459E-05-2.10167E-05 2.75552E-05 2.46330E-18-2.74674E-18
 -1      3710 9.47646E-05-2.76517E-05-2.87622E-05-7.38006E-07 1.48048E-18 2.29139E-18
 -1      3711 9.54631E-05-2.64361E-05-2.95830E-05 1.62499E-06-5.71921E-19-1.60201E-18
 -1      3712 9.53400E-05-2.65779E-05-2.94713E-05 2.01033E-06-7.04081E-19-1.57495E-18
 -1      3713 9.51232E-05-2.66247E-05-2.93583E-05 2.31752E-06-7.18411E-19-1.37213E-18
 -1      3714 9.49306E-05-2.66233E-05-2.92741E-05 2.66403E-06-6.18216E-19-1.55946E-18
 -1      3715 9.51093E-05-2.63425E-05-2.94677E-05 1.90839E-06-6.44455E-19-1.43427E-18
 -1      3716 9.46180E-05-2.65387E-05-2.91807E-05 2.96464E-06-3.68867E-19-1.61420E-18
 -1      3717 9.43788E-05-2.64424E-05-2.91132E-05 3.30543E-06-3.18243E-19-1.67888E-18
 -1      3718 9.45826E-05-2.63142E-05-2.92541E-05 2.51010E-06-6.30239E-19-1.39284E-18
 -1      3719 9.39928E-05-2.62741E-05-2.90282E-05 3.62860E-06-2.16385E-19-1.38957E-18
 -1      3720 9.37282E-05-2.61300E-05-2.89663E-05 3.99186E-06-2.39946E-19-1.31639E-18
 -1      3721 9.38874E-05-2.60537E-05-2.90676E-05 3.12370E-06-2.23229E-19-1.52037E-18
 -1      3722 9.32898E-05-2.59263E-05-2.88778E-05 4.36531E-06-1.44407E-19-1.13334E-18
 -1      3723 9.30259E-05-2.57861E-05-2.88105E-05 4.77460E-06-5.70465E-20-1.03139E-18
 -1      3724 9.30658E-05-2.56581E-05-2.88846E-05 3.80540E-06-2.91455E-20-9.96704E-19
 -1      3725 9.25601E-05-2.56014E-05-2.87059E-05 5.22571E-06-8.12374E-20-1.01514E-18
 -1      3726 9.23349E-05-2.55275E-05-2.86222E-05 5.70141E-06-4.11308E-20-9.00922E-19
 -1      3727 9.21620E-05-2.52312E-05-2.86802E-05 4.61139E-06-2.61609E-20-8.42324E-19
 -1      3728 9.18767E-05-2.54277E-05-2.84886E-05 6.26127E-06-1.60420E-20-9.87920E-19
 -1      3729 9.17497E-05-2.55004E-05-2.83784E-05 6.82302E-06 4.05669E-20-7.73666E-19
 -1      3730 9.12329E-05-2.48927E-05-2.84280E-05 5.60271E-06-4.33699E-21-9.71476E-19
 -1      3731 9.13564E-05-2.55731E-05-2.82035E-05 7.52924E-06 2.34068E-19-6.66061E-19
 -1      3732 9.14217E-05-2.59001E-05-2.80596E-05 8.19428E-06 3.49771E-19-8.50181E-19
 -1      3733 9.03657E-05-2.47941E-05-2.81014E-05 6.85618E-06 2.23906E-19-1.12627E-18
 -1      3734 9.11860E-05-2.62615E-05-2.78333E-05 9.09066E-06 1.48550E-19-9.08492E-19
 -1      3735 9.15892E-05-2.69855E-05-2.76555E-05 9.86770E-06-1.44359E-20-6.98108E-19
 -1      3736 8.97024E-05-2.51384E-05-2.76753E-05 8.46741E-06 2.46528E-19-1.01229E-18
 -1      3737 9.16652E-05-2.77934E-05-2.73751E-05 1.10014E-05 3.52403E-19-3.83753E-19
 -1      3738 9.26283E-05-2.90998E-05-2.71787E-05 1.18654E-05 7.44613E-19-2.47216E-19
 -1      3739 8.94733E-05-2.61991E-05-2.71330E-05 1.05536E-05 3.71253E-19-1.07772E-18
 -1      3740 9.32768E-05-3.05658E-05-2.68586E-05 1.32626E-05 1.00719E-18-8.50218E-20
 -1      3741 9.51222E-05-3.26853E-05-2.66921E-05 1.40950E-05 1.03561E-18 2.12784E-19
 -1      3742 9.00668E-05-2.83554E-05-2.64770E-05 1.32319E-05 1.01668E-18-9.64992E-19
 -1      3743 9.68015E-05-3.50721E-05-2.63935E-05 1.56383E-05 1.25105E-18 6.10373E-19
 -1      3744 9.99602E-05-3.81794E-05-2.63824E-05 1.61009E-05 1.74019E-18 7.93543E-19
 -1      3745 9.21604E-05-3.21630E-05-2.57632E-05 1.65349E-05 1.49763E-18-7.73341E-19
 -1      3746 1.02463E-04-4.12693E-05-2.60818E-05 1.77225E-05 2.05439E-18 1.15350E-18
 -1      3747 9.02914E-05-2.37329E-05-2.85200E-05-6.66724E-06-4.19178E-20-4.27741E-19
 -1      3748 9.08025E-05-2.40415E-05-2.86288E-05-6.12388E-06 3.13351E-19-1.38497E-19
 -1      3749 9.82496E-05-3.88622E-05-2.53183E-05-1.93532E-05 1.63203E-18-4.50522E-19
 -1      3750 9.50800E-05-2.37049E-05-3.05703E-05 1.49446E-06 1.61531E-18-1.82454E-18
 -1      3751 9.43678E-05-2.21356E-05-3.09725E-05 2.03534E-06 1.71527E-18-2.16229E-18
 -1      3752 9.46731E-05-2.75405E-05-2.87735E-05-8.26474E-07 1.45161E-18 2.44641E-18
 -1      3753 9.48818E-05-3.22468E-05-2.67760E-05-1.36667E-05 5.47154E-19-1.07670E-18
 -1      3754 9.30765E-05-3.01852E-05-2.69400E-05-1.28348E-05 5.81761E-19-1.39054E-18
 -1      3755 9.23634E-05-2.86790E-05-2.72501E-05-1.14559E-05 4.54336E-19-2.48597E-18
 -1      3756 9.13875E-05-2.73588E-05-2.74424E-05-1.05655E-05 4.39669E-19-2.67629E-18
 -1      3757 8.98413E-05-2.79496E-05-2.65571E-05-1.28621E-05-1.78686E-19-2.08466E-18
 -1      3758 9.12623E-05-2.65287E-05-2.77130E-05-9.41007E-06 3.06811E-19-3.22029E-18
 -1      3759 9.08274E-05-2.57849E-05-2.78839E-05-8.60022E-06-3.16770E-19-3.70152E-18
 -1      3760 8.91378E-05-2.57269E-05-2.71917E-05-1.01445E-05-2.46899E-19-3.14238E-18
 -1      3761 9.10026E-05-2.53952E-05-2.80977E-05-7.67431E-06-8.46879E-19-3.51248E-18
 -1      3762 9.08935E-05-2.50459E-05-2.82310E-05-6.97113E-06-8.27750E-19-3.82918E-18
 -1      3763 8.92588E-05-2.46097E-05-2.77104E-05-8.01392E-06-3.92168E-20-3.39923E-18
 -1      3764 9.12142E-05-2.49436E-05-2.83888E-05-6.23108E-06-4.51485E-19-2.92978E-18
 -1      3765 9.12864E-05-2.48505E-05-2.84832E-05-5.62897E-06-2.37289E-19-2.24664E-18
 -1      3766 8.97904E-05-2.42058E-05-2.81052E-05-6.34741E-06-5.54689E-19-2.68291E-18
 -1      3767 9.16627E-05-2.49265E-05-2.85928E-05-5.03330E-06-4.90696E-20-1.67019E-18
 -1      3768 9.18247E-05-2.49905E-05-2.86532E-05-4.52027E-06 3.10262E-19-8.31482E-19
 -1      3769 9.05041E-05-2.42510E-05-2.83889E-05-5.03285E-06 3.10231E-19-1.58829E-18
 -1      3770 9.22042E-05-2.51682E-05-2.87240E-05-4.03742E-06 1.26457E-19-5.40031E-19
 -1      3771 9.24002E-05-2.53200E-05-2.87576E-05-3.60229E-06 2.12749E-19-6.82645E-19
 -1      3772 9.12663E-05-2.45626E-05-2.85811E-05-3.98339E-06 5.06746E-19-2.78364E-19
 -1      3773 9.27536E-05-2.55466E-05-2.87990E-05-3.20950E-06 1.16874E-19-1.33851E-18
 -1      3774 9.29508E-05-2.57393E-05-2.88127E-05-2.84303E-06 1.04070E-18-5.90665E-19
 -1      3775 9.20004E-05-2.50144E-05-2.87020E-05-3.13776E-06 2.46108E-20 3.32276E-19
 -1      3776 9.32634E-05-2.59795E-05-2.88330E-05-2.52386E-06 1.07919E-18-1.07257E-18
 -1      3777 9.34441E-05-2.61824E-05-2.88331E-05-2.21824E-06 2.93823E-19-3.04648E-19
 -1      3778 9.26648E-05-2.55213E-05-2.87701E-05-2.45333E-06 6.42051E-19-9.59715E-19
 -1      3779 9.37099E-05-2.64140E-05-2.88388E-05-1.96008E-06 2.13293E-19 3.44886E-19
 -1      3780 9.38659E-05-2.66083E-05-2.88303E-05-1.70812E-06 1.17575E-18 4.38266E-19
 -1      3781 9.32406E-05-2.60273E-05-2.88007E-05-1.89981E-06 9.78716E-19-8.64796E-19
 -1      3782 9.40852E-05-2.68190E-05-2.88265E-05-1.50081E-06 1.24330E-18 3.17396E-19
 -1      3783 9.42149E-05-2.69944E-05-2.88132E-05-1.29627E-06 5.31974E-19 1.08041E-18
 -1      3784 9.37227E-05-2.64990E-05-2.88061E-05-1.45362E-06 1.10370E-18 2.31382E-19
 -1      3785 9.43910E-05-2.71787E-05-2.88039E-05-1.13013E-06 3.76635E-19 1.57298E-18
 -1      3786 9.44961E-05-2.73252E-05-2.87883E-05-9.70657E-07 1.45955E-18 2.18351E-18
 -1      3787 9.41126E-05-2.69168E-05-2.87954E-05-1.09801E-06 8.45924E-19 1.03368E-19
 -1      3788 7.95680E-05-2.48041E-05-2.34576E-05 1.78830E-05-1.44886E-18-1.44154E-19
 -1      3789 9.55768E-05-2.58661E-05-2.98772E-05 8.18674E-07-3.75633E-19-1.89157E-18
 -1      3790 9.55551E-05-2.62025E-05-2.97261E-05 1.27963E-06-3.53411E-19-1.79742E-18
 -1      3791 9.54178E-05-2.60388E-05-2.97301E-05 1.25998E-06-4.00471E-19-1.67596E-18
 -1      3792 8.50253E-05-2.47594E-05-2.57695E-05-1.45360E-05-7.45506E-19-5.59317E-19
 -1      3793 8.48366E-05-2.36408E-05-2.62709E-05-1.29975E-05-6.87778E-19-4.49477E-19
 -1      3794 8.59928E-05-2.32623E-05-2.68506E-05-1.15456E-05-7.52504E-19-4.94870E-19
 -1      3795 8.62561E-05-2.28397E-05-2.72160E-05-1.04481E-05-6.09665E-19-6.23508E-19
 -1      3796 8.23357E-05-2.16964E-05-2.59585E-05-1.13176E-05-5.44544E-19-8.27335E-19
 -1      3797 8.97816E-05-2.32368E-05-2.85382E-05 5.86764E-06-6.68417E-19 7.44961E-19
 -1      3798 8.93015E-05-2.29803E-05-2.84184E-05 6.49903E-06-8.21852E-20 9.00670E-19
 -1      3799 8.84230E-05-2.26598E-05-2.82085E-05 7.15793E-06 7.35357E-19 1.44464E-18
 -1      3800 8.79381E-05-2.25462E-05-2.80142E-05 7.91926E-06 1.09280E-18 1.38963E-18
 -1      3801 8.74708E-05-2.19733E-05-2.80483E-05 6.07442E-06 4.02379E-19 1.95470E-18
 -1      3802 9.19349E-05-2.46609E-05-2.88439E-05 3.88971E-06-1.05533E-18 6.32927E-19
 -1      3803 9.15721E-05-2.43344E-05-2.88146E-05 4.35068E-06-6.00688E-19 9.72867E-19
 -1      3804 9.27313E-05-2.53451E-05-2.88897E-05 3.11773E-06 9.89298E-21 3.61591E-19
 -1      3805 9.24363E-05-2.50364E-05-2.88843E-05 3.51196E-06-6.74280E-19 6.34878E-19
 -1      3806 9.15348E-05-2.43935E-05-2.87633E-05 3.31501E-06-3.79029E-19-3.39086E-20
 -1      3807 9.33659E-05-2.59602E-05-2.88962E-05 2.46471E-06 5.91845E-19 1.11687E-18
 -1      3808 9.31326E-05-2.56834E-05-2.89053E-05 2.79820E-06 1.92554E-19 9.76776E-19
 -1      3809 9.24271E-05-2.51419E-05-2.88275E-05 2.66312E-06-3.07958E-19 7.80115E-19
 -1      3810 9.38626E-05-2.64932E-05-2.88792E-05 1.91890E-06 1.10656E-18 1.73083E-18
 -1      3811 9.36824E-05-2.62541E-05-2.88962E-05 2.19701E-06 1.51570E-18 1.40486E-18
 -1      3812 9.31364E-05-2.58052E-05-2.88493E-05 2.10960E-06 9.97862E-19 1.26081E-18
 -1      3813 9.42443E-05-2.69415E-05-2.88494E-05 1.46847E-06-9.25373E-19 1.87915E-18
 -1      3814 9.41083E-05-2.67402E-05-2.88701E-05 1.69842E-06 6.04123E-19 2.18329E-18
 -1      3815 9.36924E-05-2.63766E-05-2.88447E-05 1.64567E-06 4.07637E-19 2.68889E-18
 -1      3816 9.45301E-05-2.73085E-05-2.88137E-05 1.09971E-06-2.98758E-19 1.16277E-18
 -1      3817 9.44323E-05-2.71441E-05-2.88354E-05 1.29089E-06-1.18258E-18 1.49295E-18
 -1      3818 9.41192E-05-2.68550E-05-2.88248E-05 1.26506E-06-8.36216E-19 3.08984E-18
 -1      3819 9.47009E-05-2.75217E-05-2.87903E-05 8.96230E-07-1.92544E-19 1.20688E-18
 -1      3820 8.35866E-05-2.48841E-05-2.51081E-05 1.55327E-05-1.08950E-18 3.92726E-19
 -1      3821 7.37185E-05-2.04730E-05-2.26999E-05 1.49936E-05-1.51530E-18-7.37613E-19
 -1      3822 7.47634E-05-2.39127E-05-2.17699E-05 1.87496E-05 1.79663E-18-2.99409E-18
 -1      3823 6.79946E-05-1.96182E-05-2.04480E-05 1.64289E-05 1.13637E-18-3.03188E-18
 -1      3824 8.69321E-05-2.23796E-05-2.76971E-05 8.77741E-06 7.80402E-19 1.27460E-18
 -1      3825 8.65285E-05-2.25399E-05-2.74042E-05 9.73760E-06 8.27567E-19 1.25586E-18
 -1      3826 8.55883E-05-2.13690E-05-2.74960E-05 7.47258E-06 1.00944E-18 2.62972E-18
 -1      3827 9.45226E-05-2.74494E-05-2.87478E-05 3.22340E-07 9.82676E-19-2.65600E-18
 -1      3828 9.45840E-05-2.75021E-05-2.87493E-05 4.26438E-07 1.24163E-18-3.15914E-18
 -1      3829 9.43864E-05-2.72837E-05-2.87549E-05 2.83036E-07 5.17880E-19-2.89936E-18
 -1      3830 8.54343E-05-2.26677E-05-2.69415E-05 1.08938E-05 4.50762E-19 1.05701E-18
 -1      3831 8.52814E-05-2.33224E-05-2.65320E-05 1.21784E-05 6.99398E-20 1.12694E-18
 -1      3832 8.35173E-05-2.11512E-05-2.66812E-05 9.40654E-06 3.15746E-19 1.20191E-18
 -1      3833 9.40867E-05-2.15786E-05-3.10826E-05 1.69706E-06 1.47297E-18-2.21776E-18
 -1      3834 9.45240E-05-2.24392E-05-3.08734E-05 1.10877E-06 1.16963E-18-2.00892E-18
 -1      3835 8.87910E-05-3.47978E-05-2.29863E-05 2.35375E-05 2.20612E-18-1.59291E-18
 -1      3836 9.47068E-05-2.29038E-05-3.07818E-05-1.34196E-06-9.17398E-19-2.67617E-18
 -1      3837 9.52585E-05-2.43595E-05-3.03771E-05-3.71987E-07-6.81452E-19-2.48254E-18
 -1      3838 9.44304E-05-2.23623E-05-3.08930E-05-1.09652E-06-6.92588E-19-2.49210E-18
 -1      3839 9.62377E-05-3.81482E-05-2.50330E-05 2.04280E-05 2.13062E-18-2.42476E-19
 -1      3840 7.15877E-05-2.36977E-05-2.01967E-05-2.15802E-05-1.88540E-18-1.03611E-18
 -1      3841 8.00230E-05-2.94549E-05-2.16646E-05-2.38990E-05-2.45505E-18-1.10853E-18
 -1      3842 8.43998E-05-2.92599E-05-2.36592E-05-2.07042E-05-1.53285E-18-1.19110E-18
 -1      3843 6.92705E-05-2.10805E-05-2.06218E-05-1.74488E-05-1.42221E-18-1.53804E-18
 -1      3844 9.45402E-05-2.74180E-05-2.87633E-05 5.64397E-07 1.41930E-19-6.43150E-19
 -1      3845 9.09555E-05-2.39384E-05-2.87367E-05 4.79680E-06-1.02170E-18 1.24494E-18
 -1      3846 9.05259E-05-2.36220E-05-2.86706E-05 5.33392E-06-1.00724E-18 8.11179E-19
 -1      3847 8.90815E-05-2.27503E-05-2.84095E-05 4.98041E-06-5.36310E-19 1.02981E-18
 -1      3848 9.44863E-05-2.73595E-05-2.87671E-05-7.14029E-07 8.99852E-19-9.48681E-19
 -1      3849 9.43734E-05-2.72669E-05-2.87634E-05-5.96747E-07 1.55338E-18-1.35780E-18
 -1      3850 9.55844E-05-2.58563E-05-2.98900E-05 6.65937E-08 1.56990E-18-1.11883E-18
 -1      3851 9.55265E-05-2.53945E-05-3.00502E-05 7.61969E-07 1.79004E-18-1.28826E-18
 -1      3852 9.53603E-05-2.47555E-05-3.02635E-05 1.01211E-06 1.68162E-18-1.54303E-18
 -1      3853 9.55932E-05-2.56883E-05-2.99642E-05-1.41478E-07 1.43104E-18-1.26290E-18
 -1      3854 9.53756E-05-2.71430E-05-2.92413E-05-2.83722E-06 5.43796E-19-9.15558E-19
 -1      3855 9.54548E-05-2.71027E-05-2.92916E-05-2.42730E-06 7.81345E-19-8.45744E-19
 -1      3856 9.51686E-05-2.68442E-05-2.92810E-05-2.85417E-06 5.35386E-19-9.03762E-19
 -1      3857 8.50878E-05-2.78094E-05-2.44827E-05-1.83235E-05-1.26116E-18-1.12833E-18
 -1      3858 8.39341E-05-2.55112E-05-2.50981E-05-1.62505E-05-8.90381E-19-6.91635E-19
 -1      3859 8.00924E-05-2.24247E-05-2.46372E-05-1.43323E-05-6.76189E-19-1.31775E-18
 -1      3860 7.79933E-05-2.39022E-05-2.30023E-05-1.82573E-05-1.07320E-18-1.41344E-18
 -1      3861 9.54250E-05-2.49277E-05-3.02147E-05-2.71086E-08-5.72734E-19-2.48791E-18
 -1      3862 9.55322E-05-2.54979E-05-3.00170E-05 5.23953E-07-5.52731E-19-2.24468E-18
 -1      3863 9.54584E-05-2.54038E-05-3.00194E-05 6.04559E-07-2.09972E-19-1.97962E-18
 -1      3864 9.52414E-05-2.44669E-05-3.03263E-05-4.15657E-08-4.81079E-19-2.38126E-18
 -1      3865 9.42775E-05-2.71734E-05-2.87588E-05-4.37417E-07 1.48558E-18-1.24903E-18
 -1      3866 9.42142E-05-2.71210E-05-2.87569E-05-2.90384E-07 2.17087E-18-1.61952E-18
 -1      3867 9.41964E-05-2.70635E-05-2.87686E-05-5.88505E-07 5.99999E-19-9.27934E-19
 -1      3868 9.07678E-05-3.42923E-05-2.42278E-05-2.12573E-05 1.60463E-18 5.02205E-19
 -1      3869 9.88190E-05-3.69449E-05-2.64146E-05-1.56666E-05 1.36103E-18-8.14561E-19
 -1      3870 9.57009E-05-3.39934E-05-2.64072E-05-1.52088E-05 1.07333E-18-9.68640E-19
 -1      3871 8.59555E-05-2.99382E-05-2.40638E-05-1.92493E-05 1.20253E-18 5.01748E-19
 -1      3872 9.44755E-05-2.72998E-05-2.87898E-05 8.85951E-07-7.90707E-19 1.41534E-18
 -1      3873 8.66539E-05-3.15254E-05-2.35723E-05 2.10159E-05 2.28466E-18-1.67353E-18
 -1      3874 6.32255E-05-1.48383E-05-2.06648E-05 1.60516E-07-8.31368E-19-1.66416E-19
 -1      3875 9.43631E-05-2.63197E-05-2.91605E-05-3.41773E-06 8.27549E-20-6.91899E-19
 -1      3876 9.46251E-05-2.64720E-05-2.92123E-05-3.06510E-06 1.61124E-19-8.40464E-19
 -1      3877 9.15698E-05-2.44581E-05-2.87591E-05-5.67329E-06 4.36615E-19-3.65117E-19
 -1      3878 9.20258E-05-2.47890E-05-2.88290E-05-5.21054E-06 4.93488E-19-5.57969E-19
 -1      3879 9.03343E-05-2.36861E-05-2.85479E-05-5.25675E-06 2.67525E-19-4.30021E-19
 -1      3880 8.93989E-05-2.33484E-05-2.83290E-05-7.22711E-06-2.67720E-19-5.21773E-19
 -1      3881 8.86889E-05-2.28243E-05-2.82079E-05-6.18764E-06 5.36571E-20-6.56387E-19
 -1      3882 8.88686E-05-2.31424E-05-2.81590E-05-7.88444E-06-4.90954E-19-6.36898E-19
 -1      3883 9.52328E-05-2.43090E-05-3.03975E-05 8.52210E-07 1.45455E-18-1.78466E-18
 -1      3884 9.45020E-05-2.73434E-05-2.87815E-05-8.78748E-07 8.27960E-19 5.86321E-19
 -1      3885 9.54819E-05-2.67775E-05-2.94456E-05-2.07660E-06 8.52591E-19-8.24017E-19
 -1      3886 9.13275E-05-3.11538E-05-2.58126E-05-1.60594E-05 9.79809E-19-8.13211E-19
 -1      3887 9.29759E-05-1.94694E-05-3.15251E-05-9.75535E-07-1.13824E-19-2.77952E-18
 -1      3888 9.29872E-05-1.94202E-05-3.15356E-05-1.50581E-06-4.02624E-19-2.93249E-18
 -1      3889 9.35234E-05-2.03668E-05-3.13395E-05-1.43312E-06-4.11343E-19-2.69313E-18
 -1      3890 8.30894E-05-2.33755E-05-2.56446E-05 1.36702E-05-7.36313E-19 8.52776E-19
 -1      3891 9.41781E-05-2.70833E-05-2.87558E-05-1.03404E-07 1.89488E-18-1.49155E-18
 -1      3892 9.41719E-05-2.70802E-05-2.87566E-05 5.28534E-08 1.47287E-18-2.93682E-18
 -1      3893 9.40462E-05-2.69278E-05-2.87620E-05-2.25774E-07 2.06569E-18-1.82739E-18
 -1      3894 8.02876E-05-2.10345E-05-2.53023E-05 1.18774E-05-5.51016E-19-5.74609E-19
 -1      3895 9.36045E-05-2.58285E-05-2.90451E-05-4.09070E-06 4.12099E-19-4.96290E-19
 -1      3896 9.39316E-05-2.60736E-05-2.90889E-05-3.72392E-06 1.99738E-19-6.94686E-19
 -1      3897 9.38640E-05-2.58936E-05-2.91238E-05-3.20323E-06 9.13192E-20-9.56059E-19
 -1      3898 8.84753E-05-3.02635E-05-2.48604E-05 1.74268E-05 1.89699E-18-1.10730E-18
 -1      3899 8.09294E-05-2.70592E-05-2.30118E-05 1.96291E-05 2.19463E-18-2.97306E-18
 -1      3900 7.73673E-05-2.33363E-05-2.32388E-05 1.57245E-05 1.22746E-18-2.32955E-18
 -1      3901 8.68357E-05-2.80384E-05-2.52340E-05 1.55778E-05 1.32526E-18-1.33807E-18
 -1      3902 7.13379E-05-1.83209E-05-2.28014E-05 1.09687E-05-1.34606E-18-4.84926E-19
 -1      3903 6.01241E-05-1.44653E-05-1.95578E-05 3.32600E-06-4.13670E-19-2.28278E-18
 -1      3904 5.73122E-05-1.34443E-05-1.84478E-05-2.43851E-06-5.97688E-19-1.99249E-18
 -1      3905 6.13489E-05-1.53863E-05-1.96772E-05-7.24157E-06-7.56831E-19-2.39869E-18
 -1      3906 9.44837E-05-2.25520E-05-3.08407E-05 5.23820E-07 8.72452E-19-2.24436E-18
 -1      3907 9.43853E-05-2.23547E-05-3.08792E-05 2.83939E-07 5.77105E-19-2.32510E-18
 -1      3908 6.59211E-05-1.78090E-05-2.06032E-05 1.22196E-05 1.70591E-19-2.39203E-18
 -1      3909 6.97157E-05-1.99880E-05-2.11054E-05-1.61347E-05 6.71542E-19 2.16973E-19
 -1      3910 7.62336E-05-2.33505E-05-2.26006E-05-1.69573E-05 5.47112E-19 5.09384E-19
 -1      3911 6.76680E-05-1.76270E-05-2.15395E-05-1.10192E-05 2.77820E-19 7.94861E-19
 -1      3912 9.39496E-05-2.12830E-05-3.11220E-05-3.52596E-09 2.96120E-19-2.48260E-18
 -1      3913 9.33167E-05-2.01389E-05-3.13737E-05-1.70804E-07 1.65271E-19-2.78954E-18
 -1      3914 9.43134E-05-2.71704E-05-2.87778E-05 7.04416E-07-7.10091E-19 7.63270E-19
 -1      3915 9.41314E-05-2.69280E-05-2.87978E-05 8.98822E-07-7.55681E-19 5.21127E-19
 -1      3916 9.42097E-05-2.70808E-05-2.87714E-05 5.58634E-07 6.39022E-20-2.12350E-18
 -1      3917 9.55674E-05-2.62387E-05-2.97167E-05-1.25804E-06 8.12277E-19-1.10413E-18
 -1      3918 9.56025E-05-2.59256E-05-2.98608E-05-7.29670E-07 9.24054E-19-1.36324E-18
 -1      3919 8.73775E-05-2.28820E-05-2.76229E-05-9.44094E-06-7.35424E-19-3.67692E-19
 -1      3920 8.78515E-05-2.28689E-05-2.78781E-05-8.61184E-06-6.43722E-19-6.35185E-19
 -1      3921 8.67891E-05-2.20726E-05-2.77118E-05-7.36834E-06-5.90676E-19-6.02326E-19
 -1      3922 9.49991E-05-2.36801E-05-3.05804E-05 8.12230E-07 1.29511E-18-1.90338E-18
 -1      3923 9.46675E-05-2.29155E-05-3.07541E-05 7.03624E-07 9.15240E-19-1.93163E-18
 -1      3924 9.49821E-05-2.36159E-05-3.05646E-05 2.99214E-07 8.15617E-19-1.88038E-18
 -1      3925 9.53452E-05-2.46295E-05-3.02942E-05 4.31186E-07 1.28185E-18-1.66267E-18
 -1      3926 9.32400E-05-1.99513E-05-3.14074E-05-6.13549E-07-3.72509E-20-2.77578E-18
 -1      3927 9.04290E-05-2.35820E-05-2.86341E-05 4.07868E-06-7.30315E-19 4.51365E-19
 -1      3928 9.54516E-05-2.51011E-05-3.01507E-05-8.40636E-08 1.08222E-18-1.64669E-18
 -1      3929 9.53769E-05-2.50017E-05-3.01648E-05-2.34217E-07 8.97209E-19-1.56271E-18
 -1      3930 8.46444E-05-2.15985E-05-2.69919E-05-8.97536E-06-5.64105E-19-5.04247E-19
 -1      3931 9.49540E-05-2.66007E-05-2.92949E-05-2.75942E-06 3.76375E-19-8.17239E-19
 -1      3932 9.51513E-05-2.66341E-05-2.93657E-05-2.39057E-06 6.44099E-19-8.35707E-19
 -1      3933 9.46130E-05-2.62639E-05-2.92878E-05-2.60666E-06 3.67392E-19-7.22973E-19
 -1      3934 9.52411E-05-2.46500E-05-3.02657E-05-8.59696E-08 7.72318E-19-1.68172E-18
 -1      3935 9.50835E-05-2.42875E-05-3.03496E-05-9.01176E-08 5.25851E-19-1.75603E-18
 -1      3936 9.53991E-05-2.54058E-05-2.99852E-05-6.41107E-07 6.42230E-19-1.51449E-18
 -1      3937 9.45662E-05-2.61611E-05-2.93209E-05 1.96708E-06-6.23865E-19-1.43166E-18
 -1      3938 9.42535E-05-2.60745E-05-2.92198E-05 2.25666E-06-6.18562E-19-1.48908E-18
 -1      3939 9.38104E-05-2.59031E-05-2.91096E-05 2.49839E-06-3.65561E-19-1.42802E-18
 -1      3940 9.34235E-05-2.57167E-05-2.90159E-05 2.80525E-06-3.79578E-20-1.22924E-18
 -1      3941 9.38278E-05-2.57474E-05-2.91712E-05 1.94163E-06-4.81803E-19-8.21631E-19
 -1      3942 9.28817E-05-2.54587E-05-2.89042E-05 3.08911E-06 1.45120E-19-1.17439E-18
 -1      3943 9.24413E-05-2.52213E-05-2.88055E-05 3.43978E-06 8.27611E-20-1.06696E-18
 -1      3944 9.28494E-05-2.52973E-05-2.89437E-05 2.44061E-06 4.76576E-20-7.67661E-19
 -1      3945 9.18134E-05-2.49236E-05-2.86782E-05 3.79318E-06 8.25029E-20-1.03162E-18
 -1      3946 9.13438E-05-2.46886E-05-2.85612E-05 4.21651E-06-1.13104E-19-1.04104E-18
 -1      3947 9.16875E-05-2.47045E-05-2.86981E-05 3.04212E-06 1.12331E-19-1.19297E-18
 -1      3948 9.06430E-05-2.44034E-05-2.84030E-05 4.67336E-06-6.04226E-20-9.70792E-19
 -1      3949 9.01780E-05-2.42315E-05-2.82541E-05 5.20322E-06 1.32364E-19-9.74622E-19
 -1      3950 9.03642E-05-2.40627E-05-2.84040E-05 3.81084E-06 7.18386E-20-8.22400E-19
 -1      3951 8.94204E-05-2.40206E-05-2.80475E-05 5.81396E-06 8.08500E-20-9.19830E-19
 -1      3952 8.90173E-05-2.39952E-05-2.78523E-05 6.49539E-06 2.00687E-19-8.88748E-19
 -1      3953 8.89072E-05-2.34823E-05-2.80279E-05 4.82196E-06 1.02693E-19-5.42063E-19
 -1      3954 8.82319E-05-2.39404E-05-2.75775E-05 7.32487E-06 3.66993E-19-7.28218E-19
 -1      3955 8.79804E-05-2.41713E-05-2.73233E-05 8.21599E-06 3.26065E-19-7.70690E-19
 -1      3956 8.73610E-05-2.30948E-05-2.75305E-05 6.20398E-06 2.58562E-19-9.95466E-19
 -1      3957 8.72183E-05-2.43814E-05-2.69591E-05 9.35730E-06 1.61333E-19-8.94814E-19
 -1      3958 8.72597E-05-2.50161E-05-2.66373E-05 1.05333E-05 2.44995E-19-1.02821E-18
 -1      3959 8.57935E-05-2.30793E-05-2.68669E-05 8.12157E-06 1.72226E-19-9.46304E-19
 -1      3960 8.66261E-05-2.56025E-05-2.61874E-05 1.20317E-05 5.44987E-19-1.39198E-18
 -1      3961 8.71967E-05-2.68522E-05-2.58036E-05 1.35521E-05 8.82834E-19-1.39271E-18
 -1      3962 8.33058E-05-2.50524E-05-2.49376E-05 1.42667E-05 1.00122E-18-2.05312E-18
 -1      3963 8.43557E-05-2.36262E-05-2.60137E-05 1.07178E-05 4.17540E-19-1.50633E-18
 -1      3964 7.47914E-05-1.86250E-05-2.40737E-05 9.30281E-06-1.03178E-18-1.24811E-18
 -1      3965 6.91455E-05-1.60665E-05-2.25781E-05 6.62079E-06-1.04728E-18-3.44410E-19
 -1      3966 8.69729E-05-2.65297E-05-2.58634E-05-1.33559E-05-4.08004E-19-1.29341E-18
 -1      3967 8.63479E-05-2.52138E-05-2.62383E-05-1.17862E-05-1.01973E-18-1.85293E-18
 -1      3968 8.69321E-05-2.45462E-05-2.67008E-05-1.01893E-05-6.59770E-19-1.83894E-18
 -1      3969 8.68360E-05-2.38826E-05-2.70102E-05-9.00251E-06 8.99058E-20-1.89305E-18
 -1      3970 8.40347E-05-2.31963E-05-2.60575E-05-1.05244E-05-9.03675E-19-7.12465E-19
 -1      3971 8.75259E-05-2.36356E-05-2.73591E-05-7.84645E-06 2.39871E-19-2.15815E-18
 -1      3972 8.77175E-05-2.33747E-05-2.75992E-05-6.93340E-06 1.68612E-19-1.97804E-18
 -1      3973 8.53517E-05-2.25378E-05-2.69068E-05-7.82225E-06-8.51799E-20-6.71676E-19
 -1      3974 8.84169E-05-2.33918E-05-2.78548E-05-6.08849E-06 1.41549E-19-2.25821E-18
 -1      3975 8.87476E-05-2.33858E-05-2.80312E-05-5.38123E-06 7.14888E-20-1.63161E-18
 -1      3976 8.67643E-05-2.24829E-05-2.75343E-05-5.88694E-06 3.56644E-19-1.38533E-18
 -1      3977 8.94097E-05-2.35626E-05-2.82126E-05-4.74960E-06 4.48232E-19-9.16203E-19
 -1      3978 8.97921E-05-2.37113E-05-2.83356E-05-4.19339E-06 7.64526E-19-2.80192E-19
 -1      3979 8.81301E-05-2.27962E-05-2.79863E-05-4.47630E-06 6.68381E-19-6.05505E-19
 -1      3980 9.03937E-05-2.39783E-05-2.84595E-05-3.71283E-06 4.59805E-19-5.90394E-19
 -1      3981 9.07771E-05-2.42121E-05-2.85402E-05-3.26923E-06 3.23411E-19-5.58624E-19
 -1      3982 8.93918E-05-2.33255E-05-2.83017E-05-3.42592E-06 7.18412E-19-6.71920E-19
 -1      3983 9.13071E-05-2.45200E-05-2.86206E-05-2.89829E-06 1.08352E-20-8.69723E-19
 -1      3984 9.16631E-05-2.47911E-05-2.86694E-05-2.54117E-06-9.75755E-20-8.22413E-19
 -1      3985 9.05185E-05-2.39629E-05-2.85130E-05-2.62918E-06-8.10597E-20-1.50147E-18
 -1      3986 9.21181E-05-2.51063E-05-2.87180E-05-2.25200E-06 1.05107E-19-8.86356E-19
 -1      3987 9.24325E-05-2.53830E-05-2.87437E-05-1.96343E-06 8.51753E-19-1.48432E-18
 -1      3988 9.14976E-05-2.46333E-05-2.86470E-05-2.01592E-06 9.28041E-20-1.75249E-18
 -1      3989 9.28143E-05-2.56835E-05-2.87696E-05-1.73718E-06 1.00952E-18-1.45351E-18
 -1      3990 9.30814E-05-2.59454E-05-2.87792E-05-1.50431E-06 6.66656E-19-1.31993E-18
 -1      3991 9.23283E-05-2.52860E-05-2.87249E-05-1.53921E-06 1.27045E-19-1.72124E-18
 -1      3992 9.33944E-05-2.62166E-05-2.87897E-05-1.32775E-06 8.16165E-19-9.83299E-19
 -1      3993 9.36147E-05-2.64531E-05-2.87888E-05-1.13949E-06 7.33289E-19-1.71669E-18
 -1      3994 9.30184E-05-2.58891E-05-2.87637E-05-1.16866E-06 7.27482E-19-2.78114E-18
 -1      3995 7.89132E-05-2.01589E-05-2.51790E-05-9.86126E-06-2.87487E-19-1.25631E-18
 -1      3996 8.01932E-05-2.00744E-05-2.58279E-05-8.55807E-06-2.87637E-19-8.49081E-19
 -1      3997 8.45351E-05-2.06726E-05-2.74049E-05 5.69486E-06 1.03177E-18 9.36550E-19
 -1      3998 8.34924E-05-2.03676E-05-2.70584E-05 6.40027E-06 4.97853E-19 4.02621E-19
 -1      3999 8.67441E-05-2.15437E-05-2.79679E-05 4.68395E-06 6.05720E-19 9.84056E-19
 -1      4000 8.58514E-05-2.11448E-05-2.77363E-05 5.21662E-06 1.31334E-18 1.37574E-18
 -1      4001 8.41035E-05-2.02094E-05-2.73459E-05 4.19795E-06 1.08416E-18 8.32177E-20
 -1      4002 9.29655E-05-2.57494E-05-2.88142E-05 1.67185E-06 4.03492E-19 1.27943E-18
 -1      4003 9.26479E-05-2.54305E-05-2.88088E-05 1.90627E-06 8.55262E-19 9.98338E-19
 -1      4004 9.26741E-05-2.51845E-05-2.89218E-05-4.82828E-06 4.63414E-19-4.45756E-19
 -1      4005 9.30672E-05-2.54915E-05-2.89709E-05-4.42359E-06 5.05002E-19-3.08919E-19
 -1      4006 9.29063E-05-2.52965E-05-2.89668E-05-3.81452E-06 3.53445E-19-4.95902E-19
 -1      4007 9.17326E-05-2.45366E-05-2.87866E-05-4.48786E-06 4.72672E-19-5.95329E-19
 -1      4008 9.22015E-05-2.50598E-05-2.87839E-05 2.10648E-06 1.12481E-19 1.95376E-19
 -1      4009 9.17986E-05-2.46947E-05-2.87610E-05 2.38117E-06-6.68443E-19-2.59588E-20
 -1      4010 9.21043E-05-2.49954E-05-2.87512E-05 1.63941E-06-6.61700E-20 3.35024E-19
 -1      4011 9.12390E-05-2.42738E-05-2.87104E-05 2.61286E-06-8.09047E-19 2.22749E-19
 -1      4012 9.07352E-05-2.38684E-05-2.86603E-05 2.93111E-06-1.07132E-18-3.55429E-19
 -1      4013 9.11116E-05-2.41830E-05-2.86710E-05 2.01980E-06-7.35886E-19-3.35543E-19
 -1      4014 9.35622E-05-2.63366E-05-2.88170E-05 1.30563E-06-2.61490E-19 2.26816E-18
 -1      4015 9.33171E-05-2.60654E-05-2.88224E-05 1.50227E-06 3.42898E-19 1.59184E-18
 -1      4016 9.28932E-05-2.57042E-05-2.87880E-05 1.30960E-06 6.80594E-20 1.65184E-18
 -1      4017 9.39581E-05-2.67586E-05-2.88036E-05 1.01191E-06-5.06657E-19 1.15047E-18
 -1      4018 9.37660E-05-2.65297E-05-2.88142E-05 1.17049E-06-4.83266E-19 1.42676E-18
 -1      4019 9.34289E-05-2.62297E-05-2.87951E-05 1.02866E-06 1.61147E-19 1.53768E-20
 -1      4020 9.37963E-05-2.66193E-05-2.87887E-05 7.96612E-07-3.70014E-20-1.11573E-19
 -1      4021 7.04670E-05-1.86208E-05-2.21942E-05 1.08939E-05 3.51707E-19-1.82346E-18
 -1      4022 6.47486E-05-1.58870E-05-2.07225E-05 8.15508E-06-1.72831E-19-2.47334E-18
 -1      4023 6.49566E-05-1.54711E-05-2.12426E-05 3.17180E-06-3.34360E-19-1.99194E-18
 -1      4024 9.43471E-05-2.22742E-05-3.08999E-05 1.44192E-07 4.95098E-19-2.25210E-18
 -1      4025 9.43512E-05-2.22866E-05-3.08992E-05-1.42826E-07 1.09776E-19-2.22804E-18
 -1      4026 9.47755E-05-2.31651E-05-3.06683E-05 1.20079E-07 4.54137E-19-2.05392E-18
 -1      4027 9.41404E-05-2.70359E-05-2.87603E-05 2.23145E-07 5.76634E-19-3.33474E-18
 -1      4028 9.41877E-05-2.70802E-05-2.87636E-05 3.75322E-07 7.65098E-19-2.92994E-18
 -1      4029 9.39460E-05-2.67966E-05-2.87756E-05 5.02243E-07 3.72899E-19-1.81217E-18
 -1      4030 9.39697E-05-2.68465E-05-2.87643E-05 1.39781E-07 1.08174E-18-1.95380E-18
 -1      4031 8.18072E-05-1.99473E-05-2.65698E-05 7.06234E-06-2.70137E-19-1.59935E-19
 -1      4032 8.06114E-05-1.98471E-05-2.60700E-05 8.14988E-06-3.32566E-19-4.49061E-19
 -1      4033 8.11791E-05-1.91985E-05-2.65084E-05 5.12399E-06-2.38492E-19-1.45833E-18
 -1      4034 8.67704E-05-2.87178E-05-2.48225E-05-1.69027E-05 9.66848E-19-1.29801E-19
 -1      4035 8.61360E-05-2.72885E-05-2.52776E-05-1.51269E-05 5.63379E-19-8.12144E-19
 -1      4036 8.26390E-05-2.43273E-05-2.49525E-05-1.38302E-05-3.78157E-19-6.81772E-19
 -1      4037 8.08172E-05-2.57815E-05-2.34971E-05-1.79099E-05 1.51748E-19 1.04718E-18
 -1      4038 9.54953E-05-2.63539E-05-2.96284E-05-1.49027E-06 7.49647E-19-1.03914E-18
 -1      4039 9.54630E-05-2.59464E-05-2.97929E-05-1.12719E-06 6.80691E-19-1.27531E-18
 -1      4040 9.53404E-05-2.56160E-05-2.98850E-05-8.51766E-07 5.25314E-19-1.37353E-18
 -1      4041 9.53805E-05-2.65069E-05-2.95200E-05-1.90686E-06 7.14501E-19-9.65371E-19
 -1      4042 9.53795E-05-2.57238E-05-2.98547E-05 8.75625E-07-1.20042E-19-1.65789E-18
 -1      4043 9.52923E-05-2.59870E-05-2.97050E-05 1.21303E-06-3.68115E-19-1.58593E-18
 -1      4044 9.43854E-05-2.22936E-05-3.09078E-05-7.55986E-07-5.15332E-19-2.46310E-18
 -1      4045 6.55832E-05-1.69397E-05-2.05531E-05-1.22899E-05-1.18309E-18-2.25054E-18
 -1      4046 7.22557E-05-2.11815E-05-2.18570E-05-1.59620E-05-1.31219E-18-1.54251E-18
 -1      4047 7.34181E-05-2.03446E-05-2.28424E-05-1.39323E-05-9.73598E-19-1.74660E-18
 -1      4048 6.48462E-05-1.59499E-05-2.09667E-05-6.86411E-06-5.64038E-19-1.85200E-18
 -1      4049 8.85581E-05-2.24784E-05-2.83381E-05 3.87583E-06-7.21081E-19 4.11053E-20
 -1      4050 8.78068E-05-2.20430E-05-2.81892E-05 4.30951E-06-5.47337E-20 9.40863E-19
 -1      4051 8.64425E-05-2.12505E-05-2.79117E-05 3.49911E-06 6.24682E-19 4.27221E-19
 -1      4052 8.21942E-05-2.04559E-05-2.64550E-05-7.68972E-06-5.49891E-19-8.14324E-19
 -1      4053 8.33567E-05-2.06927E-05-2.68991E-05-6.85776E-06-4.91448E-19-8.27933E-19
 -1      4054 7.93643E-05-1.90805E-05-2.57715E-05-6.20801E-06-4.46571E-19-1.21807E-18
 -1      4055 7.72839E-05-1.90224E-05-2.50331E-05 8.33685E-06-4.68449E-19-8.93057E-19
 -1      4056 9.51082E-05-2.61382E-05-2.95617E-05 1.44147E-06-5.12806E-19-1.47720E-18
 -1      4057 9.48918E-05-2.61984E-05-2.94420E-05 1.74177E-06-5.46697E-19-1.36142E-18
 -1      4058 9.51038E-05-2.58484E-05-2.96758E-05 1.05964E-06-2.97176E-19-1.50319E-18
 -1      4059 6.62591E-05-1.53670E-05-2.18610E-05 1.64642E-06-1.09281E-18-8.66779E-19
 -1      4060 6.60629E-05-1.52362E-05-2.15911E-05-5.82526E-06-3.09233E-19 5.94366E-19
 -1      4061 7.04382E-05-1.76861E-05-2.25940E-05-8.72364E-06 3.37505E-19 1.64735E-19
 -1      4062 7.03681E-05-1.61183E-05-2.32612E-05 1.05071E-06-2.22528E-19-8.38556E-19
 -1      4063 9.00392E-05-2.34041E-05-2.85719E-05 3.19757E-06-1.03823E-18 5.37119E-19
 -1      4064 8.94187E-05-2.29718E-05-2.84814E-05 3.56599E-06-6.71756E-19-1.14103E-19
 -1      4065 8.98728E-05-2.32746E-05-2.85257E-05 2.44938E-06-1.20216E-19 8.45798E-19
 -1      4066 7.94341E-05-2.29240E-05-2.41775E-05 1.34118E-05 1.10964E-18-1.63085E-18
 -1      4067 7.45287E-05-2.02940E-05-2.31467E-05 1.24361E-05 7.91953E-19-1.58718E-18
 -1      4068 7.98963E-05-2.21705E-05-2.48180E-05 1.13761E-05 6.55944E-19-1.48490E-18
 -1      4069 9.53926E-05-2.54285E-05-2.99866E-05 6.71168E-07 3.95041E-21-1.67401E-18
 -1      4070 9.52833E-05-2.53704E-05-2.99556E-05 6.41321E-07 7.28092E-20-1.64099E-18
 -1      4071 9.53531E-05-2.50721E-05-3.01270E-05 3.71735E-07-4.98774E-20-1.87775E-18
 -1      4072 9.45919E-05-2.59605E-05-2.94074E-05 1.49667E-06-5.55385E-19-1.62369E-18
 -1      4073 8.83380E-05-2.22876E-05-2.82861E-05 2.93515E-06-3.29439E-19 1.76414E-18
 -1      4074 9.51662E-05-2.62567E-05-2.95296E-05-1.82415E-06 6.20264E-19-8.48835E-19
 -1      4075 7.63098E-05-1.78052E-05-2.49954E-05 5.58421E-06-8.02276E-19-1.44016E-18
 -1      4076 9.42897E-05-2.71428E-05-2.87804E-05-8.52037E-07 7.59418E-19-8.12032E-19
 -1      4077 9.38678E-05-2.66920E-05-2.87889E-05-1.00229E-06 1.35616E-19-1.69578E-18
 -1      4078 9.40488E-05-2.68950E-05-2.87818E-05-8.55083E-07 7.27792E-19-1.26512E-18
 -1      4079 9.40713E-05-2.69247E-05-2.87760E-05-7.54324E-07 5.45429E-19-2.06966E-18
 -1      4080 9.39498E-05-2.68255E-05-2.87698E-05-5.82196E-07 8.54474E-19-1.59063E-18
 -1      4081 9.51405E-05-2.40908E-05-3.04420E-05-1.52401E-07-3.94182E-19-2.08571E-18
 -1      4082 9.52757E-05-2.46289E-05-3.02812E-05 1.90535E-07-2.39988E-19-2.00945E-18
 -1      4083 9.52269E-05-2.46849E-05-3.02390E-05 2.49360E-07 1.48493E-19-1.62706E-18
 -1      4084 9.34062E-05-2.55621E-05-2.90783E-05-2.84807E-06-7.50110E-20-6.72681E-19
 -1      4085 9.38389E-05-2.58113E-05-2.91605E-05-2.56598E-06 1.14481E-19-6.48870E-19
 -1      4086 9.38592E-05-2.67433E-05-2.87646E-05-3.54690E-07 1.43203E-18-1.63383E-18
 -1      4087 9.38130E-05-2.67044E-05-2.87634E-05-1.54326E-07 1.75770E-18-1.00664E-18
 -1      4088 9.37132E-05-2.65791E-05-2.87700E-05-5.24300E-07 1.20977E-18-2.96139E-18
 -1      4089 7.25393E-05-1.85374E-05-2.32193E-05 8.82548E-06 4.55989E-19-1.45970E-18
 -1      4090 9.42984E-05-2.60213E-05-2.92634E-05-2.35345E-06 2.52694E-19-6.68287E-19
 -1      4091 9.46233E-05-2.61416E-05-2.93543E-05-2.05377E-06 4.02371E-19-8.03305E-19
 -1      4092 9.38930E-05-2.56934E-05-2.92214E-05-2.01303E-06 2.14272E-19-4.24017E-19
 -1      4093 9.44373E-05-2.24545E-05-3.08482E-05-4.94754E-07-3.46271E-19-2.16703E-18
 -1      4094 9.35764E-05-2.64240E-05-2.87760E-05-8.80602E-07 6.18287E-19-3.60804E-18
 -1      4095 9.50211E-05-2.41756E-05-3.03789E-05 1.84108E-08 3.88538E-19-1.97575E-18
 -1      4096 9.49842E-05-2.40418E-05-3.04032E-05-1.78178E-09 1.97940E-19-1.79797E-18
 -1      4097 9.52592E-05-2.49736E-05-3.01006E-05-2.60736E-07 3.05945E-19-1.63723E-18
 -1      4098 8.72690E-05-2.20793E-05-2.79411E-05-5.30369E-06-3.00886E-19-3.16260E-19
 -1      4099 8.81700E-05-2.25278E-05-2.81536E-05-4.85340E-06 1.30647E-19-5.27839E-19
 -1      4100 8.92426E-05-2.30650E-05-2.83644E-05-4.54522E-06 3.04879E-19-5.97728E-19
 -1      4101 9.00012E-05-2.35198E-05-2.85119E-05-4.18439E-06 2.56201E-19-4.76125E-19
 -1      4102 8.80482E-05-2.23525E-05-2.81270E-05-3.69082E-06 1.96281E-19-4.92617E-19
 -1      4103 7.71039E-05-2.25545E-05-2.34620E-05-1.47941E-05 2.14667E-19 4.31471E-19
 -1      4104 7.58072E-05-2.02969E-05-2.37680E-05-1.23569E-05-5.67528E-19-1.35990E-18
 -1      4105 7.69823E-05-2.00033E-05-2.44979E-05-1.08697E-05-3.65690E-19-1.07084E-18
 -1      4106 7.55066E-05-1.83758E-05-2.44303E-05-7.87543E-06-1.88992E-19-1.12953E-18
 -1      4107 7.13714E-05-1.78257E-05-2.27910E-05-9.87309E-06-5.84155E-19-1.37155E-18
 -1      4108 8.49375E-05-2.11660E-05-2.73319E-05-6.29451E-06-4.20768E-19-6.59395E-19
 -1      4109 8.59764E-05-2.15508E-05-2.76404E-05-5.70612E-06-3.61393E-19-3.49908E-19
 -1      4110 8.57066E-05-2.12268E-05-2.76024E-05-4.27612E-06-2.16652E-19-4.10344E-19
 -1      4111 9.37565E-05-2.08525E-05-3.12279E-05-6.24718E-07-1.35314E-19-2.61450E-18
 -1      4112 8.28778E-05-2.01211E-05-2.68523E-05-5.06008E-06-4.25900E-19-1.09793E-18
 -1      4113 9.28840E-05-2.57618E-05-2.87728E-05 9.06124E-07 5.82078E-19-1.06453E-18
 -1      4114 9.25308E-05-2.54290E-05-2.87616E-05 1.03521E-06-2.14371E-19-4.73159E-19
 -1      4115 9.46592E-05-2.58721E-05-2.94832E-05 9.77975E-07-3.58743E-19-1.61586E-18
 -1      4116 9.43297E-05-2.58323E-05-2.93577E-05 1.18568E-06-4.80218E-19-1.41973E-18
 -1      4117 9.28723E-05-2.52464E-05-2.89925E-05 1.69778E-06-4.14348E-20-8.54119E-19
 -1      4118 9.23375E-05-2.49600E-05-2.88747E-05 1.95001E-06 7.35421E-20-9.48650E-19
 -1      4119 9.16368E-05-2.46090E-05-2.87385E-05 2.16423E-06 6.01774E-21-8.76914E-19
 -1      4120 9.10095E-05-2.42643E-05-2.86038E-05 2.47273E-06-6.41439E-20-1.06807E-18
 -1      4121 9.17448E-05-2.45399E-05-2.87882E-05 1.38496E-06 8.87043E-20-8.55112E-19
 -1      4122 9.01955E-05-2.38703E-05-2.84392E-05 2.75792E-06 1.85702E-19-1.03493E-18
 -1      4123 8.94802E-05-2.35138E-05-2.82713E-05 3.14637E-06 3.26320E-19-8.08190E-19
 -1      4124 9.02678E-05-2.37529E-05-2.84846E-05 1.84675E-06 7.20404E-20-5.82983E-19
 -1      4125 8.85157E-05-2.30976E-05-2.80592E-05 3.57467E-06 2.36049E-19-8.46709E-19
 -1      4126 8.77607E-05-2.27871E-05-2.78397E-05 4.10784E-06-1.05023E-20-6.63321E-19
 -1      4127 8.84552E-05-2.28160E-05-2.80979E-05 2.50474E-06 3.27395E-19-1.22634E-18
 -1      4128 8.66373E-05-2.24252E-05-2.75535E-05 4.69124E-06-1.07762E-19-9.03906E-19
 -1      4129 8.58534E-05-2.22220E-05-2.72599E-05 5.42500E-06 1.70421E-19-1.15553E-18
 -1      4130 8.64339E-05-2.19418E-05-2.75897E-05 3.40330E-06-6.18222E-20-1.24619E-18
 -1      4131 8.45260E-05-2.19431E-05-2.68687E-05 6.26729E-06 2.79693E-19-1.30070E-18
 -1      4132 8.37506E-05-2.19431E-05-2.64728E-05 7.31537E-06 8.64437E-20-1.25886E-18
 -1      4133 8.40434E-05-2.11316E-05-2.68979E-05 4.68805E-06 5.58711E-20-1.37871E-18
 -1      4134 8.12108E-05-1.94788E-05-2.64811E-05-3.30673E-06-4.75434E-19-9.21581E-19
 -1      4135 8.28225E-05-2.00534E-05-2.69344E-05-2.98736E-06-1.01058E-19-8.45511E-19
 -1      4136 8.33428E-05-2.14255E-05-2.65192E-05-7.09383E-06-8.46830E-19 9.41957E-19
 -1      4137 8.40516E-05-2.13982E-05-2.68986E-05-6.06904E-06 1.44485E-19-5.19503E-20
 -1      4138 8.52672E-05-2.16220E-05-2.72694E-05-5.20368E-06 1.98417E-19-1.75093E-19
 -1      4139 8.59716E-05-2.17854E-05-2.75426E-05-4.47682E-06 8.44001E-20 2.30846E-19
 -1      4140 8.34954E-05-2.05151E-05-2.69130E-05-4.48070E-06 7.79891E-20 1.03676E-18
 -1      4141 8.69873E-05-2.21050E-05-2.78040E-05-3.86740E-06 5.64110E-19-2.19093E-19
 -1      4142 8.76527E-05-2.23838E-05-2.79972E-05-3.33452E-06 1.05950E-18-9.28591E-19
 -1      4143 8.56865E-05-2.12403E-05-2.75601E-05-3.20587E-06-9.20156E-20-4.02618E-19
 -1      4144 8.85070E-05-2.27587E-05-2.81776E-05-2.89886E-06 3.42087E-19-1.73766E-18
 -1      4145 8.91108E-05-2.30977E-05-2.83097E-05-2.49967E-06 5.20265E-20-2.19016E-18
 -1      4146 8.75259E-05-2.20620E-05-2.80111E-05-2.31004E-06 4.13776E-19-1.27357E-18
 -1      4147 8.98283E-05-2.34931E-05-2.84305E-05-2.18412E-06 1.63649E-19-2.30913E-18
 -1      4148 9.03602E-05-2.38534E-05-2.85167E-05-1.87947E-06-1.08443E-19-2.34995E-18
 -1      4149 8.90763E-05-2.29205E-05-2.83183E-05-1.67414E-06-2.66471E-19-4.17922E-18
 -1      4150 9.09583E-05-2.42429E-05-2.85940E-05-1.64890E-06 7.88593E-21-2.10657E-18
 -1      4151 9.14149E-05-2.45972E-05-2.86467E-05-1.41301E-06 2.05404E-19-1.76117E-18
 -1      4152 9.03769E-05-2.37683E-05-2.85203E-05-1.21812E-06 2.45837E-19-4.05066E-18
 -1      4153 9.19075E-05-2.49621E-05-2.86927E-05-1.24327E-06 5.69601E-20-1.64776E-18
 -1      4154 9.22915E-05-2.52931E-05-2.87215E-05-1.05854E-06 4.31061E-19-1.55234E-18
 -1      4155 9.14569E-05-2.45693E-05-2.86463E-05-8.89078E-07 4.77015E-19-2.16738E-18
 -1      4156 9.26920E-05-2.56219E-05-2.87459E-05-9.31671E-07 1.00763E-19-2.08685E-18
 -1      4157 9.30103E-05-2.59193E-05-2.87583E-05-7.86624E-07-1.35624E-19-2.85710E-18
 -1      4158 9.23395E-05-2.53014E-05-2.87184E-05-6.52462E-07 9.03426E-21-7.92207E-20
 -1      4159 7.50984E-05-1.86679E-05-2.41531E-05 6.64362E-06 5.64247E-19-1.05498E-18
 -1      4160 7.15613E-05-1.70319E-05-2.32930E-05 5.21438E-06 2.15830E-19-1.32870E-18
 -1      4161 7.93008E-05-2.24625E-05-2.43343E-05-1.29962E-05-4.34162E-19 4.39455E-19
 -1      4162 8.01034E-05-2.20981E-05-2.49738E-05-1.14729E-05-7.85194E-19 7.08859E-19
 -1      4163 7.53590E-05-2.00959E-05-2.35216E-05-1.19879E-05 3.68889E-20 1.01559E-18
 -1      4164 9.28186E-05-2.52256E-05-2.89759E-05-3.06115E-06 5.61683E-20-6.08949E-19
 -1      4165 9.28587E-05-2.51464E-05-2.90088E-05-2.41202E-06-1.43946E-20-3.99104E-19
 -1      4166 9.22750E-05-2.48735E-05-2.88896E-05-3.35338E-06 3.79478E-19-6.21197E-19
 -1      4167 7.74763E-05-1.79608E-05-2.55301E-05 3.10516E-06-5.50059E-19-1.44803E-18
 -1      4168 7.38517E-05-1.69375E-05-2.44915E-05 2.68581E-06 1.02594E-19-1.25248E-18
 -1      4169 8.44265E-05-2.06902E-05-2.73367E-05-2.90716E-06-3.85036E-20-9.46809E-19
 -1      4170 8.57403E-05-2.12714E-05-2.76523E-05-2.68023E-06 3.53037E-20-5.14791E-19
 -1      4171 8.32314E-05-2.00676E-05-2.70059E-05-1.22225E-06-5.07566E-20-9.50075E-19
 -1      4172 8.40156E-05-2.01759E-05-2.73913E-05 2.52062E-06 8.60781E-19-7.69599E-19
 -1      4173 8.26567E-05-1.96368E-05-2.70420E-05 2.78472E-06-2.76022E-20-1.17331E-18
 -1      4174 9.20904E-05-2.50584E-05-2.87360E-05 1.12891E-06-2.11056E-19 3.07875E-19
 -1      4175 9.16452E-05-2.46739E-05-2.87069E-05 1.27698E-06 7.31044E-20-1.73308E-19
 -1      4176 9.21520E-05-2.50914E-05-2.87226E-05 7.17051E-07 4.89277E-19-2.36035E-18
 -1      4177 8.83110E-05-2.23473E-05-2.82865E-05 1.91654E-06-5.20583E-19 1.36243E-18
 -1      4178 8.74468E-05-2.18324E-05-2.81341E-05 2.10257E-06-5.17006E-19 9.33394E-19
 -1      4179 9.10945E-05-2.42513E-05-2.86573E-05 1.37496E-06-1.91594E-19 7.63216E-19
 -1      4180 9.05357E-05-2.38162E-05-2.86011E-05 1.53660E-06 1.66263E-19 1.61172E-18
 -1      4181 9.11816E-05-2.42864E-05-2.86444E-05 8.48850E-07 6.46617E-19 4.42786E-19
 -1      4182 8.10985E-05-1.90704E-05-2.66236E-05 2.75565E-06-5.46838E-19-1.02377E-18
 -1      4183 7.93797E-05-1.85654E-05-2.61133E-05 3.12061E-06-1.05139E-18-1.56693E-18
 -1      4184 7.79445E-05-1.76882E-05-2.56755E-05 4.70513E-07-4.98815E-19-1.73441E-18
 -1      4185 8.14868E-05-1.89329E-05-2.66917E-05 9.84674E-07-7.57597E-19-2.02605E-18
 -1      4186 9.49154E-05-2.36333E-05-3.05457E-05 1.85810E-08 4.06818E-20-1.83846E-18
 -1      4187 9.46003E-05-2.28836E-05-3.07447E-05-1.87507E-07-7.56498E-20-2.09029E-18
 -1      4188 8.98520E-05-2.33429E-05-2.85166E-05 1.63926E-06 3.27514E-19 1.46178E-18
 -1      4189 8.91553E-05-2.28628E-05-2.84209E-05 1.81269E-06 3.73195E-19 1.76630E-18
 -1      4190 8.99666E-05-2.33745E-05-2.85065E-05 9.73469E-07 3.35107E-19 2.34636E-18
 -1      4191 8.64016E-05-2.12849E-05-2.79292E-05 2.20559E-06 2.85427E-19-1.66606E-19
 -1      4192 8.53289E-05-2.07487E-05-2.76962E-05 2.41379E-06 1.24768E-18 2.90028E-19
 -1      4193 8.42954E-05-2.01231E-05-2.74221E-05 1.16780E-06-8.97656E-21-9.57205E-19
 -1      4194 6.89770E-05-1.62933E-05-2.25607E-05 2.24698E-06 2.51370E-19-1.78222E-18
 -1      4195 6.59493E-05-1.50893E-05-2.16122E-05-2.08763E-06-2.33576E-19-1.67243E-18
 -1      4196 6.87847E-05-1.66521E-05-2.23523E-05-6.71566E-06-5.79968E-19-1.39766E-18
 -1      4197 7.17594E-05-1.67684E-05-2.36000E-05 5.13936E-07 1.03194E-19-1.44627E-18
 -1      4198 9.32527E-05-2.61330E-05-2.87659E-05-7.04172E-07 2.34752E-19-3.08183E-18
 -1      4199 9.35096E-05-2.63900E-05-2.87682E-05-5.92669E-07 1.20279E-18-2.91236E-18
 -1      4200 9.34245E-05-2.63078E-05-2.87627E-05-3.43052E-07 9.22957E-19-1.73232E-18
 -1      4201 9.29857E-05-2.58820E-05-2.87517E-05-4.74787E-07-3.74271E-20-9.72345E-19
 -1      4202 7.72402E-05-1.83044E-05-2.52654E-05-3.94378E-06-3.34211E-19-1.23909E-18
 -1      4203 7.91512E-05-1.88475E-05-2.59006E-05-3.47056E-06-5.47382E-19-1.14407E-18
 -1      4204 7.95805E-05-1.86921E-05-2.60179E-05-1.08729E-06-1.92147E-19-1.09142E-18
 -1      4205 9.51228E-05-2.56631E-05-2.97719E-05 6.51131E-07-1.22567E-19-1.77457E-18
 -1      4206 9.49357E-05-2.58201E-05-2.96240E-05 8.66249E-07-2.82200E-19-1.83625E-18
 -1      4207 9.47218E-05-2.57088E-05-2.95722E-05 5.65512E-07-2.48313E-19-1.69582E-18
 -1      4208 8.15011E-05-2.17667E-05-2.55687E-05-9.73401E-06-7.75548E-19 7.98185E-19
 -1      4209 8.21044E-05-2.14335E-05-2.60761E-05-8.27134E-06-7.60184E-19 7.80481E-19
 -1      4210 8.11228E-05-2.00283E-05-2.60707E-05-6.27533E-06-6.14421E-19 1.70005E-18
 -1      4211 7.85538E-05-1.98863E-05-2.50011E-05-8.83166E-06-3.60730E-19 1.19989E-18
 -1      4212 9.49902E-05-2.61350E-05-2.95104E-05-1.68661E-06 3.93822E-19-8.86083E-19
 -1      4213 9.52118E-05-2.59780E-05-2.96749E-05-1.20218E-06 3.50545E-19-1.22643E-18
 -1      4214 9.47098E-05-2.59022E-05-2.94854E-05-1.44565E-06 2.77861E-19-8.33034E-19
 -1      4215 9.51845E-05-2.55271E-05-2.98549E-05-7.42759E-07 3.58908E-19-1.28784E-18
 -1      4216 9.38870E-05-2.56972E-05-2.92317E-05 1.31586E-06-3.29555E-19-1.03860E-18
 -1      4217 9.34488E-05-2.55111E-05-2.91164E-05 1.53523E-06-8.96519E-20-7.80534E-19
 -1      4218 9.39939E-05-2.55948E-05-2.93035E-05 7.96783E-07-1.00715E-19-1.18697E-18
 -1      4219 9.51610E-05-2.45221E-05-3.02723E-05 3.30986E-08 1.11552E-19-1.67706E-18
 -1      4220 7.34373E-05-1.73235E-05-2.40637E-05-4.92101E-06-2.03673E-19-1.38502E-18
 -1      4221 7.39746E-05-1.72009E-05-2.42741E-05-1.84831E-06-6.15853E-20-1.62317E-18
 -1      4222 8.22826E-05-2.18052E-05-2.59818E-05 8.42126E-06 1.23372E-19-1.09640E-18
 -1      4223 8.16341E-05-2.20910E-05-2.54878E-05 9.84322E-06 4.37334E-19-1.38216E-18
 -1      4224 7.83178E-05-2.02561E-05-2.48180E-05 8.80652E-06 3.67024E-19-1.06476E-18
 -1      4225 8.13185E-05-2.05318E-05-2.59917E-05 6.42665E-06 2.86165E-19-8.33282E-19
 -1      4226 7.25119E-05-1.79176E-05-2.35145E-05-7.43188E-06-3.18365E-20 5.64091E-19
 -1      4227 7.67249E-05-1.88882E-05-2.48484E-05 5.42761E-06 3.07304E-19-9.88956E-19
 -1      4228 8.66050E-05-2.12797E-05-2.79381E-05 1.14808E-06-5.89605E-19-3.45651E-19
 -1      4229 9.29951E-05-2.51810E-05-2.90507E-05 1.05475E-06-5.27585E-20-1.03909E-18
 -1      4230 8.60597E-05-2.13318E-05-2.76976E-05-1.31133E-06-8.20410E-20-5.80975E-19
 -1      4231 8.70157E-05-2.18670E-05-2.79363E-05-2.60916E-06-1.08427E-20-6.25854E-19
 -1      4232 8.80575E-05-2.24158E-05-2.81573E-05-2.39327E-06 7.69671E-20-8.20251E-19
 -1      4233 9.33517E-05-2.62091E-05-2.87793E-05 6.94410E-07 7.86432E-19-9.70345E-19
 -1      4234 9.31487E-05-2.59974E-05-2.87798E-05 8.14561E-07 7.69646E-19-7.85416E-19
 -1      4235 9.28550E-05-2.57411E-05-2.87585E-05 5.45980E-07 4.68872E-19-3.51142E-18
 -1      4236 9.35847E-05-2.64659E-05-2.87647E-05-1.30607E-07 1.08214E-18-1.80183E-18
 -1      4237 9.37875E-05-2.66701E-05-2.87635E-05-6.90880E-10 1.86255E-18-1.51772E-18
 -1      4238 9.37378E-05-2.66205E-05-2.87666E-05 1.76706E-07 1.08181E-18-2.33427E-18
 -1      4239 9.33763E-05-2.62712E-05-2.87618E-05-1.81431E-07 7.35495E-20-9.51316E-19
 -1      4240 7.26109E-05-1.64131E-05-2.39407E-05-1.79428E-06-2.63857E-19-6.95966E-19
 -1      4241 8.84629E-05-2.23675E-05-2.82830E-05 1.07842E-06-4.17233E-19 8.95812E-20
 -1      4242 9.35352E-05-2.54825E-05-2.91706E-05-1.58482E-06 1.20297E-19-6.58948E-19
 -1      4243 9.39985E-05-2.56929E-05-2.92808E-05-1.39691E-06 2.18511E-19-7.01437E-19
 -1      4244 9.37501E-05-2.66112E-05-2.87775E-05 5.42697E-07-2.74973E-21-1.19731E-18
 -1      4245 9.35799E-05-2.64237E-05-2.87815E-05 6.44673E-07 5.45515E-19-8.24747E-19
 -1      4246 9.33428E-05-2.62078E-05-2.87693E-05 4.27885E-07 4.77858E-19-2.12733E-18
 -1      4247 9.37501E-05-2.66150E-05-2.87702E-05 3.52346E-07 7.32789E-19-2.26613E-18
 -1      4248 9.08912E-05-2.40109E-05-2.86653E-05-3.90124E-06 5.19817E-19-4.04114E-19
 -1      4249 9.15471E-05-2.44361E-05-2.87724E-05-3.57944E-06 6.18713E-19-4.04359E-19
 -1      4250 9.15565E-05-2.43619E-05-2.87802E-05-2.80761E-06 3.72173E-19-6.52837E-19
 -1      4251 8.99233E-05-2.33749E-05-2.84990E-05-3.21286E-06 3.50500E-19-3.57817E-19
 -1      4252 9.23532E-05-2.48540E-05-2.89395E-05-1.86329E-06 1.59186E-19-8.63930E-19
 -1      4253 9.29616E-05-2.51910E-05-2.90509E-05-1.68009E-06 2.20054E-19-6.20041E-19
 -1      4254 9.31370E-05-2.51897E-05-2.91077E-05-1.04598E-06 1.85405E-19-8.49249E-19
 -1      4255 9.52567E-05-2.51772E-05-3.00266E-05 3.95030E-07 1.69076E-19-1.62557E-18
 -1      4256 9.52328E-05-2.54814E-05-2.98957E-05 5.60780E-07-9.06387E-20-1.71505E-18
 -1      4257 9.50873E-05-2.54633E-05-2.98382E-05 3.60855E-07-6.92516E-21-1.72010E-18
 -1      4258 9.49978E-05-2.57218E-05-2.96793E-05-7.32441E-07-5.80966E-20-1.24214E-18
 -1      4259 9.51359E-05-2.54244E-05-2.98838E-05-4.34105E-07 1.81638E-19-1.60315E-18
 -1      4260 9.50959E-05-2.53000E-05-2.99108E-05-1.89952E-07 9.69425E-20-1.56781E-18
 -1      4261 7.13839E-05-1.70577E-05-2.33078E-05-5.71092E-06-3.01512E-19-1.42329E-18
 -1      4262 9.51729E-05-2.50855E-05-3.00472E-05 1.37300E-07 1.68068E-19-1.68997E-18
 -1      4263 9.51858E-05-2.47582E-05-3.01775E-05 2.28578E-07 3.06506E-20-1.63951E-18
 -1      4264 7.96036E-05-1.92813E-05-2.59090E-05 2.50371E-06 2.45489E-19-1.13195E-18
 -1      4265 7.80952E-05-1.89063E-05-2.53749E-05 3.26993E-06 2.83136E-19-1.15137E-18
 -1      4266 8.68195E-05-2.16756E-05-2.79546E-05-7.75965E-07-3.68511E-19-8.23500E-19
 -1      4267 8.57444E-05-2.11291E-05-2.77377E-05-8.40075E-07-4.37007E-19-7.73194E-19
 -1      4268 7.56948E-05-1.82872E-05-2.46363E-05-5.15357E-06-3.68873E-19-9.42820E-20
 -1      4269 9.03735E-05-2.37874E-05-2.85591E-05 8.08618E-07 1.68837E-19-1.11521E-18
 -1      4270 8.95234E-05-2.33226E-05-2.83879E-05 1.07723E-06 2.23976E-19-1.10987E-18
 -1      4271 8.82005E-05-2.25987E-05-2.81301E-05 4.78257E-07 1.32962E-19-9.15206E-19
 -1      4272 8.71588E-05-2.20978E-05-2.79024E-05 7.69355E-07-8.78416E-20-1.10191E-18
 -1      4273 8.58552E-05-2.15173E-05-2.76141E-05 8.90775E-07-5.46105E-21-1.17440E-18
 -1      4274 8.46661E-05-2.10107E-05-2.73085E-05 1.32274E-06-9.92819E-20-1.15053E-18
 -1      4275 8.30606E-05-2.04169E-05-2.69053E-05 1.52286E-06-1.29029E-19-1.10729E-18
 -1      4276 8.16676E-05-1.99425E-05-2.64854E-05 2.15819E-06 1.20354E-19-1.00047E-18
 -1      4277 9.49389E-05-2.56018E-05-2.97124E-05 6.54801E-08-3.53470E-20-1.59498E-18
 -1      4278 9.46587E-05-2.56790E-05-2.95676E-05 1.22085E-07-1.51152E-19-1.60975E-18
 -1      4279 8.20172E-05-1.97289E-05-2.67578E-05-2.04519E-06-2.70778E-19-4.66571E-19
 -1      4280 8.33200E-05-2.01234E-05-2.71466E-05-1.41071E-06-2.84510E-19-5.67826E-19
 -1      4281 8.46679E-05-2.06925E-05-2.74661E-05-1.28497E-06-4.03768E-19-1.58905E-19
 -1      4282 8.77135E-05-2.21277E-05-2.81411E-05-4.66694E-07-3.82395E-19-1.52007E-18
 -1      4283 8.85804E-05-2.26456E-05-2.82849E-05-4.44690E-07-5.49824E-19-1.91049E-18
 -1      4284 8.93242E-05-2.30916E-05-2.84094E-05-2.28688E-07 1.22096E-19-1.79347E-18
 -1      4285 9.00255E-05-2.35714E-05-2.85013E-05-2.35195E-07 6.41784E-19-1.67735E-18
 -1      4286 9.06416E-05-2.39938E-05-2.85809E-05-8.38837E-08 5.77917E-19-1.39979E-18
 -1      4287 9.12078E-05-2.44271E-05-2.86363E-05-1.07223E-07 1.05947E-18-2.41114E-18
 -1      4288 9.17148E-05-2.48139E-05-2.86840E-05-1.21723E-09 9.67467E-19-1.63490E-18
 -1      4289 9.21682E-05-2.51922E-05-2.87140E-05-3.00843E-08 3.27708E-19-1.89025E-18
 -1      4290 9.25823E-05-2.55357E-05-2.87395E-05 3.61057E-08 6.67218E-20-1.37221E-18
 -1      4291 8.93365E-05-2.31046E-05-2.83913E-05-1.65104E-06 4.37551E-19-8.92717E-19
 -1      4292 9.02164E-05-2.36184E-05-2.85520E-05-1.52305E-06 4.74205E-19-9.03112E-19
 -1      4293 8.04198E-05-1.92057E-05-2.63278E-05-2.39670E-06-3.84296E-19-2.05245E-19
 -1      4294 9.50615E-05-2.54578E-05-2.98326E-05-3.93194E-09 3.94319E-20-1.56970E-18
 -1      4295 9.29975E-05-2.51733E-05-2.90782E-05-5.93350E-08-5.11442E-20-1.11544E-18
 -1      4296 9.24157E-05-2.48678E-05-2.89513E-05 4.16942E-08 1.31248E-20-1.07311E-18
 -1      4297 9.43722E-05-2.57891E-05-2.93905E-05-1.21644E-06 2.04157E-19-8.63096E-19
 -1      4298 9.47412E-05-2.58009E-05-2.95534E-05-8.78522E-07 4.66851E-20-1.06503E-18
 -1      4299 9.46879E-05-2.56790E-05-2.95768E-05-4.90995E-07-1.28349E-19-1.21390E-18
 -1      4300 9.40669E-05-2.55860E-05-2.93409E-05-7.97950E-07 8.50832E-20-1.00782E-18
 -1      4301 9.09572E-05-2.40423E-05-2.86928E-05-1.81920E-06 9.89853E-20-7.81717E-19
 -1      4302 9.17147E-05-2.44762E-05-2.88224E-05-1.66164E-06-3.03081E-20-9.96794E-19
 -1      4303 9.19357E-05-2.45346E-05-2.88685E-05-8.99870E-07 1.22591E-20-1.04890E-18
 -1      4304 9.05830E-05-2.37732E-05-2.86115E-05-3.41702E-07 2.78736E-19-1.23079E-18
 -1      4305 7.70879E-05-1.84450E-05-2.52548E-05-3.90164E-06-4.86321E-19-3.85069E-19
 -1      4306 9.40206E-05-2.55970E-05-2.93308E-05-1.03967E-07-2.77716E-20-1.27413E-18
 -1      4307 9.35660E-05-2.54350E-05-2.92028E-05-2.42143E-08 3.74982E-21-1.14265E-18
 -1      4308 7.55868E-05-1.76370E-05-2.48441E-05 1.04136E-06 6.47004E-20-1.44924E-18
 -1      4309 9.43870E-05-2.56849E-05-2.94438E-05 1.73131E-08-9.09933E-20-1.53991E-18
 -1      4310 9.11091E-05-2.41555E-05-2.86951E-05 4.46380E-07 2.70046E-19-9.84697E-19
 -1      4311 8.86193E-05-2.26817E-05-2.82308E-05-6.25421E-07 1.96277E-19-9.54461E-19
 -1      4312 7.91271E-05-1.89624E-05-2.58582E-05-3.31588E-06-4.73626E-19 8.01339E-20
 -1      4313 9.28634E-05-2.57606E-05-2.87535E-05 3.70962E-07-1.12535E-19-3.14375E-18
 -1      4314 9.29186E-05-2.58494E-05-2.87490E-05-2.13299E-07-9.66370E-20-1.02114E-18
 -1      4315 9.31687E-05-2.60703E-05-2.87583E-05-1.44512E-07-1.10079E-19-8.06313E-19
 -1      4316 9.35508E-05-2.64253E-05-2.87678E-05 2.06273E-07 1.50753E-18-1.96414E-18
 -1      4317 9.17966E-05-2.45511E-05-2.88347E-05 2.96104E-07 1.26404E-19-1.20402E-18
 -1      4318 9.33585E-05-2.62430E-05-2.87620E-05 7.22137E-08-4.89701E-20-1.26972E-18
 -1      4319 9.33316E-05-2.62108E-05-2.87652E-05 2.34876E-07 5.29671E-19-1.78894E-18
 -1      4320 9.31314E-05-2.60183E-05-2.87627E-05 2.97726E-07-2.17614E-20-3.02321E-18
 -3
    1PSTEP                         4           1           1          
  100CL  101 1.000000000        4320                     0    1           1
 -4  ERROR       1    1
 -5  STR(%)      1    1    0    0
 -1         1 2.91053E+01
 -1         2 2.53409E+01
 -1         3 5.37763E-03
 -1         4 6.15614E-03
 -1         5 1.40325E+01
 -1         6 1.31355E+01
 -1         7 1.31355E+01
 -1         8 3.62880E+00
 -1         9 1.79737E+00
 -1        10 1.27991E+00
 -1        11 1.03466E+00
 -1        12 8.86619E-01
 -1        13 7.94082E-01
 -1        14 7.37653E-01
 -1        15 7.39803E-01
 -1        16 7.98505E-01
 -1        17 8.88235E-01
 -1        18 1.04126E+00
 -1        19 1.29592E+00
 -1        20 1.80850E+00
 -1        21 3.47016E+00
 -1        22 8.61083E+00
 -1        23 1.31355E+01
 -1        24 4.34404E+00
 -1        25 3.36493E+00
 -1        26 2.13668E+00
 -1        27 1.41334E+00
 -1        28 1.08795E+00
 -1        29 8.63589E-01
 -1        30 6.98667E-01
 -1        31 5.71734E-01
 -1        32 4.70349E-01
 -1        33 4.42497E-01
 -1        34 4.81564E-01
 -1        35 5.16542E-01
 -1        36 5.49993E-01
 -1        37 7.06127E-01
 -1        38 8.67137E-01
 -1        39 9.86831E-01
 -1        40 1.00766E+00
 -1        41 1.02023E+00
 -1        42 1.02023E+00
 -1        43 1.19197E+00
 -1        44 1.46668E+00
 -1        45 2.54302E+00
 -1        46 3.20801E+00
 -1        47 3.20801E+00
 -1        48 3.19825E+00
 -1        49 3.19825E+00
 -1        50 2.50862E+00
 -1        51 1.46421E+00
 -1        52 1.18117E+00
 -1        53 1.02144E+00
 -1        54 1.01593E+00
 -1        55 9.91501E-01
 -1        56 9.63231E-01
 -1        57 8.40239E-01
 -1        58 6.80101E-01
 -1        59 5.43193E-01
 -1        60 4.28460E-01
 -1        61 3.71402E-01
 -1        62 3.08426E-01
 -1        63 2.47206E-01
 -1        64 1.92027E-01
 -1        65 1.44781E-01
 -1        66 1.05789E-01
 -1        67 8.99335E-02
 -1        68 7.36977E-02
 -1        69 5.69269E-02
 -1        70 3.84494E-02
 -1        71 2.03725E-02
 -1        72 1.40325E+01
 -1        73 3.42282E+00
 -1        74 2.44259E+00
 -1        75 1.69913E+00
 -1        76 1.19611E+00
 -1        77 9.99712E-01
 -1        78 8.51017E-01
 -1        79 7.39042E-01
 -1        80 6.56321E-01
 -1        81 5.98229E-01
 -1        82 5.60378E-01
 -1        83 5.76330E-01
 -1        84 6.62888E-01
 -1        85 7.51329E-01
 -1        86 8.23249E-01
 -1        87 8.48633E-01
 -1        88 9.87306E-01
 -1        89 1.27689E+00
 -1        90 1.47906E+00
 -1        91 1.68358E+00
 -1        92 1.93918E+00
 -1        93 2.05115E+00
 -1        94 2.55058E+00
 -1        95 3.91807E+00
 -1        96 4.34926E+00
 -1        97 4.87512E+00
 -1        98 4.87512E+00
 -1        99 3.60619E+00
 -1       100 1.99302E+00
 -1       101 1.45574E+00
 -1       102 1.67381E+00
 -1       103 1.72131E+00
 -1       104 1.72131E+00
 -1       105 1.55384E+00
 -1       106 1.30816E+00
 -1       107 1.08659E+00
 -1       108 8.62312E-01
 -1       109 6.59018E-01
 -1       110 4.86932E-01
 -1       111 3.64311E-01
 -1       112 2.80020E-01
 -1       113 2.10299E-01
 -1       114 1.54291E-01
 -1       115 1.10261E-01
 -1       116 7.61214E-02
 -1       117 5.46224E-02
 -1       118 4.41347E-02
 -1       119 3.11979E-02
 -1       120 1.86687E-02
 -1       121 5.47091E-03
 -1       122 6.90456E-03
 -1       123 6.90456E-03
 -1       124 5.38699E-03
 -1       125 2.29703E-03
 -1       126 4.44899E-03
 -1       127 6.23791E-03
 -1       128 6.81472E-03
 -1       129 6.81472E-03
 -1       130 6.21613E-03
 -1       131 4.37794E-03
 -1       132 2.17786E-03
 -1       133 5.27926E-03
 -1       134 6.59298E-03
 -1       135 6.76871E-03
 -1       136 7.51562E-03
 -1       137 2.46704E+01
 -1       138 4.83441E+01
 -1       139 4.83441E+01
 -1       140 2.28610E+01
 -1       141 1.21079E+01
 -1       142 1.26407E+01
 -1       143 1.26407E+01
 -1       144 1.23708E+01
 -1       145 1.21881E+01
 -1       146 1.20965E+01
 -1       147 2.14105E+01
 -1       148 4.77073E+01
 -1       149 4.77073E+01
 -1       150 2.44444E+01
 -1       151 2.39562E+01
 -1       152 2.48940E+01
 -1       153 2.84338E+01
 -1       154 2.79003E+01
 -1       155 1.23910E+01
 -1       156 1.24763E+01
 -1       157 1.24763E+01
 -1       158 1.22553E+01
 -1       159 1.20847E+01
 -1       160 1.20847E+01
 -1       161 1.98788E+01
 -1       162 4.64211E+01
 -1       163 4.64211E+01
 -1       164 2.53409E+01
 -1       165 6.03122E+00
 -1       166 2.27099E+00
 -1       167 1.49820E+00
 -1       168 1.14830E+00
 -1       169 9.62899E-01
 -1       170 8.51599E-01
 -1       171 7.81241E-01
 -1       172 7.39803E-01
 -1       173 7.84837E-01
 -1       174 8.54944E-01
 -1       175 9.70780E-01
 -1       176 1.16326E+00
 -1       177 1.51722E+00
 -1       178 2.24698E+00
 -1       179 3.90314E+00
 -1       180 1.40325E+01
 -1       181 4.34404E+00
 -1       182 3.36493E+00
 -1       183 2.13668E+00
 -1       184 1.46327E+00
 -1       185 1.08795E+00
 -1       186 8.63589E-01
 -1       187 6.98667E-01
 -1       188 5.71734E-01
 -1       189 4.70349E-01
 -1       190 4.06265E-01
 -1       191 4.42497E-01
 -1       192 4.81564E-01
 -1       193 5.16542E-01
 -1       194 5.76216E-01
 -1       195 7.06127E-01
 -1       196 8.67137E-01
 -1       197 9.86831E-01
 -1       198 1.00766E+00
 -1       199 1.02023E+00
 -1       200 1.01837E+00
 -1       201 1.19197E+00
 -1       202 1.64650E+00
 -1       203 2.54302E+00
 -1       204 3.20801E+00
 -1       205 3.12383E+00
 -1       206 3.19825E+00
 -1       207 2.50862E+00
 -1       208 1.62212E+00
 -1       209 1.18117E+00
 -1       210 1.02144E+00
 -1       211 1.01593E+00
 -1       212 9.91501E-01
 -1       213 9.63231E-01
 -1       214 8.40239E-01
 -1       215 6.92862E-01
 -1       216 5.87393E-01
 -1       217 5.00450E-01
 -1       218 4.05098E-01
 -1       219 3.13665E-01
 -1       220 2.47206E-01
 -1       221 1.92878E-01
 -1       222 1.50795E-01
 -1       223 1.14672E-01
 -1       224 8.99335E-02
 -1       225 7.36977E-02
 -1       226 5.69269E-02
 -1       227 3.84494E-02
 -1       228 2.21767E-02
 -1       229 3.42282E+00
 -1       230 2.44259E+00
 -1       231 1.69913E+00
 -1       232 1.19611E+00
 -1       233 9.99712E-01
 -1       234 8.51017E-01
 -1       235 7.39042E-01
 -1       236 6.56321E-01
 -1       237 5.98229E-01
 -1       238 5.60378E-01
 -1       239 5.36863E-01
 -1       240 5.76330E-01
 -1       241 6.62888E-01
 -1       242 7.51329E-01
 -1       243 8.23249E-01
 -1       244 8.72350E-01
 -1       245 1.06364E+00
 -1       246 1.27689E+00
 -1       247 1.47906E+00
 -1       248 1.68358E+00
 -1       249 1.93918E+00
 -1       250 2.05115E+00
 -1       251 2.63111E+00
 -1       252 3.91807E+00
 -1       253 4.34926E+00
 -1       254 4.87512E+00
 -1       255 3.60619E+00
 -1       256 1.99302E+00
 -1       257 1.21913E+00
 -1       258 1.45574E+00
 -1       259 1.67381E+00
 -1       260 1.72131E+00
 -1       261 1.55384E+00
 -1       262 1.30816E+00
 -1       263 1.08740E+00
 -1       264 8.88826E-01
 -1       265 6.98241E-01
 -1       266 5.30261E-01
 -1       267 3.90352E-01
 -1       268 2.82353E-01
 -1       269 2.10299E-01
 -1       270 1.54291E-01
 -1       271 1.12409E-01
 -1       272 8.00648E-02
 -1       273 5.48963E-02
 -1       274 4.41347E-02
 -1       275 3.11979E-02
 -1       276 1.86687E-02
 -1       277 1.05467E-02
 -1       278 1.24143E-02
 -1       279 1.24143E-02
 -1       280 8.26365E-03
 -1       281 9.02243E-03
 -1       282 1.27241E-02
 -1       283 1.42346E-02
 -1       284 1.42346E-02
 -1       285 1.41981E-02
 -1       286 1.25463E-02
 -1       287 8.96311E-03
 -1       288 7.90570E-03
 -1       289 1.23673E-02
 -1       290 1.23673E-02
 -1       291 1.26553E-02
 -1       292 3.16303E+01
 -1       293 3.08292E+01
 -1       294 4.83441E+01
 -1       295 2.42010E+01
 -1       296 1.16729E+01
 -1       297 1.21079E+01
 -1       298 1.26407E+01
 -1       299 1.23708E+01
 -1       300 1.21881E+01
 -1       301 1.20965E+01
 -1       302 1.14459E+01
 -1       303 2.34054E+01
 -1       304 4.77073E+01
 -1       305 2.92480E+01
 -1       306 3.08916E+01
 -1       307 3.08916E+01
 -1       308 3.27976E+01
 -1       309 3.27976E+01
 -1       310 2.91053E+01
 -1       311 1.23910E+01
 -1       312 1.18212E+01
 -1       313 1.24763E+01
 -1       314 1.22553E+01
 -1       315 1.20167E+01
 -1       316 1.20847E+01
 -1       317 1.10516E+01
 -1       318 2.05297E+01
 -1       319 4.64211E+01
 -1       320 2.80824E+01
 -1       321 3.16303E+01
 -1       322 1.02708E+00
 -1       323 2.44604E+00
 -1       324 7.83504E-01
 -1       325 6.84536E-01
 -1       326 6.20375E-01
 -1       327 5.74530E-01
 -1       328 5.77974E-01
 -1       329 6.23321E-01
 -1       330 6.91800E-01
 -1       331 7.88307E-01
 -1       332 9.24240E-01
 -1       333 1.13916E+00
 -1       334 1.30328E+00
 -1       335 2.19059E+00
 -1       336 1.89758E+00
 -1       337 1.74048E+00
 -1       338 1.27456E+00
 -1       339 9.08084E-01
 -1       340 6.95143E-01
 -1       341 5.92076E-01
 -1       342 4.97025E-01
 -1       343 4.09129E-01
 -1       344 3.26557E-01
 -1       345 3.41986E-01
 -1       346 3.77344E-01
 -1       347 4.08301E-01
 -1       348 4.91318E-01
 -1       349 5.80372E-01
 -1       350 6.77216E-01
 -1       351 7.44242E-01
 -1       352 7.33275E-01
 -1       353 5.96547E-01
 -1       354 5.37111E-01
 -1       355 6.85003E-01
 -1       356 1.17417E+00
 -1       357 1.54581E+00
 -1       358 1.97805E+00
 -1       359 2.03211E+00
 -1       360 2.03894E+00
 -1       361 1.97088E+00
 -1       362 1.52515E+00
 -1       363 1.15305E+00
 -1       364 6.59234E-01
 -1       365 5.32178E-01
 -1       366 5.98775E-01
 -1       367 7.30557E-01
 -1       368 7.40258E-01
 -1       369 6.76013E-01
 -1       370 6.02411E-01
 -1       371 5.35086E-01
 -1       372 4.57202E-01
 -1       373 3.73610E-01
 -1       374 2.93814E-01
 -1       375 2.23067E-01
 -1       376 1.63593E-01
 -1       377 1.15680E-01
 -1       378 8.46999E-02
 -1       379 6.06138E-02
 -1       380 4.43137E-02
 -1       381 3.13265E-02
 -1       382 2.05164E-02
 -1       383 1.14808E+00
 -1       384 8.90352E-01
 -1       385 6.92867E-01
 -1       386 5.57050E-01
 -1       387 5.17059E-01
 -1       388 4.78379E-01
 -1       389 4.44518E-01
 -1       390 4.16673E-01
 -1       391 4.26444E-01
 -1       392 5.18648E-01
 -1       393 6.98793E-01
 -1       394 8.82237E-01
 -1       395 1.04680E+00
 -1       396 1.18807E+00
 -1       397 1.27158E+00
 -1       398 1.27158E+00
 -1       399 1.19571E+00
 -1       400 9.58155E-01
 -1       401 9.95408E-01
 -1       402 1.77870E+00
 -1       403 2.33566E+00
 -1       404 2.93992E+00
 -1       405 2.65702E+00
 -1       406 2.72217E+00
 -1       407 2.36133E+00
 -1       408 1.38004E+00
 -1       409 9.76465E-01
 -1       410 1.09900E+00
 -1       411 1.26704E+00
 -1       412 1.28293E+00
 -1       413 1.24360E+00
 -1       414 1.11563E+00
 -1       415 9.86592E-01
 -1       416 8.25506E-01
 -1       417 6.62180E-01
 -1       418 5.13249E-01
 -1       419 3.86090E-01
 -1       420 2.82353E-01
 -1       421 2.05046E-01
 -1       422 1.53570E-01
 -1       423 1.12409E-01
 -1       424 8.00648E-02
 -1       425 5.48963E-02
 -1       426 3.58529E-02
 -1       427 2.30968E-02
 -1       428 1.23842E-02
 -1       429 1.50001E-02
 -1       430 1.96682E-02
 -1       431 1.96682E-02
 -1       432 1.29711E-02
 -1       433 1.87828E-02
 -1       434 2.15716E-02
 -1       435 2.15716E-02
 -1       436 2.13242E-02
 -1       437 2.13242E-02
 -1       438 1.84894E-02
 -1       439 1.26476E-02
 -1       440 1.48165E-02
 -1       441 1.90361E-02
 -1       442 3.08292E+01
 -1       443 3.20106E+01
 -1       444 3.20106E+01
 -1       445 1.74802E+01
 -1       446 1.03884E+01
 -1       447 9.10772E-01
 -1       448 8.87503E+00
 -1       449 1.08059E+01
 -1       450 1.09767E+01
 -1       451 1.00247E+01
 -1       452 7.26014E+00
 -1       453 1.00827E+01
 -1       454 1.68790E+01
 -1       455 2.92480E+01
 -1       456 2.75691E+01
 -1       457 3.22330E+01
 -1       458 3.22330E+01
 -1       459 3.27976E+01
 -1       460 1.99025E+01
 -1       461 1.16613E+01
 -1       462 6.86997E+00
 -1       463 9.39115E+00
 -1       464 1.07474E+01
 -1       465 1.06913E+01
 -1       466 9.88602E+00
 -1       467 7.21752E+00
 -1       468 9.28893E+00
 -1       469 1.58874E+01
 -1       470 2.80824E+01
 -1       471 2.90360E+01
 -1       472 6.25337E+00
 -1       473 1.05367E+00
 -1       474 4.77128E-01
 -1       475 5.04490E-01
 -1       476 4.18005E-01
 -1       477 4.45998E-01
 -1       478 4.78317E-01
 -1       479 5.05123E-01
 -1       480 5.05123E-01
 -1       481 5.92651E-01
 -1       482 8.90352E-01
 -1       483 7.81240E-01
 -1       484 4.62306E+00
 -1       485 6.92304E-01
 -1       486 5.65570E-01
 -1       487 4.35142E-01
 -1       488 3.80982E-01
 -1       489 3.20918E-01
 -1       490 2.52389E-01
 -1       491 2.26398E-01
 -1       492 2.58421E-01
 -1       493 3.29608E-01
 -1       494 4.31091E-01
 -1       495 5.20518E-01
 -1       496 5.95258E-01
 -1       497 6.68445E-01
 -1       498 7.41723E-01
 -1       499 7.62970E-01
 -1       500 8.47772E-01
 -1       501 9.99125E-01
 -1       502 1.12594E+00
 -1       503 1.34978E+00
 -1       504 1.56788E+00
 -1       505 2.05117E+00
 -1       506 2.06614E+00
 -1       507 1.97790E+00
 -1       508 1.54325E+00
 -1       509 1.34278E+00
 -1       510 1.10257E+00
 -1       511 9.93220E-01
 -1       512 8.39114E-01
 -1       513 7.86615E-01
 -1       514 7.69538E-01
 -1       515 7.03787E-01
 -1       516 6.29959E-01
 -1       517 5.69020E-01
 -1       518 4.95206E-01
 -1       519 4.13815E-01
 -1       520 3.34189E-01
 -1       521 2.61837E-01
 -1       522 1.99428E-01
 -1       523 1.47724E-01
 -1       524 1.06330E-01
 -1       525 7.42319E-02
 -1       526 5.01546E-02
 -1       527 3.26464E-02
 -1       528 5.35751E-01
 -1       529 4.71835E-01
 -1       530 4.00420E-01
 -1       531 3.25553E-01
 -1       532 2.87296E-01
 -1       533 3.37268E-01
 -1       534 4.31308E-01
 -1       535 5.97940E-01
 -1       536 7.75682E-01
 -1       537 9.52434E-01
 -1       538 1.10564E+00
 -1       539 1.21284E+00
 -1       540 1.38719E+00
 -1       541 1.54480E+00
 -1       542 1.58999E+00
 -1       543 1.86814E+00
 -1       544 1.94123E+00
 -1       545 2.04797E+00
 -1       546 4.42284E+00
 -1       547 7.72429E+00
 -1       548 2.97575E+00
 -1       549 3.02806E+00
 -1       550 2.11020E+00
 -1       551 1.98768E+00
 -1       552 1.59765E+00
 -1       553 1.59617E+00
 -1       554 1.47117E+00
 -1       555 1.28867E+00
 -1       556 1.17252E+00
 -1       557 1.04461E+00
 -1       558 8.84868E-01
 -1       559 7.21093E-01
 -1       560 5.69587E-01
 -1       561 4.38107E-01
 -1       562 3.28926E-01
 -1       563 2.41210E-01
 -1       564 1.72613E-01
 -1       565 1.20253E-01
 -1       566 8.12616E-02
 -1       567 5.30492E-02
 -1       568 3.73033E-02
 -1       569 2.64880E-02
 -1       570 2.51214E-02
 -1       571 2.97417E-02
 -1       572 2.00606E-02
 -1       573 2.06207E-02
 -1       574 2.98796E-02
 -1       575 2.98796E-02
 -1       576 2.97752E-02
 -1       577 2.92239E-02
 -1       578 2.42984E-02
 -1       579 2.37938E-02
 -1       580 2.37938E-02
 -1       581 1.47912E+01
 -1       582 2.90360E+01
 -1       583 6.92867E-01
 -1       584 3.20106E+01
 -1       585 1.35527E+01
 -1       586 9.23270E+00
 -1       587 2.34001E+01
 -1       588 8.01815E+00
 -1       589 6.18901E+00
 -1       590 4.45678E-01
 -1       591 7.60239E+00
 -1       592 1.35132E+01
 -1       593 7.72429E+00
 -1       594 4.90381E+00
 -1       595 5.87476E+00
 -1       596 5.08822E+00
 -1       597 9.62371E+00
 -1       598 2.03605E+01
 -1       599 2.75691E+01
 -1       600 3.22330E+01
 -1       601 2.37147E+01
 -1       602 1.49119E+01
 -1       603 1.01417E+01
 -1       604 6.47376E+00
 -1       605 4.16488E+00
 -1       606 6.18271E+00
 -1       607 7.10916E+00
 -1       608 5.27294E+00
 -1       609 8.64232E+00
 -1       610 1.84194E+01
 -1       611 8.61584E-01
 -1       612 1.31309E+00
 -1       613 6.10440E+00
 -1       614 6.71586E+00
 -1       615 7.13413E-01
 -1       616 2.02465E-02
 -1       617 1.67961E+01
 -1       618 3.50309E-01
 -1       619 3.30080E-01
 -1       620 3.59260E-01
 -1       621 3.40693E-01
 -1       622 5.23330E-01
 -1       623 8.33147E+00
 -1       624 4.96530E-01
 -1       625 7.75756E+00
 -1       626 3.72159E-01
 -1       627 3.40815E-01
 -1       628 2.76515E-01
 -1       629 2.21352E-01
 -1       630 1.73503E-01
 -1       631 1.20897E-01
 -1       632 1.65226E-01
 -1       633 2.62617E-01
 -1       634 3.67895E-01
 -1       635 4.77326E-01
 -1       636 5.84401E-01
 -1       637 6.78064E-01
 -1       638 8.18614E-01
 -1       639 9.76614E-01
 -1       640 1.10279E+00
 -1       641 1.30357E+00
 -1       642 1.63912E+00
 -1       643 1.63640E+00
 -1       644 2.14469E+00
 -1       645 2.77562E+00
 -1       646 5.08687E+00
 -1       647 3.55783E+00
 -1       648 2.17298E+00
 -1       649 1.86202E+00
 -1       650 1.53485E+00
 -1       651 1.57343E+00
 -1       652 1.30176E+00
 -1       653 1.11217E+00
 -1       654 9.86549E-01
 -1       655 8.36045E-01
 -1       656 7.04193E-01
 -1       657 6.21749E-01
 -1       658 5.29565E-01
 -1       659 4.37953E-01
 -1       660 3.53402E-01
 -1       661 2.78845E-01
 -1       662 2.15369E-01
 -1       663 1.62854E-01
 -1       664 1.20488E-01
 -1       665 8.70915E-02
 -1       666 6.14000E-02
 -1       667 3.81387E-02
 -1       668 2.87406E-01
 -1       669 6.49891E+00
 -1       670 3.38361E-01
 -1       671 1.66628E-01
 -1       672 2.03943E-01
 -1       673 3.26796E-01
 -1       674 4.74471E-01
 -1       675 6.43221E-01
 -1       676 8.32779E-01
 -1       677 1.03936E+00
 -1       678 1.25241E+00
 -1       679 1.44890E+00
 -1       680 1.76152E+00
 -1       681 2.21282E+00
 -1       682 2.66829E+00
 -1       683 3.29123E+00
 -1       684 2.23921E+00
 -1       685 4.90381E+00
 -1       686 3.02806E+00
 -1       687 3.10516E+00
 -1       688 2.74643E+00
 -1       689 2.38226E+00
 -1       690 1.94994E+00
 -1       691 1.54352E+00
 -1       692 1.35485E+00
 -1       693 1.15263E+00
 -1       694 9.52370E-01
 -1       695 7.69357E-01
 -1       696 6.09639E-01
 -1       697 4.74588E-01
 -1       698 3.63170E-01
 -1       699 2.73138E-01
 -1       700 2.01741E-01
 -1       701 1.46129E-01
 -1       702 1.03570E-01
 -1       703 7.16805E-02
 -1       704 4.78201E-02
 -1       705 2.89158E-02
 -1       706 4.17579E-02
 -1       707 2.37938E-02
 -1       708 3.95263E-02
 -1       709 4.12548E-02
 -1       710 4.17579E-02
 -1       711 4.28791E-01
 -1       712 4.12548E-02
 -1       713 3.77796E-02
 -1       714 2.86947E-02
 -1       715 1.53591E+01
 -1       716 2.96969E+00
 -1       717 3.21043E+00
 -1       718 1.51701E+01
 -1       719 3.04644E+00
 -1       720 8.19058E+00
 -1       721 2.32793E-01
 -1       722 3.89152E-01
 -1       723 7.10553E+00
 -1       724 3.41258E+00
 -1       725 5.45522E+00
 -1       726 3.59260E-01
 -1       727 3.58780E-01
 -1       728 5.61764E+00
 -1       729 5.98491E+00
 -1       730 4.12425E+00
 -1       731 1.43771E+01
 -1       732 3.27857E+00
 -1       733 1.03214E+01
 -1       734 1.22163E+01
 -1       735 1.27550E+01
 -1       736 1.25401E+01
 -1       737 4.34125E+00
 -1       738 1.62751E+01
 -1       739 5.08687E+00
 -1       740 1.14568E+01
 -1       741 6.49034E+00
 -1       742 4.17451E-01
 -1       743 3.29247E-01
 -1       744 3.02383E-02
 -1       745 7.72429E+00
 -1       746 2.58665E-02
 -1       747 1.09886E+01
 -1       748 1.18382E+01
 -1       749 2.71706E-02
 -1       750 4.36664E-01
 -1       751 3.49508E-01
 -1       752 8.55016E+00
 -1       753 2.43680E-01
 -1       754 1.85116E-01
 -1       755 2.67227E-01
 -1       756 1.98205E-01
 -1       757 1.65177E-01
 -1       758 1.09683E-01
 -1       759 1.06871E-01
 -1       760 1.45844E-01
 -1       761 2.12804E-01
 -1       762 3.02660E-01
 -1       763 4.06969E-01
 -1       764 5.43137E-01
 -1       765 6.99991E-01
 -1       766 8.71143E-01
 -1       767 1.04956E+00
 -1       768 1.36344E+00
 -1       769 1.70246E+00
 -1       770 1.97008E+00
 -1       771 2.96056E+00
 -1       772 2.14469E+00
 -1       773 3.36259E+00
 -1       774 2.44381E+00
 -1       775 1.86202E+00
 -1       776 2.53927E+00
 -1       777 1.89135E+00
 -1       778 1.73204E+00
 -1       779 1.37814E+00
 -1       780 1.06907E+00
 -1       781 8.97089E-01
 -1       782 7.37963E-01
 -1       783 6.00190E-01
 -1       784 4.80631E-01
 -1       785 3.77398E-01
 -1       786 2.91642E-01
 -1       787 2.26674E-01
 -1       788 1.72555E-01
 -1       789 1.27620E-01
 -1       790 9.30183E-02
 -1       791 6.59540E-02
 -1       792 4.40827E-02
 -1       793 5.55102E-02
 -1       794 2.36700E-01
 -1       795 1.42415E-01
 -1       796 5.03634E-01
 -1       797 6.76303E-01
 -1       798 8.94351E-01
 -1       799 1.17059E+00
 -1       800 1.54452E+00
 -1       801 2.00799E+00
 -1       802 2.50340E+00
 -1       803 3.45581E+00
 -1       804 4.71171E+00
 -1       805 9.69053E+00
 -1       806 6.16560E+00
 -1       807 3.03650E+00
 -1       808 2.20507E+00
 -1       809 1.73246E+00
 -1       810 1.33071E+00
 -1       811 1.03697E+00
 -1       812 8.04480E-01
 -1       813 6.38460E-01
 -1       814 4.95479E-01
 -1       815 3.75941E-01
 -1       816 2.79237E-01
 -1       817 2.05175E-01
 -1       818 1.52092E-01
 -1       819 1.10951E-01
 -1       820 7.94316E-02
 -1       821 5.52302E-02
 -1       822 3.62939E-02
 -1       823 2.74956E-01
 -1       824 5.49713E-02
 -1       825 2.77562E+00
 -1       826 9.53256E+00
 -1       827 5.55102E-02
 -1       828 4.13661E+00
 -1       829 3.54210E-01
 -1       830 2.05529E-01
 -1       831 1.97942E-01
 -1       832 4.68437E-02
 -1       833 5.63487E+00
 -1       834 1.05204E+01
 -1       835 8.94633E+00
 -1       836 2.18579E-01
 -1       837 3.21043E+00
 -1       838 4.52445E+00
 -1       839 6.48376E+00
 -1       840 7.27422E+00
 -1       841 5.42250E+00
 -1       842 8.77757E+00
 -1       843 6.58623E+00
 -1       844 3.34200E+00
 -1       845 7.23968E+00
 -1       846 2.62302E-01
 -1       847 2.76423E-01
 -1       848 4.76531E-02
 -1       849 3.76811E+00
 -1       850 1.42872E-01
 -1       851 2.51682E-01
 -1       852 1.98491E-01
 -1       853 1.03005E-01
 -1       854 3.10516E+00
 -1       855 2.76423E-01
 -1       856 5.65133E-02
 -1       857 8.40547E+00
 -1       858 5.65133E-02
 -1       859 7.58949E+00
 -1       860 8.35602E+00
 -1       861 8.77757E+00
 -1       862 4.09942E-02
 -1       863 2.41797E-01
 -1       864 1.95919E-01
 -1       865 1.74146E-01
 -1       866 1.12903E-01
 -1       867 1.05131E-01
 -1       868 1.31750E-01
 -1       869 1.55510E-01
 -1       870 2.16062E-01
 -1       871 3.02660E-01
 -1       872 4.04871E-01
 -1       873 5.27452E-01
 -1       874 6.78734E-01
 -1       875 8.67533E-01
 -1       876 1.18269E+00
 -1       877 1.55429E+00
 -1       878 1.91020E+00
 -1       879 2.49207E+00
 -1       880 3.90269E+00
 -1       881 5.91892E+00
 -1       882 3.78666E+00
 -1       883 2.24221E+00
 -1       884 1.54974E+00
 -1       885 1.19698E+00
 -1       886 8.95023E-01
 -1       887 6.99146E-01
 -1       888 5.56881E-01
 -1       889 4.59092E-01
 -1       890 3.70030E-01
 -1       891 2.91642E-01
 -1       892 2.25034E-01
 -1       893 1.69980E-01
 -1       894 1.25429E-01
 -1       895 8.99159E-02
 -1       896 8.86792E-01
 -1       897 6.70250E-01
 -1       898 1.46903E+00
 -1       899 1.99056E+00
 -1       900 3.14836E+00
 -1       901 4.21528E+00
 -1       902 5.47634E+00
 -1       903 1.28078E+00
 -1       904 1.01850E+00
 -1       905 7.98282E-01
 -1       906 6.18238E-01
 -1       907 4.73291E-01
 -1       908 3.57884E-01
 -1       909 2.66875E-01
 -1       910 1.95796E-01
 -1       911 1.40989E-01
 -1       912 9.89707E-02
 -1       913 6.82539E-02
 -1       914 7.48767E-02
 -1       915 4.41887E-02
 -1       916 1.53448E-01
 -1       917 7.48767E-02
 -1       918 6.43209E+00
 -1       919 5.97002E+00
 -1       920 4.71171E+00
 -1       921 1.63155E+00
 -1       922 3.03811E+00
 -1       923 1.14482E+00
 -1       924 6.43209E+00
 -1       925 1.08038E-01
 -1       926 2.29019E-01
 -1       927 6.43867E+00
 -1       928 7.19080E-02
 -1       929 6.25249E+00
 -1       930 2.45731E-01
 -1       931 5.38243E+00
 -1       932 1.55764E-01
 -1       933 6.07806E-02
 -1       934 1.45180E-01
 -1       935 4.90422E-01
 -1       936 1.84610E-01
 -1       937 3.42579E-01
 -1       938 2.20438E-01
 -1       939 9.85380E-02
 -1       940 5.39643E+00
 -1       941 5.61401E+00
 -1       942 5.62171E+00
 -1       943 4.62694E+00
 -1       944 5.50441E+00
 -1       945 1.97178E-01
 -1       946 6.15313E+00
 -1       947 1.17512E-01
 -1       948 1.31764E-01
 -1       949 1.36534E-01
 -1       950 1.73224E-01
 -1       951 2.08126E-01
 -1       952 2.92477E-01
 -1       953 3.99462E-01
 -1       954 5.27452E-01
 -1       955 6.78734E-01
 -1       956 8.57959E-01
 -1       957 1.14973E+00
 -1       958 1.61677E+00
 -1       959 2.50591E+00
 -1       960 4.21383E+00
 -1       961 8.00919E-01
 -1       962 2.20438E-01
 -1       963 2.49533E+00
 -1       964 1.62603E+00
 -1       965 1.14620E+00
 -1       966 8.65649E-01
 -1       967 6.99146E-01
 -1       968 5.56881E-01
 -1       969 4.38599E-01
 -1       970 3.41601E-01
 -1       971 2.62816E-01
 -1       972 1.99377E-01
 -1       973 1.48936E-01
 -1       974 1.09699E-01
 -1       975 1.09785E-01
 -1       976 2.59116E+00
 -1       977 1.99056E+00
 -1       978 9.28895E-01
 -1       979 1.23725E+00
 -1       980 5.36133E-01
 -1       981 4.07291E-01
 -1       982 3.07569E-01
 -1       983 2.29985E-01
 -1       984 1.69748E-01
 -1       985 1.37476E-01
 -1       986 5.08464E+00
 -1       987 5.17321E+00
 -1       988 1.64073E+00
 -1       989 1.31764E-01
 -1       990 3.32907E+00
 -1       991 1.84610E-01
 -1       992 5.53189E+00
 -1       993 7.04577E-01
 -1       994 9.89133E-02
 -1       995 1.24860E-01
 -1       996 1.48812E-01
 -1       997 3.44831E+00
 -1       998 7.14958E-02
 -1       999 9.89133E-02
 -1      1000 3.30453E+00
 -1      1001 2.10457E-01
 -1      1002 5.91524E-01
 -1      1003 1.08083E+00
 -1      1004 2.16368E-01
 -1      1005 9.62503E-02
 -1      1006 3.00917E-01
 -1      1007 3.39783E+00
 -1      1008 4.45975E+00
 -1      1009 1.29756E-01
 -1      1010 3.77951E+00
 -1      1011 2.16368E-01
 -1      1012 1.33478E-01
 -1      1013 9.75784E-02
 -1      1014 1.46903E+00
 -1      1015 1.29756E-01
 -1      1016 2.06074E-01
 -1      1017 1.53913E-01
 -1      1018 2.19036E-01
 -1      1019 2.75055E-01
 -1      1020 3.50339E-01
 -1      1021 4.75627E-01
 -1      1022 6.39965E-01
 -1      1023 8.57959E-01
 -1      1024 1.14973E+00
 -1      1025 1.51615E+00
 -1      1026 2.04012E+00
 -1      1027 3.80064E+00
 -1      1028 2.11351E+00
 -1      1029 1.51810E+00
 -1      1030 1.14620E+00
 -1      1031 8.57408E-01
 -1      1032 6.46894E-01
 -1      1033 4.90472E-01
 -1      1034 3.72472E-01
 -1      1035 2.82277E-01
 -1      1036 2.12810E-01
 -1      1037 1.58791E-01
 -1      1038 2.59385E+00
 -1      1039 1.35233E+00
 -1      1040 9.71365E-01
 -1      1041 2.38190E-01
 -1      1042 4.29748E-01
 -1      1043 3.13790E-01
 -1      1044 4.11795E-01
 -1      1045 1.79167E-01
 -1      1046 1.38676E-01
 -1      1047 4.05295E+00
 -1      1048 1.37291E-01
 -1      1049 9.85380E-02
 -1      1050 2.51394E+00
 -1      1051 2.73615E+00
 -1      1052 1.60035E-01
 -1      1053 1.37568E-01
 -1      1054 4.15675E+00
 -1      1055 7.19349E-01
 -1      1056 1.71760E+00
 -1      1057 1.73978E-01
 -1      1058 3.44082E+00
 -1      1059 5.41332E-01
 -1      1060 2.79928E+00
 -1      1061 7.50792E-02
 -1      1062 1.30294E-01
 -1      1063 1.69644E-01
 -1      1064 2.58949E-01
 -1      1065 1.17605E-01
 -1      1066 2.11554E-01
 -1      1067 1.53913E-01
 -1      1068 8.48668E-01
 -1      1069 6.84138E-01
 -1      1070 2.84160E+00
 -1      1071 1.18035E+00
 -1      1072 2.12203E-01
 -1      1073 2.19036E-01
 -1      1074 3.40964E-01
 -1      1075 3.99955E-01
 -1      1076 6.63636E-01
 -1      1077 9.52134E-01
 -1      1078 1.35281E+00
 -1      1079 1.92347E+00
 -1      1080 1.35281E+00
 -1      1081 1.30743E+00
 -1      1082 9.82092E-01
 -1      1083 6.94042E-01
 -1      1084 5.02234E-01
 -1      1085 3.68537E-01
 -1      1086 2.89232E-01
 -1      1087 2.25556E-01
 -1      1088 1.73297E-01
 -1      1089 2.50892E+00
 -1      1090 3.30392E+00
 -1      1091 3.28571E-01
 -1      1092 2.48289E+00
 -1      1093 9.52134E-01
 -1      1094 9.32329E-01
 -1      1095 2.77912E-01
 -1      1096 5.48176E-01
 -1      1097 3.50867E-01
 -1      1098 1.32591E+00
 -1      1099 4.37606E-01
 -1      1100 7.27737E-01
 -1      1101 3.27662E+00
 -1      1102 1.30294E-01
 -1      1103 2.59210E+00
 -1      1104 1.67402E-01
 -1      1105 1.99396E+00
 -1      1106 2.06074E-01
 -1      1107 2.75055E-01
 -1      1108 2.00245E+00
 -1      1109 6.85689E-01
 -1      1110 1.24355E-01
 -1      1111 9.40108E-02
 -1      1112 2.61920E-01
 -1      1113 9.59716E-02
 -1      1114 4.74917E-01
 -1      1115 3.11515E-01
 -1      1116 1.31789E-01
 -1      1117 1.67402E-01
 -1      1118 6.84138E-01
 -1      1119 1.98258E-01
 -1      1120 3.86645E-01
 -1      1121 1.20265E-01
 -1      1122 1.31355E+01
 -1      1123 8.38214E+00
 -1      1124 2.71309E+00
 -1      1125 1.53864E+00
 -1      1126 1.15729E+00
 -1      1127 9.60641E-01
 -1      1128 8.40351E-01
 -1      1129 7.65868E-01
 -1      1130 7.38728E-01
 -1      1131 7.69154E-01
 -1      1132 8.43370E-01
 -1      1133 9.64748E-01
 -1      1134 1.16859E+00
 -1      1135 1.55221E+00
 -1      1136 2.63933E+00
 -1      1137 6.04049E+00
 -1      1138 1.13217E+01
 -1      1139 1.31355E+01
 -1      1140 8.73975E+00
 -1      1141 3.85448E+00
 -1      1142 2.75080E+00
 -1      1143 1.77501E+00
 -1      1144 1.25065E+00
 -1      1145 9.75768E-01
 -1      1146 7.81128E-01
 -1      1147 6.35201E-01
 -1      1148 5.21042E-01
 -1      1149 4.56423E-01
 -1      1150 4.62031E-01
 -1      1151 4.99053E-01
 -1      1152 5.33267E-01
 -1      1153 6.28060E-01
 -1      1154 7.86632E-01
 -1      1155 9.26984E-01
 -1      1156 9.97246E-01
 -1      1157 1.01394E+00
 -1      1158 1.02023E+00
 -1      1159 1.10610E+00
 -1      1160 1.32932E+00
 -1      1161 2.00485E+00
 -1      1162 2.87551E+00
 -1      1163 3.20801E+00
 -1      1164 3.20313E+00
 -1      1165 3.19825E+00
 -1      1166 2.85343E+00
 -1      1167 1.98642E+00
 -1      1168 1.32269E+00
 -1      1169 1.10131E+00
 -1      1170 1.01869E+00
 -1      1171 1.00372E+00
 -1      1172 9.77366E-01
 -1      1173 9.01735E-01
 -1      1174 7.60170E-01
 -1      1175 6.11647E-01
 -1      1176 4.85827E-01
 -1      1177 3.99931E-01
 -1      1178 3.39914E-01
 -1      1179 2.77816E-01
 -1      1180 2.19616E-01
 -1      1181 1.68404E-01
 -1      1182 1.25285E-01
 -1      1183 9.78614E-02
 -1      1184 8.18156E-02
 -1      1185 6.53123E-02
 -1      1186 4.76882E-02
 -1      1187 2.94110E-02
 -1      1188 1.32643E-02
 -1      1189 1.40325E+01
 -1      1190 8.72766E+00
 -1      1191 2.93270E+00
 -1      1192 2.07086E+00
 -1      1193 1.44762E+00
 -1      1194 1.09791E+00
 -1      1195 9.25364E-01
 -1      1196 7.95029E-01
 -1      1197 6.97682E-01
 -1      1198 6.27275E-01
 -1      1199 5.79303E-01
 -1      1200 5.68354E-01
 -1      1201 6.19609E-01
 -1      1202 7.07108E-01
 -1      1203 7.87289E-01
 -1      1204 8.35941E-01
 -1      1205 9.17969E-01
 -1      1206 1.13210E+00
 -1      1207 1.37797E+00
 -1      1208 1.58132E+00
 -1      1209 1.81138E+00
 -1      1210 1.99517E+00
 -1      1211 2.30086E+00
 -1      1212 3.23432E+00
 -1      1213 4.13366E+00
 -1      1214 4.61219E+00
 -1      1215 4.87512E+00
 -1      1216 4.24065E+00
 -1      1217 2.79960E+00
 -1      1218 1.72438E+00
 -1      1219 1.56477E+00
 -1      1220 1.69756E+00
 -1      1221 1.72131E+00
 -1      1222 1.63757E+00
 -1      1223 1.43100E+00
 -1      1224 1.19737E+00
 -1      1225 9.74449E-01
 -1      1226 7.60665E-01
 -1      1227 5.72975E-01
 -1      1228 4.25621E-01
 -1      1229 3.22165E-01
 -1      1230 2.45159E-01
 -1      1231 1.82295E-01
 -1      1232 1.32276E-01
 -1      1233 9.31913E-02
 -1      1234 6.53719E-02
 -1      1235 4.93786E-02
 -1      1236 3.76663E-02
 -1      1237 2.49333E-02
 -1      1238 1.20231E-02
 -1      1239 5.42427E-03
 -1      1240 6.18774E-03
 -1      1241 6.90456E-03
 -1      1242 6.14578E-03
 -1      1243 3.84201E-03
 -1      1244 3.37301E-03
 -1      1245 5.34345E-03
 -1      1246 6.52632E-03
 -1      1247 6.81472E-03
 -1      1248 6.51542E-03
 -1      1249 5.29703E-03
 -1      1250 3.27790E-03
 -1      1251 3.72856E-03
 -1      1252 5.93612E-03
 -1      1253 6.68085E-03
 -1      1254 7.14217E-03
 -1      1255 6.83588E-03
 -1      1256 2.50056E+01
 -1      1257 3.65072E+01
 -1      1258 4.83441E+01
 -1      1259 3.56026E+01
 -1      1260 1.74845E+01
 -1      1261 1.23743E+01
 -1      1262 1.26407E+01
 -1      1263 1.25058E+01
 -1      1264 1.22794E+01
 -1      1265 1.21423E+01
 -1      1266 1.67535E+01
 -1      1267 3.45589E+01
 -1      1268 4.77073E+01
 -1      1269 3.60759E+01
 -1      1270 2.42003E+01
 -1      1271 2.44251E+01
 -1      1272 2.66639E+01
 -1      1273 2.87696E+01
 -1      1274 2.85028E+01
 -1      1275 2.01456E+01
 -1      1276 1.24336E+01
 -1      1277 1.24763E+01
 -1      1278 1.23658E+01
 -1      1279 1.21700E+01
 -1      1280 1.20847E+01
 -1      1281 1.59817E+01
 -1      1282 3.31499E+01
 -1      1283 4.64211E+01
 -1      1284 3.58810E+01
 -1      1285 2.53409E+01
 -1      1286 1.31355E+01
 -1      1287 4.83001E+00
 -1      1288 9.58334E+00
 -1      1289 2.03418E+00
 -1      1290 2.94990E+00
 -1      1291 4.15111E+00
 -1      1292 1.38905E+00
 -1      1293 1.64778E+00
 -1      1294 1.88459E+00
 -1      1295 1.09148E+00
 -1      1296 1.21411E+00
 -1      1297 1.32325E+00
 -1      1298 9.24759E-01
 -1      1299 9.98780E-01
 -1      1300 1.05560E+00
 -1      1301 8.22841E-01
 -1      1302 8.69109E-01
 -1      1303 9.07249E-01
 -1      1304 7.59447E-01
 -1      1305 7.87662E-01
 -1      1306 8.16420E-01
 -1      1307 7.39803E-01
 -1      1308 7.38728E-01
 -1      1309 7.60522E-01
 -1      1310 7.91671E-01
 -1      1311 7.62320E-01
 -1      1312 7.62320E-01
 -1      1313 8.71590E-01
 -1      1314 8.26725E-01
 -1      1315 8.19891E-01
 -1      1316 1.00602E+00
 -1      1317 9.29507E-01
 -1      1318 9.12862E-01
 -1      1319 1.22959E+00
 -1      1320 1.10226E+00
 -1      1321 1.06702E+00
 -1      1322 1.66286E+00
 -1      1323 1.40657E+00
 -1      1324 1.34024E+00
 -1      1325 2.85857E+00
 -1      1326 2.02774E+00
 -1      1327 1.88210E+00
 -1      1328 6.25698E+00
 -1      1329 3.68665E+00
 -1      1330 3.07506E+00
 -1      1331 1.40325E+01
 -1      1332 1.13217E+01
 -1      1333 8.96782E+00
 -1      1334 1.40325E+01
 -1      1335 8.73975E+00
 -1      1336 4.34404E+00
 -1      1337 3.85448E+00
 -1      1338 3.36493E+00
 -1      1339 3.85448E+00
 -1      1340 2.75080E+00
 -1      1341 2.13668E+00
 -1      1342 2.75080E+00
 -1      1343 1.79997E+00
 -1      1344 1.43831E+00
 -1      1345 1.79997E+00
 -1      1346 1.25065E+00
 -1      1347 1.08795E+00
 -1      1348 1.27561E+00
 -1      1349 9.75768E-01
 -1      1350 8.63589E-01
 -1      1351 9.75768E-01
 -1      1352 7.81128E-01
 -1      1353 6.98667E-01
 -1      1354 7.81128E-01
 -1      1355 6.35201E-01
 -1      1356 5.71734E-01
 -1      1357 6.35201E-01
 -1      1358 5.21042E-01
 -1      1359 4.70349E-01
 -1      1360 5.21042E-01
 -1      1361 4.38307E-01
 -1      1362 4.24381E-01
 -1      1363 4.38307E-01
 -1      1364 4.42497E-01
 -1      1365 4.62031E-01
 -1      1366 4.24381E-01
 -1      1367 4.81564E-01
 -1      1368 4.99053E-01
 -1      1369 4.62031E-01
 -1      1370 5.16542E-01
 -1      1371 5.33267E-01
 -1      1372 4.99053E-01
 -1      1373 5.63104E-01
 -1      1374 6.41171E-01
 -1      1375 5.46379E-01
 -1      1376 7.06127E-01
 -1      1377 7.86632E-01
 -1      1378 6.41171E-01
 -1      1379 8.67137E-01
 -1      1380 9.26984E-01
 -1      1381 7.86632E-01
 -1      1382 9.86831E-01
 -1      1383 9.97246E-01
 -1      1384 9.26984E-01
 -1      1385 1.00766E+00
 -1      1386 1.01394E+00
 -1      1387 9.97246E-01
 -1      1388 1.02023E+00
 -1      1389 1.02023E+00
 -1      1390 1.01394E+00
 -1      1391 1.01930E+00
 -1      1392 1.10517E+00
 -1      1393 1.01930E+00
 -1      1394 1.19197E+00
 -1      1395 1.32932E+00
 -1      1396 1.10517E+00
 -1      1397 1.55659E+00
 -1      1398 2.09476E+00
 -1      1399 1.41924E+00
 -1      1400 2.54302E+00
 -1      1401 2.87551E+00
 -1      1402 2.09476E+00
 -1      1403 3.20801E+00
 -1      1404 3.20801E+00
 -1      1405 2.87551E+00
 -1      1406 3.16592E+00
 -1      1407 3.16104E+00
 -1      1408 3.16592E+00
 -1      1409 3.19825E+00
 -1      1410 3.19825E+00
 -1      1411 3.16104E+00
 -1      1412 2.85343E+00
 -1      1413 2.50862E+00
 -1      1414 2.85343E+00
 -1      1415 2.06537E+00
 -1      1416 1.54317E+00
 -1      1417 2.06537E+00
 -1      1418 1.32269E+00
 -1      1419 1.18117E+00
 -1      1420 1.40164E+00
 -1      1421 1.10131E+00
 -1      1422 1.02144E+00
 -1      1423 1.10131E+00
 -1      1424 1.01869E+00
 -1      1425 1.01593E+00
 -1      1426 1.01869E+00
 -1      1427 1.00372E+00
 -1      1428 9.91501E-01
 -1      1429 1.00372E+00
 -1      1430 9.77366E-01
 -1      1431 9.63231E-01
 -1      1432 9.77366E-01
 -1      1433 9.01735E-01
 -1      1434 8.40239E-01
 -1      1435 9.01735E-01
 -1      1436 7.66551E-01
 -1      1437 6.86482E-01
 -1      1438 7.66551E-01
 -1      1439 6.33747E-01
 -1      1440 5.65293E-01
 -1      1441 6.40128E-01
 -1      1442 5.21821E-01
 -1      1443 4.64455E-01
 -1      1444 5.43922E-01
 -1      1445 4.16779E-01
 -1      1446 3.88250E-01
 -1      1447 4.52774E-01
 -1      1448 3.42534E-01
 -1      1449 3.11045E-01
 -1      1450 3.59382E-01
 -1      1451 2.77816E-01
 -1      1452 2.47206E-01
 -1      1453 2.80435E-01
 -1      1454 2.20042E-01
 -1      1455 1.92453E-01
 -1      1456 2.20042E-01
 -1      1457 1.71411E-01
 -1      1458 1.47788E-01
 -1      1459 1.71837E-01
 -1      1460 1.29727E-01
 -1      1461 1.10231E-01
 -1      1462 1.32733E-01
 -1      1463 9.78614E-02
 -1      1464 8.99335E-02
 -1      1465 1.02303E-01
 -1      1466 8.18156E-02
 -1      1467 7.36977E-02
 -1      1468 8.18156E-02
 -1      1469 6.53123E-02
 -1      1470 5.69269E-02
 -1      1471 6.53123E-02
 -1      1472 4.76882E-02
 -1      1473 3.84494E-02
 -1      1474 4.76882E-02
 -1      1475 3.03130E-02
 -1      1476 2.12746E-02
 -1      1477 3.03130E-02
 -1      1478 1.39441E-02
 -1      1479 1.48461E-02
 -1      1480 3.42282E+00
 -1      1481 8.72766E+00
 -1      1482 8.72766E+00
 -1      1483 2.44259E+00
 -1      1484 2.93270E+00
 -1      1485 2.93270E+00
 -1      1486 1.69913E+00
 -1      1487 2.07086E+00
 -1      1488 2.07086E+00
 -1      1489 1.19611E+00
 -1      1490 1.44762E+00
 -1      1491 1.44762E+00
 -1      1492 9.99712E-01
 -1      1493 1.09791E+00
 -1      1494 1.09791E+00
 -1      1495 8.51017E-01
 -1      1496 9.25364E-01
 -1      1497 9.25364E-01
 -1      1498 7.39042E-01
 -1      1499 7.95029E-01
 -1      1500 7.95029E-01
 -1      1501 6.56321E-01
 -1      1502 6.97682E-01
 -1      1503 6.97682E-01
 -1      1504 5.98229E-01
 -1      1505 6.27275E-01
 -1      1506 6.27275E-01
 -1      1507 5.60378E-01
 -1      1508 5.79303E-01
 -1      1509 5.79303E-01
 -1      1510 5.56596E-01
 -1      1511 5.48621E-01
 -1      1512 5.48621E-01
 -1      1513 6.19609E-01
 -1      1514 5.76330E-01
 -1      1515 5.56596E-01
 -1      1516 7.07108E-01
 -1      1517 6.62888E-01
 -1      1518 6.19609E-01
 -1      1519 7.87289E-01
 -1      1520 7.51329E-01
 -1      1521 7.07108E-01
 -1      1522 8.35941E-01
 -1      1523 8.23249E-01
 -1      1524 7.87289E-01
 -1      1525 9.29828E-01
 -1      1526 8.60492E-01
 -1      1527 8.47800E-01
 -1      1528 1.17026E+00
 -1      1529 1.02547E+00
 -1      1530 9.67994E-01
 -1      1531 1.37797E+00
 -1      1532 1.27689E+00
 -1      1533 1.17026E+00
 -1      1534 1.58132E+00
 -1      1535 1.47906E+00
 -1      1536 1.37797E+00
 -1      1537 1.81138E+00
 -1      1538 1.68358E+00
 -1      1539 1.58132E+00
 -1      1540 1.99517E+00
 -1      1541 1.93918E+00
 -1      1542 1.81138E+00
 -1      1543 2.30086E+00
 -1      1544 2.05115E+00
 -1      1545 1.99517E+00
 -1      1546 3.27459E+00
 -1      1547 2.59084E+00
 -1      1548 2.34113E+00
 -1      1549 4.13366E+00
 -1      1550 3.91807E+00
 -1      1551 3.27459E+00
 -1      1552 4.61219E+00
 -1      1553 4.34926E+00
 -1      1554 4.13366E+00
 -1      1555 4.87512E+00
 -1      1556 4.87512E+00
 -1      1557 4.61219E+00
 -1      1558 3.60619E+00
 -1      1559 4.24065E+00
 -1      1560 4.24065E+00
 -1      1561 1.99302E+00
 -1      1562 2.79960E+00
 -1      1563 2.79960E+00
 -1      1564 1.33744E+00
 -1      1565 1.60608E+00
 -1      1566 1.60608E+00
 -1      1567 1.56477E+00
 -1      1568 1.45574E+00
 -1      1569 1.33744E+00
 -1      1570 1.69756E+00
 -1      1571 1.67381E+00
 -1      1572 1.56477E+00
 -1      1573 1.72131E+00
 -1      1574 1.72131E+00
 -1      1575 1.69756E+00
 -1      1576 1.55384E+00
 -1      1577 1.63757E+00
 -1      1578 1.63757E+00
 -1      1579 1.30816E+00
 -1      1580 1.43100E+00
 -1      1581 1.43100E+00
 -1      1582 1.08699E+00
 -1      1583 1.19778E+00
 -1      1584 1.19778E+00
 -1      1585 8.75569E-01
 -1      1586 9.87706E-01
 -1      1587 9.88112E-01
 -1      1588 6.78630E-01
 -1      1589 7.80277E-01
 -1      1590 7.93534E-01
 -1      1591 5.08596E-01
 -1      1592 5.94640E-01
 -1      1593 6.14251E-01
 -1      1594 3.77332E-01
 -1      1595 4.38642E-01
 -1      1596 4.60307E-01
 -1      1597 2.81186E-01
 -1      1598 3.23332E-01
 -1      1599 3.36353E-01
 -1      1600 2.10299E-01
 -1      1601 2.45159E-01
 -1      1602 2.46326E-01
 -1      1603 1.54291E-01
 -1      1604 1.82295E-01
 -1      1605 1.82295E-01
 -1      1606 1.11335E-01
 -1      1607 1.33350E-01
 -1      1608 1.33350E-01
 -1      1609 7.80931E-02
 -1      1610 9.51629E-02
 -1      1611 9.62371E-02
 -1      1612 5.47594E-02
 -1      1613 6.55089E-02
 -1      1614 6.74805E-02
 -1      1615 4.41347E-02
 -1      1616 4.93786E-02
 -1      1617 4.95155E-02
 -1      1618 3.11979E-02
 -1      1619 3.76663E-02
 -1      1620 3.76663E-02
 -1      1621 1.86687E-02
 -1      1622 2.49333E-02
 -1      1623 2.49333E-02
 -1      1624 1.20698E-02
 -1      1625 8.72561E-03
 -1      1626 8.00878E-03
 -1      1627 9.65945E-03
 -1      1628 9.65945E-03
 -1      1629 1.14805E-02
 -1      1630 8.90067E-03
 -1      1631 9.65945E-03
 -1      1632 1.24143E-02
 -1      1633 5.28034E-03
 -1      1634 6.82532E-03
 -1      1635 1.03390E-02
 -1      1636 6.73571E-03
 -1      1637 5.65973E-03
 -1      1638 8.64304E-03
 -1      1639 9.48098E-03
 -1      1640 8.58652E-03
 -1      1641 1.08732E-02
 -1      1642 1.05247E-02
 -1      1643 1.02363E-02
 -1      1644 1.34793E-02
 -1      1645 1.05247E-02
 -1      1646 1.05247E-02
 -1      1647 1.42346E-02
 -1      1648 1.02071E-02
 -1      1649 1.05064E-02
 -1      1650 1.42163E-02
 -1      1651 8.46214E-03
 -1      1652 9.38123E-03
 -1      1653 1.33722E-02
 -1      1654 5.57049E-03
 -1      1655 6.67053E-03
 -1      1656 1.07547E-02
 -1      1657 6.59248E-03
 -1      1658 5.04178E-03
 -1      1659 8.43441E-03
 -1      1660 9.48016E-03
 -1      1661 8.82330E-03
 -1      1662 1.01365E-02
 -1      1663 9.56803E-03
 -1      1664 9.48016E-03
 -1      1665 1.23673E-02
 -1      1666 1.00855E-02
 -1      1667 9.71200E-03
 -1      1668 1.25113E-02
 -1      1669 1.74160E-02
 -1      1670 2.81503E+01
 -1      1671 2.84856E+01
 -1      1672 3.95867E+01
 -1      1673 2.77498E+01
 -1      1674 4.83441E+01
 -1      1675 4.83441E+01
 -1      1676 2.35310E+01
 -1      1677 3.62726E+01
 -1      1678 1.18904E+01
 -1      1679 1.72670E+01
 -1      1680 1.23743E+01
 -1      1681 1.21079E+01
 -1      1682 1.26407E+01
 -1      1683 1.26407E+01
 -1      1684 1.23708E+01
 -1      1685 1.25058E+01
 -1      1686 1.21881E+01
 -1      1687 1.22794E+01
 -1      1688 1.20965E+01
 -1      1689 1.21423E+01
 -1      1690 1.64282E+01
 -1      1691 1.17712E+01
 -1      1692 3.55564E+01
 -1      1693 2.24080E+01
 -1      1694 4.77073E+01
 -1      1695 4.77073E+01
 -1      1696 2.68462E+01
 -1      1697 3.84776E+01
 -1      1698 2.74239E+01
 -1      1699 2.76680E+01
 -1      1700 2.78928E+01
 -1      1701 2.74239E+01
 -1      1702 3.06157E+01
 -1      1703 2.88458E+01
 -1      1704 3.09514E+01
 -1      1705 3.06157E+01
 -1      1706 2.85028E+01
 -1      1707 2.91053E+01
 -1      1708 1.23910E+01
 -1      1709 2.01456E+01
 -1      1710 1.21488E+01
 -1      1711 1.21061E+01
 -1      1712 1.24763E+01
 -1      1713 1.24763E+01
 -1      1714 1.22553E+01
 -1      1715 1.23658E+01
 -1      1716 1.20507E+01
 -1      1717 1.21360E+01
 -1      1718 1.20847E+01
 -1      1719 1.20847E+01
 -1      1720 1.54652E+01
 -1      1721 1.15681E+01
 -1      1722 3.34754E+01
 -1      1723 2.02043E+01
 -1      1724 4.64211E+01
 -1      1725 4.64211E+01
 -1      1726 2.67116E+01
 -1      1727 3.72517E+01
 -1      1728 2.84856E+01
 -1      1729 2.84856E+01
 -1      1730 1.79370E+01
 -1      1731 3.62726E+01
 -1      1732 1.20698E-02
 -1      1733 1.46077E-02
 -1      1734 3.12298E+01
 -1      1735 3.95867E+01
 -1      1736 3.16303E+01
 -1      1737 1.18904E+01
 -1      1738 1.23743E+01
 -1      1739 1.25058E+01
 -1      1740 1.22794E+01
 -1      1741 1.21423E+01
 -1      1742 1.17712E+01
 -1      1743 1.74257E+01
 -1      1744 3.55564E+01
 -1      1745 3.84776E+01
 -1      1746 3.00698E+01
 -1      1747 3.08916E+01
 -1      1748 3.18446E+01
 -1      1749 3.27976E+01
 -1      1750 3.09514E+01
 -1      1751 2.07481E+01
 -1      1752 1.21061E+01
 -1      1753 1.21488E+01
 -1      1754 1.23658E+01
 -1      1755 1.21360E+01
 -1      1756 1.20507E+01
 -1      1757 1.15681E+01
 -1      1758 1.57907E+01
 -1      1759 3.34754E+01
 -1      1760 3.72517E+01
 -1      1761 2.98564E+01
 -1      1762 9.58334E+00
 -1      1763 1.26264E+00
 -1      1764 1.64904E+00
 -1      1765 2.35852E+00
 -1      1766 4.23863E+00
 -1      1767 1.73656E+00
 -1      1768 8.73201E-01
 -1      1769 9.65903E-01
 -1      1770 7.68068E-01
 -1      1771 8.23717E-01
 -1      1772 7.34020E-01
 -1      1773 7.00808E-01
 -1      1774 7.35987E-01
 -1      1775 6.52456E-01
 -1      1776 6.57166E-01
 -1      1777 6.77885E-01
 -1      1778 5.97453E-01
 -1      1779 6.81405E-01
 -1      1780 6.58888E-01
 -1      1781 5.76252E-01
 -1      1782 7.39133E-01
 -1      1783 7.04079E-01
 -1      1784 6.00647E-01
 -1      1785 8.31290E-01
 -1      1786 7.73372E-01
 -1      1787 6.57560E-01
 -1      1788 9.75782E-01
 -1      1789 8.79543E-01
 -1      1790 7.40053E-01
 -1      1791 1.22073E+00
 -1      1792 1.04375E+00
 -1      1793 8.56274E-01
 -1      1794 1.69307E+00
 -1      1795 1.32819E+00
 -1      1796 1.03170E+00
 -1      1797 2.60321E+00
 -1      1798 1.77513E+00
 -1      1799 1.22122E+00
 -1      1800 8.11155E+00
 -1      1801 3.04687E+00
 -1      1802 1.74694E+00
 -1      1803 2.80670E+00
 -1      1804 5.18763E+00
 -1      1805 2.17008E+00
 -1      1806 2.66020E+00
 -1      1807 2.04409E+00
 -1      1808 3.39504E+00
 -1      1809 2.55270E+00
 -1      1810 1.93858E+00
 -1      1811 1.70562E+00
 -1      1812 1.36892E+00
 -1      1813 1.50752E+00
 -1      1814 1.18568E+00
 -1      1815 9.98016E-01
 -1      1816 1.09132E+00
 -1      1817 8.91545E-01
 -1      1818 7.79366E-01
 -1      1819 8.01614E-01
 -1      1820 7.27833E-01
 -1      1821 6.45372E-01
 -1      1822 6.43610E-01
 -1      1823 5.97846E-01
 -1      1824 5.34379E-01
 -1      1825 5.44551E-01
 -1      1826 4.90431E-01
 -1      1827 4.39739E-01
 -1      1828 4.53077E-01
 -1      1829 3.98453E-01
 -1      1830 3.66411E-01
 -1      1831 3.67843E-01
 -1      1832 3.74126E-01
 -1      1833 3.92241E-01
 -1      1834 3.34272E-01
 -1      1835 4.09920E-01
 -1      1836 4.29454E-01
 -1      1837 3.59665E-01
 -1      1838 4.44933E-01
 -1      1839 4.62421E-01
 -1      1840 3.92823E-01
 -1      1841 5.03930E-01
 -1      1842 5.33767E-01
 -1      1843 4.49810E-01
 -1      1844 5.78294E-01
 -1      1845 6.43250E-01
 -1      1846 5.35845E-01
 -1      1847 6.91671E-01
 -1      1848 7.72176E-01
 -1      1849 6.28794E-01
 -1      1850 8.05689E-01
 -1      1851 8.65536E-01
 -1      1852 7.10729E-01
 -1      1853 8.60053E-01
 -1      1854 8.70468E-01
 -1      1855 7.38758E-01
 -1      1856 8.02104E-01
 -1      1857 8.08387E-01
 -1      1858 6.64911E-01
 -1      1859 7.78669E-01
 -1      1860 7.77739E-01
 -1      1861 5.66829E-01
 -1      1862 8.51685E-01
 -1      1863 9.38486E-01
 -1      1864 6.11057E-01
 -1      1865 1.18307E+00
 -1      1866 1.41034E+00
 -1      1867 9.29586E-01
 -1      1868 1.59616E+00
 -1      1869 2.04441E+00
 -1      1870 1.35999E+00
 -1      1871 2.26053E+00
 -1      1872 2.59303E+00
 -1      1873 1.76193E+00
 -1      1874 2.62006E+00
 -1      1875 2.57797E+00
 -1      1876 2.00508E+00
 -1      1877 2.58138E+00
 -1      1878 2.61859E+00
 -1      1879 2.03552E+00
 -1      1880 2.58456E+00
 -1      1881 2.23975E+00
 -1      1882 2.00491E+00
 -1      1883 2.01689E+00
 -1      1884 1.57364E+00
 -1      1885 1.74801E+00
 -1      1886 1.38758E+00
 -1      1887 1.16711E+00
 -1      1888 1.33910E+00
 -1      1889 9.20202E-01
 -1      1890 8.40339E-01
 -1      1891 9.06142E-01
 -1      1892 7.76811E-01
 -1      1893 7.74054E-01
 -1      1894 5.95706E-01
 -1      1895 8.07352E-01
 -1      1896 7.95138E-01
 -1      1897 5.65476E-01
 -1      1898 8.61029E-01
 -1      1899 8.46894E-01
 -1      1900 6.64666E-01
 -1      1901 8.51745E-01
 -1      1902 7.90249E-01
 -1      1903 7.35408E-01
 -1      1904 7.58126E-01
 -1      1905 6.84438E-01
 -1      1906 7.08135E-01
 -1      1907 6.47637E-01
 -1      1908 5.94902E-01
 -1      1909 6.39212E-01
 -1      1910 5.61240E-01
 -1      1911 5.17768E-01
 -1      1912 5.68748E-01
 -1      1913 4.78826E-01
 -1      1914 4.31150E-01
 -1      1915 4.96144E-01
 -1      1916 3.89354E-01
 -1      1917 3.43637E-01
 -1      1918 4.15406E-01
 -1      1919 3.03740E-01
 -1      1920 2.70510E-01
 -1      1921 3.33712E-01
 -1      1922 2.35137E-01
 -1      1923 2.07973E-01
 -1      1924 2.58441E-01
 -1      1925 1.78235E-01
 -1      1926 1.57194E-01
 -1      1927 1.93330E-01
 -1      1928 1.33238E-01
 -1      1929 1.15176E-01
 -1      1930 1.39637E-01
 -1      1931 9.96858E-02
 -1      1932 8.73167E-02
 -1      1933 1.00190E-01
 -1      1934 7.52737E-02
 -1      1935 6.71557E-02
 -1      1936 7.26568E-02
 -1      1937 5.90057E-02
 -1      1938 5.06203E-02
 -1      1939 5.24638E-02
 -1      1940 4.41267E-02
 -1      1941 3.48880E-02
 -1      1942 3.78201E-02
 -1      1943 2.94829E-02
 -1      1944 2.13465E-02
 -1      1945 1.65858E-02
 -1      1946 2.59215E-02
 -1      1947 1.42360E+00
 -1      1948 1.79534E+00
 -1      1949 1.52283E+00
 -1      1950 1.04323E+00
 -1      1951 1.29474E+00
 -1      1952 1.01922E+00
 -1      1953 8.46290E-01
 -1      1954 9.44487E-01
 -1      1955 7.91610E-01
 -1      1956 7.04033E-01
 -1      1957 7.78381E-01
 -1      1958 6.24959E-01
 -1      1959 6.28050E-01
 -1      1960 6.84038E-01
 -1      1961 5.37054E-01
 -1      1962 5.67350E-01
 -1      1963 6.08710E-01
 -1      1964 4.97719E-01
 -1      1965 5.21374E-01
 -1      1966 5.50420E-01
 -1      1967 4.61449E-01
 -1      1968 4.88526E-01
 -1      1969 5.07451E-01
 -1      1970 4.30596E-01
 -1      1971 4.81654E-01
 -1      1972 4.93411E-01
 -1      1973 4.21559E-01
 -1      1974 5.47489E-01
 -1      1975 5.27756E-01
 -1      1976 4.72546E-01
 -1      1977 6.80841E-01
 -1      1978 6.37562E-01
 -1      1979 6.08721E-01
 -1      1980 8.16783E-01
 -1      1981 7.72563E-01
 -1      1982 7.90515E-01
 -1      1983 9.35025E-01
 -1      1984 8.99065E-01
 -1      1985 9.64519E-01
 -1      1986 1.03021E+00
 -1      1987 1.00566E+00
 -1      1988 1.11743E+00
 -1      1989 1.16761E+00
 -1      1990 1.07196E+00
 -1      1991 1.22982E+00
 -1      1992 1.27423E+00
 -1      1993 1.16761E+00
 -1      1994 1.27158E+00
 -1      1995 1.33738E+00
 -1      1996 1.23630E+00
 -1      1997 1.23365E+00
 -1      1998 1.32087E+00
 -1      1999 1.21861E+00
 -1      2000 1.07693E+00
 -1      2001 1.46730E+00
 -1      2002 1.33949E+00
 -1      2003 9.76781E-01
 -1      2004 1.91493E+00
 -1      2005 1.85894E+00
 -1      2006 1.38705E+00
 -1      2007 2.48339E+00
 -1      2008 2.19341E+00
 -1      2009 2.05718E+00
 -1      2010 3.42899E+00
 -1      2011 2.78551E+00
 -1      2012 2.63779E+00
 -1      2013 3.50314E+00
 -1      2014 3.28754E+00
 -1      2015 2.79847E+00
 -1      2016 3.79865E+00
 -1      2017 3.53572E+00
 -1      2018 2.68960E+00
 -1      2019 2.98376E+00
 -1      2020 3.61822E+00
 -1      2021 2.54175E+00
 -1      2022 1.68653E+00
 -1      2023 2.49311E+00
 -1      2024 1.87068E+00
 -1      2025 1.09780E+00
 -1      2026 1.48474E+00
 -1      2027 1.17825E+00
 -1      2028 1.27737E+00
 -1      2029 1.15907E+00
 -1      2030 1.03773E+00
 -1      2031 1.47042E+00
 -1      2032 1.36139E+00
 -1      2033 1.18302E+00
 -1      2034 1.50212E+00
 -1      2035 1.47837E+00
 -1      2036 1.27499E+00
 -1      2037 1.39872E+00
 -1      2038 1.48245E+00
 -1      2039 1.26327E+00
 -1      2040 1.21189E+00
 -1      2041 1.33474E+00
 -1      2042 1.17962E+00
 -1      2043 1.03700E+00
 -1      2044 1.14737E+00
 -1      2045 1.05111E+00
 -1      2046 8.57166E-01
 -1      2047 9.56452E-01
 -1      2048 9.06049E-01
 -1      2049 6.80211E-01
 -1      2050 7.75503E-01
 -1      2051 7.43843E-01
 -1      2052 5.21755E-01
 -1      2053 6.05745E-01
 -1      2054 5.87715E-01
 -1      2055 3.88221E-01
 -1      2056 4.58176E-01
 -1      2057 4.49670E-01
 -1      2058 2.82353E-01
 -1      2059 3.36353E-01
 -1      2060 3.34221E-01
 -1      2061 2.07672E-01
 -1      2062 2.43700E-01
 -1      2063 2.43700E-01
 -1      2064 1.53930E-01
 -1      2065 1.81934E-01
 -1      2066 1.79308E-01
 -1      2067 1.12409E-01
 -1      2068 1.33350E-01
 -1      2069 1.32990E-01
 -1      2070 8.00648E-02
 -1      2071 9.62371E-02
 -1      2072 9.62371E-02
 -1      2073 5.48963E-02
 -1      2074 6.74805E-02
 -1      2075 6.74805E-02
 -1      2076 3.99938E-02
 -1      2077 4.53746E-02
 -1      2078 4.53746E-02
 -1      2079 2.71473E-02
 -1      2080 3.36157E-02
 -1      2081 2.94748E-02
 -1      2082 1.55264E-02
 -1      2083 2.17910E-02
 -1      2084 1.77405E-02
 -1      2085 1.14654E-02
 -1      2086 1.16319E-02
 -1      2087 1.37072E-02
 -1      2088 1.60413E-02
 -1      2089 1.60413E-02
 -1      2090 1.73342E-02
 -1      2091 1.60413E-02
 -1      2092 1.51075E-02
 -1      2093 1.60262E-02
 -1      2094 1.96682E-02
 -1      2095 1.09967E-02
 -1      2096 1.06174E-02
 -1      2097 1.39856E-02
 -1      2098 1.57534E-02
 -1      2099 1.39026E-02
 -1      2100 1.58769E-02
 -1      2101 1.79031E-02
 -1      2102 1.71478E-02
 -1      2103 2.01772E-02
 -1      2104 1.79031E-02
 -1      2105 1.79031E-02
 -1      2106 2.15716E-02
 -1      2107 1.77611E-02
 -1      2108 1.77794E-02
 -1      2109 2.14479E-02
 -1      2110 1.69353E-02
 -1      2111 1.77611E-02
 -1      2112 2.13242E-02
 -1      2113 1.37263E-02
 -1      2114 1.55179E-02
 -1      2115 1.99068E-02
 -1      2116 1.02766E-02
 -1      2117 1.08053E-02
 -1      2118 1.55685E-02
 -1      2119 1.35919E-02
 -1      2120 1.13611E-02
 -1      2121 1.37320E-02
 -1      2122 1.57017E-02
 -1      2123 1.57017E-02
 -1      2124 1.69263E-02
 -1      2125 3.95867E+01
 -1      2126 3.08292E+01
 -1      2127 3.18205E+01
 -1      2128 3.18205E+01
 -1      2129 3.14199E+01
 -1      2130 3.18205E+01
 -1      2131 3.20106E+01
 -1      2132 2.08406E+01
 -1      2133 3.29122E+01
 -1      2134 1.10307E+01
 -1      2135 1.72947E+01
 -1      2136 1.02954E+00
 -1      2137 1.20448E+00
 -1      2138 9.68928E-01
 -1      2139 8.47138E-01
 -1      2140 1.07579E+01
 -1      2141 1.04915E+01
 -1      2142 1.15883E+01
 -1      2143 1.17233E+01
 -1      2144 1.15824E+01
 -1      2145 1.16738E+01
 -1      2146 1.10606E+01
 -1      2147 1.11064E+01
 -1      2148 1.05007E+01
 -1      2149 9.35304E+00
 -1      2150 9.67831E+00
 -1      2151 1.67440E+01
 -1      2152 1.07643E+01
 -1      2153 8.67140E+00
 -1      2154 3.22931E+01
 -1      2155 2.01422E+01
 -1      2156 2.92480E+01
 -1      2157 3.84776E+01
 -1      2158 2.92304E+01
 -1      2159 2.84086E+01
 -1      2160 3.15623E+01
 -1      2161 3.15623E+01
 -1      2162 3.25153E+01
 -1      2163 3.15623E+01
 -1      2164 3.27976E+01
 -1      2165 3.27976E+01
 -1      2166 2.45039E+01
 -1      2167 2.63501E+01
 -1      2168 1.20261E+01
 -1      2169 2.03833E+01
 -1      2170 9.34558E+00
 -1      2171 9.63047E+00
 -1      2172 1.09337E+01
 -1      2173 1.06062E+01
 -1      2174 1.15014E+01
 -1      2175 1.16119E+01
 -1      2176 1.13540E+01
 -1      2177 1.14733E+01
 -1      2178 1.09853E+01
 -1      2179 1.09513E+01
 -1      2180 1.02887E+01
 -1      2181 9.13456E+00
 -1      2182 9.65109E+00
 -1      2183 1.49093E+01
 -1      2184 1.01703E+01
 -1      2185 3.11542E+01
 -1      2186 1.82086E+01
 -1      2187 2.80824E+01
 -1      2188 3.72517E+01
 -1      2189 3.03332E+01
 -1      2190 2.85592E+01
 -1      2191 2.85592E+01
 -1      2192 9.18065E+00
 -1      2193 8.96316E+00
 -1      2194 8.32090E+00
 -1      2195 2.90549E+00
 -1      2196 7.56420E+00
 -1      2197 2.09326E+00
 -1      2198 3.14199E+01
 -1      2199 2.41547E+01
 -1      2200 1.58457E-02
 -1      2201 3.05233E+01
 -1      2202 1.39343E+01
 -1      2203 2.19849E+01
 -1      2204 1.25882E+01
 -1      2205 8.55177E+00
 -1      2206 1.07194E+01
 -1      2207 1.00693E+01
 -1      2208 8.13056E+00
 -1      2209 9.26564E+00
 -1      2210 1.57819E+01
 -1      2211 2.63501E+01
 -1      2212 3.25153E+01
 -1      2213 3.22330E+01
 -1      2214 2.99011E+01
 -1      2215 2.84086E+01
 -1      2216 1.34808E+01
 -1      2217 8.64244E+00
 -1      2218 9.84045E+00
 -1      2219 1.08913E+01
 -1      2220 2.30635E+01
 -1      2221 8.25322E+00
 -1      2222 1.10088E+00
 -1      2223 1.47562E+00
 -1      2224 5.48752E-01
 -1      2225 5.80832E-01
 -1      2226 5.94513E-01
 -1      2227 6.43997E-01
 -1      2228 4.90809E-01
 -1      2229 4.97989E-01
 -1      2230 4.96267E-01
 -1      2231 5.34660E-01
 -1      2232 5.11986E-01
 -1      2233 4.32001E-01
 -1      2234 5.85058E-01
 -1      2235 5.50819E-01
 -1      2236 4.62157E-01
 -1      2237 6.46715E-01
 -1      2238 5.98461E-01
 -1      2239 4.91720E-01
 -1      2240 7.14681E-01
 -1      2241 6.46715E-01
 -1      2242 5.05123E-01
 -1      2243 8.65908E-01
 -1      2244 7.58446E-01
 -1      2245 5.48887E-01
 -1      2246 8.90352E-01
 -1      2247 1.01922E+00
 -1      2248 9.72011E-01
 -1      2249 1.26086E+00
 -1      2250 1.02790E+00
 -1      2251 6.74904E+00
 -1      2252 5.43821E+00
 -1      2253 9.83434E-01
 -1      2254 8.00194E-01
 -1      2255 7.36772E-01
 -1      2256 7.36827E-01
 -1      2257 6.30357E-01
 -1      2258 6.28937E-01
 -1      2259 5.65143E-01
 -1      2260 5.13609E-01
 -1      2261 5.00356E-01
 -1      2262 4.86529E-01
 -1      2263 4.39003E-01
 -1      2264 4.08062E-01
 -1      2265 4.08971E-01
 -1      2266 3.65023E-01
 -1      2267 3.50950E-01
 -1      2268 3.30759E-01
 -1      2269 2.89473E-01
 -1      2270 2.86653E-01
 -1      2271 2.76478E-01
 -1      2272 2.84192E-01
 -1      2273 2.39393E-01
 -1      2274 3.00204E-01
 -1      2275 3.17883E-01
 -1      2276 2.42410E-01
 -1      2277 3.53476E-01
 -1      2278 3.68955E-01
 -1      2279 2.94015E-01
 -1      2280 4.19696E-01
 -1      2281 4.61205E-01
 -1      2282 3.80350E-01
 -1      2283 5.05918E-01
 -1      2284 5.50445E-01
 -1      2285 4.75805E-01
 -1      2286 5.87815E-01
 -1      2287 6.36237E-01
 -1      2288 5.57888E-01
 -1      2289 6.72830E-01
 -1      2290 7.06343E-01
 -1      2291 6.31852E-01
 -1      2292 7.42982E-01
 -1      2293 7.37499E-01
 -1      2294 7.05084E-01
 -1      2295 7.48122E-01
 -1      2296 6.79758E-01
 -1      2297 7.52346E-01
 -1      2298 7.22160E-01
 -1      2299 6.92442E-01
 -1      2300 8.05371E-01
 -1      2301 7.68118E-01
 -1      2302 8.42064E-01
 -1      2303 9.23449E-01
 -1      2304 9.05470E-01
 -1      2305 1.15005E+00
 -1      2306 1.06253E+00
 -1      2307 1.26197E+00
 -1      2308 1.44780E+00
 -1      2309 1.23786E+00
 -1      2310 1.55685E+00
 -1      2311 1.77297E+00
 -1      2312 1.45883E+00
 -1      2313 2.01461E+00
 -1      2314 2.04164E+00
 -1      2315 1.80953E+00
 -1      2316 2.04913E+00
 -1      2317 2.05254E+00
 -1      2318 2.05866E+00
 -1      2319 2.00842E+00
 -1      2320 1.97439E+00
 -1      2321 2.02202E+00
 -1      2322 1.75706E+00
 -1      2323 1.53420E+00
 -1      2324 1.76058E+00
 -1      2325 1.43397E+00
 -1      2326 1.24792E+00
 -1      2327 1.44302E+00
 -1      2328 1.12781E+00
 -1      2329 8.80901E-01
 -1      2330 1.22268E+00
 -1      2331 8.26227E-01
 -1      2332 7.62699E-01
 -1      2333 1.04789E+00
 -1      2334 6.85646E-01
 -1      2335 7.18944E-01
 -1      2336 9.16167E-01
 -1      2337 6.92695E-01
 -1      2338 7.58586E-01
 -1      2339 8.12865E-01
 -1      2340 7.50048E-01
 -1      2341 7.54898E-01
 -1      2342 7.78077E-01
 -1      2343 7.22022E-01
 -1      2344 6.89900E-01
 -1      2345 7.36663E-01
 -1      2346 6.52986E-01
 -1      2347 6.16185E-01
 -1      2348 6.66873E-01
 -1      2349 5.85715E-01
 -1      2350 5.52053E-01
 -1      2351 5.99489E-01
 -1      2352 5.15146E-01
 -1      2353 4.76204E-01
 -1      2354 5.32113E-01
 -1      2355 4.35508E-01
 -1      2356 3.93712E-01
 -1      2357 4.54510E-01
 -1      2358 3.53899E-01
 -1      2359 3.14002E-01
 -1      2360 3.74002E-01
 -1      2361 2.77826E-01
 -1      2362 2.42452E-01
 -1      2363 2.98013E-01
 -1      2364 2.11248E-01
 -1      2365 1.81511E-01
 -1      2366 2.30633E-01
 -1      2367 1.55658E-01
 -1      2368 1.31702E-01
 -1      2369 1.73576E-01
 -1      2370 1.11005E-01
 -1      2371 9.55149E-02
 -1      2372 1.27027E-01
 -1      2373 7.94659E-02
 -1      2374 6.74229E-02
 -1      2375 9.02809E-02
 -1      2376 5.53842E-02
 -1      2377 4.72342E-02
 -1      2378 6.21933E-02
 -1      2379 3.84801E-02
 -1      2380 3.19864E-02
 -1      2381 4.14005E-02
 -1      2382 5.46401E-01
 -1      2383 6.14309E-01
 -1      2384 4.94447E-01
 -1      2385 5.14443E-01
 -1      2386 5.03793E-01
 -1      2387 4.39399E-01
 -1      2388 4.58739E-01
 -1      2389 4.36127E-01
 -1      2390 3.85036E-01
 -1      2391 4.01966E-01
 -1      2392 3.62986E-01
 -1      2393 3.51984E-01
 -1      2394 3.65907E-01
 -1      2395 3.06424E-01
 -1      2396 3.81856E-01
 -1      2397 3.76970E-01
 -1      2398 3.12282E-01
 -1      2399 4.74978E-01
 -1      2400 4.28876E-01
 -1      2401 3.84288E-01
 -1      2402 6.48367E-01
 -1      2403 5.58294E-01
 -1      2404 5.14624E-01
 -1      2405 8.28960E-01
 -1      2406 7.37238E-01
 -1      2407 6.86811E-01
 -1      2408 9.99617E-01
 -1      2409 9.17336E-01
 -1      2410 8.64058E-01
 -1      2411 1.14685E+00
 -1      2412 1.07622E+00
 -1      2413 1.02904E+00
 -1      2414 1.24221E+00
 -1      2415 1.20046E+00
 -1      2416 1.15924E+00
 -1      2417 1.32939E+00
 -1      2418 1.32939E+00
 -1      2419 1.30002E+00
 -1      2420 1.37026E+00
 -1      2421 1.40819E+00
 -1      2422 1.46600E+00
 -1      2423 1.27407E+00
 -1      2424 1.39285E+00
 -1      2425 1.56740E+00
 -1      2426 1.43177E+00
 -1      2427 1.41315E+00
 -1      2428 1.72907E+00
 -1      2429 1.85997E+00
 -1      2430 1.46832E+00
 -1      2431 1.90469E+00
 -1      2432 2.19182E+00
 -1      2433 1.91334E+00
 -1      2434 1.99460E+00
 -1      2435 3.68138E+00
 -1      2436 3.37925E+00
 -1      2437 3.23540E+00
 -1      2438 5.19065E+00
 -1      2439 5.33210E+00
 -1      2440 6.07356E+00
 -1      2441 2.84896E+00
 -1      2442 2.81638E+00
 -1      2443 5.35002E+00
 -1      2444 2.69469E+00
 -1      2445 2.87512E+00
 -1      2446 3.00190E+00
 -1      2447 1.74512E+00
 -1      2448 2.23576E+00
 -1      2449 2.56913E+00
 -1      2450 1.48207E+00
 -1      2451 1.68386E+00
 -1      2452 2.04894E+00
 -1      2453 1.34832E+00
 -1      2454 1.28706E+00
 -1      2455 1.79266E+00
 -1      2456 1.43160E+00
 -1      2457 1.34759E+00
 -1      2458 1.59691E+00
 -1      2459 1.37705E+00
 -1      2460 1.36910E+00
 -1      2461 1.53367E+00
 -1      2462 1.26613E+00
 -1      2463 1.28580E+00
 -1      2464 1.37992E+00
 -1      2465 1.14408E+00
 -1      2466 1.20806E+00
 -1      2467 1.23059E+00
 -1      2468 1.01560E+00
 -1      2469 1.08012E+00
 -1      2470 1.10856E+00
 -1      2471 8.55187E-01
 -1      2472 9.35730E-01
 -1      2473 9.64736E-01
 -1      2474 6.91637E-01
 -1      2475 7.73300E-01
 -1      2476 8.02981E-01
 -1      2477 5.41418E-01
 -1      2478 6.15884E-01
 -1      2479 6.45340E-01
 -1      2480 4.12099E-01
 -1      2481 4.75678E-01
 -1      2482 5.03847E-01
 -1      2483 3.05639E-01
 -1      2484 3.57508E-01
 -1      2485 3.83517E-01
 -1      2486 2.23128E-01
 -1      2487 2.61781E-01
 -1      2488 2.85068E-01
 -1      2489 1.63092E-01
 -1      2490 1.88830E-01
 -1      2491 2.06912E-01
 -1      2492 1.16331E-01
 -1      2493 1.36912E-01
 -1      2494 1.46433E-01
 -1      2495 8.06632E-02
 -1      2496 9.68355E-02
 -1      2497 1.00757E-01
 -1      2498 5.39727E-02
 -1      2499 6.65570E-02
 -1      2500 6.71554E-02
 -1      2501 3.65781E-02
 -1      2502 4.60998E-02
 -1      2503 4.51762E-02
 -1      2504 2.47924E-02
 -1      2505 3.11705E-02
 -1      2506 3.18957E-02
 -1      2507 2.13825E-02
 -1      2508 2.19521E-02
 -1      2509 1.90463E-02
 -1      2510 2.56566E-02
 -1      2511 2.42622E-02
 -1      2512 2.74316E-02
 -1      2513 1.75304E-02
 -1      2514 1.98644E-02
 -1      2515 1.67959E-02
 -1      2516 1.78104E-02
 -1      2517 2.03406E-02
 -1      2518 2.28711E-02
 -1      2519 2.57256E-02
 -1      2520 2.57256E-02
 -1      2521 2.98107E-02
 -1      2522 2.56019E-02
 -1      2523 2.57256E-02
 -1      2524 2.98796E-02
 -1      2525 2.55497E-02
 -1      2526 2.55497E-02
 -1      2527 2.98274E-02
 -1      2528 2.38566E-02
 -1      2529 2.52740E-02
 -1      2530 2.94995E-02
 -1      2531 1.84730E-02
 -1      2532 2.13939E-02
 -1      2533 2.67611E-02
 -1      2534 1.93051E-02
 -1      2535 1.82207E-02
 -1      2536 2.40461E-02
 -1      2537 2.14150E-02
 -1      2538 1.93051E-02
 -1      2539 2.37938E-02
 -1      2540 1.61357E+01
 -1      2541 2.28102E+01
 -1      2542 1.97763E-02
 -1      2543 3.05233E+01
 -1      2544 2.90360E+01
 -1      2545 6.92867E-01
 -1      2546 7.91610E-01
 -1      2547 6.14309E-01
 -1      2548 3.20106E+01
 -1      2549 3.20106E+01
 -1      2550 2.08176E+01
 -1      2551 1.47201E+01
 -1      2552 9.81056E+00
 -1      2553 1.33564E+01
 -1      2554 2.71146E+01
 -1      2555 2.77053E+01
 -1      2556 2.77053E+01
 -1      2557 9.35473E+00
 -1      2558 9.38280E+00
 -1      2559 8.49743E+00
 -1      2560 7.53202E+00
 -1      2561 5.40603E+00
 -1      2562 5.10104E-01
 -1      2563 5.33027E-01
 -1      2564 4.61403E-01
 -1      2565 4.31841E-01
 -1      2566 9.28956E+00
 -1      2567 9.20412E+00
 -1      2568 2.13806E+01
 -1      2569 1.51961E+01
 -1      2570 8.87451E+00
 -1      2571 9.35051E+00
 -1      2572 6.08197E+00
 -1      2573 7.46427E+00
 -1      2574 7.97871E+00
 -1      2575 6.56745E+00
 -1      2576 7.18857E+00
 -1      2577 6.15287E+00
 -1      2578 1.32513E+01
 -1      2579 9.85319E+00
 -1      2580 2.39648E+01
 -1      2581 2.48042E+01
 -1      2582 1.69368E+01
 -1      2583 2.99011E+01
 -1      2584 2.75691E+01
 -1      2585 3.22330E+01
 -1      2586 3.22330E+01
 -1      2587 2.82561E+01
 -1      2588 2.79738E+01
 -1      2589 1.74072E+01
 -1      2590 2.38548E+01
 -1      2591 1.09015E+01
 -1      2592 1.50221E+01
 -1      2593 6.67186E+00
 -1      2594 9.06753E+00
 -1      2595 6.77802E+00
 -1      2596 5.51743E+00
 -1      2597 8.46508E+00
 -1      2598 7.78693E+00
 -1      2599 8.49759E+00
 -1      2600 8.90023E+00
 -1      2601 6.24523E+00
 -1      2602 7.57948E+00
 -1      2603 1.22649E+01
 -1      2604 8.96562E+00
 -1      2605 2.37277E+01
 -1      2606 2.32509E+01
 -1      2607 1.65381E+00
 -1      2608 1.30103E+00
 -1      2609 8.21412E-01
 -1      2610 9.44334E-01
 -1      2611 1.60534E+00
 -1      2612 1.75184E+00
 -1      2613 1.30819E+00
 -1      2614 1.18338E+00
 -1      2615 6.17889E+00
 -1      2616 8.24641E+00
 -1      2617 7.15912E+00
 -1      2618 8.76086E+00
 -1      2619 6.45243E+00
 -1      2620 6.08952E-01
 -1      2621 7.48459E-01
 -1      2622 8.12093E-01
 -1      2623 7.91610E-01
 -1      2624 1.22613E+00
 -1      2625 5.36373E+00
 -1      2626 1.10975E+01
 -1      2627 5.18058E+00
 -1      2628 6.19105E+00
 -1      2629 7.10043E+00
 -1      2630 2.37277E+01
 -1      2631 5.17380E+00
 -1      2632 2.30781E-02
 -1      2633 2.30781E-02
 -1      2634 5.31932E+00
 -1      2635 1.90956E+01
 -1      2636 1.20120E+01
 -1      2637 2.03815E-02
 -1      2638 1.96413E-02
 -1      2639 2.20201E-02
 -1      2640 2.57865E-02
 -1      2641 8.30772E+00
 -1      2642 3.05233E+01
 -1      2643 9.52872E-01
 -1      2644 1.25268E+01
 -1      2645 1.93133E+01
 -1      2646 8.86178E-01
 -1      2647 7.56366E+00
 -1      2648 2.79738E+01
 -1      2649 2.21826E+01
 -1      2650 1.85783E+01
 -1      2651 2.21826E+01
 -1      2652 1.15684E+01
 -1      2653 6.86527E+00
 -1      2654 7.74924E+00
 -1      2655 5.38929E+00
 -1      2656 6.31405E+00
 -1      2657 7.66855E+00
 -1      2658 1.59861E+01
 -1      2659 7.66334E+00
 -1      2660 2.99011E+01
 -1      2661 2.32743E-02
 -1      2662 2.64465E-02
 -1      2663 4.14313E-01
 -1      2664 3.98154E-01
 -1      2665 3.88039E-01
 -1      2666 3.74042E-01
 -1      2667 3.40194E-01
 -1      2668 4.32191E-01
 -1      2669 4.32191E-01
 -1      2670 4.66672E-01
 -1      2671 4.22908E-01
 -1      2672 3.49976E-01
 -1      2673 7.06841E-01
 -1      2674 7.88499E-01
 -1      2675 9.23657E+00
 -1      2676 1.16217E+01
 -1      2677 5.94699E-01
 -1      2678 6.93441E-01
 -1      2679 5.09930E-01
 -1      2680 8.23160E-01
 -1      2681 1.06551E+01
 -1      2682 8.19994E+00
 -1      2683 5.32232E-01
 -1      2684 4.68864E-01
 -1      2685 4.53192E-01
 -1      2686 3.87978E-01
 -1      2687 3.56487E-01
 -1      2688 3.55829E-01
 -1      2689 3.28749E-01
 -1      2690 3.08665E-01
 -1      2691 3.01167E-01
 -1      2692 2.71135E-01
 -1      2693 2.48934E-01
 -1      2694 2.47210E-01
 -1      2695 2.12946E-01
 -1      2696 1.97428E-01
 -1      2697 1.86643E-01
 -1      2698 1.73648E-01
 -1      2699 1.47200E-01
 -1      2700 1.95812E-01
 -1      2701 2.11824E-01
 -1      2702 1.43062E-01
 -1      2703 2.60519E-01
 -1      2704 2.96113E-01
 -1      2705 2.13922E-01
 -1      2706 3.48752E-01
 -1      2707 3.99493E-01
 -1      2708 3.15256E-01
 -1      2709 4.54209E-01
 -1      2710 4.98922E-01
 -1      2711 4.22611E-01
 -1      2712 5.52460E-01
 -1      2713 5.89830E-01
 -1      2714 5.30864E-01
 -1      2715 6.36661E-01
 -1      2716 6.73254E-01
 -1      2717 6.31232E-01
 -1      2718 7.43530E-01
 -1      2719 7.80169E-01
 -1      2720 7.48339E-01
 -1      2721 8.59169E-01
 -1      2722 8.69792E-01
 -1      2723 8.97614E-01
 -1      2724 9.32881E-01
 -1      2725 9.75282E-01
 -1      2726 1.03970E+00
 -1      2727 1.07567E+00
 -1      2728 1.15135E+00
 -1      2729 1.20318E+00
 -1      2730 1.31912E+00
 -1      2731 1.38253E+00
 -1      2732 1.47135E+00
 -1      2733 1.38117E+00
 -1      2734 1.49309E+00
 -1      2735 1.63776E+00
 -1      2736 1.74724E+00
 -1      2737 1.85629E+00
 -1      2738 1.89055E+00
 -1      2739 2.17175E+00
 -1      2740 2.41340E+00
 -1      2741 2.46016E+00
 -1      2742 3.56902E+00
 -1      2743 3.57650E+00
 -1      2744 3.93124E+00
 -1      2745 2.81199E+00
 -1      2746 2.76787E+00
 -1      2747 4.32235E+00
 -1      2748 2.07544E+00
 -1      2749 1.85811E+00
 -1      2750 2.86540E+00
 -1      2751 1.70264E+00
 -1      2752 1.60240E+00
 -1      2753 2.01750E+00
 -1      2754 1.43882E+00
 -1      2755 1.31871E+00
 -1      2756 1.69844E+00
 -1      2757 1.33800E+00
 -1      2758 1.28333E+00
 -1      2759 1.55414E+00
 -1      2760 1.14749E+00
 -1      2761 1.07043E+00
 -1      2762 1.43759E+00
 -1      2763 9.75642E-01
 -1      2764 9.49392E-01
 -1      2765 1.20696E+00
 -1      2766 8.86582E-01
 -1      2767 8.78044E-01
 -1      2768 1.04936E+00
 -1      2769 8.02792E-01
 -1      2770 7.69916E-01
 -1      2771 9.11297E-01
 -1      2772 7.03990E-01
 -1      2773 6.67076E-01
 -1      2774 7.70119E-01
 -1      2775 6.25854E-01
 -1      2776 5.95385E-01
 -1      2777 6.62971E-01
 -1      2778 5.49292E-01
 -1      2779 5.12385E-01
 -1      2780 5.75657E-01
 -1      2781 4.66579E-01
 -1      2782 4.25884E-01
 -1      2783 4.83759E-01
 -1      2784 3.83608E-01
 -1      2785 3.43796E-01
 -1      2786 3.95677E-01
 -1      2787 3.06517E-01
 -1      2788 2.70341E-01
 -1      2789 3.16124E-01
 -1      2790 2.38603E-01
 -1      2791 2.07399E-01
 -1      2792 2.47107E-01
 -1      2793 1.81141E-01
 -1      2794 1.55289E-01
 -1      2795 1.89111E-01
 -1      2796 1.34106E-01
 -1      2797 1.13409E-01
 -1      2798 1.41671E-01
 -1      2799 9.67107E-02
 -1      2800 8.06617E-02
 -1      2801 1.03790E-01
 -1      2802 6.78160E-02
 -1      2803 5.57773E-02
 -1      2804 7.42458E-02
 -1      2805 4.41467E-02
 -1      2806 3.53925E-02
 -1      2807 4.97693E-02
 -1      2808 3.43913E-01
 -1      2809 3.79621E-01
 -1      2810 6.48634E+00
 -1      2811 8.32029E+00
 -1      2812 4.05098E-01
 -1      2813 4.37056E-01
 -1      2814 3.12883E-01
 -1      2815 2.26962E-01
 -1      2816 2.46091E-01
 -1      2817 2.70605E-01
 -1      2818 2.45619E-01
 -1      2819 1.85286E-01
 -1      2820 3.79052E-01
 -1      2821 3.32032E-01
 -1      2822 2.65370E-01
 -1      2823 5.36205E-01
 -1      2824 4.52890E-01
 -1      2825 4.00633E-01
 -1      2826 7.09452E-01
 -1      2827 6.20581E-01
 -1      2828 5.58846E-01
 -1      2829 8.92606E-01
 -1      2830 8.04231E-01
 -1      2831 7.38000E-01
 -1      2832 1.07250E+00
 -1      2833 9.95896E-01
 -1      2834 9.36069E-01
 -1      2835 1.23262E+00
 -1      2836 1.17902E+00
 -1      2837 1.14588E+00
 -1      2838 1.41805E+00
 -1      2839 1.33087E+00
 -1      2840 1.35065E+00
 -1      2841 1.65316E+00
 -1      2842 1.57436E+00
 -1      2843 1.60521E+00
 -1      2844 1.90141E+00
 -1      2845 1.87881E+00
 -1      2846 1.98717E+00
 -1      2847 2.26822E+00
 -1      2848 2.12914E+00
 -1      2849 2.44056E+00
 -1      2850 2.61623E+00
 -1      2851 2.57968E+00
 -1      2852 2.97976E+00
 -1      2853 2.14359E+00
 -1      2854 2.09022E+00
 -1      2855 2.76522E+00
 -1      2856 4.66332E+00
 -1      2857 3.47589E+00
 -1      2858 3.57151E+00
 -1      2859 7.72429E+00
 -1      2860 6.07356E+00
 -1      2861 4.84580E+00
 -1      2862 7.22007E+00
 -1      2863 4.87196E+00
 -1      2864 2.56913E+00
 -1      2865 3.02806E+00
 -1      2866 2.54642E+00
 -1      2867 2.60768E+00
 -1      2868 3.06661E+00
 -1      2869 2.17204E+00
 -1      2870 2.36705E+00
 -1      2871 2.92579E+00
 -1      2872 1.98921E+00
 -1      2873 1.98995E+00
 -1      2874 2.56434E+00
 -1      2875 1.71056E+00
 -1      2876 1.77305E+00
 -1      2877 2.16610E+00
 -1      2878 1.41609E+00
 -1      2879 1.50734E+00
 -1      2880 1.74673E+00
 -1      2881 1.26369E+00
 -1      2882 1.32176E+00
 -1      2883 1.44919E+00
 -1      2884 1.09862E+00
 -1      2885 1.16257E+00
 -1      2886 1.25374E+00
 -1      2887 9.18619E-01
 -1      2888 9.98488E-01
 -1      2889 1.05250E+00
 -1      2890 7.45225E-01
 -1      2891 8.27112E-01
 -1      2892 8.60864E-01
 -1      2893 5.89613E-01
 -1      2894 6.65366E-01
 -1      2895 6.89498E-01
 -1      2896 4.56348E-01
 -1      2897 5.22088E-01
 -1      2898 5.42114E-01
 -1      2899 3.46048E-01
 -1      2900 4.00639E-01
 -1      2901 4.18879E-01
 -1      2902 2.57174E-01
 -1      2903 3.01032E-01
 -1      2904 3.18154E-01
 -1      2905 1.87177E-01
 -1      2906 2.21475E-01
 -1      2907 2.37440E-01
 -1      2908 1.33191E-01
 -1      2909 1.59371E-01
 -1      2910 1.73935E-01
 -1      2911 9.24156E-02
 -1      2912 1.11911E-01
 -1      2913 1.24849E-01
 -1      2914 6.23648E-02
 -1      2915 7.64710E-02
 -1      2916 8.76251E-02
 -1      2917 4.25617E-02
 -1      2918 5.04346E-02
 -1      2919 5.97503E-02
 -1      2920 2.77019E-02
 -1      2921 3.31095E-02
 -1      2922 3.83679E-02
 -1      2923 2.44882E-02
 -1      2924 3.58188E-02
 -1      2925 3.58188E-02
 -1      2926 2.82201E-02
 -1      2927 2.20201E-02
 -1      2928 3.09662E-02
 -1      2929 3.46340E-02
 -1      2930 3.23239E-02
 -1      2931 3.55150E-02
 -1      2932 3.55672E-02
 -1      2933 4.15063E-02
 -1      2934 3.58188E-02
 -1      2935 3.57498E-02
 -1      2936 4.06421E-02
 -1      2937 4.17579E-02
 -1      2938 4.82271E-01
 -1      2939 5.60829E-01
 -1      2940 4.62661E-01
 -1      2941 3.83576E-01
 -1      2942 3.52393E-02
 -1      2943 3.55150E-02
 -1      2944 4.12548E-02
 -1      2945 3.10390E-02
 -1      2946 3.35017E-02
 -1      2947 3.95172E-02
 -1      2948 2.62442E-02
 -1      2949 2.64966E-02
 -1      2950 3.32372E-02
 -1      2951 2.21976E+01
 -1      2952 1.68893E+01
 -1      2953 4.02896E+00
 -1      2954 4.12131E+00
 -1      2955 2.37938E-02
 -1      2956 4.69657E+00
 -1      2957 3.68766E+00
 -1      2958 1.92851E+01
 -1      2959 2.35904E+01
 -1      2960 4.61772E+00
 -1      2961 3.83475E+00
 -1      2962 8.71164E+00
 -1      2963 1.14909E+01
 -1      2964 2.79173E-01
 -1      2965 3.16606E-01
 -1      2966 2.60099E-01
 -1      2967 1.99711E-01
 -1      2968 5.85196E-01
 -1      2969 5.40728E-01
 -1      2970 3.80656E-01
 -1      2971 1.03093E+01
 -1      2972 8.36462E+00
 -1      2973 4.01782E+00
 -1      2974 4.75849E+00
 -1      2975 6.28219E+00
 -1      2976 6.73669E+00
 -1      2977 4.32191E-01
 -1      2978 4.18788E-01
 -1      2979 3.54784E-01
 -1      2980 3.59260E-01
 -1      2981 4.17954E-01
 -1      2982 4.31635E-01
 -1      2983 7.12998E+00
 -1      2984 5.35293E+00
 -1      2985 6.04465E+00
 -1      2986 7.60880E+00
 -1      2987 4.69860E+00
 -1      2988 5.61671E+00
 -1      2989 2.33050E+01
 -1      2990 2.09731E+01
 -1      2991 4.57667E+00
 -1      2992 4.09119E+00
 -1      2993 1.53410E+01
 -1      2994 1.19173E+01
 -1      2995 8.71348E+00
 -1      2996 7.87499E-01
 -1      2997 1.35641E+01
 -1      2998 1.79655E+01
 -1      2999 1.02739E+01
 -1      3000 2.23828E+01
 -1      3001 2.08955E+01
 -1      3002 1.36657E+01
 -1      3003 1.79701E+01
 -1      3004 1.03653E+01
 -1      3005 4.25307E+00
 -1      3006 5.40750E+00
 -1      3007 1.99949E+01
 -1      3008 2.42541E+01
 -1      3009 6.55251E+00
 -1      3010 5.63479E+00
 -1      3011 1.49381E+01
 -1      3012 1.25047E+01
 -1      3013 9.60717E+00
 -1      3014 8.05702E+00
 -1      3015 6.18255E+00
 -1      3016 4.60971E-01
 -1      3017 5.65432E-01
 -1      3018 3.88116E-01
 -1      3019 3.29664E-01
 -1      3020 3.73626E-01
 -1      3021 3.87463E-01
 -1      3022 5.57990E-01
 -1      3023 1.40571E+01
 -1      3024 6.79793E+00
 -1      3025 4.88445E+00
 -1      3026 3.48823E-02
 -1      3027 2.76799E-02
 -1      3028 2.54295E-02
 -1      3029 7.41519E+00
 -1      3030 6.31405E+00
 -1      3031 7.72429E+00
 -1      3032 7.72429E+00
 -1      3033 1.34079E+01
 -1      3034 3.77584E+00
 -1      3035 2.32436E-02
 -1      3036 2.29635E-02
 -1      3037 2.73911E-02
 -1      3038 2.80524E-02
 -1      3039 1.38551E+01
 -1      3040 4.29366E+00
 -1      3041 5.27105E+00
 -1      3042 1.42457E+01
 -1      3043 2.37938E-02
 -1      3044 1.56745E+01
 -1      3045 1.06550E+01
 -1      3046 1.38923E+01
 -1      3047 1.53261E+01
 -1      3048 3.54697E+00
 -1      3049 4.69875E+00
 -1      3050 4.78974E+00
 -1      3051 4.14865E+00
 -1      3052 7.08775E+00
 -1      3053 1.39626E+01
 -1      3054 3.22951E+00
 -1      3055 4.88115E+00
 -1      3056 1.97037E+01
 -1      3057 1.43172E+01
 -1      3058 1.31076E+01
 -1      3059 5.42008E+00
 -1      3060 2.54822E-02
 -1      3061 2.54822E-02
 -1      3062 2.79326E-02
 -1      3063 3.26546E-02
 -1      3064 5.75039E-01
 -1      3065 6.49124E-01
 -1      3066 6.08952E-01
 -1      3067 4.27058E-01
 -1      3068 3.97593E-01
 -1      3069 4.13318E-01
 -1      3070 3.54144E-01
 -1      3071 3.39378E-01
 -1      3072 4.32011E-01
 -1      3073 6.68760E+00
 -1      3074 4.90381E+00
 -1      3075 4.12908E-01
 -1      3076 1.06526E+01
 -1      3077 1.19546E+01
 -1      3078 2.92186E-01
 -1      3079 3.01470E-01
 -1      3080 2.87134E-01
 -1      3081 2.78637E-01
 -1      3082 3.95278E-01
 -1      3083 3.03960E-01
 -1      3084 2.55453E-01
 -1      3085 3.81878E-01
 -1      3086 2.69510E-01
 -1      3087 2.37360E-01
 -1      3088 2.20846E-01
 -1      3089 1.93264E-01
 -1      3090 1.81691E-01
 -1      3091 1.65517E-01
 -1      3092 1.41593E-01
 -1      3093 1.37430E-01
 -1      3094 1.40187E-01
 -1      3095 1.13884E-01
 -1      3096 1.08277E-01
 -1      3097 1.33371E-01
 -1      3098 1.55535E-01
 -1      3099 1.26358E-01
 -1      3100 1.89015E-01
 -1      3101 2.37711E-01
 -1      3102 1.79324E-01
 -1      3103 2.82639E-01
 -1      3104 3.35277E-01
 -1      3105 2.57732E-01
 -1      3106 3.87432E-01
 -1      3107 4.42148E-01
 -1      3108 3.54814E-01
 -1      3109 5.10232E-01
 -1      3110 5.63769E-01
 -1      3111 4.75053E-01
 -1      3112 6.42196E-01
 -1      3113 6.89027E-01
 -1      3114 6.21564E-01
 -1      3115 7.74603E-01
 -1      3116 8.44878E-01
 -1      3117 7.85567E-01
 -1      3118 9.34089E-01
 -1      3119 1.01309E+00
 -1      3120 9.60353E-01
 -1      3121 1.17003E+00
 -1      3122 1.23312E+00
 -1      3123 1.20650E+00
 -1      3124 1.40263E+00
 -1      3125 1.50302E+00
 -1      3126 1.53295E+00
 -1      3127 1.63683E+00
 -1      3128 1.80460E+00
 -1      3129 1.83627E+00
 -1      3130 2.29984E+00
 -1      3131 2.29848E+00
 -1      3132 2.46532E+00
 -1      3133 1.89055E+00
 -1      3134 2.14469E+00
 -1      3135 2.55263E+00
 -1      3136 3.06911E+00
 -1      3137 4.22473E+00
 -1      3138 5.27105E+00
 -1      3139 4.50653E+00
 -1      3140 2.30839E+00
 -1      3141 2.15292E+00
 -1      3142 1.86202E+00
 -1      3143 1.69844E+00
 -1      3144 2.15292E+00
 -1      3145 2.03706E+00
 -1      3146 2.05635E+00
 -1      3147 2.20064E+00
 -1      3148 1.73239E+00
 -1      3149 1.59655E+00
 -1      3150 2.21531E+00
 -1      3151 1.51690E+00
 -1      3152 1.42210E+00
 -1      3153 1.81169E+00
 -1      3154 1.24516E+00
 -1      3155 1.18235E+00
 -1      3156 1.55509E+00
 -1      3157 1.02781E+00
 -1      3158 9.52559E-01
 -1      3159 1.22361E+00
 -1      3160 8.66567E-01
 -1      3161 8.00641E-01
 -1      3162 9.83082E-01
 -1      3163 7.21078E-01
 -1      3164 6.79856E-01
 -1      3165 8.17526E-01
 -1      3166 6.10970E-01
 -1      3167 5.64878E-01
 -1      3168 6.69077E-01
 -1      3169 5.05098E-01
 -1      3170 4.59292E-01
 -1      3171 5.40411E-01
 -1      3172 4.07675E-01
 -1      3173 3.65400E-01
 -1      3174 4.29015E-01
 -1      3175 3.22522E-01
 -1      3176 2.85243E-01
 -1      3177 3.34520E-01
 -1      3178 2.52759E-01
 -1      3179 2.21021E-01
 -1      3180 2.59158E-01
 -1      3181 1.93962E-01
 -1      3182 1.67705E-01
 -1      3183 1.99614E-01
 -1      3184 1.45237E-01
 -1      3185 1.24054E-01
 -1      3186 1.50088E-01
 -1      3187 1.06753E-01
 -1      3188 9.00549E-02
 -1      3189 1.10319E-01
 -1      3190 7.65227E-02
 -1      3191 6.36770E-02
 -1      3192 7.94861E-02
 -1      3193 5.27413E-02
 -1      3194 4.11107E-02
 -1      3195 3.56266E-02
 -1      3196 5.50183E-02
 -1      3197 4.83825E-02
 -1      3198 4.83825E-02
 -1      3199 2.81748E-01
 -1      3200 2.20322E-01
 -1      3201 1.73179E-01
 -1      3202 1.54522E-01
 -1      3203 1.89558E-01
 -1      3204 5.73428E-01
 -1      3205 4.89053E-01
 -1      3206 7.54541E-01
 -1      3207 6.59762E-01
 -1      3208 5.89969E-01
 -1      3209 9.66855E-01
 -1      3210 8.63565E-01
 -1      3211 7.85327E-01
 -1      3212 1.21150E+00
 -1      3213 1.10497E+00
 -1      3214 1.03247E+00
 -1      3215 1.49671E+00
 -1      3216 1.39846E+00
 -1      3217 1.35755E+00
 -1      3218 1.88476E+00
 -1      3219 1.72845E+00
 -1      3220 1.77626E+00
 -1      3221 2.35811E+00
 -1      3222 2.13246E+00
 -1      3223 2.25569E+00
 -1      3224 3.06205E+00
 -1      3225 2.83432E+00
 -1      3226 2.97960E+00
 -1      3227 4.00147E+00
 -1      3228 3.69000E+00
 -1      3229 4.08376E+00
 -1      3230 1.25248E+01
 -1      3231 1.05736E+01
 -1      3232 4.87196E+00
 -1      3233 4.45601E+00
 -1      3234 4.63538E+00
 -1      3235 2.49322E+00
 -1      3236 2.70938E+00
 -1      3237 1.87429E+00
 -1      3238 2.07751E+00
 -1      3239 2.62079E+00
 -1      3240 1.54366E+00
 -1      3241 1.63799E+00
 -1      3242 1.96876E+00
 -1      3243 1.24167E+00
 -1      3244 1.34278E+00
 -1      3245 1.53158E+00
 -1      3246 9.94669E-01
 -1      3247 1.09480E+00
 -1      3248 1.18384E+00
 -1      3249 7.86918E-01
 -1      3250 8.78425E-01
 -1      3251 9.20724E-01
 -1      3252 6.24050E-01
 -1      3253 7.03908E-01
 -1      3254 7.21470E-01
 -1      3255 4.85034E-01
 -1      3256 5.52559E-01
 -1      3257 5.66969E-01
 -1      3258 3.69555E-01
 -1      3259 4.25264E-01
 -1      3260 4.35710E-01
 -1      3261 2.76188E-01
 -1      3262 3.21204E-01
 -1      3263 3.27589E-01
 -1      3264 2.03458E-01
 -1      3265 2.39157E-01
 -1      3266 2.42206E-01
 -1      3267 1.49111E-01
 -1      3268 1.76917E-01
 -1      3269 1.78634E-01
 -1      3270 1.07260E-01
 -1      3271 1.28540E-01
 -1      3272 1.31522E-01
 -1      3273 7.55560E-02
 -1      3274 9.15006E-02
 -1      3275 9.51913E-02
 -1      3276 5.15251E-02
 -1      3277 6.34554E-02
 -1      3278 6.73309E-02
 -1      3279 3.26048E-02
 -1      3280 4.20570E-02
 -1      3281 4.57620E-02
 -1      3282 3.10802E-02
 -1      3283 3.12632E-01
 -1      3284 3.02518E-01
 -1      3285 4.81130E-02
 -1      3286 4.83646E-02
 -1      3287 5.52408E-02
 -1      3288 2.99303E+00
 -1      3289 3.55843E+00
 -1      3290 5.90862E+00
 -1      3291 5.60102E+00
 -1      3292 1.10363E+01
 -1      3293 1.23513E+01
 -1      3294 4.66449E-02
 -1      3295 4.83825E-02
 -1      3296 5.55102E-02
 -1      3297 3.25943E+00
 -1      3298 3.44152E+00
 -1      3299 3.58656E+00
 -1      3300 4.14340E-01
 -1      3301 3.40503E-01
 -1      3302 2.95455E-01
 -1      3303 4.28922E-01
 -1      3304 2.46467E-01
 -1      3305 2.71945E-01
 -1      3306 2.85050E-01
 -1      3307 2.69378E-01
 -1      3308 1.98073E-01
 -1      3309 3.77692E-02
 -1      3310 4.23116E-02
 -1      3311 5.11769E-02
 -1      3312 6.06689E+00
 -1      3313 6.98317E+00
 -1      3314 1.13683E+01
 -1      3315 1.33977E+01
 -1      3316 1.20582E+01
 -1      3317 1.08507E+01
 -1      3318 9.23944E+00
 -1      3319 3.27621E-01
 -1      3320 3.03865E-01
 -1      3321 3.18015E-01
 -1      3322 4.14865E+00
 -1      3323 3.21043E+00
 -1      3324 4.43285E+00
 -1      3325 5.51168E+00
 -1      3326 4.09119E+00
 -1      3327 8.40260E+00
 -1      3328 6.79464E+00
 -1      3329 8.73617E+00
 -1      3330 7.73240E+00
 -1      3331 9.90716E+00
 -1      3332 6.59003E+00
 -1      3333 5.52007E+00
 -1      3334 1.25263E+01
 -1      3335 1.15773E+01
 -1      3336 7.45885E+00
 -1      3337 9.40127E+00
 -1      3338 8.55331E+00
 -1      3339 6.11055E+00
 -1      3340 4.47982E+00
 -1      3341 3.15585E+00
 -1      3342 2.70675E+00
 -1      3343 3.28403E+00
 -1      3344 6.07525E+00
 -1      3345 7.17809E+00
 -1      3346 9.34822E+00
 -1      3347 7.49862E+00
 -1      3348 7.66334E+00
 -1      3349 7.22007E+00
 -1      3350 2.75889E+00
 -1      3351 4.36477E+00
 -1      3352 4.89078E+00
 -1      3353 2.96191E-01
 -1      3354 2.95775E-01
 -1      3355 2.68629E-01
 -1      3356 2.60052E-01
 -1      3357 3.17841E-01
 -1      3358 3.17841E-01
 -1      3359 1.91529E-01
 -1      3360 2.46016E+00
 -1      3361 2.46016E+00
 -1      3362 4.35897E-02
 -1      3363 3.89457E-02
 -1      3364 2.77562E+00
 -1      3365 4.61167E+00
 -1      3366 3.66297E+00
 -1      3367 2.97054E+00
 -1      3368 3.65004E+00
 -1      3369 2.15139E-01
 -1      3370 1.74200E-01
 -1      3371 1.87832E-01
 -1      3372 9.12034E+00
 -1      3373 2.28605E-01
 -1      3374 2.95021E-01
 -1      3375 3.40237E-01
 -1      3376 2.78636E-01
 -1      3377 3.07971E-01
 -1      3378 2.08535E-01
 -1      3379 1.22710E-01
 -1      3380 1.34817E-01
 -1      3381 1.67899E-01
 -1      3382 8.46510E+00
 -1      3383 5.15110E+00
 -1      3384 3.10516E+00
 -1      3385 3.06661E+00
 -1      3386 3.13366E-01
 -1      3387 2.75689E-01
 -1      3388 3.17841E-01
 -1      3389 4.91356E-02
 -1      3390 4.80198E-02
 -1      3391 5.20832E-02
 -1      3392 1.05803E+01
 -1      3393 8.47781E+00
 -1      3394 8.67590E+00
 -1      3395 2.99303E+00
 -1      3396 4.91356E-02
 -1      3397 4.91356E-02
 -1      3398 5.65133E-02
 -1      3399 5.57423E-02
 -1      3400 1.19323E+01
 -1      3401 8.18353E+00
 -1      3402 9.05494E+00
 -1      3403 2.01847E-01
 -1      3404 1.25761E+01
 -1      3405 9.67231E+00
 -1      3406 1.00971E+01
 -1      3407 6.33109E+00
 -1      3408 5.08687E+00
 -1      3409 4.38225E+00
 -1      3410 2.89291E+00
 -1      3411 8.40339E+00
 -1      3412 1.15773E+01
 -1      3413 1.03079E+01
 -1      3414 8.77757E+00
 -1      3415 3.40824E-02
 -1      3416 3.48444E-02
 -1      3417 4.39189E-02
 -1      3418 4.25384E-02
 -1      3419 5.07966E+00
 -1      3420 3.94618E+00
 -1      3421 6.71991E+00
 -1      3422 3.35294E-01
 -1      3423 3.69164E-01
 -1      3424 2.54512E-01
 -1      3425 2.46740E-01
 -1      3426 2.77350E-01
 -1      3427 1.97205E-01
 -1      3428 2.72714E-01
 -1      3429 3.33457E+00
 -1      3430 2.20687E-01
 -1      3431 2.08913E-01
 -1      3432 2.07972E-01
 -1      3433 1.55554E-01
 -1      3434 1.39040E-01
 -1      3435 1.35154E-01
 -1      3436 1.07407E-01
 -1      3437 1.09017E-01
 -1      3438 1.20716E-01
 -1      3439 1.19311E-01
 -1      3440 1.18441E-01
 -1      3441 1.31190E-01
 -1      3442 1.50677E-01
 -1      3443 1.43630E-01
 -1      3444 1.80953E-01
 -1      3445 2.14433E-01
 -1      3446 1.85786E-01
 -1      3447 2.57732E-01
 -1      3448 3.02660E-01
 -1      3449 2.59361E-01
 -1      3450 3.53765E-01
 -1      3451 4.05920E-01
 -1      3452 3.53765E-01
 -1      3453 4.67211E-01
 -1      3454 5.35295E-01
 -1      3455 4.66162E-01
 -1      3456 6.10936E-01
 -1      3457 6.89363E-01
 -1      3458 6.03093E-01
 -1      3459 7.83762E-01
 -1      3460 8.69338E-01
 -1      3461 7.73133E-01
 -1      3462 1.02691E+00
 -1      3463 1.11612E+00
 -1      3464 1.02511E+00
 -1      3465 1.30193E+00
 -1      3466 1.45886E+00
 -1      3467 1.36849E+00
 -1      3468 1.63682E+00
 -1      3469 1.80633E+00
 -1      3470 1.73224E+00
 -1      3471 2.09727E+00
 -1      3472 2.23108E+00
 -1      3473 2.20114E+00
 -1      3474 2.93638E+00
 -1      3475 3.43163E+00
 -1      3476 3.19738E+00
 -1      3477 3.74251E+00
 -1      3478 5.70542E+00
 -1      3479 3.10596E+00
 -1      3480 4.21357E+00
 -1      3481 4.76878E+00
 -1      3482 4.22909E+00
 -1      3483 3.90514E+00
 -1      3484 2.83901E+00
 -1      3485 2.75935E+00
 -1      3486 4.85279E+00
 -1      3487 1.98712E+00
 -1      3488 1.81018E+00
 -1      3489 3.01444E+00
 -1      3490 1.46394E+00
 -1      3491 1.30941E+00
 -1      3492 1.89598E+00
 -1      3493 1.13303E+00
 -1      3494 1.04704E+00
 -1      3495 1.37336E+00
 -1      3496 8.96056E-01
 -1      3497 8.16493E-01
 -1      3498 1.04600E+00
 -1      3499 7.18554E-01
 -1      3500 6.49668E-01
 -1      3501 7.97084E-01
 -1      3502 5.78536E-01
 -1      3503 5.18756E-01
 -1      3504 6.28013E-01
 -1      3505 4.69862E-01
 -1      3506 4.18245E-01
 -1      3507 5.07987E-01
 -1      3508 3.73714E-01
 -1      3509 3.30836E-01
 -1      3510 4.14561E-01
 -1      3511 2.91642E-01
 -1      3512 2.59158E-01
 -1      3513 3.30836E-01
 -1      3514 2.25854E-01
 -1      3515 1.98794E-01
 -1      3516 2.58338E-01
 -1      3517 1.71267E-01
 -1      3518 1.48800E-01
 -1      3519 1.97507E-01
 -1      3520 1.26525E-01
 -1      3521 1.09224E-01
 -1      3522 1.47704E-01
 -1      3523 9.14671E-02
 -1      3524 7.79349E-02
 -1      3525 1.07673E-01
 -1      3526 8.90572E-01
 -1      3527 7.81548E-01
 -1      3528 6.73277E-01
 -1      3529 5.86942E-01
 -1      3530 7.78521E-01
 -1      3531 1.50677E+00
 -1      3532 1.31981E+00
 -1      3533 1.99928E+00
 -1      3534 1.76754E+00
 -1      3535 1.72979E+00
 -1      3536 2.82588E+00
 -1      3537 2.57818E+00
 -1      3538 2.56946E+00
 -1      3539 3.83555E+00
 -1      3540 3.35934E+00
 -1      3541 3.68182E+00
 -1      3542 4.63538E+00
 -1      3543 3.84071E+00
 -1      3544 4.25642E+00
 -1      3545 1.15888E+00
 -1      3546 1.30575E+00
 -1      3547 9.11488E-01
 -1      3548 1.02773E+00
 -1      3549 1.14964E+00
 -1      3550 7.18371E-01
 -1      3551 8.01381E-01
 -1      3552 9.08389E-01
 -1      3553 5.56858E-01
 -1      3554 6.28349E-01
 -1      3555 7.08260E-01
 -1      3556 4.24616E-01
 -1      3557 4.84385E-01
 -1      3558 5.45764E-01
 -1      3559 3.18561E-01
 -1      3560 3.66912E-01
 -1      3561 4.15588E-01
 -1      3562 2.36025E-01
 -1      3563 2.73056E-01
 -1      3564 3.12379E-01
 -1      3565 1.73944E-01
 -1      3566 2.00486E-01
 -1      3567 2.31335E-01
 -1      3568 1.25970E-01
 -1      3569 1.46540E-01
 -1      3570 1.68392E-01
 -1      3571 8.92011E-02
 -1      3572 1.04961E-01
 -1      3573 1.19980E-01
 -1      3574 6.17420E-02
 -1      3575 7.38427E-02
 -1      3576 8.36123E-02
 -1      3577 6.51934E-02
 -1      3578 6.49240E-02
 -1      3579 3.72135E-02
 -1      3580 3.50276E-02
 -1      3581 4.02413E-02
 -1      3582 4.59209E-02
 -1      3583 1.75969E-01
 -1      3584 1.86013E-01
 -1      3585 1.69282E-01
 -1      3586 6.51934E-02
 -1      3587 6.51934E-02
 -1      3588 7.48767E-02
 -1      3589 7.98232E+00
 -1      3590 7.68921E+00
 -1      3591 1.75695E-01
 -1      3592 3.25887E+00
 -1      3593 4.54503E+00
 -1      3594 7.83027E+00
 -1      3595 6.60485E+00
 -1      3596 5.90862E+00
 -1      3597 4.71171E+00
 -1      3598 1.48113E+00
 -1      3599 1.68201E+00
 -1      3600 1.45617E+00
 -1      3601 2.38528E+00
 -1      3602 2.62159E+00
 -1      3603 2.33483E+00
 -1      3604 1.15771E+00
 -1      3605 1.01959E+00
 -1      3606 1.01581E+00
 -1      3607 1.30692E+00
 -1      3608 4.73429E+00
 -1      3609 5.28435E+00
 -1      3610 6.85316E+00
 -1      3611 5.95421E+00
 -1      3612 3.22032E+00
 -1      3613 4.08376E+00
 -1      3614 3.03725E+00
 -1      3615 1.52990E-01
 -1      3616 1.53122E-01
 -1      3617 1.10470E-01
 -1      3618 2.32859E-01
 -1      3619 1.85717E-01
 -1      3620 7.49441E+00
 -1      3621 8.06460E+00
 -1      3622 5.59773E+00
 -1      3623 2.60201E+00
 -1      3624 4.22473E+00
 -1      3625 3.28651E+00
 -1      3626 5.93758E-02
 -1      3627 6.37091E-02
 -1      3628 7.33923E-02
 -1      3629 8.62054E+00
 -1      3630 6.36812E+00
 -1      3631 5.48210E+00
 -1      3632 7.98232E+00
 -1      3633 2.94064E+00
 -1      3634 2.87489E-01
 -1      3635 2.97620E-01
 -1      3636 2.20825E-01
 -1      3637 2.54017E-01
 -1      3638 6.57930E+00
 -1      3639 5.67071E+00
 -1      3640 4.46349E+00
 -1      3641 3.98088E+00
 -1      3642 2.25285E-01
 -1      3643 6.89395E+00
 -1      3644 6.96629E+00
 -1      3645 5.91055E+00
 -1      3646 1.92391E-01
 -1      3647 1.49090E-01
 -1      3648 1.29385E-01
 -1      3649 2.99303E+00
 -1      3650 1.22938E-01
 -1      3651 6.33673E-02
 -1      3652 5.24316E-02
 -1      3653 5.08874E-02
 -1      3654 7.53483E-02
 -1      3655 1.75354E-01
 -1      3656 1.98431E-01
 -1      3657 5.80336E-01
 -1      3658 4.97028E-01
 -1      3659 4.22316E-01
 -1      3660 2.76423E-01
 -1      3661 1.90264E-01
 -1      3662 1.91550E-01
 -1      3663 1.69029E-01
 -1      3664 4.25723E+00
 -1      3665 3.48395E-01
 -1      3666 2.89640E-01
 -1      3667 2.85799E-01
 -1      3668 4.16501E-01
 -1      3669 2.48430E-01
 -1      3670 2.47697E-01
 -1      3671 8.67074E-02
 -1      3672 7.67547E-02
 -1      3673 7.75257E-02
 -1      3674 5.91426E+00
 -1      3675 7.17138E+00
 -1      3676 6.90095E+00
 -1      3677 4.97095E-02
 -1      3678 8.06720E+00
 -1      3679 6.60175E+00
 -1      3680 5.62213E-02
 -1      3681 6.60560E+00
 -1      3682 7.19964E+00
 -1      3683 7.19964E+00
 -1      3684 7.15873E+00
 -1      3685 5.29848E+00
 -1      3686 5.53280E+00
 -1      3687 5.56964E+00
 -1      3688 6.04532E+00
 -1      3689 2.36067E-01
 -1      3690 2.29740E-01
 -1      3691 2.08808E-01
 -1      3692 8.99566E+00
 -1      3693 7.25457E+00
 -1      3694 7.46535E+00
 -1      3695 1.30192E-01
 -1      3696 1.61520E-01
 -1      3697 1.31346E-01
 -1      3698 6.43209E+00
 -1      3699 1.30743E-01
 -1      3700 5.94447E+00
 -1      3701 5.79535E-02
 -1      3702 4.70355E+00
 -1      3703 8.97087E-02
 -1      3704 1.00009E-01
 -1      3705 9.41388E-02
 -1      3706 7.30426E+00
 -1      3707 5.23388E+00
 -1      3708 5.38121E-02
 -1      3709 6.10012E+00
 -1      3710 6.63443E-02
 -1      3711 1.20832E-01
 -1      3712 1.34142E-01
 -1      3713 1.52487E-01
 -1      3714 1.64367E-01
 -1      3715 1.54879E-01
 -1      3716 1.81818E-01
 -1      3717 2.12094E-01
 -1      3718 1.90675E-01
 -1      3719 2.54270E-01
 -1      3720 2.97569E-01
 -1      3721 2.50302E-01
 -1      3722 3.51061E-01
 -1      3723 4.02167E-01
 -1      3724 3.45970E-01
 -1      3725 4.66162E-01
 -1      3726 5.27452E-01
 -1      3727 4.63457E-01
 -1      3728 6.03093E-01
 -1      3729 6.78734E-01
 -1      3730 6.03093E-01
 -1      3731 7.68346E-01
 -1      3732 8.62746E-01
 -1      3733 7.68346E-01
 -1      3734 1.00863E+00
 -1      3735 1.16621E+00
 -1      3736 1.00384E+00
 -1      3737 1.39973E+00
 -1      3738 1.58553E+00
 -1      3739 1.38325E+00
 -1      3740 2.03010E+00
 -1      3741 2.20805E+00
 -1      3742 2.06134E+00
 -1      3743 3.06202E+00
 -1      3744 3.35295E+00
 -1      3745 3.35987E+00
 -1      3746 3.99824E+00
 -1      3747 8.43856E-01
 -1      3748 7.35584E-01
 -1      3749 4.87834E+00
 -1      3750 1.97292E-01
 -1      3751 2.48430E-01
 -1      3752 8.09120E-02
 -1      3753 2.36877E+00
 -1      3754 2.02254E+00
 -1      3755 1.58789E+00
 -1      3756 1.41151E+00
 -1      3757 2.06068E+00
 -1      3758 1.17159E+00
 -1      3759 1.02061E+00
 -1      3760 1.38611E+00
 -1      3761 8.80336E-01
 -1      3762 7.82397E-01
 -1      3763 1.00592E+00
 -1      3764 6.99146E-01
 -1      3765 6.28013E-01
 -1      3766 7.82397E-01
 -1      3767 5.56881E-01
 -1      3768 5.07987E-01
 -1      3769 6.28013E-01
 -1      3770 4.48846E-01
 -1      3771 4.04315E-01
 -1      3772 4.97740E-01
 -1      3773 3.55816E-01
 -1      3774 3.16621E-01
 -1      3775 3.90100E-01
 -1      3776 2.77229E-01
 -1      3777 2.43925E-01
 -1      3778 3.02209E-01
 -1      3779 2.12205E-01
 -1      3780 1.84678E-01
 -1      3781 2.31097E-01
 -1      3782 1.59458E-01
 -1      3783 1.37183E-01
 -1      3784 1.74157E-01
 -1      3785 1.17564E-01
 -1      3786 9.98074E-02
 -1      3787 1.29318E-01
 -1      3788 5.95421E+00
 -1      3789 1.11344E-01
 -1      3790 1.07458E-01
 -1      3791 1.23159E-01
 -1      3792 2.86976E+00
 -1      3793 2.29086E+00
 -1      3794 1.99056E+00
 -1      3795 1.72979E+00
 -1      3796 2.29086E+00
 -1      3797 8.63588E-01
 -1      3798 9.73695E-01
 -1      3799 1.12787E+00
 -1      3800 1.25902E+00
 -1      3801 1.08307E+00
 -1      3802 5.04712E-01
 -1      3803 5.77186E-01
 -1      3804 3.82587E-01
 -1      3805 4.40291E-01
 -1      3806 4.71712E-01
 -1      3807 2.87222E-01
 -1      3808 3.32727E-01
 -1      3809 3.57430E-01
 -1      3810 2.12890E-01
 -1      3811 2.48430E-01
 -1      3812 2.68777E-01
 -1      3813 1.55368E-01
 -1      3814 1.82772E-01
 -1      3815 1.99866E-01
 -1      3816 1.18224E-01
 -1      3817 1.39233E-01
 -1      3818 1.53612E-01
 -1      3819 1.15368E-01
 -1      3820 5.28049E+00
 -1      3821 5.75836E+00
 -1      3822 5.39361E+00
 -1      3823 6.38135E+00
 -1      3824 1.46076E+00
 -1      3825 1.63614E+00
 -1      3826 1.43899E+00
 -1      3827 9.41388E-02
 -1      3828 9.41388E-02
 -1      3829 1.15151E-01
 -1      3830 2.48031E+00
 -1      3831 3.18359E+00
 -1      3832 2.48490E+00
 -1      3833 2.48430E-01
 -1      3834 2.20438E-01
 -1      3835 5.55921E+00
 -1      3836 1.69029E-01
 -1      3837 1.46324E-01
 -1      3838 1.84610E-01
 -1      3839 4.85912E+00
 -1      3840 6.94395E+00
 -1      3841 5.89219E+00
 -1      3842 4.87358E+00
 -1      3843 5.84251E+00
 -1      3844 1.31764E-01
 -1      3845 6.61407E-01
 -1      3846 7.51430E-01
 -1      3847 8.16736E-01
 -1      3848 8.54107E-02
 -1      3849 8.68950E-02
 -1      3850 1.88271E-01
 -1      3851 1.83329E-01
 -1      3852 1.49503E-01
 -1      3853 1.35020E-01
 -1      3854 1.25909E-01
 -1      3855 1.45842E-01
 -1      3856 1.52288E-01
 -1      3857 3.83180E+00
 -1      3858 3.29834E+00
 -1      3859 3.01974E+00
 -1      3860 4.49010E+00
 -1      3861 8.97669E-02
 -1      3862 9.21995E-02
 -1      3863 9.06402E-02
 -1      3864 1.28053E-01
 -1      3865 8.68950E-02
 -1      3866 8.68950E-02
 -1      3867 9.89133E-02
 -1      3868 4.63728E+00
 -1      3869 3.54560E+00
 -1      3870 2.77337E+00
 -1      3871 3.96574E+00
 -1      3872 1.34620E-01
 -1      3873 4.91392E+00
 -1      3874 5.38943E+00
 -1      3875 2.19738E-01
 -1      3876 1.83111E-01
 -1      3877 6.30887E-01
 -1      3878 5.40973E-01
 -1      3879 6.96221E-01
 -1      3880 9.83810E-01
 -1      3881 9.40873E-01
 -1      3882 1.11282E+00
 -1      3883 1.72649E-01
 -1      3884 9.44146E-02
 -1      3885 1.33162E-01
 -1      3886 2.89993E+00
 -1      3887 2.31050E-01
 -1      3888 2.06143E-01
 -1      3889 2.00489E-01
 -1      3890 4.06137E+00
 -1      3891 8.55635E-02
 -1      3892 9.73942E-02
 -1      3893 9.75818E-02
 -1      3894 4.20685E+00
 -1      3895 3.21748E-01
 -1      3896 2.64968E-01
 -1      3897 2.55687E-01
 -1      3898 3.80583E+00
 -1      3899 4.50592E+00
 -1      3900 4.28552E+00
 -1      3901 2.95187E+00
 -1      3902 5.24053E+00
 -1      3903 5.04073E+00
 -1      3904 6.61866E+00
 -1      3905 5.30644E+00
 -1      3906 1.75097E-01
 -1      3907 1.63467E-01
 -1      3908 5.39746E+00
 -1      3909 5.10909E+00
 -1      3910 4.20322E+00
 -1      3911 4.58097E+00
 -1      3912 2.06773E-01
 -1      3913 2.39335E-01
 -1      3914 1.32621E-01
 -1      3915 1.35477E-01
 -1      3916 1.32621E-01
 -1      3917 1.07545E-01
 -1      3918 1.21379E-01
 -1      3919 1.46903E+00
 -1      3920 1.30692E+00
 -1      3921 1.27493E+00
 -1      3922 1.75097E-01
 -1      3923 1.75097E-01
 -1      3924 1.29756E-01
 -1      3925 1.27308E-01
 -1      3926 2.31050E-01
 -1      3927 6.20355E-01
 -1      3928 1.37468E-01
 -1      3929 1.13667E-01
 -1      3930 1.72979E+00
 -1      3931 1.80919E-01
 -1      3932 1.77443E-01
 -1      3933 2.08266E-01
 -1      3934 1.41834E-01
 -1      3935 1.41834E-01
 -1      3936 1.25746E-01
 -1      3937 1.96130E-01
 -1      3938 2.13581E-01
 -1      3939 2.41590E-01
 -1      3940 2.83766E-01
 -1      3941 2.47045E-01
 -1      3942 3.21408E-01
 -1      3943 3.74901E-01
 -1      3944 3.12697E-01
 -1      3945 4.37544E-01
 -1      3946 5.01540E-01
 -1      3947 4.12983E-01
 -1      3948 5.83709E-01
 -1      3949 6.59350E-01
 -1      3950 5.57796E-01
 -1      3951 7.68346E-01
 -1      3952 8.57959E-01
 -1      3953 7.48962E-01
 -1      3954 1.00384E+00
 -1      3955 1.14973E+00
 -1      3956 1.00384E+00
 -1      3957 1.33294E+00
 -1      3958 1.56646E+00
 -1      3959 1.33294E+00
 -1      3960 1.82845E+00
 -1      3961 2.27301E+00
 -1      3962 2.71897E+00
 -1      3963 1.77813E+00
 -1      3964 4.44264E+00
 -1      3965 4.59854E+00
 -1      3966 2.30442E+00
 -1      3967 1.86977E+00
 -1      3968 1.57206E+00
 -1      3969 1.33215E+00
 -1      3970 1.81581E+00
 -1      3971 1.14620E+00
 -1      3972 1.00592E+00
 -1      3973 1.33215E+00
 -1      3974 8.61529E-01
 -1      3975 7.78277E-01
 -1      3976 1.00180E+00
 -1      3977 6.73020E-01
 -1      3978 6.01887E-01
 -1      3979 7.52151E-01
 -1      3980 5.23677E-01
 -1      3981 4.64535E-01
 -1      3982 5.68683E-01
 -1      3983 4.05535E-01
 -1      3984 3.57036E-01
 -1      3985 4.31472E-01
 -1      3986 3.11939E-01
 -1      3987 2.72547E-01
 -1      3988 3.27374E-01
 -1      3989 2.37813E-01
 -1      3990 2.06093E-01
 -1      3991 2.47544E-01
 -1      3992 1.79084E-01
 -1      3993 1.53864E-01
 -1      3994 1.85801E-01
 -1      3995 2.59251E+00
 -1      3996 2.29221E+00
 -1      3997 1.29479E+00
 -1      3998 1.49653E+00
 -1      3999 9.50130E-01
 -1      4000 1.10431E+00
 -1      4001 1.16185E+00
 -1      4002 2.34087E-01
 -1      4003 2.72880E-01
 -1      4004 4.60085E-01
 -1      4005 3.86164E-01
 -1      4006 3.65333E-01
 -1      4007 5.10636E-01
 -1      4008 3.10680E-01
 -1      4009 3.60540E-01
 -1      4010 2.75990E-01
 -1      4011 4.09543E-01
 -1      4012 4.73964E-01
 -1      4013 3.62792E-01
 -1      4014 1.74457E-01
 -1      4015 2.04576E-01
 -1      4016 2.08678E-01
 -1      4017 1.38076E-01
 -1      4018 1.54212E-01
 -1      4019 1.58922E-01
 -1      4020 1.36077E-01
 -1      4021 4.61308E+00
 -1      4022 4.83733E+00
 -1      4023 4.25635E+00
 -1      4024 1.67234E-01
 -1      4025 1.76829E-01
 -1      4026 1.33523E-01
 -1      4027 9.85380E-02
 -1      4028 1.15151E-01
 -1      4029 1.16008E-01
 -1      4030 9.73942E-02
 -1      4031 2.07733E+00
 -1      4032 2.92150E+00
 -1      4033 1.93314E+00
 -1      4034 3.02034E+00
 -1      4035 2.61574E+00
 -1      4036 2.42483E+00
 -1      4037 3.68154E+00
 -1      4038 1.38773E-01
 -1      4039 1.28807E-01
 -1      4040 1.56974E-01
 -1      4041 1.54424E-01
 -1      4042 1.23676E-01
 -1      4043 1.37051E-01
 -1      4044 2.00489E-01
 -1      4045 5.15494E+00
 -1      4046 4.84432E+00
 -1      4047 3.80253E+00
 -1      4048 4.30825E+00
 -1      4049 7.11963E-01
 -1      4050 8.24122E-01
 -1      4051 8.45357E-01
 -1      4052 1.85408E+00
 -1      4053 1.59331E+00
 -1      4054 2.15573E+00
 -1      4055 3.56486E+00
 -1      4056 1.55256E-01
 -1      4057 1.73601E-01
 -1      4058 1.55773E-01
 -1      4059 4.41862E+00
 -1      4060 4.41162E+00
 -1      4061 3.61016E+00
 -1      4062 3.62073E+00
 -1      4063 5.38733E-01
 -1      4064 6.22954E-01
 -1      4065 4.76564E-01
 -1      4066 3.09855E+00
 -1      4067 3.98624E+00
 -1      4068 2.41970E+00
 -1      4069 9.24319E-02
 -1      4070 1.06324E-01
 -1      4071 7.32875E-02
 -1      4072 1.96507E-01
 -1      4073 6.30340E-01
 -1      4074 1.83055E-01
 -1      4075 3.15729E+00
 -1      4076 1.04306E-01
 -1      4077 1.39615E-01
 -1      4078 1.19996E-01
 -1      4079 1.14604E-01
 -1      4080 1.14604E-01
 -1      4081 1.77127E-01
 -1      4082 1.20570E-01
 -1      4083 1.22361E-01
 -1      4084 2.79933E-01
 -1      4085 2.34703E-01
 -1      4086 1.08259E-01
 -1      4087 1.06928E-01
 -1      4088 1.23949E-01
 -1      4089 3.42612E+00
 -1      4090 2.11006E-01
 -1      4091 2.08814E-01
 -1      4092 2.35252E-01
 -1      4093 1.93006E-01
 -1      4094 1.44543E-01
 -1      4095 1.41834E-01
 -1      4096 1.45602E-01
 -1      4097 1.53913E-01
 -1      4098 9.64748E-01
 -1      4099 8.24794E-01
 -1      4100 7.42528E-01
 -1      4101 6.37831E-01
 -1      4102 7.66403E-01
 -1      4103 3.25783E+00
 -1      4104 3.14496E+00
 -1      4105 2.71638E+00
 -1      4106 2.71773E+00
 -1      4107 3.49917E+00
 -1      4108 1.32469E+00
 -1      4109 1.13059E+00
 -1      4110 1.01451E+00
 -1      4111 2.16368E-01
 -1      4112 1.44897E+00
 -1      4113 1.95685E-01
 -1      4114 2.25196E-01
 -1      4115 1.96507E-01
 -1      4116 2.19036E-01
 -1      4117 3.08010E-01
 -1      4118 3.45652E-01
 -1      4119 3.75147E-01
 -1      4120 4.37791E-01
 -1      4121 3.70460E-01
 -1      4122 5.69631E-01
 -1      4123 6.51800E-01
 -1      4124 5.31796E-01
 -1      4125 7.96049E-01
 -1      4126 9.05046E-01
 -1      4127 8.07885E-01
 -1      4128 1.10538E+00
 -1      4129 1.25127E+00
 -1      4130 1.15247E+00
 -1      4131 1.53660E+00
 -1      4132 1.71981E+00
 -1      4133 1.63814E+00
 -1      4134 1.53520E+00
 -1      4135 1.26658E+00
 -1      4136 1.41277E+00
 -1      4137 1.22681E+00
 -1      4138 1.06414E+00
 -1      4139 9.19750E-01
 -1      4140 1.14476E+00
 -1      4141 7.75725E-01
 -1      4142 6.70468E-01
 -1      4143 8.38067E-01
 -1      4144 5.74564E-01
 -1      4145 4.96353E-01
 -1      4146 5.98138E-01
 -1      4147 4.29504E-01
 -1      4148 3.70504E-01
 -1      4149 4.35385E-01
 -1      4150 3.30852E-01
 -1      4151 2.85755E-01
 -1      4152 3.28884E-01
 -1      4153 2.53917E-01
 -1      4154 2.19183E-01
 -1      4155 2.57394E-01
 -1      4156 1.93054E-01
 -1      4157 1.66044E-01
 -1      4158 1.99427E-01
 -1      4159 2.65410E+00
 -1      4160 3.28094E+00
 -1      4161 3.02003E+00
 -1      4162 2.70871E+00
 -1      4163 3.54171E+00
 -1      4164 3.14744E-01
 -1      4165 2.93760E-01
 -1      4166 3.79160E-01
 -1      4167 2.49842E+00
 -1      4168 3.14177E+00
 -1      4169 1.06624E+00
 -1      4170 9.00401E-01
 -1      4171 1.15247E+00
 -1      4172 9.51847E-01
 -1      4173 1.14233E+00
 -1      4174 2.58051E-01
 -1      4175 2.95851E-01
 -1      4176 2.45058E-01
 -1      4177 5.44754E-01
 -1      4178 6.33762E-01
 -1      4179 3.32328E-01
 -1      4180 3.81331E-01
 -1      4181 3.14389E-01
 -1      4182 1.33912E+00
 -1      4183 1.91992E+00
 -1      4184 1.90440E+00
 -1      4185 1.12912E+00
 -1      4186 1.53467E-01
 -1      4187 1.93006E-01
 -1      4188 4.24700E-01
 -1      4189 4.89469E-01
 -1      4190 3.94236E-01
 -1      4191 7.23543E-01
 -1      4192 8.49551E-01
 -1      4193 8.30033E-01
 -1      4194 3.66479E+00
 -1      4195 3.86818E+00
 -1      4196 3.71668E+00
 -1      4197 2.89277E+00
 -1      4198 1.44543E-01
 -1      4199 1.30294E-01
 -1      4200 1.23949E-01
 -1      4201 1.51796E-01
 -1      4202 2.59297E+00
 -1      4203 2.15485E+00
 -1      4204 1.97245E+00
 -1      4205 1.52485E-01
 -1      4206 1.70690E-01
 -1      4207 1.93219E-01
 -1      4208 2.05374E+00
 -1      4209 1.75603E+00
 -1      4210 1.65070E+00
 -1      4211 2.64894E+00
 -1      4212 2.06074E-01
 -1      4213 1.83055E-01
 -1      4214 2.08814E-01
 -1      4215 1.79994E-01
 -1      4216 2.47045E-01
 -1      4217 2.75055E-01
 -1      4218 2.47045E-01
 -1      4219 1.61778E-01
 -1      4220 2.93524E+00
 -1      4221 2.93436E+00
 -1      4222 1.75930E+00
 -1      4223 2.02129E+00
 -1      4224 2.40087E+00
 -1      4225 1.96296E+00
 -1      4226 3.37237E+00
 -1      4227 2.25569E+00
 -1      4228 6.37957E-01
 -1      4229 3.08010E-01
 -1      4230 8.18912E-01
 -1      4231 7.67179E-01
 -1      4232 6.84914E-01
 -1      4233 1.31516E-01
 -1      4234 1.51761E-01
 -1      4235 1.68279E-01
 -1      4236 1.05808E-01
 -1      4237 9.51305E-02
 -1      4238 9.62744E-02
 -1      4239 1.12152E-01
 -1      4240 2.96186E+00
 -1      4241 4.92891E-01
 -1      4242 2.60435E-01
 -1      4243 2.36737E-01
 -1      4244 1.14725E-01
 -1      4245 1.17324E-01
 -1      4246 1.10163E-01
 -1      4247 9.72548E-02
 -1      4248 5.33220E-01
 -1      4249 4.52333E-01
 -1      4250 4.01744E-01
 -1      4251 5.79527E-01
 -1      4252 3.20043E-01
 -1      4253 2.85232E-01
 -1      4254 2.86718E-01
 -1      4255 1.03434E-01
 -1      4256 1.34679E-01
 -1      4257 1.49595E-01
 -1      4258 1.86738E-01
 -1      4259 1.60657E-01
 -1      4260 1.60657E-01
 -1      4261 3.05911E+00
 -1      4262 1.42851E-01
 -1      4263 1.50716E-01
 -1      4264 2.25778E+00
 -1      4265 2.29728E+00
 -1      4266 6.21109E-01
 -1      4267 7.10890E-01
 -1      4268 2.89340E+00
 -1      4269 5.42046E-01
 -1      4270 6.73887E-01
 -1      4271 6.74663E-01
 -1      4272 8.18912E-01
 -1      4273 9.52134E-01
 -1      4274 1.15247E+00
 -1      4275 1.35281E+00
 -1      4276 1.63814E+00
 -1      4277 1.67402E-01
 -1      4278 1.93219E-01
 -1      4279 1.11988E+00
 -1      4280 9.57210E-01
 -1      4281 8.54915E-01
 -1      4282 5.25205E-01
 -1      4283 4.69920E-01
 -1      4284 4.03071E-01
 -1      4285 3.59702E-01
 -1      4286 3.20050E-01
 -1      4287 2.83572E-01
 -1      4288 2.51734E-01
 -1      4289 2.18880E-01
 -1      4290 1.92750E-01
 -1      4291 6.84138E-01
 -1      4292 5.79527E-01
 -1      4293 1.31667E+00
 -1      4294 1.49595E-01
 -1      4295 2.93285E-01
 -1      4296 3.26240E-01
 -1      4297 2.04906E-01
 -1      4298 2.02166E-01
 -1      4299 1.82830E-01
 -1      4300 2.30089E-01
 -1      4301 4.30781E-01
 -1      4302 3.57608E-01
 -1      4303 3.49080E-01
 -1      4304 5.35392E-01
 -1      4305 2.23843E+00
 -1      4306 2.40478E-01
 -1      4307 2.68487E-01
 -1      4308 2.55051E+00
 -1      4309 2.08647E-01
 -1      4310 3.93300E-01
 -1      4311 6.84914E-01
 -1      4312 1.65994E+00
 -1      4313 1.66234E-01
 -1      4314 1.46781E-01
 -1      4315 1.25279E-01
 -1      4316 9.49912E-02
 -1      4317 3.63805E-01
 -1      4318 1.07138E-01
 -1      4319 1.09183E-01
 -1      4320 1.22310E-01
 -3
 9999
