    1C
    1UUSER                                                              
    1UDATE              27.october.2022                                 
    1UTIME              00:57:53                                        
    1UHOST                                                              
    1UPGM               CalculiX                                        
    1UVERSION           Version 2.17                             
    1UCOMPILETIME       Thu Jul 23 21:43:50 CEST 2020                    
    1UDIR                                                               
    1UDBN                                                               
    1UMAT    1SOLIDMATERIAL                                             
    2C                          4300                                     1
 -1         1 7.01335E+01 2.63637E+01 0.00000E+00
 -1         2 8.16147E+01 2.09861E+01 0.00000E+00
 -1         3 1.50000E+02 0.00000E+00 0.00000E+00
 -1         4 1.50000E+02 5.00000E+01 0.00000E+00
 -1         5 0.00000E+00 0.00000E+00 0.00000E+00
 -1         6 0.00000E+00 5.00000E+01 0.00000E+00
 -1         7 0.00000E+00 4.70500E+01 0.00000E+00
 -1         8 0.00000E+00 4.41000E+01 0.00000E+00
 -1         9 0.00000E+00 4.11500E+01 0.00000E+00
 -1        10 0.00000E+00 3.82000E+01 0.00000E+00
 -1        11 0.00000E+00 3.52500E+01 0.00000E+00
 -1        12 0.00000E+00 3.23500E+01 0.00000E+00
 -1        13 0.00000E+00 2.94000E+01 0.00000E+00
 -1        14 0.00000E+00 2.64500E+01 0.00000E+00
 -1        15 0.00000E+00 2.35000E+01 0.00000E+00
 -1        16 0.00000E+00 2.05500E+01 0.00000E+00
 -1        17 0.00000E+00 1.76000E+01 0.00000E+00
 -1        18 0.00000E+00 1.47000E+01 0.00000E+00
 -1        19 0.00000E+00 1.17500E+01 0.00000E+00
 -1        20 0.00000E+00 8.80000E+00 0.00000E+00
 -1        21 0.00000E+00 5.85000E+00 0.00000E+00
 -1        22 0.00000E+00 2.90000E+00 0.00000E+00
 -1        23 3.15000E+00 5.00000E+01 0.00000E+00
 -1        24 6.15000E+00 5.00000E+01 0.00000E+00
 -1        25 9.15000E+00 5.00000E+01 0.00000E+00
 -1        26 1.21500E+01 5.00000E+01 0.00000E+00
 -1        27 1.51500E+01 5.00000E+01 0.00000E+00
 -1        28 1.81500E+01 5.00000E+01 0.00000E+00
 -1        29 2.11500E+01 5.00000E+01 0.00000E+00
 -1        30 2.41500E+01 5.00000E+01 0.00000E+00
 -1        31 2.71500E+01 5.00000E+01 0.00000E+00
 -1        32 3.01500E+01 5.00000E+01 0.00000E+00
 -1        33 3.31500E+01 5.00000E+01 0.00000E+00
 -1        34 3.61500E+01 5.00000E+01 0.00000E+00
 -1        35 3.91500E+01 5.00000E+01 0.00000E+00
 -1        36 4.21500E+01 5.00000E+01 0.00000E+00
 -1        37 4.51500E+01 5.00000E+01 0.00000E+00
 -1        38 4.81500E+01 5.00000E+01 0.00000E+00
 -1        39 5.11500E+01 5.00000E+01 0.00000E+00
 -1        40 5.41500E+01 5.00000E+01 0.00000E+00
 -1        41 5.71500E+01 5.00000E+01 0.00000E+00
 -1        42 6.01500E+01 5.00000E+01 0.00000E+00
 -1        43 6.31500E+01 5.00000E+01 0.00000E+00
 -1        44 6.61500E+01 5.00000E+01 0.00000E+00
 -1        45 6.91500E+01 5.00000E+01 0.00000E+00
 -1        46 7.21500E+01 5.00000E+01 0.00000E+00
 -1        47 7.51500E+01 5.00000E+01 0.00000E+00
 -1        48 7.81500E+01 5.00000E+01 0.00000E+00
 -1        49 8.11500E+01 5.00000E+01 0.00000E+00
 -1        50 8.41500E+01 5.00000E+01 0.00000E+00
 -1        51 8.71500E+01 5.00000E+01 0.00000E+00
 -1        52 9.01500E+01 5.00000E+01 0.00000E+00
 -1        53 9.31500E+01 5.00000E+01 0.00000E+00
 -1        54 9.61500E+01 5.00000E+01 0.00000E+00
 -1        55 9.91500E+01 5.00000E+01 0.00000E+00
 -1        56 1.02150E+02 5.00000E+01 0.00000E+00
 -1        57 1.05150E+02 5.00000E+01 0.00000E+00
 -1        58 1.08150E+02 5.00000E+01 0.00000E+00
 -1        59 1.11150E+02 5.00000E+01 0.00000E+00
 -1        60 1.14150E+02 5.00000E+01 0.00000E+00
 -1        61 1.17150E+02 5.00000E+01 0.00000E+00
 -1        62 1.20150E+02 5.00000E+01 0.00000E+00
 -1        63 1.23150E+02 5.00000E+01 0.00000E+00
 -1        64 1.26150E+02 5.00000E+01 0.00000E+00
 -1        65 1.29150E+02 5.00000E+01 0.00000E+00
 -1        66 1.32150E+02 5.00000E+01 0.00000E+00
 -1        67 1.35150E+02 5.00000E+01 0.00000E+00
 -1        68 1.38150E+02 5.00000E+01 0.00000E+00
 -1        69 1.41150E+02 5.00000E+01 0.00000E+00
 -1        70 1.44150E+02 5.00000E+01 0.00000E+00
 -1        71 1.47150E+02 5.00000E+01 0.00000E+00
 -1        72 3.15000E+00 0.00000E+00 0.00000E+00
 -1        73 6.15000E+00 0.00000E+00 0.00000E+00
 -1        74 9.15000E+00 0.00000E+00 0.00000E+00
 -1        75 1.21500E+01 0.00000E+00 0.00000E+00
 -1        76 1.51500E+01 0.00000E+00 0.00000E+00
 -1        77 1.81500E+01 0.00000E+00 0.00000E+00
 -1        78 2.11500E+01 0.00000E+00 0.00000E+00
 -1        79 2.41500E+01 0.00000E+00 0.00000E+00
 -1        80 2.71500E+01 0.00000E+00 0.00000E+00
 -1        81 3.01500E+01 0.00000E+00 0.00000E+00
 -1        82 3.31500E+01 0.00000E+00 0.00000E+00
 -1        83 3.61500E+01 0.00000E+00 0.00000E+00
 -1        84 3.91500E+01 0.00000E+00 0.00000E+00
 -1        85 4.21500E+01 0.00000E+00 0.00000E+00
 -1        86 4.51500E+01 0.00000E+00 0.00000E+00
 -1        87 4.81500E+01 0.00000E+00 0.00000E+00
 -1        88 5.11500E+01 0.00000E+00 0.00000E+00
 -1        89 5.41500E+01 0.00000E+00 0.00000E+00
 -1        90 5.71500E+01 0.00000E+00 0.00000E+00
 -1        91 6.01500E+01 0.00000E+00 0.00000E+00
 -1        92 6.31500E+01 0.00000E+00 0.00000E+00
 -1        93 6.61500E+01 0.00000E+00 0.00000E+00
 -1        94 6.91500E+01 0.00000E+00 0.00000E+00
 -1        95 7.21500E+01 0.00000E+00 0.00000E+00
 -1        96 7.51500E+01 0.00000E+00 0.00000E+00
 -1        97 7.81500E+01 0.00000E+00 0.00000E+00
 -1        98 8.11500E+01 0.00000E+00 0.00000E+00
 -1        99 8.41500E+01 0.00000E+00 0.00000E+00
 -1       100 8.71500E+01 0.00000E+00 0.00000E+00
 -1       101 9.01500E+01 0.00000E+00 0.00000E+00
 -1       102 9.31500E+01 0.00000E+00 0.00000E+00
 -1       103 9.61500E+01 0.00000E+00 0.00000E+00
 -1       104 9.91500E+01 0.00000E+00 0.00000E+00
 -1       105 1.02150E+02 0.00000E+00 0.00000E+00
 -1       106 1.05150E+02 0.00000E+00 0.00000E+00
 -1       107 1.08150E+02 0.00000E+00 0.00000E+00
 -1       108 1.11150E+02 0.00000E+00 0.00000E+00
 -1       109 1.14150E+02 0.00000E+00 0.00000E+00
 -1       110 1.17150E+02 0.00000E+00 0.00000E+00
 -1       111 1.20150E+02 0.00000E+00 0.00000E+00
 -1       112 1.23150E+02 0.00000E+00 0.00000E+00
 -1       113 1.26150E+02 0.00000E+00 0.00000E+00
 -1       114 1.29150E+02 0.00000E+00 0.00000E+00
 -1       115 1.32150E+02 0.00000E+00 0.00000E+00
 -1       116 1.35150E+02 0.00000E+00 0.00000E+00
 -1       117 1.38150E+02 0.00000E+00 0.00000E+00
 -1       118 1.41150E+02 0.00000E+00 0.00000E+00
 -1       119 1.44150E+02 0.00000E+00 0.00000E+00
 -1       120 1.47150E+02 0.00000E+00 0.00000E+00
 -1       121 1.50000E+02 2.95000E+00 0.00000E+00
 -1       122 1.50000E+02 5.90000E+00 0.00000E+00
 -1       123 1.50000E+02 8.85000E+00 0.00000E+00
 -1       124 1.50000E+02 1.18000E+01 0.00000E+00
 -1       125 1.50000E+02 1.47500E+01 0.00000E+00
 -1       126 1.50000E+02 1.76500E+01 0.00000E+00
 -1       127 1.50000E+02 2.06000E+01 0.00000E+00
 -1       128 1.50000E+02 2.35500E+01 0.00000E+00
 -1       129 1.50000E+02 2.65000E+01 0.00000E+00
 -1       130 1.50000E+02 2.94500E+01 0.00000E+00
 -1       131 1.50000E+02 3.24000E+01 0.00000E+00
 -1       132 1.50000E+02 3.53000E+01 0.00000E+00
 -1       133 1.50000E+02 3.82500E+01 0.00000E+00
 -1       134 1.50000E+02 4.12000E+01 0.00000E+00
 -1       135 1.50000E+02 4.41500E+01 0.00000E+00
 -1       136 1.50000E+02 4.71000E+01 0.00000E+00
 -1       137 8.14673E+01 1.95573E+01 0.00000E+00
 -1       138 8.10500E+01 1.82316E+01 0.00000E+00
 -1       139 8.03002E+01 1.69025E+01 0.00000E+00
 -1       140 7.93139E+01 1.57979E+01 0.00000E+00
 -1       141 7.81006E+01 1.49158E+01 0.00000E+00
 -1       142 7.66485E+01 1.42880E+01 0.00000E+00
 -1       143 7.51393E+01 1.40058E+01 0.00000E+00
 -1       144 7.37175E+01 1.40438E+01 0.00000E+00
 -1       145 7.22709E+01 1.43901E+01 0.00000E+00
 -1       146 7.09468E+01 1.50240E+01 0.00000E+00
 -1       147 6.97302E+01 1.59719E+01 0.00000E+00
 -1       148 6.88387E+01 1.70317E+01 0.00000E+00
 -1       149 6.81028E+01 1.84179E+01 0.00000E+00
 -1       150 6.76961E+01 1.99217E+01 0.00000E+00
 -1       151 6.76244E+01 2.13536E+01 0.00000E+00
 -1       152 6.78675E+01 2.28503E+01 0.00000E+00
 -1       153 6.83994E+01 2.42064E+01 0.00000E+00
 -1       154 6.91762E+01 2.53932E+01 0.00000E+00
 -1       155 7.13141E+01 2.71591E+01 0.00000E+00
 -1       156 7.26089E+01 2.76925E+01 0.00000E+00
 -1       157 7.40370E+01 2.79622E+01 0.00000E+00
 -1       158 7.54952E+01 2.79305E+01 0.00000E+00
 -1       159 7.69658E+01 2.75794E+01 0.00000E+00
 -1       160 7.82404E+01 2.69739E+01 0.00000E+00
 -1       161 7.93692E+01 2.61237E+01 0.00000E+00
 -1       162 8.03852E+01 2.49486E+01 0.00000E+00
 -1       163 8.10624E+01 2.37114E+01 0.00000E+00
 -1       164 8.14727E+01 2.23892E+01 0.00000E+00
 -1       165 2.59800E+00 4.55750E+01 0.00000E+00
 -1       166 2.59800E+00 4.26250E+01 0.00000E+00
 -1       167 2.59800E+00 3.96750E+01 0.00000E+00
 -1       168 2.59800E+00 3.67250E+01 0.00000E+00
 -1       169 2.59800E+00 3.38250E+01 0.00000E+00
 -1       170 2.59800E+00 3.08750E+01 0.00000E+00
 -1       171 2.59800E+00 2.79250E+01 0.00000E+00
 -1       172 2.59800E+00 2.49750E+01 0.00000E+00
 -1       173 2.59800E+00 2.20250E+01 0.00000E+00
 -1       174 2.59800E+00 1.90750E+01 0.00000E+00
 -1       175 2.59800E+00 1.61750E+01 0.00000E+00
 -1       176 2.59800E+00 1.32250E+01 0.00000E+00
 -1       177 2.59800E+00 1.02750E+01 0.00000E+00
 -1       178 2.59800E+00 7.32500E+00 0.00000E+00
 -1       179 2.59800E+00 4.37500E+00 0.00000E+00
 -1       180 2.87400E+00 2.18750E+00 0.00000E+00
 -1       181 4.65000E+00 4.74020E+01 0.00000E+00
 -1       182 7.65000E+00 4.74020E+01 0.00000E+00
 -1       183 1.06500E+01 4.74020E+01 0.00000E+00
 -1       184 1.36500E+01 4.74020E+01 0.00000E+00
 -1       185 1.66500E+01 4.74020E+01 0.00000E+00
 -1       186 1.96500E+01 4.74020E+01 0.00000E+00
 -1       187 2.26500E+01 4.74020E+01 0.00000E+00
 -1       188 2.56500E+01 4.74020E+01 0.00000E+00
 -1       189 2.86500E+01 4.74020E+01 0.00000E+00
 -1       190 3.16500E+01 4.74020E+01 0.00000E+00
 -1       191 3.46500E+01 4.74020E+01 0.00000E+00
 -1       192 3.76500E+01 4.74020E+01 0.00000E+00
 -1       193 4.06500E+01 4.74020E+01 0.00000E+00
 -1       194 4.36500E+01 4.74020E+01 0.00000E+00
 -1       195 4.66500E+01 4.74020E+01 0.00000E+00
 -1       196 4.96500E+01 4.74020E+01 0.00000E+00
 -1       197 5.26500E+01 4.74020E+01 0.00000E+00
 -1       198 5.56500E+01 4.74020E+01 0.00000E+00
 -1       199 5.86500E+01 4.74020E+01 0.00000E+00
 -1       200 6.16500E+01 4.74020E+01 0.00000E+00
 -1       201 6.46500E+01 4.74020E+01 0.00000E+00
 -1       202 6.76500E+01 4.74020E+01 0.00000E+00
 -1       203 7.06500E+01 4.74020E+01 0.00000E+00
 -1       204 7.36500E+01 4.74020E+01 0.00000E+00
 -1       205 7.66500E+01 4.74020E+01 0.00000E+00
 -1       206 7.96500E+01 4.74020E+01 0.00000E+00
 -1       207 8.26500E+01 4.74020E+01 0.00000E+00
 -1       208 8.56500E+01 4.74020E+01 0.00000E+00
 -1       209 8.86500E+01 4.74020E+01 0.00000E+00
 -1       210 9.16500E+01 4.74020E+01 0.00000E+00
 -1       211 9.46500E+01 4.74020E+01 0.00000E+00
 -1       212 9.76500E+01 4.74020E+01 0.00000E+00
 -1       213 1.00650E+02 4.74020E+01 0.00000E+00
 -1       214 1.03650E+02 4.74020E+01 0.00000E+00
 -1       215 1.06650E+02 4.74020E+01 0.00000E+00
 -1       216 1.09650E+02 4.74020E+01 0.00000E+00
 -1       217 1.12650E+02 4.74020E+01 0.00000E+00
 -1       218 1.15650E+02 4.74020E+01 0.00000E+00
 -1       219 1.18650E+02 4.74020E+01 0.00000E+00
 -1       220 1.21650E+02 4.74020E+01 0.00000E+00
 -1       221 1.24650E+02 4.74020E+01 0.00000E+00
 -1       222 1.27650E+02 4.74020E+01 0.00000E+00
 -1       223 1.30650E+02 4.74020E+01 0.00000E+00
 -1       224 1.33650E+02 4.74020E+01 0.00000E+00
 -1       225 1.36650E+02 4.74020E+01 0.00000E+00
 -1       226 1.39650E+02 4.74020E+01 0.00000E+00
 -1       227 1.42650E+02 4.74020E+01 0.00000E+00
 -1       228 1.45650E+02 4.74020E+01 0.00000E+00
 -1       229 5.87400E+00 2.18750E+00 0.00000E+00
 -1       230 8.87400E+00 2.18750E+00 0.00000E+00
 -1       231 1.18740E+01 2.18750E+00 0.00000E+00
 -1       232 1.48740E+01 2.18750E+00 0.00000E+00
 -1       233 1.78740E+01 2.18750E+00 0.00000E+00
 -1       234 2.08740E+01 2.18750E+00 0.00000E+00
 -1       235 2.38740E+01 2.18750E+00 0.00000E+00
 -1       236 2.68740E+01 2.18750E+00 0.00000E+00
 -1       237 2.98740E+01 2.18750E+00 0.00000E+00
 -1       238 3.28740E+01 2.18750E+00 0.00000E+00
 -1       239 3.58740E+01 2.18750E+00 0.00000E+00
 -1       240 3.88740E+01 2.18750E+00 0.00000E+00
 -1       241 4.18740E+01 2.18750E+00 0.00000E+00
 -1       242 4.48740E+01 2.18750E+00 0.00000E+00
 -1       243 4.78740E+01 2.18750E+00 0.00000E+00
 -1       244 5.08740E+01 2.18750E+00 0.00000E+00
 -1       245 5.38740E+01 2.18750E+00 0.00000E+00
 -1       246 5.68740E+01 2.18750E+00 0.00000E+00
 -1       247 5.98740E+01 2.18750E+00 0.00000E+00
 -1       248 6.28740E+01 2.18750E+00 0.00000E+00
 -1       249 6.58740E+01 2.18750E+00 0.00000E+00
 -1       250 6.88740E+01 2.18750E+00 0.00000E+00
 -1       251 7.18740E+01 2.18750E+00 0.00000E+00
 -1       252 7.48740E+01 2.18750E+00 0.00000E+00
 -1       253 7.78740E+01 2.18750E+00 0.00000E+00
 -1       254 8.08740E+01 2.18750E+00 0.00000E+00
 -1       255 8.38740E+01 2.18750E+00 0.00000E+00
 -1       256 8.68740E+01 2.18750E+00 0.00000E+00
 -1       257 8.98740E+01 2.18750E+00 0.00000E+00
 -1       258 9.28740E+01 2.18750E+00 0.00000E+00
 -1       259 9.58740E+01 2.18750E+00 0.00000E+00
 -1       260 9.88740E+01 2.18750E+00 0.00000E+00
 -1       261 1.01874E+02 2.18750E+00 0.00000E+00
 -1       262 1.04874E+02 2.18750E+00 0.00000E+00
 -1       263 1.07874E+02 2.18750E+00 0.00000E+00
 -1       264 1.10874E+02 2.18750E+00 0.00000E+00
 -1       265 1.13874E+02 2.18750E+00 0.00000E+00
 -1       266 1.16874E+02 2.18750E+00 0.00000E+00
 -1       267 1.19874E+02 2.18750E+00 0.00000E+00
 -1       268 1.22874E+02 2.18750E+00 0.00000E+00
 -1       269 1.25874E+02 2.18750E+00 0.00000E+00
 -1       270 1.28874E+02 2.18750E+00 0.00000E+00
 -1       271 1.31874E+02 2.18750E+00 0.00000E+00
 -1       272 1.34874E+02 2.18750E+00 0.00000E+00
 -1       273 1.37874E+02 2.18750E+00 0.00000E+00
 -1       274 1.40874E+02 2.18750E+00 0.00000E+00
 -1       275 1.43874E+02 2.18750E+00 0.00000E+00
 -1       276 1.46874E+02 2.18750E+00 0.00000E+00
 -1       277 1.47402E+02 4.42500E+00 0.00000E+00
 -1       278 1.47402E+02 7.37500E+00 0.00000E+00
 -1       279 1.47402E+02 1.03250E+01 0.00000E+00
 -1       280 1.47402E+02 1.32750E+01 0.00000E+00
 -1       281 1.47402E+02 1.61750E+01 0.00000E+00
 -1       282 1.47402E+02 1.91250E+01 0.00000E+00
 -1       283 1.47402E+02 2.20750E+01 0.00000E+00
 -1       284 1.47402E+02 2.50250E+01 0.00000E+00
 -1       285 1.47402E+02 2.79750E+01 0.00000E+00
 -1       286 1.47402E+02 3.09250E+01 0.00000E+00
 -1       287 1.47402E+02 3.38250E+01 0.00000E+00
 -1       288 1.47402E+02 3.67750E+01 0.00000E+00
 -1       289 1.47402E+02 3.97250E+01 0.00000E+00
 -1       290 1.47402E+02 4.26750E+01 0.00000E+00
 -1       291 1.46526E+02 4.50385E+01 0.00000E+00
 -1       292 8.27470E+01 2.01473E+01 0.00000E+00
 -1       293 8.24151E+01 1.85304E+01 0.00000E+00
 -1       294 8.18040E+01 1.69302E+01 0.00000E+00
 -1       295 8.07114E+01 1.55427E+01 0.00000E+00
 -1       296 7.94202E+01 1.43762E+01 0.00000E+00
 -1       297 7.78556E+01 1.34890E+01 0.00000E+00
 -1       298 7.61476E+01 1.27904E+01 0.00000E+00
 -1       299 7.43959E+01 1.28128E+01 0.00000E+00
 -1       300 7.26924E+01 1.29564E+01 0.00000E+00
 -1       301 7.10854E+01 1.36135E+01 0.00000E+00
 -1       302 6.93873E+01 1.42772E+01 0.00000E+00
 -1       303 6.83567E+01 1.57213E+01 0.00000E+00
 -1       304 6.72519E+01 1.70778E+01 0.00000E+00
 -1       305 6.64865E+01 1.87876E+01 0.00000E+00
 -1       306 6.63657E+01 2.05727E+01 0.00000E+00
 -1       307 6.63838E+01 2.23232E+01 0.00000E+00
 -1       308 6.69268E+01 2.40016E+01 0.00000E+00
 -1       309 6.77734E+01 2.54637E+01 0.00000E+00
 -1       310 6.87917E+01 2.67298E+01 0.00000E+00
 -1       311 7.00464E+01 2.77669E+01 0.00000E+00
 -1       312 7.14997E+01 2.85468E+01 0.00000E+00
 -1       313 7.30825E+01 2.91011E+01 0.00000E+00
 -1       314 7.47943E+01 2.92422E+01 0.00000E+00
 -1       315 7.65509E+01 2.90972E+01 0.00000E+00
 -1       316 7.81234E+01 2.83718E+01 0.00000E+00
 -1       317 7.95343E+01 2.75172E+01 0.00000E+00
 -1       318 8.09211E+01 2.64387E+01 0.00000E+00
 -1       319 8.17873E+01 2.49121E+01 0.00000E+00
 -1       320 8.24255E+01 2.34096E+01 0.00000E+00
 -1       321 8.27499E+01 2.18097E+01 0.00000E+00
 -1       322 5.19600E+00 4.11500E+01 0.00000E+00
 -1       323 5.19600E+00 4.41000E+01 0.00000E+00
 -1       324 5.19600E+00 3.52750E+01 0.00000E+00
 -1       325 5.19600E+00 3.23250E+01 0.00000E+00
 -1       326 5.19600E+00 2.93750E+01 0.00000E+00
 -1       327 5.19600E+00 2.64250E+01 0.00000E+00
 -1       328 5.19600E+00 2.34750E+01 0.00000E+00
 -1       329 5.19600E+00 2.05250E+01 0.00000E+00
 -1       330 5.19600E+00 1.76250E+01 0.00000E+00
 -1       331 5.19600E+00 1.46750E+01 0.00000E+00
 -1       332 5.19600E+00 1.17250E+01 0.00000E+00
 -1       333 5.19600E+00 8.77500E+00 0.00000E+00
 -1       334 5.19600E+00 5.82500E+00 0.00000E+00
 -1       335 5.53500E+00 4.00625E+00 0.00000E+00
 -1       336 8.53500E+00 4.00625E+00 0.00000E+00
 -1       337 9.15000E+00 4.48040E+01 0.00000E+00
 -1       338 1.21500E+01 4.48040E+01 0.00000E+00
 -1       339 1.51500E+01 4.48040E+01 0.00000E+00
 -1       340 1.81500E+01 4.48040E+01 0.00000E+00
 -1       341 2.11500E+01 4.48040E+01 0.00000E+00
 -1       342 2.41500E+01 4.48040E+01 0.00000E+00
 -1       343 2.71500E+01 4.48040E+01 0.00000E+00
 -1       344 3.01500E+01 4.48040E+01 0.00000E+00
 -1       345 3.31500E+01 4.48040E+01 0.00000E+00
 -1       346 3.61500E+01 4.48040E+01 0.00000E+00
 -1       347 3.91500E+01 4.48040E+01 0.00000E+00
 -1       348 4.21500E+01 4.48040E+01 0.00000E+00
 -1       349 4.51500E+01 4.48040E+01 0.00000E+00
 -1       350 4.81500E+01 4.48040E+01 0.00000E+00
 -1       351 5.11500E+01 4.48040E+01 0.00000E+00
 -1       352 5.41500E+01 4.48040E+01 0.00000E+00
 -1       353 5.71500E+01 4.48040E+01 0.00000E+00
 -1       354 6.01500E+01 4.48040E+01 0.00000E+00
 -1       355 6.31500E+01 4.48040E+01 0.00000E+00
 -1       356 6.61500E+01 4.48040E+01 0.00000E+00
 -1       357 6.91500E+01 4.48040E+01 0.00000E+00
 -1       358 7.21500E+01 4.48040E+01 0.00000E+00
 -1       359 7.51500E+01 4.48040E+01 0.00000E+00
 -1       360 7.81500E+01 4.48040E+01 0.00000E+00
 -1       361 8.11500E+01 4.48040E+01 0.00000E+00
 -1       362 8.41500E+01 4.48040E+01 0.00000E+00
 -1       363 8.71500E+01 4.48040E+01 0.00000E+00
 -1       364 9.01500E+01 4.48040E+01 0.00000E+00
 -1       365 9.31500E+01 4.48040E+01 0.00000E+00
 -1       366 9.61500E+01 4.48040E+01 0.00000E+00
 -1       367 9.91500E+01 4.48040E+01 0.00000E+00
 -1       368 1.02150E+02 4.48040E+01 0.00000E+00
 -1       369 1.05150E+02 4.48040E+01 0.00000E+00
 -1       370 1.08150E+02 4.48040E+01 0.00000E+00
 -1       371 1.11150E+02 4.48040E+01 0.00000E+00
 -1       372 1.14150E+02 4.48040E+01 0.00000E+00
 -1       373 1.17150E+02 4.48040E+01 0.00000E+00
 -1       374 1.20150E+02 4.48040E+01 0.00000E+00
 -1       375 1.23150E+02 4.48040E+01 0.00000E+00
 -1       376 1.26150E+02 4.48040E+01 0.00000E+00
 -1       377 1.29150E+02 4.48040E+01 0.00000E+00
 -1       378 1.32150E+02 4.48040E+01 0.00000E+00
 -1       379 1.35150E+02 4.48040E+01 0.00000E+00
 -1       380 1.38150E+02 4.48040E+01 0.00000E+00
 -1       381 1.41150E+02 4.48040E+01 0.00000E+00
 -1       382 1.43838E+02 4.49212E+01 0.00000E+00
 -1       383 1.15350E+01 4.00625E+00 0.00000E+00
 -1       384 1.45350E+01 4.00625E+00 0.00000E+00
 -1       385 1.75350E+01 4.00625E+00 0.00000E+00
 -1       386 2.05350E+01 4.00625E+00 0.00000E+00
 -1       387 2.35350E+01 4.00625E+00 0.00000E+00
 -1       388 2.65350E+01 4.00625E+00 0.00000E+00
 -1       389 2.95350E+01 4.00625E+00 0.00000E+00
 -1       390 3.25350E+01 4.00625E+00 0.00000E+00
 -1       391 3.55350E+01 4.00625E+00 0.00000E+00
 -1       392 3.85350E+01 4.00625E+00 0.00000E+00
 -1       393 4.15350E+01 4.00625E+00 0.00000E+00
 -1       394 4.45350E+01 4.00625E+00 0.00000E+00
 -1       395 4.75350E+01 4.00625E+00 0.00000E+00
 -1       396 5.05350E+01 4.00625E+00 0.00000E+00
 -1       397 5.35350E+01 4.00625E+00 0.00000E+00
 -1       398 5.65350E+01 4.00625E+00 0.00000E+00
 -1       399 5.95350E+01 4.00625E+00 0.00000E+00
 -1       400 6.25350E+01 4.00625E+00 0.00000E+00
 -1       401 6.55350E+01 4.00625E+00 0.00000E+00
 -1       402 6.85350E+01 4.00625E+00 0.00000E+00
 -1       403 7.15350E+01 4.00625E+00 0.00000E+00
 -1       404 7.45350E+01 4.00625E+00 0.00000E+00
 -1       405 7.75350E+01 4.00625E+00 0.00000E+00
 -1       406 8.05350E+01 4.00625E+00 0.00000E+00
 -1       407 8.35350E+01 4.00625E+00 0.00000E+00
 -1       408 8.65350E+01 4.00625E+00 0.00000E+00
 -1       409 8.95350E+01 4.00625E+00 0.00000E+00
 -1       410 9.25350E+01 4.00625E+00 0.00000E+00
 -1       411 9.55350E+01 4.00625E+00 0.00000E+00
 -1       412 9.85350E+01 4.00625E+00 0.00000E+00
 -1       413 1.01535E+02 4.00625E+00 0.00000E+00
 -1       414 1.04535E+02 4.00625E+00 0.00000E+00
 -1       415 1.07535E+02 4.00625E+00 0.00000E+00
 -1       416 1.10535E+02 4.00625E+00 0.00000E+00
 -1       417 1.13535E+02 4.00625E+00 0.00000E+00
 -1       418 1.16535E+02 4.00625E+00 0.00000E+00
 -1       419 1.19535E+02 4.00625E+00 0.00000E+00
 -1       420 1.22535E+02 4.00625E+00 0.00000E+00
 -1       421 1.25535E+02 4.00625E+00 0.00000E+00
 -1       422 1.28535E+02 4.00625E+00 0.00000E+00
 -1       423 1.31535E+02 4.00625E+00 0.00000E+00
 -1       424 1.34535E+02 4.00625E+00 0.00000E+00
 -1       425 1.37535E+02 4.00625E+00 0.00000E+00
 -1       426 1.40535E+02 4.00625E+00 0.00000E+00
 -1       427 1.43535E+02 4.00625E+00 0.00000E+00
 -1       428 1.45469E+02 4.21562E+00 0.00000E+00
 -1       429 1.44804E+02 1.18000E+01 0.00000E+00
 -1       430 1.44804E+02 8.85000E+00 0.00000E+00
 -1       431 1.45136E+02 6.53281E+00 0.00000E+00
 -1       432 1.44804E+02 1.47000E+01 0.00000E+00
 -1       433 1.44804E+02 1.76500E+01 0.00000E+00
 -1       434 1.44804E+02 2.06000E+01 0.00000E+00
 -1       435 1.44804E+02 2.35500E+01 0.00000E+00
 -1       436 1.44804E+02 2.65000E+01 0.00000E+00
 -1       437 1.44804E+02 2.94500E+01 0.00000E+00
 -1       438 1.44804E+02 3.23500E+01 0.00000E+00
 -1       439 1.44804E+02 3.53000E+01 0.00000E+00
 -1       440 1.44804E+02 3.82500E+01 0.00000E+00
 -1       441 1.44804E+02 4.12000E+01 0.00000E+00
 -1       442 8.33987E+01 1.72380E+01 0.00000E+00
 -1       443 8.41284E+01 2.09761E+01 0.00000E+00
 -1       444 8.40149E+01 1.90445E+01 0.00000E+00
 -1       445 8.22761E+01 1.54345E+01 0.00000E+00
 -1       446 8.09347E+01 1.39977E+01 0.00000E+00
 -1       447 5.19600E+00 3.82125E+01 0.00000E+00
 -1       448 7.75874E+01 1.17074E+01 0.00000E+00
 -1       449 7.52541E+01 1.14218E+01 0.00000E+00
 -1       450 7.35506E+01 1.15654E+01 0.00000E+00
 -1       451 7.12715E+01 1.17750E+01 0.00000E+00
 -1       452 6.95735E+01 1.24387E+01 0.00000E+00
 -1       453 6.77488E+01 1.41976E+01 0.00000E+00
 -1       454 6.66440E+01 1.55541E+01 0.00000E+00
 -1       455 6.53037E+01 1.72320E+01 0.00000E+00
 -1       456 6.51329E+01 1.95927E+01 0.00000E+00
 -1       457 6.49111E+01 2.14631E+01 0.00000E+00
 -1       458 6.53423E+01 2.35872E+01 0.00000E+00
 -1       459 6.62284E+01 2.53822E+01 0.00000E+00
 -1       460 6.72725E+01 2.69091E+01 0.00000E+00
 -1       461 6.85399E+01 2.83120E+01 0.00000E+00
 -1       462 7.01205E+01 2.93728E+01 0.00000E+00
 -1       463 7.18350E+01 3.01264E+01 0.00000E+00
 -1       464 7.38043E+01 3.07975E+01 0.00000E+00
 -1       465 7.57999E+01 3.07120E+01 0.00000E+00
 -1       466 7.79854E+01 3.01397E+01 0.00000E+00
 -1       467 7.95003E+01 2.90532E+01 0.00000E+00
 -1       468 8.11263E+01 2.81334E+01 0.00000E+00
 -1       469 8.24815E+01 2.63151E+01 0.00000E+00
 -1       470 8.33766E+01 2.47003E+01 0.00000E+00
 -1       471 8.41044E+01 2.29173E+01 0.00000E+00
 -1       472 7.92772E+01 1.28051E+01 0.00000E+00
 -1       473 6.79349E+01 1.23591E+01 0.00000E+00
 -1       474 1.00350E+01 6.60425E+00 0.00000E+00
 -1       475 7.79400E+00 3.08500E+01 0.00000E+00
 -1       476 7.79400E+00 3.38000E+01 0.00000E+00
 -1       477 7.79400E+00 2.49500E+01 0.00000E+00
 -1       478 7.79400E+00 2.20000E+01 0.00000E+00
 -1       479 7.79400E+00 1.91000E+01 0.00000E+00
 -1       480 7.79400E+00 1.61500E+01 0.00000E+00
 -1       481 7.79400E+00 1.32000E+01 0.00000E+00
 -1       482 7.79400E+00 1.02500E+01 0.00000E+00
 -1       483 1.30350E+01 6.60425E+00 0.00000E+00
 -1       484 1.06500E+01 4.22060E+01 0.00000E+00
 -1       485 8.11077E+01 1.20092E+01 0.00000E+00
 -1       486 1.36500E+01 4.22060E+01 0.00000E+00
 -1       487 1.66500E+01 4.22060E+01 0.00000E+00
 -1       488 1.96500E+01 4.22060E+01 0.00000E+00
 -1       489 2.26500E+01 4.22060E+01 0.00000E+00
 -1       490 2.56500E+01 4.22060E+01 0.00000E+00
 -1       491 2.86500E+01 4.22060E+01 0.00000E+00
 -1       492 3.16500E+01 4.22060E+01 0.00000E+00
 -1       493 3.46500E+01 4.22060E+01 0.00000E+00
 -1       494 3.76500E+01 4.22060E+01 0.00000E+00
 -1       495 4.06500E+01 4.22060E+01 0.00000E+00
 -1       496 4.36500E+01 4.22060E+01 0.00000E+00
 -1       497 4.66500E+01 4.22060E+01 0.00000E+00
 -1       498 4.96500E+01 4.22060E+01 0.00000E+00
 -1       499 5.26500E+01 4.22060E+01 0.00000E+00
 -1       500 5.56500E+01 4.22060E+01 0.00000E+00
 -1       501 5.86500E+01 4.22060E+01 0.00000E+00
 -1       502 6.16500E+01 4.22060E+01 0.00000E+00
 -1       503 6.46500E+01 4.22060E+01 0.00000E+00
 -1       504 6.76500E+01 4.22060E+01 0.00000E+00
 -1       505 7.06500E+01 4.22060E+01 0.00000E+00
 -1       506 7.36500E+01 4.22060E+01 0.00000E+00
 -1       507 7.66500E+01 4.22060E+01 0.00000E+00
 -1       508 7.96500E+01 4.22060E+01 0.00000E+00
 -1       509 8.26500E+01 4.22060E+01 0.00000E+00
 -1       510 8.56500E+01 4.22060E+01 0.00000E+00
 -1       511 8.86500E+01 4.22060E+01 0.00000E+00
 -1       512 9.16500E+01 4.22060E+01 0.00000E+00
 -1       513 9.46500E+01 4.22060E+01 0.00000E+00
 -1       514 9.76500E+01 4.22060E+01 0.00000E+00
 -1       515 1.00650E+02 4.22060E+01 0.00000E+00
 -1       516 1.03650E+02 4.22060E+01 0.00000E+00
 -1       517 1.06650E+02 4.22060E+01 0.00000E+00
 -1       518 1.09650E+02 4.22060E+01 0.00000E+00
 -1       519 1.12650E+02 4.22060E+01 0.00000E+00
 -1       520 1.15650E+02 4.22060E+01 0.00000E+00
 -1       521 1.18650E+02 4.22060E+01 0.00000E+00
 -1       522 1.21650E+02 4.22060E+01 0.00000E+00
 -1       523 1.24650E+02 4.22060E+01 0.00000E+00
 -1       524 1.27650E+02 4.22060E+01 0.00000E+00
 -1       525 1.30650E+02 4.22060E+01 0.00000E+00
 -1       526 1.33650E+02 4.22060E+01 0.00000E+00
 -1       527 1.36650E+02 4.22060E+01 0.00000E+00
 -1       528 1.39650E+02 4.22060E+01 0.00000E+00
 -1       529 1.90350E+01 6.60425E+00 0.00000E+00
 -1       530 2.20350E+01 6.60425E+00 0.00000E+00
 -1       531 2.50350E+01 6.60425E+00 0.00000E+00
 -1       532 2.80350E+01 6.60425E+00 0.00000E+00
 -1       533 3.10350E+01 6.60425E+00 0.00000E+00
 -1       534 3.40350E+01 6.60425E+00 0.00000E+00
 -1       535 3.70350E+01 6.60425E+00 0.00000E+00
 -1       536 4.00350E+01 6.60425E+00 0.00000E+00
 -1       537 4.30350E+01 6.60425E+00 0.00000E+00
 -1       538 4.60350E+01 6.60425E+00 0.00000E+00
 -1       539 4.90350E+01 6.60425E+00 0.00000E+00
 -1       540 5.20350E+01 6.60425E+00 0.00000E+00
 -1       541 5.50350E+01 6.60425E+00 0.00000E+00
 -1       542 5.80350E+01 6.60425E+00 0.00000E+00
 -1       543 6.10350E+01 6.60425E+00 0.00000E+00
 -1       544 6.40350E+01 6.60425E+00 0.00000E+00
 -1       545 6.70350E+01 6.60425E+00 0.00000E+00
 -1       546 7.00350E+01 6.60425E+00 0.00000E+00
 -1       547 7.30350E+01 6.60425E+00 0.00000E+00
 -1       548 7.60350E+01 6.60425E+00 0.00000E+00
 -1       549 7.90350E+01 6.60425E+00 0.00000E+00
 -1       550 8.20350E+01 6.60425E+00 0.00000E+00
 -1       551 8.50350E+01 6.60425E+00 0.00000E+00
 -1       552 8.80350E+01 6.60425E+00 0.00000E+00
 -1       553 9.10350E+01 6.60425E+00 0.00000E+00
 -1       554 9.40350E+01 6.60425E+00 0.00000E+00
 -1       555 9.70350E+01 6.60425E+00 0.00000E+00
 -1       556 1.00035E+02 6.60425E+00 0.00000E+00
 -1       557 1.03035E+02 6.60425E+00 0.00000E+00
 -1       558 1.06035E+02 6.60425E+00 0.00000E+00
 -1       559 1.09035E+02 6.60425E+00 0.00000E+00
 -1       560 1.12035E+02 6.60425E+00 0.00000E+00
 -1       561 1.15035E+02 6.60425E+00 0.00000E+00
 -1       562 1.18035E+02 6.60425E+00 0.00000E+00
 -1       563 1.21035E+02 6.60425E+00 0.00000E+00
 -1       564 1.24035E+02 6.60425E+00 0.00000E+00
 -1       565 1.27035E+02 6.60425E+00 0.00000E+00
 -1       566 1.30035E+02 6.60425E+00 0.00000E+00
 -1       567 1.33035E+02 6.60425E+00 0.00000E+00
 -1       568 1.36035E+02 6.60425E+00 0.00000E+00
 -1       569 1.39035E+02 6.60425E+00 0.00000E+00
 -1       570 1.42035E+02 6.60425E+00 0.00000E+00
 -1       571 1.42206E+02 1.61750E+01 0.00000E+00
 -1       572 1.42206E+02 1.91250E+01 0.00000E+00
 -1       573 1.42206E+02 1.03250E+01 0.00000E+00
 -1       574 1.42206E+02 1.32500E+01 0.00000E+00
 -1       575 1.42206E+02 2.20750E+01 0.00000E+00
 -1       576 1.42206E+02 2.50250E+01 0.00000E+00
 -1       577 1.42206E+02 2.79750E+01 0.00000E+00
 -1       578 1.42206E+02 3.08750E+01 0.00000E+00
 -1       579 1.42206E+02 3.38250E+01 0.00000E+00
 -1       580 1.42206E+02 3.67750E+01 0.00000E+00
 -1       581 1.42206E+02 3.97250E+01 0.00000E+00
 -1       582 8.56166E+01 1.99195E+01 0.00000E+00
 -1       583 8.42223E+01 1.54741E+01 0.00000E+00
 -1       584 1.60350E+01 6.60425E+00 0.00000E+00
 -1       585 8.55925E+01 2.18607E+01 0.00000E+00
 -1       586 8.51715E+01 1.76416E+01 0.00000E+00
 -1       587 7.92300E+00 4.16780E+01 0.00000E+00
 -1       588 8.51732E+01 2.43936E+01 0.00000E+00
 -1       589 7.79400E+00 2.79000E+01 0.00000E+00
 -1       590 7.66495E+01 9.69583E+00 0.00000E+00
 -1       591 6.37584E+01 1.83066E+01 0.00000E+00
 -1       592 7.42442E+01 9.61753E+00 0.00000E+00
 -1       593 7.19651E+01 9.82715E+00 0.00000E+00
 -1       594 6.97371E+01 1.03534E+01 0.00000E+00
 -1       595 6.59965E+01 1.38986E+01 0.00000E+00
 -1       596 6.46562E+01 1.55764E+01 0.00000E+00
 -1       597 6.35684E+01 2.03556E+01 0.00000E+00
 -1       598 6.35280E+01 2.28497E+01 0.00000E+00
 -1       599 6.42474E+01 2.52438E+01 0.00000E+00
 -1       600 6.53347E+01 2.71138E+01 0.00000E+00
 -1       601 6.66021E+01 2.85166E+01 0.00000E+00
 -1       602 6.83744E+01 3.02665E+01 0.00000E+00
 -1       603 7.04225E+01 3.10129E+01 0.00000E+00
 -1       604 7.22935E+01 3.20060E+01 0.00000E+00
 -1       605 7.48898E+01 3.28031E+01 0.00000E+00
 -1       606 7.74120E+01 3.24092E+01 0.00000E+00
 -1       607 7.97425E+01 3.09902E+01 0.00000E+00
 -1       608 8.13684E+01 3.00704E+01 0.00000E+00
 -1       609 8.30447E+01 2.81491E+01 0.00000E+00
 -1       610 8.42093E+01 2.62173E+01 0.00000E+00
 -1       611 7.94178E+01 1.09115E+01 0.00000E+00
 -1       612 7.61550E+00 6.21462E+00 0.00000E+00
 -1       613 8.28591E+01 1.35457E+01 0.00000E+00
 -1       614 7.79400E+00 3.67375E+01 0.00000E+00
 -1       615 6.31109E+01 1.66511E+01 0.00000E+00
 -1       616 6.80985E+01 1.02737E+01 0.00000E+00
 -1       617 1.41678E+02 4.22645E+01 0.00000E+00
 -1       618 1.03920E+01 2.05500E+01 0.00000E+00
 -1       619 1.03920E+01 2.35000E+01 0.00000E+00
 -1       620 1.03920E+01 1.46750E+01 0.00000E+00
 -1       621 1.03920E+01 1.17250E+01 0.00000E+00
 -1       622 1.15350E+01 9.20225E+00 0.00000E+00
 -1       623 8.70750E+01 2.34072E+01 0.00000E+00
 -1       624 7.87232E+01 8.73327E+00 0.00000E+00
 -1       625 8.61335E+01 2.60678E+01 0.00000E+00
 -1       626 1.51500E+01 3.96080E+01 0.00000E+00
 -1       627 1.81500E+01 3.96080E+01 0.00000E+00
 -1       628 2.11500E+01 3.96080E+01 0.00000E+00
 -1       629 2.41500E+01 3.96080E+01 0.00000E+00
 -1       630 2.71500E+01 3.96080E+01 0.00000E+00
 -1       631 3.01500E+01 3.96080E+01 0.00000E+00
 -1       632 3.31500E+01 3.96080E+01 0.00000E+00
 -1       633 3.61500E+01 3.96080E+01 0.00000E+00
 -1       634 3.91500E+01 3.96080E+01 0.00000E+00
 -1       635 4.21500E+01 3.96080E+01 0.00000E+00
 -1       636 4.51500E+01 3.96080E+01 0.00000E+00
 -1       637 4.81500E+01 3.96080E+01 0.00000E+00
 -1       638 5.11500E+01 3.96080E+01 0.00000E+00
 -1       639 5.41500E+01 3.96080E+01 0.00000E+00
 -1       640 5.71500E+01 3.96080E+01 0.00000E+00
 -1       641 6.01500E+01 3.96080E+01 0.00000E+00
 -1       642 6.31500E+01 3.96080E+01 0.00000E+00
 -1       643 6.61500E+01 3.96080E+01 0.00000E+00
 -1       644 6.91500E+01 3.96080E+01 0.00000E+00
 -1       645 7.21500E+01 3.96080E+01 0.00000E+00
 -1       646 7.51500E+01 3.96080E+01 0.00000E+00
 -1       647 7.81500E+01 3.96080E+01 0.00000E+00
 -1       648 8.11500E+01 3.96080E+01 0.00000E+00
 -1       649 8.41500E+01 3.96080E+01 0.00000E+00
 -1       650 8.71500E+01 3.96080E+01 0.00000E+00
 -1       651 9.01500E+01 3.96080E+01 0.00000E+00
 -1       652 9.31500E+01 3.96080E+01 0.00000E+00
 -1       653 9.61500E+01 3.96080E+01 0.00000E+00
 -1       654 9.91500E+01 3.96080E+01 0.00000E+00
 -1       655 1.02150E+02 3.96080E+01 0.00000E+00
 -1       656 1.05150E+02 3.96080E+01 0.00000E+00
 -1       657 1.08150E+02 3.96080E+01 0.00000E+00
 -1       658 1.11150E+02 3.96080E+01 0.00000E+00
 -1       659 1.14150E+02 3.96080E+01 0.00000E+00
 -1       660 1.17150E+02 3.96080E+01 0.00000E+00
 -1       661 1.20150E+02 3.96080E+01 0.00000E+00
 -1       662 1.23150E+02 3.96080E+01 0.00000E+00
 -1       663 1.26150E+02 3.96080E+01 0.00000E+00
 -1       664 1.29150E+02 3.96080E+01 0.00000E+00
 -1       665 1.32150E+02 3.96080E+01 0.00000E+00
 -1       666 1.35150E+02 3.96080E+01 0.00000E+00
 -1       667 1.38150E+02 3.96080E+01 0.00000E+00
 -1       668 2.35350E+01 9.20225E+00 0.00000E+00
 -1       669 1.39206E+02 1.03250E+01 0.00000E+00
 -1       670 2.05350E+01 9.20225E+00 0.00000E+00
 -1       671 2.95350E+01 9.20225E+00 0.00000E+00
 -1       672 3.25350E+01 9.20225E+00 0.00000E+00
 -1       673 3.55350E+01 9.20225E+00 0.00000E+00
 -1       674 3.85350E+01 9.20225E+00 0.00000E+00
 -1       675 4.15350E+01 9.20225E+00 0.00000E+00
 -1       676 4.45350E+01 9.20225E+00 0.00000E+00
 -1       677 4.75350E+01 9.20225E+00 0.00000E+00
 -1       678 5.05350E+01 9.20225E+00 0.00000E+00
 -1       679 5.35350E+01 9.20225E+00 0.00000E+00
 -1       680 5.65350E+01 9.20225E+00 0.00000E+00
 -1       681 5.95350E+01 9.20225E+00 0.00000E+00
 -1       682 6.25350E+01 9.20225E+00 0.00000E+00
 -1       683 6.55350E+01 9.20225E+00 0.00000E+00
 -1       684 8.17232E+01 8.73327E+00 0.00000E+00
 -1       685 8.47232E+01 8.73327E+00 0.00000E+00
 -1       686 8.77232E+01 8.73327E+00 0.00000E+00
 -1       687 9.07232E+01 8.73327E+00 0.00000E+00
 -1       688 9.37232E+01 8.73327E+00 0.00000E+00
 -1       689 9.67232E+01 8.73327E+00 0.00000E+00
 -1       690 9.97232E+01 8.73327E+00 0.00000E+00
 -1       691 1.02723E+02 8.73327E+00 0.00000E+00
 -1       692 1.05723E+02 8.73327E+00 0.00000E+00
 -1       693 1.08723E+02 8.73327E+00 0.00000E+00
 -1       694 1.11723E+02 8.73327E+00 0.00000E+00
 -1       695 1.14723E+02 8.73327E+00 0.00000E+00
 -1       696 1.17723E+02 8.73327E+00 0.00000E+00
 -1       697 1.20723E+02 8.73327E+00 0.00000E+00
 -1       698 1.23723E+02 8.73327E+00 0.00000E+00
 -1       699 1.26723E+02 8.73327E+00 0.00000E+00
 -1       700 1.29723E+02 8.73327E+00 0.00000E+00
 -1       701 1.32723E+02 8.73327E+00 0.00000E+00
 -1       702 1.35723E+02 8.73327E+00 0.00000E+00
 -1       703 8.52149E+01 1.33265E+01 0.00000E+00
 -1       704 1.39608E+02 2.35500E+01 0.00000E+00
 -1       705 6.18333E+01 2.15749E+01 0.00000E+00
 -1       706 1.39608E+02 1.76500E+01 0.00000E+00
 -1       707 1.39608E+02 2.65000E+01 0.00000E+00
 -1       708 1.39608E+02 2.06000E+01 0.00000E+00
 -1       709 1.39608E+02 2.94000E+01 0.00000E+00
 -1       710 1.39608E+02 3.23500E+01 0.00000E+00
 -1       711 1.39608E+02 3.53000E+01 0.00000E+00
 -1       712 8.62680E+01 1.58699E+01 0.00000E+00
 -1       713 8.74063E+01 1.83874E+01 0.00000E+00
 -1       714 8.74871E+01 2.09135E+01 0.00000E+00
 -1       715 7.95564E+01 3.33077E+01 0.00000E+00
 -1       716 1.07220E+01 3.94717E+01 0.00000E+00
 -1       717 6.31635E+01 2.71251E+01 0.00000E+00
 -1       718 6.58990E+01 1.17857E+01 0.00000E+00
 -1       719 1.75350E+01 9.20225E+00 0.00000E+00
 -1       720 2.65350E+01 9.20225E+00 0.00000E+00
 -1       721 8.32250E+01 1.13622E+01 0.00000E+00
 -1       722 1.03920E+01 1.76125E+01 0.00000E+00
 -1       723 1.03920E+01 3.23250E+01 0.00000E+00
 -1       724 1.45350E+01 9.20225E+00 0.00000E+00
 -1       725 8.36252E+01 3.03475E+01 0.00000E+00
 -1       726 7.64931E+01 3.47974E+01 0.00000E+00
 -1       727 6.21224E+01 1.91882E+01 0.00000E+00
 -1       728 1.40178E+02 3.96665E+01 0.00000E+00
 -1       729 6.39863E+01 1.36671E+01 0.00000E+00
 -1       730 6.87538E+01 3.24086E+01 0.00000E+00
 -1       731 6.20847E+01 2.45886E+01 0.00000E+00
 -1       732 6.46957E+01 2.89649E+01 0.00000E+00
 -1       733 8.50959E+01 2.80687E+01 0.00000E+00
 -1       734 6.61655E+01 3.07313E+01 0.00000E+00
 -1       735 7.06248E+01 3.34017E+01 0.00000E+00
 -1       736 7.32212E+01 3.41988E+01 0.00000E+00
 -1       737 8.11824E+01 3.23880E+01 0.00000E+00
 -1       738 1.03920E+01 2.93750E+01 0.00000E+00
 -1       739 1.03920E+01 3.52625E+01 0.00000E+00
 -1       740 1.39608E+02 1.47250E+01 0.00000E+00
 -1       741 1.03920E+01 2.64375E+01 0.00000E+00
 -1       742 6.14749E+01 1.75327E+01 0.00000E+00
 -1       743 6.24409E+01 1.47418E+01 0.00000E+00
 -1       744 1.38879E+02 3.74540E+01 0.00000E+00
 -1       745 8.12884E+01 9.88150E+00 0.00000E+00
 -1       746 6.01088E+01 2.01551E+01 0.00000E+00
 -1       747 1.29900E+01 1.32000E+01 0.00000E+00
 -1       748 1.96500E+01 3.70100E+01 0.00000E+00
 -1       749 2.26500E+01 3.70100E+01 0.00000E+00
 -1       750 2.56500E+01 3.70100E+01 0.00000E+00
 -1       751 2.86500E+01 3.70100E+01 0.00000E+00
 -1       752 3.16500E+01 3.70100E+01 0.00000E+00
 -1       753 3.46500E+01 3.70100E+01 0.00000E+00
 -1       754 3.76500E+01 3.70100E+01 0.00000E+00
 -1       755 4.06500E+01 3.70100E+01 0.00000E+00
 -1       756 4.36500E+01 3.70100E+01 0.00000E+00
 -1       757 4.66500E+01 3.70100E+01 0.00000E+00
 -1       758 4.96500E+01 3.70100E+01 0.00000E+00
 -1       759 5.26500E+01 3.70100E+01 0.00000E+00
 -1       760 5.56500E+01 3.70100E+01 0.00000E+00
 -1       761 5.86500E+01 3.70100E+01 0.00000E+00
 -1       762 6.16500E+01 3.70100E+01 0.00000E+00
 -1       763 6.46500E+01 3.70100E+01 0.00000E+00
 -1       764 6.76500E+01 3.70100E+01 0.00000E+00
 -1       765 7.06500E+01 3.70100E+01 0.00000E+00
 -1       766 7.66500E+01 3.70100E+01 0.00000E+00
 -1       767 7.96500E+01 3.70100E+01 0.00000E+00
 -1       768 8.26500E+01 3.70100E+01 0.00000E+00
 -1       769 8.56500E+01 3.70100E+01 0.00000E+00
 -1       770 8.86500E+01 3.70100E+01 0.00000E+00
 -1       771 9.16500E+01 3.70100E+01 0.00000E+00
 -1       772 9.46500E+01 3.70100E+01 0.00000E+00
 -1       773 9.76500E+01 3.70100E+01 0.00000E+00
 -1       774 1.00650E+02 3.70100E+01 0.00000E+00
 -1       775 1.03650E+02 3.70100E+01 0.00000E+00
 -1       776 1.06650E+02 3.70100E+01 0.00000E+00
 -1       777 1.09650E+02 3.70100E+01 0.00000E+00
 -1       778 1.12650E+02 3.70100E+01 0.00000E+00
 -1       779 1.15650E+02 3.70100E+01 0.00000E+00
 -1       780 1.18650E+02 3.70100E+01 0.00000E+00
 -1       781 1.21650E+02 3.70100E+01 0.00000E+00
 -1       782 1.24650E+02 3.70100E+01 0.00000E+00
 -1       783 1.27650E+02 3.70100E+01 0.00000E+00
 -1       784 1.30650E+02 3.70100E+01 0.00000E+00
 -1       785 1.33650E+02 3.70100E+01 0.00000E+00
 -1       786 1.36264E+02 3.72320E+01 0.00000E+00
 -1       787 2.20350E+01 1.18003E+01 0.00000E+00
 -1       788 3.40350E+01 1.18003E+01 0.00000E+00
 -1       789 3.10350E+01 1.18003E+01 0.00000E+00
 -1       790 4.00350E+01 1.18003E+01 0.00000E+00
 -1       791 4.30350E+01 1.18003E+01 0.00000E+00
 -1       792 4.60350E+01 1.18003E+01 0.00000E+00
 -1       793 4.90350E+01 1.18003E+01 0.00000E+00
 -1       794 5.20350E+01 1.18003E+01 0.00000E+00
 -1       795 5.50350E+01 1.18003E+01 0.00000E+00
 -1       796 5.80350E+01 1.18003E+01 0.00000E+00
 -1       797 6.10350E+01 1.18003E+01 0.00000E+00
 -1       798 8.92232E+01 1.13313E+01 0.00000E+00
 -1       799 9.22232E+01 1.13313E+01 0.00000E+00
 -1       800 9.52232E+01 1.13313E+01 0.00000E+00
 -1       801 9.82232E+01 1.13313E+01 0.00000E+00
 -1       802 1.01223E+02 1.13313E+01 0.00000E+00
 -1       803 1.04223E+02 1.13313E+01 0.00000E+00
 -1       804 1.07223E+02 1.13313E+01 0.00000E+00
 -1       805 1.10223E+02 1.13313E+01 0.00000E+00
 -1       806 1.13223E+02 1.13313E+01 0.00000E+00
 -1       807 1.16223E+02 1.13313E+01 0.00000E+00
 -1       808 1.19223E+02 1.13313E+01 0.00000E+00
 -1       809 1.22223E+02 1.13313E+01 0.00000E+00
 -1       810 1.25223E+02 1.13313E+01 0.00000E+00
 -1       811 1.28223E+02 1.13313E+01 0.00000E+00
 -1       812 1.31223E+02 1.13313E+01 0.00000E+00
 -1       813 1.34223E+02 1.13313E+01 0.00000E+00
 -1       814 1.37010E+02 2.79500E+01 0.00000E+00
 -1       815 1.37010E+02 2.50000E+01 0.00000E+00
 -1       816 6.63447E+01 3.32905E+01 0.00000E+00
 -1       817 8.93038E+01 2.24946E+01 0.00000E+00
 -1       818 1.66500E+01 3.70100E+01 0.00000E+00
 -1       819 7.13213E+01 3.57602E+01 0.00000E+00
 -1       820 8.72860E+01 2.79350E+01 0.00000E+00
 -1       821 8.77906E+01 1.37498E+01 0.00000E+00
 -1       822 1.90350E+01 1.18003E+01 0.00000E+00
 -1       823 8.62240E+01 3.04107E+01 0.00000E+00
 -1       824 1.37010E+02 3.09000E+01 0.00000E+00
 -1       825 1.37010E+02 3.38500E+01 0.00000E+00
 -1       826 3.70350E+01 1.18003E+01 0.00000E+00
 -1       827 1.35210E+01 3.61362E+01 0.00000E+00
 -1       828 6.35050E+01 1.12647E+01 0.00000E+00
 -1       829 8.94959E+01 1.95849E+01 0.00000E+00
 -1       830 1.29900E+01 2.20250E+01 0.00000E+00
 -1       831 6.38546E+01 3.11595E+01 0.00000E+00
 -1       832 8.89288E+01 1.62673E+01 0.00000E+00
 -1       833 8.83624E+01 2.51552E+01 0.00000E+00
 -1       834 1.37625E+01 1.12011E+01 0.00000E+00
 -1       835 6.07374E+01 2.66593E+01 0.00000E+00
 -1       836 5.99158E+01 2.32521E+01 0.00000E+00
 -1       837 6.87280E+01 3.47161E+01 0.00000E+00
 -1       838 6.23224E+01 2.93197E+01 0.00000E+00
 -1       839 8.38256E+01 3.30699E+01 0.00000E+00
 -1       840 8.15439E+01 3.49241E+01 0.00000E+00
 -1       841 8.57780E+01 1.07659E+01 0.00000E+00
 -1       842 1.29900E+01 1.61375E+01 0.00000E+00
 -1       843 1.35210E+01 3.31987E+01 0.00000E+00
 -1       844 7.36500E+01 3.70100E+01 0.00000E+00
 -1       845 5.94613E+01 1.84996E+01 0.00000E+00
 -1       846 2.80350E+01 1.18003E+01 0.00000E+00
 -1       847 1.35210E+01 3.02488E+01 0.00000E+00
 -1       848 1.37010E+02 1.91250E+01 0.00000E+00
 -1       849 2.50350E+01 1.18003E+01 0.00000E+00
 -1       850 1.37010E+02 1.62000E+01 0.00000E+00
 -1       851 1.37010E+02 2.20625E+01 0.00000E+00
 -1       852 1.29900E+01 2.49625E+01 0.00000E+00
 -1       853 1.36916E+02 1.30281E+01 0.00000E+00
 -1       854 1.29900E+01 1.90812E+01 0.00000E+00
 -1       855 1.63988E+01 1.15007E+01 0.00000E+00
 -1       856 6.08050E+01 1.56233E+01 0.00000E+00
 -1       857 1.36637E+02 3.55410E+01 0.00000E+00
 -1       858 6.10922E+01 3.19022E+01 0.00000E+00
 -1       859 6.35487E+01 3.40374E+01 0.00000E+00
 -1       860 8.69540E+01 3.34803E+01 0.00000E+00
 -1       861 2.41500E+01 3.44120E+01 0.00000E+00
 -1       862 2.71500E+01 3.44120E+01 0.00000E+00
 -1       863 3.01500E+01 3.44120E+01 0.00000E+00
 -1       864 3.31500E+01 3.44120E+01 0.00000E+00
 -1       865 3.61500E+01 3.44120E+01 0.00000E+00
 -1       866 3.91500E+01 3.44120E+01 0.00000E+00
 -1       867 4.21500E+01 3.44120E+01 0.00000E+00
 -1       868 4.51500E+01 3.44120E+01 0.00000E+00
 -1       869 4.81500E+01 3.44120E+01 0.00000E+00
 -1       870 5.11500E+01 3.44120E+01 0.00000E+00
 -1       871 5.41500E+01 3.44120E+01 0.00000E+00
 -1       872 5.71500E+01 3.44120E+01 0.00000E+00
 -1       873 8.99540E+01 3.34803E+01 0.00000E+00
 -1       874 9.29540E+01 3.34803E+01 0.00000E+00
 -1       875 9.59540E+01 3.34803E+01 0.00000E+00
 -1       876 9.89540E+01 3.34803E+01 0.00000E+00
 -1       877 1.01954E+02 3.34803E+01 0.00000E+00
 -1       878 1.04954E+02 3.34803E+01 0.00000E+00
 -1       879 1.07954E+02 3.34803E+01 0.00000E+00
 -1       880 1.10954E+02 3.34803E+01 0.00000E+00
 -1       881 1.13954E+02 3.34803E+01 0.00000E+00
 -1       882 1.16954E+02 3.34803E+01 0.00000E+00
 -1       883 1.19954E+02 3.34803E+01 0.00000E+00
 -1       884 1.22954E+02 3.34803E+01 0.00000E+00
 -1       885 1.25954E+02 3.34803E+01 0.00000E+00
 -1       886 1.28954E+02 3.34803E+01 0.00000E+00
 -1       887 1.31954E+02 3.34803E+01 0.00000E+00
 -1       888 5.95071E+01 2.92418E+01 0.00000E+00
 -1       889 4.45350E+01 1.43982E+01 0.00000E+00
 -1       890 4.15350E+01 1.43982E+01 0.00000E+00
 -1       891 5.05350E+01 1.43982E+01 0.00000E+00
 -1       892 5.35350E+01 1.43982E+01 0.00000E+00
 -1       893 5.65350E+01 1.43982E+01 0.00000E+00
 -1       894 1.34412E+02 2.64750E+01 0.00000E+00
 -1       895 9.67232E+01 1.39293E+01 0.00000E+00
 -1       896 9.03806E+01 1.40948E+01 0.00000E+00
 -1       897 9.97232E+01 1.39293E+01 0.00000E+00
 -1       898 1.02723E+02 1.39293E+01 0.00000E+00
 -1       899 1.05723E+02 1.39293E+01 0.00000E+00
 -1       900 1.08723E+02 1.39293E+01 0.00000E+00
 -1       901 1.11723E+02 1.39293E+01 0.00000E+00
 -1       902 1.14723E+02 1.39293E+01 0.00000E+00
 -1       903 1.17723E+02 1.39293E+01 0.00000E+00
 -1       904 1.20723E+02 1.39293E+01 0.00000E+00
 -1       905 1.23723E+02 1.39293E+01 0.00000E+00
 -1       906 1.26723E+02 1.39293E+01 0.00000E+00
 -1       907 1.29723E+02 1.39293E+01 0.00000E+00
 -1       908 1.32723E+02 1.39293E+01 0.00000E+00
 -1       909 1.34412E+02 3.23750E+01 0.00000E+00
 -1       910 5.76316E+01 2.15552E+01 0.00000E+00
 -1       911 9.16129E+01 2.11858E+01 0.00000E+00
 -1       912 5.81706E+01 2.54756E+01 0.00000E+00
 -1       913 1.81500E+01 3.44120E+01 0.00000E+00
 -1       914 2.05350E+01 1.43982E+01 0.00000E+00
 -1       915 8.97361E+01 2.72854E+01 0.00000E+00
 -1       916 1.34412E+02 2.94250E+01 0.00000E+00
 -1       917 5.94200E+01 1.37118E+01 0.00000E+00
 -1       918 4.75350E+01 1.43982E+01 0.00000E+00
 -1       919 3.25350E+01 1.43982E+01 0.00000E+00
 -1       920 8.89472E+01 3.01133E+01 0.00000E+00
 -1       921 9.37232E+01 1.39293E+01 0.00000E+00
 -1       922 2.35350E+01 1.43982E+01 0.00000E+00
 -1       923 2.11500E+01 3.44120E+01 0.00000E+00
 -1       924 9.07660E+01 2.45088E+01 0.00000E+00
 -1       925 1.32555E+01 2.76056E+01 0.00000E+00
 -1       926 9.12333E+01 1.75807E+01 0.00000E+00
 -1       927 6.04098E+01 3.41252E+01 0.00000E+00
 -1       928 5.69841E+01 1.98997E+01 0.00000E+00
 -1       929 3.55350E+01 1.43982E+01 0.00000E+00
 -1       930 2.95350E+01 1.43982E+01 0.00000E+00
 -1       931 1.58355E+01 3.38054E+01 0.00000E+00
 -1       932 1.58355E+01 3.08554E+01 0.00000E+00
 -1       933 3.85350E+01 1.43982E+01 0.00000E+00
 -1       934 2.65350E+01 1.43982E+01 0.00000E+00
 -1       935 1.34412E+02 1.76625E+01 0.00000E+00
 -1       936 1.34412E+02 2.35375E+01 0.00000E+00
 -1       937 1.55880E+01 1.46687E+01 0.00000E+00
 -1       938 1.55880E+01 2.34937E+01 0.00000E+00
 -1       939 1.55880E+01 2.05500E+01 0.00000E+00
 -1       940 1.78988E+01 1.40987E+01 0.00000E+00
 -1       941 5.87914E+01 1.65902E+01 0.00000E+00
 -1       942 1.34412E+02 2.06000E+01 0.00000E+00
 -1       943 5.63905E+01 2.82276E+01 0.00000E+00
 -1       944 2.86500E+01 3.18140E+01 0.00000E+00
 -1       945 3.16500E+01 3.18140E+01 0.00000E+00
 -1       946 3.46500E+01 3.18140E+01 0.00000E+00
 -1       947 3.76500E+01 3.18140E+01 0.00000E+00
 -1       948 4.06500E+01 3.18140E+01 0.00000E+00
 -1       949 4.36500E+01 3.18140E+01 0.00000E+00
 -1       950 4.66500E+01 3.18140E+01 0.00000E+00
 -1       951 4.96500E+01 3.18140E+01 0.00000E+00
 -1       952 5.26500E+01 3.18140E+01 0.00000E+00
 -1       953 5.56500E+01 3.18140E+01 0.00000E+00
 -1       954 1.31954E+02 3.05303E+01 0.00000E+00
 -1       955 9.14540E+01 3.08823E+01 0.00000E+00
 -1       956 9.44540E+01 3.08823E+01 0.00000E+00
 -1       957 9.74540E+01 3.08823E+01 0.00000E+00
 -1       958 1.00454E+02 3.08823E+01 0.00000E+00
 -1       959 1.03454E+02 3.08823E+01 0.00000E+00
 -1       960 1.06454E+02 3.08823E+01 0.00000E+00
 -1       961 1.09454E+02 3.08823E+01 0.00000E+00
 -1       962 1.12454E+02 3.08823E+01 0.00000E+00
 -1       963 1.15454E+02 3.08823E+01 0.00000E+00
 -1       964 1.18454E+02 3.08823E+01 0.00000E+00
 -1       965 1.21454E+02 3.08823E+01 0.00000E+00
 -1       966 1.24454E+02 3.08823E+01 0.00000E+00
 -1       967 1.27454E+02 3.08823E+01 0.00000E+00
 -1       968 1.29704E+02 3.07063E+01 0.00000E+00
 -1       969 5.79755E+01 3.08880E+01 0.00000E+00
 -1       970 5.50350E+01 1.69963E+01 0.00000E+00
 -1       971 5.20350E+01 1.69963E+01 0.00000E+00
 -1       972 9.82232E+01 1.65273E+01 0.00000E+00
 -1       973 1.07223E+02 1.65273E+01 0.00000E+00
 -1       974 1.10223E+02 1.65273E+01 0.00000E+00
 -1       975 1.13223E+02 1.65273E+01 0.00000E+00
 -1       976 1.16223E+02 1.65273E+01 0.00000E+00
 -1       977 1.19223E+02 1.65273E+01 0.00000E+00
 -1       978 1.22223E+02 1.65273E+01 0.00000E+00
 -1       979 1.25223E+02 1.65273E+01 0.00000E+00
 -1       980 1.28223E+02 1.65273E+01 0.00000E+00
 -1       981 1.31223E+02 1.65273E+01 0.00000E+00
 -1       982 5.53273E+01 2.38693E+01 0.00000E+00
 -1       983 9.21733E+01 2.66101E+01 0.00000E+00
 -1       984 1.81500E+01 3.14620E+01 0.00000E+00
 -1       985 2.26500E+01 3.18140E+01 0.00000E+00
 -1       986 1.04223E+02 1.65273E+01 0.00000E+00
 -1       987 1.58535E+01 2.61369E+01 0.00000E+00
 -1       988 1.55880E+01 1.76094E+01 0.00000E+00
 -1       989 1.01223E+02 1.65273E+01 0.00000E+00
 -1       990 4.30350E+01 1.69963E+01 0.00000E+00
 -1       991 9.52232E+01 1.65273E+01 0.00000E+00
 -1       992 2.04000E+01 3.16380E+01 0.00000E+00
 -1       993 2.56500E+01 3.18140E+01 0.00000E+00
 -1       994 9.33385E+01 2.33950E+01 0.00000E+00
 -1       995 9.42809E+01 1.99611E+01 0.00000E+00
 -1       996 2.20350E+01 1.69963E+01 0.00000E+00
 -1       997 5.46798E+01 2.22138E+01 0.00000E+00
 -1       998 3.40350E+01 1.69963E+01 0.00000E+00
 -1       999 3.10350E+01 1.69963E+01 0.00000E+00
 -1      1000 4.00350E+01 1.69963E+01 0.00000E+00
 -1      1001 4.90350E+01 1.69963E+01 0.00000E+00
 -1      1002 1.31814E+02 2.50063E+01 0.00000E+00
 -1      1003 1.78988E+01 1.70393E+01 0.00000E+00
 -1      1004 1.31884E+02 2.77683E+01 0.00000E+00
 -1      1005 1.83057E+01 2.45557E+01 0.00000E+00
 -1      1006 1.83057E+01 2.16119E+01 0.00000E+00
 -1      1007 4.60350E+01 1.69963E+01 0.00000E+00
 -1      1008 2.50350E+01 1.69963E+01 0.00000E+00
 -1      1009 1.58445E+01 2.84961E+01 0.00000E+00
 -1      1010 1.31223E+02 1.94648E+01 0.00000E+00
 -1      1011 1.82967E+01 2.69149E+01 0.00000E+00
 -1      1012 3.70350E+01 1.69963E+01 0.00000E+00
 -1      1013 3.31500E+01 2.92160E+01 0.00000E+00
 -1      1014 3.61500E+01 2.92160E+01 0.00000E+00
 -1      1015 3.91500E+01 2.92160E+01 0.00000E+00
 -1      1016 4.21500E+01 2.92160E+01 0.00000E+00
 -1      1017 4.51500E+01 2.92160E+01 0.00000E+00
 -1      1018 4.81500E+01 2.92160E+01 0.00000E+00
 -1      1019 5.11500E+01 2.92160E+01 0.00000E+00
 -1      1020 5.37702E+01 2.87218E+01 0.00000E+00
 -1      1021 9.89540E+01 2.82843E+01 0.00000E+00
 -1      1022 1.01954E+02 2.82843E+01 0.00000E+00
 -1      1023 1.04954E+02 2.82843E+01 0.00000E+00
 -1      1024 1.07954E+02 2.82843E+01 0.00000E+00
 -1      1025 1.10954E+02 2.82843E+01 0.00000E+00
 -1      1026 1.13954E+02 2.82843E+01 0.00000E+00
 -1      1027 1.16954E+02 2.82843E+01 0.00000E+00
 -1      1028 1.19954E+02 2.82843E+01 0.00000E+00
 -1      1029 1.22954E+02 2.82843E+01 0.00000E+00
 -1      1030 1.25954E+02 2.82843E+01 0.00000E+00
 -1      1031 1.14723E+02 1.91253E+01 0.00000E+00
 -1      1032 1.11723E+02 1.91253E+01 0.00000E+00
 -1      1033 1.08723E+02 1.91253E+01 0.00000E+00
 -1      1034 1.17723E+02 1.91253E+01 0.00000E+00
 -1      1035 1.20723E+02 1.91253E+01 0.00000E+00
 -1      1036 1.23723E+02 1.91253E+01 0.00000E+00
 -1      1037 1.26723E+02 1.91253E+01 0.00000E+00
 -1      1038 1.28973E+02 1.92950E+01 0.00000E+00
 -1      1039 2.80350E+01 1.69963E+01 0.00000E+00
 -1      1040 1.31519E+02 2.22355E+01 0.00000E+00
 -1      1041 2.41500E+01 2.92160E+01 0.00000E+00
 -1      1042 1.05723E+02 1.91253E+01 0.00000E+00
 -1      1043 9.72809E+01 1.99611E+01 0.00000E+00
 -1      1044 9.48411E+01 2.57582E+01 0.00000E+00
 -1      1045 3.01500E+01 2.92160E+01 0.00000E+00
 -1      1046 1.02723E+02 1.91253E+01 0.00000E+00
 -1      1047 2.71500E+01 2.92160E+01 0.00000E+00
 -1      1048 1.81022E+01 1.93256E+01 0.00000E+00
 -1      1049 5.33574E+01 1.96050E+01 0.00000E+00
 -1      1050 1.00002E+02 1.95432E+01 0.00000E+00
 -1      1051 9.61475E+01 2.83203E+01 0.00000E+00
 -1      1052 2.08992E+01 2.57452E+01 0.00000E+00
 -1      1053 5.25840E+01 2.39878E+01 0.00000E+00
 -1      1054 9.60610E+01 2.28597E+01 0.00000E+00
 -1      1055 1.29634E+02 2.79443E+01 0.00000E+00
 -1      1056 2.08992E+01 2.28014E+01 0.00000E+00
 -1      1057 3.25350E+01 1.95942E+01 0.00000E+00
 -1      1058 4.15350E+01 1.95942E+01 0.00000E+00
 -1      1059 5.03574E+01 1.96050E+01 0.00000E+00
 -1      1060 3.55350E+01 1.95942E+01 0.00000E+00
 -1      1061 4.45350E+01 1.95942E+01 0.00000E+00
 -1      1062 1.29083E+02 2.38963E+01 0.00000E+00
 -1      1063 1.76514E+01 2.86456E+01 0.00000E+00
 -1      1064 2.35350E+01 1.95942E+01 0.00000E+00
 -1      1065 2.19000E+01 2.90400E+01 0.00000E+00
 -1      1066 1.99939E+01 1.96156E+01 0.00000E+00
 -1      1067 1.13223E+02 2.17233E+01 0.00000E+00
 -1      1068 3.85350E+01 1.95942E+01 0.00000E+00
 -1      1069 3.46500E+01 2.66180E+01 0.00000E+00
 -1      1070 3.76500E+01 2.66180E+01 0.00000E+00
 -1      1071 4.06500E+01 2.66180E+01 0.00000E+00
 -1      1072 4.36500E+01 2.66180E+01 0.00000E+00
 -1      1073 4.66500E+01 2.66180E+01 0.00000E+00
 -1      1074 4.96500E+01 2.66180E+01 0.00000E+00
 -1      1075 1.00454E+02 2.56863E+01 0.00000E+00
 -1      1076 9.76475E+01 2.57223E+01 0.00000E+00
 -1      1077 2.56500E+01 2.66180E+01 0.00000E+00
 -1      1078 1.03454E+02 2.56863E+01 0.00000E+00
 -1      1079 1.06454E+02 2.56863E+01 0.00000E+00
 -1      1080 1.09454E+02 2.56863E+01 0.00000E+00
 -1      1081 1.12454E+02 2.56863E+01 0.00000E+00
 -1      1082 1.15454E+02 2.56863E+01 0.00000E+00
 -1      1083 1.18454E+02 2.56863E+01 0.00000E+00
 -1      1084 1.21454E+02 2.56863E+01 0.00000E+00
 -1      1085 1.24454E+02 2.56863E+01 0.00000E+00
 -1      1086 1.19223E+02 2.17233E+01 0.00000E+00
 -1      1087 1.16223E+02 2.17233E+01 0.00000E+00
 -1      1088 1.10223E+02 2.17233E+01 0.00000E+00
 -1      1089 1.22223E+02 2.17233E+01 0.00000E+00
 -1      1090 1.25223E+02 2.17233E+01 0.00000E+00
 -1      1091 2.95350E+01 1.95942E+01 0.00000E+00
 -1      1092 2.65350E+01 1.95942E+01 0.00000E+00
 -1      1093 1.07223E+02 2.17233E+01 0.00000E+00
 -1      1094 2.86500E+01 2.66180E+01 0.00000E+00
 -1      1095 5.14707E+01 2.17964E+01 0.00000E+00
 -1      1096 3.16500E+01 2.66180E+01 0.00000E+00
 -1      1097 1.04223E+02 2.17233E+01 0.00000E+00
 -1      1098 4.74462E+01 1.95996E+01 0.00000E+00
 -1      1099 2.04589E+01 2.96009E+01 0.00000E+00
 -1      1100 1.29028E+02 2.15956E+01 0.00000E+00
 -1      1101 1.01502E+02 2.21412E+01 0.00000E+00
 -1      1102 4.90603E+01 2.42072E+01 0.00000E+00
 -1      1103 2.34000E+01 2.64420E+01 0.00000E+00
 -1      1104 4.30350E+01 2.21922E+01 0.00000E+00
 -1      1105 9.87815E+01 2.25005E+01 0.00000E+00
 -1      1106 3.10350E+01 2.21922E+01 0.00000E+00
 -1      1107 1.27126E+02 2.16595E+01 0.00000E+00
 -1      1108 3.40350E+01 2.21922E+01 0.00000E+00
 -1      1109 4.00350E+01 2.21922E+01 0.00000E+00
 -1      1110 2.42243E+01 2.28474E+01 0.00000E+00
 -1      1111 3.70350E+01 2.21922E+01 0.00000E+00
 -1      1112 3.61500E+01 2.40200E+01 0.00000E+00
 -1      1113 4.60477E+01 2.31997E+01 0.00000E+00
 -1      1114 2.80350E+01 2.21922E+01 0.00000E+00
 -1      1115 2.71500E+01 2.40200E+01 0.00000E+00
 -1      1116 4.85978E+01 2.18774E+01 0.00000E+00
 -1      1117 0.00000E+00 4.85250E+01 0.00000E+00
 -1      1118 0.00000E+00 4.55750E+01 0.00000E+00
 -1      1119 0.00000E+00 4.26250E+01 0.00000E+00
 -1      1120 0.00000E+00 3.96750E+01 0.00000E+00
 -1      1121 0.00000E+00 3.67250E+01 0.00000E+00
 -1      1122 0.00000E+00 3.38000E+01 0.00000E+00
 -1      1123 0.00000E+00 3.08750E+01 0.00000E+00
 -1      1124 0.00000E+00 2.79250E+01 0.00000E+00
 -1      1125 0.00000E+00 2.49750E+01 0.00000E+00
 -1      1126 0.00000E+00 2.20250E+01 0.00000E+00
 -1      1127 0.00000E+00 1.90750E+01 0.00000E+00
 -1      1128 0.00000E+00 1.61500E+01 0.00000E+00
 -1      1129 0.00000E+00 1.32250E+01 0.00000E+00
 -1      1130 0.00000E+00 1.02750E+01 0.00000E+00
 -1      1131 0.00000E+00 7.32500E+00 0.00000E+00
 -1      1132 0.00000E+00 4.37500E+00 0.00000E+00
 -1      1133 0.00000E+00 1.45000E+00 0.00000E+00
 -1      1134 1.57500E+00 5.00000E+01 0.00000E+00
 -1      1135 4.65000E+00 5.00000E+01 0.00000E+00
 -1      1136 7.65000E+00 5.00000E+01 0.00000E+00
 -1      1137 1.06500E+01 5.00000E+01 0.00000E+00
 -1      1138 1.36500E+01 5.00000E+01 0.00000E+00
 -1      1139 1.66500E+01 5.00000E+01 0.00000E+00
 -1      1140 1.96500E+01 5.00000E+01 0.00000E+00
 -1      1141 2.26500E+01 5.00000E+01 0.00000E+00
 -1      1142 2.56500E+01 5.00000E+01 0.00000E+00
 -1      1143 2.86500E+01 5.00000E+01 0.00000E+00
 -1      1144 3.16500E+01 5.00000E+01 0.00000E+00
 -1      1145 3.46500E+01 5.00000E+01 0.00000E+00
 -1      1146 3.76500E+01 5.00000E+01 0.00000E+00
 -1      1147 4.06500E+01 5.00000E+01 0.00000E+00
 -1      1148 4.36500E+01 5.00000E+01 0.00000E+00
 -1      1149 4.66500E+01 5.00000E+01 0.00000E+00
 -1      1150 4.96500E+01 5.00000E+01 0.00000E+00
 -1      1151 5.26500E+01 5.00000E+01 0.00000E+00
 -1      1152 5.56500E+01 5.00000E+01 0.00000E+00
 -1      1153 5.86500E+01 5.00000E+01 0.00000E+00
 -1      1154 6.16500E+01 5.00000E+01 0.00000E+00
 -1      1155 6.46500E+01 5.00000E+01 0.00000E+00
 -1      1156 6.76500E+01 5.00000E+01 0.00000E+00
 -1      1157 7.06500E+01 5.00000E+01 0.00000E+00
 -1      1158 7.36500E+01 5.00000E+01 0.00000E+00
 -1      1159 7.66500E+01 5.00000E+01 0.00000E+00
 -1      1160 7.96500E+01 5.00000E+01 0.00000E+00
 -1      1161 8.26500E+01 5.00000E+01 0.00000E+00
 -1      1162 8.56500E+01 5.00000E+01 0.00000E+00
 -1      1163 8.86500E+01 5.00000E+01 0.00000E+00
 -1      1164 9.16500E+01 5.00000E+01 0.00000E+00
 -1      1165 9.46500E+01 5.00000E+01 0.00000E+00
 -1      1166 9.76500E+01 5.00000E+01 0.00000E+00
 -1      1167 1.00650E+02 5.00000E+01 0.00000E+00
 -1      1168 1.03650E+02 5.00000E+01 0.00000E+00
 -1      1169 1.06650E+02 5.00000E+01 0.00000E+00
 -1      1170 1.09650E+02 5.00000E+01 0.00000E+00
 -1      1171 1.12650E+02 5.00000E+01 0.00000E+00
 -1      1172 1.15650E+02 5.00000E+01 0.00000E+00
 -1      1173 1.18650E+02 5.00000E+01 0.00000E+00
 -1      1174 1.21650E+02 5.00000E+01 0.00000E+00
 -1      1175 1.24650E+02 5.00000E+01 0.00000E+00
 -1      1176 1.27650E+02 5.00000E+01 0.00000E+00
 -1      1177 1.30650E+02 5.00000E+01 0.00000E+00
 -1      1178 1.33650E+02 5.00000E+01 0.00000E+00
 -1      1179 1.36650E+02 5.00000E+01 0.00000E+00
 -1      1180 1.39650E+02 5.00000E+01 0.00000E+00
 -1      1181 1.42650E+02 5.00000E+01 0.00000E+00
 -1      1182 1.45650E+02 5.00000E+01 0.00000E+00
 -1      1183 1.48575E+02 5.00000E+01 0.00000E+00
 -1      1184 1.57500E+00 0.00000E+00 0.00000E+00
 -1      1185 4.65000E+00 0.00000E+00 0.00000E+00
 -1      1186 7.65000E+00 0.00000E+00 0.00000E+00
 -1      1187 1.06500E+01 0.00000E+00 0.00000E+00
 -1      1188 1.36500E+01 0.00000E+00 0.00000E+00
 -1      1189 1.66500E+01 0.00000E+00 0.00000E+00
 -1      1190 1.96500E+01 0.00000E+00 0.00000E+00
 -1      1191 2.26500E+01 0.00000E+00 0.00000E+00
 -1      1192 2.56500E+01 0.00000E+00 0.00000E+00
 -1      1193 2.86500E+01 0.00000E+00 0.00000E+00
 -1      1194 3.16500E+01 0.00000E+00 0.00000E+00
 -1      1195 3.46500E+01 0.00000E+00 0.00000E+00
 -1      1196 3.76500E+01 0.00000E+00 0.00000E+00
 -1      1197 4.06500E+01 0.00000E+00 0.00000E+00
 -1      1198 4.36500E+01 0.00000E+00 0.00000E+00
 -1      1199 4.66500E+01 0.00000E+00 0.00000E+00
 -1      1200 4.96500E+01 0.00000E+00 0.00000E+00
 -1      1201 5.26500E+01 0.00000E+00 0.00000E+00
 -1      1202 5.56500E+01 0.00000E+00 0.00000E+00
 -1      1203 5.86500E+01 0.00000E+00 0.00000E+00
 -1      1204 6.16500E+01 0.00000E+00 0.00000E+00
 -1      1205 6.46500E+01 0.00000E+00 0.00000E+00
 -1      1206 6.76500E+01 0.00000E+00 0.00000E+00
 -1      1207 7.06500E+01 0.00000E+00 0.00000E+00
 -1      1208 7.36500E+01 0.00000E+00 0.00000E+00
 -1      1209 7.66500E+01 0.00000E+00 0.00000E+00
 -1      1210 7.96500E+01 0.00000E+00 0.00000E+00
 -1      1211 8.26500E+01 0.00000E+00 0.00000E+00
 -1      1212 8.56500E+01 0.00000E+00 0.00000E+00
 -1      1213 8.86500E+01 0.00000E+00 0.00000E+00
 -1      1214 9.16500E+01 0.00000E+00 0.00000E+00
 -1      1215 9.46500E+01 0.00000E+00 0.00000E+00
 -1      1216 9.76500E+01 0.00000E+00 0.00000E+00
 -1      1217 1.00650E+02 0.00000E+00 0.00000E+00
 -1      1218 1.03650E+02 0.00000E+00 0.00000E+00
 -1      1219 1.06650E+02 0.00000E+00 0.00000E+00
 -1      1220 1.09650E+02 0.00000E+00 0.00000E+00
 -1      1221 1.12650E+02 0.00000E+00 0.00000E+00
 -1      1222 1.15650E+02 0.00000E+00 0.00000E+00
 -1      1223 1.18650E+02 0.00000E+00 0.00000E+00
 -1      1224 1.21650E+02 0.00000E+00 0.00000E+00
 -1      1225 1.24650E+02 0.00000E+00 0.00000E+00
 -1      1226 1.27650E+02 0.00000E+00 0.00000E+00
 -1      1227 1.30650E+02 0.00000E+00 0.00000E+00
 -1      1228 1.33650E+02 0.00000E+00 0.00000E+00
 -1      1229 1.36650E+02 0.00000E+00 0.00000E+00
 -1      1230 1.39650E+02 0.00000E+00 0.00000E+00
 -1      1231 1.42650E+02 0.00000E+00 0.00000E+00
 -1      1232 1.45650E+02 0.00000E+00 0.00000E+00
 -1      1233 1.48575E+02 0.00000E+00 0.00000E+00
 -1      1234 1.50000E+02 1.47500E+00 0.00000E+00
 -1      1235 1.50000E+02 4.42500E+00 0.00000E+00
 -1      1236 1.50000E+02 7.37500E+00 0.00000E+00
 -1      1237 1.50000E+02 1.03250E+01 0.00000E+00
 -1      1238 1.50000E+02 1.32750E+01 0.00000E+00
 -1      1239 1.50000E+02 1.62000E+01 0.00000E+00
 -1      1240 1.50000E+02 1.91250E+01 0.00000E+00
 -1      1241 1.50000E+02 2.20750E+01 0.00000E+00
 -1      1242 1.50000E+02 2.50250E+01 0.00000E+00
 -1      1243 1.50000E+02 2.79750E+01 0.00000E+00
 -1      1244 1.50000E+02 3.09250E+01 0.00000E+00
 -1      1245 1.50000E+02 3.38500E+01 0.00000E+00
 -1      1246 1.50000E+02 3.67750E+01 0.00000E+00
 -1      1247 1.50000E+02 3.97250E+01 0.00000E+00
 -1      1248 1.50000E+02 4.26750E+01 0.00000E+00
 -1      1249 1.50000E+02 4.56250E+01 0.00000E+00
 -1      1250 1.50000E+02 4.85500E+01 0.00000E+00
 -1      1251 8.15778E+01 2.02679E+01 0.00000E+00
 -1      1252 8.12917E+01 1.88841E+01 0.00000E+00
 -1      1253 8.07114E+01 1.75466E+01 0.00000E+00
 -1      1254 7.98363E+01 1.63240E+01 0.00000E+00
 -1      1255 7.87310E+01 1.53242E+01 0.00000E+00
 -1      1256 7.73923E+01 1.45607E+01 0.00000E+00
 -1      1257 7.59016E+01 1.41054E+01 0.00000E+00
 -1      1258 7.44274E+01 1.39886E+01 0.00000E+00
 -1      1259 7.29850E+01 1.41784E+01 0.00000E+00
 -1      1260 7.15922E+01 1.46723E+01 0.00000E+00
 -1      1261 7.03123E+01 1.54644E+01 0.00000E+00
 -1      1262 6.92582E+01 1.64797E+01 0.00000E+00
 -1      1263 6.84318E+01 1.77041E+01 0.00000E+00
 -1      1264 6.78575E+01 1.91585E+01 0.00000E+00
 -1      1265 6.76235E+01 2.06358E+01 0.00000E+00
 -1      1266 6.77053E+01 2.21085E+01 0.00000E+00
 -1      1267 6.80981E+01 2.35422E+01 0.00000E+00
 -1      1268 6.87577E+01 2.48195E+01 0.00000E+00
 -1      1269 6.96312E+01 2.59018E+01 0.00000E+00
 -1      1270 7.07035E+01 2.67915E+01 0.00000E+00
 -1      1271 7.19481E+01 2.74583E+01 0.00000E+00
 -1      1272 7.33159E+01 2.78645E+01 0.00000E+00
 -1      1273 7.47669E+01 2.79844E+01 0.00000E+00
 -1      1274 7.62400E+01 2.77948E+01 0.00000E+00
 -1      1275 7.76184E+01 2.73089E+01 0.00000E+00
 -1      1276 7.88263E+01 2.65774E+01 0.00000E+00
 -1      1277 7.99099E+01 2.55644E+01 0.00000E+00
 -1      1278 8.07550E+01 2.43471E+01 0.00000E+00
 -1      1279 8.13003E+01 2.30605E+01 0.00000E+00
 -1      1280 8.15791E+01 2.16912E+01 0.00000E+00
 -1      1281 1.57500E+00 4.85250E+01 0.00000E+00
 -1      1282 1.29900E+00 4.48375E+01 0.00000E+00
 -1      1283 1.29900E+00 4.63125E+01 0.00000E+00
 -1      1284 1.29900E+00 4.18875E+01 0.00000E+00
 -1      1285 1.29900E+00 4.33625E+01 0.00000E+00
 -1      1286 2.59800E+00 4.41000E+01 0.00000E+00
 -1      1287 1.29900E+00 3.89375E+01 0.00000E+00
 -1      1288 1.29900E+00 4.04125E+01 0.00000E+00
 -1      1289 2.59800E+00 4.11500E+01 0.00000E+00
 -1      1290 1.29900E+00 3.59875E+01 0.00000E+00
 -1      1291 1.29900E+00 3.74625E+01 0.00000E+00
 -1      1292 2.59800E+00 3.82000E+01 0.00000E+00
 -1      1293 1.29900E+00 3.30875E+01 0.00000E+00
 -1      1294 1.29900E+00 3.45375E+01 0.00000E+00
 -1      1295 2.59800E+00 3.52750E+01 0.00000E+00
 -1      1296 1.29900E+00 3.01375E+01 0.00000E+00
 -1      1297 1.29900E+00 3.16125E+01 0.00000E+00
 -1      1298 2.59800E+00 3.23500E+01 0.00000E+00
 -1      1299 1.29900E+00 2.71875E+01 0.00000E+00
 -1      1300 1.29900E+00 2.86625E+01 0.00000E+00
 -1      1301 2.59800E+00 2.94000E+01 0.00000E+00
 -1      1302 1.29900E+00 2.42375E+01 0.00000E+00
 -1      1303 1.29900E+00 2.57125E+01 0.00000E+00
 -1      1304 2.59800E+00 2.64500E+01 0.00000E+00
 -1      1305 1.29900E+00 2.12875E+01 0.00000E+00
 -1      1306 1.29900E+00 2.27625E+01 0.00000E+00
 -1      1307 2.59800E+00 2.35000E+01 0.00000E+00
 -1      1308 1.29900E+00 1.83375E+01 0.00000E+00
 -1      1309 1.29900E+00 1.98125E+01 0.00000E+00
 -1      1310 2.59800E+00 2.05500E+01 0.00000E+00
 -1      1311 1.29900E+00 1.54375E+01 0.00000E+00
 -1      1312 1.29900E+00 1.68875E+01 0.00000E+00
 -1      1313 2.59800E+00 1.76250E+01 0.00000E+00
 -1      1314 1.29900E+00 1.24875E+01 0.00000E+00
 -1      1315 1.29900E+00 1.39625E+01 0.00000E+00
 -1      1316 2.59800E+00 1.47000E+01 0.00000E+00
 -1      1317 1.29900E+00 9.53750E+00 0.00000E+00
 -1      1318 1.29900E+00 1.10125E+01 0.00000E+00
 -1      1319 2.59800E+00 1.17500E+01 0.00000E+00
 -1      1320 1.29900E+00 6.58750E+00 0.00000E+00
 -1      1321 1.29900E+00 8.06250E+00 0.00000E+00
 -1      1322 2.59800E+00 8.80000E+00 0.00000E+00
 -1      1323 1.29900E+00 3.63750E+00 0.00000E+00
 -1      1324 1.29900E+00 5.11250E+00 0.00000E+00
 -1      1325 2.59800E+00 5.85000E+00 0.00000E+00
 -1      1326 1.43700E+00 1.09375E+00 0.00000E+00
 -1      1327 1.43700E+00 2.54375E+00 0.00000E+00
 -1      1328 2.73600E+00 3.28125E+00 0.00000E+00
 -1      1329 3.01200E+00 1.09375E+00 0.00000E+00
 -1      1330 3.90000E+00 4.87010E+01 0.00000E+00
 -1      1331 5.40000E+00 4.87010E+01 0.00000E+00
 -1      1332 6.90000E+00 4.87010E+01 0.00000E+00
 -1      1333 8.40000E+00 4.87010E+01 0.00000E+00
 -1      1334 6.15000E+00 4.74020E+01 0.00000E+00
 -1      1335 9.90000E+00 4.87010E+01 0.00000E+00
 -1      1336 1.14000E+01 4.87010E+01 0.00000E+00
 -1      1337 9.15000E+00 4.74020E+01 0.00000E+00
 -1      1338 1.29000E+01 4.87010E+01 0.00000E+00
 -1      1339 1.44000E+01 4.87010E+01 0.00000E+00
 -1      1340 1.21500E+01 4.74020E+01 0.00000E+00
 -1      1341 1.59000E+01 4.87010E+01 0.00000E+00
 -1      1342 1.74000E+01 4.87010E+01 0.00000E+00
 -1      1343 1.51500E+01 4.74020E+01 0.00000E+00
 -1      1344 1.89000E+01 4.87010E+01 0.00000E+00
 -1      1345 2.04000E+01 4.87010E+01 0.00000E+00
 -1      1346 1.81500E+01 4.74020E+01 0.00000E+00
 -1      1347 2.19000E+01 4.87010E+01 0.00000E+00
 -1      1348 2.34000E+01 4.87010E+01 0.00000E+00
 -1      1349 2.11500E+01 4.74020E+01 0.00000E+00
 -1      1350 2.49000E+01 4.87010E+01 0.00000E+00
 -1      1351 2.64000E+01 4.87010E+01 0.00000E+00
 -1      1352 2.41500E+01 4.74020E+01 0.00000E+00
 -1      1353 2.79000E+01 4.87010E+01 0.00000E+00
 -1      1354 2.94000E+01 4.87010E+01 0.00000E+00
 -1      1355 2.71500E+01 4.74020E+01 0.00000E+00
 -1      1356 3.09000E+01 4.87010E+01 0.00000E+00
 -1      1357 3.24000E+01 4.87010E+01 0.00000E+00
 -1      1358 3.01500E+01 4.74020E+01 0.00000E+00
 -1      1359 3.39000E+01 4.87010E+01 0.00000E+00
 -1      1360 3.54000E+01 4.87010E+01 0.00000E+00
 -1      1361 3.31500E+01 4.74020E+01 0.00000E+00
 -1      1362 3.69000E+01 4.87010E+01 0.00000E+00
 -1      1363 3.84000E+01 4.87010E+01 0.00000E+00
 -1      1364 3.61500E+01 4.74020E+01 0.00000E+00
 -1      1365 3.99000E+01 4.87010E+01 0.00000E+00
 -1      1366 4.14000E+01 4.87010E+01 0.00000E+00
 -1      1367 3.91500E+01 4.74020E+01 0.00000E+00
 -1      1368 4.29000E+01 4.87010E+01 0.00000E+00
 -1      1369 4.44000E+01 4.87010E+01 0.00000E+00
 -1      1370 4.21500E+01 4.74020E+01 0.00000E+00
 -1      1371 4.59000E+01 4.87010E+01 0.00000E+00
 -1      1372 4.74000E+01 4.87010E+01 0.00000E+00
 -1      1373 4.51500E+01 4.74020E+01 0.00000E+00
 -1      1374 4.89000E+01 4.87010E+01 0.00000E+00
 -1      1375 5.04000E+01 4.87010E+01 0.00000E+00
 -1      1376 4.81500E+01 4.74020E+01 0.00000E+00
 -1      1377 5.19000E+01 4.87010E+01 0.00000E+00
 -1      1378 5.34000E+01 4.87010E+01 0.00000E+00
 -1      1379 5.11500E+01 4.74020E+01 0.00000E+00
 -1      1380 5.49000E+01 4.87010E+01 0.00000E+00
 -1      1381 5.64000E+01 4.87010E+01 0.00000E+00
 -1      1382 5.41500E+01 4.74020E+01 0.00000E+00
 -1      1383 5.79000E+01 4.87010E+01 0.00000E+00
 -1      1384 5.94000E+01 4.87010E+01 0.00000E+00
 -1      1385 5.71500E+01 4.74020E+01 0.00000E+00
 -1      1386 6.09000E+01 4.87010E+01 0.00000E+00
 -1      1387 6.24000E+01 4.87010E+01 0.00000E+00
 -1      1388 6.01500E+01 4.74020E+01 0.00000E+00
 -1      1389 6.39000E+01 4.87010E+01 0.00000E+00
 -1      1390 6.54000E+01 4.87010E+01 0.00000E+00
 -1      1391 6.31500E+01 4.74020E+01 0.00000E+00
 -1      1392 6.69000E+01 4.87010E+01 0.00000E+00
 -1      1393 6.84000E+01 4.87010E+01 0.00000E+00
 -1      1394 6.61500E+01 4.74020E+01 0.00000E+00
 -1      1395 6.99000E+01 4.87010E+01 0.00000E+00
 -1      1396 7.14000E+01 4.87010E+01 0.00000E+00
 -1      1397 6.91500E+01 4.74020E+01 0.00000E+00
 -1      1398 7.29000E+01 4.87010E+01 0.00000E+00
 -1      1399 7.44000E+01 4.87010E+01 0.00000E+00
 -1      1400 7.21500E+01 4.74020E+01 0.00000E+00
 -1      1401 7.59000E+01 4.87010E+01 0.00000E+00
 -1      1402 7.74000E+01 4.87010E+01 0.00000E+00
 -1      1403 7.51500E+01 4.74020E+01 0.00000E+00
 -1      1404 7.89000E+01 4.87010E+01 0.00000E+00
 -1      1405 8.04000E+01 4.87010E+01 0.00000E+00
 -1      1406 7.81500E+01 4.74020E+01 0.00000E+00
 -1      1407 8.19000E+01 4.87010E+01 0.00000E+00
 -1      1408 8.34000E+01 4.87010E+01 0.00000E+00
 -1      1409 8.11500E+01 4.74020E+01 0.00000E+00
 -1      1410 8.49000E+01 4.87010E+01 0.00000E+00
 -1      1411 8.64000E+01 4.87010E+01 0.00000E+00
 -1      1412 8.41500E+01 4.74020E+01 0.00000E+00
 -1      1413 8.79000E+01 4.87010E+01 0.00000E+00
 -1      1414 8.94000E+01 4.87010E+01 0.00000E+00
 -1      1415 8.71500E+01 4.74020E+01 0.00000E+00
 -1      1416 9.09000E+01 4.87010E+01 0.00000E+00
 -1      1417 9.24000E+01 4.87010E+01 0.00000E+00
 -1      1418 9.01500E+01 4.74020E+01 0.00000E+00
 -1      1419 9.39000E+01 4.87010E+01 0.00000E+00
 -1      1420 9.54000E+01 4.87010E+01 0.00000E+00
 -1      1421 9.31500E+01 4.74020E+01 0.00000E+00
 -1      1422 9.69000E+01 4.87010E+01 0.00000E+00
 -1      1423 9.84000E+01 4.87010E+01 0.00000E+00
 -1      1424 9.61500E+01 4.74020E+01 0.00000E+00
 -1      1425 9.99000E+01 4.87010E+01 0.00000E+00
 -1      1426 1.01400E+02 4.87010E+01 0.00000E+00
 -1      1427 9.91500E+01 4.74020E+01 0.00000E+00
 -1      1428 1.02900E+02 4.87010E+01 0.00000E+00
 -1      1429 1.04400E+02 4.87010E+01 0.00000E+00
 -1      1430 1.02150E+02 4.74020E+01 0.00000E+00
 -1      1431 1.05900E+02 4.87010E+01 0.00000E+00
 -1      1432 1.07400E+02 4.87010E+01 0.00000E+00
 -1      1433 1.05150E+02 4.74020E+01 0.00000E+00
 -1      1434 1.08900E+02 4.87010E+01 0.00000E+00
 -1      1435 1.10400E+02 4.87010E+01 0.00000E+00
 -1      1436 1.08150E+02 4.74020E+01 0.00000E+00
 -1      1437 1.11900E+02 4.87010E+01 0.00000E+00
 -1      1438 1.13400E+02 4.87010E+01 0.00000E+00
 -1      1439 1.11150E+02 4.74020E+01 0.00000E+00
 -1      1440 1.14900E+02 4.87010E+01 0.00000E+00
 -1      1441 1.16400E+02 4.87010E+01 0.00000E+00
 -1      1442 1.14150E+02 4.74020E+01 0.00000E+00
 -1      1443 1.17900E+02 4.87010E+01 0.00000E+00
 -1      1444 1.19400E+02 4.87010E+01 0.00000E+00
 -1      1445 1.17150E+02 4.74020E+01 0.00000E+00
 -1      1446 1.20900E+02 4.87010E+01 0.00000E+00
 -1      1447 1.22400E+02 4.87010E+01 0.00000E+00
 -1      1448 1.20150E+02 4.74020E+01 0.00000E+00
 -1      1449 1.23900E+02 4.87010E+01 0.00000E+00
 -1      1450 1.25400E+02 4.87010E+01 0.00000E+00
 -1      1451 1.23150E+02 4.74020E+01 0.00000E+00
 -1      1452 1.26900E+02 4.87010E+01 0.00000E+00
 -1      1453 1.28400E+02 4.87010E+01 0.00000E+00
 -1      1454 1.26150E+02 4.74020E+01 0.00000E+00
 -1      1455 1.29900E+02 4.87010E+01 0.00000E+00
 -1      1456 1.31400E+02 4.87010E+01 0.00000E+00
 -1      1457 1.29150E+02 4.74020E+01 0.00000E+00
 -1      1458 1.32900E+02 4.87010E+01 0.00000E+00
 -1      1459 1.34400E+02 4.87010E+01 0.00000E+00
 -1      1460 1.32150E+02 4.74020E+01 0.00000E+00
 -1      1461 1.35900E+02 4.87010E+01 0.00000E+00
 -1      1462 1.37400E+02 4.87010E+01 0.00000E+00
 -1      1463 1.35150E+02 4.74020E+01 0.00000E+00
 -1      1464 1.38900E+02 4.87010E+01 0.00000E+00
 -1      1465 1.40400E+02 4.87010E+01 0.00000E+00
 -1      1466 1.38150E+02 4.74020E+01 0.00000E+00
 -1      1467 1.41900E+02 4.87010E+01 0.00000E+00
 -1      1468 1.43400E+02 4.87010E+01 0.00000E+00
 -1      1469 1.41150E+02 4.74020E+01 0.00000E+00
 -1      1470 1.44900E+02 4.87010E+01 0.00000E+00
 -1      1471 1.46400E+02 4.87010E+01 0.00000E+00
 -1      1472 1.44150E+02 4.74020E+01 0.00000E+00
 -1      1473 1.48575E+02 4.85500E+01 0.00000E+00
 -1      1474 1.47825E+02 4.72510E+01 0.00000E+00
 -1      1475 6.01200E+00 1.09375E+00 0.00000E+00
 -1      1476 4.51200E+00 1.09375E+00 0.00000E+00
 -1      1477 4.37400E+00 2.18750E+00 0.00000E+00
 -1      1478 9.01200E+00 1.09375E+00 0.00000E+00
 -1      1479 7.51200E+00 1.09375E+00 0.00000E+00
 -1      1480 7.37400E+00 2.18750E+00 0.00000E+00
 -1      1481 1.20120E+01 1.09375E+00 0.00000E+00
 -1      1482 1.05120E+01 1.09375E+00 0.00000E+00
 -1      1483 1.03740E+01 2.18750E+00 0.00000E+00
 -1      1484 1.50120E+01 1.09375E+00 0.00000E+00
 -1      1485 1.35120E+01 1.09375E+00 0.00000E+00
 -1      1486 1.33740E+01 2.18750E+00 0.00000E+00
 -1      1487 1.80120E+01 1.09375E+00 0.00000E+00
 -1      1488 1.65120E+01 1.09375E+00 0.00000E+00
 -1      1489 1.63740E+01 2.18750E+00 0.00000E+00
 -1      1490 2.10120E+01 1.09375E+00 0.00000E+00
 -1      1491 1.95120E+01 1.09375E+00 0.00000E+00
 -1      1492 1.93740E+01 2.18750E+00 0.00000E+00
 -1      1493 2.40120E+01 1.09375E+00 0.00000E+00
 -1      1494 2.25120E+01 1.09375E+00 0.00000E+00
 -1      1495 2.23740E+01 2.18750E+00 0.00000E+00
 -1      1496 2.70120E+01 1.09375E+00 0.00000E+00
 -1      1497 2.55120E+01 1.09375E+00 0.00000E+00
 -1      1498 2.53740E+01 2.18750E+00 0.00000E+00
 -1      1499 3.00120E+01 1.09375E+00 0.00000E+00
 -1      1500 2.85120E+01 1.09375E+00 0.00000E+00
 -1      1501 2.83740E+01 2.18750E+00 0.00000E+00
 -1      1502 3.30120E+01 1.09375E+00 0.00000E+00
 -1      1503 3.15120E+01 1.09375E+00 0.00000E+00
 -1      1504 3.13740E+01 2.18750E+00 0.00000E+00
 -1      1505 3.60120E+01 1.09375E+00 0.00000E+00
 -1      1506 3.45120E+01 1.09375E+00 0.00000E+00
 -1      1507 3.43740E+01 2.18750E+00 0.00000E+00
 -1      1508 3.90120E+01 1.09375E+00 0.00000E+00
 -1      1509 3.75120E+01 1.09375E+00 0.00000E+00
 -1      1510 3.73740E+01 2.18750E+00 0.00000E+00
 -1      1511 4.20120E+01 1.09375E+00 0.00000E+00
 -1      1512 4.05120E+01 1.09375E+00 0.00000E+00
 -1      1513 4.03740E+01 2.18750E+00 0.00000E+00
 -1      1514 4.50120E+01 1.09375E+00 0.00000E+00
 -1      1515 4.35120E+01 1.09375E+00 0.00000E+00
 -1      1516 4.33740E+01 2.18750E+00 0.00000E+00
 -1      1517 4.80120E+01 1.09375E+00 0.00000E+00
 -1      1518 4.65120E+01 1.09375E+00 0.00000E+00
 -1      1519 4.63740E+01 2.18750E+00 0.00000E+00
 -1      1520 5.10120E+01 1.09375E+00 0.00000E+00
 -1      1521 4.95120E+01 1.09375E+00 0.00000E+00
 -1      1522 4.93740E+01 2.18750E+00 0.00000E+00
 -1      1523 5.40120E+01 1.09375E+00 0.00000E+00
 -1      1524 5.25120E+01 1.09375E+00 0.00000E+00
 -1      1525 5.23740E+01 2.18750E+00 0.00000E+00
 -1      1526 5.70120E+01 1.09375E+00 0.00000E+00
 -1      1527 5.55120E+01 1.09375E+00 0.00000E+00
 -1      1528 5.53740E+01 2.18750E+00 0.00000E+00
 -1      1529 6.00120E+01 1.09375E+00 0.00000E+00
 -1      1530 5.85120E+01 1.09375E+00 0.00000E+00
 -1      1531 5.83740E+01 2.18750E+00 0.00000E+00
 -1      1532 6.30120E+01 1.09375E+00 0.00000E+00
 -1      1533 6.15120E+01 1.09375E+00 0.00000E+00
 -1      1534 6.13740E+01 2.18750E+00 0.00000E+00
 -1      1535 6.60120E+01 1.09375E+00 0.00000E+00
 -1      1536 6.45120E+01 1.09375E+00 0.00000E+00
 -1      1537 6.43740E+01 2.18750E+00 0.00000E+00
 -1      1538 6.90120E+01 1.09375E+00 0.00000E+00
 -1      1539 6.75120E+01 1.09375E+00 0.00000E+00
 -1      1540 6.73740E+01 2.18750E+00 0.00000E+00
 -1      1541 7.20120E+01 1.09375E+00 0.00000E+00
 -1      1542 7.05120E+01 1.09375E+00 0.00000E+00
 -1      1543 7.03740E+01 2.18750E+00 0.00000E+00
 -1      1544 7.50120E+01 1.09375E+00 0.00000E+00
 -1      1545 7.35120E+01 1.09375E+00 0.00000E+00
 -1      1546 7.33740E+01 2.18750E+00 0.00000E+00
 -1      1547 7.80120E+01 1.09375E+00 0.00000E+00
 -1      1548 7.65120E+01 1.09375E+00 0.00000E+00
 -1      1549 7.63740E+01 2.18750E+00 0.00000E+00
 -1      1550 8.10120E+01 1.09375E+00 0.00000E+00
 -1      1551 7.95120E+01 1.09375E+00 0.00000E+00
 -1      1552 7.93740E+01 2.18750E+00 0.00000E+00
 -1      1553 8.40120E+01 1.09375E+00 0.00000E+00
 -1      1554 8.25120E+01 1.09375E+00 0.00000E+00
 -1      1555 8.23740E+01 2.18750E+00 0.00000E+00
 -1      1556 8.70120E+01 1.09375E+00 0.00000E+00
 -1      1557 8.55120E+01 1.09375E+00 0.00000E+00
 -1      1558 8.53740E+01 2.18750E+00 0.00000E+00
 -1      1559 9.00120E+01 1.09375E+00 0.00000E+00
 -1      1560 8.85120E+01 1.09375E+00 0.00000E+00
 -1      1561 8.83740E+01 2.18750E+00 0.00000E+00
 -1      1562 9.30120E+01 1.09375E+00 0.00000E+00
 -1      1563 9.15120E+01 1.09375E+00 0.00000E+00
 -1      1564 9.13740E+01 2.18750E+00 0.00000E+00
 -1      1565 9.60120E+01 1.09375E+00 0.00000E+00
 -1      1566 9.45120E+01 1.09375E+00 0.00000E+00
 -1      1567 9.43740E+01 2.18750E+00 0.00000E+00
 -1      1568 9.90120E+01 1.09375E+00 0.00000E+00
 -1      1569 9.75120E+01 1.09375E+00 0.00000E+00
 -1      1570 9.73740E+01 2.18750E+00 0.00000E+00
 -1      1571 1.02012E+02 1.09375E+00 0.00000E+00
 -1      1572 1.00512E+02 1.09375E+00 0.00000E+00
 -1      1573 1.00374E+02 2.18750E+00 0.00000E+00
 -1      1574 1.05012E+02 1.09375E+00 0.00000E+00
 -1      1575 1.03512E+02 1.09375E+00 0.00000E+00
 -1      1576 1.03374E+02 2.18750E+00 0.00000E+00
 -1      1577 1.08012E+02 1.09375E+00 0.00000E+00
 -1      1578 1.06512E+02 1.09375E+00 0.00000E+00
 -1      1579 1.06374E+02 2.18750E+00 0.00000E+00
 -1      1580 1.11012E+02 1.09375E+00 0.00000E+00
 -1      1581 1.09512E+02 1.09375E+00 0.00000E+00
 -1      1582 1.09374E+02 2.18750E+00 0.00000E+00
 -1      1583 1.14012E+02 1.09375E+00 0.00000E+00
 -1      1584 1.12512E+02 1.09375E+00 0.00000E+00
 -1      1585 1.12374E+02 2.18750E+00 0.00000E+00
 -1      1586 1.17012E+02 1.09375E+00 0.00000E+00
 -1      1587 1.15512E+02 1.09375E+00 0.00000E+00
 -1      1588 1.15374E+02 2.18750E+00 0.00000E+00
 -1      1589 1.20012E+02 1.09375E+00 0.00000E+00
 -1      1590 1.18512E+02 1.09375E+00 0.00000E+00
 -1      1591 1.18374E+02 2.18750E+00 0.00000E+00
 -1      1592 1.23012E+02 1.09375E+00 0.00000E+00
 -1      1593 1.21512E+02 1.09375E+00 0.00000E+00
 -1      1594 1.21374E+02 2.18750E+00 0.00000E+00
 -1      1595 1.26012E+02 1.09375E+00 0.00000E+00
 -1      1596 1.24512E+02 1.09375E+00 0.00000E+00
 -1      1597 1.24374E+02 2.18750E+00 0.00000E+00
 -1      1598 1.29012E+02 1.09375E+00 0.00000E+00
 -1      1599 1.27512E+02 1.09375E+00 0.00000E+00
 -1      1600 1.27374E+02 2.18750E+00 0.00000E+00
 -1      1601 1.32012E+02 1.09375E+00 0.00000E+00
 -1      1602 1.30512E+02 1.09375E+00 0.00000E+00
 -1      1603 1.30374E+02 2.18750E+00 0.00000E+00
 -1      1604 1.35012E+02 1.09375E+00 0.00000E+00
 -1      1605 1.33512E+02 1.09375E+00 0.00000E+00
 -1      1606 1.33374E+02 2.18750E+00 0.00000E+00
 -1      1607 1.38012E+02 1.09375E+00 0.00000E+00
 -1      1608 1.36512E+02 1.09375E+00 0.00000E+00
 -1      1609 1.36374E+02 2.18750E+00 0.00000E+00
 -1      1610 1.41012E+02 1.09375E+00 0.00000E+00
 -1      1611 1.39512E+02 1.09375E+00 0.00000E+00
 -1      1612 1.39374E+02 2.18750E+00 0.00000E+00
 -1      1613 1.44012E+02 1.09375E+00 0.00000E+00
 -1      1614 1.42512E+02 1.09375E+00 0.00000E+00
 -1      1615 1.42374E+02 2.18750E+00 0.00000E+00
 -1      1616 1.47012E+02 1.09375E+00 0.00000E+00
 -1      1617 1.45512E+02 1.09375E+00 0.00000E+00
 -1      1618 1.45374E+02 2.18750E+00 0.00000E+00
 -1      1619 1.48575E+02 1.47500E+00 0.00000E+00
 -1      1620 1.48701E+02 5.16250E+00 0.00000E+00
 -1      1621 1.48701E+02 3.68750E+00 0.00000E+00
 -1      1622 1.48701E+02 8.11250E+00 0.00000E+00
 -1      1623 1.48701E+02 6.63750E+00 0.00000E+00
 -1      1624 1.47402E+02 5.90000E+00 0.00000E+00
 -1      1625 1.48701E+02 1.10625E+01 0.00000E+00
 -1      1626 1.48701E+02 9.58750E+00 0.00000E+00
 -1      1627 1.47402E+02 8.85000E+00 0.00000E+00
 -1      1628 1.48701E+02 1.40125E+01 0.00000E+00
 -1      1629 1.48701E+02 1.25375E+01 0.00000E+00
 -1      1630 1.47402E+02 1.18000E+01 0.00000E+00
 -1      1631 1.48701E+02 1.69125E+01 0.00000E+00
 -1      1632 1.48701E+02 1.54625E+01 0.00000E+00
 -1      1633 1.47402E+02 1.47250E+01 0.00000E+00
 -1      1634 1.48701E+02 1.98625E+01 0.00000E+00
 -1      1635 1.48701E+02 1.83875E+01 0.00000E+00
 -1      1636 1.47402E+02 1.76500E+01 0.00000E+00
 -1      1637 1.48701E+02 2.28125E+01 0.00000E+00
 -1      1638 1.48701E+02 2.13375E+01 0.00000E+00
 -1      1639 1.47402E+02 2.06000E+01 0.00000E+00
 -1      1640 1.48701E+02 2.57625E+01 0.00000E+00
 -1      1641 1.48701E+02 2.42875E+01 0.00000E+00
 -1      1642 1.47402E+02 2.35500E+01 0.00000E+00
 -1      1643 1.48701E+02 2.87125E+01 0.00000E+00
 -1      1644 1.48701E+02 2.72375E+01 0.00000E+00
 -1      1645 1.47402E+02 2.65000E+01 0.00000E+00
 -1      1646 1.48701E+02 3.16625E+01 0.00000E+00
 -1      1647 1.48701E+02 3.01875E+01 0.00000E+00
 -1      1648 1.47402E+02 2.94500E+01 0.00000E+00
 -1      1649 1.48701E+02 3.45625E+01 0.00000E+00
 -1      1650 1.48701E+02 3.31125E+01 0.00000E+00
 -1      1651 1.47402E+02 3.23750E+01 0.00000E+00
 -1      1652 1.48701E+02 3.75125E+01 0.00000E+00
 -1      1653 1.48701E+02 3.60375E+01 0.00000E+00
 -1      1654 1.47402E+02 3.53000E+01 0.00000E+00
 -1      1655 1.48701E+02 4.04625E+01 0.00000E+00
 -1      1656 1.48701E+02 3.89875E+01 0.00000E+00
 -1      1657 1.47402E+02 3.82500E+01 0.00000E+00
 -1      1658 1.48701E+02 4.34125E+01 0.00000E+00
 -1      1659 1.48701E+02 4.19375E+01 0.00000E+00
 -1      1660 1.47402E+02 4.12000E+01 0.00000E+00
 -1      1661 1.48263E+02 4.60692E+01 0.00000E+00
 -1      1662 1.48263E+02 4.45942E+01 0.00000E+00
 -1      1663 1.46964E+02 4.38568E+01 0.00000E+00
 -1      1664 1.46088E+02 4.62202E+01 0.00000E+00
 -1      1665 8.21072E+01 1.98523E+01 0.00000E+00
 -1      1666 8.21809E+01 2.05667E+01 0.00000E+00
 -1      1667 8.17326E+01 1.83810E+01 0.00000E+00
 -1      1668 8.19412E+01 1.90438E+01 0.00000E+00
 -1      1669 8.10521E+01 1.69163E+01 0.00000E+00
 -1      1670 8.14270E+01 1.75809E+01 0.00000E+00
 -1      1671 8.00127E+01 1.56703E+01 0.00000E+00
 -1      1672 8.05058E+01 1.62226E+01 0.00000E+00
 -1      1673 7.87604E+01 1.46460E+01 0.00000E+00
 -1      1674 7.93671E+01 1.50870E+01 0.00000E+00
 -1      1675 7.72520E+01 1.38885E+01 0.00000E+00
 -1      1676 7.79781E+01 1.42024E+01 0.00000E+00
 -1      1677 7.56434E+01 1.33981E+01 0.00000E+00
 -1      1678 7.63980E+01 1.35392E+01 0.00000E+00
 -1      1679 7.40567E+01 1.34283E+01 0.00000E+00
 -1      1680 7.47676E+01 1.34093E+01 0.00000E+00
 -1      1681 7.24817E+01 1.36733E+01 0.00000E+00
 -1      1682 7.32050E+01 1.35001E+01 0.00000E+00
 -1      1683 7.10161E+01 1.43188E+01 0.00000E+00
 -1      1684 7.16781E+01 1.40018E+01 0.00000E+00
 -1      1685 6.95588E+01 1.51246E+01 0.00000E+00
 -1      1686 7.01671E+01 1.46506E+01 0.00000E+00
 -1      1687 6.85977E+01 1.63765E+01 0.00000E+00
 -1      1688 6.90434E+01 1.58466E+01 0.00000E+00
 -1      1689 6.76773E+01 1.77479E+01 0.00000E+00
 -1      1690 6.80453E+01 1.70547E+01 0.00000E+00
 -1      1691 6.70913E+01 1.93547E+01 0.00000E+00
 -1      1692 6.72947E+01 1.86028E+01 0.00000E+00
 -1      1693 6.69950E+01 2.09632E+01 0.00000E+00
 -1      1694 6.70309E+01 2.02472E+01 0.00000E+00
 -1      1695 6.71257E+01 2.25867E+01 0.00000E+00
 -1      1696 6.70041E+01 2.18384E+01 0.00000E+00
 -1      1697 6.76631E+01 2.41040E+01 0.00000E+00
 -1      1698 6.73971E+01 2.34259E+01 0.00000E+00
 -1      1699 6.84748E+01 2.54285E+01 0.00000E+00
 -1      1700 6.80864E+01 2.48351E+01 0.00000E+00
 -1      1701 6.94626E+01 2.65468E+01 0.00000E+00
 -1      1702 6.89840E+01 2.60615E+01 0.00000E+00
 -1      1703 7.06803E+01 2.74630E+01 0.00000E+00
 -1      1704 7.00900E+01 2.70653E+01 0.00000E+00
 -1      1705 7.20543E+01 2.81197E+01 0.00000E+00
 -1      1706 7.14069E+01 2.78530E+01 0.00000E+00
 -1      1707 7.35597E+01 2.85316E+01 0.00000E+00
 -1      1708 7.28457E+01 2.83968E+01 0.00000E+00
 -1      1709 7.51447E+01 2.85864E+01 0.00000E+00
 -1      1710 7.44157E+01 2.86022E+01 0.00000E+00
 -1      1711 7.67584E+01 2.83383E+01 0.00000E+00
 -1      1712 7.60231E+01 2.85139E+01 0.00000E+00
 -1      1713 7.81819E+01 2.76729E+01 0.00000E+00
 -1      1714 7.75446E+01 2.79756E+01 0.00000E+00
 -1      1715 7.94517E+01 2.68204E+01 0.00000E+00
 -1      1716 7.88873E+01 2.72456E+01 0.00000E+00
 -1      1717 8.06532E+01 2.56936E+01 0.00000E+00
 -1      1718 8.01451E+01 2.62812E+01 0.00000E+00
 -1      1719 8.14249E+01 2.43118E+01 0.00000E+00
 -1      1720 8.10863E+01 2.49304E+01 0.00000E+00
 -1      1721 8.19491E+01 2.28994E+01 0.00000E+00
 -1      1722 8.17439E+01 2.35605E+01 0.00000E+00
 -1      1723 8.21823E+01 2.13979E+01 0.00000E+00
 -1      1724 8.21113E+01 2.20995E+01 0.00000E+00
 -1      1725 8.00658E+01 1.49595E+01 0.00000E+00
 -1      1726 8.12577E+01 1.62365E+01 0.00000E+00
 -1      1727 1.48437E+02 2.56875E+00 0.00000E+00
 -1      1728 1.47138E+02 3.30625E+00 0.00000E+00
 -1      1729 8.25811E+01 1.93388E+01 0.00000E+00
 -1      1730 8.21096E+01 1.77303E+01 0.00000E+00
 -1      1731 8.27485E+01 2.09785E+01 0.00000E+00
 -1      1732 7.86379E+01 1.39326E+01 0.00000E+00
 -1      1733 7.70016E+01 1.31397E+01 0.00000E+00
 -1      1734 7.52717E+01 1.28016E+01 0.00000E+00
 -1      1735 7.35442E+01 1.28846E+01 0.00000E+00
 -1      1736 7.18889E+01 1.32850E+01 0.00000E+00
 -1      1737 7.02364E+01 1.39454E+01 0.00000E+00
 -1      1738 6.88720E+01 1.49993E+01 0.00000E+00
 -1      1739 6.78043E+01 1.63996E+01 0.00000E+00
 -1      1740 6.68692E+01 1.79327E+01 0.00000E+00
 -1      1741 6.64261E+01 1.96802E+01 0.00000E+00
 -1      1742 6.63747E+01 2.14480E+01 0.00000E+00
 -1      1743 6.66553E+01 2.31624E+01 0.00000E+00
 -1      1744 6.73501E+01 2.47327E+01 0.00000E+00
 -1      1745 6.82825E+01 2.60968E+01 0.00000E+00
 -1      1746 6.94191E+01 2.72484E+01 0.00000E+00
 -1      1747 7.07730E+01 2.81569E+01 0.00000E+00
 -1      1748 7.22911E+01 2.88239E+01 0.00000E+00
 -1      1749 7.39384E+01 2.91716E+01 0.00000E+00
 -1      1750 7.56726E+01 2.91697E+01 0.00000E+00
 -1      1751 7.73371E+01 2.87345E+01 0.00000E+00
 -1      1752 7.88288E+01 2.79445E+01 0.00000E+00
 -1      1753 8.02277E+01 2.69780E+01 0.00000E+00
 -1      1754 8.13542E+01 2.56754E+01 0.00000E+00
 -1      1755 8.21064E+01 2.41609E+01 0.00000E+00
 -1      1756 8.25877E+01 2.26097E+01 0.00000E+00
 -1      1757 2.87400E+00 4.77875E+01 0.00000E+00
 -1      1758 3.89700E+00 4.04125E+01 0.00000E+00
 -1      1759 3.89700E+00 4.18875E+01 0.00000E+00
 -1      1760 3.89700E+00 4.33625E+01 0.00000E+00
 -1      1761 3.89700E+00 4.48375E+01 0.00000E+00
 -1      1762 5.19600E+00 4.26250E+01 0.00000E+00
 -1      1763 3.89700E+00 3.45500E+01 0.00000E+00
 -1      1764 3.89700E+00 3.60000E+01 0.00000E+00
 -1      1765 3.89700E+00 3.16000E+01 0.00000E+00
 -1      1766 3.89700E+00 3.30750E+01 0.00000E+00
 -1      1767 5.19600E+00 3.38000E+01 0.00000E+00
 -1      1768 3.89700E+00 2.86500E+01 0.00000E+00
 -1      1769 3.89700E+00 3.01250E+01 0.00000E+00
 -1      1770 5.19600E+00 3.08500E+01 0.00000E+00
 -1      1771 3.89700E+00 2.57000E+01 0.00000E+00
 -1      1772 3.89700E+00 2.71750E+01 0.00000E+00
 -1      1773 5.19600E+00 2.79000E+01 0.00000E+00
 -1      1774 3.89700E+00 2.27500E+01 0.00000E+00
 -1      1775 3.89700E+00 2.42250E+01 0.00000E+00
 -1      1776 5.19600E+00 2.49500E+01 0.00000E+00
 -1      1777 3.89700E+00 1.98000E+01 0.00000E+00
 -1      1778 3.89700E+00 2.12750E+01 0.00000E+00
 -1      1779 5.19600E+00 2.20000E+01 0.00000E+00
 -1      1780 3.89700E+00 1.69000E+01 0.00000E+00
 -1      1781 3.89700E+00 1.83500E+01 0.00000E+00
 -1      1782 5.19600E+00 1.90750E+01 0.00000E+00
 -1      1783 3.89700E+00 1.39500E+01 0.00000E+00
 -1      1784 3.89700E+00 1.54250E+01 0.00000E+00
 -1      1785 5.19600E+00 1.61500E+01 0.00000E+00
 -1      1786 3.89700E+00 1.10000E+01 0.00000E+00
 -1      1787 3.89700E+00 1.24750E+01 0.00000E+00
 -1      1788 5.19600E+00 1.32000E+01 0.00000E+00
 -1      1789 3.89700E+00 8.05000E+00 0.00000E+00
 -1      1790 3.89700E+00 9.52500E+00 0.00000E+00
 -1      1791 5.19600E+00 1.02500E+01 0.00000E+00
 -1      1792 3.89700E+00 5.10000E+00 0.00000E+00
 -1      1793 3.89700E+00 6.57500E+00 0.00000E+00
 -1      1794 5.19600E+00 7.30000E+00 0.00000E+00
 -1      1795 4.20450E+00 3.09687E+00 0.00000E+00
 -1      1796 4.06650E+00 4.19063E+00 0.00000E+00
 -1      1797 5.36550E+00 4.91563E+00 0.00000E+00
 -1      1798 5.70450E+00 3.09687E+00 0.00000E+00
 -1      1799 3.62400E+00 4.64885E+01 0.00000E+00
 -1      1800 8.70450E+00 3.09687E+00 0.00000E+00
 -1      1801 7.20450E+00 3.09687E+00 0.00000E+00
 -1      1802 7.03500E+00 4.00625E+00 0.00000E+00
 -1      1803 4.92300E+00 4.57510E+01 0.00000E+00
 -1      1804 8.40000E+00 4.61030E+01 0.00000E+00
 -1      1805 9.90000E+00 4.61030E+01 0.00000E+00
 -1      1806 1.14000E+01 4.61030E+01 0.00000E+00
 -1      1807 1.29000E+01 4.61030E+01 0.00000E+00
 -1      1808 1.06500E+01 4.48040E+01 0.00000E+00
 -1      1809 1.44000E+01 4.61030E+01 0.00000E+00
 -1      1810 1.59000E+01 4.61030E+01 0.00000E+00
 -1      1811 1.36500E+01 4.48040E+01 0.00000E+00
 -1      1812 1.74000E+01 4.61030E+01 0.00000E+00
 -1      1813 1.89000E+01 4.61030E+01 0.00000E+00
 -1      1814 1.66500E+01 4.48040E+01 0.00000E+00
 -1      1815 2.04000E+01 4.61030E+01 0.00000E+00
 -1      1816 2.19000E+01 4.61030E+01 0.00000E+00
 -1      1817 1.96500E+01 4.48040E+01 0.00000E+00
 -1      1818 2.34000E+01 4.61030E+01 0.00000E+00
 -1      1819 2.49000E+01 4.61030E+01 0.00000E+00
 -1      1820 2.26500E+01 4.48040E+01 0.00000E+00
 -1      1821 2.64000E+01 4.61030E+01 0.00000E+00
 -1      1822 2.79000E+01 4.61030E+01 0.00000E+00
 -1      1823 2.56500E+01 4.48040E+01 0.00000E+00
 -1      1824 2.94000E+01 4.61030E+01 0.00000E+00
 -1      1825 3.09000E+01 4.61030E+01 0.00000E+00
 -1      1826 2.86500E+01 4.48040E+01 0.00000E+00
 -1      1827 3.24000E+01 4.61030E+01 0.00000E+00
 -1      1828 3.39000E+01 4.61030E+01 0.00000E+00
 -1      1829 3.16500E+01 4.48040E+01 0.00000E+00
 -1      1830 3.54000E+01 4.61030E+01 0.00000E+00
 -1      1831 3.69000E+01 4.61030E+01 0.00000E+00
 -1      1832 3.46500E+01 4.48040E+01 0.00000E+00
 -1      1833 3.84000E+01 4.61030E+01 0.00000E+00
 -1      1834 3.99000E+01 4.61030E+01 0.00000E+00
 -1      1835 3.76500E+01 4.48040E+01 0.00000E+00
 -1      1836 4.14000E+01 4.61030E+01 0.00000E+00
 -1      1837 4.29000E+01 4.61030E+01 0.00000E+00
 -1      1838 4.06500E+01 4.48040E+01 0.00000E+00
 -1      1839 4.44000E+01 4.61030E+01 0.00000E+00
 -1      1840 4.59000E+01 4.61030E+01 0.00000E+00
 -1      1841 4.36500E+01 4.48040E+01 0.00000E+00
 -1      1842 4.74000E+01 4.61030E+01 0.00000E+00
 -1      1843 4.89000E+01 4.61030E+01 0.00000E+00
 -1      1844 4.66500E+01 4.48040E+01 0.00000E+00
 -1      1845 5.04000E+01 4.61030E+01 0.00000E+00
 -1      1846 5.19000E+01 4.61030E+01 0.00000E+00
 -1      1847 4.96500E+01 4.48040E+01 0.00000E+00
 -1      1848 5.34000E+01 4.61030E+01 0.00000E+00
 -1      1849 5.49000E+01 4.61030E+01 0.00000E+00
 -1      1850 5.26500E+01 4.48040E+01 0.00000E+00
 -1      1851 5.64000E+01 4.61030E+01 0.00000E+00
 -1      1852 5.79000E+01 4.61030E+01 0.00000E+00
 -1      1853 5.56500E+01 4.48040E+01 0.00000E+00
 -1      1854 5.94000E+01 4.61030E+01 0.00000E+00
 -1      1855 6.09000E+01 4.61030E+01 0.00000E+00
 -1      1856 5.86500E+01 4.48040E+01 0.00000E+00
 -1      1857 6.24000E+01 4.61030E+01 0.00000E+00
 -1      1858 6.39000E+01 4.61030E+01 0.00000E+00
 -1      1859 6.16500E+01 4.48040E+01 0.00000E+00
 -1      1860 6.54000E+01 4.61030E+01 0.00000E+00
 -1      1861 6.69000E+01 4.61030E+01 0.00000E+00
 -1      1862 6.46500E+01 4.48040E+01 0.00000E+00
 -1      1863 6.84000E+01 4.61030E+01 0.00000E+00
 -1      1864 6.99000E+01 4.61030E+01 0.00000E+00
 -1      1865 6.76500E+01 4.48040E+01 0.00000E+00
 -1      1866 7.14000E+01 4.61030E+01 0.00000E+00
 -1      1867 7.29000E+01 4.61030E+01 0.00000E+00
 -1      1868 7.06500E+01 4.48040E+01 0.00000E+00
 -1      1869 7.44000E+01 4.61030E+01 0.00000E+00
 -1      1870 7.59000E+01 4.61030E+01 0.00000E+00
 -1      1871 7.36500E+01 4.48040E+01 0.00000E+00
 -1      1872 7.74000E+01 4.61030E+01 0.00000E+00
 -1      1873 7.89000E+01 4.61030E+01 0.00000E+00
 -1      1874 7.66500E+01 4.48040E+01 0.00000E+00
 -1      1875 8.04000E+01 4.61030E+01 0.00000E+00
 -1      1876 8.19000E+01 4.61030E+01 0.00000E+00
 -1      1877 7.96500E+01 4.48040E+01 0.00000E+00
 -1      1878 8.34000E+01 4.61030E+01 0.00000E+00
 -1      1879 8.49000E+01 4.61030E+01 0.00000E+00
 -1      1880 8.26500E+01 4.48040E+01 0.00000E+00
 -1      1881 8.64000E+01 4.61030E+01 0.00000E+00
 -1      1882 8.79000E+01 4.61030E+01 0.00000E+00
 -1      1883 8.56500E+01 4.48040E+01 0.00000E+00
 -1      1884 8.94000E+01 4.61030E+01 0.00000E+00
 -1      1885 9.09000E+01 4.61030E+01 0.00000E+00
 -1      1886 8.86500E+01 4.48040E+01 0.00000E+00
 -1      1887 9.24000E+01 4.61030E+01 0.00000E+00
 -1      1888 9.39000E+01 4.61030E+01 0.00000E+00
 -1      1889 9.16500E+01 4.48040E+01 0.00000E+00
 -1      1890 9.54000E+01 4.61030E+01 0.00000E+00
 -1      1891 9.69000E+01 4.61030E+01 0.00000E+00
 -1      1892 9.46500E+01 4.48040E+01 0.00000E+00
 -1      1893 9.84000E+01 4.61030E+01 0.00000E+00
 -1      1894 9.99000E+01 4.61030E+01 0.00000E+00
 -1      1895 9.76500E+01 4.48040E+01 0.00000E+00
 -1      1896 1.01400E+02 4.61030E+01 0.00000E+00
 -1      1897 1.02900E+02 4.61030E+01 0.00000E+00
 -1      1898 1.00650E+02 4.48040E+01 0.00000E+00
 -1      1899 1.04400E+02 4.61030E+01 0.00000E+00
 -1      1900 1.05900E+02 4.61030E+01 0.00000E+00
 -1      1901 1.03650E+02 4.48040E+01 0.00000E+00
 -1      1902 1.07400E+02 4.61030E+01 0.00000E+00
 -1      1903 1.08900E+02 4.61030E+01 0.00000E+00
 -1      1904 1.06650E+02 4.48040E+01 0.00000E+00
 -1      1905 1.10400E+02 4.61030E+01 0.00000E+00
 -1      1906 1.11900E+02 4.61030E+01 0.00000E+00
 -1      1907 1.09650E+02 4.48040E+01 0.00000E+00
 -1      1908 1.13400E+02 4.61030E+01 0.00000E+00
 -1      1909 1.14900E+02 4.61030E+01 0.00000E+00
 -1      1910 1.12650E+02 4.48040E+01 0.00000E+00
 -1      1911 1.16400E+02 4.61030E+01 0.00000E+00
 -1      1912 1.17900E+02 4.61030E+01 0.00000E+00
 -1      1913 1.15650E+02 4.48040E+01 0.00000E+00
 -1      1914 1.19400E+02 4.61030E+01 0.00000E+00
 -1      1915 1.20900E+02 4.61030E+01 0.00000E+00
 -1      1916 1.18650E+02 4.48040E+01 0.00000E+00
 -1      1917 1.22400E+02 4.61030E+01 0.00000E+00
 -1      1918 1.23900E+02 4.61030E+01 0.00000E+00
 -1      1919 1.21650E+02 4.48040E+01 0.00000E+00
 -1      1920 1.25400E+02 4.61030E+01 0.00000E+00
 -1      1921 1.26900E+02 4.61030E+01 0.00000E+00
 -1      1922 1.24650E+02 4.48040E+01 0.00000E+00
 -1      1923 1.28400E+02 4.61030E+01 0.00000E+00
 -1      1924 1.29900E+02 4.61030E+01 0.00000E+00
 -1      1925 1.27650E+02 4.48040E+01 0.00000E+00
 -1      1926 1.31400E+02 4.61030E+01 0.00000E+00
 -1      1927 1.32900E+02 4.61030E+01 0.00000E+00
 -1      1928 1.30650E+02 4.48040E+01 0.00000E+00
 -1      1929 1.34400E+02 4.61030E+01 0.00000E+00
 -1      1930 1.35900E+02 4.61030E+01 0.00000E+00
 -1      1931 1.33650E+02 4.48040E+01 0.00000E+00
 -1      1932 1.37400E+02 4.61030E+01 0.00000E+00
 -1      1933 1.38900E+02 4.61030E+01 0.00000E+00
 -1      1934 1.36650E+02 4.48040E+01 0.00000E+00
 -1      1935 1.40400E+02 4.61030E+01 0.00000E+00
 -1      1936 1.41900E+02 4.61030E+01 0.00000E+00
 -1      1937 1.39650E+02 4.48040E+01 0.00000E+00
 -1      1938 1.43244E+02 4.61616E+01 0.00000E+00
 -1      1939 1.44744E+02 4.61616E+01 0.00000E+00
 -1      1940 1.45182E+02 4.49799E+01 0.00000E+00
 -1      1941 1.42494E+02 4.48626E+01 0.00000E+00
 -1      1942 1.17045E+01 3.09687E+00 0.00000E+00
 -1      1943 1.02045E+01 3.09687E+00 0.00000E+00
 -1      1944 1.00350E+01 4.00625E+00 0.00000E+00
 -1      1945 1.47045E+01 3.09687E+00 0.00000E+00
 -1      1946 1.32045E+01 3.09687E+00 0.00000E+00
 -1      1947 1.30350E+01 4.00625E+00 0.00000E+00
 -1      1948 1.77045E+01 3.09687E+00 0.00000E+00
 -1      1949 1.62045E+01 3.09687E+00 0.00000E+00
 -1      1950 1.60350E+01 4.00625E+00 0.00000E+00
 -1      1951 2.07045E+01 3.09687E+00 0.00000E+00
 -1      1952 1.92045E+01 3.09687E+00 0.00000E+00
 -1      1953 1.90350E+01 4.00625E+00 0.00000E+00
 -1      1954 2.37045E+01 3.09687E+00 0.00000E+00
 -1      1955 2.22045E+01 3.09687E+00 0.00000E+00
 -1      1956 2.20350E+01 4.00625E+00 0.00000E+00
 -1      1957 2.67045E+01 3.09687E+00 0.00000E+00
 -1      1958 2.52045E+01 3.09687E+00 0.00000E+00
 -1      1959 2.50350E+01 4.00625E+00 0.00000E+00
 -1      1960 2.97045E+01 3.09687E+00 0.00000E+00
 -1      1961 2.82045E+01 3.09687E+00 0.00000E+00
 -1      1962 2.80350E+01 4.00625E+00 0.00000E+00
 -1      1963 3.27045E+01 3.09687E+00 0.00000E+00
 -1      1964 3.12045E+01 3.09687E+00 0.00000E+00
 -1      1965 3.10350E+01 4.00625E+00 0.00000E+00
 -1      1966 3.57045E+01 3.09687E+00 0.00000E+00
 -1      1967 3.42045E+01 3.09687E+00 0.00000E+00
 -1      1968 3.40350E+01 4.00625E+00 0.00000E+00
 -1      1969 3.87045E+01 3.09687E+00 0.00000E+00
 -1      1970 3.72045E+01 3.09687E+00 0.00000E+00
 -1      1971 3.70350E+01 4.00625E+00 0.00000E+00
 -1      1972 4.17045E+01 3.09687E+00 0.00000E+00
 -1      1973 4.02045E+01 3.09687E+00 0.00000E+00
 -1      1974 4.00350E+01 4.00625E+00 0.00000E+00
 -1      1975 4.47045E+01 3.09687E+00 0.00000E+00
 -1      1976 4.32045E+01 3.09687E+00 0.00000E+00
 -1      1977 4.30350E+01 4.00625E+00 0.00000E+00
 -1      1978 4.77045E+01 3.09687E+00 0.00000E+00
 -1      1979 4.62045E+01 3.09687E+00 0.00000E+00
 -1      1980 4.60350E+01 4.00625E+00 0.00000E+00
 -1      1981 5.07045E+01 3.09687E+00 0.00000E+00
 -1      1982 4.92045E+01 3.09687E+00 0.00000E+00
 -1      1983 4.90350E+01 4.00625E+00 0.00000E+00
 -1      1984 5.37045E+01 3.09687E+00 0.00000E+00
 -1      1985 5.22045E+01 3.09687E+00 0.00000E+00
 -1      1986 5.20350E+01 4.00625E+00 0.00000E+00
 -1      1987 5.67045E+01 3.09687E+00 0.00000E+00
 -1      1988 5.52045E+01 3.09687E+00 0.00000E+00
 -1      1989 5.50350E+01 4.00625E+00 0.00000E+00
 -1      1990 5.97045E+01 3.09687E+00 0.00000E+00
 -1      1991 5.82045E+01 3.09687E+00 0.00000E+00
 -1      1992 5.80350E+01 4.00625E+00 0.00000E+00
 -1      1993 6.27045E+01 3.09687E+00 0.00000E+00
 -1      1994 6.12045E+01 3.09687E+00 0.00000E+00
 -1      1995 6.10350E+01 4.00625E+00 0.00000E+00
 -1      1996 6.57045E+01 3.09687E+00 0.00000E+00
 -1      1997 6.42045E+01 3.09687E+00 0.00000E+00
 -1      1998 6.40350E+01 4.00625E+00 0.00000E+00
 -1      1999 6.87045E+01 3.09687E+00 0.00000E+00
 -1      2000 6.72045E+01 3.09687E+00 0.00000E+00
 -1      2001 6.70350E+01 4.00625E+00 0.00000E+00
 -1      2002 7.17045E+01 3.09687E+00 0.00000E+00
 -1      2003 7.02045E+01 3.09687E+00 0.00000E+00
 -1      2004 7.00350E+01 4.00625E+00 0.00000E+00
 -1      2005 7.47045E+01 3.09687E+00 0.00000E+00
 -1      2006 7.32045E+01 3.09687E+00 0.00000E+00
 -1      2007 7.30350E+01 4.00625E+00 0.00000E+00
 -1      2008 7.77045E+01 3.09687E+00 0.00000E+00
 -1      2009 7.62045E+01 3.09687E+00 0.00000E+00
 -1      2010 7.60350E+01 4.00625E+00 0.00000E+00
 -1      2011 8.07045E+01 3.09687E+00 0.00000E+00
 -1      2012 7.92045E+01 3.09687E+00 0.00000E+00
 -1      2013 7.90350E+01 4.00625E+00 0.00000E+00
 -1      2014 8.37045E+01 3.09687E+00 0.00000E+00
 -1      2015 8.22045E+01 3.09687E+00 0.00000E+00
 -1      2016 8.20350E+01 4.00625E+00 0.00000E+00
 -1      2017 8.67045E+01 3.09687E+00 0.00000E+00
 -1      2018 8.52045E+01 3.09687E+00 0.00000E+00
 -1      2019 8.50350E+01 4.00625E+00 0.00000E+00
 -1      2020 8.97045E+01 3.09687E+00 0.00000E+00
 -1      2021 8.82045E+01 3.09687E+00 0.00000E+00
 -1      2022 8.80350E+01 4.00625E+00 0.00000E+00
 -1      2023 9.27045E+01 3.09687E+00 0.00000E+00
 -1      2024 9.12045E+01 3.09687E+00 0.00000E+00
 -1      2025 9.10350E+01 4.00625E+00 0.00000E+00
 -1      2026 9.57045E+01 3.09687E+00 0.00000E+00
 -1      2027 9.42045E+01 3.09687E+00 0.00000E+00
 -1      2028 9.40350E+01 4.00625E+00 0.00000E+00
 -1      2029 9.87045E+01 3.09687E+00 0.00000E+00
 -1      2030 9.72045E+01 3.09687E+00 0.00000E+00
 -1      2031 9.70350E+01 4.00625E+00 0.00000E+00
 -1      2032 1.01704E+02 3.09687E+00 0.00000E+00
 -1      2033 1.00204E+02 3.09687E+00 0.00000E+00
 -1      2034 1.00035E+02 4.00625E+00 0.00000E+00
 -1      2035 1.04704E+02 3.09687E+00 0.00000E+00
 -1      2036 1.03204E+02 3.09687E+00 0.00000E+00
 -1      2037 1.03035E+02 4.00625E+00 0.00000E+00
 -1      2038 1.07704E+02 3.09687E+00 0.00000E+00
 -1      2039 1.06204E+02 3.09687E+00 0.00000E+00
 -1      2040 1.06035E+02 4.00625E+00 0.00000E+00
 -1      2041 1.10704E+02 3.09687E+00 0.00000E+00
 -1      2042 1.09204E+02 3.09687E+00 0.00000E+00
 -1      2043 1.09035E+02 4.00625E+00 0.00000E+00
 -1      2044 1.13704E+02 3.09687E+00 0.00000E+00
 -1      2045 1.12204E+02 3.09687E+00 0.00000E+00
 -1      2046 1.12035E+02 4.00625E+00 0.00000E+00
 -1      2047 1.16704E+02 3.09687E+00 0.00000E+00
 -1      2048 1.15204E+02 3.09687E+00 0.00000E+00
 -1      2049 1.15035E+02 4.00625E+00 0.00000E+00
 -1      2050 1.19704E+02 3.09687E+00 0.00000E+00
 -1      2051 1.18204E+02 3.09687E+00 0.00000E+00
 -1      2052 1.18035E+02 4.00625E+00 0.00000E+00
 -1      2053 1.22704E+02 3.09687E+00 0.00000E+00
 -1      2054 1.21204E+02 3.09687E+00 0.00000E+00
 -1      2055 1.21035E+02 4.00625E+00 0.00000E+00
 -1      2056 1.25704E+02 3.09687E+00 0.00000E+00
 -1      2057 1.24204E+02 3.09687E+00 0.00000E+00
 -1      2058 1.24035E+02 4.00625E+00 0.00000E+00
 -1      2059 1.28704E+02 3.09687E+00 0.00000E+00
 -1      2060 1.27204E+02 3.09687E+00 0.00000E+00
 -1      2061 1.27035E+02 4.00625E+00 0.00000E+00
 -1      2062 1.31704E+02 3.09687E+00 0.00000E+00
 -1      2063 1.30204E+02 3.09687E+00 0.00000E+00
 -1      2064 1.30035E+02 4.00625E+00 0.00000E+00
 -1      2065 1.34704E+02 3.09687E+00 0.00000E+00
 -1      2066 1.33204E+02 3.09687E+00 0.00000E+00
 -1      2067 1.33035E+02 4.00625E+00 0.00000E+00
 -1      2068 1.37704E+02 3.09687E+00 0.00000E+00
 -1      2069 1.36204E+02 3.09687E+00 0.00000E+00
 -1      2070 1.36035E+02 4.00625E+00 0.00000E+00
 -1      2071 1.40704E+02 3.09687E+00 0.00000E+00
 -1      2072 1.39204E+02 3.09687E+00 0.00000E+00
 -1      2073 1.39035E+02 4.00625E+00 0.00000E+00
 -1      2074 1.43704E+02 3.09687E+00 0.00000E+00
 -1      2075 1.42204E+02 3.09687E+00 0.00000E+00
 -1      2076 1.42035E+02 4.00625E+00 0.00000E+00
 -1      2077 1.46171E+02 3.20156E+00 0.00000E+00
 -1      2078 1.44671E+02 3.20156E+00 0.00000E+00
 -1      2079 1.44502E+02 4.11094E+00 0.00000E+00
 -1      2080 1.46435E+02 4.32031E+00 0.00000E+00
 -1      2081 1.46103E+02 1.25375E+01 0.00000E+00
 -1      2082 1.46103E+02 1.10625E+01 0.00000E+00
 -1      2083 1.46103E+02 9.58750E+00 0.00000E+00
 -1      2084 1.46103E+02 8.11250E+00 0.00000E+00
 -1      2085 1.44804E+02 1.03250E+01 0.00000E+00
 -1      2086 1.46269E+02 6.95391E+00 0.00000E+00
 -1      2087 1.46269E+02 5.47891E+00 0.00000E+00
 -1      2088 1.45302E+02 5.37422E+00 0.00000E+00
 -1      2089 1.44970E+02 7.69141E+00 0.00000E+00
 -1      2090 1.46103E+02 1.54375E+01 0.00000E+00
 -1      2091 1.46103E+02 1.39875E+01 0.00000E+00
 -1      2092 1.44804E+02 1.32500E+01 0.00000E+00
 -1      2093 1.46103E+02 1.83875E+01 0.00000E+00
 -1      2094 1.46103E+02 1.69125E+01 0.00000E+00
 -1      2095 1.44804E+02 1.61750E+01 0.00000E+00
 -1      2096 1.46103E+02 2.13375E+01 0.00000E+00
 -1      2097 1.46103E+02 1.98625E+01 0.00000E+00
 -1      2098 1.44804E+02 1.91250E+01 0.00000E+00
 -1      2099 1.46103E+02 2.42875E+01 0.00000E+00
 -1      2100 1.46103E+02 2.28125E+01 0.00000E+00
 -1      2101 1.44804E+02 2.20750E+01 0.00000E+00
 -1      2102 1.46103E+02 2.72375E+01 0.00000E+00
 -1      2103 1.46103E+02 2.57625E+01 0.00000E+00
 -1      2104 1.44804E+02 2.50250E+01 0.00000E+00
 -1      2105 1.46103E+02 3.01875E+01 0.00000E+00
 -1      2106 1.46103E+02 2.87125E+01 0.00000E+00
 -1      2107 1.44804E+02 2.79750E+01 0.00000E+00
 -1      2108 1.46103E+02 3.30875E+01 0.00000E+00
 -1      2109 1.46103E+02 3.16375E+01 0.00000E+00
 -1      2110 1.44804E+02 3.09000E+01 0.00000E+00
 -1      2111 1.46103E+02 3.60375E+01 0.00000E+00
 -1      2112 1.46103E+02 3.45625E+01 0.00000E+00
 -1      2113 1.44804E+02 3.38250E+01 0.00000E+00
 -1      2114 1.46103E+02 3.89875E+01 0.00000E+00
 -1      2115 1.46103E+02 3.75125E+01 0.00000E+00
 -1      2116 1.44804E+02 3.67750E+01 0.00000E+00
 -1      2117 1.46103E+02 4.19375E+01 0.00000E+00
 -1      2118 1.46103E+02 4.04625E+01 0.00000E+00
 -1      2119 1.44804E+02 3.97250E+01 0.00000E+00
 -1      2120 8.26014E+01 1.70841E+01 0.00000E+00
 -1      2121 8.29069E+01 1.78842E+01 0.00000E+00
 -1      2122 8.34377E+01 2.05617E+01 0.00000E+00
 -1      2123 8.34392E+01 2.13929E+01 0.00000E+00
 -1      2124 8.32150E+01 1.87875E+01 0.00000E+00
 -1      2125 8.33810E+01 1.95959E+01 0.00000E+00
 -1      2126 8.14938E+01 1.54886E+01 0.00000E+00
 -1      2127 8.20400E+01 1.61824E+01 0.00000E+00
 -1      2128 8.01775E+01 1.41869E+01 0.00000E+00
 -1      2129 8.08231E+01 1.47702E+01 0.00000E+00
 -1      2130 3.89700E+00 3.74688E+01 0.00000E+00
 -1      2131 3.89700E+00 3.89437E+01 0.00000E+00
 -1      2132 5.19600E+00 3.96813E+01 0.00000E+00
 -1      2133 5.19600E+00 3.67438E+01 0.00000E+00
 -1      2134 7.68675E+01 1.22489E+01 0.00000E+00
 -1      2135 7.77215E+01 1.25982E+01 0.00000E+00
 -1      2136 7.48250E+01 1.21173E+01 0.00000E+00
 -1      2137 7.57008E+01 1.21061E+01 0.00000E+00
 -1      2138 7.31215E+01 1.22609E+01 0.00000E+00
 -1      2139 7.39733E+01 1.21891E+01 0.00000E+00
 -1      2140 7.44024E+01 1.14936E+01 0.00000E+00
 -1      2141 7.11784E+01 1.26942E+01 0.00000E+00
 -1      2142 7.19820E+01 1.23657E+01 0.00000E+00
 -1      2143 6.94804E+01 1.33580E+01 0.00000E+00
 -1      2144 7.03294E+01 1.30261E+01 0.00000E+00
 -1      2145 7.04225E+01 1.21068E+01 0.00000E+00
 -1      2146 6.80527E+01 1.49595E+01 0.00000E+00
 -1      2147 6.85681E+01 1.42374E+01 0.00000E+00
 -1      2148 6.69479E+01 1.63160E+01 0.00000E+00
 -1      2149 6.75003E+01 1.56377E+01 0.00000E+00
 -1      2150 6.71964E+01 1.48759E+01 0.00000E+00
 -1      2151 6.58951E+01 1.80098E+01 0.00000E+00
 -1      2152 6.62778E+01 1.71549E+01 0.00000E+00
 -1      2153 6.57493E+01 2.00827E+01 0.00000E+00
 -1      2154 6.58097E+01 1.91901E+01 0.00000E+00
 -1      2155 6.56474E+01 2.18932E+01 0.00000E+00
 -1      2156 6.56384E+01 2.10179E+01 0.00000E+00
 -1      2157 6.61346E+01 2.37944E+01 0.00000E+00
 -1      2158 6.58631E+01 2.29552E+01 0.00000E+00
 -1      2159 6.70009E+01 2.54230E+01 0.00000E+00
 -1      2160 6.65776E+01 2.46919E+01 0.00000E+00
 -1      2161 6.80321E+01 2.68195E+01 0.00000E+00
 -1      2162 6.75229E+01 2.61864E+01 0.00000E+00
 -1      2163 6.92932E+01 2.80395E+01 0.00000E+00
 -1      2164 6.86658E+01 2.75209E+01 0.00000E+00
 -1      2165 7.08101E+01 2.89598E+01 0.00000E+00
 -1      2166 7.00834E+01 2.85698E+01 0.00000E+00
 -1      2167 7.24587E+01 2.96137E+01 0.00000E+00
 -1      2168 7.16673E+01 2.93366E+01 0.00000E+00
 -1      2169 7.42993E+01 3.00198E+01 0.00000E+00
 -1      2170 7.34434E+01 2.99493E+01 0.00000E+00
 -1      2171 7.61754E+01 2.99046E+01 0.00000E+00
 -1      2172 7.52971E+01 2.99771E+01 0.00000E+00
 -1      2173 7.80544E+01 2.92558E+01 0.00000E+00
 -1      2174 7.72682E+01 2.96185E+01 0.00000E+00
 -1      2175 7.95173E+01 2.82852E+01 0.00000E+00
 -1      2176 7.88119E+01 2.87125E+01 0.00000E+00
 -1      2177 8.10237E+01 2.72861E+01 0.00000E+00
 -1      2178 8.03303E+01 2.78253E+01 0.00000E+00
 -1      2179 8.21344E+01 2.56136E+01 0.00000E+00
 -1      2180 8.17013E+01 2.63769E+01 0.00000E+00
 -1      2181 8.29010E+01 2.40549E+01 0.00000E+00
 -1      2182 8.25819E+01 2.48062E+01 0.00000E+00
 -1      2183 8.34271E+01 2.23635E+01 0.00000E+00
 -1      2184 8.32649E+01 2.31634E+01 0.00000E+00
 -1      2185 7.85664E+01 1.31471E+01 0.00000E+00
 -1      2186 7.93487E+01 1.35906E+01 0.00000E+00
 -1      2187 8.16054E+01 1.47161E+01 0.00000E+00
 -1      2188 6.42300E+00 4.57510E+01 0.00000E+00
 -1      2189 8.01060E+01 1.34014E+01 0.00000E+00
 -1      2190 7.84323E+01 1.22562E+01 0.00000E+00
 -1      2191 7.17300E+00 4.44520E+01 0.00000E+00
 -1      2192 8.37068E+01 1.81412E+01 0.00000E+00
 -1      2193 8.40717E+01 2.00103E+01 0.00000E+00
 -1      2194 1.45665E+02 4.31193E+01 0.00000E+00
 -1      2195 8.28374E+01 1.63362E+01 0.00000E+00
 -1      2196 8.41164E+01 2.19467E+01 0.00000E+00
 -1      2197 8.37405E+01 2.38088E+01 0.00000E+00
 -1      2198 8.29291E+01 2.55077E+01 0.00000E+00
 -1      2199 8.18039E+01 2.72243E+01 0.00000E+00
 -1      2200 8.03133E+01 2.85933E+01 0.00000E+00
 -1      2201 7.87429E+01 2.95964E+01 0.00000E+00
 -1      2202 7.68927E+01 3.04259E+01 0.00000E+00
 -1      2203 7.48021E+01 3.07547E+01 0.00000E+00
 -1      2204 7.28196E+01 3.04619E+01 0.00000E+00
 -1      2205 7.09777E+01 2.97496E+01 0.00000E+00
 -1      2206 6.93302E+01 2.88424E+01 0.00000E+00
 -1      2207 6.79062E+01 2.76106E+01 0.00000E+00
 -1      2208 6.67505E+01 2.61457E+01 0.00000E+00
 -1      2209 6.57853E+01 2.44847E+01 0.00000E+00
 -1      2210 6.51267E+01 2.25251E+01 0.00000E+00
 -1      2211 6.50220E+01 2.05279E+01 0.00000E+00
 -1      2212 6.59738E+01 1.63930E+01 0.00000E+00
 -1      2213 6.86611E+01 1.33182E+01 0.00000E+00
 -1      2214 6.87542E+01 1.23989E+01 0.00000E+00
 -1      2215 6.78419E+01 1.32783E+01 0.00000E+00
 -1      2216 7.24111E+01 1.16702E+01 0.00000E+00
 -1      2217 7.64208E+01 1.15646E+01 0.00000E+00
 -1      2218 6.52183E+01 1.84123E+01 0.00000E+00
 -1      2219 1.07850E+01 5.30525E+00 0.00000E+00
 -1      2220 9.28500E+00 5.30525E+00 0.00000E+00
 -1      2221 6.49500E+00 3.01125E+01 0.00000E+00
 -1      2222 6.49500E+00 3.15875E+01 0.00000E+00
 -1      2223 6.49500E+00 3.30625E+01 0.00000E+00
 -1      2224 6.49500E+00 3.45375E+01 0.00000E+00
 -1      2225 7.79400E+00 3.23250E+01 0.00000E+00
 -1      2226 6.49500E+00 2.42125E+01 0.00000E+00
 -1      2227 6.49500E+00 2.56875E+01 0.00000E+00
 -1      2228 6.49500E+00 2.12625E+01 0.00000E+00
 -1      2229 6.49500E+00 2.27375E+01 0.00000E+00
 -1      2230 7.79400E+00 2.34750E+01 0.00000E+00
 -1      2231 6.49500E+00 1.83625E+01 0.00000E+00
 -1      2232 6.49500E+00 1.98125E+01 0.00000E+00
 -1      2233 7.79400E+00 2.05500E+01 0.00000E+00
 -1      2234 6.49500E+00 1.54125E+01 0.00000E+00
 -1      2235 6.49500E+00 1.68875E+01 0.00000E+00
 -1      2236 7.79400E+00 1.76250E+01 0.00000E+00
 -1      2237 6.49500E+00 1.24625E+01 0.00000E+00
 -1      2238 6.49500E+00 1.39375E+01 0.00000E+00
 -1      2239 7.79400E+00 1.46750E+01 0.00000E+00
 -1      2240 6.49500E+00 9.51250E+00 0.00000E+00
 -1      2241 6.49500E+00 1.09875E+01 0.00000E+00
 -1      2242 7.79400E+00 1.17250E+01 0.00000E+00
 -1      2243 1.37850E+01 5.30525E+00 0.00000E+00
 -1      2244 1.22850E+01 5.30525E+00 0.00000E+00
 -1      2245 1.15350E+01 6.60425E+00 0.00000E+00
 -1      2246 9.90000E+00 4.35050E+01 0.00000E+00
 -1      2247 1.14000E+01 4.35050E+01 0.00000E+00
 -1      2248 8.01925E+01 1.24071E+01 0.00000E+00
 -1      2249 8.10212E+01 1.30034E+01 0.00000E+00
 -1      2250 1.29000E+01 4.35050E+01 0.00000E+00
 -1      2251 1.44000E+01 4.35050E+01 0.00000E+00
 -1      2252 1.21500E+01 4.22060E+01 0.00000E+00
 -1      2253 1.59000E+01 4.35050E+01 0.00000E+00
 -1      2254 1.74000E+01 4.35050E+01 0.00000E+00
 -1      2255 1.51500E+01 4.22060E+01 0.00000E+00
 -1      2256 1.89000E+01 4.35050E+01 0.00000E+00
 -1      2257 2.04000E+01 4.35050E+01 0.00000E+00
 -1      2258 1.81500E+01 4.22060E+01 0.00000E+00
 -1      2259 2.19000E+01 4.35050E+01 0.00000E+00
 -1      2260 2.34000E+01 4.35050E+01 0.00000E+00
 -1      2261 2.11500E+01 4.22060E+01 0.00000E+00
 -1      2262 2.49000E+01 4.35050E+01 0.00000E+00
 -1      2263 2.64000E+01 4.35050E+01 0.00000E+00
 -1      2264 2.41500E+01 4.22060E+01 0.00000E+00
 -1      2265 2.79000E+01 4.35050E+01 0.00000E+00
 -1      2266 2.94000E+01 4.35050E+01 0.00000E+00
 -1      2267 2.71500E+01 4.22060E+01 0.00000E+00
 -1      2268 3.09000E+01 4.35050E+01 0.00000E+00
 -1      2269 3.24000E+01 4.35050E+01 0.00000E+00
 -1      2270 3.01500E+01 4.22060E+01 0.00000E+00
 -1      2271 3.39000E+01 4.35050E+01 0.00000E+00
 -1      2272 3.54000E+01 4.35050E+01 0.00000E+00
 -1      2273 3.31500E+01 4.22060E+01 0.00000E+00
 -1      2274 3.69000E+01 4.35050E+01 0.00000E+00
 -1      2275 3.84000E+01 4.35050E+01 0.00000E+00
 -1      2276 3.61500E+01 4.22060E+01 0.00000E+00
 -1      2277 3.99000E+01 4.35050E+01 0.00000E+00
 -1      2278 4.14000E+01 4.35050E+01 0.00000E+00
 -1      2279 3.91500E+01 4.22060E+01 0.00000E+00
 -1      2280 4.29000E+01 4.35050E+01 0.00000E+00
 -1      2281 4.44000E+01 4.35050E+01 0.00000E+00
 -1      2282 4.21500E+01 4.22060E+01 0.00000E+00
 -1      2283 4.59000E+01 4.35050E+01 0.00000E+00
 -1      2284 4.74000E+01 4.35050E+01 0.00000E+00
 -1      2285 4.51500E+01 4.22060E+01 0.00000E+00
 -1      2286 4.89000E+01 4.35050E+01 0.00000E+00
 -1      2287 5.04000E+01 4.35050E+01 0.00000E+00
 -1      2288 4.81500E+01 4.22060E+01 0.00000E+00
 -1      2289 5.19000E+01 4.35050E+01 0.00000E+00
 -1      2290 5.34000E+01 4.35050E+01 0.00000E+00
 -1      2291 5.11500E+01 4.22060E+01 0.00000E+00
 -1      2292 5.49000E+01 4.35050E+01 0.00000E+00
 -1      2293 5.64000E+01 4.35050E+01 0.00000E+00
 -1      2294 5.41500E+01 4.22060E+01 0.00000E+00
 -1      2295 5.79000E+01 4.35050E+01 0.00000E+00
 -1      2296 5.94000E+01 4.35050E+01 0.00000E+00
 -1      2297 5.71500E+01 4.22060E+01 0.00000E+00
 -1      2298 6.09000E+01 4.35050E+01 0.00000E+00
 -1      2299 6.24000E+01 4.35050E+01 0.00000E+00
 -1      2300 6.01500E+01 4.22060E+01 0.00000E+00
 -1      2301 6.39000E+01 4.35050E+01 0.00000E+00
 -1      2302 6.54000E+01 4.35050E+01 0.00000E+00
 -1      2303 6.31500E+01 4.22060E+01 0.00000E+00
 -1      2304 6.69000E+01 4.35050E+01 0.00000E+00
 -1      2305 6.84000E+01 4.35050E+01 0.00000E+00
 -1      2306 6.61500E+01 4.22060E+01 0.00000E+00
 -1      2307 6.99000E+01 4.35050E+01 0.00000E+00
 -1      2308 7.14000E+01 4.35050E+01 0.00000E+00
 -1      2309 6.91500E+01 4.22060E+01 0.00000E+00
 -1      2310 7.29000E+01 4.35050E+01 0.00000E+00
 -1      2311 7.44000E+01 4.35050E+01 0.00000E+00
 -1      2312 7.21500E+01 4.22060E+01 0.00000E+00
 -1      2313 7.59000E+01 4.35050E+01 0.00000E+00
 -1      2314 7.74000E+01 4.35050E+01 0.00000E+00
 -1      2315 7.51500E+01 4.22060E+01 0.00000E+00
 -1      2316 7.89000E+01 4.35050E+01 0.00000E+00
 -1      2317 8.04000E+01 4.35050E+01 0.00000E+00
 -1      2318 7.81500E+01 4.22060E+01 0.00000E+00
 -1      2319 8.19000E+01 4.35050E+01 0.00000E+00
 -1      2320 8.34000E+01 4.35050E+01 0.00000E+00
 -1      2321 8.11500E+01 4.22060E+01 0.00000E+00
 -1      2322 8.49000E+01 4.35050E+01 0.00000E+00
 -1      2323 8.64000E+01 4.35050E+01 0.00000E+00
 -1      2324 8.41500E+01 4.22060E+01 0.00000E+00
 -1      2325 8.79000E+01 4.35050E+01 0.00000E+00
 -1      2326 8.94000E+01 4.35050E+01 0.00000E+00
 -1      2327 8.71500E+01 4.22060E+01 0.00000E+00
 -1      2328 9.09000E+01 4.35050E+01 0.00000E+00
 -1      2329 9.24000E+01 4.35050E+01 0.00000E+00
 -1      2330 9.01500E+01 4.22060E+01 0.00000E+00
 -1      2331 9.39000E+01 4.35050E+01 0.00000E+00
 -1      2332 9.54000E+01 4.35050E+01 0.00000E+00
 -1      2333 9.31500E+01 4.22060E+01 0.00000E+00
 -1      2334 9.69000E+01 4.35050E+01 0.00000E+00
 -1      2335 9.84000E+01 4.35050E+01 0.00000E+00
 -1      2336 9.61500E+01 4.22060E+01 0.00000E+00
 -1      2337 9.99000E+01 4.35050E+01 0.00000E+00
 -1      2338 1.01400E+02 4.35050E+01 0.00000E+00
 -1      2339 9.91500E+01 4.22060E+01 0.00000E+00
 -1      2340 1.02900E+02 4.35050E+01 0.00000E+00
 -1      2341 1.04400E+02 4.35050E+01 0.00000E+00
 -1      2342 1.02150E+02 4.22060E+01 0.00000E+00
 -1      2343 1.05900E+02 4.35050E+01 0.00000E+00
 -1      2344 1.07400E+02 4.35050E+01 0.00000E+00
 -1      2345 1.05150E+02 4.22060E+01 0.00000E+00
 -1      2346 1.08900E+02 4.35050E+01 0.00000E+00
 -1      2347 1.10400E+02 4.35050E+01 0.00000E+00
 -1      2348 1.08150E+02 4.22060E+01 0.00000E+00
 -1      2349 1.11900E+02 4.35050E+01 0.00000E+00
 -1      2350 1.13400E+02 4.35050E+01 0.00000E+00
 -1      2351 1.11150E+02 4.22060E+01 0.00000E+00
 -1      2352 1.14900E+02 4.35050E+01 0.00000E+00
 -1      2353 1.16400E+02 4.35050E+01 0.00000E+00
 -1      2354 1.14150E+02 4.22060E+01 0.00000E+00
 -1      2355 1.17900E+02 4.35050E+01 0.00000E+00
 -1      2356 1.19400E+02 4.35050E+01 0.00000E+00
 -1      2357 1.17150E+02 4.22060E+01 0.00000E+00
 -1      2358 1.20900E+02 4.35050E+01 0.00000E+00
 -1      2359 1.22400E+02 4.35050E+01 0.00000E+00
 -1      2360 1.20150E+02 4.22060E+01 0.00000E+00
 -1      2361 1.23900E+02 4.35050E+01 0.00000E+00
 -1      2362 1.25400E+02 4.35050E+01 0.00000E+00
 -1      2363 1.23150E+02 4.22060E+01 0.00000E+00
 -1      2364 1.26900E+02 4.35050E+01 0.00000E+00
 -1      2365 1.28400E+02 4.35050E+01 0.00000E+00
 -1      2366 1.26150E+02 4.22060E+01 0.00000E+00
 -1      2367 1.29900E+02 4.35050E+01 0.00000E+00
 -1      2368 1.31400E+02 4.35050E+01 0.00000E+00
 -1      2369 1.29150E+02 4.22060E+01 0.00000E+00
 -1      2370 1.32900E+02 4.35050E+01 0.00000E+00
 -1      2371 1.34400E+02 4.35050E+01 0.00000E+00
 -1      2372 1.32150E+02 4.22060E+01 0.00000E+00
 -1      2373 1.35900E+02 4.35050E+01 0.00000E+00
 -1      2374 1.37400E+02 4.35050E+01 0.00000E+00
 -1      2375 1.35150E+02 4.22060E+01 0.00000E+00
 -1      2376 1.38900E+02 4.35050E+01 0.00000E+00
 -1      2377 1.40400E+02 4.35050E+01 0.00000E+00
 -1      2378 1.38150E+02 4.22060E+01 0.00000E+00
 -1      2379 1.97850E+01 5.30525E+00 0.00000E+00
 -1      2380 1.82850E+01 5.30525E+00 0.00000E+00
 -1      2381 2.27850E+01 5.30525E+00 0.00000E+00
 -1      2382 2.12850E+01 5.30525E+00 0.00000E+00
 -1      2383 2.05350E+01 6.60425E+00 0.00000E+00
 -1      2384 2.57850E+01 5.30525E+00 0.00000E+00
 -1      2385 2.42850E+01 5.30525E+00 0.00000E+00
 -1      2386 2.35350E+01 6.60425E+00 0.00000E+00
 -1      2387 2.87850E+01 5.30525E+00 0.00000E+00
 -1      2388 2.72850E+01 5.30525E+00 0.00000E+00
 -1      2389 2.65350E+01 6.60425E+00 0.00000E+00
 -1      2390 3.17850E+01 5.30525E+00 0.00000E+00
 -1      2391 3.02850E+01 5.30525E+00 0.00000E+00
 -1      2392 2.95350E+01 6.60425E+00 0.00000E+00
 -1      2393 3.47850E+01 5.30525E+00 0.00000E+00
 -1      2394 3.32850E+01 5.30525E+00 0.00000E+00
 -1      2395 3.25350E+01 6.60425E+00 0.00000E+00
 -1      2396 3.77850E+01 5.30525E+00 0.00000E+00
 -1      2397 3.62850E+01 5.30525E+00 0.00000E+00
 -1      2398 3.55350E+01 6.60425E+00 0.00000E+00
 -1      2399 4.07850E+01 5.30525E+00 0.00000E+00
 -1      2400 3.92850E+01 5.30525E+00 0.00000E+00
 -1      2401 3.85350E+01 6.60425E+00 0.00000E+00
 -1      2402 4.37850E+01 5.30525E+00 0.00000E+00
 -1      2403 4.22850E+01 5.30525E+00 0.00000E+00
 -1      2404 4.15350E+01 6.60425E+00 0.00000E+00
 -1      2405 4.67850E+01 5.30525E+00 0.00000E+00
 -1      2406 4.52850E+01 5.30525E+00 0.00000E+00
 -1      2407 4.45350E+01 6.60425E+00 0.00000E+00
 -1      2408 4.97850E+01 5.30525E+00 0.00000E+00
 -1      2409 4.82850E+01 5.30525E+00 0.00000E+00
 -1      2410 4.75350E+01 6.60425E+00 0.00000E+00
 -1      2411 5.27850E+01 5.30525E+00 0.00000E+00
 -1      2412 5.12850E+01 5.30525E+00 0.00000E+00
 -1      2413 5.05350E+01 6.60425E+00 0.00000E+00
 -1      2414 5.57850E+01 5.30525E+00 0.00000E+00
 -1      2415 5.42850E+01 5.30525E+00 0.00000E+00
 -1      2416 5.35350E+01 6.60425E+00 0.00000E+00
 -1      2417 5.87850E+01 5.30525E+00 0.00000E+00
 -1      2418 5.72850E+01 5.30525E+00 0.00000E+00
 -1      2419 5.65350E+01 6.60425E+00 0.00000E+00
 -1      2420 6.17850E+01 5.30525E+00 0.00000E+00
 -1      2421 6.02850E+01 5.30525E+00 0.00000E+00
 -1      2422 5.95350E+01 6.60425E+00 0.00000E+00
 -1      2423 6.47850E+01 5.30525E+00 0.00000E+00
 -1      2424 6.32850E+01 5.30525E+00 0.00000E+00
 -1      2425 6.25350E+01 6.60425E+00 0.00000E+00
 -1      2426 6.77850E+01 5.30525E+00 0.00000E+00
 -1      2427 6.62850E+01 5.30525E+00 0.00000E+00
 -1      2428 6.55350E+01 6.60425E+00 0.00000E+00
 -1      2429 7.07850E+01 5.30525E+00 0.00000E+00
 -1      2430 6.92850E+01 5.30525E+00 0.00000E+00
 -1      2431 6.85350E+01 6.60425E+00 0.00000E+00
 -1      2432 7.37850E+01 5.30525E+00 0.00000E+00
 -1      2433 7.22850E+01 5.30525E+00 0.00000E+00
 -1      2434 7.15350E+01 6.60425E+00 0.00000E+00
 -1      2435 7.67850E+01 5.30525E+00 0.00000E+00
 -1      2436 7.52850E+01 5.30525E+00 0.00000E+00
 -1      2437 7.45350E+01 6.60425E+00 0.00000E+00
 -1      2438 7.97850E+01 5.30525E+00 0.00000E+00
 -1      2439 7.82850E+01 5.30525E+00 0.00000E+00
 -1      2440 7.75350E+01 6.60425E+00 0.00000E+00
 -1      2441 8.27850E+01 5.30525E+00 0.00000E+00
 -1      2442 8.12850E+01 5.30525E+00 0.00000E+00
 -1      2443 8.05350E+01 6.60425E+00 0.00000E+00
 -1      2444 8.57850E+01 5.30525E+00 0.00000E+00
 -1      2445 8.42850E+01 5.30525E+00 0.00000E+00
 -1      2446 8.35350E+01 6.60425E+00 0.00000E+00
 -1      2447 8.87850E+01 5.30525E+00 0.00000E+00
 -1      2448 8.72850E+01 5.30525E+00 0.00000E+00
 -1      2449 8.65350E+01 6.60425E+00 0.00000E+00
 -1      2450 9.17850E+01 5.30525E+00 0.00000E+00
 -1      2451 9.02850E+01 5.30525E+00 0.00000E+00
 -1      2452 8.95350E+01 6.60425E+00 0.00000E+00
 -1      2453 9.47850E+01 5.30525E+00 0.00000E+00
 -1      2454 9.32850E+01 5.30525E+00 0.00000E+00
 -1      2455 9.25350E+01 6.60425E+00 0.00000E+00
 -1      2456 9.77850E+01 5.30525E+00 0.00000E+00
 -1      2457 9.62850E+01 5.30525E+00 0.00000E+00
 -1      2458 9.55350E+01 6.60425E+00 0.00000E+00
 -1      2459 1.00785E+02 5.30525E+00 0.00000E+00
 -1      2460 9.92850E+01 5.30525E+00 0.00000E+00
 -1      2461 9.85350E+01 6.60425E+00 0.00000E+00
 -1      2462 1.03785E+02 5.30525E+00 0.00000E+00
 -1      2463 1.02285E+02 5.30525E+00 0.00000E+00
 -1      2464 1.01535E+02 6.60425E+00 0.00000E+00
 -1      2465 1.06785E+02 5.30525E+00 0.00000E+00
 -1      2466 1.05285E+02 5.30525E+00 0.00000E+00
 -1      2467 1.04535E+02 6.60425E+00 0.00000E+00
 -1      2468 1.09785E+02 5.30525E+00 0.00000E+00
 -1      2469 1.08285E+02 5.30525E+00 0.00000E+00
 -1      2470 1.07535E+02 6.60425E+00 0.00000E+00
 -1      2471 1.12785E+02 5.30525E+00 0.00000E+00
 -1      2472 1.11285E+02 5.30525E+00 0.00000E+00
 -1      2473 1.10535E+02 6.60425E+00 0.00000E+00
 -1      2474 1.15785E+02 5.30525E+00 0.00000E+00
 -1      2475 1.14285E+02 5.30525E+00 0.00000E+00
 -1      2476 1.13535E+02 6.60425E+00 0.00000E+00
 -1      2477 1.18785E+02 5.30525E+00 0.00000E+00
 -1      2478 1.17285E+02 5.30525E+00 0.00000E+00
 -1      2479 1.16535E+02 6.60425E+00 0.00000E+00
 -1      2480 1.21785E+02 5.30525E+00 0.00000E+00
 -1      2481 1.20285E+02 5.30525E+00 0.00000E+00
 -1      2482 1.19535E+02 6.60425E+00 0.00000E+00
 -1      2483 1.24785E+02 5.30525E+00 0.00000E+00
 -1      2484 1.23285E+02 5.30525E+00 0.00000E+00
 -1      2485 1.22535E+02 6.60425E+00 0.00000E+00
 -1      2486 1.27785E+02 5.30525E+00 0.00000E+00
 -1      2487 1.26285E+02 5.30525E+00 0.00000E+00
 -1      2488 1.25535E+02 6.60425E+00 0.00000E+00
 -1      2489 1.30785E+02 5.30525E+00 0.00000E+00
 -1      2490 1.29285E+02 5.30525E+00 0.00000E+00
 -1      2491 1.28535E+02 6.60425E+00 0.00000E+00
 -1      2492 1.33785E+02 5.30525E+00 0.00000E+00
 -1      2493 1.32285E+02 5.30525E+00 0.00000E+00
 -1      2494 1.31535E+02 6.60425E+00 0.00000E+00
 -1      2495 1.36785E+02 5.30525E+00 0.00000E+00
 -1      2496 1.35285E+02 5.30525E+00 0.00000E+00
 -1      2497 1.34535E+02 6.60425E+00 0.00000E+00
 -1      2498 1.39785E+02 5.30525E+00 0.00000E+00
 -1      2499 1.38285E+02 5.30525E+00 0.00000E+00
 -1      2500 1.37535E+02 6.60425E+00 0.00000E+00
 -1      2501 1.42785E+02 5.30525E+00 0.00000E+00
 -1      2502 1.41285E+02 5.30525E+00 0.00000E+00
 -1      2503 1.40535E+02 6.60425E+00 0.00000E+00
 -1      2504 1.44336E+02 5.26953E+00 0.00000E+00
 -1      2505 1.43505E+02 1.69125E+01 0.00000E+00
 -1      2506 1.43505E+02 1.54375E+01 0.00000E+00
 -1      2507 1.43505E+02 1.98625E+01 0.00000E+00
 -1      2508 1.43505E+02 1.83875E+01 0.00000E+00
 -1      2509 1.42206E+02 1.76500E+01 0.00000E+00
 -1      2510 1.43505E+02 1.10625E+01 0.00000E+00
 -1      2511 1.43505E+02 9.58750E+00 0.00000E+00
 -1      2512 1.43505E+02 1.39750E+01 0.00000E+00
 -1      2513 1.43505E+02 1.25250E+01 0.00000E+00
 -1      2514 1.42206E+02 1.17875E+01 0.00000E+00
 -1      2515 1.42206E+02 1.47125E+01 0.00000E+00
 -1      2516 1.43505E+02 2.28125E+01 0.00000E+00
 -1      2517 1.43505E+02 2.13375E+01 0.00000E+00
 -1      2518 1.42206E+02 2.06000E+01 0.00000E+00
 -1      2519 1.43505E+02 2.57625E+01 0.00000E+00
 -1      2520 1.43505E+02 2.42875E+01 0.00000E+00
 -1      2521 1.42206E+02 2.35500E+01 0.00000E+00
 -1      2522 1.43505E+02 2.87125E+01 0.00000E+00
 -1      2523 1.43505E+02 2.72375E+01 0.00000E+00
 -1      2524 1.42206E+02 2.65000E+01 0.00000E+00
 -1      2525 1.43505E+02 3.16125E+01 0.00000E+00
 -1      2526 1.43505E+02 3.01625E+01 0.00000E+00
 -1      2527 1.42206E+02 2.94250E+01 0.00000E+00
 -1      2528 1.43505E+02 3.45625E+01 0.00000E+00
 -1      2529 1.43505E+02 3.30875E+01 0.00000E+00
 -1      2530 1.42206E+02 3.23500E+01 0.00000E+00
 -1      2531 1.43505E+02 3.75125E+01 0.00000E+00
 -1      2532 1.43505E+02 3.60375E+01 0.00000E+00
 -1      2533 1.42206E+02 3.53000E+01 0.00000E+00
 -1      2534 1.43505E+02 4.04625E+01 0.00000E+00
 -1      2535 1.43505E+02 3.89875E+01 0.00000E+00
 -1      2536 1.42206E+02 3.82500E+01 0.00000E+00
 -1      2537 8.48158E+01 1.94820E+01 0.00000E+00
 -1      2538 8.48725E+01 2.04478E+01 0.00000E+00
 -1      2539 8.32492E+01 1.54543E+01 0.00000E+00
 -1      2540 8.38105E+01 1.63560E+01 0.00000E+00
 -1      2541 1.67850E+01 5.30525E+00 0.00000E+00
 -1      2542 1.52850E+01 5.30525E+00 0.00000E+00
 -1      2543 1.75350E+01 6.60425E+00 0.00000E+00
 -1      2544 1.44321E+02 4.30606E+01 0.00000E+00
 -1      2545 8.48605E+01 2.14184E+01 0.00000E+00
 -1      2546 8.48484E+01 2.23890E+01 0.00000E+00
 -1      2547 8.56045E+01 2.08901E+01 0.00000E+00
 -1      2548 8.42851E+01 1.74398E+01 0.00000E+00
 -1      2549 8.45932E+01 1.83431E+01 0.00000E+00
 -1      2550 6.55950E+00 4.28890E+01 0.00000E+00
 -1      2551 8.53650E+00 4.32410E+01 0.00000E+00
 -1      2552 9.28650E+00 4.19420E+01 0.00000E+00
 -1      2553 6.55950E+00 4.14140E+01 0.00000E+00
 -1      2554 8.46388E+01 2.36554E+01 0.00000E+00
 -1      2555 8.42749E+01 2.45470E+01 0.00000E+00
 -1      2556 6.49500E+00 2.71625E+01 0.00000E+00
 -1      2557 6.49500E+00 2.86375E+01 0.00000E+00
 -1      2558 7.79400E+00 2.93750E+01 0.00000E+00
 -1      2559 7.79400E+00 2.64250E+01 0.00000E+00
 -1      2560 7.59518E+01 1.05588E+01 0.00000E+00
 -1      2561 7.71184E+01 1.07016E+01 0.00000E+00
 -1      2562 6.44456E+01 1.89497E+01 0.00000E+00
 -1      2563 6.45310E+01 1.77693E+01 0.00000E+00
 -1      2564 7.38974E+01 1.05914E+01 0.00000E+00
 -1      2565 7.47492E+01 1.05197E+01 0.00000E+00
 -1      2566 7.16183E+01 1.08011E+01 0.00000E+00
 -1      2567 7.27579E+01 1.06963E+01 0.00000E+00
 -1      2568 7.31047E+01 9.72234E+00 0.00000E+00
 -1      2569 6.96553E+01 1.13960E+01 0.00000E+00
 -1      2570 7.05043E+01 1.10642E+01 0.00000E+00
 -1      2571 6.63202E+01 1.47263E+01 0.00000E+00
 -1      2572 6.68726E+01 1.40481E+01 0.00000E+00
 -1      2573 6.49800E+01 1.64042E+01 0.00000E+00
 -1      2574 6.56501E+01 1.55653E+01 0.00000E+00
 -1      2575 6.53263E+01 1.47375E+01 0.00000E+00
 -1      2576 6.42397E+01 2.09093E+01 0.00000E+00
 -1      2577 6.43506E+01 1.99741E+01 0.00000E+00
 -1      2578 6.44352E+01 2.32184E+01 0.00000E+00
 -1      2579 6.42195E+01 2.21564E+01 0.00000E+00
 -1      2580 6.52379E+01 2.53130E+01 0.00000E+00
 -1      2581 6.47949E+01 2.44155E+01 0.00000E+00
 -1      2582 6.63036E+01 2.70115E+01 0.00000E+00
 -1      2583 6.57815E+01 2.62480E+01 0.00000E+00
 -1      2584 6.75710E+01 2.84143E+01 0.00000E+00
 -1      2585 6.69373E+01 2.77129E+01 0.00000E+00
 -1      2586 6.59684E+01 2.78152E+01 0.00000E+00
 -1      2587 6.92475E+01 2.98197E+01 0.00000E+00
 -1      2588 6.84572E+01 2.92893E+01 0.00000E+00
 -1      2589 7.11287E+01 3.05696E+01 0.00000E+00
 -1      2590 7.02715E+01 3.01928E+01 0.00000E+00
 -1      2591 7.30489E+01 3.14017E+01 0.00000E+00
 -1      2592 7.20642E+01 3.10662E+01 0.00000E+00
 -1      2593 7.53449E+01 3.17576E+01 0.00000E+00
 -1      2594 7.43471E+01 3.18003E+01 0.00000E+00
 -1      2595 7.76987E+01 3.12745E+01 0.00000E+00
 -1      2596 7.66060E+01 3.15606E+01 0.00000E+00
 -1      2597 7.96214E+01 3.00217E+01 0.00000E+00
 -1      2598 7.88639E+01 3.05649E+01 0.00000E+00
 -1      2599 8.12473E+01 2.91019E+01 0.00000E+00
 -1      2600 8.04344E+01 2.95618E+01 0.00000E+00
 -1      2601 8.05554E+01 3.05303E+01 0.00000E+00
 -1      2602 8.27631E+01 2.72321E+01 0.00000E+00
 -1      2603 8.20855E+01 2.81413E+01 0.00000E+00
 -1      2604 8.37929E+01 2.54588E+01 0.00000E+00
 -1      2605 8.33454E+01 2.62662E+01 0.00000E+00
 -1      2606 7.85026E+01 1.13094E+01 0.00000E+00
 -1      2607 7.93475E+01 1.18583E+01 0.00000E+00
 -1      2608 8.02628E+01 1.14603E+01 0.00000E+00
 -1      2609 8.07525E+00 5.11044E+00 0.00000E+00
 -1      2610 6.57525E+00 5.11044E+00 0.00000E+00
 -1      2611 6.40575E+00 6.01981E+00 0.00000E+00
 -1      2612 8.82525E+00 6.40944E+00 0.00000E+00
 -1      2613 8.18969E+01 1.37717E+01 0.00000E+00
 -1      2614 8.25676E+01 1.44901E+01 0.00000E+00
 -1      2615 7.79400E+00 3.52687E+01 0.00000E+00
 -1      2616 6.49500E+00 3.60062E+01 0.00000E+00
 -1      2617 6.49500E+00 3.74750E+01 0.00000E+00
 -1      2618 1.45350E+01 6.60425E+00 0.00000E+00
 -1      2619 6.40575E+00 7.49481E+00 0.00000E+00
 -1      2620 8.19834E+01 1.27774E+01 0.00000E+00
 -1      2621 8.53829E+01 2.31271E+01 0.00000E+00
 -1      2622 8.46913E+01 2.53055E+01 0.00000E+00
 -1      2623 1.43586E+02 6.56853E+00 0.00000E+00
 -1      2624 8.35407E+01 1.45099E+01 0.00000E+00
 -1      2625 1.43419E+02 7.72713E+00 0.00000E+00
 -1      2626 8.22066E+01 2.91097E+01 0.00000E+00
 -1      2627 8.53940E+01 1.87806E+01 0.00000E+00
 -1      2628 8.46969E+01 1.65579E+01 0.00000E+00
 -1      2629 7.85773E+01 3.16997E+01 0.00000E+00
 -1      2630 7.70475E+00 8.23231E+00 0.00000E+00
 -1      2631 6.55950E+00 3.99453E+01 0.00000E+00
 -1      2632 7.61509E+01 3.26062E+01 0.00000E+00
 -1      2633 7.35916E+01 3.24046E+01 0.00000E+00
 -1      2634 7.13580E+01 3.15095E+01 0.00000E+00
 -1      2635 6.74883E+01 2.93916E+01 0.00000E+00
 -1      2636 6.47910E+01 2.61788E+01 0.00000E+00
 -1      2637 6.38877E+01 2.40468E+01 0.00000E+00
 -1      2638 6.42073E+01 1.69415E+01 0.00000E+00
 -1      2639 6.38835E+01 1.61138E+01 0.00000E+00
 -1      2640 6.34346E+01 1.74789E+01 0.00000E+00
 -1      2641 6.36634E+01 1.93311E+01 0.00000E+00
 -1      2642 7.08511E+01 1.00903E+01 0.00000E+00
 -1      2643 6.69657E+01 1.31288E+01 0.00000E+00
 -1      2644 7.54469E+01 9.65668E+00 0.00000E+00
 -1      2645 6.88360E+01 1.13562E+01 0.00000E+00
 -1      2646 6.89178E+01 1.03135E+01 0.00000E+00
 -1      2647 6.80167E+01 1.13164E+01 0.00000E+00
 -1      2648 1.42758E+02 4.35929E+01 0.00000E+00
 -1      2649 1.43241E+02 4.17323E+01 0.00000E+00
 -1      2650 1.41942E+02 4.09948E+01 0.00000E+00
 -1      2651 1.41414E+02 4.35342E+01 0.00000E+00
 -1      2652 1.42120E+02 8.46463E+00 0.00000E+00
 -1      2653 6.35482E+01 2.16026E+01 0.00000E+00
 -1      2654 6.93985E+01 3.06397E+01 0.00000E+00
 -1      2655 8.36270E+01 2.71832E+01 0.00000E+00
 -1      2656 1.40664E+02 4.22352E+01 0.00000E+00
 -1      2657 7.80337E+01 1.03036E+01 0.00000E+00
 -1      2658 9.09300E+00 1.98250E+01 0.00000E+00
 -1      2659 9.09300E+00 2.12750E+01 0.00000E+00
 -1      2660 9.09300E+00 2.27500E+01 0.00000E+00
 -1      2661 9.09300E+00 2.42250E+01 0.00000E+00
 -1      2662 1.03920E+01 2.20250E+01 0.00000E+00
 -1      2663 9.09300E+00 1.39375E+01 0.00000E+00
 -1      2664 9.09300E+00 1.54125E+01 0.00000E+00
 -1      2665 9.09300E+00 1.09875E+01 0.00000E+00
 -1      2666 9.09300E+00 1.24625E+01 0.00000E+00
 -1      2667 1.03920E+01 1.32000E+01 0.00000E+00
 -1      2668 1.22850E+01 7.90325E+00 0.00000E+00
 -1      2669 1.07850E+01 7.90325E+00 0.00000E+00
 -1      2670 7.85850E+00 3.92077E+01 0.00000E+00
 -1      2671 8.63337E+01 2.26339E+01 0.00000E+00
 -1      2672 8.61241E+01 2.39004E+01 0.00000E+00
 -1      2673 7.76864E+01 9.21455E+00 0.00000E+00
 -1      2674 7.90705E+01 9.82236E+00 0.00000E+00
 -1      2675 8.56534E+01 2.52307E+01 0.00000E+00
 -1      2676 8.51714E+01 2.61425E+01 0.00000E+00
 -1      2677 1.44000E+01 4.09070E+01 0.00000E+00
 -1      2678 1.59000E+01 4.09070E+01 0.00000E+00
 -1      2679 1.74000E+01 4.09070E+01 0.00000E+00
 -1      2680 1.89000E+01 4.09070E+01 0.00000E+00
 -1      2681 1.66500E+01 3.96080E+01 0.00000E+00
 -1      2682 2.04000E+01 4.09070E+01 0.00000E+00
 -1      2683 2.19000E+01 4.09070E+01 0.00000E+00
 -1      2684 1.96500E+01 3.96080E+01 0.00000E+00
 -1      2685 2.34000E+01 4.09070E+01 0.00000E+00
 -1      2686 2.49000E+01 4.09070E+01 0.00000E+00
 -1      2687 2.26500E+01 3.96080E+01 0.00000E+00
 -1      2688 2.64000E+01 4.09070E+01 0.00000E+00
 -1      2689 2.79000E+01 4.09070E+01 0.00000E+00
 -1      2690 2.56500E+01 3.96080E+01 0.00000E+00
 -1      2691 2.94000E+01 4.09070E+01 0.00000E+00
 -1      2692 3.09000E+01 4.09070E+01 0.00000E+00
 -1      2693 2.86500E+01 3.96080E+01 0.00000E+00
 -1      2694 3.24000E+01 4.09070E+01 0.00000E+00
 -1      2695 3.39000E+01 4.09070E+01 0.00000E+00
 -1      2696 3.16500E+01 3.96080E+01 0.00000E+00
 -1      2697 3.54000E+01 4.09070E+01 0.00000E+00
 -1      2698 3.69000E+01 4.09070E+01 0.00000E+00
 -1      2699 3.46500E+01 3.96080E+01 0.00000E+00
 -1      2700 3.84000E+01 4.09070E+01 0.00000E+00
 -1      2701 3.99000E+01 4.09070E+01 0.00000E+00
 -1      2702 3.76500E+01 3.96080E+01 0.00000E+00
 -1      2703 4.14000E+01 4.09070E+01 0.00000E+00
 -1      2704 4.29000E+01 4.09070E+01 0.00000E+00
 -1      2705 4.06500E+01 3.96080E+01 0.00000E+00
 -1      2706 4.44000E+01 4.09070E+01 0.00000E+00
 -1      2707 4.59000E+01 4.09070E+01 0.00000E+00
 -1      2708 4.36500E+01 3.96080E+01 0.00000E+00
 -1      2709 4.74000E+01 4.09070E+01 0.00000E+00
 -1      2710 4.89000E+01 4.09070E+01 0.00000E+00
 -1      2711 4.66500E+01 3.96080E+01 0.00000E+00
 -1      2712 5.04000E+01 4.09070E+01 0.00000E+00
 -1      2713 5.19000E+01 4.09070E+01 0.00000E+00
 -1      2714 4.96500E+01 3.96080E+01 0.00000E+00
 -1      2715 5.34000E+01 4.09070E+01 0.00000E+00
 -1      2716 5.49000E+01 4.09070E+01 0.00000E+00
 -1      2717 5.26500E+01 3.96080E+01 0.00000E+00
 -1      2718 5.64000E+01 4.09070E+01 0.00000E+00
 -1      2719 5.79000E+01 4.09070E+01 0.00000E+00
 -1      2720 5.56500E+01 3.96080E+01 0.00000E+00
 -1      2721 5.94000E+01 4.09070E+01 0.00000E+00
 -1      2722 6.09000E+01 4.09070E+01 0.00000E+00
 -1      2723 5.86500E+01 3.96080E+01 0.00000E+00
 -1      2724 6.24000E+01 4.09070E+01 0.00000E+00
 -1      2725 6.39000E+01 4.09070E+01 0.00000E+00
 -1      2726 6.16500E+01 3.96080E+01 0.00000E+00
 -1      2727 6.54000E+01 4.09070E+01 0.00000E+00
 -1      2728 6.69000E+01 4.09070E+01 0.00000E+00
 -1      2729 6.46500E+01 3.96080E+01 0.00000E+00
 -1      2730 6.84000E+01 4.09070E+01 0.00000E+00
 -1      2731 6.99000E+01 4.09070E+01 0.00000E+00
 -1      2732 6.76500E+01 3.96080E+01 0.00000E+00
 -1      2733 7.14000E+01 4.09070E+01 0.00000E+00
 -1      2734 7.29000E+01 4.09070E+01 0.00000E+00
 -1      2735 7.06500E+01 3.96080E+01 0.00000E+00
 -1      2736 7.44000E+01 4.09070E+01 0.00000E+00
 -1      2737 7.59000E+01 4.09070E+01 0.00000E+00
 -1      2738 7.36500E+01 3.96080E+01 0.00000E+00
 -1      2739 7.74000E+01 4.09070E+01 0.00000E+00
 -1      2740 7.89000E+01 4.09070E+01 0.00000E+00
 -1      2741 7.66500E+01 3.96080E+01 0.00000E+00
 -1      2742 8.04000E+01 4.09070E+01 0.00000E+00
 -1      2743 8.19000E+01 4.09070E+01 0.00000E+00
 -1      2744 7.96500E+01 3.96080E+01 0.00000E+00
 -1      2745 8.34000E+01 4.09070E+01 0.00000E+00
 -1      2746 8.49000E+01 4.09070E+01 0.00000E+00
 -1      2747 8.26500E+01 3.96080E+01 0.00000E+00
 -1      2748 8.64000E+01 4.09070E+01 0.00000E+00
 -1      2749 8.79000E+01 4.09070E+01 0.00000E+00
 -1      2750 8.56500E+01 3.96080E+01 0.00000E+00
 -1      2751 8.94000E+01 4.09070E+01 0.00000E+00
 -1      2752 9.09000E+01 4.09070E+01 0.00000E+00
 -1      2753 8.86500E+01 3.96080E+01 0.00000E+00
 -1      2754 9.24000E+01 4.09070E+01 0.00000E+00
 -1      2755 9.39000E+01 4.09070E+01 0.00000E+00
 -1      2756 9.16500E+01 3.96080E+01 0.00000E+00
 -1      2757 9.54000E+01 4.09070E+01 0.00000E+00
 -1      2758 9.69000E+01 4.09070E+01 0.00000E+00
 -1      2759 9.46500E+01 3.96080E+01 0.00000E+00
 -1      2760 9.84000E+01 4.09070E+01 0.00000E+00
 -1      2761 9.99000E+01 4.09070E+01 0.00000E+00
 -1      2762 9.76500E+01 3.96080E+01 0.00000E+00
 -1      2763 1.01400E+02 4.09070E+01 0.00000E+00
 -1      2764 1.02900E+02 4.09070E+01 0.00000E+00
 -1      2765 1.00650E+02 3.96080E+01 0.00000E+00
 -1      2766 1.04400E+02 4.09070E+01 0.00000E+00
 -1      2767 1.05900E+02 4.09070E+01 0.00000E+00
 -1      2768 1.03650E+02 3.96080E+01 0.00000E+00
 -1      2769 1.07400E+02 4.09070E+01 0.00000E+00
 -1      2770 1.08900E+02 4.09070E+01 0.00000E+00
 -1      2771 1.06650E+02 3.96080E+01 0.00000E+00
 -1      2772 1.10400E+02 4.09070E+01 0.00000E+00
 -1      2773 1.11900E+02 4.09070E+01 0.00000E+00
 -1      2774 1.09650E+02 3.96080E+01 0.00000E+00
 -1      2775 1.13400E+02 4.09070E+01 0.00000E+00
 -1      2776 1.14900E+02 4.09070E+01 0.00000E+00
 -1      2777 1.12650E+02 3.96080E+01 0.00000E+00
 -1      2778 1.16400E+02 4.09070E+01 0.00000E+00
 -1      2779 1.17900E+02 4.09070E+01 0.00000E+00
 -1      2780 1.15650E+02 3.96080E+01 0.00000E+00
 -1      2781 1.19400E+02 4.09070E+01 0.00000E+00
 -1      2782 1.20900E+02 4.09070E+01 0.00000E+00
 -1      2783 1.18650E+02 3.96080E+01 0.00000E+00
 -1      2784 1.22400E+02 4.09070E+01 0.00000E+00
 -1      2785 1.23900E+02 4.09070E+01 0.00000E+00
 -1      2786 1.21650E+02 3.96080E+01 0.00000E+00
 -1      2787 1.25400E+02 4.09070E+01 0.00000E+00
 -1      2788 1.26900E+02 4.09070E+01 0.00000E+00
 -1      2789 1.24650E+02 3.96080E+01 0.00000E+00
 -1      2790 1.28400E+02 4.09070E+01 0.00000E+00
 -1      2791 1.29900E+02 4.09070E+01 0.00000E+00
 -1      2792 1.27650E+02 3.96080E+01 0.00000E+00
 -1      2793 1.31400E+02 4.09070E+01 0.00000E+00
 -1      2794 1.32900E+02 4.09070E+01 0.00000E+00
 -1      2795 1.30650E+02 3.96080E+01 0.00000E+00
 -1      2796 1.34400E+02 4.09070E+01 0.00000E+00
 -1      2797 1.35900E+02 4.09070E+01 0.00000E+00
 -1      2798 1.33650E+02 3.96080E+01 0.00000E+00
 -1      2799 1.37400E+02 4.09070E+01 0.00000E+00
 -1      2800 1.38900E+02 4.09070E+01 0.00000E+00
 -1      2801 1.36650E+02 3.96080E+01 0.00000E+00
 -1      2802 2.42850E+01 7.90325E+00 0.00000E+00
 -1      2803 2.27850E+01 7.90325E+00 0.00000E+00
 -1      2804 1.40706E+02 1.03250E+01 0.00000E+00
 -1      2805 1.40620E+02 8.46463E+00 0.00000E+00
 -1      2806 1.39120E+02 8.46463E+00 0.00000E+00
 -1      2807 2.12850E+01 7.90325E+00 0.00000E+00
 -1      2808 1.97850E+01 7.90325E+00 0.00000E+00
 -1      2809 2.20350E+01 9.20225E+00 0.00000E+00
 -1      2810 3.02850E+01 7.90325E+00 0.00000E+00
 -1      2811 2.87850E+01 7.90325E+00 0.00000E+00
 -1      2812 3.32850E+01 7.90325E+00 0.00000E+00
 -1      2813 3.17850E+01 7.90325E+00 0.00000E+00
 -1      2814 3.10350E+01 9.20225E+00 0.00000E+00
 -1      2815 3.62850E+01 7.90325E+00 0.00000E+00
 -1      2816 3.47850E+01 7.90325E+00 0.00000E+00
 -1      2817 3.40350E+01 9.20225E+00 0.00000E+00
 -1      2818 3.92850E+01 7.90325E+00 0.00000E+00
 -1      2819 3.77850E+01 7.90325E+00 0.00000E+00
 -1      2820 3.70350E+01 9.20225E+00 0.00000E+00
 -1      2821 4.22850E+01 7.90325E+00 0.00000E+00
 -1      2822 4.07850E+01 7.90325E+00 0.00000E+00
 -1      2823 4.00350E+01 9.20225E+00 0.00000E+00
 -1      2824 4.52850E+01 7.90325E+00 0.00000E+00
 -1      2825 4.37850E+01 7.90325E+00 0.00000E+00
 -1      2826 4.30350E+01 9.20225E+00 0.00000E+00
 -1      2827 4.82850E+01 7.90325E+00 0.00000E+00
 -1      2828 4.67850E+01 7.90325E+00 0.00000E+00
 -1      2829 4.60350E+01 9.20225E+00 0.00000E+00
 -1      2830 5.12850E+01 7.90325E+00 0.00000E+00
 -1      2831 4.97850E+01 7.90325E+00 0.00000E+00
 -1      2832 4.90350E+01 9.20225E+00 0.00000E+00
 -1      2833 5.42850E+01 7.90325E+00 0.00000E+00
 -1      2834 5.27850E+01 7.90325E+00 0.00000E+00
 -1      2835 5.20350E+01 9.20225E+00 0.00000E+00
 -1      2836 5.72850E+01 7.90325E+00 0.00000E+00
 -1      2837 5.57850E+01 7.90325E+00 0.00000E+00
 -1      2838 5.50350E+01 9.20225E+00 0.00000E+00
 -1      2839 6.02850E+01 7.90325E+00 0.00000E+00
 -1      2840 5.87850E+01 7.90325E+00 0.00000E+00
 -1      2841 5.80350E+01 9.20225E+00 0.00000E+00
 -1      2842 6.32850E+01 7.90325E+00 0.00000E+00
 -1      2843 6.17850E+01 7.90325E+00 0.00000E+00
 -1      2844 6.10350E+01 9.20225E+00 0.00000E+00
 -1      2845 6.62850E+01 7.90325E+00 0.00000E+00
 -1      2846 6.47850E+01 7.90325E+00 0.00000E+00
 -1      2847 6.40350E+01 9.20225E+00 0.00000E+00
 -1      2848 6.90668E+01 8.43898E+00 0.00000E+00
 -1      2849 6.75668E+01 8.43898E+00 0.00000E+00
 -1      2850 7.25001E+01 8.21570E+00 0.00000E+00
 -1      2851 7.10001E+01 8.21570E+00 0.00000E+00
 -1      2852 7.88791E+01 7.66876E+00 0.00000E+00
 -1      2853 7.73791E+01 7.66876E+00 0.00000E+00
 -1      2854 8.18791E+01 7.66876E+00 0.00000E+00
 -1      2855 8.03791E+01 7.66876E+00 0.00000E+00
 -1      2856 8.02232E+01 8.73327E+00 0.00000E+00
 -1      2857 8.48791E+01 7.66876E+00 0.00000E+00
 -1      2858 8.33791E+01 7.66876E+00 0.00000E+00
 -1      2859 8.32232E+01 8.73327E+00 0.00000E+00
 -1      2860 8.78791E+01 7.66876E+00 0.00000E+00
 -1      2861 8.63791E+01 7.66876E+00 0.00000E+00
 -1      2862 8.62232E+01 8.73327E+00 0.00000E+00
 -1      2863 9.08791E+01 7.66876E+00 0.00000E+00
 -1      2864 8.93791E+01 7.66876E+00 0.00000E+00
 -1      2865 8.92232E+01 8.73327E+00 0.00000E+00
 -1      2866 9.38791E+01 7.66876E+00 0.00000E+00
 -1      2867 9.23791E+01 7.66876E+00 0.00000E+00
 -1      2868 9.22232E+01 8.73327E+00 0.00000E+00
 -1      2869 9.68791E+01 7.66876E+00 0.00000E+00
 -1      2870 9.53791E+01 7.66876E+00 0.00000E+00
 -1      2871 9.52232E+01 8.73327E+00 0.00000E+00
 -1      2872 9.98791E+01 7.66876E+00 0.00000E+00
 -1      2873 9.83791E+01 7.66876E+00 0.00000E+00
 -1      2874 9.82232E+01 8.73327E+00 0.00000E+00
 -1      2875 1.02879E+02 7.66876E+00 0.00000E+00
 -1      2876 1.01379E+02 7.66876E+00 0.00000E+00
 -1      2877 1.01223E+02 8.73327E+00 0.00000E+00
 -1      2878 1.05879E+02 7.66876E+00 0.00000E+00
 -1      2879 1.04379E+02 7.66876E+00 0.00000E+00
 -1      2880 1.04223E+02 8.73327E+00 0.00000E+00
 -1      2881 1.08879E+02 7.66876E+00 0.00000E+00
 -1      2882 1.07379E+02 7.66876E+00 0.00000E+00
 -1      2883 1.07223E+02 8.73327E+00 0.00000E+00
 -1      2884 1.11879E+02 7.66876E+00 0.00000E+00
 -1      2885 1.10379E+02 7.66876E+00 0.00000E+00
 -1      2886 1.10223E+02 8.73327E+00 0.00000E+00
 -1      2887 1.14879E+02 7.66876E+00 0.00000E+00
 -1      2888 1.13379E+02 7.66876E+00 0.00000E+00
 -1      2889 1.13223E+02 8.73327E+00 0.00000E+00
 -1      2890 1.17879E+02 7.66876E+00 0.00000E+00
 -1      2891 1.16379E+02 7.66876E+00 0.00000E+00
 -1      2892 1.16223E+02 8.73327E+00 0.00000E+00
 -1      2893 1.20879E+02 7.66876E+00 0.00000E+00
 -1      2894 1.19379E+02 7.66876E+00 0.00000E+00
 -1      2895 1.19223E+02 8.73327E+00 0.00000E+00
 -1      2896 1.23879E+02 7.66876E+00 0.00000E+00
 -1      2897 1.22379E+02 7.66876E+00 0.00000E+00
 -1      2898 1.22223E+02 8.73327E+00 0.00000E+00
 -1      2899 1.26879E+02 7.66876E+00 0.00000E+00
 -1      2900 1.25379E+02 7.66876E+00 0.00000E+00
 -1      2901 1.25223E+02 8.73327E+00 0.00000E+00
 -1      2902 1.29879E+02 7.66876E+00 0.00000E+00
 -1      2903 1.28379E+02 7.66876E+00 0.00000E+00
 -1      2904 1.28223E+02 8.73327E+00 0.00000E+00
 -1      2905 1.32879E+02 7.66876E+00 0.00000E+00
 -1      2906 1.31379E+02 7.66876E+00 0.00000E+00
 -1      2907 1.31223E+02 8.73327E+00 0.00000E+00
 -1      2908 1.35879E+02 7.66876E+00 0.00000E+00
 -1      2909 1.34379E+02 7.66876E+00 0.00000E+00
 -1      2910 1.34223E+02 8.73327E+00 0.00000E+00
 -1      2911 1.37620E+02 8.46463E+00 0.00000E+00
 -1      2912 8.40370E+01 1.34361E+01 0.00000E+00
 -1      2913 8.47186E+01 1.44003E+01 0.00000E+00
 -1      2914 1.40907E+02 2.42875E+01 0.00000E+00
 -1      2915 1.40907E+02 2.28125E+01 0.00000E+00
 -1      2916 6.26806E+01 2.22123E+01 0.00000E+00
 -1      2917 6.27008E+01 2.09652E+01 0.00000E+00
 -1      2918 1.40907E+02 1.83875E+01 0.00000E+00
 -1      2919 1.40907E+02 1.69125E+01 0.00000E+00
 -1      2920 1.40907E+02 2.72375E+01 0.00000E+00
 -1      2921 1.40907E+02 2.57625E+01 0.00000E+00
 -1      2922 1.39608E+02 2.50250E+01 0.00000E+00
 -1      2923 1.40907E+02 2.13375E+01 0.00000E+00
 -1      2924 1.40907E+02 1.98625E+01 0.00000E+00
 -1      2925 1.39608E+02 1.91250E+01 0.00000E+00
 -1      2926 1.39608E+02 2.20750E+01 0.00000E+00
 -1      2927 1.40907E+02 3.01375E+01 0.00000E+00
 -1      2928 1.40907E+02 2.86875E+01 0.00000E+00
 -1      2929 1.39608E+02 2.79500E+01 0.00000E+00
 -1      2930 1.40907E+02 3.30875E+01 0.00000E+00
 -1      2931 1.40907E+02 3.16125E+01 0.00000E+00
 -1      2932 1.39608E+02 3.08750E+01 0.00000E+00
 -1      2933 1.40907E+02 3.60375E+01 0.00000E+00
 -1      2934 1.40907E+02 3.45625E+01 0.00000E+00
 -1      2935 1.39608E+02 3.38250E+01 0.00000E+00
 -1      2936 8.52451E+01 1.56720E+01 0.00000E+00
 -1      2937 8.57197E+01 1.67558E+01 0.00000E+00
 -1      2938 8.62889E+01 1.80145E+01 0.00000E+00
 -1      2939 8.65114E+01 1.91535E+01 0.00000E+00
 -1      2940 8.65518E+01 2.04165E+01 0.00000E+00
 -1      2941 8.65398E+01 2.13871E+01 0.00000E+00
 -1      2942 7.96495E+01 3.21489E+01 0.00000E+00
 -1      2943 7.84842E+01 3.28585E+01 0.00000E+00
 -1      2944 9.32250E+00 4.05749E+01 0.00000E+00
 -1      2945 1.06860E+01 4.08389E+01 0.00000E+00
 -1      2946 1.21860E+01 4.08389E+01 0.00000E+00
 -1      2947 9.25800E+00 3.81046E+01 0.00000E+00
 -1      2948 6.42491E+01 2.71195E+01 0.00000E+00
 -1      2949 6.37054E+01 2.61845E+01 0.00000E+00
 -1      2950 7.36396E+01 8.11089E+00 0.00000E+00
 -1      2951 6.59477E+01 1.28421E+01 0.00000E+00
 -1      2952 6.69170E+01 1.20724E+01 0.00000E+00
 -1      2953 1.82850E+01 7.90325E+00 0.00000E+00
 -1      2954 1.67850E+01 7.90325E+00 0.00000E+00
 -1      2955 1.90350E+01 9.20225E+00 0.00000E+00
 -1      2956 2.72850E+01 7.90325E+00 0.00000E+00
 -1      2957 2.57850E+01 7.90325E+00 0.00000E+00
 -1      2958 2.50350E+01 9.20225E+00 0.00000E+00
 -1      2959 2.80350E+01 9.20225E+00 0.00000E+00
 -1      2960 8.21663E+01 1.16857E+01 0.00000E+00
 -1      2961 8.30421E+01 1.24540E+01 0.00000E+00
 -1      2962 9.09300E+00 1.68813E+01 0.00000E+00
 -1      2963 9.09300E+00 1.83563E+01 0.00000E+00
 -1      2964 1.03920E+01 1.90812E+01 0.00000E+00
 -1      2965 1.03920E+01 1.61437E+01 0.00000E+00
 -1      2966 9.09300E+00 3.15875E+01 0.00000E+00
 -1      2967 9.09300E+00 3.30625E+01 0.00000E+00
 -1      2968 1.52850E+01 7.90325E+00 0.00000E+00
 -1      2969 1.37850E+01 7.90325E+00 0.00000E+00
 -1      2970 1.30350E+01 9.20225E+00 0.00000E+00
 -1      2971 1.60350E+01 9.20225E+00 0.00000E+00
 -1      2972 8.33349E+01 2.92483E+01 0.00000E+00
 -1      2973 8.24968E+01 3.02089E+01 0.00000E+00
 -1      2974 7.69526E+01 3.36033E+01 0.00000E+00
 -1      2975 7.56915E+01 3.38003E+01 0.00000E+00
 -1      2976 6.28454E+01 1.97719E+01 0.00000E+00
 -1      2977 6.29404E+01 1.87474E+01 0.00000E+00
 -1      2978 1.40928E+02 4.09655E+01 0.00000E+00
 -1      2979 1.41192E+02 3.96958E+01 0.00000E+00
 -1      2980 1.39914E+02 4.09362E+01 0.00000E+00
 -1      2981 6.43212E+01 1.46218E+01 0.00000E+00
 -1      2982 6.49914E+01 1.37828E+01 0.00000E+00
 -1      2983 6.95881E+01 3.17107E+01 0.00000E+00
 -1      2984 6.85641E+01 3.13376E+01 0.00000E+00
 -1      2985 6.31660E+01 2.49162E+01 0.00000E+00
 -1      2986 6.28063E+01 2.37192E+01 0.00000E+00
 -1      2987 6.56489E+01 2.87408E+01 0.00000E+00
 -1      2988 6.50152E+01 2.80394E+01 0.00000E+00
 -1      2989 8.46526E+01 2.71430E+01 0.00000E+00
 -1      2990 8.40703E+01 2.81089E+01 0.00000E+00
 -1      2991 6.72700E+01 3.04989E+01 0.00000E+00
 -1      2992 6.63838E+01 2.96240E+01 0.00000E+00
 -1      2993 7.14591E+01 3.27039E+01 0.00000E+00
 -1      2994 7.05236E+01 3.22073E+01 0.00000E+00
 -1      2995 6.96893E+01 3.29052E+01 0.00000E+00
 -1      2996 7.40555E+01 3.35009E+01 0.00000E+00
 -1      2997 7.27573E+01 3.31024E+01 0.00000E+00
 -1      2998 7.19230E+01 3.38003E+01 0.00000E+00
 -1      2999 8.91450E+00 8.42712E+00 0.00000E+00
 -1      3000 8.12754E+01 3.12292E+01 0.00000E+00
 -1      3001 8.04624E+01 3.16891E+01 0.00000E+00
 -1      3002 8.03694E+01 3.28478E+01 0.00000E+00
 -1      3003 7.51396E+01 8.11089E+00 0.00000E+00
 -1      3004 9.09300E+00 3.01125E+01 0.00000E+00
 -1      3005 1.03920E+01 3.08500E+01 0.00000E+00
 -1      3006 9.09300E+00 2.86375E+01 0.00000E+00
 -1      3007 8.43605E+01 2.92081E+01 0.00000E+00
 -1      3008 6.26241E+01 2.58569E+01 0.00000E+00
 -1      3009 8.72810E+01 2.21603E+01 0.00000E+00
 -1      3010 8.56147E+01 2.70682E+01 0.00000E+00
 -1      3011 1.03920E+01 3.37938E+01 0.00000E+00
 -1      3012 9.09300E+00 3.45313E+01 0.00000E+00
 -1      3013 9.09300E+00 3.60000E+01 0.00000E+00
 -1      3014 8.42200E+01 1.23443E+01 0.00000E+00
 -1      3015 1.39164E+02 3.96372E+01 0.00000E+00
 -1      3016 8.57414E+01 1.45982E+01 0.00000E+00
 -1      3017 6.68168E+01 9.73798E+00 0.00000E+00
 -1      3018 6.98860E+01 8.47881E+00 0.00000E+00
 -1      3019 9.66450E+00 9.72612E+00 0.00000E+00
 -1      3020 6.19779E+01 2.03815E+01 0.00000E+00
 -1      3021 1.39608E+02 1.61875E+01 0.00000E+00
 -1      3022 1.40907E+02 1.54500E+01 0.00000E+00
 -1      3023 1.40907E+02 1.39875E+01 0.00000E+00
 -1      3024 1.40706E+02 1.17875E+01 0.00000E+00
 -1      3025 8.68371E+01 1.71287E+01 0.00000E+00
 -1      3026 6.74597E+01 3.15700E+01 0.00000E+00
 -1      3027 6.54306E+01 2.98481E+01 0.00000E+00
 -1      3028 1.41192E+02 3.82207E+01 0.00000E+00
 -1      3029 8.74467E+01 1.96504E+01 0.00000E+00
 -1      3030 7.63422E+01 8.15004E+00 0.00000E+00
 -1      3031 7.80248E+01 3.40526E+01 0.00000E+00
 -1      3032 1.29360E+01 3.95399E+01 0.00000E+00
 -1      3033 9.09300E+00 2.56938E+01 0.00000E+00
 -1      3034 9.09300E+00 2.71688E+01 0.00000E+00
 -1      3035 1.03920E+01 2.79063E+01 0.00000E+00
 -1      3036 1.03920E+01 2.49688E+01 0.00000E+00
 -1      3037 6.19590E+01 2.30817E+01 0.00000E+00
 -1      3038 6.26166E+01 1.79197E+01 0.00000E+00
 -1      3039 6.22929E+01 1.70919E+01 0.00000E+00
 -1      3040 6.17987E+01 1.83605E+01 0.00000E+00
 -1      3041 6.49426E+01 1.27264E+01 0.00000E+00
 -1      3042 8.24038E+01 3.13677E+01 0.00000E+00
 -1      3043 6.39296E+01 2.80450E+01 0.00000E+00
 -1      3044 1.09635E+01 1.04636E+01 0.00000E+00
 -1      3045 7.48571E+01 3.44981E+01 0.00000E+00
 -1      3046 6.69988E+01 1.10297E+01 0.00000E+00
 -1      3047 6.35486E+01 1.51591E+01 0.00000E+00
 -1      3048 6.32136E+01 1.42044E+01 0.00000E+00
 -1      3049 6.27759E+01 1.56964E+01 0.00000E+00
 -1      3050 8.66043E+01 2.47375E+01 0.00000E+00
 -1      3051 1.39529E+02 3.85602E+01 0.00000E+00
 -1      3052 1.40542E+02 3.71145E+01 0.00000E+00
 -1      3053 1.39243E+02 3.63770E+01 0.00000E+00
 -1      3054 1.38514E+02 3.85310E+01 0.00000E+00
 -1      3055 8.03531E+01 1.03965E+01 0.00000E+00
 -1      3056 8.11980E+01 1.09453E+01 0.00000E+00
 -1      3057 8.22567E+01 1.06219E+01 0.00000E+00
 -1      3058 6.09711E+01 2.08650E+01 0.00000E+00
 -1      3059 6.11156E+01 1.96717E+01 0.00000E+00
 -1      3060 1.16910E+01 1.24625E+01 0.00000E+00
 -1      3061 1.16910E+01 1.39375E+01 0.00000E+00
 -1      3062 8.00058E+01 9.30738E+00 0.00000E+00
 -1      3063 1.89000E+01 3.83090E+01 0.00000E+00
 -1      3064 2.04000E+01 3.83090E+01 0.00000E+00
 -1      3065 2.19000E+01 3.83090E+01 0.00000E+00
 -1      3066 2.34000E+01 3.83090E+01 0.00000E+00
 -1      3067 2.11500E+01 3.70100E+01 0.00000E+00
 -1      3068 2.49000E+01 3.83090E+01 0.00000E+00
 -1      3069 2.64000E+01 3.83090E+01 0.00000E+00
 -1      3070 2.41500E+01 3.70100E+01 0.00000E+00
 -1      3071 2.79000E+01 3.83090E+01 0.00000E+00
 -1      3072 2.94000E+01 3.83090E+01 0.00000E+00
 -1      3073 2.71500E+01 3.70100E+01 0.00000E+00
 -1      3074 3.09000E+01 3.83090E+01 0.00000E+00
 -1      3075 3.24000E+01 3.83090E+01 0.00000E+00
 -1      3076 3.01500E+01 3.70100E+01 0.00000E+00
 -1      3077 3.39000E+01 3.83090E+01 0.00000E+00
 -1      3078 3.54000E+01 3.83090E+01 0.00000E+00
 -1      3079 3.31500E+01 3.70100E+01 0.00000E+00
 -1      3080 3.69000E+01 3.83090E+01 0.00000E+00
 -1      3081 3.84000E+01 3.83090E+01 0.00000E+00
 -1      3082 3.61500E+01 3.70100E+01 0.00000E+00
 -1      3083 3.99000E+01 3.83090E+01 0.00000E+00
 -1      3084 4.14000E+01 3.83090E+01 0.00000E+00
 -1      3085 3.91500E+01 3.70100E+01 0.00000E+00
 -1      3086 4.29000E+01 3.83090E+01 0.00000E+00
 -1      3087 4.44000E+01 3.83090E+01 0.00000E+00
 -1      3088 4.21500E+01 3.70100E+01 0.00000E+00
 -1      3089 4.59000E+01 3.83090E+01 0.00000E+00
 -1      3090 4.74000E+01 3.83090E+01 0.00000E+00
 -1      3091 4.51500E+01 3.70100E+01 0.00000E+00
 -1      3092 4.89000E+01 3.83090E+01 0.00000E+00
 -1      3093 5.04000E+01 3.83090E+01 0.00000E+00
 -1      3094 4.81500E+01 3.70100E+01 0.00000E+00
 -1      3095 5.19000E+01 3.83090E+01 0.00000E+00
 -1      3096 5.34000E+01 3.83090E+01 0.00000E+00
 -1      3097 5.11500E+01 3.70100E+01 0.00000E+00
 -1      3098 5.49000E+01 3.83090E+01 0.00000E+00
 -1      3099 5.64000E+01 3.83090E+01 0.00000E+00
 -1      3100 5.41500E+01 3.70100E+01 0.00000E+00
 -1      3101 5.79000E+01 3.83090E+01 0.00000E+00
 -1      3102 5.94000E+01 3.83090E+01 0.00000E+00
 -1      3103 5.71500E+01 3.70100E+01 0.00000E+00
 -1      3104 6.09000E+01 3.83090E+01 0.00000E+00
 -1      3105 6.24000E+01 3.83090E+01 0.00000E+00
 -1      3106 6.01500E+01 3.70100E+01 0.00000E+00
 -1      3107 6.39000E+01 3.83090E+01 0.00000E+00
 -1      3108 6.54000E+01 3.83090E+01 0.00000E+00
 -1      3109 6.31500E+01 3.70100E+01 0.00000E+00
 -1      3110 6.69000E+01 3.83090E+01 0.00000E+00
 -1      3111 6.84000E+01 3.83090E+01 0.00000E+00
 -1      3112 6.61500E+01 3.70100E+01 0.00000E+00
 -1      3113 6.99000E+01 3.83090E+01 0.00000E+00
 -1      3114 7.14000E+01 3.83090E+01 0.00000E+00
 -1      3115 6.91500E+01 3.70100E+01 0.00000E+00
 -1      3116 7.59000E+01 3.83090E+01 0.00000E+00
 -1      3117 7.74000E+01 3.83090E+01 0.00000E+00
 -1      3118 7.89000E+01 3.83090E+01 0.00000E+00
 -1      3119 8.04000E+01 3.83090E+01 0.00000E+00
 -1      3120 7.81500E+01 3.70100E+01 0.00000E+00
 -1      3121 8.19000E+01 3.83090E+01 0.00000E+00
 -1      3122 8.34000E+01 3.83090E+01 0.00000E+00
 -1      3123 8.11500E+01 3.70100E+01 0.00000E+00
 -1      3124 8.49000E+01 3.83090E+01 0.00000E+00
 -1      3125 8.64000E+01 3.83090E+01 0.00000E+00
 -1      3126 8.41500E+01 3.70100E+01 0.00000E+00
 -1      3127 8.79000E+01 3.83090E+01 0.00000E+00
 -1      3128 8.94000E+01 3.83090E+01 0.00000E+00
 -1      3129 8.71500E+01 3.70100E+01 0.00000E+00
 -1      3130 9.09000E+01 3.83090E+01 0.00000E+00
 -1      3131 9.24000E+01 3.83090E+01 0.00000E+00
 -1      3132 9.01500E+01 3.70100E+01 0.00000E+00
 -1      3133 9.39000E+01 3.83090E+01 0.00000E+00
 -1      3134 9.54000E+01 3.83090E+01 0.00000E+00
 -1      3135 9.31500E+01 3.70100E+01 0.00000E+00
 -1      3136 9.69000E+01 3.83090E+01 0.00000E+00
 -1      3137 9.84000E+01 3.83090E+01 0.00000E+00
 -1      3138 9.61500E+01 3.70100E+01 0.00000E+00
 -1      3139 9.99000E+01 3.83090E+01 0.00000E+00
 -1      3140 1.01400E+02 3.83090E+01 0.00000E+00
 -1      3141 9.91500E+01 3.70100E+01 0.00000E+00
 -1      3142 1.02900E+02 3.83090E+01 0.00000E+00
 -1      3143 1.04400E+02 3.83090E+01 0.00000E+00
 -1      3144 1.02150E+02 3.70100E+01 0.00000E+00
 -1      3145 1.05900E+02 3.83090E+01 0.00000E+00
 -1      3146 1.07400E+02 3.83090E+01 0.00000E+00
 -1      3147 1.05150E+02 3.70100E+01 0.00000E+00
 -1      3148 1.08900E+02 3.83090E+01 0.00000E+00
 -1      3149 1.10400E+02 3.83090E+01 0.00000E+00
 -1      3150 1.08150E+02 3.70100E+01 0.00000E+00
 -1      3151 1.11900E+02 3.83090E+01 0.00000E+00
 -1      3152 1.13400E+02 3.83090E+01 0.00000E+00
 -1      3153 1.11150E+02 3.70100E+01 0.00000E+00
 -1      3154 1.14900E+02 3.83090E+01 0.00000E+00
 -1      3155 1.16400E+02 3.83090E+01 0.00000E+00
 -1      3156 1.14150E+02 3.70100E+01 0.00000E+00
 -1      3157 1.17900E+02 3.83090E+01 0.00000E+00
 -1      3158 1.19400E+02 3.83090E+01 0.00000E+00
 -1      3159 1.17150E+02 3.70100E+01 0.00000E+00
 -1      3160 1.20900E+02 3.83090E+01 0.00000E+00
 -1      3161 1.22400E+02 3.83090E+01 0.00000E+00
 -1      3162 1.20150E+02 3.70100E+01 0.00000E+00
 -1      3163 1.23900E+02 3.83090E+01 0.00000E+00
 -1      3164 1.25400E+02 3.83090E+01 0.00000E+00
 -1      3165 1.23150E+02 3.70100E+01 0.00000E+00
 -1      3166 1.26900E+02 3.83090E+01 0.00000E+00
 -1      3167 1.28400E+02 3.83090E+01 0.00000E+00
 -1      3168 1.26150E+02 3.70100E+01 0.00000E+00
 -1      3169 1.29900E+02 3.83090E+01 0.00000E+00
 -1      3170 1.31400E+02 3.83090E+01 0.00000E+00
 -1      3171 1.29150E+02 3.70100E+01 0.00000E+00
 -1      3172 1.32900E+02 3.83090E+01 0.00000E+00
 -1      3173 1.34400E+02 3.83090E+01 0.00000E+00
 -1      3174 1.32150E+02 3.70100E+01 0.00000E+00
 -1      3175 1.35707E+02 3.84200E+01 0.00000E+00
 -1      3176 1.37207E+02 3.84200E+01 0.00000E+00
 -1      3177 1.37572E+02 3.73430E+01 0.00000E+00
 -1      3178 1.34957E+02 3.71210E+01 0.00000E+00
 -1      3179 2.27850E+01 1.05013E+01 0.00000E+00
 -1      3180 2.12850E+01 1.05013E+01 0.00000E+00
 -1      3181 3.47850E+01 1.05013E+01 0.00000E+00
 -1      3182 3.32850E+01 1.05013E+01 0.00000E+00
 -1      3183 3.17850E+01 1.05013E+01 0.00000E+00
 -1      3184 3.02850E+01 1.05013E+01 0.00000E+00
 -1      3185 3.25350E+01 1.18003E+01 0.00000E+00
 -1      3186 4.07850E+01 1.05013E+01 0.00000E+00
 -1      3187 3.92850E+01 1.05013E+01 0.00000E+00
 -1      3188 4.37850E+01 1.05013E+01 0.00000E+00
 -1      3189 4.22850E+01 1.05013E+01 0.00000E+00
 -1      3190 4.15350E+01 1.18003E+01 0.00000E+00
 -1      3191 4.67850E+01 1.05013E+01 0.00000E+00
 -1      3192 4.52850E+01 1.05013E+01 0.00000E+00
 -1      3193 4.45350E+01 1.18003E+01 0.00000E+00
 -1      3194 4.97850E+01 1.05013E+01 0.00000E+00
 -1      3195 4.82850E+01 1.05013E+01 0.00000E+00
 -1      3196 4.75350E+01 1.18003E+01 0.00000E+00
 -1      3197 5.27850E+01 1.05013E+01 0.00000E+00
 -1      3198 5.12850E+01 1.05013E+01 0.00000E+00
 -1      3199 5.05350E+01 1.18003E+01 0.00000E+00
 -1      3200 5.57850E+01 1.05013E+01 0.00000E+00
 -1      3201 5.42850E+01 1.05013E+01 0.00000E+00
 -1      3202 5.35350E+01 1.18003E+01 0.00000E+00
 -1      3203 5.87850E+01 1.05013E+01 0.00000E+00
 -1      3204 5.72850E+01 1.05013E+01 0.00000E+00
 -1      3205 5.65350E+01 1.18003E+01 0.00000E+00
 -1      3206 6.17850E+01 1.05013E+01 0.00000E+00
 -1      3207 6.02850E+01 1.05013E+01 0.00000E+00
 -1      3208 5.95350E+01 1.18003E+01 0.00000E+00
 -1      3209 8.99732E+01 1.00323E+01 0.00000E+00
 -1      3210 8.84732E+01 1.00323E+01 0.00000E+00
 -1      3211 9.29732E+01 1.00323E+01 0.00000E+00
 -1      3212 9.14732E+01 1.00323E+01 0.00000E+00
 -1      3213 9.07232E+01 1.13313E+01 0.00000E+00
 -1      3214 9.59732E+01 1.00323E+01 0.00000E+00
 -1      3215 9.44732E+01 1.00323E+01 0.00000E+00
 -1      3216 9.37232E+01 1.13313E+01 0.00000E+00
 -1      3217 9.89732E+01 1.00323E+01 0.00000E+00
 -1      3218 9.74732E+01 1.00323E+01 0.00000E+00
 -1      3219 9.67232E+01 1.13313E+01 0.00000E+00
 -1      3220 1.01973E+02 1.00323E+01 0.00000E+00
 -1      3221 1.00473E+02 1.00323E+01 0.00000E+00
 -1      3222 9.97232E+01 1.13313E+01 0.00000E+00
 -1      3223 1.04973E+02 1.00323E+01 0.00000E+00
 -1      3224 1.03473E+02 1.00323E+01 0.00000E+00
 -1      3225 1.02723E+02 1.13313E+01 0.00000E+00
 -1      3226 1.07973E+02 1.00323E+01 0.00000E+00
 -1      3227 1.06473E+02 1.00323E+01 0.00000E+00
 -1      3228 1.05723E+02 1.13313E+01 0.00000E+00
 -1      3229 1.10973E+02 1.00323E+01 0.00000E+00
 -1      3230 1.09473E+02 1.00323E+01 0.00000E+00
 -1      3231 1.08723E+02 1.13313E+01 0.00000E+00
 -1      3232 1.13973E+02 1.00323E+01 0.00000E+00
 -1      3233 1.12473E+02 1.00323E+01 0.00000E+00
 -1      3234 1.11723E+02 1.13313E+01 0.00000E+00
 -1      3235 1.16973E+02 1.00323E+01 0.00000E+00
 -1      3236 1.15473E+02 1.00323E+01 0.00000E+00
 -1      3237 1.14723E+02 1.13313E+01 0.00000E+00
 -1      3238 1.19973E+02 1.00323E+01 0.00000E+00
 -1      3239 1.18473E+02 1.00323E+01 0.00000E+00
 -1      3240 1.17723E+02 1.13313E+01 0.00000E+00
 -1      3241 1.22973E+02 1.00323E+01 0.00000E+00
 -1      3242 1.21473E+02 1.00323E+01 0.00000E+00
 -1      3243 1.20723E+02 1.13313E+01 0.00000E+00
 -1      3244 1.25973E+02 1.00323E+01 0.00000E+00
 -1      3245 1.24473E+02 1.00323E+01 0.00000E+00
 -1      3246 1.23723E+02 1.13313E+01 0.00000E+00
 -1      3247 1.28973E+02 1.00323E+01 0.00000E+00
 -1      3248 1.27473E+02 1.00323E+01 0.00000E+00
 -1      3249 1.26723E+02 1.13313E+01 0.00000E+00
 -1      3250 1.31973E+02 1.00323E+01 0.00000E+00
 -1      3251 1.30473E+02 1.00323E+01 0.00000E+00
 -1      3252 1.29723E+02 1.13313E+01 0.00000E+00
 -1      3253 1.34973E+02 1.00323E+01 0.00000E+00
 -1      3254 1.33473E+02 1.00323E+01 0.00000E+00
 -1      3255 1.32723E+02 1.13313E+01 0.00000E+00
 -1      3256 1.38309E+02 2.86750E+01 0.00000E+00
 -1      3257 1.38309E+02 2.72250E+01 0.00000E+00
 -1      3258 1.38309E+02 2.57500E+01 0.00000E+00
 -1      3259 1.38309E+02 2.42750E+01 0.00000E+00
 -1      3260 1.37010E+02 2.64750E+01 0.00000E+00
 -1      3261 6.75493E+01 3.28496E+01 0.00000E+00
 -1      3262 6.62551E+01 3.20109E+01 0.00000E+00
 -1      3263 6.57170E+01 1.04940E+01 0.00000E+00
 -1      3264 8.83955E+01 2.17040E+01 0.00000E+00
 -1      3265 8.81894E+01 2.29509E+01 0.00000E+00
 -1      3266 1.59000E+01 3.83090E+01 0.00000E+00
 -1      3267 1.74000E+01 3.83090E+01 0.00000E+00
 -1      3268 1.81500E+01 3.70100E+01 0.00000E+00
 -1      3269 7.22712E+01 3.49795E+01 0.00000E+00
 -1      3270 7.09730E+01 3.45810E+01 0.00000E+00
 -1      3271 8.67098E+01 2.70014E+01 0.00000E+00
 -1      3272 8.61909E+01 2.80019E+01 0.00000E+00
 -1      3273 8.65027E+01 1.35381E+01 0.00000E+00
 -1      3274 8.70293E+01 1.48098E+01 0.00000E+00
 -1      3275 1.05570E+01 3.73671E+01 0.00000E+00
 -1      3276 1.97850E+01 1.05013E+01 0.00000E+00
 -1      3277 1.82850E+01 1.05013E+01 0.00000E+00
 -1      3278 2.05350E+01 1.18003E+01 0.00000E+00
 -1      3279 8.56599E+01 2.92397E+01 0.00000E+00
 -1      3280 8.49246E+01 3.03791E+01 0.00000E+00
 -1      3281 1.38309E+02 3.16250E+01 0.00000E+00
 -1      3282 1.38309E+02 3.01500E+01 0.00000E+00
 -1      3283 1.37010E+02 2.94250E+01 0.00000E+00
 -1      3284 1.38309E+02 3.45750E+01 0.00000E+00
 -1      3285 1.38309E+02 3.31000E+01 0.00000E+00
 -1      3286 1.37010E+02 3.23750E+01 0.00000E+00
 -1      3287 1.39407E+02 1.25250E+01 0.00000E+00
 -1      3288 3.77850E+01 1.05013E+01 0.00000E+00
 -1      3289 3.62850E+01 1.05013E+01 0.00000E+00
 -1      3290 3.55350E+01 1.18003E+01 0.00000E+00
 -1      3291 3.85350E+01 1.18003E+01 0.00000E+00
 -1      3292 1.21215E+01 3.78040E+01 0.00000E+00
 -1      3293 1.43355E+01 3.78721E+01 0.00000E+00
 -1      3294 1.50855E+01 3.65731E+01 0.00000E+00
 -1      3295 1.19565E+01 3.56994E+01 0.00000E+00
 -1      3296 6.37456E+01 1.24659E+01 0.00000E+00
 -1      3297 6.47020E+01 1.15252E+01 0.00000E+00
 -1      3298 8.84511E+01 1.89862E+01 0.00000E+00
 -1      3299 8.84915E+01 2.02492E+01 0.00000E+00
 -1      3300 1.16910E+01 2.12875E+01 0.00000E+00
 -1      3301 1.16910E+01 2.27625E+01 0.00000E+00
 -1      3302 6.50101E+01 3.09454E+01 0.00000E+00
 -1      3303 6.42752E+01 3.00622E+01 0.00000E+00
 -1      3304 8.75984E+01 1.60686E+01 0.00000E+00
 -1      3305 8.81675E+01 1.73274E+01 0.00000E+00
 -1      3306 8.83597E+01 1.50085E+01 0.00000E+00
 -1      3307 8.77187E+01 2.42812E+01 0.00000E+00
 -1      3308 8.72480E+01 2.56115E+01 0.00000E+00
 -1      3309 8.88331E+01 2.38249E+01 0.00000E+00
 -1      3310 1.26488E+01 1.02017E+01 0.00000E+00
 -1      3311 1.20772E+01 1.14631E+01 0.00000E+00
 -1      3312 1.33763E+01 1.22006E+01 0.00000E+00
 -1      3313 1.41488E+01 1.02017E+01 0.00000E+00
 -1      3314 6.19504E+01 2.68922E+01 0.00000E+00
 -1      3315 6.14110E+01 2.56239E+01 0.00000E+00
 -1      3316 6.10002E+01 2.39204E+01 0.00000E+00
 -1      3317 6.08746E+01 2.24135E+01 0.00000E+00
 -1      3318 6.96764E+01 3.40589E+01 0.00000E+00
 -1      3319 6.87409E+01 3.35623E+01 0.00000E+00
 -1      3320 6.35091E+01 2.91423E+01 0.00000E+00
 -1      3321 6.27430E+01 2.82224E+01 0.00000E+00
 -1      3322 6.30885E+01 3.02396E+01 0.00000E+00
 -1      3323 8.37254E+01 3.17087E+01 0.00000E+00
 -1      3324 8.25040E+01 3.27289E+01 0.00000E+00
 -1      3325 8.13631E+01 3.36560E+01 0.00000E+00
 -1      3326 8.05501E+01 3.41159E+01 0.00000E+00
 -1      3327 8.45015E+01 1.10641E+01 0.00000E+00
 -1      3328 8.54964E+01 1.20462E+01 0.00000E+00
 -1      3329 6.45200E+01 1.02335E+01 0.00000E+00
 -1      3330 1.29900E+01 1.46687E+01 0.00000E+00
 -1      3331 1.16910E+01 1.54063E+01 0.00000E+00
 -1      3332 1.16910E+01 1.68750E+01 0.00000E+00
 -1      3333 7.00247E+01 3.52382E+01 0.00000E+00
 -1      3334 1.19565E+01 3.27619E+01 0.00000E+00
 -1      3335 1.19565E+01 3.42306E+01 0.00000E+00
 -1      3336 1.35210E+01 3.46675E+01 0.00000E+00
 -1      3337 7.29000E+01 3.83090E+01 0.00000E+00
 -1      3338 7.44000E+01 3.83090E+01 0.00000E+00
 -1      3339 7.51500E+01 3.70100E+01 0.00000E+00
 -1      3340 7.21500E+01 3.70100E+01 0.00000E+00
 -1      3341 8.50248E+01 3.17403E+01 0.00000E+00
 -1      3342 5.97851E+01 1.93274E+01 0.00000E+00
 -1      3343 6.07919E+01 1.88439E+01 0.00000E+00
 -1      3344 6.04681E+01 1.80161E+01 0.00000E+00
 -1      3345 2.95350E+01 1.18003E+01 0.00000E+00
 -1      3346 2.87850E+01 1.05013E+01 0.00000E+00
 -1      3347 2.72850E+01 1.05013E+01 0.00000E+00
 -1      3348 6.30200E+01 1.02335E+01 0.00000E+00
 -1      3349 6.22700E+01 1.15325E+01 0.00000E+00
 -1      3350 6.25106E+01 1.27337E+01 0.00000E+00
 -1      3351 8.75006E+01 1.10486E+01 0.00000E+00
 -1      3352 8.67506E+01 9.74961E+00 0.00000E+00
 -1      3353 1.19565E+01 2.98119E+01 0.00000E+00
 -1      3354 1.19565E+01 3.12869E+01 0.00000E+00
 -1      3355 1.35210E+01 3.17237E+01 0.00000E+00
 -1      3356 6.50997E+01 3.22250E+01 0.00000E+00
 -1      3357 1.37465E+02 9.52913E+00 0.00000E+00
 -1      3358 1.38309E+02 1.98625E+01 0.00000E+00
 -1      3359 1.38309E+02 1.83875E+01 0.00000E+00
 -1      3360 6.00123E+01 2.17036E+01 0.00000E+00
 -1      3361 2.57850E+01 1.05013E+01 0.00000E+00
 -1      3362 2.42850E+01 1.05013E+01 0.00000E+00
 -1      3363 2.65350E+01 1.18003E+01 0.00000E+00
 -1      3364 1.38309E+02 1.69250E+01 0.00000E+00
 -1      3365 1.38309E+02 1.54625E+01 0.00000E+00
 -1      3366 1.37010E+02 1.76625E+01 0.00000E+00
 -1      3367 6.75364E+01 3.40033E+01 0.00000E+00
 -1      3368 1.38309E+02 2.28062E+01 0.00000E+00
 -1      3369 1.38309E+02 2.13312E+01 0.00000E+00
 -1      3370 1.37010E+02 2.05938E+01 0.00000E+00
 -1      3371 1.37010E+02 2.35313E+01 0.00000E+00
 -1      3372 8.93999E+01 2.10397E+01 0.00000E+00
 -1      3373 8.67550E+01 2.91729E+01 0.00000E+00
 -1      3374 8.78242E+01 2.65451E+01 0.00000E+00
 -1      3375 1.16910E+01 2.42313E+01 0.00000E+00
 -1      3376 1.16910E+01 2.57000E+01 0.00000E+00
 -1      3377 1.29900E+01 2.34937E+01 0.00000E+00
 -1      3378 8.39741E+01 1.00477E+01 0.00000E+00
 -1      3379 8.52506E+01 9.74961E+00 0.00000E+00
 -1      3380 1.38061E+02 1.16766E+01 0.00000E+00
 -1      3381 1.36319E+02 1.08807E+01 0.00000E+00
 -1      3382 1.35569E+02 1.21797E+01 0.00000E+00
 -1      3383 1.38262E+02 1.38766E+01 0.00000E+00
 -1      3384 6.17379E+01 1.32710E+01 0.00000E+00
 -1      3385 8.30058E+01 9.30738E+00 0.00000E+00
 -1      3386 8.26847E+01 3.39970E+01 0.00000E+00
 -1      3387 8.67843E+01 1.22578E+01 0.00000E+00
 -1      3388 1.16910E+01 1.83469E+01 0.00000E+00
 -1      3389 1.16910E+01 1.98156E+01 0.00000E+00
 -1      3390 1.29900E+01 2.05531E+01 0.00000E+00
 -1      3391 1.29900E+01 1.76094E+01 0.00000E+00
 -1      3392 1.69669E+01 1.03515E+01 0.00000E+00
 -1      3393 1.54669E+01 1.03515E+01 0.00000E+00
 -1      3394 1.50806E+01 1.13509E+01 0.00000E+00
 -1      3395 1.77169E+01 1.16505E+01 0.00000E+00
 -1      3396 6.03266E+01 2.49557E+01 0.00000E+00
 -1      3397 8.92124E+01 1.79261E+01 0.00000E+00
 -1      3398 6.19579E+01 1.61372E+01 0.00000E+00
 -1      3399 6.16229E+01 1.51825E+01 0.00000E+00
 -1      3400 6.11399E+01 1.65780E+01 0.00000E+00
 -1      3401 7.96032E+01 3.51589E+01 0.00000E+00
 -1      3402 7.80715E+01 3.59037E+01 0.00000E+00
 -1      3403 2.35350E+01 1.18003E+01 0.00000E+00
 -1      3404 7.65715E+01 3.59037E+01 0.00000E+00
 -1      3405 7.50715E+01 3.59037E+01 0.00000E+00
 -1      3406 6.15299E+01 2.79895E+01 0.00000E+00
 -1      3407 7.34356E+01 3.56044E+01 0.00000E+00
 -1      3408 1.37758E+02 3.64975E+01 0.00000E+00
 -1      3409 1.38123E+02 3.54205E+01 0.00000E+00
 -1      3410 1.36824E+02 3.46955E+01 0.00000E+00
 -1      3411 1.36451E+02 3.63865E+01 0.00000E+00
 -1      3412 6.24734E+01 3.15309E+01 0.00000E+00
 -1      3413 6.17073E+01 3.06110E+01 0.00000E+00
 -1      3414 8.15058E+01 9.30738E+00 0.00000E+00
 -1      3415 6.49467E+01 3.36639E+01 0.00000E+00
 -1      3416 6.37017E+01 3.25984E+01 0.00000E+00
 -1      3417 8.65890E+01 3.19455E+01 0.00000E+00
 -1      3418 8.53898E+01 3.32751E+01 0.00000E+00
 -1      3419 2.34000E+01 3.57110E+01 0.00000E+00
 -1      3420 2.49000E+01 3.57110E+01 0.00000E+00
 -1      3421 2.64000E+01 3.57110E+01 0.00000E+00
 -1      3422 2.79000E+01 3.57110E+01 0.00000E+00
 -1      3423 2.56500E+01 3.44120E+01 0.00000E+00
 -1      3424 2.94000E+01 3.57110E+01 0.00000E+00
 -1      3425 3.09000E+01 3.57110E+01 0.00000E+00
 -1      3426 2.86500E+01 3.44120E+01 0.00000E+00
 -1      3427 3.24000E+01 3.57110E+01 0.00000E+00
 -1      3428 3.39000E+01 3.57110E+01 0.00000E+00
 -1      3429 3.16500E+01 3.44120E+01 0.00000E+00
 -1      3430 3.54000E+01 3.57110E+01 0.00000E+00
 -1      3431 3.69000E+01 3.57110E+01 0.00000E+00
 -1      3432 3.46500E+01 3.44120E+01 0.00000E+00
 -1      3433 3.84000E+01 3.57110E+01 0.00000E+00
 -1      3434 3.99000E+01 3.57110E+01 0.00000E+00
 -1      3435 3.76500E+01 3.44120E+01 0.00000E+00
 -1      3436 4.14000E+01 3.57110E+01 0.00000E+00
 -1      3437 4.29000E+01 3.57110E+01 0.00000E+00
 -1      3438 4.06500E+01 3.44120E+01 0.00000E+00
 -1      3439 4.44000E+01 3.57110E+01 0.00000E+00
 -1      3440 4.59000E+01 3.57110E+01 0.00000E+00
 -1      3441 4.36500E+01 3.44120E+01 0.00000E+00
 -1      3442 4.74000E+01 3.57110E+01 0.00000E+00
 -1      3443 4.89000E+01 3.57110E+01 0.00000E+00
 -1      3444 4.66500E+01 3.44120E+01 0.00000E+00
 -1      3445 5.04000E+01 3.57110E+01 0.00000E+00
 -1      3446 5.19000E+01 3.57110E+01 0.00000E+00
 -1      3447 4.96500E+01 3.44120E+01 0.00000E+00
 -1      3448 5.34000E+01 3.57110E+01 0.00000E+00
 -1      3449 5.49000E+01 3.57110E+01 0.00000E+00
 -1      3450 5.26500E+01 3.44120E+01 0.00000E+00
 -1      3451 5.64000E+01 3.57110E+01 0.00000E+00
 -1      3452 5.79000E+01 3.57110E+01 0.00000E+00
 -1      3453 5.56500E+01 3.44120E+01 0.00000E+00
 -1      3454 6.25993E+01 3.55237E+01 0.00000E+00
 -1      3455 6.40993E+01 3.55237E+01 0.00000E+00
 -1      3456 8.63020E+01 3.52452E+01 0.00000E+00
 -1      3457 8.78020E+01 3.52452E+01 0.00000E+00
 -1      3458 8.93020E+01 3.52452E+01 0.00000E+00
 -1      3459 9.08020E+01 3.52452E+01 0.00000E+00
 -1      3460 8.84540E+01 3.34803E+01 0.00000E+00
 -1      3461 9.23020E+01 3.52452E+01 0.00000E+00
 -1      3462 9.38020E+01 3.52452E+01 0.00000E+00
 -1      3463 9.14540E+01 3.34803E+01 0.00000E+00
 -1      3464 9.53020E+01 3.52452E+01 0.00000E+00
 -1      3465 9.68020E+01 3.52452E+01 0.00000E+00
 -1      3466 9.44540E+01 3.34803E+01 0.00000E+00
 -1      3467 9.83020E+01 3.52452E+01 0.00000E+00
 -1      3468 9.98020E+01 3.52452E+01 0.00000E+00
 -1      3469 9.74540E+01 3.34803E+01 0.00000E+00
 -1      3470 1.01302E+02 3.52452E+01 0.00000E+00
 -1      3471 1.02802E+02 3.52452E+01 0.00000E+00
 -1      3472 1.00454E+02 3.34803E+01 0.00000E+00
 -1      3473 1.04302E+02 3.52452E+01 0.00000E+00
 -1      3474 1.05802E+02 3.52452E+01 0.00000E+00
 -1      3475 1.03454E+02 3.34803E+01 0.00000E+00
 -1      3476 1.07302E+02 3.52452E+01 0.00000E+00
 -1      3477 1.08802E+02 3.52452E+01 0.00000E+00
 -1      3478 1.06454E+02 3.34803E+01 0.00000E+00
 -1      3479 1.10302E+02 3.52452E+01 0.00000E+00
 -1      3480 1.11802E+02 3.52452E+01 0.00000E+00
 -1      3481 1.09454E+02 3.34803E+01 0.00000E+00
 -1      3482 1.13302E+02 3.52452E+01 0.00000E+00
 -1      3483 1.14802E+02 3.52452E+01 0.00000E+00
 -1      3484 1.12454E+02 3.34803E+01 0.00000E+00
 -1      3485 1.16302E+02 3.52452E+01 0.00000E+00
 -1      3486 1.17802E+02 3.52452E+01 0.00000E+00
 -1      3487 1.15454E+02 3.34803E+01 0.00000E+00
 -1      3488 1.19302E+02 3.52452E+01 0.00000E+00
 -1      3489 1.20802E+02 3.52452E+01 0.00000E+00
 -1      3490 1.18454E+02 3.34803E+01 0.00000E+00
 -1      3491 1.22302E+02 3.52452E+01 0.00000E+00
 -1      3492 1.23802E+02 3.52452E+01 0.00000E+00
 -1      3493 1.21454E+02 3.34803E+01 0.00000E+00
 -1      3494 1.25302E+02 3.52452E+01 0.00000E+00
 -1      3495 1.26802E+02 3.52452E+01 0.00000E+00
 -1      3496 1.24454E+02 3.34803E+01 0.00000E+00
 -1      3497 1.28302E+02 3.52452E+01 0.00000E+00
 -1      3498 1.29802E+02 3.52452E+01 0.00000E+00
 -1      3499 1.27454E+02 3.34803E+01 0.00000E+00
 -1      3500 1.31302E+02 3.52452E+01 0.00000E+00
 -1      3501 1.32802E+02 3.52452E+01 0.00000E+00
 -1      3502 1.30454E+02 3.34803E+01 0.00000E+00
 -1      3503 6.09148E+01 2.92808E+01 0.00000E+00
 -1      3504 6.01223E+01 2.79506E+01 0.00000E+00
 -1      3505 6.02996E+01 3.05720E+01 0.00000E+00
 -1      3506 4.52850E+01 1.30992E+01 0.00000E+00
 -1      3507 4.37850E+01 1.30992E+01 0.00000E+00
 -1      3508 4.22850E+01 1.30992E+01 0.00000E+00
 -1      3509 4.07850E+01 1.30992E+01 0.00000E+00
 -1      3510 4.30350E+01 1.43982E+01 0.00000E+00
 -1      3511 5.12850E+01 1.30992E+01 0.00000E+00
 -1      3512 4.97850E+01 1.30992E+01 0.00000E+00
 -1      3513 5.42850E+01 1.30992E+01 0.00000E+00
 -1      3514 5.27850E+01 1.30992E+01 0.00000E+00
 -1      3515 5.20350E+01 1.43982E+01 0.00000E+00
 -1      3516 5.72850E+01 1.30992E+01 0.00000E+00
 -1      3517 5.57850E+01 1.30992E+01 0.00000E+00
 -1      3518 5.50350E+01 1.43982E+01 0.00000E+00
 -1      3519 1.35711E+02 2.72125E+01 0.00000E+00
 -1      3520 1.35711E+02 2.57375E+01 0.00000E+00
 -1      3521 9.74732E+01 1.26303E+01 0.00000E+00
 -1      3522 9.59732E+01 1.26303E+01 0.00000E+00
 -1      3523 8.90856E+01 1.39223E+01 0.00000E+00
 -1      3524 8.96547E+01 1.51811E+01 0.00000E+00
 -1      3525 9.13019E+01 1.27131E+01 0.00000E+00
 -1      3526 8.98019E+01 1.27131E+01 0.00000E+00
 -1      3527 1.00473E+02 1.26303E+01 0.00000E+00
 -1      3528 9.89732E+01 1.26303E+01 0.00000E+00
 -1      3529 9.82232E+01 1.39293E+01 0.00000E+00
 -1      3530 1.03473E+02 1.26303E+01 0.00000E+00
 -1      3531 1.01973E+02 1.26303E+01 0.00000E+00
 -1      3532 1.01223E+02 1.39293E+01 0.00000E+00
 -1      3533 1.06473E+02 1.26303E+01 0.00000E+00
 -1      3534 1.04973E+02 1.26303E+01 0.00000E+00
 -1      3535 1.04223E+02 1.39293E+01 0.00000E+00
 -1      3536 1.09473E+02 1.26303E+01 0.00000E+00
 -1      3537 1.07973E+02 1.26303E+01 0.00000E+00
 -1      3538 1.07223E+02 1.39293E+01 0.00000E+00
 -1      3539 1.12473E+02 1.26303E+01 0.00000E+00
 -1      3540 1.10973E+02 1.26303E+01 0.00000E+00
 -1      3541 1.10223E+02 1.39293E+01 0.00000E+00
 -1      3542 1.15473E+02 1.26303E+01 0.00000E+00
 -1      3543 1.13973E+02 1.26303E+01 0.00000E+00
 -1      3544 1.13223E+02 1.39293E+01 0.00000E+00
 -1      3545 1.18473E+02 1.26303E+01 0.00000E+00
 -1      3546 1.16973E+02 1.26303E+01 0.00000E+00
 -1      3547 1.16223E+02 1.39293E+01 0.00000E+00
 -1      3548 1.21473E+02 1.26303E+01 0.00000E+00
 -1      3549 1.19973E+02 1.26303E+01 0.00000E+00
 -1      3550 1.19223E+02 1.39293E+01 0.00000E+00
 -1      3551 1.24473E+02 1.26303E+01 0.00000E+00
 -1      3552 1.22973E+02 1.26303E+01 0.00000E+00
 -1      3553 1.22223E+02 1.39293E+01 0.00000E+00
 -1      3554 1.27473E+02 1.26303E+01 0.00000E+00
 -1      3555 1.25973E+02 1.26303E+01 0.00000E+00
 -1      3556 1.25223E+02 1.39293E+01 0.00000E+00
 -1      3557 1.30473E+02 1.26303E+01 0.00000E+00
 -1      3558 1.28973E+02 1.26303E+01 0.00000E+00
 -1      3559 1.28223E+02 1.39293E+01 0.00000E+00
 -1      3560 1.33473E+02 1.26303E+01 0.00000E+00
 -1      3561 1.31973E+02 1.26303E+01 0.00000E+00
 -1      3562 1.31223E+02 1.39293E+01 0.00000E+00
 -1      3563 1.35711E+02 3.31125E+01 0.00000E+00
 -1      3564 1.35711E+02 3.16375E+01 0.00000E+00
 -1      3565 5.87737E+01 2.24037E+01 0.00000E+00
 -1      3566 5.88702E+01 2.08552E+01 0.00000E+00
 -1      3567 9.05544E+01 2.03853E+01 0.00000E+00
 -1      3568 9.04584E+01 2.18402E+01 0.00000E+00
 -1      3569 5.94540E+01 2.60675E+01 0.00000E+00
 -1      3570 5.90432E+01 2.43639E+01 0.00000E+00
 -1      3571 1.74000E+01 3.57110E+01 0.00000E+00
 -1      3572 1.89000E+01 3.57110E+01 0.00000E+00
 -1      3573 7.24856E+01 3.63851E+01 0.00000E+00
 -1      3574 2.12850E+01 1.30992E+01 0.00000E+00
 -1      3575 1.97850E+01 1.30992E+01 0.00000E+00
 -1      3576 8.90493E+01 2.62203E+01 0.00000E+00
 -1      3577 8.85111E+01 2.76102E+01 0.00000E+00
 -1      3578 1.35711E+02 3.01625E+01 0.00000E+00
 -1      3579 1.35711E+02 2.86875E+01 0.00000E+00
 -1      3580 1.34412E+02 2.79500E+01 0.00000E+00
 -1      3581 1.34412E+02 3.09000E+01 0.00000E+00
 -1      3582 6.09304E+01 1.42268E+01 0.00000E+00
 -1      3583 6.02275E+01 1.27560E+01 0.00000E+00
 -1      3584 5.87275E+01 1.27560E+01 0.00000E+00
 -1      3585 6.01125E+01 1.46676E+01 0.00000E+00
 -1      3586 4.82850E+01 1.30992E+01 0.00000E+00
 -1      3587 4.67850E+01 1.30992E+01 0.00000E+00
 -1      3588 4.60350E+01 1.43982E+01 0.00000E+00
 -1      3589 4.90350E+01 1.43982E+01 0.00000E+00
 -1      3590 3.32850E+01 1.30992E+01 0.00000E+00
 -1      3591 3.17850E+01 1.30992E+01 0.00000E+00
 -1      3592 8.81166E+01 2.90241E+01 0.00000E+00
 -1      3593 8.75856E+01 3.02620E+01 0.00000E+00
 -1      3594 8.05969E+01 3.59670E+01 0.00000E+00
 -1      3595 9.44732E+01 1.26303E+01 0.00000E+00
 -1      3596 9.29732E+01 1.26303E+01 0.00000E+00
 -1      3597 9.52232E+01 1.39293E+01 0.00000E+00
 -1      3598 8.85069E+01 1.25405E+01 0.00000E+00
 -1      3599 2.42850E+01 1.30992E+01 0.00000E+00
 -1      3600 2.27850E+01 1.30992E+01 0.00000E+00
 -1      3601 2.20350E+01 1.43982E+01 0.00000E+00
 -1      3602 2.04000E+01 3.57110E+01 0.00000E+00
 -1      3603 2.19000E+01 3.57110E+01 0.00000E+00
 -1      3604 2.26500E+01 3.44120E+01 0.00000E+00
 -1      3605 9.00349E+01 2.35017E+01 0.00000E+00
 -1      3606 8.95642E+01 2.48320E+01 0.00000E+00
 -1      3607 1.18237E+01 2.70216E+01 0.00000E+00
 -1      3608 1.18237E+01 2.84903E+01 0.00000E+00
 -1      3609 1.33883E+01 2.89272E+01 0.00000E+00
 -1      3610 1.31228E+01 2.62841E+01 0.00000E+00
 -1      3611 9.00811E+01 1.69240E+01 0.00000E+00
 -1      3612 9.03646E+01 1.85828E+01 0.00000E+00
 -1      3613 8.20969E+01 3.59670E+01 0.00000E+00
 -1      3614 6.54973E+01 3.51503E+01 0.00000E+00
 -1      3615 8.47378E+01 3.50399E+01 0.00000E+00
 -1      3616 7.09856E+01 3.63851E+01 0.00000E+00
 -1      3617 8.32378E+01 3.50399E+01 0.00000E+00
 -1      3618 6.10299E+01 3.55676E+01 0.00000E+00
 -1      3619 6.19793E+01 3.40813E+01 0.00000E+00
 -1      3620 5.95299E+01 3.55676E+01 0.00000E+00
 -1      3621 5.88388E+01 2.73587E+01 0.00000E+00
 -1      3622 6.69973E+01 3.51503E+01 0.00000E+00
 -1      3623 6.81890E+01 3.58630E+01 0.00000E+00
 -1      3624 6.96890E+01 3.58630E+01 0.00000E+00
 -1      3625 5.85465E+01 2.00274E+01 0.00000E+00
 -1      3626 5.82227E+01 1.91996E+01 0.00000E+00
 -1      3627 5.73078E+01 2.07275E+01 0.00000E+00
 -1      3628 1.33183E+02 3.29277E+01 0.00000E+00
 -1      3629 1.34031E+02 3.46925E+01 0.00000E+00
 -1      3630 3.47850E+01 1.30992E+01 0.00000E+00
 -1      3631 3.40350E+01 1.43982E+01 0.00000E+00
 -1      3632 3.62850E+01 1.30992E+01 0.00000E+00
 -1      3633 3.02850E+01 1.30992E+01 0.00000E+00
 -1      3634 2.87850E+01 1.30992E+01 0.00000E+00
 -1      3635 3.10350E+01 1.43982E+01 0.00000E+00
 -1      3636 1.46783E+01 3.49708E+01 0.00000E+00
 -1      3637 1.62428E+01 3.54077E+01 0.00000E+00
 -1      3638 1.69928E+01 3.41087E+01 0.00000E+00
 -1      3639 1.46783E+01 3.35021E+01 0.00000E+00
 -1      3640 5.87799E+01 3.42686E+01 0.00000E+00
 -1      3641 1.46783E+01 3.20271E+01 0.00000E+00
 -1      3642 1.58355E+01 3.23304E+01 0.00000E+00
 -1      3643 1.46783E+01 3.05521E+01 0.00000E+00
 -1      3644 4.00350E+01 1.43982E+01 0.00000E+00
 -1      3645 3.92850E+01 1.30992E+01 0.00000E+00
 -1      3646 3.77850E+01 1.30992E+01 0.00000E+00
 -1      3647 5.79775E+01 1.40550E+01 0.00000E+00
 -1      3648 5.79011E+01 2.35154E+01 0.00000E+00
 -1      3649 9.08069E+01 1.58378E+01 0.00000E+00
 -1      3650 6.23204E+01 3.29698E+01 0.00000E+00
 -1      3651 1.34819E+02 1.34787E+01 0.00000E+00
 -1      3652 1.35330E+02 3.54300E+01 0.00000E+00
 -1      3653 9.02510E+01 2.58971E+01 0.00000E+00
 -1      3654 9.11894E+01 2.28473E+01 0.00000E+00
 -1      3655 2.72850E+01 1.30992E+01 0.00000E+00
 -1      3656 2.57850E+01 1.30992E+01 0.00000E+00
 -1      3657 2.50350E+01 1.43982E+01 0.00000E+00
 -1      3658 2.80350E+01 1.43982E+01 0.00000E+00
 -1      3659 1.35711E+02 1.83937E+01 0.00000E+00
 -1      3660 1.35711E+02 1.69312E+01 0.00000E+00
 -1      3661 1.35711E+02 2.42687E+01 0.00000E+00
 -1      3662 1.35711E+02 2.28000E+01 0.00000E+00
 -1      3663 1.34412E+02 2.50063E+01 0.00000E+00
 -1      3664 1.96500E+01 3.44120E+01 0.00000E+00
 -1      3665 1.42890E+01 1.39344E+01 0.00000E+00
 -1      3666 1.42890E+01 1.54031E+01 0.00000E+00
 -1      3667 1.36963E+02 1.46141E+01 0.00000E+00
 -1      3668 1.42890E+01 2.27594E+01 0.00000E+00
 -1      3669 1.42890E+01 2.42281E+01 0.00000E+00
 -1      3670 8.93417E+01 2.86994E+01 0.00000E+00
 -1      3671 1.42890E+01 2.12875E+01 0.00000E+00
 -1      3672 1.55880E+01 2.20219E+01 0.00000E+00
 -1      3673 1.42890E+01 1.98156E+01 0.00000E+00
 -1      3674 9.20519E+01 1.40121E+01 0.00000E+00
 -1      3675 9.14231E+01 1.93832E+01 0.00000E+00
 -1      3676 1.84669E+01 1.29495E+01 0.00000E+00
 -1      3677 1.71488E+01 1.27997E+01 0.00000E+00
 -1      3678 1.92169E+01 1.42485E+01 0.00000E+00
 -1      3679 6.01332E+01 1.70615E+01 0.00000E+00
 -1      3680 5.97982E+01 1.61068E+01 0.00000E+00
 -1      3681 5.91264E+01 1.75449E+01 0.00000E+00
 -1      3682 8.79506E+01 3.17968E+01 0.00000E+00
 -1      3683 1.35711E+02 2.13312E+01 0.00000E+00
 -1      3684 1.35711E+02 1.98625E+01 0.00000E+00
 -1      3685 1.34412E+02 1.91313E+01 0.00000E+00
 -1      3686 5.79488E+01 2.87347E+01 0.00000E+00
 -1      3687 5.72805E+01 2.68516E+01 0.00000E+00
 -1      3688 2.79000E+01 3.31130E+01 0.00000E+00
 -1      3689 2.94000E+01 3.31130E+01 0.00000E+00
 -1      3690 3.09000E+01 3.31130E+01 0.00000E+00
 -1      3691 3.24000E+01 3.31130E+01 0.00000E+00
 -1      3692 3.01500E+01 3.18140E+01 0.00000E+00
 -1      3693 3.39000E+01 3.31130E+01 0.00000E+00
 -1      3694 3.54000E+01 3.31130E+01 0.00000E+00
 -1      3695 3.31500E+01 3.18140E+01 0.00000E+00
 -1      3696 3.69000E+01 3.31130E+01 0.00000E+00
 -1      3697 3.84000E+01 3.31130E+01 0.00000E+00
 -1      3698 3.61500E+01 3.18140E+01 0.00000E+00
 -1      3699 3.99000E+01 3.31130E+01 0.00000E+00
 -1      3700 4.14000E+01 3.31130E+01 0.00000E+00
 -1      3701 3.91500E+01 3.18140E+01 0.00000E+00
 -1      3702 4.29000E+01 3.31130E+01 0.00000E+00
 -1      3703 4.44000E+01 3.31130E+01 0.00000E+00
 -1      3704 4.21500E+01 3.18140E+01 0.00000E+00
 -1      3705 4.59000E+01 3.31130E+01 0.00000E+00
 -1      3706 4.74000E+01 3.31130E+01 0.00000E+00
 -1      3707 4.51500E+01 3.18140E+01 0.00000E+00
 -1      3708 4.89000E+01 3.31130E+01 0.00000E+00
 -1      3709 5.04000E+01 3.31130E+01 0.00000E+00
 -1      3710 4.81500E+01 3.18140E+01 0.00000E+00
 -1      3711 5.19000E+01 3.31130E+01 0.00000E+00
 -1      3712 5.34000E+01 3.31130E+01 0.00000E+00
 -1      3713 5.11500E+01 3.18140E+01 0.00000E+00
 -1      3714 5.49000E+01 3.31130E+01 0.00000E+00
 -1      3715 5.64000E+01 3.31130E+01 0.00000E+00
 -1      3716 5.41500E+01 3.18140E+01 0.00000E+00
 -1      3717 1.31954E+02 3.20053E+01 0.00000E+00
 -1      3718 1.33183E+02 3.14527E+01 0.00000E+00
 -1      3719 1.33183E+02 2.99777E+01 0.00000E+00
 -1      3720 6.07510E+01 3.30137E+01 0.00000E+00
 -1      3721 9.07040E+01 3.21813E+01 0.00000E+00
 -1      3722 9.22040E+01 3.21813E+01 0.00000E+00
 -1      3723 9.37040E+01 3.21813E+01 0.00000E+00
 -1      3724 9.52040E+01 3.21813E+01 0.00000E+00
 -1      3725 9.29540E+01 3.08823E+01 0.00000E+00
 -1      3726 9.67040E+01 3.21813E+01 0.00000E+00
 -1      3727 9.82040E+01 3.21813E+01 0.00000E+00
 -1      3728 9.59540E+01 3.08823E+01 0.00000E+00
 -1      3729 9.97040E+01 3.21813E+01 0.00000E+00
 -1      3730 1.01204E+02 3.21813E+01 0.00000E+00
 -1      3731 9.89540E+01 3.08823E+01 0.00000E+00
 -1      3732 1.02704E+02 3.21813E+01 0.00000E+00
 -1      3733 1.04204E+02 3.21813E+01 0.00000E+00
 -1      3734 1.01954E+02 3.08823E+01 0.00000E+00
 -1      3735 1.05704E+02 3.21813E+01 0.00000E+00
 -1      3736 1.07204E+02 3.21813E+01 0.00000E+00
 -1      3737 1.04954E+02 3.08823E+01 0.00000E+00
 -1      3738 1.08704E+02 3.21813E+01 0.00000E+00
 -1      3739 1.10204E+02 3.21813E+01 0.00000E+00
 -1      3740 1.07954E+02 3.08823E+01 0.00000E+00
 -1      3741 1.11704E+02 3.21813E+01 0.00000E+00
 -1      3742 1.13204E+02 3.21813E+01 0.00000E+00
 -1      3743 1.10954E+02 3.08823E+01 0.00000E+00
 -1      3744 1.14704E+02 3.21813E+01 0.00000E+00
 -1      3745 1.16204E+02 3.21813E+01 0.00000E+00
 -1      3746 1.13954E+02 3.08823E+01 0.00000E+00
 -1      3747 1.17704E+02 3.21813E+01 0.00000E+00
 -1      3748 1.19204E+02 3.21813E+01 0.00000E+00
 -1      3749 1.16954E+02 3.08823E+01 0.00000E+00
 -1      3750 1.20704E+02 3.21813E+01 0.00000E+00
 -1      3751 1.22204E+02 3.21813E+01 0.00000E+00
 -1      3752 1.19954E+02 3.08823E+01 0.00000E+00
 -1      3753 1.23704E+02 3.21813E+01 0.00000E+00
 -1      3754 1.25204E+02 3.21813E+01 0.00000E+00
 -1      3755 1.22954E+02 3.08823E+01 0.00000E+00
 -1      3756 1.26704E+02 3.21813E+01 0.00000E+00
 -1      3757 1.28204E+02 3.21813E+01 0.00000E+00
 -1      3758 1.25954E+02 3.08823E+01 0.00000E+00
 -1      3759 1.29329E+02 3.20933E+01 0.00000E+00
 -1      3760 1.30829E+02 3.20933E+01 0.00000E+00
 -1      3761 1.30829E+02 3.06183E+01 0.00000E+00
 -1      3762 1.28579E+02 3.07943E+01 0.00000E+00
 -1      3763 5.95338E+01 3.13951E+01 0.00000E+00
 -1      3764 5.87413E+01 3.00649E+01 0.00000E+00
 -1      3765 5.71830E+01 2.95578E+01 0.00000E+00
 -1      3766 1.35144E+02 3.62755E+01 0.00000E+00
 -1      3767 5.57850E+01 1.56973E+01 0.00000E+00
 -1      3768 5.42850E+01 1.56973E+01 0.00000E+00
 -1      3769 5.27850E+01 1.56973E+01 0.00000E+00
 -1      3770 5.12850E+01 1.56973E+01 0.00000E+00
 -1      3771 5.35350E+01 1.69963E+01 0.00000E+00
 -1      3772 5.91057E+01 1.51510E+01 0.00000E+00
 -1      3773 9.89732E+01 1.52283E+01 0.00000E+00
 -1      3774 9.74732E+01 1.52283E+01 0.00000E+00
 -1      3775 1.07973E+02 1.52283E+01 0.00000E+00
 -1      3776 1.06473E+02 1.52283E+01 0.00000E+00
 -1      3777 1.10973E+02 1.52283E+01 0.00000E+00
 -1      3778 1.09473E+02 1.52283E+01 0.00000E+00
 -1      3779 1.08723E+02 1.65273E+01 0.00000E+00
 -1      3780 1.13973E+02 1.52283E+01 0.00000E+00
 -1      3781 1.12473E+02 1.52283E+01 0.00000E+00
 -1      3782 1.11723E+02 1.65273E+01 0.00000E+00
 -1      3783 1.16973E+02 1.52283E+01 0.00000E+00
 -1      3784 1.15473E+02 1.52283E+01 0.00000E+00
 -1      3785 1.14723E+02 1.65273E+01 0.00000E+00
 -1      3786 1.19973E+02 1.52283E+01 0.00000E+00
 -1      3787 1.18473E+02 1.52283E+01 0.00000E+00
 -1      3788 1.17723E+02 1.65273E+01 0.00000E+00
 -1      3789 1.22973E+02 1.52283E+01 0.00000E+00
 -1      3790 1.21473E+02 1.52283E+01 0.00000E+00
 -1      3791 1.20723E+02 1.65273E+01 0.00000E+00
 -1      3792 1.25973E+02 1.52283E+01 0.00000E+00
 -1      3793 1.24473E+02 1.52283E+01 0.00000E+00
 -1      3794 1.23723E+02 1.65273E+01 0.00000E+00
 -1      3795 1.28973E+02 1.52283E+01 0.00000E+00
 -1      3796 1.27473E+02 1.52283E+01 0.00000E+00
 -1      3797 1.26723E+02 1.65273E+01 0.00000E+00
 -1      3798 1.31973E+02 1.52283E+01 0.00000E+00
 -1      3799 1.30473E+02 1.52283E+01 0.00000E+00
 -1      3800 1.29723E+02 1.65273E+01 0.00000E+00
 -1      3801 5.67489E+01 2.46725E+01 0.00000E+00
 -1      3802 5.64794E+01 2.27123E+01 0.00000E+00
 -1      3803 9.14697E+01 2.55595E+01 0.00000E+00
 -1      3804 9.09547E+01 2.69478E+01 0.00000E+00
 -1      3805 9.24783E+01 1.57550E+01 0.00000E+00
 -1      3806 1.46944E+01 1.23503E+01 0.00000E+00
 -1      3807 1.59934E+01 1.30847E+01 0.00000E+00
 -1      3808 1.69928E+01 3.26337E+01 0.00000E+00
 -1      3809 1.81500E+01 3.29370E+01 0.00000E+00
 -1      3810 1.69928E+01 3.11587E+01 0.00000E+00
 -1      3811 2.19000E+01 3.31130E+01 0.00000E+00
 -1      3812 2.34000E+01 3.31130E+01 0.00000E+00
 -1      3813 9.05950E+01 2.90839E+01 0.00000E+00
 -1      3814 9.02006E+01 3.04978E+01 0.00000E+00
 -1      3815 1.04973E+02 1.52283E+01 0.00000E+00
 -1      3816 1.03473E+02 1.52283E+01 0.00000E+00
 -1      3817 1.05723E+02 1.65273E+01 0.00000E+00
 -1      3818 1.34867E+02 1.50646E+01 0.00000E+00
 -1      3819 5.91927E+01 3.25066E+01 0.00000E+00
 -1      3820 1.57207E+01 2.48153E+01 0.00000E+00
 -1      3821 1.44218E+01 2.55497E+01 0.00000E+00
 -1      3822 1.45545E+01 2.68713E+01 0.00000E+00
 -1      3823 1.42890E+01 1.68734E+01 0.00000E+00
 -1      3824 1.42890E+01 1.83453E+01 0.00000E+00
 -1      3825 1.55880E+01 1.90797E+01 0.00000E+00
 -1      3826 1.55880E+01 1.61391E+01 0.00000E+00
 -1      3827 5.76632E+01 1.54942E+01 0.00000E+00
 -1      3828 1.01973E+02 1.52283E+01 0.00000E+00
 -1      3829 1.00473E+02 1.52283E+01 0.00000E+00
 -1      3830 9.97232E+01 1.65273E+01 0.00000E+00
 -1      3831 4.37850E+01 1.56973E+01 0.00000E+00
 -1      3832 4.22850E+01 1.56973E+01 0.00000E+00
 -1      3833 9.59732E+01 1.52283E+01 0.00000E+00
 -1      3834 9.44732E+01 1.52283E+01 0.00000E+00
 -1      3835 9.67232E+01 1.65273E+01 0.00000E+00
 -1      3836 8.94506E+01 3.17968E+01 0.00000E+00
 -1      3837 1.92750E+01 3.30250E+01 0.00000E+00
 -1      3838 2.07750E+01 3.30250E+01 0.00000E+00
 -1      3839 2.15250E+01 3.17260E+01 0.00000E+00
 -1      3840 1.92750E+01 3.15500E+01 0.00000E+00
 -1      3841 2.49000E+01 3.31130E+01 0.00000E+00
 -1      3842 2.64000E+01 3.31130E+01 0.00000E+00
 -1      3843 2.41500E+01 3.18140E+01 0.00000E+00
 -1      3844 1.33568E+02 1.57959E+01 0.00000E+00
 -1      3845 9.32283E+01 1.70540E+01 0.00000E+00
 -1      3846 9.24757E+01 2.22904E+01 0.00000E+00
 -1      3847 9.20523E+01 2.39519E+01 0.00000E+00
 -1      3848 9.27571E+01 1.87709E+01 0.00000E+00
 -1      3849 9.29469E+01 2.05735E+01 0.00000E+00
 -1      3850 9.38097E+01 2.16781E+01 0.00000E+00
 -1      3851 9.47521E+01 1.82442E+01 0.00000E+00
 -1      3852 1.67434E+01 1.43837E+01 0.00000E+00
 -1      3853 2.27850E+01 1.56973E+01 0.00000E+00
 -1      3854 2.12850E+01 1.56973E+01 0.00000E+00
 -1      3855 1.32818E+02 1.70949E+01 0.00000E+00
 -1      3856 5.68127E+01 3.13510E+01 0.00000E+00
 -1      3857 5.75627E+01 3.26500E+01 0.00000E+00
 -1      3858 3.70350E+01 1.43982E+01 0.00000E+00
 -1      3859 5.61557E+01 2.18845E+01 0.00000E+00
 -1      3860 5.58319E+01 2.10567E+01 0.00000E+00
 -1      3861 5.50035E+01 2.30415E+01 0.00000E+00
 -1      3862 3.47850E+01 1.56973E+01 0.00000E+00
 -1      3863 3.32850E+01 1.56973E+01 0.00000E+00
 -1      3864 5.69132E+01 1.67932E+01 0.00000E+00
 -1      3865 3.17850E+01 1.56973E+01 0.00000E+00
 -1      3866 3.02850E+01 1.56973E+01 0.00000E+00
 -1      3867 3.25350E+01 1.69963E+01 0.00000E+00
 -1      3868 4.07850E+01 1.56973E+01 0.00000E+00
 -1      3869 3.92850E+01 1.56973E+01 0.00000E+00
 -1      3870 4.15350E+01 1.69963E+01 0.00000E+00
 -1      3871 5.05350E+01 1.69963E+01 0.00000E+00
 -1      3872 4.97850E+01 1.56973E+01 0.00000E+00
 -1      3873 4.82850E+01 1.56973E+01 0.00000E+00
 -1      3874 5.58589E+01 2.60484E+01 0.00000E+00
 -1      3875 9.18137E+01 2.87462E+01 0.00000E+00
 -1      3876 1.33113E+02 2.57406E+01 0.00000E+00
 -1      3877 1.33113E+02 2.42719E+01 0.00000E+00
 -1      3878 1.34412E+02 2.20688E+01 0.00000E+00
 -1      3879 2.71500E+01 3.18140E+01 0.00000E+00
 -1      3880 1.02723E+02 1.65273E+01 0.00000E+00
 -1      3881 9.27560E+01 2.50026E+01 0.00000E+00
 -1      3882 1.78988E+01 1.55690E+01 0.00000E+00
 -1      3883 1.67434E+01 1.58540E+01 0.00000E+00
 -1      3884 1.67434E+01 1.73243E+01 0.00000E+00
 -1      3885 1.33148E+02 2.85966E+01 0.00000E+00
 -1      3886 1.33148E+02 2.71216E+01 0.00000E+00
 -1      3887 1.31849E+02 2.63873E+01 0.00000E+00
 -1      3888 1.31919E+02 2.91493E+01 0.00000E+00
 -1      3889 1.69469E+01 2.40247E+01 0.00000E+00
 -1      3890 1.70796E+01 2.53463E+01 0.00000E+00
 -1      3891 1.69469E+01 2.10810E+01 0.00000E+00
 -1      3892 1.69469E+01 2.25528E+01 0.00000E+00
 -1      3893 1.83057E+01 2.30838E+01 0.00000E+00
 -1      3894 4.52850E+01 1.56973E+01 0.00000E+00
 -1      3895 4.45350E+01 1.69963E+01 0.00000E+00
 -1      3896 4.67850E+01 1.56973E+01 0.00000E+00
 -1      3897 2.57850E+01 1.56973E+01 0.00000E+00
 -1      3898 2.42850E+01 1.56973E+01 0.00000E+00
 -1      3899 2.35350E+01 1.69963E+01 0.00000E+00
 -1      3900 1.45500E+01 2.80509E+01 0.00000E+00
 -1      3901 1.46827E+01 2.93724E+01 0.00000E+00
 -1      3902 1.58400E+01 2.96758E+01 0.00000E+00
 -1      3903 1.58490E+01 2.73165E+01 0.00000E+00
 -1      3904 1.92169E+01 1.57188E+01 0.00000E+00
 -1      3905 1.32818E+02 1.85636E+01 0.00000E+00
 -1      3906 1.31223E+02 1.79960E+01 0.00000E+00
 -1      3907 1.32818E+02 2.00324E+01 0.00000E+00
 -1      3908 1.99669E+01 1.70178E+01 0.00000E+00
 -1      3909 1.83012E+01 2.57353E+01 0.00000E+00
 -1      3910 1.70751E+01 2.65259E+01 0.00000E+00
 -1      3911 1.70706E+01 2.77055E+01 0.00000E+00
 -1      3912 5.60202E+01 3.00208E+01 0.00000E+00
 -1      3913 3.77850E+01 1.56973E+01 0.00000E+00
 -1      3914 3.62850E+01 1.56973E+01 0.00000E+00
 -1      3915 3.55350E+01 1.69963E+01 0.00000E+00
 -1      3916 3.85350E+01 1.69963E+01 0.00000E+00
 -1      3917 3.24000E+01 3.05150E+01 0.00000E+00
 -1      3918 3.39000E+01 3.05150E+01 0.00000E+00
 -1      3919 3.54000E+01 3.05150E+01 0.00000E+00
 -1      3920 3.69000E+01 3.05150E+01 0.00000E+00
 -1      3921 3.46500E+01 2.92160E+01 0.00000E+00
 -1      3922 3.84000E+01 3.05150E+01 0.00000E+00
 -1      3923 3.99000E+01 3.05150E+01 0.00000E+00
 -1      3924 3.76500E+01 2.92160E+01 0.00000E+00
 -1      3925 4.14000E+01 3.05150E+01 0.00000E+00
 -1      3926 4.29000E+01 3.05150E+01 0.00000E+00
 -1      3927 4.06500E+01 2.92160E+01 0.00000E+00
 -1      3928 4.44000E+01 3.05150E+01 0.00000E+00
 -1      3929 4.59000E+01 3.05150E+01 0.00000E+00
 -1      3930 4.36500E+01 2.92160E+01 0.00000E+00
 -1      3931 4.74000E+01 3.05150E+01 0.00000E+00
 -1      3932 4.89000E+01 3.05150E+01 0.00000E+00
 -1      3933 4.66500E+01 2.92160E+01 0.00000E+00
 -1      3934 5.04000E+01 3.05150E+01 0.00000E+00
 -1      3935 5.19000E+01 3.05150E+01 0.00000E+00
 -1      3936 4.96500E+01 2.92160E+01 0.00000E+00
 -1      3937 5.32101E+01 3.02679E+01 0.00000E+00
 -1      3938 5.47101E+01 3.02679E+01 0.00000E+00
 -1      3939 5.50803E+01 2.84747E+01 0.00000E+00
 -1      3940 5.24601E+01 2.89689E+01 0.00000E+00
 -1      3941 5.60095E+01 1.84480E+01 0.00000E+00
 -1      3942 5.72482E+01 1.77479E+01 0.00000E+00
 -1      3943 9.33137E+01 2.87462E+01 0.00000E+00
 -1      3944 9.82040E+01 2.95833E+01 0.00000E+00
 -1      3945 9.97040E+01 2.95833E+01 0.00000E+00
 -1      3946 1.01204E+02 2.95833E+01 0.00000E+00
 -1      3947 1.02704E+02 2.95833E+01 0.00000E+00
 -1      3948 1.00454E+02 2.82843E+01 0.00000E+00
 -1      3949 1.04204E+02 2.95833E+01 0.00000E+00
 -1      3950 1.05704E+02 2.95833E+01 0.00000E+00
 -1      3951 1.03454E+02 2.82843E+01 0.00000E+00
 -1      3952 1.07204E+02 2.95833E+01 0.00000E+00
 -1      3953 1.08704E+02 2.95833E+01 0.00000E+00
 -1      3954 1.06454E+02 2.82843E+01 0.00000E+00
 -1      3955 1.10204E+02 2.95833E+01 0.00000E+00
 -1      3956 1.11704E+02 2.95833E+01 0.00000E+00
 -1      3957 1.09454E+02 2.82843E+01 0.00000E+00
 -1      3958 1.13204E+02 2.95833E+01 0.00000E+00
 -1      3959 1.14704E+02 2.95833E+01 0.00000E+00
 -1      3960 1.12454E+02 2.82843E+01 0.00000E+00
 -1      3961 1.16204E+02 2.95833E+01 0.00000E+00
 -1      3962 1.17704E+02 2.95833E+01 0.00000E+00
 -1      3963 1.15454E+02 2.82843E+01 0.00000E+00
 -1      3964 1.19204E+02 2.95833E+01 0.00000E+00
 -1      3965 1.20704E+02 2.95833E+01 0.00000E+00
 -1      3966 1.18454E+02 2.82843E+01 0.00000E+00
 -1      3967 1.22204E+02 2.95833E+01 0.00000E+00
 -1      3968 1.23704E+02 2.95833E+01 0.00000E+00
 -1      3969 1.21454E+02 2.82843E+01 0.00000E+00
 -1      3970 1.25204E+02 2.95833E+01 0.00000E+00
 -1      3971 1.26704E+02 2.95833E+01 0.00000E+00
 -1      3972 1.24454E+02 2.82843E+01 0.00000E+00
 -1      3973 1.15473E+02 1.78263E+01 0.00000E+00
 -1      3974 1.13973E+02 1.78263E+01 0.00000E+00
 -1      3975 1.12473E+02 1.78263E+01 0.00000E+00
 -1      3976 1.10973E+02 1.78263E+01 0.00000E+00
 -1      3977 1.13223E+02 1.91253E+01 0.00000E+00
 -1      3978 1.09473E+02 1.78263E+01 0.00000E+00
 -1      3979 1.07973E+02 1.78263E+01 0.00000E+00
 -1      3980 1.10223E+02 1.91253E+01 0.00000E+00
 -1      3981 1.18473E+02 1.78263E+01 0.00000E+00
 -1      3982 1.16973E+02 1.78263E+01 0.00000E+00
 -1      3983 1.16223E+02 1.91253E+01 0.00000E+00
 -1      3984 1.21473E+02 1.78263E+01 0.00000E+00
 -1      3985 1.19973E+02 1.78263E+01 0.00000E+00
 -1      3986 1.19223E+02 1.91253E+01 0.00000E+00
 -1      3987 1.24473E+02 1.78263E+01 0.00000E+00
 -1      3988 1.22973E+02 1.78263E+01 0.00000E+00
 -1      3989 1.22223E+02 1.91253E+01 0.00000E+00
 -1      3990 1.27473E+02 1.78263E+01 0.00000E+00
 -1      3991 1.25973E+02 1.78263E+01 0.00000E+00
 -1      3992 1.25223E+02 1.91253E+01 0.00000E+00
 -1      3993 1.30098E+02 1.79111E+01 0.00000E+00
 -1      3994 1.28598E+02 1.79111E+01 0.00000E+00
 -1      3995 1.27848E+02 1.92101E+01 0.00000E+00
 -1      3996 1.30098E+02 1.93799E+01 0.00000E+00
 -1      3997 2.87850E+01 1.56973E+01 0.00000E+00
 -1      3998 2.72850E+01 1.56973E+01 0.00000E+00
 -1      3999 2.95350E+01 1.69963E+01 0.00000E+00
 -1      4000 1.32965E+02 2.28865E+01 0.00000E+00
 -1      4001 1.32965E+02 2.14178E+01 0.00000E+00
 -1      4002 1.31371E+02 2.08501E+01 0.00000E+00
 -1      4003 1.31666E+02 2.36209E+01 0.00000E+00
 -1      4004 2.34000E+01 3.05150E+01 0.00000E+00
 -1      4005 2.49000E+01 3.05150E+01 0.00000E+00
 -1      4006 1.06473E+02 1.78263E+01 0.00000E+00
 -1      4007 1.04973E+02 1.78263E+01 0.00000E+00
 -1      4008 1.07223E+02 1.91253E+01 0.00000E+00
 -1      4009 9.77521E+01 1.82442E+01 0.00000E+00
 -1      4010 9.62521E+01 1.82442E+01 0.00000E+00
 -1      4011 9.57809E+01 1.99611E+01 0.00000E+00
 -1      4012 9.40898E+01 2.45766E+01 0.00000E+00
 -1      4013 9.35072E+01 2.61842E+01 0.00000E+00
 -1      4014 2.94000E+01 3.05150E+01 0.00000E+00
 -1      4015 3.09000E+01 3.05150E+01 0.00000E+00
 -1      4016 3.16500E+01 2.92160E+01 0.00000E+00
 -1      4017 1.03473E+02 1.78263E+01 0.00000E+00
 -1      4018 1.01973E+02 1.78263E+01 0.00000E+00
 -1      4019 1.04223E+02 1.91253E+01 0.00000E+00
 -1      4020 2.64000E+01 3.05150E+01 0.00000E+00
 -1      4021 2.79000E+01 3.05150E+01 0.00000E+00
 -1      4022 2.86500E+01 2.92160E+01 0.00000E+00
 -1      4023 1.68451E+01 1.84675E+01 0.00000E+00
 -1      4024 1.68451E+01 1.99378E+01 0.00000E+00
 -1      4025 1.82040E+01 2.04688E+01 0.00000E+00
 -1      4026 1.80005E+01 1.81825E+01 0.00000E+00
 -1      4027 5.51707E+01 1.97523E+01 0.00000E+00
 -1      4028 5.41962E+01 1.83006E+01 0.00000E+00
 -1      4029 5.26962E+01 1.83006E+01 0.00000E+00
 -1      4030 5.40186E+01 2.09094E+01 0.00000E+00
 -1      4031 1.00613E+02 1.80352E+01 0.00000E+00
 -1      4032 9.91127E+01 1.80352E+01 0.00000E+00
 -1      4033 9.86415E+01 1.97522E+01 0.00000E+00
 -1      4034 1.01363E+02 1.93342E+01 0.00000E+00
 -1      4035 9.41604E+01 2.74652E+01 0.00000E+00
 -1      4036 9.53007E+01 2.96013E+01 0.00000E+00
 -1      4037 9.68007E+01 2.96013E+01 0.00000E+00
 -1      4038 9.54943E+01 2.70393E+01 0.00000E+00
 -1      4039 1.96025E+01 2.51504E+01 0.00000E+00
 -1      4040 1.95980E+01 2.63300E+01 0.00000E+00
 -1      4041 5.39556E+01 2.39286E+01 0.00000E+00
 -1      4042 5.36319E+01 2.31008E+01 0.00000E+00
 -1      4043 5.45488E+01 2.62955E+01 0.00000E+00
 -1      4044 5.31771E+01 2.63548E+01 0.00000E+00
 -1      4045 9.75507E+01 2.83023E+01 0.00000E+00
 -1      4046 9.51709E+01 2.14104E+01 0.00000E+00
 -1      4047 9.46998E+01 2.31274E+01 0.00000E+00
 -1      4048 9.54510E+01 2.43090E+01 0.00000E+00
 -1      4049 9.66709E+01 2.14104E+01 0.00000E+00
 -1      4050 1.29669E+02 2.93253E+01 0.00000E+00
 -1      4051 1.30794E+02 2.92373E+01 0.00000E+00
 -1      4052 1.30759E+02 2.78563E+01 0.00000E+00
 -1      4053 1.96025E+01 2.36785E+01 0.00000E+00
 -1      4054 2.08992E+01 2.42733E+01 0.00000E+00
 -1      4055 1.96025E+01 2.22067E+01 0.00000E+00
 -1      4056 1.28544E+02 2.94133E+01 0.00000E+00
 -1      4057 3.32850E+01 1.82952E+01 0.00000E+00
 -1      4058 3.17850E+01 1.82952E+01 0.00000E+00
 -1      4059 4.22850E+01 1.82952E+01 0.00000E+00
 -1      4060 4.07850E+01 1.82952E+01 0.00000E+00
 -1      4061 5.11962E+01 1.83006E+01 0.00000E+00
 -1      4062 4.96962E+01 1.83006E+01 0.00000E+00
 -1      4063 5.18574E+01 1.96050E+01 0.00000E+00
 -1      4064 4.75350E+01 1.69963E+01 0.00000E+00
 -1      4065 3.62850E+01 1.82952E+01 0.00000E+00
 -1      4066 3.47850E+01 1.82952E+01 0.00000E+00
 -1      4067 3.40350E+01 1.95942E+01 0.00000E+00
 -1      4068 4.52850E+01 1.82952E+01 0.00000E+00
 -1      4069 4.37850E+01 1.82952E+01 0.00000E+00
 -1      4070 4.30350E+01 1.95942E+01 0.00000E+00
 -1      4071 1.30448E+02 2.44513E+01 0.00000E+00
 -1      4072 1.30301E+02 2.30659E+01 0.00000E+00
 -1      4073 2.65350E+01 1.69963E+01 0.00000E+00
 -1      4074 1.27794E+02 2.81143E+01 0.00000E+00
 -1      4075 2.56500E+01 2.92160E+01 0.00000E+00
 -1      4076 1.30724E+02 2.64753E+01 0.00000E+00
 -1      4077 1.67435E+01 2.97505E+01 0.00000E+00
 -1      4078 1.79007E+01 3.00538E+01 0.00000E+00
 -1      4079 1.29358E+02 2.59203E+01 0.00000E+00
 -1      4080 2.42850E+01 1.82952E+01 0.00000E+00
 -1      4081 2.27850E+01 1.82952E+01 0.00000E+00
 -1      4082 2.22750E+01 3.04270E+01 0.00000E+00
 -1      4083 2.30250E+01 2.91280E+01 0.00000E+00
 -1      4084 2.11500E+01 3.03390E+01 0.00000E+00
 -1      4085 2.10145E+01 1.83059E+01 0.00000E+00
 -1      4086 1.89463E+01 1.83275E+01 0.00000E+00
 -1      4087 2.17645E+01 1.96049E+01 0.00000E+00
 -1      4088 1.13973E+02 2.04243E+01 0.00000E+00
 -1      4089 1.12473E+02 2.04243E+01 0.00000E+00
 -1      4090 3.92850E+01 1.82952E+01 0.00000E+00
 -1      4091 3.77850E+01 1.82952E+01 0.00000E+00
 -1      4092 3.70350E+01 1.95942E+01 0.00000E+00
 -1      4093 4.00350E+01 1.95942E+01 0.00000E+00
 -1      4094 3.39000E+01 2.79170E+01 0.00000E+00
 -1      4095 3.54000E+01 2.79170E+01 0.00000E+00
 -1      4096 3.69000E+01 2.79170E+01 0.00000E+00
 -1      4097 3.84000E+01 2.79170E+01 0.00000E+00
 -1      4098 3.61500E+01 2.66180E+01 0.00000E+00
 -1      4099 3.99000E+01 2.79170E+01 0.00000E+00
 -1      4100 4.14000E+01 2.79170E+01 0.00000E+00
 -1      4101 3.91500E+01 2.66180E+01 0.00000E+00
 -1      4102 4.29000E+01 2.79170E+01 0.00000E+00
 -1      4103 4.44000E+01 2.79170E+01 0.00000E+00
 -1      4104 4.21500E+01 2.66180E+01 0.00000E+00
 -1      4105 4.59000E+01 2.79170E+01 0.00000E+00
 -1      4106 4.74000E+01 2.79170E+01 0.00000E+00
 -1      4107 4.51500E+01 2.66180E+01 0.00000E+00
 -1      4108 4.89000E+01 2.79170E+01 0.00000E+00
 -1      4109 5.04000E+01 2.79170E+01 0.00000E+00
 -1      4110 4.81500E+01 2.66180E+01 0.00000E+00
 -1      4111 9.97040E+01 2.69853E+01 0.00000E+00
 -1      4112 1.01204E+02 2.69853E+01 0.00000E+00
 -1      4113 9.68975E+01 2.70213E+01 0.00000E+00
 -1      4114 9.83007E+01 2.70033E+01 0.00000E+00
 -1      4115 9.62443E+01 2.57403E+01 0.00000E+00
 -1      4116 1.27518E+02 2.60903E+01 0.00000E+00
 -1      4117 2.49000E+01 2.79170E+01 0.00000E+00
 -1      4118 2.64000E+01 2.79170E+01 0.00000E+00
 -1      4119 1.02704E+02 2.69853E+01 0.00000E+00
 -1      4120 1.04204E+02 2.69853E+01 0.00000E+00
 -1      4121 1.01954E+02 2.56863E+01 0.00000E+00
 -1      4122 1.05704E+02 2.69853E+01 0.00000E+00
 -1      4123 1.07204E+02 2.69853E+01 0.00000E+00
 -1      4124 1.04954E+02 2.56863E+01 0.00000E+00
 -1      4125 1.08704E+02 2.69853E+01 0.00000E+00
 -1      4126 1.10204E+02 2.69853E+01 0.00000E+00
 -1      4127 1.07954E+02 2.56863E+01 0.00000E+00
 -1      4128 1.11704E+02 2.69853E+01 0.00000E+00
 -1      4129 1.13204E+02 2.69853E+01 0.00000E+00
 -1      4130 1.10954E+02 2.56863E+01 0.00000E+00
 -1      4131 1.14704E+02 2.69853E+01 0.00000E+00
 -1      4132 1.16204E+02 2.69853E+01 0.00000E+00
 -1      4133 1.13954E+02 2.56863E+01 0.00000E+00
 -1      4134 1.17704E+02 2.69853E+01 0.00000E+00
 -1      4135 1.19204E+02 2.69853E+01 0.00000E+00
 -1      4136 1.16954E+02 2.56863E+01 0.00000E+00
 -1      4137 1.20704E+02 2.69853E+01 0.00000E+00
 -1      4138 1.22204E+02 2.69853E+01 0.00000E+00
 -1      4139 1.19954E+02 2.56863E+01 0.00000E+00
 -1      4140 1.23704E+02 2.69853E+01 0.00000E+00
 -1      4141 1.25204E+02 2.69853E+01 0.00000E+00
 -1      4142 1.22954E+02 2.56863E+01 0.00000E+00
 -1      4143 1.19973E+02 2.04243E+01 0.00000E+00
 -1      4144 1.18473E+02 2.04243E+01 0.00000E+00
 -1      4145 1.16973E+02 2.04243E+01 0.00000E+00
 -1      4146 1.15473E+02 2.04243E+01 0.00000E+00
 -1      4147 1.17723E+02 2.17233E+01 0.00000E+00
 -1      4148 1.10973E+02 2.04243E+01 0.00000E+00
 -1      4149 1.09473E+02 2.04243E+01 0.00000E+00
 -1      4150 1.11723E+02 2.17233E+01 0.00000E+00
 -1      4151 1.22973E+02 2.04243E+01 0.00000E+00
 -1      4152 1.21473E+02 2.04243E+01 0.00000E+00
 -1      4153 1.20723E+02 2.17233E+01 0.00000E+00
 -1      4154 1.25973E+02 2.04243E+01 0.00000E+00
 -1      4155 1.24473E+02 2.04243E+01 0.00000E+00
 -1      4156 1.23723E+02 2.17233E+01 0.00000E+00
 -1      4157 3.02850E+01 1.82952E+01 0.00000E+00
 -1      4158 2.87850E+01 1.82952E+01 0.00000E+00
 -1      4159 3.10350E+01 1.95942E+01 0.00000E+00
 -1      4160 2.72850E+01 1.82952E+01 0.00000E+00
 -1      4161 2.57850E+01 1.82952E+01 0.00000E+00
 -1      4162 2.50350E+01 1.95942E+01 0.00000E+00
 -1      4163 1.07973E+02 2.04243E+01 0.00000E+00
 -1      4164 1.06473E+02 2.04243E+01 0.00000E+00
 -1      4165 1.08723E+02 2.17233E+01 0.00000E+00
 -1      4166 2.79000E+01 2.79170E+01 0.00000E+00
 -1      4167 2.94000E+01 2.79170E+01 0.00000E+00
 -1      4168 2.71500E+01 2.66180E+01 0.00000E+00
 -1      4169 1.26768E+02 2.47913E+01 0.00000E+00
 -1      4170 5.30752E+01 2.20051E+01 0.00000E+00
 -1      4171 5.24140E+01 2.07007E+01 0.00000E+00
 -1      4172 5.09140E+01 2.07007E+01 0.00000E+00
 -1      4173 5.20273E+01 2.28921E+01 0.00000E+00
 -1      4174 1.67480E+01 2.85708E+01 0.00000E+00
 -1      4175 3.09000E+01 2.79170E+01 0.00000E+00
 -1      4176 3.24000E+01 2.79170E+01 0.00000E+00
 -1      4177 3.31500E+01 2.66180E+01 0.00000E+00
 -1      4178 1.04973E+02 2.04243E+01 0.00000E+00
 -1      4179 1.03473E+02 2.04243E+01 0.00000E+00
 -1      4180 1.05723E+02 2.17233E+01 0.00000E+00
 -1      4181 1.90481E+01 1.94706E+01 0.00000E+00
 -1      4182 4.82406E+01 1.82979E+01 0.00000E+00
 -1      4183 4.67406E+01 1.82979E+01 0.00000E+00
 -1      4184 4.59906E+01 1.95969E+01 0.00000E+00
 -1      4185 4.89018E+01 1.96023E+01 0.00000E+00
 -1      4186 1.90552E+01 2.91232E+01 0.00000E+00
 -1      4187 1.93045E+01 3.05315E+01 0.00000E+00
 -1      4188 1.30273E+02 2.19156E+01 0.00000E+00
 -1      4189 1.30126E+02 2.05302E+01 0.00000E+00
 -1      4190 1.29001E+02 2.04453E+01 0.00000E+00
 -1      4191 1.29056E+02 2.27460E+01 0.00000E+00
 -1      4192 2.04295E+01 3.06195E+01 0.00000E+00
 -1      4193 1.91498E+01 2.06138E+01 0.00000E+00
 -1      4194 2.04466E+01 2.12085E+01 0.00000E+00
 -1      4195 1.02863E+02 2.19322E+01 0.00000E+00
 -1      4196 1.02113E+02 2.06332E+01 0.00000E+00
 -1      4197 1.00752E+02 2.08422E+01 0.00000E+00
 -1      4198 9.90507E+01 2.57043E+01 0.00000E+00
 -1      4199 5.18670E+01 2.66019E+01 0.00000E+00
 -1      4200 5.11170E+01 2.53029E+01 0.00000E+00
 -1      4201 1.79741E+01 2.77802E+01 0.00000E+00
 -1      4202 4.93552E+01 2.54126E+01 0.00000E+00
 -1      4203 5.08222E+01 2.40975E+01 0.00000E+00
 -1      4204 5.02655E+01 2.30018E+01 0.00000E+00
 -1      4205 4.78552E+01 2.54126E+01 0.00000E+00
 -1      4206 2.37750E+01 2.78290E+01 0.00000E+00
 -1      4207 2.45250E+01 2.65300E+01 0.00000E+00
 -1      4208 2.26500E+01 2.77410E+01 0.00000E+00
 -1      4209 3.01500E+01 2.66180E+01 0.00000E+00
 -1      4210 1.14723E+02 2.17233E+01 0.00000E+00
 -1      4211 4.37850E+01 2.08932E+01 0.00000E+00
 -1      4212 4.22850E+01 2.08932E+01 0.00000E+00
 -1      4213 2.80350E+01 1.95942E+01 0.00000E+00
 -1      4214 1.93778E+01 2.82579E+01 0.00000E+00
 -1      4215 9.93918E+01 2.10218E+01 0.00000E+00
 -1      4216 9.80312E+01 2.12308E+01 0.00000E+00
 -1      4217 9.74212E+01 2.26801E+01 0.00000E+00
 -1      4218 1.00142E+02 2.23208E+01 0.00000E+00
 -1      4219 3.17850E+01 2.08932E+01 0.00000E+00
 -1      4220 3.02850E+01 2.08932E+01 0.00000E+00
 -1      4221 1.28049E+02 2.04772E+01 0.00000E+00
 -1      4222 1.26924E+02 2.03924E+01 0.00000E+00
 -1      4223 1.26174E+02 2.16914E+01 0.00000E+00
 -1      4224 1.28077E+02 2.16276E+01 0.00000E+00
 -1      4225 2.06791E+01 2.76731E+01 0.00000E+00
 -1      4226 3.32850E+01 2.08932E+01 0.00000E+00
 -1      4227 3.25350E+01 2.21922E+01 0.00000E+00
 -1      4228 3.47850E+01 2.08932E+01 0.00000E+00
 -1      4229 9.68542E+01 2.42910E+01 0.00000E+00
 -1      4230 4.15350E+01 2.21922E+01 0.00000E+00
 -1      4231 4.07850E+01 2.08932E+01 0.00000E+00
 -1      4232 3.92850E+01 2.08932E+01 0.00000E+00
 -1      4233 2.22171E+01 2.11978E+01 0.00000E+00
 -1      4234 2.38796E+01 2.12208E+01 0.00000E+00
 -1      4235 2.25617E+01 2.28244E+01 0.00000E+00
 -1      4236 2.53796E+01 2.12208E+01 0.00000E+00
 -1      4237 1.28104E+02 2.27779E+01 0.00000E+00
 -1      4238 1.25790E+02 2.36729E+01 0.00000E+00
 -1      4239 3.77850E+01 2.08932E+01 0.00000E+00
 -1      4240 3.62850E+01 2.08932E+01 0.00000E+00
 -1      4241 3.85350E+01 2.21922E+01 0.00000E+00
 -1      4242 3.54000E+01 2.53190E+01 0.00000E+00
 -1      4243 3.69000E+01 2.53190E+01 0.00000E+00
 -1      4244 3.88425E+01 2.44051E+01 0.00000E+00
 -1      4245 4.03425E+01 2.44051E+01 0.00000E+00
 -1      4246 4.18425E+01 2.44051E+01 0.00000E+00
 -1      4247 4.33425E+01 2.44051E+01 0.00000E+00
 -1      4248 4.48488E+01 2.49089E+01 0.00000E+00
 -1      4249 4.63488E+01 2.49089E+01 0.00000E+00
 -1      4250 4.75540E+01 2.37035E+01 0.00000E+00
 -1      4251 4.45413E+01 2.26960E+01 0.00000E+00
 -1      4252 1.00978E+02 2.39138E+01 0.00000E+00
 -1      4253 1.02478E+02 2.39138E+01 0.00000E+00
 -1      4254 2.95350E+01 2.21922E+01 0.00000E+00
 -1      4255 2.87850E+01 2.08932E+01 0.00000E+00
 -1      4256 2.72850E+01 2.08932E+01 0.00000E+00
 -1      4257 2.11795E+01 2.93205E+01 0.00000E+00
 -1      4258 1.03839E+02 2.37048E+01 0.00000E+00
 -1      4259 1.05339E+02 2.37048E+01 0.00000E+00
 -1      4260 1.06839E+02 2.37048E+01 0.00000E+00
 -1      4261 1.08339E+02 2.37048E+01 0.00000E+00
 -1      4262 1.09839E+02 2.37048E+01 0.00000E+00
 -1      4263 1.11339E+02 2.37048E+01 0.00000E+00
 -1      4264 1.12839E+02 2.37048E+01 0.00000E+00
 -1      4265 1.14339E+02 2.37048E+01 0.00000E+00
 -1      4266 1.15839E+02 2.37048E+01 0.00000E+00
 -1      4267 1.17339E+02 2.37048E+01 0.00000E+00
 -1      4268 1.18839E+02 2.37048E+01 0.00000E+00
 -1      4269 1.20339E+02 2.37048E+01 0.00000E+00
 -1      4270 1.21839E+02 2.37048E+01 0.00000E+00
 -1      4271 1.23339E+02 2.37048E+01 0.00000E+00
 -1      4272 4.52913E+01 2.13970E+01 0.00000E+00
 -1      4273 9.82145E+01 2.41114E+01 0.00000E+00
 -1      4274 9.96177E+01 2.40934E+01 0.00000E+00
 -1      4275 2.64000E+01 2.53190E+01 0.00000E+00
 -1      4276 2.79000E+01 2.53190E+01 0.00000E+00
 -1      4277 2.25617E+01 2.42963E+01 0.00000E+00
 -1      4278 2.61296E+01 2.25198E+01 0.00000E+00
 -1      4279 2.21496E+01 2.60936E+01 0.00000E+00
 -1      4280 2.19295E+01 2.80215E+01 0.00000E+00
 -1      4281 2.98425E+01 2.44051E+01 0.00000E+00
 -1      4282 3.13425E+01 2.44051E+01 0.00000E+00
 -1      4283 3.28425E+01 2.44051E+01 0.00000E+00
 -1      4284 3.43425E+01 2.44051E+01 0.00000E+00
 -1      4285 2.38121E+01 2.46447E+01 0.00000E+00
 -1      4286 2.49371E+01 2.47327E+01 0.00000E+00
 -1      4287 3.50925E+01 2.31061E+01 0.00000E+00
 -1      4288 4.67469E+01 2.13997E+01 0.00000E+00
 -1      4289 5.00342E+01 2.18369E+01 0.00000E+00
 -1      4290 4.94776E+01 2.07412E+01 0.00000E+00
 -1      4291 2.56871E+01 2.34337E+01 0.00000E+00
 -1      4292 4.80220E+01 2.07385E+01 0.00000E+00
 -1      4293 2.90925E+01 2.31061E+01 0.00000E+00
 -1      4294 4.88291E+01 2.30423E+01 0.00000E+00
 -1      4295 3.55350E+01 2.21922E+01 0.00000E+00
 -1      4296 3.65925E+01 2.31061E+01 0.00000E+00
 -1      4297 1.24839E+02 2.37048E+01 0.00000E+00
 -1      4298 2.75925E+01 2.31061E+01 0.00000E+00
 -1      4299 3.80925E+01 2.31061E+01 0.00000E+00
 -1      4300 4.73227E+01 2.25386E+01 0.00000E+00
 -3
    3C                          2068                                     1
 -1       165    8    0    1
 -2         6         7        23      1117      1281      1134
 -1       166    8    0    1
 -2         7         8       165      1118      1282      1283
 -1       167    8    0    1
 -2         8         9       166      1119      1284      1285
 -1       168    8    0    1
 -2         8       166       165      1285      1286      1282
 -1       169    8    0    1
 -2         9        10       167      1120      1287      1288
 -1       170    8    0    1
 -2         9       167       166      1288      1289      1284
 -1       171    8    0    1
 -2        10        11       168      1121      1290      1291
 -1       172    8    0    1
 -2        10       168       167      1291      1292      1287
 -1       173    8    0    1
 -2        11        12       169      1122      1293      1294
 -1       174    8    0    1
 -2        11       169       168      1294      1295      1290
 -1       175    8    0    1
 -2        12        13       170      1123      1296      1297
 -1       176    8    0    1
 -2        12       170       169      1297      1298      1293
 -1       177    8    0    1
 -2        13        14       171      1124      1299      1300
 -1       178    8    0    1
 -2        13       171       170      1300      1301      1296
 -1       179    8    0    1
 -2        14        15       172      1125      1302      1303
 -1       180    8    0    1
 -2        14       172       171      1303      1304      1299
 -1       181    8    0    1
 -2        15        16       173      1126      1305      1306
 -1       182    8    0    1
 -2        15       173       172      1306      1307      1302
 -1       183    8    0    1
 -2        16        17       174      1127      1308      1309
 -1       184    8    0    1
 -2        16       174       173      1309      1310      1305
 -1       185    8    0    1
 -2        17        18       175      1128      1311      1312
 -1       186    8    0    1
 -2        17       175       174      1312      1313      1308
 -1       187    8    0    1
 -2        18        19       176      1129      1314      1315
 -1       188    8    0    1
 -2        18       176       175      1315      1316      1311
 -1       189    8    0    1
 -2        19        20       177      1130      1317      1318
 -1       190    8    0    1
 -2        19       177       176      1318      1319      1314
 -1       191    8    0    1
 -2        20        21       178      1131      1320      1321
 -1       192    8    0    1
 -2        20       178       177      1321      1322      1317
 -1       193    8    0    1
 -2        21        22       179      1132      1323      1324
 -1       194    8    0    1
 -2        21       179       178      1324      1325      1320
 -1       195    8    0    1
 -2        22         5       180      1133      1326      1327
 -1       196    8    0    1
 -2       179        22       180      1323      1327      1328
 -1       197    8    0    1
 -2         5        72       180      1184      1329      1326
 -1       198    8    0    1
 -2        24        23       181      1135      1330      1331
 -1       199    8    0    1
 -2        25        24       182      1136      1332      1333
 -1       200    8    0    1
 -2        24       181       182      1331      1334      1332
 -1       201    8    0    1
 -2        26        25       183      1137      1335      1336
 -1       202    8    0    1
 -2        25       182       183      1333      1337      1335
 -1       203    8    0    1
 -2        27        26       184      1138      1338      1339
 -1       204    8    0    1
 -2        26       183       184      1336      1340      1338
 -1       205    8    0    1
 -2        28        27       185      1139      1341      1342
 -1       206    8    0    1
 -2        27       184       185      1339      1343      1341
 -1       207    8    0    1
 -2        29        28       186      1140      1344      1345
 -1       208    8    0    1
 -2        28       185       186      1342      1346      1344
 -1       209    8    0    1
 -2        30        29       187      1141      1347      1348
 -1       210    8    0    1
 -2        29       186       187      1345      1349      1347
 -1       211    8    0    1
 -2        31        30       188      1142      1350      1351
 -1       212    8    0    1
 -2        30       187       188      1348      1352      1350
 -1       213    8    0    1
 -2        32        31       189      1143      1353      1354
 -1       214    8    0    1
 -2        31       188       189      1351      1355      1353
 -1       215    8    0    1
 -2        33        32       190      1144      1356      1357
 -1       216    8    0    1
 -2        32       189       190      1354      1358      1356
 -1       217    8    0    1
 -2        34        33       191      1145      1359      1360
 -1       218    8    0    1
 -2        33       190       191      1357      1361      1359
 -1       219    8    0    1
 -2        35        34       192      1146      1362      1363
 -1       220    8    0    1
 -2        34       191       192      1360      1364      1362
 -1       221    8    0    1
 -2        36        35       193      1147      1365      1366
 -1       222    8    0    1
 -2        35       192       193      1363      1367      1365
 -1       223    8    0    1
 -2        37        36       194      1148      1368      1369
 -1       224    8    0    1
 -2        36       193       194      1366      1370      1368
 -1       225    8    0    1
 -2        38        37       195      1149      1371      1372
 -1       226    8    0    1
 -2        37       194       195      1369      1373      1371
 -1       227    8    0    1
 -2        39        38       196      1150      1374      1375
 -1       228    8    0    1
 -2        38       195       196      1372      1376      1374
 -1       229    8    0    1
 -2        40        39       197      1151      1377      1378
 -1       230    8    0    1
 -2        39       196       197      1375      1379      1377
 -1       231    8    0    1
 -2        41        40       198      1152      1380      1381
 -1       232    8    0    1
 -2        40       197       198      1378      1382      1380
 -1       233    8    0    1
 -2        42        41       199      1153      1383      1384
 -1       234    8    0    1
 -2        41       198       199      1381      1385      1383
 -1       235    8    0    1
 -2        43        42       200      1154      1386      1387
 -1       236    8    0    1
 -2        42       199       200      1384      1388      1386
 -1       237    8    0    1
 -2        44        43       201      1155      1389      1390
 -1       238    8    0    1
 -2        43       200       201      1387      1391      1389
 -1       239    8    0    1
 -2        45        44       202      1156      1392      1393
 -1       240    8    0    1
 -2        44       201       202      1390      1394      1392
 -1       241    8    0    1
 -2        46        45       203      1157      1395      1396
 -1       242    8    0    1
 -2        45       202       203      1393      1397      1395
 -1       243    8    0    1
 -2        47        46       204      1158      1398      1399
 -1       244    8    0    1
 -2        46       203       204      1396      1400      1398
 -1       245    8    0    1
 -2        48        47       205      1159      1401      1402
 -1       246    8    0    1
 -2        47       204       205      1399      1403      1401
 -1       247    8    0    1
 -2        49        48       206      1160      1404      1405
 -1       248    8    0    1
 -2        48       205       206      1402      1406      1404
 -1       249    8    0    1
 -2        50        49       207      1161      1407      1408
 -1       250    8    0    1
 -2        49       206       207      1405      1409      1407
 -1       251    8    0    1
 -2        51        50       208      1162      1410      1411
 -1       252    8    0    1
 -2        50       207       208      1408      1412      1410
 -1       253    8    0    1
 -2        52        51       209      1163      1413      1414
 -1       254    8    0    1
 -2        51       208       209      1411      1415      1413
 -1       255    8    0    1
 -2        53        52       210      1164      1416      1417
 -1       256    8    0    1
 -2        52       209       210      1414      1418      1416
 -1       257    8    0    1
 -2        54        53       211      1165      1419      1420
 -1       258    8    0    1
 -2        53       210       211      1417      1421      1419
 -1       259    8    0    1
 -2        55        54       212      1166      1422      1423
 -1       260    8    0    1
 -2        54       211       212      1420      1424      1422
 -1       261    8    0    1
 -2        56        55       213      1167      1425      1426
 -1       262    8    0    1
 -2        55       212       213      1423      1427      1425
 -1       263    8    0    1
 -2        57        56       214      1168      1428      1429
 -1       264    8    0    1
 -2        56       213       214      1426      1430      1428
 -1       265    8    0    1
 -2        58        57       215      1169      1431      1432
 -1       266    8    0    1
 -2        57       214       215      1429      1433      1431
 -1       267    8    0    1
 -2        59        58       216      1170      1434      1435
 -1       268    8    0    1
 -2        58       215       216      1432      1436      1434
 -1       269    8    0    1
 -2        60        59       217      1171      1437      1438
 -1       270    8    0    1
 -2        59       216       217      1435      1439      1437
 -1       271    8    0    1
 -2        61        60       218      1172      1440      1441
 -1       272    8    0    1
 -2        60       217       218      1438      1442      1440
 -1       273    8    0    1
 -2        62        61       219      1173      1443      1444
 -1       274    8    0    1
 -2        61       218       219      1441      1445      1443
 -1       275    8    0    1
 -2        63        62       220      1174      1446      1447
 -1       276    8    0    1
 -2        62       219       220      1444      1448      1446
 -1       277    8    0    1
 -2        64        63       221      1175      1449      1450
 -1       278    8    0    1
 -2        63       220       221      1447      1451      1449
 -1       279    8    0    1
 -2        65        64       222      1176      1452      1453
 -1       280    8    0    1
 -2        64       221       222      1450      1454      1452
 -1       281    8    0    1
 -2        66        65       223      1177      1455      1456
 -1       282    8    0    1
 -2        65       222       223      1453      1457      1455
 -1       283    8    0    1
 -2        67        66       224      1178      1458      1459
 -1       284    8    0    1
 -2        66       223       224      1456      1460      1458
 -1       285    8    0    1
 -2        68        67       225      1179      1461      1462
 -1       286    8    0    1
 -2        67       224       225      1459      1463      1461
 -1       287    8    0    1
 -2        69        68       226      1180      1464      1465
 -1       288    8    0    1
 -2        68       225       226      1462      1466      1464
 -1       289    8    0    1
 -2        70        69       227      1181      1467      1468
 -1       290    8    0    1
 -2        69       226       227      1465      1469      1467
 -1       291    8    0    1
 -2        71        70       228      1182      1470      1471
 -1       292    8    0    1
 -2        70       227       228      1468      1472      1470
 -1       293    8    0    1
 -2         4        71       136      1183      1473      1250
 -1       294    8    0    1
 -2       136        71       228      1473      1471      1474
 -1       295    8    0    1
 -2        72        73       229      1185      1475      1476
 -1       296    8    0    1
 -2        72       229       180      1476      1477      1329
 -1       297    8    0    1
 -2        73        74       230      1186      1478      1479
 -1       298    8    0    1
 -2        73       230       229      1479      1480      1475
 -1       299    8    0    1
 -2        74        75       231      1187      1481      1482
 -1       300    8    0    1
 -2        74       231       230      1482      1483      1478
 -1       301    8    0    1
 -2        75        76       232      1188      1484      1485
 -1       302    8    0    1
 -2        75       232       231      1485      1486      1481
 -1       303    8    0    1
 -2        76        77       233      1189      1487      1488
 -1       304    8    0    1
 -2        76       233       232      1488      1489      1484
 -1       305    8    0    1
 -2        77        78       234      1190      1490      1491
 -1       306    8    0    1
 -2        77       234       233      1491      1492      1487
 -1       307    8    0    1
 -2        78        79       235      1191      1493      1494
 -1       308    8    0    1
 -2        78       235       234      1494      1495      1490
 -1       309    8    0    1
 -2        79        80       236      1192      1496      1497
 -1       310    8    0    1
 -2        79       236       235      1497      1498      1493
 -1       311    8    0    1
 -2        80        81       237      1193      1499      1500
 -1       312    8    0    1
 -2        80       237       236      1500      1501      1496
 -1       313    8    0    1
 -2        81        82       238      1194      1502      1503
 -1       314    8    0    1
 -2        81       238       237      1503      1504      1499
 -1       315    8    0    1
 -2        82        83       239      1195      1505      1506
 -1       316    8    0    1
 -2        82       239       238      1506      1507      1502
 -1       317    8    0    1
 -2        83        84       240      1196      1508      1509
 -1       318    8    0    1
 -2        83       240       239      1509      1510      1505
 -1       319    8    0    1
 -2        84        85       241      1197      1511      1512
 -1       320    8    0    1
 -2        84       241       240      1512      1513      1508
 -1       321    8    0    1
 -2        85        86       242      1198      1514      1515
 -1       322    8    0    1
 -2        85       242       241      1515      1516      1511
 -1       323    8    0    1
 -2        86        87       243      1199      1517      1518
 -1       324    8    0    1
 -2        86       243       242      1518      1519      1514
 -1       325    8    0    1
 -2        87        88       244      1200      1520      1521
 -1       326    8    0    1
 -2        87       244       243      1521      1522      1517
 -1       327    8    0    1
 -2        88        89       245      1201      1523      1524
 -1       328    8    0    1
 -2        88       245       244      1524      1525      1520
 -1       329    8    0    1
 -2        89        90       246      1202      1526      1527
 -1       330    8    0    1
 -2        89       246       245      1527      1528      1523
 -1       331    8    0    1
 -2        90        91       247      1203      1529      1530
 -1       332    8    0    1
 -2        90       247       246      1530      1531      1526
 -1       333    8    0    1
 -2        91        92       248      1204      1532      1533
 -1       334    8    0    1
 -2        91       248       247      1533      1534      1529
 -1       335    8    0    1
 -2        92        93       249      1205      1535      1536
 -1       336    8    0    1
 -2        92       249       248      1536      1537      1532
 -1       337    8    0    1
 -2        93        94       250      1206      1538      1539
 -1       338    8    0    1
 -2        93       250       249      1539      1540      1535
 -1       339    8    0    1
 -2        94        95       251      1207      1541      1542
 -1       340    8    0    1
 -2        94       251       250      1542      1543      1538
 -1       341    8    0    1
 -2        95        96       252      1208      1544      1545
 -1       342    8    0    1
 -2        95       252       251      1545      1546      1541
 -1       343    8    0    1
 -2        96        97       253      1209      1547      1548
 -1       344    8    0    1
 -2        96       253       252      1548      1549      1544
 -1       345    8    0    1
 -2        97        98       254      1210      1550      1551
 -1       346    8    0    1
 -2        97       254       253      1551      1552      1547
 -1       347    8    0    1
 -2        98        99       255      1211      1553      1554
 -1       348    8    0    1
 -2        98       255       254      1554      1555      1550
 -1       349    8    0    1
 -2        99       100       256      1212      1556      1557
 -1       350    8    0    1
 -2        99       256       255      1557      1558      1553
 -1       351    8    0    1
 -2       100       101       257      1213      1559      1560
 -1       352    8    0    1
 -2       100       257       256      1560      1561      1556
 -1       353    8    0    1
 -2       101       102       258      1214      1562      1563
 -1       354    8    0    1
 -2       101       258       257      1563      1564      1559
 -1       355    8    0    1
 -2       102       103       259      1215      1565      1566
 -1       356    8    0    1
 -2       102       259       258      1566      1567      1562
 -1       357    8    0    1
 -2       103       104       260      1216      1568      1569
 -1       358    8    0    1
 -2       103       260       259      1569      1570      1565
 -1       359    8    0    1
 -2       104       105       261      1217      1571      1572
 -1       360    8    0    1
 -2       104       261       260      1572      1573      1568
 -1       361    8    0    1
 -2       105       106       262      1218      1574      1575
 -1       362    8    0    1
 -2       105       262       261      1575      1576      1571
 -1       363    8    0    1
 -2       106       107       263      1219      1577      1578
 -1       364    8    0    1
 -2       106       263       262      1578      1579      1574
 -1       365    8    0    1
 -2       107       108       264      1220      1580      1581
 -1       366    8    0    1
 -2       107       264       263      1581      1582      1577
 -1       367    8    0    1
 -2       108       109       265      1221      1583      1584
 -1       368    8    0    1
 -2       108       265       264      1584      1585      1580
 -1       369    8    0    1
 -2       109       110       266      1222      1586      1587
 -1       370    8    0    1
 -2       109       266       265      1587      1588      1583
 -1       371    8    0    1
 -2       110       111       267      1223      1589      1590
 -1       372    8    0    1
 -2       110       267       266      1590      1591      1586
 -1       373    8    0    1
 -2       111       112       268      1224      1592      1593
 -1       374    8    0    1
 -2       111       268       267      1593      1594      1589
 -1       375    8    0    1
 -2       112       113       269      1225      1595      1596
 -1       376    8    0    1
 -2       112       269       268      1596      1597      1592
 -1       377    8    0    1
 -2       113       114       270      1226      1598      1599
 -1       378    8    0    1
 -2       113       270       269      1599      1600      1595
 -1       379    8    0    1
 -2       114       115       271      1227      1601      1602
 -1       380    8    0    1
 -2       114       271       270      1602      1603      1598
 -1       381    8    0    1
 -2       115       116       272      1228      1604      1605
 -1       382    8    0    1
 -2       115       272       271      1605      1606      1601
 -1       383    8    0    1
 -2       116       117       273      1229      1607      1608
 -1       384    8    0    1
 -2       116       273       272      1608      1609      1604
 -1       385    8    0    1
 -2       117       118       274      1230      1610      1611
 -1       386    8    0    1
 -2       117       274       273      1611      1612      1607
 -1       387    8    0    1
 -2       118       119       275      1231      1613      1614
 -1       388    8    0    1
 -2       118       275       274      1614      1615      1610
 -1       389    8    0    1
 -2       119       120       276      1232      1616      1617
 -1       390    8    0    1
 -2       119       276       275      1617      1618      1613
 -1       391    8    0    1
 -2       120         3       121      1233      1234      1619
 -1       392    8    0    1
 -2       121       122       277      1235      1620      1621
 -1       393    8    0    1
 -2       122       123       278      1236      1622      1623
 -1       394    8    0    1
 -2       122       278       277      1623      1624      1620
 -1       395    8    0    1
 -2       123       124       279      1237      1625      1626
 -1       396    8    0    1
 -2       123       279       278      1626      1627      1622
 -1       397    8    0    1
 -2       124       125       280      1238      1628      1629
 -1       398    8    0    1
 -2       124       280       279      1629      1630      1625
 -1       399    8    0    1
 -2       125       126       281      1239      1631      1632
 -1       400    8    0    1
 -2       125       281       280      1632      1633      1628
 -1       401    8    0    1
 -2       126       127       282      1240      1634      1635
 -1       402    8    0    1
 -2       126       282       281      1635      1636      1631
 -1       403    8    0    1
 -2       127       128       283      1241      1637      1638
 -1       404    8    0    1
 -2       127       283       282      1638      1639      1634
 -1       405    8    0    1
 -2       128       129       284      1242      1640      1641
 -1       406    8    0    1
 -2       128       284       283      1641      1642      1637
 -1       407    8    0    1
 -2       129       130       285      1243      1643      1644
 -1       408    8    0    1
 -2       129       285       284      1644      1645      1640
 -1       409    8    0    1
 -2       130       131       286      1244      1646      1647
 -1       410    8    0    1
 -2       130       286       285      1647      1648      1643
 -1       411    8    0    1
 -2       131       132       287      1245      1649      1650
 -1       412    8    0    1
 -2       131       287       286      1650      1651      1646
 -1       413    8    0    1
 -2       132       133       288      1246      1652      1653
 -1       414    8    0    1
 -2       132       288       287      1653      1654      1649
 -1       415    8    0    1
 -2       133       134       289      1247      1655      1656
 -1       416    8    0    1
 -2       133       289       288      1656      1657      1652
 -1       417    8    0    1
 -2       134       135       290      1248      1658      1659
 -1       418    8    0    1
 -2       134       290       289      1659      1660      1655
 -1       419    8    0    1
 -2       135       136       291      1249      1661      1662
 -1       420    8    0    1
 -2       290       135       291      1658      1662      1663
 -1       421    8    0    1
 -2       136       228       291      1474      1664      1661
 -1       422    8    0    1
 -2         2       137       292      1251      1665      1666
 -1       423    8    0    1
 -2       137       138       293      1252      1667      1668
 -1       424    8    0    1
 -2       138       139       294      1253      1669      1670
 -1       425    8    0    1
 -2       139       140       295      1254      1671      1672
 -1       426    8    0    1
 -2       140       141       296      1255      1673      1674
 -1       427    8    0    1
 -2       141       142       297      1256      1675      1676
 -1       428    8    0    1
 -2       142       143       298      1257      1677      1678
 -1       429    8    0    1
 -2       143       144       299      1258      1679      1680
 -1       430    8    0    1
 -2       144       145       300      1259      1681      1682
 -1       431    8    0    1
 -2       145       146       301      1260      1683      1684
 -1       432    8    0    1
 -2       146       147       302      1261      1685      1686
 -1       433    8    0    1
 -2       147       148       303      1262      1687      1688
 -1       434    8    0    1
 -2       148       149       304      1263      1689      1690
 -1       435    8    0    1
 -2       149       150       305      1264      1691      1692
 -1       436    8    0    1
 -2       150       151       306      1265      1693      1694
 -1       437    8    0    1
 -2       151       152       307      1266      1695      1696
 -1       438    8    0    1
 -2       152       153       308      1267      1697      1698
 -1       439    8    0    1
 -2       153       154       309      1268      1699      1700
 -1       440    8    0    1
 -2       154         1       310      1269      1701      1702
 -1       441    8    0    1
 -2         1       155       311      1270      1703      1704
 -1       442    8    0    1
 -2       155       156       312      1271      1705      1706
 -1       443    8    0    1
 -2       156       157       313      1272      1707      1708
 -1       444    8    0    1
 -2       157       158       314      1273      1709      1710
 -1       445    8    0    1
 -2       158       159       315      1274      1711      1712
 -1       446    8    0    1
 -2       159       160       316      1275      1713      1714
 -1       447    8    0    1
 -2       160       161       317      1276      1715      1716
 -1       448    8    0    1
 -2       161       162       318      1277      1717      1718
 -1       449    8    0    1
 -2       162       163       319      1278      1719      1720
 -1       450    8    0    1
 -2       163       164       320      1279      1721      1722
 -1       451    8    0    1
 -2       164         2       321      1280      1723      1724
 -1       452    8    0    1
 -2       295       140       296      1671      1674      1725
 -1       453    8    0    1
 -2       294       139       295      1669      1672      1726
 -1       454    8    0    1
 -2       120       121       276      1619      1727      1616
 -1       455    8    0    1
 -2       121       277       276      1621      1728      1727
 -1       456    8    0    1
 -2       292       137       293      1665      1668      1729
 -1       457    8    0    1
 -2       293       138       294      1667      1670      1730
 -1       458    8    0    1
 -2         2       292       321      1666      1731      1723
 -1       459    8    0    1
 -2       141       297       296      1676      1732      1673
 -1       460    8    0    1
 -2       142       298       297      1678      1733      1675
 -1       461    8    0    1
 -2       143       299       298      1680      1734      1677
 -1       462    8    0    1
 -2       144       300       299      1682      1735      1679
 -1       463    8    0    1
 -2       145       301       300      1684      1736      1681
 -1       464    8    0    1
 -2       146       302       301      1686      1737      1683
 -1       465    8    0    1
 -2       147       303       302      1688      1738      1685
 -1       466    8    0    1
 -2       148       304       303      1690      1739      1687
 -1       467    8    0    1
 -2       149       305       304      1692      1740      1689
 -1       468    8    0    1
 -2       150       306       305      1694      1741      1691
 -1       469    8    0    1
 -2       151       307       306      1696      1742      1693
 -1       470    8    0    1
 -2       152       308       307      1698      1743      1695
 -1       471    8    0    1
 -2       153       309       308      1700      1744      1697
 -1       472    8    0    1
 -2       154       310       309      1702      1745      1699
 -1       473    8    0    1
 -2         1       311       310      1704      1746      1701
 -1       474    8    0    1
 -2       155       312       311      1706      1747      1703
 -1       475    8    0    1
 -2       156       313       312      1708      1748      1705
 -1       476    8    0    1
 -2       157       314       313      1710      1749      1707
 -1       477    8    0    1
 -2       158       315       314      1712      1750      1709
 -1       478    8    0    1
 -2       159       316       315      1714      1751      1711
 -1       479    8    0    1
 -2       160       317       316      1716      1752      1713
 -1       480    8    0    1
 -2       161       318       317      1718      1753      1715
 -1       481    8    0    1
 -2       162       319       318      1720      1754      1717
 -1       482    8    0    1
 -2       163       320       319      1722      1755      1719
 -1       483    8    0    1
 -2       164       321       320      1724      1756      1721
 -1       484    8    0    1
 -2        23         7       165      1281      1283      1757
 -1       485    8    0    1
 -2       166       167       322      1289      1758      1759
 -1       486    8    0    1
 -2       165       166       323      1286      1760      1761
 -1       487    8    0    1
 -2       166       322       323      1759      1762      1760
 -1       488    8    0    1
 -2       168       169       324      1295      1763      1764
 -1       489    8    0    1
 -2       169       170       325      1298      1765      1766
 -1       490    8    0    1
 -2       169       325       324      1766      1767      1763
 -1       491    8    0    1
 -2       170       171       326      1301      1768      1769
 -1       492    8    0    1
 -2       170       326       325      1769      1770      1765
 -1       493    8    0    1
 -2       171       172       327      1304      1771      1772
 -1       494    8    0    1
 -2       171       327       326      1772      1773      1768
 -1       495    8    0    1
 -2       172       173       328      1307      1774      1775
 -1       496    8    0    1
 -2       172       328       327      1775      1776      1771
 -1       497    8    0    1
 -2       173       174       329      1310      1777      1778
 -1       498    8    0    1
 -2       173       329       328      1778      1779      1774
 -1       499    8    0    1
 -2       174       175       330      1313      1780      1781
 -1       500    8    0    1
 -2       174       330       329      1781      1782      1777
 -1       501    8    0    1
 -2       175       176       331      1316      1783      1784
 -1       502    8    0    1
 -2       175       331       330      1784      1785      1780
 -1       503    8    0    1
 -2       176       177       332      1319      1786      1787
 -1       504    8    0    1
 -2       176       332       331      1787      1788      1783
 -1       505    8    0    1
 -2       177       178       333      1322      1789      1790
 -1       506    8    0    1
 -2       177       333       332      1790      1791      1786
 -1       507    8    0    1
 -2       178       179       334      1325      1792      1793
 -1       508    8    0    1
 -2       178       334       333      1793      1794      1789
 -1       509    8    0    1
 -2       179       180       335      1328      1795      1796
 -1       510    8    0    1
 -2       334       179       335      1792      1796      1797
 -1       511    8    0    1
 -2       180       229       335      1477      1798      1795
 -1       512    8    0    1
 -2       181        23       165      1330      1757      1799
 -1       513    8    0    1
 -2       229       230       336      1480      1800      1801
 -1       514    8    0    1
 -2       229       336       335      1801      1802      1798
 -1       515    8    0    1
 -2       181       165       323      1799      1761      1803
 -1       516    8    0    1
 -2       183       182       337      1337      1804      1805
 -1       517    8    0    1
 -2       184       183       338      1340      1806      1807
 -1       518    8    0    1
 -2       183       337       338      1805      1808      1806
 -1       519    8    0    1
 -2       185       184       339      1343      1809      1810
 -1       520    8    0    1
 -2       184       338       339      1807      1811      1809
 -1       521    8    0    1
 -2       186       185       340      1346      1812      1813
 -1       522    8    0    1
 -2       185       339       340      1810      1814      1812
 -1       523    8    0    1
 -2       187       186       341      1349      1815      1816
 -1       524    8    0    1
 -2       186       340       341      1813      1817      1815
 -1       525    8    0    1
 -2       188       187       342      1352      1818      1819
 -1       526    8    0    1
 -2       187       341       342      1816      1820      1818
 -1       527    8    0    1
 -2       189       188       343      1355      1821      1822
 -1       528    8    0    1
 -2       188       342       343      1819      1823      1821
 -1       529    8    0    1
 -2       190       189       344      1358      1824      1825
 -1       530    8    0    1
 -2       189       343       344      1822      1826      1824
 -1       531    8    0    1
 -2       191       190       345      1361      1827      1828
 -1       532    8    0    1
 -2       190       344       345      1825      1829      1827
 -1       533    8    0    1
 -2       192       191       346      1364      1830      1831
 -1       534    8    0    1
 -2       191       345       346      1828      1832      1830
 -1       535    8    0    1
 -2       193       192       347      1367      1833      1834
 -1       536    8    0    1
 -2       192       346       347      1831      1835      1833
 -1       537    8    0    1
 -2       194       193       348      1370      1836      1837
 -1       538    8    0    1
 -2       193       347       348      1834      1838      1836
 -1       539    8    0    1
 -2       195       194       349      1373      1839      1840
 -1       540    8    0    1
 -2       194       348       349      1837      1841      1839
 -1       541    8    0    1
 -2       196       195       350      1376      1842      1843
 -1       542    8    0    1
 -2       195       349       350      1840      1844      1842
 -1       543    8    0    1
 -2       197       196       351      1379      1845      1846
 -1       544    8    0    1
 -2       196       350       351      1843      1847      1845
 -1       545    8    0    1
 -2       198       197       352      1382      1848      1849
 -1       546    8    0    1
 -2       197       351       352      1846      1850      1848
 -1       547    8    0    1
 -2       199       198       353      1385      1851      1852
 -1       548    8    0    1
 -2       198       352       353      1849      1853      1851
 -1       549    8    0    1
 -2       200       199       354      1388      1854      1855
 -1       550    8    0    1
 -2       199       353       354      1852      1856      1854
 -1       551    8    0    1
 -2       201       200       355      1391      1857      1858
 -1       552    8    0    1
 -2       200       354       355      1855      1859      1857
 -1       553    8    0    1
 -2       202       201       356      1394      1860      1861
 -1       554    8    0    1
 -2       201       355       356      1858      1862      1860
 -1       555    8    0    1
 -2       203       202       357      1397      1863      1864
 -1       556    8    0    1
 -2       202       356       357      1861      1865      1863
 -1       557    8    0    1
 -2       204       203       358      1400      1866      1867
 -1       558    8    0    1
 -2       203       357       358      1864      1868      1866
 -1       559    8    0    1
 -2       205       204       359      1403      1869      1870
 -1       560    8    0    1
 -2       204       358       359      1867      1871      1869
 -1       561    8    0    1
 -2       206       205       360      1406      1872      1873
 -1       562    8    0    1
 -2       205       359       360      1870      1874      1872
 -1       563    8    0    1
 -2       207       206       361      1409      1875      1876
 -1       564    8    0    1
 -2       206       360       361      1873      1877      1875
 -1       565    8    0    1
 -2       208       207       362      1412      1878      1879
 -1       566    8    0    1
 -2       207       361       362      1876      1880      1878
 -1       567    8    0    1
 -2       209       208       363      1415      1881      1882
 -1       568    8    0    1
 -2       208       362       363      1879      1883      1881
 -1       569    8    0    1
 -2       210       209       364      1418      1884      1885
 -1       570    8    0    1
 -2       209       363       364      1882      1886      1884
 -1       571    8    0    1
 -2       211       210       365      1421      1887      1888
 -1       572    8    0    1
 -2       210       364       365      1885      1889      1887
 -1       573    8    0    1
 -2       212       211       366      1424      1890      1891
 -1       574    8    0    1
 -2       211       365       366      1888      1892      1890
 -1       575    8    0    1
 -2       213       212       367      1427      1893      1894
 -1       576    8    0    1
 -2       212       366       367      1891      1895      1893
 -1       577    8    0    1
 -2       214       213       368      1430      1896      1897
 -1       578    8    0    1
 -2       213       367       368      1894      1898      1896
 -1       579    8    0    1
 -2       215       214       369      1433      1899      1900
 -1       580    8    0    1
 -2       214       368       369      1897      1901      1899
 -1       581    8    0    1
 -2       216       215       370      1436      1902      1903
 -1       582    8    0    1
 -2       215       369       370      1900      1904      1902
 -1       583    8    0    1
 -2       217       216       371      1439      1905      1906
 -1       584    8    0    1
 -2       216       370       371      1903      1907      1905
 -1       585    8    0    1
 -2       218       217       372      1442      1908      1909
 -1       586    8    0    1
 -2       217       371       372      1906      1910      1908
 -1       587    8    0    1
 -2       219       218       373      1445      1911      1912
 -1       588    8    0    1
 -2       218       372       373      1909      1913      1911
 -1       589    8    0    1
 -2       220       219       374      1448      1914      1915
 -1       590    8    0    1
 -2       219       373       374      1912      1916      1914
 -1       591    8    0    1
 -2       221       220       375      1451      1917      1918
 -1       592    8    0    1
 -2       220       374       375      1915      1919      1917
 -1       593    8    0    1
 -2       222       221       376      1454      1920      1921
 -1       594    8    0    1
 -2       221       375       376      1918      1922      1920
 -1       595    8    0    1
 -2       223       222       377      1457      1923      1924
 -1       596    8    0    1
 -2       222       376       377      1921      1925      1923
 -1       597    8    0    1
 -2       224       223       378      1460      1926      1927
 -1       598    8    0    1
 -2       223       377       378      1924      1928      1926
 -1       599    8    0    1
 -2       225       224       379      1463      1929      1930
 -1       600    8    0    1
 -2       224       378       379      1927      1931      1929
 -1       601    8    0    1
 -2       226       225       380      1466      1932      1933
 -1       602    8    0    1
 -2       225       379       380      1930      1934      1932
 -1       603    8    0    1
 -2       227       226       381      1469      1935      1936
 -1       604    8    0    1
 -2       226       380       381      1933      1937      1935
 -1       605    8    0    1
 -2       228       227       382      1472      1938      1939
 -1       606    8    0    1
 -2       291       228       382      1664      1939      1940
 -1       607    8    0    1
 -2       227       381       382      1936      1941      1938
 -1       608    8    0    1
 -2       230       231       383      1483      1942      1943
 -1       609    8    0    1
 -2       230       383       336      1943      1944      1800
 -1       610    8    0    1
 -2       231       232       384      1486      1945      1946
 -1       611    8    0    1
 -2       231       384       383      1946      1947      1942
 -1       612    8    0    1
 -2       232       233       385      1489      1948      1949
 -1       613    8    0    1
 -2       232       385       384      1949      1950      1945
 -1       614    8    0    1
 -2       233       234       386      1492      1951      1952
 -1       615    8    0    1
 -2       233       386       385      1952      1953      1948
 -1       616    8    0    1
 -2       234       235       387      1495      1954      1955
 -1       617    8    0    1
 -2       234       387       386      1955      1956      1951
 -1       618    8    0    1
 -2       235       236       388      1498      1957      1958
 -1       619    8    0    1
 -2       235       388       387      1958      1959      1954
 -1       620    8    0    1
 -2       236       237       389      1501      1960      1961
 -1       621    8    0    1
 -2       236       389       388      1961      1962      1957
 -1       622    8    0    1
 -2       237       238       390      1504      1963      1964
 -1       623    8    0    1
 -2       237       390       389      1964      1965      1960
 -1       624    8    0    1
 -2       238       239       391      1507      1966      1967
 -1       625    8    0    1
 -2       238       391       390      1967      1968      1963
 -1       626    8    0    1
 -2       239       240       392      1510      1969      1970
 -1       627    8    0    1
 -2       239       392       391      1970      1971      1966
 -1       628    8    0    1
 -2       240       241       393      1513      1972      1973
 -1       629    8    0    1
 -2       240       393       392      1973      1974      1969
 -1       630    8    0    1
 -2       241       242       394      1516      1975      1976
 -1       631    8    0    1
 -2       241       394       393      1976      1977      1972
 -1       632    8    0    1
 -2       242       243       395      1519      1978      1979
 -1       633    8    0    1
 -2       242       395       394      1979      1980      1975
 -1       634    8    0    1
 -2       243       244       396      1522      1981      1982
 -1       635    8    0    1
 -2       243       396       395      1982      1983      1978
 -1       636    8    0    1
 -2       244       245       397      1525      1984      1985
 -1       637    8    0    1
 -2       244       397       396      1985      1986      1981
 -1       638    8    0    1
 -2       245       246       398      1528      1987      1988
 -1       639    8    0    1
 -2       245       398       397      1988      1989      1984
 -1       640    8    0    1
 -2       246       247       399      1531      1990      1991
 -1       641    8    0    1
 -2       246       399       398      1991      1992      1987
 -1       642    8    0    1
 -2       247       248       400      1534      1993      1994
 -1       643    8    0    1
 -2       247       400       399      1994      1995      1990
 -1       644    8    0    1
 -2       248       249       401      1537      1996      1997
 -1       645    8    0    1
 -2       248       401       400      1997      1998      1993
 -1       646    8    0    1
 -2       249       250       402      1540      1999      2000
 -1       647    8    0    1
 -2       249       402       401      2000      2001      1996
 -1       648    8    0    1
 -2       250       251       403      1543      2002      2003
 -1       649    8    0    1
 -2       250       403       402      2003      2004      1999
 -1       650    8    0    1
 -2       251       252       404      1546      2005      2006
 -1       651    8    0    1
 -2       251       404       403      2006      2007      2002
 -1       652    8    0    1
 -2       252       253       405      1549      2008      2009
 -1       653    8    0    1
 -2       252       405       404      2009      2010      2005
 -1       654    8    0    1
 -2       253       254       406      1552      2011      2012
 -1       655    8    0    1
 -2       253       406       405      2012      2013      2008
 -1       656    8    0    1
 -2       254       255       407      1555      2014      2015
 -1       657    8    0    1
 -2       254       407       406      2015      2016      2011
 -1       658    8    0    1
 -2       255       256       408      1558      2017      2018
 -1       659    8    0    1
 -2       255       408       407      2018      2019      2014
 -1       660    8    0    1
 -2       256       257       409      1561      2020      2021
 -1       661    8    0    1
 -2       256       409       408      2021      2022      2017
 -1       662    8    0    1
 -2       257       258       410      1564      2023      2024
 -1       663    8    0    1
 -2       257       410       409      2024      2025      2020
 -1       664    8    0    1
 -2       258       259       411      1567      2026      2027
 -1       665    8    0    1
 -2       258       411       410      2027      2028      2023
 -1       666    8    0    1
 -2       259       260       412      1570      2029      2030
 -1       667    8    0    1
 -2       259       412       411      2030      2031      2026
 -1       668    8    0    1
 -2       260       261       413      1573      2032      2033
 -1       669    8    0    1
 -2       260       413       412      2033      2034      2029
 -1       670    8    0    1
 -2       261       262       414      1576      2035      2036
 -1       671    8    0    1
 -2       261       414       413      2036      2037      2032
 -1       672    8    0    1
 -2       262       263       415      1579      2038      2039
 -1       673    8    0    1
 -2       262       415       414      2039      2040      2035
 -1       674    8    0    1
 -2       263       264       416      1582      2041      2042
 -1       675    8    0    1
 -2       263       416       415      2042      2043      2038
 -1       676    8    0    1
 -2       264       265       417      1585      2044      2045
 -1       677    8    0    1
 -2       264       417       416      2045      2046      2041
 -1       678    8    0    1
 -2       265       266       418      1588      2047      2048
 -1       679    8    0    1
 -2       265       418       417      2048      2049      2044
 -1       680    8    0    1
 -2       266       267       419      1591      2050      2051
 -1       681    8    0    1
 -2       266       419       418      2051      2052      2047
 -1       682    8    0    1
 -2       267       268       420      1594      2053      2054
 -1       683    8    0    1
 -2       267       420       419      2054      2055      2050
 -1       684    8    0    1
 -2       268       269       421      1597      2056      2057
 -1       685    8    0    1
 -2       268       421       420      2057      2058      2053
 -1       686    8    0    1
 -2       269       270       422      1600      2059      2060
 -1       687    8    0    1
 -2       269       422       421      2060      2061      2056
 -1       688    8    0    1
 -2       270       271       423      1603      2062      2063
 -1       689    8    0    1
 -2       270       423       422      2063      2064      2059
 -1       690    8    0    1
 -2       271       272       424      1606      2065      2066
 -1       691    8    0    1
 -2       271       424       423      2066      2067      2062
 -1       692    8    0    1
 -2       272       273       425      1609      2068      2069
 -1       693    8    0    1
 -2       272       425       424      2069      2070      2065
 -1       694    8    0    1
 -2       273       274       426      1612      2071      2072
 -1       695    8    0    1
 -2       273       426       425      2072      2073      2068
 -1       696    8    0    1
 -2       274       275       427      1615      2074      2075
 -1       697    8    0    1
 -2       274       427       426      2075      2076      2071
 -1       698    8    0    1
 -2       275       276       428      1618      2077      2078
 -1       699    8    0    1
 -2       427       275       428      2074      2078      2079
 -1       700    8    0    1
 -2       276       277       428      1728      2080      2077
 -1       701    8    0    1
 -2       279       280       429      1630      2081      2082
 -1       702    8    0    1
 -2       278       279       430      1627      2083      2084
 -1       703    8    0    1
 -2       279       429       430      2082      2085      2083
 -1       704    8    0    1
 -2       277       278       431      1624      2086      2087
 -1       705    8    0    1
 -2       428       277       431      2080      2087      2088
 -1       706    8    0    1
 -2       278       430       431      2084      2089      2086
 -1       707    8    0    1
 -2       280       281       432      1633      2090      2091
 -1       708    8    0    1
 -2       280       432       429      2091      2092      2081
 -1       709    8    0    1
 -2       281       282       433      1636      2093      2094
 -1       710    8    0    1
 -2       281       433       432      2094      2095      2090
 -1       711    8    0    1
 -2       282       283       434      1639      2096      2097
 -1       712    8    0    1
 -2       282       434       433      2097      2098      2093
 -1       713    8    0    1
 -2       283       284       435      1642      2099      2100
 -1       714    8    0    1
 -2       283       435       434      2100      2101      2096
 -1       715    8    0    1
 -2       284       285       436      1645      2102      2103
 -1       716    8    0    1
 -2       284       436       435      2103      2104      2099
 -1       717    8    0    1
 -2       285       286       437      1648      2105      2106
 -1       718    8    0    1
 -2       285       437       436      2106      2107      2102
 -1       719    8    0    1
 -2       286       287       438      1651      2108      2109
 -1       720    8    0    1
 -2       286       438       437      2109      2110      2105
 -1       721    8    0    1
 -2       287       288       439      1654      2111      2112
 -1       722    8    0    1
 -2       287       439       438      2112      2113      2108
 -1       723    8    0    1
 -2       288       289       440      1657      2114      2115
 -1       724    8    0    1
 -2       288       440       439      2115      2116      2111
 -1       725    8    0    1
 -2       289       290       441      1660      2117      2118
 -1       726    8    0    1
 -2       289       441       440      2118      2119      2114
 -1       727    8    0    1
 -2       293       294       442      1730      2120      2121
 -1       728    8    0    1
 -2       321       292       443      1731      2122      2123
 -1       729    8    0    1
 -2       292       293       444      1729      2124      2125
 -1       730    8    0    1
 -2       294       295       445      1726      2126      2127
 -1       731    8    0    1
 -2       295       296       446      1725      2128      2129
 -1       732    8    0    1
 -2       167       168       447      1292      2130      2131
 -1       733    8    0    1
 -2       322       167       447      1758      2131      2132
 -1       734    8    0    1
 -2       168       324       447      1764      2133      2130
 -1       735    8    0    1
 -2       297       298       448      1733      2134      2135
 -1       736    8    0    1
 -2       298       299       449      1734      2136      2137
 -1       737    8    0    1
 -2       299       300       450      1735      2138      2139
 -1       738    8    0    1
 -2       299       450       449      2139      2140      2136
 -1       739    8    0    1
 -2       300       301       451      1736      2141      2142
 -1       740    8    0    1
 -2       301       302       452      1737      2143      2144
 -1       741    8    0    1
 -2       301       452       451      2144      2145      2141
 -1       742    8    0    1
 -2       302       303       453      1738      2146      2147
 -1       743    8    0    1
 -2       303       304       454      1739      2148      2149
 -1       744    8    0    1
 -2       303       454       453      2149      2150      2146
 -1       745    8    0    1
 -2       304       305       455      1740      2151      2152
 -1       746    8    0    1
 -2       305       306       456      1741      2153      2154
 -1       747    8    0    1
 -2       306       307       457      1742      2155      2156
 -1       748    8    0    1
 -2       307       308       458      1743      2157      2158
 -1       749    8    0    1
 -2       308       309       459      1744      2159      2160
 -1       750    8    0    1
 -2       309       310       460      1745      2161      2162
 -1       751    8    0    1
 -2       310       311       461      1746      2163      2164
 -1       752    8    0    1
 -2       311       312       462      1747      2165      2166
 -1       753    8    0    1
 -2       312       313       463      1748      2167      2168
 -1       754    8    0    1
 -2       313       314       464      1749      2169      2170
 -1       755    8    0    1
 -2       314       315       465      1750      2171      2172
 -1       756    8    0    1
 -2       315       316       466      1751      2173      2174
 -1       757    8    0    1
 -2       316       317       467      1752      2175      2176
 -1       758    8    0    1
 -2       317       318       468      1753      2177      2178
 -1       759    8    0    1
 -2       318       319       469      1754      2179      2180
 -1       760    8    0    1
 -2       319       320       470      1755      2181      2182
 -1       761    8    0    1
 -2       320       321       471      1756      2183      2184
 -1       762    8    0    1
 -2       296       297       472      1732      2185      2186
 -1       763    8    0    1
 -2       445       295       446      2126      2129      2187
 -1       764    8    0    1
 -2       181       323       182      1803      2188      1334
 -1       765    8    0    1
 -2       446       296       472      2128      2186      2189
 -1       766    8    0    1
 -2       297       448       472      2135      2190      2185
 -1       767    8    0    1
 -2       337       182       323      1804      2188      2191
 -1       768    8    0    1
 -2       444       293       442      2124      2121      2192
 -1       769    8    0    1
 -2       443       292       444      2122      2125      2193
 -1       770    8    0    1
 -2       441       290       291      2117      1663      2194
 -1       771    8    0    1
 -2       442       294       445      2120      2127      2195
 -1       772    8    0    1
 -2       321       443       471      2123      2196      2183
 -1       773    8    0    1
 -2       470       320       471      2181      2184      2197
 -1       774    8    0    1
 -2       469       319       470      2179      2182      2198
 -1       775    8    0    1
 -2       468       318       469      2177      2180      2199
 -1       776    8    0    1
 -2       467       317       468      2175      2178      2200
 -1       777    8    0    1
 -2       466       316       467      2173      2176      2201
 -1       778    8    0    1
 -2       465       315       466      2171      2174      2202
 -1       779    8    0    1
 -2       464       314       465      2169      2172      2203
 -1       780    8    0    1
 -2       463       313       464      2167      2170      2204
 -1       781    8    0    1
 -2       462       312       463      2165      2168      2205
 -1       782    8    0    1
 -2       461       311       462      2163      2166      2206
 -1       783    8    0    1
 -2       460       310       461      2161      2164      2207
 -1       784    8    0    1
 -2       459       309       460      2159      2162      2208
 -1       785    8    0    1
 -2       458       308       459      2157      2160      2209
 -1       786    8    0    1
 -2       457       307       458      2155      2158      2210
 -1       787    8    0    1
 -2       456       306       457      2153      2156      2211
 -1       788    8    0    1
 -2       454       304       455      2148      2152      2212
 -1       789    8    0    1
 -2       452       302       473      2143      2213      2214
 -1       790    8    0    1
 -2       302       453       473      2147      2215      2213
 -1       791    8    0    1
 -2       450       300       451      2138      2142      2216
 -1       792    8    0    1
 -2       448       298       449      2134      2137      2217
 -1       793    8    0    1
 -2       455       305       456      2151      2154      2218
 -1       794    8    0    1
 -2       336       383       474      1944      2219      2220
 -1       795    8    0    1
 -2       325       326       475      1770      2221      2222
 -1       796    8    0    1
 -2       324       325       476      1767      2223      2224
 -1       797    8    0    1
 -2       325       475       476      2222      2225      2223
 -1       798    8    0    1
 -2       327       328       477      1776      2226      2227
 -1       799    8    0    1
 -2       328       329       478      1779      2228      2229
 -1       800    8    0    1
 -2       328       478       477      2229      2230      2226
 -1       801    8    0    1
 -2       329       330       479      1782      2231      2232
 -1       802    8    0    1
 -2       329       479       478      2232      2233      2228
 -1       803    8    0    1
 -2       330       331       480      1785      2234      2235
 -1       804    8    0    1
 -2       330       480       479      2235      2236      2231
 -1       805    8    0    1
 -2       331       332       481      1788      2237      2238
 -1       806    8    0    1
 -2       331       481       480      2238      2239      2234
 -1       807    8    0    1
 -2       332       333       482      1791      2240      2241
 -1       808    8    0    1
 -2       332       482       481      2241      2242      2237
 -1       809    8    0    1
 -2       383       384       483      1947      2243      2244
 -1       810    8    0    1
 -2       383       483       474      2244      2245      2219
 -1       811    8    0    1
 -2       338       337       484      1808      2246      2247
 -1       812    8    0    1
 -2       446       472       485      2189      2248      2249
 -1       813    8    0    1
 -2       339       338       486      1811      2250      2251
 -1       814    8    0    1
 -2       338       484       486      2247      2252      2250
 -1       815    8    0    1
 -2       340       339       487      1814      2253      2254
 -1       816    8    0    1
 -2       339       486       487      2251      2255      2253
 -1       817    8    0    1
 -2       341       340       488      1817      2256      2257
 -1       818    8    0    1
 -2       340       487       488      2254      2258      2256
 -1       819    8    0    1
 -2       342       341       489      1820      2259      2260
 -1       820    8    0    1
 -2       341       488       489      2257      2261      2259
 -1       821    8    0    1
 -2       343       342       490      1823      2262      2263
 -1       822    8    0    1
 -2       342       489       490      2260      2264      2262
 -1       823    8    0    1
 -2       344       343       491      1826      2265      2266
 -1       824    8    0    1
 -2       343       490       491      2263      2267      2265
 -1       825    8    0    1
 -2       345       344       492      1829      2268      2269
 -1       826    8    0    1
 -2       344       491       492      2266      2270      2268
 -1       827    8    0    1
 -2       346       345       493      1832      2271      2272
 -1       828    8    0    1
 -2       345       492       493      2269      2273      2271
 -1       829    8    0    1
 -2       347       346       494      1835      2274      2275
 -1       830    8    0    1
 -2       346       493       494      2272      2276      2274
 -1       831    8    0    1
 -2       348       347       495      1838      2277      2278
 -1       832    8    0    1
 -2       347       494       495      2275      2279      2277
 -1       833    8    0    1
 -2       349       348       496      1841      2280      2281
 -1       834    8    0    1
 -2       348       495       496      2278      2282      2280
 -1       835    8    0    1
 -2       350       349       497      1844      2283      2284
 -1       836    8    0    1
 -2       349       496       497      2281      2285      2283
 -1       837    8    0    1
 -2       351       350       498      1847      2286      2287
 -1       838    8    0    1
 -2       350       497       498      2284      2288      2286
 -1       839    8    0    1
 -2       352       351       499      1850      2289      2290
 -1       840    8    0    1
 -2       351       498       499      2287      2291      2289
 -1       841    8    0    1
 -2       353       352       500      1853      2292      2293
 -1       842    8    0    1
 -2       352       499       500      2290      2294      2292
 -1       843    8    0    1
 -2       354       353       501      1856      2295      2296
 -1       844    8    0    1
 -2       353       500       501      2293      2297      2295
 -1       845    8    0    1
 -2       355       354       502      1859      2298      2299
 -1       846    8    0    1
 -2       354       501       502      2296      2300      2298
 -1       847    8    0    1
 -2       356       355       503      1862      2301      2302
 -1       848    8    0    1
 -2       355       502       503      2299      2303      2301
 -1       849    8    0    1
 -2       357       356       504      1865      2304      2305
 -1       850    8    0    1
 -2       356       503       504      2302      2306      2304
 -1       851    8    0    1
 -2       358       357       505      1868      2307      2308
 -1       852    8    0    1
 -2       357       504       505      2305      2309      2307
 -1       853    8    0    1
 -2       359       358       506      1871      2310      2311
 -1       854    8    0    1
 -2       358       505       506      2308      2312      2310
 -1       855    8    0    1
 -2       360       359       507      1874      2313      2314
 -1       856    8    0    1
 -2       359       506       507      2311      2315      2313
 -1       857    8    0    1
 -2       361       360       508      1877      2316      2317
 -1       858    8    0    1
 -2       360       507       508      2314      2318      2316
 -1       859    8    0    1
 -2       362       361       509      1880      2319      2320
 -1       860    8    0    1
 -2       361       508       509      2317      2321      2319
 -1       861    8    0    1
 -2       363       362       510      1883      2322      2323
 -1       862    8    0    1
 -2       362       509       510      2320      2324      2322
 -1       863    8    0    1
 -2       364       363       511      1886      2325      2326
 -1       864    8    0    1
 -2       363       510       511      2323      2327      2325
 -1       865    8    0    1
 -2       365       364       512      1889      2328      2329
 -1       866    8    0    1
 -2       364       511       512      2326      2330      2328
 -1       867    8    0    1
 -2       366       365       513      1892      2331      2332
 -1       868    8    0    1
 -2       365       512       513      2329      2333      2331
 -1       869    8    0    1
 -2       367       366       514      1895      2334      2335
 -1       870    8    0    1
 -2       366       513       514      2332      2336      2334
 -1       871    8    0    1
 -2       368       367       515      1898      2337      2338
 -1       872    8    0    1
 -2       367       514       515      2335      2339      2337
 -1       873    8    0    1
 -2       369       368       516      1901      2340      2341
 -1       874    8    0    1
 -2       368       515       516      2338      2342      2340
 -1       875    8    0    1
 -2       370       369       517      1904      2343      2344
 -1       876    8    0    1
 -2       369       516       517      2341      2345      2343
 -1       877    8    0    1
 -2       371       370       518      1907      2346      2347
 -1       878    8    0    1
 -2       370       517       518      2344      2348      2346
 -1       879    8    0    1
 -2       372       371       519      1910      2349      2350
 -1       880    8    0    1
 -2       371       518       519      2347      2351      2349
 -1       881    8    0    1
 -2       373       372       520      1913      2352      2353
 -1       882    8    0    1
 -2       372       519       520      2350      2354      2352
 -1       883    8    0    1
 -2       374       373       521      1916      2355      2356
 -1       884    8    0    1
 -2       373       520       521      2353      2357      2355
 -1       885    8    0    1
 -2       375       374       522      1919      2358      2359
 -1       886    8    0    1
 -2       374       521       522      2356      2360      2358
 -1       887    8    0    1
 -2       376       375       523      1922      2361      2362
 -1       888    8    0    1
 -2       375       522       523      2359      2363      2361
 -1       889    8    0    1
 -2       377       376       524      1925      2364      2365
 -1       890    8    0    1
 -2       376       523       524      2362      2366      2364
 -1       891    8    0    1
 -2       378       377       525      1928      2367      2368
 -1       892    8    0    1
 -2       377       524       525      2365      2369      2367
 -1       893    8    0    1
 -2       379       378       526      1931      2370      2371
 -1       894    8    0    1
 -2       378       525       526      2368      2372      2370
 -1       895    8    0    1
 -2       380       379       527      1934      2373      2374
 -1       896    8    0    1
 -2       379       526       527      2371      2375      2373
 -1       897    8    0    1
 -2       381       380       528      1937      2376      2377
 -1       898    8    0    1
 -2       380       527       528      2374      2378      2376
 -1       899    8    0    1
 -2       385       386       529      1953      2379      2380
 -1       900    8    0    1
 -2       386       387       530      1956      2381      2382
 -1       901    8    0    1
 -2       386       530       529      2382      2383      2379
 -1       902    8    0    1
 -2       387       388       531      1959      2384      2385
 -1       903    8    0    1
 -2       387       531       530      2385      2386      2381
 -1       904    8    0    1
 -2       388       389       532      1962      2387      2388
 -1       905    8    0    1
 -2       388       532       531      2388      2389      2384
 -1       906    8    0    1
 -2       389       390       533      1965      2390      2391
 -1       907    8    0    1
 -2       389       533       532      2391      2392      2387
 -1       908    8    0    1
 -2       390       391       534      1968      2393      2394
 -1       909    8    0    1
 -2       390       534       533      2394      2395      2390
 -1       910    8    0    1
 -2       391       392       535      1971      2396      2397
 -1       911    8    0    1
 -2       391       535       534      2397      2398      2393
 -1       912    8    0    1
 -2       392       393       536      1974      2399      2400
 -1       913    8    0    1
 -2       392       536       535      2400      2401      2396
 -1       914    8    0    1
 -2       393       394       537      1977      2402      2403
 -1       915    8    0    1
 -2       393       537       536      2403      2404      2399
 -1       916    8    0    1
 -2       394       395       538      1980      2405      2406
 -1       917    8    0    1
 -2       394       538       537      2406      2407      2402
 -1       918    8    0    1
 -2       395       396       539      1983      2408      2409
 -1       919    8    0    1
 -2       395       539       538      2409      2410      2405
 -1       920    8    0    1
 -2       396       397       540      1986      2411      2412
 -1       921    8    0    1
 -2       396       540       539      2412      2413      2408
 -1       922    8    0    1
 -2       397       398       541      1989      2414      2415
 -1       923    8    0    1
 -2       397       541       540      2415      2416      2411
 -1       924    8    0    1
 -2       398       399       542      1992      2417      2418
 -1       925    8    0    1
 -2       398       542       541      2418      2419      2414
 -1       926    8    0    1
 -2       399       400       543      1995      2420      2421
 -1       927    8    0    1
 -2       399       543       542      2421      2422      2417
 -1       928    8    0    1
 -2       400       401       544      1998      2423      2424
 -1       929    8    0    1
 -2       400       544       543      2424      2425      2420
 -1       930    8    0    1
 -2       401       402       545      2001      2426      2427
 -1       931    8    0    1
 -2       401       545       544      2427      2428      2423
 -1       932    8    0    1
 -2       402       403       546      2004      2429      2430
 -1       933    8    0    1
 -2       402       546       545      2430      2431      2426
 -1       934    8    0    1
 -2       403       404       547      2007      2432      2433
 -1       935    8    0    1
 -2       403       547       546      2433      2434      2429
 -1       936    8    0    1
 -2       404       405       548      2010      2435      2436
 -1       937    8    0    1
 -2       404       548       547      2436      2437      2432
 -1       938    8    0    1
 -2       405       406       549      2013      2438      2439
 -1       939    8    0    1
 -2       405       549       548      2439      2440      2435
 -1       940    8    0    1
 -2       406       407       550      2016      2441      2442
 -1       941    8    0    1
 -2       406       550       549      2442      2443      2438
 -1       942    8    0    1
 -2       407       408       551      2019      2444      2445
 -1       943    8    0    1
 -2       407       551       550      2445      2446      2441
 -1       944    8    0    1
 -2       408       409       552      2022      2447      2448
 -1       945    8    0    1
 -2       408       552       551      2448      2449      2444
 -1       946    8    0    1
 -2       409       410       553      2025      2450      2451
 -1       947    8    0    1
 -2       409       553       552      2451      2452      2447
 -1       948    8    0    1
 -2       410       411       554      2028      2453      2454
 -1       949    8    0    1
 -2       410       554       553      2454      2455      2450
 -1       950    8    0    1
 -2       411       412       555      2031      2456      2457
 -1       951    8    0    1
 -2       411       555       554      2457      2458      2453
 -1       952    8    0    1
 -2       412       413       556      2034      2459      2460
 -1       953    8    0    1
 -2       412       556       555      2460      2461      2456
 -1       954    8    0    1
 -2       413       414       557      2037      2462      2463
 -1       955    8    0    1
 -2       413       557       556      2463      2464      2459
 -1       956    8    0    1
 -2       414       415       558      2040      2465      2466
 -1       957    8    0    1
 -2       414       558       557      2466      2467      2462
 -1       958    8    0    1
 -2       415       416       559      2043      2468      2469
 -1       959    8    0    1
 -2       415       559       558      2469      2470      2465
 -1       960    8    0    1
 -2       416       417       560      2046      2471      2472
 -1       961    8    0    1
 -2       416       560       559      2472      2473      2468
 -1       962    8    0    1
 -2       417       418       561      2049      2474      2475
 -1       963    8    0    1
 -2       417       561       560      2475      2476      2471
 -1       964    8    0    1
 -2       418       419       562      2052      2477      2478
 -1       965    8    0    1
 -2       418       562       561      2478      2479      2474
 -1       966    8    0    1
 -2       419       420       563      2055      2480      2481
 -1       967    8    0    1
 -2       419       563       562      2481      2482      2477
 -1       968    8    0    1
 -2       420       421       564      2058      2483      2484
 -1       969    8    0    1
 -2       420       564       563      2484      2485      2480
 -1       970    8    0    1
 -2       421       422       565      2061      2486      2487
 -1       971    8    0    1
 -2       421       565       564      2487      2488      2483
 -1       972    8    0    1
 -2       422       423       566      2064      2489      2490
 -1       973    8    0    1
 -2       422       566       565      2490      2491      2486
 -1       974    8    0    1
 -2       423       424       567      2067      2492      2493
 -1       975    8    0    1
 -2       423       567       566      2493      2494      2489
 -1       976    8    0    1
 -2       424       425       568      2070      2495      2496
 -1       977    8    0    1
 -2       424       568       567      2496      2497      2492
 -1       978    8    0    1
 -2       425       426       569      2073      2498      2499
 -1       979    8    0    1
 -2       425       569       568      2499      2500      2495
 -1       980    8    0    1
 -2       426       427       570      2076      2501      2502
 -1       981    8    0    1
 -2       426       570       569      2502      2503      2498
 -1       982    8    0    1
 -2       427       428       431      2079      2088      2504
 -1       983    8    0    1
 -2       432       433       571      2095      2505      2506
 -1       984    8    0    1
 -2       433       434       572      2098      2507      2508
 -1       985    8    0    1
 -2       433       572       571      2508      2509      2505
 -1       986    8    0    1
 -2       430       429       573      2085      2510      2511
 -1       987    8    0    1
 -2       429       432       574      2092      2512      2513
 -1       988    8    0    1
 -2       573       429       574      2510      2513      2514
 -1       989    8    0    1
 -2       432       571       574      2506      2515      2512
 -1       990    8    0    1
 -2       434       435       575      2101      2516      2517
 -1       991    8    0    1
 -2       434       575       572      2517      2518      2507
 -1       992    8    0    1
 -2       435       436       576      2104      2519      2520
 -1       993    8    0    1
 -2       435       576       575      2520      2521      2516
 -1       994    8    0    1
 -2       436       437       577      2107      2522      2523
 -1       995    8    0    1
 -2       436       577       576      2523      2524      2519
 -1       996    8    0    1
 -2       437       438       578      2110      2525      2526
 -1       997    8    0    1
 -2       437       578       577      2526      2527      2522
 -1       998    8    0    1
 -2       438       439       579      2113      2528      2529
 -1       999    8    0    1
 -2       438       579       578      2529      2530      2525
 -1      1000    8    0    1
 -2       439       440       580      2116      2531      2532
 -1      1001    8    0    1
 -2       439       580       579      2532      2533      2528
 -1      1002    8    0    1
 -2       440       441       581      2119      2534      2535
 -1      1003    8    0    1
 -2       440       581       580      2535      2536      2531
 -1      1004    8    0    1
 -2       443       444       582      2193      2537      2538
 -1      1005    8    0    1
 -2       442       445       583      2195      2539      2540
 -1      1006    8    0    1
 -2       384       385       584      1950      2541      2542
 -1      1007    8    0    1
 -2       385       529       584      2380      2543      2541
 -1      1008    8    0    1
 -2       441       291       382      2194      1940      2544
 -1      1009    8    0    1
 -2       471       443       585      2196      2545      2546
 -1      1010    8    0    1
 -2       443       582       585      2538      2547      2545
 -1      1011    8    0    1
 -2       444       442       586      2192      2548      2549
 -1      1012    8    0    1
 -2       337       323       587      2191      2550      2551
 -1      1013    8    0    1
 -2       484       337       587      2246      2551      2552
 -1      1014    8    0    1
 -2       323       322       587      1762      2553      2550
 -1      1015    8    0    1
 -2       470       471       588      2197      2554      2555
 -1      1016    8    0    1
 -2       326       327       589      1773      2556      2557
 -1      1017    8    0    1
 -2       475       326       589      2221      2557      2558
 -1      1018    8    0    1
 -2       327       477       589      2227      2559      2556
 -1      1019    8    0    1
 -2       448       449       590      2217      2560      2561
 -1      1020    8    0    1
 -2       455       456       591      2218      2562      2563
 -1      1021    8    0    1
 -2       449       450       592      2140      2564      2565
 -1      1022    8    0    1
 -2       450       451       593      2216      2566      2567
 -1      1023    8    0    1
 -2       450       593       592      2567      2568      2564
 -1      1024    8    0    1
 -2       451       452       594      2145      2569      2570
 -1      1025    8    0    1
 -2       453       454       595      2150      2571      2572
 -1      1026    8    0    1
 -2       454       455       596      2212      2573      2574
 -1      1027    8    0    1
 -2       454       596       595      2574      2575      2571
 -1      1028    8    0    1
 -2       456       457       597      2211      2576      2577
 -1      1029    8    0    1
 -2       457       458       598      2210      2578      2579
 -1      1030    8    0    1
 -2       458       459       599      2209      2580      2581
 -1      1031    8    0    1
 -2       459       460       600      2208      2582      2583
 -1      1032    8    0    1
 -2       460       461       601      2207      2584      2585
 -1      1033    8    0    1
 -2       460       601       600      2585      2586      2582
 -1      1034    8    0    1
 -2       461       462       602      2206      2587      2588
 -1      1035    8    0    1
 -2       462       463       603      2205      2589      2590
 -1      1036    8    0    1
 -2       463       464       604      2204      2591      2592
 -1      1037    8    0    1
 -2       464       465       605      2203      2593      2594
 -1      1038    8    0    1
 -2       465       466       606      2202      2595      2596
 -1      1039    8    0    1
 -2       466       467       607      2201      2597      2598
 -1      1040    8    0    1
 -2       467       468       608      2200      2599      2600
 -1      1041    8    0    1
 -2       467       608       607      2600      2601      2597
 -1      1042    8    0    1
 -2       468       469       609      2199      2602      2603
 -1      1043    8    0    1
 -2       469       470       610      2198      2604      2605
 -1      1044    8    0    1
 -2       472       448       611      2190      2606      2607
 -1      1045    8    0    1
 -2       472       611       485      2607      2608      2248
 -1      1046    8    0    1
 -2       335       336       612      1802      2609      2610
 -1      1047    8    0    1
 -2       334       335       612      1797      2610      2611
 -1      1048    8    0    1
 -2       336       474       612      2220      2612      2609
 -1      1049    8    0    1
 -2       445       446       613      2187      2613      2614
 -1      1050    8    0    1
 -2       324       476       614      2224      2615      2616
 -1      1051    8    0    1
 -2       324       614       447      2616      2617      2133
 -1      1052    8    0    1
 -2       483       384       584      2243      2542      2618
 -1      1053    8    0    1
 -2       333       334       612      1794      2611      2619
 -1      1054    8    0    1
 -2       613       446       485      2613      2249      2620
 -1      1055    8    0    1
 -2       588       471       585      2554      2546      2621
 -1      1056    8    0    1
 -2       610       470       588      2604      2555      2622
 -1      1057    8    0    1
 -2       427       431       570      2504      2623      2501
 -1      1058    8    0    1
 -2       583       445       613      2539      2614      2624
 -1      1059    8    0    1
 -2       431       430       570      2089      2625      2623
 -1      1060    8    0    1
 -2       608       468       609      2599      2603      2626
 -1      1061    8    0    1
 -2       444       586       582      2549      2627      2537
 -1      1062    8    0    1
 -2       442       583       586      2540      2628      2548
 -1      1063    8    0    1
 -2       606       466       607      2595      2598      2629
 -1      1064    8    0    1
 -2       333       612       482      2619      2630      2240
 -1      1065    8    0    1
 -2       587       322       447      2553      2132      2631
 -1      1066    8    0    1
 -2       605       465       606      2593      2596      2632
 -1      1067    8    0    1
 -2       604       464       605      2591      2594      2633
 -1      1068    8    0    1
 -2       603       463       604      2589      2592      2634
 -1      1069    8    0    1
 -2       601       461       602      2584      2588      2635
 -1      1070    8    0    1
 -2       599       459       600      2580      2583      2636
 -1      1071    8    0    1
 -2       598       458       599      2578      2581      2637
 -1      1072    8    0    1
 -2       596       455       615      2573      2638      2639
 -1      1073    8    0    1
 -2       455       591       615      2563      2640      2638
 -1      1074    8    0    1
 -2       456       597       591      2577      2641      2562
 -1      1075    8    0    1
 -2       593       451       594      2566      2570      2642
 -1      1076    8    0    1
 -2       473       453       595      2215      2572      2643
 -1      1077    8    0    1
 -2       590       449       592      2560      2565      2644
 -1      1078    8    0    1
 -2       594       452       616      2569      2645      2646
 -1      1079    8    0    1
 -2       452       473       616      2214      2647      2645
 -1      1080    8    0    1
 -2       441       382       617      2544      2648      2649
 -1      1081    8    0    1
 -2       581       441       617      2534      2649      2650
 -1      1082    8    0    1
 -2       382       381       617      1941      2651      2648
 -1      1083    8    0    1
 -2       570       430       573      2625      2511      2652
 -1      1084    8    0    1
 -2       597       457       598      2576      2579      2653
 -1      1085    8    0    1
 -2       602       462       603      2587      2590      2654
 -1      1086    8    0    1
 -2       609       469       610      2602      2605      2655
 -1      1087    8    0    1
 -2       617       381       528      2651      2377      2656
 -1      1088    8    0    1
 -2       448       590       611      2561      2657      2606
 -1      1089    8    0    1
 -2       478       479       618      2233      2658      2659
 -1      1090    8    0    1
 -2       477       478       619      2230      2660      2661
 -1      1091    8    0    1
 -2       478       618       619      2659      2662      2660
 -1      1092    8    0    1
 -2       480       481       620      2239      2663      2664
 -1      1093    8    0    1
 -2       481       482       621      2242      2665      2666
 -1      1094    8    0    1
 -2       481       621       620      2666      2667      2663
 -1      1095    8    0    1
 -2       474       483       622      2245      2668      2669
 -1      1096    8    0    1
 -2       587       447       614      2631      2617      2670
 -1      1097    8    0    1
 -2       588       585       623      2621      2671      2672
 -1      1098    8    0    1
 -2       611       590       624      2657      2673      2674
 -1      1099    8    0    1
 -2       610       588       625      2622      2675      2676
 -1      1100    8    0    1
 -2       487       486       626      2255      2677      2678
 -1      1101    8    0    1
 -2       488       487       627      2258      2679      2680
 -1      1102    8    0    1
 -2       487       626       627      2678      2681      2679
 -1      1103    8    0    1
 -2       489       488       628      2261      2682      2683
 -1      1104    8    0    1
 -2       488       627       628      2680      2684      2682
 -1      1105    8    0    1
 -2       490       489       629      2264      2685      2686
 -1      1106    8    0    1
 -2       489       628       629      2683      2687      2685
 -1      1107    8    0    1
 -2       491       490       630      2267      2688      2689
 -1      1108    8    0    1
 -2       490       629       630      2686      2690      2688
 -1      1109    8    0    1
 -2       492       491       631      2270      2691      2692
 -1      1110    8    0    1
 -2       491       630       631      2689      2693      2691
 -1      1111    8    0    1
 -2       493       492       632      2273      2694      2695
 -1      1112    8    0    1
 -2       492       631       632      2692      2696      2694
 -1      1113    8    0    1
 -2       494       493       633      2276      2697      2698
 -1      1114    8    0    1
 -2       493       632       633      2695      2699      2697
 -1      1115    8    0    1
 -2       495       494       634      2279      2700      2701
 -1      1116    8    0    1
 -2       494       633       634      2698      2702      2700
 -1      1117    8    0    1
 -2       496       495       635      2282      2703      2704
 -1      1118    8    0    1
 -2       495       634       635      2701      2705      2703
 -1      1119    8    0    1
 -2       497       496       636      2285      2706      2707
 -1      1120    8    0    1
 -2       496       635       636      2704      2708      2706
 -1      1121    8    0    1
 -2       498       497       637      2288      2709      2710
 -1      1122    8    0    1
 -2       497       636       637      2707      2711      2709
 -1      1123    8    0    1
 -2       499       498       638      2291      2712      2713
 -1      1124    8    0    1
 -2       498       637       638      2710      2714      2712
 -1      1125    8    0    1
 -2       500       499       639      2294      2715      2716
 -1      1126    8    0    1
 -2       499       638       639      2713      2717      2715
 -1      1127    8    0    1
 -2       501       500       640      2297      2718      2719
 -1      1128    8    0    1
 -2       500       639       640      2716      2720      2718
 -1      1129    8    0    1
 -2       502       501       641      2300      2721      2722
 -1      1130    8    0    1
 -2       501       640       641      2719      2723      2721
 -1      1131    8    0    1
 -2       503       502       642      2303      2724      2725
 -1      1132    8    0    1
 -2       502       641       642      2722      2726      2724
 -1      1133    8    0    1
 -2       504       503       643      2306      2727      2728
 -1      1134    8    0    1
 -2       503       642       643      2725      2729      2727
 -1      1135    8    0    1
 -2       505       504       644      2309      2730      2731
 -1      1136    8    0    1
 -2       504       643       644      2728      2732      2730
 -1      1137    8    0    1
 -2       506       505       645      2312      2733      2734
 -1      1138    8    0    1
 -2       505       644       645      2731      2735      2733
 -1      1139    8    0    1
 -2       507       506       646      2315      2736      2737
 -1      1140    8    0    1
 -2       506       645       646      2734      2738      2736
 -1      1141    8    0    1
 -2       508       507       647      2318      2739      2740
 -1      1142    8    0    1
 -2       507       646       647      2737      2741      2739
 -1      1143    8    0    1
 -2       509       508       648      2321      2742      2743
 -1      1144    8    0    1
 -2       508       647       648      2740      2744      2742
 -1      1145    8    0    1
 -2       510       509       649      2324      2745      2746
 -1      1146    8    0    1
 -2       509       648       649      2743      2747      2745
 -1      1147    8    0    1
 -2       511       510       650      2327      2748      2749
 -1      1148    8    0    1
 -2       510       649       650      2746      2750      2748
 -1      1149    8    0    1
 -2       512       511       651      2330      2751      2752
 -1      1150    8    0    1
 -2       511       650       651      2749      2753      2751
 -1      1151    8    0    1
 -2       513       512       652      2333      2754      2755
 -1      1152    8    0    1
 -2       512       651       652      2752      2756      2754
 -1      1153    8    0    1
 -2       514       513       653      2336      2757      2758
 -1      1154    8    0    1
 -2       513       652       653      2755      2759      2757
 -1      1155    8    0    1
 -2       515       514       654      2339      2760      2761
 -1      1156    8    0    1
 -2       514       653       654      2758      2762      2760
 -1      1157    8    0    1
 -2       516       515       655      2342      2763      2764
 -1      1158    8    0    1
 -2       515       654       655      2761      2765      2763
 -1      1159    8    0    1
 -2       517       516       656      2345      2766      2767
 -1      1160    8    0    1
 -2       516       655       656      2764      2768      2766
 -1      1161    8    0    1
 -2       518       517       657      2348      2769      2770
 -1      1162    8    0    1
 -2       517       656       657      2767      2771      2769
 -1      1163    8    0    1
 -2       519       518       658      2351      2772      2773
 -1      1164    8    0    1
 -2       518       657       658      2770      2774      2772
 -1      1165    8    0    1
 -2       520       519       659      2354      2775      2776
 -1      1166    8    0    1
 -2       519       658       659      2773      2777      2775
 -1      1167    8    0    1
 -2       521       520       660      2357      2778      2779
 -1      1168    8    0    1
 -2       520       659       660      2776      2780      2778
 -1      1169    8    0    1
 -2       522       521       661      2360      2781      2782
 -1      1170    8    0    1
 -2       521       660       661      2779      2783      2781
 -1      1171    8    0    1
 -2       523       522       662      2363      2784      2785
 -1      1172    8    0    1
 -2       522       661       662      2782      2786      2784
 -1      1173    8    0    1
 -2       524       523       663      2366      2787      2788
 -1      1174    8    0    1
 -2       523       662       663      2785      2789      2787
 -1      1175    8    0    1
 -2       525       524       664      2369      2790      2791
 -1      1176    8    0    1
 -2       524       663       664      2788      2792      2790
 -1      1177    8    0    1
 -2       526       525       665      2372      2793      2794
 -1      1178    8    0    1
 -2       525       664       665      2791      2795      2793
 -1      1179    8    0    1
 -2       527       526       666      2375      2796      2797
 -1      1180    8    0    1
 -2       526       665       666      2794      2798      2796
 -1      1181    8    0    1
 -2       528       527       667      2378      2799      2800
 -1      1182    8    0    1
 -2       527       666       667      2797      2801      2799
 -1      1183    8    0    1
 -2       530       531       668      2386      2802      2803
 -1      1184    8    0    1
 -2       570       573       669      2652      2804      2805
 -1      1185    8    0    1
 -2       570       669       569      2805      2806      2503
 -1      1186    8    0    1
 -2       529       530       670      2383      2807      2808
 -1      1187    8    0    1
 -2       530       668       670      2803      2809      2807
 -1      1188    8    0    1
 -2       532       533       671      2392      2810      2811
 -1      1189    8    0    1
 -2       533       534       672      2395      2812      2813
 -1      1190    8    0    1
 -2       533       672       671      2813      2814      2810
 -1      1191    8    0    1
 -2       534       535       673      2398      2815      2816
 -1      1192    8    0    1
 -2       534       673       672      2816      2817      2812
 -1      1193    8    0    1
 -2       535       536       674      2401      2818      2819
 -1      1194    8    0    1
 -2       535       674       673      2819      2820      2815
 -1      1195    8    0    1
 -2       536       537       675      2404      2821      2822
 -1      1196    8    0    1
 -2       536       675       674      2822      2823      2818
 -1      1197    8    0    1
 -2       537       538       676      2407      2824      2825
 -1      1198    8    0    1
 -2       537       676       675      2825      2826      2821
 -1      1199    8    0    1
 -2       538       539       677      2410      2827      2828
 -1      1200    8    0    1
 -2       538       677       676      2828      2829      2824
 -1      1201    8    0    1
 -2       539       540       678      2413      2830      2831
 -1      1202    8    0    1
 -2       539       678       677      2831      2832      2827
 -1      1203    8    0    1
 -2       540       541       679      2416      2833      2834
 -1      1204    8    0    1
 -2       540       679       678      2834      2835      2830
 -1      1205    8    0    1
 -2       541       542       680      2419      2836      2837
 -1      1206    8    0    1
 -2       541       680       679      2837      2838      2833
 -1      1207    8    0    1
 -2       542       543       681      2422      2839      2840
 -1      1208    8    0    1
 -2       542       681       680      2840      2841      2836
 -1      1209    8    0    1
 -2       543       544       682      2425      2842      2843
 -1      1210    8    0    1
 -2       543       682       681      2843      2844      2839
 -1      1211    8    0    1
 -2       544       545       683      2428      2845      2846
 -1      1212    8    0    1
 -2       544       683       682      2846      2847      2842
 -1      1213    8    0    1
 -2       545       546       616      2431      2848      2849
 -1      1214    8    0    1
 -2       546       547       593      2434      2850      2851
 -1      1215    8    0    1
 -2       548       549       624      2440      2852      2853
 -1      1216    8    0    1
 -2       549       550       684      2443      2854      2855
 -1      1217    8    0    1
 -2       549       684       624      2855      2856      2852
 -1      1218    8    0    1
 -2       550       551       685      2446      2857      2858
 -1      1219    8    0    1
 -2       550       685       684      2858      2859      2854
 -1      1220    8    0    1
 -2       551       552       686      2449      2860      2861
 -1      1221    8    0    1
 -2       551       686       685      2861      2862      2857
 -1      1222    8    0    1
 -2       552       553       687      2452      2863      2864
 -1      1223    8    0    1
 -2       552       687       686      2864      2865      2860
 -1      1224    8    0    1
 -2       553       554       688      2455      2866      2867
 -1      1225    8    0    1
 -2       553       688       687      2867      2868      2863
 -1      1226    8    0    1
 -2       554       555       689      2458      2869      2870
 -1      1227    8    0    1
 -2       554       689       688      2870      2871      2866
 -1      1228    8    0    1
 -2       555       556       690      2461      2872      2873
 -1      1229    8    0    1
 -2       555       690       689      2873      2874      2869
 -1      1230    8    0    1
 -2       556       557       691      2464      2875      2876
 -1      1231    8    0    1
 -2       556       691       690      2876      2877      2872
 -1      1232    8    0    1
 -2       557       558       692      2467      2878      2879
 -1      1233    8    0    1
 -2       557       692       691      2879      2880      2875
 -1      1234    8    0    1
 -2       558       559       693      2470      2881      2882
 -1      1235    8    0    1
 -2       558       693       692      2882      2883      2878
 -1      1236    8    0    1
 -2       559       560       694      2473      2884      2885
 -1      1237    8    0    1
 -2       559       694       693      2885      2886      2881
 -1      1238    8    0    1
 -2       560       561       695      2476      2887      2888
 -1      1239    8    0    1
 -2       560       695       694      2888      2889      2884
 -1      1240    8    0    1
 -2       561       562       696      2479      2890      2891
 -1      1241    8    0    1
 -2       561       696       695      2891      2892      2887
 -1      1242    8    0    1
 -2       562       563       697      2482      2893      2894
 -1      1243    8    0    1
 -2       562       697       696      2894      2895      2890
 -1      1244    8    0    1
 -2       563       564       698      2485      2896      2897
 -1      1245    8    0    1
 -2       563       698       697      2897      2898      2893
 -1      1246    8    0    1
 -2       564       565       699      2488      2899      2900
 -1      1247    8    0    1
 -2       564       699       698      2900      2901      2896
 -1      1248    8    0    1
 -2       565       566       700      2491      2902      2903
 -1      1249    8    0    1
 -2       565       700       699      2903      2904      2899
 -1      1250    8    0    1
 -2       566       567       701      2494      2905      2906
 -1      1251    8    0    1
 -2       566       701       700      2906      2907      2902
 -1      1252    8    0    1
 -2       567       568       702      2497      2908      2909
 -1      1253    8    0    1
 -2       567       702       701      2909      2910      2905
 -1      1254    8    0    1
 -2       568       569       669      2500      2806      2911
 -1      1255    8    0    1
 -2       583       613       703      2624      2912      2913
 -1      1256    8    0    1
 -2       575       576       704      2521      2914      2915
 -1      1257    8    0    1
 -2       597       598       705      2653      2916      2917
 -1      1258    8    0    1
 -2       571       572       706      2509      2918      2919
 -1      1259    8    0    1
 -2       576       577       707      2524      2920      2921
 -1      1260    8    0    1
 -2       576       707       704      2921      2922      2914
 -1      1261    8    0    1
 -2       572       575       708      2518      2923      2924
 -1      1262    8    0    1
 -2       706       572       708      2918      2924      2925
 -1      1263    8    0    1
 -2       575       704       708      2915      2926      2923
 -1      1264    8    0    1
 -2       577       578       709      2527      2927      2928
 -1      1265    8    0    1
 -2       577       709       707      2928      2929      2920
 -1      1266    8    0    1
 -2       578       579       710      2530      2930      2931
 -1      1267    8    0    1
 -2       578       710       709      2931      2932      2927
 -1      1268    8    0    1
 -2       579       580       711      2533      2933      2934
 -1      1269    8    0    1
 -2       579       711       710      2934      2935      2930
 -1      1270    8    0    1
 -2       586       583       712      2628      2936      2937
 -1      1271    8    0    1
 -2       582       586       713      2627      2938      2939
 -1      1272    8    0    1
 -2       585       582       714      2547      2940      2941
 -1      1273    8    0    1
 -2       606       607       715      2629      2942      2943
 -1      1274    8    0    1
 -2       484       587       716      2552      2944      2945
 -1      1275    8    0    1
 -2       486       484       716      2252      2945      2946
 -1      1276    8    0    1
 -2       587       614       716      2670      2947      2944
 -1      1277    8    0    1
 -2       599       600       717      2636      2948      2949
 -1      1278    8    0    1
 -2       593       547       592      2850      2950      2568
 -1      1279    8    0    1
 -2       473       595       718      2643      2951      2952
 -1      1280    8    0    1
 -2       584       529       719      2543      2953      2954
 -1      1281    8    0    1
 -2       529       670       719      2808      2955      2953
 -1      1282    8    0    1
 -2       531       532       720      2389      2956      2957
 -1      1283    8    0    1
 -2       668       531       720      2802      2957      2958
 -1      1284    8    0    1
 -2       532       671       720      2811      2959      2956
 -1      1285    8    0    1
 -2       613       485       721      2620      2960      2961
 -1      1286    8    0    1
 -2       479       480       722      2236      2962      2963
 -1      1287    8    0    1
 -2       618       479       722      2658      2963      2964
 -1      1288    8    0    1
 -2       480       620       722      2664      2965      2962
 -1      1289    8    0    1
 -2       476       475       723      2225      2966      2967
 -1      1290    8    0    1
 -2       483       584       724      2618      2968      2969
 -1      1291    8    0    1
 -2       622       483       724      2668      2969      2970
 -1      1292    8    0    1
 -2       584       719       724      2954      2971      2968
 -1      1293    8    0    1
 -2       608       609       725      2626      2972      2973
 -1      1294    8    0    1
 -2       605       606       726      2632      2974      2975
 -1      1295    8    0    1
 -2       591       597       727      2641      2976      2977
 -1      1296    8    0    1
 -2       581       617       728      2650      2978      2979
 -1      1297    8    0    1
 -2       617       528       728      2656      2980      2978
 -1      1298    8    0    1
 -2       595       596       729      2575      2981      2982
 -1      1299    8    0    1
 -2       602       603       730      2654      2983      2984
 -1      1300    8    0    1
 -2       598       599       731      2637      2985      2986
 -1      1301    8    0    1
 -2       600       601       732      2586      2987      2988
 -1      1302    8    0    1
 -2       609       610       733      2655      2989      2990
 -1      1303    8    0    1
 -2       601       602       734      2635      2991      2992
 -1      1304    8    0    1
 -2       603       604       735      2634      2993      2994
 -1      1305    8    0    1
 -2       603       735       730      2994      2995      2983
 -1      1306    8    0    1
 -2       604       605       736      2633      2996      2997
 -1      1307    8    0    1
 -2       604       736       735      2997      2998      2993
 -1      1308    8    0    1
 -2       482       612       474      2630      2612      2999
 -1      1309    8    0    1
 -2       607       608       737      2601      3000      3001
 -1      1310    8    0    1
 -2       607       737       715      3001      3002      2942
 -1      1311    8    0    1
 -2       592       547       548      2950      2437      3003
 -1      1312    8    0    1
 -2       723       475       738      2966      3004      3005
 -1      1313    8    0    1
 -2       475       589       738      2558      3006      3004
 -1      1314    8    0    1
 -2       725       609       733      2972      2990      3007
 -1      1315    8    0    1
 -2       599       717       731      2949      3008      2985
 -1      1316    8    0    1
 -2       623       585       714      2671      2941      3009
 -1      1317    8    0    1
 -2       610       625       733      2676      3010      2989
 -1      1318    8    0    1
 -2       476       723       739      2967      3011      3012
 -1      1319    8    0    1
 -2       476       739       614      3012      3013      2615
 -1      1320    8    0    1
 -2       613       721       703      2961      3014      2912
 -1      1321    8    0    1
 -2       528       667       728      2800      3015      2980
 -1      1322    8    0    1
 -2       583       703       712      2913      3016      2936
 -1      1323    8    0    1
 -2       545       616       683      2849      3017      2845
 -1      1324    8    0    1
 -2       546       593       594      2851      2642      3018
 -1      1325    8    0    1
 -2       482       474       622      2999      2669      3019
 -1      1326    8    0    1
 -2       597       705       727      2917      3020      2976
 -1      1327    8    0    1
 -2       571       706       740      2919      3021      3022
 -1      1328    8    0    1
 -2       571       740       574      3022      3023      2515
 -1      1329    8    0    1
 -2       573       574       669      2514      3024      2804
 -1      1330    8    0    1
 -2       713       586       712      2938      2937      3025
 -1      1331    8    0    1
 -2       734       602       730      2991      2984      3026
 -1      1332    8    0    1
 -2       732       601       734      2987      2992      3027
 -1      1333    8    0    1
 -2       580       581       728      2536      2979      3028
 -1      1334    8    0    1
 -2       582       713       714      2939      3029      2940
 -1      1335    8    0    1
 -2       592       548       590      3003      3030      2644
 -1      1336    8    0    1
 -2       606       715       726      2943      3031      2974
 -1      1337    8    0    1
 -2       486       716       626      2946      3032      2677
 -1      1338    8    0    1
 -2       589       477       741      2559      3033      3034
 -1      1339    8    0    1
 -2       738       589       741      3006      3034      3035
 -1      1340    8    0    1
 -2       477       619       741      2661      3036      3033
 -1      1341    8    0    1
 -2       590       548       624      3030      2853      2673
 -1      1342    8    0    1
 -2       705       598       731      2916      2986      3037
 -1      1343    8    0    1
 -2       615       591       742      2640      3038      3039
 -1      1344    8    0    1
 -2       591       727       742      2977      3040      3038
 -1      1345    8    0    1
 -2       718       595       729      2951      2982      3041
 -1      1346    8    0    1
 -2       608       725       737      2973      3042      3000
 -1      1347    8    0    1
 -2       717       600       732      2948      2988      3043
 -1      1348    8    0    1
 -2       482       622       621      3019      3044      2665
 -1      1349    8    0    1
 -2       605       726       736      2975      3045      2996
 -1      1350    8    0    1
 -2       616       473       718      2647      2952      3046
 -1      1351    8    0    1
 -2       729       596       743      2981      3047      3048
 -1      1352    8    0    1
 -2       596       615       743      2639      3049      3047
 -1      1353    8    0    1
 -2       625       588       623      2675      2672      3050
 -1      1354    8    0    1
 -2       580       728       744      3028      3051      3052
 -1      1355    8    0    1
 -2       711       580       744      2933      3052      3053
 -1      1356    8    0    1
 -2       728       667       744      3015      3054      3051
 -1      1357    8    0    1
 -2       485       611       745      2608      3055      3056
 -1      1358    8    0    1
 -2       485       745       721      3056      3057      2960
 -1      1359    8    0    1
 -2       727       705       746      3020      3058      3059
 -1      1360    8    0    1
 -2       620       621       747      2667      3060      3061
 -1      1361    8    0    1
 -2       611       624       745      2674      3062      3055
 -1      1362    8    0    1
 -2       628       627       748      2684      3063      3064
 -1      1363    8    0    1
 -2       629       628       749      2687      3065      3066
 -1      1364    8    0    1
 -2       628       748       749      3064      3067      3065
 -1      1365    8    0    1
 -2       630       629       750      2690      3068      3069
 -1      1366    8    0    1
 -2       629       749       750      3066      3070      3068
 -1      1367    8    0    1
 -2       631       630       751      2693      3071      3072
 -1      1368    8    0    1
 -2       630       750       751      3069      3073      3071
 -1      1369    8    0    1
 -2       632       631       752      2696      3074      3075
 -1      1370    8    0    1
 -2       631       751       752      3072      3076      3074
 -1      1371    8    0    1
 -2       633       632       753      2699      3077      3078
 -1      1372    8    0    1
 -2       632       752       753      3075      3079      3077
 -1      1373    8    0    1
 -2       634       633       754      2702      3080      3081
 -1      1374    8    0    1
 -2       633       753       754      3078      3082      3080
 -1      1375    8    0    1
 -2       635       634       755      2705      3083      3084
 -1      1376    8    0    1
 -2       634       754       755      3081      3085      3083
 -1      1377    8    0    1
 -2       636       635       756      2708      3086      3087
 -1      1378    8    0    1
 -2       635       755       756      3084      3088      3086
 -1      1379    8    0    1
 -2       637       636       757      2711      3089      3090
 -1      1380    8    0    1
 -2       636       756       757      3087      3091      3089
 -1      1381    8    0    1
 -2       638       637       758      2714      3092      3093
 -1      1382    8    0    1
 -2       637       757       758      3090      3094      3092
 -1      1383    8    0    1
 -2       639       638       759      2717      3095      3096
 -1      1384    8    0    1
 -2       638       758       759      3093      3097      3095
 -1      1385    8    0    1
 -2       640       639       760      2720      3098      3099
 -1      1386    8    0    1
 -2       639       759       760      3096      3100      3098
 -1      1387    8    0    1
 -2       641       640       761      2723      3101      3102
 -1      1388    8    0    1
 -2       640       760       761      3099      3103      3101
 -1      1389    8    0    1
 -2       642       641       762      2726      3104      3105
 -1      1390    8    0    1
 -2       641       761       762      3102      3106      3104
 -1      1391    8    0    1
 -2       643       642       763      2729      3107      3108
 -1      1392    8    0    1
 -2       642       762       763      3105      3109      3107
 -1      1393    8    0    1
 -2       644       643       764      2732      3110      3111
 -1      1394    8    0    1
 -2       643       763       764      3108      3112      3110
 -1      1395    8    0    1
 -2       645       644       765      2735      3113      3114
 -1      1396    8    0    1
 -2       644       764       765      3111      3115      3113
 -1      1397    8    0    1
 -2       647       646       766      2741      3116      3117
 -1      1398    8    0    1
 -2       648       647       767      2744      3118      3119
 -1      1399    8    0    1
 -2       647       766       767      3117      3120      3118
 -1      1400    8    0    1
 -2       649       648       768      2747      3121      3122
 -1      1401    8    0    1
 -2       648       767       768      3119      3123      3121
 -1      1402    8    0    1
 -2       650       649       769      2750      3124      3125
 -1      1403    8    0    1
 -2       649       768       769      3122      3126      3124
 -1      1404    8    0    1
 -2       651       650       770      2753      3127      3128
 -1      1405    8    0    1
 -2       650       769       770      3125      3129      3127
 -1      1406    8    0    1
 -2       652       651       771      2756      3130      3131
 -1      1407    8    0    1
 -2       651       770       771      3128      3132      3130
 -1      1408    8    0    1
 -2       653       652       772      2759      3133      3134
 -1      1409    8    0    1
 -2       652       771       772      3131      3135      3133
 -1      1410    8    0    1
 -2       654       653       773      2762      3136      3137
 -1      1411    8    0    1
 -2       653       772       773      3134      3138      3136
 -1      1412    8    0    1
 -2       655       654       774      2765      3139      3140
 -1      1413    8    0    1
 -2       654       773       774      3137      3141      3139
 -1      1414    8    0    1
 -2       656       655       775      2768      3142      3143
 -1      1415    8    0    1
 -2       655       774       775      3140      3144      3142
 -1      1416    8    0    1
 -2       657       656       776      2771      3145      3146
 -1      1417    8    0    1
 -2       656       775       776      3143      3147      3145
 -1      1418    8    0    1
 -2       658       657       777      2774      3148      3149
 -1      1419    8    0    1
 -2       657       776       777      3146      3150      3148
 -1      1420    8    0    1
 -2       659       658       778      2777      3151      3152
 -1      1421    8    0    1
 -2       658       777       778      3149      3153      3151
 -1      1422    8    0    1
 -2       660       659       779      2780      3154      3155
 -1      1423    8    0    1
 -2       659       778       779      3152      3156      3154
 -1      1424    8    0    1
 -2       661       660       780      2783      3157      3158
 -1      1425    8    0    1
 -2       660       779       780      3155      3159      3157
 -1      1426    8    0    1
 -2       662       661       781      2786      3160      3161
 -1      1427    8    0    1
 -2       661       780       781      3158      3162      3160
 -1      1428    8    0    1
 -2       663       662       782      2789      3163      3164
 -1      1429    8    0    1
 -2       662       781       782      3161      3165      3163
 -1      1430    8    0    1
 -2       664       663       783      2792      3166      3167
 -1      1431    8    0    1
 -2       663       782       783      3164      3168      3166
 -1      1432    8    0    1
 -2       665       664       784      2795      3169      3170
 -1      1433    8    0    1
 -2       664       783       784      3167      3171      3169
 -1      1434    8    0    1
 -2       666       665       785      2798      3172      3173
 -1      1435    8    0    1
 -2       665       784       785      3170      3174      3172
 -1      1436    8    0    1
 -2       667       666       786      2801      3175      3176
 -1      1437    8    0    1
 -2       744       667       786      3054      3176      3177
 -1      1438    8    0    1
 -2       666       785       786      3173      3178      3175
 -1      1439    8    0    1
 -2       670       668       787      2809      3179      3180
 -1      1440    8    0    1
 -2       672       673       788      2817      3181      3182
 -1      1441    8    0    1
 -2       671       672       789      2814      3183      3184
 -1      1442    8    0    1
 -2       672       788       789      3182      3185      3183
 -1      1443    8    0    1
 -2       674       675       790      2823      3186      3187
 -1      1444    8    0    1
 -2       675       676       791      2826      3188      3189
 -1      1445    8    0    1
 -2       675       791       790      3189      3190      3186
 -1      1446    8    0    1
 -2       676       677       792      2829      3191      3192
 -1      1447    8    0    1
 -2       676       792       791      3192      3193      3188
 -1      1448    8    0    1
 -2       677       678       793      2832      3194      3195
 -1      1449    8    0    1
 -2       677       793       792      3195      3196      3191
 -1      1450    8    0    1
 -2       678       679       794      2835      3197      3198
 -1      1451    8    0    1
 -2       678       794       793      3198      3199      3194
 -1      1452    8    0    1
 -2       679       680       795      2838      3200      3201
 -1      1453    8    0    1
 -2       679       795       794      3201      3202      3197
 -1      1454    8    0    1
 -2       680       681       796      2841      3203      3204
 -1      1455    8    0    1
 -2       680       796       795      3204      3205      3200
 -1      1456    8    0    1
 -2       681       682       797      2844      3206      3207
 -1      1457    8    0    1
 -2       681       797       796      3207      3208      3203
 -1      1458    8    0    1
 -2       546       594       616      3018      2646      2848
 -1      1459    8    0    1
 -2       686       687       798      2865      3209      3210
 -1      1460    8    0    1
 -2       687       688       799      2868      3211      3212
 -1      1461    8    0    1
 -2       687       799       798      3212      3213      3209
 -1      1462    8    0    1
 -2       688       689       800      2871      3214      3215
 -1      1463    8    0    1
 -2       688       800       799      3215      3216      3211
 -1      1464    8    0    1
 -2       689       690       801      2874      3217      3218
 -1      1465    8    0    1
 -2       689       801       800      3218      3219      3214
 -1      1466    8    0    1
 -2       690       691       802      2877      3220      3221
 -1      1467    8    0    1
 -2       690       802       801      3221      3222      3217
 -1      1468    8    0    1
 -2       691       692       803      2880      3223      3224
 -1      1469    8    0    1
 -2       691       803       802      3224      3225      3220
 -1      1470    8    0    1
 -2       692       693       804      2883      3226      3227
 -1      1471    8    0    1
 -2       692       804       803      3227      3228      3223
 -1      1472    8    0    1
 -2       693       694       805      2886      3229      3230
 -1      1473    8    0    1
 -2       693       805       804      3230      3231      3226
 -1      1474    8    0    1
 -2       694       695       806      2889      3232      3233
 -1      1475    8    0    1
 -2       694       806       805      3233      3234      3229
 -1      1476    8    0    1
 -2       695       696       807      2892      3235      3236
 -1      1477    8    0    1
 -2       695       807       806      3236      3237      3232
 -1      1478    8    0    1
 -2       696       697       808      2895      3238      3239
 -1      1479    8    0    1
 -2       696       808       807      3239      3240      3235
 -1      1480    8    0    1
 -2       697       698       809      2898      3241      3242
 -1      1481    8    0    1
 -2       697       809       808      3242      3243      3238
 -1      1482    8    0    1
 -2       698       699       810      2901      3244      3245
 -1      1483    8    0    1
 -2       698       810       809      3245      3246      3241
 -1      1484    8    0    1
 -2       699       700       811      2904      3247      3248
 -1      1485    8    0    1
 -2       699       811       810      3248      3249      3244
 -1      1486    8    0    1
 -2       700       701       812      2907      3250      3251
 -1      1487    8    0    1
 -2       700       812       811      3251      3252      3247
 -1      1488    8    0    1
 -2       701       702       813      2910      3253      3254
 -1      1489    8    0    1
 -2       701       813       812      3254      3255      3250
 -1      1490    8    0    1
 -2       707       709       814      2929      3256      3257
 -1      1491    8    0    1
 -2       704       707       815      2922      3258      3259
 -1      1492    8    0    1
 -2       707       814       815      3257      3260      3258
 -1      1493    8    0    1
 -2       734       730       816      3026      3261      3262
 -1      1494    8    0    1
 -2       683       616       718      3017      3046      3263
 -1      1495    8    0    1
 -2       623       714       817      3009      3264      3265
 -1      1496    8    0    1
 -2       627       626       818      2681      3266      3267
 -1      1497    8    0    1
 -2       627       818       748      3267      3268      3063
 -1      1498    8    0    1
 -2       735       736       819      2998      3269      3270
 -1      1499    8    0    1
 -2       733       625       820      3010      3271      3272
 -1      1500    8    0    1
 -2       712       703       821      3016      3273      3274
 -1      1501    8    0    1
 -2       716       614       739      2947      3013      3275
 -1      1502    8    0    1
 -2       719       670       822      2955      3276      3277
 -1      1503    8    0    1
 -2       670       787       822      3180      3278      3276
 -1      1504    8    0    1
 -2       725       733       823      3007      3279      3280
 -1      1505    8    0    1
 -2       709       710       824      2932      3281      3282
 -1      1506    8    0    1
 -2       709       824       814      3282      3283      3256
 -1      1507    8    0    1
 -2       710       711       825      2935      3284      3285
 -1      1508    8    0    1
 -2       710       825       824      3285      3286      3281
 -1      1509    8    0    1
 -2       669       574       740      3024      3023      3287
 -1      1510    8    0    1
 -2       673       674       826      2820      3288      3289
 -1      1511    8    0    1
 -2       788       673       826      3181      3289      3290
 -1      1512    8    0    1
 -2       674       790       826      3187      3291      3288
 -1      1513    8    0    1
 -2       626       716       827      3032      3292      3293
 -1      1514    8    0    1
 -2       818       626       827      3266      3293      3294
 -1      1515    8    0    1
 -2       716       739       827      3275      3295      3292
 -1      1516    8    0    1
 -2       718       729       828      3041      3296      3297
 -1      1517    8    0    1
 -2       714       713       829      3029      3298      3299
 -1      1518    8    0    1
 -2       619       618       830      2662      3300      3301
 -1      1519    8    0    1
 -2       732       734       831      3027      3302      3303
 -1      1520    8    0    1
 -2       713       712       832      3025      3304      3305
 -1      1521    8    0    1
 -2       712       821       832      3274      3306      3304
 -1      1522    8    0    1
 -2       625       623       833      3050      3307      3308
 -1      1523    8    0    1
 -2       623       817       833      3265      3309      3307
 -1      1524    8    0    1
 -2       621       622       834      3044      3310      3311
 -1      1525    8    0    1
 -2       747       621       834      3060      3311      3312
 -1      1526    8    0    1
 -2       622       724       834      2970      3313      3310
 -1      1527    8    0    1
 -2       731       717       835      3008      3314      3315
 -1      1528    8    0    1
 -2       705       731       836      3037      3316      3317
 -1      1529    8    0    1
 -2       730       735       837      2995      3318      3319
 -1      1530    8    0    1
 -2       717       732       838      3043      3320      3321
 -1      1531    8    0    1
 -2       732       831       838      3303      3322      3320
 -1      1532    8    0    1
 -2       737       725       839      3042      3323      3324
 -1      1533    8    0    1
 -2       715       737       840      3002      3325      3326
 -1      1534    8    0    1
 -2       703       721       841      3014      3327      3328
 -1      1535    8    0    1
 -2       683       718       828      3263      3297      3329
 -1      1536    8    0    1
 -2       620       747       842      3061      3330      3331
 -1      1537    8    0    1
 -2       620       842       722      3331      3332      2965
 -1      1538    8    0    1
 -2       735       819       837      3270      3333      3318
 -1      1539    8    0    1
 -2       739       723       843      3011      3334      3335
 -1      1540    8    0    1
 -2       739       843       827      3335      3336      3295
 -1      1541    8    0    1
 -2       646       645       844      2738      3337      3338
 -1      1542    8    0    1
 -2       766       646       844      3116      3338      3339
 -1      1543    8    0    1
 -2       645       765       844      3114      3340      3337
 -1      1544    8    0    1
 -2       725       823       839      3280      3341      3323
 -1      1545    8    0    1
 -2       727       746       845      3059      3342      3343
 -1      1546    8    0    1
 -2       727       845       742      3343      3344      3040
 -1      1547    8    0    1
 -2       671       789       846      3184      3345      3346
 -1      1548    8    0    1
 -2       671       846       720      3346      3347      2959
 -1      1549    8    0    1
 -2       797       682       828      3206      3348      3349
 -1      1550    8    0    1
 -2       828       729       797      3296      3350      3349
 -1      1551    8    0    1
 -2       682       683       828      2847      3329      3348
 -1      1552    8    0    1
 -2       686       798       841      3210      3351      3352
 -1      1553    8    0    1
 -2       723       738       847      3005      3353      3354
 -1      1554    8    0    1
 -2       723       847       843      3354      3355      3334
 -1      1555    8    0    1
 -2       734       816       831      3262      3356      3302
 -1      1556    8    0    1
 -2       568       669       702      2911      3357      2908
 -1      1557    8    0    1
 -2       706       708       848      2925      3358      3359
 -1      1558    8    0    1
 -2       746       705       836      3058      3317      3360
 -1      1559    8    0    1
 -2       668       720       849      2958      3361      3362
 -1      1560    8    0    1
 -2       720       846       849      3347      3363      3361
 -1      1561    8    0    1
 -2       740       706       850      3021      3364      3365
 -1      1562    8    0    1
 -2       706       848       850      3359      3366      3364
 -1      1563    8    0    1
 -2       816       730       837      3261      3319      3367
 -1      1564    8    0    1
 -2       708       704       851      2926      3368      3369
 -1      1565    8    0    1
 -2       848       708       851      3358      3369      3370
 -1      1566    8    0    1
 -2       704       815       851      3259      3371      3368
 -1      1567    8    0    1
 -2       817       714       829      3264      3299      3372
 -1      1568    8    0    1
 -2       733       820       823      3272      3373      3279
 -1      1569    8    0    1
 -2       625       833       820      3308      3374      3271
 -1      1570    8    0    1
 -2       741       619       852      3036      3375      3376
 -1      1571    8    0    1
 -2       619       830       852      3301      3377      3375
 -1      1572    8    0    1
 -2       841       721       685      3327      3378      3379
 -1      1573    8    0    1
 -2       702       669       853      3357      3380      3381
 -1      1574    8    0    1
 -2       813       702       853      3253      3381      3382
 -1      1575    8    0    1
 -2       669       740       853      3287      3383      3380
 -1      1576    8    0    1
 -2       686       841       685      3352      3379      2862
 -1      1577    8    0    1
 -2       797       729       743      3350      3048      3384
 -1      1578    8    0    1
 -2       685       721       745      3378      3057      3385
 -1      1579    8    0    1
 -2       840       737       839      3325      3324      3386
 -1      1580    8    0    1
 -2       821       703       841      3273      3328      3387
 -1      1581    8    0    1
 -2       618       722       854      2964      3388      3389
 -1      1582    8    0    1
 -2       830       618       854      3300      3389      3390
 -1      1583    8    0    1
 -2       722       842       854      3332      3391      3388
 -1      1584    8    0    1
 -2       724       719       855      2971      3392      3393
 -1      1585    8    0    1
 -2       834       724       855      3313      3393      3394
 -1      1586    8    0    1
 -2       719       822       855      3277      3395      3392
 -1      1587    8    0    1
 -2       731       835       836      3315      3396      3316
 -1      1588    8    0    1
 -2       829       713       832      3298      3305      3397
 -1      1589    8    0    1
 -2       743       615       856      3049      3398      3399
 -1      1590    8    0    1
 -2       615       742       856      3039      3400      3398
 -1      1591    8    0    1
 -2       726       715       767      3031      3401      3402
 -1      1592    8    0    1
 -2       787       668       849      3179      3362      3403
 -1      1593    8    0    1
 -2       726       767       766      3402      3120      3404
 -1      1594    8    0    1
 -2       726       766       844      3404      3339      3405
 -1      1595    8    0    1
 -2       835       717       838      3314      3321      3406
 -1      1596    8    0    1
 -2       736       726       844      3045      3405      3407
 -1      1597    8    0    1
 -2       711       744       857      3053      3408      3409
 -1      1598    8    0    1
 -2       825       711       857      3284      3409      3410
 -1      1599    8    0    1
 -2       744       786       857      3177      3411      3408
 -1      1600    8    0    1
 -2       838       831       858      3322      3412      3413
 -1      1601    8    0    1
 -2       745       624       684      3062      2856      3414
 -1      1602    8    0    1
 -2       831       816       859      3356      3415      3416
 -1      1603    8    0    1
 -2       839       823       860      3341      3417      3418
 -1      1604    8    0    1
 -2       750       749       861      3070      3419      3420
 -1      1605    8    0    1
 -2       751       750       862      3073      3421      3422
 -1      1606    8    0    1
 -2       750       861       862      3420      3423      3421
 -1      1607    8    0    1
 -2       752       751       863      3076      3424      3425
 -1      1608    8    0    1
 -2       751       862       863      3422      3426      3424
 -1      1609    8    0    1
 -2       753       752       864      3079      3427      3428
 -1      1610    8    0    1
 -2       752       863       864      3425      3429      3427
 -1      1611    8    0    1
 -2       754       753       865      3082      3430      3431
 -1      1612    8    0    1
 -2       753       864       865      3428      3432      3430
 -1      1613    8    0    1
 -2       755       754       866      3085      3433      3434
 -1      1614    8    0    1
 -2       754       865       866      3431      3435      3433
 -1      1615    8    0    1
 -2       756       755       867      3088      3436      3437
 -1      1616    8    0    1
 -2       755       866       867      3434      3438      3436
 -1      1617    8    0    1
 -2       757       756       868      3091      3439      3440
 -1      1618    8    0    1
 -2       756       867       868      3437      3441      3439
 -1      1619    8    0    1
 -2       758       757       869      3094      3442      3443
 -1      1620    8    0    1
 -2       757       868       869      3440      3444      3442
 -1      1621    8    0    1
 -2       759       758       870      3097      3445      3446
 -1      1622    8    0    1
 -2       758       869       870      3443      3447      3445
 -1      1623    8    0    1
 -2       760       759       871      3100      3448      3449
 -1      1624    8    0    1
 -2       759       870       871      3446      3450      3448
 -1      1625    8    0    1
 -2       761       760       872      3103      3451      3452
 -1      1626    8    0    1
 -2       760       871       872      3449      3453      3451
 -1      1627    8    0    1
 -2       763       762       859      3109      3454      3455
 -1      1628    8    0    1
 -2       770       769       860      3129      3456      3457
 -1      1629    8    0    1
 -2       771       770       873      3132      3458      3459
 -1      1630    8    0    1
 -2       770       860       873      3457      3460      3458
 -1      1631    8    0    1
 -2       772       771       874      3135      3461      3462
 -1      1632    8    0    1
 -2       771       873       874      3459      3463      3461
 -1      1633    8    0    1
 -2       773       772       875      3138      3464      3465
 -1      1634    8    0    1
 -2       772       874       875      3462      3466      3464
 -1      1635    8    0    1
 -2       774       773       876      3141      3467      3468
 -1      1636    8    0    1
 -2       773       875       876      3465      3469      3467
 -1      1637    8    0    1
 -2       775       774       877      3144      3470      3471
 -1      1638    8    0    1
 -2       774       876       877      3468      3472      3470
 -1      1639    8    0    1
 -2       776       775       878      3147      3473      3474
 -1      1640    8    0    1
 -2       775       877       878      3471      3475      3473
 -1      1641    8    0    1
 -2       777       776       879      3150      3476      3477
 -1      1642    8    0    1
 -2       776       878       879      3474      3478      3476
 -1      1643    8    0    1
 -2       778       777       880      3153      3479      3480
 -1      1644    8    0    1
 -2       777       879       880      3477      3481      3479
 -1      1645    8    0    1
 -2       779       778       881      3156      3482      3483
 -1      1646    8    0    1
 -2       778       880       881      3480      3484      3482
 -1      1647    8    0    1
 -2       780       779       882      3159      3485      3486
 -1      1648    8    0    1
 -2       779       881       882      3483      3487      3485
 -1      1649    8    0    1
 -2       781       780       883      3162      3488      3489
 -1      1650    8    0    1
 -2       780       882       883      3486      3490      3488
 -1      1651    8    0    1
 -2       782       781       884      3165      3491      3492
 -1      1652    8    0    1
 -2       781       883       884      3489      3493      3491
 -1      1653    8    0    1
 -2       783       782       885      3168      3494      3495
 -1      1654    8    0    1
 -2       782       884       885      3492      3496      3494
 -1      1655    8    0    1
 -2       784       783       886      3171      3497      3498
 -1      1656    8    0    1
 -2       783       885       886      3495      3499      3497
 -1      1657    8    0    1
 -2       785       784       887      3174      3500      3501
 -1      1658    8    0    1
 -2       784       886       887      3498      3502      3500
 -1      1659    8    0    1
 -2       835       838       888      3406      3503      3504
 -1      1660    8    0    1
 -2       838       858       888      3413      3505      3503
 -1      1661    8    0    1
 -2       791       792       889      3193      3506      3507
 -1      1662    8    0    1
 -2       790       791       890      3190      3508      3509
 -1      1663    8    0    1
 -2       791       889       890      3507      3510      3508
 -1      1664    8    0    1
 -2       793       794       891      3199      3511      3512
 -1      1665    8    0    1
 -2       794       795       892      3202      3513      3514
 -1      1666    8    0    1
 -2       794       892       891      3514      3515      3511
 -1      1667    8    0    1
 -2       795       796       893      3205      3516      3517
 -1      1668    8    0    1
 -2       795       893       892      3517      3518      3513
 -1      1669    8    0    1
 -2       815       814       894      3260      3519      3520
 -1      1670    8    0    1
 -2       800       801       895      3219      3521      3522
 -1      1671    8    0    1
 -2       832       821       896      3306      3523      3524
 -1      1672    8    0    1
 -2       798       799       896      3213      3525      3526
 -1      1673    8    0    1
 -2       801       802       897      3222      3527      3528
 -1      1674    8    0    1
 -2       801       897       895      3528      3529      3521
 -1      1675    8    0    1
 -2       802       803       898      3225      3530      3531
 -1      1676    8    0    1
 -2       802       898       897      3531      3532      3527
 -1      1677    8    0    1
 -2       803       804       899      3228      3533      3534
 -1      1678    8    0    1
 -2       803       899       898      3534      3535      3530
 -1      1679    8    0    1
 -2       804       805       900      3231      3536      3537
 -1      1680    8    0    1
 -2       804       900       899      3537      3538      3533
 -1      1681    8    0    1
 -2       805       806       901      3234      3539      3540
 -1      1682    8    0    1
 -2       805       901       900      3540      3541      3536
 -1      1683    8    0    1
 -2       806       807       902      3237      3542      3543
 -1      1684    8    0    1
 -2       806       902       901      3543      3544      3539
 -1      1685    8    0    1
 -2       807       808       903      3240      3545      3546
 -1      1686    8    0    1
 -2       807       903       902      3546      3547      3542
 -1      1687    8    0    1
 -2       808       809       904      3243      3548      3549
 -1      1688    8    0    1
 -2       808       904       903      3549      3550      3545
 -1      1689    8    0    1
 -2       809       810       905      3246      3551      3552
 -1      1690    8    0    1
 -2       809       905       904      3552      3553      3548
 -1      1691    8    0    1
 -2       810       811       906      3249      3554      3555
 -1      1692    8    0    1
 -2       810       906       905      3555      3556      3551
 -1      1693    8    0    1
 -2       811       812       907      3252      3557      3558
 -1      1694    8    0    1
 -2       811       907       906      3558      3559      3554
 -1      1695    8    0    1
 -2       812       813       908      3255      3560      3561
 -1      1696    8    0    1
 -2       812       908       907      3561      3562      3557
 -1      1697    8    0    1
 -2       824       825       909      3286      3563      3564
 -1      1698    8    0    1
 -2       746       836       910      3360      3565      3566
 -1      1699    8    0    1
 -2       817       829       911      3372      3567      3568
 -1      1700    8    0    1
 -2       836       835       912      3396      3569      3570
 -1      1701    8    0    1
 -2       748       818       913      3268      3571      3572
 -1      1702    8    0    1
 -2       819       736       844      3269      3407      3573
 -1      1703    8    0    1
 -2       822       787       914      3278      3574      3575
 -1      1704    8    0    1
 -2       820       833       915      3374      3576      3577
 -1      1705    8    0    1
 -2       814       824       916      3283      3578      3579
 -1      1706    8    0    1
 -2       894       814       916      3519      3579      3580
 -1      1707    8    0    1
 -2       824       909       916      3564      3581      3578
 -1      1708    8    0    1
 -2       797       743       917      3384      3582      3583
 -1      1709    8    0    1
 -2       796       797       917      3208      3583      3584
 -1      1710    8    0    1
 -2       743       856       917      3399      3585      3582
 -1      1711    8    0    1
 -2       792       793       918      3196      3586      3587
 -1      1712    8    0    1
 -2       889       792       918      3506      3587      3588
 -1      1713    8    0    1
 -2       793       891       918      3512      3589      3586
 -1      1714    8    0    1
 -2       789       788       919      3185      3590      3591
 -1      1715    8    0    1
 -2       823       820       920      3373      3592      3593
 -1      1716    8    0    1
 -2       767       715       840      3401      3326      3594
 -1      1717    8    0    1
 -2       799       800       921      3216      3595      3596
 -1      1718    8    0    1
 -2       800       895       921      3522      3597      3595
 -1      1719    8    0    1
 -2       821       841       798      3387      3351      3598
 -1      1720    8    0    1
 -2       787       849       922      3403      3599      3600
 -1      1721    8    0    1
 -2       787       922       914      3600      3601      3574
 -1      1722    8    0    1
 -2       749       748       923      3067      3602      3603
 -1      1723    8    0    1
 -2       749       923       861      3603      3604      3419
 -1      1724    8    0    1
 -2       833       817       924      3309      3605      3606
 -1      1725    8    0    1
 -2       738       741       925      3035      3607      3608
 -1      1726    8    0    1
 -2       847       738       925      3353      3608      3609
 -1      1727    8    0    1
 -2       741       852       925      3376      3610      3607
 -1      1728    8    0    1
 -2       829       832       926      3397      3611      3612
 -1      1729    8    0    1
 -2       821       798       896      3598      3526      3523
 -1      1730    8    0    1
 -2       767       840       768      3594      3613      3123
 -1      1731    8    0    1
 -2       745       684       685      3414      2859      3385
 -1      1732    8    0    1
 -2       859       816       763      3415      3614      3455
 -1      1733    8    0    1
 -2       839       860       769      3418      3456      3615
 -1      1734    8    0    1
 -2       844       765       819      3340      3616      3573
 -1      1735    8    0    1
 -2       839       769       768      3615      3126      3617
 -1      1736    8    0    1
 -2       859       762       927      3454      3618      3619
 -1      1737    8    0    1
 -2       762       761       927      3106      3620      3618
 -1      1738    8    0    1
 -2       835       888       912      3504      3621      3569
 -1      1739    8    0    1
 -2       764       763       816      3112      3614      3622
 -1      1740    8    0    1
 -2       765       764       837      3115      3623      3624
 -1      1741    8    0    1
 -2       845       746       928      3342      3625      3626
 -1      1742    8    0    1
 -2       746       910       928      3566      3627      3625
 -1      1743    8    0    1
 -2       785       887       909      3501      3628      3629
 -1      1744    8    0    1
 -2       919       788       929      3590      3630      3631
 -1      1745    8    0    1
 -2       788       826       929      3290      3632      3630
 -1      1746    8    0    1
 -2       846       789       930      3345      3633      3634
 -1      1747    8    0    1
 -2       789       919       930      3591      3635      3633
 -1      1748    8    0    1
 -2       818       827       931      3294      3636      3637
 -1      1749    8    0    1
 -2       913       818       931      3571      3637      3638
 -1      1750    8    0    1
 -2       827       843       931      3336      3639      3636
 -1      1751    8    0    1
 -2       764       816       837      3622      3367      3623
 -1      1752    8    0    1
 -2       927       761       872      3620      3452      3640
 -1      1753    8    0    1
 -2       931       843       932      3639      3641      3642
 -1      1754    8    0    1
 -2       843       847       932      3355      3643      3641
 -1      1755    8    0    1
 -2       790       890       933      3509      3644      3645
 -1      1756    8    0    1
 -2       790       933       826      3645      3646      3291
 -1      1757    8    0    1
 -2       893       796       917      3516      3584      3647
 -1      1758    8    0    1
 -2       910       836       912      3565      3570      3648
 -1      1759    8    0    1
 -2       926       832       896      3611      3524      3649
 -1      1760    8    0    1
 -2       831       859       858      3416      3650      3412
 -1      1761    8    0    1
 -2       908       813       853      3560      3382      3651
 -1      1762    8    0    1
 -2       909       825       785      3563      3652      3629
 -1      1763    8    0    1
 -2       915       833       924      3576      3606      3653
 -1      1764    8    0    1
 -2       817       911       924      3568      3654      3605
 -1      1765    8    0    1
 -2       849       846       934      3363      3655      3656
 -1      1766    8    0    1
 -2       922       849       934      3599      3656      3657
 -1      1767    8    0    1
 -2       846       930       934      3634      3658      3655
 -1      1768    8    0    1
 -2       850       848       935      3366      3659      3660
 -1      1769    8    0    1
 -2       851       815       936      3371      3661      3662
 -1      1770    8    0    1
 -2       815       894       936      3520      3663      3661
 -1      1771    8    0    1
 -2       748       913       923      3572      3664      3602
 -1      1772    8    0    1
 -2       842       747       937      3330      3665      3666
 -1      1773    8    0    1
 -2       839       768       840      3617      3613      3386
 -1      1774    8    0    1
 -2       853       740       850      3383      3365      3667
 -1      1775    8    0    1
 -2       852       830       938      3377      3668      3669
 -1      1776    8    0    1
 -2       820       915       920      3577      3670      3592
 -1      1777    8    0    1
 -2       938       830       939      3668      3671      3672
 -1      1778    8    0    1
 -2       830       854       939      3390      3673      3671
 -1      1779    8    0    1
 -2       896       799       921      3525      3596      3674
 -1      1780    8    0    1
 -2       829       926       911      3612      3675      3567
 -1      1781    8    0    1
 -2       837       819       765      3333      3616      3624
 -1      1782    8    0    1
 -2       855       822       940      3395      3676      3677
 -1      1783    8    0    1
 -2       822       914       940      3575      3678      3676
 -1      1784    8    0    1
 -2       856       742       941      3400      3679      3680
 -1      1785    8    0    1
 -2       742       845       941      3344      3681      3679
 -1      1786    8    0    1
 -2       823       920       860      3593      3682      3417
 -1      1787    8    0    1
 -2       848       851       942      3370      3683      3684
 -1      1788    8    0    1
 -2       848       942       935      3684      3685      3659
 -1      1789    8    0    1
 -2       912       888       943      3621      3686      3687
 -1      1790    8    0    1
 -2       863       862       944      3426      3688      3689
 -1      1791    8    0    1
 -2       864       863       945      3429      3690      3691
 -1      1792    8    0    1
 -2       863       944       945      3689      3692      3690
 -1      1793    8    0    1
 -2       865       864       946      3432      3693      3694
 -1      1794    8    0    1
 -2       864       945       946      3691      3695      3693
 -1      1795    8    0    1
 -2       866       865       947      3435      3696      3697
 -1      1796    8    0    1
 -2       865       946       947      3694      3698      3696
 -1      1797    8    0    1
 -2       867       866       948      3438      3699      3700
 -1      1798    8    0    1
 -2       866       947       948      3697      3701      3699
 -1      1799    8    0    1
 -2       868       867       949      3441      3702      3703
 -1      1800    8    0    1
 -2       867       948       949      3700      3704      3702
 -1      1801    8    0    1
 -2       869       868       950      3444      3705      3706
 -1      1802    8    0    1
 -2       868       949       950      3703      3707      3705
 -1      1803    8    0    1
 -2       870       869       951      3447      3708      3709
 -1      1804    8    0    1
 -2       869       950       951      3706      3710      3708
 -1      1805    8    0    1
 -2       871       870       952      3450      3711      3712
 -1      1806    8    0    1
 -2       870       951       952      3709      3713      3711
 -1      1807    8    0    1
 -2       872       871       953      3453      3714      3715
 -1      1808    8    0    1
 -2       871       952       953      3712      3716      3714
 -1      1809    8    0    1
 -2       909       887       954      3628      3717      3718
 -1      1810    8    0    1
 -2       909       954       916      3718      3719      3581
 -1      1811    8    0    1
 -2       859       927       858      3619      3720      3650
 -1      1812    8    0    1
 -2       874       873       955      3463      3721      3722
 -1      1813    8    0    1
 -2       875       874       956      3466      3723      3724
 -1      1814    8    0    1
 -2       874       955       956      3722      3725      3723
 -1      1815    8    0    1
 -2       876       875       957      3469      3726      3727
 -1      1816    8    0    1
 -2       875       956       957      3724      3728      3726
 -1      1817    8    0    1
 -2       877       876       958      3472      3729      3730
 -1      1818    8    0    1
 -2       876       957       958      3727      3731      3729
 -1      1819    8    0    1
 -2       878       877       959      3475      3732      3733
 -1      1820    8    0    1
 -2       877       958       959      3730      3734      3732
 -1      1821    8    0    1
 -2       879       878       960      3478      3735      3736
 -1      1822    8    0    1
 -2       878       959       960      3733      3737      3735
 -1      1823    8    0    1
 -2       880       879       961      3481      3738      3739
 -1      1824    8    0    1
 -2       879       960       961      3736      3740      3738
 -1      1825    8    0    1
 -2       881       880       962      3484      3741      3742
 -1      1826    8    0    1
 -2       880       961       962      3739      3743      3741
 -1      1827    8    0    1
 -2       882       881       963      3487      3744      3745
 -1      1828    8    0    1
 -2       881       962       963      3742      3746      3744
 -1      1829    8    0    1
 -2       883       882       964      3490      3747      3748
 -1      1830    8    0    1
 -2       882       963       964      3745      3749      3747
 -1      1831    8    0    1
 -2       884       883       965      3493      3750      3751
 -1      1832    8    0    1
 -2       883       964       965      3748      3752      3750
 -1      1833    8    0    1
 -2       885       884       966      3496      3753      3754
 -1      1834    8    0    1
 -2       884       965       966      3751      3755      3753
 -1      1835    8    0    1
 -2       886       885       967      3499      3756      3757
 -1      1836    8    0    1
 -2       885       966       967      3754      3758      3756
 -1      1837    8    0    1
 -2       887       886       968      3502      3759      3760
 -1      1838    8    0    1
 -2       954       887       968      3717      3760      3761
 -1      1839    8    0    1
 -2       886       967       968      3757      3762      3759
 -1      1840    8    0    1
 -2       888       858       969      3505      3763      3764
 -1      1841    8    0    1
 -2       888       969       943      3764      3765      3686
 -1      1842    8    0    1
 -2       786       785       857      3178      3766      3411
 -1      1843    8    0    1
 -2       892       893       970      3518      3767      3768
 -1      1844    8    0    1
 -2       891       892       971      3515      3769      3770
 -1      1845    8    0    1
 -2       892       970       971      3768      3771      3769
 -1      1846    8    0    1
 -2       917       856       941      3585      3680      3772
 -1      1847    8    0    1
 -2       895       897       972      3529      3773      3774
 -1      1848    8    0    1
 -2       899       900       973      3538      3775      3776
 -1      1849    8    0    1
 -2       900       901       974      3541      3777      3778
 -1      1850    8    0    1
 -2       900       974       973      3778      3779      3775
 -1      1851    8    0    1
 -2       901       902       975      3544      3780      3781
 -1      1852    8    0    1
 -2       901       975       974      3781      3782      3777
 -1      1853    8    0    1
 -2       902       903       976      3547      3783      3784
 -1      1854    8    0    1
 -2       902       976       975      3784      3785      3780
 -1      1855    8    0    1
 -2       903       904       977      3550      3786      3787
 -1      1856    8    0    1
 -2       903       977       976      3787      3788      3783
 -1      1857    8    0    1
 -2       904       905       978      3553      3789      3790
 -1      1858    8    0    1
 -2       904       978       977      3790      3791      3786
 -1      1859    8    0    1
 -2       905       906       979      3556      3792      3793
 -1      1860    8    0    1
 -2       905       979       978      3793      3794      3789
 -1      1861    8    0    1
 -2       906       907       980      3559      3795      3796
 -1      1862    8    0    1
 -2       906       980       979      3796      3797      3792
 -1      1863    8    0    1
 -2       907       908       981      3562      3798      3799
 -1      1864    8    0    1
 -2       907       981       980      3799      3800      3795
 -1      1865    8    0    1
 -2       910       912       982      3648      3801      3802
 -1      1866    8    0    1
 -2       915       924       983      3653      3803      3804
 -1      1867    8    0    1
 -2       926       896       921      3649      3674      3805
 -1      1868    8    0    1
 -2       937       747       855      3665      3806      3807
 -1      1869    8    0    1
 -2       913       931       984      3638      3808      3809
 -1      1870    8    0    1
 -2       931       932       984      3642      3810      3808
 -1      1871    8    0    1
 -2       861       923       985      3604      3811      3812
 -1      1872    8    0    1
 -2       920       915       955      3670      3813      3814
 -1      1873    8    0    1
 -2       898       899       986      3535      3815      3816
 -1      1874    8    0    1
 -2       899       973       986      3776      3817      3815
 -1      1875    8    0    1
 -2       908       853       850      3651      3667      3818
 -1      1876    8    0    1
 -2       858       927       969      3720      3819      3763
 -1      1877    8    0    1
 -2       852       938       987      3669      3820      3821
 -1      1878    8    0    1
 -2       852       987       925      3821      3822      3610
 -1      1879    8    0    1
 -2       854       842       988      3391      3823      3824
 -1      1880    8    0    1
 -2       939       854       988      3673      3824      3825
 -1      1881    8    0    1
 -2       842       937       988      3666      3826      3823
 -1      1882    8    0    1
 -2       893       917       941      3647      3772      3827
 -1      1883    8    0    1
 -2       897       898       989      3532      3828      3829
 -1      1884    8    0    1
 -2       897       989       972      3829      3830      3773
 -1      1885    8    0    1
 -2       890       889       990      3510      3831      3832
 -1      1886    8    0    1
 -2       921       895       991      3597      3833      3834
 -1      1887    8    0    1
 -2       895       972       991      3774      3835      3833
 -1      1888    8    0    1
 -2       873       860       920      3460      3682      3836
 -1      1889    8    0    1
 -2       923       913       992      3664      3837      3838
 -1      1890    8    0    1
 -2       985       923       992      3811      3838      3839
 -1      1891    8    0    1
 -2       913       984       992      3809      3840      3837
 -1      1892    8    0    1
 -2       862       861       993      3423      3841      3842
 -1      1893    8    0    1
 -2       861       985       993      3812      3843      3841
 -1      1894    8    0    1
 -2       908       850       935      3818      3660      3844
 -1      1895    8    0    1
 -2       926       921       991      3805      3834      3845
 -1      1896    8    0    1
 -2       855       747       834      3806      3312      3394
 -1      1897    8    0    1
 -2       924       911       994      3654      3846      3847
 -1      1898    8    0    1
 -2       873       920       955      3836      3814      3721
 -1      1899    8    0    1
 -2       911       926       995      3675      3848      3849
 -1      1900    8    0    1
 -2       994       911       995      3846      3849      3850
 -1      1901    8    0    1
 -2       926       991       995      3845      3851      3848
 -1      1902    8    0    1
 -2       937       855       940      3807      3677      3852
 -1      1903    8    0    1
 -2       914       922       996      3601      3853      3854
 -1      1904    8    0    1
 -2       908       935       981      3844      3855      3798
 -1      1905    8    0    1
 -2       872       953       969      3715      3856      3857
 -1      1906    8    0    1
 -2       929       826       933      3632      3646      3858
 -1      1907    8    0    1
 -2       928       910       997      3627      3859      3860
 -1      1908    8    0    1
 -2       910       982       997      3802      3861      3859
 -1      1909    8    0    1
 -2       927       872       969      3640      3857      3819
 -1      1910    8    0    1
 -2       919       929       998      3631      3862      3863
 -1      1911    8    0    1
 -2       970       893       941      3767      3827      3864
 -1      1912    8    0    1
 -2       930       919       999      3635      3865      3866
 -1      1913    8    0    1
 -2       919       998       999      3863      3867      3865
 -1      1914    8    0    1
 -2       933       890      1000      3644      3868      3869
 -1      1915    8    0    1
 -2       890       990      1000      3832      3870      3868
 -1      1916    8    0    1
 -2       891       971      1001      3770      3871      3872
 -1      1917    8    0    1
 -2       891      1001       918      3872      3873      3589
 -1      1918    8    0    1
 -2       982       912       943      3801      3687      3874
 -1      1919    8    0    1
 -2       915       983       955      3804      3875      3813
 -1      1920    8    0    1
 -2       936       894      1002      3663      3876      3877
 -1      1921    8    0    1
 -2       851       936       942      3662      3878      3683
 -1      1922    8    0    1
 -2       862       993       944      3842      3879      3688
 -1      1923    8    0    1
 -2       898       986       989      3816      3880      3828
 -1      1924    8    0    1
 -2       924       994       983      3847      3881      3803
 -1      1925    8    0    1
 -2       937       940      1003      3852      3882      3883
 -1      1926    8    0    1
 -2       937      1003       988      3883      3884      3826
 -1      1927    8    0    1
 -2       894       916      1004      3580      3885      3886
 -1      1928    8    0    1
 -2      1002       894      1004      3876      3886      3887
 -1      1929    8    0    1
 -2       916       954      1004      3719      3888      3885
 -1      1930    8    0    1
 -2       987       938      1005      3820      3889      3890
 -1      1931    8    0    1
 -2       938       939      1006      3672      3891      3892
 -1      1932    8    0    1
 -2       938      1006      1005      3892      3893      3889
 -1      1933    8    0    1
 -2       990       889      1007      3831      3894      3895
 -1      1934    8    0    1
 -2       889       918      1007      3588      3896      3894
 -1      1935    8    0    1
 -2       922       934      1008      3657      3897      3898
 -1      1936    8    0    1
 -2       922      1008       996      3898      3899      3853
 -1      1937    8    0    1
 -2       847       925      1009      3609      3900      3901
 -1      1938    8    0    1
 -2       932       847      1009      3643      3901      3902
 -1      1939    8    0    1
 -2       925       987      1009      3822      3903      3900
 -1      1940    8    0    1
 -2       940       914      1003      3678      3904      3882
 -1      1941    8    0    1
 -2       981       935      1010      3855      3905      3906
 -1      1942    8    0    1
 -2       935       942      1010      3685      3907      3905
 -1      1943    8    0    1
 -2      1003       914       996      3904      3854      3908
 -1      1944    8    0    1
 -2       987      1005      1011      3890      3909      3910
 -1      1945    8    0    1
 -2       987      1011      1009      3910      3911      3903
 -1      1946    8    0    1
 -2       969       953       943      3856      3912      3765
 -1      1947    8    0    1
 -2       929       933      1012      3858      3913      3914
 -1      1948    8    0    1
 -2       998       929      1012      3862      3914      3915
 -1      1949    8    0    1
 -2       933      1000      1012      3869      3916      3913
 -1      1950    8    0    1
 -2       946       945      1013      3695      3917      3918
 -1      1951    8    0    1
 -2       947       946      1014      3698      3919      3920
 -1      1952    8    0    1
 -2       946      1013      1014      3918      3921      3919
 -1      1953    8    0    1
 -2       948       947      1015      3701      3922      3923
 -1      1954    8    0    1
 -2       947      1014      1015      3920      3924      3922
 -1      1955    8    0    1
 -2       949       948      1016      3704      3925      3926
 -1      1956    8    0    1
 -2       948      1015      1016      3923      3927      3925
 -1      1957    8    0    1
 -2       950       949      1017      3707      3928      3929
 -1      1958    8    0    1
 -2       949      1016      1017      3926      3930      3928
 -1      1959    8    0    1
 -2       951       950      1018      3710      3931      3932
 -1      1960    8    0    1
 -2       950      1017      1018      3929      3933      3931
 -1      1961    8    0    1
 -2       952       951      1019      3713      3934      3935
 -1      1962    8    0    1
 -2       951      1018      1019      3932      3936      3934
 -1      1963    8    0    1
 -2       953       952      1020      3716      3937      3938
 -1      1964    8    0    1
 -2       943       953      1020      3912      3938      3939
 -1      1965    8    0    1
 -2       952      1019      1020      3935      3940      3937
 -1      1966    8    0    1
 -2       845       928       970      3626      3941      3942
 -1      1967    8    0    1
 -2       956       955       983      3725      3875      3943
 -1      1968    8    0    1
 -2       958       957      1021      3731      3944      3945
 -1      1969    8    0    1
 -2       959       958      1022      3734      3946      3947
 -1      1970    8    0    1
 -2       958      1021      1022      3945      3948      3946
 -1      1971    8    0    1
 -2       960       959      1023      3737      3949      3950
 -1      1972    8    0    1
 -2       959      1022      1023      3947      3951      3949
 -1      1973    8    0    1
 -2       961       960      1024      3740      3952      3953
 -1      1974    8    0    1
 -2       960      1023      1024      3950      3954      3952
 -1      1975    8    0    1
 -2       962       961      1025      3743      3955      3956
 -1      1976    8    0    1
 -2       961      1024      1025      3953      3957      3955
 -1      1977    8    0    1
 -2       963       962      1026      3746      3958      3959
 -1      1978    8    0    1
 -2       962      1025      1026      3956      3960      3958
 -1      1979    8    0    1
 -2       964       963      1027      3749      3961      3962
 -1      1980    8    0    1
 -2       963      1026      1027      3959      3963      3961
 -1      1981    8    0    1
 -2       965       964      1028      3752      3964      3965
 -1      1982    8    0    1
 -2       964      1027      1028      3962      3966      3964
 -1      1983    8    0    1
 -2       966       965      1029      3755      3967      3968
 -1      1984    8    0    1
 -2       965      1028      1029      3965      3969      3967
 -1      1985    8    0    1
 -2       967       966      1030      3758      3970      3971
 -1      1986    8    0    1
 -2       966      1029      1030      3968      3972      3970
 -1      1987    8    0    1
 -2       975       976      1031      3785      3973      3974
 -1      1988    8    0    1
 -2       974       975      1032      3782      3975      3976
 -1      1989    8    0    1
 -2       975      1031      1032      3974      3977      3975
 -1      1990    8    0    1
 -2       973       974      1033      3779      3978      3979
 -1      1991    8    0    1
 -2       974      1032      1033      3976      3980      3978
 -1      1992    8    0    1
 -2       976       977      1034      3788      3981      3982
 -1      1993    8    0    1
 -2       976      1034      1031      3982      3983      3973
 -1      1994    8    0    1
 -2       977       978      1035      3791      3984      3985
 -1      1995    8    0    1
 -2       977      1035      1034      3985      3986      3981
 -1      1996    8    0    1
 -2       978       979      1036      3794      3987      3988
 -1      1997    8    0    1
 -2       978      1036      1035      3988      3989      3984
 -1      1998    8    0    1
 -2       979       980      1037      3797      3990      3991
 -1      1999    8    0    1
 -2       979      1037      1036      3991      3992      3987
 -1      2000    8    0    1
 -2       980       981      1038      3800      3993      3994
 -1      2001    8    0    1
 -2      1037       980      1038      3990      3994      3995
 -1      2002    8    0    1
 -2       981      1010      1038      3906      3996      3993
 -1      2003    8    0    1
 -2       934       930      1039      3658      3997      3998
 -1      2004    8    0    1
 -2       930       999      1039      3866      3999      3997
 -1      2005    8    0    1
 -2       942       936      1040      3878      4000      4001
 -1      2006    8    0    1
 -2      1010       942      1040      3907      4001      4002
 -1      2007    8    0    1
 -2       936      1002      1040      3877      4003      4000
 -1      2008    8    0    1
 -2       993       985      1041      3843      4004      4005
 -1      2009    8    0    1
 -2       986       973      1042      3817      4006      4007
 -1      2010    8    0    1
 -2       973      1033      1042      3979      4008      4006
 -1      2011    8    0    1
 -2       991       972      1043      3835      4009      4010
 -1      2012    8    0    1
 -2       991      1043       995      4010      4011      3851
 -1      2013    8    0    1
 -2       785       825       857      3652      3410      3766
 -1      2014    8    0    1
 -2       983       994      1044      3881      4012      4013
 -1      2015    8    0    1
 -2       945       944      1045      3692      4014      4015
 -1      2016    8    0    1
 -2       945      1045      1013      4015      4016      3917
 -1      2017    8    0    1
 -2       989       986      1046      3880      4017      4018
 -1      2018    8    0    1
 -2       986      1042      1046      4007      4019      4017
 -1      2019    8    0    1
 -2       944       993      1047      3879      4020      4021
 -1      2020    8    0    1
 -2       944      1047      1045      4021      4022      4014
 -1      2021    8    0    1
 -2       939       988      1048      3825      4023      4024
 -1      2022    8    0    1
 -2      1006       939      1048      3891      4024      4025
 -1      2023    8    0    1
 -2       988      1003      1048      3884      4026      4023
 -1      2024    8    0    1
 -2       970       928      1049      3941      4027      4028
 -1      2025    8    0    1
 -2       971       970      1049      3771      4028      4029
 -1      2026    8    0    1
 -2       928       997      1049      3860      4030      4027
 -1      2027    8    0    1
 -2       972       989      1050      3830      4031      4032
 -1      2028    8    0    1
 -2      1043       972      1050      4009      4032      4033
 -1      2029    8    0    1
 -2       989      1046      1050      4018      4034      4031
 -1      2030    8    0    1
 -2       956       983      1051      3943      4035      4036
 -1      2031    8    0    1
 -2       957       956      1051      3728      4036      4037
 -1      2032    8    0    1
 -2       983      1044      1051      4013      4038      4035
 -1      2033    8    0    1
 -2      1011      1005      1052      3909      4039      4040
 -1      2034    8    0    1
 -2       997       982      1053      3861      4041      4042
 -1      2035    8    0    1
 -2      1053       982      1020      4041      4043      4044
 -1      2036    8    0    1
 -2      1021       957      1051      3944      4037      4045
 -1      2037    8    0    1
 -2       994       995      1054      3850      4046      4047
 -1      2038    8    0    1
 -2      1044       994      1054      4012      4047      4048
 -1      2039    8    0    1
 -2       995      1043      1054      4011      4049      4046
 -1      2040    8    0    1
 -2       954       968      1055      3761      4050      4051
 -1      2041    8    0    1
 -2       954      1055      1004      4051      4052      3888
 -1      2042    8    0    1
 -2      1052      1005      1056      4039      4053      4054
 -1      2043    8    0    1
 -2      1005      1006      1056      3893      4055      4053
 -1      2044    8    0    1
 -2       968       967      1055      3762      4056      4050
 -1      2045    8    0    1
 -2       999       998      1057      3867      4057      4058
 -1      2046    8    0    1
 -2      1000       990      1058      3870      4059      4060
 -1      2047    8    0    1
 -2      1001       971      1059      3871      4061      4062
 -1      2048    8    0    1
 -2       971      1049      1059      4029      4063      4061
 -1      2049    8    0    1
 -2       918      1001      1007      3873      4064      3896
 -1      2050    8    0    1
 -2       982       943      1020      3874      3939      4043
 -1      2051    8    0    1
 -2       998      1012      1060      3915      4065      4066
 -1      2052    8    0    1
 -2       998      1060      1057      4066      4067      4057
 -1      2053    8    0    1
 -2       990      1007      1061      3895      4068      4069
 -1      2054    8    0    1
 -2       990      1061      1058      4069      4070      4059
 -1      2055    8    0    1
 -2      1040      1002      1062      4003      4071      4072
 -1      2056    8    0    1
 -2       934      1039      1008      3998      4073      3897
 -1      2057    8    0    1
 -2      1055       967      1030      4056      3971      4074
 -1      2058    8    0    1
 -2       993      1041      1047      4005      4075      4020
 -1      2059    8    0    1
 -2      1002      1004      1055      3887      4052      4076
 -1      2060    8    0    1
 -2       984       932      1063      3810      4077      4078
 -1      2061    8    0    1
 -2       941       845       970      3681      3942      3864
 -1      2062    8    0    1
 -2      1002      1055      1062      4076      4079      4071
 -1      2063    8    0    1
 -2       996      1008      1064      3899      4080      4081
 -1      2064    8    0    1
 -2      1041       985      1065      4004      4082      4083
 -1      2065    8    0    1
 -2       985       992      1065      3839      4084      4082
 -1      2066    8    0    1
 -2      1003       996      1066      3908      4085      4086
 -1      2067    8    0    1
 -2       996      1064      1066      4081      4087      4085
 -1      2068    8    0    1
 -2      1032      1031      1067      3977      4088      4089
 -1      2069    8    0    1
 -2      1012      1000      1068      3916      4090      4091
 -1      2070    8    0    1
 -2      1060      1012      1068      4065      4091      4092
 -1      2071    8    0    1
 -2      1000      1058      1068      4060      4093      4090
 -1      2072    8    0    1
 -2      1014      1013      1069      3921      4094      4095
 -1      2073    8    0    1
 -2      1015      1014      1070      3924      4096      4097
 -1      2074    8    0    1
 -2      1014      1069      1070      4095      4098      4096
 -1      2075    8    0    1
 -2      1016      1015      1071      3927      4099      4100
 -1      2076    8    0    1
 -2      1015      1070      1071      4097      4101      4099
 -1      2077    8    0    1
 -2      1017      1016      1072      3930      4102      4103
 -1      2078    8    0    1
 -2      1016      1071      1072      4100      4104      4102
 -1      2079    8    0    1
 -2      1018      1017      1073      3933      4105      4106
 -1      2080    8    0    1
 -2      1017      1072      1073      4103      4107      4105
 -1      2081    8    0    1
 -2      1019      1018      1074      3936      4108      4109
 -1      2082    8    0    1
 -2      1018      1073      1074      4106      4110      4108
 -1      2083    8    0    1
 -2      1022      1021      1075      3948      4111      4112
 -1      2084    8    0    1
 -2      1021      1051      1076      4045      4113      4114
 -1      2085    8    0    1
 -2      1051      1044      1076      4038      4115      4113
 -1      2086    8    0    1
 -2      1062      1055      1030      4079      4074      4116
 -1      2087    8    0    1
 -2      1047      1041      1077      4075      4117      4118
 -1      2088    8    0    1
 -2      1023      1022      1078      3951      4119      4120
 -1      2089    8    0    1
 -2      1022      1075      1078      4112      4121      4119
 -1      2090    8    0    1
 -2      1024      1023      1079      3954      4122      4123
 -1      2091    8    0    1
 -2      1023      1078      1079      4120      4124      4122
 -1      2092    8    0    1
 -2      1025      1024      1080      3957      4125      4126
 -1      2093    8    0    1
 -2      1024      1079      1080      4123      4127      4125
 -1      2094    8    0    1
 -2      1026      1025      1081      3960      4128      4129
 -1      2095    8    0    1
 -2      1025      1080      1081      4126      4130      4128
 -1      2096    8    0    1
 -2      1027      1026      1082      3963      4131      4132
 -1      2097    8    0    1
 -2      1026      1081      1082      4129      4133      4131
 -1      2098    8    0    1
 -2      1028      1027      1083      3966      4134      4135
 -1      2099    8    0    1
 -2      1027      1082      1083      4132      4136      4134
 -1      2100    8    0    1
 -2      1029      1028      1084      3969      4137      4138
 -1      2101    8    0    1
 -2      1028      1083      1084      4135      4139      4137
 -1      2102    8    0    1
 -2      1030      1029      1085      3972      4140      4141
 -1      2103    8    0    1
 -2      1029      1084      1085      4138      4142      4140
 -1      2104    8    0    1
 -2      1034      1035      1086      3986      4143      4144
 -1      2105    8    0    1
 -2      1031      1034      1087      3983      4145      4146
 -1      2106    8    0    1
 -2      1034      1086      1087      4144      4147      4145
 -1      2107    8    0    1
 -2      1033      1032      1088      3980      4148      4149
 -1      2108    8    0    1
 -2      1032      1067      1088      4089      4150      4148
 -1      2109    8    0    1
 -2      1035      1036      1089      3989      4151      4152
 -1      2110    8    0    1
 -2      1035      1089      1086      4152      4153      4143
 -1      2111    8    0    1
 -2      1036      1037      1090      3992      4154      4155
 -1      2112    8    0    1
 -2      1036      1090      1089      4155      4156      4151
 -1      2113    8    0    1
 -2      1039       999      1091      3999      4157      4158
 -1      2114    8    0    1
 -2       999      1057      1091      4058      4159      4157
 -1      2115    8    0    1
 -2      1008      1039      1092      4073      4160      4161
 -1      2116    8    0    1
 -2      1008      1092      1064      4161      4162      4080
 -1      2117    8    0    1
 -2      1042      1033      1093      4008      4163      4164
 -1      2118    8    0    1
 -2      1033      1088      1093      4149      4165      4163
 -1      2119    8    0    1
 -2      1045      1047      1094      4022      4166      4167
 -1      2120    8    0    1
 -2      1047      1077      1094      4118      4168      4166
 -1      2121    8    0    1
 -2      1062      1030      1085      4116      4141      4169
 -1      2122    8    0    1
 -2      1049       997      1095      4030      4170      4171
 -1      2123    8    0    1
 -2      1059      1049      1095      4063      4171      4172
 -1      2124    8    0    1
 -2       997      1053      1095      4042      4173      4170
 -1      2125    8    0    1
 -2      1063       932      1009      4077      3902      4174
 -1      2126    8    0    1
 -2      1013      1045      1096      4016      4175      4176
 -1      2127    8    0    1
 -2      1013      1096      1069      4176      4177      4094
 -1      2128    8    0    1
 -2      1046      1042      1097      4019      4178      4179
 -1      2129    8    0    1
 -2      1042      1093      1097      4164      4180      4178
 -1      2130    8    0    1
 -2      1048      1003      1066      4026      4086      4181
 -1      2131    8    0    1
 -2      1007      1001      1098      4064      4182      4183
 -1      2132    8    0    1
 -2      1061      1007      1098      4068      4183      4184
 -1      2133    8    0    1
 -2      1001      1059      1098      4062      4185      4182
 -1      2134    8    0    1
 -2       984      1063      1099      4078      4186      4187
 -1      2135    8    0    1
 -2      1010      1040      1100      4002      4188      4189
 -1      2136    8    0    1
 -2      1038      1010      1100      3996      4189      4190
 -1      2137    8    0    1
 -2      1040      1062      1100      4072      4191      4188
 -1      2138    8    0    1
 -2       992       984      1099      3840      4187      4192
 -1      2139    8    0    1
 -2      1048      1066      1006      4181      4193      4025
 -1      2140    8    0    1
 -2      1006      1066      1056      4193      4194      4055
 -1      2141    8    0    1
 -2      1046      1097      1101      4179      4195      4196
 -1      2142    8    0    1
 -2      1046      1101      1050      4196      4197      4034
 -1      2143    8    0    1
 -2      1075      1021      1076      4111      4114      4198
 -1      2144    8    0    1
 -2      1020      1019      1053      3940      4199      4044
 -1      2145    8    0    1
 -2      1053      1019      1074      4199      4109      4200
 -1      2146    8    0    1
 -2      1063      1009      1011      4174      3911      4201
 -1      2147    8    0    1
 -2      1053      1074      1102      4200      4202      4203
 -1      2148    8    0    1
 -2      1095      1053      1102      4173      4203      4204
 -1      2149    8    0    1
 -2      1074      1073      1102      4110      4205      4202
 -1      2150    8    0    1
 -2      1077      1041      1103      4117      4206      4207
 -1      2151    8    0    1
 -2      1041      1065      1103      4083      4208      4206
 -1      2152    8    0    1
 -2      1045      1094      1096      4167      4209      4175
 -1      2153    8    0    1
 -2      1031      1087      1067      4146      4210      4088
 -1      2154    8    0    1
 -2      1058      1061      1104      4070      4211      4212
 -1      2155    8    0    1
 -2      1039      1091      1092      4158      4213      4160
 -1      2156    8    0    1
 -2      1099      1063      1011      4186      4201      4214
 -1      2157    8    0    1
 -2      1043      1050      1105      4033      4215      4216
 -1      2158    8    0    1
 -2      1054      1043      1105      4049      4216      4217
 -1      2159    8    0    1
 -2      1050      1101      1105      4197      4218      4215
 -1      2160    8    0    1
 -2      1091      1057      1106      4159      4219      4220
 -1      2161    8    0    1
 -2      1037      1038      1107      3995      4221      4222
 -1      2162    8    0    1
 -2      1090      1037      1107      4154      4222      4223
 -1      2163    8    0    1
 -2      1038      1100      1107      4190      4224      4221
 -1      2164    8    0    1
 -2      1099      1011      1052      4214      4040      4225
 -1      2165    8    0    1
 -2      1106      1057      1108      4219      4226      4227
 -1      2166    8    0    1
 -2      1057      1060      1108      4067      4228      4226
 -1      2167    8    0    1
 -2      1044      1054      1076      4048      4229      4115
 -1      2168    8    0    1
 -2      1058      1104      1109      4212      4230      4231
 -1      2169    8    0    1
 -2      1058      1109      1068      4231      4232      4093
 -1      2170    8    0    1
 -2      1056      1066      1064      4194      4087      4233
 -1      2171    8    0    1
 -2      1056      1064      1110      4233      4234      4235
 -1      2172    8    0    1
 -2      1064      1092      1110      4162      4236      4234
 -1      2173    8    0    1
 -2      1100      1062      1107      4191      4237      4224
 -1      2174    8    0    1
 -2      1107      1062      1085      4237      4169      4238
 -1      2175    8    0    1
 -2      1060      1068      1111      4092      4239      4240
 -1      2176    8    0    1
 -2      1068      1109      1111      4232      4241      4239
 -1      2177    8    0    1
 -2      1070      1069      1112      4098      4242      4243
 -1      2178    8    0    1
 -2      1071      1070      1109      4101      4244      4245
 -1      2179    8    0    1
 -2      1072      1071      1104      4104      4246      4247
 -1      2180    8    0    1
 -2      1073      1072      1113      4107      4248      4249
 -1      2181    8    0    1
 -2      1102      1073      1113      4205      4249      4250
 -1      2182    8    0    1
 -2      1072      1104      1113      4247      4251      4248
 -1      2183    8    0    1
 -2      1078      1075      1101      4121      4252      4253
 -1      2184    8    0    1
 -2      1091      1106      1114      4220      4254      4255
 -1      2185    8    0    1
 -2      1091      1114      1092      4255      4256      4213
 -1      2186    8    0    1
 -2       992      1099      1065      4192      4257      4084
 -1      2187    8    0    1
 -2      1079      1078      1097      4124      4258      4259
 -1      2188    8    0    1
 -2      1080      1079      1093      4127      4260      4261
 -1      2189    8    0    1
 -2      1081      1080      1088      4130      4262      4263
 -1      2190    8    0    1
 -2      1082      1081      1067      4133      4264      4265
 -1      2191    8    0    1
 -2      1083      1082      1087      4136      4266      4267
 -1      2192    8    0    1
 -2      1084      1083      1086      4139      4268      4269
 -1      2193    8    0    1
 -2      1085      1084      1089      4142      4270      4271
 -1      2194    8    0    1
 -2      1104      1061      1113      4211      4272      4251
 -1      2195    8    0    1
 -2      1088      1080      1093      4262      4261      4165
 -1      2196    8    0    1
 -2      1093      1079      1097      4260      4259      4180
 -1      2197    8    0    1
 -2      1097      1078      1101      4258      4253      4195
 -1      2198    8    0    1
 -2      1089      1084      1086      4270      4269      4153
 -1      2199    8    0    1
 -2      1081      1088      1067      4263      4150      4264
 -1      2200    8    0    1
 -2      1082      1067      1087      4265      4210      4266
 -1      2201    8    0    1
 -2      1083      1087      1086      4267      4147      4268
 -1      2202    8    0    1
 -2      1075      1076      1105      4198      4273      4274
 -1      2203    8    0    1
 -2      1094      1077      1115      4168      4275      4276
 -1      2204    8    0    1
 -2      1052      1056      1110      4054      4235      4277
 -1      2205    8    0    1
 -2      1110      1092      1114      4236      4256      4278
 -1      2206    8    0    1
 -2      1104      1071      1109      4246      4245      4230
 -1      2207    8    0    1
 -2      1099      1052      1103      4225      4279      4280
 -1      2208    8    0    1
 -2      1096      1094      1106      4209      4281      4282
 -1      2209    8    0    1
 -2      1076      1054      1105      4229      4217      4273
 -1      2210    8    0    1
 -2      1069      1096      1108      4177      4283      4284
 -1      2211    8    0    1
 -2      1103      1052      1110      4279      4277      4285
 -1      2212    8    0    1
 -2      1077      1103      1110      4207      4285      4286
 -1      2213    8    0    1
 -2      1096      1106      1108      4282      4227      4283
 -1      2214    8    0    1
 -2      1112      1069      1108      4242      4284      4287
 -1      2215    8    0    1
 -2      1101      1075      1105      4252      4274      4218
 -1      2216    8    0    1
 -2      1113      1061      1098      4272      4184      4288
 -1      2217    8    0    1
 -2      1059      1095      1116      4172      4289      4290
 -1      2218    8    0    1
 -2      1077      1110      1115      4286      4291      4275
 -1      2219    8    0    1
 -2      1098      1059      1116      4185      4290      4292
 -1      2220    8    0    1
 -2      1106      1094      1115      4281      4276      4293
 -1      2221    8    0    1
 -2      1095      1102      1116      4204      4294      4289
 -1      2222    8    0    1
 -2      1112      1108      1111      4287      4295      4296
 -1      2223    8    0    1
 -2      1085      1089      1090      4271      4156      4297
 -1      2224    8    0    1
 -2      1115      1110      1114      4291      4278      4298
 -1      2225    8    0    1
 -2      1107      1085      1090      4238      4297      4223
 -1      2226    8    0    1
 -2      1108      1060      1111      4228      4240      4295
 -1      2227    8    0    1
 -2      1070      1112      1109      4243      4299      4244
 -1      2228    8    0    1
 -2      1102      1113      1116      4250      4300      4294
 -1      2229    8    0    1
 -2      1114      1106      1115      4254      4293      4298
 -1      2230    8    0    1
 -2      1098      1116      1113      4292      4300      4288
 -1      2231    8    0    1
 -2      1112      1111      1109      4296      4241      4299
 -1      2232    8    0    1
 -2      1065      1099      1103      4257      4280      4208
 -3
    1PSTEP                         1           1           1          
  100CL  101 1.000000000        4300                     0    1           1
 -4  DISP        4    1
 -5  D1          1    2    1    0
 -5  D2          1    2    2    0
 -5  D3          1    2    3    0
 -5  ALL         1    2    0    0    1ALL
 -1         1 6.11866E-03-3.58361E-04-3.80988E-14
 -1         2 9.78370E-03 3.78118E-04-5.01246E-14
 -1         3 1.56793E-02 2.14294E-03-1.44888E-13
 -1         4 1.47314E-02 7.17935E-04-1.58049E-13
 -1         5 0.00000E+00 0.00000E+00 0.00000E+00
 -1         6 0.00000E+00 0.00000E+00 0.00000E+00
 -1         7 0.00000E+00 0.00000E+00 0.00000E+00
 -1         8 0.00000E+00 0.00000E+00 0.00000E+00
 -1         9 0.00000E+00 0.00000E+00 0.00000E+00
 -1        10 0.00000E+00 0.00000E+00 0.00000E+00
 -1        11 0.00000E+00 0.00000E+00 0.00000E+00
 -1        12 0.00000E+00 0.00000E+00 0.00000E+00
 -1        13 0.00000E+00 0.00000E+00 0.00000E+00
 -1        14 0.00000E+00 0.00000E+00 0.00000E+00
 -1        15 0.00000E+00 0.00000E+00 0.00000E+00
 -1        16 0.00000E+00 0.00000E+00 0.00000E+00
 -1        17 0.00000E+00 0.00000E+00 0.00000E+00
 -1        18 0.00000E+00 0.00000E+00 0.00000E+00
 -1        19 0.00000E+00 0.00000E+00 0.00000E+00
 -1        20 0.00000E+00 0.00000E+00 0.00000E+00
 -1        21 0.00000E+00 0.00000E+00 0.00000E+00
 -1        22 0.00000E+00 0.00000E+00 0.00000E+00
 -1        23 4.09778E-04-2.59245E-04 1.16518E-17
 -1        24 7.00834E-04-3.97758E-04-1.75383E-16
 -1        25 9.70348E-04-4.92993E-04-5.50449E-16
 -1        26 1.23464E-03-5.59149E-04-1.10670E-15
 -1        27 1.49840E-03-6.05301E-04-1.83662E-15
 -1        28 1.76392E-03-6.36771E-04-2.73368E-15
 -1        29 2.03238E-03-6.57238E-04-3.79310E-15
 -1        30 2.30449E-03-6.69422E-04-5.01025E-15
 -1        31 2.58073E-03-6.75445E-04-6.38373E-15
 -1        32 2.86152E-03-6.77065E-04-7.90865E-15
 -1        33 3.14726E-03-6.75850E-04-9.57780E-15
 -1        34 3.43840E-03-6.73318E-04-1.13833E-14
 -1        35 3.73540E-03-6.71076E-04-1.33251E-14
 -1        36 4.03869E-03-6.70929E-04-1.53989E-14
 -1        37 4.34848E-03-6.74945E-04-1.76020E-14
 -1        38 4.66452E-03-6.85437E-04-1.99373E-14
 -1        39 4.98585E-03-7.04785E-04-2.24036E-14
 -1        40 5.31035E-03-7.35018E-04-2.50018E-14
 -1        41 5.63453E-03-7.77071E-04-2.77283E-14
 -1        42 5.95356E-03-8.29745E-04-3.05870E-14
 -1        43 6.26189E-03-8.88608E-04-3.35841E-14
 -1        44 6.55471E-03-9.45396E-04-3.67189E-14
 -1        45 6.82994E-03-9.88707E-04-3.99894E-14
 -1        46 7.09001E-03-1.00648E-03-4.33972E-14
 -1        47 7.34204E-03-9.89772E-04-4.69286E-14
 -1        48 7.59591E-03-9.36122E-04-5.05901E-14
 -1        49 7.86088E-03-8.50549E-04-5.43616E-14
 -1        50 8.14253E-03-7.43538E-04-5.82360E-14
 -1        51 8.44157E-03-6.27291E-04-6.22056E-14
 -1        52 8.75478E-03-5.12268E-04-6.62764E-14
 -1        53 9.07693E-03-4.05362E-04-7.04363E-14
 -1        54 9.40269E-03-3.09760E-04-7.46707E-14
 -1        55 9.72780E-03-2.25812E-04-7.89648E-14
 -1        56 1.00494E-02-1.52167E-04-8.33138E-14
 -1        57 1.03660E-02-8.67329E-05-8.77259E-14
 -1        58 1.06771E-02-2.73098E-05-9.21766E-14
 -1        59 1.09830E-02 2.80608E-05-9.66701E-14
 -1        60 1.12841E-02 8.09599E-05-1.01201E-13
 -1        61 1.15812E-02 1.32574E-04-1.05778E-13
 -1        62 1.18751E-02 1.83736E-04-1.10419E-13
 -1        63 1.21665E-02 2.34996E-04-1.15124E-13
 -1        64 1.24559E-02 2.86685E-04-1.19852E-13
 -1        65 1.27439E-02 3.38978E-04-1.24597E-13
 -1        66 1.30309E-02 3.91939E-04-1.29368E-13
 -1        67 1.33173E-02 4.45562E-04-1.34156E-13
 -1        68 1.36032E-02 4.99796E-04-1.38951E-13
 -1        69 1.38888E-02 5.54558E-04-1.43764E-13
 -1        70 1.41744E-02 6.09737E-04-1.48585E-13
 -1        71 1.44600E-02 6.65187E-04-1.53426E-13
 -1        72 4.12170E-04 2.59935E-04 9.95264E-17
 -1        73 7.00583E-04 4.00429E-04 6.95177E-17
 -1        74 9.70751E-04 4.94694E-04-9.26315E-17
 -1        75 1.23526E-03 5.60704E-04-3.94280E-16
 -1        76 1.49908E-03 6.06757E-04-8.41097E-16
 -1        77 1.76457E-03 6.38076E-04-1.43124E-15
 -1        78 2.03300E-03 6.58268E-04-2.16296E-15
 -1        79 2.30512E-03 6.69968E-04-3.03614E-15
 -1        80 2.58150E-03 6.75200E-04-4.05096E-15
 -1        81 2.86273E-03 6.75598E-04-5.20997E-15
 -1        82 3.14949E-03 6.72593E-04-6.50860E-15
 -1        83 3.44271E-03 6.67583E-04-7.94509E-15
 -1        84 3.74363E-03 6.62138E-04-9.51300E-15
 -1        85 4.05385E-03 6.58236E-04-1.12105E-14
 -1        86 4.37533E-03 6.58573E-04-1.30424E-14
 -1        87 4.71023E-03 6.66922E-04-1.50105E-14
 -1        88 5.06051E-03 6.88494E-04-1.71088E-14
 -1        89 5.42709E-03 7.30118E-04-1.93301E-14
 -1        90 5.80838E-03 7.99777E-04-2.16747E-14
 -1        91 6.19829E-03 9.04720E-04-2.41398E-14
 -1        92 6.58448E-03 1.04718E-03-2.67275E-14
 -1        93 6.94923E-03 1.21774E-03-2.94466E-14
 -1        94 7.27568E-03 1.38984E-03-3.22979E-14
 -1        95 7.55935E-03 1.52288E-03-3.52772E-14
 -1        96 7.81685E-03 1.57962E-03-3.83968E-14
 -1        97 8.08036E-03 1.54886E-03-4.16622E-14
 -1        98 8.37847E-03 1.45316E-03-4.50736E-14
 -1        99 8.72019E-03 1.33361E-03-4.86156E-14
 -1       100 9.09522E-03 1.22705E-03-5.22919E-14
 -1       101 9.48518E-03 1.15367E-03-5.60958E-14
 -1       102 9.87389E-03 1.11796E-03-5.99943E-14
 -1       103 1.02514E-02 1.11526E-03-6.39833E-14
 -1       104 1.06137E-02 1.13772E-03-6.80443E-14
 -1       105 1.09603E-02 1.17771E-03-7.21872E-14
 -1       106 1.12929E-02 1.22909E-03-7.64194E-14
 -1       107 1.16137E-02 1.28737E-03-8.07364E-14
 -1       108 1.19253E-02 1.34948E-03-8.51346E-14
 -1       109 1.22295E-02 1.41340E-03-8.96084E-14
 -1       110 1.25283E-02 1.47788E-03-9.41425E-14
 -1       111 1.28230E-02 1.54216E-03-9.87200E-14
 -1       112 1.31146E-02 1.60581E-03-1.03319E-13
 -1       113 1.34041E-02 1.66865E-03-1.07927E-13
 -1       114 1.36921E-02 1.73060E-03-1.12554E-13
 -1       115 1.39790E-02 1.79170E-03-1.17203E-13
 -1       116 1.42653E-02 1.85201E-03-1.21844E-13
 -1       117 1.45511E-02 1.91163E-03-1.26479E-13
 -1       118 1.48367E-02 1.97067E-03-1.31126E-13
 -1       119 1.51223E-02 2.02927E-03-1.35795E-13
 -1       120 1.54079E-02 2.08760E-03-1.40462E-13
 -1       121 1.56220E-02 2.05863E-03-1.45686E-13
 -1       122 1.55648E-02 1.97425E-03-1.46500E-13
 -1       123 1.55078E-02 1.88984E-03-1.47306E-13
 -1       124 1.54511E-02 1.80551E-03-1.48105E-13
 -1       125 1.53947E-02 1.72135E-03-1.48896E-13
 -1       126 1.53396E-02 1.63882E-03-1.49675E-13
 -1       127 1.52836E-02 1.55506E-03-1.50481E-13
 -1       128 1.52276E-02 1.47144E-03-1.51283E-13
 -1       129 1.51718E-02 1.38787E-03-1.52085E-13
 -1       130 1.51159E-02 1.30426E-03-1.52869E-13
 -1       131 1.50601E-02 1.22052E-03-1.53667E-13
 -1       132 1.50053E-02 1.13802E-03-1.54459E-13
 -1       133 1.49498E-02 1.05388E-03-1.55230E-13
 -1       134 1.48947E-02 9.69582E-04-1.55968E-13
 -1       135 1.48398E-02 8.85191E-04-1.56679E-13
 -1       136 1.47851E-02 8.00820E-04-1.57372E-13
 -1       137 9.75974E-03 5.45482E-04-4.96689E-14
 -1       138 9.64962E-03 7.02334E-04-4.89085E-14
 -1       139 9.43361E-03 8.62354E-04-4.77594E-14
 -1       140 9.13652E-03 9.99405E-04-4.63956E-14
 -1       141 8.75967E-03 1.11124E-03-4.48267E-14
 -1       142 8.29718E-03 1.18949E-03-4.30547E-14
 -1       143 7.81140E-03 1.21832E-03-4.13106E-14
 -1       144 7.34679E-03 1.19940E-03-3.97535E-14
 -1       145 6.87481E-03 1.13368E-03-3.82570E-14
 -1       146 6.44227E-03 1.02937E-03-3.69707E-14
 -1       147 6.04889E-03 8.86696E-04-3.58736E-14
 -1       148 5.76050E-03 7.39071E-04-3.51433E-14
 -1       149 5.52321E-03 5.58165E-04-3.46304E-14
 -1       150 5.39015E-03 3.73798E-04-3.44766E-14
 -1       151 5.36245E-03 2.03594E-04-3.46499E-14
 -1       152 5.43199E-03 3.21969E-05-3.51487E-14
 -1       153 5.59100E-03-1.20650E-04-3.59212E-14
 -1       154 5.82636E-03-2.52497E-04-3.69296E-14
 -1       155 6.48148E-03-4.42629E-04-3.94917E-14
 -1       156 6.88217E-03-4.95077E-04-4.09896E-14
 -1       157 7.32600E-03-5.14592E-04-4.26147E-14
 -1       158 7.78257E-03-4.96821E-04-4.42523E-14
 -1       159 8.24471E-03-4.39685E-04-4.58723E-14
 -1       160 8.65023E-03-3.54362E-04-4.72373E-14
 -1       161 9.01253E-03-2.42018E-04-4.84118E-14
 -1       162 9.34380E-03-9.43082E-05-4.94107E-14
 -1       163 9.57158E-03 5.62795E-05-4.99919E-14
 -1       164 9.71831E-03 2.13487E-04-5.02275E-14
 -1       165 2.40148E-04-1.24525E-04-5.49386E-17
 -1       166 2.25308E-04-9.35819E-05-7.42272E-17
 -1       167 2.19690E-04-7.17133E-05-8.27416E-17
 -1       168 2.16917E-04-5.40929E-05-8.61805E-17
 -1       169 2.15421E-04-3.90938E-05-8.65668E-17
 -1       170 2.14555E-04-2.52736E-05-8.51912E-17
 -1       171 2.14109E-04-1.23070E-05-8.28940E-17
 -1       172 2.13978E-04 2.65968E-07-8.00006E-17
 -1       173 2.14135E-04 1.28516E-05-7.60771E-17
 -1       174 2.14609E-04 2.58589E-05-7.11880E-17
 -1       175 2.15487E-04 3.95117E-05-6.49607E-17
 -1       176 2.17045E-04 5.48934E-05-5.59889E-17
 -1       177 2.19852E-04 7.27521E-05-4.33749E-17
 -1       178 2.25478E-04 9.49818E-05-2.40320E-17
 -1       179 2.39068E-04 1.26601E-04 6.28160E-18
 -1       180 2.96972E-04 1.84315E-04 4.03865E-17
 -1       181 4.67695E-04-2.61411E-04-1.43531E-16
 -1       182 7.65478E-04-3.77999E-04-4.50910E-16
 -1       183 1.04928E-03-4.58435E-04-9.30693E-16
 -1       184 1.32700E-03-5.14261E-04-1.58052E-15
 -1       185 1.60244E-03-5.52408E-04-2.39522E-15
 -1       186 1.87786E-03-5.77498E-04-3.37059E-15
 -1       187 2.15462E-03-5.92809E-04-4.50298E-15
 -1       188 2.43362E-03-6.00800E-04-5.78815E-15
 -1       189 2.71550E-03-6.03421E-04-7.22396E-15
 -1       190 3.00079E-03-6.02323E-04-8.80592E-15
 -1       191 3.28993E-03-5.99030E-04-1.05259E-14
 -1       192 3.58334E-03-5.95089E-04-1.23815E-14
 -1       193 3.88138E-03-5.92208E-04-1.43720E-14
 -1       194 4.18432E-03-5.92362E-04-1.64909E-14
 -1       195 4.49214E-03-5.97843E-04-1.87413E-14
 -1       196 4.80448E-03-6.11192E-04-2.11208E-14
 -1       197 5.12036E-03-6.34920E-04-2.36321E-14
 -1       198 5.43804E-03-6.70926E-04-2.62691E-14
 -1       199 5.75492E-03-7.19536E-04-2.90368E-14
 -1       200 6.06774E-03-7.78257E-04-3.19355E-14
 -1       201 6.37318E-03-8.40658E-04-3.49757E-14
 -1       202 6.66885E-03-8.96141E-04-3.81514E-14
 -1       203 6.95459E-03-9.31533E-04-4.14632E-14
 -1       204 7.23317E-03-9.34692E-04-4.49051E-14
 -1       205 7.50983E-03-8.98912E-04-4.84755E-14
 -1       206 7.79054E-03-8.25701E-04-5.21647E-14
 -1       207 8.07981E-03-7.24139E-04-5.59647E-14
 -1       208 8.37936E-03-6.07222E-04-5.98685E-14
 -1       209 8.68814E-03-4.87504E-04-6.38699E-14
 -1       210 9.00335E-03-3.74158E-04-6.79682E-14
 -1       211 9.32164E-03-2.72120E-04-7.21454E-14
 -1       212 9.64002E-03-1.82756E-04-7.63911E-14
 -1       213 9.95630E-03-1.05101E-04-8.06966E-14
 -1       214 1.02691E-02-3.70437E-05-8.50612E-14
 -1       215 1.05779E-02 2.38351E-05-8.94799E-14
 -1       216 1.08825E-02 7.97809E-05-9.39428E-14
 -1       217 1.11833E-02 1.32649E-04-9.84474E-14
 -1       218 1.14807E-02 1.83852E-04-1.02994E-13
 -1       219 1.17751E-02 2.34399E-04-1.07592E-13
 -1       220 1.20673E-02 2.84960E-04-1.12251E-13
 -1       221 1.23575E-02 3.35947E-04-1.16951E-13
 -1       222 1.26463E-02 3.87584E-04-1.21670E-13
 -1       223 1.29341E-02 4.39964E-04-1.26412E-13
 -1       224 1.32211E-02 4.93091E-04-1.31179E-13
 -1       225 1.35075E-02 5.46919E-04-1.35960E-13
 -1       226 1.37936E-02 6.01364E-04-1.40758E-13
 -1       227 1.40795E-02 6.56320E-04-1.45570E-13
 -1       228 1.43652E-02 7.11653E-04-1.50400E-13
 -1       229 6.03225E-04 3.28092E-04-2.05422E-17
 -1       230 8.91996E-04 4.27504E-04-2.06015E-16
 -1       231 1.17090E-03 4.96544E-04-5.25987E-16
 -1       232 1.44571E-03 5.44326E-04-9.86820E-16
 -1       233 1.71957E-03 5.76561E-04-1.58969E-15
 -1       234 1.99436E-03 5.97125E-04-2.33423E-15
 -1       235 2.27122E-03 6.08811E-04-3.21937E-15
 -1       236 2.55101E-03 6.13722E-04-4.24499E-15
 -1       237 2.83442E-03 6.13520E-04-5.41163E-15
 -1       238 3.12218E-03 6.09622E-04-6.71658E-15
 -1       239 3.41509E-03 6.03377E-04-8.15789E-15
 -1       240 3.71416E-03 5.96266E-04-9.73026E-15
 -1       241 4.02057E-03 5.90156E-04-1.14340E-14
 -1       242 4.33570E-03 5.87602E-04-1.32702E-14
 -1       243 4.66101E-03 5.92242E-04-1.52387E-14
 -1       244 4.99779E-03 6.09216E-04-1.73364E-14
 -1       245 5.34666E-03 6.45458E-04-1.95604E-14
 -1       246 5.70685E-03 7.09450E-04-2.19039E-14
 -1       247 6.07513E-03 8.09602E-04-2.43674E-14
 -1       248 6.44495E-03 9.50122E-04-2.69562E-14
 -1       249 6.80661E-03 1.12393E-03-2.96727E-14
 -1       250 7.15011E-03 1.30542E-03-3.25219E-14
 -1       251 7.47117E-03 1.45144E-03-3.55007E-14
 -1       252 7.77700E-03 1.51877E-03-3.86203E-14
 -1       253 8.08449E-03 1.49134E-03-4.18903E-14
 -1       254 8.40945E-03 1.39182E-03-4.53025E-14
 -1       255 8.75695E-03 1.26524E-03-4.88472E-14
 -1       256 9.12119E-03 1.15226E-03-5.25232E-14
 -1       257 9.49188E-03 1.07485E-03-5.63193E-14
 -1       258 9.85981E-03 1.03754E-03-6.02180E-14
 -1       259 1.02191E-02 1.03498E-03-6.42033E-14
 -1       260 1.05672E-02 1.05859E-03-6.82681E-14
 -1       261 1.09037E-02 1.10018E-03-7.24139E-14
 -1       262 1.12295E-02 1.15325E-03-7.66454E-14
 -1       263 1.15461E-02 1.21310E-03-8.09554E-14
 -1       264 1.18552E-02 1.27660E-03-8.53443E-14
 -1       265 1.21582E-02 1.34169E-03-8.98030E-14
 -1       266 1.24564E-02 1.40713E-03-9.43212E-14
 -1       267 1.27511E-02 1.47217E-03-9.88857E-14
 -1       268 1.30430E-02 1.53642E-03-1.03478E-13
 -1       269 1.33329E-02 1.59972E-03-1.08085E-13
 -1       270 1.36214E-02 1.66203E-03-1.12714E-13
 -1       271 1.39088E-02 1.72339E-03-1.17359E-13
 -1       272 1.41955E-02 1.78388E-03-1.22003E-13
 -1       273 1.44817E-02 1.84364E-03-1.26642E-13
 -1       274 1.47676E-02 1.90277E-03-1.31290E-13
 -1       275 1.50534E-02 1.96141E-03-1.35951E-13
 -1       276 1.53391E-02 2.01975E-03-1.40619E-13
 -1       277 1.53459E-02 1.96607E-03-1.42046E-13
 -1       278 1.52888E-02 1.88181E-03-1.42849E-13
 -1       279 1.52320E-02 1.79764E-03-1.43644E-13
 -1       280 1.51755E-02 1.71360E-03-1.44436E-13
 -1       281 1.51203E-02 1.63116E-03-1.45211E-13
 -1       282 1.50643E-02 1.54747E-03-1.46000E-13
 -1       283 1.50084E-02 1.46391E-03-1.46789E-13
 -1       284 1.49525E-02 1.38043E-03-1.47577E-13
 -1       285 1.48966E-02 1.29695E-03-1.48363E-13
 -1       286 1.48407E-02 1.21339E-03-1.49143E-13
 -1       287 1.47858E-02 1.13113E-03-1.49902E-13
 -1       288 1.47302E-02 1.04728E-03-1.50665E-13
 -1       289 1.46748E-02 9.63258E-04-1.51403E-13
 -1       290 1.46197E-02 8.79099E-04-1.52116E-13
 -1       291 1.44924E-02 7.95372E-04-1.51262E-13
 -1       292 9.80743E-03 4.38852E-04-5.13968E-14
 -1       293 9.70729E-03 5.35108E-04-5.06615E-14
 -1       294 9.48567E-03 6.53643E-04-4.95946E-14
 -1       295 9.17029E-03 8.17060E-04-4.80036E-14
 -1       296 8.80012E-03 9.92172E-04-4.62504E-14
 -1       297 8.39571E-03 1.15951E-03-4.42702E-14
 -1       298 7.98158E-03 1.27686E-03-4.22049E-14
 -1       299 7.60218E-03 1.29102E-03-4.02749E-14
 -1       300 7.22411E-03 1.22056E-03-3.84693E-14
 -1       301 6.82010E-03 1.06731E-03-3.69047E-14
 -1       302 6.43764E-03 8.55147E-04-3.53044E-14
 -1       303 6.02865E-03 6.76647E-04-3.45134E-14
 -1       304 5.70369E-03 4.94156E-04-3.36614E-14
 -1       305 5.44978E-03 3.53015E-04-3.32050E-14
 -1       306 5.33843E-03 2.60464E-04-3.33711E-14
 -1       307 5.36755E-03 1.72657E-04-3.36752E-14
 -1       308 5.53062E-03 6.76444E-05-3.44716E-14
 -1       309 5.78620E-03-6.27921E-05-3.55461E-14
 -1       310 6.09915E-03-2.05075E-04-3.67855E-14
 -1       311 6.44508E-03-3.53346E-04-3.82578E-14
 -1       312 6.80578E-03-4.84301E-04-3.99323E-14
 -1       313 7.17036E-03-5.71654E-04-4.17525E-14
 -1       314 7.53213E-03-5.87155E-04-4.36896E-14
 -1       315 7.90172E-03-5.22157E-04-4.56779E-14
 -1       316 8.29318E-03-3.86586E-04-4.73859E-14
 -1       317 8.66937E-03-2.21146E-04-4.89106E-14
 -1       318 9.04074E-03-2.79212E-05-5.03945E-14
 -1       319 9.39182E-03 1.23933E-04-5.11588E-14
 -1       320 9.63785E-03 2.49107E-04-5.16512E-14
 -1       321 9.78250E-03 3.48676E-04-5.17342E-14
 -1       322 4.55641E-04-1.62375E-04-2.78464E-16
 -1       323 4.74131E-04-2.10549E-04-2.50102E-16
 -1       324 4.40776E-04-9.19579E-05-2.96014E-16
 -1       325 4.37711E-04-6.32868E-05-2.94632E-16
 -1       326 4.35981E-04-3.68675E-05-2.89770E-16
 -1       327 4.35209E-04-1.16688E-05-2.82028E-16
 -1       328 4.35247E-04 1.31584E-05-2.71952E-16
 -1       329 4.36101E-04 3.84149E-05-2.58914E-16
 -1       330 4.37884E-04 6.44960E-05-2.42607E-16
 -1       331 4.41048E-04 9.33388E-05-2.21391E-16
 -1       332 4.46464E-04 1.25994E-04-1.93171E-16
 -1       333 4.56161E-04 1.64872E-04-1.54096E-16
 -1       334 4.75744E-04 2.14602E-04-9.88555E-17
 -1       335 5.31403E-04 2.67300E-04-6.81590E-17
 -1       336 8.23767E-04 3.68657E-04-2.68181E-16
 -1       337 8.63036E-04-3.52119E-04-7.48394E-16
 -1       338 1.14970E-03-4.18126E-04-1.32382E-15
 -1       339 1.43312E-03-4.63998E-04-2.06126E-15
 -1       340 1.71495E-03-4.94749E-04-2.95613E-15
 -1       341 1.99646E-03-5.14137E-04-4.00626E-15
 -1       342 2.27861E-03-5.24966E-04-5.20756E-15
 -1       343 2.56213E-03-5.29410E-04-6.55753E-15
 -1       344 2.84757E-03-5.29246E-04-8.05281E-15
 -1       345 3.13540E-03-5.26025E-04-9.68932E-15
 -1       346 3.42604E-03-5.21242E-04-1.14607E-14
 -1       347 3.71989E-03-5.16482E-04-1.33662E-14
 -1       348 4.01734E-03-5.13551E-04-1.54033E-14
 -1       349 4.31870E-03-5.14578E-04-1.75692E-14
 -1       350 4.62419E-03-5.22035E-04-1.98640E-14
 -1       351 4.93380E-03-5.38620E-04-2.22874E-14
 -1       352 5.24717E-03-5.66891E-04-2.48374E-14
 -1       353 5.56331E-03-6.08537E-04-2.75152E-14
 -1       354 5.88042E-03-6.63218E-04-3.03213E-14
 -1       355 6.19587E-03-7.27099E-04-3.32647E-14
 -1       356 6.50657E-03-7.91627E-04-3.63435E-14
 -1       357 6.81017E-03-8.43664E-04-3.95597E-14
 -1       358 7.10660E-03-8.68159E-04-4.29111E-14
 -1       359 7.39889E-03-8.53320E-04-4.63904E-14
 -1       360 7.69217E-03-7.95815E-04-4.99969E-14
 -1       361 7.99107E-03-7.02399E-04-5.37202E-14
 -1       362 8.29752E-03-5.86681E-04-5.75528E-14
 -1       363 8.61051E-03-4.63496E-04-6.14889E-14
 -1       364 8.92727E-03-3.44482E-04-6.55200E-14
 -1       365 9.24482E-03-2.36418E-04-6.96391E-14
 -1       366 9.56086E-03-1.41730E-04-7.38354E-14
 -1       367 9.87395E-03-5.99130E-05-7.80966E-14
 -1       368 1.01834E-02 1.10725E-05-8.24155E-14
 -1       369 1.04891E-02 7.37782E-05-8.67941E-14
 -1       370 1.07912E-02 1.30667E-04-9.12226E-14
 -1       371 1.10901E-02 1.83827E-04-9.56970E-14
 -1       372 1.13861E-02 2.34879E-04-1.00222E-13
 -1       373 1.16798E-02 2.85001E-04-1.04786E-13
 -1       374 1.19715E-02 3.34992E-04-1.09399E-13
 -1       375 1.22616E-02 3.85358E-04-1.14062E-13
 -1       376 1.25504E-02 4.36380E-04-1.18758E-13
 -1       377 1.28383E-02 4.88190E-04-1.23477E-13
 -1       378 1.31255E-02 5.40813E-04-1.28218E-13
 -1       379 1.34122E-02 5.94209E-04-1.32979E-13
 -1       380 1.36985E-02 6.48301E-04-1.37759E-13
 -1       381 1.39845E-02 7.02986E-04-1.42558E-13
 -1       382 1.42385E-02 7.49041E-04-1.46903E-13
 -1       383 1.10941E-03 4.40288E-04-5.99096E-16
 -1       384 1.39071E-03 4.90054E-04-1.06724E-15
 -1       385 1.67009E-03 5.23644E-04-1.67638E-15
 -1       386 1.94926E-03 5.45066E-04-2.42602E-15
 -1       387 2.22943E-03 5.57228E-04-3.31603E-15
 -1       388 2.51147E-03 5.62312E-04-4.34564E-15
 -1       389 2.79609E-03 5.62025E-04-5.51374E-15
 -1       390 3.08395E-03 5.57788E-04-6.82002E-15
 -1       391 3.37571E-03 5.50923E-04-8.26113E-15
 -1       392 3.67216E-03 5.42850E-04-9.83350E-15
 -1       393 3.97417E-03 5.35325E-04-1.15373E-14
 -1       394 4.28277E-03 5.30745E-04-1.33708E-14
 -1       395 4.59908E-03 5.32531E-04-1.53373E-14
 -1       396 4.92427E-03 5.45553E-04-1.74316E-14
 -1       397 5.25941E-03 5.76499E-04-1.96514E-14
 -1       398 5.60514E-03 6.33830E-04-2.19905E-14
 -1       399 5.96113E-03 7.26624E-04-2.44498E-14
 -1       400 6.32499E-03 8.61136E-04-2.70340E-14
 -1       401 6.69090E-03 1.03399E-03-2.97444E-14
 -1       402 7.04981E-03 1.22310E-03-3.25843E-14
 -1       403 7.39397E-03 1.38447E-03-3.55567E-14
 -1       404 7.72496E-03 1.46688E-03-3.86704E-14
 -1       405 8.05562E-03 1.44577E-03-4.19371E-14
 -1       406 8.39911E-03 1.34340E-03-4.53474E-14
 -1       407 8.75766E-03 1.21041E-03-4.88888E-14
 -1       408 9.12377E-03 1.09205E-03-5.25601E-14
 -1       409 9.48832E-03 1.01144E-03-5.63536E-14
 -1       410 9.84538E-03 9.72685E-04-6.02478E-14
 -1       411 1.01925E-02 9.69753E-04-6.42297E-14
 -1       412 1.05292E-02 9.93602E-04-6.82928E-14
 -1       413 1.08564E-02 1.03576E-03-7.24355E-14
 -1       414 1.11751E-02 1.08954E-03-7.66639E-14
 -1       415 1.14865E-02 1.15018E-03-8.09692E-14
 -1       416 1.17920E-02 1.21444E-03-8.53488E-14
 -1       417 1.20927E-02 1.28023E-03-8.97960E-14
 -1       418 1.23895E-02 1.34628E-03-9.43024E-14
 -1       419 1.26833E-02 1.41184E-03-9.88565E-14
 -1       420 1.29748E-02 1.47654E-03-1.03444E-13
 -1       421 1.32645E-02 1.54019E-03-1.08050E-13
 -1       422 1.35530E-02 1.60279E-03-1.12676E-13
 -1       423 1.38405E-02 1.66437E-03-1.17318E-13
 -1       424 1.41274E-02 1.72505E-03-1.21961E-13
 -1       425 1.44137E-02 1.78493E-03-1.26605E-13
 -1       426 1.46998E-02 1.84415E-03-1.31254E-13
 -1       427 1.49857E-02 1.90286E-03-1.35912E-13
 -1       428 1.51658E-02 1.93451E-03-1.38978E-13
 -1       429 1.49563E-02 1.70542E-03-1.39979E-13
 -1       430 1.50129E-02 1.78938E-03-1.39194E-13
 -1       431 1.50893E-02 1.86190E-03-1.39088E-13
 -1       432 1.49011E-02 1.62307E-03-1.40749E-13
 -1       433 1.48451E-02 1.53950E-03-1.41528E-13
 -1       434 1.47892E-02 1.45611E-03-1.42306E-13
 -1       435 1.47333E-02 1.37282E-03-1.43081E-13
 -1       436 1.46774E-02 1.28957E-03-1.43854E-13
 -1       437 1.46215E-02 1.20628E-03-1.44626E-13
 -1       438 1.45665E-02 1.12429E-03-1.45375E-13
 -1       439 1.45107E-02 1.04073E-03-1.46122E-13
 -1       440 1.44551E-02 9.56966E-04-1.46854E-13
 -1       441 1.43998E-02 8.73009E-04-1.47573E-13
 -1       442 9.60839E-03 5.39866E-04-5.16318E-14
 -1       443 9.82795E-03 4.08359E-04-5.33182E-14
 -1       444 9.78471E-03 4.61509E-04-5.27769E-14
 -1       445 9.29184E-03 6.82546E-04-4.98780E-14
 -1       446 8.93178E-03 8.62464E-04-4.79669E-14
 -1       447 4.45965E-04-1.24164E-04-2.91667E-16
 -1       448 8.16908E-03 1.23828E-03-4.36177E-14
 -1       449 7.77108E-03 1.33236E-03-4.09578E-14
 -1       450 7.48029E-03 1.30380E-03-3.91395E-14
 -1       451 7.08750E-03 1.14973E-03-3.67937E-14
 -1       452 6.75287E-03 9.58477E-04-3.51977E-14
 -1       453 6.24643E-03 6.78468E-04-3.37051E-14
 -1       454 5.91236E-03 5.07706E-04-3.28695E-14
 -1       455 5.58136E-03 3.48861E-04-3.18864E-14
 -1       456 5.35929E-03 2.66658E-04-3.20914E-14
 -1       457 5.31632E-03 2.15700E-04-3.21788E-14
 -1       458 5.43367E-03 1.52337E-04-3.29129E-14
 -1       459 5.67620E-03 5.30997E-05-3.40368E-14
 -1       460 5.98114E-03-8.01348E-05-3.52992E-14
 -1       461 6.33207E-03-2.44466E-04-3.67970E-14
 -1       462 6.68539E-03-4.14913E-04-3.86064E-14
 -1       463 7.01665E-03-5.49632E-04-4.05629E-14
 -1       464 7.35314E-03-6.24246E-04-4.28451E-14
 -1       465 7.66764E-03-5.95295E-04-4.50983E-14
 -1       466 8.04709E-03-4.52943E-04-4.75572E-14
 -1       467 8.40032E-03-2.79171E-04-4.91746E-14
 -1       468 8.75756E-03-7.83885E-05-5.09908E-14
 -1       469 9.19837E-03 1.31488E-04-5.23207E-14
 -1       470 9.50508E-03 2.62989E-04-5.31244E-14
 -1       471 9.73048E-03 3.55497E-04-5.36857E-14
 -1       472 8.53760E-03 1.06783E-03-4.57760E-14
 -1       473 6.52069E-03 8.02382E-04-3.35867E-14
 -1       474 9.31487E-04 3.39955E-04-5.39462E-16
 -1       475 6.65810E-04-7.29502E-05-6.18622E-16
 -1       476 6.70021E-04-1.12853E-04-6.24423E-16
 -1       477 6.62890E-04 1.09217E-06-5.89291E-16
 -1       478 6.63694E-04 3.76005E-05-5.66902E-16
 -1       479 6.66036E-04 7.46195E-05-5.39201E-16
 -1       480 6.70388E-04 1.14667E-04-5.03971E-16
 -1       481 6.77606E-04 1.58664E-04-4.59007E-16
 -1       482 6.89545E-04 2.08661E-04-4.00653E-16
 -1       483 1.21777E-03 3.97458E-04-9.73427E-16
 -1       484 9.76781E-04-3.22185E-04-1.07023E-15
 -1       485 8.73114E-03 9.60131E-04-4.77713E-14
 -1       486 1.26313E-03-3.74084E-04-1.73324E-15
 -1       487 1.54874E-03-4.10168E-04-2.55109E-15
 -1       488 1.83382E-03-4.33880E-04-3.52170E-15
 -1       489 2.11874E-03-4.48029E-04-4.64237E-15
 -1       490 2.40398E-03-4.54900E-04-5.90913E-15
 -1       491 2.68994E-03-4.56353E-04-7.32007E-15
 -1       492 2.97703E-03-4.53957E-04-8.87146E-15
 -1       493 3.26560E-03-4.49145E-04-1.05599E-14
 -1       494 3.55606E-03-4.43351E-04-1.23830E-14
 -1       495 3.84886E-03-4.38152E-04-1.43382E-14
 -1       496 4.14454E-03-4.35394E-04-1.64216E-14
 -1       497 4.44377E-03-4.37281E-04-1.86325E-14
 -1       498 4.74729E-03-4.46400E-04-2.09692E-14
 -1       499 5.05585E-03-4.65597E-04-2.34328E-14
 -1       500 5.36997E-03-4.97600E-04-2.60216E-14
 -1       501 5.68942E-03-5.44204E-04-2.87383E-14
 -1       502 6.01268E-03-6.04838E-04-3.15866E-14
 -1       503 6.33647E-03-6.74553E-04-3.45705E-14
 -1       504 6.65632E-03-7.42188E-04-3.76905E-14
 -1       505 6.96876E-03-7.90642E-04-4.09468E-14
 -1       506 7.27413E-03-8.01606E-04-4.43366E-14
 -1       507 7.57736E-03-7.64018E-04-4.78549E-14
 -1       508 7.88493E-03-6.80421E-04-5.14980E-14
 -1       509 8.20031E-03-5.65459E-04-5.52587E-14
 -1       510 8.52221E-03-4.37840E-04-5.91271E-14
 -1       511 8.84648E-03-3.12795E-04-6.30952E-14
 -1       512 9.16893E-03-1.99121E-04-6.71546E-14
 -1       513 9.48694E-03-9.99525E-05-7.12962E-14
 -1       514 9.79954E-03-1.48288E-05-7.55098E-14
 -1       515 1.01069E-02 5.84540E-05-7.97861E-14
 -1       516 1.04096E-02 1.22642E-04-8.41197E-14
 -1       517 1.07086E-02 1.80375E-04-8.85121E-14
 -1       518 1.10044E-02 2.33894E-04-9.29558E-14
 -1       519 1.12979E-02 2.84952E-04-9.74490E-14
 -1       520 1.15895E-02 3.34842E-04-1.01989E-13
 -1       521 1.18797E-02 3.84455E-04-1.06570E-13
 -1       522 1.21687E-02 4.34365E-04-1.11194E-13
 -1       523 1.24568E-02 4.84911E-04-1.15859E-13
 -1       524 1.27442E-02 5.36256E-04-1.20552E-13
 -1       525 1.30311E-02 5.88449E-04-1.25272E-13
 -1       526 1.33176E-02 6.41464E-04-1.30011E-13
 -1       527 1.36039E-02 6.95229E-04-1.34770E-13
 -1       528 1.38899E-02 7.49647E-04-1.39546E-13
 -1       529 1.78646E-03 4.63877E-04-2.25422E-15
 -1       530 2.07014E-03 4.79831E-04-3.10358E-15
 -1       531 2.35432E-03 4.87735E-04-4.09154E-15
 -1       532 2.63956E-03 4.89467E-04-5.21681E-15
 -1       533 2.92633E-03 4.86540E-04-6.47904E-15
 -1       534 3.21508E-03 4.80272E-04-7.87595E-15
 -1       535 3.50625E-03 4.71957E-04-9.40558E-15
 -1       536 3.80029E-03 4.63071E-04-1.10645E-14
 -1       537 4.09776E-03 4.55511E-04-1.28538E-14
 -1       538 4.39936E-03 4.51904E-04-1.47731E-14
 -1       539 4.70612E-03 4.55977E-04-1.68205E-14
 -1       540 5.01953E-03 4.72959E-04-1.89939E-14
 -1       541 5.34192E-03 5.09943E-04-2.12884E-14
 -1       542 5.67653E-03 5.75912E-04-2.37006E-14
 -1       543 6.02698E-03 6.80761E-04-2.62355E-14
 -1       544 6.39484E-03 8.31677E-04-2.88926E-14
 -1       545 6.77524E-03 1.02431E-03-3.16741E-14
 -1       546 7.15459E-03 1.22623E-03-3.45892E-14
 -1       547 7.52103E-03 1.37403E-03-3.76421E-14
 -1       548 7.87843E-03 1.40543E-03-4.08524E-14
 -1       549 8.24390E-03 1.31856E-03-4.42120E-14
 -1       550 8.62311E-03 1.17376E-03-4.77089E-14
 -1       551 9.00416E-03 1.03599E-03-5.13336E-14
 -1       552 9.37314E-03 9.38576E-04-5.50844E-14
 -1       553 9.72486E-03 8.87373E-04-5.89414E-14
 -1       554 1.00607E-02 8.75540E-04-6.28912E-14
 -1       555 1.03842E-02 8.93152E-04-6.69259E-14
 -1       556 1.06988E-02 9.31163E-04-7.10416E-14
 -1       557 1.10070E-02 9.82446E-04-7.52388E-14
 -1       558 1.13102E-02 1.04180E-03-7.95104E-14
 -1       559 1.16097E-02 1.10564E-03-8.38570E-14
 -1       560 1.19061E-02 1.17158E-03-8.82712E-14
 -1       561 1.22000E-02 1.23810E-03-9.27459E-14
 -1       562 1.24919E-02 1.30432E-03-9.72703E-14
 -1       563 1.27823E-02 1.36972E-03-1.01841E-13
 -1       564 1.30714E-02 1.43407E-03-1.06437E-13
 -1       565 1.33595E-02 1.49731E-03-1.11045E-13
 -1       566 1.36469E-02 1.55946E-03-1.15677E-13
 -1       567 1.39338E-02 1.62062E-03-1.20323E-13
 -1       568 1.42203E-02 1.68092E-03-1.24969E-13
 -1       569 1.45064E-02 1.74047E-03-1.29619E-13
 -1       570 1.47924E-02 1.79941E-03-1.34282E-13
 -1       571 1.46259E-02 1.53110E-03-1.37068E-13
 -1       572 1.45700E-02 1.44791E-03-1.37834E-13
 -1       573 1.47372E-02 1.69683E-03-1.35532E-13
 -1       574 1.46814E-02 1.61383E-03-1.36303E-13
 -1       575 1.45143E-02 1.36489E-03-1.38598E-13
 -1       576 1.44584E-02 1.28196E-03-1.39358E-13
 -1       577 1.44025E-02 1.19903E-03-1.40120E-13
 -1       578 1.43474E-02 1.11741E-03-1.40859E-13
 -1       579 1.42914E-02 1.03420E-03-1.41599E-13
 -1       580 1.42356E-02 9.50754E-04-1.42327E-13
 -1       581 1.41800E-02 8.67043E-04-1.43042E-13
 -1       582 9.85461E-03 4.39599E-04-5.49978E-14
 -1       583 9.47069E-03 5.91159E-04-5.22949E-14
 -1       584 1.50259E-03 4.37462E-04-1.54416E-15
 -1       585 9.83121E-03 4.08329E-04-5.53728E-14
 -1       586 9.73406E-03 4.90560E-04-5.39485E-14
 -1       587 7.12960E-04-2.47600E-04-6.10978E-16
 -1       588 9.63326E-03 3.43320E-04-5.53552E-14
 -1       589 6.63561E-04-3.53829E-05-6.06557E-16
 -1       590 7.96323E-03 1.33158E-03-4.21665E-14
 -1       591 5.40531E-03 2.67609E-04-3.06471E-14
 -1       592 7.62957E-03 1.35350E-03-3.95195E-14
 -1       593 7.30602E-03 1.25597E-03-3.71587E-14
 -1       594 6.95973E-03 1.06763E-03-3.50003E-14
 -1       595 6.08138E-03 5.52973E-04-3.20040E-14
 -1       596 5.73718E-03 3.90774E-04-3.10366E-14
 -1       597 5.29664E-03 2.24725E-04-3.07862E-14
 -1       598 5.32620E-03 1.83030E-04-3.11245E-14
 -1       599 5.53184E-03 1.13336E-04-3.21433E-14
 -1       600 5.81554E-03 5.35277E-06-3.34488E-14
 -1       601 6.11148E-03-1.26749E-04-3.48906E-14
 -1       602 6.51316E-03-3.30358E-04-3.69371E-14
 -1       603 6.85394E-03-4.94162E-04-3.91904E-14
 -1       604 7.15127E-03-6.07417E-04-4.13709E-14
 -1       605 7.49593E-03-6.40099E-04-4.44102E-14
 -1       606 7.83443E-03-5.44184E-04-4.72794E-14
 -1       607 8.23683E-03-3.37337E-04-4.98294E-14
 -1       608 8.54628E-03-1.58988E-04-5.16616E-14
 -1       609 8.98709E-03 7.49209E-05-5.33947E-14
 -1       610 9.35776E-03 2.40178E-04-5.44910E-14
 -1       611 8.40541E-03 1.14039E-03-4.55594E-14
 -1       612 7.03790E-04 2.86792E-04-2.73788E-16
 -1       613 9.11697E-03 7.54198E-04-5.02035E-14
 -1       614 6.77009E-04-1.56397E-04-6.22759E-16
 -1       615 5.51092E-03 3.00792E-04-2.98081E-14
 -1       616 6.73019E-03 9.31382E-04-3.33821E-14
 -1       617 1.40821E-02 7.85080E-04-1.42804E-13
 -1       618 8.99149E-04 7.16470E-05-9.55169E-16
 -1       619 8.96804E-04 2.43431E-05-9.94905E-16
 -1       620 9.12117E-04 1.73203E-04-8.45017E-16
 -1       621 9.24828E-04 2.30981E-04-7.68096E-16
 -1       622 1.04963E-03 3.06667E-04-8.55015E-16
 -1       623 9.80295E-03 4.00768E-04-5.76049E-14
 -1       624 8.23202E-03 1.26496E-03-4.43116E-14
 -1       625 9.52471E-03 3.10400E-04-5.69304E-14
 -1       626 1.38418E-03-3.26339E-04-2.15920E-15
 -1       627 1.67062E-03-3.53473E-04-3.05232E-15
 -1       628 1.95717E-03-3.70689E-04-4.09323E-15
 -1       629 2.24368E-03-3.80124E-04-5.27940E-15
 -1       630 2.53021E-03-3.83582E-04-6.60732E-15
 -1       631 2.81691E-03-3.82585E-04-8.07561E-15
 -1       632 3.10399E-03-3.78470E-04-9.68128E-15
 -1       633 3.39173E-03-3.72499E-04-1.14212E-14
 -1       634 3.68054E-03-3.65982E-04-1.32940E-14
 -1       635 3.97102E-03-3.60403E-04-1.52964E-14
 -1       636 4.26400E-03-3.57545E-04-1.74245E-14
 -1       637 4.56067E-03-3.59598E-04-1.96785E-14
 -1       638 4.86255E-03-3.69236E-04-2.20556E-14
 -1       639 5.17142E-03-3.89604E-04-2.45581E-14
 -1       640 5.48889E-03-4.24046E-04-2.71868E-14
 -1       641 5.81550E-03-4.75279E-04-2.99433E-14
 -1       642 6.14943E-03-5.43369E-04-3.28321E-14
 -1       643 6.48559E-03-6.22348E-04-3.58547E-14
 -1       644 6.81673E-03-6.96577E-04-3.90121E-14
 -1       645 7.13803E-03-7.41159E-04-4.23096E-14
 -1       646 7.45209E-03-7.32372E-04-4.57400E-14
 -1       647 7.76789E-03-6.62738E-04-4.92984E-14
 -1       648 8.09288E-03-5.47068E-04-5.29835E-14
 -1       649 8.42664E-03-4.11188E-04-5.67865E-14
 -1       650 8.76281E-03-2.77308E-04-6.06923E-14
 -1       651 9.09458E-03-1.57293E-04-6.46899E-14
 -1       652 9.41803E-03-5.44890E-05-6.87764E-14
 -1       653 9.73237E-03 3.24482E-05-7.29385E-14
 -1       654 1.00386E-02 1.06569E-04-7.71690E-14
 -1       655 1.03386E-02 1.71135E-04-8.14597E-14
 -1       656 1.06339E-02 2.29029E-04-8.58119E-14
 -1       657 1.09260E-02 2.82583E-04-9.02207E-14
 -1       658 1.12160E-02 3.33583E-04-9.46818E-14
 -1       659 1.15045E-02 3.83335E-04-9.91908E-14
 -1       660 1.17921E-02 4.32746E-04-1.03746E-13
 -1       661 1.20791E-02 4.82409E-04-1.08342E-13
 -1       662 1.23657E-02 5.32681E-04-1.12977E-13
 -1       663 1.26520E-02 5.83744E-04-1.17641E-13
 -1       664 1.29381E-02 6.35662E-04-1.22332E-13
 -1       665 1.32241E-02 6.88418E-04-1.27051E-13
 -1       666 1.35100E-02 7.41948E-04-1.31785E-13
 -1       667 1.37958E-02 7.96163E-04-1.36544E-13
 -1       668 2.19379E-03 4.12558E-04-3.81599E-15
 -1       669 1.44514E-02 1.63803E-03-1.30861E-13
 -1       670 1.90790E-03 4.01530E-04-2.86872E-15
 -1       671 2.76597E-03 4.15952E-04-6.11848E-15
 -1       672 3.05259E-03 4.11220E-04-7.47205E-15
 -1       673 3.33974E-03 4.03865E-04-8.95871E-15
 -1       674 3.62751E-03 3.95152E-04-1.05761E-14
 -1       675 3.91602E-03 3.86579E-04-1.23209E-14
 -1       676 4.20552E-03 3.80079E-04-1.41947E-14
 -1       677 4.49651E-03 3.78280E-04-1.61972E-14
 -1       678 4.79015E-03 3.84797E-04-1.83249E-14
 -1       679 5.08876E-03 4.04621E-04-2.05768E-14
 -1       680 5.39662E-03 4.44651E-04-2.29453E-14
 -1       681 5.72058E-03 5.14473E-04-2.54316E-14
 -1       682 6.06955E-03 6.26925E-04-2.80365E-14
 -1       683 6.44931E-03 7.95436E-04-3.07612E-14
 -1       684 8.63817E-03 1.09325E-03-4.78123E-14
 -1       685 9.03489E-03 9.43983E-04-5.14444E-14
 -1       686 9.40517E-03 8.49471E-04-5.51980E-14
 -1       687 9.74811E-03 8.06166E-04-5.90568E-14
 -1       688 1.00698E-02 8.01265E-04-6.30063E-14
 -1       689 1.03781E-02 8.23335E-04-6.70442E-14
 -1       690 1.06784E-02 8.63693E-04-7.11628E-14
 -1       691 1.09743E-02 9.15968E-04-7.53599E-14
 -1       692 1.12676E-02 9.75599E-04-7.96298E-14
 -1       693 1.15592E-02 1.03939E-03-8.39688E-14
 -1       694 1.18496E-02 1.10519E-03-8.83788E-14
 -1       695 1.21391E-02 1.17156E-03-9.28475E-14
 -1       696 1.24278E-02 1.23766E-03-9.73641E-14
 -1       697 1.27158E-02 1.30299E-03-1.01925E-13
 -1       698 1.30034E-02 1.36730E-03-1.06517E-13
 -1       699 1.32904E-02 1.43052E-03-1.11123E-13
 -1       700 1.35772E-02 1.49267E-03-1.15751E-13
 -1       701 1.38636E-02 1.55384E-03-1.20392E-13
 -1       702 1.41498E-02 1.61414E-03-1.25039E-13
 -1       703 9.36886E-03 6.75472E-04-5.30795E-14
 -1       704 1.42396E-02 1.27398E-03-1.34890E-13
 -1       705 5.23574E-03 1.91372E-04-2.94061E-14
 -1       706 1.43510E-02 1.43922E-03-1.33385E-13
 -1       707 1.41837E-02 1.19150E-03-1.35643E-13
 -1       708 1.42954E-02 1.35651E-03-1.34140E-13
 -1       709 1.41286E-02 1.11035E-03-1.36372E-13
 -1       710 1.40724E-02 1.02762E-03-1.37105E-13
 -1       711 1.40163E-02 9.44593E-04-1.37828E-13
 -1       712 9.67066E-03 5.43004E-04-5.49621E-14
 -1       713 9.87990E-03 4.77179E-04-5.69689E-14
 -1       714 9.91330E-03 4.41506E-04-5.76157E-14
 -1       715 8.07924E-03-4.34368E-04-5.00093E-14
 -1       716 9.62241E-04-2.60520E-04-1.11736E-15
 -1       717 5.61572E-03 4.82888E-05-3.13977E-14
 -1       718 6.30174E-03 6.73122E-04-3.15604E-14
 -1       719 1.62189E-03 3.81829E-04-2.05994E-15
 -1       720 2.47975E-03 4.16841E-04-4.89918E-15
 -1       721 8.97483E-03 8.66662E-04-5.01891E-14
 -1       722 9.04026E-04 1.20723E-04-9.06078E-16
 -1       723 9.03599E-04-1.18336E-04-1.06468E-15
 -1       724 1.33570E-03 3.51095E-04-1.38910E-15
 -1       725 8.81764E-03-1.43093E-05-5.45467E-14
 -1       726 7.65989E-03-6.22901E-04-4.65913E-14
 -1       727 5.28850E-03 2.26200E-04-2.93138E-14
 -1       728 1.39879E-02 8.31488E-04-1.39786E-13
 -1       729 5.88464E-03 4.57671E-04-3.01177E-14
 -1       730 6.68468E-03-4.49986E-04-3.76476E-14
 -1       731 5.35229E-03 1.38838E-04-3.00581E-14
 -1       732 5.92974E-03-7.48817E-05-3.30998E-14
 -1       733 9.22020E-03 1.86830E-04-5.59885E-14
 -1       734 6.24859E-03-2.31889E-04-3.47794E-14
 -1       735 6.95631E-03-5.72859E-04-3.97734E-14
 -1       736 7.28189E-03-6.56455E-04-4.27460E-14
 -1       737 8.33947E-03-2.86648E-04-5.18495E-14
 -1       738 8.98897E-04-6.91494E-05-1.04970E-15
 -1       739 9.11500E-04-1.70641E-04-1.06960E-15
 -1       740 1.44062E-02 1.52150E-03-1.32632E-13
 -1       741 8.96729E-04-2.20967E-05-1.02640E-15
 -1       742 5.34508E-03 2.50228E-04-2.84903E-14
 -1       743 5.63218E-03 3.55719E-04-2.89056E-14
 -1       744 1.39060E-02 8.70419E-04-1.37190E-13
 -1       745 8.62312E-03 1.06237E-03-4.75420E-14
 -1       746 5.17147E-03 1.93955E-04-2.76818E-14
 -1       747 1.16189E-03 2.36000E-04-1.25826E-15
 -1       748 1.79676E-03-2.94251E-04-3.56356E-15
 -1       749 2.08370E-03-3.05746E-04-4.66980E-15
 -1       750 2.37053E-03-3.11143E-04-5.91680E-15
 -1       751 2.65699E-03-3.11807E-04-7.30285E-15
 -1       752 2.94302E-03-3.08922E-04-8.82625E-15
 -1       753 3.22869E-03-3.03556E-04-1.04852E-14
 -1       754 3.51421E-03-2.96738E-04-1.22750E-14
 -1       755 3.80002E-03-2.89569E-04-1.41948E-14
 -1       756 4.08690E-03-2.83331E-04-1.62410E-14
 -1       757 4.37604E-03-2.79622E-04-1.84136E-14
 -1       758 4.66925E-03-2.80531E-04-2.07080E-14
 -1       759 4.96900E-03-2.88859E-04-2.31245E-14
 -1       760 5.27837E-03-3.08363E-04-2.56678E-14
 -1       761 5.60046E-03-3.43839E-04-2.83347E-14
 -1       762 5.93695E-03-4.00292E-04-3.11300E-14
 -1       763 6.28561E-03-4.80072E-04-3.40560E-14
 -1       764 6.63813E-03-5.75336E-04-3.71132E-14
 -1       765 6.98340E-03-6.61054E-04-4.03118E-14
 -1       766 7.64321E-03-6.53314E-04-4.71212E-14
 -1       767 7.97995E-03-5.37913E-04-5.07295E-14
 -1       768 8.32902E-03-3.87079E-04-5.44643E-14
 -1       769 8.68127E-03-2.38132E-04-5.83065E-14
 -1       770 9.02605E-03-1.08997E-04-6.22453E-14
 -1       771 9.35724E-03-2.87520E-06-6.62712E-14
 -1       772 9.67424E-03 8.40658E-05-7.03817E-14
 -1       773 9.97948E-03 1.56942E-04-7.45670E-14
 -1       774 1.02761E-02 2.20137E-04-7.88132E-14
 -1       775 1.05671E-02 2.76970E-04-8.31237E-14
 -1       776 1.08545E-02 3.29842E-04-8.74937E-14
 -1       777 1.11400E-02 3.80460E-04-9.19228E-14
 -1       778 1.14245E-02 4.30022E-04-9.64024E-14
 -1       779 1.17087E-02 4.79347E-04-1.00928E-13
 -1       780 1.19929E-02 5.28968E-04-1.05497E-13
 -1       781 1.22773E-02 5.79205E-04-1.10103E-13
 -1       782 1.25618E-02 6.30225E-04-1.14741E-13
 -1       783 1.28467E-02 6.82085E-04-1.19406E-13
 -1       784 1.31317E-02 7.34772E-04-1.24094E-13
 -1       785 1.34170E-02 7.88228E-04-1.28810E-13
 -1       786 1.36614E-02 8.29116E-04-1.32990E-13
 -1       787 2.03279E-03 3.37389E-04-3.52082E-15
 -1       788 3.17513E-03 3.37524E-04-8.49426E-15
 -1       789 2.89063E-03 3.43070E-04-7.05117E-15
 -1       790 3.74060E-03 3.22225E-04-1.17726E-14
 -1       791 4.02106E-03 3.15110E-04-1.36025E-14
 -1       792 4.29979E-03 3.10620E-04-1.55610E-14
 -1       793 4.57703E-03 3.11046E-04-1.76453E-14
 -1       794 4.85390E-03 3.19378E-04-1.98527E-14
 -1       795 5.13313E-03 3.39690E-04-2.21797E-14
 -1       796 5.42054E-03 3.78166E-04-2.46214E-14
 -1       797 5.72617E-03 4.45531E-04-2.71779E-14
 -1       798 9.68089E-03 7.11261E-04-5.77287E-14
 -1       799 9.98526E-03 7.07687E-04-6.16486E-14
 -1       800 1.02740E-02 7.30041E-04-6.56558E-14
 -1       801 1.05560E-02 7.69180E-04-6.97485E-14
 -1       802 1.08358E-02 8.19410E-04-7.39193E-14
 -1       803 1.11158E-02 8.76877E-04-7.81610E-14
 -1       804 1.13968E-02 9.38804E-04-8.24694E-14
 -1       805 1.16789E-02 1.00318E-03-8.68478E-14
 -1       806 1.19621E-02 1.06859E-03-9.12891E-14
 -1       807 1.22460E-02 1.13411E-03-9.57826E-14
 -1       808 1.25306E-02 1.19914E-03-1.00316E-13
 -1       809 1.28157E-02 1.26335E-03-1.04892E-13
 -1       810 1.31010E-02 1.32661E-03-1.09490E-13
 -1       811 1.33865E-02 1.38887E-03-1.14106E-13
 -1       812 1.36721E-02 1.45020E-03-1.18742E-13
 -1       813 1.39577E-02 1.51066E-03-1.23384E-13
 -1       814 1.39098E-02 1.10228E-03-1.31919E-13
 -1       815 1.39658E-02 1.18423E-03-1.31184E-13
 -1       816 6.40181E-03-3.73787E-04-3.53041E-14
 -1       817 9.95308E-03 4.39224E-04-6.03183E-14
 -1       818 1.51016E-03-2.75129E-04-2.60116E-15
 -1       819 7.05923E-03-6.48895E-04-4.08729E-14
 -1       820 9.44663E-03 2.63035E-04-5.87910E-14
 -1       821 9.66036E-03 6.18690E-04-5.64400E-14
 -1       822 1.74608E-03 3.23653E-04-2.61503E-15
 -1       823 9.12399E-03 1.09931E-04-5.78864E-14
 -1       824 1.38534E-02 1.02015E-03-1.32643E-13
 -1       825 1.37970E-02 9.37695E-04-1.33358E-13
 -1       826 3.45854E-03 3.30173E-04-1.00698E-14
 -1       827 1.20818E-03-2.25604E-04-1.75469E-15
 -1       828 6.04520E-03 5.65067E-04-2.92732E-14
 -1       829 1.00055E-02 4.78774E-04-5.99453E-14
 -1       830 1.13651E-03 5.67823E-05-1.49049E-15
 -1       831 5.98633E-03-1.71420E-04-3.25823E-14
 -1       832 9.88596E-03 5.35874E-04-5.84743E-14
 -1       833 9.75742E-03 3.77933E-04-5.96385E-14
 -1       834 1.24696E-03 2.91769E-04-1.33047E-15
 -1       835 5.38126E-03 7.25861E-05-2.91148E-14
 -1       836 5.17728E-03 1.50026E-04-2.79402E-14
 -1       837 6.74002E-03-5.34950E-04-3.79453E-14
 -1       838 5.69718E-03-4.47027E-05-3.09017E-14
 -1       839 8.64227E-03-1.49413E-04-5.52912E-14
 -1       840 8.26638E-03-3.68358E-04-5.27322E-14
 -1       841 9.26320E-03 7.98414E-04-5.32149E-14
 -1       842 1.14939E-03 1.72867E-04-1.35139E-15
 -1       843 1.19657E-03-1.61968E-04-1.74938E-15
 -1       844 7.31586E-03-6.97004E-04-4.36490E-14
 -1       845 5.18369E-03 2.12612E-04-2.68812E-14
 -1       846 2.60528E-03 3.45691E-04-5.74053E-15
 -1       847 1.18907E-03-1.01648E-04-1.72926E-15
 -1       848 1.40766E-02 1.34755E-03-1.29702E-13
 -1       849 2.31927E-03 3.44230E-04-4.56361E-15
 -1       850 1.41315E-02 1.42923E-03-1.28959E-13
 -1       851 1.40213E-02 1.26581E-03-1.30445E-13
 -1       852 1.13494E-03 1.48301E-06-1.54107E-15
 -1       853 1.41821E-02 1.51643E-03-1.28000E-13
 -1       854 1.14119E-03 1.13514E-04-1.42793E-15
 -1       855 1.49628E-03 3.12133E-04-1.91746E-15
 -1       856 5.42817E-03 2.92283E-04-2.76066E-14
 -1       857 1.37292E-02 8.83453E-04-1.33175E-13
 -1       858 5.70578E-03-1.52605E-04-3.00660E-14
 -1       859 6.07972E-03-3.11829E-04-3.26365E-14
 -1       860 8.99988E-03-1.64083E-05-5.93937E-14
 -1       861 2.21271E-03-2.39529E-04-5.25084E-15
 -1       862 2.49892E-03-2.41697E-04-6.55551E-15
 -1       863 2.78426E-03-2.40264E-04-7.99690E-15
 -1       864 3.06847E-03-2.36075E-04-9.57396E-15
 -1       865 3.35151E-03-2.29888E-04-1.12824E-14
 -1       866 3.63351E-03-2.22436E-04-1.31196E-14
 -1       867 3.91495E-03-2.14515E-04-1.50843E-14
 -1       868 4.19669E-03-2.07085E-04-1.71743E-14
 -1       869 4.48025E-03-2.01434E-04-1.93869E-14
 -1       870 4.76800E-03-1.99451E-04-2.17214E-14
 -1       871 5.06344E-03-2.04130E-04-2.41792E-14
 -1       872 5.37107E-03-2.20155E-04-2.67602E-14
 -1       873 9.33861E-03 9.11560E-05-6.33525E-14
 -1       874 9.65365E-03 1.72159E-04-6.73971E-14
 -1       875 9.95204E-03 2.37724E-04-7.15227E-14
 -1       876 1.02397E-02 2.94695E-04-7.57218E-14
 -1       877 1.05211E-02 3.47106E-04-7.99818E-14
 -1       878 1.07996E-02 3.97249E-04-8.43070E-14
 -1       879 1.10770E-02 4.46441E-04-8.86906E-14
 -1       880 1.13546E-02 4.95469E-04-9.31298E-14
 -1       881 1.16330E-02 5.44812E-04-9.76191E-14
 -1       882 1.19124E-02 5.94754E-04-1.02156E-13
 -1       883 1.21929E-02 6.45445E-04-1.06733E-13
 -1       884 1.24745E-02 6.96947E-04-1.11342E-13
 -1       885 1.27571E-02 7.49257E-04-1.15976E-13
 -1       886 1.30404E-02 8.02327E-04-1.20631E-13
 -1       887 1.33244E-02 8.56095E-04-1.25317E-13
 -1       888 5.41223E-03-2.30414E-05-2.83220E-14
 -1       889 4.11837E-03 2.49952E-04-1.49105E-14
 -1       890 3.84774E-03 2.54497E-04-1.29960E-14
 -1       891 4.64494E-03 2.51328E-04-1.91154E-14
 -1       892 4.90061E-03 2.60892E-04-2.14009E-14
 -1       893 5.15284E-03 2.79809E-04-2.38025E-14
 -1       894 1.36919E-02 1.09443E-03-1.27488E-13
 -1       895 1.04504E-02 6.81810E-04-6.83277E-14
 -1       896 9.91055E-03 6.08426E-04-5.98752E-14
 -1       897 1.07106E-02 7.30462E-04-7.24702E-14
 -1       898 1.09748E-02 7.85372E-04-7.66860E-14
 -1       899 1.12433E-02 8.44608E-04-8.09688E-14
 -1       900 1.15156E-02 9.06583E-04-8.53152E-14
 -1       901 1.17911E-02 9.70051E-04-8.97272E-14
 -1       902 1.20692E-02 1.03409E-03-9.41979E-14
 -1       903 1.23493E-02 1.09805E-03-9.87110E-14
 -1       904 1.26310E-02 1.16153E-03-1.03266E-13
 -1       905 1.29139E-02 1.22431E-03-1.07852E-13
 -1       906 1.31976E-02 1.28628E-03-1.12461E-13
 -1       907 1.34819E-02 1.34743E-03-1.17088E-13
 -1       908 1.37667E-02 1.40782E-03-1.21729E-13
 -1       909 1.35788E-02 9.31350E-04-1.28909E-13
 -1       910 5.02812E-03 1.55590E-04-2.57428E-14
 -1       911 1.01116E-02 4.80993E-04-6.30908E-14
 -1       912 5.13553E-03 9.03680E-05-2.67016E-14
 -1       913 1.63969E-03-2.20428E-04-3.05726E-15
 -1       914 1.87373E-03 2.63312E-04-3.21079E-15
 -1       915 9.71032E-03 3.34739E-04-6.18764E-14
 -1       916 1.36355E-02 1.01306E-03-1.28201E-13
 -1       917 5.43967E-03 3.33760E-04-2.61045E-14
 -1       918 4.38425E-03 2.48334E-04-1.69514E-14
 -1       919 3.01397E-03 2.71951E-04-8.01442E-15
 -1       920 9.43882E-03 2.10385E-04-6.13882E-14
 -1       921 1.01929E-02 6.41999E-04-6.42633E-14
 -1       922 2.16022E-03 2.72082E-04-4.21110E-15
 -1       923 1.92607E-03-2.32801E-04-4.08407E-15
 -1       924 9.95192E-03 4.19699E-04-6.26721E-14
 -1       925 1.16067E-03-4.89267E-05-1.63828E-15
 -1       926 1.00823E-02 5.30450E-04-6.17892E-14
 -1       927 5.71691E-03-2.46594E-04-2.96750E-14
 -1       928 5.00173E-03 1.74420E-04-2.49748E-14
 -1       929 3.29487E-03 2.66686E-04-9.54611E-15
 -1       930 2.73088E-03 2.75283E-04-6.61415E-15
 -1       931 1.41706E-03-1.92234E-04-2.35968E-15
 -1       932 1.40755E-03-1.25549E-04-2.33527E-15
 -1       933 3.57301E-03 2.60498E-04-1.12073E-14
 -1       934 2.44613E-03 2.75679E-04-5.34620E-15
 -1       935 1.38576E-02 1.33753E-03-1.25293E-13
 -1       936 1.37476E-02 1.17531E-03-1.26767E-13
 -1       937 1.40075E-03 2.27700E-04-1.87060E-15
 -1       938 1.37759E-03 3.27987E-05-2.14370E-15
 -1       939 1.38134E-03 9.56574E-05-2.06946E-15
 -1       940 1.62363E-03 2.57790E-04-2.42962E-15
 -1       941 5.22384E-03 2.44517E-04-2.60226E-14
 -1       942 1.38028E-02 1.25627E-03-1.26031E-13
 -1       943 5.08988E-03 4.61147E-06-2.54885E-14
 -1       944 2.62885E-03-1.72351E-04-7.19461E-15
 -1       945 2.91223E-03-1.69582E-04-8.68816E-15
 -1       946 3.19370E-03-1.64696E-04-1.03154E-14
 -1       947 3.47304E-03-1.58107E-04-1.20709E-14
 -1       948 3.75030E-03-1.50200E-04-1.39535E-14
 -1       949 4.02582E-03-1.41376E-04-1.59619E-14
 -1       950 4.30043E-03-1.32164E-04-1.80940E-14
 -1       951 4.57569E-03-1.23409E-04-2.03467E-14
 -1       952 4.85417E-03-1.16602E-04-2.27227E-14
 -1       953 5.14038E-03-1.14889E-04-2.52212E-14
 -1       954 1.33817E-02 9.37388E-04-1.24620E-13
 -1       955 9.63966E-03 2.37242E-04-6.48726E-14
 -1       956 9.92648E-03 2.94713E-04-6.89453E-14
 -1       957 1.02020E-02 3.45034E-04-7.30961E-14
 -1       958 1.04729E-02 3.92786E-04-7.73170E-14
 -1       959 1.07422E-02 4.40087E-04-8.15999E-14
 -1       960 1.10121E-02 4.87811E-04-8.59486E-14
 -1       961 1.12834E-02 5.36324E-04-9.03510E-14
 -1       962 1.15566E-02 5.85759E-04-9.48081E-14
 -1       963 1.18318E-02 6.36140E-04-9.93147E-14
 -1       964 1.21090E-02 6.87437E-04-1.03867E-13
 -1       965 1.23880E-02 7.39590E-04-1.08455E-13
 -1       966 1.26685E-02 7.92525E-04-1.13067E-13
 -1       967 1.29503E-02 8.46160E-04-1.17700E-13
 -1       968 1.31658E-02 8.91574E-04-1.21152E-13
 -1       969 5.33596E-03-8.44892E-05-2.71444E-14
 -1       970 4.93698E-03 2.12112E-04-2.29691E-14
 -1       971 4.70670E-03 2.00556E-04-2.06074E-14
 -1       972 1.05928E-02 6.50163E-04-7.10162E-14
 -1       973 1.13567E-02 8.16088E-04-8.37827E-14
 -1       974 1.16240E-02 8.76641E-04-8.81625E-14
 -1       975 1.18958E-02 9.38291E-04-9.26079E-14
 -1       976 1.21709E-02 1.00038E-03-9.71041E-14
 -1       977 1.24488E-02 1.06242E-03-1.01637E-13
 -1       978 1.27287E-02 1.12413E-03-1.06210E-13
 -1       979 1.30102E-02 1.18532E-03-1.10811E-13
 -1       980 1.32930E-02 1.24591E-03-1.15434E-13
 -1       981 1.35766E-02 1.30591E-03-1.20068E-13
 -1       982 4.89739E-03 1.00248E-04-2.41025E-14
 -1       983 9.94639E-03 3.87198E-04-6.49885E-14
 -1       984 1.62835E-03-1.48933E-04-3.02926E-15
 -1       985 2.05811E-03-1.69451E-04-4.61113E-15
 -1       986 1.10948E-02 7.57482E-04-7.94602E-14
 -1       987 1.40225E-03-2.33203E-05-2.26972E-15
 -1       988 1.38893E-03 1.60229E-04-1.97917E-15
 -1       989 1.08397E-02 7.01818E-04-7.52037E-14
 -1       990 3.95230E-03 1.92771E-04-1.42455E-14
 -1       991 1.03557E-02 6.03553E-04-6.68987E-14
 -1       992 1.84300E-03-1.60261E-04-3.78072E-15
 -1       993 2.34395E-03-1.72505E-04-5.83508E-15
 -1       994 1.01664E-02 4.67185E-04-6.58862E-14
 -1       995 1.02942E-02 5.31749E-04-6.64061E-14
 -1       996 2.00416E-03 2.01160E-04-3.84590E-15
 -1       997 4.83947E-03 1.24122E-04-2.33707E-14
 -1       998 3.13704E-03 2.03458E-04-9.00921E-15
 -1       999 2.85709E-03 2.06417E-04-7.52026E-15
 -1      1000 3.68559E-03 1.95692E-04-1.23733E-14
 -1      1001 4.46445E-03 1.94139E-04-1.83641E-14
 -1      1002 1.34744E-02 1.08573E-03-1.23085E-13
 -1      1003 1.60997E-03 1.85705E-04-2.56413E-15
 -1      1004 1.34283E-02 1.01172E-03-1.23856E-13
 -1      1005 1.63315E-03 1.13741E-05-2.94016E-15
 -1      1006 1.63592E-03 7.93470E-05-2.85178E-15
 -1      1007 4.21240E-03 1.91889E-04-1.62430E-14
 -1      1008 2.28987E-03 2.06158E-04-4.93803E-15
 -1      1009 1.40369E-03-7.39986E-05-2.30744E-15
 -1      1010 1.35225E-02 1.22537E-03-1.20805E-13
 -1      1011 1.63312E-03-4.29654E-05-2.99541E-15
 -1      1012 3.41350E-03 1.99583E-04-1.06277E-14
 -1      1013 3.04144E-03-1.00350E-04-9.37446E-15
 -1      1014 3.31943E-03-9.54031E-05-1.10489E-14
 -1      1015 3.59420E-03-8.88706E-05-1.28493E-14
 -1      1016 3.86555E-03-8.07597E-05-1.47765E-14
 -1      1017 4.13350E-03-7.10181E-05-1.68280E-14
 -1      1018 4.39848E-03-5.96478E-05-1.90006E-14
 -1      1019 4.66191E-03-4.69317E-05-2.12942E-14
 -1      1020 4.87877E-03-2.17681E-05-2.33501E-14
 -1      1021 1.04324E-02 4.35731E-04-7.46615E-14
 -1      1022 1.06896E-02 4.79774E-04-7.89033E-14
 -1      1023 1.09500E-02 5.25891E-04-8.32123E-14
 -1      1024 1.12140E-02 5.73941E-04-8.75780E-14
 -1      1025 1.14815E-02 6.23651E-04-9.20005E-14
 -1      1026 1.17522E-02 6.74743E-04-9.64776E-14
 -1      1027 1.20259E-02 7.26967E-04-1.01001E-13
 -1      1028 1.23022E-02 7.80113E-04-1.05566E-13
 -1      1029 1.25806E-02 8.34009E-04-1.10162E-13
 -1      1030 1.28607E-02 8.88524E-04-1.14782E-13
 -1      1031 1.19937E-02 9.06450E-04-9.54870E-14
 -1      1032 1.17234E-02 8.46990E-04-9.10150E-14
 -1      1033 1.14578E-02 7.88535E-04-8.65978E-14
 -1      1034 1.22678E-02 9.66388E-04-1.00005E-13
 -1      1035 1.25447E-02 1.02643E-03-1.04561E-13
 -1      1036 1.28239E-02 1.08632E-03-1.09153E-13
 -1      1037 1.31049E-02 1.14593E-03-1.13769E-13
 -1      1038 1.33134E-02 1.18580E-03-1.17283E-13
 -1      1039 2.57444E-03 2.07604E-04-6.16304E-15
 -1      1040 1.34988E-02 1.15556E-03-1.21950E-13
 -1      1041 2.19283E-03-1.04628E-04-5.14294E-15
 -1      1042 1.11981E-02 7.31757E-04-8.22395E-14
 -1      1043 1.05080E-02 5.73771E-04-7.05120E-14
 -1      1044 1.01906E-02 4.38982E-04-6.84302E-14
 -1      1045 2.76062E-03-1.03650E-04-7.83113E-15
 -1      1046 1.09458E-02 6.77473E-04-7.79436E-14
 -1      1047 2.47751E-03-1.05158E-04-6.42068E-15
 -1      1048 1.62171E-03 1.32190E-04-2.71206E-15
 -1      1049 4.76074E-03 1.58836E-04-2.19820E-14
 -1      1050 1.07213E-02 6.23470E-04-7.42024E-14
 -1      1051 1.01921E-02 3.95209E-04-7.07590E-14
 -1      1052 1.87901E-03-1.66501E-05-3.82079E-15
 -1      1053 4.69845E-03 7.94214E-05-2.18957E-14
 -1      1054 1.03716E-02 5.08879E-04-6.94803E-14
 -1      1055 1.32129E-02 9.65239E-04-1.20398E-13
 -1      1056 1.88015E-03 5.47938E-05-3.72185E-15
 -1      1057 2.98493E-03 1.39632E-04-8.45949E-15
 -1      1058 3.79968E-03 1.35983E-04-1.35661E-14
 -1      1059 4.53487E-03 1.47527E-04-1.96665E-14
 -1      1060 3.26147E-03 1.38079E-04-1.00346E-14
 -1      1061 4.05897E-03 1.37118E-04-1.55212E-14
 -1      1062 1.32383E-02 1.06400E-03-1.18580E-13
 -1      1063 1.57436E-03-8.17200E-05-2.83222E-15
 -1      1064 2.13733E-03 1.37650E-04-4.51937E-15
 -1      1065 1.97843E-03-9.82837E-05-4.26976E-15
 -1      1066 1.80051E-03 1.30732E-04-3.29798E-15
 -1      1067 1.18157E-02 8.16147E-04-9.38679E-14
 -1      1068 3.53342E-03 1.36595E-04-1.17372E-14
 -1      1069 3.17268E-03-3.31058E-05-1.00536E-14
 -1      1070 3.44685E-03-2.87395E-05-1.17723E-14
 -1      1071 3.71643E-03-2.28483E-05-1.36175E-14
 -1      1072 3.98097E-03-1.49748E-05-1.55870E-14
 -1      1073 4.23998E-03-4.69338E-06-1.76799E-14
 -1      1074 4.49283E-03 8.38074E-06-1.98941E-14
 -1      1075 1.06389E-02 5.14865E-04-7.62187E-14
 -1      1076 1.04111E-02 4.75302E-04-7.22936E-14
 -1      1077 2.33047E-03-3.87811E-05-5.67515E-15
 -1      1078 1.08884E-02 5.59825E-04-8.04871E-14
 -1      1079 1.11444E-02 6.07810E-04-8.48158E-14
 -1      1080 1.14059E-02 6.58166E-04-8.92004E-14
 -1      1081 1.16721E-02 7.10335E-04-9.36457E-14
 -1      1082 1.19424E-02 7.63855E-04-9.81376E-14
 -1      1083 1.22160E-02 8.18358E-04-1.02677E-13
 -1      1084 1.24924E-02 8.73564E-04-1.07255E-13
 -1      1085 1.27710E-02 9.29265E-04-1.11861E-13
 -1      1086 1.23608E-02 9.31314E-04-1.02907E-13
 -1      1087 1.20865E-02 8.73442E-04-9.83638E-14
 -1      1088 1.15493E-02 7.59859E-04-8.94192E-14
 -1      1089 1.26379E-02 9.89455E-04-1.07487E-13
 -1      1090 1.29172E-02 1.04768E-03-1.12095E-13
 -1      1091 2.70477E-03 1.40533E-04-7.01355E-15
 -1      1092 2.42192E-03 1.40093E-04-5.70045E-15
 -1      1093 1.12884E-02 7.05145E-04-8.50265E-14
 -1      1094 2.61380E-03-3.79712E-05-7.00297E-15
 -1      1095 4.60694E-03 1.13008E-04-2.07754E-14
 -1      1096 2.89479E-03-3.61236E-05-8.46238E-15
 -1      1097 1.10343E-02 6.52701E-04-8.06910E-14
 -1      1098 4.30202E-03 1.40677E-04-1.75366E-14
 -1      1099 1.84266E-03-1.10091E-04-3.76517E-15
 -1      1100 1.32762E-02 1.12481E-03-1.17935E-13
 -1      1101 1.08041E-02 5.99886E-04-7.69111E-14
 -1      1102 4.42403E-03 5.66549E-05-1.92120E-14
 -1      1103 2.11694E-03-3.42695E-05-4.76102E-15
 -1      1104 3.91939E-03 8.07781E-05-1.47871E-14
 -1      1105 1.05831E-02 5.52168E-04-7.31693E-14
 -1      1106 2.83804E-03 7.47972E-05-7.89844E-15
 -1      1107 1.30964E-02 1.08623E-03-1.15011E-13
 -1      1108 3.11580E-03 7.51135E-05-9.43007E-15
 -1      1109 3.65763E-03 7.74674E-05-1.28755E-14
 -1      1110 2.19571E-03 5.60927E-05-4.93956E-15
 -1      1111 3.38936E-03 7.58184E-05-1.10899E-14
 -1      1112 3.30726E-03 3.17383E-05-1.07230E-14
 -1      1113 4.17401E-03 6.60760E-05-1.69322E-14
 -1      1114 2.55693E-03 7.42766E-05-6.49786E-15
 -1      1115 2.47148E-03 2.75523E-05-6.20492E-15
 -1      1116 4.38320E-03 1.00112E-04-1.86231E-14
 -1      1117 0.00000E+00 0.00000E+00 0.00000E+00
 -1      1118 0.00000E+00 0.00000E+00 0.00000E+00
 -1      1119 0.00000E+00 0.00000E+00 0.00000E+00
 -1      1120 0.00000E+00 0.00000E+00 0.00000E+00
 -1      1121 0.00000E+00 0.00000E+00 0.00000E+00
 -1      1122 0.00000E+00 0.00000E+00 0.00000E+00
 -1      1123 0.00000E+00 0.00000E+00 0.00000E+00
 -1      1124 0.00000E+00 0.00000E+00 0.00000E+00
 -1      1125 0.00000E+00 0.00000E+00 0.00000E+00
 -1      1126 0.00000E+00 0.00000E+00 0.00000E+00
 -1      1127 0.00000E+00 0.00000E+00 0.00000E+00
 -1      1128 0.00000E+00 0.00000E+00 0.00000E+00
 -1      1129 0.00000E+00 0.00000E+00 0.00000E+00
 -1      1130 0.00000E+00 0.00000E+00 0.00000E+00
 -1      1131 0.00000E+00 0.00000E+00 0.00000E+00
 -1      1132 0.00000E+00 0.00000E+00 0.00000E+00
 -1      1133 0.00000E+00 0.00000E+00 0.00000E+00
 -1      1134 2.10836E-04-1.47694E-04 2.64274E-18
 -1      1135 5.49597E-04-3.35342E-04-1.08434E-16
 -1      1136 8.30693E-04-4.54869E-04-3.84688E-16
 -1      1137 1.09990E-03-5.34179E-04-8.51085E-16
 -1      1138 1.36535E-03-5.88581E-04-1.49507E-15
 -1      1139 1.63073E-03-6.25890E-04-2.30859E-15
 -1      1140 1.89810E-03-6.50697E-04-3.28641E-15
 -1      1141 2.16861E-03-6.66107E-04-4.42372E-15
 -1      1142 2.44293E-03-6.74454E-04-5.71846E-15
 -1      1143 2.72155E-03-6.77612E-04-7.16706E-15
 -1      1144 3.00489E-03-6.77192E-04-8.76351E-15
 -1      1145 3.29338E-03-6.74690E-04-1.05009E-14
 -1      1146 3.58748E-03-6.71634E-04-1.23746E-14
 -1      1147 3.88762E-03-6.69710E-04-1.43834E-14
 -1      1148 4.19410E-03-6.70860E-04-1.65212E-14
 -1      1149 4.50691E-03-6.77332E-04-1.87892E-14
 -1      1150 4.82542E-03-6.91593E-04-2.11899E-14
 -1      1151 5.14812E-03-7.16061E-04-2.37209E-14
 -1      1152 5.47225E-03-7.52508E-04-2.63822E-14
 -1      1153 5.79371E-03-8.01113E-04-2.91785E-14
 -1      1154 6.10734E-03-8.59259E-04-3.21071E-14
 -1      1155 6.40799E-03-9.20490E-04-3.51745E-14
 -1      1156 6.69216E-03-9.74408E-04-3.83748E-14
 -1      1157 6.95993E-03-1.00830E-03-4.17129E-14
 -1      1158 7.21602E-03-1.01062E-03-4.51817E-14
 -1      1159 7.46900E-03-9.75045E-04-4.87777E-14
 -1      1160 7.72849E-03-9.02989E-04-5.24930E-14
 -1      1161 8.00194E-03-8.03039E-04-5.63153E-14
 -1      1162 8.29242E-03-6.87614E-04-6.02387E-14
 -1      1163 8.59859E-03-5.68899E-04-6.42554E-14
 -1      1164 8.91619E-03-4.55962E-04-6.83662E-14
 -1      1165 9.23998E-03-3.53815E-04-7.25656E-14
 -1      1166 9.56520E-03-2.63966E-04-7.68298E-14
 -1      1167 9.88837E-03-1.85594E-04-8.11464E-14
 -1      1168 1.02073E-02-1.16706E-04-8.55253E-14
 -1      1169 1.05211E-02-5.49699E-05-8.99567E-14
 -1      1170 1.08296E-02 1.79818E-06-9.44272E-14
 -1      1171 1.11331E-02 5.54152E-05-9.89424E-14
 -1      1172 1.14323E-02 1.07274E-04-1.03498E-13
 -1      1173 1.17278E-02 1.58375E-04-1.08106E-13
 -1      1174 1.20205E-02 2.09392E-04-1.12777E-13
 -1      1175 1.23110E-02 2.60744E-04-1.17490E-13
 -1      1176 1.25997E-02 3.12666E-04-1.22229E-13
 -1      1177 1.28873E-02 3.65262E-04-1.26990E-13
 -1      1178 1.31740E-02 4.18551E-04-1.31769E-13
 -1      1179 1.34601E-02 4.72494E-04-1.36556E-13
 -1      1180 1.37459E-02 5.27020E-04-1.41361E-13
 -1      1181 1.40316E-02 5.82032E-04-1.46182E-13
 -1      1182 1.43172E-02 6.37397E-04-1.51011E-13
 -1      1183 1.45957E-02 6.91539E-04-1.55741E-13
 -1      1184 2.27508E-04 1.60021E-04 5.00359E-17
 -1      1185 5.51706E-04 3.39944E-04 6.98633E-17
 -1      1186 8.31516E-04 4.56997E-04-2.74845E-17
 -1      1187 1.10063E-03 5.35774E-04-2.61442E-16
 -1      1188 1.36601E-03 5.90065E-04-6.37253E-16
 -1      1189 1.63137E-03 6.27283E-04-1.15675E-15
 -1      1190 1.89872E-03 6.51902E-04-1.81779E-15
 -1      1191 2.16924E-03 6.66960E-04-2.61938E-15
 -1      1192 2.44367E-03 6.74700E-04-3.56345E-15
 -1      1193 2.72261E-03 6.76880E-04-4.65035E-15
 -1      1194 3.00674E-03 6.74966E-04-5.87858E-15
 -1      1195 3.29686E-03 6.70301E-04-7.24587E-15
 -1      1196 3.59407E-03 6.64288E-04-8.74894E-15
 -1      1197 3.89977E-03 6.58605E-04-1.03823E-14
 -1      1198 4.21572E-03 6.55484E-04-1.21460E-14
 -1      1199 4.54393E-03 6.58068E-04-1.40472E-14
 -1      1200 4.88641E-03 6.70828E-04-1.60800E-14
 -1      1201 5.24456E-03 6.99957E-04-1.82381E-14
 -1      1202 5.61809E-03 7.53408E-04-2.05204E-14
 -1      1203 6.00336E-03 8.39918E-04-2.29255E-14
 -1      1204 6.39148E-03 9.65888E-04-2.54533E-14
 -1      1205 6.76763E-03 1.12927E-03-2.81074E-14
 -1      1206 7.11413E-03 1.31197E-03-3.08898E-14
 -1      1207 7.41931E-03 1.47701E-03-3.38060E-14
 -1      1208 7.68870E-03 1.57949E-03-3.68571E-14
 -1      1209 7.94755E-03 1.59067E-03-4.00532E-14
 -1      1210 8.22762E-03 1.51716E-03-4.33879E-14
 -1      1211 8.54801E-03 1.39654E-03-4.68628E-14
 -1      1212 8.90723E-03 1.27348E-03-5.04697E-14
 -1      1213 9.29016E-03 1.17860E-03-5.42073E-14
 -1      1214 9.67940E-03 1.12335E-03-5.80582E-14
 -1      1215 1.00622E-02 1.10578E-03-6.20029E-14
 -1      1216 1.04317E-02 1.11812E-03-6.60264E-14
 -1      1217 1.07860E-02 1.15173E-03-7.01263E-14
 -1      1218 1.11255E-02 1.19939E-03-7.43120E-14
 -1      1219 1.14523E-02 1.25569E-03-7.85839E-14
 -1      1220 1.17686E-02 1.31693E-03-8.29430E-14
 -1      1221 1.20767E-02 1.38065E-03-8.73800E-14
 -1      1222 1.23783E-02 1.44532E-03-9.18834E-14
 -1      1223 1.26752E-02 1.50998E-03-9.64388E-14
 -1      1224 1.29684E-02 1.57411E-03-1.01026E-13
 -1      1225 1.32591E-02 1.63745E-03-1.05629E-13
 -1      1226 1.35479E-02 1.69988E-03-1.10243E-13
 -1      1227 1.38354E-02 1.76141E-03-1.14879E-13
 -1      1228 1.41220E-02 1.82210E-03-1.19520E-13
 -1      1229 1.44081E-02 1.88203E-03-1.24158E-13
 -1      1230 1.46939E-02 1.94132E-03-1.28802E-13
 -1      1231 1.49795E-02 2.00010E-03-1.33465E-13
 -1      1232 1.52651E-02 2.05850E-03-1.38134E-13
 -1      1233 1.55436E-02 2.11529E-03-1.42679E-13
 -1      1234 1.56506E-02 2.10081E-03-1.45286E-13
 -1      1235 1.55933E-02 2.01646E-03-1.46092E-13
 -1      1236 1.55362E-02 1.93206E-03-1.46902E-13
 -1      1237 1.54793E-02 1.84769E-03-1.47704E-13
 -1      1238 1.54228E-02 1.76345E-03-1.48504E-13
 -1      1239 1.53671E-02 1.68010E-03-1.49286E-13
 -1      1240 1.53115E-02 1.59695E-03-1.50078E-13
 -1      1241 1.52556E-02 1.51326E-03-1.50884E-13
 -1      1242 1.51997E-02 1.42966E-03-1.51689E-13
 -1      1243 1.51438E-02 1.34606E-03-1.52475E-13
 -1      1244 1.50879E-02 1.26238E-03-1.53260E-13
 -1      1245 1.50326E-02 1.17925E-03-1.54062E-13
 -1      1246 1.49775E-02 1.09593E-03-1.54846E-13
 -1      1247 1.49221E-02 1.01171E-03-1.55600E-13
 -1      1248 1.48671E-02 9.27367E-04-1.56325E-13
 -1      1249 1.48124E-02 8.42984E-04-1.57029E-13
 -1      1250 1.47582E-02 7.59356E-04-1.57719E-13
 -1      1251 9.82356E-03 4.49768E-04-4.99537E-14
 -1      1252 9.74194E-03 5.91150E-04-4.93453E-14
 -1      1253 9.55577E-03 7.41015E-04-4.83993E-14
 -1      1254 9.27152E-03 8.97297E-04-4.71438E-14
 -1      1255 8.91630E-03 1.04431E-03-4.56799E-14
 -1      1256 8.49489E-03 1.16915E-03-4.40038E-14
 -1      1257 8.03460E-03 1.24546E-03-4.22320E-14
 -1      1258 7.58247E-03 1.25772E-03-4.05777E-14
 -1      1259 7.13614E-03 1.20427E-03-3.90422E-14
 -1      1260 6.69540E-03 1.09437E-03-3.76367E-14
 -1      1261 6.27617E-03 9.41925E-04-3.64202E-14
 -1      1262 5.91644E-03 7.76440E-04-3.54968E-14
 -1      1263 5.62410E-03 6.06962E-04-3.48548E-14
 -1      1264 5.41403E-03 4.36066E-04-3.45152E-14
 -1      1265 5.32348E-03 2.82076E-04-3.45336E-14
 -1      1266 5.34897E-03 1.36413E-04-3.48712E-14
 -1      1267 5.48356E-03-8.18347E-06-3.55194E-14
 -1      1268 5.70691E-03-1.47479E-04-3.64291E-14
 -1      1269 5.99444E-03-2.77706E-04-3.75360E-14
 -1      1270 6.33474E-03-3.95241E-04-3.88293E-14
 -1      1271 6.71603E-03-4.88811E-04-4.02871E-14
 -1      1272 7.12371E-03-5.43896E-04-4.18580E-14
 -1      1273 7.55134E-03-5.50645E-04-4.34962E-14
 -1      1274 7.98925E-03-5.03119E-04-4.51297E-14
 -1      1275 8.41120E-03-4.10102E-04-4.66182E-14
 -1      1276 8.79826E-03-2.85891E-04-4.78789E-14
 -1      1277 9.16454E-03-1.35171E-04-4.89705E-14
 -1      1278 9.46904E-03 2.15892E-05-4.97566E-14
 -1      1279 9.68006E-03 1.67413E-04-5.01634E-14
 -1      1280 9.80151E-03 3.08570E-04-5.02289E-14
 -1      1281 1.66219E-04-1.09842E-04-2.23075E-17
 -1      1282 1.12468E-04-5.65908E-05-4.66342E-17
 -1      1283 1.17453E-04-6.72099E-05-3.96411E-17
 -1      1284 1.08470E-04-4.30527E-05-5.75034E-17
 -1      1285 1.10280E-04-4.91881E-05-5.46438E-17
 -1      1286 2.26272E-04-1.06714E-04-1.28912E-16
 -1      1287 1.06945E-04-3.31330E-05-6.21925E-17
 -1      1288 1.07769E-04-3.78626E-05-6.09999E-17
 -1      1289 2.19249E-04-8.14749E-05-1.47045E-16
 -1      1290 1.06185E-04-2.48925E-05-6.43338E-17
 -1      1291 1.06609E-04-2.89045E-05-6.39544E-17
 -1      1292 2.16082E-04-6.22723E-05-1.55393E-16
 -1      1293 1.05787E-04-1.76970E-05-6.45913E-17
 -1      1294 1.06019E-04-2.12219E-05-6.47269E-17
 -1      1295 2.14443E-04-4.62637E-05-1.58483E-16
 -1      1296 1.05558E-04-1.09618E-05-6.39273E-17
 -1      1297 1.05686E-04-1.42807E-05-6.42796E-17
 -1      1298 2.13512E-04-3.19995E-05-1.58307E-16
 -1      1299 1.05451E-04-4.56602E-06-6.24500E-17
 -1      1300 1.05507E-04-7.73764E-06-6.29244E-17
 -1      1301 2.12985E-04-1.87005E-05-1.55949E-16
 -1      1302 1.05440E-04 1.69464E-06-6.04985E-17
 -1      1303 1.05437E-04-1.43175E-06-6.10948E-17
 -1      1304 2.12753E-04-5.99562E-06-1.52141E-16
 -1      1305 1.05520E-04 8.01079E-06-5.74898E-17
 -1      1306 1.05458E-04 4.83242E-06-5.83436E-17
 -1      1307 2.12765E-04 6.52731E-06-1.46557E-16
 -1      1308 1.05709E-04 1.45804E-05-5.41017E-17
 -1      1309 1.05575E-04 1.12463E-05-5.50775E-17
 -1      1310 2.13021E-04 1.92593E-05-1.39239E-16
 -1      1311 1.06049E-04 2.15083E-05-4.95345E-17
 -1      1312 1.05811E-04 1.79595E-05-5.09982E-17
 -1      1313 2.13566E-04 3.25020E-05-1.30389E-16
 -1      1314 1.06663E-04 2.93370E-05-4.32190E-17
 -1      1315 1.06231E-04 2.52771E-05-4.53468E-17
 -1      1316 2.14530E-04 4.68601E-05-1.18612E-16
 -1      1317 1.07811E-04 3.84515E-05-3.45454E-17
 -1      1318 1.06986E-04 3.36508E-05-3.78116E-17
 -1      1319 2.16216E-04 6.32052E-05-1.02904E-16
 -1      1320 1.10258E-04 4.99317E-05-2.17111E-17
 -1      1321 1.08475E-04 4.37262E-05-2.71051E-17
 -1      1322 2.19350E-04 8.27285E-05-8.12745E-17
 -1      1323 1.16764E-04 6.72546E-05-2.48011E-18
 -1      1324 1.12112E-04 5.73962E-05-1.16958E-17
 -1      1325 2.26254E-04 1.08538E-04-5.08626E-17
 -1      1326 1.57070E-04 1.09385E-04 2.63597E-17
 -1      1327 1.35368E-04 8.56753E-05 9.25638E-18
 -1      1328 2.55624E-04 1.51146E-04-1.49620E-17
 -1      1329 3.34031E-04 2.19550E-04 3.40439E-17
 -1      1330 4.20345E-04-2.60101E-04-1.13801E-16
 -1      1331 5.73096E-04-3.34253E-04-2.09969E-16
 -1      1332 7.20020E-04-3.93854E-04-3.56716E-16
 -1      1333 8.63003E-04-4.42049E-04-5.49365E-16
 -1      1334 6.11010E-04-3.27912E-04-3.24109E-16
 -1      1335 1.00293E-03-4.81912E-04-7.85193E-16
 -1      1336 1.14078E-03-5.14579E-04-1.06515E-15
 -1      1337 9.04048E-04-4.26371E-04-7.16468E-16
 -1      1338 1.27739E-03-5.41900E-04-1.38809E-15
 -1      1339 1.41327E-03-5.64349E-04-1.75370E-15
 -1      1340 1.18663E-03-4.93092E-04-1.28074E-15
 -1      1341 1.54889E-03-5.82971E-04-2.16030E-15
 -1      1342 1.68454E-03-5.98103E-04-2.60798E-15
 -1      1343 1.46418E-03-5.38618E-04-2.01258E-15
 -1      1344 1.82048E-03-6.10355E-04-3.09584E-15
 -1      1345 1.95684E-03-6.20029E-04-3.62354E-15
 -1      1346 1.74008E-03-5.69035E-04-2.90690E-15
 -1      1347 2.09381E-03-6.27513E-04-4.19077E-15
 -1      1348 2.23146E-03-6.33075E-04-4.79701E-15
 -1      1349 2.01642E-03-5.88270E-04-3.96001E-15
 -1      1350 2.36990E-03-6.36985E-04-5.44194E-15
 -1      1351 2.50918E-03-6.39480E-04-6.12485E-15
 -1      1352 2.29446E-03-5.99127E-04-5.16832E-15
 -1      1353 2.64939E-03-6.40765E-04-6.84609E-15
 -1      1354 2.79058E-03-6.41055E-04-7.60413E-15
 -1      1355 2.57501E-03-6.03750E-04-6.52873E-15
 -1      1356 2.93281E-03-6.40521E-04-8.39747E-15
 -1      1357 3.07613E-03-6.39370E-04-9.22678E-15
 -1      1358 2.85868E-03-6.03888E-04-8.03658E-15
 -1      1359 3.22061E-03-6.37765E-04-1.00911E-14
 -1      1360 3.36629E-03-6.35918E-04-1.09898E-14
 -1      1361 3.14596E-03-6.01084E-04-9.68671E-15
 -1      1362 3.51322E-03-6.34005E-04-1.19219E-14
 -1      1363 3.66146E-03-6.32255E-04-1.28879E-14
 -1      1364 3.43728E-03-5.96834E-04-1.14745E-14
 -1      1365 3.81104E-03-6.30881E-04-1.38875E-14
 -1      1366 3.96199E-03-6.30135E-04-1.49200E-14
 -1      1367 3.73302E-03-5.92737E-04-1.33975E-14
 -1      1368 4.11433E-03-6.30285E-04-1.59841E-14
 -1      1369 4.26805E-03-6.31604E-04-1.70805E-14
 -1      1370 4.03349E-03-5.90625E-04-1.54521E-14
 -1      1371 4.42312E-03-6.34428E-04-1.82103E-14
 -1      1372 4.57947E-03-6.39037E-04-1.93727E-14
 -1      1373 4.33878E-03-5.92658E-04-1.76361E-14
 -1      1374 4.73699E-03-6.45817E-04-2.05674E-14
 -1      1375 4.89552E-03-6.55022E-04-2.17952E-14
 -1      1376 4.64871E-03-6.01333E-04-1.99508E-14
 -1      1377 5.05483E-03-6.67038E-04-2.30554E-14
 -1      1378 5.21465E-03-6.82021E-04-2.43472E-14
 -1      1379 4.96258E-03-6.19336E-04-2.23952E-14
 -1      1380 5.37464E-03-7.00252E-04-2.56725E-14
 -1      1381 5.53438E-03-7.21681E-04-2.70307E-14
 -1      1382 5.27907E-03-6.49120E-04-2.49696E-14
 -1      1383 5.69341E-03-7.46314E-04-2.84215E-14
 -1      1384 5.85123E-03-7.73763E-04-2.98468E-14
 -1      1385 5.59605E-03-6.92113E-04-2.76729E-14
 -1      1386 6.00732E-03-8.03552E-04-3.13042E-14
 -1      1387 6.16119E-03-8.34841E-04-3.27955E-14
 -1      1388 5.91068E-03-7.47532E-04-3.05078E-14
 -1      1389 6.31238E-03-8.66527E-04-3.43220E-14
 -1      1390 6.46057E-03-8.97308E-04-3.58822E-14
 -1      1391 6.21974E-03-8.11020E-04-3.34774E-14
 -1      1392 6.60557E-03-9.25516E-04-3.74771E-14
 -1      1393 6.74740E-03-9.49572E-04-3.91043E-14
 -1      1394 6.52039E-03-8.73768E-04-3.65850E-14
 -1      1395 6.88625E-03-9.67623E-04-4.07662E-14
 -1      1396 7.02261E-03-9.78232E-04-4.24622E-14
 -1      1397 6.81130E-03-9.23088E-04-3.98281E-14
 -1      1398 7.15711E-03-9.79984E-04-4.41893E-14
 -1      1399 7.29059E-03-9.72095E-04-4.59491E-14
 -1      1400 7.09370E-03-9.45179E-04-4.32044E-14
 -1      1401 7.42392E-03-9.54170E-04-4.77406E-14
 -1      1402 7.55807E-03-9.26385E-04-4.95608E-14
 -1      1403 7.37155E-03-9.29635E-04-4.67093E-14
 -1      1404 7.69385E-03-8.89543E-04-5.14108E-14
 -1      1405 7.83199E-03-8.44710E-04-5.32893E-14
 -1      1406 7.65046E-03-8.73571E-04-5.03380E-14
 -1      1407 7.97300E-03-7.93531E-04-5.51941E-14
 -1      1408 8.11717E-03-7.37550E-04-5.71267E-14
 -1      1409 7.93569E-03-7.82861E-04-5.40813E-14
 -1      1410 8.26458E-03-6.78613E-04-5.90831E-14
 -1      1411 8.41510E-03-6.18239E-04-6.10633E-14
 -1      1412 8.23028E-03-6.69647E-04-5.79327E-14
 -1      1413 8.56843E-03-5.57915E-04-6.30686E-14
 -1      1414 8.72416E-03-4.98789E-04-6.50956E-14
 -1      1415 8.53449E-03-5.47771E-04-6.18845E-14
 -1      1416 8.88182E-03-4.41730E-04-6.71471E-14
 -1      1417 9.04091E-03-3.87410E-04-6.92201E-14
 -1      1418 8.84636E-03-4.28718E-04-6.59324E-14
 -1      1419 9.20091E-03-3.36110E-04-7.13123E-14
 -1      1420 9.36136E-03-2.88089E-04-7.34258E-14
 -1      1421 9.16287E-03-3.19667E-04-7.00681E-14
 -1      1422 9.52187E-03-2.43219E-04-7.55523E-14
 -1      1423 9.68206E-03-2.01476E-04-7.76911E-14
 -1      1424 9.48091E-03-2.23569E-04-7.42783E-14
 -1      1425 9.84166E-03-1.62526E-04-7.98486E-14
 -1      1426 1.00004E-02-1.26189E-04-8.20196E-14
 -1      1427 9.79798E-03-1.40299E-04-7.85535E-14
 -1      1428 1.01583E-02-9.20745E-05-8.42051E-14
 -1      1429 1.03150E-02-5.99410E-05-8.64039E-14
 -1      1430 1.01123E-02-6.80170E-05-8.28881E-14
 -1      1431 1.04706E-02-2.94316E-05-8.86146E-14
 -1      1432 1.06251E-02-3.00932E-07-9.08367E-14
 -1      1433 1.04230E-02-4.23450E-06-8.72777E-14
 -1      1434 1.07784E-02 2.77377E-05-9.30710E-14
 -1      1435 1.09306E-02 5.49020E-05-9.53153E-14
 -1      1436 1.07297E-02 5.35175E-05-9.17160E-14
 -1      1437 1.10817E-02 8.14017E-05-9.75701E-14
 -1      1438 1.12319E-02 1.07415E-04-9.98377E-14
 -1      1439 1.10324E-02 1.07358E-04-9.62014E-14
 -1      1440 1.13811E-02 1.33082E-04-1.02113E-13
 -1      1441 1.15295E-02 1.58541E-04-1.04400E-13
 -1      1442 1.13315E-02 1.58944E-04-1.00728E-13
 -1      1443 1.16771E-02 1.83879E-04-1.06703E-13
 -1      1444 1.18240E-02 2.09194E-04-1.09022E-13
 -1      1445 1.16275E-02 2.09485E-04-1.05304E-13
 -1      1446 1.19702E-02 2.34535E-04-1.11352E-13
 -1      1447 1.21160E-02 2.59969E-04-1.13692E-13
 -1      1448 1.19209E-02 2.59803E-04-1.09930E-13
 -1      1449 1.22612E-02 2.85518E-04-1.16044E-13
 -1      1450 1.24061E-02 3.11224E-04-1.18403E-13
 -1      1451 1.22121E-02 3.10423E-04-1.14605E-13
 -1      1452 1.25505E-02 3.37091E-04-1.20767E-13
 -1      1453 1.26947E-02 3.63144E-04-1.23139E-13
 -1      1454 1.25017E-02 3.61641E-04-1.19312E-13
 -1      1455 1.28385E-02 3.89374E-04-1.25516E-13
 -1      1456 1.29822E-02 4.15796E-04-1.27896E-13
 -1      1457 1.27901E-02 4.13600E-04-1.24045E-13
 -1      1458 1.31257E-02 4.42394E-04-1.30282E-13
 -1      1459 1.32690E-02 4.69173E-04-1.32671E-13
 -1      1460 1.30775E-02 4.66336E-04-1.28801E-13
 -1      1461 1.34121E-02 4.96115E-04-1.35064E-13
 -1      1462 1.35552E-02 5.23219E-04-1.37458E-13
 -1      1463 1.33642E-02 5.19818E-04-1.33573E-13
 -1      1464 1.36982E-02 5.50466E-04-1.39858E-13
 -1      1465 1.38412E-02 5.77848E-04-1.42266E-13
 -1      1466 1.36505E-02 5.73974E-04-1.38361E-13
 -1      1467 1.39840E-02 6.05347E-04-1.44675E-13
 -1      1468 1.41269E-02 6.32951E-04-1.47084E-13
 -1      1469 1.39365E-02 6.28707E-04-1.43167E-13
 -1      1470 1.42698E-02 6.60637E-04-1.49501E-13
 -1      1471 1.44126E-02 6.88384E-04-1.51921E-13
 -1      1472 1.42223E-02 6.83896E-04-1.47988E-13
 -1      1473 1.46225E-02 7.32971E-04-1.55405E-13
 -1      1474 1.45751E-02 7.56197E-04-1.53888E-13
 -1      1475 6.41242E-04 3.69036E-04-1.13028E-17
 -1      1476 4.91469E-04 3.01659E-04 2.75387E-17
 -1      1477 4.43880E-04 2.64010E-04-8.79559E-18
 -1      1478 9.26375E-04 4.66793E-04-1.88312E-16
 -1      1479 7.85697E-04 4.22461E-04-8.30363E-17
 -1      1480 7.43290E-04 3.86833E-04-1.30945E-16
 -1      1481 1.20118E-03 5.33519E-04-5.01267E-16
 -1      1482 1.06451E-03 5.03252E-04-3.27226E-16
 -1      1483 1.02920E-03 4.69820E-04-3.85461E-16
 -1      1484 1.47210E-03 5.79433E-04-9.56171E-16
 -1      1485 1.33680E-03 5.58693E-04-7.10762E-16
 -1      1486 1.30737E-03 5.26648E-04-7.77021E-16
 -1      1487 1.74264E-03 6.10349E-04-1.55243E-15
 -1      1488 1.60724E-03 5.96527E-04-1.23640E-15
 -1      1489 1.58238E-03 5.65284E-04-1.30935E-15
 -1      1490 2.01475E-03 6.30030E-04-2.29019E-15
 -1      1491 1.87840E-03 6.21420E-04-1.90359E-15
 -1      1492 1.85706E-03 5.90587E-04-1.98272E-15
 -1      1493 2.28959E-03 6.41148E-04-3.16859E-15
 -1      1494 2.15177E-03 6.36522E-04-2.71198E-15
 -1      1495 2.13310E-03 6.05837E-04-2.79728E-15
 -1      1496 2.56797E-03 6.45718E-04-4.18985E-15
 -1      1497 2.42830E-03 6.44135E-04-3.66138E-15
 -1      1498 2.41157E-03 6.13411E-04-3.75267E-15
 -1      1499 2.85059E-03 6.45347E-04-5.35096E-15
 -1      1500 2.70871E-03 6.46045E-04-4.75283E-15
 -1      1501 2.69330E-03 6.15131E-04-4.84844E-15
 -1      1502 3.13820E-03 6.41412E-04-6.65289E-15
 -1      1503 2.99373E-03 6.43720E-04-5.98474E-15
 -1      1504 2.97902E-03 6.12473E-04-6.08395E-15
 -1      1505 3.43168E-03 6.35234E-04-8.08952E-15
 -1      1506 3.28415E-03 6.38485E-04-7.35413E-15
 -1      1507 3.26949E-03 6.06755E-04-7.45657E-15
 -1      1508 3.73217E-03 6.28280E-04-9.66179E-15
 -1      1509 3.58098E-03 6.31708E-04-8.85935E-15
 -1      1510 3.56564E-03 5.99315E-04-8.96405E-15
 -1      1511 4.04104E-03 6.22406E-04-1.13623E-14
 -1      1512 3.88547E-03 6.25018E-04-1.04956E-14
 -1      1513 3.86854E-03 5.91738E-04-1.06028E-14
 -1      1514 4.35988E-03 6.20180E-04-1.31958E-14
 -1      1515 4.19911E-03 6.20583E-04-1.22618E-14
 -1      1516 4.17946E-03 5.86137E-04-1.23719E-14
 -1      1517 4.69036E-03 6.25280E-04-1.51638E-14
 -1      1518 4.52356E-03 6.21480E-04-1.41635E-14
 -1      1519 4.49977E-03 5.85517E-04-1.42744E-14
 -1      1520 5.03384E-03 6.42952E-04-1.72606E-14
 -1      1521 4.86039E-03 6.32124E-04-1.61963E-14
 -1      1522 4.83077E-03 5.94232E-04-1.63075E-14
 -1      1523 5.39077E-03 6.80341E-04-1.94811E-14
 -1      1524 5.21062E-03 6.58705E-04-1.83558E-14
 -1      1525 5.17334E-03 6.18439E-04-1.84674E-14
 -1      1526 5.75965E-03 7.46262E-04-2.18252E-14
 -1      1527 5.57388E-03 7.09303E-04-2.06381E-14
 -1      1528 5.52737E-03 6.66287E-04-2.07507E-14
 -1      1529 6.13575E-03 8.49474E-04-2.42911E-14
 -1      1530 5.94723E-03 7.93051E-04-2.30423E-14
 -1      1531 5.89095E-03 7.47195E-04-2.31545E-14
 -1      1532 6.51023E-03 9.94234E-04-2.68809E-14
 -1      1533 6.32396E-03 9.17163E-04-2.55702E-14
 -1      1534 6.25950E-03 8.69062E-04-2.56820E-14
 -1      1535 6.87081E-03 1.17270E-03-2.95999E-14
 -1      1536 6.69319E-03 1.08082E-03-2.82239E-14
 -1      1537 6.62528E-03 1.03222E-03-2.83355E-14
 -1      1538 7.20579E-03 1.35762E-03-3.24453E-14
 -1      1539 7.04210E-03 1.26700E-03-3.10061E-14
 -1      1540 6.97842E-03 1.22087E-03-3.11162E-14
 -1      1541 7.51161E-03 1.50393E-03-3.54291E-14
 -1      1542 7.36202E-03 1.43836E-03-3.39208E-14
 -1      1543 7.31117E-03 1.39780E-03-3.40298E-14
 -1      1544 7.79890E-03 1.56823E-03-3.85535E-14
 -1      1545 7.65622E-03 1.54763E-03-3.69730E-14
 -1      1546 7.62434E-03 1.51359E-03-3.70811E-14
 -1      1547 8.08924E-03 1.53555E-03-4.18196E-14
 -1      1548 7.94210E-03 1.56280E-03-4.01675E-14
 -1      1549 7.93033E-03 1.53299E-03-4.02774E-14
 -1      1550 8.40241E-03 1.43024E-03-4.52258E-14
 -1      1551 8.24213E-03 1.48899E-03-4.35059E-14
 -1      1552 8.24648E-03 1.45947E-03-4.36164E-14
 -1      1553 8.74516E-03 1.29916E-03-4.87694E-14
 -1      1554 8.57025E-03 1.36502E-03-4.69811E-14
 -1      1555 8.58333E-03 1.33294E-03-4.70936E-14
 -1      1556 9.11104E-03 1.18386E-03-5.24419E-14
 -1      1557 8.92597E-03 1.23790E-03-5.05890E-14
 -1      1558 8.93970E-03 1.20256E-03-5.07018E-14
 -1      1559 9.48762E-03 1.10608E-03-5.62346E-14
 -1      1560 9.29884E-03 1.13991E-03-5.43253E-14
 -1      1561 9.30705E-03 1.10203E-03-5.44371E-14
 -1      1562 9.86330E-03 1.06953E-03-6.01339E-14
 -1      1563 9.67621E-03 1.08301E-03-5.81713E-14
 -1      1564 9.67578E-03 1.04370E-03-5.82828E-14
 -1      1565 1.02304E-02 1.06811E-03-6.41154E-14
 -1      1566 1.00483E-02 1.06503E-03-6.21146E-14
 -1      1567 1.00388E-02 1.02526E-03-6.22225E-14
 -1      1568 1.05853E-02 1.09275E-03-6.81801E-14
 -1      1569 1.04095E-02 1.07774E-03-6.61391E-14
 -1      1570 1.03920E-02 1.03818E-03-6.62480E-14
 -1      1571 1.09272E-02 1.13506E-03-7.23248E-14
 -1      1572 1.07578E-02 1.11214E-03-7.02406E-14
 -1      1573 1.07341E-02 1.07316E-03-7.03517E-14
 -1      1574 1.12570E-02 1.18853E-03-7.65523E-14
 -1      1575 1.10935E-02 1.16072E-03-7.44285E-14
 -1      1576 1.10653E-02 1.12247E-03-7.45396E-14
 -1      1577 1.15765E-02 1.24854E-03-8.08656E-14
 -1      1578 1.14179E-02 1.21793E-03-7.86995E-14
 -1      1579 1.13866E-02 1.18044E-03-7.88094E-14
 -1      1580 1.18875E-02 1.31201E-03-8.52604E-14
 -1      1581 1.17329E-02 1.27998E-03-8.30522E-14
 -1      1582 1.16996E-02 1.24319E-03-8.31599E-14
 -1      1583 1.21917E-02 1.37699E-03-8.97231E-14
 -1      1584 1.20403E-02 1.34440E-03-8.74837E-14
 -1      1585 1.20058E-02 1.30823E-03-8.75841E-14
 -1      1586 1.24907E-02 1.44225E-03-9.42456E-14
 -1      1587 1.23418E-02 1.40963E-03-9.19779E-14
 -1      1588 1.23066E-02 1.37399E-03-9.20710E-14
 -1      1589 1.27858E-02 1.50710E-03-9.88125E-14
 -1      1590 1.26387E-02 1.47476E-03-9.65253E-14
 -1      1591 1.26032E-02 1.43954E-03-9.66106E-14
 -1      1592 1.30779E-02 1.57117E-03-1.03405E-13
 -1      1593 1.29322E-02 1.53925E-03-1.01106E-13
 -1      1594 1.28967E-02 1.50437E-03-1.01188E-13
 -1      1595 1.33679E-02 1.63430E-03-1.08014E-13
 -1      1596 1.32231E-02 1.60286E-03-1.05708E-13
 -1      1597 1.31877E-02 1.56825E-03-1.05788E-13
 -1      1598 1.36563E-02 1.69646E-03-1.12640E-13
 -1      1599 1.35122E-02 1.66551E-03-1.10324E-13
 -1      1600 1.34769E-02 1.63110E-03-1.10404E-13
 -1      1601 1.39436E-02 1.75770E-03-1.17280E-13
 -1      1602 1.38000E-02 1.72719E-03-1.14958E-13
 -1      1603 1.37649E-02 1.69295E-03-1.15037E-13
 -1      1604 1.42302E-02 1.81809E-03-1.21919E-13
 -1      1605 1.40869E-02 1.78799E-03-1.19600E-13
 -1      1606 1.40520E-02 1.75387E-03-1.19679E-13
 -1      1607 1.45163E-02 1.87776E-03-1.26561E-13
 -1      1608 1.43733E-02 1.84801E-03-1.24240E-13
 -1      1609 1.43385E-02 1.81397E-03-1.24320E-13
 -1      1610 1.48021E-02 1.93682E-03-1.31213E-13
 -1      1611 1.46592E-02 1.90736E-03-1.28884E-13
 -1      1612 1.46246E-02 1.87337E-03-1.28967E-13
 -1      1613 1.50878E-02 1.99541E-03-1.35877E-13
 -1      1614 1.49450E-02 1.96616E-03-1.33543E-13
 -1      1615 1.49105E-02 1.93222E-03-1.33623E-13
 -1      1616 1.53735E-02 2.05370E-03-1.40543E-13
 -1      1617 1.52306E-02 2.02458E-03-1.38210E-13
 -1      1618 1.51962E-02 1.99065E-03-1.38288E-13
 -1      1619 1.55149E-02 2.07314E-03-1.43074E-13
 -1      1620 1.54553E-02 1.97020E-03-1.44269E-13
 -1      1621 1.54839E-02 2.01236E-03-1.43867E-13
 -1      1622 1.53982E-02 1.88589E-03-1.45076E-13
 -1      1623 1.54267E-02 1.92804E-03-1.44674E-13
 -1      1624 1.53173E-02 1.92396E-03-1.42446E-13
 -1      1625 1.53415E-02 1.80166E-03-1.45872E-13
 -1      1626 1.53698E-02 1.84376E-03-1.45474E-13
 -1      1627 1.52603E-02 1.83974E-03-1.43245E-13
 -1      1628 1.52851E-02 1.71758E-03-1.46666E-13
 -1      1629 1.53132E-02 1.75960E-03-1.46272E-13
 -1      1630 1.52036E-02 1.75564E-03-1.44039E-13
 -1      1631 1.52299E-02 1.63508E-03-1.47442E-13
 -1      1632 1.52574E-02 1.67631E-03-1.47054E-13
 -1      1633 1.51478E-02 1.67240E-03-1.44823E-13
 -1      1634 1.51739E-02 1.55133E-03-1.48237E-13
 -1      1635 1.52019E-02 1.59319E-03-1.47840E-13
 -1      1636 1.50922E-02 1.58933E-03-1.45604E-13
 -1      1637 1.51180E-02 1.46771E-03-1.49035E-13
 -1      1638 1.51459E-02 1.50951E-03-1.48635E-13
 -1      1639 1.50363E-02 1.50570E-03-1.46392E-13
 -1      1640 1.50621E-02 1.38416E-03-1.49828E-13
 -1      1641 1.50900E-02 1.42593E-03-1.49433E-13
 -1      1642 1.49804E-02 1.42217E-03-1.47182E-13
 -1      1643 1.50062E-02 1.30058E-03-1.50610E-13
 -1      1644 1.50341E-02 1.34237E-03-1.50220E-13
 -1      1645 1.49245E-02 1.33868E-03-1.47965E-13
 -1      1646 1.49503E-02 1.21691E-03-1.51394E-13
 -1      1647 1.49782E-02 1.25876E-03-1.51002E-13
 -1      1648 1.48686E-02 1.25516E-03-1.48744E-13
 -1      1649 1.48955E-02 1.13452E-03-1.52172E-13
 -1      1650 1.49229E-02 1.17574E-03-1.51785E-13
 -1      1651 1.48132E-02 1.17224E-03-1.49515E-13
 -1      1652 1.48399E-02 1.05053E-03-1.52938E-13
 -1      1653 1.48677E-02 1.09255E-03-1.52560E-13
 -1      1654 1.47579E-02 1.08918E-03-1.50281E-13
 -1      1655 1.47846E-02 9.66391E-04-1.53681E-13
 -1      1656 1.48122E-02 1.00848E-03-1.53313E-13
 -1      1657 1.47024E-02 1.00525E-03-1.51032E-13
 -1      1658 1.47297E-02 8.82131E-04-1.54397E-13
 -1      1659 1.47571E-02 9.24271E-04-1.54042E-13
 -1      1660 1.46472E-02 9.21161E-04-1.51761E-13
 -1      1661 1.46387E-02 7.98084E-04-1.54319E-13
 -1      1662 1.46660E-02 8.40233E-04-1.53970E-13
 -1      1663 1.45560E-02 8.37203E-04-1.51693E-13
 -1      1664 1.44287E-02 7.53477E-04-1.50838E-13
 -1      1665 9.82532E-03 4.56953E-04-5.05468E-14
 -1      1666 9.84409E-03 4.12628E-04-5.07753E-14
 -1      1667 9.69750E-03 5.61625E-04-4.98047E-14
 -1      1668 9.77068E-03 5.11471E-04-5.01868E-14
 -1      1669 9.44547E-03 6.95464E-04-4.87057E-14
 -1      1670 9.57718E-03 6.26923E-04-4.92821E-14
 -1      1671 9.11279E-03 8.66032E-04-4.72397E-14
 -1      1672 9.27514E-03 7.86578E-04-4.79234E-14
 -1      1673 8.72873E-03 1.04380E-03-4.55861E-14
 -1      1674 8.91091E-03 9.61334E-04-4.63721E-14
 -1      1675 8.31072E-03 1.20457E-03-4.37115E-14
 -1      1676 8.50756E-03 1.13461E-03-4.46009E-14
 -1      1677 7.89318E-03 1.30069E-03-4.18094E-14
 -1      1678 8.07819E-03 1.26742E-03-4.26794E-14
 -1      1679 7.50746E-03 1.29659E-03-4.00722E-14
 -1      1680 7.68269E-03 1.30847E-03-4.08439E-14
 -1      1681 7.11380E-03 1.20472E-03-3.84219E-14
 -1      1682 7.29873E-03 1.25925E-03-3.91649E-14
 -1      1683 6.70123E-03 1.04234E-03-3.69870E-14
 -1      1684 6.88942E-03 1.12377E-03-3.76288E-14
 -1      1685 6.30557E-03 8.27219E-04-3.56236E-14
 -1      1686 6.49771E-03 9.25995E-04-3.61691E-14
 -1      1687 5.91715E-03 6.53896E-04-3.48492E-14
 -1      1688 6.07606E-03 7.35682E-04-3.52122E-14
 -1      1689 5.59955E-03 4.76751E-04-3.41624E-14
 -1      1690 5.74292E-03 5.51578E-04-3.44153E-14
 -1      1691 5.37775E-03 3.41202E-04-3.38508E-14
 -1      1692 5.46357E-03 3.95654E-04-3.39272E-14
 -1      1693 5.30173E-03 2.45802E-04-3.40192E-14
 -1      1694 5.31864E-03 2.88580E-04-3.39335E-14
 -1      1695 5.36597E-03 1.49593E-04-3.44228E-14
 -1      1696 5.31841E-03 1.94681E-04-3.41770E-14
 -1      1697 5.55525E-03 3.47492E-05-3.52149E-14
 -1      1698 5.45460E-03 8.85809E-05-3.48313E-14
 -1      1699 5.83008E-03-1.02967E-04-3.62698E-14
 -1      1700 5.69343E-03-3.87045E-05-3.57683E-14
 -1      1701 6.15396E-03-2.48579E-04-3.74850E-14
 -1      1702 6.00065E-03-1.80310E-04-3.69040E-14
 -1      1703 6.51271E-03-3.97436E-04-3.89257E-14
 -1      1704 6.34275E-03-3.29023E-04-3.82304E-14
 -1      1705 6.87904E-03-5.20024E-04-4.05160E-14
 -1      1706 6.71070E-03-4.68201E-04-3.97704E-14
 -1      1707 7.25220E-03-5.92597E-04-4.22405E-14
 -1      1708 7.08134E-03-5.67125E-04-4.14271E-14
 -1      1709 7.62505E-03-5.90381E-04-4.40272E-14
 -1      1710 7.45380E-03-6.01418E-04-4.32098E-14
 -1      1711 8.01043E-03-5.07648E-04-4.58264E-14
 -1      1712 7.83073E-03-5.56559E-04-4.50136E-14
 -1      1713 8.40441E-03-3.66682E-04-4.73545E-14
 -1      1714 8.22899E-03-4.36169E-04-4.66697E-14
 -1      1715 8.78480E-03-1.98006E-04-4.86865E-14
 -1      1716 8.60965E-03-2.78463E-04-4.81016E-14
 -1      1717 9.16339E-03-6.14740E-06-4.99217E-14
 -1      1718 8.98447E-03-9.20329E-05-4.94187E-14
 -1      1719 9.48972E-03 1.39890E-04-5.05920E-14
 -1      1720 9.35515E-03 7.36766E-05-5.02993E-14
 -1      1721 9.71301E-03 2.61065E-04-5.09536E-14
 -1      1722 9.62177E-03 2.08863E-04-5.08345E-14
 -1      1723 9.83099E-03 3.61502E-04-5.09405E-14
 -1      1724 9.79070E-03 3.17058E-04-5.09926E-14
 -1      1725 8.95594E-03 8.75640E-04-4.71688E-14
 -1      1726 9.32433E-03 6.89747E-04-4.88330E-14
 -1      1727 1.54805E-02 2.03921E-03-1.43156E-13
 -1      1728 1.53425E-02 1.99294E-03-1.41332E-13
 -1      1729 9.80224E-03 4.61221E-04-5.10473E-14
 -1      1730 9.62093E-03 5.51622E-04-5.01534E-14
 -1      1731 9.84713E-03 3.94147E-04-5.15794E-14
 -1      1732 8.55747E-03 1.07631E-03-4.53045E-14
 -1      1733 8.15145E-03 1.24786E-03-4.32819E-14
 -1      1734 7.78515E-03 1.33174E-03-4.12864E-14
 -1      1735 7.42829E-03 1.30108E-03-3.94204E-14
 -1      1736 7.06083E-03 1.16815E-03-3.77335E-14
 -1      1737 6.66652E-03 9.57048E-04-3.61376E-14
 -1      1738 6.26287E-03 7.32852E-04-3.49334E-14
 -1      1739 5.86629E-03 5.38520E-04-3.41020E-14
 -1      1740 5.54647E-03 3.80654E-04-3.34448E-14
 -1      1741 5.34420E-03 2.88311E-04-3.32973E-14
 -1      1742 5.30067E-03 2.23544E-04-3.35335E-14
 -1      1743 5.41101E-03 1.53710E-04-3.40875E-14
 -1      1744 5.64615E-03 4.74926E-05-3.50323E-14
 -1      1745 5.95780E-03-9.36720E-05-3.62026E-14
 -1      1746 6.30695E-03-2.57047E-04-3.75661E-14
 -1      1747 6.66665E-03-4.22944E-04-3.91440E-14
 -1      1748 7.02150E-03-5.56553E-04-4.08928E-14
 -1      1749 7.36141E-03-6.22598E-04-4.27706E-14
 -1      1750 7.70299E-03-5.96034E-04-4.47307E-14
 -1      1751 8.05897E-03-4.76896E-04-4.65739E-14
 -1      1752 8.44044E-03-3.01139E-04-4.81786E-14
 -1      1753 8.82656E-03-9.62195E-05-4.96716E-14
 -1      1754 9.21105E-03 9.11110E-05-5.07936E-14
 -1      1755 9.53648E-03 2.28443E-04-5.14212E-14
 -1      1756 9.75290E-03 3.24751E-04-5.17068E-14
 -1      1757 2.84600E-04-1.75203E-04-9.41087E-17
 -1      1758 3.32450E-04-1.15136E-04-2.29878E-16
 -1      1759 3.36494E-04-1.31395E-04-2.21381E-16
 -1      1760 3.42234E-04-1.50411E-04-2.09603E-16
 -1      1761 3.51582E-04-1.72441E-04-1.91457E-16
 -1      1762 4.58489E-04-1.85721E-04-3.22076E-16
 -1      1763 3.24877E-04-6.39754E-05-2.42211E-16
 -1      1764 3.26029E-04-7.51650E-05-2.41506E-16
 -1      1765 3.23325E-04-4.28095E-05-2.40842E-16
 -1      1766 3.24009E-04-5.31192E-05-2.41940E-16
 -1      1767 4.36845E-04-7.74338E-05-3.56337E-16
 -1      1768 3.22484E-04-2.31352E-05-2.36546E-16
 -1      1769 3.22841E-04-3.28144E-05-2.39121E-16
 -1      1770 4.34735E-04-4.99722E-05-3.53111E-16
 -1      1771 3.22164E-04-4.21607E-06-2.30122E-16
 -1      1772 3.22269E-04-1.36047E-05-2.33673E-16
 -1      1773 4.33629E-04-2.42225E-05-3.46213E-16
 -1      1774 3.22303E-04 1.45720E-05-2.21082E-16
 -1      1775 3.22175E-04 5.17297E-06-2.26056E-16
 -1      1776 4.33305E-04 7.41126E-07-3.35967E-16
 -1      1777 3.22923E-04 3.38367E-05-2.09834E-16
 -1      1778 3.22541E-04 2.41240E-05-2.15932E-16
 -1      1779 4.33704E-04 2.57339E-05-3.22591E-16
 -1      1780 3.24119E-04 5.38938E-05-1.95671E-16
 -1      1781 3.23423E-04 4.37071E-05-2.03383E-16
 -1      1782 4.34879E-04 5.13526E-05-3.05623E-16
 -1      1783 3.26221E-04 7.62911E-05-1.76942E-16
 -1      1784 3.25007E-04 6.48193E-05-1.87255E-16
 -1      1785 4.37049E-04 7.87310E-05-2.84251E-16
 -1      1786 3.29880E-04 1.02019E-04-1.51992E-16
 -1      1787 3.27760E-04 8.87062E-05-1.65788E-16
 -1      1788 4.40770E-04 1.09370E-04-2.56332E-16
 -1      1789 3.36750E-04 1.33485E-04-1.17189E-16
 -1      1790 3.32672E-04 1.16970E-04-1.36460E-16
 -1      1791 4.47193E-04 1.44987E-04-2.19022E-16
 -1      1792 3.52103E-04 1.76031E-04-6.87791E-17
 -1      1793 3.42827E-04 1.53160E-04-9.55318E-17
 -1      1794 4.59470E-04 1.89091E-04-1.68133E-16
 -1      1795 4.07020E-04 2.31929E-04-3.14690E-17
 -1      1796 3.77702E-04 2.00998E-04-5.47116E-17
 -1      1797 4.95570E-04 2.41539E-04-1.21119E-16
 -1      1798 5.57681E-04 2.99809E-04-8.02174E-17
 -1      1799 3.39562E-04-1.89504E-04-1.49037E-16
 -1      1800 8.52508E-04 4.02206E-04-2.75740E-16
 -1      1801 7.06168E-04 3.55631E-04-1.61736E-16
 -1      1802 6.72782E-04 3.25201E-04-1.87960E-16
 -1      1803 4.58552E-04-2.34555E-04-2.51738E-16
 -1      1804 8.06591E-04-3.69494E-04-6.45385E-16
 -1      1805 9.51903E-04-4.09433E-04-8.88395E-16
 -1      1806 1.09487E-03-4.42748E-04-1.17266E-15
 -1      1807 1.23677E-03-4.70143E-04-1.49877E-15
 -1      1808 1.00391E-03-3.91376E-04-1.06469E-15
 -1      1809 1.37751E-03-4.92975E-04-1.86557E-15
 -1      1810 1.51767E-03-5.11536E-04-2.27298E-15
 -1      1811 1.29009E-03-4.46310E-04-1.71956E-15
 -1      1812 1.65744E-03-5.26729E-04-2.72009E-15
 -1      1813 1.79707E-03-5.38794E-04-3.20642E-15
 -1      1814 1.57340E-03-4.83587E-04-2.53477E-15
 -1      1815 1.93676E-03-5.48322E-04-3.73154E-15
 -1      1816 2.07663E-03-5.55525E-04-4.29569E-15
 -1      1817 1.85547E-03-5.07746E-04-3.50613E-15
 -1      1818 2.21684E-03-5.60813E-04-4.89795E-15
 -1      1819 2.35745E-03-5.64373E-04-5.53785E-15
 -1      1820 2.13756E-03-5.22074E-04-4.63094E-15
 -1      1821 2.49859E-03-5.66506E-04-6.21522E-15
 -1      1822 2.64029E-03-5.67383E-04-6.92984E-15
 -1      1823 2.42056E-03-5.29033E-04-5.90623E-15
 -1      1824 2.78265E-03-5.67243E-04-7.68049E-15
 -1      1825 2.92573E-03-5.66246E-04-8.46595E-15
 -1      1826 2.70516E-03-5.30562E-04-7.32815E-15
 -1      1827 3.06957E-03-5.64604E-04-9.28728E-15
 -1      1828 3.21424E-03-5.62479E-04-1.01429E-14
 -1      1829 2.99187E-03-5.28284E-04-8.89326E-15
 -1      1830 3.35978E-03-5.60082E-04-1.10329E-14
 -1      1831 3.50625E-03-5.57586E-04-1.19566E-14
 -1      1832 3.28115E-03-5.23690E-04-1.05961E-14
 -1      1833 3.65368E-03-5.55230E-04-1.29133E-14
 -1      1834 3.80213E-03-5.53210E-04-1.39038E-14
 -1      1835 3.57341E-03-5.18289E-04-1.24352E-14
 -1      1836 3.95161E-03-5.51810E-04-1.49261E-14
 -1      1837 4.10216E-03-5.51258E-04-1.59810E-14
 -1      1838 3.86904E-03-5.13760E-04-1.44059E-14
 -1      1839 4.25381E-03-5.51899E-04-1.70686E-14
 -1      1840 4.40650E-03-5.53992E-04-1.81888E-14
 -1      1841 4.16837E-03-5.12078E-04-1.65068E-14
 -1      1842 4.56030E-03-5.57937E-04-1.93411E-14
 -1      1843 4.71504E-03-5.64014E-04-2.05253E-14
 -1      1844 4.47167E-03-5.15588E-04-1.87374E-14
 -1      1845 4.87082E-03-5.72640E-04-2.17425E-14
 -1      1846 5.02732E-03-5.84078E-04-2.29916E-14
 -1      1847 4.77907E-03-5.26980E-04-2.10958E-14
 -1      1848 5.18466E-03-5.98678E-04-2.42727E-14
 -1      1849 5.34232E-03-6.16608E-04-2.55856E-14
 -1      1850 5.09041E-03-5.49063E-04-2.35826E-14
 -1      1851 5.50047E-03-6.38001E-04-2.69310E-14
 -1      1852 5.65836E-03-6.62802E-04-2.83090E-14
 -1      1853 5.40508E-03-5.84229E-04-2.61965E-14
 -1      1854 5.81619E-03-6.90733E-04-2.97196E-14
 -1      1855 5.97307E-03-7.21340E-04-3.11637E-14
 -1      1856 5.72178E-03-6.33477E-04-2.89393E-14
 -1      1857 6.12914E-03-7.53749E-04-3.26420E-14
 -1      1858 6.28358E-03-7.86954E-04-3.41543E-14
 -1      1859 6.03835E-03-6.94989E-04-3.18140E-14
 -1      1860 6.43641E-03-8.19429E-04-3.57017E-14
 -1      1861 6.58723E-03-8.49625E-04-3.72829E-14
 -1      1862 6.35183E-03-7.62586E-04-3.48266E-14
 -1      1863 6.73589E-03-8.75579E-04-3.88969E-14
 -1      1864 6.88274E-03-8.95515E-04-4.05449E-14
 -1      1865 6.65928E-03-8.24937E-04-3.79735E-14
 -1      1866 7.02749E-03-9.07583E-04-4.22256E-14
 -1      1867 7.17133E-03-9.10391E-04-4.39394E-14
 -1      1868 6.95919E-03-8.66894E-04-4.12560E-14
 -1      1869 7.31389E-03-9.02903E-04-4.56857E-14
 -1      1870 7.45691E-03-8.84733E-04-4.74635E-14
 -1      1871 7.25299E-03-8.73746E-04-4.46689E-14
 -1      1872 7.60000E-03-8.56111E-04-4.92716E-14
 -1      1873 7.74475E-03-8.17834E-04-5.11086E-14
 -1      1874 7.54506E-03-8.37115E-04-4.82117E-14
 -1      1875 7.89082E-03-7.71299E-04-5.29754E-14
 -1      1876 8.03912E-03-7.18106E-04-5.48692E-14
 -1      1877 7.84073E-03-7.58909E-04-5.18758E-14
 -1      1878 8.18941E-03-6.60221E-04-5.67899E-14
 -1      1879 8.34174E-03-5.99404E-04-5.87368E-14
 -1      1880 8.14348E-03-6.50370E-04-5.56529E-14
 -1      1881 8.49602E-03-5.37502E-04-6.07087E-14
 -1      1882 8.65166E-03-4.75884E-04-6.27043E-14
 -1      1883 8.45358E-03-5.26997E-04-5.95377E-14
 -1      1884 8.80875E-03-4.15849E-04-6.47240E-14
 -1      1885 8.96641E-03-3.58196E-04-6.67658E-14
 -1      1886 8.76884E-03-4.02893E-04-6.35202E-14
 -1      1887 9.12482E-03-3.03569E-04-6.88273E-14
 -1      1888 9.28312E-03-2.52260E-04-7.09104E-14
 -1      1889 9.08622E-03-2.87541E-04-6.75935E-14
 -1      1890 9.44152E-03-2.04378E-04-7.30112E-14
 -1      1891 9.59936E-03-1.59887E-04-7.51291E-14
 -1      1892 9.40303E-03-1.85411E-04-7.17484E-14
 -1      1893 9.75680E-03-1.18559E-04-7.72613E-14
 -1      1894 9.91340E-03-8.01921E-05-7.94102E-14
 -1      1895 9.71748E-03-9.71510E-05-7.59748E-14
 -1      1896 1.00693E-02-4.44075E-05-8.15745E-14
 -1      1897 1.02242E-02-1.09457E-05-8.37520E-14
 -1      1898 1.00286E-02-2.11737E-05-8.02640E-14
 -1      1899 1.03783E-02 2.05946E-05-8.59445E-14
 -1      1900 1.05314E-02 5.04662E-05-8.81480E-14
 -1      1901 1.03361E-02 4.50594E-05-8.46127E-14
 -1      1902 1.06836E-02 7.90244E-05-9.03647E-14
 -1      1903 1.08349E-02 1.06486E-04-9.25939E-14
 -1      1904 1.06399E-02 1.04215E-04-8.90166E-14
 -1      1905 1.09853E-02 1.33133E-04-9.48329E-14
 -1      1906 1.11349E-02 1.59137E-04-9.70844E-14
 -1      1907 1.09403E-02 1.58658E-04-9.34675E-14
 -1      1908 1.12838E-02 1.84704E-04-9.93461E-14
 -1      1909 1.14319E-02 2.09962E-04-1.01619E-13
 -1      1910 1.12378E-02 2.10281E-04-9.79660E-14
 -1      1911 1.15794E-02 2.35049E-04-1.03906E-13
 -1      1912 1.17262E-02 2.60059E-04-1.06205E-13
 -1      1913 1.15326E-02 2.60492E-04-1.02511E-13
 -1      1914 1.18725E-02 2.85074E-04-1.08515E-13
 -1      1915 1.20184E-02 3.10159E-04-1.10835E-13
 -1      1916 1.18253E-02 3.10274E-04-1.07101E-13
 -1      1917 1.21638E-02 3.35358E-04-1.13169E-13
 -1      1918 1.23088E-02 3.60712E-04-1.15511E-13
 -1      1919 1.21163E-02 3.60261E-04-1.11738E-13
 -1      1920 1.24534E-02 3.86238E-04-1.17860E-13
 -1      1921 1.25978E-02 4.11961E-04-1.20218E-13
 -1      1922 1.24058E-02 4.10830E-04-1.16415E-13
 -1      1923 1.27419E-02 4.37880E-04-1.22581E-13
 -1      1924 1.28858E-02 4.64008E-04-1.24951E-13
 -1      1925 1.26942E-02 4.62172E-04-1.21121E-13
 -1      1926 1.30295E-02 4.90332E-04-1.27324E-13
 -1      1927 1.31730E-02 5.16859E-04-1.29703E-13
 -1      1928 1.29818E-02 5.14350E-04-1.25850E-13
 -1      1929 1.33164E-02 5.43570E-04-1.32087E-13
 -1      1930 1.34597E-02 5.70465E-04-1.34473E-13
 -1      1931 1.32688E-02 5.67348E-04-1.30603E-13
 -1      1932 1.36028E-02 5.97524E-04-1.36866E-13
 -1      1933 1.37459E-02 6.24742E-04-1.39263E-13
 -1      1934 1.35553E-02 6.21099E-04-1.35373E-13
 -1      1935 1.38889E-02 6.52097E-04-1.41664E-13
 -1      1936 1.40319E-02 6.79581E-04-1.44070E-13
 -1      1937 1.38415E-02 6.75507E-04-1.40162E-13
 -1      1938 1.41589E-02 7.02622E-04-1.46242E-13
 -1      1939 1.43018E-02 7.30297E-04-1.48656E-13
 -1      1940 1.43654E-02 7.72140E-04-1.49084E-13
 -1      1941 1.41115E-02 7.25915E-04-1.44733E-13
 -1      1942 1.13769E-03 4.72456E-04-6.03087E-16
 -1      1943 9.95810E-04 4.40629E-04-4.22324E-16
 -1      1944 9.63890E-04 4.11327E-04-4.54416E-16
 -1      1945 1.41736E-03 5.20619E-04-1.06874E-15
 -1      1946 1.27787E-03 4.98910E-04-8.18247E-16
 -1      1947 1.24874E-03 4.70935E-04-8.54717E-16
 -1      1948 1.69488E-03 5.52869E-04-1.67454E-15
 -1      1949 1.55620E-03 5.38492E-04-1.35406E-15
 -1      1950 1.52985E-03 5.11486E-04-1.39390E-15
 -1      1951 1.97240E-03 5.73267E-04-2.42117E-15
 -1      1952 1.83353E-03 5.64381E-04-2.03024E-15
 -1      1953 1.80955E-03 5.38009E-04-2.07301E-15
 -1      1954 2.25128E-03 5.84666E-04-3.30813E-15
 -1      1955 2.11160E-03 5.79963E-04-2.84707E-15
 -1      1956 2.08949E-03 5.53977E-04-2.89248E-15
 -1      1957 2.53248E-03 5.89187E-04-4.33575E-15
 -1      1958 2.39154E-03 5.87684E-04-3.80417E-15
 -1      1959 2.37078E-03 5.61901E-04-3.85148E-15
 -1      1960 2.81676E-03 5.88483E-04-5.50199E-15
 -1      1961 2.67419E-03 5.89401E-04-4.90150E-15
 -1      1962 2.65426E-03 5.63676E-04-4.94988E-15
 -1      1963 3.10484E-03 5.83935E-04-6.80764E-15
 -1      1964 2.96027E-03 5.86606E-04-6.13752E-15
 -1      1965 2.94063E-03 5.60815E-04-6.18677E-15
 -1      1966 3.39749E-03 5.76834E-04-8.24679E-15
 -1      1967 3.25053E-03 5.80613E-04-7.51055E-15
 -1      1968 3.23057E-03 5.54629E-04-7.55988E-15
 -1      1969 3.69559E-03 5.68580E-04-9.82119E-15
 -1      1970 3.54578E-03 5.72741E-04-9.01766E-15
 -1      1971 3.52481E-03 5.46419E-04-9.06737E-15
 -1      1972 4.00016E-03 5.60931E-04-1.15242E-14
 -1      1973 3.84697E-03 5.64536E-04-1.06558E-14
 -1      1974 3.82417E-03 5.37691E-04-1.07053E-14
 -1      1975 4.31235E-03 5.56316E-04-1.33588E-14
 -1      1976 4.15519E-03 5.58046E-04-1.24252E-14
 -1      1977 4.12956E-03 5.30430E-04-1.24737E-14
 -1      1978 4.63335E-03 5.58251E-04-1.53260E-14
 -1      1979 4.47163E-03 5.56192E-04-1.43263E-14
 -1      1980 4.44203E-03 5.27453E-04-1.43743E-14
 -1      1981 4.96427E-03 5.71809E-04-1.74209E-14
 -1      1982 4.79747E-03 5.63209E-04-1.63574E-14
 -1      1983 4.76266E-03 5.32859E-04-1.64039E-14
 -1      1984 5.30577E-03 6.04036E-04-1.96414E-14
 -1      1985 5.13366E-03 5.85125E-04-1.85158E-14
 -1      1986 5.09251E-03 5.52499E-04-1.85605E-14
 -1      1987 5.65771E-03 6.63899E-04-2.19821E-14
 -1      1988 5.48056E-03 6.30004E-04-2.07964E-14
 -1      1989 5.43245E-03 5.94291E-04-2.08392E-14
 -1      1990 6.01842E-03 7.60950E-04-2.44456E-14
 -1      1991 5.83735E-03 7.07395E-04-2.31988E-14
 -1      1992 5.78282E-03 6.67842E-04-2.32387E-14
 -1      1993 6.38390E-03 9.01368E-04-2.70336E-14
 -1      1994 6.20130E-03 8.25865E-04-2.57239E-14
 -1      1995 6.14272E-03 7.82341E-04-2.57626E-14
 -1      1996 6.74702E-03 1.08038E-03-2.97471E-14
 -1      1997 6.56674E-03 9.87226E-04-2.83737E-14
 -1      1998 6.50860E-03 9.41216E-04-2.84093E-14
 -1      1999 7.09863E-03 1.27331E-03-3.25883E-14
 -1      2000 6.92508E-03 1.17770E-03-3.11519E-14
 -1      2001 6.87294E-03 1.13301E-03-3.11826E-14
 -1      2002 7.43225E-03 1.43344E-03-3.55684E-14
 -1      2003 7.26750E-03 1.36060E-03-3.40622E-14
 -1      2004 7.22563E-03 1.32229E-03-3.40901E-14
 -1      2005 7.75173E-03 1.51067E-03-3.86911E-14
 -1      2006 7.59227E-03 1.48420E-03-3.71105E-14
 -1      2007 7.56144E-03 1.45467E-03-3.71358E-14
 -1      2008 8.07182E-03 1.48351E-03-4.19549E-14
 -1      2009 7.90989E-03 1.50907E-03-4.03038E-14
 -1      2010 7.88860E-03 1.48555E-03-4.03267E-14
 -1      2011 8.40676E-03 1.37569E-03-4.53622E-14
 -1      2012 8.23661E-03 1.43651E-03-4.36413E-14
 -1      2013 8.22369E-03 1.41361E-03-4.36621E-14
 -1      2014 8.75955E-03 1.23855E-03-4.89045E-14
 -1      2015 8.58128E-03 1.30780E-03-4.71174E-14
 -1      2016 8.57566E-03 1.28198E-03-4.71371E-14
 -1      2017 9.12339E-03 1.11757E-03-5.25768E-14
 -1      2018 8.94096E-03 1.17449E-03-5.07249E-14
 -1      2019 8.93994E-03 1.14549E-03-5.07427E-14
 -1      2020 9.48917E-03 1.03599E-03-5.63652E-14
 -1      2021 9.30684E-03 1.07161E-03-5.44570E-14
 -1      2022 9.30636E-03 1.04060E-03-5.44743E-14
 -1      2023 9.85011E-03 9.97528E-04-6.02586E-14
 -1      2024 9.67079E-03 1.01179E-03-5.82993E-14
 -1      2025 9.66721E-03 9.79841E-04-5.83142E-14
 -1      2026 1.02024E-02 9.95620E-04-6.42380E-14
 -1      2027 1.00276E-02 9.92618E-04-6.22378E-14
 -1      2028 1.00188E-02 9.60311E-04-6.22497E-14
 -1      2029 1.05445E-02 1.02068E-03-6.83047E-14
 -1      2030 1.03748E-02 1.00533E-03-6.62624E-14
 -1      2031 1.03603E-02 9.72986E-04-6.62734E-14
 -1      2032 1.08764E-02 1.06392E-03-7.24493E-14
 -1      2033 1.07117E-02 1.04044E-03-7.03663E-14
 -1      2034 1.06919E-02 1.00825E-03-7.03769E-14
 -1      2035 1.11991E-02 1.11852E-03-7.66749E-14
 -1      2036 1.10388E-02 1.09008E-03-7.45522E-14
 -1      2037 1.10147E-02 1.05816E-03-7.45633E-14
 -1      2038 1.15136E-02 1.17970E-03-8.09840E-14
 -1      2039 1.13572E-02 1.14847E-03-7.88204E-14
 -1      2040 1.13298E-02 1.11687E-03-7.88278E-14
 -1      2041 1.18214E-02 1.24427E-03-8.53652E-14
 -1      2042 1.16682E-02 1.21167E-03-8.31638E-14
 -1      2043 1.16384E-02 1.18043E-03-8.31686E-14
 -1      2044 1.21236E-02 1.31020E-03-8.98170E-14
 -1      2045 1.19731E-02 1.27713E-03-8.75842E-14
 -1      2046 1.19416E-02 1.24623E-03-8.75818E-14
 -1      2047 1.24216E-02 1.37628E-03-9.43256E-14
 -1      2048 1.22731E-02 1.34326E-03-9.20647E-14
 -1      2049 1.22404E-02 1.31267E-03-9.20578E-14
 -1      2050 1.27161E-02 1.44181E-03-9.88821E-14
 -1      2051 1.25692E-02 1.40913E-03-9.65988E-14
 -1      2052 1.25359E-02 1.37883E-03-9.65873E-14
 -1      2053 1.30081E-02 1.50643E-03-1.03468E-13
 -1      2054 1.28624E-02 1.47424E-03-1.01172E-13
 -1      2055 1.28287E-02 1.44417E-03-1.01157E-13
 -1      2056 1.32982E-02 1.57000E-03-1.08074E-13
 -1      2057 1.31533E-02 1.53835E-03-1.05769E-13
 -1      2058 1.31194E-02 1.50848E-03-1.05751E-13
 -1      2059 1.35868E-02 1.63250E-03-1.12700E-13
 -1      2060 1.34426E-02 1.60138E-03-1.10386E-13
 -1      2061 1.34086E-02 1.57167E-03-1.10364E-13
 -1      2062 1.38744E-02 1.69399E-03-1.17336E-13
 -1      2063 1.37307E-02 1.66336E-03-1.15016E-13
 -1      2064 1.36966E-02 1.63378E-03-1.14996E-13
 -1      2065 1.41612E-02 1.75458E-03-1.21978E-13
 -1      2066 1.40179E-02 1.72439E-03-1.19658E-13
 -1      2067 1.39838E-02 1.69491E-03-1.19636E-13
 -1      2068 1.44476E-02 1.81438E-03-1.26623E-13
 -1      2069 1.43044E-02 1.78457E-03-1.24300E-13
 -1      2070 1.42705E-02 1.75518E-03-1.24279E-13
 -1      2071 1.47336E-02 1.87354E-03-1.31276E-13
 -1      2072 1.45906E-02 1.84404E-03-1.28948E-13
 -1      2073 1.45567E-02 1.81470E-03-1.28928E-13
 -1      2074 1.50195E-02 1.93219E-03-1.35935E-13
 -1      2075 1.48766E-02 1.90292E-03-1.33605E-13
 -1      2076 1.48427E-02 1.87363E-03-1.33586E-13
 -1      2077 1.52524E-02 1.97717E-03-1.39801E-13
 -1      2078 1.51095E-02 1.94802E-03-1.37465E-13
 -1      2079 1.50757E-02 1.91875E-03-1.37447E-13
 -1      2080 1.52558E-02 1.95033E-03-1.40510E-13
 -1      2081 1.50659E-02 1.70960E-03-1.42209E-13
 -1      2082 1.50941E-02 1.75157E-03-1.41814E-13
 -1      2083 1.51224E-02 1.79359E-03-1.41416E-13
 -1      2084 1.51508E-02 1.83564E-03-1.41021E-13
 -1      2085 1.49845E-02 1.74741E-03-1.39589E-13
 -1      2086 1.51890E-02 1.87191E-03-1.40968E-13
 -1      2087 1.52175E-02 1.91402E-03-1.40566E-13
 -1      2088 1.51275E-02 1.89824E-03-1.39034E-13
 -1      2089 1.50510E-02 1.82567E-03-1.39142E-13
 -1      2090 1.50106E-02 1.62721E-03-1.42979E-13
 -1      2091 1.50382E-02 1.66838E-03-1.42594E-13
 -1      2092 1.49286E-02 1.66425E-03-1.40368E-13
 -1      2093 1.49546E-02 1.54357E-03-1.43763E-13
 -1      2094 1.49826E-02 1.58537E-03-1.43370E-13
 -1      2095 1.48730E-02 1.58129E-03-1.41140E-13
 -1      2096 1.48987E-02 1.46007E-03-1.44546E-13
 -1      2097 1.49267E-02 1.50180E-03-1.44154E-13
 -1      2098 1.48170E-02 1.49781E-03-1.41917E-13
 -1      2099 1.48428E-02 1.37666E-03-1.45328E-13
 -1      2100 1.48708E-02 1.41836E-03-1.44938E-13
 -1      2101 1.47612E-02 1.41446E-03-1.42694E-13
 -1      2102 1.47869E-02 1.29327E-03-1.46106E-13
 -1      2103 1.48149E-02 1.33496E-03-1.45718E-13
 -1      2104 1.47053E-02 1.33119E-03-1.43469E-13
 -1      2105 1.47310E-02 1.20982E-03-1.46877E-13
 -1      2106 1.47590E-02 1.25155E-03-1.46493E-13
 -1      2107 1.46494E-02 1.24792E-03-1.44240E-13
 -1      2108 1.46761E-02 1.12768E-03-1.47634E-13
 -1      2109 1.47035E-02 1.16877E-03-1.47255E-13
 -1      2110 1.45939E-02 1.16528E-03-1.44999E-13
 -1      2111 1.46204E-02 1.04396E-03-1.48387E-13
 -1      2112 1.46482E-02 1.08584E-03-1.48012E-13
 -1      2113 1.45385E-02 1.08250E-03-1.45748E-13
 -1      2114 1.45649E-02 9.60067E-04-1.49125E-13
 -1      2115 1.45926E-02 1.00203E-03-1.48758E-13
 -1      2116 1.44828E-02 9.98838E-04-1.46490E-13
 -1      2117 1.45097E-02 8.76008E-04-1.49844E-13
 -1      2118 1.45372E-02 9.18055E-04-1.49486E-13
 -1      2119 1.44273E-02 9.14974E-04-1.47215E-13
 -1      2120 9.55152E-03 5.42581E-04-5.06410E-14
 -1      2121 9.67365E-03 4.97933E-04-5.11756E-14
 -1      2122 9.85658E-03 4.09992E-04-5.23716E-14
 -1      2123 9.84386E-03 3.93317E-04-5.25412E-14
 -1      2124 9.77302E-03 4.57600E-04-5.17395E-14
 -1      2125 9.83067E-03 4.34800E-04-5.21090E-14
 -1      2126 9.20690E-03 6.99470E-04-4.89793E-14
 -1      2127 9.37603E-03 6.19631E-04-4.97758E-14
 -1      2128 8.82360E-03 8.99094E-04-4.71529E-14
 -1      2129 9.00864E-03 7.99669E-04-4.80334E-14
 -1      2130 3.27457E-04-8.73942E-05-2.39487E-16
 -1      2131 3.29548E-04-1.00498E-04-2.35584E-16
 -1      2132 4.46700E-04-1.42769E-04-3.44519E-16
 -1      2133 4.40398E-04-1.07761E-04-3.54290E-16
 -1      2134 8.05292E-03 1.28847E-03-4.29558E-14
 -1      2135 8.22262E-03 1.21426E-03-4.39912E-14
 -1      2136 7.69507E-03 1.35599E-03-4.06683E-14
 -1      2137 7.84507E-03 1.34311E-03-4.16285E-14
 -1      2138 7.39080E-03 1.29816E-03-3.88596E-14
 -1      2139 7.54190E-03 1.34044E-03-3.97578E-14
 -1      2140 7.62967E-03 1.36119E-03-4.00927E-14
 -1      2141 7.01666E-03 1.11915E-03-3.69018E-14
 -1      2142 7.18511E-03 1.21156E-03-3.76784E-14
 -1      2143 6.65300E-03 8.90758E-04-3.52913E-14
 -1      2144 6.83447E-03 1.01159E-03-3.60916E-14
 -1      2145 6.95663E-03 1.06322E-03-3.60344E-14
 -1      2146 6.17777E-03 6.33378E-04-3.41359E-14
 -1      2147 6.37737E-03 7.34665E-04-3.45297E-14
 -1      2148 5.81767E-03 4.52841E-04-3.32885E-14
 -1      2149 5.99191E-03 5.38972E-04-3.37090E-14
 -1      2150 6.09506E-03 5.53602E-04-3.33107E-14
 -1      2151 5.49703E-03 3.15120E-04-3.25629E-14
 -1      2152 5.63656E-03 3.66049E-04-3.27894E-14
 -1      2153 5.31157E-03 2.56091E-04-3.27438E-14
 -1      2154 5.37204E-03 2.76815E-04-3.26615E-14
 -1      2155 5.30588E-03 2.16760E-04-3.29399E-14
 -1      2156 5.28908E-03 2.32630E-04-3.27901E-14
 -1      2157 5.46423E-03 1.56362E-04-3.37093E-14
 -1      2158 5.37217E-03 1.86995E-04-3.33143E-14
 -1      2159 5.73890E-03 4.85427E-05-3.48186E-14
 -1      2160 5.59844E-03 1.04014E-04-3.42817E-14
 -1      2161 6.07071E-03-9.92759E-05-3.60801E-14
 -1      2162 5.90776E-03-2.45779E-05-3.54622E-14
 -1      2163 6.43286E-03-2.77740E-04-3.75722E-14
 -1      2164 6.26426E-03-1.90676E-04-3.68403E-14
 -1      2165 6.78718E-03-4.57189E-04-3.93187E-14
 -1      2166 6.62519E-03-3.74745E-04-3.84840E-14
 -1      2167 7.11515E-03-5.91285E-04-4.12081E-14
 -1      2168 6.96493E-03-5.34467E-04-4.03016E-14
 -1      2169 7.43389E-03-6.46840E-04-4.33202E-14
 -1      2170 7.29429E-03-6.34601E-04-4.23497E-14
 -1      2171 7.74674E-03-5.91670E-04-4.54384E-14
 -1      2172 7.60133E-03-6.31465E-04-4.44449E-14
 -1      2173 8.11113E-03-4.29858E-04-4.75167E-14
 -1      2174 7.94765E-03-5.12233E-04-4.66577E-14
 -1      2175 8.47750E-03-2.34401E-04-4.90757E-14
 -1      2176 8.30359E-03-3.33599E-04-4.83150E-14
 -1      2177 8.85709E-03-1.48002E-05-5.07178E-14
 -1      2178 8.66978E-03-1.21229E-04-4.99739E-14
 -1      2179 9.28161E-03 1.75922E-04-5.17609E-14
 -1      2180 9.09899E-03 9.93591E-05-5.13747E-14
 -1      2181 9.58549E-03 2.95339E-04-5.24060E-14
 -1      2182 9.45117E-03 2.46567E-04-5.21576E-14
 -1      2183 9.78928E-03 3.68777E-04-5.27241E-14
 -1      2184 9.70919E-03 3.43547E-04-5.26832E-14
 -1      2185 8.42379E-03 1.11813E-03-4.50691E-14
 -1      2186 8.60930E-03 1.01535E-03-4.60627E-14
 -1      2187 9.09332E-03 7.34261E-04-4.89631E-14
 -1      2188 6.07398E-04-2.94977E-04-3.98648E-16
 -1      2189 8.69785E-03 9.49786E-04-4.69137E-14
 -1      2190 8.31076E-03 1.16704E-03-4.47366E-14
 -1      2191 6.63483E-04-2.88740E-04-5.17259E-16
 -1      2192 9.72907E-03 4.66163E-04-5.22315E-14
 -1      2193 9.85294E-03 4.22785E-04-5.30689E-14
 -1      2194 1.44460E-02 8.34184E-04-1.49422E-13
 -1      2195 9.46083E-03 5.65160E-04-5.07884E-14
 -1      2196 9.82454E-03 3.93707E-04-5.35190E-14
 -1      2197 9.64852E-03 3.43761E-04-5.34229E-14
 -1      2198 9.35836E-03 2.39791E-04-5.27425E-14
 -1      2199 8.95985E-03 6.26394E-05-5.16779E-14
 -1      2200 8.54434E-03-1.62945E-04-5.01089E-14
 -1      2201 8.18156E-03-3.74693E-04-4.84008E-14
 -1      2202 7.83098E-03-5.57309E-04-4.63641E-14
 -1      2203 7.50723E-03-6.50653E-04-4.40128E-14
 -1      2204 7.20974E-03-6.22936E-04-4.17448E-14
 -1      2205 6.88847E-03-4.97848E-04-3.96267E-14
 -1      2206 6.54721E-03-3.20243E-04-3.77426E-14
 -1      2207 6.18300E-03-1.31308E-04-3.60858E-14
 -1      2208 5.83214E-03 2.88700E-05-3.46982E-14
 -1      2209 5.53134E-03 1.42729E-04-3.34971E-14
 -1      2210 5.32949E-03 2.05244E-04-3.25642E-14
 -1      2211 5.29131E-03 2.34873E-04-3.21518E-14
 -1      2212 5.73254E-03 3.82396E-04-3.23970E-14
 -1      2213 6.53793E-03 7.99161E-04-3.44786E-14
 -1      2214 6.66842E-03 8.66861E-04-3.44238E-14
 -1      2215 6.42395E-03 7.15207E-04-3.36787E-14
 -1      2216 7.30593E-03 1.26433E-03-3.80043E-14
 -1      2217 7.95011E-03 1.32694E-03-4.23225E-14
 -1      2218 5.42995E-03 2.79243E-04-3.20073E-14
 -1      2219 1.01661E-03 3.93075E-04-6.11937E-16
 -1      2220 8.72015E-04 3.58046E-04-4.36554E-16
 -1      2221 5.47900E-04-5.37549E-05-4.98448E-16
 -1      2222 5.49017E-04-7.00903E-05-5.01959E-16
 -1      2223 5.50526E-04-8.70750E-05-5.04140E-16
 -1      2224 5.52482E-04-1.04766E-04-5.04899E-16
 -1      2225 6.65442E-04-9.28576E-05-6.80147E-16
 -1      2226 5.46387E-04 8.60535E-06-4.72455E-16
 -1      2227 5.46362E-04-6.76298E-06-4.80708E-16
 -1      2228 5.47230E-04 3.97069E-05-4.52953E-16
 -1      2229 5.46674E-04 2.40786E-05-4.63388E-16
 -1      2230 6.61144E-04 1.93325E-05-6.34014E-16
 -1      2231 5.49220E-04 7.15428E-05-4.28856E-16
 -1      2232 5.48069E-04 5.54252E-05-4.41785E-16
 -1      2233 6.62623E-04 5.60842E-05-6.07465E-16
 -1      2234 5.52794E-04 1.06395E-04-3.97794E-16
 -1      2235 5.50783E-04 8.86045E-05-4.14314E-16
 -1      2236 6.65732E-04 9.45990E-05-5.74004E-16
 -1      2237 5.58784E-04 1.45327E-04-3.57773E-16
 -1      2238 5.55427E-04 1.25275E-04-3.79186E-16
 -1      2239 6.71080E-04 1.36634E-04-5.31435E-16
 -1      2240 5.69043E-04 1.90733E-04-3.04905E-16
 -1      2241 5.63270E-04 1.67086E-04-3.33392E-16
 -1      2242 6.79875E-04 1.83705E-04-4.76981E-16
 -1      2243 1.30259E-03 4.46845E-04-1.06381E-15
 -1      2244 1.15996E-03 4.22568E-04-8.20660E-16
 -1      2245 1.07229E-03 3.73890E-04-7.79772E-16
 -1      2246 9.15461E-04-3.40550E-04-9.56646E-16
 -1      2247 1.05971E-03-3.72473E-04-1.24576E-15
 -1      2248 8.59836E-03 1.00113E-03-4.68158E-14
 -1      2249 8.78481E-03 8.89622E-04-4.79180E-14
 -1      2250 1.20323E-03-3.99346E-04-1.57461E-15
 -1      2251 1.34635E-03-4.21558E-04-1.94349E-15
 -1      2252 1.11772E-03-3.52561E-04-1.43172E-15
 -1      2253 1.48891E-03-4.39935E-04-2.35131E-15
 -1      2254 1.63119E-03-4.54755E-04-2.79815E-15
 -1      2255 1.40461E-03-3.96080E-04-2.17059E-15
 -1      2256 1.77324E-03-4.66675E-04-3.28347E-15
 -1      2257 1.91518E-03-4.75913E-04-3.80663E-15
 -1      2258 1.69053E-03-4.25289E-04-3.06356E-15
 -1      2259 2.05712E-03-4.82951E-04-4.36710E-15
 -1      2260 2.19914E-03-4.87969E-04-4.96578E-15
 -1      2261 1.97591E-03-4.43536E-04-4.10772E-15
 -1      2262 2.34134E-03-4.91328E-04-5.60092E-15
 -1      2263 2.48377E-03-4.93186E-04-6.27295E-15
 -1      2264 2.26124E-03-4.53423E-04-5.30003E-15
 -1      2265 2.62651E-03-4.93821E-04-6.98087E-15
 -1      2266 2.76962E-03-4.93380E-04-7.72452E-15
 -1      2267 2.54701E-03-4.57013E-04-6.63827E-15
 -1      2268 2.91314E-03-4.92095E-04-8.50325E-15
 -1      2269 3.05714E-03-4.90108E-04-9.31671E-15
 -1      2270 2.83365E-03-4.55998E-04-8.11845E-15
 -1      2271 3.20165E-03-4.87634E-04-1.01644E-14
 -1      2272 3.34675E-03-4.84822E-04-1.10464E-14
 -1      2273 3.12154E-03-4.51853E-04-9.73791E-15
 -1      2274 3.49246E-03-4.81897E-04-1.19617E-14
 -1      2275 3.63886E-03-4.79028E-04-1.29100E-14
 -1      2276 3.41107E-03-4.45984E-04-1.14932E-14
 -1      2277 3.78599E-03-4.76469E-04-1.38911E-14
 -1      2278 3.93390E-03-4.74426E-04-1.49048E-14
 -1      2279 3.70266E-03-4.39877E-04-1.33817E-14
 -1      2280 4.08266E-03-4.73197E-04-1.59500E-14
 -1      2281 4.23231E-03-4.73035E-04-1.70284E-14
 -1      2282 3.99683E-03-4.35235E-04-1.53995E-14
 -1      2283 4.38295E-03-4.74286E-04-1.81391E-14
 -1      2284 4.53455E-03-4.77261E-04-1.92813E-14
 -1      2285 4.29416E-03-4.34096E-04-1.75462E-14
 -1      2286 4.68729E-03-4.82334E-04-2.04551E-14
 -1      2287 4.84105E-03-4.89864E-04-2.16607E-14
 -1      2288 4.59538E-03-4.38909E-04-1.98208E-14
 -1      2289 4.99606E-03-5.00204E-04-2.28987E-14
 -1      2290 5.15206E-03-5.13717E-04-2.41674E-14
 -1      2291 4.90131E-03-4.52498E-04-2.22210E-14
 -1      2292 5.30934E-03-5.30642E-04-2.54683E-14
 -1      2293 5.46742E-03-5.51241E-04-2.68013E-14
 -1      2294 5.21267E-03-4.77843E-04-2.47476E-14
 -1      2295 5.62661E-03-5.75493E-04-2.81667E-14
 -1      2296 5.78616E-03-6.03355E-04-2.95645E-14
 -1      2297 5.52974E-03-5.17506E-04-2.74012E-14
 -1      2298 5.94631E-03-6.34365E-04-3.09957E-14
 -1      2299 6.10611E-03-6.67889E-04-3.24606E-14
 -1      2300 5.85177E-03-5.72492E-04-3.01845E-14
 -1      2301 6.26560E-03-7.02871E-04-3.39593E-14
 -1      2302 6.42388E-03-7.37808E-04-3.54921E-14
 -1      2303 6.17630E-03-6.40412E-04-3.31011E-14
 -1      2304 6.58073E-03-7.71032E-04-3.70596E-14
 -1      2305 6.73578E-03-8.00249E-04-3.86598E-14
 -1      2306 6.49906E-03-7.13233E-04-3.61523E-14
 -1      2307 6.88862E-03-8.23475E-04-4.02946E-14
 -1      2308 7.03990E-03-8.38282E-04-4.19617E-14
 -1      2309 6.81537E-03-7.76062E-04-3.93402E-14
 -1      2310 7.18917E-03-8.43084E-04-4.36610E-14
 -1      2311 7.33812E-03-8.36390E-04-4.53941E-14
 -1      2312 7.12315E-03-8.09582E-04-4.26612E-14
 -1      2313 7.48632E-03-8.17750E-04-4.71608E-14
 -1      2314 7.63583E-03-7.87518E-04-4.89566E-14
 -1      2315 7.42536E-03-7.97358E-04-4.61150E-14
 -1      2316 7.78620E-03-7.46608E-04-5.07834E-14
 -1      2317 7.93881E-03-6.96962E-04-5.26386E-14
 -1      2318 7.72889E-03-7.34557E-04-4.96966E-14
 -1      2319 8.09322E-03-6.40392E-04-5.45216E-14
 -1      2320 8.24964E-03-5.79410E-04-5.64333E-14
 -1      2321 8.03973E-03-6.30897E-04-5.33961E-14
 -1      2322 8.40773E-03-5.15952E-04-5.83708E-14
 -1      2323 8.56688E-03-4.52046E-04-6.03341E-14
 -1      2324 8.35892E-03-5.04904E-04-5.72095E-14
 -1      2325 8.72696E-03-3.89157E-04-6.23221E-14
 -1      2326 8.88701E-03-3.28465E-04-6.43325E-14
 -1      2327 8.68303E-03-3.74894E-04-6.11281E-14
 -1      2328 9.04715E-03-2.70796E-04-6.63650E-14
 -1      2329 9.20650E-03-2.16540E-04-6.84167E-14
 -1      2330 9.00730E-03-2.53299E-04-6.51407E-14
 -1      2331 9.36534E-03-1.65979E-04-7.04900E-14
 -1      2332 9.52301E-03-1.19021E-04-7.25834E-14
 -1      2333 9.32807E-03-1.45903E-04-6.92378E-14
 -1      2334 9.67985E-03-7.55757E-05-7.46919E-14
 -1      2335 9.83545E-03-3.53374E-05-7.68168E-14
 -1      2336 9.64355E-03-5.36314E-05-7.34130E-14
 -1      2337 9.99010E-03 1.98150E-06-7.89587E-14
 -1      2338 1.01436E-02 3.67385E-05-8.11154E-14
 -1      2339 9.95348E-03 2.52173E-05-7.76560E-14
 -1      2340 1.02962E-02 6.92897E-05-8.32863E-14
 -1      2341 1.04477E-02 9.99625E-05-8.54709E-14
 -1      2342 1.02584E-02 9.33812E-05-8.19626E-14
 -1      2343 1.05984E-02 1.29101E-04-8.76689E-14
 -1      2344 1.07483E-02 1.56973E-04-8.98801E-14
 -1      2345 1.05591E-02 1.53718E-04-8.63254E-14
 -1      2346 1.08974E-02 1.83870E-04-9.21042E-14
 -1      2347 1.10458E-02 2.09996E-04-9.43398E-14
 -1      2348 1.08564E-02 2.08761E-04-9.07425E-14
 -1      2349 1.11935E-02 2.35575E-04-9.65864E-14
 -1      2350 1.13407E-02 2.60758E-04-9.88466E-14
 -1      2351 1.11510E-02 2.60551E-04-9.52098E-14
 -1      2352 1.14873E-02 2.85702E-04-1.01116E-13
 -1      2353 1.16335E-02 3.10512E-04-1.03398E-13
 -1      2354 1.14435E-02 3.10626E-04-9.97224E-14
 -1      2355 1.17792E-02 3.35293E-04-1.05693E-13
 -1      2356 1.19246E-02 3.60112E-04-1.07997E-13
 -1      2357 1.17344E-02 3.60074E-04-1.04284E-13
 -1      2358 1.20696E-02 3.85032E-04-1.10312E-13
 -1      2359 1.22143E-02 4.10095E-04-1.12636E-13
 -1      2360 1.20239E-02 4.09616E-04-1.08889E-13
 -1      2361 1.23588E-02 4.35332E-04-1.14972E-13
 -1      2362 1.25030E-02 4.60766E-04-1.17313E-13
 -1      2363 1.23125E-02 4.59693E-04-1.13533E-13
 -1      2364 1.26470E-02 4.86406E-04-1.19662E-13
 -1      2365 1.27908E-02 5.12265E-04-1.22020E-13
 -1      2366 1.26003E-02 5.10541E-04-1.18209E-13
 -1      2367 1.29345E-02 5.38336E-04-1.24381E-13
 -1      2368 1.30780E-02 5.64622E-04-1.26748E-13
 -1      2369 1.28875E-02 5.62253E-04-1.22913E-13
 -1      2370 1.32214E-02 5.91110E-04-1.29122E-13
 -1      2371 1.33647E-02 6.17799E-04-1.31499E-13
 -1      2372 1.31743E-02 6.14829E-04-1.27642E-13
 -1      2373 1.35079E-02 6.44668E-04-1.33882E-13
 -1      2374 1.36510E-02 6.71714E-04-1.36269E-13
 -1      2375 1.34607E-02 6.68212E-04-1.32392E-13
 -1      2376 1.37941E-02 6.98916E-04-1.38661E-13
 -1      2377 1.39371E-02 7.26265E-04-1.41057E-13
 -1      2378 1.37468E-02 7.22310E-04-1.37161E-13
 -1      2379 1.86822E-03 5.06712E-04-2.38293E-15
 -1      2380 1.72714E-03 4.96447E-04-2.00077E-15
 -1      2381 2.15060E-03 5.20268E-04-3.25209E-15
 -1      2382 2.00934E-03 5.14590E-04-2.80021E-15
 -1      2383 1.92803E-03 4.74772E-04-2.70167E-15
 -1      2384 2.43400E-03 5.26267E-04-4.25997E-15
 -1      2385 2.29213E-03 5.24105E-04-3.73842E-15
 -1      2386 2.21223E-03 4.86026E-04-3.61985E-15
 -1      2387 2.71912E-03 5.26486E-04-5.40557E-15
 -1      2388 2.57630E-03 5.27009E-04-4.81559E-15
 -1      2389 2.49714E-03 4.90235E-04-4.67562E-15
 -1      2390 3.00657E-03 5.22368E-04-6.68943E-15
 -1      2391 2.86251E-03 5.24889E-04-6.03039E-15
 -1      2392 2.78330E-03 4.89061E-04-5.86892E-15
 -1      2393 3.29693E-03 5.15190E-04-8.10708E-15
 -1      2394 3.15133E-03 5.19082E-04-7.38183E-15
 -1      2395 3.07119E-03 4.83871E-04-7.19818E-15
 -1      2396 3.59079E-03 5.06261E-04-9.65849E-15
 -1      2397 3.44335E-03 5.10855E-04-8.86594E-15
 -1      2398 3.36126E-03 4.75918E-04-8.66104E-15
 -1      2399 3.88881E-03 4.97142E-04-1.13393E-14
 -1      2400 3.73920E-03 5.01613E-04-1.04828E-14
 -1      2401 3.65393E-03 4.66519E-04-1.02554E-14
 -1      2402 4.19175E-03 4.89926E-04-1.31504E-14
 -1      2403 4.03957E-03 4.93142E-04-1.22284E-14
 -1      2404 3.94971E-03 4.57287E-04-1.19796E-14
 -1      2405 4.50047E-03 4.87604E-04-1.50930E-14
 -1      2406 4.34528E-03 4.87934E-04-1.41055E-14
 -1      2407 4.24919E-03 4.50404E-04-1.38330E-14
 -1      2408 4.81607E-03 4.94502E-04-1.71624E-14
 -1      2409 4.65731E-03 4.89584E-04-1.61121E-14
 -1      2410 4.55318E-03 4.48976E-04-1.58164E-14
 -1      2411 5.13988E-03 5.16748E-04-1.93581E-14
 -1      2412 4.97686E-03 5.03256E-04-1.82449E-14
 -1      2413 4.86290E-03 4.57455E-04-1.79264E-14
 -1      2414 5.47364E-03 5.62553E-04-2.16736E-14
 -1      2415 5.30551E-03 5.36097E-04-2.05011E-14
 -1      2416 5.18029E-03 4.82091E-04-2.01602E-14
 -1      2417 5.81931E-03 6.41808E-04-2.41112E-14
 -1      2418 5.64514E-03 5.97278E-04-2.28770E-14
 -1      2419 5.50833E-03 5.31253E-04-2.25140E-14
 -1      2420 6.17816E-03 7.63916E-04-2.66711E-14
 -1      2421 5.99757E-03 6.96907E-04-2.53752E-14
 -1      2422 5.85103E-03 6.15223E-04-2.49878E-14
 -1      2423 6.54832E-03 9.32083E-04-2.93540E-14
 -1      2424 6.36282E-03 8.42417E-04-2.79967E-14
 -1      2425 6.21191E-03 7.44297E-04-2.75826E-14
 -1      2426 6.92138E-03 1.13262E-03-3.21644E-14
 -1      2427 6.73582E-03 1.03029E-03-3.07439E-14
 -1      2428 6.58984E-03 9.22595E-04-3.03018E-14
 -1      2429 7.28439E-03 1.32388E-03-3.51126E-14
 -1      2430 7.10508E-03 1.23370E-03-3.36211E-14
 -1      2431 6.97404E-03 1.13423E-03-3.31506E-14
 -1      2432 7.62897E-03 1.44241E-03-3.82028E-14
 -1      2433 7.45730E-03 1.39653E-03-3.66391E-14
 -1      2434 7.34635E-03 1.32783E-03-3.61385E-14
 -1      2435 7.96719E-03 1.44329E-03-4.14378E-14
 -1      2436 7.79578E-03 1.45802E-03-3.98017E-14
 -1      2437 7.69979E-03 1.42689E-03-3.92717E-14
 -1      2438 8.31909E-03 1.34029E-03-4.48170E-14
 -1      2439 8.14017E-03 1.40092E-03-4.31091E-14
 -1      2440 8.05300E-03 1.39047E-03-4.25537E-14
 -1      2441 8.68760E-03 1.19346E-03-4.83366E-14
 -1      2442 8.50210E-03 1.26786E-03-4.65604E-14
 -1      2443 8.42461E-03 1.25596E-03-4.59790E-14
 -1      2444 9.06108E-03 1.06002E-03-5.19842E-14
 -1      2445 8.87530E-03 1.12262E-03-5.01449E-14
 -1      2446 8.80863E-03 1.09947E-03-4.95426E-14
 -1      2447 9.42723E-03 9.68280E-04-5.57490E-14
 -1      2448 9.24614E-03 1.00847E-03-5.38523E-14
 -1      2449 9.18740E-03 9.75073E-04-5.32284E-14
 -1      2450 9.78087E-03 9.22405E-04-5.96198E-14
 -1      2451 9.60608E-03 9.40003E-04-5.76725E-14
 -1      2452 9.54955E-03 8.99640E-04-5.70291E-14
 -1      2453 1.01218E-02 9.15439E-04-6.35830E-14
 -1      2454 9.95299E-03 9.14743E-04-6.15907E-14
 -1      2455 9.89357E-03 8.69635E-04-6.09300E-14
 -1      2456 1.04518E-02 9.37230E-04-6.76342E-14
 -1      2457 1.02881E-02 9.23358E-04-6.55981E-14
 -1      2458 1.02229E-02 8.74875E-04-6.49211E-14
 -1      2459 1.07730E-02 9.78582E-04-7.17647E-14
 -1      2460 1.06134E-02 9.55943E-04-6.96893E-14
 -1      2461 1.05415E-02 9.05025E-04-6.89986E-14
 -1      2462 1.10869E-02 1.03233E-03-7.59719E-14
 -1      2463 1.09307E-02 1.00425E-03-7.38590E-14
 -1      2464 1.08525E-02 9.51682E-04-7.31533E-14
 -1      2465 1.13949E-02 1.09336E-03-8.02632E-14
 -1      2466 1.12415E-02 1.06217E-03-7.81082E-14
 -1      2467 1.11581E-02 1.00860E-03-7.73886E-14
 -1      2468 1.16980E-02 1.15822E-03-8.46203E-14
 -1      2469 1.15469E-02 1.12547E-03-8.24320E-14
 -1      2470 1.14594E-02 1.07140E-03-8.16957E-14
 -1      2471 1.19970E-02 1.22470E-03-8.90514E-14
 -1      2472 1.18479E-02 1.19136E-03-8.68285E-14
 -1      2473 1.17573E-02 1.13715E-03-8.60757E-14
 -1      2474 1.22929E-02 1.29144E-03-9.35359E-14
 -1      2475 1.21453E-02 1.25810E-03-9.12862E-14
 -1      2476 1.20525E-02 1.20400E-03-9.05176E-14
 -1      2477 1.25862E-02 1.35764E-03-9.80745E-14
 -1      2478 1.24398E-02 1.32464E-03-9.58001E-14
 -1      2479 1.23455E-02 1.27078E-03-9.50154E-14
 -1      2480 1.28775E-02 1.42290E-03-1.02649E-13
 -1      2481 1.27320E-02 1.39041E-03-1.00357E-13
 -1      2482 1.26367E-02 1.33686E-03-9.95598E-14
 -1      2483 1.31672E-02 1.48705E-03-1.07244E-13
 -1      2484 1.30225E-02 1.45512E-03-1.04943E-13
 -1      2485 1.29265E-02 1.40190E-03-1.04139E-13
 -1      2486 1.34557E-02 1.55005E-03-1.11867E-13
 -1      2487 1.33116E-02 1.51869E-03-1.09555E-13
 -1      2488 1.32152E-02 1.46579E-03-1.08742E-13
 -1      2489 1.37433E-02 1.61197E-03-1.16496E-13
 -1      2490 1.35996E-02 1.58114E-03-1.14179E-13
 -1      2491 1.35030E-02 1.52854E-03-1.13363E-13
 -1      2492 1.40303E-02 1.67291E-03-1.21137E-13
 -1      2493 1.38869E-02 1.64256E-03-1.18817E-13
 -1      2494 1.37902E-02 1.59022E-03-1.17997E-13
 -1      2495 1.43168E-02 1.73300E-03-1.25785E-13
 -1      2496 1.41736E-02 1.70306E-03-1.23461E-13
 -1      2497 1.40769E-02 1.65094E-03-1.22639E-13
 -1      2498 1.46030E-02 1.79238E-03-1.30439E-13
 -1      2499 1.44599E-02 1.76278E-03-1.28111E-13
 -1      2500 1.43633E-02 1.71085E-03-1.27291E-13
 -1      2501 1.48890E-02 1.85119E-03-1.35100E-13
 -1      2502 1.47460E-02 1.82185E-03-1.32768E-13
 -1      2503 1.46494E-02 1.77007E-03-1.31947E-13
 -1      2504 1.50374E-02 1.88244E-03-1.37502E-13
 -1      2505 1.47354E-02 1.53539E-03-1.39299E-13
 -1      2506 1.47634E-02 1.57711E-03-1.38913E-13
 -1      2507 1.46795E-02 1.45208E-03-1.40070E-13
 -1      2508 1.47075E-02 1.49371E-03-1.39684E-13
 -1      2509 1.45979E-02 1.48950E-03-1.37455E-13
 -1      2510 1.48467E-02 1.70121E-03-1.37758E-13
 -1      2511 1.48749E-02 1.74316E-03-1.37364E-13
 -1      2512 1.47911E-02 1.61854E-03-1.38526E-13
 -1      2513 1.48188E-02 1.65967E-03-1.38144E-13
 -1      2514 1.47091E-02 1.65533E-03-1.35919E-13
 -1      2515 1.46535E-02 1.57246E-03-1.36689E-13
 -1      2516 1.46237E-02 1.36891E-03-1.40840E-13
 -1      2517 1.46516E-02 1.41048E-03-1.40456E-13
 -1      2518 1.45421E-02 1.40639E-03-1.38221E-13
 -1      2519 1.45678E-02 1.28580E-03-1.41611E-13
 -1      2520 1.45958E-02 1.32735E-03-1.41226E-13
 -1      2521 1.44863E-02 1.32342E-03-1.38987E-13
 -1      2522 1.45119E-02 1.20267E-03-1.42370E-13
 -1      2523 1.45399E-02 1.24424E-03-1.41989E-13
 -1      2524 1.44304E-02 1.24050E-03-1.39746E-13
 -1      2525 1.44569E-02 1.12084E-03-1.43114E-13
 -1      2526 1.44844E-02 1.16177E-03-1.42742E-13
 -1      2527 1.43749E-02 1.15823E-03-1.40493E-13
 -1      2528 1.44010E-02 1.03744E-03-1.43859E-13
 -1      2529 1.44289E-02 1.07917E-03-1.43488E-13
 -1      2530 1.43193E-02 1.07581E-03-1.41233E-13
 -1      2531 1.43452E-02 9.53817E-04-1.44590E-13
 -1      2532 1.43731E-02 9.95655E-04-1.44227E-13
 -1      2533 1.42634E-02 9.92483E-04-1.41969E-13
 -1      2534 1.42898E-02 8.69968E-04-1.45309E-13
 -1      2535 1.43175E-02 9.11919E-04-1.44950E-13
 -1      2536 1.42077E-02 9.08895E-04-1.42693E-13
 -1      2537 9.84930E-03 4.30140E-04-5.39080E-14
 -1      2538 9.87192E-03 4.21637E-04-5.41774E-14
 -1      2539 9.37497E-03 5.90945E-04-5.11202E-14
 -1      2540 9.53910E-03 5.27601E-04-5.19999E-14
 -1      2541 1.58595E-03 4.83279E-04-1.65375E-15
 -1      2542 1.44448E-03 4.66995E-04-1.34131E-15
 -1      2543 1.64386E-03 4.54347E-04-1.92253E-15
 -1      2544 1.43190E-02 8.10999E-04-1.47242E-13
 -1      2545 9.85921E-03 4.10726E-04-5.43598E-14
 -1      2546 9.81160E-03 4.01563E-04-5.45449E-14
 -1      2547 9.88189E-03 4.23389E-04-5.52049E-14
 -1      2548 9.68648E-03 4.76715E-04-5.28171E-14
 -1      2549 9.77983E-03 4.51707E-04-5.33917E-14
 -1      2550 5.88680E-04-2.34745E-04-4.66763E-16
 -1      2551 7.81532E-04-3.00137E-04-7.33829E-16
 -1      2552 8.41255E-04-2.88345E-04-8.77133E-16
 -1      2553 5.79327E-04-2.06969E-04-4.84164E-16
 -1      2554 9.70123E-03 3.73695E-04-5.45361E-14
 -1      2555 9.58196E-03 3.41125E-04-5.42548E-14
 -1      2556 5.46598E-04-2.22199E-05-4.87633E-16
 -1      2557 5.47102E-04-3.78150E-05-4.93678E-16
 -1      2558 6.62440E-04-5.41385E-05-6.70782E-16
 -1      2559 6.61080E-04-1.71377E-05-6.55170E-16
 -1      2560 7.86202E-03 1.36458E-03-4.16072E-14
 -1      2561 8.02955E-03 1.31176E-03-4.29337E-14
 -1      2562 5.35874E-03 2.48520E-04-3.13867E-14
 -1      2563 5.46935E-03 2.74421E-04-3.12858E-14
 -1      2564 7.57136E-03 1.36236E-03-3.93812E-14
 -1      2565 7.68973E-03 1.37800E-03-4.02839E-14
 -1      2566 7.23524E-03 1.22472E-03-3.70263E-14
 -1      2567 7.40320E-03 1.31023E-03-3.81924E-14
 -1      2568 7.47934E-03 1.34205E-03-3.83739E-14
 -1      2569 6.90142E-03 1.01547E-03-3.51432E-14
 -1      2570 7.05327E-03 1.11716E-03-3.59375E-14
 -1      2571 6.01828E-03 4.92940E-04-3.24650E-14
 -1      2572 6.18610E-03 5.78553E-04-3.28782E-14
 -1      2573 5.65582E-03 3.35775E-04-3.14866E-14
 -1      2574 5.82852E-03 4.04656E-04-3.19730E-14
 -1      2575 5.90926E-03 4.35287E-04-3.15461E-14
 -1      2576 5.27446E-03 2.23420E-04-3.15007E-14
 -1      2577 5.29804E-03 2.31617E-04-3.14579E-14
 -1      2578 5.35544E-03 1.95639E-04-3.20361E-14
 -1      2579 5.29248E-03 2.08878E-04-3.16731E-14
 -1      2580 5.59905E-03 1.25869E-04-3.31127E-14
 -1      2581 5.47112E-03 1.63230E-04-3.25550E-14
 -1      2582 5.91335E-03 5.03518E-06-3.44041E-14
 -1      2583 5.75816E-03 6.79012E-05-3.37770E-14
 -1      2584 6.24925E-03-1.55631E-04-3.58798E-14
 -1      2585 6.07779E-03-6.96338E-05-3.51366E-14
 -1      2586 5.97485E-03-2.91450E-05-3.42012E-14
 -1      2587 6.63500E-03-3.64684E-04-3.78134E-14
 -1      2588 6.46962E-03-2.71388E-04-3.69151E-14
 -1      2589 6.96327E-03-5.36626E-04-3.99222E-14
 -1      2590 6.81533E-03-4.60134E-04-3.89468E-14
 -1      2591 7.26012E-03-6.45252E-04-4.21517E-14
 -1      2592 7.11890E-03-6.01767E-04-4.10143E-14
 -1      2593 7.56480E-03-6.48527E-04-4.48031E-14
 -1      2594 7.43616E-03-6.63805E-04-4.36726E-14
 -1      2595 7.90018E-03-5.18570E-04-4.74628E-14
 -1      2596 7.74021E-03-5.96013E-04-4.62294E-14
 -1      2597 8.26931E-03-3.06368E-04-4.95393E-14
 -1      2598 8.11240E-03-4.02743E-04-4.87259E-14
 -1      2599 8.60877E-03-9.86573E-05-5.13574E-14
 -1      2600 8.43677E-03-2.04800E-04-5.04457E-14
 -1      2601 8.36097E-03-2.44956E-04-5.07743E-14
 -1      2602 9.06742E-03 1.39451E-04-5.28803E-14
 -1      2603 8.84935E-03 3.15631E-05-5.22104E-14
 -1      2604 9.43058E-03 2.88433E-04-5.38287E-14
 -1      2605 9.27238E-03 2.28549E-04-5.34239E-14
 -1      2606 8.25941E-03 1.20188E-03-4.46281E-14
 -1      2607 8.42189E-03 1.10462E-03-4.57163E-14
 -1      2608 8.53576E-03 1.04884E-03-4.67045E-14
 -1      2609 7.57650E-04 3.29834E-04-3.11898E-16
 -1      2610 6.11215E-04 2.81593E-04-1.96457E-16
 -1      2611 5.84716E-04 2.54944E-04-2.13059E-16
 -1      2612 8.13889E-04 3.17916E-04-4.34087E-16
 -1      2613 8.99733E-03 7.72602E-04-4.91248E-14
 -1      2614 9.17675E-03 6.81179E-04-5.00853E-14
 -1      2615 6.70638E-04-1.34586E-04-6.82099E-16
 -1      2616 5.55042E-04-1.23434E-04-5.03639E-16
 -1      2617 5.58238E-04-1.43246E-04-5.00264E-16
 -1      2618 1.35889E-03 4.21956E-04-1.28229E-15
 -1      2619 5.72488E-04 2.24750E-04-2.52728E-16
 -1      2620 8.90080E-03 8.33921E-04-4.90239E-14
 -1      2621 9.77288E-03 3.96757E-04-5.53809E-14
 -1      2622 9.51258E-03 3.25511E-04-5.49419E-14
 -1      2623 1.49408E-02 1.83076E-03-1.36683E-13
 -1      2624 9.29063E-03 6.35769E-04-5.12855E-14
 -1      2625 1.49026E-02 1.79449E-03-1.36735E-13
 -1      2626 8.74153E-03-2.04203E-05-5.25516E-14
 -1      2627 9.83259E-03 4.44088E-04-5.44992E-14
 -1      2628 9.62340E-03 5.04907E-04-5.31536E-14
 -1      2629 8.00206E-03-4.62983E-04-4.85841E-14
 -1      2630 6.89961E-04 2.47195E-04-3.82818E-16
 -1      2631 5.72292E-04-1.82043E-04-4.96226E-16
 -1      2632 7.65271E-03-6.27183E-04-4.58750E-14
 -1      2633 7.33703E-03-6.62723E-04-4.29199E-14
 -1      2634 7.03180E-03-5.74070E-04-4.03172E-14
 -1      2635 6.34084E-03-2.11214E-04-3.59463E-14
 -1      2636 5.66468E-03 9.45198E-05-3.28225E-14
 -1      2637 5.39619E-03 1.75537E-04-3.16579E-14
 -1      2638 5.54028E-03 2.90908E-04-3.08653E-14
 -1      2639 5.61093E-03 3.13764E-04-3.04455E-14
 -1      2640 5.44207E-03 2.61289E-04-3.02515E-14
 -1      2641 5.31411E-03 2.31313E-04-3.07403E-14
 -1      2642 7.15655E-03 1.18260E-03-3.61126E-14
 -1      2643 6.31963E-03 6.49183E-04-3.28202E-14
 -1      2644 7.79010E-03 1.38373E-03-4.08748E-14
 -1      2645 6.78212E-03 9.36493E-04-3.43281E-14
 -1      2646 6.86765E-03 1.00081E-03-3.42241E-14
 -1      2647 6.66219E-03 8.59225E-04-3.35221E-14
 -1      2648 1.41602E-02 7.67007E-04-1.44858E-13
 -1      2649 1.42409E-02 8.28941E-04-1.45189E-13
 -1      2650 1.41309E-02 8.26034E-04-1.42930E-13
 -1      2651 1.40332E-02 7.43992E-04-1.42687E-13
 -1      2652 1.47646E-02 1.74812E-03-1.34908E-13
 -1      2653 5.26614E-03 2.09798E-04-3.09796E-14
 -1      2654 6.71432E-03-4.15265E-04-3.80983E-14
 -1      2655 9.16788E-03 1.92301E-04-5.39629E-14
 -1      2656 1.39859E-02 7.67284E-04-1.41179E-13
 -1      2657 8.15319E-03 1.26780E-03-4.38905E-14
 -1      2658 7.80009E-04 7.49530E-05-7.84176E-16
 -1      2659 7.78610E-04 5.37245E-05-8.02716E-16
 -1      2660 7.77660E-04 3.24944E-05-8.19454E-16
 -1      2661 7.77182E-04 1.15348E-05-8.34632E-16
 -1      2662 8.95779E-04 4.80068E-05-1.02795E-15
 -1      2663 7.92044E-04 1.68783E-04-6.83833E-16
 -1      2664 7.87879E-04 1.43753E-04-7.13595E-16
 -1      2665 8.04080E-04 2.23448E-04-6.13143E-16
 -1      2666 7.97404E-04 1.95284E-04-6.50765E-16
 -1      2667 9.15399E-04 2.02375E-04-8.54419E-16
 -1      2668 1.13066E-03 3.53841E-04-9.58394E-16
 -1      2669 9.86862E-04 3.26254E-04-7.32595E-16
 -1      2670 6.89124E-04-2.00041E-04-6.77748E-16
 -1      2671 9.83889E-03 4.15147E-04-5.65044E-14
 -1      2672 9.73956E-03 3.94786E-04-5.64954E-14
 -1      2673 8.08456E-03 1.31945E-03-4.32732E-14
 -1      2674 8.28454E-03 1.21582E-03-4.49775E-14
 -1      2675 9.58643E-03 3.51594E-04-5.61590E-14
 -1      2676 9.44568E-03 3.06784E-04-5.57265E-14
 -1      2677 1.32124E-03-3.52687E-04-1.99271E-15
 -1      2678 1.46470E-03-3.69846E-04-2.40101E-15
 -1      2679 1.60802E-03-3.83939E-04-2.84726E-15
 -1      2680 1.75128E-03-3.95177E-04-3.33129E-15
 -1      2681 1.52609E-03-3.42889E-04-2.63499E-15
 -1      2682 1.89445E-03-4.04016E-04-3.85182E-15
 -1      2683 2.03758E-03-4.10635E-04-4.40930E-15
 -1      2684 1.81308E-03-3.64545E-04-3.60038E-15
 -1      2685 2.18068E-03-4.15407E-04-5.00386E-15
 -1      2686 2.32381E-03-4.18486E-04-5.63454E-15
 -1      2687 2.09995E-03-3.77357E-04-4.71239E-15
 -1      2688 2.46699E-03-4.20168E-04-6.30080E-15
 -1      2689 2.61027E-03-4.20589E-04-7.00258E-15
 -1      2690 2.38672E-03-3.83306E-04-5.96838E-15
 -1      2691 2.75369E-03-4.19993E-04-7.73979E-15
 -1      2692 2.89728E-03-4.18504E-04-8.51116E-15
 -1      2693 2.67349E-03-3.84056E-04-7.36597E-15
 -1      2694 3.04107E-03-4.16335E-04-9.31712E-15
 -1      2695 3.18513E-03-4.13611E-04-1.01573E-14
 -1      2696 2.96047E-03-3.81024E-04-8.90245E-15
 -1      2697 3.32948E-03-4.10539E-04-1.10306E-14
 -1      2698 3.47420E-03-4.07257E-04-1.19380E-14
 -1      2699 3.24792E-03-3.75488E-04-1.05745E-14
 -1      2700 3.61932E-03-4.03982E-04-1.28775E-14
 -1      2701 3.76493E-03-4.00885E-04-1.38501E-14
 -1      2702 3.53616E-03-3.68716E-04-1.23797E-14
 -1      2703 3.91111E-03-3.98208E-04-1.48554E-14
 -1      2704 4.05794E-03-3.96174E-04-1.58917E-14
 -1      2705 3.82572E-03-3.62086E-04-1.43160E-14
 -1      2706 4.20554E-03-3.95057E-04-1.69605E-14
 -1      2707 4.35401E-03-3.95154E-04-1.80613E-14
 -1      2708 4.11730E-03-3.57223E-04-1.63810E-14
 -1      2709 4.50353E-03-3.96768E-04-1.91926E-14
 -1      2710 4.65418E-03-4.00290E-04-2.03559E-14
 -1      2711 4.41194E-03-3.56122E-04-1.85714E-14
 -1      2712 4.80625E-03-4.06032E-04-2.15514E-14
 -1      2713 4.95973E-03-4.14481E-04-2.27769E-14
 -1      2714 4.71106E-03-3.61250E-04-2.08878E-14
 -1      2715 5.11499E-03-4.25914E-04-2.40341E-14
 -1      2716 5.27189E-03-4.40877E-04-2.53230E-14
 -1      2717 5.01641E-03-3.75610E-04-2.33282E-14
 -1      2718 5.43087E-03-4.59527E-04-2.66435E-14
 -1      2719 5.59147E-03-4.82339E-04-2.79962E-14
 -1      2720 5.32986E-03-4.02639E-04-2.58939E-14
 -1      2721 5.75411E-03-5.09223E-04-2.93813E-14
 -1      2722 5.91789E-03-5.40225E-04-3.07996E-14
 -1      2723 5.65272E-03-4.45762E-04-2.85869E-14
 -1      2724 6.08303E-03-5.74833E-04-3.22504E-14
 -1      2725 6.24823E-03-6.12149E-04-3.37349E-14
 -1      2726 5.98451E-03-5.07001E-04-3.14091E-14
 -1      2727 6.41334E-03-6.51031E-04-3.52547E-14
 -1      2728 6.57700E-03-6.89041E-04-3.68075E-14
 -1      2729 6.32154E-03-5.84162E-04-3.43650E-14
 -1      2730 6.73873E-03-7.24312E-04-3.83937E-14
 -1      2731 6.89810E-03-7.53194E-04-4.00142E-14
 -1      2732 6.65664E-03-6.66515E-04-3.74557E-14
 -1      2733 7.05445E-03-7.73561E-04-4.16688E-14
 -1      2734 7.20921E-03-7.81903E-04-4.33554E-14
 -1      2735 6.98217E-03-7.32358E-04-4.06824E-14
 -1      2736 7.36185E-03-7.76961E-04-4.50762E-14
 -1      2737 7.51513E-03-7.57496E-04-4.68305E-14
 -1      2738 7.29652E-03-7.54356E-04-4.40454E-14
 -1      2739 7.66857E-03-7.23865E-04-4.86150E-14
 -1      2740 7.82478E-03-6.78308E-04-5.04308E-14
 -1      2741 7.60712E-03-7.14250E-04-4.75397E-14
 -1      2742 7.98315E-03-6.22430E-04-5.22762E-14
 -1      2743 8.14431E-03-5.60226E-04-5.41509E-14
 -1      2744 7.92503E-03-6.16174E-04-5.11610E-14
 -1      2745 8.30763E-03-4.93823E-04-5.60540E-14
 -1      2746 8.47224E-03-4.26382E-04-5.79838E-14
 -1      2747 8.25467E-03-4.83896E-04-5.49044E-14
 -1      2748 8.63778E-03-3.59570E-04-5.99384E-14
 -1      2749 8.80282E-03-2.95270E-04-6.19187E-14
 -1      2750 8.59144E-03-3.44032E-04-5.87555E-14
 -1      2751 8.96737E-03-2.34355E-04-6.39211E-14
 -1      2752 9.13023E-03-1.77333E-04-6.59451E-14
 -1      2753 8.92730E-03-2.14232E-04-6.27061E-14
 -1      2754 9.29172E-03-1.24530E-04-6.79907E-14
 -1      2755 9.45112E-03-7.56949E-05-7.00548E-14
 -1      2756 9.25619E-03-1.01773E-04-6.67470E-14
 -1      2757 9.60886E-03-3.08064E-05-7.21385E-14
 -1      2758 9.76464E-03 1.06489E-05-7.42386E-14
 -1      2759 9.57569E-03-6.88977E-06-7.08683E-14
 -1      2760 9.91886E-03 4.88780E-05-7.63573E-14
 -1      2761 1.00714E-02 8.44088E-05-7.84921E-14
 -1      2762 9.88613E-03 7.31718E-05-7.50633E-14
 -1      2763 1.02227E-02 1.17525E-04-8.06419E-14
 -1      2764 1.03728E-02 1.48671E-04-8.28065E-14
 -1      2765 1.01891E-02 1.41876E-04-7.93250E-14
 -1      2766 1.05218E-02 1.78138E-04-8.49841E-14
 -1      2767 1.06700E-02 2.06266E-04-8.71763E-14
 -1      2768 1.04866E-02 2.02452E-04-8.36462E-14
 -1      2769 1.08173E-02 2.33318E-04-8.93823E-14
 -1      2770 1.09640E-02 2.59539E-04-9.16024E-14
 -1      2771 1.07802E-02 2.57580E-04-8.80256E-14
 -1      2772 1.11102E-02 2.85144E-04-9.38352E-14
 -1      2773 1.12559E-02 3.10301E-04-9.60779E-14
 -1      2774 1.10710E-02 3.09351E-04-9.24600E-14
 -1      2775 1.14011E-02 3.35174E-04-9.83331E-14
 -1      2776 1.15461E-02 3.59875E-04-1.00599E-13
 -1      2777 1.13602E-02 3.59319E-04-9.69444E-14
 -1      2778 1.16907E-02 3.84517E-04-1.02876E-13
 -1      2779 1.18351E-02 4.09173E-04-1.05169E-13
 -1      2780 1.16482E-02 4.08583E-04-1.01473E-13
 -1      2781 1.19792E-02 4.33915E-04-1.07469E-13
 -1      2782 1.21232E-02 4.58786E-04-1.09777E-13
 -1      2783 1.19354E-02 4.57885E-04-1.06049E-13
 -1      2784 1.22670E-02 4.83826E-04-1.12095E-13
 -1      2785 1.24106E-02 5.09058E-04-1.14422E-13
 -1      2786 1.22222E-02 5.07685E-04-1.10661E-13
 -1      2787 1.25542E-02 5.34499E-04-1.16760E-13
 -1      2788 1.26976E-02 5.60159E-04-1.19101E-13
 -1      2789 1.25087E-02 5.58239E-04-1.15311E-13
 -1      2790 1.28410E-02 5.86039E-04-1.21449E-13
 -1      2791 1.29842E-02 6.12140E-04-1.23804E-13
 -1      2792 1.27949E-02 6.09657E-04-1.19989E-13
 -1      2793 1.31274E-02 6.38454E-04-1.26166E-13
 -1      2794 1.32706E-02 6.64975E-04-1.28533E-13
 -1      2795 1.30810E-02 6.61953E-04-1.24693E-13
 -1      2796 1.34137E-02 6.91690E-04-1.30906E-13
 -1      2797 1.35567E-02 7.18591E-04-1.33283E-13
 -1      2798 1.33669E-02 7.15077E-04-1.29421E-13
 -1      2799 1.36997E-02 7.45660E-04-1.35663E-13
 -1      2800 1.38427E-02 7.72889E-04-1.38050E-13
 -1      2801 1.36528E-02 7.68947E-04-1.34168E-13
 -1      2802 2.27431E-03 4.51333E-04-3.99615E-15
 -1      2803 2.13156E-03 4.47724E-04-3.49554E-15
 -1      2804 1.45942E-02 1.66753E-03-1.33197E-13
 -1      2805 1.46217E-02 1.71874E-03-1.32572E-13
 -1      2806 1.44787E-02 1.68924E-03-1.30241E-13
 -1      2807 1.98887E-03 4.42228E-04-3.02967E-15
 -1      2808 1.84616E-03 4.34684E-04-2.59805E-15
 -1      2809 2.05047E-03 4.09278E-04-3.36626E-15
 -1      2810 2.84679E-03 4.51572E-04-6.33956E-15
 -1      2811 2.70335E-03 4.53298E-04-5.70248E-15
 -1      2812 3.13452E-03 4.45548E-04-7.71399E-15
 -1      2813 2.99048E-03 4.48950E-04-7.01002E-15
 -1      2814 2.90953E-03 4.14207E-04-6.81737E-15
 -1      2815 3.42362E-03 4.37087E-04-9.22118E-15
 -1      2816 3.27886E-03 4.41553E-04-8.45114E-15
 -1      2817 3.19652E-03 4.07585E-04-8.23651E-15
 -1      2818 3.71438E-03 4.27513E-04-1.08591E-14
 -1      2819 3.56875E-03 4.32357E-04-1.00238E-14
 -1      2820 3.48403E-03 3.98881E-04-9.78818E-15
 -1      2821 4.00710E-03 4.18473E-04-1.26257E-14
 -1      2822 3.86043E-03 4.22819E-04-1.17264E-14
 -1      2823 3.77217E-03 3.89418E-04-1.14688E-14
 -1      2824 4.30224E-03 4.12192E-04-1.45219E-14
 -1      2825 4.15429E-03 4.14834E-04-1.35574E-14
 -1      2826 4.06106E-03 3.80849E-04-1.32785E-14
 -1      2827 4.60059E-03 4.11804E-04-1.65459E-14
 -1      2828 4.45090E-03 4.11034E-04-1.55181E-14
 -1      2829 4.35105E-03 3.75384E-04-1.52160E-14
 -1      2830 4.90359E-03 4.21740E-04-1.86957E-14
 -1      2831 4.75135E-03 4.15139E-04-1.76055E-14
 -1      2832 4.64292E-03 3.76075E-04-1.72815E-14
 -1      2833 5.21386E-03 4.48164E-04-2.09679E-14
 -1      2834 5.05760E-03 4.32364E-04-1.98167E-14
 -1      2835 4.93840E-03 3.87149E-04-1.94705E-14
 -1      2836 5.53585E-03 4.99452E-04-2.33579E-14
 -1      2837 5.37314E-03 4.69912E-04-2.21474E-14
 -1      2838 5.24093E-03 4.14500E-04-2.17802E-14
 -1      2839 5.87591E-03 5.86411E-04-2.58682E-14
 -1      2840 5.70347E-03 5.37380E-04-2.45985E-14
 -1      2841 5.55657E-03 4.66443E-04-2.42063E-14
 -1      2842 6.24044E-03 7.20994E-04-2.84985E-14
 -1      2843 6.05553E-03 6.46553E-04-2.71684E-14
 -1      2844 5.89443E-03 5.54768E-04-2.67524E-14
 -1      2845 6.62997E-03 9.10038E-04-3.12514E-14
 -1      2846 6.43371E-03 8.08544E-04-2.98589E-14
 -1      2847 6.26394E-03 6.95001E-04-2.94165E-14
 -1      2848 6.98050E-03 1.09734E-03-3.40243E-14
 -1      2849 6.77792E-03 9.78955E-04-3.25697E-14
 -1      2850 7.43567E-03 1.33982E-03-3.74532E-14
 -1      2851 7.24374E-03 1.25341E-03-3.59129E-14
 -1      2852 8.22329E-03 1.30370E-03-4.43012E-14
 -1      2853 8.03337E-03 1.36806E-03-4.26076E-14
 -1      2854 8.61650E-03 1.13548E-03-4.78009E-14
 -1      2855 8.41921E-03 1.22101E-03-4.60344E-14
 -1      2856 8.41882E-03 1.18658E-03-4.60836E-14
 -1      2857 9.01012E-03 9.85318E-04-5.14280E-14
 -1      2858 8.81576E-03 1.05542E-03-4.95967E-14
 -1      2859 8.82700E-03 1.00865E-03-4.96504E-14
 -1      2860 9.38415E-03 8.86722E-04-5.51742E-14
 -1      2861 9.20069E-03 9.29933E-04-5.32873E-14
 -1      2862 9.21783E-03 8.81701E-04-5.33401E-14
 -1      2863 9.73390E-03 8.38763E-04-5.90270E-14
 -1      2864 9.56210E-03 8.57326E-04-5.70885E-14
 -1      2865 9.57805E-03 8.13288E-04-5.71448E-14
 -1      2866 1.00636E-02 8.31084E-04-6.29750E-14
 -1      2867 9.90088E-03 8.30867E-04-6.09908E-14
 -1      2868 9.91097E-03 7.91632E-04-6.10470E-14
 -1      2869 1.03797E-02 8.52072E-04-6.70100E-14
 -1      2870 1.02230E-02 8.38690E-04-6.49810E-14
 -1      2871 1.02254E-02 8.02915E-04-6.50396E-14
 -1      2872 1.06872E-02 8.92494E-04-7.11273E-14
 -1      2873 1.05343E-02 8.70335E-04-6.90570E-14
 -1      2874 1.05290E-02 8.36485E-04-6.91162E-14
 -1      2875 1.09892E-02 9.45421E-04-7.53206E-14
 -1      2876 1.08387E-02 9.17719E-04-7.32149E-14
 -1      2877 1.08266E-02 8.84723E-04-7.32731E-14
 -1      2878 1.12875E-02 1.00589E-03-7.95938E-14
 -1      2879 1.11387E-02 9.74929E-04-7.74476E-14
 -1      2880 1.11208E-02 9.42184E-04-7.75066E-14
 -1      2881 1.15831E-02 1.07049E-03-8.39337E-14
 -1      2882 1.14355E-02 1.03782E-03-8.17556E-14
 -1      2883 1.14130E-02 1.00504E-03-8.18104E-14
 -1      2884 1.18766E-02 1.13697E-03-8.83428E-14
 -1      2885 1.17301E-02 1.10358E-03-8.61286E-14
 -1      2886 1.17039E-02 1.07069E-03-8.61833E-14
 -1      2887 1.21685E-02 1.20388E-03-9.28100E-14
 -1      2888 1.20227E-02 1.17042E-03-9.05697E-14
 -1      2889 1.19939E-02 1.13738E-03-9.06187E-14
 -1      2890 1.24590E-02 1.27036E-03-9.73301E-14
 -1      2891 1.23139E-02 1.23720E-03-9.50643E-14
 -1      2892 1.22830E-02 1.20404E-03-9.51117E-14
 -1      2893 1.27484E-02 1.33596E-03-1.01890E-13
 -1      2894 1.26038E-02 1.30329E-03-9.96051E-14
 -1      2895 1.25715E-02 1.27004E-03-9.96487E-14
 -1      2896 1.30368E-02 1.40046E-03-1.06475E-13
 -1      2897 1.28927E-02 1.36835E-03-1.04181E-13
 -1      2898 1.28593E-02 1.33505E-03-1.04222E-13
 -1      2899 1.33246E-02 1.46380E-03-1.11093E-13
 -1      2900 1.31808E-02 1.43227E-03-1.08782E-13
 -1      2901 1.31467E-02 1.39893E-03-1.08821E-13
 -1      2902 1.36117E-02 1.52603E-03-1.15715E-13
 -1      2903 1.34682E-02 1.49505E-03-1.13402E-13
 -1      2904 1.34336E-02 1.46168E-03-1.13439E-13
 -1      2905 1.38984E-02 1.58724E-03-1.20354E-13
 -1      2906 1.37551E-02 1.55675E-03-1.18034E-13
 -1      2907 1.37202E-02 1.52338E-03-1.18071E-13
 -1      2908 1.41848E-02 1.64756E-03-1.25002E-13
 -1      2909 1.40417E-02 1.61750E-03-1.22677E-13
 -1      2910 1.40065E-02 1.58413E-03-1.22713E-13
 -1      2911 1.43357E-02 1.65958E-03-1.27911E-13
 -1      2912 9.23386E-03 6.82244E-04-5.16715E-14
 -1      2913 9.40699E-03 6.04644E-04-5.27244E-14
 -1      2914 1.43489E-02 1.27803E-03-1.37130E-13
 -1      2915 1.43768E-02 1.31939E-03-1.36750E-13
 -1      2916 5.25464E-03 1.98132E-04-3.02849E-14
 -1      2917 5.24110E-03 2.06305E-04-3.01198E-14
 -1      2918 1.44604E-02 1.44364E-03-1.35611E-13
 -1      2919 1.44883E-02 1.48516E-03-1.35230E-13
 -1      2920 1.42930E-02 1.19531E-03-1.37883E-13
 -1      2921 1.43210E-02 1.23667E-03-1.37509E-13
 -1      2922 1.42117E-02 1.23274E-03-1.35274E-13
 -1      2923 1.44047E-02 1.36077E-03-1.36371E-13
 -1      2924 1.44326E-02 1.40218E-03-1.35991E-13
 -1      2925 1.43231E-02 1.39784E-03-1.33767E-13
 -1      2926 1.42675E-02 1.31523E-03-1.34521E-13
 -1      2927 1.42379E-02 1.11390E-03-1.38614E-13
 -1      2928 1.42655E-02 1.15462E-03-1.38250E-13
 -1      2929 1.41561E-02 1.15094E-03-1.36014E-13
 -1      2930 1.41818E-02 1.03090E-03-1.39352E-13
 -1      2931 1.42099E-02 1.07243E-03-1.38984E-13
 -1      2932 1.41005E-02 1.06900E-03-1.36744E-13
 -1      2933 1.41258E-02 9.47644E-04-1.40079E-13
 -1      2934 1.41538E-02 9.89311E-04-1.39717E-13
 -1      2935 1.40443E-02 9.86127E-04-1.37472E-13
 -1      2936 9.57803E-03 5.33584E-04-5.36567E-14
 -1      2937 9.71050E-03 4.91389E-04-5.44870E-14
 -1      2938 9.82709E-03 4.60428E-04-5.54804E-14
 -1      2939 9.88709E-03 4.46866E-04-5.60053E-14
 -1      2940 9.90818E-03 4.34492E-04-5.63253E-14
 -1      2941 9.89610E-03 4.29692E-04-5.65117E-14
 -1      2942 8.12369E-03-3.94224E-04-4.99591E-14
 -1      2943 7.94066E-03-5.03391E-04-4.86756E-14
 -1      2944 8.34201E-04-2.58742E-04-9.00308E-16
 -1      2945 9.65868E-04-2.92506E-04-1.14802E-15
 -1      2946 1.10905E-03-3.18897E-04-1.46102E-15
 -1      2947 8.14612E-04-2.07458E-04-9.08860E-16
 -1      2948 5.71687E-03 5.87168E-05-3.24484E-14
 -1      2949 5.57473E-03 1.07227E-04-3.18027E-14
 -1      2950 7.57542E-03 1.38700E-03-3.86269E-14
 -1      2951 6.21612E-03 5.89971E-04-3.18145E-14
 -1      2952 6.43284E-03 7.15444E-04-3.25980E-14
 -1      2953 1.70341E-03 4.24693E-04-2.20084E-15
 -1      2954 1.56049E-03 4.12056E-04-1.83873E-15
 -1      2955 1.76415E-03 3.94492E-04-2.48908E-15
 -1      2956 2.56016E-03 4.53934E-04-5.09929E-15
 -1      2957 2.41715E-03 4.53357E-04-4.53068E-15
 -1      2958 2.33667E-03 4.16384E-04-4.38068E-15
 -1      2959 2.62296E-03 4.17552E-04-5.53119E-15
 -1      2960 8.83160E-03 8.94074E-04-4.90156E-14
 -1      2961 9.01769E-03 7.89803E-04-5.02395E-14
 -1      2962 7.84551E-04 1.19956E-04-7.39561E-16
 -1      2963 7.81982E-04 9.70515E-05-7.63211E-16
 -1      2964 8.99252E-04 9.62317E-05-9.81975E-16
 -1      2965 9.05469E-04 1.47087E-04-9.25231E-16
 -1      2966 7.81663E-04-9.50223E-05-8.83611E-16
 -1      2967 7.84147E-04-1.17852E-04-8.87555E-16
 -1      2968 1.41745E-03 3.96263E-04-1.51113E-15
 -1      2969 1.27409E-03 3.77058E-04-1.21768E-15
 -1      2970 1.19067E-03 3.32747E-04-1.14753E-15
 -1      2971 1.47754E-03 3.69864E-04-1.74974E-15
 -1      2972 8.87402E-03 5.13698E-05-5.39947E-14
 -1      2973 8.66228E-03-6.77155E-05-5.31243E-14
 -1      2974 7.72754E-03-6.04804E-04-4.69792E-14
 -1      2975 7.57678E-03-6.54501E-04-4.55394E-14
 -1      2976 5.26958E-03 2.17942E-04-3.00717E-14
 -1      2977 5.32383E-03 2.29004E-04-3.00022E-14
 -1      2978 1.40349E-02 8.08263E-04-1.41300E-13
 -1      2979 1.40839E-02 8.49198E-04-1.41419E-13
 -1      2980 1.39388E-02 7.90545E-04-1.39674E-13
 -1      2981 5.81903E-03 3.96593E-04-3.06071E-14
 -1      2982 5.99098E-03 4.73803E-04-3.10847E-14
 -1      2983 6.79517E-03-4.74878E-04-3.84614E-14
 -1      2984 6.63525E-03-3.90267E-04-3.73370E-14
 -1      2985 5.42694E-03 1.52883E-04-3.11214E-14
 -1      2986 5.32300E-03 1.77377E-04-3.06193E-14
 -1      2987 6.03618E-03-7.32036E-05-3.40282E-14
 -1      2988 5.88927E-03-8.46106E-06-3.33115E-14
 -1      2989 9.27800E-03 2.42103E-04-5.52609E-14
 -1      2990 9.09499E-03 1.61790E-04-5.47058E-14
 -1      2991 6.40315E-03-2.65665E-04-3.58923E-14
 -1      2992 6.21199E-03-1.61076E-04-3.48787E-14
 -1      2993 7.06923E-03-6.06723E-04-4.06136E-14
 -1      2994 6.93895E-03-5.46603E-04-3.95294E-14
 -1      2995 6.84402E-03-5.23740E-04-3.87450E-14
 -1      2996 7.38754E-03-6.74345E-04-4.36174E-14
 -1      2997 7.23538E-03-6.55671E-04-4.20994E-14
 -1      2998 7.13508E-03-6.41922E-04-4.12864E-14
 -1      2999 8.03627E-04 2.73265E-04-5.15796E-16
 -1      3000 8.40724E-03-2.19322E-04-5.17908E-14
 -1      3001 8.26166E-03-3.10577E-04-5.08706E-14
 -1      3002 8.18718E-03-3.67293E-04-5.09620E-14
 -1      3003 7.76054E-03 1.40709E-03-4.02328E-14
 -1      3004 7.79761E-04-7.28849E-05-8.77404E-16
 -1      3005 8.98911E-04-9.37961E-05-1.11301E-15
 -1      3006 7.78419E-04-5.13350E-05-8.69354E-16
 -1      3007 9.00708E-03 1.09432E-04-5.52885E-14
 -1      3008 5.46473E-03 1.19882E-04-3.07566E-14
 -1      3009 9.89310E-03 4.29374E-04-5.76333E-14
 -1      3010 9.37804E-03 2.76211E-04-5.64776E-14
 -1      3011 9.04941E-04-1.44624E-04-1.12321E-15
 -1      3012 7.87395E-04-1.41559E-04-8.89032E-16
 -1      3013 7.91448E-04-1.66372E-04-8.87867E-16
 -1      3014 9.16421E-03 7.45000E-04-5.16614E-14
 -1      3015 1.38918E-02 8.13758E-04-1.38171E-13
 -1      3016 9.52711E-03 5.79237E-04-5.40509E-14
 -1      3017 6.60458E-03 8.52781E-04-3.20955E-14
 -1      3018 7.09006E-03 1.16102E-03-3.48427E-14
 -1      3019 8.65554E-04 2.61070E-04-6.49424E-16
 -1      3020 5.22721E-03 2.04395E-04-2.93873E-14
 -1      3021 1.43785E-02 1.48033E-03-1.33012E-13
 -1      3022 1.45160E-02 1.52639E-03-1.34850E-13
 -1      3023 1.45437E-02 1.56769E-03-1.34469E-13
 -1      3024 1.45663E-02 1.62604E-03-1.33580E-13
 -1      3025 9.80378E-03 4.84996E-04-5.59908E-14
 -1      3026 6.49198E-03-3.37123E-04-3.62381E-14
 -1      3027 6.10503E-03-1.34450E-04-3.39728E-14
 -1      3028 1.41117E-02 8.91064E-04-1.41065E-13
 -1      3029 9.93076E-03 4.50763E-04-5.73177E-14
 -1      3030 7.90497E-03 1.39182E-03-4.15558E-14
 -1      3031 7.84785E-03-5.56798E-04-4.83259E-14
 -1      3032 1.17068E-03-2.98664E-04-1.64750E-15
 -1      3033 7.77147E-04-9.28090E-06-8.48022E-16
 -1      3034 7.77551E-04-3.02262E-05-8.59596E-16
 -1      3035 8.95616E-04-4.56457E-05-1.09324E-15
 -1      3036 8.94613E-04 1.11867E-06-1.06494E-15
 -1      3037 5.25717E-03 1.79344E-04-2.97623E-14
 -1      3038 5.36476E-03 2.39544E-04-2.95871E-14
 -1      3039 5.41112E-03 2.54136E-04-2.91726E-14
 -1      3040 5.29745E-03 2.24862E-04-2.89280E-14
 -1      3041 6.09946E-03 5.37953E-04-3.08648E-14
 -1      3042 8.55426E-03-1.43001E-04-5.32211E-14
 -1      3043 5.77180E-03 1.40891E-05-3.22773E-14
 -1      3044 9.83748E-04 2.69286E-04-8.57387E-16
 -1      3045 7.47239E-03-6.74783E-04-4.46873E-14
 -1      3046 6.53674E-03 7.90155E-04-3.24972E-14
 -1      3047 5.68715E-03 3.44357E-04-2.99922E-14
 -1      3048 5.75394E-03 3.80726E-04-2.95378E-14
 -1      3049 5.56689E-03 3.05454E-04-2.93842E-14
 -1      3050 9.69174E-03 3.80159E-04-5.72868E-14
 -1      3051 1.39468E-02 8.50951E-04-1.38493E-13
 -1      3052 1.40707E-02 9.10474E-04-1.39760E-13
 -1      3053 1.39611E-02 9.07491E-04-1.37514E-13
 -1      3054 1.38508E-02 8.33275E-04-1.36872E-13
 -1      3055 8.48988E-03 1.09989E-03-4.65912E-14
 -1      3056 8.64184E-03 1.00538E-03-4.77040E-14
 -1      3057 8.77771E-03 9.55241E-04-4.88991E-14
 -1      3058 5.18332E-03 1.92442E-04-2.85651E-14
 -1      3059 5.21126E-03 2.02574E-04-2.85194E-14
 -1      3060 1.04091E-03 2.36561E-04-1.04245E-15
 -1      3061 1.03404E-03 2.05304E-04-1.08877E-15
 -1      3062 8.40296E-03 1.17476E-03-4.59540E-14
 -1      3063 1.73225E-03-3.25426E-04-3.35353E-15
 -1      3064 1.87587E-03-3.33397E-04-3.87124E-15
 -1      3065 2.01945E-03-3.39451E-04-4.42577E-15
 -1      3066 2.16301E-03-3.43732E-04-5.01606E-15
 -1      3067 1.93940E-03-3.01804E-04-4.14453E-15
 -1      3068 2.30651E-03-3.46520E-04-5.64152E-15
 -1      3069 2.44997E-03-3.47938E-04-6.30206E-15
 -1      3070 2.22660E-03-3.09860E-04-5.32017E-15
 -1      3071 2.59335E-03-3.48225E-04-6.99810E-15
 -1      3072 2.73670E-03-3.47485E-04-7.72874E-15
 -1      3073 2.51346E-03-3.12495E-04-6.63604E-15
 -1      3074 2.88000E-03-3.45924E-04-8.49289E-15
 -1      3075 3.02331E-03-3.43640E-04-9.29160E-15
 -1      3076 2.79984E-03-3.10988E-04-8.08998E-15
 -1      3077 3.16661E-03-3.40820E-04-1.01241E-14
 -1      3078 3.30998E-03-3.37566E-04-1.09899E-14
 -1      3079 3.08575E-03-3.06454E-04-9.67974E-15
 -1      3080 3.45344E-03-3.34061E-04-1.18884E-14
 -1      3081 3.59706E-03-3.30429E-04-1.28192E-14
 -1      3082 3.37133E-03-2.99925E-04-1.14031E-14
 -1      3083 3.74091E-03-3.26859E-04-1.37832E-14
 -1      3084 3.88510E-03-3.23518E-04-1.47794E-14
 -1      3085 3.65692E-03-2.92448E-04-1.32572E-14
 -1      3086 4.02973E-03-3.20610E-04-1.58064E-14
 -1      3087 4.17495E-03-3.18372E-04-1.68659E-14
 -1      3088 3.94311E-03-2.85191E-04-1.52392E-14
 -1      3089 4.32094E-03-3.17026E-04-1.79569E-14
 -1      3090 4.46790E-03-3.16916E-04-1.90785E-14
 -1      3091 4.23090E-03-2.79573E-04-1.73479E-14
 -1      3092 4.61608E-03-3.18277E-04-2.02305E-14
 -1      3093 4.76573E-03-3.21606E-04-2.14143E-14
 -1      3094 4.52184E-03-2.77420E-04-1.95815E-14
 -1      3095 4.91724E-03-3.27139E-04-2.26300E-14
 -1      3096 5.07079E-03-3.35574E-04-2.38754E-14
 -1      3097 4.81814E-03-2.81166E-04-2.19375E-14
 -1      3098 5.22692E-03-3.47122E-04-2.51515E-14
 -1      3099 5.38563E-03-3.62668E-04-2.64609E-14
 -1      3100 5.12276E-03-2.94135E-04-2.44185E-14
 -1      3101 5.54754E-03-3.82360E-04-2.78011E-14
 -1      3102 5.71223E-03-4.07135E-04-2.91732E-14
 -1      3103 5.43908E-03-3.20774E-04-2.70234E-14
 -1      3104 5.88026E-03-4.36933E-04-3.05773E-14
 -1      3105 6.05037E-03-4.72096E-04-3.20143E-14
 -1      3106 5.76991E-03-3.66650E-04-2.97540E-14
 -1      3107 6.22285E-03-5.12179E-04-3.34839E-14
 -1      3108 6.39547E-03-5.55852E-04-3.49886E-14
 -1      3109 6.11528E-03-4.36467E-04-3.26135E-14
 -1      3110 6.56821E-03-6.01761E-04-3.65271E-14
 -1      3111 6.73840E-03-6.45783E-04-3.80979E-14
 -1      3112 6.46947E-03-5.29242E-04-3.56057E-14
 -1      3113 6.90522E-03-6.85487E-04-3.97055E-14
 -1      3114 7.06885E-03-7.14400E-04-4.13463E-14
 -1      3115 6.82005E-03-6.29215E-04-3.87351E-14
 -1      3116 7.54309E-03-7.06953E-04-4.64707E-14
 -1      3117 7.70275E-03-6.67990E-04-4.82452E-14
 -1      3118 7.86452E-03-6.12536E-04-5.00521E-14
 -1      3119 8.03068E-03-5.47454E-04-5.18904E-14
 -1      3120 7.80429E-03-6.13369E-04-4.89479E-14
 -1      3121 8.19992E-03-4.75028E-04-5.37572E-14
 -1      3122 8.37159E-03-4.01035E-04-5.56537E-14
 -1      3123 8.14537E-03-4.69592E-04-5.26155E-14
 -1      3124 8.54499E-03-3.27583E-04-5.75758E-14
 -1      3125 8.71717E-03-2.57650E-04-5.95234E-14
 -1      3126 8.49869E-03-3.11786E-04-5.64009E-14
 -1      3127 8.88842E-03-1.92190E-04-6.14971E-14
 -1      3128 9.05675E-03-1.31942E-04-6.34915E-14
 -1      3129 8.85088E-03-1.68887E-04-6.02907E-14
 -1      3130 9.22265E-03-7.70478E-05-6.55081E-14
 -1      3131 9.38512E-03-2.69357E-05-6.75456E-14
 -1      3132 9.19122E-03-5.03269E-05-6.42728E-14
 -1      3133 9.54483E-03 1.85304E-05-6.96024E-14
 -1      3134 9.70151E-03 6.02234E-05-7.16781E-14
 -1      3135 9.51645E-03 4.56961E-05-6.83397E-14
 -1      3136 9.85577E-03 9.83628E-05-7.37719E-14
 -1      3137 1.00077E-02 1.33736E-04-7.58835E-14
 -1      3138 9.82790E-03 1.24703E-04-7.24855E-14
 -1      3139 1.01578E-02 1.66582E-04-7.80102E-14
 -1      3140 1.03063E-02 1.97499E-04-8.01530E-14
 -1      3141 1.01288E-02 1.91835E-04-7.67006E-14
 -1      3142 1.04534E-02 2.26718E-04-8.23116E-14
 -1      3143 1.05995E-02 2.54664E-04-8.44846E-14
 -1      3144 1.04224E-02 2.51061E-04-8.09785E-14
 -1      3145 1.07448E-02 2.81540E-04-8.66702E-14
 -1      3146 1.08894E-02 3.07637E-04-8.88712E-14
 -1      3147 1.07113E-02 3.05264E-04-8.53204E-14
 -1      3148 1.10335E-02 3.33125E-04-9.10880E-14
 -1      3149 1.11772E-02 3.58196E-04-9.33170E-14
 -1      3150 1.09975E-02 3.56487E-04-8.97173E-14
 -1      3151 1.13206E-02 3.82985E-04-9.55570E-14
 -1      3152 1.14638E-02 4.07615E-04-9.78080E-14
 -1      3153 1.12824E-02 4.06166E-04-9.41709E-14
 -1      3154 1.16068E-02 4.32183E-04-1.00071E-13
 -1      3155 1.17498E-02 4.56768E-04-1.02345E-13
 -1      3156 1.15666E-02 4.55294E-04-9.86690E-14
 -1      3157 1.18926E-02 4.81434E-04-1.04630E-13
 -1      3158 1.20354E-02 5.06227E-04-1.06926E-13
 -1      3159 1.18507E-02 5.04530E-04-1.03215E-13
 -1      3160 1.21782E-02 5.31184E-04-1.09232E-13
 -1      3161 1.23210E-02 5.56331E-04-1.11543E-13
 -1      3162 1.21349E-02 5.54287E-04-1.07801E-13
 -1      3163 1.24637E-02 5.81683E-04-1.13865E-13
 -1      3164 1.26065E-02 6.07253E-04-1.16195E-13
 -1      3165 1.24194E-02 6.04796E-04-1.12424E-13
 -1      3166 1.27493E-02 6.33041E-04-1.18532E-13
 -1      3167 1.28921E-02 6.59050E-04-1.20872E-13
 -1      3168 1.27041E-02 6.56157E-04-1.17074E-13
 -1      3169 1.30348E-02 6.85272E-04-1.23221E-13
 -1      3170 1.31776E-02 7.11704E-04-1.25576E-13
 -1      3171 1.29891E-02 7.08381E-04-1.21752E-13
 -1      3172 1.33204E-02 7.38332E-04-1.27936E-13
 -1      3173 1.34633E-02 7.65146E-04-1.30303E-13
 -1      3174 1.32742E-02 7.61424E-04-1.26455E-13
 -1      3175 1.35856E-02 7.85525E-04-1.32394E-13
 -1      3176 1.37285E-02 8.12653E-04-1.34770E-13
 -1      3177 1.37836E-02 8.49699E-04-1.35091E-13
 -1      3178 1.35391E-02 8.08608E-04-1.30902E-13
 -1      3179 2.11278E-03 3.75973E-04-3.71185E-15
 -1      3180 1.96941E-03 3.70863E-04-3.23206E-15
 -1      3181 3.25735E-03 3.70193E-04-8.76676E-15
 -1      3182 3.11450E-03 3.73967E-04-8.01786E-15
 -1      3183 2.97161E-03 3.77140E-04-7.30203E-15
 -1      3184 2.82862E-03 3.79624E-04-6.61995E-15
 -1      3185 3.03302E-03 3.40528E-04-7.79499E-15
 -1      3186 3.82762E-03 3.52506E-04-1.20851E-14
 -1      3187 3.68520E-03 3.57003E-04-1.12073E-14
 -1      3188 4.11204E-03 3.44697E-04-1.39372E-14
 -1      3189 3.96985E-03 3.48352E-04-1.29953E-14
 -1      3190 3.88091E-03 3.16909E-04-1.27086E-14
 -1      3191 4.39614E-03 3.40250E-04-1.59163E-14
 -1      3192 4.25405E-03 3.41918E-04-1.49106E-14
 -1      3193 4.16024E-03 3.10116E-04-1.46017E-14
 -1      3194 4.68068E-03 3.42023E-04-1.80220E-14
 -1      3195 4.53822E-03 3.40155E-04-1.69537E-14
 -1      3196 4.43776E-03 3.06826E-04-1.66227E-14
 -1      3197 4.96756E-03 3.53885E-04-2.02502E-14
 -1      3198 4.82357E-03 3.46369E-04-1.91209E-14
 -1      3199 4.71410E-03 3.09573E-04-1.87679E-14
 -1      3200 5.26082E-03 3.81242E-04-2.25959E-14
 -1      3201 5.11293E-03 3.65055E-04-2.14085E-14
 -1      3202 4.99118E-03 3.21653E-04-2.10339E-14
 -1      3203 5.56793E-03 4.32265E-04-2.50606E-14
 -1      3204 5.41195E-03 4.02803E-04-2.38136E-14
 -1      3205 5.27345E-03 3.47812E-04-2.34185E-14
 -1      3206 5.90074E-03 5.20088E-04-2.76386E-14
 -1      3207 5.73035E-03 4.69782E-04-2.63344E-14
 -1      3208 5.56972E-03 3.96024E-04-2.59164E-14
 -1      3209 9.70916E-03 7.49236E-04-5.84214E-14
 -1      3210 9.54220E-03 7.65310E-04-5.64902E-14
 -1      3211 1.00245E-02 7.46420E-04-6.23559E-14
 -1      3212 9.86949E-03 7.44138E-04-6.03777E-14
 -1      3213 9.83650E-03 6.95130E-04-5.97069E-14
 -1      3214 1.03240E-02 7.70017E-04-6.63761E-14
 -1      3215 1.01756E-02 7.55720E-04-6.43548E-14
 -1      3216 1.01325E-02 7.08740E-04-6.36691E-14
 -1      3217 1.06154E-02 8.10992E-04-7.04791E-14
 -1      3218 1.04703E-02 7.88787E-04-6.84176E-14
 -1      3219 1.04169E-02 7.42350E-04-6.77171E-14
 -1      3220 1.09033E-02 8.63357E-04-7.46608E-14
 -1      3221 1.07596E-02 8.36039E-04-7.25606E-14
 -1      3222 1.06969E-02 7.89030E-04-7.18461E-14
 -1      3223 1.11900E-02 9.22881E-04-7.89129E-14
 -1      3224 1.10467E-02 8.92416E-04-7.67767E-14
 -1      3225 1.09762E-02 8.44358E-04-7.60486E-14
 -1      3226 1.14764E-02 9.86563E-04-8.32386E-14
 -1      3227 1.13332E-02 9.54334E-04-8.10686E-14
 -1      3228 1.12563E-02 9.05176E-04-8.03235E-14
 -1      3229 1.17628E-02 1.05231E-03-8.76277E-14
 -1      3230 1.16196E-02 1.01927E-03-8.54255E-14
 -1      3231 1.15376E-02 9.69171E-04-8.46670E-14
 -1      3232 1.20493E-02 1.11874E-03-9.20801E-14
 -1      3233 1.19061E-02 1.08550E-03-8.98470E-14
 -1      3234 1.18202E-02 1.03469E-03-8.90747E-14
 -1      3235 1.23359E-02 1.18494E-03-9.65828E-14
 -1      3236 1.21926E-02 1.15190E-03-9.43257E-14
 -1      3237 1.21037E-02 1.10061E-03-9.35404E-14
 -1      3238 1.26224E-02 1.25042E-03-1.01129E-13
 -1      3239 1.24791E-02 1.21779E-03-9.88515E-14
 -1      3240 1.23880E-02 1.16620E-03-9.80540E-14
 -1      3241 1.29088E-02 1.31490E-03-1.05706E-13
 -1      3242 1.27656E-02 1.28280E-03-1.03414E-13
 -1      3243 1.26729E-02 1.23104E-03-1.02607E-13
 -1      3244 1.31952E-02 1.37830E-03-1.10312E-13
 -1      3245 1.30520E-02 1.34674E-03-1.08005E-13
 -1      3246 1.29581E-02 1.29491E-03-1.07192E-13
 -1      3247 1.34814E-02 1.44062E-03-1.14932E-13
 -1      3248 1.33383E-02 1.40959E-03-1.12621E-13
 -1      3249 1.32435E-02 1.35776E-03-1.11799E-13
 -1      3250 1.37675E-02 1.50194E-03-1.19565E-13
 -1      3251 1.36244E-02 1.47140E-03-1.17247E-13
 -1      3252 1.35291E-02 1.41961E-03-1.16424E-13
 -1      3253 1.40535E-02 1.56237E-03-1.24215E-13
 -1      3254 1.39105E-02 1.53226E-03-1.21890E-13
 -1      3255 1.38147E-02 1.48053E-03-1.21064E-13
 -1      3256 1.40191E-02 1.10636E-03-1.34146E-13
 -1      3257 1.40467E-02 1.14681E-03-1.33786E-13
 -1      3258 1.40747E-02 1.18793E-03-1.33416E-13
 -1      3259 1.41026E-02 1.22903E-03-1.33042E-13
 -1      3260 1.39378E-02 1.14327E-03-1.31557E-13
 -1      3261 6.55982E-03-4.07505E-04-3.65087E-14
 -1      3262 6.35184E-03-2.98156E-04-3.50849E-14
 -1      3263 6.39994E-03 7.24473E-04-3.11960E-14
 -1      3264 9.95233E-03 4.42729E-04-5.89883E-14
 -1      3265 9.89571E-03 4.29584E-04-5.89807E-14
 -1      3266 1.44524E-03-3.02609E-04-2.42686E-15
 -1      3267 1.58871E-03-3.15224E-04-2.87194E-15
 -1      3268 1.65222E-03-2.86856E-04-3.11161E-15
 -1      3269 7.17627E-03-6.69680E-04-4.18466E-14
 -1      3270 7.02588E-03-6.25982E-04-4.03661E-14
 -1      3271 9.48392E-03 3.06763E-04-5.78784E-14
 -1      3272 9.33399E-03 2.48492E-04-5.74045E-14
 -1      3273 9.51885E-03 6.21021E-04-5.47808E-14
 -1      3274 9.66249E-03 5.60217E-04-5.57315E-14
 -1      3275 9.32689E-04-2.14744E-04-1.15098E-15
 -1      3276 1.82600E-03 3.63763E-04-2.78658E-15
 -1      3277 1.68252E-03 3.54512E-04-2.37530E-15
 -1      3278 1.88867E-03 3.32602E-04-3.09365E-15
 -1      3279 9.15623E-03 1.66229E-04-5.69590E-14
 -1      3280 8.96320E-03 6.77593E-05-5.62317E-14
 -1      3281 1.39628E-02 1.02391E-03-1.34876E-13
 -1      3282 1.39910E-02 1.06517E-03-1.34512E-13
 -1      3283 1.38816E-02 1.06125E-03-1.32287E-13
 -1      3284 1.39065E-02 9.41138E-04-1.35597E-13
 -1      3285 1.39347E-02 9.82568E-04-1.35238E-13
 -1      3286 1.38251E-02 9.78967E-04-1.33009E-13
 -1      3287 1.44286E-02 1.57970E-03-1.31751E-13
 -1      3288 3.54272E-03 3.61546E-04-1.03614E-14
 -1      3289 3.40006E-03 3.66022E-04-9.54754E-15
 -1      3290 3.31704E-03 3.33530E-04-9.30350E-15
 -1      3291 3.59976E-03 3.25232E-04-1.09417E-14
 -1      3292 1.08233E-03-2.46895E-04-1.47442E-15
 -1      3293 1.29318E-03-2.75944E-04-2.00499E-15
 -1      3294 1.35715E-03-2.52245E-04-2.20767E-15
 -1      3295 1.05692E-03-1.99477E-04-1.44462E-15
 -1      3296 5.97889E-03 4.92958E-04-2.97290E-14
 -1      3297 6.18278E-03 5.97714E-04-3.04385E-14
 -1      3298 9.96231E-03 4.67634E-04-5.84773E-14
 -1      3299 9.97681E-03 4.56965E-04-5.88017E-14
 -1      3300 1.01550E-03 6.57585E-05-1.25856E-15
 -1      3301 1.01417E-03 3.97452E-05-1.28319E-15
 -1      3302 6.12938E-03-1.85131E-04-3.37124E-14
 -1      3303 5.97643E-03-1.07649E-04-3.28816E-14
 -1      3304 9.78961E-03 5.17314E-04-5.67374E-14
 -1      3305 9.89434E-03 4.91847E-04-5.77461E-14
 -1      3306 9.78747E-03 5.56128E-04-5.74820E-14
 -1      3307 9.79235E-03 4.03343E-04-5.86406E-14
 -1      3308 9.65513E-03 3.65769E-04-5.82983E-14
 -1      3309 9.88128E-03 4.21351E-04-6.00043E-14
 -1      3310 1.14593E-03 3.02410E-04-1.12353E-15
 -1      3311 1.08314E-03 2.64324E-04-1.07404E-15
 -1      3312 1.20212E-03 2.64717E-04-1.34030E-15
 -1      3313 1.28921E-03 3.22768E-04-1.40487E-15
 -1      3314 5.49061E-03 8.21962E-05-3.02788E-14
 -1      3315 5.36058E-03 1.21984E-04-2.96194E-14
 -1      3316 5.24526E-03 1.58145E-04-2.90198E-14
 -1      3317 5.18987E-03 1.76383E-04-2.86993E-14
 -1      3318 6.86259E-03-5.61445E-04-3.88988E-14
 -1      3319 6.73604E-03-4.98565E-04-3.78420E-14
 -1      3320 5.81841E-03-3.76163E-05-3.20286E-14
 -1      3321 5.66344E-03 2.08088E-05-3.11866E-14
 -1      3322 5.84694E-03-9.09161E-05-3.17732E-14
 -1      3323 8.70471E-03-7.42961E-05-5.49474E-14
 -1      3324 8.47645E-03-2.10159E-04-5.35906E-14
 -1      3325 8.27993E-03-3.30577E-04-5.23275E-14
 -1      3326 8.15811E-03-4.04345E-04-5.14009E-14
 -1      3327 9.11011E-03 8.12150E-04-5.17307E-14
 -1      3328 9.30117E-03 7.19584E-04-5.31843E-14
 -1      3329 6.25852E-03 6.64821E-04-3.00449E-14
 -1      3330 1.15314E-03 2.04808E-04-1.35312E-15
 -1      3331 1.02840E-03 1.75500E-04-1.13001E-15
 -1      3332 1.02391E-03 1.46848E-04-1.16720E-15
 -1      3333 6.91521E-03-6.08212E-04-3.94357E-14
 -1      3334 1.04727E-03-1.40803E-04-1.44012E-15
 -1      3335 1.05154E-03-1.69618E-04-1.44412E-15
 -1      3336 1.19998E-03-1.94106E-04-1.80552E-15
 -1      3337 7.22809E-03-7.30097E-04-4.30193E-14
 -1      3338 7.38646E-03-7.27780E-04-4.47273E-14
 -1      3339 7.47803E-03-6.99562E-04-4.54061E-14
 -1      3340 7.15546E-03-6.99673E-04-4.20027E-14
 -1      3341 8.86988E-03-5.99174E-06-5.66108E-14
 -1      3342 5.16006E-03 1.97342E-04-2.73081E-14
 -1      3343 5.22589E-03 2.09725E-04-2.81140E-14
 -1      3344 5.24801E-03 2.18967E-04-2.77085E-14
 -1      3345 2.74797E-03 3.45101E-04-6.41852E-15
 -1      3346 2.68559E-03 3.81222E-04-5.97099E-15
 -1      3347 2.54247E-03 3.81843E-04-5.35527E-15
 -1      3348 6.06803E-03 5.84652E-04-2.86875E-14
 -1      3349 5.88505E-03 4.85370E-04-2.82466E-14
 -1      3350 5.81557E-03 4.30988E-04-2.86656E-14
 -1      3351 9.47667E-03 7.31350E-04-5.54854E-14
 -1      3352 9.32559E-03 8.12778E-04-5.42377E-14
 -1      3353 1.04127E-03-8.54658E-05-1.42215E-15
 -1      3354 1.04384E-03-1.12767E-04-1.43260E-15
 -1      3355 1.19058E-03-1.31971E-04-1.79265E-15
 -1      3356 6.20973E-03-2.62716E-04-3.39670E-14
 -1      3357 1.43005E-02 1.62624E-03-1.27948E-13
 -1      3358 1.41859E-02 1.35211E-03-1.31924E-13
 -1      3359 1.42136E-02 1.39335E-03-1.31549E-13
 -1      3360 5.14310E-03 1.75259E-04-2.78419E-14
 -1      3361 2.39931E-03 3.81271E-04-4.77336E-15
 -1      3362 2.25607E-03 3.79398E-04-4.22568E-15
 -1      3363 2.46211E-03 3.46142E-04-5.17517E-15
 -1      3364 1.42412E-02 1.43431E-03-1.31174E-13
 -1      3365 1.42687E-02 1.47536E-03-1.30798E-13
 -1      3366 1.41039E-02 1.38834E-03-1.29338E-13
 -1      3367 6.58956E-03-4.58775E-04-3.66531E-14
 -1      3368 1.41304E-02 1.26997E-03-1.32674E-13
 -1      3369 1.41582E-02 1.31110E-03-1.32298E-13
 -1      3370 1.40489E-02 1.30665E-03-1.30082E-13
 -1      3371 1.39936E-02 1.22501E-03-1.30822E-13
 -1      3372 1.00092E-02 4.59044E-04-6.01603E-14
 -1      3373 9.28289E-03 2.05741E-04-5.83620E-14
 -1      3374 9.61726E-03 3.42460E-04-5.92380E-14
 -1      3375 1.01348E-03 1.40764E-05-1.30511E-15
 -1      3376 1.01344E-03-1.14921E-05-1.32475E-15
 -1      3377 1.13363E-03 2.91522E-05-1.56757E-15
 -1      3378 8.98394E-03 8.94838E-04-5.08564E-14
 -1      3379 9.13808E-03 8.59707E-04-5.23627E-14
 -1      3380 1.43165E-02 1.57721E-03-1.29435E-13
 -1      3381 1.41657E-02 1.56523E-03-1.26523E-13
 -1      3382 1.40698E-02 1.51365E-03-1.25695E-13
 -1      3383 1.42941E-02 1.51907E-03-1.30318E-13
 -1      3384 5.68835E-03 3.83530E-04-2.80707E-14
 -1      3385 8.81832E-03 9.88968E-04-4.95166E-14
 -1      3386 8.43605E-03-2.60096E-04-5.40379E-14
 -1      3387 9.46457E-03 6.82807E-04-5.48517E-14
 -1      3388 1.02029E-03 1.19079E-04-1.20081E-15
 -1      3389 1.01754E-03 9.21584E-05-1.23122E-15
 -1      3390 1.13669E-03 8.52275E-05-1.51005E-15
 -1      3391 1.14300E-03 1.43372E-04-1.43929E-15
 -1      3392 1.55757E-03 3.48260E-04-2.03343E-15
 -1      3393 1.41407E-03 3.34029E-04-1.68757E-15
 -1      3394 1.36996E-03 3.04575E-04-1.65358E-15
 -1      3395 1.62000E-03 3.20188E-04-2.29568E-15
 -1      3396 5.25288E-03 1.29045E-04-2.85587E-14
 -1      3397 9.97532E-03 4.92935E-04-5.92362E-14
 -1      3398 5.46625E-03 2.76024E-04-2.87268E-14
 -1      3399 5.52034E-03 3.03216E-04-2.82807E-14
 -1      3400 5.37564E-03 2.54867E-04-2.80759E-14
 -1      3401 8.00834E-03-4.95802E-04-5.04137E-14
 -1      3402 7.81461E-03-5.94031E-04-4.86816E-14
 -1      3403 2.17560E-03 3.42444E-04-4.06646E-15
 -1      3404 7.64534E-03-6.52182E-04-4.68992E-14
 -1      3405 7.47974E-03-6.86272E-04-4.51505E-14
 -1      3406 5.52952E-03 3.62802E-05-3.00363E-14
 -1      3407 7.30480E-03-6.92308E-04-4.32389E-14
 -1      3408 1.38175E-02 8.76943E-04-1.35184E-13
 -1      3409 1.38727E-02 9.13938E-04-1.35503E-13
 -1      3410 1.37630E-02 9.10576E-04-1.33273E-13
 -1      3411 1.36952E-02 8.56284E-04-1.33087E-13
 -1      3412 5.85082E-03-1.48282E-04-3.13522E-14
 -1      3413 5.71227E-03-8.76698E-05-3.05243E-14
 -1      3414 8.61147E-03 1.07663E-03-4.77203E-14
 -1      3415 6.24979E-03-3.34042E-04-3.39985E-14
 -1      3416 6.05089E-03-2.35386E-04-3.26517E-14
 -1      3417 9.04598E-03 5.49388E-05-5.86677E-14
 -1      3418 8.81501E-03-7.10946E-05-5.73569E-14
 -1      3419 2.14723E-03-2.73470E-04-5.00460E-15
 -1      3420 2.29072E-03-2.75783E-04-5.62471E-15
 -1      3421 2.43405E-03-2.76942E-04-6.27946E-15
 -1      3422 2.57723E-03-2.77033E-04-6.96947E-15
 -1      3423 2.35528E-03-2.41584E-04-5.93011E-15
 -1      3424 2.72021E-03-2.76240E-04-7.69283E-15
 -1      3425 2.86299E-03-2.74634E-04-8.45011E-15
 -1      3426 2.64124E-03-2.41646E-04-7.30199E-15
 -1      3427 3.00555E-03-2.72381E-04-9.24140E-15
 -1      3428 3.14791E-03-2.69543E-04-1.00663E-14
 -1      3429 2.92612E-03-2.38520E-04-8.80956E-15
 -1      3430 3.29006E-03-2.66275E-04-1.09240E-14
 -1      3431 3.43208E-03-2.62647E-04-1.18140E-14
 -1      3432 3.20977E-03-2.32995E-04-1.04510E-14
 -1      3433 3.57396E-03-2.58807E-04-1.27368E-14
 -1      3434 3.71582E-03-2.54850E-04-1.36919E-14
 -1      3435 3.49223E-03-2.25801E-04-1.22232E-14
 -1      3436 3.85771E-03-2.50924E-04-1.46781E-14
 -1      3437 3.99979E-03-2.47173E-04-1.56959E-14
 -1      3438 3.77380E-03-2.17679E-04-1.41231E-14
 -1      3439 4.14218E-03-2.43750E-04-1.67457E-14
 -1      3440 4.28511E-03-2.40884E-04-1.78267E-14
 -1      3441 4.05516E-03-2.09472E-04-1.61505E-14
 -1      3442 4.42877E-03-2.38732E-04-1.89379E-14
 -1      3443 4.57353E-03-2.37672E-04-2.00796E-14
 -1      3444 4.33751E-03-2.02257E-04-1.83018E-14
 -1      3445 4.71969E-03-2.37862E-04-2.12525E-14
 -1      3446 4.86771E-03-2.39933E-04-2.24573E-14
 -1      3447 4.62284E-03-1.97546E-04-2.05755E-14
 -1      3448 5.01808E-03-2.44032E-04-2.36916E-14
 -1      3449 5.17127E-03-2.51194E-04-2.49565E-14
 -1      3450 4.91422E-03-1.97666E-04-2.29722E-14
 -1      3451 5.32804E-03-2.61532E-04-2.62530E-14
 -1      3452 5.48864E-03-2.76663E-04-2.75809E-14
 -1      3453 5.21601E-03-2.06459E-04-2.54912E-14
 -1      3454 6.01785E-03-3.53298E-04-3.19245E-14
 -1      3455 6.19717E-03-3.96116E-04-3.33824E-14
 -1      3456 8.82595E-03-1.25574E-04-5.88812E-14
 -1      3457 9.00222E-03-6.04313E-05-6.08451E-14
 -1      3458 9.17448E-03-3.82959E-06-6.28284E-14
 -1      3459 9.34063E-03 4.66019E-05-6.48346E-14
 -1      3460 9.16802E-03 4.76555E-05-6.13885E-14
 -1      3461 9.50234E-03 9.06055E-05-6.68622E-14
 -1      3462 9.65934E-03 1.30592E-04-6.89092E-14
 -1      3463 9.49709E-03 1.39273E-04-6.53872E-14
 -1      3464 9.81273E-03 1.66397E-04-7.09777E-14
 -1      3465 9.96289E-03 1.99704E-04-7.30629E-14
 -1      3466 9.80454E-03 2.10322E-04-6.94712E-14
 -1      3467 1.01105E-02 2.30443E-04-7.51635E-14
 -1      3468 1.02561E-02 2.59631E-04-7.72821E-14
 -1      3469 1.00975E-02 2.69920E-04-7.36300E-14
 -1      3470 1.04001E-02 2.87307E-04-7.94179E-14
 -1      3471 1.05429E-02 3.14053E-04-8.15702E-14
 -1      3472 1.03817E-02 3.23469E-04-7.78587E-14
 -1      3473 1.06848E-02 3.39952E-04-8.37360E-14
 -1      3474 1.08262E-02 3.65330E-04-8.59150E-14
 -1      3475 1.06613E-02 3.73970E-04-8.21523E-14
 -1      3476 1.09671E-02 3.90284E-04-8.81094E-14
 -1      3477 1.11078E-02 4.14991E-04-9.03198E-14
 -1      3478 1.09389E-02 4.23090E-04-8.65054E-14
 -1      3479 1.12484E-02 4.39549E-04-9.25447E-14
 -1      3480 1.13890E-02 4.64044E-04-9.47797E-14
 -1      3481 1.12162E-02 4.71806E-04-9.09169E-14
 -1      3482 1.15296E-02 4.88565E-04-9.70256E-14
 -1      3483 1.16703E-02 5.13149E-04-9.92832E-14
 -1      3484 1.14939E-02 5.20705E-04-9.53820E-14
 -1      3485 1.18111E-02 5.37864E-04-1.01553E-13
 -1      3486 1.19521E-02 5.62721E-04-1.03833E-13
 -1      3487 1.17727E-02 5.70139E-04-9.98918E-14
 -1      3488 1.20933E-02 5.87768E-04-1.06124E-13
 -1      3489 1.22346E-02 6.13001E-04-1.08425E-13
 -1      3490 1.20526E-02 6.20305E-04-1.04448E-13
 -1      3491 1.23761E-02 6.38451E-04-1.10730E-13
 -1      3492 1.25178E-02 6.64105E-04-1.13043E-13
 -1      3493 1.23336E-02 6.71296E-04-1.09040E-13
 -1      3494 1.26596E-02 6.89981E-04-1.15367E-13
 -1      3495 1.28015E-02 7.16060E-04-1.17694E-13
 -1      3496 1.26156E-02 7.23131E-04-1.13661E-13
 -1      3497 1.29436E-02 7.42350E-04-1.20028E-13
 -1      3498 1.30858E-02 7.68835E-04-1.22368E-13
 -1      3499 1.28986E-02 7.75775E-04-1.18306E-13
 -1      3500 1.32281E-02 7.95511E-04-1.24713E-13
 -1      3501 1.33704E-02 8.22362E-04-1.27066E-13
 -1      3502 1.31822E-02 8.29169E-04-1.22978E-13
 -1      3503 5.55200E-03-1.77441E-05-2.96341E-14
 -1      3504 5.39781E-03 3.76928E-05-2.87557E-14
 -1      3505 5.55855E-03-7.35443E-05-2.92264E-14
 -1      3506 4.20631E-03 2.77324E-04-1.52730E-14
 -1      3507 4.06980E-03 2.79783E-04-1.42898E-14
 -1      3508 3.93253E-03 2.82826E-04-1.33381E-14
 -1      3509 3.79439E-03 2.86378E-04-1.24176E-14
 -1      3510 3.98276E-03 2.50347E-04-1.39740E-14
 -1      3511 4.74389E-03 2.79142E-04-1.95194E-14
 -1      3512 4.61051E-03 2.76425E-04-1.84118E-14
 -1      3513 5.00958E-03 2.91241E-04-2.18239E-14
 -1      3514 4.87658E-03 2.83938E-04-2.06573E-14
 -1      3515 4.77037E-03 2.50688E-04-2.02762E-14
 -1      3516 5.27785E-03 3.15492E-04-2.42448E-14
 -1      3517 5.14270E-03 3.01359E-04-2.30193E-14
 -1      3518 5.02286E-03 2.62338E-04-2.26187E-14
 -1      3519 1.38007E-02 1.09843E-03-1.29705E-13
 -1      3520 1.38288E-02 1.13923E-03-1.29342E-13
 -1      3521 1.05034E-02 7.19681E-04-6.90613E-14
 -1      3522 1.03685E-02 6.97718E-04-6.70134E-14
 -1      3523 9.79231E-03 5.96105E-04-5.81759E-14
 -1      3524 9.90172E-03 5.59038E-04-5.91999E-14
 -1      3525 9.94494E-03 6.47657E-04-6.07887E-14
 -1      3526 9.80207E-03 6.43033E-04-5.88272E-14
 -1      3527 1.07732E-02 7.70375E-04-7.32169E-14
 -1      3528 1.06380E-02 7.44041E-04-7.11295E-14
 -1      3529 1.05824E-02 7.01029E-04-7.04109E-14
 -1      3530 1.10450E-02 8.27557E-04-7.74408E-14
 -1      3531 1.09087E-02 7.98282E-04-7.53205E-14
 -1      3532 1.08438E-02 7.54199E-04-7.45888E-14
 -1      3533 1.13195E-02 8.88946E-04-8.17376E-14
 -1      3534 1.11819E-02 8.57817E-04-7.95802E-14
 -1      3535 1.11095E-02 8.12297E-04-7.88376E-14
 -1      3536 1.15966E-02 9.52780E-04-8.60980E-14
 -1      3537 1.14577E-02 9.20624E-04-8.39111E-14
 -1      3538 1.13796E-02 8.73683E-04-8.31519E-14
 -1      3539 1.18759E-02 1.01775E-03-9.05221E-14
 -1      3540 1.17360E-02 9.85169E-04-8.83028E-14
 -1      3541 1.16532E-02 9.36998E-04-8.75294E-14
 -1      3542 1.21570E-02 1.08294E-03-9.49988E-14
 -1      3543 1.20162E-02 1.05035E-03-9.27540E-14
 -1      3544 1.19299E-02 1.00119E-03-9.19677E-14
 -1      3545 1.24394E-02 1.14776E-03-9.95241E-14
 -1      3546 1.22980E-02 1.11542E-03-9.72573E-14
 -1      3547 1.22090E-02 1.06552E-03-9.64592E-14
 -1      3548 1.27228E-02 1.21186E-03-1.04085E-13
 -1      3549 1.25810E-02 1.17991E-03-1.01802E-13
 -1      3550 1.24899E-02 1.12948E-03-1.00992E-13
 -1      3551 1.30070E-02 1.27506E-03-1.08675E-13
 -1      3552 1.28648E-02 1.24357E-03-1.06376E-13
 -1      3553 1.27722E-02 1.19276E-03-1.05562E-13
 -1      3554 1.32916E-02 1.33731E-03-1.13289E-13
 -1      3555 1.31492E-02 1.30630E-03-1.10979E-13
 -1      3556 1.30555E-02 1.25524E-03-1.10159E-13
 -1      3557 1.35767E-02 1.39865E-03-1.17914E-13
 -1      3558 1.34341E-02 1.36809E-03-1.15601E-13
 -1      3559 1.33395E-02 1.31687E-03-1.14776E-13
 -1      3560 1.38620E-02 1.45914E-03-1.22560E-13
 -1      3561 1.37193E-02 1.42899E-03-1.20234E-13
 -1      3562 1.36241E-02 1.37768E-03-1.19409E-13
 -1      3563 1.36877E-02 9.34551E-04-1.31139E-13
 -1      3564 1.37160E-02 9.75658E-04-1.30783E-13
 -1      3565 5.08630E-03 1.56540E-04-2.68616E-14
 -1      3566 5.08696E-03 1.73691E-04-2.67341E-14
 -1      3567 1.00740E-02 4.77392E-04-6.15375E-14
 -1      3568 1.00465E-02 4.61985E-04-6.17261E-14
 -1      3569 5.24569E-03 9.47845E-05-2.79281E-14
 -1      3570 5.14698E-03 1.28737E-04-2.73517E-14
 -1      3571 1.57325E-03-2.49174E-04-2.87582E-15
 -1      3572 1.71661E-03-2.57825E-04-3.35444E-15
 -1      3573 7.19595E-03-6.93341E-04-4.22885E-14
 -1      3574 1.95213E-03 3.01046E-04-3.41026E-15
 -1      3575 1.80859E-03 2.94751E-04-2.95131E-15
 -1      3576 9.73764E-03 3.69360E-04-6.07779E-14
 -1      3577 9.58586E-03 3.16055E-04-6.03493E-14
 -1      3578 1.37443E-02 1.01666E-03-1.30426E-13
 -1      3579 1.37725E-02 1.05758E-03-1.30067E-13
 -1      3580 1.36637E-02 1.05378E-03-1.27854E-13
 -1      3581 1.36071E-02 9.72265E-04-1.28565E-13
 -1      3582 5.53595E-03 3.26454E-04-2.75209E-14
 -1      3583 5.57617E-03 3.72326E-04-2.66697E-14
 -1      3584 5.43040E-03 3.45283E-04-2.53922E-14
 -1      3585 5.43171E-03 2.99006E-04-2.68826E-14
 -1      3586 4.47666E-03 2.75384E-04-1.73348E-14
 -1      3587 4.34185E-03 2.75821E-04-1.62881E-14
 -1      3588 4.25060E-03 2.46389E-04-1.59507E-14
 -1      3589 4.51321E-03 2.45954E-04-1.80521E-14
 -1      3590 3.09395E-03 3.04517E-04-8.29572E-15
 -1      3591 2.95228E-03 3.07240E-04-7.56816E-15
 -1      3592 9.43613E-03 2.49883E-04-6.01084E-14
 -1      3593 9.28199E-03 1.76480E-04-5.96511E-14
 -1      3594 8.10636E-03-4.64363E-04-5.17643E-14
 -1      3595 1.02333E-02 6.78464E-04-6.49880E-14
 -1      3596 1.00965E-02 6.62952E-04-6.29820E-14
 -1      3597 1.03248E-02 6.54648E-04-6.63107E-14
 -1      3598 9.66498E-03 6.51034E-04-5.71134E-14
 -1      3599 2.23895E-03 3.08752E-04-4.43024E-15
 -1      3600 2.09559E-03 3.05673E-04-3.90345E-15
 -1      3601 2.01621E-03 2.69167E-04-3.73664E-15
 -1      3602 1.86010E-03-2.64654E-04-3.86902E-15
 -1      3603 2.00369E-03-2.69798E-04-4.41936E-15
 -1      3604 2.06858E-03-2.37426E-04-4.69535E-15
 -1      3605 9.96552E-03 4.36234E-04-6.15188E-14
 -1      3606 9.86625E-03 4.09459E-04-6.11729E-14
 -1      3607 1.02615E-03-3.48718E-05-1.36783E-15
 -1      3608 1.02733E-03-6.09474E-05-1.38278E-15
 -1      3609 1.17279E-03-7.52308E-05-1.73608E-15
 -1      3610 1.14577E-03-2.35823E-05-1.64163E-15
 -1      3611 9.99884E-03 5.20618E-04-6.01507E-14
 -1      3612 1.00561E-02 4.97172E-04-6.08922E-14
 -1      3613 8.28585E-03-3.80093E-04-5.36297E-14
 -1      3614 6.36044E-03-4.25977E-04-3.47266E-14
 -1      3615 8.64483E-03-1.92281E-04-5.68241E-14
 -1      3616 7.02910E-03-6.65661E-04-4.06342E-14
 -1      3617 8.46024E-03-2.74413E-04-5.49117E-14
 -1      3618 5.83483E-03-3.19543E-04-3.04380E-14
 -1      3619 5.90112E-03-2.69086E-04-3.11770E-14
 -1      3620 5.66477E-03-2.92387E-04-2.90461E-14
 -1      3621 5.25813E-03 5.12790E-05-2.75438E-14
 -1      3622 6.54566E-03-4.83562E-04-3.62478E-14
 -1      3623 6.70154E-03-5.59370E-04-3.75743E-14
 -1      3624 6.87929E-03-6.13355E-04-3.91617E-14
 -1      3625 5.07924E-03 1.80564E-04-2.63421E-14
 -1      3626 5.07907E-03 1.87994E-04-2.59505E-14
 -1      3627 5.00168E-03 1.63876E-04-2.53877E-14
 -1      3628 1.34515E-02 8.93650E-04-1.27119E-13
 -1      3629 1.34978E-02 8.59917E-04-1.28869E-13
 -1      3630 3.23515E-03 3.01340E-04-9.05535E-15
 -1      3631 3.15445E-03 2.69234E-04-8.80310E-15
 -1      3632 3.37587E-03 2.97763E-04-9.84740E-15
 -1      3633 2.81023E-03 3.09307E-04-6.87402E-15
 -1      3634 2.66782E-03 3.10656E-04-6.21326E-15
 -1      3635 2.87237E-03 2.73966E-04-7.33768E-15
 -1      3636 1.31063E-03-2.11137E-04-2.09903E-15
 -1      3637 1.46136E-03-2.33782E-04-2.53072E-15
 -1      3638 1.52679E-03-2.07387E-04-2.74653E-15
 -1      3639 1.30484E-03-1.78022E-04-2.09434E-15
 -1      3640 5.54367E-03-2.25222E-04-2.82384E-14
 -1      3641 1.30007E-03-1.45668E-04-2.08529E-15
 -1      3642 1.41025E-03-1.59144E-04-2.39957E-15
 -1      3643 1.29634E-03-1.14043E-04-2.07207E-15
 -1      3644 3.71031E-03 2.56331E-04-1.21222E-14
 -1      3645 3.65556E-03 2.90125E-04-1.15286E-14
 -1      3646 3.51601E-03 2.94006E-04-1.06717E-14
 -1      3647 5.28802E-03 2.93453E-04-2.49720E-14
 -1      3648 5.05490E-03 1.31676E-04-2.62568E-14
 -1      3649 1.00148E-02 5.53818E-04-6.08584E-14
 -1      3650 5.89913E-03-2.20915E-04-3.13757E-14
 -1      3651 1.39742E-02 1.46222E-03-1.24863E-13
 -1      3652 1.36070E-02 8.62812E-04-1.31091E-13
 -1      3653 9.84733E-03 3.90705E-04-6.23001E-14
 -1      3654 1.00567E-02 4.56097E-04-6.29107E-14
 -1      3655 2.52511E-03 3.11087E-04-5.58539E-15
 -1      3656 2.38213E-03 3.10524E-04-4.99107E-15
 -1      3657 2.30273E-03 2.74998E-04-4.80337E-15
 -1      3658 2.58829E-03 2.76225E-04-6.00404E-15
 -1      3659 1.39670E-02 1.34263E-03-1.27501E-13
 -1      3660 1.39944E-02 1.38334E-03-1.27129E-13
 -1      3661 1.38566E-02 1.17985E-03-1.28974E-13
 -1      3662 1.38843E-02 1.22047E-03-1.28609E-13
 -1      3663 1.37197E-02 1.13487E-03-1.27133E-13
 -1      3664 1.78171E-03-2.28135E-04-3.59997E-15
 -1      3665 1.27938E-03 2.34367E-04-1.59424E-15
 -1      3666 1.27273E-03 2.00969E-04-1.64814E-15
 -1      3667 1.41567E-02 1.47277E-03-1.28485E-13
 -1      3668 1.25499E-03 4.59495E-05-1.85195E-15
 -1      3669 1.25412E-03 1.63594E-05-1.88163E-15
 -1      3670 9.57905E-03 2.87932E-04-6.16578E-14
 -1      3671 1.25671E-03 7.58488E-05-1.81875E-15
 -1      3672 1.37747E-03 6.43003E-05-2.15690E-15
 -1      3673 1.25927E-03 1.06148E-04-1.78197E-15
 -1      3674 1.00558E-02 6.13797E-04-6.20831E-14
 -1      3675 1.01230E-02 5.00172E-04-6.24689E-14
 -1      3676 1.68340E-03 2.91500E-04-2.56789E-15
 -1      3677 1.55826E-03 2.86522E-04-2.21176E-15
 -1      3678 1.74756E-03 2.62191E-04-2.84996E-15
 -1      3679 5.27889E-03 2.34508E-04-2.72737E-14
 -1      3680 5.31368E-03 2.53809E-04-2.68381E-14
 -1      3681 5.19092E-03 2.19039E-04-2.64803E-14
 -1      3682 9.21393E-03 1.11601E-04-6.04180E-14
 -1      3683 1.39120E-02 1.26113E-03-1.28243E-13
 -1      3684 1.39395E-02 1.30184E-03-1.27873E-13
 -1      3685 1.38301E-02 1.29684E-03-1.25669E-13
 -1      3686 5.24295E-03 2.54537E-06-2.69232E-14
 -1      3687 5.11050E-03 5.57269E-05-2.61292E-14
 -1      3688 2.56310E-03-2.07253E-04-6.91801E-15
 -1      3689 2.70556E-03-2.06394E-04-7.63429E-15
 -1      3690 2.84764E-03-2.04871E-04-8.38492E-15
 -1      3691 2.98934E-03-2.02713E-04-9.16853E-15
 -1      3692 2.77017E-03-1.71362E-04-7.96650E-15
 -1      3693 3.13061E-03-2.00046E-04-9.98492E-15
 -1      3694 3.27147E-03-1.96889E-04-1.08346E-14
 -1      3695 3.05266E-03-1.67301E-04-9.52581E-15
 -1      3696 3.41189E-03-1.93359E-04-1.17162E-14
 -1      3697 3.55193E-03-1.89480E-04-1.26296E-14
 -1      3698 3.33304E-03-1.61306E-04-1.12160E-14
 -1      3699 3.69159E-03-1.85361E-04-1.35759E-14
 -1      3700 3.83098E-03-1.81046E-04-1.45529E-14
 -1      3701 3.61123E-03-1.53752E-04-1.30341E-14
 -1      3702 3.97014E-03-1.76639E-04-1.55609E-14
 -1      3703 4.10928E-03-1.72230E-04-1.66013E-14
 -1      3704 3.88740E-03-1.45004E-04-1.49790E-14
 -1      3705 4.24847E-03-1.67915E-04-1.76721E-14
 -1      3706 4.38806E-03-1.63887E-04-1.87731E-14
 -1      3707 4.16214E-03-1.35470E-04-1.70486E-14
 -1      3708 4.52820E-03-1.60225E-04-1.99049E-14
 -1      3709 4.66943E-03-1.57314E-04-2.10673E-14
 -1      3710 4.43667E-03-1.25749E-04-1.92413E-14
 -1      3711 4.81203E-03-1.55202E-04-2.22609E-14
 -1      3712 4.95680E-03-1.54730E-04-2.34849E-14
 -1      3713 4.71309E-03-1.16852E-04-2.15560E-14
 -1      3714 5.10415E-03-1.55865E-04-2.47385E-14
 -1      3715 5.25530E-03-1.60286E-04-2.60229E-14
 -1      3716 4.99505E-03-1.10833E-04-2.39937E-14
 -1      3717 1.33530E-02 8.96838E-04-1.24975E-13
 -1      3718 1.34800E-02 9.34464E-04-1.26770E-13
 -1      3719 1.35085E-02 9.75147E-04-1.26419E-13
 -1      3720 5.71846E-03-1.93432E-04-2.99119E-14
 -1      3721 9.48859E-03 1.73859E-04-6.41388E-14
 -1      3722 9.64296E-03 2.09742E-04-6.61555E-14
 -1      3723 9.79208E-03 2.40952E-04-6.81939E-14
 -1      3724 9.93758E-03 2.70001E-04-7.02531E-14
 -1      3725 9.78568E-03 2.73020E-04-6.69216E-14
 -1      3726 1.00800E-02 2.96802E-04-7.23300E-14
 -1      3727 1.02204E-02 3.22667E-04-7.44236E-14
 -1      3728 1.00665E-02 3.24127E-04-7.10327E-14
 -1      3729 1.03592E-02 3.47588E-04-7.65345E-14
 -1      3730 1.04970E-02 3.72116E-04-7.86650E-14
 -1      3731 1.03393E-02 3.71537E-04-7.52162E-14
 -1      3732 1.06342E-02 3.96297E-04-8.08091E-14
 -1      3733 1.07711E-02 4.20373E-04-8.29679E-14
 -1      3734 1.06089E-02 4.18131E-04-7.94672E-14
 -1      3735 1.09079E-02 4.44405E-04-8.51433E-14
 -1      3736 1.10447E-02 4.68481E-04-8.73321E-14
 -1      3737 1.08780E-02 4.65052E-04-8.37829E-14
 -1      3738 1.11818E-02 4.92667E-04-8.95351E-14
 -1      3739 1.13191E-02 5.16978E-04-9.17530E-14
 -1      3740 1.11482E-02 5.12788E-04-8.81570E-14
 -1      3741 1.14568E-02 5.41477E-04-9.39832E-14
 -1      3742 1.15948E-02 5.66146E-04-9.62252E-14
 -1      3743 1.14202E-02 5.61506E-04-9.25860E-14
 -1      3744 1.17332E-02 5.91039E-04-9.84792E-14
 -1      3745 1.18721E-02 6.16125E-04-1.00744E-13
 -1      3746 1.16943E-02 6.11240E-04-9.70667E-14
 -1      3747 1.20113E-02 6.41448E-04-1.03021E-13
 -1      3748 1.21509E-02 6.66970E-04-1.05308E-13
 -1      3749 1.19704E-02 6.61958E-04-1.01595E-13
 -1      3750 1.22909E-02 6.92724E-04-1.07601E-13
 -1      3751 1.24312E-02 7.18674E-04-1.09900E-13
 -1      3752 1.22484E-02 7.13600E-04-1.06163E-13
 -1      3753 1.25718E-02 7.44843E-04-1.12209E-13
 -1      3754 1.27127E-02 7.71197E-04-1.14525E-13
 -1      3755 1.25281E-02 7.66087E-04-1.10761E-13
 -1      3756 1.28538E-02 7.97750E-04-1.16846E-13
 -1      3757 1.29952E-02 8.24468E-04-1.19172E-13
 -1      3758 1.28093E-02 8.19336E-04-1.15387E-13
 -1      3759 1.31031E-02 8.47026E-04-1.20901E-13
 -1      3760 1.32449E-02 8.74046E-04-1.23238E-13
 -1      3761 1.32736E-02 9.14462E-04-1.22893E-13
 -1      3762 1.30580E-02 8.68855E-04-1.19433E-13
 -1      3763 5.51705E-03-1.05258E-04-2.86231E-14
 -1      3764 5.37594E-03-4.55939E-05-2.77676E-14
 -1      3765 5.20646E-03-2.85980E-05-2.63460E-14
 -1      3766 1.35730E-02 8.35725E-04-1.30995E-13
 -1      3767 5.03257E-03 2.36504E-04-2.34180E-14
 -1      3768 4.91457E-03 2.30063E-04-2.22138E-14
 -1      3769 4.79494E-03 2.24861E-04-2.10386E-14
 -1      3770 4.67269E-03 2.21272E-04-1.98914E-14
 -1      3771 4.81830E-03 2.01689E-04-2.18054E-14
 -1      3772 5.31849E-03 2.73900E-04-2.60970E-14
 -1      3773 1.06540E-02 6.85832E-04-7.17639E-14
 -1      3774 1.05291E-02 6.60497E-04-6.96908E-14
 -1      3775 1.14365E-02 8.59211E-04-8.45665E-14
 -1      3776 1.13025E-02 8.28463E-04-8.23922E-14
 -1      3777 1.17076E-02 9.21705E-04-8.89619E-14
 -1      3778 1.15715E-02 8.90287E-04-8.67570E-14
 -1      3779 1.14905E-02 8.45064E-04-8.59817E-14
 -1      3780 1.19823E-02 9.84939E-04-9.34132E-14
 -1      3781 1.18446E-02 9.53254E-04-9.11804E-14
 -1      3782 1.17598E-02 9.06559E-04-9.03930E-14
 -1      3783 1.22599E-02 1.04828E-03-9.79164E-14
 -1      3784 1.21208E-02 1.01661E-03-9.56586E-14
 -1      3785 1.20332E-02 9.68728E-04-9.48593E-14
 -1      3786 1.25396E-02 1.11129E-03-1.02460E-13
 -1      3787 1.23995E-02 1.07983E-03-1.00183E-13
 -1      3788 1.23096E-02 1.03102E-03-9.93717E-14
 -1      3789 1.28210E-02 1.17372E-03-1.07035E-13
 -1      3790 1.26801E-02 1.14258E-03-1.04743E-13
 -1      3791 1.25885E-02 1.09306E-03-1.03925E-13
 -1      3792 1.31036E-02 1.23544E-03-1.11642E-13
 -1      3793 1.29622E-02 1.20467E-03-1.09336E-13
 -1      3794 1.28692E-02 1.15461E-03-1.08511E-13
 -1      3795 1.33872E-02 1.29643E-03-1.16263E-13
 -1      3796 1.32453E-02 1.26603E-03-1.13951E-13
 -1      3797 1.31514E-02 1.21558E-03-1.13124E-13
 -1      3798 1.36714E-02 1.35670E-03-1.20898E-13
 -1      3799 1.35292E-02 1.32665E-03-1.18578E-13
 -1      3800 1.34346E-02 1.27592E-03-1.17749E-13
 -1      3801 5.00483E-03 1.01065E-04-2.54201E-14
 -1      3802 4.95385E-03 1.30688E-04-2.49511E-14
 -1      3803 9.95529E-03 4.11047E-04-6.38535E-14
 -1      3804 9.83598E-03 3.70821E-04-6.34495E-14
 -1      3805 1.01395E-02 5.76088E-04-6.30535E-14
 -1      3806 1.32670E-03 2.75921E-04-1.61598E-15
 -1      3807 1.44622E-03 2.70211E-04-1.94263E-15
 -1      3808 1.52099E-03-1.72271E-04-2.73604E-15
 -1      3809 1.63220E-03-1.85007E-04-3.09407E-15
 -1      3810 1.51630E-03-1.37845E-04-2.72090E-15
 -1      3811 1.99083E-03-2.01896E-04-4.39300E-15
 -1      3812 2.13413E-03-2.04741E-04-4.97291E-15
 -1      3813 9.66983E-03 2.95927E-04-6.33968E-14
 -1      3814 9.53894E-03 2.33040E-04-6.31465E-14
 -1      3815 1.11699E-02 7.98319E-04-8.02321E-14
 -1      3816 1.10385E-02 7.68756E-04-7.80892E-14
 -1      3817 1.12262E-02 7.84982E-04-8.16299E-14
 -1      3818 1.39490E-02 1.41878E-03-1.25341E-13
 -1      3819 5.52607E-03-1.52159E-04-2.84333E-14
 -1      3820 1.38803E-03 4.88327E-06-2.25709E-15
 -1      3821 1.26644E-03-1.02486E-05-1.93842E-15
 -1      3822 1.27942E-03-3.72217E-05-1.99363E-15
 -1      3823 1.26720E-03 1.68560E-04-1.69678E-15
 -1      3824 1.26276E-03 1.36976E-04-1.74142E-15
 -1      3825 1.38309E-03 1.28120E-04-2.07358E-15
 -1      3826 1.39272E-03 1.94309E-04-1.97309E-15
 -1      3827 5.18650E-03 2.52313E-04-2.49342E-14
 -1      3828 1.09087E-02 7.40117E-04-7.59642E-14
 -1      3829 1.07804E-02 7.12344E-04-7.38566E-14
 -1      3830 1.07181E-02 6.72744E-04-7.31203E-14
 -1      3831 4.03234E-03 2.19579E-04-1.46163E-14
 -1      3832 3.89911E-03 2.21603E-04-1.36541E-14
 -1      3833 1.04064E-02 6.36729E-04-6.76380E-14
 -1      3834 1.02850E-02 6.14390E-04-6.56059E-14
 -1      3835 1.04773E-02 6.22492E-04-6.89707E-14
 -1      3836 9.37870E-03 1.58050E-04-6.23959E-14
 -1      3837 1.73978E-03-1.91771E-04-3.46043E-15
 -1      3838 1.88299E-03-1.96735E-04-3.97932E-15
 -1      3839 1.94951E-03-1.65562E-04-4.23233E-15
 -1      3840 1.73437E-03-1.55360E-04-3.44253E-15
 -1      3841 2.27732E-03-2.06523E-04-5.58687E-15
 -1      3842 2.42035E-03-2.07311E-04-6.23548E-15
 -1      3843 2.20026E-03-1.71797E-04-5.25102E-15
 -1      3844 1.38121E-02 1.37268E-03-1.23514E-13
 -1      3845 1.02198E-02 5.59891E-04-6.43526E-14
 -1      3846 1.01507E-02 4.76250E-04-6.45093E-14
 -1      3847 1.00695E-02 4.47961E-04-6.42962E-14
 -1      3848 1.02033E-02 5.25224E-04-6.41106E-14
 -1      3849 1.02105E-02 5.04336E-04-6.47677E-14
 -1      3850 1.02480E-02 5.00126E-04-6.61739E-14
 -1      3851 1.03371E-02 5.62303E-04-6.66803E-14
 -1      3852 1.51064E-03 2.44096E-04-2.18586E-15
 -1      3853 2.08096E-03 2.37002E-04-4.07287E-15
 -1      3854 1.93768E-03 2.33130E-04-3.56726E-15
 -1      3855 1.37170E-02 1.32183E-03-1.22680E-13
 -1      3856 5.23807E-03-9.37216E-05-2.62107E-14
 -1      3857 5.35950E-03-1.46856E-04-2.69938E-14
 -1      3858 3.43398E-03 2.63011E-04-1.03986E-14
 -1      3859 4.92818E-03 1.40230E-04-2.45759E-14
 -1      3860 4.90910E-03 1.48858E-04-2.42015E-14
 -1      3861 4.85913E-03 1.14164E-04-2.37692E-14
 -1      3862 3.21482E-03 2.34773E-04-9.31797E-15
 -1      3863 3.07506E-03 2.37174E-04-8.54729E-15
 -1      3864 5.07384E-03 2.19420E-04-2.45057E-14
 -1      3865 2.93458E-03 2.39166E-04-7.80901E-15
 -1      3866 2.79344E-03 2.40715E-04-7.10314E-15
 -1      3867 2.99694E-03 2.04999E-04-8.28793E-15
 -1      3868 3.76456E-03 2.23949E-04-1.27230E-14
 -1      3869 3.62870E-03 2.26633E-04-1.18235E-14
 -1      3870 3.81862E-03 1.93037E-04-1.33303E-14
 -1      3871 4.58340E-03 1.94032E-04-1.95036E-14
 -1      3872 4.54857E-03 2.18818E-04-1.87753E-14
 -1      3873 4.42219E-03 2.17695E-04-1.76894E-14
 -1      3874 4.97598E-03 6.39046E-05-2.48316E-14
 -1      3875 9.80045E-03 3.26221E-04-6.49613E-14
 -1      3876 1.35830E-02 1.09017E-03-1.25285E-13
 -1      3877 1.36109E-02 1.13041E-03-1.24925E-13
 -1      3878 1.37752E-02 1.21576E-03-1.26404E-13
 -1      3879 2.48587E-03-1.73042E-04-6.54102E-15
 -1      3880 1.09683E-02 7.27210E-04-7.73408E-14
 -1      3881 1.00728E-02 4.35242E-04-6.54635E-14
 -1      3882 1.61500E-03 2.22193E-04-2.54453E-15
 -1      3883 1.50364E-03 2.08558E-04-2.25009E-15
 -1      3884 1.49780E-03 1.73800E-04-2.30856E-15
 -1      3885 1.35318E-02 1.01249E-03-1.26033E-13
 -1      3886 1.35600E-02 1.05298E-03-1.25676E-13
 -1      3887 1.34514E-02 1.04876E-03-1.23473E-13
 -1      3888 1.34050E-02 9.74617E-04-1.24245E-13
 -1      3889 1.50363E-03 2.27193E-05-2.57472E-15
 -1      3890 1.51594E-03-6.67505E-06-2.64469E-15
 -1      3891 1.50695E-03 8.85391E-05-2.49247E-15
 -1      3892 1.50480E-03 5.55106E-05-2.53572E-15
 -1      3893 1.63269E-03 4.54123E-05-2.94545E-15
 -1      3894 4.16397E-03 2.18214E-04-1.56094E-14
 -1      3895 4.08167E-03 1.90566E-04-1.52644E-14
 -1      3896 4.29404E-03 2.17456E-04-1.66335E-14
 -1      3897 2.36699E-03 2.41241E-04-5.18471E-15
 -1      3898 2.22408E-03 2.39684E-04-4.61171E-15
 -1      3899 2.14628E-03 2.04626E-04-4.41796E-15
 -1      3900 1.28010E-03-6.13751E-05-2.00974E-15
 -1      3901 1.29443E-03-8.92161E-05-2.06032E-15
 -1      3902 1.40378E-03-9.99898E-05-2.37265E-15
 -1      3903 1.40115E-03-4.87612E-05-2.33969E-15
 -1      3904 1.74005E-03 2.24890E-04-2.92659E-15
 -1      3905 1.36898E-02 1.28132E-03-1.23052E-13
 -1      3906 1.35495E-02 1.26553E-03-1.20438E-13
 -1      3907 1.36625E-02 1.24093E-03-1.23421E-13
 -1      3908 1.80583E-03 1.95234E-04-3.21745E-15
 -1      3909 1.63148E-03-1.58268E-05-3.01698E-15
 -1      3910 1.51600E-03-3.30205E-05-2.66932E-15
 -1      3911 1.51669E-03-5.94603E-05-2.69110E-15
 -1      3912 5.11547E-03-4.75948E-05-2.53961E-14
 -1      3913 3.49174E-03 2.29374E-04-1.09562E-14
 -1      3914 3.35373E-03 2.32167E-04-1.01214E-14
 -1      3915 3.27518E-03 2.01221E-04-9.84054E-15
 -1      3916 3.54940E-03 1.96924E-04-1.15218E-14
 -1      3917 2.97601E-03-1.34729E-04-9.07329E-15
 -1      3918 3.11623E-03-1.32351E-04-9.88131E-15
 -1      3919 3.25578E-03-1.29563E-04-1.07221E-14
 -1      3920 3.39466E-03-1.26328E-04-1.15947E-14
 -1      3921 3.18009E-03-9.79463E-05-1.02351E-14
 -1      3922 3.53283E-03-1.22728E-04-1.24994E-14
 -1      3923 3.67032E-03-1.18728E-04-1.34360E-14
 -1      3924 3.45640E-03-9.20318E-05-1.19716E-14
 -1      3925 3.80708E-03-1.14400E-04-1.44038E-14
 -1      3926 3.94326E-03-1.09713E-04-1.54026E-14
 -1      3927 3.72929E-03-8.44855E-05-1.38348E-14
 -1      3928 4.07879E-03-1.04727E-04-1.64323E-14
 -1      3929 4.21393E-03-9.94430E-05-1.74935E-14
 -1      3930 3.99864E-03-7.52448E-05-1.58233E-14
 -1      3931 4.34865E-03-9.39056E-05-1.85845E-14
 -1      3932 4.48340E-03-8.82397E-05-1.97061E-14
 -1      3933 4.26469E-03-6.42040E-05-1.79347E-14
 -1      3934 4.61818E-03-8.24327E-05-2.08587E-14
 -1      3935 4.75366E-03-7.67839E-05-2.20419E-14
 -1      3936 4.52827E-03-5.13327E-05-2.01684E-14
 -1      3937 4.86617E-03-6.46697E-05-2.30769E-14
 -1      3938 5.00301E-03-5.96754E-05-2.43154E-14
 -1      3939 4.98196E-03-3.66464E-06-2.44438E-14
 -1      3940 4.76857E-03-3.14119E-05-2.23475E-14
 -1      3941 4.95926E-03 1.87310E-04-2.39968E-14
 -1      3942 5.06139E-03 2.04284E-04-2.49226E-14
 -1      3943 9.93242E-03 3.48265E-04-6.69863E-14
 -1      3944 1.03220E-02 3.94709E-04-7.38986E-14
 -1      3945 1.04537E-02 4.16801E-04-7.60051E-14
 -1      3946 1.05851E-02 4.39110E-04-7.81289E-14
 -1      3947 1.07170E-02 4.61774E-04-8.02684E-14
 -1      3948 1.05628E-02 4.59199E-04-7.67933E-14
 -1      3949 1.08491E-02 4.84820E-04-8.24233E-14
 -1      3950 1.09819E-02 5.08235E-04-8.45940E-14
 -1      3951 1.08210E-02 5.03662E-04-8.10676E-14
 -1      3952 1.11153E-02 5.32046E-04-8.67792E-14
 -1      3953 1.12494E-02 5.56197E-04-8.89781E-14
 -1      3954 1.10827E-02 5.50397E-04-8.54038E-14
 -1      3955 1.13841E-02 5.80717E-04-9.11903E-14
 -1      3956 1.15195E-02 6.05538E-04-9.34167E-14
 -1      3957 1.13481E-02 5.99072E-04-8.97967E-14
 -1      3958 1.16556E-02 6.30688E-04-9.56568E-14
 -1      3959 1.17923E-02 6.56099E-04-9.79076E-14
 -1      3960 1.16170E-02 6.49350E-04-9.42471E-14
 -1      3961 1.19297E-02 6.81796E-04-1.00170E-13
 -1      3962 1.20677E-02 7.07720E-04-1.02444E-13
 -1      3963 1.18891E-02 7.00932E-04-9.87456E-14
 -1      3964 1.22061E-02 7.33892E-04-1.04726E-13
 -1      3965 1.23452E-02 7.60258E-04-1.07015E-13
 -1      3966 1.21640E-02 7.53571E-04-1.03287E-13
 -1      3967 1.24846E-02 7.86836E-04-1.09313E-13
 -1      3968 1.26245E-02 8.13582E-04-1.11618E-13
 -1      3969 1.24412E-02 8.07063E-04-1.07865E-13
 -1      3970 1.27648E-02 8.40510E-04-1.13930E-13
 -1      3971 1.29055E-02 8.67582E-04-1.16247E-13
 -1      3972 1.27205E-02 8.61247E-04-1.12473E-13
 -1      3973 1.20825E-02 9.52489E-04-9.63057E-14
 -1      3974 1.19458E-02 9.21904E-04-9.40596E-14
 -1      3975 1.18101E-02 8.91458E-04-9.18246E-14
 -1      3976 1.16753E-02 8.61126E-04-8.96058E-14
 -1      3977 1.18585E-02 8.76138E-04-9.32591E-14
 -1      3978 1.15418E-02 8.31094E-04-8.73971E-14
 -1      3979 1.14096E-02 8.01320E-04-8.52046E-14
 -1      3980 1.15907E-02 8.16940E-04-8.88136E-14
 -1      3981 1.23583E-02 1.01370E-03-1.00829E-13
 -1      3982 1.22201E-02 9.83080E-04-9.85613E-14
 -1      3983 1.21306E-02 9.36027E-04-9.77512E-14
 -1      3984 1.26366E-02 1.07474E-03-1.05392E-13
 -1      3985 1.24972E-02 1.04424E-03-1.03108E-13
 -1      3986 1.24061E-02 9.96160E-04-1.02287E-13
 -1      3987 1.29170E-02 1.13542E-03-1.09986E-13
 -1      3988 1.27766E-02 1.10513E-03-1.07684E-13
 -1      3989 1.26841E-02 1.05623E-03-1.06859E-13
 -1      3990 1.31988E-02 1.19563E-03-1.14604E-13
 -1      3991 1.30577E-02 1.16558E-03-1.12293E-13
 -1      3992 1.29642E-02 1.11606E-03-1.11459E-13
 -1      3993 1.34448E-02 1.24558E-03-1.18674E-13
 -1      3994 1.33032E-02 1.21577E-03-1.16360E-13
 -1      3995 1.32090E-02 1.16583E-03-1.15525E-13
 -1      3996 1.34178E-02 1.20558E-03-1.19043E-13
 -1      3997 2.65175E-03 2.41631E-04-6.43104E-15
 -1      3998 2.50956E-03 2.41869E-04-5.79152E-15
 -1      3999 2.71552E-03 2.07396E-04-6.86585E-15
 -1      4000 1.36231E-02 1.16553E-03-1.24357E-13
 -1      4001 1.36506E-02 1.20578E-03-1.23995E-13
 -1      4002 1.35107E-02 1.19042E-03-1.21379E-13
 -1      4003 1.34867E-02 1.12065E-03-1.22519E-13
 -1      4004 2.12420E-03-1.37519E-04-4.92210E-15
 -1      4005 2.26705E-03-1.38649E-04-5.52944E-15
 -1      4006 1.12789E-02 7.72056E-04-8.30284E-14
 -1      4007 1.11499E-02 7.43220E-04-8.08644E-14
 -1      4008 1.13283E-02 7.59029E-04-8.44272E-14
 -1      4009 1.05589E-02 6.08218E-04-7.07871E-14
 -1      4010 1.04459E-02 5.84436E-04-6.87251E-14
 -1      4011 1.04049E-02 5.50373E-04-6.84709E-14
 -1      4012 1.01851E-02 4.57194E-04-6.71791E-14
 -1      4013 1.00753E-02 4.18404E-04-6.67262E-14
 -1      4014 2.69381E-03-1.38005E-04-7.55560E-15
 -1      4015 2.83520E-03-1.36606E-04-8.29794E-15
 -1      4016 2.90065E-03-1.02212E-04-8.62755E-15
 -1      4017 1.10228E-02 7.15147E-04-7.87197E-14
 -1      4018 1.08977E-02 6.87655E-04-7.65928E-14
 -1      4019 1.10728E-02 7.03135E-04-8.01005E-14
 -1      4020 2.40966E-03-1.39077E-04-6.17066E-15
 -1      4021 2.55195E-03-1.38828E-04-6.84577E-15
 -1      4022 2.61857E-03-1.04747E-04-7.15109E-15
 -1      4023 1.50365E-03 1.47753E-04-2.37763E-15
 -1      4024 1.49970E-03 1.14081E-04-2.42829E-15
 -1      4025 1.62717E-03 1.06053E-04-2.82956E-15
 -1      4026 1.61421E-03 1.59374E-04-2.68500E-15
 -1      4027 4.87800E-03 1.63340E-04-2.34885E-14
 -1      4028 4.83671E-03 1.81254E-04-2.25080E-14
 -1      4029 4.72664E-03 1.76020E-04-2.13253E-14
 -1      4030 4.78917E-03 1.40307E-04-2.27070E-14
 -1      4031 1.07852E-02 6.59742E-04-7.47222E-14
 -1      4032 1.06654E-02 6.33997E-04-7.26239E-14
 -1      4033 1.06173E-02 5.96586E-04-7.23677E-14
 -1      4034 1.08352E-02 6.48631E-04-7.60839E-14
 -1      4035 1.00679E-02 3.95182E-04-6.78790E-14
 -1      4036 1.00654E-02 3.51711E-04-6.98749E-14
 -1      4037 1.01982E-02 3.73738E-04-7.19479E-14
 -1      4038 1.01948E-02 4.21570E-04-6.96162E-14
 -1      4039 1.75464E-03-2.29879E-06-3.41285E-15
 -1      4040 1.75466E-03-3.03436E-05-3.44401E-15
 -1      4041 4.79378E-03 9.14860E-05-2.30213E-14
 -1      4042 4.76318E-03 1.03188E-04-2.26639E-14
 -1      4043 4.88012E-03 4.77815E-05-2.37709E-14
 -1      4044 4.77324E-03 3.68765E-05-2.26617E-14
 -1      4045 1.03150E-02 4.18008E-04-7.27238E-14
 -1      4046 1.03443E-02 5.20406E-04-6.79636E-14
 -1      4047 1.02744E-02 4.88906E-04-6.76972E-14
 -1      4048 1.02924E-02 4.77441E-04-6.89794E-14
 -1      4049 1.04500E-02 5.40738E-04-7.00179E-14
 -1      4050 1.31894E-02 9.28501E-04-1.20782E-13
 -1      4051 1.32971E-02 9.51515E-04-1.22512E-13
 -1      4052 1.33205E-02 9.88456E-04-1.22130E-13
 -1      4053 1.75509E-03 3.26713E-05-3.36816E-15
 -1      4054 1.87786E-03 1.90891E-05-3.81954E-15
 -1      4055 1.75665E-03 6.77446E-05-3.31884E-15
 -1      4056 1.30817E-02 9.05567E-04-1.19056E-13
 -1      4057 3.05970E-03 1.71503E-04-8.77507E-15
 -1      4058 2.92014E-03 1.72708E-04-8.02573E-15
 -1      4059 3.87318E-03 1.63568E-04-1.39443E-14
 -1      4060 3.74110E-03 1.64493E-04-1.30032E-14
 -1      4061 4.61263E-03 1.71339E-04-2.01723E-14
 -1      4062 4.49484E-03 1.68055E-04-1.90486E-14
 -1      4063 4.64487E-03 1.50943E-04-2.08434E-14
 -1      4064 4.33716E-03 1.90569E-04-1.73227E-14
 -1      4065 3.33591E-03 1.68598E-04-1.03708E-14
 -1      4066 3.19832E-03 1.70131E-04-9.55692E-15
 -1      4067 3.12300E-03 1.38728E-04-9.27015E-15
 -1      4068 4.13172E-03 1.63258E-04-1.59190E-14
 -1      4069 4.00343E-03 1.63196E-04-1.49161E-14
 -1      4070 3.92868E-03 1.35527E-04-1.45645E-14
 -1      4071 1.33562E-02 1.07495E-03-1.20830E-13
 -1      4072 1.33684E-02 1.10961E-03-1.20265E-13
 -1      4073 2.43171E-03 2.07564E-04-5.57558E-15
 -1      4074 1.30366E-02 9.26774E-04-1.17590E-13
 -1      4075 2.33447E-03-1.05354E-04-5.80784E-15
 -1      4076 1.33437E-02 1.02531E-03-1.21745E-13
 -1      4077 1.48921E-03-1.04733E-04-2.62956E-15
 -1      4078 1.59949E-03-1.15319E-04-2.98066E-15
 -1      4079 1.32258E-02 1.01474E-03-1.19495E-13
 -1      4080 2.21229E-03 1.72073E-04-4.77210E-15
 -1      4081 2.06947E-03 1.69974E-04-4.22142E-15
 -1      4082 2.01673E-03-1.33922E-04-4.48686E-15
 -1      4083 2.08465E-03-1.01854E-04-4.74177E-15
 -1      4084 1.90927E-03-1.29921E-04-4.07066E-15
 -1      4085 1.90072E-03 1.66015E-04-3.61519E-15
 -1      4086 1.70366E-03 1.59397E-04-2.96632E-15
 -1      4087 1.96788E-03 1.35032E-04-3.92957E-15
 -1      4088 1.19054E-02 8.60533E-04-9.46897E-14
 -1      4089 1.17709E-02 8.31369E-04-9.24550E-14
 -1      4090 3.60745E-03 1.65659E-04-1.20939E-14
 -1      4091 3.47232E-03 1.67113E-04-1.12164E-14
 -1      4092 3.39722E-03 1.36943E-04-1.09082E-14
 -1      4093 3.66620E-03 1.35595E-04-1.26731E-14
 -1      4094 3.10598E-03-6.63859E-05-9.75488E-15
 -1      4095 3.24444E-03-6.41461E-05-1.05862E-14
 -1      4096 3.38197E-03-6.15363E-05-1.14495E-14
 -1      4097 3.51854E-03-5.84881E-05-1.23451E-14
 -1      4098 3.30939E-03-3.09982E-05-1.09352E-14
 -1      4099 3.65402E-03-5.50667E-05-1.32722E-14
 -1      4100 3.78846E-03-5.11479E-05-1.42304E-14
 -1      4101 3.58117E-03-2.58026E-05-1.27160E-14
 -1      4102 3.92173E-03-4.67607E-05-1.52202E-14
 -1      4103 4.05393E-03-4.18022E-05-1.62404E-14
 -1      4104 3.84800E-03-1.87835E-05-1.46234E-14
 -1      4105 4.18491E-03-3.63075E-05-1.72917E-14
 -1      4106 4.31484E-03-3.01217E-05-1.83730E-14
 -1      4107 4.10936E-03-9.44160E-06-1.66547E-14
 -1      4108 4.44350E-03-2.33284E-05-1.94848E-14
 -1      4109 4.57120E-03-1.57706E-05-2.06277E-14
 -1      4110 4.36469E-03 2.75534E-06-1.88085E-14
 -1      4111 1.05413E-02 4.77900E-04-7.54588E-14
 -1      4112 1.06666E-02 4.99175E-04-7.75784E-14
 -1      4113 1.03092E-02 4.39564E-04-7.15472E-14
 -1      4114 1.04248E-02 4.58327E-04-7.34946E-14
 -1      4115 1.03042E-02 4.59333E-04-7.03731E-14
 -1      4116 1.30498E-02 9.75764E-04-1.16686E-13
 -1      4117 2.26037E-03-7.19429E-05-5.45281E-15
 -1      4118 2.40263E-03-7.19734E-05-6.08641E-15
 -1      4119 1.07931E-02 5.21311E-04-7.97136E-14
 -1      4120 1.09211E-02 5.44149E-04-8.18634E-14
 -1      4121 1.07651E-02 5.37721E-04-7.83607E-14
 -1      4122 1.10502E-02 5.67703E-04-8.40303E-14
 -1      4123 1.11806E-02 5.91815E-04-8.62105E-14
 -1      4124 1.10173E-02 5.83913E-04-8.26577E-14
 -1      4125 1.13121E-02 6.16498E-04-8.84065E-14
 -1      4126 1.14447E-02 6.41620E-04-9.06154E-14
 -1      4127 1.12756E-02 6.32961E-04-8.70165E-14
 -1      4128 1.15783E-02 6.67189E-04-9.28378E-14
 -1      4129 1.17129E-02 6.93095E-04-9.50737E-14
 -1      4130 1.15392E-02 6.84177E-04-9.14311E-14
 -1      4131 1.18484E-02 7.19345E-04-9.73220E-14
 -1      4132 1.19846E-02 7.45852E-04-9.95803E-14
 -1      4133 1.18073E-02 7.37013E-04-9.58986E-14
 -1      4134 1.21217E-02 7.72623E-04-1.01851E-13
 -1      4135 1.22594E-02 7.99589E-04-1.04131E-13
 -1      4136 1.20791E-02 7.91031E-04-1.00414E-13
 -1      4137 1.23977E-02 8.26756E-04-1.06418E-13
 -1      4138 1.25366E-02 8.54071E-04-1.08713E-13
 -1      4139 1.23541E-02 8.45899E-04-1.04970E-13
 -1      4140 1.26761E-02 8.81537E-04-1.11014E-13
 -1      4141 1.28159E-02 9.09117E-04-1.13325E-13
 -1      4142 1.26315E-02 9.01366E-04-1.09558E-13
 -1      4143 1.24529E-02 9.78375E-04-1.03745E-13
 -1      4144 1.23149E-02 9.48799E-04-1.01465E-13
 -1      4145 1.21775E-02 9.19293E-04-9.91963E-14
 -1      4146 1.20410E-02 8.89831E-04-9.69389E-14
 -1      4147 1.22235E-02 9.02155E-04-1.00643E-13
 -1      4148 1.16375E-02 8.02504E-04-9.02305E-14
 -1      4149 1.15055E-02 7.73890E-04-8.80210E-14
 -1      4150 1.16826E-02 7.87552E-04-9.16487E-14
 -1      4151 1.27310E-02 1.03750E-03-1.08325E-13
 -1      4152 1.25917E-02 1.00794E-03-1.06031E-13
 -1      4153 1.24991E-02 9.60240E-04-1.05202E-13
 -1      4154 1.30110E-02 1.09650E-03-1.12935E-13
 -1      4155 1.28708E-02 1.06702E-03-1.10627E-13
 -1      4156 1.27773E-02 1.01847E-03-1.09794E-13
 -1      4157 2.77977E-03 1.73563E-04-7.30916E-15
 -1      4158 2.63868E-03 1.74055E-04-6.62556E-15
 -1      4159 2.84458E-03 1.40199E-04-7.76098E-15
 -1      4160 2.49701E-03 1.74010E-04-5.97481E-15
 -1      4161 2.35483E-03 1.73402E-04-5.35680E-15
 -1      4162 2.27894E-03 1.39403E-04-5.13595E-15
 -1      4163 1.13749E-02 7.45755E-04-8.58276E-14
 -1      4164 1.12460E-02 7.18014E-04-8.36471E-14
 -1      4165 1.14192E-02 7.31908E-04-8.72285E-14
 -1      4166 2.54449E-03-7.16150E-05-6.75378E-15
 -1      4167 2.68587E-03-7.08423E-05-7.45522E-15
 -1      4168 2.47153E-03-3.85742E-05-6.36480E-15
 -1      4169 1.30043E-02 9.96228E-04-1.15217E-13
 -1      4170 4.71977E-03 1.17780E-04-2.20903E-14
 -1      4171 4.67626E-03 1.35123E-04-2.14116E-14
 -1      4172 4.56465E-03 1.29053E-04-2.02557E-14
 -1      4173 4.64510E-03 9.69359E-05-2.13700E-14
 -1      4174 1.48745E-03-7.81960E-05-2.61285E-15
 -1      4175 2.82663E-03-6.97330E-05-8.18909E-15
 -1      4176 2.96670E-03-6.82299E-05-8.95562E-15
 -1      4177 3.03339E-03-3.47289E-05-9.28169E-15
 -1      4178 1.11190E-02 6.90974E-04-8.14823E-14
 -1      4179 1.09941E-02 6.64472E-04-7.93345E-14
 -1      4180 1.11621E-02 6.78181E-04-8.28665E-14
 -1      4181 1.70981E-03 1.32102E-04-3.04373E-15
 -1      4182 4.37763E-03 1.65580E-04-1.79863E-14
 -1      4183 4.25398E-03 1.64068E-04-1.69223E-14
 -1      4184 4.17933E-03 1.37561E-04-1.65499E-14
 -1      4185 4.41657E-03 1.42343E-04-1.86227E-14
 -1      4186 1.70697E-03-9.61713E-05-3.33033E-15
 -1      4187 1.73408E-03-1.30632E-04-3.43699E-15
 -1      4188 1.33874E-02 1.14022E-03-1.19941E-13
 -1      4189 1.33992E-02 1.17489E-03-1.19371E-13
 -1      4190 1.32948E-02 1.15523E-03-1.17610E-13
 -1      4191 1.32573E-02 1.09436E-03-1.18259E-13
 -1      4192 1.84144E-03-1.35479E-04-3.82059E-15
 -1      4193 1.71660E-03 1.04958E-04-3.11929E-15
 -1      4194 1.83854E-03 9.31403E-05-3.55519E-15
 -1      4195 1.09208E-02 6.25460E-04-7.88116E-14
 -1      4196 1.08799E-02 6.37411E-04-7.74470E-14
 -1      4197 1.07681E-02 6.11148E-04-7.55713E-14
 -1      4198 1.05274E-02 4.96077E-04-7.42661E-14
 -1      4199 4.67173E-03 2.26963E-05-2.16437E-14
 -1      4200 4.59382E-03 4.61230E-05-2.09237E-14
 -1      4201 1.60221E-03-6.26873E-05-2.96287E-15
 -1      4202 4.45322E-03 3.42545E-05-1.95906E-14
 -1      4203 4.55952E-03 6.82652E-05-2.05693E-14
 -1      4204 4.51114E-03 8.56331E-05-2.00260E-14
 -1      4205 4.32981E-03 2.72360E-05-1.84785E-14
 -1      4206 2.15334E-03-6.94105E-05-4.99675E-15
 -1      4207 2.22282E-03-3.66674E-05-5.25182E-15
 -1      4208 2.04623E-03-6.66983E-05-4.56015E-15
 -1      4209 2.75386E-03-3.72033E-05-7.75722E-15
 -1      4210 1.19510E-02 8.44469E-04-9.61225E-14
 -1      4211 3.98589E-03 1.08699E-04-1.51919E-14
 -1      4212 3.85704E-03 1.07444E-04-1.42104E-14
 -1      4213 2.56291E-03 1.40651E-04-6.38233E-15
 -1      4214 1.73602E-03-7.60689E-05-3.41787E-15
 -1      4215 1.06592E-02 5.86729E-04-7.37037E-14
 -1      4216 1.05528E-02 5.62671E-04-7.18576E-14
 -1      4217 1.04808E-02 5.30292E-04-7.13372E-14
 -1      4218 1.06959E-02 5.75369E-04-7.50502E-14
 -1      4219 2.91015E-03 1.07302E-04-8.22039E-15
 -1      4220 2.77026E-03 1.07514E-04-7.49319E-15
 -1      4221 1.32048E-02 1.13577E-03-1.16149E-13
 -1      4222 1.31007E-02 1.11600E-03-1.14393E-13
 -1      4223 1.30067E-02 1.06689E-03-1.13556E-13
 -1      4224 1.31862E-02 1.10548E-03-1.16474E-13
 -1      4225 1.85874E-03-6.35305E-05-3.84390E-15
 -1      4226 3.04915E-03 1.07015E-04-8.98018E-15
 -1      4227 2.97661E-03 7.48998E-05-8.68759E-15
 -1      4228 3.18714E-03 1.06649E-04-9.77231E-15
 -1      4229 1.03976E-02 4.94607E-04-7.09047E-14
 -1      4230 3.78792E-03 7.86178E-05-1.38529E-14
 -1      4231 3.72623E-03 1.06602E-04-1.32591E-14
 -1      4232 3.59368E-03 1.06270E-04-1.23399E-14
 -1      4233 2.00690E-03 9.58950E-05-4.16071E-15
 -1      4234 2.16486E-03 9.70452E-05-4.77396E-15
 -1      4235 2.03692E-03 5.57148E-05-4.35479E-15
 -1      4236 2.30719E-03 9.80832E-05-5.36181E-15
 -1      4237 1.31674E-02 1.07523E-03-1.16797E-13
 -1      4238 1.29339E-02 1.00724E-03-1.13441E-13
 -1      4239 3.45954E-03 1.06173E-04-1.14525E-14
 -1      4240 3.32398E-03 1.06373E-04-1.05968E-14
 -1      4241 3.52313E-03 7.62680E-05-1.20045E-14
 -1      4242 3.23862E-03-3.28970E-07-1.04282E-14
 -1      4243 3.37518E-03 1.42700E-06-1.12822E-14
 -1      4244 3.54909E-03 2.54139E-05-1.23663E-14
 -1      4245 3.68244E-03 2.76823E-05-1.32895E-14
 -1      4246 3.81420E-03 3.03246E-05-1.42446E-14
 -1      4247 3.94438E-03 3.36753E-05-1.52298E-14
 -1      4248 4.07465E-03 2.68715E-05-1.62965E-14
 -1      4249 4.20147E-03 3.19012E-05-1.73456E-14
 -1      4250 4.29666E-03 6.09704E-05-1.80920E-14
 -1      4251 4.04536E-03 7.26162E-05-1.58797E-14
 -1      4252 1.07288E-02 5.58439E-04-7.65853E-14
 -1      4253 1.08507E-02 5.81125E-04-7.87128E-14
 -1      4254 2.69706E-03 7.45850E-05-7.22279E-15
 -1      4255 2.62958E-03 1.07495E-04-6.79846E-15
 -1      4256 2.48824E-03 1.07261E-04-6.13690E-15
 -1      4257 1.90943E-03-1.04607E-04-4.06028E-15
 -1      4258 1.09673E-02 6.06836E-04-8.06106E-14
 -1      4259 1.10932E-02 6.31311E-04-8.27681E-14
 -1      4260 1.12207E-02 6.56651E-04-8.49393E-14
 -1      4261 1.13500E-02 6.82492E-04-8.71274E-14
 -1      4262 1.14807E-02 7.08963E-04-8.93280E-14
 -1      4263 1.16128E-02 7.35796E-04-9.15436E-14
 -1      4264 1.17461E-02 7.63077E-04-9.37727E-14
 -1      4265 1.18805E-02 7.90601E-04-9.60132E-14
 -1      4266 1.20160E-02 8.18434E-04-9.82673E-14
 -1      4267 1.21523E-02 8.46421E-04-1.00531E-13
 -1      4268 1.22894E-02 8.74611E-04-1.02807E-13
 -1      4269 1.24273E-02 9.02890E-04-1.05089E-13
 -1      4270 1.25658E-02 9.31296E-04-1.07380E-13
 -1      4271 1.27049E-02 9.59745E-04-1.09678E-13
 -1      4272 4.11115E-03 1.00640E-04-1.62614E-14
 -1      4273 1.05062E-02 5.15677E-04-7.27516E-14
 -1      4274 1.06163E-02 5.35222E-04-7.47099E-14
 -1      4275 2.39968E-03-5.66955E-06-5.98303E-15
 -1      4276 2.54127E-03-5.21013E-06-6.64201E-15
 -1      4277 2.03576E-03 1.91284E-05-4.41249E-15
 -1      4278 2.37575E-03 6.53778E-05-5.73666E-15
 -1      4279 1.99685E-03-2.54582E-05-4.32351E-15
 -1      4280 1.97816E-03-7.31936E-05-4.29981E-15
 -1      4281 2.72366E-03 1.86847E-05-7.49502E-15
 -1      4282 2.86374E-03 1.93542E-05-8.22655E-15
 -1      4283 3.00297E-03 2.00895E-05-8.99046E-15
 -1      4284 3.14125E-03 2.10744E-05-9.78644E-15
 -1      4285 2.15439E-03 1.07859E-05-4.89871E-15
 -1      4286 2.26110E-03 8.85917E-06-5.34849E-15
 -1      4287 3.21053E-03 5.30943E-05-1.01062E-14
 -1      4288 4.23178E-03 1.03442E-04-1.72757E-14
 -1      4289 4.49276E-03 1.05744E-04-1.97218E-14
 -1      4290 4.45362E-03 1.23224E-04-1.91803E-14
 -1      4291 2.33277E-03 4.20121E-05-5.59776E-15
 -1      4292 4.33819E-03 1.19260E-04-1.81142E-14
 -1      4293 2.65423E-03 5.13440E-05-7.07103E-15
 -1      4294 4.39821E-03 7.87145E-05-1.89554E-14
 -1      4295 3.25230E-03 7.52571E-05-1.02822E-14
 -1      4296 3.34703E-03 5.38216E-05-1.09456E-14
 -1      4297 1.28445E-02 9.88267E-04-1.11985E-13
 -1      4298 2.51315E-03 5.09537E-05-6.39427E-15
 -1      4299 3.48220E-03 5.48165E-05-1.18169E-14
 -1      4300 4.27640E-03 8.29381E-05-1.78062E-14
 -3
    1PSTEP                         2           1           1          
  100CL  101 1.000000000        4300                     0    1           1
 -4  STRESS      6    1
 -5  SXX         1    4    1    1
 -5  SYY         1    4    2    2
 -5  SZZ         1    4    3    3
 -5  SXY         1    4    1    2
 -5  SYZ         1    4    2    3
 -5  SZX         1    4    3    1
 -1         1 1.77903E+01 1.10824E+01 6.15836E-01 1.39117E+01-2.38665E-12-2.77556E-12
 -1         2-6.57620E-01-2.46527E+01-3.36874E+00-3.93873E-02 1.21614E-12 7.10092E-14
 -1         3 2.00001E+01 2.62463E-04 2.04782E-03 2.25862E-04-3.68389E-13-5.45486E-13
 -1         4 1.99999E+01 1.15054E-04 1.95330E-03-8.72706E-05 1.01271E-13 2.38596E-13
 -1         5 3.26309E+01 6.11701E+00 2.72457E+00 6.20121E+00-5.82867E-14 3.85135E-12
 -1         6 3.56017E+01 1.22093E+01 5.09571E+00-8.61175E+00-2.49190E-13 2.75002E-12
 -1         7 2.07801E+01 6.08790E+00-1.25928E-01-4.70324E+00-3.58047E-14 3.39936E-14
 -1         8 1.96628E+01 5.93171E+00 5.25812E-02-3.25030E+00-3.08364E-14-6.74152E-13
 -1         9 1.91471E+01 5.77430E+00 5.03208E-02-2.49832E+00-2.31221E-14-9.94062E-13
 -1        10 1.89138E+01 5.69728E+00 5.14500E-02-1.92132E+00-1.35716E-14-1.11778E-12
 -1        11 1.87962E+01 5.65753E+00 5.01333E-02-1.42808E+00-4.00548E-15-1.15142E-12
 -1        12 1.87332E+01 5.63608E+00 4.81396E-02-9.92062E-01 1.48666E-15-1.13260E-12
 -1        13 1.86987E+01 5.62436E+00 4.62960E-02-5.80250E-01 6.78429E-15-1.08934E-12
 -1        14 1.86839E+01 5.61932E+00 4.53298E-02-1.86134E-01 1.19028E-14-1.03619E-12
 -1        15 1.86847E+01 5.61956E+00 4.53763E-02 2.02539E-01 1.73657E-14-9.77408E-13
 -1        16 1.87011E+01 5.62510E+00 4.64445E-02 5.97530E-01 2.18793E-14-8.93534E-13
 -1        17 1.87372E+01 5.63718E+00 4.84119E-02 1.01139E+00 2.76231E-14-8.01896E-13
 -1        18 1.88019E+01 5.65914E+00 5.07474E-02 1.45068E+00 3.16622E-14-6.60259E-13
 -1        19 1.89212E+01 5.69932E+00 5.21101E-02 1.95040E+00 4.22622E-14-4.41656E-13
 -1        20 1.91524E+01 5.77693E+00 4.99954E-02 2.53585E+00 5.24077E-14-9.41643E-14
 -1        21 1.96578E+01 5.94604E+00 4.75761E-02 3.28476E+00 5.44356E-14 5.07354E-13
 -1        22 2.11572E+01 6.36752E+00 1.40456E-01 4.50189E+00 5.77316E-15 1.61994E-12
 -1        23 2.29458E+01-1.37575E+00-9.37266E-01-7.06088E-01-1.78284E-13 1.91192E-12
 -1        24 1.93153E+01-9.94843E-02-3.08984E-01 6.32525E-02-3.75915E-14 1.21076E-12
 -1        25 1.86508E+01-5.66610E-02-6.87544E-02 6.04379E-02-2.44637E-14 5.35757E-13
 -1        26 1.84755E+01-2.27913E-02-7.04178E-03 3.26208E-02-6.30735E-15 6.76056E-14
 -1        27 1.85229E+01-1.28476E-02 5.16590E-04 2.23655E-02-1.70810E-14-2.37688E-13
 -1        28 1.86878E+01-7.66936E-03 2.62047E-04 1.62827E-02 9.19946E-16-4.40070E-13
 -1        29 1.89188E+01-4.92007E-03-3.07180E-04 1.24792E-02 6.47716E-15-6.13605E-13
 -1        30 1.91911E+01-3.49850E-03-7.34190E-04 1.00704E-02-1.62527E-15-8.22534E-13
 -1        31 1.94942E+01-2.82008E-03-1.22852E-03 8.65205E-03-9.87677E-15-1.01364E-12
 -1        32 1.98256E+01-2.52850E-03-1.82952E-03 8.04533E-03-1.26004E-14-1.18874E-12
 -1        33 2.01871E+01-2.34672E-03-2.40461E-03 8.16144E-03 2.96414E-15-1.27983E-12
 -1        34 2.05810E+01-2.00913E-03-2.69812E-03 8.91553E-03-2.87883E-16-1.33069E-12
 -1        35 2.10068E+01-1.22862E-03-2.33089E-03 1.01497E-02 1.71471E-14-1.36788E-12
 -1        36 2.14559E+01 3.04928E-04-7.86555E-04 1.15387E-02 9.36421E-15-1.18429E-12
 -1        37 2.19070E+01 2.88065E-03 2.55728E-03 1.24681E-02-4.61914E-14-1.16657E-12
 -1        38 2.23187E+01 6.64986E-03 8.26948E-03 1.19071E-02-3.27603E-14-1.29274E-12
 -1        39 2.26258E+01 1.14106E-02 1.64690E-02 8.36298E-03-1.31828E-14-1.41338E-12
 -1        40 2.27395E+01 1.63171E-02 2.61418E-02 1.08645E-04-2.38933E-14-1.50396E-12
 -1        41 2.25601E+01 1.96540E-02 3.43521E-02-1.40331E-02 3.03045E-15-1.85975E-12
 -1        42 2.20085E+01 1.90072E-02 3.60772E-02-3.32050E-02-2.13022E-14-1.80387E-12
 -1        43 2.10774E+01 1.22012E-02 2.57497E-02-5.28222E-02-7.38454E-14-1.77940E-12
 -1        44 1.98849E+01-9.71672E-04 1.25484E-03-6.43246E-02 7.84951E-14-1.58965E-12
 -1        45 1.86914E+01-1.72252E-02-3.16570E-02-5.84796E-02-3.37242E-14-1.53093E-12
 -1        46 1.78385E+01-3.02630E-02-5.92952E-02-3.20493E-02 3.24406E-14-1.71577E-12
 -1        47 1.76097E+01-3.39761E-02-6.73017E-02 7.20721E-03-3.73443E-14-1.61669E-12
 -1        48 1.80867E+01-2.64954E-02-5.11546E-02 4.34753E-02 1.42724E-14-1.62478E-12
 -1        49 1.91046E+01-1.15638E-02-1.98436E-02 6.28684E-02-1.60967E-14-1.48414E-12
 -1        50 2.03416E+01 4.13106E-03 1.12534E-02 6.17116E-02 4.96513E-14-1.24162E-12
 -1        51 2.14729E+01 1.51275E-02 3.07630E-02 4.62116E-02 1.39079E-14-9.12199E-13
 -1        52 2.22881E+01 1.94815E-02 3.61591E-02 2.60300E-02-2.17286E-14-1.12323E-12
 -1        53 2.27201E+01 1.83154E-02 3.13178E-02 8.46860E-03-5.58986E-14-1.55360E-12
 -1        54 2.28100E+01 1.40627E-02 2.19608E-02-3.36311E-03 1.33407E-13-1.24040E-12
 -1        55 2.26509E+01 8.94990E-03 1.24295E-02-9.53108E-03-7.27578E-14-6.50772E-13
 -1        56 2.23431E+01 4.37499E-03 4.88953E-03-1.15255E-02 2.31246E-14-9.54983E-13
 -1        57 2.19697E+01 9.29200E-04-1.40654E-04-1.10175E-02 3.66857E-14-8.15433E-13
 -1        58 2.15893E+01-1.32599E-03-2.99500E-03-9.31178E-03 3.77802E-15-9.92941E-13
 -1        59 2.12375E+01-2.58492E-03-4.27627E-03-7.24548E-03 1.36618E-14-1.04081E-12
 -1        60 2.09323E+01-3.11632E-03-4.55646E-03-5.27552E-03-8.48516E-14-8.45042E-13
 -1        61 2.06797E+01-3.17047E-03-4.27250E-03-3.60545E-03 6.35402E-14-9.02925E-13
 -1        62 2.04783E+01-2.94479E-03-3.71979E-03-2.29137E-03-4.19883E-14-9.61681E-13
 -1        63 2.03230E+01-2.57995E-03-3.08117E-03-1.31390E-03-9.07675E-14-1.02516E-12
 -1        64 2.02069E+01-2.16863E-03-2.46099E-03-6.21247E-04 2.30337E-14-1.31884E-12
 -1        65 2.01230E+01-1.76733E-03-1.91358E-03-1.52378E-04-1.73055E-14-1.08241E-12
 -1        66 2.00647E+01-1.40701E-03-1.46446E-03 1.52606E-04 1.16758E-13-8.27815E-13
 -1        67 2.00264E+01-1.10076E-03-1.12373E-03 3.49788E-04 1.71251E-14-3.84966E-13
 -1        68 2.00035E+01-8.46982E-04-8.88087E-04 4.95094E-04-4.40235E-14-3.99372E-13
 -1        69 1.99927E+01-6.25434E-04-7.12587E-04 6.48379E-04 4.02567E-14-3.34465E-13
 -1        70 1.99912E+01-3.66804E-04-4.16600E-04 8.76765E-04 7.20572E-14 4.66983E-13
 -1        71 1.99963E+01 5.72486E-05 5.62534E-04 1.03408E-03-7.14864E-14 4.79828E-13
 -1        72 2.09628E+01-4.03560E-01-9.78909E-01-3.10780E-01 3.07150E-14 3.68275E-12
 -1        73 1.92766E+01-6.59535E-02-2.90368E-01-5.35579E-02 2.52884E-14 3.04470E-12
 -1        74 1.86555E+01-2.08922E-02-6.42888E-02-1.97609E-02 3.56150E-15 2.52232E-12
 -1        75 1.84787E+01-1.05259E-02-9.88687E-03-1.45593E-02 2.29041E-14 2.17998E-12
 -1        76 1.85253E+01-6.11272E-03-3.97562E-04-1.12207E-02 5.50590E-15 1.87762E-12
 -1        77 1.86893E+01-3.92712E-03 1.01848E-04-8.69981E-03-1.26884E-15 1.74799E-12
 -1        78 1.89213E+01-2.90808E-03-4.65019E-04-6.73153E-03 1.64370E-15 1.61730E-12
 -1        79 1.91990E+01-2.59806E-03-1.17419E-03-5.11460E-03 1.20013E-14 1.48968E-12
 -1        80 1.95161E+01-2.76835E-03-2.19686E-03-3.79421E-03-3.87217E-15 1.35454E-12
 -1        81 1.98769E+01-3.28281E-03-3.67340E-03-2.81978E-03 9.77633E-15 1.21025E-12
 -1        82 2.02940E+01-4.02821E-03-5.64599E-03-2.32958E-03 1.29854E-14 1.04969E-12
 -1        83 2.07866E+01-4.85918E-03-8.08072E-03-2.57227E-03 2.50522E-14 9.29003E-13
 -1        84 2.13792E+01-5.53217E-03-1.08078E-02-3.95244E-03-1.49802E-14 1.03469E-12
 -1        85 2.20976E+01-5.61564E-03-1.33378E-02-7.08028E-03 9.56049E-15 1.06939E-12
 -1        86 2.29632E+01-4.38380E-03-1.45004E-02-1.27671E-02 2.97058E-14 9.02850E-13
 -1        87 2.39795E+01-7.56749E-04-1.18777E-02-2.18084E-02-5.93032E-14 9.19676E-13
 -1        88 2.51079E+01 6.51659E-03-1.26065E-03-3.42096E-02-1.46899E-14 1.12896E-12
 -1        89 2.62297E+01 1.80129E-02 2.28744E-02-4.73268E-02 1.08044E-14 9.10369E-13
 -1        90 2.70998E+01 3.16605E-02 6.35498E-02-5.27358E-02 1.16955E-14 8.19929E-13
 -1        91 2.73255E+01 4.00344E-02 1.11683E-01-3.39442E-02 2.77703E-14 8.46500E-13
 -1        92 2.64514E+01 3.11019E-02 1.34934E-01 2.74984E-02-3.56594E-14 9.46802E-13
 -1        93 2.42510E+01-1.39196E-03 8.47357E-02 1.27736E-01-9.30896E-15 1.10915E-12
 -1        94 2.11781E+01-4.31202E-02-5.48269E-02 2.10500E-01-4.24487E-15 8.87533E-13
 -1        95 1.85405E+01-6.26700E-02-2.11023E-01 1.89609E-01-1.35573E-14 8.71289E-13
 -1        96 1.78340E+01-4.57673E-02-2.52486E-01 4.53933E-02 1.19539E-13 8.15922E-13
 -1        97 1.95069E+01-9.40712E-03-1.42290E-01-1.21449E-01-1.41702E-13 7.84171E-13
 -1        98 2.25406E+01 2.11849E-02 1.77567E-02-1.95782E-01 3.24683E-14 9.20597E-13
 -1        99 2.53758E+01 3.44192E-02 1.17169E-01-1.63423E-01-1.26505E-15 5.61155E-13
 -1       100 2.70370E+01 3.18628E-02 1.28622E-01-8.69912E-02 5.01118E-16 4.51670E-13
 -1       101 2.74126E+01 2.12603E-02 8.97893E-02-2.12860E-02 6.06190E-14-8.35356E-14
 -1       102 2.68786E+01 9.95857E-03 4.29155E-02 1.62758E-02-7.93560E-15-5.75182E-14
 -1       103 2.58883E+01 1.59732E-03 9.31437E-03 3.05627E-02-2.62113E-14 1.91359E-13
 -1       104 2.47758E+01-3.26388E-03-8.49225E-03 3.17161E-02-4.43131E-15 4.70011E-13
 -1       105 2.37295E+01-5.42976E-03-1.52254E-02 2.73139E-02 1.91251E-14 7.87287E-14
 -1       106 2.28309E+01-5.92959E-03-1.59788E-02 2.14951E-02 1.79639E-15-4.96226E-14
 -1       107 2.20996E+01-5.56000E-03-1.41656E-02 1.60732E-02 3.15231E-14-5.63263E-13
 -1       108 2.15249E+01-4.82299E-03-1.16061E-02 1.16340E-02 1.35865E-14-8.33970E-13
 -1       109 2.10844E+01-3.99542E-03-9.11314E-03 8.22242E-03 6.32443E-14-6.32627E-13
 -1       110 2.07532E+01-3.21237E-03-6.97703E-03 5.69127E-03-1.74543E-14-9.16928E-13
 -1       111 2.05086E+01-2.52915E-03-5.25305E-03 3.85391E-03-3.28609E-14-7.68267E-13
 -1       112 2.03311E+01-1.96013E-03-3.90591E-03 2.54111E-03-1.26205E-13-3.89960E-13
 -1       113 2.02048E+01-1.50060E-03-2.87487E-03 1.61608E-03 1.52111E-14 2.41844E-13
 -1       114 2.01171E+01-1.13823E-03-2.10029E-03 9.73306E-04 6.01530E-15 1.38855E-13
 -1       115 2.00582E+01-8.58138E-04-1.53330E-03 5.31708E-04-3.29937E-14-1.48841E-13
 -1       116 2.00209E+01-6.43375E-04-1.13829E-03 2.26206E-04 1.47306E-13 1.05705E-13
 -1       117 1.99995E+01-4.76798E-04-8.81647E-04-2.83944E-06-1.64870E-14-8.72555E-13
 -1       118 1.99903E+01-3.29140E-04-6.92561E-04-2.23688E-04 9.07354E-14-1.24981E-12
 -1       119 1.99903E+01-1.03793E-04-3.38266E-04-5.83196E-04-1.30375E-13-1.44087E-12
 -1       120 1.99962E+01 2.36828E-04 6.03582E-04-1.03764E-03 1.59360E-13-7.68815E-13
 -1       121 1.99999E+01-3.72461E-03 4.19389E-04-1.25900E-03-6.21891E-13 1.69971E-13
 -1       122 1.99995E+01-8.86288E-03-5.58565E-04-6.88967E-04-1.97932E-13-1.94445E-13
 -1       123 1.99995E+01-6.86022E-03-7.30409E-04-1.37456E-04 3.15642E-14-1.88602E-13
 -1       124 1.99996E+01 2.32749E-03-5.00913E-04 2.55659E-04-4.67680E-13-1.48008E-13
 -1       125 1.99998E+01 1.61300E-02-1.44468E-04 4.47978E-04 3.85770E-14-4.36380E-14
 -1       126 2.00000E+01 3.07184E-02 1.90949E-04 4.66684E-04-5.09169E-13-6.87677E-14
 -1       127 2.00001E+01 4.30670E-02 4.49693E-04 3.46771E-04-5.79980E-13 1.32073E-13
 -1       128 2.00002E+01 5.01596E-02 5.88894E-04 1.38325E-04-5.62909E-13-4.42184E-14
 -1       129 2.00002E+01 5.04868E-02 5.91075E-04-1.00624E-04-2.19470E-14 3.14003E-13
 -1       130 2.00001E+01 4.40282E-02 4.58157E-04-3.10753E-04-2.64947E-13-2.83329E-13
 -1       131 2.00000E+01 3.22380E-02 2.08982E-04-4.39192E-04-1.66254E-12-1.42684E-13
 -1       132 1.99998E+01 1.80263E-02-1.11843E-04-4.32059E-04-1.65476E-12 5.01592E-13
 -1       133 1.99996E+01 4.30944E-03-4.54470E-04-2.60591E-04-1.02226E-12-3.35514E-14
 -1       134 1.99995E+01-5.24909E-03-7.19532E-04 6.90368E-05-5.75349E-13 2.11883E-13
 -1       135 1.99996E+01-7.86463E-03-5.12622E-04 8.64918E-04-3.66375E-13-6.96743E-14
 -1       136 1.99997E+01-3.58293E-03 3.85391E-04 1.73066E-03-4.94167E-13-1.34369E-14
 -1       137-1.36590E+00-2.08883E+01-3.18785E+00-3.94614E+00 2.02305E-12 5.17905E-13
 -1       138-1.95857E+00-1.06733E+01-2.54103E+00-3.84989E+00 2.24487E-12 8.81489E-13
 -1       139 1.94637E+00 1.86524E+00-1.38812E+00 2.31105E+00 2.35123E-12 1.79129E-12
 -1       140 1.36805E+01 9.78977E+00 8.03363E-02 1.15681E+01 1.80161E-12 2.03326E-12
 -1       141 3.31860E+01 1.03193E+01 1.67285E+00 1.81231E+01 5.55278E-13 8.26839E-13
 -1       142 5.50741E+01 5.36868E+00 3.11264E+00 1.58002E+01-2.24168E-13-6.55143E-13
 -1       143 6.74613E+01 1.28848E+00 3.82017E+00 5.05251E+00-8.20628E-14-1.81791E-12
 -1       144 6.57274E+01 1.88790E+00 3.71914E+00-8.23524E+00 4.94575E-13-3.06874E-12
 -1       145 5.10176E+01 6.51609E+00 2.85407E+00-1.71887E+01 1.41757E-12-3.96194E-12
 -1       146 3.01665E+01 1.05409E+01 1.43550E+00-1.74676E+01 2.44182E-12-4.03433E-12
 -1       147 1.15478E+01 8.72527E+00-1.43620E-01-1.00421E+01 3.06616E-12-3.11629E-12
 -1       148 1.33921E+00 5.37639E-01-1.51633E+00-1.46599E+00 2.95203E-12-1.95299E-12
 -1       149-1.96411E+00-1.24717E+01-2.65314E+00 3.95489E+00 1.73678E-12-8.56662E-13
 -1       150-1.25624E+00-2.24810E+01-3.26706E+00 3.22479E+00-4.56163E-13-1.22402E-14
 -1       151-8.09090E-01-2.41391E+01-3.33077E+00-1.17105E+00-1.82870E-12-5.04492E-14
 -1       152-1.57225E+00-1.68210E+01-2.84982E+00-3.91407E+00-2.91439E-12-8.44470E-13
 -1       153-8.03512E-01-4.73171E+00-1.91600E+00-1.53530E+00-3.94496E-12-2.16824E-12
 -1       154 5.19918E+00 6.04527E+00-6.84015E-01 5.74484E+00-3.53373E-12-2.74603E-12
 -1       155 3.60722E+01 9.91399E+00 1.89385E+00 1.83948E+01-1.30140E-12-2.32481E-12
 -1       156 5.38474E+01 5.09934E+00 2.88891E+00 1.53301E+01-4.13433E-13-1.10695E-12
 -1       157 6.46338E+01 1.25563E+00 3.43359E+00 5.12440E+00-6.13919E-14 2.60764E-13
 -1       158 6.31837E+01 1.85202E+00 3.37211E+00-7.74861E+00-2.17892E-13 1.78468E-12
 -1       159 4.97518E+01 6.37978E+00 2.68604E+00-1.67530E+01-1.18171E-12 2.72254E-12
 -1       160 3.10265E+01 1.07278E+01 1.57467E+00-1.78495E+01-1.94156E-12 3.43486E-12
 -1       161 1.37768E+01 1.02763E+01 2.45730E-01-1.18307E+01-1.56575E-12 1.80067E-12
 -1       162 2.09826E+00 2.40247E+00-1.17622E+00-2.59616E+00-1.08202E-12 6.48481E-13
 -1       163-1.54965E+00-9.36855E+00-2.31072E+00 3.20828E+00-1.05133E-12 3.65596E-13
 -1       164-1.25741E+00-1.99247E+01-3.05308E+00 3.62826E+00-4.72761E-13 1.67286E-13
 -1       165 2.09937E+01 3.68467E+00-5.68577E-02-3.58075E+00-4.76414E-13-2.78836E-13
 -1       166 1.99952E+01 4.20478E+00-4.53267E-02-2.77697E+00-3.84903E-13-6.97126E-13
 -1       167 1.95249E+01 4.48144E+00-3.13311E-02-2.15995E+00-2.57349E-13-8.83075E-13
 -1       168 1.92864E+01 4.62723E+00-2.35141E-02-1.64222E+00-1.44347E-13-9.57984E-13
 -1       169 1.91554E+01 4.71541E+00-1.91981E-02-1.19023E+00-5.02901E-14-9.63761E-13
 -1       170 1.90785E+01 4.77180E+00-1.70883E-02-7.70717E-01 3.06163E-14-9.36297E-13
 -1       171 1.90386E+01 4.80308E+00-1.60687E-02-3.75646E-01 1.19406E-13-8.84869E-13
 -1       172 1.90269E+01 4.81283E+00-1.57698E-02 8.03854E-03 1.87542E-13-8.43509E-13
 -1       173 1.90410E+01 4.80194E+00-1.61125E-02 3.92068E-01 2.49643E-13-7.84519E-13
 -1       174 1.90834E+01 4.76906E+00-1.71929E-02 7.88254E-01 3.26814E-13-7.07848E-13
 -1       175 1.91612E+01 4.71142E+00-1.93976E-02 1.20235E+00 3.87868E-13-5.95884E-13
 -1       176 1.92980E+01 4.61747E+00-2.37407E-02 1.66478E+00 4.67453E-13-4.27835E-13
 -1       177 1.95409E+01 4.46400E+00-3.25622E-02 2.19230E+00 5.30915E-13-1.81688E-13
 -1       178 2.00177E+01 4.18073E+00-4.68046E-02 2.81459E+00 5.46040E-13 2.29154E-13
 -1       179 2.11130E+01 3.45533E+00-5.93463E-02 3.50836E+00 4.57996E-13 9.28459E-13
 -1       180 2.23679E+01 1.13985E+00-3.35229E-01 2.99382E+00 2.90639E-13 1.81669E-12
 -1       181 2.19353E+01 8.55625E-01 7.33243E-04-1.93807E+00-4.27720E-13 3.06151E-13
 -1       182 2.04318E+01 1.90631E-01-9.77700E-03-7.43802E-01-3.79054E-13 1.27361E-13
 -1       183 1.96811E+01 1.03565E-01 1.37476E-02-2.61884E-01-2.79858E-13-4.33395E-14
 -1       184 1.93728E+01 5.08940E-02 1.02420E-02-3.67550E-02-2.05518E-13-1.91763E-13
 -1       185 1.92851E+01 2.78524E-02 5.46443E-03 8.26415E-02-1.25381E-13-2.91264E-13
 -1       186 1.93284E+01 1.66505E-02 2.85613E-03 1.51747E-01-1.16054E-13-3.54223E-13
 -1       187 1.94529E+01 1.13366E-02 1.64452E-03 1.95675E-01-1.26196E-13-4.36249E-13
 -1       188 1.96320E+01 9.31229E-03 1.09078E-03 2.27631E-01-1.13478E-13-4.95065E-13
 -1       189 1.98519E+01 9.14041E-03 8.09584E-04 2.55022E-01-1.10423E-13-5.29699E-13
 -1       190 2.01058E+01 9.75376E-03 6.24633E-04 2.81697E-01-6.90411E-14-5.51566E-13
 -1       191 2.03901E+01 1.00976E-02 4.37464E-04 3.08588E-01-7.03823E-14-6.36798E-13
 -1       192 2.07015E+01 8.93826E-03 1.74386E-04 3.33606E-01-1.80957E-14-7.15514E-13
 -1       193 2.10338E+01 4.75623E-03-2.24182E-04 3.51142E-01 3.52017E-14-7.29032E-13
 -1       194 2.13743E+01-4.22904E-03-7.92161E-04 3.51484E-01-8.53590E-15-6.83288E-13
 -1       195 2.17009E+01-1.97602E-02-1.51106E-03 3.20642E-01-6.73967E-14-5.76375E-13
 -1       196 2.19792E+01-4.27306E-02-2.27567E-03 2.41549E-01-7.13863E-14-5.76899E-13
 -1       197 2.21622E+01-7.16306E-02-2.87523E-03 9.81037E-02-9.55111E-14-6.02049E-13
 -1       198 2.21945E+01-1.00360E-01-3.01543E-03-1.16332E-01-1.18980E-13-6.68945E-13
 -1       199 2.20251E+01-1.16579E-01-2.44223E-03-3.85875E-01-8.08784E-14-6.73220E-13
 -1       200 2.16295E+01-1.03320E-01-1.11668E-03-6.58978E-01-2.40162E-14-7.37707E-13
 -1       201 2.10383E+01-4.71536E-02 5.87765E-04-8.46824E-01 7.21967E-14-6.24724E-13
 -1       202 2.03596E+01 4.77395E-02 2.07943E-03-8.48616E-01-7.18588E-15-6.48137E-13
 -1       203 1.97696E+01 1.49812E-01 2.97162E-03-6.06744E-01-5.54717E-14-6.29220E-13
 -1       204 1.94555E+01 2.10633E-01 3.25301E-03-1.62533E-01-6.72596E-15-6.68528E-13
 -1       205 1.95291E+01 1.96709E-01 3.19429E-03 3.40105E-01-3.95968E-14-6.29928E-13
 -1       206 1.99649E+01 1.16015E-01 2.74475E-03 7.25030E-01 1.83639E-13-5.27056E-13
 -1       207 2.06152E+01 1.15478E-02 1.65436E-03 8.80290E-01 1.01496E-13-5.84265E-13
 -1       208 2.12879E+01-7.13538E-02 3.07820E-05 8.04184E-01 1.73775E-13-5.17850E-13
 -1       209 2.18281E+01-1.11039E-01-1.55577E-03 5.77358E-01-1.38795E-13-4.21810E-13
 -1       210 2.21576E+01-1.11347E-01-2.61727E-03 3.01463E-01-2.19614E-13-3.76239E-13
 -1       211 2.22697E+01-8.83720E-02-2.90199E-03 5.33485E-02 1.26880E-13-3.65266E-13
 -1       212 2.22026E+01-5.79756E-02-2.54169E-03-1.29191E-01 2.46586E-13-5.66008E-13
 -1       213 2.20122E+01-3.01960E-02-1.83106E-03-2.39886E-01-9.01938E-14-4.75032E-13
 -1       214 2.17530E+01-9.24254E-03-1.04521E-03-2.89944E-01 2.34585E-14-4.65299E-13
 -1       215 2.14687E+01 4.41449E-03-3.62550E-04-2.96510E-01-5.46930E-14-6.53580E-13
 -1       216 2.11902E+01 1.20323E-02 1.39967E-04-2.75996E-01-3.78679E-14-7.55709E-13
 -1       217 2.09361E+01 1.53200E-02 4.56655E-04-2.41324E-01-3.34473E-14-8.76035E-13
 -1       218 2.07158E+01 1.58256E-02 6.18536E-04-2.01483E-01 1.79799E-14-6.26180E-13
 -1       219 2.05325E+01 1.47345E-02 6.68167E-04-1.62097E-01 8.91796E-14-4.47462E-13
 -1       220 2.03847E+01 1.28663E-02 6.45572E-04-1.26281E-01-1.59227E-13-3.51185E-13
 -1       221 2.02691E+01 1.07455E-02 5.82487E-04-9.54436E-02-1.15831E-13-5.12600E-13
 -1       222 2.01813E+01 8.68293E-03 5.01414E-04-6.99123E-02 1.72761E-13-4.74967E-13
 -1       223 2.01164E+01 6.84699E-03 4.16612E-04-4.93850E-02 2.32906E-13-1.98645E-13
 -1       224 2.00702E+01 5.31498E-03 3.34971E-04-3.32297E-02 2.60829E-13-1.92133E-13
 -1       225 2.00387E+01 4.10730E-03 2.57211E-04-2.06829E-02 1.59572E-13 8.63024E-15
 -1       226 2.00185E+01 3.19112E-03 1.82076E-04-1.09896E-02-4.29334E-14-1.65588E-13
 -1       227 2.00070E+01 2.42396E-03 1.29301E-04-3.60828E-03 3.70195E-13-2.64164E-13
 -1       228 2.00013E+01 1.41464E-03 1.04619E-04 1.48125E-03 7.34202E-14-7.14542E-14
 -1       229 2.09294E+01 2.76417E-01-5.09862E-02 1.14823E+00 3.30784E-13 1.58201E-12
 -1       230 1.98568E+01 1.27477E-01 8.47534E-03 4.26149E-01 2.61054E-13 1.31945E-12
 -1       231 1.93776E+01 5.98694E-02 1.28864E-02 1.28760E-01 1.96520E-13 1.08361E-12
 -1       232 1.92040E+01 3.07842E-02 7.83079E-03-1.86143E-02 1.51592E-13 9.30906E-13
 -1       233 1.92042E+01 1.76260E-02 4.09808E-03-1.00143E-01 8.96946E-14 7.81190E-13
 -1       234 1.93095E+01 1.15204E-02 2.26490E-03-1.50180E-01 7.74227E-14 6.51534E-13
 -1       235 1.94847E+01 9.29322E-03 1.45509E-03-1.86020E-01 9.41309E-14 5.63006E-13
 -1       236 1.97138E+01 9.61568E-03 1.09262E-03-2.17976E-01 7.10766E-14 4.93910E-13
 -1       237 1.99928E+01 1.18520E-02 9.20815E-04-2.53153E-01 9.16577E-14 3.98764E-13
 -1       238 2.03255E+01 1.56284E-02 8.21628E-04-2.96916E-01 5.18199E-14 4.00099E-13
 -1       239 2.07219E+01 2.05963E-02 7.12406E-04-3.53345E-01 6.23602E-14 3.86382E-13
 -1       240 2.11951E+01 2.61898E-02 5.03746E-04-4.24940E-01-5.51698E-14 3.57713E-13
 -1       241 2.17590E+01 3.12534E-02 9.17640E-05-5.11413E-01 1.93940E-14 3.30912E-13
 -1       242 2.24226E+01 3.34296E-02-6.08856E-04-6.07069E-01 4.60737E-14 3.68486E-13
 -1       243 2.31825E+01 2.82599E-02-1.55717E-03-6.96145E-01-5.07104E-14 4.63004E-13
 -1       244 2.40088E+01 8.28060E-03-2.36436E-03-7.45868E-01-6.02569E-14 3.91290E-13
 -1       245 2.48280E+01-3.66218E-02-2.05159E-03-6.99199E-01 1.41574E-13 4.46403E-13
 -1       246 2.55036E+01-1.14277E-01 7.54347E-04-4.75331E-01 3.63685E-15 4.32080E-13
 -1       247 2.58333E+01-2.15470E-01 6.41811E-03 2.93719E-03-5.36871E-14 5.22307E-13
 -1       248 2.55898E+01-2.89568E-01 1.13773E-02 7.29224E-01-1.58157E-13 6.16854E-13
 -1       249 2.46481E+01-2.36245E-01 8.04635E-03 1.48708E+00-3.80065E-14 8.05302E-13
 -1       250 2.31942E+01 1.55193E-02-1.04244E-02 1.80764E+00 1.72598E-13 8.41476E-13
 -1       251 2.18454E+01 3.66507E-01-3.66396E-02 1.24666E+00 1.08826E-13 3.75104E-13
 -1       252 2.13965E+01 5.30262E-01-4.34877E-02-7.25682E-02 4.54567E-14 1.43265E-13
 -1       253 2.21564E+01 3.49252E-01-2.28710E-02-1.34415E+00-1.54234E-14 1.58805E-13
 -1       254 2.36355E+01 2.20460E-03 1.94683E-03-1.81460E+00-9.76136E-14 1.98197E-13
 -1       255 2.50210E+01-2.36322E-01 1.26517E-02-1.43203E+00 1.99356E-13 3.03649E-13
 -1       256 2.57944E+01-2.80089E-01 9.42811E-03-6.64932E-01 9.50186E-14 1.00909E-13
 -1       257 2.58796E+01-2.06986E-01 2.08536E-03 3.86211E-02 2.02222E-13-9.22309E-15
 -1       258 2.54520E+01-1.09454E-01-2.90192E-03 4.87873E-01-4.53977E-14-1.33819E-13
 -1       259 2.47431E+01-3.45403E-02-4.08441E-03 6.87764E-01-1.61330E-13-6.92107E-14
 -1       260 2.39398E+01 9.30561E-03-3.09754E-03 7.17605E-01 2.92891E-14-1.93707E-13
 -1       261 2.31611E+01 2.94269E-02-1.58523E-03 6.55912E-01 1.78931E-13-1.52178E-13
 -1       262 2.24685E+01 3.52708E-02-3.51129E-04 5.57013E-01 3.94258E-14-2.22351E-13
 -1       263 2.18850E+01 3.38764E-02 4.11703E-04 4.51864E-01 1.81073E-13-3.25378E-13
 -1       264 2.14111E+01 2.94819E-02 7.79476E-04 3.55371E-01 6.32378E-14-2.63672E-13
 -1       265 2.10364E+01 2.43142E-02 8.89923E-04 2.73144E-01-4.91386E-14-2.68205E-13
 -1       266 2.07463E+01 1.94046E-02 8.58686E-04 2.06037E-01 1.71977E-13-3.24106E-13
 -1       267 2.05258E+01 1.51501E-02 7.62169E-04 1.52766E-01-1.41919E-13-3.85136E-13
 -1       268 2.03611E+01 1.16402E-02 6.44397E-04 1.11291E-01-2.86220E-13-1.57290E-13
 -1       269 2.02401E+01 8.83170E-03 5.28005E-04 7.94730E-02-1.55254E-13-1.33526E-13
 -1       270 2.01532E+01 6.63471E-03 4.22824E-04 5.53465E-02 1.50264E-13-1.48408E-13
 -1       271 2.00922E+01 4.95307E-03 3.30976E-04 3.72139E-02 1.86365E-13-2.05814E-13
 -1       272 2.00510E+01 3.69825E-03 2.48140E-04 2.36525E-02 9.81599E-14-5.61272E-13
 -1       273 2.00246E+01 2.78622E-03 1.71063E-04 1.34960E-02 2.74252E-13-3.64044E-13
 -1       274 2.00093E+01 2.14440E-03 1.07312E-04 5.88057E-03 6.62405E-14-3.42743E-13
 -1       275 2.00019E+01 1.60491E-03 1.13025E-04 2.59707E-04-3.31187E-14-1.95550E-13
 -1       276 1.99997E+01 2.22900E-04 2.35061E-04-2.82030E-03-2.16184E-13-2.75555E-13
 -1       277 2.00013E+01 8.31794E-04 8.65786E-05-1.47717E-03-8.36847E-14 3.38070E-13
 -1       278 2.00021E+01 5.20451E-03 1.90206E-05 3.24645E-03 1.52039E-13-1.88168E-14
 -1       279 2.00017E+01 1.33484E-02 3.45356E-06 8.26918E-03 6.05889E-14-3.55130E-13
 -1       280 2.00006E+01 2.43139E-02-7.16649E-07 1.14039E-02-1.01733E-13 3.58355E-14
 -1       281 1.99995E+01 3.60613E-02-2.42790E-05 1.19198E-02-2.67962E-13-2.97484E-13
 -1       282 1.99985E+01 4.67863E-02-4.86870E-05 9.79705E-03 2.74338E-14-1.71598E-13
 -1       283 1.99978E+01 5.42119E-02-6.89614E-05 5.57800E-03-2.01546E-13 1.38264E-13
 -1       284 1.99976E+01 5.69348E-02-7.66537E-05 2.16639E-04-3.86168E-14 1.14052E-13
 -1       285 1.99978E+01 5.44561E-02-6.97707E-05-5.15526E-03-2.67180E-13-9.42569E-14
 -1       286 1.99985E+01 4.72691E-02-5.04274E-05-9.41982E-03-2.07956E-13-7.59408E-13
 -1       287 1.99994E+01 3.69649E-02-2.37485E-05-1.16386E-02-2.15937E-13-8.04259E-14
 -1       288 2.00005E+01 2.51493E-02-2.32940E-06-1.13415E-02-3.04364E-13 3.04323E-13
 -1       289 2.00015E+01 1.41574E-02 1.13279E-06-8.42708E-03-1.03588E-13 3.09319E-13
 -1       290 2.00020E+01 6.16130E-03 6.41934E-05-3.83442E-03-5.43138E-14 7.06264E-15
 -1       291 2.00030E+01 3.76076E-03 5.23855E-05-8.38912E-04 6.59128E-14-2.80948E-13
 -1       292-1.00831E+00-1.10390E+01-1.01383E+00 6.83786E-01 5.64417E-13 5.23304E-13
 -1       293 1.96018E+00-9.15450E+00-8.81195E-01 2.78508E+00 6.88755E-13 3.30895E-13
 -1       294 8.54747E+00-5.83732E+00-5.74019E-01 5.16369E+00 7.38798E-13 6.12628E-13
 -1       295 1.74729E+01-1.75517E+00-2.21531E-01 6.79046E+00 7.04603E-13 3.17413E-13
 -1       296 2.84086E+01 1.82159E+00 2.58125E-01 7.46909E+00 7.57117E-13-2.08944E-13
 -1       297 3.91280E+01 4.57501E+00 7.50096E-01 6.27482E+00 5.22273E-13-5.67990E-13
 -1       298 4.48412E+01 6.48202E+00 8.98682E-01 2.54605E+00 4.52999E-13-8.80462E-13
 -1       299 4.82595E+01 6.67766E+00 1.14856E+00-4.77665E-01 5.73708E-13-1.27509E-12
 -1       300 4.44165E+01 6.09398E+00 9.38413E-01-3.58831E+00 8.74315E-13-1.37118E-12
 -1       301 3.72807E+01 4.10383E+00 6.30371E-01-6.39665E+00 1.10264E-12-1.66123E-12
 -1       302 2.79249E+01-4.07616E-01 1.24800E-01-6.05036E+00 8.25034E-13-1.48057E-12
 -1       303 1.62590E+01-2.37883E+00-2.61772E-01-6.65273E+00 1.17420E-12-1.45717E-12
 -1       304 8.08949E+00-6.33665E+00-5.36487E-01-5.21697E+00 6.73489E-13-1.29606E-12
 -1       305 1.70310E+00-8.54587E+00-6.66667E-01-3.11898E+00-4.44089E-16-1.26592E-12
 -1       306-1.16371E+00-1.05441E+01-8.93999E-01-2.44150E-01-3.90514E-13-6.42653E-13
 -1       307 1.80855E-02-9.43948E+00-7.81461E-01 2.29122E+00-7.98542E-13-7.67678E-13
 -1       308 4.42863E+00-7.40608E+00-6.67998E-01 4.33931E+00-1.09007E-12-1.13202E-12
 -1       309 1.11891E+01-3.70997E+00-4.06565E-01 6.07855E+00-1.52445E-12-9.60509E-13
 -1       310 2.01211E+01 1.94816E-02-1.56441E-02 7.52601E+00-1.53241E-12-1.09046E-12
 -1       311 2.97902E+01 3.09781E+00 3.81031E-01 7.78628E+00-1.37751E-12-9.93372E-13
 -1       312 3.86785E+01 5.17026E+00 7.22128E-01 6.41872E+00-1.04385E-12-5.50116E-13
 -1       313 4.40806E+01 6.45429E+00 8.74610E-01 3.13503E+00-7.88758E-13-2.41682E-13
 -1       314 4.57635E+01 6.89090E+00 9.29058E-01-3.63717E-01-7.68219E-13 1.17063E-13
 -1       315 4.24132E+01 6.29614E+00 7.64334E-01-3.50733E+00-6.60347E-13 5.85254E-13
 -1       316 3.65731E+01 4.71698E+00 6.43488E-01-6.91937E+00-8.59937E-13 8.12489E-13
 -1       317 2.72025E+01 2.34152E+00 2.65309E-01-7.81920E+00-2.82468E-13 1.33094E-12
 -1       318 1.78074E+01-1.75432E+00-1.24210E-01-7.10523E+00-2.96124E-13 9.85351E-13
 -1       319 8.21984E+00-5.17468E+00-5.33456E-01-5.38466E+00-3.67317E-13 3.05679E-13
 -1       320 2.28601E+00-8.66376E+00-8.22565E-01-3.33779E+00-9.30367E-14 3.53023E-13
 -1       321-8.51716E-01-1.08208E+01-9.85018E-01-1.31047E+00 1.22943E-13 7.63292E-13
 -1       322 2.01588E+01 3.02199E+00-1.78382E-02-2.06915E+00-3.89704E-13-5.88644E-13
 -1       323 2.07554E+01 2.20702E+00-1.76100E-02-2.32788E+00-4.81220E-13-3.67088E-13
 -1       324 1.95991E+01 3.72033E+00-1.49259E-02-1.27772E+00-1.28860E-13-7.56954E-13
 -1       325 1.94695E+01 3.88798E+00-1.33615E-02-8.91573E-01-2.39577E-14-7.50245E-13
 -1       326 1.93949E+01 3.98659E+00-1.24356E-02-5.23168E-01 8.72000E-14-7.10265E-13
 -1       327 1.93612E+01 4.03216E+00-1.20108E-02-1.66238E-01 1.82974E-13-6.71106E-13
 -1       328 1.93628E+01 4.03065E+00-1.20323E-02 1.86842E-01 2.68345E-13-6.38323E-13
 -1       329 1.94001E+01 3.98161E+00-1.25061E-02 5.44092E-01 3.39374E-13-5.72652E-13
 -1       330 1.94769E+01 3.88061E+00-1.35613E-02 9.06968E-01 4.30550E-13-4.82051E-13
 -1       331 1.96097E+01 3.70782E+00-1.55049E-02 1.29346E+00 5.17049E-13-3.49539E-13
 -1       332 1.98278E+01 3.42733E+00-1.87280E-02 1.69575E+00 5.82685E-13-1.74707E-13
 -1       333 2.01939E+01 2.96160E+00-2.27860E-02 2.08593E+00 6.03899E-13 7.01670E-14
 -1       334 2.07474E+01 2.12863E+00-3.02532E-02 2.28750E+00 5.48542E-13 5.33133E-13
 -1       335 2.10791E+01 1.18602E+00-2.46489E-02 1.89470E+00 4.62469E-13 9.51062E-13
 -1       336 2.03932E+01 4.92066E-01 8.48770E-03 8.96990E-01 3.86121E-13 7.59479E-13
 -1       337 2.04709E+01 6.82124E-01 1.24958E-02-9.84614E-01-3.95558E-13-2.47928E-13
 -1       338 2.00734E+01 3.47338E-01 6.97379E-03-4.05926E-01-3.10527E-13-2.53381E-13
 -1       339 1.98486E+01 1.95473E-01 4.27641E-03-7.81866E-02-2.12109E-13-2.66073E-13
 -1       340 1.97533E+01 1.16415E-01 2.21331E-03 1.18137E-01-1.60688E-13-3.14894E-13
 -1       341 1.97508E+01 7.51626E-02 1.18465E-03 2.42747E-01-1.53271E-13-3.23180E-13
 -1       342 1.98142E+01 5.46764E-02 7.47429E-04 3.28231E-01-1.21907E-13-3.35127E-13
 -1       343 1.99262E+01 4.61510E-02 5.67719E-04 3.93694E-01-1.22678E-13-3.08619E-13
 -1       344 2.00760E+01 4.40087E-02 4.87981E-04 4.50212E-01-1.06035E-13-3.17121E-13
 -1       345 2.02574E+01 4.36704E-02 4.26226E-04 5.03093E-01-1.29580E-13-3.75498E-13
 -1       346 2.04666E+01 4.04654E-02 3.19433E-04 5.52524E-01-1.16408E-13-3.98295E-13
 -1       347 2.07005E+01 2.90310E-02 1.05686E-04 5.93342E-01-3.18362E-14-3.94023E-13
 -1       348 2.09546E+01 3.14118E-03-2.75527E-04 6.14381E-01 4.06140E-14-3.86921E-13
 -1       349 2.12218E+01-4.37373E-02-8.69185E-04 5.97962E-01 5.75290E-14-4.15804E-13
 -1       350 2.14899E+01-1.16532E-01-1.67473E-03 5.20469E-01-2.28231E-14-3.67830E-13
 -1       351 2.17396E+01-2.14461E-01-2.59796E-03 3.55639E-01-7.64492E-14-2.91873E-13
 -1       352 2.19422E+01-3.24381E-01-3.40886E-03 8.29281E-02-1.73143E-13-2.23887E-13
 -1       353 2.20585E+01-4.13294E-01-3.69852E-03-2.96895E-01-6.92578E-14-2.13868E-13
 -1       354 2.20430E+01-4.26630E-01-3.03230E-03-7.39819E-01-2.90850E-14-1.34048E-13
 -1       355 2.18602E+01-3.03721E-01-1.18889E-03-1.14029E+00 8.65420E-14-1.38940E-13
 -1       356 2.15168E+01-1.92098E-02 1.24140E-03-1.33893E+00 9.23552E-14-1.30239E-13
 -1       357 2.10970E+01 3.64869E-01 3.36454E-03-1.18344E+00-2.52962E-14-1.30615E-13
 -1       358 2.07604E+01 6.90016E-01 4.68611E-03-6.36382E-01-8.24132E-14-1.36023E-13
 -1       359 2.06661E+01 7.84853E-01 4.96694E-03 1.48364E-01 2.58235E-14-2.02661E-13
 -1       360 2.08644E+01 5.94238E-01 4.30117E-03 8.78668E-01 7.91259E-14-2.49334E-13
 -1       361 2.12565E+01 2.27191E-01 2.72287E-03 1.29539E+00 8.88304E-14-4.67044E-13
 -1       362 2.16700E+01-1.34067E-01 3.47276E-04 1.31509E+00 1.66644E-13-5.33026E-13
 -1       363 2.19688E+01-3.60979E-01-1.81423E-03 1.02955E+00 1.24221E-13-5.49468E-13
 -1       364 2.20996E+01-4.27697E-01-3.25048E-03 6.04425E-01-1.66831E-14-3.33296E-13
 -1       365 2.20760E+01-3.78275E-01-3.55407E-03 1.83904E-01-1.26548E-13-4.43575E-14
 -1       366 2.19405E+01-2.74664E-01-3.01883E-03-1.49391E-01 6.68384E-14-1.92140E-13
 -1       367 2.17381E+01-1.64312E-01-2.11594E-03-3.69474E-01 1.04211E-13-2.81281E-13
 -1       368 2.15049E+01-7.24213E-02-1.19377E-03-4.85361E-01-8.70767E-14-3.22959E-13
 -1       369 2.12665E+01-6.98971E-03-4.37750E-04-5.21048E-01-2.13567E-13-3.85495E-13
 -1       370 2.10395E+01 3.35805E-02 9.41134E-05-5.02823E-01-7.67738E-14-3.52832E-13
 -1       371 2.08338E+01 5.47009E-02 4.16717E-04-4.53152E-01-1.24316E-13-2.87025E-13
 -1       372 2.06543E+01 6.23138E-02 5.75191E-04-3.88779E-01 1.59358E-13-2.36977E-13
 -1       373 2.05025E+01 6.14609E-02 6.19909E-04-3.20966E-01 3.22368E-13-2.17450E-13
 -1       374 2.03774E+01 5.58992E-02 5.94283E-04-2.56562E-01 1.47392E-13 8.80190E-14
 -1       375 2.02769E+01 4.81961E-02 5.30985E-04-1.99202E-01-2.01302E-13 3.76463E-13
 -1       376 2.01981E+01 3.99820E-02 4.52225E-04-1.50354E-01-6.57704E-14 1.81026E-13
 -1       377 2.01376E+01 3.22148E-02 3.71961E-04-1.10130E-01 3.50586E-13 1.31508E-13
 -1       378 2.00923E+01 2.53983E-02 2.98182E-04-7.78585E-02 3.59379E-13 1.37214E-13
 -1       379 2.00593E+01 1.97331E-02 2.33019E-04-5.24855E-02 2.66976E-13 1.40794E-13
 -1       380 2.00359E+01 1.51998E-02 1.79307E-04-3.28746E-02-2.19002E-13 1.68040E-13
 -1       381 2.00198E+01 1.15496E-02 1.54603E-04-1.79551E-02-1.25406E-13 1.14572E-13
 -1       382 2.00097E+01 7.85874E-03 6.38773E-05-7.70208E-03 2.71897E-13-1.30048E-13
 -1       383 1.99156E+01 2.35210E-01 1.09514E-02 3.60074E-01 3.03666E-13 6.27199E-13
 -1       384 1.96596E+01 1.26426E-01 6.42199E-03 6.73090E-02 2.31998E-13 4.99001E-13
 -1       385 1.95694E+01 7.38965E-02 3.16842E-03-1.02567E-01 1.59347E-13 3.88944E-13
 -1       386 1.95899E+01 4.83484E-02 1.67436E-03-2.08970E-01 1.27877E-13 3.08603E-13
 -1       387 1.96874E+01 3.77958E-02 1.11121E-03-2.84168E-01 1.35870E-13 2.22401E-13
 -1       388 1.98429E+01 3.69020E-02 9.62515E-04-3.47536E-01 9.07842E-14 1.60944E-13
 -1       389 2.00478E+01 4.29985E-02 1.01302E-03-4.12104E-01 1.23312E-13 1.33659E-13
 -1       390 2.03008E+01 5.44621E-02 1.17211E-03-4.87332E-01 4.15704E-14 1.69721E-13
 -1       391 2.06053E+01 6.98269E-02 1.37606E-03-5.80084E-01 7.66824E-14 1.61646E-13
 -1       392 2.09680E+01 8.69564E-02 1.54140E-03-6.94372E-01 1.07314E-14 1.62211E-13
 -1       393 2.13964E+01 1.01885E-01 1.53676E-03-8.29759E-01 7.30434E-14 8.58776E-14
 -1       394 2.18965E+01 1.07041E-01 1.16547E-03-9.77902E-01 2.28582E-15 9.28103E-14
 -1       395 2.24697E+01 8.88136E-02 1.81642E-04-1.11656E+00-6.98797E-14 1.50630E-13
 -1       396 2.31075E+01 2.53451E-02-1.61362E-03-1.20088E+00-1.89113E-14 1.37054E-13
 -1       397 2.37864E+01-1.11895E-01-4.09632E-03-1.15427E+00 1.19034E-13 1.02811E-13
 -1       398 2.44581E+01-3.44226E-01-6.56546E-03-8.67838E-01 5.28902E-14 1.56683E-13
 -1       399 2.50348E+01-6.46071E-01-7.97432E-03-2.30468E-01-8.43206E-14 2.05264E-13
 -1       400 2.53720E+01-8.78797E-01-8.21930E-03 7.76434E-01-1.35902E-13 3.75294E-13
 -1       401 2.52753E+01-7.59105E-01-1.07921E-02 1.90620E+00-1.42747E-13 4.10448E-13
 -1       402 2.46581E+01-4.67240E-02-1.47811E-02 2.51970E+00 2.36458E-13 3.31090E-13
 -1       403 2.37761E+01 1.04327E+00-2.76337E-02 1.90522E+00 3.18015E-13 2.45690E-13
 -1       404 2.33377E+01 1.63289E+00-3.10059E-02 7.69902E-02 1.29192E-13 8.44949E-14
 -1       405 2.37747E+01 1.13581E+00-1.88665E-02-1.81006E+00 2.85865E-14 3.83070E-14
 -1       406 2.46741E+01 5.49567E-02-1.10530E-02-2.54274E+00 2.58907E-16-1.45484E-13
 -1       407 2.53324E+01-7.25121E-01-1.02324E-02-1.99631E+00 1.10112E-13-2.47447E-13
 -1       408 2.54458E+01-8.90288E-01-1.13696E-02-8.76153E-01 1.40216E-13-1.47659E-13
 -1       409 2.51164E+01-6.73011E-01-1.08053E-02 1.51990E-01 2.63030E-13-3.30012E-14
 -1       410 2.45436E+01-3.65052E-01-8.56993E-03 8.13135E-01 6.44827E-14-5.17537E-14
 -1       411 2.38821E+01-1.21533E-01-4.94504E-03 1.11263E+00 2.19614E-14-3.92346E-13
 -1       412 2.32216E+01 2.52554E-02-1.69671E-03 1.16157E+00 5.49371E-14-7.14670E-13
 -1       413 2.26100E+01 9.53860E-02 4.66473E-04 1.07101E+00 3.70141E-15-4.15771E-13
 -1       414 2.20709E+01 1.17864E-01 1.59774E-03 9.20036E-01 4.83523E-14-2.37528E-13
 -1       415 2.16125E+01 1.15276E-01 2.00344E-03 7.55572E-01 1.65168E-13 1.14622E-15
 -1       416 2.12336E+01 1.01707E-01 1.98859E-03 6.01553E-01 7.29273E-14-3.42310E-14
 -1       417 2.09275E+01 8.48262E-02 1.77294E-03 4.67951E-01-5.83358E-14-2.01789E-13
 -1       418 2.06852E+01 6.83482E-02 1.48849E-03 3.57179E-01 1.32753E-13-1.08878E-13
 -1       419 2.04966E+01 5.38111E-02 1.20405E-03 2.67996E-01-1.20277E-13-6.05701E-14
 -1       420 2.03525E+01 4.16553E-02 9.50127E-04 1.97669E-01-3.26550E-13-6.38375E-14
 -1       421 2.02440E+01 3.18200E-02 7.36672E-04 1.43081E-01-1.26357E-13-8.07362E-14
 -1       422 2.01640E+01 2.40486E-02 5.63575E-04 1.01245E-01 2.10200E-13-1.86034E-13
 -1       423 2.01061E+01 1.80350E-02 4.26020E-04 6.95101E-02 3.38021E-13 1.18185E-13
 -1       424 2.00654E+01 1.34744E-02 3.13238E-04 4.56209E-02 3.07691E-13-1.44683E-13
 -1       425 2.00376E+01 1.00881E-02 2.19980E-04 2.76946E-02 1.24125E-13-2.91443E-13
 -1       426 2.00196E+01 7.50521E-03 1.54523E-04 1.44009E-02 4.98823E-14-8.50008E-14
 -1       427 2.00086E+01 5.22014E-03 1.00631E-04 4.81228E-03-3.98088E-13 3.55929E-13
 -1       428 2.00043E+01 3.59620E-03 4.23578E-05 1.00510E-03-2.40870E-13 7.35842E-13
 -1       429 2.00045E+01 3.14226E-02 3.13205E-05 2.05870E-02-6.35511E-14-3.82314E-13
 -1       430 2.00077E+01 1.89010E-02 7.06117E-05 1.45360E-02-2.65003E-13-1.66625E-13
 -1       431 2.00071E+01 9.89731E-03 6.51326E-05 7.23683E-03-3.63180E-13 6.56018E-14
 -1       432 2.00004E+01 4.43116E-02 1.55463E-06 2.28242E-02-2.94354E-13-5.75352E-13
 -1       433 1.99961E+01 5.63494E-02-2.82630E-05 2.05531E-02-1.12891E-13 1.78308E-13
 -1       434 1.99928E+01 6.54830E-02-5.72598E-05 1.42539E-02 1.42094E-13-2.28114E-13
 -1       435 1.99910E+01 7.03694E-02-7.37468E-05 5.22820E-03-7.39803E-14-3.92810E-14
 -1       436 1.99910E+01 7.02882E-02-7.44484E-05-4.75276E-03-1.66735E-13 8.24115E-15
 -1       437 1.99928E+01 6.52739E-02-5.91871E-05-1.37743E-02-3.02585E-13-4.00239E-13
 -1       438 1.99959E+01 5.63007E-02-3.14736E-05-2.00311E-02 1.14357E-13-2.85158E-13
 -1       439 2.00000E+01 4.43900E-02-7.14276E-07-2.25230E-02 2.26966E-13 2.00502E-13
 -1       440 2.00041E+01 3.14033E-02 3.03434E-05-2.06151E-02 1.05985E-13 3.13400E-13
 -1       441 2.00073E+01 1.88394E-02 5.29838E-05-1.47872E-02-5.16028E-14 1.92299E-13
 -1       442 9.14442E+00-5.68405E+00-7.68607E-02 6.36251E+00-5.42066E-14 3.40714E-13
 -1       443 1.00627E+00-4.58721E+00-7.82508E-02-3.89938E-01-2.06458E-13 7.99832E-13
 -1       444 3.28886E+00-4.76353E+00-6.09782E-02 3.79170E+00-2.67772E-13 2.11192E-13
 -1       445 1.80012E+01-5.66225E+00-5.88167E-02 6.56130E+00 1.15657E-13-9.57567E-15
 -1       446 2.63134E+01-3.72275E+00-1.21625E-02 4.64560E+00 4.31918E-13-5.27120E-13
 -1       447 1.98048E+01 3.45681E+00-2.06864E-02-1.68285E+00-2.57228E-13-7.05901E-13
 -1       448 3.52688E+01 4.39455E+00 2.06249E-02-6.17072E-01 5.37528E-13-5.68129E-13
 -1       449 3.69824E+01 7.76596E+00 1.11720E-01-2.81094E-01 5.54223E-13-3.55157E-13
 -1       450 3.73754E+01 7.46218E+00 1.41218E-01 2.99833E-01 6.61721E-13-3.80085E-13
 -1       451 3.46392E+01 3.49035E+00-1.77567E-02 6.11939E-01 6.51451E-13-2.72352E-13
 -1       452 3.18835E+01-7.84155E-01-4.48924E-02-8.25214E-01 3.92716E-13-3.52232E-13
 -1       453 2.43859E+01-4.64646E+00-5.43257E-02-5.03256E+00 1.80869E-13-7.06296E-13
 -1       454 1.72839E+01-5.86065E+00-2.78259E-02-6.66603E+00 6.97636E-14-7.74828E-13
 -1       455 9.66259E+00-5.00338E+00 5.81570E-02-6.52257E+00-1.26107E-13-1.27002E-12
 -1       456 2.21162E+00-4.65387E+00-6.78508E-02-2.72507E+00-8.66390E-14-1.08107E-12
 -1       457 1.52818E+00-4.08308E+00-3.18396E-02 1.49645E+00-1.45023E-13-7.17620E-13
 -1       458 5.40554E+00-4.93685E+00-4.78938E-02 5.61417E+00-1.50838E-13-8.23827E-13
 -1       459 1.23303E+01-5.54599E+00-5.98980E-02 7.18449E+00-2.50022E-13-6.36685E-13
 -1       460 2.00934E+01-4.71587E+00-3.08024E-02 6.59940E+00-6.05155E-13-4.06425E-13
 -1       461 2.73055E+01-2.35189E+00 1.46216E-02 4.40464E+00-8.56856E-13-1.93526E-13
 -1       462 3.23146E+01 1.45832E+00 5.07494E-02 1.99017E+00-9.46895E-13-1.54016E-13
 -1       463 3.49107E+01 5.30123E+00 5.12027E-02 3.66226E-01-9.42357E-13-2.26583E-13
 -1       464 3.45599E+01 7.94213E+00-1.78615E-02-2.50215E-01-9.14768E-13-1.71970E-13
 -1       465 3.46943E+01 7.63671E+00-5.29770E-03 2.99968E-01-7.67900E-13-2.28435E-13
 -1       466 3.37078E+01 4.12269E+00 1.03439E-03-2.11812E-01-3.63320E-13-2.48718E-13
 -1       467 3.12561E+01 4.75731E-01 4.08236E-02-2.73618E+00-4.44124E-14 7.30249E-14
 -1       468 2.59909E+01-3.28487E+00 1.41376E-02-4.78517E+00 1.97536E-13 5.15935E-13
 -1       469 1.68996E+01-5.25289E+00-5.21954E-02-7.06849E+00-3.18634E-14 6.42174E-13
 -1       470 9.36501E+00-5.42907E+00-5.59777E-02-6.84006E+00-2.57155E-14 1.51164E-13
 -1       471 3.67928E+00-4.47366E+00-2.74863E-02-4.52233E+00 7.61197E-14 7.31623E-13
 -1       472 3.28777E+01 1.97011E-01 5.43472E-02 1.90563E+00 6.13358E-13-7.08655E-13
 -1       473 2.90949E+01-4.01412E+00-2.47688E-02-1.45394E+00-4.47732E-14-3.12160E-13
 -1       474 2.03978E+01 8.46268E-01 4.04844E-03 9.19277E-01 4.25243E-13 2.43477E-13
 -1       475 1.97276E+01 3.17098E+00-5.27018E-03-5.98920E-01 3.52658E-14-6.52242E-13
 -1       476 1.98335E+01 2.98475E+00-5.66167E-03-9.03118E-01-7.23819E-14-6.67955E-13
 -1       477 1.96504E+01 3.30568E+00-4.91286E-03 8.72229E-03 2.02055E-13-5.95411E-13
 -1       478 1.96720E+01 3.26989E+00-4.99494E-03 3.11425E-01 2.84939E-13-5.57262E-13
 -1       479 1.97334E+01 3.16474E+00-5.32445E-03 6.10480E-01 3.65166E-13-4.67649E-13
 -1       480 1.98422E+01 2.97387E+00-5.88003E-03 9.13702E-01 4.49993E-13-3.69925E-13
 -1       481 2.00070E+01 2.67301E+00-6.49159E-03 1.20239E+00 5.07171E-13-2.33504E-13
 -1       482 2.02539E+01 2.21091E+00-5.68191E-03 1.44721E+00 5.38599E-13-6.85311E-14
 -1       483 2.01573E+01 4.77970E-01 5.19178E-03 3.93773E-01 3.33294E-13 1.72889E-13
 -1       484 2.03691E+01 9.98777E-01 3.78987E-03-8.77919E-01-3.22188E-13-3.90262E-13
 -1       485 2.94966E+01-3.44863E+00-4.95214E-02 7.60325E-01 5.04484E-13-5.07663E-13
 -1       486 2.02214E+01 5.68192E-01 8.41478E-04-3.85746E-01-2.43321E-13-3.28973E-13
 -1       487 2.00932E+01 3.51723E-01 1.30931E-03-5.51948E-02-2.06252E-13-3.07693E-13
 -1       488 2.00236E+01 2.25032E-01 6.24280E-04 1.64796E-01-1.59790E-13-2.97801E-13
 -1       489 2.00052E+01 1.55690E-01 3.51265E-04 3.16525E-01-1.24182E-13-2.85871E-13
 -1       490 2.00293E+01 1.20528E-01 2.47388E-04 4.28333E-01-1.13258E-13-2.97305E-13
 -1       491 2.00881E+01 1.05534E-01 2.09570E-04 5.18804E-01-1.22914E-13-2.83374E-13
 -1       492 2.01765E+01 1.00345E-01 1.92589E-04 5.99090E-01-1.56799E-13-3.02031E-13
 -1       493 2.02916E+01 9.55438E-02 1.68008E-04 6.74089E-01-1.57493E-13-2.62033E-13
 -1       494 2.04333E+01 8.10960E-02 1.09460E-04 7.42643E-01-6.98014E-14-2.15980E-13
 -1       495 2.06033E+01 4.55401E-02-1.18561E-05 7.97080E-01 2.10326E-14-1.24201E-13
 -1       496 2.08051E+01-2.38618E-02-2.24829E-04 8.22428E-01 5.57976E-15-1.13227E-13
 -1       497 2.10432E+01-1.39234E-01-5.51192E-04 7.95834E-01 5.82711E-16-1.75539E-13
 -1       498 2.13209E+01-3.07070E-01-9.89181E-04 6.87189E-01 1.38407E-14-8.92558E-14
 -1       499 2.16351E+01-5.18491E-01-1.47370E-03 4.62972E-01-1.75908E-13-1.28968E-13
 -1       500 2.19672E+01-7.34639E-01-1.86988E-03 9.67679E-02-1.10064E-13-1.20272E-13
 -1       501 2.22708E+01-8.72153E-01-1.82345E-03-4.08822E-01-5.98466E-14-7.13940E-14
 -1       502 2.24672E+01-8.06991E-01-1.13408E-03-9.87271E-01-8.16583E-15-7.60628E-14
 -1       503 2.24676E+01-4.22040E-01 1.66242E-04-1.47617E+00 9.23932E-14-1.08503E-13
 -1       504 2.22399E+01 2.83051E-01 3.51302E-04-1.63008E+00 8.47491E-15-1.60476E-13
 -1       505 2.18913E+01 1.08325E+00-6.77845E-04-1.24071E+00-7.01467E-14-1.74970E-13
 -1       506 2.16553E+01 1.57637E+00-7.01811E-04-3.41567E-01-8.87010E-14-1.42064E-13
 -1       507 2.17132E+01 1.46321E+00-4.85677E-04 7.14714E-01-7.48345E-14-4.45383E-13
 -1       508 2.20220E+01 8.14558E-01-2.26878E-04 1.45954E+00-5.60087E-14-5.04563E-13
 -1       509 2.23534E+01 9.49030E-03 3.51968E-05 1.64518E+00-1.39019E-14-5.22043E-13
 -1       510 2.25082E+01-5.90588E-01 4.61388E-05 1.34734E+00 1.50428E-13-7.34295E-13
 -1       511 2.24351E+01-8.49286E-01-1.13552E-03 8.08745E-01 1.95599E-13-6.10437E-13
 -1       512 2.21970E+01-8.22981E-01-1.73487E-03 2.52632E-01 1.14716E-13-4.11351E-13
 -1       513 2.18849E+01-6.40986E-01-1.63989E-03-1.94571E-01-4.74511E-14-1.43455E-13
 -1       514 2.15668E+01-4.15576E-01-1.21717E-03-4.93880E-01-3.11082E-14-2.55023E-13
 -1       515 2.12778E+01-2.12972E-01-7.35591E-04-6.56358E-01-9.57296E-14-4.05862E-13
 -1       516 2.10298E+01-5.97254E-02-3.32079E-04-7.12780E-01-1.31643E-13-2.78177E-13
 -1       517 2.08225E+01 4.16550E-02-4.39295E-05-6.96625E-01-1.97625E-14-7.60115E-14
 -1       518 2.06515E+01 9.96873E-02 1.36949E-04-6.36589E-01 3.94498E-14 1.29601E-13
 -1       519 2.05111E+01 1.25924E-01 2.32717E-04-5.54395E-01-7.99020E-14 2.39273E-13
 -1       520 2.03967E+01 1.31062E-01 2.68568E-04-4.65078E-01-3.33077E-14 1.08344E-13
 -1       521 2.03040E+01 1.23555E-01 2.66440E-04-3.78187E-01 3.28850E-13-1.97058E-13
 -1       522 2.02296E+01 1.09468E-01 2.43046E-04-2.99168E-01 2.89171E-13-5.09407E-14
 -1       523 2.01706E+01 9.28484E-02 2.10049E-04-2.30588E-01-8.25524E-14 5.88168E-13
 -1       524 2.01243E+01 7.62084E-02 1.74267E-04-1.73126E-01 2.65186E-14 5.74352E-13
 -1       525 2.00887E+01 6.09725E-02 1.40449E-04-1.26311E-01 3.05084E-13 3.50517E-13
 -1       526 2.00615E+01 4.78375E-02 1.11582E-04-8.90522E-02 1.34593E-13 1.97581E-13
 -1       527 2.00410E+01 3.69580E-02 8.76151E-05-5.99897E-02 1.89137E-14 1.65868E-13
 -1       528 2.00258E+01 2.81048E-02 7.69712E-05-3.78071E-02-1.54289E-13 3.13903E-13
 -1       529 1.99226E+01 1.79781E-01 1.26012E-03-1.53409E-01 2.15848E-13 2.79753E-14
 -1       530 1.99156E+01 1.28269E-01 7.15249E-04-3.01942E-01 1.84292E-13-3.79335E-14
 -1       531 1.99630E+01 1.08580E-01 5.43646E-04-4.16005E-01 1.35812E-13 3.18767E-15
 -1       532 2.00541E+01 1.10709E-01 5.41720E-04-5.17786E-01 1.08959E-13-5.08271E-14
 -1       533 2.01822E+01 1.28885E-01 6.26864E-04-6.23164E-01 3.63587E-14 9.71451E-15
 -1       534 2.03441E+01 1.58854E-01 7.61787E-04-7.43713E-01 7.22747E-14-4.10287E-14
 -1       535 2.05391E+01 1.95966E-01 9.09616E-04-8.87249E-01 6.41535E-14-9.11915E-14
 -1       536 2.07687E+01 2.33031E-01 1.01304E-03-1.05713E+00 5.58142E-14-4.65256E-14
 -1       537 2.10369E+01 2.57292E-01 9.77019E-04-1.25004E+00-1.14035E-14-9.12020E-14
 -1       538 2.13517E+01 2.46136E-01 6.53605E-04-1.45183E+00-7.48896E-14-5.70632E-14
 -1       539 2.17290E+01 1.62122E-01-1.53620E-04-1.63069E+00-1.78649E-14-8.48955E-14
 -1       540 2.21996E+01-4.92083E-02-1.61721E-03-1.72753E+00 4.87309E-14-1.21931E-13
 -1       541 2.28136E+01-4.48168E-01-3.45948E-03-1.64522E+00-3.43491E-14 1.68191E-13
 -1       542 2.36315E+01-1.05454E+00-4.91772E-03-1.24424E+00-1.90954E-13 2.65813E-13
 -1       543 2.46666E+01-1.73498E+00-6.50146E-03-3.73722E-01-2.63619E-13 3.88886E-13
 -1       544 2.57725E+01-2.05327E+00-1.30671E-02 1.00177E+00-9.57971E-14 3.74399E-13
 -1       545 2.65384E+01-1.22614E+00-2.59599E-02 2.52097E+00 3.53051E-14 3.38885E-13
 -1       546 2.63866E+01 1.04138E+00-8.63199E-02 3.04635E+00 3.20532E-13 4.87984E-13
 -1       547 2.58329E+01 3.28424E+00-1.18682E-01 1.45015E+00 3.30552E-13 4.71452E-13
 -1       548 2.58355E+01 3.43909E+00-1.11136E-01-1.33791E+00 2.56552E-13 3.34899E-13
 -1       549 2.64844E+01 1.14281E+00-6.63037E-02-2.96234E+00 1.48584E-13 3.50345E-14
 -1       550 2.65554E+01-1.14901E+00-3.03691E-02-2.55487E+00 3.25204E-13-3.00282E-13
 -1       551 2.58451E+01-2.02468E+00-7.68681E-03-1.07937E+00-1.26607E-14-3.93453E-13
 -1       552 2.47508E+01-1.75940E+00-2.80122E-03 3.07881E-01 1.30571E-13-3.95585E-13
 -1       553 2.37068E+01-1.08171E+00-4.27460E-03 1.19613E+00 1.65661E-13-3.25963E-13
 -1       554 2.28865E+01-4.62384E-01-3.68779E-03 1.59954E+00 1.74644E-13-4.02987E-13
 -1       555 2.22773E+01-4.87377E-02-1.90344E-03 1.67675E+00 1.62161E-13-3.48467E-13
 -1       556 2.18183E+01 1.75008E-01-3.90949E-04 1.56836E+00-1.06078E-13-2.77831E-13
 -1       557 2.14583E+01 2.68149E-01 5.38438E-04 1.37305E+00-1.53675E-13-1.62641E-13
 -1       558 2.11656E+01 2.85487E-01 9.76787E-04 1.15131E+00-1.05653E-13-7.78756E-14
 -1       559 2.09234E+01 2.64870E-01 1.09363E-03 9.36300E-01 3.99578E-14 2.65121E-13
 -1       560 2.07224E+01 2.28838E-01 1.03597E-03 7.43876E-01 7.31842E-14 3.76938E-13
 -1       561 2.05569E+01 1.89458E-01 9.01804E-04 5.79773E-01-1.26343E-13 5.34997E-13
 -1       562 2.04224E+01 1.52516E-01 7.47158E-04 4.44243E-01 1.16508E-13 4.22321E-13
 -1       563 2.03148E+01 1.20338E-01 5.99827E-04 3.34866E-01-2.36374E-14 2.62069E-13
 -1       564 2.02302E+01 9.34906E-02 4.71312E-04 2.48158E-01-1.86697E-13-1.63030E-13
 -1       565 2.01648E+01 7.17205E-02 3.64835E-04 1.80422E-01 1.95791E-14 4.51402E-14
 -1       566 2.01151E+01 5.44535E-02 2.78253E-04 1.28172E-01 3.84709E-14 2.84339E-13
 -1       567 2.00781E+01 4.10046E-02 2.20704E-04 8.83175E-02 3.94894E-13 3.24997E-13
 -1       568 2.00510E+01 3.09257E-02 2.15564E-04 5.85571E-02 3.55720E-13 2.78453E-13
 -1       569 2.00312E+01 2.28765E-02 5.05390E-05 3.56905E-02 3.55839E-14 2.44992E-13
 -1       570 2.00178E+01 1.63179E-02 9.79600E-05 1.91617E-02-2.35066E-13 3.30995E-13
 -1       571 1.99953E+01 6.79167E-02-5.01163E-06 3.38906E-02 2.31462E-13-7.05918E-14
 -1       572 1.99872E+01 8.07569E-02-2.00587E-05 2.65366E-02 1.39509E-13 2.29877E-13
 -1       573 2.00120E+01 3.56633E-02-1.33897E-05 3.08314E-02-1.71507E-13-2.25559E-13
 -1       574 2.00044E+01 5.22391E-02 3.86669E-05 3.53070E-02-1.16634E-13-4.75469E-13
 -1       575 1.99818E+01 8.89989E-02-3.03844E-05 1.45379E-02 1.80579E-13-3.96266E-13
 -1       576 1.99799E+01 9.16260E-02-3.44409E-05 6.06354E-05-1.26938E-13-7.06905E-14
 -1       577 1.99818E+01 8.83585E-02-3.12406E-05-1.43577E-02-3.01653E-13-1.48638E-13
 -1       578 1.99870E+01 7.98557E-02-2.16253E-05-2.60454E-02-5.06409E-15-1.40144E-13
 -1       579 1.99949E+01 6.68997E-02-1.33780E-05-3.33836E-02 1.78255E-13 7.62618E-14
 -1       580 2.00036E+01 5.12899E-02-1.21802E-05-3.49745E-02 9.17808E-14 1.25223E-13
 -1       581 2.00114E+01 3.49334E-02 3.09039E-05-3.07201E-02-1.65655E-13 3.03414E-13
 -1       582 4.74063E+00-1.62668E+00 1.66921E-01 1.84383E+00-6.14630E-13 4.04121E-13
 -1       583 1.67373E+01-5.26369E+00 8.98627E-02 6.59765E+00-2.09513E-13 7.07420E-14
 -1       584 1.99988E+01 2.82640E-01 2.63960E-03 6.20396E-02 2.75238E-13 1.22142E-13
 -1       585 4.57016E+00-1.67902E+00 1.60228E-01-2.26771E+00-1.35197E-13 4.81282E-13
 -1       586 9.16888E+00-3.20501E+00 1.41420E-01 5.65237E+00-4.63976E-13 3.76491E-13
 -1       587 2.04123E+01 1.78281E+00-5.35840E-03-1.49468E+00-3.95021E-13-4.84315E-13
 -1       588 9.54569E+00-3.26433E+00 1.41830E-01-6.32454E+00 7.85136E-14 3.52128E-13
 -1       589 1.96685E+01 3.27380E+00-5.00771E-03-2.94208E-01 1.22267E-13-6.20530E-13
 -1       590 3.06270E+01 5.30582E+00-1.76612E-01-1.99383E+00 4.76258E-13-4.59702E-14
 -1       591 7.67158E+00-2.47389E+00 1.64220E-01-4.63743E+00-7.88397E-14-1.22487E-12
 -1       592 3.03764E+01 6.55932E+00-2.03258E-01 3.68446E-01 5.34142E-13 2.15827E-13
 -1       593 3.05833E+01 4.45517E+00-1.69390E-01 2.26835E+00 5.85920E-13 2.93501E-13
 -1       594 3.04208E+01 3.95579E-01-1.29748E-01 2.27578E+00 2.67765E-13 2.64337E-13
 -1       595 2.29249E+01-5.85056E+00 2.94847E-02-4.97898E+00-8.34194E-14-4.53207E-13
 -1       596 1.62304E+01-4.94409E+00 9.37348E-02-6.49221E+00-2.73684E-13-7.41372E-13
 -1       597 4.42741E+00-1.53936E+00 1.67573E-01-9.32849E-01 7.54743E-14-9.02348E-13
 -1       598 6.17880E+00-1.88925E+00 1.61604E-01 4.07612E+00 1.01794E-14-7.24046E-13
 -1       599 1.22859E+01-3.96656E+00 1.31837E-01 6.94122E+00 1.99861E-13-4.22905E-13
 -1       600 1.90720E+01-5.38402E+00 7.27865E-02 6.58858E+00 1.35884E-13-1.43234E-13
 -1       601 2.44773E+01-5.11863E+00-6.97039E-03 4.50796E+00-6.30190E-14 4.65808E-14
 -1       602 2.90184E+01-2.08073E+00-6.54696E-02 7.87774E-01-5.54799E-13 2.51549E-13
 -1       603 3.08687E+01 2.32833E+00-1.13379E-01-1.01907E+00-7.90763E-13 6.75848E-14
 -1       604 3.00917E+01 5.83537E+00-1.65071E-01-1.46424E+00-8.02525E-13 8.21843E-14
 -1       605 2.85319E+01 7.11358E+00-1.98608E-01 2.24759E-01-6.67924E-13-4.48812E-13
 -1       606 2.91390E+01 5.01223E+00-1.67182E-01 1.85583E+00-2.85355E-13-6.76389E-13
 -1       607 2.99478E+01 3.78009E-01-1.24875E-01 7.80822E-01 1.31260E-13-6.85133E-13
 -1       608 2.82866E+01-2.94854E+00-3.61917E-02-1.40521E+00 3.10461E-13-3.96960E-13
 -1       609 2.30303E+01-5.35180E+00 1.63850E-02-5.24228E+00 1.71779E-13 2.37466E-13
 -1       610 1.57946E+01-5.01922E+00 8.37691E-02-7.12447E+00 3.15442E-14 5.04818E-13
 -1       611 3.12857E+01 2.67850E-01-1.28333E-01-1.74565E+00 6.23605E-13-3.33039E-13
 -1       612 2.05955E+01 1.31109E+00-9.49302E-04 1.50633E+00 5.01207E-13 3.76870E-13
 -1       613 2.43921E+01-5.72501E+00 2.29199E-02 4.35129E+00 1.10544E-13-4.82066E-13
 -1       614 1.99956E+01 2.70037E+00-6.27500E-03-1.20386E+00-1.87346E-13-6.39419E-13
 -1       615 1.28754E+01-2.87748E+00 1.36408E-01-5.70126E+00-2.95017E-13-8.56974E-13
 -1       616 2.92712E+01-2.28932E+00-6.84383E-02 1.48623E+00 2.67338E-14 3.33185E-13
 -1       617 2.00177E+01 2.26610E-02 7.04166E-05-2.57430E-02-3.63292E-13 3.10536E-13
 -1       618 1.99350E+01 2.55248E+00-1.56038E-03 3.58064E-01 2.98696E-13-4.46359E-13
 -1       619 1.98953E+01 2.63445E+00-1.51828E-03 1.23384E-01 2.09347E-13-5.33876E-13
 -1       620 2.01251E+01 2.11581E+00-1.57841E-03 7.82512E-01 4.01650E-13-2.53213E-13
 -1       621 2.02589E+01 1.72366E+00-2.20820E-03 9.20589E-01 4.41803E-13-1.14970E-13
 -1       622 2.03501E+01 1.07374E+00 2.85507E-03 7.57060E-01 4.09954E-13-2.63016E-14
 -1       623 9.12910E+00-9.75364E-01 1.47371E-01-4.18056E+00-1.14214E-14 2.76890E-13
 -1       624 2.87613E+01 1.88410E+00-1.20252E-01-2.99873E+00 4.39107E-13-1.72501E-13
 -1       625 1.47951E+01-3.40431E+00 1.11817E-01-6.38312E+00 1.04694E-13 2.42865E-13
 -1       626 2.02792E+01 7.37849E-01 1.58819E-03-2.82526E-01-1.87263E-13-3.89817E-13
 -1       627 2.02145E+01 4.82895E-01 2.27118E-04 9.34707E-03-1.64170E-13-3.37199E-13
 -1       628 2.01650E+01 3.29524E-01 1.18463E-04 2.20187E-01-1.33132E-13-3.10564E-13
 -1       629 2.01349E+01 2.43247E-01 7.30718E-05 3.76786E-01-1.19148E-13-3.49008E-13
 -1       630 2.01257E+01 1.99655E-01 6.20032E-05 5.00397E-01-1.11044E-13-3.21989E-13
 -1       631 2.01369E+01 1.81152E-01 6.12867E-05 6.06488E-01-9.35327E-14-2.35121E-13
 -1       632 2.01684E+01 1.72889E-01 6.10082E-05 7.04801E-01-9.03590E-14-1.02739E-13
 -1       633 2.02225E+01 1.60151E-01 5.43179E-05 7.99478E-01-5.37372E-14-8.36298E-16
 -1       634 2.03046E+01 1.26696E-01 3.27815E-05 8.88812E-01-3.23720E-14-3.77743E-14
 -1       635 2.04246E+01 5.40069E-02-1.53642E-05 9.64522E-01-1.74868E-14-1.26274E-13
 -1       636 2.05976E+01-7.79416E-02-1.04172E-04 1.01055E+00 3.11022E-14-1.09194E-13
 -1       637 2.08439E+01-2.87003E-01-2.54522E-04 1.00141E+00 6.24499E-14-6.13741E-14
 -1       638 2.11856E+01-5.79762E-01-4.93666E-04 9.00864E-01-1.00235E-13-6.55387E-14
 -1       639 2.16371E+01-9.34142E-01-7.85497E-04 6.62862E-01-1.55715E-13 7.60895E-14
 -1       640 2.21852E+01-1.27304E+00-1.21711E-03 2.40906E-01 3.54157E-15 1.60760E-13
 -1       641 2.27583E+01-1.43467E+00-1.16387E-03-3.80496E-01 3.82033E-14 1.77875E-13
 -1       642 2.32099E+01-1.19072E+00-1.67589E-03-1.12383E+00 7.35264E-14 1.59472E-13
 -1       643 2.33603E+01-3.48546E-01-2.90307E-03-1.73672E+00-4.73770E-14 7.93062E-14
 -1       644 2.31317E+01 1.00913E+00-9.14480E-03-1.81724E+00-1.07174E-13-8.62164E-14
 -1       645 2.27564E+01 2.27921E+00-1.38183E-02-1.07408E+00-1.52116E-13-1.38517E-13
 -1       646 2.26263E+01 2.67348E+00-1.10951E-02 2.56386E-01-3.02177E-13-1.90222E-13
 -1       647 2.28881E+01 1.89164E+00-1.01317E-02 1.44585E+00-1.43892E-13-3.32398E-13
 -1       648 2.32502E+01 5.00805E-01-9.40646E-03 1.89210E+00 1.27376E-14-3.74326E-13
 -1       649 2.33577E+01-7.09884E-01-1.46791E-03 1.57704E+00 1.20512E-13-3.79308E-13
 -1       650 2.30829E+01-1.32288E+00-7.40876E-04 8.84040E-01 1.74129E-13-2.47972E-13
 -1       651 2.25692E+01-1.38873E+00-1.03712E-03 1.75176E-01 1.51284E-13-3.62416E-13
 -1       652 2.19946E+01-1.13287E+00-8.73129E-04-3.65717E-01 1.67433E-13-4.64153E-13
 -1       653 2.14799E+01-7.69068E-01-5.82183E-04-7.03390E-01 3.02129E-14-3.91234E-13
 -1       654 2.10715E+01-4.25119E-01-2.91857E-04-8.70311E-01-3.13736E-14-2.10145E-13
 -1       655 2.07694E+01-1.55345E-01-1.01751E-04-9.14682E-01-2.38188E-13-1.62841E-13
 -1       656 2.05545E+01 3.01419E-02 2.56750E-06-8.79844E-01-4.71622E-14-5.90046E-14
 -1       657 2.04042E+01 1.42251E-01 5.88228E-05-7.99133E-01-2.23123E-14-1.36193E-13
 -1       658 2.02990E+01 1.98645E-01 8.44630E-05-6.96184E-01-4.17473E-14-2.00051E-13
 -1       659 2.02243E+01 2.16657E-01 9.12755E-05-5.86844E-01-4.38940E-14-3.70386E-14
 -1       660 2.01701E+01 2.10532E-01 8.72668E-05-4.81117E-01 3.57078E-15 5.43433E-14
 -1       661 2.01299E+01 1.90865E-01 7.77935E-05-3.84775E-01 2.54304E-13-9.71831E-14
 -1       662 2.00994E+01 1.64981E-01 6.62559E-05-3.00634E-01 3.79502E-13-1.63500E-13
 -1       663 2.00759E+01 1.37625E-01 5.50403E-05-2.29531E-01-2.51841E-14-1.67490E-13
 -1       664 2.00575E+01 1.11649E-01 4.16149E-05-1.71039E-01 4.17760E-14 1.28057E-14
 -1       665 2.00430E+01 8.85057E-02 3.38868E-05-1.24016E-01-3.72563E-14-2.88930E-13
 -1       666 2.00313E+01 6.89863E-02 4.52884E-05-8.70662E-02-5.82178E-14-3.45438E-13
 -1       667 2.00219E+01 5.26779E-02 2.25772E-05-5.86247E-02 1.11393E-13-1.49619E-13
 -1       668 2.00893E+01 2.28867E-01 1.92425E-04-3.76606E-01 1.37890E-13-4.65392E-14
 -1       669 2.00208E+01 4.90402E-02 9.33621E-05 5.11267E-02-4.62392E-15 1.41776E-14
 -1       670 2.01139E+01 2.95847E-01 2.79906E-04-2.11372E-01 2.24279E-13-6.33660E-14
 -1       671 2.01181E+01 2.19761E-01 2.05815E-04-6.39039E-01 6.64244E-14 1.13339E-14
 -1       672 2.01607E+01 2.56525E-01 2.51233E-04-7.71844E-01 1.15074E-13-7.12629E-14
 -1       673 2.02158E+01 3.10449E-01 3.11333E-04-9.22090E-01 9.42698E-14-4.96368E-14
 -1       674 2.02801E+01 3.72256E-01 3.74934E-04-1.09725E+00 2.88787E-14-7.46673E-14
 -1       675 2.03529E+01 4.27405E-01 4.20777E-04-1.30056E+00 5.22653E-14 2.29997E-14
 -1       676 2.04393E+01 4.51143E-01 4.12648E-04-1.52969E+00-4.82911E-14-4.40081E-14
 -1       677 2.05571E+01 4.01842E-01 2.89377E-04-1.77439E+00-5.55698E-14-1.65433E-13
 -1       678 2.07484E+01 2.13970E-01-2.84857E-05-2.01183E+00-2.37613E-14-1.56965E-13
 -1       679 2.10976E+01-2.03473E-01-4.93260E-04-2.19691E+00-1.46693E-13 6.15609E-14
 -1       680 2.17473E+01-9.43746E-01 3.59717E-04-2.24193E+00-2.05064E-13 1.24286E-13
 -1       681 2.28950E+01-2.02164E+00 4.61033E-03-1.97999E+00-3.34567E-13 2.78837E-13
 -1       682 2.46802E+01-3.13253E+00 1.17415E-02-1.14857E+00-2.53721E-13 3.77959E-13
 -1       683 2.68484E+01-3.33208E+00-1.99807E-02 4.81796E-01-1.35812E-13 5.16523E-13
 -1       684 2.79485E+01-1.85864E+00-3.46965E-02-2.14104E+00 4.01481E-13-5.11102E-13
 -1       685 2.61448E+01-3.29451E+00-1.87141E-02-2.09450E-01 1.46300E-14-3.82669E-13
 -1       686 2.42380E+01-2.66528E+00 4.93230E-04 1.21707E+00 8.66703E-14-5.46923E-13
 -1       687 2.27344E+01-1.55978E+00-3.55073E-03 1.91228E+00 1.02028E-13-3.28653E-13
 -1       688 2.17835E+01-6.28092E-01-2.21532E-03 2.10076E+00 9.29890E-14-2.22083E-13
 -1       689 2.12291E+01-2.46134E-02-6.49706E-04 2.02408E+00-7.94278E-15-4.23806E-14
 -1       690 2.09125E+01 2.98099E-01 2.56719E-04 1.82034E+00-5.06398E-14-1.86571E-14
 -1       691 2.07209E+01 4.31842E-01 6.28722E-04 1.56866E+00-3.28749E-13-8.28149E-14
 -1       692 2.05897E+01 4.55905E-01 7.19727E-04 1.31152E+00-1.95575E-13 6.54500E-14
 -1       693 2.04876E+01 4.24137E-01 6.71850E-04 1.07101E+00 3.25493E-14 2.00209E-13
 -1       694 2.04012E+01 3.68875E-01 5.69928E-04 8.57616E-01-1.18291E-13 2.63976E-13
 -1       695 2.03257E+01 3.07855E-01 4.57978E-04 6.74982E-01-9.35402E-14 1.42730E-13
 -1       696 2.02600E+01 2.49906E-01 3.56396E-04 5.22774E-01 7.79791E-14 2.15433E-13
 -1       697 2.02037E+01 1.98809E-01 2.71706E-04 3.98543E-01 2.09624E-13 1.86372E-13
 -1       698 2.01565E+01 1.55671E-01 2.04332E-04 2.98883E-01-2.73894E-14 1.80646E-13
 -1       699 2.01178E+01 1.20294E-01 1.51875E-04 2.20127E-01-1.41256E-13-2.20571E-15
 -1       700 2.00867E+01 9.19119E-02 1.10978E-04 1.58728E-01-1.79835E-14 2.55254E-13
 -1       701 2.00623E+01 6.95724E-02 9.91209E-05 1.11516E-01 2.90697E-13 2.10446E-13
 -1       702 2.00429E+01 5.25071E-02 4.46535E-05 7.59734E-02 2.43831E-13 2.69400E-13
 -1       703 2.18094E+01-4.91701E+00 5.20870E-02 4.59544E+00-1.20823E-13-2.67022E-13
 -1       704 1.99650E+01 1.17980E-01-1.30618E-05 9.94586E-03 7.74517E-14-5.89854E-13
 -1       705 7.52776E+00-8.47754E-02 1.53385E-01 1.36404E+00 1.29069E-13-7.43509E-13
 -1       706 1.99828E+01 9.78707E-02-4.30174E-06 4.37430E-02 1.36999E-13 6.85005E-14
 -1       707 1.99652E+01 1.17288E-01-1.19165E-05-1.06715E-02-1.79003E-13-2.96953E-13
 -1       708 1.99712E+01 1.11280E-01-1.00037E-05 2.91050E-02 6.84684E-14-5.10137E-14
 -1       709 1.99713E+01 1.09574E-01-1.03457E-05-2.91941E-02-1.31701E-13 1.84477E-13
 -1       710 1.99827E+01 9.55112E-02-1.52185E-05-4.33430E-02 1.04402E-13 6.35574E-14
 -1       711 1.99970E+01 7.68967E-02-1.54343E-05-5.05089E-02 1.72434E-13 2.26661E-13
 -1       712 1.49207E+01-3.22147E+00 1.11522E-01 5.80280E+00-2.79311E-13 3.21219E-13
 -1       713 9.73128E+00-6.85871E-01 1.43511E-01 3.56664E+00-5.00733E-13 5.63480E-13
 -1       714 7.57337E+00 9.52104E-02 1.60433E-01-2.40122E-01-3.01214E-13 2.11511E-13
 -1       715 2.74921E+01 1.54288E+00-1.08594E-01 2.17086E+00 4.11095E-14-5.67622E-13
 -1       716 2.03193E+01 1.46647E+00 6.94893E-04-9.02784E-01-2.51252E-13-4.72549E-13
 -1       717 1.75207E+01-4.04527E+00 8.66745E-02 6.11907E+00 2.69031E-13-1.38330E-13
 -1       718 2.64628E+01-4.98983E+00-1.08556E-02-1.97902E+00-1.34746E-13-1.85591E-13
 -1       719 2.01689E+01 4.31553E-01 7.25951E-04 9.53243E-03 2.82783E-13-5.88799E-14
 -1       720 2.00925E+01 2.07684E-01 1.82293E-04-5.12403E-01 1.11959E-13-1.25035E-14
 -1       721 2.69022E+01-4.71600E+00-1.59547E-02 1.33487E+00 2.66832E-13-4.68073E-13
 -1       722 2.00125E+01 2.38383E+00-1.63551E-03 5.82396E-01 3.65647E-13-3.62752E-13
 -1       723 2.00067E+01 2.38943E+00-1.74377E-03-5.72761E-01-2.29940E-14-5.77105E-13
 -1       724 2.02511E+01 6.69422E-01 1.04529E-03 3.18688E-01 3.26853E-13-4.25821E-14
 -1       725 2.55569E+01-4.59088E+00-1.18934E-02-2.47043E+00 2.85948E-13-3.23214E-13
 -1       726 2.57452E+01 4.95280E+00-1.18028E-01 1.37850E+00-3.97158E-13-5.30916E-13
 -1       727 8.27332E+00-5.50707E-01 1.65085E-01-2.59472E+00 7.13318E-14-9.56478E-13
 -1       728 2.00165E+01 4.32004E-02 7.67217E-06-4.33842E-02 5.27804E-14-7.69690E-14
 -1       729 2.11231E+01-4.89978E+00 5.34940E-02-4.87068E+00-2.55622E-13-5.26828E-13
 -1       730 2.81817E+01-2.59865E-01-7.80776E-02-1.47933E+00-4.16660E-13 3.46525E-13
 -1       731 1.14941E+01-1.68993E+00 1.28883E-01 5.29910E+00 2.99934E-13-4.23606E-13
 -1       732 2.27600E+01-5.10753E+00 3.35576E-02 4.57949E+00 2.22978E-13 2.18894E-13
 -1       733 2.04405E+01-4.91430E+00 5.21305E-02-5.58825E+00 3.53047E-13 6.41206E-14
 -1       734 2.64031E+01-4.15176E+00-3.43186E-02 1.65954E+00-1.96223E-14 2.86889E-13
 -1       735 2.75039E+01 2.93789E+00-1.28564E-01-2.19230E+00-6.12801E-13 1.42983E-13
 -1       736 2.64390E+01 5.58503E+00-1.41244E-01-1.07194E+00-4.86264E-13-3.33235E-13
 -1       737 2.78232E+01-1.25583E+00-6.31067E-02 1.09699E+00 1.34625E-13-5.89497E-13
 -1       738 1.99315E+01 2.55553E+00-1.61799E-03-3.46446E-01 6.59814E-14-5.54129E-13
 -1       739 2.01134E+01 2.13018E+00-3.00134E-03-7.76762E-01-1.21106E-13-5.83819E-13
 -1       740 1.99974E+01 7.95459E-02-3.77289E-05 5.15445E-02 3.16469E-13-2.70439E-13
 -1       741 1.98940E+01 2.63517E+00-1.60238E-03-1.12789E-01 1.48227E-13-5.36625E-13
 -1       742 1.17843E+01-1.03563E+00 1.15947E-01-4.13496E+00-1.53249E-13-7.98347E-13
 -1       743 1.76676E+01-3.35855E+00 7.90494E-02-5.22893E+00-3.54425E-13-6.68358E-13
 -1       744 2.00086E+01 6.60130E-02-2.70443E-06-5.65356E-02 4.34730E-14-1.34971E-14
 -1       745 2.88421E+01-2.29861E+00-8.37890E-02-1.58748E+00 4.71339E-13-4.02046E-13
 -1       746 1.01572E+01 5.81476E-01 9.92146E-02-7.33063E-01 2.18994E-14-7.40637E-13
 -1       747 2.02806E+01 1.38489E+00 8.31966E-04 5.38351E-01 3.51728E-13-1.68749E-13
 -1       748 2.02641E+01 5.79856E-01-1.27901E-04 8.27824E-02-1.31014E-13-3.37190E-13
 -1       749 2.02186E+01 4.19557E-01-2.24659E-05 2.69134E-01-1.34126E-13-3.10730E-13
 -1       750 2.01708E+01 3.29471E-01 1.55814E-06 4.16594E-01-1.02411E-13-2.84615E-13
 -1       751 2.01268E+01 2.85752E-01 9.87289E-06 5.41299E-01-2.56660E-14-2.09929E-13
 -1       752 2.00903E+01 2.68414E-01 1.59686E-05 6.55746E-01 6.52440E-15-1.23373E-13
 -1       753 2.00658E+01 2.58698E-01 2.01996E-05 7.68541E-01-6.12517E-15-7.10869E-14
 -1       754 2.00604E+01 2.36777E-01 2.30690E-05 8.84036E-01-3.60852E-14-1.34947E-14
 -1       755 2.00859E+01 1.80197E-01 2.31485E-05 1.00189E+00-4.06704E-14 3.88535E-14
 -1       756 2.01612E+01 6.31835E-02 1.38610E-05 1.11611E+00 2.68388E-15 1.52812E-15
 -1       757 2.03149E+01-1.42200E-01-1.12273E-05 1.21293E+00-1.60451E-14-9.61734E-14
 -1       758 2.05861E+01-4.61096E-01-9.34100E-05 1.26672E+00-2.26763E-14-1.16682E-13
 -1       759 2.10212E+01-9.02418E-01-3.67611E-04 1.23355E+00-3.39351E-14 2.01193E-14
 -1       760 2.16641E+01-1.43333E+00-4.34879E-04 1.04438E+00-5.33524E-15 1.58141E-13
 -1       761 2.25108E+01-1.92722E+00-2.75812E-03 5.99360E-01 5.92220E-14 1.69201E-13
 -1       762 2.34744E+01-2.11594E+00-3.90526E-03-1.59409E-01 4.69318E-14 2.94909E-13
 -1       763 2.42847E+01-1.55538E+00-6.07573E-03-1.17927E+00 3.13257E-14 2.19788E-13
 -1       764 2.45658E+01 6.52852E-02-3.31954E-02-2.02201E+00-1.54873E-13 2.32751E-13
 -1       765 2.43100E+01 2.35394E+00-5.19771E-02-1.92682E+00-2.33336E-13 1.93357E-13
 -1       766 2.40967E+01 3.49431E+00-4.68018E-02 1.19378E+00-3.32987E-13-1.19861E-13
 -1       767 2.44271E+01 1.54238E+00-3.50220E-02 2.14672E+00-1.47998E-13-2.86757E-13
 -1       768 2.45335E+01-6.16283E-01-2.76808E-02 1.80975E+00 7.65863E-14-2.71168E-13
 -1       769 2.40529E+01-1.84583E+00-3.71034E-03 8.42780E-01 1.99421E-13-3.35171E-13
 -1       770 2.31456E+01-2.07917E+00-3.57206E-03-1.04972E-01 1.41141E-14-3.21423E-13
 -1       771 2.22024E+01-1.73759E+00-1.81133E-03-7.46177E-01 6.76333E-14-2.56995E-13
 -1       772 2.14137E+01-1.20017E+00-1.32337E-03-1.07580E+00 4.07985E-16-2.62904E-13
 -1       773 2.08416E+01-6.84993E-01-5.33528E-04-1.18772E+00 3.95479E-14-3.74601E-13
 -1       774 2.04610E+01-2.76676E-01-1.63688E-04-1.16831E+00-5.83242E-14-4.02674E-13
 -1       775 2.02267E+01 8.28497E-03-2.53565E-05-1.07738E+00-3.81461E-14-2.44103E-13
 -1       776 2.00930E+01 1.85235E-01 4.02930E-05-9.52872E-01-4.82800E-14-2.00898E-13
 -1       777 2.00234E+01 2.79242E-01 6.78394E-05-8.17235E-01-8.86318E-14-2.35664E-13
 -1       778 1.99922E+01 3.14982E-01 7.60106E-05-6.83587E-01 6.90057E-14-1.69613E-13
 -1       779 1.99823E+01 3.12976E-01 7.42581E-05-5.59396E-01 1.24221E-13 7.44414E-14
 -1       780 1.99830E+01 2.88785E-01 6.75995E-05-4.48570E-01 1.11628E-13 1.73356E-13
 -1       781 1.99881E+01 2.53436E-01 5.90473E-05-3.52713E-01 3.35832E-13 2.13713E-13
 -1       782 1.99942E+01 2.14286E-01 5.10979E-05-2.71944E-01 1.37433E-13-1.41125E-14
 -1       783 1.99995E+01 1.75951E-01 3.88870E-05-2.05422E-01 1.95646E-14-9.20517E-14
 -1       784 2.00035E+01 1.41005E-01 4.81537E-05-1.51835E-01-3.53937E-14-2.75813E-14
 -1       785 2.00052E+01 1.11241E-01 9.00173E-05-1.09262E-01-3.49836E-14 1.32519E-13
 -1       786 2.00086E+01 8.62743E-02 1.30890E-04-7.95369E-02 7.18391E-14 1.33211E-14
 -1       787 2.01947E+01 4.05545E-01 2.83873E-05-2.65790E-01 1.60947E-13-1.47614E-14
 -1       788 2.00044E+01 4.12713E-01 7.56456E-05-8.42648E-01 8.05503E-14-2.62290E-14
 -1       789 2.00557E+01 3.52992E-01 5.72175E-05-7.00752E-01 1.12195E-13-3.18212E-14
 -1       790 1.98601E+01 5.77717E-01 1.29759E-04-1.18614E+00 2.88066E-15-1.22682E-13
 -1       791 1.97584E+01 6.47006E-01 1.59588E-04-1.40060E+00-2.58772E-14-1.14794E-13
 -1       792 1.96414E+01 6.64742E-01 1.91170E-04-1.65063E+00-1.61463E-14-1.04398E-13
 -1       793 1.95320E+01 5.73520E-01 2.21372E-04-1.94289E+00-3.71944E-14-1.13959E-13
 -1       794 1.94887E+01 2.84786E-01 3.03030E-04-2.28602E+00-1.13993E-13-9.99203E-14
 -1       795 1.96352E+01-3.27841E-01 6.06412E-04-2.68260E+00-1.80735E-13-1.92211E-13
 -1       796 2.02007E+01-1.39925E+00 1.04767E-02-3.09238E+00-3.79817E-13-1.25376E-13
 -1       797 2.16229E+01-3.01643E+00 1.62087E-02-3.30797E+00-4.55108E-13-9.41699E-14
 -1       798 2.14772E+01-2.39557E+00 1.91517E-02 3.01481E+00-3.94297E-15-1.92310E-13
 -1       799 2.03460E+01-1.00223E+00 6.84134E-04 2.79823E+00-3.93211E-14-7.04966E-14
 -1       800 1.98660E+01-9.19849E-02 7.69160E-04 2.44721E+00-1.77845E-13 1.76170E-13
 -1       801 1.97334E+01 4.06218E-01 4.83363E-04 2.08719E+00-5.73298E-14 2.17750E-13
 -1       802 1.97533E+01 6.28624E-01 3.27425E-04 1.75748E+00-1.91611E-13 3.77982E-13
 -1       803 1.98241E+01 6.86407E-01 3.05175E-04 1.46352E+00-3.13060E-13 3.24574E-13
 -1       804 1.98985E+01 6.55581E-01 2.82539E-04 1.20376E+00-1.78067E-13 3.05099E-13
 -1       805 1.99585E+01 5.83180E-01 2.48294E-04 9.76841E-01-1.29165E-13 2.08818E-13
 -1       806 2.00001E+01 4.96537E-01 2.06814E-04 7.81597E-01-8.44232E-15 6.01131E-14
 -1       807 2.00253E+01 4.10376E-01 1.66528E-04 6.16374E-01-1.12931E-13-1.30202E-13
 -1       808 2.00381E+01 3.31834E-01 1.31209E-04 4.78876E-01 4.21294E-14-1.09958E-13
 -1       809 2.00424E+01 2.63733E-01 1.01516E-04 3.66286E-01-1.14197E-14 2.59238E-13
 -1       810 2.00414E+01 2.06591E-01 7.80475E-05 2.75504E-01-2.06182E-14 2.71942E-13
 -1       811 2.00374E+01 1.59782E-01 6.00371E-05 2.03383E-01-8.43269E-14 1.50735E-13
 -1       812 2.00319E+01 1.22207E-01 5.88403E-05 1.46951E-01 1.49902E-13-8.50993E-14
 -1       813 2.00256E+01 9.22367E-02-9.44945E-05 1.03040E-01 3.86291E-13-5.16529E-14
 -1       814 1.99479E+01 1.46253E-01-8.09034E-06-2.83458E-02 1.63580E-13-2.24229E-14
 -1       815 1.99428E+01 1.52126E-01-7.77646E-06-9.84330E-04 2.91538E-14-5.36893E-13
 -1       816 2.63551E+01-2.34793E+00-2.27810E-02-6.60823E-01-1.31745E-13 4.02399E-13
 -1       817 1.06367E+01 4.49195E-01 8.72314E-02-2.10858E+00-2.32412E-13 2.77930E-13
 -1       818 2.02966E+01 8.43740E-01 1.44881E-04-1.60755E-01-1.36916E-13-3.81058E-13
 -1       819 2.51036E+01 3.24766E+00-8.03246E-02-1.87320E+00-3.57856E-13 1.00009E-13
 -1       820 1.85454E+01-3.47752E+00 5.20287E-02-5.23106E+00 2.47686E-13-9.74255E-14
 -1       821 1.90843E+01-3.00051E+00 3.96151E-02 4.51459E+00-2.80467E-13-9.94933E-14
 -1       822 2.02440E+01 5.50851E-01-1.24928E-04-6.27967E-02 2.39667E-13-8.20019E-14
 -1       823 2.28472E+01-4.29379E+00 1.10880E-02-3.38968E+00 3.21040E-13-1.68786E-13
 -1       824 1.99617E+01 1.31751E-01-1.08112E-05-5.13017E-02 7.46794E-14 2.94370E-13
 -1       825 1.99817E+01 1.10542E-01 7.04396E-05-6.63741E-02 9.73471E-14 2.50844E-13
 -1       826 1.99411E+01 4.92349E-01 1.00099E-04-1.00202E+00 7.66981E-14-4.97825E-14
 -1       827 2.02773E+01 1.36490E+00 1.74114E-04-4.68107E-01-1.43889E-13-4.56230E-13
 -1       828 2.41196E+01-4.24411E+00 2.77920E-03-2.47958E+00-2.66151E-13 4.88914E-14
 -1       829 1.07372E+01 6.46043E-01 7.81569E-02 1.38866E+00-1.85304E-13 2.17645E-13
 -1       830 2.00846E+01 2.03421E+00-3.55349E-04 1.67531E-01 2.30758E-13-4.14727E-13
 -1       831 2.42009E+01-4.31133E+00-3.06744E-03 2.44739E+00 2.50033E-13 1.75512E-13
 -1       832 1.44590E+01-1.02010E+00 7.06564E-02 4.24272E+00-3.09584E-13 5.92072E-13
 -1       833 1.32789E+01-1.31579E+00 8.22866E-02-4.81928E+00 3.13655E-14 1.10977E-13
 -1       834 2.03026E+01 1.01486E+00 2.00400E-04 4.52748E-01 3.54018E-13-6.34052E-14
 -1       835 1.59275E+01-2.16328E+00 5.68724E-02 5.09969E+00 3.56862E-13-1.70480E-13
 -1       836 1.12803E+01 1.15543E-01 7.91398E-02 2.92671E+00 2.57638E-13-4.17374E-13
 -1       837 2.61682E+01 6.06083E-01-4.41233E-02-2.11663E+00-3.09074E-13 1.79079E-13
 -1       838 2.09747E+01-4.03921E+00 3.67181E-02 4.42550E+00 2.20919E-13 1.86529E-13
 -1       839 2.58758E+01-3.01159E+00-7.32029E-03-7.05277E-03 8.34172E-14-2.73231E-13
 -1       840 2.58573E+01-4.36099E-01-3.87587E-02 1.82487E+00 2.87903E-14-1.78197E-13
 -1       841 2.45398E+01-4.07043E+00 1.90067E-02 2.10198E+00-9.34244E-14-4.88253E-13
 -1       842 2.02030E+01 1.69264E+00-2.66815E-04 4.52086E-01 3.45165E-13-2.94081E-13
 -1       843 2.02050E+01 1.64676E+00 3.31905E-06-3.78850E-01-5.07423E-14-4.74244E-13
 -1       844 2.39445E+01 4.00850E+00-4.85489E-02-5.99276E-01-3.09060E-13-4.28754E-14
 -1       845 1.21569E+01 3.11567E-01 6.70369E-02-2.34741E+00-1.41635E-13-7.05705E-13
 -1       846 2.01014E+01 3.24103E-01 4.43122E-05-5.66510E-01 7.05265E-14-1.57346E-14
 -1       847 2.01442E+01 1.83772E+00-2.94675E-04-2.53560E-01 2.11235E-14-4.75138E-13
 -1       848 1.99609E+01 1.35822E-01-1.27919E-05 5.04703E-02 2.26020E-13 3.77777E-14
 -1       849 2.01466E+01 3.36994E-01 3.21302E-05-4.27020E-01 9.87796E-14 3.16213E-15
 -1       850 1.99809E+01 1.15523E-01 1.94672E-05 6.67560E-02 3.18213E-13-2.03341E-13
 -1       851 1.99474E+01 1.48551E-01-7.86931E-06 2.66052E-02-6.12585E-14-2.48398E-13
 -1       852 2.00680E+01 2.07537E+00-3.22355E-04 5.39125E-03 1.45364E-13-5.07714E-13
 -1       853 2.00069E+01 8.78772E-02-8.87801E-06 7.50467E-02 1.82497E-13-1.37578E-13
 -1       854 2.01324E+01 1.90738E+00-3.53604E-04 3.21087E-01 3.01055E-13-3.38534E-13
 -1       855 2.02805E+01 7.30539E-01-4.73750E-04 1.64154E-01 3.21326E-13-9.79516E-14
 -1       856 1.55960E+01-1.70815E+00 6.68352E-02-4.54800E+00-2.97386E-13-5.89081E-13
 -1       857 1.99937E+01 9.91138E-02-8.51133E-05-7.46280E-02 1.24226E-14 2.74155E-13
 -1       858 2.24343E+01-3.41602E+00 6.36520E-03 2.57839E+00 2.12197E-13 9.30808E-14
 -1       859 2.45576E+01-3.04597E+00-4.50543E-03 4.17322E-01 4.79651E-14 3.82649E-13
 -1       860 2.38323E+01-3.25038E+00 1.07222E-02-1.20489E+00 1.89922E-13-2.32063E-13
 -1       861 2.02091E+01 4.92619E-01-4.30176E-05 2.96261E-01-6.18622E-14-2.26122E-13
 -1       862 2.01350E+01 4.10897E-01-8.85681E-06 4.26501E-01-7.12281E-15-1.35742E-13
 -1       863 2.00511E+01 3.75709E-01-3.35390E-06 5.45227E-01-1.01192E-14-1.17982E-13
 -1       864 1.99636E+01 3.65539E-01 2.14855E-06 6.63247E-01 6.83124E-15-1.83281E-13
 -1       865 1.98797E+01 3.58466E-01 6.57552E-06 7.89191E-01 3.43190E-14-1.68031E-13
 -1       866 1.98100E+01 3.30380E-01 1.07533E-05 9.29290E-01-1.25971E-14-1.02322E-13
 -1       867 1.97712E+01 2.53429E-01 2.24632E-05 1.08723E+00-3.31694E-15-1.18905E-13
 -1       868 1.97900E+01 9.48625E-02 5.18083E-05 1.26296E+00-3.16712E-14-1.17828E-13
 -1       869 1.99073E+01-1.82118E-01 8.27718E-05 1.44988E+00-1.13845E-14-7.35306E-14
 -1       870 2.01854E+01-6.15381E-01 1.11943E-04 1.62694E+00 4.73663E-15-8.63641E-14
 -1       871 2.07044E+01-1.22145E+00 4.12247E-04 1.74028E+00 9.63701E-14-5.05399E-14
 -1       872 2.15568E+01-1.97491E+00-6.00332E-04 1.70218E+00 1.50544E-13 1.58387E-13
 -1       873 2.21332E+01-2.59582E+00 2.50964E-03-1.84487E+00 2.52341E-13 4.76589E-14
 -1       874 2.09381E+01-1.70768E+00 1.58701E-03-1.97521E+00-5.93925E-14 1.59083E-13
 -1       875 2.01974E+01-9.27287E-01 1.02946E-03-1.84147E+00-1.19638E-13 6.73972E-14
 -1       876 1.97829E+01-3.38234E-01 3.99217E-04-1.60774E+00-1.32951E-13-6.30091E-14
 -1       877 1.95891E+01 5.81995E-02 3.36580E-05-1.35659E+00-5.71848E-14-2.95728E-14
 -1       878 1.95276E+01 3.00122E-01-6.69600E-05-1.12365E+00-1.51705E-13-2.19743E-13
 -1       879 1.95409E+01 4.27809E-01-8.68185E-05-9.18781E-01 6.90780E-15-2.79371E-13
 -1       880 1.95921E+01 4.76063E-01-8.02351E-05-7.43055E-01 8.51105E-15-8.86051E-14
 -1       881 1.96587E+01 4.72507E-01-6.72037E-05-5.94445E-01 3.61194E-13-4.89455E-15
 -1       882 1.97271E+01 4.37884E-01-5.38381E-05-4.70103E-01 8.01167E-14-9.23950E-14
 -1       883 1.97901E+01 3.87047E-01-4.13529E-05-3.67130E-01 8.89843E-14-1.62395E-13
 -1       884 1.98444E+01 3.30115E-01-2.91363E-05-2.82762E-01 1.60969E-13-2.68048E-13
 -1       885 1.98889E+01 2.73499E-01-2.62092E-05-2.14479E-01 5.92421E-14-2.69606E-14
 -1       886 1.99238E+01 2.21424E-01-7.25597E-06-1.60222E-01 1.21772E-13 3.06750E-13
 -1       887 1.99500E+01 1.75246E-01-9.90658E-05-1.17434E-01 1.43954E-13 2.39936E-13
 -1       888 1.92700E+01-2.53274E+00 2.26108E-02 4.00780E+00 2.88794E-13 9.34062E-15
 -1       889 1.90330E+01 8.71768E-01 1.78594E-05-1.32894E+00-3.41542E-14-1.19964E-13
 -1       890 1.93240E+01 7.89506E-01 2.66683E-05-1.13005E+00 2.68845E-14-7.70647E-14
 -1       891 1.82754E+01 7.84968E-01 3.61490E-04-1.90725E+00-4.87485E-14-3.30502E-13
 -1       892 1.78512E+01 4.58351E-01 1.15442E-03-2.37791E+00-1.06540E-13-3.22897E-13
 -1       893 1.75133E+01-2.45060E-01 3.39374E-03-3.05843E+00-2.93279E-13-3.38805E-13
 -1       894 1.99159E+01 1.90405E-01-3.45158E-05-2.11451E-02 2.93995E-13-1.93062E-13
 -1       895 1.82354E+01 5.84214E-01 1.03377E-03 2.19203E+00-2.03832E-13 3.43306E-13
 -1       896 1.78623E+01-1.23566E+00 2.95735E-02 3.76059E+00-2.33582E-13 7.07941E-15
 -1       897 1.85803E+01 8.50662E-01 3.27246E-04 1.76167E+00-1.22413E-13 4.04354E-13
 -1       898 1.89086E+01 9.25605E-01 7.06514E-05 1.44160E+00-1.15687E-13 1.31226E-13
 -1       899 1.91893E+01 8.93624E-01 2.27332E-05 1.18609E+00-3.33683E-13-6.49765E-14
 -1       900 1.94148E+01 8.07276E-01 2.39126E-05 9.72825E-01-2.02354E-14 1.71996E-13
 -1       901 1.95883E+01 6.98882E-01 2.21227E-05 7.91129E-01 1.04639E-13-9.16500E-14
 -1       902 1.97176E+01 5.87265E-01 1.74924E-05 6.35765E-01 4.81995E-14-1.76853E-13
 -1       903 1.98115E+01 4.82480E-01 1.33752E-05 5.03863E-01 4.38540E-14-2.91242E-13
 -1       904 1.98782E+01 3.89260E-01 1.02337E-05 3.93297E-01-1.06514E-13-1.23839E-13
 -1       905 1.99246E+01 3.09221E-01 7.46662E-06 3.02005E-01-5.44221E-14-2.52339E-13
 -1       906 1.99561E+01 2.42267E-01 5.38554E-06 2.27840E-01 4.66818E-14-1.25637E-13
 -1       907 1.99769E+01 1.87285E-01 8.11682E-06 1.68583E-01 1.62462E-13-3.40803E-13
 -1       908 1.99896E+01 1.43145E-01 1.12583E-06 1.21605E-01 1.48361E-13-2.37334E-13
 -1       909 1.99548E+01 1.53699E-01-2.28863E-05-8.19752E-02 1.45787E-13-9.36612E-15
 -1       910 1.25799E+01 9.73709E-01 3.67245E-02 7.15961E-01 9.41673E-14-3.02439E-13
 -1       911 1.24460E+01 1.09479E+00 3.65657E-02-3.88477E-01-1.90621E-13 2.82039E-13
 -1       912 1.47681E+01-3.98722E-01 2.40474E-02 3.56469E+00 3.41802E-13-2.42243E-13
 -1       913 2.02927E+01 8.95682E-01 2.25877E-05-4.64581E-02-9.28875E-14-3.66354E-13
 -1       914 2.02601E+01 6.35519E-01-2.98315E-04-1.26103E-01 1.56691E-13-1.41657E-13
 -1       915 1.68493E+01-1.76439E+00 3.07931E-02-4.40626E+00 1.11688E-13-2.97198E-13
 -1       916 1.99302E+01 1.76716E-01-2.31546E-05-5.53950E-02 1.78144E-13 5.60741E-14
 -1       917 1.84730E+01-1.67427E+00 3.57735E-02-3.89697E+00-4.14908E-13-4.06866E-13
 -1       918 1.86808E+01 8.90945E-01 7.20415E-05-1.57729E+00-4.28832E-15-2.00593E-13
 -1       919 1.98952E+01 4.96362E-01 1.00420E-05-6.88327E-01 8.58723E-14-1.50466E-13
 -1       920 2.06122E+01-3.07171E+00 1.82593E-02-3.66955E+00 2.93517E-13-1.95425E-13
 -1       921 1.79943E+01-1.23788E-02 3.26010E-03 2.80050E+00-1.83803E-13 2.89762E-13
 -1       922 2.01980E+01 5.00443E-01 2.87124E-05-2.97427E-01 1.20158E-13-1.44597E-13
 -1       923 2.02656E+01 6.45429E-01 2.80397E-05 1.42768E-01-9.39491E-14-2.95465E-13
 -1       924 1.36314E+01 1.81466E-02 3.97547E-02-3.18571E+00-1.78566E-13-7.04402E-14
 -1       925 2.00953E+01 1.98921E+00-2.23770E-04-1.33586E-01 9.35123E-14-4.80025E-13
 -1       926 1.38910E+01 4.54555E-01 2.99498E-02 2.55701E+00-2.35475E-13 4.34037E-13
 -1       927 2.28935E+01-2.81421E+00 1.12962E-02 1.41162E+00 1.53669E-13 2.38417E-13
 -1       928 1.33211E+01 1.03698E+00 2.18637E-02-6.68747E-01-1.29548E-14-5.73115E-13
 -1       929 1.97454E+01 5.80026E-01 1.50886E-05-8.18458E-01 8.88820E-14-7.74198E-14
 -1       930 2.00168E+01 4.46375E-01 6.80908E-06-5.64938E-01 8.64471E-14-2.14873E-13
 -1       931 2.02741E+01 1.22278E+00-5.25768E-05-2.12769E-01-6.40390E-14-4.28143E-13
 -1       932 2.02331E+01 1.41542E+00 1.76707E-04-1.54872E-01-1.27173E-14-4.20774E-13
 -1       933 1.95584E+01 6.83607E-01 2.12580E-05-9.63204E-01 8.16133E-14-5.19495E-14
 -1       934 2.01166E+01 4.42837E-01-5.12984E-06-4.38609E-01 1.18220E-13-1.75878E-13
 -1       935 1.99525E+01 1.61615E-01 9.18465E-07 8.04166E-02-1.58228E-14-5.77317E-15
 -1       936 1.99154E+01 1.92378E-01-6.75299E-06 1.62520E-02 1.60779E-13-1.80308E-13
 -1       937 2.02887E+01 1.13396E+00-2.69358E-04 2.49782E-01 3.06464E-13-1.94545E-13
 -1       938 2.01845E+01 1.59974E+00 8.97927E-05 5.16483E-02 1.72750E-13-3.91925E-13
 -1       939 2.02073E+01 1.52114E+00-3.42405E-04 1.37160E-01 2.31511E-13-3.30487E-13
 -1       940 2.02890E+01 8.25147E-01 4.54565E-04 5.67830E-02 2.40353E-13-1.34268E-13
 -1       941 1.47082E+01-2.51426E-01 3.99108E-02-3.36472E+00-2.59059E-13-5.50148E-13
 -1       942 1.99282E+01 1.82447E-01-1.42370E-05 5.17707E-02 4.09157E-14-4.35461E-13
 -1       943 1.77244E+01-9.30729E-01 1.13735E-02 3.23898E+00 2.25434E-13-9.28178E-14
 -1       944 2.00442E+01 4.86962E-01-2.00929E-05 3.97533E-01 5.50511E-14-1.84938E-13
 -1       945 1.99144E+01 4.68825E-01-1.87605E-05 5.05453E-01-1.15529E-14-1.55579E-13
 -1       946 1.97701E+01 4.73108E-01-8.28877E-06 6.23411E-01 7.37273E-15-1.38935E-13
 -1       947 1.96189E+01 4.75692E-01-2.13836E-05 7.61226E-01 5.46684E-14-1.84093E-13
 -1       948 1.94715E+01 4.50113E-01-4.41787E-05 9.28748E-01-6.15675E-15-1.35120E-13
 -1       949 1.93456E+01 3.64619E-01 6.66681E-06 1.13677E+00 1.71840E-14-1.02708E-13
 -1       950 1.92718E+01 1.80136E-01 2.34750E-04 1.39503E+00 1.84385E-14-2.75621E-14
 -1       951 1.92942E+01-1.46171E-01 3.88555E-04 1.71083E+00-1.37371E-14-3.10540E-14
 -1       952 1.95016E+01-6.83766E-01-1.09867E-03 2.08422E+00 6.99709E-14 7.67869E-14
 -1       953 2.00328E+01-1.48021E+00-2.56897E-03 2.47619E+00 2.27825E-13 6.77291E-14
 -1       954 1.99121E+01 2.08001E-01-5.55733E-05-8.75765E-02 6.18974E-14 1.95769E-14
 -1       955 2.01155E+01-2.05410E+00 5.84862E-03-3.01026E+00 2.34678E-13-1.92759E-13
 -1       956 1.93084E+01-1.01589E+00-4.17691E-03-2.49481E+00-1.56846E-13-8.22435E-14
 -1       957 1.89829E+01-2.89737E-01 8.36017E-04-1.98935E+00-8.57706E-14-9.64562E-14
 -1       958 1.89210E+01 1.63517E-01 4.37242E-04-1.56214E+00-6.53074E-15-5.47867E-14
 -1       959 1.89781E+01 4.33145E-01 1.16894E-04-1.22115E+00-1.60084E-13-6.86412E-14
 -1       960 1.90949E+01 5.71066E-01 2.78291E-05-9.52184E-01-1.07043E-13-5.92619E-15
 -1       961 1.92339E+01 6.19114E-01-2.02864E-06-7.41259E-01 1.10846E-13 7.09886E-14
 -1       962 1.93737E+01 6.08671E-01-1.34574E-05-5.75555E-01 7.81306E-14 2.31549E-13
 -1       963 1.95030E+01 5.62922E-01-1.78800E-05-4.44984E-01 1.52287E-13-6.63842E-14
 -1       964 1.96162E+01 4.98509E-01-1.81138E-05-3.41891E-01 3.07407E-14-1.35300E-14
 -1       965 1.97114E+01 4.26945E-01-8.61732E-06-2.60539E-01 5.12407E-14 1.73162E-14
 -1       966 1.97887E+01 3.55895E-01 7.83418E-06-1.96406E-01 2.66736E-13-5.84923E-14
 -1       967 1.98495E+01 2.89883E-01-4.26606E-05-1.46592E-01 3.56746E-13-6.18845E-14
 -1       968 1.98845E+01 2.47129E-01 2.06493E-04-1.13849E-01 8.46782E-14-3.99522E-15
 -1       969 2.01888E+01-2.19759E+00 7.91706E-03 3.04432E+00 1.98005E-13 7.94539E-14
 -1       970 1.58587E+01 7.90735E-01 5.13172E-03-2.03261E+00-1.45311E-13-4.04534E-13
 -1       971 1.68304E+01 1.03387E+00 9.76410E-04-1.54150E+00-3.76955E-14-2.59968E-13
 -1       972 1.72364E+01 1.09594E+00-3.12300E-04 1.49120E+00-6.21133E-14 5.05984E-13
 -1       973 1.88272E+01 1.01363E+00-6.09908E-05 8.22022E-01-2.58147E-13 8.51093E-14
 -1       974 1.91366E+01 8.90011E-01-3.11043E-05 6.84376E-01 2.22078E-14 4.81292E-13
 -1       975 1.93723E+01 7.59769E-01-1.72376E-05 5.64264E-01 1.65664E-13 4.71950E-13
 -1       976 1.95500E+01 6.34228E-01-1.15850E-05 4.58809E-01 2.44371E-13 2.88625E-13
 -1       977 1.96826E+01 5.19613E-01-8.91093E-06 3.67094E-01-1.14769E-13-1.15903E-14
 -1       978 1.97804E+01 4.18818E-01-7.87789E-06 2.88640E-01-9.69234E-16-2.93035E-13
 -1       979 1.98515E+01 3.32593E-01-1.48100E-05 2.22769E-01 6.04915E-15-3.05659E-13
 -1       980 1.99027E+01 2.60371E-01-2.16269E-05 1.68912E-01 1.99652E-13-9.50661E-14
 -1       981 1.99385E+01 2.01344E-01-3.59355E-05 1.25522E-01 5.87039E-14-4.18925E-15
 -1       982 1.48817E+01 7.12096E-01 1.76286E-03 1.82767E+00 1.84307E-13-1.84137E-13
 -1       983 1.62780E+01-5.15327E-01 1.47679E-02-3.32074E+00-1.51391E-14-4.74462E-13
 -1       984 2.02712E+01 1.07732E+00-9.03328E-05-4.12113E-02-2.69095E-14-3.76741E-13
 -1       985 2.02326E+01 6.81652E-01-6.36242E-05 1.70898E-01-1.65323E-14-2.61241E-13
 -1       986 1.84244E+01 1.11180E+00-2.68700E-04 9.85792E-01 3.74435E-14 2.52352E-13
 -1       987 2.01912E+01 1.56069E+00 9.37947E-05-2.78704E-02 8.23123E-14-4.08543E-13
 -1       988 2.02477E+01 1.36499E+00-3.23035E-04 2.07208E-01 2.46727E-13-2.99395E-13
 -1       989 1.79043E+01 1.15331E+00-6.23806E-04 1.19710E+00 9.30609E-14 3.77024E-13
 -1       990 1.87331E+01 9.79595E-01-9.70773E-05-9.07800E-01 2.06962E-14-2.13808E-13
 -1       991 1.64103E+01 8.72645E-01 1.82816E-03 1.94582E+00-2.57553E-13 4.70307E-13
 -1       992 2.02669E+01 8.48146E-01 1.97479E-04 7.04879E-02-2.87993E-14-3.33786E-13
 -1       993 2.01529E+01 5.49929E-01-3.84662E-05 2.89436E-01 1.56595E-14-2.01329E-13
 -1       994 1.43229E+01 8.57950E-01 1.23662E-02-1.67235E+00 1.03230E-14 2.25442E-13
 -1       995 1.45005E+01 1.27843E+00 1.19536E-02 4.95875E-01-2.76887E-13 1.30067E-13
 -1       996 2.02344E+01 6.90756E-01 8.05700E-05-1.61124E-01 1.54434E-13-2.16362E-13
 -1       997 1.47938E+01 1.09075E+00 1.66689E-02 7.65283E-01 1.38438E-13-1.35813E-13
 -1       998 1.96720E+01 6.32881E-01-9.87736E-06-5.90492E-01 4.56435E-14-2.11458E-13
 -1       999 1.98687E+01 5.61673E-01 8.86502E-06-4.96271E-01 7.14018E-14-1.72239E-13
 -1      1000 1.91198E+01 8.58420E-01-2.52590E-05-7.90520E-01 6.03608E-14-1.98792E-13
 -1      1001 1.76239E+01 1.10924E+00-2.05253E-04-1.24498E+00 5.21234E-14-1.49909E-13
 -1      1002 1.98751E+01 2.41940E-01-2.41308E-05-4.42195E-03 1.93009E-13-1.94978E-13
 -1      1003 2.02811E+01 1.02865E+00 3.28222E-04 6.28596E-02 2.10446E-13-2.47710E-13
 -1      1004 1.98873E+01 2.30409E-01 1.28499E-04-4.97820E-02 2.02334E-13-3.14685E-13
 -1      1005 2.02331E+01 1.23212E+00 2.26461E-04 1.02745E-02 1.11453E-13-3.55118E-13
 -1      1006 2.02430E+01 1.18986E+00 2.37556E-04 3.02599E-02 1.57703E-13-2.85625E-13
 -1      1007 1.82455E+01 1.07362E+00-2.57707E-04-1.05072E+00 3.97534E-14-1.03374E-13
 -1      1008 2.01474E+01 5.75439E-01-2.87324E-05-2.89878E-01 1.16821E-13-2.37054E-13
 -1      1009 2.02053E+01 1.51218E+00-1.74485E-04-9.31024E-02 5.20401E-14-4.31084E-13
 -1      1010 1.98974E+01 2.32968E-01-5.96818E-06 8.86806E-02 1.40320E-13-1.74833E-13
 -1      1011 2.02385E+01 1.21572E+00 2.78841E-04-8.22379E-03 5.59102E-14-3.62638E-13
 -1      1012 1.94266E+01 7.37018E-01-2.37881E-05-6.86993E-01 4.15424E-14-1.91694E-13
 -1      1013 1.97325E+01 5.64990E-01-8.37265E-05 4.14982E-01 4.56369E-14-2.01433E-13
 -1      1014 1.95245E+01 5.92165E-01 3.17334E-05 5.28046E-01 1.37131E-14-1.16647E-13
 -1      1015 1.92945E+01 6.13373E-01-1.46097E-04 6.72040E-01 3.14199E-14-1.16749E-13
 -1      1016 1.90471E+01 6.04795E-01-2.23268E-04 8.63292E-01 2.32276E-14-1.08223E-13
 -1      1017 1.87948E+01 5.31895E-01-6.07597E-05 1.12054E+00 1.39618E-14-1.40387E-13
 -1      1018 1.85590E+01 3.50050E-01-4.01098E-04 1.47241E+00-8.06592E-16-1.76193E-13
 -1      1019 1.83901E+01 5.09008E-03 2.84250E-03 1.96735E+00 8.96879E-14-1.88189E-13
 -1      1020 1.80597E+01-3.71055E-01 2.64473E-03 2.52375E+00 2.01577E-13-1.39705E-13
 -1      1021 1.80082E+01 3.76984E-01-8.38239E-04-1.68415E+00 3.62889E-14-1.66246E-13
 -1      1022 1.82856E+01 6.35186E-01-2.66915E-04-1.23539E+00 4.90741E-14-6.99664E-14
 -1      1023 1.85666E+01 7.55014E-01-1.93842E-04-9.09465E-01 8.35393E-15 1.33228E-13
 -1      1024 1.88282E+01 7.85209E-01-1.28266E-04-6.72172E-01 9.58822E-14 2.55273E-13
 -1      1025 1.90614E+01 7.57230E-01-8.32129E-05-4.98127E-01 1.79165E-13 2.32733E-13
 -1      1026 1.92626E+01 6.94324E-01-6.37796E-05-3.69636E-01 9.50747E-14 1.57068E-13
 -1      1027 1.94319E+01 6.13162E-01-5.18463E-05-2.74161E-01-1.34536E-14 3.24113E-13
 -1      1028 1.95711E+01 5.25460E-01-4.19894E-05-2.02832E-01-1.12679E-13 1.40567E-13
 -1      1029 1.96834E+01 4.38936E-01 5.93021E-06-1.49392E-01-8.19238E-15-4.87633E-14
 -1      1030 1.97706E+01 3.59426E-01-7.01546E-05-1.08232E-01 1.46514E-13-2.03072E-13
 -1      1031 1.92867E+01 7.66844E-01-6.86337E-05 3.35599E-01 3.01422E-13-1.29574E-13
 -1      1032 1.90334E+01 9.02631E-01-9.84837E-05 3.93025E-01 1.21609E-13-1.42905E-13
 -1      1033 1.87024E+01 1.03903E+00-1.58931E-04 4.50338E-01-1.57419E-13 6.67292E-14
 -1      1034 1.94800E+01 6.38907E-01-5.15437E-05 2.79970E-01 2.50841E-13-1.34778E-13
 -1      1035 1.96264E+01 5.23090E-01-3.98333E-05 2.28233E-01 1.31488E-13-2.27405E-13
 -1      1036 1.97362E+01 4.21588E-01-5.21943E-05 1.81911E-01-1.56840E-13-2.38250E-13
 -1      1037 1.98180E+01 3.34259E-01-6.76262E-05 1.41793E-01-6.94680E-15-2.30398E-13
 -1      1038 1.98619E+01 2.80527E-01 6.08591E-06 1.13446E-01 1.50631E-13-3.43961E-13
 -1      1039 2.00256E+01 5.37632E-01-3.39872E-06-3.98386E-01 1.12990E-13-1.90459E-13
 -1      1040 1.98779E+01 2.44182E-01-3.35403E-06 4.25807E-02 9.70853E-14-6.13683E-14
 -1      1041 2.01752E+01 6.94501E-01 1.70303E-04 1.58411E-01-4.59511E-15-2.75585E-13
 -1      1042 1.82702E+01 1.16452E+00-3.14812E-04 5.07630E-01-4.85640E-16 3.13210E-13
 -1      1043 1.59537E+01 1.34808E+00 2.19401E-03 4.27560E-01-4.68933E-14 1.17865E-13
 -1      1044 1.61894E+01 3.86469E-01-1.66119E-03-2.19498E+00 7.43549E-14-3.84540E-13
 -1      1045 1.99134E+01 5.58146E-01-9.45447E-05 3.22006E-01 3.09619E-14-2.79501E-13
 -1      1046 1.77003E+01 1.26470E+00 1.20356E-05 5.68065E-01 8.00357E-14 3.01745E-13
 -1      1047 2.00625E+01 5.94107E-01-1.66565E-05 2.39204E-01 3.58383E-14-2.65961E-13
 -1      1048 2.02595E+01 1.13396E+00 9.51447E-04 4.63320E-02 1.78271E-13-3.10473E-13
 -1      1049 1.55155E+01 1.21840E+00 2.66067E-03-6.54486E-01 9.08531E-14-2.47374E-13
 -1      1050 1.69547E+01 1.32969E+00 1.02677E-03 5.18647E-01-5.61511E-15 1.26320E-15
 -1      1051 1.78562E+01-4.97202E-02 4.24958E-03-2.25641E+00-1.14334E-13-3.11650E-13
 -1      1052 2.02266E+01 9.67099E-01-3.22612E-04 2.26924E-02 2.07226E-14-2.75266E-13
 -1      1053 1.61174E+01 9.05543E-01 8.40419E-04 1.27384E+00 1.26671E-13-1.30958E-13
 -1      1054 1.55146E+01 1.14856E+00 5.61311E-03-8.94438E-01-6.70809E-14-1.05200E-14
 -1      1055 1.98494E+01 2.75694E-01 3.35932E-05-6.66920E-02 3.07641E-13-3.82061E-13
 -1      1056 2.02280E+01 9.58142E-01 4.48831E-04-1.58092E-02 8.73432E-14-3.04813E-13
 -1      1057 1.96909E+01 6.55844E-01-7.44066E-06-3.55092E-01 8.70433E-14-1.40444E-13
 -1      1058 1.86929E+01 9.84517E-01-2.03671E-04-4.78658E-01 2.08818E-14-1.08515E-13
 -1      1059 1.66898E+01 1.24375E+00-5.06000E-04-5.63610E-01 6.20558E-14-1.31316E-13
 -1      1060 1.94280E+01 7.43429E-01-6.63213E-05-4.03030E-01 6.43883E-14-1.49941E-13
 -1      1061 1.81725E+01 1.10899E+00 3.17480E-04-5.06807E-01 4.90127E-15-9.45434E-14
 -1      1062 1.98219E+01 3.04275E-01-2.44236E-05 1.66045E-02 1.91009E-14-4.41263E-14
 -1      1063 2.02416E+01 1.25627E+00 3.10678E-04-4.16799E-02 4.47535E-14-3.85620E-13
 -1      1064 2.01817E+01 7.17219E-01 8.48948E-05-1.48652E-01 1.28933E-13-2.13561E-13
 -1      1065 2.02273E+01 8.31241E-01-4.63417E-05 8.88022E-02 4.88836E-16-2.82107E-13
 -1      1066 2.02525E+01 9.50181E-01-4.99737E-04-2.94559E-02 1.23799E-13-2.92084E-13
 -1      1067 1.90574E+01 8.59677E-01-1.26275E-04 1.33602E-01 2.37720E-13-6.63281E-13
 -1      1068 1.91011E+01 8.58106E-01-1.78931E-04-4.44385E-01 1.92981E-14-1.42251E-13
 -1      1069 1.95236E+01 6.64222E-01 3.74059E-04 2.68093E-01 7.29956E-14-2.21752E-13
 -1      1070 1.92477E+01 7.19590E-01 8.05036E-04 3.69446E-01 7.97772E-14-1.98072E-13
 -1      1071 1.89202E+01 7.73759E-01 4.31766E-04 5.09799E-01 1.62222E-14-1.70648E-13
 -1      1072 1.85522E+01 7.95709E-01 5.29151E-04 7.04669E-01-1.74024E-14-2.52870E-13
 -1      1073 1.81328E+01 7.57892E-01 6.26088E-04 9.78740E-01-2.86315E-14-2.29852E-13
 -1      1074 1.76469E+01 6.22634E-01-1.58906E-03 1.36058E+00 2.24807E-14-1.91730E-13
 -1      1075 1.74553E+01 9.07645E-01 5.04574E-04-1.07786E+00 5.35459E-14-3.23885E-13
 -1      1076 1.68779E+01 7.35226E-01 1.23934E-03-1.54283E+00 1.51015E-13-1.12058E-13
 -1      1077 2.00984E+01 6.89720E-01-7.44031E-05 9.57966E-02 1.73824E-14-2.30528E-13
 -1      1078 1.79699E+01 9.77248E-01 2.95540E-04-7.40372E-01 9.27374E-14-2.81969E-13
 -1      1079 1.83912E+01 9.70686E-01 3.06203E-04-5.07301E-01 5.27349E-14-3.38886E-13
 -1      1080 1.87378E+01 9.13610E-01 2.69280E-04-3.45581E-01 4.14229E-14-4.60786E-13
 -1      1081 1.90210E+01 8.27055E-01 2.03614E-04-2.34045E-01 1.01689E-13-3.39696E-13
 -1      1082 1.92508E+01 7.25801E-01 1.43399E-04-1.57659E-01 1.18882E-13-3.72299E-13
 -1      1083 1.94354E+01 6.20572E-01 9.84540E-05-1.05701E-01-4.26537E-14-2.22623E-13
 -1      1084 1.95818E+01 5.18836E-01 6.99918E-05-7.06331E-02-1.96993E-13-4.66192E-14
 -1      1085 1.96947E+01 4.25355E-01-3.17753E-04-4.50944E-02 8.69191E-14-4.32474E-14
 -1      1086 1.94826E+01 6.09566E-01-5.48625E-05 1.18037E-01 1.59942E-13-2.35725E-13
 -1      1087 1.92970E+01 7.31031E-01-7.94585E-05 1.30136E-01 2.99971E-13-4.08373E-13
 -1      1088 1.87493E+01 9.89239E-01-1.97467E-04 1.22398E-01 1.46517E-13-4.77607E-13
 -1      1089 1.96252E+01 4.99043E-01-7.50986E-05 1.01727E-01 3.02228E-14-9.06244E-14
 -1      1090 1.97364E+01 4.03269E-01 9.57523E-04 8.58499E-02-5.36406E-14-9.53993E-14
 -1      1091 1.99007E+01 6.11798E-01-9.50281E-05-2.98584E-01 7.52554E-14-1.41776E-13
 -1      1092 2.00639E+01 6.26508E-01-1.01099E-04-2.30822E-01 9.60218E-14-2.06937E-13
 -1      1093 1.83525E+01 1.11102E+00-2.65031E-04 8.86099E-02-5.39462E-14-3.29224E-13
 -1      1094 1.99512E+01 6.27479E-01 3.29597E-04 1.42540E-01 4.37805E-14-2.16038E-13
 -1      1095 1.61816E+01 1.19701E+00-3.27960E-04 2.59549E-01 8.36135E-14-2.20716E-13
 -1      1096 1.97559E+01 6.28256E-01 1.81675E-04 1.97960E-01 6.26034E-14-1.97576E-13
 -1      1097 1.78352E+01 1.21482E+00-2.87272E-04 2.32701E-02 2.75204E-15-3.09331E-13
 -1      1098 1.75289E+01 1.19944E+00-6.51709E-04-5.25136E-01 2.69249E-14-1.64835E-13
 -1      1099 2.02527E+01 9.24332E-01-2.15289E-04 5.42514E-02-7.52478E-15-3.21494E-13
 -1      1100 1.98359E+01 2.97312E-01 2.37395E-04 6.62782E-02 1.61498E-13-1.91458E-13
 -1      1101 1.72335E+01 1.26067E+00-1.62764E-04-1.71729E-01 3.86983E-14-1.66788E-13
 -1      1102 1.72424E+01 9.83036E-01 7.59357E-04 7.90060E-01 3.60920E-14-8.15482E-14
 -1      1103 2.01775E+01 7.90736E-01 3.54578E-04 6.19751E-02 4.84331E-14-2.74939E-13
 -1      1104 1.83489E+01 1.02799E+00-1.26653E-03-2.77964E-02-2.35261E-14-2.42904E-13
 -1      1105 1.64762E+01 1.24722E+00-5.89143E-07-4.56454E-01 1.05669E-16-1.41484E-13
 -1      1106 1.97685E+01 6.57556E-01-2.36549E-04-1.35152E-01 8.68530E-14-1.97107E-13
 -1      1107 1.97888E+01 3.46503E-01-1.88948E-04 7.66083E-02 1.96164E-13-2.79545E-13
 -1      1108 1.95165E+01 7.18335E-01 2.77170E-04-1.43155E-01 4.99139E-14-1.88653E-13
 -1      1109 1.88294E+01 9.16906E-01-7.56500E-05-9.30307E-02 1.14123E-14-2.66537E-13
 -1      1110 2.01451E+01 7.50732E-01-1.63072E-04-5.36400E-02 8.62568E-14-2.53327E-13
 -1      1111 1.92164E+01 8.04838E-01 3.41044E-04-1.31700E-01 4.29133E-14-1.81122E-13
 -1      1112 1.93127E+01 7.53832E-01-1.88335E-03 5.41916E-02 6.07890E-14-1.74957E-13
 -1      1113 1.77957E+01 1.07136E+00-2.48610E-04 2.92642E-01 7.12471E-14-2.57065E-13
 -1      1114 1.99697E+01 6.50339E-01 5.63094E-04-1.19467E-01 5.38509E-14-2.07463E-13
 -1      1115 2.00148E+01 6.67186E-01-3.85454E-04-1.60751E-02 4.73651E-14-2.10634E-13
 -1      1116 1.71264E+01 1.17798E+00-5.84466E-04 1.07507E-01 7.85118E-14-2.00586E-13
 -1      1117 2.78721E+01 9.05588E+00 2.31394E+00-6.67061E+00-7.49956E-14 1.35705E-12
 -1      1118 2.05215E+01 6.21967E+00 2.10682E-01-3.88108E+00-3.31679E-14-2.34271E-13
 -1      1119 1.94351E+01 5.85363E+00 7.69565E-02-2.86171E+00-1.87211E-14-8.12170E-13
 -1      1120 1.90403E+01 5.73051E+00 6.13311E-02-2.20591E+00-1.16400E-14-1.03777E-12
 -1      1121 1.88604E+01 5.67549E+00 5.78535E-02-1.67246E+00-5.37764E-15-1.11525E-12
 -1      1122 1.87689E+01 5.64725E+00 5.52307E-02-1.20852E+00-7.39860E-16-1.12429E-12
 -1      1123 1.87198E+01 5.63182E+00 5.29228E-02-7.85172E-01 1.75467E-15-1.09305E-12
 -1      1124 1.86949E+01 5.62387E+00 5.12820E-02-3.82718E-01 5.14844E-15-1.04476E-12
 -1      1125 1.86879E+01 5.62160E+00 5.07544E-02 8.18072E-03 6.17009E-15-9.87229E-13
 -1      1126 1.86966E+01 5.62440E+00 5.14105E-02 3.99511E-01 8.71135E-15-9.18779E-13
 -1      1127 1.87230E+01 5.63287E+00 5.31921E-02 8.03373E-01 9.75608E-15-8.29900E-13
 -1      1128 1.87743E+01 5.64909E+00 5.59863E-02 1.22943E+00 1.35517E-14-7.14010E-13
 -1      1129 1.88674E+01 5.67790E+00 5.88745E-02 1.69814E+00 1.74669E-14-5.34530E-13
 -1      1130 1.90468E+01 5.73251E+00 6.15192E-02 2.23947E+00 2.21906E-14-2.46965E-13
 -1      1131 1.94315E+01 5.85071E+00 7.08601E-02 2.90259E+00 2.62151E-14 2.23981E-13
 -1      1132 2.04270E+01 6.17446E+00 1.54522E-01 3.85632E+00 2.53408E-14 1.07259E-12
 -1      1133 2.51351E+01 7.96731E+00 1.42249E+00 5.82249E+00 3.80806E-14 2.66506E-12
 -1      1134 2.86961E+01 3.59757E+00 1.25939E+00-4.19822E+00-2.80387E-13 2.33946E-12
 -1      1135 2.01620E+01-1.77821E-01-6.15708E-01-1.08441E-01-9.81368E-14 1.69703E-12
 -1      1136 1.87937E+01-9.67619E-02-2.36094E-01 6.24258E-02-4.04728E-14 8.56790E-13
 -1      1137 1.84841E+01-4.89371E-02-6.03276E-02 4.02442E-02-2.33004E-14 2.98886E-13
 -1      1138 1.84595E+01-2.61094E-02-1.68199E-02 2.65412E-02-1.46333E-14-1.08975E-13
 -1      1139 1.85836E+01-1.51627E-02-7.42064E-03 1.90013E-02-1.31603E-14-3.40235E-13
 -1      1140 1.87903E+01-9.38790E-03-4.77029E-03 1.43473E-02-5.04718E-15-5.34840E-13
 -1      1141 1.90462E+01-6.37128E-03-3.71234E-03 1.13835E-02-2.65933E-15-7.16560E-13
 -1      1142 1.93357E+01-4.91039E-03-3.46144E-03 9.54253E-03-4.06299E-15-9.27335E-13
 -1      1143 1.96534E+01-4.33028E-03-3.76581E-03 8.56705E-03-8.18410E-15-1.12760E-12
 -1      1144 1.99998E+01-4.14815E-03-4.31642E-03 8.33560E-03-1.01418E-14-1.28036E-12
 -1      1145 2.03775E+01-3.92985E-03-4.68258E-03 8.76286E-03 4.46231E-15-1.31023E-12
 -1      1146 2.07884E+01-3.21139E-03-4.29028E-03 9.72232E-03-7.55445E-16-1.39808E-12
 -1      1147 2.12289E+01-1.46359E-03-2.39355E-03 1.09637E-02 8.50249E-15-1.30726E-12
 -1      1148 2.16850E+01 1.88933E-03 1.90809E-03 1.20088E-02-1.30315E-14-1.15819E-12
 -1      1149 2.21264E+01 7.35663E-03 9.51203E-03 1.20345E-02-4.20939E-14-1.25975E-12
 -1      1150 2.25003E+01 1.51105E-02 2.08800E-02 9.79503E-03-5.72892E-16-1.35595E-12
 -1      1151 2.27283E+01 2.45047E-02 3.52177E-02 3.72095E-03-1.50652E-14-1.48490E-12
 -1      1152 2.27121E+01 3.34540E-02 4.93661E-02-7.57964E-03-3.39225E-14-1.71689E-12
 -1      1153 2.23548E+01 3.80242E-02 5.70674E-02-2.42152E-02-4.68375E-16-1.90713E-12
 -1      1154 2.16035E+01 3.30647E-02 4.99999E-02-4.34646E-02-2.05612E-14-1.75316E-12
 -1      1155 2.05067E+01 1.46993E-02 2.20141E-02-5.88280E-02 8.87517E-15-1.74341E-12
 -1      1156 1.92574E+01-1.54552E-02-2.41642E-02-6.15035E-02 1.54223E-14-1.49513E-12
 -1      1157 1.81753E+01-4.74817E-02-7.30433E-02-4.52905E-02-4.23793E-15-1.69607E-12
 -1      1158 1.75999E+01-6.64935E-02-1.01915E-01-1.24228E-02 8.55999E-15-1.65652E-12
 -1      1159 1.77319E+01-6.21637E-02-9.53248E-02 2.53542E-02-2.49098E-14-1.64792E-12
 -1      1160 1.85253E+01-3.69418E-02-5.69361E-02 5.32240E-02 1.42980E-14-1.61750E-12
 -1      1161 1.97135E+01-4.06405E-03-6.63975E-03 6.24459E-02 2.01166E-14-1.41716E-12
 -1      1162 2.09475E+01 2.24369E-02 3.40029E-02 5.42976E-02 2.34747E-14-1.04301E-12
 -1      1163 2.19463E+01 3.56857E-02 5.40463E-02 3.66492E-02 1.39415E-14-9.92650E-13
 -1      1164 2.25720E+01 3.64890E-02 5.46876E-02 1.78886E-02-3.87537E-14-1.39474E-12
 -1      1165 2.28204E+01 2.96196E-02 4.35463E-02 3.17137E-03 1.02626E-14-1.54983E-12
 -1      1166 2.27677E+01 1.99730E-02 2.85183E-02-5.95679E-03 5.11861E-14-8.49871E-13
 -1      1167 2.25172E+01 1.08163E-02 1.47378E-02-1.02148E-02-1.39901E-14-7.94701E-13
 -1      1168 2.21633E+01 3.66050E-03 4.39322E-03-1.11284E-02 4.67958E-14-9.33755E-13
 -1      1169 2.17775E+01-1.18694E-03-2.27128E-03-1.01542E-02 1.25255E-14-8.73933E-13
 -1      1170 2.14062E+01-4.02755E-03-5.91469E-03-8.35468E-03 2.01347E-14-1.08090E-12
 -1      1171 2.10754E+01-5.36599E-03-7.42267E-03-6.38222E-03-1.27737E-14-1.03811E-12
 -1      1172 2.07960E+01-5.69626E-03-7.58517E-03-4.57765E-03-2.86286E-14-8.01173E-13
 -1      1173 2.05695E+01-5.41736E-03-6.99557E-03-3.08156E-03-6.37939E-15-9.19939E-13
 -1      1174 2.03923E+01-4.81819E-03-6.05550E-03-1.92098E-03-1.22620E-14-9.70242E-13
 -1      1175 2.02579E+01-4.09186E-03-5.01590E-03-1.06643E-03-6.89812E-14-1.15057E-12
 -1      1176 2.01592E+01-3.35829E-03-4.02198E-03-4.65318E-04 3.11891E-14-1.23733E-12
 -1      1177 2.00893E+01-2.68565E-03-3.15065E-03-5.93395E-05 2.07469E-14-9.51046E-13
 -1      1178 2.00420E+01-2.10720E-03-2.43741E-03 2.08385E-04 7.41365E-14-4.72762E-13
 -1      1179 2.00122E+01-1.63157E-03-1.89057E-03 3.92936E-04-2.20700E-14-3.49581E-13
 -1      1180 1.99960E+01-1.24642E-03-1.47887E-03 5.51006E-04-2.35358E-14-4.72162E-13
 -1      1181 1.99904E+01-8.91792E-04-1.06934E-03 7.34460E-04 7.66562E-14 1.73150E-13
 -1      1182 1.99930E+01-6.03753E-04-2.15502E-04 1.02619E-03-1.11913E-14 4.59042E-13
 -1      1183 1.99984E+01 5.38867E-04 1.35065E-03 4.56405E-04 4.47438E-14 3.91621E-13
 -1      1184 2.76787E+01 5.23458E-01 3.70143E-01 1.95964E+00-5.15421E-14 3.92941E-12
 -1      1185 2.00180E+01-6.64891E-02-5.72899E-01 1.28988E-01 1.47451E-14 3.40861E-12
 -1      1186 1.88642E+01-4.11475E-02-1.93095E-01 1.97200E-02 1.28508E-14 2.80074E-12
 -1      1187 1.85081E+01-2.23676E-02-5.12767E-02 2.22507E-03 7.80018E-15 2.37883E-12
 -1      1188 1.84667E+01-1.38636E-02-1.49188E-02-2.91004E-03 2.07208E-14 2.03958E-12
 -1      1189 1.85841E+01-9.50484E-03-7.05359E-03-3.96422E-03-6.79339E-15 1.82766E-12
 -1      1190 1.87885E+01-7.25665E-03-5.41395E-03-3.72666E-03 6.49719E-15 1.70611E-12
 -1      1191 1.90465E+01-6.34667E-03-5.22944E-03-2.98846E-03 1.72030E-15 1.58817E-12
 -1      1192 1.93447E+01-6.42071E-03-5.92478E-03-2.01523E-03 2.77848E-15 1.44067E-12
 -1      1193 1.96827E+01-7.29265E-03-7.54435E-03-9.63311E-04 4.34407E-15 1.31011E-12
 -1      1194 2.00691E+01-8.83417E-03-1.01180E-02 1.01883E-05 1.65454E-14 1.13881E-12
 -1      1195 2.05199E+01-1.08922E-02-1.35957E-02 6.90473E-04 1.12099E-14 9.76948E-13
 -1      1196 2.10572E+01-1.31818E-02-1.77720E-02 7.40798E-04 9.93585E-15 9.52498E-13
 -1      1197 2.17067E+01-1.51153E-02-2.20713E-02-3.81641E-04-2.29523E-14 1.08474E-12
 -1      1198 2.24935E+01-1.55405E-02-2.51230E-02-3.51363E-03 2.69489E-14 1.01098E-12
 -1      1199 2.34332E+01-1.24147E-02-2.40743E-02-9.79600E-03 8.31626E-15 8.83214E-13
 -1      1200 2.45139E+01-2.62601E-03-1.38093E-02-2.03739E-02-3.38622E-14 1.01784E-12
 -1      1201 2.56657E+01 1.73853E-02 1.30440E-02-3.53070E-02 1.77250E-14 1.09077E-12
 -1      1202 2.67158E+01 4.88922E-02 6.29784E-02-5.10877E-02 3.90920E-15 8.09075E-13
 -1      1203 2.73463E+01 8.48929E-02 1.31988E-01-5.70636E-02 2.27821E-14 8.70031E-13
 -1      1204 2.71084E+01 1.03247E-01 1.90271E-01-3.47112E-02 6.73593E-15 9.05498E-13
 -1      1205 2.55992E+01 7.23442E-02 1.78193E-01 3.09734E-02-2.63938E-14 1.02783E-12
 -1      1206 2.28614E+01-1.67580E-02 4.59746E-02 1.24641E-01 8.10983E-16 1.02560E-12
 -1      1207 1.97830E+01-1.15356E-01-1.69180E-01 1.84397E-01-3.64674E-14 8.88428E-13
 -1      1208 1.79029E+01-1.41965E-01-3.19050E-01 1.46481E-01 3.15963E-14 8.28060E-13
 -1      1209 1.83511E+01-8.16201E-02-2.80256E-01 2.08592E-02-2.05235E-14 8.53151E-13
 -1      1210 2.08435E+01 1.71732E-03-9.93251E-02-1.04885E-01-9.29421E-15 8.30669E-13
 -1      1211 2.39538E+01 5.03299E-02 7.53519E-02-1.55138E-01 2.00066E-14 7.17149E-13
 -1      1212 2.63035E+01 5.74374E-02 1.51482E-01-1.29662E-01-8.60163E-15 5.20264E-13
 -1      1213 2.73391E+01 4.31301E-02 1.38068E-01-7.30594E-02 5.81653E-14 1.33470E-13
 -1      1214 2.72332E+01 2.45371E-02 8.69152E-02-2.26198E-02-6.50044E-15-1.47750E-13
 -1      1215 2.64356E+01 9.83476E-03 3.77453E-02 8.52556E-03 1.35452E-14 1.99910E-14
 -1      1216 2.53560E+01 4.93206E-04 5.42081E-03 2.24052E-02-1.87456E-14 3.98702E-13
 -1      1217 2.42586E+01-4.47340E-03-1.09667E-02 2.55446E-02-3.37013E-15 3.17781E-13
 -1      1218 2.32764E+01-6.55060E-03-1.69370E-02 2.34358E-02 7.58074E-16-1.77289E-15
 -1      1219 2.24571E+01-6.96056E-03-1.74162E-02 1.94383E-02 3.89083E-14-2.50796E-13
 -1      1220 2.18027E+01-6.51976E-03-1.55300E-02 1.52411E-02 6.82061E-14-8.12640E-13
 -1      1221 2.12953E+01-5.71460E-03-1.29271E-02 1.15400E-02 4.97475E-15-7.12807E-13
 -1      1222 2.09104E+01-4.81142E-03-1.03585E-02 8.52953E-03 2.92236E-14-7.58089E-13
 -1      1223 2.06238E+01-3.94417E-03-8.10959E-03 6.18652E-03-7.94395E-15-9.05588E-13
 -1      1224 2.04139E+01-3.17251E-03-6.25063E-03 4.41124E-03-3.97499E-14-6.52121E-13
 -1      1225 2.02631E+01-2.51696E-03-4.76370E-03 3.09074E-03-5.06158E-14 3.37948E-14
 -1      1226 2.01570E+01-1.97881E-03-3.60227E-03 2.12294E-03-6.29764E-14 2.07133E-13
 -1      1227 2.00845E+01-1.55068E-03-2.71713E-03 1.42286E-03 1.01470E-13-1.21100E-13
 -1      1228 2.00370E+01-1.22074E-03-2.06631E-03 9.20470E-04-4.00756E-14 7.45666E-14
 -1      1229 2.00081E+01-9.69762E-04-1.61228E-03 5.54176E-04 1.27439E-13-3.16401E-13
 -1      1230 1.99932E+01-7.71935E-04-1.29419E-03 2.60885E-04 6.54847E-15-1.00511E-12
 -1      1231 1.99888E+01-5.31740E-04-9.36734E-04-6.72462E-05-3.18106E-15-1.45359E-12
 -1      1232 1.99925E+01 3.46216E-05-2.91352E-05-5.64775E-04 2.34811E-14-1.07989E-12
 -1      1233 1.99986E+01 4.46485E-04 1.41026E-03-4.42512E-04-2.39527E-14-6.18136E-13
 -1      1234 2.00002E+01-1.36471E-03 1.26803E-03-4.99991E-04-6.13841E-13-1.12632E-13
 -1      1235 1.99994E+01-7.20616E-03-3.24116E-04-9.10417E-04-4.77263E-13-1.02624E-13
 -1      1236 1.99991E+01-9.16540E-03-1.05476E-03-4.06297E-04-1.08416E-13-7.56581E-14
 -1      1237 1.99992E+01-3.35456E-03-9.47927E-04 5.23057E-05-1.15379E-13-2.28686E-13
 -1      1238 1.99996E+01 8.73694E-03-4.62806E-04 3.38265E-04-9.34564E-14-4.19798E-14
 -1      1239 1.99999E+01 2.36205E-02 9.92779E-05 4.43122E-04-2.36088E-13-1.19614E-13
 -1      1240 2.00003E+01 3.76996E-02 5.89409E-04 3.98079E-04-6.72935E-13-5.85707E-14
 -1      1241 2.00005E+01 4.78416E-02 9.21491E-04 2.37931E-04-4.30946E-13-1.12948E-13
 -1      1242 2.00006E+01 5.17007E-02 1.03899E-03 1.93761E-05-4.86941E-13 9.62113E-14
 -1      1243 2.00005E+01 4.84934E-02 9.28286E-04-2.00429E-04 1.06297E-14 1.44004E-14
 -1      1244 2.00003E+01 3.89621E-02 6.07946E-04-3.64078E-04-8.61671E-13-2.33282E-13
 -1      1245 2.00000E+01 2.53665E-02 1.38142E-04-4.23328E-04-1.91726E-12 2.69010E-13
 -1      1246 1.99996E+01 1.07371E-02-4.05655E-04-3.34562E-04-1.26292E-12 1.31550E-13
 -1      1247 1.99993E+01-1.45683E-03-8.86255E-04-7.73990E-05-7.78190E-13 1.13864E-13
 -1      1248 1.99993E+01-7.88973E-03-1.01231E-03 4.07968E-04-4.75587E-13 2.03404E-14
 -1      1249 1.99994E+01-6.18856E-03-1.68328E-04 1.31765E-03-3.40000E-13-3.10640E-14
 -1      1250 2.00002E+01-1.57595E-03 1.17288E-03 6.14397E-04-2.53549E-13 1.26790E-13
 -1      1251-1.04639E+00-2.44213E+01-3.73157E+00-2.24497E+00 1.81716E-12 3.36550E-13
 -1      1252-1.93219E+00-1.69837E+01-3.26560E+00-4.51535E+00 2.20346E-12 7.14317E-13
 -1      1253-5.69603E-01-4.78344E+00-2.20743E+00-1.40101E+00 2.36122E-12 1.40021E-12
 -1      1254 7.26156E+00 6.22983E+00-6.89837E-01 6.77488E+00 2.29039E-12 2.15827E-12
 -1      1255 2.34350E+01 1.08134E+01 1.09377E+00 1.53184E+01 1.20570E-12 1.49658E-12
 -1      1256 4.54366E+01 8.40613E+00 2.90799E+00 1.79818E+01 9.11493E-14 1.03695E-13
 -1      1257 6.34962E+01 3.69030E+00 4.17661E+00 1.09668E+01-1.81632E-13-1.31695E-12
 -1      1258 6.93700E+01 1.64817E+00 4.56318E+00-1.69133E+00 1.68823E-13-2.42939E-12
 -1      1259 6.03707E+01 4.57761E+00 3.94051E+00-1.34000E+01 9.04943E-13-3.63332E-12
 -1      1260 4.15945E+01 9.17886E+00 2.59953E+00-1.83076E+01 1.99663E-12-4.15801E-12
 -1      1261 2.07505E+01 1.04472E+01 8.47209E-01-1.40742E+01 2.85882E-12-3.70193E-12
 -1      1262 5.89693E+00 5.05722E+00-8.51946E-01-5.55592E+00 3.06288E-12-2.67653E-12
 -1      1263-9.70989E-01-6.54215E+00-2.41917E+00 1.97854E+00 2.51488E-12-1.45428E-12
 -1      1264-1.89535E+00-1.89863E+01-3.43589E+00 4.23172E+00 6.31606E-13-4.28713E-13
 -1      1265-1.05467E+00-2.53759E+01-3.87491E+00 1.16361E+00-1.25057E-12-3.06699E-14
 -1      1266-1.34888E+00-2.21354E+01-3.57677E+00-2.97061E+00-2.44771E-12-4.67987E-13
 -1      1267-1.61440E+00-1.16860E+01-2.75010E+00-3.40229E+00-3.46789E-12-1.59139E-12
 -1      1268 1.64556E+00 6.56185E-01-1.44989E+00 1.67840E+00-3.98215E-12-2.58338E-12
 -1      1269 1.11936E+01 9.13157E+00 4.68491E-02 9.89397E+00-2.97540E-12-2.82463E-12
 -1      1270 2.72205E+01 1.12424E+01 1.54609E+00 1.67305E+01-1.83598E-12-2.64389E-12
 -1      1271 4.62304E+01 8.07257E+00 2.90888E+00 1.76714E+01-8.93619E-13-1.73328E-12
 -1      1272 6.13349E+01 3.48770E+00 3.83117E+00 1.07665E+01-1.69378E-13-4.74842E-13
 -1      1273 6.64781E+01 1.68615E+00 4.15788E+00-1.38356E+00-1.38382E-13 1.15177E-12
 -1      1274 5.84269E+01 4.53512E+00 3.68775E+00-1.29011E+01-6.38628E-13 2.27096E-12
 -1      1275 4.14695E+01 9.22233E+00 2.62862E+00-1.81404E+01-1.66300E-12 3.30003E-12
 -1      1276 2.24886E+01 1.12415E+01 1.13679E+00-1.53449E+01-1.87717E-12 2.80442E-12
 -1      1277 7.46351E+00 6.82820E+00-4.51035E-01-7.09781E+00-1.22857E-12 1.11289E-12
 -1      1278-2.10110E-01-3.78641E+00-1.94690E+00 8.92025E-01-1.07492E-12 5.46785E-13
 -1      1279-1.69273E+00-1.57061E+01-3.04963E+00 3.99285E+00-9.04388E-13 3.43614E-13
 -1      1280-1.01272E+00-2.38820E+01-3.65848E+00 2.06553E+00 3.24518E-13 1.21736E-13
 -1      1281 2.22041E+01 1.83542E+00-7.23364E-01-2.77652E+00-1.09690E-13 9.48130E-13
 -1      1282 2.03444E+01 4.68379E+00-4.77189E-02-3.28125E+00-2.33050E-13-5.16143E-13
 -1      1283 2.08369E+01 4.79929E+00-1.12362E-01-4.13513E+00-3.21215E-13-2.06397E-13
 -1      1284 1.95384E+01 4.99236E+00-1.90910E-02-2.62486E+00-2.06668E-13-9.21509E-13
 -1      1285 1.98274E+01 5.08652E+00 1.13946E-03-3.01720E+00-2.43930E-13-7.61620E-13
 -1      1286 2.05182E+01 3.94741E+00-2.54441E-02-3.04475E+00-3.97675E-13-4.47573E-13
 -1      1287 1.92010E+01 5.08841E+00-3.55021E-03-2.03869E+00-1.32394E-13-1.07534E-12
 -1      1288 1.93463E+01 5.14241E+00 1.12963E-02-2.33226E+00-1.67300E-13-1.00888E-12
 -1      1289 1.97647E+01 4.36730E+00-2.38132E-02-2.45629E+00-3.14830E-13-7.80362E-13
 -1      1290 1.90292E+01 5.13967E+00 3.10101E-03-1.53451E+00-6.88937E-14-1.12891E-12
 -1      1291 1.91057E+01 5.16926E+00 1.30445E-02-1.78328E+00-9.29846E-14-1.11106E-12
 -1      1292 1.94102E+01 4.56441E+00-1.92132E-02-1.89738E+00-1.88999E-13-9.14810E-13
 -1      1293 1.89358E+01 5.17288E+00 6.25526E-03-1.09134E+00-1.80637E-14-1.12253E-12
 -1      1294 1.89786E+01 5.18936E+00 1.29832E-02-1.31016E+00-3.50284E-14-1.12785E-12
 -1      1295 1.92245E+01 4.67714E+00-1.56983E-02-1.41387E+00-9.45598E-14-9.51031E-13
 -1      1296 1.88825E+01 5.19536E+00 7.75192E-03-6.75771E-01 2.76192E-14-1.08309E-12
 -1      1297 1.89066E+01 5.20456E+00 1.20665E-02-8.81843E-01 1.19679E-14-1.10737E-12
 -1      1298 1.91198E+01 4.74838E+00-1.35475E-02-9.79053E-01-1.25512E-14-9.48745E-13
 -1      1299 1.88571E+01 5.20902E+00 8.83923E-03-2.81105E-01 7.83215E-14-1.03299E-12
 -1      1300 1.88677E+01 5.21306E+00 1.08818E-02-4.78108E-01 6.12132E-14-1.05907E-12
 -1      1301 1.90611E+01 4.79168E+00-1.24912E-02-5.72425E-01 6.66576E-14-9.00280E-13
 -1      1302 1.88533E+01 5.21470E+00 9.86561E-03 1.05227E-01 1.16336E-13-9.79572E-13
 -1      1303 1.88528E+01 5.21452E+00 9.79056E-03-8.89930E-02 1.02645E-13-1.01453E-12
 -1      1304 1.90352E+01 4.81197E+00-1.20423E-02-1.83571E-01 1.47536E-13-8.62345E-13
 -1      1305 1.88701E+01 5.21289E+00 1.09790E-02 4.94953E-01 1.52454E-13-9.03479E-13
 -1      1306 1.88585E+01 5.20848E+00 8.77470E-03 2.97512E-01 1.38793E-13-9.50399E-13
 -1      1307 1.90363E+01 4.81141E+00-1.20585E-02 1.99782E-01 2.05466E-13-8.05255E-13
 -1      1308 1.89111E+01 5.20368E+00 1.21374E-02 9.00243E-01 1.97559E-13-8.17513E-13
 -1      1309 1.88860E+01 5.19427E+00 7.68701E-03 6.93167E-01 1.84436E-13-8.70116E-13
 -1      1310 1.90646E+01 4.78981E+00-1.25537E-02 5.89349E-01 2.75147E-13-7.40259E-13
 -1      1311 1.89845E+01 5.18795E+00 1.31855E-02 1.32736E+00 2.32805E-13-6.88193E-13
 -1      1312 1.89406E+01 5.17099E+00 6.10276E-03 1.10709E+00 2.19159E-13-7.64675E-13
 -1      1313 1.91254E+01 4.74517E+00-1.35862E-02 9.93898E-01 3.39891E-13-6.43971E-13
 -1      1314 1.91158E+01 5.16534E+00 1.33530E-02 1.80917E+00 2.86536E-13-4.87339E-13
 -1      1315 1.90374E+01 5.13534E+00 2.99556E-03 1.55738E+00 2.61478E-13-6.03552E-13
 -1      1316 1.92331E+01 4.67088E+00-1.57527E-02 1.43117E+00 4.01967E-13-5.03743E-13
 -1      1317 1.93572E+01 5.13647E+00 1.09008E-02 2.36675E+00 3.29486E-13-1.90688E-13
 -1      1318 1.92115E+01 5.08074E+00-4.22890E-03 2.06897E+00 3.02935E-13-3.72088E-13
 -1      1319 1.94244E+01 4.55125E+00-1.95914E-02 1.92433E+00 4.76702E-13-2.96835E-13
 -1      1320 1.98524E+01 5.09537E+00 6.89236E-03 3.05578E+00 3.41407E-13 3.21083E-13
 -1      1321 1.95499E+01 4.98335E+00-1.99980E-02 2.66700E+00 3.15269E-13 1.63064E-14
 -1      1322 1.97853E+01 4.34760E+00-2.41373E-02 2.49487E+00 5.10321E-13 3.53814E-14
 -1      1323 2.10699E+01 4.89523E+00 8.75838E-03 4.02911E+00 2.56767E-13 1.21665E-12
 -1      1324 2.03182E+01 4.72700E+00-4.70612E-02 3.39066E+00 2.64608E-13 6.75945E-13
 -1      1325 2.05559E+01 3.91049E+00-2.19378E-02 3.14827E+00 4.82878E-13 5.91624E-13
 -1      1326 2.71103E+01 3.19275E+00 9.22245E-01 4.56049E+00 9.26481E-14 2.75824E-12
 -1      1327 2.19706E+01 3.51400E+00-1.80799E-01 3.86385E+00 1.10745E-13 1.71230E-12
 -1      1328 2.20740E+01 2.55524E+00-3.23488E-02 3.43107E+00 3.93628E-13 1.39805E-12
 -1      1329 2.13626E+01 3.58571E-01-7.61606E-01 1.17403E+00 1.86962E-13 2.71622E-12
 -1      1330 2.19441E+01 1.30846E-01-3.99988E-01-1.27334E+00-2.82718E-13 1.07825E-12
 -1      1331 2.06347E+01 3.05809E-01-1.64043E-01-7.95575E-01-2.40759E-13 7.52155E-13
 -1      1332 2.00467E+01 1.53569E-01-7.31386E-02-3.92025E-01-2.01603E-13 6.36193E-13
 -1      1333 1.95893E+01 9.16513E-02-1.45817E-02-3.19863E-01-1.92804E-13 3.36411E-13
 -1      1334 2.09459E+01 3.68390E-01-1.04058E-01-1.25361E+00-4.31752E-13 2.23342E-13
 -1      1335 1.92442E+01 6.52873E-02 3.24184E-03-1.23819E-01-1.56162E-13 2.35346E-13
 -1      1336 1.91040E+01 4.24229E-02 1.34463E-02-1.05545E-01-1.36996E-13 2.03206E-14
 -1      1337 1.99171E+01 1.34448E-01-3.54264E-02-4.82165E-01-3.37758E-13 5.19237E-14
 -1      1338 1.89592E+01 3.31088E-02 1.33657E-02-1.29393E-02-1.12561E-13-7.08739E-14
 -1      1339 1.89584E+01 2.13921E-02 1.12700E-02-2.63338E-03-1.03577E-13-2.16355E-13
 -1      1340 1.94673E+01 5.76653E-02-8.90100E-03-1.42788E-01-2.50838E-13-1.18305E-13
 -1      1341 1.89232E+01 1.84072E-02 8.88611E-03 4.59943E-02-7.20309E-14-2.58467E-13
 -1      1342 1.89915E+01 1.18559E-02 6.68659E-03 5.19415E-02-5.37266E-14-3.56498E-13
 -1      1343 1.92941E+01 2.78198E-02-4.21093E-03 2.58537E-02-1.63423E-13-2.50034E-13
 -1      1344 1.90198E+01 1.11192E-02 4.79649E-03 7.99334E-02-6.39348E-14-3.95210E-13
 -1      1345 1.91262E+01 7.17196E-03 3.95477E-03 8.36004E-02-5.82752E-14-4.79292E-13
 -1      1346 1.92856E+01 1.50092E-02-3.13882E-03 1.18780E-01-1.21588E-13-3.18575E-13
 -1      1347 1.91937E+01 7.45065E-03 2.55586E-03 1.01328E-01-5.08584E-14-5.31040E-13
 -1      1348 1.93236E+01 4.97550E-03 2.54926E-03 1.03902E-01-6.24113E-14-6.15171E-13
 -1      1349 1.93770E+01 9.13302E-03-2.50783E-03 1.74593E-01-1.16651E-13-4.13348E-13
 -1      1350 1.94175E+01 5.79169E-03 1.38999E-03 1.16804E-01-5.51130E-14-6.44293E-13
 -1      1351 1.95645E+01 4.17559E-03 1.77394E-03 1.18997E-01-5.97105E-14-7.31793E-13
 -1      1352 1.95328E+01 6.76826E-03-2.04120E-03 2.12133E-01-1.28933E-13-4.51736E-13
 -1      1353 1.96782E+01 5.29297E-03 7.05822E-04 1.30113E-01-6.67093E-14-7.68071E-13
 -1      1354 1.98402E+01 4.12662E-03 1.26007E-03 1.32349E-01-6.16880E-14-8.46379E-13
 -1      1355 1.97343E+01 6.30753E-03-1.78798E-03 2.41576E-01-1.17511E-13-5.33239E-13
 -1      1356 1.99707E+01 5.37758E-03 2.17576E-04 1.43254E-01-4.87242E-14-8.59213E-13
 -1      1357 2.01479E+01 4.31628E-03 8.43789E-04 1.45721E-01-2.69083E-14-9.06165E-13
 -1      1358 1.99722E+01 6.79163E-03-1.71343E-03 2.68510E-01-9.61829E-14-5.68965E-13
 -1      1359 2.02936E+01 5.52299E-03-1.94260E-04 1.56777E-01-3.43729E-14-9.37144E-13
 -1      1360 2.04867E+01 4.22137E-03 4.50162E-04 1.59416E-01-3.58057E-14-9.75017E-13
 -1      1361 2.02419E+01 7.39956E-03-1.71402E-03 2.95323E-01-6.06557E-14-5.97525E-13
 -1      1362 2.06461E+01 5.14794E-03-5.67894E-04 1.69727E-01-2.48112E-14-9.93556E-13
 -1      1363 2.08541E+01 3.23188E-03 5.04802E-05 1.72173E-01-1.08770E-14-1.02540E-12
 -1      1364 2.05408E+01 7.22523E-03-1.64751E-03 3.21455E-01-5.16712E-14-7.07566E-13
 -1      1365 2.10243E+01 3.54650E-03-8.82217E-04 1.79373E-01 4.28202E-14-1.03955E-12
 -1      1366 2.12424E+01 6.20465E-04-3.37782E-04 1.80879E-01 2.68293E-14-9.46559E-13
 -1      1367 2.08645E+01 5.15617E-03-1.33603E-03 3.43085E-01 1.57747E-14-7.60839E-13
 -1      1368 2.14171E+01-1.22929E-04-1.04847E-03 1.80879E-01 3.84664E-15-9.18212E-13
 -1      1369 2.16341E+01-4.41088E-03-6.33442E-04 1.80227E-01-3.36470E-14-9.14819E-13
 -1      1370 2.12044E+01-1.59470E-04-5.61439E-04 3.52573E-01 6.52850E-15-7.09186E-13
 -1      1371 2.18019E+01-6.73789E-03-8.98138E-04 1.67143E-01-5.27024E-14-8.76880E-13
 -1      1372 2.19974E+01-1.25321E-02-6.77862E-04 1.62628E-01-6.15773E-14-9.18998E-13
 -1      1373 2.15438E+01-1.01743E-02 9.24446E-04 3.38056E-01-3.25086E-14-6.60499E-13
 -1      1374 2.21405E+01-1.68985E-02-1.99564E-04 1.29293E-01-6.41943E-14-9.07637E-13
 -1      1375 2.22829E+01-2.38291E-02-2.58771E-04 1.18893E-01-5.97545E-14-9.83392E-13
 -1      1376 2.18547E+01-2.59676E-02 3.34626E-03 2.83894E-01-8.35261E-14-5.56618E-13
 -1      1377 2.23766E+01-3.02828E-02 1.24841E-03 5.85745E-02-3.38462E-14-1.00009E-12
 -1      1378 2.24243E+01-3.70245E-02 7.85632E-04 4.05298E-02-3.47309E-14-1.02146E-12
 -1      1379 2.20959E+01-4.72364E-02 6.76883E-03 1.73216E-01-7.29291E-14-6.28963E-13
 -1      1380 2.24393E+01-4.46565E-02 3.41116E-03-4.94696E-02-9.83727E-14-1.08392E-12
 -1      1381 2.23470E+01-4.85381E-02 2.35207E-03-7.54524E-02-9.16480E-14-1.20312E-12
 -1      1382 2.22147E+01-7.07222E-02 1.08478E-02-5.88957E-03-1.17604E-13-6.73927E-13
 -1      1383 2.22559E+01-5.49436E-02 5.72649E-03-1.88306E-01-5.21545E-15-1.24843E-12
 -1      1384 2.19902E+01-5.20970E-02 3.82593E-03-2.19295E-01-3.89393E-14-1.26172E-12
 -1      1385 2.21542E+01-8.86518E-02 1.45063E-02-2.49541E-01-1.07212E-13-6.64655E-13
 -1      1386 2.17793E+01-5.34535E-02 6.97133E-03-3.33207E-01-2.79087E-14-1.24228E-12
 -1      1387 2.13413E+01-4.02143E-02 4.03201E-03-3.61539E-01-6.46757E-14-1.26952E-12
 -1      1388 2.18711E+01-8.89190E-02 1.57517E-02-5.24584E-01-5.74714E-14-7.13627E-13
 -1      1389 2.10263E+01-3.28903E-02 5.62148E-03-4.39284E-01-2.31421E-14-1.19311E-12
 -1      1390 2.04742E+01-8.69749E-03 1.77534E-03-4.53193E-01 8.33396E-14-1.09761E-12
 -1      1391 2.13635E+01-5.93826E-02 1.21224E-02-7.60435E-01 5.81566E-15-7.24135E-13
 -1      1392 2.01120E+01 7.50699E-03 1.04730E-03-4.52934E-01 6.81564E-14-1.11974E-12
 -1      1393 1.95660E+01 3.71479E-02-2.99335E-03-4.41267E-01-1.24857E-14-1.07382E-12
 -1      1394 2.06992E+01 2.80158E-03 2.20208E-03-8.60119E-01 8.05940E-14-6.69541E-13
 -1      1395 1.92507E+01 5.62961E-02-5.27473E-03-3.39539E-01-4.33186E-14-1.12091E-12
 -1      1396 1.88637E+01 8.01367E-02-8.30148E-03-2.99679E-01-1.95243E-14-1.17121E-12
 -1      1397 2.00271E+01 8.22788E-02-1.20237E-02-7.40949E-01-6.35039E-14-6.51482E-13
 -1      1398 1.86957E+01 9.20038E-02-1.00727E-02-1.14078E-01 2.26832E-14-1.17585E-12
 -1      1399 1.85924E+01 9.87983E-02-1.09070E-02-5.72141E-02-7.33007E-15-1.14310E-12
 -1      1400 1.95439E+01 1.47093E-01-2.44617E-02-3.92546E-01-1.40825E-14-6.38768E-13
 -1      1401 1.86317E+01 9.60604E-02-1.04853E-02 1.52548E-01-3.44265E-14-1.14743E-12
 -1      1402 1.88477E+01 8.23243E-02-8.76314E-03 2.05506E-01 5.71505E-15-1.09407E-12
 -1      1403 1.94147E+01 1.65584E-01-2.81643E-02 9.05973E-02-4.81525E-14-7.14687E-13
 -1      1404 1.90806E+01 6.67330E-02-6.55198E-03 3.66563E-01 8.22996E-14-1.07778E-12
 -1      1405 1.95439E+01 3.94250E-02-2.99358E-03 3.97019E-01 7.04749E-14-1.03320E-12
 -1      1406 1.96874E+01 1.28161E-01-2.07860E-02 5.43062E-01 7.65820E-14-5.82743E-13
 -1      1407 1.98910E+01 2.03201E-02-1.07216E-03 4.62745E-01 3.89864E-14-1.00668E-12
 -1      1408 2.04594E+01-8.36091E-03 3.05096E-03 4.64545E-01 7.75754E-14-9.32435E-13
 -1      1409 2.02658E+01 5.42055E-02-6.84179E-03 8.16257E-01 1.39513E-13-5.71276E-13
 -1      1410 2.08178E+01-2.16624E-02 2.92832E-03 4.33716E-01 1.23308E-13-8.17318E-13
 -1      1411 2.13448E+01-4.21327E-02 6.52171E-03 4.13453E-01 8.91262E-14-6.91898E-13
 -1      1412 2.09633E+01-2.19433E-02 6.29735E-03 8.53132E-01 1.54760E-13-5.98450E-13
 -1      1413 2.16323E+01-4.59713E-02 4.21743E-03 3.19224E-01-9.04936E-14-6.67737E-13
 -1      1414 2.20190E+01-5.51106E-02 6.82015E-03 2.89115E-01-8.71143E-14-7.66668E-13
 -1      1415 2.15938E+01-7.28568E-02 1.39472E-02 6.96248E-01 2.47979E-15-4.76991E-13
 -1      1416 2.21944E+01-5.13457E-02 3.40375E-03 1.73848E-01-1.38946E-13-8.13176E-13
 -1      1417 2.24056E+01-5.12253E-02 5.02383E-03 1.44504E-01-1.19408E-13-9.51478E-13
 -1      1418 2.20374E+01-9.03781E-02 1.55232E-02 4.39952E-01-1.83346E-13-4.58780E-13
 -1      1419 2.24661E+01-4.38502E-02 1.77477E-03 4.05035E-02 1.45725E-14-9.12144E-13
 -1      1420 2.25166E+01-3.84772E-02 2.66002E-03 1.78230E-02 1.48071E-13-8.04562E-13
 -1      1421 2.22547E+01-8.18920E-02 1.30658E-02 1.74984E-01-6.42958E-14-3.78946E-13
 -1      1422 2.24830E+01-3.08915E-02 3.39754E-04-5.88678E-02 1.96042E-13-8.15042E-13
 -1      1423 2.24138E+01-2.37933E-02 7.28053E-04-7.33110E-02 7.25093E-14-6.26752E-13
 -1      1424 2.22674E+01-6.03606E-02 9.00551E-03-4.13824E-02 2.32480E-13-4.64473E-13
 -1      1425 2.23158E+01-1.78156E-02-4.96659E-04-1.19921E-01-9.56327E-14-5.73684E-13
 -1      1426 2.21729E+01-1.11659E-02-4.37997E-04-1.27110E-01-4.40247E-14-6.97727E-13
 -1      1427 2.21271E+01-3.65771E-02 5.01162E-03-1.87816E-01 4.71810E-14-5.57721E-13
 -1      1428 2.20394E+01-7.28427E-03-7.63298E-04-1.48280E-01 1.87064E-14-6.91326E-13
 -1      1429 2.18622E+01-2.03146E-03-9.24029E-04-1.50154E-01 4.35883E-14-6.30431E-13
 -1      1430 2.18921E+01-1.65743E-02 1.86303E-03-2.67474E-01-5.84623E-14-4.77203E-13
 -1      1431 2.17160E+01 1.37212E-06-6.64417E-04-1.53065E-01-2.33230E-14-6.99550E-13
 -1      1432 2.15332E+01 3.68595E-03-9.65777E-04-1.51572E-01-2.57236E-14-7.76228E-13
 -1      1433 2.16126E+01-2.36960E-03-2.72507E-04-2.94974E-01-1.04877E-14-5.46901E-13
 -1      1434 2.13903E+01 4.37542E-03-4.06972E-04-1.43113E-01 2.33448E-14-8.19358E-13
 -1      1435 2.12195E+01 6.69604E-03-7.85912E-04-1.39806E-01 2.86665E-14-8.01244E-13
 -1      1436 2.13261E+01 6.33955E-03-1.52861E-03-2.87305E-01-4.55171E-14-7.46130E-13
 -1      1437 2.10896E+01 6.54194E-03-1.31482E-04-1.25406E-01-1.61811E-14-9.24295E-13
 -1      1438 2.09402E+01 7.82339E-03-5.36772E-04-1.21369E-01-4.66307E-14-8.51117E-13
 -1      1439 2.10569E+01 1.07832E-02-2.13298E-03-2.59196E-01-3.50730E-14-8.33455E-13
 -1      1440 2.08279E+01 7.21689E-03 9.16678E-05-1.04800E-01-5.64368E-14-6.59644E-13
 -1      1441 2.07034E+01 7.77564E-03-3.01422E-04-1.00713E-01 1.12116E-14-7.83459E-13
 -1      1442 2.08186E+01 1.23155E-02-2.30397E-03-2.21593E-01 9.58977E-16-7.02436E-13
 -1      1443 2.06102E+01 6.98409E-03 2.41152E-04-8.43312E-02 6.46561E-14-7.09178E-13
 -1      1444 2.05104E+01 7.07871E-03-1.14317E-04-8.05728E-02-2.75793E-14-7.43021E-13
 -1      1445 2.06166E+01 1.20687E-02-2.21380E-03-1.81767E-01 5.15726E-14-5.54895E-13
 -1      1446 2.04354E+01 6.26637E-03 3.22042E-04-6.56825E-02-3.97864E-14-6.76328E-13
 -1      1447 2.03580E+01 6.08863E-03 1.77943E-05-6.24293E-02-6.12033E-14-7.21306E-13
 -1      1448 2.04515E+01 1.08680E-02-1.98473E-03-1.44051E-01-3.28982E-14-3.62695E-13
 -1      1449 2.02996E+01 5.34562E-03 3.49692E-04-4.96170E-02-1.31725E-13-8.52264E-13
 -1      1450 2.02414E+01 5.02861E-03 1.01033E-04-4.69183E-02-2.50786E-14-9.12418E-13
 -1      1451 2.03207E+01 9.26220E-03-1.69747E-03-1.10672E-01-1.97586E-13-5.11244E-13
 -1      1452 2.01971E+01 4.39674E-03 3.40626E-04-3.63188E-02 8.38054E-14-8.75871E-13
 -1      1453 2.01548E+01 4.02779E-03 1.45498E-04-3.41504E-02 7.83259E-14-8.17555E-13
 -1      1454 2.02200E+01 7.58896E-03-1.40202E-03-8.24758E-02 5.28281E-14-4.10696E-13
 -1      1455 2.01222E+01 3.52014E-03 3.08106E-04-2.56350E-02 7.67552E-14-6.31248E-13
 -1      1456 2.00926E+01 3.15303E-03 1.60175E-04-2.39334E-02 1.61393E-13-5.47725E-13
 -1      1457 2.01446E+01 6.03995E-03-1.12718E-03-5.94582E-02 2.18833E-13-3.87279E-13
 -1      1458 2.00695E+01 2.76717E-03 2.59907E-04-1.72362E-02 2.20645E-13-5.49935E-13
 -1      1459 2.00498E+01 2.43151E-03 1.50232E-04-1.59207E-02 1.37216E-13-3.64911E-13
 -1      1460 2.00899E+01 4.71216E-03-8.88203E-04-4.11411E-02 2.60503E-13-2.20584E-13
 -1      1461 2.00342E+01 2.15760E-03 1.97768E-04-1.07206E-02 6.66024E-14-2.83890E-13
 -1      1462 2.00222E+01 1.86450E-03 1.17618E-04-9.70584E-03 2.16605E-14-2.60414E-13
 -1      1463 2.00517E+01 3.64368E-03-6.91895E-04-2.68192E-02 2.10712E-13-4.63330E-14
 -1      1464 2.00123E+01 1.68628E-03 1.21000E-04-5.68582E-03-4.18590E-14-2.60941E-13
 -1      1465 2.00064E+01 1.42276E-03 7.19340E-05-4.89263E-03-2.73308E-14-2.73025E-13
 -1      1466 2.00265E+01 2.83437E-03-5.36317E-04-1.57275E-02 2.50831E-14-8.82354E-14
 -1      1467 2.00009E+01 1.29366E-03 4.59013E-05-1.83381E-03 2.08341E-13-2.17463E-13
 -1      1468 1.99995E+01 1.00176E-03 5.88286E-05-1.21298E-03 2.25551E-13 9.01467E-14
 -1      1469 2.00112E+01 2.21344E-03-3.98611E-04-7.21141E-03 1.15065E-13-2.54587E-13
 -1      1470 1.99969E+01 9.88551E-04 8.97047E-05 8.67000E-04 7.72027E-14 1.97447E-13
 -1      1471 1.99987E+01 3.85822E-04 2.84042E-04 1.34356E-03-3.42579E-14 2.43812E-13
 -1      1472 2.00032E+01 1.52053E-03-2.35533E-04-1.04123E-03 2.77854E-13-2.38158E-13
 -1      1473 1.99986E+01-8.37797E-04 6.82215E-04 1.19261E-03-2.76791E-13 2.70342E-13
 -1      1474 2.00001E+01-9.44708E-04 1.28056E-04 1.96128E-03-2.07482E-13 2.48061E-14
 -1      1475 2.02146E+01 7.53954E-02-1.51483E-01 4.75678E-01 1.90660E-13 2.29109E-12
 -1      1476 2.14717E+01 2.15838E-01-2.28981E-01 7.11927E-01 1.63036E-13 2.56144E-12
 -1      1477 2.16841E+01 8.78595E-01-8.55442E-02 2.04628E+00 3.11723E-13 1.76674E-12
 -1      1478 1.93087E+01 3.27411E-02-2.11472E-02 1.77560E-01 1.44272E-13 1.90046E-12
 -1      1479 1.97179E+01 1.13867E-01-6.23123E-02 2.29664E-01 1.43330E-13 2.13066E-12
 -1      1480 2.02794E+01 1.87362E-01-5.51852E-02 7.69717E-01 2.88825E-13 1.47812E-12
 -1      1481 1.89537E+01 1.58833E-02 5.63151E-03 4.28196E-02 1.16249E-13 1.61458E-12
 -1      1482 1.90789E+01 5.25464E-02 1.21153E-03 6.96588E-02 9.79451E-14 1.77631E-12
 -1      1483 1.95584E+01 7.26740E-02-1.23417E-02 2.80134E-01 2.23509E-13 1.22658E-12
 -1      1484 1.88792E+01 8.36558E-03 6.80766E-03-2.38686E-02 8.18972E-14 1.38902E-12
 -1      1485 1.88758E+01 2.75053E-02 1.12781E-02-8.47713E-03 8.72479E-14 1.52374E-12
 -1      1486 1.92539E+01 3.28763E-02-2.82958E-03 5.85000E-02 1.76350E-13 1.01528E-12
 -1      1487 1.89559E+01 5.01339E-03 4.49678E-03-6.05526E-02 4.36630E-14 1.24380E-12
 -1      1488 1.88864E+01 1.63271E-02 8.73451E-03-5.08707E-02 4.01001E-14 1.30815E-12
 -1      1489 1.91795E+01 1.61978E-02-2.19217E-03-5.65982E-02 1.13195E-13 8.68774E-13
 -1      1490 1.91218E+01 3.55158E-03 2.87372E-03-8.31333E-02 4.83715E-14 1.11512E-12
 -1      1491 1.90144E+01 1.08935E-02 5.63963E-03-7.63706E-02 4.55087E-14 1.17579E-12
 -1      1492 1.92392E+01 8.76794E-03-2.48078E-03-1.22903E-01 8.63077E-14 7.31042E-13
 -1      1493 1.93471E+01 3.17807E-03 1.92003E-03-9.96236E-02 5.26909E-14 1.00720E-12
 -1      1494 1.92144E+01 8.45581E-03 3.77948E-03-9.41749E-02 4.10019E-14 1.06884E-12
 -1      1495 1.93833E+01 5.70899E-03-2.59446E-03-1.66130E-01 8.31501E-14 6.30948E-13
 -1      1496 1.96201E+01 3.56539E-03 1.22893E-03-1.14913E-01 3.71302E-14 9.06970E-13
 -1      1497 1.94661E+01 7.90497E-03 2.76512E-03-1.09658E-01 4.37389E-14 9.64448E-13
 -1      1498 1.95871E+01 5.18096E-03-2.71247E-03-2.00101E-01 8.66542E-14 5.38739E-13
 -1      1499 1.99405E+01 4.55067E-03 5.81418E-04-1.32464E-01 4.76902E-14 8.08199E-13
 -1      1500 1.97637E+01 8.74601E-03 2.17750E-03-1.26506E-01 3.30149E-14 8.71237E-13
 -1      1501 1.98412E+01 6.38337E-03-3.02260E-03-2.33553E-01 7.51957E-14 4.58194E-13
 -1      1502 2.03166E+01 6.02251E-03-1.16245E-04-1.54954E-01 4.21893E-14 7.36590E-13
 -1      1503 2.01112E+01 1.07196E-02 1.79325E-03-1.47513E-01 3.84911E-14 7.69079E-13
 -1      1504 2.01459E+01 8.90042E-03-3.60928E-03-2.72744E-01 8.00835E-14 3.83832E-13
 -1      1505 2.07627E+01 7.84880E-03-9.09257E-04-1.84468E-01 4.10713E-14 6.38965E-13
 -1      1506 2.05198E+01 1.36264E-02 1.49142E-03-1.74840E-01 2.87108E-14 7.03019E-13
 -1      1507 2.05082E+01 1.24382E-02-4.50346E-03-3.22422E-01 5.39438E-14 4.26485E-13
 -1      1508 2.12975E+01 9.78730E-03-1.81005E-03-2.22301E-01-3.27605E-14 6.78822E-13
 -1      1509 2.10057E+01 1.71777E-02 1.17984E-03-2.09921E-01-1.84030E-14 6.17026E-13
 -1      1510 2.09399E+01 1.66379E-02-5.69880E-03-3.85930E-01 6.24240E-15 3.65831E-13
 -1      1511 2.19402E+01 1.13409E-02-2.75264E-03-2.68287E-01 6.88447E-15 6.98360E-13
 -1      1512 2.15877E+01 2.07848E-02 7.70488E-04-2.52919E-01-3.92178E-15 6.86623E-13
 -1      1513 2.14549E+01 2.08374E-02-7.11374E-03-4.64490E-01-5.22759E-15 3.56327E-13
 -1      1514 2.27052E+01 1.15259E-02-3.46270E-03-3.19331E-01 1.61060E-14 6.48318E-13
 -1      1515 2.22829E+01 2.32126E-02 2.04302E-04-3.01520E-01 2.70420E-14 6.97855E-13
 -1      1516 2.20658E+01 2.36854E-02-8.48754E-03-5.55350E-01 2.30376E-14 3.55643E-13
 -1      1517 2.35909E+01 8.55901E-03-3.20507E-03-3.66781E-01-7.43927E-14 6.86180E-13
 -1      1518 2.30991E+01 2.20608E-02-4.47445E-04-3.48718E-01 8.03177E-16 6.52785E-13
 -1      1519 2.27771E+01 2.25369E-02-9.18424E-03-6.48232E-01 2.16658E-14 4.18374E-13
 -1      1520 2.45606E+01-3.78868E-04-4.44887E-04-3.92476E-01-3.74318E-14 7.50459E-13
 -1      1521 2.40206E+01 1.31877E-02-7.65587E-04-3.79395E-01-7.01040E-14 6.76743E-13
 -1      1522 2.35753E+01 1.26934E-02-7.90982E-03-7.19592E-01-7.83233E-14 4.43472E-13
 -1      1523 2.55152E+01-1.87348E-02 7.21897E-03-3.64553E-01 7.41989E-14 7.00291E-13
 -1      1524 2.49866E+01-9.31071E-03 2.98622E-04-3.66433E-01 6.43886E-14 7.60059E-13
 -1      1525 2.44132E+01-1.29260E-02-2.50737E-03-7.25424E-01 5.19975E-14 3.79467E-13
 -1      1526 2.62633E+01-4.82287E-02 2.17986E-02-2.37727E-01-2.66549E-14 5.92611E-13
 -1      1527 2.58633E+01-5.09150E-02 4.38141E-03-2.69814E-01-2.68882E-15 6.17364E-13
 -1      1528 2.51901E+01-6.19360E-02 9.53183E-03-5.97277E-01 1.00220E-13 4.81622E-13
 -1      1529 2.65129E+01-8.29241E-02 4.09053E-02 3.08023E-02-2.49280E-15 6.60742E-13
 -1      1530 2.64219E+01-1.09570E-01 1.24321E-02-4.74735E-02-1.59785E-14 6.52007E-13
 -1      1531 2.57371E+01-1.34936E-01 2.86931E-02-2.54690E-01-5.16618E-14 4.70420E-13
 -1      1532 2.59401E+01-1.01052E-01 5.18117E-02 4.34916E-01-1.09040E-13 7.71556E-13
 -1      1533 2.63566E+01-1.63057E-01 2.13988E-02 3.08968E-01-5.95704E-14 7.24108E-13
 -1      1534 2.58278E+01-2.09394E-01 4.87287E-02 3.43161E-01-9.28285E-14 5.90071E-13
 -1      1535 2.43915E+01-6.74014E-02 3.16939E-02 8.48462E-01 6.75588E-15 9.24233E-13
 -1      1536 2.54014E+01-1.62029E-01 2.11626E-02 7.12022E-01-3.87156E-14 8.69846E-13
 -1      1537 2.52574E+01-2.24479E-01 5.32358E-02 1.09334E+00-1.19864E-13 7.33760E-13
 -1      1538 2.21937E+01 3.32037E-02-3.16799E-02 1.00635E+00 9.93641E-14 8.56815E-13
 -1      1539 2.35777E+01-5.86025E-02-1.23326E-03 9.42023E-01 6.75282E-14 9.83214E-13
 -1      1540 2.40227E+01-9.85370E-02 2.61699E-02 1.65605E+00 6.22410E-14 8.60555E-13
 -1      1541 2.02762E+01 1.48183E-01-1.09296E-01 6.69267E-01 6.45560E-14 6.30385E-13
 -1      1542 2.14493E+01 1.23544E-01-4.48853E-02 7.51038E-01 5.70759E-14 6.75696E-13
 -1      1543 2.25232E+01 1.68450E-01-3.01769E-02 1.55798E+00 1.61763E-13 6.39294E-13
 -1      1544 1.97288E+01 1.78684E-01-1.30844E-01-7.78522E-02 6.02955E-14 4.82094E-13
 -1      1545 2.00357E+01 2.59313E-01-7.79909E-02 1.24730E-01 2.51535E-15 4.80296E-13
 -1      1546 2.15230E+01 4.18065E-01-7.48025E-02 6.12593E-01 7.27127E-14 2.15411E-13
 -1      1547 2.09101E+01 9.53825E-02-7.03247E-02-7.77578E-01-8.82176E-14 4.67834E-13
 -1      1548 2.01577E+01 2.34954E-01-6.50623E-02-5.82917E-01 6.75397E-14 4.66564E-13
 -1      1549 2.16414E+01 4.23276E-01-7.28614E-02-7.09865E-01 2.66592E-14 1.50810E-13
 -1      1550 2.31011E+01-2.33272E-02 1.68171E-02-1.01758E+00-2.94374E-14 5.43982E-13
 -1      1551 2.17372E+01 8.39846E-02-1.62014E-02-9.40303E-01-1.02753E-13 4.38621E-13
 -1      1552 2.27928E+01 1.66474E-01-3.86602E-02-1.59739E+00-5.94472E-14 2.42230E-13
 -1      1553 2.51622E+01-9.08563E-02 6.79233E-02-7.85719E-01 9.40064E-14 4.22079E-13
 -1      1554 2.38762E+01-6.37553E-02 2.73836E-02-8.26995E-01 1.24825E-13 5.71321E-13
 -1      1555 2.42838E+01-1.27508E-01-5.23411E-03-1.63573E+00 8.54143E-14 2.36117E-13
 -1      1556 2.63634E+01-9.32804E-02 6.89168E-02-3.54054E-01 2.02841E-14 2.65066E-13
 -1      1557 2.55978E+01-1.27302E-01 4.19988E-02-4.46680E-01 6.46184E-15 3.40367E-13
 -1      1558 2.54122E+01-2.65176E-01 1.21654E-02-1.04936E+00 9.85600E-14 2.42653E-13
 -1      1559 2.66015E+01-6.31030E-02 4.37825E-02 2.93496E-02 1.43532E-13-1.09075E-14
 -1      1560 2.64204E+01-1.16785E-01 3.25476E-02-5.59769E-02 1.39690E-13 2.68289E-13
 -1      1561 2.58681E+01-2.42630E-01 1.54318E-02-3.08875E-01 1.95004E-13 7.30423E-14
 -1      1562 2.61371E+01-3.00799E-02 1.70690E-02 2.66587E-01-4.44922E-14-1.04933E-13
 -1      1563 2.63806E+01-7.57326E-02 1.54919E-02 2.11584E-01-7.37257E-15-1.00207E-13
 -1      1564 2.57030E+01-1.51991E-01 1.16260E-02 2.67234E-01 7.04714E-14-1.47295E-13
 -1      1565 2.53028E+01-6.78631E-03-1.51396E-04 3.67082E-01-9.21901E-14 2.24543E-14
 -1      1566 2.57669E+01-3.55485E-02 2.08355E-03 3.41126E-01-4.92219E-14-3.39138E-14
 -1      1567 2.51285E+01-6.45151E-02 6.67416E-03 5.89765E-01-7.80574E-14-1.04521E-13
 -1      1568 2.43555E+01 5.91485E-03-7.91820E-03 3.77540E-01-1.30003E-14 1.70808E-13
 -1      1569 2.48845E+01-7.83460E-03-4.60778E-03 3.71048E-01-4.38841E-14 9.55659E-14
 -1      1570 2.43620E+01-6.71670E-03 3.04396E-03 7.03075E-01-9.53994E-14-1.12799E-13
 -1      1571 2.34489E+01 1.11909E-02-9.80130E-03 3.41327E-01 1.25345E-13-7.07906E-14
 -1      1572 2.39519E+01 7.48814E-03-6.35192E-03 3.45331E-01 1.28480E-13 1.30652E-13
 -1      1573 2.35612E+01 2.29086E-02 9.37434E-04 6.86463E-01 1.46764E-13-1.80377E-13
 -1      1574 2.26561E+01 1.22598E-02-8.94639E-03 2.87295E-01 1.26513E-14-1.73276E-13
 -1      1575 2.30917E+01 1.41389E-02-5.64499E-03 2.95785E-01 2.05365E-14-6.98261E-14
 -1      1576 2.28184E+01 3.38452E-02-1.26747E-04 6.06054E-01 7.34573E-14-9.67724E-14
 -1      1577 2.19993E+01 1.13262E-02-7.21292E-03 2.31321E-01 1.24384E-13-3.98824E-13
 -1      1578 2.23563E+01 1.57466E-02-4.18118E-03 2.40920E-01 1.30411E-13-1.90351E-13
 -1      1579 2.21758E+01 3.46564E-02-6.10628E-04 5.04166E-01 1.17695E-13-3.49480E-13
 -1      1580 2.14747E+01 9.64667E-03-5.45939E-03 1.80740E-01 6.37893E-14-5.45912E-13
 -1      1581 2.17568E+01 1.48338E-02-2.77329E-03 1.89809E-01 6.31728E-14-4.26124E-13
 -1      1582 2.16446E+01 3.09331E-02-8.00766E-04 4.03533E-01 1.42076E-13-2.98758E-13
 -1      1583 2.10662E+01 7.84942E-03-3.98704E-03 1.38103E-01 1.60295E-14-4.15012E-13
 -1      1584 2.12836E+01 1.28882E-02-1.68596E-03 1.45986E-01-8.57224E-14-4.64732E-13
 -1      1585 2.12192E+01 2.57491E-02-8.45351E-04 3.14330E-01-4.49085E-14-2.24278E-13
 -1      1586 2.07547E+01 6.20793E-03-2.84644E-03 1.03595E-01 6.72969E-14-5.59349E-13
 -1      1587 2.09188E+01 1.06929E-02-9.32777E-04 1.10137E-01 1.30963E-13-4.23675E-13
 -1      1588 2.08867E+01 2.05801E-02-8.16305E-04 2.39765E-01 1.34634E-13-2.89560E-13
 -1      1589 2.05212E+01 4.81532E-03-1.99753E-03 7.63880E-02-1.20389E-13-5.47960E-13
 -1      1590 2.06429E+01 8.61671E-03-4.45106E-04 8.16630E-02-5.52408E-14-6.55169E-13
 -1      1591 2.06316E+01 1.60250E-02-7.49861E-04 1.79629E-01 3.48653E-14-4.04811E-13
 -1      1592 2.03493E+01 3.68137E-03-1.37938E-03 5.53285E-02-2.27705E-13-3.41226E-13
 -1      1593 2.04380E+01 6.80609E-03-1.45435E-04 5.95010E-02-1.41325E-13-5.13486E-13
 -1      1594 2.04395E+01 1.22508E-02-6.66265E-04 1.32274E-01-1.83339E-13-2.97833E-13
 -1      1595 2.02250E+01 2.78224E-03-9.35777E-04 3.92552E-02-3.49275E-14 1.95043E-14
 -1      1596 2.02884E+01 5.29786E-03 2.89662E-05 4.25101E-02-1.59135E-13-2.43816E-13
 -1      1597 2.02972E+01 9.23301E-03-5.78092E-04 9.56225E-02-2.92270E-13-1.49882E-13
 -1      1598 2.01371E+01 2.08417E-03-6.22301E-04 2.71239E-02 3.02269E-14-1.06728E-14
 -1      1599 2.01813E+01 4.07983E-03 1.22667E-04 2.96385E-02 1.77673E-14 1.82316E-14
 -1      1600 2.01938E+01 6.87718E-03-4.93832E-04 6.76330E-02-2.74175E-14-1.41816E-13
 -1      1601 2.00768E+01 1.55380E-03-4.07143E-04 1.80434E-02 8.45300E-14-1.83778E-13
 -1      1602 2.01066E+01 3.12170E-03 1.64757E-04 1.99771E-02 1.73608E-13-4.14647E-14
 -1      1603 2.01203E+01 5.07418E-03-4.19921E-04 4.64821E-02 2.61548E-13-2.07153E-13
 -1      1604 2.00371E+01 1.16081E-03-2.70476E-04 1.12721E-02 8.22343E-14-2.54935E-13
 -1      1605 2.00563E+01 2.38889E-03 1.71837E-04 1.27643E-02-3.03261E-14-2.60682E-13
 -1      1606 2.00696E+01 3.72323E-03-3.62243E-04 3.06143E-02 7.17106E-14-2.68755E-13
 -1      1607 2.00130E+01 8.74082E-04-1.95493E-04 6.20468E-03 1.69599E-13-5.39490E-13
 -1      1608 2.00241E+01 1.84549E-03 1.51990E-04 7.37606E-03 2.92841E-13-1.91996E-13
 -1      1609 2.00362E+01 2.73772E-03-3.24565E-04 1.87374E-02 2.36520E-13-5.42018E-13
 -1      1610 2.00005E+01 6.65326E-04-1.48091E-04 2.38825E-03 4.34857E-14-7.45492E-13
 -1      1611 2.00056E+01 1.44882E-03 1.15917E-04 3.33924E-03-4.47914E-15-6.35252E-13
 -1      1612 2.00156E+01 2.03533E-03-2.97593E-04 9.83380E-03 1.19723E-13-3.19713E-13
 -1      1613 1.99965E+01 4.63824E-04-3.19003E-05-4.58749E-04-1.21721E-13-8.63427E-13
 -1      1614 1.99972E+01 1.12060E-03 9.61208E-05 3.50185E-04 5.50418E-14-7.68740E-13
 -1      1615 2.00045E+01 1.53877E-03-2.43941E-04 3.21174E-03 2.78614E-14-2.42380E-13
 -1      1616 1.99980E+01-1.75981E-06 3.93404E-04-1.90337E-03-7.51215E-14-6.10675E-13
 -1      1617 1.99958E+01 5.13289E-04 1.96297E-04-1.42678E-03-1.58542E-13-9.22179E-13
 -1      1618 2.00000E+01 6.91986E-04-9.28891E-05-1.29697E-03-1.27356E-13-3.64214E-13
 -1      1619 1.99987E+01-1.03273E-03 6.81657E-04-1.18671E-03-2.82544E-13-2.52395E-13
 -1      1620 2.00006E+01-3.41076E-03-9.33639E-05-8.87773E-04-1.64547E-13-9.16490E-14
 -1      1621 2.00003E+01-1.74996E-03 2.18341E-04-1.24079E-03-2.33901E-13 1.82573E-13
 -1      1622 2.00009E+01-1.73247E-04-1.82504E-04 1.76472E-03 2.41178E-15-9.37284E-14
 -1      1623 2.00008E+01-1.38963E-03-8.05180E-05 1.15399E-03 6.89779E-14-3.16520E-14
 -1      1624 2.00016E+01 2.40353E-03-1.73777E-04 7.67803E-04 2.87074E-14 7.24689E-14
 -1      1625 2.00006E+01 8.20749E-03-1.45668E-04 4.36541E-03-1.96181E-13-2.59405E-13
 -1      1626 2.00007E+01 3.82317E-03-1.21223E-04 3.87261E-03 1.46608E-13-1.89184E-13
 -1      1627 2.00015E+01 8.58537E-03-2.83825E-04 5.81007E-03 1.05750E-13-1.81215E-13
 -1      1628 2.00000E+01 2.02315E-02-8.28380E-05 5.91814E-03-1.43745E-14 5.29048E-14
 -1      1629 2.00003E+01 1.37574E-02-8.30288E-05 5.69985E-03-2.40767E-13 3.77323E-14
 -1      1630 2.00010E+01 1.84133E-02-1.66646E-04 9.95390E-03 5.50456E-16-1.59501E-13
 -1      1631 1.99995E+01 3.30619E-02-3.82819E-05 6.07432E-03-3.23463E-13-1.60123E-13
 -1      1632 1.99998E+01 2.62415E-02-3.84576E-05 6.15091E-03-1.37668E-13-2.31659E-13
 -1      1633 2.00001E+01 3.02148E-02-6.99169E-06 1.17950E-02-2.19084E-13-1.99029E-13
 -1      1634 1.99991E+01 4.43579E-02-6.81829E-06 4.87158E-03-2.68946E-13 3.39376E-14
 -1      1635 1.99993E+01 3.85803E-02-8.07228E-06 5.20968E-03-2.84795E-13-7.18208E-14
 -1      1636 1.99992E+01 4.19181E-02 1.55507E-04 1.09817E-02-1.62150E-13-2.21183E-13
 -1      1637 1.99988E+01 5.15080E-02 1.00336E-05 2.61997E-03-2.52611E-13-6.28465E-14
 -1      1638 1.99989E+01 4.81872E-02 8.20719E-06 3.13166E-03-3.52755E-13 2.21352E-13
 -1      1639 1.99986E+01 5.13681E-02 2.79447E-04 7.77037E-03-1.34943E-13 1.10456E-13
 -1      1640 1.99987E+01 5.30716E-02 1.57151E-05-1.69548E-04-6.46096E-14 2.02862E-13
 -1      1641 1.99988E+01 5.29167E-02 1.32136E-05 4.03282E-04-3.26397E-13 7.71739E-14
 -1      1642 1.99982E+01 5.66487E-02 3.45673E-04 2.92696E-03-6.06082E-14-2.42179E-14
 -1      1643 1.99989E+01 4.87760E-02 1.09275E-05-2.90478E-03-3.31986E-13-2.15844E-13
 -1      1644 1.99988E+01 5.17990E-02 8.54409E-06-2.39128E-03-1.50025E-13 2.05642E-13
 -1      1645 1.99982E+01 5.67708E-02 3.45040E-04-2.49716E-03-1.79315E-13 1.23274E-13
 -1      1646 1.99993E+01 3.95590E-02-5.37959E-06-5.00946E-03-8.14156E-13-4.56767E-13
 -1      1647 1.99991E+01 4.50813E-02-5.26756E-06-4.66611E-03-2.55787E-13-4.83568E-13
 -1      1648 1.99985E+01 5.17361E-02 2.78027E-04-7.36760E-03-2.62181E-13-4.73778E-13
 -1      1649 1.99997E+01 2.76176E-02-3.13347E-05-6.01292E-03-9.50619E-13 2.17735E-13
 -1      1650 1.99995E+01 3.42662E-02-3.33456E-05-5.91778E-03-8.80080E-13-1.96502E-13
 -1      1651 1.99992E+01 4.26188E-02 1.60950E-04-1.06433E-02-1.97127E-13-4.69268E-13
 -1      1652 2.00003E+01 1.51352E-02-7.15194E-05-5.67947E-03-6.53238E-13 6.30343E-14
 -1      1653 2.00000E+01 2.15727E-02-7.56588E-05-5.87070E-03-9.23979E-13 4.21638E-13
 -1      1654 2.00000E+01 3.11114E-02 4.03713E-06-1.16231E-02-3.97561E-13 3.43205E-13
 -1      1655 2.00007E+01 5.01005E-03-1.32536E-04-3.98168E-03-3.47315E-13 3.19772E-13
 -1      1656 2.00005E+01 9.57900E-03-1.32016E-04-4.44556E-03-6.11770E-13 2.19635E-13
 -1      1657 2.00009E+01 1.92716E-02-1.55327E-04-1.00117E-02-2.33754E-13 1.90773E-13
 -1      1658 2.00010E+01-5.44757E-04-4.41444E-05-1.48521E-03-2.66614E-13-6.72636E-14
 -1      1659 2.00007E+01 1.00519E-03-1.89597E-04-2.10704E-03-3.07582E-13 1.33856E-13
 -1      1660 2.00013E+01 9.48613E-03-2.69567E-04-6.10954E-03-3.09947E-14 1.64180E-13
 -1      1661 2.00009E+01-3.53747E-04 1.69111E-04 5.69908E-04-2.50185E-13-2.02952E-13
 -1      1662 2.00011E+01-1.36538E-03-1.70331E-04 6.88843E-05-1.66981E-13-1.87308E-13
 -1      1663 2.00027E+01 4.99802E-03 8.20011E-05-2.36848E-03-2.69595E-15-1.45266E-13
 -1      1664 2.00024E+01 2.99557E-03 2.40423E-04 2.26042E-04 6.77375E-14-1.88126E-13
 -1      1665-7.27359E-01-1.54422E+01-1.79052E+00-1.30547E+00 1.27592E-12 4.07618E-13
 -1      1666-6.55239E-01-1.71098E+01-1.91684E+00 5.11924E-02 9.05359E-13 3.00204E-13
 -1      1667 6.45528E-01-9.65086E+00-1.40816E+00-3.80255E-01 1.44018E-12 5.24636E-13
 -1      1668 2.01558E-01-1.42032E+01-1.83830E+00-6.27534E-01 1.30296E-12 4.52666E-13
 -1      1669 5.84168E+00-1.99057E+00-7.51473E-01 3.59429E+00 1.50568E-12 1.12721E-12
 -1      1670 3.14784E+00-7.63911E+00-1.45718E+00 9.63830E-01 1.41964E-12 7.57172E-13
 -1      1671 1.56587E+01 4.11025E+00 3.35343E-02 8.78308E+00 1.30007E-12 1.12266E-12
 -1      1672 9.56454E+00 1.93960E-01-8.56086E-01 4.96434E+00 1.47238E-12 1.10445E-12
 -1      1673 3.02197E+01 6.24942E+00 8.98951E-01 1.24020E+01 7.11431E-13 2.99094E-13
 -1      1674 2.09906E+01 5.34258E+00-3.64213E-02 9.81685E+00 1.14164E-12 8.12683E-13
 -1      1675 4.58578E+01 5.10904E+00 1.63498E+00 1.10493E+01 1.68088E-13-5.48339E-13
 -1      1676 3.59742E+01 6.66378E+00 8.76419E-01 1.21912E+01 4.89941E-13 6.37268E-14
 -1      1677 5.48092E+01 3.73910E+00 1.92922E+00 4.06737E+00 1.82021E-13-1.31151E-12
 -1      1678 4.94095E+01 5.07706E+00 1.55159E+00 8.60339E+00 1.38015E-13-8.22675E-13
 -1      1679 5.60435E+01 3.78928E+00 1.98964E+00-3.88842E+00 5.05873E-13-2.07334E-12
 -1      1680 5.67696E+01 3.55896E+00 2.02464E+00 1.80635E+00 2.54241E-13-1.58923E-12
 -1      1681 4.72653E+01 5.41713E+00 1.45783E+00-9.95679E+00 1.04168E-12-2.64855E-12
 -1      1682 5.38219E+01 3.91140E+00 1.94953E+00-6.09747E+00 7.16760E-13-2.25053E-12
 -1      1683 3.34305E+01 6.67085E+00 7.02217E-01-1.20424E+01 1.72962E-12-2.80242E-12
 -1      1684 4.31306E+01 5.59751E+00 1.55277E+00-1.17566E+01 1.31561E-12-2.80098E-12
 -1      1685 1.99545E+01 3.68465E+00-1.60398E-01-8.48147E+00 1.86240E-12-2.25664E-12
 -1      1686 2.85454E+01 5.05762E+00 6.99311E-01-1.11683E+01 1.63169E-12-2.67053E-12
 -1      1687 8.50939E+00-6.60469E-01-9.42552E-01-4.41549E+00 2.01061E-12-1.71974E-12
 -1      1688 1.38500E+01 3.27298E+00-1.42867E-01-7.96530E+00 2.08811E-12-2.23987E-12
 -1      1689 2.92116E+00-8.56443E+00-1.43016E+00-8.89063E-01 1.18383E-12-1.07292E-12
 -1      1690 5.35805E+00-2.82327E+00-7.58618E-01-3.23314E+00 1.78879E-12-1.52178E-12
 -1      1691 2.22879E-01-1.44750E+01-1.67367E+00 5.08890E-02-1.84019E-13-6.18783E-13
 -1      1692 6.21849E-01-1.01663E+01-1.28965E+00 1.02277E-01 7.92810E-13-1.03741E-12
 -1      1693-7.23855E-01-1.65016E+01-1.77781E+00-3.88104E-01-1.06830E-12-2.81136E-13
 -1      1694-7.95751E-01-1.57802E+01-1.72681E+00 1.15525E+00-4.28990E-13-3.38951E-13
 -1      1695-1.89458E-01-1.26631E+01-1.47028E+00-4.83416E-01-1.81599E-12-7.52731E-13
 -1      1696-3.10339E-01-1.58216E+01-1.75171E+00 3.72483E-01-1.28719E-12-4.51139E-13
 -1      1697 2.45971E+00-5.92111E+00-1.01422E+00 1.46205E+00-2.44360E-12-1.60361E-12
 -1      1698 1.32084E+00-1.12374E+01-1.56156E+00 3.20357E-01-1.96809E-12-1.03631E-12
 -1      1699 8.54656E+00 1.20935E+00-3.82773E-01 5.66819E+00-2.55018E-12-1.77824E-12
 -1      1700 5.01594E+00-3.79055E+00-1.12689E+00 2.59531E+00-2.64655E-12-1.57818E-12
 -1      1701 1.88589E+01 5.60393E+00 3.35076E-01 1.03149E+01-1.99130E-12-1.86229E-12
 -1      1702 1.25606E+01 2.89420E+00-4.67436E-01 7.00090E+00-2.42140E-12-1.85296E-12
 -1      1703 3.22884E+01 6.65327E+00 1.03069E+00 1.27641E+01-1.35103E-12-1.67333E-12
 -1      1704 2.36961E+01 6.51994E+00 2.52727E-01 1.10343E+01-1.82077E-12-1.88871E-12
 -1      1705 4.51783E+01 5.21403E+00 1.53363E+00 1.08317E+01-7.28959E-13-8.52873E-13
 -1      1706 3.71186E+01 6.74629E+00 9.55126E-01 1.22789E+01-1.10550E-12-1.40465E-12
 -1      1707 5.31343E+01 3.70247E+00 1.75363E+00 4.44968E+00-4.38094E-13-5.61218E-14
 -1      1708 4.83989E+01 5.03466E+00 1.46293E+00 8.83709E+00-5.89737E-13-6.37601E-13
 -1      1709 5.35223E+01 3.81410E+00 1.68538E+00-3.57969E+00-4.79339E-13 9.03777E-13
 -1      1710 5.41938E+01 3.63614E+00 1.74085E+00 1.91163E+00-4.63268E-13 2.49661E-13
 -1      1711 4.56133E+01 5.49374E+00 1.29558E+00-9.70673E+00-8.31432E-13 1.50369E-12
 -1      1712 5.15148E+01 3.97929E+00 1.67251E+00-5.83922E+00-4.12781E-13 1.10317E-12
 -1      1713 3.35622E+01 6.98917E+00 7.79879E-01-1.23741E+01-1.33837E-12 2.02061E-12
 -1      1714 4.20528E+01 5.66019E+00 1.40041E+00-1.17360E+01-1.08755E-12 1.74716E-12
 -1      1715 2.03716E+01 5.89754E+00 4.65348E-02-1.00890E+01-8.98615E-13 1.65423E-12
 -1      1716 2.86247E+01 6.70815E+00 8.64990E-01-1.24695E+01-1.08868E-12 2.36366E-12
 -1      1717 9.96300E+00 3.29473E-01-7.01750E-01-5.33322E+00-6.84675E-13 7.54841E-13
 -1      1718 1.59243E+01 4.16317E+00 1.33672E-01-9.02528E+00-8.98837E-13 1.31040E-12
 -1      1719 3.10304E+00-6.73854E+00-1.36525E+00-1.30924E+00-6.64802E-13 3.03646E-13
 -1      1720 5.58494E+00-1.34830E+00-6.70788E-01-3.81006E+00-7.15428E-13 4.92495E-13
 -1      1721 4.15684E-01-1.35002E+01-1.75183E+00 1.84644E-01-2.55018E-13 2.62988E-13
 -1      1722 9.81194E-01-8.80021E+00-1.28568E+00-1.84664E-01-5.59996E-13 3.19189E-13
 -1      1723-5.95786E-01-1.69875E+01-1.90803E+00-4.11691E-01 5.59108E-13 3.93546E-13
 -1      1724-5.81751E-01-1.48761E+01-1.71019E+00 8.45768E-01-1.31284E-13 3.86774E-13
 -1      1725 2.31159E+01 1.76991E-01 1.11884E-01 7.21152E+00 7.38742E-13 9.10383E-15
 -1      1726 1.28125E+01-4.07484E+00-5.11050E-01 5.88399E+00 7.63944E-13 6.24778E-13
 -1      1727 1.99998E+01-1.60824E-03 3.18173E-04-2.17727E-03-4.17069E-13-4.91844E-15
 -1      1728 2.00004E+01 6.64464E-04 1.52227E-04-2.23293E-03-1.51250E-13 2.51122E-13
 -1      1729 4.75340E-03-1.09149E+01-1.29478E+00 1.65259E+00 6.85341E-13 4.36706E-13
 -1      1730 4.86767E+00-7.99380E+00-9.68208E-01 3.91534E+00 7.46736E-13 4.48239E-13
 -1      1731-1.39784E+00-1.18774E+01-1.37833E+00-3.15697E-01 3.25101E-13 7.90978E-13
 -1      1732 3.44703E+01 3.61347E+00 8.16004E-01 7.06175E+00 6.69576E-13-3.23852E-13
 -1      1733 4.33136E+01 6.18300E+00 1.35927E+00 4.52588E+00 4.78173E-13-7.15095E-13
 -1      1734 4.78784E+01 7.33563E+00 1.60370E+00 1.12117E+00 4.85112E-13-1.14728E-12
 -1      1735 4.77143E+01 7.06650E+00 1.61383E+00-2.12254E+00 7.65887E-13-1.32561E-12
 -1      1736 4.20513E+01 5.71050E+00 1.27564E+00-5.20862E+00 9.53515E-13-1.58351E-12
 -1      1737 3.26772E+01 2.11037E+00 4.99009E-01-6.14586E+00 1.01774E-12-1.68254E-12
 -1      1738 2.24855E+01-1.00719E+00 1.17124E-01-6.78664E+00 1.05149E-12-1.57618E-12
 -1      1739 1.18756E+01-4.74647E+00-5.65240E-01-5.76340E+00 1.00098E-12-1.38423E-12
 -1      1740 4.45492E+00-8.18017E+00-9.12182E-01-4.07231E+00 3.25850E-13-1.37854E-12
 -1      1741-2.65903E-01-1.04032E+01-1.15720E+00-1.61772E+00-1.97176E-13-9.79661E-13
 -1      1742-1.11325E+00-1.08928E+01-1.22841E+00 1.00366E+00-6.44373E-13-6.97775E-13
 -1      1743 1.78875E+00-9.21947E+00-1.05213E+00 3.23235E+00-9.99534E-13-9.52738E-13
 -1      1744 7.49827E+00-6.03396E+00-7.43460E-01 5.09031E+00-1.33615E-12-1.15249E-12
 -1      1745 1.56112E+01-1.86641E+00-2.23695E-01 6.81209E+00-1.60472E-12-1.02074E-12
 -1      1746 2.52554E+01 1.82074E+00 3.44534E-01 7.75852E+00-1.49142E-12-1.12343E-12
 -1      1747 3.49642E+01 4.62808E+00 8.95454E-01 7.28893E+00-1.21758E-12-7.62945E-13
 -1      1748 4.26122E+01 6.40353E+00 1.30358E+00 4.94892E+00-9.18043E-13-3.83915E-13
 -1      1749 4.63001E+01 7.41997E+00 1.49487E+00 1.42503E+00-8.26228E-13-3.12250E-14
 -1      1750 4.54506E+01 7.31722E+00 1.42856E+00-2.02565E+00-6.58029E-13 4.11837E-13
 -1      1751 4.07101E+01 6.10689E+00 1.20359E+00-5.37406E+00-8.11434E-13 7.76157E-13
 -1      1752 3.25230E+01 3.97767E+00 7.57582E-01-7.59149E+00-6.04405E-13 1.12743E-12
 -1      1753 2.26010E+01 3.85305E-01 1.43862E-01-7.38425E+00-2.54019E-13 1.21703E-12
 -1      1754 1.29417E+01-3.50943E+00-3.66399E-01-6.35607E+00-3.50830E-13 6.62359E-13
 -1      1755 4.89893E+00-7.44613E+00-9.12001E-01-4.25290E+00-2.71116E-13 2.93189E-13
 -1      1756 2.63597E-01-1.05276E+01-1.23990E+00-2.25478E+00 2.80886E-14 5.67046E-13
 -1      1757 2.28065E+01 1.97896E+00-2.40977E-02-2.70287E+00-3.36585E-13 7.31165E-13
 -1      1758 1.98397E+01 3.71890E+00-3.54207E-02-2.11546E+00-3.16179E-13-6.71532E-13
 -1      1759 2.00673E+01 3.56469E+00-3.98138E-02-2.40819E+00-3.93713E-13-5.80962E-13
 -1      1760 2.03649E+01 3.17918E+00-4.56340E-02-2.55118E+00-4.12581E-13-4.45255E-13
 -1      1761 2.05749E+01 2.80506E+00-1.41724E-01-2.82116E+00-4.75876E-13-2.57544E-13
 -1      1762 2.04315E+01 2.69581E+00-3.89087E-03-2.18600E+00-4.30518E-13-4.74329E-13
 -1      1763 1.93708E+01 4.21205E+00-2.01507E-02-1.23654E+00-9.17265E-14-7.86538E-13
 -1      1764 1.94461E+01 4.16971E+00-1.65910E-02-1.45856E+00-1.40069E-13-7.82882E-13
 -1      1765 1.92698E+01 4.32585E+00-1.67895E-02-8.33108E-01 4.15922E-15-7.68977E-13
 -1      1766 1.93150E+01 4.29967E+00-1.38766E-02-1.03982E+00-4.07192E-14-7.84010E-13
 -1      1767 1.95392E+01 3.81773E+00-8.56734E-03-1.08360E+00-8.20241E-14-7.57944E-13
 -1      1768 1.92143E+01 4.39197E+00-1.47429E-02-4.50949E-01 1.00769E-13-7.22328E-13
 -1      1769 1.92381E+01 4.37768E+00-1.29902E-02-6.45946E-01 5.86929E-14-7.50427E-13
 -1      1770 1.94361E+01 3.94714E+00-8.70076E-03-7.06679E-01 3.27191E-14-7.34603E-13
 -1      1771 1.91930E+01 4.42040E+00-1.35162E-02-8.03618E-02 1.88142E-13-6.82496E-13
 -1      1772 1.92001E+01 4.41597E+00-1.29720E-02-2.69827E-01 1.52854E-13-7.06176E-13
 -1      1773 1.93814E+01 4.01767E+00-8.63742E-03-3.44344E-01 1.27389E-13-6.93473E-13
 -1      1774 1.92022E+01 4.41471E+00-1.29266E-02 2.88386E-01 2.62863E-13-6.41442E-13
 -1      1775 1.91937E+01 4.41962E+00-1.36023E-02 9.87641E-02 2.29367E-13-6.68580E-13
 -1      1776 1.93652E+01 4.03929E+00-8.60467E-03 1.02919E-02 2.20740E-13-6.60612E-13
 -1      1777 1.92433E+01 4.37386E+00-1.30194E-02 6.65234E-01 3.36427E-13-5.73375E-13
 -1      1778 1.92179E+01 4.38896E+00-1.48700E-02 4.69726E-01 2.95268E-13-6.17175E-13
 -1      1779 1.93848E+01 4.01455E+00-8.66857E-03 3.65097E-01 2.94488E-13-6.06569E-13
 -1      1780 1.93217E+01 4.29407E+00-1.40628E-02 1.05365E+00 4.16336E-13-4.75852E-13
 -1      1781 1.92757E+01 4.32073E+00-1.70218E-02 8.49666E-01 3.75332E-13-5.30791E-13
 -1      1782 1.94426E+01 3.94110E+00-8.73059E-03 7.24786E-01 3.74344E-13-5.27002E-13
 -1      1783 1.94570E+01 4.15826E+00-1.70389E-02 1.47773E+00 4.98132E-13-3.31533E-13
 -1      1784 1.93789E+01 4.20375E+00-2.06144E-02 1.25063E+00 4.49432E-13-4.15522E-13
 -1      1785 1.95482E+01 3.80802E+00-8.88039E-03 1.09917E+00 4.63937E-13-4.19685E-13
 -1      1786 1.96856E+01 3.93203E+00-2.48293E-02 1.94087E+00 5.61563E-13-1.29313E-13
 -1      1787 1.95537E+01 4.01213E+00-2.70146E-02 1.68423E+00 5.22811E-13-2.55213E-13
 -1      1788 1.97259E+01 3.58967E+00-8.45843E-03 1.49357E+00 5.43223E-13-2.58970E-13
 -1      1789 2.00857E+01 3.52445E+00-4.47673E-02 2.43521E+00 5.81958E-13 1.86750E-13
 -1      1790 1.98512E+01 3.68833E+00-3.96843E-02 2.14523E+00 5.61060E-13-3.01842E-15
 -1      1791 2.00213E+01 3.23500E+00-5.17609E-03 1.89221E+00 5.84603E-13-4.23429E-14
 -1      1792 2.09099E+01 2.67763E+00-5.71794E-02 2.82637E+00 5.05702E-13 7.55840E-13
 -1      1793 2.04150E+01 3.09494E+00-5.01597E-02 2.58239E+00 5.38032E-13 4.16292E-13
 -1      1794 2.05241E+01 2.61260E+00 3.19526E-03 2.20645E+00 5.66394E-13 2.96076E-13
 -1      1795 2.16982E+01 1.21025E+00-1.21552E-01 2.30638E+00 3.89279E-13 1.41416E-12
 -1      1796 2.12546E+01 2.25803E+00 1.07373E-04 2.71260E+00 4.50568E-13 9.87446E-13
 -1      1797 2.09295E+01 1.68400E+00-2.25360E-02 2.10887E+00 5.04844E-13 7.48252E-13
 -1      1798 2.09287E+01 7.77590E-01-6.19296E-02 1.50179E+00 4.07716E-13 1.28038E-12
 -1      1799 2.17681E+01 2.45141E+00 9.05931E-02-3.02171E+00-4.31625E-13 9.87543E-14
 -1      1800 2.00978E+01 3.00014E-01-8.48880E-03 6.32924E-01 3.27675E-13 1.04834E-12
 -1      1801 2.06385E+01 4.41365E-01-1.21631E-02 1.01081E+00 3.46834E-13 1.17521E-12
 -1      1802 2.07370E+01 8.45305E-01 2.05167E-03 1.38649E+00 4.18429E-13 8.68390E-13
 -1      1803 2.14893E+01 1.73974E+00 7.92056E-02-2.30814E+00-4.54668E-13-3.49720E-14
 -1      1804 2.05208E+01 5.03895E-01 3.25910E-02-8.91188E-01-3.73569E-13-5.76621E-14
 -1      1805 2.01021E+01 3.57127E-01 8.18155E-03-5.96848E-01-3.22818E-13-1.47503E-13
 -1      1806 1.99193E+01 2.63626E-01 2.75983E-02-3.53558E-01-2.96020E-13-1.43906E-13
 -1      1807 1.97444E+01 1.86766E-01 1.11333E-02-2.11508E-01-2.54961E-13-2.27342E-13
 -1      1808 2.02223E+01 4.90202E-01-7.05215E-03-6.76025E-01-3.60554E-13-2.38403E-13
 -1      1809 1.96368E+01 1.43947E-01 1.69393E-02-6.95870E-02-2.05288E-13-2.25080E-13
 -1      1810 1.95804E+01 1.06476E-01 7.95872E-03 8.47779E-03-1.58193E-13-2.93675E-13
 -1      1811 1.99225E+01 2.58004E-01-6.69583E-03-2.34903E-01-2.70246E-13-2.67244E-13
 -1      1812 1.95353E+01 8.36792E-02 9.10868E-03 9.32122E-02-1.49658E-13-2.96435E-13
 -1      1813 1.95499E+01 6.46170E-02 5.43897E-03 1.39250E-01-1.24734E-13-3.38704E-13
 -1      1814 1.97747E+01 1.46706E-01-5.26671E-03 2.38616E-02-1.93743E-13-2.87491E-13
 -1      1815 1.95497E+01 5.25072E-02 4.79934E-03 1.92720E-01-1.36120E-13-3.40363E-13
 -1      1816 1.96083E+01 4.30223E-02 4.07712E-03 2.22300E-01-1.35997E-13-3.98590E-13
 -1      1817 1.97340E+01 8.93620E-02-4.21809E-03 1.82622E-01-1.58167E-13-3.19865E-13
 -1      1818 1.96402E+01 3.67696E-02 2.53806E-03 2.58931E-01-1.36628E-13-3.82425E-13
 -1      1819 1.97281E+01 3.27069E-02 3.41152E-03 2.80335E-01-1.14193E-13-4.23220E-13
 -1      1820 1.97698E+01 6.03279E-02-3.26962E-03 2.86651E-01-1.42451E-13-3.28001E-13
 -1      1821 1.97838E+01 2.98546E-02 1.34478E-03 3.08485E-01-1.15361E-13-4.06535E-13
 -1      1822 1.98932E+01 2.88718E-02 3.07864E-03 3.26393E-01-1.07619E-13-4.13942E-13
 -1      1823 1.98607E+01 4.69195E-02-2.54749E-03 3.61523E-01-1.23238E-13-3.27668E-13
 -1      1824 1.99675E+01 2.78407E-02 7.04229E-04 3.50894E-01-1.08567E-13-4.00302E-13
 -1      1825 2.00945E+01 2.82513E-02 2.85308E-03 3.67772E-01-8.18237E-14-4.22998E-13
 -1      1826 1.99936E+01 4.22224E-02-2.07018E-03 4.22184E-01-1.20140E-13-3.18516E-13
 -1      1827 2.01845E+01 2.77161E-02 3.52176E-04 3.90912E-01-8.50588E-14-4.58311E-13
 -1      1828 2.03268E+01 2.79570E-02 2.55321E-03 4.07443E-01-8.35752E-14-4.69950E-13
 -1      1829 2.01604E+01 4.13550E-02-1.77899E-03 4.76775E-01-1.20387E-13-3.77466E-13
 -1      1830 2.04308E+01 2.65459E-02 1.35091E-04 4.29237E-01-9.75958E-14-5.05410E-13
 -1      1831 2.05862E+01 2.48888E-02 1.98945E-03 4.44308E-01-4.01154E-14-5.46957E-13
 -1      1832 2.03567E+01 3.98596E-02-1.59548E-03 5.28044E-01-1.33518E-13-3.94588E-13
 -1      1833 2.07029E+01 2.10173E-02-4.88314E-05 4.62366E-01-1.20029E-14-5.56428E-13
 -1      1834 2.08678E+01 1.54206E-02 9.52804E-04 4.72825E-01-1.03832E-14-5.61717E-13
 -1      1835 2.05794E+01 3.28780E-02-1.44118E-03 5.73532E-01-5.65236E-14-4.00692E-13
 -1      1836 2.09952E+01 7.24620E-03-2.70200E-04 4.82037E-01 2.96497E-14-5.70038E-13
 -1      1837 2.11627E+01-4.60630E-03-7.62424E-04 4.82402E-01 2.28332E-14-5.42531E-13
 -1      1838 2.08250E+01 1.47733E-02-1.23769E-03 6.05111E-01-5.04924E-15-3.84948E-13
 -1      1839 2.12978E+01-1.90170E-02-5.75076E-04 4.74682E-01 3.11177E-14-5.48524E-13
 -1      1840 2.14562E+01-3.93224E-02-3.29105E-03 4.57086E-01 1.83571E-14-4.95084E-13
 -1      1841 2.10881E+01-2.06793E-02-8.97640E-04 6.08376E-01 4.32757E-14-4.12249E-13
 -1      1842 2.15931E+01-6.14204E-02-9.92515E-04 4.21617E-01-4.84768E-14-4.42954E-13
 -1      1843 2.17250E+01-9.12336E-02-6.56680E-03 3.76522E-01-4.09759E-14-4.30713E-13
 -1      1844 2.13593E+01-7.90689E-02-3.08668E-04 5.62622E-01 2.61955E-14-4.17437E-13
 -1      1845 2.18543E+01-1.20751E-01-1.55271E-03 3.01278E-01-4.23255E-14-4.29975E-13
 -1      1846 2.19366E+01-1.58071E-01-1.01308E-02 2.19734E-01-9.38763E-14-4.48636E-13
 -1      1847 2.16230E+01-1.62368E-01 6.84567E-04 4.42683E-01-5.62369E-14-3.20843E-13
 -1      1848 2.20436E+01-1.90999E-01-2.32008E-03 9.53670E-02-1.73841E-13-4.30585E-13
 -1      1849 2.20502E+01-2.28110E-01-1.29321E-02-2.63064E-02-1.17428E-13-4.58904E-13
 -1      1850 2.18552E+01-2.63599E-01 2.27270E-03 2.24631E-01-1.36331E-13-2.77177E-13
 -1      1851 2.21140E+01-2.54392E-01-3.37307E-03-1.99207E-01-4.92844E-14-4.63234E-13
 -1      1852 2.20227E+01-2.75866E-01-1.33268E-02-3.52226E-01-7.89733E-14-4.28769E-13
 -1      1853 2.20211E+01-3.59875E-01 4.58160E-03-1.02348E-01-1.19235E-13-2.39150E-13
 -1      1854 2.20183E+01-2.78825E-01-4.69570E-03-5.53077E-01-9.14069E-14-3.88689E-13
 -1      1855 2.18218E+01-2.63477E-01-9.62283E-03-7.08816E-01-3.10724E-14-3.83222E-13
 -1      1856 2.20766E+01-4.08050E-01 7.34867E-03-5.17044E-01-5.90773E-14-1.83275E-13
 -1      1857 2.17282E+01-2.24471E-01-5.81956E-03-8.88974E-01 4.24790E-14-3.97692E-13
 -1      1858 2.14462E+01-1.55341E-01-1.42373E-03-9.97603E-01 8.85368E-14-3.64790E-13
 -1      1859 2.19780E+01-3.52041E-01 9.39368E-03-9.45377E-01 2.88354E-14-1.48210E-13
 -1      1860 2.12650E+01-6.65260E-02-5.61686E-03-1.08475E+00 8.85256E-14-3.75939E-13
 -1      1861 2.09510E+01 5.15682E-02 8.81970E-03-1.08869E+00 2.36515E-14-3.63961E-13
 -1      1862 2.17064E+01-1.51302E-01 8.37866E-03-1.25364E+00 1.01917E-13-1.25486E-13
 -1      1863 2.07263E+01 1.71095E-01-2.35564E-03-1.01527E+00-7.09155E-14-3.54600E-13
 -1      1864 2.04598E+01 2.98858E-01 1.61808E-02-8.80301E-01-3.87555E-14-3.39443E-13
 -1      1865 2.13052E+01 1.73485E-01 2.12770E-03-1.28147E+00 2.26119E-14-1.53963E-13
 -1      1866 2.02783E+01 3.99974E-01 4.68661E-03-6.31356E-01-6.30884E-14-3.27629E-13
 -1      1867 2.01386E+01 4.76365E-01 1.65049E-02-3.79883E-01-4.12673E-14-3.91887E-13
 -1      1868 2.09021E+01 5.14159E-01-7.69392E-03-9.27843E-01-5.25669E-14-9.36382E-14
 -1      1869 2.00875E+01 5.05825E-01 1.29030E-02-2.52010E-02-4.04728E-14-4.00287E-13
 -1      1870 2.01204E+01 4.88360E-01 1.01810E-02 2.60105E-01-3.25989E-14-3.58813E-13
 -1      1871 2.06704E+01 7.14584E-01-1.45582E-02-2.49362E-01-1.90802E-14-2.27218E-13
 -1      1872 2.02274E+01 4.29084E-01 1.72642E-02 5.90597E-01 1.66464E-14-3.70335E-13
 -1      1873 2.04224E+01 3.27875E-01 1.88463E-03 8.07847E-01 1.73254E-13-3.34370E-13
 -1      1874 2.07262E+01 6.68912E-01-1.29808E-02 5.24220E-01 2.71293E-14-2.35835E-13
 -1      1875 2.06331E+01 2.13720E-01 1.42377E-02 9.98567E-01 1.62339E-13-4.61490E-13
 -1      1876 2.09296E+01 8.32536E-02-3.81914E-03 1.08401E+00 9.82782E-14-4.56232E-13
 -1      1877 2.10423E+01 4.02457E-01-4.14911E-03 1.10703E+00 1.04310E-13-3.91117E-13
 -1      1878 2.11497E+01-2.92967E-02 5.24306E-03 1.09610E+00 1.07979E-13-5.42519E-13
 -1      1879 2.14646E+01-1.32083E-01-5.77417E-03 1.05024E+00 1.71964E-13-4.97717E-13
 -1      1880 2.14694E+01 5.11802E-02 4.84041E-03 1.32391E+00 1.14362E-13-4.95070E-13
 -1      1881 2.16207E+01-2.03160E-01-4.67540E-03 9.23190E-01 1.43375E-13-5.29691E-13
 -1      1882 2.18821E+01-2.51531E-01-5.18193E-03 7.93027E-01 5.90643E-14-4.40558E-13
 -1      1883 2.18412E+01-2.35776E-01 9.18888E-03 1.18314E+00 1.20798E-13-5.70528E-13
 -1      1884 2.19474E+01-2.73266E-01-1.13349E-02 6.01055E-01-7.75621E-14-3.56394E-13
 -1      1885 2.21144E+01-2.72347E-01-3.83145E-03 4.44186E-01-1.05165E-13-2.42250E-13
 -1      1886 2.20607E+01-3.81538E-01 8.82023E-03 8.19498E-01 5.79229E-14-4.94504E-13
 -1      1887 2.20979E+01-2.58317E-01-1.34246E-02 2.53100E-01-1.95578E-13-1.47169E-13
 -1      1888 2.21623E+01-2.28314E-01-2.52877E-03 1.12461E-01-1.50834E-14-1.80280E-13
 -1      1889 2.21114E+01-3.92337E-01 6.23305E-03 3.91207E-01-6.04148E-14-1.33485E-13
 -1      1890 2.20885E+01-1.97518E-01-1.19494E-02-3.94775E-02 5.94802E-14-3.17310E-13
 -1      1891 2.20650E+01-1.58225E-01-1.50771E-03-1.42948E-01 1.59394E-13-3.88660E-13
 -1      1892 2.20258E+01-3.19013E-01 3.49473E-03 1.20428E-02-3.66504E-14-1.06770E-13
 -1      1893 2.19583E+01-1.25149E-01-8.70515E-03-2.43457E-01 1.46432E-13-4.39916E-13
 -1      1894 2.18720E+01-8.91547E-02-7.35259E-04-3.06304E-01 3.63177E-14-3.59112E-13
 -1      1895 2.18503E+01-2.15108E-01 1.40587E-03-2.64720E-01 9.76853E-14-2.42469E-13
 -1      1896 2.17513E+01-6.14757E-02-5.15580E-03-3.59348E-01-8.64764E-14-3.74634E-13
 -1      1897 2.16284E+01-3.41612E-02-1.39246E-04-3.87798E-01-5.42431E-14-3.78934E-13
 -1      1898 2.16268E+01-1.16513E-01 2.74860E-05-4.31726E-01 1.97993E-14-2.96341E-13
 -1      1899 2.15067E+01-1.43309E-02-2.12920E-03-4.04327E-01-6.52400E-14-4.89586E-13
 -1      1900 2.13688E+01 3.59867E-03 3.14118E-04-4.07953E-01-1.08594E-13-5.39375E-13
 -1      1901 2.13866E+01-3.97259E-02-8.09348E-04-5.06249E-01-1.72167E-13-3.81924E-13
 -1      1902 2.12541E+01 1.60271E-02 7.10573E-05-3.99990E-01-4.00723E-14-5.97835E-13
 -1      1903 2.11172E+01 2.60868E-02 6.35159E-04-3.88022E-01-7.55274E-14-5.89594E-13
 -1      1904 2.11508E+01 1.20187E-02-1.27754E-03-5.13828E-01-1.20390E-13-4.05904E-13
 -1      1905 2.10140E+01 3.27082E-02 1.45686E-03-3.65823E-01-1.59431E-13-6.22838E-13
 -1      1906 2.08878E+01 3.70457E-02 8.33020E-04-3.45596E-01-1.09494E-13-6.45759E-13
 -1      1907 2.09325E+01 4.21256E-02-1.50136E-03-4.78986E-01-1.04741E-13-2.52076E-13
 -1      1908 2.07982E+01 3.96171E-02 2.18220E-03-3.16776E-01 1.04681E-13-6.17332E-13
 -1      1909 2.06881E+01 4.02244E-02 9.24620E-04-2.93448E-01 1.64714E-13-4.47233E-13
 -1      1910 2.07389E+01 5.61523E-02-1.56253E-03-4.21342E-01 1.50241E-14-2.99435E-13
 -1      1911 2.06126E+01 4.02381E-02 2.43531E-03-2.63106E-01 2.00556E-13-4.34314E-13
 -1      1912 2.05203E+01 3.86715E-02 9.33539E-04-2.39941E-01 2.47610E-13-2.54945E-13
 -1      1913 2.05728E+01 5.94750E-02-1.51596E-03-3.54855E-01 2.19237E-13-2.16880E-13
 -1      1914 2.04584E+01 3.72412E-02 2.38534E-03-2.11161E-01 1.33371E-13-9.13606E-14
 -1      1915 2.03837E+01 3.45973E-02 8.85149E-04-1.89999E-01-4.02163E-14-2.66548E-14
 -1      1916 2.04346E+01 5.63937E-02-1.40101E-03-2.88523E-01 2.65294E-13-7.05809E-14
 -1      1917 2.03341E+01 3.24869E-02 2.16343E-03-1.64406E-01-2.60131E-13-1.46049E-14
 -1      1918 2.02753E+01 2.94798E-02 8.02501E-04-1.46099E-01-1.64158E-13-2.15702E-14
 -1      1919 2.03222E+01 4.99924E-02-1.24710E-03-2.27535E-01-6.55681E-14 2.03996E-13
 -1      1920 2.02364E+01 2.71772E-02 1.86163E-03-1.24341E-01-8.78652E-14-1.23672E-13
 -1      1921 2.01916E+01 2.42377E-02 7.04054E-04-1.09113E-01 6.64692E-14-1.30778E-13
 -1      1922 2.02332E+01 4.23131E-02-1.07622E-03-1.74401E-01-1.33775E-13 2.65809E-13
 -1      1923 2.01618E+01 2.20327E-02 1.53928E-03-9.12255E-02 2.89630E-13-2.25139E-13
 -1      1924 2.01286E+01 1.93969E-02 6.03151E-04-7.89282E-02 3.51397E-13-3.44061E-14
 -1      1925 2.01642E+01 3.46108E-02-9.04111E-04-1.29880E-01 1.48207E-13 1.09125E-13
 -1      1926 2.01063E+01 1.74454E-02 1.23094E-03-6.45986E-02 2.78655E-13 1.89135E-14
 -1      1927 2.00825E+01 1.52215E-02 5.07312E-04-5.48836E-02 2.94604E-13 1.09304E-13
 -1      1928 2.01119E+01 2.75933E-02-7.40460E-04-9.36722E-02 3.65004E-13 1.51530E-13
 -1      1929 2.00663E+01 1.35894E-02 9.52615E-04-4.36300E-02 2.62600E-13 1.57429E-13
 -1      1930 2.00499E+01 1.17997E-02 4.16925E-04-3.60700E-02 2.93329E-13 2.14233E-13
 -1      1931 2.00734E+01 2.15998E-02-5.91295E-04-6.49003E-02 2.83261E-13 2.28014E-13
 -1      1932 2.00385E+01 1.04889E-02 7.07600E-04-2.73699E-02-5.41432E-14 8.22263E-14
 -1      1933 2.00279E+01 9.10167E-03 3.36099E-04-2.15514E-02-1.45306E-13 2.12990E-14
 -1      1934 2.00457E+01 1.67209E-02-4.56794E-04-4.24521E-02 4.73474E-14 7.53357E-14
 -1      1935 2.00200E+01 7.98612E-03 4.79262E-04-1.48977E-02-3.57306E-14-1.21308E-13
 -1      1936 2.00138E+01 6.84169E-03 2.54030E-04-1.05364E-02 1.27460E-13-7.76979E-14
 -1      1937 2.00264E+01 1.28897E-02-3.21912E-04-2.52372E-02-1.77250E-13 1.54179E-13
 -1      1938 2.00089E+01 5.74886E-03 3.38477E-04-5.91096E-03 4.08607E-13-2.67819E-13
 -1      1939 2.00057E+01 4.43491E-03 1.93536E-04-3.06338E-03 2.83083E-13-1.71679E-13
 -1      1940 2.00059E+01 5.26667E-03-2.15046E-04-4.09932E-03 2.05156E-13-9.79945E-14
 -1      1941 2.00137E+01 9.15913E-03-3.37047E-04-1.26313E-02 8.41979E-14-5.55245E-14
 -1      1942 1.96408E+01 1.46786E-01 8.32457E-03 2.28883E-01 2.54513E-13 8.58402E-13
 -1      1943 1.98989E+01 2.07811E-01 1.67362E-02 4.04850E-01 2.78009E-13 9.70526E-13
 -1      1944 2.01156E+01 3.54885E-01-1.78723E-03 6.20598E-01 3.47437E-13 6.98399E-13
 -1      1945 1.94331E+01 7.96045E-02 7.52931E-03 1.45964E-02 1.98997E-13 7.16060E-13
 -1      1946 1.95295E+01 1.08371E-01 1.46170E-02 1.08311E-01 2.09622E-13 7.91178E-13
 -1      1947 1.97508E+01 1.73506E-01-2.29660E-03 2.10726E-01 2.66621E-13 5.81104E-13
 -1      1948 1.93902E+01 4.73474E-02 5.22765E-03-1.07882E-01 1.21709E-13 5.88577E-13
 -1      1949 1.93948E+01 6.18721E-02 8.93884E-03-5.28300E-02 1.45631E-13 6.67771E-13
 -1      1950 1.95885E+01 9.35450E-02-3.27683E-03-1.87629E-02 2.00174E-13 4.46407E-13
 -1      1951 1.94540E+01 3.17330E-02 3.94924E-03-1.84330E-01 1.01990E-13 4.87649E-13
 -1      1952 1.94033E+01 3.90527E-02 5.17767E-03-1.48596E-01 1.14478E-13 5.62791E-13
 -1      1953 1.95610E+01 5.58131E-02-3.43663E-03-1.55876E-01 1.41276E-13 3.54417E-13
 -1      1954 1.95909E+01 2.54975E-02 3.45031E-03-2.38946E-01 1.17114E-13 3.96181E-13
 -1      1955 1.95035E+01 2.86531E-02 3.23922E-03-2.12311E-01 9.92950E-14 4.45699E-13
 -1      1956 1.96247E+01 3.87418E-02-3.09302E-03-2.46081E-01 1.30272E-13 2.80138E-13
 -1      1957 1.97838E+01 2.54135E-02 3.38115E-03-2.86291E-01 7.08356E-14 3.32508E-13
 -1      1958 1.96683E+01 2.58819E-02 2.35545E-03-2.62449E-01 9.54895E-14 3.61431E-13
 -1      1959 1.97536E+01 3.35614E-02-2.70579E-03-3.14928E-01 1.18997E-13 1.80093E-13
 -1      1960 2.00265E+01 2.98473E-02 3.57580E-03-3.36283E-01 1.20017E-13 2.62181E-13
 -1      1961 1.98853E+01 2.84589E-02 2.04490E-03-3.10789E-01 9.86448E-14 3.26967E-13
 -1      1962 1.99348E+01 3.63154E-02-2.46802E-03-3.78510E-01 1.03008E-13 1.66758E-13
 -1      1963 2.03204E+01 3.77741E-02 3.95465E-03-3.96249E-01 3.11686E-14 2.80429E-13
 -1      1964 2.01516E+01 3.51024E-02 2.05962E-03-3.65676E-01 7.46937E-14 2.70237E-13
 -1      1965 2.01637E+01 4.49134E-02-2.42042E-03-4.48025E-01 9.32470E-14 1.50368E-13
 -1      1966 2.06721E+01 4.82121E-02 4.43367E-03-4.71590E-01 6.59295E-14 2.80583E-13
 -1      1967 2.04712E+01 4.48236E-02 2.25083E-03-4.33272E-01 5.39065E-14 2.93513E-13
 -1      1968 2.04416E+01 5.78704E-02-2.55430E-03-5.31632E-01 5.36246E-14 1.79409E-13
 -1      1969 2.10915E+01 5.96582E-02 4.86094E-03-5.65463E-01-3.04665E-14 2.81295E-13
 -1      1970 2.08520E+01 5.63760E-02 2.48481E-03-5.17683E-01 3.06734E-14 2.85565E-13
 -1      1971 2.07739E+01 7.34552E-02-2.85788E-03-6.34812E-01 4.41550E-14 1.60895E-13
 -1      1972 2.15886E+01 6.92755E-02 4.95699E-03-6.77320E-01 5.65810E-14 2.20376E-13
 -1      1973 2.13043E+01 6.75575E-02 2.59578E-03-6.20051E-01 8.54178E-15 2.24574E-13
 -1      1974 2.11680E+01 8.87202E-02-3.32903E-03-7.59473E-01 4.31812E-14 1.04794E-13
 -1      1975 2.21704E+01 7.16482E-02 4.26199E-03-7.99792E-01 4.68759E-14 2.11664E-13
 -1      1976 2.18378E+01 7.41465E-02 2.36054E-03-7.36293E-01 1.36380E-14 2.27990E-13
 -1      1977 2.16313E+01 9.80717E-02-3.97069E-03-9.01470E-01 2.66618E-14 1.38901E-13
 -1      1978 2.28342E+01 5.71188E-02 2.14284E-03-9.13245E-01-6.40202E-14 3.21146E-13
 -1      1979 2.24570E+01 6.83613E-02 1.50870E-03-8.52894E-01-7.24247E-16 2.61554E-13
 -1      1980 2.21683E+01 9.12154E-02-4.76022E-03-1.04596E+00-1.52996E-14 8.31540E-14
 -1      1981 2.35592E+01 1.04566E-02-2.00292E-03-9.77843E-01-4.46792E-14 2.65865E-13
 -1      1982 2.31547E+01 3.71687E-02-1.94205E-04-9.40373E-01-4.62135E-14 3.10247E-13
 -1      1983 2.27764E+01 5.09002E-02-5.55992E-03-1.16006E+00-5.57921E-14 1.40343E-13
 -1      1984 2.42947E+01-8.74130E-02-8.13581E-03-9.25388E-01 1.23629E-13 2.50180E-13
 -1      1985 2.39023E+01-3.78658E-02-2.73201E-03-9.45401E-01 3.36328E-14 2.27355E-13
 -1      1986 2.34411E+01-4.73804E-02-5.91294E-03-1.18388E+00 6.51224E-14 1.49389E-13
 -1      1987 2.49493E+01-2.48376E-01-1.45607E-02-6.59785E-01 5.77385E-14 3.45661E-13
 -1      1988 2.46366E+01-1.74601E-01-5.62732E-03-7.86890E-01 9.77430E-14 3.26383E-13
 -1      1989 2.41276E+01-2.27695E-01-4.76153E-03-1.02497E+00 7.22495E-14 1.15580E-13
 -1      1990 2.53849E+01-4.48129E-01-1.72479E-02-8.73608E-02-9.56023E-14 3.57169E-13
 -1      1991 2.52446E+01-3.69642E-01-8.13509E-03-3.70498E-01-4.28373E-14 3.11611E-13
 -1      1992 2.47686E+01-4.86996E-01-5.29499E-04-5.71411E-01 6.95624E-16 1.82973E-13
 -1      1993 2.54314E+01-5.82405E-01-1.16797E-02 7.92804E-01-1.52859E-13 4.70641E-13
 -1      1994 2.55563E+01-5.57598E-01-1.01354E-02 3.52870E-01-1.15467E-13 4.44376E-13
 -1      1995 2.52463E+01-7.43095E-01 7.38701E-03 2.48499E-01-1.14436E-13 2.78364E-13
 -1      1996 2.49419E+01-4.60722E-01-3.35220E-04 1.73610E+00-1.07900E-13 5.83755E-13
 -1      1997 2.53729E+01-5.74677E-01-1.32051E-02 1.26582E+00-1.42223E-13 4.96159E-13
 -1      1998 2.53843E+01-7.86454E-01 1.49522E-02 1.33386E+00-1.24201E-13 4.15254E-13
 -1      1999 2.39498E+01 4.60492E-02 2.82996E-03 2.17957E+00 1.93097E-13 5.75446E-13
 -1      2000 2.46029E+01-2.27046E-01-1.55362E-02 1.96229E+00 6.09218E-14 5.75172E-13
 -1      2001 2.50202E+01-3.72230E-01 9.08343E-03 2.24572E+00 6.38920E-15 4.12979E-13
 -1      2002 2.28515E+01 7.33491E-01-2.23098E-02 1.55287E+00 2.01953E-13 3.13548E-13
 -1      2003 2.34778E+01 4.51703E-01-1.77149E-02 1.85947E+00 2.68299E-13 5.04020E-13
 -1      2004 2.42382E+01 5.06626E-01-1.46616E-02 2.28545E+00 3.14155E-13 2.30397E-13
 -1      2005 2.23759E+01 1.04272E+00-5.23269E-02-3.91615E-02 8.70554E-14 1.34844E-13
 -1      2006 2.26341E+01 1.00630E+00-1.20454E-02 7.05585E-01 8.44880E-14 1.53631E-13
 -1      2007 2.35386E+01 1.30812E+00-4.45595E-02 1.03369E+00 1.85914E-13 1.48912E-13
 -1      2008 2.29419E+01 6.73049E-01-4.78978E-02-1.60683E+00 7.57033E-15 7.82291E-14
 -1      2009 2.26494E+01 9.28160E-01-1.95216E-03-9.03859E-01 6.70575E-14 9.79494E-14
 -1      2010 2.35307E+01 1.35495E+00-4.04429E-02-9.02024E-01 9.30783E-14 9.10608E-14
 -1      2011 2.41418E+01-1.44678E-02-1.46803E-02-2.19015E+00-6.58701E-14 3.60441E-14
 -1      2012 2.34645E+01 3.02853E-01-2.72983E-03-1.93617E+00-3.15963E-14 3.58914E-14
 -1      2013 2.42214E+01 6.04892E-01-1.19233E-02-2.24295E+00 1.67019E-14-5.17364E-14
 -1      2014 2.51960E+01-4.80184E-01 1.59027E-02-1.71299E+00 2.00182E-13 7.12208E-14
 -1      2015 2.45031E+01-3.21123E-01-1.31336E-02-1.90921E+00 3.28288E-14-5.85296E-15
 -1      2016 2.50096E+01-3.13806E-01-1.00016E-03-2.30402E+00 4.27679E-14-2.27566E-13
 -1      2017 2.56565E+01-5.61936E-01 2.44939E-02-7.62313E-01 1.18084E-13-1.02275E-14
 -1      2018 2.52303E+01-5.77655E-01-1.96749E-02-1.15326E+00 1.37416E-13 8.82888E-14
 -1      2019 2.53886E+01-7.98023E-01-7.17216E-03-1.43157E+00 1.51500E-13-2.06927E-13
 -1      2020 2.55299E+01-4.15614E-01 1.71232E-02 1.05945E-01 1.82956E-13-2.15964E-14
 -1      2021 2.54428E+01-5.10727E-01-1.89798E-02-2.53490E-01 1.98688E-13 3.42519E-14
 -1      2022 2.52773E+01-7.81978E-01-1.23146E-02-3.42776E-01 2.10543E-13-7.63444E-14
 -1      2023 2.50154E+01-2.20914E-01 6.17789E-03 6.59979E-01-2.36686E-14-1.24158E-13
 -1      2024 2.51983E+01-3.17071E-01-1.42310E-02 4.26942E-01 9.48928E-14-1.33451E-13
 -1      2025 2.48293E+01-5.23881E-01-1.20752E-02 5.00180E-01 1.91399E-13-2.69567E-14
 -1      2026 2.43171E+01-6.98225E-02-9.95857E-04 9.06678E-01-1.12429E-13-2.27181E-13
 -1      2027 2.46561E+01-1.35667E-01-8.28608E-03 7.98643E-01-3.16405E-14-1.80684E-13
 -1      2028 2.42156E+01-2.47455E-01-8.03312E-03 9.73584E-01 1.89770E-14-1.58396E-13
 -1      2029 2.35772E+01 2.02040E-02-3.91049E-03 9.42862E-01 3.62184E-14-5.32399E-13
 -1      2030 2.39746E+01-1.47889E-02-2.96453E-03 9.21853E-01-6.80417E-14-4.19165E-13
 -1      2031 2.35550E+01-5.10494E-02-3.85153E-03 1.14204E+00 7.39729E-14-6.53583E-13
 -1      2032 2.28786E+01 6.26207E-02-4.24901E-03 8.64220E-01 9.80234E-14-3.26175E-13
 -1      2033 2.32702E+01 4.91282E-02 8.41132E-04 8.91691E-01 1.16193E-13-3.80999E-13
 -1      2034 2.29170E+01 5.81992E-02-1.16873E-03 1.11768E+00 2.91040E-14-5.22857E-13
 -1      2035 2.22622E+01 7.57017E-02-3.50417E-03 7.37661E-01 8.71117E-14-1.99559E-13
 -1      2036 2.26135E+01 7.44574E-02 3.05732E-03 7.86202E-01 4.14330E-14-1.52124E-13
 -1      2037 2.23390E+01 1.04797E-01 6.73668E-05 9.95115E-01-2.63960E-14-3.04814E-13
 -1      2038 2.17420E+01 7.34691E-02-2.52244E-03 6.01994E-01 1.11182E-13-1.73015E-13
 -1      2039 2.20396E+01 7.80625E-02 4.02112E-03 6.55451E-01 1.00735E-13-2.19673E-13
 -1      2040 2.18380E+01 1.14777E-01 3.98817E-04 8.36674E-01 1.53162E-13-1.33817E-13
 -1      2041 2.13169E+01 6.46005E-02-1.65878E-03 4.76406E-01 7.20461E-14-2.12117E-13
 -1      2042 2.15593E+01 7.13010E-02 4.16475E-03 5.26613E-01 1.04497E-13-1.62765E-13
 -1      2043 2.14180E+01 1.06680E-01 3.07850E-04 6.77276E-01 9.23315E-14 1.71934E-14
 -1      2044 2.09778E+01 5.37971E-02-1.00672E-03 3.68480E-01-8.97251E-14-3.46306E-13
 -1      2045 2.11699E+01 6.06932E-02 3.85396E-03 4.12065E-01-1.89701E-14-2.92356E-13
 -1      2046 2.10750E+01 9.14829E-02 8.95801E-05 5.33565E-01 4.70331E-14-1.12323E-13
 -1      2047 2.07127E+01 4.33235E-02-5.52995E-04 2.79701E-01 1.54498E-13-1.71322E-13
 -1      2048 2.08617E+01 4.95639E-02 3.34165E-03 3.15847E-01 7.32136E-14-2.37928E-13
 -1      2049 2.08009E+01 7.49001E-02-1.15627E-04 4.11568E-01-5.73261E-15-2.54485E-13
 -1      2050 2.05091E+01 3.41093E-02-2.53815E-04 2.08710E-01-1.67905E-13-2.30394E-13
 -1      2051 2.06225E+01 3.94016E-02 2.77932E-03 2.37823E-01 1.11371E-14-2.56897E-13
 -1      2052 2.05858E+01 5.95444E-02-2.59745E-04 3.11792E-01 4.71374E-14-2.63662E-15
 -1      2053 2.03553E+01 2.64135E-02-6.50590E-05 1.53065E-01-2.70421E-13-3.54004E-14
 -1      2054 2.04401E+01 3.07339E-02 2.24649E-03 1.76041E-01-2.50766E-13-2.24703E-13
 -1      2055 2.04201E+01 4.63816E-02-3.39275E-04 2.32218E-01-2.91908E-13-1.04257E-13
 -1      2056 2.02411E+01 2.01899E-02 4.88438E-05 1.10106E-01-1.50887E-13-4.76468E-14
 -1      2057 2.03035E+01 2.36283E-02 1.77820E-03 1.27964E-01-2.45464E-13-6.28116E-14
 -1      2058 2.02944E+01 3.55797E-02-3.67390E-04 1.69912E-01-2.05942E-13-2.26220E-14
 -1      2059 2.01580E+01 1.52744E-02 1.13873E-04 7.73420E-02 1.12713E-13-1.61456E-13
 -1      2060 2.02029E+01 1.79570E-02 1.38461E-03 9.10606E-02 5.98761E-15-1.29127E-13
 -1      2061 2.02009E+01 2.69639E-02-3.60480E-04 1.21822E-01 7.96072E-14-1.47923E-13
 -1      2062 2.00988E+01 1.14743E-02 1.47401E-04 5.25934E-02 2.06996E-13-8.75615E-14
 -1      2063 2.01304E+01 1.35283E-02 1.06301E-03 6.30424E-02 2.92957E-13-9.16375E-14
 -1      2064 2.01325E+01 2.02421E-02-3.33129E-04 8.51327E-02 2.53446E-13-5.68656E-14
 -1      2065 2.00580E+01 8.59927E-03 1.56009E-04 3.40178E-02 2.28685E-13-4.05684E-13
 -1      2066 2.00794E+01 1.01439E-02 8.03514E-04 4.19434E-02 2.25552E-13-1.71430E-13
 -1      2067 2.00837E+01 1.51038E-02-2.99255E-04 5.73950E-02 3.16049E-13 1.20057E-13
 -1      2068 2.00311E+01 6.46099E-03 1.44043E-04 2.01012E-02 1.52455E-13-3.78747E-13
 -1      2069 2.00448E+01 7.61474E-03 5.93822E-04 2.61280E-02 1.47753E-13-4.99012E-13
 -1      2070 2.00499E+01 1.12382E-02-2.74569E-04 3.65450E-02 2.09614E-13-2.15420E-13
 -1      2071 2.00145E+01 4.83441E-03 1.21722E-04 9.75161E-03 8.35265E-14-2.38733E-13
 -1      2072 2.00226E+01 5.70914E-03 4.26925E-04 1.43235E-02 1.14315E-13-2.57206E-13
 -1      2073 2.00273E+01 8.36449E-03-2.33687E-04 2.09628E-02 6.86153E-14-1.89886E-13
 -1      2074 2.00054E+01 3.39622E-03 1.47774E-04 2.36799E-03-1.52063E-13 9.26824E-14
 -1      2075 2.00093E+01 4.15343E-03 2.79222E-04 5.64328E-03-8.73022E-14-4.82153E-14
 -1      2076 2.00131E+01 6.09209E-03-1.84843E-04 9.50029E-03-1.83018E-13 9.72097E-14
 -1      2077 2.00019E+01 1.70341E-03 1.69643E-04-9.85928E-04-1.97113E-13 2.48804E-13
 -1      2078 2.00033E+01 2.96542E-03 1.65208E-04 7.60490E-04-1.07777E-13 2.76827E-13
 -1      2079 2.00060E+01 4.44800E-03-9.37335E-05 2.88239E-03-2.98234E-13 5.50949E-13
 -1      2080 2.00028E+01 2.11254E-03 5.14630E-05-3.20121E-04-2.19667E-13 6.14796E-13
 -1      2081 2.00022E+01 2.77876E-02-1.04631E-04 1.59828E-02-4.78611E-14-2.65415E-13
 -1      2082 2.00035E+01 2.26567E-02 2.06148E-04 1.42923E-02-4.32316E-15-3.43874E-13
 -1      2083 2.00045E+01 1.62036E-02-1.69302E-05 1.14993E-02-1.30914E-13-3.81339E-13
 -1      2084 2.00051E+01 1.22297E-02 1.89132E-04 8.64259E-03-7.87697E-14-3.93078E-14
 -1      2085 2.00060E+01 2.49462E-02-5.59650E-05 1.77609E-02-1.13769E-13-2.07169E-13
 -1      2086 2.00047E+01 7.65790E-03 5.60123E-05 5.30905E-03-1.10925E-13-4.57868E-14
 -1      2087 2.00042E+01 5.15465E-03 1.25767E-04 2.66283E-03-2.23107E-13 2.68615E-13
 -1      2088 2.00059E+01 6.55142E-03 6.21130E-05 4.08034E-03-3.05160E-13 4.43861E-13
 -1      2089 2.00070E+01 1.40574E-02-1.42744E-04 1.07297E-02-3.65699E-13-6.02673E-14
 -1      2090 1.99995E+01 3.99234E-02-1.88714E-04 1.72364E-02-3.41224E-13-4.32878E-13
 -1      2091 2.00010E+01 3.44374E-02 1.35924E-04 1.70402E-02-2.29105E-13-2.96497E-13
 -1      2092 2.00024E+01 3.79155E-02 1.47584E-05 2.19056E-02-1.93071E-13-5.22912E-13
 -1      2093 1.99968E+01 5.11478E-02-2.50081E-04 1.49521E-02-3.70831E-14-1.19214E-13
 -1      2094 1.99982E+01 4.61407E-02 2.59225E-05 1.62903E-02-2.42969E-13 3.19667E-14
 -1      2095 1.99985E+01 5.07435E-02 1.43311E-04 2.18995E-02-2.20738E-13-1.26834E-13
 -1      2096 1.99949E+01 5.93420E-02-2.74972E-04 9.63739E-03-1.34110E-13 1.90823E-14
 -1      2097 1.99958E+01 5.58661E-02-9.58893E-05 1.21895E-02 7.52532E-14-1.63564E-13
 -1      2098 1.99948E+01 6.16393E-02 2.37876E-04 1.75675E-02 5.70457E-14-7.30591E-14
 -1      2099 1.99941E+01 6.31457E-02-2.55613E-04 2.43589E-03-6.55825E-14-4.79642E-14
 -1      2100 1.99944E+01 6.18649E-02-1.98017E-04 5.65054E-03-1.43391E-13 7.07155E-14
 -1      2101 1.99923E+01 6.88586E-02 2.99297E-04 9.83021E-03 4.22383E-14-1.06112E-13
 -1      2102 1.99944E+01 6.19505E-02-1.92486E-04-5.19924E-03-2.29903E-13-3.65343E-14
 -1      2103 1.99941E+01 6.31028E-02-2.61893E-04-1.98109E-03-1.20833E-13 1.25602E-13
 -1      2104 1.99915E+01 7.13306E-02 3.18226E-04 2.37391E-04-8.21992E-14-4.93204E-14
 -1      2105 1.99958E+01 5.60024E-02-9.66703E-05-1.17572E-02-2.52505E-13-5.68375E-13
 -1      2106 1.99949E+01 5.93641E-02-2.77675E-04-9.18906E-03-2.56472E-13-2.91626E-13
 -1      2107 1.99923E+01 6.87033E-02 2.91558E-04-9.35252E-03-2.93906E-13-2.50985E-13
 -1      2108 1.99980E+01 4.65565E-02 1.93887E-05-1.58875E-02-9.28040E-15-1.74772E-13
 -1      2109 1.99967E+01 5.13661E-02-2.51056E-04-1.45063E-02-6.89562E-14-4.15737E-13
 -1      2110 1.99947E+01 6.14867E-02 2.31372E-04-1.70589E-02-1.15365E-13-2.88735E-13
 -1      2111 2.00007E+01 3.48884E-02 1.28736E-04-1.68714E-02-6.44561E-14 3.24657E-13
 -1      2112 1.99993E+01 4.04131E-02-1.89134E-04-1.69503E-02 1.77838E-15 1.56827E-13
 -1      2113 1.99981E+01 5.07499E-02 1.32812E-04-2.14812E-02 2.06607E-13-1.32375E-13
 -1      2114 2.00033E+01 2.30279E-02 1.94856E-04-1.43920E-02 1.91966E-14 1.99924E-13
 -1      2115 2.00020E+01 2.81945E-02-1.07469E-04-1.59618E-02-1.74613E-14 2.56606E-13
 -1      2116 2.00021E+01 3.79607E-02 2.26931E-05-2.17680E-02 1.71205E-13 3.39387E-13
 -1      2117 2.00046E+01 1.21821E-02-1.65006E-06-8.95674E-03-4.38770E-14 1.19558E-13
 -1      2118 2.00043E+01 1.66545E-02 5.07986E-07-1.17377E-02-5.11612E-14 2.65838E-13
 -1      2119 2.00056E+01 2.50803E-02-2.57390E-05-1.78847E-02-4.84214E-14 2.47719E-13
 -1      2120 9.04685E+00-5.65212E+00-2.04934E-01 5.89456E+00 3.71370E-13 4.57023E-13
 -1      2121 5.52456E+00-7.17196E+00-4.65133E-01 4.53954E+00 2.77056E-13 3.08142E-13
 -1      2122 1.15271E-01-7.48102E+00-4.28652E-01 3.63882E-01 1.47438E-13 6.84952E-13
 -1      2123 1.74864E-01-7.37548E+00-4.17131E-01-1.05568E+00-3.77198E-14 7.97640E-13
 -1      2124 2.86662E+00-6.74832E+00-3.32922E-01 3.52161E+00 2.46025E-13 2.07778E-13
 -1      2125 1.16198E+00-7.51687E+00-4.54920E-01 2.11579E+00 1.57624E-13 3.78808E-13
 -1      2126 1.78799E+01-3.69243E+00-5.00067E-02 6.71037E+00 4.38982E-13 1.82854E-13
 -1      2127 1.31861E+01-5.64888E+00-3.65713E-01 5.84460E+00 4.14335E-13 3.08281E-13
 -1      2128 2.72153E+01-9.12055E-01 1.49315E-01 6.04768E+00 6.23057E-13-3.83138E-13
 -1      2129 2.18531E+01-2.89455E+00-2.31151E-01 5.70172E+00 4.87499E-13-1.35669E-13
 -1      2130 1.95362E+01 4.02986E+00-2.71351E-02-1.66477E+00-1.98526E-13-7.60675E-13
 -1      2131 1.96637E+01 3.95642E+00-2.43906E-02-1.91543E+00-2.60429E-13-7.23952E-13
 -1      2132 1.99880E+01 3.25875E+00-1.36285E-02-1.87652E+00-3.11649E-13-6.47569E-13
 -1      2133 1.97135E+01 3.60878E+00-6.86033E-03-1.47950E+00-1.88459E-13-7.33205E-13
 -1      2134 3.94003E+01 5.35317E+00 2.96326E-01 1.19791E+00 4.84224E-13-6.50979E-13
 -1      2135 3.71305E+01 4.08379E+00 2.32368E-01 2.37925E+00 4.79866E-13-5.84754E-13
 -1      2136 4.22137E+01 7.07002E+00 4.95343E-01-2.30954E-02 5.53391E-13-8.25451E-13
 -1      2137 4.04622E+01 6.89308E+00 2.99093E-01 8.17633E-01 5.28022E-13-6.42292E-13
 -1      2138 4.05083E+01 6.52545E+00 3.29938E-01-1.34679E+00 7.81764E-13-8.66029E-13
 -1      2139 4.23656E+01 6.89964E+00 4.91035E-01-3.89343E-01 6.83620E-13-7.80515E-13
 -1      2140 3.78613E+01 8.06419E+00 4.44807E-01 2.40340E-02 6.11788E-13-3.80501E-13
 -1      2141 3.58768E+01 3.32726E+00 1.10013E-01-2.53338E+00 8.55066E-13-9.29368E-13
 -1      2142 3.89721E+01 4.81473E+00 3.55711E-01-1.64234E+00 8.16403E-13-7.26141E-13
 -1      2143 2.99805E+01-5.98700E-01-7.17161E-03-3.46345E+00 6.52423E-13-9.08662E-13
 -1      2144 3.44768E+01 1.68951E+00 3.38350E-01-3.59477E+00 8.00138E-13-9.39693E-13
 -1      2145 3.36841E+01 1.52764E+00 1.35471E-01-1.08620E-01 5.54057E-13-3.57603E-13
 -1      2146 2.05183E+01-3.79683E+00-2.40965E-01-5.76771E+00 6.23446E-13-1.08913E-12
 -1      2147 2.57287E+01-2.55928E+00-4.09855E-02-5.42664E+00 5.17031E-13-1.10906E-12
 -1      2148 1.26217E+01-5.93045E+00-3.11628E-01-5.95853E+00 3.76532E-13-1.03681E-12
 -1      2149 1.69474E+01-4.21752E+00-7.17890E-02-6.68135E+00 6.55032E-13-1.05077E-12
 -1      2150 2.10466E+01-5.30844E+00 3.31733E-03-5.84809E+00 1.51434E-13-7.43683E-13
 -1      2151 5.74072E+00-6.45711E+00-2.53660E-01-4.77860E+00-6.06737E-14-1.27073E-12
 -1      2152 9.14859E+00-5.62642E+00-1.16727E-01-6.08859E+00 2.53686E-13-1.28797E-12
 -1      2153 5.82965E-01-7.40023E+00-4.35579E-01-1.27441E+00-2.43250E-13-8.68861E-13
 -1      2154 2.02777E+00-6.41297E+00-2.89440E-01-3.03729E+00-2.84217E-14-1.14220E-12
 -1      2155 8.91766E-01-6.50896E+00-3.05308E-01 2.09260E+00-4.97158E-13-7.17759E-13
 -1      2156 3.04013E-01-7.05855E+00-3.85127E-01 4.17670E-01-2.46296E-13-7.03326E-13
 -1      2157 5.14663E+00-6.06829E+00-2.49399E-01 5.17451E+00-6.26055E-13-8.61811E-13
 -1      2158 2.73382E+00-6.90989E+00-3.68363E-01 3.82603E+00-4.49085E-13-7.84761E-13
 -1      2159 1.19749E+01-4.58055E+00-1.24023E-01 6.71779E+00-8.98615E-13-8.06771E-13
 -1      2160 8.31287E+00-6.28451E+00-3.76423E-01 5.71572E+00-6.21614E-13-8.99655E-13
 -1      2161 2.01341E+01-2.30744E+00 3.90935E-02 7.04912E+00-1.05860E-12-7.57505E-13
 -1      2162 1.55853E+01-4.25024E+00-3.01105E-01 6.34351E+00-1.04583E-12-6.28497E-13
 -1      2163 2.83592E+01 3.73822E-01 1.97020E-01 6.04429E+00-1.11711E-12-5.51115E-13
 -1      2164 2.36950E+01-1.42034E+00-1.32338E-01 5.92249E+00-1.13198E-12-6.93445E-13
 -1      2165 3.50689E+01 3.30964E+00 3.10679E-01 4.20362E+00-1.04989E-12-3.43059E-13
 -1      2166 3.09555E+01 1.90053E+00 3.71454E-02 4.68685E+00-1.14021E-12-5.04374E-13
 -1      2167 3.88562E+01 5.80181E+00 2.91436E-01 1.88338E+00-8.62643E-13-2.54685E-13
 -1      2168 3.65725E+01 4.90100E+00 2.09941E-01 3.07315E+00-1.02937E-12-4.04066E-13
 -1      2169 3.95201E+01 7.25324E+00 2.51005E-01 2.40286E-02-8.41827E-13-9.42232E-14
 -1      2170 3.88712E+01 6.97330E+00 2.36781E-01 1.05715E+00-8.41716E-13-1.89043E-13
 -1      2171 3.81374E+01 6.70386E+00 1.72591E-01-1.25100E+00-7.19647E-13 1.60372E-13
 -1      2172 3.96502E+01 7.13924E+00 2.87102E-01-3.18649E-01-7.41185E-13-6.59611E-14
 -1      2173 3.50641E+01 4.01075E+00 1.62767E-01-3.21568E+00-5.55847E-13 2.93099E-13
 -1      2174 3.73961E+01 5.13321E+00 2.15418E-01-2.01437E+00-5.66241E-13 1.91125E-13
 -1      2175 2.91043E+01 1.11138E+00-1.54030E-02-5.17012E+00-2.04420E-13 6.59028E-13
 -1      2176 3.35136E+01 2.61034E+00 2.72039E-01-4.82105E+00-4.84321E-13 4.28657E-13
 -1      2177 2.19224E+01-2.62778E+00-1.42304E-01-5.90959E+00-4.17444E-14 7.81486E-13
 -1      2178 2.65850E+01-5.06203E-01 1.84415E-01-6.25504E+00-6.29496E-14 8.28670E-13
 -1      2179 1.25483E+01-5.20635E+00-3.42869E-01-6.21079E+00-2.05946E-13 4.84335E-13
 -1      2180 1.72690E+01-3.42149E+00-4.63222E-02-7.11323E+00-1.84519E-13 7.88009E-13
 -1      2181 5.79289E+00-6.78413E+00-4.18914E-01-5.07505E+00-7.56062E-14 2.70922E-13
 -1      2182 9.02310E+00-5.24337E+00-1.80176E-01-6.23680E+00-2.03726E-13 2.32044E-13
 -1      2183 1.46593E+00-7.22917E+00-4.13674E-01-2.82191E+00 1.32061E-13 7.43905E-13
 -1      2184 3.22310E+00-6.34885E+00-2.83785E-01-4.17890E+00-5.49005E-14 5.49727E-13
 -1      2185 3.54968E+01 2.33419E+00 2.94022E-01 4.10340E+00 5.83054E-13-7.15095E-13
 -1      2186 3.05591E+01 7.20792E-01-2.16351E-03 4.51384E+00 6.64885E-13-4.60854E-13
 -1      2187 2.23030E+01-4.76210E+00-4.65613E-03 5.63653E+00 2.62179E-13-2.47385E-13
 -1      2188 2.07280E+01 1.10881E+00-2.02604E-02-1.58689E+00-4.32022E-13-1.31044E-13
 -1      2189 2.99908E+01-1.63955E+00 1.60567E-01 3.31174E+00 5.76483E-13-5.37348E-13
 -1      2190 3.47452E+01 2.55549E+00 2.71224E-01 7.00497E-01 5.48034E-13-6.81233E-13
 -1      2191 2.06308E+01 1.33308E+00-1.87978E-02-1.63997E+00-4.48089E-13-2.92185E-13
 -1      2192 6.05642E+00-5.51524E+00-1.71292E-01 5.08366E+00-1.36224E-13 2.16771E-13
 -1      2193 1.87787E+00-5.02808E+00-2.13959E-01 1.72190E+00-2.20282E-13 5.88696E-13
 -1      2194 2.00055E+01 1.06847E-02 6.76955E-05-7.78042E-03 4.68376E-14-1.39595E-14
 -1      2195 1.35018E+01-5.90683E+00-1.16145E-01 6.50693E+00 5.04596E-14 2.21725E-13
 -1      2196 2.08844E+00-4.86173E+00-1.92079E-01-2.50602E+00-5.50671E-14 7.77156E-13
 -1      2197 6.37189E+00-5.29124E+00-1.49468E-01-5.67427E+00-1.57652E-14 3.95933E-13
 -1      2198 1.30905E+01-5.49518E+00-8.79771E-02-6.97332E+00-2.00950E-14 4.42271E-13
 -1      2199 2.16594E+01-4.32443E+00 1.96835E-02-6.08742E+00 7.37188E-14 5.95302E-13
 -1      2200 2.88325E+01-1.31592E+00 1.25114E-01-3.69928E+00 1.21236E-13 3.90632E-13
 -1      2201 3.31331E+01 2.58624E+00 2.60246E-01-1.57073E+00-2.21073E-13-1.07248E-13
 -1      2202 3.49254E+01 6.22930E+00 2.59065E-01 4.29720E-02-5.91138E-13-2.53131E-13
 -1      2203 3.52871E+01 8.22505E+00 2.83470E-01 1.90824E-02-8.45213E-13-1.91940E-13
 -1      2204 3.54548E+01 6.97787E+00 2.81388E-01 6.73274E-02-9.11216E-13-1.71252E-13
 -1      2205 3.41649E+01 3.67850E+00 2.76395E-01 1.22328E+00-9.84657E-13-2.41362E-13
 -1      2206 3.02089E+01-2.95274E-01 1.80339E-01 3.20906E+00-9.24399E-13-1.58762E-13
 -1      2207 2.39081E+01-3.51784E+00 5.30874E-02 5.61292E+00-7.49678E-13-3.99791E-13
 -1      2208 1.62145E+01-5.27161E+00-7.25071E-02 6.91399E+00-4.87277E-13-4.80033E-13
 -1      2209 8.73353E+00-5.54709E+00-1.46111E-01 6.40600E+00-2.13607E-13-7.39131E-13
 -1      2210 3.23977E+00-4.82277E+00-1.44206E-01 3.58312E+00-1.85740E-13-8.28893E-13
 -1      2211 1.66373E+00-4.66527E+00-1.69810E-01-5.79498E-01-1.07796E-13-8.84515E-13
 -1      2212 1.32776E+01-5.81188E+00-9.76282E-02-6.58968E+00-7.45515E-14-1.05571E-12
 -1      2213 2.86712E+01-2.47590E+00 3.18587E-02-3.47644E+00 3.25018E-13-8.20177E-13
 -1      2214 3.01795E+01-2.61214E+00-1.59947E-01-1.04384E+00 1.50303E-13-3.56826E-13
 -1      2215 2.72314E+01-4.11283E+00 1.23773E-01-3.26737E+00 9.17044E-14-4.91773E-13
 -1      2216 3.66859E+01 5.83666E+00 3.08486E-01 4.47686E-01 6.47593E-13-3.64597E-13
 -1      2217 3.68096E+01 6.44728E+00 3.10656E-01-4.78992E-01 5.87919E-13-4.55358E-13
 -1      2218 5.66890E+00-4.96883E+00-8.19705E-02-4.75523E+00-8.73746E-14-1.28969E-12
 -1      2219 2.01741E+01 5.18021E-01 4.39251E-03 6.31687E-01 3.65218E-13 4.35426E-13
 -1      2220 2.04294E+01 7.08170E-01 2.08480E-02 9.28194E-01 4.03210E-13 5.03105E-13
 -1      2221 1.95585E+01 3.57267E+00-1.12403E-02-5.63938E-01 6.77704E-14-6.87471E-13
 -1      2222 1.95977E+01 3.52333E+00-1.01943E-02-7.42321E-01 6.67717E-15-7.12776E-13
 -1      2223 1.96481E+01 3.42834E+00-1.28727E-02-9.00950E-01-4.05857E-14-7.08968E-13
 -1      2224 1.97138E+01 3.34264E+00-1.22101E-02-1.08618E+00-1.08320E-13-7.15840E-13
 -1      2225 1.97868E+01 3.09451E+00 6.75918E-04-7.51038E-01-1.52104E-14-6.63711E-13
 -1      2226 1.95054E+01 3.66351E+00-9.57257E-03 9.54292E-02 2.38114E-13-6.24017E-13
 -1      2227 1.95046E+01 3.66427E+00-9.57778E-03-7.64181E-02 1.92498E-13-6.37951E-13
 -1      2228 1.95353E+01 3.62074E+00-9.58360E-03 4.25300E-01 3.16942E-13-5.67088E-13
 -1      2229 1.95154E+01 3.64516E+00-1.02023E-02 2.51674E-01 2.74781E-13-6.04788E-13
 -1      2230 1.96658E+01 3.29993E+00-4.13502E-04 1.60009E-01 2.39007E-13-5.83149E-13
 -1      2231 1.96042E+01 3.51633E+00-1.03852E-02 7.55689E-01 4.02642E-13-4.80224E-13
 -1      2232 1.95639E+01 3.56675E+00-1.13734E-02 5.80109E-01 3.51362E-13-5.29361E-13
 -1      2233 1.97080E+01 3.23077E+00-4.68767E-05 4.60805E-01 3.17839E-13-5.16619E-13
 -1      2234 1.97232E+01 3.33096E+00-1.26557E-02 1.09920E+00 4.90390E-13-3.63915E-13
 -1      2235 1.96563E+01 3.41896E+00-1.31132E-02 9.13980E-01 4.40068E-13-4.34252E-13
 -1      2236 1.97940E+01 3.08632E+00 6.30521E-04 7.62097E-01 4.03329E-13-4.20313E-13
 -1      2237 1.99086E+01 3.03177E+00-1.78300E-02 1.44156E+00 5.54243E-13-2.08777E-13
 -1      2238 1.98063E+01 3.17825E+00-1.54516E-02 1.25288E+00 5.09952E-13-2.97090E-13
 -1      2239 1.99330E+01 2.84659E+00 2.18899E-03 1.05889E+00 4.69908E-13-2.97937E-13
 -1      2240 2.01872E+01 2.55865E+00-2.81174E-02 1.74684E+00 5.81010E-13 1.98105E-15
 -1      2241 2.00368E+01 2.80308E+00-1.73023E-02 1.57179E+00 5.54820E-13-1.12788E-13
 -1      2242 2.01347E+01 2.47988E+00 5.92803E-03 1.32160E+00 5.20190E-13-1.40782E-13
 -1      2243 1.99244E+01 2.87274E-01 5.65809E-03 2.23012E-01 2.81703E-13 3.39289E-13
 -1      2244 2.00680E+01 3.83025E-01 2.02902E-02 3.88227E-01 3.10431E-13 4.06537E-13
 -1      2245 2.02441E+01 6.53304E-01-2.74290E-03 6.43624E-01 3.86132E-13 2.17264E-13
 -1      2246 2.04200E+01 8.70897E-01 1.30537E-02-9.49994E-01-3.57304E-13-3.25327E-13
 -1      2247 2.02202E+01 6.44242E-01-4.81231E-03-6.30153E-01-3.10708E-13-3.20168E-13
 -1      2248 3.08293E+01-1.81933E+00-9.41073E-02 1.37673E+00 5.61370E-13-5.67990E-13
 -1      2249 2.80406E+01-3.56334E+00-3.88120E-02 2.55598E+00 4.83835E-13-5.33407E-13
 -1      2250 2.01707E+01 4.93054E-01 1.78548E-02-4.12107E-01-2.70251E-13-2.80582E-13
 -1      2251 2.00397E+01 3.74977E-01 1.33004E-03-2.26968E-01-2.28005E-13-2.91511E-13
 -1      2252 2.02745E+01 7.54133E-01-9.54711E-03-6.18546E-01-2.90035E-13-3.58145E-13
 -1      2253 1.99885E+01 2.92240E-01 1.09933E-02-7.55024E-02-2.14789E-13-2.75337E-13
 -1      2254 1.99304E+01 2.26463E-01 1.86445E-03 3.54292E-02-1.81131E-13-3.06911E-13
 -1      2255 2.01339E+01 4.58524E-01-4.22530E-03-2.12858E-01-2.32203E-13-3.21001E-13
 -1      2256 1.99006E+01 1.82341E-01 6.45032E-03 1.35391E-01-1.59818E-13-3.00021E-13
 -1      2257 1.98931E+01 1.46498E-01 2.10411E-03 2.06692E-01-1.46378E-13-3.09934E-13
 -1      2258 2.00422E+01 2.81956E-01-4.11697E-03 5.85660E-02-1.87657E-13-2.98578E-13
 -1      2259 1.98864E+01 1.22497E-01 3.66977E-03 2.75439E-01-1.37448E-13-3.00429E-13
 -1      2260 1.99146E+01 1.03922E-01 2.25754E-03 3.24661E-01-1.14204E-13-3.00098E-13
 -1      2261 2.00016E+01 1.85603E-01-3.54128E-03 2.42863E-01-1.47376E-13-3.03743E-13
 -1      2262 1.99275E+01 9.17422E-02 1.98877E-03 3.75322E-01-1.14951E-13-3.05506E-13
 -1      2263 1.99819E+01 8.34710E-02 2.37666E-03 4.12883E-01-1.19403E-13-2.98912E-13
 -1      2264 2.00074E+01 1.34464E-01-2.85972E-03 3.73649E-01-1.18124E-13-2.86432E-13
 -1      2265 2.00112E+01 7.82042E-02 9.94127E-04 4.54071E-01-1.13778E-13-2.98277E-13
 -1      2266 2.00857E+01 7.56248E-02 2.43416E-03 4.86092E-01-9.57298E-14-3.08425E-13
 -1      2267 2.00511E+01 1.10156E-01-2.30430E-03 4.74177E-01-1.23087E-13-3.02958E-13
 -1      2268 2.01293E+01 7.36464E-02 4.49560E-04 5.22939E-01-1.36548E-13-3.15695E-13
 -1      2269 2.02201E+01 7.29807E-02 2.36997E-03 5.52438E-01-1.55066E-13-3.34487E-13
 -1      2270 2.01261E+01 1.00564E-01-1.92813E-03 5.59226E-01-1.44633E-13-2.96127E-13
 -1      2271 2.02770E+01 7.09639E-02 2.34168E-04 5.87122E-01-1.50095E-13-3.10950E-13
 -1      2272 2.03817E+01 6.84378E-02 2.08675E-03 6.14386E-01-1.37989E-13-3.29117E-13
 -1      2273 2.02288E+01 9.58713E-02-1.72458E-03 6.36795E-01-1.57130E-13-2.88006E-13
 -1      2274 2.04522E+01 6.27997E-02 2.92300E-04 6.46198E-01-9.49472E-14-3.18514E-13
 -1      2275 2.05686E+01 5.41689E-02 1.45183E-03 6.68704E-01-4.05506E-14-3.02010E-13
 -1      2276 2.03577E+01 8.64117E-02-1.67998E-03 7.08764E-01-1.15239E-13-2.62400E-13
 -1      2277 2.06543E+01 4.07904E-02 6.06720E-04 6.93790E-01 8.40382E-15-2.78862E-13
 -1      2278 2.07795E+01 2.11840E-02 3.08433E-04 7.05914E-01 4.22607E-14-2.17896E-13
 -1      2279 2.05138E+01 6.14758E-02-1.79067E-03 7.70751E-01-3.20571E-14-1.79023E-13
 -1      2280 2.08826E+01-4.51544E-03 1.17410E-03 7.16862E-01 1.34821E-14-2.36543E-13
 -1      2281 2.10123E+01-4.02295E-02-1.49455E-03 7.09655E-01 2.45287E-14-2.32649E-13
 -1      2282 2.06997E+01 8.98334E-03-2.05800E-03 8.11475E-01 1.48497E-14-9.46092E-14
 -1      2283 2.11358E+01-8.25643E-02 1.96228E-03 6.95191E-01 1.93428E-14-3.01737E-13
 -1      2284 2.12631E+01-1.38439E-01-4.03624E-03 6.56685E-01 3.03078E-15-2.86596E-13
 -1      2285 2.09195E+01-8.34834E-02-2.45752E-03 8.12043E-01-2.45916E-15-1.56579E-13
 -1      2286 2.14092E+01-1.99562E-01 2.83092E-03 6.02025E-01-2.92084E-15-2.22541E-13
 -1      2287 2.15240E+01-2.75621E-01-7.19086E-03 5.18852E-01-4.26835E-14-1.72527E-13
 -1      2288 2.11774E+01-2.25175E-01-2.86869E-03 7.45916E-01 1.68841E-14-1.33508E-13
 -1      2289 2.16910E+01-3.51901E-01 3.41794E-03 4.07749E-01-1.19656E-13-2.11204E-13
 -1      2290 2.17794E+01-4.39150E-01-1.04101E-02 2.69204E-01-1.54184E-13-1.56743E-13
 -1      2291 2.14739E+01-4.14710E-01-2.96127E-03 5.81030E-01-9.50059E-14-1.17609E-13
 -1      2292 2.19564E+01-5.15885E-01 3.01111E-03 8.94281E-02-1.31207E-13-1.59104E-13
 -1      2293 2.20011E+01-5.90153E-01-1.24098E-02-1.04927E-01-9.72633E-14-1.42000E-13
 -1      2294 2.17995E+01-6.27724E-01-2.08969E-03 2.86784E-01-1.53060E-13-1.35507E-13
 -1      2295 2.21617E+01-6.36604E-01 7.08792E-04-3.50500E-01-7.40579E-14-1.13842E-13
 -1      2296 2.21452E+01-6.55836E-01-1.11202E-02-5.79701E-01-2.57910E-14-1.07864E-13
 -1      2297 2.21232E+01-8.02256E-01 6.31472E-04-1.50074E-01-8.53155E-14-9.13683E-14
 -1      2298 2.22444E+01-6.27330E-01-4.10838E-03-8.56499E-01 6.79144E-16-1.13947E-13
 -1      2299 2.21571E+01-5.41506E-01-4.52620E-03-1.06809E+00 4.53591E-14-1.61267E-13
 -1      2300 2.23826E+01-8.33978E-01 5.50036E-03-6.96897E-01-3.66648E-14-7.34965E-14
 -1      2301 2.21448E+01-3.97320E-01-1.04355E-02-1.29603E+00 8.18325E-14-1.31212E-13
 -1      2302 2.19967E+01-1.80237E-01 6.85350E-03-1.40754E+00 9.75835E-14-1.21489E-13
 -1      2303 2.24905E+01-6.03428E-01 1.07836E-02-1.24078E+00 4.63229E-14-1.06141E-13
 -1      2304 2.18559E+01 7.72117E-02-1.50818E-02-1.47073E+00 6.65543E-14-1.70295E-13
 -1      2305 2.16864E+01 3.82034E-01 1.73261E-02-1.39904E+00 3.40270E-14-1.73545E-13
 -1      2306 2.23777E+01-5.60159E-02 1.15086E-02-1.57556E+00 5.22797E-14-1.45546E-13
 -1      2307 2.14798E+01 6.70464E-01-1.25537E-02-1.20491E+00-3.67332E-14-1.79374E-13
 -1      2308 2.13496E+01 9.34517E-01 1.89147E-02-9.24562E-01-7.13370E-14-1.34113E-13
 -1      2309 2.20748E+01 6.88298E-01 2.47887E-03-1.46512E+00-1.08813E-14-1.68712E-13
 -1      2310 2.12112E+01 1.11116E+00-4.79488E-04-4.94109E-01-8.37533E-14-1.63854E-13
 -1      2311 2.11755E+01 1.18902E+00 9.16574E-03-8.46540E-02 2.36313E-14-1.94098E-13
 -1      2312 2.17609E+01 1.32115E+00-1.00624E-02-8.10915E-01-9.85509E-14-1.28858E-13
 -1      2313 2.12093E+01 1.14843E+00 1.37505E-02 4.17571E-01-1.25004E-14-3.59826E-13
 -1      2314 2.12854E+01 9.92307E-01-5.46170E-03 7.97324E-01-8.14106E-15-3.59624E-13
 -1      2315 2.16641E+01 1.50628E+00-1.40560E-02 1.91213E-01-9.06978E-14-3.11445E-13
 -1      2316 2.14662E+01 7.59743E-01 1.97120E-02 1.15673E+00 8.00315E-15-3.69479E-13
 -1      2317 2.16208E+01 4.63681E-01-1.44191E-02 1.36703E+00 2.94144E-14-4.58941E-13
 -1      2318 2.18626E+01 1.13571E+00-5.42319E-03 1.11272E+00-5.52245E-14-4.75229E-13
 -1      2319 2.18185E+01 1.72322E-01 1.40376E-02 1.46553E+00 1.38776E-14-5.33983E-13
 -1      2320 2.19896E+01-1.10942E-01-1.39861E-02 1.46624E+00 1.10049E-13-5.16096E-13
 -1      2321 2.22037E+01 4.20617E-01 6.17554E-03 1.58092E+00-4.44365E-14-5.42490E-13
 -1      2322 2.20891E+01-3.31639E-01 2.51947E-03 1.33310E+00 1.54857E-13-6.92722E-13
 -1      2323 2.22225E+01-5.01041E-01-7.75280E-03 1.17807E+00 1.19126E-13-6.91122E-13
 -1      2324 2.24559E+01-2.76822E-01 1.21860E-02 1.51386E+00 5.77985E-14-6.12024E-13
 -1      2325 2.21929E+01-5.99887E-01-7.37634E-03 9.24044E-01 1.41149E-13-6.11947E-13
 -1      2326 2.22601E+01-6.41647E-01-1.67050E-03 7.01562E-01 1.29052E-13-5.06589E-13
 -1      2327 2.24916E+01-7.10846E-01 9.36188E-03 1.08275E+00 1.53012E-13-7.34496E-13
 -1      2328 2.21363E+01-6.36642E-01-1.20099E-02 4.33754E-01 4.60669E-14-4.14458E-13
 -1      2329 2.21360E+01-5.90471E-01 2.21525E-03 2.17337E-01 2.81439E-14-2.55152E-13
 -1      2330 2.23257E+01-8.32527E-01 3.68958E-03 5.27122E-01 1.48720E-13-5.02372E-13
 -1      2331 2.19696E+01-5.27288E-01-1.19047E-02-9.72691E-04-7.12371E-14-2.01873E-13
 -1      2332 2.19158E+01-4.42864E-01 3.75432E-03-1.70793E-01 3.02822E-14-1.59944E-13
 -1      2333 2.20422E+01-7.32108E-01-6.13244E-04 2.22852E-02 7.30230E-14-2.64314E-13
 -1      2334 2.17456E+01-3.62306E-01-9.29435E-03-3.18456E-01 2.86385E-14-2.32685E-13
 -1      2335 2.16568E+01-2.75506E-01 3.74467E-03-4.29734E-01 4.90894E-14-2.93318E-13
 -1      2336 2.17225E+01-5.30049E-01-2.63396E-03-3.51026E-01-7.03300E-14-1.36792E-13
 -1      2337 2.15030E+01-2.02196E-01-6.02017E-03-5.10918E-01 6.72129E-15-3.86754E-13
 -1      2338 2.13956E+01-1.31129E-01 3.05144E-03-5.68829E-01-4.20037E-14-3.76990E-13
 -1      2339 2.14174E+01-3.16493E-01-3.08505E-03-5.80643E-01-4.56258E-14-4.08865E-13
 -1      2340 2.12650E+01-7.52469E-02-3.07222E-03-5.98125E-01-9.41160E-14-3.48960E-13
 -1      2341 2.11518E+01-2.51502E-02 2.22375E-03-6.15040E-01-2.01218E-13-3.23679E-13
 -1      2342 2.11487E+01-1.38559E-01-2.81820E-03-6.88511E-01-1.10394E-13-3.58530E-13
 -1      2343 2.10442E+01 1.20746E-02-8.22987E-04-6.08744E-01-1.56369E-13-1.98180E-13
 -1      2344 2.09341E+01 4.28664E-02 1.51500E-03-5.98059E-01-5.58897E-14-2.07904E-13
 -1      2345 2.09213E+01-1.11128E-02-2.35463E-03-7.07214E-01-1.16098E-13-1.85410E-13
 -1      2346 2.08467E+01 6.43851E-02 6.91265E-04-5.70242E-01-4.18199E-14-8.15551E-14
 -1      2347 2.07452E+01 8.01785E-02 9.94012E-04-5.43406E-01-1.76969E-14 5.58355E-15
 -1      2348 2.07325E+01 6.87295E-02-1.92408E-03-6.68000E-01 5.89389E-14 1.46424E-14
 -1      2349 2.06745E+01 9.01365E-02 1.58205E-03-5.04719E-01-7.19448E-14-5.76256E-14
 -1      2350 2.05848E+01 9.55257E-02 6.43475E-04-4.70305E-01-2.84993E-14 6.01826E-14
 -1      2351 2.05771E+01 1.10989E-01-1.58815E-03-5.96087E-01-3.60684E-14 1.35110E-13
 -1      2352 2.05280E+01 9.77944E-02 2.00388E-03-4.28095E-01 5.58983E-14-3.71193E-14
 -1      2353 2.04514E+01 9.66538E-02 4.20778E-04-3.91908E-01 1.74135E-13-5.68981E-14
 -1      2354 2.04499E+01 1.26804E-01-1.33735E-03-5.09807E-01-5.16452E-14 2.29680E-13
 -1      2355 2.04059E+01 9.42985E-02 2.10422E-03-3.50818E-01 3.70172E-13-2.69882E-13
 -1      2356 2.03422E+01 8.95214E-02 2.84574E-04-3.16417E-01 3.51750E-13-8.54948E-14
 -1      2357 2.03467E+01 1.25762E-01-1.14430E-03-4.21389E-01 1.26312E-13-5.17516E-14
 -1      2358 2.03061E+01 8.47423E-02 2.00372E-03-2.79076E-01 2.04396E-13-2.83492E-14
 -1      2359 2.02545E+01 7.83162E-02 2.03284E-04-2.48374E-01 7.88733E-14 1.84735E-13
 -1      2360 2.02635E+01 1.15124E-01-9.85378E-04-3.38269E-01 3.19969E-13-8.35135E-14
 -1      2361 2.02261E+01 7.25801E-02 1.79227E-03-2.16010E-01-1.57369E-13 3.96100E-13
 -1      2362 2.01854E+01 6.57762E-02 1.55344E-04-1.89796E-01-9.30364E-14 4.55597E-13
 -1      2363 2.01971E+01 9.99405E-02-8.45666E-04-2.64407E-01 9.92403E-14 1.93834E-13
 -1      2364 2.01633E+01 5.99942E-02 1.53174E-03-1.62722E-01 1.20066E-14 4.52775E-13
 -1      2365 2.01319E+01 5.35625E-02 1.26428E-04-1.41075E-01 1.84898E-13 3.56028E-13
 -1      2366 2.01449E+01 8.34844E-02-7.18106E-04-2.01386E-01-2.44640E-14 6.90468E-13
 -1      2367 2.01149E+01 4.82533E-02 1.26208E-03-1.19056E-01 3.19880E-13 2.82672E-13
 -1      2368 2.00912E+01 4.25898E-02 1.08692E-04-1.01642E-01 3.76660E-13 1.56360E-13
 -1      2369 2.01043E+01 6.77141E-02-6.00432E-04-1.49284E-01 1.66871E-13 4.11567E-13
 -1      2370 2.00783E+01 3.80103E-02 1.00718E-03-8.41409E-02 2.46852E-13 3.62647E-14
 -1      2371 2.00610E+01 3.32692E-02 9.47913E-05-7.04221E-02 1.49342E-13 6.14368E-14
 -1      2372 2.00733E+01 5.36945E-02-4.87865E-04-1.07303E-01 2.15297E-13 2.58334E-13
 -1      2373 2.00513E+01 2.94815E-02 7.77779E-04-5.67798E-02 1.64636E-13 4.63108E-14
 -1      2374 2.00389E+01 2.56595E-02 8.88560E-05-4.61778E-02 8.96585E-15 1.54958E-13
 -1      2375 2.00498E+01 4.18294E-02-3.88412E-04-7.41940E-02 7.18004E-14 1.60786E-13
 -1      2376 2.00316E+01 2.24895E-02 5.51617E-04-3.57202E-02-1.67255E-13 2.67018E-13
 -1      2377 2.00232E+01 1.95871E-02 1.52584E-04-2.77629E-02-2.09943E-13 2.37236E-13
 -1      2378 2.00323E+01 3.21850E-02-2.80493E-04-4.86003E-02-1.08441E-14 2.36346E-13
 -1      2379 1.97641E+01 1.11300E-01 3.71702E-03-1.86147E-01 1.60027E-13 1.43132E-13
 -1      2380 1.97602E+01 1.37056E-01 7.21963E-03-1.23424E-01 1.82508E-13 2.01379E-13
 -1      2381 1.98076E+01 8.28349E-02 3.48594E-03-2.97325E-01 1.55973E-13 9.16056E-14
 -1      2382 1.97623E+01 9.43369E-02 4.09073E-03-2.52476E-01 1.59603E-13 1.12615E-13
 -1      2383 1.99037E+01 1.48408E-01-3.95867E-03-2.29689E-01 2.05528E-13-1.57807E-14
 -1      2384 1.99083E+01 7.42950E-02 3.63162E-03-3.85762E-01 1.23641E-13 7.21778E-14
 -1      2385 1.98320E+01 7.64009E-02 2.32678E-03-3.48098E-01 1.43767E-13 1.07047E-13
 -1      2386 1.99274E+01 1.14089E-01-3.23679E-03-3.59889E-01 1.53789E-13-1.41526E-14
 -1      2387 2.00562E+01 7.97451E-02 4.03793E-03-4.68997E-01 1.06178E-13 1.35896E-14
 -1      2388 1.99537E+01 7.50765E-02 1.32977E-03-4.31290E-01 1.11336E-13 6.33908E-14
 -1      2389 1.99989E+01 1.06077E-01-2.63962E-03-4.67053E-01 1.31968E-13-5.50468E-15
 -1      2390 2.02469E+01 9.56265E-02 4.63661E-03-5.59630E-01 4.39414E-14 6.90035E-14
 -1      2391 2.01194E+01 8.58456E-02 7.70263E-04-5.16646E-01 7.84030E-14 5.07411E-14
 -1      2392 2.01098E+01 1.16623E-01-2.23305E-03-5.70075E-01 7.89918E-14-3.25026E-14
 -1      2393 2.04805E+01 1.19054E-01 5.34730E-03-6.66794E-01 7.35206E-14 5.78446E-14
 -1      2394 2.03266E+01 1.05645E-01 4.71713E-04-6.14774E-01 6.48534E-14 6.75976E-14
 -1      2395 2.02553E+01 1.40834E-01-1.98687E-03-6.82636E-01 4.87982E-14-3.99539E-15
 -1      2396 2.07596E+01 1.46446E-01 6.02747E-03-7.96284E-01 4.44618E-14 2.18487E-14
 -1      2397 2.05764E+01 1.31433E-01 3.29959E-04-7.33078E-01 8.20508E-14 2.05559E-14
 -1      2398 2.04340E+01 1.74359E-01-1.86076E-03-8.14436E-01 7.96149E-14-8.18874E-14
 -1      2399 2.10884E+01 1.71821E-01 6.42317E-03-9.49376E-01 7.55793E-14-4.23400E-15
 -1      2400 2.08728E+01 1.58736E-01 2.88894E-04-8.75276E-01 5.20356E-14 3.30285E-14
 -1      2401 2.06463E+01 2.11367E-01-1.84698E-03-9.71121E-01 5.08067E-14-6.23620E-14
 -1      2402 2.14715E+01 1.84314E-01 6.11280E-03-1.11997E+00-1.82697E-14 9.85431E-16
 -1      2403 2.12212E+01 1.79614E-01 3.50180E-04-1.03947E+00 3.84131E-14 1.24328E-14
 -1      2404 2.08951E+01 2.41940E-01-2.01334E-03-1.15285E+00 2.66941E-14-5.26836E-14
 -1      2405 2.19133E+01 1.64759E-01 4.46153E-03-1.28945E+00-6.45582E-14 4.43072E-14
 -1      2406 2.16287E+01 1.79715E-01 6.11990E-04-1.21428E+00-4.48480E-14 3.01689E-14
 -1      2407 2.11862E+01 2.48372E-01-2.56536E-03-1.35114E+00-4.05116E-14-7.93857E-14
 -1      2408 2.24175E+01 8.22205E-02 6.39050E-04-1.41901E+00-3.01917E-14 1.44912E-14
 -1      2409 2.21041E+01 1.34591E-01 1.33100E-03-1.37233E+00-3.04890E-14 3.40429E-14
 -1      2410 2.15309E+01 2.00438E-01-3.91596E-03-1.54336E+00-4.16903E-14-8.46914E-14
 -1      2411 2.29876E+01-1.05630E-01-6.12322E-03-1.44031E+00 7.89722E-14 1.37429E-14
 -1      2412 2.26589E+01 7.23744E-03 2.95338E-03-1.46104E+00 2.69086E-14 9.93823E-15
 -1      2413 2.19510E+01 5.16825E-02-6.67252E-03-1.68458E+00 2.05208E-14-1.14068E-13
 -1      2414 2.36249E+01-4.38043E-01-1.58713E-02-1.25014E+00 4.84942E-15 1.05116E-13
 -1      2415 2.33066E+01-2.46610E-01 6.02942E-03-1.39276E+00 6.69230E-14 1.17673E-13
 -1      2416 2.24855E+01-2.56216E-01-1.12164E-02-1.69725E+00 6.81204E-15 3.40116E-14
 -1      2417 2.43162E+01-9.03432E-01-2.66963E-02-7.23275E-01-1.22319E-13 2.52149E-13
 -1      2418 2.40519E+01-6.51109E-01 1.01607E-02-1.04336E+00-6.06694E-14 1.93150E-13
 -1      2419 2.31897E+01-7.64210E-01-1.65977E-02-1.46330E+00-1.18293E-13 2.10756E-13
 -1      2420 2.49981E+01-1.34517E+00-3.36348E-02 2.23669E-01-1.87584E-13 4.05192E-13
 -1      2421 2.48536E+01-1.13933E+00 1.12052E-02-2.85219E-01-1.64447E-13 3.43700E-13
 -1      2422 2.41082E+01-1.41364E+00-1.93188E-02-8.34882E-01-2.27444E-13 3.19752E-13
 -1      2423 2.55052E+01-1.37120E+00-2.95515E-02 1.47866E+00-1.09291E-13 3.77654E-13
 -1      2424 2.55561E+01-1.44408E+00-9.50501E-04 8.98146E-01-1.04104E-13 4.43680E-13
 -1      2425 2.51884E+01-1.91161E+00-1.59426E-02 2.89022E-01-1.79666E-13 4.11083E-13
 -1      2426 2.55783E+01-4.80852E-01-8.72152E-03 2.50102E+00 1.67498E-13 3.34587E-13
 -1      2427 2.58468E+01-1.05372E+00-3.26968E-02 2.17951E+00-3.20898E-14 3.61310E-13
 -1      2428 2.61416E+01-1.66820E+00-1.94822E-02 1.77062E+00-2.63851E-14 3.32177E-13
 -1      2429 2.51486E+01 1.21949E+00-5.97294E-03 2.41141E+00 3.22006E-13 3.72969E-13
 -1      2430 2.55178E+01 3.01798E-01-7.34274E-02 2.70314E+00 2.76612E-13 3.36986E-13
 -1      2431 2.65252E+01-9.44188E-02-4.50380E-02 2.86592E+00 1.84686E-13 3.35801E-13
 -1      2432 2.46673E+01 2.50687E+00-4.55386E-02 7.26122E-01 2.45179E-13 2.70232E-13
 -1      2433 2.48489E+01 2.01683E+00-8.83286E-02 1.63816E+00 3.26655E-13 3.57877E-13
 -1      2434 2.62611E+01 2.19569E+00-4.53301E-02 2.32940E+00 3.24463E-13 5.24601E-13
 -1      2435 2.48283E+01 2.08556E+00-8.40868E-02-1.54747E+00 1.06616E-13 1.98487E-13
 -1      2436 2.46475E+01 2.53357E+00-5.02356E-02-6.20159E-01 2.00034E-13 2.40215E-13
 -1      2437 2.59765E+01 3.45827E+00-6.49236E-02 8.77867E-02 2.95194E-13 3.39458E-13
 -1      2438 2.55086E+01 4.07398E-01-6.71887E-02-2.70309E+00 8.60076E-14-6.39423E-14
 -1      2439 2.51159E+01 1.30537E+00-7.67235E-03-2.37821E+00 8.88734E-14 2.94812E-14
 -1      2440 2.62496E+01 2.38163E+00-6.21032E-02-2.25201E+00 1.96398E-13 2.41453E-13
 -1      2441 2.58862E+01-1.00079E+00-2.40440E-02-2.25904E+00 1.51129E-13-3.23396E-13
 -1      2442 2.55602E+01-4.13694E-01-1.63296E-02-2.54534E+00 1.58082E-13-1.85045E-13
 -1      2443 2.65394E+01-8.22543E-04-3.84152E-02-2.80583E+00 2.41016E-13-1.31582E-13
 -1      2444 2.56121E+01-1.42094E+00 5.83644E-03-9.99505E-01 6.77501E-14-3.25819E-13
 -1      2445 2.55274E+01-1.34409E+00-3.07225E-02-1.53674E+00 5.96879E-14-3.84776E-13
 -1      2446 2.61832E+01-1.67017E+00-3.35061E-02-1.80372E+00 2.08959E-13-3.99724E-13
 -1      2447 2.49258E+01-1.14879E+00 1.42330E-02 2.00075E-01 1.84272E-13-2.75776E-13
 -1      2448 2.50584E+01-1.34924E+00-3.07162E-02-2.86277E-01 1.22539E-13-2.52823E-13
 -1      2449 2.52509E+01-1.95446E+00-2.64755E-02-3.52668E-01 4.53379E-14-3.66095E-13
 -1      2450 2.41301E+01-6.67039E-01 9.43092E-03 9.83152E-01 1.33613E-13-1.65417E-13
 -1      2451 2.43951E+01-9.16244E-01-2.29557E-02 6.69530E-01 2.46031E-13-1.60863E-13
 -1      2452 2.41846E+01-1.45525E+00-2.17609E-02 7.78593E-01 1.71510E-13-3.91533E-13
 -1      2453 2.33944E+01-2.56429E-01 4.32678E-03 1.34543E+00 1.47401E-13-3.78939E-13
 -1      2454 2.37138E+01-4.44754E-01-1.27826E-02 1.20159E+00 1.27023E-13-1.88283E-13
 -1      2455 2.32689E+01-7.80471E-01-1.38824E-02 1.41333E+00 1.06224E-13-3.79094E-13
 -1      2456 2.27614E+01 6.58110E-03 1.41694E-03 1.41561E+00 1.45903E-13-5.15957E-13
 -1      2457 2.30866E+01-1.05054E-01-4.39827E-03 1.39167E+00 1.69425E-13-4.38001E-13
 -1      2458 2.25691E+01-2.54098E-01-6.99345E-03 1.64564E+00 2.29971E-13-3.99612E-13
 -1      2459 2.22266E+01 1.42282E-01 2.44197E-04 1.31956E+00-9.57626E-14-3.27355E-13
 -1      2460 2.25309E+01 8.95028E-02 1.13606E-03 1.36407E+00-4.04866E-14-4.30112E-13
 -1      2461 2.20434E+01 6.71301E-02-2.45800E-03 1.62512E+00 2.62732E-14-3.36507E-13
 -1      2462 2.17767E+01 1.93787E-01 7.88556E-06 1.14754E+00-9.79507E-14-1.99232E-13
 -1      2463 2.20467E+01 1.77482E-01 4.17502E-03 1.22275E+00-1.19481E-13-2.60805E-13
 -1      2464 2.16371E+01 2.25065E-01-1.91990E-04 1.47057E+00-1.29491E-13-2.16101E-13
 -1      2465 2.14004E+01 1.98107E-01 1.34655E-04 9.54460E-01 6.02819E-14 4.01890E-14
 -1      2466 2.16310E+01 2.01181E-01 5.44668E-03 1.03732E+00-2.90993E-14-2.01754E-13
 -1      2467 2.13114E+01 2.79015E-01 6.36545E-04 1.26079E+00-1.09172E-13-1.70705E-13
 -1      2468 2.10886E+01 1.79846E-01 3.27427E-04 7.69577E-01 2.07777E-15 1.29110E-13
 -1      2469 2.12799E+01 1.91578E-01 5.62460E-03 8.47955E-01 9.68973E-14 2.28395E-13
 -1      2470 2.10434E+01 2.76207E-01 7.40150E-04 1.04199E+00-3.60937E-14 1.26288E-13
 -1      2471 2.08337E+01 1.53216E-01 4.73355E-04 6.06155E-01 3.72705E-14 1.75320E-13
 -1      2472 2.09887E+01 1.67652E-01 5.20983E-03 6.74754E-01 7.09396E-14 1.87993E-13
 -1      2473 2.08211E+01 2.47059E-01 5.56883E-04 8.38273E-01 4.61616E-14 2.65273E-13
 -1      2474 2.06283E+01 1.25580E-01 5.48955E-04 4.68395E-01-6.85802E-14 1.55183E-13
 -1      2475 2.07514E+01 1.39749E-01 4.53157E-03 5.25729E-01-5.39011E-14 2.46714E-13
 -1      2476 2.06374E+01 2.08852E-01 3.11571E-04 6.60210E-01 2.11947E-14 4.78000E-13
 -1      2477 2.04655E+01 1.00310E-01 5.64910E-04 3.55828E-01 5.16750E-14 1.53515E-13
 -1      2478 2.05615E+01 1.12925E-01 3.78487E-03 4.02324E-01 1.31503E-13 1.71498E-13
 -1      2479 2.04872E+01 1.70430E-01 9.95370E-05 5.10658E-01-6.73193E-14 4.71565E-13
 -1      2480 2.03385E+01 7.86440E-02 5.40183E-04 2.65862E-01-2.35345E-13-1.68750E-14
 -1      2481 2.04120E+01 8.92971E-02 3.07293E-03 3.02772E-01-8.45074E-14 5.24437E-14
 -1      2482 2.03662E+01 1.35767E-01-5.15006E-05 3.88468E-01 1.07846E-13 3.24887E-13
 -1      2483 2.02409E+01 6.07674E-02 4.92284E-04 1.95170E-01-1.43617E-13-1.51858E-13
 -1      2484 2.02964E+01 6.94708E-02 2.44233E-03 2.23999E-01-2.47828E-13-1.11965E-13
 -1      2485 2.02702E+01 1.06246E-01-1.43893E-04 2.90660E-01-1.40321E-13 1.38748E-14
 -1      2486 2.01674E+01 4.64014E-02 4.34392E-04 1.40386E-01 1.88486E-13-1.65123E-13
 -1      2487 2.02084E+01 5.33436E-02 1.90757E-03 1.62612E-01-2.09388E-14-1.27505E-13
 -1      2488 2.01954E+01 8.19813E-02-1.90172E-04 2.13636E-01-9.20711E-14-5.38359E-14
 -1      2489 2.01129E+01 3.50980E-02 3.73820E-04 9.84215E-02 2.26901E-13 1.74373E-13
 -1      2490 2.01426E+01 4.05249E-02 1.46625E-03 1.15378E-01 2.25086E-13 6.46589E-14
 -1      2491 2.01382E+01 6.25324E-02-2.03714E-04 1.53804E-01 4.82789E-14 1.84640E-13
 -1      2492 2.00734E+01 2.63674E-02 3.12491E-04 6.65750E-02 3.49569E-13 1.59955E-13
 -1      2493 2.00944E+01 3.05488E-02 1.11163E-03 7.94230E-02 3.83768E-13 3.11917E-13
 -1      2494 2.00950E+01 4.72427E-02-2.04408E-04 1.07877E-01 1.80702E-13 2.80268E-13
 -1      2495 2.00454E+01 1.97998E-02 2.23698E-04 4.25863E-02 2.08082E-13 1.45374E-14
 -1      2496 2.00599E+01 2.29764E-02 8.31203E-04 5.23202E-02 3.20839E-13 6.11220E-14
 -1      2497 2.00632E+01 3.53930E-02-2.24506E-04 7.31535E-02 4.55562E-13 3.14352E-13
 -1      2498 2.00262E+01 1.46176E-02 1.56496E-04 2.46427E-02 3.24565E-14 1.08568E-13
 -1      2499 2.00358E+01 1.72025E-02 6.35028E-04 3.19239E-02 8.73329E-14 5.34114E-14
 -1      2500 2.00401E+01 2.69006E-02-7.78512E-05 4.71207E-02 1.24900E-13 2.73582E-13
 -1      2501 2.00132E+01 1.06065E-02 1.31576E-04 1.17616E-02-4.65285E-13 4.22640E-13
 -1      2502 2.00195E+01 1.27453E-02 5.29294E-04 1.71262E-02-1.20943E-13 1.81961E-13
 -1      2503 2.00234E+01 1.86517E-02-4.42033E-04 2.71042E-02-5.21258E-14 2.63085E-13
 -1      2504 2.00084E+01 8.00169E-03 2.67953E-04 6.18438E-03-4.55985E-13 2.73156E-13
 -1      2505 1.99950E+01 6.16243E-02-3.43828E-04 2.69835E-02 2.17904E-14 8.93543E-14
 -1      2506 1.99984E+01 5.61757E-02 1.65357E-04 2.83717E-02 3.33498E-14-3.24311E-13
 -1      2507 1.99894E+01 7.25594E-02-3.45279E-04 2.01058E-02 1.47792E-13-7.77318E-14
 -1      2508 1.99921E+01 6.84198E-02 4.01948E-05 2.36392E-02 5.58243E-14 2.59070E-13
 -1      2509 1.99915E+01 7.50584E-02 2.67810E-04 3.04709E-02 1.75689E-13 1.45789E-13
 -1      2510 2.00077E+01 3.33130E-02-2.02915E-04 2.56503E-02-1.33422E-13-3.16086E-13
 -1      2511 2.00105E+01 2.75402E-02 2.90499E-04 2.27616E-02-1.85876E-13-1.80459E-13
 -1      2512 2.00018E+01 4.78278E-02-2.63955E-04 2.89015E-02-2.46906E-13-5.69686E-13
 -1      2513 2.00051E+01 4.19695E-02 2.66171E-04 2.77626E-02-1.72816E-13-5.18081E-13
 -1      2514 2.00076E+01 4.38766E-02-1.73178E-04 3.30559E-02-1.66128E-13-4.73581E-13
 -1      2515 2.00001E+01 6.04818E-02 1.88928E-04 3.49578E-02 9.23514E-14-2.31077E-13
 -1      2516 1.99860E+01 7.91472E-02-2.96892E-04 9.59527E-03 4.44138E-14-1.92453E-13
 -1      2517 1.99874E+01 7.69297E-02-9.59974E-05 1.45794E-02 1.89987E-13-3.03918E-13
 -1      2518 1.99849E+01 8.58029E-02 3.43510E-04 2.07059E-02 1.53950E-13-1.27375E-13
 -1      2519 1.99853E+01 8.05145E-02-2.06187E-04-2.59295E-03-1.11151E-13-5.73278E-14
 -1      2520 1.99853E+01 8.05448E-02-2.17271E-04 2.89458E-03-8.43774E-14-5.31953E-14
 -1      2521 1.99813E+01 9.13392E-02 3.79873E-04 7.35549E-03 3.42544E-14-2.37241E-13
 -1      2522 1.99874E+01 7.65175E-02-8.92004E-05-1.42383E-02-3.06271E-13-3.39101E-13
 -1      2523 1.99860E+01 7.87921E-02-3.02036E-04-9.27148E-03-2.15225E-13-2.29067E-13
 -1      2524 1.99813E+01 9.10061E-02 3.71549E-04-7.21076E-03-2.10791E-13-2.34200E-13
 -1      2525 1.99919E+01 6.79552E-02 4.16471E-05-2.31220E-02-2.26012E-14-2.73112E-13
 -1      2526 1.99893E+01 7.20123E-02-3.43682E-04-1.96313E-02-1.01882E-13-2.81273E-13
 -1      2527 1.99848E+01 8.49783E-02 3.28060E-04-2.03653E-02-9.24899E-14-9.15115E-14
 -1      2528 1.99980E+01 5.56958E-02 1.52137E-04-2.79475E-02 2.09243E-13 5.58297E-14
 -1      2529 1.99947E+01 6.11269E-02-3.33905E-04-2.64737E-02 1.66980E-13-1.38776E-13
 -1      2530 1.99912E+01 7.40444E-02 2.36791E-04-2.99684E-02 4.47676E-14-2.94085E-14
 -1      2531 2.00045E+01 4.13933E-02 1.99632E-04-2.77061E-02 8.08058E-14 2.68667E-13
 -1      2532 2.00012E+01 4.74944E-02-2.56109E-04-2.86102E-02 1.90735E-13 2.14601E-13
 -1      2533 1.99994E+01 5.95223E-02 1.35677E-04-3.44395E-02 1.34221E-13 1.01226E-13
 -1      2534 2.00098E+01 2.70070E-02 2.12053E-04-2.26542E-02-1.32455E-13 2.54536E-13
 -1      2535 2.00073E+01 3.29647E-02-1.46893E-04-2.56187E-02-7.91037E-14 3.18620E-13
 -1      2536 2.00074E+01 4.30720E-02-6.46993E-05-3.30844E-02-2.11058E-14 1.02901E-13
 -1      2537 3.97364E+00-3.15239E+00 5.23949E-02 2.87566E+00-5.23553E-13 3.59490E-13
 -1      2538 2.92158E+00-3.01754E+00 5.91059E-02 6.57564E-01-3.81703E-13 6.61138E-13
 -1      2539 1.72202E+01-5.57464E+00-2.70553E-02 6.65962E+00-3.29736E-14-2.14967E-14
 -1      2540 1.30617E+01-5.32452E+00 3.77104E-02 6.44863E+00-1.57652E-13 1.94011E-13
 -1      2541 1.97951E+01 1.71238E-01 4.51536E-03-2.63772E-02 2.24368E-13 2.49140E-13
 -1      2542 1.98505E+01 2.21200E-01 1.25921E-02 7.17281E-02 2.49049E-13 3.07040E-13
 -1      2543 1.99405E+01 2.23553E-01-4.50416E-03-4.93453E-02 2.50596E-13 8.58387E-14
 -1      2544 2.00090E+01 1.37553E-02 2.48987E-04-1.15393E-02 4.72187E-14 8.98629E-14
 -1      2545 2.91605E+00-3.05902E+00 6.60023E-02-1.23486E+00-1.77323E-13 6.61970E-13
 -1      2546 4.00102E+00-3.06126E+00 4.30036E-02-3.43318E+00-4.95715E-14 6.76348E-13
 -1      2547 4.66399E+00-1.73585E+00 1.57487E-01-2.02685E-01-2.97545E-13 4.70846E-13
 -1      2548 9.10474E+00-4.45096E+00 1.76401E-02 6.09253E+00-2.61458E-13 2.77917E-13
 -1      2549 6.31002E+00-3.87328E+00 5.93675E-02 4.65196E+00-4.12531E-13 2.50522E-13
 -1      2550 2.05568E+01 1.96138E+00-1.35326E-02-1.85579E+00-4.18627E-13-4.39832E-13
 -1      2551 2.04298E+01 1.22613E+00-5.69613E-03-1.24040E+00-3.98138E-13-3.86518E-13
 -1      2552 2.04001E+01 1.39185E+00 4.87205E-03-1.17901E+00-3.53554E-13-4.32959E-13
 -1      2553 2.03032E+01 2.39509E+00-5.42065E-03-1.79720E+00-3.94399E-13-5.26563E-13
 -1      2554 6.72609E+00-3.75937E+00 8.74896E-02-5.37508E+00 1.52239E-13 5.18280E-13
 -1      2555 9.43020E+00-4.37016E+00 2.89693E-02-6.65710E+00 1.01030E-14 2.20268E-13
 -1      2556 1.95129E+01 3.64793E+00-1.01486E-02-2.32725E-01 1.52769E-13-6.49611E-13
 -1      2557 1.95310E+01 3.62533E+00-9.51176E-03-4.06255E-01 1.00946E-13-6.70265E-13
 -1      2558 1.97031E+01 3.23571E+00-1.63468E-04-4.46453E-01 7.81104E-14-6.37557E-13
 -1      2559 1.96641E+01 3.30176E+00-4.52530E-04-1.42703E-01 1.60844E-13-6.05229E-13
 -1      2560 3.34497E+01 6.41320E+00-1.26267E-01-9.57245E-01 4.80782E-13-1.63966E-13
 -1      2561 3.28668E+01 4.94424E+00-9.84341E-02-1.49763E+00 5.47118E-13-2.92766E-13
 -1      2562 5.06197E+00-3.49352E+00 7.83816E-02-3.67490E+00-7.15539E-14-1.14064E-12
 -1      2563 8.41686E+00-3.77271E+00 6.00244E-02-5.53455E+00-1.18572E-13-1.25822E-12
 -1      2564 3.35782E+01 6.90555E+00-1.26081E-01 5.33820E-01 5.77094E-13-4.38677E-14
 -1      2565 3.32900E+01 7.06198E+00-1.68313E-01-1.09390E-01 5.63827E-13-4.62373E-14
 -1      2566 3.25100E+01 3.98142E+00-1.53867E-01 1.55662E+00 5.66047E-13-1.73195E-14
 -1      2567 3.36399E+01 5.86061E+00-1.07285E-01 1.15123E+00 5.97633E-13-5.63993E-14
 -1      2568 3.09185E+01 5.76862E+00-2.76170E-02 1.36499E+00 5.57276E-13 2.17396E-13
 -1      2569 3.11413E+01-2.18795E-01-1.26531E-01 7.42208E-01 3.03285E-13-3.13360E-14
 -1      2570 3.23410E+01 1.80160E+00-1.05648E-01 1.26444E+00 4.60187E-13-2.40363E-14
 -1      2571 2.02296E+01-5.73372E+00 2.07308E-02-5.74274E+00-4.57967E-15-5.48908E-13
 -1      2572 2.35452E+01-5.32606E+00-3.67577E-02-5.14014E+00 5.95357E-14-5.23886E-13
 -1      2573 1.29918E+01-4.85982E+00 8.20050E-02-6.46484E+00-1.71058E-13-9.60010E-13
 -1      2574 1.66704E+01-5.47436E+00 2.73379E-02-6.66906E+00-1.10301E-13-7.64791E-13
 -1      2575 1.96094E+01-5.49275E+00 7.17061E-02-5.82578E+00-1.91375E-13-6.19798E-13
 -1      2576 2.95365E+00-2.74913E+00 6.19439E-02 3.35891E-01-3.30656E-14-7.62668E-13
 -1      2577 3.34518E+00-3.05565E+00 4.51460E-02-1.91034E+00 1.31700E-14-9.26592E-13
 -1      2578 5.73074E+00-3.39340E+00 4.04492E-02 4.92282E+00-5.16254E-14-7.93643E-13
 -1      2579 3.92155E+00-2.86608E+00 9.17211E-02 2.74293E+00-6.32966E-14-6.77569E-13
 -1      2580 1.22701E+01-4.80399E+00 2.44823E-02 7.15245E+00-3.06422E-14-5.16268E-13
 -1      2581 8.96192E+00-4.28961E+00 7.40933E-02 6.25353E+00 1.84297E-14-6.43346E-13
 -1      2582 1.94716E+01-5.13214E+00 1.29325E-03 6.64848E+00-2.30482E-13-2.63817E-13
 -1      2583 1.58456E+01-5.36323E+00 2.07058E-02 6.85796E+00-5.38458E-14-3.30831E-13
 -1      2584 2.55967E+01-3.88816E+00-7.27451E-02 4.51441E+00-4.83058E-13-6.79734E-14
 -1      2585 2.23664E+01-4.87682E+00-1.41359E-02 5.45422E+00-3.23214E-13-2.28706E-13
 -1      2586 2.18772E+01-5.26671E+00 7.45679E-02 5.56540E+00 2.42306E-14-1.09107E-13
 -1      2587 3.03637E+01-4.77146E-01-8.81377E-02 1.45756E+00-7.23707E-13 3.38063E-14
 -1      2588 2.83145E+01-2.20322E+00-1.63799E-02 2.44474E+00-7.03770E-13 6.83342E-14
 -1      2589 3.25869E+01 3.69774E+00-1.20642E-01-2.09667E-01-8.47850E-13-7.15261E-14
 -1      2590 3.15617E+01 1.90074E+00-5.68721E-02 3.70140E-01-8.48571E-13-3.76366E-14
 -1      2591 3.20461E+01 6.78686E+00-1.82759E-01-7.79525E-01-8.64919E-13-7.00134E-14
 -1      2592 3.24997E+01 5.51343E+00-6.67278E-02-7.31146E-01-8.30697E-13-3.99680E-14
 -1      2593 3.13331E+01 7.30639E+00-1.65288E-01 4.31133E-01-7.11375E-13-3.03257E-13
 -1      2594 3.12978E+01 7.45144E+00-1.71767E-01-1.51945E-01-7.99083E-13-2.70520E-13
 -1      2595 3.13424E+01 4.57506E+00-1.12124E-01 1.02264E+00-3.19522E-13-4.93383E-13
 -1      2596 3.15367E+01 6.18410E+00-1.85244E-01 9.75337E-01-5.19029E-13-4.58633E-13
 -1      2597 3.06394E+01 3.49866E-01-6.05214E-02-8.01767E-01 4.21191E-14-3.52607E-13
 -1      2598 3.14469E+01 2.09274E+00-1.75564E-01 2.40830E-01-1.19016E-13-4.46559E-13
 -1      2599 2.72365E+01-3.06964E+00-5.48282E-03-2.92948E+00 2.47191E-13 9.20652E-14
 -1      2600 2.94808E+01-1.42982E+00-7.14373E-02-2.08579E+00 1.63265E-13-1.26676E-13
 -1      2601 2.93233E+01-1.16626E+00 2.14928E-02-2.51143E-01 2.53166E-13-5.86198E-13
 -1      2602 2.01936E+01-5.19181E+00 3.18255E-02-6.08517E+00 7.44960E-14 3.89189E-13
 -1      2603 2.41680E+01-4.47524E+00-8.49514E-02-5.08056E+00 1.58096E-13 3.50081E-13
 -1      2604 1.26710E+01-5.10287E+00 3.38827E-02-6.91183E+00 3.14193E-14 3.28113E-13
 -1      2605 1.61820E+01-5.21251E+00-2.76133E-02-7.17665E+00 1.18794E-14 5.70561E-13
 -1      2606 3.28610E+01 2.11536E+00-1.92075E-01-1.10558E+00 5.65548E-13-4.68514E-13
 -1      2607 3.21286E+01 1.95147E-01-3.36916E-02-1.31055E-01 5.84796E-13-4.81226E-13
 -1      2608 3.06597E+01-1.52500E+00 1.20354E-02-4.72319E-01 5.64094E-13-4.01817E-13
 -1      2609 2.04973E+01 8.79924E-01-6.73876E-03 1.19058E+00 4.48912E-13 5.69841E-13
 -1      2610 2.08383E+01 1.25890E+00-5.84961E-03 1.69345E+00 4.75134E-13 6.49881E-13
 -1      2611 2.06506E+01 1.71809E+00-1.57965E-02 1.88367E+00 5.23348E-13 4.57193E-13
 -1      2612 2.04658E+01 1.06791E+00-9.59207E-03 1.19462E+00 4.68433E-13 3.29366E-13
 -1      2613 2.51295E+01-4.89783E+00-6.13332E-02 4.55400E+00 2.66343E-13-5.15449E-13
 -1      2614 2.13691E+01-5.60760E+00-1.94064E-03 5.37408E+00 6.90836E-14-2.63817E-13
 -1      2615 1.99237E+01 2.86350E+00 3.51076E-03-1.04973E+00-1.33494E-13-6.61277E-13
 -1      2616 1.97939E+01 3.19338E+00-1.52851E-02-1.23910E+00-1.46845E-13-7.02098E-13
 -1      2617 1.98914E+01 3.06402E+00-1.79024E-02-1.43317E+00-2.31112E-13-6.74807E-13
 -1      2618 2.00529E+01 3.69842E-01-4.06640E-03 2.21486E-01 3.05593E-13 1.51210E-13
 -1      2619 2.04348E+01 2.12203E+00-1.26545E-02 1.83278E+00 5.42042E-13 2.14408E-13
 -1      2620 2.72154E+01-4.62755E+00 4.81928E-02 2.56065E+00 3.61433E-13-5.21194E-13
 -1      2621 6.87810E+00-2.51575E+00 1.43729E-01-4.40739E+00 2.49245E-14 4.17610E-13
 -1      2622 1.27073E+01-4.22877E+00 1.19808E-01-6.72918E+00-1.54599E-14 4.17652E-13
 -1      2623 2.00116E+01 1.33544E-02-4.13043E-05 1.29963E-02-3.75829E-13 2.00620E-13
 -1      2624 2.07346E+01-5.58506E+00 9.12689E-02 5.55092E+00-6.60028E-14-1.95358E-13
 -1      2625 2.00124E+01 1.78412E-02-5.15020E-06 1.69372E-02-2.47162E-13 5.18330E-14
 -1      2626 2.59411E+01-4.25587E+00 2.22661E-02-3.40962E+00 2.26610E-13 2.60625E-14
 -1      2627 6.86104E+00-2.47983E+00 1.50640E-01 3.80098E+00-5.63743E-13 3.96877E-13
 -1      2628 1.29586E+01-4.30363E+00 1.29061E-01 6.21595E+00-3.47167E-13 2.12677E-13
 -1      2629 2.99207E+01 2.83359E+00-5.94495E-02 1.32399E+00-9.04277E-14-6.38239E-13
 -1      2630 2.04526E+01 1.82210E+00 1.24585E-02 1.51384E+00 5.14193E-13 1.41434E-13
 -1      2631 2.01318E+01 2.63702E+00-1.14282E-02-1.63192E+00-3.23690E-13-5.88511E-13
 -1      2632 2.91165E+01 6.18851E+00-8.53563E-02 1.05097E+00-5.03791E-13-5.84394E-13
 -1      2633 2.95743E+01 6.69060E+00-1.00027E-01-6.15417E-01-7.11958E-13-1.91833E-13
 -1      2634 3.08085E+01 4.22704E+00-3.30044E-02-1.25004E+00-8.09769E-13 9.66449E-14
 -1      2635 2.70608E+01-3.65774E+00 1.70308E-02 2.73119E+00-3.32095E-13 1.74138E-13
 -1      2636 1.57594E+01-4.79050E+00 1.07749E-01 6.80122E+00 1.74999E-13-2.25903E-13
 -1      2637 9.21248E+00-3.01427E+00 1.53638E-01 5.59671E+00 1.29063E-13-6.49147E-13
 -1      2638 1.15061E+01-3.88920E+00 1.39438E-01-6.07754E+00-1.97203E-13-1.05721E-12
 -1      2639 1.43915E+01-3.97210E+00 7.43968E-02-6.03613E+00-2.89269E-13-7.87911E-13
 -1      2640 1.03008E+01-2.64149E+00 1.56457E-01-5.28747E+00-2.05419E-13-1.10947E-12
 -1      2641 6.02872E+00-2.08174E+00 1.69567E-01-2.85319E+00 4.84612E-14-1.05144E-12
 -1      2642 3.09101E+01 2.43526E+00-4.16307E-02 2.38229E+00 4.38427E-13 2.60347E-13
 -1      2643 2.61244E+01-5.08174E+00 2.76246E-03-3.23231E+00-4.42701E-14-4.27824E-13
 -1      2644 3.08212E+01 6.14648E+00-6.03193E-02-7.88784E-01 4.73704E-13 6.82024E-14
 -1      2645 3.05378E+01-1.78251E+00-8.71434E-02 3.85835E-01 1.39268E-13-7.51621E-14
 -1      2646 2.97665E+01-9.45791E-01-1.24024E-01 1.90310E+00 1.24886E-13 2.60625E-13
 -1      2647 2.92534E+01-2.88352E+00 3.10664E-02-2.17662E-02-2.29330E-15-1.07969E-14
 -1      2648 2.00141E+01 1.51808E-02 2.17654E-04-1.66342E-02-1.02499E-13 1.14357E-13
 -1      2649 2.00118E+01 2.06547E-02-1.91648E-04-2.00510E-02-1.63943E-13 2.23595E-13
 -1      2650 2.00149E+01 2.90890E-02 1.84183E-04-2.84163E-02-2.93450E-13 3.14255E-13
 -1      2651 2.00195E+01 1.76726E-02 4.50197E-04-2.20966E-02-2.40478E-13 2.31438E-13
 -1      2652 2.00159E+01 2.60840E-02 2.66423E-04 2.52761E-02-1.49989E-13 4.58235E-14
 -1      2653 5.14622E+00-1.73060E+00 1.64309E-01 1.61631E+00-9.13852E-15-7.95475E-13
 -1      2654 3.01636E+01 1.96520E-01-4.26922E-03-1.87452E-01-6.63802E-13 1.16962E-13
 -1      2655 1.95476E+01-5.23043E+00 8.66052E-02-6.28005E+00 9.36196E-14 3.38597E-13
 -1      2656 2.00209E+01 2.47736E-02-3.42211E-04-3.15987E-02-2.65438E-13 3.31112E-13
 -1      2657 3.13467E+01 2.99057E+00-7.29303E-02-1.96941E+00 5.69877E-13-1.76997E-13
 -1      2658 1.98308E+01 2.85028E+00-6.21316E-03 4.80405E-01 3.35064E-13-4.51985E-13
 -1      2659 1.98012E+01 2.90378E+00-5.99264E-03 3.38180E-01 2.87479E-13-5.02184E-13
 -1      2660 1.97810E+01 2.94518E+00-5.66382E-03 2.13967E-01 2.56280E-13-5.42812E-13
 -1      2661 1.97705E+01 2.96323E+00-5.66217E-03 6.92598E-02 2.03018E-13-5.66003E-13
 -1      2662 1.99211E+01 2.60891E+00 4.14734E-03 2.40918E-01 2.55169E-13-4.97275E-13
 -1      2663 2.00547E+01 2.37859E+00-1.04006E-02 9.85000E-01 4.57392E-13-2.47262E-13
 -1      2664 1.99839E+01 2.53458E+00-6.74837E-03 8.52964E-01 4.26813E-13-3.14247E-13
 -1      2665 2.02376E+01 1.94387E+00-1.17654E-02 1.16502E+00 4.91678E-13-9.35961E-14
 -1      2666 2.01411E+01 2.18936E+00-5.21875E-03 1.07121E+00 4.77068E-13-1.72778E-13
 -1      2667 2.02018E+01 1.94630E+00 6.63001E-03 8.56494E-01 4.17954E-13-1.79082E-13
 -1      2668 2.02523E+01 7.58977E-01-2.68707E-03 5.69800E-01 3.77314E-13 6.88874E-14
 -1      2669 2.03831E+01 9.76939E-01 9.15302E-03 8.43246E-01 4.08770E-13 9.31030E-14
 -1      2670 2.02052E+01 2.30189E+00 3.64068E-03-1.37387E+00-2.95705E-13-5.57988E-13
 -1      2671 6.91478E+00-1.26871E+00 1.63638E-01-3.21617E+00-7.90479E-14 2.74503E-13
 -1      2672 9.12900E+00-2.17647E+00 7.93264E-02-5.28244E+00 8.11851E-15 3.32234E-13
 -1      2673 2.95432E+01 3.51490E+00-1.93563E-01-2.45871E+00 4.69708E-13-1.12105E-13
 -1      2674 3.01105E+01 1.25490E+00-7.53816E-02-2.48589E+00 5.47312E-13-2.82330E-13
 -1      2675 1.23227E+01-3.25906E+00 1.59564E-01-6.29404E+00-1.54321E-14 3.23214E-13
 -1      2676 1.51112E+01-4.29290E+00 2.48976E-02-6.78553E+00 4.02733E-14 3.81195E-13
 -1      2677 2.02663E+01 6.74132E-01 1.11110E-02-3.38089E-01-2.10153E-13-3.62534E-13
 -1      2678 2.01860E+01 5.32144E-01-3.07763E-03-1.66653E-01-1.91477E-13-3.55252E-13
 -1      2679 2.01642E+01 4.31196E-01 6.35428E-03-2.84590E-02-1.79488E-13-3.25231E-13
 -1      2680 2.01219E+01 3.46774E-01-7.33379E-04 8.89695E-02-1.52946E-13-3.21666E-13
 -1      2681 2.02366E+01 6.07731E-01-1.68041E-03-1.33336E-01-1.82684E-13-3.58427E-13
 -1      2682 2.01026E+01 2.86723E-01 4.14916E-03 1.88162E-01-1.46602E-13-2.93186E-13
 -1      2683 2.00884E+01 2.38743E-01 4.10233E-04 2.70153E-01-1.22815E-13-2.98210E-13
 -1      2684 2.01807E+01 4.02544E-01-2.35338E-03 1.17593E-01-1.54777E-13-3.09549E-13
 -1      2685 2.00762E+01 2.05453E-01 2.46917E-03 3.43470E-01-1.14044E-13-3.04576E-13
 -1      2686 2.00853E+01 1.80273E-01 1.14292E-03 4.04136E-01-1.10923E-13-3.13784E-13
 -1      2687 2.01420E+01 2.83316E-01-2.24014E-03 3.00305E-01-1.21925E-13-3.45407E-13
 -1      2688 2.00819E+01 1.63633E-01 1.28991E-03 4.62047E-01-1.15527E-13-3.04835E-13
 -1      2689 2.01100E+01 1.52417E-01 1.61046E-03 5.10981E-01-1.20619E-13-2.95977E-13
 -1      2690 2.01237E+01 2.18963E-01-1.94102E-03 4.39618E-01-1.24867E-13-3.25383E-13
 -1      2691 2.01157E+01 1.45341E-01 5.31395E-04 5.60920E-01-1.12768E-13-2.55671E-13
 -1      2692 2.01596E+01 1.41328E-01 1.87794E-03 6.04004E-01-1.17962E-13-2.61921E-13
 -1      2693 2.01259E+01 1.88366E-01-1.67284E-03 5.53935E-01-9.65885E-14-2.97930E-13
 -1      2694 2.01749E+01 1.37902E-01 1.47551E-04 6.50559E-01-1.17061E-13-2.10191E-13
 -1      2695 2.02327E+01 1.34908E-01 1.95500E-03 6.90513E-01-1.14750E-13-1.91946E-13
 -1      2696 2.01480E+01 1.75268E-01-1.53107E-03 6.55845E-01-9.49157E-14-1.51745E-13
 -1      2697 2.02593E+01 1.29260E-01 1.32703E-04 7.35492E-01-1.22044E-13-1.37334E-13
 -1      2698 2.03304E+01 1.20737E-01 1.80933E-03 7.71991E-01-6.99782E-14-1.26201E-13
 -1      2699 2.01910E+01 1.64857E-01-1.57674E-03 7.52290E-01-7.31852E-14-3.93543E-14
 -1      2700 2.03716E+01 1.06356E-01 5.22241E-04 8.14266E-01-5.11130E-14-1.01968E-13
 -1      2701 2.04561E+01 8.48646E-02 1.37279E-03 8.43755E-01-2.29315E-14-1.04030E-13
 -1      2702 2.02587E+01 1.41607E-01-1.87408E-03 8.44506E-01-4.41514E-14-7.52528E-15
 -1      2703 2.05177E+01 5.43366E-02 1.38349E-03 8.78855E-01 4.64348E-15-1.38017E-13
 -1      2704 2.06167E+01 1.15341E-02 5.42127E-04 8.94202E-01 2.16650E-14-1.47918E-13
 -1      2705 2.03585E+01 8.80574E-02-2.50563E-03 9.27540E-01-3.17146E-14-1.02403E-13
 -1      2706 2.07071E+01-4.30428E-02 2.78893E-03 9.13677E-01 1.24292E-14-1.53865E-13
 -1      2707 2.08219E+01-1.15444E-01-8.23206E-04 9.03904E-01 1.17339E-14-1.62302E-13
 -1      2708 2.05027E+01-1.51765E-02-3.55641E-03 9.89284E-01 7.16233E-15-1.16510E-13
 -1      2709 2.09519E+01-2.00766E-01 4.74236E-03 8.94544E-01 1.93658E-14-8.53026E-14
 -1      2710 2.10831E+01-3.08208E-01-2.88429E-03 8.45066E-01 4.19726E-14-8.15599E-14
 -1      2711 2.07088E+01-1.87145E-01-5.05491E-03 1.00906E+00 5.15690E-14-6.17026E-14
 -1      2712 2.12646E+01-4.25810E-01 7.02431E-03 7.88415E-01-3.79399E-14-8.75856E-14
 -1      2713 2.14096E+01-5.65109E-01-5.72351E-03 6.82677E-01-1.38859E-13-8.34170E-14
 -1      2714 2.09983E+01-4.40026E-01-6.82830E-03 9.56069E-01-1.88394E-14-8.77343E-14
 -1      2715 2.16493E+01-7.04173E-01 8.96492E-03 5.56084E-01-1.72227E-13-3.19502E-14
 -1      2716 2.17987E+01-8.54001E-01-9.07419E-03 3.80204E-01-1.38750E-13-3.38304E-14
 -1      2717 2.13909E+01-7.65734E-01-8.26617E-03 7.89088E-01-1.17410E-13 1.46086E-14
 -1      2718 2.20879E+01-9.81341E-01 9.01114E-03 1.62486E-01-5.70931E-14 3.09052E-15
 -1      2719 2.22211E+01-1.09041E+00-1.15468E-02-8.49524E-02-4.28703E-14 2.13656E-14
 -1      2720 2.18904E+01-1.11337E+00-8.03182E-03 4.61337E-01-8.14769E-14 1.16712E-13
 -1      2721 2.25182E+01-1.14104E+00 5.13538E-03-3.96895E-01-4.65212E-15 2.92845E-14
 -1      2722 2.26035E+01-1.12534E+00-1.02691E-02-6.87026E-01 2.38749E-14 4.25789E-14
 -1      2723 2.24594E+01-1.36138E+00-4.02104E-03-6.06806E-02 7.02769E-15 1.88169E-13
 -1      2724 2.28265E+01-1.01231E+00-4.78998E-03-1.04779E+00 2.01781E-14 7.21579E-14
 -1      2725 2.28334E+01-7.80000E-01-2.06639E-03-1.30427E+00 5.83302E-14 2.87370E-14
 -1      2726 2.29918E+01-1.31111E+00 4.81637E-03-7.48917E-01 6.99287E-14 1.44883E-13
 -1      2727 2.28827E+01-4.37239E-01-1.90408E-02-1.58704E+00 5.25877E-14 6.22484E-15
 -1      2728 2.28069E+01 3.36562E-02 1.14236E-02-1.68478E+00-1.28049E-14-3.63147E-14
 -1      2729 2.33153E+01-7.55434E-01 1.31185E-02-1.44337E+00 3.88350E-15 9.88482E-14
 -1      2730 2.26480E+01 5.60533E-01-3.11742E-02-1.70042E+00-6.96546E-14-8.70213E-14
 -1      2731 2.25325E+01 1.12505E+00 1.79760E-02-1.52050E+00-8.69339E-14-1.35003E-13
 -1      2732 2.32889E+01 3.52896E-01 1.21083E-02-1.81594E+00-6.47525E-14 1.53536E-14
 -1      2733 2.23005E+01 1.60862E+00-2.67859E-02-1.14652E+00-1.21927E-13-1.58709E-13
 -1      2734 2.22234E+01 1.96656E+00 8.63081E-03-6.95097E-01-1.18430E-13-1.01634E-13
 -1      2735 2.29730E+01 1.65577E+00-5.29558E-03-1.48918E+00-1.15094E-13-1.51267E-13
 -1      2736 2.21444E+01 2.11588E+00-3.98432E-03-5.07679E-02-1.85753E-13-2.25881E-13
 -1      2737 2.21617E+01 2.03277E+00-1.27797E-02 4.87293E-01-1.68907E-13-2.94889E-13
 -1      2738 2.26979E+01 2.47212E+00-2.03633E-02-4.22881E-01-2.42407E-13-1.71139E-13
 -1      2739 2.23210E+01 1.73780E+00 1.52192E-02 1.06882E+00-1.15429E-13-4.30418E-13
 -1      2740 2.24242E+01 1.27014E+00-2.95593E-02 1.43635E+00-9.73542E-14-4.62721E-13
 -1      2741 2.27700E+01 2.29354E+00-1.12956E-02 8.80889E-01-2.21895E-13-2.18880E-13
 -1      2742 2.26535E+01 7.36771E-01 1.59914E-02 1.67077E+00-5.76345E-14-5.05149E-13
 -1      2743 2.27651E+01 1.78318E-01-2.90890E-02 1.74469E+00 2.10397E-14-4.33495E-13
 -1      2744 2.31044E+01 1.20896E+00 1.19595E-04 1.71285E+00-5.90751E-14-3.34000E-13
 -1      2745 2.28566E+01-2.97228E-01 6.38586E-03 1.61439E+00 4.72869E-14-4.64373E-13
 -1      2746 2.29080E+01-6.86722E-01-1.30344E-02 1.44683E+00 1.21971E-13-5.00152E-13
 -1      2747 2.33454E+01-8.23720E-02 1.35941E-02 1.76518E+00 8.06356E-14-4.22502E-13
 -1      2748 2.27872E+01-9.43151E-01-5.55072E-03 1.12001E+00 1.67548E-13-4.80404E-13
 -1      2749 2.27537E+01-1.08737E+00 2.92857E-04 8.42815E-01 2.02201E-13-4.40150E-13
 -1      2750 2.32414E+01-1.00639E+00 1.11375E-02 1.23609E+00 1.06124E-13-2.98039E-13
 -1      2751 2.24929E+01-1.13007E+00-1.13230E-02 4.94304E-01 1.75130E-13-4.46907E-13
 -1      2752 2.23910E+01-1.08737E+00 7.70059E-03 2.18098E-01 1.16772E-13-3.74607E-13
 -1      2753 2.28243E+01-1.35919E+00 9.82536E-04 5.22610E-01 2.05954E-13-2.86842E-13
 -1      2754 2.20898E+01-9.97649E-01-1.09714E-02-5.62719E-02 1.88067E-13-3.93753E-13
 -1      2755 2.19530E+01-8.63201E-01 9.80677E-03-2.73247E-01 1.10148E-13-2.57210E-13
 -1      2756 2.22647E+01-1.27037E+00-6.19418E-03-1.05664E-01 1.51061E-13-4.50422E-13
 -1      2757 2.16799E+01-7.23901E-01-7.95980E-03-4.49612E-01-5.48688E-14-2.58795E-13
 -1      2758 2.15365E+01-5.71085E-01 8.77007E-03-5.92075E-01-2.35603E-15-2.53391E-13
 -1      2759 2.17156E+01-9.61161E-01-8.52666E-03-5.43576E-01 9.09819E-14-5.07988E-13
 -1      2760 2.13189E+01-4.34893E-01-4.74542E-03-6.82909E-01-2.31991E-14-2.16671E-13
 -1      2761 2.11852E+01-3.02924E-01 6.58691E-03-7.58204E-01-6.89101E-14-2.57243E-13
 -1      2762 2.12563E+01-6.05404E-01-7.86805E-03-7.93413E-01-3.76381E-16-2.84746E-13
 -1      2763 2.10246E+01-1.93967E-01-2.20833E-03-7.86284E-01-1.60629E-13-2.45447E-13
 -1      2764 2.09071E+01-9.65841E-02 4.35626E-03-8.10096E-01-1.52145E-13-2.26345E-13
 -1      2765 2.09056E+01-2.96270E-01-6.13441E-03-8.96828E-01-1.32379E-13-1.84507E-13
 -1      2766 2.07937E+01-2.05674E-02-4.45271E-04-7.97016E-01-1.03425E-13-1.45094E-13
 -1      2767 2.06935E+01 4.26071E-02 2.54661E-03-7.85791E-01-5.26858E-14-1.06394E-13
 -1      2768 2.06516E+01-6.66909E-02-4.35895E-03-8.99862E-01-1.28602E-13-1.21414E-13
 -1      2769 2.06152E+01 8.92275E-02 6.80545E-04-7.48585E-01 9.69782E-15-4.65410E-14
 -1      2770 2.05310E+01 1.24560E-01 1.25995E-03-7.16253E-01 1.82457E-14-1.25854E-14
 -1      2771 2.04724E+01 8.34950E-02-2.94490E-03-8.40854E-01-2.69558E-14-5.31413E-14
 -1      2772 2.04772E+01 1.48573E-01 1.33541E-03-6.67136E-01-3.54567E-14-6.05501E-15
 -1      2773 2.04070E+01 1.63754E-01 4.28524E-04-6.24226E-01-7.13425E-14 9.90732E-15
 -1      2774 2.03470E+01 1.68642E-01-1.95137E-03-7.48186E-01-4.98585E-14-2.23629E-13
 -1      2775 2.03698E+01 1.72077E-01 1.65623E-03-5.71419E-01-4.10033E-14 1.63560E-13
 -1      2776 2.03116E+01 1.73986E-01-6.03694E-05-5.25239E-01-9.79319E-14 2.70350E-14
 -1      2777 2.02584E+01 2.06390E-01-1.30497E-03-6.41501E-01-1.63427E-14-9.11865E-14
 -1      2778 2.02855E+01 1.72387E-01 1.74835E-03-4.73924E-01-4.96813E-14 7.24826E-14
 -1      2779 2.02377E+01 1.66393E-01-3.13588E-04-4.29143E-01 1.31526E-13-7.63659E-14
 -1      2780 2.01949E+01 2.12658E-01-9.03573E-04-5.33644E-01-2.51015E-14-1.54145E-14
 -1      2781 2.02190E+01 1.59186E-01 1.69154E-03-3.82302E-01 2.62613E-13-9.67450E-14
 -1      2782 2.01802E+01 1.49127E-01-4.15906E-04-3.41595E-01 3.09844E-13-1.12485E-13
 -1      2783 2.01482E+01 1.99957E-01-6.59043E-04-4.32438E-01 1.01664E-13 4.55906E-14
 -1      2784 2.01664E+01 1.39299E-01 1.54530E-03-3.00684E-01 3.26723E-13-6.39357E-14
 -1      2785 2.01353E+01 1.27739E-01-4.28150E-04-2.65323E-01 2.01442E-13 2.12528E-13
 -1      2786 2.01132E+01 1.77307E-01-5.07733E-04-3.42130E-01 3.09618E-13-1.74040E-13
 -1      2787 2.01249E+01 1.17228E-01 1.35277E-03-2.30778E-01-3.17138E-14 2.53568E-13
 -1      2788 2.01003E+01 1.05759E-01-3.91874E-04-2.01101E-01-1.06253E-14 2.12098E-13
 -1      2789 2.00864E+01 1.50779E-01-4.07765E-04-2.64508E-01 1.97909E-13-1.70946E-13
 -1      2790 2.00924E+01 9.57273E-02 1.14296E-03-1.72719E-01-1.48797E-14 2.74775E-13
 -1      2791 2.00732E+01 8.52509E-02-3.36659E-04-1.48494E-01 1.54421E-13 1.96647E-13
 -1      2792 2.00655E+01 1.24187E-01-3.36575E-04-1.99753E-01-6.31174E-15-2.15517E-14
 -1      2793 2.00670E+01 7.63061E-02 9.35194E-04-1.25717E-01 1.80382E-13 7.08972E-14
 -1      2794 2.00523E+01 6.72641E-02-2.68458E-04-1.06411E-01 6.76587E-14 6.59499E-14
 -1      2795 2.00492E+01 9.97078E-02-2.79460E-04-1.47048E-01 7.78140E-14-1.74436E-13
 -1      2796 2.00474E+01 5.97227E-02 7.48006E-04-8.85159E-02 5.37681E-14 4.92472E-14
 -1      2797 2.00363E+01 5.22037E-02-1.96181E-04-7.33938E-02-6.85113E-14-7.55786E-14
 -1      2798 2.00363E+01 7.85299E-02-1.87065E-04-1.05186E-01-8.78563E-14-3.33003E-13
 -1      2799 2.00322E+01 4.58666E-02 5.50710E-04-5.96810E-02 6.89748E-15 6.97655E-14
 -1      2800 2.00240E+01 4.00328E-02-4.43726E-05-4.81847E-02-8.09643E-15 3.07946E-14
 -1      2801 2.00258E+01 6.04420E-02-2.43637E-04-7.24405E-02 5.14024E-14-2.34024E-13
 -1      2802 2.00307E+01 1.68299E-01 2.10816E-03-3.98432E-01 1.20752E-13-1.59240E-14
 -1      2803 2.00094E+01 1.84322E-01 2.71416E-03-3.35638E-01 1.55545E-13-2.24822E-14
 -1      2804 2.00161E+01 4.19299E-02-6.80439E-05 4.04035E-02-7.88963E-14-1.78597E-13
 -1      2805 2.00204E+01 3.16824E-02 1.41662E-04 3.46631E-02-8.38793E-14 6.36743E-14
 -1      2806 2.00269E+01 3.60991E-02 2.66387E-04 4.38401E-02 1.56593E-14 1.55497E-13
 -1      2807 2.00195E+01 2.08964E-01 1.38891E-03-2.59085E-01 1.97639E-13-3.50745E-14
 -1      2808 2.00280E+01 2.47639E-01 4.86816E-03-1.77294E-01 2.23999E-13-1.57470E-14
 -1      2809 2.00915E+01 2.58557E-01-2.77656E-03-2.95762E-01 1.83128E-13-5.35022E-14
 -1      2810 2.01544E+01 1.77361E-01 3.34740E-03-6.32935E-01 4.69778E-14 2.55251E-14
 -1      2811 2.00892E+01 1.65667E-01 7.18303E-05-5.76605E-01 8.83162E-14 4.93626E-15
 -1      2812 2.02566E+01 2.11829E-01 3.94544E-03-7.59526E-01 8.68094E-14-3.75836E-14
 -1      2813 2.01733E+01 1.91466E-01-7.64858E-04-6.96231E-01 6.51507E-14 1.47660E-15
 -1      2814 2.01349E+01 2.36404E-01-1.18081E-03-7.04919E-01 8.22425E-14-4.42466E-14
 -1      2815 2.03816E+01 2.58021E-01 4.51782E-03-9.06297E-01 7.88229E-14-5.01674E-14
 -1      2816 2.02808E+01 2.32262E-01-1.40938E-03-8.32012E-01 1.02512E-13-4.81897E-14
 -1      2817 2.01851E+01 2.82235E-01-7.36177E-04-8.46050E-01 1.14339E-13-7.18046E-14
 -1      2818 2.05285E+01 3.07549E-01 5.00331E-03-1.07862E+00 2.93910E-14-3.15780E-14
 -1      2819 2.04098E+01 2.81159E-01-1.87456E-03-9.91626E-01 3.54881E-14-3.99266E-14
 -1      2820 2.02460E+01 3.40563E-01-3.50880E-04-1.00853E+00 5.79715E-14-6.09153E-14
 -1      2821 2.06989E+01 3.46473E-01 5.29714E-03-1.27645E+00 2.63187E-14-2.79270E-14
 -1      2822 2.05609E+01 3.27541E-01-2.07951E-03-1.17833E+00 5.92300E-14 2.72487E-16
 -1      2823 2.03155E+01 3.99461E-01-1.13557E-04-1.19774E+00 3.59025E-14-4.62366E-14
 -1      2824 2.08997E+01 3.50646E-01 5.24475E-03-1.49166E+00-6.98155E-14-8.78975E-14
 -1      2825 2.07389E+01 3.53173E-01-1.79354E-03-1.38916E+00-4.05637E-14-6.28337E-14
 -1      2826 2.03951E+01 4.39141E-01-2.72218E-04-1.41421E+00 1.82878E-14 1.74098E-14
 -1      2827 2.11485E+01 2.79822E-01 4.61372E-03-1.70356E+00-4.35006E-14-1.30429E-13
 -1      2828 2.09577E+01 3.26856E-01-5.49797E-04-1.61148E+00-4.94065E-14-1.12102E-13
 -1      2829 2.04952E+01 4.26010E-01-1.35945E-03-1.65178E+00-5.57998E-14-1.25519E-13
 -1      2830 2.14826E+01 7.28606E-02 2.98203E-03-1.87193E+00 1.99983E-14-1.47484E-13
 -1      2831 2.12481E+01 1.98614E-01 2.46560E-03-1.81715E+00-1.06511E-14-1.05474E-13
 -1      2832 2.06429E+01 3.05624E-01-4.33515E-03-1.89414E+00-3.35136E-14-1.76708E-13
 -1      2833 2.19698E+01-3.47534E-01-2.24162E-04-1.92662E+00-1.29936E-13 1.12661E-13
 -1      2834 2.16696E+01-1.02080E-01 8.47808E-03-1.95272E+00-5.76375E-14-3.64847E-14
 -1      2835 2.08973E+01-1.87844E-03-1.05923E-02-2.10793E+00-7.95387E-14-6.10924E-14
 -1      2836 2.27103E+01-1.04005E+00-5.79315E-03-1.75479E+00-1.92745E-13 2.19488E-13
 -1      2837 2.23202E+01-6.50137E-01 1.92955E-02-1.92409E+00-1.14798E-13 1.80268E-13
 -1      2838 2.13672E+01-5.91720E-01-2.09725E-02-2.22790E+00-1.65931E-13 1.05226E-13
 -1      2839 2.38034E+01-1.93962E+00-1.47742E-02-1.19377E+00-2.92197E-13 3.36471E-13
 -1      2840 2.33231E+01-1.46399E+00 3.43393E-02-1.57784E+00-2.59012E-13 2.94957E-13
 -1      2841 2.22208E+01-1.51909E+00-3.32330E-02-2.13070E+00-2.86101E-13 1.71927E-13
 -1      2842 2.52498E+01-2.64980E+00-2.45170E-02-7.85970E-02-1.67670E-13 3.46338E-13
 -1      2843 2.47382E+01-2.34925E+00 4.15584E-02-7.09435E-01-2.40848E-13 3.17212E-13
 -1      2844 2.36527E+01-2.63367E+00-3.69026E-02-1.59885E+00-2.70855E-13 3.14663E-13
 -1      2845 2.67748E+01-2.28085E+00-2.78258E-02 1.48934E+00-7.27716E-14 4.14500E-13
 -1      2846 2.63638E+01-2.65798E+00 1.39640E-02 7.63275E-01-1.10076E-13 4.17732E-13
 -1      2847 2.56191E+01-3.33069E+00-4.76243E-02-3.77158E-01-2.19641E-13 5.10636E-13
 -1      2848 2.80035E+01-2.84326E-01-5.63048E-02 2.43002E+00 2.15050E-13 4.47073E-13
 -1      2849 2.78309E+01-1.69109E+00-4.85314E-02 2.09709E+00 1.46411E-15 4.45435E-13
 -1      2850 2.79940E+01 3.97276E+00-1.65584E-01 1.91447E+00 4.52499E-13 4.57148E-13
 -1      2851 2.81568E+01 2.44341E+00-2.01514E-01 2.58296E+00 4.51930E-13 4.59716E-13
 -1      2852 2.75671E+01 1.42789E+00-1.22752E-01-2.94222E+00 2.59057E-13-1.52170E-14
 -1      2853 2.73631E+01 2.84767E+00-9.86976E-02-2.14088E+00 3.45446E-13 1.64273E-13
 -1      2854 2.72805E+01-1.49831E+00-3.04646E-02-2.37249E+00 3.39524E-13-4.26215E-13
 -1      2855 2.73024E+01-3.10064E-01-7.13266E-02-2.60721E+00 2.94681E-13-2.76272E-13
 -1      2856 2.84002E+01-6.95692E-02-6.88734E-02-2.61333E+00 4.33112E-13-3.56964E-13
 -1      2857 2.61095E+01-2.53531E+00 3.47200E-02-6.79071E-01-2.90393E-15-3.51014E-13
 -1      2858 2.64851E+01-2.25010E+00-2.96325E-02-1.40643E+00 2.26520E-13-3.68580E-13
 -1      2859 2.69814E+01-2.73880E+00-4.42274E-02-1.09594E+00 2.22169E-13-4.13169E-13
 -1      2860 2.45942E+01-2.14175E+00 4.27532E-02 7.24588E-01 9.32865E-14-4.07994E-13
 -1      2861 2.51136E+01-2.39843E+00-5.88966E-03 7.90835E-02-4.71151E-15-3.89964E-13
 -1      2862 2.50455E+01-2.98467E+00-5.14291E-02 5.46314E-01 1.48518E-14-4.82680E-13
 -1      2863 2.32796E+01-1.28622E+00 2.25961E-02 1.53852E+00 1.61458E-13-2.60589E-13
 -1      2864 2.37787E+01-1.69351E+00 1.01692E-03 1.14308E+00 1.56809E-13-2.82674E-13
 -1      2865 2.33537E+01-2.17859E+00-5.49779E-02 1.60923E+00 8.55808E-14-4.23048E-13
 -1      2866 2.23581E+01-5.33864E-01 7.24068E-03 1.84482E+00 1.05994E-13-3.25011E-13
 -1      2867 2.27585E+01-8.62554E-01 3.90647E-03 1.67195E+00 1.55861E-13-2.74048E-13
 -1      2868 2.21768E+01-1.12800E+00-3.59763E-02 2.02153E+00 1.45488E-13-2.49456E-13
 -1      2869 2.17553E+01-3.58258E-02-1.06874E-04 1.84998E+00 3.35397E-14-1.80387E-13
 -1      2870 2.20569E+01-2.42963E-01 3.81429E-03 1.82462E+00 1.10821E-13-2.62097E-13
 -1      2871 2.14694E+01-3.41335E-01-1.74818E-02 2.06663E+00 3.54369E-14-1.95994E-13
 -1      2872 2.13570E+01 2.33853E-01-3.03644E-03 1.69579E+00-3.79571E-14-1.75419E-13
 -1      2873 2.15872E+01 1.27318E-01 3.44867E-03 1.75385E+00 3.28055E-14-1.20136E-13
 -1      2874 2.10603E+01 1.32318E-01-5.94981E-03 1.92159E+00-5.24868E-14 8.07362E-15
 -1      2875 2.10773E+01 3.46683E-01-3.79348E-03 1.47258E+00-2.50189E-13-1.42578E-13
 -1      2876 2.12597E+01 3.06082E-01 3.01353E-03 1.56974E+00-2.45658E-13-1.22312E-13
 -1      2877 2.08184E+01 3.65526E-01-1.07577E-04 1.69229E+00-2.12387E-13-7.31384E-14
 -1      2878 2.08651E+01 3.67750E-01-3.60709E-03 1.23280E+00-1.75410E-13 5.45121E-15
 -1      2879 2.10145E+01 3.64426E-01 2.69202E-03 1.34184E+00-1.24108E-13-4.33677E-14
 -1      2880 2.06612E+01 4.46276E-01 2.22444E-03 1.43757E+00-1.92447E-13-4.67858E-14
 -1      2881 2.06943E+01 3.42134E-01-3.08856E-03 1.00457E+00 7.49025E-14 1.96890E-13
 -1      2882 2.08186E+01 3.57078E-01 2.44281E-03 1.11034E+00-5.01120E-14 1.38700E-13
 -1      2883 2.05448E+01 4.42739E-01 2.74184E-03 1.18890E+00-1.46798E-13 1.82218E-13
 -1      2884 2.05525E+01 2.97026E-01-2.50523E-03 8.01238E-01-1.47655E-14 2.65401E-13
 -1      2885 2.06561E+01 3.19083E-01 2.20421E-03 8.96309E-01 1.15106E-14 2.59109E-13
 -1      2886 2.04493E+01 3.98896E-01 2.46471E-03 9.62244E-01-5.72318E-15 2.30675E-13
 -1      2887 2.04339E+01 2.47268E-01-1.96533E-03 6.27560E-01-7.28291E-14 3.68181E-13
 -1      2888 2.05196E+01 2.70487E-01 1.95344E-03 7.09108E-01-1.97945E-14 3.84603E-13
 -1      2889 2.03668E+01 3.40227E-01 1.92783E-03 7.64561E-01-1.75438E-13 2.13535E-13
 -1      2890 2.03355E+01 2.00168E-01-1.50555E-03 4.83487E-01 4.20380E-14 3.22631E-13
 -1      2891 2.04053E+01 2.21701E-01 1.69399E-03 5.51256E-01-3.08248E-14 3.73611E-13
 -1      2892 2.02949E+01 2.80222E-01 1.38201E-03 5.97452E-01 6.27330E-15 1.46677E-13
 -1      2893 2.02550E+01 1.58795E-01-1.13136E-03 3.66563E-01 1.02286E-13 2.67814E-13
 -1      2894 2.03110E+01 1.77507E-01 1.43781E-03 4.21594E-01 1.42248E-13 3.72651E-13
 -1      2895 2.02328E+01 2.25264E-01 9.24611E-04 4.59509E-01 1.59923E-13 2.14658E-13
 -1      2896 2.01902E+01 1.24004E-01-8.35157E-04 2.73320E-01-5.81541E-14-3.66906E-14
 -1      2897 2.02343E+01 1.39640E-01 1.19622E-03 3.17207E-01 2.84408E-14 3.15446E-13
 -1      2898 2.01804E+01 1.77815E-01 5.77716E-04 3.47800E-01 9.70849E-14 1.75130E-13
 -1      2899 2.01390E+01 9.55836E-02-6.05007E-04 2.00054E-01-1.10702E-13 1.12485E-13
 -1      2900 2.01732E+01 1.08302E-01 9.76850E-04 2.34535E-01-1.77507E-13-4.04651E-14
 -1      2901 2.01369E+01 1.38320E-01 3.31650E-04 2.58788E-01-1.02710E-13 1.30917E-14
 -1      2902 2.00993E+01 7.28732E-02-4.31050E-04 1.43235E-01-2.49033E-14 3.12775E-13
 -1      2903 2.01253E+01 8.30016E-02 7.83548E-04 1.69978E-01 1.94942E-15 3.20190E-13
 -1      2904 2.01018E+01 1.06278E-01 1.66317E-04 1.88873E-01-9.16529E-14 1.67850E-13
 -1      2905 2.00691E+01 5.51012E-02-2.61514E-04 9.97099E-02 3.63445E-13 1.83467E-13
 -1      2906 2.00885E+01 6.30007E-02 6.22807E-04 1.20207E-01 1.55824E-13 2.59332E-13
 -1      2907 2.00739E+01 8.08021E-02 6.04145E-05 1.34678E-01 1.56269E-13 1.84222E-13
 -1      2908 2.00469E+01 4.14434E-02 2.12698E-05 6.67569E-02 3.39236E-13 2.54416E-13
 -1      2909 2.00606E+01 4.74171E-02 4.74756E-04 8.20635E-02 3.59912E-13 2.56643E-13
 -1      2910 2.00517E+01 6.09141E-02-1.21503E-04 9.33801E-02 3.21503E-13 2.20768E-13
 -1      2911 2.00354E+01 4.07554E-02 2.23224E-04 5.56460E-02 1.44077E-13 2.68409E-13
 -1      2912 2.27623E+01-5.47892E+00-7.16570E-02 4.55512E+00-7.99361E-15-3.83098E-13
 -1      2913 1.95291E+01-4.95099E+00 1.35176E-01 5.48966E+00-1.36280E-13-6.17215E-14
 -1      2914 1.99722E+01 1.04241E-01-2.61729E-04 4.70720E-03-4.89355E-14-3.40502E-13
 -1      2915 1.99734E+01 1.03064E-01-1.40204E-04 1.24797E-02 1.56008E-13-5.72641E-13
 -1      2916 6.66990E+00-1.03483E+00 8.65677E-02 2.70952E+00 1.66672E-14-7.02549E-13
 -1      2917 6.01747E+00-7.80345E-01 1.62177E-01 2.03836E-01 1.10334E-13-8.54261E-13
 -1      2918 1.99841E+01 8.85971E-02-4.47501E-04 3.47845E-02 9.66619E-14 1.63439E-13
 -1      2919 1.99897E+01 8.28296E-02 1.65167E-04 3.88811E-02 1.52260E-13-1.69362E-14
 -1      2920 1.99735E+01 1.02423E-01-1.20638E-04-1.27340E-02-2.44425E-13-6.69013E-14
 -1      2921 1.99722E+01 1.03889E-01-2.78004E-04-5.00333E-03-2.52936E-13-1.40563E-13
 -1      2922 1.99656E+01 1.18815E-01 4.75711E-04-3.71445E-04-1.85740E-13-4.97193E-13
 -1      2923 1.99759E+01 9.94659E-02-3.77780E-04 2.14814E-02 1.33719E-13-2.57158E-13
 -1      2924 1.99796E+01 9.57759E-02 1.52004E-05 2.79734E-02 1.12376E-13 5.29815E-14
 -1      2925 1.99774E+01 1.05592E-01 4.03426E-04 3.66834E-02 1.17130E-13 9.16440E-14
 -1      2926 1.99686E+01 1.15779E-01 4.61801E-04 1.96642E-02 9.42837E-14-3.57204E-13
 -1      2927 1.99796E+01 9.45155E-02 3.56443E-05-2.77500E-02-1.41221E-14 3.29522E-14
 -1      2928 1.99759E+01 9.83002E-02-3.81244E-04-2.14523E-02-2.03660E-13 1.86119E-13
 -1      2929 1.99687E+01 1.14507E-01 4.41802E-04-2.00797E-02-7.04968E-14 2.67202E-14
 -1      2930 1.99894E+01 8.11726E-02 1.51512E-04-3.83881E-02 1.44643E-13 7.76835E-14
 -1      2931 1.99840E+01 8.70283E-02-4.32203E-04-3.43756E-02 4.57677E-14 1.13193E-14
 -1      2932 1.99774E+01 1.03448E-01 3.52382E-04-3.65524E-02-1.96300E-14 9.41148E-14
 -1      2933 2.00008E+01 6.38873E-02 6.49938E-05-4.26227E-02 1.59008E-13 1.78791E-13
 -1      2934 1.99951E+01 7.13702E-02-3.85175E-04-4.18173E-02 1.42510E-13 1.88236E-13
 -1      2935 1.99899E+01 8.69710E-02 2.14094E-04-4.73305E-02 7.59011E-14 1.46752E-13
 -1      2936 1.55653E+01-4.36194E+00 4.77760E-03 6.24800E+00-2.48190E-13 2.08708E-13
 -1      2937 1.21654E+01-3.14342E+00 1.52415E-01 5.66662E+00-3.86857E-13 3.60378E-13
 -1      2938 9.29522E+00-1.95529E+00 8.98475E-02 4.62002E+00-4.78034E-13 5.49893E-13
 -1      2939 7.31586E+00-1.08628E+00 1.63478E-01 2.70537E+00-5.48867E-13 4.08285E-13
 -1      2940 6.13716E+00-7.58489E-01 1.34501E-01 8.12717E-01-4.27870E-13 2.63845E-13
 -1      2941 6.07829E+00-7.65105E-01 1.41554E-01-1.26485E+00-2.00090E-13 3.39090E-13
 -1      2942 2.88012E+01 1.04357E+00-8.59388E-02 1.52603E+00 7.96446E-14-6.65717E-13
 -1      2943 2.81870E+01 3.18531E+00-1.89766E-01 1.96567E+00-1.15463E-13-6.05738E-13
 -1      2944 2.03309E+01 1.61569E+00-1.14349E-02-1.17537E+00-3.30480E-13-4.90608E-13
 -1      2945 2.03526E+01 1.26239E+00 1.27552E-02-9.01194E-01-2.89688E-13-4.39333E-13
 -1      2946 2.02775E+01 9.87798E-01-4.72583E-03-6.44974E-01-2.42899E-13-4.10121E-13
 -1      2947 2.01764E+01 2.08498E+00-3.87280E-04-1.07623E+00-2.12811E-13-5.44867E-13
 -1      2948 1.80842E+01-4.80559E+00 7.06813E-03 6.39792E+00 1.91902E-13-1.55563E-13
 -1      2949 1.50807E+01-3.91786E+00 1.43826E-01 6.45300E+00 2.61569E-13-2.33785E-13
 -1      2950 2.78539E+01 4.81459E+00-2.09646E-01 8.37185E-01 4.06869E-13 3.50819E-13
 -1      2951 2.48600E+01-5.24694E+00 6.99555E-02-3.39613E+00-1.01266E-13-3.31624E-13
 -1      2952 2.74203E+01-4.61991E+00-1.20130E-01-1.84613E+00-5.73569E-14-2.84661E-13
 -1      2953 2.00512E+01 2.98009E-01 5.27543E-04-7.48532E-02 2.52475E-13 4.23821E-17
 -1      2954 2.00961E+01 3.71358E-01 7.59394E-03 4.25512E-02 2.71631E-13 3.48669E-14
 -1      2955 2.01301E+01 3.57932E-01-3.08619E-03-1.03921E-01 2.61134E-13-6.35151E-14
 -1      2956 2.00777E+01 1.60741E-01 2.74263E-03-5.17037E-01 1.13734E-13-2.17847E-14
 -1      2957 2.00325E+01 1.60833E-01 1.18162E-03-4.61641E-01 1.31291E-13 5.65682E-15
 -1      2958 2.00830E+01 2.15314E-01-2.21687E-03-4.45282E-01 1.29657E-13-3.49793E-14
 -1      2959 2.00993E+01 2.11431E-01-1.67246E-03-5.75753E-01 9.11131E-14 1.71589E-14
 -1      2960 2.79123E+01-4.25343E+00-1.30222E-01 1.15336E+00 4.30649E-13-4.73843E-13
 -1      2961 2.58220E+01-5.05055E+00 5.96636E-02 2.70684E+00 2.24112E-13-4.78367E-13
 -1      2962 1.99216E+01 2.66784E+00-7.65432E-03 7.42854E-01 4.13012E-13-3.66690E-13
 -1      2963 1.98711E+01 2.76581E+00-6.51388E-03 6.00468E-01 3.66208E-13-4.06365E-13
 -1      2964 1.99805E+01 2.48559E+00 4.77096E-03 4.70761E-01 3.29410E-13-3.98715E-13
 -1      2965 2.00768E+01 2.27091E+00 5.90918E-03 6.83757E-01 3.84623E-13-3.10846E-13
 -1      2966 1.98653E+01 2.77307E+00-6.38910E-03-5.90460E-01 6.68714E-15-6.10405E-13
 -1      2967 1.99137E+01 2.67644E+00-7.91005E-03-7.33826E-01-4.83662E-14-6.26489E-13
 -1      2968 2.01312E+01 4.63188E-01-5.40216E-04 1.87942E-01 2.95100E-13 3.92458E-14
 -1      2969 2.02170E+01 5.92926E-01 1.02990E-02 3.64809E-01 3.22638E-13 5.34557E-14
 -1      2970 2.02903E+01 8.66977E-01 8.38614E-05 5.29658E-01 3.75683E-13-3.48260E-14
 -1      2971 2.01989E+01 5.43469E-01-2.57656E-03 1.60351E-01 3.02195E-13-5.22597E-14
 -1      2972 2.45547E+01-4.76991E+00 1.01362E-01-3.72508E+00 2.49842E-13-1.16851E-14
 -1      2973 2.65951E+01-4.01124E+00-1.54747E-01-2.03092E+00 2.86500E-13-3.74950E-13
 -1      2974 2.74615E+01 5.00421E+00-1.18642E-01 1.69475E+00-3.29403E-13-6.36775E-13
 -1      2975 2.70449E+01 5.89779E+00-1.96977E-01 7.19026E-01-5.16948E-13-4.80576E-13
 -1      2976 6.36869E+00-1.03673E+00 1.59926E-01-1.76628E+00 8.16083E-14-9.38472E-13
 -1      2977 7.86088E+00-1.55695E+00 1.26114E-01-3.61316E+00 2.99344E-14-1.05599E-12
 -1      2978 2.00174E+01 3.27430E-02 4.74132E-05-3.46628E-02-2.09588E-13 1.58364E-13
 -1      2979 2.00137E+01 3.91147E-02-1.60224E-05-3.69661E-02-9.55911E-15 1.03145E-13
 -1      2980 2.00219E+01 3.63282E-02 4.12648E-04-4.08957E-02-1.07719E-13 1.83166E-13
 -1      2981 1.87214E+01-4.83536E+00 7.97492E-02-5.65399E+00-2.59015E-13-6.08215E-13
 -1      2982 2.18155E+01-5.47401E+00-2.07925E-02-5.02031E+00-1.62259E-13-4.92158E-13
 -1      2983 2.92782E+01 8.55163E-01-1.76017E-01-1.16867E+00-5.88807E-13 1.93651E-13
 -1      2984 2.86849E+01-9.57965E-01-1.31398E-02-4.77630E-01-4.89379E-13 2.86327E-13
 -1      2985 1.16602E+01-2.91009E+00 4.53056E-02 6.13666E+00 2.61000E-13-4.52832E-13
 -1      2986 9.00883E+00-1.71570E+00 1.79999E-01 4.66961E+00 1.83742E-13-5.98577E-13
 -1      2987 2.33878E+01-5.21338E+00-6.32134E-02 4.62051E+00 8.63615E-14 1.25441E-13
 -1      2988 2.10023E+01-5.12643E+00 8.20629E-02 5.49057E+00 1.71932E-13 1.94861E-14
 -1      2989 1.83124E+01-4.83551E+00 1.26834E-01-6.27149E+00 2.48912E-13 3.04572E-13
 -1      2990 2.13890E+01-5.28608E+00-7.79248E-02-5.49784E+00 2.43180E-13 1.29247E-13
 -1      2991 2.74205E+01-3.34600E+00-1.62266E-01 1.32865E+00-3.09280E-13 3.20272E-13
 -1      2992 2.56348E+01-4.46068E+00 4.67526E-02 2.98537E+00-2.19269E-14 2.20698E-13
 -1      2993 2.85800E+01 4.25979E+00-2.10404E-01-1.78273E+00-7.25642E-13 1.28897E-13
 -1      2994 2.91732E+01 2.69632E+00-1.05978E-01-1.70837E+00-7.02993E-13 1.33060E-13
 -1      2995 2.79565E+01 1.38377E+00-6.92186E-02-1.84176E+00-4.83863E-13 2.71200E-13
 -1      2996 2.74456E+01 6.40321E+00-1.66039E-01-3.86594E-01-5.36016E-13-3.86484E-13
 -1      2997 2.82376E+01 5.70775E+00-1.53497E-01-1.34005E+00-6.04183E-13-1.26801E-13
 -1      2998 2.71220E+01 4.33854E+00-1.01895E-01-1.68401E+00-5.56305E-13-1.48451E-13
 -1      2999 2.03609E+01 1.51981E+00-1.53836E-03 1.21261E+00 4.77545E-13 7.58803E-14
 -1      3000 2.81940E+01-1.89872E+00 1.44101E-02-1.68333E-03 2.19387E-13-5.67338E-13
 -1      3001 2.86326E+01-5.67346E-01-1.71368E-01 8.07608E-01 1.37466E-13-6.83259E-13
 -1      3002 2.77657E+01 1.67389E-01-4.84647E-02 1.63387E+00 1.04555E-13-6.03212E-13
 -1      3003 2.78609E+01 4.98896E+00-1.75370E-01-4.53599E-01 3.80751E-13 2.76360E-13
 -1      3004 1.98261E+01 2.85534E+00-6.27292E-03-4.69062E-01 4.51832E-14-5.97615E-13
 -1      3005 1.99760E+01 2.49140E+00 5.07077E-03-4.59786E-01 1.57031E-14-5.64364E-13
 -1      3006 1.97978E+01 2.90850E+00-5.79681E-03-3.23843E-01 9.91058E-14-5.89211E-13
 -1      3007 2.31783E+01-4.81454E+00 5.28603E-02-4.13012E+00 2.61902E-13-1.18461E-13
 -1      3008 1.46091E+01-2.90102E+00 1.49511E-01 5.79092E+00 2.95139E-13-2.84564E-13
 -1      3009 8.35122E+00-3.94010E-01 1.94918E-01-2.20172E+00-1.41269E-13 2.64538E-13
 -1      3010 1.77453E+01-4.17399E+00 1.21862E-01-6.01433E+00 3.20993E-13 1.82319E-13
 -1      3011 2.00694E+01 2.28120E+00 6.10716E-03-6.73787E-01-7.21191E-14-5.81220E-13
 -1      3012 1.99766E+01 2.54536E+00-6.68562E-03-8.43617E-01-9.06582E-14-6.26240E-13
 -1      3013 2.00377E+01 2.39131E+00-1.47070E-02-9.83783E-01-1.60794E-13-6.20832E-13
 -1      3014 2.45710E+01-4.87234E+00 7.15651E-02 2.97654E+00 1.17406E-14-4.33584E-13
 -1      3015 2.00186E+01 4.74752E-02-2.79434E-04-5.07657E-02 3.20084E-14-1.64455E-13
 -1      3016 1.85094E+01-4.11273E+00 1.15080E-01 5.33269E+00-1.72362E-13 7.00412E-14
 -1      3017 2.78068E+01-2.91845E+00-9.09413E-02 9.34276E-01-3.21947E-14 4.22530E-13
 -1      3018 2.83934E+01 8.29421E-01-1.03448E-01 2.80076E+00 2.90171E-13 4.25618E-13
 -1      3019 2.03144E+01 1.61773E+00-1.52190E-03 1.10201E+00 4.73883E-13-3.58958E-14
 -1      3020 7.87255E+00-2.82960E-01 1.97332E-01-6.41446E-01 1.05867E-13-8.98392E-13
 -1      3021 1.99905E+01 8.94694E-02 3.26459E-04 4.78286E-02 2.01185E-13-1.02017E-13
 -1      3022 1.99952E+01 7.29828E-02-5.31745E-04 4.22926E-02 2.28134E-13-1.82905E-13
 -1      3023 2.00018E+01 6.62252E-02 3.34504E-04 4.36165E-02 1.56291E-13-3.07288E-13
 -1      3024 2.00114E+01 5.06330E-02-2.31973E-04 4.31365E-02 2.91592E-15-3.15964E-13
 -1      3025 1.23185E+01-1.92089E+00 1.77159E-01 4.73208E+00-4.14405E-13 4.77132E-13
 -1      3026 2.75294E+01-2.27407E+00-2.51293E-02 3.79898E-02-2.57589E-13 3.37050E-13
 -1      3027 2.47495E+01-4.64043E+00 4.03382E-02 3.16353E+00 1.07921E-13 2.00562E-13
 -1      3028 2.00099E+01 4.77960E-02 1.27599E-04-3.93967E-02 1.42718E-13-6.65962E-14
 -1      3029 8.67439E+00-2.65534E-01 1.92573E-01 1.70288E+00-3.81372E-13 3.08614E-13
 -1      3030 2.79836E+01 4.32488E+00-1.82259E-01-1.74172E+00 3.61933E-13 1.44509E-13
 -1      3031 2.67728E+01 3.34363E+00-9.06790E-02 1.84528E+00-1.80286E-13-5.74804E-13
 -1      3032 2.02935E+01 1.07868E+00-1.06716E-03-5.79794E-01-2.23534E-13-4.21848E-13
 -1      3033 1.97700E+01 2.96419E+00-5.53451E-03-5.50737E-02 1.81063E-13-5.66018E-13
 -1      3034 1.97787E+01 2.94748E+00-5.72318E-03-2.00077E-01 1.34277E-13-5.76141E-13
 -1      3035 1.99187E+01 2.61189E+00 4.32112E-03-2.29664E-01 1.04381E-13-5.44979E-13
 -1      3036 1.99001E+01 2.65011E+00 3.95334E-03 5.25998E-03 1.71117E-13-5.37994E-13
 -1      3037 9.44754E+00-8.13773E-01 1.84573E-01 3.43742E+00 1.84484E-13-5.73930E-13
 -1      3038 9.95772E+00-1.69310E+00 1.81831E-01-4.37640E+00-1.32255E-13-1.03978E-12
 -1      3039 1.21528E+01-2.00147E+00 7.57894E-02-4.85506E+00-2.43472E-13-8.60187E-13
 -1      3040 1.00615E+01-8.09001E-01 1.42943E-01-3.47118E+00-1.94497E-14-8.79394E-13
 -1      3041 2.39226E+01-5.03003E+00 5.64277E-02-3.52091E+00-2.08250E-13-3.36078E-13
 -1      3042 2.69218E+01-3.01102E+00-1.84700E-02-6.37660E-01 2.01922E-13-4.27380E-13
 -1      3043 2.02344E+01-4.61654E+00 9.54084E-02 5.37140E+00 2.34951E-13 2.96759E-14
 -1      3044 2.03060E+01 1.41009E+00 2.70181E-03 8.46605E-01 4.25423E-13-6.25189E-14
 -1      3045 2.61634E+01 5.44967E+00-9.92046E-02 1.96172E-01-4.33806E-13-3.59641E-13
 -1      3046 2.80781E+01-3.77960E+00-2.05274E-02-2.58237E-01-3.03091E-14 4.54220E-14
 -1      3047 1.70397E+01-4.12996E+00 1.06418E-01-5.85910E+00-3.26114E-13-7.06338E-13
 -1      3048 1.93318E+01-4.10494E+00 6.97017E-02-5.00898E+00-3.06678E-13-6.35464E-13
 -1      3049 1.52745E+01-3.10774E+00 1.04961E-01-5.53274E+00-3.27155E-13-7.12458E-13
 -1      3050 1.18925E+01-2.18388E+00 1.54907E-01-5.41108E+00 2.98789E-14 3.27807E-13
 -1      3051 2.00124E+01 5.43402E-02-1.27132E-04-4.98710E-02 5.55827E-14-6.10018E-14
 -1      3052 2.00055E+01 5.85480E-02-1.51182E-04-4.53766E-02 7.17993E-14 9.35281E-14
 -1      3053 2.00034E+01 7.21670E-02 3.70398E-04-5.36547E-02 1.52626E-13 5.72822E-14
 -1      3054 2.00159E+01 6.03329E-02 4.76319E-04-5.78743E-02 5.71187E-14-1.20682E-13
 -1      3055 2.98343E+01-1.18992E+00-1.83931E-01-1.54892E+00 5.77156E-13-3.97377E-13
 -1      3056 2.92506E+01-2.66195E+00-1.20844E-02-5.62546E-01 4.80838E-13-3.60420E-13
 -1      3057 2.80080E+01-3.53639E+00-2.97583E-02-1.23968E-01 4.20053E-13-3.76227E-13
 -1      3058 8.73918E+00 2.07122E-01 7.93484E-02 2.69143E-01 1.00620E-13-7.35204E-13
 -1      3059 9.20025E+00-2.90557E-03 1.18190E-01-1.65615E+00 2.35523E-14-8.45171E-13
 -1      3060 2.02549E+01 1.54109E+00-7.81691E-03 7.19538E-01 3.90497E-13-1.50205E-13
 -1      3061 2.02060E+01 1.74563E+00-1.05609E-03 6.66250E-01 3.67100E-13-2.09926E-13
 -1      3062 2.89751E+01-2.14308E-01-8.66784E-02-2.38595E+00 4.74454E-13-3.61378E-13
 -1      3063 2.02451E+01 5.40533E-01 3.31103E-03 4.25880E-02-1.49998E-13-3.26679E-13
 -1      3064 2.02153E+01 4.48989E-01-1.39920E-03 1.52320E-01-1.37485E-13-3.31009E-13
 -1      3065 2.01969E+01 3.81228E-01 2.40445E-03 2.41879E-01-1.36175E-13-3.21294E-13
 -1      3066 2.01783E+01 3.28114E-01-2.27897E-04 3.23870E-01-1.28251E-13-3.36541E-13
 -1      3067 2.02370E+01 4.97906E-01-9.15972E-04 1.78033E-01-1.38476E-13-3.34876E-13
 -1      3068 2.01567E+01 2.90621E-01 1.37853E-03 3.94596E-01-1.09687E-13-3.14377E-13
 -1      3069 2.01502E+01 2.63187E-01 6.14846E-04 4.59432E-01-1.04332E-13-3.07460E-13
 -1      3070 2.01906E+01 3.72892E-01-9.83244E-04 3.44167E-01-1.17534E-13-2.85571E-13
 -1      3071 2.01290E+01 2.45080E-01 5.54844E-04 5.19319E-01-7.05686E-14-2.83582E-13
 -1      3072 2.01339E+01 2.33406E-01 1.21273E-03 5.74796E-01-5.60999E-14-2.41315E-13
 -1      3073 2.01452E+01 3.06258E-01-9.53497E-04 4.79629E-01-7.84950E-14-2.58050E-13
 -1      3074 2.01156E+01 2.25915E-01 3.79459E-06 6.29985E-01-5.28344E-14-1.69443E-13
 -1      3075 2.01316E+01 2.21393E-01 1.62979E-03 6.81148E-01-5.59758E-14-1.24922E-13
 -1      3076 2.01054E+01 2.75934E-01-9.31267E-04 5.98752E-01-4.01599E-15-1.59780E-13
 -1      3077 2.01188E+01 2.16381E-01-2.28263E-04 7.35716E-01-5.06649E-14-1.07123E-13
 -1      3078 2.01466E+01 2.10421E-01 1.90679E-03 7.84901E-01-7.40215E-15-5.55450E-14
 -1      3079 2.00750E+01 2.62478E-01-1.02978E-03 7.12097E-01-5.93712E-15-1.07667E-13
 -1      3080 2.01434E+01 1.99301E-01-7.61192E-05 8.40700E-01-4.34119E-14 9.65882E-16
 -1      3081 2.01854E+01 1.82431E-01 2.06041E-03 8.87436E-01-3.59192E-14-3.21219E-14
 -1      3082 2.00596E+01 2.46496E-01-1.36419E-03 8.26154E-01-2.67747E-14-1.93942E-14
 -1      3083 2.01983E+01 1.55488E-01 5.62605E-04 9.43814E-01-4.28179E-14-2.05309E-14
 -1      3084 2.02588E+01 1.16849E-01 2.07147E-03 9.84521E-01-4.10033E-14-3.91118E-14
 -1      3085 2.00681E+01 2.06707E-01-2.07472E-03 9.42951E-01-4.24373E-14 9.75966E-15
 -1      3086 2.02982E+01 6.30620E-02 1.83764E-03 1.03777E+00-3.10347E-14-1.96491E-14
 -1      3087 2.03841E+01-9.42712E-03 1.85549E-03 1.06522E+00 5.81579E-15-3.00333E-14
 -1      3088 2.01155E+01 1.18795E-01-3.34170E-03 1.05937E+00-5.41142E-15 3.44143E-14
 -1      3089 2.04652E+01-1.01563E-01 3.93767E-03 1.10747E+00 2.63859E-14-6.22152E-14
 -1      3090 2.05854E+01-2.19683E-01 1.18804E-03 1.11001E+00 4.67071E-14-8.51162E-14
 -1      3091 2.02249E+01-4.43344E-02-5.35777E-03 1.16565E+00-5.49837E-15-7.07554E-14
 -1      3092 2.07291E+01-3.59429E-01 7.00410E-03 1.12720E+00 2.26992E-14-1.11486E-13
 -1      3093 2.08931E+01-5.30259E-01-3.58185E-04 1.08788E+00-5.52219E-14-1.12096E-13
 -1      3094 2.04295E+01-3.09557E-01-8.29221E-03 1.24237E+00-3.33942E-14-9.75591E-14
 -1      3095 2.11237E+01-7.18198E-01 1.08912E-02 1.05695E+00-7.88179E-14-3.27072E-14
 -1      3096 2.13365E+01-9.34939E-01-3.40078E-03 9.53560E-01-8.52264E-14 4.60041E-14
 -1      3097 2.07725E+01-6.93885E-01-1.20167E-02 1.25504E+00-1.89148E-14-8.68966E-14
 -1      3098 2.16752E+01-1.15096E+00 1.48874E-02 8.39933E-01-6.45485E-14 1.23928E-13
 -1      3099 2.19283E+01-1.37704E+00-8.33501E-03 6.48597E-01 2.41497E-14 1.79339E-13
 -1      3100 2.12998E+01-1.18479E+00-1.57622E-02 1.14792E+00-2.10066E-14 8.22291E-14
 -1      3101 2.23728E+01-1.56263E+00 1.58929E-02 4.08081E-01 2.25557E-14 1.72243E-13
 -1      3102 2.26318E+01-1.70550E+00-1.36939E-02 1.15071E-01 2.69092E-14 1.80979E-13
 -1      3103 2.20387E+01-1.70283E+00-1.81260E-02 8.35856E-01 1.83092E-14 1.63570E-13
 -1      3104 2.31257E+01-1.74537E+00 1.02857E-02-2.74866E-01 5.41776E-14 2.43789E-13
 -1      3105 2.33293E+01-1.65930E+00-1.54765E-02-6.41531E-01 8.64900E-14 1.99737E-13
 -1      3106 2.29521E+01-2.03780E+00-1.44401E-02 2.36800E-01 6.15833E-14 2.57015E-13
 -1      3107 2.37239E+01-1.38480E+00-8.24609E-03-1.13457E+00 6.99367E-14 1.74248E-13
 -1      3108 2.38072E+01-9.06497E-01-5.53817E-03-1.45344E+00-3.65467E-14 1.39218E-13
 -1      3109 2.38682E+01-1.84462E+00-3.96032E-03-6.67270E-01 3.80208E-14 2.07961E-13
 -1      3110 2.39213E+01-2.39673E-01-4.05314E-02-1.83166E+00-1.26548E-13 1.60566E-13
 -1      3111 2.38631E+01 6.34620E-01 5.34663E-03-1.90882E+00-1.42598E-13 5.87762E-14
 -1      3112 2.44714E+01-7.33247E-01 3.65647E-03-1.62872E+00-5.84290E-14 2.61288E-13
 -1      3113 2.36618E+01 1.54543E+00-6.40600E-02-1.82563E+00-1.83822E-13-1.29731E-14
 -1      3114 2.35356E+01 2.41070E+00-3.64525E-03-1.48649E+00-1.62009E-13 6.41414E-16
 -1      3115 2.45315E+01 1.24464E+00-1.27357E-03-2.03155E+00-2.09627E-13 1.60554E-13
 -1      3116 2.33463E+01 3.16838E+00-7.39428E-03 7.30063E-01-3.59560E-13-1.02241E-13
 -1      3117 2.34396E+01 2.61465E+00-5.01262E-02 1.29403E+00-2.67624E-13-1.90827E-13
 -1      3118 2.36613E+01 1.82310E+00-1.84196E-03 1.76607E+00-1.38663E-13-2.84708E-13
 -1      3119 2.37899E+01 8.95932E-01-6.05067E-02 1.95941E+00-4.50161E-14-3.40878E-13
 -1      3120 2.42953E+01 2.53303E+00-3.24377E-02 1.66794E+00-2.09902E-13-1.74277E-13
 -1      3121 2.38972E+01 1.84786E-02-7.28058E-04 1.84083E+00 1.15134E-14-3.77205E-13
 -1      3122 2.39151E+01-7.31969E-01-2.73234E-02 1.65300E+00 1.39370E-13-3.62260E-13
 -1      3123 2.45669E+01 4.58994E-01-6.54898E-03 2.01466E+00-6.64330E-14-3.71684E-13
 -1      3124 2.36768E+01-1.25265E+00-9.67295E-03 1.20015E+00 1.75781E-13-3.26668E-13
 -1      3125 2.35557E+01-1.57180E+00 4.70485E-03 8.51663E-01 1.48714E-13-2.83264E-13
 -1      3126 2.43105E+01-1.21972E+00 1.21236E-03 1.34029E+00 1.74416E-13-2.88119E-13
 -1      3127 2.30889E+01-1.71782E+00-1.75120E-02 3.79958E-01 1.07197E-13-3.53407E-13
 -1      3128 2.28719E+01-1.69355E+00 1.72509E-02 4.18211E-02 1.17191E-13-3.47122E-13
 -1      3129 2.35494E+01-1.98648E+00-1.77482E-02 3.52255E-01 8.11727E-14-4.01137E-13
 -1      3130 2.23717E+01-1.58803E+00-1.37296E-02-2.95915E-01 7.44218E-14-3.63458E-13
 -1      3131 2.21192E+01-1.39154E+00 1.87370E-02-5.43439E-01 8.46858E-14-3.60023E-13
 -1      3132 2.26046E+01-1.94241E+00-2.62393E-02-4.44709E-01 2.37772E-14-2.34947E-13
 -1      3133 2.17010E+01-1.18608E+00-7.43453E-03-7.29382E-01 1.10862E-14-3.35924E-13
 -1      3134 2.14665E+01-9.50516E-01 1.48944E-02-8.78016E-01 3.07238E-14-3.15254E-13
 -1      3135 2.17394E+01-1.49929E+00-2.62956E-02-9.24876E-01 5.43498E-14-2.43974E-13
 -1      3136 2.11628E+01-7.38971E-01-2.57205E-03-9.51547E-01 6.57389E-14-4.10318E-13
 -1      3137 2.09711E+01-5.31614E-01 1.02143E-02-1.02016E+00 3.55503E-14-3.70191E-13
 -1      3138 2.10742E+01-9.65384E-01-2.10187E-02-1.13989E+00 3.17061E-14-3.22706E-13
 -1      3139 2.07702E+01-3.57286E-01 1.66068E-04-1.02293E+00-6.02638E-14-3.27635E-13
 -1      3140 2.06247E+01-2.01488E-01 6.15383E-03-1.03531E+00-2.09996E-13-2.60079E-13
 -1      3141 2.06141E+01-4.96276E-01-1.48447E-02-1.18247E+00-1.50688E-15-3.76666E-13
 -1      3142 2.05022E+01-7.62641E-02 1.47078E-03-9.97885E-01-1.86441E-13-1.63870E-13
 -1      3143 2.03961E+01 2.73053E-02 3.16218E-03-9.74516E-01-3.21753E-14-9.20110E-14
 -1      3144 2.03203E+01-1.43703E-01-9.58334E-03-1.12494E+00-8.21132E-14-3.38528E-13
 -1      3145 2.03274E+01 1.07181E-01 1.97752E-03-9.17105E-01-7.39448E-14-8.11146E-14
 -1      3146 2.02513E+01 1.67549E-01 1.18394E-03-8.73348E-01-8.50084E-14-1.62823E-13
 -1      3147 2.01461E+01 9.12933E-02-5.75879E-03-1.01588E+00-8.84026E-15-1.22957E-13
 -1      3148 2.02169E+01 2.11582E-01 2.10872E-03-8.08337E-01-5.14383E-14-2.22118E-13
 -1      3149 2.01621E+01 2.40038E-01-2.35952E-05-7.54989E-01-2.80409E-14-2.08322E-13
 -1      3150 2.00508E+01 2.29310E-01-3.21571E-03-8.85025E-01-8.71998E-14-3.18646E-13
 -1      3151 2.01483E+01 2.58444E-01 2.06561E-03-6.89783E-01 4.37633E-14-2.15835E-13
 -1      3152 2.01081E+01 2.65294E-01-6.92596E-04-6.34078E-01 2.20622E-14-1.33554E-13
 -1      3153 2.00042E+01 2.95679E-01-1.63873E-03-7.49930E-01-2.12388E-14-2.08285E-13
 -1      3154 2.01056E+01 2.66879E-01 1.93710E-03-5.72956E-01 6.86092E-14-8.95361E-14
 -1      3155 2.00756E+01 2.60349E-01-1.00535E-03-5.19477E-01 9.31177E-14-2.78703E-14
 -1      3156 1.99857E+01 3.13366E-01-7.24385E-04-6.20759E-01 9.66740E-14-4.13795E-14
 -1      3157 2.00786E+01 2.51900E-01 1.76325E-03-4.64715E-01 2.32557E-14 5.99672E-14
 -1      3158 2.00556E+01 2.38023E-01-1.09449E-03-4.16115E-01 1.28523E-13 3.09013E-14
 -1      3159 1.99822E+01 3.00678E-01-2.35040E-04-5.03132E-01 1.22276E-13 1.26428E-13
 -1      3160 2.00608E+01 2.24391E-01 1.56572E-03-3.68687E-01 2.67240E-13 7.55396E-14
 -1      3161 2.00429E+01 2.07314E-01-1.05329E-03-3.26257E-01 3.57288E-13-1.32834E-14
 -1      3162 1.99855E+01 2.71084E-01-2.08265E-06-3.99762E-01 1.79691E-13 2.37274E-13
 -1      3163 2.00484E+01 1.91752E-01 1.35914E-03-2.86306E-01 2.36749E-13-9.97180E-14
 -1      3164 2.00342E+01 1.74155E-01-9.41412E-04-2.50417E-01 3.82252E-14-1.46081E-13
 -1      3165 1.99913E+01 2.33881E-01 8.56776E-05-3.11478E-01 2.60762E-13 1.26997E-13
 -1      3166 2.00390E+01 1.58710E-01 1.15269E-03-2.17547E-01 1.92223E-14-1.44582E-13
 -1      3167 2.00278E+01 1.42181E-01-8.10145E-04-1.87971E-01 8.19973E-14-7.47226E-14
 -1      3168 1.99969E+01 1.95145E-01 1.01359E-04-2.37905E-01 6.07888E-14-6.19698E-14
 -1      3169 2.00316E+01 1.28049E-01 9.61369E-04-1.61515E-01-2.65449E-14 5.96342E-15
 -1      3170 2.00226E+01 1.13451E-01-6.45037E-04-1.37695E-01-9.89909E-14-1.77502E-13
 -1      3171 2.00015E+01 1.58408E-01 5.41453E-05-1.77898E-01 1.92115E-14-4.28094E-14
 -1      3172 2.00251E+01 1.00800E-01 6.67118E-04-1.16684E-01-9.74222E-14-1.45316E-13
 -1      3173 2.00185E+01 8.87643E-02-3.67350E-04-9.81612E-02-6.68660E-14-1.40667E-13
 -1      3174 2.00042E+01 1.25790E-01-4.93046E-05-1.29991E-01-3.71883E-14-8.65968E-15
 -1      3175 2.00204E+01 7.86370E-02 5.12687E-04-8.35779E-02 4.18477E-14-1.43270E-13
 -1      3176 2.00152E+01 6.86366E-02-2.12863E-04-6.89960E-02 1.02657E-13 2.52983E-14
 -1      3177 2.00082E+01 7.53037E-02-2.70211E-04-6.78044E-02 3.72034E-14-2.10992E-14
 -1      3178 2.00070E+01 9.83148E-02 2.98766E-05-9.36739E-02 3.67541E-14 1.87900E-14
 -1      3179 2.01443E+01 3.14278E-01 2.24544E-04-3.22523E-01 1.50708E-13-3.46929E-14
 -1      3180 2.01604E+01 3.57940E-01 2.79718E-03-2.35233E-01 1.95210E-13-3.44854E-14
 -1      3181 2.01119E+01 3.64843E-01 2.80829E-03-8.82865E-01 7.40586E-14-5.08087E-14
 -1      3182 2.00819E+01 3.32299E-01-1.92732E-03-8.07166E-01 1.06336E-13-6.65574E-14
 -1      3183 2.01104E+01 3.07149E-01 2.35790E-03-7.37109E-01 1.05030E-13-4.96010E-14
 -1      3184 2.00878E+01 2.85734E-01-9.82002E-04-6.69140E-01 8.49918E-14-2.50705E-14
 -1      3185 2.00301E+01 3.82891E-01 3.07537E-04-7.71163E-01 9.83534E-14-3.11359E-14
 -1      3186 2.01075E+01 5.06512E-01 3.69113E-03-1.24301E+00-4.87826E-15-6.55075E-14
 -1      3187 2.00671E+01 4.70511E-01-3.45402E-03-1.14280E+00 2.10922E-14-1.11041E-13
 -1      3188 2.01002E+01 5.53006E-01 4.37168E-03-1.46450E+00-1.87511E-14-2.65548E-14
 -1      3189 2.00521E+01 5.32379E-01-3.90243E-03-1.35207E+00 1.00100E-14-1.79166E-14
 -1      3190 1.98155E+01 6.14989E-01 2.12519E-03-1.29205E+00-2.73346E-14-1.42982E-13
 -1      3191 2.01024E+01 5.37147E-01 5.55540E-03-1.71211E+00-6.17795E-14-1.12965E-13
 -1      3192 2.00377E+01 5.53564E-01-3.83684E-03-1.59157E+00-2.51162E-14-4.70757E-14
 -1      3193 1.97068E+01 6.59077E-01 2.09480E-03-1.52407E+00-6.60145E-15-1.01872E-13
 -1      3194 2.01486E+01 3.97445E-01 7.64532E-03-1.97856E+00-3.58073E-14-1.20328E-13
 -1      3195 2.00456E+01 4.85247E-01-2.68914E-03-1.85883E+00-4.51854E-14-1.35587E-13
 -1      3196 1.95908E+01 6.21995E-01 8.10868E-04-1.79484E+00-3.79150E-14-1.22793E-13
 -1      3197 2.03126E+01 4.29618E-02 1.08847E-02-2.24720E+00-1.37843E-13-2.43001E-14
 -1      3198 2.01293E+01 2.52189E-01 7.49454E-04-2.14535E+00-9.11005E-14-1.10288E-13
 -1      3199 1.95044E+01 4.29573E-01-3.03948E-03-2.11192E+00-7.53285E-14-8.66617E-14
 -1      3200 2.07288E+01-6.41251E-01 1.46873E-02-2.47767E+00-2.05937E-13-5.62172E-14
 -1      3201 2.03976E+01-2.49826E-01 9.06897E-03-2.42738E+00-1.20661E-13-5.83866E-14
 -1      3202 1.95309E+01-2.80575E-02-1.17497E-02-2.48147E+00-1.28732E-13-1.46689E-13
 -1      3203 2.16076E+01-1.74116E+00 1.82688E-02-2.56453E+00-3.65524E-13 2.66007E-14
 -1      3204 2.10470E+01-1.12915E+00 2.97660E-02-2.63332E+00-3.11611E-13-1.65551E-14
 -1      3205 1.98434E+01-8.96203E-01-2.64705E-02-2.88890E+00-3.03864E-13-1.82548E-13
 -1      3206 2.32186E+01-3.13567E+00 1.77392E-02-2.27312E+00-3.67553E-13 1.34752E-13
 -1      3207 2.23519E+01-2.42408E+00 5.82077E-02-2.58680E+00-3.83429E-13 1.18774E-13
 -1      3208 2.07365E+01-2.22233E+00-2.78481E-02-3.22492E+00-4.00867E-13-8.44047E-14
 -1      3209 2.21866E+01-1.88275E+00 4.56917E-02 2.38976E+00-5.18682E-16-3.66593E-13
 -1      3210 2.28612E+01-2.58906E+00-3.66641E-03 2.16962E+00 9.67889E-14-3.47264E-13
 -1      3211 2.11109E+01-7.76001E-01 1.78223E-02 2.42004E+00 6.37684E-15-1.16861E-13
 -1      3212 2.15919E+01-1.29036E+00 1.42420E-02 2.37427E+00 2.24126E-15-2.85351E-13
 -1      3213 2.07755E+01-1.75596E+00-4.54071E-02 2.90839E+00-2.26243E-14-2.01089E-13
 -1      3214 2.05701E+01-4.68632E-02 4.72941E-03 2.22408E+00-1.10435E-13 1.01765E-13
 -1      3215 2.08607E+01-3.61549E-01 1.27034E-02 2.27902E+00-7.30670E-14 2.67332E-15
 -1      3216 2.00385E+01-5.64775E-01-2.29898E-02 2.62293E+00-8.11723E-14 6.25975E-14
 -1      3217 2.03318E+01 3.52607E-01-9.88929E-04 1.95167E+00-6.17242E-14 1.55034E-13
 -1      3218 2.05015E+01 1.91592E-01 9.27161E-03 2.05568E+00-3.52279E-14 1.70726E-13
 -1      3219 1.97768E+01 1.51787E-01-8.87564E-03 2.26531E+00-1.27125E-13 2.01810E-13
 -1      3220 2.02397E+01 5.26251E-01-3.15400E-03 1.66495E+00-2.45599E-13 1.63515E-13
 -1      3221 2.03437E+01 4.64444E-01 6.40116E-03 1.78747E+00-1.18022E-13 1.47757E-13
 -1      3222 1.97401E+01 5.18186E-01-1.81585E-03 1.92060E+00-1.02978E-13 2.19577E-13
 -1      3223 2.02072E+01 5.65659E-01-3.64537E-03 1.39058E+00-2.23727E-13 9.12431E-14
 -1      3224 2.02785E+01 5.60472E-01 4.59730E-03 1.51469E+00-2.60113E-13 8.07139E-14
 -1      3225 1.97933E+01 6.60136E-01 1.22220E-03 1.60906E+00-2.57288E-13 3.99241E-13
 -1      3226 2.01927E+01 5.34081E-01-3.43707E-03 1.14041E+00-1.15640E-13 1.46767E-13
 -1      3227 2.02480E+01 5.57558E-01 3.58957E-03 1.25673E+00-1.92053E-13 9.42879E-14
 -1      3228 1.98678E+01 6.73810E-01 2.17556E-03 1.33235E+00-2.49099E-13 3.62077E-13
 -1      3229 2.01795E+01 4.70548E-01-2.96707E-03 9.19774E-01-1.20732E-13 2.42128E-13
 -1      3230 2.02261E+01 5.05929E-01 3.00066E-03 1.02354E+00-2.61267E-14 2.05458E-13
 -1      3231 1.99344E+01 6.21737E-01 2.15439E-03 1.08905E+00-1.42459E-13 2.76677E-13
 -1      3232 2.01628E+01 3.97285E-01-2.43823E-03 7.30253E-01-7.34033E-14 2.06885E-14
 -1      3233 2.02034E+01 4.35259E-01 2.59247E-03 8.19631E-01-7.37455E-14 1.95052E-13
 -1      3234 1.99837E+01 5.41568E-01 1.75016E-03 8.78014E-01-7.17162E-14 1.33920E-13
 -1      3235 2.01428E+01 3.25897E-01-1.94045E-03 5.71008E-01-4.96754E-14 7.47856E-14
 -1      3236 2.01782E+01 3.61750E-01 2.25412E-03 6.45977E-01-1.04663E-13-4.94166E-14
 -1      3237 2.00157E+01 4.54566E-01 1.26616E-03 6.97848E-01-6.10866E-14-6.89740E-14
 -1      3238 2.01212E+01 2.61748E-01-1.50947E-03 4.39715E-01 1.46091E-13 2.87626E-14
 -1      3239 2.01516E+01 2.93418E-01 1.94347E-03 5.01277E-01 1.10564E-13 3.88607E-14
 -1      3240 2.00335E+01 3.71740E-01 8.35988E-04 5.46582E-01-3.46100E-14-1.12265E-13
 -1      3241 2.00998E+01 2.06755E-01-1.15382E-03 3.33266E-01-2.07140E-14 2.44333E-13
 -1      3242 2.01253E+01 2.33619E-01 1.65003E-03 3.82928E-01 1.42793E-13 2.18848E-13
 -1      3243 2.00411E+01 2.98080E-01 5.01988E-04 4.21651E-01-2.33148E-14 1.22227E-13
 -1      3244 2.00800E+01 1.61052E-01-8.69371E-04 2.48262E-01-2.92820E-14 9.09580E-14
 -1      3245 2.01009E+01 1.83215E-01 1.37631E-03 2.87709E-01-5.72175E-14 2.27483E-13
 -1      3246 2.00422E+01 2.35237E-01 2.64724E-04 3.20087E-01-1.58998E-14 2.47372E-13
 -1      3247 2.00624E+01 1.23934E-01-6.46721E-04 1.81341E-01-9.98769E-14 1.92181E-13
 -1      3248 2.00793E+01 1.41831E-01 1.12681E-03 2.12235E-01-8.57372E-14 8.21549E-14
 -1      3249 2.00393E+01 1.83127E-01 1.09113E-04 2.38757E-01-3.30221E-14 1.95738E-13
 -1      3250 2.00475E+01 9.44513E-02-4.14896E-04 1.29411E-01 1.58395E-13 1.63391E-13
 -1      3251 2.00607E+01 1.08554E-01 9.06373E-04 1.53243E-01 6.61379E-14 2.91557E-14
 -1      3252 2.00343E+01 1.40862E-01 2.24815E-05 1.74574E-01 3.16100E-14-2.90064E-15
 -1      3253 2.00357E+01 7.19606E-02 1.63855E-04 9.01246E-02 3.23350E-13 1.49483E-13
 -1      3254 2.00454E+01 8.20546E-02 7.18788E-04 1.07533E-01 3.28173E-13 9.80710E-14
 -1      3255 2.00283E+01 1.07384E-01-2.03292E-05 1.24530E-01 2.86208E-13-8.30695E-14
 -1      3256 1.99600E+01 1.27594E-01-1.31697E-05-2.89535E-02-2.44514E-14 5.87856E-14
 -1      3257 1.99559E+01 1.31022E-01-4.03020E-04-1.91326E-02 6.42443E-14-1.24788E-13
 -1      3258 1.99539E+01 1.34156E-01-2.06468E-04-6.14009E-03-8.91632E-14-5.36235E-13
 -1      3259 1.99538E+01 1.34450E-01-2.44589E-04 4.79129E-03 5.95006E-14-5.45990E-13
 -1      3260 1.99460E+01 1.50552E-01 5.70352E-04-1.47753E-02 5.70870E-14-1.56679E-13
 -1      3261 2.70325E+01-1.51585E+00-1.45029E-01-9.69562E-01-3.01082E-13 3.57797E-13
 -1      3262 2.65539E+01-3.07397E+00 4.82642E-02 4.17020E-01-7.15157E-14 3.56049E-13
 -1      3263 2.67838E+01-3.99122E+00 4.08699E-02-6.04294E-01-1.34854E-13 1.86309E-13
 -1      3264 9.05975E+00 2.33612E-01 8.36697E-02-1.20035E+00-2.61572E-13 2.24432E-13
 -1      3265 9.83246E+00-2.70778E-01 8.24763E-02-3.12252E+00-1.12556E-13 2.04031E-13
 -1      3266 2.02900E+01 8.00264E-01 2.66139E-03-2.27295E-01-1.58922E-13-3.90623E-13
 -1      3267 2.02539E+01 6.54523E-01-2.94098E-03-7.37215E-02-1.51892E-13-3.75055E-13
 -1      3268 2.02771E+01 7.09036E-01-3.70364E-04-3.51431E-02-1.30686E-13-3.49069E-13
 -1      3269 2.56900E+01 4.38343E+00-1.17146E-01-1.47071E+00-4.70152E-13-1.22121E-13
 -1      3270 2.63404E+01 3.16523E+00-7.24184E-02-2.06830E+00-4.70138E-13 3.91562E-14
 -1      3271 1.68753E+01-3.34816E+00 1.41251E-01-5.72463E+00 1.81813E-13 5.72528E-14
 -1      3272 1.92049E+01-4.29317E+00-4.73410E-02-5.44499E+00 2.93085E-13 2.54796E-14
 -1      3273 2.01140E+01-4.12310E+00-7.88937E-02 4.62631E+00-1.74361E-13-1.02314E-13
 -1      3274 1.72301E+01-2.99627E+00 1.35649E-01 5.05924E+00-2.75460E-13 1.58366E-13
 -1      3275 2.02275E+01 1.83368E+00 6.47498E-03-8.52256E-01-1.93973E-13-5.21775E-13
 -1      3276 2.01810E+01 4.17268E-01-9.04151E-04-1.38564E-01 2.31942E-13-6.53940E-14
 -1      3277 2.02133E+01 5.00669E-01 3.74911E-03-2.22962E-02 2.65388E-13-7.00627E-14
 -1      3278 2.02138E+01 4.74895E-01-1.46400E-03-1.66888E-01 2.04325E-13-4.27457E-14
 -1      3279 2.18712E+01-4.42818E+00 1.19211E-01-4.38073E+00 2.95999E-13-1.04926E-13
 -1      3280 2.38465E+01-4.63861E+00-1.27820E-01-3.03534E+00 2.75176E-13-2.69015E-13
 -1      3281 1.99729E+01 1.13592E-01 1.64319E-04-4.74403E-02 8.50304E-14 1.90240E-13
 -1      3282 1.99655E+01 1.19867E-01-5.13160E-04-3.98736E-02-4.83310E-14 2.27529E-13
 -1      3283 1.99553E+01 1.40188E-01 4.85380E-04-4.01076E-02 1.27813E-13 1.12294E-13
 -1      3284 1.99901E+01 9.34826E-02 1.31544E-04-5.82908E-02 1.54749E-13 2.79803E-13
 -1      3285 1.99814E+01 1.02091E-01-4.73074E-04-5.46999E-02 9.58353E-14 8.59305E-14
 -1      3286 1.99724E+01 1.22058E-01 4.56431E-04-5.95018E-02 3.62075E-14 1.32587E-13
 -1      3287 2.00094E+01 6.51686E-02 2.59519E-04 5.21219E-02 1.86055E-13-1.76908E-13
 -1      3288 2.01119E+01 4.36067E-01 3.22466E-03-1.04973E+00 4.67761E-14-7.33932E-14
 -1      3289 2.00765E+01 3.97795E-01-2.75954E-03-9.62597E-01 7.56107E-14-5.50559E-14
 -1      3290 1.99749E+01 4.53391E-01 9.68390E-04-9.21449E-01 8.41437E-14-4.86851E-14
 -1      3291 1.99050E+01 5.36792E-01 1.63002E-03-1.09295E+00 4.58508E-14-7.02708E-14
 -1      3292 2.02887E+01 1.41412E+00-2.39705E-03-6.77841E-01-1.94826E-13-4.58979E-13
 -1      3293 2.02762E+01 1.04473E+00-2.86795E-03-3.76391E-01-1.68112E-13-4.33892E-13
 -1      3294 2.02893E+01 1.10299E+00 1.74548E-03-3.12974E-01-1.41482E-13-4.10612E-13
 -1      3295 2.02029E+01 1.74789E+00 1.63830E-03-6.31752E-01-1.29951E-13-5.06477E-13
 -1      3296 2.27109E+01-4.50907E+00 4.58599E-02-3.64998E+00-2.63053E-13-2.64453E-13
 -1      3297 2.50866E+01-4.73247E+00-7.08345E-02-2.30915E+00-1.96815E-13-9.79303E-14
 -1      3298 1.01007E+01-9.19572E-02 4.24227E-02 2.45344E+00-3.47104E-13 3.66235E-13
 -1      3299 9.22459E+00 3.61804E-01 1.15528E-01 5.72122E-01-2.53212E-13 1.65784E-13
 -1      3300 2.00055E+01 2.28454E+00-4.33860E-03 2.58589E-01 2.68881E-13-4.37040E-13
 -1      3301 1.99874E+01 2.32636E+00-3.78882E-03 1.49310E-01 2.17565E-13-4.79082E-13
 -1      3302 2.50187E+01-4.40254E+00-1.24970E-01 2.15378E+00 1.05756E-13 1.78826E-13
 -1      3303 2.35967E+01-4.55864E+00 7.01309E-02 3.41084E+00 2.32512E-13 1.82861E-13
 -1      3304 1.44898E+01-2.16308E+00 1.72522E-02 5.01192E+00-2.58675E-13 4.17180E-13
 -1      3305 1.21913E+01-8.39546E-01 1.17510E-01 3.90929E+00-4.28484E-13 6.36449E-13
 -1      3306 1.68884E+01-1.97254E+00 1.09399E-01 4.38978E+00-2.67716E-13 1.88162E-13
 -1      3307 1.12950E+01-1.11865E+00 1.27221E-01-4.47696E+00 5.55458E-14 2.23335E-13
 -1      3308 1.37761E+01-2.44074E+00 1.46872E-02-5.63195E+00 1.03889E-13 1.61038E-13
 -1      3309 1.19885E+01-3.55194E-01 1.39760E-01-3.46745E+00-1.12660E-13 2.08653E-13
 -1      3310 2.03188E+01 1.04293E+00-8.78064E-04 6.03003E-01 3.80201E-13-4.94362E-14
 -1      3311 2.02903E+01 1.37018E+00 4.12702E-03 6.88111E-01 3.88844E-13-8.19811E-14
 -1      3312 2.03005E+01 1.20904E+00 5.58468E-03 5.00634E-01 3.50818E-13-1.08732E-13
 -1      3313 2.02690E+01 8.40317E-01-3.09751E-03 3.81671E-01 3.48294E-13-5.57076E-14
 -1      3314 1.64635E+01-3.21169E+00-2.81081E-02 5.63010E+00 3.09641E-13-1.56278E-13
 -1      3315 1.39251E+01-1.86573E+00 1.42865E-01 5.15816E+00 3.08462E-13-2.67786E-13
 -1      3316 1.11147E+01-8.77791E-01 2.05959E-03 4.09586E+00 2.49481E-13-4.28838E-13
 -1      3317 9.53113E+00 6.09193E-02 1.41104E-01 2.15402E+00 2.03396E-13-5.63757E-13
 -1      3318 2.66920E+01 1.63725E+00-1.36320E-01-2.07243E+00-4.85736E-13 1.45009E-13
 -1      3319 2.72036E+01 2.80261E-01-1.30949E-02-1.87412E+00-3.88918E-13 2.15251E-13
 -1      3320 2.16396E+01-4.66912E+00-4.26072E-02 4.54502E+00 2.05169E-13 2.00900E-13
 -1      3321 1.94012E+01-3.95562E+00 1.05005E-01 5.19455E+00 2.23210E-13 1.66638E-14
 -1      3322 2.26842E+01-4.17146E+00 5.03890E-02 3.44010E+00 2.49231E-13 1.78500E-13
 -1      3323 2.59316E+01-3.61385E+00 8.36043E-02-1.13435E+00 2.07777E-13-3.11709E-13
 -1      3324 2.65817E+01-2.33319E+00-1.31864E-01 4.53449E-01 1.19829E-13-3.85601E-13
 -1      3325 2.68610E+01-7.16513E-01 2.74716E-03 1.55636E+00 1.08660E-13-4.06328E-13
 -1      3326 2.65080E+01 4.83355E-01-9.97120E-02 1.92373E+00 8.18096E-15-3.79970E-13
 -1      3327 2.54696E+01-4.47379E+00-6.98903E-02 1.75695E+00 6.31509E-14-4.93612E-13
 -1      3328 2.34152E+01-4.35601E+00 1.13439E-01 3.21901E+00-1.35267E-13-4.35423E-13
 -1      3329 2.56618E+01-3.89220E+00 3.49991E-03-1.02111E+00-1.98459E-13 3.07875E-13
 -1      3330 2.02480E+01 1.56024E+00 6.61177E-03 4.98434E-01 3.54417E-13-2.32396E-13
 -1      3331 2.01542E+01 1.89137E+00-6.64784E-03 6.10636E-01 3.76279E-13-2.72996E-13
 -1      3332 2.01085E+01 2.02959E+00-3.10064E-03 5.21692E-01 3.48204E-13-3.31390E-13
 -1      3333 2.57331E+01 1.99701E+00-3.36575E-02-2.04816E+00-2.92565E-13 1.27145E-13
 -1      3334 2.01092E+01 2.00446E+00-2.83610E-03-4.79755E-01-3.00602E-14-5.15993E-13
 -1      3335 2.01490E+01 1.87120E+00-7.41399E-03-5.68847E-01-8.24025E-14-5.34546E-13
 -1      3336 2.02439E+01 1.52282E+00 4.76496E-03-4.25328E-01-1.00551E-13-4.76151E-13
 -1      3337 2.33207E+01 3.03894E+00-5.03573E-02-8.18080E-01-2.61263E-13-6.71227E-14
 -1      3338 2.32487E+01 3.31232E+00-3.66145E-02-1.72409E-01-3.58168E-13-9.78649E-14
 -1      3339 2.40273E+01 3.88484E+00-3.52962E-02 3.38737E-01-3.25753E-13-1.08214E-13
 -1      3340 2.41896E+01 3.21183E+00-3.79333E-02-1.30260E+00-2.43205E-13 1.31034E-13
 -1      3341 2.45696E+01-3.78225E+00 2.23538E-02-1.73312E+00 1.97231E-13-2.26118E-13
 -1      3342 1.11645E+01 4.23552E-01 8.36683E-02-1.64275E+00-4.54220E-14-7.41775E-13
 -1      3343 1.03680E+01-7.71566E-02 1.38797E-01-2.44424E+00-4.61298E-14-8.12711E-13
 -1      3344 1.18034E+01-4.07818E-01 4.24655E-02-3.18145E+00-1.69701E-13-7.05519E-13
 -1      3345 2.00767E+01 3.37846E-01-2.94243E-04-6.33565E-01 8.31567E-14-2.60462E-14
 -1      3346 2.01122E+01 2.73042E-01 1.81927E-03-6.03822E-01 6.41371E-14-2.12674E-14
 -1      3347 2.00994E+01 2.67365E-01 9.84116E-05-5.37953E-01 7.88043E-14-1.93984E-14
 -1      3348 2.45780E+01-3.59829E+00 7.92514E-02-1.78179E+00-2.81217E-13 2.84155E-13
 -1      3349 2.27377E+01-3.65269E+00-2.00459E-02-2.89421E+00-3.81081E-13-3.39312E-14
 -1      3350 2.14466E+01-3.94026E+00 4.05847E-02-4.04716E+00-3.48471E-13-3.51203E-13
 -1      3351 2.27689E+01-3.33773E+00-4.90014E-02 2.62712E+00-6.28213E-14-2.91801E-13
 -1      3352 2.44708E+01-3.23609E+00 7.10516E-02 1.57800E+00-4.12691E-15-5.28259E-13
 -1      3353 2.00396E+01 2.18513E+00-2.99815E-03-3.03496E-01 4.83664E-14-5.10573E-13
 -1      3354 2.00692E+01 2.09936E+00-5.91611E-03-4.06839E-01 1.50146E-15-5.32429E-13
 -1      3355 2.01800E+01 1.75977E+00 5.52122E-03-3.16327E-01-2.05549E-14-4.81461E-13
 -1      3356 2.54916E+01-3.41097E+00 1.95120E-02 9.01254E-01 4.84526E-14 3.20188E-13
 -1      3357 2.00295E+01 5.06488E-02-5.56023E-04 6.32589E-02 7.84341E-14 2.04340E-13
 -1      3358 1.99651E+01 1.22704E-01-5.16067E-04 3.93669E-02 1.50215E-13-3.46413E-14
 -1      3359 1.99725E+01 1.16711E-01 1.26920E-04 4.72347E-02 2.11595E-13 1.33579E-13
 -1      3360 1.06683E+01 4.43370E-01 1.36685E-01 1.12173E+00 1.69966E-13-5.70127E-13
 -1      3361 2.01221E+01 2.71693E-01 1.13309E-03-4.70931E-01 9.29996E-14-1.52963E-14
 -1      3362 2.01222E+01 2.87032E-01 1.35772E-03-3.99462E-01 1.28114E-13-2.47935E-14
 -1      3363 2.01204E+01 3.29180E-01-8.08743E-04-4.97318E-01 8.22036E-14-1.73258E-15
 -1      3364 1.99807E+01 1.05764E-01-5.99853E-04 5.49789E-02 2.24993E-13-1.24776E-13
 -1      3365 1.99906E+01 9.77348E-02 4.37172E-04 5.92167E-02 3.43681E-13-2.38654E-13
 -1      3366 1.99717E+01 1.26878E-01 5.46653E-04 5.90466E-02 2.96441E-13-2.74807E-14
 -1      3367 2.63857E+01-8.72241E-01-6.48411E-03-1.44978E+00-2.67439E-13 2.29414E-13
 -1      3368 1.99556E+01 1.32523E-01-3.81118E-04 1.78909E-02 2.79320E-15-3.53061E-13
 -1      3369 1.99596E+01 1.29524E-01-5.88174E-05 2.80830E-02-9.24525E-15-1.42540E-13
 -1      3370 1.99547E+01 1.43518E-01 5.54701E-04 3.87921E-02 8.06411E-14-2.12626E-13
 -1      3371 1.99457E+01 1.51737E-01 5.86362E-04 1.28842E-02 8.33384E-15-4.65986E-13
 -1      3372 1.07263E+01 6.13523E-01 1.34205E-01-3.49391E-01-2.00109E-13 2.65420E-13
 -1      3373 2.08109E+01-3.90106E+00 5.63745E-02-4.36955E+00 3.38757E-13-1.09655E-13
 -1      3374 1.59355E+01-2.38953E+00 9.96891E-02-5.13845E+00 1.10204E-13 2.08167E-15
 -1      3375 1.99788E+01 2.34724E+00-3.76414E-03 6.07844E-02 1.76694E-13-5.14202E-13
 -1      3376 1.99770E+01 2.34551E+00-4.68305E-03-5.02688E-02 1.49106E-13-5.20182E-13
 -1      3377 2.00820E+01 2.07154E+00 5.57051E-03 8.67441E-02 1.80430E-13-4.60513E-13
 -1      3378 2.65635E+01-3.82311E+00 4.24027E-02 4.38691E-01 1.26293E-13-4.19071E-13
 -1      3379 2.53702E+01-3.65091E+00-7.91990E-03 9.50286E-01-5.30201E-14-4.07674E-13
 -1      3380 2.00154E+01 6.86266E-02 4.73063E-04 6.32463E-02 1.23303E-13-3.50610E-14
 -1      3381 2.00254E+01 7.15297E-02 3.97241E-04 7.66895E-02 1.64211E-13 9.06492E-14
 -1      3382 2.00149E+01 8.96860E-02-5.10768E-04 8.87305E-02 2.11511E-13-4.13128E-14
 -1      3383 2.00003E+01 8.24013E-02-8.90856E-04 6.31357E-02 3.18501E-13-2.71095E-13
 -1      3384 1.97638E+01-3.17447E+00 4.73433E-02-4.25924E+00-3.69312E-13-3.96572E-13
 -1      3385 2.73014E+01-2.95593E+00-7.34436E-02-8.20046E-01 2.35091E-13-3.83854E-13
 -1      3386 2.59937E+01-1.70876E+00 2.44879E-03 9.79272E-01 7.23267E-14-2.16563E-13
 -1      3387 2.19387E+01-3.64056E+00 4.45826E-02 3.41619E+00-1.82326E-13-3.44128E-13
 -1      3388 2.00661E+01 2.13514E+00-5.25684E-03 4.46654E-01 3.35798E-13-3.54316E-13
 -1      3389 2.00324E+01 2.22175E+00-3.56954E-03 3.43557E-01 2.98669E-13-3.92824E-13
 -1      3390 2.01152E+01 1.98758E+00 5.80262E-03 2.44943E-01 2.65486E-13-3.81881E-13
 -1      3391 2.01751E+01 1.81818E+00 6.23833E-03 3.87962E-01 3.17888E-13-3.12783E-13
 -1      3392 2.02229E+01 5.79625E-01-1.20115E-03 8.46693E-02 2.95483E-13-8.16257E-14
 -1      3393 2.02690E+01 7.11637E-01 3.84869E-03 2.45479E-01 3.15632E-13-6.49626E-14
 -1      3394 2.02826E+01 8.61845E-01-4.96874E-03 3.03954E-01 3.44684E-13-8.81884E-14
 -1      3395 2.02545E+01 6.42090E-01-1.48455E-03 4.68559E-02 2.80267E-13-9.60801E-14
 -1      3396 1.36111E+01-9.62114E-01 1.18466E-01 4.12808E+00 2.76636E-13-2.95007E-13
 -1      3397 1.25646E+01-1.11471E-01 1.19301E-01 2.89602E+00-2.80470E-13 4.95680E-13
 -1      3398 1.44013E+01-2.24399E+00 1.37804E-01-5.08925E+00-3.03257E-13-7.06046E-13
 -1      3399 1.65617E+01-2.54251E+00 6.52242E-02-4.83277E+00-3.42237E-13-6.07903E-13
 -1      3400 1.37007E+01-1.39814E+00 8.67944E-02-4.43553E+00-2.21996E-13-6.83342E-13
 -1      3401 2.58830E+01 1.57245E+00-6.94820E-02 2.20128E+00-7.31012E-14-3.91062E-13
 -1      3402 2.50085E+01 3.14017E+00-8.97245E-02 1.82733E+00-2.75689E-13-3.88342E-13
 -1      3403 2.01656E+01 3.69365E-01-1.18963E-03-3.47761E-01 1.34332E-13-1.98219E-14
 -1      3404 2.48952E+01 4.12677E+00-8.65354E-02 1.27041E+00-3.53356E-13-3.32904E-13
 -1      3405 2.48072E+01 4.63352E+00-6.80682E-02 3.20013E-01-3.62724E-13-2.87301E-13
 -1      3406 1.85710E+01-3.13497E+00 8.74230E-02 4.81989E+00 3.01259E-13-2.34916E-14
 -1      3407 2.50958E+01 4.66791E+00-1.25551E-01-8.39192E-01-4.03802E-13-1.53173E-13
 -1      3408 2.00014E+01 8.18269E-02-2.24730E-04-6.56592E-02 5.83264E-14 7.07326E-14
 -1      3409 1.99949E+01 8.72836E-02-3.78618E-04-6.22864E-02 1.30893E-13 1.66201E-13
 -1      3410 1.99872E+01 1.05289E-01 1.34671E-05-7.03972E-02 9.61984E-14 3.01772E-13
 -1      3411 2.00015E+01 9.32527E-02 2.92246E-04-7.72271E-02-5.26800E-16 1.50240E-13
 -1      3412 2.31201E+01-3.95264E+00-6.95416E-02 2.56219E+00 2.56743E-13 1.50367E-13
 -1      3413 2.18071E+01-3.59231E+00 6.64011E-02 3.38713E+00 2.30088E-13 1.83127E-13
 -1      3414 2.83740E+01-2.05791E+00-3.81218E-02-1.83354E+00 4.17374E-13-4.52034E-13
 -1      3415 2.53175E+01-2.80745E+00-5.57461E-02-7.18390E-02-1.19288E-14 4.06947E-13
 -1      3416 2.45209E+01-3.56174E+00 4.80788E-02 1.35262E+00 1.45337E-13 3.10127E-13
 -1      3417 2.35650E+01-3.63295E+00 9.65704E-02-2.21560E+00 2.76409E-13-1.68546E-13
 -1      3418 2.46375E+01-3.26631E+00-6.52886E-02-6.81800E-01 1.31851E-13-3.04535E-13
 -1      3419 2.02163E+01 4.60053E-01 1.00082E-03 2.81191E-01-9.83771E-14-2.74844E-13
 -1      3420 2.01903E+01 4.08694E-01-3.80894E-04 3.56733E-01-7.56296E-14-2.46335E-13
 -1      3421 2.01548E+01 3.72542E-01 3.87211E-04 4.20470E-01-5.66658E-14-2.07953E-13
 -1      3422 2.01318E+01 3.47551E-01 4.20705E-04 4.84305E-01-1.94475E-14-1.63023E-13
 -1      3423 2.01709E+01 4.51370E-01 7.82552E-05 3.62185E-01-3.28673E-14-1.69568E-13
 -1      3424 2.00900E+01 3.31602E-01-2.19581E-04 5.42557E-01-1.46010E-14-1.37368E-13
 -1      3425 2.00720E+01 3.22543E-01 1.07723E-03 6.00963E-01 5.08231E-15-1.11864E-13
 -1      3426 2.00920E+01 3.92991E-01-3.85588E-05 4.86127E-01-1.18936E-14-1.16620E-13
 -1      3427 2.00276E+01 3.16768E-01-6.49233E-04 6.59050E-01 1.36660E-14-1.53359E-13
 -1      3428 2.00165E+01 3.13518E-01 1.64613E-03 7.16466E-01-9.07667E-16-1.28846E-13
 -1      3429 2.00064E+01 3.70381E-01-1.64340E-04 6.04082E-01-2.40140E-15-1.64585E-13
 -1      3430 1.99733E+01 3.07807E-01-8.26695E-04 7.78480E-01 2.75686E-15-9.97142E-14
 -1      3431 1.99725E+01 2.99635E-01 2.19726E-03 8.37384E-01 1.03480E-14-9.23792E-14
 -1      3432 1.99205E+01 3.61699E-01-4.20308E-04 7.25749E-01 1.54330E-14-1.82723E-13
 -1      3433 1.99364E+01 2.82875E-01-6.57326E-04 9.06036E-01-2.42201E-14-6.64289E-14
 -1      3434 1.99516E+01 2.57638E-01 2.80014E-03 9.66782E-01-3.28012E-14-2.27818E-14
 -1      3435 1.98427E+01 3.43800E-01-9.57186E-04 8.58559E-01 1.41829E-14-1.25793E-13
 -1      3436 1.99314E+01 2.17047E-01 1.46155E-05 1.04321E+00-3.60285E-14-4.49755E-14
 -1      3437 1.99717E+01 1.60603E-01 3.48355E-03 1.10365E+00 1.05092E-14-5.37380E-14
 -1      3438 1.97861E+01 2.90456E-01-1.99703E-03 1.00747E+00-1.33116E-14-9.36296E-14
 -1      3439 1.99817E+01 8.15047E-02 1.44174E-03 1.18673E+00-1.52492E-14-7.84461E-14
 -1      3440 2.00607E+01-2.21045E-02 4.21009E-03 1.24124E+00-2.67078E-14-1.14018E-13
 -1      3441 1.97716E+01 1.71068E-01-3.80431E-03 1.17439E+00-1.89378E-14-1.18888E-13
 -1      3442 2.01226E+01-1.55306E-01 4.01517E-03 1.32601E+00-4.23133E-14-8.40281E-14
 -1      3443 2.02589E+01-3.22469E-01 4.60912E-03 1.36371E+00-5.07501E-14-7.00362E-14
 -1      3444 1.98319E+01-4.94385E-02-6.71694E-03 1.35607E+00 4.19817E-15-1.02141E-13
 -1      3445 2.04052E+01-5.23266E-01 8.21246E-03 1.43707E+00-8.70766E-15-9.91276E-14
 -1      3446 2.06197E+01-7.65115E-01 3.84798E-03 1.43830E+00 1.63473E-14-4.58123E-14
 -1      3447 2.00166E+01-4.09114E-01-1.13078E-02 1.53943E+00-2.87429E-14-7.35362E-14
 -1      3448 2.08930E+01-1.03495E+00 1.42878E-02 1.47149E+00 1.60377E-14-1.46828E-15
 -1      3449 2.12063E+01-1.34190E+00 2.55780E-03 1.40347E+00 1.07055E-14 3.30719E-14
 -1      3450 2.03976E+01-9.36104E-01-1.73168E-02 1.68771E+00 6.64871E-14-9.58795E-14
 -1      3451 2.16499E+01-1.66181E+00 2.08774E-02 1.35294E+00 1.96035E-14 1.50409E-13
 -1      3452 2.20613E+01-1.98858E+00-4.81589E-03 1.16777E+00 8.89809E-14 1.32069E-13
 -1      3453 2.10502E+01-1.61679E+00-2.50235E-02 1.72769E+00 1.07094E-13 8.02336E-14
 -1      3454 2.40397E+01-2.53233E+00 1.66102E-02 1.04082E-01 2.11055E-14 3.58526E-13
 -1      3455 2.44318E+01-2.30410E+00-1.82270E-02-3.71843E-01 3.49729E-14 2.91570E-13
 -1      3456 2.39648E+01-2.57779E+00-1.61979E-02-1.69352E-01 1.57156E-13-2.55860E-13
 -1      3457 2.35527E+01-2.57185E+00 4.01274E-02-5.89852E-01 4.82466E-14-2.52798E-13
 -1      3458 2.27037E+01-2.38859E+00-5.40579E-03-9.85135E-01 9.74203E-14-3.87478E-14
 -1      3459 2.22438E+01-2.10291E+00 3.27344E-02-1.25527E+00 1.37022E-13-1.32177E-14
 -1      3460 2.28148E+01-3.02250E+00-5.50540E-02-1.56755E+00 2.40136E-13-1.33971E-13
 -1      3461 2.16380E+01-1.75200E+00 6.43111E-03-1.36927E+00 1.50518E-14-6.15692E-14
 -1      3462 2.12472E+01-1.41324E+00 2.54019E-02-1.49619E+00 1.88044E-15-9.62175E-14
 -1      3463 2.13960E+01-2.19397E+00-4.15921E-02-1.92955E+00 7.60308E-14 1.10016E-13
 -1      3464 2.08568E+01-1.07824E+00 9.05662E-03-1.46879E+00-8.82959E-14-8.94560E-14
 -1      3465 2.05699E+01-7.83434E-01 1.65082E-02-1.49792E+00-9.09520E-14-6.15866E-14
 -1      3466 2.04802E+01-1.34875E+00-2.98739E-02-1.91658E+00-9.68245E-14 1.23764E-13
 -1      3467 2.03484E+01-5.17480E-01 9.10176E-03-1.40691E+00-9.03864E-14-2.39167E-13
 -1      3468 2.01549E+01-2.97105E-01 9.51516E-03-1.38012E+00-6.24030E-14-2.49054E-13
 -1      3469 1.99339E+01-6.51580E-01-1.98910E-02-1.72749E+00-1.29104E-13-9.89640E-14
 -1      3470 2.00477E+01-1.09994E-01 7.51851E-03-1.26967E+00-1.27246E-14-2.78824E-13
 -1      3471 1.99272E+01 3.69313E-02 4.72280E-03-1.21440E+00-2.22020E-14-1.81926E-13
 -1      3472 1.96540E+01-1.50732E-01-1.22024E-02-1.48176E+00-5.97026E-14-4.98388E-14
 -1      3473 1.98901E+01 1.55581E-01 5.59799E-03-1.10593E+00-1.06748E-13-3.28318E-13
 -1      3474 1.98207E+01 2.42814E-01 1.76135E-03-1.03851E+00-6.20006E-14-2.37804E-13
 -1      3475 1.95416E+01 1.73527E-01-6.94557E-03-1.23885E+00-1.33730E-13-7.11957E-14
 -1      3476 1.98238E+01 3.08786E-01 4.04111E-03-9.39851E-01 1.91961E-15-3.03428E-13
 -1      3477 1.97870E+01 3.51834E-01 4.67072E-05-8.69689E-01-4.40009E-14-2.93693E-13
 -1      3478 1.95267E+01 3.61482E-01-3.53971E-03-1.01970E+00-5.99399E-14-2.08561E-13
 -1      3479 1.98110E+01 3.80261E-01 2.91275E-03-7.83179E-01-4.08080E-14-1.79243E-13
 -1      3480 1.97939E+01 3.92967E-01-8.68966E-04-7.15623E-01 3.39025E-14-8.96194E-14
 -1      3481 1.95643E+01 4.51247E-01-1.47163E-03-8.29417E-01 2.58610E-14-2.69466E-13
 -1      3482 1.98266E+01 3.96445E-01 2.13868E-03-6.41363E-01 2.18085E-13-2.05493E-14
 -1      3483 1.98206E+01 3.89868E-01-1.28699E-03-5.79371E-01 2.46379E-13 1.05189E-13
 -1      3484 1.96259E+01 4.74530E-01-2.95398E-04-6.67353E-01 1.59532E-13 2.16026E-14
 -1      3485 1.98549E+01 3.78086E-01 1.61692E-03-5.16616E-01 1.07590E-13 1.28082E-13
 -1      3486 1.98544E+01 3.60460E-01-1.40492E-03-4.61675E-01 1.38659E-13 1.10332E-13
 -1      3487 1.96947E+01 4.55850E-01 3.13094E-04-5.31008E-01 2.83222E-13-3.15248E-14
 -1      3488 1.98864E+01 3.40436E-01 1.26135E-03-4.09367E-01 1.26216E-13-1.09584E-14
 -1      3489 1.98882E+01 3.17549E-01-1.34977E-03-3.62013E-01 2.15665E-13 2.49855E-14
 -1      3490 1.97608E+01 4.13230E-01 5.77181E-04-4.17488E-01 3.07697E-14-1.40709E-13
 -1      3491 1.99160E+01 2.94096E-01 1.01089E-03-3.18987E-01 2.50725E-13-4.28090E-14
 -1      3492 1.99184E+01 2.69772E-01-1.20810E-03-2.79139E-01 1.82899E-13-6.69002E-14
 -1      3493 1.98194E+01 3.59305E-01 6.45326E-04-3.23959E-01 1.08674E-13-1.41568E-13
 -1      3494 1.99414E+01 2.45983E-01 8.23313E-04-2.44258E-01 1.34596E-13-6.53256E-14
 -1      3495 1.99435E+01 2.22606E-01-1.03529E-03-2.11440E-01 1.37553E-14-1.19342E-14
 -1      3496 1.98685E+01 3.02406E-01 5.99941E-04-2.47760E-01 1.17748E-13-2.41228E-13
 -1      3497 1.99616E+01 2.00639E-01 7.27105E-04-1.83594E-01 2.37349E-14 9.41584E-15
 -1      3498 1.99631E+01 1.79454E-01-8.24157E-04-1.56943E-01 1.25165E-13 6.06516E-14
 -1      3499 1.99078E+01 2.47871E-01 4.97496E-04-1.86629E-01 8.20089E-14 2.09778E-13
 -1      3500 1.99771E+01 1.59843E-01 6.72117E-04-1.35040E-01 1.01177E-13 7.11429E-14
 -1      3501 1.99780E+01 1.42440E-01-2.82503E-04-1.14280E-01 4.47577E-14 2.42835E-13
 -1      3502 1.99374E+01 1.98061E-01 9.09637E-08-1.38063E-01 1.68400E-13 2.70106E-13
 -1      3503 1.99139E+01-3.38793E+00-5.32329E-02 4.24456E+00 2.60876E-13 1.33966E-13
 -1      3504 1.78196E+01-2.28531E+00 9.71114E-02 4.48601E+00 3.57660E-13-1.04829E-13
 -1      3505 2.08790E+01-3.02539E+00 7.35677E-03 3.32522E+00 2.18804E-13 1.10089E-13
 -1      3506 1.93345E+01 7.72986E-01 3.51766E-03-1.48698E+00-3.69155E-14-1.40006E-13
 -1      3507 1.93874E+01 7.51370E-01-6.02901E-03-1.36875E+00-4.57648E-14-1.15758E-13
 -1      3508 1.95383E+01 7.21355E-01 2.30105E-03-1.26298E+00-2.32824E-14-1.24206E-13
 -1      3509 1.95853E+01 6.77452E-01-4.88193E-03-1.16114E+00 2.15362E-14-1.04448E-13
 -1      3510 1.91939E+01 8.36721E-01 5.10620E-03-1.22800E+00-1.44836E-14-6.80964E-14
 -1      3511 1.88894E+01 5.49390E-01 1.15942E-02-2.09619E+00-8.19049E-14-2.37395E-13
 -1      3512 1.88967E+01 6.65257E-01-8.04447E-03-1.92954E+00-5.17267E-14-2.21188E-13
 -1      3513 1.87667E+01 8.56856E-02 2.01181E-02-2.53683E+00-1.51283E-13-2.31633E-13
 -1      3514 1.86721E+01 3.54940E-01-6.93075E-03-2.33337E+00-9.88741E-14-2.22322E-13
 -1      3515 1.80798E+01 6.30369E-01 4.95334E-03-2.13349E+00-9.84969E-14-3.51744E-13
 -1      3516 1.88670E+01-8.12055E-01 2.47653E-02-3.11833E+00-3.50740E-13-2.56468E-13
 -1      3517 1.86015E+01-2.83860E-01 4.74166E-03-2.86689E+00-2.43106E-13-2.59310E-13
 -1      3518 1.76771E+01 1.02651E-01-3.67756E-03-2.70523E+00-1.74214E-13-3.19498E-13
 -1      3519 1.99322E+01 1.67814E-01-1.18617E-04-2.50048E-02 2.43612E-13-2.55881E-14
 -1      3520 1.99289E+01 1.70443E-01-4.16398E-04-1.06025E-02 1.27089E-13-2.18433E-13
 -1      3521 1.89866E+01 4.81292E-01-5.71633E-03 2.14034E+00-1.52468E-13 2.49686E-13
 -1      3522 1.90720E+01 2.61173E-01 1.71537E-02 2.32290E+00-1.76127E-13 2.22663E-13
 -1      3523 1.82303E+01-2.17811E+00-4.82842E-02 4.14749E+00-2.36870E-13-1.02952E-13
 -1      3524 1.63021E+01-1.10942E+00 8.23540E-02 3.95165E+00-2.66842E-13 2.74530E-13
 -1      3525 1.91742E+01-1.09507E+00 2.41599E-02 3.23269E+00-1.43375E-13-3.56828E-14
 -1      3526 1.97696E+01-1.82659E+00 5.18111E-02 3.42187E+00-1.05796E-13-1.10675E-13
 -1      3527 1.91608E+01 7.28234E-01-6.73572E-03 1.76327E+00-1.41677E-13 3.62020E-13
 -1      3528 1.91629E+01 6.38939E-01 9.57828E-03 1.92347E+00-8.45148E-14 2.50133E-13
 -1      3529 1.84230E+01 7.26227E-01 4.75516E-03 1.96969E+00-1.83886E-13 3.98752E-13
 -1      3530 1.93586E+01 7.96990E-01-6.18439E-03 1.45651E+00-2.55141E-13 1.99703E-13
 -1      3531 1.93305E+01 7.82892E-01 5.06195E-03 1.59719E+00-1.79085E-13 3.16933E-13
 -1      3532 1.87623E+01 8.95854E-01 5.51588E-03 1.59825E+00-9.53894E-14 3.43026E-13
 -1      3533 1.95365E+01 7.67275E-01-5.31777E-03 1.19842E+00-2.33735E-13 1.78499E-13
 -1      3534 1.95043E+01 7.93580E-01 2.99430E-03 1.32238E+00-3.14430E-13 2.34313E-13
 -1      3535 1.90655E+01 9.16259E-01 5.28293E-03 1.31182E+00-2.65204E-13 1.95177E-14
 -1      3536 1.96804E+01 6.89076E-01-4.43940E-03 9.77660E-01-9.96025E-14 2.14478E-13
 -1      3537 1.96542E+01 7.34171E-01 2.08034E-03 1.08630E+00-1.09280E-13 3.27525E-13
 -1      3538 1.93159E+01 8.55962E-01 4.62177E-03 1.07805E+00-1.65944E-13 2.60058E-14
 -1      3539 1.97892E+01 5.92480E-01-3.64343E-03 7.88534E-01 4.89016E-14 2.87567E-15
 -1      3540 1.97715E+01 6.43561E-01 1.67999E-03 8.82578E-01 5.74156E-15 5.68747E-14
 -1      3541 1.95124E+01 7.57314E-01 3.74622E-03 8.80848E-01 5.60661E-14 5.07113E-14
 -1      3542 1.98676E+01 4.94364E-01-2.94953E-03 6.27683E-01-9.70192E-15-1.60816E-13
 -1      3543 1.98577E+01 5.44409E-01 1.48875E-03 7.07819E-01 4.73012E-14-4.14210E-14
 -1      3544 1.96611E+01 6.46201E-01 2.88090E-03 7.12447E-01 9.13279E-14-9.54870E-14
 -1      3545 1.99220E+01 4.03379E-01-2.35825E-03 4.92541E-01 4.61342E-14-2.29690E-13
 -1      3546 1.99180E+01 4.48907E-01 1.36137E-03 5.59686E-01-7.27994E-15-2.15735E-13
 -1      3547 1.97704E+01 5.37104E-01 2.13194E-03 5.68896E-01 2.44727E-14-2.33444E-13
 -1      3548 1.99582E+01 3.23327E-01-1.86421E-03 3.80626E-01-9.33621E-14 3.34131E-14
 -1      3549 1.99582E+01 3.62923E-01 1.23840E-03 4.35956E-01-5.05307E-14-1.46199E-13
 -1      3550 1.98490E+01 4.37416E-01 1.53092E-03 4.47738E-01-4.73319E-14-2.35344E-13
 -1      3551 1.99815E+01 2.55279E-01-1.45806E-03 2.89340E-01-3.78272E-14-1.08617E-14
 -1      3552 1.99839E+01 2.88676E-01 1.10353E-03 3.34209E-01-5.18835E-15-3.66118E-14
 -1      3553 1.99042E+01 3.50279E-01 1.07042E-03 3.46892E-01-4.98191E-14-1.00950E-13
 -1      3554 1.99956E+01 1.98870E-01-1.13227E-03 2.16010E-01-1.24126E-14 3.60763E-14
 -1      3555 1.99993E+01 2.26399E-01 9.62027E-04 2.51840E-01-4.60732E-15 7.05419E-14
 -1      3556 1.99421E+01 2.76409E-01 7.28823E-04 2.64252E-01-6.59618E-14-2.90099E-13
 -1      3557 2.00036E+01 1.53055E-01-8.55793E-04 1.58023E-01 1.15713E-13-2.53475E-13
 -1      3558 2.00077E+01 1.75293E-01 8.20684E-04 1.86185E-01 7.82803E-14-8.88654E-14
 -1      3559 1.99676E+01 2.15176E-01 4.66980E-04 1.97588E-01 1.83307E-13-1.32837E-13
 -1      3560 2.00077E+01 1.16652E-01-4.55690E-04 1.12803E-01 2.94402E-13-1.65281E-13
 -1      3561 2.00114E+01 1.33970E-01 6.22991E-04 1.34739E-01 1.86841E-13-2.39474E-13
 -1      3562 1.99840E+01 1.65378E-01 2.52848E-04 1.44858E-01 9.73441E-14-3.80140E-13
 -1      3563 1.99692E+01 1.32265E-01 3.16927E-04-7.45330E-02 5.64867E-14 9.69790E-14
 -1      3564 1.99567E+01 1.41568E-01-7.90391E-04-6.60293E-02 9.33664E-14-3.02695E-14
 -1      3565 1.17641E+01 5.05063E-01-1.51815E-03 1.76324E+00 1.96965E-13-3.60489E-13
 -1      3566 1.14160E+01 7.97576E-01 7.45725E-02 1.24427E-02 6.43175E-14-5.01536E-13
 -1      3567 1.15082E+01 7.95011E-01 9.39905E-04 4.77405E-01-1.83282E-13 2.25861E-13
 -1      3568 1.15707E+01 7.67261E-01 5.80395E-02-1.22619E+00-2.10923E-13 3.54966E-13
 -1      3569 1.50873E+01-1.38848E+00-6.11479E-02 4.33959E+00 3.36377E-13-1.77941E-13
 -1      3570 1.31702E+01-1.06022E-01 8.61885E-02 3.23933E+00 3.12831E-13-3.13950E-13
 -1      3571 2.02943E+01 8.72766E-01 1.04576E-04-1.05640E-01-1.11803E-13-3.75731E-13
 -1      3572 2.02774E+01 7.31927E-01-2.02521E-03 1.78593E-02-1.03840E-13-3.51356E-13
 -1      3573 2.45664E+01 3.70499E+00-3.51435E-02-1.19280E+00-3.23630E-13 1.15589E-13
 -1      3574 2.02265E+01 5.17437E-01-1.32721E-03-1.96331E-01 1.55446E-13-8.46538E-14
 -1      3575 2.02564E+01 6.00675E-01 2.20828E-03-9.23095E-02 1.95861E-13-1.14887E-13
 -1      3576 1.51636E+01-1.49975E+00 7.81315E-02-4.60414E+00 3.03507E-14-8.61047E-14
 -1      3577 1.74239E+01-2.69222E+00-4.37704E-02-4.82565E+00 1.71002E-13-2.11088E-13
 -1      3578 1.99467E+01 1.53912E-01 7.81139E-05-5.34865E-02 1.46114E-13 2.21010E-13
 -1      3579 1.99381E+01 1.60554E-01-5.72106E-04-4.13731E-02 2.30387E-13-3.08081E-14
 -1      3580 1.99235E+01 1.85027E-01 5.66588E-04-3.85167E-02 2.44758E-13-2.92623E-14
 -1      3581 1.99433E+01 1.66487E-01 5.85812E-04-6.88761E-02 1.50025E-13 2.65527E-14
 -1      3582 1.80837E+01-2.52612E+00 4.13176E-02-4.52692E+00-3.44436E-13-5.55219E-13
 -1      3583 2.00493E+01-2.34811E+00 3.48813E-02-3.61389E+00-4.22801E-13-2.26718E-13
 -1      3584 1.93705E+01-1.50282E+00 4.06190E-02-3.43430E+00-3.81965E-13-1.84465E-13
 -1      3585 1.70823E+01-1.66184E+00 6.64790E-02-4.21994E+00-3.51406E-13-5.56544E-13
 -1      3586 1.91062E+01 7.40389E-01 6.17427E-03-1.75760E+00-3.63593E-14-1.78947E-13
 -1      3587 1.91522E+01 7.67255E-01-7.20253E-03-1.61859E+00-1.48555E-14-1.66516E-13
 -1      3588 1.88757E+01 8.89004E-01 5.97856E-03-1.45061E+00-1.19215E-14-1.77923E-13
 -1      3589 1.84985E+01 8.46741E-01 6.24164E-03-1.73786E+00-2.41077E-14-2.43822E-13
 -1      3590 1.99494E+01 4.55893E-01 1.24978E-03-7.65072E-01 7.69304E-14-6.80401E-14
 -1      3591 1.99740E+01 4.23134E-01-1.83072E-03-6.94939E-01 1.08691E-13-9.39894E-14
 -1      3592 1.97747E+01-3.16034E+00 1.06822E-01-4.35240E+00 2.87277E-13-2.19831E-13
 -1      3593 2.14136E+01-3.79413E+00-8.88878E-02-3.60230E+00 3.10502E-13-1.28165E-13
 -1      3594 2.51899E+01 6.19341E-01-2.32241E-02 1.97625E+00-9.23255E-14-2.54428E-13
 -1      3595 1.89457E+01-6.14045E-02 1.84422E-03 2.61158E+00-2.06026E-13 2.40612E-13
 -1      3596 1.92246E+01-4.86726E-01 3.29140E-02 2.80647E+00-1.47715E-13 1.71592E-13
 -1      3597 1.81110E+01 2.92455E-01 3.65994E-03 2.48588E+00-1.53045E-13 3.22407E-13
 -1      3598 2.04674E+01-2.59692E+00 9.45818E-02 3.71153E+00-1.98038E-13-1.89283E-13
 -1      3599 2.01726E+01 4.16087E-01-3.87508E-04-3.62607E-01 1.05332E-13-6.30575E-14
 -1      3600 2.01996E+01 4.57803E-01 1.37584E-03-2.79936E-01 1.40344E-13-7.03101E-14
 -1      3601 2.02267E+01 5.69562E-01 4.07473E-04-2.14130E-01 1.40383E-13-1.40948E-13
 -1      3602 2.02671E+01 6.17770E-01 1.35343E-03 1.10752E-01-1.08615E-13-3.31336E-13
 -1      3603 2.02419E+01 5.28151E-01-1.20881E-03 2.06099E-01-1.09908E-13-3.10310E-13
 -1      3604 2.02366E+01 5.67471E-01 1.59278E-04 2.20885E-01-8.56938E-14-2.60404E-13
 -1      3605 1.21062E+01 1.84734E-01 3.13300E-02-2.66485E+00-2.37140E-13 1.67255E-13
 -1      3606 1.33817E+01-6.81345E-01 2.03919E-02-3.97825E+00-1.22367E-13-3.78864E-15
 -1      3607 1.99943E+01 2.30352E+00-3.16053E-03-1.26944E-01 1.26350E-13-5.07110E-13
 -1      3608 2.00083E+01 2.26055E+00-5.28202E-03-2.35822E-01 8.63434E-14-5.18458E-13
 -1      3609 2.01265E+01 1.92936E+00 5.69657E-03-1.94170E-01 5.84015E-14-4.78480E-13
 -1      3610 2.00889E+01 2.04763E+00 5.79515E-03-6.47936E-02 1.14517E-13-4.85696E-13
 -1      3611 1.39706E+01-3.54919E-01-1.90591E-02 3.39665E+00-2.49207E-13 5.95787E-13
 -1      3612 1.23812E+01 5.74590E-01 7.69440E-02 1.97916E+00-1.36030E-13 3.60982E-13
 -1      3613 2.51297E+01-6.04350E-01-7.96056E-02 1.80398E+00 8.31852E-14-1.76244E-13
 -1      3614 2.52529E+01-1.93219E+00-1.79233E-02-9.56336E-01-3.24064E-14 3.32463E-13
 -1      3615 2.49444E+01-2.36546E+00 9.37698E-03 4.83545E-01 1.52077E-13-3.09745E-13
 -1      3616 2.46365E+01 2.69806E+00-1.20548E-01-1.88094E+00-3.10939E-13 2.19118E-13
 -1      3617 2.52665E+01-1.68183E+00-9.44302E-03 9.91078E-01 8.26492E-14-1.99359E-13
 -1      3618 2.31892E+01-2.49083E+00-1.24280E-02 6.21567E-01 9.00035E-14 2.86263E-13
 -1      3619 2.35907E+01-3.00552E+00-3.99751E-02 9.61800E-01 9.51949E-14 2.98738E-13
 -1      3620 2.27402E+01-2.29605E+00 2.95496E-02 9.49588E-01 1.45281E-13 2.51047E-13
 -1      3621 1.70810E+01-1.45790E+00 5.86574E-02 3.87367E+00 3.05037E-13-1.22740E-13
 -1      3622 2.54935E+01-9.92054E-01-2.02142E-02-1.41602E+00-1.46459E-13 3.02307E-13
 -1      3623 2.52545E+01 2.07090E-01-1.02878E-01-2.03856E+00-2.04966E-13 2.27415E-13
 -1      3624 2.52401E+01 1.63144E+00-3.02275E-02-2.02515E+00-2.27554E-13 2.49637E-13
 -1      3625 1.19042E+01 8.29656E-01 8.36205E-02-6.55334E-01-1.34250E-14-6.62505E-13
 -1      3626 1.26502E+01 6.74193E-01 2.05267E-02-1.46351E+00-8.30256E-14-6.66793E-13
 -1      3627 1.29458E+01 9.52798E-01 1.27838E-02-4.53266E-02 4.93555E-14-4.21177E-13
 -1      3628 1.99515E+01 1.63467E-01-5.99194E-04-9.92303E-02 1.46212E-13 1.80420E-13
 -1      3629 1.99794E+01 1.34086E-01 3.39509E-04-9.72118E-02 2.64980E-14 2.28483E-13
 -1      3630 1.98717E+01 4.93229E-01-2.82018E-03-8.31772E-01 9.80056E-14-5.01229E-14
 -1      3631 1.98253E+01 5.40127E-01 1.98356E-03-7.52956E-01 1.00472E-13-9.67269E-14
 -1      3632 1.98420E+01 5.38124E-01 1.49675E-03-9.09259E-01 8.84056E-14-8.08644E-14
 -1      3633 2.00365E+01 4.00141E-01 9.03133E-04-6.32846E-01 9.58951E-14-1.13215E-13
 -1      3634 2.00592E+01 3.85515E-01-8.22720E-04-5.65350E-01 7.11944E-14-9.27121E-14
 -1      3635 1.99584E+01 4.72335E-01 1.20881E-03-6.26554E-01 8.09628E-14-2.04822E-13
 -1      3636 2.02693E+01 1.28973E+00-2.85484E-03-3.35662E-01-9.95364E-14-4.48467E-13
 -1      3637 2.02857E+01 1.03622E+00-1.07697E-04-1.88953E-01-9.93587E-14-4.04431E-13
 -1      3638 2.02844E+01 1.06080E+00 1.23375E-03-1.31710E-01-7.86018E-14-3.97534E-13
 -1      3639 2.02417E+01 1.43532E+00 1.06721E-03-2.99979E-01-5.21789E-14-4.44304E-13
 -1      3640 2.21304E+01-2.45497E+00-3.10648E-02 1.58035E+00 1.65820E-13 1.86757E-13
 -1      3641 2.02125E+01 1.52569E+00-3.63924E-03-2.62779E-01-3.70548E-14-4.46831E-13
 -1      3642 2.02556E+01 1.32835E+00 2.59199E-03-1.84024E-01-5.35198E-14-4.32973E-13
 -1      3643 2.01891E+01 1.62325E+00-6.27657E-04-2.07386E-01 1.39443E-14-4.37193E-13
 -1      3644 1.94528E+01 7.41098E-01 4.02493E-03-1.04559E+00 6.87614E-14-8.14411E-14
 -1      3645 1.97071E+01 6.33067E-01 1.77305E-03-1.07300E+00 6.82519E-14-8.66193E-14
 -1      3646 1.97448E+01 5.83365E-01-3.82305E-03-9.84712E-01 9.37868E-14-5.17789E-14
 -1      3647 1.78464E+01-1.00604E+00-2.87772E-02-3.48685E+00-3.72449E-13-3.47817E-13
 -1      3648 1.35921E+01 3.95772E-01 7.16303E-02 2.19299E+00 2.47267E-13-3.07497E-13
 -1      3649 1.58936E+01-3.73906E-01 6.15892E-02 3.25123E+00-2.76699E-13 2.91626E-13
 -1      3650 2.36258E+01-3.29096E+00 2.23958E-02 1.49863E+00 1.45514E-13 2.17246E-13
 -1      3651 2.00000E+01 1.14558E-01 3.05291E-04 9.71251E-02 1.58806E-13-1.33104E-13
 -1      3652 1.99908E+01 1.11465E-01-3.45620E-04-8.74292E-02 5.22482E-14 3.10464E-13
 -1      3653 1.53110E+01-8.24146E-01 8.68040E-02-3.84147E+00-3.61239E-14-2.15369E-13
 -1      3654 1.30068E+01 6.47974E-01 7.88253E-02-1.79694E+00-1.66739E-13 2.37386E-13
 -1      3655 2.01094E+01 3.82627E-01 3.79838E-04-5.02826E-01 9.49742E-14-7.62803E-14
 -1      3656 2.01333E+01 3.92275E-01 2.11499E-04-4.31716E-01 1.03153E-13-6.25422E-14
 -1      3657 2.01564E+01 4.71322E-01 3.02057E-04-3.68943E-01 1.23590E-13-1.69996E-13
 -1      3658 2.00672E+01 4.44814E-01 6.26123E-04-5.02149E-01 1.04466E-13-1.90316E-13
 -1      3659 1.99552E+01 1.47389E-01-7.87535E-04 6.50151E-02 1.29432E-13 1.19159E-13
 -1      3660 1.99673E+01 1.37971E-01 2.78140E-05 7.34554E-02 1.76411E-13-7.65838E-14
 -1      3661 1.99287E+01 1.71526E-01-3.30078E-04 7.28875E-03 8.10183E-14-3.07678E-13
 -1      3662 1.99314E+01 1.69818E-01-2.18238E-04 2.17858E-02-1.05854E-14-1.72913E-13
 -1      3663 1.99163E+01 1.93082E-01 6.84718E-04-2.45007E-03 2.41530E-13-2.58628E-13
 -1      3664 2.02794E+01 7.67960E-01 4.74259E-04 5.00507E-02-9.09469E-14-3.34199E-13
 -1      3665 2.02762E+01 1.24807E+00-4.84547E-03 3.89272E-01 3.36931E-13-1.86058E-13
 -1      3666 2.02493E+01 1.40578E+00-7.76143E-04 3.55254E-01 3.24352E-13-2.41439E-13
 -1      3667 1.99938E+01 1.02415E-01 1.80956E-04 7.13975E-02 2.88832E-13-1.98223E-13
 -1      3668 2.01305E+01 1.80877E+00-3.42454E-03 1.05093E-01 2.03796E-13-3.94536E-13
 -1      3669 2.01222E+01 1.82877E+00-3.60293E-03 3.18293E-02 1.54403E-13-4.68155E-13
 -1      3670 1.88610E+01-2.39080E+00 7.22516E-02-4.06123E+00 2.06781E-13-3.29739E-13
 -1      3671 2.01449E+01 1.77001E+00-2.63630E-03 1.56380E-01 2.29838E-13-3.73957E-13
 -1      3672 2.02021E+01 1.57653E+00 5.66350E-03 9.52750E-02 1.99602E-13-3.42997E-13
 -1      3673 2.01649E+01 1.70532E+00-4.01383E-03 2.24938E-01 2.70056E-13-3.42542E-13
 -1      3674 1.78608E+01-6.48369E-01-1.68052E-02 3.26796E+00-2.52554E-13 1.38486E-13
 -1      3675 1.31093E+01 8.47368E-01 6.63476E-02 1.10554E+00-1.49899E-13 2.88207E-13
 -1      3676 2.02655E+01 6.83035E-01-1.76940E-03-4.47513E-03 2.45175E-13-1.17443E-13
 -1      3677 2.02851E+01 7.81084E-01-4.13468E-04 1.11880E-01 2.85161E-13-1.23159E-13
 -1      3678 2.02724E+01 7.24960E-01-1.34937E-03-3.79796E-02 1.98516E-13-1.28384E-13
 -1      3679 1.34048E+01-5.86231E-01 1.20442E-01-3.70019E+00-2.35548E-13-6.57127E-13
 -1      3680 1.49915E+01-1.04046E+00 3.84170E-03-3.95458E+00-2.94860E-13-5.64992E-13
 -1      3681 1.34836E+01 1.40205E-02 6.53793E-02-2.91363E+00-1.92370E-13-6.29642E-13
 -1      3682 2.23400E+01-3.23604E+00 2.68468E-02-2.49313E+00 2.81289E-13-1.30756E-13
 -1      3683 1.99368E+01 1.64613E-01-5.32551E-04 3.87250E-02 1.26708E-14-4.20554E-13
 -1      3684 1.99450E+01 1.58753E-01 1.57643E-06 5.13717E-02 1.39188E-13-3.10540E-13
 -1      3685 1.99414E+01 1.73729E-01 7.90759E-04 6.65889E-02 8.44429E-15-1.22897E-13
 -1      3686 1.82870E+01-1.76015E+00-4.09722E-02 3.63486E+00 2.53597E-13-7.09051E-14
 -1      3687 1.63852E+01-6.47632E-01 4.58577E-02 3.37403E+00 2.63918E-13-1.63073E-13
 -1      3688 2.00896E+01 4.49388E-01-5.37965E-04 4.11855E-01 2.96041E-14-1.52713E-13
 -1      3689 2.00477E+01 4.31362E-01 3.73096E-04 4.71332E-01 1.52608E-14-1.50875E-13
 -1      3690 1.99822E+01 4.21419E-01-1.05399E-03 5.25474E-01-1.37610E-14-1.30132E-13
 -1      3691 1.99396E+01 4.18467E-01 1.06480E-03 5.84414E-01-4.59200E-15-1.61175E-13
 -1      3692 1.99808E+01 4.78570E-01 8.10069E-04 4.51306E-01 1.43031E-14-1.54788E-13
 -1      3693 1.98659E+01 4.17329E-01-1.48675E-03 6.43689E-01 1.08735E-14-1.41265E-13
 -1      3694 1.98262E+01 4.18216E-01 1.78354E-03 7.06528E-01 2.46931E-14-1.57052E-13
 -1      3695 1.98439E+01 4.71713E-01 6.84181E-04 5.63806E-01 3.13392E-15-1.52089E-13
 -1      3696 1.97483E+01 4.14220E-01-1.78582E-03 7.75646E-01 3.52134E-14-1.65298E-13
 -1      3697 1.97168E+01 4.06665E-01 2.64434E-03 8.45788E-01 2.81189E-14-1.63161E-13
 -1      3698 1.96961E+01 4.75142E-01 4.44866E-04 6.91312E-01 1.35080E-14-1.69840E-13
 -1      3699 1.96403E+01 3.86823E-01-1.86760E-03 9.29252E-01-2.49123E-15-1.42720E-13
 -1      3700 1.96254E+01 3.56710E-01 3.78697E-03 1.00918E+00 1.87595E-15-1.25953E-13
 -1      3701 1.95458E+01 4.63402E-01-9.47898E-05 8.43523E-01 3.80679E-14-1.54492E-13
 -1      3702 1.95597E+01 3.05643E-01-1.49655E-03 1.11148E+00 5.52326E-16-1.25829E-13
 -1      3703 1.95748E+01 2.35949E-01 5.33067E-03 1.20225E+00-2.06953E-14-1.14404E-13
 -1      3704 1.94068E+01 4.07064E-01-1.17024E-03 1.03079E+00-2.73909E-15-9.94919E-14
 -1      3705 1.95356E+01 1.35438E-01-3.18626E-04 1.32686E+00-1.32112E-14-5.61860E-14
 -1      3706 1.96012E+01 6.45861E-03 7.44299E-03 1.42672E+00 1.58905E-14-4.17599E-14
 -1      3707 1.93018E+01 2.70429E-01-3.05099E-03 1.26361E+00 1.90964E-14-6.94013E-14
 -1      3708 1.96133E+01-1.63716E-01 2.24640E-03 1.57504E+00-2.01715E-14-4.65026E-14
 -1      3709 1.97597E+01-3.74510E-01 9.94610E-03 1.67639E+00-3.44744E-14-2.75630E-14
 -1      3710 1.92684E+01 1.12587E-02-6.11803E-03 1.54964E+00-1.17991E-14-4.63427E-14
 -1      3711 1.98665E+01-6.40133E-01 6.01560E-03 1.84402E+00 3.13960E-14 4.18174E-15
 -1      3712 2.01359E+01-9.49693E-01 1.19127E-02 1.92214E+00 1.12652E-13 2.23802E-14
 -1      3713 1.93646E+01-4.19625E-01-1.14222E-02 1.89630E+00 3.61464E-14 9.39309E-15
 -1      3714 2.04069E+01-1.32704E+00 1.25902E-02 2.07750E+00 1.87876E-13 4.11789E-14
 -1      3715 2.08625E+01-1.71475E+00 2.04247E-02 2.07698E+00 2.22549E-13 1.64322E-13
 -1      3716 1.97070E+01-1.08407E+00-1.67695E-02 2.28098E+00 1.50514E-13 6.50083E-14
 -1      3717 1.99322E+01 1.93017E-01 7.00157E-04-1.02893E-01 7.82561E-14 1.40004E-13
 -1      3718 1.99344E+01 1.80338E-01 5.45616E-05-8.45146E-02 1.66552E-13 3.10291E-14
 -1      3719 1.99201E+01 1.91427E-01-6.04290E-04-7.09454E-02 1.50919E-13 2.61587E-14
 -1      3720 2.28075E+01-3.03163E+00 7.12536E-02 1.96565E+00 1.64133E-13 1.46999E-13
 -1      3721 2.11879E+01-2.31168E+00 3.11481E-02-2.42024E+00 2.74449E-13-8.12321E-14
 -1      3722 2.05640E+01-1.82725E+00 2.91556E-02-2.43794E+00 1.14217E-13 9.89216E-14
 -1      3723 2.01658E+01-1.35423E+00 2.02777E-02-2.25756E+00-1.31740E-13 7.80860E-14
 -1      3724 1.97790E+01-9.46846E-01 1.27931E-02-2.15117E+00-9.16502E-14 4.91478E-14
 -1      3725 1.95947E+01-1.58543E+00-4.15891E-02-2.75819E+00 2.21316E-14-1.19617E-13
 -1      3726 1.96157E+01-5.97450E-01 1.50399E-02-1.92594E+00-8.35617E-14-3.40108E-14
 -1      3727 1.93980E+01-3.11333E-01 3.54720E-03-1.78938E+00-1.33119E-13-1.46309E-14
 -1      3728 1.90906E+01-6.54241E-01-1.41543E-02-2.23875E+00-1.19521E-13-4.74135E-14
 -1      3729 1.93655E+01-7.38123E-02 1.09757E-02-1.58967E+00-4.03399E-14-1.80959E-14
 -1      3730 1.92586E+01 1.08690E-01-6.48596E-04-1.45524E+00-2.30494E-14-9.10774E-14
 -1      3731 1.89335E+01-6.89098E-02-7.36500E-03-1.77063E+00-2.51851E-14-5.45254E-14
 -1      3732 1.92915E+01 2.56604E-01 7.52322E-03-1.29047E+00-1.53900E-13-3.19472E-14
 -1      3733 1.92519E+01 3.62139E-01-2.40631E-03-1.17068E+00-1.52221E-13-1.19655E-13
 -1      3734 1.89423E+01 2.96473E-01-3.27891E-03-1.38818E+00-1.02831E-13-8.37316E-14
 -1      3735 1.93157E+01 4.43939E-01 5.16921E-03-1.03777E+00-1.05577E-13-1.33272E-13
 -1      3736 1.93149E+01 4.94365E-01-2.96777E-03-9.35083E-01-2.93318E-14-1.33066E-13
 -1      3737 1.90361E+01 5.02498E-01-8.02146E-04-1.08379E+00-1.40867E-13-5.56013E-14
 -1      3738 1.93898E+01 5.29611E-01 3.52167E-03-8.29043E-01 6.29470E-14-1.35910E-13
 -1      3739 1.94092E+01 5.42680E-01-2.98912E-03-7.42419E-01 9.43884E-14-6.17208E-14
 -1      3740 1.91674E+01 5.96537E-01 5.44405E-04-8.44509E-01 1.33845E-14 5.77514E-14
 -1      3741 1.94841E+01 5.46898E-01 2.41494E-03-6.58008E-01 2.80076E-14 7.63234E-14
 -1      3742 1.95123E+01 5.36129E-01-2.77750E-03-5.85556E-01 1.77031E-13 8.51705E-14
 -1      3743 1.93082E+01 6.15773E-01 1.20918E-03-6.56701E-01 1.09540E-13 1.29715E-13
 -1      3744 1.95813E+01 5.21108E-01 1.68321E-03-5.18385E-01 2.69456E-13-7.32105E-14
 -1      3745 1.96114E+01 4.96480E-01-2.47127E-03-4.58190E-01 1.26108E-13-2.04081E-13
 -1      3746 1.94431E+01 5.87749E-01 1.46590E-03-5.08945E-01 1.13591E-13 1.47252E-13
 -1      3747 1.96718E+01 4.70805E-01 1.20271E-03-4.04785E-01-3.88541E-15-1.77961E-13
 -1      3748 1.96999E+01 4.39398E-01-2.13605E-03-3.55139E-01 4.03483E-14-1.32121E-13
 -1      3749 1.95641E+01 5.32547E-01 1.48793E-03-3.92395E-01 1.03369E-13-1.32306E-13
 -1      3750 1.97507E+01 4.09052E-01 8.86522E-04-3.12803E-01 4.61379E-14-1.24813E-13
 -1      3751 1.97751E+01 3.75685E-01-1.79469E-03-2.72217E-01 9.67123E-14-1.75381E-13
 -1      3752 1.96678E+01 4.64334E-01 1.38334E-03-3.00378E-01-1.38357E-14 6.21401E-14
 -1      3753 1.98165E+01 3.44617E-01 6.75806E-04-2.38775E-01 1.66781E-13-1.95657E-13
 -1      3754 1.98365E+01 3.12245E-01-1.49191E-03-2.05931E-01 1.24135E-13-9.27272E-14
 -1      3755 1.97535E+01 3.92780E-01 1.23983E-03-2.27848E-01 1.59139E-13 3.06364E-14
 -1      3756 1.98694E+01 2.82722E-01 4.74985E-04-1.79778E-01 1.84808E-13 9.86084E-14
 -1      3757 1.98849E+01 2.53582E-01-1.21779E-03-1.54002E-01 2.41656E-13 2.47675E-13
 -1      3758 1.98222E+01 3.23850E-01 1.08101E-03-1.70761E-01 3.18308E-13-1.38069E-13
 -1      3759 1.99045E+01 2.35852E-01 7.37276E-04-1.36823E-01 4.00776E-14 2.34414E-13
 -1      3760 1.99168E+01 2.09810E-01-6.01263E-04-1.16227E-01 6.24318E-14 1.20701E-13
 -1      3761 1.98983E+01 2.26191E-01-3.57220E-04-1.00697E-01 5.78249E-14-1.46506E-14
 -1      3762 1.98679E+01 2.69768E-01 7.16642E-04-1.29718E-01 2.38925E-13-3.43832E-14
 -1      3763 2.11120E+01-2.88127E+00-5.48252E-02 2.88133E+00 1.82015E-13 1.25736E-13
 -1      3764 1.98299E+01-2.26961E+00 6.67620E-02 3.44461E+00 2.22924E-13 8.06011E-14
 -1      3765 1.89555E+01-1.54508E+00 2.25785E-02 3.16981E+00 2.18838E-13-2.20425E-14
 -1      3766 1.99992E+01 1.05859E-01 2.64858E-04-9.10452E-02 1.38726E-15 2.80128E-13
 -1      3767 1.66864E+01 2.98047E-01 2.84642E-02-2.54498E+00-2.03574E-13-3.51272E-13
 -1      3768 1.68068E+01 5.80976E-01-1.55081E-02-2.22741E+00-1.03670E-13-3.13640E-13
 -1      3769 1.73337E+01 7.68114E-01 1.14384E-02-1.95018E+00-8.62000E-14-3.09833E-13
 -1      3770 1.75283E+01 8.79536E-01-1.66948E-02-1.73794E+00-4.75800E-14-2.58795E-13
 -1      3771 1.63937E+01 9.30831E-01 2.74228E-02-1.77616E+00-8.23547E-14-3.37442E-13
 -1      3772 1.65579E+01-9.76381E-01 4.79913E-02-3.71364E+00-3.61249E-13-5.16847E-13
 -1      3773 1.78936E+01 9.46613E-01-1.49221E-02 1.63332E+00-1.42076E-13 4.66400E-13
 -1      3774 1.77344E+01 8.57403E-01 8.46480E-03 1.82684E+00-1.67428E-13 4.46586E-13
 -1      3775 1.91106E+01 9.03247E-01-5.72679E-03 9.02277E-01-1.66248E-13 9.46225E-14
 -1      3776 1.90007E+01 9.54987E-01 1.65007E-04 9.99639E-01-3.18865E-13-5.97503E-14
 -1      3777 1.93545E+01 7.88916E-01-4.45712E-03 7.41417E-01 5.74116E-14 2.02218E-13
 -1      3778 1.92697E+01 8.49370E-01-5.95619E-05 8.25221E-01 4.39822E-14 3.02750E-13
 -1      3779 1.90002E+01 9.58797E-01 6.21979E-03 7.52447E-01-1.44385E-13 2.84302E-13
 -1      3780 1.95388E+01 6.69034E-01-3.53149E-03 6.02773E-01 8.99986E-14 1.46750E-13
 -1      3781 1.94759E+01 7.30093E-01 2.37181E-05 6.75236E-01 1.14288E-13 1.82912E-13
 -1      3782 1.92682E+01 8.30144E-01 4.76712E-03 6.23719E-01 7.77866E-14 5.13636E-13
 -1      3783 1.96761E+01 5.54607E-01-2.82106E-03 4.83401E-01 9.70439E-14-4.80044E-14
 -1      3784 1.96308E+01 6.11738E-01 1.79652E-04 5.45574E-01 9.35348E-14-3.89335E-14
 -1      3785 1.94714E+01 7.00906E-01 3.61266E-03 5.10977E-01 2.27998E-13 3.45556E-13
 -1      3786 1.97769E+01 4.51272E-01-2.25418E-03 3.81733E-01-1.21868E-13-6.36245E-14
 -1      3787 1.97451E+01 5.02241E-01 3.17166E-04 4.34340E-01-5.74811E-14-1.13263E-13
 -1      3788 1.96238E+01 5.79795E-01 2.70830E-03 4.12399E-01 5.40112E-14 1.64310E-13
 -1      3789 1.98498E+01 3.61351E-01-1.79447E-03 2.96456E-01-1.40166E-14-2.91216E-13
 -1      3790 1.98281E+01 4.05345E-01 4.05229E-04 3.40248E-01 5.35572E-15-1.77921E-13
 -1      3791 1.97369E+01 4.71309E-01 2.00957E-03 3.27330E-01-2.94058E-14-7.60721E-14
 -1      3792 1.99018E+01 2.85150E-01-1.44146E-03 2.26123E-01 4.93412E-15-2.86059E-13
 -1      3793 1.98874E+01 3.22240E-01 4.47170E-04 2.61972E-01-3.27158E-14-2.81557E-13
 -1      3794 1.98198E+01 3.77190E-01 1.46254E-03 2.55207E-01 9.72813E-15-3.06104E-13
 -1      3795 1.99382E+01 2.22067E-01-1.11163E-03 1.69087E-01 1.81870E-13-2.15587E-13
 -1      3796 1.99291E+01 2.52827E-01 5.26161E-04 1.98089E-01 1.17625E-13-1.58786E-13
 -1      3797 1.98798E+01 2.97360E-01 9.94767E-04 1.95325E-01 7.45900E-14-2.93004E-13
 -1      3798 1.99630E+01 1.71097E-01-7.42605E-04 1.23798E-01 1.10976E-13-1.53453E-13
 -1      3799 1.99578E+01 1.95694E-01 5.51499E-04 1.46731E-01 1.11150E-13-2.03125E-13
 -1      3800 1.99218E+01 2.30895E-01 3.40746E-04 1.46795E-01 1.40511E-13 3.29707E-15
 -1      3801 1.46708E+01 1.57809E-01-2.93830E-02 2.65985E+00 2.71125E-13-2.53901E-13
 -1      3802 1.38110E+01 8.52107E-01 3.73074E-02 1.29754E+00 1.25516E-13-2.24249E-13
 -1      3803 1.49689E+01-2.53658E-01 2.66001E-02-3.23912E+00-1.18157E-13-2.96718E-13
 -1      3804 1.64102E+01-1.21806E+00-3.63885E-02-3.87249E+00 4.51609E-14-3.05728E-13
 -1      3805 1.60569E+01 1.69177E-01 7.61773E-03 2.75936E+00-2.38850E-13 3.07619E-13
 -1      3806 2.02880E+01 1.04842E+00 1.70260E-03 3.51547E-01 3.48131E-13-1.23788E-13
 -1      3807 2.02921E+01 9.39684E-01 2.55166E-03 2.11468E-01 3.24198E-13-1.44650E-13
 -1      3808 2.02689E+01 1.14608E+00-2.37737E-03-1.23142E-01-4.69635E-14-4.14605E-13
 -1      3809 2.02821E+01 9.93390E-01 1.13663E-03-4.32342E-02-7.05309E-14-3.76896E-13
 -1      3810 2.02542E+01 1.24540E+00 8.51971E-04-1.01081E-01-2.00761E-14-4.00537E-13
 -1      3811 2.02491E+01 6.64704E-01-3.61646E-04 1.56088E-01-5.88227E-14-2.73363E-13
 -1      3812 2.02201E+01 5.84459E-01-8.91233E-04 2.33232E-01-4.36783E-14-2.52906E-13
 -1      3813 1.86618E+01-1.88454E+00 4.92174E-02-3.68894E+00 1.68279E-13-3.33211E-13
 -1      3814 2.01827E+01-2.64182E+00-6.64288E-02-3.33593E+00 2.61726E-13-2.52170E-13
 -1      3815 1.87939E+01 9.92501E-01-7.57468E-03 1.09225E+00-1.71576E-13 4.00738E-14
 -1      3816 1.86577E+01 1.02173E+00 9.27431E-04 1.20821E+00-1.40639E-14 1.23344E-13
 -1      3817 1.86503E+01 1.07198E+00 8.03987E-03 9.02528E-01-1.03551E-13 9.72579E-14
 -1      3818 1.99832E+01 1.29085E-01-4.23764E-04 9.26986E-02 1.80409E-13-1.34143E-13
 -1      3819 2.15898E+01-2.57024E+00 1.10047E-02 2.29348E+00 1.70450E-13 1.46182E-13
 -1      3820 2.01945E+01 1.59476E+00 5.74738E-03 1.12985E-02 1.20499E-13-4.07812E-13
 -1      3821 2.01287E+01 1.81116E+00-1.95212E-03-1.54996E-02 1.16983E-13-4.57573E-13
 -1      3822 2.01381E+01 1.76620E+00-3.87534E-03-7.77756E-02 8.17000E-14-4.38429E-13
 -1      3823 2.02188E+01 1.51851E+00-4.62711E-03 3.25370E-01 3.00902E-13-2.98281E-13
 -1      3824 2.01912E+01 1.62827E+00-1.96628E-03 2.68436E-01 2.71150E-13-3.19758E-13
 -1      3825 2.02335E+01 1.45846E+00 5.08889E-03 1.72963E-01 2.37089E-13-3.15640E-13
 -1      3826 2.02739E+01 1.26275E+00 4.23935E-03 2.29451E-01 2.74305E-13-2.36101E-13
 -1      3827 1.61523E+01-2.38374E-01 2.31951E-02-3.18551E+00-2.78584E-13-4.32569E-13
 -1      3828 1.83924E+01 1.02403E+00-1.01591E-02 1.32553E+00 1.14069E-15 2.69543E-13
 -1      3829 1.82349E+01 1.00999E+00 3.25816E-03 1.47015E+00-4.34230E-14 3.38742E-13
 -1      3830 1.76259E+01 1.14663E+00 1.79518E-02 1.33843E+00 1.94107E-14 4.17420E-13
 -1      3831 1.88747E+01 9.26851E-01 8.54793E-05-1.11349E+00-2.72384E-15-1.56353E-13
 -1      3832 1.90176E+01 8.76732E-01-6.22665E-03-1.02407E+00 3.47940E-14-1.37825E-13
 -1      3833 1.72880E+01 6.85535E-01-2.24952E-02 2.07540E+00-2.28050E-13 5.12103E-13
 -1      3834 1.72010E+01 4.55403E-01 1.29143E-02 2.35884E+00-1.81341E-13 4.14424E-13
 -1      3835 1.68992E+01 1.02379E+00 3.17346E-02 1.70112E+00-1.57758E-13 5.17862E-13
 -1      3836 2.14965E+01-2.76313E+00 4.90477E-02-2.70561E+00 3.05147E-13-9.33635E-14
 -1      3837 2.02789E+01 8.70768E-01-9.46201E-04 1.41226E-02-6.02729E-14-3.41009E-13
 -1      3838 2.02654E+01 7.47347E-01-4.22163E-04 1.06339E-01-6.48994E-14-3.21949E-13
 -1      3839 2.02500E+01 7.66233E-01 9.57217E-04 1.19983E-01-2.54121E-14-3.05488E-13
 -1      3840 2.02694E+01 9.60588E-01 1.32143E-04 1.28171E-02-2.58468E-14-3.48611E-13
 -1      3841 2.01815E+01 5.23005E-01-7.08702E-05 2.92432E-01-2.54473E-14-2.11307E-13
 -1      3842 2.01435E+01 4.79071E-01-3.52431E-04 3.57786E-01 7.35057E-15-1.88673E-13
 -1      3843 2.01945E+01 6.15276E-01 1.01111E-03 2.31081E-01-9.02351E-15-2.13582E-13
 -1      3844 1.99701E+01 1.54748E-01 5.25885E-04 1.01602E-01 5.56612E-14-1.21587E-13
 -1      3845 1.53498E+01 6.74647E-01 3.76322E-02 2.20345E+00-3.12636E-13 3.53966E-13
 -1      3846 1.33012E+01 9.19517E-01-2.20492E-02-1.04978E+00-8.51548E-14 2.45097E-13
 -1      3847 1.39594E+01 4.39680E-01 1.79924E-02-2.40714E+00-6.29982E-14 8.30412E-14
 -1      3848 1.40467E+01 8.82380E-01-1.49029E-02 1.44337E+00-2.71182E-13 2.94313E-13
 -1      3849 1.35886E+01 1.21701E+00 5.39921E-02 7.24691E-02-2.24227E-13 2.23335E-13
 -1      3850 1.43906E+01 1.09358E+00 2.50630E-02-5.53624E-01-1.08360E-13 1.58241E-13
 -1      3851 1.53746E+01 1.04772E+00-2.03397E-02 1.29324E+00-2.62674E-13 1.88976E-13
 -1      3852 2.02884E+01 9.82351E-01 1.12921E-03 1.55743E-01 2.70810E-13-1.65858E-13
 -1      3853 2.02137E+01 5.91660E-01-2.03364E-03-2.28630E-01 1.29304E-13-1.94974E-13
 -1      3854 2.02501E+01 6.68714E-01 1.73525E-03-1.43809E-01 1.56133E-13-1.84726E-13
 -1      3855 1.99446E+01 1.80760E-01-4.01209E-04 1.02027E-01 2.99747E-14-6.73603E-14
 -1      3856 2.00769E+01-1.87789E+00-2.52362E-02 2.73621E+00 2.09416E-13 3.65641E-14
 -1      3857 2.09566E+01-2.05633E+00 2.12342E-02 2.34256E+00 2.11843E-13 1.00335E-13
 -1      3858 1.96599E+01 6.34930E-01 2.93245E-03-8.90112E-01 7.89369E-14-5.80143E-14
 -1      3859 1.38249E+01 1.03409E+00 4.77454E-02 7.79676E-01 8.72124E-14-2.21711E-13
 -1      3860 1.39882E+01 1.04874E+00 8.67845E-04 1.19496E-01 6.38491E-14-3.43977E-13
 -1      3861 1.48801E+01 8.77590E-01 1.14846E-02 1.20637E+00 1.44793E-13-1.29666E-13
 -1      3862 1.97056E+01 6.06323E-01-3.40575E-05-7.02752E-01 4.73943E-14-1.41327E-13
 -1      3863 1.97800E+01 5.62561E-01-2.39496E-03-6.40902E-01 6.77889E-14-1.87284E-13
 -1      3864 1.52149E+01 2.76366E-01-1.40750E-02-2.63721E+00-1.72755E-13-4.57034E-13
 -1      3865 1.98799E+01 5.28484E-01-8.89000E-05-5.91225E-01 6.45477E-14-1.72924E-13
 -1      3866 1.99408E+01 5.03445E-01-1.47745E-03-5.31278E-01 7.77136E-14-1.90181E-13
 -1      3867 1.97768E+01 5.99785E-01 2.60564E-03-5.43423E-01 6.15213E-14-2.02547E-13
 -1      3868 1.92154E+01 8.24360E-01-1.28861E-04-9.56611E-01 4.76475E-14-1.34030E-13
 -1      3869 1.93310E+01 7.65813E-01-4.60800E-03-8.80551E-01 4.75281E-14-1.29899E-13
 -1      3870 1.89464E+01 9.26289E-01 6.69216E-03-8.48338E-01 4.83275E-14-2.26538E-13
 -1      3871 1.72796E+01 1.09045E+00 1.69997E-02-1.38652E+00-9.03249E-16-1.80146E-13
 -1      3872 1.79393E+01 9.57780E-01 4.29908E-03-1.56892E+00 1.05754E-14-2.36458E-13
 -1      3873 1.81328E+01 9.81792E-01-1.20698E-02-1.42121E+00 2.50077E-14-1.91171E-13
 -1      3874 1.62809E+01-4.99544E-02 3.73187E-02 2.60271E+00 2.36933E-13-1.75597E-13
 -1      3875 1.82882E+01-1.29345E+00 4.07455E-02-3.28119E+00 1.09744E-13-3.82132E-13
 -1      3876 1.98958E+01 2.15590E-01-1.41651E-04-1.30387E-02 2.59067E-13-2.73615E-13
 -1      3877 1.98952E+01 2.15706E-01-5.11023E-04 6.16416E-03 2.96070E-13-2.18735E-13
 -1      3878 1.99225E+01 1.89223E-01 7.63029E-04 3.41765E-02 2.67416E-14-2.70305E-13
 -1      3879 2.00999E+01 5.19031E-01 9.39920E-04 3.43763E-01 4.25948E-14-1.97366E-13
 -1      3880 1.82003E+01 1.14502E+00 1.09939E-02 1.08908E+00 5.60385E-14 3.65720E-13
 -1      3881 1.52600E+01 2.44745E-01 4.58256E-02-2.51406E+00-6.62714E-14-1.62184E-13
 -1      3882 2.02873E+01 9.36974E-01 3.09923E-03 6.25623E-02 2.15853E-13-1.77670E-13
 -1      3883 2.02796E+01 1.08019E+00-2.41368E-03 1.52391E-01 2.52479E-13-2.12292E-13
 -1      3884 2.02624E+01 1.19437E+00-9.79880E-04 1.37596E-01 2.30864E-13-2.74921E-13
 -1      3885 1.99091E+01 2.02870E-01-8.16434E-05-5.26885E-02 1.46439E-13-1.66319E-13
 -1      3886 1.99006E+01 2.09177E-01-6.14509E-04-3.53084E-02 2.35830E-13-2.78765E-13
 -1      3887 1.98798E+01 2.37227E-01 2.86939E-05-2.72763E-02 2.03101E-13-2.77800E-13
 -1      3888 1.98998E+01 2.20485E-01 4.87939E-04-6.88112E-02 1.45731E-13-1.66548E-13
 -1      3889 2.02067E+01 1.40911E+00-2.05301E-03 2.70618E-02 1.41349E-13-3.72346E-13
 -1      3890 2.02080E+01 1.38854E+00-3.20143E-03-5.57639E-03 9.74002E-14-3.89481E-13
 -1      3891 2.02218E+01 1.34680E+00-2.96797E-03 8.04942E-02 1.97453E-13-2.94297E-13
 -1      3892 2.02114E+01 1.38653E+00-2.66718E-03 4.60050E-02 1.65766E-13-3.31911E-13
 -1      3893 2.02439E+01 1.22416E+00 5.06245E-03 2.04491E-02 1.24912E-13-3.21189E-13
 -1      3894 1.86241E+01 9.61511E-01-8.59049E-03-1.19703E+00 1.84063E-14-1.15403E-13
 -1      3895 1.85164E+01 1.03702E+00 8.91445E-03-9.78330E-01 1.78225E-14-1.59629E-13
 -1      3896 1.84528E+01 9.87029E-01 1.23910E-03-1.30793E+00 2.47189E-14-1.59000E-13
 -1      3897 2.01306E+01 5.06816E-01-8.51347E-04-3.63673E-01 1.19516E-13-2.14624E-13
 -1      3898 2.01732E+01 5.40812E-01 2.15189E-04-2.93091E-01 1.22362E-13-2.08235E-13
 -1      3899 2.01920E+01 6.35578E-01 1.43659E-03-2.26268E-01 1.37367E-13-2.29166E-13
 -1      3900 2.01503E+01 1.74512E+00-1.50483E-03-1.17603E-01 7.66041E-14-4.54950E-13
 -1      3901 2.01691E+01 1.66790E+00-3.91464E-03-1.71736E-01 3.56158E-14-4.55938E-13
 -1      3902 2.02218E+01 1.47449E+00 3.47691E-03-1.23354E-01 2.62376E-14-4.37436E-13
 -1      3903 2.02040E+01 1.54878E+00 4.85466E-03-6.04366E-02 6.73552E-14-4.11991E-13
 -1      3904 2.02704E+01 8.22290E-01-2.12244E-03-2.76714E-02 1.79509E-13-1.85556E-13
 -1      3905 1.99258E+01 1.96178E-01-1.85855E-04 8.45962E-02 4.74225E-14-6.60462E-14
 -1      3906 1.99190E+01 2.18816E-01 7.99714E-04 1.07742E-01 1.25890E-13-8.16527E-14
 -1      3907 1.99119E+01 2.06387E-01-6.10634E-04 6.94810E-02 7.26438E-14-1.85464E-13
 -1      3908 2.02612E+01 8.50223E-01 5.31483E-04-5.20585E-02 1.80600E-13-2.31353E-13
 -1      3909 2.02420E+01 1.23559E+00 5.13592E-03 1.38892E-03 9.00685E-14-3.64220E-13
 -1      3910 2.02128E+01 1.38243E+00-1.80709E-03-2.05769E-02 8.07005E-14-3.78585E-13
 -1      3911 2.02184E+01 1.35916E+00-2.14199E-03-4.74292E-02 5.45509E-14-3.91589E-13
 -1      3912 1.88872E+01-1.23745E+00-1.27777E-02 2.86798E+00 2.02832E-13-2.24298E-14
 -1      3913 1.94878E+01 7.10330E-01-1.08934E-04-8.22519E-01 4.37251E-14-8.79343E-14
 -1      3914 1.95803E+01 6.54994E-01-3.40247E-03-7.55190E-01 6.43519E-14-1.32548E-13
 -1      3915 1.95590E+01 6.88687E-01 3.59306E-03-6.38557E-01 4.45310E-14-2.08976E-13
 -1      3916 1.92872E+01 8.03050E-01 4.93100E-03-7.38444E-01 4.64421E-14-1.76508E-13
 -1      3917 1.98210E+01 5.14335E-01-1.96339E-03 4.61226E-01 1.07446E-14-2.03766E-13
 -1      3918 1.97510E+01 5.21277E-01 1.01786E-03 5.18731E-01 1.98157E-14-1.71941E-13
 -1      3919 1.96444E+01 5.28398E-01-2.50470E-03 5.76994E-01-3.90370E-15-1.45405E-13
 -1      3920 1.95721E+01 5.37231E-01 1.81650E-03 6.44240E-01 2.98178E-14-1.54687E-13
 -1      3921 1.96334E+01 5.80302E-01 1.70369E-03 4.70173E-01 3.08456E-14-1.69744E-13
 -1      3922 1.94531E+01 5.39026E-01-3.21700E-03 7.18363E-01 5.52431E-14-1.44698E-13
 -1      3923 1.93842E+01 5.37293E-01 2.89158E-03 8.00367E-01 2.04581E-14-1.23513E-13
 -1      3924 1.94152E+01 6.05285E-01 1.91057E-03 5.98686E-01 1.89145E-14-1.07554E-13
 -1      3925 1.92555E+01 5.20148E-01-3.93134E-03 8.97801E-01 1.19882E-14-1.32170E-13
 -1      3926 1.91997E+01 4.92691E-01 4.57140E-03 1.00060E+00 3.24174E-14-8.76559E-14
 -1      3927 1.91762E+01 6.11689E-01 1.47148E-03 7.65165E-01 3.78607E-14-1.28474E-13
 -1      3928 1.90676E+01 4.39184E-01-4.27668E-03 1.13027E+00 3.98500E-14-1.20910E-13
 -1      3929 1.90406E+01 3.67239E-01 7.34930E-03 1.25966E+00 3.34437E-14-9.38581E-14
 -1      3930 1.89260E+01 5.70373E-01 9.51991E-04 9.88507E-01 1.98279E-14-1.00233E-13
 -1      3931 1.89170E+01 2.54715E-01-4.11902E-03 1.43314E+00 9.88128E-15-1.22770E-13
 -1      3932 1.89391E+01 1.14917E-01 9.71641E-03 1.59382E+00 4.02337E-15-1.14022E-13
 -1      3933 1.86789E+01 4.43693E-01-3.79845E-05 1.29150E+00-7.03482E-15-1.59149E-13
 -1      3934 1.88553E+01-7.99631E-02-1.08718E-03 1.81359E+00 5.73993E-14-9.53521E-14
 -1      3935 1.89649E+01-3.17410E-01 1.41026E-02 2.00517E+00 7.56681E-14-6.74096E-14
 -1      3936 1.84956E+01 1.86981E-01 8.23462E-03 1.71099E+00 4.35353E-14-1.76630E-13
 -1      3937 1.87830E+01-5.48779E-01-1.13162E-02 2.28313E+00 1.24322E-13-3.94214E-14
 -1      3938 1.90684E+01-8.97847E-01 2.01196E-02 2.51272E+00 1.96501E-13-6.05355E-14
 -1      3939 1.79256E+01-6.59865E-01 8.10571E-03 2.84438E+00 2.05959E-13-1.03930E-13
 -1      3940 1.82404E+01-1.62296E-01 1.12635E-02 2.22894E+00 1.51197E-13-1.95625E-13
 -1      3941 1.45628E+01 8.86597E-01-3.09802E-03-1.45848E+00-9.66345E-14-5.42067E-13
 -1      3942 1.42049E+01 5.94654E-01 5.94165E-02-2.15910E+00-1.48919E-13-5.86330E-13
 -1      3943 1.79491E+01-7.97484E-01 1.44538E-02-2.94206E+00-2.66551E-14-3.85149E-13
 -1      3944 1.85068E+01 6.24699E-02 1.19663E-02-1.84028E+00-1.30132E-14-1.77034E-13
 -1      3945 1.84633E+01 2.55747E-01-6.73795E-03-1.62393E+00-3.25353E-15-1.01395E-13
 -1      3946 1.86108E+01 4.14006E-01 8.96071E-03-1.40060E+00-5.67124E-14-8.28902E-14
 -1      3947 1.86266E+01 5.21257E-01-6.25744E-03-1.23099E+00-6.93651E-14-1.20851E-13
 -1      3948 1.81537E+01 5.10796E-01 9.92437E-04-1.45321E+00 2.13071E-14-9.43924E-14
 -1      3949 1.87754E+01 6.04464E-01 5.61391E-03-1.06542E+00-8.07490E-14 3.38778E-14
 -1      3950 1.88245E+01 6.52560E-01-5.44412E-03-9.33862E-01-8.27941E-14 5.17528E-14
 -1      3951 1.84359E+01 6.99482E-01 2.49375E-03-1.06777E+00 4.35123E-14-2.12506E-14
 -1      3952 1.89622E+01 6.85155E-01 3.44080E-03-8.11510E-01-4.78027E-14 1.43205E-13
 -1      3953 1.90249E+01 6.93806E-01-4.52814E-03-7.09603E-01 4.45863E-14 1.46509E-13
 -1      3954 1.87077E+01 7.74465E-01 2.97505E-03-7.87626E-01 5.27355E-14 1.87390E-13
 -1      3955 1.91469E+01 6.92951E-01 2.07723E-03-6.18677E-01 8.55756E-14 2.09432E-13
 -1      3956 1.92120E+01 6.76381E-01-3.71138E-03-5.39435E-01 1.24104E-13 2.19619E-13
 -1      3957 1.89545E+01 7.75196E-01 3.00868E-03-5.82828E-01 1.23503E-13 2.55175E-13
 -1      3958 1.93169E+01 6.54765E-01 1.21791E-03-4.71488E-01 8.84677E-14 2.82320E-13
 -1      3959 1.93780E+01 6.23457E-01-3.02704E-03-4.09553E-01 9.70308E-14 1.19521E-13
 -1      3960 1.91707E+01 7.29280E-01 2.80490E-03-4.32215E-01 1.24649E-13 2.40388E-13
 -1      3961 1.94660E+01 5.90310E-01 6.89638E-04-3.58509E-01 6.69881E-14 2.01383E-13
 -1      3962 1.95200E+01 5.51765E-01-2.45722E-03-3.09914E-01 5.42102E-14 1.70779E-13
 -1      3963 1.93547E+01 6.56753E-01 2.50432E-03-3.20686E-01 4.05459E-14 2.29235E-13
 -1      3964 1.95922E+01 5.13594E-01 3.75562E-04-2.71415E-01-5.39364E-14 1.01259E-13
 -1      3965 1.96379E+01 4.72985E-01-1.97910E-03-2.33231E-01-3.06929E-14 8.24149E-14
 -1      3966 1.95077E+01 5.71842E-01 2.16869E-03-2.37607E-01-6.41992E-14 1.80191E-13
 -1      3967 1.96961E+01 4.34140E-01 2.08948E-04-2.04157E-01-3.65251E-15 2.49679E-14
 -1      3968 1.97332E+01 3.94978E-01-1.56247E-03-1.74225E-01 9.60674E-14-2.04707E-14
 -1      3969 1.96323E+01 4.84318E-01 1.84271E-03-1.75395E-01-4.20549E-14 9.56254E-14
 -1      3970 1.97793E+01 3.57899E-01 9.57960E-05-1.52265E-01 2.13666E-13-1.52488E-13
 -1      3971 1.98076E+01 3.21874E-01-1.64708E-03-1.29323E-01 2.55421E-13-1.80368E-13
 -1      3972 1.97325E+01 4.00958E-01 1.95016E-03-1.28444E-01 3.54181E-14-1.60739E-13
 -1      3973 1.94124E+01 6.97277E-01-2.91254E-03 3.99988E-01 2.92698E-13 1.06684E-13
 -1      3974 1.93238E+01 7.62053E-01-1.29213E-03 4.46972E-01 2.38239E-13 1.60348E-13
 -1      3975 1.91949E+01 8.27240E-01-3.67623E-03 4.82340E-01 1.10952E-13 1.35902E-13
 -1      3976 1.90771E+01 8.94355E-01-1.86710E-03 5.34652E-01 5.87745E-14 1.84006E-13
 -1      3977 1.91741E+01 8.40087E-01 4.87202E-03 3.64332E-01 2.17087E-13-1.60825E-13
 -1      3978 1.89090E+01 9.59366E-01-4.78847E-03 5.72316E-01-1.14212E-13 2.28329E-13
 -1      3979 1.87541E+01 1.02381E+00-2.51477E-03 6.30743E-01-2.16210E-13 1.64878E-13
 -1      3980 1.88869E+01 9.77941E-01 6.42332E-03 4.21794E-01-2.87484E-15-7.29351E-14
 -1      3981 1.95767E+01 5.76477E-01-2.34628E-03 3.25639E-01 3.28073E-14-1.18720E-13
 -1      3982 1.95109E+01 6.35972E-01-8.26944E-04 3.67262E-01 2.59004E-13 1.53735E-13
 -1      3983 1.93939E+01 7.06908E-01 3.70782E-03 3.07690E-01 2.74180E-13-1.45381E-13
 -1      3984 1.96999E+01 4.68566E-01-1.89481E-03 2.60033E-01 6.75393E-14-3.03825E-13
 -1      3985 1.96516E+01 5.21267E-01-4.78936E-04 2.96159E-01 8.76407E-14-2.19905E-13
 -1      3986 1.95611E+01 5.84022E-01 2.81613E-03 2.53911E-01 2.16372E-13-1.68204E-13
 -1      3987 1.97912E+01 3.75005E-01-1.55894E-03 2.03491E-01-7.70417E-14-3.21930E-13
 -1      3988 1.97564E+01 4.20466E-01-2.27012E-04 2.34203E-01-1.02603E-13-3.38303E-13
 -1      3989 1.96872E+01 4.74559E-01 2.11654E-03 2.04844E-01-1.11101E-14-2.20486E-13
 -1      3990 1.98583E+01 2.95721E-01-1.19111E-03 1.56029E-01 1.17882E-13-1.21900E-13
 -1      3991 1.98336E+01 3.34313E-01 5.70889E-05 1.81404E-01 4.07738E-15-3.08958E-13
 -1      3992 1.97811E+01 3.79178E-01 1.36418E-03 1.61404E-01-9.43993E-14-2.87533E-13
 -1      3993 1.99000E+01 2.39586E-01-6.49859E-04 1.20602E-01 1.10972E-13-8.80932E-14
 -1      3994 1.98822E+01 2.71557E-01 3.81772E-04 1.41104E-01 1.96509E-13-5.74019E-14
 -1      3995 1.98417E+01 3.08287E-01 7.23580E-04 1.27302E-01 6.76752E-14-2.82702E-13
 -1      3996 1.98801E+01 2.55853E-01-1.52182E-04 1.00846E-01 1.64621E-13-2.81666E-13
 -1      3997 2.00198E+01 4.90728E-01-3.41198E-04-4.81013E-01 1.03091E-13-1.88672E-13
 -1      3998 2.00706E+01 4.91188E-01-6.45838E-04-4.18478E-01 1.07118E-13-1.92208E-13
 -1      3999 1.99513E+01 5.51286E-01 1.91321E-03-4.47664E-01 1.03812E-13-1.58026E-13
 -1      4000 1.98963E+01 2.17319E-01-3.60192E-04 2.88632E-02 1.99921E-13-1.10402E-13
 -1      4001 1.99030E+01 2.12085E-01-4.24427E-04 4.73990E-02 8.58412E-14-2.19224E-13
 -1      4002 1.98880E+01 2.40653E-01 7.94470E-04 6.58252E-02 7.27877E-14-1.86492E-13
 -1      4003 1.98780E+01 2.44678E-01 9.14255E-04 1.87288E-02 1.64617E-13-9.62866E-14
 -1      4004 2.02025E+01 6.88251E-01-7.45473E-04 1.65097E-01-5.80704E-15-2.51767E-13
 -1      4005 2.01627E+01 6.20894E-01-5.99081E-04 2.22942E-01 3.93674E-16-2.26966E-13
 -1      4006 1.85343E+01 1.08183E+00-6.54993E-03 6.71435E-01-9.98719E-14 2.10769E-13
 -1      4007 1.83320E+01 1.13533E+00-3.58164E-03 7.39387E-01 5.57859E-14 3.21522E-13
 -1      4008 1.85120E+01 1.11144E+00 8.53818E-03 4.78987E-01-1.26137E-13 1.83124E-13
 -1      4009 1.65128E+01 1.19360E+00-2.50406E-02 9.88080E-01-3.61785E-14 2.68879E-13
 -1      4010 1.60659E+01 1.10985E+00-1.64270E-02 1.17505E+00-1.19627E-13 2.20847E-13
 -1      4011 1.53730E+01 1.36876E+00 5.55815E-02 4.47639E-01-1.46221E-13 9.50778E-14
 -1      4012 1.52407E+01 5.84224E-01-1.30955E-02-1.96748E+00 5.86142E-14-9.47411E-14
 -1      4013 1.61753E+01-2.54011E-02 5.07024E-03-2.70345E+00 1.50270E-15-4.62495E-13
 -1      4014 1.99770E+01 5.21316E-01-1.40447E-03 3.60514E-01 4.80163E-14-2.54030E-13
 -1      4015 1.99132E+01 5.14420E-01 3.15213E-04 4.13284E-01 1.37940E-14-2.23066E-13
 -1      4016 1.98267E+01 5.63225E-01 1.52370E-03 3.67826E-01 3.40248E-14-2.20401E-13
 -1      4017 1.80416E+01 1.17803E+00-9.41724E-03 7.84570E-01 6.58874E-14 3.76699E-13
 -1      4018 1.77703E+01 1.20434E+00-8.17797E-03 8.74481E-01 9.20657E-14 4.16717E-13
 -1      4019 1.80241E+01 1.22666E+00 1.20784E-02 5.37209E-01 8.20700E-14 3.32391E-13
 -1      4020 2.01065E+01 5.71603E-01-9.89523E-04 2.64719E-01 2.78732E-14-2.44342E-13
 -1      4021 2.00523E+01 5.40047E-01-3.03349E-04 3.17843E-01 4.98079E-14-2.49484E-13
 -1      4022 1.99916E+01 5.77780E-01 1.73669E-03 2.80612E-01 3.42529E-14-2.79339E-13
 -1      4023 2.02499E+01 1.24141E+00-2.83778E-03 1.23016E-01 2.15739E-13-3.05352E-13
 -1      4024 2.02328E+01 1.31870E+00-1.95953E-03 9.45084E-02 2.05566E-13-3.17003E-13
 -1      4025 2.02547E+01 1.17172E+00 4.14686E-03 3.91820E-02 1.67672E-13-2.90629E-13
 -1      4026 2.02690E+01 1.08956E+00 1.89631E-03 5.30409E-02 2.00845E-13-2.90497E-13
 -1      4027 1.45369E+01 1.18519E+00 4.99470E-02-6.69601E-01 3.19276E-14-4.03727E-13
 -1      4028 1.55991E+01 9.97764E-01-7.07220E-03-1.32134E+00-6.59199E-14-3.38495E-13
 -1      4029 1.61039E+01 1.09243E+00-2.39150E-02-1.11766E+00 3.02562E-14-2.57751E-13
 -1      4030 1.50919E+01 1.15374E+00-3.05723E-03 1.30908E-02 1.47167E-13-2.07835E-13
 -1      4031 1.73881E+01 1.22620E+00-1.45125E-02 8.72781E-01 3.52650E-14 1.94744E-13
 -1      4032 1.70285E+01 1.20760E+00-1.45553E-02 9.96976E-01-1.75107E-14 2.79557E-13
 -1      4033 1.65563E+01 1.37413E+00 3.61087E-02 4.69722E-01-3.64166E-14 6.37012E-14
 -1      4034 1.73881E+01 1.31868E+00 2.09732E-02 5.42837E-01 8.84882E-15 1.33231E-13
 -1      4035 1.71348E+01-2.93946E-01-3.55615E-04-2.74430E+00-5.32018E-15-3.52963E-13
 -1      4036 1.85946E+01-5.04242E-01 1.43570E-02-2.36919E+00-1.42841E-13-1.92164E-13
 -1      4037 1.84000E+01-1.86063E-01-6.73362E-03-2.11289E+00-9.86928E-14-2.26132E-13
 -1      4038 1.70228E+01 1.42536E-01-1.31941E-02-2.25559E+00-3.05580E-14-3.54412E-13
 -1      4039 2.02265E+01 1.09309E+00-2.48777E-03 1.22330E-02 7.21860E-14-3.13185E-13
 -1      4040 2.02312E+01 1.08788E+00-1.32406E-03 9.26282E-03 3.05377E-14-3.23184E-13
 -1      4041 1.55794E+01 8.26633E-01 2.15821E-02 1.52589E+00 1.28079E-13-1.32165E-13
 -1      4042 1.54129E+01 9.64157E-01-1.74592E-02 9.93188E-01 9.60603E-14-1.16939E-13
 -1      4043 1.64474E+01 1.28501E-01-1.64591E-02 2.29019E+00 2.00071E-13-1.66903E-13
 -1      4044 1.70015E+01 2.92348E-01 4.37665E-03 1.95941E+00 1.83526E-13-1.45429E-13
 -1      4045 1.79251E+01 1.65889E-01 2.46267E-03-1.96134E+00-4.98175E-14-2.51952E-13
 -1      4046 1.49279E+01 1.16765E+00-2.44725E-02-2.51341E-01-1.67497E-13 1.06035E-14
 -1      4047 1.49915E+01 1.04070E+00 3.23268E-02-1.26369E+00 7.38775E-16 1.71382E-13
 -1      4048 1.58548E+01 7.96546E-01 1.86748E-02-1.53099E+00 5.42309E-14-1.29349E-13
 -1      4049 1.56879E+01 1.23960E+00-9.33132E-03-2.02626E-01-9.58443E-14 7.52579E-14
 -1      4050 1.98654E+01 2.61531E-01-2.51706E-04-9.05445E-02 2.75002E-13-2.44317E-13
 -1      4051 1.98810E+01 2.41178E-01-2.21782E-04-7.82729E-02 1.54172E-13-2.11325E-13
 -1      4052 1.98701E+01 2.52700E-01 4.58590E-04-5.83436E-02 2.71058E-13-3.01513E-13
 -1      4053 2.02277E+01 1.08825E+00-2.34672E-03 8.52989E-04 1.01158E-13-3.20959E-13
 -1      4054 2.02326E+01 9.73138E-01 4.33669E-03 4.04756E-03 5.53587E-14-2.90228E-13
 -1      4055 2.02345E+01 1.07236E+00-3.26733E-04 2.75446E-03 1.31536E-13-2.94841E-13
 -1      4056 1.98484E+01 2.84179E-01 1.80874E-04-1.05032E-01 3.53473E-13-3.16943E-13
 -1      4057 1.96771E+01 6.42555E-01-1.20871E-03-4.70635E-01 6.44244E-14-1.81469E-13
 -1      4058 1.97762E+01 6.08000E-01-1.77833E-03-4.27115E-01 8.05545E-14-1.59781E-13
 -1      4059 1.87008E+01 9.78656E-01-3.17927E-03-6.87146E-01 2.59868E-14-1.83210E-13
 -1      4060 1.88955E+01 9.16835E-01-4.86946E-03-6.39475E-01 5.60712E-14-1.71633E-13
 -1      4061 1.67190E+01 1.14369E+00-5.27040E-03-1.03888E+00 1.96350E-14-1.62786E-13
 -1      4062 1.71162E+01 1.15773E+00-1.61819E-02-9.20940E-01 5.64123E-14-1.08342E-13
 -1      4063 1.61815E+01 1.25515E+00 2.69183E-02-6.00013E-01 8.67704E-14-1.87354E-13
 -1      4064 1.79720E+01 1.10543E+00 1.19044E-02-1.14452E+00 5.54430E-14-1.08733E-13
 -1      4065 1.94213E+01 7.38062E-01-1.56325E-03-5.42019E-01 4.75653E-14-2.20798E-13
 -1      4066 1.95447E+01 6.86165E-01-2.58040E-03-4.99177E-01 6.25035E-14-1.87033E-13
 -1      4067 1.95691E+01 7.03477E-01 3.69654E-03-3.79289E-01 8.14860E-14-1.46960E-13
 -1      4068 1.81922E+01 1.08689E+00-4.45511E-03-7.68130E-01 1.56429E-15-1.37312E-13
 -1      4069 1.84405E+01 1.03551E+00-6.58018E-03-7.12690E-01-8.97936E-16-1.46988E-13
 -1      4070 1.84660E+01 1.05504E+00 1.01585E-02-4.93423E-01 7.11172E-15-9.25549E-14
 -1      4071 1.98503E+01 2.73460E-01 5.94563E-04 5.01419E-03 7.17124E-14-6.18843E-14
 -1      4072 1.98496E+01 2.73011E-01-5.27023E-04 2.95578E-02-5.21759E-16-9.57763E-15
 -1      4073 2.00891E+01 5.57638E-01 1.49759E-03-3.44662E-01 1.08602E-13-2.26134E-13
 -1      4074 1.98135E+01 3.19853E-01 1.48882E-03-8.63927E-02 2.51570E-13-3.06321E-13
 -1      4075 2.01225E+01 6.44341E-01 1.69262E-03 1.98737E-01 1.43179E-14-2.72148E-13
 -1      4076 1.98598E+01 2.57962E-01-8.48497E-04-3.54535E-02 1.90192E-13-2.49439E-13
 -1      4077 2.02332E+01 1.33049E+00-2.81276E-03-9.60350E-02 1.99884E-14-4.14308E-13
 -1      4078 2.02582E+01 1.17332E+00 2.04002E-03-4.22678E-02 8.46363E-15-3.72434E-13
 -1      4079 1.98322E+01 2.90082E-01-7.35671E-04-2.62114E-02 1.57781E-13-1.45771E-13
 -1      4080 2.01605E+01 6.43570E-01-2.00791E-03-2.19226E-01 1.23876E-13-2.30163E-13
 -1      4081 2.02085E+01 7.09174E-01 9.68258E-04-1.54768E-01 1.46747E-13-2.10185E-13
 -1      4082 2.02292E+01 7.57763E-01-2.32134E-04 1.29576E-01 9.60905E-15-2.61369E-13
 -1      4083 2.02026E+01 7.65950E-01 1.72420E-03 1.23544E-01-1.33485E-15-2.78154E-13
 -1      4084 2.02448E+01 8.37521E-01-1.63233E-03 8.00678E-02 2.76427E-15-2.91036E-13
 -1      4085 2.02401E+01 8.14089E-01-2.64843E-03-9.43693E-02 1.43206E-13-2.49967E-13
 -1      4086 2.02676E+01 9.93464E-01 9.81628E-04 1.37196E-02 1.72344E-13-2.86890E-13
 -1      4087 2.02214E+01 8.30563E-01 1.22330E-03-9.19741E-02 1.30884E-13-2.42774E-13
 -1      4088 1.91678E+01 8.10449E-01-2.54549E-03 2.39020E-01 2.69763E-13-2.74543E-13
 -1      4089 1.90386E+01 8.76050E-01-3.33220E-03 2.59991E-01 2.00206E-13-2.64620E-13
 -1      4090 1.91021E+01 8.55597E-01-2.14439E-03-6.13226E-01 5.80295E-14-1.85733E-13
 -1      4091 1.92562E+01 7.94556E-01-3.55612E-03-5.69251E-01 4.11275E-14-1.77798E-13
 -1      4092 1.92783E+01 8.06021E-01 4.81858E-03-4.24075E-01 2.71331E-14-1.44517E-13
 -1      4093 1.89160E+01 9.28422E-01 6.42682E-03-4.61821E-01 3.39769E-14-1.32907E-13
 -1      4094 1.96227E+01 6.09431E-01-3.30017E-03 3.43196E-01 6.34260E-14-2.00820E-13
 -1      4095 1.95237E+01 6.30832E-01 1.19201E-03 3.97062E-01 4.93645E-14-1.66194E-13
 -1      4096 1.93820E+01 6.48012E-01-3.57266E-03 4.48647E-01 3.59548E-14-1.31307E-13
 -1      4097 1.92702E+01 6.69166E-01 1.25369E-03 5.15747E-01 3.14552E-14-1.52065E-13
 -1      4098 1.94004E+01 6.94360E-01 4.88814E-03 3.16870E-01 8.08884E-14-2.21187E-13
 -1      4099 1.91012E+01 6.83348E-01-5.61795E-03 5.90932E-01 2.88729E-14-1.29188E-13
 -1      4100 1.89872E+01 6.95318E-01 3.25430E-03 6.81798E-01 2.71480E-14-1.42740E-13
 -1      4101 1.90972E+01 7.54297E-01 5.91912E-03 4.37319E-01 4.56789E-14-1.74882E-13
 -1      4102 1.87889E+01 6.87376E-01-7.63163E-03 7.85982E-01-7.55284E-15-1.51568E-13
 -1      4103 1.86764E+01 6.73269E-01 4.96325E-03 9.10324E-01-1.39049E-14-1.77024E-13
 -1      4104 1.87541E+01 7.91179E-01 6.36637E-03 6.03117E-01 2.20299E-15-2.26390E-13
 -1      4105 1.84491E+01 6.30566E-01-8.57754E-03 1.05262E+00-2.20296E-14-1.81397E-13
 -1      4106 1.83392E+01 5.69226E-01 5.33571E-03 1.22656E+00-1.48389E-14-1.73387E-13
 -1      4107 1.83603E+01 7.76203E-01 4.00612E-03 8.38185E-01-2.04325E-14-2.34820E-13
 -1      4108 1.80673E+01 4.72654E-01-1.49252E-02 1.42136E+00-1.51875E-15-1.80424E-13
 -1      4109 1.79614E+01 3.20200E-01-8.73667E-03 1.69263E+00 4.28182E-14-1.82109E-13
 -1      4110 1.79020E+01 6.90276E-01 1.09032E-03 1.16561E+00-8.15363E-15-2.37865E-13
 -1      4111 1.77357E+01 6.60696E-01 8.81907E-03-1.37729E+00 6.04572E-14-2.10625E-13
 -1      4112 1.78549E+01 7.47491E-01-1.31098E-02-1.16223E+00 9.55698E-14-8.72580E-14
 -1      4113 1.73539E+01 3.61842E-01 1.21965E-02-1.90770E+00-3.51000E-14-2.35564E-13
 -1      4114 1.74196E+01 5.24154E-01-1.79076E-02-1.62204E+00 7.17180E-14-1.57412E-13
 -1      4115 1.65762E+01 5.87929E-01 1.61563E-02-1.85763E+00 1.19545E-13-1.59871E-13
 -1      4116 1.97943E+01 3.33750E-01 5.59100E-05-4.26046E-02 1.47043E-13-1.00530E-13
 -1      4117 2.01348E+01 6.89991E-01-1.40754E-03 1.28372E-01 5.59980E-15-2.50419E-13
 -1      4118 2.00793E+01 6.41180E-01-4.91646E-04 1.66338E-01 2.50074E-14-2.42808E-13
 -1      4119 1.81316E+01 8.18294E-01 5.85317E-03-9.82475E-01 1.19974E-13-1.21876E-13
 -1      4120 1.82557E+01 8.48184E-01-1.00802E-02-8.28762E-01 8.89432E-14 6.21443E-15
 -1      4121 1.77508E+01 9.55295E-01 1.22661E-02-9.03108E-01 8.22484E-14-3.17507E-13
 -1      4122 1.84809E+01 8.69536E-01 3.16355E-03-7.02446E-01 2.64421E-14-4.71204E-14
 -1      4123 1.86010E+01 8.63834E-01-7.48537E-03-5.92141E-01 1.18274E-13 1.47988E-14
 -1      4124 1.82110E+01 9.85784E-01 1.05238E-02-6.20215E-01 7.86924E-14-3.21097E-13
 -1      4125 1.87837E+01 8.53281E-01 1.69903E-03-5.03877E-01 5.28930E-14-4.28687E-14
 -1      4126 1.88929E+01 8.24741E-01-5.62559E-03-4.23953E-01 9.56567E-14-1.23137E-13
 -1      4127 1.85914E+01 9.52290E-01 9.46343E-03-4.24199E-01 3.89297E-14-3.62812E-13
 -1      4128 1.90411E+01 7.94353E-01 8.35178E-04-3.62092E-01 1.35547E-13-9.00727E-14
 -1      4129 1.91365E+01 7.52632E-01-4.27948E-03-3.03716E-01 1.02883E-13-8.78744E-14
 -1      4130 1.89010E+01 8.78573E-01 7.71249E-03-2.88301E-01 9.51272E-14-4.36167E-13
 -1      4131 1.92562E+01 7.11226E-01 3.03302E-04-2.60460E-01 1.53482E-13-1.29062E-13
 -1      4132 1.93371E+01 6.63363E-01-3.28840E-03-2.17521E-01 7.38192E-14 3.43515E-14
 -1      4133 1.91531E+01 7.83061E-01 6.23141E-03-1.94830E-01 1.08210E-13-2.36529E-13
 -1      4134 1.94329E+01 6.17386E-01-4.70688E-06-1.87389E-01-4.47934E-14 7.00500E-14
 -1      4135 1.94999E+01 5.68353E-01-2.54044E-03-1.55595E-01-9.01333E-14 9.97383E-14
 -1      4136 1.93568E+01 6.78509E-01 5.02827E-03-1.30983E-01 5.13645E-14-3.59804E-13
 -1      4137 1.95756E+01 5.22296E-01-1.62169E-04-1.34680E-01-1.82218E-13 1.27330E-13
 -1      4138 1.96299E+01 4.75375E-01-1.92174E-03-1.10919E-01-5.98813E-14-3.29540E-14
 -1      4139 1.95195E+01 5.73899E-01 4.02365E-03-8.76843E-02-1.27433E-13-6.16256E-14
 -1      4140 1.96885E+01 4.32009E-01-3.17707E-04-9.64085E-02 4.24943E-14-8.36841E-14
 -1      4141 1.97301E+01 3.89135E-01-1.98976E-03-7.72326E-02 7.66252E-14-1.25645E-13
 -1      4142 1.96467E+01 4.75234E-01 2.97834E-03-5.86416E-02-7.25509E-14-5.90726E-15
 -1      4143 1.95519E+01 5.64012E-01-1.74107E-03 1.75613E-01 6.36272E-14-1.05927E-13
 -1      4144 1.94778E+01 6.21732E-01-1.65724E-03 1.97119E-01 2.35755E-13-2.15665E-13
 -1      4145 1.93852E+01 6.82423E-01-2.09546E-03 2.08370E-01 3.14200E-13-2.14396E-13
 -1      4146 1.92870E+01 7.45293E-01-2.36616E-03 2.30355E-01 3.33436E-13-2.30876E-13
 -1      4147 1.94036E+01 6.75315E-01 4.77485E-03 1.24273E-01 2.53984E-13-3.27998E-13
 -1      4148 1.88856E+01 9.42721E-01-3.17102E-03 2.63664E-01 1.04590E-13-2.38305E-13
 -1      4149 1.87163E+01 1.00721E+00-4.65694E-03 2.82004E-01 2.17598E-14-9.67783E-14
 -1      4150 1.89266E+01 9.32661E-01 7.71440E-03 1.28638E-01 1.92795E-13-6.28565E-13
 -1      4151 1.96786E+01 4.58132E-01-1.52609E-03 1.43606E-01-4.65736E-14-3.82712E-14
 -1      4152 1.96234E+01 5.09510E-01-1.12964E-03 1.63577E-01 2.60487E-14-4.44651E-14
 -1      4153 1.95643E+01 5.58162E-01 3.67847E-03 1.09977E-01 8.85665E-14-8.08055E-14
 -1      4154 1.97743E+01 3.67649E-01-8.16013E-04 1.14185E-01-3.78803E-14-1.32887E-13
 -1      4155 1.97335E+01 4.12067E-01-3.46873E-04 1.32305E-01-1.21658E-13-4.81370E-14
 -1      4156 1.96871E+01 4.52476E-01 2.43067E-03 9.37002E-02-1.83165E-14-6.67898E-14
 -1      4157 1.98815E+01 5.84853E-01-1.12602E-03-3.95909E-01 8.58751E-14-1.61644E-13
 -1      4158 1.99611E+01 5.75070E-01-1.11979E-03-3.49420E-01 1.05683E-13-1.65766E-13
 -1      4159 1.98024E+01 6.36386E-01 2.67307E-03-3.27223E-01 8.50647E-14-1.38140E-13
 -1      4160 2.00419E+01 5.79873E-01-1.33587E-03-3.13742E-01 1.08310E-13-2.22356E-13
 -1      4161 2.01049E+01 6.02407E-01-4.92577E-04-2.61024E-01 1.16978E-13-2.26870E-13
 -1      4162 2.01254E+01 6.74735E-01 1.90974E-03-1.91684E-01 1.30580E-13-2.07711E-13
 -1      4163 1.85194E+01 1.07106E+00-4.12714E-03 2.77732E-01-5.86224E-14-7.65755E-14
 -1      4164 1.82976E+01 1.12880E+00-6.43547E-03 2.92467E-01-2.73500E-14 2.13484E-14
 -1      4165 1.85814E+01 1.06053E+00 9.88824E-03 1.06507E-01 6.64817E-14-3.34513E-13
 -1      4166 2.00046E+01 6.08467E-01-1.55959E-03 1.90924E-01 4.01349E-14-2.40433E-13
 -1      4167 1.99307E+01 5.92437E-01-4.12441E-04 2.29886E-01 3.37901E-14-2.53061E-13
 -1      4168 2.00322E+01 6.60055E-01 3.16459E-03 1.18660E-01 3.04986E-14-2.44415E-13
 -1      4169 1.97661E+01 3.65256E-01 1.72301E-03-1.14843E-02 1.15071E-13-3.96261E-14
 -1      4170 1.55458E+01 1.16829E+00 2.72896E-02 4.95904E-01 1.28820E-13-1.64591E-13
 -1      4171 1.57979E+01 1.18499E+00-1.65238E-02-1.79599E-01 9.08593E-14-2.31788E-13
 -1      4172 1.64011E+01 1.21014E+00-1.08379E-02-1.69915E-01 5.23349E-14-2.06972E-13
 -1      4173 1.61440E+01 1.06026E+00 2.22824E-03 7.18968E-01 1.03136E-13-1.73061E-13
 -1      4174 2.02223E+01 1.37992E+00-1.33778E-03-6.69872E-02 5.13480E-14-4.16946E-13
 -1      4175 1.98313E+01 5.89315E-01-2.45141E-03 2.59889E-01 4.50164E-14-2.28700E-13
 -1      4176 1.97446E+01 5.97642E-01 6.34943E-04 3.04529E-01 6.22064E-14-1.91942E-13
 -1      4177 1.96473E+01 6.48330E-01 3.01125E-03 2.31639E-01 6.17549E-14-2.04645E-13
 -1      4178 1.80410E+01 1.18454E+00-5.61304E-03 2.77923E-01 1.37380E-14-4.41053E-15
 -1      4179 1.77438E+01 1.22436E+00-1.08283E-02 2.90863E-01 6.32039E-14-3.67897E-16
 -1      4180 1.81346E+01 1.17551E+00 1.25169E-02 5.70173E-02-3.99443E-14-3.18333E-13
 -1      4181 2.02549E+01 1.04458E+00 5.62435E-04 8.88282E-03 1.46040E-13-3.11586E-13
 -1      4182 1.75551E+01 1.15407E+00-3.97314E-03-8.78697E-01 3.84333E-14-1.44697E-13
 -1      4183 1.78621E+01 1.12535E+00-1.10586E-02-8.02999E-01 2.60632E-14-1.45344E-13
 -1      4184 1.78856E+01 1.17464E+00 1.38744E-02-5.16707E-01 1.61368E-14-1.45280E-13
 -1      4185 1.71683E+01 1.23863E+00 1.76949E-02-5.41163E-01 5.02875E-14-1.39853E-13
 -1      4186 2.02500E+01 1.08621E+00 6.99284E-04 2.42868E-03 1.62883E-14-3.31276E-13
 -1      4187 2.02594E+01 9.95568E-01-1.94540E-03 7.37465E-03-7.50683E-15-3.22314E-13
 -1      4188 1.98568E+01 2.69690E-01-2.35140E-04 5.43260E-02 8.33800E-14-1.50476E-13
 -1      4189 1.98656E+01 2.64137E-01-5.77271E-04 7.79763E-02 1.08157E-13-2.08540E-13
 -1      4190 1.98486E+01 2.89949E-01 3.64113E-04 8.98204E-02 1.40081E-13-2.78345E-13
 -1      4191 1.98288E+01 3.01458E-01 3.84186E-04 4.08932E-02 7.38979E-14-1.76059E-13
 -1      4192 2.02603E+01 8.92138E-01 1.92987E-03 6.38367E-02-6.49985E-15-3.11749E-13
 -1      4193 2.02436E+01 1.06597E+00-2.79346E-03 2.72717E-03 1.34022E-13-2.92820E-13
 -1      4194 2.02415E+01 9.63787E-01 2.34502E-03-2.33465E-02 1.06959E-13-2.82141E-13
 -1      4195 1.75825E+01 1.25579E+00 1.62809E-02-7.06253E-02 2.00715E-14-2.13824E-13
 -1      4196 1.74505E+01 1.25893E+00-4.45431E-03 2.15531E-01 2.17101E-14-1.36624E-14
 -1      4197 1.70575E+01 1.26849E+00-1.75730E-02 1.65165E-01 2.69240E-14-8.76493E-14
 -1      4198 1.72110E+01 8.36830E-01 1.50605E-02-1.30191E+00 7.62372E-14-2.74009E-13
 -1      4199 1.72134E+01 4.15671E-01-1.34381E-02 1.70011E+00 1.37790E-13-1.62509E-13
 -1      4200 1.69643E+01 7.56573E-01 1.28249E-02 1.33181E+00 1.12181E-13-1.52425E-13
 -1      4201 2.02406E+01 1.24116E+00 1.96974E-03-2.46543E-02 4.50421E-14-3.80625E-13
 -1      4202 1.74749E+01 8.06326E-01 1.00665E-02 1.06668E+00 4.85397E-14-1.24801E-13
 -1      4203 1.67228E+01 9.44997E-01 3.59506E-03 1.01075E+00 9.15635E-14-1.10799E-13
 -1      4204 1.66935E+01 1.07158E+00-1.15515E-02 5.46635E-01 7.11670E-14-1.39850E-13
 -1      4205 1.76844E+01 8.59168E-01-4.20837E-03 8.83721E-01-3.46890E-15-1.71717E-13
 -1      4206 2.01746E+01 7.43177E-01-3.64117E-04 1.09016E-01 2.39631E-14-2.87071E-13
 -1      4207 2.01383E+01 7.44269E-01 1.58722E-03 7.72475E-02 3.93064E-14-2.39634E-13
 -1      4208 2.02036E+01 8.14946E-01 1.44896E-03 7.86717E-02 4.47233E-17-3.08397E-13
 -1      4209 1.98596E+01 6.31718E-01 3.15862E-03 1.68765E-01 5.27005E-14-1.99423E-13
 -1      4210 1.91951E+01 8.01781E-01 6.06750E-03 1.32243E-01 2.33207E-13-5.63803E-13
 -1      4211 1.82388E+01 1.05482E+00-1.01077E-02-2.68154E-01 1.85653E-15-1.39740E-13
 -1      4212 1.85133E+01 1.00405E+00-4.04587E-03-2.64457E-01-2.34163E-14-1.48840E-13
 -1      4213 1.99873E+01 6.21925E-01 2.43590E-03-2.65433E-01 7.11925E-14-1.68959E-13
 -1      4214 2.02453E+01 1.06661E+00-1.18593E-03 1.65293E-02 1.83320E-14-3.55884E-13
 -1      4215 1.66911E+01 1.28344E+00-6.16566E-03 5.51217E-02 1.42117E-14-4.29799E-14
 -1      4216 1.61646E+01 1.25910E+00-2.48913E-02-2.80368E-02-4.16014E-14 3.28871E-14
 -1      4217 1.60789E+01 1.22445E+00 2.94357E-02-6.69769E-01-6.10610E-14-1.57193E-13
 -1      4218 1.69194E+01 1.27768E+00 2.16806E-02-3.08933E-01 4.09477E-14-1.11545E-13
 -1      4219 1.97246E+01 6.54728E-01-1.95876E-03-2.44901E-01 9.14928E-14-1.70845E-13
 -1      4220 1.98321E+01 6.35363E-01-1.05204E-03-2.18986E-01 7.70013E-14-1.82392E-13
 -1      4221 1.98251E+01 3.12147E-01-6.50476E-04 9.54323E-02 1.89235E-13-3.95749E-13
 -1      4222 1.98024E+01 3.39697E-01-5.33845E-04 1.08195E-01 9.72874E-14-1.81461E-13
 -1      4223 1.97640E+01 3.75977E-01 1.10956E-03 8.13009E-02 5.78147E-14-2.09906E-13
 -1      4224 1.98149E+01 3.22008E-01 7.91051E-04 7.12423E-02 2.27839E-13-2.70457E-13
 -1      4225 2.02418E+01 9.60428E-01 3.33331E-03 3.90014E-02-7.31836E-19-3.35409E-13
 -1      4226 1.96010E+01 6.84759E-01-1.70156E-03-2.52169E-01 7.76900E-14-1.72694E-13
 -1      4227 1.96516E+01 6.92007E-01 3.58291E-03-1.40857E-01 7.80172E-14-1.94874E-13
 -1      4228 1.94681E+01 7.25369E-01-2.34393E-03-2.71159E-01 5.50464E-14-1.51890E-13
 -1      4229 1.61560E+01 8.98494E-01-2.17505E-02-1.24578E+00 1.22966E-13-5.98271E-14
 -1      4230 1.86169E+01 9.81821E-01 8.40986E-03-6.29151E-02-3.27784E-14-2.85321E-13
 -1      4231 1.87483E+01 9.44374E-01-5.10454E-03-2.83229E-01 4.68430E-16-1.57558E-13
 -1      4232 1.89570E+01 8.85823E-01-3.18733E-03-2.75023E-01 1.06474E-15-1.72950E-13
 -1      4233 2.02006E+01 8.29386E-01-3.19812E-03-7.84478E-02 9.34576E-14-2.66944E-13
 -1      4234 2.01633E+01 7.41695E-01 1.50082E-03-9.97319E-02 1.04753E-13-2.20503E-13
 -1      4235 2.01887E+01 8.48088E-01-2.51686E-04-3.65922E-02 8.10439E-14-2.85069E-13
 -1      4236 2.01020E+01 6.84789E-01-1.80948E-03-1.38923E-01 8.98916E-14-2.14364E-13
 -1      4237 1.98027E+01 3.23910E-01-1.28889E-03 4.57140E-02 1.13641E-13-2.45791E-13
 -1      4238 1.97409E+01 3.89533E-01 5.44408E-04 1.99943E-02 1.74089E-13-1.51756E-13
 -1      4239 1.91485E+01 8.27892E-01-3.12203E-03-2.84816E-01 1.00664E-14-1.47106E-13
 -1      4240 1.93138E+01 7.74516E-01-2.13926E-03-2.70640E-01 5.34404E-14-1.38055E-13
 -1      4241 1.90354E+01 8.60110E-01 1.90736E-03-1.13924E-01 2.84510E-14-2.27962E-13
 -1      4242 1.94079E+01 7.05446E-01-4.37753E-03 1.62663E-01 6.34030E-14-1.98507E-13
 -1      4243 1.92694E+01 7.39494E-01-2.16707E-03 2.11832E-01 8.82130E-14-1.99702E-13
 -1      4244 1.90220E+01 8.12653E-01-4.28840E-03 1.49630E-01 7.58397E-14-2.48166E-13
 -1      4245 1.88524E+01 8.50691E-01-1.51134E-03 2.09757E-01 1.17325E-14-2.40575E-13
 -1      4246 1.86143E+01 8.90113E-01-7.60546E-03 2.58994E-01-1.23768E-14-2.51125E-13
 -1      4247 1.84334E+01 9.23170E-01 1.95896E-03 3.41361E-01 1.88487E-15-2.72082E-13
 -1      4248 1.81593E+01 9.18264E-01-8.92117E-03 5.12352E-01 3.57619E-14-2.73182E-13
 -1      4249 1.79600E+01 9.20193E-01 3.43634E-03 6.37138E-01 3.15205E-14-2.30407E-13
 -1      4250 1.75205E+01 1.02867E+00-4.94353E-04 5.34044E-01 5.06848E-14-1.77576E-13
 -1      4251 1.81019E+01 1.06010E+00 8.81342E-03 1.25894E-01 3.75715E-14-2.42707E-13
 -1      4252 1.73130E+01 1.09550E+00-4.62474E-04-6.23082E-01 5.90018E-14-2.63271E-13
 -1      4253 1.75628E+01 1.09764E+00-1.57506E-02-4.75470E-01 5.69189E-14-2.57315E-13
 -1      4254 1.98722E+01 6.48516E-01-5.71550E-04-1.28591E-01 7.01002E-14-2.15962E-13
 -1      4255 1.99300E+01 6.28592E-01-2.00838E-03-2.08777E-01 6.13809E-14-1.70628E-13
 -1      4256 2.00130E+01 6.39413E-01-9.86628E-04-1.75849E-01 6.30154E-14-1.90706E-13
 -1      4257 2.02389E+01 8.74477E-01-1.27928E-03 7.29045E-02-6.21042E-15-3.00896E-13
 -1      4258 1.78706E+01 1.10370E+00-2.05172E-03-3.58562E-01 9.16506E-15-3.54164E-13
 -1      4259 1.80818E+01 1.07862E+00-1.09619E-02-2.59386E-01 1.62035E-14-3.88870E-13
 -1      4260 1.83430E+01 1.04472E+00-3.60220E-03-2.08404E-01-3.80352E-14-4.06149E-13
 -1      4261 1.85181E+01 1.00172E+00-8.85095E-03-1.39805E-01 1.65553E-14-4.89346E-13
 -1      4262 1.87206E+01 9.53964E-01-3.28984E-03-1.10367E-01 1.64343E-13-5.71784E-13
 -1      4263 1.88638E+01 9.00337E-01-6.79803E-03-6.40777E-02 1.56675E-13-5.63742E-13
 -1      4264 1.90212E+01 8.45100E-01-2.81130E-03-4.89184E-02 1.68689E-13-6.27190E-13
 -1      4265 1.91374E+01 7.86969E-01-5.22826E-03-1.81910E-02 1.37788E-13-6.19730E-13
 -1      4266 1.92598E+01 7.29618E-01-2.38424E-03-1.24999E-02 1.33704E-13-5.32959E-13
 -1      4267 1.93532E+01 6.71546E-01-4.03738E-03 7.56186E-03 1.34620E-13-4.45792E-13
 -1      4268 1.94480E+01 6.15922E-01-1.99429E-03 7.31518E-03 7.17135E-14-3.64131E-13
 -1      4269 1.95222E+01 5.61081E-01-3.08543E-03 2.01174E-02 2.39040E-14-2.25935E-13
 -1      4270 1.95953E+01 5.09652E-01-1.54507E-03 1.65492E-02-6.76697E-14-1.54191E-13
 -1      4271 1.96535E+01 4.60332E-01-2.08349E-03 2.38746E-02 5.75452E-14-1.66156E-13
 -1      4272 1.79616E+01 1.09293E+00-2.55764E-03-1.21069E-01 5.01619E-14-1.70189E-13
 -1      4273 1.66500E+01 1.00584E+00 3.25092E-03-9.95678E-01 1.00476E-13-1.93382E-13
 -1      4274 1.69211E+01 1.04711E+00-2.03879E-02-7.90571E-01 1.65731E-14-2.46241E-13
 -1      4275 2.00517E+01 6.76374E-01-2.55236E-03 4.01557E-02 3.44075E-14-2.26374E-13
 -1      4276 1.99774E+01 6.47403E-01-1.69469E-03 6.37683E-02 4.26656E-14-2.04424E-13
 -1      4277 2.01838E+01 8.51717E-01-2.49408E-03-9.18630E-03 4.97630E-14-2.61825E-13
 -1      4278 2.00624E+01 6.97425E-01 1.69797E-03-8.69186E-02 7.01820E-14-2.15977E-13
 -1      4279 2.02027E+01 8.70539E-01-1.87844E-03 4.08733E-02 3.52981E-14-2.72015E-13
 -1      4280 2.02133E+01 8.54288E-01-1.80155E-03 6.43744E-02 9.30805E-15-3.24932E-13
 -1      4281 1.98541E+01 6.41855E-01-1.74664E-03 9.39847E-03 6.64896E-14-1.85422E-13
 -1      4282 1.97540E+01 6.47914E-01-8.87639E-04 3.16464E-02 7.08662E-14-1.92801E-13
 -1      4283 1.96270E+01 6.69559E-01-3.07813E-03 3.60970E-02 6.01588E-14-1.88927E-13
 -1      4284 1.95082E+01 6.97361E-01-3.73278E-04 6.38988E-02 6.23878E-14-2.06496E-13
 -1      4285 2.01610E+01 7.79996E-01 2.04996E-03 6.09474E-03 6.35732E-14-2.60016E-13
 -1      4286 2.01193E+01 7.25835E-01-1.54243E-04 1.80991E-02 5.71738E-14-2.58105E-13
 -1      4287 1.94169E+01 7.38524E-01 4.78412E-04-4.83255E-02 4.90371E-14-1.76029E-13
 -1      4288 1.76335E+01 1.12779E+00-6.65280E-03-1.03853E-01 5.01790E-14-1.90696E-13
 -1      4289 1.66972E+01 1.19643E+00 1.13196E-02 1.87242E-01 7.28638E-14-2.17398E-13
 -1      4290 1.68817E+01 1.20309E+00-9.30332E-03-2.12752E-01 6.22635E-14-1.89083E-13
 -1      4291 2.00813E+01 7.06014E-01-5.49748E-04-4.04093E-02 6.83559E-14-2.48679E-13
 -1      4292 1.72915E+01 1.17865E+00-1.24802E-02-2.10355E-01 5.46243E-14-1.69962E-13
 -1      4293 1.98993E+01 6.61289E-01 2.02460E-03-7.16619E-02 6.79709E-14-1.87144E-13
 -1      4294 1.71836E+01 1.08406E+00 3.63441E-03 4.44780E-01 6.27735E-14-1.30922E-13
 -1      4295 1.93782E+01 7.63948E-01 3.86167E-03-1.40413E-01 4.24890E-14-1.70635E-13
 -1      4296 1.92729E+01 7.76320E-01 4.51648E-04-3.63671E-02 5.55643E-14-1.88994E-13
 -1      4297 1.97091E+01 4.14104E-01-1.20121E-03 2.14023E-02 5.25341E-14-1.83076E-13
 -1      4298 1.99981E+01 6.60139E-01 2.32984E-03-6.60641E-02 4.71546E-14-2.15784E-13
 -1      4299 1.90899E+01 8.36172E-01 3.28603E-03-1.55518E-02 5.84416E-14-2.22010E-13
 -1      4300 1.74833E+01 1.12724E+00 5.17675E-03 1.99678E-01 7.33744E-14-2.25729E-13
 -3
    1PSTEP                         3           1           1          
  100CL  101 1.000000000        4300                     0    1           1
 -4  TOSTRAIN    6    1
 -5  EXX         1    4    1    1
 -5  EYY         1    4    2    2
 -5  EZZ         1    4    3    3
 -5  EXY         1    4    1    2
 -5  EYZ         1    4    2    3
 -5  EZX         1    4    3    1
 -1         1 6.80042E-05 2.64786E-05-3.83142E-05 8.61201E-05-1.47744E-17-1.71833E-17
 -1         2 3.68991E-05-1.11642E-04 2.01159E-05-2.43826E-07 7.52851E-18 4.39504E-19
 -1         3 9.52350E-05-2.85732E-05-2.85621E-05 1.39819E-09-2.28050E-18-3.37682E-18
 -1         4 9.52348E-05-2.85736E-05-2.85622E-05-5.40246E-10 6.26915E-19 1.47702E-18
 -1         5 1.42754E-04-2.13791E-05-4.23800E-05 3.83884E-05-3.60836E-19 2.38414E-17
 -1         6 1.44811E-04 2.56625E-10-4.40361E-05-5.33109E-05-1.54202E-18 1.70246E-17
 -1         7 9.04356E-05-5.15920E-07-3.89824E-05-2.91153E-05-2.21499E-19 2.10541E-19
 -1         8 8.50833E-05 8.14440E-08-3.63132E-05-2.01209E-05-1.90874E-19-4.17335E-18
 -1         9 8.28556E-05 7.18275E-08-3.53623E-05-1.54658E-05-1.43135E-19-6.15371E-18
 -1        10 8.18534E-05 3.66741E-08-3.49137E-05-1.18939E-05-8.40151E-20-6.91960E-18
 -1        11 8.13517E-05 1.73714E-08-3.46951E-05-8.84047E-06-2.48088E-20-7.12781E-18
 -1        12 8.10854E-05 7.98698E-09-3.45840E-05-6.14133E-06 9.19659E-21-7.01132E-18
 -1        13 8.09406E-05 4.06748E-09-3.45268E-05-3.59203E-06 4.19976E-20-6.74351E-18
 -1        14 8.08788E-05 2.55285E-09-3.45031E-05-1.15226E-06 7.36836E-20-6.41449E-18
 -1        15 8.08822E-05 2.51329E-09-3.45044E-05 1.25382E-06 1.07500E-19-6.05062E-18
 -1        16 8.09508E-05 3.91801E-09-3.45306E-05 3.69900E-06 1.35440E-19-5.53141E-18
 -1        17 8.11027E-05 7.07693E-09-3.45901E-05 6.26101E-06 1.71000E-19-4.96411E-18
 -1        18 8.13757E-05 1.59784E-08-3.47027E-05 8.98038E-06 1.95999E-19-4.08733E-18
 -1        19 8.18844E-05 3.49595E-08-3.49240E-05 1.20739E-05 2.61660E-19-2.73405E-18
 -1        20 8.28778E-05 7.71652E-08-3.53753E-05 1.56981E-05 3.24427E-19-5.82913E-19
 -1        21 8.50464E-05 1.63916E-07-3.63504E-05 2.03342E-05 3.36881E-19 3.14079E-18
 -1        22 9.14516E-05-1.03750E-07-3.86522E-05 2.78689E-05 3.53636E-20 1.00281E-17
 -1        23 1.12570E-04-3.79920E-05-3.52775E-05-4.37102E-06-1.10379E-18 1.18356E-17
 -1        24 9.25614E-05-2.76257E-05-2.89226E-05 3.91563E-07-2.32663E-19 7.49522E-18
 -1        25 8.89926E-05-2.68156E-05-2.68905E-05 3.74139E-07-1.51444E-19 3.31657E-18
 -1        26 8.80213E-05-2.64921E-05-2.63946E-05 2.01938E-07-3.90529E-20 4.18527E-19
 -1        27 8.82220E-05-2.65232E-05-2.64405E-05 1.38453E-07-1.05740E-19-1.47140E-18
 -1        28 8.90002E-05-2.67338E-05-2.66847E-05 1.00798E-07 5.69679E-21-2.72425E-18
 -1        29 9.00970E-05-2.70498E-05-2.70213E-05 7.72521E-08 4.00951E-20-3.79851E-18
 -1        30 9.13921E-05-2.74314E-05-2.74143E-05 6.23406E-08-1.00620E-20-5.09187E-18
 -1        31 9.28351E-05-2.78605E-05-2.78506E-05 5.35603E-08-6.11408E-20-6.27494E-18
 -1        32 9.44138E-05-2.83317E-05-2.83274E-05 4.98045E-08-7.80025E-20-7.35886E-18
 -1        33 9.61357E-05-2.88464E-05-2.88468E-05 5.05232E-08 1.83490E-20-7.92275E-18
 -1        34 9.80116E-05-2.94072E-05-2.94114E-05 5.51914E-08-1.78237E-21-8.23761E-18
 -1        35 1.00037E-04-3.00122E-05-3.00190E-05 6.28317E-08 1.06149E-19-8.46783E-18
 -1        36 1.02172E-04-3.06488E-05-3.06555E-05 7.14303E-08 5.79688E-20-7.33135E-18
 -1        37 1.04311E-04-3.12856E-05-3.12876E-05 7.71835E-08-2.85947E-19-7.22163E-18
 -1        38 1.06258E-04-3.18640E-05-3.18539E-05 7.37105E-08-2.02800E-19-8.00268E-18
 -1        39 1.07702E-04-3.22918E-05-3.22605E-05 5.17708E-08-8.16051E-20-8.74947E-18
 -1        40 1.08223E-04-3.24447E-05-3.23838E-05 6.72566E-10-1.47909E-19-9.31022E-18
 -1        41 1.07352E-04-3.21841E-05-3.20931E-05-8.68713E-08 1.87638E-20-1.15127E-17
 -1        42 1.04724E-04-3.14017E-05-3.12960E-05-2.05555E-07-1.31872E-19-1.11668E-17
 -1        43 1.00315E-04-3.00893E-05-3.00054E-05-3.26994E-07-4.57137E-19-1.10153E-17
 -1        44 9.46897E-05-2.84134E-05-2.83997E-05-3.98200E-07 4.85923E-19-9.84062E-18
 -1        45 8.90764E-05-2.67388E-05-2.68281E-05-3.62017E-07-2.08771E-19-9.47716E-18
 -1        46 8.50732E-05-2.55430E-05-2.57227E-05-1.98400E-07 2.00826E-19-1.06214E-17
 -1        47 8.40004E-05-2.52224E-05-2.54287E-05 4.46161E-08-2.31184E-19-1.00080E-17
 -1        48 8.62380E-05-2.58912E-05-2.60439E-05 2.69133E-07 8.83495E-20-1.00581E-17
 -1        49 9.10193E-05-2.73191E-05-2.73703E-05 3.89186E-07-9.96447E-20-9.18759E-18
 -1        50 9.68426E-05-2.90558E-05-2.90117E-05 3.82024E-07 3.07368E-19-7.68627E-18
 -1        51 1.02187E-04-3.06476E-05-3.05508E-05 2.86072E-07 8.60979E-20-5.64693E-18
 -1        52 1.06054E-04-3.17990E-05-3.16958E-05 1.61138E-07-1.34506E-19-6.95331E-18
 -1        53 1.08120E-04-3.24148E-05-3.23343E-05 5.24247E-08-3.46037E-19-9.61749E-18
 -1        54 1.08568E-04-3.25501E-05-3.25012E-05-2.08193E-08 8.25852E-19-7.67869E-18
 -1        55 1.07831E-04-3.23336E-05-3.23120E-05-5.90019E-08-4.50402E-19-4.02859E-18
 -1        56 1.06382E-04-3.19048E-05-3.19017E-05-7.13484E-08 1.43154E-19-5.91179E-18
 -1        57 1.04617E-04-3.13807E-05-3.13873E-05-6.82036E-08 2.27102E-19-5.04794E-18
 -1        58 1.02812E-04-3.08439E-05-3.08543E-05-5.76443E-08 2.33878E-20-6.14678E-18
 -1        59 1.01141E-04-3.03455E-05-3.03560E-05-4.48530E-08 8.45723E-20-6.44308E-18
 -1        60 9.96888E-05-2.99117E-05-2.99206E-05-3.26580E-08-5.25272E-19-5.23122E-18
 -1        61 9.84854E-05-2.95514E-05-2.95582E-05-2.23194E-08 3.93343E-19-5.58954E-18
 -1        62 9.75253E-05-2.92634E-05-2.92682E-05-1.41847E-08-2.59928E-19-5.95326E-18
 -1        63 9.67843E-05-2.90407E-05-2.90438E-05-8.13365E-09-5.61893E-19-6.34624E-18
 -1        64 9.62301E-05-2.88738E-05-2.88757E-05-3.84581E-09 1.42590E-19-8.16423E-18
 -1        65 9.58291E-05-2.87528E-05-2.87538E-05-9.43293E-10-1.07129E-19-6.70064E-18
 -1        66 9.55503E-05-2.86685E-05-2.86688E-05 9.44706E-10 7.22786E-19-5.12457E-18
 -1        67 9.53670E-05-2.86128E-05-2.86129E-05 2.16536E-09 1.06012E-19-2.38312E-18
 -1        68 9.52575E-05-2.85793E-05-2.85795E-05 3.06487E-09-2.72526E-19-2.47230E-18
 -1        69 9.52052E-05-2.85629E-05-2.85635E-05 4.01378E-09 2.49208E-19-2.07050E-18
 -1        70 9.51971E-05-2.85600E-05-2.85603E-05 5.42760E-09 4.46069E-19 2.89085E-18
 -1        71 9.52197E-05-2.85667E-05-2.85636E-05 6.40145E-09-4.42535E-19 2.97036E-18
 -1        72 1.01798E-04-3.04702E-05-3.40319E-05-1.92387E-06 1.90159E-19 2.27981E-17
 -1        73 9.23022E-05-2.74372E-05-2.88264E-05-3.31549E-07 1.56539E-19 1.88482E-17
 -1        74 8.89573E-05-2.66583E-05-2.69270E-05-1.22329E-07 2.20468E-20 1.56143E-17
 -1        75 8.80231E-05-2.64342E-05-2.64302E-05-9.01290E-08 1.41787E-19 1.34951E-17
 -1        76 8.82252E-05-2.64933E-05-2.64579E-05-6.94617E-08 3.40840E-20 1.16234E-17
 -1        77 8.90022E-05-2.67179E-05-2.66929E-05-5.38560E-08-7.85408E-21 1.08209E-17
 -1        78 9.01062E-05-2.70436E-05-2.70285E-05-4.16714E-08 1.01751E-20 1.00118E-17
 -1        79 9.14293E-05-2.74379E-05-2.74291E-05-3.16618E-08 7.42934E-20 9.22181E-18
 -1        80 9.29410E-05-2.78902E-05-2.78867E-05-2.34880E-08-2.39709E-20 8.38523E-18
 -1        81 9.46618E-05-2.84060E-05-2.84084E-05-1.74558E-08 6.05215E-20 7.49203E-18
 -1        82 9.66518E-05-2.90025E-05-2.90125E-05-1.44212E-08 8.03860E-20 6.49811E-18
 -1        83 9.90025E-05-2.97068E-05-2.97268E-05-1.59236E-08 1.55087E-19 5.75098E-18
 -1        84 1.01829E-04-3.05526E-05-3.05852E-05-2.44675E-08-9.27373E-20 6.40525E-18
 -1        85 1.05254E-04-3.15757E-05-3.16235E-05-4.38303E-08 5.91823E-20 6.62006E-18
 -1        86 1.09376E-04-3.28047E-05-3.28674E-05-7.90345E-08 1.83894E-19 5.58901E-18
 -1        87 1.14206E-04-3.42430E-05-3.43119E-05-1.35004E-07-3.67114E-19 5.69325E-18
 -1        88 1.19554E-04-3.58356E-05-3.58837E-05-2.11774E-07-9.09370E-20 6.98876E-18
 -1        89 1.24845E-04-3.74180E-05-3.73879E-05-2.92976E-07 6.68858E-20 5.63564E-18
 -1        90 1.28911E-04-3.86540E-05-3.84566E-05-3.26460E-07 7.24147E-20 5.07577E-18
 -1        91 1.29904E-04-3.90053E-05-3.85617E-05-2.10131E-07 1.71913E-19 5.24030E-18
 -1        92 1.25722E-04-3.78324E-05-3.71896E-05 1.70228E-07-2.20741E-19 5.86112E-18
 -1        93 1.15362E-04-3.47720E-05-3.42388E-05 7.90747E-07-5.76264E-20 6.86605E-18
 -1        94 1.00988E-04-3.03814E-05-3.04539E-05 1.30309E-06-2.62779E-20 5.49449E-18
 -1        95 8.86791E-05-2.64834E-05-2.74018E-05 1.17377E-06-8.39224E-20 5.39348E-18
 -1        96 8.53499E-05-2.53344E-05-2.66141E-05 2.81006E-07 7.39976E-19 5.05092E-18
 -1        97 9.31068E-05-2.77085E-05-2.85312E-05-7.51826E-07-8.77212E-19 4.85429E-18
 -1        98 1.07281E-04-3.21254E-05-3.21466E-05-1.21199E-06 2.00992E-19 5.69900E-18
 -1        99 1.20621E-04-3.62547E-05-3.57424E-05-1.01167E-06-7.84498E-21 3.47389E-18
 -1       100 1.28518E-04-3.86563E-05-3.80573E-05-5.38517E-07 3.09696E-21 2.79616E-18
 -1       101 1.30377E-04-3.91879E-05-3.87636E-05-1.31770E-07 3.75262E-19-5.17130E-19
 -1       102 1.27918E-04-3.84119E-05-3.82079E-05 1.00755E-07-4.91217E-20-3.56065E-19
 -1       103 1.23262E-04-3.69890E-05-3.69412E-05 1.89198E-07-1.62260E-19 1.18460E-18
 -1       104 1.17997E-04-3.53975E-05-3.54298E-05 1.96338E-07-2.74314E-20 2.90956E-18
 -1       105 1.13027E-04-3.39034E-05-3.39640E-05 1.69086E-07 1.18395E-19 4.87395E-19
 -1       106 1.08750E-04-3.26210E-05-3.26832E-05 1.33065E-07 1.11198E-20-3.07182E-19
 -1       107 1.05264E-04-3.15771E-05-3.16304E-05 9.95009E-08 1.95143E-19-3.48687E-18
 -1       108 1.02523E-04-3.07563E-05-3.07982E-05 7.20201E-08 8.41059E-20-5.16268E-18
 -1       109 1.00420E-04-3.01265E-05-3.01582E-05 5.09007E-08 3.91513E-19-3.91626E-18
 -1       110 9.88394E-05-2.96528E-05-2.96761E-05 3.52317E-08-1.08050E-19-5.67621E-18
 -1       111 9.76712E-05-2.93026E-05-2.93194E-05 2.38575E-08-2.03426E-19-4.75594E-18
 -1       112 9.68231E-05-2.90482E-05-2.90602E-05 1.57307E-08-7.81272E-19-2.41403E-18
 -1       113 9.62194E-05-2.88670E-05-2.88755E-05 1.00043E-08 9.41639E-20 1.49713E-18
 -1       114 9.58002E-05-2.87411E-05-2.87470E-05 6.02523E-09 3.72374E-20 8.59581E-19
 -1       115 9.55189E-05-2.86565E-05-2.86607E-05 3.29153E-09-2.04247E-19-9.21394E-19
 -1       116 9.53401E-05-2.86027E-05-2.86058E-05 1.40032E-09 9.11891E-19 6.54361E-19
 -1       117 9.52379E-05-2.85718E-05-2.85743E-05-1.75775E-11-1.02062E-19-5.40153E-18
 -1       118 9.51934E-05-2.85581E-05-2.85604E-05-1.38473E-09 5.61695E-19-7.73692E-18
 -1       119 9.51926E-05-2.85576E-05-2.85590E-05-3.61026E-09-8.07081E-19-8.91970E-18
 -1       120 9.52190E-05-2.85658E-05-2.85635E-05-6.42347E-09 9.86513E-19-4.75933E-18
 -1       121 9.52424E-05-2.85896E-05-2.85640E-05-7.79379E-09-3.84980E-18 1.05220E-18
 -1       122 9.52494E-05-2.86122E-05-2.85608E-05-4.26503E-09-1.22529E-18-1.20371E-18
 -1       123 9.52465E-05-2.86023E-05-2.85644E-05-8.50918E-10 1.95397E-19-1.16754E-18
 -1       124 9.52335E-05-2.85590E-05-2.85766E-05 1.58265E-09-2.89516E-18-9.16243E-19
 -1       125 9.52142E-05-2.84941E-05-2.85948E-05 2.77319E-09 2.38811E-19-2.70140E-19
 -1       126 9.51939E-05-2.84254E-05-2.86144E-05 2.88899E-09-3.15200E-18-4.25705E-19
 -1       127 9.51766E-05-2.83672E-05-2.86310E-05 2.14668E-09-3.59035E-18 8.17593E-19
 -1       128 9.51667E-05-2.83337E-05-2.86406E-05 8.56295E-10-3.48467E-18-2.73733E-19
 -1       129 9.51662E-05-2.83322E-05-2.86411E-05-6.22910E-10-1.35863E-19 1.94383E-18
 -1       130 9.51752E-05-2.83626E-05-2.86324E-05-1.92371E-09-1.64015E-18-1.75394E-18
 -1       131 9.51917E-05-2.84182E-05-2.86165E-05-2.71881E-09-1.02919E-17-8.83284E-19
 -1       132 9.52115E-05-2.84851E-05-2.85974E-05-2.67465E-09-1.02437E-17 3.10509E-18
 -1       133 9.52307E-05-2.85497E-05-2.85792E-05-1.61318E-09-6.32827E-18-2.07699E-19
 -1       134 9.52441E-05-2.85946E-05-2.85666E-05 4.27371E-10-3.56169E-18 1.31166E-18
 -1       135 9.52483E-05-2.86076E-05-2.85621E-05 5.35425E-09-2.26804E-18-4.31317E-19
 -1       136 9.52411E-05-2.85886E-05-2.85640E-05 1.07136E-08-3.05913E-18-8.31806E-20
 -1       137 2.78902E-05-9.29627E-05 1.66115E-05-2.44285E-05 1.25238E-17 3.20605E-18
 -1       138 9.55110E-06-4.43972E-05 5.94538E-06-2.38326E-05 1.38968E-17 5.45669E-18
 -1       139 8.58684E-06 8.08460E-06-1.20553E-05 1.43065E-05 1.45571E-17 1.10906E-17
 -1       140 5.10449E-05 2.69597E-05-3.31463E-05 7.16118E-05 1.11520E-17 1.25890E-17
 -1       141 1.40897E-04-6.58654E-07-5.41845E-05 1.12191E-04 3.43747E-18 5.11523E-18
 -1       142 2.50142E-04-5.75588E-05-7.15247E-05 9.78108E-05-1.38808E-18-4.05517E-18
 -1       143 3.13946E-04-9.56951E-05-8.00227E-05 3.12774E-05-5.07902E-19-1.12536E-17
 -1       144 3.04977E-04-9.02193E-05-7.88830E-05-5.09800E-05 3.06177E-18-1.89973E-17
 -1       145 2.29555E-04-4.59305E-05-6.86002E-05-1.06407E-04 8.77516E-18-2.45254E-17
 -1       146 1.26541E-04 5.04884E-06-5.13177E-05-1.08133E-04 1.51166E-17-2.49743E-17
 -1       147 4.27298E-05 2.52573E-05-2.96454E-05-6.21653E-05 1.89807E-17-1.92895E-17
 -1       148 7.77533E-06 2.81322E-06-9.90185E-06-9.07515E-06 1.82730E-17-1.20884E-17
 -1       149 1.22539E-05-5.27927E-05 7.98852E-06 2.44827E-05 1.07518E-17-5.30306E-18
 -1       150 3.08009E-05-1.00591E-04 1.83529E-05 1.99630E-05-2.82422E-18-7.57449E-20
 -1       151 3.53899E-05-1.09034E-04 1.97795E-05-7.24938E-06-1.13206E-17-3.12343E-19
 -1       152 2.06143E-05-7.37829E-05 1.27055E-05-2.42300E-05-1.80410E-17-5.22736E-18
 -1       153 5.67048E-06-1.86469E-05-1.21635E-06-9.50424E-06-2.44200E-17-1.34217E-17
 -1       154 1.70991E-05 2.23368E-05-1.93207E-05 3.55633E-05-2.18767E-17-1.69987E-17
 -1       155 1.54904E-04-7.02776E-06-5.66762E-05 1.13873E-04-8.05698E-18-1.43932E-17
 -1       156 2.45004E-04-5.67693E-05-7.04529E-05 9.49005E-05-2.55926E-18-6.85292E-18
 -1       157 3.01081E-04-9.12599E-05-7.77773E-05 3.17225E-05-3.79894E-19 1.61444E-18
 -1       158 2.93412E-04-8.62606E-05-7.68505E-05-4.79676E-05-1.34869E-18 1.10485E-17
 -1       159 2.23962E-04-4.45313E-05-6.73973E-05-1.03709E-04-7.31551E-18 1.68543E-17
 -1       160 1.30170E-04 4.51161E-06-5.21505E-05-1.10497E-04-1.20194E-17 2.12652E-17
 -1       161 5.05724E-05 2.89025E-05-3.31914E-05-7.32374E-05-9.69429E-18 1.11461E-17
 -1       162 8.23995E-06 1.01231E-05-1.20307E-05-1.60715E-05-6.69918E-18 4.01388E-18
 -1       163 9.30542E-06-3.90973E-05 4.59397E-06 1.98608E-05-6.50691E-18 2.26338E-18
 -1       164 2.68377E-05-8.87216E-05 1.57217E-05 2.24606E-05-2.92735E-18 1.03563E-18
 -1       165 9.47874E-05-1.23637E-05-3.55256E-05-2.21665E-05-2.94924E-18-1.72612E-18
 -1       166 8.92733E-05-8.47710E-06-3.47873E-05-1.71908E-05-2.38274E-18-4.31551E-18
 -1       167 8.66184E-05-6.50778E-06-3.44440E-05-1.33711E-05-1.59311E-18-5.46663E-18
 -1       168 8.52632E-05-5.48397E-06-3.42743E-05-1.01662E-05-8.93578E-19-5.93037E-18
 -1       169 8.45073E-05-4.88309E-06-3.41926E-05-7.36809E-06-3.11321E-19-5.96612E-18
 -1       170 8.40577E-05-4.50778E-06-3.41533E-05-4.77111E-06 1.89527E-19-5.79617E-18
 -1       171 8.38216E-05-4.30329E-06-3.41361E-05-2.32543E-06 7.39181E-19-5.47776E-18
 -1       172 8.37514E-05-4.24054E-06-3.41319E-05 4.97624E-08 1.16097E-18-5.22173E-18
 -1       173 8.38343E-05-4.31199E-06-3.41380E-05 2.42709E-06 1.54541E-18-4.85654E-18
 -1       174 8.40847E-05-4.52757E-06-3.41568E-05 4.87967E-06 2.02314E-18-4.38191E-18
 -1       175 8.45411E-05-4.91015E-06-3.41962E-05 7.44309E-06 2.40109E-18-3.68880E-18
 -1       176 8.53328E-05-5.54670E-06-3.42780E-05 1.03058E-05 2.89375E-18-2.64850E-18
 -1       177 8.67212E-05-6.61190E-06-3.44477E-05 1.35714E-05 3.28663E-18-1.12475E-18
 -1       178 8.94166E-05-8.62157E-06-3.47920E-05 1.74237E-05 3.38023E-18 1.41859E-18
 -1       179 9.56866E-05-1.36227E-05-3.53802E-05 2.17184E-05 2.83523E-18 5.74762E-18
 -1       180 1.05364E-04-2.60474E-05-3.51788E-05 1.85332E-05 1.79924E-18 1.12463E-17
 -1       181 1.03231E-04-2.72629E-05-3.25550E-05-1.19976E-05-2.64782E-18 1.89526E-18
 -1       182 9.70358E-05-2.82665E-05-2.95071E-05-4.60449E-06-2.34652E-18 7.88429E-19
 -1       183 9.35521E-05-2.76424E-05-2.81984E-05-1.62119E-06-1.73245E-18-2.68265E-19
 -1       184 9.21640E-05-2.74477E-05-2.76993E-05-2.27531E-07-1.27225E-18-1.18711E-18
 -1       185 9.17862E-05-2.74253E-05-2.75639E-05 5.11590E-07-7.76167E-19-1.80306E-18
 -1       186 9.20121E-05-2.75368E-05-2.76222E-05 9.39387E-07-7.18430E-19-2.19281E-18
 -1       187 9.26143E-05-2.77382E-05-2.77982E-05 1.21132E-06-7.81210E-19-2.70059E-18
 -1       188 9.34710E-05-2.80030E-05-2.80539E-05 1.40915E-06-7.02484E-19-3.06469E-18
 -1       189 9.45188E-05-2.83175E-05-2.83691E-05 1.57871E-06-6.83570E-19-3.27909E-18
 -1       190 9.57270E-05-2.86770E-05-2.87335E-05 1.74384E-06-4.27397E-19-3.41446E-18
 -1       191 9.70807E-05-2.90813E-05-2.91411E-05 1.91031E-06-4.35700E-19-3.94208E-18
 -1       192 9.85657E-05-2.95313E-05-2.95856E-05 2.06518E-06-1.12022E-19-4.42937E-18
 -1       193 1.00154E-04-3.00253E-05-3.00561E-05 2.17374E-06 2.17915E-19-4.51306E-18
 -1       194 1.01789E-04-3.05537E-05-3.05324E-05 2.17585E-06-5.28409E-20-4.22988E-18
 -1       195 1.03368E-04-3.10932E-05-3.09802E-05 1.98493E-06-4.17217E-19-3.56804E-18
 -1       196 1.04727E-04-3.15991E-05-3.13486E-05 1.49530E-06-4.41915E-19-3.57128E-18
 -1       197 1.05641E-04-3.19972E-05-3.15716E-05 6.07309E-07-5.91260E-19-3.72697E-18
 -1       198 1.05836E-04-3.21800E-05-3.15774E-05-7.20152E-07-7.36546E-19-4.14109E-18
 -1       199 1.05052E-04-3.20161E-05-3.13095E-05-2.38875E-06-5.00681E-19-4.16755E-18
 -1       200 1.03147E-04-3.13896E-05-3.07569E-05-4.07938E-06-1.48672E-19-4.56675E-18
 -1       201 1.00249E-04-3.02801E-05-2.99846E-05-5.24224E-06 4.46929E-19-3.86734E-18
 -1       202 9.68794E-05-2.88608E-05-2.91435E-05-5.25333E-06-4.44883E-20-4.01227E-18
 -1       203 9.39225E-05-2.75331E-05-2.84421E-05-3.75603E-06-3.43396E-19-3.89518E-18
 -1       204 9.23398E-05-2.67952E-05-2.80790E-05-1.00616E-06-4.16337E-20-4.13851E-18
 -1       205 9.27102E-05-2.69666E-05-2.81645E-05 2.10541E-06-2.45113E-19-3.89955E-18
 -1       206 9.49014E-05-2.79728E-05-2.86740E-05 4.48828E-06 1.13681E-18-3.26275E-18
 -1       207 9.81488E-05-2.93977E-05-2.94589E-05 5.44941E-06 6.28309E-19-3.61686E-18
 -1       208 1.01473E-04-3.07511E-05-3.03092E-05 4.97828E-06 1.07575E-18-3.20573E-18
 -1       209 1.04104E-04-3.17096E-05-3.10318E-05 3.57412E-06-8.59209E-19-2.61120E-18
 -1       210 1.05675E-04-3.21803E-05-3.15072E-05 1.86620E-06-1.35952E-18-2.32910E-18
 -1       211 1.06177E-04-3.22305E-05-3.17014E-05 3.30253E-07 7.85448E-19-2.26117E-18
 -1       212 1.05813E-04-3.19905E-05-3.16473E-05-7.99755E-07 1.52648E-18-3.50386E-18
 -1       213 1.04866E-04-3.15872E-05-3.14116E-05-1.48501E-06-5.58340E-19-2.94068E-18
 -1       214 1.03600E-04-3.11182E-05-3.10675E-05-1.79489E-06 1.45219E-19-2.88042E-18
 -1       215 1.02226E-04-3.06481E-05-3.06776E-05-1.83554E-06-3.38576E-19-4.04597E-18
 -1       216 1.00888E-04-3.02146E-05-3.02882E-05-1.70854E-06-2.34420E-19-4.67819E-18
 -1       217 9.96730E-05-2.98364E-05-2.99284E-05-1.49391E-06-2.07054E-19-5.42307E-18
 -1       218 9.86234E-05-2.95196E-05-2.96137E-05-1.24728E-06 1.11305E-19-3.87635E-18
 -1       219 9.77516E-05-2.92629E-05-2.93499E-05-1.00346E-06 5.52064E-19-2.77000E-18
 -1       220 9.70507E-05-2.90607E-05-2.91363E-05-7.81741E-07-9.85694E-19-2.17400E-18
 -1       221 9.65035E-05-2.89056E-05-2.89685E-05-5.90842E-07-7.17048E-19-3.17324E-18
 -1       222 9.60882E-05-2.87898E-05-2.88404E-05-4.32791E-07 1.06947E-18-2.94027E-18
 -1       223 9.57822E-05-2.87058E-05-2.87456E-05-3.05717E-07 1.44180E-18-1.22971E-18
 -1       224 9.55643E-05-2.86469E-05-2.86777E-05-2.05708E-07 1.61466E-18-1.18939E-18
 -1       225 9.54160E-05-2.86075E-05-2.86313E-05-1.28037E-07 9.87825E-19 5.34255E-20
 -1       226 9.53214E-05-2.85829E-05-2.86016E-05-6.80310E-08-2.65778E-19-1.02507E-18
 -1       227 9.52675E-05-2.85700E-05-2.85842E-05-2.23370E-08 2.29168E-18-1.63530E-18
 -1       228 9.52420E-05-2.85667E-05-2.85748E-05 9.16966E-09 4.54506E-19-4.42336E-19
 -1       229 9.93419E-05-2.85101E-05-3.05369E-05 7.10809E-06 2.04773E-18 9.79339E-18
 -1       230 9.43621E-05-2.77720E-05-2.85087E-05 2.63806E-06 1.61604E-18 8.16804E-18
 -1       231 9.21702E-05-2.74156E-05-2.77064E-05 7.97083E-07 1.21655E-18 6.70806E-18
 -1       232 9.13926E-05-2.72989E-05-2.74410E-05-1.15231E-07 9.38428E-19 5.76275E-18
 -1       233 9.14174E-05-2.73565E-05-2.74402E-05-6.19935E-07 5.55250E-19 4.83593E-18
 -1       234 9.19302E-05-2.75333E-05-2.75906E-05-9.29686E-07 4.79283E-19 4.03331E-18
 -1       235 9.27690E-05-2.77931E-05-2.78417E-05-1.15155E-06 5.82715E-19 3.48527E-18
 -1       236 9.38601E-05-2.81184E-05-2.81712E-05-1.34938E-06 4.39997E-19 3.05754E-18
 -1       237 9.51854E-05-2.85060E-05-2.85736E-05-1.56714E-06 5.67405E-19 2.46854E-18
 -1       238 9.67647E-05-2.89632E-05-2.90549E-05-1.83805E-06 3.20789E-19 2.47680E-18
 -1       239 9.86453E-05-2.95057E-05-2.96287E-05-2.18737E-06 3.86039E-19 2.39189E-18
 -1       240 1.00891E-04-3.01548E-05-3.03138E-05-2.63058E-06-3.41527E-19 2.21441E-18
 -1       241 1.03569E-04-3.09356E-05-3.11285E-05-3.16589E-06 1.20055E-19 2.04850E-18
 -1       242 1.06727E-04-3.18723E-05-3.20830E-05-3.75805E-06 2.85218E-19 2.28110E-18
 -1       243 1.10355E-04-3.29810E-05-3.31656E-05-4.30947E-06-3.13922E-19 2.86621E-18
 -1       244 1.14319E-04-3.42555E-05-3.43214E-05-4.61728E-06-3.73019E-19 2.42226E-18
 -1       245 1.18284E-04-3.56400E-05-3.54260E-05-4.32838E-06 8.76413E-19 2.76345E-18
 -1       246 1.21608E-04-3.69790E-05-3.62669E-05-2.94252E-06 2.25159E-20 2.67478E-18
 -1       247 1.23314E-04-3.79399E-05-3.65663E-05 1.81826E-08-3.32341E-19 3.23333E-18
 -1       248 1.22254E-04-3.79520E-05-3.60890E-05 4.51424E-06-9.79064E-19 3.81860E-18
 -1       249 1.17698E-04-3.63481E-05-3.48358E-05 9.20575E-06-2.35273E-19 4.98519E-18
 -1       250 1.10441E-04-3.30457E-05-3.32063E-05 1.11902E-05 1.06847E-18 5.20916E-18
 -1       251 1.03555E-04-2.94101E-05-3.19058E-05 7.71740E-06 6.73682E-19 2.32208E-18
 -1       252 1.01193E-04-2.79792E-05-3.15310E-05-4.49232E-07 2.81427E-19 8.86863E-19
 -1       253 1.05040E-04-2.99562E-05-3.22598E-05-8.32096E-06-9.54765E-20 9.83074E-19
 -1       254 1.12544E-04-3.37573E-05-3.37589E-05-1.12332E-05-6.04273E-19 1.22695E-18
 -1       255 1.19467E-04-3.68878E-05-3.53465E-05-8.86495E-06 1.23411E-18 1.87972E-18
 -1       256 1.23217E-04-3.81963E-05-3.64041E-05-4.11624E-06 5.88211E-19 6.24670E-19
 -1       257 1.23529E-04-3.79595E-05-3.66653E-05 2.39083E-07 1.25185E-18-5.70937E-20
 -1       258 1.21360E-04-3.68770E-05-3.62174E-05 3.02017E-06-2.81033E-19-8.28398E-19
 -1       259 1.17879E-04-3.55059E-05-3.53174E-05 4.25759E-06-9.98716E-19-4.28450E-19
 -1       260 1.13990E-04-3.41510E-05-3.42278E-05 4.44231E-06 1.81313E-19-1.19915E-18
 -1       261 1.10251E-04-3.29449E-05-3.31369E-05 4.06041E-06 1.10767E-18-9.42059E-19
 -1       262 1.06943E-04-3.19295E-05-3.21500E-05 3.44818E-06 2.44062E-19-1.37646E-18
 -1       263 1.04165E-04-3.11036E-05-3.13107E-05 2.79725E-06 1.12092E-18-2.01424E-18
 -1       264 1.01914E-04-3.04480E-05-3.06256E-05 2.19991E-06 3.91472E-19-1.63225E-18
 -1       265 1.00137E-04-2.99374E-05-3.00824E-05 1.69089E-06-3.04193E-19-1.66032E-18
 -1       266 9.87629E-05-2.95464E-05-2.96612E-05 1.27546E-06 1.06462E-18-2.00637E-18
 -1       267 9.77192E-05-2.92515E-05-2.93406E-05 9.45691E-07-8.78546E-19-2.38417E-18
 -1       268 9.69399E-05-2.90327E-05-2.91008E-05 6.88946E-07-1.77184E-18-9.73703E-19
 -1       269 9.63683E-05-2.88732E-05-2.89246E-05 4.91976E-07-9.61096E-19-8.26592E-19
 -1       270 9.59574E-05-2.87593E-05-2.87977E-05 3.42621E-07 9.30204E-19-9.18718E-19
 -1       271 9.56697E-05-2.86801E-05-2.87087E-05 2.30372E-07 1.15369E-18-1.27408E-18
 -1       272 9.54752E-05-2.86270E-05-2.86484E-05 1.46420E-07 6.07656E-19-3.47454E-18
 -1       273 9.53510E-05-2.85935E-05-2.86097E-05 8.35470E-08 1.69775E-18-2.25361E-18
 -1       274 9.52789E-05-2.85746E-05-2.85872E-05 3.64035E-08 4.10061E-19-2.12174E-18
 -1       275 9.52447E-05-2.85667E-05-2.85759E-05 1.60771E-09-2.05020E-19-1.21055E-18
 -1       276 9.52360E-05-2.85703E-05-2.85702E-05-1.74590E-08-1.33828E-18-1.70581E-18
 -1       277 9.52432E-05-2.85695E-05-2.85741E-05-9.14438E-09-5.18048E-19 2.09281E-18
 -1       278 9.52409E-05-2.85497E-05-2.85818E-05 2.00971E-08 9.41192E-19-1.16485E-19
 -1       279 9.52269E-05-2.85102E-05-2.85929E-05 5.11902E-08 3.75074E-19-2.19842E-18
 -1       280 9.52064E-05-2.84566E-05-2.86071E-05 7.05957E-08-6.29773E-19 2.21839E-19
 -1       281 9.51843E-05-2.83990E-05-2.86224E-05 7.37892E-08-1.65881E-18-1.84157E-18
 -1       282 9.51642E-05-2.83464E-05-2.86364E-05 6.06484E-08 1.69828E-19-1.06227E-18
 -1       283 9.51504E-05-2.83101E-05-2.86461E-05 3.45305E-08-1.24766E-18 8.55922E-19
 -1       284 9.51454E-05-2.82968E-05-2.86497E-05 1.34110E-09-2.39057E-19 7.06035E-19
 -1       285 9.51500E-05-2.83089E-05-2.86464E-05-3.19135E-08-1.65397E-18-5.83495E-19
 -1       286 9.51634E-05-2.83441E-05-2.86370E-05-5.83132E-08-1.28735E-18-4.70110E-18
 -1       287 9.51826E-05-2.83946E-05-2.86235E-05-7.20485E-08-1.33676E-18-4.97874E-19
 -1       288 9.52048E-05-2.84524E-05-2.86081E-05-7.02092E-08-1.88416E-18 1.88390E-18
 -1       289 9.52252E-05-2.85062E-05-2.85939E-05-5.21676E-08-6.41258E-19 1.91483E-18
 -1       290 9.52388E-05-2.85451E-05-2.85828E-05-2.37369E-08-3.36228E-19 4.37210E-20
 -1       291 9.52468E-05-2.85578E-05-2.85808E-05-5.19326E-09 4.08032E-19-1.73920E-18
 -1       292 1.24169E-05-4.96779E-05 1.23827E-05 4.23296E-06 3.49406E-18 3.23948E-18
 -1       293 2.36709E-05-4.51343E-05 6.08144E-06 1.72410E-05 4.26333E-18 2.04828E-18
 -1       294 4.98613E-05-3.91874E-05-6.60506E-06 3.19657E-05 4.57377E-18 3.79248E-18
 -1       295 8.60280E-05-3.30027E-05-2.35088E-05 4.20362E-05 4.36201E-18 1.96469E-18
 -1       296 1.32308E-04-3.22782E-05-4.19567E-05 4.62372E-05 4.68695E-18-1.29363E-18
 -1       297 1.78716E-04-3.51829E-05-5.88609E-05 3.88441E-05 3.23309E-18-3.51625E-18
 -1       298 2.02986E-04-3.44759E-05-6.90394E-05 1.57613E-05 2.80421E-18-5.45045E-18
 -1       299 2.18627E-04-3.87846E-05-7.30124E-05-2.95698E-06 3.55129E-18-7.89345E-18
 -1       300 2.01461E-04-3.57738E-05-6.76892E-05-2.22134E-05 5.41254E-18-8.48833E-18
 -1       301 1.70764E-04-3.46167E-05-5.61190E-05-3.95983E-05 6.82587E-18-1.02845E-17
 -1       302 1.33380E-04-4.20120E-05-3.87161E-05-3.74546E-05 5.10719E-18-9.16490E-18
 -1       303 8.11961E-05-3.41810E-05-2.10753E-05-4.11835E-05 7.26860E-18-9.02027E-18
 -1       304 4.83401E-05-4.09645E-05-5.05875E-06-3.22955E-05 4.16888E-18-8.02320E-18
 -1       305 2.12708E-05-4.21752E-05 6.60079E-06-1.93079E-05-2.85874E-21-7.83675E-18
 -1       306 1.07987E-05-4.72706E-05 1.24684E-05-1.51140E-06-2.41738E-18-3.97830E-18
 -1       307 1.46875E-05-4.38594E-05 9.73790E-06 1.41837E-05-4.94350E-18-4.75196E-18
 -1       308 3.26231E-05-4.06394E-05 1.07255E-06 2.68624E-05-6.74895E-18-7.00769E-18
 -1       309 5.91622E-05-3.30701E-05-1.26205E-05 3.76291E-05-9.43722E-18-5.94564E-18
 -1       310 9.58095E-05-2.86294E-05-2.88468E-05 4.65896E-05-9.48592E-18-6.75022E-18
 -1       311 1.36888E-04-2.83503E-05-4.51684E-05 4.82008E-05-8.52750E-18-6.14946E-18
 -1       312 1.75766E-04-3.16663E-05-5.92024E-05 3.97349E-05-6.46189E-18-3.40571E-18
 -1       313 1.99438E-04-3.34870E-05-6.80278E-05 1.94073E-05-4.88283E-18-1.49597E-18
 -1       314 2.06750E-04-3.38898E-05-7.07964E-05-2.25158E-06-4.75545E-18 7.24610E-19
 -1       315 1.91881E-04-3.17005E-05-6.59450E-05-2.17121E-05-4.08789E-18 3.62329E-18
 -1       316 1.66500E-04-3.07047E-05-5.59215E-05-4.28342E-05-5.32347E-18 5.03053E-18
 -1       317 1.25812E-04-2.80896E-05-4.09424E-05-4.84046E-05-1.74870E-18 8.23909E-18
 -1       318 8.74808E-05-3.36156E-05-2.35245E-05-4.39847E-05-1.83256E-18 6.09970E-18
 -1       319 4.72966E-05-3.56219E-05-6.89049E-06-3.33336E-05-2.27386E-18 1.89238E-18
 -1       320 2.44376E-05-4.33466E-05 5.19410E-06-2.06625E-05-5.76406E-19 2.18545E-18
 -1       321 1.28097E-05-4.89038E-05 1.19845E-05-8.11245E-06 7.61165E-19 4.72496E-18
 -1       322 9.17025E-05-1.43823E-05-3.32003E-05-1.28091E-05-2.41246E-18-3.64398E-18
 -1       323 9.57077E-05-1.91159E-05-3.28874E-05-1.44107E-05-2.97899E-18-2.27244E-18
 -1       324 8.80356E-05-1.02615E-05-3.33845E-05-7.90971E-06-7.97702E-19-4.68591E-18
 -1       325 8.71765E-05-9.28024E-06-3.34314E-05-5.51926E-06-1.48309E-19-4.64438E-18
 -1       326 8.66792E-05-8.70545E-06-3.34613E-05-3.23866E-06 5.39809E-19-4.39688E-18
 -1       327 8.64529E-05-8.44087E-06-3.34762E-05-1.02909E-06 1.13270E-18-4.15447E-18
 -1       328 8.64630E-05-8.45040E-06-3.34765E-05 1.15664E-06 1.66118E-18-3.95153E-18
 -1       329 8.67112E-05-8.73649E-06-3.34620E-05 3.36819E-06 2.10089E-18-3.54500E-18
 -1       330 8.72227E-05-9.32564E-06-3.34324E-05 5.61456E-06 2.66531E-18-2.98413E-18
 -1       331 8.81049E-05-1.03355E-05-3.33846E-05 8.00714E-06 3.20077E-18-2.16381E-18
 -1       332 8.95487E-05-1.19781E-05-3.33108E-05 1.04975E-05 3.60710E-18-1.08152E-18
 -1       333 9.19631E-05-1.47130E-05-3.31878E-05 1.29129E-05 3.73841E-18 4.34389E-19
 -1       334 9.57993E-05-1.94595E-05-3.28241E-05 1.41607E-05 3.39573E-18 3.30031E-18
 -1       335 9.87176E-05-2.44301E-05-3.19247E-05 1.17291E-05 2.86292E-18 5.88752E-18
 -1       336 9.63953E-05-2.68021E-05-2.97956E-05 5.55279E-06 2.39025E-18 4.70153E-18
 -1       337 9.64882E-05-2.60138E-05-3.01591E-05-6.09523E-06-2.44869E-18-1.53479E-18
 -1       338 9.50814E-05-2.70322E-05-2.91393E-05-2.51287E-06-1.92230E-18-1.56855E-18
 -1       339 9.42318E-05-2.74304E-05-2.86140E-05-4.84012E-07-1.31305E-18-1.64712E-18
 -1       340 9.38937E-05-2.76678E-05-2.83747E-05 7.31322E-07-9.94737E-19-1.94934E-18
 -1       341 9.39422E-05-2.78591E-05-2.83171E-05 1.50272E-06-9.48817E-19-2.00064E-18
 -1       342 9.42743E-05-2.80467E-05-2.83806E-05 2.03191E-06-7.54661E-19-2.07460E-18
 -1       343 9.48199E-05-2.82470E-05-2.85292E-05 2.43715E-06-7.59436E-19-1.91050E-18
 -1       344 9.55363E-05-2.84711E-05-2.87405E-05 2.78703E-06-6.56407E-19-1.96313E-18
 -1       345 9.64008E-05-2.87318E-05-2.89995E-05 3.11439E-06-8.02161E-19-2.32451E-18
 -1       346 9.74018E-05-2.90458E-05-2.92943E-05 3.42039E-06-7.20621E-19-2.46564E-18
 -1       347 9.85320E-05-2.94340E-05-2.96131E-05 3.67307E-06-1.97081E-19-2.43919E-18
 -1       348 9.97797E-05-2.99198E-05-2.99409E-05 3.80331E-06 2.51420E-19-2.39523E-18
 -1       349 1.01120E-04-3.05239E-05-3.02585E-05 3.70167E-06 3.56131E-19-2.57403E-18
 -1       350 1.02502E-04-3.12524E-05-3.05413E-05 3.22195E-06-1.41285E-19-2.27704E-18
 -1       351 1.03832E-04-3.20741E-05-3.07626E-05 2.20158E-06-4.73254E-19-1.80683E-18
 -1       352 1.04955E-04-3.28858E-05-3.08989E-05 5.13364E-07-1.07184E-18-1.38597E-18
 -1       353 1.05636E-04-3.34749E-05-3.09393E-05-1.83792E-06-4.28734E-19-1.32394E-18
 -1       354 1.05580E-04-3.35172E-05-3.08949E-05-4.57983E-06-1.80049E-19-8.29824E-19
 -1       355 1.04532E-04-3.26735E-05-3.08007E-05-7.05896E-06 5.35738E-19-8.60104E-19
 -1       356 1.02487E-04-3.08316E-05-3.07050E-05-8.28860E-06 5.71723E-19-8.06236E-19
 -1       357 9.99360E-05-2.84059E-05-3.06438E-05-7.32605E-06-1.56596E-19-8.08575E-19
 -1       358 9.78665E-05-2.63786E-05-3.06211E-05-3.93950E-06-5.10182E-19-8.42049E-19
 -1       359 9.72817E-05-2.57927E-05-3.06206E-05 9.18443E-07 1.59859E-19-1.25457E-18
 -1       360 9.84993E-05-2.69827E-05-3.06347E-05 5.43938E-06 4.89825E-19-1.54350E-18
 -1       361 1.00893E-04-2.92884E-05-3.06780E-05 8.01906E-06 5.49901E-19-2.89122E-18
 -1       362 1.03382E-04-3.15961E-05-3.07640E-05 8.14100E-06 1.03161E-18-3.29968E-18
 -1       363 1.05132E-04-3.31004E-05-3.08770E-05 6.37339E-06 7.68988E-19-3.40147E-18
 -1       364 1.05852E-04-3.36029E-05-3.09754E-05 3.74168E-06-1.03272E-19-2.06326E-18
 -1       365 1.05669E-04-3.33333E-05-3.10136E-05 1.13845E-06-7.83390E-19-2.74594E-19
 -1       366 1.04875E-04-3.26472E-05-3.09656E-05-9.24800E-07 4.13760E-19-1.18944E-18
 -1       367 1.03753E-04-3.18339E-05-3.08298E-05-2.28722E-06 6.45116E-19-1.74126E-18
 -1       368 1.02510E-04-3.10645E-05-3.06236E-05-3.00462E-06-5.39047E-19-1.99927E-18
 -1       369 1.01280E-04-3.04134E-05-3.03729E-05-3.22554E-06-1.32208E-18-2.38640E-18
 -1       370 1.00140E-04-2.98967E-05-3.01040E-05-3.11271E-06-4.75266E-19-2.18420E-18
 -1       371 9.91300E-05-2.95027E-05-2.98388E-05-2.80523E-06-7.69574E-19-1.77682E-18
 -1       372 9.82641E-05-2.92103E-05-2.95925E-05-2.40673E-06 9.86501E-19-1.46700E-18
 -1       373 9.75420E-05-2.89974E-05-2.93741E-05-1.98693E-06 1.99561E-18-1.34612E-18
 -1       374 9.69545E-05-2.88452E-05-2.91876E-05-1.58824E-06 9.12429E-19 5.44880E-19
 -1       375 9.64872E-05-2.87383E-05-2.90334E-05-1.23315E-06-1.24615E-18 2.33049E-18
 -1       376 9.61235E-05-2.86646E-05-2.89093E-05-9.30763E-07-4.07150E-19 1.12064E-18
 -1       377 9.58467E-05-2.86151E-05-2.88122E-05-6.81757E-07 2.17029E-18 8.14094E-19
 -1       378 9.56410E-05-2.85828E-05-2.87382E-05-4.81981E-07 2.22472E-18 8.49420E-19
 -1       379 9.54919E-05-2.85625E-05-2.86832E-05-3.24910E-07 1.65271E-18 8.71582E-19
 -1       380 9.53870E-05-2.85506E-05-2.86435E-05-2.03509E-07-1.35573E-18 1.04025E-18
 -1       381 9.53156E-05-2.85449E-05-2.86155E-05-1.11150E-07-7.76324E-19 7.09254E-19
 -1       382 9.52730E-05-2.85480E-05-2.85962E-05-4.76795E-08 1.68317E-18-8.05061E-19
 -1       383 9.44847E-05-2.73465E-05-2.87348E-05 2.22903E-06 1.87983E-18 3.88266E-18
 -1       384 9.34275E-05-2.74923E-05-2.82352E-05 4.16675E-07 1.43618E-18 3.08905E-18
 -1       385 9.30773E-05-2.76089E-05-2.80467E-05-6.34940E-07 9.86436E-19 2.40775E-18
 -1       386 9.32140E-05-2.77578E-05-2.80467E-05-1.29362E-06 7.91620E-19 1.91040E-18
 -1       387 9.36942E-05-2.79465E-05-2.81736E-05-1.75914E-06 8.41098E-19 1.37677E-18
 -1       388 9.44360E-05-2.81727E-05-2.83952E-05-2.15141E-06 5.61996E-19 9.96323E-19
 -1       389 9.54029E-05-2.84364E-05-2.86963E-05-2.55112E-06 7.63365E-19 8.27412E-19
 -1       390 9.65908E-05-2.87434E-05-2.90733E-05-3.01682E-06 2.57340E-19 1.05065E-18
 -1       391 9.80188E-05-2.91056E-05-2.95294E-05-3.59100E-06 4.74700E-19 1.00067E-18
 -1       392 9.97212E-05-2.95424E-05-3.00712E-05-4.29850E-06 6.64321E-20 1.00417E-18
 -1       393 1.01740E-04-3.00833E-05-3.07045E-05-5.13660E-06 4.52172E-19 5.31623E-19
 -1       394 1.04115E-04-3.07727E-05-3.14281E-05-6.05368E-06 1.41514E-20 5.74540E-19
 -1       395 1.06871E-04-3.16768E-05-3.22255E-05-6.91204E-06-4.32590E-19 9.32468E-19
 -1       396 1.10002E-04-3.28877E-05-3.30546E-05-7.43401E-06-1.17070E-19 8.48428E-19
 -1       397 1.13434E-04-3.45075E-05-3.38402E-05-7.14546E-06 7.36878E-19 6.36453E-19
 -1       398 1.16968E-04-3.65699E-05-3.44796E-05-5.37233E-06 3.27415E-19 9.69935E-19
 -1       399 1.20148E-04-3.88292E-05-3.48791E-05-1.42671E-06-5.21981E-19 1.27068E-18
 -1       400 1.22086E-04-4.04187E-05-3.50294E-05 4.80650E-06-8.41296E-19 2.32325E-18
 -1       401 1.21459E-04-3.97070E-05-3.50746E-05 1.18003E-05-8.83677E-19 2.54086E-18
 -1       402 1.17507E-04-3.54272E-05-3.52295E-05 1.55981E-05 1.46378E-18 2.04965E-18
 -1       403 1.11768E-04-2.89584E-05-3.55878E-05 1.17942E-05 1.96866E-18 1.52094E-18
 -1       404 1.08844E-04-2.55197E-05-3.58200E-05 4.76606E-07 7.99784E-19 5.23062E-19
 -1       405 1.11617E-04-2.85283E-05-3.56762E-05-1.12051E-05 1.76911E-19 2.37163E-19
 -1       406 1.17433E-04-3.49712E-05-3.53799E-05-1.57408E-05 1.58488E-21-9.00608E-19
 -1       407 1.21681E-04-3.96275E-05-3.52020E-05-1.23581E-05 6.81638E-19-1.53182E-18
 -1       408 1.22459E-04-4.05744E-05-3.51334E-05-5.42380E-06 8.68014E-19-9.14085E-19
 -1       409 1.20579E-04-3.90700E-05-3.49706E-05 9.40891E-07 1.62827E-18-2.04294E-19
 -1       410 1.17408E-04-3.67883E-05-3.45815E-05 5.03369E-06 3.99181E-19-3.20370E-19
 -1       411 1.13905E-04-3.46890E-05-3.39672E-05 6.88771E-06 1.35950E-19-2.42881E-18
 -1       412 1.10545E-04-3.30510E-05-3.32178E-05 7.19068E-06 3.40086E-19-4.42415E-18
 -1       413 1.07530E-04-3.18465E-05-3.24341E-05 6.63009E-06 2.29141E-20-2.57382E-18
 -1       414 1.04929E-04-3.09709E-05-3.16907E-05 5.69546E-06 2.99323E-19-1.47041E-18
 -1       415 1.02749E-04-3.03290E-05-3.10302E-05 4.67735E-06 1.02247E-18 7.09587E-21
 -1       416 1.00964E-04-2.98522E-05-3.04695E-05 3.72390E-06 4.51453E-19-2.11906E-19
 -1       417 9.95311E-05-2.94950E-05-3.00092E-05 2.89684E-06-3.61127E-19-1.24917E-18
 -1       418 9.84010E-05-2.92269E-05-2.96408E-05 2.21111E-06 8.21804E-19-6.74004E-19
 -1       419 9.75245E-05-2.90264E-05-2.93521E-05 1.65902E-06-7.44571E-19-3.74957E-19
 -1       420 9.68556E-05-2.88779E-05-2.91299E-05 1.22367E-06-2.02150E-18-3.95184E-19
 -1       421 9.63537E-05-2.87696E-05-2.89620E-05 8.85738E-07-7.82212E-19-4.99795E-19
 -1       422 9.59839E-05-2.86920E-05-2.88374E-05 6.26752E-07 1.30124E-18-1.15164E-18
 -1       423 9.57172E-05-2.86378E-05-2.87468E-05 4.30301E-07 2.09251E-18 7.31624E-19
 -1       424 9.55298E-05-2.86011E-05-2.86826E-05 2.82415E-07 1.90475E-18-8.95654E-19
 -1       425 9.54026E-05-2.85775E-05-2.86386E-05 1.71443E-07 7.68391E-19-1.80417E-18
 -1       426 9.53206E-05-2.85639E-05-2.86094E-05 8.91484E-08 3.08795E-19-5.26196E-19
 -1       427 9.52714E-05-2.85590E-05-2.85907E-05 2.97903E-08-2.46435E-18 2.20337E-18
 -1       428 9.52535E-05-2.85606E-05-2.85826E-05 6.22206E-09-1.49110E-18 4.55521E-18
 -1       429 9.52146E-05-2.84283E-05-2.86226E-05 1.27443E-07-3.93411E-19-2.36671E-18
 -1       430 9.52476E-05-2.84925E-05-2.86091E-05 8.99848E-08-1.64049E-18-1.03149E-18
 -1       431 9.52576E-05-2.85345E-05-2.85954E-05 4.47994E-08-2.24826E-18 4.06106E-19
 -1       432 9.51766E-05-2.83610E-05-2.86353E-05 1.41293E-07-1.82219E-18-3.56170E-18
 -1       433 9.51393E-05-2.82976E-05-2.86466E-05 1.27234E-07-6.98849E-19 1.10381E-18
 -1       434 9.51105E-05-2.82493E-05-2.86550E-05 8.82386E-08 8.79631E-19-1.41214E-18
 -1       435 9.50949E-05-2.82234E-05-2.86595E-05 3.23651E-08-4.57973E-19-2.43168E-19
 -1       436 9.50950E-05-2.82238E-05-2.86594E-05-2.94218E-08-1.03217E-18 5.10166E-20
 -1       437 9.51106E-05-2.82502E-05-2.86547E-05-8.52695E-08-1.87314E-18-2.47767E-18
 -1       438 9.51384E-05-2.82975E-05-2.86462E-05-1.24002E-07 7.07925E-19-1.76526E-18
 -1       439 9.51748E-05-2.83601E-05-2.86349E-05-1.39428E-07 1.40503E-18 1.24120E-18
 -1       440 9.52129E-05-2.84279E-05-2.86221E-05-1.27618E-07 6.56099E-19 1.94009E-18
 -1       441 9.52460E-05-2.84923E-05-2.86086E-05-9.15400E-08-3.19446E-19 1.19042E-18
 -1       442 5.17747E-05-4.00206E-05-5.30938E-06 3.93870E-05-3.35637E-19 2.10922E-18
 -1       443 1.14567E-05-2.31696E-05 4.74300E-06-2.41390E-06-1.27807E-18 4.95133E-18
 -1       444 2.25534E-05-2.72948E-05 1.81630E-06 2.34724E-05-1.65764E-18 1.30729E-18
 -1       445 9.38930E-05-5.25951E-05-1.79071E-05 4.06176E-05 7.15955E-19-5.92658E-20
 -1       446 1.30637E-04-5.53005E-05-3.23302E-05 2.87585E-05 2.67377E-18-3.26309E-18
 -1       447 8.94000E-05-1.18021E-05-3.33294E-05-1.04176E-05-1.59237E-18-4.36985E-18
 -1       448 1.61639E-04-2.94870E-05-5.65637E-05-3.81997E-06 3.32757E-18-3.51677E-18
 -1       449 1.64853E-04-1.60109E-05-6.33943E-05-1.74011E-06 3.43080E-18-2.19858E-18
 -1       450 1.67116E-04-1.80609E-05-6.33812E-05 1.85611E-06 4.09593E-18-2.35295E-18
 -1       451 1.59988E-04-3.28385E-05-5.45554E-05 3.78820E-06 4.03288E-18-1.68591E-18
 -1       452 1.53011E-04-4.92178E-05-4.46415E-05-5.10847E-06 2.43109E-18-2.18058E-18
 -1       453 1.22839E-04-5.68853E-05-2.84579E-05-3.11540E-05 1.11925E-18-4.37223E-18
 -1       454 9.07163E-05-5.25593E-05-1.64514E-05-4.12659E-05 4.31881E-19-4.79664E-18
 -1       455 5.30770E-05-3.77124E-05-6.37908E-06-4.03778E-05-7.80647E-19-7.86216E-18
 -1       456 1.72769E-05-2.52238E-05 3.16583E-06-1.68695E-05-5.36489E-19-6.69272E-18
 -1       457 1.31555E-05-2.15809E-05 3.49824E-06 9.26371E-06-8.97855E-19-4.44226E-18
 -1       458 3.28617E-05-3.11626E-05-8.97620E-07 3.47544E-05-9.33748E-19-5.09967E-18
 -1       459 6.67240E-05-4.39386E-05-9.97707E-06 4.44754E-05-1.54764E-18-3.94135E-18
 -1       460 1.02464E-04-5.11174E-05-2.21146E-05 4.08535E-05-3.74590E-18-2.51601E-18
 -1       461 1.33365E-04-5.02282E-05-3.55783E-05 2.72668E-05-5.30444E-18-1.19760E-18
 -1       462 1.51723E-04-3.92918E-05-4.80053E-05 1.23201E-05-5.86169E-18-9.53441E-19
 -1       463 1.58595E-04-2.47017E-05-5.72018E-05 2.26711E-06-5.83362E-18-1.40258E-18
 -1       464 1.53250E-04-1.15260E-05-6.08022E-05-1.54895E-06-5.66273E-18-1.06451E-18
 -1       465 1.54309E-04-1.31905E-05-6.04982E-05 1.85695E-06-4.75376E-18-1.41428E-18
 -1       466 1.54623E-04-2.85237E-05-5.40387E-05-1.31122E-06-2.24930E-18-1.53948E-18
 -1       467 1.48101E-04-4.24445E-05-4.51368E-05-1.69382E-05-2.74981E-19 4.52104E-19
 -1       468 1.28438E-04-5.27922E-05-3.23698E-05-2.96225E-05 1.22285E-18 3.19384E-18
 -1       469 8.80532E-05-4.90815E-05-1.68868E-05-4.37573E-05-1.97041E-19 3.97531E-18
 -1       470 5.24310E-05-3.91513E-05-5.88933E-06-4.23432E-05-1.59030E-19 9.35760E-19
 -1       471 2.39506E-05-2.65200E-05 1.00394E-06-2.79954E-05 4.71427E-19 4.52940E-18
 -1       472 1.56201E-04-4.61076E-05-4.69908E-05 1.17967E-05 3.79698E-18-4.38678E-18
 -1       473 1.44317E-04-6.06436E-05-3.59477E-05-9.00055E-06-2.77086E-19-1.93261E-18
 -1       474 9.59177E-05-2.51157E-05-3.03294E-05 5.69076E-06 2.63245E-18 1.50724E-18
 -1       475 8.94187E-05-1.30749E-05-3.27374E-05-3.70760E-06 2.18312E-19-4.03769E-18
 -1       476 9.01894E-05-1.41124E-05-3.26245E-05-5.59073E-06-4.48078E-19-4.13496E-18
 -1       477 8.88582E-05-1.23237E-05-3.28179E-05 5.39951E-08 1.25082E-18-3.68588E-18
 -1       478 8.90120E-05-1.25248E-05-3.27979E-05 1.92787E-06 1.76391E-18-3.44972E-18
 -1       479 8.94550E-05-1.31127E-05-3.27369E-05 3.77916E-06 2.26055E-18-2.89497E-18
 -1       480 9.02466E-05-1.41763E-05-3.26224E-05 5.65625E-06 2.78567E-18-2.29002E-18
 -1       481 9.14624E-05-1.58436E-05-3.24310E-05 7.44335E-06 3.13963E-18-1.44549E-18
 -1       482 9.32966E-05-1.83978E-05-3.21196E-05 8.95891E-06 3.33419E-18-4.24244E-19
 -1       483 9.52967E-05-2.65275E-05-2.94542E-05 2.43764E-06 2.06325E-18 1.07027E-18
 -1       484 9.55635E-05-2.43481E-05-3.05075E-05-5.43473E-06-1.99449E-18-2.41591E-18
 -1       485 1.45457E-04-5.84893E-05-3.74472E-05 4.70678E-06 3.12302E-18-3.14276E-18
 -1       486 9.54793E-05-2.61832E-05-2.96954E-05-2.38795E-06-1.50627E-18-2.03650E-18
 -1       487 9.51778E-05-2.70316E-05-2.92009E-05-3.41682E-07-1.27680E-18-1.90477E-18
 -1       488 9.50281E-05-2.75345E-05-2.89236E-05 1.02016E-06-9.89178E-19-1.84353E-18
 -1       489 9.50399E-05-2.78380E-05-2.87996E-05 1.95944E-06-7.68747E-19-1.76968E-18
 -1       490 9.52050E-05-2.80397E-05-2.87843E-05 2.65158E-06-7.01123E-19-1.84046E-18
 -1       491 9.55068E-05-2.81951E-05-2.88471E-05 3.21164E-06-7.60899E-19-1.75422E-18
 -1       492 9.59349E-05-2.83460E-05-2.89660E-05 3.70865E-06-9.70663E-19-1.86972E-18
 -1       493 9.64901E-05-2.85333E-05-2.91237E-05 4.17293E-06-9.74959E-19-1.62211E-18
 -1       494 9.71854E-05-2.88044E-05-2.93058E-05 4.59731E-06-4.32104E-19-1.33702E-18
 -1       495 9.80457E-05-2.92164E-05-2.94983E-05 4.93430E-06 1.30202E-19-7.68864E-19
 -1       496 9.91062E-05-2.98348E-05-2.96885E-05 5.09122E-06 3.45415E-20-7.00927E-19
 -1       497 1.00405E-04-3.07240E-05-2.98654E-05 4.92659E-06 3.60697E-21-1.08667E-18
 -1       498 1.01968E-04-3.19193E-05-3.00245E-05 4.25402E-06 8.56810E-20-5.52536E-19
 -1       499 1.03767E-04-3.33742E-05-3.01736E-05 2.86602E-06-1.08895E-18-7.98376E-19
 -1       500 1.05658E-04-3.48773E-05-3.03411E-05 5.99039E-07-6.81347E-19-7.44542E-19
 -1       501 1.07300E-04-3.59659E-05-3.05781E-05-2.53080E-06-3.70478E-19-4.41962E-19
 -1       502 1.08141E-04-3.59372E-05-3.09485E-05-6.11168E-06-5.05515E-20-4.70864E-19
 -1       503 1.07591E-04-3.41066E-05-3.14929E-05-9.13822E-06 5.71960E-19-6.71687E-19
 -1       504 1.05499E-04-3.04239E-05-3.21739E-05-1.00910E-05 5.24635E-20-9.93424E-19
 -1       505 1.02698E-04-2.61141E-05-3.28241E-05-7.68056E-06-4.34240E-19-1.08315E-18
 -1       506 1.00869E-04-2.34286E-05-3.31914E-05-2.11446E-06-5.49104E-19-8.79445E-19
 -1       507 1.01307E-04-2.40505E-05-3.31115E-05 4.42442E-06-4.63264E-19-2.75713E-18
 -1       508 1.03703E-04-2.75808E-05-3.26248E-05 9.03527E-06-3.46719E-19-3.12349E-18
 -1       509 1.06431E-04-3.18884E-05-3.19469E-05 1.01845E-05-8.60590E-20-3.23169E-18
 -1       510 1.08025E-04-3.49669E-05-3.13106E-05 8.34068E-06 9.31220E-19-4.54564E-18
 -1       511 1.08049E-04-3.60927E-05-3.08423E-05 5.00652E-06 1.21085E-18-3.77889E-18
 -1       512 1.06878E-04-3.56265E-05-3.05426E-05 1.56391E-06 7.10150E-19-2.54646E-18
 -1       513 1.05132E-04-3.43141E-05-3.03562E-05-1.20449E-06-2.93745E-19-8.88053E-19
 -1       514 1.03294E-04-3.27869E-05-3.02218E-05-3.05735E-06-1.92574E-19-1.57871E-18
 -1       515 1.01628E-04-3.14100E-05-3.00961E-05-4.06317E-06-5.92612E-19-2.51248E-18
 -1       516 1.00228E-04-3.03265E-05-2.99588E-05-4.41245E-06-8.14931E-19-1.72205E-18
 -1       517 9.90955E-05-2.95481E-05-2.98062E-05-4.31244E-06-1.22339E-19-4.70548E-19
 -1       518 9.81977E-05-2.90276E-05-2.96439E-05-3.94079E-06 2.44213E-19 8.02294E-19
 -1       519 9.74919E-05-2.87023E-05-2.94804E-05-3.43197E-06-4.94631E-19 1.48121E-18
 -1       520 9.69394E-05-2.85144E-05-2.93241E-05-2.87905E-06-2.06190E-19 6.70702E-19
 -1       521 9.65087E-05-2.84177E-05-2.91809E-05-2.34116E-06 2.03574E-18-1.21989E-18
 -1       522 9.61746E-05-2.83785E-05-2.90546E-05-1.85199E-06 1.79010E-18-3.15347E-19
 -1       523 9.59174E-05-2.83733E-05-2.89467E-05-1.42745E-06-5.11039E-19 3.64104E-18
 -1       524 9.57211E-05-2.83864E-05-2.88571E-05-1.07173E-06 1.64163E-19 3.55551E-18
 -1       525 9.55730E-05-2.84079E-05-2.87845E-05-7.81926E-07 1.88862E-18 2.16987E-18
 -1       526 9.54624E-05-2.84316E-05-2.87271E-05-5.51275E-07 8.33193E-19 1.22312E-18
 -1       527 9.53806E-05-2.84542E-05-2.86824E-05-3.71365E-07 1.17085E-19 1.02680E-18
 -1       528 9.53207E-05-2.84746E-05-2.86481E-05-2.34044E-07-9.55124E-19 1.94321E-18
 -1       529 9.46107E-05-2.76065E-05-2.87116E-05-9.49675E-07 1.33620E-18 1.73181E-19
 -1       530 9.46517E-05-2.78410E-05-2.86306E-05-1.86916E-06 1.14085E-18-2.34827E-19
 -1       531 9.49062E-05-2.80023E-05-2.86711E-05-2.57527E-06 8.40739E-19 1.97331E-20
 -1       532 9.53370E-05-2.81224E-05-2.88044E-05-3.20534E-06 6.74507E-19-3.14644E-19
 -1       533 9.59208E-05-2.82189E-05-2.90129E-05-3.85768E-06 2.25078E-19 6.01376E-20
 -1       534 9.66484E-05-2.83076E-05-2.92862E-05-4.60394E-06 4.47415E-19-2.53987E-19
 -1       535 9.75238E-05-2.84096E-05-2.96171E-05-5.49249E-06 3.97140E-19-5.64519E-19
 -1       536 9.85643E-05-2.85614E-05-2.99977E-05-6.54412E-06 3.45516E-19-2.88015E-19
 -1       537 9.98069E-05-2.88289E-05-3.04157E-05-7.73836E-06-7.05928E-20-5.64583E-19
 -1       538 1.01322E-04-2.93312E-05-3.08509E-05-8.98754E-06-4.63602E-19-3.53248E-19
 -1       539 1.03240E-04-3.02692E-05-3.12738E-05-1.00947E-05-1.10592E-19-5.25544E-19
 -1       540 1.05785E-04-3.19457E-05-3.16511E-05-1.06942E-05 3.01667E-19-7.54809E-19
 -1       541 1.09282E-04-3.47201E-05-3.19671E-05-1.01847E-05-2.12638E-19 1.04118E-18
 -1       542 1.14045E-04-3.87739E-05-3.22762E-05-7.70246E-06-1.18209E-18 1.64551E-18
 -1       543 1.19948E-04-4.34905E-05-3.27904E-05-2.31352E-06-1.63193E-18 2.40739E-18
 -1       544 1.25678E-04-4.65767E-05-3.39468E-05 6.20142E-06-5.93034E-19 2.31771E-18
 -1       545 1.28162E-04-4.37137E-05-3.62840E-05 1.56060E-05 2.18561E-19 2.09789E-18
 -1       546 1.24286E-04-3.26129E-05-3.95939E-05 1.88583E-05 1.98423E-18 3.02084E-18
 -1       547 1.18492E-04-2.10954E-05-4.21611E-05 8.97711E-06 2.04627E-18 2.91851E-18
 -1       548 1.18272E-04-2.03725E-05-4.23501E-05-8.28228E-06 1.58819E-18 2.07318E-18
 -1       549 1.24578E-04-3.22982E-05-3.97832E-05-1.83383E-05 9.19825E-19 2.16893E-19
 -1       550 1.28139E-04-4.33644E-05-3.64395E-05-1.58159E-05 2.01315E-18-1.85887E-18
 -1       551 1.25975E-04-4.65520E-05-3.40658E-05-6.68184E-06-7.83737E-20-2.43566E-18
 -1       552 1.20378E-04-4.37323E-05-3.28581E-05 1.90593E-06 8.08299E-19-2.44886E-18
 -1       553 1.14441E-04-3.90117E-05-3.23419E-05 7.40463E-06 1.02552E-18-2.01787E-18
 -1       554 1.09649E-04-3.48915E-05-3.20520E-05 9.90193E-06 1.08113E-18-2.49468E-18
 -1       555 1.06155E-04-3.20541E-05-3.17642E-05 1.03799E-05 1.00385E-18-2.15718E-18
 -1       556 1.03647E-04-3.03350E-05-3.14208E-05 9.70887E-06-6.56675E-19-1.71990E-18
 -1       557 1.01798E-04-2.93785E-05-3.10352E-05 8.49983E-06-9.51321E-19-1.00682E-18
 -1       558 1.00380E-04-2.88786E-05-3.06398E-05 7.12716E-06-6.54040E-19-4.82087E-19
 -1       559 9.92552E-05-2.86308E-05-3.02637E-05 5.79614E-06 2.47358E-19 1.64122E-18
 -1       560 9.83495E-05-2.85152E-05-2.99254E-05 4.60495E-06 4.53044E-19 2.33342E-18
 -1       561 9.76179E-05-2.84661E-05-2.96333E-05 3.58907E-06-7.82122E-19 3.31189E-18
 -1       562 9.70306E-05-2.84497E-05-2.93892E-05 2.75007E-06 7.21242E-19 2.61437E-18
 -1       563 9.65646E-05-2.84490E-05-2.91903E-05 2.07298E-06-1.46327E-19 1.62233E-18
 -1       564 9.62002E-05-2.84558E-05-2.90316E-05 1.53621E-06-1.15574E-18-1.00923E-18
 -1       565 9.59199E-05-2.84658E-05-2.89076E-05 1.11690E-06 1.21204E-19 2.79439E-19
 -1       566 9.57080E-05-2.84769E-05-2.88123E-05 7.93444E-07 2.38153E-19 1.76019E-18
 -1       567 9.55509E-05-2.84880E-05-2.87405E-05 5.46727E-07 2.44458E-18 2.01189E-18
 -1       568 9.54366E-05-2.84974E-05-2.86875E-05 3.62496E-07 2.20208E-18 1.72376E-18
 -1       569 9.53538E-05-2.85071E-05-2.86484E-05 2.20941E-07 2.20281E-19 1.51662E-18
 -1       570 9.52992E-05-2.85192E-05-2.86196E-05 1.18620E-07-1.45517E-18 2.04902E-18
 -1       571 9.51185E-05-2.82412E-05-2.86617E-05 2.09799E-07 1.43286E-18-4.36997E-19
 -1       572 9.50618E-05-2.81686E-05-2.86686E-05 1.64274E-07 8.63627E-19 1.42305E-18
 -1       573 9.52442E-05-2.84187E-05-2.86395E-05 1.90861E-07-1.06171E-18-1.39632E-18
 -1       574 9.51844E-05-2.83290E-05-2.86522E-05 2.18567E-07-7.22020E-19-2.94338E-18
 -1       575 9.50242E-05-2.81215E-05-2.86727E-05 8.99967E-08 1.11787E-18-2.45308E-18
 -1       576 9.50114E-05-2.81063E-05-2.86737E-05 3.75362E-10-7.85804E-19-4.37608E-19
 -1       577 9.50252E-05-2.81246E-05-2.86718E-05-8.88808E-08-1.86737E-18-9.20142E-19
 -1       578 9.50624E-05-2.81726E-05-2.86671E-05-1.61233E-07-3.13491E-20-8.67559E-19
 -1       579 9.51180E-05-2.82455E-05-2.86597E-05-2.06660E-07 1.10348E-18 4.72097E-19
 -1       580 9.51818E-05-2.83323E-05-2.86499E-05-2.16509E-07 5.68167E-19 7.75192E-19
 -1       581 9.52426E-05-2.84214E-05-2.86375E-05-1.90172E-07-1.02548E-18 1.87828E-18
 -1       582 2.46598E-05-1.47569E-05-3.65364E-06 1.14142E-05-3.80483E-18 2.50182E-18
 -1       583 8.70927E-05-4.91041E-05-1.59630E-05 4.08426E-05-1.29718E-18 4.37969E-19
 -1       584 9.48248E-05-2.72276E-05-2.89609E-05 3.84055E-07 1.70385E-18 7.56117E-19
 -1       585 2.39324E-05-1.47530E-05-3.36721E-06-1.40382E-05-8.36921E-19 2.97912E-18
 -1       586 4.80379E-05-2.85624E-05-7.84639E-06 3.49909E-05-2.87208E-18 2.33072E-18
 -1       587 9.46624E-05-2.06632E-05-3.17329E-05-9.25277E-06-2.44537E-18-2.99815E-18
 -1       588 4.99164E-05-2.93838E-05-8.29799E-06-3.91519E-05 4.86091E-19 2.18010E-18
 -1       589 8.89898E-05-1.25012E-05-3.27986E-05-1.82129E-06 7.56892E-19-3.84137E-18
 -1       590 1.38516E-04-1.82348E-05-5.21736E-05-1.23428E-05 2.94831E-18-2.84391E-19
 -1       591 3.98309E-05-2.29744E-05-6.64326E-06-2.87079E-05-4.88129E-19-7.58200E-18
 -1       592 1.35569E-04-1.18696E-05-5.37331E-05 2.28085E-06 3.30660E-18 1.33606E-18
 -1       593 1.39512E-04-2.22333E-05-5.08616E-05 1.40422E-05 3.62705E-18 1.81689E-18
 -1       594 1.44481E-04-4.13893E-05-4.46413E-05 1.40882E-05 1.65764E-18 1.63636E-18
 -1       595 1.17482E-04-6.06518E-05-2.42515E-05-3.08222E-05-5.16372E-19-2.80561E-18
 -1       596 8.42166E-05-4.68634E-05-1.56769E-05-4.01898E-05-1.69444E-18-4.58946E-18
 -1       597 2.30426E-05-1.38946E-05-3.32781E-06-5.77478E-06 4.67192E-19-5.58586E-18
 -1       598 3.18909E-05-1.80541E-05-5.35839E-06 2.52331E-05 6.28657E-20-4.48229E-18
 -1       599 6.39823E-05-3.66280E-05-1.12569E-05 4.29694E-05 1.23730E-18-2.61797E-18
 -1       600 9.84067E-05-5.29879E-05-1.92077E-05 4.07865E-05 8.41104E-19-8.86728E-19
 -1       601 1.23881E-04-5.93320E-05-2.76884E-05 2.79064E-05-3.90270E-19 2.88388E-19
 -1       602 1.41249E-04-5.12695E-05-3.87941E-05 4.87669E-06-3.43450E-18 1.55716E-18
 -1       603 1.43830E-04-3.28489E-05-4.79642E-05-6.30854E-06-4.89506E-18 4.18381E-19
 -1       604 1.35194E-04-1.49649E-05-5.21105E-05-9.06436E-06-4.96806E-18 5.08723E-19
 -1       605 1.25988E-04-6.60196E-06-5.18679E-05 1.39136E-06-4.13458E-18-2.77833E-18
 -1       606 1.31836E-04-1.75205E-05-4.95836E-05 1.14885E-05-1.76649E-18-4.18720E-18
 -1       607 1.42247E-04-4.08041E-05-4.39172E-05 4.83366E-06 8.12569E-19-4.24120E-18
 -1       608 1.38962E-04-5.43985E-05-3.63696E-05-8.69890E-06 1.92197E-18-2.45719E-18
 -1       609 1.17290E-04-5.84085E-05-2.51769E-05-3.24522E-05 1.06371E-18 1.47003E-18
 -1       610 8.22628E-05-4.65844E-05-1.49944E-05-4.41039E-05 1.95400E-19 3.12515E-18
 -1       611 1.48780E-04-4.32351E-05-4.56876E-05-1.08064E-05 3.86041E-18-2.06168E-18
 -1       612 9.62023E-05-2.31776E-05-3.12997E-05 9.32490E-06 3.10270E-18 2.33300E-18
 -1       613 1.24299E-04-6.21405E-05-2.65581E-05 2.69365E-05 6.84138E-19-2.98423E-18
 -1       614 9.13683E-05-1.56972E-05-3.24527E-05-7.45244E-06-1.15976E-18-3.95831E-18
 -1       615 6.52271E-05-3.22905E-05-1.36331E-05-3.52935E-05-1.82631E-18-5.30502E-18
 -1       616 1.42755E-04-5.26198E-05-3.88715E-05 9.20048E-06 1.65469E-19 2.06250E-18
 -1       617 9.52900E-05-2.84889E-05-2.86288E-05-1.59362E-07-2.24895E-18 1.92236E-18
 -1       618 9.12844E-05-1.63217E-05-3.21324E-05 2.21659E-06 1.84907E-18-2.76317E-18
 -1       619 9.09783E-05-1.58747E-05-3.21926E-05 7.63808E-07 1.29596E-18-3.30494E-18
 -1       620 9.28137E-05-1.86727E-05-3.17803E-05 4.84412E-06 2.48641E-18-1.56751E-18
 -1       621 9.40118E-05-2.07302E-05-3.14142E-05 5.69889E-06 2.73497E-18-7.11720E-19
 -1       622 9.53673E-05-2.39626E-05-3.05919E-05 4.68656E-06 2.53781E-18-1.62816E-19
 -1       623 4.46548E-05-1.78967E-05-1.09464E-05-2.58797E-05-7.07008E-20 1.71397E-18
 -1       624 1.34439E-04-3.19439E-05-4.43518E-05-1.85636E-05 2.71823E-18-1.06784E-18
 -1       625 7.51562E-05-3.75065E-05-1.57400E-05-3.95146E-05 6.48113E-19 1.50346E-18
 -1       626 9.55114E-05-2.54590E-05-3.00168E-05-1.74897E-06-1.15924E-18-2.41316E-18
 -1       627 9.55694E-05-2.65787E-05-2.95666E-05 5.78628E-08-1.01629E-18-2.08742E-18
 -1       628 9.55530E-05-2.72382E-05-2.92774E-05 1.36306E-06-8.24148E-19-1.92254E-18
 -1       629 9.55329E-05-2.76059E-05-2.91113E-05 2.33249E-06-7.37584E-19-2.16052E-18
 -1       630 9.55515E-05-2.78004E-05-2.90360E-05 3.09769E-06-6.87413E-19-1.99326E-18
 -1       631 9.56311E-05-2.79045E-05-2.90255E-05 3.75445E-06-5.79012E-19-1.45551E-18
 -1       632 9.57930E-05-2.79888E-05-2.90587E-05 4.36305E-06-5.59365E-19-6.36001E-19
 -1       633 9.60686E-05-2.81267E-05-2.91178E-05 4.94915E-06-3.32659E-19-5.17699E-21
 -1       634 9.65074E-05-2.84033E-05-2.91874E-05 5.50217E-06-2.00398E-19-2.33841E-19
 -1       635 9.71828E-05-2.89208E-05-2.92552E-05 5.97085E-06-1.08251E-19-7.81695E-19
 -1       636 9.81954E-05-2.97962E-05-2.93143E-05 6.25576E-06 1.92538E-19-6.75963E-19
 -1       637 9.96672E-05-3.11434E-05-2.93682E-05 6.19923E-06 3.86595E-19-3.79935E-19
 -1       638 1.01713E-04-3.30252E-05-2.94393E-05 5.57677E-06-6.20503E-19-4.05716E-19
 -1       639 1.04369E-04-3.53573E-05-2.95794E-05 4.10343E-06-9.63951E-19 4.71031E-19
 -1       640 1.07464E-04-3.77535E-05-2.98803E-05 1.49132E-06 2.19248E-20 9.95180E-19
 -1       641 1.10424E-04-3.93420E-05-3.04679E-05-2.35545E-06 2.36497E-19 1.10113E-18
 -1       642 1.12227E-04-3.88247E-05-3.14639E-05-6.95707E-06 4.55164E-19 9.87209E-19
 -1       643 1.11742E-04-3.50275E-05-3.28878E-05-1.07511E-05-2.93291E-19 4.90949E-19
 -1       644 1.08723E-04-2.82269E-05-3.45305E-05-1.12496E-05-6.63447E-19-5.33718E-19
 -1       645 1.05127E-04-2.16360E-05-3.58309E-05-6.64906E-06-9.41669E-19-8.57489E-19
 -1       646 1.03941E-04-1.95765E-05-3.61953E-05 1.58715E-06-1.87061E-18-1.17756E-18
 -1       647 1.06303E-04-2.36750E-05-3.54479E-05 8.95052E-06-8.90756E-19-2.05770E-18
 -1       648 1.10013E-04-3.08163E-05-3.39748E-05 1.17130E-05 7.88535E-20-2.31725E-18
 -1       649 1.12243E-04-3.67464E-05-3.23610E-05 9.76262E-06 7.46028E-19-2.34809E-18
 -1       650 1.11809E-04-3.92739E-05-3.10892E-05 5.47263E-06 1.07795E-18-1.53506E-18
 -1       651 1.09458E-04-3.88533E-05-3.02628E-05 1.08442E-06 9.36519E-19-2.24353E-18
 -1       652 1.06356E-04-3.68142E-05-2.98066E-05-2.26396E-06 1.03649E-18-2.87333E-18
 -1       653 1.03385E-04-3.43470E-05-2.95897E-05-4.35432E-06 1.87033E-19-2.42192E-18
 -1       654 1.00948E-04-3.21261E-05-2.94962E-05-5.38764E-06-1.94218E-19-1.30090E-18
 -1       655 9.91240E-05-3.04102E-05-2.94491E-05-5.66232E-06-1.47450E-18-1.00807E-18
 -1       656 9.78357E-05-2.92201E-05-2.94067E-05-5.44665E-06-2.91956E-19-3.65266E-19
 -1       657 9.69597E-05-2.84716E-05-2.93518E-05-4.94701E-06-1.38124E-19-8.43098E-19
 -1       658 9.63780E-05-2.80528E-05-2.92819E-05-4.30971E-06-2.58436E-19-1.23841E-18
 -1       659 9.59965E-05-2.78603E-05-2.92009E-05-3.63284E-06-2.71725E-19-2.29287E-19
 -1       660 9.57474E-05-2.78121E-05-2.91148E-05-2.97834E-06 2.21048E-20 3.36411E-19
 -1       661 9.55841E-05-2.78483E-05-2.90294E-05-2.38194E-06 1.57426E-18-6.01609E-19
 -1       662 9.54759E-05-2.79280E-05-2.89489E-05-1.86107E-06 2.34930E-18-1.01214E-18
 -1       663 9.54028E-05-2.80246E-05-2.88762E-05-1.42091E-06-1.55902E-19-1.03684E-18
 -1       664 9.53522E-05-2.81219E-05-2.88128E-05-1.05881E-06 2.58613E-19 7.92732E-20
 -1       665 9.53162E-05-2.82114E-05-2.87591E-05-7.67719E-07-2.30634E-19-1.78862E-18
 -1       666 9.52886E-05-2.82877E-05-2.87145E-05-5.38981E-07-3.60396E-19-2.13843E-18
 -1       667 9.52672E-05-2.83519E-05-2.86779E-05-3.62915E-07 6.89579E-19-9.26215E-19
 -1       668 9.53360E-05-2.76094E-05-2.90250E-05-2.33137E-06 8.53604E-19-2.88100E-19
 -1       669 9.52667E-05-2.83677E-05-2.86707E-05 3.16499E-07-2.86242E-20 8.77661E-20
 -1       670 9.53573E-05-2.73257E-05-2.91554E-05-1.30850E-06 1.38839E-18-3.92266E-19
 -1       671 9.54864E-05-2.76940E-05-2.90531E-05-3.95596E-06 4.11198E-19 7.01618E-20
 -1       672 9.56367E-05-2.75799E-05-2.91663E-05-4.77808E-06 7.12365E-19-4.41151E-19
 -1       673 9.58219E-05-2.74019E-05-2.93218E-05-5.70818E-06 5.83575E-19-3.07275E-19
 -1       674 9.60395E-05-2.71994E-05-2.95016E-05-6.79252E-06 1.78773E-19-4.62226E-19
 -1       675 9.63072E-05-2.70408E-05-2.96841E-05-8.05106E-06 3.23547E-19 1.42379E-19
 -1       676 9.66849E-05-2.70513E-05-2.98415E-05-9.46953E-06-2.98945E-19-2.72431E-19
 -1       677 9.73164E-05-2.74542E-05-2.99400E-05-1.09843E-05-3.44004E-19-1.02411E-18
 -1       678 9.84964E-05-2.86217E-05-2.99464E-05-1.24542E-05-1.47094E-19-9.71690E-19
 -1       679 1.00756E-04-3.11077E-05-2.98512E-05-1.35999E-05-9.08101E-19 3.81091E-19
 -1       680 1.04906E-04-3.55621E-05-2.97176E-05-1.38786E-05-1.26945E-18 7.69391E-19
 -1       681 1.11906E-04-4.23406E-05-2.97972E-05-1.22571E-05-2.07113E-18 1.72615E-18
 -1       682 1.21983E-04-5.01911E-05-3.07265E-05-7.11018E-06-1.57065E-18 2.33975E-18
 -1       683 1.32638E-04-5.41934E-05-3.36899E-05 2.98255E-06-8.40750E-19 3.19754E-18
 -1       684 1.35793E-04-4.87276E-05-3.74365E-05-1.32540E-05 2.48535E-18-3.16399E-18
 -1       685 1.29232E-04-5.30111E-05-3.27324E-05-1.29660E-06 9.05680E-20-2.36891E-18
 -1       686 1.19226E-04-4.73182E-05-3.08158E-05 7.53421E-06 5.36536E-19-3.38572E-18
 -1       687 1.10492E-04-3.99002E-05-3.02663E-05 1.18379E-05 6.31611E-19-2.03452E-18
 -1       688 1.04631E-04-3.41070E-05-3.02325E-05 1.30047E-05 5.75646E-19-1.37480E-18
 -1       689 1.01127E-04-3.04435E-05-3.02952E-05 1.25300E-05-4.91701E-20-2.62355E-19
 -1       690 9.91572E-05-2.84559E-05-3.02997E-05 1.12687E-05-3.13484E-19-1.15496E-19
 -1       691 9.80529E-05-2.75457E-05-3.02151E-05 9.71077E-06-2.03511E-18-5.12663E-19
 -1       692 9.73939E-05-2.72439E-05-3.00617E-05 8.11894E-06-1.21070E-18 4.05166E-19
 -1       693 9.69530E-05-2.72492E-05-2.98707E-05 6.63005E-06 2.01496E-19 1.23939E-18
 -1       694 9.66206E-05-2.73888E-05-2.96688E-05 5.30905E-06-7.32275E-19 1.63414E-18
 -1       695 9.63488E-05-2.75714E-05-2.94744E-05 4.17846E-06-5.79058E-19 8.83566E-19
 -1       696 9.61187E-05-2.77534E-05-2.92982E-05 3.23622E-06 4.82728E-19 1.33363E-18
 -1       697 9.59236E-05-2.79161E-05-2.91451E-05 2.46717E-06 1.29767E-18 1.15373E-18
 -1       698 9.57605E-05-2.80540E-05-2.90164E-05 1.85023E-06-1.69553E-19 1.11828E-18
 -1       699 9.56268E-05-2.81670E-05-2.89108E-05 1.36269E-06-8.74440E-19-1.36543E-20
 -1       700 9.55194E-05-2.82578E-05-2.88260E-05 9.82604E-07-1.11326E-19 1.58014E-18
 -1       701 9.54351E-05-2.83292E-05-2.87593E-05 6.90337E-07 1.79955E-18 1.30276E-18
 -1       702 9.53673E-05-2.83827E-05-2.87075E-05 4.70312E-07 1.50943E-18 1.66771E-18
 -1       703 1.10804E-04-5.46451E-05-2.38839E-05 2.84480E-05-7.47983E-19-1.65302E-18
 -1       704 9.49030E-05-2.79596E-05-2.86901E-05 6.15696E-08 4.79463E-19-3.65147E-18
 -1       705 3.57484E-05-1.13768E-05-9.90243E-06 8.44405E-06 7.99023E-19-4.60267E-18
 -1       706 9.50162E-05-2.80808E-05-2.86866E-05 2.70790E-07 8.48087E-19 4.24051E-19
 -1       707 9.49046E-05-2.79631E-05-2.86893E-05-6.60615E-08-1.10812E-18-1.83828E-18
 -1       708 9.49421E-05-2.80004E-05-2.86893E-05 1.80174E-07 4.23852E-19-3.15799E-19
 -1       709 9.49451E-05-2.80087E-05-2.86871E-05-1.80725E-07-8.15291E-19 1.14200E-18
 -1       710 9.50191E-05-2.80918E-05-2.86832E-05-2.68314E-07 6.46296E-19 3.93451E-19
 -1       711 9.51140E-05-2.82010E-05-2.86771E-05-3.12674E-07 1.06745E-18 1.40314E-18
 -1       712 7.54935E-05-3.68149E-05-1.61821E-05 3.59221E-05-1.72911E-18 1.98838E-18
 -1       713 4.71142E-05-1.73729E-05-1.22386E-05 2.20792E-05-3.09976E-18 3.48840E-18
 -1       714 3.56984E-05-1.05949E-05-1.01911E-05-1.48647E-06-1.86466E-18 1.30951E-18
 -1       715 1.28866E-04-3.17722E-05-4.19956E-05 1.34387E-05 2.54454E-19-3.51378E-18
 -1       716 9.46624E-05-2.20453E-05-3.11191E-05-5.58867E-06-1.55537E-18-2.92530E-18
 -1       717 8.90869E-05-4.44166E-05-1.88378E-05 3.78800E-05 1.66556E-18-8.56350E-19
 -1       718 1.33157E-04-6.15496E-05-3.07274E-05-1.22511E-05-8.34102E-19-1.14887E-18
 -1       719 9.54249E-05-2.67588E-05-2.94258E-05 5.90103E-08 1.75056E-18-3.64495E-19
 -1       720 9.53818E-05-2.77149E-05-2.89994E-05-3.17202E-06 6.93082E-19-7.74026E-20
 -1       721 1.34866E-04-6.08661E-05-3.17706E-05 8.26346E-06 1.65179E-18-2.89761E-18
 -1       722 9.18945E-05-1.72354E-05-3.20025E-05 3.60531E-06 2.26353E-18-2.24561E-18
 -1       723 9.18588E-05-1.72002E-05-3.20027E-05-3.54567E-06-1.42344E-19-3.57256E-18
 -1       724 9.54759E-05-2.57439E-05-2.98814E-05 1.97283E-06 2.02338E-18-2.63603E-19
 -1       725 1.28275E-04-5.83542E-05-3.00081E-05-1.52931E-05 1.77017E-18-2.00086E-18
 -1       726 1.15689E-04-1.30254E-05-4.44163E-05 8.53357E-06-2.45857E-18-3.28661E-18
 -1       727 3.99477E-05-1.46773E-05-1.02462E-05-1.60625E-05 4.41575E-19-5.92087E-18
 -1       728 9.52548E-05-2.83892E-05-2.86566E-05-2.68569E-07 3.26736E-19-4.76475E-19
 -1       729 1.07510E-04-5.35846E-05-2.29215E-05-3.01518E-05-1.58239E-18-3.26132E-18
 -1       730 1.34681E-04-4.13855E-05-4.02601E-05-9.15776E-06-2.57931E-18 2.14522E-18
 -1       731 5.69639E-05-2.46516E-05-1.33922E-05 3.28039E-05 1.85662E-18-2.62220E-18
 -1       732 1.15629E-04-5.68837E-05-2.50580E-05 2.83492E-05 1.38029E-18 1.35504E-18
 -1       733 1.04282E-04-5.26766E-05-2.19321E-05-3.45939E-05 2.18545E-18 3.96921E-19
 -1       734 1.31709E-04-5.74400E-05-3.19510E-05 1.02734E-05-1.21510E-19 1.77598E-18
 -1       735 1.26958E-04-2.51177E-05-4.41005E-05-1.35714E-05-3.79346E-18 8.85149E-19
 -1       736 1.18123E-04-1.09728E-05-4.64211E-05-6.63581E-06-3.01014E-18-2.06288E-18
 -1       737 1.34375E-04-4.56374E-05-3.82538E-05 6.79086E-06 8.33427E-19-3.64934E-18
 -1       738 9.12634E-05-1.63020E-05-3.21320E-05-2.14466E-06 4.08456E-19-3.43032E-18
 -1       739 9.27393E-05-1.85855E-05-3.17908E-05-4.80853E-06-7.49705E-19-3.61412E-18
 -1       740 9.51119E-05-2.81888E-05-2.86815E-05 3.19085E-07 1.95909E-18-1.67415E-18
 -1       741 9.09713E-05-1.58693E-05-3.21922E-05-6.98220E-07 9.17595E-19-3.32196E-18
 -1       742 5.74294E-05-2.19319E-05-1.48031E-05-2.55974E-05-9.48703E-19-4.94201E-18
 -1       743 8.88164E-05-4.13454E-05-2.00651E-05-3.23696E-05-2.19419E-18-4.13744E-18
 -1       744 9.51846E-05-2.82693E-05-2.86780E-05-3.49982E-07 2.69118E-19-8.35534E-20
 -1       745 1.40747E-04-5.20290E-05-3.83182E-05-9.82726E-06 2.91784E-18-2.48882E-18
 -1       746 4.73952E-05-1.18831E-05-1.48685E-05-4.53801E-06 1.35557E-19-4.58491E-18
 -1       747 9.45949E-05-2.23788E-05-3.09468E-05 3.33265E-06 2.17737E-18-1.04464E-18
 -1       748 9.56674E-05-2.61873E-05-2.97776E-05 5.12462E-07-8.11038E-19-2.08736E-18
 -1       749 9.56797E-05-2.68858E-05-2.94832E-05 1.66607E-06-8.30304E-19-1.92357E-18
 -1       750 9.55810E-05-2.72466E-05-2.92862E-05 2.57892E-06-6.33975E-19-1.76190E-18
 -1       751 9.54335E-05-2.73918E-05-2.91607E-05 3.35090E-06-1.58885E-19-1.29956E-18
 -1       752 9.52846E-05-2.74223E-05-2.90838E-05 4.05938E-06 4.03893E-20-7.63734E-19
 -1       753 9.51819E-05-2.74336E-05-2.90349E-05 4.75764E-06-3.79178E-20-4.40062E-19
 -1       754 9.51874E-05-2.75302E-05-2.89958E-05 5.47261E-06-2.23385E-19-8.35387E-20
 -1       755 9.53896E-05-2.78361E-05-2.89514E-05 6.20219E-06-2.51769E-19 2.40522E-19
 -1       756 9.59156E-05-2.85009E-05-2.88920E-05 6.90923E-06 1.66143E-20 9.45969E-21
 -1       757 9.69407E-05-2.96984E-05-2.88182E-05 7.50862E-06-9.93269E-20-5.95360E-19
 -1       758 9.86877E-05-3.16042E-05-2.87504E-05 7.84161E-06-1.40377E-19-7.22316E-19
 -1       759 1.01391E-04-3.43270E-05-2.87429E-05 7.63626E-06-2.10076E-19 1.24549E-19
 -1       760 1.05210E-04-3.77734E-05-2.89031E-05 6.46522E-06-3.30286E-20 9.78970E-19
 -1       761 1.09951E-04-4.13316E-05-2.94183E-05 3.71032E-06 3.66613E-19 1.04743E-18
 -1       762 1.14811E-04-4.36052E-05-3.05307E-05-9.86815E-07 2.90530E-19 1.82563E-18
 -1       763 1.17872E-04-4.20904E-05-3.24994E-05-7.30026E-06 1.93923E-19 1.36058E-18
 -1       764 1.16934E-04-3.47357E-05-3.53453E-05-1.25172E-05-9.58735E-19 1.44083E-18
 -1       765 1.12474E-04-2.34451E-05-3.83389E-05-1.19279E-05-1.44446E-18 1.19697E-18
 -1       766 1.09821E-04-1.77174E-05-3.96385E-05 7.39006E-06-2.06135E-18-7.41961E-19
 -1       767 1.14166E-04-2.75012E-05-3.72661E-05 1.32892E-05-9.16172E-19-1.77517E-18
 -1       768 1.17746E-04-3.79430E-05-3.42993E-05 1.12032E-05 4.74100E-19-1.67866E-18
 -1       769 1.17180E-04-4.31457E-05-3.17421E-05 5.21721E-06 1.23451E-18-2.07487E-18
 -1       770 1.13193E-04-4.29609E-05-3.01119E-05-6.49824E-07 8.73718E-20-1.98976E-18
 -1       771 1.08211E-04-3.99894E-05-2.92441E-05-4.61919E-06 4.18681E-19-1.59092E-18
 -1       772 1.03686E-04-3.63042E-05-2.88828E-05-6.65969E-06 2.52373E-21-1.62750E-18
 -1       773 1.00225E-04-3.30348E-05-2.87977E-05-7.35257E-06 2.44820E-19-2.31896E-18
 -1       774 9.78290E-05-3.05473E-05-2.88356E-05-7.23239E-06-3.61053E-19-2.49274E-18
 -1       775 9.63059E-05-2.88558E-05-2.89073E-05-6.66951E-06-2.36142E-19-1.51111E-18
 -1       776 9.54161E-05-2.78222E-05-2.89687E-05-5.89873E-06-2.98877E-19-1.24365E-18
 -1       777 9.49505E-05-2.72752E-05-2.90034E-05-5.05907E-06-5.48673E-19-1.45887E-18
 -1       778 9.47508E-05-2.70605E-05-2.90099E-05-4.23173E-06 4.27178E-19-1.04999E-18
 -1       779 9.47064E-05-2.70558E-05-2.89928E-05-3.46293E-06 7.68986E-19 4.60828E-19
 -1       780 9.47445E-05-2.71721E-05-2.89594E-05-2.77686E-06 6.91029E-19 1.07316E-18
 -1       781 9.48193E-05-2.73477E-05-2.89162E-05-2.18346E-06 2.07896E-18 1.32299E-18
 -1       782 9.49043E-05-2.75428E-05-2.88690E-05-1.68346E-06 8.50775E-19-8.73631E-20
 -1       783 9.49844E-05-2.77329E-05-2.88219E-05-1.27166E-06 1.21114E-19-5.69844E-19
 -1       784 9.50533E-05-2.79051E-05-2.87777E-05-9.39929E-07-2.19104E-19-1.70741E-19
 -1       785 9.51036E-05-2.80492E-05-2.87373E-05-6.76383E-07-2.16565E-19 8.20355E-19
 -1       786 9.51554E-05-2.81730E-05-2.87063E-05-4.92371E-07 4.44718E-19 8.24642E-20
 -1       787 9.55861E-05-2.69185E-05-2.94289E-05-1.64537E-06 9.96340E-19-9.13802E-20
 -1       788 9.46692E-05-2.66125E-05-2.91669E-05-5.21639E-06 4.98645E-19-1.62370E-19
 -1       789 9.49991E-05-2.69702E-05-2.91550E-05-4.33799E-06 6.94540E-19-1.96988E-19
 -1       790 9.37463E-05-2.56207E-05-2.91962E-05-7.34275E-06 1.78327E-20-7.59461E-19
 -1       791 9.31633E-05-2.51456E-05-2.91499E-05-8.67037E-06-1.60193E-19-7.10631E-19
 -1       792 9.25805E-05-2.48940E-05-2.90078E-05-1.02182E-05-9.99533E-20-6.46273E-19
 -1       793 9.21897E-05-2.51721E-05-2.87211E-05-1.20274E-05-2.30251E-19-7.05462E-19
 -1       794 9.23960E-05-2.64853E-05-2.82464E-05-1.41515E-05-7.05675E-19-6.18555E-19
 -1       795 9.39686E-05-2.96123E-05-2.75791E-05-1.66066E-05-1.11884E-18-1.18988E-18
 -1       796 9.81776E-05-3.55362E-05-2.68093E-05-1.91433E-05-2.35125E-18-7.76135E-19
 -1       797 1.07252E-04-4.52770E-05-2.65035E-05-2.04779E-05-2.81733E-18-5.82952E-19
 -1       798 1.05667E-04-4.21165E-05-2.71682E-05 1.86631E-05-2.44157E-20-1.19048E-18
 -1       799 9.83166E-05-3.38393E-05-2.76307E-05 1.73224E-05-2.43416E-19-4.36409E-19
 -1       800 9.47305E-05-2.88192E-05-2.82450E-05 1.51494E-05-1.10095E-18 1.09057E-18
 -1       801 9.33875E-05-2.62569E-05-2.87686E-05 1.29207E-05-3.54899E-19 1.34798E-18
 -1       802 9.31647E-05-2.52260E-05-2.91154E-05 1.08796E-05-1.18617E-18 2.33989E-18
 -1       803 9.34194E-05-2.50520E-05-2.92992E-05 9.05990E-06-1.93799E-18 2.00927E-18
 -1       804 9.38177E-05-2.53050E-05-2.93616E-05 7.45185E-06-1.10232E-18 1.88871E-18
 -1       805 9.42069E-05-2.57354E-05-2.93440E-05 6.04711E-06-7.99594E-19 1.29268E-18
 -1       806 9.45288E-05-2.62074E-05-2.92799E-05 4.83846E-06-5.22617E-20 3.72128E-19
 -1       807 9.47722E-05-2.66537E-05-2.91931E-05 3.81565E-06-6.99095E-19-8.06014E-19
 -1       808 9.49455E-05-2.70459E-05-2.90993E-05 2.96447E-06 2.60801E-19-6.80691E-19
 -1       809 9.50632E-05-2.73763E-05-2.90083E-05 2.26748E-06-7.06936E-20 1.60480E-18
 -1       810 9.51400E-05-2.76469E-05-2.89253E-05 1.70550E-06-1.27636E-19 1.68345E-18
 -1       811 9.51877E-05-2.78640E-05-2.88528E-05 1.25904E-06-5.22023E-19 9.33124E-19
 -1       812 9.52153E-05-2.80351E-05-2.87913E-05 9.09695E-07 9.27962E-19-5.26805E-19
 -1       813 9.52284E-05-2.81687E-05-2.87402E-05 6.37865E-07 2.39133E-18-3.19756E-19
 -1       814 9.47813E-05-2.78006E-05-2.87060E-05-1.75474E-07 1.01264E-18-1.38809E-19
 -1       815 9.47486E-05-2.77654E-05-2.87071E-05-6.09347E-09 1.80476E-19-3.32362E-18
 -1       816 1.28887E-04-4.87982E-05-3.44044E-05-4.09081E-06-8.15557E-19 2.49102E-18
 -1       817 4.98846E-05-1.31809E-05-1.54216E-05-1.30531E-05-1.43873E-18 1.72046E-18
 -1       818 9.54449E-05-2.49775E-05-3.01998E-05-9.95148E-07-8.47578E-19-2.35893E-18
 -1       819 1.15016E-04-2.02825E-05-4.08844E-05-1.15960E-05-2.21531E-18 6.19102E-19
 -1       820 9.32048E-05-4.31273E-05-2.12777E-05-3.23828E-05 1.53331E-18-6.03114E-19
 -1       821 9.51076E-05-4.16081E-05-2.27882E-05 2.79474E-05-1.73624E-18-6.15952E-19
 -1       822 9.56135E-05-2.62968E-05-2.97076E-05-3.88742E-07 1.48366E-18-5.07631E-19
 -1       823 1.14914E-04-5.31013E-05-2.64520E-05-2.09838E-05 1.98737E-18-1.04488E-18
 -1       824 9.48676E-05-2.78893E-05-2.87050E-05-3.17582E-07 4.62301E-19 1.82229E-18
 -1       825 9.49930E-05-2.80190E-05-2.87029E-05-4.10887E-07 6.02625E-19 1.55284E-18
 -1       826 9.42541E-05-2.61429E-05-2.91902E-05-6.20295E-06 4.74798E-19-3.08178E-19
 -1       827 9.46084E-05-2.24683E-05-3.09166E-05-2.89781E-06-8.90742E-19-2.82428E-18
 -1       828 1.20914E-04-5.46706E-05-2.83803E-05-1.53498E-05-1.64759E-18 3.02649E-19
 -1       829 5.00949E-05-1.23741E-05-1.58896E-05 8.59646E-06-1.14711E-18 1.34736E-18
 -1       830 9.27353E-05-1.90050E-05-3.15999E-05 1.03710E-06 1.42850E-18-2.56736E-18
 -1       831 1.21406E-04-5.50984E-05-2.84282E-05 1.51505E-05 1.54781E-18 1.08651E-18
 -1       832 7.02086E-05-2.56142E-05-1.88619E-05 2.62645E-05-1.91646E-18 3.66520E-18
 -1       833 6.49948E-05-2.53530E-05-1.66983E-05-2.98336E-05 1.94143E-19 6.86970E-19
 -1       834 9.52289E-05-2.41713E-05-3.04525E-05 2.80273E-06 2.19154E-18-3.92508E-19
 -1       835 7.88542E-05-3.31361E-05-1.93923E-05 3.15695E-05 2.20916E-18-1.05536E-18
 -1       836 5.34378E-05-1.56776E-05-1.59030E-05 1.81177E-05 1.59491E-18-2.58374E-18
 -1       837 1.23808E-04-3.44340E-05-3.84591E-05-1.31029E-05-1.91328E-18 1.10857E-18
 -1       838 1.05597E-04-4.92506E-05-2.40187E-05 2.73960E-05 1.36757E-18 1.15472E-18
 -1       839 1.27531E-04-5.12958E-05-3.26979E-05-4.36600E-08 5.16386E-19-1.69147E-18
 -1       840 1.23809E-04-3.89604E-05-3.65006E-05 1.12968E-05 1.78247E-19-1.10312E-18
 -1       841 1.22644E-04-5.44670E-05-2.91514E-05 1.30123E-05-5.78358E-19-3.02250E-18
 -1       842 9.37872E-05-2.08009E-05-3.12808E-05 2.79863E-06 2.13674E-18-1.82050E-18
 -1       843 9.38618E-05-2.10226E-05-3.12168E-05-2.34526E-06-3.14119E-19-2.93579E-18
 -1       844 1.08364E-04-1.50489E-05-4.01640E-05-3.70980E-06-1.91326E-18-2.65426E-19
 -1       845 5.73490E-05-1.59791E-05-1.74928E-05-1.45316E-05-8.76782E-19-4.36864E-18
 -1       846 9.52577E-05-2.71730E-05-2.91790E-05-3.50696E-06 4.36593E-19-9.74047E-20
 -1       847 9.33000E-05-2.00260E-05-3.14042E-05-1.56966E-06 1.30765E-19-2.94133E-18
 -1       848 9.48577E-05-2.78687E-05-2.87096E-05 3.12435E-07 1.39917E-18 2.33862E-19
 -1       849 9.54548E-05-2.71762E-05-2.92622E-05-2.64346E-06 6.11493E-19 1.95750E-20
 -1       850 9.49820E-05-2.79940E-05-2.87091E-05 4.13252E-07 1.96989E-18-1.25878E-18
 -1       851 9.47753E-05-2.77888E-05-2.87085E-05 1.64699E-07-3.79219E-19-1.53770E-18
 -1       852 9.25975E-05-1.87854E-05-3.16349E-05 3.33744E-08 8.99872E-19-3.14299E-18
 -1       853 9.51456E-05-2.81629E-05-2.87069E-05 4.64575E-07 1.12974E-18-8.51672E-19
 -1       854 9.31444E-05-1.96774E-05-3.14871E-05 1.98768E-06 1.86368E-18-2.09568E-18
 -1       855 9.55310E-05-2.54927E-05-3.00181E-05 1.01619E-06 1.98916E-18-6.06367E-19
 -1       856 7.66112E-05-3.05095E-05-1.95215E-05-2.81543E-05-1.84095E-18-3.64672E-18
 -1       857 9.50668E-05-2.80904E-05-2.87045E-05-4.61983E-07 7.69019E-20 1.69715E-18
 -1       858 1.11701E-04-4.83249E-05-2.71387E-05 1.59615E-05 1.31361E-18 5.76205E-19
 -1       859 1.21299E-04-4.95805E-05-3.07524E-05 2.58342E-06 2.96921E-19 2.36878E-18
 -1       860 1.18115E-04-4.95395E-05-2.93517E-05-7.45884E-06 1.17569E-18-1.43657E-18
 -1       861 9.55302E-05-2.65243E-05-2.95741E-05 1.83400E-06-3.82956E-19-1.39980E-18
 -1       862 9.52941E-05-2.68077E-05-2.93514E-05 2.64025E-06-4.40936E-20-8.40308E-19
 -1       863 9.49446E-05-2.68553E-05-2.91811E-05 3.37522E-06-6.26424E-20-7.30363E-19
 -1       864 9.45424E-05-2.67787E-05-2.90416E-05 4.10581E-06 4.22887E-20-1.13460E-18
 -1       865 9.41532E-05-2.66926E-05-2.89117E-05 4.88547E-06 2.12451E-19-1.04019E-18
 -1       866 9.38614E-05-2.67268E-05-2.87719E-05 5.75275E-06-7.79823E-20-6.33420E-19
 -1       867 9.37864E-05-2.70378E-05-2.86065E-05 6.73049E-06-2.05336E-20-7.36081E-19
 -1       868 9.41023E-05-2.78197E-05-2.84066E-05 7.81830E-06-1.96060E-19-7.29409E-19
 -1       869 9.50567E-05-2.93063E-05-2.81784E-05 8.97542E-06-7.04755E-20-4.55189E-19
 -1       870 9.69998E-05-3.17668E-05-2.79566E-05 1.00715E-05 2.93212E-20-5.34635E-19
 -1       871 1.00337E-04-3.53947E-05-2.78308E-05 1.07732E-05 5.96576E-19-3.12865E-19
 -1       872 1.05474E-04-4.01990E-05-2.79770E-05 1.05373E-05 9.31943E-19 9.80495E-19
 -1       873 1.09101E-04-4.39835E-05-2.78986E-05-1.14206E-05 1.56212E-18 2.95037E-19
 -1       874 1.02142E-04-3.80456E-05-2.74645E-05-1.22275E-05-3.67669E-19 9.84802E-19
 -1       875 9.75014E-05-3.32706E-05-2.75239E-05-1.13996E-05-7.40622E-19 4.17221E-19
 -1       876 9.46871E-05-2.98725E-05-2.77762E-05-9.95269E-06-8.23031E-19-3.90059E-19
 -1       877 9.31980E-05-2.77073E-05-2.80673E-05-8.39797E-06-3.54001E-19-1.83069E-19
 -1       878 9.25598E-05-2.64673E-05-2.83256E-05-6.95594E-06-9.39125E-19-1.36032E-18
 -1       879 9.24407E-05-2.58782E-05-2.85271E-05-5.68769E-06 4.27626E-20-1.72944E-18
 -1       880 9.26159E-05-2.57217E-05-2.86692E-05-4.59986E-06 5.26876E-20-5.48508E-19
 -1       881 9.29378E-05-2.58337E-05-2.87591E-05-3.67990E-06 2.23596E-18-3.02996E-20
 -1       882 9.33130E-05-2.60963E-05-2.88073E-05-2.91016E-06 4.95961E-19-5.71969E-19
 -1       883 9.36858E-05-2.64285E-05-2.88247E-05-2.27271E-06 5.50855E-19-1.00530E-18
 -1       884 9.40254E-05-2.67771E-05-2.88208E-05-1.75043E-06 9.96472E-19-1.65935E-18
 -1       885 9.43182E-05-2.71102E-05-2.88035E-05-1.32773E-06 3.66737E-19-1.66899E-19
 -1       886 9.45587E-05-2.74081E-05-2.87789E-05-9.91849E-07 7.53829E-19 1.89893E-18
 -1       887 9.47499E-05-2.76654E-05-2.87509E-05-7.26970E-07 8.91141E-19 1.48532E-18
 -1       888 9.53479E-05-3.96216E-05-2.38027E-05 2.48102E-05 1.78776E-18 5.78232E-20
 -1       889 8.93881E-05-2.30388E-05-2.84354E-05-8.22679E-06-2.11430E-19-7.42633E-19
 -1       890 9.08911E-05-2.38462E-05-2.87334E-05-6.99556E-06 1.66428E-19-4.77067E-19
 -1       891 8.59040E-05-2.23703E-05-2.72274E-05-1.18068E-05-3.01776E-19-2.04596E-18
 -1       892 8.43493E-05-2.33208E-05-2.61510E-05-1.47204E-05-6.59530E-19-1.99889E-18
 -1       893 8.37419E-05-2.61908E-05-2.46528E-05-1.89332E-05-1.81554E-18-2.09737E-18
 -1       894 9.45658E-05-2.75446E-05-2.87235E-05-1.30898E-07 1.81997E-18-1.19515E-18
 -1       895 8.59993E-05-2.32701E-05-2.68803E-05 1.35697E-05-1.26182E-18 2.12523E-18
 -1       896 8.67818E-05-3.14440E-05-2.36116E-05 2.32799E-05-1.44598E-18 4.38174E-20
 -1       897 8.72620E-05-2.24930E-05-2.77570E-05 1.09056E-05-7.57792E-19 2.50314E-18
 -1       898 8.87184E-05-2.26047E-05-2.83342E-05 8.92417E-06-7.16155E-19 8.12348E-19
 -1       899 9.01009E-05-2.31579E-05-2.86898E-05 7.34247E-06-2.06566E-18-4.02235E-19
 -1       900 9.12980E-05-2.38913E-05-2.88885E-05 6.02225E-06-1.25267E-19 1.06474E-18
 -1       901 9.22792E-05-2.46553E-05-2.89816E-05 4.89747E-06 6.47765E-19-5.67357E-19
 -1       902 9.30544E-05-2.53715E-05-2.90069E-05 3.93569E-06 2.98377E-19-1.09480E-18
 -1       903 9.36514E-05-2.60047E-05-2.89914E-05 3.11915E-06 2.71477E-19-1.80293E-18
 -1       904 9.41022E-05-2.65439E-05-2.89535E-05 2.43469E-06-6.59372E-19-7.66623E-19
 -1       905 9.44374E-05-2.69913E-05-2.89055E-05 1.86955E-06-3.36899E-19-1.56210E-18
 -1       906 9.46829E-05-2.73551E-05-2.88548E-05 1.41044E-06 2.88983E-19-7.77750E-19
 -1       907 9.48607E-05-2.76467E-05-2.88060E-05 1.04361E-06 1.00572E-18-2.10973E-18
 -1       908 9.49841E-05-2.78749E-05-2.87611E-05 7.52796E-07 9.18423E-19-1.46921E-18
 -1       909 9.48034E-05-2.77749E-05-2.87266E-05-5.07466E-07 9.02491E-19-5.79807E-20
 -1       910 5.84608E-05-1.33870E-05-1.91874E-05 4.43214E-06 5.82931E-19-1.87222E-18
 -1       911 5.76507E-05-1.26190E-05-1.91699E-05-2.40486E-06-1.18003E-18 1.74595E-18
 -1       912 7.08595E-05-2.30303E-05-2.04131E-05 2.20672E-05 2.11592E-18-1.49959E-18
 -1       913 9.53521E-05-2.47244E-05-3.02689E-05-2.87598E-07-5.75018E-19-2.26791E-18
 -1       914 9.55690E-05-2.59162E-05-2.98523E-05-7.80636E-07 9.69991E-19-8.76925E-19
 -1       915 8.27112E-05-3.25162E-05-2.14032E-05-2.72769E-05 6.91397E-19-1.83979E-18
 -1       916 9.46534E-05-2.76302E-05-2.87243E-05-3.42922E-07 1.10280E-18 3.47125E-19
 -1       917 9.03072E-05-3.44138E-05-2.38278E-05-2.41241E-05-2.56848E-18-2.51870E-18
 -1       918 8.76835E-05-2.24444E-05-2.79594E-05-9.76418E-06-2.65464E-20-1.24176E-18
 -1       919 9.40301E-05-2.60581E-05-2.91308E-05-4.26107E-06 5.31591E-19-9.31458E-19
 -1       920 1.02515E-04-4.40992E-05-2.49708E-05-2.27163E-05 1.81702E-18-1.20977E-18
 -1       921 8.57002E-05-2.57698E-05-2.56729E-05 1.73365E-05-1.13783E-18 1.79377E-18
 -1       922 9.54659E-05-2.64712E-05-2.95690E-05-1.84122E-06 7.43833E-19-8.95122E-19
 -1       923 9.55809E-05-2.58775E-05-2.98728E-05 8.83800E-07-5.81590E-19-1.82907E-18
 -1       924 6.48286E-05-1.94438E-05-1.93100E-05-1.97211E-05-1.10540E-18-4.36043E-19
 -1       925 9.28504E-05-1.92348E-05-3.15503E-05-8.26964E-07 5.78886E-19-2.97158E-18
 -1       926 6.54554E-05-1.77225E-05-2.03510E-05 1.58291E-05-1.45770E-18 2.68689E-18
 -1       927 1.13021E-04-4.61221E-05-2.86309E-05 8.73858E-06 9.51282E-19 1.47592E-18
 -1       928 6.19211E-05-1.41234E-05-2.04074E-05-4.13986E-06-8.02005E-20-3.54788E-18
 -1       929 9.31970E-05-2.54457E-05-2.90362E-05-5.06665E-06 5.50222E-19-4.79266E-19
 -1       930 9.46802E-05-2.64698E-05-2.92330E-05-3.49723E-06 5.35148E-19-1.33017E-18
 -1       931 9.47968E-05-2.31402E-05-3.07101E-05-1.31714E-06-3.96432E-19-2.65041E-18
 -1       932 9.43259E-05-2.21646E-05-3.09256E-05-9.58734E-07-7.87264E-20-2.60479E-18
 -1       933 9.21585E-05-2.46853E-05-2.89170E-05-5.96269E-06 5.05225E-19-3.21593E-19
 -1       934 9.51605E-05-2.66292E-05-2.93706E-05-2.71520E-06 7.31839E-19-1.08877E-18
 -1       935 9.47809E-05-2.77339E-05-2.87344E-05 4.97817E-07-9.79504E-20-3.57387E-20
 -1       936 9.45603E-05-2.75344E-05-2.87254E-05 1.00608E-07 9.95299E-19-1.11619E-18
 -1       937 9.49934E-05-2.35837E-05-3.06051E-05 1.54627E-06 1.89716E-18-1.20433E-18
 -1       938 9.38310E-05-2.12173E-05-3.11199E-05 3.19727E-07 1.06940E-18-2.42620E-18
 -1       939 9.40526E-05-2.16235E-05-3.10422E-05 8.49088E-07 1.43316E-18-2.04587E-18
 -1       940 9.54347E-05-2.50556E-05-3.01609E-05 3.51514E-07 1.48790E-18-8.31184E-19
 -1       941 7.03413E-05-2.22660E-05-2.04625E-05-2.08292E-05-1.60368E-18-3.40570E-18
 -1       942 9.46354E-05-2.76000E-05-2.87295E-05 3.20486E-07 2.53288E-19-2.69571E-18
 -1       943 8.57152E-05-2.97688E-05-2.39368E-05 2.00509E-05 1.39554E-18-5.74584E-19
 -1       944 9.47530E-05-2.63157E-05-2.93304E-05 2.46092E-06 3.40792E-19-1.14486E-18
 -1       945 9.41610E-05-2.62167E-05-2.91190E-05 3.12900E-06-7.15179E-20-9.63107E-19
 -1       946 9.34677E-05-2.59902E-05-2.89190E-05 3.85921E-06 4.56408E-20-8.60071E-19
 -1       947 9.27440E-05-2.57618E-05-2.87067E-05 4.71235E-06 3.38424E-19-1.13962E-18
 -1       948 9.20785E-05-2.56730E-05-2.84597E-05 5.74939E-06-3.81131E-20-8.36458E-19
 -1       949 9.16012E-05-2.59003E-05-2.81575E-05 7.03716E-06 1.06377E-19-6.35813E-19
 -1       950 9.15130E-05-2.66737E-05-2.77874E-05 8.63591E-06 1.14144E-19-1.70623E-19
 -1       951 9.20855E-05-2.82598E-05-2.73525E-05 1.05908E-05-8.50389E-20-1.92239E-19
 -1       952 9.38432E-05-3.11139E-05-2.68879E-05 1.29023E-05 4.33153E-19 4.75347E-19
 -1       953 9.75127E-05-3.56633E-05-2.65160E-05 1.53288E-05 1.41034E-18 4.19277E-19
 -1       954 9.45223E-05-2.74552E-05-2.87432E-05-5.42140E-07 3.83174E-19 1.21190E-19
 -1       955 9.87140E-05-3.85262E-05-2.57741E-05-1.86349E-05 1.45277E-18-1.19326E-18
 -1       956 9.34021E-05-3.24150E-05-2.61521E-05-1.54441E-05-9.70952E-19-5.09123E-19
 -1       957 9.08074E-05-2.84993E-05-2.67005E-05-1.23150E-05-5.30962E-19-5.97109E-19
 -1       958 8.98660E-05-2.62520E-05-2.72616E-05-9.67039E-06-4.04283E-20-3.39155E-19
 -1       959 8.97529E-05-2.50491E-05-2.77298E-05-7.55951E-06-9.90993E-19-4.24922E-19
 -1       960 9.01124E-05-2.45592E-05-2.80942E-05-5.89447E-06-6.62648E-19-3.66859E-20
 -1       961 9.07054E-05-2.45288E-05-2.83614E-05-4.58875E-06 6.86192E-19 4.39453E-19
 -1       962 9.13863E-05-2.47783E-05-2.85463E-05-3.56296E-06 4.83666E-19 1.43340E-18
 -1       963 9.20673E-05-2.51808E-05-2.86657E-05-2.75466E-06 9.42729E-19-4.10950E-19
 -1       964 9.26983E-05-2.56492E-05-2.87354E-05-2.11647E-06 1.90299E-19-8.37570E-20
 -1       965 9.32538E-05-2.61260E-05-2.87691E-05-1.61286E-06 3.17204E-19 1.07195E-19
 -1       966 9.37234E-05-2.65748E-05-2.87779E-05-1.21585E-06 1.65122E-18-3.62095E-19
 -1       967 9.41072E-05-2.69759E-05-2.87707E-05-9.07476E-07 2.20843E-18-3.83094E-19
 -1       968 9.43350E-05-2.72300E-05-2.87585E-05-7.04779E-07 5.24198E-19-2.47322E-20
 -1       969 9.92654E-05-3.93172E-05-2.56641E-05 1.88458E-05 1.22575E-18 4.91854E-19
 -1       970 7.43808E-05-1.88972E-05-2.37605E-05-1.25828E-05-8.99547E-19-2.50427E-18
 -1       971 7.86662E-05-1.91216E-05-2.55157E-05-9.54264E-06-2.33355E-19-1.60933E-18
 -1       972 8.05129E-05-1.94042E-05-2.61906E-05 9.23122E-06-3.84512E-19 3.13228E-18
 -1       973 8.82053E-05-2.20691E-05-2.83443E-05 5.08871E-06-1.59805E-18 5.26867E-19
 -1       974 8.98551E-05-2.30998E-05-2.86095E-05 4.23661E-06 1.37477E-19 2.97943E-18
 -1       975 9.11637E-05-2.40567E-05-2.87602E-05 3.49306E-06 1.02554E-18 2.92159E-18
 -1       976 9.21894E-05-2.49085E-05-2.88347E-05 2.84025E-06 1.51277E-18 1.78672E-18
 -1       977 9.29844E-05-2.56437E-05-2.88604E-05 2.27249E-06-7.10475E-19-7.17492E-20
 -1       978 9.35939E-05-2.62633E-05-2.88560E-05 1.78682E-06-6.00001E-21-1.81402E-18
 -1       979 9.40559E-05-2.67755E-05-2.88345E-05 1.37904E-06 3.74471E-20-1.89218E-18
 -1       980 9.44028E-05-2.71925E-05-2.88045E-05 1.04565E-06 1.23594E-18-5.88504E-19
 -1       981 9.46575E-05-2.75247E-05-2.87713E-05 7.77039E-07 3.63405E-19-2.59335E-20
 -1       982 6.98452E-05-1.78711E-05-2.22684E-05 1.13142E-05 1.14095E-18-1.13991E-18
 -1       983 7.82293E-05-2.57293E-05-2.24478E-05-2.05570E-05-9.37179E-20-2.93712E-18
 -1       984 9.49905E-05-2.38286E-05-3.04983E-05-2.55117E-07-1.66582E-19-2.33221E-18
 -1       985 9.53719E-05-2.56576E-05-2.98778E-05 1.05794E-06-1.02343E-19-1.61721E-18
 -1       986 8.61474E-05-2.10259E-05-2.79102E-05 6.10252E-06 2.31793E-19 1.56218E-18
 -1       987 9.39190E-05-2.14129E-05-3.10737E-05-1.72531E-07 5.09552E-19-2.52908E-18
 -1       988 9.44681E-05-2.24249E-05-3.08768E-05 1.28272E-06 1.52736E-18-1.85340E-18
 -1       989 8.36118E-05-2.00847E-05-2.72281E-05 7.41060E-06 5.76092E-19 2.33396E-18
 -1       990 8.78062E-05-2.20968E-05-2.81615E-05-5.61972E-06 1.28120E-19-1.32357E-18
 -1       991 7.68950E-05-1.92904E-05-2.46812E-05 1.20455E-05-1.59437E-18 2.91143E-18
 -1       992 9.52970E-05-2.49142E-05-3.01634E-05 4.36354E-07-1.78282E-19-2.06630E-18
 -1       993 9.51806E-05-2.61711E-05-2.95756E-05 1.79175E-06 9.69399E-20-1.24632E-18
 -1       994 6.69611E-05-1.63935E-05-2.16281E-05-1.03526E-05 6.39052E-20 1.39560E-18
 -1       995 6.72066E-05-1.46443E-05-2.24844E-05 3.06970E-06-1.71406E-18 8.05191E-19
 -1       996 9.53675E-05-2.56171E-05-2.98927E-05-9.97432E-07 9.56022E-19-1.33939E-18
 -1       997 6.88645E-05-1.59637E-05-2.26128E-05 4.73747E-06 8.57003E-19-8.40750E-19
 -1       998 9.27719E-05-2.50891E-05-2.90070E-05-3.65543E-06 2.82555E-19-1.30903E-18
 -1       999 9.38106E-05-2.57093E-05-2.91863E-05-3.07215E-06 4.42011E-19-1.06624E-18
 -1      1000 8.98206E-05-2.32263E-05-2.85405E-05-4.89370E-06 3.73662E-19-1.23062E-18
 -1      1001 8.23392E-05-1.98947E-05-2.67627E-05-7.70700E-06 3.22669E-19-9.28007E-19
 -1      1002 9.42978E-05-2.72409E-05-2.87388E-05-2.73740E-08 1.19482E-18-1.20701E-18
 -1      1003 9.51066E-05-2.40751E-05-3.04409E-05 3.89131E-07 1.30276E-18-1.53344E-18
 -1      1004 9.43720E-05-2.73134E-05-2.87390E-05-3.08174E-07 1.25254E-18-1.94805E-18
 -1      1005 9.45878E-05-2.30376E-05-3.06636E-05 6.36040E-08 6.89949E-19-2.19835E-18
 -1      1006 9.46953E-05-2.32530E-05-3.06173E-05 1.87323E-07 9.76254E-19-1.76816E-18
 -1      1007 8.53497E-05-2.09521E-05-2.75999E-05-6.50445E-06 2.46094E-19-6.39934E-19
 -1      1008 9.51180E-05-2.60418E-05-2.96042E-05-1.79448E-06 7.23180E-19-1.46748E-18
 -1      1009 9.40555E-05-2.16635E-05-3.10257E-05-5.76348E-07 3.22153E-19-2.66861E-18
 -1      1010 9.44168E-05-2.73155E-05-2.87577E-05 5.48975E-07 8.68649E-19-1.08230E-18
 -1      1011 9.46369E-05-2.31235E-05-3.06476E-05-5.09092E-08 3.46110E-19-2.24490E-18
 -1      1012 9.14546E-05-2.42426E-05-2.88052E-05-4.25282E-06 2.57167E-19-1.18667E-18
 -1      1013 9.31575E-05-2.54988E-05-2.89969E-05 2.56894E-06 2.82515E-19-1.24697E-18
 -1      1014 9.21279E-05-2.50724E-05-2.87380E-05 3.26885E-06 8.48906E-20-7.22102E-19
 -1      1015 9.10027E-05-2.46426E-05-2.84406E-05 4.16025E-06 1.94504E-19-7.22730E-19
 -1      1016 8.98366E-05-2.43298E-05-2.80751E-05 5.34419E-06 1.43790E-19-6.69951E-19
 -1      1017 8.87391E-05-2.43167E-05-2.76098E-05 6.93670E-06 8.64302E-20-8.69062E-19
 -1      1018 8.78765E-05-2.48453E-05-2.70148E-05 9.11495E-06-4.99266E-21-1.09072E-18
 -1      1019 8.75605E-05-2.62514E-05-2.62653E-05 1.21788E-05 5.55209E-19-1.16498E-18
 -1      1020 8.65250E-05-2.75703E-05-2.52569E-05 1.56232E-05 1.24786E-18-8.64837E-19
 -1      1021 8.52161E-05-2.39297E-05-2.62686E-05-1.04257E-05 2.24646E-19-1.02914E-18
 -1      1022 8.61672E-05-2.30972E-05-2.70309E-05-7.64765E-06 3.03792E-19-4.33125E-19
 -1      1023 8.73339E-05-2.29281E-05-2.76032E-05-5.63002E-06 5.17149E-20 8.24747E-19
 -1      1024 8.85365E-05-2.31581E-05-2.80198E-05-4.16107E-06 5.93557E-19 1.58026E-18
 -1      1025 8.96868E-05-2.36246E-05-2.83127E-05-3.08364E-06 1.10912E-18 1.44073E-18
 -1      1026 9.07348E-05-2.42116E-05-2.85102E-05-2.28822E-06 5.88558E-19 9.72326E-19
 -1      1027 9.16568E-05-2.48399E-05-2.86360E-05-1.69719E-06-8.32844E-20 2.00641E-18
 -1      1028 9.24451E-05-2.54564E-05-2.87096E-05-1.25563E-06-6.97539E-19 8.70175E-19
 -1      1029 9.31034E-05-2.60290E-05-2.87462E-05-9.24810E-07-5.07148E-20-3.01868E-19
 -1      1030 9.36325E-05-2.65321E-05-2.87575E-05-6.70010E-07 9.06992E-19-1.25712E-18
 -1      1031 9.07461E-05-2.39007E-05-2.86483E-05 2.07752E-06 1.86594E-18-8.02126E-19
 -1      1032 8.93457E-05-2.28921E-05-2.84805E-05 2.43301E-06 7.52815E-19-8.84650E-19
 -1      1033 8.75750E-05-2.17697E-05-2.82028E-05 2.78781E-06-9.74497E-19 4.13086E-19
 -1      1034 9.18492E-05-2.47861E-05-2.87415E-05 1.73315E-06 1.55282E-18-8.34338E-19
 -1      1035 9.27120E-05-2.55468E-05-2.87852E-05 1.41287E-06 8.13971E-19-1.40774E-18
 -1      1036 9.33798E-05-2.61870E-05-2.87971E-05 1.12611E-06-9.70916E-19-1.47488E-18
 -1      1037 9.38940E-05-2.67196E-05-2.87893E-05 8.77763E-07-4.30040E-20-1.42627E-18
 -1      1038 9.41799E-05-2.70384E-05-2.87749E-05 7.02286E-07 9.32475E-19-2.12929E-18
 -1      1039 9.45921E-05-2.60479E-05-2.93761E-05-2.46620E-06 6.99464E-19-1.17903E-18
 -1      1040 9.43077E-05-2.72342E-05-2.87458E-05 2.63595E-07 6.01004E-19-3.79899E-19
 -1      1041 9.50800E-05-2.55148E-05-2.98130E-05 9.80639E-07-2.84459E-20-1.70600E-18
 -1      1042 8.53376E-05-2.05544E-05-2.77653E-05 3.14247E-06-3.00599E-21 1.93892E-18
 -1      1043 7.40411E-05-1.63747E-05-2.47064E-05 2.64680E-06-2.90290E-19 7.29649E-19
 -1      1044 7.65426E-05-2.12850E-05-2.36877E-05-1.35880E-05 4.60293E-19-2.38048E-18
 -1      1045 9.40284E-05-2.57897E-05-2.92455E-05 1.99337E-06 1.91669E-19-1.73025E-18
 -1      1046 8.24802E-05-1.92637E-05-2.70927E-05 3.51659E-06 4.95460E-19 1.86794E-18
 -1      1047 9.46872E-05-2.58317E-05-2.95096E-05 1.48078E-06 2.21856E-19-1.64643E-18
 -1      1048 9.48526E-05-2.35437E-05-3.05576E-05 2.86817E-07 1.10358E-18-1.92198E-18
 -1      1049 7.21390E-05-1.63669E-05-2.38929E-05-4.05158E-06 5.62430E-19-1.53136E-18
 -1      1050 7.88359E-05-1.78907E-05-2.61157E-05 3.21067E-06-3.47616E-20 7.82141E-21
 -1      1051 8.50945E-05-2.57517E-05-2.54176E-05-1.39683E-05-7.07780E-19-1.92925E-18
 -1      1052 9.49359E-05-2.42894E-05-3.02782E-05 1.40477E-07 1.28283E-19-1.70403E-18
 -1      1053 7.54548E-05-1.87140E-05-2.43145E-05 7.88565E-06 7.84153E-19-8.10692E-19
 -1      1054 7.22304E-05-1.67024E-05-2.37778E-05-5.53700E-06-4.15261E-19-6.51223E-20
 -1      1055 9.41272E-05-2.70436E-05-2.87500E-05-4.12855E-07 1.90444E-18-2.36514E-18
 -1      1056 9.49544E-05-2.43352E-05-3.02638E-05-9.78665E-08 5.40696E-19-1.88694E-18
 -1      1057 9.28291E-05-2.50067E-05-2.90668E-05-2.19819E-06 5.38840E-19-8.69416E-19
 -1      1058 8.76077E-05-2.20157E-05-2.81116E-05-2.96312E-06 1.29268E-19-6.71760E-19
 -1      1059 7.76991E-05-1.79192E-05-2.56217E-05-3.48902E-06 3.84154E-19-8.12911E-19
 -1      1060 9.14522E-05-2.42140E-05-2.88166E-05-2.49495E-06 3.98594E-19-9.28206E-19
 -1      1061 8.49512E-05-2.06803E-05-2.75435E-05-3.13737E-06 3.03417E-20-5.85269E-19
 -1      1062 9.39551E-05-2.68680E-05-2.87517E-05 1.02790E-07 1.18244E-19-2.73163E-19
 -1      1063 9.45936E-05-2.29348E-05-3.07098E-05-2.58019E-07 2.77045E-19-2.38717E-18
 -1      1064 9.50785E-05-2.54158E-05-2.98552E-05-9.20226E-07 7.98155E-19-1.32205E-18
 -1      1065 9.51329E-05-2.49377E-05-3.00838E-05 5.49728E-07 3.02609E-21-1.74638E-18
 -1      1066 9.50836E-05-2.44067E-05-3.02919E-05-1.82346E-07 7.66375E-19-1.80814E-18
 -1      1067 8.95217E-05-2.31310E-05-2.84536E-05 8.27063E-07 1.47160E-18-4.10603E-18
 -1      1068 8.97319E-05-2.32008E-05-2.85140E-05-2.75096E-06 1.19465E-19-8.80601E-19
 -1      1069 9.20200E-05-2.47284E-05-2.88379E-05 1.65962E-06 4.51878E-19-1.37275E-18
 -1      1070 9.06267E-05-2.40713E-05-2.85209E-05 2.28705E-06 4.93859E-19-1.22616E-18
 -1      1071 8.89900E-05-2.33448E-05-2.81321E-05 3.15590E-06 1.00424E-19-1.05639E-18
 -1      1072 8.72062E-05-2.27148E-05-2.76373E-05 4.36224E-06-1.07729E-19-1.56539E-18
 -1      1073 8.52632E-05-2.22959E-05-2.69837E-05 6.05887E-06-1.77243E-19-1.42289E-18
 -1      1074 8.31457E-05-2.22427E-05-2.61069E-05 8.42262E-06 1.39168E-19-1.18690E-18
 -1      1075 8.18232E-05-2.06148E-05-2.62304E-05-6.67249E-06 3.31476E-19-2.00500E-18
 -1      1076 7.93187E-05-2.06119E-05-2.51557E-05-9.55087E-06 9.34856E-19-6.93695E-19
 -1      1077 9.47215E-05-2.54275E-05-2.96977E-05 5.93026E-07 1.07605E-19-1.42708E-18
 -1      1078 8.41746E-05-2.10182E-05-2.70660E-05-4.58326E-06 5.74089E-19-1.74552E-18
 -1      1079 8.61899E-05-2.16512E-05-2.76584E-05-3.14044E-06 3.26454E-19-2.09786E-18
 -1      1080 8.79221E-05-2.24182E-05-2.80722E-05-2.13931E-06 2.56428E-19-2.85248E-18
 -1      1081 8.93944E-05-2.32348E-05-2.83534E-05-1.44885E-06 6.29505E-19-2.10288E-18
 -1      1082 9.06334E-05-2.40451E-05-2.85373E-05-9.75987E-07 7.35933E-19-2.30471E-18
 -1      1083 9.16629E-05-2.48099E-05-2.86509E-05-6.54339E-07-2.64047E-19-1.37814E-18
 -1      1084 9.25051E-05-2.55034E-05-2.87148E-05-4.37253E-07-1.21948E-18-2.88595E-19
 -1      1085 9.31773E-05-2.61094E-05-2.87445E-05-2.79156E-07 5.38070E-19-2.67722E-19
 -1      1086 9.19034E-05-2.49295E-05-2.87033E-05 7.30708E-07 9.90118E-19-1.45925E-18
 -1      1087 9.08464E-05-2.40860E-05-2.86119E-05 8.05605E-07 1.85696E-18-2.52803E-18
 -1      1088 8.78693E-05-2.20737E-05-2.81988E-05 7.57704E-07 9.07009E-19-2.95661E-18
 -1      1089 9.27407E-05-2.56596E-05-2.87493E-05 6.29739E-07 1.87094E-19-5.61008E-19
 -1      1090 9.34055E-05-2.62759E-05-2.87664E-05 5.31452E-07-3.32061E-19-5.90567E-19
 -1      1091 9.38914E-05-2.55161E-05-2.93040E-05-1.84838E-06 4.65867E-19-8.77660E-19
 -1      1092 9.46474E-05-2.56792E-05-2.95582E-05-1.42890E-06 5.94420E-19-1.28104E-18
 -1      1093 8.58061E-05-2.09269E-05-2.78063E-05 5.48537E-07-3.33953E-19-2.03806E-18
 -1      1094 9.41089E-05-2.55142E-05-2.93966E-05 8.82393E-07 2.71022E-19-1.33738E-18
 -1      1095 7.53458E-05-1.74161E-05-2.48282E-05 1.60673E-06 5.17606E-19-1.36634E-18
 -1      1096 9.31781E-05-2.52313E-05-2.91194E-05 1.22547E-06 3.87545E-19-1.22309E-18
 -1      1097 8.31946E-05-1.96936E-05-2.72157E-05 1.44053E-07 1.70367E-20-1.91491E-18
 -1      1098 8.17584E-05-1.93288E-05-2.67579E-05-3.25084E-06 1.66679E-19-1.02041E-18
 -1      1099 9.51210E-05-2.45305E-05-3.02539E-05 3.35842E-07-4.65819E-20-1.99020E-18
 -1      1100 9.40318E-05-2.69216E-05-2.87607E-05 4.10293E-07 9.99748E-19-1.18521E-18
 -1      1101 8.02637E-05-1.86159E-05-2.64210E-05-1.06309E-06 2.39561E-19-1.03250E-18
 -1      1102 8.07012E-05-1.99519E-05-2.60327E-05 4.89085E-06 2.23429E-19-5.04821E-19
 -1      1103 9.49533E-05-2.50601E-05-2.99530E-05 3.83656E-07 2.99824E-19-1.70200E-18
 -1      1104 8.59088E-05-2.13157E-05-2.76873E-05-1.72073E-07-1.45638E-19-1.50369E-18
 -1      1105 7.66762E-05-1.75982E-05-2.53191E-05-2.82567E-06 6.53783E-22-8.75853E-19
 -1      1106 9.31965E-05-2.51091E-05-2.91811E-05-8.36657E-07 5.37661E-19-1.22019E-18
 -1      1107 9.37375E-05-2.66194E-05-2.87656E-05 4.74242E-07 1.21435E-18-1.73052E-18
 -1      1108 9.19092E-05-2.44605E-05-2.89056E-05-8.86199E-07 3.08991E-19-1.16785E-18
 -1      1109 8.83539E-05-2.25328E-05-2.82093E-05-5.75904E-07 7.06477E-20-1.64999E-18
 -1      1110 9.48566E-05-2.52035E-05-2.98519E-05-3.32057E-07 5.33970E-19-1.56821E-18
 -1      1111 9.03563E-05-2.36199E-05-2.86001E-05-8.15283E-07 2.65654E-19-1.12123E-18
 -1      1112 9.08909E-05-2.39972E-05-2.86754E-05 3.35472E-07 3.76314E-19-1.08306E-18
 -1      1113 8.32111E-05-2.03203E-05-2.69541E-05 1.81160E-06 4.41053E-19-1.59135E-18
 -1      1114 9.41641E-05-2.54321E-05-2.94546E-05-7.39557E-07 3.33362E-19-1.28430E-18
 -1      1115 9.43562E-05-2.54150E-05-2.95476E-05-9.95126E-08 2.93212E-19-1.30393E-18
 -1      1116 7.98722E-05-1.88560E-05-2.61519E-05 6.65520E-07 4.86024E-19-1.24172E-18
 -1      1117 1.16482E-04 2.56625E-10-4.17355E-05-4.12942E-05-4.64174E-19 8.40130E-18
 -1      1118 8.85353E-05 7.19938E-11-3.71984E-05-2.40257E-05-2.05405E-19-1.45017E-18
 -1      1119 8.40758E-05 4.15957E-11-3.57603E-05-1.77154E-05-1.15938E-19-5.02771E-18
 -1      1120 8.23942E-05 3.20649E-11-3.50949E-05-1.36556E-05-7.20507E-20-6.42433E-18
 -1      1121 8.16211E-05 2.71999E-11-3.47758E-05-1.03533E-05-3.32990E-20-6.90392E-18
 -1      1122 8.12294E-05 2.43103E-11-3.46172E-05-7.48132E-06-4.59251E-21-6.95986E-18
 -1      1123 8.10208E-05 2.25013E-11-3.45360E-05-4.86059E-06 1.08658E-20-6.76649E-18
 -1      1124 8.09162E-05 2.15024E-11-3.44970E-05-2.36921E-06 3.18713E-20-6.46754E-18
 -1      1125 8.08866E-05 2.11959E-11-3.44862E-05 5.06425E-08 3.81951E-20-6.11142E-18
 -1      1126 8.09231E-05 2.15483E-11-3.44995E-05 2.47316E-06 5.39289E-20-5.68768E-18
 -1      1127 8.10343E-05 2.26045E-11-3.45409E-05 4.97326E-06 6.03941E-20-5.13748E-18
 -1      1128 8.12513E-05 2.44747E-11-3.46240E-05 7.61078E-06 8.39026E-20-4.42006E-18
 -1      1129 8.16496E-05 2.75250E-11-3.47844E-05 1.05123E-05 1.08116E-19-3.30899E-18
 -1      1130 8.24219E-05 3.25471E-11-3.51061E-05 1.38634E-05 1.37352E-19-1.52882E-18
 -1      1131 8.40715E-05 4.20713E-11-3.57800E-05 1.79684E-05 1.62260E-19 1.38659E-18
 -1      1132 8.82298E-05 6.68366E-11-3.72662E-05 2.38725E-05 1.56489E-19 6.63984E-18
 -1      1133 1.06277E-04 1.63518E-10-4.05154E-05 3.60440E-05 2.35263E-19 1.64980E-17
 -1      1134 1.29710E-04-2.56624E-05-4.01368E-05-2.59890E-05-1.73568E-18 1.44821E-17
 -1      1135 9.71429E-05-2.87700E-05-3.14807E-05-6.71302E-07-6.07534E-19 1.05056E-17
 -1      1136 8.99692E-05-2.69716E-05-2.78341E-05 3.86445E-07-2.50563E-19 5.30394E-18
 -1      1137 8.81756E-05-2.65527E-05-2.66232E-05 2.49131E-07-1.44240E-19 1.85018E-18
 -1      1138 8.79637E-05-2.64710E-05-2.64135E-05 1.64303E-07-9.05879E-20-6.74582E-19
 -1      1139 8.85255E-05-2.66096E-05-2.65617E-05 1.17627E-07-8.14690E-20-2.10623E-18
 -1      1140 8.94978E-05-2.68812E-05-2.68526E-05 8.88163E-08-3.12459E-20-3.31092E-18
 -1      1141 9.07105E-05-2.72339E-05-2.72174E-05 7.04691E-08-1.64630E-20-4.43583E-18
 -1      1142 9.20866E-05-2.76408E-05-2.76319E-05 5.90728E-08-2.51508E-20-5.74064E-18
 -1      1143 9.35992E-05-2.80915E-05-2.80880E-05 5.30341E-08-5.06636E-20-6.98041E-18
 -1      1144 9.52491E-05-2.85847E-05-2.85857E-05 5.16013E-08-6.27834E-20-7.92602E-18
 -1      1145 9.70482E-05-2.91228E-05-2.91275E-05 5.42463E-08 2.76239E-20-8.11098E-18
 -1      1146 9.90032E-05-2.97069E-05-2.97136E-05 6.01858E-08-4.67647E-21-8.65480E-18
 -1      1147 1.01095E-04-3.03305E-05-3.03363E-05 6.78703E-08 5.26342E-20-8.09255E-18
 -1      1148 1.03257E-04-3.09723E-05-3.09722E-05 7.43404E-08-8.06706E-20-7.16974E-18
 -1      1149 1.05340E-04-3.15878E-05-3.15744E-05 7.44991E-08-2.60582E-19-7.79842E-18
 -1      1150 1.07093E-04-3.21012E-05-3.20655E-05 6.06359E-08-3.54281E-21-8.39400E-18
 -1      1151 1.08145E-04-3.24026E-05-3.23363E-05 2.30344E-08-9.32580E-20-9.19222E-18
 -1      1152 1.08035E-04-3.23571E-05-3.22586E-05-4.69216E-08-2.09995E-19-1.06284E-17
 -1      1153 1.06316E-04-3.18359E-05-3.17180E-05-1.49904E-07-2.89844E-21-1.18060E-17
 -1      1154 1.02755E-04-3.07761E-05-3.06713E-05-2.69067E-07-1.27283E-19-1.08529E-17
 -1      1155 9.75985E-05-2.92567E-05-2.92114E-05-3.64173E-07 5.49422E-20-1.07925E-17
 -1      1156 9.17584E-05-2.75496E-05-2.76035E-05-3.80736E-07 9.54715E-20-9.25563E-18
 -1      1157 8.67213E-05-2.60865E-05-2.62447E-05-2.80370E-07-2.62349E-20-1.04994E-17
 -1      1158 8.40497E-05-2.53138E-05-2.55331E-05-7.69033E-08 5.29859E-20-1.02546E-17
 -1      1159 8.46625E-05-2.54911E-05-2.56964E-05 1.56955E-07-1.54216E-19-1.02014E-17
 -1      1160 8.83500E-05-2.65594E-05-2.66831E-05 3.29482E-07 8.85116E-20-1.00131E-17
 -1      1161 9.38891E-05-2.81720E-05-2.81880E-05 3.86570E-07 1.24532E-19-8.77293E-18
 -1      1162 9.96694E-05-2.98667E-05-2.97951E-05 3.36128E-07 1.45322E-19-6.45677E-18
 -1      1163 1.04378E-04-3.12592E-05-3.11455E-05 2.26876E-07 8.63113E-20-6.14496E-18
 -1      1164 1.07356E-04-3.21501E-05-3.20374E-05 1.10739E-07-2.39906E-19-8.63411E-18
 -1      1165 1.08564E-04-3.25217E-05-3.24355E-05 1.96323E-08 6.35291E-20-9.59417E-18
 -1      1166 1.08349E-04-3.24710E-05-3.24181E-05-3.68754E-08 3.16871E-19-5.26111E-18
 -1      1167 1.07188E-04-3.21369E-05-3.21126E-05-6.32348E-08-8.66033E-20-4.91958E-18
 -1      1168 1.05528E-04-3.16506E-05-3.16461E-05-6.88902E-08 2.89689E-19-5.78040E-18
 -1      1169 1.03707E-04-3.11131E-05-3.11198E-05-6.28592E-08 7.75386E-20-5.41007E-18
 -1      1170 1.01949E-04-3.05911E-05-3.06028E-05-5.17194E-08 1.24643E-19-6.69128E-18
 -1      1171 1.00377E-04-3.01227E-05-3.01354E-05-3.95090E-08-7.90756E-20-6.42639E-18
 -1      1172 9.90474E-05-2.97248E-05-2.97365E-05-2.83378E-08-1.77225E-19-4.95964E-18
 -1      1173 9.79678E-05-2.94008E-05-2.94106E-05-1.90763E-08-3.94929E-20-5.69486E-18
 -1      1174 9.71216E-05-2.91461E-05-2.91538E-05-1.18918E-08-7.59066E-20-6.00626E-18
 -1      1175 9.64793E-05-2.89522E-05-2.89579E-05-6.60169E-09-4.27026E-19-7.12257E-18
 -1      1176 9.60069E-05-2.88091E-05-2.88133E-05-2.88054E-09 1.93076E-19-7.65966E-18
 -1      1177 9.56717E-05-2.87073E-05-2.87102E-05-3.67339E-10 1.28433E-19-5.88743E-18
 -1      1178 9.54446E-05-2.86380E-05-2.86400E-05 1.29000E-09 4.58940E-19-2.92662E-18
 -1      1179 9.53013E-05-2.85940E-05-2.85956E-05 2.43246E-09-1.36624E-19-2.16407E-18
 -1      1180 9.52229E-05-2.85695E-05-2.85710E-05 3.41099E-09-1.45698E-19-2.92291E-18
 -1      1181 9.51950E-05-2.85604E-05-2.85615E-05 4.54665E-09 4.74538E-19 1.07188E-18
 -1      1182 9.52060E-05-2.85640E-05-2.85616E-05 6.35261E-09-6.92797E-20 2.84169E-18
 -1      1183 9.52280E-05-2.85686E-05-2.85635E-05 2.82536E-09 2.76985E-19 2.42432E-18
 -1      1184 1.30527E-04-3.75771E-05-3.85262E-05 1.21311E-05-3.19199E-19 2.43251E-17
 -1      1185 9.62371E-05-2.80953E-05-3.12302E-05 7.98498E-07 9.12678E-20 2.11009E-17
 -1      1186 9.01641E-05-2.68689E-05-2.78095E-05 1.22076E-07 7.95483E-20 1.73379E-17
 -1      1187 8.82388E-05-2.64733E-05-2.66523E-05 1.37742E-08 4.82875E-20 1.47260E-17
 -1      1188 8.79776E-05-2.64257E-05-2.64322E-05-1.80145E-08 1.28271E-19 1.26260E-17
 -1      1189 8.85194E-05-2.65839E-05-2.65687E-05-2.45404E-08-4.20522E-20 1.13141E-17
 -1      1190 8.94870E-05-2.68675E-05-2.68561E-05-2.30698E-08 4.02200E-20 1.05616E-17
 -1      1191 9.07139E-05-2.72320E-05-2.72251E-05-1.85000E-08 1.06495E-20 9.83154E-18
 -1      1192 9.21355E-05-2.76575E-05-2.76544E-05-1.24752E-08 1.72000E-20 8.91840E-18
 -1      1193 9.37485E-05-2.81421E-05-2.81437E-05-5.96335E-09 2.68921E-20 8.11022E-18
 -1      1194 9.55942E-05-2.86978E-05-2.87057E-05 6.30702E-11 1.02425E-19 7.04980E-18
 -1      1195 9.77489E-05-2.93466E-05-2.93634E-05 4.27436E-09 6.93947E-20 6.04778E-18
 -1      1196 1.00317E-04-3.01191E-05-3.01475E-05 4.58590E-09 6.15075E-20 5.89641E-18
 -1      1197 1.03418E-04-3.10500E-05-3.10930E-05-2.36254E-09-1.42088E-19 6.71503E-18
 -1      1198 1.07170E-04-3.21717E-05-3.22310E-05-2.17510E-08 1.66824E-19 6.25844E-18
 -1      1199 1.11639E-04-3.35007E-05-3.35728E-05-6.06419E-08 5.14821E-20 5.46749E-18
 -1      1200 1.16756E-04-3.50126E-05-3.50818E-05-1.26124E-07-2.09623E-19 6.30097E-18
 -1      1201 1.22174E-04-3.66011E-05-3.66279E-05-2.18567E-07 1.09727E-19 6.75231E-18
 -1      1202 1.27058E-04-3.80226E-05-3.79354E-05-3.16257E-07 2.42033E-20 5.00856E-18
 -1      1203 1.29911E-04-3.88505E-05-3.85590E-05-3.53251E-07 1.41044E-19 5.38591E-18
 -1      1204 1.28668E-04-3.85065E-05-3.79677E-05-2.14879E-07 4.17031E-20 5.60566E-18
 -1      1205 1.21543E-04-3.64803E-05-3.58251E-05 1.91740E-07-1.63385E-19 6.36270E-18
 -1      1206 1.08822E-04-3.28047E-05-3.24163E-05 7.71586E-07 5.02264E-21 6.34915E-18
 -1      1207 9.46111E-05-2.85690E-05-2.89022E-05 1.14151E-06-2.25741E-19 5.50000E-18
 -1      1208 8.59105E-05-2.57958E-05-2.68920E-05 9.06784E-07 1.95585E-19 5.12603E-18
 -1      1209 8.79029E-05-2.62041E-05-2.74337E-05 1.29128E-07-1.27042E-19 5.28136E-18
 -1      1210 9.93940E-05-2.96263E-05-3.02518E-05-6.49286E-07-5.75519E-20 5.14213E-18
 -1      1211 1.13886E-04-3.40877E-05-3.39328E-05-9.60376E-07 1.23849E-19 4.43951E-18
 -1      1212 1.24956E-04-3.75193E-05-3.69371E-05-8.02671E-07-5.32638E-20 3.22063E-18
 -1      1213 1.29927E-04-3.90477E-05-3.84600E-05-4.52272E-07 3.60068E-19 8.26228E-19
 -1      1214 1.29523E-04-3.89119E-05-3.85258E-05-1.40027E-07-4.02341E-20-9.14630E-19
 -1      1215 1.25816E-04-3.77722E-05-3.75994E-05 5.27773E-08 8.38530E-20 1.23746E-19
 -1      1216 1.20734E-04-3.62282E-05-3.61977E-05 1.38699E-07-1.16044E-19 2.46807E-18
 -1      1217 1.15539E-04-3.46608E-05-3.47010E-05 1.58133E-07-2.08627E-20 1.96726E-18
 -1      1218 1.10874E-04-3.32590E-05-3.33233E-05 1.45079E-07 4.69425E-21-1.09320E-20
 -1      1219 1.06973E-04-3.20898E-05-3.21545E-05 1.20332E-07 2.40861E-19-1.55255E-18
 -1      1220 1.03854E-04-3.11556E-05-3.12114E-05 9.43497E-08 4.22227E-19-5.03063E-18
 -1      1221 1.01433E-04-3.04307E-05-3.04753E-05 7.14378E-08 3.07959E-20-4.41261E-18
 -1      1222 9.95952E-05-2.98802E-05-2.99145E-05 5.28018E-08 1.80908E-19-4.69293E-18
 -1      1223 9.82256E-05-2.94697E-05-2.94955E-05 3.82975E-08-4.91771E-20-5.60602E-18
 -1      1224 9.72225E-05-2.91689E-05-2.91880E-05 2.73077E-08-2.46073E-19-4.03693E-18
 -1      1225 9.65012E-05-2.89524E-05-2.89663E-05 1.91332E-08-3.13336E-19 2.09205E-19
 -1      1226 9.59937E-05-2.88000E-05-2.88100E-05 1.31420E-08-3.89854E-19 1.28225E-18
 -1      1227 9.56467E-05-2.86957E-05-2.87029E-05 8.80816E-09 6.28149E-19-7.49668E-19
 -1      1228 9.54192E-05-2.86272E-05-2.86324E-05 5.69815E-09-2.48087E-19 4.61602E-19
 -1      1229 9.52806E-05-2.85854E-05-2.85894E-05 3.43062E-09 7.88906E-19-1.95867E-18
 -1      1230 9.52085E-05-2.85635E-05-2.85667E-05 1.61500E-09 4.05382E-20-6.22209E-18
 -1      1231 9.51868E-05-2.85566E-05-2.85591E-05-4.16286E-10-1.96923E-20-8.99844E-18
 -1      1232 9.52022E-05-2.85605E-05-2.85609E-05-3.49623E-09 1.45359E-19-6.68505E-18
 -1      1233 9.52287E-05-2.85693E-05-2.85633E-05-2.73936E-09-1.48278E-19-3.82656E-18
 -1      1234 9.52390E-05-2.85800E-05-2.85637E-05-3.09518E-09-3.79997E-18-6.97248E-19
 -1      1235 9.52461E-05-2.86045E-05-2.85619E-05-5.63592E-09-2.95448E-18-6.35289E-19
 -1      1236 9.52485E-05-2.86123E-05-2.85621E-05-2.51517E-09-6.71149E-19-4.68360E-19
 -1      1237 9.52406E-05-2.85850E-05-2.85701E-05 3.23797E-10-7.14253E-19-1.41568E-18
 -1      1238 9.52242E-05-2.85286E-05-2.85855E-05 2.09402E-09-5.78540E-19-2.59875E-19
 -1      1239 9.52040E-05-2.84590E-05-2.86046E-05 2.74314E-09-1.46149E-18-7.40469E-19
 -1      1240 9.51848E-05-2.83932E-05-2.86229E-05 2.46430E-09-4.16579E-18-3.62581E-19
 -1      1241 9.51710E-05-2.83457E-05-2.86361E-05 1.47291E-09-2.66776E-18-6.99200E-19
 -1      1242 9.51657E-05-2.83276E-05-2.86412E-05 1.19947E-10-3.01440E-18 5.95594E-19
 -1      1243 9.51700E-05-2.83426E-05-2.86370E-05-1.24075E-09 6.58028E-20 8.91450E-20
 -1      1244 9.51830E-05-2.83872E-05-2.86246E-05-2.25382E-09-5.33415E-18-1.44413E-18
 -1      1245 9.52016E-05-2.84508E-05-2.86070E-05-2.62060E-09-1.18687E-17 1.66530E-18
 -1      1246 9.52214E-05-2.85191E-05-2.85881E-05-2.07110E-09-7.81810E-18 8.14358E-19
 -1      1247 9.52380E-05-2.85761E-05-2.85725E-05-4.79137E-10-4.81737E-18 7.04872E-19
 -1      1248 9.52473E-05-2.86065E-05-2.85639E-05 2.52551E-09-2.94411E-18 1.25916E-19
 -1      1249 9.52442E-05-2.85998E-05-2.85625E-05 8.15686E-09-2.10476E-18-1.92301E-19
 -1      1250 9.52395E-05-2.85809E-05-2.85638E-05 3.80341E-09-1.56959E-18 7.84892E-19
 -1      1251 3.52355E-05-1.09466E-04 1.86130E-05-1.38974E-05 1.12488E-17 2.08349E-18
 -1      1252 1.97267E-05-7.34494E-05 1.14722E-05-2.79522E-05 1.36406E-17 4.42172E-18
 -1      1253 7.27457E-06-1.88111E-05-2.86439E-06-8.67291E-06 1.46198E-17 8.66854E-18
 -1      1254 2.66646E-05 2.02777E-05-2.25583E-05 4.19398E-05 1.41793E-17 1.33636E-17
 -1      1255 9.45852E-05 1.64512E-05-4.37179E-05 9.48285E-05 7.46405E-18 9.26315E-18
 -1      1256 2.00202E-04-2.90345E-05-6.30706E-05 1.11316E-04 5.64124E-19 6.38663E-19
 -1      1257 2.91124E-04-7.91026E-05-7.60921E-05 6.78900E-05-1.12454E-18-8.15100E-18
 -1      1258 3.21460E-04-9.77704E-05-7.97251E-05-1.04702E-05 1.04513E-18-1.50392E-17
 -1      1259 2.75311E-04-7.00750E-05-7.40190E-05-8.29524E-05 5.60206E-18-2.24921E-17
 -1      1260 1.81243E-04-1.94254E-05-6.01546E-05-1.13333E-04 1.23599E-17-2.57379E-17
 -1      1261 8.26770E-05 1.88947E-05-4.05338E-05-8.71258E-05 1.76996E-17-2.29139E-17
 -1      1262 2.20731E-05 1.68749E-05-1.97057E-05-3.43938E-05 1.89600E-17-1.65680E-17
 -1      1263 8.17814E-06-2.63100E-05-7.86819E-07 1.22481E-05 1.55685E-17-9.00142E-18
 -1      1264 2.30062E-05-8.27948E-05 1.34695E-05 2.61964E-05 3.90906E-18-2.65418E-18
 -1      1265 3.67647E-05-1.13795E-04 1.93060E-05 7.20333E-06-7.74156E-18-1.89735E-19
 -1      1266 3.03084E-05-9.83700E-05 1.65167E-05-1.83895E-05-1.51517E-17-2.89691E-18
 -1      1267 1.29354E-05-4.94127E-05 5.90489E-06-2.10618E-05-2.14681E-17-9.85099E-18
 -1      1268 8.96987E-06 2.84516E-06-1.01924E-05 1.03901E-05-2.46504E-17-1.59920E-17
 -1      1269 4.01908E-05 2.74259E-05-2.88128E-05 6.12484E-05-1.84213E-17-1.74878E-17
 -1      1270 1.11352E-04 1.24401E-05-4.75847E-05 1.03570E-04-1.13638E-17-1.63681E-17
 -1      1271 2.04457E-04-3.17581E-05-6.37238E-05 1.09395E-04-5.53324E-18-1.07302E-17
 -1      1272 2.81615E-04-7.64863E-05-7.43600E-05 6.66498E-05-1.04847E-18-2.93920E-18
 -1      1273 3.08214E-04-9.28793E-05-7.75781E-05-8.56488E-06-8.56509E-19 7.13022E-18
 -1      1274 2.66476E-04-6.71394E-05-7.23850E-05-7.98637E-05-3.95342E-18 1.40599E-17
 -1      1275 1.80544E-04-1.90815E-05-5.98997E-05-1.12298E-04-1.02948E-17 2.04270E-17
 -1      1276 8.94054E-05 1.97805E-05-4.27727E-05-9.49922E-05-1.16204E-17 1.73608E-17
 -1      1277 2.64303E-05 2.24974E-05-2.25645E-05-4.39388E-05-7.60636E-18 6.88892E-18
 -1      1278 7.18992E-06-1.49491E-05-3.56163E-06 5.52206E-06-6.65429E-18 3.38390E-18
 -1      1279 1.87332E-05-6.80159E-05 1.03334E-05 2.47177E-05-5.60058E-18 2.12754E-18
 -1      1280 3.45210E-05-1.07050E-04 1.81425E-05 1.27866E-05 2.00832E-18 7.53595E-19
 -1      1281 1.04145E-04-2.19467E-05-3.77868E-05-1.71880E-05-6.78897E-19 5.86909E-18
 -1      1282 9.02553E-05-6.69154E-06-3.59819E-05-2.03125E-05-1.44281E-18-3.19522E-18
 -1      1283 9.25279E-05-6.75276E-06-3.71582E-05-2.55984E-05-1.98841E-18-1.27770E-18
 -1      1284 8.59351E-05-4.11155E-06-3.51348E-05-1.62491E-05-1.27942E-18-5.70458E-18
 -1      1285 8.71480E-05-4.10490E-06-3.55859E-05-1.86779E-05-1.51010E-18-4.71480E-18
 -1      1286 9.21029E-05-1.04782E-05-3.50720E-05-1.88485E-05-2.46180E-18-2.77059E-18
 -1      1287 8.41691E-05-3.19433E-06-3.47160E-05-1.26205E-05-8.19571E-19-6.65688E-18
 -1      1288 8.47628E-05-3.16606E-06-3.49301E-05-1.44378E-05-1.03566E-18-6.24549E-18
 -1      1289 8.79126E-05-7.40457E-06-3.45877E-05-1.52056E-05-1.94893E-18-4.83081E-18
 -1      1290 8.32684E-05-2.71438E-06-3.45122E-05-9.49935E-06-4.26494E-19-6.98852E-18
 -1      1291 8.35763E-05-2.69700E-06-3.46164E-05-1.10394E-05-5.75612E-19-6.87800E-18
 -1      1292 8.59364E-05-5.96614E-06-3.43409E-05-1.17457E-05-1.16999E-18-5.66310E-18
 -1      1293 8.27716E-05-2.42727E-06-3.44111E-05-6.75594E-06-1.11828E-19-6.94898E-18
 -1      1294 8.29424E-05-2.41961E-06-3.44638E-05-8.11048E-06-2.16854E-19-6.98192E-18
 -1      1295 8.48860E-05-5.16904E-06-3.42200E-05-8.75250E-06-5.85373E-19-5.88736E-18
 -1      1296 8.24837E-05-2.24628E-06-3.43601E-05-4.18335E-06 1.70975E-19-6.70485E-18
 -1      1297 8.25789E-05-2.24297E-06-3.43870E-05-5.45903E-06 7.40823E-20-6.85513E-18
 -1      1298 8.42824E-05-4.68324E-06-3.41619E-05-6.06080E-06-7.77004E-20-5.87315E-18
 -1      1299 8.23416E-05-2.14648E-06-3.43381E-05-1.74017E-06 4.84847E-19-6.39468E-18
 -1      1300 8.23832E-05-2.14523E-06-3.43492E-05-2.95972E-06 3.78938E-19-6.55614E-18
 -1      1301 8.39398E-05-4.39480E-06-3.41349E-05-3.54359E-06 4.12641E-19-5.57321E-18
 -1      1302 8.23140E-05-2.11547E-06-3.43359E-05 6.51404E-07 7.20177E-19-6.06401E-18
 -1      1303 8.23119E-05-2.11550E-06-3.43353E-05-5.50909E-07 6.35424E-19-6.28042E-18
 -1      1304 8.37866E-05-4.26174E-06-3.41247E-05-1.13639E-06 9.13322E-19-5.33832E-18
 -1      1305 8.23951E-05-2.14973E-06-3.43520E-05 3.06400E-06 9.43765E-19-5.59295E-18
 -1      1306 8.23494E-05-2.15101E-06-3.43397E-05 1.84174E-06 8.59197E-19-5.88342E-18
 -1      1307 8.37930E-05-4.26605E-06-3.41256E-05 1.23674E-06 1.27193E-18-4.98489E-18
 -1      1308 8.26015E-05-2.25368E-06-3.43918E-05 5.57293E-06 1.22298E-18-5.06078E-18
 -1      1309 8.25020E-05-2.25637E-06-3.43638E-05 4.29103E-06 1.14174E-18-5.38644E-18
 -1      1310 8.39593E-05-4.40865E-06-3.41375E-05 3.64835E-06 1.70329E-18-4.58254E-18
 -1      1311 8.29722E-05-2.43503E-06-3.44693E-05 8.21698E-06 1.44117E-18-4.26023E-18
 -1      1312 8.27973E-05-2.44291E-06-3.44160E-05 6.85343E-06 1.35670E-18-4.73370E-18
 -1      1313 8.43137E-05-4.70646E-06-3.41655E-05 6.15270E-06 2.10409E-18-3.98648E-18
 -1      1314 8.36293E-05-2.73044E-06-3.46237E-05 1.11996E-05 1.77381E-18-3.01685E-18
 -1      1315 8.33138E-05-2.74657E-06-3.45182E-05 9.64095E-06 1.61867E-18-3.73626E-18
 -1      1316 8.49361E-05-5.21111E-06-3.42236E-05 8.85961E-06 2.48837E-18-3.11838E-18
 -1      1317 8.48237E-05-3.20932E-06-3.49390E-05 1.46513E-05 2.03971E-18-1.18045E-18
 -1      1318 8.42313E-05-3.24501E-06-3.47234E-05 1.28079E-05 1.87533E-18-2.30343E-18
 -1      1319 8.60232E-05-6.04849E-06-3.43442E-05 1.19125E-05 2.95101E-18-1.83759E-18
 -1      1320 8.72462E-05-4.10674E-06-3.56068E-05 1.89167E-05 2.11356E-18 1.98770E-18
 -1      1321 8.60042E-05-4.16961E-06-3.51427E-05 1.65100E-05 1.95167E-18 1.00982E-19
 -1      1322 8.80395E-05-7.52743E-06-3.45906E-05 1.54444E-05 3.15910E-18 2.19090E-19
 -1      1323 9.33274E-05-6.80182E-06-3.70514E-05 2.49421E-05 1.58925E-18 7.53161E-18
 -1      1324 9.00676E-05-6.44922E-06-3.60029E-05 2.09898E-05 1.63795E-18 4.18440E-18
 -1      1325 9.23299E-05-1.07128E-05-3.50564E-05 1.94893E-05 2.98923E-18 3.66257E-18
 -1      1326 1.23218E-04-2.48430E-05-3.88985E-05 2.82316E-05 5.73441E-19 1.70745E-17
 -1      1327 9.98602E-05-1.43949E-05-3.72675E-05 2.39191E-05 6.85144E-19 1.06000E-17
 -1      1328 1.01510E-04-1.93203E-05-3.53387E-05 2.12400E-05 2.43681E-18 8.65477E-18
 -1      1329 1.02303E-04-2.77226E-05-3.46570E-05 7.26783E-06 1.15739E-18 1.68145E-17
 -1      1330 1.04880E-04-3.01542E-05-3.34403E-05-7.88259E-06-1.75018E-18 6.67504E-18
 -1      1331 9.80582E-05-2.77876E-05-3.06962E-05-4.92499E-06-1.49035E-18 4.65625E-18
 -1      1332 9.53458E-05-2.78024E-05-2.92059E-05-2.42682E-06-1.24800E-18 3.93834E-18
 -1      1333 9.31722E-05-2.75274E-05-2.81851E-05-1.98010E-06-1.19355E-18 2.08254E-18
 -1      1334 9.93649E-05-2.80199E-05-3.09446E-05-7.76044E-06-2.67271E-18 1.38262E-18
 -1      1335 9.15413E-05-2.71855E-05-2.75696E-05-7.66497E-07-9.66709E-19 1.45692E-18
 -1      1336 9.08917E-05-2.71086E-05-2.72880E-05-6.53375E-07-8.48079E-19 1.25837E-19
 -1      1337 9.47017E-05-2.77621E-05-2.88137E-05-2.98483E-06-2.09085E-18 3.21436E-19
 -1      1338 9.02157E-05-2.69461E-05-2.70683E-05-8.01006E-08-6.96804E-19-4.38763E-19
 -1      1339 9.02313E-05-2.69976E-05-2.70603E-05-1.63019E-08-6.41191E-19-1.33933E-18
 -1      1340 9.26318E-05-2.75231E-05-2.79352E-05-8.83924E-07-1.55281E-18-7.32353E-19
 -1      1341 9.00716E-05-2.69582E-05-2.70171E-05 2.84727E-07-4.45907E-19-1.60003E-18
 -1      1342 9.04090E-05-2.70837E-05-2.71157E-05 3.21543E-07-3.32594E-19-2.20690E-18
 -1      1343 9.18428E-05-2.74245E-05-2.76228E-05 1.60046E-07-1.01167E-18-1.54784E-18
 -1      1344 9.05478E-05-2.71251E-05-2.71642E-05 4.94826E-07-3.95787E-19-2.44655E-18
 -1      1345 9.10612E-05-2.72946E-05-2.73145E-05 5.17526E-07-3.60753E-19-2.96705E-18
 -1      1346 9.18193E-05-2.74749E-05-2.75873E-05 7.35304E-07-7.52683E-19-1.97213E-18
 -1      1347 9.13845E-05-2.73878E-05-2.74181E-05 6.27271E-07-3.14838E-19-3.28740E-18
 -1      1348 9.20065E-05-2.75851E-05-2.76001E-05 6.43203E-07-3.86355E-19-3.80821E-18
 -1      1349 9.22617E-05-2.76343E-05-2.77063E-05 1.08081E-06-7.22129E-19-2.55882E-18
 -1      1350 9.24542E-05-2.77137E-05-2.77410E-05 7.23069E-07-3.41177E-19-3.98847E-18
 -1      1351 9.31557E-05-2.79319E-05-2.79468E-05 7.36645E-07-3.69637E-19-4.53015E-18
 -1      1352 9.30064E-05-2.78688E-05-2.79233E-05 1.31320E-06-7.98156E-19-2.79646E-18
 -1      1353 9.36972E-05-2.80875E-05-2.81159E-05 8.05464E-07-4.12962E-19-4.75473E-18
 -1      1354 9.44696E-05-2.83253E-05-2.83431E-05 8.19305E-07-3.81878E-19-5.23949E-18
 -1      1355 9.39665E-05-2.81593E-05-2.82094E-05 1.49547E-06-7.27448E-19-3.30100E-18
 -1      1356 9.50904E-05-2.85042E-05-2.85362E-05 8.86811E-07-3.01626E-19-5.31894E-18
 -1      1357 9.59351E-05-2.87634E-05-2.87849E-05 9.02085E-07-1.66575E-19-5.60960E-18
 -1      1358 9.50984E-05-2.84969E-05-2.85496E-05 1.66220E-06-5.95418E-19-3.52216E-18
 -1      1359 9.66285E-05-2.89643E-05-2.89997E-05 9.70527E-07-2.12785E-19-5.80136E-18
 -1      1360 9.75489E-05-2.92472E-05-2.92706E-05 9.86859E-07-2.21655E-19-6.03582E-18
 -1      1361 9.63821E-05-2.88794E-05-2.89358E-05 1.82819E-06-3.75489E-19-3.69896E-18
 -1      1362 9.83084E-05-2.94692E-05-2.95045E-05 1.05069E-06-1.53593E-19-6.15059E-18
 -1      1363 9.93005E-05-2.97762E-05-2.97959E-05 1.06583E-06-6.73342E-20-6.34768E-18
 -1      1364 9.78052E-05-2.93072E-05-2.93621E-05 1.98996E-06-3.19870E-19-4.38017E-18
 -1      1365 1.00112E-04-3.00166E-05-3.00440E-05 1.11041E-06 2.65077E-19-6.43529E-18
 -1      1366 1.01154E-04-3.03428E-05-3.03488E-05 1.11973E-06 1.66086E-19-5.85965E-18
 -1      1367 9.93493E-05-2.97800E-05-2.98202E-05 2.12386E-06 9.76528E-20-4.70996E-18
 -1      1368 1.01988E-04-3.05950E-05-3.06007E-05 1.11972E-06 2.38133E-20-5.68417E-18
 -1      1369 1.03027E-04-3.09259E-05-3.09026E-05 1.11569E-06-2.08291E-19-5.66316E-18
 -1      1370 1.00974E-04-3.02920E-05-3.02945E-05 2.18260E-06 4.04144E-20-4.39020E-18
 -1      1371 1.03830E-04-3.11764E-05-3.11403E-05 1.03470E-06-3.26252E-19-5.42830E-18
 -1      1372 1.04768E-04-3.14836E-05-3.14102E-05 1.00675E-06-3.81192E-19-5.68903E-18
 -1      1373 1.02603E-04-3.08266E-05-3.07579E-05 2.09273E-06-2.01243E-19-4.08880E-18
 -1      1374 1.05455E-04-3.17095E-05-3.16061E-05 8.00386E-07-3.97392E-19-5.61871E-18
 -1      1375 1.06144E-04-3.19459E-05-3.17999E-05 7.36002E-07-3.69909E-19-6.08766E-18
 -1      1376 1.04102E-04-3.13494E-05-3.11679E-05 1.75744E-06-5.17064E-19-3.44573E-18
 -1      1377 1.06597E-04-3.21126E-05-3.19174E-05 3.62604E-07-2.09525E-19-6.19102E-18
 -1      1378 1.06834E-04-3.22121E-05-3.19780E-05 2.50899E-07-2.15001E-19-6.32331E-18
 -1      1379 1.05277E-04-3.18002E-05-3.14659E-05 1.07229E-06-4.51469E-19-3.89358E-18
 -1      1380 1.06913E-04-3.22737E-05-3.19761E-05-3.06241E-07-6.08980E-19-6.70995E-18
 -1      1381 1.06480E-04-3.21588E-05-3.18437E-05-4.67086E-07-5.67350E-19-7.44787E-18
 -1      1382 1.05870E-04-3.20876E-05-3.15826E-05-3.64593E-08-7.28025E-19-4.17193E-18
 -1      1383 1.06051E-04-3.20640E-05-3.16884E-05-1.16570E-06-3.22799E-20-7.72833E-18
 -1      1384 1.04784E-04-3.16681E-05-3.13219E-05-1.35754E-06-2.41060E-19-7.81062E-18
 -1      1385 1.05602E-04-3.20917E-05-3.14531E-05-1.54477E-06-6.63690E-19-4.11453E-18
 -1      1386 1.03777E-04-3.13778E-05-3.10037E-05-2.06271E-06-1.72765E-19-7.69028E-18
 -1      1387 1.01677E-04-3.06848E-05-3.04109E-05-2.23810E-06-4.00375E-19-7.85893E-18
 -1      1388 1.04253E-04-3.16904E-05-3.10425E-05-3.24743E-06-3.55774E-19-4.41769E-18
 -1      1389 1.00164E-04-3.02022E-05-2.99638E-05-2.71938E-06-1.43261E-19-7.38586E-18
 -1      1390 9.75059E-05-2.92928E-05-2.92279E-05-2.80548E-06 5.15909E-19-6.79471E-18
 -1      1391 1.01798E-04-3.08194E-05-3.03767E-05-4.70745E-06 3.59989E-20-4.48274E-18
 -1      1392 9.57593E-05-2.86972E-05-2.87372E-05-2.80388E-06 4.21922E-19-6.93169E-18
 -1      1393 9.31229E-05-2.77703E-05-2.80188E-05-2.73165E-06-7.72951E-20-6.64744E-18
 -1      1394 9.85604E-05-2.95601E-05-2.95638E-05-5.32455E-06 4.98912E-19-4.14476E-18
 -1      1395 9.15971E-05-2.72254E-05-2.76065E-05-2.10191E-06-2.68165E-19-6.93892E-18
 -1      1396 8.97247E-05-2.65547E-05-2.71022E-05-1.85516E-06-1.20861E-19-7.25034E-18
 -1      1397 9.52666E-05-2.82011E-05-2.87849E-05-4.58683E-06-3.93123E-19-4.03298E-18
 -1      1398 8.89101E-05-2.62557E-05-2.68876E-05-7.06195E-07 1.40416E-19-7.27910E-18
 -1      1399 8.84097E-05-2.60745E-05-2.67537E-05-3.54183E-07-4.53692E-20-7.07634E-18
 -1      1400 9.28910E-05-2.71845E-05-2.82465E-05-2.43005E-06-8.71782E-20-3.95428E-18
 -1      1401 8.86000E-05-2.61443E-05-2.68038E-05 9.44347E-07-2.13121E-19-7.10315E-18
 -1      1402 8.96457E-05-2.65207E-05-2.70846E-05 1.27218E-06 3.53702E-20-6.77284E-18
 -1      1403 9.22547E-05-2.69066E-05-2.81060E-05 5.60841E-07-2.98050E-19-4.42425E-18
 -1      1404 9.07739E-05-2.69308E-05-2.73845E-05 2.26920E-06 5.09480E-19-6.67200E-18
 -1      1405 9.30140E-05-2.77278E-05-2.79904E-05 2.45774E-06 4.36272E-19-6.39600E-18
 -1      1406 9.35963E-05-2.74849E-05-2.84070E-05 3.36181E-06 4.74074E-19-3.60746E-18
 -1      1407 9.46915E-05-2.83174E-05-2.84498E-05 2.86461E-06 2.41343E-19-6.23183E-18
 -1      1408 9.74332E-05-2.92719E-05-2.92012E-05 2.87575E-06 4.80230E-19-5.77224E-18
 -1      1409 9.64362E-05-2.86833E-05-2.90612E-05 5.05302E-06 8.63649E-19-3.53647E-18
 -1      1410 9.91594E-05-2.98471E-05-2.96949E-05 2.68491E-06 7.63342E-19-5.05965E-18
 -1      1411 1.01693E-04-3.07026E-05-3.04014E-05 2.55947E-06 5.51733E-19-4.28318E-18
 -1      1412 9.98475E-05-3.00610E-05-2.98862E-05 5.28129E-06 9.58041E-19-3.70468E-18
 -1      1413 1.03070E-04-3.11282E-05-3.08175E-05 1.97615E-06-5.60196E-19-4.13355E-18
 -1      1414 1.04921E-04-3.17279E-05-3.13445E-05 1.78976E-06-5.39275E-19-4.74603E-18
 -1      1415 1.02912E-04-3.12152E-05-3.06778E-05 4.31010E-06 1.53558E-20-2.95282E-18
 -1      1416 1.05756E-04-3.19556E-05-3.16167E-05 1.07620E-06-8.60139E-19-5.03393E-18
 -1      1417 1.06759E-04-3.22591E-05-3.19109E-05 8.94550E-07-7.39195E-19-5.89010E-18
 -1      1418 1.05047E-04-3.19345E-05-3.12789E-05 2.72351E-06-1.13500E-18-2.84007E-18
 -1      1419 1.07041E-04-3.23057E-05-3.20233E-05 2.50736E-07 9.02222E-20-5.64661E-18
 -1      1420 1.07273E-04-3.23537E-05-3.20990E-05 1.10333E-07 9.16632E-19-4.98062E-18
 -1      1421 1.06073E-04-3.22011E-05-3.16133E-05 1.08324E-06-3.98026E-19-2.34586E-18
 -1      1422 1.07106E-04-3.22662E-05-3.20728E-05-3.64419E-07 1.21359E-18-5.04549E-18
 -1      1423 1.06765E-04-3.21340E-05-3.19822E-05-4.53830E-07 4.48868E-19-3.87990E-18
 -1      1424 1.06108E-04-3.21108E-05-3.16814E-05-2.56177E-07 1.43916E-18-2.87531E-18
 -1      1425 1.06292E-04-3.19639E-05-3.18567E-05-7.42370E-07-5.92010E-19-3.55139E-18
 -1      1426 1.05602E-04-3.17281E-05-3.16617E-05-7.86870E-07-2.72533E-19-4.31925E-18
 -1      1427 1.05412E-04-3.17915E-05-3.15341E-05-1.16267E-06 2.92074E-19-3.45255E-18
 -1      1428 1.04961E-04-3.15184E-05-3.14780E-05-9.17924E-07 1.15802E-19-4.27964E-18
 -1      1429 1.04110E-04-3.12400E-05-3.12332E-05-9.29525E-07 2.69830E-19-3.90266E-18
 -1      1430 1.04269E-04-3.13560E-05-3.12419E-05-1.65579E-06-3.61910E-19-2.95411E-18
 -1      1431 1.03411E-04-3.10220E-05-3.10261E-05-9.47545E-07-1.44380E-19-4.33055E-18
 -1      1432 1.02535E-04-3.07427E-05-3.07715E-05-9.38301E-07-1.59241E-19-4.80522E-18
 -1      1433 1.02921E-04-3.08861E-05-3.08731E-05-1.82603E-06-6.49238E-20-3.38557E-18
 -1      1434 1.01853E-04-3.05362E-05-3.05658E-05-8.85937E-07 1.44515E-19-5.07222E-18
 -1      1435 1.01037E-04-3.02806E-05-3.03269E-05-8.65466E-07 1.77459E-19-4.96008E-18
 -1      1436 1.01546E-04-3.04335E-05-3.04823E-05-1.77855E-06-2.81772E-19-4.61890E-18
 -1      1437 1.00417E-04-3.00966E-05-3.01379E-05-7.76321E-07-1.00170E-19-5.72183E-18
 -1      1438 9.97049E-05-2.98766E-05-2.99283E-05-7.51333E-07-2.88665E-19-5.26882E-18
 -1      1439 1.00259E-04-3.00270E-05-3.01069E-05-1.60454E-06-2.17118E-19-5.15948E-18
 -1      1440 9.91701E-05-2.97199E-05-2.97640E-05-6.48760E-07-3.49370E-19-4.08351E-18
 -1      1441 9.85771E-05-2.95389E-05-2.95889E-05-6.23459E-07 6.94054E-20-4.84999E-18
 -1      1442 9.91217E-05-2.96789E-05-2.97694E-05-1.37177E-06 5.93750E-21-4.34841E-18
 -1      1443 9.81334E-05-2.94102E-05-2.94519E-05-5.22050E-07 4.00250E-19-4.39015E-18
 -1      1444 9.76584E-05-2.92666E-05-2.93112E-05-4.98784E-07-1.70728E-19-4.59965E-18
 -1      1445 9.81602E-05-2.93917E-05-2.94801E-05-1.12523E-06 3.19259E-19-3.43507E-18
 -1      1446 9.73022E-05-2.91641E-05-2.92009E-05-4.06606E-07-2.46297E-19-4.18679E-18
 -1      1447 9.69342E-05-2.90539E-05-2.90915E-05-3.86467E-07-3.78878E-19-4.46523E-18
 -1      1448 9.73756E-05-2.91619E-05-2.92415E-05-8.91742E-07-2.03657E-19-2.24525E-18
 -1      1449 9.66566E-05-2.89745E-05-2.90054E-05-3.07153E-07-8.15439E-19-5.27592E-18
 -1      1450 9.63802E-05-2.88925E-05-2.89230E-05-2.90447E-07-1.55249E-19-5.64830E-18
 -1      1451 9.67545E-05-2.89831E-05-2.90509E-05-6.85113E-07-1.22315E-18-3.16484E-18
 -1      1452 9.61700E-05-2.88326E-05-2.88577E-05-2.24831E-07 5.18795E-19-5.42206E-18
 -1      1453 9.59692E-05-2.87736E-05-2.87976E-05-2.11407E-07 4.84875E-19-5.06105E-18
 -1      1454 9.62767E-05-2.88475E-05-2.89032E-05-5.10565E-07 3.27031E-19-2.54240E-18
 -1      1455 9.58146E-05-2.87297E-05-2.87496E-05-1.58693E-07 4.75152E-19-3.90773E-18
 -1      1456 9.56742E-05-2.86889E-05-2.87074E-05-1.48159E-07 9.99101E-19-3.39068E-18
 -1      1457 9.59195E-05-2.87476E-05-2.87919E-05-3.68075E-07 1.35468E-18-2.39744E-18
 -1      1458 9.55646E-05-2.86579E-05-2.86734E-05-1.06700E-07 1.36590E-18-3.40436E-18
 -1      1459 9.54716E-05-2.86312E-05-2.86453E-05-9.85569E-08 8.49431E-19-2.25897E-18
 -1      1460 9.56606E-05-2.86761E-05-2.87108E-05-2.54683E-07 1.61264E-18-1.36552E-18
 -1      1461 9.53974E-05-2.86102E-05-2.86224E-05-6.63659E-08 4.12300E-19-1.75742E-18
 -1      1462 9.53411E-05-2.85945E-05-2.86053E-05-6.00838E-08 1.34088E-19-1.61208E-18
 -1      1463 9.54802E-05-2.86270E-05-2.86538E-05-1.66023E-07 1.30441E-18-2.86823E-19
 -1      1464 9.52942E-05-2.85812E-05-2.85909E-05-3.51979E-08-2.59127E-19-1.61535E-18
 -1      1465 9.52664E-05-2.85739E-05-2.85823E-05-3.02877E-08-1.69190E-19-1.69015E-18
 -1      1466 9.53611E-05-2.85951E-05-2.86159E-05-9.73605E-08 1.55276E-19-5.46219E-19
 -1      1467 9.52402E-05-2.85666E-05-2.85743E-05-1.13522E-08 1.28973E-18-1.34620E-18
 -1      1468 9.52341E-05-2.85660E-05-2.85718E-05-7.50895E-09 1.39627E-18 5.58051E-19
 -1      1469 9.52890E-05-2.85764E-05-2.85925E-05-4.46421E-08 7.12305E-19-1.57601E-18
 -1      1470 9.52220E-05-2.85625E-05-2.85680E-05 5.36714E-09 4.77921E-19 1.22229E-18
 -1      1471 9.52310E-05-2.85681E-05-2.85688E-05 8.31727E-09-2.12073E-19 1.50931E-18
 -1      1472 9.52514E-05-2.85684E-05-2.85793E-05-6.44571E-09 1.72005E-18-1.47431E-18
 -1      1473 9.52316E-05-2.85744E-05-2.85650E-05 7.38280E-09-1.71347E-18 1.67355E-18
 -1      1474 9.52397E-05-2.85763E-05-2.85696E-05 1.21412E-08-1.28441E-18 1.53562E-19
 -1      1475 9.63688E-05-2.83026E-05-2.97071E-05 2.94468E-06 1.18029E-18 1.41829E-17
 -1      1476 1.02265E-04-2.93189E-05-3.20725E-05 4.40716E-06 1.00929E-18 1.58564E-17
 -1      1477 1.02125E-04-2.66713E-05-3.26398E-05 1.26674E-05 1.92981E-18 1.09369E-17
 -1      1478 9.19297E-05-2.73978E-05-2.77313E-05 1.09918E-06 8.93090E-19 1.17647E-17
 -1      1479 9.38212E-05-2.75372E-05-2.86278E-05 1.42173E-06 8.87293E-19 1.31897E-17
 -1      1480 9.63795E-05-2.79995E-05-2.95010E-05 4.76492E-06 1.78787E-18 9.15027E-18
 -1      1481 9.02250E-05-2.70091E-05-2.70726E-05 2.65074E-07 7.19641E-19 9.99502E-18
 -1      1482 9.07753E-05-2.70071E-05-2.73249E-05 4.31221E-07 6.06323E-19 1.09962E-17
 -1      1483 9.30489E-05-2.75768E-05-2.81031E-05 1.73416E-06 1.38362E-18 7.59316E-18
 -1      1484 8.98794E-05-2.69402E-05-2.69499E-05-1.47758E-07 5.06986E-19 8.59872E-18
 -1      1485 8.98292E-05-2.68505E-05-2.69510E-05-5.24775E-08 5.40104E-19 9.43265E-18
 -1      1486 9.16425E-05-2.73450E-05-2.75661E-05 3.62143E-07 1.09169E-18 6.28505E-18
 -1      1487 9.02527E-05-2.70624E-05-2.70656E-05-3.74850E-07 2.70296E-19 7.69974E-18
 -1      1488 8.98993E-05-2.69153E-05-2.69623E-05-3.14914E-07 2.48237E-19 8.09806E-18
 -1      1489 9.13109E-05-2.73190E-05-2.74328E-05-3.50370E-07 7.00731E-19 5.37812E-18
 -1      1490 9.10472E-05-2.73041E-05-2.73083E-05-5.14635E-07 2.99443E-19 6.90315E-18
 -1      1491 9.05210E-05-2.71196E-05-2.71521E-05-4.72770E-07 2.81720E-19 7.27870E-18
 -1      1492 9.16064E-05-2.74393E-05-2.75090E-05-7.60828E-07 5.34284E-19 4.52549E-18
 -1      1493 9.21219E-05-2.76264E-05-2.76342E-05-6.16717E-07 3.26182E-19 6.23508E-18
 -1      1494 9.14796E-05-2.74143E-05-2.74432E-05-5.82988E-07 2.53822E-19 6.61661E-18
 -1      1495 9.22969E-05-2.76595E-05-2.77109E-05-1.02843E-06 5.14738E-19 3.90587E-18
 -1      1496 9.34220E-05-2.80134E-05-2.80279E-05-7.11369E-07 2.29854E-19 5.61457E-18
 -1      1497 9.26804E-05-2.77750E-05-2.78068E-05-6.78836E-07 2.70764E-19 5.97040E-18
 -1      1498 9.32684E-05-2.79530E-05-2.80019E-05-1.23872E-06 5.36431E-19 3.33505E-18
 -1      1499 9.49473E-05-2.84656E-05-2.84901E-05-8.20013E-07 2.95224E-19 5.00314E-18
 -1      1500 9.40973E-05-2.81953E-05-2.82360E-05-7.83134E-07 2.04376E-19 5.39338E-18
 -1      1501 9.44772E-05-2.83099E-05-2.83681E-05-1.44581E-06 4.65498E-19 2.83644E-18
 -1      1502 9.67371E-05-2.89948E-05-2.90328E-05-9.59240E-07 2.61172E-19 4.55984E-18
 -1      1503 9.57500E-05-2.86819E-05-2.87371E-05-9.13173E-07 2.38279E-19 4.76096E-18
 -1      1504 9.59251E-05-2.87323E-05-2.88097E-05-1.68841E-06 4.95753E-19 2.37610E-18
 -1      1505 9.88602E-05-2.96224E-05-2.96766E-05-1.14194E-06 2.54251E-19 3.95549E-18
 -1      1506 9.76919E-05-2.92513E-05-2.93264E-05-1.08234E-06 1.77735E-19 4.35202E-18
 -1      1507 9.76465E-05-2.92317E-05-2.93366E-05-1.99595E-06 3.33939E-19 2.64014E-18
 -1      1508 1.01405E-04-3.03757E-05-3.04475E-05-1.37615E-06-2.02802E-19 4.20223E-18
 -1      1509 1.00001E-04-2.99280E-05-3.00271E-05-1.29951E-06-1.13923E-19 3.81969E-18
 -1      1510 9.96980E-05-2.98267E-05-2.99650E-05-2.38909E-06 3.86426E-20 2.26467E-18
 -1      1511 1.04465E-04-3.12852E-05-3.13724E-05-1.66083E-06 4.26180E-20 4.32320E-18
 -1      1512 1.02768E-04-3.07417E-05-3.08656E-05-1.56569E-06-2.42794E-20 4.25053E-18
 -1      1513 1.02147E-04-3.05405E-05-3.07135E-05-2.87542E-06-3.23659E-20 2.20584E-18
 -1      1514 1.08109E-04-3.23762E-05-3.24690E-05-1.97681E-06 9.97050E-20 4.01339E-18
 -1      1515 1.06076E-04-3.17225E-05-3.18650E-05-1.86655E-06 1.67398E-19 4.32008E-18
 -1      1516 1.05053E-04-3.13976E-05-3.15968E-05-3.43788E-06 1.42609E-19 2.20160E-18
 -1      1517 1.12330E-04-3.36560E-05-3.37288E-05-2.27055E-06-4.60526E-19 4.24778E-18
 -1      1518 1.09965E-04-3.28931E-05-3.30324E-05-2.15873E-06 4.97301E-21 4.04102E-18
 -1      1519 1.08443E-04-3.24183E-05-3.26146E-05-4.01286E-06 1.34121E-19 2.58994E-18
 -1      1520 1.16956E-04-3.50877E-05-3.50881E-05-2.42961E-06-2.31721E-19 4.64574E-18
 -1      1521 1.14366E-04-3.42512E-05-3.43376E-05-2.34864E-06-4.33977E-19 4.18935E-18
 -1      1522 1.12257E-04-3.36073E-05-3.37348E-05-4.45462E-06-4.84859E-19 2.74530E-18
 -1      1523 1.21518E-04-3.65498E-05-3.63892E-05-2.25675E-06 4.59327E-19 4.33514E-18
 -1      1524 1.18997E-04-3.57399E-05-3.56804E-05-2.26840E-06 3.98597E-19 4.70506E-18
 -1      1525 1.16275E-04-3.49339E-05-3.48694E-05-4.49072E-06 3.21886E-19 2.34907E-18
 -1      1526 1.25101E-04-3.77797E-05-3.73462E-05-1.47164E-06-1.64999E-19 3.66853E-18
 -1      1527 1.23225E-04-3.71964E-05-3.68540E-05-1.67027E-06-1.66429E-20 3.82176E-18
 -1      1528 1.20028E-04-3.62945E-05-3.58520E-05-3.69743E-06 6.20425E-19 2.98145E-18
 -1      1529 1.26312E-04-3.83289E-05-3.75624E-05 1.90681E-07-1.54451E-20 4.09030E-18
 -1      1530 1.25958E-04-3.82852E-05-3.75299E-05-2.93884E-07-9.88911E-20 4.03624E-18
 -1      1531 1.22709E-04-3.74508E-05-3.64379E-05-1.57666E-06-3.19821E-19 2.91213E-18
 -1      1532 1.23595E-04-3.76125E-05-3.66662E-05 2.69234E-06-6.74999E-19 4.77626E-18
 -1      1533 1.25710E-04-3.84594E-05-3.73175E-05 1.91266E-06-3.68764E-19 4.48260E-18
 -1      1534 1.23219E-04-3.79637E-05-3.63657E-05 2.12433E-06-5.74646E-19 3.65281E-18
 -1      1535 1.16201E-04-3.52112E-05-3.45977E-05 5.25238E-06 4.18289E-20 5.72139E-18
 -1      1536 1.21160E-04-3.70894E-05-3.59554E-05 4.40776E-06-2.39657E-19 5.38469E-18
 -1      1537 1.20518E-04-3.72270E-05-3.55078E-05 6.76830E-06-7.42001E-19 4.54237E-18
 -1      1538 1.05682E-04-3.15019E-05-3.19035E-05 6.22977E-06 6.15105E-19 5.30412E-18
 -1      1539 1.12360E-04-3.39597E-05-3.36046E-05 5.83157E-06 4.18034E-19 6.08646E-18
 -1      1540 1.14497E-04-3.48247E-05-3.40527E-05 1.02517E-05 3.85302E-19 5.32728E-18
 -1      1541 9.64978E-05-2.81042E-05-2.96982E-05 4.14308E-06 3.99627E-19 3.90217E-18
 -1      1542 1.02027E-04-2.99894E-05-3.10321E-05 4.64928E-06 3.53332E-19 4.18307E-18
 -1      1543 1.07056E-04-3.13308E-05-3.25604E-05 9.64462E-06 1.00140E-18 3.95752E-18
 -1      1544 9.38785E-05-2.71463E-05-2.90624E-05-4.81942E-07 3.73250E-19 2.98435E-18
 -1      1545 9.51489E-05-2.72761E-05-2.93642E-05 7.72137E-07 1.56172E-20 2.97314E-18
 -1      1546 1.02000E-04-2.86495E-05-3.17006E-05 3.79224E-06 4.50119E-19 1.33352E-18
 -1      1547 9.95361E-05-2.93169E-05-3.03427E-05-4.81358E-06-5.46098E-19 2.89601E-18
 -1      1548 9.57462E-05-2.75849E-05-2.94421E-05-3.60854E-06 4.18117E-19 2.88822E-18
 -1      1549 1.02554E-04-2.87967E-05-3.18680E-05-4.39440E-06 1.65039E-19 9.33563E-19
 -1      1550 1.10015E-04-3.31367E-05-3.28882E-05-6.29932E-06-1.82231E-19 3.36770E-18
 -1      1551 1.03414E-04-3.06301E-05-3.12503E-05-5.82092E-06-6.36095E-19 2.71527E-18
 -1      1552 1.08355E-04-3.17132E-05-3.29831E-05-9.88859E-06-3.68009E-19 1.49951E-18
 -1      1553 1.19853E-04-3.64757E-05-3.54928E-05-4.86397E-06 5.81938E-19 2.61288E-18
 -1      1554 1.13748E-04-3.44515E-05-3.38874E-05-5.11949E-06 7.72719E-19 3.53679E-18
 -1      1555 1.15827E-04-3.52908E-05-3.45339E-05-1.01259E-05 5.28754E-19 1.46174E-18
 -1      1556 1.25575E-04-3.82047E-05-3.72006E-05-2.19177E-06 1.25566E-19 1.64091E-18
 -1      1557 1.22016E-04-3.72345E-05-3.61865E-05-2.76516E-06 3.99826E-20 2.10699E-18
 -1      1558 1.21372E-04-3.75833E-05-3.58664E-05-6.49606E-06 6.10128E-19 1.50216E-18
 -1      1559 1.26702E-04-3.83652E-05-3.77036E-05 1.81688E-07 8.88524E-19-6.75310E-20
 -1      1560 1.25932E-04-3.83460E-05-3.74216E-05-3.46523E-07 8.64754E-19 1.66087E-18
 -1      1561 1.23506E-04-3.81319E-05-3.65344E-05-1.91208E-06 1.20719E-18 4.52180E-19
 -1      1562 1.24481E-04-3.75064E-05-3.72145E-05 1.65030E-06-2.75418E-19-6.49608E-19
 -1      1563 1.25708E-04-3.80693E-05-3.75046E-05 1.30981E-06-4.56339E-20-6.20323E-19
 -1      1564 1.22596E-04-3.74589E-05-3.64460E-05 1.65430E-06 4.36262E-19-9.11831E-19
 -1      1565 1.20499E-04-3.61789E-05-3.61379E-05 2.27241E-06-5.70703E-19 1.39019E-19
 -1      1566 1.22748E-04-3.69822E-05-3.67492E-05 2.11173E-06-3.04707E-19-2.09958E-19
 -1      1567 1.19742E-04-3.62146E-05-3.57739E-05 3.65093E-06-4.83219E-19-6.47054E-19
 -1      1568 1.15981E-04-3.47541E-05-3.48397E-05 2.33715E-06-8.04778E-20 1.05734E-18
 -1      1569 1.18516E-04-3.55801E-05-3.55601E-05 2.29696E-06-2.71663E-19 5.91600E-19
 -1      1570 1.16015E-04-3.48392E-05-3.47787E-05 4.35237E-06-5.90568E-19-6.98273E-19
 -1      1571 1.11660E-04-3.34312E-05-3.35612E-05 2.11298E-06 7.75949E-19-4.38207E-19
 -1      1572 1.14055E-04-3.41723E-05-3.42580E-05 2.13777E-06 7.95354E-19 8.08784E-19
 -1      1573 1.12162E-04-3.35512E-05-3.36872E-05 4.24953E-06 9.08537E-19-1.11661E-18
 -1      1574 1.07881E-04-3.22946E-05-3.24259E-05 1.77850E-06 7.83208E-20-1.07269E-18
 -1      1575 1.09948E-04-3.29128E-05-3.30352E-05 1.83105E-06 1.27131E-19-4.32252E-19
 -1      1576 1.08611E-04-3.24364E-05-3.26467E-05 3.75176E-06 4.54731E-19-5.99074E-19
 -1      1577 1.04753E-04-3.13634E-05-3.14782E-05 1.43199E-06 7.69993E-19-2.46891E-18
 -1      1578 1.06442E-04-3.18566E-05-3.19800E-05 1.49141E-06 8.07305E-19-1.17838E-18
 -1      1579 1.05550E-04-3.15138E-05-3.17321E-05 3.12103E-06 7.28581E-19-2.16344E-18
 -1      1580 1.02254E-04-3.06244E-05-3.07179E-05 1.11887E-06 3.94889E-19-3.37945E-18
 -1      1581 1.03587E-04-3.10066E-05-3.11156E-05 1.17501E-06 3.91069E-19-2.63791E-18
 -1      1582 1.03027E-04-3.07724E-05-3.09689E-05 2.49806E-06 8.79521E-19-1.84945E-18
 -1      1583 1.00310E-04-3.00516E-05-3.01248E-05 8.54926E-07 9.92319E-20-2.56912E-18
 -1      1584 1.01334E-04-3.03413E-05-3.04316E-05 9.03722E-07-5.30666E-19-2.87692E-18
 -1      1585 1.01008E-04-3.01894E-05-3.03540E-05 1.94585E-06-2.78002E-19-1.38839E-18
 -1      1586 9.88271E-05-2.96159E-05-2.96720E-05 6.41304E-07 4.16599E-19-3.46263E-18
 -1      1587 9.95993E-05-2.98317E-05-2.99037E-05 6.81798E-07 8.10726E-19-2.62275E-18
 -1      1588 9.94320E-05-2.97389E-05-2.98714E-05 1.48426E-06 8.33447E-19-1.79251E-18
 -1      1589 9.77162E-05-2.92903E-05-2.93324E-05 4.72878E-07-7.45263E-19-3.39213E-18
 -1      1590 9.82880E-05-2.94482E-05-2.95043E-05 5.05533E-07-3.41966E-19-4.05580E-18
 -1      1591 9.82240E-05-2.93964E-05-2.95002E-05 1.11199E-06 2.15835E-19-2.50597E-18
 -1      1592 9.68981E-05-2.90509E-05-2.90822E-05 3.42510E-07-1.40960E-18-2.11235E-18
 -1      1593 9.73142E-05-2.91645E-05-2.92075E-05 3.68339E-07-8.74869E-19-3.17872E-18
 -1      1594 9.73143E-05-2.91400E-05-2.92199E-05 8.18837E-07-1.13495E-18-1.84373E-18
 -1      1595 9.63068E-05-2.88783E-05-2.89013E-05 2.43008E-07-2.16218E-19 1.20741E-19
 -1      1596 9.66037E-05-2.89582E-05-2.89908E-05 2.63158E-07-9.85120E-19-1.50934E-18
 -1      1597 9.66410E-05-2.89512E-05-2.90119E-05 5.91949E-07-1.80929E-18-9.27843E-19
 -1      1598 9.58889E-05-2.87565E-05-2.87732E-05 1.67910E-07 1.87119E-19-6.60697E-20
 -1      1599 9.60956E-05-2.88112E-05-2.88357E-05 1.83477E-07 1.09988E-19 1.12862E-19
 -1      1600 9.61519E-05-2.88148E-05-2.88605E-05 4.18681E-07-1.69728E-19-8.77906E-19
 -1      1601 9.56020E-05-2.86731E-05-2.86852E-05 1.11697E-07 5.23281E-19-1.13767E-18
 -1      1602 9.57411E-05-2.87091E-05-2.87274E-05 1.23668E-07 1.07472E-18-2.56686E-19
 -1      1603 9.58045E-05-2.87186E-05-2.87526E-05 2.87746E-07 1.61910E-18-1.28238E-18
 -1      1604 9.54136E-05-2.86185E-05-2.86274E-05 6.97794E-08 5.09069E-19-1.57817E-18
 -1      1605 9.55024E-05-2.86407E-05-2.86544E-05 7.90174E-08-1.87733E-19-1.61375E-18
 -1      1606 9.55650E-05-2.86527E-05-2.86780E-05 1.89517E-07 4.43923E-19-1.66372E-18
 -1      1607 9.52990E-05-2.85856E-05-2.85922E-05 3.84099E-08 1.04990E-18-3.33970E-18
 -1      1608 9.53502E-05-2.85973E-05-2.86078E-05 4.56613E-08 1.81282E-18-1.18855E-18
 -1      1609 9.54069E-05-2.86096E-05-2.86286E-05 1.15993E-07 1.46417E-18-3.35535E-18
 -1      1610 9.52397E-05-2.85688E-05-2.85738E-05 1.47844E-08 2.69197E-19-4.61495E-18
 -1      1611 9.52626E-05-2.85727E-05-2.85810E-05 2.06715E-08-2.77281E-20-3.93251E-18
 -1      1612 9.53098E-05-2.85836E-05-2.85980E-05 6.08759E-08 7.41145E-19-1.97917E-18
 -1      1613 9.52210E-05-2.85642E-05-2.85673E-05-2.83987E-09-7.53508E-19-5.34503E-18
 -1      1614 9.52229E-05-2.85622E-05-2.85685E-05 2.16781E-09 3.40735E-19-4.75887E-18
 -1      1615 9.52576E-05-2.85702E-05-2.85812E-05 1.98822E-08 1.72476E-19-1.50045E-18
 -1      1616 9.52282E-05-2.85692E-05-2.85668E-05-1.17828E-08-4.65038E-19-3.78037E-18
 -1      1617 9.52173E-05-2.85633E-05-2.85653E-05-8.83242E-09-9.81452E-19-5.70872E-18
 -1      1618 9.52372E-05-2.85680E-05-2.85728E-05-8.02884E-09-7.88392E-19-2.25466E-18
 -1      1619 9.52322E-05-2.85754E-05-2.85648E-05-7.34632E-09-1.74908E-18-1.56244E-18
 -1      1620 9.52462E-05-2.85885E-05-2.85679E-05-5.49574E-09-1.01862E-18-5.67351E-19
 -1      1621 9.52418E-05-2.85805E-05-2.85684E-05-7.68106E-09-1.44796E-18 1.13022E-18
 -1      1622 9.52427E-05-2.85732E-05-2.85733E-05 1.09244E-08 1.49301E-20-5.80224E-19
 -1      1623 9.52441E-05-2.85791E-05-2.85710E-05 7.14375E-09 4.27006E-19-1.95941E-19
 -1      1624 9.52424E-05-2.85620E-05-2.85779E-05 4.75307E-09 1.77712E-19 4.48617E-19
 -1      1625 9.52292E-05-2.85329E-05-2.85846E-05 2.70239E-08-1.21446E-18-1.60584E-18
 -1      1626 9.52363E-05-2.85541E-05-2.85785E-05 2.39733E-08 9.07573E-19-1.17114E-18
 -1      1627 9.52336E-05-2.85323E-05-2.85872E-05 3.59671E-08 6.54644E-19-1.12181E-18
 -1      1628 9.52095E-05-2.84750E-05-2.86008E-05 3.66361E-08-8.89848E-20 3.27506E-19
 -1      1629 9.52200E-05-2.85062E-05-2.85919E-05 3.52848E-08-1.49046E-18 2.33581E-19
 -1      1630 9.52166E-05-2.84849E-05-2.85999E-05 6.16194E-08 3.40757E-21-9.87389E-19
 -1      1631 9.51886E-05-2.84132E-05-2.86181E-05 3.76029E-08-2.00239E-18-9.91236E-19
 -1      1632 9.51997E-05-2.84461E-05-2.86088E-05 3.80771E-08-8.52227E-19-1.43408E-18
 -1      1633 9.51953E-05-2.84277E-05-2.86147E-05 7.30168E-08-1.35624E-18-1.23208E-18
 -1      1634 9.51703E-05-2.83589E-05-2.86335E-05 3.01574E-08-1.66490E-18 2.10090E-19
 -1      1635 9.51796E-05-2.83867E-05-2.86256E-05 3.22504E-08-1.76302E-18-4.44605E-19
 -1      1636 9.51744E-05-2.83710E-05-2.86295E-05 6.79819E-08-1.00379E-18-1.36923E-18
 -1      1637 9.51588E-05-2.83245E-05-2.86432E-05 1.62188E-08-1.56378E-18-3.89050E-19
 -1      1638 9.51641E-05-2.83404E-05-2.86387E-05 1.93865E-08-2.18372E-18 1.37027E-18
 -1      1639 9.51575E-05-2.83252E-05-2.86414E-05 4.81023E-08-8.35363E-19 6.83778E-19
 -1      1640 9.51563E-05-2.83169E-05-2.86454E-05-1.04958E-09-3.99964E-19 1.25581E-18
 -1      1641 9.51565E-05-2.83177E-05-2.86452E-05 2.49651E-09-2.02055E-18 4.77744E-19
 -1      1642 9.51481E-05-2.82996E-05-2.86481E-05 1.81193E-08-3.75194E-19-1.49920E-19
 -1      1643 9.51632E-05-2.83376E-05-2.86395E-05-1.79820E-08-2.05515E-18-1.33618E-18
 -1      1644 9.51584E-05-2.83231E-05-2.86437E-05-1.48032E-08-9.28724E-19 1.27302E-18
 -1      1645 9.51479E-05-2.82990E-05-2.86483E-05-1.54586E-08-1.11004E-18 7.63124E-19
 -1      1646 9.51781E-05-2.83820E-05-2.86269E-05-3.10110E-08-5.04001E-18-2.82760E-18
 -1      1647 9.51692E-05-2.83554E-05-2.86345E-05-2.88854E-08-1.58344E-18-2.99351E-18
 -1      1648 9.51569E-05-2.83234E-05-2.86419E-05-4.56089E-08-1.62303E-18-2.93291E-18
 -1      1649 9.51975E-05-2.84395E-05-2.86107E-05-3.72228E-08-5.88478E-18 1.34789E-18
 -1      1650 9.51867E-05-2.84075E-05-2.86198E-05-3.66339E-08-5.44811E-18-1.21644E-18
 -1      1651 9.51731E-05-2.83676E-05-2.86304E-05-6.58872E-08-1.22031E-18-2.90499E-18
 -1      1652 9.52178E-05-2.84996E-05-2.85938E-05-3.51586E-08-4.04385E-18 3.90212E-19
 -1      1653 9.52074E-05-2.84686E-05-2.86026E-05-3.63424E-08-5.71987E-18 2.61014E-18
 -1      1654 9.51937E-05-2.84233E-05-2.86159E-05-7.19523E-08-2.46109E-18 2.12460E-18
 -1      1655 9.52342E-05-2.85483E-05-2.85802E-05-2.46485E-08-2.15004E-18 1.97954E-18
 -1      1656 9.52270E-05-2.85263E-05-2.85865E-05-2.75201E-08-3.78714E-18 1.35965E-18
 -1      1657 9.52149E-05-2.84807E-05-2.86009E-05-6.19770E-08-1.44705E-18 1.18098E-18
 -1      1658 9.52436E-05-2.85754E-05-2.85723E-05-9.19416E-09-1.65047E-18-4.16394E-19
 -1      1659 9.52405E-05-2.85674E-05-2.85748E-05-1.30436E-08-1.90408E-18 8.28631E-19
 -1      1660 9.52313E-05-2.85278E-05-2.85882E-05-3.78210E-08-1.91872E-19 1.01635E-18
 -1      1661 9.52427E-05-2.85747E-05-2.85714E-05 3.52800E-09-1.54876E-18-1.25637E-18
 -1      1662 9.52455E-05-2.85792E-05-2.85718E-05 4.26427E-10-1.03369E-18-1.15953E-18
 -1      1663 9.52438E-05-2.85516E-05-2.85821E-05-1.46620E-08-1.66892E-20-8.99266E-19
 -1      1664 9.52451E-05-2.85610E-05-2.85780E-05 1.39931E-09 4.19328E-19-1.16459E-18
 -1      1665 2.11545E-05-6.99372E-05 1.45730E-05-8.08149E-06 7.89943E-18 2.52331E-18
 -1      1666 2.40608E-05-7.78010E-05 1.62509E-05 3.16905E-07 5.60455E-18 1.85881E-18
 -1      1667 1.88725E-05-4.48670E-05 6.15925E-06-2.35396E-06 8.91672E-18 3.24763E-18
 -1      1668 2.38762E-05-6.52959E-05 1.12485E-05-3.88473E-06 8.06629E-18 2.80220E-18
 -1      1669 3.17347E-05-1.67506E-05-9.08003E-06 2.22504E-05 9.32244E-18 6.97913E-18
 -1      1670 2.79844E-05-3.87919E-05-5.22855E-07 5.96657E-06 8.78881E-18 4.68706E-18
 -1      1671 6.86454E-05-2.84482E-06-2.80816E-05 5.43714E-05 8.05020E-18 6.95075E-18
 -1      1672 4.64913E-05-1.15170E-05-1.80173E-05 3.07316E-05 9.11492E-18 6.83725E-18
 -1      1673 1.33691E-04-1.46960E-05-4.78180E-05 7.67742E-05 4.40457E-18 1.84907E-18
 -1      1674 9.23749E-05-4.49364E-06-3.77922E-05 6.07710E-05 7.06680E-18 5.03222E-18
 -1      1675 2.08736E-04-4.35180E-05-6.50241E-05 6.84007E-05 1.04016E-18-3.39491E-18
 -1      1676 1.60534E-04-2.09114E-05-5.67379E-05 7.54696E-05 3.03238E-18 3.93870E-19
 -1      1677 2.52899E-04-6.32497E-05-7.44537E-05 2.51789E-05 1.12719E-18-8.11839E-18
 -1      1678 2.25814E-04-4.86251E-05-7.04494E-05 5.32591E-05 8.54233E-19-5.09152E-18
 -1      1679 2.58618E-04-6.48602E-05-7.60008E-05-2.40712E-05 3.13190E-18-1.28349E-17
 -1      1680 2.62355E-04-6.70444E-05-7.65425E-05 1.11822E-05 1.57400E-18-9.83797E-18
 -1      1681 2.15251E-04-4.38086E-05-6.83186E-05-6.16373E-05 6.44825E-18-1.63960E-17
 -1      1682 2.47922E-04-6.10477E-05-7.31926E-05-3.77463E-05 4.43697E-18-1.39324E-17
 -1      1683 1.48660E-04-1.69950E-05-5.39437E-05-7.45480E-05 1.07065E-17-1.73498E-17
 -1      1684 1.95169E-04-3.71787E-05-6.22175E-05-7.27792E-05 8.14359E-18-1.73388E-17
 -1      1685 8.99868E-05-1.07314E-05-3.45340E-05-5.25044E-05 1.15281E-17-1.39693E-17
 -1      1686 1.27706E-04-1.76943E-05-4.46743E-05-6.91368E-05 1.01009E-17-1.65324E-17
 -1      1687 4.28109E-05-1.39549E-05-1.57011E-05-2.73340E-05 1.24471E-17-1.06455E-17
 -1      1688 6.14806E-05-3.99593E-06-2.51417E-05-4.93090E-05 1.29257E-17-1.38651E-17
 -1      1689 2.81883E-05-4.29130E-05 1.25154E-06-5.50372E-06 7.32938E-18-6.64159E-18
 -1      1690 3.06315E-05-2.00148E-05-7.23358E-06-2.00147E-05 1.10716E-17-9.42070E-18
 -1      1691 2.41308E-05-6.68559E-05 1.23903E-05 3.15027E-07-1.13841E-18-3.83049E-18
 -1      1692 1.93269E-05-4.74570E-05 7.49375E-06 6.33142E-07 4.90686E-18-6.42242E-18
 -1      1693 2.26665E-05-7.50051E-05 1.61420E-05-2.40255E-06-6.61332E-18-1.74023E-18
 -1      1694 2.12207E-05-7.15400E-05 1.54570E-05 7.15152E-06-2.65566E-18-2.09810E-18
 -1      1695 1.92884E-05-5.79295E-05 1.13595E-05-2.99257E-06-1.12418E-17-4.65953E-18
 -1      1696 2.36270E-05-7.23953E-05 1.47042E-05 2.30585E-06-7.96846E-18-2.79309E-18
 -1      1697 2.16205E-05-3.02608E-05 1.15259E-07 9.05078E-06-1.51263E-17-9.92680E-18
 -1      1698 2.45739E-05-5.31674E-05 6.73050E-06 1.98316E-06-1.21829E-17-6.41474E-18
 -1      1699 3.95171E-05-5.90372E-06-1.57597E-05 3.50888E-05-1.57870E-17-1.10072E-17
 -1      1700 3.09103E-05-2.36060E-05-7.11670E-06 1.60662E-05-1.63816E-17-9.76925E-18
 -1      1701 8.13200E-05-7.34600E-07-3.33513E-05 6.38544E-05-1.23286E-17-1.15290E-17
 -1      1702 5.63454E-05-3.49399E-06-2.43041E-05 4.33389E-05-1.49916E-17-1.14697E-17
 -1      1703 1.42777E-04-1.59164E-05-5.07229E-05 7.90160E-05-8.36403E-18-1.03609E-17
 -1      1704 1.03163E-04-3.16524E-06-4.19623E-05 6.83075E-05-1.12740E-17-1.16916E-17
 -1      1705 2.05495E-04-4.19026E-05-6.46860E-05 6.70531E-05-4.51257E-18-5.28125E-18
 -1      1706 1.65753E-04-2.22659E-05-5.81160E-05 7.60121E-05-6.84403E-18-8.69733E-18
 -1      1707 2.45226E-04-6.07805E-05-7.28448E-05 2.75457E-05-2.71220E-18-3.48131E-19
 -1      1708 2.21189E-04-4.72566E-05-6.93674E-05 5.47058E-05-3.65087E-18-3.94802E-18
 -1      1709 2.47012E-04-6.07058E-05-7.38836E-05-2.21600E-05-2.96694E-18 5.59486E-18
 -1      1710 2.50384E-04-6.25917E-05-7.43245E-05 1.18339E-05-2.86763E-18 1.54573E-18
 -1      1711 2.07507E-04-4.08520E-05-6.68406E-05-6.00893E-05-5.14694E-18 9.30889E-18
 -1      1712 2.37235E-04-5.70328E-05-7.13129E-05-3.61475E-05-2.55465E-18 6.83005E-18
 -1      1713 1.48721E-04-1.57784E-05-5.42169E-05-7.66016E-05-8.28483E-18 1.25081E-17
 -1      1714 1.90165E-04-3.51227E-05-6.14927E-05-7.26515E-05-6.73243E-18 1.08158E-17
 -1      1715 8.85159E-05-1.08519E-06-3.73057E-05-6.24554E-05-5.56331E-18 1.02423E-17
 -1      1716 1.25489E-04-1.01845E-05-4.63564E-05-7.71919E-05-6.73899E-18 1.46325E-17
 -1      1717 4.79747E-05-1.16614E-05-1.80452E-05-3.30152E-05-4.23771E-18 4.67393E-18
 -1      1718 6.96917E-05-3.11537E-06-2.80599E-05-5.58708E-05-5.56416E-18 8.11119E-18
 -1      1719 2.63532E-05-3.45709E-05-1.30763E-06-8.10481E-06-4.11319E-18 1.87999E-18
 -1      1720 2.94794E-05-1.34407E-05-9.24657E-06-2.35861E-05-4.43083E-18 3.04720E-18
 -1      1721 2.37681E-05-6.23780E-05 1.03501E-05 1.14304E-06-1.57887E-18 1.62800E-18
 -1      1722 1.90808E-05-4.14708E-05 5.04775E-06-1.14316E-06-3.46606E-18 1.97592E-18
 -1      1723 2.41566E-05-7.73161E-05 1.60332E-05-2.54857E-06 3.46119E-18 2.43585E-18
 -1      1724 2.09244E-05-6.75643E-05 1.39389E-05 5.23571E-06-8.12728E-19 2.39414E-18
 -1      1725 1.09663E-04-3.23398E-05-3.27428E-05 4.46427E-05 4.57271E-18 5.75982E-20
 -1      1726 6.75631E-05-3.69775E-05-1.49159E-05 3.64247E-05 4.72983E-18 3.86671E-18
 -1      1727 9.52390E-05-2.85792E-05-2.85673E-05-1.34783E-08-2.58186E-18-3.04474E-20
 -1      1728 9.52389E-05-2.85691E-05-2.85723E-05-1.38229E-08-9.36308E-19 1.55456E-18
 -1      1729 1.74651E-05-5.01329E-05 9.42030E-06 1.02303E-05 4.24279E-18 2.70309E-18
 -1      1730 3.59823E-05-4.36364E-05-1.44619E-07 2.42378E-05 4.62311E-18 2.77472E-18
 -1      1731 1.22804E-05-5.25931E-05 1.24012E-05-1.95432E-06 2.01234E-18 4.89670E-18
 -1      1732 1.57817E-04-3.32020E-05-5.05197E-05 4.37156E-05 4.14432E-18-2.00493E-18
 -1      1733 1.95480E-04-3.43755E-05-6.42367E-05 2.80173E-05 2.96017E-18-4.42829E-18
 -1      1734 2.15222E-04-3.57572E-05-7.12406E-05 6.94055E-06 3.00231E-18-7.10258E-18
 -1      1735 2.14810E-04-3.68187E-05-7.05733E-05-1.31395E-05 4.74169E-18-8.20606E-18
 -1      1736 1.90264E-04-3.47027E-05-6.21566E-05-3.22439E-05 5.90276E-18-9.80271E-18
 -1      1737 1.51878E-04-3.73452E-05-4.73203E-05-3.80458E-05 6.30023E-18-1.04168E-17
 -1      1738 1.08345E-04-3.70856E-05-3.01256E-05-4.20125E-05 6.50945E-18-9.75655E-18
 -1      1739 6.41387E-05-3.87599E-05-1.28761E-05-3.56782E-05 6.19605E-18-8.56859E-18
 -1      1740 3.42030E-05-4.40143E-05 9.78063E-07-2.52095E-05 2.01679E-18-8.53407E-18
 -1      1741 1.52487E-05-4.75061E-05 9.73110E-06-1.00144E-05-1.22015E-18-6.06476E-18
 -1      1742 1.20148E-05-4.85251E-05 1.13019E-05 6.21313E-06-3.98910E-18-4.31987E-18
 -1      1743 2.31916E-05-4.49546E-05 5.60515E-06 2.00098E-05-6.18842E-18-5.89768E-18
 -1      1744 4.53881E-05-3.83828E-05-5.63216E-06 3.15114E-05-8.27128E-18-7.13456E-18
 -1      1745 7.73251E-05-3.08699E-05-2.07007E-05 4.21701E-05-9.93316E-18-6.31802E-18
 -1      1746 1.17170E-04-2.79011E-05-3.70395E-05 4.80289E-05-9.23266E-18-6.95499E-18
 -1      1747 1.58605E-04-2.91896E-05-5.22963E-05 4.51219E-05-7.53732E-18-4.72306E-18
 -1      1748 1.91905E-04-3.22439E-05-6.38150E-05 3.06362E-05-5.68338E-18-2.37635E-18
 -1      1749 2.07741E-04-3.29453E-05-6.96245E-05 8.82161E-06-5.11481E-18-1.93335E-19
 -1      1750 2.03937E-04-3.21263E-05-6.85799E-05-1.25398E-05-4.07338E-18 2.54936E-18
 -1      1751 1.83414E-04-3.07962E-05-6.11500E-05-3.32680E-05-5.02333E-18 4.80395E-18
 -1      1752 1.48107E-04-2.86023E-05-4.85362E-05-4.69949E-05-3.74134E-18 6.97955E-18
 -1      1753 1.06868E-04-3.06579E-05-3.21526E-05-4.57120E-05-1.57209E-18 7.53436E-18
 -1      1754 6.71642E-05-3.46763E-05-1.52195E-05-3.93471E-05-2.17179E-18 4.10091E-18
 -1      1755 3.52684E-05-4.11534E-05-7.04003E-07-2.63275E-05-1.67882E-18 1.81487E-18
 -1      1756 1.80659E-05-4.87367E-05 8.75857E-06-1.39582E-05 1.74489E-19 3.51032E-18
 -1      1757 1.05809E-04-2.31226E-05-3.55225E-05-1.67320E-05-2.08360E-18 4.52612E-18
 -1      1758 8.92129E-05-1.05828E-05-3.38239E-05-1.30957E-05-1.95729E-18-4.15708E-18
 -1      1759 9.05232E-05-1.16360E-05-3.39496E-05-1.49078E-05-2.43725E-18-3.59640E-18
 -1      1760 9.24992E-05-1.38886E-05-3.38517E-05-1.57930E-05-2.55407E-18-2.75630E-18
 -1      1761 9.41710E-05-1.58328E-05-3.40748E-05-1.74643E-05-2.94590E-18-1.59422E-18
 -1      1762 9.34472E-05-1.63451E-05-3.30575E-05-1.35324E-05-2.66511E-18-2.93627E-18
 -1      1763 8.62536E-05-7.58642E-06-3.37858E-05-7.65475E-06-5.67831E-19-4.86904E-18
 -1      1764 8.66673E-05-7.90062E-06-3.38158E-05-9.02919E-06-8.67094E-19-4.84640E-18
 -1      1765 8.56051E-05-6.90502E-06-3.37880E-05-5.15733E-06 2.57460E-20-4.76033E-18
 -1      1766 8.58536E-05-7.09842E-06-3.38013E-05-6.43696E-06-2.52075E-19-4.85338E-18
 -1      1767 8.76021E-05-9.72123E-06-3.34078E-05-6.70802E-06-5.07768E-19-4.69202E-18
 -1      1768 8.52434E-05-6.51380E-06-3.37934E-05-2.79159E-06 6.23809E-19-4.47154E-18
 -1      1769 8.53749E-05-6.61839E-06-3.37987E-05-3.99872E-06 3.63336E-19-4.64553E-18
 -1      1770 8.69263E-05-8.95746E-06-3.34460E-05-4.37468E-06 2.02547E-19-4.54754E-18
 -1      1771 8.50999E-05-6.34980E-06-3.37979E-05-4.97478E-07 1.16469E-18-4.22497E-18
 -1      1772 8.51390E-05-6.38176E-06-3.37990E-05-1.67036E-06 9.46239E-19-4.37155E-18
 -1      1773 8.65652E-05-8.54358E-06-3.34684E-05-2.13165E-06 7.88600E-19-4.29291E-18
 -1      1774 8.51510E-05-6.39089E-06-3.38000E-05 1.78525E-06 1.62724E-18-3.97082E-18
 -1      1775 8.51042E-05-6.35433E-06-3.37981E-05 6.11397E-07 1.41989E-18-4.13884E-18
 -1      1776 8.64572E-05-8.41760E-06-3.34760E-05 6.37117E-08 1.36649E-18-4.08951E-18
 -1      1777 8.54049E-05-6.64388E-06-3.38008E-05 4.11811E-06 2.08264E-18-3.54945E-18
 -1      1778 8.52649E-05-6.53302E-06-3.37948E-05 2.90783E-06 1.82785E-18-3.82062E-18
 -1      1779 8.65857E-05-8.56321E-06-3.34689E-05 2.26012E-06 1.82302E-18-3.75495E-18
 -1      1780 8.58936E-05-7.13431E-06-3.38037E-05 6.52259E-06 2.57732E-18-2.94574E-18
 -1      1781 8.56411E-05-6.93753E-06-3.37903E-05 5.25984E-06 2.32348E-18-3.28584E-18
 -1      1782 8.69659E-05-8.99545E-06-3.34468E-05 4.48677E-06 2.31737E-18-3.26239E-18
 -1      1783 8.67365E-05-7.97017E-06-3.38173E-05 9.14788E-06 3.08368E-18-2.05235E-18
 -1      1784 8.63045E-05-7.63681E-06-3.37876E-05 7.74199E-06 2.78220E-18-2.57228E-18
 -1      1785 8.76594E-05-9.77989E-06-3.34083E-05 6.80441E-06 2.87199E-18-2.59805E-18
 -1      1786 8.81593E-05-9.36287E-06-3.38577E-05 1.20149E-05 3.47634E-18-8.00499E-19
 -1      1787 8.74200E-05-8.78990E-06-3.37942E-05 1.04262E-05 3.23645E-18-1.57991E-18
 -1      1788 8.88169E-05-1.10741E-05-3.33482E-05 9.24591E-06 3.36281E-18-1.60314E-18
 -1      1789 9.06754E-05-1.18469E-05-3.39420E-05 1.50751E-05 3.60259E-18 1.15604E-18
 -1      1790 8.93171E-05-1.07386E-05-3.38169E-05 1.32800E-05 3.47322E-18-1.86877E-20
 -1      1791 9.07253E-05-1.31896E-05-3.32479E-05 1.17137E-05 3.61897E-18-2.62104E-19
 -1      1792 9.58275E-05-1.70390E-05-3.39688E-05 1.74966E-05 3.13052E-18 4.67901E-18
 -1      1793 9.28644E-05-1.43548E-05-3.38244E-05 1.59863E-05 3.33066E-18 2.57699E-18
 -1      1794 9.39971E-05-1.68838E-05-3.30372E-05 1.36590E-05 3.50624E-18 1.83285E-18
 -1      1795 1.01770E-04-2.50607E-05-3.33052E-05 1.42776E-05 2.40986E-18 8.75440E-18
 -1      1796 9.79864E-05-1.96113E-05-3.35889E-05 1.67923E-05 2.78924E-18 6.11277E-18
 -1      1797 9.72908E-05-2.18481E-05-3.24123E-05 1.30549E-05 3.12521E-18 4.63200E-18
 -1      1798 9.86380E-05-2.61068E-05-3.13039E-05 9.29679E-06 2.52397E-18 7.92615E-18
 -1      1799 1.00026E-04-1.95533E-05-3.41679E-05-1.87058E-05-2.67195E-18 6.11452E-19
 -1      1800 9.52874E-05-2.72704E-05-2.91802E-05 3.91810E-06 2.02845E-18 6.48973E-18
 -1      1801 9.76655E-05-2.73645E-05-3.01720E-05 6.25739E-06 2.14696E-18 7.27510E-18
 -1      1802 9.75369E-05-2.56019E-05-3.08220E-05 8.58303E-06 2.59028E-18 5.37573E-18
 -1      1803 9.97315E-05-2.25277E-05-3.28072E-05-1.42885E-05-2.81464E-18-2.16470E-19
 -1      1804 9.69517E-05-2.69625E-05-2.98801E-05-5.51688E-06-2.31256E-18-3.56958E-19
 -1      1805 9.52022E-05-2.70283E-05-2.91884E-05-3.69477E-06-1.99840E-18-9.13102E-19
 -1      1806 9.44377E-05-2.72402E-05-2.87013E-05-2.18869E-06-1.83250E-18-8.90840E-19
 -1      1807 9.37380E-05-2.73328E-05-2.84200E-05-1.30933E-06-1.57833E-18-1.40736E-18
 -1      1808 9.56065E-05-2.65447E-05-2.96229E-05-4.18492E-06-2.23200E-18-1.47583E-18
 -1      1809 9.32785E-05-2.73912E-05-2.81775E-05-4.30777E-07-1.27084E-18-1.39336E-18
 -1      1810 9.30765E-05-2.74763E-05-2.80862E-05 5.24816E-08-9.79293E-19-1.81799E-18
 -1      1811 9.45101E-05-2.72226E-05-2.88612E-05-1.45416E-06-1.67295E-18-1.65437E-18
 -1      1812 9.28925E-05-2.75221E-05-2.79837E-05 5.77028E-07-9.26452E-19-1.83508E-18
 -1      1813 9.29946E-05-2.76285E-05-2.79948E-05 8.62026E-07-7.72162E-19-2.09674E-18
 -1      1814 9.39631E-05-2.75434E-05-2.84842E-05 1.47715E-07-1.19936E-18-1.77970E-18
 -1      1815 9.30120E-05-2.76850E-05-2.79803E-05 1.19303E-06-8.42646E-19-2.10701E-18
 -1      1816 9.33054E-05-2.78127E-05-2.80538E-05 1.37614E-06-8.41888E-19-2.46746E-18
 -1      1817 9.38499E-05-2.77599E-05-2.83392E-05 1.13051E-06-9.79130E-19-1.98012E-18
 -1      1818 9.34688E-05-2.78860E-05-2.80979E-05 1.60290E-06-8.45793E-19-2.36740E-18
 -1      1819 9.38917E-05-2.80321E-05-2.82135E-05 1.73541E-06-7.06907E-19-2.61993E-18
 -1      1820 9.40602E-05-2.79506E-05-2.83443E-05 1.77451E-06-8.81836E-19-2.03048E-18
 -1      1821 9.41639E-05-2.81223E-05-2.82988E-05 1.90967E-06-7.14138E-19-2.51664E-18
 -1      1822 9.46838E-05-2.82857E-05-2.84454E-05 2.02053E-06-6.66211E-19-2.56250E-18
 -1      1823 9.45115E-05-2.81454E-05-2.84516E-05 2.23800E-06-7.62899E-19-2.02842E-18
 -1      1824 9.50425E-05-2.83934E-05-2.85614E-05 2.17220E-06-6.72084E-19-2.47806E-18
 -1      1825 9.56435E-05-2.85759E-05-2.87331E-05 2.27668E-06-5.06528E-19-2.61856E-18
 -1      1826 9.51502E-05-2.83582E-05-2.86324E-05 2.61352E-06-7.43721E-19-1.97177E-18
 -1      1827 9.60764E-05-2.87035E-05-2.88729E-05 2.41993E-06-5.26554E-19-2.83716E-18
 -1      1828 9.67505E-05-2.89088E-05-2.90660E-05 2.52226E-06-5.17371E-19-2.90921E-18
 -1      1829 9.59455E-05-2.86011E-05-2.88682E-05 2.95146E-06-7.45251E-19-2.33669E-18
 -1      1830 9.72512E-05-2.90606E-05-2.92241E-05 2.65718E-06-6.04165E-19-3.12873E-18
 -1      1831 9.79912E-05-2.92932E-05-2.94350E-05 2.75048E-06-2.48334E-19-3.38592E-18
 -1      1832 9.68821E-05-2.88889E-05-2.91456E-05 3.26885E-06-8.26538E-19-2.44269E-18
 -1      1833 9.85552E-05-2.94754E-05-2.96058E-05 2.86226E-06-7.43040E-20-3.44455E-18
 -1      1834 9.93470E-05-2.97391E-05-2.98286E-05 2.92701E-06-6.42769E-20-3.47730E-18
 -1      1835 9.79521E-05-2.92405E-05-2.94529E-05 3.55043E-06-3.49908E-19-2.48047E-18
 -1      1836 9.99674E-05-2.99583E-05-3.00048E-05 2.98404E-06 1.83546E-19-3.52881E-18
 -1      1837 1.00783E-04-3.02533E-05-3.02295E-05 2.98630E-06 1.41348E-19-3.35853E-18
 -1      1838 9.91472E-05-2.96778E-05-2.97769E-05 3.74592E-06-3.12571E-20-2.38301E-18
 -1      1839 1.01446E-04-3.05151E-05-3.04009E-05 2.93851E-06 1.92633E-19-3.39563E-18
 -1      1840 1.02233E-04-3.08343E-05-3.06112E-05 2.82958E-06 1.13639E-19-3.06481E-18
 -1      1841 1.00450E-04-3.02230E-05-3.01006E-05 3.76614E-06 2.67897E-19-2.55202E-18
 -1      1842 1.02913E-04-3.11383E-05-3.07643E-05 2.61001E-06-3.00093E-19-2.74210E-18
 -1      1843 1.03592E-04-3.14608E-05-3.09367E-05 2.33085E-06-2.53663E-19-2.66632E-18
 -1      1844 1.01824E-04-3.08893E-05-3.04018E-05 3.48290E-06 1.62163E-19-2.58414E-18
 -1      1845 1.04243E-04-3.17932E-05-3.10553E-05 1.86505E-06-2.62016E-19-2.66175E-18
 -1      1846 1.04700E-04-3.20762E-05-3.11604E-05 1.36026E-06-5.81141E-19-2.77727E-18
 -1      1847 1.03198E-04-3.16642E-05-3.06548E-05 2.74042E-06-3.48132E-19-1.98617E-18
 -1      1848 1.05246E-04-3.23970E-05-3.12290E-05 5.90367E-07-1.07616E-18-2.66553E-18
 -1      1849 1.05345E-04-3.25680E-05-3.12359E-05-1.62849E-07-7.26940E-19-2.84084E-18
 -1      1850 1.04446E-04-3.24801E-05-3.08343E-05 1.39057E-06-8.43956E-19-1.71585E-18
 -1      1851 1.05673E-04-3.27980E-05-3.12440E-05-1.23319E-06-3.05104E-19-2.86764E-18
 -1      1852 1.05283E-04-3.27557E-05-3.11304E-05-2.18045E-06-4.88890E-19-2.65429E-18
 -1      1853 1.05370E-04-3.31789E-05-3.09227E-05-6.33584E-07-7.38113E-19-1.48045E-18
 -1      1854 1.05254E-04-3.27757E-05-3.10787E-05-3.42381E-06-5.65854E-19-2.40617E-18
 -1      1855 1.04303E-04-3.24149E-05-3.08434E-05-4.38791E-06-1.92349E-19-2.37233E-18
 -1      1856 1.05699E-04-3.34916E-05-3.09201E-05-3.20075E-06-3.65713E-19-1.13456E-18
 -1      1857 1.03797E-04-3.21009E-05-3.07474E-05-5.50317E-06 2.62967E-19-2.46190E-18
 -1      1858 1.02349E-04-3.13751E-05-3.04223E-05-6.17564E-06 5.48083E-19-2.25821E-18
 -1      1859 1.05147E-04-3.30870E-05-3.08495E-05-5.85233E-06 1.78509E-19-9.17486E-19
 -1      1860 1.01365E-04-3.06874E-05-3.03103E-05-6.71512E-06 5.48014E-19-2.32723E-18
 -1      1861 9.96803E-05-2.96970E-05-2.99616E-05-6.73954E-06 1.46413E-19-2.25310E-18
 -1      1862 1.03568E-04-3.17417E-05-3.07532E-05-7.76065E-06 6.30913E-19-7.76820E-19
 -1      1863 9.84558E-05-2.87910E-05-2.98647E-05-6.28498E-06-4.39005E-19-2.19515E-18
 -1      1864 9.69774E-05-2.78282E-05-2.95781E-05-5.44948E-06-2.39919E-19-2.10132E-18
 -1      1865 1.01203E-04-2.96130E-05-3.06737E-05-7.93292E-06 1.39979E-19-9.53106E-19
 -1      1866 9.59850E-05-2.70710E-05-2.95180E-05-3.90839E-06-3.90542E-19-2.02818E-18
 -1      1867 9.51938E-05-2.65245E-05-2.93713E-05-2.35165E-06-2.55453E-19-2.42596E-18
 -1      1868 9.88102E-05-2.74007E-05-3.06313E-05-5.74379E-06-3.25416E-19-5.79667E-19
 -1      1869 9.49138E-05-2.63062E-05-2.93576E-05-1.56006E-07-2.50536E-19-2.47797E-18
 -1      1870 9.50991E-05-2.64324E-05-2.93926E-05 1.61017E-06-2.01792E-19-2.22122E-18
 -1      1871 9.74304E-05-2.61055E-05-3.06193E-05-1.54367E-06-1.18108E-19-1.40659E-18
 -1      1872 9.56831E-05-2.68776E-05-2.94270E-05 3.65607E-06 1.03047E-19-2.29255E-18
 -1      1873 9.67786E-05-2.76163E-05-2.96343E-05 5.00096E-06 1.07252E-18-2.06991E-18
 -1      1874 9.77591E-05-2.64050E-05-3.06262E-05 3.24517E-06 1.67944E-19-1.45993E-18
 -1      1875 9.79271E-05-2.84785E-05-2.97134E-05 6.18160E-06 1.00496E-18-2.85685E-18
 -1      1876 9.95511E-05-2.94975E-05-3.00365E-05 6.71053E-06 6.08386E-19-2.82429E-18
 -1      1877 9.96326E-05-2.81381E-05-3.06552E-05 6.85305E-06 6.45724E-19-2.42120E-18
 -1      1878 1.00747E-04-3.03609E-05-3.01471E-05 6.78540E-06 6.68439E-19-3.35845E-18
 -1      1879 1.02409E-04-3.12844E-05-3.05025E-05 6.50150E-06 1.06454E-18-3.08110E-18
 -1      1880 1.02155E-04-3.04337E-05-3.07206E-05 8.19565E-06 7.07955E-19-3.06472E-18
 -1      1881 1.03253E-04-3.18475E-05-3.06188E-05 5.71498E-06 8.87561E-19-3.27904E-18
 -1      1882 1.04567E-04-3.24506E-05-3.09255E-05 4.90921E-06 3.65637E-19-2.72726E-18
 -1      1883 1.04330E-04-3.23376E-05-3.08212E-05 7.32421E-06 7.47803E-19-3.53184E-18
 -1      1884 1.04918E-04-3.26384E-05-3.10170E-05 3.72082E-06-4.80142E-19-2.20625E-18
 -1      1885 1.05701E-04-3.28834E-05-3.12211E-05 2.74972E-06-6.51014E-19-1.49964E-18
 -1      1886 1.05583E-04-3.33447E-05-3.09282E-05 5.07308E-06 3.58570E-19-3.06121E-18
 -1      1887 1.05616E-04-3.27794E-05-3.12634E-05 1.56681E-06-1.21072E-18-9.11048E-19
 -1      1888 1.05865E-04-3.27441E-05-3.13463E-05 6.96186E-07-9.33721E-20-1.11602E-18
 -1      1889 1.05844E-04-3.34649E-05-3.09976E-05 2.42176E-06-3.73998E-19-8.26335E-19
 -1      1890 1.05483E-04-3.24785E-05-3.13298E-05-2.44385E-07 3.68211E-19-1.96430E-18
 -1      1891 1.05300E-04-3.22727E-05-3.13026E-05-8.84916E-07 9.86717E-19-2.40599E-18
 -1      1892 1.05335E-04-3.29895E-05-3.09930E-05 7.45506E-08-2.26882E-19-6.60957E-19
 -1      1893 1.04755E-04-3.19525E-05-3.12317E-05-1.50711E-06 9.06484E-19-2.72329E-18
 -1      1894 1.04281E-04-3.16692E-05-3.11219E-05-1.89617E-06 2.24828E-19-2.22307E-18
 -1      1895 1.04355E-04-3.22411E-05-3.09008E-05-1.63875E-06 6.04720E-19-1.50100E-18
 -1      1896 1.03673E-04-3.13587E-05-3.10101E-05-2.22453E-06-5.35330E-19-2.31917E-18
 -1      1897 1.03041E-04-3.10602E-05-3.08495E-05-2.40065E-06-3.35790E-19-2.34578E-18
 -1      1898 1.03151E-04-3.14503E-05-3.07289E-05-2.67259E-06 1.22569E-19-1.83449E-18
 -1      1899 1.02436E-04-3.07890E-05-3.07135E-05-2.50298E-06-4.03866E-19-3.03077E-18
 -1      1900 1.01751E-04-3.05102E-05-3.05306E-05-2.52542E-06-6.72248E-19-3.33899E-18
 -1      1901 1.01899E-04-3.07403E-05-3.04994E-05-3.13392E-06-1.06580E-18-2.36429E-18
 -1      1902 1.01187E-04-3.02868E-05-3.03855E-05-2.47613E-06-2.48067E-19-3.70088E-18
 -1      1903 1.00520E-04-3.00440E-05-3.02016E-05-2.40204E-06-4.67550E-19-3.64987E-18
 -1      1904 1.00703E-04-3.01563E-05-3.02386E-05-3.18084E-06-7.45269E-19-2.51274E-18
 -1      1905 1.00018E-04-2.98663E-05-3.00597E-05-2.26462E-06-9.86951E-19-3.85566E-18
 -1      1906 9.94116E-05-2.96645E-05-2.98887E-05-2.13941E-06-6.77820E-19-3.99755E-18
 -1      1907 9.96204E-05-2.97008E-05-2.99709E-05-2.96515E-06-6.48396E-19-1.56047E-18
 -1      1908 9.89795E-05-2.95262E-05-2.97580E-05-1.96099E-06 6.48027E-19-3.82158E-18
 -1      1909 9.84559E-05-2.93642E-05-2.96075E-05-1.81658E-06 1.01966E-18-2.76859E-18
 -1      1910 9.86785E-05-2.93573E-05-2.97146E-05-2.60831E-06 9.30057E-20-1.85364E-18
 -1      1911 9.80945E-05-2.92585E-05-2.94925E-05-1.62875E-06 1.24154E-18-2.68861E-18
 -1      1912 9.76593E-05-2.91319E-05-2.93656E-05-1.48535E-06 1.53282E-18-1.57823E-18
 -1      1913 9.78831E-05-2.91044E-05-2.94820E-05-2.19672E-06 1.35718E-18-1.34259E-18
 -1      1914 9.73645E-05-2.90524E-05-2.92682E-05-1.30719E-06 8.25628E-19-5.65566E-19
 -1      1915 9.70143E-05-2.89560E-05-2.91647E-05-1.17618E-06-2.48958E-19-1.65006E-19
 -1      1916 9.72288E-05-2.89217E-05-2.92795E-05-1.78609E-06 1.64230E-18-4.36929E-19
 -1      1917 9.67793E-05-2.88970E-05-2.90848E-05-1.01775E-06-1.61034E-18-9.04114E-20
 -1      1918 9.65058E-05-2.88255E-05-2.90030E-05-9.04425E-07-1.01621E-18-1.33530E-19
 -1      1919 9.67030E-05-2.87919E-05-2.91091E-05-1.40855E-06-4.05898E-19 1.26283E-18
 -1      1920 9.63226E-05-2.87825E-05-2.89392E-05-7.69729E-07-5.43927E-19-7.65586E-19
 -1      1921 9.61147E-05-2.87307E-05-2.88764E-05-6.75464E-07 4.11476E-19-8.09580E-19
 -1      1922 9.62896E-05-2.87015E-05-2.89701E-05-1.07962E-06-8.28132E-19 1.64549E-18
 -1      1923 9.59751E-05-2.86999E-05-2.88268E-05-5.64730E-07 1.79295E-18-1.39372E-18
 -1      1924 9.58218E-05-2.86636E-05-2.87799E-05-4.88603E-07 2.17531E-18-2.12990E-19
 -1      1925 9.59717E-05-2.86399E-05-2.88597E-05-8.04019E-07 9.17472E-19 6.75535E-19
 -1      1926 9.57178E-05-2.86420E-05-2.87424E-05-3.99896E-07 1.72501E-18 1.17083E-19
 -1      1927 9.56085E-05-2.86175E-05-2.87086E-05-3.39755E-07 1.82374E-18 6.76646E-19
 -1      1928 9.57328E-05-2.85989E-05-2.87743E-05-5.79876E-07 2.25955E-18 9.38043E-19
 -1      1929 9.55331E-05-2.86028E-05-2.86810E-05-2.70091E-07 1.62562E-18 9.74563E-19
 -1      1930 9.54585E-05-2.85872E-05-2.86576E-05-2.23290E-07 1.81585E-18 1.32621E-18
 -1      1931 9.55576E-05-2.85726E-05-2.87099E-05-4.01764E-07 1.75352E-18 1.41152E-18
 -1      1932 9.54053E-05-2.85775E-05-2.86380E-05-1.69433E-07-3.35172E-19 5.09020E-19
 -1      1933 9.53576E-05-2.85685E-05-2.86227E-05-1.33414E-07-8.99512E-19 1.31851E-19
 -1      1934 9.54325E-05-2.85565E-05-2.86628E-05-2.62799E-07 2.93103E-19 4.66364E-19
 -1      1935 9.53211E-05-2.85626E-05-2.86091E-05-9.22239E-08-2.21189E-19-7.50954E-19
 -1      1936 9.52938E-05-2.85590E-05-2.85998E-05-6.52252E-08 7.89037E-19-4.80987E-19
 -1      1937 9.53459E-05-2.85473E-05-2.86291E-05-1.56230E-07-1.09726E-18 9.54442E-19
 -1      1938 9.52717E-05-2.85572E-05-2.85907E-05-3.65917E-08 2.52947E-18-1.65793E-18
 -1      1939 9.52588E-05-2.85588E-05-2.85850E-05-1.89638E-08 1.75242E-18-1.06278E-18
 -1      1940 9.52591E-05-2.85545E-05-2.85884E-05-2.53768E-08 1.27002E-18-6.06633E-19
 -1      1941 9.52905E-05-2.85468E-05-2.86056E-05-7.81936E-08 5.21225E-19-3.43723E-19
 -1      1942 9.33062E-05-2.73713E-05-2.82284E-05 1.41689E-06 1.57556E-18 5.31390E-18
 -1      1943 9.44360E-05-2.74614E-05-2.86442E-05 2.50622E-06 1.72099E-18 6.00803E-18
 -1      1944 9.52840E-05-2.70440E-05-2.92520E-05 3.84180E-06 2.15078E-18 4.32343E-18
 -1      1945 9.24142E-05-2.73933E-05-2.78395E-05 9.03586E-08 1.23189E-18 4.43275E-18
 -1      1946 9.28221E-05-2.74042E-05-2.79846E-05 6.70499E-07 1.29767E-18 4.89777E-18
 -1      1947 9.38068E-05-2.73859E-05-2.84742E-05 1.30450E-06 1.65052E-18 3.59731E-18
 -1      1948 9.22593E-05-2.74823E-05-2.77431E-05-6.67843E-07 7.53432E-19 3.64357E-18
 -1      1949 9.22549E-05-2.74250E-05-2.77526E-05-3.27043E-07 9.01521E-19 4.13382E-18
 -1      1950 9.31494E-05-2.75334E-05-2.81327E-05-1.16151E-07 1.23917E-18 2.76347E-18
 -1      1951 9.25873E-05-2.76460E-05-2.78180E-05-1.14109E-06 6.31367E-19 3.01878E-18
 -1      1952 9.23333E-05-2.75404E-05-2.77501E-05-9.19879E-07 7.08672E-19 3.48394E-18
 -1      1953 9.30730E-05-2.76737E-05-2.80404E-05-9.64944E-07 8.74568E-19 2.19401E-18
 -1      1954 9.32488E-05-2.78706E-05-2.80070E-05-1.47919E-06 7.24989E-19 2.45255E-18
 -1      1955 9.28283E-05-2.77303E-05-2.78877E-05-1.31431E-06 6.14683E-19 2.75909E-18
 -1      1956 9.33998E-05-2.78463E-05-2.81053E-05-1.52336E-06 8.06450E-19 1.73419E-18
 -1      1957 9.41675E-05-2.81464E-05-2.82828E-05-1.77228E-06 4.38503E-19 2.05838E-18
 -1      1958 9.36182E-05-2.79777E-05-2.81233E-05-1.62469E-06 5.91126E-19 2.23743E-18
 -1      1959 9.40209E-05-2.80558E-05-2.82803E-05-1.94956E-06 7.36651E-19 1.11486E-18
 -1      1960 9.53165E-05-2.84722E-05-2.86349E-05-2.08175E-06 7.42965E-19 1.62303E-18
 -1      1961 9.46482E-05-2.82749E-05-2.84384E-05-1.92393E-06 6.10659E-19 2.02408E-18
 -1      1962 9.48794E-05-2.83019E-05-2.85420E-05-2.34316E-06 6.37669E-19 1.03231E-18
 -1      1963 9.67041E-05-2.88549E-05-2.90643E-05-2.45297E-06 1.92946E-19 1.73599E-18
 -1      1964 9.59070E-05-2.86238E-05-2.88284E-05-2.26371E-06 4.62388E-19 1.67290E-18
 -1      1965 9.59569E-05-2.85879E-05-2.88810E-05-2.77349E-06 5.77243E-19 9.30849E-19
 -1      1966 9.83635E-05-2.93084E-05-2.95794E-05-2.91937E-06 4.08134E-19 1.73694E-18
 -1      1967 9.74144E-05-2.90343E-05-2.92978E-05-2.68216E-06 3.33706E-19 1.81699E-18
 -1      1968 9.72619E-05-2.89230E-05-2.92971E-05-3.29106E-06 3.31961E-19 1.11062E-18
 -1      1969 1.00343E-04-2.98535E-05-3.01927E-05-3.50048E-06-1.88604E-19 1.74135E-18
 -1      1970 9.92110E-05-2.95236E-05-2.98572E-05-3.20470E-06 1.89883E-19 1.76778E-18
 -1      1971 9.88224E-05-2.93231E-05-2.97955E-05-3.92979E-06 2.73340E-19 9.96014E-19
 -1      1972 1.02697E-04-3.05181E-05-3.09162E-05-4.19293E-06 3.50261E-19 1.36423E-18
 -1      1973 1.01349E-04-3.01168E-05-3.05189E-05-3.83841E-06 5.28734E-20 1.39022E-18
 -1      1974 1.00678E-04-2.98128E-05-3.03826E-05-4.70150E-06 2.67310E-19 6.48725E-19
 -1      1975 1.05465E-04-3.13369E-05-3.17541E-05-4.95109E-06 2.90182E-19 1.31029E-18
 -1      1976 1.03880E-04-3.08472E-05-3.12916E-05-4.55800E-06 8.44237E-20 1.41137E-18
 -1      1977 1.02872E-04-3.04292E-05-3.10609E-05-5.58053E-06 1.65049E-19 8.59864E-19
 -1      1978 1.08650E-04-3.23514E-05-3.26917E-05-5.65342E-06-3.96317E-19 1.98805E-18
 -1      1979 1.06838E-04-3.17581E-05-3.21719E-05-5.27982E-06-4.48166E-21 1.61914E-18
 -1      1980 1.05440E-04-3.12278E-05-3.18220E-05-6.47496E-06-9.47138E-20 5.14761E-19
 -1      1981 1.12174E-04-3.36033E-05-3.36804E-05-6.05331E-06-2.76585E-19 1.64583E-18
 -1      1982 1.10208E-04-3.29009E-05-3.31322E-05-5.82136E-06-2.86084E-19 1.92057E-18
 -1      1983 1.08394E-04-3.22875E-05-3.26370E-05-7.18134E-06-3.45380E-19 8.68791E-19
 -1      1984 1.15825E-04-3.51113E-05-3.46206E-05-5.72859E-06 7.65327E-19 1.54873E-18
 -1      1985 1.13879E-04-3.43226E-05-3.41051E-05-5.85249E-06 2.08203E-19 1.40742E-18
 -1      1986 1.11701E-04-3.37045E-05-3.34478E-05-7.32876E-06 4.03138E-19 9.24788E-19
 -1      1987 1.19182E-04-3.68037E-05-3.53563E-05-4.08438E-06 3.57441E-19 2.13980E-18
 -1      1988 1.17575E-04-3.60185E-05-3.49725E-05-4.87122E-06 6.05086E-19 2.02046E-18
 -1      1989 1.15225E-04-3.55455E-05-3.41654E-05-6.34504E-06 4.47260E-19 7.15491E-19
 -1      1990 1.21545E-04-3.83735E-05-3.57061E-05-5.40805E-07-5.91811E-19 2.21105E-18
 -1      1991 1.20752E-04-3.78123E-05-3.55744E-05-2.29356E-06-2.65174E-19 1.92902E-18
 -1      1992 1.18642E-04-3.77019E-05-3.46905E-05-3.53731E-06 4.30134E-21 1.13268E-18
 -1      1993 1.21951E-04-3.90872E-05-3.55542E-05 4.90784E-06-9.46248E-19 2.91348E-18
 -1      1994 1.22508E-04-3.91497E-05-3.57607E-05 2.18443E-06-7.14777E-19 2.75090E-18
 -1      1995 1.21272E-04-3.96152E-05-3.49694E-05 1.53832E-06-7.08424E-19 1.72320E-18
 -1      1996 1.19430E-04-3.78247E-05-3.49747E-05 1.07473E-05-6.67952E-19 3.61371E-18
 -1      1997 1.21663E-04-3.89648E-05-3.54890E-05 7.83604E-06-8.80411E-19 3.07145E-18
 -1      1998 1.21980E-04-4.00296E-05-3.50685E-05 8.25721E-06-7.68861E-19 2.57061E-18
 -1      1999 1.13977E-04-3.39987E-05-3.42663E-05 1.34926E-05 1.19536E-18 3.56228E-18
 -1      2000 1.17503E-04-3.62060E-05-3.48967E-05 1.21475E-05 3.77128E-19 3.56058E-18
 -1      2001 1.19663E-04-3.75287E-05-3.51682E-05 1.39021E-05 3.95483E-20 2.55654E-18
 -1      2002 1.07801E-04-2.91203E-05-3.37991E-05 9.61298E-06 1.25017E-18 1.94102E-18
 -1      2003 1.11179E-04-3.13635E-05-3.42694E-05 1.15110E-05 1.66093E-18 3.12005E-18
 -1      2004 1.14717E-04-3.21925E-05-3.54195E-05 1.41480E-05 1.94479E-18 1.42628E-18
 -1      2005 1.05137E-04-2.69255E-05-3.37043E-05-2.42429E-07 5.38951E-19 8.34751E-19
 -1      2006 1.06361E-04-2.75253E-05-3.38293E-05 4.36791E-06 5.23043E-19 9.51062E-19
 -1      2007 1.10283E-04-2.73337E-05-3.57075E-05 6.39901E-06 1.15085E-18 9.21837E-19
 -1      2008 1.08354E-04-2.95007E-05-3.39637E-05-9.94706E-06 4.69044E-20 4.84291E-19
 -1      2009 1.06531E-04-2.79337E-05-3.36915E-05-5.59532E-06 4.15099E-19 6.06343E-19
 -1      2010 1.10173E-04-2.71054E-05-3.57436E-05-5.58396E-06 5.76247E-19 5.63714E-19
 -1      2011 1.15003E-04-3.45362E-05-3.45376E-05-1.35581E-05-4.07767E-19 2.23140E-19
 -1      2012 1.11307E-04-3.20747E-05-3.39664E-05-1.19858E-05-1.95612E-19 2.22187E-19
 -1      2013 1.14493E-04-3.17045E-05-3.55229E-05-1.38849E-05 1.03391E-19-3.20284E-19
 -1      2014 1.20644E-04-3.83036E-05-3.52326E-05-1.06042E-05 1.23921E-18 4.40934E-19
 -1      2015 1.17159E-04-3.65149E-05-3.46083E-05-1.18189E-05 2.03222E-19-3.62371E-20
 -1      2016 1.19543E-04-3.72209E-05-3.52844E-05-1.42630E-05 2.64744E-19-1.40875E-18
 -1      2017 1.22942E-04-3.93630E-05-3.57327E-05-4.71908E-06 7.30996E-19-6.33174E-20
 -1      2018 1.20998E-04-3.87659E-05-3.53117E-05-7.13921E-06 8.50686E-19 5.46535E-19
 -1      2019 1.22048E-04-4.00593E-05-3.51636E-05-8.86207E-06 9.37857E-19-1.28099E-18
 -1      2020 1.22140E-04-3.84749E-05-3.57961E-05 6.55848E-07 1.13258E-18-1.33699E-19
 -1      2021 1.21913E-04-3.87518E-05-3.57077E-05-1.56922E-06 1.22998E-18 2.12048E-19
 -1      2022 1.21503E-04-3.98166E-05-3.50520E-05-2.12195E-06 1.30337E-18-4.72609E-19
 -1      2023 1.19428E-04-3.67970E-05-3.53912E-05 4.08558E-06-1.46523E-19-7.68596E-19
 -1      2024 1.20465E-04-3.74871E-05-3.56123E-05 2.64297E-06 5.87444E-19-8.26128E-19
 -1      2025 1.19000E-04-3.79479E-05-3.47795E-05 3.09635E-06 1.18485E-18-1.66869E-19
 -1      2026 1.15897E-04-3.50697E-05-3.46437E-05 5.61277E-06-6.95990E-19-1.40639E-18
 -1      2027 1.17616E-04-3.58573E-05-3.50687E-05 4.94398E-06-1.95863E-19-1.11852E-18
 -1      2028 1.15677E-04-3.57605E-05-3.42784E-05 6.02695E-06 1.17493E-19-9.80547E-19
 -1      2029 1.12249E-04-3.35799E-05-3.37291E-05 5.83676E-06 2.24209E-19-3.29581E-18
 -1      2030 1.14190E-04-3.43157E-05-3.42425E-05 5.70671E-06-4.21210E-19-2.59482E-18
 -1      2031 1.12245E-04-3.38876E-05-3.35955E-05 7.06976E-06 4.57926E-19-4.04599E-18
 -1      2032 1.08862E-04-3.23794E-05-3.27934E-05 5.34993E-06 6.06811E-19-2.01917E-18
 -1      2033 1.10739E-04-3.30103E-05-3.33093E-05 5.51999E-06 7.19292E-19-2.35856E-18
 -1      2034 1.09047E-04-3.24598E-05-3.28273E-05 6.91898E-06 1.80169E-19-3.23673E-18
 -1      2035 1.05907E-04-3.14376E-05-3.19279E-05 4.56647E-06 5.39259E-19-1.23536E-18
 -1      2036 1.07573E-04-3.19548E-05-3.23968E-05 4.86697E-06 2.56487E-19-9.41722E-19
 -1      2037 1.06226E-04-3.14139E-05-3.20622E-05 6.16024E-06-1.63406E-19-1.88694E-18
 -1      2038 1.03432E-04-3.07066E-05-3.11770E-05 3.72663E-06 6.88267E-19-1.07105E-18
 -1      2039 1.04833E-04-3.11191E-05-3.15775E-05 4.05755E-06 6.23598E-19-1.35988E-18
 -1      2040 1.03826E-04-3.06512E-05-3.13593E-05 5.17941E-06 9.48146E-19-8.28388E-19
 -1      2041 1.01419E-04-3.01427E-05-3.05528E-05 2.94918E-06 4.45999E-19-1.31310E-18
 -1      2042 1.02556E-04-3.04655E-05-3.08811E-05 3.25999E-06 6.46883E-19-1.00759E-18
 -1      2043 1.01838E-04-3.00896E-05-3.07481E-05 4.19266E-06 5.71574E-19 1.06435E-19
 -1      2044 9.98187E-05-2.97106E-05-3.00499E-05 2.28107E-06-5.55440E-19-2.14380E-18
 -1      2045 1.00717E-04-2.99592E-05-3.03111E-05 2.55088E-06-1.17435E-19-1.80982E-18
 -1      2046 1.00226E-04-2.96716E-05-3.02374E-05 3.30302E-06 2.91158E-19-6.95334E-19
 -1      2047 9.85707E-05-2.93824E-05-2.96541E-05 1.73148E-06 9.56413E-19-1.06057E-18
 -1      2048 9.92657E-05-2.95711E-05-2.98573E-05 1.95524E-06 4.53227E-19-1.47289E-18
 -1      2049 9.89448E-05-2.93587E-05-2.98231E-05 2.54780E-06-3.54860E-20-1.57538E-18
 -1      2050 9.76139E-05-2.91359E-05-2.93486E-05 1.29201E-06-1.03941E-18-1.42625E-18
 -1      2051 9.81420E-05-2.92770E-05-2.95037E-05 1.47224E-06 6.89472E-20-1.59032E-18
 -1      2052 9.79431E-05-2.91244E-05-2.94946E-05 1.93014E-06 2.91803E-19-1.63215E-20
 -1      2053 9.68923E-05-2.89531E-05-2.91170E-05 9.47543E-07-1.67403E-18-2.19145E-19
 -1      2054 9.72868E-05-2.90570E-05-2.92334E-05 1.08978E-06-1.55236E-18-1.39102E-18
 -1      2055 9.71728E-05-2.89502E-05-2.92394E-05 1.43754E-06-1.80705E-18-6.45403E-19
 -1      2056 9.63573E-05-2.88198E-05-2.89445E-05 6.81606E-07-9.34059E-19-2.94957E-19
 -1      2057 9.66469E-05-2.88950E-05-2.90302E-05 7.92159E-07-1.51954E-18-3.88834E-19
 -1      2058 9.65899E-05-2.88221E-05-2.90446E-05 1.05184E-06-1.27488E-18-1.40041E-19
 -1      2059 9.59684E-05-2.87245E-05-2.88184E-05 4.78784E-07 6.97747E-19-9.99490E-19
 -1      2060 9.61766E-05-2.87777E-05-2.88803E-05 5.63708E-07 3.70676E-20-7.99359E-19
 -1      2061 9.61565E-05-2.87294E-05-2.88986E-05 7.54134E-07 4.92807E-19-9.15716E-19
 -1      2062 9.56921E-05-2.86582E-05-2.87283E-05 3.25578E-07 1.28140E-18-5.42048E-19
 -1      2063 9.58380E-05-2.86948E-05-2.87719E-05 3.90262E-07 1.81354E-18-5.67280E-19
 -1      2064 9.58405E-05-2.86638E-05-2.87912E-05 5.27012E-07 1.56895E-18-3.52026E-19
 -1      2065 9.55019E-05-2.86136E-05-2.86659E-05 2.10587E-07 1.41567E-18-2.51138E-18
 -1      2066 9.56006E-05-2.86377E-05-2.86955E-05 2.59649E-07 1.39627E-18-1.06124E-18
 -1      2067 9.56154E-05-2.86186E-05-2.87140E-05 3.55302E-07 1.95649E-18 7.43207E-19
 -1      2068 9.53767E-05-2.85853E-05-2.86244E-05 1.24436E-07 9.43770E-19-2.34463E-18
 -1      2069 9.54399E-05-2.86001E-05-2.86435E-05 1.61745E-07 9.14661E-19-3.08912E-18
 -1      2070 9.54598E-05-2.85887E-05-2.86600E-05 2.26231E-07 1.29761E-18-1.33355E-18
 -1      2071 9.53000E-05-2.85693E-05-2.85984E-05 6.03671E-08 5.17069E-19-1.47787E-18
 -1      2072 9.53368E-05-2.85771E-05-2.86098E-05 8.86692E-08 7.07663E-19-1.59223E-18
 -1      2073 9.53567E-05-2.85703E-05-2.86236E-05 1.29770E-07 4.24761E-19-1.17549E-18
 -1      2074 9.52587E-05-2.85632E-05-2.85833E-05 1.46590E-08-9.41345E-19 5.73748E-19
 -1      2075 9.52760E-05-2.85653E-05-2.85893E-05 3.49346E-08-5.40442E-19-2.98476E-19
 -1      2076 9.52921E-05-2.85609E-05-2.85997E-05 5.88114E-08-1.13297E-18 6.01774E-19
 -1      2077 9.52446E-05-2.85663E-05-2.85758E-05-6.10336E-09-1.22022E-18 1.54022E-18
 -1      2078 9.52495E-05-2.85623E-05-2.85796E-05 4.70779E-09-6.67194E-19 1.71369E-18
 -1      2079 9.52603E-05-2.85586E-05-2.85868E-05 1.78434E-08-1.84621E-18 3.41064E-18
 -1      2080 9.52486E-05-2.85655E-05-2.85783E-05-1.98170E-09-1.35985E-18 3.80588E-18
 -1      2081 9.52090E-05-2.84421E-05-2.86148E-05 9.89414E-08-2.96283E-19-1.64304E-18
 -1      2082 9.52221E-05-2.84688E-05-2.86078E-05 8.84762E-08-2.67625E-20-2.12874E-18
 -1      2083 9.52364E-05-2.85007E-05-2.86011E-05 7.11859E-08-8.10421E-19-2.36067E-18
 -1      2084 9.52447E-05-2.85208E-05-2.85953E-05 5.35018E-08-4.87622E-19-2.43334E-19
 -1      2085 9.52309E-05-2.84611E-05-2.86159E-05 1.09948E-07-7.04284E-19-1.28247E-18
 -1      2086 9.52492E-05-2.85417E-05-2.85888E-05 3.28655E-08-6.86679E-19-2.83442E-19
 -1      2087 9.52505E-05-2.85530E-05-2.85842E-05 1.64842E-08-1.38114E-18 1.66285E-18
 -1      2088 9.52568E-05-2.85488E-05-2.85889E-05 2.52593E-08-1.88909E-18 2.74771E-18
 -1      2089 9.52517E-05-2.85143E-05-2.86022E-05 6.64220E-08-2.26385E-18-3.73083E-19
 -1      2090 9.51788E-05-2.83803E-05-2.86286E-05 1.06701E-07-2.11234E-18-2.67972E-18
 -1      2091 9.51932E-05-2.84090E-05-2.86213E-05 1.05487E-07-1.41827E-18-1.83546E-18
 -1      2092 9.51955E-05-2.83944E-05-2.86290E-05 1.35606E-07-1.19520E-18-3.23707E-18
 -1      2093 9.51503E-05-2.83230E-05-2.86412E-05 9.25605E-08-2.29562E-19-7.37990E-19
 -1      2094 9.51634E-05-2.83491E-05-2.86346E-05 1.00845E-07-1.50410E-18 1.97889E-19
 -1      2095 9.51580E-05-2.83278E-05-2.86410E-05 1.35569E-07-1.36648E-18-7.85164E-19
 -1      2096 9.51296E-05-2.82812E-05-2.86503E-05 5.96600E-08-8.30205E-19 1.18128E-19
 -1      2097 9.51385E-05-2.82993E-05-2.86457E-05 7.54591E-08 4.65853E-19-1.01254E-18
 -1      2098 9.51250E-05-2.82708E-05-2.86509E-05 1.08751E-07 3.53140E-19-4.52270E-19
 -1      2099 9.51200E-05-2.82619E-05-2.86544E-05 1.50793E-08-4.05987E-19-2.96921E-19
 -1      2100 9.51232E-05-2.82685E-05-2.86527E-05 3.49795E-08-8.87659E-19 4.37763E-19
 -1      2101 9.51029E-05-2.82330E-05-2.86574E-05 6.08537E-08 2.61475E-19-6.56881E-19
 -1      2102 9.51230E-05-2.82681E-05-2.86528E-05-3.21858E-08-1.42321E-18-2.26165E-19
 -1      2103 9.51200E-05-2.82621E-05-2.86543E-05-1.22639E-08-7.48016E-19 7.77536E-19
 -1      2104 9.50951E-05-2.82200E-05-2.86596E-05 1.46956E-09-5.08852E-19-3.05317E-19
 -1      2105 9.51381E-05-2.82986E-05-2.86459E-05-7.27826E-08-1.56312E-18-3.51851E-18
 -1      2106 9.51294E-05-2.82811E-05-2.86503E-05-5.68847E-08-1.58769E-18-1.80531E-18
 -1      2107 9.51029E-05-2.82337E-05-2.86572E-05-5.78966E-08-1.81942E-18-1.55372E-18
 -1      2108 9.51620E-05-2.83469E-05-2.86350E-05-9.83510E-08-5.74501E-20-1.08192E-18
 -1      2109 9.51495E-05-2.83218E-05-2.86413E-05-8.98009E-08-4.26872E-19-2.57361E-18
 -1      2110 9.51246E-05-2.82714E-05-2.86506E-05-1.05603E-07-7.14166E-19-1.78741E-18
 -1      2111 9.51914E-05-2.84065E-05-2.86217E-05-1.04442E-07-3.99014E-19 2.00978E-18
 -1      2112 9.51771E-05-2.83777E-05-2.86290E-05-1.04930E-07 1.10091E-20 9.70833E-19
 -1      2113 9.51566E-05-2.83273E-05-2.86407E-05-1.32979E-07 1.27899E-18-8.19467E-19
 -1      2114 9.52205E-05-2.84667E-05-2.86081E-05-8.90931E-08 1.18836E-19 1.23763E-18
 -1      2115 9.52073E-05-2.84398E-05-2.86150E-05-9.88109E-08-1.08094E-19 1.58851E-18
 -1      2116 9.51938E-05-2.83937E-05-2.86285E-05-1.34754E-07 1.05984E-18 2.10097E-18
 -1      2117 9.52427E-05-2.85200E-05-2.85954E-05-5.54465E-08-2.71620E-19 7.40122E-19
 -1      2118 9.52347E-05-2.84982E-05-2.86013E-05-7.26618E-08-3.16712E-19 1.64567E-18
 -1      2119 9.52290E-05-2.84600E-05-2.86154E-05-1.10715E-07-2.99752E-19 1.53350E-18
 -1      2120 5.14474E-05-3.95461E-05-5.82549E-06 3.64902E-05 2.29969E-18 2.82920E-18
 -1      2121 3.72176E-05-4.13800E-05 1.38511E-07 2.81019E-05 1.71524E-18 1.90731E-18
 -1      2122 1.18484E-05-3.51762E-05 8.48129E-06 2.25260E-06 9.12678E-19 4.24025E-18
 -1      2123 1.19650E-05-3.47752E-05 8.30025E-06-6.53515E-06-2.33358E-19 4.93778E-18
 -1      2124 2.37666E-05-3.57544E-05 3.95994E-06 2.18004E-05 1.52339E-18 1.28580E-18
 -1      2125 1.69215E-05-3.68047E-05 6.91213E-06 1.30977E-05 9.75358E-19 2.34459E-18
 -1      2126 9.04888E-05-4.30543E-05-2.05059E-05 4.15404E-05 2.71643E-18 1.13206E-18
 -1      2127 7.13832E-05-4.52142E-05-1.25089E-05 3.61809E-05 2.56524E-18 1.90837E-18
 -1      2128 1.30686E-04-4.34354E-05-3.68650E-05 3.74380E-05 3.85654E-18-2.37085E-18
 -1      2129 1.08528E-04-4.46720E-05-2.81843E-05 3.52964E-05 3.01798E-18-8.40680E-19
 -1      2130 8.73114E-05-8.68028E-06-3.37950E-05-1.03057E-05-1.22897E-18-4.70895E-18
 -1      2131 8.80195E-05-9.21607E-06-3.38592E-05-1.18574E-05-1.61218E-18-4.48159E-18
 -1      2132 9.05452E-05-1.30170E-05-3.32746E-05-1.16166E-05-1.92925E-18-4.00877E-18
 -1      2133 8.87284E-05-1.09677E-05-3.33503E-05-9.15878E-06-1.16665E-18-4.53888E-18
 -1      2134 1.79550E-04-3.12181E-05-6.25224E-05 7.41566E-06 2.99765E-18-4.02976E-18
 -1      2135 1.70646E-04-3.39289E-05-5.77710E-05 1.47287E-05 2.97065E-18-3.62022E-18
 -1      2136 1.90210E-04-2.73461E-05-6.80465E-05-1.42972E-07 3.42582E-18-5.10990E-18
 -1      2137 1.82402E-04-2.54062E-05-6.62261E-05 5.06154E-06 3.26870E-18-3.97618E-18
 -1      2138 1.83103E-04-2.72667E-05-6.56199E-05-8.33728E-06 4.83995E-18-5.36172E-18
 -1      2139 1.91183E-04-2.83684E-05-6.80407E-05-2.41022E-06 4.23178E-18-4.83169E-18
 -1      2140 1.68136E-04-1.63221E-05-6.34898E-05 1.48782E-07 3.78666E-18-2.35541E-18
 -1      2141 1.65932E-04-3.55656E-05-5.54819E-05-1.56828E-05 5.29332E-18-5.75389E-18
 -1      2142 1.78195E-04-3.32553E-05-6.08587E-05-1.01669E-05 5.05382E-18-4.49520E-18
 -1      2143 1.43630E-04-4.56700E-05-4.20081E-05-2.14404E-05 4.03865E-18-5.62430E-18
 -1      2144 1.61278E-04-4.16907E-05-5.00550E-05-2.22533E-05 4.95313E-18-5.81827E-18
 -1      2145 1.58025E-04-4.10392E-05-4.96574E-05-6.72407E-07 3.42985E-18-2.21414E-18
 -1      2146 1.03474E-04-4.70477E-05-2.50352E-05-3.57049E-05 3.85993E-18-6.74196E-18
 -1      2147 1.26232E-04-4.88837E-05-3.32943E-05-3.35935E-05 3.20051E-18-6.86563E-18
 -1      2148 6.90206E-05-4.58261E-05-1.10429E-05-3.68861E-05 2.33103E-18-6.41839E-18
 -1      2149 8.68293E-05-4.41914E-05-1.85273E-05-4.13607E-05 4.05475E-18-6.50479E-18
 -1      2150 1.07801E-04-5.53496E-05-2.24673E-05-3.62025E-05 9.37242E-19-4.60384E-18
 -1      2151 3.69236E-05-3.85868E-05-1.84486E-07-2.95818E-05-3.75236E-19-7.86661E-18
 -1      2152 5.17692E-05-3.96952E-05-5.58752E-06-3.76913E-05 1.57040E-18-7.97344E-18
 -1      2153 1.39700E-05-3.54497E-05 7.66476E-06-7.88921E-06-1.50581E-18-5.37951E-18
 -1      2154 1.92309E-05-3.30213E-05 4.88628E-06-1.88023E-05-1.75759E-19-7.07103E-18
 -1      2155 1.39812E-05-3.18328E-05 6.57071E-06 1.29542E-05-3.07748E-18-4.44269E-18
 -1      2156 1.20815E-05-3.34963E-05 7.81540E-06 2.58558E-06-1.52474E-18-4.35375E-18
 -1      2157 3.35330E-05-3.58926E-05 1.29029E-07 3.20327E-05-3.87560E-18-5.33504E-18
 -1      2158 2.34157E-05-3.62835E-05 4.21171E-06 2.36849E-05-2.78039E-18-4.85773E-18
 -1      2159 6.37439E-05-3.87419E-05-1.11539E-05 4.15863E-05-5.56162E-18-4.99411E-18
 -1      2160 4.91007E-05-4.12640E-05-4.69014E-06 3.53831E-05-3.84807E-18-5.56935E-18
 -1      2161 9.91169E-05-3.98066E-05-2.52804E-05 4.36374E-05-6.55265E-18-4.68833E-18
 -1      2162 8.07176E-05-4.20738E-05-1.76268E-05 3.92694E-05-6.47430E-18-3.89042E-18
 -1      2163 1.34228E-04-3.90145E-05-4.01090E-05 3.74170E-05-6.91518E-18-3.41185E-18
 -1      2164 1.15051E-04-4.04245E-05-3.24511E-05 3.66631E-05-7.00750E-18-4.29319E-18
 -1      2165 1.61823E-04-3.47820E-05-5.33470E-05 2.60224E-05-6.49931E-18-2.12224E-18
 -1      2166 1.44639E-04-3.52251E-05-4.67604E-05 2.90138E-05-7.05833E-18-3.12174E-18
 -1      2167 1.76325E-04-2.82975E-05-6.24094E-05 1.16590E-05-5.34054E-18-1.57633E-18
 -1      2168 1.66853E-04-2.92083E-05-5.82481E-05 1.90243E-05-6.37244E-18-2.50129E-18
 -1      2169 1.77471E-04-2.22766E-05-6.56238E-05 1.48749E-07-5.21095E-18-5.83288E-19
 -1      2170 1.74801E-04-2.26623E-05-6.43646E-05 6.54426E-06-5.21052E-18-1.17018E-18
 -1      2171 1.71783E-04-2.28054E-05-6.32370E-05-7.74429E-06-4.45539E-18 9.93146E-19
 -1      2172 1.78202E-04-2.30570E-05-6.54750E-05-1.97259E-06-4.58753E-18-4.08270E-19
 -1      2173 1.61010E-04-3.12253E-05-5.50461E-05-1.99066E-05-3.44086E-18 1.81519E-18
 -1      2174 1.70436E-04-2.92869E-05-5.97303E-05-1.24699E-05-3.50523E-18 1.18458E-18
 -1      2175 1.37026E-04-3.62633E-05-4.32386E-05-3.20055E-05-1.26547E-18 4.07931E-18
 -1      2176 1.55471E-04-3.58351E-05-5.03103E-05-2.98446E-05-2.99828E-18 2.65333E-18
 -1      2177 1.08350E-04-4.36277E-05-2.82414E-05-3.65832E-05-2.57498E-19 4.83783E-18
 -1      2178 1.27055E-04-4.06525E-05-3.63773E-05-3.87217E-05-3.89635E-19 5.13006E-18
 -1      2179 6.76812E-05-4.22285E-05-1.21212E-05-3.84477E-05-1.27521E-18 2.99828E-18
 -1      2180 8.71874E-05-4.08967E-05-2.00028E-05-4.40343E-05-1.14138E-18 4.87827E-18
 -1      2181 3.78752E-05-3.99825E-05-5.78760E-07-3.14170E-05-4.68409E-19 1.67744E-18
 -1      2182 5.07150E-05-3.76012E-05-6.25759E-06-3.86088E-05-1.26123E-18 1.43641E-18
 -1      2183 1.78990E-05-3.59278E-05 6.26332E-06-1.74690E-05 8.17810E-19 4.60489E-18
 -1      2184 2.48233E-05-3.44316E-05 3.11400E-06-2.58694E-05-3.40084E-19 3.40317E-18
 -1      2185 1.65278E-04-4.00145E-05-5.26441E-05 2.54020E-05 3.60931E-18-4.42744E-18
 -1      2186 1.44493E-04-4.02205E-05-4.46959E-05 2.79428E-05 4.11594E-18-2.85365E-18
 -1      2187 1.13014E-04-5.45314E-05-2.50806E-05 3.48928E-05 1.62292E-18-1.53144E-18
 -1      2188 9.71498E-05-2.43025E-05-3.12919E-05-9.82361E-06-2.67440E-18-8.11193E-19
 -1      2189 1.44926E-04-5.08808E-05-3.97372E-05 2.05012E-05 3.56855E-18-3.32672E-18
 -1      2190 1.61415E-04-3.78545E-05-5.19952E-05 4.33641E-06 3.39247E-18-4.21738E-18
 -1      2191 9.63643E-05-2.30977E-05-3.14665E-05-1.01522E-05-2.77389E-18-1.80876E-18
 -1      2192 3.69637E-05-3.46704E-05-1.58878E-06 3.14703E-05-8.43433E-19 1.34191E-18
 -1      2193 1.64309E-05-2.63203E-05 3.48146E-06 1.06594E-05-1.36372E-18 3.64394E-18
 -1      2194 9.52491E-05-2.85286E-05-2.85943E-05-4.81645E-08 2.89947E-19-8.64158E-20
 -1      2195 7.28986E-05-4.72501E-05-1.14031E-05 4.02810E-05 3.11708E-19 1.37259E-18
 -1      2196 1.71647E-05-2.58602E-05 3.04718E-06-1.55134E-05-3.40931E-19 4.81115E-18
 -1      2197 3.81148E-05-3.40856E-05-2.25555E-06-3.51265E-05-9.78323E-20 2.45131E-18
 -1      2198 7.03118E-05-4.47426E-05-1.12694E-05-4.31682E-05-1.23667E-19 2.73784E-18
 -1      2199 1.09290E-04-5.15626E-05-2.46705E-05-3.76840E-05 4.56127E-19 3.68481E-18
 -1      2200 1.38999E-04-4.76344E-05-3.87137E-05-2.29003E-05 7.50259E-19 2.41828E-18
 -1      2201 1.53710E-04-3.53893E-05-4.97883E-05-9.72358E-06-1.36849E-18-6.63650E-19
 -1      2202 1.57042E-04-2.06001E-05-5.75587E-05 2.66017E-07-3.65961E-18-1.56701E-18
 -1      2203 1.55879E-04-1.16482E-05-6.08103E-05 1.18129E-07-5.23212E-18-1.18828E-18
 -1      2204 1.58462E-04-1.78237E-05-5.92781E-05 4.16789E-07-5.64124E-18-1.06006E-18
 -1      2205 1.57040E-04-3.16852E-05-5.27458E-05 7.57268E-06-6.09525E-18-1.49374E-18
 -1      2206 1.44016E-04-4.48192E-05-4.18750E-05 1.98656E-05-5.72245E-18-9.82135E-19
 -1      2207 1.18798E-04-5.09819E-05-2.88762E-05 3.47467E-05-4.64089E-18-2.47524E-18
 -1      2208 8.48463E-05-4.81629E-05-1.59779E-05 4.28009E-05-3.01586E-18-2.97160E-18
 -1      2209 4.97214E-05-3.86825E-05-5.24783E-06 3.96562E-05-1.32222E-18-4.57567E-18
 -1      2210 2.25231E-05-2.73878E-05 1.57474E-06 2.21812E-05-1.15006E-18-5.13133E-18
 -1      2211 1.48298E-05-2.43497E-05 3.47929E-06-3.58737E-06-6.67356E-19-5.47564E-18
 -1      2212 7.16687E-05-4.65041E-05-1.11302E-05-4.07932E-05-4.60786E-19-6.53528E-18
 -1      2213 1.40021E-04-5.27944E-05-3.72702E-05-2.15208E-05 2.01213E-18-5.07669E-18
 -1      2214 1.47672E-04-5.53239E-05-4.01436E-05-6.46188E-06 9.30452E-19-2.20927E-18
 -1      2215 1.35372E-04-5.86638E-05-3.24372E-05-2.02266E-05 5.67618E-19-3.04445E-18
 -1      2216 1.65916E-04-2.50554E-05-5.92775E-05 2.77139E-06 4.00901E-18-2.25713E-18
 -1      2217 1.65630E-04-2.23277E-05-6.03163E-05-2.96519E-06 3.63970E-18-2.81893E-18
 -1      2218 3.42102E-05-3.16424E-05-1.39043E-06-2.94372E-05-5.41254E-19-7.98434E-18
 -1      2219 9.53210E-05-2.63597E-05-2.95393E-05 3.91044E-06 2.26090E-18 2.69549E-18
 -1      2220 9.62413E-05-2.58424E-05-3.00972E-05 5.74596E-06 2.49606E-18 3.11446E-18
 -1      2221 8.80479E-05-1.09119E-05-3.30980E-05-3.49104E-06 4.19532E-19-4.25577E-18
 -1      2222 8.83037E-05-1.12044E-05-3.30786E-05-4.59532E-06 4.13350E-20-4.41242E-18
 -1      2223 8.86832E-05-1.17249E-05-3.30277E-05-5.57731E-06-2.51245E-19-4.38885E-18
 -1      2224 8.91175E-05-1.22278E-05-3.29959E-05-6.72397E-06-6.70550E-19-4.43139E-18
 -1      2225 8.98011E-05-1.35320E-05-3.26843E-05-4.64928E-06-9.41600E-20-4.10869E-18
 -1      2226 8.76631E-05-1.04059E-05-3.31441E-05 5.90752E-07 1.47404E-18-3.86297E-18
 -1      2227 8.76580E-05-1.04011E-05-3.31440E-05-4.73064E-07 1.19165E-18-3.94924E-18
 -1      2228 8.78662E-05-1.06522E-05-3.31256E-05 2.63281E-06 1.96202E-18-3.51053E-18
 -1      2229 8.77376E-05-1.05066E-05-3.31351E-05 1.55798E-06 1.70103E-18-3.74393E-18
 -1      2230 8.89332E-05-1.23795E-05-3.28102E-05 9.90533E-07 1.47956E-18-3.60998E-18
 -1      2231 8.83448E-05-1.12467E-05-3.30788E-05 4.67807E-06 2.49255E-18-2.97281E-18
 -1      2232 8.80825E-05-1.09477E-05-3.30980E-05 3.59115E-06 2.17510E-18-3.27699E-18
 -1      2233 8.92325E-05-1.27696E-05-3.27699E-05 2.85260E-06 1.96757E-18-3.19812E-18
 -1      2234 8.91796E-05-1.22962E-05-3.29948E-05 6.80459E-06 3.03575E-18-2.25282E-18
 -1      2235 8.87358E-05-1.17809E-05-3.30271E-05 5.65797E-06 2.72423E-18-2.68823E-18
 -1      2236 8.98471E-05-1.35812E-05-3.26831E-05 4.71775E-06 2.49680E-18-2.60194E-18
 -1      2237 9.04973E-05-1.39784E-05-3.28569E-05 8.92395E-06 3.43103E-18-1.29243E-18
 -1      2238 8.97975E-05-1.31381E-05-3.29087E-05 7.75592E-06 3.15685E-18-1.83913E-18
 -1      2239 9.08495E-05-1.49237E-05-3.25319E-05 6.55501E-06 2.90896E-18-1.84437E-18
 -1      2240 9.25145E-05-1.66147E-05-3.26280E-05 1.08138E-05 3.59673E-18 1.22754E-20
 -1      2241 9.14336E-05-1.52513E-05-3.27108E-05 9.73011E-06 3.43460E-18-6.98220E-19
 -1      2242 9.23285E-05-1.69634E-05-3.22783E-05 8.18131E-06 3.22023E-18-8.71504E-19
 -1      2243 9.44595E-05-2.71035E-05-2.88469E-05 1.38055E-06 1.74387E-18 2.10036E-18
 -1      2244 9.49859E-05-2.68737E-05-2.91192E-05 2.40331E-06 1.92172E-18 2.51665E-18
 -1      2245 9.54712E-05-2.58053E-05-2.98665E-05 3.98434E-06 2.39034E-18 1.34497E-18
 -1      2246 9.59752E-05-2.50429E-05-3.03534E-05-5.88092E-06-2.21188E-18-2.01393E-18
 -1      2247 9.53730E-05-2.58113E-05-2.98292E-05-3.90095E-06-1.92343E-18-1.98199E-18
 -1      2248 1.49540E-04-5.25709E-05-4.18909E-05 8.52261E-06 3.47506E-18-3.51646E-18
 -1      2249 1.38672E-04-5.69708E-05-3.51523E-05 1.58227E-05 2.99543E-18-3.30195E-18
 -1      2250 9.53212E-05-2.64930E-05-2.94347E-05-2.55114E-06-1.67299E-18-1.73694E-18
 -1      2251 9.48895E-05-2.68444E-05-2.91575E-05-1.40504E-06-1.41146E-18-1.80459E-18
 -1      2252 9.54814E-05-2.53588E-05-3.00863E-05-3.82909E-06-1.79545E-18-2.21709E-18
 -1      2253 9.47504E-05-2.71792E-05-2.89202E-05-4.67396E-07-1.32964E-18-1.70447E-18
 -1      2254 9.45804E-05-2.73963E-05-2.87866E-05 2.19323E-07-1.12128E-18-1.89992E-18
 -1      2255 9.52266E-05-2.65732E-05-2.94378E-05-1.31770E-06-1.43745E-18-1.98715E-18
 -1      2256 9.44952E-05-2.75704E-05-2.86593E-05 8.38133E-07-9.89348E-19-1.85728E-18
 -1      2257 9.45168E-05-2.77241E-05-2.86180E-05 1.27952E-06-9.06148E-19-1.91864E-18
 -1      2258 9.50419E-05-2.72831E-05-2.90540E-05 3.62551E-07-1.16168E-18-1.84834E-18
 -1      2259 9.45168E-05-2.78310E-05-2.85666E-05 1.70510E-06-8.50871E-19-1.85980E-18
 -1      2260 9.46798E-05-2.79578E-05-2.85872E-05 2.00981E-06-7.06978E-19-1.85775E-18
 -1      2261 9.49859E-05-2.76849E-05-2.88558E-05 1.50344E-06-9.12328E-19-1.88031E-18
 -1      2262 9.47592E-05-2.80339E-05-2.85895E-05 2.32342E-06-7.11602E-19-1.89123E-18
 -1      2263 9.50293E-05-2.81515E-05-2.86535E-05 2.55594E-06-7.39161E-19-1.85040E-18
 -1      2264 9.50855E-05-2.79377E-05-2.87878E-05 2.31307E-06-7.31242E-19-1.77315E-18
 -1      2265 9.51785E-05-2.82165E-05-2.86945E-05 2.81092E-06-7.04341E-19-1.84648E-18
 -1      2266 9.55346E-05-2.83372E-05-2.87903E-05 3.00914E-06-5.92614E-19-1.90930E-18
 -1      2267 9.53271E-05-2.81165E-05-2.88127E-05 2.93538E-06-7.61967E-19-1.87545E-18
 -1      2268 9.57478E-05-2.84060E-05-2.88592E-05 3.23724E-06-8.45298E-19-1.95431E-18
 -1      2269 9.61785E-05-2.85417E-05-2.89788E-05 3.41986E-06-9.59934E-19-2.07063E-18
 -1      2270 9.56977E-05-2.82699E-05-2.89044E-05 3.46188E-06-8.95348E-19-1.83317E-18
 -1      2271 9.64553E-05-2.86295E-05-2.90674E-05 3.63456E-06-9.29160E-19-1.92493E-18
 -1      2272 9.69550E-05-2.87938E-05-2.92046E-05 3.80334E-06-8.54219E-19-2.03739E-18
 -1      2273 9.61930E-05-2.84393E-05-2.90434E-05 3.94206E-06-9.72709E-19-1.78289E-18
 -1      2274 9.73015E-05-2.89189E-05-2.93058E-05 4.00027E-06-5.87768E-19-1.97175E-18
 -1      2275 9.78665E-05-2.91279E-05-2.94543E-05 4.13960E-06-2.51027E-19-1.86959E-18
 -1      2276 9.68205E-05-2.86686E-05-2.92139E-05 4.38758E-06-7.13381E-19-1.62438E-18
 -1      2277 9.82945E-05-2.93127E-05-2.95615E-05 4.29489E-06 5.20237E-20-1.72629E-18
 -1      2278 9.89193E-05-2.95846E-05-2.97138E-05 4.36994E-06 2.61614E-19-1.34888E-18
 -1      2279 9.75995E-05-2.90101E-05-2.94018E-05 4.77131E-06-1.98449E-19-1.10824E-18
 -1      2280 9.94458E-05-2.98555E-05-2.98203E-05 4.43772E-06 8.34605E-20-1.46432E-18
 -1      2281 1.00118E-04-3.02070E-05-2.99672E-05 4.39310E-06 1.51844E-19-1.44021E-18
 -1      2282 9.85601E-05-2.95253E-05-2.95936E-05 5.02341E-06 9.19266E-20-5.85676E-19
 -1      2283 1.00762E-04-3.05900E-05-3.00667E-05 4.30356E-06 1.19740E-19-1.86789E-18
 -1      2284 1.01457E-04-3.10294E-05-3.01974E-05 4.06519E-06 1.87613E-20-1.77417E-18
 -1      2285 9.97396E-05-3.02791E-05-2.97775E-05 5.02693E-06-1.52236E-20-9.69298E-19
 -1      2286 1.02230E-04-3.15389E-05-3.02860E-05 3.72682E-06-1.80813E-20-1.37764E-18
 -1      2287 1.02899E-04-3.20508E-05-3.03891E-05 3.21194E-06-2.64230E-19-1.06802E-18
 -1      2288 1.01170E-04-3.13216E-05-2.99454E-05 4.61758E-06 1.04520E-19-8.26477E-19
 -1      2289 1.03788E-04-3.26677E-05-3.04681E-05 2.52416E-06-7.40727E-19-1.30745E-18
 -1      2290 1.04354E-04-3.31897E-05-3.05356E-05 1.66650E-06-9.54470E-19-9.70315E-19
 -1      2291 1.02853E-04-3.26476E-05-3.00987E-05 3.59685E-06-5.88131E-19-7.28055E-19
 -1      2292 1.05287E-04-3.38272E-05-3.06150E-05 5.53602E-07-8.12232E-19-9.84928E-19
 -1      2293 1.05628E-04-3.42227E-05-3.06462E-05-6.49549E-07-6.02103E-19-8.79050E-19
 -1      2294 1.04707E-04-3.41283E-05-3.02554E-05 1.77533E-06-9.47513E-19-8.38853E-19
 -1      2295 1.06440E-04-3.46920E-05-3.07468E-05-2.16976E-06-4.58453E-19-7.04734E-19
 -1      2296 1.06406E-04-3.47431E-05-3.07520E-05-3.58863E-06-1.59657E-19-6.67731E-19
 -1      2297 1.06494E-04-3.54257E-05-3.04555E-05-9.29028E-07-5.28143E-19-5.65613E-19
 -1      2298 1.06828E-04-3.47591E-05-3.09011E-05-5.30214E-06 4.20373E-21-7.05384E-19
 -1      2299 1.06290E-04-3.42251E-05-3.09010E-05-6.61200E-06 2.80798E-19-9.98321E-19
 -1      2300 1.07767E-04-3.59544E-05-3.07576E-05-4.31413E-06-2.26972E-19-4.54979E-19
 -1      2301 1.06034E-04-3.35125E-05-3.11175E-05-8.02302E-06 5.06584E-19-8.12266E-19
 -1      2302 1.04994E-04-3.22920E-05-3.11338E-05-8.71334E-06 6.04089E-19-7.52071E-19
 -1      2303 1.07944E-04-3.50182E-05-3.12160E-05-7.68101E-06 2.86760E-19-6.57066E-19
 -1      2304 1.03987E-04-3.08335E-05-3.14049E-05-9.10452E-06 4.12004E-19-1.05421E-18
 -1      2305 1.02698E-04-2.91860E-05-3.14438E-05-8.66075E-06 2.10643E-19-1.07433E-18
 -1      2306 1.06624E-04-3.22514E-05-3.18334E-05-9.75349E-06 3.23639E-19-9.00999E-19
 -1      2307 1.01345E-04-2.74748E-05-3.17030E-05-7.45894E-06-2.27394E-19-1.11042E-18
 -1      2308 1.00303E-04-2.60763E-05-3.17444E-05-5.72348E-06-4.41602E-19-8.30225E-19
 -1      2309 1.04131E-04-2.82614E-05-3.25069E-05-9.06982E-06-6.73598E-20-1.04441E-18
 -1      2310 9.94189E-05-2.50098E-05-3.18913E-05-3.05877E-06-5.18477E-19-1.01434E-18
 -1      2311 9.91240E-05-2.46018E-05-3.19056E-05-5.24048E-07 1.46292E-19-1.20156E-18
 -1      2312 1.01751E-04-2.47815E-05-3.30223E-05-5.01995E-06-6.10079E-19-7.97694E-19
 -1      2313 9.93364E-05-2.48499E-05-3.18741E-05 2.58496E-06-7.73844E-20-2.22750E-18
 -1      2314 9.99491E-05-2.56746E-05-3.18513E-05 4.93581E-06-5.03985E-20-2.22624E-18
 -1      2315 1.01030E-04-2.37558E-05-3.31674E-05 1.18370E-06-5.61464E-19-1.92799E-18
 -1      2316 1.01107E-04-2.70764E-05-3.16575E-05 7.16073E-06 4.95415E-20-2.28725E-18
 -1      2317 1.02314E-04-2.86582E-05-3.16179E-05 8.46255E-06 1.82091E-19-2.84107E-18
 -1      2318 1.02493E-04-2.58164E-05-3.28805E-05 6.88828E-06-3.41867E-19-2.94189E-18
 -1      2319 1.03631E-04-3.03688E-05-3.13486E-05 9.07234E-06 8.59085E-20-3.30561E-18
 -1      2320 1.04891E-04-3.19221E-05-3.13219E-05 9.07673E-06 6.81256E-19-3.19488E-18
 -1      2321 1.05122E-04-2.97254E-05-3.22910E-05 9.78663E-06-2.75081E-19-3.35827E-18
 -1      2322 1.05656E-04-3.31386E-05-3.10700E-05 8.25254E-06 9.58639E-19-4.28828E-18
 -1      2323 1.06548E-04-3.41212E-05-3.10675E-05 7.29284E-06 7.37445E-19-4.27837E-18
 -1      2324 1.07311E-04-3.34154E-05-3.16263E-05 9.37153E-06 3.57802E-19-3.78872E-18
 -1      2325 1.06548E-04-3.45502E-05-3.08823E-05 5.72027E-06 8.73779E-19-3.78824E-18
 -1      2326 1.06919E-04-3.48532E-05-3.08914E-05 4.34300E-06 7.98896E-19-3.13603E-18
 -1      2327 1.08105E-04-3.55292E-05-3.10708E-05 6.70274E-06 9.47221E-19-4.54688E-18
 -1      2328 1.06338E-04-3.46378E-05-3.07710E-05 2.68515E-06 2.85177E-19-2.56569E-18
 -1      2329 1.06250E-04-3.44378E-05-3.07688E-05 1.34542E-06 1.74224E-19-1.57951E-18
 -1      2330 1.07497E-04-3.58635E-05-3.06869E-05 3.26314E-06 9.20647E-19-3.10992E-18
 -1      2331 1.05387E-04-3.38790E-05-3.06886E-05-6.02142E-09-4.40990E-19-1.24969E-18
 -1      2332 1.04988E-04-3.34226E-05-3.06578E-05-1.05729E-06 1.87464E-19-9.90131E-19
 -1      2333 1.06009E-04-3.49742E-05-3.04459E-05 1.37956E-07 4.52047E-19-1.63623E-18
 -1      2334 1.04082E-04-3.27772E-05-3.05919E-05-1.97139E-06 1.77288E-19-1.44043E-18
 -1      2335 1.03516E-04-3.22555E-05-3.05268E-05-2.66026E-06 3.03885E-19-1.81578E-18
 -1      2336 1.04202E-04-3.35525E-05-3.02875E-05-2.17302E-06-4.35376E-19-8.46808E-19
 -1      2337 1.02693E-04-3.16728E-05-3.04584E-05-3.16283E-06 4.16072E-20-2.39419E-18
 -1      2338 1.02067E-04-3.11939E-05-3.03632E-05-3.52132E-06-2.60023E-19-2.33375E-18
 -1      2339 1.02444E-04-3.20990E-05-3.01588E-05-3.59446E-06-2.82446E-19-2.53107E-18
 -1      2340 1.01374E-04-3.07326E-05-3.02858E-05-3.70268E-06-5.82623E-19-2.16023E-18
 -1      2341 1.00756E-04-3.03398E-05-3.01703E-05-3.80739E-06-1.24563E-18-2.00373E-18
 -1      2342 1.00910E-04-3.08682E-05-3.00279E-05-4.26221E-06-6.83393E-19-2.21947E-18
 -1      2343 1.00195E-04-3.00045E-05-3.00844E-05-3.76842E-06-9.67997E-19-1.22683E-18
 -1      2344 9.96226E-05-2.97038E-05-2.99598E-05-3.70227E-06-3.45984E-19-1.28703E-18
 -1      2345 9.96444E-05-2.99371E-05-2.98829E-05-4.37799E-06-7.18699E-19-1.14778E-18
 -1      2346 9.91768E-05-2.94753E-05-2.98696E-05-3.53007E-06-2.58885E-19-5.04865E-19
 -1      2347 9.86705E-05-2.92556E-05-2.97458E-05-3.36394E-06-1.09552E-19 3.45646E-20
 -1      2348 9.86305E-05-2.92878E-05-2.97251E-05-4.13524E-06 3.64860E-19 9.06437E-20
 -1      2349 9.83192E-05-2.91081E-05-2.96563E-05-3.12445E-06-4.45372E-19-3.56730E-19
 -1      2350 9.78857E-05-2.89530E-05-2.95403E-05-2.91141E-06-1.76424E-19 3.72559E-19
 -1      2351 9.78297E-05-2.88650E-05-2.95619E-05-3.69006E-06-2.23281E-19 8.36395E-19
 -1      2352 9.76099E-05-2.88629E-05-2.94559E-05-2.65011E-06 3.46037E-19-2.29786E-19
 -1      2353 9.72487E-05-2.87566E-05-2.93523E-05-2.42610E-06 1.07798E-18-3.52227E-19
 -1      2354 9.72014E-05-2.86085E-05-2.94017E-05-3.15595E-06-3.19708E-19 1.42183E-18
 -1      2355 9.70331E-05-2.87052E-05-2.92759E-05-2.17173E-06 2.29154E-18-1.67070E-18
 -1      2356 9.67394E-05-2.86344E-05-2.91868E-05-1.95877E-06 2.17750E-18-5.29254E-19
 -1      2357 9.67108E-05-2.84662E-05-2.92518E-05-2.60860E-06 7.81931E-19-3.20367E-19
 -1      2358 9.65717E-05-2.86080E-05-2.91202E-05-1.72761E-06 1.26531E-18-1.75495E-19
 -1      2359 9.63381E-05-2.85624E-05-2.90460E-05-1.53755E-06 4.88263E-19 1.14360E-18
 -1      2360 9.63296E-05-2.83982E-05-2.91169E-05-2.09405E-06 1.98076E-18-5.16988E-19
 -1      2361 9.62086E-05-2.85514E-05-2.89896E-05-1.33720E-06-9.74189E-19 2.45205E-18
 -1      2362 9.60268E-05-2.85233E-05-2.89295E-05-1.17493E-06-5.75940E-19 2.82036E-18
 -1      2363 9.60352E-05-2.83759E-05-2.89998E-05-1.63680E-06 6.14345E-19 1.19992E-18
 -1      2364 9.59278E-05-2.85212E-05-2.88831E-05-1.00733E-06 7.43259E-20 2.80289E-18
 -1      2365 9.57893E-05-2.85049E-05-2.88357E-05-8.73322E-07 1.14460E-18 2.20398E-18
 -1      2366 9.58099E-05-2.83799E-05-2.89011E-05-1.24668E-06-1.51444E-19 4.27432E-18
 -1      2367 9.57145E-05-2.85076E-05-2.87985E-05-7.37013E-07 1.98021E-18 1.74988E-18
 -1      2368 9.56115E-05-2.84991E-05-2.87621E-05-6.29215E-07 2.33171E-18 9.67940E-19
 -1      2369 9.56391E-05-2.83972E-05-2.88201E-05-9.24142E-07 1.03301E-18 2.54779E-18
 -1      2370 9.55554E-05-2.85038E-05-2.87329E-05-5.20872E-07 1.52813E-18 2.24496E-19
 -1      2371 9.54807E-05-2.85002E-05-2.87056E-05-4.35946E-07 9.24496E-19 3.80323E-19
 -1      2372 9.55111E-05-2.84198E-05-2.87552E-05-6.64258E-07 1.33279E-18 1.59921E-18
 -1      2373 9.54391E-05-2.85054E-05-2.86831E-05-3.51494E-07 1.01918E-18 2.86686E-19
 -1      2374 9.53865E-05-2.85049E-05-2.86632E-05-2.85862E-07 5.55028E-20 9.59266E-19
 -1      2375 9.54162E-05-2.84429E-05-2.87042E-05-4.59296E-07 4.44479E-19 9.95339E-19
 -1      2376 9.53558E-05-2.85103E-05-2.86461E-05-2.21125E-07-1.03539E-18 1.65297E-18
 -1      2377 9.53203E-05-2.85115E-05-2.86318E-05-1.71865E-07-1.29964E-18 1.46861E-18
 -1      2378 9.53461E-05-2.84638E-05-2.86648E-05-3.00859E-07-6.71299E-20 1.46309E-18
 -1      2379 9.39506E-05-2.77098E-05-2.83758E-05-1.15234E-06 9.90641E-19 8.86053E-19
 -1      2380 9.38900E-05-2.75865E-05-2.83902E-05-7.64053E-07 1.12981E-18 1.24663E-18
 -1      2381 9.41987E-05-2.79071E-05-2.83983E-05-1.84058E-06 9.65546E-19 5.67083E-19
 -1      2382 9.39657E-05-2.77885E-05-2.83472E-05-1.56295E-06 9.88021E-19 6.97140E-19
 -1      2383 9.45731E-05-2.77215E-05-2.86647E-05-1.42189E-06 1.27232E-18-9.76896E-20
 -1      2384 9.46901E-05-2.80918E-05-2.85293E-05-2.38805E-06 7.65396E-19 4.46815E-19
 -1      2385 9.43254E-05-2.79709E-05-2.84294E-05-2.15489E-06 8.89986E-19 6.62671E-19
 -1      2386 9.47341E-05-2.79198E-05-2.86461E-05-2.22789E-06 9.52028E-19-8.76110E-20
 -1      2387 9.53858E-05-2.82777E-05-2.87463E-05-2.90332E-06 6.57295E-19 8.41260E-20
 -1      2388 9.49082E-05-2.81496E-05-2.86061E-05-2.66989E-06 6.89221E-19 3.92419E-19
 -1      2389 9.50853E-05-2.80610E-05-2.87340E-05-2.89128E-06 8.16941E-19-3.40768E-20
 -1      2390 9.62706E-05-2.84754E-05-2.90387E-05-3.46438E-06 2.72018E-19 4.27165E-19
 -1      2391 9.56829E-05-2.83343E-05-2.88609E-05-3.19828E-06 4.85352E-19 3.14112E-19
 -1      2392 9.55975E-05-2.81697E-05-2.89055E-05-3.52903E-06 4.88997E-19-2.01207E-19
 -1      2393 9.73483E-05-2.86985E-05-2.94024E-05-4.12777E-06 4.55128E-19 3.58085E-19
 -1      2394 9.66415E-05-2.85355E-05-2.91866E-05-3.80574E-06 4.01474E-19 4.18462E-19
 -1      2395 9.62557E-05-2.82627E-05-2.91469E-05-4.22584E-06 3.02084E-19-2.47333E-20
 -1      2396 9.86372E-05-2.89677E-05-2.98370E-05-4.92938E-06 2.75239E-19 1.35254E-19
 -1      2397 9.77946E-05-2.87695E-05-2.95811E-05-4.53810E-06 5.07934E-19 1.27251E-19
 -1      2398 9.70581E-05-2.83584E-05-2.94493E-05-5.04174E-06 4.92854E-19-5.06922E-19
 -1      2399 1.00166E-04-2.93172E-05-3.03411E-05-5.87709E-06 4.67868E-19-2.62107E-20
 -1      2400 9.91669E-05-2.90628E-05-3.00436E-05-5.41838E-06 3.22124E-19 2.04462E-19
 -1      2401 9.80164E-05-2.84856E-05-2.98055E-05-6.01170E-06 3.14517E-19-3.86050E-19
 -1      2402 1.01973E-04-2.98047E-05-3.09078E-05-6.93312E-06-1.13095E-19 6.10128E-21
 -1      2403 1.00796E-04-2.94612E-05-3.05709E-05-6.43482E-06 2.37793E-19 7.69653E-20
 -1      2404 9.91579E-05-2.86952E-05-3.02054E-05-7.13671E-06 1.65248E-19-3.26136E-19
 -1      2405 1.04107E-04-3.05266E-05-3.15189E-05-7.98231E-06-3.99649E-19 2.74282E-19
 -1      2406 1.02736E-04-3.00432E-05-3.11520E-05-7.51696E-06-2.77632E-19 1.86760E-19
 -1      2407 1.00536E-04-2.90796E-05-3.06331E-05-8.36418E-06-2.50786E-19-4.91435E-19
 -1      2408 1.06632E-04-3.16344E-05-3.21394E-05-8.78432E-06-1.86901E-19 8.97094E-20
 -1      2409 1.05063E-04-3.09382E-05-3.17632E-05-8.49539E-06-1.88742E-19 2.10741E-19
 -1      2410 1.02247E-04-2.97983E-05-3.10634E-05-9.55410E-06-2.58082E-19-5.24280E-19
 -1      2411 1.09624E-04-3.33337E-05-3.27177E-05-8.91623E-06 4.88874E-19 8.50706E-20
 -1      2412 1.07885E-04-3.23395E-05-3.23661E-05-9.04455E-06 1.66577E-19 6.15224E-20
 -1      2413 1.04464E-04-3.11030E-05-3.14642E-05-1.04283E-05 1.27033E-19-7.06133E-19
 -1      2414 1.13148E-04-3.58132E-05-3.31997E-05-7.73896E-06 3.00233E-20 6.50726E-19
 -1      2415 1.11327E-04-3.44780E-05-3.29141E-05-8.62188E-06 4.14288E-19 7.28455E-19
 -1      2416 1.07456E-04-3.33262E-05-3.18095E-05-1.05068E-05 4.21697E-20 2.10547E-19
 -1      2417 1.17120E-04-3.90014E-05-3.35740E-05-4.47742E-06-7.57214E-19 1.56092E-18
 -1      2418 1.15449E-04-3.74750E-05-3.33814E-05-6.45888E-06-3.75566E-19 1.19570E-18
 -1      2419 1.11543E-04-3.67435E-05-3.21155E-05-9.05854E-06-7.32286E-19 1.30468E-18
 -1      2420 1.21008E-04-4.20691E-05-3.39500E-05 1.38462E-06-1.16126E-18 2.50833E-18
 -1      2421 1.19962E-04-4.09465E-05-3.38241E-05-1.76564E-06-1.01801E-18 2.12766E-18
 -1      2422 1.16848E-04-4.11442E-05-3.25127E-05-5.16832E-06-1.40798E-18 1.97942E-18
 -1      2423 1.23454E-04-4.29233E-05-3.46178E-05 9.15361E-06-6.76577E-19 2.33785E-18
 -1      2424 1.23760E-04-4.33839E-05-3.44502E-05 5.55995E-06-6.44446E-19 2.74659E-18
 -1      2425 1.22698E-04-4.50635E-05-3.33285E-05 1.78918E-06-1.11223E-18 2.54480E-18
 -1      2426 1.22501E-04-3.88178E-05-3.58951E-05 1.54825E-05 1.03690E-18 2.07128E-18
 -1      2427 1.24632E-04-4.18950E-05-3.55744E-05 1.34922E-05-1.98662E-19 2.23668E-18
 -1      2428 1.26895E-04-4.52611E-05-3.50548E-05 1.09610E-05-1.63338E-19 2.05633E-18
 -1      2429 1.18022E-04-3.01110E-05-3.76972E-05 1.49278E-05 1.99333E-18 2.30887E-18
 -1      2430 1.21187E-04-3.49119E-05-3.72347E-05 1.67338E-05 1.71238E-18 2.08612E-18
 -1      2431 1.26510E-04-3.82784E-05-3.79727E-05 1.77414E-05 1.14328E-18 2.07880E-18
 -1      2432 1.13947E-04-2.32365E-05-3.90371E-05 4.49504E-06 1.51783E-18 1.67284E-18
 -1      2433 1.15573E-04-2.57683E-05-3.88002E-05 1.01410E-05 2.02213E-18 2.21545E-18
 -1      2434 1.21981E-04-2.69954E-05-4.08684E-05 1.44201E-05 2.00863E-18 3.24750E-18
 -1      2435 1.15371E-04-2.54177E-05-3.88488E-05-9.57960E-06 6.59997E-19 1.22875E-18
 -1      2436 1.13821E-04-2.30743E-05-3.90693E-05-3.83908E-06 1.23847E-18 1.48705E-18
 -1      2437 1.18850E-04-2.05486E-05-4.23588E-05 5.43442E-07 1.82747E-18 2.10143E-18
 -1      2438 1.20984E-04-3.44049E-05-3.73429E-05-1.67334E-05 5.32413E-19-3.95819E-19
 -1      2439 1.17746E-04-2.96529E-05-3.77812E-05-1.47223E-05 5.50148E-19 1.82503E-19
 -1      2440 1.21685E-04-2.60696E-05-4.11975E-05-1.39410E-05 1.21560E-18 1.49472E-18
 -1      2441 1.24731E-04-4.17115E-05-3.56650E-05-1.39845E-05 9.35548E-19-2.00196E-18
 -1      2442 1.22329E-04-3.84612E-05-3.60013E-05-1.57569E-05 9.78588E-19-1.14550E-18
 -1      2443 1.26434E-04-3.78625E-05-3.80952E-05-1.73694E-05 1.49208E-18-8.14528E-19
 -1      2444 1.23984E-04-4.33635E-05-3.45311E-05-6.18741E-06 4.19409E-19-2.01698E-18
 -1      2445 1.23523E-04-4.28242E-05-3.46938E-05-9.51316E-06 3.69492E-19-2.38195E-18
 -1      2446 1.27116E-04-4.53099E-05-3.51782E-05-1.11659E-05 1.29356E-18-2.47447E-18
 -1      2447 1.20315E-04-4.10991E-05-3.38994E-05 1.23856E-06 1.14072E-18-1.70719E-18
 -1      2448 1.21297E-04-4.21788E-05-3.40165E-05-1.77219E-06 7.58584E-19-1.56510E-18
 -1      2449 1.23072E-04-4.53418E-05-3.34067E-05-2.18318E-06 2.80666E-19-2.26629E-18
 -1      2450 1.15845E-04-3.76614E-05-3.34737E-05 6.08618E-06 8.27121E-19-1.02400E-18
 -1      2451 1.17509E-04-3.91803E-05-3.36505E-05 4.14471E-06 1.52304E-18-9.95825E-19
 -1      2452 1.17275E-04-4.14480E-05-3.25741E-05 4.81986E-06 1.06174E-18-2.42378E-18
 -1      2453 1.11762E-04-3.46478E-05-3.30336E-05 8.32885E-06 9.12483E-19-2.34581E-18
 -1      2454 1.13576E-04-3.59764E-05-3.33023E-05 7.43839E-06 7.86328E-19-1.16556E-18
 -1      2455 1.11939E-04-3.69380E-05-3.21924E-05 8.74919E-06 6.57572E-19-2.34677E-18
 -1      2456 1.08376E-04-3.24869E-05-3.25189E-05 8.76329E-06 9.03208E-19-3.19402E-18
 -1      2457 1.10093E-04-3.34749E-05-3.28518E-05 8.61513E-06 1.04882E-18-2.71143E-18
 -1      2458 1.07845E-04-3.34416E-05-3.19119E-05 1.01873E-05 1.42363E-18-2.47379E-18
 -1      2459 1.05637E-04-3.10751E-05-3.19543E-05 8.16872E-06-5.92816E-19-2.02648E-18
 -1      2460 1.07160E-04-3.17624E-05-3.23094E-05 8.44421E-06-2.50631E-19-2.66260E-18
 -1      2461 1.04876E-04-3.11673E-05-3.15981E-05 1.00603E-05 1.62645E-19-2.08314E-18
 -1      2462 1.03422E-04-3.01868E-05-3.13864E-05 7.10385E-06-6.06364E-19-1.23334E-18
 -1      2463 1.04725E-04-3.06562E-05-3.17290E-05 7.56938E-06-7.39643E-19-1.61450E-18
 -1      2464 1.02713E-04-2.98382E-05-3.12326E-05 9.10355E-06-8.01612E-19-1.33777E-18
 -1      2465 1.01623E-04-2.96288E-05-3.08543E-05 5.90856E-06 3.73173E-19 2.48789E-19
 -1      2466 1.02710E-04-2.99513E-05-3.11629E-05 6.42148E-06-1.80138E-19-1.24895E-18
 -1      2467 1.01083E-04-2.91171E-05-3.08404E-05 7.80489E-06-6.75824E-19-1.05675E-18
 -1      2468 1.00164E-04-2.92706E-05-3.03819E-05 4.76405E-06 1.28610E-20 7.99255E-19
 -1      2469 1.01051E-04-2.94957E-05-3.06468E-05 5.24925E-06 5.99842E-19 1.41387E-18
 -1      2470 9.98111E-05-2.87478E-05-3.04531E-05 6.45039E-06-2.23436E-19 7.81783E-19
 -1      2471 9.89883E-05-2.90334E-05-2.99790E-05 3.75239E-06 2.30723E-19 1.08531E-18
 -1      2472 9.96991E-05-2.91929E-05-3.01985E-05 4.17705E-06 4.39149E-19 1.16376E-18
 -1      2473 9.87944E-05-2.85688E-05-3.00947E-05 5.18931E-06 2.85763E-19 1.64217E-18
 -1      2474 9.80499E-05-2.88718E-05-2.96458E-05 2.89959E-06-4.24543E-19 9.60657E-19
 -1      2475 9.86100E-05-2.89858E-05-2.98229E-05 3.25451E-06-3.33674E-19 1.52728E-18
 -1      2476 9.79744E-05-2.84879E-05-2.97788E-05 4.08701E-06 1.31205E-19 2.95905E-18
 -1      2477 9.73107E-05-2.87596E-05-2.93771E-05 2.20274E-06 3.19892E-19 9.50330E-19
 -1      2478 9.77450E-05-2.88412E-05-2.95168E-05 2.49058E-06 8.14066E-19 1.06165E-18
 -1      2479 9.73143E-05-2.84559E-05-2.95104E-05 3.16121E-06-4.16739E-19 2.91921E-18
 -1      2480 9.67367E-05-2.86812E-05-2.91647E-05 1.64581E-06-1.45690E-18-1.04464E-19
 -1      2481 9.70681E-05-2.87392E-05-2.92730E-05 1.87430E-06-5.23141E-19 3.24651E-19
 -1      2482 9.67878E-05-2.84479E-05-2.92887E-05 2.40480E-06 6.67617E-19 2.01121E-18
 -1      2483 9.62979E-05-2.86270E-05-2.90001E-05 1.20819E-06-8.89060E-19-9.40075E-19
 -1      2484 9.65466E-05-2.86675E-05-2.90824E-05 1.38666E-06-1.53417E-18-6.93119E-19
 -1      2485 9.63733E-05-2.84513E-05-2.91099E-05 1.79932E-06-8.68653E-19 8.58915E-20
 -1      2486 9.59681E-05-2.85902E-05-2.88747E-05 8.69055E-07 1.16682E-18-1.02219E-18
 -1      2487 9.61515E-05-2.86178E-05-2.89362E-05 1.00665E-06-1.29621E-19-7.89320E-19
 -1      2488 9.60519E-05-2.84600E-05-2.89686E-05 1.32251E-06-5.69964E-19-3.33270E-19
 -1      2489 9.57250E-05-2.85661E-05-2.87810E-05 6.09276E-07 1.40463E-18 1.07945E-18
 -1      2490 9.58572E-05-2.85843E-05-2.88261E-05 7.14247E-07 1.39339E-18 4.00269E-19
 -1      2491 9.58069E-05-2.84707E-05-2.88591E-05 9.52122E-07 2.98870E-19 1.14301E-18
 -1      2492 9.55495E-05-2.85512E-05-2.87125E-05 4.12131E-07 2.16400E-18 9.90200E-19
 -1      2493 9.56425E-05-2.85624E-05-2.87447E-05 4.91666E-07 2.37571E-18 1.93092E-18
 -1      2494 9.56235E-05-2.84820E-05-2.87757E-05 6.67811E-07 1.11863E-18 1.73499E-18
 -1      2495 9.54256E-05-2.85423E-05-2.86635E-05 2.63630E-07 1.28812E-18 8.99934E-20
 -1      2496 9.54891E-05-2.85487E-05-2.86858E-05 3.23887E-07 1.98614E-18 3.78374E-19
 -1      2497 9.54886E-05-2.84928E-05-2.87133E-05 4.52855E-07 2.82015E-18 1.94599E-18
 -1      2498 9.53416E-05-2.85394E-05-2.86290E-05 1.52550E-07 2.00921E-19 6.72088E-19
 -1      2499 9.53830E-05-2.85415E-05-2.86441E-05 1.97624E-07 5.40632E-19 3.30642E-19
 -1      2500 9.53909E-05-2.85005E-05-2.86676E-05 2.91699E-07 7.73187E-19 1.69360E-18
 -1      2501 9.52858E-05-2.85400E-05-2.86049E-05 7.28100E-08-2.88033E-18 2.61634E-18
 -1      2502 9.53120E-05-2.85394E-05-2.86150E-05 1.06019E-07-7.48692E-19 1.12643E-18
 -1      2503 9.53236E-05-2.85154E-05-2.86336E-05 1.67788E-07-3.22683E-19 1.62862E-18
 -1      2504 9.52662E-05-2.85457E-05-2.85936E-05 3.82842E-08-2.82277E-18 1.69096E-18
 -1      2505 9.51266E-05-2.82703E-05-2.86539E-05 1.67041E-07 1.34893E-19 5.53146E-19
 -1      2506 9.51499E-05-2.83019E-05-2.86486E-05 1.75634E-07 2.06451E-19-2.00764E-18
 -1      2507 9.50844E-05-2.82103E-05-2.86616E-05 1.24464E-07 9.14906E-19-4.81197E-19
 -1      2508 9.51026E-05-2.82344E-05-2.86577E-05 1.46338E-07 3.45579E-19 1.60377E-18
 -1      2509 9.50902E-05-2.82023E-05-2.86653E-05 1.88629E-07 1.08760E-18 9.02505E-19
 -1      2510 9.52274E-05-2.84235E-05-2.86310E-05 1.58787E-07-8.25948E-19-1.95672E-18
 -1      2511 9.52481E-05-2.84556E-05-2.86243E-05 1.40905E-07-1.15066E-18-1.11713E-18
 -1      2512 9.51786E-05-2.83458E-05-2.86435E-05 1.78914E-07-1.52847E-18-3.52663E-18
 -1      2513 9.52020E-05-2.83792E-05-2.86374E-05 1.71864E-07-1.06981E-18-3.20717E-18
 -1      2514 9.52120E-05-2.83732E-05-2.86458E-05 2.04632E-07-1.02841E-18-2.93169E-18
 -1      2515 9.51519E-05-2.82838E-05-2.86571E-05 2.16405E-07 5.71699E-19-1.43048E-18
 -1      2516 9.50587E-05-2.81741E-05-2.86659E-05 5.93993E-08 2.74943E-19-1.19138E-18
 -1      2517 9.50685E-05-2.81870E-05-2.86638E-05 9.02533E-08 1.17611E-18-1.88140E-18
 -1      2518 9.50431E-05-2.81418E-05-2.86708E-05 1.28179E-07 9.53022E-19-7.88509E-19
 -1      2519 9.50534E-05-2.81667E-05-2.86664E-05-1.60516E-08-6.88076E-19-3.54887E-19
 -1      2520 9.50534E-05-2.81666E-05-2.86665E-05 1.79188E-08-5.22336E-19-3.29305E-19
 -1      2521 9.50179E-05-2.81103E-05-2.86734E-05 4.55340E-08 2.12051E-19-1.46864E-18
 -1      2522 9.50691E-05-2.81890E-05-2.86632E-05-8.81417E-08-1.89596E-18-2.09920E-18
 -1      2523 9.50593E-05-2.81758E-05-2.86654E-05-5.73949E-08-1.33235E-18-1.41803E-18
 -1      2524 9.50184E-05-2.81119E-05-2.86729E-05-4.46381E-08-1.30490E-18-1.44981E-18
 -1      2525 9.51023E-05-2.82363E-05-2.86567E-05-1.43136E-07-1.39912E-19-1.69069E-18
 -1      2526 9.50848E-05-2.82128E-05-2.86607E-05-1.21527E-07-6.30698E-19-1.74121E-18
 -1      2527 9.50440E-05-2.81456E-05-2.86696E-05-1.26071E-07-5.72557E-19-5.66500E-19
 -1      2528 9.51487E-05-2.83035E-05-2.86474E-05-1.73008E-07 1.29532E-18 3.45612E-19
 -1      2529 9.51259E-05-2.82723E-05-2.86528E-05-1.63885E-07 1.03368E-18-8.59087E-19
 -1      2530 9.50902E-05-2.82066E-05-2.86635E-05-1.85518E-07 2.77133E-19-1.82053E-19
 -1      2531 9.52001E-05-2.83810E-05-2.86360E-05-1.71514E-07 5.00227E-19 1.66317E-18
 -1      2532 9.51764E-05-2.83466E-05-2.86422E-05-1.77111E-07 1.18074E-18 1.32848E-18
 -1      2533 9.51498E-05-2.82873E-05-2.86549E-05-2.13197E-07 8.30894E-19 6.26639E-19
 -1      2534 9.52458E-05-2.84571E-05-2.86230E-05-1.40240E-07-8.19958E-19 1.57570E-18
 -1      2535 9.52262E-05-2.84247E-05-2.86297E-05-1.58592E-07-4.89689E-19 1.97241E-18
 -1      2536 9.52119E-05-2.83768E-05-2.86438E-05-2.04808E-07-1.30655E-19 6.37007E-19
 -1      2537 2.33507E-05-2.07629E-05-9.23714E-07 1.78017E-05-3.24085E-18 2.22558E-18
 -1      2538 1.81386E-05-1.86274E-05 4.18545E-07 4.07064E-06-2.36292E-18 4.09286E-18
 -1      2539 9.00035E-05-5.11075E-05-1.67654E-05 4.12262E-05-2.04347E-19-1.33090E-19
 -1      2540 6.97511E-05-4.40683E-05-1.08735E-05 3.99201E-05-9.75994E-19 1.20120E-18
 -1      2541 9.40111E-05-2.74697E-05-2.85018E-05-1.63288E-07 1.38895E-18 1.54229E-18
 -1      2542 9.41922E-05-2.73225E-05-2.86139E-05 4.44031E-07 1.54173E-18 1.90072E-18
 -1      2543 9.46416E-05-2.74154E-05-2.88272E-05-3.05471E-07 1.55131E-18 5.31383E-19
 -1      2544 9.52611E-05-2.85192E-05-2.86028E-05-7.14335E-08 2.92306E-19 5.56294E-19
 -1      2545 1.81617E-05-1.88268E-05 5.18538E-07-7.64439E-06-1.09768E-18 4.09795E-18
 -1      2546 2.33643E-05-2.03546E-05-1.13773E-06-2.12530E-05-3.06732E-19 4.18604E-18
 -1      2547 2.44643E-05-1.51538E-05-3.43312E-06-1.25471E-06-1.84191E-18 2.91506E-18
 -1      2548 4.96892E-05-3.42270E-05-6.56426E-06 3.77157E-05-1.61868E-18 1.72075E-18
 -1      2549 3.54962E-05-2.75433E-05-3.19835E-06 2.87978E-05-2.55380E-18 1.55092E-18
 -1      2550 9.51068E-05-2.00076E-05-3.22332E-05-1.14882E-05-2.59148E-18-2.72277E-18
 -1      2551 9.55413E-05-2.33386E-05-3.09642E-05-7.67864E-06-2.46467E-18-2.39273E-18
 -1      2552 9.51480E-05-2.25221E-05-3.11082E-05-7.29861E-06-2.18867E-18-2.68023E-18
 -1      2553 9.32682E-05-1.75917E-05-3.24520E-05-1.11255E-05-2.44152E-18-3.25967E-18
 -1      2554 3.72746E-05-2.76354E-05-3.82157E-06-3.32743E-05 9.42536E-19 3.20898E-18
 -1      2555 5.11074E-05-3.43234E-05-7.09068E-06-4.12106E-05 6.22569E-20 1.36372E-18
 -1      2556 8.77216E-05-1.04899E-05-3.31352E-05-1.44068E-06 9.45712E-19-4.02141E-18
 -1      2557 8.78393E-05-1.06244E-05-3.31258E-05-2.51491E-06 6.24902E-19-4.14926E-18
 -1      2558 8.92023E-05-1.27390E-05-3.27706E-05-2.76375E-06 4.83540E-19-3.94679E-18
 -1      2559 8.89223E-05-1.23682E-05-3.28105E-05-8.83400E-07 9.95700E-19-3.74665E-18
 -1      2560 1.50303E-04-1.70659E-05-5.75483E-05-5.92580E-06 2.97563E-18-1.01475E-18
 -1      2561 1.49586E-04-2.32679E-05-5.44845E-05-9.27103E-06 3.38644E-18-1.81202E-18
 -1      2562 2.89834E-05-2.39792E-05-1.86739E-06-2.27494E-05-4.42998E-19-7.06108E-18
 -1      2563 4.53841E-05-3.00751E-05-6.34866E-06-3.42615E-05-7.34166E-19-7.78889E-18
 -1      2564 1.50211E-04-1.49051E-05-5.84343E-05 3.30460E-06 3.57236E-18-2.71686E-19
 -1      2565 1.48676E-04-1.36882E-05-5.84471E-05-6.77176E-07 3.48978E-18-2.86244E-19
 -1      2566 1.49342E-04-2.72639E-05-5.28633E-05 9.63621E-06 3.50396E-18-1.07150E-19
 -1      2567 1.51971E-04-1.99961E-05-5.69402E-05 7.12669E-06 3.69899E-18-3.49083E-19
 -1      2568 1.39030E-04-1.66603E-05-5.25418E-05 8.44995E-06 3.44975E-18 1.34594E-18
 -1      2569 1.48785E-04-4.53487E-05-4.47776E-05 4.59462E-06 1.87734E-18-1.93759E-19
 -1      2570 1.51582E-04-3.74715E-05-4.92782E-05 7.82746E-06 2.84836E-18-1.48866E-19
 -1      2571 1.04493E-04-5.62324E-05-2.06096E-05-3.55503E-05-2.81638E-20-3.39808E-18
 -1      2572 1.19781E-04-5.89457E-05-2.62024E-05-3.18199E-05 3.68248E-19-3.24297E-18
 -1      2573 6.86910E-05-4.18188E-05-1.12266E-05-4.00205E-05-1.05900E-18-5.94289E-18
 -1      2574 8.71642E-05-4.99222E-05-1.58641E-05-4.12847E-05-6.82285E-19-4.73449E-18
 -1      2575 1.01122E-04-5.42718E-05-1.98252E-05-3.60643E-05-1.18436E-18-3.83683E-18
 -1      2576 1.79038E-05-1.73991E-05 2.79832E-09 2.07932E-06-2.04691E-19-4.72179E-18
 -1      2577 2.02301E-05-1.93940E-05-1.98623E-07-1.18259E-05 8.14210E-20-5.73611E-18
 -1      2578 3.20792E-05-2.44036E-05-3.14644E-06 3.04746E-05-3.19755E-19-4.91321E-18
 -1      2579 2.26374E-05-1.93812E-05-1.07104E-06 1.69800E-05-3.92017E-19-4.19451E-18
 -1      2580 6.52569E-05-4.04398E-05-1.05493E-05 4.42770E-05-1.89524E-19-3.19586E-18
 -1      2581 4.86980E-05-3.33353E-05-6.32191E-06 3.87123E-05 1.14138E-19-3.98275E-18
 -1      2582 1.00052E-04-5.22572E-05-2.04788E-05 4.11572E-05-1.42704E-18-1.63313E-18
 -1      2583 8.30874E-05-4.82054E-05-1.48762E-05 4.24540E-05-3.33731E-19-2.04802E-18
 -1      2584 1.27547E-04-5.49778E-05-3.13585E-05 2.79464E-05-2.99045E-18-4.20975E-19
 -1      2585 1.13494E-04-5.51548E-05-2.50524E-05 3.37642E-05-2.00090E-18-1.41582E-18
 -1      2586 1.11594E-04-5.64392E-05-2.33742E-05 3.44525E-05 1.50137E-19-6.75403E-19
 -1      2587 1.45397E-04-4.55230E-05-4.31148E-05 9.02297E-06-4.48008E-18 2.09429E-19
 -1      2588 1.38002E-04-5.09173E-05-3.73798E-05 1.51341E-05-4.35671E-18 4.23305E-19
 -1      2589 1.50065E-04-2.87721E-05-5.24096E-05-1.29794E-06-5.24843E-18-4.42575E-19
 -1      2590 1.47660E-04-3.59558E-05-4.80743E-05 2.29134E-06-5.25298E-18-2.32934E-19
 -1      2591 1.43166E-04-1.32006E-05-5.63459E-05-4.82563E-06-5.35388E-18-4.33363E-19
 -1      2592 1.46980E-04-2.00785E-05-5.46223E-05-4.52614E-06-5.14276E-18-2.47757E-19
 -1      2593 1.39004E-04-9.73311E-06-5.59863E-05 2.66892E-06-4.40372E-18-1.87724E-18
 -1      2594 1.38637E-04-8.98266E-06-5.61739E-05-9.40611E-07-4.94688E-18-1.67458E-18
 -1      2595 1.42874E-04-2.28286E-05-5.18445E-05 6.33061E-06-1.97825E-18-3.05419E-18
 -1      2596 1.41605E-04-1.53397E-05-5.47690E-05 6.03780E-06-3.21280E-18-2.83915E-18
 -1      2597 1.45489E-04-4.20181E-05-4.45586E-05-4.96332E-06 2.60621E-19-2.18302E-18
 -1      2598 1.47008E-04-3.47080E-05-4.87498E-05 1.49085E-06-7.36919E-19-2.76408E-18
 -1      2599 1.34090E-04-5.35187E-05-3.45501E-05-1.81349E-05 1.53017E-18 5.70053E-19
 -1      2600 1.42530E-04-4.88221E-05-4.04131E-05-1.29120E-05 1.01083E-18-7.84353E-19
 -1      2601 1.41270E-04-4.74748E-05-4.01221E-05-1.55469E-06 1.56728E-18-3.62890E-18
 -1      2602 1.03531E-04-5.36163E-05-2.12795E-05-3.76701E-05 4.61633E-19 2.40928E-18
 -1      2603 1.21600E-04-5.57150E-05-2.85371E-05-3.14511E-05 9.78747E-19 2.16703E-18
 -1      2604 6.75794E-05-4.24492E-05-1.06502E-05-4.27875E-05 1.94394E-19 2.03119E-18
 -1      2605 8.45430E-05-4.78992E-05-1.58022E-05-4.44269E-05 7.32683E-20 3.53207E-18
 -1      2606 1.53734E-04-3.65968E-05-5.08809E-05-6.84408E-06 3.50058E-18-2.90045E-18
 -1      2607 1.52763E-04-4.49206E-05-4.63372E-05-8.11292E-07 3.62011E-18-2.97901E-18
 -1      2608 1.48160E-04-5.10786E-05-4.15636E-05-2.92388E-06 3.49192E-18-2.48731E-18
 -1      2609 9.63588E-05-2.50821E-05-3.05710E-05 7.37024E-06 2.77900E-18 3.52759E-18
 -1      2610 9.74401E-05-2.37659E-05-3.15953E-05 1.04832E-05 2.94130E-18 4.02308E-18
 -1      2611 9.59045E-05-2.12970E-05-3.20305E-05 1.16608E-05 3.23976E-18 2.83024E-18
 -1      2612 9.59444E-05-2.41379E-05-3.08082E-05 7.39529E-06 2.89984E-18 2.03893E-18
 -1      2613 1.26749E-04-5.91346E-05-2.91944E-05 2.81914E-05 1.64875E-18-3.19120E-18
 -1      2614 1.09771E-04-5.72273E-05-2.25257E-05 3.32681E-05 4.27540E-19-1.63308E-18
 -1      2615 9.07789E-05-1.48317E-05-3.25364E-05-6.49830E-06-8.26391E-19-4.09361E-18
 -1      2616 8.97168E-05-1.30487E-05-3.29118E-05-7.67059E-06-9.09041E-19-4.34632E-18
 -1      2617 9.03692E-05-1.38001E-05-3.28787E-05-8.87202E-06-1.43069E-18-4.17737E-18
 -1      2618 9.49675E-05-2.68800E-05-2.91947E-05 1.37110E-06 1.89177E-18 9.36061E-19
 -1      2619 9.42953E-05-1.90696E-05-3.22843E-05 1.13458E-05 3.35548E-18 1.32730E-18
 -1      2620 1.36139E-04-6.09839E-05-3.20388E-05 1.58516E-05 2.23754E-18-3.22645E-18
 -1      2621 3.61414E-05-2.20109E-05-5.54750E-06-2.72838E-05 1.54160E-19 2.58514E-18
 -1      2622 6.63811E-05-3.84615E-05-1.15417E-05-4.16568E-05-9.61382E-20 2.58557E-18
 -1      2623 9.52744E-05-2.85244E-05-2.86073E-05 8.04533E-08-2.32656E-18 1.24193E-18
 -1      2624 1.06584E-04-5.63467E-05-2.12076E-05 3.43628E-05-4.08693E-19-1.20930E-18
 -1      2625 9.52718E-05-2.85042E-05-2.86147E-05 1.04850E-07-1.53005E-18 3.20871E-19
 -1      2626 1.29577E-04-5.73565E-05-3.08728E-05-2.11072E-05 1.40279E-18 1.61360E-19
 -1      2627 3.59990E-05-2.18254E-05-5.54155E-06 2.35299E-05-3.48978E-18 2.45682E-18
 -1      2628 6.76715E-05-3.91902E-05-1.17497E-05 3.84797E-05-2.14913E-18 1.31650E-18
 -1      2629 1.38516E-04-2.91656E-05-4.70749E-05 8.19610E-06-5.59677E-19-3.95088E-18
 -1      2630 9.47728E-05-2.05592E-05-3.17617E-05 9.37140E-06 3.18310E-18 8.75548E-19
 -1      2631 9.21149E-05-1.61862E-05-3.25813E-05-1.01024E-05-2.00380E-18-3.64315E-18
 -1      2632 1.29931E-04-1.20040E-05-5.08422E-05 6.50602E-06-3.11856E-18-3.61757E-18
 -1      2633 1.31415E-04-1.02461E-05-5.22833E-05-3.80973E-06-4.40711E-18-1.18757E-18
 -1      2634 1.40716E-04-2.38362E-05-5.02079E-05-7.73837E-06-5.01253E-18 5.98429E-19
 -1      2635 1.34062E-04-5.61004E-05-3.33518E-05 1.69074E-05-2.05596E-18 1.07806E-18
 -1      2636 8.17346E-05-4.54793E-05-1.51568E-05 4.21028E-05 1.08314E-18-1.39845E-18
 -1      2637 4.79556E-05-2.77338E-05-8.12298E-06 3.46463E-05 7.98752E-19-4.01875E-18
 -1      2638 6.01479E-05-3.51565E-05-1.02173E-05-3.76229E-05-1.22057E-18-6.54471E-18
 -1      2639 7.40992E-05-3.95804E-05-1.45306E-05-3.73665E-05-1.79063E-18-4.87753E-18
 -1      2640 5.26013E-05-2.75174E-05-1.01968E-05-3.27319E-05-1.27171E-18-6.86817E-18
 -1      2641 3.14399E-05-1.87677E-05-4.83109E-06-1.76626E-05 3.00061E-19-6.50860E-18
 -1      2642 1.43772E-04-3.25013E-05-4.78345E-05 1.47475E-05 2.71389E-18 1.61190E-18
 -1      2643 1.31658E-04-6.15233E-05-3.00478E-05-2.00095E-05-2.74015E-19-2.64857E-18
 -1      2644 1.38073E-04-1.46751E-05-5.30981E-05-4.88295E-06 2.93243E-18 4.22193E-19
 -1      2645 1.48089E-04-5.19890E-05-4.14939E-05 2.38850E-06 8.62134E-19-4.65021E-19
 -1      2646 1.43274E-04-4.68502E-05-4.17631E-05 1.17811E-05 7.73023E-19 1.61317E-18
 -1      2647 1.43377E-04-5.55660E-05-3.75233E-05-1.34743E-07-1.42010E-20-6.69156E-20
 -1      2648 9.52834E-05-2.85196E-05-2.86123E-05-1.02974E-07-6.34518E-19 7.07926E-19
 -1      2649 9.52651E-05-2.84897E-05-2.86187E-05-1.24125E-07-1.01489E-18 1.38416E-18
 -1      2650 9.52670E-05-2.84544E-05-2.86333E-05-1.75911E-07-1.81660E-18 1.94539E-18
 -1      2651 9.53050E-05-2.85158E-05-2.86224E-05-1.36788E-07-1.48867E-18 1.43271E-18
 -1      2652 9.52761E-05-2.84703E-05-2.86301E-05 1.56471E-07-9.28502E-19 2.83670E-19
 -1      2653 2.67433E-05-1.58274E-05-4.09703E-06 1.00057E-05-5.66453E-20-4.92423E-18
 -1      2654 1.43362E-04-4.21490E-05-4.33920E-05-1.16042E-06-4.10917E-18 7.24001E-19
 -1      2655 1.00432E-04-5.29557E-05-2.00407E-05-3.88765E-05 5.79794E-19 2.09617E-18
 -1      2656 9.53028E-05-2.84828E-05-2.86383E-05-1.95611E-07-1.64319E-18 2.04974E-18
 -1      2657 1.45102E-04-3.04360E-05-4.94006E-05-1.21916E-05 3.52789E-18-1.09543E-18
 -1      2658 9.03692E-05-1.47480E-05-3.24311E-05 2.97394E-06 2.07421E-18-2.79800E-18
 -1      2659 9.01516E-05-1.44513E-05-3.24642E-05 2.09350E-06 1.77963E-18-3.10876E-18
 -1      2660 8.99958E-05-1.42258E-05-3.24929E-05 1.32456E-06 1.58649E-18-3.36026E-18
 -1      2661 8.99200E-05-1.41248E-05-3.25037E-05 4.28751E-07 1.25678E-18-3.50383E-18
 -1      2662 9.11293E-05-1.60412E-05-3.21660E-05 1.49140E-06 1.57962E-18-3.07837E-18
 -1      2663 9.21157E-05-1.73082E-05-3.20971E-05 6.09762E-06 2.83147E-18-1.53066E-18
 -1      2664 9.15505E-05-1.64694E-05-3.22015E-05 5.28025E-06 2.64217E-18-1.94534E-18
 -1      2665 9.36092E-05-1.96375E-05-3.17438E-05 7.21204E-06 3.04372E-18-5.79407E-19
 -1      2666 9.27896E-05-1.83400E-05-3.19255E-05 6.63128E-06 2.95328E-18-1.06957E-18
 -1      2667 9.34090E-05-1.96010E-05-3.16085E-05 5.30211E-06 2.58733E-18-1.10860E-18
 -1      2668 9.53591E-05-2.53138E-05-3.00289E-05 3.52733E-06 2.33576E-18 4.26448E-19
 -1      2669 9.56534E-05-2.44796E-05-3.04707E-05 5.22010E-06 2.53049E-18 5.76354E-19
 -1      2670 9.29214E-05-1.79083E-05-3.21356E-05-8.50490E-06-1.83055E-18-3.45421E-18
 -1      2671 3.45062E-05-1.61535E-05-7.28659E-06-1.99096E-05-4.89320E-19 1.69915E-18
 -1      2672 4.64674E-05-2.35189E-05-9.55444E-06-3.27008E-05 5.02926E-20 2.05660E-18
 -1      2673 1.35937E-04-2.51904E-05-4.81476E-05-1.52206E-05 2.90786E-18-6.93932E-19
 -1      2674 1.41698E-04-3.69316E-05-4.51667E-05-1.53889E-05 3.38792E-18-1.74743E-18
 -1      2675 6.31075E-05-3.33512E-05-1.21883E-05-3.89631E-05-9.55030E-20 2.00112E-18
 -1      2676 7.80553E-05-4.20654E-05-1.53362E-05-4.20057E-05 2.49134E-19 2.35983E-18
 -1      2677 9.55274E-05-2.57576E-05-2.98620E-05-2.09293E-06-1.30095E-18-2.24426E-18
 -1      2678 9.53682E-05-2.62988E-05-2.96121E-05-1.03166E-06-1.18534E-18-2.19918E-18
 -1      2679 9.53950E-05-2.67618E-05-2.93917E-05-1.76175E-07-1.11112E-18-2.01333E-18
 -1      2680 9.53243E-05-2.70932E-05-2.92445E-05 5.50764E-07-9.46810E-19-1.99127E-18
 -1      2681 9.54991E-05-2.60131E-05-2.97857E-05-8.25415E-07-1.13090E-18-2.21883E-18
 -1      2682 9.53112E-05-2.73586E-05-2.91079E-05 1.16481E-06-9.07534E-19-1.81496E-18
 -1      2683 9.53172E-05-2.75614E-05-2.90368E-05 1.67237E-06-7.60283E-19-1.84606E-18
 -1      2684 9.55267E-05-2.69093E-05-2.94158E-05 7.27954E-07-9.58141E-19-1.91625E-18
 -1      2685 9.53038E-05-2.77054E-05-2.89620E-05 2.12624E-06-7.05989E-19-1.88547E-18
 -1      2686 9.53853E-05-2.78365E-05-2.89454E-05 2.50179E-06-6.86667E-19-1.94247E-18
 -1      2687 9.55126E-05-2.74219E-05-2.91897E-05 1.85903E-06-7.54776E-19-2.13823E-18
 -1      2688 9.53924E-05-2.79110E-05-2.89160E-05 2.86029E-06-7.15170E-19-1.88707E-18
 -1      2689 9.55420E-05-2.80051E-05-2.89387E-05 3.16322E-06-7.46686E-19-1.83224E-18
 -1      2690 9.55172E-05-2.77027E-05-2.90702E-05 2.72144E-06-7.72988E-19-2.01428E-18
 -1      2691 9.55804E-05-2.80453E-05-2.89417E-05 3.47236E-06-6.98087E-19-1.58273E-18
 -1      2692 9.57935E-05-2.81291E-05-2.89924E-05 3.73908E-06-7.30243E-19-1.62141E-18
 -1      2693 9.55709E-05-2.78519E-05-2.90283E-05 3.42912E-06-5.97929E-19-1.84433E-18
 -1      2694 9.58736E-05-2.81648E-05-2.90175E-05 4.02727E-06-7.24663E-19-1.30118E-18
 -1      2695 9.61508E-05-2.82643E-05-2.90873E-05 4.27460E-06-7.10359E-19-1.18824E-18
 -1      2696 9.56947E-05-2.79461E-05-2.90405E-05 4.05999E-06-5.87574E-19-9.39373E-19
 -1      2697 9.62881E-05-2.83265E-05-2.91259E-05 4.55304E-06-7.55512E-19-8.50166E-19
 -1      2698 9.66362E-05-2.84710E-05-2.92072E-05 4.77899E-06-4.33199E-19-7.81246E-19
 -1      2699 9.59146E-05-2.80571E-05-2.90874E-05 4.65703E-06-4.53051E-19-2.43622E-19
 -1      2700 9.68551E-05-2.85966E-05-2.92518E-05 5.04070E-06-3.16414E-19-6.31233E-19
 -1      2701 9.72870E-05-2.88209E-05-2.93378E-05 5.22324E-06-1.41957E-19-6.43998E-19
 -1      2702 9.62705E-05-2.82641E-05-2.91523E-05 5.22789E-06-2.73318E-19-4.65852E-20
 -1      2703 9.76239E-05-2.90543E-05-2.93821E-05 5.44053E-06 2.87454E-20-8.54388E-19
 -1      2704 9.81577E-05-2.93983E-05-2.94664E-05 5.53553E-06 1.34117E-19-9.15684E-19
 -1      2705 9.68232E-05-2.86607E-05-2.92213E-05 5.74191E-06-1.96328E-19-6.33921E-19
 -1      2706 9.86626E-05-2.97905E-05-2.95068E-05 5.65609E-06 7.69425E-20-9.52500E-19
 -1      2707 9.93179E-05-3.02941E-05-2.95846E-05 5.59560E-06 7.26382E-20-1.00473E-18
 -1      2708 9.76587E-05-2.93568E-05-2.92848E-05 6.12414E-06 4.43383E-20-7.21253E-19
 -1      2709 1.00051E-04-3.08942E-05-2.96220E-05 5.53765E-06 1.19883E-19-5.28064E-19
 -1      2710 1.00840E-04-3.15823E-05-2.96922E-05 5.23136E-06 2.59831E-19-5.04895E-19
 -1      2711 9.88878E-05-3.04679E-05-2.93407E-05 6.24656E-06 3.19238E-19-3.81969E-19
 -1      2712 1.01858E-04-3.24157E-05-2.97362E-05 4.88066E-06-2.34866E-19-5.42197E-19
 -1      2713 1.02766E-04-3.32680E-05-2.98051E-05 4.22609E-06-8.59604E-19-5.16391E-19
 -1      2714 1.00630E-04-3.20832E-05-2.94015E-05 5.91852E-06-1.16625E-19-5.43117E-19
 -1      2715 1.04085E-04-3.42937E-05-2.98790E-05 3.44242E-06-1.06617E-18-1.97787E-19
 -1      2716 1.05036E-04-3.51948E-05-2.99643E-05 2.35364E-06-8.58931E-19-2.09426E-19
 -1      2717 1.02967E-04-3.41929E-05-2.95038E-05 4.88483E-06-7.26823E-19 9.04340E-20
 -1      2718 1.06569E-04-3.62401E-05-3.01093E-05 1.00587E-06-3.53433E-19 1.91319E-20
 -1      2719 1.07389E-04-3.69204E-05-3.02416E-05-5.25896E-07-2.65387E-19 1.32264E-19
 -1      2720 1.05842E-04-3.65623E-05-2.97197E-05 2.85589E-06-5.04382E-19 7.22505E-19
 -1      2721 1.08852E-04-3.76097E-05-3.05144E-05-2.45697E-06-2.87991E-20 1.81285E-19
 -1      2722 1.09258E-04-3.76349E-05-3.07320E-05-4.25302E-06 1.47797E-19 2.63584E-19
 -1      2723 1.08900E-04-3.85619E-05-3.01592E-05-3.75642E-07 4.35056E-20 1.16485E-18
 -1      2724 1.10151E-04-3.74230E-05-3.11860E-05-6.48633E-06 1.24910E-19 4.46692E-19
 -1      2725 1.09848E-04-3.63304E-05-3.15146E-05-8.07403E-06 3.61091E-19 1.77893E-19
 -1      2726 1.11351E-04-3.90958E-05-3.09495E-05-4.63615E-06 4.32890E-19 8.96896E-19
 -1      2727 1.09617E-04-3.47445E-05-3.21556E-05-9.82450E-06 3.25545E-19 3.85342E-20
 -1      2728 1.08540E-04-3.24373E-05-3.25749E-05-1.04296E-05-7.92704E-20-2.24805E-19
 -1      2729 1.12086E-04-3.69237E-05-3.21660E-05-8.93516E-06 2.40416E-20 6.11918E-19
 -1      2730 1.07092E-04-2.96406E-05-3.33035E-05-1.05264E-05-4.31193E-19-5.38705E-19
 -1      2731 1.05665E-04-2.68576E-05-3.37109E-05-9.41260E-06-5.38157E-19-8.35737E-19
 -1      2732 1.10378E-04-3.16067E-05-3.37163E-05-1.12415E-05-4.00852E-19 9.50464E-20
 -1      2733 1.03933E-04-2.41595E-05-3.42835E-05-7.09753E-06-7.54789E-19-9.82485E-19
 -1      2734 1.03004E-04-2.23955E-05-3.45161E-05-4.30298E-06-7.33133E-19-6.29160E-19
 -1      2735 1.07038E-04-2.49264E-05-3.52092E-05-9.21876E-06-7.12487E-19-9.36415E-19
 -1      2736 1.02432E-04-2.15535E-05-3.46765E-05-3.14277E-07-1.14991E-18-1.39831E-18
 -1      2737 1.02646E-04-2.19614E-05-3.46243E-05 3.01658E-06-1.04561E-18-1.82550E-18
 -1      2738 1.04583E-04-2.06245E-05-3.60542E-05-2.61783E-06-1.50060E-18-1.05943E-18
 -1      2739 1.03786E-04-2.36336E-05-3.42972E-05 6.61652E-06-7.14565E-19-2.66450E-18
 -1      2740 1.05010E-04-2.59440E-05-3.39898E-05 8.89167E-06-6.02667E-19-2.86447E-18
 -1      2741 1.05168E-04-2.15908E-05-3.58589E-05 5.45312E-06-1.37363E-18-1.35497E-18
 -1      2742 1.06798E-04-2.88765E-05-3.33385E-05 1.03428E-05-3.56793E-19-3.12711E-18
 -1      2743 1.08192E-04-3.16309E-05-3.29148E-05 1.08005E-05 1.30246E-19-2.68354E-18
 -1      2744 1.08294E-04-2.72496E-05-3.47329E-05 1.06034E-05-3.65700E-19-2.06761E-18
 -1      2745 1.09256E-04-3.40767E-05-3.21972E-05 9.99385E-06 2.92729E-19-2.87469E-18
 -1      2746 1.10085E-04-3.59772E-05-3.18067E-05 8.95660E-06 7.55064E-19-3.09618E-18
 -1      2747 1.11267E-04-3.37623E-05-3.31682E-05 1.09273E-05 4.99167E-19-2.61549E-18
 -1      2748 1.09866E-04-3.70363E-05-3.12322E-05 6.93342E-06 1.03720E-18-2.97393E-18
 -1      2749 1.09904E-04-3.76837E-05-3.09505E-05 5.21743E-06 1.25172E-18-2.72474E-18
 -1      2750 1.12095E-04-3.80103E-05-3.17113E-05 7.65197E-06 6.56962E-19-1.84500E-18
 -1      2751 1.08740E-04-3.74978E-05-3.05723E-05 3.05998E-06 1.08414E-18-2.76657E-18
 -1      2752 1.08166E-04-3.71761E-05-3.03972E-05 1.35013E-06 7.22874E-19-2.31900E-18
 -1      2753 1.10627E-04-3.90798E-05-3.06597E-05 3.23521E-06 1.27495E-18-1.77569E-18
 -1      2754 1.06630E-04-3.62919E-05-3.01839E-05-3.48350E-07 1.16423E-18-2.43751E-18
 -1      2755 1.05757E-04-3.54859E-05-3.00816E-05-1.69153E-06 6.81868E-19-1.59225E-18
 -1      2756 1.07846E-04-3.78472E-05-3.00214E-05-6.54111E-07 9.35136E-19-2.78832E-18
 -1      2757 1.04283E-04-3.44071E-05-2.99751E-05-2.78331E-06-3.39664E-19-1.60206E-18
 -1      2758 1.03358E-04-3.34984E-05-2.99088E-05-3.66523E-06-1.45843E-20-1.56861E-18
 -1      2759 1.04793E-04-3.55870E-05-2.96898E-05-3.36500E-06 5.63223E-19-3.14469E-18
 -1      2760 1.02147E-04-3.25197E-05-2.98569E-05-4.22753E-06-1.43614E-19-1.34130E-18
 -1      2761 1.01305E-04-3.17165E-05-2.98005E-05-4.69364E-06-4.26586E-19-1.59246E-18
 -1      2762 1.02097E-04-3.32378E-05-2.95388E-05-4.91160E-06-2.33017E-21-1.76271E-18
 -1      2763 1.00397E-04-3.09556E-05-2.97685E-05-4.86747E-06-9.94373E-19-1.51944E-18
 -1      2764 9.96895E-05-3.03335E-05-2.97086E-05-5.01488E-06-9.41851E-19-1.40119E-18
 -1      2765 9.99826E-05-3.12672E-05-2.94712E-05-5.55179E-06-8.19490E-19-1.14219E-18
 -1      2766 9.90476E-05-2.98026E-05-2.96780E-05-4.93391E-06-6.40250E-19-8.98204E-19
 -1      2767 9.84761E-05-2.93629E-05-2.96109E-05-4.86442E-06-3.26150E-19-6.58631E-19
 -1      2768 9.84424E-05-2.98136E-05-2.94278E-05-5.57057E-06-7.96107E-19-7.51613E-19
 -1      2769 9.80393E-05-2.90264E-05-2.95745E-05-4.63409E-06 6.00341E-20-2.88111E-19
 -1      2770 9.75868E-05-2.87386E-05-2.95019E-05-4.43395E-06 1.12950E-19-7.79099E-20
 -1      2771 9.73727E-05-2.88445E-05-2.93796E-05-5.20528E-06-1.66869E-19-3.28970E-19
 -1      2772 9.72965E-05-2.85476E-05-2.94591E-05-4.12989E-06-2.19494E-19-3.74833E-20
 -1      2773 9.69415E-05-2.83736E-05-2.93847E-05-3.86426E-06-4.41644E-19 6.13311E-20
 -1      2774 9.66522E-05-2.82613E-05-2.93173E-05-4.63163E-06-3.08648E-19-1.38437E-18
 -1      2775 9.67509E-05-2.82827E-05-2.93377E-05-3.53735E-06-2.53830E-19 1.01251E-18
 -1      2776 9.64735E-05-2.81880E-05-2.92654E-05-3.25148E-06-6.06245E-19 1.67360E-19
 -1      2777 9.61758E-05-2.79559E-05-2.92417E-05-3.97120E-06-1.01169E-19-5.64488E-19
 -1      2778 9.63488E-05-2.81609E-05-2.92172E-05-2.93382E-06-3.07551E-19 4.48702E-19
 -1      2779 9.61329E-05-2.81183E-05-2.91502E-05-2.65660E-06 8.14208E-19-4.72741E-19
 -1      2780 9.58635E-05-2.78359E-05-2.91579E-05-3.30351E-06-1.55390E-19-9.54230E-20
 -1      2781 9.60509E-05-2.81286E-05-2.91036E-05-2.36663E-06 1.62570E-18-5.98898E-19
 -1      2782 9.58837E-05-2.81181E-05-2.90438E-05-2.11464E-06 1.91808E-18-6.96334E-19
 -1      2783 9.56591E-05-2.78300E-05-2.90719E-05-2.67700E-06 6.29348E-19 2.82227E-19
 -1      2784 9.58291E-05-2.81480E-05-2.90007E-05-1.86138E-06 2.02257E-18-3.95792E-19
 -1      2785 9.57004E-05-2.81558E-05-2.89492E-05-1.64248E-06 1.24702E-18 1.31565E-18
 -1      2786 9.55244E-05-2.78880E-05-2.89888E-05-2.11794E-06 1.91668E-18-1.07739E-18
 -1      2787 9.56635E-05-2.81936E-05-2.89109E-05-1.42862E-06-1.96323E-19 1.56971E-18
 -1      2788 9.55653E-05-2.82106E-05-2.88677E-05-1.24491E-06-6.57754E-20 1.31299E-18
 -1      2789 9.54345E-05-2.79762E-05-2.89121E-05-1.63743E-06 1.22515E-18-1.05824E-18
 -1      2790 9.55395E-05-2.82492E-05-2.88347E-05-1.06921E-06-9.21125E-20 1.70099E-18
 -1      2791 9.54654E-05-2.82696E-05-2.87994E-05-9.19248E-07 9.55940E-19 1.21734E-18
 -1      2792 9.53733E-05-2.80732E-05-2.88441E-05-1.23657E-06-3.90727E-20-1.33415E-19
 -1      2793 9.54469E-05-2.83052E-05-2.87717E-05-7.78248E-07 1.11665E-18 4.38887E-19
 -1      2794 9.53916E-05-2.83255E-05-2.87436E-05-6.58732E-07 4.18839E-19 4.08261E-19
 -1      2795 9.53305E-05-2.81666E-05-2.87855E-05-9.10295E-07 4.81706E-19-1.07984E-18
 -1      2796 9.53772E-05-2.83558E-05-2.87208E-05-5.47956E-07 3.32850E-19 3.04864E-19
 -1      2797 9.53365E-05-2.83744E-05-2.86987E-05-4.54342E-07-4.24118E-19-4.67867E-19
 -1      2798 9.52992E-05-2.82491E-05-2.87364E-05-6.51153E-07-5.43872E-19-2.06145E-18
 -1      2799 9.53249E-05-2.83997E-05-2.86803E-05-3.69454E-07 4.26987E-20 4.31882E-19
 -1      2800 9.52953E-05-2.84150E-05-2.86631E-05-2.98286E-07-5.01207E-20 1.90633E-19
 -1      2801 9.52751E-05-2.83201E-05-2.86958E-05-4.48441E-07 3.18205E-19-1.44872E-18
 -1      2802 9.51406E-05-2.78168E-05-2.88456E-05-2.46649E-06 7.47512E-19-9.85770E-20
 -1      2803 9.50157E-05-2.77110E-05-2.88353E-05-2.07776E-06 9.62896E-19-1.39176E-19
 -1      2804 9.52551E-05-2.83947E-05-2.86547E-05 2.50117E-07-4.88405E-19-1.10560E-18
 -1      2805 9.52897E-05-2.84499E-05-2.86451E-05 2.14581E-07-5.19253E-19 3.94174E-19
 -1      2806 9.53140E-05-2.84383E-05-2.86601E-05 2.71391E-07 9.69383E-20 9.62601E-19
 -1      2807 9.50303E-05-2.76062E-05-2.88912E-05-1.60386E-06 1.22348E-18-2.17129E-19
 -1      2808 9.50107E-05-2.74391E-05-2.89420E-05-1.09753E-06 1.38666E-18-9.74814E-20
 -1      2809 9.53086E-05-2.74670E-05-2.90848E-05-1.83091E-06 1.13365E-18-3.31204E-19
 -1      2810 9.57153E-05-2.79522E-05-2.90295E-05-3.91817E-06 2.90815E-19 1.58013E-19
 -1      2811 9.54261E-05-2.79101E-05-2.89352E-05-3.56946E-06 5.46719E-19 3.05578E-20
 -1      2812 9.61519E-05-2.79350E-05-2.92219E-05-4.70183E-06 5.37391E-19-2.32660E-19
 -1      2813 9.57910E-05-2.79062E-05-2.90962E-05-4.31000E-06 4.03314E-19 9.14076E-21
 -1      2814 9.55445E-05-2.76367E-05-2.91075E-05-4.36378E-06 5.09120E-19-2.73908E-19
 -1      2815 9.66803E-05-2.78944E-05-2.94637E-05-5.61041E-06 4.87951E-19-3.10560E-19
 -1      2816 9.62456E-05-2.78646E-05-2.93111E-05-5.15055E-06 6.34596E-19-2.98317E-19
 -1      2817 9.57174E-05-2.74908E-05-2.92426E-05-5.23745E-06 7.07815E-19-4.44505E-19
 -1      2818 9.73082E-05-2.78690E-05-2.97419E-05-6.67716E-06 1.81944E-19-1.95483E-19
 -1      2819 9.67907E-05-2.78154E-05-2.95675E-05-6.13864E-06 2.19688E-19-2.47164E-19
 -1      2820 9.59235E-05-2.73006E-05-2.94110E-05-6.24327E-06 3.58871E-19-3.77095E-19
 -1      2821 9.80637E-05-2.79276E-05-3.00396E-05-7.90180E-06 1.62925E-19-1.72882E-19
 -1      2822 9.74439E-05-2.78100E-05-2.98505E-05-7.29443E-06 3.66661E-19 1.68693E-21
 -1      2823 9.61697E-05-2.71197E-05-2.95933E-05-7.41456E-06 2.22254E-19-2.86226E-19
 -1      2824 9.90142E-05-2.81945E-05-3.03327E-05-9.23408E-06-4.32190E-19-5.44127E-19
 -1      2825 9.82546E-05-2.79426E-05-3.01401E-05-8.59955E-06-2.51109E-19-3.88970E-19
 -1      2826 9.64928E-05-2.70444E-05-2.97646E-05-8.75463E-06 1.13210E-19 1.07775E-19
 -1      2827 1.00301E-04-2.88863E-05-3.05900E-05-1.05459E-05-2.69289E-19-8.07421E-19
 -1      2828 9.93325E-05-2.83824E-05-3.04092E-05-9.97583E-06-3.05850E-19-6.93967E-19
 -1      2829 9.69894E-05-2.72483E-05-2.98939E-05-1.02253E-05-3.45428E-19-7.77020E-19
 -1      2830 1.02190E-04-3.03467E-05-3.07793E-05-1.15881E-05 1.23799E-19-9.12996E-19
 -1      2831 1.00894E-04-2.94122E-05-3.06265E-05-1.12490E-05-6.59356E-20-6.52934E-19
 -1      2832 9.78691E-05-2.80283E-05-2.99471E-05-1.17256E-05-2.07465E-19-1.09391E-18
 -1      2833 1.05115E-04-3.30401E-05-3.08900E-05-1.19267E-05-8.04367E-19 6.97420E-19
 -1      2834 1.03322E-04-3.14548E-05-3.07704E-05-1.20883E-05-3.56804E-19-2.25858E-19
 -1      2835 9.95286E-05-2.98470E-05-2.99010E-05-1.30491E-05-4.92383E-19-3.78190E-19
 -1      2836 1.09638E-04-3.73876E-05-3.09850E-05-1.08630E-05-1.19318E-18 1.35873E-18
 -1      2837 1.07188E-04-3.50094E-05-3.08653E-05-1.19110E-05-7.10652E-19 1.11595E-18
 -1      2838 1.02624E-04-3.33123E-05-2.97791E-05-1.37918E-05-1.02719E-18 6.51393E-19
 -1      2839 1.16142E-04-4.32201E-05-3.13044E-05-7.39001E-06-1.80885E-18 2.08292E-18
 -1      2840 1.13105E-04-4.03392E-05-3.10638E-05-9.76760E-06-1.60341E-18 1.82593E-18
 -1      2841 1.08031E-04-3.89303E-05-2.97321E-05-1.31900E-05-1.77110E-18 1.06430E-18
 -1      2842 1.24058E-04-4.86542E-05-3.24025E-05-4.86553E-07-1.03796E-18 2.14399E-18
 -1      2843 1.21098E-04-4.65866E-05-3.17863E-05-4.39174E-06-1.49097E-18 1.96369E-18
 -1      2844 1.16447E-04-4.62782E-05-3.02030E-05-9.89765E-06-1.67673E-18 1.94791E-18
 -1      2845 1.30797E-04-4.90711E-05-3.51239E-05 9.21972E-06-4.50499E-19 2.56594E-18
 -1      2846 1.29319E-04-5.03396E-05-3.37990E-05 4.72504E-06-6.81423E-19 2.58594E-18
 -1      2847 1.26822E-04-5.23911E-05-3.20674E-05-2.33479E-06-1.35968E-18 3.16108E-18
 -1      2848 1.33837E-04-4.12785E-05-3.98670E-05 1.50430E-05 1.33111E-18 2.76747E-18
 -1      2849 1.35013E-04-4.77419E-05-3.75736E-05 1.29820E-05 9.05266E-21 2.75752E-18
 -1      2850 1.27866E-04-2.08370E-05-4.64554E-05 1.18515E-05 2.80135E-18 2.82999E-18
 -1      2851 1.30877E-04-2.83008E-05-4.46742E-05 1.59897E-05 2.79743E-18 2.84582E-18
 -1      2852 1.29407E-04-3.24067E-05-4.20059E-05-1.82138E-05 1.60370E-18-9.41265E-20
 -1      2853 1.26374E-04-2.53889E-05-4.36283E-05-1.32530E-05 2.13855E-18 1.01689E-18
 -1      2854 1.32091E-04-4.60635E-05-3.69768E-05-1.46869E-05 2.10181E-18-2.63851E-18
 -1      2855 1.30556E-04-4.03780E-05-3.89001E-05-1.61399E-05 1.82419E-18-1.71029E-18
 -1      2856 1.35437E-04-4.08047E-05-4.08003E-05-1.61778E-05 2.68128E-18-2.20986E-18
 -1      2857 1.27903E-04-4.94218E-05-3.35121E-05-4.20377E-06-1.79796E-20-2.17294E-18
 -1      2858 1.29376E-04-4.85082E-05-3.47625E-05-8.70648E-06 1.40228E-18-2.28171E-18
 -1      2859 1.32459E-04-5.15236E-05-3.48429E-05-6.78442E-06 1.37534E-18-2.55777E-18
 -1      2860 1.20114E-04-4.53945E-05-3.18714E-05 4.48555E-06 5.77485E-19-2.52569E-18
 -1      2861 1.23023E-04-4.72892E-05-3.24782E-05 4.89564E-07-2.91697E-20-2.41406E-18
 -1      2862 1.23602E-04-4.99186E-05-3.17604E-05 3.38194E-06 9.19428E-20-2.98802E-18
 -1      2863 1.12660E-04-3.94137E-05-3.13115E-05 9.52418E-06 9.99503E-19-1.61318E-18
 -1      2864 1.15650E-04-4.20353E-05-3.15454E-05 7.07620E-06 9.70726E-19-1.74989E-18
 -1      2865 1.14399E-04-4.36581E-05-3.05119E-05 9.96188E-06 5.29812E-19-2.61888E-18
 -1      2866 1.07219E-04-3.44927E-05-3.11430E-05 1.14203E-05 6.56155E-19-2.01198E-18
 -1      2867 1.09600E-04-3.66251E-05-3.12613E-05 1.03502E-05 9.64850E-19-1.69649E-18
 -1      2868 1.07267E-04-3.70012E-05-3.02411E-05 1.25143E-05 9.00639E-19-1.54425E-18
 -1      2869 1.03648E-04-3.12495E-05-3.10283E-05 1.14523E-05 2.07627E-19-1.11668E-18
 -1      2870 1.05375E-04-3.26723E-05-3.11447E-05 1.12953E-05 6.86035E-19-1.62251E-18
 -1      2871 1.02748E-04-3.22709E-05-3.02661E-05 1.27934E-05 2.19370E-19-1.21330E-18
 -1      2872 1.01370E-04-2.93920E-05-3.08585E-05 1.04977E-05-2.34972E-19-1.08593E-18
 -1      2873 1.02609E-04-3.02375E-05-3.10043E-05 1.08572E-05 2.03081E-19-7.43697E-19
 -1      2874 1.00106E-04-2.94475E-05-3.03034E-05 1.18955E-05-3.24918E-19 4.99805E-20
 -1      2875 9.98782E-05-2.84541E-05-3.06237E-05 9.11597E-06-1.54879E-18-8.82628E-19
 -1      2876 1.00795E-04-2.89177E-05-3.07938E-05 9.71744E-06-1.52074E-18-7.57170E-19
 -1      2877 9.86133E-05-2.79998E-05-3.02633E-05 1.04761E-05-1.31478E-18-4.52762E-19
 -1      2878 9.88376E-05-2.80510E-05-3.03499E-05 7.63163E-06-1.08587E-18 3.37457E-20
 -1      2879 9.95445E-05-2.82892E-05-3.05285E-05 8.30664E-06-7.68288E-19-2.68467E-19
 -1      2880 9.77458E-05-2.73940E-05-3.01429E-05 8.89926E-06-1.19134E-18-2.89626E-19
 -1      2881 9.80599E-05-2.79297E-05-3.00667E-05 6.21874E-06 4.63682E-19 1.21884E-18
 -1      2882 9.86228E-05-2.80440E-05-3.02394E-05 6.87352E-06-3.10217E-19 8.58619E-19
 -1      2883 9.71959E-05-2.72453E-05-2.99691E-05 7.35984E-06-9.08746E-19 1.12802E-18
 -1      2884 9.74482E-05-2.79427E-05-2.97969E-05 4.96004E-06-9.14051E-20 1.64296E-18
 -1      2885 9.79035E-05-2.79925E-05-2.99541E-05 5.54858E-06 7.12566E-20 1.60401E-18
 -1      2886 9.68042E-05-2.73173E-05-2.97714E-05 5.95675E-06-3.54294E-20 1.42799E-18
 -1      2887 9.69540E-05-2.80111E-05-2.95539E-05 3.88489E-06-4.50847E-19 2.27922E-18
 -1      2888 9.73230E-05-2.80284E-05-2.96908E-05 4.38972E-06-1.22538E-19 2.38088E-18
 -1      2889 9.64961E-05-2.74781E-05-2.95723E-05 4.73300E-06-1.08604E-18 1.32189E-18
 -1      2890 9.65520E-05-2.80954E-05-2.93439E-05 2.99301E-06 2.60235E-19 1.99724E-18
 -1      2891 9.68490E-05-2.80971E-05-2.94591E-05 3.41254E-06-1.90820E-19 2.31283E-18
 -1      2892 9.62400E-05-2.76603E-05-2.93864E-05 3.69851E-06 3.88347E-20 9.08003E-19
 -1      2893 9.62271E-05-2.81779E-05-2.91679E-05 2.26920E-06 6.33197E-19 1.65789E-18
 -1      2894 9.64632E-05-2.81724E-05-2.92624E-05 2.60987E-06 8.80585E-19 2.30689E-18
 -1      2895 9.60237E-05-2.78327E-05-2.92214E-05 2.84458E-06 9.90000E-19 1.32884E-18
 -1      2896 9.59678E-05-2.82514E-05-2.90243E-05 1.69198E-06-3.60002E-19-2.27133E-19
 -1      2897 9.61528E-05-2.82430E-05-2.91000E-05 1.96366E-06 1.76061E-19 1.95276E-18
 -1      2898 9.58421E-05-2.79832E-05-2.90803E-05 2.15305E-06 6.01002E-19 1.08414E-18
 -1      2899 9.57643E-05-2.83140E-05-2.89094E-05 1.23843E-06-6.85297E-19 6.96337E-19
 -1      2900 9.59068E-05-2.83046E-05-2.89690E-05 1.45188E-06-1.09885E-18-2.50498E-19
 -1      2901 9.56922E-05-2.81089E-05-2.89631E-05 1.60202E-06-6.35826E-19 8.10441E-20
 -1      2902 9.56073E-05-2.83656E-05-2.88194E-05 8.86691E-07-1.54163E-19 1.93623E-18
 -1      2903 9.57153E-05-2.83564E-05-2.88653E-05 1.05224E-06 1.20679E-20 1.98213E-18
 -1      2904 9.55709E-05-2.82110E-05-2.88679E-05 1.16922E-06-5.67375E-19 1.03907E-18
 -1      2905 9.54887E-05-2.84074E-05-2.87501E-05 6.17252E-07 2.24990E-18 1.13575E-18
 -1      2906 9.55686E-05-2.83987E-05-2.87849E-05 7.44141E-07 9.64625E-19 1.60539E-18
 -1      2907 9.54747E-05-2.82924E-05-2.87922E-05 8.33720E-07 9.67381E-19 1.14042E-18
 -1      2908 9.54022E-05-2.84411E-05-2.86975E-05 4.13257E-07 2.10003E-18 1.57496E-18
 -1      2909 9.54580E-05-2.84328E-05-2.87234E-05 5.08012E-07 2.22803E-18 1.58874E-18
 -1      2910 9.53976E-05-2.83551E-05-2.87329E-05 5.78067E-07 1.99025E-18 1.36666E-18
 -1      2911 9.53480E-05-2.84282E-05-2.86791E-05 3.44475E-07 8.91904E-19 1.66158E-18
 -1      2912 1.16321E-04-5.85053E-05-2.50318E-05 2.81983E-05-4.96573E-20-2.37157E-18
 -1      2913 9.98756E-05-5.16680E-05-2.01822E-05 3.39836E-05-8.43645E-19-3.82118E-19
 -1      2914 9.49569E-05-2.80349E-05-2.86818E-05 2.91398E-08-3.02934E-19-2.10787E-18
 -1      2915 9.49645E-05-2.80425E-05-2.86814E-05 7.72554E-08 9.65766E-19-3.54492E-18
 -1      2916 3.31161E-05-1.45799E-05-7.63788E-06 1.67732E-05 1.03179E-19-4.34909E-18
 -1      2917 2.95377E-05-1.25440E-05-6.70933E-06 1.26184E-06 6.83013E-19-5.28866E-18
 -1      2918 9.50364E-05-2.81262E-05-2.86774E-05 2.15332E-07 5.98383E-19 1.01177E-18
 -1      2919 9.50705E-05-2.81625E-05-2.86742E-05 2.40693E-07 9.42564E-19-1.04843E-19
 -1      2920 9.49659E-05-2.80457E-05-2.86805E-05-7.88298E-08-1.51311E-18-4.14151E-19
 -1      2921 9.49576E-05-2.80366E-05-2.86814E-05-3.09730E-08-1.56579E-18-8.70152E-19
 -1      2922 9.49039E-05-2.79572E-05-2.86898E-05-2.29942E-09-1.14982E-18-3.07786E-18
 -1      2923 9.49815E-05-2.80627E-05-2.86808E-05 1.32980E-07 8.27782E-19-1.59193E-18
 -1      2924 9.50041E-05-2.80862E-05-2.86790E-05 1.73169E-07 6.95660E-19 3.27981E-19
 -1      2925 9.49792E-05-2.80369E-05-2.86881E-05 2.27088E-07 7.25087E-19 5.67320E-19
 -1      2926 9.49226E-05-2.79759E-05-2.86898E-05 1.21731E-07 5.83661E-19-2.21126E-18
 -1      2927 9.50058E-05-2.80923E-05-2.86771E-05-1.71786E-07-8.74222E-20 2.03990E-19
 -1      2928 9.49836E-05-2.80684E-05-2.86793E-05-1.32800E-07-1.26075E-18 1.15217E-18
 -1      2929 9.49251E-05-2.79821E-05-2.86883E-05-1.24303E-07-4.36409E-19 1.65411E-19
 -1      2930 9.50714E-05-2.81700E-05-2.86715E-05-2.37641E-07 8.95411E-19 4.80898E-19
 -1      2931 9.50382E-05-2.81335E-05-2.86750E-05-2.12801E-07 2.83324E-19 7.00721E-20
 -1      2932 9.49821E-05-2.80470E-05-2.86852E-05-2.26277E-07-1.21519E-19 5.82616E-19
 -1      2933 9.51504E-05-2.82684E-05-2.86635E-05-2.63855E-07 9.84334E-19 1.10680E-18
 -1      2934 9.51133E-05-2.82240E-05-2.86682E-05-2.58869E-07 8.82207E-19 1.16527E-18
 -1      2935 9.50656E-05-2.81432E-05-2.86803E-05-2.92998E-07 4.69864E-19 9.08465E-19
 -1      2936 8.03450E-05-4.30141E-05-1.59820E-05 3.86781E-05-1.53631E-18 1.29194E-18
 -1      2937 6.22034E-05-3.25655E-05-1.21628E-05 3.50791E-05-2.39467E-18 2.23098E-18
 -1      2938 4.69279E-05-2.27181E-05-1.00578E-05 2.86001E-05-2.95911E-18 3.40423E-18
 -1      2939 3.61557E-05-1.58575E-05-8.12094E-06 1.67475E-05-3.39777E-18 2.52776E-18
 -1      2940 3.01160E-05-1.25714E-05-7.04334E-06 5.03111E-06-2.64872E-18 1.63371E-18
 -1      2941 2.98350E-05-1.25289E-05-6.91620E-06-7.83004E-06-1.23868E-18 2.09916E-18
 -1      2942 1.35781E-04-3.60525E-05-4.30447E-05 9.44688E-06 4.93079E-19-4.12092E-18
 -1      2943 1.29944E-04-2.48279E-05-4.57212E-05 1.21684E-05-7.14684E-19-3.74971E-18
 -1      2944 9.45219E-05-2.13340E-05-3.14067E-05-7.27611E-06-2.04583E-18-3.03709E-18
 -1      2945 9.50954E-05-2.30820E-05-3.08178E-05-5.57882E-06-1.79331E-18-2.71968E-18
 -1      2946 9.51553E-05-2.42573E-05-3.04015E-05-3.99270E-06-1.50366E-18-2.53884E-18
 -1      2947 9.31000E-05-1.88944E-05-3.18038E-05-6.66238E-06-1.31740E-18-3.37299E-18
 -1      2948 9.29705E-05-4.87285E-05-1.89358E-05 3.96062E-05 1.18775E-18-9.62971E-19
 -1      2949 7.72043E-05-4.04058E-05-1.52620E-05 3.99472E-05 1.61921E-18-1.44716E-18
 -1      2950 1.26059E-04-1.65651E-05-4.76676E-05 5.18257E-06 2.51855E-18 2.17174E-18
 -1      2951 1.25777E-04-6.05996E-05-2.76855E-05-2.10237E-05-6.26804E-19-2.05278E-18
 -1      2952 1.37345E-04-6.09999E-05-3.31441E-05-1.14284E-05-3.54907E-19-1.76225E-18
 -1      2953 9.50552E-05-2.72262E-05-2.90677E-05-4.63377E-07 1.56294E-18 2.62035E-22
 -1      2954 9.51543E-05-2.69512E-05-2.92030E-05 2.63412E-07 1.68153E-18 2.15842E-19
 -1      2955 9.53506E-05-2.70484E-05-2.92833E-05-6.43319E-07 1.61654E-18-3.93189E-19
 -1      2956 9.53744E-05-2.79209E-05-2.88989E-05-3.20070E-06 7.04064E-19-1.34858E-19
 -1      2957 9.51616E-05-2.78537E-05-2.88420E-05-2.85778E-06 8.12756E-19 3.50183E-20
 -1      2958 9.53290E-05-2.76616E-05-2.90082E-05-2.75651E-06 8.02636E-19-2.16539E-19
 -1      2959 9.54111E-05-2.77040E-05-2.90232E-05-3.56419E-06 5.64033E-19 1.06221E-19
 -1      2960 1.39178E-04-5.99431E-05-3.44185E-05 7.13985E-06 2.66588E-18-2.93349E-18
 -1      2961 1.30092E-04-6.10240E-05-2.93894E-05 1.67566E-05 1.38728E-18-2.96139E-18
 -1      2962 9.10643E-05-1.57444E-05-3.23070E-05 4.59862E-06 2.55674E-18-2.26999E-18
 -1      2963 9.06824E-05-1.52075E-05-3.23695E-05 3.71718E-06 2.26700E-18-2.51560E-18
 -1      2964 9.15874E-05-1.67142E-05-3.20716E-05 2.91423E-06 2.03921E-18-2.46824E-18
 -1      2965 9.23512E-05-1.78758E-05-3.18972E-05 4.23278E-06 2.38100E-18-1.92429E-18
 -1      2966 9.06440E-05-1.51647E-05-3.23709E-05-3.65523E-06 4.13969E-20-3.77870E-18
 -1      2967 9.10152E-05-1.56919E-05-3.23094E-05-4.54273E-06-2.99410E-19-3.87827E-18
 -1      2968 9.52019E-05-2.65524E-05-2.94231E-05 1.16345E-06 1.82681E-18 2.42950E-19
 -1      2969 9.54097E-05-2.60727E-05-2.96794E-05 2.25834E-06 1.99728E-18 3.30916E-19
 -1      2970 9.53818E-05-2.48578E-05-3.02243E-05 3.27883E-06 2.32566E-18-2.15589E-19
 -1      2971 9.54125E-05-2.62639E-05-2.96442E-05 9.92649E-07 1.87073E-18-3.23512E-19
 -1      2972 1.23596E-04-5.79368E-05-2.77813E-05-2.30600E-05 1.54679E-18-7.23684E-20
 -1      2973 1.32595E-04-5.68731E-05-3.29995E-05-1.25723E-05 1.77358E-18-2.32108E-18
 -1      2974 1.23789E-04-1.52316E-05-4.69445E-05 1.04913E-05-2.03934E-18-3.94188E-18
 -1      2975 1.20641E-04-1.02695E-05-4.79990E-05 4.45112E-06-3.20030E-18-2.97498E-18
 -1      2976 3.15797E-05-1.42634E-05-6.85552E-06-1.09341E-05 5.05202E-19-5.80959E-18
 -1      2977 3.94768E-05-1.88240E-05-8.40506E-06-2.23672E-05 1.85394E-19-6.53655E-18
 -1      2978 9.52741E-05-2.84404E-05-2.86428E-05-2.14579E-07-1.29745E-18 9.80348E-19
 -1      2979 9.52476E-05-2.84048E-05-2.86470E-05-2.28838E-07-5.91754E-20 6.38517E-19
 -1      2980 9.52897E-05-2.84303E-05-2.86526E-05-2.53164E-07-6.66834E-19 1.13388E-18
 -1      2981 9.59432E-05-4.98843E-05-1.94574E-05-3.50009E-05-1.60343E-18-3.76517E-18
 -1      2982 1.11733E-04-5.72021E-05-2.34441E-05-3.10781E-05-1.00437E-18-3.04672E-18
 -1      2983 1.38450E-04-3.75024E-05-4.38859E-05-7.23459E-06-3.64499E-18 1.19876E-18
 -1      2984 1.37982E-04-4.55213E-05-3.96724E-05-2.95676E-06-3.02952E-18 1.77252E-18
 -1      2985 5.96171E-05-3.05797E-05-1.22843E-05 3.79888E-05 1.61561E-18-2.80357E-18
 -1      2986 4.50931E-05-2.12969E-05-9.56162E-06 2.89071E-05 1.13730E-18-3.70577E-18
 -1      2987 1.18908E-04-5.81464E-05-2.62644E-05 2.86032E-05 5.34478E-19 7.76544E-19
 -1      2988 1.07217E-04-5.45321E-05-2.22891E-05 3.39892E-05 1.06430E-18 1.20603E-19
 -1      2989 9.39284E-05-4.93680E-05-1.86487E-05-3.88235E-05 1.54107E-18 1.88544E-18
 -1      2990 1.09515E-04-5.56162E-05-2.33753E-05-3.40343E-05 1.50550E-18 8.00089E-19
 -1      2991 1.35586E-04-5.48737E-05-3.51649E-05 8.22498E-06-1.91467E-18 1.98248E-18
 -1      2992 1.28376E-04-5.79293E-05-3.00261E-05 1.84809E-05-1.35790E-19 1.36626E-18
 -1      2993 1.30311E-04-2.02433E-05-4.79159E-05-1.10359E-05-4.49224E-18 7.98064E-19
 -1      2994 1.35219E-04-2.86849E-05-4.60325E-05-1.05756E-05-4.35174E-18 8.23845E-19
 -1      2995 1.31248E-04-3.32496E-05-4.22443E-05-1.14014E-05-2.99532E-18 1.67882E-18
 -1      2996 1.21783E-04-8.47938E-06-4.91461E-05-2.39320E-06-3.31825E-18-2.39251E-18
 -1      2997 1.26530E-04-1.29404E-05-4.92243E-05-8.29556E-06-3.74050E-18-7.84988E-19
 -1      2998 1.23100E-04-1.79404E-05-4.54288E-05-1.04248E-05-3.44372E-18-9.18925E-19
 -1      2999 9.47878E-05-2.18476E-05-3.12655E-05 7.50662E-06 2.95623E-18 4.69729E-19
 -1      3000 1.36949E-04-4.93392E-05-3.74960E-05-1.04206E-08 1.35811E-18-3.51201E-18
 -1      3001 1.37401E-04-4.33605E-05-4.09092E-05 4.99948E-06 8.51056E-19-4.22966E-18
 -1      3002 1.32048E-04-3.87990E-05-4.01352E-05 1.01144E-05 6.47292E-19-3.73414E-18
 -1      3003 1.25794E-04-1.57937E-05-4.77634E-05-2.80799E-06 2.35687E-18 1.71079E-18
 -1      3004 9.03398E-05-1.47172E-05-3.24319E-05-2.90372E-06 2.79706E-19-3.69953E-18
 -1      3005 9.15575E-05-1.66806E-05-3.20722E-05-2.84630E-06 9.72094E-20-3.49368E-18
 -1      3006 9.01284E-05-1.44242E-05-3.24651E-05-2.00475E-06 6.13512E-19-3.64750E-18
 -1      3007 1.17175E-04-5.61138E-05-2.59823E-05-2.55674E-05 1.62127E-18-7.33372E-19
 -1      3008 7.34977E-05-3.48980E-05-1.60138E-05 3.58486E-05 1.82694E-18-1.76172E-18
 -1      3009 4.00521E-05-1.40850E-05-1.04393E-05-1.36297E-05-8.74562E-19 1.63774E-18
 -1      3010 9.02904E-05-4.54007E-05-1.88074E-05-3.72316E-05 1.98714E-18 1.12867E-18
 -1      3011 9.23011E-05-1.78165E-05-3.19004E-05-4.17106E-06-4.46452E-19-3.59803E-18
 -1      3012 9.15001E-05-1.64077E-05-3.22061E-05-5.22239E-06-5.61218E-19-3.87672E-18
 -1      3013 9.20225E-05-1.72171E-05-3.21115E-05-6.09008E-06-9.95390E-19-3.84325E-18
 -1      3014 1.23863E-04-5.84053E-05-2.78002E-05 1.84262E-05 7.27390E-20-2.68414E-18
 -1      3015 9.52592E-05-2.83715E-05-2.86671E-05-3.14264E-07 1.98147E-19-1.01806E-18
 -1      3016 9.38510E-05-4.61909E-05-2.00187E-05 3.30119E-05-1.06705E-18 4.33496E-19
 -1      3017 1.36713E-04-5.34915E-05-3.59879E-05 5.78362E-06-1.99304E-19 2.61566E-18
 -1      3018 1.34170E-04-3.64646E-05-4.22395E-05 1.73380E-05 1.79613E-18 2.63475E-18
 -1      3019 9.44263E-05-2.13149E-05-3.13388E-05 6.82196E-06 2.93356E-18-2.22207E-19
 -1      3020 3.76107E-05-1.28758E-05-9.90259E-06-3.97085E-06 6.55372E-19-5.56151E-18
 -1      3021 9.50648E-05-2.81323E-05-2.86842E-05 2.96082E-07 1.24543E-18-6.31532E-19
 -1      3022 9.51115E-05-2.82162E-05-2.86713E-05 2.61811E-07 1.41226E-18-1.13227E-18
 -1      3023 9.51514E-05-2.82591E-05-2.86669E-05 2.70007E-07 9.67515E-19-1.90226E-18
 -1      3024 9.52205E-05-2.83463E-05-2.86612E-05 2.67036E-07 1.80509E-20-1.95597E-18
 -1      3025 6.11504E-05-2.69980E-05-1.40100E-05 2.92938E-05-2.56540E-18 2.95382E-18
 -1      3026 1.34377E-04-5.01207E-05-3.61987E-05 2.35175E-07-1.59468E-18 2.08635E-18
 -1      3027 1.24426E-04-5.75114E-05-2.85352E-05 1.95838E-05 6.68044E-19 1.24154E-18
 -1      3028 9.52166E-05-2.83581E-05-2.86532E-05-2.43885E-07 8.83492E-19-4.12262E-19
 -1      3029 4.14108E-05-1.39315E-05-1.10956E-05 1.05416E-05-2.36092E-18 1.91059E-18
 -1      3030 1.27337E-04-1.91215E-05-4.70229E-05-1.07821E-05 2.24040E-18 8.94467E-19
 -1      3031 1.22843E-04-2.21953E-05-4.34553E-05 1.14231E-05-1.11618E-18-3.55828E-18
 -1      3032 9.50961E-05-2.38525E-05-3.05367E-05-3.58920E-06-1.38378E-18-2.61144E-18
 -1      3033 8.99162E-05-1.41198E-05-3.25038E-05-3.40932E-07 1.12086E-18-3.50392E-18
 -1      3034 8.99820E-05-1.42116E-05-3.24933E-05-1.23857E-06 8.31237E-19-3.56658E-18
 -1      3035 9.11135E-05-1.60239E-05-3.21660E-05-1.42173E-06 6.46170E-19-3.37368E-18
 -1      3036 9.09709E-05-1.58148E-05-3.21958E-05 3.25618E-08 1.05930E-18-3.33044E-18
 -1      3037 4.58872E-05-1.76353E-05-1.14550E-05 2.12793E-05 1.14207E-18-3.55277E-18
 -1      3038 4.95767E-05-2.25474E-05-1.09407E-05-2.70920E-05-8.18763E-19-6.43671E-18
 -1      3039 6.06216E-05-2.70003E-05-1.41410E-05-3.00551E-05-1.50708E-18-5.32487E-18
 -1      3040 4.88636E-05-1.84302E-05-1.25372E-05-2.14883E-05-1.20385E-19-5.44367E-18
 -1      3041 1.21022E-04-5.82083E-05-2.67207E-05-2.17961E-05-1.28929E-18-2.08047E-18
 -1      3042 1.32527E-04-5.27715E-05-3.42463E-05-3.94742E-06 1.25001E-18-2.64571E-18
 -1      3043 1.02813E-04-5.10261E-05-2.18569E-05 3.32515E-05 1.45436E-18 1.83707E-19
 -1      3044 9.46770E-05-2.22977E-05-3.10101E-05 5.24089E-06 2.63357E-18-3.87020E-19
 -1      3045 1.16944E-04-1.12838E-05-4.56340E-05 1.21440E-06-2.68541E-18-2.22633E-18
 -1      3046 1.39134E-04-5.80804E-05-3.48099E-05-1.59861E-06-1.87565E-19 2.81109E-19
 -1      3047 8.68895E-05-4.41610E-05-1.79358E-05-3.62706E-05-2.01901E-18-4.37249E-18
 -1      3048 9.78209E-05-4.72638E-05-2.14208E-05-3.10079E-05-1.89852E-18-3.93378E-18
 -1      3049 7.70254E-05-3.67694E-05-1.68813E-05-3.42503E-05-2.02526E-18-4.41050E-18
 -1      3050 5.95296E-05-2.76101E-05-1.31318E-05-3.34972E-05 1.85077E-19 2.02917E-18
 -1      3051 9.52196E-05-2.83302E-05-2.86674E-05-3.08726E-07 3.44083E-19-3.77630E-19
 -1      3052 9.51808E-05-2.83003E-05-2.86636E-05-2.80903E-07 4.44472E-19 5.78984E-19
 -1      3053 9.51504E-05-2.82331E-05-2.86776E-05-3.32148E-07 9.44825E-19 3.54604E-19
 -1      3054 9.52269E-05-2.83075E-05-2.86780E-05-3.58269E-07 3.53592E-19-7.47081E-19
 -1      3055 1.44031E-04-4.80239E-05-4.17964E-05-9.58852E-06 3.57284E-18-2.45989E-18
 -1      3056 1.43109E-04-5.44453E-05-3.80414E-05-3.48243E-06 2.97661E-18-2.23140E-18
 -1      3057 1.38466E-04-5.68089E-05-3.51012E-05-7.67420E-07 2.60029E-18-2.32902E-18
 -1      3058 4.12059E-05-1.16116E-05-1.24026E-05 1.66612E-06 6.22880E-19-4.55132E-18
 -1      3059 4.36460E-05-1.33259E-05-1.25763E-05-1.02524E-05 1.45782E-19-5.23191E-18
 -1      3060 9.42616E-05-2.15859E-05-3.11744E-05 4.45428E-06 2.41736E-18-9.29841E-19
 -1      3061 9.37267E-05-2.05517E-05-3.13645E-05 4.12441E-06 2.27252E-18-1.29954E-18
 -1      3062 1.38407E-04-4.22897E-05-4.14996E-05-1.47702E-05 2.93714E-18-2.23691E-18
 -1      3063 9.56285E-05-2.63524E-05-2.96780E-05 2.63640E-07-9.28557E-19-2.02230E-18
 -1      3064 9.56239E-05-2.67389E-05-2.95271E-05 9.42934E-07-8.51095E-19-2.04911E-18
 -1      3065 9.56277E-05-2.70408E-05-2.93859E-05 1.49735E-06-8.42990E-19-1.98896E-18
 -1      3066 9.56185E-05-2.72633E-05-2.92959E-05 2.00491E-06-7.93936E-19-2.08335E-18
 -1      3067 9.56566E-05-2.65377E-05-2.96256E-05 1.10211E-06-8.57234E-19-2.07304E-18
 -1      3068 9.55673E-05-2.74134E-05-2.92039E-05 2.44273E-06-6.79017E-19-1.94614E-18
 -1      3069 9.55764E-05-2.75336E-05-2.91590E-05 2.84410E-06-6.45863E-19-1.90332E-18
 -1      3070 9.56143E-05-2.70666E-05-2.93810E-05 2.13056E-06-7.27594E-19-1.76782E-18
 -1      3071 9.55015E-05-2.75895E-05-2.91032E-05 3.21483E-06-4.36853E-19-1.75551E-18
 -1      3072 9.55408E-05-2.76531E-05-2.90904E-05 3.55826E-06-3.47285E-19-1.49385E-18
 -1      3073 9.54932E-05-2.73191E-05-2.92208E-05 2.96913E-06-4.85921E-19-1.59745E-18
 -1      3074 9.54656E-05-2.76607E-05-2.90592E-05 3.89991E-06-3.27070E-19-1.04894E-18
 -1      3075 9.55463E-05-2.77075E-05-2.90680E-05 4.21663E-06-3.46517E-19-7.73325E-19
 -1      3076 9.53470E-05-2.74066E-05-2.91206E-05 3.70656E-06-2.48606E-20-9.89115E-19
 -1      3077 9.54948E-05-2.77104E-05-2.90513E-05 4.55443E-06-3.13640E-19-6.63144E-19
 -1      3078 9.56331E-05-2.77816E-05-2.90724E-05 4.85891E-06-4.58226E-20-3.43850E-19
 -1      3079 9.52219E-05-2.74273E-05-2.90585E-05 4.40822E-06-3.67537E-20-6.66512E-19
 -1      3080 9.56363E-05-2.78271E-05-2.90614E-05 5.20433E-06-2.68740E-19 5.97938E-21
 -1      3081 9.58573E-05-2.79705E-05-2.90871E-05 5.49365E-06-2.22357E-19-1.98850E-19
 -1      3082 9.51717E-05-2.74808E-05-2.90152E-05 5.11429E-06-1.65748E-19-1.20059E-19
 -1      3083 9.59596E-05-2.81151E-05-2.90742E-05 5.84265E-06-2.65063E-19-1.27096E-19
 -1      3084 9.63006E-05-2.83877E-05-2.90982E-05 6.09466E-06-2.53830E-19-2.42121E-19
 -1      3085 9.52702E-05-2.76815E-05-2.89739E-05 5.83731E-06-2.62707E-19 6.04170E-20
 -1      3086 9.65656E-05-2.86998E-05-2.90788E-05 6.42428E-06-1.92120E-19-1.21637E-19
 -1      3087 9.70779E-05-2.91677E-05-2.90978E-05 6.59421E-06 3.60023E-20-1.85921E-19
 -1      3088 9.56233E-05-2.81660E-05-2.89221E-05 6.55802E-06-3.34996E-20 2.13041E-19
 -1      3089 9.75928E-05-2.97253E-05-2.90722E-05 6.85575E-06 1.63341E-19-3.85142E-19
 -1      3090 9.83380E-05-3.04556E-05-2.90883E-05 6.87150E-06 2.89139E-19-5.26910E-19
 -1      3091 9.63800E-05-2.90962E-05-2.88549E-05 7.21595E-06-3.40374E-20-4.38010E-19
 -1      3092 9.92133E-05-3.13345E-05-2.90661E-05 6.97788E-06 1.40519E-19-6.90154E-19
 -1      3093 1.00249E-04-3.23718E-05-2.90915E-05 6.73451E-06-3.41851E-19-6.93924E-19
 -1      3094 9.77375E-05-3.06473E-05-2.87823E-05 7.69085E-06-2.06725E-19-6.03938E-19
 -1      3095 1.01599E-04-3.36122E-05-2.90988E-05 6.54305E-06-4.87920E-19-2.02474E-19
 -1      3096 1.02943E-04-3.49280E-05-2.91613E-05 5.90299E-06-5.27592E-19 2.84788E-19
 -1      3097 9.99251E-05-3.29620E-05-2.87410E-05 7.76927E-06-1.17092E-19-5.37930E-19
 -1      3098 1.04838E-04-3.64666E-05-2.92494E-05 5.19958E-06-3.99587E-19 7.67173E-19
 -1      3099 1.06400E-04-3.78716E-05-2.93987E-05 4.01512E-06 1.49499E-19 1.11020E-18
 -1      3100 1.03143E-04-3.60476E-05-2.88107E-05 7.10620E-06-1.30043E-19 5.09038E-19
 -1      3101 1.08747E-04-3.94249E-05-2.96531E-05 2.52621E-06 1.39631E-19 1.06627E-18
 -1      3102 1.10227E-04-4.04330E-05-2.99599E-05 7.12347E-07 1.66582E-19 1.12035E-18
 -1      3103 1.07405E-04-3.95667E-05-2.91376E-05 5.17435E-06 1.13341E-19 1.01258E-18
 -1      3104 1.12601E-04-4.13627E-05-3.04944E-05-1.70155E-06 3.35386E-19 1.50918E-18
 -1      3105 1.13485E-04-4.12069E-05-3.10309E-05-3.97138E-06 5.35415E-19 1.23647E-18
 -1      3106 1.12227E-04-4.24718E-05-2.99463E-05 1.46590E-06 3.81229E-19 1.59105E-18
 -1      3107 1.14961E-04-4.04738E-05-3.19523E-05-7.02351E-06 4.32941E-19 1.07868E-18
 -1      3108 1.14671E-04-3.83191E-05-3.27417E-05-8.99746E-06-2.26247E-19 8.61831E-19
 -1      3109 1.16299E-04-4.28756E-05-3.14811E-05-4.13072E-06 2.35366E-19 1.28738E-18
 -1      3110 1.14311E-04-3.52567E-05-3.40239E-05-1.13389E-05-7.83405E-19 9.93988E-19
 -1      3111 1.12720E-04-3.10758E-05-3.49713E-05-1.18165E-05-8.82741E-19 3.63855E-19
 -1      3112 1.17573E-04-3.84560E-05-3.38942E-05-1.00825E-05-3.61710E-19 1.61748E-18
 -1      3113 1.10559E-04-2.63520E-05-3.63154E-05-1.13015E-05-1.13794E-18-8.03060E-20
 -1      3114 1.08636E-04-2.21376E-05-3.70836E-05-9.20209E-06-1.00291E-18 3.96385E-21
 -1      3115 1.15041E-04-2.91164E-05-3.68292E-05-1.25762E-05-1.29771E-18 9.93901E-19
 -1      3116 1.06657E-04-1.82538E-05-3.79134E-05 4.51944E-06-2.22584E-18-6.32892E-19
 -1      3117 1.07954E-04-2.09629E-05-3.74591E-05 8.01067E-06-1.65672E-18-1.18130E-18
 -1      3118 1.10071E-04-2.51178E-05-3.64151E-05 1.09328E-05-8.58362E-19-1.76248E-18
 -1      3119 1.12092E-04-2.96328E-05-3.55536E-05 1.21297E-05-2.78661E-19-2.11020E-18
 -1      3120 1.12120E-04-2.25991E-05-3.84806E-05 1.03253E-05-1.29940E-18-1.07888E-18
 -1      3121 1.13771E-04-3.40499E-05-3.41688E-05 1.13956E-05 7.12831E-20-2.33507E-18
 -1      3122 1.14966E-04-3.76110E-05-3.32489E-05 1.02329E-05 8.62769E-19-2.24256E-18
 -1      3123 1.16339E-04-3.29005E-05-3.57824E-05 1.24717E-05-4.11261E-19-2.30093E-18
 -1      3124 1.14550E-04-3.97751E-05-3.20805E-05 7.42949E-06 1.08817E-18-2.02223E-18
 -1      3125 1.14409E-04-4.11425E-05-3.13832E-05 5.27220E-06 9.20613E-19-1.75354E-18
 -1      3126 1.17505E-04-4.05392E-05-3.29811E-05 8.29700E-06 1.07972E-18-1.78360E-18
 -1      3127 1.12426E-04-4.11392E-05-3.06135E-05 2.35212E-06 6.63603E-19-2.18776E-18
 -1      3128 1.11308E-04-4.07633E-05-3.01726E-05 2.58893E-07 7.25470E-19-2.14885E-18
 -1      3129 1.15003E-04-4.30760E-05-3.08886E-05 2.18062E-06 5.02494E-19-2.48323E-18
 -1      3130 1.08820E-04-3.95020E-05-2.97564E-05-1.83185E-06 4.60705E-19-2.24998E-18
 -1      3131 1.07291E-04-3.82521E-05-2.95218E-05-3.36414E-06 5.24246E-19-2.22872E-18
 -1      3132 1.10453E-04-4.15043E-05-2.96423E-05-2.75296E-06 1.47190E-19-1.45443E-18
 -1      3133 1.05043E-04-3.66389E-05-2.93425E-05-4.51522E-06 6.86295E-20-2.07953E-18
 -1      3134 1.03558E-04-3.52140E-05-2.92377E-05-5.43534E-06 1.90196E-19-1.95157E-18
 -1      3135 1.05700E-04-3.81582E-05-2.90397E-05-5.72542E-06 3.36451E-19-1.51032E-18
 -1      3136 1.01835E-04-3.37479E-05-2.91892E-05-5.89053E-06 4.06955E-19-2.54006E-18
 -1      3137 1.00607E-04-3.25048E-05-2.91506E-05-6.31530E-06 2.20074E-19-2.29166E-18
 -1      3138 1.01762E-04-3.46730E-05-2.88269E-05-7.05643E-06 1.96273E-19-1.99771E-18
 -1      3139 9.94160E-05-3.13734E-05-2.91606E-05-6.33243E-06-3.73061E-19-2.02822E-18
 -1      3140 9.84919E-05-3.04321E-05-2.91467E-05-6.40904E-06-1.29998E-18-1.61001E-18
 -1      3141 9.88923E-05-3.17907E-05-2.88104E-05-7.32006E-06-9.32563E-21-2.33174E-18
 -1      3142 9.77363E-05-2.96541E-05-2.91729E-05-6.17738E-06-1.15416E-18-1.01443E-18
 -1      3143 9.70808E-05-2.90118E-05-2.91613E-05-6.03272E-06-1.99180E-19-5.69592E-19
 -1      3144 9.69823E-05-2.96996E-05-2.88693E-05-6.96392E-06-5.08319E-19-2.09565E-18
 -1      3145 9.66413E-05-2.85316E-05-2.91829E-05-5.67732E-06-4.57754E-19-5.02138E-19
 -1      3146 9.61937E-05-2.81343E-05-2.91641E-05-5.40644E-06-5.26243E-19-1.00795E-18
 -1      3147 9.58115E-05-2.83372E-05-2.89379E-05-6.28876E-06-5.47259E-20-7.61162E-19
 -1      3148 9.59659E-05-2.78768E-05-2.91736E-05-5.00399E-06-3.18427E-19-1.37502E-18
 -1      3149 9.56672E-05-2.76600E-05-2.91461E-05-4.67374E-06-1.73587E-19-1.28961E-18
 -1      3150 9.51568E-05-2.75474E-05-2.89868E-05-5.47873E-06-5.39808E-19-1.97257E-18
 -1      3151 9.55719E-05-2.75555E-05-2.91426E-05-4.27008E-06 2.70916E-19-1.33612E-18
 -1      3152 9.53750E-05-2.74616E-05-2.91082E-05-3.92525E-06 1.36576E-19-8.26764E-19
 -1      3153 9.48379E-05-2.71671E-05-2.90076E-05-4.64243E-06-1.31478E-19-1.28939E-18
 -1      3154 9.53569E-05-2.74542E-05-2.90943E-05-3.54687E-06 4.24724E-19-5.54271E-19
 -1      3155 9.52274E-05-2.74382E-05-2.90561E-05-3.21581E-06 5.76443E-19-1.72531E-19
 -1      3156 9.47234E-05-2.70578E-05-2.90021E-05-3.84280E-06 5.98458E-19-2.56159E-19
 -1      3157 9.52500E-05-2.74867E-05-2.90352E-05-2.87681E-06 1.43964E-19 3.71225E-19
 -1      3158 9.51644E-05-2.75159E-05-2.89961E-05-2.57595E-06 7.95621E-19 1.91294E-19
 -1      3159 9.47240E-05-2.71138E-05-2.89766E-05-3.11463E-06 7.56948E-19 7.82647E-19
 -1      3160 9.52049E-05-2.75920E-05-2.89714E-05-2.28235E-06 1.65434E-18 4.67626E-19
 -1      3161 9.51476E-05-2.76440E-05-2.89339E-05-2.01969E-06 2.21178E-18-8.22302E-20
 -1      3162 9.47820E-05-2.72599E-05-2.89380E-05-2.47472E-06 1.11237E-18 1.46884E-18
 -1      3163 9.51926E-05-2.77294E-05-2.89080E-05-1.77237E-06 1.46559E-18-6.17302E-19
 -1      3164 9.51536E-05-2.77897E-05-2.88736E-05-1.55020E-06 2.36632E-19-9.04313E-19
 -1      3165 9.48623E-05-2.74454E-05-2.88927E-05-1.92820E-06 1.61424E-18 7.86171E-19
 -1      3166 9.51957E-05-2.78731E-05-2.88484E-05-1.34672E-06 1.18995E-19-8.95031E-19
 -1      3167 9.51683E-05-2.79329E-05-2.88181E-05-1.16363E-06 5.07602E-19-4.62568E-19
 -1      3168 9.49446E-05-2.76379E-05-2.88454E-05-1.47275E-06 3.76312E-19-3.83623E-19
 -1      3169 9.52041E-05-2.80081E-05-2.87949E-05-9.99853E-07-1.64325E-19 3.69164E-20
 -1      3170 9.51844E-05-2.80625E-05-2.87688E-05-8.52396E-07-6.12800E-19-1.09882E-18
 -1      3171 9.50187E-05-2.78193E-05-2.87996E-05-1.10128E-06 1.18928E-19-2.65011E-19
 -1      3172 9.52128E-05-2.81283E-05-2.87482E-05-7.22331E-07-6.03090E-19-8.99573E-19
 -1      3173 9.51999E-05-2.81746E-05-2.87264E-05-6.07665E-07-4.13932E-19-8.70798E-19
 -1      3174 9.50786E-05-2.79784E-05-2.87574E-05-8.04706E-07-2.30214E-19-5.36075E-20
 -1      3175 9.52222E-05-2.82268E-05-2.87105E-05-5.17387E-07 2.59057E-19-8.86908E-19
 -1      3176 9.52128E-05-2.82660E-05-2.86922E-05-4.27118E-07 6.35495E-19 1.56608E-19
 -1      3177 9.51699E-05-2.82242E-05-2.86920E-05-4.19741E-07 2.30307E-19-1.30614E-19
 -1      3178 9.51309E-05-2.81133E-05-2.87217E-05-5.79886E-07 2.27525E-19 1.16319E-19
 -1      3179 9.54758E-05-2.72813E-05-2.92254E-05-1.99657E-06 9.32953E-19-2.14765E-19
 -1      3180 9.54865E-05-2.71001E-05-2.92986E-05-1.45620E-06 1.20844E-18-2.13481E-19
 -1      3181 9.52457E-05-2.69980E-05-2.92391E-05-5.46535E-06 4.58458E-19-3.14530E-19
 -1      3182 9.51563E-05-2.71033E-05-2.91724E-05-4.99674E-06 6.58272E-19-4.12022E-19
 -1      3183 9.53217E-05-2.72699E-05-2.91567E-05-4.56306E-06 6.50183E-19-3.07054E-19
 -1      3184 9.52492E-05-2.73348E-05-2.91097E-05-4.14229E-06 5.26140E-19-1.55198E-19
 -1      3185 9.48341E-05-2.67916E-05-2.91600E-05-4.77386E-06 6.08854E-19-1.92746E-19
 -1      3186 9.50211E-05-2.63183E-05-2.94310E-05-7.69480E-06-3.01987E-20-4.05523E-19
 -1      3187 9.48902E-05-2.64218E-05-2.93558E-05-7.07447E-06 1.30571E-19-6.87395E-19
 -1      3188 9.49189E-05-2.60874E-05-2.94837E-05-9.06597E-06-1.16078E-19-1.64387E-19
 -1      3189 9.47314E-05-2.61052E-05-2.94250E-05-8.36996E-06 6.19666E-20-1.10913E-19
 -1      3190 9.34780E-05-2.53824E-05-2.91763E-05-7.99838E-06-1.69214E-19-8.85129E-19
 -1      3191 9.49506E-05-2.61679E-05-2.94587E-05-1.05988E-05-3.82444E-19-6.99308E-19
 -1      3192 9.46323E-05-2.59838E-05-2.94344E-05-9.85260E-06-1.55482E-19-2.91421E-19
 -1      3193 9.28972E-05-2.50171E-05-2.90841E-05-9.43470E-06-4.08662E-20-6.30635E-19
 -1      3194 9.53670E-05-2.69020E-05-2.93151E-05-1.22482E-05-2.21664E-19-7.44890E-19
 -1      3195 9.47661E-05-2.63221E-05-2.93427E-05-1.15070E-05-2.79719E-19-8.39344E-19
 -1      3196 9.23998E-05-2.50261E-05-2.88716E-05-1.11109E-05-2.34712E-19-7.60148E-19
 -1      3197 9.66496E-05-2.88289E-05-2.90275E-05-1.39113E-05-8.53313E-19-1.50429E-19
 -1      3198 9.54923E-05-2.75563E-05-2.91128E-05-1.32807E-05-5.63956E-19-6.82735E-19
 -1      3199 9.22685E-05-2.58134E-05-2.84915E-05-1.30738E-05-4.66319E-19-5.36477E-19
 -1      3200 9.96035E-05-3.26871E-05-2.86265E-05-1.53380E-05-1.27485E-18-3.48014E-19
 -1      3201 9.74753E-05-3.03420E-05-2.87393E-05-1.50266E-05-7.46949E-19-3.61442E-19
 -1      3202 9.30613E-05-2.80181E-05-2.79172E-05-1.53615E-05-7.96915E-19-9.08074E-19
 -1      3203 1.05355E-04-3.91853E-05-2.82936E-05-1.58757E-05-2.26277E-18 1.64673E-19
 -1      3204 1.01794E-04-3.54865E-05-2.83123E-05-1.63015E-05-1.92902E-18-1.02491E-19
 -1      3205 9.58104E-05-3.25775E-05-2.71935E-05-1.78836E-05-1.88106E-18-1.13006E-18
 -1      3206 1.15019E-04-4.81266E-05-2.86055E-05-1.40717E-05-2.27534E-18 8.34190E-19
 -1      3207 1.09817E-04-4.35576E-05-2.81911E-05-1.60135E-05-2.37362E-18 7.35276E-19
 -1      3208 1.01960E-04-4.01663E-05-2.65815E-05-1.99638E-05-2.48156E-18-5.22500E-19
 -1      3209 1.08275E-04-4.07259E-05-2.87880E-05 1.47937E-05-3.20946E-21-2.26939E-18
 -1      3210 1.12567E-04-4.49825E-05-2.89777E-05 1.34310E-05 5.99210E-19-2.14973E-18
 -1      3211 1.01611E-04-3.38791E-05-2.89650E-05 1.49812E-05 3.94747E-20-7.23422E-19
 -1      3212 1.04642E-04-3.70106E-05-2.89344E-05 1.46978E-05 1.38735E-20-1.76645E-18
 -1      3213 1.01504E-04-3.79761E-05-2.73870E-05 1.80043E-05-1.40053E-19-1.24483E-18
 -1      3214 9.80132E-05-2.96158E-05-2.92964E-05 1.37681E-05-6.83648E-19 6.29975E-19
 -1      3215 9.98352E-05-3.15409E-05-2.92241E-05 1.41082E-05-4.52321E-19 1.65494E-20
 -1      3216 9.62613E-05-3.12831E-05-2.79291E-05 1.62372E-05-5.02496E-19 3.87508E-19
 -1      3217 9.63158E-05-2.73649E-05-2.95539E-05 1.20818E-05-3.82102E-19 9.59736E-19
 -1      3218 9.73392E-05-2.83888E-05-2.95174E-05 1.27256E-05-2.18078E-19 1.05688E-18
 -1      3219 9.39709E-05-2.75170E-05-2.85116E-05 1.40233E-05-7.86965E-19 1.24930E-18
 -1      3220 9.56325E-05-2.64035E-05-2.96807E-05 1.03068E-05-1.52037E-18 1.01223E-18
 -1      3221 9.62023E-05-2.68600E-05-2.96955E-05 1.10653E-05-7.30612E-19 9.14688E-19
 -1      3222 9.32630E-05-2.57300E-05-2.89491E-05 1.18894E-05-6.37482E-19 1.35929E-18
 -1      3223 9.54218E-05-2.61686E-05-2.96929E-05 8.60838E-06-1.38498E-18 5.64838E-19
 -1      3224 9.57569E-05-2.63069E-05-2.97480E-05 9.37663E-06-1.61022E-18 4.99658E-19
 -1      3225 9.33092E-05-2.51344E-05-2.92134E-05 9.96086E-06-1.59274E-18 2.47149E-18
 -1      3226 9.53976E-05-2.62986E-05-2.96260E-05 7.05970E-06-7.15870E-19 9.08559E-19
 -1      3227 9.56174E-05-2.62758E-05-2.97051E-05 7.77974E-06-1.18890E-18 5.83687E-19
 -1      3228 9.36428E-05-2.51770E-05-2.93348E-05 8.24786E-06-1.54204E-18 2.24143E-18
 -1      3229 9.54250E-05-2.65829E-05-2.95142E-05 5.69384E-06-7.47388E-19 1.49889E-18
 -1      3230 9.55879E-05-2.64896E-05-2.96029E-05 6.33617E-06-1.61737E-19 1.27188E-18
 -1      3231 9.40342E-05-2.55201E-05-2.93556E-05 6.74175E-06-8.81892E-19 1.71277E-18
 -1      3232 9.54495E-05-2.69088E-05-2.93832E-05 4.52061E-06-4.54401E-19 1.28071E-19
 -1      3233 9.55814E-05-2.67931E-05-2.94715E-05 5.07390E-06-4.56519E-19 1.20747E-18
 -1      3234 9.43844E-05-2.59718E-05-2.93135E-05 5.43532E-06-4.43957E-19 8.29031E-19
 -1      3235 9.54554E-05-2.72208E-05-2.92503E-05 3.53481E-06-3.07514E-19 4.62959E-19
 -1      3236 9.55667E-05-2.71066E-05-2.93321E-05 3.99891E-06-6.47913E-19-3.05912E-19
 -1      3237 9.46615E-05-2.64310E-05-2.92372E-05 4.32001E-06-3.78155E-19-4.26982E-19
 -1      3238 9.54436E-05-2.74960E-05-2.91257E-05 2.72205E-06 9.04371E-19 1.78054E-19
 -1      3239 9.55379E-05-2.73935E-05-2.91979E-05 3.10314E-06 6.84444E-19 2.40566E-19
 -1      3240 9.48652E-05-2.68502E-05-2.91463E-05 3.38360E-06-2.14252E-19-6.94972E-19
 -1      3241 9.54198E-05-2.77279E-05-2.90149E-05 2.06308E-06-1.28230E-19 1.51253E-18
 -1      3242 9.54988E-05-2.76404E-05-2.90764E-05 2.37051E-06 8.83959E-19 1.35477E-18
 -1      3243 9.50074E-05-2.72115E-05-2.90536E-05 2.61022E-06-1.44330E-19 7.56643E-19
 -1      3244 9.53902E-05-2.79175E-05-2.89199E-05 1.53686E-06-1.81270E-19 5.63073E-19
 -1      3245 9.54551E-05-2.78451E-05-2.89708E-05 1.78105E-06-3.54203E-19 1.40823E-18
 -1      3246 9.51024E-05-2.75119E-05-2.89664E-05 1.98149E-06-9.84273E-20 1.53135E-18
 -1      3247 9.53592E-05-2.80695E-05-2.88407E-05 1.12259E-06-6.18286E-19 1.18969E-18
 -1      3248 9.54114E-05-2.80109E-05-2.88819E-05 1.31383E-06-5.30754E-19 5.08578E-19
 -1      3249 9.51633E-05-2.77556E-05-2.88886E-05 1.47802E-06-2.04423E-19 1.21171E-18
 -1      3250 9.53299E-05-2.81889E-05-2.87762E-05 8.01114E-07 9.80540E-19 1.01147E-18
 -1      3251 9.53708E-05-2.81425E-05-2.88089E-05 9.48649E-07 4.09425E-19 1.80488E-19
 -1      3252 9.52003E-05-2.79497E-05-2.88216E-05 1.08070E-06 1.95681E-19-1.79564E-20
 -1      3253 9.53053E-05-2.82801E-05-2.87245E-05 5.57914E-07 2.00169E-18 9.25368E-19
 -1      3254 9.53360E-05-2.82466E-05-2.87501E-05 6.65683E-07 2.03155E-18 6.07106E-19
 -1      3255 9.52194E-05-2.81005E-05-2.87653E-05 7.70903E-07 1.77177E-18-5.14240E-19
 -1      3256 9.48653E-05-2.79066E-05-2.86966E-05-1.79236E-07-1.51366E-19 3.63911E-19
 -1      3257 9.48416E-05-2.78840E-05-2.86976E-05-1.18440E-07 3.97703E-19-7.72500E-19
 -1      3258 9.48271E-05-2.78664E-05-2.86982E-05-3.80101E-08-5.51963E-19-3.31955E-18
 -1      3259 9.48262E-05-2.78648E-05-2.86986E-05 2.96604E-08 3.68337E-19-3.37994E-18
 -1      3260 9.47650E-05-2.77782E-05-2.87066E-05-9.14662E-08 3.53395E-19-9.69915E-19
 -1      3261 1.31099E-04-4.56290E-05-3.71430E-05-6.00205E-06-1.86379E-18 2.21489E-18
 -1      3262 1.30769E-04-5.26410E-05-3.33129E-05 2.58155E-06-4.42707E-19 2.20398E-18
 -1      3263 1.33185E-04-5.73268E-05-3.23663E-05-3.74087E-06-8.34824E-19 1.15342E-18
 -1      3264 4.26884E-05-1.19496E-05-1.28778E-05-7.43076E-06-1.61926E-18 1.38945E-18
 -1      3265 4.70902E-05-1.54536E-05-1.32668E-05-1.93299E-05-6.96764E-19 1.26293E-18
 -1      3266 9.54721E-05-2.51788E-05-3.01163E-05-1.40706E-06-9.83802E-19-2.41814E-18
 -1      3267 9.55164E-05-2.58132E-05-2.98832E-05-4.56371E-07-9.40284E-19-2.32177E-18
 -1      3268 9.55450E-05-2.55903E-05-2.99819E-05-2.17552E-07-8.09009E-19-2.16090E-18
 -1      3269 1.16239E-04-1.56592E-05-4.35199E-05-9.10442E-06-2.91051E-18-7.55977E-19
 -1      3270 1.21012E-04-2.24532E-05-4.24957E-05-1.28038E-05-2.91041E-18 2.42410E-19
 -1      3271 8.49397E-05-4.02529E-05-1.86518E-05-3.54382E-05 1.12555E-18 3.54324E-19
 -1      3272 9.76528E-05-4.78116E-05-2.15279E-05-3.37071E-05 1.81424E-18 1.57707E-19
 -1      3273 1.01784E-04-4.82554E-05-2.32198E-05 2.86391E-05-1.07938E-18-6.33395E-19
 -1      3274 8.61345E-05-3.90761E-05-1.96880E-05 3.13191E-05-1.70518E-18 9.80335E-19
 -1      3275 9.36928E-05-2.01739E-05-3.14852E-05-5.27587E-06-1.20079E-18-3.23003E-18
 -1      3276 9.55054E-05-2.68418E-05-2.94305E-05-8.57776E-07 1.43583E-18-4.04820E-19
 -1      3277 9.55333E-05-2.64974E-05-2.95736E-05-1.38024E-07 1.64288E-18-4.33722E-19
 -1      3278 9.55797E-05-2.66133E-05-2.95622E-05-1.03312E-06 1.26487E-18-2.64616E-19
 -1      3279 1.10304E-04-5.25014E-05-2.43509E-05-2.71188E-05 1.83234E-18-6.49575E-19
 -1      3280 1.20364E-04-5.59725E-05-2.80486E-05-1.87902E-05 1.70341E-18-1.66533E-18
 -1      3281 9.49465E-05-2.79920E-05-2.86942E-05-2.93678E-07 5.26378E-19 1.17767E-18
 -1      3282 9.49035E-05-2.79507E-05-2.86959E-05-2.46836E-07-2.99192E-19 1.40851E-18
 -1      3283 9.48244E-05-2.78407E-05-2.87056E-05-2.48285E-07 7.91226E-19 6.95156E-19
 -1      3284 9.50571E-05-2.81123E-05-2.86902E-05-3.60848E-07 9.57971E-19 1.73211E-18
 -1      3285 9.50043E-05-2.80580E-05-2.86929E-05-3.38618E-07 5.93266E-19 5.31951E-19
 -1      3286 9.49317E-05-2.79514E-05-2.87042E-05-3.68344E-07 2.24142E-19 8.20778E-19
 -1      3287 9.51892E-05-2.82748E-05-2.86767E-05 3.22660E-07 1.15177E-18-1.09514E-18
 -1      3288 9.51436E-05-2.66595E-05-2.93390E-05-6.49832E-06 2.89566E-19-4.54339E-19
 -1      3289 9.50381E-05-2.67825E-05-2.92621E-05-5.95893E-06 4.68067E-19-3.40822E-19
 -1      3290 9.44696E-05-2.63780E-05-2.91787E-05-5.70421E-06 5.20890E-19-3.01384E-19
 -1      3291 9.40164E-05-2.58818E-05-2.91948E-05-6.76586E-06 2.83838E-19-4.35010E-19
 -1      3292 9.45961E-05-2.22465E-05-3.10154E-05-4.19616E-06-1.20607E-18-2.84130E-18
 -1      3293 9.50650E-05-2.39870E-05-3.04721E-05-2.33004E-06-1.04069E-18-2.68600E-18
 -1      3294 9.50375E-05-2.37349E-05-3.05521E-05-1.93746E-06-8.75844E-19-2.54188E-18
 -1      3295 9.37052E-05-2.05404E-05-3.13505E-05-3.91084E-06-8.04460E-19-3.13533E-18
 -1      3296 1.14523E-04-5.39814E-05-2.57842E-05-2.25951E-05-1.62842E-18-1.63712E-18
 -1      3297 1.26322E-04-5.82724E-05-2.94147E-05-1.42947E-05-1.21840E-18-6.06257E-19
 -1      3298 4.81692E-05-1.49280E-05-1.40962E-05 1.51880E-05-2.14876E-18 2.26730E-18
 -1      3299 4.32447E-05-1.16202E-05-1.31447E-05 3.54171E-06-1.56751E-18 1.02639E-18
 -1      3300 9.20069E-05-1.76943E-05-3.18636E-05 1.60079E-06 1.66450E-18-2.70548E-18
 -1      3301 9.18603E-05-1.74702E-05-3.18949E-05 9.24298E-07 1.34683E-18-2.96574E-18
 -1      3302 1.25604E-04-5.65269E-05-3.00467E-05 1.33330E-05 6.54704E-19 1.10698E-18
 -1      3303 1.18777E-04-5.55175E-05-2.68632E-05 2.11147E-05 1.43935E-18 1.13198E-18
 -1      3304 7.20644E-05-3.10247E-05-1.75274E-05 3.10262E-05-1.60132E-18 2.58239E-18
 -1      3305 5.90851E-05-2.15818E-05-1.56572E-05 2.42004E-05-2.65251E-18 3.94008E-18
 -1      3306 8.30826E-05-3.36756E-05-2.07874E-05 2.71748E-05-1.65727E-18 1.16478E-18
 -1      3307 5.52022E-05-2.16444E-05-1.39319E-05-2.77145E-05 3.43895E-19 1.38246E-18
 -1      3308 6.90663E-05-3.13237E-05-1.61234E-05-3.48644E-05 6.43057E-19 9.96852E-19
 -1      3309 5.73959E-05-1.90175E-05-1.59535E-05-2.14652E-05-6.97373E-19 1.29157E-18
 -1      3310 9.52674E-05-2.40592E-05-3.05209E-05 3.73288E-06 2.35363E-18-3.06034E-19
 -1      3311 9.46570E-05-2.24673E-05-3.09238E-05 4.25973E-06 2.40713E-18-5.07502E-19
 -1      3312 9.49341E-05-2.32514E-05-3.07014E-05 3.09916E-06 2.17173E-18-6.73103E-19
 -1      3313 9.53229E-05-2.49498E-05-3.01709E-05 2.36273E-06 2.15610E-18-3.44857E-19
 -1      3314 8.30257E-05-3.87728E-05-1.90650E-05 3.48530E-05 1.91694E-18-9.67523E-19
 -1      3315 6.87714E-05-2.89816E-05-1.65474E-05 3.19315E-05 1.90953E-18-1.65770E-18
 -1      3316 5.41783E-05-2.00611E-05-1.46144E-05 2.53553E-05 1.54446E-18-2.65450E-18
 -1      3317 4.50977E-05-1.35274E-05-1.30310E-05 1.33344E-05 1.25913E-18-3.48999E-18
 -1      3318 1.24961E-04-3.01403E-05-4.11195E-05-1.28293E-05-3.00686E-18 8.97723E-19
 -1      3319 1.29159E-04-3.75090E-05-3.93250E-05-1.16017E-05-2.40748E-18 1.33254E-18
 -1      3320 1.09777E-04-5.30868E-05-2.44465E-05 2.81358E-05 1.27013E-18 1.24368E-18
 -1      3321 9.78876E-05-4.67023E-05-2.15651E-05 3.21567E-05 1.38172E-18 1.03153E-19
 -1      3322 1.13907E-04-5.23421E-05-2.62069E-05 2.12959E-05 1.54282E-18 1.10500E-18
 -1      3323 1.28527E-04-5.43734E-05-3.14844E-05-7.02215E-06 1.28623E-18-1.92965E-18
 -1      3324 1.30101E-04-4.88959E-05-3.52687E-05 2.80707E-06 7.41816E-19-2.38715E-18
 -1      3325 1.28929E-04-4.17888E-05-3.73362E-05 9.63460E-06 6.72677E-19-2.51542E-18
 -1      3326 1.25681E-04-3.54245E-05-3.90340E-05 1.19088E-05 5.05043E-20-2.35216E-18
 -1      3327 1.27775E-04-5.75891E-05-3.03268E-05 1.08763E-05 3.90879E-19-3.05566E-18
 -1      3328 1.17562E-04-5.43553E-05-2.66873E-05 1.99272E-05-8.37398E-19-2.69547E-18
 -1      3329 1.27754E-04-5.51990E-05-3.10828E-05-6.32116E-06-1.22857E-18 1.90590E-18
 -1      3330 9.41805E-05-2.15054E-05-3.11231E-05 3.08554E-06 2.19401E-18-1.43864E-18
 -1      3331 9.32800E-05-1.97757E-05-3.15253E-05 3.78013E-06 2.32935E-18-1.68997E-18
 -1      3332 9.28598E-05-1.90573E-05-3.16406E-05 3.22952E-06 2.15555E-18-2.05146E-18
 -1      3333 1.19734E-04-2.72039E-05-3.97747E-05-1.26791E-05-1.81112E-18 7.87052E-19
 -1      3334 9.28984E-05-1.91783E-05-3.16044E-05-2.96991E-06-1.86087E-19-3.19424E-18
 -1      3335 9.32850E-05-1.98632E-05-3.14927E-05-3.52144E-06-5.10111E-19-3.30909E-18
 -1      3336 9.42174E-05-2.16752E-05-3.10727E-05-2.63298E-06-6.22455E-19-2.94760E-18
 -1      3337 1.06782E-04-1.87722E-05-3.78965E-05-5.06431E-06-1.61736E-18-4.15524E-19
 -1      3338 1.06029E-04-1.73872E-05-3.81187E-05-1.06730E-06-2.21721E-18-6.05830E-19
 -1      3339 1.08916E-04-1.57750E-05-4.00425E-05 2.09694E-06-2.01657E-18-6.69884E-19
 -1      3340 1.10654E-04-1.92079E-05-3.93255E-05-8.06372E-06-1.50552E-18 8.11140E-19
 -1      3341 1.22370E-04-5.31421E-05-2.95898E-05-1.07288E-05 1.22097E-18-1.39985E-18
 -1      3342 5.24396E-05-1.40519E-05-1.61559E-05-1.01694E-05-2.81215E-19-4.59187E-18
 -1      3343 4.92832E-05-1.53771E-05-1.40402E-05-1.51310E-05-2.85530E-19-5.03116E-18
 -1      3344 5.67287E-05-1.88647E-05-1.60772E-05-1.96947E-05-1.05051E-18-4.36757E-18
 -1      3345 9.51210E-05-2.70718E-05-2.91650E-05-3.92207E-06 5.14780E-19-1.61238E-19
 -1      3346 9.53795E-05-2.74341E-05-2.91131E-05-3.73795E-06 3.97039E-19-1.31656E-19
 -1      3347 9.53294E-05-2.74404E-05-2.90949E-05-3.33019E-06 4.87836E-19-1.20085E-19
 -1      3348 1.22065E-04-5.23593E-05-2.95936E-05-1.10301E-05-1.74085E-18 1.75907E-18
 -1      3349 1.13522E-04-4.98476E-05-2.73598E-05-1.79165E-05-2.35907E-18-2.10038E-19
 -1      3350 1.07698E-04-4.94591E-05-2.48158E-05-2.50538E-05-2.15718E-18-2.17412E-18
 -1      3351 1.13262E-04-4.83510E-05-2.79922E-05 1.62631E-05-3.88894E-19-1.80636E-18
 -1      3352 1.21049E-04-5.04698E-05-2.99970E-05 9.76854E-06-2.55367E-20-3.27017E-18
 -1      3353 9.23095E-05-1.82184E-05-3.17639E-05-1.87878E-06 2.99411E-19-3.16069E-18
 -1      3354 9.25771E-05-1.86649E-05-3.16976E-05-2.51853E-06 9.29493E-21-3.29599E-18
 -1      3355 9.35736E-05-2.04566E-05-3.13163E-05-1.95822E-06-1.27244E-19-2.98047E-18
 -1      3356 1.26234E-04-5.26871E-05-3.14509E-05 5.57919E-06 2.99956E-19 1.98211E-18
 -1      3357 9.53069E-05-2.83716E-05-2.86885E-05 3.91603E-07 4.85544E-19 1.26496E-18
 -1      3358 9.48972E-05-2.79365E-05-2.86993E-05 2.43700E-07 9.29902E-19-2.14446E-19
 -1      3359 9.49402E-05-2.79766E-05-2.86983E-05 2.92405E-07 1.30987E-18 8.26915E-19
 -1      3360 4.99726E-05-1.33244E-05-1.52229E-05 6.94403E-06 1.05217E-18-3.52937E-18
 -1      3361 9.54296E-05-2.74536E-05-2.91285E-05-2.91529E-06 5.75711E-19-9.46910E-20
 -1      3362 9.54081E-05-2.73811E-05-2.91496E-05-2.47286E-06 7.93084E-19-1.53484E-19
 -1      3363 9.53423E-05-2.71747E-05-2.92175E-05-3.07864E-06 5.08879E-19-1.07253E-20
 -1      3364 9.49958E-05-2.80393E-05-2.86978E-05 3.40346E-07 1.39281E-18-7.72425E-19
 -1      3365 9.50529E-05-2.80932E-05-2.86955E-05 3.66580E-07 2.12755E-18-1.47738E-18
 -1      3366 9.49212E-05-2.79276E-05-2.87096E-05 3.65526E-07 1.83511E-18-1.70119E-19
 -1      3367 1.26902E-04-4.18382E-05-3.64787E-05-8.97482E-06-1.65555E-18 1.42016E-18
 -1      3368 9.48380E-05-2.78764E-05-2.86992E-05 1.10753E-07 1.72912E-20-2.18561E-18
 -1      3369 9.48606E-05-2.78968E-05-2.86990E-05 1.73847E-07-5.72325E-20-8.82392E-19
 -1      3370 9.48167E-05-2.78241E-05-2.87091E-05 2.40141E-07 4.99207E-19-1.31626E-18
 -1      3371 9.47620E-05-2.77722E-05-2.87079E-05 7.97593E-08 5.15904E-20-2.88468E-18
 -1      3372 5.00092E-05-1.25934E-05-1.55606E-05-2.16290E-06-1.23877E-18 1.64309E-18
 -1      3373 1.04592E-04-4.83869E-05-2.38885E-05-2.70496E-05 2.09709E-18-6.78831E-19
 -1      3374 7.91545E-05-3.42861E-05-1.88767E-05-3.18094E-05 6.82126E-19 1.28114E-20
 -1      3375 9.17893E-05-1.73584E-05-3.19122E-05 3.76284E-07 1.09382E-18-3.18316E-18
 -1      3376 9.17847E-05-1.73628E-05-3.19116E-05-3.11188E-07 9.23038E-19-3.22018E-18
 -1      3377 9.26615E-05-1.88321E-05-3.16214E-05 5.36987E-07 1.11695E-18-2.85079E-18
 -1      3378 1.31894E-04-5.62138E-05-3.22844E-05 2.71570E-06 7.81801E-19-2.59420E-18
 -1      3379 1.26037E-04-5.36170E-05-3.10652E-05 5.88272E-06-3.28225E-19-2.52369E-18
 -1      3380 9.52127E-05-2.82673E-05-2.86892E-05 3.91525E-07 7.63304E-19-2.17044E-19
 -1      3381 9.52564E-05-2.82677E-05-2.87080E-05 4.74744E-07 1.01655E-18 5.61162E-19
 -1      3382 9.51815E-05-2.81649E-05-2.87232E-05 5.49284E-07 1.30935E-18-2.55746E-19
 -1      3383 9.51233E-05-2.81783E-05-2.86939E-05 3.90840E-07 1.97167E-18-1.67821E-18
 -1      3384 9.85805E-05-4.34181E-05-2.34736E-05-2.63667E-05-2.28625E-18-2.45497E-18
 -1      3385 1.34335E-04-5.29730E-05-3.51290E-05-5.07648E-06 1.45533E-18-2.37622E-18
 -1      3386 1.26217E-04-4.52743E-05-3.46812E-05 6.06216E-06 4.47736E-19-1.34067E-18
 -1      3387 1.09607E-04-4.87407E-05-2.59279E-05 2.11479E-05-1.12878E-18-2.13035E-18
 -1      3388 9.25103E-05-1.84911E-05-3.17411E-05 2.76500E-06 2.07875E-18-2.19338E-18
 -1      3389 9.22236E-05-1.80329E-05-3.18086E-05 2.12678E-06 1.84890E-18-2.43177E-18
 -1      3390 9.29389E-05-1.92796E-05-3.15477E-05 1.51631E-06 1.64348E-18-2.36403E-18
 -1      3391 9.34654E-05-2.01724E-05-3.13892E-05 2.40167E-06 1.96787E-18-1.93628E-18
 -1      3392 9.54732E-05-2.61280E-05-2.97236E-05 5.24143E-07 1.82918E-18-5.05302E-19
 -1      3393 9.54971E-05-2.55725E-05-2.99541E-05 1.51963E-06 1.95391E-18-4.02149E-19
 -1      3394 9.53595E-05-2.48640E-05-3.02300E-05 1.88162E-06 2.13376E-18-5.45928E-19
 -1      3395 9.55347E-05-2.58753E-05-2.98593E-05 2.90061E-07 1.73499E-18-5.94781E-19
 -1      3396 6.60201E-05-2.41952E-05-1.75059E-05 2.55548E-05 1.71249E-18-1.82620E-18
 -1      3397 5.98202E-05-1.86507E-05-1.72221E-05 1.79278E-05-1.73623E-18 3.06848E-18
 -1      3398 7.15864E-05-3.14558E-05-1.67114E-05-3.15049E-05-1.87724E-18-4.37074E-18
 -1      3399 8.24043E-05-3.58600E-05-1.97168E-05-2.99172E-05-2.11859E-18-3.76321E-18
 -1      3400 6.71147E-05-2.63542E-05-1.71618E-05-2.74581E-05-1.37426E-18-4.23019E-18
 -1      3401 1.21105E-04-2.93886E-05-3.95529E-05 1.36270E-05-4.52686E-19-2.42082E-18
 -1      3402 1.14730E-04-2.06450E-05-4.06396E-05 1.13120E-05-1.70672E-18-2.40404E-18
 -1      3403 9.55006E-05-2.70474E-05-2.93413E-05-2.15281E-06 8.31580E-19-1.22707E-19
 -1      3404 1.12777E-04-1.57897E-05-4.18720E-05 7.86442E-06-2.18736E-18-2.06084E-18
 -1      3405 1.11607E-04-1.32772E-05-4.23822E-05 1.98103E-06-2.24538E-18-1.77853E-18
 -1      3406 9.27867E-05-4.15833E-05-2.16351E-05 2.98374E-05 1.86495E-18-1.45425E-19
 -1      3407 1.13015E-04-1.34437E-05-4.31175E-05-5.19500E-06-2.49975E-18-9.48200E-19
 -1      3408 9.51284E-05-2.81835E-05-2.86915E-05-4.06462E-07 3.61068E-19 4.37869E-19
 -1      3409 9.50898E-05-2.81480E-05-2.86907E-05-3.85582E-07 8.10293E-19 1.02886E-18
 -1      3410 9.50269E-05-2.80518E-05-2.87035E-05-4.35792E-07 5.95514E-19 1.86811E-18
 -1      3411 9.51115E-05-2.81299E-05-2.87054E-05-4.78073E-07-3.26111E-21 9.30060E-19
 -1      3412 1.15842E-04-5.17514E-05-2.77132E-05 1.58612E-05 1.58934E-18 9.30843E-19
 -1      3413 1.08880E-04-4.83541E-05-2.57049E-05 2.09680E-05 1.42435E-18 1.13363E-18
 -1      3414 1.38109E-04-5.02794E-05-3.77759E-05-1.13505E-05 2.58379E-18-2.79828E-18
 -1      3415 1.24650E-04-4.94571E-05-3.24227E-05-4.44717E-07-7.38507E-20 2.51920E-18
 -1      3416 1.21786E-04-5.20592E-05-2.97127E-05 8.37334E-06 8.99695E-19 1.91984E-18
 -1      3417 1.17266E-04-5.11020E-05-2.80145E-05-1.37156E-05 1.71109E-18-1.04337E-18
 -1      3418 1.22081E-04-5.06570E-05-3.08412E-05-4.22066E-06 8.16212E-19-1.88521E-18
 -1      3419 9.56097E-05-2.66912E-05-2.95329E-05 1.74071E-06-6.09001E-19-1.70141E-18
 -1      3420 9.55612E-05-2.68966E-05-2.94290E-05 2.20835E-06-4.68183E-19-1.52493E-18
 -1      3421 9.54422E-05-2.70190E-05-2.93229E-05 2.60291E-06-3.50788E-19-1.28733E-18
 -1      3422 9.53685E-05-2.71053E-05-2.92542E-05 2.99808E-06-1.20389E-19-1.00919E-18
 -1      3423 9.54072E-05-2.66664E-05-2.94601E-05 2.24210E-06-2.03464E-19-1.04970E-18
 -1      3424 9.51933E-05-2.71207E-05-2.91748E-05 3.35869E-06-9.03871E-20-8.50374E-19
 -1      3425 9.51187E-05-2.71399E-05-2.91300E-05 3.72025E-06 3.14620E-20-6.92490E-19
 -1      3426 9.51150E-05-2.68315E-05-2.92645E-05 3.00936E-06-7.36269E-20-7.21936E-19
 -1      3427 9.49177E-05-2.71014E-05-2.90664E-05 4.07983E-06 8.45990E-20-9.49365E-19
 -1      3428 9.48664E-05-2.71044E-05-2.90350E-05 4.43526E-06-5.61893E-21-7.97620E-19
 -1      3429 9.47398E-05-2.68167E-05-2.91105E-05 3.73956E-06-1.48657E-20-1.01886E-18
 -1      3430 9.46726E-05-2.70664E-05-2.89770E-05 4.81916E-06 1.70662E-20-6.17278E-19
 -1      3431 9.46762E-05-2.71085E-05-2.89498E-05 5.18380E-06 6.40588E-20-5.71871E-19
 -1      3432 9.43435E-05-2.67349E-05-2.89766E-05 4.49273E-06 9.55378E-20-1.13114E-18
 -1      3433 9.45322E-05-2.71326E-05-2.88878E-05 5.60880E-06-1.49934E-19-4.11226E-19
 -1      3434 9.46354E-05-2.72794E-05-2.88570E-05 5.98484E-06-2.03055E-19-1.41030E-19
 -1      3435 9.39995E-05-2.67083E-05-2.88425E-05 5.31489E-06 8.77993E-20-7.78720E-19
 -1      3436 9.46014E-05-2.74399E-05-2.87834E-05 6.45799E-06-2.23033E-19-2.78420E-19
 -1      3437 9.48688E-05-2.77712E-05-2.87438E-05 6.83213E-06 6.50569E-20-3.32664E-19
 -1      3438 9.38075E-05-2.68799E-05-2.86903E-05 6.23673E-06-8.24054E-20-5.79612E-19
 -1      3439 9.50323E-05-2.81592E-05-2.86548E-05 7.34643E-06-9.43997E-20-4.85619E-19
 -1      3440 9.55529E-05-2.87695E-05-2.86066E-05 7.68389E-06-1.65334E-19-7.05825E-19
 -1      3441 9.39114E-05-2.74251E-05-2.85076E-05 7.27003E-06-1.17234E-19-7.35975E-19
 -1      3442 9.60381E-05-2.94919E-05-2.85056E-05 8.20865E-06-2.61939E-19-5.20174E-19
 -1      3443 9.69250E-05-3.04834E-05-2.84586E-05 8.44201E-06-3.14168E-19-4.33557E-19
 -1      3444 9.45177E-05-2.85571E-05-2.82926E-05 8.39471E-06 2.59888E-20-6.32301E-19
 -1      3445 9.79036E-05-3.16538E-05-2.83637E-05 8.89614E-06-5.39036E-20-6.13647E-19
 -1      3446 9.92763E-05-3.31055E-05-2.83453E-05 8.90374E-06 1.01198E-19-2.83598E-19
 -1      3447 9.59180E-05-3.05272E-05-2.80646E-05 9.52981E-06-1.77933E-19-4.55225E-19
 -1      3448 1.00948E-04-3.47958E-05-2.83006E-05 9.10922E-06 9.92799E-20-9.08741E-21
 -1      3449 1.02896E-04-3.66884E-05-2.83655E-05 8.68817E-06 6.62729E-20 2.04731E-19
 -1      3450 9.84936E-05-3.35724E-05-2.78847E-05 1.04478E-05 4.11585E-19-5.93538E-19
 -1      3451 1.05439E-04-3.88716E-05-2.84550E-05 8.37534E-06 1.21352E-19 9.31106E-19
 -1      3452 1.07901E-04-4.09786E-05-2.86982E-05 7.22907E-06 5.50838E-19 8.17565E-19
 -1      3453 1.02585E-04-3.77350E-05-2.78812E-05 1.06952E-05 6.62965E-19 4.96686E-19
 -1      3454 1.18069E-04-4.64249E-05-3.06457E-05 6.44320E-07 1.30650E-19 2.21944E-18
 -1      3455 1.19660E-04-4.58485E-05-3.16978E-05-2.30188E-06 2.16498E-19 1.80496E-18
 -1      3456 1.17824E-04-4.64874E-05-3.06299E-05-1.04837E-06 9.72872E-19-1.58389E-18
 -1      3457 1.15772E-04-4.59509E-05-2.97815E-05-3.65146E-06 2.98662E-19-1.56494E-18
 -1      3458 1.11533E-04-4.38004E-05-2.90474E-05-6.09846E-06 6.03078E-19-2.39867E-19
 -1      3459 1.08880E-04-4.18374E-05-2.86168E-05-7.77072E-06 8.48234E-19-8.18214E-20
 -1      3460 1.13039E-04-4.69068E-05-2.85369E-05-9.70387E-06 1.48656E-18-8.29325E-19
 -1      3461 1.05532E-04-3.92635E-05-2.83780E-05-8.47646E-06 9.31802E-20-3.81145E-19
 -1      3462 1.03160E-04-3.71191E-05-2.82132E-05-9.26215E-06 1.16335E-20-5.95626E-19
 -1      3463 1.05079E-04-4.09538E-05-2.76296E-05-1.19449E-05 4.70666E-19 6.81041E-19
 -1      3464 1.00846E-04-3.49429E-05-2.82120E-05-9.09251E-06-5.46598E-19-5.53769E-19
 -1      3465 9.90473E-05-3.31397E-05-2.81877E-05-9.27286E-06-5.63038E-19-3.81244E-19
 -1      3466 9.94945E-05-3.56374E-05-2.74730E-05-1.18646E-05-5.99393E-19 7.66158E-19
 -1      3467 9.76232E-05-3.15463E-05-2.82865E-05-8.70945E-06-5.59536E-19-1.48056E-18
 -1      3468 9.63866E-05-3.02211E-05-2.83230E-05-8.54362E-06-3.86304E-19-1.54176E-18
 -1      3469 9.58824E-05-3.15513E-05-2.76408E-05-1.06940E-05-7.99214E-19-6.12636E-19
 -1      3470 9.56116E-05-2.91741E-05-2.84466E-05-7.85983E-06-7.87712E-20-1.72605E-18
 -1      3471 9.48321E-05-2.82984E-05-2.84978E-05-7.51774E-06-1.37441E-19-1.12621E-18
 -1      3472 9.38232E-05-2.87775E-05-2.79199E-05-9.17281E-06-3.69587E-19-3.08526E-19
 -1      3473 9.44847E-05-2.76816E-05-2.86101E-05-6.84626E-06-6.60818E-19-2.03245E-18
 -1      3474 9.40347E-05-2.71615E-05-2.86537E-05-6.42885E-06-3.83814E-19-1.47212E-18
 -1      3475 9.28174E-05-2.70804E-05-2.81976E-05-7.66906E-06-8.27850E-19-4.40735E-19
 -1      3476 9.39519E-05-2.68550E-05-2.87415E-05-5.81813E-06 1.18837E-20-1.87836E-18
 -1      3477 9.37213E-05-2.65919E-05-2.87696E-05-5.38379E-06-2.72386E-19-1.81810E-18
 -1      3478 9.24731E-05-2.61689E-05-2.84286E-05-6.31241E-06-3.71057E-19-1.29109E-18
 -1      3479 9.37905E-05-2.64948E-05-2.88307E-05-4.84825E-06-2.52621E-19-1.10960E-18
 -1      3480 9.36967E-05-2.64045E-05-2.88426E-05-4.43005E-06 2.09873E-19-5.54787E-19
 -1      3481 9.25207E-05-2.57981E-05-2.86006E-05-5.13448E-06 1.60092E-19-1.66813E-18
 -1      3482 9.38430E-05-2.64390E-05-2.88799E-05-3.97034E-06 1.35005E-18-1.27210E-19
 -1      3483 9.38286E-05-2.64568E-05-2.88782E-05-3.58659E-06 1.52520E-18 6.51172E-19
 -1      3484 9.27794E-05-2.57770E-05-2.87164E-05-4.13123E-06 9.87577E-19 1.33730E-19
 -1      3485 9.40047E-05-2.65660E-05-2.88966E-05-3.19810E-06 6.66034E-19 7.92888E-19
 -1      3486 9.40318E-05-2.66449E-05-2.88851E-05-2.85799E-06 8.58365E-19 6.83006E-19
 -1      3487 9.31325E-05-2.59650E-05-2.87850E-05-3.28719E-06 1.75328E-18-1.95154E-19
 -1      3488 9.42090E-05-2.67898E-05-2.88895E-05-2.53417E-06 7.81336E-19-6.78374E-20
 -1      3489 9.42541E-05-2.68977E-05-2.88718E-05-2.24103E-06 1.33507E-18 1.54672E-19
 -1      3490 9.35079E-05-2.62628E-05-2.88173E-05-2.58445E-06 1.90479E-19-8.71059E-19
 -1      3491 9.44165E-05-2.70524E-05-2.88668E-05-1.97468E-06 1.55211E-18-2.65008E-19
 -1      3492 9.44659E-05-2.71685E-05-2.88460E-05-1.72800E-06 1.13223E-18-4.14144E-19
 -1      3493 9.38639E-05-2.66034E-05-2.88236E-05-2.00546E-06 6.72745E-19-8.76373E-19
 -1      3494 9.46063E-05-2.73175E-05-2.88351E-05-1.51207E-06 8.33212E-19-4.04397E-19
 -1      3495 9.46523E-05-2.74291E-05-2.88136E-05-1.30891E-06 8.51520E-20-7.38782E-20
 -1      3496 9.41789E-05-2.69444E-05-2.88127E-05-1.53375E-06 7.28916E-19-1.49332E-18
 -1      3497 9.47675E-05-2.75622E-05-2.87997E-05-1.13653E-06 1.46930E-19 5.82885E-20
 -1      3498 9.48070E-05-2.76629E-05-2.87789E-05-9.71550E-07 7.74834E-19 3.75463E-19
 -1      3499 9.44442E-05-2.72601E-05-2.87914E-05-1.15532E-06 5.07674E-19 1.29862E-18
 -1      3500 9.49000E-05-2.77786E-05-2.87639E-05-8.35962E-07 6.26332E-19 4.40409E-19
 -1      3501 9.49300E-05-2.78612E-05-2.87448E-05-7.07447E-07 2.77072E-19 1.50326E-18
 -1      3502 9.46571E-05-2.75389E-05-2.87650E-05-8.54675E-07 1.04248E-18 1.67209E-18
 -1      3503 9.97439E-05-4.45054E-05-2.38620E-05 2.62759E-05 1.61495E-18 8.29311E-19
 -1      3504 8.79811E-05-3.64777E-05-2.17294E-05 2.77705E-05 2.21406E-18-6.48920E-19
 -1      3505 1.03735E-04-4.42443E-05-2.54701E-05 2.05847E-05 1.35451E-18 6.81498E-19
 -1      3506 9.09599E-05-2.39449E-05-2.87083E-05-9.20514E-06-2.28525E-19-8.66707E-19
 -1      3507 9.12564E-05-2.41098E-05-2.87984E-05-8.47321E-06-2.83306E-19-7.16599E-19
 -1      3508 9.20059E-05-2.44802E-05-2.89315E-05-7.81842E-06-1.44129E-19-7.68896E-19
 -1      3509 9.23024E-05-2.47460E-05-2.89700E-05-7.18801E-06 1.33320E-19-6.46581E-19
 -1      3510 9.01970E-05-2.34428E-05-2.85909E-05-7.60188E-06-8.96593E-20-4.21549E-19
 -1      3511 8.91482E-05-2.43853E-05-2.77145E-05-1.29764E-05-5.07031E-19-1.46959E-18
 -1      3512 8.90452E-05-2.38158E-05-2.79839E-05-1.19448E-05-3.20212E-19-1.36926E-18
 -1      3513 8.92142E-05-2.64303E-05-2.68362E-05-1.57042E-05-9.36512E-19-1.43392E-18
 -1      3514 8.84178E-05-2.49744E-05-2.72146E-05-1.44447E-05-6.12078E-19-1.37628E-18
 -1      3515 8.51866E-05-2.28336E-05-2.67052E-05-1.32073E-05-6.09745E-19-2.17746E-18
 -1      3516 9.09674E-05-3.08551E-05-2.56748E-05-1.93039E-05-2.17125E-18-1.58765E-18
 -1      3517 8.89771E-05-2.79320E-05-2.61454E-05-1.77474E-05-1.50494E-18-1.60525E-18
 -1      3518 8.40353E-05-2.47589E-05-2.54172E-05-1.67467E-05-1.07846E-18-1.97785E-18
 -1      3519 9.46756E-05-2.76753E-05-2.87148E-05-1.54792E-07 1.50808E-18-1.58402E-19
 -1      3520 9.46566E-05-2.76576E-05-2.87153E-05-6.56346E-08 7.86742E-19-1.35220E-18
 -1      3521 8.97328E-05-2.48236E-05-2.78384E-05 1.32497E-05-9.43847E-19 1.54568E-18
 -1      3522 9.04214E-05-2.60265E-05-2.75371E-05 1.43799E-05-1.09031E-18 1.37839E-18
 -1      3523 8.99916E-05-3.63463E-05-2.31616E-05 2.56749E-05-1.46632E-18-6.37339E-19
 -1      3524 7.90962E-05-2.86893E-05-2.13116E-05 2.44626E-05-1.65189E-18 1.69941E-18
 -1      3525 9.28357E-05-3.26409E-05-2.57123E-05 2.00119E-05-8.87557E-19-2.20897E-19
 -1      3526 9.66765E-05-3.70144E-05-2.53862E-05 2.11830E-05-6.54942E-19-6.85116E-19
 -1      3527 9.02110E-05-2.38951E-05-2.84449E-05 1.09155E-05-8.77048E-19 2.24107E-18
 -1      3528 9.03254E-05-2.43467E-05-2.82427E-05 1.19072E-05-5.23187E-19 1.54844E-18
 -1      3529 8.66842E-05-2.28671E-05-2.73334E-05 1.21933E-05-1.13834E-18 2.46846E-18
 -1      3530 9.10541E-05-2.38511E-05-2.88232E-05 9.01648E-06-1.57944E-18 1.23625E-18
 -1      3531 9.09243E-05-2.38942E-05-2.87093E-05 9.88736E-06-1.10862E-18 1.96196E-18
 -1      3532 8.80568E-05-2.25452E-05-2.80569E-05 9.89390E-06-5.90505E-19 2.12349E-18
 -1      3533 9.19426E-05-2.42481E-05-2.90308E-05 7.41879E-06-1.44693E-18 1.10499E-18
 -1      3534 9.17396E-05-2.40886E-05-2.89827E-05 8.18618E-06-1.94647E-18 1.45051E-18
 -1      3535 8.94717E-05-2.28809E-05-2.85203E-05 8.12078E-06-1.64174E-18 1.20823E-19
 -1      3536 9.27382E-05-2.48272E-05-2.91204E-05 6.05218E-06-6.16587E-19 1.32772E-18
 -1      3537 9.25395E-05-2.45843E-05-2.91163E-05 6.72470E-06-6.76496E-19 2.02753E-18
 -1      3538 9.07512E-05-2.35248E-05-2.87950E-05 6.67367E-06-1.02727E-18 1.60989E-19
 -1      3539 9.33932E-05-2.54438E-05-2.91341E-05 4.88140E-06 3.02725E-19 1.78014E-20
 -1      3540 9.32284E-05-2.51829E-05-2.91564E-05 5.46358E-06 3.55431E-20 3.52082E-19
 -1      3541 9.18292E-05-2.42740E-05-2.89390E-05 5.45287E-06 3.47075E-19 3.13927E-19
 -1      3542 9.39058E-05-2.60240E-05-2.91026E-05 3.88565E-06-6.00593E-20-9.95528E-19
 -1      3543 9.37809E-05-2.57779E-05-2.91389E-05 4.38174E-06 2.92817E-19-2.56416E-19
 -1      3544 9.26970E-05-2.50142E-05-2.89967E-05 4.41039E-06 5.65363E-19-5.91111E-19
 -1      3545 9.42935E-05-2.65357E-05-2.90474E-05 3.04906E-06 2.85592E-19-1.42189E-18
 -1      3546 9.42043E-05-2.63186E-05-2.90891E-05 3.46472E-06-4.50664E-20-1.33550E-18
 -1      3547 9.33745E-05-2.56889E-05-2.90006E-05 3.52174E-06 1.51498E-19-1.44513E-18
 -1      3548 9.45799E-05-2.69694E-05-2.89825E-05 2.35625E-06-5.77956E-19 2.06843E-19
 -1      3549 9.45190E-05-2.67853E-05-2.90243E-05 2.69878E-06-3.12809E-19-9.05044E-19
 -1      3550 9.38918E-05-2.62749E-05-2.89732E-05 2.77171E-06-2.93007E-19-1.45689E-18
 -1      3551 9.47872E-05-2.73273E-05-2.89166E-05 1.79115E-06-2.34169E-19-6.72396E-20
 -1      3552 9.47473E-05-2.71753E-05-2.89555E-05 2.06891E-06-3.21184E-20-2.26645E-19
 -1      3553 9.42798E-05-2.67681E-05-2.89298E-05 2.14742E-06-3.08404E-19-6.24926E-19
 -1      3554 9.49347E-05-2.76165E-05-2.88547E-05 1.33721E-06-7.68399E-20 2.23329E-19
 -1      3555 9.49098E-05-2.74937E-05-2.88892E-05 1.55901E-06-2.85215E-20 4.36688E-19
 -1      3556 9.45667E-05-2.71736E-05-2.88802E-05 1.63585E-06-4.08335E-19-1.79585E-18
 -1      3557 9.50377E-05-2.78465E-05-2.87993E-05 9.78235E-07 7.16316E-19-1.56913E-18
 -1      3558 9.50232E-05-2.77489E-05-2.88289E-05 1.15258E-06 4.84592E-19-5.50119E-19
 -1      3559 9.47757E-05-2.75011E-05-2.88303E-05 1.22316E-06 1.13476E-18-8.22325E-19
 -1      3560 9.51085E-05-2.80262E-05-2.87512E-05 6.98307E-07 1.82249E-18-1.02317E-18
 -1      3561 9.51003E-05-2.79507E-05-2.87762E-05 8.34100E-07 1.15663E-18-1.48246E-18
 -1      3562 9.49251E-05-2.77614E-05-2.87836E-05 8.96740E-07 6.02606E-19-2.35325E-18
 -1      3563 9.49021E-05-2.78981E-05-2.87149E-05-4.61395E-07 3.49680E-19 6.00346E-19
 -1      3564 9.48306E-05-2.78343E-05-2.87155E-05-4.08753E-07 5.77983E-19-1.87383E-19
 -1      3565 5.53004E-05-1.43987E-05-1.75347E-05 1.09153E-05 1.21932E-18-2.23161E-18
 -1      3566 5.31160E-05-1.26171E-05-1.70929E-05 7.70262E-08 3.98153E-19-3.10469E-18
 -1      3567 5.36640E-05-1.26559E-05-1.75716E-05 2.95537E-06-1.13460E-18 1.39829E-18
 -1      3568 5.39195E-05-1.29588E-05-1.73493E-05-7.59070E-06-1.30569E-18 2.19742E-18
 -1      3569 7.39153E-05-2.80778E-05-1.98610E-05 2.68641E-05 2.08228E-18-1.10151E-18
 -1      3570 6.27437E-05-1.94426E-05-1.82527E-05 2.00530E-05 1.93659E-18-1.94357E-18
 -1      3571 9.53925E-05-2.48360E-05-3.02381E-05-6.53964E-07-6.92116E-19-2.32595E-18
 -1      3572 9.55163E-05-2.54794E-05-3.00230E-05 1.10557E-07-6.42820E-19-2.17506E-18
 -1      3573 1.11740E-04-1.74019E-05-4.05551E-05-7.38402E-06-2.00344E-18 7.15561E-19
 -1      3574 9.55792E-05-2.64291E-05-2.96405E-05-1.21538E-06 9.62287E-19-5.24047E-19
 -1      3575 9.55978E-05-2.60805E-05-2.97853E-05-5.71440E-07 1.21247E-18-7.11206E-19
 -1      3576 7.42385E-05-2.89156E-05-1.91477E-05-2.85018E-05 1.87882E-19-5.32995E-19
 -1      3577 8.68793E-05-3.76488E-05-2.12536E-05-2.98731E-05 1.05858E-18-1.30671E-18
 -1      3578 9.47642E-05-2.77625E-05-2.87148E-05-3.31107E-07 9.04518E-19 1.36816E-18
 -1      3579 9.47146E-05-2.77176E-05-2.87150E-05-2.56119E-07 1.42621E-18-1.90717E-19
 -1      3580 9.46089E-05-2.75819E-05-2.87238E-05-2.38436E-07 1.51517E-18-1.81148E-19
 -1      3581 9.47293E-05-2.76984E-05-2.87254E-05-4.26376E-07 9.28726E-19 1.64374E-19
 -1      3582 8.96627E-05-3.79221E-05-2.20284E-05-2.80238E-05-2.13222E-18-3.43710E-18
 -1      3583 9.87775E-05-3.98732E-05-2.51213E-05-2.23717E-05-2.61733E-18-1.40350E-18
 -1      3584 9.43295E-05-3.48865E-05-2.53319E-05-2.12599E-05-2.36455E-18-1.14193E-18
 -1      3585 8.36235E-05-3.24118E-05-2.17127E-05-2.61235E-05-2.17537E-18-3.44525E-18
 -1      3586 8.99155E-05-2.37778E-05-2.83229E-05-1.08804E-05-2.25082E-19-1.10776E-18
 -1      3587 9.01151E-05-2.36964E-05-2.84906E-05-1.00199E-05-9.19626E-20-1.03082E-18
 -1      3588 8.86059E-05-2.27405E-05-2.82069E-05-8.97995E-06-7.37992E-20-1.10143E-18
 -1      3589 8.68695E-05-2.24032E-05-2.76063E-05-1.07582E-05-1.49237E-19-1.50938E-18
 -1      3590 9.43443E-05-2.63301E-05-2.91445E-05-4.73616E-06 4.76236E-19-4.21201E-19
 -1      3591 9.45123E-05-2.65167E-05-2.91474E-05-4.30201E-06 6.72848E-19-5.81839E-19
 -1      3592 9.85273E-05-4.34514E-05-2.32261E-05-2.69434E-05 1.77839E-18-1.36086E-18
 -1      3593 1.07517E-04-4.85311E-05-2.55939E-05-2.22999E-05 1.92214E-18-7.93392E-19
 -1      3594 1.19101E-04-3.30032E-05-3.69810E-05 1.22339E-05-5.71509E-19-1.57503E-18
 -1      3595 9.03029E-05-2.73604E-05-2.69689E-05 1.61669E-05-1.27540E-18 1.48950E-18
 -1      3596 9.21941E-05-2.98285E-05-2.66117E-05 1.73734E-05-9.14428E-19 1.06224E-18
 -1      3597 8.58198E-05-2.44854E-05-2.62732E-05 1.53888E-05-9.47422E-19 1.99586E-18
 -1      3598 1.01038E-04-4.17405E-05-2.50788E-05 2.29761E-05-1.22597E-18-1.17175E-18
 -1      3599 9.54661E-05-2.68361E-05-2.94142E-05-2.24471E-06 6.52056E-19-3.90356E-19
 -1      3600 9.55326E-05-2.66785E-05-2.95040E-05-1.73294E-06 8.68797E-19-4.35253E-19
 -1      3601 9.55032E-05-2.61836E-05-2.97069E-05-1.32557E-06 8.69038E-19-8.72538E-19
 -1      3602 9.56257E-05-2.60132E-05-2.98291E-05 6.85608E-07-6.72381E-19-2.05113E-18
 -1      3603 9.56371E-05-2.64002E-05-2.96772E-05 1.27585E-06-6.80382E-19-1.92097E-18
 -1      3604 9.55541E-05-2.62075E-05-2.97194E-05 1.36738E-06-5.30485E-19-1.61202E-18
 -1      3605 5.73400E-05-1.64597E-05-1.74093E-05-1.64967E-05-1.46799E-18 1.03544E-18
 -1      3606 6.46667E-05-2.23904E-05-1.80463E-05-2.46273E-05-7.57459E-19-2.34522E-20
 -1      3607 9.19246E-05-1.75896E-05-3.18690E-05-7.85846E-07 7.82165E-19-3.13925E-18
 -1      3608 9.20557E-05-1.78112E-05-3.18378E-05-1.45985E-06 5.34507E-19-3.20950E-18
 -1      3609 9.30762E-05-1.95729E-05-3.14813E-05-1.20200E-06 3.61533E-19-2.96202E-18
 -1      3610 9.27278E-05-1.89560E-05-3.15960E-05-4.01103E-07 7.08917E-19-3.00669E-18
 -1      3611 6.70609E-05-2.16209E-05-1.95417E-05 2.10269E-05-1.54270E-18 3.68814E-18
 -1      3612 5.80272E-05-1.50612E-05-1.81418E-05 1.22519E-05-8.42096E-19 2.23468E-18
 -1      3613 1.20642E-04-3.86636E-05-3.54152E-05 1.11675E-05 5.14956E-19-1.09104E-18
 -1      3614 1.23038E-04-4.52509E-05-3.34007E-05-5.92018E-06-2.00614E-19 2.05810E-18
 -1      3615 1.22149E-04-4.69123E-05-3.22110E-05 2.99337E-06 9.41444E-19-1.91748E-18
 -1      3616 1.13634E-04-2.21749E-05-3.96234E-05-1.16439E-05-1.92486E-18 1.35644E-18
 -1      3617 1.22733E-04-4.40902E-05-3.37373E-05 6.13525E-06 5.11648E-19-1.23413E-18
 -1      3618 1.14001E-04-4.49707E-05-2.96282E-05 3.84780E-06 5.57159E-19 1.77210E-18
 -1      3619 1.16687E-04-4.79559E-05-2.95978E-05 5.95400E-06 5.89298E-19 1.84934E-18
 -1      3620 1.11525E-04-4.34618E-05-2.90652E-05 5.87840E-06 8.99360E-19 1.55410E-18
 -1      3621 8.33371E-05-3.14276E-05-2.20394E-05 2.39799E-05 1.88833E-18-7.59762E-19
 -1      3622 1.22843E-04-4.11144E-05-3.50983E-05-8.76585E-06-9.06643E-19 1.87143E-18
 -1      3623 1.20111E-04-3.49447E-05-3.68636E-05-1.26197E-05-1.26884E-18 1.40778E-18
 -1      3624 1.17904E-04-2.82454E-05-3.85319E-05-1.25367E-05-1.40864E-18 1.54537E-18
 -1      3625 5.53819E-05-1.31747E-05-1.77930E-05-4.05683E-06-8.31151E-20-4.10123E-18
 -1      3626 5.92468E-05-1.48907E-05-1.89372E-05-9.05985E-06-5.13967E-19-4.12778E-18
 -1      3627 6.02672E-05-1.39751E-05-1.97943E-05-2.80593E-07 3.05541E-19-2.60729E-18
 -1      3628 9.47743E-05-2.77228E-05-2.87385E-05-6.14283E-07 9.05119E-19 1.11689E-18
 -1      3629 9.49481E-05-2.79040E-05-2.87320E-05-6.01788E-07 1.64035E-19 1.41442E-18
 -1      3630 9.39264E-05-2.60354E-05-2.91062E-05-5.14906E-06 6.06702E-19-3.10284E-19
 -1      3631 9.36317E-05-2.57526E-05-2.90840E-05-4.66115E-06 6.21967E-19-5.98785E-19
 -1      3632 9.37151E-05-2.57854E-05-2.91074E-05-5.62875E-06 5.47273E-19-5.00590E-19
 -1      3633 9.48388E-05-2.67194E-05-2.91908E-05-3.91762E-06 5.93636E-19-7.00856E-19
 -1      3634 9.49704E-05-2.68190E-05-2.92107E-05-3.49978E-06 4.40728E-19-5.73932E-19
 -1      3635 9.43637E-05-2.62646E-05-2.91811E-05-3.87867E-06 5.01198E-19-1.26794E-18
 -1      3636 9.46820E-05-2.28105E-05-3.08122E-05-2.07791E-06-6.16177E-19-2.77623E-18
 -1      3637 9.51186E-05-2.40451E-05-3.04605E-05-1.16971E-06-6.15078E-19-2.50362E-18
 -1      3638 9.50753E-05-2.39280E-05-3.04873E-05-8.15347E-07-4.86582E-19-2.46092E-18
 -1      3639 9.43369E-05-2.20833E-05-3.09620E-05-1.85701E-06-3.23012E-19-2.75046E-18
 -1      3640 1.08934E-04-4.32608E-05-2.82557E-05 9.78312E-06 1.02651E-18 1.15611E-18
 -1      3641 9.40759E-05-2.16047E-05-3.10720E-05-1.62673E-06-2.29387E-19-2.76610E-18
 -1      3642 9.45538E-05-2.26148E-05-3.08218E-05-1.13919E-06-3.31313E-19-2.68031E-18
 -1      3643 9.38205E-05-2.11109E-05-3.11635E-05-1.28382E-06 8.63220E-20-2.70643E-18
 -1      3644 9.15679E-05-2.42664E-05-2.88293E-05-6.47268E-06 4.25665E-19-5.04159E-19
 -1      3645 9.29363E-05-2.51409E-05-2.90489E-05-6.64240E-06 4.22512E-19-5.36215E-19
 -1      3646 9.31947E-05-2.54234E-05-2.90584E-05-6.09584E-06 5.80585E-19-3.20536E-19
 -1      3647 8.64611E-05-3.02444E-05-2.41947E-05-2.15852E-05-2.30565E-18-2.15314E-18
 -1      3648 6.40565E-05-1.76350E-05-1.96416E-05 1.35756E-05 1.53070E-18-1.90355E-18
 -1      3649 7.61299E-05-2.45736E-05-2.18777E-05 2.01267E-05-1.71290E-18 1.80529E-18
 -1      3650 1.17173E-04-4.94544E-05-2.89432E-05 9.27725E-06 9.00796E-19 1.34485E-18
 -1      3651 9.50742E-05-2.80264E-05-2.87337E-05 6.01250E-07 9.83084E-19-8.23976E-19
 -1      3652 9.50355E-05-2.80270E-05-2.87191E-05-5.41228E-07 3.23442E-19 1.92192E-18
 -1      3653 7.39627E-05-2.59213E-05-2.02821E-05-2.37805E-05-2.23603E-19-1.33320E-18
 -1      3654 6.08990E-05-1.56082E-05-1.91315E-05-1.11239E-05-1.03219E-18 1.46955E-18
 -1      3655 9.52121E-05-2.69063E-05-2.92726E-05-3.11273E-06 5.87935E-19-4.72211E-19
 -1      3656 9.53120E-05-2.68941E-05-2.93212E-05-2.67253E-06 6.38566E-19-3.87166E-19
 -1      3657 9.53093E-05-2.65509E-05-2.94668E-05-2.28393E-06 7.65083E-19-1.05235E-18
 -1      3658 9.49215E-05-2.65501E-05-2.92998E-05-3.10854E-06 6.46693E-19-1.17815E-18
 -1      3659 9.48155E-05-2.78045E-05-2.87218E-05 4.02475E-07 8.01248E-19 7.37650E-19
 -1      3660 9.48855E-05-2.78678E-05-2.87218E-05 4.54724E-07 1.09207E-18-4.74090E-19
 -1      3661 9.46541E-05-2.76523E-05-2.87162E-05 4.51208E-08 5.01542E-19-1.90467E-18
 -1      3662 9.46691E-05-2.76644E-05-2.87170E-05 1.34864E-07-6.55286E-20-1.07041E-18
 -1      3663 9.45626E-05-2.75333E-05-2.87244E-05-1.51671E-08 1.49518E-18-1.60103E-18
 -1      3664 9.54707E-05-2.53143E-05-3.00654E-05 3.09838E-07-5.63005E-19-2.06885E-18
 -1      3665 9.47771E-05-2.30158E-05-3.07720E-05 2.40978E-06 2.08577E-18-1.15179E-18
 -1      3666 9.44183E-05-2.22323E-05-3.09396E-05 2.19919E-06 2.00789E-18-1.49462E-18
 -1      3667 9.50620E-05-2.80751E-05-2.87080E-05 4.41984E-07 1.78801E-18-1.22710E-18
 -1      3668 9.32803E-05-2.01397E-05-3.13581E-05 6.50577E-07 1.26159E-18-2.44237E-18
 -1      3669 9.32126E-05-2.00324E-05-3.13757E-05 1.97039E-07 9.55826E-19-2.89810E-18
 -1      3670 9.31265E-05-3.84323E-05-2.31848E-05-2.51409E-05 1.28008E-18-2.04124E-18
 -1      3671 9.34034E-05-2.03461E-05-3.13196E-05 9.68067E-07 1.42281E-18-2.31497E-18
 -1      3672 9.39402E-05-2.13609E-05-3.10854E-05 5.89797E-07 1.23563E-18-2.12332E-18
 -1      3673 9.35928E-05-2.06807E-05-3.12623E-05 1.39248E-06 1.67178E-18-2.12050E-18
 -1      3674 8.60016E-05-2.85789E-05-2.46692E-05 2.02302E-05-1.56343E-18 8.57297E-19
 -1      3675 6.11201E-05-1.47873E-05-1.96222E-05 6.84380E-06-9.27948E-19 1.78417E-18
 -1      3676 9.55291E-05-2.56956E-05-2.99349E-05-2.77032E-08 1.51775E-18-7.27025E-19
 -1      3677 9.54805E-05-2.52587E-05-3.00965E-05 6.92591E-07 1.76528E-18-7.62410E-19
 -1      3678 9.55017E-05-2.55065E-05-3.00027E-05-2.35112E-07 1.22891E-18-7.94756E-19
 -1      3679 6.44980E-05-2.21134E-05-1.77388E-05-2.29060E-05-1.45819E-18-4.06788E-18
 -1      3680 7.28692E-05-2.63766E-05-1.99118E-05-2.44807E-05-1.82528E-18-3.49756E-18
 -1      3681 6.40944E-05-1.92890E-05-1.89710E-05-1.80367E-05-1.19082E-18-3.89781E-18
 -1      3682 1.10965E-04-4.73623E-05-2.71635E-05-1.54336E-05 1.74131E-18-8.09433E-19
 -1      3683 9.47027E-05-2.76965E-05-2.87188E-05 2.39726E-07 7.84381E-20-2.60343E-18
 -1      3684 9.47496E-05-2.77370E-05-2.87197E-05 3.18015E-07 8.61640E-19-1.92239E-18
 -1      3685 9.47098E-05-2.76616E-05-2.87321E-05 4.12217E-07 5.22742E-20-7.60793E-19
 -1      3686 8.96541E-05-3.44474E-05-2.38049E-05 2.25015E-05 1.56988E-18-4.38948E-19
 -1      3687 7.88844E-05-2.65569E-05-2.22638E-05 2.08868E-05 1.63378E-18-1.00950E-18
 -1      3688 9.50234E-05-2.65587E-05-2.93439E-05 2.54958E-06 1.83264E-19-9.45368E-19
 -1      3689 9.48486E-05-2.65860E-05-2.92541E-05 2.91777E-06 9.44713E-20-9.33991E-19
 -1      3690 9.45526E-05-2.65377E-05-2.91530E-05 3.25294E-06-8.51871E-20-8.05582E-19
 -1      3691 9.43512E-05-2.64940E-05-2.90779E-05 3.61780E-06-2.84264E-20-9.97753E-19
 -1      3692 9.44619E-05-2.62663E-05-2.92238E-05 2.79380E-06 8.85431E-20-9.58208E-19
 -1      3693 9.40053E-05-2.63904E-05-2.89831E-05 3.98474E-06 6.73120E-20-8.74498E-19
 -1      3694 9.38104E-05-2.63342E-05-2.89121E-05 4.37374E-06 1.52862E-19-9.72224E-19
 -1      3695 9.38200E-05-2.61032E-05-2.90191E-05 3.49023E-06 1.94008E-20-9.41501E-19
 -1      3696 9.34502E-05-2.62368E-05-2.88121E-05 4.80162E-06 2.17988E-19-1.02328E-18
 -1      3697 9.33047E-05-2.62341E-05-2.87352E-05 5.23583E-06 1.74070E-19-1.01004E-18
 -1      3698 9.31113E-05-2.58753E-05-2.88139E-05 4.27955E-06 8.36209E-20-1.05139E-18
 -1      3699 9.29752E-05-2.62129E-05-2.86190E-05 5.75251E-06-1.54221E-20-8.83502E-19
 -1      3700 9.29394E-05-2.63431E-05-2.85279E-05 6.24729E-06 1.16129E-20-7.79712E-19
 -1      3701 9.24136E-05-2.57158E-05-2.85851E-05 5.22181E-06 2.35659E-19-9.56380E-19
 -1      3702 9.27068E-05-2.64848E-05-2.83861E-05 6.88059E-06 3.41918E-21-7.78943E-19
 -1      3703 9.28687E-05-2.68481E-05-2.82757E-05 7.44248E-06-1.28114E-19-7.08213E-19
 -1      3704 9.18334E-05-2.57839E-05-2.83111E-05 6.38108E-06-1.69559E-20-6.15902E-19
 -1      3705 9.28335E-05-2.72626E-05-2.81030E-05 8.21391E-06-8.17842E-20-3.47818E-19
 -1      3706 9.33190E-05-2.79815E-05-2.79754E-05 8.83205E-06 9.83704E-20-2.58514E-19
 -1      3707 9.15316E-05-2.62820E-05-2.79749E-05 7.82237E-06 1.18216E-19-4.29627E-19
 -1      3708 9.36275E-05-2.88019E-05-2.77745E-05 9.75027E-06-1.24872E-19-2.87874E-19
 -1      3709 9.46148E-05-3.00258E-05-2.76458E-05 1.03776E-05-2.13414E-19-1.70628E-19
 -1      3710 9.17469E-05-2.74639E-05-2.75715E-05 9.59299E-06-7.30409E-20-2.86884E-19
 -1      3711 9.55085E-05-3.14376E-05-2.74377E-05 1.14154E-05 1.94354E-19 2.58866E-20
 -1      3712 9.72247E-05-3.33049E-05-2.73521E-05 1.18989E-05 6.97370E-19 1.38544E-19
 -1      3713 9.28282E-05-2.96456E-05-2.71187E-05 1.17390E-05 2.23763E-19 5.81475E-20
 -1      3714 9.90535E-05-3.54899E-05-2.71970E-05 1.28607E-05 1.16304E-18 2.54920E-19
 -1      3715 1.01766E-04-3.79982E-05-2.72566E-05 1.28575E-05 1.37768E-18 1.01723E-18
 -1      3716 9.54153E-05-3.32911E-05-2.66840E-05 1.41203E-05 9.31756E-19 4.02430E-19
 -1      3717 9.46385E-05-2.75564E-05-2.87470E-05-6.36959E-07 4.84442E-19 8.66693E-19
 -1      3718 9.46682E-05-2.76191E-05-2.87351E-05-5.23186E-07 1.03104E-18 1.92085E-19
 -1      3719 9.45849E-05-2.75448E-05-2.87336E-05-4.39186E-07 9.34257E-19 1.61935E-19
 -1      3720 1.12836E-04-4.71202E-05-2.79119E-05 1.21683E-05 1.01605E-18 9.09991E-19
 -1      3721 1.04153E-04-4.13210E-05-2.68178E-05-1.49824E-05 1.69896E-18-5.02858E-19
 -1      3722 1.00493E-04-3.81200E-05-2.66280E-05-1.50920E-05 7.07048E-19 6.12378E-19
 -1      3723 9.79332E-05-3.52859E-05-2.67771E-05-1.39754E-05-8.15531E-19 4.83394E-19
 -1      3724 9.55202E-05-3.27828E-05-2.68422E-05-1.33168E-05-5.67360E-19 3.04247E-19
 -1      3725 9.56322E-05-3.54826E-05-2.59255E-05-1.70745E-05 1.37004E-19-7.40485E-19
 -1      3726 9.42402E-05-3.08889E-05-2.70973E-05-1.19225E-05-5.17286E-19-2.10542E-19
 -1      3727 9.28112E-05-2.91991E-05-2.72498E-05-1.10771E-05-8.24071E-19-9.05746E-20
 -1      3728 9.18624E-05-3.03675E-05-2.64050E-05-1.38589E-05-7.39897E-19-2.93513E-19
 -1      3729 9.23063E-05-2.80321E-05-2.75072E-05-9.84081E-06-2.49724E-19-1.12022E-19
 -1      3730 9.15530E-05-2.69937E-05-2.76706E-05-9.00861E-06-1.42686E-19-5.63811E-19
 -1      3731 9.02683E-05-2.73654E-05-2.69844E-05-1.09611E-05-1.55907E-19-3.37538E-19
 -1      3732 9.14867E-05-2.63480E-05-2.78900E-05-7.98861E-06-9.52717E-19-1.97768E-19
 -1      3733 9.11617E-05-2.57748E-05-2.80315E-05-7.24704E-06-9.42318E-19-7.40719E-19
 -1      3734 8.97826E-05-2.56440E-05-2.74996E-05-8.59348E-06-6.36572E-19-5.18338E-19
 -1      3735 9.13382E-05-2.54873E-05-2.82035E-05-6.42432E-06-6.53570E-19-8.25018E-19
 -1      3736 9.12736E-05-2.52343E-05-2.83130E-05-5.78861E-06-1.81578E-19-8.23743E-19
 -1      3737 8.99316E-05-2.48005E-05-2.79162E-05-6.70916E-06-8.72031E-19-3.44199E-19
 -1      3738 9.15707E-05-2.51828E-05-2.84395E-05-5.13217E-06 3.89672E-19-8.41348E-19
 -1      3739 9.16538E-05-2.51390E-05-2.85169E-05-4.59593E-06 5.84309E-19-3.82081E-19
 -1      3740 9.04204E-05-2.45421E-05-2.82316E-05-5.22791E-06 8.28566E-20 3.57508E-19
 -1      3741 9.19968E-05-2.52336E-05-2.86042E-05-4.07338E-06 1.73381E-19 4.72478E-19
 -1      3742 9.21538E-05-2.53177E-05-2.86538E-05-3.62487E-06 1.09591E-18 5.27246E-19
 -1      3743 9.10625E-05-2.46526E-05-2.84571E-05-4.06529E-06 6.78102E-19 8.03000E-19
 -1      3744 9.24976E-05-2.54943E-05-2.87098E-05-3.20905E-06 1.66806E-18-4.53208E-19
 -1      3745 9.26818E-05-2.56485E-05-2.87373E-05-2.83641E-06 7.80666E-19-1.26336E-18
 -1      3746 9.17446E-05-2.49792E-05-2.86085E-05-3.15061E-06 7.03184E-19 9.11560E-19
 -1      3747 9.30008E-05-2.58623E-05-2.87694E-05-2.50581E-06-2.40526E-20-1.10166E-18
 -1      3748 9.31843E-05-2.60473E-05-2.87806E-05-2.19848E-06 2.49775E-19-8.17894E-19
 -1      3749 9.23996E-05-2.54149E-05-2.87024E-05-2.42911E-06 6.39906E-19-8.19037E-19
 -1      3750 9.34654E-05-2.62687E-05-2.87955E-05-1.93640E-06 2.85616E-19-7.72650E-19
 -1      3751 9.36329E-05-2.64586E-05-2.87953E-05-1.68515E-06 5.98696E-19-1.08569E-18
 -1      3752 9.29909E-05-2.58877E-05-2.87536E-05-1.85948E-06-8.56495E-20 3.84677E-19
 -1      3753 9.38709E-05-2.66692E-05-2.87984E-05-1.47813E-06 1.03246E-18-1.21121E-18
 -1      3754 9.40154E-05-2.68488E-05-2.87910E-05-1.27481E-06 7.68458E-19-5.74025E-19
 -1      3755 9.35013E-05-2.63507E-05-2.87745E-05-1.41049E-06 9.85147E-19 1.89654E-19
 -1      3756 9.42114E-05-2.70392E-05-2.87864E-05-1.11291E-06 1.14405E-18 6.10433E-19
 -1      3757 9.43294E-05-2.71977E-05-2.87750E-05-9.53348E-07 1.49597E-18 1.53323E-18
 -1      3758 9.39273E-05-2.67768E-05-2.87749E-05-1.05709E-06 1.97048E-18-8.54712E-19
 -1      3759 9.44452E-05-2.73129E-05-2.87684E-05-8.46999E-07 2.48099E-19 1.45113E-18
 -1      3760 9.45432E-05-2.74527E-05-2.87552E-05-7.19500E-07 3.86483E-19 7.47196E-19
 -1      3761 9.44312E-05-2.73485E-05-2.87510E-05-6.23360E-07 3.57963E-19-9.06941E-20
 -1      3762 9.42228E-05-2.70992E-05-2.87647E-05-8.03017E-07 1.47906E-18-2.12848E-19
 -1      3763 1.04728E-04-4.38020E-05-2.63049E-05 1.78368E-05 1.12677E-18 7.78357E-19
 -1      3764 9.75751E-05-3.92315E-05-2.47682E-05 2.13238E-05 1.38000E-18 4.98950E-19
 -1      3765 9.24393E-05-3.44691E-05-2.47645E-05 1.96226E-05 1.35471E-18-1.36458E-19
 -1      3766 9.50826E-05-2.80665E-05-2.87202E-05-5.63613E-07 8.58782E-21 1.73413E-18
 -1      3767 7.89928E-05-2.24592E-05-2.41280E-05-1.57546E-05-1.26022E-18-2.17454E-18
 -1      3768 7.92248E-05-2.12211E-05-2.49136E-05-1.37887E-05-6.41763E-19-1.94158E-18
 -1      3769 8.14279E-05-2.11211E-05-2.58053E-05-1.20726E-05-5.33620E-19-1.91802E-18
 -1      3770 8.22353E-05-2.08283E-05-2.63764E-05-1.07587E-05-2.94542E-19-1.60206E-18
 -1      3771 7.66965E-05-1.90263E-05-2.46188E-05-1.09953E-05-5.09816E-19-2.08893E-18
 -1      3772 8.01735E-05-2.83722E-05-2.20308E-05-2.29892E-05-2.23625E-18-3.19953E-18
 -1      3773 8.38765E-05-2.10333E-05-2.69856E-05 1.01110E-05-8.79517E-19 2.88724E-18
 -1      3774 8.32127E-05-2.12641E-05-2.65194E-05 1.13090E-05-1.03646E-18 2.76458E-18
 -1      3775 8.97209E-05-2.29916E-05-2.86185E-05 5.58552E-06-1.02915E-18 5.85759E-19
 -1      3776 8.91149E-05-2.25965E-05-2.85073E-05 6.18824E-06-1.97393E-18-3.69882E-19
 -1      3777 9.10435E-05-2.38861E-05-2.87975E-05 4.58973E-06 3.55405E-19 1.25183E-18
 -1      3778 9.05474E-05-2.34835E-05-2.87419E-05 5.10851E-06 2.72271E-19 1.87416E-18
 -1      3779 8.90987E-05-2.25864E-05-2.84833E-05 4.65801E-06-8.93813E-19 1.75996E-18
 -1      3780 9.20914E-05-2.47217E-05-2.88852E-05 3.73145E-06 5.57134E-19 9.08453E-19
 -1      3781 9.16996E-05-2.43462E-05-2.88657E-05 4.18003E-06 7.07496E-19 1.13231E-18
 -1      3782 9.05605E-05-2.35797E-05-2.86892E-05 3.86112E-06 4.81536E-19 3.17965E-18
 -1      3783 9.29075E-05-2.54637E-05-2.89145E-05 2.99248E-06 6.00748E-19-2.97169E-19
 -1      3784 9.26058E-05-2.51312E-05-2.89171E-05 3.37737E-06 5.79025E-19-2.41017E-19
 -1      3785 9.17143E-05-2.44837E-05-2.88003E-05 3.16319E-06 1.41141E-18 2.13915E-18
 -1      3786 9.35342E-05-2.61006E-05-2.89081E-05 2.36311E-06-7.54420E-19-3.93866E-19
 -1      3787 9.33063E-05-2.58161E-05-2.89232E-05 2.68877E-06-3.55836E-19-7.01154E-19
 -1      3788 9.26145E-05-2.52769E-05-2.88494E-05 2.55295E-06 3.34355E-19 1.01716E-18
 -1      3789 9.40093E-05-2.66336E-05-2.88816E-05 1.83520E-06-8.67696E-20-1.80277E-18
 -1      3790 9.38398E-05-2.63962E-05-2.89030E-05 2.10630E-06 3.31545E-20-1.10141E-18
 -1      3791 9.33091E-05-2.59541E-05-2.88593E-05 2.02633E-06-1.82036E-19-4.70923E-19
 -1      3792 9.43651E-05-2.70712E-05-2.88454E-05 1.39981E-06 3.05447E-20-1.77084E-18
 -1      3793 9.42410E-05-2.68768E-05-2.88688E-05 1.62173E-06-2.02527E-19-1.74297E-18
 -1      3794 9.38391E-05-2.65200E-05-2.88459E-05 1.57985E-06 6.02215E-20-1.89493E-18
 -1      3795 9.46283E-05-2.74241E-05-2.88057E-05 1.04673E-06 1.12586E-18-1.33459E-18
 -1      3796 9.45387E-05-2.72670E-05-2.88289E-05 1.22627E-06 7.28153E-19-9.82964E-19
 -1      3797 9.42395E-05-2.69851E-05-2.88198E-05 1.20915E-06 4.61748E-19-1.81383E-18
 -1      3798 9.48187E-05-2.77028E-05-2.87666E-05 7.66369E-07 6.86994E-19-9.49947E-19
 -1      3799 9.47570E-05-2.75801E-05-2.87881E-05 9.08338E-07 6.88073E-19-1.25744E-18
 -1      3800 9.45356E-05-2.73608E-05-2.87880E-05 9.08732E-07 8.69828E-19 2.04104E-20
 -1      3801 6.96775E-05-2.01649E-05-2.13237E-05 1.64657E-05 1.67838E-18-1.57180E-18
 -1      3802 6.44959E-05-1.57256E-05-2.07696E-05 8.03239E-06 7.76991E-19-1.38822E-18
 -1      3803 7.16049E-05-2.26301E-05-2.08951E-05-2.00517E-05-7.31446E-19-1.83682E-18
 -1      3804 7.99357E-05-2.91914E-05-2.18763E-05-2.39725E-05 2.79567E-19-1.89256E-18
 -1      3805 7.62090E-05-2.21437E-05-2.31439E-05 1.70818E-05-1.47859E-18 1.90430E-18
 -1      3806 9.51091E-05-2.39927E-05-3.04724E-05 2.17624E-06 2.15509E-18-7.66305E-19
 -1      3807 9.52832E-05-2.45177E-05-3.03190E-05 1.30909E-06 2.00694E-18-8.95451E-19
 -1      3808 9.48845E-05-2.34946E-05-3.06041E-05-7.62308E-07-2.90726E-19-2.56660E-18
 -1      3809 9.51607E-05-2.42456E-05-3.03882E-05-2.67641E-07-4.36620E-19-2.33316E-18
 -1      3810 9.46683E-05-2.30053E-05-3.07097E-05-6.25738E-07-1.24280E-19-2.47951E-18
 -1      3811 9.54750E-05-2.57614E-05-2.98785E-05 9.66258E-07-3.64141E-19-1.69225E-18
 -1      3812 9.54525E-05-2.61014E-05-2.97250E-05 1.44382E-06-2.70390E-19-1.56561E-18
 -1      3813 9.14875E-05-3.57040E-05-2.37331E-05-2.28363E-05 1.04173E-18-2.06273E-18
 -1      3814 9.99771E-05-4.13176E-05-2.53748E-05-2.06510E-05 1.62022E-18-1.56105E-18
 -1      3815 8.80877E-05-2.21114E-05-2.83023E-05 6.76153E-06-1.06213E-18 2.48076E-19
 -1      3816 8.73854E-05-2.17898E-05-2.81091E-05 7.47938E-06-8.70628E-20 7.63556E-19
 -1      3817 8.72682E-05-2.15501E-05-2.81364E-05 5.58708E-06-6.41031E-19 6.02073E-19
 -1      3818 9.49741E-05-2.79321E-05-2.87338E-05 5.73848E-07 1.11682E-18-8.30407E-19
 -1      3819 1.06465E-04-4.30976E-05-2.71185E-05 1.41977E-05 1.05517E-18 9.04932E-19
 -1      3820 9.38776E-05-2.12633E-05-3.11001E-05 6.99431E-08 7.45945E-19-2.52455E-18
 -1      3821 9.32663E-05-2.01279E-05-3.13519E-05-9.59498E-08 7.24183E-19-2.83260E-18
 -1      3822 9.33783E-05-2.03528E-05-3.13104E-05-4.81468E-07 5.05762E-19-2.71408E-18
 -1      3823 9.41173E-05-2.16464E-05-3.10753E-05 2.01420E-06 1.86273E-18-1.84650E-18
 -1      3824 9.38251E-05-2.10881E-05-3.11800E-05 1.66175E-06 1.67855E-18-1.97945E-18
 -1      3825 9.42594E-05-2.19673E-05-3.09643E-05 1.07072E-06 1.46769E-18-1.95396E-18
 -1      3826 9.47324E-05-2.29557E-05-3.07464E-05 1.42041E-06 1.69808E-18-1.46158E-18
 -1      3827 7.72232E-05-2.42430E-05-2.26237E-05-1.97198E-05-1.72457E-18-2.67782E-18
 -1      3828 8.61343E-05-2.13840E-05-2.77861E-05 8.20569E-06 7.06123E-21 1.66860E-18
 -1      3829 8.53853E-05-2.12450E-05-2.74772E-05 9.10094E-06-2.68808E-19 2.09698E-18
 -1      3830 8.22692E-05-1.97454E-05-2.67324E-05 8.28550E-06 1.20164E-19 2.58403E-18
 -1      3831 8.85553E-05-2.25504E-05-2.82875E-05-6.89301E-06-1.68621E-20-9.67898E-19
 -1      3832 8.93164E-05-2.29842E-05-2.84501E-05-6.33951E-06 2.15392E-19-8.53201E-19
 -1      3833 8.13765E-05-2.14005E-05-2.57836E-05 1.28477E-05-1.41174E-18 3.17016E-18
 -1      3834 8.12404E-05-2.24227E-05-2.51619E-05 1.46024E-05-1.12258E-18 2.56548E-18
 -1      3835 7.89644E-05-1.93118E-05-2.54531E-05 1.05307E-05-9.76602E-19 3.20581E-18
 -1      3836 1.06241E-04-4.39371E-05-2.65283E-05-1.67490E-05 1.88902E-18-5.77963E-19
 -1      3837 9.53237E-05-2.48220E-05-3.02183E-05 8.74256E-08-3.73118E-19-2.11101E-18
 -1      3838 9.54348E-05-2.53911E-05-3.00202E-05 6.58286E-07-4.01758E-19-1.99302E-18
 -1      3839 9.53327E-05-2.52812E-05-3.00187E-05 7.42753E-07-1.57313E-19-1.89112E-18
 -1      3840 9.51486E-05-2.43823E-05-3.03280E-05 7.93437E-08-1.60004E-19-2.15807E-18
 -1      3841 9.53551E-05-2.63401E-05-2.95781E-05 1.81030E-06-1.57531E-19-1.30809E-18
 -1      3842 9.52376E-05-2.64946E-05-2.94625E-05 2.21486E-06 4.55036E-20-1.16798E-18
 -1      3843 9.52837E-05-2.59208E-05-2.97234E-05 1.43050E-06-5.58597E-20-1.32217E-18
 -1      3844 9.48738E-05-2.77926E-05-2.87473E-05 6.28967E-07 3.44570E-19-7.52680E-19
 -1      3845 7.20767E-05-1.87694E-05-2.27129E-05 1.36404E-05-1.93536E-18 2.19121E-18
 -1      3846 6.20570E-05-1.45916E-05-2.04203E-05-6.49867E-06-5.27147E-19 1.51729E-18
 -1      3847 6.58194E-05-1.78740E-05-2.04844E-05-1.49014E-05-3.89996E-19 5.14096E-19
 -1      3848 6.56496E-05-1.58436E-05-2.13982E-05 8.93516E-06-1.67875E-18 1.82194E-18
 -1      3849 6.28918E-05-1.36941E-05-2.08937E-05 4.48618E-07-1.38808E-18 1.38258E-18
 -1      3850 6.69285E-05-1.53862E-05-2.20009E-05-3.42720E-06-6.70804E-19 9.79600E-19
 -1      3851 7.17447E-05-1.69455E-05-2.35573E-05 8.00579E-06-1.62607E-18 1.16986E-18
 -1      3852 9.52063E-05-2.43071E-05-3.03814E-05 9.64126E-07 1.67644E-18-1.02674E-18
 -1      3853 9.54134E-05-2.60564E-05-2.97316E-05-1.41533E-06 8.00452E-19-1.20698E-18
 -1      3854 9.54712E-05-2.57468E-05-2.98758E-05-8.90245E-07 9.66537E-19-1.14354E-18
 -1      3855 9.47166E-05-2.76309E-05-2.87524E-05 6.31593E-07 1.85558E-19-4.16993E-19
 -1      3856 9.83231E-05-3.75876E-05-2.61188E-05 1.69385E-05 1.29638E-18 2.26353E-19
 -1      3857 1.02700E-04-3.97603E-05-2.68992E-05 1.45015E-05 1.31141E-18 6.21125E-19
 -1      3858 9.27075E-05-2.50663E-05-2.89787E-05-5.51022E-06 4.88657E-19-3.59137E-19
 -1      3859 6.42872E-05-1.48938E-05-2.09997E-05 4.82657E-06 5.39886E-19-1.37250E-18
 -1      3860 6.51112E-05-1.49904E-05-2.14773E-05 7.39735E-07 3.95267E-19-2.12937E-18
 -1      3861 6.95877E-05-1.70947E-05-2.24563E-05 7.46801E-06 8.96333E-19-8.02696E-19
 -1      3862 9.29698E-05-2.52635E-05-2.90171E-05-4.35037E-06 2.93393E-19-8.74880E-19
 -1      3863 9.33900E-05-2.55748E-05-2.90721E-05-3.96749E-06 4.19646E-19-1.15937E-18
 -1      3864 7.20770E-05-2.03994E-05-2.21974E-05-1.63256E-05-1.06944E-18-2.82926E-18
 -1      3865 9.39115E-05-2.58832E-05-2.91553E-05-3.65996E-06 3.99581E-19-1.07048E-18
 -1      3866 9.42392E-05-2.60874E-05-2.92131E-05-3.28886E-06 4.81085E-19-1.17731E-18
 -1      3867 9.33148E-05-2.54002E-05-2.90970E-05-3.36405E-06 3.80847E-19-1.25386E-18
 -1      3868 9.03244E-05-2.35248E-05-2.86288E-05-5.92188E-06 2.94961E-19-8.29710E-19
 -1      3869 9.09648E-05-2.39623E-05-2.87316E-05-5.45103E-06 2.94221E-19-8.04135E-19
 -1      3870 8.88881E-05-2.26649E-05-2.83577E-05-5.25162E-06 2.99170E-19-1.40238E-18
 -1      3871 8.07019E-05-1.95168E-05-2.61620E-05-8.58322E-06-5.59091E-21-1.11519E-18
 -1      3872 8.40507E-05-2.10728E-05-2.69753E-05-9.71234E-06 6.54660E-20-1.46378E-18
 -1      3873 8.49615E-05-2.12116E-05-2.73641E-05-8.79795E-06 1.54810E-19-1.18344E-18
 -1      3874 7.75462E-05-2.35496E-05-2.30094E-05 1.61120E-05 1.46672E-18-1.08704E-18
 -1      3875 8.88764E-05-3.23435E-05-2.40842E-05-2.03122E-05 6.79373E-19-2.36555E-18
 -1      3876 9.44342E-05-2.73958E-05-2.87313E-05-8.07155E-08 1.60375E-18-1.69381E-18
 -1      3877 9.44316E-05-2.73938E-05-2.87323E-05 3.81591E-08 1.83282E-18-1.35407E-18
 -1      3878 9.45978E-05-2.75608E-05-2.87274E-05 2.11569E-07 1.65543E-19-1.67332E-18
 -1      3879 9.49712E-05-2.62440E-05-2.94512E-05 2.12806E-06 2.63682E-19-1.22179E-18
 -1      3880 8.50166E-05-2.05636E-05-2.75838E-05 6.74195E-06 3.46905E-19 2.26398E-18
 -1      3881 7.22517E-05-2.07001E-05-2.19315E-05-1.55632E-05-4.10249E-19-1.00399E-18
 -1      3882 9.52631E-05-2.45245E-05-3.03056E-05 3.87291E-07 1.33623E-18-1.09986E-18
 -1      3883 9.50300E-05-2.38237E-05-3.05255E-05 9.43374E-07 1.56297E-18-1.31419E-18
 -1      3884 9.47828E-05-2.32574E-05-3.06572E-05 8.51786E-07 1.42916E-18-1.70189E-18
 -1      3885 9.45158E-05-2.74755E-05-2.87318E-05-3.26167E-07 9.06528E-19-1.02959E-18
 -1      3886 9.44667E-05-2.74325E-05-2.87312E-05-2.18576E-07 1.45990E-18-1.72569E-18
 -1      3887 9.43266E-05-2.72701E-05-2.87384E-05-1.68853E-07 1.25729E-18-1.71971E-18
 -1      3888 9.44455E-05-2.73791E-05-2.87410E-05-4.25974E-07 9.02144E-19-1.03101E-18
 -1      3889 9.42123E-05-2.21537E-05-3.08895E-05 1.67525E-07 8.75016E-19-2.30500E-18
 -1      3890 9.42496E-05-2.22519E-05-3.08675E-05-3.45205E-08 6.02954E-19-2.41108E-18
 -1      3891 9.43745E-05-2.24707E-05-3.08264E-05 4.98297E-07 1.22233E-18-1.82184E-18
 -1      3892 9.42677E-05-2.22671E-05-3.08668E-05 2.84793E-07 1.02617E-18-2.05469E-18
 -1      3893 9.46433E-05-2.30977E-05-3.06445E-05 1.26590E-07 7.73263E-19-1.98832E-18
 -1      3894 8.73247E-05-2.20149E-05-2.80203E-05-7.41020E-06 1.13945E-19-7.14401E-19
 -1      3895 8.66790E-05-2.15265E-05-2.78910E-05-6.05633E-06 1.10330E-19-9.88184E-19
 -1      3896 8.64586E-05-2.16628E-05-2.77653E-05-8.09669E-06 1.53022E-19-9.84282E-19
 -1      3897 9.51371E-05-2.63433E-05-2.94861E-05-2.25131E-06 7.39863E-19-1.32863E-18
 -1      3898 9.52901E-05-2.62439E-05-2.95905E-05-1.81437E-06 7.57477E-19-1.28907E-18
 -1      3899 9.52422E-05-2.58211E-05-2.97468E-05-1.40071E-06 8.50366E-19-1.41865E-18
 -1      3900 9.34628E-05-2.04739E-05-3.12863E-05-7.28017E-07 4.74216E-19-2.81635E-18
 -1      3901 9.36664E-05-2.08651E-05-3.12144E-05-1.06312E-06 2.20479E-19-2.82247E-18
 -1      3902 9.41831E-05-2.18719E-05-3.09782E-05-7.63623E-07 1.62423E-19-2.70794E-18
 -1      3903 9.39901E-05-2.14947E-05-3.10523E-05-3.74131E-07 4.16961E-19-2.55042E-18
 -1      3904 9.53543E-05-2.50391E-05-3.01426E-05-1.71299E-07 1.11125E-18-1.14868E-18
 -1      3905 9.46047E-05-2.75310E-05-2.87466E-05 5.23691E-07 2.93568E-19-4.08858E-19
 -1      3906 9.45388E-05-2.74149E-05-2.87646E-05 6.66972E-07 7.79320E-19-5.05469E-19
 -1      3907 9.45247E-05-2.74619E-05-2.87433E-05 4.30120E-07 4.49699E-19-1.14811E-18
 -1      3908 9.52666E-05-2.48967E-05-3.01567E-05-3.22267E-07 1.11800E-18-1.43219E-18
 -1      3909 9.46180E-05-2.30407E-05-3.06578E-05 8.59805E-09 5.57567E-19-2.25469E-18
 -1      3910 9.42791E-05-2.22899E-05-3.08589E-05-1.27381E-07 4.99574E-19-2.34362E-18
 -1      3911 9.43393E-05-2.24081E-05-3.08352E-05-2.93609E-07 3.37696E-19-2.42412E-18
 -1      3912 9.17250E-05-3.28561E-05-2.52748E-05 1.77542E-05 1.25563E-18-1.38850E-19
 -1      3913 9.17846E-05-2.44571E-05-2.88550E-05-5.09179E-06 2.70680E-19-5.44356E-19
 -1      3914 9.23088E-05-2.48480E-05-2.89238E-05-4.67498E-06 3.98369E-19-8.20535E-19
 -1      3915 9.21491E-05-2.46671E-05-2.89081E-05-3.95298E-06 2.75668E-19-1.29366E-18
 -1      3916 9.06896E-05-2.37362E-05-2.86769E-05-4.57132E-06 2.87499E-19-1.09267E-18
 -1      3917 9.36536E-05-2.58637E-05-2.90598E-05 2.85521E-06 6.65146E-20-1.26141E-18
 -1      3918 9.33064E-05-2.57349E-05-2.89556E-05 3.21119E-06 1.22669E-19-1.06440E-18
 -1      3919 9.27933E-05-2.55436E-05-2.88301E-05 3.57186E-06-2.41659E-20-9.00124E-19
 -1      3920 9.24304E-05-2.54045E-05-2.87190E-05 3.98815E-06 1.84586E-19-9.57586E-19
 -1      3921 9.26608E-05-2.52868E-05-2.88686E-05 2.91059E-06 1.90950E-19-1.05080E-18
 -1      3922 9.18682E-05-2.52187E-05-2.85754E-05 4.44701E-06 3.41981E-19-8.95747E-19
 -1      3923 9.15342E-05-2.51374E-05-2.84456E-05 4.95466E-06 1.26645E-19-7.64602E-19
 -1      3924 9.15861E-05-2.48565E-05-2.85917E-05 3.70615E-06 1.17090E-19-6.65808E-19
 -1      3925 9.09553E-05-2.50253E-05-2.82696E-05 5.55782E-06 7.42130E-20-8.18198E-19
 -1      3926 9.07166E-05-2.50885E-05-2.81102E-05 6.19417E-06 2.00680E-19-5.42631E-19
 -1      3927 9.04395E-05-2.44839E-05-2.82615E-05 4.73674E-06 2.34376E-19-7.95317E-19
 -1      3928 9.01766E-05-2.51419E-05-2.78871E-05 6.99690E-06 2.46691E-19-7.48490E-19
 -1      3929 9.01344E-05-2.54626E-05-2.76905E-05 7.79791E-06 2.07032E-19-5.81026E-19
 -1      3930 8.93075E-05-2.43224E-05-2.78474E-05 6.11933E-06 1.22744E-19-6.20492E-19
 -1      3931 8.97231E-05-2.58055E-05-2.74078E-05 8.87184E-06 6.11702E-20-7.60004E-19
 -1      3932 9.00084E-05-2.65226E-05-2.71738E-05 9.86650E-06 2.49070E-20-7.05850E-19
 -1      3933 8.83134E-05-2.45713E-05-2.73182E-05 7.99501E-06-4.35496E-20-9.85210E-19
 -1      3934 8.99032E-05-2.73154E-05-2.68272E-05 1.12270E-05 3.55329E-19-5.90276E-19
 -1      3935 9.07422E-05-2.86243E-05-2.65721E-05 1.24129E-05 4.68422E-19-4.17297E-19
 -1      3936 8.77955E-05-2.55437E-05-2.66502E-05 1.05919E-05 2.69505E-19-1.09342E-18
 -1      3937 9.02431E-05-2.94299E-05-2.61028E-05 1.41337E-05 7.69617E-19-2.44036E-19
 -1      3938 9.20559E-05-3.15448E-05-2.58622E-05 1.55549E-05 1.21644E-18-3.74741E-19
 -1      3939 8.62911E-05-2.87618E-05-2.46267E-05 1.76081E-05 1.27499E-18-6.43376E-19
 -1      3940 8.70746E-05-2.68466E-05-2.57722E-05 1.37982E-05 9.35985E-19-1.21101E-18
 -1      3941 6.80847E-05-1.65777E-05-2.20854E-05-9.02870E-06-5.98217E-19-3.35569E-18
 -1      3942 6.67081E-05-1.75459E-05-2.08593E-05-1.33659E-05-9.21876E-19-3.62965E-18
 -1      3943 8.65904E-05-2.94597E-05-2.44334E-05-1.82127E-05-1.65011E-19-2.38426E-18
 -1      3944 8.80211E-05-2.61578E-05-2.64705E-05-1.13922E-05-8.05579E-20-1.09592E-18
 -1      3945 8.75646E-05-2.51486E-05-2.67735E-05-1.00529E-05-2.01410E-20-6.27685E-19
 -1      3946 8.80188E-05-2.46283E-05-2.71357E-05-8.67040E-06-3.51077E-19-5.13130E-19
 -1      3947 8.79625E-05-2.41184E-05-2.73839E-05-7.62043E-06-4.29403E-19-7.48124E-19
 -1      3948 8.57151E-05-2.35029E-05-2.66588E-05-8.99606E-06 1.31901E-19-5.84335E-19
 -1      3949 8.85349E-05-2.39516E-05-2.76587E-05-6.59548E-06-4.99875E-19 2.09719E-19
 -1      3950 8.87158E-05-2.37769E-05-2.78502E-05-5.78105E-06-5.12534E-19 3.20375E-19
 -1      3951 8.67872E-05-2.30097E-05-2.73244E-05-6.61000E-06 2.69362E-19-1.31551E-19
 -1      3952 8.93123E-05-2.38311E-05-2.80512E-05-5.02363E-06-2.95921E-19 8.86509E-19
 -1      3953 8.96102E-05-2.38682E-05-2.81912E-05-4.39278E-06 2.76010E-19 9.06957E-19
 -1      3954 8.79737E-05-2.30416E-05-2.78175E-05-4.87578E-06 3.26458E-19 1.16003E-18
 -1      3955 9.01830E-05-2.40560E-05-2.83328E-05-3.82990E-06 5.29754E-19 1.29648E-18
 -1      3956 9.05248E-05-2.42196E-05-2.84297E-05-3.33936E-06 7.68261E-19 1.35955E-18
 -1      3957 8.91480E-05-2.33908E-05-2.81710E-05-3.60798E-06 7.64542E-19 1.57966E-18
 -1      3958 9.10481E-05-2.44794E-05-2.85251E-05-2.91873E-06 5.47658E-19 1.74770E-18
 -1      3959 9.13898E-05-2.47097E-05-2.85879E-05-2.53533E-06 6.00667E-19 7.39892E-19
 -1      3960 9.02430E-05-2.39179E-05-2.84151E-05-2.67561E-06 7.71634E-19 1.48811E-18
 -1      3961 9.18509E-05-2.49985E-05-2.86486E-05-2.21934E-06 4.14688E-19 1.24665E-18
 -1      3962 9.21675E-05-2.52547E-05-2.86856E-05-1.91852E-06 3.35587E-19 1.05720E-18
 -1      3963 9.12234E-05-2.45257E-05-2.85759E-05-1.98520E-06 2.50998E-19 1.41907E-18
 -1      3964 9.25621E-05-2.55438E-05-2.87208E-05-1.68019E-06-3.33892E-19 6.26844E-19
 -1      3965 9.28409E-05-2.57990E-05-2.87392E-05-1.44381E-06-1.90004E-19 5.10187E-19
 -1      3966 9.20740E-05-2.51483E-05-2.86748E-05-1.47090E-06-3.97423E-19 1.11547E-18
 -1      3967 9.31704E-05-2.60702E-05-2.87565E-05-1.26383E-06-2.26110E-20 1.54563E-19
 -1      3968 9.34058E-05-2.63073E-05-2.87620E-05-1.07854E-06 5.94703E-19-1.26723E-19
 -1      3969 9.27927E-05-2.57425E-05-2.87293E-05-1.08578E-06-2.60340E-19 5.91967E-19
 -1      3970 9.36756E-05-2.65520E-05-2.87669E-05-9.42594E-07 1.32270E-18-9.43973E-19
 -1      3971 9.38642E-05-2.67614E-05-2.87642E-05-8.00570E-07 1.58118E-18-1.11656E-18
 -1      3972 9.33888E-05-2.62828E-05-2.87528E-05-7.95127E-07 2.19255E-19-9.95054E-19
 -1      3973 9.14479E-05-2.44074E-05-2.87419E-05 2.47612E-06 1.81194E-18 6.60423E-19
 -1      3974 9.09311E-05-2.39747E-05-2.87002E-05 2.76697E-06 1.47481E-18 9.92632E-19
 -1      3975 9.02279E-05-2.34768E-05-2.86206E-05 2.98592E-06 6.86847E-19 8.41298E-19
 -1      3976 8.95681E-05-2.29914E-05-2.85395E-05 3.30975E-06 3.63842E-19 1.13909E-18
 -1      3977 9.00983E-05-2.33982E-05-2.85685E-05 2.25539E-06 1.34387E-18-9.95583E-19
 -1      3978 8.86790E-05-2.24376E-05-2.84061E-05 3.54291E-06-7.07026E-19 1.41347E-18
 -1      3979 8.78461E-05-2.19126E-05-2.82661E-05 3.90460E-06-1.33844E-18 1.02067E-18
 -1      3980 8.85313E-05-2.23336E-05-2.83477E-05 2.61110E-06-1.77968E-20-4.51503E-19
 -1      3981 9.24022E-05-2.52182E-05-2.88014E-05 2.01586E-06 2.03093E-19-7.34931E-19
 -1      3982 9.20017E-05-2.48431E-05-2.87852E-05 2.27352E-06 1.60336E-18 9.51690E-19
 -1      3983 9.13366E-05-2.43446E-05-2.86977E-05 1.90475E-06 1.69730E-18-8.99979E-19
 -1      3984 9.31423E-05-2.59087E-05-2.88211E-05 1.60973E-06 4.18101E-19-1.88082E-18
 -1      3985 9.28353E-05-2.55909E-05-2.88207E-05 1.83336E-06 5.42538E-19-1.36132E-18
 -1      3986 9.23095E-05-2.51673E-05-2.87653E-05 1.57183E-06 1.33945E-18-1.04126E-18
 -1      3987 9.37101E-05-2.64851E-05-2.88162E-05 1.25971E-06-4.76925E-19-1.99290E-18
 -1      3988 9.34776E-05-2.62208E-05-2.88251E-05 1.44983E-06-6.35164E-19-2.09426E-18
 -1      3989 9.30675E-05-2.58678E-05-2.87924E-05 1.26808E-06-6.87769E-20-1.36491E-18
 -1      3990 9.41428E-05-2.69592E-05-2.87972E-05 9.65896E-07 7.29746E-19-7.54617E-19
 -1      3991 9.39679E-05-2.67418E-05-2.88110E-05 1.12298E-06 2.52410E-20-1.91260E-18
 -1      3992 9.36523E-05-2.64551E-05-2.87940E-05 9.99168E-07-5.84377E-19-1.77996E-18
 -1      3993 9.44204E-05-2.72867E-05-2.87739E-05 7.46583E-07 6.86970E-19-5.45339E-19
 -1      3994 9.42886E-05-2.71105E-05-2.87892E-05 8.73499E-07 1.21649E-18-3.55345E-19
 -1      3995 9.40426E-05-2.68782E-05-2.87822E-05 7.88058E-07 4.18942E-19-1.75006E-18
 -1      3996 9.43020E-05-2.71816E-05-2.87664E-05 6.24286E-07 1.01908E-18-1.74365E-18
 -1      3997 9.46317E-05-2.62624E-05-2.93023E-05-2.97770E-06 6.38185E-19-1.16797E-18
 -1      3998 9.48734E-05-2.63324E-05-2.93770E-05-2.59058E-06 6.63112E-19-1.18986E-18
 -1      3999 9.42159E-05-2.58794E-05-2.92803E-05-2.77125E-06 6.42643E-19-9.78254E-19
 -1      4000 9.44346E-05-2.73880E-05-2.87355E-05 1.78677E-07 1.23761E-18-6.83439E-19
 -1      4001 9.44738E-05-2.74223E-05-2.87379E-05 2.93422E-07 5.31398E-19-1.35710E-18
 -1      4002 9.43600E-05-2.72666E-05-2.87515E-05 4.07489E-07 4.50590E-19-1.15448E-18
 -1      4003 9.43061E-05-2.72333E-05-2.87423E-05 1.15940E-07 1.01906E-18-5.96060E-19
 -1      4004 9.52201E-05-2.55822E-05-2.98474E-05 1.02203E-06-3.59484E-20-1.55856E-18
 -1      4005 9.51266E-05-2.58463E-05-2.96937E-05 1.38011E-06 2.43708E-21-1.40503E-18
 -1      4006 8.67223E-05-2.13166E-05-2.80542E-05 4.15650E-06-6.18255E-19 1.30476E-18
 -1      4007 8.56787E-05-2.07772E-05-2.78276E-05 4.57715E-06 3.45341E-19 1.99037E-18
 -1      4008 8.65525E-05-2.11653E-05-2.79928E-05 2.96516E-06-7.80849E-19 1.13362E-18
 -1      4009 7.69631E-05-1.78702E-05-2.54141E-05 6.11668E-06-2.23964E-19 1.66449E-18
 -1      4010 7.49423E-05-1.76428E-05-2.46150E-05 7.27413E-06-7.40540E-19 1.36715E-18
 -1      4011 7.11698E-05-1.55229E-05-2.36521E-05 2.77110E-06-9.05171E-19 5.88587E-19
 -1      4012 7.17589E-05-1.89717E-05-2.26694E-05-1.21796E-05 3.62853E-19-5.86491E-19
 -1      4013 7.70544E-05-2.32358E-05-2.30472E-05-1.67356E-05 9.29751E-21-2.86304E-18
 -1      4014 9.43858E-05-2.60541E-05-2.92900E-05 2.23175E-06 2.97244E-19-1.57256E-18
 -1      4015 9.40892E-05-2.59982E-05-2.91808E-05 2.55843E-06 8.53915E-20-1.38088E-18
 -1      4016 9.36060E-05-2.56440E-05-2.91212E-05 2.27702E-06 2.10630E-19-1.36439E-18
 -1      4017 8.42429E-05-2.01506E-05-2.75015E-05 4.85686E-06 4.07874E-19 2.33195E-18
 -1      4018 8.29118E-05-1.96396E-05-2.71456E-05 5.41345E-06 5.69932E-19 2.57967E-18
 -1      4019 8.40596E-05-1.99248E-05-2.74436E-05 3.32558E-06 5.08052E-19 2.05766E-18
 -1      4020 9.49301E-05-2.60003E-05-2.95449E-05 1.63874E-06 1.72548E-19-1.51259E-18
 -1      4021 9.47162E-05-2.60741E-05-2.94191E-05 1.96760E-06 3.08335E-19-1.54443E-18
 -1      4022 9.43702E-05-2.58106E-05-2.93765E-05 1.73712E-06 2.12042E-19-1.72924E-18
 -1      4023 9.46587E-05-2.30129E-05-3.07154E-05 7.61531E-07 1.33553E-18-1.89028E-18
 -1      4024 9.44658E-05-2.26217E-05-3.07972E-05 5.85052E-07 1.27255E-18-1.96240E-18
 -1      4025 9.47711E-05-2.33616E-05-3.05894E-05 2.42555E-07 1.03797E-18-1.79913E-18
 -1      4026 9.49596E-05-2.37700E-05-3.05031E-05 3.28348E-07 1.24332E-18-1.79832E-18
 -1      4027 6.74587E-05-1.51945E-05-2.22222E-05-4.14515E-06 1.97655E-19-2.49926E-18
 -1      4028 7.28662E-05-1.75231E-05-2.37435E-05-8.17970E-06-4.08065E-19-2.09545E-18
 -1      4029 7.51588E-05-1.77693E-05-2.46801E-05-6.91886E-06 1.87295E-19-1.59560E-18
 -1      4030 7.02222E-05-1.60614E-05-2.32226E-05 8.10384E-08 9.11037E-19-1.28659E-18
 -1      4031 8.10697E-05-1.89804E-05-2.66610E-05 5.40293E-06 2.18306E-19 1.20556E-18
 -1      4032 7.93838E-05-1.85552E-05-2.61209E-05 6.17176E-06-1.08400E-19 1.73059E-18
 -1      4033 7.68250E-05-1.71600E-05-2.54430E-05 2.90780E-06-2.25438E-19 3.94340E-19
 -1      4034 8.08869E-05-1.85907E-05-2.66242E-05 3.36042E-06 5.47784E-20 8.24764E-19
 -1      4035 8.20147E-05-2.58775E-05-2.40600E-05-1.69885E-05-3.29383E-20-2.18501E-18
 -1      4036 8.92456E-05-2.89854E-05-2.57750E-05-1.46664E-05-8.84253E-19-1.18958E-18
 -1      4037 8.78946E-05-2.71621E-05-2.60520E-05-1.30798E-05-6.10956E-19-1.39986E-18
 -1      4038 8.08763E-05-2.36207E-05-2.45848E-05-1.39632E-05-1.89166E-19-2.19398E-18
 -1      4039 9.47585E-05-2.36862E-05-3.04683E-05 7.57283E-08 4.46866E-19-1.93876E-18
 -1      4040 9.47868E-05-2.37194E-05-3.04621E-05 5.73413E-08 1.89043E-19-2.00066E-18
 -1      4041 7.29761E-05-1.83508E-05-2.33345E-05 9.44599E-06 7.92872E-19-8.18168E-19
 -1      4042 7.20425E-05-1.74023E-05-2.34790E-05 6.14831E-06 5.94661E-19-7.23909E-19
 -1      4043 7.81609E-05-2.28609E-05-2.37582E-05 1.41774E-05 1.23853E-18-1.03322E-18
 -1      4044 8.05354E-05-2.29019E-05-2.46846E-05 1.21297E-05 1.13611E-18-9.00275E-19
 -1      4045 8.51169E-05-2.48208E-05-2.58325E-05-1.21416E-05-3.08393E-19-1.55970E-18
 -1      4046 6.94523E-05-1.57304E-05-2.31102E-05-1.55592E-06-1.03688E-18 6.56649E-20
 -1      4047 6.98550E-05-1.65068E-05-2.27491E-05-7.82285E-06 4.57431E-21 1.06093E-18
 -1      4048 7.43343E-05-1.88833E-05-2.36987E-05-9.47753E-06 3.35716E-19-8.00727E-19
 -1      4049 7.29467E-05-1.64951E-05-2.42266E-05-1.25435E-06-5.93320E-19 4.65886E-19
 -1      4050 9.42238E-05-2.71334E-05-2.87539E-05-5.60514E-07 1.70239E-18-1.51244E-18
 -1      4051 9.43272E-05-2.72527E-05-2.87470E-05-4.84546E-07 9.54398E-19-1.30820E-18
 -1      4052 9.42581E-05-2.71832E-05-2.87447E-05-3.61174E-07 1.67798E-18-1.86651E-18
 -1      4053 9.47713E-05-2.37113E-05-3.04626E-05 5.28041E-09 6.26216E-19-1.98689E-18
 -1      4054 9.49491E-05-2.42759E-05-3.02732E-05 2.50563E-08 3.42697E-19-1.79665E-18
 -1      4055 9.48234E-05-2.37995E-05-3.04400E-05 1.70514E-08 8.14267E-19-1.82521E-18
 -1      4056 9.41100E-05-2.70019E-05-2.87600E-05-6.50196E-07 2.18816E-18-1.96203E-18
 -1      4057 9.27841E-05-2.50486E-05-2.90338E-05-2.91345E-06 3.98818E-19-1.12338E-18
 -1      4058 9.33064E-05-2.53539E-05-2.91288E-05-2.64405E-06 4.98671E-19-9.89123E-19
 -1      4059 8.76579E-05-2.20506E-05-2.81287E-05-4.25376E-06 1.60870E-19-1.13416E-18
 -1      4060 8.86757E-05-2.26207E-05-2.83265E-05-3.95865E-06 3.47107E-19-1.06249E-18
 -1      4061 7.79878E-05-1.84306E-05-2.55432E-05-6.43116E-06 1.21550E-19-1.00772E-18
 -1      4062 7.98751E-05-1.89156E-05-2.61827E-05-5.70106E-06 3.49221E-19-6.70688E-19
 -1      4063 7.52234E-05-1.71780E-05-2.47814E-05-3.71436E-06 5.37150E-19-1.15981E-18
 -1      4064 8.39849E-05-2.04274E-05-2.71968E-05-7.08514E-06 3.43220E-19-6.73111E-19
 -1      4065 9.14303E-05-2.42279E-05-2.88066E-05-3.35535E-06 2.94452E-19-1.36684E-18
 -1      4066 9.20933E-05-2.46498E-05-2.89135E-05-3.09015E-06 3.86927E-19-1.15782E-18
 -1      4067 9.21761E-05-2.46113E-05-2.89433E-05-2.34798E-06 5.04438E-19-9.09753E-19
 -1      4068 8.50832E-05-2.08068E-05-2.75628E-05-4.75509E-06 9.68339E-21-8.50029E-19
 -1      4069 8.63418E-05-2.14031E-05-2.78541E-05-4.41189E-06-5.55783E-21-9.09923E-19
 -1      4070 8.64118E-05-2.13706E-05-2.78389E-05-3.05452E-06 4.40259E-20-5.72960E-19
 -1      4071 9.41336E-05-2.70562E-05-2.87454E-05 3.10402E-08 4.43934E-19-3.83094E-19
 -1      4072 9.41327E-05-2.70558E-05-2.87491E-05 1.82977E-07-3.22993E-21-5.92901E-20
 -1      4073 9.48634E-05-2.60454E-05-2.94881E-05-2.13362E-06 6.72297E-19-1.39988E-18
 -1      4074 9.38910E-05-2.67840E-05-2.87549E-05-5.34812E-07 1.55734E-18-1.89627E-18
 -1      4075 9.48985E-05-2.56805E-05-2.96588E-05 1.23028E-06 8.86349E-20-1.68473E-18
 -1      4076 9.42031E-05-2.71415E-05-2.87437E-05-2.19474E-07 1.17738E-18-1.54415E-18
 -1      4077 9.44517E-05-2.25648E-05-3.08186E-05-5.94503E-07 1.23738E-19-2.56476E-18
 -1      4078 9.47887E-05-2.33560E-05-3.06068E-05-2.61658E-07 5.23939E-20-2.30554E-18
 -1      4079 9.40258E-05-2.69494E-05-2.87497E-05-1.62261E-07 9.76737E-19-9.02391E-19
 -1      4080 9.50859E-05-2.57332E-05-2.97297E-05-1.35711E-06 7.66849E-19-1.42482E-18
 -1      4081 9.52167E-05-2.54937E-05-2.98778E-05-9.58086E-07 9.08435E-19-1.30115E-18
 -1      4082 9.52471E-05-2.52901E-05-2.99824E-05 8.02136E-07 5.94845E-20-1.61800E-18
 -1      4083 9.51062E-05-2.52159E-05-2.99469E-05 7.64799E-07-8.26343E-21-1.72191E-18
 -1      4084 9.52096E-05-2.49306E-05-3.01254E-05 4.95658E-07 1.71120E-20-1.80165E-18
 -1      4085 9.52221E-05-2.50340E-05-3.00900E-05-5.84191E-07 8.86510E-19-1.54741E-18
 -1      4086 9.50920E-05-2.42244E-05-3.03683E-05 8.49309E-08 1.06689E-18-1.77599E-18
 -1      4087 9.51042E-05-2.49344E-05-3.00684E-05-5.69364E-07 8.10237E-19-1.50289E-18
 -1      4088 9.01211E-05-2.35197E-05-2.85525E-05 1.47965E-06 1.66996E-18-1.69955E-18
 -1      4089 8.94134E-05-2.30216E-05-2.84654E-05 1.60947E-06 1.23937E-18-1.63813E-18
 -1      4090 8.97433E-05-2.32114E-05-2.85213E-05-3.79616E-06 3.59230E-19-1.14978E-18
 -1      4091 9.05661E-05-2.37201E-05-2.86608E-05-3.52394E-06 2.54598E-19-1.10065E-18
 -1      4092 9.06430E-05-2.37091E-05-2.86689E-05-2.62523E-06 1.67966E-19-8.94629E-19
 -1      4093 8.87407E-05-2.26110E-05-2.83186E-05-2.85889E-06 2.10334E-19-8.22758E-19
 -1      4094 9.25754E-05-2.51256E-05-2.89187E-05 2.12455E-06 3.92637E-19-1.24317E-18
 -1      4095 9.20669E-05-2.48887E-05-2.87865E-05 2.45800E-06 3.05590E-19-1.02882E-18
 -1      4096 9.13745E-05-2.45977E-05-2.86313E-05 2.77734E-06 2.22578E-19-8.12855E-19
 -1      4097 9.08050E-05-2.43441E-05-2.84788E-05 3.19272E-06 1.94722E-19-9.41352E-19
 -1      4098 9.13840E-05-2.44154E-05-2.86835E-05 1.96157E-06 5.00738E-19-1.36926E-18
 -1      4099 8.99898E-05-2.40253E-05-2.82903E-05 3.65815E-06 1.78737E-19-7.99736E-19
 -1      4100 8.94174E-05-2.38182E-05-2.81024E-05 4.22065E-06 1.68060E-19-8.83631E-19
 -1      4101 8.98530E-05-2.36983E-05-2.83311E-05 2.70721E-06 2.82774E-19-1.08260E-18
 -1      4102 8.85001E-05-2.35572E-05-2.78596E-05 4.86560E-06-4.67557E-20-9.38279E-19
 -1      4103 8.79662E-05-2.34816E-05-2.76187E-05 5.63534E-06-8.60772E-20-1.09586E-18
 -1      4104 8.81657E-05-2.30331E-05-2.78915E-05 3.73358E-06 1.36377E-20-1.40146E-18
 -1      4105 8.69643E-05-2.33409E-05-2.72975E-05 6.51621E-06-1.36374E-19-1.12294E-18
 -1      4106 8.65086E-05-2.34959E-05-2.69866E-05 7.59301E-06-9.18603E-20-1.07335E-18
 -1      4107 8.63153E-05-2.25385E-05-2.73188E-05 5.18876E-06-1.26487E-19-1.45365E-18
 -1      4108 8.53810E-05-2.35384E-05-2.65568E-05 8.79889E-06-9.39843E-21-1.11692E-18
 -1      4109 8.50855E-05-2.41219E-05-2.61582E-05 1.04782E-05 2.65068E-19-1.12734E-18
 -1      4110 8.42598E-05-2.22888E-05-2.65552E-05 7.21569E-06-5.04729E-20-1.47250E-18
 -1      4111 8.34995E-05-2.22032E-05-2.62386E-05-8.52607E-06 3.74259E-19-1.30387E-18
 -1      4112 8.39740E-05-2.19287E-05-2.66372E-05-7.19477E-06 5.91622E-19-5.40168E-19
 -1      4113 8.21034E-05-2.30857E-05-2.52502E-05-1.18096E-05-2.17284E-19-1.45825E-18
 -1      4114 8.22274E-05-2.23636E-05-2.57192E-05-1.00412E-05 4.43969E-19-9.74455E-19
 -1      4115 7.80715E-05-2.09038E-05-2.44433E-05-1.14996E-05 7.40042E-19-9.89679E-19
 -1      4116 9.37816E-05-2.66883E-05-2.87541E-05-2.63743E-07 9.10266E-19-6.22327E-19
 -1      4117 9.48961E-05-2.54763E-05-2.97564E-05 7.94686E-07 3.46655E-20-1.55021E-18
 -1      4118 9.47004E-05-2.56308E-05-2.96030E-05 1.02971E-06 1.54808E-19-1.50310E-18
 -1      4119 8.51637E-05-2.20140E-05-2.70434E-05-6.08199E-06 7.42695E-19-7.54472E-19
 -1      4120 8.57344E-05-2.20261E-05-2.73392E-05-5.13043E-06 5.50601E-19 3.84703E-20
 -1      4121 8.31453E-05-2.08268E-05-2.66646E-05-5.59067E-06 5.09157E-19-1.96552E-18
 -1      4122 8.67575E-05-2.22651E-05-2.76284E-05-4.34847E-06 1.63690E-19-2.91698E-19
 -1      4123 8.73526E-05-2.24486E-05-2.78425E-05-3.66563E-06 7.32172E-19 9.16113E-20
 -1      4124 8.52958E-05-2.13366E-05-2.73739E-05-3.83943E-06 4.87144E-19-1.98774E-18
 -1      4125 8.82249E-05-2.27731E-05-2.80448E-05-3.11924E-06 3.27432E-19-2.65378E-19
 -1      4126 8.87958E-05-2.30544E-05-2.81948E-05-2.62447E-06 5.92161E-19-7.62275E-19
 -1      4127 8.71568E-05-2.20380E-05-2.78746E-05-2.62599E-06 2.40994E-19-2.24598E-18
 -1      4128 8.95360E-05-2.34202E-05-2.83324E-05-2.24152E-06 8.39102E-19-5.57593E-19
 -1      4129 9.00570E-05-2.37478E-05-2.84334E-05-1.88015E-06 6.36894E-19-5.43984E-19
 -1      4130 8.87387E-05-2.28288E-05-2.82198E-05-1.78472E-06 5.88884E-19-2.70008E-18
 -1      4131 9.06796E-05-2.41225E-05-2.85234E-05-1.61237E-06 9.50126E-19-7.98959E-19
 -1      4132 9.11386E-05-2.44609E-05-2.85878E-05-1.34656E-06 4.56976E-19 2.12652E-19
 -1      4133 9.00778E-05-2.36417E-05-2.84506E-05-1.20609E-06 6.69871E-19-1.46423E-18
 -1      4134 9.16557E-05-2.48214E-05-2.86433E-05-1.16003E-06-2.77292E-19 4.33642E-19
 -1      4135 9.20484E-05-2.51469E-05-2.86810E-05-9.63206E-07-5.57968E-19 6.17428E-19
 -1      4136 9.11989E-05-2.44288E-05-2.85980E-05-8.10844E-07 3.17970E-19-2.22736E-18
 -1      4137 9.24714E-05-2.54778E-05-2.87121E-05-8.33735E-07-1.12802E-18 7.88236E-19
 -1      4138 9.27994E-05-2.57763E-05-2.87310E-05-6.86642E-07-3.70694E-19-2.04001E-19
 -1      4139 9.21242E-05-2.51578E-05-2.86856E-05-5.42808E-07-7.88871E-19-3.81492E-19
 -1      4140 9.31379E-05-2.60688E-05-2.87451E-05-5.96814E-07 2.63060E-19-5.18044E-19
 -1      4141 9.33996E-05-2.63299E-05-2.87512E-05-4.78107E-07 4.74347E-19-7.77803E-19
 -1      4142 9.28725E-05-2.58079E-05-2.87314E-05-3.63019E-07-4.49125E-19-3.65686E-20
 -1      4143 9.23013E-05-2.52431E-05-2.87454E-05 1.08713E-06 3.93883E-19-6.55736E-19
 -1      4144 9.18657E-05-2.48625E-05-2.87215E-05 1.22026E-06 1.45943E-18-1.33507E-18
 -1      4145 9.13387E-05-2.44406E-05-2.86781E-05 1.28991E-06 1.94505E-18-1.32721E-18
 -1      4146 9.07817E-05-2.40005E-05-2.86289E-05 1.42601E-06 2.06413E-18-1.42923E-18
 -1      4147 9.14263E-05-2.45104E-05-2.86614E-05 7.69312E-07 1.57228E-18-2.03046E-18
 -1      4148 8.85891E-05-2.24857E-05-2.83413E-05 1.63220E-06 6.47462E-19-1.47522E-18
 -1      4149 8.76929E-05-2.19346E-05-2.81986E-05 1.74574E-06 1.34704E-19-5.99104E-19
 -1      4150 8.87832E-05-2.26078E-05-2.83336E-05 7.96331E-07 1.19349E-18-3.89112E-18
 -1      4151 9.30554E-05-2.59286E-05-2.87741E-05 8.88992E-07-2.88313E-19-2.36917E-19
 -1      4152 9.27184E-05-2.56056E-05-2.87667E-05 1.01262E-06 1.61254E-19-2.75260E-19
 -1      4153 9.23609E-05-2.52964E-05-2.87289E-05 6.80810E-07 5.48269E-19-5.00224E-19
 -1      4154 9.36392E-05-2.64971E-05-2.87781E-05 7.06861E-07-2.34497E-19-8.22634E-19
 -1      4155 9.33809E-05-2.62280E-05-2.87810E-05 8.19032E-07-7.53122E-19-2.97991E-19
 -1      4156 9.30985E-05-2.59733E-05-2.87593E-05 5.80049E-07-1.13388E-19-4.13461E-19
 -1      4157 9.38400E-05-2.56156E-05-2.92430E-05-2.45087E-06 5.31607E-19-1.00065E-18
 -1      4158 9.42328E-05-2.57758E-05-2.93427E-05-2.16308E-06 6.54227E-19-1.02617E-18
 -1      4159 9.33841E-05-2.52625E-05-2.91855E-05-2.02566E-06 5.26591E-19-8.55154E-19
 -1      4160 9.46112E-05-2.58681E-05-2.94660E-05-1.94221E-06 6.70491E-19-1.37649E-18
 -1      4161 9.48775E-05-2.58519E-05-2.95841E-05-1.61586E-06 7.24147E-19-1.40443E-18
 -1      4162 9.48687E-05-2.55403E-05-2.97054E-05-1.18662E-06 8.08353E-19-1.28583E-18
 -1      4163 8.66633E-05-2.13501E-05-2.80060E-05 1.71929E-06-3.62900E-19-4.74039E-19
 -1      4164 8.55281E-05-2.07550E-05-2.77827E-05 1.81051E-06-1.69310E-19 1.32157E-19
 -1      4165 8.69538E-05-2.15089E-05-2.80129E-05 6.59328E-07 4.11553E-19-2.07080E-18
 -1      4166 9.43930E-05-2.56783E-05-2.94547E-05 1.18191E-06 2.48454E-19-1.48840E-18
 -1      4167 9.40622E-05-2.56507E-05-2.93207E-05 1.42311E-06 2.09177E-19-1.56657E-18
 -1      4168 9.44440E-05-2.54788E-05-2.95453E-05 7.34559E-07 1.88800E-19-1.51304E-18
 -1      4169 9.35998E-05-2.65004E-05-2.87508E-05-7.10930E-08 7.12343E-19-2.45304E-19
 -1      4170 7.23197E-05-1.66840E-05-2.37473E-05 3.06988E-06 7.97458E-19-1.01890E-18
 -1      4171 7.35590E-05-1.69021E-05-2.43400E-05-1.11181E-06 5.62461E-19-1.43488E-18
 -1      4172 7.63872E-05-1.76521E-05-2.52105E-05-1.05186E-06 3.23979E-19-1.28126E-18
 -1      4173 7.53585E-05-1.80172E-05-2.45670E-05 4.45075E-06 6.38458E-19-1.07133E-18
 -1      4174 9.43270E-05-2.23160E-05-3.08666E-05-4.14683E-07 3.17869E-19-2.58109E-18
 -1      4175 9.35962E-05-2.55206E-05-2.91839E-05 1.60884E-06 2.78673E-19-1.41576E-18
 -1      4176 9.31674E-05-2.53616E-05-2.90574E-05 1.88518E-06 3.85087E-19-1.18821E-18
 -1      4177 9.26282E-05-2.49846E-05-2.89794E-05 1.43395E-06 3.82292E-19-1.26685E-18
 -1      4178 8.42254E-05-2.01242E-05-2.74918E-05 1.72047E-06 8.50460E-20-2.73032E-20
 -1      4179 8.27606E-05-1.95025E-05-2.71489E-05 1.80058E-06 3.91263E-19-2.27764E-21
 -1      4180 8.46579E-05-2.03267E-05-2.75262E-05 3.52964E-07-2.47275E-19-1.97063E-18
 -1      4181 9.49589E-05-2.39622E-05-3.04252E-05 5.49889E-08 9.04060E-19-1.92887E-18
 -1      4182 8.19529E-05-1.95775E-05-2.67464E-05-5.43955E-06 2.37919E-19-8.95746E-19
 -1      4183 8.34660E-05-2.01427E-05-2.71776E-05-4.97095E-06 1.61345E-19-8.99751E-19
 -1      4184 8.34717E-05-1.99771E-05-2.71629E-05-3.19866E-06 9.98949E-20-8.99354E-19
 -1      4185 7.99589E-05-1.86531E-05-2.62113E-05-3.35005E-06 3.11304E-19-8.65754E-19
 -1      4186 9.48760E-05-2.37572E-05-3.04770E-05 1.50347E-08 1.00832E-19-2.05076E-18
 -1      4187 9.50541E-05-2.41985E-05-3.03736E-05 4.56526E-08-4.64710E-20-1.99528E-18
 -1      4188 9.41715E-05-2.70823E-05-2.87533E-05 3.36304E-07 5.16162E-19-9.31520E-19
 -1      4189 9.42215E-05-2.71208E-05-2.87595E-05 4.82710E-07 6.69542E-19-1.29096E-18
 -1      4190 9.41022E-05-2.69749E-05-2.87676E-05 5.56031E-07 8.67168E-19-1.72309E-18
 -1      4191 9.39918E-05-2.68919E-05-2.87557E-05 2.53148E-07 4.57463E-19-1.08989E-18
 -1      4192 9.52004E-05-2.46978E-05-3.02086E-05 3.95179E-07-4.02373E-20-1.92987E-18
 -1      4193 9.48794E-05-2.38394E-05-3.04556E-05 1.68825E-08 8.29661E-19-1.81270E-18
 -1      4194 9.50079E-05-2.43303E-05-3.02821E-05-1.44526E-07 6.62129E-19-1.74659E-18
 -1      4195 8.19089E-05-1.91612E-05-2.68343E-05-4.37204E-07 1.24252E-19-1.32367E-18
 -1      4196 8.13055E-05-1.89280E-05-2.67490E-05 1.33424E-06 1.34396E-19-8.45763E-20
 -1      4197 7.94391E-05-1.83023E-05-2.62636E-05 1.02245E-06 1.66670E-19-5.42590E-19
 -1      4198 8.07401E-05-2.06237E-05-2.57109E-05-8.05942E-06 4.71945E-19-1.69625E-18
 -1      4199 8.13942E-05-2.25921E-05-2.52484E-05 1.05245E-05 8.52985E-19-1.00601E-18
 -1      4200 7.96833E-05-2.06503E-05-2.52545E-05 8.24454E-06 6.94455E-19-9.43578E-19
 -1      4201 9.46081E-05-2.30077E-05-3.06789E-05-1.52622E-07 2.78832E-19-2.35625E-18
 -1      4202 8.20475E-05-2.11389E-05-2.60681E-05 6.60323E-06 3.00488E-19-7.72577E-19
 -1      4203 7.82772E-05-1.93948E-05-2.52226E-05 6.25705E-06 5.66821E-19-6.85892E-19
 -1      4204 7.79784E-05-1.87285E-05-2.54336E-05 3.38393E-06 4.40558E-19-8.65742E-19
 -1      4205 8.29900E-05-2.11661E-05-2.65108E-05 5.47065E-06-2.14753E-20-1.06301E-18
 -1      4206 9.50083E-05-2.52814E-05-2.98842E-05 6.74863E-07 1.48343E-19-1.77710E-18
 -1      4207 9.48310E-05-2.52271E-05-2.98246E-05 4.78199E-07 2.43325E-19-1.48345E-18
 -1      4208 9.50411E-05-2.49836E-05-3.00195E-05 4.87015E-07 2.76899E-22-1.90913E-18
 -1      4209 9.36624E-05-2.53671E-05-2.92582E-05 1.04474E-06 3.26241E-19-1.23453E-18
 -1      4210 9.02511E-05-2.36122E-05-2.85381E-05 8.18647E-07 1.44366E-18-3.49021E-18
 -1      4211 8.53590E-05-2.10180E-05-2.76105E-05-1.66000E-06 1.14939E-20-8.65057E-19
 -1      4212 8.67300E-05-2.16606E-05-2.79012E-05-1.63711E-06-1.44958E-19-9.21389E-19
 -1      4213 9.42857E-05-2.55952E-05-2.94302E-05-1.64316E-06 4.40715E-19-1.04594E-18
 -1      4214 9.48842E-05-2.38411E-05-3.04512E-05 1.02324E-07 1.13484E-19-2.20309E-18
 -1      4215 7.76569E-05-1.77241E-05-2.57073E-05 3.41230E-07 8.79781E-20-2.66063E-19
 -1      4216 7.52114E-05-1.70611E-05-2.50096E-05-1.73561E-07-2.57536E-19 2.03586E-19
 -1      4217 7.47748E-05-1.71812E-05-2.45789E-05-4.14619E-06-3.77997E-19-9.73101E-19
 -1      4218 7.87122E-05-1.81173E-05-2.58925E-05-1.91244E-06 2.53485E-19-6.90518E-19
 -1      4219 9.29941E-05-2.50574E-05-2.91226E-05-1.51606E-06 5.66384E-19-1.05761E-18
 -1      4220 9.35326E-05-2.53046E-05-2.92443E-05-1.35563E-06 4.76675E-19-1.12909E-18
 -1      4221 9.39604E-05-2.68343E-05-2.87706E-05 5.90771E-07 1.17146E-18-2.44987E-18
 -1      4222 9.38127E-05-2.66708E-05-2.87770E-05 6.69777E-07 6.02256E-19-1.12333E-18
 -1      4223 9.35757E-05-2.64455E-05-2.87662E-05 5.03291E-07 3.57901E-19-1.29942E-18
 -1      4224 9.38957E-05-2.67748E-05-2.87633E-05 4.41024E-07 1.41043E-18-1.67426E-18
 -1      4225 9.50129E-05-2.43482E-05-3.02731E-05 2.41437E-07-4.60119E-24-2.07634E-18
 -1      4226 9.23621E-05-2.47382E-05-2.89877E-05-1.56105E-06 4.80939E-19-1.06906E-18
 -1      4227 9.25852E-05-2.47835E-05-2.90452E-05-8.71971E-07 4.82964E-19-1.20637E-18
 -1      4228 9.16724E-05-2.43541E-05-2.88590E-05-1.67860E-06 3.40764E-19-9.40275E-19
 -1      4229 7.56808E-05-1.87704E-05-2.44671E-05-7.71197E-06 7.61220E-19-3.70355E-19
 -1      4230 8.72371E-05-2.19322E-05-2.79581E-05-3.89474E-07-2.02914E-19-1.76627E-18
 -1      4231 8.79358E-05-2.22790E-05-2.81567E-05-1.75332E-06 2.90010E-21-9.75362E-19
 -1      4232 8.90105E-05-2.28587E-05-2.83621E-05-1.70252E-06 6.59139E-21-1.07064E-18
 -1      4233 9.50132E-05-2.49040E-05-3.00581E-05-4.85629E-07 5.78547E-19-1.65251E-18
 -1      4234 9.49540E-05-2.52750E-05-2.98571E-05-6.17388E-07 6.48468E-19-1.36502E-18
 -1      4235 9.49254E-05-2.48021E-05-3.00537E-05-2.26523E-07 5.01701E-19-1.76472E-18
 -1      4236 9.47481E-05-2.54536E-05-2.97040E-05-8.59997E-07 5.56472E-19-1.32701E-18
 -1      4237 9.38377E-05-2.67453E-05-2.87584E-05 2.82991E-07 7.03492E-19-1.52157E-18
 -1      4238 9.34469E-05-2.63471E-05-2.87551E-05 1.23775E-07 1.07769E-18-9.39445E-19
 -1      4239 9.00051E-05-2.34082E-05-2.85526E-05-1.76315E-06 6.23157E-20-9.10654E-19
 -1      4240 9.08671E-05-2.38999E-05-2.87078E-05-1.67539E-06 3.30821E-19-8.54624E-19
 -1      4241 8.94132E-05-2.31003E-05-2.84130E-05-7.05244E-07 1.76125E-19-1.41119E-18
 -1      4242 9.14172E-05-2.43601E-05-2.87543E-05 1.00696E-06 3.92495E-19-1.22885E-18
 -1      4243 9.07057E-05-2.40032E-05-2.85944E-05 1.31134E-06 5.46081E-19-1.23625E-18
 -1      4244 8.94259E-05-2.32983E-05-2.83556E-05 9.26281E-07 4.69484E-19-1.53627E-18
 -1      4245 8.85604E-05-2.28790E-05-2.81545E-05 1.29850E-06 7.26294E-20-1.48927E-18
 -1      4246 8.73787E-05-2.23423E-05-2.78996E-05 1.60330E-06-7.66184E-20-1.55458E-18
 -1      4247 8.64565E-05-2.19402E-05-2.76429E-05 2.11319E-06 1.16683E-20-1.68431E-18
 -1      4248 8.51740E-05-2.15565E-05-2.72962E-05 3.17170E-06 2.21382E-19-1.69113E-18
 -1      4249 8.42045E-05-2.12802E-05-2.69554E-05 3.94419E-06 1.95127E-19-1.42633E-18
 -1      4250 8.19621E-05-2.01302E-05-2.65012E-05 3.30599E-06 3.13763E-19-1.09928E-18
 -1      4251 8.46727E-05-2.08244E-05-2.73324E-05 7.79343E-07 2.32585E-19-1.50247E-18
 -1      4252 8.08785E-05-1.95155E-05-2.63001E-05-3.85717E-06 3.65252E-19-1.62977E-18
 -1      4253 8.20870E-05-1.98404E-05-2.67328E-05-2.94338E-06 3.52356E-19-1.59290E-18
 -1      4254 9.37039E-05-2.52999E-05-2.93180E-05-7.96043E-07 4.33954E-19-1.33691E-18
 -1      4255 9.40095E-05-2.54752E-05-2.93789E-05-1.29243E-06 3.79977E-19-1.05627E-18
 -1      4256 9.43881E-05-2.55438E-05-2.95082E-05-1.08859E-06 3.90095E-19-1.18056E-18
 -1      4257 9.51282E-05-2.47467E-05-3.01680E-05 4.51314E-07-3.84454E-20-1.86269E-18
 -1      4258 8.35244E-05-2.02708E-05-2.71159E-05-2.21967E-06 5.67353E-20-2.19245E-18
 -1      4259 8.45785E-05-2.06791E-05-2.74242E-05-1.60572E-06 1.00307E-19-2.40729E-18
 -1      4260 8.58605E-05-2.12244E-05-2.77140E-05-1.29012E-06-2.35457E-19-2.51426E-18
 -1      4261 8.67632E-05-2.16718E-05-2.79277E-05-8.65458E-07 1.02486E-19-3.02929E-18
 -1      4262 8.77874E-05-2.21963E-05-2.81221E-05-6.83222E-07 1.01736E-18-3.53962E-18
 -1      4263 8.85511E-05-2.26512E-05-2.82668E-05-3.96672E-07 9.69893E-19-3.48983E-18
 -1      4264 8.93741E-05-2.31449E-05-2.83939E-05-3.02828E-07 1.04427E-18-3.88260E-18
 -1      4265 9.00136E-05-2.35842E-05-2.84883E-05-1.12611E-07 8.52976E-19-3.83642E-18
 -1      4266 9.06746E-05-2.40363E-05-2.85677E-05-7.73801E-08 8.27692E-19-3.29927E-18
 -1      4267 9.12043E-05-2.44438E-05-2.86260E-05 4.68115E-08 8.33363E-19-2.75966E-18
 -1      4268 9.17326E-05-2.48471E-05-2.86723E-05 4.52844E-08 4.43941E-19-2.25415E-18
 -1      4269 9.21655E-05-2.52126E-05-2.87050E-05 1.24536E-07 1.47977E-19-1.39864E-18
 -1      4270 9.25853E-05-2.55642E-05-2.87288E-05 1.02448E-07-4.18908E-19-9.54517E-19
 -1      4271 9.29336E-05-2.58814E-05-2.87440E-05 1.47795E-07 3.56233E-19-1.02858E-18
 -1      4272 8.39736E-05-2.04513E-05-2.72329E-05-7.49475E-07 3.10526E-19-1.05355E-18
 -1      4273 7.78443E-05-1.90007E-05-2.52072E-05-6.16372E-06 6.21996E-19-1.19713E-18
 -1      4274 7.91098E-05-1.91576E-05-2.57659E-05-4.89401E-06 1.02598E-19-1.52435E-18
 -1      4275 9.45218E-05-2.54208E-05-2.96237E-05 2.48583E-07 2.12999E-19-1.40136E-18
 -1      4276 9.42080E-05-2.54538E-05-2.94721E-05 3.94756E-07 2.64120E-19-1.26549E-18
 -1      4277 9.49003E-05-2.47747E-05-3.00627E-05-5.68675E-08 3.08057E-19-1.62082E-18
 -1      4278 9.45367E-05-2.53420E-05-2.96489E-05-5.38068E-07 4.34460E-19-1.33700E-18
 -1      4279 9.49625E-05-2.47129E-05-3.01136E-05 2.53025E-07 2.18512E-19-1.68390E-18
 -1      4280 9.50362E-05-2.48056E-05-3.01052E-05 3.98508E-07 5.76211E-20-2.01149E-18
 -1      4281 9.36289E-05-2.53041E-05-2.92883E-05 5.81810E-08 4.11602E-19-1.14785E-18
 -1      4282 9.31422E-05-2.51334E-05-2.91498E-05 1.95906E-07 4.38695E-19-1.19353E-18
 -1      4283 9.25097E-05-2.48458E-05-2.90097E-05 2.23458E-07 3.72412E-19-1.16955E-18
 -1      4284 9.19005E-05-2.45476E-05-2.88669E-05 3.95564E-07 3.86211E-19-1.27831E-18
 -1      4285 9.48875E-05-2.50901E-05-2.99059E-05 3.77294E-08 3.93548E-19-1.60963E-18
 -1      4286 9.47696E-05-2.52853E-05-2.97795E-05 1.12042E-07 3.53933E-19-1.59779E-18
 -1      4287 9.14059E-05-2.42224E-05-2.87913E-05-2.99158E-07 3.03563E-19-1.08970E-18
 -1      4288 8.23676E-05-1.98108E-05-2.68336E-05-6.42899E-07 3.10634E-19-1.18050E-18
 -1      4289 7.77849E-05-1.81720E-05-2.55083E-05 1.15912E-06 4.51062E-19-1.34580E-18
 -1      4290 7.86836E-05-1.83744E-05-2.58797E-05-1.31704E-06 3.85438E-19-1.17051E-18
 -1      4291 9.46173E-05-2.53248E-05-2.96987E-05-2.50153E-07 4.23156E-19-1.53944E-18
 -1      4292 8.06746E-05-1.90717E-05-2.64454E-05-1.30220E-06 3.38151E-19-1.05215E-18
 -1      4293 9.38109E-05-2.52814E-05-2.93626E-05-4.43621E-07 4.20772E-19-1.15851E-18
 -1      4294 8.02728E-05-1.93910E-05-2.60793E-05 2.75340E-06 3.88598E-19-8.10469E-19
 -1      4295 9.11801E-05-2.40508E-05-2.87561E-05-8.69223E-07 2.63027E-19-1.05631E-18
 -1      4296 9.06660E-05-2.38366E-05-2.86396E-05-2.25130E-07 3.43970E-19-1.16996E-18
 -1      4297 9.32632E-05-2.61823E-05-2.87532E-05 1.32491E-07 3.25211E-19-1.13333E-18
 -1      4298 9.42826E-05-2.54285E-05-2.95007E-05-4.08968E-07 2.91910E-19-1.33581E-18
 -1      4299 8.97050E-05-2.32942E-05-2.84502E-05-9.62731E-08 3.61782E-19-1.37435E-18
 -1      4300 8.16362E-05-1.96158E-05-2.65619E-05 1.23610E-06 4.54223E-19-1.39737E-18
 -3
    1PSTEP                         4           1           1          
  100CL  101 1.000000000        4300                     0    1           1
 -4  ERROR       1    1
 -5  STR(%)      1    1    0    0
 -1         1 1.61097E+01
 -1         2 2.37891E+01
 -1         3 3.89962E-03
 -1         4 4.44907E-03
 -1         5 1.40272E+01
 -1         6 1.31296E+01
 -1         7 1.31296E+01
 -1         8 3.62504E+00
 -1         9 1.79620E+00
 -1        10 1.28062E+00
 -1        11 1.03431E+00
 -1        12 8.85549E-01
 -1        13 7.92100E-01
 -1        14 7.34407E-01
 -1        15 7.36709E-01
 -1        16 7.96590E-01
 -1        17 8.87104E-01
 -1        18 1.04086E+00
 -1        19 1.29584E+00
 -1        20 1.80678E+00
 -1        21 3.46585E+00
 -1        22 8.60325E+00
 -1        23 1.31296E+01
 -1        24 4.34341E+00
 -1        25 3.36144E+00
 -1        26 2.13216E+00
 -1        27 1.41559E+00
 -1        28 1.09018E+00
 -1        29 8.64270E-01
 -1        30 6.96282E-01
 -1        31 5.64257E-01
 -1        32 4.54971E-01
 -1        33 4.42502E-01
 -1        34 4.63862E-01
 -1        35 4.70752E-01
 -1        36 5.78279E-01
 -1        37 7.10983E-01
 -1        38 8.05564E-01
 -1        39 8.16825E-01
 -1        40 8.36597E-01
 -1        41 8.45476E-01
 -1        42 1.01480E+00
 -1        43 1.27058E+00
 -1        44 2.09556E+00
 -1        45 2.77064E+00
 -1        46 2.89126E+00
 -1        47 2.92700E+00
 -1        48 2.92700E+00
 -1        49 2.58572E+00
 -1        50 1.78385E+00
 -1        51 1.20899E+00
 -1        52 8.98454E-01
 -1        53 8.64610E-01
 -1        54 8.04863E-01
 -1        55 8.04863E-01
 -1        56 7.57501E-01
 -1        57 6.47758E-01
 -1        58 5.15860E-01
 -1        59 4.10642E-01
 -1        60 3.41816E-01
 -1        61 2.93136E-01
 -1        62 2.40974E-01
 -1        63 1.91078E-01
 -1        64 1.46598E-01
 -1        65 1.08853E-01
 -1        66 8.62140E-02
 -1        67 7.17528E-02
 -1        68 5.72405E-02
 -1        69 4.26760E-02
 -1        70 2.73512E-02
 -1        71 1.49671E-02
 -1        72 1.40272E+01
 -1        73 3.42434E+00
 -1        74 2.44332E+00
 -1        75 1.69988E+00
 -1        76 1.20532E+00
 -1        77 1.01165E+00
 -1        78 8.66457E-01
 -1        79 7.58803E-01
 -1        80 6.81322E-01
 -1        81 6.29462E-01
 -1        82 5.98723E-01
 -1        83 6.67921E-01
 -1        84 7.78208E-01
 -1        85 8.90237E-01
 -1        86 9.78942E-01
 -1        87 1.00541E+00
 -1        88 1.26785E+00
 -1        89 1.62096E+00
 -1        90 1.80872E+00
 -1        91 2.15690E+00
 -1        92 2.19082E+00
 -1        93 2.76199E+00
 -1        94 4.02363E+00
 -1        95 5.21173E+00
 -1        96 5.90599E+00
 -1        97 5.90599E+00
 -1        98 4.75415E+00
 -1        99 2.45245E+00
 -1       100 1.74327E+00
 -1       101 2.02904E+00
 -1       102 2.06213E+00
 -1       103 2.06213E+00
 -1       104 1.83128E+00
 -1       105 1.53116E+00
 -1       106 1.25272E+00
 -1       107 9.80480E-01
 -1       108 7.40328E-01
 -1       109 5.41640E-01
 -1       110 3.99816E-01
 -1       111 3.04366E-01
 -1       112 2.26882E-01
 -1       113 1.65589E-01
 -1       114 1.18056E-01
 -1       115 8.17542E-02
 -1       116 5.47332E-02
 -1       117 4.48175E-02
 -1       118 3.45461E-02
 -1       119 2.29410E-02
 -1       120 1.45612E-02
 -1       121 4.98429E-03
 -1       122 4.96692E-03
 -1       123 4.96692E-03
 -1       124 4.12427E-03
 -1       125 2.03746E-03
 -1       126 2.96341E-03
 -1       127 4.23639E-03
 -1       128 4.69163E-03
 -1       129 4.69163E-03
 -1       130 4.25591E-03
 -1       131 2.96592E-03
 -1       132 1.80426E-03
 -1       133 3.92900E-03
 -1       134 4.60010E-03
 -1       135 4.60010E-03
 -1       136 4.82246E-03
 -1       137 2.45951E+01
 -1       138 3.19389E+01
 -1       139 3.19389E+01
 -1       140 2.42980E+01
 -1       141 1.23023E+01
 -1       142 1.28742E+01
 -1       143 1.28742E+01
 -1       144 1.25372E+01
 -1       145 1.25372E+01
 -1       146 1.27854E+01
 -1       147 2.72053E+01
 -1       148 2.91332E+01
 -1       149 2.91332E+01
 -1       150 2.62435E+01
 -1       151 2.56352E+01
 -1       152 2.56352E+01
 -1       153 4.31356E+01
 -1       154 4.31356E+01
 -1       155 1.17598E+01
 -1       156 1.22925E+01
 -1       157 1.22925E+01
 -1       158 1.26933E+01
 -1       159 1.26933E+01
 -1       160 1.16785E+01
 -1       161 2.31802E+01
 -1       162 4.90959E+01
 -1       163 4.90959E+01
 -1       164 2.43185E+01
 -1       165 6.02519E+00
 -1       166 2.26941E+00
 -1       167 1.49899E+00
 -1       168 1.14868E+00
 -1       169 9.62217E-01
 -1       170 8.49969E-01
 -1       171 7.78692E-01
 -1       172 7.36709E-01
 -1       173 7.82423E-01
 -1       174 8.53401E-01
 -1       175 9.70159E-01
 -1       176 1.16335E+00
 -1       177 1.51754E+00
 -1       178 2.24674E+00
 -1       179 3.89928E+00
 -1       180 1.40272E+01
 -1       181 4.34341E+00
 -1       182 3.36144E+00
 -1       183 2.13216E+00
 -1       184 1.45814E+00
 -1       185 1.09018E+00
 -1       186 8.64270E-01
 -1       187 6.96282E-01
 -1       188 5.64257E-01
 -1       189 4.54971E-01
 -1       190 4.16197E-01
 -1       191 4.42502E-01
 -1       192 4.63862E-01
 -1       193 4.70752E-01
 -1       194 5.78279E-01
 -1       195 7.10983E-01
 -1       196 8.05564E-01
 -1       197 8.16825E-01
 -1       198 8.36597E-01
 -1       199 8.45476E-01
 -1       200 1.01480E+00
 -1       201 1.38712E+00
 -1       202 2.09556E+00
 -1       203 2.77064E+00
 -1       204 2.89126E+00
 -1       205 2.92700E+00
 -1       206 2.58572E+00
 -1       207 1.78385E+00
 -1       208 1.20899E+00
 -1       209 8.98454E-01
 -1       210 8.64610E-01
 -1       211 8.02179E-01
 -1       212 8.04863E-01
 -1       213 7.57501E-01
 -1       214 6.47758E-01
 -1       215 5.34206E-01
 -1       216 4.52686E-01
 -1       217 3.81030E-01
 -1       218 3.04838E-01
 -1       219 2.40974E-01
 -1       220 1.91078E-01
 -1       221 1.49574E-01
 -1       222 1.15623E-01
 -1       223 8.67305E-02
 -1       224 7.17528E-02
 -1       225 5.72405E-02
 -1       226 4.26760E-02
 -1       227 2.75723E-02
 -1       228 1.59173E-02
 -1       229 3.42434E+00
 -1       230 2.44332E+00
 -1       231 1.69988E+00
 -1       232 1.20532E+00
 -1       233 1.01165E+00
 -1       234 8.66457E-01
 -1       235 7.58803E-01
 -1       236 6.81322E-01
 -1       237 6.29462E-01
 -1       238 5.98723E-01
 -1       239 5.82637E-01
 -1       240 6.67921E-01
 -1       241 7.78208E-01
 -1       242 8.90237E-01
 -1       243 9.78942E-01
 -1       244 1.11056E+00
 -1       245 1.32905E+00
 -1       246 1.62096E+00
 -1       247 1.80872E+00
 -1       248 2.15690E+00
 -1       249 2.19082E+00
 -1       250 2.76199E+00
 -1       251 4.02363E+00
 -1       252 5.21173E+00
 -1       253 5.90599E+00
 -1       254 4.75415E+00
 -1       255 2.45245E+00
 -1       256 1.49397E+00
 -1       257 1.74327E+00
 -1       258 2.02904E+00
 -1       259 2.06213E+00
 -1       260 1.83128E+00
 -1       261 1.53116E+00
 -1       262 1.26161E+00
 -1       263 1.01693E+00
 -1       264 7.88896E-01
 -1       265 5.92724E-01
 -1       266 4.32689E-01
 -1       267 3.11503E-01
 -1       268 2.26882E-01
 -1       269 1.65589E-01
 -1       270 1.20364E-01
 -1       271 8.57621E-02
 -1       272 5.92746E-02
 -1       273 4.48175E-02
 -1       274 3.45461E-02
 -1       275 2.29410E-02
 -1       276 1.45612E-02
 -1       277 7.80024E-03
 -1       278 9.18449E-03
 -1       279 9.18449E-03
 -1       280 6.40593E-03
 -1       281 6.12715E-03
 -1       282 8.87885E-03
 -1       283 1.00213E-02
 -1       284 1.00213E-02
 -1       285 9.99281E-03
 -1       286 8.78835E-03
 -1       287 6.15637E-03
 -1       288 6.01746E-03
 -1       289 8.93923E-03
 -1       290 8.93923E-03
 -1       291 8.72227E-03
 -1       292 2.95272E+01
 -1       293 3.21645E+01
 -1       294 3.21645E+01
 -1       295 2.59177E+01
 -1       296 1.23023E+01
 -1       297 1.21022E+01
 -1       298 1.28742E+01
 -1       299 1.18146E+01
 -1       300 1.25372E+01
 -1       301 1.17523E+01
 -1       302 1.27854E+01
 -1       303 2.80853E+01
 -1       304 3.26148E+01
 -1       305 3.26148E+01
 -1       306 2.92112E+01
 -1       307 2.92112E+01
 -1       308 3.68438E+01
 -1       309 4.31356E+01
 -1       310 1.69932E+01
 -1       311 1.03479E+01
 -1       312 1.17598E+01
 -1       313 1.22925E+01
 -1       314 1.19261E+01
 -1       315 1.26933E+01
 -1       316 1.16785E+01
 -1       317 1.12639E+01
 -1       318 2.57085E+01
 -1       319 4.90959E+01
 -1       320 3.08013E+01
 -1       321 2.95272E+01
 -1       322 1.02689E+00
 -1       323 2.44298E+00
 -1       324 7.83486E-01
 -1       325 6.84009E-01
 -1       326 6.19101E-01
 -1       327 5.72544E-01
 -1       328 5.76074E-01
 -1       329 6.22082E-01
 -1       330 6.91253E-01
 -1       331 7.88357E-01
 -1       332 9.24714E-01
 -1       333 1.13863E+00
 -1       334 1.30169E+00
 -1       335 2.18688E+00
 -1       336 1.89247E+00
 -1       337 1.73620E+00
 -1       338 1.26872E+00
 -1       339 8.99777E-01
 -1       340 6.93461E-01
 -1       341 5.88129E-01
 -1       342 4.89702E-01
 -1       343 3.97130E-01
 -1       344 3.13117E-01
 -1       345 3.42266E-01
 -1       346 3.65105E-01
 -1       347 3.76384E-01
 -1       348 4.47977E-01
 -1       349 5.37607E-01
 -1       350 5.90499E-01
 -1       351 5.76884E-01
 -1       352 4.60093E-01
 -1       353 4.03743E-01
 -1       354 5.85273E-01
 -1       355 1.01813E+00
 -1       356 1.36104E+00
 -1       357 1.75020E+00
 -1       358 1.89295E+00
 -1       359 1.82371E+00
 -1       360 1.88218E+00
 -1       361 1.62999E+00
 -1       362 1.26481E+00
 -1       363 8.60391E-01
 -1       364 4.76919E-01
 -1       365 4.22566E-01
 -1       366 5.10798E-01
 -1       367 5.89754E-01
 -1       368 5.81865E-01
 -1       369 5.22550E-01
 -1       370 4.65532E-01
 -1       371 4.11764E-01
 -1       372 3.49009E-01
 -1       373 2.82911E-01
 -1       374 2.20512E-01
 -1       375 1.65659E-01
 -1       376 1.19928E-01
 -1       377 8.67305E-02
 -1       378 6.29655E-02
 -1       379 4.56296E-02
 -1       380 3.27746E-02
 -1       381 2.35792E-02
 -1       382 1.53200E-02
 -1       383 1.14739E+00
 -1       384 8.84638E-01
 -1       385 6.84675E-01
 -1       386 5.67253E-01
 -1       387 5.29691E-01
 -1       388 4.93819E-01
 -1       389 4.63065E-01
 -1       390 4.38395E-01
 -1       391 4.86906E-01
 -1       392 6.62539E-01
 -1       393 8.84821E-01
 -1       394 1.11242E+00
 -1       395 1.31336E+00
 -1       396 1.48362E+00
 -1       397 1.55982E+00
 -1       398 1.58652E+00
 -1       399 1.45496E+00
 -1       400 1.39926E+00
 -1       401 1.59968E+00
 -1       402 2.48450E+00
 -1       403 3.25515E+00
 -1       404 3.58366E+00
 -1       405 3.09485E+00
 -1       406 2.90281E+00
 -1       407 1.78020E+00
 -1       408 1.37487E+00
 -1       409 1.44230E+00
 -1       410 1.57977E+00
 -1       411 1.56246E+00
 -1       412 1.50409E+00
 -1       413 1.34680E+00
 -1       414 1.15836E+00
 -1       415 9.50851E-01
 -1       416 7.52190E-01
 -1       417 5.76008E-01
 -1       418 4.29051E-01
 -1       419 3.11503E-01
 -1       420 2.21562E-01
 -1       421 1.64984E-01
 -1       422 1.20364E-01
 -1       423 8.57621E-02
 -1       424 5.92746E-02
 -1       425 3.91592E-02
 -1       426 2.56602E-02
 -1       427 1.69815E-02
 -1       428 8.46652E-03
 -1       429 1.14670E-02
 -1       430 1.40219E-02
 -1       431 1.40219E-02
 -1       432 9.05778E-03
 -1       433 1.33458E-02
 -1       434 1.54623E-02
 -1       435 1.54623E-02
 -1       436 1.52500E-02
 -1       437 1.52500E-02
 -1       438 1.31240E-02
 -1       439 8.78633E-03
 -1       440 1.09048E-02
 -1       441 1.35542E-02
 -1       442 3.21645E+01
 -1       443 3.21187E+01
 -1       444 3.21187E+01
 -1       445 1.85179E+01
 -1       446 1.08979E+01
 -1       447 9.12903E-01
 -1       448 9.44736E+00
 -1       449 1.06929E+01
 -1       450 1.03171E+01
 -1       451 9.37037E+00
 -1       452 7.59899E+00
 -1       453 1.09410E+01
 -1       454 1.93307E+01
 -1       455 3.26148E+01
 -1       456 3.54631E+01
 -1       457 3.54631E+01
 -1       458 2.79763E+01
 -1       459 2.51587E+01
 -1       460 1.47849E+01
 -1       461 8.28750E+00
 -1       462 7.43537E+00
 -1       463 9.56103E+00
 -1       464 1.10714E+01
 -1       465 1.09235E+01
 -1       466 9.18974E+00
 -1       467 7.11662E+00
 -1       468 1.06804E+01
 -1       469 1.80576E+01
 -1       470 3.08013E+01
 -1       471 3.00611E+01
 -1       472 7.68217E+00
 -1       473 6.73098E+00
 -1       474 1.04981E+00
 -1       475 4.76798E-01
 -1       476 5.03926E-01
 -1       477 4.15873E-01
 -1       478 4.44680E-01
 -1       479 4.77734E-01
 -1       480 5.05250E-01
 -1       481 5.05250E-01
 -1       482 5.94661E-01
 -1       483 8.84638E-01
 -1       484 7.77139E-01
 -1       485 6.02528E+00
 -1       486 6.86975E-01
 -1       487 5.55918E-01
 -1       488 4.22640E-01
 -1       489 3.73145E-01
 -1       490 3.10321E-01
 -1       491 2.38939E-01
 -1       492 2.29117E-01
 -1       493 2.54999E-01
 -1       494 3.14369E-01
 -1       495 3.88223E-01
 -1       496 4.51876E-01
 -1       497 5.09556E-01
 -1       498 5.55781E-01
 -1       499 5.52154E-01
 -1       500 6.75620E-01
 -1       501 7.62904E-01
 -1       502 9.61015E-01
 -1       503 1.15023E+00
 -1       504 1.34987E+00
 -1       505 1.64777E+00
 -1       506 1.59798E+00
 -1       507 1.70146E+00
 -1       508 1.52150E+00
 -1       509 1.27988E+00
 -1       510 1.10052E+00
 -1       511 8.43624E-01
 -1       512 7.45798E-01
 -1       513 6.27966E-01
 -1       514 5.93524E-01
 -1       515 5.86819E-01
 -1       516 5.40807E-01
 -1       517 4.89439E-01
 -1       518 4.38728E-01
 -1       519 3.80508E-01
 -1       520 3.16651E-01
 -1       521 2.54406E-01
 -1       522 1.98054E-01
 -1       523 1.49663E-01
 -1       524 1.09810E-01
 -1       525 7.81475E-02
 -1       526 5.38199E-02
 -1       527 3.58130E-02
 -1       528 2.29096E-02
 -1       529 5.35043E-01
 -1       530 4.69460E-01
 -1       531 3.95311E-01
 -1       532 3.16060E-01
 -1       533 3.23398E-01
 -1       534 3.83235E-01
 -1       535 5.52790E-01
 -1       536 7.57678E-01
 -1       537 9.80941E-01
 -1       538 1.20736E+00
 -1       539 1.40699E+00
 -1       540 1.53478E+00
 -1       541 1.82451E+00
 -1       542 2.11098E+00
 -1       543 2.27517E+00
 -1       544 2.70546E+00
 -1       545 2.49198E+00
 -1       546 4.82255E+00
 -1       547 6.79124E+00
 -1       548 6.69039E+00
 -1       549 3.09485E+00
 -1       550 2.29616E+00
 -1       551 2.38392E+00
 -1       552 2.35709E+00
 -1       553 2.01251E+00
 -1       554 1.67975E+00
 -1       555 1.56397E+00
 -1       556 1.39896E+00
 -1       557 1.19853E+00
 -1       558 9.92926E-01
 -1       559 8.00615E-01
 -1       560 6.30991E-01
 -1       561 4.87418E-01
 -1       562 3.69588E-01
 -1       563 2.75220E-01
 -1       564 2.01186E-01
 -1       565 1.44183E-01
 -1       566 1.01111E-01
 -1       567 6.92243E-02
 -1       568 4.58500E-02
 -1       569 3.78453E-02
 -1       570 1.94566E-02
 -1       571 1.82174E-02
 -1       572 2.17608E-02
 -1       573 2.37427E-02
 -1       574 2.37427E-02
 -1       575 2.18801E-02
 -1       576 2.18801E-02
 -1       577 2.17084E-02
 -1       578 2.12367E-02
 -1       579 1.74093E-02
 -1       580 1.72501E-02
 -1       581 1.72501E-02
 -1       582 3.21187E+01
 -1       583 1.50448E+01
 -1       584 6.84675E-01
 -1       585 3.00611E+01
 -1       586 2.23154E+01
 -1       587 8.57271E-01
 -1       588 2.07944E+01
 -1       589 4.44516E-01
 -1       590 7.87058E+00
 -1       591 2.41618E+01
 -1       592 9.06018E+00
 -1       593 7.72158E+00
 -1       594 4.82255E+00
 -1       595 8.79649E+00
 -1       596 1.39533E+01
 -1       597 3.54631E+01
 -1       598 2.79763E+01
 -1       599 1.81275E+01
 -1       600 1.15911E+01
 -1       601 7.03175E+00
 -1       602 5.61158E+00
 -1       603 5.07969E+00
 -1       604 7.13978E+00
 -1       605 8.59056E+00
 -1       606 7.28422E+00
 -1       607 4.54592E+00
 -1       608 6.49382E+00
 -1       609 9.62144E+00
 -1       610 1.37812E+01
 -1       611 4.59151E+00
 -1       612 1.30916E+00
 -1       613 9.63608E+00
 -1       614 7.22380E-01
 -1       615 1.40111E+01
 -1       616 3.91766E+00
 -1       617 1.53200E-02
 -1       618 3.49320E-01
 -1       619 3.27826E-01
 -1       620 3.59522E-01
 -1       621 3.42408E-01
 -1       622 5.19266E-01
 -1       623 1.73896E+01
 -1       624 4.11381E+00
 -1       625 1.16244E+01
 -1       626 3.64798E-01
 -1       627 3.29839E-01
 -1       628 2.63190E-01
 -1       629 2.11180E-01
 -1       630 1.61916E-01
 -1       631 1.25965E-01
 -1       632 1.77752E-01
 -1       633 2.67418E-01
 -1       634 3.57900E-01
 -1       635 4.42095E-01
 -1       636 5.16830E-01
 -1       637 6.34701E-01
 -1       638 7.39331E-01
 -1       639 8.04988E-01
 -1       640 1.03549E+00
 -1       641 1.24463E+00
 -1       642 1.35714E+00
 -1       643 1.56286E+00
 -1       644 1.75469E+00
 -1       645 2.34670E+00
 -1       646 2.31153E+00
 -1       647 2.13153E+00
 -1       648 1.52150E+00
 -1       649 1.57084E+00
 -1       650 1.31421E+00
 -1       651 1.23747E+00
 -1       652 9.76630E-01
 -1       653 8.24989E-01
 -1       654 7.47701E-01
 -1       655 6.44385E-01
 -1       656 5.46114E-01
 -1       657 4.83761E-01
 -1       658 4.13549E-01
 -1       659 3.42436E-01
 -1       660 2.75921E-01
 -1       661 2.16932E-01
 -1       662 1.66648E-01
 -1       663 1.25137E-01
 -1       664 9.18162E-02
 -1       665 6.58141E-02
 -1       666 4.58524E-02
 -1       667 2.79117E-02
 -1       668 2.75541E-01
 -1       669 4.35659E-02
 -1       670 3.22004E-01
 -1       671 1.85868E-01
 -1       672 2.66142E-01
 -1       673 4.16524E-01
 -1       674 5.94451E-01
 -1       675 8.04138E-01
 -1       676 1.04948E+00
 -1       677 1.33206E+00
 -1       678 1.64661E+00
 -1       679 1.96855E+00
 -1       680 2.40351E+00
 -1       681 3.21200E+00
 -1       682 3.98130E+00
 -1       683 3.62297E+00
 -1       684 2.73995E+00
 -1       685 2.84600E+00
 -1       686 3.66850E+00
 -1       687 2.74794E+00
 -1       688 2.15648E+00
 -1       689 1.83430E+00
 -1       690 1.55977E+00
 -1       691 1.28320E+00
 -1       692 1.03134E+00
 -1       693 8.13670E-01
 -1       694 6.31493E-01
 -1       695 4.87418E-01
 -1       696 3.69588E-01
 -1       697 2.75220E-01
 -1       698 2.01186E-01
 -1       699 1.44183E-01
 -1       700 1.01111E-01
 -1       701 6.92243E-02
 -1       702 5.42252E-02
 -1       703 9.26038E+00
 -1       704 3.06390E-02
 -1       705 1.42776E+01
 -1       706 2.93540E-02
 -1       707 3.02000E-02
 -1       708 3.06390E-02
 -1       709 3.02000E-02
 -1       710 2.78616E-02
 -1       711 2.09222E-02
 -1       712 1.22878E+01
 -1       713 1.63887E+01
 -1       714 1.47215E+01
 -1       715 3.79100E+00
 -1       716 4.70528E-01
 -1       717 9.88106E+00
 -1       718 6.08013E+00
 -1       719 4.17205E-01
 -1       720 2.14605E-01
 -1       721 6.12236E+00
 -1       722 3.59522E-01
 -1       723 3.62658E-01
 -1       724 4.88415E-01
 -1       725 6.50612E+00
 -1       726 5.31407E+00
 -1       727 1.52225E+01
 -1       728 1.72501E-02
 -1       729 8.07937E+00
 -1       730 3.17809E+00
 -1       731 1.42907E+01
 -1       732 6.60888E+00
 -1       733 7.98997E+00
 -1       734 4.76954E+00
 -1       735 4.67708E+00
 -1       736 5.64243E+00
 -1       737 3.81406E+00
 -1       738 3.48351E-01
 -1       739 4.70528E-01
 -1       740 3.75091E-02
 -1       741 3.27273E-01
 -1       742 1.03187E+01
 -1       743 8.69447E+00
 -1       744 2.03973E-02
 -1       745 3.38297E+00
 -1       746 1.10066E+01
 -1       747 2.45369E-01
 -1       748 1.88170E-01
 -1       749 1.51603E-01
 -1       750 9.46932E-02
 -1       751 1.05504E-01
 -1       752 1.58349E-01
 -1       753 2.21491E-01
 -1       754 3.10938E-01
 -1       755 4.22154E-01
 -1       756 5.42808E-01
 -1       757 6.64364E-01
 -1       758 8.35804E-01
 -1       759 1.05170E+00
 -1       760 1.27371E+00
 -1       761 1.56155E+00
 -1       762 2.10195E+00
 -1       763 2.20473E+00
 -1       764 2.19817E+00
 -1       765 2.34670E+00
 -1       766 2.31153E+00
 -1       767 3.79100E+00
 -1       768 1.96802E+00
 -1       769 2.53408E+00
 -1       770 2.06998E+00
 -1       771 1.79154E+00
 -1       772 1.60390E+00
 -1       773 1.35054E+00
 -1       774 1.08715E+00
 -1       775 8.79806E-01
 -1       776 7.25671E-01
 -1       777 6.04165E-01
 -1       778 4.90629E-01
 -1       779 3.88785E-01
 -1       780 3.01522E-01
 -1       781 2.30984E-01
 -1       782 1.75926E-01
 -1       783 1.30927E-01
 -1       784 9.47958E-02
 -1       785 6.70930E-02
 -1       786 3.16415E-02
 -1       787 1.86627E-01
 -1       788 3.15505E-01
 -1       789 1.99346E-01
 -1       790 6.67357E-01
 -1       791 9.00298E-01
 -1       792 1.17484E+00
 -1       793 1.54340E+00
 -1       794 2.09636E+00
 -1       795 2.91534E+00
 -1       796 3.36331E+00
 -1       797 5.12729E+00
 -1       798 4.66281E+00
 -1       799 3.37784E+00
 -1       800 2.52316E+00
 -1       801 1.88599E+00
 -1       802 1.41977E+00
 -1       803 1.10022E+00
 -1       804 8.62910E-01
 -1       805 6.64945E-01
 -1       806 5.01462E-01
 -1       807 3.70954E-01
 -1       808 2.71613E-01
 -1       809 2.02835E-01
 -1       810 1.49402E-01
 -1       811 1.08317E-01
 -1       812 7.71361E-02
 -1       813 5.42252E-02
 -1       814 4.12112E-02
 -1       815 4.12112E-02
 -1       816 3.35981E+00
 -1       817 9.38185E+00
 -1       818 1.87510E-01
 -1       819 3.62193E+00
 -1       820 7.99517E+00
 -1       821 6.76054E+00
 -1       822 2.38212E-01
 -1       823 5.63117E+00
 -1       824 4.10359E-02
 -1       825 4.88457E-02
 -1       826 4.69094E-01
 -1       827 2.55464E-01
 -1       828 4.94427E+00
 -1       829 9.38185E+00
 -1       830 2.73121E-01
 -1       831 4.12570E+00
 -1       832 9.58302E+00
 -1       833 1.00843E+01
 -1       834 2.64030E-01
 -1       835 9.02874E+00
 -1       836 1.10066E+01
 -1       837 2.45583E+00
 -1       838 6.59165E+00
 -1       839 4.34428E+00
 -1       840 2.54016E+00
 -1       841 6.53511E+00
 -1       842 2.74122E-01
 -1       843 2.87137E-01
 -1       844 3.81772E+00
 -1       845 8.07649E+00
 -1       846 1.18630E-01
 -1       847 3.01130E-01
 -1       848 4.26983E-02
 -1       849 1.21332E-01
 -1       850 3.92641E-02
 -1       851 4.26983E-02
 -1       852 2.80087E-01
 -1       853 5.42252E-02
 -1       854 2.74122E-01
 -1       855 2.35743E-01
 -1       856 7.71877E+00
 -1       857 3.22684E-02
 -1       858 3.91610E+00
 -1       859 2.80598E+00
 -1       860 4.28602E+00
 -1       861 1.04802E-01
 -1       862 1.31923E-01
 -1       863 1.67041E-01
 -1       864 2.26961E-01
 -1       865 3.15148E-01
 -1       866 4.17213E-01
 -1       867 5.31028E-01
 -1       868 6.95401E-01
 -1       869 9.21797E-01
 -1       870 1.16165E+00
 -1       871 1.46458E+00
 -1       872 2.33827E+00
 -1       873 2.53670E+00
 -1       874 1.93351E+00
 -1       875 1.60390E+00
 -1       876 1.35054E+00
 -1       877 1.08715E+00
 -1       878 8.79806E-01
 -1       879 6.95436E-01
 -1       880 5.86973E-01
 -1       881 4.81043E-01
 -1       882 3.84812E-01
 -1       883 3.01243E-01
 -1       884 2.30984E-01
 -1       885 1.73452E-01
 -1       886 1.27305E-01
 -1       887 9.29339E-02
 -1       888 6.52121E+00
 -1       889 1.15946E+00
 -1       890 8.59341E-01
 -1       891 2.04862E+00
 -1       892 2.80199E+00
 -1       893 4.38656E+00
 -1       894 5.43175E-02
 -1       895 2.50314E+00
 -1       896 6.35981E+00
 -1       897 1.83190E+00
 -1       898 1.41405E+00
 -1       899 1.08748E+00
 -1       900 8.30544E-01
 -1       901 6.29247E-01
 -1       902 4.72649E-01
 -1       903 3.51407E-01
 -1       904 2.58096E-01
 -1       905 1.86840E-01
 -1       906 1.32899E-01
 -1       907 9.26604E-02
 -1       908 6.43465E-02
 -1       909 6.70930E-02
 -1       910 7.09534E+00
 -1       911 7.28141E+00
 -1       912 7.09534E+00
 -1       913 9.58561E-02
 -1       914 1.31576E-01
 -1       915 6.16368E+00
 -1       916 5.56628E-02
 -1       917 5.77846E+00
 -1       918 1.54340E+00
 -1       919 2.90252E-01
 -1       920 5.13058E+00
 -1       921 5.27127E+00
 -1       922 1.14126E-01
 -1       923 1.00883E-01
 -1       924 6.49061E+00
 -1       925 3.01130E-01
 -1       926 7.28141E+00
 -1       927 3.50001E+00
 -1       928 6.69980E+00
 -1       929 4.37855E-01
 -1       930 1.95589E-01
 -1       931 1.34207E-01
 -1       932 1.55578E-01
 -1       933 6.23888E-01
 -1       934 1.45208E-01
 -1       935 7.10260E-02
 -1       936 6.40263E-02
 -1       937 1.67406E-01
 -1       938 1.92682E-01
 -1       939 1.91853E-01
 -1       940 1.20387E-01
 -1       941 5.77846E+00
 -1       942 7.10260E-02
 -1       943 5.18126E+00
 -1       944 1.77379E-01
 -1       945 2.26467E-01
 -1       946 3.15148E-01
 -1       947 4.17213E-01
 -1       948 5.35173E-01
 -1       949 7.04095E-01
 -1       950 9.16812E-01
 -1       951 1.29232E+00
 -1       952 2.22309E+00
 -1       953 2.85129E+00
 -1       954 8.08973E-02
 -1       955 5.14907E+00
 -1       956 3.76421E+00
 -1       957 1.84028E+00
 -1       958 1.22469E+00
 -1       959 9.00592E-01
 -1       960 6.90547E-01
 -1       961 5.57476E-01
 -1       962 4.42685E-01
 -1       963 3.46860E-01
 -1       964 2.68380E-01
 -1       965 2.04922E-01
 -1       966 1.54106E-01
 -1       967 1.14138E-01
 -1       968 8.69156E-02
 -1       969 3.50001E+00
 -1       970 6.27585E+00
 -1       971 2.80199E+00
 -1       972 2.63905E+00
 -1       973 9.38933E-01
 -1       974 7.02992E-01
 -1       975 5.29592E-01
 -1       976 3.98619E-01
 -1       977 2.98381E-01
 -1       978 2.21276E-01
 -1       979 1.62129E-01
 -1       980 1.16989E-01
 -1       981 9.19262E-02
 -1       982 5.18126E+00
 -1       983 5.14907E+00
 -1       984 9.07349E-02
 -1       985 1.11580E-01
 -1       986 1.26184E+00
 -1       987 1.92682E-01
 -1       988 1.90931E-01
 -1       989 1.73519E+00
 -1       990 9.83679E-01
 -1       991 5.06673E+00
 -1       992 7.29597E-02
 -1       993 1.41953E-01
 -1       994 4.54335E+00
 -1       995 4.54335E+00
 -1       996 1.24472E-01
 -1       997 4.35009E+00
 -1       998 3.65139E-01
 -1       999 2.47056E-01
 -1      1000 7.14528E-01
 -1      1001 1.92977E+00
 -1      1002 6.99870E-02
 -1      1003 9.51018E-02
 -1      1004 7.16184E-02
 -1      1005 1.15066E-01
 -1      1006 1.15066E-01
 -1      1007 1.36328E+00
 -1      1008 1.53623E-01
 -1      1009 1.79285E-01
 -1      1010 9.19262E-02
 -1      1011 9.90481E-02
 -1      1012 5.16308E-01
 -1      1013 2.94839E-01
 -1      1014 3.98491E-01
 -1      1015 5.35173E-01
 -1      1016 7.04095E-01
 -1      1017 9.16812E-01
 -1      1018 1.28111E+00
 -1      1019 3.40295E+00
 -1      1020 4.54060E+00
 -1      1021 1.54260E+00
 -1      1022 1.18907E+00
 -1      1023 9.00592E-01
 -1      1024 6.78694E-01
 -1      1025 5.11457E-01
 -1      1026 3.85365E-01
 -1      1027 2.89884E-01
 -1      1028 2.17162E-01
 -1      1029 1.61585E-01
 -1      1030 1.62584E-01
 -1      1031 3.94035E-01
 -1      1032 5.16166E-01
 -1      1033 6.81477E-01
 -1      1034 3.00686E-01
 -1      1035 2.28016E-01
 -1      1036 1.71103E-01
 -1      1037 1.27410E-01
 -1      1038 9.60071E-02
 -1      1039 1.88967E-01
 -1      1040 7.39345E-02
 -1      1041 1.41953E-01
 -1      1042 9.04727E-01
 -1      1043 2.63905E+00
 -1      1044 3.18370E+00
 -1      1045 2.30340E-01
 -1      1046 1.18703E+00
 -1      1047 1.79495E-01
 -1      1048 1.14593E-01
 -1      1049 3.92550E+00
 -1      1050 1.73307E+00
 -1      1051 3.24630E+00
 -1      1052 1.28665E-01
 -1      1053 4.13827E+00
 -1      1054 3.18370E+00
 -1      1055 1.01711E-01
 -1      1056 1.28665E-01
 -1      1057 3.11768E-01
 -1      1058 6.87080E-01
 -1      1059 1.86326E+00
 -1      1060 4.06393E-01
 -1      1061 9.32927E-01
 -1      1062 1.62584E-01
 -1      1063 9.07349E-02
 -1      1064 1.51012E-01
 -1      1065 1.02199E-01
 -1      1066 1.11093E-01
 -1      1067 4.09544E-01
 -1      1068 5.28375E-01
 -1      1069 3.42063E-01
 -1      1070 6.30036E-01
 -1      1071 8.71769E-01
 -1      1072 1.08412E+00
 -1      1073 1.28635E+00
 -1      1074 2.64155E+00
 -1      1075 1.69908E+00
 -1      1076 2.27241E+00
 -1      1077 1.79495E-01
 -1      1078 1.27370E+00
 -1      1079 9.57262E-01
 -1      1080 6.73869E-01
 -1      1081 4.78347E-01
 -1      1082 3.43608E-01
 -1      1083 2.48931E-01
 -1      1084 1.90803E-01
 -1      1085 1.62584E-01
 -1      1086 2.35445E-01
 -1      1087 3.10855E-01
 -1      1088 5.41425E-01
 -1      1089 1.77149E-01
 -1      1090 1.33367E-01
 -1      1091 2.42952E-01
 -1      1092 2.14735E-01
 -1      1093 7.25773E-01
 -1      1094 2.76755E-01
 -1      1095 2.40484E+00
 -1      1096 3.34796E-01
 -1      1097 9.57262E-01
 -1      1098 1.26720E+00
 -1      1099 1.05196E-01
 -1      1100 7.98793E-02
 -1      1101 1.32740E+00
 -1      1102 2.27626E+00
 -1      1103 1.05196E-01
 -1      1104 9.98188E-01
 -1      1105 2.00398E+00
 -1      1106 2.98481E-01
 -1      1107 1.32376E-01
 -1      1108 3.79676E-01
 -1      1109 6.45008E-01
 -1      1110 2.14735E-01
 -1      1111 6.26408E-01
 -1      1112 6.26408E-01
 -1      1113 1.28635E+00
 -1      1114 2.96414E-01
 -1      1115 2.96414E-01
 -1      1116 1.54270E+00
 -1      1117 1.31296E+01
 -1      1118 8.37733E+00
 -1      1119 2.71062E+00
 -1      1120 1.53841E+00
 -1      1121 1.15747E+00
 -1      1122 9.59930E-01
 -1      1123 8.38825E-01
 -1      1124 7.63253E-01
 -1      1125 7.35558E-01
 -1      1126 7.66650E-01
 -1      1127 8.41847E-01
 -1      1128 9.63983E-01
 -1      1129 1.16835E+00
 -1      1130 1.55131E+00
 -1      1131 2.63631E+00
 -1      1132 6.03455E+00
 -1      1133 1.13152E+01
 -1      1134 1.31296E+01
 -1      1135 8.73652E+00
 -1      1136 3.85243E+00
 -1      1137 2.74680E+00
 -1      1138 1.77388E+00
 -1      1139 1.25289E+00
 -1      1140 9.77223E-01
 -1      1141 7.80276E-01
 -1      1142 6.30270E-01
 -1      1143 5.09614E-01
 -1      1144 4.48736E-01
 -1      1145 4.53182E-01
 -1      1146 4.67307E-01
 -1      1147 5.24515E-01
 -1      1148 6.44631E-01
 -1      1149 7.58274E-01
 -1      1150 8.11195E-01
 -1      1151 8.26711E-01
 -1      1152 8.41037E-01
 -1      1153 9.30137E-01
 -1      1154 1.14269E+00
 -1      1155 1.68307E+00
 -1      1156 2.43310E+00
 -1      1157 2.83095E+00
 -1      1158 2.90913E+00
 -1      1159 2.92700E+00
 -1      1160 2.75636E+00
 -1      1161 2.18478E+00
 -1      1162 1.49642E+00
 -1      1163 1.05372E+00
 -1      1164 8.81532E-01
 -1      1165 8.34737E-01
 -1      1166 8.04863E-01
 -1      1167 7.81182E-01
 -1      1168 7.02629E-01
 -1      1169 5.81809E-01
 -1      1170 4.63251E-01
 -1      1171 3.76229E-01
 -1      1172 3.17476E-01
 -1      1173 2.67055E-01
 -1      1174 2.16026E-01
 -1      1175 1.68838E-01
 -1      1176 1.27725E-01
 -1      1177 9.75334E-02
 -1      1178 7.89834E-02
 -1      1179 6.44966E-02
 -1      1180 4.99582E-02
 -1      1181 3.50136E-02
 -1      1182 2.11591E-02
 -1      1183 9.70809E-03
 -1      1184 1.40272E+01
 -1      1185 8.72579E+00
 -1      1186 2.93383E+00
 -1      1187 2.07160E+00
 -1      1188 1.45260E+00
 -1      1189 1.10849E+00
 -1      1190 9.39053E-01
 -1      1191 8.12630E-01
 -1      1192 7.20062E-01
 -1      1193 6.55392E-01
 -1      1194 6.14092E-01
 -1      1195 6.33322E-01
 -1      1196 7.23065E-01
 -1      1197 8.34223E-01
 -1      1198 9.34590E-01
 -1      1199 9.92175E-01
 -1      1200 1.13663E+00
 -1      1201 1.44440E+00
 -1      1202 1.71484E+00
 -1      1203 1.98281E+00
 -1      1204 2.17386E+00
 -1      1205 2.47641E+00
 -1      1206 3.39281E+00
 -1      1207 4.61768E+00
 -1      1208 5.55886E+00
 -1      1209 5.90599E+00
 -1      1210 5.33007E+00
 -1      1211 3.60330E+00
 -1      1212 2.09786E+00
 -1      1213 1.88616E+00
 -1      1214 2.04558E+00
 -1      1215 2.06213E+00
 -1      1216 1.94671E+00
 -1      1217 1.68122E+00
 -1      1218 1.39194E+00
 -1      1219 1.11660E+00
 -1      1220 8.60404E-01
 -1      1221 6.40984E-01
 -1      1222 4.70728E-01
 -1      1223 3.52091E-01
 -1      1224 2.65624E-01
 -1      1225 1.96235E-01
 -1      1226 1.41823E-01
 -1      1227 9.99053E-02
 -1      1228 6.82437E-02
 -1      1229 4.97753E-02
 -1      1230 3.96818E-02
 -1      1231 2.87435E-02
 -1      1232 1.87511E-02
 -1      1233 9.23042E-03
 -1      1234 4.44195E-03
 -1      1235 4.97560E-03
 -1      1236 4.96692E-03
 -1      1237 4.54559E-03
 -1      1238 3.08086E-03
 -1      1239 2.50044E-03
 -1      1240 3.59990E-03
 -1      1241 4.46401E-03
 -1      1242 4.69163E-03
 -1      1243 4.47377E-03
 -1      1244 3.61091E-03
 -1      1245 2.38509E-03
 -1      1246 2.86663E-03
 -1      1247 4.26455E-03
 -1      1248 4.60010E-03
 -1      1249 4.71128E-03
 -1      1250 4.63577E-03
 -1      1251 2.41921E+01
 -1      1252 2.82670E+01
 -1      1253 3.19389E+01
 -1      1254 2.81185E+01
 -1      1255 1.83001E+01
 -1      1256 1.25882E+01
 -1      1257 1.28742E+01
 -1      1258 1.27057E+01
 -1      1259 1.25372E+01
 -1      1260 1.26613E+01
 -1      1261 1.99954E+01
 -1      1262 2.81693E+01
 -1      1263 2.91332E+01
 -1      1264 2.76884E+01
 -1      1265 2.59393E+01
 -1      1266 2.56352E+01
 -1      1267 3.43854E+01
 -1      1268 4.31356E+01
 -1      1269 2.96226E+01
 -1      1270 1.39347E+01
 -1      1271 1.20261E+01
 -1      1272 1.22925E+01
 -1      1273 1.24929E+01
 -1      1274 1.26933E+01
 -1      1275 1.21859E+01
 -1      1276 1.74294E+01
 -1      1277 3.61380E+01
 -1      1278 4.90959E+01
 -1      1279 3.67072E+01
 -1      1280 2.40538E+01
 -1      1281 1.31296E+01
 -1      1282 4.82511E+00
 -1      1283 9.57740E+00
 -1      1284 2.03281E+00
 -1      1285 2.94723E+00
 -1      1286 4.14730E+00
 -1      1287 1.38981E+00
 -1      1288 1.64760E+00
 -1      1289 1.88420E+00
 -1      1290 1.09149E+00
 -1      1291 1.21465E+00
 -1      1292 1.32383E+00
 -1      1293 9.23883E-01
 -1      1294 9.98264E-01
 -1      1295 1.05545E+00
 -1      1296 8.21034E-01
 -1      1297 8.67759E-01
 -1      1298 9.06093E-01
 -1      1299 7.56550E-01
 -1      1300 7.85396E-01
 -1      1301 8.14331E-01
 -1      1302 7.36709E-01
 -1      1303 7.35558E-01
 -1      1304 7.57701E-01
 -1      1305 7.89507E-01
 -1      1306 7.59566E-01
 -1      1307 7.59566E-01
 -1      1308 8.70253E-01
 -1      1309 8.24996E-01
 -1      1310 8.17912E-01
 -1      1311 1.00551E+00
 -1      1312 9.28631E-01
 -1      1313 9.11780E-01
 -1      1314 1.22960E+00
 -1      1315 1.10211E+00
 -1      1316 1.06676E+00
 -1      1317 1.66216E+00
 -1      1318 1.40669E+00
 -1      1319 1.34045E+00
 -1      1320 2.85629E+00
 -1      1321 2.02676E+00
 -1      1322 1.88214E+00
 -1      1323 6.25127E+00
 -1      1324 3.68257E+00
 -1      1325 3.07301E+00
 -1      1326 1.40272E+01
 -1      1327 1.13152E+01
 -1      1328 8.96326E+00
 -1      1329 1.40272E+01
 -1      1330 8.73652E+00
 -1      1331 4.34341E+00
 -1      1332 3.85243E+00
 -1      1333 3.36144E+00
 -1      1334 3.85243E+00
 -1      1335 2.74680E+00
 -1      1336 2.13216E+00
 -1      1337 2.74680E+00
 -1      1338 1.79515E+00
 -1      1339 1.43687E+00
 -1      1340 1.79515E+00
 -1      1341 1.25289E+00
 -1      1342 1.09018E+00
 -1      1343 1.27416E+00
 -1      1344 9.77223E-01
 -1      1345 8.64270E-01
 -1      1346 9.77223E-01
 -1      1347 7.80276E-01
 -1      1348 6.96282E-01
 -1      1349 7.80276E-01
 -1      1350 6.30270E-01
 -1      1351 5.64257E-01
 -1      1352 6.30270E-01
 -1      1353 5.09614E-01
 -1      1354 4.54971E-01
 -1      1355 5.09614E-01
 -1      1356 4.35584E-01
 -1      1357 4.29350E-01
 -1      1358 4.35584E-01
 -1      1359 4.42502E-01
 -1      1360 4.53182E-01
 -1      1361 4.29350E-01
 -1      1362 4.63862E-01
 -1      1363 4.67307E-01
 -1      1364 4.53182E-01
 -1      1365 4.70752E-01
 -1      1366 5.24515E-01
 -1      1367 4.67307E-01
 -1      1368 5.78279E-01
 -1      1369 6.44631E-01
 -1      1370 5.24515E-01
 -1      1371 7.10983E-01
 -1      1372 7.58274E-01
 -1      1373 6.44631E-01
 -1      1374 8.05564E-01
 -1      1375 8.11195E-01
 -1      1376 7.58274E-01
 -1      1377 8.16825E-01
 -1      1378 8.26711E-01
 -1      1379 8.11195E-01
 -1      1380 8.36597E-01
 -1      1381 8.41037E-01
 -1      1382 8.26711E-01
 -1      1383 8.45476E-01
 -1      1384 9.30137E-01
 -1      1385 8.41037E-01
 -1      1386 1.01480E+00
 -1      1387 1.14269E+00
 -1      1388 9.30137E-01
 -1      1389 1.32885E+00
 -1      1390 1.74134E+00
 -1      1391 1.20096E+00
 -1      1392 2.09556E+00
 -1      1393 2.43310E+00
 -1      1394 1.74134E+00
 -1      1395 2.77064E+00
 -1      1396 2.83095E+00
 -1      1397 2.43310E+00
 -1      1398 2.89126E+00
 -1      1399 2.90913E+00
 -1      1400 2.83095E+00
 -1      1401 2.92700E+00
 -1      1402 2.92700E+00
 -1      1403 2.90913E+00
 -1      1404 2.75636E+00
 -1      1405 2.58572E+00
 -1      1406 2.75636E+00
 -1      1407 2.18478E+00
 -1      1408 1.78385E+00
 -1      1409 2.18478E+00
 -1      1410 1.49642E+00
 -1      1411 1.20899E+00
 -1      1412 1.49642E+00
 -1      1413 1.05372E+00
 -1      1414 8.98454E-01
 -1      1415 1.05372E+00
 -1      1416 8.81532E-01
 -1      1417 8.64610E-01
 -1      1418 8.81532E-01
 -1      1419 8.33395E-01
 -1      1420 8.03521E-01
 -1      1421 8.33395E-01
 -1      1422 8.04863E-01
 -1      1423 8.04863E-01
 -1      1424 8.03521E-01
 -1      1425 7.81182E-01
 -1      1426 7.57501E-01
 -1      1427 7.81182E-01
 -1      1428 7.02629E-01
 -1      1429 6.47758E-01
 -1      1430 7.02629E-01
 -1      1431 5.90982E-01
 -1      1432 5.25033E-01
 -1      1433 5.90982E-01
 -1      1434 4.84273E-01
 -1      1435 4.31664E-01
 -1      1436 4.93446E-01
 -1      1437 3.95836E-01
 -1      1438 3.61423E-01
 -1      1439 4.16858E-01
 -1      1440 3.23327E-01
 -1      1441 2.98987E-01
 -1      1442 3.42934E-01
 -1      1443 2.67055E-01
 -1      1444 2.40974E-01
 -1      1445 2.72906E-01
 -1      1446 2.16026E-01
 -1      1447 1.91078E-01
 -1      1448 2.16026E-01
 -1      1449 1.70326E-01
 -1      1450 1.48086E-01
 -1      1451 1.70326E-01
 -1      1452 1.31111E-01
 -1      1453 1.12238E-01
 -1      1454 1.32599E-01
 -1      1455 9.77917E-02
 -1      1456 8.64722E-02
 -1      1457 1.01177E-01
 -1      1458 7.89834E-02
 -1      1459 7.17528E-02
 -1      1460 7.92416E-02
 -1      1461 6.44966E-02
 -1      1462 5.72405E-02
 -1      1463 6.44966E-02
 -1      1464 4.99582E-02
 -1      1465 4.26760E-02
 -1      1466 4.99582E-02
 -1      1467 3.51242E-02
 -1      1468 2.74618E-02
 -1      1469 3.51242E-02
 -1      1470 2.16342E-02
 -1      1471 1.54422E-02
 -1      1472 2.17448E-02
 -1      1473 9.89479E-03
 -1      1474 1.03699E-02
 -1      1475 3.42434E+00
 -1      1476 8.72579E+00
 -1      1477 8.72579E+00
 -1      1478 2.44332E+00
 -1      1479 2.93383E+00
 -1      1480 2.93383E+00
 -1      1481 1.69988E+00
 -1      1482 2.07160E+00
 -1      1483 2.07160E+00
 -1      1484 1.20532E+00
 -1      1485 1.45260E+00
 -1      1486 1.45260E+00
 -1      1487 1.01165E+00
 -1      1488 1.10849E+00
 -1      1489 1.10849E+00
 -1      1490 8.66457E-01
 -1      1491 9.39053E-01
 -1      1492 9.39053E-01
 -1      1493 7.58803E-01
 -1      1494 8.12630E-01
 -1      1495 8.12630E-01
 -1      1496 6.81322E-01
 -1      1497 7.20062E-01
 -1      1498 7.20062E-01
 -1      1499 6.29462E-01
 -1      1500 6.55392E-01
 -1      1501 6.55392E-01
 -1      1502 5.98723E-01
 -1      1503 6.14092E-01
 -1      1504 6.14092E-01
 -1      1505 6.25279E-01
 -1      1506 5.90680E-01
 -1      1507 5.90680E-01
 -1      1508 7.23065E-01
 -1      1509 6.67921E-01
 -1      1510 6.25279E-01
 -1      1511 8.34223E-01
 -1      1512 7.78208E-01
 -1      1513 7.23065E-01
 -1      1514 9.34590E-01
 -1      1515 8.90237E-01
 -1      1516 8.34223E-01
 -1      1517 9.92175E-01
 -1      1518 9.78942E-01
 -1      1519 9.34590E-01
 -1      1520 1.18921E+00
 -1      1521 1.05799E+00
 -1      1522 1.04475E+00
 -1      1523 1.47501E+00
 -1      1524 1.29845E+00
 -1      1525 1.21981E+00
 -1      1526 1.71484E+00
 -1      1527 1.62096E+00
 -1      1528 1.47501E+00
 -1      1529 1.98281E+00
 -1      1530 1.80872E+00
 -1      1531 1.71484E+00
 -1      1532 2.17386E+00
 -1      1533 2.15690E+00
 -1      1534 1.98281E+00
 -1      1535 2.47641E+00
 -1      1536 2.19082E+00
 -1      1537 2.17386E+00
 -1      1538 3.39281E+00
 -1      1539 2.76199E+00
 -1      1540 2.47641E+00
 -1      1541 4.61768E+00
 -1      1542 4.02363E+00
 -1      1543 3.39281E+00
 -1      1544 5.55886E+00
 -1      1545 5.21173E+00
 -1      1546 4.61768E+00
 -1      1547 5.90599E+00
 -1      1548 5.90599E+00
 -1      1549 5.55886E+00
 -1      1550 4.75415E+00
 -1      1551 5.33007E+00
 -1      1552 5.33007E+00
 -1      1553 2.45245E+00
 -1      1554 3.60330E+00
 -1      1555 3.60330E+00
 -1      1556 1.61862E+00
 -1      1557 1.97321E+00
 -1      1558 1.97321E+00
 -1      1559 1.88616E+00
 -1      1560 1.74327E+00
 -1      1561 1.61862E+00
 -1      1562 2.04558E+00
 -1      1563 2.02904E+00
 -1      1564 1.88616E+00
 -1      1565 2.06213E+00
 -1      1566 2.06213E+00
 -1      1567 2.04558E+00
 -1      1568 1.83128E+00
 -1      1569 1.94671E+00
 -1      1570 1.94671E+00
 -1      1571 1.53116E+00
 -1      1572 1.68122E+00
 -1      1573 1.68122E+00
 -1      1574 1.25716E+00
 -1      1575 1.39639E+00
 -1      1576 1.39639E+00
 -1      1577 9.98706E-01
 -1      1578 1.13482E+00
 -1      1579 1.13927E+00
 -1      1580 7.64612E-01
 -1      1581 8.84688E-01
 -1      1582 9.02914E-01
 -1      1583 5.67182E-01
 -1      1584 6.66526E-01
 -1      1585 6.90810E-01
 -1      1586 4.16252E-01
 -1      1587 4.87164E-01
 -1      1588 5.12707E-01
 -1      1589 3.07935E-01
 -1      1590 3.55659E-01
 -1      1591 3.72096E-01
 -1      1592 2.26882E-01
 -1      1593 2.65624E-01
 -1      1594 2.69192E-01
 -1      1595 1.65589E-01
 -1      1596 1.96235E-01
 -1      1597 1.96235E-01
 -1      1598 1.19210E-01
 -1      1599 1.42977E-01
 -1      1600 1.42977E-01
 -1      1601 8.37581E-02
 -1      1602 1.01909E-01
 -1      1603 1.03063E-01
 -1      1604 5.70039E-02
 -1      1605 7.05144E-02
 -1      1606 7.25183E-02
 -1      1607 4.48175E-02
 -1      1608 4.97753E-02
 -1      1609 5.20460E-02
 -1      1610 3.45461E-02
 -1      1611 3.96818E-02
 -1      1612 3.96818E-02
 -1      1613 2.29410E-02
 -1      1614 2.87435E-02
 -1      1615 2.87435E-02
 -1      1616 1.45612E-02
 -1      1617 1.87511E-02
 -1      1618 1.87511E-02
 -1      1619 9.77275E-03
 -1      1620 6.38358E-03
 -1      1621 6.39226E-03
 -1      1622 7.07571E-03
 -1      1623 7.07571E-03
 -1      1624 8.49236E-03
 -1      1625 6.65438E-03
 -1      1626 7.07571E-03
 -1      1627 9.18449E-03
 -1      1628 4.22169E-03
 -1      1629 5.26510E-03
 -1      1630 7.79521E-03
 -1      1631 4.54528E-03
 -1      1632 4.08230E-03
 -1      1633 6.26654E-03
 -1      1634 6.55762E-03
 -1      1635 5.92113E-03
 -1      1636 7.50300E-03
 -1      1637 7.35645E-03
 -1      1638 7.12883E-03
 -1      1639 9.45006E-03
 -1      1640 7.35645E-03
 -1      1641 7.35645E-03
 -1      1642 1.00213E-02
 -1      1643 7.12436E-03
 -1      1644 7.34222E-03
 -1      1645 1.00070E-02
 -1      1646 5.87713E-03
 -1      1647 6.52213E-03
 -1      1648 9.39058E-03
 -1      1649 3.98031E-03
 -1      1650 4.56114E-03
 -1      1651 7.47236E-03
 -1      1652 4.97323E-03
 -1      1653 3.91086E-03
 -1      1654 6.08692E-03
 -1      1655 6.76967E-03
 -1      1656 6.43412E-03
 -1      1657 7.47835E-03
 -1      1658 6.76967E-03
 -1      1659 6.76967E-03
 -1      1660 8.93923E-03
 -1      1661 6.77237E-03
 -1      1662 6.66119E-03
 -1      1663 8.83075E-03
 -1      1664 1.23198E-02
 -1      1665 2.70611E+01
 -1      1666 2.66581E+01
 -1      1667 3.20517E+01
 -1      1668 2.83798E+01
 -1      1669 3.20517E+01
 -1      1670 3.20517E+01
 -1      1671 2.51078E+01
 -1      1672 2.89283E+01
 -1      1673 1.23023E+01
 -1      1674 1.83001E+01
 -1      1675 1.24882E+01
 -1      1676 1.22022E+01
 -1      1677 1.28742E+01
 -1      1678 1.28742E+01
 -1      1679 1.21759E+01
 -1      1680 1.23444E+01
 -1      1681 1.25372E+01
 -1      1682 1.25372E+01
 -1      1683 1.22689E+01
 -1      1684 1.21448E+01
 -1      1685 1.99954E+01
 -1      1686 1.27854E+01
 -1      1687 2.86093E+01
 -1      1688 2.76453E+01
 -1      1689 3.08740E+01
 -1      1690 3.08740E+01
 -1      1691 2.94291E+01
 -1      1692 3.08740E+01
 -1      1693 2.74232E+01
 -1      1694 2.77273E+01
 -1      1695 2.74232E+01
 -1      1696 2.74232E+01
 -1      1697 3.99897E+01
 -1      1698 3.12395E+01
 -1      1699 4.31356E+01
 -1      1700 4.31356E+01
 -1      1701 1.65514E+01
 -1      1702 3.00644E+01
 -1      1703 1.10539E+01
 -1      1704 1.32288E+01
 -1      1705 1.20261E+01
 -1      1706 1.17598E+01
 -1      1707 1.22925E+01
 -1      1708 1.22925E+01
 -1      1709 1.23097E+01
 -1      1710 1.21093E+01
 -1      1711 1.26933E+01
 -1      1712 1.26933E+01
 -1      1713 1.16785E+01
 -1      1714 1.21859E+01
 -1      1715 1.72220E+01
 -1      1716 1.14712E+01
 -1      1717 3.74022E+01
 -1      1718 2.44443E+01
 -1      1719 4.90959E+01
 -1      1720 4.90959E+01
 -1      1721 2.75599E+01
 -1      1722 3.99486E+01
 -1      1723 2.66581E+01
 -1      1724 2.69228E+01
 -1      1725 1.91100E+01
 -1      1726 2.90411E+01
 -1      1727 9.77275E-03
 -1      1728 1.11807E-02
 -1      1729 3.08458E+01
 -1      1730 3.21645E+01
 -1      1731 2.95272E+01
 -1      1732 1.22022E+01
 -1      1733 1.24882E+01
 -1      1734 1.23444E+01
 -1      1735 1.21759E+01
 -1      1736 1.21448E+01
 -1      1737 1.22689E+01
 -1      1738 2.04353E+01
 -1      1739 3.03500E+01
 -1      1740 3.26148E+01
 -1      1741 3.09130E+01
 -1      1742 2.92112E+01
 -1      1743 3.30275E+01
 -1      1744 3.99897E+01
 -1      1745 3.00644E+01
 -1      1746 1.36706E+01
 -1      1747 1.10539E+01
 -1      1748 1.20261E+01
 -1      1749 1.21093E+01
 -1      1750 1.23097E+01
 -1      1751 1.21859E+01
 -1      1752 1.14712E+01
 -1      1753 1.84862E+01
 -1      1754 3.74022E+01
 -1      1755 3.99486E+01
 -1      1756 3.01642E+01
 -1      1757 9.57740E+00
 -1      1758 1.26294E+00
 -1      1759 1.64815E+00
 -1      1760 2.35619E+00
 -1      1761 4.23408E+00
 -1      1762 1.73493E+00
 -1      1763 8.72851E-01
 -1      1764 9.66081E-01
 -1      1765 7.66989E-01
 -1      1766 8.23113E-01
 -1      1767 7.33747E-01
 -1      1768 6.98897E-01
 -1      1769 7.34535E-01
 -1      1770 6.51555E-01
 -1      1771 6.54626E-01
 -1      1772 6.75618E-01
 -1      1773 5.95822E-01
 -1      1774 6.79248E-01
 -1      1775 6.56391E-01
 -1      1776 5.74309E-01
 -1      1777 7.37742E-01
 -1      1778 7.02252E-01
 -1      1779 5.99078E-01
 -1      1780 8.30706E-01
 -1      1781 7.72327E-01
 -1      1782 6.56668E-01
 -1      1783 9.75855E-01
 -1      1784 8.79258E-01
 -1      1785 7.39805E-01
 -1      1786 1.22113E+00
 -1      1787 1.04403E+00
 -1      1788 8.56536E-01
 -1      1789 1.69268E+00
 -1      1790 1.32808E+00
 -1      1791 1.03167E+00
 -1      1792 2.60048E+00
 -1      1793 1.77421E+00
 -1      1794 1.22016E+00
 -1      1795 8.10706E+00
 -1      1796 3.04308E+00
 -1      1797 1.74428E+00
 -1      1798 2.80561E+00
 -1      1799 5.18430E+00
 -1      1800 2.16790E+00
 -1      1801 2.65840E+00
 -1      1802 2.03968E+00
 -1      1803 3.39319E+00
 -1      1804 2.54882E+00
 -1      1805 1.93418E+00
 -1      1806 1.70044E+00
 -1      1807 1.36343E+00
 -1      1808 1.50246E+00
 -1      1809 1.17896E+00
 -1      1810 9.94977E-01
 -1      1811 1.08425E+00
 -1      1812 8.91819E-01
 -1      1813 7.78866E-01
 -1      1814 7.96619E-01
 -1      1815 7.26200E-01
 -1      1816 6.42206E-01
 -1      1817 6.40795E-01
 -1      1818 5.92992E-01
 -1      1819 5.26980E-01
 -1      1820 5.38916E-01
 -1      1821 4.80693E-01
 -1      1822 4.26050E-01
 -1      1823 4.43416E-01
 -1      1824 3.84044E-01
 -1      1825 3.64657E-01
 -1      1826 3.55124E-01
 -1      1827 3.79232E-01
 -1      1828 3.92384E-01
 -1      1829 3.27691E-01
 -1      1830 4.03803E-01
 -1      1831 4.14484E-01
 -1      1832 3.53685E-01
 -1      1833 4.20123E-01
 -1      1834 4.23568E-01
 -1      1835 3.70744E-01
 -1      1836 4.59365E-01
 -1      1837 5.13128E-01
 -1      1838 4.12180E-01
 -1      1839 5.57943E-01
 -1      1840 6.24295E-01
 -1      1841 4.92792E-01
 -1      1842 6.50741E-01
 -1      1843 6.98031E-01
 -1      1844 5.64053E-01
 -1      1845 6.91224E-01
 -1      1846 6.96855E-01
 -1      1847 5.83691E-01
 -1      1848 6.38459E-01
 -1      1849 6.48345E-01
 -1      1850 5.18489E-01
 -1      1851 6.20170E-01
 -1      1852 6.24610E-01
 -1      1853 4.31918E-01
 -1      1854 7.15375E-01
 -1      1855 8.00036E-01
 -1      1856 4.94508E-01
 -1      1857 1.01646E+00
 -1      1858 1.20262E+00
 -1      1859 8.01701E-01
 -1      1860 1.37408E+00
 -1      1861 1.72830E+00
 -1      1862 1.18959E+00
 -1      1863 1.92288E+00
 -1      1864 2.26042E+00
 -1      1865 1.55562E+00
 -1      1866 2.33179E+00
 -1      1867 2.39210E+00
 -1      1868 1.82157E+00
 -1      1869 2.35748E+00
 -1      1870 2.37535E+00
 -1      1871 1.85833E+00
 -1      1872 2.40459E+00
 -1      1873 2.23395E+00
 -1      1874 1.85294E+00
 -1      1875 2.10785E+00
 -1      1876 1.70692E+00
 -1      1877 1.75608E+00
 -1      1878 1.52433E+00
 -1      1879 1.23690E+00
 -1      1880 1.44740E+00
 -1      1881 1.03469E+00
 -1      1882 8.79422E-01
 -1      1883 1.06260E+00
 -1      1884 6.87687E-01
 -1      1885 6.70765E-01
 -1      1886 6.68655E-01
 -1      1887 6.43588E-01
 -1      1888 6.12373E-01
 -1      1889 4.49743E-01
 -1      1890 6.56489E-01
 -1      1891 6.57831E-01
 -1      1892 4.66682E-01
 -1      1893 6.97308E-01
 -1      1894 6.73627E-01
 -1      1895 5.50276E-01
 -1      1896 6.69683E-01
 -1      1897 6.14812E-01
 -1      1898 5.85809E-01
 -1      1899 5.85154E-01
 -1      1900 5.28378E-01
 -1      1901 5.52208E-01
 -1      1902 4.99869E-01
 -1      1903 4.59109E-01
 -1      1904 4.94041E-01
 -1      1905 4.32225E-01
 -1      1906 3.96397E-01
 -1      1907 4.38648E-01
 -1      1908 3.65019E-01
 -1      1909 3.26923E-01
 -1      1910 3.80386E-01
 -1      1911 2.93874E-01
 -1      1912 2.61943E-01
 -1      1913 3.15960E-01
 -1      1914 2.30743E-01
 -1      1915 2.05795E-01
 -1      1916 2.51711E-01
 -1      1917 1.78369E-01
 -1      1918 1.57617E-01
 -1      1919 1.93086E-01
 -1      1920 1.34751E-01
 -1      1921 1.17776E-01
 -1      1922 1.42794E-01
 -1      1923 1.01177E-01
 -1      1924 8.67305E-02
 -1      1925 1.03329E-01
 -1      1926 7.48480E-02
 -1      1927 6.73591E-02
 -1      1928 7.48480E-02
 -1      1929 5.86912E-02
 -1      1930 5.14351E-02
 -1      1931 5.42976E-02
 -1      1932 4.50076E-02
 -1      1933 3.77253E-02
 -1      1934 3.92021E-02
 -1      1935 3.31276E-02
 -1      1936 2.55758E-02
 -1      1937 2.81769E-02
 -1      1938 2.14462E-02
 -1      1939 1.56187E-02
 -1      1940 1.20212E-02
 -1      1941 1.94496E-02
 -1      1942 1.42364E+00
 -1      1943 1.79536E+00
 -1      1944 1.51993E+00
 -1      1945 1.04498E+00
 -1      1946 1.29226E+00
 -1      1947 1.01601E+00
 -1      1948 8.48162E-01
 -1      1949 9.45000E-01
 -1      1950 7.84657E-01
 -1      1951 7.16855E-01
 -1      1952 7.89451E-01
 -1      1953 6.25964E-01
 -1      1954 6.44247E-01
 -1      1955 6.98074E-01
 -1      1956 5.48472E-01
 -1      1957 5.87571E-01
 -1      1958 6.26311E-01
 -1      1959 5.11755E-01
 -1      1960 5.46263E-01
 -1      1961 5.72193E-01
 -1      1962 4.78442E-01
 -1      1963 5.18559E-01
 -1      1964 5.33928E-01
 -1      1965 4.50730E-01
 -1      1966 5.34772E-01
 -1      1967 5.42814E-01
 -1      1968 4.62650E-01
 -1      1969 6.65230E-01
 -1      1970 6.22588E-01
 -1      1971 5.74722E-01
 -1      1972 8.31515E-01
 -1      1973 7.76371E-01
 -1      1974 7.73680E-01
 -1      1975 1.00133E+00
 -1      1976 9.45314E-01
 -1      1977 9.98620E-01
 -1      1978 1.14615E+00
 -1      1979 1.10180E+00
 -1      1980 1.21289E+00
 -1      1981 1.29709E+00
 -1      1982 1.23128E+00
 -1      1983 1.39849E+00
 -1      1984 1.44444E+00
 -1      1985 1.33519E+00
 -1      1986 1.52172E+00
 -1      1987 1.60374E+00
 -1      1988 1.45779E+00
 -1      1989 1.57317E+00
 -1      1990 1.63184E+00
 -1      1991 1.53796E+00
 -1      1992 1.52074E+00
 -1      1993 1.77808E+00
 -1      1994 1.60399E+00
 -1      1995 1.42711E+00
 -1      1996 1.89525E+00
 -1      1997 1.87829E+00
 -1      1998 1.49947E+00
 -1      1999 2.62325E+00
 -1      2000 2.33766E+00
 -1      2001 2.04209E+00
 -1      2002 3.63939E+00
 -1      2003 3.00857E+00
 -1      2004 2.86983E+00
 -1      2005 4.39769E+00
 -1      2006 3.80364E+00
 -1      2007 3.41940E+00
 -1      2008 4.50042E+00
 -1      2009 4.15329E+00
 -1      2010 3.33925E+00
 -1      2011 3.82848E+00
 -1      2012 4.40440E+00
 -1      2013 2.99883E+00
 -1      2014 2.11633E+00
 -1      2015 3.26718E+00
 -1      2016 2.34151E+00
 -1      2017 1.43442E+00
 -1      2018 1.91366E+00
 -1      2019 1.57754E+00
 -1      2020 1.59279E+00
 -1      2021 1.46814E+00
 -1      2022 1.40858E+00
 -1      2023 1.80440E+00
 -1      2024 1.66152E+00
 -1      2025 1.51103E+00
 -1      2026 1.81230E+00
 -1      2027 1.79575E+00
 -1      2028 1.57111E+00
 -1      2029 1.66769E+00
 -1      2030 1.78311E+00
 -1      2031 1.53327E+00
 -1      2032 1.43898E+00
 -1      2033 1.58904E+00
 -1      2034 1.42544E+00
 -1      2035 1.20999E+00
 -1      2036 1.34476E+00
 -1      2037 1.25258E+00
 -1      2038 9.83892E-01
 -1      2039 1.10623E+00
 -1      2040 1.05460E+00
 -1      2041 7.70543E-01
 -1      2042 8.84561E-01
 -1      2043 8.51521E-01
 -1      2044 5.84366E-01
 -1      2045 6.82452E-01
 -1      2046 6.64099E-01
 -1      2047 4.30870E-01
 -1      2048 5.10888E-01
 -1      2049 5.02530E-01
 -1      2050 3.11503E-01
 -1      2051 3.72096E-01
 -1      2052 3.70277E-01
 -1      2053 2.24222E-01
 -1      2054 2.66533E-01
 -1      2055 2.66533E-01
 -1      2056 1.65287E-01
 -1      2057 1.95933E-01
 -1      2058 1.93273E-01
 -1      2059 1.20364E-01
 -1      2060 1.42977E-01
 -1      2061 1.42674E-01
 -1      2062 8.57621E-02
 -1      2063 1.03063E-01
 -1      2064 1.03063E-01
 -1      2065 5.92746E-02
 -1      2066 7.25183E-02
 -1      2067 7.25183E-02
 -1      2068 4.19883E-02
 -1      2069 4.92169E-02
 -1      2070 4.92169E-02
 -1      2071 3.01032E-02
 -1      2072 3.52389E-02
 -1      2073 3.24097E-02
 -1      2074 1.99612E-02
 -1      2075 2.57638E-02
 -1      2076 2.13209E-02
 -1      2077 1.15139E-02
 -1      2078 1.57038E-02
 -1      2079 1.27240E-02
 -1      2080 8.13338E-03
 -1      2081 8.93645E-03
 -1      2082 1.03257E-02
 -1      2083 1.16032E-02
 -1      2084 1.16032E-02
 -1      2085 1.27444E-02
 -1      2086 1.16032E-02
 -1      2087 1.09111E-02
 -1      2088 1.12442E-02
 -1      2089 1.40219E-02
 -1      2090 7.59247E-03
 -1      2091 7.73185E-03
 -1      2092 1.02624E-02
 -1      2093 1.11123E-02
 -1      2094 9.73649E-03
 -1      2095 1.12018E-02
 -1      2096 1.27418E-02
 -1      2097 1.21706E-02
 -1      2098 1.44040E-02
 -1      2099 1.27418E-02
 -1      2100 1.27418E-02
 -1      2101 1.54623E-02
 -1      2102 1.26214E-02
 -1      2103 1.26356E-02
 -1      2104 1.53561E-02
 -1      2105 1.20192E-02
 -1      2106 1.26214E-02
 -1      2107 1.52500E-02
 -1      2108 9.64018E-03
 -1      2109 1.09562E-02
 -1      2110 1.41870E-02
 -1      2111 7.40190E-03
 -1      2112 7.47135E-03
 -1      2113 1.09552E-02
 -1      2114 9.92200E-03
 -1      2115 8.46112E-03
 -1      2116 9.84555E-03
 -1      2117 1.12467E-02
 -1      2118 1.12467E-02
 -1      2119 1.22295E-02
 -1      2120 3.21645E+01
 -1      2121 3.21645E+01
 -1      2122 3.08229E+01
 -1      2123 3.08229E+01
 -1      2124 3.21416E+01
 -1      2125 3.08229E+01
 -1      2126 2.22178E+01
 -1      2127 2.53412E+01
 -1      2128 1.16001E+01
 -1      2129 1.84078E+01
 -1      2130 1.03079E+00
 -1      2131 1.20595E+00
 -1      2132 9.69896E-01
 -1      2133 8.48195E-01
 -1      2134 1.11608E+01
 -1      2135 1.07748E+01
 -1      2136 1.12537E+01
 -1      2137 1.17835E+01
 -1      2138 1.14271E+01
 -1      2139 1.10658E+01
 -1      2140 1.05050E+01
 -1      2141 1.05614E+01
 -1      2142 1.09538E+01
 -1      2143 1.01922E+01
 -1      2144 9.67566E+00
 -1      2145 8.48468E+00
 -1      2146 1.95131E+01
 -1      2147 1.18632E+01
 -1      2148 2.59728E+01
 -1      2149 2.37080E+01
 -1      2150 1.51359E+01
 -1      2151 3.26148E+01
 -1      2152 3.26148E+01
 -1      2153 3.23371E+01
 -1      2154 3.40390E+01
 -1      2155 3.23371E+01
 -1      2156 3.23371E+01
 -1      2157 3.24101E+01
 -1      2158 2.85938E+01
 -1      2159 3.41471E+01
 -1      2160 3.10012E+01
 -1      2161 1.58891E+01
 -1      2162 2.89603E+01
 -1      2163 9.31772E+00
 -1      2164 1.26403E+01
 -1      2165 9.59759E+00
 -1      2166 8.89165E+00
 -1      2167 1.09267E+01
 -1      2168 1.06604E+01
 -1      2169 1.14988E+01
 -1      2170 1.16819E+01
 -1      2171 1.18084E+01
 -1      2172 1.14248E+01
 -1      2173 1.04341E+01
 -1      2174 1.09415E+01
 -1      2175 9.19026E+00
 -1      2176 9.39758E+00
 -1      2177 1.81945E+01
 -1      2178 1.09722E+01
 -1      2179 3.35767E+01
 -1      2180 2.18831E+01
 -1      2181 3.08013E+01
 -1      2182 3.99486E+01
 -1      2183 2.97941E+01
 -1      2184 3.04312E+01
 -1      2185 9.89216E+00
 -1      2186 9.99221E+00
 -1      2187 1.47079E+01
 -1      2188 2.90221E+00
 -1      2189 9.29002E+00
 -1      2190 8.56476E+00
 -1      2191 2.08959E+00
 -1      2192 3.21416E+01
 -1      2193 3.21187E+01
 -1      2194 1.11382E-02
 -1      2195 2.53412E+01
 -1      2196 3.10899E+01
 -1      2197 3.04312E+01
 -1      2198 2.44294E+01
 -1      2199 1.43690E+01
 -1      2200 8.89852E+00
 -1      2201 8.15318E+00
 -1      2202 1.00566E+01
 -1      2203 1.09975E+01
 -1      2204 1.03162E+01
 -1      2205 8.49820E+00
 -1      2206 7.86144E+00
 -1      2207 1.15362E+01
 -1      2208 1.99718E+01
 -1      2209 2.65675E+01
 -1      2210 3.17197E+01
 -1      2211 3.54631E+01
 -1      2212 2.59728E+01
 -1      2213 9.75821E+00
 -1      2214 7.16499E+00
 -1      2215 8.83599E+00
 -1      2216 9.84372E+00
 -1      2217 1.00701E+01
 -1      2218 3.40390E+01
 -1      2219 1.09860E+00
 -1      2220 1.47114E+00
 -1      2221 5.47950E-01
 -1      2222 5.80404E-01
 -1      2223 5.93967E-01
 -1      2224 6.43706E-01
 -1      2225 4.90362E-01
 -1      2226 4.95974E-01
 -1      2227 4.94209E-01
 -1      2228 5.33381E-01
 -1      2229 5.10377E-01
 -1      2230 4.30277E-01
 -1      2231 5.84494E-01
 -1      2232 5.49908E-01
 -1      2233 4.61207E-01
 -1      2234 6.46804E-01
 -1      2235 5.98252E-01
 -1      2236 4.91492E-01
 -1      2237 7.14982E-01
 -1      2238 6.46804E-01
 -1      2239 5.05250E-01
 -1      2240 8.66643E-01
 -1      2241 7.59687E-01
 -1      2242 5.49955E-01
 -1      2243 8.84638E-01
 -1      2244 1.01601E+00
 -1      2245 9.67225E-01
 -1      2246 1.25667E+00
 -1      2247 1.02293E+00
 -1      2248 6.85373E+00
 -1      2249 8.46157E+00
 -1      2250 9.77849E-01
 -1      2251 7.93376E-01
 -1      2252 7.32057E-01
 -1      2253 7.27847E-01
 -1      2254 6.24690E-01
 -1      2255 6.21446E-01
 -1      2256 5.58051E-01
 -1      2257 5.05384E-01
 -1      2258 4.89279E-01
 -1      2259 4.80637E-01
 -1      2260 4.31424E-01
 -1      2261 3.97893E-01
 -1      2262 4.00012E-01
 -1      2263 3.53725E-01
 -1      2264 3.41733E-01
 -1      2265 3.18034E-01
 -1      2266 2.76028E-01
 -1      2267 2.74630E-01
 -1      2268 2.71117E-01
 -1      2269 2.85692E-01
 -1      2270 2.34028E-01
 -1      2271 2.98632E-01
 -1      2272 3.10052E-01
 -1      2273 2.42058E-01
 -1      2274 3.39737E-01
 -1      2275 3.45377E-01
 -1      2276 2.84684E-01
 -1      2277 3.82303E-01
 -1      2278 4.18100E-01
 -1      2279 3.51296E-01
 -1      2280 4.49927E-01
 -1      2281 4.94741E-01
 -1      2282 4.20049E-01
 -1      2283 5.23581E-01
 -1      2284 5.50027E-01
 -1      2285 4.80716E-01
 -1      2286 5.73140E-01
 -1      2287 5.66332E-01
 -1      2288 5.32668E-01
 -1      2289 5.64519E-01
 -1      2290 5.06123E-01
 -1      2291 5.53967E-01
 -1      2292 5.67856E-01
 -1      2293 5.39681E-01
 -1      2294 6.13887E-01
 -1      2295 5.83323E-01
 -1      2296 6.74088E-01
 -1      2297 7.19262E-01
 -1      2298 7.73144E-01
 -1      2299 9.89572E-01
 -1      2300 8.61959E-01
 -1      2301 1.08418E+00
 -1      2302 1.25564E+00
 -1      2303 1.05562E+00
 -1      2304 1.35546E+00
 -1      2305 1.55004E+00
 -1      2306 1.25005E+00
 -1      2307 1.69898E+00
 -1      2308 1.77036E+00
 -1      2309 1.49882E+00
 -1      2310 1.74546E+00
 -1      2311 1.71084E+00
 -1      2312 1.62287E+00
 -1      2313 1.76259E+00
 -1      2314 1.79182E+00
 -1      2315 1.64972E+00
 -1      2316 1.70184E+00
 -1      2317 1.57574E+00
 -1      2318 1.61148E+00
 -1      2319 1.45493E+00
 -1      2320 1.27234E+00
 -1      2321 1.40069E+00
 -1      2322 1.18266E+00
 -1      2323 9.80455E-01
 -1      2324 1.19020E+00
 -1      2325 8.52008E-01
 -1      2326 6.60272E-01
 -1      2327 9.72072E-01
 -1      2328 6.11358E-01
 -1      2329 5.84182E-01
 -1      2330 7.94711E-01
 -1      2331 5.25266E-01
 -1      2332 5.69382E-01
 -1      2333 6.86882E-01
 -1      2334 5.52161E-01
 -1      2335 5.91639E-01
 -1      2336 6.10745E-01
 -1      2337 5.88286E-01
 -1      2338 5.84342E-01
 -1      2339 5.90171E-01
 -1      2340 5.61336E-01
 -1      2341 5.31678E-01
 -1      2342 5.63813E-01
 -1      2343 5.05994E-01
 -1      2344 4.77485E-01
 -1      2345 5.15123E-01
 -1      2346 4.52130E-01
 -1      2347 4.25246E-01
 -1      2348 4.64083E-01
 -1      2349 3.96136E-01
 -1      2350 3.64758E-01
 -1      2351 4.09618E-01
 -1      2352 3.32830E-01
 -1      2353 2.99781E-01
 -1      2354 3.48580E-01
 -1      2355 2.68659E-01
 -1      2356 2.37459E-01
 -1      2357 2.85528E-01
 -1      2358 2.09283E-01
 -1      2359 1.81856E-01
 -1      2360 2.26230E-01
 -1      2361 1.57661E-01
 -1      2362 1.34796E-01
 -1      2363 1.73858E-01
 -1      2364 1.14869E-01
 -1      2365 9.82701E-02
 -1      2366 1.29736E-01
 -1      2367 8.24390E-02
 -1      2368 7.05565E-02
 -1      2369 9.39787E-02
 -1      2370 5.83927E-02
 -1      2371 4.97248E-02
 -1      2372 6.59837E-02
 -1      2373 4.07213E-02
 -1      2374 3.42938E-02
 -1      2375 4.48164E-02
 -1      2376 2.78421E-02
 -1      2377 2.32444E-02
 -1      2378 2.93613E-02
 -1      2379 5.51148E-01
 -1      2380 6.09859E-01
 -1      2381 4.99575E-01
 -1      2382 5.18357E-01
 -1      2383 5.02252E-01
 -1      2384 4.44565E-01
 -1      2385 4.62501E-01
 -1      2386 4.32385E-01
 -1      2387 3.89562E-01
 -1      2388 4.04939E-01
 -1      2389 3.55685E-01
 -1      2390 3.80897E-01
 -1      2391 3.93232E-01
 -1      2392 3.19729E-01
 -1      2393 4.35070E-01
 -1      2394 4.10815E-01
 -1      2395 3.53317E-01
 -1      2396 6.07664E-01
 -1      2397 5.19848E-01
 -1      2398 4.68012E-01
 -1      2399 8.21249E-01
 -1      2400 7.10108E-01
 -1      2401 6.55234E-01
 -1      2402 1.04668E+00
 -1      2403 9.32881E-01
 -1      2404 8.69310E-01
 -1      2405 1.26036E+00
 -1      2406 1.15989E+00
 -1      2407 1.09415E+00
 -1      2408 1.44530E+00
 -1      2409 1.36017E+00
 -1      2410 1.30717E+00
 -1      2411 1.54730E+00
 -1      2412 1.50920E+00
 -1      2413 1.47088E+00
 -1      2414 1.70551E+00
 -1      2415 1.69216E+00
 -1      2416 1.67965E+00
 -1      2417 1.78297E+00
 -1      2418 1.84875E+00
 -1      2419 1.96775E+00
 -1      2420 1.83721E+00
 -1      2421 1.86507E+00
 -1      2422 2.19308E+00
 -1      2423 2.15257E+00
 -1      2424 2.05236E+00
 -1      2425 2.49031E+00
 -1      2426 2.48824E+00
 -1      2427 2.04583E+00
 -1      2428 2.59872E+00
 -1      2429 4.03885E+00
 -1      2430 3.65353E+00
 -1      2431 3.65726E+00
 -1      2432 5.18745E+00
 -1      2433 5.02319E+00
 -1      2434 5.80689E+00
 -1      2435 4.89262E+00
 -1      2436 5.13702E+00
 -1      2437 6.74081E+00
 -1      2438 2.99883E+00
 -1      2439 3.09485E+00
 -1      2440 4.89262E+00
 -1      2441 2.03818E+00
 -1      2442 2.59948E+00
 -1      2443 2.69550E+00
 -1      2444 1.87940E+00
 -1      2445 2.08206E+00
 -1      2446 2.34004E+00
 -1      2447 1.89969E+00
 -1      2448 1.86598E+00
 -1      2449 2.37051E+00
 -1      2450 1.79614E+00
 -1      2451 1.72740E+00
 -1      2452 2.18480E+00
 -1      2453 1.62111E+00
 -1      2454 1.62976E+00
 -1      2455 1.84613E+00
 -1      2456 1.53403E+00
 -1      2457 1.56321E+00
 -1      2458 1.62186E+00
 -1      2459 1.37288E+00
 -1      2460 1.45153E+00
 -1      2461 1.48146E+00
 -1      2462 1.17844E+00
 -1      2463 1.27266E+00
 -1      2464 1.29874E+00
 -1      2465 9.71889E-01
 -1      2466 1.07564E+00
 -1      2467 1.09573E+00
 -1      2468 7.76402E-01
 -1      2469 8.75733E-01
 -1      2470 8.96771E-01
 -1      2471 6.03500E-01
 -1      2472 6.91590E-01
 -1      2473 7.15803E-01
 -1      2474 4.58235E-01
 -1      2475 5.31713E-01
 -1      2476 5.59204E-01
 -1      2477 3.40545E-01
 -1      2478 3.99320E-01
 -1      2479 4.28503E-01
 -1      2480 2.48391E-01
 -1      2481 2.93362E-01
 -1      2482 3.22404E-01
 -1      2483 1.83085E-01
 -1      2484 2.11374E-01
 -1      2485 2.38203E-01
 -1      2486 1.32274E-01
 -1      2487 1.54584E-01
 -1      2488 1.72685E-01
 -1      2489 9.34365E-02
 -1      2490 1.10738E-01
 -1      2491 1.22647E-01
 -1      2492 6.42494E-02
 -1      2493 7.74932E-02
 -1      2494 8.51676E-02
 -1      2495 4.25046E-02
 -1      2496 5.25623E-02
 -1      2497 5.75371E-02
 -1      2498 3.17528E-02
 -1      2499 3.85022E-02
 -1      2500 4.18477E-02
 -1      2501 1.82190E-02
 -1      2502 2.25584E-02
 -1      2503 2.86510E-02
 -1      2504 1.55017E-02
 -1      2505 1.57816E-02
 -1      2506 1.36376E-02
 -1      2507 1.86115E-02
 -1      2508 1.75533E-02
 -1      2509 1.99891E-02
 -1      2510 1.76048E-02
 -1      2511 1.88823E-02
 -1      2512 1.64002E-02
 -1      2513 1.76048E-02
 -1      2514 2.37427E-02
 -1      2515 2.09800E-02
 -1      2516 1.86712E-02
 -1      2517 1.86712E-02
 -1      2518 2.18204E-02
 -1      2519 1.85650E-02
 -1      2520 1.86712E-02
 -1      2521 2.18801E-02
 -1      2522 1.84792E-02
 -1      2523 1.84792E-02
 -1      2524 2.17942E-02
 -1      2525 1.71804E-02
 -1      2526 1.82433E-02
 -1      2527 2.14725E-02
 -1      2528 1.30978E-02
 -1      2529 1.52666E-02
 -1      2530 1.93230E-02
 -1      2531 1.40774E-02
 -1      2532 1.30182E-02
 -1      2533 1.73297E-02
 -1      2534 1.54021E-02
 -1      2535 1.40774E-02
 -1      2536 1.72501E-02
 -1      2537 3.21187E+01
 -1      2538 3.21187E+01
 -1      2539 1.67813E+01
 -1      2540 2.36046E+01
 -1      2541 6.84675E-01
 -1      2542 7.84657E-01
 -1      2543 6.09859E-01
 -1      2544 1.44371E-02
 -1      2545 3.10899E+01
 -1      2546 3.00611E+01
 -1      2547 3.10899E+01
 -1      2548 2.72400E+01
 -1      2549 2.72171E+01
 -1      2550 1.65012E+00
 -1      2551 1.29674E+00
 -1      2552 8.17205E-01
 -1      2553 9.42080E-01
 -1      2554 2.54277E+01
 -1      2555 2.57978E+01
 -1      2556 5.08530E-01
 -1      2557 5.31808E-01
 -1      2558 4.60657E-01
 -1      2559 4.30195E-01
 -1      2560 9.28173E+00
 -1      2561 8.65897E+00
 -1      2562 2.98125E+01
 -1      2563 2.83883E+01
 -1      2564 9.68862E+00
 -1      2565 9.87653E+00
 -1      2566 8.54598E+00
 -1      2567 9.01932E+00
 -1      2568 8.39088E+00
 -1      2569 6.21077E+00
 -1      2570 7.09646E+00
 -1      2571 1.40636E+01
 -1      2572 9.86874E+00
 -1      2573 2.32841E+01
 -1      2574 1.66420E+01
 -1      2575 1.13749E+01
 -1      2576 3.54631E+01
 -1      2577 3.54631E+01
 -1      2578 2.79763E+01
 -1      2579 3.17197E+01
 -1      2580 2.16431E+01
 -1      2581 2.30519E+01
 -1      2582 1.31880E+01
 -1      2583 1.83749E+01
 -1      2584 7.65963E+00
 -1      2585 1.09083E+01
 -1      2586 9.31143E+00
 -1      2587 6.52348E+00
 -1      2588 6.94954E+00
 -1      2589 7.32036E+00
 -1      2590 6.25753E+00
 -1      2591 9.10561E+00
 -1      2592 8.35041E+00
 -1      2593 9.75701E+00
 -1      2594 9.83100E+00
 -1      2595 8.23697E+00
 -1      2596 9.10384E+00
 -1      2597 5.83127E+00
 -1      2598 6.86783E+00
 -1      2599 8.58712E+00
 -1      2600 6.80522E+00
 -1      2601 5.51987E+00
 -1      2602 1.38395E+01
 -1      2603 1.01509E+01
 -1      2604 2.22913E+01
 -1      2605 1.59194E+01
 -1      2606 7.01944E+00
 -1      2607 6.13684E+00
 -1      2608 5.30840E+00
 -1      2609 1.60081E+00
 -1      2610 1.74802E+00
 -1      2611 1.30542E+00
 -1      2612 1.17949E+00
 -1      2613 1.02670E+01
 -1      2614 1.40770E+01
 -1      2615 6.13153E-01
 -1      2616 7.52933E-01
 -1      2617 8.17642E-01
 -1      2618 7.84657E-01
 -1      2619 1.22389E+00
 -1      2620 7.83068E+00
 -1      2621 2.54277E+01
 -1      2622 1.72878E+01
 -1      2623 1.67393E-02
 -1      2624 1.23404E+01
 -1      2625 1.67393E-02
 -1      2626 8.05763E+00
 -1      2627 2.72171E+01
 -1      2628 1.86801E+01
 -1      2629 5.91507E+00
 -1      2630 9.51910E-01
 -1      2631 8.85087E-01
 -1      2632 7.93739E+00
 -1      2633 7.86517E+00
 -1      2634 6.10974E+00
 -1      2635 6.32167E+00
 -1      2636 1.48593E+01
 -1      2637 2.30519E+01
 -1      2638 2.33130E+01
 -1      2639 1.39822E+01
 -1      2640 1.90865E+01
 -1      2641 2.98125E+01
 -1      2642 6.27207E+00
 -1      2643 7.76373E+00
 -1      2644 8.46538E+00
 -1      2645 5.75833E+00
 -1      2646 4.37011E+00
 -1      2647 5.32432E+00
 -1      2648 1.53200E-02
 -1      2649 1.44371E-02
 -1      2650 1.62851E-02
 -1      2651 1.94496E-02
 -1      2652 2.15997E-02
 -1      2653 3.17197E+01
 -1      2654 5.34564E+00
 -1      2655 1.17013E+01
 -1      2656 1.91148E-02
 -1      2657 6.23105E+00
 -1      2658 4.13527E-01
 -1      2659 3.97000E-01
 -1      2660 3.86253E-01
 -1      2661 3.71850E-01
 -1      2662 3.38573E-01
 -1      2663 4.32386E-01
 -1      2664 4.32386E-01
 -1      2665 4.68534E-01
 -1      2666 4.23829E-01
 -1      2667 3.50965E-01
 -1      2668 7.01953E-01
 -1      2669 7.84539E-01
 -1      2670 7.89826E-01
 -1      2671 2.37254E+01
 -1      2672 1.90920E+01
 -1      2673 5.99220E+00
 -1      2674 4.35266E+00
 -1      2675 1.62094E+01
 -1      2676 1.27028E+01
 -1      2677 5.25886E-01
 -1      2678 4.60358E-01
 -1      2679 4.42879E-01
 -1      2680 3.76239E-01
 -1      2681 3.47319E-01
 -1      2682 3.42915E-01
 -1      2683 3.18167E-01
 -1      2684 2.96514E-01
 -1      2685 2.92162E-01
 -1      2686 2.60750E-01
 -1      2687 2.37185E-01
 -1      2688 2.36119E-01
 -1      2689 2.00428E-01
 -1      2690 1.86548E-01
 -1      2691 1.82452E-01
 -1      2692 1.77541E-01
 -1      2693 1.43941E-01
 -1      2694 2.03435E-01
 -1      2695 2.16375E-01
 -1      2696 1.51858E-01
 -1      2697 2.61208E-01
 -1      2698 2.90894E-01
 -1      2699 2.22585E-01
 -1      2700 3.36135E-01
 -1      2701 3.73062E-01
 -1      2702 3.12659E-01
 -1      2703 4.15159E-01
 -1      2704 4.46985E-01
 -1      2705 3.99998E-01
 -1      2706 4.84353E-01
 -1      2707 5.13193E-01
 -1      2708 4.79462E-01
 -1      2709 5.72128E-01
 -1      2710 5.95241E-01
 -1      2711 5.75765E-01
 -1      2712 6.47556E-01
 -1      2713 6.45742E-01
 -1      2714 6.87016E-01
 -1      2715 6.78571E-01
 -1      2716 7.40304E-01
 -1      2717 7.72160E-01
 -1      2718 8.55555E-01
 -1      2719 8.99197E-01
 -1      2720 9.20239E-01
 -1      2721 1.00377E+00
 -1      2722 1.10282E+00
 -1      2723 1.14006E+00
 -1      2724 1.15908E+00
 -1      2725 1.25368E+00
 -1      2726 1.30088E+00
 -1      2727 1.35654E+00
 -1      2728 1.45637E+00
 -1      2729 1.46000E+00
 -1      2730 1.55228E+00
 -1      2731 1.70123E+00
 -1      2732 1.65877E+00
 -1      2733 1.99724E+00
 -1      2734 1.97234E+00
 -1      2735 2.05070E+00
 -1      2736 1.95475E+00
 -1      2737 2.00650E+00
 -1      2738 2.32912E+00
 -1      2739 1.91650E+00
 -1      2740 1.82651E+00
 -1      2741 2.22153E+00
 -1      2742 1.52150E+00
 -1      2743 1.40069E+00
 -1      2744 1.82651E+00
 -1      2745 1.42536E+00
 -1      2746 1.33568E+00
 -1      2747 1.54617E+00
 -1      2748 1.20736E+00
 -1      2749 1.07892E+00
 -1      2750 1.44252E+00
 -1      2751 1.04055E+00
 -1      2752 9.91633E-01
 -1      2753 1.27584E+00
 -1      2754 8.61214E-01
 -1      2755 8.02298E-01
 -1      2756 1.10705E+00
 -1      2757 7.26478E-01
 -1      2758 7.09256E-01
 -1      2759 9.00809E-01
 -1      2760 6.70612E-01
 -1      2761 6.67260E-01
 -1      2762 7.86345E-01
 -1      2763 6.15602E-01
 -1      2764 5.92596E-01
 -1      2765 6.96043E-01
 -1      2766 5.43461E-01
 -1      2767 5.17777E-01
 -1      2768 5.95250E-01
 -1      2769 4.86600E-01
 -1      2770 4.61244E-01
 -1      2771 5.14938E-01
 -1      2772 4.26138E-01
 -1      2773 3.97029E-01
 -1      2774 4.48655E-01
 -1      2775 3.61472E-01
 -1      2776 3.29543E-01
 -1      2777 3.77992E-01
 -1      2778 2.96286E-01
 -1      2779 2.65164E-01
 -1      2780 3.09178E-01
 -1      2781 2.35669E-01
 -1      2782 2.07493E-01
 -1      2783 2.46427E-01
 -1      2784 1.82351E-01
 -1      2785 1.58155E-01
 -1      2786 1.91790E-01
 -1      2787 1.37400E-01
 -1      2788 1.17474E-01
 -1      2789 1.45892E-01
 -1      2790 1.00813E-01
 -1      2791 8.49818E-02
 -1      2792 1.08477E-01
 -1      2793 7.19808E-02
 -1      2794 5.98170E-02
 -1      2795 7.88151E-02
 -1      2796 4.98362E-02
 -1      2797 4.08327E-02
 -1      2798 5.58333E-02
 -1      2799 3.18624E-02
 -1      2800 2.54106E-02
 -1      2801 3.68821E-02
 -1      2802 3.35426E-01
 -1      2803 3.72501E-01
 -1      2804 3.36543E-02
 -1      2805 3.15113E-02
 -1      2806 4.07056E-02
 -1      2807 3.95732E-01
 -1      2808 4.28524E-01
 -1      2809 2.98773E-01
 -1      2810 2.54633E-01
 -1      2811 2.50964E-01
 -1      2812 3.24688E-01
 -1      2813 2.94770E-01
 -1      2814 2.26005E-01
 -1      2815 4.84657E-01
 -1      2816 3.99879E-01
 -1      2817 3.41333E-01
 -1      2818 6.76065E-01
 -1      2819 5.73621E-01
 -1      2820 5.05488E-01
 -1      2821 8.92539E-01
 -1      2822 7.80908E-01
 -1      2823 6.99294E-01
 -1      2824 1.12842E+00
 -1      2825 1.01521E+00
 -1      2826 9.26809E-01
 -1      2827 1.36952E+00
 -1      2828 1.26971E+00
 -1      2829 1.19077E+00
 -1      2830 1.59070E+00
 -1      2831 1.52680E+00
 -1      2832 1.48933E+00
 -1      2833 1.89653E+00
 -1      2834 1.75167E+00
 -1      2835 1.80758E+00
 -1      2836 2.25725E+00
 -1      2837 2.11401E+00
 -1      2838 2.18603E+00
 -1      2839 2.74359E+00
 -1      2840 2.66149E+00
 -1      2841 2.80776E+00
 -1      2842 3.34338E+00
 -1      2843 3.12823E+00
 -1      2844 3.59665E+00
 -1      2845 3.05747E+00
 -1      2846 3.16421E+00
 -1      2847 3.80213E+00
 -1      2848 4.37011E+00
 -1      2849 3.20482E+00
 -1      2850 7.25641E+00
 -1      2851 6.27207E+00
 -1      2852 3.60433E+00
 -1      2853 5.40210E+00
 -1      2854 2.51805E+00
 -1      2855 2.91740E+00
 -1      2856 3.42688E+00
 -1      2857 2.61496E+00
 -1      2858 2.57108E+00
 -1      2859 2.79298E+00
 -1      2860 3.01279E+00
 -1      2861 3.02621E+00
 -1      2862 3.25725E+00
 -1      2863 2.38022E+00
 -1      2864 2.55251E+00
 -1      2865 3.20822E+00
 -1      2866 1.91812E+00
 -1      2867 2.08450E+00
 -1      2868 2.45221E+00
 -1      2869 1.69913E+00
 -1      2870 1.75703E+00
 -1      2871 1.99539E+00
 -1      2872 1.47937E+00
 -1      2873 1.56187E+00
 -1      2874 1.69704E+00
 -1      2875 1.24087E+00
 -1      2876 1.34108E+00
 -1      2877 1.42149E+00
 -1      2878 1.01213E+00
 -1      2879 1.11493E+00
 -1      2880 1.15727E+00
 -1      2881 8.07142E-01
 -1      2882 9.03298E-01
 -1      2883 9.22506E-01
 -1      2884 6.31242E-01
 -1      2885 7.16054E-01
 -1      2886 7.22581E-01
 -1      2887 4.87418E-01
 -1      2888 5.59204E-01
 -1      2889 5.59455E-01
 -1      2890 3.69588E-01
 -1      2891 4.28503E-01
 -1      2892 4.28503E-01
 -1      2893 2.75220E-01
 -1      2894 3.22404E-01
 -1      2895 3.22404E-01
 -1      2896 2.01186E-01
 -1      2897 2.38203E-01
 -1      2898 2.38203E-01
 -1      2899 1.44183E-01
 -1      2900 1.72685E-01
 -1      2901 1.72685E-01
 -1      2902 1.01111E-01
 -1      2903 1.22647E-01
 -1      2904 1.22647E-01
 -1      2905 6.92243E-02
 -1      2906 8.51676E-02
 -1      2907 8.51676E-02
 -1      2908 5.00376E-02
 -1      2909 6.17247E-02
 -1      2910 6.17247E-02
 -1      2911 4.47080E-02
 -1      2912 9.44823E+00
 -1      2913 1.21526E+01
 -1      2914 2.62595E-02
 -1      2915 2.62595E-02
 -1      2916 2.11270E+01
 -1      2917 2.48703E+01
 -1      2918 2.55574E-02
 -1      2919 2.37857E-02
 -1      2920 2.59542E-02
 -1      2921 2.60400E-02
 -1      2922 3.04195E-02
 -1      2923 2.62595E-02
 -1      2924 2.61999E-02
 -1      2925 2.99965E-02
 -1      2926 3.06390E-02
 -1      2927 2.57184E-02
 -1      2928 2.59542E-02
 -1      2929 3.02000E-02
 -1      2930 2.26354E-02
 -1      2931 2.45491E-02
 -1      2932 2.90308E-02
 -1      2933 1.90861E-02
 -1      2934 1.91657E-02
 -1      2935 2.43919E-02
 -1      2936 1.36663E+01
 -1      2937 1.73016E+01
 -1      2938 1.93521E+01
 -1      2939 2.42537E+01
 -1      2940 2.34201E+01
 -1      2941 2.23913E+01
 -1      2942 4.16846E+00
 -1      2943 5.53761E+00
 -1      2944 6.63900E-01
 -1      2945 6.23834E-01
 -1      2946 5.78751E-01
 -1      2947 5.96454E-01
 -1      2948 1.07361E+01
 -1      2949 1.40043E+01
 -1      2950 7.92571E+00
 -1      2951 7.43831E+00
 -1      2952 6.40555E+00
 -1      2953 4.76124E-01
 -1      2954 5.50940E-01
 -1      2955 3.69605E-01
 -1      2956 2.65332E-01
 -1      2957 3.04958E-01
 -1      2958 2.45073E-01
 -1      2959 2.00236E-01
 -1      2960 6.07382E+00
 -1      2961 7.87922E+00
 -1      2962 4.32386E-01
 -1      2963 4.18628E-01
 -1      2964 3.54421E-01
 -1      2965 3.59522E-01
 -1      2966 4.19728E-01
 -1      2967 4.33292E-01
 -1      2968 5.86545E-01
 -1      2969 6.86527E-01
 -1      2970 5.03841E-01
 -1      2971 4.52810E-01
 -1      2972 8.06378E+00
 -1      2973 6.49997E+00
 -1      2974 6.29914E+00
 -1      2975 6.95232E+00
 -1      2976 2.53428E+01
 -1      2977 1.96922E+01
 -1      2978 1.62851E-02
 -1      2979 1.72501E-02
 -1      2980 2.00798E-02
 -1      2981 1.10163E+01
 -1      2982 8.43793E+00
 -1      2983 4.12889E+00
 -1      2984 4.39483E+00
 -1      2985 1.62091E+01
 -1      2986 2.11335E+01
 -1      2987 6.82032E+00
 -1      2988 9.10000E+00
 -1      2989 1.08856E+01
 -1      2990 8.80570E+00
 -1      2991 5.19056E+00
 -1      2992 5.90064E+00
 -1      2993 5.90843E+00
 -1      2994 4.87839E+00
 -1      2995 3.92758E+00
 -1      2996 7.11649E+00
 -1      2997 6.39111E+00
 -1      2998 5.15975E+00
 -1      2999 8.22236E-01
 -1      3000 5.15394E+00
 -1      3001 4.17999E+00
 -1      3002 3.80253E+00
 -1      3003 7.87529E+00
 -1      3004 4.12575E-01
 -1      3005 3.55504E-01
 -1      3006 3.96433E-01
 -1      3007 7.24805E+00
 -1      3008 1.20859E+01
 -1      3009 1.60555E+01
 -1      3010 9.80720E+00
 -1      3011 4.16593E-01
 -1      3012 4.87227E-01
 -1      3013 5.96454E-01
 -1      3014 7.69137E+00
 -1      3015 2.25809E-02
 -1      3016 1.07741E+01
 -1      3017 3.77032E+00
 -1      3018 4.82255E+00
 -1      3019 5.56964E-01
 -1      3020 1.47500E+01
 -1      3021 3.34315E-02
 -1      3022 2.78632E-02
 -1      3023 3.06259E-02
 -1      3024 3.36543E-02
 -1      3025 1.43383E+01
 -1      3026 3.97381E+00
 -1      3027 5.68921E+00
 -1      3028 1.72501E-02
 -1      3029 1.55551E+01
 -1      3030 7.28049E+00
 -1      3031 4.55254E+00
 -1      3032 4.17663E-01
 -1      3033 3.71573E-01
 -1      3034 3.85894E-01
 -1      3035 3.37812E-01
 -1      3036 3.27549E-01
 -1      3037 1.42841E+01
 -1      3038 1.72403E+01
 -1      3039 1.21649E+01
 -1      3040 1.27706E+01
 -1      3041 7.07975E+00
 -1      3042 5.16009E+00
 -1      3043 8.24497E+00
 -1      3044 4.30837E-01
 -1      3045 5.47825E+00
 -1      3046 4.99890E+00
 -1      3047 1.13239E+01
 -1      3048 8.38692E+00
 -1      3049 1.13528E+01
 -1      3050 1.45070E+01
 -1      3051 1.88237E-02
 -1      3052 1.88237E-02
 -1      3053 2.06598E-02
 -1      3054 2.41545E-02
 -1      3055 3.98724E+00
 -1      3056 4.70413E+00
 -1      3057 4.75267E+00
 -1      3058 1.26421E+01
 -1      3059 1.31145E+01
 -1      3060 2.93889E-01
 -1      3061 3.02446E-01
 -1      3062 3.74839E+00
 -1      3063 2.59005E-01
 -1      3064 2.25680E-01
 -1      3065 2.07396E-01
 -1      3066 1.81391E-01
 -1      3067 1.69886E-01
 -1      3068 1.52936E-01
 -1      3069 1.28305E-01
 -1      3070 1.23148E-01
 -1      3071 1.33710E-01
 -1      3072 1.15734E-01
 -1      3073 1.00098E-01
 -1      3074 1.42157E-01
 -1      3075 1.68050E-01
 -1      3076 1.31926E-01
 -1      3077 1.99621E-01
 -1      3078 2.44454E-01
 -1      3079 1.89920E-01
 -1      3080 2.89178E-01
 -1      3081 3.34419E-01
 -1      3082 2.66214E-01
 -1      3083 3.90027E-01
 -1      3084 4.32124E-01
 -1      3085 3.66546E-01
 -1      3086 4.92451E-01
 -1      3087 5.29819E-01
 -1      3088 4.82481E-01
 -1      3089 5.90597E-01
 -1      3090 6.49533E-01
 -1      3091 6.03586E-01
 -1      3092 7.35253E-01
 -1      3093 7.87568E-01
 -1      3094 7.50084E-01
 -1      3095 8.95516E-01
 -1      3096 9.28345E-01
 -1      3097 9.43753E-01
 -1      3098 1.03935E+00
 -1      3099 1.15460E+00
 -1      3100 1.16270E+00
 -1      3101 1.29852E+00
 -1      3102 1.40309E+00
 -1      3103 1.41763E+00
 -1      3104 1.67329E+00
 -1      3105 1.72954E+00
 -1      3106 1.83175E+00
 -1      3107 1.78093E+00
 -1      3108 1.88379E+00
 -1      3109 2.15334E+00
 -1      3110 1.88052E+00
 -1      3111 1.97643E+00
 -1      3112 2.20145E+00
 -1      3113 2.05070E+00
 -1      3114 2.34670E+00
 -1      3115 2.27244E+00
 -1      3116 2.31153E+00
 -1      3117 2.22153E+00
 -1      3118 2.96126E+00
 -1      3119 2.65625E+00
 -1      3120 3.05126E+00
 -1      3121 1.74476E+00
 -1      3122 1.76943E+00
 -1      3123 2.87951E+00
 -1      3124 2.05246E+00
 -1      3125 1.92414E+00
 -1      3126 2.25105E+00
 -1      3127 1.69209E+00
 -1      3128 1.65372E+00
 -1      3129 2.30203E+00
 -1      3130 1.51450E+00
 -1      3131 1.38408E+00
 -1      3132 1.93076E+00
 -1      3133 1.29027E+00
 -1      3134 1.21444E+00
 -1      3135 1.69772E+00
 -1      3136 1.08777E+00
 -1      3137 1.04912E+00
 -1      3138 1.47722E+00
 -1      3139 9.17424E-01
 -1      3140 8.65767E-01
 -1      3141 1.21885E+00
 -1      3142 7.62095E-01
 -1      3143 7.12960E-01
 -1      3144 9.83477E-01
 -1      3145 6.35893E-01
 -1      3146 6.04716E-01
 -1      3147 8.02738E-01
 -1      3148 5.43963E-01
 -1      3149 5.08857E-01
 -1      3150 6.64918E-01
 -1      3151 4.52089E-01
 -1      3152 4.16532E-01
 -1      3153 5.47397E-01
 -1      3154 3.65610E-01
 -1      3155 3.32353E-01
 -1      3156 4.39707E-01
 -1      3157 2.88722E-01
 -1      3158 2.59227E-01
 -1      3159 3.45154E-01
 -1      3160 2.23958E-01
 -1      3161 1.98816E-01
 -1      3162 2.66253E-01
 -1      3163 1.71287E-01
 -1      3164 1.50532E-01
 -1      3165 2.03455E-01
 -1      3166 1.28032E-01
 -1      3167 1.11372E-01
 -1      3168 1.53427E-01
 -1      3169 9.33060E-02
 -1      3170 8.03049E-02
 -1      3171 1.12861E-01
 -1      3172 6.64535E-02
 -1      3173 5.64727E-02
 -1      3174 8.09444E-02
 -1      3175 3.87470E-02
 -1      3176 2.97766E-02
 -1      3177 2.60194E-02
 -1      3178 4.93673E-02
 -1      3179 2.31084E-01
 -1      3180 2.54316E-01
 -1      3181 3.66014E-01
 -1      3182 2.90823E-01
 -1      3183 2.32744E-01
 -1      3184 1.92607E-01
 -1      3185 2.57425E-01
 -1      3186 7.35747E-01
 -1      3187 6.30904E-01
 -1      3188 9.74889E-01
 -1      3189 8.52218E-01
 -1      3190 7.83827E-01
 -1      3191 1.25345E+00
 -1      3192 1.11216E+00
 -1      3193 1.03757E+00
 -1      3194 1.59501E+00
 -1      3195 1.43773E+00
 -1      3196 1.35912E+00
 -1      3197 2.03246E+00
 -1      3198 1.87149E+00
 -1      3199 1.81988E+00
 -1      3200 2.65943E+00
 -1      3201 2.44194E+00
 -1      3202 2.50585E+00
 -1      3203 3.28765E+00
 -1      3204 2.88341E+00
 -1      3205 3.13932E+00
 -1      3206 4.55429E+00
 -1      3207 4.16964E+00
 -1      3208 4.24530E+00
 -1      3209 3.70537E+00
 -1      3210 4.16565E+00
 -1      3211 2.76716E+00
 -1      3212 3.06289E+00
 -1      3213 4.02032E+00
 -1      3214 2.17873E+00
 -1      3215 2.33982E+00
 -1      3216 2.95050E+00
 -1      3217 1.72288E+00
 -1      3218 1.86014E+00
 -1      3219 2.20457E+00
 -1      3220 1.35149E+00
 -1      3221 1.48977E+00
 -1      3222 1.65288E+00
 -1      3223 1.06578E+00
 -1      3224 1.19171E+00
 -1      3225 1.26000E+00
 -1      3226 8.38290E-01
 -1      3227 9.47126E-01
 -1      3228 9.81564E-01
 -1      3229 6.48219E-01
 -1      3230 7.39308E-01
 -1      3231 7.63928E-01
 -1      3232 4.94440E-01
 -1      3233 5.66477E-01
 -1      3234 5.83203E-01
 -1      3235 3.70271E-01
 -1      3236 4.29186E-01
 -1      3237 4.36208E-01
 -1      3238 2.73417E-01
 -1      3239 3.20600E-01
 -1      3240 3.21284E-01
 -1      3241 2.02011E-01
 -1      3242 2.39028E-01
 -1      3243 2.37224E-01
 -1      3244 1.46793E-01
 -1      3245 1.75294E-01
 -1      3246 1.76118E-01
 -1      3247 1.04714E-01
 -1      3248 1.26250E-01
 -1      3249 1.28860E-01
 -1      3250 7.31802E-02
 -1      3251 8.91235E-02
 -1      3252 9.27268E-02
 -1      3253 5.42252E-02
 -1      3254 6.17247E-02
 -1      3255 6.56807E-02
 -1      3256 3.57056E-02
 -1      3257 3.57056E-02
 -1      3258 3.57056E-02
 -1      3259 3.59251E-02
 -1      3260 4.12112E-02
 -1      3261 3.26895E+00
 -1      3262 4.06467E+00
 -1      3263 4.85155E+00
 -1      3264 1.20517E+01
 -1      3265 1.33857E+01
 -1      3266 2.76154E-01
 -1      3267 2.58674E-01
 -1      3268 1.87840E-01
 -1      3269 4.63218E+00
 -1      3270 4.14951E+00
 -1      3271 9.80980E+00
 -1      3272 7.99257E+00
 -1      3273 8.01046E+00
 -1      3274 9.52417E+00
 -1      3275 4.70528E-01
 -1      3276 2.80108E-01
 -1      3277 3.27709E-01
 -1      3278 2.12420E-01
 -1      3279 6.81057E+00
 -1      3280 6.06865E+00
 -1      3281 3.44487E-02
 -1      3282 3.56180E-02
 -1      3283 4.11236E-02
 -1      3284 3.48839E-02
 -1      3285 3.83536E-02
 -1      3286 4.49408E-02
 -1      3287 4.05375E-02
 -1      3288 5.31773E-01
 -1      3289 4.42809E-01
 -1      3290 3.92299E-01
 -1      3291 5.68225E-01
 -1      3292 3.62996E-01
 -1      3293 3.10131E-01
 -1      3294 2.21487E-01
 -1      3295 3.62996E-01
 -1      3296 6.51182E+00
 -1      3297 5.51220E+00
 -1      3298 1.28853E+01
 -1      3299 1.20517E+01
 -1      3300 3.11220E-01
 -1      3301 3.00473E-01
 -1      3302 4.44762E+00
 -1      3303 5.36729E+00
 -1      3304 1.09354E+01
 -1      3305 1.29859E+01
 -1      3306 8.17178E+00
 -1      3307 1.37370E+01
 -1      3308 1.08544E+01
 -1      3309 9.73307E+00
 -1      3310 3.91648E-01
 -1      3311 3.03219E-01
 -1      3312 2.54700E-01
 -1      3313 3.76223E-01
 -1      3314 9.45490E+00
 -1      3315 1.16597E+01
 -1      3316 1.26486E+01
 -1      3317 1.26421E+01
 -1      3318 3.56645E+00
 -1      3319 2.81696E+00
 -1      3320 6.60027E+00
 -1      3321 8.23635E+00
 -1      3322 5.35868E+00
 -1      3323 5.42520E+00
 -1      3324 4.07917E+00
 -1      3325 3.17711E+00
 -1      3326 3.16558E+00
 -1      3327 6.32873E+00
 -1      3328 7.89775E+00
 -1      3329 4.28362E+00
 -1      3330 2.59746E-01
 -1      3331 3.16822E-01
 -1      3332 3.16822E-01
 -1      3333 3.03888E+00
 -1      3334 3.24897E-01
 -1      3335 3.78832E-01
 -1      3336 2.71300E-01
 -1      3337 3.08221E+00
 -1      3338 3.06462E+00
 -1      3339 3.06462E+00
 -1      3340 3.08221E+00
 -1      3341 4.98773E+00
 -1      3342 9.54153E+00
 -1      3343 1.16495E+01
 -1      3344 9.19760E+00
 -1      3345 1.58988E-01
 -1      3346 1.52249E-01
 -1      3347 1.66617E-01
 -1      3348 4.46278E+00
 -1      3349 5.03578E+00
 -1      3350 6.60333E+00
 -1      3351 5.59896E+00
 -1      3352 5.10180E+00
 -1      3353 3.24740E-01
 -1      3354 3.31894E-01
 -1      3355 2.94133E-01
 -1      3356 3.74276E+00
 -1      3357 4.88956E-02
 -1      3358 3.66686E-02
 -1      3359 3.60261E-02
 -1      3360 1.10066E+01
 -1      3361 1.67968E-01
 -1      3362 1.98437E-01
 -1      3363 1.19981E-01
 -1      3364 3.43090E-02
 -1      3365 3.83866E-02
 -1      3366 4.09812E-02
 -1      3367 2.90782E+00
 -1      3368 3.66686E-02
 -1      3369 3.66686E-02
 -1      3370 4.26983E-02
 -1      3371 4.19548E-02
 -1      3372 9.38185E+00
 -1      3373 6.81317E+00
 -1      3374 9.03973E+00
 -1      3375 3.03956E-01
 -1      3376 3.03680E-01
 -1      3377 2.76604E-01
 -1      3378 4.48418E+00
 -1      3379 4.69056E+00
 -1      3380 4.88956E-02
 -1      3381 5.42252E-02
 -1      3382 5.42252E-02
 -1      3383 4.58671E-02
 -1      3384 6.91088E+00
 -1      3385 3.11449E+00
 -1      3386 3.44222E+00
 -1      3387 6.64783E+00
 -1      3388 3.16822E-01
 -1      3389 3.11721E-01
 -1      3390 2.73621E-01
 -1      3391 2.74122E-01
 -1      3392 3.26474E-01
 -1      3393 3.62079E-01
 -1      3394 2.49887E-01
 -1      3395 2.36978E-01
 -1      3396 1.00177E+01
 -1      3397 9.48243E+00
 -1      3398 1.08649E+01
 -1      3399 8.20662E+00
 -1      3400 9.01874E+00
 -1      3401 3.79100E+00
 -1      3402 4.55254E+00
 -1      3403 1.53980E-01
 -1      3404 3.81280E+00
 -1      3405 4.56590E+00
 -1      3406 7.81019E+00
 -1      3407 4.73007E+00
 -1      3408 2.63329E-02
 -1      3409 2.65953E-02
 -1      3410 4.05571E-02
 -1      3411 3.19550E-02
 -1      3412 4.02090E+00
 -1      3413 5.25388E+00
 -1      3414 3.06146E+00
 -1      3415 3.08289E+00
 -1      3416 3.46584E+00
 -1      3417 4.95860E+00
 -1      3418 4.31515E+00
 -1      3419 1.28202E-01
 -1      3420 9.97475E-02
 -1      3421 1.13308E-01
 -1      3422 1.18713E-01
 -1      3423 1.18362E-01
 -1      3424 1.36272E-01
 -1      3425 1.62695E-01
 -1      3426 1.49482E-01
 -1      3427 1.92655E-01
 -1      3428 2.24226E-01
 -1      3429 1.97001E-01
 -1      3430 2.68319E-01
 -1      3431 3.13043E-01
 -1      3432 2.71054E-01
 -1      3433 3.64075E-01
 -1      3434 4.19683E-01
 -1      3435 3.66181E-01
 -1      3436 4.76591E-01
 -1      3437 5.36918E-01
 -1      3438 4.74121E-01
 -1      3439 6.19105E-01
 -1      3440 6.79883E-01
 -1      3441 6.13215E-01
 -1      3442 7.93080E-01
 -1      3443 8.78801E-01
 -1      3444 8.08599E-01
 -1      3445 9.98726E-01
 -1      3446 1.10667E+00
 -1      3447 1.04172E+00
 -1      3448 1.25814E+00
 -1      3449 1.36914E+00
 -1      3450 1.31311E+00
 -1      3451 1.80599E+00
 -1      3452 1.94991E+00
 -1      3453 1.90142E+00
 -1      3454 2.45396E+00
 -1      3455 2.50535E+00
 -1      3456 3.41005E+00
 -1      3457 3.17800E+00
 -1      3458 2.30334E+00
 -1      3459 2.16412E+00
 -1      3460 3.41136E+00
 -1      3461 1.86252E+00
 -1      3462 1.76870E+00
 -1      3463 2.23511E+00
 -1      3464 1.60390E+00
 -1      3465 1.47722E+00
 -1      3466 1.76870E+00
 -1      3467 1.35054E+00
 -1      3468 1.21885E+00
 -1      3469 1.47722E+00
 -1      3470 1.08715E+00
 -1      3471 9.83477E-01
 -1      3472 1.21885E+00
 -1      3473 8.79806E-01
 -1      3474 8.02738E-01
 -1      3475 9.83477E-01
 -1      3476 7.10553E-01
 -1      3477 6.49800E-01
 -1      3478 7.87621E-01
 -1      3479 5.95569E-01
 -1      3480 5.38801E-01
 -1      3481 6.41205E-01
 -1      3482 4.85836E-01
 -1      3483 4.34914E-01
 -1      3484 5.34008E-01
 -1      3485 3.86799E-01
 -1      3486 3.43167E-01
 -1      3487 4.32928E-01
 -1      3488 3.01383E-01
 -1      3489 2.66114E-01
 -1      3490 3.43028E-01
 -1      3491 2.30984E-01
 -1      3492 2.03455E-01
 -1      3493 2.66114E-01
 -1      3494 1.74689E-01
 -1      3495 1.52190E-01
 -1      3496 2.02218E-01
 -1      3497 1.29116E-01
 -1      3498 1.11050E-01
 -1      3499 1.50378E-01
 -1      3500 9.38648E-02
 -1      3501 8.00134E-02
 -1      3502 1.10119E-01
 -1      3503 6.55643E+00
 -1      3504 7.77497E+00
 -1      3505 5.21865E+00
 -1      3506 1.16715E+00
 -1      3507 1.02988E+00
 -1      3508 8.79819E-01
 -1      3509 7.63349E-01
 -1      3510 1.00940E+00
 -1      3511 2.07249E+00
 -1      3512 1.79601E+00
 -1      3513 2.85866E+00
 -1      3514 2.44918E+00
 -1      3515 2.42530E+00
 -1      3516 3.87493E+00
 -1      3517 3.65095E+00
 -1      3518 3.59427E+00
 -1      3519 4.77644E-02
 -1      3520 4.77644E-02
 -1      3521 2.19456E+00
 -1      3522 2.51315E+00
 -1      3523 6.56018E+00
 -1      3524 7.97141E+00
 -1      3525 4.86882E+00
 -1      3526 5.51131E+00
 -1      3527 1.62584E+00
 -1      3528 1.85894E+00
 -1      3529 2.16752E+00
 -1      3530 1.25713E+00
 -1      3531 1.41691E+00
 -1      3532 1.62297E+00
 -1      3533 9.75193E-01
 -1      3534 1.09385E+00
 -1      3535 1.25076E+00
 -1      3536 7.47745E-01
 -1      3537 8.46727E-01
 -1      3538 9.59010E-01
 -1      3539 5.65354E-01
 -1      3540 6.47096E-01
 -1      3541 7.29896E-01
 -1      3542 4.21801E-01
 -1      3543 4.87055E-01
 -1      3544 5.50948E-01
 -1      3545 3.11510E-01
 -1      3546 3.61180E-01
 -1      3547 4.12028E-01
 -1      3548 2.30465E-01
 -1      3549 2.64854E-01
 -1      3550 3.04751E-01
 -1      3551 1.68121E-01
 -1      3552 1.94837E-01
 -1      3553 2.22468E-01
 -1      3554 1.20608E-01
 -1      3555 1.41151E-01
 -1      3556 1.59870E-01
 -1      3557 8.48983E-02
 -1      3558 1.00489E-01
 -1      3559 1.12780E-01
 -1      3560 5.92858E-02
 -1      3561 7.07413E-02
 -1      3562 7.85034E-02
 -1      3563 5.79693E-02
 -1      3564 5.40644E-02
 -1      3565 9.05095E+00
 -1      3566 9.05095E+00
 -1      3567 8.33163E+00
 -1      3568 8.33163E+00
 -1      3569 8.06204E+00
 -1      3570 9.05095E+00
 -1      3571 1.41683E-01
 -1      3572 1.42013E-01
 -1      3573 3.71983E+00
 -1      3574 1.59102E-01
 -1      3575 1.84894E-01
 -1      3576 8.12399E+00
 -1      3577 7.07943E+00
 -1      3578 4.83494E-02
 -1      3579 4.84370E-02
 -1      3580 5.49902E-02
 -1      3581 6.13779E-02
 -1      3582 7.23647E+00
 -1      3583 5.45288E+00
 -1      3584 4.57089E+00
 -1      3585 6.74862E+00
 -1      3586 1.54340E+00
 -1      3587 1.35912E+00
 -1      3588 1.35143E+00
 -1      3589 1.79601E+00
 -1      3590 3.02879E-01
 -1      3591 2.44799E-01
 -1      3592 6.56288E+00
 -1      3593 5.38088E+00
 -1      3594 3.16558E+00
 -1      3595 3.89721E+00
 -1      3596 4.32455E+00
 -1      3597 3.88720E+00
 -1      3598 5.71168E+00
 -1      3599 1.17729E-01
 -1      3600 1.50376E-01
 -1      3601 1.22851E-01
 -1      3602 1.44527E-01
 -1      3603 1.26243E-01
 -1      3604 1.02842E-01
 -1      3605 7.93623E+00
 -1      3606 8.28745E+00
 -1      3607 3.14201E-01
 -1      3608 3.24740E-01
 -1      3609 3.01130E-01
 -1      3610 2.90608E-01
 -1      3611 8.43221E+00
 -1      3612 8.33163E+00
 -1      3613 2.25409E+00
 -1      3614 2.78227E+00
 -1      3615 3.43918E+00
 -1      3616 2.98432E+00
 -1      3617 3.15615E+00
 -1      3618 2.80098E+00
 -1      3619 3.15299E+00
 -1      3620 2.53078E+00
 -1      3621 6.80827E+00
 -1      3622 2.77899E+00
 -1      3623 2.32700E+00
 -1      3624 2.40127E+00
 -1      3625 8.85318E+00
 -1      3626 7.38814E+00
 -1      3627 6.89757E+00
 -1      3628 8.00134E-02
 -1      3629 6.70930E-02
 -1      3630 3.76680E-01
 -1      3631 3.64054E-01
 -1      3632 4.53475E-01
 -1      3633 1.97468E-01
 -1      3634 1.57109E-01
 -1      3635 2.42921E-01
 -1      3636 1.94836E-01
 -1      3637 1.60858E-01
 -1      3638 1.15032E-01
 -1      3639 2.10672E-01
 -1      3640 2.91914E+00
 -1      3641 2.21357E-01
 -1      3642 1.44893E-01
 -1      3643 2.28354E-01
 -1      3644 7.41615E-01
 -1      3645 6.45622E-01
 -1      3646 5.46491E-01
 -1      3647 5.08251E+00
 -1      3648 7.09534E+00
 -1      3649 6.82061E+00
 -1      3650 3.36104E+00
 -1      3651 5.92858E-02
 -1      3652 5.79693E-02
 -1      3653 6.32715E+00
 -1      3654 6.88601E+00
 -1      3655 1.31919E-01
 -1      3656 1.33270E-01
 -1      3657 1.29667E-01
 -1      3658 1.70399E-01
 -1      3659 5.68622E-02
 -1      3660 5.51451E-02
 -1      3661 5.26188E-02
 -1      3662 5.33623E-02
 -1      3663 5.91719E-02
 -1      3664 9.83696E-02
 -1      3665 2.06388E-01
 -1      3666 2.20764E-01
 -1      3667 4.67446E-02
 -1      3668 2.32901E-01
 -1      3669 2.36384E-01
 -1      3670 5.64713E+00
 -1      3671 2.32487E-01
 -1      3672 1.92268E-01
 -1      3673 2.32988E-01
 -1      3674 5.81554E+00
 -1      3675 7.28141E+00
 -1      3676 1.79300E-01
 -1      3677 1.78065E-01
 -1      3678 1.25982E-01
 -1      3679 8.04859E+00
 -1      3680 6.74862E+00
 -1      3681 6.92748E+00
 -1      3682 4.70830E+00
 -1      3683 5.68622E-02
 -1      3684 5.68622E-02
 -1      3685 7.10260E-02
 -1      3686 5.85123E+00
 -1      3687 6.13830E+00
 -1      3688 1.54651E-01
 -1      3689 1.72210E-01
 -1      3690 1.96754E-01
 -1      3691 2.26714E-01
 -1      3692 2.01923E-01
 -1      3693 2.71054E-01
 -1      3694 3.15148E-01
 -1      3695 2.70807E-01
 -1      3696 3.66181E-01
 -1      3697 4.17213E-01
 -1      3698 3.66181E-01
 -1      3699 4.76193E-01
 -1      3700 5.33101E-01
 -1      3701 4.76193E-01
 -1      3702 6.17562E-01
 -1      3703 6.99748E-01
 -1      3704 6.19634E-01
 -1      3705 8.06107E-01
 -1      3706 9.19304E-01
 -1      3707 8.10454E-01
 -1      3708 1.10706E+00
 -1      3709 1.22698E+00
 -1      3710 1.10457E+00
 -1      3711 1.69237E+00
 -1      3712 1.84383E+00
 -1      3713 1.75771E+00
 -1      3714 2.15793E+00
 -1      3715 2.59478E+00
 -1      3716 2.53719E+00
 -1      3717 8.69156E-02
 -1      3718 7.39952E-02
 -1      3719 6.82801E-02
 -1      3720 3.70805E+00
 -1      3721 3.84289E+00
 -1      3722 3.54129E+00
 -1      3723 2.84886E+00
 -1      3724 2.68406E+00
 -1      3725 4.45664E+00
 -1      3726 1.72209E+00
 -1      3727 1.59541E+00
 -1      3728 2.80224E+00
 -1      3729 1.28762E+00
 -1      3730 1.15592E+00
 -1      3731 1.53248E+00
 -1      3732 9.93870E-01
 -1      3733 8.90199E-01
 -1      3734 1.06264E+00
 -1      3735 7.85177E-01
 -1      3736 6.92992E-01
 -1      3737 7.95570E-01
 -1      3738 6.26456E-01
 -1      3739 5.72225E-01
 -1      3740 6.24012E-01
 -1      3741 5.14829E-01
 -1      3742 4.61864E-01
 -1      3743 5.00081E-01
 -1      3744 4.13952E-01
 -1      3745 3.65836E-01
 -1      3746 3.94773E-01
 -1      3747 3.26596E-01
 -1      3748 2.84811E-01
 -1      3749 3.07620E-01
 -1      3750 2.53083E-01
 -1      3751 2.17953E-01
 -1      3752 2.36651E-01
 -1      3753 1.92545E-01
 -1      3754 1.63779E-01
 -1      3755 1.79514E-01
 -1      3756 1.43795E-01
 -1      3757 1.20721E-01
 -1      3758 1.34122E-01
 -1      3759 1.07110E-01
 -1      3760 8.99247E-02
 -1      3761 8.39064E-02
 -1      3762 1.00527E-01
 -1      3763 3.70805E+00
 -1      3764 5.01061E+00
 -1      3765 4.34063E+00
 -1      3766 4.96807E-02
 -1      3767 5.33120E+00
 -1      3768 4.53892E+00
 -1      3769 2.80199E+00
 -1      3770 2.42530E+00
 -1      3771 4.53892E+00
 -1      3772 5.77846E+00
 -1      3773 2.23547E+00
 -1      3774 2.57109E+00
 -1      3775 8.84739E-01
 -1      3776 1.01320E+00
 -1      3777 6.66120E-01
 -1      3778 7.66768E-01
 -1      3779 8.20962E-01
 -1      3780 5.01120E-01
 -1      3781 5.79420E-01
 -1      3782 6.16292E-01
 -1      3783 3.75013E-01
 -1      3784 4.35634E-01
 -1      3785 4.64105E-01
 -1      3786 2.78238E-01
 -1      3787 3.24894E-01
 -1      3788 3.48500E-01
 -1      3789 2.04058E-01
 -1      3790 2.39686E-01
 -1      3791 2.59829E-01
 -1      3792 1.47514E-01
 -1      3793 1.74484E-01
 -1      3794 1.91702E-01
 -1      3795 1.04825E-01
 -1      3796 1.24944E-01
 -1      3797 1.39559E-01
 -1      3798 7.81363E-02
 -1      3799 9.22933E-02
 -1      3800 1.04458E-01
 -1      3801 6.13830E+00
 -1      3802 6.13830E+00
 -1      3803 5.81984E+00
 -1      3804 5.65638E+00
 -1      3805 6.27634E+00
 -1      3806 2.40556E-01
 -1      3807 2.01575E-01
 -1      3808 1.12471E-01
 -1      3809 9.32955E-02
 -1      3810 1.23157E-01
 -1      3811 1.06232E-01
 -1      3812 1.08191E-01
 -1      3813 5.65638E+00
 -1      3814 5.13983E+00
 -1      3815 1.17466E+00
 -1      3816 1.33794E+00
 -1      3817 1.10039E+00
 -1      3818 5.18053E-02
 -1      3819 3.50001E+00
 -1      3820 1.92682E-01
 -1      3821 2.36384E-01
 -1      3822 2.46906E-01
 -1      3823 2.32526E-01
 -1      3824 2.32526E-01
 -1      3825 1.91392E-01
 -1      3826 1.79168E-01
 -1      3827 5.08251E+00
 -1      3828 1.57462E+00
 -1      3829 1.78354E+00
 -1      3830 2.18712E+00
 -1      3831 1.07157E+00
 -1      3832 9.21510E-01
 -1      3833 3.78493E+00
 -1      3834 5.16900E+00
 -1      3835 3.85289E+00
 -1      3836 3.83364E+00
 -1      3837 8.44079E-02
 -1      3838 8.69214E-02
 -1      3839 9.22700E-02
 -1      3840 8.18473E-02
 -1      3841 1.23377E-01
 -1      3842 1.36938E-01
 -1      3843 1.26767E-01
 -1      3844 6.76862E-02
 -1      3845 6.17407E+00
 -1      3846 5.91238E+00
 -1      3847 5.51698E+00
 -1      3848 5.91238E+00
 -1      3849 5.91238E+00
 -1      3850 4.54335E+00
 -1      3851 4.80504E+00
 -1      3852 1.43897E-01
 -1      3853 1.19299E-01
 -1      3854 1.28024E-01
 -1      3855 8.14761E-02
 -1      3856 3.17565E+00
 -1      3857 2.91914E+00
 -1      3858 5.30872E-01
 -1      3859 5.72271E+00
 -1      3860 5.52495E+00
 -1      3861 4.76567E+00
 -1      3862 4.01497E-01
 -1      3863 3.27695E-01
 -1      3864 6.02716E+00
 -1      3865 2.68654E-01
 -1      3866 2.21323E-01
 -1      3867 3.06097E-01
 -1      3868 7.86935E-01
 -1      3869 6.69208E-01
 -1      3870 8.49103E-01
 -1      3871 2.36588E+00
 -1      3872 1.98920E+00
 -1      3873 1.73659E+00
 -1      3874 5.18126E+00
 -1      3875 5.14907E+00
 -1      3876 6.21522E-02
 -1      3877 6.70066E-02
 -1      3878 6.75262E-02
 -1      3879 1.59666E-01
 -1      3880 1.49851E+00
 -1      3881 4.84621E+00
 -1      3882 1.07745E-01
 -1      3883 1.31254E-01
 -1      3884 1.43016E-01
 -1      3885 6.36406E-02
 -1      3886 6.29680E-02
 -1      3887 7.08027E-02
 -1      3888 7.62579E-02
 -1      3889 1.53874E-01
 -1      3890 1.53874E-01
 -1      3891 1.53460E-01
 -1      3892 1.53874E-01
 -1      3893 1.15066E-01
 -1      3894 1.26137E+00
 -1      3895 1.17348E+00
 -1      3896 1.45334E+00
 -1      3897 1.49416E-01
 -1      3898 1.33874E-01
 -1      3899 1.39048E-01
 -1      3900 2.40207E-01
 -1      3901 2.40207E-01
 -1      3902 1.67431E-01
 -1      3903 1.85983E-01
 -1      3904 1.13339E-01
 -1      3905 8.14761E-02
 -1      3906 9.19262E-02
 -1      3907 8.14761E-02
 -1      3908 1.09787E-01
 -1      3909 1.07057E-01
 -1      3910 1.45865E-01
 -1      3911 1.39166E-01
 -1      3912 4.01627E+00
 -1      3913 5.70098E-01
 -1      3914 4.77082E-01
 -1      3915 4.40723E-01
 -1      3916 6.15418E-01
 -1      3917 2.60653E-01
 -1      3918 3.04994E-01
 -1      3919 3.56820E-01
 -1      3920 4.07852E-01
 -1      3921 3.46665E-01
 -1      3922 4.76193E-01
 -1      3923 5.35173E-01
 -1      3924 4.66832E-01
 -1      3925 6.19634E-01
 -1      3926 7.04095E-01
 -1      3927 6.19634E-01
 -1      3928 8.10454E-01
 -1      3929 9.16812E-01
 -1      3930 8.10454E-01
 -1      3931 1.09896E+00
 -1      3932 1.28672E+00
 -1      3933 1.09896E+00
 -1      3934 2.34764E+00
 -1      3935 2.81302E+00
 -1      3936 2.34203E+00
 -1      3937 3.38184E+00
 -1      3938 3.69595E+00
 -1      3939 4.86093E+00
 -1      3940 3.97178E+00
 -1      3941 6.48782E+00
 -1      3942 7.17617E+00
 -1      3943 4.45664E+00
 -1      3944 1.69144E+00
 -1      3945 1.38364E+00
 -1      3946 1.20688E+00
 -1      3947 1.04483E+00
 -1      3948 1.36584E+00
 -1      3949 9.00592E-01
 -1      3950 7.95570E-01
 -1      3951 1.04483E+00
 -1      3952 6.84621E-01
 -1      3953 6.18085E-01
 -1      3954 7.89643E-01
 -1      3955 5.34467E-01
 -1      3956 4.77071E-01
 -1      3957 5.95076E-01
 -1      3958 4.14025E-01
 -1      3959 3.66113E-01
 -1      3960 4.48411E-01
 -1      3961 3.18372E-01
 -1      3962 2.79132E-01
 -1      3963 3.37625E-01
 -1      3964 2.42771E-01
 -1      3965 2.11042E-01
 -1      3966 2.53523E-01
 -1      3967 1.83254E-01
 -1      3968 1.57845E-01
 -1      3969 1.89373E-01
 -1      3970 1.58345E-01
 -1      3971 1.38361E-01
 -1      3972 1.62084E-01
 -1      3973 3.96327E-01
 -1      3974 4.61813E-01
 -1      3975 5.22879E-01
 -1      3976 6.09579E-01
 -1      3977 4.55101E-01
 -1      3978 6.92235E-01
 -1      3979 8.10205E-01
 -1      3980 5.98822E-01
 -1      3981 2.99533E-01
 -1      3982 3.49652E-01
 -1      3983 3.47361E-01
 -1      3984 2.24646E-01
 -1      3985 2.63198E-01
 -1      3986 2.64351E-01
 -1      3987 1.66616E-01
 -1      3988 1.96190E-01
 -1      3989 1.99560E-01
 -1      3990 1.22199E-01
 -1      3991 1.44769E-01
 -1      3992 1.49256E-01
 -1      3993 9.39667E-02
 -1      3994 1.06498E-01
 -1      3995 1.11709E-01
 -1      3996 9.39667E-02
 -1      3997 1.92278E-01
 -1      3998 1.67087E-01
 -1      3999 2.18011E-01
 -1      4000 6.89804E-02
 -1      4001 7.24803E-02
 -1      4002 8.29304E-02
 -1      4003 7.19607E-02
 -1      4004 1.26767E-01
 -1      4005 1.41953E-01
 -1      4006 9.21830E-01
 -1      4007 1.08328E+00
 -1      4008 7.93102E-01
 -1      4009 2.63905E+00
 -1      4010 3.85289E+00
 -1      4011 3.59120E+00
 -1      4012 3.86353E+00
 -1      4013 4.16638E+00
 -1      4014 2.03860E-01
 -1      4015 2.28403E-01
 -1      4016 2.62589E-01
 -1      4017 1.22444E+00
 -1      4018 1.46111E+00
 -1      4019 1.04588E+00
 -1      4020 1.60724E-01
 -1      4021 1.78437E-01
 -1      4022 2.04917E-01
 -1      4023 1.52762E-01
 -1      4024 1.53223E-01
 -1      4025 1.14830E-01
 -1      4026 1.04848E-01
 -1      4027 5.31265E+00
 -1      4028 5.10068E+00
 -1      4029 3.36375E+00
 -1      4030 4.13780E+00
 -1      4031 1.73413E+00
 -1      4032 2.18606E+00
 -1      4033 2.18606E+00
 -1      4034 1.46005E+00
 -1      4035 4.19769E+00
 -1      4036 3.50526E+00
 -1      4037 2.54329E+00
 -1      4038 3.21500E+00
 -1      4039 1.21866E-01
 -1      4040 1.13856E-01
 -1      4041 4.65976E+00
 -1      4042 4.24418E+00
 -1      4043 4.86093E+00
 -1      4044 4.33943E+00
 -1      4045 2.39445E+00
 -1      4046 3.86353E+00
 -1      4047 3.86353E+00
 -1      4048 3.18370E+00
 -1      4049 2.91137E+00
 -1      4050 9.43133E-02
 -1      4051 9.13042E-02
 -1      4052 8.66648E-02
 -1      4053 1.21866E-01
 -1      4054 1.28665E-01
 -1      4055 1.21866E-01
 -1      4056 1.07924E-01
 -1      4057 3.38453E-01
 -1      4058 2.79412E-01
 -1      4059 8.35379E-01
 -1      4060 7.00804E-01
 -1      4061 2.33262E+00
 -1      4062 1.89652E+00
 -1      4063 2.89438E+00
 -1      4064 1.64653E+00
 -1      4065 4.61351E-01
 -1      4066 3.85766E-01
 -1      4067 3.59080E-01
 -1      4068 1.14811E+00
 -1      4069 9.58303E-01
 -1      4070 8.10004E-01
 -1      4071 1.16285E-01
 -1      4072 1.18259E-01
 -1      4073 1.71295E-01
 -1      4074 1.32147E-01
 -1      4075 1.60724E-01
 -1      4076 8.58490E-02
 -1      4077 1.23157E-01
 -1      4078 9.07349E-02
 -1      4079 1.32147E-01
 -1      4080 1.52318E-01
 -1      4081 1.37742E-01
 -1      4082 1.06890E-01
 -1      4083 1.22076E-01
 -1      4084 8.75792E-02
 -1      4085 1.17783E-01
 -1      4086 1.03097E-01
 -1      4087 1.31052E-01
 -1      4088 4.01790E-01
 -1      4089 4.62855E-01
 -1      4090 6.21452E-01
 -1      4091 5.22342E-01
 -1      4092 4.67384E-01
 -1      4093 6.07728E-01
 -1      4094 3.18451E-01
 -1      4095 3.70277E-01
 -1      4096 5.14264E-01
 -1      4097 5.82604E-01
 -1      4098 4.86049E-01
 -1      4099 7.03471E-01
 -1      4100 7.87932E-01
 -1      4101 7.50902E-01
 -1      4102 8.94106E-01
 -1      4103 1.00046E+00
 -1      4104 9.77942E-01
 -1      4105 1.10158E+00
 -1      4106 1.28373E+00
 -1      4107 1.18523E+00
 -1      4108 1.96133E+00
 -1      4109 3.02225E+00
 -1      4110 1.96395E+00
 -1      4111 1.62084E+00
 -1      4112 1.44408E+00
 -1      4113 2.75936E+00
 -1      4114 1.90750E+00
 -1      4115 2.72805E+00
 -1      4116 1.62584E-01
 -1      4117 1.60724E-01
 -1      4118 1.79495E-01
 -1      4119 1.23139E+00
 -1      4120 1.08715E+00
 -1      4121 1.48639E+00
 -1      4122 9.28927E-01
 -1      4123 8.17978E-01
 -1      4124 1.11548E+00
 -1      4125 6.76282E-01
 -1      4126 5.92663E-01
 -1      4127 8.15565E-01
 -1      4128 4.94902E-01
 -1      4129 4.31856E-01
 -1      4130 5.76108E-01
 -1      4131 3.64487E-01
 -1      4132 3.16746E-01
 -1      4133 4.10978E-01
 -1      4134 2.69407E-01
 -1      4135 2.33046E-01
 -1      4136 2.96270E-01
 -1      4137 2.03982E-01
 -1      4138 1.76194E-01
 -1      4139 2.19867E-01
 -1      4140 1.62084E-01
 -1      4141 1.62584E-01
 -1      4142 1.76693E-01
 -1      4143 2.31731E-01
 -1      4144 2.68066E-01
 -1      4145 3.05771E-01
 -1      4146 3.52445E-01
 -1      4147 2.73150E-01
 -1      4148 5.28796E-01
 -1      4149 6.11451E-01
 -1      4150 4.75485E-01
 -1      4151 1.74126E-01
 -1      4152 2.02582E-01
 -1      4153 2.06297E-01
 -1      4154 1.30388E-01
 -1      4155 1.52235E-01
 -1      4156 1.55258E-01
 -1      4157 2.45004E-01
 -1      4158 2.15959E-01
 -1      4159 2.77360E-01
 -1      4160 2.01851E-01
 -1      4161 1.84179E-01
 -1      4162 1.82873E-01
 -1      4163 7.03625E-01
 -1      4164 8.15250E-01
 -1      4165 6.33599E-01
 -1      4166 2.28125E-01
 -1      4167 2.53548E-01
 -1      4168 2.28125E-01
 -1      4169 1.62584E-01
 -1      4170 3.37747E+00
 -1      4171 3.16517E+00
 -1      4172 2.13405E+00
 -1      4173 3.27155E+00
 -1      4174 1.35010E-01
 -1      4175 2.82568E-01
 -1      4176 3.14818E-01
 -1      4177 3.38430E-01
 -1      4178 9.30994E-01
 -1      4179 1.07215E+00
 -1      4180 8.41517E-01
 -1      4181 1.12843E-01
 -1      4182 1.59849E+00
 -1      4183 1.31524E+00
 -1      4184 1.10007E+00
 -1      4185 1.56523E+00
 -1      4186 9.79657E-02
 -1      4187 9.79657E-02
 -1      4188 7.69069E-02
 -1      4189 8.59028E-02
 -1      4190 8.79432E-02
 -1      4191 1.21232E-01
 -1      4192 8.90781E-02
 -1      4193 1.13080E-01
 -1      4194 1.19879E-01
 -1      4195 1.14233E+00
 -1      4196 1.25722E+00
 -1      4197 1.53024E+00
 -1      4198 1.98575E+00
 -1      4199 3.77061E+00
 -1      4200 3.38991E+00
 -1      4201 9.48915E-02
 -1      4202 2.45891E+00
 -1      4203 3.20727E+00
 -1      4204 2.34055E+00
 -1      4205 1.78131E+00
 -1      4206 1.23575E-01
 -1      4207 1.42346E-01
 -1      4208 1.03698E-01
 -1      4209 3.05776E-01
 -1      4210 3.60200E-01
 -1      4211 9.65558E-01
 -1      4212 8.42634E-01
 -1      4213 2.28843E-01
 -1      4214 1.02122E-01
 -1      4215 1.86853E+00
 -1      4216 2.32152E+00
 -1      4217 2.59384E+00
 -1      4218 1.66569E+00
 -1      4219 3.05125E-01
 -1      4220 2.70716E-01
 -1      4221 1.14192E-01
 -1      4222 1.29893E-01
 -1      4223 1.32871E-01
 -1      4224 1.06128E-01
 -1      4225 1.16931E-01
 -1      4226 3.45722E-01
 -1      4227 3.39079E-01
 -1      4228 3.93035E-01
 -1      4229 2.72805E+00
 -1      4230 8.21598E-01
 -1      4231 6.66044E-01
 -1      4232 5.86692E-01
 -1      4233 1.39838E-01
 -1      4234 1.82873E-01
 -1      4235 1.71700E-01
 -1      4236 2.14735E-01
 -1      4237 1.47480E-01
 -1      4238 1.47480E-01
 -1      4239 5.77392E-01
 -1      4240 5.16401E-01
 -1      4241 6.35708E-01
 -1      4242 4.84236E-01
 -1      4243 6.28222E-01
 -1      4244 6.37522E-01
 -1      4245 7.58389E-01
 -1      4246 9.34978E-01
 -1      4247 1.04115E+00
 -1      4248 1.18523E+00
 -1      4249 1.28635E+00
 -1      4250 1.78131E+00
 -1      4251 1.14227E+00
 -1      4252 1.51324E+00
 -1      4253 1.30055E+00
 -1      4254 2.97448E-01
 -1      4255 2.69683E-01
 -1      4256 2.55575E-01
 -1      4257 1.03698E-01
 -1      4258 1.11548E+00
 -1      4259 9.57262E-01
 -1      4260 8.41517E-01
 -1      4261 6.99821E-01
 -1      4262 6.07647E-01
 -1      4263 5.09886E-01
 -1      4264 4.43946E-01
 -1      4265 3.76576E-01
 -1      4266 3.27232E-01
 -1      4267 2.79893E-01
 -1      4268 2.42188E-01
 -1      4269 2.13124E-01
 -1      4270 1.83976E-01
 -1      4271 1.69866E-01
 -1      4272 1.10964E+00
 -1      4273 2.13820E+00
 -1      4274 1.85153E+00
 -1      4275 2.37955E-01
 -1      4276 2.86585E-01
 -1      4277 1.71700E-01
 -1      4278 2.55575E-01
 -1      4279 1.16931E-01
 -1      4280 1.05196E-01
 -1      4281 2.87618E-01
 -1      4282 3.16639E-01
 -1      4283 3.57236E-01
 -1      4284 3.60870E-01
 -1      4285 1.59966E-01
 -1      4286 1.97115E-01
 -1      4287 5.03042E-01
 -1      4288 1.27678E+00
 -1      4289 1.97377E+00
 -1      4290 1.70298E+00
 -1      4291 2.55575E-01
 -1      4292 1.40495E+00
 -1      4293 2.97448E-01
 -1      4294 1.90948E+00
 -1      4295 5.03042E-01
 -1      4296 6.26408E-01
 -1      4297 1.47975E-01
 -1      4298 2.96414E-01
 -1      4299 6.35708E-01
 -1      4300 1.41453E+00
 -3
 9999
