    1C
    1UUSER                                                              
    1UDATE              27.october.2022                                 
    1UTIME              00:35:40                                        
    1UHOST                                                              
    1UPGM               CalculiX                                        
    1UVERSION           Version 2.17                             
    1UCOMPILETIME       Thu Jul 23 21:43:50 CEST 2020                    
    1UDIR                                                               
    1UDBN                                                               
    1UMAT    1SOLIDMATERIAL                                             
    2C                          4325                                     1
 -1         1 9.81488E+01 2.82546E+01 0.00000E+00
 -1         2 1.00876E+02 2.27103E+01 0.00000E+00
 -1         3 1.50000E+02 0.00000E+00 0.00000E+00
 -1         4 1.50000E+02 5.00000E+01 0.00000E+00
 -1         5 0.00000E+00 0.00000E+00 0.00000E+00
 -1         6 0.00000E+00 5.00000E+01 0.00000E+00
 -1         7 0.00000E+00 4.70500E+01 0.00000E+00
 -1         8 0.00000E+00 4.41000E+01 0.00000E+00
 -1         9 0.00000E+00 4.11500E+01 0.00000E+00
 -1        10 0.00000E+00 3.82000E+01 0.00000E+00
 -1        11 0.00000E+00 3.52500E+01 0.00000E+00
 -1        12 0.00000E+00 3.23500E+01 0.00000E+00
 -1        13 0.00000E+00 2.94000E+01 0.00000E+00
 -1        14 0.00000E+00 2.64500E+01 0.00000E+00
 -1        15 0.00000E+00 2.35000E+01 0.00000E+00
 -1        16 0.00000E+00 2.05500E+01 0.00000E+00
 -1        17 0.00000E+00 1.76000E+01 0.00000E+00
 -1        18 0.00000E+00 1.47000E+01 0.00000E+00
 -1        19 0.00000E+00 1.17500E+01 0.00000E+00
 -1        20 0.00000E+00 8.80000E+00 0.00000E+00
 -1        21 0.00000E+00 5.85000E+00 0.00000E+00
 -1        22 0.00000E+00 2.90000E+00 0.00000E+00
 -1        23 3.15000E+00 5.00000E+01 0.00000E+00
 -1        24 6.15000E+00 5.00000E+01 0.00000E+00
 -1        25 9.15000E+00 5.00000E+01 0.00000E+00
 -1        26 1.21500E+01 5.00000E+01 0.00000E+00
 -1        27 1.51500E+01 5.00000E+01 0.00000E+00
 -1        28 1.81500E+01 5.00000E+01 0.00000E+00
 -1        29 2.11500E+01 5.00000E+01 0.00000E+00
 -1        30 2.41500E+01 5.00000E+01 0.00000E+00
 -1        31 2.71500E+01 5.00000E+01 0.00000E+00
 -1        32 3.01500E+01 5.00000E+01 0.00000E+00
 -1        33 3.31500E+01 5.00000E+01 0.00000E+00
 -1        34 3.61500E+01 5.00000E+01 0.00000E+00
 -1        35 3.91500E+01 5.00000E+01 0.00000E+00
 -1        36 4.21500E+01 5.00000E+01 0.00000E+00
 -1        37 4.51500E+01 5.00000E+01 0.00000E+00
 -1        38 4.81500E+01 5.00000E+01 0.00000E+00
 -1        39 5.11500E+01 5.00000E+01 0.00000E+00
 -1        40 5.41500E+01 5.00000E+01 0.00000E+00
 -1        41 5.71500E+01 5.00000E+01 0.00000E+00
 -1        42 6.01500E+01 5.00000E+01 0.00000E+00
 -1        43 6.31500E+01 5.00000E+01 0.00000E+00
 -1        44 6.61500E+01 5.00000E+01 0.00000E+00
 -1        45 6.91500E+01 5.00000E+01 0.00000E+00
 -1        46 7.21500E+01 5.00000E+01 0.00000E+00
 -1        47 7.51500E+01 5.00000E+01 0.00000E+00
 -1        48 7.81500E+01 5.00000E+01 0.00000E+00
 -1        49 8.11500E+01 5.00000E+01 0.00000E+00
 -1        50 8.41500E+01 5.00000E+01 0.00000E+00
 -1        51 8.71500E+01 5.00000E+01 0.00000E+00
 -1        52 9.01500E+01 5.00000E+01 0.00000E+00
 -1        53 9.31500E+01 5.00000E+01 0.00000E+00
 -1        54 9.61500E+01 5.00000E+01 0.00000E+00
 -1        55 9.91500E+01 5.00000E+01 0.00000E+00
 -1        56 1.02150E+02 5.00000E+01 0.00000E+00
 -1        57 1.05150E+02 5.00000E+01 0.00000E+00
 -1        58 1.08150E+02 5.00000E+01 0.00000E+00
 -1        59 1.11150E+02 5.00000E+01 0.00000E+00
 -1        60 1.14150E+02 5.00000E+01 0.00000E+00
 -1        61 1.17150E+02 5.00000E+01 0.00000E+00
 -1        62 1.20150E+02 5.00000E+01 0.00000E+00
 -1        63 1.23150E+02 5.00000E+01 0.00000E+00
 -1        64 1.26150E+02 5.00000E+01 0.00000E+00
 -1        65 1.29150E+02 5.00000E+01 0.00000E+00
 -1        66 1.32150E+02 5.00000E+01 0.00000E+00
 -1        67 1.35150E+02 5.00000E+01 0.00000E+00
 -1        68 1.38150E+02 5.00000E+01 0.00000E+00
 -1        69 1.41150E+02 5.00000E+01 0.00000E+00
 -1        70 1.44150E+02 5.00000E+01 0.00000E+00
 -1        71 1.47150E+02 5.00000E+01 0.00000E+00
 -1        72 3.15000E+00 0.00000E+00 0.00000E+00
 -1        73 6.15000E+00 0.00000E+00 0.00000E+00
 -1        74 9.15000E+00 0.00000E+00 0.00000E+00
 -1        75 1.21500E+01 0.00000E+00 0.00000E+00
 -1        76 1.51500E+01 0.00000E+00 0.00000E+00
 -1        77 1.81500E+01 0.00000E+00 0.00000E+00
 -1        78 2.11500E+01 0.00000E+00 0.00000E+00
 -1        79 2.41500E+01 0.00000E+00 0.00000E+00
 -1        80 2.71500E+01 0.00000E+00 0.00000E+00
 -1        81 3.01500E+01 0.00000E+00 0.00000E+00
 -1        82 3.31500E+01 0.00000E+00 0.00000E+00
 -1        83 3.61500E+01 0.00000E+00 0.00000E+00
 -1        84 3.91500E+01 0.00000E+00 0.00000E+00
 -1        85 4.21500E+01 0.00000E+00 0.00000E+00
 -1        86 4.51500E+01 0.00000E+00 0.00000E+00
 -1        87 4.81500E+01 0.00000E+00 0.00000E+00
 -1        88 5.11500E+01 0.00000E+00 0.00000E+00
 -1        89 5.41500E+01 0.00000E+00 0.00000E+00
 -1        90 5.71500E+01 0.00000E+00 0.00000E+00
 -1        91 6.01500E+01 0.00000E+00 0.00000E+00
 -1        92 6.31500E+01 0.00000E+00 0.00000E+00
 -1        93 6.61500E+01 0.00000E+00 0.00000E+00
 -1        94 6.91500E+01 0.00000E+00 0.00000E+00
 -1        95 7.21500E+01 0.00000E+00 0.00000E+00
 -1        96 7.51500E+01 0.00000E+00 0.00000E+00
 -1        97 7.81500E+01 0.00000E+00 0.00000E+00
 -1        98 8.11500E+01 0.00000E+00 0.00000E+00
 -1        99 8.41500E+01 0.00000E+00 0.00000E+00
 -1       100 8.71500E+01 0.00000E+00 0.00000E+00
 -1       101 9.01500E+01 0.00000E+00 0.00000E+00
 -1       102 9.31500E+01 0.00000E+00 0.00000E+00
 -1       103 9.61500E+01 0.00000E+00 0.00000E+00
 -1       104 9.91500E+01 0.00000E+00 0.00000E+00
 -1       105 1.02150E+02 0.00000E+00 0.00000E+00
 -1       106 1.05150E+02 0.00000E+00 0.00000E+00
 -1       107 1.08150E+02 0.00000E+00 0.00000E+00
 -1       108 1.11150E+02 0.00000E+00 0.00000E+00
 -1       109 1.14150E+02 0.00000E+00 0.00000E+00
 -1       110 1.17150E+02 0.00000E+00 0.00000E+00
 -1       111 1.20150E+02 0.00000E+00 0.00000E+00
 -1       112 1.23150E+02 0.00000E+00 0.00000E+00
 -1       113 1.26150E+02 0.00000E+00 0.00000E+00
 -1       114 1.29150E+02 0.00000E+00 0.00000E+00
 -1       115 1.32150E+02 0.00000E+00 0.00000E+00
 -1       116 1.35150E+02 0.00000E+00 0.00000E+00
 -1       117 1.38150E+02 0.00000E+00 0.00000E+00
 -1       118 1.41150E+02 0.00000E+00 0.00000E+00
 -1       119 1.44150E+02 0.00000E+00 0.00000E+00
 -1       120 1.47150E+02 0.00000E+00 0.00000E+00
 -1       121 1.50000E+02 2.95000E+00 0.00000E+00
 -1       122 1.50000E+02 5.90000E+00 0.00000E+00
 -1       123 1.50000E+02 8.85000E+00 0.00000E+00
 -1       124 1.50000E+02 1.18000E+01 0.00000E+00
 -1       125 1.50000E+02 1.47500E+01 0.00000E+00
 -1       126 1.50000E+02 1.76500E+01 0.00000E+00
 -1       127 1.50000E+02 2.06000E+01 0.00000E+00
 -1       128 1.50000E+02 2.35500E+01 0.00000E+00
 -1       129 1.50000E+02 2.65000E+01 0.00000E+00
 -1       130 1.50000E+02 2.94500E+01 0.00000E+00
 -1       131 1.50000E+02 3.24000E+01 0.00000E+00
 -1       132 1.50000E+02 3.53000E+01 0.00000E+00
 -1       133 1.50000E+02 3.82500E+01 0.00000E+00
 -1       134 1.50000E+02 4.12000E+01 0.00000E+00
 -1       135 1.50000E+02 4.41500E+01 0.00000E+00
 -1       136 1.50000E+02 4.71000E+01 0.00000E+00
 -1       137 1.00708E+02 2.11865E+01 0.00000E+00
 -1       138 1.00266E+02 1.98537E+01 0.00000E+00
 -1       139 9.94913E+01 1.85313E+01 0.00000E+00
 -1       140 9.85396E+01 1.74904E+01 0.00000E+00
 -1       141 9.73093E+01 1.66104E+01 0.00000E+00
 -1       142 9.59717E+01 1.60315E+01 0.00000E+00
 -1       143 9.45969E+01 1.57476E+01 0.00000E+00
 -1       144 9.30322E+01 1.57613E+01 0.00000E+00
 -1       145 9.15054E+01 1.61238E+01 0.00000E+00
 -1       146 9.01073E+01 1.68111E+01 0.00000E+00
 -1       147 8.89739E+01 1.77130E+01 0.00000E+00
 -1       148 8.80248E+01 1.88674E+01 0.00000E+00
 -1       149 8.73358E+01 2.02140E+01 0.00000E+00
 -1       150 8.69557E+01 2.16539E+01 0.00000E+00
 -1       151 8.68857E+01 2.30863E+01 0.00000E+00
 -1       152 8.71367E+01 2.46045E+01 0.00000E+00
 -1       153 8.76565E+01 2.59233E+01 0.00000E+00
 -1       154 8.85199E+01 2.72178E+01 0.00000E+00
 -1       155 8.95549E+01 2.82178E+01 0.00000E+00
 -1       156 9.07965E+01 2.89968E+01 0.00000E+00
 -1       157 9.21053E+01 2.94828E+01 0.00000E+00
 -1       158 9.38183E+01 2.97101E+01 0.00000E+00
 -1       159 9.52812E+01 2.95677E+01 0.00000E+00
 -1       160 9.67464E+01 2.90945E+01 0.00000E+00
 -1       161 9.92943E+01 2.71417E+01 0.00000E+00
 -1       162 1.00179E+02 2.57547E+01 0.00000E+00
 -1       163 1.00694E+02 2.42944E+01 0.00000E+00
 -1       164 2.59800E+00 4.55750E+01 0.00000E+00
 -1       165 2.59800E+00 4.26250E+01 0.00000E+00
 -1       166 2.59800E+00 3.96750E+01 0.00000E+00
 -1       167 2.59800E+00 3.67250E+01 0.00000E+00
 -1       168 2.59800E+00 3.38250E+01 0.00000E+00
 -1       169 2.59800E+00 3.08750E+01 0.00000E+00
 -1       170 2.59800E+00 2.79250E+01 0.00000E+00
 -1       171 2.59800E+00 2.49750E+01 0.00000E+00
 -1       172 2.59800E+00 2.20250E+01 0.00000E+00
 -1       173 2.59800E+00 1.90750E+01 0.00000E+00
 -1       174 2.59800E+00 1.61750E+01 0.00000E+00
 -1       175 2.59800E+00 1.32250E+01 0.00000E+00
 -1       176 2.59800E+00 1.02750E+01 0.00000E+00
 -1       177 2.59800E+00 7.32500E+00 0.00000E+00
 -1       178 2.59800E+00 4.37500E+00 0.00000E+00
 -1       179 2.87400E+00 2.18750E+00 0.00000E+00
 -1       180 4.65000E+00 4.74020E+01 0.00000E+00
 -1       181 7.65000E+00 4.74020E+01 0.00000E+00
 -1       182 1.06500E+01 4.74020E+01 0.00000E+00
 -1       183 1.36500E+01 4.74020E+01 0.00000E+00
 -1       184 1.66500E+01 4.74020E+01 0.00000E+00
 -1       185 1.96500E+01 4.74020E+01 0.00000E+00
 -1       186 2.26500E+01 4.74020E+01 0.00000E+00
 -1       187 2.56500E+01 4.74020E+01 0.00000E+00
 -1       188 2.86500E+01 4.74020E+01 0.00000E+00
 -1       189 3.16500E+01 4.74020E+01 0.00000E+00
 -1       190 3.46500E+01 4.74020E+01 0.00000E+00
 -1       191 3.76500E+01 4.74020E+01 0.00000E+00
 -1       192 4.06500E+01 4.74020E+01 0.00000E+00
 -1       193 4.36500E+01 4.74020E+01 0.00000E+00
 -1       194 4.66500E+01 4.74020E+01 0.00000E+00
 -1       195 4.96500E+01 4.74020E+01 0.00000E+00
 -1       196 5.26500E+01 4.74020E+01 0.00000E+00
 -1       197 5.56500E+01 4.74020E+01 0.00000E+00
 -1       198 5.86500E+01 4.74020E+01 0.00000E+00
 -1       199 6.16500E+01 4.74020E+01 0.00000E+00
 -1       200 6.46500E+01 4.74020E+01 0.00000E+00
 -1       201 6.76500E+01 4.74020E+01 0.00000E+00
 -1       202 7.06500E+01 4.74020E+01 0.00000E+00
 -1       203 7.36500E+01 4.74020E+01 0.00000E+00
 -1       204 7.66500E+01 4.74020E+01 0.00000E+00
 -1       205 7.96500E+01 4.74020E+01 0.00000E+00
 -1       206 8.26500E+01 4.74020E+01 0.00000E+00
 -1       207 8.56500E+01 4.74020E+01 0.00000E+00
 -1       208 8.86500E+01 4.74020E+01 0.00000E+00
 -1       209 9.16500E+01 4.74020E+01 0.00000E+00
 -1       210 9.46500E+01 4.74020E+01 0.00000E+00
 -1       211 9.76500E+01 4.74020E+01 0.00000E+00
 -1       212 1.00650E+02 4.74020E+01 0.00000E+00
 -1       213 1.03650E+02 4.74020E+01 0.00000E+00
 -1       214 1.06650E+02 4.74020E+01 0.00000E+00
 -1       215 1.09650E+02 4.74020E+01 0.00000E+00
 -1       216 1.12650E+02 4.74020E+01 0.00000E+00
 -1       217 1.15650E+02 4.74020E+01 0.00000E+00
 -1       218 1.18650E+02 4.74020E+01 0.00000E+00
 -1       219 1.21650E+02 4.74020E+01 0.00000E+00
 -1       220 1.24650E+02 4.74020E+01 0.00000E+00
 -1       221 1.27650E+02 4.74020E+01 0.00000E+00
 -1       222 1.30650E+02 4.74020E+01 0.00000E+00
 -1       223 1.33650E+02 4.74020E+01 0.00000E+00
 -1       224 1.36650E+02 4.74020E+01 0.00000E+00
 -1       225 1.39650E+02 4.74020E+01 0.00000E+00
 -1       226 1.42650E+02 4.74020E+01 0.00000E+00
 -1       227 1.45650E+02 4.74020E+01 0.00000E+00
 -1       228 5.87400E+00 2.18750E+00 0.00000E+00
 -1       229 8.87400E+00 2.18750E+00 0.00000E+00
 -1       230 1.18740E+01 2.18750E+00 0.00000E+00
 -1       231 1.48740E+01 2.18750E+00 0.00000E+00
 -1       232 1.78740E+01 2.18750E+00 0.00000E+00
 -1       233 2.08740E+01 2.18750E+00 0.00000E+00
 -1       234 2.38740E+01 2.18750E+00 0.00000E+00
 -1       235 2.68740E+01 2.18750E+00 0.00000E+00
 -1       236 2.98740E+01 2.18750E+00 0.00000E+00
 -1       237 3.28740E+01 2.18750E+00 0.00000E+00
 -1       238 3.58740E+01 2.18750E+00 0.00000E+00
 -1       239 3.88740E+01 2.18750E+00 0.00000E+00
 -1       240 4.18740E+01 2.18750E+00 0.00000E+00
 -1       241 4.48740E+01 2.18750E+00 0.00000E+00
 -1       242 4.78740E+01 2.18750E+00 0.00000E+00
 -1       243 5.08740E+01 2.18750E+00 0.00000E+00
 -1       244 5.38740E+01 2.18750E+00 0.00000E+00
 -1       245 5.68740E+01 2.18750E+00 0.00000E+00
 -1       246 5.98740E+01 2.18750E+00 0.00000E+00
 -1       247 6.28740E+01 2.18750E+00 0.00000E+00
 -1       248 6.58740E+01 2.18750E+00 0.00000E+00
 -1       249 6.88740E+01 2.18750E+00 0.00000E+00
 -1       250 7.18740E+01 2.18750E+00 0.00000E+00
 -1       251 7.48740E+01 2.18750E+00 0.00000E+00
 -1       252 7.78740E+01 2.18750E+00 0.00000E+00
 -1       253 8.08740E+01 2.18750E+00 0.00000E+00
 -1       254 8.38740E+01 2.18750E+00 0.00000E+00
 -1       255 8.68740E+01 2.18750E+00 0.00000E+00
 -1       256 8.98740E+01 2.18750E+00 0.00000E+00
 -1       257 9.28740E+01 2.18750E+00 0.00000E+00
 -1       258 9.58740E+01 2.18750E+00 0.00000E+00
 -1       259 9.88740E+01 2.18750E+00 0.00000E+00
 -1       260 1.01874E+02 2.18750E+00 0.00000E+00
 -1       261 1.04874E+02 2.18750E+00 0.00000E+00
 -1       262 1.07874E+02 2.18750E+00 0.00000E+00
 -1       263 1.10874E+02 2.18750E+00 0.00000E+00
 -1       264 1.13874E+02 2.18750E+00 0.00000E+00
 -1       265 1.16874E+02 2.18750E+00 0.00000E+00
 -1       266 1.19874E+02 2.18750E+00 0.00000E+00
 -1       267 1.22874E+02 2.18750E+00 0.00000E+00
 -1       268 1.25874E+02 2.18750E+00 0.00000E+00
 -1       269 1.28874E+02 2.18750E+00 0.00000E+00
 -1       270 1.31874E+02 2.18750E+00 0.00000E+00
 -1       271 1.34874E+02 2.18750E+00 0.00000E+00
 -1       272 1.37874E+02 2.18750E+00 0.00000E+00
 -1       273 1.40874E+02 2.18750E+00 0.00000E+00
 -1       274 1.43874E+02 2.18750E+00 0.00000E+00
 -1       275 1.46874E+02 2.18750E+00 0.00000E+00
 -1       276 1.47402E+02 4.42500E+00 0.00000E+00
 -1       277 1.47402E+02 7.37500E+00 0.00000E+00
 -1       278 1.47402E+02 1.03250E+01 0.00000E+00
 -1       279 1.47402E+02 1.32750E+01 0.00000E+00
 -1       280 1.47402E+02 1.61750E+01 0.00000E+00
 -1       281 1.47402E+02 1.91250E+01 0.00000E+00
 -1       282 1.47402E+02 2.20750E+01 0.00000E+00
 -1       283 1.47402E+02 2.50250E+01 0.00000E+00
 -1       284 1.47402E+02 2.79750E+01 0.00000E+00
 -1       285 1.47402E+02 3.09250E+01 0.00000E+00
 -1       286 1.47402E+02 3.38250E+01 0.00000E+00
 -1       287 1.47402E+02 3.67750E+01 0.00000E+00
 -1       288 1.47402E+02 3.97250E+01 0.00000E+00
 -1       289 1.47402E+02 4.26750E+01 0.00000E+00
 -1       290 1.46526E+02 4.50385E+01 0.00000E+00
 -1       291 1.02163E+02 2.17973E+01 0.00000E+00
 -1       292 1.01638E+02 2.01388E+01 0.00000E+00
 -1       293 1.01214E+02 1.84101E+01 0.00000E+00
 -1       294 9.99102E+01 1.71928E+01 0.00000E+00
 -1       295 9.87273E+01 1.59281E+01 0.00000E+00
 -1       296 9.71553E+01 1.51314E+01 0.00000E+00
 -1       297 9.55296E+01 1.47022E+01 0.00000E+00
 -1       298 9.38024E+01 1.43745E+01 0.00000E+00
 -1       299 9.19306E+01 1.45184E+01 0.00000E+00
 -1       300 9.01236E+01 1.50787E+01 0.00000E+00
 -1       301 8.87857E+01 1.63133E+01 0.00000E+00
 -1       302 8.75628E+01 1.75202E+01 0.00000E+00
 -1       303 8.66009E+01 1.89885E+01 0.00000E+00
 -1       304 8.58925E+01 2.06031E+01 0.00000E+00
 -1       305 8.56261E+01 2.23068E+01 0.00000E+00
 -1       306 8.56497E+01 2.40706E+01 0.00000E+00
 -1       307 8.62687E+01 2.57085E+01 0.00000E+00
 -1       308 8.70099E+01 2.72898E+01 0.00000E+00
 -1       309 8.81950E+01 2.85897E+01 0.00000E+00
 -1       310 8.95313E+01 2.96343E+01 0.00000E+00
 -1       311 9.10288E+01 3.03763E+01 0.00000E+00
 -1       312 9.27693E+01 3.10475E+01 0.00000E+00
 -1       313 9.46672E+01 3.08456E+01 0.00000E+00
 -1       314 9.64379E+01 3.06443E+01 0.00000E+00
 -1       315 9.82427E+01 3.00022E+01 0.00000E+00
 -1       316 9.95664E+01 2.85677E+01 0.00000E+00
 -1       317 1.00900E+02 2.71902E+01 0.00000E+00
 -1       318 1.01580E+02 2.54279E+01 0.00000E+00
 -1       319 1.01989E+02 2.36405E+01 0.00000E+00
 -1       320 5.19600E+00 4.11500E+01 0.00000E+00
 -1       321 5.19600E+00 4.41000E+01 0.00000E+00
 -1       322 5.19600E+00 3.52750E+01 0.00000E+00
 -1       323 5.19600E+00 3.23250E+01 0.00000E+00
 -1       324 5.19600E+00 2.93750E+01 0.00000E+00
 -1       325 5.19600E+00 2.64250E+01 0.00000E+00
 -1       326 5.19600E+00 2.34750E+01 0.00000E+00
 -1       327 5.19600E+00 2.05250E+01 0.00000E+00
 -1       328 5.19600E+00 1.76250E+01 0.00000E+00
 -1       329 5.19600E+00 1.46750E+01 0.00000E+00
 -1       330 5.19600E+00 1.17250E+01 0.00000E+00
 -1       331 5.19600E+00 8.77500E+00 0.00000E+00
 -1       332 5.19600E+00 5.82500E+00 0.00000E+00
 -1       333 5.53500E+00 4.00625E+00 0.00000E+00
 -1       334 8.53500E+00 4.00625E+00 0.00000E+00
 -1       335 9.15000E+00 4.48040E+01 0.00000E+00
 -1       336 1.21500E+01 4.48040E+01 0.00000E+00
 -1       337 1.51500E+01 4.48040E+01 0.00000E+00
 -1       338 1.81500E+01 4.48040E+01 0.00000E+00
 -1       339 2.11500E+01 4.48040E+01 0.00000E+00
 -1       340 2.41500E+01 4.48040E+01 0.00000E+00
 -1       341 2.71500E+01 4.48040E+01 0.00000E+00
 -1       342 3.01500E+01 4.48040E+01 0.00000E+00
 -1       343 3.31500E+01 4.48040E+01 0.00000E+00
 -1       344 3.61500E+01 4.48040E+01 0.00000E+00
 -1       345 3.91500E+01 4.48040E+01 0.00000E+00
 -1       346 4.21500E+01 4.48040E+01 0.00000E+00
 -1       347 4.51500E+01 4.48040E+01 0.00000E+00
 -1       348 4.81500E+01 4.48040E+01 0.00000E+00
 -1       349 5.11500E+01 4.48040E+01 0.00000E+00
 -1       350 5.41500E+01 4.48040E+01 0.00000E+00
 -1       351 5.71500E+01 4.48040E+01 0.00000E+00
 -1       352 6.01500E+01 4.48040E+01 0.00000E+00
 -1       353 6.31500E+01 4.48040E+01 0.00000E+00
 -1       354 6.61500E+01 4.48040E+01 0.00000E+00
 -1       355 6.91500E+01 4.48040E+01 0.00000E+00
 -1       356 7.21500E+01 4.48040E+01 0.00000E+00
 -1       357 7.51500E+01 4.48040E+01 0.00000E+00
 -1       358 7.81500E+01 4.48040E+01 0.00000E+00
 -1       359 8.11500E+01 4.48040E+01 0.00000E+00
 -1       360 8.41500E+01 4.48040E+01 0.00000E+00
 -1       361 8.71500E+01 4.48040E+01 0.00000E+00
 -1       362 9.01500E+01 4.48040E+01 0.00000E+00
 -1       363 9.31500E+01 4.48040E+01 0.00000E+00
 -1       364 9.61500E+01 4.48040E+01 0.00000E+00
 -1       365 9.91500E+01 4.48040E+01 0.00000E+00
 -1       366 1.02150E+02 4.48040E+01 0.00000E+00
 -1       367 1.05150E+02 4.48040E+01 0.00000E+00
 -1       368 1.08150E+02 4.48040E+01 0.00000E+00
 -1       369 1.11150E+02 4.48040E+01 0.00000E+00
 -1       370 1.14150E+02 4.48040E+01 0.00000E+00
 -1       371 1.17150E+02 4.48040E+01 0.00000E+00
 -1       372 1.20150E+02 4.48040E+01 0.00000E+00
 -1       373 1.23150E+02 4.48040E+01 0.00000E+00
 -1       374 1.26150E+02 4.48040E+01 0.00000E+00
 -1       375 1.29150E+02 4.48040E+01 0.00000E+00
 -1       376 1.32150E+02 4.48040E+01 0.00000E+00
 -1       377 1.35150E+02 4.48040E+01 0.00000E+00
 -1       378 1.38150E+02 4.48040E+01 0.00000E+00
 -1       379 1.41150E+02 4.48040E+01 0.00000E+00
 -1       380 1.43838E+02 4.49212E+01 0.00000E+00
 -1       381 1.15350E+01 4.00625E+00 0.00000E+00
 -1       382 1.45350E+01 4.00625E+00 0.00000E+00
 -1       383 1.75350E+01 4.00625E+00 0.00000E+00
 -1       384 2.05350E+01 4.00625E+00 0.00000E+00
 -1       385 2.35350E+01 4.00625E+00 0.00000E+00
 -1       386 2.65350E+01 4.00625E+00 0.00000E+00
 -1       387 2.95350E+01 4.00625E+00 0.00000E+00
 -1       388 3.25350E+01 4.00625E+00 0.00000E+00
 -1       389 3.55350E+01 4.00625E+00 0.00000E+00
 -1       390 3.85350E+01 4.00625E+00 0.00000E+00
 -1       391 4.15350E+01 4.00625E+00 0.00000E+00
 -1       392 4.45350E+01 4.00625E+00 0.00000E+00
 -1       393 4.75350E+01 4.00625E+00 0.00000E+00
 -1       394 5.05350E+01 4.00625E+00 0.00000E+00
 -1       395 5.35350E+01 4.00625E+00 0.00000E+00
 -1       396 5.65350E+01 4.00625E+00 0.00000E+00
 -1       397 5.95350E+01 4.00625E+00 0.00000E+00
 -1       398 6.25350E+01 4.00625E+00 0.00000E+00
 -1       399 6.55350E+01 4.00625E+00 0.00000E+00
 -1       400 6.85350E+01 4.00625E+00 0.00000E+00
 -1       401 7.15350E+01 4.00625E+00 0.00000E+00
 -1       402 7.45350E+01 4.00625E+00 0.00000E+00
 -1       403 7.75350E+01 4.00625E+00 0.00000E+00
 -1       404 8.05350E+01 4.00625E+00 0.00000E+00
 -1       405 8.35350E+01 4.00625E+00 0.00000E+00
 -1       406 8.65350E+01 4.00625E+00 0.00000E+00
 -1       407 8.95350E+01 4.00625E+00 0.00000E+00
 -1       408 9.25350E+01 4.00625E+00 0.00000E+00
 -1       409 9.55350E+01 4.00625E+00 0.00000E+00
 -1       410 9.85350E+01 4.00625E+00 0.00000E+00
 -1       411 1.01535E+02 4.00625E+00 0.00000E+00
 -1       412 1.04535E+02 4.00625E+00 0.00000E+00
 -1       413 1.07535E+02 4.00625E+00 0.00000E+00
 -1       414 1.10535E+02 4.00625E+00 0.00000E+00
 -1       415 1.13535E+02 4.00625E+00 0.00000E+00
 -1       416 1.16535E+02 4.00625E+00 0.00000E+00
 -1       417 1.19535E+02 4.00625E+00 0.00000E+00
 -1       418 1.22535E+02 4.00625E+00 0.00000E+00
 -1       419 1.25535E+02 4.00625E+00 0.00000E+00
 -1       420 1.28535E+02 4.00625E+00 0.00000E+00
 -1       421 1.31535E+02 4.00625E+00 0.00000E+00
 -1       422 1.34535E+02 4.00625E+00 0.00000E+00
 -1       423 1.37535E+02 4.00625E+00 0.00000E+00
 -1       424 1.40535E+02 4.00625E+00 0.00000E+00
 -1       425 1.43535E+02 4.00625E+00 0.00000E+00
 -1       426 1.45469E+02 4.21562E+00 0.00000E+00
 -1       427 1.44804E+02 1.18000E+01 0.00000E+00
 -1       428 1.44804E+02 8.85000E+00 0.00000E+00
 -1       429 1.45136E+02 6.53281E+00 0.00000E+00
 -1       430 1.44804E+02 1.47000E+01 0.00000E+00
 -1       431 1.44804E+02 1.76500E+01 0.00000E+00
 -1       432 1.44804E+02 2.06000E+01 0.00000E+00
 -1       433 1.44804E+02 2.35500E+01 0.00000E+00
 -1       434 1.44804E+02 2.65000E+01 0.00000E+00
 -1       435 1.44804E+02 2.94500E+01 0.00000E+00
 -1       436 1.44804E+02 3.23500E+01 0.00000E+00
 -1       437 1.44804E+02 3.53000E+01 0.00000E+00
 -1       438 1.44804E+02 3.82500E+01 0.00000E+00
 -1       439 1.44804E+02 4.12000E+01 0.00000E+00
 -1       440 1.02847E+02 1.89258E+01 0.00000E+00
 -1       441 1.03450E+02 2.28486E+01 0.00000E+00
 -1       442 1.03373E+02 2.05843E+01 0.00000E+00
 -1       443 1.01447E+02 1.68540E+01 0.00000E+00
 -1       444 1.00264E+02 1.55893E+01 0.00000E+00
 -1       445 5.19600E+00 3.82125E+01 0.00000E+00
 -1       446 9.67160E+01 1.35015E+01 0.00000E+00
 -1       447 9.49889E+01 1.31738E+01 0.00000E+00
 -1       448 9.27415E+01 1.28199E+01 0.00000E+00
 -1       449 9.06184E+01 1.34805E+01 0.00000E+00
 -1       450 8.85188E+01 1.46819E+01 0.00000E+00
 -1       451 8.72958E+01 1.58888E+01 0.00000E+00
 -1       452 8.59276E+01 1.74981E+01 0.00000E+00
 -1       453 8.49063E+01 1.92077E+01 0.00000E+00
 -1       454 8.44787E+01 2.12547E+01 0.00000E+00
 -1       455 8.40905E+01 2.32094E+01 0.00000E+00
 -1       456 8.45116E+01 2.54366E+01 0.00000E+00
 -1       457 8.52528E+01 2.70179E+01 0.00000E+00
 -1       458 8.65827E+01 2.88694E+01 0.00000E+00
 -1       459 8.80133E+01 3.01992E+01 0.00000E+00
 -1       460 8.96673E+01 3.12418E+01 0.00000E+00
 -1       461 9.14327E+01 3.19213E+01 0.00000E+00
 -1       462 9.38730E+01 3.24021E+01 0.00000E+00
 -1       463 9.56437E+01 3.22008E+01 0.00000E+00
 -1       464 9.78590E+01 3.17813E+01 0.00000E+00
 -1       465 9.99803E+01 3.02776E+01 0.00000E+00
 -1       466 1.01314E+02 2.89001E+01 0.00000E+00
 -1       467 1.02449E+02 2.67755E+01 0.00000E+00
 -1       468 1.03293E+02 2.48798E+01 0.00000E+00
 -1       469 9.86788E+01 1.40746E+01 0.00000E+00
 -1       470 8.90136E+01 1.30837E+01 0.00000E+00
 -1       471 1.03080E+02 1.73698E+01 0.00000E+00
 -1       472 1.02863E+02 2.84854E+01 0.00000E+00
 -1       473 9.25365E+01 3.32759E+01 0.00000E+00
 -1       474 9.95966E+01 3.20567E+01 0.00000E+00
 -1       475 1.00350E+01 6.60425E+00 0.00000E+00
 -1       476 7.79400E+00 3.08500E+01 0.00000E+00
 -1       477 7.79400E+00 3.38000E+01 0.00000E+00
 -1       478 7.79400E+00 2.49500E+01 0.00000E+00
 -1       479 7.79400E+00 2.20000E+01 0.00000E+00
 -1       480 7.79400E+00 1.91000E+01 0.00000E+00
 -1       481 7.79400E+00 1.61500E+01 0.00000E+00
 -1       482 7.79400E+00 1.32000E+01 0.00000E+00
 -1       483 7.79400E+00 1.02500E+01 0.00000E+00
 -1       484 1.30350E+01 6.60425E+00 0.00000E+00
 -1       485 1.06500E+01 4.22060E+01 0.00000E+00
 -1       486 1.36500E+01 4.22060E+01 0.00000E+00
 -1       487 1.66500E+01 4.22060E+01 0.00000E+00
 -1       488 1.96500E+01 4.22060E+01 0.00000E+00
 -1       489 2.26500E+01 4.22060E+01 0.00000E+00
 -1       490 2.56500E+01 4.22060E+01 0.00000E+00
 -1       491 2.86500E+01 4.22060E+01 0.00000E+00
 -1       492 3.16500E+01 4.22060E+01 0.00000E+00
 -1       493 3.46500E+01 4.22060E+01 0.00000E+00
 -1       494 3.76500E+01 4.22060E+01 0.00000E+00
 -1       495 4.06500E+01 4.22060E+01 0.00000E+00
 -1       496 4.36500E+01 4.22060E+01 0.00000E+00
 -1       497 4.66500E+01 4.22060E+01 0.00000E+00
 -1       498 4.96500E+01 4.22060E+01 0.00000E+00
 -1       499 5.26500E+01 4.22060E+01 0.00000E+00
 -1       500 5.56500E+01 4.22060E+01 0.00000E+00
 -1       501 5.86500E+01 4.22060E+01 0.00000E+00
 -1       502 6.16500E+01 4.22060E+01 0.00000E+00
 -1       503 6.46500E+01 4.22060E+01 0.00000E+00
 -1       504 6.76500E+01 4.22060E+01 0.00000E+00
 -1       505 7.06500E+01 4.22060E+01 0.00000E+00
 -1       506 7.36500E+01 4.22060E+01 0.00000E+00
 -1       507 7.66500E+01 4.22060E+01 0.00000E+00
 -1       508 7.96500E+01 4.22060E+01 0.00000E+00
 -1       509 8.26500E+01 4.22060E+01 0.00000E+00
 -1       510 8.56500E+01 4.22060E+01 0.00000E+00
 -1       511 8.86500E+01 4.22060E+01 0.00000E+00
 -1       512 9.16500E+01 4.22060E+01 0.00000E+00
 -1       513 9.46500E+01 4.22060E+01 0.00000E+00
 -1       514 9.76500E+01 4.22060E+01 0.00000E+00
 -1       515 1.00650E+02 4.22060E+01 0.00000E+00
 -1       516 1.03650E+02 4.22060E+01 0.00000E+00
 -1       517 1.06650E+02 4.22060E+01 0.00000E+00
 -1       518 1.09650E+02 4.22060E+01 0.00000E+00
 -1       519 1.12650E+02 4.22060E+01 0.00000E+00
 -1       520 1.15650E+02 4.22060E+01 0.00000E+00
 -1       521 1.18650E+02 4.22060E+01 0.00000E+00
 -1       522 1.21650E+02 4.22060E+01 0.00000E+00
 -1       523 1.24650E+02 4.22060E+01 0.00000E+00
 -1       524 1.27650E+02 4.22060E+01 0.00000E+00
 -1       525 1.30650E+02 4.22060E+01 0.00000E+00
 -1       526 1.33650E+02 4.22060E+01 0.00000E+00
 -1       527 1.36650E+02 4.22060E+01 0.00000E+00
 -1       528 1.39650E+02 4.22060E+01 0.00000E+00
 -1       529 1.04585E+02 1.92877E+01 0.00000E+00
 -1       530 1.90350E+01 6.60425E+00 0.00000E+00
 -1       531 2.20350E+01 6.60425E+00 0.00000E+00
 -1       532 2.50350E+01 6.60425E+00 0.00000E+00
 -1       533 2.80350E+01 6.60425E+00 0.00000E+00
 -1       534 3.10350E+01 6.60425E+00 0.00000E+00
 -1       535 3.40350E+01 6.60425E+00 0.00000E+00
 -1       536 3.70350E+01 6.60425E+00 0.00000E+00
 -1       537 4.00350E+01 6.60425E+00 0.00000E+00
 -1       538 4.30350E+01 6.60425E+00 0.00000E+00
 -1       539 4.60350E+01 6.60425E+00 0.00000E+00
 -1       540 4.90350E+01 6.60425E+00 0.00000E+00
 -1       541 5.20350E+01 6.60425E+00 0.00000E+00
 -1       542 5.50350E+01 6.60425E+00 0.00000E+00
 -1       543 5.80350E+01 6.60425E+00 0.00000E+00
 -1       544 6.10350E+01 6.60425E+00 0.00000E+00
 -1       545 6.40350E+01 6.60425E+00 0.00000E+00
 -1       546 6.70350E+01 6.60425E+00 0.00000E+00
 -1       547 7.00350E+01 6.60425E+00 0.00000E+00
 -1       548 7.30350E+01 6.60425E+00 0.00000E+00
 -1       549 7.60350E+01 6.60425E+00 0.00000E+00
 -1       550 7.90350E+01 6.60425E+00 0.00000E+00
 -1       551 8.20350E+01 6.60425E+00 0.00000E+00
 -1       552 8.50350E+01 6.60425E+00 0.00000E+00
 -1       553 8.80350E+01 6.60425E+00 0.00000E+00
 -1       554 9.10350E+01 6.60425E+00 0.00000E+00
 -1       555 9.40350E+01 6.60425E+00 0.00000E+00
 -1       556 9.70350E+01 6.60425E+00 0.00000E+00
 -1       557 1.00035E+02 6.60425E+00 0.00000E+00
 -1       558 1.03035E+02 6.60425E+00 0.00000E+00
 -1       559 1.06035E+02 6.60425E+00 0.00000E+00
 -1       560 1.09035E+02 6.60425E+00 0.00000E+00
 -1       561 1.12035E+02 6.60425E+00 0.00000E+00
 -1       562 1.15035E+02 6.60425E+00 0.00000E+00
 -1       563 1.18035E+02 6.60425E+00 0.00000E+00
 -1       564 1.21035E+02 6.60425E+00 0.00000E+00
 -1       565 1.24035E+02 6.60425E+00 0.00000E+00
 -1       566 1.27035E+02 6.60425E+00 0.00000E+00
 -1       567 1.30035E+02 6.60425E+00 0.00000E+00
 -1       568 1.33035E+02 6.60425E+00 0.00000E+00
 -1       569 1.36035E+02 6.60425E+00 0.00000E+00
 -1       570 1.39035E+02 6.60425E+00 0.00000E+00
 -1       571 1.42035E+02 6.60425E+00 0.00000E+00
 -1       572 1.42206E+02 1.61750E+01 0.00000E+00
 -1       573 1.42206E+02 1.91250E+01 0.00000E+00
 -1       574 1.42206E+02 1.03250E+01 0.00000E+00
 -1       575 1.42206E+02 1.32500E+01 0.00000E+00
 -1       576 1.42206E+02 2.20750E+01 0.00000E+00
 -1       577 1.42206E+02 2.50250E+01 0.00000E+00
 -1       578 1.42206E+02 2.79750E+01 0.00000E+00
 -1       579 1.42206E+02 3.08750E+01 0.00000E+00
 -1       580 1.42206E+02 3.38250E+01 0.00000E+00
 -1       581 1.42206E+02 3.67750E+01 0.00000E+00
 -1       582 1.42206E+02 3.97250E+01 0.00000E+00
 -1       583 1.04747E+02 2.39706E+01 0.00000E+00
 -1       584 1.60350E+01 6.60425E+00 0.00000E+00
 -1       585 1.02108E+02 1.50501E+01 0.00000E+00
 -1       586 7.92300E+00 4.16780E+01 0.00000E+00
 -1       587 9.70705E+01 3.36762E+01 0.00000E+00
 -1       588 8.26158E+01 2.46416E+01 0.00000E+00
 -1       589 9.41190E+01 1.13854E+01 0.00000E+00
 -1       590 7.79400E+00 2.79000E+01 0.00000E+00
 -1       591 9.11954E+01 1.15925E+01 0.00000E+00
 -1       592 9.58461E+01 1.17131E+01 0.00000E+00
 -1       593 8.41603E+01 1.76023E+01 0.00000E+00
 -1       594 9.81546E+01 1.22221E+01 0.00000E+00
 -1       595 8.65849E+01 1.39453E+01 0.00000E+00
 -1       596 8.62444E+01 3.06678E+01 0.00000E+00
 -1       597 8.52166E+01 1.55547E+01 0.00000E+00
 -1       598 8.31777E+01 1.99147E+01 0.00000E+00
 -1       599 8.27667E+01 2.19306E+01 0.00000E+00
 -1       600 8.30257E+01 2.70974E+01 0.00000E+00
 -1       601 8.43556E+01 2.89490E+01 0.00000E+00
 -1       602 8.79258E+01 3.21714E+01 0.00000E+00
 -1       603 8.99339E+01 3.31822E+01 0.00000E+00
 -1       604 9.49237E+01 3.37558E+01 0.00000E+00
 -1       605 1.04285E+02 2.64569E+01 0.00000E+00
 -1       606 1.01759E+02 3.06653E+01 0.00000E+00
 -1       607 1.05126E+02 2.16581E+01 0.00000E+00
 -1       608 7.61550E+00 6.21462E+00 0.00000E+00
 -1       609 1.00523E+02 1.35354E+01 0.00000E+00
 -1       610 9.25728E+01 1.01580E+01 0.00000E+00
 -1       611 7.79400E+00 3.67375E+01 0.00000E+00
 -1       612 9.88081E+01 3.39516E+01 0.00000E+00
 -1       613 8.95906E+01 1.11957E+01 0.00000E+00
 -1       614 1.04818E+02 1.77316E+01 0.00000E+00
 -1       615 1.41678E+02 4.22645E+01 0.00000E+00
 -1       616 1.03308E+02 3.02506E+01 0.00000E+00
 -1       617 9.35871E+01 3.46297E+01 0.00000E+00
 -1       618 1.03920E+01 2.05500E+01 0.00000E+00
 -1       619 1.03920E+01 2.35000E+01 0.00000E+00
 -1       620 1.03920E+01 1.46750E+01 0.00000E+00
 -1       621 1.03920E+01 1.17250E+01 0.00000E+00
 -1       622 1.15350E+01 9.20225E+00 0.00000E+00
 -1       623 1.04910E+02 2.84074E+01 0.00000E+00
 -1       624 8.71137E+01 1.15822E+01 0.00000E+00
 -1       625 1.51500E+01 3.96080E+01 0.00000E+00
 -1       626 1.81500E+01 3.96080E+01 0.00000E+00
 -1       627 2.11500E+01 3.96080E+01 0.00000E+00
 -1       628 2.41500E+01 3.96080E+01 0.00000E+00
 -1       629 2.71500E+01 3.96080E+01 0.00000E+00
 -1       630 3.01500E+01 3.96080E+01 0.00000E+00
 -1       631 3.31500E+01 3.96080E+01 0.00000E+00
 -1       632 3.61500E+01 3.96080E+01 0.00000E+00
 -1       633 3.91500E+01 3.96080E+01 0.00000E+00
 -1       634 4.21500E+01 3.96080E+01 0.00000E+00
 -1       635 4.51500E+01 3.96080E+01 0.00000E+00
 -1       636 4.81500E+01 3.96080E+01 0.00000E+00
 -1       637 5.11500E+01 3.96080E+01 0.00000E+00
 -1       638 5.41500E+01 3.96080E+01 0.00000E+00
 -1       639 5.71500E+01 3.96080E+01 0.00000E+00
 -1       640 6.01500E+01 3.96080E+01 0.00000E+00
 -1       641 6.31500E+01 3.96080E+01 0.00000E+00
 -1       642 6.61500E+01 3.96080E+01 0.00000E+00
 -1       643 6.91500E+01 3.96080E+01 0.00000E+00
 -1       644 7.21500E+01 3.96080E+01 0.00000E+00
 -1       645 7.51500E+01 3.96080E+01 0.00000E+00
 -1       646 7.81500E+01 3.96080E+01 0.00000E+00
 -1       647 8.11500E+01 3.96080E+01 0.00000E+00
 -1       648 8.41500E+01 3.96080E+01 0.00000E+00
 -1       649 8.71500E+01 3.96080E+01 0.00000E+00
 -1       650 9.01500E+01 3.96080E+01 0.00000E+00
 -1       651 9.31500E+01 3.96080E+01 0.00000E+00
 -1       652 9.61500E+01 3.96080E+01 0.00000E+00
 -1       653 9.91500E+01 3.96080E+01 0.00000E+00
 -1       654 1.02150E+02 3.96080E+01 0.00000E+00
 -1       655 1.05150E+02 3.96080E+01 0.00000E+00
 -1       656 1.08150E+02 3.96080E+01 0.00000E+00
 -1       657 1.11150E+02 3.96080E+01 0.00000E+00
 -1       658 1.14150E+02 3.96080E+01 0.00000E+00
 -1       659 1.17150E+02 3.96080E+01 0.00000E+00
 -1       660 1.20150E+02 3.96080E+01 0.00000E+00
 -1       661 1.23150E+02 3.96080E+01 0.00000E+00
 -1       662 1.26150E+02 3.96080E+01 0.00000E+00
 -1       663 1.29150E+02 3.96080E+01 0.00000E+00
 -1       664 1.32150E+02 3.96080E+01 0.00000E+00
 -1       665 1.35150E+02 3.96080E+01 0.00000E+00
 -1       666 1.38150E+02 3.96080E+01 0.00000E+00
 -1       667 8.57184E+01 3.29479E+01 0.00000E+00
 -1       668 2.05350E+01 9.20225E+00 0.00000E+00
 -1       669 2.95350E+01 9.20225E+00 0.00000E+00
 -1       670 3.25350E+01 9.20225E+00 0.00000E+00
 -1       671 3.55350E+01 9.20225E+00 0.00000E+00
 -1       672 3.85350E+01 9.20225E+00 0.00000E+00
 -1       673 4.15350E+01 9.20225E+00 0.00000E+00
 -1       674 4.45350E+01 9.20225E+00 0.00000E+00
 -1       675 4.75350E+01 9.20225E+00 0.00000E+00
 -1       676 5.05350E+01 9.20225E+00 0.00000E+00
 -1       677 5.35350E+01 9.20225E+00 0.00000E+00
 -1       678 5.65350E+01 9.20225E+00 0.00000E+00
 -1       679 5.95350E+01 9.20225E+00 0.00000E+00
 -1       680 6.25350E+01 9.20225E+00 0.00000E+00
 -1       681 6.55350E+01 9.20225E+00 0.00000E+00
 -1       682 6.85350E+01 9.20225E+00 0.00000E+00
 -1       683 7.15350E+01 9.20225E+00 0.00000E+00
 -1       684 7.45350E+01 9.20225E+00 0.00000E+00
 -1       685 7.75350E+01 9.20225E+00 0.00000E+00
 -1       686 8.05350E+01 9.20225E+00 0.00000E+00
 -1       687 8.35350E+01 9.20225E+00 0.00000E+00
 -1       688 1.01535E+02 9.20225E+00 0.00000E+00
 -1       689 1.04535E+02 9.20225E+00 0.00000E+00
 -1       690 1.07535E+02 9.20225E+00 0.00000E+00
 -1       691 1.10535E+02 9.20225E+00 0.00000E+00
 -1       692 1.13535E+02 9.20225E+00 0.00000E+00
 -1       693 1.16535E+02 9.20225E+00 0.00000E+00
 -1       694 1.19535E+02 9.20225E+00 0.00000E+00
 -1       695 1.22535E+02 9.20225E+00 0.00000E+00
 -1       696 1.25535E+02 9.20225E+00 0.00000E+00
 -1       697 1.28535E+02 9.20225E+00 0.00000E+00
 -1       698 1.31535E+02 9.20225E+00 0.00000E+00
 -1       699 1.34535E+02 9.20225E+00 0.00000E+00
 -1       700 1.37535E+02 9.20225E+00 0.00000E+00
 -1       701 1.39870E+02 9.76363E+00 0.00000E+00
 -1       702 1.39608E+02 2.35500E+01 0.00000E+00
 -1       703 1.06855E+02 2.00173E+01 0.00000E+00
 -1       704 1.39608E+02 1.76500E+01 0.00000E+00
 -1       705 1.39608E+02 2.65000E+01 0.00000E+00
 -1       706 1.39608E+02 2.06000E+01 0.00000E+00
 -1       707 1.40178E+02 3.96665E+01 0.00000E+00
 -1       708 1.39608E+02 2.94000E+01 0.00000E+00
 -1       709 1.39608E+02 3.23500E+01 0.00000E+00
 -1       710 1.39608E+02 3.53000E+01 0.00000E+00
 -1       711 1.75350E+01 9.20225E+00 0.00000E+00
 -1       712 1.04330E+02 1.54821E+01 0.00000E+00
 -1       713 1.07220E+01 3.94717E+01 0.00000E+00
 -1       714 8.11291E+01 2.61519E+01 0.00000E+00
 -1       715 1.06795E+02 2.31183E+01 0.00000E+00
 -1       716 8.38296E+01 3.12290E+01 0.00000E+00
 -1       717 8.06441E+01 2.31722E+01 0.00000E+00
 -1       718 2.65350E+01 9.20225E+00 0.00000E+00
 -1       719 2.35350E+01 9.20225E+00 0.00000E+00
 -1       720 1.45350E+01 9.20225E+00 0.00000E+00
 -1       721 8.11274E+01 2.05466E+01 0.00000E+00
 -1       722 1.03920E+01 1.76125E+01 0.00000E+00
 -1       723 1.06332E+02 2.56045E+01 0.00000E+00
 -1       724 9.60607E+01 3.54300E+01 0.00000E+00
 -1       725 1.03920E+01 3.23250E+01 0.00000E+00
 -1       726 8.43387E+01 1.34220E+01 0.00000E+00
 -1       727 1.01606E+02 3.28033E+01 0.00000E+00
 -1       728 8.30153E+01 1.57153E+01 0.00000E+00
 -1       729 8.18894E+01 2.93170E+01 0.00000E+00
 -1       730 8.20326E+01 1.80278E+01 0.00000E+00
 -1       731 9.11795E+01 3.47756E+01 0.00000E+00
 -1       732 8.80834E+01 3.43584E+01 0.00000E+00
 -1       733 1.02616E+02 1.29317E+01 0.00000E+00
 -1       734 1.00333E+02 1.10858E+01 0.00000E+00
 -1       735 1.03920E+01 3.52625E+01 0.00000E+00
 -1       736 1.03920E+01 2.64500E+01 0.00000E+00
 -1       737 9.84506E+01 1.01333E+01 0.00000E+00
 -1       738 1.00817E+02 3.46982E+01 0.00000E+00
 -1       739 1.06957E+02 2.75550E+01 0.00000E+00
 -1       740 8.93290E+01 3.59519E+01 0.00000E+00
 -1       741 9.85350E+01 9.20225E+00 0.00000E+00
 -1       742 1.07087E+02 1.84613E+01 0.00000E+00
 -1       743 1.39870E+02 1.26886E+01 0.00000E+00
 -1       744 1.03155E+02 3.23886E+01 0.00000E+00
 -1       745 1.38879E+02 3.74540E+01 0.00000E+00
 -1       746 9.47241E+01 3.63038E+01 0.00000E+00
 -1       747 1.39739E+02 1.51693E+01 0.00000E+00
 -1       748 1.03920E+01 2.93875E+01 0.00000E+00
 -1       749 9.77982E+01 3.57053E+01 0.00000E+00
 -1       750 1.29900E+01 1.32000E+01 0.00000E+00
 -1       751 1.05530E+02 3.05639E+01 0.00000E+00
 -1       752 1.96500E+01 3.70100E+01 0.00000E+00
 -1       753 2.26500E+01 3.70100E+01 0.00000E+00
 -1       754 2.56500E+01 3.70100E+01 0.00000E+00
 -1       755 2.86500E+01 3.70100E+01 0.00000E+00
 -1       756 3.16500E+01 3.70100E+01 0.00000E+00
 -1       757 3.46500E+01 3.70100E+01 0.00000E+00
 -1       758 3.76500E+01 3.70100E+01 0.00000E+00
 -1       759 4.06500E+01 3.70100E+01 0.00000E+00
 -1       760 4.36500E+01 3.70100E+01 0.00000E+00
 -1       761 4.66500E+01 3.70100E+01 0.00000E+00
 -1       762 4.96500E+01 3.70100E+01 0.00000E+00
 -1       763 5.26500E+01 3.70100E+01 0.00000E+00
 -1       764 5.56500E+01 3.70100E+01 0.00000E+00
 -1       765 5.86500E+01 3.70100E+01 0.00000E+00
 -1       766 6.16500E+01 3.70100E+01 0.00000E+00
 -1       767 6.46500E+01 3.70100E+01 0.00000E+00
 -1       768 6.76500E+01 3.70100E+01 0.00000E+00
 -1       769 7.06500E+01 3.70100E+01 0.00000E+00
 -1       770 7.36500E+01 3.70100E+01 0.00000E+00
 -1       771 7.66500E+01 3.70100E+01 0.00000E+00
 -1       772 7.96500E+01 3.70100E+01 0.00000E+00
 -1       773 8.26500E+01 3.70100E+01 0.00000E+00
 -1       774 8.56500E+01 3.70100E+01 0.00000E+00
 -1       775 1.03650E+02 3.72226E+01 0.00000E+00
 -1       776 1.06650E+02 3.72226E+01 0.00000E+00
 -1       777 1.09650E+02 3.72226E+01 0.00000E+00
 -1       778 1.12650E+02 3.72226E+01 0.00000E+00
 -1       779 1.15650E+02 3.72226E+01 0.00000E+00
 -1       780 1.18650E+02 3.72226E+01 0.00000E+00
 -1       781 1.21650E+02 3.72226E+01 0.00000E+00
 -1       782 1.24650E+02 3.72226E+01 0.00000E+00
 -1       783 1.27650E+02 3.72226E+01 0.00000E+00
 -1       784 1.30650E+02 3.72226E+01 0.00000E+00
 -1       785 1.33650E+02 3.72226E+01 0.00000E+00
 -1       786 1.36264E+02 3.73383E+01 0.00000E+00
 -1       787 8.17561E+01 1.34601E+01 0.00000E+00
 -1       788 3.10350E+01 1.18003E+01 0.00000E+00
 -1       789 4.00350E+01 1.18003E+01 0.00000E+00
 -1       790 4.30350E+01 1.18003E+01 0.00000E+00
 -1       791 4.60350E+01 1.18003E+01 0.00000E+00
 -1       792 4.90350E+01 1.18003E+01 0.00000E+00
 -1       793 5.20350E+01 1.18003E+01 0.00000E+00
 -1       794 5.50350E+01 1.18003E+01 0.00000E+00
 -1       795 5.80350E+01 1.18003E+01 0.00000E+00
 -1       796 6.10350E+01 1.18003E+01 0.00000E+00
 -1       797 6.40350E+01 1.18003E+01 0.00000E+00
 -1       798 6.70350E+01 1.18003E+01 0.00000E+00
 -1       799 7.00350E+01 1.18003E+01 0.00000E+00
 -1       800 7.30350E+01 1.18003E+01 0.00000E+00
 -1       801 7.60350E+01 1.18003E+01 0.00000E+00
 -1       802 7.90350E+01 1.18003E+01 0.00000E+00
 -1       803 1.12035E+02 1.18003E+01 0.00000E+00
 -1       804 1.15035E+02 1.18003E+01 0.00000E+00
 -1       805 1.18035E+02 1.18003E+01 0.00000E+00
 -1       806 1.21035E+02 1.18003E+01 0.00000E+00
 -1       807 1.24035E+02 1.18003E+01 0.00000E+00
 -1       808 1.27035E+02 1.18003E+01 0.00000E+00
 -1       809 1.30035E+02 1.18003E+01 0.00000E+00
 -1       810 1.33035E+02 1.18003E+01 0.00000E+00
 -1       811 1.36035E+02 1.18003E+01 0.00000E+00
 -1       812 1.37953E+02 1.22444E+01 0.00000E+00
 -1       813 8.58507E+01 3.54140E+01 0.00000E+00
 -1       814 1.06599E+02 1.62118E+01 0.00000E+00
 -1       815 1.37010E+02 2.50250E+01 0.00000E+00
 -1       816 1.09042E+02 2.16107E+01 0.00000E+00
 -1       817 2.80350E+01 1.18003E+01 0.00000E+00
 -1       818 1.08414E+02 2.47056E+01 0.00000E+00
 -1       819 1.37010E+02 3.38250E+01 0.00000E+00
 -1       820 1.90350E+01 1.18003E+01 0.00000E+00
 -1       821 1.37010E+02 3.08750E+01 0.00000E+00
 -1       822 1.09035E+02 1.18003E+01 0.00000E+00
 -1       823 1.06035E+02 1.18003E+01 0.00000E+00
 -1       824 9.44123E+01 9.42842E+00 0.00000E+00
 -1       825 3.70350E+01 1.18003E+01 0.00000E+00
 -1       826 8.31685E+01 3.38527E+01 0.00000E+00
 -1       827 3.40350E+01 1.18003E+01 0.00000E+00
 -1       828 1.48200E+01 3.53988E+01 0.00000E+00
 -1       829 2.20350E+01 1.18003E+01 0.00000E+00
 -1       830 1.72350E+01 3.62044E+01 0.00000E+00
 -1       831 8.06050E+01 2.52821E+01 0.00000E+00
 -1       832 7.95157E+01 2.82133E+01 0.00000E+00
 -1       833 7.88694E+01 2.14882E+01 0.00000E+00
 -1       834 8.12283E+01 3.19406E+01 0.00000E+00
 -1       835 2.50350E+01 1.18003E+01 0.00000E+00
 -1       836 1.37625E+01 1.12011E+01 0.00000E+00
 -1       837 9.24871E+01 3.64146E+01 0.00000E+00
 -1       838 1.02764E+02 1.04144E+01 0.00000E+00
 -1       839 1.05175E+02 1.30632E+01 0.00000E+00
 -1       840 8.06370E+01 1.60697E+01 0.00000E+00
 -1       841 1.29900E+01 2.20250E+01 0.00000E+00
 -1       842 1.37010E+02 2.79500E+01 0.00000E+00
 -1       843 7.87422E+01 2.41922E+01 0.00000E+00
 -1       844 7.97318E+01 1.85885E+01 0.00000E+00
 -1       845 1.29900E+01 2.49750E+01 0.00000E+00
 -1       846 1.07577E+02 2.97115E+01 0.00000E+00
 -1       847 1.02950E+02 3.44741E+01 0.00000E+00
 -1       848 1.48200E+01 3.24613E+01 0.00000E+00
 -1       849 9.98075E+01 3.64520E+01 0.00000E+00
 -1       850 1.09039E+02 2.66562E+01 0.00000E+00
 -1       851 1.00650E+02 3.73902E+01 0.00000E+00
 -1       852 1.29900E+01 1.90875E+01 0.00000E+00
 -1       853 1.48200E+01 2.95238E+01 0.00000E+00
 -1       854 1.37010E+02 2.20750E+01 0.00000E+00
 -1       855 1.09275E+02 2.00547E+01 0.00000E+00
 -1       856 1.29900E+01 1.61375E+01 0.00000E+00
 -1       857 1.37010E+02 1.91250E+01 0.00000E+00
 -1       858 7.92544E+01 2.66885E+01 0.00000E+00
 -1       859 7.88546E+01 3.08370E+01 0.00000E+00
 -1       860 1.37141E+02 1.66443E+01 0.00000E+00
 -1       861 1.63988E+01 1.15007E+01 0.00000E+00
 -1       862 1.36637E+02 3.55817E+01 0.00000E+00
 -1       863 1.72350E+01 3.32669E+01 0.00000E+00
 -1       864 2.41500E+01 3.44120E+01 0.00000E+00
 -1       865 2.71500E+01 3.44120E+01 0.00000E+00
 -1       866 3.01500E+01 3.44120E+01 0.00000E+00
 -1       867 3.31500E+01 3.44120E+01 0.00000E+00
 -1       868 3.61500E+01 3.44120E+01 0.00000E+00
 -1       869 3.91500E+01 3.44120E+01 0.00000E+00
 -1       870 4.21500E+01 3.44120E+01 0.00000E+00
 -1       871 4.51500E+01 3.44120E+01 0.00000E+00
 -1       872 4.81500E+01 3.44120E+01 0.00000E+00
 -1       873 5.11500E+01 3.44120E+01 0.00000E+00
 -1       874 5.41500E+01 3.44120E+01 0.00000E+00
 -1       875 5.71500E+01 3.44120E+01 0.00000E+00
 -1       876 6.01500E+01 3.44120E+01 0.00000E+00
 -1       877 6.31500E+01 3.44120E+01 0.00000E+00
 -1       878 6.61500E+01 3.44120E+01 0.00000E+00
 -1       879 6.91500E+01 3.44120E+01 0.00000E+00
 -1       880 7.21500E+01 3.44120E+01 0.00000E+00
 -1       881 7.51500E+01 3.44120E+01 0.00000E+00
 -1       882 7.81500E+01 3.44120E+01 0.00000E+00
 -1       883 1.08150E+02 3.46246E+01 0.00000E+00
 -1       884 1.11150E+02 3.46246E+01 0.00000E+00
 -1       885 1.14150E+02 3.46246E+01 0.00000E+00
 -1       886 1.17150E+02 3.46246E+01 0.00000E+00
 -1       887 1.20150E+02 3.46246E+01 0.00000E+00
 -1       888 1.23150E+02 3.46246E+01 0.00000E+00
 -1       889 1.26150E+02 3.46246E+01 0.00000E+00
 -1       890 1.29150E+02 3.46246E+01 0.00000E+00
 -1       891 1.32150E+02 3.46246E+01 0.00000E+00
 -1       892 4.15350E+01 1.43982E+01 0.00000E+00
 -1       893 5.05350E+01 1.43982E+01 0.00000E+00
 -1       894 5.35350E+01 1.43982E+01 0.00000E+00
 -1       895 5.65350E+01 1.43982E+01 0.00000E+00
 -1       896 5.95350E+01 1.43982E+01 0.00000E+00
 -1       897 6.25350E+01 1.43982E+01 0.00000E+00
 -1       898 6.55350E+01 1.43982E+01 0.00000E+00
 -1       899 6.85350E+01 1.43982E+01 0.00000E+00
 -1       900 7.15350E+01 1.43982E+01 0.00000E+00
 -1       901 7.45350E+01 1.43982E+01 0.00000E+00
 -1       902 7.75350E+01 1.43982E+01 0.00000E+00
 -1       903 2.95350E+01 1.43982E+01 0.00000E+00
 -1       904 1.19535E+02 1.43982E+01 0.00000E+00
 -1       905 1.16535E+02 1.43982E+01 0.00000E+00
 -1       906 1.13535E+02 1.43982E+01 0.00000E+00
 -1       907 1.22535E+02 1.43982E+01 0.00000E+00
 -1       908 1.25535E+02 1.43982E+01 0.00000E+00
 -1       909 1.28535E+02 1.43982E+01 0.00000E+00
 -1       910 1.31535E+02 1.43982E+01 0.00000E+00
 -1       911 1.34535E+02 1.43982E+01 0.00000E+00
 -1       912 1.39050E+01 2.72494E+01 0.00000E+00
 -1       913 8.05241E+01 3.45957E+01 0.00000E+00
 -1       914 1.08847E+02 1.69019E+01 0.00000E+00
 -1       915 1.05093E+02 3.36322E+01 0.00000E+00
 -1       916 2.05350E+01 1.43982E+01 0.00000E+00
 -1       917 3.85350E+01 1.43982E+01 0.00000E+00
 -1       918 7.73354E+01 1.94539E+01 0.00000E+00
 -1       919 1.34412E+02 3.23500E+01 0.00000E+00
 -1       920 1.10535E+02 1.43982E+01 0.00000E+00
 -1       921 4.75350E+01 1.43982E+01 0.00000E+00
 -1       922 4.45350E+01 1.43982E+01 0.00000E+00
 -1       923 7.71991E+01 2.78255E+01 0.00000E+00
 -1       924 2.65350E+01 1.43982E+01 0.00000E+00
 -1       925 7.66869E+01 2.53292E+01 0.00000E+00
 -1       926 1.10902E+02 2.35990E+01 0.00000E+00
 -1       927 7.68141E+01 2.26252E+01 0.00000E+00
 -1       928 2.35350E+01 1.43982E+01 0.00000E+00
 -1       929 2.11500E+01 3.44120E+01 0.00000E+00
 -1       930 1.37547E+02 1.44444E+01 0.00000E+00
 -1       931 7.74352E+01 1.69261E+01 0.00000E+00
 -1       932 1.09659E+02 2.88127E+01 0.00000E+00
 -1       933 1.56263E+01 1.34996E+01 0.00000E+00
 -1       934 1.11527E+02 2.55496E+01 0.00000E+00
 -1       935 1.55880E+01 2.05562E+01 0.00000E+00
 -1       936 1.34394E+02 3.51032E+01 0.00000E+00
 -1       937 1.34412E+02 2.94250E+01 0.00000E+00
 -1       938 1.34412E+02 2.35500E+01 0.00000E+00
 -1       939 1.34412E+02 2.06000E+01 0.00000E+00
 -1       940 1.08473E+02 1.41164E+01 0.00000E+00
 -1       941 1.75351E+01 1.43983E+01 0.00000E+00
 -1       942 3.55350E+01 1.43982E+01 0.00000E+00
 -1       943 1.91925E+01 3.38394E+01 0.00000E+00
 -1       944 1.72350E+01 3.03294E+01 0.00000E+00
 -1       945 3.25350E+01 1.43982E+01 0.00000E+00
 -1       946 1.55880E+01 2.35063E+01 0.00000E+00
 -1       947 1.34543E+02 1.81193E+01 0.00000E+00
 -1       948 1.11134E+02 2.20430E+01 0.00000E+00
 -1       949 1.07864E+02 3.21681E+01 0.00000E+00
 -1       950 1.34412E+02 2.64875E+01 0.00000E+00
 -1       951 5.80350E+01 1.69963E+01 0.00000E+00
 -1       952 2.86500E+01 3.18140E+01 0.00000E+00
 -1       953 3.16500E+01 3.18140E+01 0.00000E+00
 -1       954 3.46500E+01 3.18140E+01 0.00000E+00
 -1       955 3.76500E+01 3.18140E+01 0.00000E+00
 -1       956 4.06500E+01 3.18140E+01 0.00000E+00
 -1       957 4.36500E+01 3.18140E+01 0.00000E+00
 -1       958 4.66500E+01 3.18140E+01 0.00000E+00
 -1       959 4.96500E+01 3.18140E+01 0.00000E+00
 -1       960 5.26500E+01 3.18140E+01 0.00000E+00
 -1       961 5.56500E+01 3.18140E+01 0.00000E+00
 -1       962 5.86500E+01 3.18140E+01 0.00000E+00
 -1       963 6.16500E+01 3.18140E+01 0.00000E+00
 -1       964 6.46500E+01 3.18140E+01 0.00000E+00
 -1       965 6.76500E+01 3.18140E+01 0.00000E+00
 -1       966 7.06500E+01 3.18140E+01 0.00000E+00
 -1       967 7.36500E+01 3.18140E+01 0.00000E+00
 -1       968 1.55880E+01 1.76063E+01 0.00000E+00
 -1       969 1.12650E+02 3.20266E+01 0.00000E+00
 -1       970 1.15650E+02 3.20266E+01 0.00000E+00
 -1       971 1.18650E+02 3.20266E+01 0.00000E+00
 -1       972 1.21650E+02 3.20266E+01 0.00000E+00
 -1       973 1.24650E+02 3.20266E+01 0.00000E+00
 -1       974 1.27650E+02 3.20266E+01 0.00000E+00
 -1       975 1.30650E+02 3.20266E+01 0.00000E+00
 -1       976 5.20350E+01 1.69963E+01 0.00000E+00
 -1       977 6.10350E+01 1.69963E+01 0.00000E+00
 -1       978 6.40350E+01 1.69963E+01 0.00000E+00
 -1       979 6.70350E+01 1.69963E+01 0.00000E+00
 -1       980 7.00350E+01 1.69963E+01 0.00000E+00
 -1       981 7.30350E+01 1.69963E+01 0.00000E+00
 -1       982 1.21035E+02 1.69963E+01 0.00000E+00
 -1       983 1.15035E+02 1.69963E+01 0.00000E+00
 -1       984 1.27035E+02 1.69963E+01 0.00000E+00
 -1       985 1.30035E+02 1.69963E+01 0.00000E+00
 -1       986 1.31814E+02 2.20750E+01 0.00000E+00
 -1       987 7.57501E+01 3.05828E+01 0.00000E+00
 -1       988 1.90351E+01 1.69963E+01 0.00000E+00
 -1       989 1.11425E+02 1.81577E+01 0.00000E+00
 -1       990 3.10350E+01 1.69963E+01 0.00000E+00
 -1       991 5.50350E+01 1.69963E+01 0.00000E+00
 -1       992 4.90350E+01 1.69963E+01 0.00000E+00
 -1       993 2.80350E+01 1.69963E+01 0.00000E+00
 -1       994 4.00350E+01 1.69963E+01 0.00000E+00
 -1       995 2.26500E+01 3.18140E+01 0.00000E+00
 -1       996 7.46063E+01 2.70568E+01 0.00000E+00
 -1       997 2.50350E+01 1.69963E+01 0.00000E+00
 -1       998 1.18035E+02 1.69963E+01 0.00000E+00
 -1       999 7.47210E+01 2.06526E+01 0.00000E+00
 -1      1000 2.20350E+01 1.69963E+01 0.00000E+00
 -1      1001 7.47025E+01 2.38809E+01 0.00000E+00
 -1      1002 1.10257E+02 3.20974E+01 0.00000E+00
 -1      1003 2.56500E+01 3.18140E+01 0.00000E+00
 -1      1004 1.24035E+02 1.69963E+01 0.00000E+00
 -1      1005 1.13377E+02 2.31739E+01 0.00000E+00
 -1      1006 1.31945E+02 1.95943E+01 0.00000E+00
 -1      1007 1.12147E+02 2.77061E+01 0.00000E+00
 -1      1008 3.40350E+01 1.69963E+01 0.00000E+00
 -1      1009 1.33035E+02 1.69963E+01 0.00000E+00
 -1      1010 2.06925E+01 3.12414E+01 0.00000E+00
 -1      1011 3.70350E+01 1.69963E+01 0.00000E+00
 -1      1012 1.65030E+01 2.57806E+01 0.00000E+00
 -1      1013 1.89638E+01 3.07854E+01 0.00000E+00
 -1      1014 4.30350E+01 1.69963E+01 0.00000E+00
 -1      1015 4.60350E+01 1.69963E+01 0.00000E+00
 -1      1016 1.90351E+01 1.99463E+01 0.00000E+00
 -1      1017 1.90351E+01 2.28963E+01 0.00000E+00
 -1      1018 1.31814E+02 2.50125E+01 0.00000E+00
 -1      1019 1.09958E+02 3.04550E+01 0.00000E+00
 -1      1020 1.68690E+01 2.80550E+01 0.00000E+00
 -1      1021 1.14501E+02 2.59583E+01 0.00000E+00
 -1      1022 3.01500E+01 2.92160E+01 0.00000E+00
 -1      1023 6.25350E+01 1.95942E+01 0.00000E+00
 -1      1024 7.26281E+01 2.94354E+01 0.00000E+00
 -1      1025 3.31500E+01 2.92160E+01 0.00000E+00
 -1      1026 3.61500E+01 2.92160E+01 0.00000E+00
 -1      1027 3.91500E+01 2.92160E+01 0.00000E+00
 -1      1028 4.21500E+01 2.92160E+01 0.00000E+00
 -1      1029 4.51500E+01 2.92160E+01 0.00000E+00
 -1      1030 4.81500E+01 2.92160E+01 0.00000E+00
 -1      1031 5.11500E+01 2.92160E+01 0.00000E+00
 -1      1032 5.41500E+01 2.92160E+01 0.00000E+00
 -1      1033 5.71500E+01 2.92160E+01 0.00000E+00
 -1      1034 6.01500E+01 2.92160E+01 0.00000E+00
 -1      1035 6.31500E+01 2.92160E+01 0.00000E+00
 -1      1036 6.61500E+01 2.92160E+01 0.00000E+00
 -1      1037 6.91500E+01 2.92160E+01 0.00000E+00
 -1      1038 1.14150E+02 2.94286E+01 0.00000E+00
 -1      1039 2.41500E+01 2.92160E+01 0.00000E+00
 -1      1040 1.17150E+02 2.94286E+01 0.00000E+00
 -1      1041 1.20150E+02 2.94286E+01 0.00000E+00
 -1      1042 1.23150E+02 2.94286E+01 0.00000E+00
 -1      1043 1.26150E+02 2.94286E+01 0.00000E+00
 -1      1044 1.29150E+02 2.94286E+01 0.00000E+00
 -1      1045 6.55350E+01 1.95942E+01 0.00000E+00
 -1      1046 5.95350E+01 1.95942E+01 0.00000E+00
 -1      1047 6.85350E+01 1.95942E+01 0.00000E+00
 -1      1048 7.15350E+01 1.95942E+01 0.00000E+00
 -1      1049 5.65350E+01 1.95942E+01 0.00000E+00
 -1      1050 1.28535E+02 1.95942E+01 0.00000E+00
 -1      1051 2.71500E+01 2.92160E+01 0.00000E+00
 -1      1052 1.16535E+02 1.95942E+01 0.00000E+00
 -1      1053 5.05350E+01 1.95942E+01 0.00000E+00
 -1      1054 2.95350E+01 1.95942E+01 0.00000E+00
 -1      1055 5.35350E+01 1.95942E+01 0.00000E+00
 -1      1056 1.31781E+02 2.79581E+01 0.00000E+00
 -1      1057 1.19535E+02 1.95942E+01 0.00000E+00
 -1      1058 7.22701E+01 2.53966E+01 0.00000E+00
 -1      1059 7.24939E+01 2.22540E+01 0.00000E+00
 -1      1060 2.65350E+01 1.95942E+01 0.00000E+00
 -1      1061 2.21925E+01 2.86434E+01 0.00000E+00
 -1      1062 3.25350E+01 1.95942E+01 0.00000E+00
 -1      1063 1.14025E+02 2.00501E+01 0.00000E+00
 -1      1064 1.12054E+02 2.99418E+01 0.00000E+00
 -1      1065 2.35350E+01 1.95943E+01 0.00000E+00
 -1      1066 3.85350E+01 1.95942E+01 0.00000E+00
 -1      1067 1.85977E+01 2.85110E+01 0.00000E+00
 -1      1068 4.75350E+01 1.95942E+01 0.00000E+00
 -1      1069 1.16348E+02 2.35934E+01 0.00000E+00
 -1      1070 1.22535E+02 1.95942E+01 0.00000E+00
 -1      1071 1.25535E+02 1.95942E+01 0.00000E+00
 -1      1072 2.35350E+01 2.25443E+01 0.00000E+00
 -1      1073 1.29216E+02 2.35438E+01 0.00000E+00
 -1      1074 4.15350E+01 1.95942E+01 0.00000E+00
 -1      1075 6.40350E+01 2.21922E+01 0.00000E+00
 -1      1076 6.70350E+01 2.21922E+01 0.00000E+00
 -1      1077 3.46500E+01 2.66180E+01 0.00000E+00
 -1      1078 3.76500E+01 2.66180E+01 0.00000E+00
 -1      1079 4.06500E+01 2.66180E+01 0.00000E+00
 -1      1080 4.36500E+01 2.66180E+01 0.00000E+00
 -1      1081 4.66500E+01 2.66180E+01 0.00000E+00
 -1      1082 4.96500E+01 2.66180E+01 0.00000E+00
 -1      1083 5.26500E+01 2.66180E+01 0.00000E+00
 -1      1084 5.56500E+01 2.66180E+01 0.00000E+00
 -1      1085 5.86500E+01 2.66180E+01 0.00000E+00
 -1      1086 6.16500E+01 2.66180E+01 0.00000E+00
 -1      1087 6.46500E+01 2.66180E+01 0.00000E+00
 -1      1088 6.76500E+01 2.66180E+01 0.00000E+00
 -1      1089 1.19348E+02 2.35934E+01 0.00000E+00
 -1      1090 1.18650E+02 2.68306E+01 0.00000E+00
 -1      1091 1.21650E+02 2.68306E+01 0.00000E+00
 -1      1092 1.24650E+02 2.68306E+01 0.00000E+00
 -1      1093 1.27650E+02 2.68306E+01 0.00000E+00
 -1      1094 6.97645E+01 2.22231E+01 0.00000E+00
 -1      1095 6.10350E+01 2.21922E+01 0.00000E+00
 -1      1096 5.80350E+01 2.21922E+01 0.00000E+00
 -1      1097 5.50350E+01 2.21922E+01 0.00000E+00
 -1      1098 1.97215E+01 2.60524E+01 0.00000E+00
 -1      1099 2.56500E+01 2.66180E+01 0.00000E+00
 -1      1100 3.16500E+01 2.66180E+01 0.00000E+00
 -1      1101 4.45350E+01 1.95942E+01 0.00000E+00
 -1      1102 1.29732E+02 2.59216E+01 0.00000E+00
 -1      1103 2.03951E+01 2.85772E+01 0.00000E+00
 -1      1104 3.55350E+01 1.95942E+01 0.00000E+00
 -1      1105 5.20350E+01 2.21922E+01 0.00000E+00
 -1      1106 2.86500E+01 2.66180E+01 0.00000E+00
 -1      1107 2.80350E+01 2.21922E+01 0.00000E+00
 -1      1108 3.70350E+01 2.21922E+01 0.00000E+00
 -1      1109 2.36925E+01 2.60454E+01 0.00000E+00
 -1      1110 1.27134E+02 2.44528E+01 0.00000E+00
 -1      1111 4.90350E+01 2.21922E+01 0.00000E+00
 -1      1112 1.26315E+02 2.20105E+01 0.00000E+00
 -1      1113 3.10350E+01 2.21922E+01 0.00000E+00
 -1      1114 4.00350E+01 2.21922E+01 0.00000E+00
 -1      1115 3.61500E+01 2.40200E+01 0.00000E+00
 -1      1116 4.30350E+01 2.21922E+01 0.00000E+00
 -1      1117 4.81500E+01 2.40200E+01 0.00000E+00
 -1      1118 3.31500E+01 2.40200E+01 0.00000E+00
 -1      1119 1.22832E+02 2.28019E+01 0.00000E+00
 -1      1120 1.23741E+02 2.48163E+01 0.00000E+00
 -1      1121 4.60350E+01 2.21922E+01 0.00000E+00
 -1      1122 3.40350E+01 2.21922E+01 0.00000E+00
 -1      1123 0.00000E+00 4.85250E+01 0.00000E+00
 -1      1124 0.00000E+00 4.55750E+01 0.00000E+00
 -1      1125 0.00000E+00 4.26250E+01 0.00000E+00
 -1      1126 0.00000E+00 3.96750E+01 0.00000E+00
 -1      1127 0.00000E+00 3.67250E+01 0.00000E+00
 -1      1128 0.00000E+00 3.38000E+01 0.00000E+00
 -1      1129 0.00000E+00 3.08750E+01 0.00000E+00
 -1      1130 0.00000E+00 2.79250E+01 0.00000E+00
 -1      1131 0.00000E+00 2.49750E+01 0.00000E+00
 -1      1132 0.00000E+00 2.20250E+01 0.00000E+00
 -1      1133 0.00000E+00 1.90750E+01 0.00000E+00
 -1      1134 0.00000E+00 1.61500E+01 0.00000E+00
 -1      1135 0.00000E+00 1.32250E+01 0.00000E+00
 -1      1136 0.00000E+00 1.02750E+01 0.00000E+00
 -1      1137 0.00000E+00 7.32500E+00 0.00000E+00
 -1      1138 0.00000E+00 4.37500E+00 0.00000E+00
 -1      1139 0.00000E+00 1.45000E+00 0.00000E+00
 -1      1140 1.57500E+00 5.00000E+01 0.00000E+00
 -1      1141 4.65000E+00 5.00000E+01 0.00000E+00
 -1      1142 7.65000E+00 5.00000E+01 0.00000E+00
 -1      1143 1.06500E+01 5.00000E+01 0.00000E+00
 -1      1144 1.36500E+01 5.00000E+01 0.00000E+00
 -1      1145 1.66500E+01 5.00000E+01 0.00000E+00
 -1      1146 1.96500E+01 5.00000E+01 0.00000E+00
 -1      1147 2.26500E+01 5.00000E+01 0.00000E+00
 -1      1148 2.56500E+01 5.00000E+01 0.00000E+00
 -1      1149 2.86500E+01 5.00000E+01 0.00000E+00
 -1      1150 3.16500E+01 5.00000E+01 0.00000E+00
 -1      1151 3.46500E+01 5.00000E+01 0.00000E+00
 -1      1152 3.76500E+01 5.00000E+01 0.00000E+00
 -1      1153 4.06500E+01 5.00000E+01 0.00000E+00
 -1      1154 4.36500E+01 5.00000E+01 0.00000E+00
 -1      1155 4.66500E+01 5.00000E+01 0.00000E+00
 -1      1156 4.96500E+01 5.00000E+01 0.00000E+00
 -1      1157 5.26500E+01 5.00000E+01 0.00000E+00
 -1      1158 5.56500E+01 5.00000E+01 0.00000E+00
 -1      1159 5.86500E+01 5.00000E+01 0.00000E+00
 -1      1160 6.16500E+01 5.00000E+01 0.00000E+00
 -1      1161 6.46500E+01 5.00000E+01 0.00000E+00
 -1      1162 6.76500E+01 5.00000E+01 0.00000E+00
 -1      1163 7.06500E+01 5.00000E+01 0.00000E+00
 -1      1164 7.36500E+01 5.00000E+01 0.00000E+00
 -1      1165 7.66500E+01 5.00000E+01 0.00000E+00
 -1      1166 7.96500E+01 5.00000E+01 0.00000E+00
 -1      1167 8.26500E+01 5.00000E+01 0.00000E+00
 -1      1168 8.56500E+01 5.00000E+01 0.00000E+00
 -1      1169 8.86500E+01 5.00000E+01 0.00000E+00
 -1      1170 9.16500E+01 5.00000E+01 0.00000E+00
 -1      1171 9.46500E+01 5.00000E+01 0.00000E+00
 -1      1172 9.76500E+01 5.00000E+01 0.00000E+00
 -1      1173 1.00650E+02 5.00000E+01 0.00000E+00
 -1      1174 1.03650E+02 5.00000E+01 0.00000E+00
 -1      1175 1.06650E+02 5.00000E+01 0.00000E+00
 -1      1176 1.09650E+02 5.00000E+01 0.00000E+00
 -1      1177 1.12650E+02 5.00000E+01 0.00000E+00
 -1      1178 1.15650E+02 5.00000E+01 0.00000E+00
 -1      1179 1.18650E+02 5.00000E+01 0.00000E+00
 -1      1180 1.21650E+02 5.00000E+01 0.00000E+00
 -1      1181 1.24650E+02 5.00000E+01 0.00000E+00
 -1      1182 1.27650E+02 5.00000E+01 0.00000E+00
 -1      1183 1.30650E+02 5.00000E+01 0.00000E+00
 -1      1184 1.33650E+02 5.00000E+01 0.00000E+00
 -1      1185 1.36650E+02 5.00000E+01 0.00000E+00
 -1      1186 1.39650E+02 5.00000E+01 0.00000E+00
 -1      1187 1.42650E+02 5.00000E+01 0.00000E+00
 -1      1188 1.45650E+02 5.00000E+01 0.00000E+00
 -1      1189 1.48575E+02 5.00000E+01 0.00000E+00
 -1      1190 1.57500E+00 0.00000E+00 0.00000E+00
 -1      1191 4.65000E+00 0.00000E+00 0.00000E+00
 -1      1192 7.65000E+00 0.00000E+00 0.00000E+00
 -1      1193 1.06500E+01 0.00000E+00 0.00000E+00
 -1      1194 1.36500E+01 0.00000E+00 0.00000E+00
 -1      1195 1.66500E+01 0.00000E+00 0.00000E+00
 -1      1196 1.96500E+01 0.00000E+00 0.00000E+00
 -1      1197 2.26500E+01 0.00000E+00 0.00000E+00
 -1      1198 2.56500E+01 0.00000E+00 0.00000E+00
 -1      1199 2.86500E+01 0.00000E+00 0.00000E+00
 -1      1200 3.16500E+01 0.00000E+00 0.00000E+00
 -1      1201 3.46500E+01 0.00000E+00 0.00000E+00
 -1      1202 3.76500E+01 0.00000E+00 0.00000E+00
 -1      1203 4.06500E+01 0.00000E+00 0.00000E+00
 -1      1204 4.36500E+01 0.00000E+00 0.00000E+00
 -1      1205 4.66500E+01 0.00000E+00 0.00000E+00
 -1      1206 4.96500E+01 0.00000E+00 0.00000E+00
 -1      1207 5.26500E+01 0.00000E+00 0.00000E+00
 -1      1208 5.56500E+01 0.00000E+00 0.00000E+00
 -1      1209 5.86500E+01 0.00000E+00 0.00000E+00
 -1      1210 6.16500E+01 0.00000E+00 0.00000E+00
 -1      1211 6.46500E+01 0.00000E+00 0.00000E+00
 -1      1212 6.76500E+01 0.00000E+00 0.00000E+00
 -1      1213 7.06500E+01 0.00000E+00 0.00000E+00
 -1      1214 7.36500E+01 0.00000E+00 0.00000E+00
 -1      1215 7.66500E+01 0.00000E+00 0.00000E+00
 -1      1216 7.96500E+01 0.00000E+00 0.00000E+00
 -1      1217 8.26500E+01 0.00000E+00 0.00000E+00
 -1      1218 8.56500E+01 0.00000E+00 0.00000E+00
 -1      1219 8.86500E+01 0.00000E+00 0.00000E+00
 -1      1220 9.16500E+01 0.00000E+00 0.00000E+00
 -1      1221 9.46500E+01 0.00000E+00 0.00000E+00
 -1      1222 9.76500E+01 0.00000E+00 0.00000E+00
 -1      1223 1.00650E+02 0.00000E+00 0.00000E+00
 -1      1224 1.03650E+02 0.00000E+00 0.00000E+00
 -1      1225 1.06650E+02 0.00000E+00 0.00000E+00
 -1      1226 1.09650E+02 0.00000E+00 0.00000E+00
 -1      1227 1.12650E+02 0.00000E+00 0.00000E+00
 -1      1228 1.15650E+02 0.00000E+00 0.00000E+00
 -1      1229 1.18650E+02 0.00000E+00 0.00000E+00
 -1      1230 1.21650E+02 0.00000E+00 0.00000E+00
 -1      1231 1.24650E+02 0.00000E+00 0.00000E+00
 -1      1232 1.27650E+02 0.00000E+00 0.00000E+00
 -1      1233 1.30650E+02 0.00000E+00 0.00000E+00
 -1      1234 1.33650E+02 0.00000E+00 0.00000E+00
 -1      1235 1.36650E+02 0.00000E+00 0.00000E+00
 -1      1236 1.39650E+02 0.00000E+00 0.00000E+00
 -1      1237 1.42650E+02 0.00000E+00 0.00000E+00
 -1      1238 1.45650E+02 0.00000E+00 0.00000E+00
 -1      1239 1.48575E+02 0.00000E+00 0.00000E+00
 -1      1240 1.50000E+02 1.47500E+00 0.00000E+00
 -1      1241 1.50000E+02 4.42500E+00 0.00000E+00
 -1      1242 1.50000E+02 7.37500E+00 0.00000E+00
 -1      1243 1.50000E+02 1.03250E+01 0.00000E+00
 -1      1244 1.50000E+02 1.32750E+01 0.00000E+00
 -1      1245 1.50000E+02 1.62000E+01 0.00000E+00
 -1      1246 1.50000E+02 1.91250E+01 0.00000E+00
 -1      1247 1.50000E+02 2.20750E+01 0.00000E+00
 -1      1248 1.50000E+02 2.50250E+01 0.00000E+00
 -1      1249 1.50000E+02 2.79750E+01 0.00000E+00
 -1      1250 1.50000E+02 3.09250E+01 0.00000E+00
 -1      1251 1.50000E+02 3.38500E+01 0.00000E+00
 -1      1252 1.50000E+02 3.67750E+01 0.00000E+00
 -1      1253 1.50000E+02 3.97250E+01 0.00000E+00
 -1      1254 1.50000E+02 4.26750E+01 0.00000E+00
 -1      1255 1.50000E+02 4.56250E+01 0.00000E+00
 -1      1256 1.50000E+02 4.85500E+01 0.00000E+00
 -1      1257 1.00833E+02 2.19438E+01 0.00000E+00
 -1      1258 1.00520E+02 2.05090E+01 0.00000E+00
 -1      1259 9.99150E+01 1.91712E+01 0.00000E+00
 -1      1260 9.90417E+01 1.79869E+01 0.00000E+00
 -1      1261 9.79483E+01 1.70171E+01 0.00000E+00
 -1      1262 9.66556E+01 1.62861E+01 0.00000E+00
 -1      1263 9.52915E+01 1.58550E+01 0.00000E+00
 -1      1264 9.38142E+01 1.57106E+01 0.00000E+00
 -1      1265 9.22586E+01 1.58996E+01 0.00000E+00
 -1      1266 9.07872E+01 1.64285E+01 0.00000E+00
 -1      1267 8.95172E+01 1.72327E+01 0.00000E+00
 -1      1268 8.84684E+01 1.82648E+01 0.00000E+00
 -1      1269 8.76438E+01 1.95220E+01 0.00000E+00
 -1      1270 8.71074E+01 2.09238E+01 0.00000E+00
 -1      1271 8.68839E+01 2.23683E+01 0.00000E+00
 -1      1272 8.69693E+01 2.38524E+01 0.00000E+00
 -1      1273 8.73631E+01 2.52771E+01 0.00000E+00
 -1      1274 8.80521E+01 2.65946E+01 0.00000E+00
 -1      1275 8.90116E+01 2.77444E+01 0.00000E+00
 -1      1276 9.01552E+01 2.86398E+01 0.00000E+00
 -1      1277 9.14387E+01 2.92725E+01 0.00000E+00
 -1      1278 9.29548E+01 2.96495E+01 0.00000E+00
 -1      1279 9.45535E+01 2.96774E+01 0.00000E+00
 -1      1280 9.60268E+01 2.93716E+01 0.00000E+00
 -1      1281 9.74722E+01 2.87157E+01 0.00000E+00
 -1      1282 9.87534E+01 2.77309E+01 0.00000E+00
 -1      1283 9.97775E+01 2.64743E+01 0.00000E+00
 -1      1284 1.00477E+02 2.50389E+01 0.00000E+00
 -1      1285 1.00830E+02 2.35076E+01 0.00000E+00
 -1      1286 1.57500E+00 4.85250E+01 0.00000E+00
 -1      1287 1.29900E+00 4.48375E+01 0.00000E+00
 -1      1288 1.29900E+00 4.63125E+01 0.00000E+00
 -1      1289 1.29900E+00 4.18875E+01 0.00000E+00
 -1      1290 1.29900E+00 4.33625E+01 0.00000E+00
 -1      1291 2.59800E+00 4.41000E+01 0.00000E+00
 -1      1292 1.29900E+00 3.89375E+01 0.00000E+00
 -1      1293 1.29900E+00 4.04125E+01 0.00000E+00
 -1      1294 2.59800E+00 4.11500E+01 0.00000E+00
 -1      1295 1.29900E+00 3.59875E+01 0.00000E+00
 -1      1296 1.29900E+00 3.74625E+01 0.00000E+00
 -1      1297 2.59800E+00 3.82000E+01 0.00000E+00
 -1      1298 1.29900E+00 3.30875E+01 0.00000E+00
 -1      1299 1.29900E+00 3.45375E+01 0.00000E+00
 -1      1300 2.59800E+00 3.52750E+01 0.00000E+00
 -1      1301 1.29900E+00 3.01375E+01 0.00000E+00
 -1      1302 1.29900E+00 3.16125E+01 0.00000E+00
 -1      1303 2.59800E+00 3.23500E+01 0.00000E+00
 -1      1304 1.29900E+00 2.71875E+01 0.00000E+00
 -1      1305 1.29900E+00 2.86625E+01 0.00000E+00
 -1      1306 2.59800E+00 2.94000E+01 0.00000E+00
 -1      1307 1.29900E+00 2.42375E+01 0.00000E+00
 -1      1308 1.29900E+00 2.57125E+01 0.00000E+00
 -1      1309 2.59800E+00 2.64500E+01 0.00000E+00
 -1      1310 1.29900E+00 2.12875E+01 0.00000E+00
 -1      1311 1.29900E+00 2.27625E+01 0.00000E+00
 -1      1312 2.59800E+00 2.35000E+01 0.00000E+00
 -1      1313 1.29900E+00 1.83375E+01 0.00000E+00
 -1      1314 1.29900E+00 1.98125E+01 0.00000E+00
 -1      1315 2.59800E+00 2.05500E+01 0.00000E+00
 -1      1316 1.29900E+00 1.54375E+01 0.00000E+00
 -1      1317 1.29900E+00 1.68875E+01 0.00000E+00
 -1      1318 2.59800E+00 1.76250E+01 0.00000E+00
 -1      1319 1.29900E+00 1.24875E+01 0.00000E+00
 -1      1320 1.29900E+00 1.39625E+01 0.00000E+00
 -1      1321 2.59800E+00 1.47000E+01 0.00000E+00
 -1      1322 1.29900E+00 9.53750E+00 0.00000E+00
 -1      1323 1.29900E+00 1.10125E+01 0.00000E+00
 -1      1324 2.59800E+00 1.17500E+01 0.00000E+00
 -1      1325 1.29900E+00 6.58750E+00 0.00000E+00
 -1      1326 1.29900E+00 8.06250E+00 0.00000E+00
 -1      1327 2.59800E+00 8.80000E+00 0.00000E+00
 -1      1328 1.29900E+00 3.63750E+00 0.00000E+00
 -1      1329 1.29900E+00 5.11250E+00 0.00000E+00
 -1      1330 2.59800E+00 5.85000E+00 0.00000E+00
 -1      1331 1.43700E+00 1.09375E+00 0.00000E+00
 -1      1332 1.43700E+00 2.54375E+00 0.00000E+00
 -1      1333 2.73600E+00 3.28125E+00 0.00000E+00
 -1      1334 3.01200E+00 1.09375E+00 0.00000E+00
 -1      1335 3.90000E+00 4.87010E+01 0.00000E+00
 -1      1336 5.40000E+00 4.87010E+01 0.00000E+00
 -1      1337 6.90000E+00 4.87010E+01 0.00000E+00
 -1      1338 8.40000E+00 4.87010E+01 0.00000E+00
 -1      1339 6.15000E+00 4.74020E+01 0.00000E+00
 -1      1340 9.90000E+00 4.87010E+01 0.00000E+00
 -1      1341 1.14000E+01 4.87010E+01 0.00000E+00
 -1      1342 9.15000E+00 4.74020E+01 0.00000E+00
 -1      1343 1.29000E+01 4.87010E+01 0.00000E+00
 -1      1344 1.44000E+01 4.87010E+01 0.00000E+00
 -1      1345 1.21500E+01 4.74020E+01 0.00000E+00
 -1      1346 1.59000E+01 4.87010E+01 0.00000E+00
 -1      1347 1.74000E+01 4.87010E+01 0.00000E+00
 -1      1348 1.51500E+01 4.74020E+01 0.00000E+00
 -1      1349 1.89000E+01 4.87010E+01 0.00000E+00
 -1      1350 2.04000E+01 4.87010E+01 0.00000E+00
 -1      1351 1.81500E+01 4.74020E+01 0.00000E+00
 -1      1352 2.19000E+01 4.87010E+01 0.00000E+00
 -1      1353 2.34000E+01 4.87010E+01 0.00000E+00
 -1      1354 2.11500E+01 4.74020E+01 0.00000E+00
 -1      1355 2.49000E+01 4.87010E+01 0.00000E+00
 -1      1356 2.64000E+01 4.87010E+01 0.00000E+00
 -1      1357 2.41500E+01 4.74020E+01 0.00000E+00
 -1      1358 2.79000E+01 4.87010E+01 0.00000E+00
 -1      1359 2.94000E+01 4.87010E+01 0.00000E+00
 -1      1360 2.71500E+01 4.74020E+01 0.00000E+00
 -1      1361 3.09000E+01 4.87010E+01 0.00000E+00
 -1      1362 3.24000E+01 4.87010E+01 0.00000E+00
 -1      1363 3.01500E+01 4.74020E+01 0.00000E+00
 -1      1364 3.39000E+01 4.87010E+01 0.00000E+00
 -1      1365 3.54000E+01 4.87010E+01 0.00000E+00
 -1      1366 3.31500E+01 4.74020E+01 0.00000E+00
 -1      1367 3.69000E+01 4.87010E+01 0.00000E+00
 -1      1368 3.84000E+01 4.87010E+01 0.00000E+00
 -1      1369 3.61500E+01 4.74020E+01 0.00000E+00
 -1      1370 3.99000E+01 4.87010E+01 0.00000E+00
 -1      1371 4.14000E+01 4.87010E+01 0.00000E+00
 -1      1372 3.91500E+01 4.74020E+01 0.00000E+00
 -1      1373 4.29000E+01 4.87010E+01 0.00000E+00
 -1      1374 4.44000E+01 4.87010E+01 0.00000E+00
 -1      1375 4.21500E+01 4.74020E+01 0.00000E+00
 -1      1376 4.59000E+01 4.87010E+01 0.00000E+00
 -1      1377 4.74000E+01 4.87010E+01 0.00000E+00
 -1      1378 4.51500E+01 4.74020E+01 0.00000E+00
 -1      1379 4.89000E+01 4.87010E+01 0.00000E+00
 -1      1380 5.04000E+01 4.87010E+01 0.00000E+00
 -1      1381 4.81500E+01 4.74020E+01 0.00000E+00
 -1      1382 5.19000E+01 4.87010E+01 0.00000E+00
 -1      1383 5.34000E+01 4.87010E+01 0.00000E+00
 -1      1384 5.11500E+01 4.74020E+01 0.00000E+00
 -1      1385 5.49000E+01 4.87010E+01 0.00000E+00
 -1      1386 5.64000E+01 4.87010E+01 0.00000E+00
 -1      1387 5.41500E+01 4.74020E+01 0.00000E+00
 -1      1388 5.79000E+01 4.87010E+01 0.00000E+00
 -1      1389 5.94000E+01 4.87010E+01 0.00000E+00
 -1      1390 5.71500E+01 4.74020E+01 0.00000E+00
 -1      1391 6.09000E+01 4.87010E+01 0.00000E+00
 -1      1392 6.24000E+01 4.87010E+01 0.00000E+00
 -1      1393 6.01500E+01 4.74020E+01 0.00000E+00
 -1      1394 6.39000E+01 4.87010E+01 0.00000E+00
 -1      1395 6.54000E+01 4.87010E+01 0.00000E+00
 -1      1396 6.31500E+01 4.74020E+01 0.00000E+00
 -1      1397 6.69000E+01 4.87010E+01 0.00000E+00
 -1      1398 6.84000E+01 4.87010E+01 0.00000E+00
 -1      1399 6.61500E+01 4.74020E+01 0.00000E+00
 -1      1400 6.99000E+01 4.87010E+01 0.00000E+00
 -1      1401 7.14000E+01 4.87010E+01 0.00000E+00
 -1      1402 6.91500E+01 4.74020E+01 0.00000E+00
 -1      1403 7.29000E+01 4.87010E+01 0.00000E+00
 -1      1404 7.44000E+01 4.87010E+01 0.00000E+00
 -1      1405 7.21500E+01 4.74020E+01 0.00000E+00
 -1      1406 7.59000E+01 4.87010E+01 0.00000E+00
 -1      1407 7.74000E+01 4.87010E+01 0.00000E+00
 -1      1408 7.51500E+01 4.74020E+01 0.00000E+00
 -1      1409 7.89000E+01 4.87010E+01 0.00000E+00
 -1      1410 8.04000E+01 4.87010E+01 0.00000E+00
 -1      1411 7.81500E+01 4.74020E+01 0.00000E+00
 -1      1412 8.19000E+01 4.87010E+01 0.00000E+00
 -1      1413 8.34000E+01 4.87010E+01 0.00000E+00
 -1      1414 8.11500E+01 4.74020E+01 0.00000E+00
 -1      1415 8.49000E+01 4.87010E+01 0.00000E+00
 -1      1416 8.64000E+01 4.87010E+01 0.00000E+00
 -1      1417 8.41500E+01 4.74020E+01 0.00000E+00
 -1      1418 8.79000E+01 4.87010E+01 0.00000E+00
 -1      1419 8.94000E+01 4.87010E+01 0.00000E+00
 -1      1420 8.71500E+01 4.74020E+01 0.00000E+00
 -1      1421 9.09000E+01 4.87010E+01 0.00000E+00
 -1      1422 9.24000E+01 4.87010E+01 0.00000E+00
 -1      1423 9.01500E+01 4.74020E+01 0.00000E+00
 -1      1424 9.39000E+01 4.87010E+01 0.00000E+00
 -1      1425 9.54000E+01 4.87010E+01 0.00000E+00
 -1      1426 9.31500E+01 4.74020E+01 0.00000E+00
 -1      1427 9.69000E+01 4.87010E+01 0.00000E+00
 -1      1428 9.84000E+01 4.87010E+01 0.00000E+00
 -1      1429 9.61500E+01 4.74020E+01 0.00000E+00
 -1      1430 9.99000E+01 4.87010E+01 0.00000E+00
 -1      1431 1.01400E+02 4.87010E+01 0.00000E+00
 -1      1432 9.91500E+01 4.74020E+01 0.00000E+00
 -1      1433 1.02900E+02 4.87010E+01 0.00000E+00
 -1      1434 1.04400E+02 4.87010E+01 0.00000E+00
 -1      1435 1.02150E+02 4.74020E+01 0.00000E+00
 -1      1436 1.05900E+02 4.87010E+01 0.00000E+00
 -1      1437 1.07400E+02 4.87010E+01 0.00000E+00
 -1      1438 1.05150E+02 4.74020E+01 0.00000E+00
 -1      1439 1.08900E+02 4.87010E+01 0.00000E+00
 -1      1440 1.10400E+02 4.87010E+01 0.00000E+00
 -1      1441 1.08150E+02 4.74020E+01 0.00000E+00
 -1      1442 1.11900E+02 4.87010E+01 0.00000E+00
 -1      1443 1.13400E+02 4.87010E+01 0.00000E+00
 -1      1444 1.11150E+02 4.74020E+01 0.00000E+00
 -1      1445 1.14900E+02 4.87010E+01 0.00000E+00
 -1      1446 1.16400E+02 4.87010E+01 0.00000E+00
 -1      1447 1.14150E+02 4.74020E+01 0.00000E+00
 -1      1448 1.17900E+02 4.87010E+01 0.00000E+00
 -1      1449 1.19400E+02 4.87010E+01 0.00000E+00
 -1      1450 1.17150E+02 4.74020E+01 0.00000E+00
 -1      1451 1.20900E+02 4.87010E+01 0.00000E+00
 -1      1452 1.22400E+02 4.87010E+01 0.00000E+00
 -1      1453 1.20150E+02 4.74020E+01 0.00000E+00
 -1      1454 1.23900E+02 4.87010E+01 0.00000E+00
 -1      1455 1.25400E+02 4.87010E+01 0.00000E+00
 -1      1456 1.23150E+02 4.74020E+01 0.00000E+00
 -1      1457 1.26900E+02 4.87010E+01 0.00000E+00
 -1      1458 1.28400E+02 4.87010E+01 0.00000E+00
 -1      1459 1.26150E+02 4.74020E+01 0.00000E+00
 -1      1460 1.29900E+02 4.87010E+01 0.00000E+00
 -1      1461 1.31400E+02 4.87010E+01 0.00000E+00
 -1      1462 1.29150E+02 4.74020E+01 0.00000E+00
 -1      1463 1.32900E+02 4.87010E+01 0.00000E+00
 -1      1464 1.34400E+02 4.87010E+01 0.00000E+00
 -1      1465 1.32150E+02 4.74020E+01 0.00000E+00
 -1      1466 1.35900E+02 4.87010E+01 0.00000E+00
 -1      1467 1.37400E+02 4.87010E+01 0.00000E+00
 -1      1468 1.35150E+02 4.74020E+01 0.00000E+00
 -1      1469 1.38900E+02 4.87010E+01 0.00000E+00
 -1      1470 1.40400E+02 4.87010E+01 0.00000E+00
 -1      1471 1.38150E+02 4.74020E+01 0.00000E+00
 -1      1472 1.41900E+02 4.87010E+01 0.00000E+00
 -1      1473 1.43400E+02 4.87010E+01 0.00000E+00
 -1      1474 1.41150E+02 4.74020E+01 0.00000E+00
 -1      1475 1.44900E+02 4.87010E+01 0.00000E+00
 -1      1476 1.46400E+02 4.87010E+01 0.00000E+00
 -1      1477 1.44150E+02 4.74020E+01 0.00000E+00
 -1      1478 1.48575E+02 4.85500E+01 0.00000E+00
 -1      1479 1.47825E+02 4.72510E+01 0.00000E+00
 -1      1480 6.01200E+00 1.09375E+00 0.00000E+00
 -1      1481 4.51200E+00 1.09375E+00 0.00000E+00
 -1      1482 4.37400E+00 2.18750E+00 0.00000E+00
 -1      1483 9.01200E+00 1.09375E+00 0.00000E+00
 -1      1484 7.51200E+00 1.09375E+00 0.00000E+00
 -1      1485 7.37400E+00 2.18750E+00 0.00000E+00
 -1      1486 1.20120E+01 1.09375E+00 0.00000E+00
 -1      1487 1.05120E+01 1.09375E+00 0.00000E+00
 -1      1488 1.03740E+01 2.18750E+00 0.00000E+00
 -1      1489 1.50120E+01 1.09375E+00 0.00000E+00
 -1      1490 1.35120E+01 1.09375E+00 0.00000E+00
 -1      1491 1.33740E+01 2.18750E+00 0.00000E+00
 -1      1492 1.80120E+01 1.09375E+00 0.00000E+00
 -1      1493 1.65120E+01 1.09375E+00 0.00000E+00
 -1      1494 1.63740E+01 2.18750E+00 0.00000E+00
 -1      1495 2.10120E+01 1.09375E+00 0.00000E+00
 -1      1496 1.95120E+01 1.09375E+00 0.00000E+00
 -1      1497 1.93740E+01 2.18750E+00 0.00000E+00
 -1      1498 2.40120E+01 1.09375E+00 0.00000E+00
 -1      1499 2.25120E+01 1.09375E+00 0.00000E+00
 -1      1500 2.23740E+01 2.18750E+00 0.00000E+00
 -1      1501 2.70120E+01 1.09375E+00 0.00000E+00
 -1      1502 2.55120E+01 1.09375E+00 0.00000E+00
 -1      1503 2.53740E+01 2.18750E+00 0.00000E+00
 -1      1504 3.00120E+01 1.09375E+00 0.00000E+00
 -1      1505 2.85120E+01 1.09375E+00 0.00000E+00
 -1      1506 2.83740E+01 2.18750E+00 0.00000E+00
 -1      1507 3.30120E+01 1.09375E+00 0.00000E+00
 -1      1508 3.15120E+01 1.09375E+00 0.00000E+00
 -1      1509 3.13740E+01 2.18750E+00 0.00000E+00
 -1      1510 3.60120E+01 1.09375E+00 0.00000E+00
 -1      1511 3.45120E+01 1.09375E+00 0.00000E+00
 -1      1512 3.43740E+01 2.18750E+00 0.00000E+00
 -1      1513 3.90120E+01 1.09375E+00 0.00000E+00
 -1      1514 3.75120E+01 1.09375E+00 0.00000E+00
 -1      1515 3.73740E+01 2.18750E+00 0.00000E+00
 -1      1516 4.20120E+01 1.09375E+00 0.00000E+00
 -1      1517 4.05120E+01 1.09375E+00 0.00000E+00
 -1      1518 4.03740E+01 2.18750E+00 0.00000E+00
 -1      1519 4.50120E+01 1.09375E+00 0.00000E+00
 -1      1520 4.35120E+01 1.09375E+00 0.00000E+00
 -1      1521 4.33740E+01 2.18750E+00 0.00000E+00
 -1      1522 4.80120E+01 1.09375E+00 0.00000E+00
 -1      1523 4.65120E+01 1.09375E+00 0.00000E+00
 -1      1524 4.63740E+01 2.18750E+00 0.00000E+00
 -1      1525 5.10120E+01 1.09375E+00 0.00000E+00
 -1      1526 4.95120E+01 1.09375E+00 0.00000E+00
 -1      1527 4.93740E+01 2.18750E+00 0.00000E+00
 -1      1528 5.40120E+01 1.09375E+00 0.00000E+00
 -1      1529 5.25120E+01 1.09375E+00 0.00000E+00
 -1      1530 5.23740E+01 2.18750E+00 0.00000E+00
 -1      1531 5.70120E+01 1.09375E+00 0.00000E+00
 -1      1532 5.55120E+01 1.09375E+00 0.00000E+00
 -1      1533 5.53740E+01 2.18750E+00 0.00000E+00
 -1      1534 6.00120E+01 1.09375E+00 0.00000E+00
 -1      1535 5.85120E+01 1.09375E+00 0.00000E+00
 -1      1536 5.83740E+01 2.18750E+00 0.00000E+00
 -1      1537 6.30120E+01 1.09375E+00 0.00000E+00
 -1      1538 6.15120E+01 1.09375E+00 0.00000E+00
 -1      1539 6.13740E+01 2.18750E+00 0.00000E+00
 -1      1540 6.60120E+01 1.09375E+00 0.00000E+00
 -1      1541 6.45120E+01 1.09375E+00 0.00000E+00
 -1      1542 6.43740E+01 2.18750E+00 0.00000E+00
 -1      1543 6.90120E+01 1.09375E+00 0.00000E+00
 -1      1544 6.75120E+01 1.09375E+00 0.00000E+00
 -1      1545 6.73740E+01 2.18750E+00 0.00000E+00
 -1      1546 7.20120E+01 1.09375E+00 0.00000E+00
 -1      1547 7.05120E+01 1.09375E+00 0.00000E+00
 -1      1548 7.03740E+01 2.18750E+00 0.00000E+00
 -1      1549 7.50120E+01 1.09375E+00 0.00000E+00
 -1      1550 7.35120E+01 1.09375E+00 0.00000E+00
 -1      1551 7.33740E+01 2.18750E+00 0.00000E+00
 -1      1552 7.80120E+01 1.09375E+00 0.00000E+00
 -1      1553 7.65120E+01 1.09375E+00 0.00000E+00
 -1      1554 7.63740E+01 2.18750E+00 0.00000E+00
 -1      1555 8.10120E+01 1.09375E+00 0.00000E+00
 -1      1556 7.95120E+01 1.09375E+00 0.00000E+00
 -1      1557 7.93740E+01 2.18750E+00 0.00000E+00
 -1      1558 8.40120E+01 1.09375E+00 0.00000E+00
 -1      1559 8.25120E+01 1.09375E+00 0.00000E+00
 -1      1560 8.23740E+01 2.18750E+00 0.00000E+00
 -1      1561 8.70120E+01 1.09375E+00 0.00000E+00
 -1      1562 8.55120E+01 1.09375E+00 0.00000E+00
 -1      1563 8.53740E+01 2.18750E+00 0.00000E+00
 -1      1564 9.00120E+01 1.09375E+00 0.00000E+00
 -1      1565 8.85120E+01 1.09375E+00 0.00000E+00
 -1      1566 8.83740E+01 2.18750E+00 0.00000E+00
 -1      1567 9.30120E+01 1.09375E+00 0.00000E+00
 -1      1568 9.15120E+01 1.09375E+00 0.00000E+00
 -1      1569 9.13740E+01 2.18750E+00 0.00000E+00
 -1      1570 9.60120E+01 1.09375E+00 0.00000E+00
 -1      1571 9.45120E+01 1.09375E+00 0.00000E+00
 -1      1572 9.43740E+01 2.18750E+00 0.00000E+00
 -1      1573 9.90120E+01 1.09375E+00 0.00000E+00
 -1      1574 9.75120E+01 1.09375E+00 0.00000E+00
 -1      1575 9.73740E+01 2.18750E+00 0.00000E+00
 -1      1576 1.02012E+02 1.09375E+00 0.00000E+00
 -1      1577 1.00512E+02 1.09375E+00 0.00000E+00
 -1      1578 1.00374E+02 2.18750E+00 0.00000E+00
 -1      1579 1.05012E+02 1.09375E+00 0.00000E+00
 -1      1580 1.03512E+02 1.09375E+00 0.00000E+00
 -1      1581 1.03374E+02 2.18750E+00 0.00000E+00
 -1      1582 1.08012E+02 1.09375E+00 0.00000E+00
 -1      1583 1.06512E+02 1.09375E+00 0.00000E+00
 -1      1584 1.06374E+02 2.18750E+00 0.00000E+00
 -1      1585 1.11012E+02 1.09375E+00 0.00000E+00
 -1      1586 1.09512E+02 1.09375E+00 0.00000E+00
 -1      1587 1.09374E+02 2.18750E+00 0.00000E+00
 -1      1588 1.14012E+02 1.09375E+00 0.00000E+00
 -1      1589 1.12512E+02 1.09375E+00 0.00000E+00
 -1      1590 1.12374E+02 2.18750E+00 0.00000E+00
 -1      1591 1.17012E+02 1.09375E+00 0.00000E+00
 -1      1592 1.15512E+02 1.09375E+00 0.00000E+00
 -1      1593 1.15374E+02 2.18750E+00 0.00000E+00
 -1      1594 1.20012E+02 1.09375E+00 0.00000E+00
 -1      1595 1.18512E+02 1.09375E+00 0.00000E+00
 -1      1596 1.18374E+02 2.18750E+00 0.00000E+00
 -1      1597 1.23012E+02 1.09375E+00 0.00000E+00
 -1      1598 1.21512E+02 1.09375E+00 0.00000E+00
 -1      1599 1.21374E+02 2.18750E+00 0.00000E+00
 -1      1600 1.26012E+02 1.09375E+00 0.00000E+00
 -1      1601 1.24512E+02 1.09375E+00 0.00000E+00
 -1      1602 1.24374E+02 2.18750E+00 0.00000E+00
 -1      1603 1.29012E+02 1.09375E+00 0.00000E+00
 -1      1604 1.27512E+02 1.09375E+00 0.00000E+00
 -1      1605 1.27374E+02 2.18750E+00 0.00000E+00
 -1      1606 1.32012E+02 1.09375E+00 0.00000E+00
 -1      1607 1.30512E+02 1.09375E+00 0.00000E+00
 -1      1608 1.30374E+02 2.18750E+00 0.00000E+00
 -1      1609 1.35012E+02 1.09375E+00 0.00000E+00
 -1      1610 1.33512E+02 1.09375E+00 0.00000E+00
 -1      1611 1.33374E+02 2.18750E+00 0.00000E+00
 -1      1612 1.38012E+02 1.09375E+00 0.00000E+00
 -1      1613 1.36512E+02 1.09375E+00 0.00000E+00
 -1      1614 1.36374E+02 2.18750E+00 0.00000E+00
 -1      1615 1.41012E+02 1.09375E+00 0.00000E+00
 -1      1616 1.39512E+02 1.09375E+00 0.00000E+00
 -1      1617 1.39374E+02 2.18750E+00 0.00000E+00
 -1      1618 1.44012E+02 1.09375E+00 0.00000E+00
 -1      1619 1.42512E+02 1.09375E+00 0.00000E+00
 -1      1620 1.42374E+02 2.18750E+00 0.00000E+00
 -1      1621 1.47012E+02 1.09375E+00 0.00000E+00
 -1      1622 1.45512E+02 1.09375E+00 0.00000E+00
 -1      1623 1.45374E+02 2.18750E+00 0.00000E+00
 -1      1624 1.48575E+02 1.47500E+00 0.00000E+00
 -1      1625 1.48701E+02 5.16250E+00 0.00000E+00
 -1      1626 1.48701E+02 3.68750E+00 0.00000E+00
 -1      1627 1.48701E+02 8.11250E+00 0.00000E+00
 -1      1628 1.48701E+02 6.63750E+00 0.00000E+00
 -1      1629 1.47402E+02 5.90000E+00 0.00000E+00
 -1      1630 1.48701E+02 1.10625E+01 0.00000E+00
 -1      1631 1.48701E+02 9.58750E+00 0.00000E+00
 -1      1632 1.47402E+02 8.85000E+00 0.00000E+00
 -1      1633 1.48701E+02 1.40125E+01 0.00000E+00
 -1      1634 1.48701E+02 1.25375E+01 0.00000E+00
 -1      1635 1.47402E+02 1.18000E+01 0.00000E+00
 -1      1636 1.48701E+02 1.69125E+01 0.00000E+00
 -1      1637 1.48701E+02 1.54625E+01 0.00000E+00
 -1      1638 1.47402E+02 1.47250E+01 0.00000E+00
 -1      1639 1.48701E+02 1.98625E+01 0.00000E+00
 -1      1640 1.48701E+02 1.83875E+01 0.00000E+00
 -1      1641 1.47402E+02 1.76500E+01 0.00000E+00
 -1      1642 1.48701E+02 2.28125E+01 0.00000E+00
 -1      1643 1.48701E+02 2.13375E+01 0.00000E+00
 -1      1644 1.47402E+02 2.06000E+01 0.00000E+00
 -1      1645 1.48701E+02 2.57625E+01 0.00000E+00
 -1      1646 1.48701E+02 2.42875E+01 0.00000E+00
 -1      1647 1.47402E+02 2.35500E+01 0.00000E+00
 -1      1648 1.48701E+02 2.87125E+01 0.00000E+00
 -1      1649 1.48701E+02 2.72375E+01 0.00000E+00
 -1      1650 1.47402E+02 2.65000E+01 0.00000E+00
 -1      1651 1.48701E+02 3.16625E+01 0.00000E+00
 -1      1652 1.48701E+02 3.01875E+01 0.00000E+00
 -1      1653 1.47402E+02 2.94500E+01 0.00000E+00
 -1      1654 1.48701E+02 3.45625E+01 0.00000E+00
 -1      1655 1.48701E+02 3.31125E+01 0.00000E+00
 -1      1656 1.47402E+02 3.23750E+01 0.00000E+00
 -1      1657 1.48701E+02 3.75125E+01 0.00000E+00
 -1      1658 1.48701E+02 3.60375E+01 0.00000E+00
 -1      1659 1.47402E+02 3.53000E+01 0.00000E+00
 -1      1660 1.48701E+02 4.04625E+01 0.00000E+00
 -1      1661 1.48701E+02 3.89875E+01 0.00000E+00
 -1      1662 1.47402E+02 3.82500E+01 0.00000E+00
 -1      1663 1.48701E+02 4.34125E+01 0.00000E+00
 -1      1664 1.48701E+02 4.19375E+01 0.00000E+00
 -1      1665 1.47402E+02 4.12000E+01 0.00000E+00
 -1      1666 1.48263E+02 4.60692E+01 0.00000E+00
 -1      1667 1.48263E+02 4.45942E+01 0.00000E+00
 -1      1668 1.46964E+02 4.38568E+01 0.00000E+00
 -1      1669 1.46088E+02 4.62202E+01 0.00000E+00
 -1      1670 1.01435E+02 2.14919E+01 0.00000E+00
 -1      1671 1.01519E+02 2.22538E+01 0.00000E+00
 -1      1672 1.00952E+02 1.99962E+01 0.00000E+00
 -1      1673 1.01173E+02 2.06627E+01 0.00000E+00
 -1      1674 1.00353E+02 1.84707E+01 0.00000E+00
 -1      1675 1.00740E+02 1.91319E+01 0.00000E+00
 -1      1676 9.92249E+01 1.73416E+01 0.00000E+00
 -1      1677 9.97007E+01 1.78621E+01 0.00000E+00
 -1      1678 9.80183E+01 1.62692E+01 0.00000E+00
 -1      1679 9.86334E+01 1.67093E+01 0.00000E+00
 -1      1680 9.65635E+01 1.55815E+01 0.00000E+00
 -1      1681 9.72323E+01 1.58709E+01 0.00000E+00
 -1      1682 9.50633E+01 1.52249E+01 0.00000E+00
 -1      1683 9.57507E+01 1.53669E+01 0.00000E+00
 -1      1684 9.34173E+01 1.50679E+01 0.00000E+00
 -1      1685 9.41997E+01 1.50611E+01 0.00000E+00
 -1      1686 9.17180E+01 1.53211E+01 0.00000E+00
 -1      1687 9.24814E+01 1.51399E+01 0.00000E+00
 -1      1688 9.01155E+01 1.59449E+01 0.00000E+00
 -1      1689 9.08145E+01 1.56012E+01 0.00000E+00
 -1      1690 8.88798E+01 1.70131E+01 0.00000E+00
 -1      1691 8.94465E+01 1.65622E+01 0.00000E+00
 -1      1692 8.77938E+01 1.81938E+01 0.00000E+00
 -1      1693 8.82683E+01 1.76166E+01 0.00000E+00
 -1      1694 8.69684E+01 1.96012E+01 0.00000E+00
 -1      1695 8.73129E+01 1.89279E+01 0.00000E+00
 -1      1696 8.64241E+01 2.11285E+01 0.00000E+00
 -1      1697 8.66142E+01 2.04086E+01 0.00000E+00
 -1      1698 8.62559E+01 2.26966E+01 0.00000E+00
 -1      1699 8.62909E+01 2.19803E+01 0.00000E+00
 -1      1700 8.63932E+01 2.43376E+01 0.00000E+00
 -1      1701 8.62677E+01 2.35785E+01 0.00000E+00
 -1      1702 8.69626E+01 2.58159E+01 0.00000E+00
 -1      1703 8.67027E+01 2.51565E+01 0.00000E+00
 -1      1704 8.77649E+01 2.72538E+01 0.00000E+00
 -1      1705 8.73332E+01 2.66065E+01 0.00000E+00
 -1      1706 8.88749E+01 2.84037E+01 0.00000E+00
 -1      1707 8.83574E+01 2.79037E+01 0.00000E+00
 -1      1708 9.01639E+01 2.93155E+01 0.00000E+00
 -1      1709 8.95431E+01 2.89260E+01 0.00000E+00
 -1      1710 9.15670E+01 2.99296E+01 0.00000E+00
 -1      1711 9.09127E+01 2.96866E+01 0.00000E+00
 -1      1712 9.32938E+01 3.03788E+01 0.00000E+00
 -1      1713 9.24373E+01 3.02651E+01 0.00000E+00
 -1      1714 9.49742E+01 3.02067E+01 0.00000E+00
 -1      1715 9.42428E+01 3.02779E+01 0.00000E+00
 -1      1716 9.65921E+01 2.98694E+01 0.00000E+00
 -1      1717 9.58595E+01 3.01060E+01 0.00000E+00
 -1      1718 9.81958E+01 2.91284E+01 0.00000E+00
 -1      1719 9.74945E+01 2.95484E+01 0.00000E+00
 -1      1720 9.94304E+01 2.78547E+01 0.00000E+00
 -1      1721 9.88576E+01 2.84112E+01 0.00000E+00
 -1      1722 1.00539E+02 2.64725E+01 0.00000E+00
 -1      1723 1.00097E+02 2.71659E+01 0.00000E+00
 -1      1724 1.01137E+02 2.48612E+01 0.00000E+00
 -1      1725 1.00879E+02 2.55913E+01 0.00000E+00
 -1      1726 1.01432E+02 2.31754E+01 0.00000E+00
 -1      1727 1.01342E+02 2.39674E+01 0.00000E+00
 -1      1728 9.93188E+01 1.65604E+01 0.00000E+00
 -1      1729 1.00562E+02 1.78014E+01 0.00000E+00
 -1      1730 1.48437E+02 2.56875E+00 0.00000E+00
 -1      1731 1.47138E+02 3.30625E+00 0.00000E+00
 -1      1732 1.01901E+02 2.09681E+01 0.00000E+00
 -1      1733 1.01426E+02 1.92745E+01 0.00000E+00
 -1      1734 1.02076E+02 2.27189E+01 0.00000E+00
 -1      1735 9.79413E+01 1.55297E+01 0.00000E+00
 -1      1736 9.63424E+01 1.49168E+01 0.00000E+00
 -1      1737 9.46660E+01 1.45384E+01 0.00000E+00
 -1      1738 9.28665E+01 1.44465E+01 0.00000E+00
 -1      1739 9.10271E+01 1.47985E+01 0.00000E+00
 -1      1740 8.94547E+01 1.56960E+01 0.00000E+00
 -1      1741 8.81743E+01 1.69168E+01 0.00000E+00
 -1      1742 8.70819E+01 1.82543E+01 0.00000E+00
 -1      1743 8.62467E+01 1.97958E+01 0.00000E+00
 -1      1744 8.57593E+01 2.14550E+01 0.00000E+00
 -1      1745 8.56379E+01 2.31887E+01 0.00000E+00
 -1      1746 8.59592E+01 2.48895E+01 0.00000E+00
 -1      1747 8.66393E+01 2.64991E+01 0.00000E+00
 -1      1748 8.76024E+01 2.79397E+01 0.00000E+00
 -1      1749 8.88632E+01 2.91120E+01 0.00000E+00
 -1      1750 9.02801E+01 3.00053E+01 0.00000E+00
 -1      1751 9.18990E+01 3.07119E+01 0.00000E+00
 -1      1752 9.37182E+01 3.09465E+01 0.00000E+00
 -1      1753 9.55525E+01 3.07450E+01 0.00000E+00
 -1      1754 9.73403E+01 3.03233E+01 0.00000E+00
 -1      1755 9.89046E+01 2.92850E+01 0.00000E+00
 -1      1756 1.00233E+02 2.78790E+01 0.00000E+00
 -1      1757 1.01240E+02 2.63091E+01 0.00000E+00
 -1      1758 1.01785E+02 2.45342E+01 0.00000E+00
 -1      1759 2.87400E+00 4.77875E+01 0.00000E+00
 -1      1760 3.89700E+00 4.04125E+01 0.00000E+00
 -1      1761 3.89700E+00 4.18875E+01 0.00000E+00
 -1      1762 3.89700E+00 4.33625E+01 0.00000E+00
 -1      1763 3.89700E+00 4.48375E+01 0.00000E+00
 -1      1764 5.19600E+00 4.26250E+01 0.00000E+00
 -1      1765 3.89700E+00 3.45500E+01 0.00000E+00
 -1      1766 3.89700E+00 3.60000E+01 0.00000E+00
 -1      1767 3.89700E+00 3.16000E+01 0.00000E+00
 -1      1768 3.89700E+00 3.30750E+01 0.00000E+00
 -1      1769 5.19600E+00 3.38000E+01 0.00000E+00
 -1      1770 3.89700E+00 2.86500E+01 0.00000E+00
 -1      1771 3.89700E+00 3.01250E+01 0.00000E+00
 -1      1772 5.19600E+00 3.08500E+01 0.00000E+00
 -1      1773 3.89700E+00 2.57000E+01 0.00000E+00
 -1      1774 3.89700E+00 2.71750E+01 0.00000E+00
 -1      1775 5.19600E+00 2.79000E+01 0.00000E+00
 -1      1776 3.89700E+00 2.27500E+01 0.00000E+00
 -1      1777 3.89700E+00 2.42250E+01 0.00000E+00
 -1      1778 5.19600E+00 2.49500E+01 0.00000E+00
 -1      1779 3.89700E+00 1.98000E+01 0.00000E+00
 -1      1780 3.89700E+00 2.12750E+01 0.00000E+00
 -1      1781 5.19600E+00 2.20000E+01 0.00000E+00
 -1      1782 3.89700E+00 1.69000E+01 0.00000E+00
 -1      1783 3.89700E+00 1.83500E+01 0.00000E+00
 -1      1784 5.19600E+00 1.90750E+01 0.00000E+00
 -1      1785 3.89700E+00 1.39500E+01 0.00000E+00
 -1      1786 3.89700E+00 1.54250E+01 0.00000E+00
 -1      1787 5.19600E+00 1.61500E+01 0.00000E+00
 -1      1788 3.89700E+00 1.10000E+01 0.00000E+00
 -1      1789 3.89700E+00 1.24750E+01 0.00000E+00
 -1      1790 5.19600E+00 1.32000E+01 0.00000E+00
 -1      1791 3.89700E+00 8.05000E+00 0.00000E+00
 -1      1792 3.89700E+00 9.52500E+00 0.00000E+00
 -1      1793 5.19600E+00 1.02500E+01 0.00000E+00
 -1      1794 3.89700E+00 5.10000E+00 0.00000E+00
 -1      1795 3.89700E+00 6.57500E+00 0.00000E+00
 -1      1796 5.19600E+00 7.30000E+00 0.00000E+00
 -1      1797 4.20450E+00 3.09687E+00 0.00000E+00
 -1      1798 4.06650E+00 4.19063E+00 0.00000E+00
 -1      1799 5.36550E+00 4.91563E+00 0.00000E+00
 -1      1800 5.70450E+00 3.09687E+00 0.00000E+00
 -1      1801 3.62400E+00 4.64885E+01 0.00000E+00
 -1      1802 8.70450E+00 3.09687E+00 0.00000E+00
 -1      1803 7.20450E+00 3.09687E+00 0.00000E+00
 -1      1804 7.03500E+00 4.00625E+00 0.00000E+00
 -1      1805 4.92300E+00 4.57510E+01 0.00000E+00
 -1      1806 8.40000E+00 4.61030E+01 0.00000E+00
 -1      1807 9.90000E+00 4.61030E+01 0.00000E+00
 -1      1808 1.14000E+01 4.61030E+01 0.00000E+00
 -1      1809 1.29000E+01 4.61030E+01 0.00000E+00
 -1      1810 1.06500E+01 4.48040E+01 0.00000E+00
 -1      1811 1.44000E+01 4.61030E+01 0.00000E+00
 -1      1812 1.59000E+01 4.61030E+01 0.00000E+00
 -1      1813 1.36500E+01 4.48040E+01 0.00000E+00
 -1      1814 1.74000E+01 4.61030E+01 0.00000E+00
 -1      1815 1.89000E+01 4.61030E+01 0.00000E+00
 -1      1816 1.66500E+01 4.48040E+01 0.00000E+00
 -1      1817 2.04000E+01 4.61030E+01 0.00000E+00
 -1      1818 2.19000E+01 4.61030E+01 0.00000E+00
 -1      1819 1.96500E+01 4.48040E+01 0.00000E+00
 -1      1820 2.34000E+01 4.61030E+01 0.00000E+00
 -1      1821 2.49000E+01 4.61030E+01 0.00000E+00
 -1      1822 2.26500E+01 4.48040E+01 0.00000E+00
 -1      1823 2.64000E+01 4.61030E+01 0.00000E+00
 -1      1824 2.79000E+01 4.61030E+01 0.00000E+00
 -1      1825 2.56500E+01 4.48040E+01 0.00000E+00
 -1      1826 2.94000E+01 4.61030E+01 0.00000E+00
 -1      1827 3.09000E+01 4.61030E+01 0.00000E+00
 -1      1828 2.86500E+01 4.48040E+01 0.00000E+00
 -1      1829 3.24000E+01 4.61030E+01 0.00000E+00
 -1      1830 3.39000E+01 4.61030E+01 0.00000E+00
 -1      1831 3.16500E+01 4.48040E+01 0.00000E+00
 -1      1832 3.54000E+01 4.61030E+01 0.00000E+00
 -1      1833 3.69000E+01 4.61030E+01 0.00000E+00
 -1      1834 3.46500E+01 4.48040E+01 0.00000E+00
 -1      1835 3.84000E+01 4.61030E+01 0.00000E+00
 -1      1836 3.99000E+01 4.61030E+01 0.00000E+00
 -1      1837 3.76500E+01 4.48040E+01 0.00000E+00
 -1      1838 4.14000E+01 4.61030E+01 0.00000E+00
 -1      1839 4.29000E+01 4.61030E+01 0.00000E+00
 -1      1840 4.06500E+01 4.48040E+01 0.00000E+00
 -1      1841 4.44000E+01 4.61030E+01 0.00000E+00
 -1      1842 4.59000E+01 4.61030E+01 0.00000E+00
 -1      1843 4.36500E+01 4.48040E+01 0.00000E+00
 -1      1844 4.74000E+01 4.61030E+01 0.00000E+00
 -1      1845 4.89000E+01 4.61030E+01 0.00000E+00
 -1      1846 4.66500E+01 4.48040E+01 0.00000E+00
 -1      1847 5.04000E+01 4.61030E+01 0.00000E+00
 -1      1848 5.19000E+01 4.61030E+01 0.00000E+00
 -1      1849 4.96500E+01 4.48040E+01 0.00000E+00
 -1      1850 5.34000E+01 4.61030E+01 0.00000E+00
 -1      1851 5.49000E+01 4.61030E+01 0.00000E+00
 -1      1852 5.26500E+01 4.48040E+01 0.00000E+00
 -1      1853 5.64000E+01 4.61030E+01 0.00000E+00
 -1      1854 5.79000E+01 4.61030E+01 0.00000E+00
 -1      1855 5.56500E+01 4.48040E+01 0.00000E+00
 -1      1856 5.94000E+01 4.61030E+01 0.00000E+00
 -1      1857 6.09000E+01 4.61030E+01 0.00000E+00
 -1      1858 5.86500E+01 4.48040E+01 0.00000E+00
 -1      1859 6.24000E+01 4.61030E+01 0.00000E+00
 -1      1860 6.39000E+01 4.61030E+01 0.00000E+00
 -1      1861 6.16500E+01 4.48040E+01 0.00000E+00
 -1      1862 6.54000E+01 4.61030E+01 0.00000E+00
 -1      1863 6.69000E+01 4.61030E+01 0.00000E+00
 -1      1864 6.46500E+01 4.48040E+01 0.00000E+00
 -1      1865 6.84000E+01 4.61030E+01 0.00000E+00
 -1      1866 6.99000E+01 4.61030E+01 0.00000E+00
 -1      1867 6.76500E+01 4.48040E+01 0.00000E+00
 -1      1868 7.14000E+01 4.61030E+01 0.00000E+00
 -1      1869 7.29000E+01 4.61030E+01 0.00000E+00
 -1      1870 7.06500E+01 4.48040E+01 0.00000E+00
 -1      1871 7.44000E+01 4.61030E+01 0.00000E+00
 -1      1872 7.59000E+01 4.61030E+01 0.00000E+00
 -1      1873 7.36500E+01 4.48040E+01 0.00000E+00
 -1      1874 7.74000E+01 4.61030E+01 0.00000E+00
 -1      1875 7.89000E+01 4.61030E+01 0.00000E+00
 -1      1876 7.66500E+01 4.48040E+01 0.00000E+00
 -1      1877 8.04000E+01 4.61030E+01 0.00000E+00
 -1      1878 8.19000E+01 4.61030E+01 0.00000E+00
 -1      1879 7.96500E+01 4.48040E+01 0.00000E+00
 -1      1880 8.34000E+01 4.61030E+01 0.00000E+00
 -1      1881 8.49000E+01 4.61030E+01 0.00000E+00
 -1      1882 8.26500E+01 4.48040E+01 0.00000E+00
 -1      1883 8.64000E+01 4.61030E+01 0.00000E+00
 -1      1884 8.79000E+01 4.61030E+01 0.00000E+00
 -1      1885 8.56500E+01 4.48040E+01 0.00000E+00
 -1      1886 8.94000E+01 4.61030E+01 0.00000E+00
 -1      1887 9.09000E+01 4.61030E+01 0.00000E+00
 -1      1888 8.86500E+01 4.48040E+01 0.00000E+00
 -1      1889 9.24000E+01 4.61030E+01 0.00000E+00
 -1      1890 9.39000E+01 4.61030E+01 0.00000E+00
 -1      1891 9.16500E+01 4.48040E+01 0.00000E+00
 -1      1892 9.54000E+01 4.61030E+01 0.00000E+00
 -1      1893 9.69000E+01 4.61030E+01 0.00000E+00
 -1      1894 9.46500E+01 4.48040E+01 0.00000E+00
 -1      1895 9.84000E+01 4.61030E+01 0.00000E+00
 -1      1896 9.99000E+01 4.61030E+01 0.00000E+00
 -1      1897 9.76500E+01 4.48040E+01 0.00000E+00
 -1      1898 1.01400E+02 4.61030E+01 0.00000E+00
 -1      1899 1.02900E+02 4.61030E+01 0.00000E+00
 -1      1900 1.00650E+02 4.48040E+01 0.00000E+00
 -1      1901 1.04400E+02 4.61030E+01 0.00000E+00
 -1      1902 1.05900E+02 4.61030E+01 0.00000E+00
 -1      1903 1.03650E+02 4.48040E+01 0.00000E+00
 -1      1904 1.07400E+02 4.61030E+01 0.00000E+00
 -1      1905 1.08900E+02 4.61030E+01 0.00000E+00
 -1      1906 1.06650E+02 4.48040E+01 0.00000E+00
 -1      1907 1.10400E+02 4.61030E+01 0.00000E+00
 -1      1908 1.11900E+02 4.61030E+01 0.00000E+00
 -1      1909 1.09650E+02 4.48040E+01 0.00000E+00
 -1      1910 1.13400E+02 4.61030E+01 0.00000E+00
 -1      1911 1.14900E+02 4.61030E+01 0.00000E+00
 -1      1912 1.12650E+02 4.48040E+01 0.00000E+00
 -1      1913 1.16400E+02 4.61030E+01 0.00000E+00
 -1      1914 1.17900E+02 4.61030E+01 0.00000E+00
 -1      1915 1.15650E+02 4.48040E+01 0.00000E+00
 -1      1916 1.19400E+02 4.61030E+01 0.00000E+00
 -1      1917 1.20900E+02 4.61030E+01 0.00000E+00
 -1      1918 1.18650E+02 4.48040E+01 0.00000E+00
 -1      1919 1.22400E+02 4.61030E+01 0.00000E+00
 -1      1920 1.23900E+02 4.61030E+01 0.00000E+00
 -1      1921 1.21650E+02 4.48040E+01 0.00000E+00
 -1      1922 1.25400E+02 4.61030E+01 0.00000E+00
 -1      1923 1.26900E+02 4.61030E+01 0.00000E+00
 -1      1924 1.24650E+02 4.48040E+01 0.00000E+00
 -1      1925 1.28400E+02 4.61030E+01 0.00000E+00
 -1      1926 1.29900E+02 4.61030E+01 0.00000E+00
 -1      1927 1.27650E+02 4.48040E+01 0.00000E+00
 -1      1928 1.31400E+02 4.61030E+01 0.00000E+00
 -1      1929 1.32900E+02 4.61030E+01 0.00000E+00
 -1      1930 1.30650E+02 4.48040E+01 0.00000E+00
 -1      1931 1.34400E+02 4.61030E+01 0.00000E+00
 -1      1932 1.35900E+02 4.61030E+01 0.00000E+00
 -1      1933 1.33650E+02 4.48040E+01 0.00000E+00
 -1      1934 1.37400E+02 4.61030E+01 0.00000E+00
 -1      1935 1.38900E+02 4.61030E+01 0.00000E+00
 -1      1936 1.36650E+02 4.48040E+01 0.00000E+00
 -1      1937 1.40400E+02 4.61030E+01 0.00000E+00
 -1      1938 1.41900E+02 4.61030E+01 0.00000E+00
 -1      1939 1.39650E+02 4.48040E+01 0.00000E+00
 -1      1940 1.43244E+02 4.61616E+01 0.00000E+00
 -1      1941 1.44744E+02 4.61616E+01 0.00000E+00
 -1      1942 1.45182E+02 4.49799E+01 0.00000E+00
 -1      1943 1.42494E+02 4.48626E+01 0.00000E+00
 -1      1944 1.17045E+01 3.09687E+00 0.00000E+00
 -1      1945 1.02045E+01 3.09687E+00 0.00000E+00
 -1      1946 1.00350E+01 4.00625E+00 0.00000E+00
 -1      1947 1.47045E+01 3.09687E+00 0.00000E+00
 -1      1948 1.32045E+01 3.09687E+00 0.00000E+00
 -1      1949 1.30350E+01 4.00625E+00 0.00000E+00
 -1      1950 1.77045E+01 3.09687E+00 0.00000E+00
 -1      1951 1.62045E+01 3.09687E+00 0.00000E+00
 -1      1952 1.60350E+01 4.00625E+00 0.00000E+00
 -1      1953 2.07045E+01 3.09687E+00 0.00000E+00
 -1      1954 1.92045E+01 3.09687E+00 0.00000E+00
 -1      1955 1.90350E+01 4.00625E+00 0.00000E+00
 -1      1956 2.37045E+01 3.09687E+00 0.00000E+00
 -1      1957 2.22045E+01 3.09687E+00 0.00000E+00
 -1      1958 2.20350E+01 4.00625E+00 0.00000E+00
 -1      1959 2.67045E+01 3.09687E+00 0.00000E+00
 -1      1960 2.52045E+01 3.09687E+00 0.00000E+00
 -1      1961 2.50350E+01 4.00625E+00 0.00000E+00
 -1      1962 2.97045E+01 3.09687E+00 0.00000E+00
 -1      1963 2.82045E+01 3.09687E+00 0.00000E+00
 -1      1964 2.80350E+01 4.00625E+00 0.00000E+00
 -1      1965 3.27045E+01 3.09687E+00 0.00000E+00
 -1      1966 3.12045E+01 3.09687E+00 0.00000E+00
 -1      1967 3.10350E+01 4.00625E+00 0.00000E+00
 -1      1968 3.57045E+01 3.09687E+00 0.00000E+00
 -1      1969 3.42045E+01 3.09687E+00 0.00000E+00
 -1      1970 3.40350E+01 4.00625E+00 0.00000E+00
 -1      1971 3.87045E+01 3.09687E+00 0.00000E+00
 -1      1972 3.72045E+01 3.09687E+00 0.00000E+00
 -1      1973 3.70350E+01 4.00625E+00 0.00000E+00
 -1      1974 4.17045E+01 3.09687E+00 0.00000E+00
 -1      1975 4.02045E+01 3.09687E+00 0.00000E+00
 -1      1976 4.00350E+01 4.00625E+00 0.00000E+00
 -1      1977 4.47045E+01 3.09687E+00 0.00000E+00
 -1      1978 4.32045E+01 3.09687E+00 0.00000E+00
 -1      1979 4.30350E+01 4.00625E+00 0.00000E+00
 -1      1980 4.77045E+01 3.09687E+00 0.00000E+00
 -1      1981 4.62045E+01 3.09687E+00 0.00000E+00
 -1      1982 4.60350E+01 4.00625E+00 0.00000E+00
 -1      1983 5.07045E+01 3.09687E+00 0.00000E+00
 -1      1984 4.92045E+01 3.09687E+00 0.00000E+00
 -1      1985 4.90350E+01 4.00625E+00 0.00000E+00
 -1      1986 5.37045E+01 3.09687E+00 0.00000E+00
 -1      1987 5.22045E+01 3.09687E+00 0.00000E+00
 -1      1988 5.20350E+01 4.00625E+00 0.00000E+00
 -1      1989 5.67045E+01 3.09687E+00 0.00000E+00
 -1      1990 5.52045E+01 3.09687E+00 0.00000E+00
 -1      1991 5.50350E+01 4.00625E+00 0.00000E+00
 -1      1992 5.97045E+01 3.09687E+00 0.00000E+00
 -1      1993 5.82045E+01 3.09687E+00 0.00000E+00
 -1      1994 5.80350E+01 4.00625E+00 0.00000E+00
 -1      1995 6.27045E+01 3.09687E+00 0.00000E+00
 -1      1996 6.12045E+01 3.09687E+00 0.00000E+00
 -1      1997 6.10350E+01 4.00625E+00 0.00000E+00
 -1      1998 6.57045E+01 3.09687E+00 0.00000E+00
 -1      1999 6.42045E+01 3.09687E+00 0.00000E+00
 -1      2000 6.40350E+01 4.00625E+00 0.00000E+00
 -1      2001 6.87045E+01 3.09687E+00 0.00000E+00
 -1      2002 6.72045E+01 3.09687E+00 0.00000E+00
 -1      2003 6.70350E+01 4.00625E+00 0.00000E+00
 -1      2004 7.17045E+01 3.09687E+00 0.00000E+00
 -1      2005 7.02045E+01 3.09687E+00 0.00000E+00
 -1      2006 7.00350E+01 4.00625E+00 0.00000E+00
 -1      2007 7.47045E+01 3.09687E+00 0.00000E+00
 -1      2008 7.32045E+01 3.09687E+00 0.00000E+00
 -1      2009 7.30350E+01 4.00625E+00 0.00000E+00
 -1      2010 7.77045E+01 3.09687E+00 0.00000E+00
 -1      2011 7.62045E+01 3.09687E+00 0.00000E+00
 -1      2012 7.60350E+01 4.00625E+00 0.00000E+00
 -1      2013 8.07045E+01 3.09687E+00 0.00000E+00
 -1      2014 7.92045E+01 3.09687E+00 0.00000E+00
 -1      2015 7.90350E+01 4.00625E+00 0.00000E+00
 -1      2016 8.37045E+01 3.09687E+00 0.00000E+00
 -1      2017 8.22045E+01 3.09687E+00 0.00000E+00
 -1      2018 8.20350E+01 4.00625E+00 0.00000E+00
 -1      2019 8.67045E+01 3.09687E+00 0.00000E+00
 -1      2020 8.52045E+01 3.09687E+00 0.00000E+00
 -1      2021 8.50350E+01 4.00625E+00 0.00000E+00
 -1      2022 8.97045E+01 3.09687E+00 0.00000E+00
 -1      2023 8.82045E+01 3.09687E+00 0.00000E+00
 -1      2024 8.80350E+01 4.00625E+00 0.00000E+00
 -1      2025 9.27045E+01 3.09687E+00 0.00000E+00
 -1      2026 9.12045E+01 3.09687E+00 0.00000E+00
 -1      2027 9.10350E+01 4.00625E+00 0.00000E+00
 -1      2028 9.57045E+01 3.09687E+00 0.00000E+00
 -1      2029 9.42045E+01 3.09687E+00 0.00000E+00
 -1      2030 9.40350E+01 4.00625E+00 0.00000E+00
 -1      2031 9.87045E+01 3.09687E+00 0.00000E+00
 -1      2032 9.72045E+01 3.09687E+00 0.00000E+00
 -1      2033 9.70350E+01 4.00625E+00 0.00000E+00
 -1      2034 1.01704E+02 3.09687E+00 0.00000E+00
 -1      2035 1.00204E+02 3.09687E+00 0.00000E+00
 -1      2036 1.00035E+02 4.00625E+00 0.00000E+00
 -1      2037 1.04704E+02 3.09687E+00 0.00000E+00
 -1      2038 1.03204E+02 3.09687E+00 0.00000E+00
 -1      2039 1.03035E+02 4.00625E+00 0.00000E+00
 -1      2040 1.07704E+02 3.09687E+00 0.00000E+00
 -1      2041 1.06204E+02 3.09687E+00 0.00000E+00
 -1      2042 1.06035E+02 4.00625E+00 0.00000E+00
 -1      2043 1.10704E+02 3.09687E+00 0.00000E+00
 -1      2044 1.09204E+02 3.09687E+00 0.00000E+00
 -1      2045 1.09035E+02 4.00625E+00 0.00000E+00
 -1      2046 1.13704E+02 3.09687E+00 0.00000E+00
 -1      2047 1.12204E+02 3.09687E+00 0.00000E+00
 -1      2048 1.12035E+02 4.00625E+00 0.00000E+00
 -1      2049 1.16704E+02 3.09687E+00 0.00000E+00
 -1      2050 1.15204E+02 3.09687E+00 0.00000E+00
 -1      2051 1.15035E+02 4.00625E+00 0.00000E+00
 -1      2052 1.19704E+02 3.09687E+00 0.00000E+00
 -1      2053 1.18204E+02 3.09687E+00 0.00000E+00
 -1      2054 1.18035E+02 4.00625E+00 0.00000E+00
 -1      2055 1.22704E+02 3.09687E+00 0.00000E+00
 -1      2056 1.21204E+02 3.09687E+00 0.00000E+00
 -1      2057 1.21035E+02 4.00625E+00 0.00000E+00
 -1      2058 1.25704E+02 3.09687E+00 0.00000E+00
 -1      2059 1.24204E+02 3.09687E+00 0.00000E+00
 -1      2060 1.24035E+02 4.00625E+00 0.00000E+00
 -1      2061 1.28704E+02 3.09687E+00 0.00000E+00
 -1      2062 1.27204E+02 3.09687E+00 0.00000E+00
 -1      2063 1.27035E+02 4.00625E+00 0.00000E+00
 -1      2064 1.31704E+02 3.09687E+00 0.00000E+00
 -1      2065 1.30204E+02 3.09687E+00 0.00000E+00
 -1      2066 1.30035E+02 4.00625E+00 0.00000E+00
 -1      2067 1.34704E+02 3.09687E+00 0.00000E+00
 -1      2068 1.33204E+02 3.09687E+00 0.00000E+00
 -1      2069 1.33035E+02 4.00625E+00 0.00000E+00
 -1      2070 1.37704E+02 3.09687E+00 0.00000E+00
 -1      2071 1.36204E+02 3.09687E+00 0.00000E+00
 -1      2072 1.36035E+02 4.00625E+00 0.00000E+00
 -1      2073 1.40704E+02 3.09687E+00 0.00000E+00
 -1      2074 1.39204E+02 3.09687E+00 0.00000E+00
 -1      2075 1.39035E+02 4.00625E+00 0.00000E+00
 -1      2076 1.43704E+02 3.09687E+00 0.00000E+00
 -1      2077 1.42204E+02 3.09687E+00 0.00000E+00
 -1      2078 1.42035E+02 4.00625E+00 0.00000E+00
 -1      2079 1.46171E+02 3.20156E+00 0.00000E+00
 -1      2080 1.44671E+02 3.20156E+00 0.00000E+00
 -1      2081 1.44502E+02 4.11094E+00 0.00000E+00
 -1      2082 1.46435E+02 4.32031E+00 0.00000E+00
 -1      2083 1.46103E+02 1.25375E+01 0.00000E+00
 -1      2084 1.46103E+02 1.10625E+01 0.00000E+00
 -1      2085 1.46103E+02 9.58750E+00 0.00000E+00
 -1      2086 1.46103E+02 8.11250E+00 0.00000E+00
 -1      2087 1.44804E+02 1.03250E+01 0.00000E+00
 -1      2088 1.46269E+02 6.95391E+00 0.00000E+00
 -1      2089 1.46269E+02 5.47891E+00 0.00000E+00
 -1      2090 1.45302E+02 5.37422E+00 0.00000E+00
 -1      2091 1.44970E+02 7.69141E+00 0.00000E+00
 -1      2092 1.46103E+02 1.54375E+01 0.00000E+00
 -1      2093 1.46103E+02 1.39875E+01 0.00000E+00
 -1      2094 1.44804E+02 1.32500E+01 0.00000E+00
 -1      2095 1.46103E+02 1.83875E+01 0.00000E+00
 -1      2096 1.46103E+02 1.69125E+01 0.00000E+00
 -1      2097 1.44804E+02 1.61750E+01 0.00000E+00
 -1      2098 1.46103E+02 2.13375E+01 0.00000E+00
 -1      2099 1.46103E+02 1.98625E+01 0.00000E+00
 -1      2100 1.44804E+02 1.91250E+01 0.00000E+00
 -1      2101 1.46103E+02 2.42875E+01 0.00000E+00
 -1      2102 1.46103E+02 2.28125E+01 0.00000E+00
 -1      2103 1.44804E+02 2.20750E+01 0.00000E+00
 -1      2104 1.46103E+02 2.72375E+01 0.00000E+00
 -1      2105 1.46103E+02 2.57625E+01 0.00000E+00
 -1      2106 1.44804E+02 2.50250E+01 0.00000E+00
 -1      2107 1.46103E+02 3.01875E+01 0.00000E+00
 -1      2108 1.46103E+02 2.87125E+01 0.00000E+00
 -1      2109 1.44804E+02 2.79750E+01 0.00000E+00
 -1      2110 1.46103E+02 3.30875E+01 0.00000E+00
 -1      2111 1.46103E+02 3.16375E+01 0.00000E+00
 -1      2112 1.44804E+02 3.09000E+01 0.00000E+00
 -1      2113 1.46103E+02 3.60375E+01 0.00000E+00
 -1      2114 1.46103E+02 3.45625E+01 0.00000E+00
 -1      2115 1.44804E+02 3.38250E+01 0.00000E+00
 -1      2116 1.46103E+02 3.89875E+01 0.00000E+00
 -1      2117 1.46103E+02 3.75125E+01 0.00000E+00
 -1      2118 1.44804E+02 3.67750E+01 0.00000E+00
 -1      2119 1.46103E+02 4.19375E+01 0.00000E+00
 -1      2120 1.46103E+02 4.04625E+01 0.00000E+00
 -1      2121 1.44804E+02 3.97250E+01 0.00000E+00
 -1      2122 1.02031E+02 1.86680E+01 0.00000E+00
 -1      2123 1.02243E+02 1.95323E+01 0.00000E+00
 -1      2124 1.02807E+02 2.23230E+01 0.00000E+00
 -1      2125 1.02720E+02 2.32445E+01 0.00000E+00
 -1      2126 1.02505E+02 2.03616E+01 0.00000E+00
 -1      2127 1.02768E+02 2.11908E+01 0.00000E+00
 -1      2128 1.03110E+02 1.97551E+01 0.00000E+00
 -1      2129 1.00678E+02 1.70234E+01 0.00000E+00
 -1      2130 1.01330E+02 1.76321E+01 0.00000E+00
 -1      2131 9.94956E+01 1.57587E+01 0.00000E+00
 -1      2132 1.00087E+02 1.63911E+01 0.00000E+00
 -1      2133 1.00855E+02 1.62217E+01 0.00000E+00
 -1      2134 3.89700E+00 3.74688E+01 0.00000E+00
 -1      2135 3.89700E+00 3.89437E+01 0.00000E+00
 -1      2136 5.19600E+00 3.96813E+01 0.00000E+00
 -1      2137 5.19600E+00 3.67438E+01 0.00000E+00
 -1      2138 9.61228E+01 1.41019E+01 0.00000E+00
 -1      2139 9.69357E+01 1.43165E+01 0.00000E+00
 -1      2140 9.43957E+01 1.37742E+01 0.00000E+00
 -1      2141 9.52592E+01 1.39380E+01 0.00000E+00
 -1      2142 9.58525E+01 1.33377E+01 0.00000E+00
 -1      2143 9.23361E+01 1.36692E+01 0.00000E+00
 -1      2144 9.32720E+01 1.35972E+01 0.00000E+00
 -1      2145 9.03710E+01 1.42796E+01 0.00000E+00
 -1      2146 9.12745E+01 1.39994E+01 0.00000E+00
 -1      2147 8.86523E+01 1.54976E+01 0.00000E+00
 -1      2148 8.93212E+01 1.48803E+01 0.00000E+00
 -1      2149 8.74293E+01 1.67045E+01 0.00000E+00
 -1      2150 8.80408E+01 1.61010E+01 0.00000E+00
 -1      2151 8.79073E+01 1.52853E+01 0.00000E+00
 -1      2152 8.62642E+01 1.82433E+01 0.00000E+00
 -1      2153 8.67452E+01 1.75092E+01 0.00000E+00
 -1      2154 8.53994E+01 1.99054E+01 0.00000E+00
 -1      2155 8.57536E+01 1.90981E+01 0.00000E+00
 -1      2156 8.50524E+01 2.17807E+01 0.00000E+00
 -1      2157 8.51856E+01 2.09289E+01 0.00000E+00
 -1      2158 8.48701E+01 2.36400E+01 0.00000E+00
 -1      2159 8.48583E+01 2.27581E+01 0.00000E+00
 -1      2160 8.53901E+01 2.55725E+01 0.00000E+00
 -1      2161 8.50806E+01 2.47536E+01 0.00000E+00
 -1      2162 8.61313E+01 2.71538E+01 0.00000E+00
 -1      2163 8.57607E+01 2.63632E+01 0.00000E+00
 -1      2164 8.48822E+01 2.62272E+01 0.00000E+00
 -1      2165 8.73888E+01 2.87295E+01 0.00000E+00
 -1      2166 8.67963E+01 2.80796E+01 0.00000E+00
 -1      2167 8.87723E+01 2.99167E+01 0.00000E+00
 -1      2168 8.81041E+01 2.93944E+01 0.00000E+00
 -1      2169 9.03481E+01 3.08091E+01 0.00000E+00
 -1      2170 8.95993E+01 3.04380E+01 0.00000E+00
 -1      2171 9.21010E+01 3.14844E+01 0.00000E+00
 -1      2172 9.12308E+01 3.11488E+01 0.00000E+00
 -1      2173 9.42701E+01 3.16238E+01 0.00000E+00
 -1      2174 9.33211E+01 3.17248E+01 0.00000E+00
 -1      2175 9.60408E+01 3.14226E+01 0.00000E+00
 -1      2176 9.51554E+01 3.15232E+01 0.00000E+00
 -1      2177 9.47584E+01 3.23014E+01 0.00000E+00
 -1      2178 9.80509E+01 3.08918E+01 0.00000E+00
 -1      2179 9.71484E+01 3.12128E+01 0.00000E+00
 -1      2180 9.97733E+01 2.94227E+01 0.00000E+00
 -1      2181 9.91115E+01 3.01399E+01 0.00000E+00
 -1      2182 1.01107E+02 2.80452E+01 0.00000E+00
 -1      2183 1.00440E+02 2.87339E+01 0.00000E+00
 -1      2184 1.00647E+02 2.95889E+01 0.00000E+00
 -1      2185 1.02015E+02 2.61017E+01 0.00000E+00
 -1      2186 1.01675E+02 2.69828E+01 0.00000E+00
 -1      2187 1.02641E+02 2.42601E+01 0.00000E+00
 -1      2188 1.02436E+02 2.51538E+01 0.00000E+00
 -1      2189 9.79170E+01 1.46030E+01 0.00000E+00
 -1      2190 9.87030E+01 1.50013E+01 0.00000E+00
 -1      2191 9.94713E+01 1.48320E+01 0.00000E+00
 -1      2192 6.42300E+00 4.57510E+01 0.00000E+00
 -1      2193 8.95686E+01 1.40812E+01 0.00000E+00
 -1      2194 8.98160E+01 1.32821E+01 0.00000E+00
 -1      2195 8.87662E+01 1.38828E+01 0.00000E+00
 -1      2196 9.76974E+01 1.37881E+01 0.00000E+00
 -1      2197 7.17300E+00 4.44520E+01 0.00000E+00
 -1      2198 1.03412E+02 2.17165E+01 0.00000E+00
 -1      2199 1.02263E+02 1.71119E+01 0.00000E+00
 -1      2200 1.02147E+02 1.78899E+01 0.00000E+00
 -1      2201 1.02964E+02 1.81478E+01 0.00000E+00
 -1      2202 1.45665E+02 4.31193E+01 0.00000E+00
 -1      2203 1.03372E+02 2.38642E+01 0.00000E+00
 -1      2204 1.01882E+02 2.78378E+01 0.00000E+00
 -1      2205 1.02089E+02 2.86927E+01 0.00000E+00
 -1      2206 1.02656E+02 2.76304E+01 0.00000E+00
 -1      2207 9.67514E+01 3.19910E+01 0.00000E+00
 -1      2208 9.26529E+01 3.21617E+01 0.00000E+00
 -1      2209 9.19846E+01 3.25986E+01 0.00000E+00
 -1      2210 9.32047E+01 3.28390E+01 0.00000E+00
 -1      2211 9.05500E+01 3.15815E+01 0.00000E+00
 -1      2212 8.88403E+01 3.07205E+01 0.00000E+00
 -1      2213 8.59177E+01 2.79436E+01 0.00000E+00
 -1      2214 8.43010E+01 2.43230E+01 0.00000E+00
 -1      2215 8.42846E+01 2.22320E+01 0.00000E+00
 -1      2216 8.46925E+01 2.02312E+01 0.00000E+00
 -1      2217 8.66117E+01 1.66935E+01 0.00000E+00
 -1      2218 9.38652E+01 1.29969E+01 0.00000E+00
 -1      2219 9.16800E+01 1.31502E+01 0.00000E+00
 -1      2220 8.54169E+01 1.83529E+01 0.00000E+00
 -1      2221 8.72980E+01 2.95343E+01 0.00000E+00
 -1      2222 9.89197E+01 3.10295E+01 0.00000E+00
 -1      2223 9.87278E+01 3.19190E+01 0.00000E+00
 -1      2224 9.97885E+01 3.11671E+01 0.00000E+00
 -1      2225 1.02871E+02 2.58276E+01 0.00000E+00
 -1      2226 1.07850E+01 5.30525E+00 0.00000E+00
 -1      2227 9.28500E+00 5.30525E+00 0.00000E+00
 -1      2228 6.49500E+00 3.01125E+01 0.00000E+00
 -1      2229 6.49500E+00 3.15875E+01 0.00000E+00
 -1      2230 6.49500E+00 3.30625E+01 0.00000E+00
 -1      2231 6.49500E+00 3.45375E+01 0.00000E+00
 -1      2232 7.79400E+00 3.23250E+01 0.00000E+00
 -1      2233 6.49500E+00 2.42125E+01 0.00000E+00
 -1      2234 6.49500E+00 2.56875E+01 0.00000E+00
 -1      2235 6.49500E+00 2.12625E+01 0.00000E+00
 -1      2236 6.49500E+00 2.27375E+01 0.00000E+00
 -1      2237 7.79400E+00 2.34750E+01 0.00000E+00
 -1      2238 6.49500E+00 1.83625E+01 0.00000E+00
 -1      2239 6.49500E+00 1.98125E+01 0.00000E+00
 -1      2240 7.79400E+00 2.05500E+01 0.00000E+00
 -1      2241 6.49500E+00 1.54125E+01 0.00000E+00
 -1      2242 6.49500E+00 1.68875E+01 0.00000E+00
 -1      2243 7.79400E+00 1.76250E+01 0.00000E+00
 -1      2244 6.49500E+00 1.24625E+01 0.00000E+00
 -1      2245 6.49500E+00 1.39375E+01 0.00000E+00
 -1      2246 7.79400E+00 1.46750E+01 0.00000E+00
 -1      2247 6.49500E+00 9.51250E+00 0.00000E+00
 -1      2248 6.49500E+00 1.09875E+01 0.00000E+00
 -1      2249 7.79400E+00 1.17250E+01 0.00000E+00
 -1      2250 1.37850E+01 5.30525E+00 0.00000E+00
 -1      2251 1.22850E+01 5.30525E+00 0.00000E+00
 -1      2252 1.15350E+01 6.60425E+00 0.00000E+00
 -1      2253 9.90000E+00 4.35050E+01 0.00000E+00
 -1      2254 1.14000E+01 4.35050E+01 0.00000E+00
 -1      2255 1.29000E+01 4.35050E+01 0.00000E+00
 -1      2256 1.44000E+01 4.35050E+01 0.00000E+00
 -1      2257 1.21500E+01 4.22060E+01 0.00000E+00
 -1      2258 1.59000E+01 4.35050E+01 0.00000E+00
 -1      2259 1.74000E+01 4.35050E+01 0.00000E+00
 -1      2260 1.51500E+01 4.22060E+01 0.00000E+00
 -1      2261 1.89000E+01 4.35050E+01 0.00000E+00
 -1      2262 2.04000E+01 4.35050E+01 0.00000E+00
 -1      2263 1.81500E+01 4.22060E+01 0.00000E+00
 -1      2264 2.19000E+01 4.35050E+01 0.00000E+00
 -1      2265 2.34000E+01 4.35050E+01 0.00000E+00
 -1      2266 2.11500E+01 4.22060E+01 0.00000E+00
 -1      2267 2.49000E+01 4.35050E+01 0.00000E+00
 -1      2268 2.64000E+01 4.35050E+01 0.00000E+00
 -1      2269 2.41500E+01 4.22060E+01 0.00000E+00
 -1      2270 2.79000E+01 4.35050E+01 0.00000E+00
 -1      2271 2.94000E+01 4.35050E+01 0.00000E+00
 -1      2272 2.71500E+01 4.22060E+01 0.00000E+00
 -1      2273 3.09000E+01 4.35050E+01 0.00000E+00
 -1      2274 3.24000E+01 4.35050E+01 0.00000E+00
 -1      2275 3.01500E+01 4.22060E+01 0.00000E+00
 -1      2276 3.39000E+01 4.35050E+01 0.00000E+00
 -1      2277 3.54000E+01 4.35050E+01 0.00000E+00
 -1      2278 3.31500E+01 4.22060E+01 0.00000E+00
 -1      2279 3.69000E+01 4.35050E+01 0.00000E+00
 -1      2280 3.84000E+01 4.35050E+01 0.00000E+00
 -1      2281 3.61500E+01 4.22060E+01 0.00000E+00
 -1      2282 3.99000E+01 4.35050E+01 0.00000E+00
 -1      2283 4.14000E+01 4.35050E+01 0.00000E+00
 -1      2284 3.91500E+01 4.22060E+01 0.00000E+00
 -1      2285 4.29000E+01 4.35050E+01 0.00000E+00
 -1      2286 4.44000E+01 4.35050E+01 0.00000E+00
 -1      2287 4.21500E+01 4.22060E+01 0.00000E+00
 -1      2288 4.59000E+01 4.35050E+01 0.00000E+00
 -1      2289 4.74000E+01 4.35050E+01 0.00000E+00
 -1      2290 4.51500E+01 4.22060E+01 0.00000E+00
 -1      2291 4.89000E+01 4.35050E+01 0.00000E+00
 -1      2292 5.04000E+01 4.35050E+01 0.00000E+00
 -1      2293 4.81500E+01 4.22060E+01 0.00000E+00
 -1      2294 5.19000E+01 4.35050E+01 0.00000E+00
 -1      2295 5.34000E+01 4.35050E+01 0.00000E+00
 -1      2296 5.11500E+01 4.22060E+01 0.00000E+00
 -1      2297 5.49000E+01 4.35050E+01 0.00000E+00
 -1      2298 5.64000E+01 4.35050E+01 0.00000E+00
 -1      2299 5.41500E+01 4.22060E+01 0.00000E+00
 -1      2300 5.79000E+01 4.35050E+01 0.00000E+00
 -1      2301 5.94000E+01 4.35050E+01 0.00000E+00
 -1      2302 5.71500E+01 4.22060E+01 0.00000E+00
 -1      2303 6.09000E+01 4.35050E+01 0.00000E+00
 -1      2304 6.24000E+01 4.35050E+01 0.00000E+00
 -1      2305 6.01500E+01 4.22060E+01 0.00000E+00
 -1      2306 6.39000E+01 4.35050E+01 0.00000E+00
 -1      2307 6.54000E+01 4.35050E+01 0.00000E+00
 -1      2308 6.31500E+01 4.22060E+01 0.00000E+00
 -1      2309 6.69000E+01 4.35050E+01 0.00000E+00
 -1      2310 6.84000E+01 4.35050E+01 0.00000E+00
 -1      2311 6.61500E+01 4.22060E+01 0.00000E+00
 -1      2312 6.99000E+01 4.35050E+01 0.00000E+00
 -1      2313 7.14000E+01 4.35050E+01 0.00000E+00
 -1      2314 6.91500E+01 4.22060E+01 0.00000E+00
 -1      2315 7.29000E+01 4.35050E+01 0.00000E+00
 -1      2316 7.44000E+01 4.35050E+01 0.00000E+00
 -1      2317 7.21500E+01 4.22060E+01 0.00000E+00
 -1      2318 7.59000E+01 4.35050E+01 0.00000E+00
 -1      2319 7.74000E+01 4.35050E+01 0.00000E+00
 -1      2320 7.51500E+01 4.22060E+01 0.00000E+00
 -1      2321 7.89000E+01 4.35050E+01 0.00000E+00
 -1      2322 8.04000E+01 4.35050E+01 0.00000E+00
 -1      2323 7.81500E+01 4.22060E+01 0.00000E+00
 -1      2324 8.19000E+01 4.35050E+01 0.00000E+00
 -1      2325 8.34000E+01 4.35050E+01 0.00000E+00
 -1      2326 8.11500E+01 4.22060E+01 0.00000E+00
 -1      2327 8.49000E+01 4.35050E+01 0.00000E+00
 -1      2328 8.64000E+01 4.35050E+01 0.00000E+00
 -1      2329 8.41500E+01 4.22060E+01 0.00000E+00
 -1      2330 8.79000E+01 4.35050E+01 0.00000E+00
 -1      2331 8.94000E+01 4.35050E+01 0.00000E+00
 -1      2332 8.71500E+01 4.22060E+01 0.00000E+00
 -1      2333 9.09000E+01 4.35050E+01 0.00000E+00
 -1      2334 9.24000E+01 4.35050E+01 0.00000E+00
 -1      2335 9.01500E+01 4.22060E+01 0.00000E+00
 -1      2336 9.39000E+01 4.35050E+01 0.00000E+00
 -1      2337 9.54000E+01 4.35050E+01 0.00000E+00
 -1      2338 9.31500E+01 4.22060E+01 0.00000E+00
 -1      2339 9.69000E+01 4.35050E+01 0.00000E+00
 -1      2340 9.84000E+01 4.35050E+01 0.00000E+00
 -1      2341 9.61500E+01 4.22060E+01 0.00000E+00
 -1      2342 9.99000E+01 4.35050E+01 0.00000E+00
 -1      2343 1.01400E+02 4.35050E+01 0.00000E+00
 -1      2344 9.91500E+01 4.22060E+01 0.00000E+00
 -1      2345 1.02900E+02 4.35050E+01 0.00000E+00
 -1      2346 1.04400E+02 4.35050E+01 0.00000E+00
 -1      2347 1.02150E+02 4.22060E+01 0.00000E+00
 -1      2348 1.05900E+02 4.35050E+01 0.00000E+00
 -1      2349 1.07400E+02 4.35050E+01 0.00000E+00
 -1      2350 1.05150E+02 4.22060E+01 0.00000E+00
 -1      2351 1.08900E+02 4.35050E+01 0.00000E+00
 -1      2352 1.10400E+02 4.35050E+01 0.00000E+00
 -1      2353 1.08150E+02 4.22060E+01 0.00000E+00
 -1      2354 1.11900E+02 4.35050E+01 0.00000E+00
 -1      2355 1.13400E+02 4.35050E+01 0.00000E+00
 -1      2356 1.11150E+02 4.22060E+01 0.00000E+00
 -1      2357 1.14900E+02 4.35050E+01 0.00000E+00
 -1      2358 1.16400E+02 4.35050E+01 0.00000E+00
 -1      2359 1.14150E+02 4.22060E+01 0.00000E+00
 -1      2360 1.17900E+02 4.35050E+01 0.00000E+00
 -1      2361 1.19400E+02 4.35050E+01 0.00000E+00
 -1      2362 1.17150E+02 4.22060E+01 0.00000E+00
 -1      2363 1.20900E+02 4.35050E+01 0.00000E+00
 -1      2364 1.22400E+02 4.35050E+01 0.00000E+00
 -1      2365 1.20150E+02 4.22060E+01 0.00000E+00
 -1      2366 1.23900E+02 4.35050E+01 0.00000E+00
 -1      2367 1.25400E+02 4.35050E+01 0.00000E+00
 -1      2368 1.23150E+02 4.22060E+01 0.00000E+00
 -1      2369 1.26900E+02 4.35050E+01 0.00000E+00
 -1      2370 1.28400E+02 4.35050E+01 0.00000E+00
 -1      2371 1.26150E+02 4.22060E+01 0.00000E+00
 -1      2372 1.29900E+02 4.35050E+01 0.00000E+00
 -1      2373 1.31400E+02 4.35050E+01 0.00000E+00
 -1      2374 1.29150E+02 4.22060E+01 0.00000E+00
 -1      2375 1.32900E+02 4.35050E+01 0.00000E+00
 -1      2376 1.34400E+02 4.35050E+01 0.00000E+00
 -1      2377 1.32150E+02 4.22060E+01 0.00000E+00
 -1      2378 1.35900E+02 4.35050E+01 0.00000E+00
 -1      2379 1.37400E+02 4.35050E+01 0.00000E+00
 -1      2380 1.35150E+02 4.22060E+01 0.00000E+00
 -1      2381 1.38900E+02 4.35050E+01 0.00000E+00
 -1      2382 1.40400E+02 4.35050E+01 0.00000E+00
 -1      2383 1.38150E+02 4.22060E+01 0.00000E+00
 -1      2384 1.03716E+02 1.91068E+01 0.00000E+00
 -1      2385 1.03979E+02 1.99360E+01 0.00000E+00
 -1      2386 1.97850E+01 5.30525E+00 0.00000E+00
 -1      2387 1.82850E+01 5.30525E+00 0.00000E+00
 -1      2388 2.27850E+01 5.30525E+00 0.00000E+00
 -1      2389 2.12850E+01 5.30525E+00 0.00000E+00
 -1      2390 2.05350E+01 6.60425E+00 0.00000E+00
 -1      2391 2.57850E+01 5.30525E+00 0.00000E+00
 -1      2392 2.42850E+01 5.30525E+00 0.00000E+00
 -1      2393 2.35350E+01 6.60425E+00 0.00000E+00
 -1      2394 2.87850E+01 5.30525E+00 0.00000E+00
 -1      2395 2.72850E+01 5.30525E+00 0.00000E+00
 -1      2396 2.65350E+01 6.60425E+00 0.00000E+00
 -1      2397 3.17850E+01 5.30525E+00 0.00000E+00
 -1      2398 3.02850E+01 5.30525E+00 0.00000E+00
 -1      2399 2.95350E+01 6.60425E+00 0.00000E+00
 -1      2400 3.47850E+01 5.30525E+00 0.00000E+00
 -1      2401 3.32850E+01 5.30525E+00 0.00000E+00
 -1      2402 3.25350E+01 6.60425E+00 0.00000E+00
 -1      2403 3.77850E+01 5.30525E+00 0.00000E+00
 -1      2404 3.62850E+01 5.30525E+00 0.00000E+00
 -1      2405 3.55350E+01 6.60425E+00 0.00000E+00
 -1      2406 4.07850E+01 5.30525E+00 0.00000E+00
 -1      2407 3.92850E+01 5.30525E+00 0.00000E+00
 -1      2408 3.85350E+01 6.60425E+00 0.00000E+00
 -1      2409 4.37850E+01 5.30525E+00 0.00000E+00
 -1      2410 4.22850E+01 5.30525E+00 0.00000E+00
 -1      2411 4.15350E+01 6.60425E+00 0.00000E+00
 -1      2412 4.67850E+01 5.30525E+00 0.00000E+00
 -1      2413 4.52850E+01 5.30525E+00 0.00000E+00
 -1      2414 4.45350E+01 6.60425E+00 0.00000E+00
 -1      2415 4.97850E+01 5.30525E+00 0.00000E+00
 -1      2416 4.82850E+01 5.30525E+00 0.00000E+00
 -1      2417 4.75350E+01 6.60425E+00 0.00000E+00
 -1      2418 5.27850E+01 5.30525E+00 0.00000E+00
 -1      2419 5.12850E+01 5.30525E+00 0.00000E+00
 -1      2420 5.05350E+01 6.60425E+00 0.00000E+00
 -1      2421 5.57850E+01 5.30525E+00 0.00000E+00
 -1      2422 5.42850E+01 5.30525E+00 0.00000E+00
 -1      2423 5.35350E+01 6.60425E+00 0.00000E+00
 -1      2424 5.87850E+01 5.30525E+00 0.00000E+00
 -1      2425 5.72850E+01 5.30525E+00 0.00000E+00
 -1      2426 5.65350E+01 6.60425E+00 0.00000E+00
 -1      2427 6.17850E+01 5.30525E+00 0.00000E+00
 -1      2428 6.02850E+01 5.30525E+00 0.00000E+00
 -1      2429 5.95350E+01 6.60425E+00 0.00000E+00
 -1      2430 6.47850E+01 5.30525E+00 0.00000E+00
 -1      2431 6.32850E+01 5.30525E+00 0.00000E+00
 -1      2432 6.25350E+01 6.60425E+00 0.00000E+00
 -1      2433 6.77850E+01 5.30525E+00 0.00000E+00
 -1      2434 6.62850E+01 5.30525E+00 0.00000E+00
 -1      2435 6.55350E+01 6.60425E+00 0.00000E+00
 -1      2436 7.07850E+01 5.30525E+00 0.00000E+00
 -1      2437 6.92850E+01 5.30525E+00 0.00000E+00
 -1      2438 6.85350E+01 6.60425E+00 0.00000E+00
 -1      2439 7.37850E+01 5.30525E+00 0.00000E+00
 -1      2440 7.22850E+01 5.30525E+00 0.00000E+00
 -1      2441 7.15350E+01 6.60425E+00 0.00000E+00
 -1      2442 7.67850E+01 5.30525E+00 0.00000E+00
 -1      2443 7.52850E+01 5.30525E+00 0.00000E+00
 -1      2444 7.45350E+01 6.60425E+00 0.00000E+00
 -1      2445 7.97850E+01 5.30525E+00 0.00000E+00
 -1      2446 7.82850E+01 5.30525E+00 0.00000E+00
 -1      2447 7.75350E+01 6.60425E+00 0.00000E+00
 -1      2448 8.27850E+01 5.30525E+00 0.00000E+00
 -1      2449 8.12850E+01 5.30525E+00 0.00000E+00
 -1      2450 8.05350E+01 6.60425E+00 0.00000E+00
 -1      2451 8.57850E+01 5.30525E+00 0.00000E+00
 -1      2452 8.42850E+01 5.30525E+00 0.00000E+00
 -1      2453 8.35350E+01 6.60425E+00 0.00000E+00
 -1      2454 8.87850E+01 5.30525E+00 0.00000E+00
 -1      2455 8.72850E+01 5.30525E+00 0.00000E+00
 -1      2456 8.65350E+01 6.60425E+00 0.00000E+00
 -1      2457 9.17850E+01 5.30525E+00 0.00000E+00
 -1      2458 9.02850E+01 5.30525E+00 0.00000E+00
 -1      2459 8.95350E+01 6.60425E+00 0.00000E+00
 -1      2460 9.47850E+01 5.30525E+00 0.00000E+00
 -1      2461 9.32850E+01 5.30525E+00 0.00000E+00
 -1      2462 9.25350E+01 6.60425E+00 0.00000E+00
 -1      2463 9.77850E+01 5.30525E+00 0.00000E+00
 -1      2464 9.62850E+01 5.30525E+00 0.00000E+00
 -1      2465 9.55350E+01 6.60425E+00 0.00000E+00
 -1      2466 1.00785E+02 5.30525E+00 0.00000E+00
 -1      2467 9.92850E+01 5.30525E+00 0.00000E+00
 -1      2468 9.85350E+01 6.60425E+00 0.00000E+00
 -1      2469 1.03785E+02 5.30525E+00 0.00000E+00
 -1      2470 1.02285E+02 5.30525E+00 0.00000E+00
 -1      2471 1.01535E+02 6.60425E+00 0.00000E+00
 -1      2472 1.06785E+02 5.30525E+00 0.00000E+00
 -1      2473 1.05285E+02 5.30525E+00 0.00000E+00
 -1      2474 1.04535E+02 6.60425E+00 0.00000E+00
 -1      2475 1.09785E+02 5.30525E+00 0.00000E+00
 -1      2476 1.08285E+02 5.30525E+00 0.00000E+00
 -1      2477 1.07535E+02 6.60425E+00 0.00000E+00
 -1      2478 1.12785E+02 5.30525E+00 0.00000E+00
 -1      2479 1.11285E+02 5.30525E+00 0.00000E+00
 -1      2480 1.10535E+02 6.60425E+00 0.00000E+00
 -1      2481 1.15785E+02 5.30525E+00 0.00000E+00
 -1      2482 1.14285E+02 5.30525E+00 0.00000E+00
 -1      2483 1.13535E+02 6.60425E+00 0.00000E+00
 -1      2484 1.18785E+02 5.30525E+00 0.00000E+00
 -1      2485 1.17285E+02 5.30525E+00 0.00000E+00
 -1      2486 1.16535E+02 6.60425E+00 0.00000E+00
 -1      2487 1.21785E+02 5.30525E+00 0.00000E+00
 -1      2488 1.20285E+02 5.30525E+00 0.00000E+00
 -1      2489 1.19535E+02 6.60425E+00 0.00000E+00
 -1      2490 1.24785E+02 5.30525E+00 0.00000E+00
 -1      2491 1.23285E+02 5.30525E+00 0.00000E+00
 -1      2492 1.22535E+02 6.60425E+00 0.00000E+00
 -1      2493 1.27785E+02 5.30525E+00 0.00000E+00
 -1      2494 1.26285E+02 5.30525E+00 0.00000E+00
 -1      2495 1.25535E+02 6.60425E+00 0.00000E+00
 -1      2496 1.30785E+02 5.30525E+00 0.00000E+00
 -1      2497 1.29285E+02 5.30525E+00 0.00000E+00
 -1      2498 1.28535E+02 6.60425E+00 0.00000E+00
 -1      2499 1.33785E+02 5.30525E+00 0.00000E+00
 -1      2500 1.32285E+02 5.30525E+00 0.00000E+00
 -1      2501 1.31535E+02 6.60425E+00 0.00000E+00
 -1      2502 1.36785E+02 5.30525E+00 0.00000E+00
 -1      2503 1.35285E+02 5.30525E+00 0.00000E+00
 -1      2504 1.34535E+02 6.60425E+00 0.00000E+00
 -1      2505 1.39785E+02 5.30525E+00 0.00000E+00
 -1      2506 1.38285E+02 5.30525E+00 0.00000E+00
 -1      2507 1.37535E+02 6.60425E+00 0.00000E+00
 -1      2508 1.42785E+02 5.30525E+00 0.00000E+00
 -1      2509 1.41285E+02 5.30525E+00 0.00000E+00
 -1      2510 1.40535E+02 6.60425E+00 0.00000E+00
 -1      2511 1.44336E+02 5.26953E+00 0.00000E+00
 -1      2512 1.43505E+02 1.69125E+01 0.00000E+00
 -1      2513 1.43505E+02 1.54375E+01 0.00000E+00
 -1      2514 1.43505E+02 1.98625E+01 0.00000E+00
 -1      2515 1.43505E+02 1.83875E+01 0.00000E+00
 -1      2516 1.42206E+02 1.76500E+01 0.00000E+00
 -1      2517 1.43505E+02 1.10625E+01 0.00000E+00
 -1      2518 1.43505E+02 9.58750E+00 0.00000E+00
 -1      2519 1.43505E+02 1.39750E+01 0.00000E+00
 -1      2520 1.43505E+02 1.25250E+01 0.00000E+00
 -1      2521 1.42206E+02 1.17875E+01 0.00000E+00
 -1      2522 1.42206E+02 1.47125E+01 0.00000E+00
 -1      2523 1.43505E+02 2.28125E+01 0.00000E+00
 -1      2524 1.43505E+02 2.13375E+01 0.00000E+00
 -1      2525 1.42206E+02 2.06000E+01 0.00000E+00
 -1      2526 1.43505E+02 2.57625E+01 0.00000E+00
 -1      2527 1.43505E+02 2.42875E+01 0.00000E+00
 -1      2528 1.42206E+02 2.35500E+01 0.00000E+00
 -1      2529 1.43505E+02 2.87125E+01 0.00000E+00
 -1      2530 1.43505E+02 2.72375E+01 0.00000E+00
 -1      2531 1.42206E+02 2.65000E+01 0.00000E+00
 -1      2532 1.43505E+02 3.16125E+01 0.00000E+00
 -1      2533 1.43505E+02 3.01625E+01 0.00000E+00
 -1      2534 1.42206E+02 2.94250E+01 0.00000E+00
 -1      2535 1.43505E+02 3.45625E+01 0.00000E+00
 -1      2536 1.43505E+02 3.30875E+01 0.00000E+00
 -1      2537 1.42206E+02 3.23500E+01 0.00000E+00
 -1      2538 1.43505E+02 3.75125E+01 0.00000E+00
 -1      2539 1.43505E+02 3.60375E+01 0.00000E+00
 -1      2540 1.42206E+02 3.53000E+01 0.00000E+00
 -1      2541 1.43505E+02 4.04625E+01 0.00000E+00
 -1      2542 1.43505E+02 3.89875E+01 0.00000E+00
 -1      2543 1.42206E+02 3.82500E+01 0.00000E+00
 -1      2544 1.44321E+02 4.30606E+01 0.00000E+00
 -1      2545 1.04099E+02 2.34096E+01 0.00000E+00
 -1      2546 1.04020E+02 2.44252E+01 0.00000E+00
 -1      2547 1.67850E+01 5.30525E+00 0.00000E+00
 -1      2548 1.52850E+01 5.30525E+00 0.00000E+00
 -1      2549 1.75350E+01 6.60425E+00 0.00000E+00
 -1      2550 1.01186E+02 1.53197E+01 0.00000E+00
 -1      2551 1.01777E+02 1.59521E+01 0.00000E+00
 -1      2552 6.55950E+00 4.28890E+01 0.00000E+00
 -1      2553 8.53650E+00 4.32410E+01 0.00000E+00
 -1      2554 9.28650E+00 4.19420E+01 0.00000E+00
 -1      2555 6.55950E+00 4.14140E+01 0.00000E+00
 -1      2556 9.74647E+01 3.27288E+01 0.00000E+00
 -1      2557 9.63571E+01 3.29385E+01 0.00000E+00
 -1      2558 8.35637E+01 2.50391E+01 0.00000E+00
 -1      2559 8.33531E+01 2.39255E+01 0.00000E+00
 -1      2560 9.34303E+01 1.21027E+01 0.00000E+00
 -1      2561 9.45539E+01 1.22796E+01 0.00000E+00
 -1      2562 6.49500E+00 2.71625E+01 0.00000E+00
 -1      2563 6.49500E+00 2.86375E+01 0.00000E+00
 -1      2564 7.79400E+00 2.93750E+01 0.00000E+00
 -1      2565 7.79400E+00 2.64250E+01 0.00000E+00
 -1      2566 9.09069E+01 1.25365E+01 0.00000E+00
 -1      2567 9.19684E+01 1.22062E+01 0.00000E+00
 -1      2568 9.54175E+01 1.24435E+01 0.00000E+00
 -1      2569 9.62811E+01 1.26073E+01 0.00000E+00
 -1      2570 9.49826E+01 1.15493E+01 0.00000E+00
 -1      2571 8.45333E+01 1.84050E+01 0.00000E+00
 -1      2572 8.50439E+01 1.75502E+01 0.00000E+00
 -1      2573 9.74353E+01 1.28618E+01 0.00000E+00
 -1      2574 9.84167E+01 1.31484E+01 0.00000E+00
 -1      2575 8.69404E+01 1.49170E+01 0.00000E+00
 -1      2576 8.75518E+01 1.43136E+01 0.00000E+00
 -1      2577 8.71289E+01 3.04335E+01 0.00000E+00
 -1      2578 8.64135E+01 2.97686E+01 0.00000E+00
 -1      2579 8.55721E+01 1.65264E+01 0.00000E+00
 -1      2580 8.62562E+01 1.57217E+01 0.00000E+00
 -1      2581 8.59007E+01 1.47500E+01 0.00000E+00
 -1      2582 8.38282E+01 2.05847E+01 0.00000E+00
 -1      2583 8.40420E+01 1.95612E+01 0.00000E+00
 -1      2584 8.34286E+01 2.25700E+01 0.00000E+00
 -1      2585 8.36227E+01 2.15926E+01 0.00000E+00
 -1      2586 8.41393E+01 2.70576E+01 0.00000E+00
 -1      2587 8.37687E+01 2.62670E+01 0.00000E+00
 -1      2588 8.54691E+01 2.89092E+01 0.00000E+00
 -1      2589 8.48042E+01 2.79834E+01 0.00000E+00
 -1      2590 8.36907E+01 2.80232E+01 0.00000E+00
 -1      2591 8.87966E+01 3.17066E+01 0.00000E+00
 -1      2592 8.79695E+01 3.11853E+01 0.00000E+00
 -1      2593 9.06833E+01 3.25517E+01 0.00000E+00
 -1      2594 8.98006E+01 3.22120E+01 0.00000E+00
 -1      2595 9.52837E+01 3.29783E+01 0.00000E+00
 -1      2596 9.43984E+01 3.30790E+01 0.00000E+00
 -1      2597 1.03789E+02 2.56683E+01 0.00000E+00
 -1      2598 1.03367E+02 2.66162E+01 0.00000E+00
 -1      2599 1.01536E+02 2.97827E+01 0.00000E+00
 -1      2600 1.00870E+02 3.04715E+01 0.00000E+00
 -1      2601 1.04249E+02 2.11212E+01 0.00000E+00
 -1      2602 1.04288E+02 2.22533E+01 0.00000E+00
 -1      2603 8.07525E+00 5.11044E+00 0.00000E+00
 -1      2604 6.57525E+00 5.11044E+00 0.00000E+00
 -1      2605 6.40575E+00 6.01981E+00 0.00000E+00
 -1      2606 8.82525E+00 6.40944E+00 0.00000E+00
 -1      2607 9.96008E+01 1.38050E+01 0.00000E+00
 -1      2608 1.00393E+02 1.45624E+01 0.00000E+00
 -1      2609 1.01315E+02 1.42928E+01 0.00000E+00
 -1      2610 9.18841E+01 1.08753E+01 0.00000E+00
 -1      2611 9.26572E+01 1.14890E+01 0.00000E+00
 -1      2612 9.33459E+01 1.07717E+01 0.00000E+00
 -1      2613 7.79400E+00 3.52687E+01 0.00000E+00
 -1      2614 6.49500E+00 3.60062E+01 0.00000E+00
 -1      2615 6.49500E+00 3.74750E+01 0.00000E+00
 -1      2616 1.45350E+01 6.60425E+00 0.00000E+00
 -1      2617 6.40575E+00 7.49481E+00 0.00000E+00
 -1      2618 9.93387E+01 1.28788E+01 0.00000E+00
 -1      2619 1.04516E+02 2.52138E+01 0.00000E+00
 -1      2620 8.77992E+01 1.35145E+01 0.00000E+00
 -1      2621 9.59971E+01 3.37160E+01 0.00000E+00
 -1      2622 9.83335E+01 3.28664E+01 0.00000E+00
 -1      2623 9.79393E+01 3.38139E+01 0.00000E+00
 -1      2624 9.92023E+01 3.30041E+01 0.00000E+00
 -1      2625 8.93021E+01 1.21397E+01 0.00000E+00
 -1      2626 9.01045E+01 1.23381E+01 0.00000E+00
 -1      2627 9.03930E+01 1.13941E+01 0.00000E+00
 -1      2628 9.12352E+01 3.32290E+01 0.00000E+00
 -1      2629 8.53000E+01 2.98084E+01 0.00000E+00
 -1      2630 1.03833E+02 1.83287E+01 0.00000E+00
 -1      2631 1.04702E+02 1.85096E+01 0.00000E+00
 -1      2632 1.03949E+02 1.75507E+01 0.00000E+00
 -1      2633 1.02594E+02 1.62100E+01 0.00000E+00
 -1      2634 1.43586E+02 6.56853E+00 0.00000E+00
 -1      2635 6.55950E+00 3.99453E+01 0.00000E+00
 -1      2636 1.43419E+02 7.72713E+00 0.00000E+00
 -1      2637 1.42758E+02 4.35929E+01 0.00000E+00
 -1      2638 1.43241E+02 4.17323E+01 0.00000E+00
 -1      2639 1.41942E+02 4.09948E+01 0.00000E+00
 -1      2640 1.41414E+02 4.35342E+01 0.00000E+00
 -1      2641 8.70851E+01 3.14196E+01 0.00000E+00
 -1      2642 8.26912E+01 2.32861E+01 0.00000E+00
 -1      2643 1.04937E+02 2.28144E+01 0.00000E+00
 -1      2644 7.70475E+00 8.23231E+00 0.00000E+00
 -1      2645 1.03574E+02 2.74711E+01 0.00000E+00
 -1      2646 1.42120E+02 8.46463E+00 0.00000E+00
 -1      2647 1.04856E+02 2.04729E+01 0.00000E+00
 -1      2648 1.02311E+02 2.95753E+01 0.00000E+00
 -1      2649 1.02534E+02 3.04579E+01 0.00000E+00
 -1      2650 1.03086E+02 2.93680E+01 0.00000E+00
 -1      2651 8.28208E+01 2.58695E+01 0.00000E+00
 -1      2652 8.46884E+01 1.65785E+01 0.00000E+00
 -1      2653 9.37301E+01 3.35159E+01 0.00000E+00
 -1      2654 9.30618E+01 3.39528E+01 0.00000E+00
 -1      2655 9.42554E+01 3.41927E+01 0.00000E+00
 -1      2656 8.36690E+01 1.87585E+01 0.00000E+00
 -1      2657 9.70004E+01 1.19676E+01 0.00000E+00
 -1      2658 8.29722E+01 2.09227E+01 0.00000E+00
 -1      2659 1.00678E+02 3.13610E+01 0.00000E+00
 -1      2660 8.89298E+01 3.26768E+01 0.00000E+00
 -1      2661 1.40664E+02 4.22352E+01 0.00000E+00
 -1      2662 9.09300E+00 1.98250E+01 0.00000E+00
 -1      2663 9.09300E+00 2.12750E+01 0.00000E+00
 -1      2664 9.09300E+00 2.27500E+01 0.00000E+00
 -1      2665 9.09300E+00 2.42250E+01 0.00000E+00
 -1      2666 1.03920E+01 2.20250E+01 0.00000E+00
 -1      2667 9.09300E+00 1.39375E+01 0.00000E+00
 -1      2668 9.09300E+00 1.54125E+01 0.00000E+00
 -1      2669 9.09300E+00 1.09875E+01 0.00000E+00
 -1      2670 9.09300E+00 1.24625E+01 0.00000E+00
 -1      2671 1.03920E+01 1.32000E+01 0.00000E+00
 -1      2672 1.22850E+01 7.90325E+00 0.00000E+00
 -1      2673 1.07850E+01 7.90325E+00 0.00000E+00
 -1      2674 1.04597E+02 2.74321E+01 0.00000E+00
 -1      2675 1.03887E+02 2.84464E+01 0.00000E+00
 -1      2676 8.68493E+01 1.27638E+01 0.00000E+00
 -1      2677 8.80637E+01 1.23330E+01 0.00000E+00
 -1      2678 1.44000E+01 4.09070E+01 0.00000E+00
 -1      2679 1.59000E+01 4.09070E+01 0.00000E+00
 -1      2680 1.74000E+01 4.09070E+01 0.00000E+00
 -1      2681 1.89000E+01 4.09070E+01 0.00000E+00
 -1      2682 1.66500E+01 3.96080E+01 0.00000E+00
 -1      2683 2.04000E+01 4.09070E+01 0.00000E+00
 -1      2684 2.19000E+01 4.09070E+01 0.00000E+00
 -1      2685 1.96500E+01 3.96080E+01 0.00000E+00
 -1      2686 2.34000E+01 4.09070E+01 0.00000E+00
 -1      2687 2.49000E+01 4.09070E+01 0.00000E+00
 -1      2688 2.26500E+01 3.96080E+01 0.00000E+00
 -1      2689 2.64000E+01 4.09070E+01 0.00000E+00
 -1      2690 2.79000E+01 4.09070E+01 0.00000E+00
 -1      2691 2.56500E+01 3.96080E+01 0.00000E+00
 -1      2692 2.94000E+01 4.09070E+01 0.00000E+00
 -1      2693 3.09000E+01 4.09070E+01 0.00000E+00
 -1      2694 2.86500E+01 3.96080E+01 0.00000E+00
 -1      2695 3.24000E+01 4.09070E+01 0.00000E+00
 -1      2696 3.39000E+01 4.09070E+01 0.00000E+00
 -1      2697 3.16500E+01 3.96080E+01 0.00000E+00
 -1      2698 3.54000E+01 4.09070E+01 0.00000E+00
 -1      2699 3.69000E+01 4.09070E+01 0.00000E+00
 -1      2700 3.46500E+01 3.96080E+01 0.00000E+00
 -1      2701 3.84000E+01 4.09070E+01 0.00000E+00
 -1      2702 3.99000E+01 4.09070E+01 0.00000E+00
 -1      2703 3.76500E+01 3.96080E+01 0.00000E+00
 -1      2704 4.14000E+01 4.09070E+01 0.00000E+00
 -1      2705 4.29000E+01 4.09070E+01 0.00000E+00
 -1      2706 4.06500E+01 3.96080E+01 0.00000E+00
 -1      2707 4.44000E+01 4.09070E+01 0.00000E+00
 -1      2708 4.59000E+01 4.09070E+01 0.00000E+00
 -1      2709 4.36500E+01 3.96080E+01 0.00000E+00
 -1      2710 4.74000E+01 4.09070E+01 0.00000E+00
 -1      2711 4.89000E+01 4.09070E+01 0.00000E+00
 -1      2712 4.66500E+01 3.96080E+01 0.00000E+00
 -1      2713 5.04000E+01 4.09070E+01 0.00000E+00
 -1      2714 5.19000E+01 4.09070E+01 0.00000E+00
 -1      2715 4.96500E+01 3.96080E+01 0.00000E+00
 -1      2716 5.34000E+01 4.09070E+01 0.00000E+00
 -1      2717 5.49000E+01 4.09070E+01 0.00000E+00
 -1      2718 5.26500E+01 3.96080E+01 0.00000E+00
 -1      2719 5.64000E+01 4.09070E+01 0.00000E+00
 -1      2720 5.79000E+01 4.09070E+01 0.00000E+00
 -1      2721 5.56500E+01 3.96080E+01 0.00000E+00
 -1      2722 5.94000E+01 4.09070E+01 0.00000E+00
 -1      2723 6.09000E+01 4.09070E+01 0.00000E+00
 -1      2724 5.86500E+01 3.96080E+01 0.00000E+00
 -1      2725 6.24000E+01 4.09070E+01 0.00000E+00
 -1      2726 6.39000E+01 4.09070E+01 0.00000E+00
 -1      2727 6.16500E+01 3.96080E+01 0.00000E+00
 -1      2728 6.54000E+01 4.09070E+01 0.00000E+00
 -1      2729 6.69000E+01 4.09070E+01 0.00000E+00
 -1      2730 6.46500E+01 3.96080E+01 0.00000E+00
 -1      2731 6.84000E+01 4.09070E+01 0.00000E+00
 -1      2732 6.99000E+01 4.09070E+01 0.00000E+00
 -1      2733 6.76500E+01 3.96080E+01 0.00000E+00
 -1      2734 7.14000E+01 4.09070E+01 0.00000E+00
 -1      2735 7.29000E+01 4.09070E+01 0.00000E+00
 -1      2736 7.06500E+01 3.96080E+01 0.00000E+00
 -1      2737 7.44000E+01 4.09070E+01 0.00000E+00
 -1      2738 7.59000E+01 4.09070E+01 0.00000E+00
 -1      2739 7.36500E+01 3.96080E+01 0.00000E+00
 -1      2740 7.74000E+01 4.09070E+01 0.00000E+00
 -1      2741 7.89000E+01 4.09070E+01 0.00000E+00
 -1      2742 7.66500E+01 3.96080E+01 0.00000E+00
 -1      2743 8.04000E+01 4.09070E+01 0.00000E+00
 -1      2744 8.19000E+01 4.09070E+01 0.00000E+00
 -1      2745 7.96500E+01 3.96080E+01 0.00000E+00
 -1      2746 8.34000E+01 4.09070E+01 0.00000E+00
 -1      2747 8.49000E+01 4.09070E+01 0.00000E+00
 -1      2748 8.26500E+01 3.96080E+01 0.00000E+00
 -1      2749 8.64000E+01 4.09070E+01 0.00000E+00
 -1      2750 8.79000E+01 4.09070E+01 0.00000E+00
 -1      2751 8.56500E+01 3.96080E+01 0.00000E+00
 -1      2752 8.94000E+01 4.09070E+01 0.00000E+00
 -1      2753 9.09000E+01 4.09070E+01 0.00000E+00
 -1      2754 8.86500E+01 3.96080E+01 0.00000E+00
 -1      2755 9.24000E+01 4.09070E+01 0.00000E+00
 -1      2756 9.39000E+01 4.09070E+01 0.00000E+00
 -1      2757 9.16500E+01 3.96080E+01 0.00000E+00
 -1      2758 9.54000E+01 4.09070E+01 0.00000E+00
 -1      2759 9.69000E+01 4.09070E+01 0.00000E+00
 -1      2760 9.46500E+01 3.96080E+01 0.00000E+00
 -1      2761 9.84000E+01 4.09070E+01 0.00000E+00
 -1      2762 9.99000E+01 4.09070E+01 0.00000E+00
 -1      2763 9.76500E+01 3.96080E+01 0.00000E+00
 -1      2764 1.01400E+02 4.09070E+01 0.00000E+00
 -1      2765 1.02900E+02 4.09070E+01 0.00000E+00
 -1      2766 1.00650E+02 3.96080E+01 0.00000E+00
 -1      2767 1.04400E+02 4.09070E+01 0.00000E+00
 -1      2768 1.05900E+02 4.09070E+01 0.00000E+00
 -1      2769 1.03650E+02 3.96080E+01 0.00000E+00
 -1      2770 1.07400E+02 4.09070E+01 0.00000E+00
 -1      2771 1.08900E+02 4.09070E+01 0.00000E+00
 -1      2772 1.06650E+02 3.96080E+01 0.00000E+00
 -1      2773 1.10400E+02 4.09070E+01 0.00000E+00
 -1      2774 1.11900E+02 4.09070E+01 0.00000E+00
 -1      2775 1.09650E+02 3.96080E+01 0.00000E+00
 -1      2776 1.13400E+02 4.09070E+01 0.00000E+00
 -1      2777 1.14900E+02 4.09070E+01 0.00000E+00
 -1      2778 1.12650E+02 3.96080E+01 0.00000E+00
 -1      2779 1.16400E+02 4.09070E+01 0.00000E+00
 -1      2780 1.17900E+02 4.09070E+01 0.00000E+00
 -1      2781 1.15650E+02 3.96080E+01 0.00000E+00
 -1      2782 1.19400E+02 4.09070E+01 0.00000E+00
 -1      2783 1.20900E+02 4.09070E+01 0.00000E+00
 -1      2784 1.18650E+02 3.96080E+01 0.00000E+00
 -1      2785 1.22400E+02 4.09070E+01 0.00000E+00
 -1      2786 1.23900E+02 4.09070E+01 0.00000E+00
 -1      2787 1.21650E+02 3.96080E+01 0.00000E+00
 -1      2788 1.25400E+02 4.09070E+01 0.00000E+00
 -1      2789 1.26900E+02 4.09070E+01 0.00000E+00
 -1      2790 1.24650E+02 3.96080E+01 0.00000E+00
 -1      2791 1.28400E+02 4.09070E+01 0.00000E+00
 -1      2792 1.29900E+02 4.09070E+01 0.00000E+00
 -1      2793 1.27650E+02 3.96080E+01 0.00000E+00
 -1      2794 1.31400E+02 4.09070E+01 0.00000E+00
 -1      2795 1.32900E+02 4.09070E+01 0.00000E+00
 -1      2796 1.30650E+02 3.96080E+01 0.00000E+00
 -1      2797 1.34400E+02 4.09070E+01 0.00000E+00
 -1      2798 1.35900E+02 4.09070E+01 0.00000E+00
 -1      2799 1.33650E+02 3.96080E+01 0.00000E+00
 -1      2800 1.37400E+02 4.09070E+01 0.00000E+00
 -1      2801 1.38900E+02 4.09070E+01 0.00000E+00
 -1      2802 1.36650E+02 3.96080E+01 0.00000E+00
 -1      2803 8.68221E+01 3.25597E+01 0.00000E+00
 -1      2804 8.59814E+01 3.18079E+01 0.00000E+00
 -1      2805 2.12850E+01 7.90325E+00 0.00000E+00
 -1      2806 1.97850E+01 7.90325E+00 0.00000E+00
 -1      2807 3.02850E+01 7.90325E+00 0.00000E+00
 -1      2808 2.87850E+01 7.90325E+00 0.00000E+00
 -1      2809 3.32850E+01 7.90325E+00 0.00000E+00
 -1      2810 3.17850E+01 7.90325E+00 0.00000E+00
 -1      2811 3.10350E+01 9.20225E+00 0.00000E+00
 -1      2812 3.62850E+01 7.90325E+00 0.00000E+00
 -1      2813 3.47850E+01 7.90325E+00 0.00000E+00
 -1      2814 3.40350E+01 9.20225E+00 0.00000E+00
 -1      2815 3.92850E+01 7.90325E+00 0.00000E+00
 -1      2816 3.77850E+01 7.90325E+00 0.00000E+00
 -1      2817 3.70350E+01 9.20225E+00 0.00000E+00
 -1      2818 4.22850E+01 7.90325E+00 0.00000E+00
 -1      2819 4.07850E+01 7.90325E+00 0.00000E+00
 -1      2820 4.00350E+01 9.20225E+00 0.00000E+00
 -1      2821 4.52850E+01 7.90325E+00 0.00000E+00
 -1      2822 4.37850E+01 7.90325E+00 0.00000E+00
 -1      2823 4.30350E+01 9.20225E+00 0.00000E+00
 -1      2824 4.82850E+01 7.90325E+00 0.00000E+00
 -1      2825 4.67850E+01 7.90325E+00 0.00000E+00
 -1      2826 4.60350E+01 9.20225E+00 0.00000E+00
 -1      2827 5.12850E+01 7.90325E+00 0.00000E+00
 -1      2828 4.97850E+01 7.90325E+00 0.00000E+00
 -1      2829 4.90350E+01 9.20225E+00 0.00000E+00
 -1      2830 5.42850E+01 7.90325E+00 0.00000E+00
 -1      2831 5.27850E+01 7.90325E+00 0.00000E+00
 -1      2832 5.20350E+01 9.20225E+00 0.00000E+00
 -1      2833 5.72850E+01 7.90325E+00 0.00000E+00
 -1      2834 5.57850E+01 7.90325E+00 0.00000E+00
 -1      2835 5.50350E+01 9.20225E+00 0.00000E+00
 -1      2836 6.02850E+01 7.90325E+00 0.00000E+00
 -1      2837 5.87850E+01 7.90325E+00 0.00000E+00
 -1      2838 5.80350E+01 9.20225E+00 0.00000E+00
 -1      2839 6.32850E+01 7.90325E+00 0.00000E+00
 -1      2840 6.17850E+01 7.90325E+00 0.00000E+00
 -1      2841 6.10350E+01 9.20225E+00 0.00000E+00
 -1      2842 6.62850E+01 7.90325E+00 0.00000E+00
 -1      2843 6.47850E+01 7.90325E+00 0.00000E+00
 -1      2844 6.40350E+01 9.20225E+00 0.00000E+00
 -1      2845 6.92850E+01 7.90325E+00 0.00000E+00
 -1      2846 6.77850E+01 7.90325E+00 0.00000E+00
 -1      2847 6.70350E+01 9.20225E+00 0.00000E+00
 -1      2848 7.22850E+01 7.90325E+00 0.00000E+00
 -1      2849 7.07850E+01 7.90325E+00 0.00000E+00
 -1      2850 7.00350E+01 9.20225E+00 0.00000E+00
 -1      2851 7.52850E+01 7.90325E+00 0.00000E+00
 -1      2852 7.37850E+01 7.90325E+00 0.00000E+00
 -1      2853 7.30350E+01 9.20225E+00 0.00000E+00
 -1      2854 7.82850E+01 7.90325E+00 0.00000E+00
 -1      2855 7.67850E+01 7.90325E+00 0.00000E+00
 -1      2856 7.60350E+01 9.20225E+00 0.00000E+00
 -1      2857 8.12850E+01 7.90325E+00 0.00000E+00
 -1      2858 7.97850E+01 7.90325E+00 0.00000E+00
 -1      2859 7.90350E+01 9.20225E+00 0.00000E+00
 -1      2860 8.42850E+01 7.90325E+00 0.00000E+00
 -1      2861 8.27850E+01 7.90325E+00 0.00000E+00
 -1      2862 8.20350E+01 9.20225E+00 0.00000E+00
 -1      2863 8.75744E+01 9.09325E+00 0.00000E+00
 -1      2864 8.60744E+01 9.09325E+00 0.00000E+00
 -1      2865 9.03128E+01 8.89999E+00 0.00000E+00
 -1      2866 8.88128E+01 8.89999E+00 0.00000E+00
 -1      2867 9.33039E+01 8.38113E+00 0.00000E+00
 -1      2868 9.18039E+01 8.38113E+00 0.00000E+00
 -1      2869 9.64406E+01 9.15869E+00 0.00000E+00
 -1      2870 9.49406E+01 9.15869E+00 0.00000E+00
 -1      2871 1.02285E+02 7.90325E+00 0.00000E+00
 -1      2872 1.00785E+02 7.90325E+00 0.00000E+00
 -1      2873 1.05285E+02 7.90325E+00 0.00000E+00
 -1      2874 1.03785E+02 7.90325E+00 0.00000E+00
 -1      2875 1.03035E+02 9.20225E+00 0.00000E+00
 -1      2876 1.08285E+02 7.90325E+00 0.00000E+00
 -1      2877 1.06785E+02 7.90325E+00 0.00000E+00
 -1      2878 1.06035E+02 9.20225E+00 0.00000E+00
 -1      2879 1.11285E+02 7.90325E+00 0.00000E+00
 -1      2880 1.09785E+02 7.90325E+00 0.00000E+00
 -1      2881 1.09035E+02 9.20225E+00 0.00000E+00
 -1      2882 1.14285E+02 7.90325E+00 0.00000E+00
 -1      2883 1.12785E+02 7.90325E+00 0.00000E+00
 -1      2884 1.12035E+02 9.20225E+00 0.00000E+00
 -1      2885 1.17285E+02 7.90325E+00 0.00000E+00
 -1      2886 1.15785E+02 7.90325E+00 0.00000E+00
 -1      2887 1.15035E+02 9.20225E+00 0.00000E+00
 -1      2888 1.20285E+02 7.90325E+00 0.00000E+00
 -1      2889 1.18785E+02 7.90325E+00 0.00000E+00
 -1      2890 1.18035E+02 9.20225E+00 0.00000E+00
 -1      2891 1.23285E+02 7.90325E+00 0.00000E+00
 -1      2892 1.21785E+02 7.90325E+00 0.00000E+00
 -1      2893 1.21035E+02 9.20225E+00 0.00000E+00
 -1      2894 1.26285E+02 7.90325E+00 0.00000E+00
 -1      2895 1.24785E+02 7.90325E+00 0.00000E+00
 -1      2896 1.24035E+02 9.20225E+00 0.00000E+00
 -1      2897 1.29285E+02 7.90325E+00 0.00000E+00
 -1      2898 1.27785E+02 7.90325E+00 0.00000E+00
 -1      2899 1.27035E+02 9.20225E+00 0.00000E+00
 -1      2900 1.32285E+02 7.90325E+00 0.00000E+00
 -1      2901 1.30785E+02 7.90325E+00 0.00000E+00
 -1      2902 1.30035E+02 9.20225E+00 0.00000E+00
 -1      2903 1.35285E+02 7.90325E+00 0.00000E+00
 -1      2904 1.33785E+02 7.90325E+00 0.00000E+00
 -1      2905 1.33035E+02 9.20225E+00 0.00000E+00
 -1      2906 1.38285E+02 7.90325E+00 0.00000E+00
 -1      2907 1.36785E+02 7.90325E+00 0.00000E+00
 -1      2908 1.36035E+02 9.20225E+00 0.00000E+00
 -1      2909 1.40953E+02 8.18394E+00 0.00000E+00
 -1      2910 1.39453E+02 8.18394E+00 0.00000E+00
 -1      2911 1.38703E+02 9.48294E+00 0.00000E+00
 -1      2912 1.41038E+02 1.00443E+01 0.00000E+00
 -1      2913 7.85850E+00 3.92077E+01 0.00000E+00
 -1      2914 1.40907E+02 2.42875E+01 0.00000E+00
 -1      2915 1.40907E+02 2.28125E+01 0.00000E+00
 -1      2916 1.05720E+02 1.96525E+01 0.00000E+00
 -1      2917 1.05990E+02 2.08377E+01 0.00000E+00
 -1      2918 1.40907E+02 1.83875E+01 0.00000E+00
 -1      2919 1.40907E+02 1.69125E+01 0.00000E+00
 -1      2920 1.40907E+02 2.72375E+01 0.00000E+00
 -1      2921 1.40907E+02 2.57625E+01 0.00000E+00
 -1      2922 1.39608E+02 2.50250E+01 0.00000E+00
 -1      2923 1.40907E+02 2.13375E+01 0.00000E+00
 -1      2924 1.40907E+02 1.98625E+01 0.00000E+00
 -1      2925 1.39608E+02 1.91250E+01 0.00000E+00
 -1      2926 1.39608E+02 2.20750E+01 0.00000E+00
 -1      2927 1.40928E+02 4.09655E+01 0.00000E+00
 -1      2928 1.41192E+02 3.96958E+01 0.00000E+00
 -1      2929 1.39914E+02 4.09362E+01 0.00000E+00
 -1      2930 1.40907E+02 3.01375E+01 0.00000E+00
 -1      2931 1.40907E+02 2.86875E+01 0.00000E+00
 -1      2932 1.39608E+02 2.79500E+01 0.00000E+00
 -1      2933 1.40907E+02 3.30875E+01 0.00000E+00
 -1      2934 1.40907E+02 3.16125E+01 0.00000E+00
 -1      2935 1.39608E+02 3.08750E+01 0.00000E+00
 -1      2936 1.40907E+02 3.60375E+01 0.00000E+00
 -1      2937 1.40907E+02 3.45625E+01 0.00000E+00
 -1      2938 1.39608E+02 3.38250E+01 0.00000E+00
 -1      2939 1.41192E+02 3.82207E+01 0.00000E+00
 -1      2940 1.82850E+01 7.90325E+00 0.00000E+00
 -1      2941 1.67850E+01 7.90325E+00 0.00000E+00
 -1      2942 1.90350E+01 9.20225E+00 0.00000E+00
 -1      2943 1.03219E+02 1.52661E+01 0.00000E+00
 -1      2944 1.03705E+02 1.64260E+01 0.00000E+00
 -1      2945 9.32250E+00 4.05749E+01 0.00000E+00
 -1      2946 1.06860E+01 4.08389E+01 0.00000E+00
 -1      2947 1.21860E+01 4.08389E+01 0.00000E+00
 -1      2948 9.25800E+00 3.81046E+01 0.00000E+00
 -1      2949 8.91450E+00 8.42712E+00 0.00000E+00
 -1      2950 8.20774E+01 2.66247E+01 0.00000E+00
 -1      2951 8.18724E+01 2.53968E+01 0.00000E+00
 -1      2952 1.05960E+02 2.23882E+01 0.00000E+00
 -1      2953 1.05771E+02 2.35445E+01 0.00000E+00
 -1      2954 8.50370E+01 3.09484E+01 0.00000E+00
 -1      2955 8.40926E+01 3.00890E+01 0.00000E+00
 -1      2956 8.47740E+01 3.20885E+01 0.00000E+00
 -1      2957 8.16300E+01 2.39069E+01 0.00000E+00
 -1      2958 8.17054E+01 2.25514E+01 0.00000E+00
 -1      2959 2.72850E+01 7.90325E+00 0.00000E+00
 -1      2960 2.57850E+01 7.90325E+00 0.00000E+00
 -1      2961 2.80350E+01 9.20225E+00 0.00000E+00
 -1      2962 2.42850E+01 7.90325E+00 0.00000E+00
 -1      2963 2.27850E+01 7.90325E+00 0.00000E+00
 -1      2964 2.50350E+01 9.20225E+00 0.00000E+00
 -1      2965 1.52850E+01 7.90325E+00 0.00000E+00
 -1      2966 1.37850E+01 7.90325E+00 0.00000E+00
 -1      2967 1.30350E+01 9.20225E+00 0.00000E+00
 -1      2968 1.60350E+01 9.20225E+00 0.00000E+00
 -1      2969 8.19471E+01 2.12386E+01 0.00000E+00
 -1      2970 8.21525E+01 2.02306E+01 0.00000E+00
 -1      2971 9.09300E+00 1.68813E+01 0.00000E+00
 -1      2972 9.09300E+00 1.83563E+01 0.00000E+00
 -1      2973 1.03920E+01 1.90812E+01 0.00000E+00
 -1      2974 1.03920E+01 1.61437E+01 0.00000E+00
 -1      2975 1.05540E+02 2.47876E+01 0.00000E+00
 -1      2976 1.05309E+02 2.60307E+01 0.00000E+00
 -1      2977 1.06563E+02 2.43614E+01 0.00000E+00
 -1      2978 9.65656E+01 3.45531E+01 0.00000E+00
 -1      2979 9.54922E+01 3.45929E+01 0.00000E+00
 -1      2980 9.09300E+00 3.15875E+01 0.00000E+00
 -1      2981 9.09300E+00 3.30625E+01 0.00000E+00
 -1      2982 8.47776E+01 1.44883E+01 0.00000E+00
 -1      2983 8.54618E+01 1.36836E+01 0.00000E+00
 -1      2984 1.01682E+02 3.17343E+01 0.00000E+00
 -1      2985 1.00601E+02 3.24300E+01 0.00000E+00
 -1      2986 8.35878E+01 1.66588E+01 0.00000E+00
 -1      2987 8.41159E+01 1.56350E+01 0.00000E+00
 -1      2988 8.31225E+01 2.91330E+01 0.00000E+00
 -1      2989 8.24576E+01 2.82072E+01 0.00000E+00
 -1      2990 8.26051E+01 1.89713E+01 0.00000E+00
 -1      2991 8.30965E+01 1.78150E+01 0.00000E+00
 -1      2992 8.25239E+01 1.68716E+01 0.00000E+00
 -1      2993 9.18580E+01 3.40257E+01 0.00000E+00
 -1      2994 9.05567E+01 3.39789E+01 0.00000E+00
 -1      2995 8.90087E+01 3.37703E+01 0.00000E+00
 -1      2996 8.80046E+01 3.32649E+01 0.00000E+00
 -1      2997 1.01569E+02 1.32335E+01 0.00000E+00
 -1      2998 1.02362E+02 1.39909E+01 0.00000E+00
 -1      2999 9.92438E+01 1.16539E+01 0.00000E+00
 -1      3000 1.00428E+02 1.23106E+01 0.00000E+00
 -1      3001 9.09300E+00 3.45313E+01 0.00000E+00
 -1      3002 9.09300E+00 3.60000E+01 0.00000E+00
 -1      3003 1.03920E+01 3.37938E+01 0.00000E+00
 -1      3004 1.03920E+01 2.49750E+01 0.00000E+00
 -1      3005 9.09300E+00 2.57000E+01 0.00000E+00
 -1      3006 9.09300E+00 2.71750E+01 0.00000E+00
 -1      3007 8.08858E+01 2.18594E+01 0.00000E+00
 -1      3008 1.04109E+02 2.93290E+01 0.00000E+00
 -1      3009 8.83521E+01 1.13890E+01 0.00000E+00
 -1      3010 9.83026E+01 1.11777E+01 0.00000E+00
 -1      3011 9.93918E+01 1.06095E+01 0.00000E+00
 -1      3012 1.00207E+02 3.33774E+01 0.00000E+00
 -1      3013 9.98127E+01 3.43249E+01 0.00000E+00
 -1      3014 1.01212E+02 3.37508E+01 0.00000E+00
 -1      3015 1.06645E+02 2.65797E+01 0.00000E+00
 -1      3016 1.05621E+02 2.70059E+01 0.00000E+00
 -1      3017 1.05933E+02 2.79812E+01 0.00000E+00
 -1      3018 1.01475E+02 1.20087E+01 0.00000E+00
 -1      3019 8.96314E+01 3.45670E+01 0.00000E+00
 -1      3020 8.87062E+01 3.51552E+01 0.00000E+00
 -1      3021 9.02542E+01 3.53637E+01 0.00000E+00
 -1      3022 1.04574E+02 1.66069E+01 0.00000E+00
 -1      3023 1.39164E+02 3.96372E+01 0.00000E+00
 -1      3024 8.69009E+01 3.36532E+01 0.00000E+00
 -1      3025 8.15800E+01 1.92872E+01 0.00000E+00
 -1      3026 8.28595E+01 3.02730E+01 0.00000E+00
 -1      3027 2.20350E+01 9.20225E+00 0.00000E+00
 -1      3028 9.92850E+01 7.90325E+00 0.00000E+00
 -1      3029 9.77850E+01 7.90325E+00 0.00000E+00
 -1      3030 1.05836E+02 1.88745E+01 0.00000E+00
 -1      3031 1.06971E+02 1.92393E+01 0.00000E+00
 -1      3032 1.05953E+02 1.80964E+01 0.00000E+00
 -1      3033 1.41038E+02 1.15068E+01 0.00000E+00
 -1      3034 1.39870E+02 1.12261E+01 0.00000E+00
 -1      3035 1.41038E+02 1.29693E+01 0.00000E+00
 -1      3036 1.06825E+02 2.15678E+01 0.00000E+00
 -1      3037 1.02457E+02 3.15269E+01 0.00000E+00
 -1      3038 1.02380E+02 3.25959E+01 0.00000E+00
 -1      3039 1.03232E+02 3.13196E+01 0.00000E+00
 -1      3040 1.39529E+02 3.85602E+01 0.00000E+00
 -1      3041 1.40542E+02 3.71145E+01 0.00000E+00
 -1      3042 1.39243E+02 3.63770E+01 0.00000E+00
 -1      3043 1.38514E+02 3.85310E+01 0.00000E+00
 -1      3044 8.36770E+01 1.45687E+01 0.00000E+00
 -1      3045 1.03473E+02 1.42069E+01 0.00000E+00
 -1      3046 9.71906E+01 1.04577E+01 0.00000E+00
 -1      3047 1.29360E+01 3.95399E+01 0.00000E+00
 -1      3048 8.15092E+01 2.77345E+01 0.00000E+00
 -1      3049 9.53924E+01 3.58669E+01 0.00000E+00
 -1      3050 9.48239E+01 3.50298E+01 0.00000E+00
 -1      3051 9.41556E+01 3.54667E+01 0.00000E+00
 -1      3052 8.57262E+01 1.25021E+01 0.00000E+00
 -1      3053 9.23833E+01 3.47026E+01 0.00000E+00
 -1      3054 1.40973E+02 1.56722E+01 0.00000E+00
 -1      3055 1.40973E+02 1.42097E+01 0.00000E+00
 -1      3056 1.39805E+02 1.39290E+01 0.00000E+00
 -1      3057 1.39674E+02 1.64097E+01 0.00000E+00
 -1      3058 9.09300E+00 2.86437E+01 0.00000E+00
 -1      3059 9.09300E+00 3.01187E+01 0.00000E+00
 -1      3060 1.03920E+01 3.08563E+01 0.00000E+00
 -1      3061 1.03920E+01 2.79188E+01 0.00000E+00
 -1      3062 9.83032E+01 3.48285E+01 0.00000E+00
 -1      3063 9.74344E+01 3.46908E+01 0.00000E+00
 -1      3064 9.69295E+01 3.55676E+01 0.00000E+00
 -1      3065 9.66450E+00 9.72612E+00 0.00000E+00
 -1      3066 1.09635E+01 1.04636E+01 0.00000E+00
 -1      3067 1.00035E+02 9.20225E+00 0.00000E+00
 -1      3068 1.16910E+01 1.24625E+01 0.00000E+00
 -1      3069 1.16910E+01 1.39375E+01 0.00000E+00
 -1      3070 1.05220E+02 2.94857E+01 0.00000E+00
 -1      3071 1.04419E+02 3.04072E+01 0.00000E+00
 -1      3072 1.89000E+01 3.83090E+01 0.00000E+00
 -1      3073 2.04000E+01 3.83090E+01 0.00000E+00
 -1      3074 2.19000E+01 3.83090E+01 0.00000E+00
 -1      3075 2.34000E+01 3.83090E+01 0.00000E+00
 -1      3076 2.11500E+01 3.70100E+01 0.00000E+00
 -1      3077 2.49000E+01 3.83090E+01 0.00000E+00
 -1      3078 2.64000E+01 3.83090E+01 0.00000E+00
 -1      3079 2.41500E+01 3.70100E+01 0.00000E+00
 -1      3080 2.79000E+01 3.83090E+01 0.00000E+00
 -1      3081 2.94000E+01 3.83090E+01 0.00000E+00
 -1      3082 2.71500E+01 3.70100E+01 0.00000E+00
 -1      3083 3.09000E+01 3.83090E+01 0.00000E+00
 -1      3084 3.24000E+01 3.83090E+01 0.00000E+00
 -1      3085 3.01500E+01 3.70100E+01 0.00000E+00
 -1      3086 3.39000E+01 3.83090E+01 0.00000E+00
 -1      3087 3.54000E+01 3.83090E+01 0.00000E+00
 -1      3088 3.31500E+01 3.70100E+01 0.00000E+00
 -1      3089 3.69000E+01 3.83090E+01 0.00000E+00
 -1      3090 3.84000E+01 3.83090E+01 0.00000E+00
 -1      3091 3.61500E+01 3.70100E+01 0.00000E+00
 -1      3092 3.99000E+01 3.83090E+01 0.00000E+00
 -1      3093 4.14000E+01 3.83090E+01 0.00000E+00
 -1      3094 3.91500E+01 3.70100E+01 0.00000E+00
 -1      3095 4.29000E+01 3.83090E+01 0.00000E+00
 -1      3096 4.44000E+01 3.83090E+01 0.00000E+00
 -1      3097 4.21500E+01 3.70100E+01 0.00000E+00
 -1      3098 4.59000E+01 3.83090E+01 0.00000E+00
 -1      3099 4.74000E+01 3.83090E+01 0.00000E+00
 -1      3100 4.51500E+01 3.70100E+01 0.00000E+00
 -1      3101 4.89000E+01 3.83090E+01 0.00000E+00
 -1      3102 5.04000E+01 3.83090E+01 0.00000E+00
 -1      3103 4.81500E+01 3.70100E+01 0.00000E+00
 -1      3104 5.19000E+01 3.83090E+01 0.00000E+00
 -1      3105 5.34000E+01 3.83090E+01 0.00000E+00
 -1      3106 5.11500E+01 3.70100E+01 0.00000E+00
 -1      3107 5.49000E+01 3.83090E+01 0.00000E+00
 -1      3108 5.64000E+01 3.83090E+01 0.00000E+00
 -1      3109 5.41500E+01 3.70100E+01 0.00000E+00
 -1      3110 5.79000E+01 3.83090E+01 0.00000E+00
 -1      3111 5.94000E+01 3.83090E+01 0.00000E+00
 -1      3112 5.71500E+01 3.70100E+01 0.00000E+00
 -1      3113 6.09000E+01 3.83090E+01 0.00000E+00
 -1      3114 6.24000E+01 3.83090E+01 0.00000E+00
 -1      3115 6.01500E+01 3.70100E+01 0.00000E+00
 -1      3116 6.39000E+01 3.83090E+01 0.00000E+00
 -1      3117 6.54000E+01 3.83090E+01 0.00000E+00
 -1      3118 6.31500E+01 3.70100E+01 0.00000E+00
 -1      3119 6.69000E+01 3.83090E+01 0.00000E+00
 -1      3120 6.84000E+01 3.83090E+01 0.00000E+00
 -1      3121 6.61500E+01 3.70100E+01 0.00000E+00
 -1      3122 6.99000E+01 3.83090E+01 0.00000E+00
 -1      3123 7.14000E+01 3.83090E+01 0.00000E+00
 -1      3124 6.91500E+01 3.70100E+01 0.00000E+00
 -1      3125 7.29000E+01 3.83090E+01 0.00000E+00
 -1      3126 7.44000E+01 3.83090E+01 0.00000E+00
 -1      3127 7.21500E+01 3.70100E+01 0.00000E+00
 -1      3128 7.59000E+01 3.83090E+01 0.00000E+00
 -1      3129 7.74000E+01 3.83090E+01 0.00000E+00
 -1      3130 7.51500E+01 3.70100E+01 0.00000E+00
 -1      3131 7.89000E+01 3.83090E+01 0.00000E+00
 -1      3132 8.04000E+01 3.83090E+01 0.00000E+00
 -1      3133 7.81500E+01 3.70100E+01 0.00000E+00
 -1      3134 8.19000E+01 3.83090E+01 0.00000E+00
 -1      3135 8.34000E+01 3.83090E+01 0.00000E+00
 -1      3136 8.11500E+01 3.70100E+01 0.00000E+00
 -1      3137 8.49000E+01 3.83090E+01 0.00000E+00
 -1      3138 8.64000E+01 3.83090E+01 0.00000E+00
 -1      3139 8.41500E+01 3.70100E+01 0.00000E+00
 -1      3140 8.82395E+01 3.77799E+01 0.00000E+00
 -1      3141 8.97395E+01 3.77799E+01 0.00000E+00
 -1      3142 9.39370E+01 3.79559E+01 0.00000E+00
 -1      3143 9.54370E+01 3.79559E+01 0.00000E+00
 -1      3144 9.69741E+01 3.76567E+01 0.00000E+00
 -1      3145 9.84741E+01 3.76567E+01 0.00000E+00
 -1      3146 1.02900E+02 3.84153E+01 0.00000E+00
 -1      3147 1.04400E+02 3.84153E+01 0.00000E+00
 -1      3148 1.05900E+02 3.84153E+01 0.00000E+00
 -1      3149 1.07400E+02 3.84153E+01 0.00000E+00
 -1      3150 1.05150E+02 3.72226E+01 0.00000E+00
 -1      3151 1.08900E+02 3.84153E+01 0.00000E+00
 -1      3152 1.10400E+02 3.84153E+01 0.00000E+00
 -1      3153 1.08150E+02 3.72226E+01 0.00000E+00
 -1      3154 1.11900E+02 3.84153E+01 0.00000E+00
 -1      3155 1.13400E+02 3.84153E+01 0.00000E+00
 -1      3156 1.11150E+02 3.72226E+01 0.00000E+00
 -1      3157 1.14900E+02 3.84153E+01 0.00000E+00
 -1      3158 1.16400E+02 3.84153E+01 0.00000E+00
 -1      3159 1.14150E+02 3.72226E+01 0.00000E+00
 -1      3160 1.17900E+02 3.84153E+01 0.00000E+00
 -1      3161 1.19400E+02 3.84153E+01 0.00000E+00
 -1      3162 1.17150E+02 3.72226E+01 0.00000E+00
 -1      3163 1.20900E+02 3.84153E+01 0.00000E+00
 -1      3164 1.22400E+02 3.84153E+01 0.00000E+00
 -1      3165 1.20150E+02 3.72226E+01 0.00000E+00
 -1      3166 1.23900E+02 3.84153E+01 0.00000E+00
 -1      3167 1.25400E+02 3.84153E+01 0.00000E+00
 -1      3168 1.23150E+02 3.72226E+01 0.00000E+00
 -1      3169 1.26900E+02 3.84153E+01 0.00000E+00
 -1      3170 1.28400E+02 3.84153E+01 0.00000E+00
 -1      3171 1.26150E+02 3.72226E+01 0.00000E+00
 -1      3172 1.29900E+02 3.84153E+01 0.00000E+00
 -1      3173 1.31400E+02 3.84153E+01 0.00000E+00
 -1      3174 1.29150E+02 3.72226E+01 0.00000E+00
 -1      3175 1.32900E+02 3.84153E+01 0.00000E+00
 -1      3176 1.34400E+02 3.84153E+01 0.00000E+00
 -1      3177 1.32150E+02 3.72226E+01 0.00000E+00
 -1      3178 1.35707E+02 3.84732E+01 0.00000E+00
 -1      3179 1.37207E+02 3.84732E+01 0.00000E+00
 -1      3180 1.37572E+02 3.73962E+01 0.00000E+00
 -1      3181 1.34957E+02 3.72805E+01 0.00000E+00
 -1      3182 8.23857E+01 1.45877E+01 0.00000E+00
 -1      3183 8.30474E+01 1.34411E+01 0.00000E+00
 -1      3184 3.17850E+01 1.05013E+01 0.00000E+00
 -1      3185 3.02850E+01 1.05013E+01 0.00000E+00
 -1      3186 4.07850E+01 1.05013E+01 0.00000E+00
 -1      3187 3.92850E+01 1.05013E+01 0.00000E+00
 -1      3188 4.37850E+01 1.05013E+01 0.00000E+00
 -1      3189 4.22850E+01 1.05013E+01 0.00000E+00
 -1      3190 4.15350E+01 1.18003E+01 0.00000E+00
 -1      3191 4.67850E+01 1.05013E+01 0.00000E+00
 -1      3192 4.52850E+01 1.05013E+01 0.00000E+00
 -1      3193 4.45350E+01 1.18003E+01 0.00000E+00
 -1      3194 4.97850E+01 1.05013E+01 0.00000E+00
 -1      3195 4.82850E+01 1.05013E+01 0.00000E+00
 -1      3196 4.75350E+01 1.18003E+01 0.00000E+00
 -1      3197 5.27850E+01 1.05013E+01 0.00000E+00
 -1      3198 5.12850E+01 1.05013E+01 0.00000E+00
 -1      3199 5.05350E+01 1.18003E+01 0.00000E+00
 -1      3200 5.57850E+01 1.05013E+01 0.00000E+00
 -1      3201 5.42850E+01 1.05013E+01 0.00000E+00
 -1      3202 5.35350E+01 1.18003E+01 0.00000E+00
 -1      3203 5.87850E+01 1.05013E+01 0.00000E+00
 -1      3204 5.72850E+01 1.05013E+01 0.00000E+00
 -1      3205 5.65350E+01 1.18003E+01 0.00000E+00
 -1      3206 6.17850E+01 1.05013E+01 0.00000E+00
 -1      3207 6.02850E+01 1.05013E+01 0.00000E+00
 -1      3208 5.95350E+01 1.18003E+01 0.00000E+00
 -1      3209 6.47850E+01 1.05013E+01 0.00000E+00
 -1      3210 6.32850E+01 1.05013E+01 0.00000E+00
 -1      3211 6.25350E+01 1.18003E+01 0.00000E+00
 -1      3212 6.77850E+01 1.05013E+01 0.00000E+00
 -1      3213 6.62850E+01 1.05013E+01 0.00000E+00
 -1      3214 6.55350E+01 1.18003E+01 0.00000E+00
 -1      3215 7.07850E+01 1.05013E+01 0.00000E+00
 -1      3216 6.92850E+01 1.05013E+01 0.00000E+00
 -1      3217 6.85350E+01 1.18003E+01 0.00000E+00
 -1      3218 7.37850E+01 1.05013E+01 0.00000E+00
 -1      3219 7.22850E+01 1.05013E+01 0.00000E+00
 -1      3220 7.15350E+01 1.18003E+01 0.00000E+00
 -1      3221 7.67850E+01 1.05013E+01 0.00000E+00
 -1      3222 7.52850E+01 1.05013E+01 0.00000E+00
 -1      3223 7.45350E+01 1.18003E+01 0.00000E+00
 -1      3224 7.97850E+01 1.05013E+01 0.00000E+00
 -1      3225 7.82850E+01 1.05013E+01 0.00000E+00
 -1      3226 7.75350E+01 1.18003E+01 0.00000E+00
 -1      3227 8.26455E+01 1.13312E+01 0.00000E+00
 -1      3228 8.11455E+01 1.13312E+01 0.00000E+00
 -1      3229 8.53244E+01 1.03922E+01 0.00000E+00
 -1      3230 1.12785E+02 1.05013E+01 0.00000E+00
 -1      3231 1.11285E+02 1.05013E+01 0.00000E+00
 -1      3232 1.15785E+02 1.05013E+01 0.00000E+00
 -1      3233 1.14285E+02 1.05013E+01 0.00000E+00
 -1      3234 1.13535E+02 1.18003E+01 0.00000E+00
 -1      3235 1.18785E+02 1.05013E+01 0.00000E+00
 -1      3236 1.17285E+02 1.05013E+01 0.00000E+00
 -1      3237 1.16535E+02 1.18003E+01 0.00000E+00
 -1      3238 1.21785E+02 1.05013E+01 0.00000E+00
 -1      3239 1.20285E+02 1.05013E+01 0.00000E+00
 -1      3240 1.19535E+02 1.18003E+01 0.00000E+00
 -1      3241 1.24785E+02 1.05013E+01 0.00000E+00
 -1      3242 1.23285E+02 1.05013E+01 0.00000E+00
 -1      3243 1.22535E+02 1.18003E+01 0.00000E+00
 -1      3244 1.27785E+02 1.05013E+01 0.00000E+00
 -1      3245 1.26285E+02 1.05013E+01 0.00000E+00
 -1      3246 1.25535E+02 1.18003E+01 0.00000E+00
 -1      3247 1.30785E+02 1.05013E+01 0.00000E+00
 -1      3248 1.29285E+02 1.05013E+01 0.00000E+00
 -1      3249 1.28535E+02 1.18003E+01 0.00000E+00
 -1      3250 1.33785E+02 1.05013E+01 0.00000E+00
 -1      3251 1.32285E+02 1.05013E+01 0.00000E+00
 -1      3252 1.31535E+02 1.18003E+01 0.00000E+00
 -1      3253 1.36785E+02 1.05013E+01 0.00000E+00
 -1      3254 1.35285E+02 1.05013E+01 0.00000E+00
 -1      3255 1.34535E+02 1.18003E+01 0.00000E+00
 -1      3256 1.38912E+02 1.10040E+01 0.00000E+00
 -1      3257 1.37744E+02 1.07233E+01 0.00000E+00
 -1      3258 1.36994E+02 1.20223E+01 0.00000E+00
 -1      3259 1.38912E+02 1.24665E+01 0.00000E+00
 -1      3260 8.69670E+01 3.48862E+01 0.00000E+00
 -1      3261 8.57845E+01 3.41810E+01 0.00000E+00
 -1      3262 1.05465E+02 1.58470E+01 0.00000E+00
 -1      3263 1.05709E+02 1.69717E+01 0.00000E+00
 -1      3264 1.06843E+02 1.73365E+01 0.00000E+00
 -1      3265 1.38309E+02 2.57625E+01 0.00000E+00
 -1      3266 1.38309E+02 2.42875E+01 0.00000E+00
 -1      3267 1.07948E+02 2.08140E+01 0.00000E+00
 -1      3268 1.07918E+02 2.23645E+01 0.00000E+00
 -1      3269 2.87850E+01 1.05013E+01 0.00000E+00
 -1      3270 2.72850E+01 1.05013E+01 0.00000E+00
 -1      3271 2.95350E+01 1.18003E+01 0.00000E+00
 -1      3272 1.07604E+02 2.39119E+01 0.00000E+00
 -1      3273 1.07373E+02 2.51551E+01 0.00000E+00
 -1      3274 1.38309E+02 3.45625E+01 0.00000E+00
 -1      3275 1.38309E+02 3.30875E+01 0.00000E+00
 -1      3276 1.05570E+01 3.73671E+01 0.00000E+00
 -1      3277 1.97850E+01 1.05013E+01 0.00000E+00
 -1      3278 1.82850E+01 1.05013E+01 0.00000E+00
 -1      3279 1.38309E+02 3.16125E+01 0.00000E+00
 -1      3280 1.38309E+02 3.01375E+01 0.00000E+00
 -1      3281 1.37010E+02 3.23500E+01 0.00000E+00
 -1      3282 1.09785E+02 1.05013E+01 0.00000E+00
 -1      3283 1.08285E+02 1.05013E+01 0.00000E+00
 -1      3284 1.10535E+02 1.18003E+01 0.00000E+00
 -1      3285 1.06785E+02 1.05013E+01 0.00000E+00
 -1      3286 1.05285E+02 1.05013E+01 0.00000E+00
 -1      3287 1.07535E+02 1.18003E+01 0.00000E+00
 -1      3288 9.34925E+01 9.79322E+00 0.00000E+00
 -1      3289 9.42656E+01 1.04069E+01 0.00000E+00
 -1      3290 3.77850E+01 1.05013E+01 0.00000E+00
 -1      3291 3.62850E+01 1.05013E+01 0.00000E+00
 -1      3292 3.85350E+01 1.18003E+01 0.00000E+00
 -1      3293 8.44435E+01 3.34003E+01 0.00000E+00
 -1      3294 8.34991E+01 3.25409E+01 0.00000E+00
 -1      3295 3.47850E+01 1.05013E+01 0.00000E+00
 -1      3296 3.32850E+01 1.05013E+01 0.00000E+00
 -1      3297 3.25350E+01 1.18003E+01 0.00000E+00
 -1      3298 3.55350E+01 1.18003E+01 0.00000E+00
 -1      3299 1.27710E+01 3.74352E+01 0.00000E+00
 -1      3300 1.49850E+01 3.75034E+01 0.00000E+00
 -1      3301 1.26060E+01 3.53306E+01 0.00000E+00
 -1      3302 2.27850E+01 1.05013E+01 0.00000E+00
 -1      3303 2.12850E+01 1.05013E+01 0.00000E+00
 -1      3304 2.05350E+01 1.18003E+01 0.00000E+00
 -1      3305 1.61925E+01 3.79062E+01 0.00000E+00
 -1      3306 1.76925E+01 3.79062E+01 0.00000E+00
 -1      3307 1.84425E+01 3.66072E+01 0.00000E+00
 -1      3308 1.60275E+01 3.58016E+01 0.00000E+00
 -1      3309 8.16104E+01 2.49618E+01 0.00000E+00
 -1      3310 8.06246E+01 2.42271E+01 0.00000E+00
 -1      3311 8.07025E+01 2.87652E+01 0.00000E+00
 -1      3312 8.03224E+01 2.71826E+01 0.00000E+00
 -1      3313 7.97568E+01 2.23302E+01 0.00000E+00
 -1      3314 7.99984E+01 2.10174E+01 0.00000E+00
 -1      3315 8.25289E+01 3.15848E+01 0.00000E+00
 -1      3316 8.15588E+01 3.06288E+01 0.00000E+00
 -1      3317 8.21984E+01 3.28967E+01 0.00000E+00
 -1      3318 2.57850E+01 1.05013E+01 0.00000E+00
 -1      3319 2.42850E+01 1.05013E+01 0.00000E+00
 -1      3320 2.65350E+01 1.18003E+01 0.00000E+00
 -1      3321 9.51292E+01 1.05708E+01 0.00000E+00
 -1      3322 9.71484E+01 1.09232E+01 0.00000E+00
 -1      3323 1.26488E+01 1.02017E+01 0.00000E+00
 -1      3324 1.20772E+01 1.14631E+01 0.00000E+00
 -1      3325 1.33763E+01 1.22006E+01 0.00000E+00
 -1      3326 1.41488E+01 1.02017E+01 0.00000E+00
 -1      3327 9.30371E+01 3.55221E+01 0.00000E+00
 -1      3328 9.18333E+01 3.55951E+01 0.00000E+00
 -1      3329 1.01548E+02 1.07501E+01 0.00000E+00
 -1      3330 1.02690E+02 1.16730E+01 0.00000E+00
 -1      3331 1.03895E+02 1.29974E+01 0.00000E+00
 -1      3332 1.04753E+02 1.42726E+01 0.00000E+00
 -1      3333 8.13348E+01 1.70488E+01 0.00000E+00
 -1      3334 8.18261E+01 1.58925E+01 0.00000E+00
 -1      3335 1.16910E+01 2.12875E+01 0.00000E+00
 -1      3336 1.16910E+01 2.27625E+01 0.00000E+00
 -1      3337 1.38309E+02 2.86750E+01 0.00000E+00
 -1      3338 1.38309E+02 2.72250E+01 0.00000E+00
 -1      3339 1.37010E+02 2.64875E+01 0.00000E+00
 -1      3340 1.37010E+02 2.94125E+01 0.00000E+00
 -1      3341 7.96736E+01 2.47371E+01 0.00000E+00
 -1      3342 7.96932E+01 2.36822E+01 0.00000E+00
 -1      3343 8.08670E+01 2.57170E+01 0.00000E+00
 -1      3344 8.04296E+01 1.95675E+01 0.00000E+00
 -1      3345 8.08822E+01 1.83082E+01 0.00000E+00
 -1      3346 8.01844E+01 1.73291E+01 0.00000E+00
 -1      3347 1.16910E+01 2.42375E+01 0.00000E+00
 -1      3348 1.16910E+01 2.57125E+01 0.00000E+00
 -1      3349 1.29900E+01 2.35000E+01 0.00000E+00
 -1      3350 1.06244E+02 2.90595E+01 0.00000E+00
 -1      3351 1.06554E+02 3.01377E+01 0.00000E+00
 -1      3352 1.07267E+02 2.86333E+01 0.00000E+00
 -1      3353 1.04343E+02 3.14762E+01 0.00000E+00
 -1      3354 1.02278E+02 3.36387E+01 0.00000E+00
 -1      3355 1.01884E+02 3.45861E+01 0.00000E+00
 -1      3356 1.26060E+01 3.23931E+01 0.00000E+00
 -1      3357 1.26060E+01 3.38619E+01 0.00000E+00
 -1      3358 1.48200E+01 3.39300E+01 0.00000E+00
 -1      3359 1.00312E+02 3.55751E+01 0.00000E+00
 -1      3360 9.93078E+01 3.52018E+01 0.00000E+00
 -1      3361 9.88029E+01 3.60786E+01 0.00000E+00
 -1      3362 1.07686E+02 2.61303E+01 0.00000E+00
 -1      3363 1.07998E+02 2.71056E+01 0.00000E+00
 -1      3364 1.08727E+02 2.56809E+01 0.00000E+00
 -1      3365 9.99928E+01 9.66777E+00 0.00000E+00
 -1      3366 1.00934E+02 1.01440E+01 0.00000E+00
 -1      3367 9.09080E+01 3.61832E+01 0.00000E+00
 -1      3368 8.74895E+01 3.64809E+01 0.00000E+00
 -1      3369 9.13185E+01 3.80113E+01 0.00000E+00
 -1      3370 9.28185E+01 3.80113E+01 0.00000E+00
 -1      3371 8.39369E+01 1.13121E+01 0.00000E+00
 -1      3372 9.99000E+01 3.84991E+01 0.00000E+00
 -1      3373 1.01400E+02 3.84991E+01 0.00000E+00
 -1      3374 1.16910E+01 1.98188E+01 0.00000E+00
 -1      3375 1.29900E+01 2.05562E+01 0.00000E+00
 -1      3376 1.16910E+01 1.83500E+01 0.00000E+00
 -1      3377 1.26060E+01 3.09244E+01 0.00000E+00
 -1      3378 1.48200E+01 3.09925E+01 0.00000E+00
 -1      3379 1.26060E+01 2.94556E+01 0.00000E+00
 -1      3380 1.03052E+02 3.34313E+01 0.00000E+00
 -1      3381 1.02149E+02 9.80833E+00 0.00000E+00
 -1      3382 1.37010E+02 2.35500E+01 0.00000E+00
 -1      3383 1.38309E+02 2.28125E+01 0.00000E+00
 -1      3384 1.38309E+02 2.13375E+01 0.00000E+00
 -1      3385 9.36056E+01 3.63592E+01 0.00000E+00
 -1      3386 2.35350E+01 1.18003E+01 0.00000E+00
 -1      3387 8.03955E+01 1.26302E+01 0.00000E+00
 -1      3388 1.02150E+02 3.73064E+01 0.00000E+00
 -1      3389 1.08065E+02 2.00360E+01 0.00000E+00
 -1      3390 1.09158E+02 2.08327E+01 0.00000E+00
 -1      3391 1.08181E+02 1.92580E+01 0.00000E+00
 -1      3392 9.10817E+01 1.06769E+01 0.00000E+00
 -1      3393 1.29900E+01 1.46687E+01 0.00000E+00
 -1      3394 1.16910E+01 1.54063E+01 0.00000E+00
 -1      3395 1.16910E+01 1.68750E+01 0.00000E+00
 -1      3396 1.03649E+02 9.80833E+00 0.00000E+00
 -1      3397 1.05887E+02 1.46375E+01 0.00000E+00
 -1      3398 1.38309E+02 1.98625E+01 0.00000E+00
 -1      3399 1.38309E+02 1.83875E+01 0.00000E+00
 -1      3400 1.37010E+02 2.06000E+01 0.00000E+00
 -1      3401 1.08728E+02 2.31582E+01 0.00000E+00
 -1      3402 8.11965E+01 1.47649E+01 0.00000E+00
 -1      3403 7.88058E+01 2.28402E+01 0.00000E+00
 -1      3404 8.01917E+01 2.64202E+01 0.00000E+00
 -1      3405 7.99297E+01 2.59853E+01 0.00000E+00
 -1      3406 8.45096E+01 3.46334E+01 0.00000E+00
 -1      3407 1.04399E+02 1.11073E+01 0.00000E+00
 -1      3408 7.89983E+01 2.54404E+01 0.00000E+00
 -1      3409 8.03720E+01 3.00770E+01 0.00000E+00
 -1      3410 7.91851E+01 2.95252E+01 0.00000E+00
 -1      3411 8.00414E+01 3.13888E+01 0.00000E+00
 -1      3412 7.93850E+01 2.74509E+01 0.00000E+00
 -1      3413 7.93006E+01 2.00384E+01 0.00000E+00
 -1      3414 1.38375E+02 1.71472E+01 0.00000E+00
 -1      3415 1.38440E+02 1.59068E+01 0.00000E+00
 -1      3416 1.37076E+02 1.78847E+01 0.00000E+00
 -1      3417 1.69669E+01 1.03515E+01 0.00000E+00
 -1      3418 1.54669E+01 1.03515E+01 0.00000E+00
 -1      3419 1.50806E+01 1.13509E+01 0.00000E+00
 -1      3420 1.77169E+01 1.16505E+01 0.00000E+00
 -1      3421 1.37758E+02 3.65178E+01 0.00000E+00
 -1      3422 1.38123E+02 3.54408E+01 0.00000E+00
 -1      3423 1.36824E+02 3.47033E+01 0.00000E+00
 -1      3424 1.36451E+02 3.64600E+01 0.00000E+00
 -1      3425 1.60275E+01 3.28641E+01 0.00000E+00
 -1      3426 1.60275E+01 3.43328E+01 0.00000E+00
 -1      3427 1.72350E+01 3.47356E+01 0.00000E+00
 -1      3428 2.34000E+01 3.57110E+01 0.00000E+00
 -1      3429 2.49000E+01 3.57110E+01 0.00000E+00
 -1      3430 2.64000E+01 3.57110E+01 0.00000E+00
 -1      3431 2.79000E+01 3.57110E+01 0.00000E+00
 -1      3432 2.56500E+01 3.44120E+01 0.00000E+00
 -1      3433 2.94000E+01 3.57110E+01 0.00000E+00
 -1      3434 3.09000E+01 3.57110E+01 0.00000E+00
 -1      3435 2.86500E+01 3.44120E+01 0.00000E+00
 -1      3436 3.24000E+01 3.57110E+01 0.00000E+00
 -1      3437 3.39000E+01 3.57110E+01 0.00000E+00
 -1      3438 3.16500E+01 3.44120E+01 0.00000E+00
 -1      3439 3.54000E+01 3.57110E+01 0.00000E+00
 -1      3440 3.69000E+01 3.57110E+01 0.00000E+00
 -1      3441 3.46500E+01 3.44120E+01 0.00000E+00
 -1      3442 3.84000E+01 3.57110E+01 0.00000E+00
 -1      3443 3.99000E+01 3.57110E+01 0.00000E+00
 -1      3444 3.76500E+01 3.44120E+01 0.00000E+00
 -1      3445 4.14000E+01 3.57110E+01 0.00000E+00
 -1      3446 4.29000E+01 3.57110E+01 0.00000E+00
 -1      3447 4.06500E+01 3.44120E+01 0.00000E+00
 -1      3448 4.44000E+01 3.57110E+01 0.00000E+00
 -1      3449 4.59000E+01 3.57110E+01 0.00000E+00
 -1      3450 4.36500E+01 3.44120E+01 0.00000E+00
 -1      3451 4.74000E+01 3.57110E+01 0.00000E+00
 -1      3452 4.89000E+01 3.57110E+01 0.00000E+00
 -1      3453 4.66500E+01 3.44120E+01 0.00000E+00
 -1      3454 5.04000E+01 3.57110E+01 0.00000E+00
 -1      3455 5.19000E+01 3.57110E+01 0.00000E+00
 -1      3456 4.96500E+01 3.44120E+01 0.00000E+00
 -1      3457 5.34000E+01 3.57110E+01 0.00000E+00
 -1      3458 5.49000E+01 3.57110E+01 0.00000E+00
 -1      3459 5.26500E+01 3.44120E+01 0.00000E+00
 -1      3460 5.64000E+01 3.57110E+01 0.00000E+00
 -1      3461 5.79000E+01 3.57110E+01 0.00000E+00
 -1      3462 5.56500E+01 3.44120E+01 0.00000E+00
 -1      3463 5.94000E+01 3.57110E+01 0.00000E+00
 -1      3464 6.09000E+01 3.57110E+01 0.00000E+00
 -1      3465 5.86500E+01 3.44120E+01 0.00000E+00
 -1      3466 6.24000E+01 3.57110E+01 0.00000E+00
 -1      3467 6.39000E+01 3.57110E+01 0.00000E+00
 -1      3468 6.16500E+01 3.44120E+01 0.00000E+00
 -1      3469 6.54000E+01 3.57110E+01 0.00000E+00
 -1      3470 6.69000E+01 3.57110E+01 0.00000E+00
 -1      3471 6.46500E+01 3.44120E+01 0.00000E+00
 -1      3472 6.84000E+01 3.57110E+01 0.00000E+00
 -1      3473 6.99000E+01 3.57110E+01 0.00000E+00
 -1      3474 6.76500E+01 3.44120E+01 0.00000E+00
 -1      3475 7.14000E+01 3.57110E+01 0.00000E+00
 -1      3476 7.29000E+01 3.57110E+01 0.00000E+00
 -1      3477 7.06500E+01 3.44120E+01 0.00000E+00
 -1      3478 7.44000E+01 3.57110E+01 0.00000E+00
 -1      3479 7.59000E+01 3.57110E+01 0.00000E+00
 -1      3480 7.36500E+01 3.44120E+01 0.00000E+00
 -1      3481 7.74000E+01 3.57110E+01 0.00000E+00
 -1      3482 7.89000E+01 3.57110E+01 0.00000E+00
 -1      3483 7.66500E+01 3.44120E+01 0.00000E+00
 -1      3484 1.07400E+02 3.59236E+01 0.00000E+00
 -1      3485 1.08900E+02 3.59236E+01 0.00000E+00
 -1      3486 1.10400E+02 3.59236E+01 0.00000E+00
 -1      3487 1.11900E+02 3.59236E+01 0.00000E+00
 -1      3488 1.09650E+02 3.46246E+01 0.00000E+00
 -1      3489 1.13400E+02 3.59236E+01 0.00000E+00
 -1      3490 1.14900E+02 3.59236E+01 0.00000E+00
 -1      3491 1.12650E+02 3.46246E+01 0.00000E+00
 -1      3492 1.16400E+02 3.59236E+01 0.00000E+00
 -1      3493 1.17900E+02 3.59236E+01 0.00000E+00
 -1      3494 1.15650E+02 3.46246E+01 0.00000E+00
 -1      3495 1.19400E+02 3.59236E+01 0.00000E+00
 -1      3496 1.20900E+02 3.59236E+01 0.00000E+00
 -1      3497 1.18650E+02 3.46246E+01 0.00000E+00
 -1      3498 1.22400E+02 3.59236E+01 0.00000E+00
 -1      3499 1.23900E+02 3.59236E+01 0.00000E+00
 -1      3500 1.21650E+02 3.46246E+01 0.00000E+00
 -1      3501 1.25400E+02 3.59236E+01 0.00000E+00
 -1      3502 1.26900E+02 3.59236E+01 0.00000E+00
 -1      3503 1.24650E+02 3.46246E+01 0.00000E+00
 -1      3504 1.28400E+02 3.59236E+01 0.00000E+00
 -1      3505 1.29900E+02 3.59236E+01 0.00000E+00
 -1      3506 1.27650E+02 3.46246E+01 0.00000E+00
 -1      3507 1.31400E+02 3.59236E+01 0.00000E+00
 -1      3508 1.32900E+02 3.59236E+01 0.00000E+00
 -1      3509 1.30650E+02 3.46246E+01 0.00000E+00
 -1      3510 4.22850E+01 1.30992E+01 0.00000E+00
 -1      3511 4.07850E+01 1.30992E+01 0.00000E+00
 -1      3512 5.12850E+01 1.30992E+01 0.00000E+00
 -1      3513 4.97850E+01 1.30992E+01 0.00000E+00
 -1      3514 5.42850E+01 1.30992E+01 0.00000E+00
 -1      3515 5.27850E+01 1.30992E+01 0.00000E+00
 -1      3516 5.20350E+01 1.43982E+01 0.00000E+00
 -1      3517 5.72850E+01 1.30992E+01 0.00000E+00
 -1      3518 5.57850E+01 1.30992E+01 0.00000E+00
 -1      3519 5.50350E+01 1.43982E+01 0.00000E+00
 -1      3520 6.02850E+01 1.30992E+01 0.00000E+00
 -1      3521 5.87850E+01 1.30992E+01 0.00000E+00
 -1      3522 5.80350E+01 1.43982E+01 0.00000E+00
 -1      3523 6.32850E+01 1.30992E+01 0.00000E+00
 -1      3524 6.17850E+01 1.30992E+01 0.00000E+00
 -1      3525 6.10350E+01 1.43982E+01 0.00000E+00
 -1      3526 6.62850E+01 1.30992E+01 0.00000E+00
 -1      3527 6.47850E+01 1.30992E+01 0.00000E+00
 -1      3528 6.40350E+01 1.43982E+01 0.00000E+00
 -1      3529 6.92850E+01 1.30992E+01 0.00000E+00
 -1      3530 6.77850E+01 1.30992E+01 0.00000E+00
 -1      3531 6.70350E+01 1.43982E+01 0.00000E+00
 -1      3532 7.22850E+01 1.30992E+01 0.00000E+00
 -1      3533 7.07850E+01 1.30992E+01 0.00000E+00
 -1      3534 7.00350E+01 1.43982E+01 0.00000E+00
 -1      3535 7.52850E+01 1.30992E+01 0.00000E+00
 -1      3536 7.37850E+01 1.30992E+01 0.00000E+00
 -1      3537 7.30350E+01 1.43982E+01 0.00000E+00
 -1      3538 7.82850E+01 1.30992E+01 0.00000E+00
 -1      3539 7.67850E+01 1.30992E+01 0.00000E+00
 -1      3540 7.60350E+01 1.43982E+01 0.00000E+00
 -1      3541 1.01800E+02 3.59321E+01 0.00000E+00
 -1      3542 1.03300E+02 3.58484E+01 0.00000E+00
 -1      3543 3.02850E+01 1.30992E+01 0.00000E+00
 -1      3544 2.87850E+01 1.30992E+01 0.00000E+00
 -1      3545 1.20285E+02 1.30992E+01 0.00000E+00
 -1      3546 1.18785E+02 1.30992E+01 0.00000E+00
 -1      3547 1.17285E+02 1.30992E+01 0.00000E+00
 -1      3548 1.15785E+02 1.30992E+01 0.00000E+00
 -1      3549 1.18035E+02 1.43982E+01 0.00000E+00
 -1      3550 1.14285E+02 1.30992E+01 0.00000E+00
 -1      3551 1.12785E+02 1.30992E+01 0.00000E+00
 -1      3552 1.15035E+02 1.43982E+01 0.00000E+00
 -1      3553 1.23285E+02 1.30992E+01 0.00000E+00
 -1      3554 1.21785E+02 1.30992E+01 0.00000E+00
 -1      3555 1.21035E+02 1.43982E+01 0.00000E+00
 -1      3556 1.26285E+02 1.30992E+01 0.00000E+00
 -1      3557 1.24785E+02 1.30992E+01 0.00000E+00
 -1      3558 1.24035E+02 1.43982E+01 0.00000E+00
 -1      3559 1.29285E+02 1.30992E+01 0.00000E+00
 -1      3560 1.27785E+02 1.30992E+01 0.00000E+00
 -1      3561 1.27035E+02 1.43982E+01 0.00000E+00
 -1      3562 1.32285E+02 1.30992E+01 0.00000E+00
 -1      3563 1.30785E+02 1.30992E+01 0.00000E+00
 -1      3564 1.30035E+02 1.43982E+01 0.00000E+00
 -1      3565 1.35285E+02 1.30992E+01 0.00000E+00
 -1      3566 1.33785E+02 1.30992E+01 0.00000E+00
 -1      3567 1.33035E+02 1.43982E+01 0.00000E+00
 -1      3568 8.75898E+01 3.56829E+01 0.00000E+00
 -1      3569 1.21485E+01 2.68497E+01 0.00000E+00
 -1      3570 1.21485E+01 2.83184E+01 0.00000E+00
 -1      3571 1.43625E+01 2.83866E+01 0.00000E+00
 -1      3572 1.34475E+01 2.61122E+01 0.00000E+00
 -1      3573 8.18463E+01 3.42242E+01 0.00000E+00
 -1      3574 8.08762E+01 3.32682E+01 0.00000E+00
 -1      3575 1.07723E+02 1.65569E+01 0.00000E+00
 -1      3576 1.07967E+02 1.76816E+01 0.00000E+00
 -1      3577 1.04124E+02 3.30104E+01 0.00000E+00
 -1      3578 1.04021E+02 3.40531E+01 0.00000E+00
 -1      3579 7.90860E+01 1.52340E+01 0.00000E+00
 -1      3580 7.96455E+01 1.39292E+01 0.00000E+00
 -1      3581 2.12850E+01 1.30992E+01 0.00000E+00
 -1      3582 1.97850E+01 1.30992E+01 0.00000E+00
 -1      3583 3.92850E+01 1.30992E+01 0.00000E+00
 -1      3584 3.77850E+01 1.30992E+01 0.00000E+00
 -1      3585 4.00350E+01 1.43982E+01 0.00000E+00
 -1      3586 7.81024E+01 2.04711E+01 0.00000E+00
 -1      3587 7.85336E+01 1.90212E+01 0.00000E+00
 -1      3588 1.35711E+02 3.30875E+01 0.00000E+00
 -1      3589 1.35711E+02 3.16125E+01 0.00000E+00
 -1      3590 1.11285E+02 1.30992E+01 0.00000E+00
 -1      3591 1.09785E+02 1.30992E+01 0.00000E+00
 -1      3592 1.12035E+02 1.43982E+01 0.00000E+00
 -1      3593 4.82850E+01 1.30992E+01 0.00000E+00
 -1      3594 4.67850E+01 1.30992E+01 0.00000E+00
 -1      3595 4.90350E+01 1.43982E+01 0.00000E+00
 -1      3596 9.42236E+01 8.01634E+00 0.00000E+00
 -1      3597 4.52850E+01 1.30992E+01 0.00000E+00
 -1      3598 4.37850E+01 1.30992E+01 0.00000E+00
 -1      3599 4.30350E+01 1.43982E+01 0.00000E+00
 -1      3600 4.60350E+01 1.43982E+01 0.00000E+00
 -1      3601 7.83574E+01 2.80194E+01 0.00000E+00
 -1      3602 7.82267E+01 2.72570E+01 0.00000E+00
 -1      3603 2.72850E+01 1.30992E+01 0.00000E+00
 -1      3604 2.57850E+01 1.30992E+01 0.00000E+00
 -1      3605 2.80350E+01 1.43982E+01 0.00000E+00
 -1      3606 1.03969E+02 1.17388E+01 0.00000E+00
 -1      3607 7.79706E+01 2.60089E+01 0.00000E+00
 -1      3608 7.77146E+01 2.47607E+01 0.00000E+00
 -1      3609 7.69430E+01 2.65773E+01 0.00000E+00
 -1      3610 1.09972E+02 2.26049E+01 0.00000E+00
 -1      3611 1.09658E+02 2.41523E+01 0.00000E+00
 -1      3612 1.05311E+02 3.20980E+01 0.00000E+00
 -1      3613 7.77782E+01 2.34087E+01 0.00000E+00
 -1      3614 7.78418E+01 2.20567E+01 0.00000E+00
 -1      3615 7.67505E+01 2.39772E+01 0.00000E+00
 -1      3616 2.42850E+01 1.30992E+01 0.00000E+00
 -1      3617 2.27850E+01 1.30992E+01 0.00000E+00
 -1      3618 2.20350E+01 1.43982E+01 0.00000E+00
 -1      3619 2.04000E+01 3.57110E+01 0.00000E+00
 -1      3620 2.19000E+01 3.57110E+01 0.00000E+00
 -1      3621 2.26500E+01 3.44120E+01 0.00000E+00
 -1      3622 1.38643E+02 1.48068E+01 0.00000E+00
 -1      3623 1.38709E+02 1.35665E+01 0.00000E+00
 -1      3624 1.37750E+02 1.33444E+01 0.00000E+00
 -1      3625 1.37344E+02 1.55443E+01 0.00000E+00
 -1      3626 7.85835E+01 1.77573E+01 0.00000E+00
 -1      3627 7.90361E+01 1.64979E+01 0.00000E+00
 -1      3628 7.74851E+01 1.56622E+01 0.00000E+00
 -1      3629 7.73853E+01 1.81900E+01 0.00000E+00
 -1      3630 1.04371E+02 3.54274E+01 0.00000E+00
 -1      3631 1.08308E+02 2.81839E+01 0.00000E+00
 -1      3632 1.08618E+02 2.92621E+01 0.00000E+00
 -1      3633 1.09349E+02 2.77345E+01 0.00000E+00
 -1      3634 1.46944E+01 1.23503E+01 0.00000E+00
 -1      3635 1.43081E+01 1.33498E+01 0.00000E+00
 -1      3636 1.60125E+01 1.25001E+01 0.00000E+00
 -1      3637 1.09970E+02 2.51276E+01 0.00000E+00
 -1      3638 1.10283E+02 2.61029E+01 0.00000E+00
 -1      3639 1.11214E+02 2.45743E+01 0.00000E+00
 -1      3640 9.84928E+01 9.66777E+00 0.00000E+00
 -1      3641 1.05871E+02 3.54274E+01 0.00000E+00
 -1      3642 1.06621E+02 3.41284E+01 0.00000E+00
 -1      3643 8.00870E+01 3.58028E+01 0.00000E+00
 -1      3644 8.15870E+01 3.58028E+01 0.00000E+00
 -1      3645 8.29093E+01 3.54313E+01 0.00000E+00
 -1      3646 8.44093E+01 3.54313E+01 0.00000E+00
 -1      3647 1.29900E+01 1.76125E+01 0.00000E+00
 -1      3648 9.61053E+01 3.75190E+01 0.00000E+00
 -1      3649 9.94787E+01 3.80300E+01 0.00000E+00
 -1      3650 1.00229E+02 3.69211E+01 0.00000E+00
 -1      3651 1.42890E+01 1.98219E+01 0.00000E+00
 -1      3652 1.42890E+01 2.12906E+01 0.00000E+00
 -1      3653 1.34022E+02 3.61629E+01 0.00000E+00
 -1      3654 1.35329E+02 3.62207E+01 0.00000E+00
 -1      3655 1.35515E+02 3.53424E+01 0.00000E+00
 -1      3656 1.33272E+02 3.48639E+01 0.00000E+00
 -1      3657 7.93370E+01 3.45038E+01 0.00000E+00
 -1      3658 1.35711E+02 3.01500E+01 0.00000E+00
 -1      3659 1.35711E+02 2.86875E+01 0.00000E+00
 -1      3660 1.34412E+02 3.08875E+01 0.00000E+00
 -1      3661 1.35711E+02 2.42875E+01 0.00000E+00
 -1      3662 1.35711E+02 2.28125E+01 0.00000E+00
 -1      3663 1.00734E+02 3.60442E+01 0.00000E+00
 -1      3664 1.09061E+02 1.84783E+01 0.00000E+00
 -1      3665 1.43081E+01 1.48185E+01 0.00000E+00
 -1      3666 7.70748E+01 2.10395E+01 0.00000E+00
 -1      3667 1.36791E+02 1.31223E+01 0.00000E+00
 -1      3668 1.35711E+02 2.13375E+01 0.00000E+00
 -1      3669 1.35711E+02 1.98625E+01 0.00000E+00
 -1      3670 1.34412E+02 2.20750E+01 0.00000E+00
 -1      3671 1.07536E+02 1.51641E+01 0.00000E+00
 -1      3672 1.08660E+02 1.55092E+01 0.00000E+00
 -1      3673 7.80268E+01 2.93312E+01 0.00000E+00
 -1      3674 1.90350E+01 1.43983E+01 0.00000E+00
 -1      3675 1.82850E+01 1.30993E+01 0.00000E+00
 -1      3676 3.70350E+01 1.43982E+01 0.00000E+00
 -1      3677 3.62850E+01 1.30992E+01 0.00000E+00
 -1      3678 3.47850E+01 1.30992E+01 0.00000E+00
 -1      3679 1.36041E+02 1.44213E+01 0.00000E+00
 -1      3680 1.82138E+01 3.50219E+01 0.00000E+00
 -1      3681 1.94212E+01 3.54247E+01 0.00000E+00
 -1      3682 2.01712E+01 3.41257E+01 0.00000E+00
 -1      3683 1.82138E+01 3.35532E+01 0.00000E+00
 -1      3684 1.09504E+02 1.42573E+01 0.00000E+00
 -1      3685 1.08754E+02 1.29583E+01 0.00000E+00
 -1      3686 1.60275E+01 3.13953E+01 0.00000E+00
 -1      3687 1.72350E+01 3.17981E+01 0.00000E+00
 -1      3688 1.60275E+01 2.99266E+01 0.00000E+00
 -1      3689 1.07254E+02 1.29583E+01 0.00000E+00
 -1      3690 3.32850E+01 1.30992E+01 0.00000E+00
 -1      3691 3.17850E+01 1.30992E+01 0.00000E+00
 -1      3692 3.40350E+01 1.43982E+01 0.00000E+00
 -1      3693 1.55880E+01 2.20313E+01 0.00000E+00
 -1      3694 1.42890E+01 2.27656E+01 0.00000E+00
 -1      3695 1.42890E+01 2.42406E+01 0.00000E+00
 -1      3696 7.96893E+01 3.27163E+01 0.00000E+00
 -1      3697 1.35777E+02 1.86222E+01 0.00000E+00
 -1      3698 1.35842E+02 1.73818E+01 0.00000E+00
 -1      3699 1.34478E+02 1.93597E+01 0.00000E+00
 -1      3700 1.10205E+02 2.10488E+01 0.00000E+00
 -1      3701 1.10088E+02 2.18269E+01 0.00000E+00
 -1      3702 1.11018E+02 2.28210E+01 0.00000E+00
 -1      3703 2.50350E+01 1.43982E+01 0.00000E+00
 -1      3704 1.69669E+01 1.29495E+01 0.00000E+00
 -1      3705 3.10350E+01 1.43982E+01 0.00000E+00
 -1      3706 1.06824E+02 1.35898E+01 0.00000E+00
 -1      3707 1.06697E+02 3.13660E+01 0.00000E+00
 -1      3708 1.06478E+02 3.29001E+01 0.00000E+00
 -1      3709 1.08007E+02 3.33964E+01 0.00000E+00
 -1      3710 1.07720E+02 3.09398E+01 0.00000E+00
 -1      3711 1.35711E+02 2.72188E+01 0.00000E+00
 -1      3712 1.35711E+02 2.57563E+01 0.00000E+00
 -1      3713 1.34412E+02 2.50187E+01 0.00000E+00
 -1      3714 1.34412E+02 2.79562E+01 0.00000E+00
 -1      3715 1.35702E+02 3.44641E+01 0.00000E+00
 -1      3716 1.34403E+02 3.37266E+01 0.00000E+00
 -1      3717 1.65807E+01 1.39489E+01 0.00000E+00
 -1      3718 1.33281E+02 3.34873E+01 0.00000E+00
 -1      3719 5.87850E+01 1.56973E+01 0.00000E+00
 -1      3720 5.72850E+01 1.56973E+01 0.00000E+00
 -1      3721 2.79000E+01 3.31130E+01 0.00000E+00
 -1      3722 2.94000E+01 3.31130E+01 0.00000E+00
 -1      3723 3.09000E+01 3.31130E+01 0.00000E+00
 -1      3724 3.24000E+01 3.31130E+01 0.00000E+00
 -1      3725 3.01500E+01 3.18140E+01 0.00000E+00
 -1      3726 3.39000E+01 3.31130E+01 0.00000E+00
 -1      3727 3.54000E+01 3.31130E+01 0.00000E+00
 -1      3728 3.31500E+01 3.18140E+01 0.00000E+00
 -1      3729 3.69000E+01 3.31130E+01 0.00000E+00
 -1      3730 3.84000E+01 3.31130E+01 0.00000E+00
 -1      3731 3.61500E+01 3.18140E+01 0.00000E+00
 -1      3732 3.99000E+01 3.31130E+01 0.00000E+00
 -1      3733 4.14000E+01 3.31130E+01 0.00000E+00
 -1      3734 3.91500E+01 3.18140E+01 0.00000E+00
 -1      3735 4.29000E+01 3.31130E+01 0.00000E+00
 -1      3736 4.44000E+01 3.31130E+01 0.00000E+00
 -1      3737 4.21500E+01 3.18140E+01 0.00000E+00
 -1      3738 4.59000E+01 3.31130E+01 0.00000E+00
 -1      3739 4.74000E+01 3.31130E+01 0.00000E+00
 -1      3740 4.51500E+01 3.18140E+01 0.00000E+00
 -1      3741 4.89000E+01 3.31130E+01 0.00000E+00
 -1      3742 5.04000E+01 3.31130E+01 0.00000E+00
 -1      3743 4.81500E+01 3.18140E+01 0.00000E+00
 -1      3744 5.19000E+01 3.31130E+01 0.00000E+00
 -1      3745 5.34000E+01 3.31130E+01 0.00000E+00
 -1      3746 5.11500E+01 3.18140E+01 0.00000E+00
 -1      3747 5.49000E+01 3.31130E+01 0.00000E+00
 -1      3748 5.64000E+01 3.31130E+01 0.00000E+00
 -1      3749 5.41500E+01 3.18140E+01 0.00000E+00
 -1      3750 5.79000E+01 3.31130E+01 0.00000E+00
 -1      3751 5.94000E+01 3.31130E+01 0.00000E+00
 -1      3752 5.71500E+01 3.18140E+01 0.00000E+00
 -1      3753 6.09000E+01 3.31130E+01 0.00000E+00
 -1      3754 6.24000E+01 3.31130E+01 0.00000E+00
 -1      3755 6.01500E+01 3.18140E+01 0.00000E+00
 -1      3756 6.39000E+01 3.31130E+01 0.00000E+00
 -1      3757 6.54000E+01 3.31130E+01 0.00000E+00
 -1      3758 6.31500E+01 3.18140E+01 0.00000E+00
 -1      3759 6.69000E+01 3.31130E+01 0.00000E+00
 -1      3760 6.84000E+01 3.31130E+01 0.00000E+00
 -1      3761 6.61500E+01 3.18140E+01 0.00000E+00
 -1      3762 6.99000E+01 3.31130E+01 0.00000E+00
 -1      3763 7.14000E+01 3.31130E+01 0.00000E+00
 -1      3764 6.91500E+01 3.18140E+01 0.00000E+00
 -1      3765 7.29000E+01 3.31130E+01 0.00000E+00
 -1      3766 7.44000E+01 3.31130E+01 0.00000E+00
 -1      3767 7.21500E+01 3.18140E+01 0.00000E+00
 -1      3768 8.57504E+01 3.62120E+01 0.00000E+00
 -1      3769 1.42890E+01 1.68719E+01 0.00000E+00
 -1      3770 1.42890E+01 1.83469E+01 0.00000E+00
 -1      3771 1.55880E+01 1.90812E+01 0.00000E+00
 -1      3772 1.05605E+02 1.24317E+01 0.00000E+00
 -1      3773 1.11900E+02 3.33256E+01 0.00000E+00
 -1      3774 1.13400E+02 3.33256E+01 0.00000E+00
 -1      3775 1.14900E+02 3.33256E+01 0.00000E+00
 -1      3776 1.16400E+02 3.33256E+01 0.00000E+00
 -1      3777 1.14150E+02 3.20266E+01 0.00000E+00
 -1      3778 1.17900E+02 3.33256E+01 0.00000E+00
 -1      3779 1.19400E+02 3.33256E+01 0.00000E+00
 -1      3780 1.17150E+02 3.20266E+01 0.00000E+00
 -1      3781 1.20900E+02 3.33256E+01 0.00000E+00
 -1      3782 1.22400E+02 3.33256E+01 0.00000E+00
 -1      3783 1.20150E+02 3.20266E+01 0.00000E+00
 -1      3784 1.23900E+02 3.33256E+01 0.00000E+00
 -1      3785 1.25400E+02 3.33256E+01 0.00000E+00
 -1      3786 1.23150E+02 3.20266E+01 0.00000E+00
 -1      3787 1.26900E+02 3.33256E+01 0.00000E+00
 -1      3788 1.28400E+02 3.33256E+01 0.00000E+00
 -1      3789 1.26150E+02 3.20266E+01 0.00000E+00
 -1      3790 1.29900E+02 3.33256E+01 0.00000E+00
 -1      3791 1.31400E+02 3.33256E+01 0.00000E+00
 -1      3792 1.29150E+02 3.20266E+01 0.00000E+00
 -1      3793 1.32531E+02 3.21883E+01 0.00000E+00
 -1      3794 5.27850E+01 1.56973E+01 0.00000E+00
 -1      3795 5.12850E+01 1.56973E+01 0.00000E+00
 -1      3796 6.17850E+01 1.56973E+01 0.00000E+00
 -1      3797 6.02850E+01 1.56973E+01 0.00000E+00
 -1      3798 5.95350E+01 1.69963E+01 0.00000E+00
 -1      3799 6.47850E+01 1.56973E+01 0.00000E+00
 -1      3800 6.32850E+01 1.56973E+01 0.00000E+00
 -1      3801 6.25350E+01 1.69963E+01 0.00000E+00
 -1      3802 6.77850E+01 1.56973E+01 0.00000E+00
 -1      3803 6.62850E+01 1.56973E+01 0.00000E+00
 -1      3804 6.55350E+01 1.69963E+01 0.00000E+00
 -1      3805 7.07850E+01 1.56973E+01 0.00000E+00
 -1      3806 6.92850E+01 1.56973E+01 0.00000E+00
 -1      3807 6.85350E+01 1.69963E+01 0.00000E+00
 -1      3808 7.37850E+01 1.56973E+01 0.00000E+00
 -1      3809 7.22850E+01 1.56973E+01 0.00000E+00
 -1      3810 7.15350E+01 1.69963E+01 0.00000E+00
 -1      3811 7.59851E+01 1.56622E+01 0.00000E+00
 -1      3812 7.85023E+01 3.26245E+01 0.00000E+00
 -1      3813 1.21785E+02 1.56973E+01 0.00000E+00
 -1      3814 1.20285E+02 1.56973E+01 0.00000E+00
 -1      3815 1.15785E+02 1.56973E+01 0.00000E+00
 -1      3816 1.14285E+02 1.56973E+01 0.00000E+00
 -1      3817 1.27785E+02 1.56973E+01 0.00000E+00
 -1      3818 1.26285E+02 1.56973E+01 0.00000E+00
 -1      3819 1.30785E+02 1.56973E+01 0.00000E+00
 -1      3820 1.29285E+02 1.56973E+01 0.00000E+00
 -1      3821 1.28535E+02 1.69963E+01 0.00000E+00
 -1      3822 1.33113E+02 2.28125E+01 0.00000E+00
 -1      3823 1.33113E+02 2.13375E+01 0.00000E+00
 -1      3824 7.73024E+01 3.07099E+01 0.00000E+00
 -1      3825 7.64746E+01 2.92041E+01 0.00000E+00
 -1      3826 1.56071E+01 1.55529E+01 0.00000E+00
 -1      3827 1.97850E+01 1.56973E+01 0.00000E+00
 -1      3828 1.82851E+01 1.56973E+01 0.00000E+00
 -1      3829 1.10136E+02 1.75298E+01 0.00000E+00
 -1      3830 1.10350E+02 1.91062E+01 0.00000E+00
 -1      3831 3.17850E+01 1.56973E+01 0.00000E+00
 -1      3832 3.02850E+01 1.56973E+01 0.00000E+00
 -1      3833 5.57850E+01 1.56973E+01 0.00000E+00
 -1      3834 5.42850E+01 1.56973E+01 0.00000E+00
 -1      3835 5.65350E+01 1.69963E+01 0.00000E+00
 -1      3836 1.35838E+02 1.55213E+01 0.00000E+00
 -1      3837 1.09691E+02 1.56501E+01 0.00000E+00
 -1      3838 4.97850E+01 1.56973E+01 0.00000E+00
 -1      3839 4.82850E+01 1.56973E+01 0.00000E+00
 -1      3840 5.05350E+01 1.69963E+01 0.00000E+00
 -1      3841 1.65615E+01 1.60023E+01 0.00000E+00
 -1      3842 2.87850E+01 1.56973E+01 0.00000E+00
 -1      3843 2.72850E+01 1.56973E+01 0.00000E+00
 -1      3844 2.95350E+01 1.69963E+01 0.00000E+00
 -1      3845 4.07850E+01 1.56973E+01 0.00000E+00
 -1      3846 3.92850E+01 1.56973E+01 0.00000E+00
 -1      3847 2.19000E+01 3.31130E+01 0.00000E+00
 -1      3848 2.34000E+01 3.31130E+01 0.00000E+00
 -1      3849 7.59027E+01 2.74411E+01 0.00000E+00
 -1      3850 7.56466E+01 2.61930E+01 0.00000E+00
 -1      3851 2.57850E+01 1.56973E+01 0.00000E+00
 -1      3852 2.42850E+01 1.56973E+01 0.00000E+00
 -1      3853 2.65350E+01 1.69963E+01 0.00000E+00
 -1      3854 1.18785E+02 1.56973E+01 0.00000E+00
 -1      3855 1.17285E+02 1.56973E+01 0.00000E+00
 -1      3856 1.19535E+02 1.69963E+01 0.00000E+00
 -1      3857 7.57675E+01 2.16389E+01 0.00000E+00
 -1      3858 7.60282E+01 2.00532E+01 0.00000E+00
 -1      3859 2.27850E+01 1.56973E+01 0.00000E+00
 -1      3860 2.12850E+01 1.56973E+01 0.00000E+00
 -1      3861 2.05350E+01 1.69963E+01 0.00000E+00
 -1      3862 2.35350E+01 1.69963E+01 0.00000E+00
 -1      3863 7.56947E+01 2.46050E+01 0.00000E+00
 -1      3864 7.57583E+01 2.32530E+01 0.00000E+00
 -1      3865 1.10980E+02 1.62780E+01 0.00000E+00
 -1      3866 1.09203E+02 3.33610E+01 0.00000E+00
 -1      3867 1.10703E+02 3.33610E+01 0.00000E+00
 -1      3868 1.11453E+02 3.20620E+01 0.00000E+00
 -1      3869 1.09060E+02 3.21327E+01 0.00000E+00
 -1      3870 2.49000E+01 3.31130E+01 0.00000E+00
 -1      3871 2.64000E+01 3.31130E+01 0.00000E+00
 -1      3872 2.41500E+01 3.18140E+01 0.00000E+00
 -1      3873 1.24785E+02 1.56973E+01 0.00000E+00
 -1      3874 1.23285E+02 1.56973E+01 0.00000E+00
 -1      3875 1.22535E+02 1.69963E+01 0.00000E+00
 -1      3876 1.25535E+02 1.69963E+01 0.00000E+00
 -1      3877 7.69501E+01 3.24974E+01 0.00000E+00
 -1      3878 1.34539E+02 1.62588E+01 0.00000E+00
 -1      3879 1.12256E+02 2.26084E+01 0.00000E+00
 -1      3880 1.12139E+02 2.33865E+01 0.00000E+00
 -1      3881 1.12452E+02 2.43617E+01 0.00000E+00
 -1      3882 1.32531E+02 3.07258E+01 0.00000E+00
 -1      3883 1.31880E+02 2.08347E+01 0.00000E+00
 -1      3884 1.33179E+02 2.00972E+01 0.00000E+00
 -1      3885 1.33244E+02 1.88568E+01 0.00000E+00
 -1      3886 7.47001E+01 3.11984E+01 0.00000E+00
 -1      3887 7.54501E+01 3.24974E+01 0.00000E+00
 -1      3888 1.73115E+01 1.73013E+01 0.00000E+00
 -1      3889 5.35350E+01 1.69963E+01 0.00000E+00
 -1      3890 2.71500E+01 3.18140E+01 0.00000E+00
 -1      3891 7.52351E+01 1.69612E+01 0.00000E+00
 -1      3892 1.10593E+02 2.71812E+01 0.00000E+00
 -1      3893 1.10903E+02 2.82594E+01 0.00000E+00
 -1      3894 1.11837E+02 2.66278E+01 0.00000E+00
 -1      3895 1.13230E+02 1.75770E+01 0.00000E+00
 -1      3896 1.12480E+02 1.62780E+01 0.00000E+00
 -1      3897 3.32850E+01 1.56973E+01 0.00000E+00
 -1      3898 3.25350E+01 1.69963E+01 0.00000E+00
 -1      3899 3.47850E+01 1.56973E+01 0.00000E+00
 -1      3900 1.33785E+02 1.56973E+01 0.00000E+00
 -1      3901 1.32285E+02 1.56973E+01 0.00000E+00
 -1      3902 1.99425E+01 3.25404E+01 0.00000E+00
 -1      3903 2.09212E+01 3.28267E+01 0.00000E+00
 -1      3904 2.16712E+01 3.15277E+01 0.00000E+00
 -1      3905 3.77850E+01 1.56973E+01 0.00000E+00
 -1      3906 3.62850E+01 1.56973E+01 0.00000E+00
 -1      3907 3.85350E+01 1.69963E+01 0.00000E+00
 -1      3908 7.51782E+01 2.88198E+01 0.00000E+00
 -1      3909 1.47465E+01 2.53778E+01 0.00000E+00
 -1      3910 1.52040E+01 2.65150E+01 0.00000E+00
 -1      3911 1.60455E+01 2.46434E+01 0.00000E+00
 -1      3912 1.16535E+02 1.69963E+01 0.00000E+00
 -1      3913 7.46544E+01 2.54688E+01 0.00000E+00
 -1      3914 1.11280E+02 2.01003E+01 0.00000E+00
 -1      3915 1.80994E+01 3.20261E+01 0.00000E+00
 -1      3916 1.90781E+01 3.23124E+01 0.00000E+00
 -1      3917 1.98281E+01 3.10134E+01 0.00000E+00
 -1      3918 1.80994E+01 3.05574E+01 0.00000E+00
 -1      3919 1.31535E+02 1.69963E+01 0.00000E+00
 -1      3920 4.37850E+01 1.56973E+01 0.00000E+00
 -1      3921 4.22850E+01 1.56973E+01 0.00000E+00
 -1      3922 4.15350E+01 1.69963E+01 0.00000E+00
 -1      3923 4.67850E+01 1.56973E+01 0.00000E+00
 -1      3924 4.52850E+01 1.56973E+01 0.00000E+00
 -1      3925 4.45350E+01 1.69963E+01 0.00000E+00
 -1      3926 4.75350E+01 1.69963E+01 0.00000E+00
 -1      3927 1.73115E+01 1.87763E+01 0.00000E+00
 -1      3928 1.73115E+01 2.02513E+01 0.00000E+00
 -1      3929 1.90351E+01 1.84713E+01 0.00000E+00
 -1      3930 1.73115E+01 2.17263E+01 0.00000E+00
 -1      3931 1.73115E+01 2.32013E+01 0.00000E+00
 -1      3932 1.90351E+01 2.14213E+01 0.00000E+00
 -1      3933 1.33113E+02 2.42813E+01 0.00000E+00
 -1      3934 1.31814E+02 2.35438E+01 0.00000E+00
 -1      3935 1.33113E+02 2.57500E+01 0.00000E+00
 -1      3936 7.47117E+01 2.22667E+01 0.00000E+00
 -1      3937 1.08768E+02 3.00833E+01 0.00000E+00
 -1      3938 1.08911E+02 3.13116E+01 0.00000E+00
 -1      3939 1.10107E+02 3.12762E+01 0.00000E+00
 -1      3940 1.09809E+02 2.96339E+01 0.00000E+00
 -1      3941 1.53870E+01 2.76522E+01 0.00000E+00
 -1      3942 1.58445E+01 2.87894E+01 0.00000E+00
 -1      3943 1.70520E+01 2.91922E+01 0.00000E+00
 -1      3944 1.66860E+01 2.69178E+01 0.00000E+00
 -1      3945 1.13939E+02 2.45661E+01 0.00000E+00
 -1      3946 1.13014E+02 2.57539E+01 0.00000E+00
 -1      3947 2.94000E+01 3.05150E+01 0.00000E+00
 -1      3948 3.09000E+01 3.05150E+01 0.00000E+00
 -1      3949 6.32850E+01 1.82952E+01 0.00000E+00
 -1      3950 6.17850E+01 1.82952E+01 0.00000E+00
 -1      3951 7.31391E+01 3.06247E+01 0.00000E+00
 -1      3952 7.41891E+01 3.00091E+01 0.00000E+00
 -1      3953 7.36172E+01 2.82461E+01 0.00000E+00
 -1      3954 7.16391E+01 3.06247E+01 0.00000E+00
 -1      3955 3.24000E+01 3.05150E+01 0.00000E+00
 -1      3956 3.39000E+01 3.05150E+01 0.00000E+00
 -1      3957 3.16500E+01 2.92160E+01 0.00000E+00
 -1      3958 3.54000E+01 3.05150E+01 0.00000E+00
 -1      3959 3.69000E+01 3.05150E+01 0.00000E+00
 -1      3960 3.46500E+01 2.92160E+01 0.00000E+00
 -1      3961 3.84000E+01 3.05150E+01 0.00000E+00
 -1      3962 3.99000E+01 3.05150E+01 0.00000E+00
 -1      3963 3.76500E+01 2.92160E+01 0.00000E+00
 -1      3964 4.14000E+01 3.05150E+01 0.00000E+00
 -1      3965 4.29000E+01 3.05150E+01 0.00000E+00
 -1      3966 4.06500E+01 2.92160E+01 0.00000E+00
 -1      3967 4.44000E+01 3.05150E+01 0.00000E+00
 -1      3968 4.59000E+01 3.05150E+01 0.00000E+00
 -1      3969 4.36500E+01 2.92160E+01 0.00000E+00
 -1      3970 4.74000E+01 3.05150E+01 0.00000E+00
 -1      3971 4.89000E+01 3.05150E+01 0.00000E+00
 -1      3972 4.66500E+01 2.92160E+01 0.00000E+00
 -1      3973 5.04000E+01 3.05150E+01 0.00000E+00
 -1      3974 5.19000E+01 3.05150E+01 0.00000E+00
 -1      3975 4.96500E+01 2.92160E+01 0.00000E+00
 -1      3976 5.34000E+01 3.05150E+01 0.00000E+00
 -1      3977 5.49000E+01 3.05150E+01 0.00000E+00
 -1      3978 5.26500E+01 2.92160E+01 0.00000E+00
 -1      3979 5.64000E+01 3.05150E+01 0.00000E+00
 -1      3980 5.79000E+01 3.05150E+01 0.00000E+00
 -1      3981 5.56500E+01 2.92160E+01 0.00000E+00
 -1      3982 5.94000E+01 3.05150E+01 0.00000E+00
 -1      3983 6.09000E+01 3.05150E+01 0.00000E+00
 -1      3984 5.86500E+01 2.92160E+01 0.00000E+00
 -1      3985 6.24000E+01 3.05150E+01 0.00000E+00
 -1      3986 6.39000E+01 3.05150E+01 0.00000E+00
 -1      3987 6.16500E+01 2.92160E+01 0.00000E+00
 -1      3988 6.54000E+01 3.05150E+01 0.00000E+00
 -1      3989 6.69000E+01 3.05150E+01 0.00000E+00
 -1      3990 6.46500E+01 2.92160E+01 0.00000E+00
 -1      3991 6.84000E+01 3.05150E+01 0.00000E+00
 -1      3992 6.99000E+01 3.05150E+01 0.00000E+00
 -1      3993 6.76500E+01 2.92160E+01 0.00000E+00
 -1      3994 1.13400E+02 3.07276E+01 0.00000E+00
 -1      3995 1.14900E+02 3.07276E+01 0.00000E+00
 -1      3996 2.34000E+01 3.05150E+01 0.00000E+00
 -1      3997 2.49000E+01 3.05150E+01 0.00000E+00
 -1      3998 1.16400E+02 3.07276E+01 0.00000E+00
 -1      3999 1.17900E+02 3.07276E+01 0.00000E+00
 -1      4000 1.15650E+02 2.94286E+01 0.00000E+00
 -1      4001 1.19400E+02 3.07276E+01 0.00000E+00
 -1      4002 1.20900E+02 3.07276E+01 0.00000E+00
 -1      4003 1.18650E+02 2.94286E+01 0.00000E+00
 -1      4004 1.22400E+02 3.07276E+01 0.00000E+00
 -1      4005 1.23900E+02 3.07276E+01 0.00000E+00
 -1      4006 1.21650E+02 2.94286E+01 0.00000E+00
 -1      4007 1.25400E+02 3.07276E+01 0.00000E+00
 -1      4008 1.26900E+02 3.07276E+01 0.00000E+00
 -1      4009 1.24650E+02 2.94286E+01 0.00000E+00
 -1      4010 1.28400E+02 3.07276E+01 0.00000E+00
 -1      4011 1.29900E+02 3.07276E+01 0.00000E+00
 -1      4012 1.27650E+02 2.94286E+01 0.00000E+00
 -1      4013 6.62850E+01 1.82952E+01 0.00000E+00
 -1      4014 6.47850E+01 1.82952E+01 0.00000E+00
 -1      4015 6.40350E+01 1.95942E+01 0.00000E+00
 -1      4016 6.02850E+01 1.82952E+01 0.00000E+00
 -1      4017 5.87850E+01 1.82952E+01 0.00000E+00
 -1      4018 6.10350E+01 1.95942E+01 0.00000E+00
 -1      4019 6.92850E+01 1.82952E+01 0.00000E+00
 -1      4020 6.77850E+01 1.82952E+01 0.00000E+00
 -1      4021 6.70350E+01 1.95942E+01 0.00000E+00
 -1      4022 7.22850E+01 1.82952E+01 0.00000E+00
 -1      4023 7.07850E+01 1.82952E+01 0.00000E+00
 -1      4024 7.00350E+01 1.95942E+01 0.00000E+00
 -1      4025 5.72850E+01 1.82952E+01 0.00000E+00
 -1      4026 5.57850E+01 1.82952E+01 0.00000E+00
 -1      4027 5.80350E+01 1.95942E+01 0.00000E+00
 -1      4028 1.29285E+02 1.82952E+01 0.00000E+00
 -1      4029 1.27785E+02 1.82952E+01 0.00000E+00
 -1      4030 1.33789E+02 1.75578E+01 0.00000E+00
 -1      4031 7.51852E+01 1.82251E+01 0.00000E+00
 -1      4032 2.64000E+01 3.05150E+01 0.00000E+00
 -1      4033 2.79000E+01 3.05150E+01 0.00000E+00
 -1      4034 2.56500E+01 2.92160E+01 0.00000E+00
 -1      4035 1.17285E+02 1.82952E+01 0.00000E+00
 -1      4036 1.15785E+02 1.82952E+01 0.00000E+00
 -1      4037 5.12850E+01 1.82952E+01 0.00000E+00
 -1      4038 4.97850E+01 1.82952E+01 0.00000E+00
 -1      4039 2.05350E+01 1.84713E+01 0.00000E+00
 -1      4040 3.02850E+01 1.82952E+01 0.00000E+00
 -1      4041 2.87850E+01 1.82952E+01 0.00000E+00
 -1      4042 5.42850E+01 1.82952E+01 0.00000E+00
 -1      4043 5.27850E+01 1.82952E+01 0.00000E+00
 -1      4044 5.50350E+01 1.95942E+01 0.00000E+00
 -1      4045 1.31215E+02 2.99924E+01 0.00000E+00
 -1      4046 1.33096E+02 2.86915E+01 0.00000E+00
 -1      4047 1.33096E+02 2.72228E+01 0.00000E+00
 -1      4048 1.30465E+02 2.86934E+01 0.00000E+00
 -1      4049 1.20285E+02 1.82952E+01 0.00000E+00
 -1      4050 1.18785E+02 1.82952E+01 0.00000E+00
 -1      4051 1.18035E+02 1.95942E+01 0.00000E+00
 -1      4052 7.34382E+01 2.62267E+01 0.00000E+00
 -1      4053 7.34863E+01 2.46387E+01 0.00000E+00
 -1      4054 7.35982E+01 2.30674E+01 0.00000E+00
 -1      4055 7.36075E+01 2.14533E+01 0.00000E+00
 -1      4056 7.38780E+01 1.88244E+01 0.00000E+00
 -1      4057 2.72850E+01 1.82952E+01 0.00000E+00
 -1      4058 2.57850E+01 1.82952E+01 0.00000E+00
 -1      4059 2.80350E+01 1.95942E+01 0.00000E+00
 -1      4060 1.32490E+02 1.82953E+01 0.00000E+00
 -1      4061 7.31280E+01 2.01234E+01 0.00000E+00
 -1      4062 7.24491E+01 2.74160E+01 0.00000E+00
 -1      4063 2.24212E+01 3.02287E+01 0.00000E+00
 -1      4064 2.31712E+01 2.89297E+01 0.00000E+00
 -1      4065 2.14425E+01 2.99424E+01 0.00000E+00
 -1      4066 7.08891E+01 2.93257E+01 0.00000E+00
 -1      4067 7.20145E+01 2.09241E+01 0.00000E+00
 -1      4068 3.32850E+01 1.82952E+01 0.00000E+00
 -1      4069 3.17850E+01 1.82952E+01 0.00000E+00
 -1      4070 3.10350E+01 1.95942E+01 0.00000E+00
 -1      4071 1.31798E+02 2.64853E+01 0.00000E+00
 -1      4072 1.13324E+02 2.68322E+01 0.00000E+00
 -1      4073 1.30990E+02 1.82953E+01 0.00000E+00
 -1      4074 1.30240E+02 1.95943E+01 0.00000E+00
 -1      4075 1.14530E+02 1.85232E+01 0.00000E+00
 -1      4076 1.12725E+02 1.91039E+01 0.00000E+00
 -1      4077 1.12580E+02 2.10466E+01 0.00000E+00
 -1      4078 1.13701E+02 2.16120E+01 0.00000E+00
 -1      4079 1.11155E+02 3.10196E+01 0.00000E+00
 -1      4080 1.12352E+02 3.09842E+01 0.00000E+00
 -1      4081 1.13102E+02 2.96852E+01 0.00000E+00
 -1      4082 1.11006E+02 3.01984E+01 0.00000E+00
 -1      4083 5.20350E+01 1.95942E+01 0.00000E+00
 -1      4084 2.50350E+01 1.95943E+01 0.00000E+00
 -1      4085 2.42850E+01 1.82953E+01 0.00000E+00
 -1      4086 2.27850E+01 1.82953E+01 0.00000E+00
 -1      4087 3.92850E+01 1.82952E+01 0.00000E+00
 -1      4088 3.77850E+01 1.82952E+01 0.00000E+00
 -1      4089 1.77690E+01 2.43384E+01 0.00000E+00
 -1      4090 2.86500E+01 2.92160E+01 0.00000E+00
 -1      4091 1.77334E+01 2.82830E+01 0.00000E+00
 -1      4092 1.79164E+01 2.94202E+01 0.00000E+00
 -1      4093 1.87808E+01 2.96482E+01 0.00000E+00
 -1      4094 7.23820E+01 2.38253E+01 0.00000E+00
 -1      4095 3.55350E+01 1.69963E+01 0.00000E+00
 -1      4096 4.90350E+01 1.95942E+01 0.00000E+00
 -1      4097 4.82850E+01 1.82952E+01 0.00000E+00
 -1      4098 4.67850E+01 1.82952E+01 0.00000E+00
 -1      4099 1.14863E+02 2.33836E+01 0.00000E+00
 -1      4100 1.15425E+02 2.47758E+01 0.00000E+00
 -1      4101 2.12850E+01 1.97703E+01 0.00000E+00
 -1      4102 1.23285E+02 1.82952E+01 0.00000E+00
 -1      4103 1.21785E+02 1.82952E+01 0.00000E+00
 -1      4104 1.21035E+02 1.95942E+01 0.00000E+00
 -1      4105 1.10857E+02 2.93773E+01 0.00000E+00
 -1      4106 1.27035E+02 1.95942E+01 0.00000E+00
 -1      4107 1.26285E+02 1.82952E+01 0.00000E+00
 -1      4108 1.24785E+02 1.82952E+01 0.00000E+00
 -1      4109 2.12850E+01 2.12453E+01 0.00000E+00
 -1      4110 2.12850E+01 2.27203E+01 0.00000E+00
 -1      4111 2.35350E+01 2.10693E+01 0.00000E+00
 -1      4112 1.30515E+02 2.42781E+01 0.00000E+00
 -1      4113 1.30515E+02 2.28094E+01 0.00000E+00
 -1      4114 4.22850E+01 1.82952E+01 0.00000E+00
 -1      4115 4.07850E+01 1.82952E+01 0.00000E+00
 -1      4116 4.00350E+01 1.95942E+01 0.00000E+00
 -1      4117 1.12100E+02 2.88240E+01 0.00000E+00
 -1      4118 1.15280E+02 1.98222E+01 0.00000E+00
 -1      4119 1.15187E+02 2.18217E+01 0.00000E+00
 -1      4120 6.47850E+01 2.08932E+01 0.00000E+00
 -1      4121 6.32850E+01 2.08932E+01 0.00000E+00
 -1      4122 6.77850E+01 2.08932E+01 0.00000E+00
 -1      4123 6.62850E+01 2.08932E+01 0.00000E+00
 -1      4124 6.55350E+01 2.21922E+01 0.00000E+00
 -1      4125 1.30174E+02 2.08346E+01 0.00000E+00
 -1      4126 3.39000E+01 2.79170E+01 0.00000E+00
 -1      4127 3.54000E+01 2.79170E+01 0.00000E+00
 -1      4128 3.69000E+01 2.79170E+01 0.00000E+00
 -1      4129 3.84000E+01 2.79170E+01 0.00000E+00
 -1      4130 3.61500E+01 2.66180E+01 0.00000E+00
 -1      4131 3.99000E+01 2.79170E+01 0.00000E+00
 -1      4132 4.14000E+01 2.79170E+01 0.00000E+00
 -1      4133 3.91500E+01 2.66180E+01 0.00000E+00
 -1      4134 4.29000E+01 2.79170E+01 0.00000E+00
 -1      4135 4.44000E+01 2.79170E+01 0.00000E+00
 -1      4136 4.21500E+01 2.66180E+01 0.00000E+00
 -1      4137 4.59000E+01 2.79170E+01 0.00000E+00
 -1      4138 4.74000E+01 2.79170E+01 0.00000E+00
 -1      4139 4.51500E+01 2.66180E+01 0.00000E+00
 -1      4140 4.89000E+01 2.79170E+01 0.00000E+00
 -1      4141 5.04000E+01 2.79170E+01 0.00000E+00
 -1      4142 4.81500E+01 2.66180E+01 0.00000E+00
 -1      4143 5.19000E+01 2.79170E+01 0.00000E+00
 -1      4144 5.34000E+01 2.79170E+01 0.00000E+00
 -1      4145 5.11500E+01 2.66180E+01 0.00000E+00
 -1      4146 5.49000E+01 2.79170E+01 0.00000E+00
 -1      4147 5.64000E+01 2.79170E+01 0.00000E+00
 -1      4148 5.41500E+01 2.66180E+01 0.00000E+00
 -1      4149 5.79000E+01 2.79170E+01 0.00000E+00
 -1      4150 5.94000E+01 2.79170E+01 0.00000E+00
 -1      4151 5.71500E+01 2.66180E+01 0.00000E+00
 -1      4152 6.09000E+01 2.79170E+01 0.00000E+00
 -1      4153 6.24000E+01 2.79170E+01 0.00000E+00
 -1      4154 6.01500E+01 2.66180E+01 0.00000E+00
 -1      4155 6.39000E+01 2.79170E+01 0.00000E+00
 -1      4156 6.54000E+01 2.79170E+01 0.00000E+00
 -1      4157 6.31500E+01 2.66180E+01 0.00000E+00
 -1      4158 6.69000E+01 2.79170E+01 0.00000E+00
 -1      4159 6.84000E+01 2.79170E+01 0.00000E+00
 -1      4160 6.61500E+01 2.66180E+01 0.00000E+00
 -1      4161 1.16442E+02 2.15938E+01 0.00000E+00
 -1      4162 1.19442E+02 2.15938E+01 0.00000E+00
 -1      4163 1.17942E+02 2.15938E+01 0.00000E+00
 -1      4164 1.17848E+02 2.35934E+01 0.00000E+00
 -1      4165 1.17900E+02 2.81296E+01 0.00000E+00
 -1      4166 1.19400E+02 2.81296E+01 0.00000E+00
 -1      4167 1.20900E+02 2.81296E+01 0.00000E+00
 -1      4168 1.22400E+02 2.81296E+01 0.00000E+00
 -1      4169 1.20150E+02 2.68306E+01 0.00000E+00
 -1      4170 1.23900E+02 2.81296E+01 0.00000E+00
 -1      4171 1.25400E+02 2.81296E+01 0.00000E+00
 -1      4172 1.23150E+02 2.68306E+01 0.00000E+00
 -1      4173 1.26900E+02 2.81296E+01 0.00000E+00
 -1      4174 1.28400E+02 2.81296E+01 0.00000E+00
 -1      4175 1.26150E+02 2.68306E+01 0.00000E+00
 -1      4176 7.06497E+01 2.09087E+01 0.00000E+00
 -1      4177 6.91497E+01 2.09087E+01 0.00000E+00
 -1      4178 6.83997E+01 2.22077E+01 0.00000E+00
 -1      4179 7.11292E+01 2.22386E+01 0.00000E+00
 -1      4180 6.17850E+01 2.08932E+01 0.00000E+00
 -1      4181 6.02850E+01 2.08932E+01 0.00000E+00
 -1      4182 6.25350E+01 2.21922E+01 0.00000E+00
 -1      4183 7.07100E+01 2.73063E+01 0.00000E+00
 -1      4184 5.87850E+01 2.08932E+01 0.00000E+00
 -1      4185 5.72850E+01 2.08932E+01 0.00000E+00
 -1      4186 5.95350E+01 2.21922E+01 0.00000E+00
 -1      4187 1.28876E+02 2.15690E+01 0.00000E+00
 -1      4188 1.13148E+02 2.85674E+01 0.00000E+00
 -1      4189 5.57850E+01 2.08932E+01 0.00000E+00
 -1      4190 5.42850E+01 2.08932E+01 0.00000E+00
 -1      4191 5.65350E+01 2.21922E+01 0.00000E+00
 -1      4192 2.50350E+01 2.10693E+01 0.00000E+00
 -1      4193 1.93783E+01 2.44743E+01 0.00000E+00
 -1      4194 1.81122E+01 2.59165E+01 0.00000E+00
 -1      4195 2.49000E+01 2.79170E+01 0.00000E+00
 -1      4196 2.64000E+01 2.79170E+01 0.00000E+00
 -1      4197 7.10173E+01 2.38098E+01 0.00000E+00
 -1      4198 3.09000E+01 2.79170E+01 0.00000E+00
 -1      4199 3.24000E+01 2.79170E+01 0.00000E+00
 -1      4200 3.31500E+01 2.66180E+01 0.00000E+00
 -1      4201 6.99600E+01 2.60073E+01 0.00000E+00
 -1      4202 1.14326E+02 2.76935E+01 0.00000E+00
 -1      4203 1.17499E+02 2.52120E+01 0.00000E+00
 -1      4204 1.16576E+02 2.63945E+01 0.00000E+00
 -1      4205 1.15826E+02 2.76935E+01 0.00000E+00
 -1      4206 4.52850E+01 1.82952E+01 0.00000E+00
 -1      4207 4.37850E+01 1.82952E+01 0.00000E+00
 -1      4208 4.60350E+01 1.95942E+01 0.00000E+00
 -1      4209 1.29441E+02 2.76751E+01 0.00000E+00
 -1      4210 1.30757E+02 2.69398E+01 0.00000E+00
 -1      4211 1.30773E+02 2.54670E+01 0.00000E+00
 -1      4212 1.28691E+02 2.63761E+01 0.00000E+00
 -1      4213 1.96794E+01 2.96813E+01 0.00000E+00
 -1      4214 2.05438E+01 2.99093E+01 0.00000E+00
 -1      4215 2.12938E+01 2.86103E+01 0.00000E+00
 -1      4216 1.94964E+01 2.85441E+01 0.00000E+00
 -1      4217 3.62850E+01 1.82952E+01 0.00000E+00
 -1      4218 3.47850E+01 1.82952E+01 0.00000E+00
 -1      4219 3.40350E+01 1.95942E+01 0.00000E+00
 -1      4220 3.70350E+01 1.95942E+01 0.00000E+00
 -1      4221 5.27850E+01 2.08932E+01 0.00000E+00
 -1      4222 5.12850E+01 2.08932E+01 0.00000E+00
 -1      4223 5.35350E+01 2.21922E+01 0.00000E+00
 -1      4224 2.79000E+01 2.79170E+01 0.00000E+00
 -1      4225 2.94000E+01 2.79170E+01 0.00000E+00
 -1      4226 3.01500E+01 2.66180E+01 0.00000E+00
 -1      4227 1.29474E+02 2.47327E+01 0.00000E+00
 -1      4228 1.82952E+01 2.70537E+01 0.00000E+00
 -1      4229 2.87850E+01 2.08932E+01 0.00000E+00
 -1      4230 2.72850E+01 2.08932E+01 0.00000E+00
 -1      4231 6.87072E+01 2.44206E+01 0.00000E+00
 -1      4232 3.77850E+01 2.08932E+01 0.00000E+00
 -1      4233 3.62850E+01 2.08932E+01 0.00000E+00
 -1      4234 4.30350E+01 1.95942E+01 0.00000E+00
 -1      4235 1.24035E+02 1.95942E+01 0.00000E+00
 -1      4236 1.20942E+02 2.15938E+01 0.00000E+00
 -1      4237 1.18999E+02 2.52120E+01 0.00000E+00
 -1      4238 2.39212E+01 2.76307E+01 0.00000E+00
 -1      4239 2.46712E+01 2.63317E+01 0.00000E+00
 -1      4240 2.29425E+01 2.73444E+01 0.00000E+00
 -1      4241 2.16282E+01 2.42983E+01 0.00000E+00
 -1      4242 2.57850E+01 2.23683E+01 0.00000E+00
 -1      4243 2.71500E+01 2.66180E+01 0.00000E+00
 -1      4244 1.28433E+02 2.51872E+01 0.00000E+00
 -1      4245 1.28175E+02 2.39983E+01 0.00000E+00
 -1      4246 1.27392E+02 2.56417E+01 0.00000E+00
 -1      4247 4.97850E+01 2.08932E+01 0.00000E+00
 -1      4248 4.82850E+01 2.08932E+01 0.00000E+00
 -1      4249 5.05350E+01 2.21922E+01 0.00000E+00
 -1      4250 1.27766E+02 2.27771E+01 0.00000E+00
 -1      4251 1.27425E+02 2.08024E+01 0.00000E+00
 -1      4252 1.25925E+02 2.08024E+01 0.00000E+00
 -1      4253 1.26725E+02 2.32316E+01 0.00000E+00
 -1      4254 3.17850E+01 2.08932E+01 0.00000E+00
 -1      4255 3.02850E+01 2.08932E+01 0.00000E+00
 -1      4256 2.95350E+01 2.21922E+01 0.00000E+00
 -1      4257 4.07850E+01 2.08932E+01 0.00000E+00
 -1      4258 3.92850E+01 2.08932E+01 0.00000E+00
 -1      4259 3.85350E+01 2.21922E+01 0.00000E+00
 -1      4260 6.58425E+01 2.44051E+01 0.00000E+00
 -1      4261 6.43425E+01 2.44051E+01 0.00000E+00
 -1      4262 3.54000E+01 2.53190E+01 0.00000E+00
 -1      4263 3.69000E+01 2.53190E+01 0.00000E+00
 -1      4264 6.28425E+01 2.44051E+01 0.00000E+00
 -1      4265 4.37850E+01 2.08932E+01 0.00000E+00
 -1      4266 4.22850E+01 2.08932E+01 0.00000E+00
 -1      4267 4.15350E+01 2.21922E+01 0.00000E+00
 -1      4268 3.88425E+01 2.44051E+01 0.00000E+00
 -1      4269 4.03425E+01 2.44051E+01 0.00000E+00
 -1      4270 4.18425E+01 2.44051E+01 0.00000E+00
 -1      4271 4.33425E+01 2.44051E+01 0.00000E+00
 -1      4272 4.74000E+01 2.53190E+01 0.00000E+00
 -1      4273 4.89000E+01 2.53190E+01 0.00000E+00
 -1      4274 5.08425E+01 2.44051E+01 0.00000E+00
 -1      4275 5.23425E+01 2.44051E+01 0.00000E+00
 -1      4276 5.38425E+01 2.44051E+01 0.00000E+00
 -1      4277 5.53425E+01 2.44051E+01 0.00000E+00
 -1      4278 5.68425E+01 2.44051E+01 0.00000E+00
 -1      4279 5.83425E+01 2.44051E+01 0.00000E+00
 -1      4280 5.98425E+01 2.44051E+01 0.00000E+00
 -1      4281 6.13425E+01 2.44051E+01 0.00000E+00
 -1      4282 6.73425E+01 2.44051E+01 0.00000E+00
 -1      4283 1.20499E+02 2.52120E+01 0.00000E+00
 -1      4284 1.25892E+02 2.56417E+01 0.00000E+00
 -1      4285 3.24000E+01 2.53190E+01 0.00000E+00
 -1      4286 3.39000E+01 2.53190E+01 0.00000E+00
 -1      4287 3.46500E+01 2.40200E+01 0.00000E+00
 -1      4288 1.24183E+02 2.11981E+01 0.00000E+00
 -1      4289 1.22683E+02 2.11981E+01 0.00000E+00
 -1      4290 1.21090E+02 2.31976E+01 0.00000E+00
 -1      4291 1.24574E+02 2.24062E+01 0.00000E+00
 -1      4292 2.98425E+01 2.44051E+01 0.00000E+00
 -1      4293 3.13425E+01 2.44051E+01 0.00000E+00
 -1      4294 1.91596E+01 2.72817E+01 0.00000E+00
 -1      4295 1.25437E+02 2.46345E+01 0.00000E+00
 -1      4296 1.25028E+02 2.34134E+01 0.00000E+00
 -1      4297 1.23286E+02 2.38091E+01 0.00000E+00
 -1      4298 1.24195E+02 2.58235E+01 0.00000E+00
 -1      4299 4.67850E+01 2.08932E+01 0.00000E+00
 -1      4300 4.52850E+01 2.08932E+01 0.00000E+00
 -1      4301 4.75350E+01 2.21922E+01 0.00000E+00
 -1      4302 2.36138E+01 2.42948E+01 0.00000E+00
 -1      4303 2.17070E+01 2.60489E+01 0.00000E+00
 -1      4304 2.68425E+01 2.44051E+01 0.00000E+00
 -1      4305 2.83425E+01 2.44051E+01 0.00000E+00
 -1      4306 1.22241E+02 2.48163E+01 0.00000E+00
 -1      4307 3.47850E+01 2.08932E+01 0.00000E+00
 -1      4308 3.32850E+01 2.08932E+01 0.00000E+00
 -1      4309 3.25350E+01 2.21922E+01 0.00000E+00
 -1      4310 3.55350E+01 2.21922E+01 0.00000E+00
 -1      4311 2.00583E+01 2.73148E+01 0.00000E+00
 -1      4312 4.45350E+01 2.21922E+01 0.00000E+00
 -1      4313 4.48425E+01 2.44051E+01 0.00000E+00
 -1      4314 4.63425E+01 2.44051E+01 0.00000E+00
 -1      4315 1.22695E+02 2.58235E+01 0.00000E+00
 -1      4316 5.00925E+01 2.31061E+01 0.00000E+00
 -1      4317 2.45925E+01 2.45811E+01 0.00000E+00
 -1      4318 3.65925E+01 2.31061E+01 0.00000E+00
 -1      4319 3.50925E+01 2.31061E+01 0.00000E+00
 -1      4320 3.80925E+01 2.31061E+01 0.00000E+00
 -1      4321 3.20925E+01 2.31061E+01 0.00000E+00
 -1      4322 2.09570E+01 2.73479E+01 0.00000E+00
 -1      4323 4.70925E+01 2.31061E+01 0.00000E+00
 -1      4324 3.35925E+01 2.31061E+01 0.00000E+00
 -1      4325 4.85925E+01 2.31061E+01 0.00000E+00
 -3
    3C                          2081                                     1
 -1       164    8    0    1
 -2         6         7        23      1123      1286      1140
 -1       165    8    0    1
 -2         7         8       164      1124      1287      1288
 -1       166    8    0    1
 -2         8         9       165      1125      1289      1290
 -1       167    8    0    1
 -2         8       165       164      1290      1291      1287
 -1       168    8    0    1
 -2         9        10       166      1126      1292      1293
 -1       169    8    0    1
 -2         9       166       165      1293      1294      1289
 -1       170    8    0    1
 -2        10        11       167      1127      1295      1296
 -1       171    8    0    1
 -2        10       167       166      1296      1297      1292
 -1       172    8    0    1
 -2        11        12       168      1128      1298      1299
 -1       173    8    0    1
 -2        11       168       167      1299      1300      1295
 -1       174    8    0    1
 -2        12        13       169      1129      1301      1302
 -1       175    8    0    1
 -2        12       169       168      1302      1303      1298
 -1       176    8    0    1
 -2        13        14       170      1130      1304      1305
 -1       177    8    0    1
 -2        13       170       169      1305      1306      1301
 -1       178    8    0    1
 -2        14        15       171      1131      1307      1308
 -1       179    8    0    1
 -2        14       171       170      1308      1309      1304
 -1       180    8    0    1
 -2        15        16       172      1132      1310      1311
 -1       181    8    0    1
 -2        15       172       171      1311      1312      1307
 -1       182    8    0    1
 -2        16        17       173      1133      1313      1314
 -1       183    8    0    1
 -2        16       173       172      1314      1315      1310
 -1       184    8    0    1
 -2        17        18       174      1134      1316      1317
 -1       185    8    0    1
 -2        17       174       173      1317      1318      1313
 -1       186    8    0    1
 -2        18        19       175      1135      1319      1320
 -1       187    8    0    1
 -2        18       175       174      1320      1321      1316
 -1       188    8    0    1
 -2        19        20       176      1136      1322      1323
 -1       189    8    0    1
 -2        19       176       175      1323      1324      1319
 -1       190    8    0    1
 -2        20        21       177      1137      1325      1326
 -1       191    8    0    1
 -2        20       177       176      1326      1327      1322
 -1       192    8    0    1
 -2        21        22       178      1138      1328      1329
 -1       193    8    0    1
 -2        21       178       177      1329      1330      1325
 -1       194    8    0    1
 -2        22         5       179      1139      1331      1332
 -1       195    8    0    1
 -2       178        22       179      1328      1332      1333
 -1       196    8    0    1
 -2         5        72       179      1190      1334      1331
 -1       197    8    0    1
 -2        24        23       180      1141      1335      1336
 -1       198    8    0    1
 -2        25        24       181      1142      1337      1338
 -1       199    8    0    1
 -2        24       180       181      1336      1339      1337
 -1       200    8    0    1
 -2        26        25       182      1143      1340      1341
 -1       201    8    0    1
 -2        25       181       182      1338      1342      1340
 -1       202    8    0    1
 -2        27        26       183      1144      1343      1344
 -1       203    8    0    1
 -2        26       182       183      1341      1345      1343
 -1       204    8    0    1
 -2        28        27       184      1145      1346      1347
 -1       205    8    0    1
 -2        27       183       184      1344      1348      1346
 -1       206    8    0    1
 -2        29        28       185      1146      1349      1350
 -1       207    8    0    1
 -2        28       184       185      1347      1351      1349
 -1       208    8    0    1
 -2        30        29       186      1147      1352      1353
 -1       209    8    0    1
 -2        29       185       186      1350      1354      1352
 -1       210    8    0    1
 -2        31        30       187      1148      1355      1356
 -1       211    8    0    1
 -2        30       186       187      1353      1357      1355
 -1       212    8    0    1
 -2        32        31       188      1149      1358      1359
 -1       213    8    0    1
 -2        31       187       188      1356      1360      1358
 -1       214    8    0    1
 -2        33        32       189      1150      1361      1362
 -1       215    8    0    1
 -2        32       188       189      1359      1363      1361
 -1       216    8    0    1
 -2        34        33       190      1151      1364      1365
 -1       217    8    0    1
 -2        33       189       190      1362      1366      1364
 -1       218    8    0    1
 -2        35        34       191      1152      1367      1368
 -1       219    8    0    1
 -2        34       190       191      1365      1369      1367
 -1       220    8    0    1
 -2        36        35       192      1153      1370      1371
 -1       221    8    0    1
 -2        35       191       192      1368      1372      1370
 -1       222    8    0    1
 -2        37        36       193      1154      1373      1374
 -1       223    8    0    1
 -2        36       192       193      1371      1375      1373
 -1       224    8    0    1
 -2        38        37       194      1155      1376      1377
 -1       225    8    0    1
 -2        37       193       194      1374      1378      1376
 -1       226    8    0    1
 -2        39        38       195      1156      1379      1380
 -1       227    8    0    1
 -2        38       194       195      1377      1381      1379
 -1       228    8    0    1
 -2        40        39       196      1157      1382      1383
 -1       229    8    0    1
 -2        39       195       196      1380      1384      1382
 -1       230    8    0    1
 -2        41        40       197      1158      1385      1386
 -1       231    8    0    1
 -2        40       196       197      1383      1387      1385
 -1       232    8    0    1
 -2        42        41       198      1159      1388      1389
 -1       233    8    0    1
 -2        41       197       198      1386      1390      1388
 -1       234    8    0    1
 -2        43        42       199      1160      1391      1392
 -1       235    8    0    1
 -2        42       198       199      1389      1393      1391
 -1       236    8    0    1
 -2        44        43       200      1161      1394      1395
 -1       237    8    0    1
 -2        43       199       200      1392      1396      1394
 -1       238    8    0    1
 -2        45        44       201      1162      1397      1398
 -1       239    8    0    1
 -2        44       200       201      1395      1399      1397
 -1       240    8    0    1
 -2        46        45       202      1163      1400      1401
 -1       241    8    0    1
 -2        45       201       202      1398      1402      1400
 -1       242    8    0    1
 -2        47        46       203      1164      1403      1404
 -1       243    8    0    1
 -2        46       202       203      1401      1405      1403
 -1       244    8    0    1
 -2        48        47       204      1165      1406      1407
 -1       245    8    0    1
 -2        47       203       204      1404      1408      1406
 -1       246    8    0    1
 -2        49        48       205      1166      1409      1410
 -1       247    8    0    1
 -2        48       204       205      1407      1411      1409
 -1       248    8    0    1
 -2        50        49       206      1167      1412      1413
 -1       249    8    0    1
 -2        49       205       206      1410      1414      1412
 -1       250    8    0    1
 -2        51        50       207      1168      1415      1416
 -1       251    8    0    1
 -2        50       206       207      1413      1417      1415
 -1       252    8    0    1
 -2        52        51       208      1169      1418      1419
 -1       253    8    0    1
 -2        51       207       208      1416      1420      1418
 -1       254    8    0    1
 -2        53        52       209      1170      1421      1422
 -1       255    8    0    1
 -2        52       208       209      1419      1423      1421
 -1       256    8    0    1
 -2        54        53       210      1171      1424      1425
 -1       257    8    0    1
 -2        53       209       210      1422      1426      1424
 -1       258    8    0    1
 -2        55        54       211      1172      1427      1428
 -1       259    8    0    1
 -2        54       210       211      1425      1429      1427
 -1       260    8    0    1
 -2        56        55       212      1173      1430      1431
 -1       261    8    0    1
 -2        55       211       212      1428      1432      1430
 -1       262    8    0    1
 -2        57        56       213      1174      1433      1434
 -1       263    8    0    1
 -2        56       212       213      1431      1435      1433
 -1       264    8    0    1
 -2        58        57       214      1175      1436      1437
 -1       265    8    0    1
 -2        57       213       214      1434      1438      1436
 -1       266    8    0    1
 -2        59        58       215      1176      1439      1440
 -1       267    8    0    1
 -2        58       214       215      1437      1441      1439
 -1       268    8    0    1
 -2        60        59       216      1177      1442      1443
 -1       269    8    0    1
 -2        59       215       216      1440      1444      1442
 -1       270    8    0    1
 -2        61        60       217      1178      1445      1446
 -1       271    8    0    1
 -2        60       216       217      1443      1447      1445
 -1       272    8    0    1
 -2        62        61       218      1179      1448      1449
 -1       273    8    0    1
 -2        61       217       218      1446      1450      1448
 -1       274    8    0    1
 -2        63        62       219      1180      1451      1452
 -1       275    8    0    1
 -2        62       218       219      1449      1453      1451
 -1       276    8    0    1
 -2        64        63       220      1181      1454      1455
 -1       277    8    0    1
 -2        63       219       220      1452      1456      1454
 -1       278    8    0    1
 -2        65        64       221      1182      1457      1458
 -1       279    8    0    1
 -2        64       220       221      1455      1459      1457
 -1       280    8    0    1
 -2        66        65       222      1183      1460      1461
 -1       281    8    0    1
 -2        65       221       222      1458      1462      1460
 -1       282    8    0    1
 -2        67        66       223      1184      1463      1464
 -1       283    8    0    1
 -2        66       222       223      1461      1465      1463
 -1       284    8    0    1
 -2        68        67       224      1185      1466      1467
 -1       285    8    0    1
 -2        67       223       224      1464      1468      1466
 -1       286    8    0    1
 -2        69        68       225      1186      1469      1470
 -1       287    8    0    1
 -2        68       224       225      1467      1471      1469
 -1       288    8    0    1
 -2        70        69       226      1187      1472      1473
 -1       289    8    0    1
 -2        69       225       226      1470      1474      1472
 -1       290    8    0    1
 -2        71        70       227      1188      1475      1476
 -1       291    8    0    1
 -2        70       226       227      1473      1477      1475
 -1       292    8    0    1
 -2         4        71       136      1189      1478      1256
 -1       293    8    0    1
 -2       136        71       227      1478      1476      1479
 -1       294    8    0    1
 -2        72        73       228      1191      1480      1481
 -1       295    8    0    1
 -2        72       228       179      1481      1482      1334
 -1       296    8    0    1
 -2        73        74       229      1192      1483      1484
 -1       297    8    0    1
 -2        73       229       228      1484      1485      1480
 -1       298    8    0    1
 -2        74        75       230      1193      1486      1487
 -1       299    8    0    1
 -2        74       230       229      1487      1488      1483
 -1       300    8    0    1
 -2        75        76       231      1194      1489      1490
 -1       301    8    0    1
 -2        75       231       230      1490      1491      1486
 -1       302    8    0    1
 -2        76        77       232      1195      1492      1493
 -1       303    8    0    1
 -2        76       232       231      1493      1494      1489
 -1       304    8    0    1
 -2        77        78       233      1196      1495      1496
 -1       305    8    0    1
 -2        77       233       232      1496      1497      1492
 -1       306    8    0    1
 -2        78        79       234      1197      1498      1499
 -1       307    8    0    1
 -2        78       234       233      1499      1500      1495
 -1       308    8    0    1
 -2        79        80       235      1198      1501      1502
 -1       309    8    0    1
 -2        79       235       234      1502      1503      1498
 -1       310    8    0    1
 -2        80        81       236      1199      1504      1505
 -1       311    8    0    1
 -2        80       236       235      1505      1506      1501
 -1       312    8    0    1
 -2        81        82       237      1200      1507      1508
 -1       313    8    0    1
 -2        81       237       236      1508      1509      1504
 -1       314    8    0    1
 -2        82        83       238      1201      1510      1511
 -1       315    8    0    1
 -2        82       238       237      1511      1512      1507
 -1       316    8    0    1
 -2        83        84       239      1202      1513      1514
 -1       317    8    0    1
 -2        83       239       238      1514      1515      1510
 -1       318    8    0    1
 -2        84        85       240      1203      1516      1517
 -1       319    8    0    1
 -2        84       240       239      1517      1518      1513
 -1       320    8    0    1
 -2        85        86       241      1204      1519      1520
 -1       321    8    0    1
 -2        85       241       240      1520      1521      1516
 -1       322    8    0    1
 -2        86        87       242      1205      1522      1523
 -1       323    8    0    1
 -2        86       242       241      1523      1524      1519
 -1       324    8    0    1
 -2        87        88       243      1206      1525      1526
 -1       325    8    0    1
 -2        87       243       242      1526      1527      1522
 -1       326    8    0    1
 -2        88        89       244      1207      1528      1529
 -1       327    8    0    1
 -2        88       244       243      1529      1530      1525
 -1       328    8    0    1
 -2        89        90       245      1208      1531      1532
 -1       329    8    0    1
 -2        89       245       244      1532      1533      1528
 -1       330    8    0    1
 -2        90        91       246      1209      1534      1535
 -1       331    8    0    1
 -2        90       246       245      1535      1536      1531
 -1       332    8    0    1
 -2        91        92       247      1210      1537      1538
 -1       333    8    0    1
 -2        91       247       246      1538      1539      1534
 -1       334    8    0    1
 -2        92        93       248      1211      1540      1541
 -1       335    8    0    1
 -2        92       248       247      1541      1542      1537
 -1       336    8    0    1
 -2        93        94       249      1212      1543      1544
 -1       337    8    0    1
 -2        93       249       248      1544      1545      1540
 -1       338    8    0    1
 -2        94        95       250      1213      1546      1547
 -1       339    8    0    1
 -2        94       250       249      1547      1548      1543
 -1       340    8    0    1
 -2        95        96       251      1214      1549      1550
 -1       341    8    0    1
 -2        95       251       250      1550      1551      1546
 -1       342    8    0    1
 -2        96        97       252      1215      1552      1553
 -1       343    8    0    1
 -2        96       252       251      1553      1554      1549
 -1       344    8    0    1
 -2        97        98       253      1216      1555      1556
 -1       345    8    0    1
 -2        97       253       252      1556      1557      1552
 -1       346    8    0    1
 -2        98        99       254      1217      1558      1559
 -1       347    8    0    1
 -2        98       254       253      1559      1560      1555
 -1       348    8    0    1
 -2        99       100       255      1218      1561      1562
 -1       349    8    0    1
 -2        99       255       254      1562      1563      1558
 -1       350    8    0    1
 -2       100       101       256      1219      1564      1565
 -1       351    8    0    1
 -2       100       256       255      1565      1566      1561
 -1       352    8    0    1
 -2       101       102       257      1220      1567      1568
 -1       353    8    0    1
 -2       101       257       256      1568      1569      1564
 -1       354    8    0    1
 -2       102       103       258      1221      1570      1571
 -1       355    8    0    1
 -2       102       258       257      1571      1572      1567
 -1       356    8    0    1
 -2       103       104       259      1222      1573      1574
 -1       357    8    0    1
 -2       103       259       258      1574      1575      1570
 -1       358    8    0    1
 -2       104       105       260      1223      1576      1577
 -1       359    8    0    1
 -2       104       260       259      1577      1578      1573
 -1       360    8    0    1
 -2       105       106       261      1224      1579      1580
 -1       361    8    0    1
 -2       105       261       260      1580      1581      1576
 -1       362    8    0    1
 -2       106       107       262      1225      1582      1583
 -1       363    8    0    1
 -2       106       262       261      1583      1584      1579
 -1       364    8    0    1
 -2       107       108       263      1226      1585      1586
 -1       365    8    0    1
 -2       107       263       262      1586      1587      1582
 -1       366    8    0    1
 -2       108       109       264      1227      1588      1589
 -1       367    8    0    1
 -2       108       264       263      1589      1590      1585
 -1       368    8    0    1
 -2       109       110       265      1228      1591      1592
 -1       369    8    0    1
 -2       109       265       264      1592      1593      1588
 -1       370    8    0    1
 -2       110       111       266      1229      1594      1595
 -1       371    8    0    1
 -2       110       266       265      1595      1596      1591
 -1       372    8    0    1
 -2       111       112       267      1230      1597      1598
 -1       373    8    0    1
 -2       111       267       266      1598      1599      1594
 -1       374    8    0    1
 -2       112       113       268      1231      1600      1601
 -1       375    8    0    1
 -2       112       268       267      1601      1602      1597
 -1       376    8    0    1
 -2       113       114       269      1232      1603      1604
 -1       377    8    0    1
 -2       113       269       268      1604      1605      1600
 -1       378    8    0    1
 -2       114       115       270      1233      1606      1607
 -1       379    8    0    1
 -2       114       270       269      1607      1608      1603
 -1       380    8    0    1
 -2       115       116       271      1234      1609      1610
 -1       381    8    0    1
 -2       115       271       270      1610      1611      1606
 -1       382    8    0    1
 -2       116       117       272      1235      1612      1613
 -1       383    8    0    1
 -2       116       272       271      1613      1614      1609
 -1       384    8    0    1
 -2       117       118       273      1236      1615      1616
 -1       385    8    0    1
 -2       117       273       272      1616      1617      1612
 -1       386    8    0    1
 -2       118       119       274      1237      1618      1619
 -1       387    8    0    1
 -2       118       274       273      1619      1620      1615
 -1       388    8    0    1
 -2       119       120       275      1238      1621      1622
 -1       389    8    0    1
 -2       119       275       274      1622      1623      1618
 -1       390    8    0    1
 -2       120         3       121      1239      1240      1624
 -1       391    8    0    1
 -2       121       122       276      1241      1625      1626
 -1       392    8    0    1
 -2       122       123       277      1242      1627      1628
 -1       393    8    0    1
 -2       122       277       276      1628      1629      1625
 -1       394    8    0    1
 -2       123       124       278      1243      1630      1631
 -1       395    8    0    1
 -2       123       278       277      1631      1632      1627
 -1       396    8    0    1
 -2       124       125       279      1244      1633      1634
 -1       397    8    0    1
 -2       124       279       278      1634      1635      1630
 -1       398    8    0    1
 -2       125       126       280      1245      1636      1637
 -1       399    8    0    1
 -2       125       280       279      1637      1638      1633
 -1       400    8    0    1
 -2       126       127       281      1246      1639      1640
 -1       401    8    0    1
 -2       126       281       280      1640      1641      1636
 -1       402    8    0    1
 -2       127       128       282      1247      1642      1643
 -1       403    8    0    1
 -2       127       282       281      1643      1644      1639
 -1       404    8    0    1
 -2       128       129       283      1248      1645      1646
 -1       405    8    0    1
 -2       128       283       282      1646      1647      1642
 -1       406    8    0    1
 -2       129       130       284      1249      1648      1649
 -1       407    8    0    1
 -2       129       284       283      1649      1650      1645
 -1       408    8    0    1
 -2       130       131       285      1250      1651      1652
 -1       409    8    0    1
 -2       130       285       284      1652      1653      1648
 -1       410    8    0    1
 -2       131       132       286      1251      1654      1655
 -1       411    8    0    1
 -2       131       286       285      1655      1656      1651
 -1       412    8    0    1
 -2       132       133       287      1252      1657      1658
 -1       413    8    0    1
 -2       132       287       286      1658      1659      1654
 -1       414    8    0    1
 -2       133       134       288      1253      1660      1661
 -1       415    8    0    1
 -2       133       288       287      1661      1662      1657
 -1       416    8    0    1
 -2       134       135       289      1254      1663      1664
 -1       417    8    0    1
 -2       134       289       288      1664      1665      1660
 -1       418    8    0    1
 -2       135       136       290      1255      1666      1667
 -1       419    8    0    1
 -2       289       135       290      1663      1667      1668
 -1       420    8    0    1
 -2       136       227       290      1479      1669      1666
 -1       421    8    0    1
 -2         2       137       291      1257      1670      1671
 -1       422    8    0    1
 -2       137       138       292      1258      1672      1673
 -1       423    8    0    1
 -2       138       139       293      1259      1674      1675
 -1       424    8    0    1
 -2       139       140       294      1260      1676      1677
 -1       425    8    0    1
 -2       140       141       295      1261      1678      1679
 -1       426    8    0    1
 -2       141       142       296      1262      1680      1681
 -1       427    8    0    1
 -2       142       143       297      1263      1682      1683
 -1       428    8    0    1
 -2       143       144       298      1264      1684      1685
 -1       429    8    0    1
 -2       144       145       299      1265      1686      1687
 -1       430    8    0    1
 -2       145       146       300      1266      1688      1689
 -1       431    8    0    1
 -2       146       147       301      1267      1690      1691
 -1       432    8    0    1
 -2       147       148       302      1268      1692      1693
 -1       433    8    0    1
 -2       148       149       303      1269      1694      1695
 -1       434    8    0    1
 -2       149       150       304      1270      1696      1697
 -1       435    8    0    1
 -2       150       151       305      1271      1698      1699
 -1       436    8    0    1
 -2       151       152       306      1272      1700      1701
 -1       437    8    0    1
 -2       152       153       307      1273      1702      1703
 -1       438    8    0    1
 -2       153       154       308      1274      1704      1705
 -1       439    8    0    1
 -2       154       155       309      1275      1706      1707
 -1       440    8    0    1
 -2       155       156       310      1276      1708      1709
 -1       441    8    0    1
 -2       156       157       311      1277      1710      1711
 -1       442    8    0    1
 -2       157       158       312      1278      1712      1713
 -1       443    8    0    1
 -2       158       159       313      1279      1714      1715
 -1       444    8    0    1
 -2       159       160       314      1280      1716      1717
 -1       445    8    0    1
 -2       160         1       315      1281      1718      1719
 -1       446    8    0    1
 -2         1       161       316      1282      1720      1721
 -1       447    8    0    1
 -2       161       162       317      1283      1722      1723
 -1       448    8    0    1
 -2       162       163       318      1284      1724      1725
 -1       449    8    0    1
 -2       163         2       319      1285      1726      1727
 -1       450    8    0    1
 -2       294       140       295      1676      1679      1728
 -1       451    8    0    1
 -2       293       139       294      1674      1677      1729
 -1       452    8    0    1
 -2       120       121       275      1624      1730      1621
 -1       453    8    0    1
 -2       121       276       275      1626      1731      1730
 -1       454    8    0    1
 -2       291       137       292      1670      1673      1732
 -1       455    8    0    1
 -2       292       138       293      1672      1675      1733
 -1       456    8    0    1
 -2         2       291       319      1671      1734      1726
 -1       457    8    0    1
 -2       141       296       295      1681      1735      1678
 -1       458    8    0    1
 -2       142       297       296      1683      1736      1680
 -1       459    8    0    1
 -2       143       298       297      1685      1737      1682
 -1       460    8    0    1
 -2       144       299       298      1687      1738      1684
 -1       461    8    0    1
 -2       145       300       299      1689      1739      1686
 -1       462    8    0    1
 -2       146       301       300      1691      1740      1688
 -1       463    8    0    1
 -2       147       302       301      1693      1741      1690
 -1       464    8    0    1
 -2       148       303       302      1695      1742      1692
 -1       465    8    0    1
 -2       149       304       303      1697      1743      1694
 -1       466    8    0    1
 -2       150       305       304      1699      1744      1696
 -1       467    8    0    1
 -2       151       306       305      1701      1745      1698
 -1       468    8    0    1
 -2       152       307       306      1703      1746      1700
 -1       469    8    0    1
 -2       153       308       307      1705      1747      1702
 -1       470    8    0    1
 -2       154       309       308      1707      1748      1704
 -1       471    8    0    1
 -2       155       310       309      1709      1749      1706
 -1       472    8    0    1
 -2       156       311       310      1711      1750      1708
 -1       473    8    0    1
 -2       157       312       311      1713      1751      1710
 -1       474    8    0    1
 -2       158       313       312      1715      1752      1712
 -1       475    8    0    1
 -2       159       314       313      1717      1753      1714
 -1       476    8    0    1
 -2       160       315       314      1719      1754      1716
 -1       477    8    0    1
 -2         1       316       315      1721      1755      1718
 -1       478    8    0    1
 -2       161       317       316      1723      1756      1720
 -1       479    8    0    1
 -2       162       318       317      1725      1757      1722
 -1       480    8    0    1
 -2       163       319       318      1727      1758      1724
 -1       481    8    0    1
 -2        23         7       164      1286      1288      1759
 -1       482    8    0    1
 -2       165       166       320      1294      1760      1761
 -1       483    8    0    1
 -2       164       165       321      1291      1762      1763
 -1       484    8    0    1
 -2       165       320       321      1761      1764      1762
 -1       485    8    0    1
 -2       167       168       322      1300      1765      1766
 -1       486    8    0    1
 -2       168       169       323      1303      1767      1768
 -1       487    8    0    1
 -2       168       323       322      1768      1769      1765
 -1       488    8    0    1
 -2       169       170       324      1306      1770      1771
 -1       489    8    0    1
 -2       169       324       323      1771      1772      1767
 -1       490    8    0    1
 -2       170       171       325      1309      1773      1774
 -1       491    8    0    1
 -2       170       325       324      1774      1775      1770
 -1       492    8    0    1
 -2       171       172       326      1312      1776      1777
 -1       493    8    0    1
 -2       171       326       325      1777      1778      1773
 -1       494    8    0    1
 -2       172       173       327      1315      1779      1780
 -1       495    8    0    1
 -2       172       327       326      1780      1781      1776
 -1       496    8    0    1
 -2       173       174       328      1318      1782      1783
 -1       497    8    0    1
 -2       173       328       327      1783      1784      1779
 -1       498    8    0    1
 -2       174       175       329      1321      1785      1786
 -1       499    8    0    1
 -2       174       329       328      1786      1787      1782
 -1       500    8    0    1
 -2       175       176       330      1324      1788      1789
 -1       501    8    0    1
 -2       175       330       329      1789      1790      1785
 -1       502    8    0    1
 -2       176       177       331      1327      1791      1792
 -1       503    8    0    1
 -2       176       331       330      1792      1793      1788
 -1       504    8    0    1
 -2       177       178       332      1330      1794      1795
 -1       505    8    0    1
 -2       177       332       331      1795      1796      1791
 -1       506    8    0    1
 -2       178       179       333      1333      1797      1798
 -1       507    8    0    1
 -2       332       178       333      1794      1798      1799
 -1       508    8    0    1
 -2       179       228       333      1482      1800      1797
 -1       509    8    0    1
 -2       180        23       164      1335      1759      1801
 -1       510    8    0    1
 -2       228       229       334      1485      1802      1803
 -1       511    8    0    1
 -2       228       334       333      1803      1804      1800
 -1       512    8    0    1
 -2       180       164       321      1801      1763      1805
 -1       513    8    0    1
 -2       182       181       335      1342      1806      1807
 -1       514    8    0    1
 -2       183       182       336      1345      1808      1809
 -1       515    8    0    1
 -2       182       335       336      1807      1810      1808
 -1       516    8    0    1
 -2       184       183       337      1348      1811      1812
 -1       517    8    0    1
 -2       183       336       337      1809      1813      1811
 -1       518    8    0    1
 -2       185       184       338      1351      1814      1815
 -1       519    8    0    1
 -2       184       337       338      1812      1816      1814
 -1       520    8    0    1
 -2       186       185       339      1354      1817      1818
 -1       521    8    0    1
 -2       185       338       339      1815      1819      1817
 -1       522    8    0    1
 -2       187       186       340      1357      1820      1821
 -1       523    8    0    1
 -2       186       339       340      1818      1822      1820
 -1       524    8    0    1
 -2       188       187       341      1360      1823      1824
 -1       525    8    0    1
 -2       187       340       341      1821      1825      1823
 -1       526    8    0    1
 -2       189       188       342      1363      1826      1827
 -1       527    8    0    1
 -2       188       341       342      1824      1828      1826
 -1       528    8    0    1
 -2       190       189       343      1366      1829      1830
 -1       529    8    0    1
 -2       189       342       343      1827      1831      1829
 -1       530    8    0    1
 -2       191       190       344      1369      1832      1833
 -1       531    8    0    1
 -2       190       343       344      1830      1834      1832
 -1       532    8    0    1
 -2       192       191       345      1372      1835      1836
 -1       533    8    0    1
 -2       191       344       345      1833      1837      1835
 -1       534    8    0    1
 -2       193       192       346      1375      1838      1839
 -1       535    8    0    1
 -2       192       345       346      1836      1840      1838
 -1       536    8    0    1
 -2       194       193       347      1378      1841      1842
 -1       537    8    0    1
 -2       193       346       347      1839      1843      1841
 -1       538    8    0    1
 -2       195       194       348      1381      1844      1845
 -1       539    8    0    1
 -2       194       347       348      1842      1846      1844
 -1       540    8    0    1
 -2       196       195       349      1384      1847      1848
 -1       541    8    0    1
 -2       195       348       349      1845      1849      1847
 -1       542    8    0    1
 -2       197       196       350      1387      1850      1851
 -1       543    8    0    1
 -2       196       349       350      1848      1852      1850
 -1       544    8    0    1
 -2       198       197       351      1390      1853      1854
 -1       545    8    0    1
 -2       197       350       351      1851      1855      1853
 -1       546    8    0    1
 -2       199       198       352      1393      1856      1857
 -1       547    8    0    1
 -2       198       351       352      1854      1858      1856
 -1       548    8    0    1
 -2       200       199       353      1396      1859      1860
 -1       549    8    0    1
 -2       199       352       353      1857      1861      1859
 -1       550    8    0    1
 -2       201       200       354      1399      1862      1863
 -1       551    8    0    1
 -2       200       353       354      1860      1864      1862
 -1       552    8    0    1
 -2       202       201       355      1402      1865      1866
 -1       553    8    0    1
 -2       201       354       355      1863      1867      1865
 -1       554    8    0    1
 -2       203       202       356      1405      1868      1869
 -1       555    8    0    1
 -2       202       355       356      1866      1870      1868
 -1       556    8    0    1
 -2       204       203       357      1408      1871      1872
 -1       557    8    0    1
 -2       203       356       357      1869      1873      1871
 -1       558    8    0    1
 -2       205       204       358      1411      1874      1875
 -1       559    8    0    1
 -2       204       357       358      1872      1876      1874
 -1       560    8    0    1
 -2       206       205       359      1414      1877      1878
 -1       561    8    0    1
 -2       205       358       359      1875      1879      1877
 -1       562    8    0    1
 -2       207       206       360      1417      1880      1881
 -1       563    8    0    1
 -2       206       359       360      1878      1882      1880
 -1       564    8    0    1
 -2       208       207       361      1420      1883      1884
 -1       565    8    0    1
 -2       207       360       361      1881      1885      1883
 -1       566    8    0    1
 -2       209       208       362      1423      1886      1887
 -1       567    8    0    1
 -2       208       361       362      1884      1888      1886
 -1       568    8    0    1
 -2       210       209       363      1426      1889      1890
 -1       569    8    0    1
 -2       209       362       363      1887      1891      1889
 -1       570    8    0    1
 -2       211       210       364      1429      1892      1893
 -1       571    8    0    1
 -2       210       363       364      1890      1894      1892
 -1       572    8    0    1
 -2       212       211       365      1432      1895      1896
 -1       573    8    0    1
 -2       211       364       365      1893      1897      1895
 -1       574    8    0    1
 -2       213       212       366      1435      1898      1899
 -1       575    8    0    1
 -2       212       365       366      1896      1900      1898
 -1       576    8    0    1
 -2       214       213       367      1438      1901      1902
 -1       577    8    0    1
 -2       213       366       367      1899      1903      1901
 -1       578    8    0    1
 -2       215       214       368      1441      1904      1905
 -1       579    8    0    1
 -2       214       367       368      1902      1906      1904
 -1       580    8    0    1
 -2       216       215       369      1444      1907      1908
 -1       581    8    0    1
 -2       215       368       369      1905      1909      1907
 -1       582    8    0    1
 -2       217       216       370      1447      1910      1911
 -1       583    8    0    1
 -2       216       369       370      1908      1912      1910
 -1       584    8    0    1
 -2       218       217       371      1450      1913      1914
 -1       585    8    0    1
 -2       217       370       371      1911      1915      1913
 -1       586    8    0    1
 -2       219       218       372      1453      1916      1917
 -1       587    8    0    1
 -2       218       371       372      1914      1918      1916
 -1       588    8    0    1
 -2       220       219       373      1456      1919      1920
 -1       589    8    0    1
 -2       219       372       373      1917      1921      1919
 -1       590    8    0    1
 -2       221       220       374      1459      1922      1923
 -1       591    8    0    1
 -2       220       373       374      1920      1924      1922
 -1       592    8    0    1
 -2       222       221       375      1462      1925      1926
 -1       593    8    0    1
 -2       221       374       375      1923      1927      1925
 -1       594    8    0    1
 -2       223       222       376      1465      1928      1929
 -1       595    8    0    1
 -2       222       375       376      1926      1930      1928
 -1       596    8    0    1
 -2       224       223       377      1468      1931      1932
 -1       597    8    0    1
 -2       223       376       377      1929      1933      1931
 -1       598    8    0    1
 -2       225       224       378      1471      1934      1935
 -1       599    8    0    1
 -2       224       377       378      1932      1936      1934
 -1       600    8    0    1
 -2       226       225       379      1474      1937      1938
 -1       601    8    0    1
 -2       225       378       379      1935      1939      1937
 -1       602    8    0    1
 -2       227       226       380      1477      1940      1941
 -1       603    8    0    1
 -2       290       227       380      1669      1941      1942
 -1       604    8    0    1
 -2       226       379       380      1938      1943      1940
 -1       605    8    0    1
 -2       229       230       381      1488      1944      1945
 -1       606    8    0    1
 -2       229       381       334      1945      1946      1802
 -1       607    8    0    1
 -2       230       231       382      1491      1947      1948
 -1       608    8    0    1
 -2       230       382       381      1948      1949      1944
 -1       609    8    0    1
 -2       231       232       383      1494      1950      1951
 -1       610    8    0    1
 -2       231       383       382      1951      1952      1947
 -1       611    8    0    1
 -2       232       233       384      1497      1953      1954
 -1       612    8    0    1
 -2       232       384       383      1954      1955      1950
 -1       613    8    0    1
 -2       233       234       385      1500      1956      1957
 -1       614    8    0    1
 -2       233       385       384      1957      1958      1953
 -1       615    8    0    1
 -2       234       235       386      1503      1959      1960
 -1       616    8    0    1
 -2       234       386       385      1960      1961      1956
 -1       617    8    0    1
 -2       235       236       387      1506      1962      1963
 -1       618    8    0    1
 -2       235       387       386      1963      1964      1959
 -1       619    8    0    1
 -2       236       237       388      1509      1965      1966
 -1       620    8    0    1
 -2       236       388       387      1966      1967      1962
 -1       621    8    0    1
 -2       237       238       389      1512      1968      1969
 -1       622    8    0    1
 -2       237       389       388      1969      1970      1965
 -1       623    8    0    1
 -2       238       239       390      1515      1971      1972
 -1       624    8    0    1
 -2       238       390       389      1972      1973      1968
 -1       625    8    0    1
 -2       239       240       391      1518      1974      1975
 -1       626    8    0    1
 -2       239       391       390      1975      1976      1971
 -1       627    8    0    1
 -2       240       241       392      1521      1977      1978
 -1       628    8    0    1
 -2       240       392       391      1978      1979      1974
 -1       629    8    0    1
 -2       241       242       393      1524      1980      1981
 -1       630    8    0    1
 -2       241       393       392      1981      1982      1977
 -1       631    8    0    1
 -2       242       243       394      1527      1983      1984
 -1       632    8    0    1
 -2       242       394       393      1984      1985      1980
 -1       633    8    0    1
 -2       243       244       395      1530      1986      1987
 -1       634    8    0    1
 -2       243       395       394      1987      1988      1983
 -1       635    8    0    1
 -2       244       245       396      1533      1989      1990
 -1       636    8    0    1
 -2       244       396       395      1990      1991      1986
 -1       637    8    0    1
 -2       245       246       397      1536      1992      1993
 -1       638    8    0    1
 -2       245       397       396      1993      1994      1989
 -1       639    8    0    1
 -2       246       247       398      1539      1995      1996
 -1       640    8    0    1
 -2       246       398       397      1996      1997      1992
 -1       641    8    0    1
 -2       247       248       399      1542      1998      1999
 -1       642    8    0    1
 -2       247       399       398      1999      2000      1995
 -1       643    8    0    1
 -2       248       249       400      1545      2001      2002
 -1       644    8    0    1
 -2       248       400       399      2002      2003      1998
 -1       645    8    0    1
 -2       249       250       401      1548      2004      2005
 -1       646    8    0    1
 -2       249       401       400      2005      2006      2001
 -1       647    8    0    1
 -2       250       251       402      1551      2007      2008
 -1       648    8    0    1
 -2       250       402       401      2008      2009      2004
 -1       649    8    0    1
 -2       251       252       403      1554      2010      2011
 -1       650    8    0    1
 -2       251       403       402      2011      2012      2007
 -1       651    8    0    1
 -2       252       253       404      1557      2013      2014
 -1       652    8    0    1
 -2       252       404       403      2014      2015      2010
 -1       653    8    0    1
 -2       253       254       405      1560      2016      2017
 -1       654    8    0    1
 -2       253       405       404      2017      2018      2013
 -1       655    8    0    1
 -2       254       255       406      1563      2019      2020
 -1       656    8    0    1
 -2       254       406       405      2020      2021      2016
 -1       657    8    0    1
 -2       255       256       407      1566      2022      2023
 -1       658    8    0    1
 -2       255       407       406      2023      2024      2019
 -1       659    8    0    1
 -2       256       257       408      1569      2025      2026
 -1       660    8    0    1
 -2       256       408       407      2026      2027      2022
 -1       661    8    0    1
 -2       257       258       409      1572      2028      2029
 -1       662    8    0    1
 -2       257       409       408      2029      2030      2025
 -1       663    8    0    1
 -2       258       259       410      1575      2031      2032
 -1       664    8    0    1
 -2       258       410       409      2032      2033      2028
 -1       665    8    0    1
 -2       259       260       411      1578      2034      2035
 -1       666    8    0    1
 -2       259       411       410      2035      2036      2031
 -1       667    8    0    1
 -2       260       261       412      1581      2037      2038
 -1       668    8    0    1
 -2       260       412       411      2038      2039      2034
 -1       669    8    0    1
 -2       261       262       413      1584      2040      2041
 -1       670    8    0    1
 -2       261       413       412      2041      2042      2037
 -1       671    8    0    1
 -2       262       263       414      1587      2043      2044
 -1       672    8    0    1
 -2       262       414       413      2044      2045      2040
 -1       673    8    0    1
 -2       263       264       415      1590      2046      2047
 -1       674    8    0    1
 -2       263       415       414      2047      2048      2043
 -1       675    8    0    1
 -2       264       265       416      1593      2049      2050
 -1       676    8    0    1
 -2       264       416       415      2050      2051      2046
 -1       677    8    0    1
 -2       265       266       417      1596      2052      2053
 -1       678    8    0    1
 -2       265       417       416      2053      2054      2049
 -1       679    8    0    1
 -2       266       267       418      1599      2055      2056
 -1       680    8    0    1
 -2       266       418       417      2056      2057      2052
 -1       681    8    0    1
 -2       267       268       419      1602      2058      2059
 -1       682    8    0    1
 -2       267       419       418      2059      2060      2055
 -1       683    8    0    1
 -2       268       269       420      1605      2061      2062
 -1       684    8    0    1
 -2       268       420       419      2062      2063      2058
 -1       685    8    0    1
 -2       269       270       421      1608      2064      2065
 -1       686    8    0    1
 -2       269       421       420      2065      2066      2061
 -1       687    8    0    1
 -2       270       271       422      1611      2067      2068
 -1       688    8    0    1
 -2       270       422       421      2068      2069      2064
 -1       689    8    0    1
 -2       271       272       423      1614      2070      2071
 -1       690    8    0    1
 -2       271       423       422      2071      2072      2067
 -1       691    8    0    1
 -2       272       273       424      1617      2073      2074
 -1       692    8    0    1
 -2       272       424       423      2074      2075      2070
 -1       693    8    0    1
 -2       273       274       425      1620      2076      2077
 -1       694    8    0    1
 -2       273       425       424      2077      2078      2073
 -1       695    8    0    1
 -2       274       275       426      1623      2079      2080
 -1       696    8    0    1
 -2       425       274       426      2076      2080      2081
 -1       697    8    0    1
 -2       275       276       426      1731      2082      2079
 -1       698    8    0    1
 -2       278       279       427      1635      2083      2084
 -1       699    8    0    1
 -2       277       278       428      1632      2085      2086
 -1       700    8    0    1
 -2       278       427       428      2084      2087      2085
 -1       701    8    0    1
 -2       276       277       429      1629      2088      2089
 -1       702    8    0    1
 -2       426       276       429      2082      2089      2090
 -1       703    8    0    1
 -2       277       428       429      2086      2091      2088
 -1       704    8    0    1
 -2       279       280       430      1638      2092      2093
 -1       705    8    0    1
 -2       279       430       427      2093      2094      2083
 -1       706    8    0    1
 -2       280       281       431      1641      2095      2096
 -1       707    8    0    1
 -2       280       431       430      2096      2097      2092
 -1       708    8    0    1
 -2       281       282       432      1644      2098      2099
 -1       709    8    0    1
 -2       281       432       431      2099      2100      2095
 -1       710    8    0    1
 -2       282       283       433      1647      2101      2102
 -1       711    8    0    1
 -2       282       433       432      2102      2103      2098
 -1       712    8    0    1
 -2       283       284       434      1650      2104      2105
 -1       713    8    0    1
 -2       283       434       433      2105      2106      2101
 -1       714    8    0    1
 -2       284       285       435      1653      2107      2108
 -1       715    8    0    1
 -2       284       435       434      2108      2109      2104
 -1       716    8    0    1
 -2       285       286       436      1656      2110      2111
 -1       717    8    0    1
 -2       285       436       435      2111      2112      2107
 -1       718    8    0    1
 -2       286       287       437      1659      2113      2114
 -1       719    8    0    1
 -2       286       437       436      2114      2115      2110
 -1       720    8    0    1
 -2       287       288       438      1662      2116      2117
 -1       721    8    0    1
 -2       287       438       437      2117      2118      2113
 -1       722    8    0    1
 -2       288       289       439      1665      2119      2120
 -1       723    8    0    1
 -2       288       439       438      2120      2121      2116
 -1       724    8    0    1
 -2       292       293       440      1733      2122      2123
 -1       725    8    0    1
 -2       319       291       441      1734      2124      2125
 -1       726    8    0    1
 -2       291       292       442      1732      2126      2127
 -1       727    8    0    1
 -2       292       440       442      2123      2128      2126
 -1       728    8    0    1
 -2       293       294       443      1729      2129      2130
 -1       729    8    0    1
 -2       294       295       444      1728      2131      2132
 -1       730    8    0    1
 -2       294       444       443      2132      2133      2129
 -1       731    8    0    1
 -2       166       167       445      1297      2134      2135
 -1       732    8    0    1
 -2       320       166       445      1760      2135      2136
 -1       733    8    0    1
 -2       167       322       445      1766      2137      2134
 -1       734    8    0    1
 -2       296       297       446      1736      2138      2139
 -1       735    8    0    1
 -2       297       298       447      1737      2140      2141
 -1       736    8    0    1
 -2       297       447       446      2141      2142      2138
 -1       737    8    0    1
 -2       298       299       448      1738      2143      2144
 -1       738    8    0    1
 -2       299       300       449      1739      2145      2146
 -1       739    8    0    1
 -2       300       301       450      1740      2147      2148
 -1       740    8    0    1
 -2       301       302       451      1741      2149      2150
 -1       741    8    0    1
 -2       301       451       450      2150      2151      2147
 -1       742    8    0    1
 -2       302       303       452      1742      2152      2153
 -1       743    8    0    1
 -2       303       304       453      1743      2154      2155
 -1       744    8    0    1
 -2       304       305       454      1744      2156      2157
 -1       745    8    0    1
 -2       305       306       455      1745      2158      2159
 -1       746    8    0    1
 -2       306       307       456      1746      2160      2161
 -1       747    8    0    1
 -2       307       308       457      1747      2162      2163
 -1       748    8    0    1
 -2       307       457       456      2163      2164      2160
 -1       749    8    0    1
 -2       308       309       458      1748      2165      2166
 -1       750    8    0    1
 -2       309       310       459      1749      2167      2168
 -1       751    8    0    1
 -2       310       311       460      1750      2169      2170
 -1       752    8    0    1
 -2       311       312       461      1751      2171      2172
 -1       753    8    0    1
 -2       312       313       462      1752      2173      2174
 -1       754    8    0    1
 -2       313       314       463      1753      2175      2176
 -1       755    8    0    1
 -2       313       463       462      2176      2177      2173
 -1       756    8    0    1
 -2       314       315       464      1754      2178      2179
 -1       757    8    0    1
 -2       315       316       465      1755      2180      2181
 -1       758    8    0    1
 -2       316       317       466      1756      2182      2183
 -1       759    8    0    1
 -2       316       466       465      2183      2184      2180
 -1       760    8    0    1
 -2       317       318       467      1757      2185      2186
 -1       761    8    0    1
 -2       318       319       468      1758      2187      2188
 -1       762    8    0    1
 -2       295       296       469      1735      2189      2190
 -1       763    8    0    1
 -2       444       295       469      2131      2190      2191
 -1       764    8    0    1
 -2       180       321       181      1805      2192      1339
 -1       765    8    0    1
 -2       449       300       470      2145      2193      2194
 -1       766    8    0    1
 -2       300       450       470      2148      2195      2193
 -1       767    8    0    1
 -2       296       446       469      2139      2196      2189
 -1       768    8    0    1
 -2       335       181       321      1806      2192      2197
 -1       769    8    0    1
 -2       441       291       442      2124      2127      2198
 -1       770    8    0    1
 -2       293       443       471      2130      2199      2200
 -1       771    8    0    1
 -2       293       471       440      2200      2201      2122
 -1       772    8    0    1
 -2       439       289       290      2119      1668      2202
 -1       773    8    0    1
 -2       319       441       468      2125      2203      2187
 -1       774    8    0    1
 -2       466       317       472      2182      2204      2205
 -1       775    8    0    1
 -2       317       467       472      2186      2206      2204
 -1       776    8    0    1
 -2       463       314       464      2175      2179      2207
 -1       777    8    0    1
 -2       461       312       473      2171      2208      2209
 -1       778    8    0    1
 -2       312       462       473      2174      2210      2208
 -1       779    8    0    1
 -2       460       311       461      2169      2172      2211
 -1       780    8    0    1
 -2       459       310       460      2167      2170      2212
 -1       781    8    0    1
 -2       457       308       458      2162      2166      2213
 -1       782    8    0    1
 -2       455       306       456      2158      2161      2214
 -1       783    8    0    1
 -2       454       305       455      2156      2159      2215
 -1       784    8    0    1
 -2       453       304       454      2154      2157      2216
 -1       785    8    0    1
 -2       451       302       452      2149      2153      2217
 -1       786    8    0    1
 -2       298       448       447      2144      2218      2140
 -1       787    8    0    1
 -2       448       299       449      2143      2146      2219
 -1       788    8    0    1
 -2       452       303       453      2152      2155      2220
 -1       789    8    0    1
 -2       458       309       459      2165      2168      2221
 -1       790    8    0    1
 -2       464       315       474      2178      2222      2223
 -1       791    8    0    1
 -2       315       465       474      2181      2224      2222
 -1       792    8    0    1
 -2       467       318       468      2185      2188      2225
 -1       793    8    0    1
 -2       334       381       475      1946      2226      2227
 -1       794    8    0    1
 -2       323       324       476      1772      2228      2229
 -1       795    8    0    1
 -2       322       323       477      1769      2230      2231
 -1       796    8    0    1
 -2       323       476       477      2229      2232      2230
 -1       797    8    0    1
 -2       325       326       478      1778      2233      2234
 -1       798    8    0    1
 -2       326       327       479      1781      2235      2236
 -1       799    8    0    1
 -2       326       479       478      2236      2237      2233
 -1       800    8    0    1
 -2       327       328       480      1784      2238      2239
 -1       801    8    0    1
 -2       327       480       479      2239      2240      2235
 -1       802    8    0    1
 -2       328       329       481      1787      2241      2242
 -1       803    8    0    1
 -2       328       481       480      2242      2243      2238
 -1       804    8    0    1
 -2       329       330       482      1790      2244      2245
 -1       805    8    0    1
 -2       329       482       481      2245      2246      2241
 -1       806    8    0    1
 -2       330       331       483      1793      2247      2248
 -1       807    8    0    1
 -2       330       483       482      2248      2249      2244
 -1       808    8    0    1
 -2       381       382       484      1949      2250      2251
 -1       809    8    0    1
 -2       381       484       475      2251      2252      2226
 -1       810    8    0    1
 -2       336       335       485      1810      2253      2254
 -1       811    8    0    1
 -2       337       336       486      1813      2255      2256
 -1       812    8    0    1
 -2       336       485       486      2254      2257      2255
 -1       813    8    0    1
 -2       338       337       487      1816      2258      2259
 -1       814    8    0    1
 -2       337       486       487      2256      2260      2258
 -1       815    8    0    1
 -2       339       338       488      1819      2261      2262
 -1       816    8    0    1
 -2       338       487       488      2259      2263      2261
 -1       817    8    0    1
 -2       340       339       489      1822      2264      2265
 -1       818    8    0    1
 -2       339       488       489      2262      2266      2264
 -1       819    8    0    1
 -2       341       340       490      1825      2267      2268
 -1       820    8    0    1
 -2       340       489       490      2265      2269      2267
 -1       821    8    0    1
 -2       342       341       491      1828      2270      2271
 -1       822    8    0    1
 -2       341       490       491      2268      2272      2270
 -1       823    8    0    1
 -2       343       342       492      1831      2273      2274
 -1       824    8    0    1
 -2       342       491       492      2271      2275      2273
 -1       825    8    0    1
 -2       344       343       493      1834      2276      2277
 -1       826    8    0    1
 -2       343       492       493      2274      2278      2276
 -1       827    8    0    1
 -2       345       344       494      1837      2279      2280
 -1       828    8    0    1
 -2       344       493       494      2277      2281      2279
 -1       829    8    0    1
 -2       346       345       495      1840      2282      2283
 -1       830    8    0    1
 -2       345       494       495      2280      2284      2282
 -1       831    8    0    1
 -2       347       346       496      1843      2285      2286
 -1       832    8    0    1
 -2       346       495       496      2283      2287      2285
 -1       833    8    0    1
 -2       348       347       497      1846      2288      2289
 -1       834    8    0    1
 -2       347       496       497      2286      2290      2288
 -1       835    8    0    1
 -2       349       348       498      1849      2291      2292
 -1       836    8    0    1
 -2       348       497       498      2289      2293      2291
 -1       837    8    0    1
 -2       350       349       499      1852      2294      2295
 -1       838    8    0    1
 -2       349       498       499      2292      2296      2294
 -1       839    8    0    1
 -2       351       350       500      1855      2297      2298
 -1       840    8    0    1
 -2       350       499       500      2295      2299      2297
 -1       841    8    0    1
 -2       352       351       501      1858      2300      2301
 -1       842    8    0    1
 -2       351       500       501      2298      2302      2300
 -1       843    8    0    1
 -2       353       352       502      1861      2303      2304
 -1       844    8    0    1
 -2       352       501       502      2301      2305      2303
 -1       845    8    0    1
 -2       354       353       503      1864      2306      2307
 -1       846    8    0    1
 -2       353       502       503      2304      2308      2306
 -1       847    8    0    1
 -2       355       354       504      1867      2309      2310
 -1       848    8    0    1
 -2       354       503       504      2307      2311      2309
 -1       849    8    0    1
 -2       356       355       505      1870      2312      2313
 -1       850    8    0    1
 -2       355       504       505      2310      2314      2312
 -1       851    8    0    1
 -2       357       356       506      1873      2315      2316
 -1       852    8    0    1
 -2       356       505       506      2313      2317      2315
 -1       853    8    0    1
 -2       358       357       507      1876      2318      2319
 -1       854    8    0    1
 -2       357       506       507      2316      2320      2318
 -1       855    8    0    1
 -2       359       358       508      1879      2321      2322
 -1       856    8    0    1
 -2       358       507       508      2319      2323      2321
 -1       857    8    0    1
 -2       360       359       509      1882      2324      2325
 -1       858    8    0    1
 -2       359       508       509      2322      2326      2324
 -1       859    8    0    1
 -2       361       360       510      1885      2327      2328
 -1       860    8    0    1
 -2       360       509       510      2325      2329      2327
 -1       861    8    0    1
 -2       362       361       511      1888      2330      2331
 -1       862    8    0    1
 -2       361       510       511      2328      2332      2330
 -1       863    8    0    1
 -2       363       362       512      1891      2333      2334
 -1       864    8    0    1
 -2       362       511       512      2331      2335      2333
 -1       865    8    0    1
 -2       364       363       513      1894      2336      2337
 -1       866    8    0    1
 -2       363       512       513      2334      2338      2336
 -1       867    8    0    1
 -2       365       364       514      1897      2339      2340
 -1       868    8    0    1
 -2       364       513       514      2337      2341      2339
 -1       869    8    0    1
 -2       366       365       515      1900      2342      2343
 -1       870    8    0    1
 -2       365       514       515      2340      2344      2342
 -1       871    8    0    1
 -2       367       366       516      1903      2345      2346
 -1       872    8    0    1
 -2       366       515       516      2343      2347      2345
 -1       873    8    0    1
 -2       368       367       517      1906      2348      2349
 -1       874    8    0    1
 -2       367       516       517      2346      2350      2348
 -1       875    8    0    1
 -2       369       368       518      1909      2351      2352
 -1       876    8    0    1
 -2       368       517       518      2349      2353      2351
 -1       877    8    0    1
 -2       370       369       519      1912      2354      2355
 -1       878    8    0    1
 -2       369       518       519      2352      2356      2354
 -1       879    8    0    1
 -2       371       370       520      1915      2357      2358
 -1       880    8    0    1
 -2       370       519       520      2355      2359      2357
 -1       881    8    0    1
 -2       372       371       521      1918      2360      2361
 -1       882    8    0    1
 -2       371       520       521      2358      2362      2360
 -1       883    8    0    1
 -2       373       372       522      1921      2363      2364
 -1       884    8    0    1
 -2       372       521       522      2361      2365      2363
 -1       885    8    0    1
 -2       374       373       523      1924      2366      2367
 -1       886    8    0    1
 -2       373       522       523      2364      2368      2366
 -1       887    8    0    1
 -2       375       374       524      1927      2369      2370
 -1       888    8    0    1
 -2       374       523       524      2367      2371      2369
 -1       889    8    0    1
 -2       376       375       525      1930      2372      2373
 -1       890    8    0    1
 -2       375       524       525      2370      2374      2372
 -1       891    8    0    1
 -2       377       376       526      1933      2375      2376
 -1       892    8    0    1
 -2       376       525       526      2373      2377      2375
 -1       893    8    0    1
 -2       378       377       527      1936      2378      2379
 -1       894    8    0    1
 -2       377       526       527      2376      2380      2378
 -1       895    8    0    1
 -2       379       378       528      1939      2381      2382
 -1       896    8    0    1
 -2       378       527       528      2379      2383      2381
 -1       897    8    0    1
 -2       442       440       529      2128      2384      2385
 -1       898    8    0    1
 -2       383       384       530      1955      2386      2387
 -1       899    8    0    1
 -2       384       385       531      1958      2388      2389
 -1       900    8    0    1
 -2       384       531       530      2389      2390      2386
 -1       901    8    0    1
 -2       385       386       532      1961      2391      2392
 -1       902    8    0    1
 -2       385       532       531      2392      2393      2388
 -1       903    8    0    1
 -2       386       387       533      1964      2394      2395
 -1       904    8    0    1
 -2       386       533       532      2395      2396      2391
 -1       905    8    0    1
 -2       387       388       534      1967      2397      2398
 -1       906    8    0    1
 -2       387       534       533      2398      2399      2394
 -1       907    8    0    1
 -2       388       389       535      1970      2400      2401
 -1       908    8    0    1
 -2       388       535       534      2401      2402      2397
 -1       909    8    0    1
 -2       389       390       536      1973      2403      2404
 -1       910    8    0    1
 -2       389       536       535      2404      2405      2400
 -1       911    8    0    1
 -2       390       391       537      1976      2406      2407
 -1       912    8    0    1
 -2       390       537       536      2407      2408      2403
 -1       913    8    0    1
 -2       391       392       538      1979      2409      2410
 -1       914    8    0    1
 -2       391       538       537      2410      2411      2406
 -1       915    8    0    1
 -2       392       393       539      1982      2412      2413
 -1       916    8    0    1
 -2       392       539       538      2413      2414      2409
 -1       917    8    0    1
 -2       393       394       540      1985      2415      2416
 -1       918    8    0    1
 -2       393       540       539      2416      2417      2412
 -1       919    8    0    1
 -2       394       395       541      1988      2418      2419
 -1       920    8    0    1
 -2       394       541       540      2419      2420      2415
 -1       921    8    0    1
 -2       395       396       542      1991      2421      2422
 -1       922    8    0    1
 -2       395       542       541      2422      2423      2418
 -1       923    8    0    1
 -2       396       397       543      1994      2424      2425
 -1       924    8    0    1
 -2       396       543       542      2425      2426      2421
 -1       925    8    0    1
 -2       397       398       544      1997      2427      2428
 -1       926    8    0    1
 -2       397       544       543      2428      2429      2424
 -1       927    8    0    1
 -2       398       399       545      2000      2430      2431
 -1       928    8    0    1
 -2       398       545       544      2431      2432      2427
 -1       929    8    0    1
 -2       399       400       546      2003      2433      2434
 -1       930    8    0    1
 -2       399       546       545      2434      2435      2430
 -1       931    8    0    1
 -2       400       401       547      2006      2436      2437
 -1       932    8    0    1
 -2       400       547       546      2437      2438      2433
 -1       933    8    0    1
 -2       401       402       548      2009      2439      2440
 -1       934    8    0    1
 -2       401       548       547      2440      2441      2436
 -1       935    8    0    1
 -2       402       403       549      2012      2442      2443
 -1       936    8    0    1
 -2       402       549       548      2443      2444      2439
 -1       937    8    0    1
 -2       403       404       550      2015      2445      2446
 -1       938    8    0    1
 -2       403       550       549      2446      2447      2442
 -1       939    8    0    1
 -2       404       405       551      2018      2448      2449
 -1       940    8    0    1
 -2       404       551       550      2449      2450      2445
 -1       941    8    0    1
 -2       405       406       552      2021      2451      2452
 -1       942    8    0    1
 -2       405       552       551      2452      2453      2448
 -1       943    8    0    1
 -2       406       407       553      2024      2454      2455
 -1       944    8    0    1
 -2       406       553       552      2455      2456      2451
 -1       945    8    0    1
 -2       407       408       554      2027      2457      2458
 -1       946    8    0    1
 -2       407       554       553      2458      2459      2454
 -1       947    8    0    1
 -2       408       409       555      2030      2460      2461
 -1       948    8    0    1
 -2       408       555       554      2461      2462      2457
 -1       949    8    0    1
 -2       409       410       556      2033      2463      2464
 -1       950    8    0    1
 -2       409       556       555      2464      2465      2460
 -1       951    8    0    1
 -2       410       411       557      2036      2466      2467
 -1       952    8    0    1
 -2       410       557       556      2467      2468      2463
 -1       953    8    0    1
 -2       411       412       558      2039      2469      2470
 -1       954    8    0    1
 -2       411       558       557      2470      2471      2466
 -1       955    8    0    1
 -2       412       413       559      2042      2472      2473
 -1       956    8    0    1
 -2       412       559       558      2473      2474      2469
 -1       957    8    0    1
 -2       413       414       560      2045      2475      2476
 -1       958    8    0    1
 -2       413       560       559      2476      2477      2472
 -1       959    8    0    1
 -2       414       415       561      2048      2478      2479
 -1       960    8    0    1
 -2       414       561       560      2479      2480      2475
 -1       961    8    0    1
 -2       415       416       562      2051      2481      2482
 -1       962    8    0    1
 -2       415       562       561      2482      2483      2478
 -1       963    8    0    1
 -2       416       417       563      2054      2484      2485
 -1       964    8    0    1
 -2       416       563       562      2485      2486      2481
 -1       965    8    0    1
 -2       417       418       564      2057      2487      2488
 -1       966    8    0    1
 -2       417       564       563      2488      2489      2484
 -1       967    8    0    1
 -2       418       419       565      2060      2490      2491
 -1       968    8    0    1
 -2       418       565       564      2491      2492      2487
 -1       969    8    0    1
 -2       419       420       566      2063      2493      2494
 -1       970    8    0    1
 -2       419       566       565      2494      2495      2490
 -1       971    8    0    1
 -2       420       421       567      2066      2496      2497
 -1       972    8    0    1
 -2       420       567       566      2497      2498      2493
 -1       973    8    0    1
 -2       421       422       568      2069      2499      2500
 -1       974    8    0    1
 -2       421       568       567      2500      2501      2496
 -1       975    8    0    1
 -2       422       423       569      2072      2502      2503
 -1       976    8    0    1
 -2       422       569       568      2503      2504      2499
 -1       977    8    0    1
 -2       423       424       570      2075      2505      2506
 -1       978    8    0    1
 -2       423       570       569      2506      2507      2502
 -1       979    8    0    1
 -2       424       425       571      2078      2508      2509
 -1       980    8    0    1
 -2       424       571       570      2509      2510      2505
 -1       981    8    0    1
 -2       425       426       429      2081      2090      2511
 -1       982    8    0    1
 -2       430       431       572      2097      2512      2513
 -1       983    8    0    1
 -2       431       432       573      2100      2514      2515
 -1       984    8    0    1
 -2       431       573       572      2515      2516      2512
 -1       985    8    0    1
 -2       428       427       574      2087      2517      2518
 -1       986    8    0    1
 -2       427       430       575      2094      2519      2520
 -1       987    8    0    1
 -2       574       427       575      2517      2520      2521
 -1       988    8    0    1
 -2       430       572       575      2513      2522      2519
 -1       989    8    0    1
 -2       432       433       576      2103      2523      2524
 -1       990    8    0    1
 -2       432       576       573      2524      2525      2514
 -1       991    8    0    1
 -2       433       434       577      2106      2526      2527
 -1       992    8    0    1
 -2       433       577       576      2527      2528      2523
 -1       993    8    0    1
 -2       434       435       578      2109      2529      2530
 -1       994    8    0    1
 -2       434       578       577      2530      2531      2526
 -1       995    8    0    1
 -2       435       436       579      2112      2532      2533
 -1       996    8    0    1
 -2       435       579       578      2533      2534      2529
 -1       997    8    0    1
 -2       436       437       580      2115      2535      2536
 -1       998    8    0    1
 -2       436       580       579      2536      2537      2532
 -1       999    8    0    1
 -2       437       438       581      2118      2538      2539
 -1      1000    8    0    1
 -2       437       581       580      2539      2540      2535
 -1      1001    8    0    1
 -2       438       439       582      2121      2541      2542
 -1      1002    8    0    1
 -2       438       582       581      2542      2543      2538
 -1      1003    8    0    1
 -2       439       290       380      2202      1942      2544
 -1      1004    8    0    1
 -2       468       441       583      2203      2545      2546
 -1      1005    8    0    1
 -2       382       383       584      1952      2547      2548
 -1      1006    8    0    1
 -2       383       530       584      2387      2549      2547
 -1      1007    8    0    1
 -2       443       444       585      2133      2550      2551
 -1      1008    8    0    1
 -2       335       321       586      2197      2552      2553
 -1      1009    8    0    1
 -2       485       335       586      2253      2553      2554
 -1      1010    8    0    1
 -2       321       320       586      1764      2555      2552
 -1      1011    8    0    1
 -2       463       464       587      2207      2556      2557
 -1      1012    8    0    1
 -2       455       456       588      2214      2558      2559
 -1      1013    8    0    1
 -2       447       448       589      2218      2560      2561
 -1      1014    8    0    1
 -2       324       325       590      1775      2562      2563
 -1      1015    8    0    1
 -2       476       324       590      2228      2563      2564
 -1      1016    8    0    1
 -2       325       478       590      2234      2565      2562
 -1      1017    8    0    1
 -2       448       449       591      2219      2566      2567
 -1      1018    8    0    1
 -2       446       447       592      2142      2568      2569
 -1      1019    8    0    1
 -2       447       589       592      2561      2570      2568
 -1      1020    8    0    1
 -2       452       453       593      2220      2571      2572
 -1      1021    8    0    1
 -2       469       446       594      2196      2573      2574
 -1      1022    8    0    1
 -2       450       451       595      2151      2575      2576
 -1      1023    8    0    1
 -2       458       459       596      2221      2577      2578
 -1      1024    8    0    1
 -2       451       452       597      2217      2579      2580
 -1      1025    8    0    1
 -2       451       597       595      2580      2581      2575
 -1      1026    8    0    1
 -2       453       454       598      2216      2582      2583
 -1      1027    8    0    1
 -2       454       455       599      2215      2584      2585
 -1      1028    8    0    1
 -2       456       457       600      2164      2586      2587
 -1      1029    8    0    1
 -2       457       458       601      2213      2588      2589
 -1      1030    8    0    1
 -2       457       601       600      2589      2590      2586
 -1      1031    8    0    1
 -2       459       460       602      2212      2591      2592
 -1      1032    8    0    1
 -2       460       461       603      2211      2593      2594
 -1      1033    8    0    1
 -2       462       463       604      2177      2595      2596
 -1      1034    8    0    1
 -2       467       468       605      2225      2597      2598
 -1      1035    8    0    1
 -2       465       466       606      2184      2599      2600
 -1      1036    8    0    1
 -2       441       442       607      2198      2601      2602
 -1      1037    8    0    1
 -2       333       334       608      1804      2603      2604
 -1      1038    8    0    1
 -2       332       333       608      1799      2604      2605
 -1      1039    8    0    1
 -2       334       475       608      2227      2606      2603
 -1      1040    8    0    1
 -2       444       469       609      2191      2607      2608
 -1      1041    8    0    1
 -2       444       609       585      2608      2609      2550
 -1      1042    8    0    1
 -2       448       591       610      2567      2610      2611
 -1      1043    8    0    1
 -2       448       610       589      2611      2612      2560
 -1      1044    8    0    1
 -2       322       477       611      2231      2613      2614
 -1      1045    8    0    1
 -2       322       611       445      2614      2615      2137
 -1      1046    8    0    1
 -2       484       382       584      2250      2548      2616
 -1      1047    8    0    1
 -2       331       332       608      1796      2605      2617
 -1      1048    8    0    1
 -2       609       469       594      2607      2574      2618
 -1      1049    8    0    1
 -2       605       468       583      2597      2546      2619
 -1      1050    8    0    1
 -2       470       450       595      2195      2576      2620
 -1      1051    8    0    1
 -2       604       463       587      2595      2557      2621
 -1      1052    8    0    1
 -2       587       464       612      2556      2622      2623
 -1      1053    8    0    1
 -2       464       474       612      2223      2624      2622
 -1      1054    8    0    1
 -2       449       470       613      2194      2625      2626
 -1      1055    8    0    1
 -2       449       613       591      2626      2627      2566
 -1      1056    8    0    1
 -2       603       461       473      2593      2209      2628
 -1      1057    8    0    1
 -2       601       458       596      2588      2578      2629
 -1      1058    8    0    1
 -2       529       440       614      2384      2630      2631
 -1      1059    8    0    1
 -2       440       471       614      2201      2632      2630
 -1      1060    8    0    1
 -2       443       585       471      2551      2633      2199
 -1      1061    8    0    1
 -2       425       429       571      2511      2634      2508
 -1      1062    8    0    1
 -2       586       320       445      2555      2136      2635
 -1      1063    8    0    1
 -2       429       428       571      2091      2636      2634
 -1      1064    8    0    1
 -2       439       380       615      2544      2637      2638
 -1      1065    8    0    1
 -2       582       439       615      2541      2638      2639
 -1      1066    8    0    1
 -2       380       379       615      1943      2640      2637
 -1      1067    8    0    1
 -2       459       602       596      2592      2641      2577
 -1      1068    8    0    1
 -2       599       455       588      2584      2559      2642
 -1      1069    8    0    1
 -2       583       441       607      2545      2602      2643
 -1      1070    8    0    1
 -2       331       608       483      2617      2644      2247
 -1      1071    8    0    1
 -2       472       467       605      2206      2598      2645
 -1      1072    8    0    1
 -2       571       428       574      2636      2518      2646
 -1      1073    8    0    1
 -2       607       442       529      2601      2385      2647
 -1      1074    8    0    1
 -2       606       466       616      2599      2648      2649
 -1      1075    8    0    1
 -2       466       472       616      2205      2650      2648
 -1      1076    8    0    1
 -2       588       456       600      2558      2587      2651
 -1      1077    8    0    1
 -2       597       452       593      2579      2572      2652
 -1      1078    8    0    1
 -2       473       462       617      2210      2653      2654
 -1      1079    8    0    1
 -2       462       604       617      2596      2655      2653
 -1      1080    8    0    1
 -2       453       598       593      2583      2656      2571
 -1      1081    8    0    1
 -2       594       446       592      2573      2569      2657
 -1      1082    8    0    1
 -2       598       454       599      2582      2585      2658
 -1      1083    8    0    1
 -2       474       465       606      2224      2600      2659
 -1      1084    8    0    1
 -2       602       460       603      2591      2594      2660
 -1      1085    8    0    1
 -2       615       379       528      2640      2382      2661
 -1      1086    8    0    1
 -2       479       480       618      2240      2662      2663
 -1      1087    8    0    1
 -2       478       479       619      2237      2664      2665
 -1      1088    8    0    1
 -2       479       618       619      2663      2666      2664
 -1      1089    8    0    1
 -2       481       482       620      2246      2667      2668
 -1      1090    8    0    1
 -2       482       483       621      2249      2669      2670
 -1      1091    8    0    1
 -2       482       621       620      2670      2671      2667
 -1      1092    8    0    1
 -2       475       484       622      2252      2672      2673
 -1      1093    8    0    1
 -2       472       605       623      2645      2674      2675
 -1      1094    8    0    1
 -2       470       595       624      2620      2676      2677
 -1      1095    8    0    1
 -2       487       486       625      2260      2678      2679
 -1      1096    8    0    1
 -2       488       487       626      2263      2680      2681
 -1      1097    8    0    1
 -2       487       625       626      2679      2682      2680
 -1      1098    8    0    1
 -2       489       488       627      2266      2683      2684
 -1      1099    8    0    1
 -2       488       626       627      2681      2685      2683
 -1      1100    8    0    1
 -2       490       489       628      2269      2686      2687
 -1      1101    8    0    1
 -2       489       627       628      2684      2688      2686
 -1      1102    8    0    1
 -2       491       490       629      2272      2689      2690
 -1      1103    8    0    1
 -2       490       628       629      2687      2691      2689
 -1      1104    8    0    1
 -2       492       491       630      2275      2692      2693
 -1      1105    8    0    1
 -2       491       629       630      2690      2694      2692
 -1      1106    8    0    1
 -2       493       492       631      2278      2695      2696
 -1      1107    8    0    1
 -2       492       630       631      2693      2697      2695
 -1      1108    8    0    1
 -2       494       493       632      2281      2698      2699
 -1      1109    8    0    1
 -2       493       631       632      2696      2700      2698
 -1      1110    8    0    1
 -2       495       494       633      2284      2701      2702
 -1      1111    8    0    1
 -2       494       632       633      2699      2703      2701
 -1      1112    8    0    1
 -2       496       495       634      2287      2704      2705
 -1      1113    8    0    1
 -2       495       633       634      2702      2706      2704
 -1      1114    8    0    1
 -2       497       496       635      2290      2707      2708
 -1      1115    8    0    1
 -2       496       634       635      2705      2709      2707
 -1      1116    8    0    1
 -2       498       497       636      2293      2710      2711
 -1      1117    8    0    1
 -2       497       635       636      2708      2712      2710
 -1      1118    8    0    1
 -2       499       498       637      2296      2713      2714
 -1      1119    8    0    1
 -2       498       636       637      2711      2715      2713
 -1      1120    8    0    1
 -2       500       499       638      2299      2716      2717
 -1      1121    8    0    1
 -2       499       637       638      2714      2718      2716
 -1      1122    8    0    1
 -2       501       500       639      2302      2719      2720
 -1      1123    8    0    1
 -2       500       638       639      2717      2721      2719
 -1      1124    8    0    1
 -2       502       501       640      2305      2722      2723
 -1      1125    8    0    1
 -2       501       639       640      2720      2724      2722
 -1      1126    8    0    1
 -2       503       502       641      2308      2725      2726
 -1      1127    8    0    1
 -2       502       640       641      2723      2727      2725
 -1      1128    8    0    1
 -2       504       503       642      2311      2728      2729
 -1      1129    8    0    1
 -2       503       641       642      2726      2730      2728
 -1      1130    8    0    1
 -2       505       504       643      2314      2731      2732
 -1      1131    8    0    1
 -2       504       642       643      2729      2733      2731
 -1      1132    8    0    1
 -2       506       505       644      2317      2734      2735
 -1      1133    8    0    1
 -2       505       643       644      2732      2736      2734
 -1      1134    8    0    1
 -2       507       506       645      2320      2737      2738
 -1      1135    8    0    1
 -2       506       644       645      2735      2739      2737
 -1      1136    8    0    1
 -2       508       507       646      2323      2740      2741
 -1      1137    8    0    1
 -2       507       645       646      2738      2742      2740
 -1      1138    8    0    1
 -2       509       508       647      2326      2743      2744
 -1      1139    8    0    1
 -2       508       646       647      2741      2745      2743
 -1      1140    8    0    1
 -2       510       509       648      2329      2746      2747
 -1      1141    8    0    1
 -2       509       647       648      2744      2748      2746
 -1      1142    8    0    1
 -2       511       510       649      2332      2749      2750
 -1      1143    8    0    1
 -2       510       648       649      2747      2751      2749
 -1      1144    8    0    1
 -2       512       511       650      2335      2752      2753
 -1      1145    8    0    1
 -2       511       649       650      2750      2754      2752
 -1      1146    8    0    1
 -2       513       512       651      2338      2755      2756
 -1      1147    8    0    1
 -2       512       650       651      2753      2757      2755
 -1      1148    8    0    1
 -2       514       513       652      2341      2758      2759
 -1      1149    8    0    1
 -2       513       651       652      2756      2760      2758
 -1      1150    8    0    1
 -2       515       514       653      2344      2761      2762
 -1      1151    8    0    1
 -2       514       652       653      2759      2763      2761
 -1      1152    8    0    1
 -2       516       515       654      2347      2764      2765
 -1      1153    8    0    1
 -2       515       653       654      2762      2766      2764
 -1      1154    8    0    1
 -2       517       516       655      2350      2767      2768
 -1      1155    8    0    1
 -2       516       654       655      2765      2769      2767
 -1      1156    8    0    1
 -2       518       517       656      2353      2770      2771
 -1      1157    8    0    1
 -2       517       655       656      2768      2772      2770
 -1      1158    8    0    1
 -2       519       518       657      2356      2773      2774
 -1      1159    8    0    1
 -2       518       656       657      2771      2775      2773
 -1      1160    8    0    1
 -2       520       519       658      2359      2776      2777
 -1      1161    8    0    1
 -2       519       657       658      2774      2778      2776
 -1      1162    8    0    1
 -2       521       520       659      2362      2779      2780
 -1      1163    8    0    1
 -2       520       658       659      2777      2781      2779
 -1      1164    8    0    1
 -2       522       521       660      2365      2782      2783
 -1      1165    8    0    1
 -2       521       659       660      2780      2784      2782
 -1      1166    8    0    1
 -2       523       522       661      2368      2785      2786
 -1      1167    8    0    1
 -2       522       660       661      2783      2787      2785
 -1      1168    8    0    1
 -2       524       523       662      2371      2788      2789
 -1      1169    8    0    1
 -2       523       661       662      2786      2790      2788
 -1      1170    8    0    1
 -2       525       524       663      2374      2791      2792
 -1      1171    8    0    1
 -2       524       662       663      2789      2793      2791
 -1      1172    8    0    1
 -2       526       525       664      2377      2794      2795
 -1      1173    8    0    1
 -2       525       663       664      2792      2796      2794
 -1      1174    8    0    1
 -2       527       526       665      2380      2797      2798
 -1      1175    8    0    1
 -2       526       664       665      2795      2799      2797
 -1      1176    8    0    1
 -2       528       527       666      2383      2800      2801
 -1      1177    8    0    1
 -2       527       665       666      2798      2802      2800
 -1      1178    8    0    1
 -2       596       602       667      2641      2803      2804
 -1      1179    8    0    1
 -2       530       531       668      2390      2805      2806
 -1      1180    8    0    1
 -2       533       534       669      2399      2807      2808
 -1      1181    8    0    1
 -2       534       535       670      2402      2809      2810
 -1      1182    8    0    1
 -2       534       670       669      2810      2811      2807
 -1      1183    8    0    1
 -2       535       536       671      2405      2812      2813
 -1      1184    8    0    1
 -2       535       671       670      2813      2814      2809
 -1      1185    8    0    1
 -2       536       537       672      2408      2815      2816
 -1      1186    8    0    1
 -2       536       672       671      2816      2817      2812
 -1      1187    8    0    1
 -2       537       538       673      2411      2818      2819
 -1      1188    8    0    1
 -2       537       673       672      2819      2820      2815
 -1      1189    8    0    1
 -2       538       539       674      2414      2821      2822
 -1      1190    8    0    1
 -2       538       674       673      2822      2823      2818
 -1      1191    8    0    1
 -2       539       540       675      2417      2824      2825
 -1      1192    8    0    1
 -2       539       675       674      2825      2826      2821
 -1      1193    8    0    1
 -2       540       541       676      2420      2827      2828
 -1      1194    8    0    1
 -2       540       676       675      2828      2829      2824
 -1      1195    8    0    1
 -2       541       542       677      2423      2830      2831
 -1      1196    8    0    1
 -2       541       677       676      2831      2832      2827
 -1      1197    8    0    1
 -2       542       543       678      2426      2833      2834
 -1      1198    8    0    1
 -2       542       678       677      2834      2835      2830
 -1      1199    8    0    1
 -2       543       544       679      2429      2836      2837
 -1      1200    8    0    1
 -2       543       679       678      2837      2838      2833
 -1      1201    8    0    1
 -2       544       545       680      2432      2839      2840
 -1      1202    8    0    1
 -2       544       680       679      2840      2841      2836
 -1      1203    8    0    1
 -2       545       546       681      2435      2842      2843
 -1      1204    8    0    1
 -2       545       681       680      2843      2844      2839
 -1      1205    8    0    1
 -2       546       547       682      2438      2845      2846
 -1      1206    8    0    1
 -2       546       682       681      2846      2847      2842
 -1      1207    8    0    1
 -2       547       548       683      2441      2848      2849
 -1      1208    8    0    1
 -2       547       683       682      2849      2850      2845
 -1      1209    8    0    1
 -2       548       549       684      2444      2851      2852
 -1      1210    8    0    1
 -2       548       684       683      2852      2853      2848
 -1      1211    8    0    1
 -2       549       550       685      2447      2854      2855
 -1      1212    8    0    1
 -2       549       685       684      2855      2856      2851
 -1      1213    8    0    1
 -2       550       551       686      2450      2857      2858
 -1      1214    8    0    1
 -2       550       686       685      2858      2859      2854
 -1      1215    8    0    1
 -2       551       552       687      2453      2860      2861
 -1      1216    8    0    1
 -2       551       687       686      2861      2862      2857
 -1      1217    8    0    1
 -2       552       553       624      2456      2863      2864
 -1      1218    8    0    1
 -2       553       554       613      2459      2865      2866
 -1      1219    8    0    1
 -2       554       555       610      2462      2867      2868
 -1      1220    8    0    1
 -2       555       556       592      2465      2869      2870
 -1      1221    8    0    1
 -2       557       558       688      2471      2871      2872
 -1      1222    8    0    1
 -2       558       559       689      2474      2873      2874
 -1      1223    8    0    1
 -2       558       689       688      2874      2875      2871
 -1      1224    8    0    1
 -2       559       560       690      2477      2876      2877
 -1      1225    8    0    1
 -2       559       690       689      2877      2878      2873
 -1      1226    8    0    1
 -2       560       561       691      2480      2879      2880
 -1      1227    8    0    1
 -2       560       691       690      2880      2881      2876
 -1      1228    8    0    1
 -2       561       562       692      2483      2882      2883
 -1      1229    8    0    1
 -2       561       692       691      2883      2884      2879
 -1      1230    8    0    1
 -2       562       563       693      2486      2885      2886
 -1      1231    8    0    1
 -2       562       693       692      2886      2887      2882
 -1      1232    8    0    1
 -2       563       564       694      2489      2888      2889
 -1      1233    8    0    1
 -2       563       694       693      2889      2890      2885
 -1      1234    8    0    1
 -2       564       565       695      2492      2891      2892
 -1      1235    8    0    1
 -2       564       695       694      2892      2893      2888
 -1      1236    8    0    1
 -2       565       566       696      2495      2894      2895
 -1      1237    8    0    1
 -2       565       696       695      2895      2896      2891
 -1      1238    8    0    1
 -2       566       567       697      2498      2897      2898
 -1      1239    8    0    1
 -2       566       697       696      2898      2899      2894
 -1      1240    8    0    1
 -2       567       568       698      2501      2900      2901
 -1      1241    8    0    1
 -2       567       698       697      2901      2902      2897
 -1      1242    8    0    1
 -2       568       569       699      2504      2903      2904
 -1      1243    8    0    1
 -2       568       699       698      2904      2905      2900
 -1      1244    8    0    1
 -2       569       570       700      2507      2906      2907
 -1      1245    8    0    1
 -2       569       700       699      2907      2908      2903
 -1      1246    8    0    1
 -2       570       571       701      2510      2909      2910
 -1      1247    8    0    1
 -2       700       570       701      2906      2910      2911
 -1      1248    8    0    1
 -2       571       574       701      2646      2912      2909
 -1      1249    8    0    1
 -2       586       445       611      2635      2615      2913
 -1      1250    8    0    1
 -2       576       577       702      2528      2914      2915
 -1      1251    8    0    1
 -2       607       529       703      2647      2916      2917
 -1      1252    8    0    1
 -2       572       573       704      2516      2918      2919
 -1      1253    8    0    1
 -2       577       578       705      2531      2920      2921
 -1      1254    8    0    1
 -2       577       705       702      2921      2922      2914
 -1      1255    8    0    1
 -2       573       576       706      2525      2923      2924
 -1      1256    8    0    1
 -2       704       573       706      2918      2924      2925
 -1      1257    8    0    1
 -2       576       702       706      2915      2926      2923
 -1      1258    8    0    1
 -2       582       615       707      2639      2927      2928
 -1      1259    8    0    1
 -2       615       528       707      2661      2929      2927
 -1      1260    8    0    1
 -2       578       579       708      2534      2930      2931
 -1      1261    8    0    1
 -2       578       708       705      2931      2932      2920
 -1      1262    8    0    1
 -2       579       580       709      2537      2933      2934
 -1      1263    8    0    1
 -2       579       709       708      2934      2935      2930
 -1      1264    8    0    1
 -2       580       581       710      2540      2936      2937
 -1      1265    8    0    1
 -2       580       710       709      2937      2938      2933
 -1      1266    8    0    1
 -2       581       582       707      2543      2928      2939
 -1      1267    8    0    1
 -2       584       530       711      2549      2940      2941
 -1      1268    8    0    1
 -2       530       668       711      2806      2942      2940
 -1      1269    8    0    1
 -2       471       585       712      2633      2943      2944
 -1      1270    8    0    1
 -2       485       586       713      2554      2945      2946
 -1      1271    8    0    1
 -2       486       485       713      2257      2946      2947
 -1      1272    8    0    1
 -2       586       611       713      2913      2948      2945
 -1      1273    8    0    1
 -2       608       475       483      2606      2949      2644
 -1      1274    8    0    1
 -2       588       600       714      2651      2950      2951
 -1      1275    8    0    1
 -2       583       607       715      2643      2952      2953
 -1      1276    8    0    1
 -2       601       596       716      2629      2954      2955
 -1      1277    8    0    1
 -2       596       667       716      2804      2956      2954
 -1      1278    8    0    1
 -2       599       588       717      2642      2957      2958
 -1      1279    8    0    1
 -2       532       533       718      2396      2959      2960
 -1      1280    8    0    1
 -2       533       669       718      2808      2961      2959
 -1      1281    8    0    1
 -2       531       532       719      2393      2962      2963
 -1      1282    8    0    1
 -2       532       718       719      2960      2964      2962
 -1      1283    8    0    1
 -2       484       584       720      2616      2965      2966
 -1      1284    8    0    1
 -2       622       484       720      2672      2966      2967
 -1      1285    8    0    1
 -2       584       711       720      2941      2968      2965
 -1      1286    8    0    1
 -2       598       599       721      2658      2969      2970
 -1      1287    8    0    1
 -2       480       481       722      2243      2971      2972
 -1      1288    8    0    1
 -2       618       480       722      2662      2972      2973
 -1      1289    8    0    1
 -2       481       620       722      2668      2974      2971
 -1      1290    8    0    1
 -2       605       583       723      2619      2975      2976
 -1      1291    8    0    1
 -2       583       715       723      2953      2977      2975
 -1      1292    8    0    1
 -2       604       587       724      2621      2978      2979
 -1      1293    8    0    1
 -2       477       476       725      2232      2980      2981
 -1      1294    8    0    1
 -2       595       597       726      2581      2982      2983
 -1      1295    8    0    1
 -2       474       606       727      2659      2984      2985
 -1      1296    8    0    1
 -2       597       593       728      2652      2986      2987
 -1      1297    8    0    1
 -2       600       601       729      2590      2988      2989
 -1      1298    8    0    1
 -2       593       598       730      2656      2990      2991
 -1      1299    8    0    1
 -2       593       730       728      2991      2992      2986
 -1      1300    8    0    1
 -2       603       473       731      2628      2993      2994
 -1      1301    8    0    1
 -2       602       603       732      2660      2995      2996
 -1      1302    8    0    1
 -2       585       609       733      2609      2997      2998
 -1      1303    8    0    1
 -2       609       594       734      2618      2999      3000
 -1      1304    8    0    1
 -2       611       477       735      2613      3001      3002
 -1      1305    8    0    1
 -2       477       725       735      2981      3003      3001
 -1      1306    8    0    1
 -2       478       619       736      2665      3004      3005
 -1      1307    8    0    1
 -2       478       736       590      3005      3006      2565
 -1      1308    8    0    1
 -2       721       599       717      2969      2958      3007
 -1      1309    8    0    1
 -2       472       623       616      2675      3008      2650
 -1      1310    8    0    1
 -2       470       624       613      2677      3009      2625
 -1      1311    8    0    1
 -2       734       594       737      2999      3010      3011
 -1      1312    8    0    1
 -2       612       474       738      2624      3012      3013
 -1      1313    8    0    1
 -2       474       727       738      2985      3014      3012
 -1      1314    8    0    1
 -2       605       723       739      2976      3015      3016
 -1      1315    8    0    1
 -2       605       739       623      3016      3017      2674
 -1      1316    8    0    1
 -2       733       609       734      2997      3000      3018
 -1      1317    8    0    1
 -2       732       603       740      2995      3019      3020
 -1      1318    8    0    1
 -2       603       731       740      2994      3021      3019
 -1      1319    8    0    1
 -2       614       471       712      2632      2944      3022
 -1      1320    8    0    1
 -2       528       666       707      2801      3023      2929
 -1      1321    8    0    1
 -2       667       602       732      2803      2996      3024
 -1      1322    8    0    1
 -2       730       598       721      2990      2970      3025
 -1      1323    8    0    1
 -2       729       601       716      2988      2955      3026
 -1      1324    8    0    1
 -2       531       719       668      2963      3027      2805
 -1      1325    8    0    1
 -2       556       557       741      2468      3028      3029
 -1      1326    8    0    1
 -2       703       529       742      2916      3030      3031
 -1      1327    8    0    1
 -2       529       614       742      2631      3032      3030
 -1      1328    8    0    1
 -2       701       574       743      2912      3033      3034
 -1      1329    8    0    1
 -2       574       575       743      2521      3035      3033
 -1      1330    8    0    1
 -2       607       703       715      2917      3036      2952
 -1      1331    8    0    1
 -2       727       606       744      2984      3037      3038
 -1      1332    8    0    1
 -2       606       616       744      2649      3039      3037
 -1      1333    8    0    1
 -2       581       707       745      2939      3040      3041
 -1      1334    8    0    1
 -2       710       581       745      2936      3041      3042
 -1      1335    8    0    1
 -2       707       666       745      3023      3043      3040
 -1      1336    8    0    1
 -2       726       597       728      2982      2987      3044
 -1      1337    8    0    1
 -2       712       585       733      2943      2998      3045
 -1      1338    8    0    1
 -2       592       556       741      2869      3029      3046
 -1      1339    8    0    1
 -2       486       713       625      2947      3047      2678
 -1      1340    8    0    1
 -2       714       600       729      2950      2989      3048
 -1      1341    8    0    1
 -2       604       724       746      2979      3049      3050
 -1      1342    8    0    1
 -2       604       746       617      3050      3051      2655
 -1      1343    8    0    1
 -2       624       595       726      2676      2983      3052
 -1      1344    8    0    1
 -2       473       617       731      2654      3053      2993
 -1      1345    8    0    1
 -2       575       572       747      2522      3054      3055
 -1      1346    8    0    1
 -2       743       575       747      3035      3055      3056
 -1      1347    8    0    1
 -2       572       704       747      2919      3057      3054
 -1      1348    8    0    1
 -2       476       590       748      2564      3058      3059
 -1      1349    8    0    1
 -2       725       476       748      2980      3059      3060
 -1      1350    8    0    1
 -2       590       736       748      3006      3061      3058
 -1      1351    8    0    1
 -2       587       612       749      2623      3062      3063
 -1      1352    8    0    1
 -2       587       749       724      3063      3064      2978
 -1      1353    8    0    1
 -2       621       483       622      2669      3065      3066
 -1      1354    8    0    1
 -2       483       475       622      2949      2673      3065
 -1      1355    8    0    1
 -2       741       557       688      3028      2872      3067
 -1      1356    8    0    1
 -2       620       621       750      2671      3068      3069
 -1      1357    8    0    1
 -2       616       623       751      3008      3070      3071
 -1      1358    8    0    1
 -2       627       626       752      2685      3072      3073
 -1      1359    8    0    1
 -2       628       627       753      2688      3074      3075
 -1      1360    8    0    1
 -2       627       752       753      3073      3076      3074
 -1      1361    8    0    1
 -2       629       628       754      2691      3077      3078
 -1      1362    8    0    1
 -2       628       753       754      3075      3079      3077
 -1      1363    8    0    1
 -2       630       629       755      2694      3080      3081
 -1      1364    8    0    1
 -2       629       754       755      3078      3082      3080
 -1      1365    8    0    1
 -2       631       630       756      2697      3083      3084
 -1      1366    8    0    1
 -2       630       755       756      3081      3085      3083
 -1      1367    8    0    1
 -2       632       631       757      2700      3086      3087
 -1      1368    8    0    1
 -2       631       756       757      3084      3088      3086
 -1      1369    8    0    1
 -2       633       632       758      2703      3089      3090
 -1      1370    8    0    1
 -2       632       757       758      3087      3091      3089
 -1      1371    8    0    1
 -2       634       633       759      2706      3092      3093
 -1      1372    8    0    1
 -2       633       758       759      3090      3094      3092
 -1      1373    8    0    1
 -2       635       634       760      2709      3095      3096
 -1      1374    8    0    1
 -2       634       759       760      3093      3097      3095
 -1      1375    8    0    1
 -2       636       635       761      2712      3098      3099
 -1      1376    8    0    1
 -2       635       760       761      3096      3100      3098
 -1      1377    8    0    1
 -2       637       636       762      2715      3101      3102
 -1      1378    8    0    1
 -2       636       761       762      3099      3103      3101
 -1      1379    8    0    1
 -2       638       637       763      2718      3104      3105
 -1      1380    8    0    1
 -2       637       762       763      3102      3106      3104
 -1      1381    8    0    1
 -2       639       638       764      2721      3107      3108
 -1      1382    8    0    1
 -2       638       763       764      3105      3109      3107
 -1      1383    8    0    1
 -2       640       639       765      2724      3110      3111
 -1      1384    8    0    1
 -2       639       764       765      3108      3112      3110
 -1      1385    8    0    1
 -2       641       640       766      2727      3113      3114
 -1      1386    8    0    1
 -2       640       765       766      3111      3115      3113
 -1      1387    8    0    1
 -2       642       641       767      2730      3116      3117
 -1      1388    8    0    1
 -2       641       766       767      3114      3118      3116
 -1      1389    8    0    1
 -2       643       642       768      2733      3119      3120
 -1      1390    8    0    1
 -2       642       767       768      3117      3121      3119
 -1      1391    8    0    1
 -2       644       643       769      2736      3122      3123
 -1      1392    8    0    1
 -2       643       768       769      3120      3124      3122
 -1      1393    8    0    1
 -2       645       644       770      2739      3125      3126
 -1      1394    8    0    1
 -2       644       769       770      3123      3127      3125
 -1      1395    8    0    1
 -2       646       645       771      2742      3128      3129
 -1      1396    8    0    1
 -2       645       770       771      3126      3130      3128
 -1      1397    8    0    1
 -2       647       646       772      2745      3131      3132
 -1      1398    8    0    1
 -2       646       771       772      3129      3133      3131
 -1      1399    8    0    1
 -2       648       647       773      2748      3134      3135
 -1      1400    8    0    1
 -2       647       772       773      3132      3136      3134
 -1      1401    8    0    1
 -2       649       648       774      2751      3137      3138
 -1      1402    8    0    1
 -2       648       773       774      3135      3139      3137
 -1      1403    8    0    1
 -2       650       649       740      2754      3140      3141
 -1      1404    8    0    1
 -2       652       651       746      2760      3142      3143
 -1      1405    8    0    1
 -2       653       652       749      2763      3144      3145
 -1      1406    8    0    1
 -2       655       654       775      2769      3146      3147
 -1      1407    8    0    1
 -2       656       655       776      2772      3148      3149
 -1      1408    8    0    1
 -2       655       775       776      3147      3150      3148
 -1      1409    8    0    1
 -2       657       656       777      2775      3151      3152
 -1      1410    8    0    1
 -2       656       776       777      3149      3153      3151
 -1      1411    8    0    1
 -2       658       657       778      2778      3154      3155
 -1      1412    8    0    1
 -2       657       777       778      3152      3156      3154
 -1      1413    8    0    1
 -2       659       658       779      2781      3157      3158
 -1      1414    8    0    1
 -2       658       778       779      3155      3159      3157
 -1      1415    8    0    1
 -2       660       659       780      2784      3160      3161
 -1      1416    8    0    1
 -2       659       779       780      3158      3162      3160
 -1      1417    8    0    1
 -2       661       660       781      2787      3163      3164
 -1      1418    8    0    1
 -2       660       780       781      3161      3165      3163
 -1      1419    8    0    1
 -2       662       661       782      2790      3166      3167
 -1      1420    8    0    1
 -2       661       781       782      3164      3168      3166
 -1      1421    8    0    1
 -2       663       662       783      2793      3169      3170
 -1      1422    8    0    1
 -2       662       782       783      3167      3171      3169
 -1      1423    8    0    1
 -2       664       663       784      2796      3172      3173
 -1      1424    8    0    1
 -2       663       783       784      3170      3174      3172
 -1      1425    8    0    1
 -2       665       664       785      2799      3175      3176
 -1      1426    8    0    1
 -2       664       784       785      3173      3177      3175
 -1      1427    8    0    1
 -2       666       665       786      2802      3178      3179
 -1      1428    8    0    1
 -2       745       666       786      3043      3179      3180
 -1      1429    8    0    1
 -2       665       785       786      3176      3181      3178
 -1      1430    8    0    1
 -2       726       728       787      3044      3182      3183
 -1      1431    8    0    1
 -2       669       670       788      2811      3184      3185
 -1      1432    8    0    1
 -2       672       673       789      2820      3186      3187
 -1      1433    8    0    1
 -2       673       674       790      2823      3188      3189
 -1      1434    8    0    1
 -2       673       790       789      3189      3190      3186
 -1      1435    8    0    1
 -2       674       675       791      2826      3191      3192
 -1      1436    8    0    1
 -2       674       791       790      3192      3193      3188
 -1      1437    8    0    1
 -2       675       676       792      2829      3194      3195
 -1      1438    8    0    1
 -2       675       792       791      3195      3196      3191
 -1      1439    8    0    1
 -2       676       677       793      2832      3197      3198
 -1      1440    8    0    1
 -2       676       793       792      3198      3199      3194
 -1      1441    8    0    1
 -2       677       678       794      2835      3200      3201
 -1      1442    8    0    1
 -2       677       794       793      3201      3202      3197
 -1      1443    8    0    1
 -2       678       679       795      2838      3203      3204
 -1      1444    8    0    1
 -2       678       795       794      3204      3205      3200
 -1      1445    8    0    1
 -2       679       680       796      2841      3206      3207
 -1      1446    8    0    1
 -2       679       796       795      3207      3208      3203
 -1      1447    8    0    1
 -2       680       681       797      2844      3209      3210
 -1      1448    8    0    1
 -2       680       797       796      3210      3211      3206
 -1      1449    8    0    1
 -2       681       682       798      2847      3212      3213
 -1      1450    8    0    1
 -2       681       798       797      3213      3214      3209
 -1      1451    8    0    1
 -2       682       683       799      2850      3215      3216
 -1      1452    8    0    1
 -2       682       799       798      3216      3217      3212
 -1      1453    8    0    1
 -2       683       684       800      2853      3218      3219
 -1      1454    8    0    1
 -2       683       800       799      3219      3220      3215
 -1      1455    8    0    1
 -2       684       685       801      2856      3221      3222
 -1      1456    8    0    1
 -2       684       801       800      3222      3223      3218
 -1      1457    8    0    1
 -2       685       686       802      2859      3224      3225
 -1      1458    8    0    1
 -2       685       802       801      3225      3226      3221
 -1      1459    8    0    1
 -2       686       687       787      2862      3227      3228
 -1      1460    8    0    1
 -2       552       624       687      2864      3229      2860
 -1      1461    8    0    1
 -2       624       553       613      2863      2866      3009
 -1      1462    8    0    1
 -2       691       692       803      2884      3230      3231
 -1      1463    8    0    1
 -2       692       693       804      2887      3232      3233
 -1      1464    8    0    1
 -2       692       804       803      3233      3234      3230
 -1      1465    8    0    1
 -2       693       694       805      2890      3235      3236
 -1      1466    8    0    1
 -2       693       805       804      3236      3237      3232
 -1      1467    8    0    1
 -2       694       695       806      2893      3238      3239
 -1      1468    8    0    1
 -2       694       806       805      3239      3240      3235
 -1      1469    8    0    1
 -2       695       696       807      2896      3241      3242
 -1      1470    8    0    1
 -2       695       807       806      3242      3243      3238
 -1      1471    8    0    1
 -2       696       697       808      2899      3244      3245
 -1      1472    8    0    1
 -2       696       808       807      3245      3246      3241
 -1      1473    8    0    1
 -2       697       698       809      2902      3247      3248
 -1      1474    8    0    1
 -2       697       809       808      3248      3249      3244
 -1      1475    8    0    1
 -2       698       699       810      2905      3250      3251
 -1      1476    8    0    1
 -2       698       810       809      3251      3252      3247
 -1      1477    8    0    1
 -2       699       700       811      2908      3253      3254
 -1      1478    8    0    1
 -2       699       811       810      3254      3255      3250
 -1      1479    8    0    1
 -2       700       701       812      2911      3256      3257
 -1      1480    8    0    1
 -2       811       700       812      3253      3257      3258
 -1      1481    8    0    1
 -2       701       743       812      3034      3259      3256
 -1      1482    8    0    1
 -2       667       732       813      3024      3260      3261
 -1      1483    8    0    1
 -2       614       712       814      3022      3262      3263
 -1      1484    8    0    1
 -2       614       814       742      3263      3264      3032
 -1      1485    8    0    1
 -2       702       705       815      2922      3265      3266
 -1      1486    8    0    1
 -2       715       703       816      3036      3267      3268
 -1      1487    8    0    1
 -2       718       669       817      2961      3269      3270
 -1      1488    8    0    1
 -2       669       788       817      3185      3271      3269
 -1      1489    8    0    1
 -2       723       715       818      2977      3272      3273
 -1      1490    8    0    1
 -2       709       710       819      2938      3274      3275
 -1      1491    8    0    1
 -2       713       611       735      2948      3002      3276
 -1      1492    8    0    1
 -2       711       668       820      2942      3277      3278
 -1      1493    8    0    1
 -2       708       709       821      2935      3279      3280
 -1      1494    8    0    1
 -2       709       819       821      3275      3281      3279
 -1      1495    8    0    1
 -2       690       691       822      2881      3282      3283
 -1      1496    8    0    1
 -2       691       803       822      3231      3284      3282
 -1      1497    8    0    1
 -2       689       690       823      2878      3285      3286
 -1      1498    8    0    1
 -2       690       822       823      3283      3287      3285
 -1      1499    8    0    1
 -2       589       610       824      2612      3288      3289
 -1      1500    8    0    1
 -2       671       672       825      2817      3290      3291
 -1      1501    8    0    1
 -2       672       789       825      3187      3292      3290
 -1      1502    8    0    1
 -2       716       667       826      2956      3293      3294
 -1      1503    8    0    1
 -2       670       671       827      2814      3295      3296
 -1      1504    8    0    1
 -2       788       670       827      3184      3296      3297
 -1      1505    8    0    1
 -2       671       825       827      3291      3298      3295
 -1      1506    8    0    1
 -2       625       713       828      3047      3299      3300
 -1      1507    8    0    1
 -2       713       735       828      3276      3301      3299
 -1      1508    8    0    1
 -2       668       719       829      3027      3302      3303
 -1      1509    8    0    1
 -2       668       829       820      3303      3304      3277
 -1      1510    8    0    1
 -2       626       625       830      2682      3305      3306
 -1      1511    8    0    1
 -2       752       626       830      3072      3306      3307
 -1      1512    8    0    1
 -2       625       828       830      3300      3308      3305
 -1      1513    8    0    1
 -2       717       588       831      2957      3309      3310
 -1      1514    8    0    1
 -2       714       729       832      3048      3311      3312
 -1      1515    8    0    1
 -2       721       717       833      3007      3313      3314
 -1      1516    8    0    1
 -2       729       716       834      3026      3315      3316
 -1      1517    8    0    1
 -2       716       826       834      3294      3317      3315
 -1      1518    8    0    1
 -2       719       718       835      2964      3318      3319
 -1      1519    8    0    1
 -2       718       817       835      3270      3320      3318
 -1      1520    8    0    1
 -2       592       589       824      2570      3289      3321
 -1      1521    8    0    1
 -2       594       592       737      2657      3322      3010
 -1      1522    8    0    1
 -2       621       622       836      3066      3323      3324
 -1      1523    8    0    1
 -2       750       621       836      3068      3324      3325
 -1      1524    8    0    1
 -2       622       720       836      2967      3326      3323
 -1      1525    8    0    1
 -2       731       617       837      3053      3327      3328
 -1      1526    8    0    1
 -2       733       734       838      3018      3329      3330
 -1      1527    8    0    1
 -2       712       733       839      3045      3331      3332
 -1      1528    8    0    1
 -2       728       730       840      2992      3333      3334
 -1      1529    8    0    1
 -2       619       618       841      2666      3335      3336
 -1      1530    8    0    1
 -2       705       708       842      2932      3337      3338
 -1      1531    8    0    1
 -2       815       705       842      3265      3338      3339
 -1      1532    8    0    1
 -2       708       821       842      3280      3340      3337
 -1      1533    8    0    1
 -2       717       831       843      3310      3341      3342
 -1      1534    8    0    1
 -2       831       588       714      3309      2951      3343
 -1      1535    8    0    1
 -2       730       721       844      3025      3344      3345
 -1      1536    8    0    1
 -2       730       844       840      3345      3346      3333
 -1      1537    8    0    1
 -2       736       619       845      3004      3347      3348
 -1      1538    8    0    1
 -2       619       841       845      3336      3349      3347
 -1      1539    8    0    1
 -2       751       623       846      3070      3350      3351
 -1      1540    8    0    1
 -2       623       739       846      3017      3352      3350
 -1      1541    8    0    1
 -2       616       751       744      3071      3353      3039
 -1      1542    8    0    1
 -2       738       727       847      3014      3354      3355
 -1      1543    8    0    1
 -2       735       725       848      3003      3356      3357
 -1      1544    8    0    1
 -2       735       848       828      3357      3358      3301
 -1      1545    8    0    1
 -2       612       738       849      3013      3359      3360
 -1      1546    8    0    1
 -2       612       849       749      3360      3361      3062
 -1      1547    8    0    1
 -2       739       723       850      3015      3362      3363
 -1      1548    8    0    1
 -2       723       818       850      3273      3364      3362
 -1      1549    8    0    1
 -2       734       737       688      3011      3365      3366
 -1      1550    8    0    1
 -2       740       731       837      3021      3328      3367
 -1      1551    8    0    1
 -2       649       774       740      3138      3368      3140
 -1      1552    8    0    1
 -2       650       740       837      3141      3367      3369
 -1      1553    8    0    1
 -2       650       837       651      3369      3370      2757
 -1      1554    8    0    1
 -2       726       787       687      3183      3227      3371
 -1      1555    8    0    1
 -2       654       653       851      2766      3372      3373
 -1      1556    8    0    1
 -2       841       618       852      3335      3374      3375
 -1      1557    8    0    1
 -2       618       722       852      2973      3376      3374
 -1      1558    8    0    1
 -2       726       687       624      3371      3229      3052
 -1      1559    8    0    1
 -2       848       725       853      3356      3377      3378
 -1      1560    8    0    1
 -2       725       748       853      3060      3379      3377
 -1      1561    8    0    1
 -2       847       727       744      3354      3038      3380
 -1      1562    8    0    1
 -2       734       688       838      3366      3381      3329
 -1      1563    8    0    1
 -2       702       815       854      3266      3382      3383
 -1      1564    8    0    1
 -2       702       854       706      3383      3384      2926
 -1      1565    8    0    1
 -2       837       617       746      3327      3051      3385
 -1      1566    8    0    1
 -2       719       835       829      3319      3386      3302
 -1      1567    8    0    1
 -2       686       787       802      3228      3387      3224
 -1      1568    8    0    1
 -2       654       851       775      3373      3388      3146
 -1      1569    8    0    1
 -2       816       703       855      3267      3389      3390
 -1      1570    8    0    1
 -2       703       742       855      3031      3391      3389
 -1      1571    8    0    1
 -2       554       610       613      2868      3392      2865
 -1      1572    8    0    1
 -2       620       750       856      3069      3393      3394
 -1      1573    8    0    1
 -2       620       856       722      3394      3395      2974
 -1      1574    8    0    1
 -2       688       689       838      2875      3396      3381
 -1      1575    8    0    1
 -2       814       712       839      3262      3332      3397
 -1      1576    8    0    1
 -2       704       706       857      2925      3398      3399
 -1      1577    8    0    1
 -2       706       854       857      3384      3400      3398
 -1      1578    8    0    1
 -2       715       816       818      3268      3401      3272
 -1      1579    8    0    1
 -2       787       728       840      3182      3334      3402
 -1      1580    8    0    1
 -2       717       843       833      3342      3403      3313
 -1      1581    8    0    1
 -2       831       714       858      3343      3404      3405
 -1      1582    8    0    1
 -2       826       667       813      3293      3261      3406
 -1      1583    8    0    1
 -2       689       823       838      3286      3407      3396
 -1      1584    8    0    1
 -2       831       858       843      3405      3408      3341
 -1      1585    8    0    1
 -2       832       729       859      3311      3409      3410
 -1      1586    8    0    1
 -2       729       834       859      3316      3411      3409
 -1      1587    8    0    1
 -2       714       832       858      3312      3412      3404
 -1      1588    8    0    1
 -2       721       833       844      3314      3413      3344
 -1      1589    8    0    1
 -2       747       704       860      3057      3414      3415
 -1      1590    8    0    1
 -2       704       857       860      3399      3416      3414
 -1      1591    8    0    1
 -2       720       711       861      2968      3417      3418
 -1      1592    8    0    1
 -2       836       720       861      3326      3418      3419
 -1      1593    8    0    1
 -2       711       820       861      3278      3420      3417
 -1      1594    8    0    1
 -2       746       651       837      3142      3370      3385
 -1      1595    8    0    1
 -2       591       613       610      2627      3392      2610
 -1      1596    8    0    1
 -2       710       745       862      3042      3421      3422
 -1      1597    8    0    1
 -2       819       710       862      3274      3422      3423
 -1      1598    8    0    1
 -2       745       786       862      3180      3424      3421
 -1      1599    8    0    1
 -2       828       848       863      3358      3425      3426
 -1      1600    8    0    1
 -2       828       863       830      3426      3427      3308
 -1      1601    8    0    1
 -2       754       753       864      3079      3428      3429
 -1      1602    8    0    1
 -2       755       754       865      3082      3430      3431
 -1      1603    8    0    1
 -2       754       864       865      3429      3432      3430
 -1      1604    8    0    1
 -2       756       755       866      3085      3433      3434
 -1      1605    8    0    1
 -2       755       865       866      3431      3435      3433
 -1      1606    8    0    1
 -2       757       756       867      3088      3436      3437
 -1      1607    8    0    1
 -2       756       866       867      3434      3438      3436
 -1      1608    8    0    1
 -2       758       757       868      3091      3439      3440
 -1      1609    8    0    1
 -2       757       867       868      3437      3441      3439
 -1      1610    8    0    1
 -2       759       758       869      3094      3442      3443
 -1      1611    8    0    1
 -2       758       868       869      3440      3444      3442
 -1      1612    8    0    1
 -2       760       759       870      3097      3445      3446
 -1      1613    8    0    1
 -2       759       869       870      3443      3447      3445
 -1      1614    8    0    1
 -2       761       760       871      3100      3448      3449
 -1      1615    8    0    1
 -2       760       870       871      3446      3450      3448
 -1      1616    8    0    1
 -2       762       761       872      3103      3451      3452
 -1      1617    8    0    1
 -2       761       871       872      3449      3453      3451
 -1      1618    8    0    1
 -2       763       762       873      3106      3454      3455
 -1      1619    8    0    1
 -2       762       872       873      3452      3456      3454
 -1      1620    8    0    1
 -2       764       763       874      3109      3457      3458
 -1      1621    8    0    1
 -2       763       873       874      3455      3459      3457
 -1      1622    8    0    1
 -2       765       764       875      3112      3460      3461
 -1      1623    8    0    1
 -2       764       874       875      3458      3462      3460
 -1      1624    8    0    1
 -2       766       765       876      3115      3463      3464
 -1      1625    8    0    1
 -2       765       875       876      3461      3465      3463
 -1      1626    8    0    1
 -2       767       766       877      3118      3466      3467
 -1      1627    8    0    1
 -2       766       876       877      3464      3468      3466
 -1      1628    8    0    1
 -2       768       767       878      3121      3469      3470
 -1      1629    8    0    1
 -2       767       877       878      3467      3471      3469
 -1      1630    8    0    1
 -2       769       768       879      3124      3472      3473
 -1      1631    8    0    1
 -2       768       878       879      3470      3474      3472
 -1      1632    8    0    1
 -2       770       769       880      3127      3475      3476
 -1      1633    8    0    1
 -2       769       879       880      3473      3477      3475
 -1      1634    8    0    1
 -2       771       770       881      3130      3478      3479
 -1      1635    8    0    1
 -2       770       880       881      3476      3480      3478
 -1      1636    8    0    1
 -2       772       771       882      3133      3481      3482
 -1      1637    8    0    1
 -2       771       881       882      3479      3483      3481
 -1      1638    8    0    1
 -2       777       776       883      3153      3484      3485
 -1      1639    8    0    1
 -2       778       777       884      3156      3486      3487
 -1      1640    8    0    1
 -2       777       883       884      3485      3488      3486
 -1      1641    8    0    1
 -2       779       778       885      3159      3489      3490
 -1      1642    8    0    1
 -2       778       884       885      3487      3491      3489
 -1      1643    8    0    1
 -2       780       779       886      3162      3492      3493
 -1      1644    8    0    1
 -2       779       885       886      3490      3494      3492
 -1      1645    8    0    1
 -2       781       780       887      3165      3495      3496
 -1      1646    8    0    1
 -2       780       886       887      3493      3497      3495
 -1      1647    8    0    1
 -2       782       781       888      3168      3498      3499
 -1      1648    8    0    1
 -2       781       887       888      3496      3500      3498
 -1      1649    8    0    1
 -2       783       782       889      3171      3501      3502
 -1      1650    8    0    1
 -2       782       888       889      3499      3503      3501
 -1      1651    8    0    1
 -2       784       783       890      3174      3504      3505
 -1      1652    8    0    1
 -2       783       889       890      3502      3506      3504
 -1      1653    8    0    1
 -2       785       784       891      3177      3507      3508
 -1      1654    8    0    1
 -2       784       890       891      3505      3509      3507
 -1      1655    8    0    1
 -2       789       790       892      3190      3510      3511
 -1      1656    8    0    1
 -2       792       793       893      3199      3512      3513
 -1      1657    8    0    1
 -2       793       794       894      3202      3514      3515
 -1      1658    8    0    1
 -2       793       894       893      3515      3516      3512
 -1      1659    8    0    1
 -2       794       795       895      3205      3517      3518
 -1      1660    8    0    1
 -2       794       895       894      3518      3519      3514
 -1      1661    8    0    1
 -2       795       796       896      3208      3520      3521
 -1      1662    8    0    1
 -2       795       896       895      3521      3522      3517
 -1      1663    8    0    1
 -2       796       797       897      3211      3523      3524
 -1      1664    8    0    1
 -2       796       897       896      3524      3525      3520
 -1      1665    8    0    1
 -2       797       798       898      3214      3526      3527
 -1      1666    8    0    1
 -2       797       898       897      3527      3528      3523
 -1      1667    8    0    1
 -2       798       799       899      3217      3529      3530
 -1      1668    8    0    1
 -2       798       899       898      3530      3531      3526
 -1      1669    8    0    1
 -2       799       800       900      3220      3532      3533
 -1      1670    8    0    1
 -2       799       900       899      3533      3534      3529
 -1      1671    8    0    1
 -2       800       801       901      3223      3535      3536
 -1      1672    8    0    1
 -2       800       901       900      3536      3537      3532
 -1      1673    8    0    1
 -2       801       802       902      3226      3538      3539
 -1      1674    8    0    1
 -2       801       902       901      3539      3540      3535
 -1      1675    8    0    1
 -2       775       851       847      3388      3541      3542
 -1      1676    8    0    1
 -2       817       788       903      3271      3543      3544
 -1      1677    8    0    1
 -2       805       806       904      3240      3545      3546
 -1      1678    8    0    1
 -2       804       805       905      3237      3547      3548
 -1      1679    8    0    1
 -2       805       904       905      3546      3549      3547
 -1      1680    8    0    1
 -2       803       804       906      3234      3550      3551
 -1      1681    8    0    1
 -2       804       905       906      3548      3552      3550
 -1      1682    8    0    1
 -2       806       807       907      3243      3553      3554
 -1      1683    8    0    1
 -2       806       907       904      3554      3555      3545
 -1      1684    8    0    1
 -2       807       808       908      3246      3556      3557
 -1      1685    8    0    1
 -2       807       908       907      3557      3558      3553
 -1      1686    8    0    1
 -2       808       809       909      3249      3559      3560
 -1      1687    8    0    1
 -2       808       909       908      3560      3561      3556
 -1      1688    8    0    1
 -2       809       810       910      3252      3562      3563
 -1      1689    8    0    1
 -2       809       910       909      3563      3564      3559
 -1      1690    8    0    1
 -2       810       811       911      3255      3565      3566
 -1      1691    8    0    1
 -2       810       911       910      3566      3567      3562
 -1      1692    8    0    1
 -2       813       732       740      3260      3020      3568
 -1      1693    8    0    1
 -2       748       736       912      3061      3569      3570
 -1      1694    8    0    1
 -2       853       748       912      3379      3570      3571
 -1      1695    8    0    1
 -2       736       845       912      3348      3572      3569
 -1      1696    8    0    1
 -2       834       826       913      3317      3573      3574
 -1      1697    8    0    1
 -2       742       814       914      3264      3575      3576
 -1      1698    8    0    1
 -2       847       744       915      3380      3577      3578
 -1      1699    8    0    1
 -2       787       840       902      3402      3579      3580
 -1      1700    8    0    1
 -2       820       829       916      3304      3581      3582
 -1      1701    8    0    1
 -2       825       789       917      3292      3583      3584
 -1      1702    8    0    1
 -2       789       892       917      3511      3585      3583
 -1      1703    8    0    1
 -2       844       833       918      3413      3586      3587
 -1      1704    8    0    1
 -2       821       819       919      3281      3588      3589
 -1      1705    8    0    1
 -2       822       803       920      3284      3590      3591
 -1      1706    8    0    1
 -2       803       906       920      3551      3592      3590
 -1      1707    8    0    1
 -2       791       792       921      3196      3593      3594
 -1      1708    8    0    1
 -2       792       893       921      3513      3595      3593
 -1      1709    8    0    1
 -2       610       555       824      2867      3596      3288
 -1      1710    8    0    1
 -2       790       791       922      3193      3597      3598
 -1      1711    8    0    1
 -2       892       790       922      3510      3598      3599
 -1      1712    8    0    1
 -2       791       921       922      3594      3600      3597
 -1      1713    8    0    1
 -2       802       787       902      3387      3580      3538
 -1      1714    8    0    1
 -2       858       832       923      3412      3601      3602
 -1      1715    8    0    1
 -2       835       817       924      3320      3603      3604
 -1      1716    8    0    1
 -2       817       903       924      3544      3605      3603
 -1      1717    8    0    1
 -2       839       733       838      3331      3330      3606
 -1      1718    8    0    1
 -2       843       858       925      3408      3607      3608
 -1      1719    8    0    1
 -2       858       923       925      3602      3609      3607
 -1      1720    8    0    1
 -2       818       816       926      3401      3610      3611
 -1      1721    8    0    1
 -2       744       751       915      3353      3612      3577
 -1      1722    8    0    1
 -2       833       843       927      3403      3613      3614
 -1      1723    8    0    1
 -2       843       925       927      3608      3615      3613
 -1      1724    8    0    1
 -2       829       835       928      3386      3616      3617
 -1      1725    8    0    1
 -2       829       928       916      3617      3618      3581
 -1      1726    8    0    1
 -2       753       752       929      3076      3619      3620
 -1      1727    8    0    1
 -2       753       929       864      3620      3621      3428
 -1      1728    8    0    1
 -2       743       747       930      3056      3622      3623
 -1      1729    8    0    1
 -2       812       743       930      3259      3623      3624
 -1      1730    8    0    1
 -2       747       860       930      3415      3625      3622
 -1      1731    8    0    1
 -2       840       844       931      3346      3626      3627
 -1      1732    8    0    1
 -2       902       840       931      3579      3627      3628
 -1      1733    8    0    1
 -2       844       918       931      3587      3629      3626
 -1      1734    8    0    1
 -2       775       847       915      3542      3578      3630
 -1      1735    8    0    1
 -2       846       739       932      3352      3631      3632
 -1      1736    8    0    1
 -2       739       850       932      3363      3633      3631
 -1      1737    8    0    1
 -2       750       836       933      3325      3634      3635
 -1      1738    8    0    1
 -2       836       861       933      3419      3636      3634
 -1      1739    8    0    1
 -2       850       818       934      3364      3637      3638
 -1      1740    8    0    1
 -2       818       926       934      3611      3639      3637
 -1      1741    8    0    1
 -2       688       737       741      3365      3640      3067
 -1      1742    8    0    1
 -2       883       776       915      3484      3641      3642
 -1      1743    8    0    1
 -2       773       772       913      3136      3643      3644
 -1      1744    8    0    1
 -2       774       773       826      3139      3645      3646
 -1      1745    8    0    1
 -2       852       722       856      3376      3395      3647
 -1      1746    8    0    1
 -2       652       746       724      3143      3049      3648
 -1      1747    8    0    1
 -2       653       749       849      3145      3361      3649
 -1      1748    8    0    1
 -2       851       653       849      3372      3649      3650
 -1      1749    8    0    1
 -2       841       852       935      3375      3651      3652
 -1      1750    8    0    1
 -2       775       915       776      3630      3641      3150
 -1      1751    8    0    1
 -2       786       785       936      3181      3653      3654
 -1      1752    8    0    1
 -2       862       786       936      3424      3654      3655
 -1      1753    8    0    1
 -2       785       891       936      3508      3656      3653
 -1      1754    8    0    1
 -2       652       724       749      3648      3064      3144
 -1      1755    8    0    1
 -2       826       773       913      3645      3644      3573
 -1      1756    8    0    1
 -2       913       772       882      3643      3482      3657
 -1      1757    8    0    1
 -2       842       821       937      3340      3658      3659
 -1      1758    8    0    1
 -2       821       919       937      3589      3660      3658
 -1      1759    8    0    1
 -2       854       815       938      3382      3661      3662
 -1      1760    8    0    1
 -2       847       851       738      3541      3663      3355
 -1      1761    8    0    1
 -2       855       742       914      3391      3576      3664
 -1      1762    8    0    1
 -2       856       750       933      3393      3635      3665
 -1      1763    8    0    1
 -2       833       927       918      3614      3666      3586
 -1      1764    8    0    1
 -2       811       812       930      3258      3624      3667
 -1      1765    8    0    1
 -2       857       854       939      3400      3668      3669
 -1      1766    8    0    1
 -2       854       938       939      3662      3670      3668
 -1      1767    8    0    1
 -2       914       814       940      3575      3671      3672
 -1      1768    8    0    1
 -2       832       859       923      3410      3673      3601
 -1      1769    8    0    1
 -2       820       916       941      3582      3674      3675
 -1      1770    8    0    1
 -2       825       917       942      3584      3676      3677
 -1      1771    8    0    1
 -2       825       942       827      3677      3678      3298
 -1      1772    8    0    1
 -2       811       930       911      3667      3679      3565
 -1      1773    8    0    1
 -2       752       830       943      3307      3680      3681
 -1      1774    8    0    1
 -2       929       752       943      3619      3681      3682
 -1      1775    8    0    1
 -2       830       863       943      3427      3683      3680
 -1      1776    8    0    1
 -2       822       920       940      3591      3684      3685
 -1      1777    8    0    1
 -2       863       848       944      3425      3686      3687
 -1      1778    8    0    1
 -2       848       853       944      3378      3688      3686
 -1      1779    8    0    1
 -2       823       822       940      3287      3685      3689
 -1      1780    8    0    1
 -2       788       827       945      3297      3690      3691
 -1      1781    8    0    1
 -2       827       942       945      3678      3692      3690
 -1      1782    8    0    1
 -2       841       935       946      3652      3693      3694
 -1      1783    8    0    1
 -2       841       946       845      3694      3695      3349
 -1      1784    8    0    1
 -2       859       834       913      3411      3574      3696
 -1      1785    8    0    1
 -2       860       857       947      3416      3697      3698
 -1      1786    8    0    1
 -2       857       939       947      3669      3699      3697
 -1      1787    8    0    1
 -2       816       855       948      3390      3700      3701
 -1      1788    8    0    1
 -2       816       948       926      3701      3702      3610
 -1      1789    8    0    1
 -2       835       924       928      3604      3703      3616
 -1      1790    8    0    1
 -2       861       820       941      3420      3675      3704
 -1      1791    8    0    1
 -2       903       788       945      3543      3691      3705
 -1      1792    8    0    1
 -2       814       839       940      3397      3706      3671
 -1      1793    8    0    1
 -2       915       751       949      3612      3707      3708
 -1      1794    8    0    1
 -2       883       915       949      3642      3708      3709
 -1      1795    8    0    1
 -2       751       846       949      3351      3710      3707
 -1      1796    8    0    1
 -2       815       842       950      3339      3711      3712
 -1      1797    8    0    1
 -2       938       815       950      3661      3712      3713
 -1      1798    8    0    1
 -2       842       937       950      3659      3714      3711
 -1      1799    8    0    1
 -2       819       862       936      3423      3655      3715
 -1      1800    8    0    1
 -2       819       936       919      3715      3716      3588
 -1      1801    8    0    1
 -2       933       861       941      3636      3704      3717
 -1      1802    8    0    1
 -2       849       738       851      3359      3663      3650
 -1      1803    8    0    1
 -2       936       891       919      3656      3718      3716
 -1      1804    8    0    1
 -2       895       896       951      3522      3719      3720
 -1      1805    8    0    1
 -2       866       865       952      3435      3721      3722
 -1      1806    8    0    1
 -2       867       866       953      3438      3723      3724
 -1      1807    8    0    1
 -2       866       952       953      3722      3725      3723
 -1      1808    8    0    1
 -2       868       867       954      3441      3726      3727
 -1      1809    8    0    1
 -2       867       953       954      3724      3728      3726
 -1      1810    8    0    1
 -2       869       868       955      3444      3729      3730
 -1      1811    8    0    1
 -2       868       954       955      3727      3731      3729
 -1      1812    8    0    1
 -2       870       869       956      3447      3732      3733
 -1      1813    8    0    1
 -2       869       955       956      3730      3734      3732
 -1      1814    8    0    1
 -2       871       870       957      3450      3735      3736
 -1      1815    8    0    1
 -2       870       956       957      3733      3737      3735
 -1      1816    8    0    1
 -2       872       871       958      3453      3738      3739
 -1      1817    8    0    1
 -2       871       957       958      3736      3740      3738
 -1      1818    8    0    1
 -2       873       872       959      3456      3741      3742
 -1      1819    8    0    1
 -2       872       958       959      3739      3743      3741
 -1      1820    8    0    1
 -2       874       873       960      3459      3744      3745
 -1      1821    8    0    1
 -2       873       959       960      3742      3746      3744
 -1      1822    8    0    1
 -2       875       874       961      3462      3747      3748
 -1      1823    8    0    1
 -2       874       960       961      3745      3749      3747
 -1      1824    8    0    1
 -2       876       875       962      3465      3750      3751
 -1      1825    8    0    1
 -2       875       961       962      3748      3752      3750
 -1      1826    8    0    1
 -2       877       876       963      3468      3753      3754
 -1      1827    8    0    1
 -2       876       962       963      3751      3755      3753
 -1      1828    8    0    1
 -2       878       877       964      3471      3756      3757
 -1      1829    8    0    1
 -2       877       963       964      3754      3758      3756
 -1      1830    8    0    1
 -2       879       878       965      3474      3759      3760
 -1      1831    8    0    1
 -2       878       964       965      3757      3761      3759
 -1      1832    8    0    1
 -2       880       879       966      3477      3762      3763
 -1      1833    8    0    1
 -2       879       965       966      3760      3764      3762
 -1      1834    8    0    1
 -2       881       880       967      3480      3765      3766
 -1      1835    8    0    1
 -2       880       966       967      3763      3767      3765
 -1      1836    8    0    1
 -2       774       826       813      3646      3406      3768
 -1      1837    8    0    1
 -2       852       856       968      3647      3769      3770
 -1      1838    8    0    1
 -2       852       968       935      3770      3771      3651
 -1      1839    8    0    1
 -2       940       839       823      3706      3772      3689
 -1      1840    8    0    1
 -2       885       884       969      3491      3773      3774
 -1      1841    8    0    1
 -2       886       885       970      3494      3775      3776
 -1      1842    8    0    1
 -2       885       969       970      3774      3777      3775
 -1      1843    8    0    1
 -2       887       886       971      3497      3778      3779
 -1      1844    8    0    1
 -2       886       970       971      3776      3780      3778
 -1      1845    8    0    1
 -2       888       887       972      3500      3781      3782
 -1      1846    8    0    1
 -2       887       971       972      3779      3783      3781
 -1      1847    8    0    1
 -2       889       888       973      3503      3784      3785
 -1      1848    8    0    1
 -2       888       972       973      3782      3786      3784
 -1      1849    8    0    1
 -2       890       889       974      3506      3787      3788
 -1      1850    8    0    1
 -2       889       973       974      3785      3789      3787
 -1      1851    8    0    1
 -2       891       890       975      3509      3790      3791
 -1      1852    8    0    1
 -2       890       974       975      3788      3792      3790
 -1      1853    8    0    1
 -2       919       891       975      3718      3791      3793
 -1      1854    8    0    1
 -2       893       894       976      3516      3794      3795
 -1      1855    8    0    1
 -2       896       897       977      3525      3796      3797
 -1      1856    8    0    1
 -2       896       977       951      3797      3798      3719
 -1      1857    8    0    1
 -2       897       898       978      3528      3799      3800
 -1      1858    8    0    1
 -2       897       978       977      3800      3801      3796
 -1      1859    8    0    1
 -2       898       899       979      3531      3802      3803
 -1      1860    8    0    1
 -2       898       979       978      3803      3804      3799
 -1      1861    8    0    1
 -2       899       900       980      3534      3805      3806
 -1      1862    8    0    1
 -2       899       980       979      3806      3807      3802
 -1      1863    8    0    1
 -2       900       901       981      3537      3808      3809
 -1      1864    8    0    1
 -2       900       981       980      3809      3810      3805
 -1      1865    8    0    1
 -2       901       902       931      3540      3628      3811
 -1      1866    8    0    1
 -2       839       838       823      3606      3407      3772
 -1      1867    8    0    1
 -2       913       882       859      3657      3812      3696
 -1      1868    8    0    1
 -2       904       907       982      3555      3813      3814
 -1      1869    8    0    1
 -2       906       905       983      3552      3815      3816
 -1      1870    8    0    1
 -2       908       909       984      3561      3817      3818
 -1      1871    8    0    1
 -2       909       910       985      3564      3819      3820
 -1      1872    8    0    1
 -2       909       985       984      3820      3821      3817
 -1      1873    8    0    1
 -2       813       740       774      3568      3368      3768
 -1      1874    8    0    1
 -2       939       938       986      3670      3822      3823
 -1      1875    8    0    1
 -2       923       859       987      3673      3824      3825
 -1      1876    8    0    1
 -2       856       933       968      3665      3826      3769
 -1      1877    8    0    1
 -2       941       916       988      3674      3827      3828
 -1      1878    8    0    1
 -2       855       914       989      3664      3829      3830
 -1      1879    8    0    1
 -2       903       945       990      3705      3831      3832
 -1      1880    8    0    1
 -2       894       895       991      3519      3833      3834
 -1      1881    8    0    1
 -2       895       951       991      3720      3835      3833
 -1      1882    8    0    1
 -2       737       592       741      3322      3046      3640
 -1      1883    8    0    1
 -2       911       930       860      3679      3625      3836
 -1      1884    8    0    1
 -2       914       940       920      3672      3684      3837
 -1      1885    8    0    1
 -2       921       893       992      3595      3838      3839
 -1      1886    8    0    1
 -2       893       976       992      3795      3840      3838
 -1      1887    8    0    1
 -2       933       941       968      3717      3841      3826
 -1      1888    8    0    1
 -2       924       903       993      3605      3842      3843
 -1      1889    8    0    1
 -2       903       990       993      3832      3844      3842
 -1      1890    8    0    1
 -2       917       892       994      3585      3845      3846
 -1      1891    8    0    1
 -2       864       929       995      3621      3847      3848
 -1      1892    8    0    1
 -2       925       923       996      3609      3849      3850
 -1      1893    8    0    1
 -2       928       924       997      3703      3851      3852
 -1      1894    8    0    1
 -2       924       993       997      3843      3853      3851
 -1      1895    8    0    1
 -2       905       904       998      3549      3854      3855
 -1      1896    8    0    1
 -2       904       982       998      3814      3856      3854
 -1      1897    8    0    1
 -2       918       927       999      3666      3857      3858
 -1      1898    8    0    1
 -2       916       928      1000      3618      3859      3860
 -1      1899    8    0    1
 -2       988       916      1000      3827      3860      3861
 -1      1900    8    0    1
 -2       928       997      1000      3852      3862      3859
 -1      1901    8    0    1
 -2       927       925      1001      3615      3863      3864
 -1      1902    8    0    1
 -2       914       920       989      3837      3865      3829
 -1      1903    8    0    1
 -2       884       883      1002      3488      3866      3867
 -1      1904    8    0    1
 -2       969       884      1002      3773      3867      3868
 -1      1905    8    0    1
 -2       883       949      1002      3709      3869      3866
 -1      1906    8    0    1
 -2       865       864      1003      3432      3870      3871
 -1      1907    8    0    1
 -2       864       995      1003      3848      3872      3870
 -1      1908    8    0    1
 -2       907       908      1004      3558      3873      3874
 -1      1909    8    0    1
 -2       982       907      1004      3813      3874      3875
 -1      1910    8    0    1
 -2       908       984      1004      3818      3876      3873
 -1      1911    8    0    1
 -2       859       882       987      3812      3877      3824
 -1      1912    8    0    1
 -2       911       860       947      3836      3698      3878
 -1      1913    8    0    1
 -2       926       948      1005      3702      3879      3880
 -1      1914    8    0    1
 -2       934       926      1005      3639      3880      3881
 -1      1915    8    0    1
 -2       937       919       975      3660      3793      3882
 -1      1916    8    0    1
 -2       939       986      1006      3823      3883      3884
 -1      1917    8    0    1
 -2       939      1006       947      3884      3885      3699
 -1      1918    8    0    1
 -2       881       967       987      3766      3886      3887
 -1      1919    8    0    1
 -2       882       881       987      3483      3887      3877
 -1      1920    8    0    1
 -2       941       988       968      3828      3888      3841
 -1      1921    8    0    1
 -2       976       894       991      3794      3834      3889
 -1      1922    8    0    1
 -2       952       865      1003      3721      3871      3890
 -1      1923    8    0    1
 -2       901       931       981      3811      3891      3808
 -1      1924    8    0    1
 -2       932       850      1007      3633      3892      3893
 -1      1925    8    0    1
 -2       850       934      1007      3638      3894      3892
 -1      1926    8    0    1
 -2       906       983       989      3816      3895      3896
 -1      1927    8    0    1
 -2       555       592       824      2870      3321      3596
 -1      1928    8    0    1
 -2       990       945      1008      3831      3897      3898
 -1      1929    8    0    1
 -2       945       942      1008      3692      3899      3897
 -1      1930    8    0    1
 -2       910       911      1009      3567      3900      3901
 -1      1931    8    0    1
 -2       929       943      1010      3682      3902      3903
 -1      1932    8    0    1
 -2       929      1010       995      3903      3904      3847
 -1      1933    8    0    1
 -2       942       917      1011      3676      3905      3906
 -1      1934    8    0    1
 -2       917       994      1011      3846      3907      3905
 -1      1935    8    0    1
 -2       923       987       996      3825      3908      3849
 -1      1936    8    0    1
 -2       912       845      1012      3572      3909      3910
 -1      1937    8    0    1
 -2       845       946      1012      3695      3911      3909
 -1      1938    8    0    1
 -2       905       998       983      3855      3912      3815
 -1      1939    8    0    1
 -2      1001       925       996      3863      3850      3913
 -1      1940    8    0    1
 -2       855       989       948      3830      3914      3700
 -1      1941    8    0    1
 -2       943       863      1013      3683      3915      3916
 -1      1942    8    0    1
 -2      1010       943      1013      3902      3916      3917
 -1      1943    8    0    1
 -2       863       944      1013      3687      3918      3915
 -1      1944    8    0    1
 -2       910      1009       985      3901      3919      3819
 -1      1945    8    0    1
 -2       892       922      1014      3599      3920      3921
 -1      1946    8    0    1
 -2       892      1014       994      3921      3922      3845
 -1      1947    8    0    1
 -2       922       921      1015      3600      3923      3924
 -1      1948    8    0    1
 -2      1014       922      1015      3920      3924      3925
 -1      1949    8    0    1
 -2       921       992      1015      3839      3926      3923
 -1      1950    8    0    1
 -2       935       968      1016      3771      3927      3928
 -1      1951    8    0    1
 -2       968       988      1016      3888      3929      3927
 -1      1952    8    0    1
 -2       920       906       989      3592      3896      3865
 -1      1953    8    0    1
 -2       946       935      1017      3693      3930      3931
 -1      1954    8    0    1
 -2       935      1016      1017      3928      3932      3930
 -1      1955    8    0    1
 -2       986       938      1018      3822      3933      3934
 -1      1956    8    0    1
 -2       938       950      1018      3713      3935      3933
 -1      1957    8    0    1
 -2       927      1001       999      3864      3936      3857
 -1      1958    8    0    1
 -2       949       846      1019      3710      3937      3938
 -1      1959    8    0    1
 -2      1002       949      1019      3869      3938      3939
 -1      1960    8    0    1
 -2       846       932      1019      3632      3940      3937
 -1      1961    8    0    1
 -2       853       912      1020      3571      3941      3942
 -1      1962    8    0    1
 -2       944       853      1020      3688      3942      3943
 -1      1963    8    0    1
 -2       912      1012      1020      3910      3944      3941
 -1      1964    8    0    1
 -2       934      1005      1021      3881      3945      3946
 -1      1965    8    0    1
 -2       953       952      1022      3725      3947      3948
 -1      1966    8    0    1
 -2       977       978      1023      3801      3949      3950
 -1      1967    8    0    1
 -2       987       967      1024      3886      3951      3952
 -1      1968    8    0    1
 -2       996       987      1024      3908      3952      3953
 -1      1969    8    0    1
 -2       967       966      1024      3767      3954      3951
 -1      1970    8    0    1
 -2       954       953      1025      3728      3955      3956
 -1      1971    8    0    1
 -2       953      1022      1025      3948      3957      3955
 -1      1972    8    0    1
 -2       955       954      1026      3731      3958      3959
 -1      1973    8    0    1
 -2       954      1025      1026      3956      3960      3958
 -1      1974    8    0    1
 -2       956       955      1027      3734      3961      3962
 -1      1975    8    0    1
 -2       955      1026      1027      3959      3963      3961
 -1      1976    8    0    1
 -2       957       956      1028      3737      3964      3965
 -1      1977    8    0    1
 -2       956      1027      1028      3962      3966      3964
 -1      1978    8    0    1
 -2       958       957      1029      3740      3967      3968
 -1      1979    8    0    1
 -2       957      1028      1029      3965      3969      3967
 -1      1980    8    0    1
 -2       959       958      1030      3743      3970      3971
 -1      1981    8    0    1
 -2       958      1029      1030      3968      3972      3970
 -1      1982    8    0    1
 -2       960       959      1031      3746      3973      3974
 -1      1983    8    0    1
 -2       959      1030      1031      3971      3975      3973
 -1      1984    8    0    1
 -2       961       960      1032      3749      3976      3977
 -1      1985    8    0    1
 -2       960      1031      1032      3974      3978      3976
 -1      1986    8    0    1
 -2       962       961      1033      3752      3979      3980
 -1      1987    8    0    1
 -2       961      1032      1033      3977      3981      3979
 -1      1988    8    0    1
 -2       963       962      1034      3755      3982      3983
 -1      1989    8    0    1
 -2       962      1033      1034      3980      3984      3982
 -1      1990    8    0    1
 -2       964       963      1035      3758      3985      3986
 -1      1991    8    0    1
 -2       963      1034      1035      3983      3987      3985
 -1      1992    8    0    1
 -2       965       964      1036      3761      3988      3989
 -1      1993    8    0    1
 -2       964      1035      1036      3986      3990      3988
 -1      1994    8    0    1
 -2       966       965      1037      3764      3991      3992
 -1      1995    8    0    1
 -2       965      1036      1037      3989      3993      3991
 -1      1996    8    0    1
 -2       970       969      1038      3777      3994      3995
 -1      1997    8    0    1
 -2      1003       995      1039      3872      3996      3997
 -1      1998    8    0    1
 -2       971       970      1040      3780      3998      3999
 -1      1999    8    0    1
 -2       970      1038      1040      3995      4000      3998
 -1      2000    8    0    1
 -2       972       971      1041      3783      4001      4002
 -1      2001    8    0    1
 -2       971      1040      1041      3999      4003      4001
 -1      2002    8    0    1
 -2       973       972      1042      3786      4004      4005
 -1      2003    8    0    1
 -2       972      1041      1042      4002      4006      4004
 -1      2004    8    0    1
 -2       974       973      1043      3789      4007      4008
 -1      2005    8    0    1
 -2       973      1042      1043      4005      4009      4007
 -1      2006    8    0    1
 -2       975       974      1044      3792      4010      4011
 -1      2007    8    0    1
 -2       974      1043      1044      4008      4012      4010
 -1      2008    8    0    1
 -2       978       979      1045      3804      4013      4014
 -1      2009    8    0    1
 -2       978      1045      1023      4014      4015      3949
 -1      2010    8    0    1
 -2       951       977      1046      3798      4016      4017
 -1      2011    8    0    1
 -2       977      1023      1046      3950      4018      4016
 -1      2012    8    0    1
 -2       979       980      1047      3807      4019      4020
 -1      2013    8    0    1
 -2       979      1047      1045      4020      4021      4013
 -1      2014    8    0    1
 -2       980       981      1048      3810      4022      4023
 -1      2015    8    0    1
 -2       980      1048      1047      4023      4024      4019
 -1      2016    8    0    1
 -2       991       951      1049      3835      4025      4026
 -1      2017    8    0    1
 -2       951      1046      1049      4017      4027      4025
 -1      2018    8    0    1
 -2       984       985      1050      3821      4028      4029
 -1      2019    8    0    1
 -2      1009       911       947      3900      3878      4030
 -1      2020    8    0    1
 -2       931       918       981      3629      4031      3891
 -1      2021    8    0    1
 -2       952      1003      1051      3890      4032      4033
 -1      2022    8    0    1
 -2      1003      1039      1051      3997      4034      4032
 -1      2023    8    0    1
 -2       983       998      1052      3912      4035      4036
 -1      2024    8    0    1
 -2       992       976      1053      3840      4037      4038
 -1      2025    8    0    1
 -2      1016       988      1000      3929      3861      4039
 -1      2026    8    0    1
 -2       993       990      1054      3844      4040      4041
 -1      2027    8    0    1
 -2       976       991      1055      3889      4042      4043
 -1      2028    8    0    1
 -2       991      1049      1055      4026      4044      4042
 -1      2029    8    0    1
 -2       937       975      1056      3882      4045      4046
 -1      2030    8    0    1
 -2       950       937      1056      3714      4046      4047
 -1      2031    8    0    1
 -2       975      1044      1056      4011      4048      4045
 -1      2032    8    0    1
 -2       998       982      1057      3856      4049      4050
 -1      2033    8    0    1
 -2       998      1057      1052      4050      4051      4035
 -1      2034    8    0    1
 -2      1001       996      1058      3913      4052      4053
 -1      2035    8    0    1
 -2       999      1001      1059      3936      4054      4055
 -1      2036    8    0    1
 -2       918       999       981      3858      4056      4031
 -1      2037    8    0    1
 -2       997       993      1060      3853      4057      4058
 -1      2038    8    0    1
 -2       993      1054      1060      4041      4059      4057
 -1      2039    8    0    1
 -2      1009       947      1006      4030      3885      4060
 -1      2040    8    0    1
 -2       981       999      1048      4056      4061      4022
 -1      2041    8    0    1
 -2       996      1024      1058      3953      4062      4052
 -1      2042    8    0    1
 -2      1039       995      1061      3996      4063      4064
 -1      2043    8    0    1
 -2       995      1010      1061      3904      4065      4063
 -1      2044    8    0    1
 -2       966      1037      1024      3992      4066      3954
 -1      2045    8    0    1
 -2      1048       999      1059      4061      4055      4067
 -1      2046    8    0    1
 -2       990      1008      1062      3898      4068      4069
 -1      2047    8    0    1
 -2       990      1062      1054      4069      4070      4040
 -1      2048    8    0    1
 -2       950      1056      1018      4047      4071      3935
 -1      2049    8    0    1
 -2      1007       934      1021      3894      3946      4072
 -1      2050    8    0    1
 -2      1050       985      1006      4028      4073      4074
 -1      2051    8    0    1
 -2       989       983      1063      3895      4075      4076
 -1      2052    8    0    1
 -2      1005       948      1063      3879      4077      4078
 -1      2053    8    0    1
 -2       969      1002      1064      3868      4079      4080
 -1      2054    8    0    1
 -2      1038       969      1064      3994      4080      4081
 -1      2055    8    0    1
 -2      1002      1019      1064      3939      4082      4079
 -1      2056    8    0    1
 -2      1053       976      1055      4037      4043      4083
 -1      2057    8    0    1
 -2       997      1060      1065      4058      4084      4085
 -1      2058    8    0    1
 -2       997      1065      1000      4085      4086      3862
 -1      2059    8    0    1
 -2      1011       994      1066      3907      4087      4088
 -1      2060    8    0    1
 -2      1012       946      1017      3911      3931      4089
 -1      2061    8    0    1
 -2       952      1051      1022      4033      4090      3947
 -1      2062    8    0    1
 -2       944      1020      1067      3943      4091      4092
 -1      2063    8    0    1
 -2       944      1067      1013      4092      4093      3918
 -1      2064    8    0    1
 -2      1001      1058      1059      4053      4094      4054
 -1      2065    8    0    1
 -2      1008       942      1011      3899      3906      4095
 -1      2066    8    0    1
 -2       992      1053      1068      4038      4096      4097
 -1      2067    8    0    1
 -2       992      1068      1015      4097      4098      3926
 -1      2068    8    0    1
 -2      1021      1005      1069      3945      4099      4100
 -1      2069    8    0    1
 -2      1016      1000      1065      4039      4086      4101
 -1      2070    8    0    1
 -2       985      1009      1006      3919      4060      4073
 -1      2071    8    0    1
 -2       982      1004      1070      3875      4102      4103
 -1      2072    8    0    1
 -2       982      1070      1057      4103      4104      4049
 -1      2073    8    0    1
 -2       948       989      1063      3914      4076      4077
 -1      2074    8    0    1
 -2      1019       932      1064      3940      4105      4082
 -1      2075    8    0    1
 -2       984      1050      1071      4029      4106      4107
 -1      2076    8    0    1
 -2       984      1071      1004      4107      4108      3876
 -1      2077    8    0    1
 -2      1017      1016      1072      3932      4109      4110
 -1      2078    8    0    1
 -2      1016      1065      1072      4101      4111      4109
 -1      2079    8    0    1
 -2       986      1018      1073      3934      4112      4113
 -1      2080    8    0    1
 -2       994      1014      1074      3922      4114      4115
 -1      2081    8    0    1
 -2       994      1074      1066      4115      4116      4087
 -1      2082    8    0    1
 -2      1064       932      1007      4105      3893      4117
 -1      2083    8    0    1
 -2      1063       983      1052      4075      4036      4118
 -1      2084    8    0    1
 -2      1005      1063      1069      4078      4119      4099
 -1      2085    8    0    1
 -2      1023      1045      1075      4015      4120      4121
 -1      2086    8    0    1
 -2      1045      1047      1076      4021      4122      4123
 -1      2087    8    0    1
 -2      1045      1076      1075      4123      4124      4120
 -1      2088    8    0    1
 -2      1006       986      1050      3883      4125      4074
 -1      2089    8    0    1
 -2      1026      1025      1077      3960      4126      4127
 -1      2090    8    0    1
 -2      1027      1026      1078      3963      4128      4129
 -1      2091    8    0    1
 -2      1026      1077      1078      4127      4130      4128
 -1      2092    8    0    1
 -2      1028      1027      1079      3966      4131      4132
 -1      2093    8    0    1
 -2      1027      1078      1079      4129      4133      4131
 -1      2094    8    0    1
 -2      1029      1028      1080      3969      4134      4135
 -1      2095    8    0    1
 -2      1028      1079      1080      4132      4136      4134
 -1      2096    8    0    1
 -2      1030      1029      1081      3972      4137      4138
 -1      2097    8    0    1
 -2      1029      1080      1081      4135      4139      4137
 -1      2098    8    0    1
 -2      1031      1030      1082      3975      4140      4141
 -1      2099    8    0    1
 -2      1030      1081      1082      4138      4142      4140
 -1      2100    8    0    1
 -2      1032      1031      1083      3978      4143      4144
 -1      2101    8    0    1
 -2      1031      1082      1083      4141      4145      4143
 -1      2102    8    0    1
 -2      1033      1032      1084      3981      4146      4147
 -1      2103    8    0    1
 -2      1032      1083      1084      4144      4148      4146
 -1      2104    8    0    1
 -2      1034      1033      1085      3984      4149      4150
 -1      2105    8    0    1
 -2      1033      1084      1085      4147      4151      4149
 -1      2106    8    0    1
 -2      1035      1034      1086      3987      4152      4153
 -1      2107    8    0    1
 -2      1034      1085      1086      4150      4154      4152
 -1      2108    8    0    1
 -2      1036      1035      1087      3990      4155      4156
 -1      2109    8    0    1
 -2      1035      1086      1087      4153      4157      4155
 -1      2110    8    0    1
 -2      1037      1036      1088      3993      4158      4159
 -1      2111    8    0    1
 -2      1036      1087      1088      4156      4160      4158
 -1      2112    8    0    1
 -2      1069      1063      1052      4119      4118      4161
 -1      2113    8    0    1
 -2      1052      1057      1089      4051      4162      4163
 -1      2114    8    0    1
 -2      1052      1089      1069      4163      4164      4161
 -1      2115    8    0    1
 -2      1041      1040      1090      4003      4165      4166
 -1      2116    8    0    1
 -2      1042      1041      1091      4006      4167      4168
 -1      2117    8    0    1
 -2      1041      1090      1091      4166      4169      4167
 -1      2118    8    0    1
 -2      1043      1042      1092      4009      4170      4171
 -1      2119    8    0    1
 -2      1042      1091      1092      4168      4172      4170
 -1      2120    8    0    1
 -2      1044      1043      1093      4012      4173      4174
 -1      2121    8    0    1
 -2      1043      1092      1093      4171      4175      4173
 -1      2122    8    0    1
 -2      1047      1048      1094      4024      4176      4177
 -1      2123    8    0    1
 -2      1076      1047      1094      4122      4177      4178
 -1      2124    8    0    1
 -2      1048      1059      1094      4067      4179      4176
 -1      2125    8    0    1
 -2      1046      1023      1095      4018      4180      4181
 -1      2126    8    0    1
 -2      1023      1075      1095      4121      4182      4180
 -1      2127    8    0    1
 -2      1058      1024      1037      4062      4066      4183
 -1      2128    8    0    1
 -2      1049      1046      1096      4027      4184      4185
 -1      2129    8    0    1
 -2      1046      1095      1096      4181      4186      4184
 -1      2130    8    0    1
 -2      1050       986      1073      4125      4113      4187
 -1      2131    8    0    1
 -2      1038      1064      1007      4081      4117      4188
 -1      2132    8    0    1
 -2      1055      1049      1097      4044      4189      4190
 -1      2133    8    0    1
 -2      1049      1096      1097      4185      4191      4189
 -1      2134    8    0    1
 -2      1065      1060      1072      4084      4192      4111
 -1      2135    8    0    1
 -2      1012      1017      1098      4089      4193      4194
 -1      2136    8    0    1
 -2      1051      1039      1099      4034      4195      4196
 -1      2137    8    0    1
 -2      1059      1058      1094      4094      4197      4179
 -1      2138    8    0    1
 -2      1025      1022      1100      3957      4198      4199
 -1      2139    8    0    1
 -2      1025      1100      1077      4199      4200      4126
 -1      2140    8    0    1
 -2      1058      1037      1088      4183      4159      4201
 -1      2141    8    0    1
 -2      1038      1007      1021      4188      4072      4202
 -1      2142    8    0    1
 -2      1021      1069      1090      4100      4203      4204
 -1      2143    8    0    1
 -2      1040      1038      1021      4000      4202      4205
 -1      2144    8    0    1
 -2      1014      1015      1101      3925      4206      4207
 -1      2145    8    0    1
 -2      1015      1068      1101      4098      4208      4206
 -1      2146    8    0    1
 -2      1056      1044      1102      4048      4209      4210
 -1      2147    8    0    1
 -2      1018      1056      1102      4071      4210      4211
 -1      2148    8    0    1
 -2      1044      1093      1102      4174      4212      4209
 -1      2149    8    0    1
 -2      1010      1013      1103      3917      4213      4214
 -1      2150    8    0    1
 -2      1061      1010      1103      4065      4214      4215
 -1      2151    8    0    1
 -2      1013      1067      1103      4093      4216      4213
 -1      2152    8    0    1
 -2      1008      1011      1104      4095      4217      4218
 -1      2153    8    0    1
 -2      1062      1008      1104      4068      4218      4219
 -1      2154    8    0    1
 -2      1011      1066      1104      4088      4220      4217
 -1      2155    8    0    1
 -2      1053      1055      1105      4083      4221      4222
 -1      2156    8    0    1
 -2      1055      1097      1105      4190      4223      4221
 -1      2157    8    0    1
 -2      1022      1051      1106      4090      4224      4225
 -1      2158    8    0    1
 -2      1022      1106      1100      4225      4226      4198
 -1      2159    8    0    1
 -2      1073      1018      1102      4112      4211      4227
 -1      2160    8    0    1
 -2      1020      1012      1098      3944      4194      4228
 -1      2161    8    0    1
 -2      1060      1054      1107      4059      4229      4230
 -1      2162    8    0    1
 -2      1040      1021      1090      4205      4204      4165
 -1      2163    8    0    1
 -2      1058      1088      1094      4201      4231      4197
 -1      2164    8    0    1
 -2      1104      1066      1108      4220      4232      4233
 -1      2165    8    0    1
 -2      1014      1101      1074      4207      4234      4114
 -1      2166    8    0    1
 -2      1004      1071      1070      4108      4235      4102
 -1      2167    8    0    1
 -2      1089      1057      1070      4162      4104      4236
 -1      2168    8    0    1
 -2      1069      1089      1090      4164      4237      4203
 -1      2169    8    0    1
 -2      1099      1039      1109      4195      4238      4239
 -1      2170    8    0    1
 -2      1039      1061      1109      4064      4240      4238
 -1      2171    8    0    1
 -2      1098      1017      1072      4193      4110      4241
 -1      2172    8    0    1
 -2      1072      1060      1107      4192      4230      4242
 -1      2173    8    0    1
 -2      1051      1099      1106      4196      4243      4224
 -1      2174    8    0    1
 -2      1073      1102      1110      4227      4244      4245
 -1      2175    8    0    1
 -2      1102      1093      1110      4212      4246      4244
 -1      2176    8    0    1
 -2      1068      1053      1111      4096      4247      4248
 -1      2177    8    0    1
 -2      1053      1105      1111      4222      4249      4247
 -1      2178    8    0    1
 -2      1050      1073      1112      4187      4250      4251
 -1      2179    8    0    1
 -2      1071      1050      1112      4106      4251      4252
 -1      2180    8    0    1
 -2      1073      1110      1112      4245      4253      4250
 -1      2181    8    0    1
 -2      1054      1062      1113      4070      4254      4255
 -1      2182    8    0    1
 -2      1054      1113      1107      4255      4256      4229
 -1      2183    8    0    1
 -2      1066      1074      1114      4116      4257      4258
 -1      2184    8    0    1
 -2      1066      1114      1108      4258      4259      4232
 -1      2185    8    0    1
 -2      1075      1076      1087      4124      4260      4261
 -1      2186    8    0    1
 -2      1078      1077      1115      4130      4262      4263
 -1      2187    8    0    1
 -2      1075      1087      1086      4261      4157      4264
 -1      2188    8    0    1
 -2      1074      1101      1116      4234      4265      4266
 -1      2189    8    0    1
 -2      1074      1116      1114      4266      4267      4257
 -1      2190    8    0    1
 -2      1079      1078      1114      4133      4268      4269
 -1      2191    8    0    1
 -2      1080      1079      1116      4136      4270      4271
 -1      2192    8    0    1
 -2      1082      1081      1117      4142      4272      4273
 -1      2193    8    0    1
 -2      1083      1082      1105      4145      4274      4275
 -1      2194    8    0    1
 -2      1084      1083      1097      4148      4276      4277
 -1      2195    8    0    1
 -2      1085      1084      1096      4151      4278      4279
 -1      2196    8    0    1
 -2      1086      1085      1095      4154      4280      4281
 -1      2197    8    0    1
 -2      1088      1087      1076      4160      4260      4282
 -1      2198    8    0    1
 -2      1091      1090      1089      4169      4237      4283
 -1      2199    8    0    1
 -2      1096      1084      1097      4278      4277      4191
 -1      2200    8    0    1
 -2      1097      1083      1105      4276      4275      4223
 -1      2201    8    0    1
 -2      1094      1088      1076      4231      4282      4178
 -1      2202    8    0    1
 -2      1093      1092      1110      4175      4284      4246
 -1      2203    8    0    1
 -2      1077      1100      1118      4200      4285      4286
 -1      2204    8    0    1
 -2      1077      1118      1115      4286      4287      4262
 -1      2205    8    0    1
 -2      1095      1075      1086      4182      4264      4281
 -1      2206    8    0    1
 -2      1096      1095      1085      4186      4280      4279
 -1      2207    8    0    1
 -2      1070      1071      1119      4235      4288      4289
 -1      2208    8    0    1
 -2      1089      1070      1119      4236      4289      4290
 -1      2209    8    0    1
 -2      1071      1112      1119      4252      4291      4288
 -1      2210    8    0    1
 -2      1100      1106      1113      4226      4292      4293
 -1      2211    8    0    1
 -2      1067      1020      1098      4091      4228      4294
 -1      2212    8    0    1
 -2      1112      1110      1120      4253      4295      4296
 -1      2213    8    0    1
 -2      1119      1112      1120      4291      4296      4297
 -1      2214    8    0    1
 -2      1110      1092      1120      4284      4298      4295
 -1      2215    8    0    1
 -2      1101      1068      1121      4208      4299      4300
 -1      2216    8    0    1
 -2      1068      1111      1121      4248      4301      4299
 -1      2217    8    0    1
 -2      1098      1072      1109      4241      4302      4303
 -1      2218    8    0    1
 -2      1106      1099      1107      4243      4304      4305
 -1      2219    8    0    1
 -2      1091      1089      1119      4283      4290      4306
 -1      2220    8    0    1
 -2      1062      1104      1122      4219      4307      4308
 -1      2221    8    0    1
 -2      1113      1062      1122      4254      4308      4309
 -1      2222    8    0    1
 -2      1104      1108      1122      4233      4310      4307
 -1      2223    8    0    1
 -2      1067      1098      1103      4294      4311      4216
 -1      2224    8    0    1
 -2      1106      1107      1113      4305      4256      4292
 -1      2225    8    0    1
 -2      1116      1101      1121      4265      4300      4312
 -1      2226    8    0    1
 -2      1080      1116      1121      4271      4312      4313
 -1      2227    8    0    1
 -2      1081      1080      1121      4139      4313      4314
 -1      2228    8    0    1
 -2      1092      1091      1120      4172      4315      4298
 -1      2229    8    0    1
 -2      1105      1082      1117      4274      4273      4316
 -1      2230    8    0    1
 -2      1116      1079      1114      4270      4269      4267
 -1      2231    8    0    1
 -2      1107      1099      1072      4304      4317      4242
 -1      2232    8    0    1
 -2      1122      1108      1115      4310      4318      4319
 -1      2233    8    0    1
 -2      1078      1115      1114      4263      4320      4268
 -1      2234    8    0    1
 -2      1072      1099      1109      4317      4239      4302
 -1      2235    8    0    1
 -2      1118      1100      1113      4285      4293      4321
 -1      2236    8    0    1
 -2      1109      1061      1098      4240      4322      4303
 -1      2237    8    0    1
 -2      1117      1081      1121      4272      4314      4323
 -1      2238    8    0    1
 -2      1115      1118      1122      4287      4324      4319
 -1      2239    8    0    1
 -2      1118      1113      1122      4321      4309      4324
 -1      2240    8    0    1
 -2      1098      1061      1103      4322      4215      4311
 -1      2241    8    0    1
 -2      1121      1111      1117      4301      4325      4323
 -1      2242    8    0    1
 -2      1105      1117      1111      4316      4325      4249
 -1      2243    8    0    1
 -2      1115      1108      1114      4318      4259      4320
 -1      2244    8    0    1
 -2      1120      1091      1119      4315      4306      4297
 -3
    1PSTEP                         1           1           1          
  100CL  101 1.000000000        4325                     0    1           1
 -4  DISP        4    1
 -5  D1          1    2    1    0
 -5  D2          1    2    2    0
 -5  D3          1    2    3    0
 -5  ALL         1    2    0    0    1ALL
 -1         1 1.06804E-02-4.45776E-04-5.87906E-14
 -1         2 1.15697E-02 2.18347E-04-6.11358E-14
 -1         3 1.54340E-02 1.26995E-03-1.17404E-13
 -1         4 1.48979E-02-6.13984E-05-1.25243E-13
 -1         5 0.00000E+00 0.00000E+00 0.00000E+00
 -1         6 0.00000E+00 0.00000E+00 0.00000E+00
 -1         7 0.00000E+00 0.00000E+00 0.00000E+00
 -1         8 0.00000E+00 0.00000E+00 0.00000E+00
 -1         9 0.00000E+00 0.00000E+00 0.00000E+00
 -1        10 0.00000E+00 0.00000E+00 0.00000E+00
 -1        11 0.00000E+00 0.00000E+00 0.00000E+00
 -1        12 0.00000E+00 0.00000E+00 0.00000E+00
 -1        13 0.00000E+00 0.00000E+00 0.00000E+00
 -1        14 0.00000E+00 0.00000E+00 0.00000E+00
 -1        15 0.00000E+00 0.00000E+00 0.00000E+00
 -1        16 0.00000E+00 0.00000E+00 0.00000E+00
 -1        17 0.00000E+00 0.00000E+00 0.00000E+00
 -1        18 0.00000E+00 0.00000E+00 0.00000E+00
 -1        19 0.00000E+00 0.00000E+00 0.00000E+00
 -1        20 0.00000E+00 0.00000E+00 0.00000E+00
 -1        21 0.00000E+00 0.00000E+00 0.00000E+00
 -1        22 0.00000E+00 0.00000E+00 0.00000E+00
 -1        23 4.11068E-04-2.60629E-04 2.18196E-17
 -1        24 7.02744E-04-4.00757E-04-1.07058E-16
 -1        25 9.72476E-04-4.97918E-04-3.79298E-16
 -1        26 1.23661E-03-5.66320E-04-7.91058E-16
 -1        27 1.49975E-03-6.15074E-04-1.33868E-15
 -1        28 1.76403E-03-6.49520E-04-2.01901E-15
 -1        29 2.03040E-03-6.73318E-04-2.82973E-15
 -1        30 2.29928E-03-6.89109E-04-3.76596E-15
 -1        31 2.57078E-03-6.98848E-04-4.82391E-15
 -1        32 2.84485E-03-7.03995E-04-6.00533E-15
 -1        33 3.12139E-03-7.05632E-04-7.30576E-15
 -1        34 3.40030E-03-7.04566E-04-8.71881E-15
 -1        35 3.68156E-03-7.01394E-04-1.02416E-14
 -1        36 3.96523E-03-6.96582E-04-1.18715E-14
 -1        37 4.25150E-03-6.90527E-04-1.36082E-14
 -1        38 4.54071E-03-6.83634E-04-1.54459E-14
 -1        39 4.83335E-03-6.76388E-04-1.73848E-14
 -1        40 5.13009E-03-6.69450E-04-1.94267E-14
 -1        41 5.43171E-03-6.63749E-04-2.15725E-14
 -1        42 5.73907E-03-6.60590E-04-2.38212E-14
 -1        43 6.05296E-03-6.61742E-04-2.61808E-14
 -1        44 6.37388E-03-6.69487E-04-2.86457E-14
 -1        45 6.70173E-03-6.86545E-04-3.12181E-14
 -1        46 7.03533E-03-7.15787E-04-3.39139E-14
 -1        47 7.37195E-03-7.59585E-04-3.67260E-14
 -1        48 7.70696E-03-8.18688E-04-3.96435E-14
 -1        49 8.03402E-03-8.90703E-04-4.26549E-14
 -1        50 8.34627E-03-9.68618E-04-4.57571E-14
 -1        51 8.63865E-03-1.04041E-03-4.89438E-14
 -1        52 8.91074E-03-1.09089E-03-5.22124E-14
 -1        53 9.16851E-03-1.10617E-03-5.55505E-14
 -1        54 9.42317E-03-1.07900E-03-5.89601E-14
 -1        55 9.68714E-03-1.01201E-03-6.24342E-14
 -1        56 9.96924E-03-9.16467E-04-6.59652E-14
 -1        57 1.02721E-02-8.07617E-04-6.95404E-14
 -1        58 1.05925E-02-6.99404E-04-7.31449E-14
 -1        59 1.09242E-02-6.01312E-04-7.67745E-14
 -1        60 1.12602E-02-5.17792E-04-8.04200E-14
 -1        61 1.15950E-02-4.49370E-04-8.40783E-14
 -1        62 1.19250E-02-3.94228E-04-8.77530E-14
 -1        63 1.22483E-02-3.49551E-04-9.14566E-14
 -1        64 1.25642E-02-3.12384E-04-9.51894E-14
 -1        65 1.28731E-02-2.80080E-04-9.89490E-14
 -1        66 1.31756E-02-2.50453E-04-1.02725E-13
 -1        67 1.34726E-02-2.21779E-04-1.06511E-13
 -1        68 1.37652E-02-1.92736E-04-1.10288E-13
 -1        69 1.40543E-02-1.62340E-04-1.14056E-13
 -1        70 1.43411E-02-1.29948E-04-1.17825E-13
 -1        71 1.46266E-02-9.54332E-05-1.21621E-13
 -1        72 4.13516E-04 2.61334E-04 7.58230E-17
 -1        73 7.02569E-04 4.03465E-04 4.27616E-17
 -1        74 9.73011E-04 4.99697E-04-9.96246E-17
 -1        75 1.23743E-03 5.68038E-04-3.55530E-16
 -1        76 1.50070E-03 6.16837E-04-7.27574E-16
 -1        77 1.76503E-03 6.51369E-04-1.21744E-15
 -1        78 2.03143E-03 6.75272E-04-1.82767E-15
 -1        79 2.30032E-03 6.91174E-04-2.55732E-15
 -1        80 2.57181E-03 7.01019E-04-3.40492E-15
 -1        81 2.84585E-03 7.06256E-04-4.36858E-15
 -1        82 3.12236E-03 7.07957E-04-5.44572E-15
 -1        83 3.40123E-03 7.06907E-04-6.63260E-15
 -1        84 3.68245E-03 7.03679E-04-7.93076E-15
 -1        85 3.96610E-03 6.98701E-04-9.34156E-15
 -1        86 4.25240E-03 6.92320E-04-1.08657E-14
 -1        87 4.54178E-03 6.84876E-04-1.25003E-14
 -1        88 4.83487E-03 6.76779E-04-1.42451E-14
 -1        89 5.13256E-03 6.68614E-04-1.60979E-14
 -1        90 5.43601E-03 6.61268E-04-1.80623E-14
 -1        91 5.74666E-03 6.56094E-04-2.01367E-14
 -1        92 6.06619E-03 6.55117E-04-2.23181E-14
 -1        93 6.39633E-03 6.61262E-04-2.45988E-14
 -1        94 6.73853E-03 6.78564E-04-2.69758E-14
 -1        95 7.09333E-03 7.12195E-04-2.94447E-14
 -1        96 7.45932E-03 7.68050E-04-3.19947E-14
 -1        97 7.83180E-03 8.51385E-04-3.46259E-14
 -1        98 8.20173E-03 9.63988E-04-3.73462E-14
 -1        99 8.55619E-03 1.09993E-03-4.01535E-14
 -1       100 8.88207E-03 1.24178E-03-4.30514E-14
 -1       101 9.17317E-03 1.36134E-03-4.60397E-14
 -1       102 9.43697E-03 1.42864E-03-4.91200E-14
 -1       103 9.69449E-03 1.42679E-03-5.22888E-14
 -1       104 9.97011E-03 1.36187E-03-5.55451E-14
 -1       105 1.02788E-02 1.25933E-03-5.88832E-14
 -1       106 1.06206E-02 1.14993E-03-6.23058E-14
 -1       107 1.09845E-02 1.05692E-03-6.57888E-14
 -1       108 1.13568E-02 9.91481E-04-6.93275E-14
 -1       109 1.17263E-02 9.54999E-04-7.29274E-14
 -1       110 1.20862E-02 9.43418E-04-7.65732E-14
 -1       111 1.24337E-02 9.50842E-04-8.02566E-14
 -1       112 1.27684E-02 9.71561E-04-8.39701E-14
 -1       113 1.30915E-02 1.00086E-03-8.77012E-14
 -1       114 1.34047E-02 1.03516E-03-9.14350E-14
 -1       115 1.37096E-02 1.07185E-03-9.51725E-14
 -1       116 1.40079E-02 1.10907E-03-9.89267E-14
 -1       117 1.43011E-02 1.14549E-03-1.02676E-13
 -1       118 1.45904E-02 1.18021E-03-1.06419E-13
 -1       119 1.48772E-02 1.21263E-03-1.10152E-13
 -1       120 1.51628E-02 1.24270E-03-1.13873E-13
 -1       121 1.54060E-02 1.18544E-03-1.17897E-13
 -1       122 1.53795E-02 1.10103E-03-1.18410E-13
 -1       123 1.53549E-02 1.01789E-03-1.18907E-13
 -1       124 1.53319E-02 9.37022E-04-1.19402E-13
 -1       125 1.53093E-02 8.58938E-04-1.19871E-13
 -1       126 1.52861E-02 7.84855E-04-1.20346E-13
 -1       127 1.52605E-02 7.11735E-04-1.20829E-13
 -1       128 1.52321E-02 6.40051E-04-1.21310E-13
 -1       129 1.52003E-02 5.68784E-04-1.21765E-13
 -1       130 1.51652E-02 4.96876E-04-1.22205E-13
 -1       131 1.51274E-02 4.23370E-04-1.22645E-13
 -1       132 1.50885E-02 3.48856E-04-1.23107E-13
 -1       133 1.50480E-02 2.70392E-04-1.23562E-13
 -1       134 1.50080E-02 1.89284E-04-1.23992E-13
 -1       135 1.49694E-02 1.06016E-04-1.24409E-13
 -1       136 1.49327E-02 2.16793E-05-1.24832E-13
 -1       137 1.15307E-02 3.94123E-04-6.07492E-14
 -1       138 1.14052E-02 5.51435E-04-6.00777E-14
 -1       139 1.11743E-02 7.07883E-04-5.90152E-14
 -1       140 1.08839E-02 8.35335E-04-5.78014E-14
 -1       141 1.05024E-02 9.44799E-04-5.63091E-14
 -1       142 1.00815E-02 1.01678E-03-5.47532E-14
 -1       143 9.64340E-03 1.04910E-03-5.32117E-14
 -1       144 9.14386E-03 1.03870E-03-5.15270E-14
 -1       145 8.65584E-03 9.79675E-04-4.99563E-14
 -1       146 8.21122E-03 8.78465E-04-4.85832E-14
 -1       147 7.85005E-03 7.54894E-04-4.75294E-14
 -1       148 7.54981E-03 6.04552E-04-4.67047E-14
 -1       149 7.33238E-03 4.37247E-04-4.61767E-14
 -1       150 7.21151E-03 2.65411E-04-4.59772E-14
 -1       151 7.18675E-03 9.83907E-05-4.60908E-14
 -1       152 7.26069E-03-7.48750E-05-4.65387E-14
 -1       153 7.41755E-03-2.25782E-04-4.72338E-14
 -1       154 7.68073E-03-3.73122E-04-4.82742E-14
 -1       155 7.99820E-03-4.87317E-04-4.94680E-14
 -1       156 8.38140E-03-5.75754E-04-5.08681E-14
 -1       157 8.78848E-03-6.29008E-04-5.23195E-14
 -1       158 9.32008E-03-6.48680E-04-5.41943E-14
 -1       159 9.77988E-03-6.22977E-04-5.57797E-14
 -1       160 1.02398E-02-5.56265E-04-5.73381E-14
 -1       161 1.10450E-02-3.06492E-04-5.99299E-14
 -1       162 1.13294E-02-1.39003E-04-6.07377E-14
 -1       163 1.15003E-02 3.34078E-05-6.11292E-14
 -1       164 2.40266E-04-1.25521E-04-3.56770E-17
 -1       165 2.25208E-04-9.46450E-05-5.29497E-17
 -1       166 2.19516E-04-7.28066E-05-6.14810E-17
 -1       167 2.16750E-04-5.51341E-05-6.53503E-17
 -1       168 2.15303E-04-3.99888E-05-6.65327E-17
 -1       169 2.14496E-04-2.59279E-05-6.61058E-17
 -1       170 2.14094E-04-1.26494E-05-6.48726E-17
 -1       171 2.13977E-04 2.73443E-07-6.33818E-17
 -1       172 2.14112E-04 1.32083E-05-6.13286E-17
 -1       173 2.14537E-04 2.65255E-05-5.82521E-17
 -1       174 2.15353E-04 4.04130E-05-5.36206E-17
 -1       175 2.16862E-04 5.59408E-05-4.69188E-17
 -1       176 2.19666E-04 7.38472E-05-3.70153E-17
 -1       177 2.25375E-04 9.60430E-05-2.17755E-17
 -1       178 2.39194E-04 1.27598E-04 2.05321E-18
 -1       179 2.97488E-04 1.85458E-04 2.86263E-17
 -1       180 4.68279E-04-2.63468E-04-9.43527E-17
 -1       181 7.66179E-04-3.81899E-04-3.18508E-16
 -1       182 1.04978E-03-4.64505E-04-6.75146E-16
 -1       183 1.32693E-03-5.22864E-04-1.16378E-15
 -1       184 1.60129E-03-5.63951E-04-1.78288E-15
 -1       185 1.87498E-03-5.92403E-04-2.52970E-15
 -1       186 2.14914E-03-6.11470E-04-3.40171E-15
 -1       187 2.42443E-03-6.23509E-04-4.39534E-15
 -1       188 2.70118E-03-6.30258E-04-5.50870E-15
 -1       189 2.97955E-03-6.32996E-04-6.74206E-15
 -1       190 3.25963E-03-6.32664E-04-8.09029E-15
 -1       191 3.54150E-03-6.29943E-04-9.54738E-15
 -1       192 3.82525E-03-6.25339E-04-1.11133E-14
 -1       193 4.11104E-03-6.19249E-04-1.27843E-14
 -1       194 4.39912E-03-6.12031E-04-1.45600E-14
 -1       195 4.68983E-03-6.04087E-04-1.64383E-14
 -1       196 4.98360E-03-5.95942E-04-1.84179E-14
 -1       197 5.28098E-03-5.88351E-04-2.05009E-14
 -1       198 5.58254E-03-5.82403E-04-2.26872E-14
 -1       199 5.88886E-03-5.79636E-04-2.49771E-14
 -1       200 6.20038E-03-5.82134E-04-2.73769E-14
 -1       201 6.51724E-03-5.92538E-04-2.98841E-14
 -1       202 6.83907E-03-6.13921E-04-3.25047E-14
 -1       203 7.16469E-03-6.49337E-04-3.52394E-14
 -1       204 7.49191E-03-7.00934E-04-3.80823E-14
 -1       205 7.81742E-03-7.68503E-04-4.10252E-14
 -1       206 8.13718E-03-8.47687E-04-4.40604E-14
 -1       207 8.44732E-03-9.28603E-04-4.71848E-14
 -1       208 8.74580E-03-9.96236E-04-5.03908E-14
 -1       209 9.03391E-03-1.03385E-03-5.36741E-14
 -1       210 9.31670E-03-1.02895E-03-5.70315E-14
 -1       211 9.60138E-03-9.78761E-04-6.04570E-14
 -1       212 9.89435E-03-8.91573E-04-6.39443E-14
 -1       213 1.01988E-02-7.82882E-04-6.74835E-14
 -1       214 1.05141E-02-6.69153E-04-7.10622E-14
 -1       215 1.08371E-02-5.62959E-04-7.46702E-14
 -1       216 1.11636E-02-4.71208E-04-7.82978E-14
 -1       217 1.14898E-02-3.95858E-04-8.19433E-14
 -1       218 1.18131E-02-3.35638E-04-8.56021E-14
 -1       219 1.21317E-02-2.87716E-04-8.92869E-14
 -1       220 1.24450E-02-2.48858E-04-9.29978E-14
 -1       221 1.27527E-02-2.16059E-04-9.67343E-14
 -1       222 1.30554E-02-1.86802E-04-1.00490E-13
 -1       223 1.33535E-02-1.59097E-04-1.04261E-13
 -1       224 1.36477E-02-1.31417E-04-1.08036E-13
 -1       225 1.39388E-02-1.02612E-04-1.11808E-13
 -1       226 1.42275E-02-7.18570E-05-1.15580E-13
 -1       227 1.45145E-02-3.87076E-05-1.19360E-13
 -1       228 6.04095E-04 3.30892E-04-2.80334E-17
 -1       229 8.92929E-04 4.32307E-04-1.87889E-16
 -1       230 1.17155E-03 5.03724E-04-4.57445E-16
 -1       231 1.44563E-03 5.54319E-04-8.40819E-16
 -1       232 1.71818E-03 5.89870E-04-1.33950E-15
 -1       233 1.99086E-03 6.14305E-04-1.95688E-15
 -1       234 2.26454E-03 6.30432E-04-2.69206E-15
 -1       235 2.53969E-03 6.40311E-04-3.54296E-15
 -1       236 2.81652E-03 6.45459E-04-4.50802E-15
 -1       237 3.09514E-03 6.46990E-04-5.58566E-15
 -1       238 3.37560E-03 6.45709E-04-6.77480E-15
 -1       239 3.65799E-03 6.42194E-04-8.07454E-15
 -1       240 3.94244E-03 6.36859E-04-9.48459E-15
 -1       241 4.22918E-03 6.30028E-04-1.10064E-14
 -1       242 4.51857E-03 6.21999E-04-1.26396E-14
 -1       243 4.81112E-03 6.13128E-04-1.43813E-14
 -1       244 5.10753E-03 6.03930E-04-1.62333E-14
 -1       245 5.40867E-03 5.95204E-04-1.81949E-14
 -1       246 5.71559E-03 5.88204E-04-2.02649E-14
 -1       247 6.02948E-03 5.84850E-04-2.24439E-14
 -1       248 6.35153E-03 5.87979E-04-2.47232E-14
 -1       249 6.68271E-03 6.01599E-04-2.70948E-14
 -1       250 7.02341E-03 6.31007E-04-2.95559E-14
 -1       251 7.37284E-03 6.82499E-04-3.21044E-14
 -1       252 7.72835E-03 7.62169E-04-3.47392E-14
 -1       253 8.08485E-03 8.73166E-04-3.74598E-14
 -1       254 8.43492E-03 1.01115E-03-4.02666E-14
 -1       255 8.77063E-03 1.15952E-03-4.31611E-14
 -1       256 9.08741E-03 1.28898E-03-4.61492E-14
 -1       257 9.38819E-03 1.36595E-03-4.92310E-14
 -1       258 9.68418E-03 1.36956E-03-5.23987E-14
 -1       259 9.98927E-03 1.30426E-03-5.56518E-14
 -1       260 1.03123E-02 1.19718E-03-5.89879E-14
 -1       261 1.06534E-02 1.08207E-03-6.24031E-14
 -1       262 1.10063E-02 9.84393E-04-6.58821E-14
 -1       263 1.13628E-02 9.16181E-04-6.94157E-14
 -1       264 1.17163E-02 8.78699E-04-7.30013E-14
 -1       265 1.20625E-02 8.67399E-04-7.66345E-14
 -1       266 1.23993E-02 8.75868E-04-8.03048E-14
 -1       267 1.27265E-02 8.97995E-04-8.40056E-14
 -1       268 1.30447E-02 9.28806E-04-8.77267E-14
 -1       269 1.33550E-02 9.64566E-04-9.14598E-14
 -1       270 1.36586E-02 1.00259E-03-9.51950E-14
 -1       271 1.39567E-02 1.04100E-03-9.89392E-14
 -1       272 1.42504E-02 1.07846E-03-1.02684E-13
 -1       273 1.45408E-02 1.11403E-03-1.06429E-13
 -1       274 1.48289E-02 1.14711E-03-1.10164E-13
 -1       275 1.51154E-02 1.17755E-03-1.13889E-13
 -1       276 1.51451E-02 1.11904E-03-1.14919E-13
 -1       277 1.51199E-02 1.03610E-03-1.15415E-13
 -1       278 1.50968E-02 9.54785E-04-1.15905E-13
 -1       279 1.50748E-02 8.75463E-04-1.16388E-13
 -1       280 1.50529E-02 7.99507E-04-1.16856E-13
 -1       281 1.50290E-02 7.24065E-04-1.17330E-13
 -1       282 1.50024E-02 6.49968E-04-1.17802E-13
 -1       283 1.49724E-02 5.76536E-04-1.18264E-13
 -1       284 1.49388E-02 5.03008E-04-1.18714E-13
 -1       285 1.49019E-02 4.28647E-04-1.19160E-13
 -1       286 1.48632E-02 3.54137E-04-1.19595E-13
 -1       287 1.48223E-02 2.76501E-04-1.20038E-13
 -1       288 1.47813E-02 1.96850E-04-1.20473E-13
 -1       289 1.47414E-02 1.15319E-04-1.20900E-13
 -1       290 1.46273E-02 3.85459E-05-1.20133E-13
 -1       291 1.15874E-02 2.71976E-04-6.25268E-14
 -1       292 1.14644E-02 3.75323E-04-6.16867E-14
 -1       293 1.12172E-02 4.81841E-04-6.09536E-14
 -1       294 1.09083E-02 6.58329E-04-5.92942E-14
 -1       295 1.05305E-02 8.23562E-04-5.77795E-14
 -1       296 1.01506E-02 9.88073E-04-5.59174E-14
 -1       297 9.78509E-03 1.09392E-03-5.40719E-14
 -1       298 9.40554E-03 1.13180E-03-5.21569E-14
 -1       299 9.01362E-03 1.06705E-03-5.01924E-14
 -1       300 8.61327E-03 9.11428E-04-4.83916E-14
 -1       301 8.18675E-03 7.31790E-04-4.71848E-14
 -1       302 7.81470E-03 5.49279E-04-4.61065E-14
 -1       303 7.49086E-03 3.86532E-04-4.53307E-14
 -1       304 7.26337E-03 2.54147E-04-4.48320E-14
 -1       305 7.16130E-03 1.58189E-04-4.47777E-14
 -1       306 7.19457E-03 7.06511E-05-4.50148E-14
 -1       307 7.35889E-03-3.98381E-05-4.58233E-14
 -1       308 7.63237E-03-1.68058E-04-4.67542E-14
 -1       309 7.97161E-03-3.32240E-04-4.81114E-14
 -1       310 8.33742E-03-4.91852E-04-4.96159E-14
 -1       311 8.70514E-03-6.25694E-04-5.12784E-14
 -1       312 9.10665E-03-7.18958E-04-5.32207E-14
 -1       313 9.50362E-03-7.08786E-04-5.52649E-14
 -1       314 9.87726E-03-6.23119E-04-5.72047E-14
 -1       315 1.02766E-02-4.53743E-04-5.91524E-14
 -1       316 1.07245E-02-2.69312E-04-6.04640E-14
 -1       317 1.10999E-02-7.29702E-05-6.18103E-14
 -1       318 1.14025E-02 6.26505E-05-6.23513E-14
 -1       319 1.15684E-02 1.75738E-04-6.25787E-14
 -1       320 4.55325E-04-1.64773E-04-2.07008E-16
 -1       321 4.74042E-04-2.12931E-04-1.80377E-16
 -1       322 4.40578E-04-9.40001E-05-2.27212E-16
 -1       323 4.37686E-04-6.48959E-05-2.28326E-16
 -1       324 4.36108E-04-3.78935E-05-2.26520E-16
 -1       325 4.35417E-04-1.20120E-05-2.22516E-16
 -1       326 4.35447E-04 1.35324E-05-2.16973E-16
 -1       327 4.36202E-04 3.94706E-05-2.08888E-16
 -1       328 4.37826E-04 6.61235E-05-1.97772E-16
 -1       329 4.40816E-04 9.53983E-05-1.82268E-16
 -1       330 4.46110E-04 1.28310E-04-1.60730E-16
 -1       331 4.55823E-04 1.67282E-04-1.30572E-16
 -1       332 4.75671E-04 2.16998E-04-8.74375E-17
 -1       333 5.31679E-04 2.69882E-04-6.44660E-17
 -1       334 8.23964E-04 3.73230E-04-2.35062E-16
 -1       335 8.62812E-04-3.57090E-04-5.50378E-16
 -1       336 1.14903E-03-4.25488E-04-9.84747E-16
 -1       337 1.43169E-03-4.74171E-04-1.54617E-15
 -1       338 1.71231E-03-5.08183E-04-2.23282E-15
 -1       339 1.99204E-03-5.31290E-04-3.04262E-15
 -1       340 2.27168E-03-5.46251E-04-3.97378E-15
 -1       341 2.55174E-03-5.55104E-04-5.02225E-15
 -1       342 2.83256E-03-5.59357E-04-6.18857E-15
 -1       343 3.11433E-03-5.60111E-04-7.47181E-15
 -1       344 3.39720E-03-5.58164E-04-8.86600E-15
 -1       345 3.68130E-03-5.54092E-04-1.03672E-14
 -1       346 3.96677E-03-5.48320E-04-1.19755E-14
 -1       347 4.25379E-03-5.41192E-04-1.36877E-14
 -1       348 4.54259E-03-5.33052E-04-1.55042E-14
 -1       349 4.83347E-03-5.24319E-04-1.74212E-14
 -1       350 5.12678E-03-5.15580E-04-1.94412E-14
 -1       351 5.42296E-03-5.07703E-04-2.15641E-14
 -1       352 5.72249E-03-5.01943E-04-2.37897E-14
 -1       353 6.02587E-03-5.00066E-04-2.61233E-14
 -1       354 6.33358E-03-5.04425E-04-2.85656E-14
 -1       355 6.64599E-03-5.17955E-04-3.11171E-14
 -1       356 6.96322E-03-5.43965E-04-3.37798E-14
 -1       357 7.28490E-03-5.85580E-04-3.65496E-14
 -1       358 7.60984E-03-6.44631E-04-3.94198E-14
 -1       359 7.93571E-03-7.19912E-04-4.23884E-14
 -1       360 8.25901E-03-8.05050E-04-4.54479E-14
 -1       361 8.57589E-03-8.87047E-04-4.85932E-14
 -1       362 8.88418E-03-9.47522E-04-5.18158E-14
 -1       363 9.18543E-03-9.68200E-04-5.51171E-14
 -1       364 9.48505E-03-9.39075E-04-5.84925E-14
 -1       365 9.78941E-03-8.63819E-04-6.19395E-14
 -1       366 1.01021E-02-7.57671E-04-6.54426E-14
 -1       367 1.04226E-02-6.39926E-04-6.89922E-14
 -1       368 1.07476E-02-5.26575E-04-7.25785E-14
 -1       369 1.10731E-02-4.27110E-04-7.61876E-14
 -1       370 1.13963E-02-3.44950E-04-7.98152E-14
 -1       371 1.17154E-02-2.79433E-04-8.34600E-14
 -1       372 1.20297E-02-2.27825E-04-8.71221E-14
 -1       373 1.23391E-02-1.86726E-04-9.08120E-14
 -1       374 1.26439E-02-1.52871E-04-9.45295E-14
 -1       375 1.29446E-02-1.23474E-04-9.82718E-14
 -1       376 1.32416E-02-9.63135E-05-1.02024E-13
 -1       377 1.35355E-02-6.96820E-05-1.05787E-13
 -1       378 1.38268E-02-4.22908E-05-1.09556E-13
 -1       379 1.41160E-02-1.31819E-05-1.13325E-13
 -1       380 1.43721E-02 1.15865E-05-1.16723E-13
 -1       381 1.10925E-03 4.47237E-04-5.12401E-16
 -1       382 1.38982E-03 4.99826E-04-9.01338E-16
 -1       383 1.66797E-03 5.36762E-04-1.40378E-15
 -1       384 1.94526E-03 5.62113E-04-2.02270E-15
 -1       385 2.22265E-03 5.78824E-04-2.75815E-15
 -1       386 2.50073E-03 5.89053E-04-3.60839E-15
 -1       387 2.77985E-03 5.94392E-04-4.57105E-15
 -1       388 3.06021E-03 5.96004E-04-5.64680E-15
 -1       389 3.34195E-03 5.94724E-04-6.83272E-15
 -1       390 3.62520E-03 5.91145E-04-8.12883E-15
 -1       391 3.91008E-03 5.85686E-04-9.53469E-15
 -1       392 4.19683E-03 5.78658E-04-1.10516E-14
 -1       393 4.48573E-03 5.70337E-04-1.26798E-14
 -1       394 4.77717E-03 5.61041E-04-1.44171E-14
 -1       395 5.07169E-03 5.51230E-04-1.62631E-14
 -1       396 5.36992E-03 5.41625E-04-1.82184E-14
 -1       397 5.67267E-03 5.33379E-04-2.02825E-14
 -1       398 5.98082E-03 5.28276E-04-2.24547E-14
 -1       399 6.29532E-03 5.28993E-04-2.47285E-14
 -1       400 6.61712E-03 5.39360E-04-2.70945E-14
 -1       401 6.94696E-03 5.64543E-04-2.95485E-14
 -1       402 7.28512E-03 6.10894E-04-3.20936E-14
 -1       403 7.63098E-03 6.85030E-04-3.47248E-14
 -1       404 7.98231E-03 7.91471E-04-3.74423E-14
 -1       405 8.33450E-03 9.28264E-04-4.02455E-14
 -1       406 8.68077E-03 1.08118E-03-4.31355E-14
 -1       407 9.01486E-03 1.22121E-03-4.61183E-14
 -1       408 9.33596E-03 1.31078E-03-4.91972E-14
 -1       409 9.65177E-03 1.32282E-03-5.23619E-14
 -1       410 9.97387E-03 1.25879E-03-5.56105E-14
 -1       411 1.03094E-02 1.14796E-03-5.89412E-14
 -1       412 1.06565E-02 1.02791E-03-6.23509E-14
 -1       413 1.10087E-02 9.26343E-04-6.58237E-14
 -1       414 1.13593E-02 8.55793E-04-6.93515E-14
 -1       415 1.17041E-02 8.17225E-04-7.29284E-14
 -1       416 1.20409E-02 8.05674E-04-7.65491E-14
 -1       417 1.23694E-02 8.14413E-04-8.02090E-14
 -1       418 1.26897E-02 8.37117E-04-8.39015E-14
 -1       419 1.30027E-02 8.68668E-04-8.76155E-14
 -1       420 1.33094E-02 9.05240E-04-9.13431E-14
 -1       421 1.36107E-02 9.44094E-04-9.50733E-14
 -1       422 1.39076E-02 9.83311E-04-9.88110E-14
 -1       423 1.42008E-02 1.02154E-03-1.02554E-13
 -1       424 1.44912E-02 1.05784E-03-1.06299E-13
 -1       425 1.47795E-02 1.09158E-03-1.10037E-13
 -1       426 1.49625E-02 1.10587E-03-1.12478E-13
 -1       427 1.48395E-02 8.89117E-04-1.12896E-13
 -1       428 1.48611E-02 9.69379E-04-1.12415E-13
 -1       429 1.49110E-02 1.03716E-03-1.12448E-13
 -1       430 1.48187E-02 8.12091E-04-1.13366E-13
 -1       431 1.47965E-02 7.35480E-04-1.13836E-13
 -1       432 1.47718E-02 6.60255E-04-1.14298E-13
 -1       433 1.47438E-02 5.85874E-04-1.14762E-13
 -1       434 1.47120E-02 5.11704E-04-1.15218E-13
 -1       435 1.46763E-02 4.37099E-04-1.15667E-13
 -1       436 1.46382E-02 3.62769E-04-1.16104E-13
 -1       437 1.45973E-02 2.85706E-04-1.16536E-13
 -1       438 1.45554E-02 2.06905E-04-1.16966E-13
 -1       439 1.45141E-02 1.26288E-04-1.17399E-13
 -1       440 1.13779E-02 3.62107E-04-6.29058E-14
 -1       441 1.16128E-02 2.31437E-04-6.41878E-14
 -1       442 1.15489E-02 2.92060E-04-6.37634E-14
 -1       443 1.09948E-02 5.34362E-04-6.09844E-14
 -1       444 1.06761E-02 6.93175E-04-5.94508E-14
 -1       445 4.45642E-04-1.26464E-04-2.20977E-16
 -1       446 9.90910E-03 1.07033E-03-5.51880E-14
 -1       447 9.61227E-03 1.15225E-03-5.32590E-14
 -1       448 9.25082E-03 1.14552E-03-5.08071E-14
 -1       449 8.87796E-03 1.00839E-03-4.86875E-14
 -1       450 8.42456E-03 7.70226E-04-4.67131E-14
 -1       451 8.08397E-03 5.90238E-04-4.56476E-14
 -1       452 7.68645E-03 3.90911E-04-4.45016E-14
 -1       453 7.38294E-03 2.54807E-04-4.37174E-14
 -1       454 7.18553E-03 1.72826E-04-4.35468E-14
 -1       455 7.14019E-03 1.19205E-04-4.34000E-14
 -1       456 7.26940E-03 5.35393E-05-4.40626E-14
 -1       457 7.47960E-03-3.08223E-05-4.49689E-14
 -1       458 7.85480E-03-1.98255E-04-4.65050E-14
 -1       459 8.21883E-03-3.78086E-04-4.81109E-14
 -1       460 8.58356E-03-5.58093E-04-4.99459E-14
 -1       461 8.91633E-03-6.92954E-04-5.18904E-14
 -1       462 9.32483E-03-7.58674E-04-5.45860E-14
 -1       463 9.61328E-03-7.09090E-04-5.65175E-14
 -1       464 9.98932E-03-5.50887E-04-5.89548E-14
 -1       465 1.04762E-02-2.96339E-04-6.11840E-14
 -1       466 1.08430E-02-1.09424E-04-6.25427E-14
 -1       467 1.12587E-02 6.93089E-05-6.35730E-14
 -1       468 1.15083E-02 1.73476E-04-6.42954E-14
 -1       469 1.02652E-02 9.03646E-04-5.74444E-14
 -1       470 8.66416E-03 8.89594E-04-4.69965E-14
 -1       471 1.12124E-02 4.22118E-04-6.29349E-14
 -1       472 1.10559E-02 1.24901E-05-6.43014E-14
 -1       473 9.12870E-03-7.57562E-04-5.32356E-14
 -1       474 1.02196E-02-4.17451E-04-6.09795E-14
 -1       475 9.30903E-04 3.45661E-04-4.55677E-16
 -1       476 6.66181E-04-7.50541E-05-4.82423E-16
 -1       477 6.70060E-04-1.15790E-04-4.83178E-16
 -1       478 6.63568E-04 1.10526E-06-4.67406E-16
 -1       479 6.64272E-04 3.87236E-05-4.53999E-16
 -1       480 6.66365E-04 7.67426E-05-4.35795E-16
 -1       481 6.70376E-04 1.17627E-04-4.10940E-16
 -1       482 6.77262E-04 1.62226E-04-3.77855E-16
 -1       483 6.89009E-04 2.12572E-04-3.33677E-16
 -1       484 1.21669E-03 4.05764E-04-8.15367E-16
 -1       485 9.76035E-04-3.28248E-04-8.04010E-16
 -1       486 1.26195E-03-3.82710E-04-1.31045E-15
 -1       487 1.54690E-03-4.21829E-04-1.93930E-15
 -1       488 1.83103E-03-4.49047E-04-2.68957E-15
 -1       489 2.11461E-03-4.67180E-04-3.55930E-15
 -1       490 2.39801E-03-4.78446E-04-4.54617E-15
 -1       491 2.68149E-03-4.84529E-04-5.64787E-15
 -1       492 2.96527E-03-4.86685E-04-6.86463E-15
 -1       493 3.24950E-03-4.85831E-04-8.19512E-15
 -1       494 3.53429E-03-4.82624E-04-9.63448E-15
 -1       495 3.81977E-03-4.77537E-04-1.11787E-14
 -1       496 4.10605E-03-4.70923E-04-1.28285E-14
 -1       497 4.39327E-03-4.63089E-04-1.45812E-14
 -1       498 4.68160E-03-4.54367E-04-1.64367E-14
 -1       499 4.97130E-03-4.45196E-04-1.83936E-14
 -1       500 5.26264E-03-4.36218E-04-2.04543E-14
 -1       501 5.55604E-03-4.28380E-04-2.26167E-14
 -1       502 5.85201E-03-4.23049E-04-2.48861E-14
 -1       503 6.15123E-03-4.22128E-04-2.72647E-14
 -1       504 6.45459E-03-4.28128E-04-2.97507E-14
 -1       505 6.76314E-03-4.44176E-04-3.23447E-14
 -1       506 7.07802E-03-4.73822E-04-3.50443E-14
 -1       507 7.40002E-03-5.20488E-04-3.78432E-14
 -1       508 7.72890E-03-5.86219E-04-4.07423E-14
 -1       509 8.06237E-03-6.69476E-04-4.37350E-14
 -1       510 8.39557E-03-7.61982E-04-4.68158E-14
 -1       511 8.72258E-03-8.46262E-04-4.99786E-14
 -1       512 9.04032E-03-8.98132E-04-5.32210E-14
 -1       513 9.35213E-03-8.96556E-04-5.65424E-14
 -1       514 9.66615E-03-8.36592E-04-5.99433E-14
 -1       515 9.98865E-03-7.32755E-04-6.34112E-14
 -1       516 1.03195E-02-6.09388E-04-6.69300E-14
 -1       517 1.06535E-02-4.87991E-04-7.04930E-14
 -1       518 1.09849E-02-3.81133E-04-7.40840E-14
 -1       519 1.13103E-02-2.93189E-04-7.76950E-14
 -1       520 1.16283E-02-2.23462E-04-8.13231E-14
 -1       521 1.19396E-02-1.68937E-04-8.49666E-14
 -1       522 1.22451E-02-1.25959E-04-8.86348E-14
 -1       523 1.25459E-02-9.10677E-05-9.23317E-14
 -1       524 1.28430E-02-6.13265E-05-9.60529E-14
 -1       525 1.31372E-02-3.43930E-05-9.97962E-14
 -1       526 1.34291E-02-8.46475E-06-1.03548E-13
 -1       527 1.37191E-02 1.78207E-05-1.07305E-13
 -1       528 1.40076E-02 4.54886E-05-1.11065E-13
 -1       529 1.15017E-02 3.13848E-04-6.49784E-14
 -1       530 1.78344E-03 4.78966E-04-1.86821E-15
 -1       531 2.06545E-03 4.99233E-04-2.56612E-15
 -1       532 2.34730E-03 5.12101E-04-3.37718E-15
 -1       533 2.62938E-03 5.19396E-04-4.29994E-15
 -1       534 2.91195E-03 5.22467E-04-5.33360E-15
 -1       535 3.19519E-03 5.22294E-04-6.47846E-15
 -1       536 3.47926E-03 5.19574E-04-7.73366E-15
 -1       537 3.76427E-03 5.14790E-04-9.09671E-15
 -1       538 4.05037E-03 5.08284E-04-1.05702E-14
 -1       539 4.33773E-03 5.00320E-04-1.21557E-14
 -1       540 4.62656E-03 4.91159E-04-1.38494E-14
 -1       541 4.91714E-03 4.81142E-04-1.56512E-14
 -1       542 5.20980E-03 4.70792E-04-1.75606E-14
 -1       543 5.50499E-03 4.60951E-04-1.95811E-14
 -1       544 5.80323E-03 4.52944E-04-2.17091E-14
 -1       545 6.10522E-03 4.48795E-04-2.39401E-14
 -1       546 6.41187E-03 4.51476E-04-2.62682E-14
 -1       547 6.72442E-03 4.65160E-04-2.86864E-14
 -1       548 7.04457E-03 4.95389E-04-3.11929E-14
 -1       549 7.37442E-03 5.48942E-04-3.37909E-14
 -1       550 7.71596E-03 6.32937E-04-3.64739E-14
 -1       551 8.06970E-03 7.52268E-04-3.92427E-14
 -1       552 8.43150E-03 9.04183E-04-4.20967E-14
 -1       553 8.79246E-03 1.06811E-03-4.50406E-14
 -1       554 9.14186E-03 1.20380E-03-4.80794E-14
 -1       555 9.48178E-03 1.26343E-03-5.12093E-14
 -1       556 9.81985E-03 1.22721E-03-5.44280E-14
 -1       557 1.01715E-02 1.11798E-03-5.77261E-14
 -1       558 1.05330E-02 9.85921E-04-6.11042E-14
 -1       559 1.08943E-02 8.69615E-04-6.45517E-14
 -1       560 1.12466E-02 7.86492E-04-6.80538E-14
 -1       561 1.15867E-02 7.38362E-04-7.16044E-14
 -1       562 1.19151E-02 7.19885E-04-7.51974E-14
 -1       563 1.22341E-02 7.23857E-04-7.88350E-14
 -1       564 1.25456E-02 7.43544E-04-8.25060E-14
 -1       565 1.28513E-02 7.73466E-04-8.62027E-14
 -1       566 1.31524E-02 8.09471E-04-8.99123E-14
 -1       567 1.34498E-02 8.48551E-04-9.36350E-14
 -1       568 1.37441E-02 8.88581E-04-9.73610E-14
 -1       569 1.40360E-02 9.28066E-04-1.01099E-13
 -1       570 1.43258E-02 9.65950E-04-1.04845E-13
 -1       571 1.46140E-02 1.00147E-03-1.08591E-13
 -1       572 1.45633E-02 7.45394E-04-1.10343E-13
 -1       573 1.45408E-02 6.69760E-04-1.10805E-13
 -1       574 1.46033E-02 9.00554E-04-1.09408E-13
 -1       575 1.45835E-02 8.22002E-04-1.09879E-13
 -1       576 1.45151E-02 5.95247E-04-1.11266E-13
 -1       577 1.44853E-02 5.21228E-04-1.11725E-13
 -1       578 1.44512E-02 4.47042E-04-1.12174E-13
 -1       579 1.44139E-02 3.73344E-04-1.12609E-13
 -1       580 1.43730E-02 2.97082E-04-1.13044E-13
 -1       581 1.43304E-02 2.19144E-04-1.13474E-13
 -1       582 1.42875E-02 1.39334E-04-1.13909E-13
 -1       583 1.16053E-02 2.20925E-04-6.58771E-14
 -1       584 1.50073E-03 4.48871E-04-1.28544E-15
 -1       585 1.08420E-02 5.94658E-04-6.14571E-14
 -1       586 7.12461E-04-2.51668E-04-4.57134E-16
 -1       587 9.75647E-03-6.60765E-04-5.82999E-14
 -1       588 7.15023E-03 9.15001E-05-4.21349E-14
 -1       589 9.47159E-03 1.18654E-03-5.20578E-14
 -1       590 6.64164E-04-3.64766E-05-4.76910E-16
 -1       591 9.06362E-03 1.09598E-03-4.90153E-14
 -1       592 9.71046E-03 1.15285E-03-5.39681E-14
 -1       593 7.52887E-03 2.89490E-04-4.28052E-14
 -1       594 1.00573E-02 1.01743E-03-5.65758E-14
 -1       595 8.23775E-03 6.39454E-04-4.46925E-14
 -1       596 8.04311E-03-2.74198E-04-4.63578E-14
 -1       597 7.88293E-03 4.49014E-04-4.35672E-14
 -1       598 7.23793E-03 1.81292E-04-4.21418E-14
 -1       599 7.12094E-03 1.35752E-04-4.19821E-14
 -1       600 7.34417E-03 2.29583E-05-4.27903E-14
 -1       601 7.63906E-03-8.77236E-05-4.42865E-14
 -1       602 8.41033E-03-4.67580E-04-4.82371E-14
 -1       603 8.75686E-03-6.41305E-04-5.04443E-14
 -1       604 9.46031E-03-7.57311E-04-5.59069E-14
 -1       605 1.14009E-02 1.51592E-04-6.56924E-14
 -1       606 1.06575E-02-1.74155E-04-6.33040E-14
 -1       607 1.16406E-02 2.60183E-04-6.59744E-14
 -1       608 7.03516E-04 2.90725E-04-2.34699E-16
 -1       609 1.04852E-02 7.86188E-04-5.94218E-14
 -1       610 9.27936E-03 1.18096E-03-5.02353E-14
 -1       611 6.76719E-04-1.59925E-04-4.77201E-16
 -1       612 9.98076E-03-5.55188E-04-6.03146E-14
 -1       613 8.85762E-03 1.00528E-03-4.73113E-14
 -1       614 1.13863E-02 3.64567E-04-6.50032E-14
 -1       615 1.42010E-02 6.37441E-05-1.13620E-13
 -1       616 1.08891E-02-6.01987E-05-6.50664E-14
 -1       617 9.27599E-03-7.82968E-04-5.45385E-14
 -1       618 9.00257E-04 7.39650E-05-7.67422E-16
 -1       619 8.98202E-04 2.51190E-05-7.92840E-16
 -1       620 9.12121E-04 1.77945E-04-6.90190E-16
 -1       621 9.24299E-04 2.36465E-04-6.33360E-16
 -1       622 1.04877E-03 3.13425E-04-7.10457E-16
 -1       623 1.12447E-02 9.25312E-05-6.67023E-14
 -1       624 8.49740E-03 8.08181E-04-4.48859E-14
 -1       625 1.38327E-03-3.36029E-04-1.65166E-15
 -1       626 1.66951E-03-3.66269E-04-2.34374E-15
 -1       627 1.95576E-03-3.87115E-04-3.15371E-15
 -1       628 2.24185E-03-4.00663E-04-4.07939E-15
 -1       629 2.52777E-03-4.08623E-04-5.11970E-15
 -1       630 2.81359E-03-4.12328E-04-6.27276E-15
 -1       631 3.09936E-03-4.12778E-04-7.53737E-15
 -1       632 3.38514E-03-4.10701E-04-8.91246E-15
 -1       633 3.67098E-03-4.06617E-04-1.03945E-14
 -1       634 3.95693E-03-4.00899E-04-1.19817E-14
 -1       635 4.24305E-03-3.93834E-04-1.36711E-14
 -1       636 4.52941E-03-3.85689E-04-1.54642E-14
 -1       637 4.81613E-03-3.76777E-04-1.73595E-14
 -1       638 5.10337E-03-3.67537E-04-1.93583E-14
 -1       639 5.39140E-03-3.58614E-04-2.14592E-14
 -1       640 5.68066E-03-3.50960E-04-2.36654E-14
 -1       641 5.97181E-03-3.45942E-04-2.59808E-14
 -1       642 6.26590E-03-3.45452E-04-2.84032E-14
 -1       643 6.56446E-03-3.52028E-04-3.09297E-14
 -1       644 6.86957E-03-3.68952E-04-3.35620E-14
 -1       645 7.18375E-03-4.00263E-04-3.62930E-14
 -1       646 7.50926E-03-4.50419E-04-3.91234E-14
 -1       647 7.84678E-03-5.22938E-04-4.20497E-14
 -1       648 8.19330E-03-6.17190E-04-4.50654E-14
 -1       649 8.54078E-03-7.22360E-04-4.81639E-14
 -1       650 8.87986E-03-8.12170E-04-5.13451E-14
 -1       651 9.20760E-03-8.50588E-04-5.46102E-14
 -1       652 9.53227E-03-8.14753E-04-5.79569E-14
 -1       653 9.86511E-03-7.13555E-04-6.13840E-14
 -1       654 1.02097E-02-5.79395E-04-6.48741E-14
 -1       655 1.05579E-02-4.45544E-04-6.84099E-14
 -1       656 1.09005E-02-3.29852E-04-7.19822E-14
 -1       657 1.12319E-02-2.37041E-04-7.55784E-14
 -1       658 1.15513E-02-1.64990E-04-7.91914E-14
 -1       659 1.18604E-02-1.09377E-04-8.28195E-14
 -1       660 1.21618E-02-6.58379E-05-8.64727E-14
 -1       661 1.24578E-02-3.06456E-05-9.01443E-14
 -1       662 1.27502E-02-8.15832E-07-9.38441E-14
 -1       663 1.30402E-02 2.59656E-05-9.75687E-14
 -1       664 1.33286E-02 5.14582E-05-1.01313E-13
 -1       665 1.36160E-02 7.69891E-05-1.05058E-13
 -1       666 1.39027E-02 1.03564E-04-1.08809E-13
 -1       667 8.16369E-03-3.73202E-04-4.60567E-14
 -1       668 1.90558E-03 4.18190E-04-2.35937E-15
 -1       669 2.76041E-03 4.47879E-04-5.01019E-15
 -1       670 3.04539E-03 4.49071E-04-6.11412E-15
 -1       671 3.33057E-03 4.47500E-04-7.32723E-15
 -1       672 3.61605E-03 4.43723E-04-8.64940E-15
 -1       673 3.90188E-03 4.38129E-04-1.00802E-14
 -1       674 4.18813E-03 4.30996E-04-1.16225E-14
 -1       675 4.47487E-03 4.22561E-04-1.32743E-14
 -1       676 4.76218E-03 4.13086E-04-1.50320E-14
 -1       677 5.05015E-03 4.02948E-04-1.68984E-14
 -1       678 5.33893E-03 3.92733E-04-1.88743E-14
 -1       679 5.62871E-03 3.83363E-04-2.09581E-14
 -1       680 5.91984E-03 3.76250E-04-2.31472E-14
 -1       681 6.21297E-03 3.73474E-04-2.54357E-14
 -1       682 6.50925E-03 3.78006E-04-2.78178E-14
 -1       683 6.81069E-03 3.93961E-04-3.02897E-14
 -1       684 7.12060E-03 4.26914E-04-3.28510E-14
 -1       685 7.44381E-03 4.84229E-04-3.55020E-14
 -1       686 7.78520E-03 5.74948E-04-3.82365E-14
 -1       687 8.14954E-03 7.06943E-04-4.10576E-14
 -1       688 1.04081E-02 9.43255E-04-5.98553E-14
 -1       689 1.07883E-02 8.06194E-04-6.32747E-14
 -1       690 1.11498E-02 7.11215E-04-6.67553E-14
 -1       691 1.14895E-02 6.56954E-04-7.02840E-14
 -1       692 1.18109E-02 6.34965E-04-7.38521E-14
 -1       693 1.21196E-02 6.36348E-04-7.74684E-14
 -1       694 1.24202E-02 6.53926E-04-8.11203E-14
 -1       695 1.27160E-02 6.82223E-04-8.47952E-14
 -1       696 1.30087E-02 7.17163E-04-8.84882E-14
 -1       697 1.32995E-02 7.55762E-04-9.21993E-14
 -1       698 1.35889E-02 7.95863E-04-9.59168E-14
 -1       699 1.38773E-02 8.35923E-04-9.96441E-14
 -1       700 1.41649E-02 8.74831E-04-1.03386E-13
 -1       701 1.43846E-02 8.88403E-04-1.06397E-13
 -1       702 1.42590E-02 5.30397E-04-1.08236E-13
 -1       703 1.16560E-02 2.93560E-04-6.77497E-14
 -1       704 1.43093E-02 6.77887E-04-1.07319E-13
 -1       705 1.42269E-02 4.57213E-04-1.08690E-13
 -1       706 1.42863E-02 6.03703E-04-1.07783E-13
 -1       707 1.40952E-02 1.20922E-04-1.11355E-13
 -1       708 1.41908E-02 3.84674E-04-1.09123E-13
 -1       709 1.41501E-02 3.09646E-04-1.09564E-13
 -1       710 1.41067E-02 2.32892E-04-1.09999E-13
 -1       711 1.62020E-03 3.94612E-04-1.69826E-15
 -1       712 1.11381E-02 4.78737E-04-6.40785E-14
 -1       713 9.61603E-04-2.66378E-04-8.50048E-16
 -1       714 7.16071E-03 5.81344E-05-4.08633E-14
 -1       715 1.16954E-02 2.48266E-04-6.81620E-14
 -1       716 7.79992E-03-1.93576E-04-4.39930E-14
 -1       717 7.04265E-03 1.06795E-04-4.00987E-14
 -1       718 2.47553E-03 4.43128E-04-4.01658E-15
 -1       719 2.19064E-03 4.33723E-04-3.13249E-15
 -1       720 1.33449E-03 3.60606E-04-1.14913E-15
 -1       721 7.11283E-03 1.45572E-04-4.02674E-14
 -1       722 9.04626E-04 1.24394E-04-7.33798E-16
 -1       723 1.15763E-02 2.04944E-04-6.79861E-14
 -1       724 9.57583E-03-7.41992E-04-5.73770E-14
 -1       725 9.04266E-04-1.21973E-04-8.28598E-16
 -1       726 7.99252E-03 5.23536E-04-4.24334E-14
 -1       727 1.04345E-02-3.05298E-04-6.34093E-14
 -1       728 7.62857E-03 3.39273E-04-4.14710E-14
 -1       729 7.44133E-03-5.28871E-05-4.19035E-14
 -1       730 7.32954E-03 2.17446E-04-4.08275E-14
 -1       731 8.96951E-03-7.38565E-04-5.19463E-14
 -1       732 8.55214E-03-5.73814E-04-4.86322E-14
 -1       733 1.07238E-02 6.92945E-04-6.16991E-14
 -1       734 1.03126E-02 9.24122E-04-5.88161E-14
 -1       735 9.11572E-04-1.75335E-04-8.25705E-16
 -1       736 8.98142E-04-2.30976E-05-8.11247E-16
 -1       737 1.00309E-02 1.07090E-03-5.65676E-14
 -1       738 1.02119E-02-4.50812E-04-6.27312E-14
 -1       739 1.14773E-02 1.60031E-04-6.90037E-14
 -1       740 8.75509E-03-6.91234E-04-5.01034E-14
 -1       741 1.00238E-02 1.09679E-03-5.65074E-14
 -1       742 1.15945E-02 3.29659E-04-6.77742E-14
 -1       743 1.43663E-02 8.09618E-04-1.06867E-13
 -1       744 1.06683E-02-1.89401E-04-6.51703E-14
 -1       745 1.40051E-02 1.68742E-04-1.09405E-13
 -1       746 9.40323E-03-7.90247E-04-5.59848E-14
 -1       747 1.43384E-02 7.43013E-04-1.07095E-13
 -1       748 9.00064E-04-7.16531E-05-8.23330E-16
 -1       749 9.78463E-03-6.69173E-04-5.93752E-14
 -1       750 1.16180E-03 2.43060E-04-1.03012E-15
 -1       751 1.10999E-02 8.83124E-06-6.77277E-14
 -1       752 1.79757E-03-3.07565E-04-2.75891E-15
 -1       753 2.08523E-03-3.22654E-04-3.62404E-15
 -1       754 2.37297E-03-3.32121E-04-4.60330E-15
 -1       755 2.66055E-03-3.37234E-04-5.69429E-15
 -1       756 2.94783E-03-3.38998E-04-6.89597E-15
 -1       757 3.23474E-03-3.38168E-04-8.20650E-15
 -1       758 3.52123E-03-3.35291E-04-9.62523E-15
 -1       759 3.80728E-03-3.30753E-04-1.11502E-14
 -1       760 4.09284E-03-3.24834E-04-1.27770E-14
 -1       761 4.37790E-03-3.17753E-04-1.45076E-14
 -1       762 4.66244E-03-3.09726E-04-1.63411E-14
 -1       763 4.94648E-03-3.01026E-04-1.82766E-14
 -1       764 5.23013E-03-2.92043E-04-2.03172E-14
 -1       765 5.51364E-03-2.83353E-04-2.24612E-14
 -1       766 5.79747E-03-2.75802E-04-2.47136E-14
 -1       767 6.08250E-03-2.70605E-04-2.70737E-14
 -1       768 6.37017E-03-2.69480E-04-2.95378E-14
 -1       769 6.66273E-03-2.74854E-04-3.21032E-14
 -1       770 6.96346E-03-2.90205E-04-3.47681E-14
 -1       771 7.27668E-03-3.20566E-04-3.75312E-14
 -1       772 7.60685E-03-3.72746E-04-4.03930E-14
 -1       773 7.95603E-03-4.54137E-04-4.33433E-14
 -1       774 8.32093E-03-5.66648E-04-4.63769E-14
 -1       775 1.04603E-02-4.10004E-04-6.63567E-14
 -1       776 1.08176E-02-2.81059E-04-6.99045E-14
 -1       777 1.11571E-02-1.82673E-04-7.34859E-14
 -1       778 1.14787E-02-1.09595E-04-7.70875E-14
 -1       779 1.17858E-02-5.46510E-05-8.07024E-14
 -1       780 1.20828E-02-1.20159E-05-8.43385E-14
 -1       781 1.23735E-02 2.25273E-05-8.79942E-14
 -1       782 1.26604E-02 5.19854E-05-9.16741E-14
 -1       783 1.29454E-02 7.85335E-05-9.53785E-14
 -1       784 1.32296E-02 1.03771E-04-9.91085E-14
 -1       785 1.35135E-02 1.28884E-04-1.02845E-13
 -1       786 1.37592E-02 1.48284E-04-1.06123E-13
 -1       787 7.68217E-03 4.11277E-04-3.99790E-14
 -1       788 2.89363E-03 3.75029E-04-5.74132E-15
 -1       789 3.75232E-03 3.67830E-04-9.58290E-15
 -1       790 4.03801E-03 3.61902E-04-1.10823E-14
 -1       791 4.32337E-03 3.54666E-04-1.26917E-14
 -1       792 4.60832E-03 3.46344E-04-1.44077E-14
 -1       793 4.89276E-03 3.37211E-04-1.62300E-14
 -1       794 5.17660E-03 3.27670E-04-1.81610E-14
 -1       795 5.45972E-03 3.18336E-04-2.02017E-14
 -1       796 5.74213E-03 3.10130E-04-2.23483E-14
 -1       797 6.02397E-03 3.04388E-04-2.45965E-14
 -1       798 6.30584E-03 3.02980E-04-2.69408E-14
 -1       799 6.58909E-03 3.08491E-04-2.93791E-14
 -1       800 6.87647E-03 3.24525E-04-3.19072E-14
 -1       801 7.17284E-03 3.56328E-04-3.45228E-14
 -1       802 7.48648E-03 4.12232E-04-3.72262E-14
 -1       803 1.17298E-02 5.48397E-04-7.25154E-14
 -1       804 1.20250E-02 5.50789E-04-7.61082E-14
 -1       805 1.23119E-02 5.68263E-04-7.97377E-14
 -1       806 1.25950E-02 5.95660E-04-8.33940E-14
 -1       807 1.28769E-02 6.29429E-04-8.70689E-14
 -1       808 1.31588E-02 6.66987E-04-9.07652E-14
 -1       809 1.34414E-02 7.06405E-04-9.44745E-14
 -1       810 1.37246E-02 7.46243E-04-9.81956E-14
 -1       811 1.40084E-02 7.85426E-04-1.01931E-13
 -1       812 1.41876E-02 7.97930E-04-1.04396E-13
 -1       813 8.29883E-03-5.04043E-04-4.64338E-14
 -1       814 1.14149E-02 4.06826E-04-6.68371E-14
 -1       815 1.40039E-02 4.66687E-04-1.05214E-13
 -1       816 1.18011E-02 2.80963E-04-7.05827E-14
 -1       817 2.60693E-03 3.72406E-04-4.67769E-15
 -1       818 1.17257E-02 2.35137E-04-7.03157E-14
 -1       819 1.38851E-02 2.47347E-04-1.06533E-13
 -1       820 1.74589E-03 3.37217E-04-2.14030E-15
 -1       821 1.39292E-02 3.22489E-04-1.06096E-13
 -1       822 1.14189E-02 5.68975E-04-6.89639E-14
 -1       823 1.10812E-02 6.26053E-04-6.54515E-14
 -1       824 9.51329E-03 1.21321E-03-5.20665E-14
 -1       825 3.46634E-03 3.72218E-04-8.19396E-15
 -1       826 7.89246E-03-3.14320E-04-4.35837E-14
 -1       827 3.18011E-03 3.74761E-04-6.91299E-15
 -1       828 1.32842E-03-2.29113E-04-1.61547E-15
 -1       829 2.03295E-03 3.54793E-04-2.87663E-15
 -1       830 1.56229E-03-2.69692E-04-2.15004E-15
 -1       831 7.09162E-03 7.48000E-05-4.02774E-14
 -1       832 7.16906E-03-1.10148E-06-3.95289E-14
 -1       833 6.97582E-03 1.19685E-04-3.82602E-14
 -1       834 7.55784E-03-1.65439E-04-4.15054E-14
 -1       835 2.32002E-03 3.66040E-04-3.72272E-15
 -1       836 1.24631E-03 3.00077E-04-1.09508E-15
 -1       837 9.14063E-03-7.95732E-04-5.35403E-14
 -1       838 1.06084E-02 8.23703E-04-6.14539E-14
 -1       839 1.10514E-02 5.84139E-04-6.46624E-14
 -1       840 7.37399E-03 2.65972E-04-3.92706E-14
 -1       841 1.13887E-03 5.88607E-05-1.19232E-15
 -1       842 1.39691E-02 3.95177E-04-1.05657E-13
 -1       843 6.96581E-03 8.32289E-05-3.84201E-14
 -1       844 7.13640E-03 1.76227E-04-3.87350E-14
 -1       845 1.13753E-03 1.18046E-06-1.22360E-15
 -1       846 1.13661E-02 9.21807E-05-7.00376E-14
 -1       847 1.05001E-02-3.13031E-04-6.51959E-14
 -1       848 1.31834E-03-1.61525E-04-1.61788E-15
 -1       849 1.00136E-02-5.81830E-04-6.17748E-14
 -1       850 1.16756E-02 2.01331E-04-7.13429E-14
 -1       851 1.00897E-02-5.70316E-04-6.28643E-14
 -1       852 1.14291E-03 1.17454E-04-1.15111E-15
 -1       853 1.31218E-03-9.65124E-05-1.60790E-15
 -1       854 1.40334E-02 5.38430E-04-1.04761E-13
 -1       855 1.17898E-02 3.05867E-04-7.06109E-14
 -1       856 1.15022E-03 1.78618E-04-1.09780E-15
 -1       857 1.40575E-02 6.10703E-04-1.04305E-13
 -1       858 7.07383E-03 3.99969E-05-3.91390E-14
 -1       859 7.25531E-03-9.19376E-05-3.91360E-14
 -1       860 1.40862E-02 6.74151E-04-1.04078E-13
 -1       861 1.49573E-03 3.22882E-04-1.57275E-15
 -1       862 1.38226E-02 1.98214E-04-1.06329E-13
 -1       863 1.55043E-03-1.96231E-04-2.15496E-15
 -1       864 2.21860E-03-2.55858E-04-4.10217E-15
 -1       865 2.50740E-03-2.61875E-04-5.13167E-15
 -1       866 2.79595E-03-2.64689E-04-6.27019E-15
 -1       867 3.08398E-03-2.65011E-04-7.51790E-15
 -1       868 3.37131E-03-2.63376E-04-8.87284E-15
 -1       869 3.65780E-03-2.60162E-04-1.03330E-14
 -1       870 3.94331E-03-2.55633E-04-1.18992E-14
 -1       871 4.22773E-03-2.49975E-04-1.35667E-14
 -1       872 4.51094E-03-2.43336E-04-1.53378E-14
 -1       873 4.79281E-03-2.35868E-04-1.72125E-14
 -1       874 5.07328E-03-2.27766E-04-1.91908E-14
 -1       875 5.35235E-03-2.19315E-04-2.12738E-14
 -1       876 5.63019E-03-2.10935E-04-2.34637E-14
 -1       877 5.90726E-03-2.03246E-04-2.57632E-14
 -1       878 6.18449E-03-1.97152E-04-2.81654E-14
 -1       879 6.46355E-03-1.94021E-04-3.06692E-14
 -1       880 6.74726E-03-1.96019E-04-3.32698E-14
 -1       881 7.03987E-03-2.06719E-04-3.59663E-14
 -1       882 7.34831E-03-2.33020E-04-3.87603E-14
 -1       883 1.11113E-02-1.10984E-04-7.13646E-14
 -1       884 1.14316E-02-4.02550E-05-7.49522E-14
 -1       885 1.17326E-02 1.02502E-05-7.85569E-14
 -1       886 1.20216E-02 4.89733E-05-8.21770E-14
 -1       887 1.23038E-02 8.08372E-05-8.58187E-14
 -1       888 1.25828E-02 1.08760E-04-8.94841E-14
 -1       889 1.28608E-02 1.34571E-04-9.31713E-14
 -1       890 1.31390E-02 1.59512E-04-9.68766E-14
 -1       891 1.34182E-02 1.84477E-04-1.00603E-13
 -1       892 3.88815E-03 2.92563E-04-1.05369E-14
 -1       893 4.73857E-03 2.72568E-04-1.55560E-14
 -1       894 5.01908E-03 2.64502E-04-1.74430E-14
 -1       895 5.29759E-03 2.56323E-04-1.94388E-14
 -1       896 5.57375E-03 2.48623E-04-2.15423E-14
 -1       897 5.84726E-03 2.42219E-04-2.37491E-14
 -1       898 6.11797E-03 2.38202E-04-2.60570E-14
 -1       899 6.38613E-03 2.37979E-04-2.84586E-14
 -1       900 6.65277E-03 2.43384E-04-3.09522E-14
 -1       901 6.92056E-03 2.57213E-04-3.35368E-14
 -1       902 7.19492E-03 2.84007E-04-3.62068E-14
 -1       903 2.74108E-03 3.00365E-04-5.36053E-15
 -1       904 1.24859E-02 5.14500E-04-8.20011E-14
 -1       905 1.22190E-02 4.87052E-04-7.83643E-14
 -1       906 1.19514E-02 4.67428E-04-7.47544E-14
 -1       907 1.27546E-02 5.47158E-04-8.56612E-14
 -1       908 1.30259E-02 5.83221E-04-8.93382E-14
 -1       909 1.33000E-02 6.21231E-04-9.30364E-14
 -1       910 1.35767E-02 6.60010E-04-9.67504E-14
 -1       911 1.38555E-02 6.98612E-04-1.00475E-13
 -1       912 1.22370E-03-4.53742E-05-1.41161E-15
 -1       913 7.61716E-03-2.80527E-04-4.10514E-14
 -1       914 1.16421E-02 3.77732E-04-6.95945E-14
 -1       915 1.08170E-02-1.66142E-04-6.76120E-14
 -1       916 1.87630E-03 2.76698E-04-2.61081E-15
 -1       917 3.60249E-03 2.97055E-04-9.07975E-15
 -1       918 6.94263E-03 1.46251E-04-3.66300E-14
 -1       919 1.36663E-02 2.61778E-04-1.03082E-13
 -1       920 1.16779E-02 4.60218E-04-7.11767E-14
 -1       921 4.45640E-03 2.80112E-04-1.37766E-14
 -1       922 4.17285E-03 2.86848E-04-1.21034E-14
 -1       923 6.97596E-03 3.95040E-06-3.73310E-14
 -1       924 2.45292E-03 2.96527E-04-4.33607E-15
 -1       925 6.86616E-03 5.38644E-05-3.66351E-14
 -1       926 1.18921E-02 2.65226E-04-7.31012E-14
 -1       927 6.85012E-03 9.54533E-05-3.64902E-14
 -1       928 2.16454E-03 2.88993E-04-3.41934E-15
 -1       929 1.92994E-03-2.45741E-04-3.18334E-15
 -1       930 1.41371E-02 7.35262E-04-1.04238E-13
 -1       931 7.05638E-03 2.04575E-04-3.64290E-14
 -1       932 1.16019E-02 1.48783E-04-7.23887E-14
 -1       933 1.41073E-03 2.64965E-04-1.49463E-15
 -1       934 1.18841E-02 2.37278E-04-7.41395E-14
 -1       935 1.38482E-03 9.95205E-05-1.66183E-15
 -1       936 1.36197E-02 1.91131E-04-1.03464E-13
 -1       937 1.37105E-02 3.34213E-04-1.02646E-13
 -1       938 1.37822E-02 4.74821E-04-1.01754E-13
 -1       939 1.38082E-02 5.44862E-04-1.01298E-13
 -1       940 1.14673E-02 4.78220E-04-6.86923E-14
 -1       941 1.58875E-03 2.58400E-04-1.91050E-15
 -1       942 3.31600E-03 3.00089E-04-7.73236E-15
 -1       943 1.73980E-03-2.21576E-04-2.64458E-15
 -1       944 1.54267E-03-1.25004E-04-2.14475E-15
 -1       945 3.02883E-03 3.01343E-04-6.49188E-15
 -1       946 1.38171E-03 3.37953E-05-1.70965E-15
 -1       947 1.38372E-02 6.06177E-04-1.01074E-13
 -1       948 1.19198E-02 2.88859E-04-7.31370E-14
 -1       949 1.12236E-02-6.53735E-06-7.07077E-14
 -1       950 1.37496E-02 4.05062E-04-1.02204E-13
 -1       951 5.41504E-03 1.89629E-04-2.07311E-14
 -1       952 2.64470E-03-1.90260E-04-5.66123E-15
 -1       953 2.93368E-03-1.91394E-04-6.84537E-15
 -1       954 3.22188E-03-1.90830E-04-8.13736E-15
 -1       955 3.50903E-03-1.88903E-04-9.53396E-15
 -1       956 3.79491E-03-1.85843E-04-1.10362E-14
 -1       957 4.07931E-03-1.81806E-04-1.26417E-14
 -1       958 4.36199E-03-1.76887E-04-1.43513E-14
 -1       959 4.64274E-03-1.71157E-04-1.61638E-14
 -1       960 4.92132E-03-1.64684E-04-1.80811E-14
 -1       961 5.19752E-03-1.57554E-04-2.01035E-14
 -1       962 5.47118E-03-1.49894E-04-2.22323E-14
 -1       963 5.74229E-03-1.41894E-04-2.44698E-14
 -1       964 6.01110E-03-1.33845E-04-2.68110E-14
 -1       965 6.27828E-03-1.26211E-04-2.92541E-14
 -1       966 6.54528E-03-1.19851E-04-3.17946E-14
 -1       967 6.81504E-03-1.16386E-04-3.44286E-14
 -1       968 1.39130E-03 1.66774E-04-1.60034E-15
 -1       969 1.16995E-02 7.76810E-05-7.64083E-14
 -1       970 1.19741E-02 1.09873E-04-8.00142E-14
 -1       971 1.22437E-02 1.37414E-04-8.36412E-14
 -1       972 1.25119E-02 1.62896E-04-8.72929E-14
 -1       973 1.27811E-02 1.87596E-04-9.09673E-14
 -1       974 1.30521E-02 2.12247E-04-9.46598E-14
 -1       975 1.33254E-02 2.37333E-04-9.83608E-14
 -1       976 4.86664E-03 2.01952E-04-1.67205E-14
 -1       977 5.68350E-03 1.84298E-04-2.28960E-14
 -1       978 5.94720E-03 1.80345E-04-2.51626E-14
 -1       979 6.20540E-03 1.78518E-04-2.75278E-14
 -1       980 6.45747E-03 1.79635E-04-2.99862E-14
 -1       981 6.70318E-03 1.84697E-04-3.25375E-14
 -1       982 1.26384E-02 4.71196E-04-8.42586E-14
 -1       983 1.21384E-02 4.12172E-04-7.69924E-14
 -1       984 1.31624E-02 5.41066E-04-9.16025E-14
 -1       985 1.34317E-02 5.77943E-04-9.53062E-14
 -1       986 1.35617E-02 4.81232E-04-9.83055E-14
 -1       987 6.96161E-03-7.75442E-05-3.62327E-14
 -1       988 1.72222E-03 2.01158E-04-2.33711E-15
 -1       989 1.18840E-02 3.58416E-04-7.28597E-14
 -1       990 2.87766E-03 2.27420E-04-6.06497E-15
 -1       991 5.14254E-03 1.95687E-04-1.86724E-14
 -1       992 4.58791E-03 2.08029E-04-1.48767E-14
 -1       993 2.58884E-03 2.25512E-04-4.97260E-15
 -1       994 3.73909E-03 2.22592E-04-9.98695E-15
 -1       995 2.06592E-03-1.80929E-04-3.61778E-15
 -1       996 6.75967E-03 1.00325E-05-3.49090E-14
 -1       997 2.29966E-03 2.21003E-04-3.98759E-15
 -1       998 1.23853E-02 4.39881E-04-8.06161E-14
 -1       999 6.73921E-03 1.18087E-04-3.44084E-14
 -1      1000 2.01059E-03 2.13162E-04-3.10899E-15
 -1      1001 6.71897E-03 6.76955E-05-3.47101E-14
 -1      1002 1.14687E-02 4.22798E-05-7.35515E-14
 -1      1003 2.35529E-03-1.86966E-04-4.58551E-15
 -1      1004 1.28977E-02 5.05202E-04-8.79193E-14
 -1      1005 1.20550E-02 2.87317E-04-7.59924E-14
 -1      1006 1.35917E-02 5.40117E-04-9.80793E-14
 -1      1007 1.18495E-02 1.96507E-04-7.51982E-14
 -1      1008 3.16580E-03 2.27301E-04-7.26481E-15
 -1      1009 1.37050E-02 6.15102E-04-9.90236E-14
 -1      1010 1.87596E-03-1.60188E-04-3.04181E-15
 -1      1011 3.45302E-03 2.25588E-04-8.57185E-15
 -1      1012 1.46801E-03-1.70232E-05-1.93651E-15
 -1      1013 1.70890E-03-1.42735E-04-2.57444E-15
 -1      1014 4.02377E-03 2.18544E-04-1.15104E-14
 -1      1015 4.30682E-03 2.13630E-04-1.31402E-14
 -1      1016 1.71442E-03 1.26440E-04-2.42209E-15
 -1      1017 1.71030E-03 5.29120E-05-2.48971E-15
 -1      1018 1.35326E-02 4.13773E-04-9.87567E-14
 -1      1019 1.15326E-02 9.82537E-05-7.29737E-14
 -1      1020 1.50430E-03-7.01289E-05-2.04319E-15
 -1      1021 1.20814E-02 2.47149E-04-7.77624E-14
 -1      1022 2.78455E-03-1.17644E-04-6.19155E-15
 -1      1023 5.79251E-03 1.25654E-04-2.42624E-14
 -1      1024 6.66052E-03-5.30312E-05-3.33475E-14
 -1      1025 3.07352E-03-1.17766E-04-7.41906E-15
 -1      1026 3.36142E-03-1.16896E-04-8.75272E-15
 -1      1027 3.64794E-03-1.15204E-04-1.01917E-14
 -1      1028 3.93278E-03-1.12798E-04-1.17337E-14
 -1      1029 4.21564E-03-1.09733E-04-1.33811E-14
 -1      1030 4.49622E-03-1.06024E-04-1.51327E-14
 -1      1031 4.77417E-03-1.01659E-04-1.69880E-14
 -1      1032 5.04910E-03-9.66154E-05-1.89490E-14
 -1      1033 5.32061E-03-9.08419E-05-2.10181E-14
 -1      1034 5.58832E-03-8.42817E-05-2.31940E-14
 -1      1035 5.85184E-03-7.68643E-05-2.54723E-14
 -1      1036 6.11089E-03-6.85110E-05-2.78535E-14
 -1      1037 6.36537E-03-5.91892E-05-3.03368E-14
 -1      1038 1.19414E-02 1.67923E-04-7.78459E-14
 -1      1039 2.20509E-03-1.13377E-04-4.05859E-15
 -1      1040 1.21922E-02 1.90517E-04-8.14594E-14
 -1      1041 1.24462E-02 2.13269E-04-8.50991E-14
 -1      1042 1.27044E-02 2.36829E-04-8.87604E-14
 -1      1043 1.29670E-02 2.61379E-04-9.24414E-14
 -1      1044 1.32336E-02 2.86926E-04-9.61312E-14
 -1      1045 6.04645E-03 1.24882E-04-2.65873E-14
 -1      1046 5.53167E-03 1.27907E-04-2.20384E-14
 -1      1047 6.29190E-03 1.26053E-04-2.90103E-14
 -1      1048 6.52679E-03 1.29659E-04-3.15276E-14
 -1      1049 5.26517E-03 1.31151E-04-1.99156E-14
 -1      1050 1.32872E-02 5.00424E-04-9.38640E-14
 -1      1051 2.49490E-03-1.16287E-04-5.07179E-15
 -1      1052 1.22862E-02 3.73292E-04-7.92268E-14
 -1      1053 4.71891E-03 1.38898E-04-1.59937E-14
 -1      1054 2.72742E-03 1.53352E-04-5.63257E-15
 -1      1055 4.99398E-03 1.34937E-04-1.79013E-14
 -1      1056 1.34923E-02 3.45028E-04-9.91608E-14
 -1      1057 1.25228E-02 4.02314E-04-8.28576E-14
 -1      1058 6.55971E-03 3.15711E-05-3.27053E-14
 -1      1059 6.56727E-03 8.57760E-05-3.26150E-14
 -1      1060 2.43786E-03 1.51103E-04-4.57993E-15
 -1      1061 2.01536E-03-9.52404E-05-3.44859E-15
 -1      1062 3.01642E-03 1.53989E-04-6.79265E-15
 -1      1063 1.21031E-02 3.42918E-04-7.62785E-14
 -1      1064 1.17430E-02 1.36710E-04-7.54078E-14
 -1      1065 2.14819E-03 1.46819E-04-3.63345E-15
 -1      1066 3.59119E-03 1.51744E-04-9.43337E-15
 -1      1067 1.66979E-03-8.50942E-05-2.46308E-15
 -1      1068 4.44061E-03 1.42751E-04-1.41936E-14
 -1      1069 1.22602E-02 3.01711E-04-7.96263E-14
 -1      1070 1.27698E-02 4.33284E-04-8.65079E-14
 -1      1071 1.30251E-02 4.66225E-04-9.01760E-14
 -1      1072 2.14363E-03 6.70830E-05-3.72578E-15
 -1      1073 1.33177E-02 4.20529E-04-9.53229E-14
 -1      1074 3.87635E-03 1.49331E-04-1.09142E-14
 -1      1075 5.90549E-03 7.22837E-05-2.56427E-14
 -1      1076 6.15142E-03 7.54298E-05-2.80258E-14
 -1      1077 3.21531E-03-4.42108E-05-7.98980E-15
 -1      1078 3.50258E-03-4.36048E-05-9.36455E-15
 -1      1079 3.78816E-03-4.26662E-05-1.08452E-14
 -1      1080 4.07172E-03-4.13845E-05-1.24270E-14
 -1      1081 4.35287E-03-3.97443E-05-1.41175E-14
 -1      1082 4.63130E-03-3.76675E-05-1.59126E-14
 -1      1083 4.90638E-03-3.51163E-05-1.78121E-14
 -1      1084 5.17768E-03-3.19111E-05-1.98177E-14
 -1      1085 5.44455E-03-2.78964E-05-2.19324E-14
 -1      1086 5.70625E-03-2.28405E-05-2.41504E-14
 -1      1087 5.96188E-03-1.64497E-05-2.64727E-14
 -1      1088 6.21037E-03-8.41330E-06-2.88930E-14
 -1      1089 1.24893E-02 3.26029E-04-8.32604E-14
 -1      1090 1.23819E-02 2.58248E-04-8.29011E-14
 -1      1091 1.26277E-02 2.81386E-04-8.65479E-14
 -1      1092 1.28811E-02 3.06363E-04-9.02179E-14
 -1      1093 1.31409E-02 3.32876E-04-9.38989E-14
 -1      1094 6.36530E-03 7.93563E-05-3.02820E-14
 -1      1095 5.65098E-03 7.08863E-05-2.33590E-14
 -1      1096 5.38958E-03 7.07869E-05-2.11755E-14
 -1      1097 5.12254E-03 7.15716E-05-1.90977E-14
 -1      1098 1.77530E-03-2.55453E-05-2.72138E-15
 -1      1099 2.34718E-03-4.34473E-05-4.50234E-15
 -1      1100 2.92670E-03-4.44427E-05-6.72079E-15
 -1      1101 4.15961E-03 1.46283E-04-1.25007E-14
 -1      1102 1.33364E-02 3.72619E-04-9.63228E-14
 -1      1103 1.84224E-03-9.04985E-05-2.93567E-15
 -1      1104 3.30444E-03 1.53364E-04-8.05937E-15
 -1      1105 4.85083E-03 7.28945E-05-1.71276E-14
 -1      1106 2.63715E-03-4.42285E-05-5.55817E-15
 -1      1107 2.57880E-03 7.96575E-05-5.19580E-15
 -1      1108 3.44471E-03 7.99505E-05-8.87535E-15
 -1      1109 2.15775E-03-2.71766E-05-3.85955E-15
 -1      1110 1.31265E-02 3.79915E-04-9.29028E-14
 -1      1111 4.57519E-03 7.44831E-05-1.52647E-14
 -1      1112 1.30789E-02 4.23613E-04-9.15154E-14
 -1      1113 2.86841E-03 8.04467E-05-6.31566E-15
 -1      1114 3.73064E-03 7.89686E-05-1.03137E-14
 -1      1115 3.35892E-03 2.88954E-05-8.55736E-15
 -1      1116 4.01462E-03 7.76531E-05-1.18578E-14
 -1      1117 4.49176E-03 2.79990E-05-1.48520E-14
 -1      1118 3.07094E-03 2.89469E-05-7.24717E-15
 -1      1119 1.27784E-02 3.72516E-04-8.73776E-14
 -1      1120 1.28328E-02 3.40484E-04-8.87992E-14
 -1      1121 4.29627E-03 7.61082E-05-1.35079E-14
 -1      1122 3.15718E-03 8.04846E-05-7.54236E-15
 -1      1123 0.00000E+00 0.00000E+00 0.00000E+00
 -1      1124 0.00000E+00 0.00000E+00 0.00000E+00
 -1      1125 0.00000E+00 0.00000E+00 0.00000E+00
 -1      1126 0.00000E+00 0.00000E+00 0.00000E+00
 -1      1127 0.00000E+00 0.00000E+00 0.00000E+00
 -1      1128 0.00000E+00 0.00000E+00 0.00000E+00
 -1      1129 0.00000E+00 0.00000E+00 0.00000E+00
 -1      1130 0.00000E+00 0.00000E+00 0.00000E+00
 -1      1131 0.00000E+00 0.00000E+00 0.00000E+00
 -1      1132 0.00000E+00 0.00000E+00 0.00000E+00
 -1      1133 0.00000E+00 0.00000E+00 0.00000E+00
 -1      1134 0.00000E+00 0.00000E+00 0.00000E+00
 -1      1135 0.00000E+00 0.00000E+00 0.00000E+00
 -1      1136 0.00000E+00 0.00000E+00 0.00000E+00
 -1      1137 0.00000E+00 0.00000E+00 0.00000E+00
 -1      1138 0.00000E+00 0.00000E+00 0.00000E+00
 -1      1139 0.00000E+00 0.00000E+00 0.00000E+00
 -1      1140 2.11512E-04-1.48279E-04 8.47033E-18
 -1      1141 5.51163E-04-3.37376E-04-6.25720E-17
 -1      1142 8.32653E-04-4.58704E-04-2.59910E-16
 -1      1143 1.10188E-03-5.40109E-04-6.02762E-16
 -1      1144 1.36692E-03-5.96941E-04-1.08302E-15
 -1      1145 1.63135E-03-6.37054E-04-1.69722E-15
 -1      1146 1.89703E-03-6.65049E-04-2.44230E-15
 -1      1147 2.16485E-03-6.83993E-04-3.31538E-15
 -1      1148 2.43514E-03-6.96112E-04-4.31266E-15
 -1      1149 2.70799E-03-7.03061E-04-5.43161E-15
 -1      1150 2.98333E-03-7.06074E-04-6.67228E-15
 -1      1151 3.26109E-03-7.06067E-04-8.02917E-15
 -1      1152 3.54121E-03-7.03714E-04-9.49650E-15
 -1      1153 3.82371E-03-6.99523E-04-1.10725E-14
 -1      1154 4.10872E-03-6.93898E-04-1.27562E-14
 -1      1155 4.39650E-03-6.87212E-04-1.45433E-14
 -1      1156 4.68748E-03-6.79879E-04-1.64309E-14
 -1      1157 4.98223E-03-6.72442E-04-1.84211E-14
 -1      1158 5.28146E-03-6.65663E-04-2.05134E-14
 -1      1159 5.58598E-03-6.60633E-04-2.27121E-14
 -1      1160 5.89660E-03-6.58881E-04-2.50176E-14
 -1      1161 6.21394E-03-6.62459E-04-2.74312E-14
 -1      1162 6.53820E-03-6.73960E-04-2.99484E-14
 -1      1163 6.86872E-03-6.96371E-04-3.25823E-14
 -1      1164 7.20360E-03-7.32629E-04-3.53369E-14
 -1      1165 7.53920E-03-7.84717E-04-3.82013E-14
 -1      1166 7.87013E-03-8.52226E-04-4.11645E-14
 -1      1167 8.18985E-03-9.30632E-04-4.42175E-14
 -1      1168 8.49234E-03-1.01006E-03-4.73629E-14
 -1      1169 8.77473E-03-1.07587E-03-5.05931E-14
 -1      1170 9.03968E-03-1.11206E-03-5.38919E-14
 -1      1171 9.29582E-03-1.10683E-03-5.72637E-14
 -1      1172 9.55509E-03-1.05759E-03-6.07043E-14
 -1      1173 9.82822E-03-9.72127E-04-6.42058E-14
 -1      1174 1.01209E-02-8.65145E-04-6.77573E-14
 -1      1175 1.04326E-02-7.52543E-04-7.13468E-14
 -1      1176 1.07587E-02-6.46725E-04-7.49645E-14
 -1      1177 1.10923E-02-5.54705E-04-7.86038E-14
 -1      1178 1.14275E-02-4.78638E-04-8.22542E-14
 -1      1179 1.17597E-02-4.17438E-04-8.59172E-14
 -1      1180 1.20862E-02-3.68418E-04-8.96051E-14
 -1      1181 1.24057E-02-3.28443E-04-9.33220E-14
 -1      1182 1.27181E-02-2.94577E-04-9.70736E-14
 -1      1183 1.30238E-02-2.64347E-04-1.00843E-13
 -1      1184 1.33236E-02-2.35788E-04-1.04621E-13
 -1      1185 1.36185E-02-2.07384E-04-1.08400E-13
 -1      1186 1.39094E-02-1.77981E-04-1.12171E-13
 -1      1187 1.41974E-02-1.46746E-04-1.15944E-13
 -1      1188 1.44836E-02-1.13238E-04-1.19725E-13
 -1      1189 1.47619E-02-7.87472E-05-1.23437E-13
 -1      1190 2.28263E-04 1.60652E-04 3.81910E-17
 -1      1191 5.53336E-04 3.42008E-04 4.69460E-17
 -1      1192 8.33583E-04 4.60876E-04-4.15656E-17
 -1      1193 1.10277E-03 5.41804E-04-2.42441E-16
 -1      1194 1.36781E-03 5.98628E-04-5.57890E-16
 -1      1195 1.63228E-03 6.38826E-04-9.89213E-16
 -1      1196 1.89801E-03 6.66922E-04-1.53955E-15
 -1      1197 2.16585E-03 6.85979E-04-2.20842E-15
 -1      1198 2.43616E-03 6.98212E-04-2.99676E-15
 -1      1199 2.70899E-03 7.05267E-04-3.90233E-15
 -1      1200 2.98431E-03 7.08366E-04-4.92321E-15
 -1      1201 3.26204E-03 7.08410E-04-6.05542E-15
 -1      1202 3.54212E-03 7.06051E-04-7.29835E-15
 -1      1203 3.82459E-03 7.01766E-04-8.65292E-15
 -1      1204 4.10962E-03 6.95913E-04-1.01202E-14
 -1      1205 4.39753E-03 6.88806E-04-1.17004E-14
 -1      1206 4.68884E-03 6.80783E-04-1.33889E-14
 -1      1207 4.98433E-03 6.72299E-04-1.51890E-14
 -1      1208 5.28500E-03 6.64036E-04-1.70979E-14
 -1      1209 5.59215E-03 6.57050E-04-1.91176E-14
 -1      1210 5.90732E-03 6.52966E-04-2.12424E-14
 -1      1211 6.23218E-03 6.54210E-04-2.34719E-14
 -1      1212 6.56827E-03 6.64272E-04-2.57978E-14
 -1      1213 6.91657E-03 6.87903E-04-2.82224E-14
 -1      1214 7.27664E-03 7.31038E-04-3.07355E-14
 -1      1215 7.64555E-03 8.00011E-04-3.33255E-14
 -1      1216 8.01665E-03 8.99449E-04-3.59971E-14
 -1      1217 8.37912E-03 1.02835E-03-3.87621E-14
 -1      1218 8.71983E-03 1.17522E-03-4.16164E-14
 -1      1219 9.02864E-03 1.31544E-03-4.45573E-14
 -1      1220 9.30574E-03 1.41629E-03-4.75923E-14
 -1      1221 9.56552E-03 1.45064E-03-5.07180E-14
 -1      1222 9.83140E-03 1.41216E-03-5.39283E-14
 -1      1223 1.01236E-02 1.31922E-03-5.72250E-14
 -1      1224 1.04493E-02 1.20406E-03-6.06041E-14
 -1      1225 1.08026E-02 1.09661E-03-6.40550E-14
 -1      1226 1.11707E-02 1.01466E-03-6.75606E-14
 -1      1227 1.15414E-02 9.63646E-04-7.11331E-14
 -1      1228 1.19057E-02 9.40999E-04-7.47574E-14
 -1      1229 1.22592E-02 9.40797E-04-7.84189E-14
 -1      1230 1.26001E-02 9.56692E-04-8.21181E-14
 -1      1231 1.29290E-02 9.83241E-04-8.58413E-14
 -1      1232 1.32472E-02 1.01624E-03-8.95702E-14
 -1      1233 1.35564E-02 1.05264E-03-9.33011E-14
 -1      1234 1.38581E-02 1.09025E-03-9.70449E-14
 -1      1235 1.41540E-02 1.12754E-03-1.00802E-13
 -1      1236 1.44454E-02 1.16342E-03-1.04543E-13
 -1      1237 1.47335E-02 1.19712E-03-1.08282E-13
 -1      1238 1.50197E-02 1.22829E-03-1.12010E-13
 -1      1239 1.52980E-02 1.25668E-03-1.15643E-13
 -1      1240 1.54196E-02 1.22800E-03-1.17648E-13
 -1      1241 1.53922E-02 1.14348E-03-1.18157E-13
 -1      1242 1.53667E-02 1.05965E-03-1.18659E-13
 -1      1243 1.53431E-02 9.77639E-04-1.19154E-13
 -1      1244 1.53207E-02 8.98163E-04-1.19634E-13
 -1      1245 1.52982E-02 8.22073E-04-1.20102E-13
 -1      1246 1.52742E-02 7.48419E-04-1.20588E-13
 -1      1247 1.52474E-02 6.75956E-04-1.21073E-13
 -1      1248 1.52173E-02 6.04410E-04-1.21542E-13
 -1      1249 1.51838E-02 5.32753E-04-1.21988E-13
 -1      1250 1.51471E-02 4.59988E-04-1.22418E-13
 -1      1251 1.51084E-02 3.85930E-04-1.22873E-13
 -1      1252 1.50683E-02 3.09437E-04-1.23339E-13
 -1      1253 1.50277E-02 2.29654E-04-1.23779E-13
 -1      1254 1.49882E-02 1.47470E-04-1.24196E-13
 -1      1255 1.49505E-02 6.36296E-05-1.24618E-13
 -1      1256 1.49150E-02-2.01552E-05-1.25044E-13
 -1      1257 1.16016E-02 2.93302E-04-6.09930E-14
 -1      1258 1.15030E-02 4.38944E-04-6.04620E-14
 -1      1259 1.13009E-02 5.88432E-04-5.96000E-14
 -1      1260 1.10131E-02 7.39201E-04-5.84500E-14
 -1      1261 1.06609E-02 8.79827E-04-5.71008E-14
 -1      1262 1.02570E-02 9.98414E-04-5.55736E-14
 -1      1263 9.84062E-03 1.07238E-03-5.40205E-14
 -1      1264 9.39541E-03 1.09113E-03-5.23959E-14
 -1      1265 8.92476E-03 1.04549E-03-5.07565E-14
 -1      1266 8.46906E-03 9.40396E-04-4.92679E-14
 -1      1267 8.06068E-03 8.00569E-04-4.80436E-14
 -1      1268 7.70933E-03 6.43821E-04-4.70938E-14
 -1      1269 7.42276E-03 4.80402E-04-4.64059E-14
 -1      1270 7.23019E-03 3.22759E-04-4.60366E-14
 -1      1271 7.14708E-03 1.75949E-04-4.59969E-14
 -1      1272 7.17559E-03 3.06315E-05-4.62772E-14
 -1      1273 7.31154E-03-1.14063E-04-4.68653E-14
 -1      1274 7.54664E-03-2.60966E-04-4.77370E-14
 -1      1275 7.86257E-03-4.04660E-04-4.88678E-14
 -1      1276 8.22474E-03-5.29937E-04-5.01777E-14
 -1      1277 8.61721E-03-6.26044E-04-5.16210E-14
 -1      1278 9.06780E-03-6.81945E-04-5.32939E-14
 -1      1279 9.53914E-03-6.80019E-04-5.50273E-14
 -1      1280 9.97944E-03-6.17582E-04-5.66014E-14
 -1      1281 1.04257E-02-5.01753E-04-5.81140E-14
 -1      1282 1.08418E-02-3.51076E-04-5.94116E-14
 -1      1283 1.11934E-02-1.83462E-04-6.03832E-14
 -1      1284 1.14480E-02-1.83759E-05-6.09723E-14
 -1      1285 1.15869E-02 1.39429E-04-6.11806E-14
 -1      1286 1.66571E-04-1.10324E-04-1.13164E-17
 -1      1287 1.12482E-04-5.70021E-05-3.25803E-17
 -1      1288 1.17546E-04-6.75988E-05-2.66443E-17
 -1      1289 1.08400E-04-4.35305E-05-4.21619E-17
 -1      1290 1.10245E-04-4.96415E-05-3.93836E-17
 -1      1291 2.26228E-04-1.07665E-04-9.28348E-17
 -1      1292 1.06845E-04-3.36449E-05-4.67969E-17
 -1      1293 1.07680E-04-3.83697E-05-4.55229E-17
 -1      1294 2.19078E-04-8.25124E-05-1.09342E-16
 -1      1295 1.06088E-04-2.53861E-05-4.91144E-17
 -1      1296 1.06507E-04-2.94190E-05-4.86400E-17
 -1      1297 2.15884E-04-6.33262E-05-1.17717E-16
 -1      1298 1.05707E-04-1.81165E-05-4.99004E-17
 -1      1299 1.05928E-04-2.16879E-05-4.98597E-17
 -1      1300 2.14275E-04-4.72352E-05-1.21634E-16
 -1      1301 1.05499E-04-1.12549E-05-4.97242E-17
 -1      1302 1.05616E-04-1.46437E-05-4.99411E-17
 -1      1303 2.13398E-04-3.27848E-05-1.22759E-16
 -1      1304 1.05406E-04-4.69581E-06-4.91279E-17
 -1      1305 1.05456E-04-7.95225E-06-4.93583E-17
 -1      1306 2.12923E-04-1.92080E-05-1.22027E-16
 -1      1307 1.05396E-04 1.74477E-06-4.79759E-17
 -1      1308 1.05394E-04-1.47150E-06-4.83012E-17
 -1      1309 2.12720E-04-6.16558E-06-1.20021E-16
 -1      1310 1.05464E-04 8.23484E-06-4.64581E-17
 -1      1311 1.05410E-04 4.97215E-06-4.69324E-17
 -1      1312 2.12727E-04 6.71498E-06-1.16945E-16
 -1      1313 1.05632E-04 1.49507E-05-4.39915E-17
 -1      1314 1.05510E-04 1.15476E-05-4.47098E-17
 -1      1315 2.12947E-04 1.97825E-05-1.12445E-16
 -1      1316 1.05950E-04 2.19783E-05-4.05085E-17
 -1      1317 1.05723E-04 1.83839E-05-4.15927E-17
 -1      1318 2.13437E-04 3.32974E-05-1.05994E-16
 -1      1319 1.06553E-04 2.98530E-05-3.58735E-17
 -1      1320 1.06125E-04 2.57734E-05-3.75134E-17
 -1      1321 2.14344E-04 4.78381E-05-9.73207E-17
 -1      1322 1.07716E-04 3.89560E-05-2.91921E-17
 -1      1323 1.06879E-04 3.41618E-05-3.18213E-17
 -1      1324 2.16002E-04 6.42614E-05-8.56113E-17
 -1      1325 1.10223E-04 5.03793E-05-1.90820E-17
 -1      1326 1.08402E-04 4.41990E-05-2.33375E-17
 -1      1327 2.19170E-04 8.37617E-05-6.88062E-17
 -1      1328 1.16862E-04 6.76341E-05-4.10642E-18
 -1      1329 1.12129E-04 5.78007E-05-1.14112E-17
 -1      1330 2.26214E-04 1.09484E-04-4.51841E-17
 -1      1331 1.57458E-04 1.09835E-04 1.89871E-17
 -1      1332 1.35561E-04 8.60915E-05 5.21772E-18
 -1      1333 2.55860E-04 1.52095E-04-1.71168E-17
 -1      1334 3.34816E-04 2.20681E-04 2.18467E-17
 -1      1335 4.21196E-04-2.61665E-04-7.18284E-17
 -1      1336 5.74151E-04-3.36666E-04-1.39591E-16
 -1      1337 7.21195E-04-3.97187E-04-2.45640E-16
 -1      1338 8.64216E-04-4.46375E-04-3.86721E-16
 -1      1339 6.11599E-04-3.30758E-04-2.26802E-16
 -1      1340 1.00409E-03-4.87309E-04-5.61156E-16
 -1      1341 1.14178E-03-5.21127E-04-7.69824E-16
 -1      1342 9.04585E-04-4.31240E-04-5.16527E-16
 -1      1343 1.27813E-03-5.49694E-04-1.01189E-15
 -1      1344 1.41362E-03-5.73481E-04-1.28735E-15
 -1      1345 1.18677E-03-5.00319E-04-9.39258E-16
 -1      1346 1.54871E-03-5.93547E-04-1.59548E-15
 -1      1347 1.68365E-03-6.10221E-04-1.93610E-15
 -1      1348 1.46346E-03-5.48591E-04-1.49299E-15
 -1      1349 1.81870E-03-6.24124E-04-2.30882E-15
 -1      1350 1.95396E-03-6.35543E-04-2.71331E-15
 -1      1351 1.73794E-03-5.82184E-04-2.17557E-15
 -1      1352 2.08956E-03-6.44870E-04-3.14904E-15
 -1      1353 2.22555E-03-6.52350E-04-3.61632E-15
 -1      1354 2.01208E-03-6.05026E-04-2.98416E-15
 -1      1355 2.36200E-03-6.58246E-04-4.11391E-15
 -1      1356 2.49892E-03-6.62758E-04-4.64170E-15
 -1      1357 2.28692E-03-6.19870E-04-3.91676E-15
 -1      1358 2.63634E-03-6.66067E-04-5.20021E-15
 -1      1359 2.77427E-03-6.68332E-04-5.78849E-15
 -1      1360 2.56301E-03-6.28717E-04-4.97004E-15
 -1      1361 2.91271E-03-6.69678E-04-6.40604E-15
 -1      1362 3.05166E-03-6.70229E-04-7.05372E-15
 -1      1363 2.84060E-03-6.33040E-04-6.14280E-15
 -1      1364 3.19113E-03-6.70069E-04-7.72907E-15
 -1      1365 3.33112E-03-6.69297E-04-8.43272E-15
 -1      1366 3.11986E-03-6.33917E-04-7.43229E-15
 -1      1367 3.47163E-03-6.67965E-04-9.16448E-15
 -1      1368 3.61267E-03-6.66155E-04-9.92248E-15
 -1      1369 3.40086E-03-6.32134E-04-8.83476E-15
 -1      1370 3.75426E-03-6.63899E-04-1.07079E-14
 -1      1371 3.89641E-03-6.61268E-04-1.15202E-14
 -1      1372 3.68369E-03-6.28260E-04-1.03469E-14
 -1      1373 4.03915E-03-6.58283E-04-1.23584E-14
 -1      1374 4.18251E-03-6.55012E-04-1.32240E-14
 -1      1375 3.96850E-03-6.22721E-04-1.19654E-14
 -1      1376 4.32654E-03-6.51474E-04-1.41148E-14
 -1      1377 4.47127E-03-6.47744E-04-1.50299E-14
 -1      1378 4.25548E-03-6.15869E-04-1.36883E-14
 -1      1379 4.61677E-03-6.43850E-04-1.59705E-14
 -1      1380 4.76309E-03-6.39885E-04-1.69384E-14
 -1      1381 4.54493E-03-6.08056E-04-1.55145E-14
 -1      1382 4.91032E-03-6.35896E-04-1.79312E-14
 -1      1383 5.05851E-03-6.32004E-04-1.89487E-14
 -1      1384 4.83723E-03-5.99714E-04-1.74432E-14
 -1      1385 5.20776E-03-6.28293E-04-1.99930E-14
 -1      1386 5.35815E-03-6.24922E-04-2.10628E-14
 -1      1387 5.13288E-03-5.91452E-04-1.94747E-14
 -1      1388 5.50977E-03-6.22030E-04-2.21581E-14
 -1      1389 5.66269E-03-6.19824E-04-2.32809E-14
 -1      1390 5.43241E-03-5.84163E-04-2.16084E-14
 -1      1391 5.81699E-03-6.18520E-04-2.44307E-14
 -1      1392 5.97273E-03-6.18377E-04-2.56081E-14
 -1      1393 5.73638E-03-5.79142E-04-2.38472E-14
 -1      1394 6.12995E-03-6.19705E-04-2.68113E-14
 -1      1395 6.28866E-03-6.22810E-04-2.80396E-14
 -1      1396 6.04528E-03-5.78204E-04-2.61936E-14
 -1      1397 6.44885E-03-6.28103E-04-2.92973E-14
 -1      1398 6.61043E-03-6.35915E-04-3.05821E-14
 -1      1399 6.35937E-03-5.83761E-04-2.86488E-14
 -1      1400 6.77327E-03-6.46734E-04-3.18955E-14
 -1      1401 6.93719E-03-6.60858E-04-3.32388E-14
 -1      1402 6.67853E-03-5.98800E-04-3.12129E-14
 -1      1403 7.10189E-03-6.78772E-04-3.46101E-14
 -1      1404 7.26702E-03-7.00636E-04-3.60100E-14
 -1      1405 7.00196E-03-6.26623E-04-3.38902E-14
 -1      1406 7.43214E-03-7.26763E-04-3.74365E-14
 -1      1407 7.59672E-03-7.57018E-04-3.88881E-14
 -1      1408 7.32804E-03-6.70202E-04-3.66780E-14
 -1      1409 7.76016E-03-7.91285E-04-4.03641E-14
 -1      1410 7.92184E-03-8.28939E-04-4.18623E-14
 -1      1411 7.65410E-03-7.30958E-04-3.95696E-14
 -1      1412 8.08114E-03-8.69150E-04-4.33842E-14
 -1      1413 8.23748E-03-9.10655E-04-4.49284E-14
 -1      1414 7.97657E-03-8.06985E-04-4.25561E-14
 -1      1415 8.39040E-03-9.51778E-04-4.64951E-14
 -1      1416 8.53964E-03-9.90680E-04-4.80850E-14
 -1      1417 8.29156E-03-8.91170E-04-4.56353E-14
 -1      1418 8.68514E-03-1.02507E-03-4.96935E-14
 -1      1419 8.82718E-03-1.05295E-03-5.13205E-14
 -1      1420 8.59608E-03-9.70397E-04-4.87997E-14
 -1      1421 8.96626E-03-1.07212E-03-5.29660E-14
 -1      1422 9.10322E-03-1.08109E-03-5.46291E-14
 -1      1423 8.88962E-03-1.02742E-03-5.20430E-14
 -1      1424 9.23905E-03-1.07871E-03-5.63121E-14
 -1      1425 9.37492E-03-1.06465E-03-5.80113E-14
 -1      1426 9.17526E-03-1.04603E-03-5.53628E-14
 -1      1427 9.51189E-03-1.03933E-03-5.97268E-14
 -1      1428 9.65104E-03-1.00373E-03-6.14589E-14
 -1      1429 9.45917E-03-1.01767E-03-5.87530E-14
 -1      1430 9.79312E-03-9.59648E-04-6.32058E-14
 -1      1431 9.93869E-03-9.08939E-04-6.49657E-14
 -1      1432 9.74821E-03-9.45449E-04-6.22096E-14
 -1      1433 1.00880E-02-8.53950E-04-6.67380E-14
 -1      1434 1.02409E-02-7.96678E-04-6.85201E-14
 -1      1435 1.00472E-02-8.42627E-04-6.57228E-14
 -1      1436 1.03972E-02-7.39156E-04-7.03111E-14
 -1      1437 1.05565E-02-6.82949E-04-7.21097E-14
 -1      1438 1.03572E-02-7.26759E-04-6.92794E-14
 -1      1439 1.07181E-02-6.29295E-04-7.39156E-14
 -1      1440 1.08814E-02-5.79116E-04-7.57286E-14
 -1      1441 1.06762E-02-6.13402E-04-7.28724E-14
 -1      1442 1.10458E-02-5.32838E-04-7.75450E-14
 -1      1443 1.12107E-02-4.90805E-04-7.93667E-14
 -1      1444 1.10007E-02-5.12587E-04-7.64911E-14
 -1      1445 1.13755E-02-4.52870E-04-8.11896E-14
 -1      1446 1.15399E-02-4.18985E-04-8.30145E-14
 -1      1447 1.13268E-02-4.28506E-04-8.01255E-14
 -1      1448 1.17035E-02-3.88716E-04-8.48463E-14
 -1      1449 1.18659E-02-3.61806E-04-8.66848E-14
 -1      1450 1.16512E-02-3.61059E-04-8.37776E-14
 -1      1451 1.20270E-02-3.37743E-04-8.85269E-14
 -1      1452 1.21866E-02-3.16192E-04-9.03750E-14
 -1      1453 1.19719E-02-3.07777E-04-8.74479E-14
 -1      1454 1.23448E-02-2.96685E-04-9.22329E-14
 -1      1455 1.25014E-02-2.78886E-04-9.40984E-14
 -1      1456 1.22877E-02-2.65323E-04-9.11441E-14
 -1      1457 1.26565E-02-2.62416E-04-9.59678E-14
 -1      1458 1.28101E-02-2.46974E-04-9.78466E-14
 -1      1459 1.25981E-02-2.30401E-04-9.48687E-14
 -1      1460 1.29623E-02-2.32276E-04-9.97296E-14
 -1      1461 1.31131E-02-2.18070E-04-1.01611E-13
 -1      1462 1.29034E-02-2.00165E-04-9.86153E-14
 -1      1463 1.32627E-02-2.04149E-04-1.03497E-13
 -1      1464 1.34111E-02-1.90309E-04-1.05386E-13
 -1      1465 1.32038E-02-1.72336E-04-1.02378E-13
 -1      1466 1.35586E-02-1.76402E-04-1.07274E-13
 -1      1467 1.37050E-02-1.62267E-04-1.09158E-13
 -1      1468 1.35001E-02-1.45158E-04-1.06148E-13
 -1      1469 1.38507E-02-1.47798E-04-1.11045E-13
 -1      1470 1.39956E-02-1.32872E-04-1.12933E-13
 -1      1471 1.37928E-02-1.17302E-04-1.09921E-13
 -1      1472 1.41399E-02-1.17423E-04-1.14819E-13
 -1      1473 1.42837E-02-1.01368E-04-1.16706E-13
 -1      1474 1.40828E-02-8.77759E-05-1.13693E-13
 -1      1475 1.44271E-02-8.47045E-05-1.18598E-13
 -1      1476 1.45702E-02-6.74258E-05-1.20495E-13
 -1      1477 1.43707E-02-5.59151E-05-1.17470E-13
 -1      1478 1.47792E-02-3.73253E-05-1.23230E-13
 -1      1479 1.47234E-02-9.23436E-06-1.22095E-13
 -1      1480 6.42521E-04 3.71846E-04-2.22532E-17
 -1      1481 4.92541E-04 3.03588E-04 1.33628E-17
 -1      1482 4.44533E-04 2.65826E-04-1.55583E-17
 -1      1483 9.27803E-04 4.71603E-04-1.75356E-16
 -1      1484 7.87094E-04 4.26230E-04-8.50963E-17
 -1      1485 7.44135E-04 3.90500E-04-1.22474E-16
 -1      1486 1.20238E-03 5.40689E-04-4.40159E-16
 -1      1487 1.06587E-03 5.09195E-04-2.93412E-16
 -1      1488 1.02992E-03 4.75680E-04-3.38501E-16
 -1      1489 1.47260E-03 5.89389E-04-8.18396E-16
 -1      1490 1.33771E-03 5.67201E-04-6.14892E-16
 -1      1491 1.30756E-03 5.35101E-04-6.65917E-16
 -1      1492 1.74181E-03 6.23582E-04-1.31375E-15
 -1      1493 1.60716E-03 6.08061E-04-1.05113E-15
 -1      1494 1.58153E-03 5.76803E-04-1.10746E-15
 -1      1495 2.01173E-03 6.47086E-04-1.92680E-15
 -1      1496 1.87659E-03 6.36501E-04-1.60542E-15
 -1      1497 1.85446E-03 6.05716E-04-1.66544E-15
 -1      1498 2.28319E-03 6.62584E-04-2.65779E-15
 -1      1499 2.14722E-03 6.55708E-04-2.27771E-15
 -1      1500 2.12780E-03 6.25164E-04-2.34110E-15
 -1      1501 2.55658E-03 6.72044E-04-3.50739E-15
 -1      1502 2.41963E-03 6.67972E-04-3.06799E-15
 -1      1503 2.40230E-03 6.37527E-04-3.13399E-15
 -1      1504 2.83205E-03 6.76925E-04-4.47097E-15
 -1      1505 2.69405E-03 6.74983E-04-3.97502E-15
 -1      1506 2.67833E-03 6.44548E-04-4.04192E-15
 -1      1507 3.10962E-03 6.78297E-04-5.54858E-15
 -1      1508 2.97057E-03 6.77994E-04-4.99560E-15
 -1      1509 2.95609E-03 6.47510E-04-5.06337E-15
 -1      1510 3.38932E-03 6.76939E-04-6.73604E-15
 -1      1511 3.24921E-03 6.77917E-04-6.12837E-15
 -1      1512 3.23565E-03 6.47346E-04-6.19661E-15
 -1      1513 3.67118E-03 6.73407E-04-8.03566E-15
 -1      1514 3.52997E-03 6.75411E-04-7.37186E-15
 -1      1515 3.51710E-03 6.44722E-04-7.44070E-15
 -1      1516 3.95532E-03 6.68104E-04-9.44602E-15
 -1      1517 3.81295E-03 6.70948E-04-8.72707E-15
 -1      1518 3.80056E-03 6.40107E-04-8.79581E-15
 -1      1519 4.24200E-03 6.61345E-04-1.09690E-14
 -1      1520 4.09833E-03 6.64877E-04-1.01932E-14
 -1      1521 4.08620E-03 6.33847E-04-1.02617E-14
 -1      1522 4.53161E-03 6.53425E-04-1.26025E-14
 -1      1523 4.38642E-03 6.57494E-04-1.17723E-14
 -1      1524 4.37434E-03 6.26222E-04-1.18398E-14
 -1      1525 4.82473E-03 6.44699E-04-1.43454E-14
 -1      1526 4.67770E-03 6.49114E-04-1.34605E-14
 -1      1527 4.66540E-03 6.17524E-04-1.35271E-14
 -1      1528 5.12216E-03 6.35684E-04-1.61997E-14
 -1      1529 4.97286E-03 6.40158E-04-1.52588E-14
 -1      1530 4.95999E-03 6.08149E-04-1.53249E-14
 -1      1531 5.42489E-03 6.27183E-04-1.81622E-14
 -1      1532 5.27279E-03 6.31269E-04-1.71669E-14
 -1      1533 5.25889E-03 5.98702E-04-1.72316E-14
 -1      1534 5.73415E-03 6.20460E-04-2.02340E-14
 -1      1535 5.57863E-03 6.23458E-04-1.91849E-14
 -1      1536 5.56306E-03 5.90152E-04-1.92479E-14
 -1      1537 6.05130E-03 6.17454E-04-2.24102E-14
 -1      1538 5.89165E-03 6.18297E-04-2.13091E-14
 -1      1539 5.87359E-03 5.84023E-04-2.13707E-14
 -1      1540 6.37767E-03 6.21043E-04-2.46865E-14
 -1      1541 6.21324E-03 6.18166E-04-2.35358E-14
 -1      1542 6.19163E-03 5.82643E-04-2.35973E-14
 -1      1543 6.71430E-03 6.35315E-04-2.70602E-14
 -1      1544 6.54464E-03 6.26526E-04-2.58622E-14
 -1      1545 6.51821E-03 5.89436E-04-2.59209E-14
 -1      1546 7.06139E-03 6.65707E-04-2.95273E-14
 -1      1547 6.88654E-03 6.48145E-04-2.82828E-14
 -1      1548 6.85395E-03 6.09165E-04-2.83399E-14
 -1      1549 7.41762E-03 7.18717E-04-3.20780E-14
 -1      1550 7.23850E-03 6.89077E-04-3.07915E-14
 -1      1551 7.19863E-03 6.47959E-04-3.08459E-14
 -1      1552 7.77929E-03 8.00643E-04-3.47085E-14
 -1      1553 7.59811E-03 7.55956E-04-3.33828E-14
 -1      1554 7.55057E-03 7.12684E-04-3.34364E-14
 -1      1555 8.13967E-03 9.14656E-04-3.74269E-14
 -1      1556 7.96020E-03 8.53973E-04-3.60567E-14
 -1      1557 7.90608E-03 8.09010E-04-3.61121E-14
 -1      1558 8.48956E-03 1.05597E-03-4.02368E-14
 -1      1559 8.31662E-03 9.82940E-04-3.88206E-14
 -1      1560 8.25917E-03 9.37518E-04-3.88760E-14
 -1      1561 8.81970E-03 1.20708E-03-4.31335E-14
 -1      1562 8.65764E-03 1.13210E-03-4.16745E-14
 -1      1563 8.60227E-03 1.08827E-03-4.17281E-14
 -1      1564 9.12563E-03 1.33725E-03-4.61206E-14
 -1      1565 8.97569E-03 1.27685E-03-4.46156E-14
 -1      1566 8.92893E-03 1.23690E-03-4.46695E-14
 -1      1567 9.41212E-03 1.41259E-03-4.92019E-14
 -1      1568 9.27053E-03 1.38322E-03-4.76485E-14
 -1      1569 9.23789E-03 1.34841E-03-4.77029E-14
 -1      1570 9.69350E-03 1.41251E-03-5.23682E-14
 -1      1571 9.55225E-03 1.42184E-03-5.07745E-14
 -1      1572 9.53615E-03 1.39133E-03-5.08268E-14
 -1      1573 9.98670E-03 1.34292E-03-5.56234E-14
 -1      1574 9.83762E-03 1.38477E-03-5.39855E-14
 -1      1575 9.83663E-03 1.35597E-03-5.40383E-14
 -1      1576 1.03026E-02 1.23191E-03-5.89582E-14
 -1      1577 1.01415E-02 1.29029E-03-5.72802E-14
 -1      1578 1.01510E-02 1.26053E-03-5.73319E-14
 -1      1579 1.06418E-02 1.11420E-03-6.23728E-14
 -1      1580 1.04696E-02 1.17208E-03-6.06567E-14
 -1      1581 1.04835E-02 1.13990E-03-6.07054E-14
 -1      1582 1.09971E-02 1.01545E-03-6.58500E-14
 -1      1583 1.08181E-02 1.06157E-03-6.41046E-14
 -1      1584 1.08305E-02 1.02688E-03-6.41515E-14
 -1      1585 1.13587E-02 9.47334E-04-6.93823E-14
 -1      1586 1.11777E-02 9.77445E-04-6.76086E-14
 -1      1587 1.11849E-02 9.40926E-04-6.76536E-14
 -1      1588 1.17182E-02 9.10562E-04-7.29789E-14
 -1      1589 1.15391E-02 9.25334E-04-7.11733E-14
 -1      1590 1.15394E-02 8.87830E-04-7.12138E-14
 -1      1591 1.20703E-02 9.00107E-04-7.66143E-14
 -1      1592 1.18954E-02 9.02481E-04-7.47924E-14
 -1      1593 1.18887E-02 8.64712E-04-7.48237E-14
 -1      1594 1.24122E-02 9.09282E-04-8.02893E-14
 -1      1595 1.22426E-02 9.02655E-04-7.84477E-14
 -1      1596 1.22299E-02 8.65118E-04-7.84746E-14
 -1      1597 1.27434E-02 9.31876E-04-8.39959E-14
 -1      1598 1.25791E-02 9.19238E-04-8.21396E-14
 -1      1599 1.25618E-02 8.82224E-04-8.21609E-14
 -1      1600 1.30646E-02 9.62919E-04-8.77185E-14
 -1      1601 1.29052E-02 9.46594E-04-8.58550E-14
 -1      1602 1.28845E-02 9.10241E-04-8.58711E-14
 -1      1603 1.33768E-02 9.98726E-04-9.14469E-14
 -1      1604 1.32217E-02 9.80409E-04-8.95822E-14
 -1      1605 1.31988E-02 9.44749E-04-8.95938E-14
 -1      1606 1.36816E-02 1.03667E-03-9.51825E-14
 -1      1607 1.35301E-02 1.01756E-03-9.33149E-14
 -1      1608 1.35059E-02 9.82568E-04-9.33260E-14
 -1      1609 1.39804E-02 1.07492E-03-9.89316E-14
 -1      1610 1.38317E-02 1.05585E-03-9.70546E-14
 -1      1611 1.38069E-02 1.02147E-03-9.70643E-14
 -1      1612 1.42743E-02 1.11216E-03-1.02680E-13
 -1      1613 1.41279E-02 1.09373E-03-1.00807E-13
 -1      1614 1.41030E-02 1.05989E-03-1.00811E-13
 -1      1615 1.45646E-02 1.14748E-03-1.06418E-13
 -1      1616 1.44199E-02 1.13010E-03-1.04550E-13
 -1      1617 1.43952E-02 1.09674E-03-1.04555E-13
 -1      1618 1.48524E-02 1.18029E-03-1.10153E-13
 -1      1619 1.47088E-02 1.16422E-03-1.08286E-13
 -1      1620 1.46845E-02 1.13125E-03-1.08294E-13
 -1      1621 1.51387E-02 1.21046E-03-1.13880E-13
 -1      1622 1.49957E-02 1.19567E-03-1.12018E-13
 -1      1623 1.49719E-02 1.16300E-03-1.12025E-13
 -1      1624 1.52839E-02 1.21455E-03-1.15883E-13
 -1      1625 1.52619E-02 1.11072E-03-1.16665E-13
 -1      1626 1.52751E-02 1.15259E-03-1.16413E-13
 -1      1627 1.52371E-02 1.02789E-03-1.17159E-13
 -1      1628 1.52492E-02 1.06911E-03-1.16913E-13
 -1      1629 1.51318E-02 1.07777E-03-1.15169E-13
 -1      1630 1.52143E-02 9.46888E-04-1.17649E-13
 -1      1631 1.52255E-02 9.87128E-04-1.17402E-13
 -1      1632 1.51079E-02 9.95653E-04-1.15657E-13
 -1      1633 1.51923E-02 8.68106E-04-1.18125E-13
 -1      1634 1.52033E-02 9.07207E-04-1.17892E-13
 -1      1635 1.50857E-02 9.15348E-04-1.16142E-13
 -1      1636 1.51700E-02 7.92865E-04-1.18596E-13
 -1      1637 1.51813E-02 8.30223E-04-1.18358E-13
 -1      1638 1.50642E-02 8.37712E-04-1.16617E-13
 -1      1639 1.51455E-02 7.18255E-04-1.19078E-13
 -1      1640 1.51581E-02 7.55347E-04-1.18837E-13
 -1      1641 1.50416E-02 7.61968E-04-1.17089E-13
 -1      1642 1.51181E-02 6.44986E-04-1.19552E-13
 -1      1643 1.51322E-02 6.81497E-04-1.19316E-13
 -1      1644 1.50167E-02 6.87135E-04-1.17562E-13
 -1      1645 1.50872E-02 5.72266E-04-1.20013E-13
 -1      1646 1.51031E-02 6.08609E-04-1.19786E-13
 -1      1647 1.49885E-02 6.13288E-04-1.18030E-13
 -1      1648 1.50527E-02 4.99236E-04-1.20459E-13
 -1      1649 1.50704E-02 5.35840E-04-1.20238E-13
 -1      1650 1.49567E-02 5.39720E-04-1.18488E-13
 -1      1651 1.50152E-02 4.25093E-04-1.20898E-13
 -1      1652 1.50343E-02 4.62347E-04-1.20679E-13
 -1      1653 1.49213E-02 4.65696E-04-1.18935E-13
 -1      1654 1.49760E-02 3.50502E-04-1.21347E-13
 -1      1655 1.49958E-02 3.88038E-04-1.21122E-13
 -1      1656 1.48832E-02 3.91194E-04-1.19375E-13
 -1      1657 1.49351E-02 2.72511E-04-1.21800E-13
 -1      1658 1.49556E-02 3.11785E-04-1.21574E-13
 -1      1659 1.48430E-02 3.15097E-04-1.19820E-13
 -1      1660 1.48944E-02 1.92313E-04-1.22232E-13
 -1      1661 1.49146E-02 2.32679E-04-1.22021E-13
 -1      1662 1.48017E-02 2.36453E-04-1.20261E-13
 -1      1663 1.48550E-02 1.10170E-04-1.22656E-13
 -1      1664 1.48744E-02 1.51453E-04-1.22445E-13
 -1      1665 1.47609E-02 1.55877E-04-1.20692E-13
 -1      1666 1.47796E-02 2.96606E-05-1.22483E-13
 -1      1667 1.47981E-02 7.14734E-05-1.22269E-13
 -1      1668 1.46839E-02 7.66267E-05-1.20521E-13
 -1      1669 1.45704E-02-3.55158E-07-1.19751E-13
 -1      1670 1.15990E-02 2.93743E-04-6.16390E-14
 -1      1671 1.16265E-02 2.49292E-04-6.18356E-14
 -1      1672 1.14514E-02 4.05543E-04-6.08917E-14
 -1      1673 1.15328E-02 3.54395E-04-6.12288E-14
 -1      1674 1.11757E-02 5.28975E-04-5.99954E-14
 -1      1675 1.13148E-02 4.60345E-04-6.05312E-14
 -1      1676 1.08549E-02 7.07038E-04-5.85640E-14
 -1      1677 1.10119E-02 6.31633E-04-5.91715E-14
 -1      1678 1.04635E-02 8.76859E-04-5.70685E-14
 -1      1679 1.06450E-02 7.94195E-04-5.78133E-14
 -1      1680 1.00772E-02 1.03087E-03-5.53661E-14
 -1      1681 1.02550E-02 9.66036E-04-5.61428E-14
 -1      1682 9.70597E-03 1.12134E-03-5.36772E-14
 -1      1683 9.87644E-03 1.08811E-03-5.44459E-14
 -1      1684 9.30968E-03 1.13629E-03-5.18765E-14
 -1      1685 9.49429E-03 1.14284E-03-5.27177E-14
 -1      1686 8.90288E-03 1.05109E-03-5.01087E-14
 -1      1687 9.08952E-03 1.10287E-03-5.08901E-14
 -1      1688 8.49030E-03 8.84684E-04-4.85136E-14
 -1      1689 8.68017E-03 9.68366E-04-4.91988E-14
 -1      1690 8.07079E-03 7.04831E-04-4.73756E-14
 -1      1691 8.24866E-03 7.90751E-04-4.78993E-14
 -1      1692 7.70265E-03 5.23270E-04-4.64188E-14
 -1      1693 7.86864E-03 6.06120E-04-4.68284E-14
 -1      1694 7.39587E-03 3.65469E-04-4.57588E-14
 -1      1695 7.52753E-03 4.34604E-04-4.60238E-14
 -1      1696 7.19622E-03 2.38671E-04-4.54066E-14
 -1      1697 7.27404E-03 2.90721E-04-4.55069E-14
 -1      1698 7.12621E-03 1.41793E-04-4.54348E-14
 -1      1699 7.14168E-03 1.83916E-04-4.53792E-14
 -1      1700 7.19419E-03 4.49857E-05-4.57803E-14
 -1      1701 7.14458E-03 9.08842E-05-4.55592E-14
 -1      1702 7.38148E-03-7.35019E-05-4.65399E-14
 -1      1703 7.28279E-03-1.94841E-05-4.61922E-14
 -1      1704 7.68279E-03-2.15625E-04-4.75298E-14
 -1      1705 7.53040E-03-1.43276E-04-4.70125E-14
 -1      1706 8.03094E-03-3.80511E-04-4.88117E-14
 -1      1707 7.86643E-03-3.06005E-04-4.82161E-14
 -1      1708 8.40723E-03-5.38449E-04-5.02702E-14
 -1      1709 8.23062E-03-4.66648E-04-4.95696E-14
 -1      1710 8.77736E-03-6.61924E-04-5.18358E-14
 -1      1711 8.60938E-03-6.10442E-04-5.11074E-14
 -1      1712 9.20249E-03-7.38060E-04-5.37473E-14
 -1      1713 9.00339E-03-7.13902E-04-5.28099E-14
 -1      1714 9.59869E-03-7.09220E-04-5.55531E-14
 -1      1715 9.42377E-03-7.30858E-04-5.47649E-14
 -1      1716 9.98829E-03-6.04592E-04-5.72945E-14
 -1      1717 9.80447E-03-6.64139E-04-5.65143E-14
 -1      1718 1.04056E-02-4.25798E-04-5.89937E-14
 -1      1719 1.02081E-02-5.14516E-04-5.82619E-14
 -1      1720 1.08467E-02-2.41131E-04-6.02089E-14
 -1      1721 1.06580E-02-3.30412E-04-5.96396E-14
 -1      1722 1.12134E-02-5.20056E-05-6.12767E-14
 -1      1723 1.10483E-02-1.31924E-04-6.08718E-14
 -1      1724 1.14839E-02 8.00623E-05-6.17315E-14
 -1      1725 1.13774E-02 2.02848E-05-6.15361E-14
 -1      1726 1.16173E-02 1.94021E-04-6.18518E-14
 -1      1727 1.15734E-02 1.43722E-04-6.18487E-14
 -1      1728 1.06873E-02 7.13105E-04-5.85551E-14
 -1      1729 1.10562E-02 5.24413E-04-6.01365E-14
 -1      1730 1.52604E-02 1.18200E-03-1.15895E-13
 -1      1731 1.51297E-02 1.14859E-03-1.14404E-13
 -1      1732 1.15699E-02 2.94827E-04-6.21115E-14
 -1      1733 1.13627E-02 3.86897E-04-6.13323E-14
 -1      1734 1.16322E-02 2.27028E-04-6.25502E-14
 -1      1735 1.03003E-02 9.06006E-04-5.68726E-14
 -1      1736 9.93503E-03 1.06943E-03-5.50230E-14
 -1      1737 9.57916E-03 1.15824E-03-5.31434E-14
 -1      1738 9.22305E-03 1.14440E-03-5.12014E-14
 -1      1739 8.84840E-03 1.01415E-03-4.93156E-14
 -1      1740 8.44531E-03 8.14266E-04-4.78077E-14
 -1      1741 8.02649E-03 6.08119E-04-4.66575E-14
 -1      1742 7.65158E-03 4.22532E-04-4.57253E-14
 -1      1743 7.34770E-03 2.79078E-04-4.50849E-14
 -1      1744 7.16406E-03 1.86438E-04-4.48069E-14
 -1      1745 7.12623E-03 1.21545E-04-4.48999E-14
 -1      1746 7.23891E-03 4.98765E-05-4.54267E-14
 -1      1747 7.48282E-03-5.99873E-05-4.63022E-14
 -1      1748 7.81730E-03-2.10967E-04-4.74506E-14
 -1      1749 8.19028E-03-3.93216E-04-4.88865E-14
 -1      1750 8.56206E-03-5.67043E-04-5.04750E-14
 -1      1751 8.93928E-03-7.06452E-04-5.22819E-14
 -1      1752 9.30160E-03-7.61627E-04-5.42744E-14
 -1      1753 9.66958E-03-7.04309E-04-5.62593E-14
 -1      1754 1.00400E-02-5.52728E-04-5.81961E-14
 -1      1755 1.04611E-02-3.43760E-04-5.98239E-14
 -1      1756 1.09006E-02-1.31372E-04-6.11430E-14
 -1      1757 1.12700E-02 3.70296E-05-6.20756E-14
 -1      1758 1.15297E-02 1.47212E-04-6.24549E-14
 -1      1759 2.85021E-04-1.76209E-04-6.17047E-17
 -1      1760 3.32167E-04-1.16807E-04-1.72090E-16
 -1      1761 3.36255E-04-1.33048E-04-1.63742E-16
 -1      1762 3.42081E-04-1.52028E-04-1.52940E-16
 -1      1763 3.51576E-04-1.74014E-04-1.37016E-16
 -1      1764 4.58196E-04-1.88061E-04-2.37901E-16
 -1      1765 3.24686E-04-6.54014E-05-1.86469E-16
 -1      1766 3.25792E-04-7.67040E-05-1.84884E-16
 -1      1767 3.23241E-04-4.39012E-05-1.87215E-16
 -1      1768 3.23873E-04-5.43949E-05-1.87282E-16
 -1      1769 4.36692E-04-7.92764E-05-2.75292E-16
 -1      1770 3.22488E-04-2.37764E-05-1.85575E-16
 -1      1771 3.22807E-04-3.36930E-05-1.86632E-16
 -1      1772 4.34751E-04-5.13068E-05-2.75292E-16
 -1      1773 3.22207E-04-4.33715E-06-1.81997E-16
 -1      1774 3.22300E-04-1.39915E-05-1.84043E-16
 -1      1775 4.33766E-04-2.49164E-05-2.72175E-16
 -1      1776 3.22324E-04 1.49845E-05-1.76996E-16
 -1      1777 3.22215E-04 5.32033E-06-1.79788E-16
 -1      1778 4.33478E-04 7.58460E-07-2.66646E-16
 -1      1779 3.22868E-04 3.47381E-05-1.69596E-16
 -1      1780 3.22529E-04 2.47897E-05-1.73716E-16
 -1      1781 4.33821E-04 2.64615E-05-2.58609E-16
 -1      1782 3.23957E-04 5.51822E-05-1.59418E-16
 -1      1783 3.23316E-04 4.48161E-05-1.65124E-16
 -1      1784 4.34863E-04 5.27129E-05-2.47320E-16
 -1      1785 3.25955E-04 7.78412E-05-1.45798E-16
 -1      1786 3.24789E-04 6.62565E-05-1.53428E-16
 -1      1787 4.36859E-04 8.05921E-05-2.32182E-16
 -1      1788 3.29564E-04 1.03684E-04-1.26662E-16
 -1      1789 3.27458E-04 9.03322E-05-1.37152E-16
 -1      1790 4.40422E-04 1.11563E-04-2.11325E-16
 -1      1791 3.36500E-04 1.35136E-04-9.97737E-17
 -1      1792 3.32369E-04 1.18643E-04-1.14722E-16
 -1      1793 4.46778E-04 1.47330E-04-1.82783E-16
 -1      1794 3.52112E-04 1.77603E-04-6.18808E-17
 -1      1795 3.42675E-04 1.54775E-04-8.27788E-17
 -1      1796 4.59172E-04 1.91437E-04-1.43440E-16
 -1      1797 4.07404E-04 2.33641E-04-3.30546E-17
 -1      1798 3.77852E-04 2.02643E-04-5.11472E-17
 -1      1799 4.95577E-04 2.43940E-04-1.07065E-16
 -1      1800 5.58138E-04 3.02398E-04-7.59619E-17
 -1      1801 3.39788E-04-1.90893E-04-1.02891E-16
 -1      1802 8.52931E-04 4.06813E-04-2.42875E-16
 -1      1803 7.06642E-04 3.59185E-04-1.46164E-16
 -1      1804 6.72961E-04 3.28648E-04-1.66127E-16
 -1      1805 4.58669E-04-2.36671E-04-1.78948E-16
 -1      1806 8.06693E-04-3.73848E-04-4.69094E-16
 -1      1807 9.51860E-04-4.14890E-04-6.50969E-16
 -1      1808 1.09460E-03-4.49400E-04-8.64827E-16
 -1      1809 1.23619E-03-4.78086E-04-1.11144E-15
 -1      1810 1.00339E-03-3.97443E-04-7.89597E-16
 -1      1811 1.37650E-03-5.02317E-04-1.38965E-15
 -1      1812 1.51611E-03-5.22385E-04-1.70025E-15
 -1      1813 1.28896E-03-4.54988E-04-1.28638E-15
 -1      1814 1.65520E-03-5.39202E-04-2.04254E-15
 -1      1815 1.79398E-03-5.53002E-04-2.41577E-15
 -1      1816 1.57126E-03-4.95323E-04-1.90952E-15
 -1      1817 1.93266E-03-5.64382E-04-2.82023E-15
 -1      1818 2.07129E-03-5.73543E-04-3.25528E-15
 -1      1819 1.85181E-03-5.23012E-04-2.65733E-15
 -1      1820 2.21005E-03-5.80889E-04-3.72114E-15
 -1      1821 2.34892E-03-5.86587E-04-4.21683E-15
 -1      1822 2.13172E-03-5.41334E-04-3.52718E-15
 -1      1823 2.48805E-03-5.90917E-04-4.74225E-15
 -1      1824 2.62739E-03-5.94015E-04-5.29756E-15
 -1      1825 2.41172E-03-5.52674E-04-4.51691E-15
 -1      1826 2.76705E-03-5.96075E-04-5.88265E-15
 -1      1827 2.90700E-03-5.97205E-04-6.49625E-15
 -1      1828 2.69225E-03-5.58779E-04-5.62422E-15
 -1      1829 3.04730E-03-5.97540E-04-7.13878E-15
 -1      1830 3.18792E-03-5.97164E-04-7.80956E-15
 -1      1831 2.97360E-03-5.60930E-04-6.84808E-15
 -1      1832 3.32892E-03-5.96167E-04-8.50795E-15
 -1      1833 3.47029E-03-5.94616E-04-9.23466E-15
 -1      1834 3.25597E-03-5.60054E-04-8.18509E-15
 -1      1835 3.61205E-03-5.92569E-04-9.98844E-15
 -1      1836 3.75422E-03-5.90082E-04-1.07687E-14
 -1      1837 3.53949E-03-5.56815E-04-9.63265E-15
 -1      1838 3.89683E-03-5.87194E-04-1.15747E-14
 -1      1839 4.03989E-03-5.83956E-04-1.24073E-14
 -1      1840 3.82432E-03-5.51692E-04-1.11875E-14
 -1      1841 4.18343E-03-5.80397E-04-1.32661E-14
 -1      1842 4.32749E-03-5.76571E-04-1.41509E-14
 -1      1843 4.11060E-03-5.45046E-04-1.28470E-14
 -1      1844 4.47210E-03-5.72510E-04-1.50614E-14
 -1      1845 4.61732E-03-5.68277E-04-1.59968E-14
 -1      1846 4.39856E-03-5.37196E-04-1.46109E-14
 -1      1847 4.76316E-03-5.63922E-04-1.69591E-14
 -1      1848 4.90972E-03-5.59527E-04-1.79466E-14
 -1      1849 4.68844E-03-5.28496E-04-1.64781E-14
 -1      1850 5.05701E-03-5.55175E-04-1.89588E-14
 -1      1851 5.20514E-03-5.50975E-04-1.99970E-14
 -1      1852 4.98057E-03-5.19421E-04-1.84461E-14
 -1      1853 5.35412E-03-5.47063E-04-2.10619E-14
 -1      1854 5.50406E-03-5.43587E-04-2.21513E-14
 -1      1855 5.27534E-03-5.10672E-04-2.05171E-14
 -1      1856 5.65496E-03-5.40756E-04-2.32683E-14
 -1      1857 5.80696E-03-5.38766E-04-2.44121E-14
 -1      1858 5.57319E-03-5.03287E-04-2.26934E-14
 -1      1859 5.96004E-03-5.37919E-04-2.55822E-14
 -1      1860 6.11428E-03-5.38468E-04-2.67791E-14
 -1      1861 5.87461E-03-4.98771E-04-2.49738E-14
 -1      1862 6.26971E-03-5.40816E-04-2.80042E-14
 -1      1863 6.42630E-03-5.45272E-04-2.92566E-14
 -1      1864 6.18006E-03-4.99202E-04-2.73640E-14
 -1      1865 6.58413E-03-5.52325E-04-3.05346E-14
 -1      1866 6.74302E-03-5.62324E-04-3.18411E-14
 -1      1867 6.48997E-03-5.07301E-04-2.98610E-14
 -1      1868 6.90309E-03-5.75780E-04-3.31760E-14
 -1      1869 7.06392E-03-5.93029E-04-3.45376E-14
 -1      1870 6.80460E-03-5.26348E-04-3.24668E-14
 -1      1871 7.22575E-03-6.14471E-04-3.59262E-14
 -1      1872 7.38784E-03-6.40302E-04-3.73410E-14
 -1      1873 7.12389E-03-5.59830E-04-3.51818E-14
 -1      1874 7.55048E-03-6.70597E-04-3.87826E-14
 -1      1875 7.71267E-03-7.05213E-04-4.02469E-14
 -1      1876 7.44719E-03-6.10623E-04-3.80012E-14
 -1      1877 7.87470E-03-7.43616E-04-4.17359E-14
 -1      1878 8.03541E-03-7.85051E-04-4.32467E-14
 -1      1879 7.77284E-03-6.79502E-04-4.09205E-14
 -1      1880 8.19497E-03-8.28156E-04-4.47799E-14
 -1      1881 8.35248E-03-8.71365E-04-4.63365E-14
 -1      1882 8.09796E-03-7.63013E-04-4.39324E-14
 -1      1883 8.50784E-03-9.12506E-04-4.79131E-14
 -1      1884 8.66092E-03-9.49360E-04-4.95099E-14
 -1      1885 8.41863E-03-8.51310E-04-4.70325E-14
 -1      1886 8.81138E-03-9.79428E-04-5.11273E-14
 -1      1887 8.96018E-03-1.00049E-03-5.27624E-14
 -1      1888 8.73140E-03-9.27699E-04-5.02152E-14
 -1      1889 9.10684E-03-1.01066E-03-5.44176E-14
 -1      1890 9.25336E-03-1.00870E-03-5.60912E-14
 -1      1891 9.03561E-03-9.72105E-04-5.34770E-14
 -1      1892 9.39916E-03-9.94217E-04-5.77834E-14
 -1      1893 9.54649E-03-9.67632E-04-5.94915E-14
 -1      1894 9.33494E-03-9.68732E-04-5.68160E-14
 -1      1895 9.69481E-03-9.30216E-04-6.12149E-14
 -1      1896 9.84565E-03-8.83823E-04-6.29553E-14
 -1      1897 9.63604E-03-9.14011E-04-6.02255E-14
 -1      1898 9.99858E-03-8.30785E-04-6.47090E-14
 -1      1899 1.01540E-02-7.73440E-04-6.64735E-14
 -1      1900 9.94441E-03-8.18555E-04-6.36977E-14
 -1      1901 1.03116E-02-7.14212E-04-6.82511E-14
 -1      1902 1.04709E-02-6.55030E-04-7.00359E-14
 -1      1903 1.02615E-02-7.01492E-04-6.72232E-14
 -1      1904 1.06318E-02-5.97673E-04-7.18281E-14
 -1      1905 1.07934E-02-5.43277E-04-7.36306E-14
 -1      1906 1.05848E-02-5.81892E-04-7.07901E-14
 -1      1907 1.09558E-02-4.92755E-04-7.54370E-14
 -1      1908 1.11180E-02-4.46509E-04-7.72484E-14
 -1      1909 1.09104E-02-4.73034E-04-7.43859E-14
 -1      1910 1.12802E-02-4.04719E-04-7.90643E-14
 -1      1911 1.14415E-02-3.67317E-04-8.08830E-14
 -1      1912 1.12349E-02-3.81226E-04-7.80039E-14
 -1      1913 1.16023E-02-3.34020E-04-8.27075E-14
 -1      1914 1.17619E-02-3.04535E-04-8.45363E-14
 -1      1915 1.15559E-02-3.07411E-04-8.16404E-14
 -1      1916 1.19206E-02-2.78372E-04-8.63713E-14
 -1      1917 1.20780E-02-2.55170E-04-8.82102E-14
 -1      1918 1.18724E-02-2.49449E-04-8.52936E-14
 -1      1919 1.22343E-02-2.34405E-04-9.00570E-14
 -1      1920 1.23893E-02-2.15733E-04-9.19111E-14
 -1      1921 1.21841E-02-2.03940E-04-8.89723E-14
 -1      1922 1.25431E-02-1.98687E-04-9.37702E-14
 -1      1923 1.26958E-02-1.82973E-04-9.56376E-14
 -1      1924 1.24911E-02-1.67344E-04-9.26741E-14
 -1      1925 1.28473E-02-1.68214E-04-9.75065E-14
 -1      1926 1.29977E-02-1.54171E-04-9.93828E-14
 -1      1927 1.27938E-02-1.36525E-04-9.64026E-14
 -1      1928 1.31471E-02-1.40559E-04-1.01263E-13
 -1      1929 1.32956E-02-1.27190E-04-1.03144E-13
 -1      1930 1.30926E-02-1.08933E-04-1.00148E-13
 -1      1931 1.34432E-02-1.13853E-04-1.05027E-13
 -1      1932 1.35901E-02-1.00399E-04-1.06910E-13
 -1      1933 1.33881E-02-8.25958E-05-1.03907E-13
 -1      1934 1.37362E-02-8.66788E-05-1.08795E-13
 -1      1935 1.38816E-02-7.25720E-05-1.10681E-13
 -1      1936 1.36808E-02-5.60213E-05-1.07670E-13
 -1      1937 1.40265E-02-5.79808E-05-1.12568E-13
 -1      1938 1.41709E-02-4.28065E-05-1.14455E-13
 -1      1939 1.39711E-02-2.80950E-05-1.11440E-13
 -1      1940 1.42991E-02-3.03585E-05-1.16153E-13
 -1      1941 1.44427E-02-1.39381E-05-1.18043E-13
 -1      1942 1.44995E-02 2.44857E-05-1.18426E-13
 -1      1943 1.42438E-02-1.29526E-06-1.15024E-13
 -1      1944 1.13776E-03 4.79451E-04-5.17815E-16
 -1      1945 9.96099E-04 4.46380E-04-3.66298E-16
 -1      1946 9.63836E-04 4.16964E-04-3.90584E-16
 -1      1947 1.41665E-03 5.30445E-04-9.04536E-16
 -1      1948 1.27760E-03 5.07262E-04-6.96871E-16
 -1      1949 1.24813E-03 4.79173E-04-7.24098E-16
 -1      1950 1.69283E-03 5.66048E-04-1.40588E-15
 -1      1951 1.55490E-03 5.49929E-04-1.14077E-15
 -1      1952 1.52823E-03 5.22815E-04-1.17018E-15
 -1      1953 1.96825E-03 5.90385E-04-2.02380E-15
 -1      1954 1.83054E-03 5.79458E-04-1.70016E-15
 -1      1955 1.80634E-03 5.52995E-04-1.73086E-15
 -1      1956 2.24402E-03 6.06346E-04-2.75818E-15
 -1      1957 2.10605E-03 5.99291E-04-2.37658E-15
 -1      1958 2.08389E-03 5.73247E-04-2.40818E-15
 -1      1959 2.52076E-03 6.16030E-04-3.60840E-15
 -1      1960 2.38225E-03 6.11883E-04-3.16888E-15
 -1      1961 2.36176E-03 5.86100E-04-3.20048E-15
 -1      1962 2.79881E-03 6.20977E-04-4.57195E-15
 -1      1963 2.65961E-03 6.19029E-04-4.07600E-15
 -1      1964 2.64044E-03 5.93402E-04-4.10654E-15
 -1      1965 3.07834E-03 6.22309E-04-5.64846E-15
 -1      1966 2.93838E-03 6.22046E-04-5.09609E-15
 -1      1967 2.92023E-03 5.96502E-04-5.12542E-15
 -1      1968 3.35948E-03 6.20834E-04-6.83488E-15
 -1      1969 3.21871E-03 6.21887E-04-6.22779E-15
 -1      1970 3.20132E-03 5.96375E-04-6.25589E-15
 -1      1971 3.64235E-03 6.17119E-04-8.13339E-15
 -1      1972 3.50070E-03 6.19229E-04-7.47045E-15
 -1      1973 3.48385E-03 5.93713E-04-7.49658E-15
 -1      1974 3.92710E-03 6.11565E-04-9.54190E-15
 -1      1975 3.78448E-03 6.14549E-04-8.82377E-15
 -1      1976 3.76795E-03 5.88998E-04-8.84826E-15
 -1      1977 4.21397E-03 6.04470E-04-1.10614E-14
 -1      1978 4.07025E-03 6.08189E-04-1.02874E-14
 -1      1979 4.05382E-03 5.82571E-04-1.03097E-14
 -1      1980 4.50328E-03 5.96100E-04-1.26915E-14
 -1      1981 4.35829E-03 6.00419E-04-1.18629E-14
 -1      1982 4.34171E-03 5.74697E-04-1.18829E-14
 -1      1983 4.79549E-03 5.86766E-04-1.44313E-14
 -1      1984 4.64898E-03 5.91519E-04-1.35477E-14
 -1      1985 4.63196E-03 5.65642E-04-1.35654E-14
 -1      1986 5.09121E-03 5.76926E-04-1.62814E-14
 -1      1987 4.94286E-03 5.81860E-04-1.53427E-14
 -1      1988 4.92503E-03 5.55754E-04-1.53578E-14
 -1      1989 5.39120E-03 5.67307E-04-1.82395E-14
 -1      1990 5.24061E-03 5.72015E-04-1.72465E-14
 -1      1991 5.22151E-03 5.45579E-04-1.72584E-14
 -1      1992 5.69635E-03 5.59078E-04-2.03065E-14
 -1      1993 5.54305E-03 5.62911E-04-1.92596E-14
 -1      1994 5.52210E-03 5.35997E-04-1.92685E-14
 -1      1995 6.00764E-03 5.54068E-04-2.24795E-14
 -1      1996 5.85113E-03 5.56016E-04-2.13798E-14
 -1      1997 5.82761E-03 5.28418E-04-2.13858E-14
 -1      1998 6.32608E-03 5.55039E-04-2.47506E-14
 -1      1999 6.16587E-03 5.53592E-04-2.36033E-14
 -1      2000 6.13895E-03 5.25024E-04-2.36063E-14
 -1      2001 6.65250E-03 5.65975E-04-2.71200E-14
 -1      2002 6.48822E-03 5.58978E-04-2.59237E-14
 -1      2003 6.45701E-03 5.29054E-04-2.59243E-14
 -1      2004 6.98735E-03 5.92288E-04-2.95807E-14
 -1      2005 6.81886E-03 5.76864E-04-2.83400E-14
 -1      2006 6.78260E-03 5.45090E-04-2.83370E-14
 -1      2007 7.33031E-03 6.40653E-04-3.21261E-14
 -1      2008 7.15792E-03 6.13352E-04-3.08414E-14
 -1      2009 7.11623E-03 5.79163E-04-3.08369E-14
 -1      2010 7.67979E-03 7.17962E-04-3.47578E-14
 -1      2011 7.50453E-03 6.75428E-04-3.34316E-14
 -1      2012 7.45784E-03 6.38344E-04-3.34238E-14
 -1      2013 8.03241E-03 8.28683E-04-3.74759E-14
 -1      2014 7.85624E-03 7.69231E-04-3.61067E-14
 -1      2015 7.80629E-03 7.29205E-04-3.60979E-14
 -1      2016 8.38263E-03 9.70001E-04-4.02824E-14
 -1      2017 8.20853E-03 8.96278E-04-3.88682E-14
 -1      2018 8.15850E-03 8.54312E-04-3.88588E-14
 -1      2019 8.72353E-03 1.12619E-03-4.31773E-14
 -1      2020 8.55489E-03 1.04794E-03-4.17190E-14
 -1      2021 8.50882E-03 1.00650E-03-4.17068E-14
 -1      2022 9.04978E-03 1.26615E-03-4.61619E-14
 -1      2023 8.88861E-03 1.20039E-03-4.46578E-14
 -1      2024 8.85002E-03 1.16296E-03-4.46440E-14
 -1      2025 9.36208E-03 1.35255E-03-4.92395E-14
 -1      2026 9.20693E-03 1.31783E-03-4.76880E-14
 -1      2027 9.17730E-03 1.28683E-03-4.76719E-14
 -1      2028 9.66944E-03 1.35967E-03-5.24029E-14
 -1      2029 9.51504E-03 1.36603E-03-5.08100E-14
 -1      2030 9.49381E-03 1.34093E-03-5.07916E-14
 -1      2031 9.98413E-03 1.29124E-03-5.56565E-14
 -1      2032 9.82476E-03 1.33328E-03-5.40200E-14
 -1      2033 9.81086E-03 1.31072E-03-5.39984E-14
 -1      2034 1.03137E-02 1.17677E-03-5.89868E-14
 -1      2035 1.01468E-02 1.23738E-03-5.73118E-14
 -1      2036 1.01394E-02 1.21391E-03-5.72882E-14
 -1      2037 1.06571E-02 1.05415E-03-6.23962E-14
 -1      2038 1.04841E-02 1.11467E-03-6.06821E-14
 -1      2039 1.04818E-02 1.08876E-03-6.06573E-14
 -1      2040 1.10081E-02 9.51177E-04-6.58688E-14
 -1      2041 1.08323E-02 9.99386E-04-6.41256E-14
 -1      2042 1.08326E-02 9.71249E-04-6.40980E-14
 -1      2043 1.13601E-02 8.80279E-04-6.93949E-14
 -1      2044 1.11846E-02 9.11664E-04-6.76249E-14
 -1      2045 1.11844E-02 8.82087E-04-6.75948E-14
 -1      2046 1.17080E-02 8.42154E-04-7.29767E-14
 -1      2047 1.15350E-02 8.57461E-04-7.11798E-14
 -1      2048 1.15319E-02 8.27130E-04-7.11460E-14
 -1      2049 1.20488E-02 8.31430E-04-7.66032E-14
 -1      2050 1.18795E-02 8.33808E-04-7.47845E-14
 -1      2051 1.18723E-02 8.03180E-04-7.47437E-14
 -1      2052 1.23812E-02 8.41058E-04-8.02661E-14
 -1      2053 1.22161E-02 8.34100E-04-7.84299E-14
 -1      2054 1.22046E-02 8.03459E-04-7.83857E-14
 -1      2055 1.27050E-02 8.64524E-04-8.39608E-14
 -1      2056 1.25442E-02 8.51375E-04-8.21101E-14
 -1      2057 1.25287E-02 8.20901E-04-8.20603E-14
 -1      2058 1.30210E-02 8.96635E-04-8.76743E-14
 -1      2059 1.28639E-02 8.79726E-04-8.58154E-14
 -1      2060 1.28453E-02 8.49535E-04-8.57608E-14
 -1      2061 1.33298E-02 9.33561E-04-9.14000E-14
 -1      2062 1.31762E-02 9.14654E-04-8.95357E-14
 -1      2063 1.31552E-02 8.84813E-04-8.94773E-14
 -1      2064 1.36327E-02 9.72596E-04-9.51325E-14
 -1      2065 1.34819E-02 9.52923E-04-9.32673E-14
 -1      2066 1.34593E-02 9.23464E-04-9.32068E-14
 -1      2067 1.39305E-02 1.01186E-03-9.88740E-14
 -1      2068 1.37822E-02 9.92271E-04-9.70021E-14
 -1      2069 1.37585E-02 9.63202E-04-9.69395E-14
 -1      2070 1.42244E-02 1.05002E-03-1.02620E-13
 -1      2071 1.40779E-02 1.03113E-03-1.00746E-13
 -1      2072 1.40537E-02 1.00244E-03-1.00682E-13
 -1      2073 1.45152E-02 1.08616E-03-1.06361E-13
 -1      2074 1.43701E-02 1.06838E-03-1.04491E-13
 -1      2075 1.43456E-02 1.04007E-03-1.04426E-13
 -1      2076 1.48036E-02 1.11966E-03-1.10097E-13
 -1      2077 1.46596E-02 1.10326E-03-1.08231E-13
 -1      2078 1.46350E-02 1.07531E-03-1.08167E-13
 -1      2079 1.50385E-02 1.14208E-03-1.13185E-13
 -1      2080 1.48951E-02 1.12686E-03-1.11318E-13
 -1      2081 1.48706E-02 1.09919E-03-1.11257E-13
 -1      2082 1.50535E-02 1.11294E-03-1.13701E-13
 -1      2083 1.49573E-02 8.83010E-04-1.14640E-13
 -1      2084 1.49680E-02 9.22651E-04-1.14398E-13
 -1      2085 1.49789E-02 9.62791E-04-1.14155E-13
 -1      2086 1.49901E-02 1.00337E-03-1.13915E-13
 -1      2087 1.48500E-02 9.29322E-04-1.12654E-13
 -1      2088 1.50152E-02 1.03724E-03-1.13929E-13
 -1      2089 1.50275E-02 1.07856E-03-1.13686E-13
 -1      2090 1.49361E-02 1.07175E-03-1.12462E-13
 -1      2091 1.48856E-02 1.00347E-03-1.12429E-13
 -1      2092 1.49362E-02 8.06428E-04-1.15107E-13
 -1      2093 1.49468E-02 8.44496E-04-1.14874E-13
 -1      2094 1.48292E-02 8.50684E-04-1.13131E-13
 -1      2095 1.49133E-02 7.30219E-04-1.15580E-13
 -1      2096 1.49250E-02 7.68140E-04-1.15344E-13
 -1      2097 1.48081E-02 7.73853E-04-1.13599E-13
 -1      2098 1.48878E-02 6.55310E-04-1.16048E-13
 -1      2099 1.49009E-02 6.92650E-04-1.15815E-13
 -1      2100 1.47850E-02 6.97921E-04-1.14066E-13
 -1      2101 1.48588E-02 5.81130E-04-1.16512E-13
 -1      2102 1.48737E-02 6.18188E-04-1.16279E-13
 -1      2103 1.47588E-02 6.23093E-04-1.14531E-13
 -1      2104 1.48260E-02 5.07021E-04-1.16967E-13
 -1      2105 1.48429E-02 5.44128E-04-1.16740E-13
 -1      2106 1.47289E-02 5.48787E-04-1.14992E-13
 -1      2107 1.47896E-02 4.32327E-04-1.17412E-13
 -1      2108 1.48082E-02 4.69802E-04-1.17189E-13
 -1      2109 1.46951E-02 4.74367E-04-1.15443E-13
 -1      2110 1.47510E-02 3.57774E-04-1.17847E-13
 -1      2111 1.47706E-02 3.95229E-04-1.17628E-13
 -1      2112 1.46580E-02 3.99868E-04-1.15883E-13
 -1      2113 1.47098E-02 2.80377E-04-1.18289E-13
 -1      2114 1.47306E-02 3.19294E-04-1.18070E-13
 -1      2115 1.46182E-02 3.24160E-04-1.16319E-13
 -1      2116 1.46682E-02 2.01187E-04-1.18725E-13
 -1      2117 1.46890E-02 2.41006E-04-1.18508E-13
 -1      2118 1.45764E-02 2.46221E-04-1.16758E-13
 -1      2119 1.46274E-02 1.20191E-04-1.19154E-13
 -1      2120 1.46476E-02 1.60895E-04-1.18940E-13
 -1      2121 1.45345E-02 1.66509E-04-1.17191E-13
 -1      2122 1.13036E-02 3.70493E-04-6.19393E-14
 -1      2123 1.14337E-02 3.28133E-04-6.23090E-14
 -1      2124 1.16393E-02 2.38307E-04-6.33543E-14
 -1      2125 1.16282E-02 2.20293E-04-6.33790E-14
 -1      2126 1.15314E-02 2.91041E-04-6.27303E-14
 -1      2127 1.16009E-02 2.65384E-04-6.31518E-14
 -1      2128 1.14917E-02 2.94230E-04-6.33442E-14
 -1      2129 1.09232E-02 5.48140E-04-6.01547E-14
 -1      2130 1.10916E-02 4.62622E-04-6.09851E-14
 -1      2131 1.05625E-02 7.32062E-04-5.86344E-14
 -1      2132 1.07471E-02 6.36878E-04-5.93918E-14
 -1      2133 1.08131E-02 5.78682E-04-6.02346E-14
 -1      2134 3.27182E-04-8.90118E-05-1.82160E-16
 -1      2135 3.29257E-04-1.02157E-04-1.77863E-16
 -1      2136 4.46317E-04-1.45101E-04-2.59558E-16
 -1      2137 4.40088E-04-1.09938E-04-2.70779E-16
 -1      2138 9.82130E-03 1.11271E-03-5.46576E-14
 -1      2139 9.97366E-03 1.04488E-03-5.55794E-14
 -1      2140 9.51438E-03 1.18413E-03-5.27374E-14
 -1      2141 9.66351E-03 1.15963E-03-5.36949E-14
 -1      2142 9.73749E-03 1.14498E-03-5.42454E-14
 -1      2143 9.17082E-03 1.14140E-03-5.05322E-14
 -1      2144 9.32492E-03 1.18024E-03-5.15119E-14
 -1      2145 8.80060E-03 9.70989E-04-4.85664E-14
 -1      2146 8.97313E-03 1.06340E-03-4.94653E-14
 -1      2147 8.36464E-03 7.28342E-04-4.69703E-14
 -1      2148 8.55980E-03 8.36663E-04-4.75715E-14
 -1      2149 7.98794E-03 5.27424E-04-4.58938E-14
 -1      2150 8.17612E-03 6.28631E-04-4.64306E-14
 -1      2151 8.29042E-03 6.59202E-04-4.61978E-14
 -1      2152 7.59677E-03 3.40186E-04-4.49264E-14
 -1      2153 7.76967E-03 4.17766E-04-4.53130E-14
 -1      2154 7.30305E-03 2.19654E-04-4.42815E-14
 -1      2155 7.42980E-03 2.66990E-04-4.45299E-14
 -1      2156 7.13621E-03 1.57554E-04-4.41661E-14
 -1      2157 7.19350E-03 1.79804E-04-4.41954E-14
 -1      2158 7.13198E-03 1.17813E-04-4.42138E-14
 -1      2159 7.11328E-03 1.33008E-04-4.40962E-14
 -1      2160 7.29744E-03 5.51144E-05-4.49518E-14
 -1      2161 7.20408E-03 8.68895E-05-4.45498E-14
 -1      2162 7.56132E-03-4.52468E-05-4.58744E-14
 -1      2163 7.41525E-03 9.37377E-06-4.54117E-14
 -1      2164 7.35387E-03 4.92237E-05-4.45285E-14
 -1      2165 7.94625E-03-2.23055E-04-4.73283E-14
 -1      2166 7.76941E-03-1.37341E-04-4.66505E-14
 -1      2167 8.32257E-03-4.17734E-04-4.88883E-14
 -1      2168 8.14591E-03-3.23758E-04-4.81379E-14
 -1      2169 8.68387E-03-6.03674E-04-5.06417E-14
 -1      2170 8.52054E-03-5.19699E-04-4.98095E-14
 -1      2171 9.02752E-03-7.39601E-04-5.25907E-14
 -1      2172 8.86234E-03-6.80047E-04-5.16178E-14
 -1      2173 9.39381E-03-7.75194E-04-5.49588E-14
 -1      2174 9.23820E-03-7.79052E-04-5.39375E-14
 -1      2175 9.69903E-03-6.93856E-04-5.68858E-14
 -1      2176 9.54769E-03-7.47251E-04-5.59199E-14
 -1      2177 9.45772E-03-7.72408E-04-5.55771E-14
 -1      2178 1.00749E-02-5.03450E-04-5.90779E-14
 -1      2179 9.89810E-03-6.03543E-04-5.80997E-14
 -1      2180 1.05472E-02-2.49815E-04-6.08415E-14
 -1      2181 1.03370E-02-3.59817E-04-6.01831E-14
 -1      2182 1.09482E-02-4.60942E-05-6.21844E-14
 -1      2183 1.07508E-02-1.46160E-04-6.15118E-14
 -1      2184 1.06327E-02-1.73694E-04-6.18747E-14
 -1      2185 1.13401E-02 1.07235E-04-6.29549E-14
 -1      2186 1.11784E-02 4.93188E-05-6.26893E-14
 -1      2187 1.15710E-02 1.92964E-04-6.34298E-14
 -1      2188 1.14785E-02 1.62667E-04-6.33149E-14
 -1      2189 1.01636E-02 9.49018E-04-5.67043E-14
 -1      2190 1.03362E-02 8.49943E-04-5.76342E-14
 -1      2191 1.04311E-02 7.85546E-04-5.84645E-14
 -1      2192 6.07498E-04-2.98009E-04-2.87070E-16
 -1      2193 8.69464E-03 8.99743E-04-4.77198E-14
 -1      2194 8.80139E-03 9.57935E-04-4.78630E-14
 -1      2195 8.59076E-03 8.25926E-04-4.68791E-14
 -1      2196 1.00527E-02 1.00111E-03-5.63344E-14
 -1      2197 6.63273E-04-2.92274E-04-3.79322E-16
 -1      2198 1.16315E-02 2.49843E-04-6.39772E-14
 -1      2199 1.10975E-02 4.34706E-04-6.19735E-14
 -1      2200 1.11995E-02 3.98990E-04-6.19575E-14
 -1      2201 1.12980E-02 3.55386E-04-6.29364E-14
 -1      2202 1.45698E-02 8.22707E-05-1.18771E-13
 -1      2203 1.16065E-02 2.17058E-04-6.42353E-14
 -1      2204 1.10533E-02 2.53492E-05-6.30594E-14
 -1      2205 1.09383E-02-8.27676E-06-6.34254E-14
 -1      2206 1.11517E-02 7.96966E-05-6.39360E-14
 -1      2207 9.77357E-03-6.57533E-04-5.77552E-14
 -1      2208 9.13981E-03-7.73274E-04-5.32639E-14
 -1      2209 9.05283E-03-7.53663E-04-5.25922E-14
 -1      2210 9.22809E-03-7.91192E-04-5.39403E-14
 -1      2211 8.78580E-03-6.44280E-04-5.09441E-14
 -1      2212 8.44013E-03-4.62369E-04-4.90514E-14
 -1      2213 7.66657E-03-7.13202E-05-4.57527E-14
 -1      2214 7.15851E-03 1.07654E-04-4.37433E-14
 -1      2215 7.11556E-03 1.38001E-04-4.34841E-14
 -1      2216 7.24635E-03 1.83906E-04-4.36407E-14
 -1      2217 7.89851E-03 4.50504E-04-4.50870E-14
 -1      2218 9.42650E-03 1.19563E-03-5.20548E-14
 -1      2219 9.09154E-03 1.11237E-03-4.97692E-14
 -1      2220 7.52133E-03 2.78904E-04-4.41185E-14
 -1      2221 8.06372E-03-2.59054E-04-4.73284E-14
 -1      2222 1.01895E-02-4.23331E-04-6.00848E-14
 -1      2223 1.00733E-02-4.84557E-04-5.99839E-14
 -1      2224 1.03028E-02-3.44584E-04-6.11004E-14
 -1      2225 1.14130E-02 1.58657E-04-6.39272E-14
 -1      2226 1.01606E-03 3.99344E-04-5.18425E-16
 -1      2227 8.71670E-04 3.63118E-04-3.72098E-16
 -1      2228 5.48095E-04-5.52694E-05-3.89594E-16
 -1      2229 5.49104E-04-7.19801E-05-3.90719E-16
 -1      2230 5.50488E-04-8.92971E-05-3.90882E-16
 -1      2231 5.52317E-04-1.07269E-04-3.89662E-16
 -1      2232 6.65606E-04-9.54059E-05-5.28901E-16
 -1      2233 5.46750E-04 8.85273E-06-3.75798E-16
 -1      2234 5.46731E-04-6.97491E-06-3.80460E-16
 -1      2235 5.47484E-04 4.08456E-05-3.63682E-16
 -1      2236 5.46998E-04 2.47795E-05-3.70363E-16
 -1      2237 6.61748E-04 1.99104E-05-5.05306E-16
 -1      2238 5.49266E-04 7.34549E-05-3.47514E-16
 -1      2239 5.48229E-04 5.69681E-05-3.56364E-16
 -1      2240 6.63044E-04 5.77299E-05-4.88487E-16
 -1      2241 5.52582E-04 1.08920E-04-3.25193E-16
 -1      2242 5.50700E-04 9.08484E-05-3.37133E-16
 -1      2243 6.65844E-04 9.71710E-05-4.65516E-16
 -1      2244 5.58352E-04 1.48249E-04-2.95066E-16
 -1      2245 5.55092E-04 1.28027E-04-3.11288E-16
 -1      2246 6.70837E-04 1.39921E-04-4.34630E-16
 -1      2247 5.68533E-04 1.93838E-04-2.54909E-16
 -1      2248 5.62772E-04 1.70126E-04-2.76580E-16
 -1      2249 6.79345E-04 1.87450E-04-3.93931E-16
 -1      2250 1.30139E-03 4.55850E-04-8.92786E-16
 -1      2251 1.15913E-03 4.30147E-04-6.91653E-16
 -1      2252 1.07137E-03 3.80794E-04-6.54004E-16
 -1      2253 9.14824E-04-3.46028E-04-7.13283E-16
 -1      2254 1.05885E-03-3.79149E-04-9.32712E-16
 -1      2255 1.20210E-03-4.07328E-04-1.18315E-15
 -1      2256 1.34486E-03-4.30958E-04-1.46497E-15
 -1      2257 1.11667E-03-3.59820E-04-1.08029E-15
 -1      2258 1.48699E-03-4.50872E-04-1.77771E-15
 -1      2259 1.62874E-03-4.67347E-04-2.12155E-15
 -1      2260 1.40300E-03-4.06167E-04-1.64693E-15
 -1      2261 1.77015E-03-4.81045E-04-2.49564E-15
 -1      2262 1.91134E-03-4.92182E-04-2.90023E-15
 -1      2263 1.68810E-03-4.38676E-04-2.33537E-15
 -1      2264 2.05238E-03-5.01240E-04-3.33486E-15
 -1      2265 2.19334E-03-5.08389E-04-3.79926E-15
 -1      2266 1.97232E-03-4.60722E-04-3.14443E-15
 -1      2267 2.33431E-03-5.13975E-04-4.29302E-15
 -1      2268 2.47530E-03-5.18135E-04-4.81651E-15
 -1      2269 2.25605E-03-4.74884E-04-4.07184E-15
 -1      2270 2.61639E-03-5.21116E-04-5.36854E-15
 -1      2271 2.75758E-03-5.23026E-04-5.95005E-15
 -1      2272 2.53965E-03-4.83115E-04-5.11584E-15
 -1      2273 2.89892E-03-5.24039E-04-6.56053E-15
 -1      2274 3.04042E-03-5.24239E-04-7.19872E-15
 -1      2275 2.82339E-03-4.86876E-04-6.27543E-15
 -1      2276 3.18211E-03-5.23746E-04-7.86471E-15
 -1      2277 3.32400E-03-5.22624E-04-8.55875E-15
 -1      2278 3.10748E-03-4.87237E-04-7.54792E-15
 -1      2279 3.46612E-03-5.20954E-04-9.28012E-15
 -1      2280 3.60847E-03-5.18787E-04-1.00290E-14
 -1      2281 3.39205E-03-4.84968E-04-8.93128E-15
 -1      2282 3.75108E-03-5.16175E-04-1.08037E-14
 -1      2283 3.89396E-03-5.13161E-04-1.16045E-14
 -1      2284 3.67724E-03-4.80616E-04-1.04225E-14
 -1      2285 4.03713E-03-5.09784E-04-1.24314E-14
 -1      2286 4.18063E-03-5.06083E-04-1.32848E-14
 -1      2287 3.96316E-03-4.74573E-04-1.20194E-14
 -1      2288 4.32445E-03-5.02093E-04-1.41645E-14
 -1      2289 4.46865E-03-4.97858E-04-1.50693E-14
 -1      2290 4.24994E-03-4.67150E-04-1.37202E-14
 -1      2291 4.61323E-03-4.93423E-04-1.59993E-14
 -1      2292 4.75827E-03-4.88845E-04-1.69556E-14
 -1      2293 4.53775E-03-4.58640E-04-1.55247E-14
 -1      2294 4.90375E-03-4.84192E-04-1.79374E-14
 -1      2295 5.04977E-03-4.79542E-04-1.89436E-14
 -1      2296 4.82678E-03-4.49407E-04-1.74302E-14
 -1      2297 5.19632E-03-4.75003E-04-1.99767E-14
 -1      2298 5.34350E-03-4.70688E-04-2.10359E-14
 -1      2299 5.11729E-03-4.39966E-04-1.94398E-14
 -1      2300 5.49133E-03-4.66761E-04-2.21212E-14
 -1      2301 5.63991E-03-4.63383E-04-2.32323E-14
 -1      2302 5.40963E-03-4.31087E-04-2.15522E-14
 -1      2303 5.78926E-03-4.60791E-04-2.43700E-14
 -1      2304 5.93950E-03-4.59209E-04-2.55348E-14
 -1      2305 5.70424E-03-4.23912E-04-2.37698E-14
 -1      2306 6.09066E-03-4.58958E-04-2.67260E-14
 -1      2307 6.24285E-03-4.60341E-04-2.79456E-14
 -1      2308 6.00170E-03-4.20075E-04-2.60940E-14
 -1      2309 6.39617E-03-4.63757E-04-2.91923E-14
 -1      2310 6.55064E-03-4.69601E-04-3.04643E-14
 -1      2311 6.30282E-03-4.21810E-04-2.85265E-14
 -1      2312 6.70647E-03-4.78317E-04-3.17641E-14
 -1      2313 6.86353E-03-4.90378E-04-3.30908E-14
 -1      2314 6.60858E-03-4.32014E-04-3.10666E-14
 -1      2315 7.02216E-03-5.06197E-04-3.44432E-14
 -1      2316 7.18201E-03-5.26263E-04-3.58220E-14
 -1      2317 6.92018E-03-4.54182E-04-3.37109E-14
 -1      2318 7.34352E-03-5.50820E-04-3.72278E-14
 -1      2319 7.50600E-03-5.80197E-04-3.86580E-14
 -1      2320 7.23873E-03-4.92090E-04-3.64605E-14
 -1      2321 7.66991E-03-6.14258E-04-4.01118E-14
 -1      2322 7.83422E-03-6.52859E-04-4.15903E-14
 -1      2323 7.56472E-03-5.48921E-04-3.93102E-14
 -1      2324 7.99920E-03-6.95236E-04-4.30903E-14
 -1      2325 8.16356E-03-7.40276E-04-4.46125E-14
 -1      2326 7.89702E-03-6.25542E-04-4.22547E-14
 -1      2327 8.32726E-03-7.86407E-04-4.61577E-14
 -1      2328 8.48922E-03-8.31185E-04-4.77229E-14
 -1      2329 8.23186E-03-7.17578E-04-4.52886E-14
 -1      2330 8.64904E-03-8.72290E-04-4.93103E-14
 -1      2331 8.80671E-03-9.06430E-04-5.09167E-14
 -1      2332 8.56298E-03-8.11879E-04-4.84100E-14
 -1      2333 8.96158E-03-9.31221E-04-5.25432E-14
 -1      2334 9.11524E-03-9.43731E-04-5.41887E-14
 -1      2335 8.88477E-03-8.85974E-04-5.16131E-14
 -1      2336 9.26704E-03-9.42675E-04-5.58526E-14
 -1      2337 9.41972E-03-9.27318E-04-5.75373E-14
 -1      2338 9.19702E-03-9.14537E-04-5.48951E-14
 -1      2339 9.57266E-03-8.98175E-04-5.92392E-14
 -1      2340 9.72813E-03-8.57258E-04-6.09568E-14
 -1      2341 9.50687E-03-8.82528E-04-5.82532E-14
 -1      2342 9.88548E-03-8.06540E-04-6.26908E-14
 -1      2343 1.00455E-02-7.49412E-04-6.44390E-14
 -1      2344 9.82351E-03-7.95546E-04-6.16862E-14
 -1      2345 1.02075E-02-6.88341E-04-6.61990E-14
 -1      2346 1.03710E-02-6.26287E-04-6.79719E-14
 -1      2347 1.01505E-02-6.75631E-04-6.51774E-14
 -1      2348 1.05357E-02-5.65219E-04-6.97532E-14
 -1      2349 1.07002E-02-5.06885E-04-7.15414E-14
 -1      2350 1.04844E-02-5.48151E-04-6.87165E-14
 -1      2351 1.08648E-02-4.52418E-04-7.33375E-14
 -1      2352 1.10282E-02-4.02370E-04-7.51397E-14
 -1      2353 1.08185E-02-4.30957E-04-7.22909E-14
 -1      2354 1.11909E-02-3.57148E-04-7.69463E-14
 -1      2355 1.13519E-02-3.16591E-04-7.87587E-14
 -1      2356 1.11477E-02-3.32290E-04-7.58907E-14
 -1      2357 1.15119E-02-2.80606E-04-8.05731E-14
 -1      2358 1.16701E-02-2.48744E-04-8.23928E-14
 -1      2359 1.14697E-02-2.53362E-04-7.95084E-14
 -1      2360 1.18271E-02-2.20645E-04-8.42219E-14
 -1      2361 1.19826E-02-1.95810E-04-8.60528E-14
 -1      2362 1.17843E-02-1.91772E-04-8.31472E-14
 -1      2363 1.21370E-02-1.73782E-04-8.78881E-14
 -1      2364 1.22900E-02-1.54118E-04-8.97317E-14
 -1      2365 1.20925E-02-1.43825E-04-8.68080E-14
 -1      2366 1.24420E-02-1.36375E-04-9.15817E-14
 -1      2367 1.25929E-02-1.20192E-04-9.34370E-14
 -1      2368 1.23955E-02-1.05749E-04-9.04893E-14
 -1      2369 1.27428E-02-1.05190E-04-9.52983E-14
 -1      2370 1.28919E-02-9.10911E-05-9.71645E-14
 -1      2371 1.26943E-02-7.42357E-05-9.41966E-14
 -1      2372 1.30402E-02-7.75914E-05-9.90346E-14
 -1      2373 1.31878E-02-6.44832E-05-1.00912E-13
 -1      2374 1.29899E-02-4.65955E-05-9.79251E-14
 -1      2375 1.33346E-02-5.15347E-05-1.02788E-13
 -1      2376 1.34809E-02-3.85879E-05-1.04665E-13
 -1      2377 1.32829E-02-2.07440E-05-1.01670E-13
 -1      2378 1.36266E-02-2.54733E-05-1.06547E-13
 -1      2379 1.37719E-02-1.20666E-05-1.08428E-13
 -1      2380 1.35739E-02 4.89545E-06-1.05422E-13
 -1      2381 1.39166E-02 1.75024E-06-1.10311E-13
 -1      2382 1.40609E-02 1.60791E-05-1.12196E-13
 -1      2383 1.38631E-02 3.15040E-05-1.09183E-13
 -1      2384 1.14543E-02 3.02238E-04-6.39506E-14
 -1      2385 1.15433E-02 2.78600E-04-6.43801E-14
 -1      2386 1.86438E-03 5.22836E-04-1.98021E-15
 -1      2387 1.72418E-03 5.10565E-04-1.66536E-15
 -1      2388 2.14446E-03 5.40907E-04-2.69615E-15
 -1      2389 2.00446E-03 5.32891E-04-2.32406E-15
 -1      2390 1.92400E-03 4.91980E-04-2.23564E-15
 -1      2391 2.42463E-03 5.52087E-04-3.52546E-15
 -1      2392 2.28452E-03 5.47257E-04-3.09637E-15
 -1      2393 2.20617E-03 5.07943E-04-2.98935E-15
 -1      2394 2.70534E-03 5.58090E-04-4.46779E-15
 -1      2395 2.56491E-03 5.55659E-04-3.98278E-15
 -1      2396 2.48829E-03 5.17534E-04-3.85569E-15
 -1      2397 2.98685E-03 5.60166E-04-5.52226E-15
 -1      2398 2.84599E-03 5.59561E-04-4.98089E-15
 -1      2399 2.77071E-03 5.22324E-04-4.83367E-15
 -1      2400 3.26937E-03 5.59213E-04-6.68714E-15
 -1      2401 3.12798E-03 5.60025E-04-6.09136E-15
 -1      2402 3.05370E-03 5.23462E-04-5.92302E-15
 -1      2403 3.55304E-03 5.55861E-04-7.96239E-15
 -1      2404 3.41106E-03 5.57805E-04-7.31067E-15
 -1      2405 3.33741E-03 5.21765E-04-7.12246E-15
 -1      2406 3.83802E-03 5.50545E-04-9.34757E-15
 -1      2407 3.69536E-03 5.53424E-04-8.64129E-15
 -1      2408 3.62200E-03 5.17804E-04-8.43162E-15
 -1      2409 4.12449E-03 5.43573E-04-1.08433E-14
 -1      2410 3.98105E-03 5.47246E-04-1.00815E-14
 -1      2411 3.90761E-03 5.11970E-04-9.85036E-15
 -1      2412 4.41268E-03 5.35193E-04-1.24488E-14
 -1      2413 4.26834E-03 5.39539E-04-1.16319E-14
 -1      2414 4.19439E-03 5.04541E-04-1.13797E-14
 -1      2415 4.70289E-03 5.25669E-04-1.41645E-14
 -1      2416 4.55750E-03 5.30549E-04-1.32932E-14
 -1      2417 4.48255E-03 4.95753E-04-1.30190E-14
 -1      2418 4.99552E-03 5.15368E-04-1.59884E-14
 -1      2419 4.84885E-03 5.20580E-04-1.50624E-14
 -1      2420 4.77231E-03 4.85874E-04-1.47664E-14
 -1      2421 5.29104E-03 5.04882E-04-1.79217E-14
 -1      2422 5.14286E-03 5.10096E-04-1.69418E-14
 -1      2423 5.06399E-03 4.75297E-04-1.66226E-14
 -1      2424 5.59004E-03 4.95169E-04-1.99628E-14
 -1      2425 5.44003E-03 4.99850E-04-1.89280E-14
 -1      2426 5.35796E-03 4.64661E-04-1.85880E-14
 -1      2427 5.89320E-03 4.87756E-04-2.21116E-14
 -1      2428 5.74102E-03 4.91057E-04-2.10247E-14
 -1      2429 5.65468E-03 4.54997E-04-2.06616E-14
 -1      2430 6.20132E-03 4.84985E-04-2.43601E-14
 -1      2431 6.04655E-03 4.85616E-04-2.32236E-14
 -1      2432 5.95474E-03 4.47932E-04-2.28398E-14
 -1      2433 6.51529E-03 4.90302E-04-2.67066E-14
 -1      2434 6.35749E-03 4.86383E-04-2.55216E-14
 -1      2435 6.25890E-03 4.45928E-04-2.51181E-14
 -1      2436 6.83617E-03 5.08525E-04-2.91450E-14
 -1      2437 6.67482E-03 4.97457E-04-2.79139E-14
 -1      2438 6.56824E-03 4.52566E-04-2.74917E-14
 -1      2439 7.16507E-03 5.45930E-04-3.16710E-14
 -1      2440 6.99964E-03 5.24388E-04-3.03972E-14
 -1      2441 6.88422E-03 4.72801E-04-2.99544E-14
 -1      2442 7.50303E-03 6.09802E-04-3.42827E-14
 -1      2443 7.33307E-03 5.74069E-04-3.29651E-14
 -1      2444 7.20890E-03 5.13088E-04-3.25073E-14
 -1      2445 7.85031E-03 7.06785E-04-3.69847E-14
 -1      2446 7.67587E-03 6.53767E-04-3.56240E-14
 -1      2447 7.54464E-03 5.80969E-04-3.51476E-14
 -1      2448 8.20500E-03 8.39225E-04-3.97705E-14
 -1      2449 8.02741E-03 7.68724E-04-3.83666E-14
 -1      2450 7.89321E-03 6.83589E-04-3.78748E-14
 -1      2451 8.56094E-03 9.98411E-04-4.26444E-14
 -1      2452 8.38363E-03 9.16730E-04-4.11956E-14
 -1      2453 8.25317E-03 8.23770E-04-4.06859E-14
 -1      2454 8.90997E-03 1.15754E-03-4.56075E-14
 -1      2455 8.73726E-03 1.08048E-03-4.41149E-14
 -1      2456 8.61766E-03 9.90854E-04-4.35839E-14
 -1      2457 9.24432E-03 1.27442E-03-4.86627E-14
 -1      2458 9.07824E-03 1.22424E-03-4.71230E-14
 -1      2459 8.97410E-03 1.15391E-03-4.65740E-14
 -1      2460 9.56929E-03 1.30908E-03-5.18075E-14
 -1      2461 9.40635E-03 1.30364E-03-5.02239E-14
 -1      2462 9.31510E-03 1.26134E-03-4.96549E-14
 -1      2463 9.89693E-03 1.25408E-03-5.50441E-14
 -1      2464 9.73052E-03 1.29170E-03-5.34156E-14
 -1      2465 9.64736E-03 1.27274E-03-5.28306E-14
 -1      2466 1.02398E-02 1.13804E-03-5.83566E-14
 -1      2467 1.00664E-02 1.20045E-03-5.66901E-14
 -1      2468 9.98882E-03 1.18870E-03-5.60907E-14
 -1      2469 1.05939E-02 1.00693E-03-6.17472E-14
 -1      2470 1.04162E-02 1.07177E-03-6.00433E-14
 -1      2471 1.03467E-02 1.05551E-03-5.94279E-14
 -1      2472 1.09499E-02 8.94599E-04-6.52043E-14
 -1      2473 1.07726E-02 9.47169E-04-6.34677E-14
 -1      2474 1.07111E-02 9.22555E-04-6.28389E-14
 -1      2475 1.13004E-02 8.15881E-04-6.87148E-14
 -1      2476 1.11265E-02 8.50793E-04-6.69529E-14
 -1      2477 1.10701E-02 8.18840E-04-6.63104E-14
 -1      2478 1.16420E-02 7.72014E-04-7.22780E-14
 -1      2479 1.14726E-02 7.89906E-04-7.04912E-14
 -1      2480 1.14172E-02 7.52507E-04-6.98368E-14
 -1      2481 1.19741E-02 7.57346E-04-7.58847E-14
 -1      2482 1.18093E-02 7.61484E-04-7.40764E-14
 -1      2483 1.17515E-02 7.20243E-04-7.34093E-14
 -1      2484 1.22977E-02 7.64515E-04-7.95315E-14
 -1      2485 1.21369E-02 7.58636E-04-7.77032E-14
 -1      2486 1.20749E-02 7.14657E-04-7.70231E-14
 -1      2487 1.26138E-02 7.86684E-04-8.32096E-14
 -1      2488 1.24566E-02 7.74079E-04-8.13661E-14
 -1      2489 1.23897E-02 7.28223E-04-8.06767E-14
 -1      2490 1.29236E-02 8.18370E-04-8.69097E-14
 -1      2491 1.27694E-02 8.01606E-04-8.50584E-14
 -1      2492 1.26981E-02 7.54578E-04-8.43568E-14
 -1      2493 1.32279E-02 8.55492E-04-9.06255E-14
 -1      2494 1.30763E-02 8.36447E-04-8.87662E-14
 -1      2495 1.30013E-02 7.88820E-04-8.80566E-14
 -1      2496 1.35278E-02 8.95147E-04-9.43535E-14
 -1      2497 1.33784E-02 8.75142E-04-9.24900E-14
 -1      2498 1.33005E-02 8.27370E-04-9.17732E-14
 -1      2499 1.38239E-02 9.35314E-04-9.80869E-14
 -1      2500 1.36762E-02 9.15266E-04-9.62193E-14
 -1      2501 1.35964E-02 8.67696E-04-9.54980E-14
 -1      2502 1.41169E-02 9.74586E-04-1.01827E-13
 -1      2503 1.39707E-02 9.55135E-04-9.99557E-14
 -1      2504 1.38896E-02 9.08033E-04-9.92308E-14
 -1      2505 1.44074E-02 1.01197E-03-1.05573E-13
 -1      2506 1.42624E-02 9.93571E-04-1.03699E-13
 -1      2507 1.41806E-02 9.47147E-04-1.02972E-13
 -1      2508 1.46959E-02 1.04677E-03-1.09312E-13
 -1      2509 1.45519E-02 1.02974E-03-1.07442E-13
 -1      2510 1.44696E-02 9.84151E-04-1.06718E-13
 -1      2511 1.48447E-02 1.06463E-03-1.11238E-13
 -1      2512 1.46803E-02 7.40815E-04-1.12088E-13
 -1      2513 1.46910E-02 7.79119E-04-1.11854E-13
 -1      2514 1.46568E-02 6.65265E-04-1.12551E-13
 -1      2515 1.46689E-02 7.02898E-04-1.12319E-13
 -1      2516 1.45527E-02 7.07493E-04-1.10575E-13
 -1      2517 1.47214E-02 8.95314E-04-1.11150E-13
 -1      2518 1.47318E-02 9.35438E-04-1.10908E-13
 -1      2519 1.47013E-02 8.17500E-04-1.11619E-13
 -1      2520 1.47113E-02 8.56000E-04-1.11386E-13
 -1      2521 1.45932E-02 8.61169E-04-1.09641E-13
 -1      2522 1.45737E-02 7.83593E-04-1.10109E-13
 -1      2523 1.46300E-02 5.90664E-04-1.13014E-13
 -1      2524 1.46439E-02 6.27898E-04-1.12783E-13
 -1      2525 1.45289E-02 6.32455E-04-1.11038E-13
 -1      2526 1.45991E-02 5.16404E-04-1.13472E-13
 -1      2527 1.46151E-02 5.53548E-04-1.13243E-13
 -1      2528 1.45012E-02 5.58227E-04-1.11498E-13
 -1      2529 1.45642E-02 4.41852E-04-1.13919E-13
 -1      2530 1.45821E-02 4.79219E-04-1.13697E-13
 -1      2531 1.44693E-02 4.84160E-04-1.11950E-13
 -1      2532 1.45263E-02 3.67715E-04-1.14354E-13
 -1      2533 1.45456E-02 4.04933E-04-1.14138E-13
 -1      2534 1.44334E-02 4.10243E-04-1.12393E-13
 -1      2535 1.44852E-02 2.90969E-04-1.14793E-13
 -1      2536 1.45060E-02 3.29541E-04-1.14573E-13
 -1      2537 1.43941E-02 3.35289E-04-1.12831E-13
 -1      2538 1.44428E-02 2.12557E-04-1.15228E-13
 -1      2539 1.44641E-02 2.51986E-04-1.15011E-13
 -1      2540 1.43520E-02 2.58200E-04-1.13266E-13
 -1      2541 1.44005E-02 1.32327E-04-1.15659E-13
 -1      2542 1.44215E-02 1.72666E-04-1.15442E-13
 -1      2543 1.43088E-02 1.79317E-04-1.13699E-13
 -1      2544 1.44424E-02 6.89425E-05-1.17065E-13
 -1      2545 1.16394E-02 2.30951E-04-6.50266E-14
 -1      2546 1.15854E-02 2.19484E-04-6.50797E-14
 -1      2547 1.58370E-03 4.95543E-04-1.37954E-15
 -1      2548 1.44281E-03 4.77562E-04-1.12197E-15
 -1      2549 1.64128E-03 4.67519E-04-1.59543E-15
 -1      2550 1.07313E-02 6.11196E-04-6.04717E-14
 -1      2551 1.08892E-02 5.29690E-04-6.12408E-14
 -1      2552 5.88308E-04-2.37897E-04-3.45793E-16
 -1      2553 7.81019E-04-3.04611E-04-5.45869E-16
 -1      2554 8.40565E-04-2.93329E-04-6.58761E-16
 -1      2555 5.78866E-04-2.10117E-04-3.62286E-16
 -1      2556 9.83197E-03-6.22267E-04-5.86544E-14
 -1      2557 9.66659E-03-7.07608E-04-5.74334E-14
 -1      2558 7.18531E-03 1.00231E-04-4.31090E-14
 -1      2559 7.11720E-03 1.14553E-04-4.27824E-14
 -1      2560 9.37390E-03 1.20095E-03-5.14606E-14
 -1      2561 9.52540E-03 1.20220E-03-5.26844E-14
 -1      2562 5.46939E-04-2.28856E-05-3.84350E-16
 -1      2563 5.47384E-04-3.89181E-05-3.87467E-16
 -1      2564 6.62900E-04-5.57573E-05-5.25675E-16
 -1      2565 6.61698E-04-1.76840E-05-5.17666E-16
 -1      2566 9.00784E-03 1.07233E-03-4.88790E-14
 -1      2567 9.16807E-03 1.14820E-03-4.99367E-14
 -1      2568 9.64978E-03 1.18077E-03-5.36386E-14
 -1      2569 9.77548E-03 1.13707E-03-5.46009E-14
 -1      2570 9.58206E-03 1.20136E-03-5.30331E-14
 -1      2571 7.45184E-03 2.36629E-04-4.32730E-14
 -1      2572 7.61031E-03 2.96321E-04-4.36628E-14
 -1      2573 9.95483E-03 1.05743E-03-5.59016E-14
 -1      2574 1.01167E-02 9.66424E-04-5.70284E-14
 -1      2575 8.20391E-03 5.88661E-04-4.51911E-14
 -1      2576 8.36454E-03 6.84691E-04-4.57192E-14
 -1      2577 8.16184E-03-2.99897E-04-4.72564E-14
 -1      2578 7.98267E-03-2.05544E-04-4.64550E-14
 -1      2579 7.80817E-03 3.81987E-04-4.40496E-14
 -1      2580 8.00642E-03 4.81372E-04-4.46190E-14
 -1      2581 8.08069E-03 5.19328E-04-4.41469E-14
 -1      2582 7.18844E-03 1.57306E-04-4.28542E-14
 -1      2583 7.29047E-03 1.82646E-04-4.29391E-14
 -1      2584 7.09811E-03 1.29877E-04-4.27020E-14
 -1      2585 7.12480E-03 1.38588E-04-4.27745E-14
 -1      2586 7.40770E-03 3.69291E-05-4.38928E-14
 -1      2587 7.29833E-03 6.82341E-05-4.34431E-14
 -1      2588 7.76031E-03-1.00020E-04-4.54121E-14
 -1      2589 7.57071E-03-2.20651E-05-4.46484E-14
 -1      2590 7.48065E-03 2.08549E-06-4.35559E-14
 -1      2591 8.53196E-03-5.08367E-04-4.91174E-14
 -1      2592 8.36269E-03-4.09827E-04-4.82024E-14
 -1      2593 8.86225E-03-6.83984E-04-5.11976E-14
 -1      2594 8.71668E-03-6.08738E-04-5.02245E-14
 -1      2595 9.51481E-03-7.62329E-04-5.62410E-14
 -1      2596 9.39371E-03-7.89528E-04-5.52770E-14
 -1      2597 1.14723E-02 1.89214E-04-6.49877E-14
 -1      2598 1.13398E-02 1.50575E-04-6.46271E-14
 -1      2599 1.07181E-02-1.11592E-04-6.29345E-14
 -1      2600 1.05381E-02-2.08576E-04-6.22553E-14
 -1      2601 1.16247E-02 2.54975E-04-6.48711E-14
 -1      2602 1.16566E-02 2.44864E-04-6.50806E-14
 -1      2603 7.57472E-04 3.34013E-04-2.68313E-16
 -1      2604 6.11137E-04 2.84751E-04-1.70979E-16
 -1      2605 5.84485E-04 2.58005E-04-1.83339E-16
 -1      2606 8.13382E-04 3.22644E-04-3.67707E-16
 -1      2607 1.03432E-02 8.34335E-04-5.84518E-14
 -1      2608 1.05343E-02 7.19674E-04-5.94592E-14
 -1      2609 1.06392E-02 6.70175E-04-6.04591E-14
 -1      2610 9.18907E-03 1.16377E-03-4.96507E-14
 -1      2611 9.27841E-03 1.18874E-03-5.05528E-14
 -1      2612 9.37424E-03 1.21259E-03-5.11697E-14
 -1      2613 6.70453E-04-1.37845E-04-5.25797E-16
 -1      2614 5.54758E-04-1.26162E-04-3.86654E-16
 -1      2615 5.57854E-04-1.46145E-04-3.81802E-16
 -1      2616 1.35731E-03 4.31720E-04-1.06886E-15
 -1      2617 5.72082E-04 2.27826E-04-2.14225E-16
 -1      2618 1.02392E-02 9.05493E-04-5.80121E-14
 -1      2619 1.15409E-02 2.10087E-04-6.57810E-14
 -1      2620 8.47824E-03 7.56075E-04-4.58601E-14
 -1      2621 9.59337E-03-7.38672E-04-5.71278E-14
 -1      2622 9.94765E-03-5.57847E-04-5.96577E-14
 -1      2623 9.84739E-03-6.20620E-04-5.93295E-14
 -1      2624 1.00635E-02-4.91097E-04-6.06693E-14
 -1      2625 8.79632E-03 9.57263E-04-4.71811E-14
 -1      2626 8.90134E-03 1.01782E-03-4.80264E-14
 -1      2627 8.97825E-03 1.06747E-03-4.81865E-14
 -1      2628 8.96171E-03-7.30041E-04-5.18607E-14
 -1      2629 7.85012E-03-1.47752E-04-4.53382E-14
 -1      2630 1.13807E-02 3.27591E-04-6.39681E-14
 -1      2631 1.14558E-02 3.13200E-04-6.50039E-14
 -1      2632 1.13041E-02 3.58472E-04-6.39829E-14
 -1      2633 1.10175E-02 4.73515E-04-6.22146E-14
 -1      2634 1.47622E-02 1.02000E-03-1.10516E-13
 -1      2635 5.71817E-04-1.85152E-04-3.74443E-16
 -1      2636 1.47374E-02 9.85846E-04-1.10499E-13
 -1      2637 1.42859E-02 3.73618E-05-1.15171E-13
 -1      2638 1.43575E-02 9.44421E-05-1.15512E-13
 -1      2639 1.42439E-02 1.01545E-04-1.13767E-13
 -1      2640 1.41579E-02 2.52662E-05-1.13474E-13
 -1      2641 8.25656E-03-3.57136E-04-4.73174E-14
 -1      2642 7.08828E-03 1.18360E-04-4.20762E-14
 -1      2643 1.16659E-02 2.43024E-04-6.59253E-14
 -1      2644 6.89385E-04 2.51105E-04-3.21466E-16
 -1      2645 1.12452E-02 1.21123E-04-6.49955E-14
 -1      2646 1.46079E-02 9.50787E-04-1.08997E-13
 -1      2647 1.16093E-02 2.66477E-04-6.54823E-14
 -1      2648 1.08394E-02-4.71684E-05-6.38104E-14
 -1      2649 1.07589E-02-9.03641E-05-6.41919E-14
 -1      2650 1.09561E-02 5.99820E-06-6.46879E-14
 -1      2651 7.21740E-03 8.20770E-05-4.24809E-14
 -1      2652 7.70731E-03 3.33512E-04-4.32008E-14
 -1      2653 9.29956E-03-7.99667E-04-5.45936E-14
 -1      2654 9.21417E-03-7.98332E-04-5.39137E-14
 -1      2655 9.36209E-03-7.99007E-04-5.52499E-14
 -1      2656 7.35663E-03 2.00756E-04-4.24880E-14
 -1      2657 9.86092E-03 1.11089E-03-5.52859E-14
 -1      2658 7.14337E-03 1.41905E-04-4.20768E-14
 -1      2659 1.04116E-02-2.80426E-04-6.21528E-14
 -1      2660 8.61553E-03-5.62088E-04-4.93634E-14
 -1      2661 1.41040E-02 5.43813E-05-1.12342E-13
 -1      2662 7.80625E-04 7.72261E-05-6.31521E-16
 -1      2663 7.79390E-04 5.53909E-05-6.43704E-16
 -1      2664 7.78559E-04 3.35082E-05-6.54397E-16
 -1      2665 7.78144E-04 1.18772E-05-6.63762E-16
 -1      2666 8.97020E-04 4.95776E-05-8.22435E-16
 -1      2667 7.91758E-04 1.72945E-04-5.59679E-16
 -1      2668 7.87822E-04 1.47545E-04-5.81525E-16
 -1      2669 8.03437E-04 2.28117E-04-5.06986E-16
 -1      2670 7.96914E-04 1.99739E-04-5.35365E-16
 -1      2671 9.15046E-04 2.07527E-04-7.00327E-16
 -1      2672 1.12954E-03 3.61350E-04-7.98054E-16
 -1      2673 9.85965E-04 3.32474E-04-6.11869E-16
 -1      2674 1.13276E-02 1.48824E-04-6.61962E-14
 -1      2675 1.11496E-02 8.72976E-05-6.55019E-14
 -1      2676 8.40182E-03 7.17253E-04-4.48131E-14
 -1      2677 8.60802E-03 8.44316E-04-4.59608E-14
 -1      2678 1.31999E-03-3.61878E-04-1.51726E-15
 -1      2679 1.46321E-03-3.80554E-04-1.83217E-15
 -1      2680 1.60625E-03-3.96262E-04-2.17693E-15
 -1      2681 1.74920E-03-4.09251E-04-2.55164E-15
 -1      2682 1.52497E-03-3.54090E-04-2.02048E-15
 -1      2683 1.89199E-03-4.19967E-04-2.95623E-15
 -1      2684 2.03468E-03-4.28593E-04-3.38995E-15
 -1      2685 1.81170E-03-3.79167E-04-2.77030E-15
 -1      2686 2.17727E-03-4.35491E-04-3.85308E-15
 -1      2687 2.31979E-03-4.40805E-04-4.34525E-15
 -1      2688 2.09821E-03-3.95916E-04-3.63706E-15
 -1      2689 2.46228E-03-4.44810E-04-4.86579E-15
 -1      2690 2.60474E-03-4.47621E-04-5.41559E-15
 -1      2691 2.38446E-03-4.06270E-04-4.61912E-15
 -1      2692 2.74721E-03-4.49439E-04-5.99386E-15
 -1      2693 2.88969E-03-4.50352E-04-6.60043E-15
 -1      2694 2.67051E-03-4.11763E-04-5.71551E-15
 -1      2695 3.03221E-03-4.50505E-04-7.23449E-15
 -1      2696 3.17477E-03-4.49962E-04-7.89547E-15
 -1      2697 2.95643E-03-4.13558E-04-6.92405E-15
 -1      2698 3.31741E-03-4.48824E-04-8.58513E-15
 -1      2699 3.46011E-03-4.47139E-04-9.30201E-15
 -1      2700 3.24230E-03-4.12509E-04-8.24305E-15
 -1      2701 3.60290E-03-4.44977E-04-1.00450E-14
 -1      2702 3.74579E-03-4.42373E-04-1.08148E-14
 -1      2703 3.52818E-03-4.09228E-04-9.67112E-15
 -1      2704 3.88879E-03-4.39376E-04-1.16103E-14
 -1      2705 4.03191E-03-4.36015E-04-1.24319E-14
 -1      2706 3.81413E-03-4.04144E-04-1.12045E-14
 -1      2707 4.17516E-03-4.32331E-04-1.32795E-14
 -1      2708 4.31856E-03-4.28350E-04-1.41534E-14
 -1      2709 4.10021E-03-3.97571E-04-1.28426E-14
 -1      2710 4.46212E-03-4.24116E-04-1.50531E-14
 -1      2711 4.60587E-03-4.19662E-04-1.59774E-14
 -1      2712 4.38648E-03-3.89767E-04-1.45844E-14
 -1      2713 4.74982E-03-4.15045E-04-1.69281E-14
 -1      2714 4.89402E-03-4.10312E-04-1.79043E-14
 -1      2715 4.67302E-03-3.81002E-04-1.64289E-14
 -1      2716 5.03846E-03-4.05546E-04-1.89061E-14
 -1      2717 5.18322E-03-4.00822E-04-1.99337E-14
 -1      2718 4.95998E-03-3.71629E-04-1.83759E-14
 -1      2719 5.32831E-03-3.96262E-04-2.09873E-14
 -1      2720 5.47382E-03-3.91980E-04-2.20671E-14
 -1      2721 5.24756E-03-3.62168E-04-2.04262E-14
 -1      2722 5.61977E-03-3.88149E-04-2.31735E-14
 -1      2723 5.76630E-03-3.84942E-04-2.43068E-14
 -1      2724 5.53610E-03-3.53400E-04-2.25807E-14
 -1      2725 5.91344E-03-3.82593E-04-2.54665E-14
 -1      2726 6.06136E-03-3.81357E-04-2.66526E-14
 -1      2727 5.82613E-03-3.46465E-04-2.48421E-14
 -1      2728 6.21018E-03-3.81528E-04-2.78657E-14
 -1      2729 6.36004E-03-3.83476E-04-2.91070E-14
 -1      2730 6.11854E-03-3.42989E-04-2.72109E-14
 -1      2731 6.51119E-03-3.87541E-04-3.03736E-14
 -1      2732 6.66375E-03-3.94237E-04-3.16659E-14
 -1      2733 6.41461E-03-3.45196E-04-2.96849E-14
 -1      2734 6.81810E-03-4.03918E-04-3.29853E-14
 -1      2735 6.97426E-03-4.17255E-04-3.43295E-14
 -1      2736 6.71624E-03-3.56045E-04-3.22634E-14
 -1      2737 7.13277E-03-4.34545E-04-3.56997E-14
 -1      2738 7.29343E-03-4.56583E-04-3.70957E-14
 -1      2739 7.02589E-03-3.79312E-04-3.49461E-14
 -1      2740 7.45686E-03-4.83494E-04-3.85153E-14
 -1      2741 7.62240E-03-5.15927E-04-3.99588E-14
 -1      2742 7.34624E-03-4.19549E-04-3.77266E-14
 -1      2743 7.79062E-03-5.53663E-04-4.14257E-14
 -1      2744 7.96018E-03-5.96705E-04-4.29153E-14
 -1      2745 7.67913E-03-4.81357E-04-4.06034E-14
 -1      2746 8.13135E-03-6.44231E-04-4.44271E-14
 -1      2747 8.30210E-03-6.94507E-04-4.59604E-14
 -1      2748 8.02357E-03-5.67295E-04-4.35731E-14
 -1      2749 8.47220E-03-7.45756E-04-4.75148E-14
 -1      2750 8.63988E-03-7.93869E-04-4.90910E-14
 -1      2751 8.37347E-03-6.72858E-04-4.66281E-14
 -1      2752 8.80435E-03-8.36235E-04-5.06891E-14
 -1      2753 8.96609E-03-8.67523E-04-5.23054E-14
 -1      2754 8.71784E-03-7.78843E-04-4.97693E-14
 -1      2755 9.12411E-03-8.85306E-04-5.39408E-14
 -1      2756 9.28176E-03-8.85796E-04-5.55964E-14
 -1      2757 9.04810E-03-8.51201E-04-5.29919E-14
 -1      2758 9.43810E-03-8.68513E-04-5.72730E-14
 -1      2759 9.59731E-03-8.34764E-04-5.89682E-14
 -1      2760 9.36834E-03-8.54743E-04-5.62960E-14
 -1      2761 9.75831E-03-7.86461E-04-6.06818E-14
 -1      2762 9.92321E-03-7.28399E-04-6.24125E-14
 -1      2763 9.69224E-03-7.80437E-04-5.96802E-14
 -1      2764 1.00909E-02-6.63360E-04-6.41560E-14
 -1      2765 1.02608E-02-5.96520E-04-6.59129E-14
 -1      2766 1.00302E-02-6.53493E-04-6.31363E-14
 -1      2767 1.04320E-02-5.30007E-04-6.76808E-14
 -1      2768 1.06026E-02-4.66669E-04-6.94586E-14
 -1      2769 1.03788E-02-5.12158E-04-6.66461E-14
 -1      2770 1.07726E-02-4.07764E-04-7.12446E-14
 -1      2771 1.09402E-02-3.53995E-04-7.30379E-14
 -1      2772 1.07270E-02-3.83340E-04-7.01991E-14
 -1      2773 1.11060E-02-3.05847E-04-7.48360E-14
 -1      2774 1.12690E-02-2.62863E-04-7.66397E-14
 -1      2775 1.10659E-02-2.77749E-04-7.37822E-14
 -1      2776 1.14298E-02-2.25065E-04-7.84466E-14
 -1      2777 1.15880E-02-1.91665E-04-8.02570E-14
 -1      2778 1.13922E-02-1.95458E-04-7.73849E-14
 -1      2779 1.17442E-02-1.62431E-04-8.20749E-14
 -1      2780 1.18983E-02-1.36609E-04-8.39013E-14
 -1      2781 1.17067E-02-1.32367E-04-8.10058E-14
 -1      2782 1.20509E-02-1.13859E-04-8.57277E-14
 -1      2783 1.22019E-02-9.35794E-05-8.75594E-14
 -1      2784 1.20118E-02-8.37077E-05-8.46480E-14
 -1      2785 1.23516E-02-7.54040E-05-8.94001E-14
 -1      2786 1.25003E-02-5.88895E-05-9.12452E-14
 -1      2787 1.23103E-02-4.52442E-05-8.83114E-14
 -1      2788 1.26481E-02-4.36964E-05-9.30979E-14
 -1      2789 1.27952E-02-2.95085E-05-9.49534E-14
 -1      2790 1.26042E-02-1.35453E-05-9.19994E-14
 -1      2791 1.29416E-02-1.60368E-05-9.68172E-14
 -1      2792 1.30875E-02-3.05906E-06-9.86859E-14
 -1      2793 1.28952E-02 1.40638E-05-9.57114E-14
 -1      2794 1.32328E-02 9.65695E-06-1.00554E-13
 -1      2795 1.33778E-02 2.22697E-05-1.02427E-13
 -1      2796 1.31844E-02 3.96209E-05-9.94420E-14
 -1      2797 1.35224E-02 3.49573E-05-1.04304E-13
 -1      2798 1.36667E-02 4.78395E-05-1.06180E-13
 -1      2799 1.34722E-02 6.46577E-05-1.03183E-13
 -1      2800 1.38107E-02 6.10476E-05-1.08056E-13
 -1      2801 1.39544E-02 7.46744E-05-1.09935E-13
 -1      2802 1.37592E-02 9.03297E-05-1.06932E-13
 -1      2803 8.31029E-03-4.07299E-04-4.71693E-14
 -1      2804 8.13709E-03-3.08230E-04-4.62334E-14
 -1      2805 1.98514E-03 4.60392E-04-2.49745E-15
 -1      2806 1.84308E-03 4.50681E-04-2.14386E-15
 -1      2807 2.83657E-03 4.86123E-04-5.20477E-15
 -1      2808 2.69461E-03 4.84772E-04-4.68412E-15
 -1      2809 3.12077E-03 4.86423E-04-6.32843E-15
 -1      2810 2.97862E-03 4.86649E-04-5.75286E-15
 -1      2811 2.90288E-03 4.49597E-04-5.58040E-15
 -1      2812 3.40544E-03 4.84084E-04-7.56177E-15
 -1      2813 3.26304E-03 4.85550E-04-6.93147E-15
 -1      2814 3.18806E-03 4.49152E-04-6.73819E-15
 -1      2815 3.69072E-03 4.79616E-04-8.90499E-15
 -1      2816 3.54800E-03 4.82092E-04-8.21984E-15
 -1      2817 3.47346E-03 4.46264E-04-8.00575E-15
 -1      2818 3.97670E-03 4.73370E-04-1.03583E-14
 -1      2819 3.83361E-03 4.76698E-04-9.61788E-15
 -1      2820 3.75918E-03 4.41388E-04-9.38264E-15
 -1      2821 4.26351E-03 4.65601E-04-1.19206E-14
 -1      2822 4.11999E-03 4.69661E-04-1.11255E-14
 -1      2823 4.04528E-03 4.34839E-04-1.08693E-14
 -1      2824 4.55129E-03 4.56536E-04-1.35925E-14
 -1      2825 4.40726E-03 4.61215E-04-1.27429E-14
 -1      2826 4.33182E-03 4.26851E-04-1.24655E-14
 -1      2827 4.84021E-03 4.46453E-04-1.53724E-14
 -1      2828 4.69558E-03 4.51601E-04-1.44695E-14
 -1      2829 4.61889E-03 4.17647E-04-1.41701E-14
 -1      2830 5.13047E-03 4.35772E-04-1.72617E-14
 -1      2831 4.98513E-03 4.41154E-04-1.63029E-14
 -1      2832 4.90656E-03 4.07517E-04-1.59823E-14
 -1      2833 5.42233E-03 4.25173E-04-1.92587E-14
 -1      2834 5.27615E-03 4.30410E-04-1.82469E-14
 -1      2835 5.19494E-03 3.96906E-04-1.79030E-14
 -1      2836 5.71616E-03 4.15746E-04-2.13636E-14
 -1      2837 5.56894E-03 4.20232E-04-2.02973E-14
 -1      2838 5.48417E-03 3.86529E-04-1.99328E-14
 -1      2839 6.01246E-03 4.09180E-04-2.35712E-14
 -1      2840 5.86393E-03 4.11981E-04-2.24553E-14
 -1      2841 5.77452E-03 3.77508E-04-2.20680E-14
 -1      2842 6.31202E-03 4.07991E-04-2.58780E-14
 -1      2843 6.16174E-03 4.07725E-04-2.47124E-14
 -1      2844 6.06644E-03 3.71546E-04-2.43058E-14
 -1      2845 6.61614E-03 4.15788E-04-2.82777E-14
 -1      2846 6.46339E-03 4.10487E-04-2.70660E-14
 -1      2847 6.36081E-03 3.71133E-04-2.66399E-14
 -1      2848 6.92688E-03 4.37541E-04-3.07690E-14
 -1      2849 6.77053E-03 4.24511E-04-2.95125E-14
 -1      2850 6.65920E-03 3.79789E-04-2.90679E-14
 -1      2851 7.24736E-03 4.79786E-04-3.33459E-14
 -1      2852 7.08575E-03 4.55526E-04-3.20466E-14
 -1      2853 6.96439E-03 4.02378E-04-3.15842E-14
 -1      2854 7.58156E-03 5.50492E-04-3.60145E-14
 -1      2855 7.41273E-03 5.10887E-04-3.46686E-14
 -1      2856 7.28079E-03 4.45532E-04-3.41900E-14
 -1      2857 7.93290E-03 6.57704E-04-3.87660E-14
 -1      2858 7.75537E-03 5.98813E-04-3.73794E-14
 -1      2859 7.61407E-03 5.18003E-04-3.68825E-14
 -1      2860 8.30200E-03 8.05759E-04-4.16022E-14
 -1      2861 8.11654E-03 7.26608E-04-4.01726E-14
 -1      2862 7.96987E-03 6.29379E-04-3.96603E-14
 -1      2863 8.68075E-03 9.52837E-04-4.49969E-14
 -1      2864 8.48746E-03 8.55853E-04-4.35174E-14
 -1      2865 9.03113E-03 1.12782E-03-4.77275E-14
 -1      2866 8.84436E-03 1.04232E-03-4.62074E-14
 -1      2867 9.38911E-03 1.24301E-03-5.07487E-14
 -1      2868 9.21445E-03 1.20703E-03-4.91835E-14
 -1      2869 9.75275E-03 1.19985E-03-5.42315E-14
 -1      2870 9.57135E-03 1.23314E-03-5.26106E-14
 -1      2871 1.04621E-02 9.64691E-04-6.05009E-14
 -1      2872 1.02747E-02 1.03885E-03-5.88109E-14
 -1      2873 1.08348E-02 8.34668E-04-6.39294E-14
 -1      2874 1.06502E-02 8.95547E-04-6.22074E-14
 -1      2875 1.05906E-02 8.68245E-04-6.15747E-14
 -1      2876 1.11937E-02 7.43667E-04-6.74173E-14
 -1      2877 1.10171E-02 7.84239E-04-6.56666E-14
 -1      2878 1.09669E-02 7.47455E-04-6.50216E-14
 -1      2879 1.15345E-02 6.91949E-04-7.09560E-14
 -1      2880 1.13666E-02 7.13547E-04-6.91821E-14
 -1      2881 1.13204E-02 6.72557E-04-6.85267E-14
 -1      2882 1.18599E-02 6.71900E-04-7.45384E-14
 -1      2883 1.16990E-02 6.78637E-04-7.27421E-14
 -1      2884 1.16516E-02 6.36168E-04-7.20760E-14
 -1      2885 1.21739E-02 6.75205E-04-7.81617E-14
 -1      2886 1.20181E-02 6.71180E-04-7.63449E-14
 -1      2887 1.19664E-02 6.27866E-04-7.56675E-14
 -1      2888 1.24801E-02 6.94662E-04-8.18175E-14
 -1      2889 1.23278E-02 6.83316E-04-7.99858E-14
 -1      2890 1.22706E-02 6.39203E-04-7.92974E-14
 -1      2891 1.27811E-02 7.24639E-04-8.55007E-14
 -1      2892 1.26311E-02 7.08623E-04-8.36571E-14
 -1      2893 1.25684E-02 6.63722E-04-8.29578E-14
 -1      2894 1.30782E-02 7.60924E-04-8.92012E-14
 -1      2895 1.29300E-02 7.42196E-04-8.73502E-14
 -1      2896 1.28623E-02 6.96634E-04-8.66421E-14
 -1      2897 1.33726E-02 8.00474E-04-9.29167E-14
 -1      2898 1.32257E-02 7.80433E-04-9.10572E-14
 -1      2899 1.31539E-02 7.34433E-04-9.03439E-14
 -1      2900 1.36649E-02 8.41132E-04-9.66416E-14
 -1      2901 1.35190E-02 8.20764E-04-9.47784E-14
 -1      2902 1.34439E-02 7.74586E-04-9.40590E-14
 -1      2903 1.39554E-02 8.81382E-04-1.00376E-13
 -1      2904 1.38103E-02 8.61379E-04-9.85092E-14
 -1      2905 1.37328E-02 8.15284E-04-9.77857E-14
 -1      2906 1.42444E-02 9.20154E-04-1.04118E-13
 -1      2907 1.41000E-02 9.01005E-04-1.02244E-13
 -1      2908 1.40208E-02 8.55242E-04-1.01521E-13
 -1      2909 1.44983E-02 9.44943E-04-1.07491E-13
 -1      2910 1.43546E-02 9.26862E-04-1.05619E-13
 -1      2911 1.42746E-02 8.81684E-04-1.04891E-13
 -1      2912 1.44938E-02 8.94753E-04-1.07900E-13
 -1      2913 6.88591E-04-2.03893E-04-5.14630E-16
 -1      2914 1.43726E-02 5.25898E-04-1.09981E-13
 -1      2915 1.43874E-02 5.62739E-04-1.09755E-13
 -1      2916 1.15978E-02 2.81575E-04-6.63679E-14
 -1      2917 1.16679E-02 2.66049E-04-6.68655E-14
 -1      2918 1.44255E-02 6.74028E-04-1.09064E-13
 -1      2919 1.44363E-02 7.11697E-04-1.08831E-13
 -1      2920 1.43394E-02 4.52134E-04-1.10433E-13
 -1      2921 1.43566E-02 4.89079E-04-1.10209E-13
 -1      2922 1.42441E-02 4.93827E-04-1.08467E-13
 -1      2923 1.44012E-02 5.99629E-04-1.09523E-13
 -1      2924 1.44138E-02 6.36716E-04-1.09292E-13
 -1      2925 1.42987E-02 6.40595E-04-1.07551E-13
 -1      2926 1.42738E-02 5.66959E-04-1.08010E-13
 -1      2927 1.41475E-02 9.23155E-05-1.12490E-13
 -1      2928 1.41912E-02 1.29878E-04-1.12637E-13
 -1      2929 1.40510E-02 8.33619E-05-1.11215E-13
 -1      2930 1.43026E-02 3.78938E-04-1.10867E-13
 -1      2931 1.43215E-02 4.15671E-04-1.10650E-13
 -1      2932 1.42099E-02 4.21064E-04-1.08911E-13
 -1      2933 1.42616E-02 3.03224E-04-1.11308E-13
 -1      2934 1.42825E-02 3.41280E-04-1.11089E-13
 -1      2935 1.41713E-02 3.47368E-04-1.09349E-13
 -1      2936 1.42184E-02 2.25815E-04-1.11744E-13
 -1      2937 1.42402E-02 2.64758E-04-1.11526E-13
 -1      2938 1.41289E-02 2.71532E-04-1.09789E-13
 -1      2939 1.42130E-02 1.70054E-04-1.12422E-13
 -1      2940 1.70085E-03 4.38687E-04-1.81838E-15
 -1      2941 1.55840E-03 4.24212E-04-1.52137E-15
 -1      2942 1.76200E-03 4.09188E-04-2.04841E-15
 -1      2943 1.09833E-02 5.04746E-04-6.27833E-14
 -1      2944 1.11607E-02 4.19593E-04-6.35250E-14
 -1      2945 8.33517E-04-2.63671E-04-6.80838E-16
 -1      2946 9.65053E-04-2.98463E-04-8.69056E-16
 -1      2947 1.10809E-03-3.26059E-04-1.10869E-15
 -1      2948 8.14126E-04-2.12076E-04-6.94431E-16
 -1      2949 8.02924E-04 2.78015E-04-4.31255E-16
 -1      2950 7.23581E-03 6.46111E-05-4.18440E-14
 -1      2951 7.14085E-03 9.00574E-05-4.15197E-14
 -1      2952 1.16947E-02 2.49883E-04-6.70673E-14
 -1      2953 1.16730E-02 2.42479E-04-6.70163E-14
 -1      2954 7.93752E-03-2.06051E-04-4.51951E-14
 -1      2955 7.73807E-03-1.16057E-04-4.41659E-14
 -1      2956 7.99701E-03-2.65676E-04-4.50464E-14
 -1      2957 7.07018E-03 1.09454E-04-4.11299E-14
 -1      2958 7.05884E-03 1.18241E-04-4.10550E-14
 -1      2959 2.55270E-03 4.82442E-04-4.19120E-15
 -1      2960 2.41084E-03 4.79038E-04-3.72582E-15
 -1      2961 2.61783E-03 4.46938E-04-4.53191E-15
 -1      2962 2.26898E-03 4.74341E-04-3.28820E-15
 -1      2963 2.12710E-03 4.68226E-04-2.87892E-15
 -1      2964 2.33278E-03 4.40240E-04-3.59296E-15
 -1      2965 1.41574E-03 4.06730E-04-1.25263E-15
 -1      2966 1.27271E-03 3.85982E-04-1.01144E-15
 -1      2967 1.18954E-03 3.40807E-04-9.50141E-16
 -1      2968 1.47597E-03 3.80952E-04-1.44347E-15
 -1      2969 7.09548E-03 1.31723E-04-4.11371E-14
 -1      2970 7.15532E-03 1.43995E-04-4.12167E-14
 -1      2971 7.84733E-04 1.23308E-04-6.00431E-16
 -1      2972 7.82393E-04 9.98927E-05-6.17114E-16
 -1      2973 9.00076E-04 9.92657E-05-7.91915E-16
 -1      2974 9.05709E-04 1.51339E-04-7.51921E-16
 -1      2975 1.16099E-02 2.26506E-04-6.69259E-14
 -1      2976 1.15078E-02 2.03280E-04-6.68343E-14
 -1      2977 1.16690E-02 2.37412E-04-6.80739E-14
 -1      2978 9.64388E-03-7.22634E-04-5.78684E-14
 -1      2979 9.51111E-03-7.71527E-04-5.66707E-14
 -1      2980 7.82131E-04-9.78409E-05-6.88685E-16
 -1      2981 7.84393E-04-1.21177E-04-6.89105E-16
 -1      2982 7.96195E-03 4.63926E-04-4.30190E-14
 -1      2983 8.13210E-03 5.59325E-04-4.35777E-14
 -1      2984 1.05138E-02-2.25350E-04-6.33701E-14
 -1      2985 1.03020E-02-3.49289E-04-6.22068E-14
 -1      2986 7.58777E-03 2.85538E-04-4.21540E-14
 -1      2987 7.76057E-03 3.61651E-04-4.25309E-14
 -1      2988 7.54285E-03-4.03618E-05-4.31134E-14
 -1      2989 7.39408E-03 9.16757E-06-4.23718E-14
 -1      2990 7.27246E-03 1.76249E-04-4.14981E-14
 -1      2991 7.41988E-03 2.21052E-04-4.18264E-14
 -1      2992 7.46881E-03 2.49947E-04-4.11664E-14
 -1      2993 9.06011E-03-7.70237E-04-5.26176E-14
 -1      2994 8.89106E-03-7.10212E-04-5.12204E-14
 -1      2995 8.67683E-03-6.12458E-04-4.95637E-14
 -1      2996 8.51699E-03-5.21850E-04-4.84621E-14
 -1      2997 1.05839E-02 7.22080E-04-6.05775E-14
 -1      2998 1.07553E-02 6.24758E-04-6.15989E-14
 -1      2999 1.01635E-02 9.72208E-04-5.77106E-14
 -1      3000 1.03625E-02 8.52636E-04-5.91421E-14
 -1      3001 7.87404E-04-1.45326E-04-6.87465E-16
 -1      3002 7.91224E-04-1.70502E-04-6.83224E-16
 -1      3003 9.05261E-04-1.48849E-04-8.70885E-16
 -1      3004 8.96006E-04 1.00360E-06-8.45176E-16
 -1      3005 7.78119E-04-9.70221E-06-6.71568E-16
 -1      3006 7.78472E-04-3.13150E-05-6.78033E-16
 -1      3007 7.04241E-03 1.20135E-04-4.02041E-14
 -1      3008 1.10691E-02 4.71111E-05-6.58877E-14
 -1      3009 8.69785E-03 9.13014E-04-4.61144E-14
 -1      3010 1.00171E-02 1.05396E-03-5.65901E-14
 -1      3011 1.01507E-02 1.00585E-03-5.77064E-14
 -1      3012 1.01802E-02-4.29142E-04-6.18717E-14
 -1      3013 1.00774E-02-5.03590E-04-6.15381E-14
 -1      3014 1.02968E-02-3.75555E-04-6.30844E-14
 -1      3015 1.15398E-02 1.99491E-04-6.84922E-14
 -1      3016 1.14406E-02 1.80307E-04-6.73429E-14
 -1      3017 1.13720E-02 1.50685E-04-6.78512E-14
 -1      3018 1.04951E-02 8.01864E-04-6.02710E-14
 -1      3019 8.78371E-03-6.76089E-04-5.03044E-14
 -1      3020 8.67637E-03-6.42971E-04-4.93915E-14
 -1      3021 8.87552E-03-7.28827E-04-5.10485E-14
 -1      3022 1.12641E-02 3.93159E-04-6.45585E-14
 -1      3023 1.39988E-02 1.12163E-04-1.10084E-13
 -1      3024 8.38184E-03-4.71595E-04-4.73627E-14
 -1      3025 7.19215E-03 1.59437E-04-4.05648E-14
 -1      3026 7.61869E-03-9.65384E-05-4.29697E-14
 -1      3027 2.04756E-03 4.28224E-04-2.76516E-15
 -1      3028 1.00884E-02 1.11378E-03-5.71393E-14
 -1      3029 9.90632E-03 1.17930E-03-5.54870E-14
 -1      3030 1.15541E-02 2.99616E-04-6.63837E-14
 -1      3031 1.16410E-02 2.96779E-04-6.77700E-14
 -1      3032 1.15041E-02 3.21952E-04-6.63981E-14
 -1      3033 1.44843E-02 8.55124E-04-1.08136E-13
 -1      3034 1.43752E-02 8.48699E-04-1.06629E-13
 -1      3035 1.44750E-02 8.16050E-04-1.08368E-13
 -1      3036 1.17157E-02 2.63387E-04-6.79601E-14
 -1      3037 1.06373E-02-1.61627E-04-6.42460E-14
 -1      3038 1.05347E-02-2.33519E-04-6.42988E-14
 -1      3039 1.07585E-02-1.05962E-04-6.51256E-14
 -1      3040 1.40498E-02 1.44950E-04-1.10384E-13
 -1      3041 1.41679E-02 1.93563E-04-1.11442E-13
 -1      3042 1.40561E-02 2.00984E-04-1.09706E-13
 -1      3043 1.39539E-02 1.36386E-04-1.09107E-13
 -1      3044 7.81779E-03 4.06854E-04-4.19710E-14
 -1      3045 1.09193E-02 5.61130E-04-6.29043E-14
 -1      3046 9.85822E-03 1.14047E-03-5.52567E-14
 -1      3047 1.16987E-03-3.06258E-04-1.25788E-15
 -1      3048 7.28208E-03 2.84887E-05-4.14101E-14
 -1      3049 9.48089E-03-7.87852E-04-5.67098E-14
 -1      3050 9.42301E-03-7.95061E-04-5.59787E-14
 -1      3051 9.34146E-03-8.09309E-04-5.52889E-14
 -1      3052 8.26209E-03 6.52073E-04-4.36730E-14
 -1      3053 9.13090E-03-7.91773E-04-5.32616E-14
 -1      3054 1.44511E-02 7.44427E-04-1.08719E-13
 -1      3055 1.44608E-02 7.82559E-04-1.08485E-13
 -1      3056 1.43525E-02 7.76075E-04-1.06979E-13
 -1      3057 1.43243E-02 7.10230E-04-1.07207E-13
 -1      3058 7.79241E-04-5.30680E-05-6.82966E-16
 -1      3059 7.80427E-04-7.52314E-05-6.86612E-16
 -1      3060 8.99799E-04-9.69178E-05-8.69774E-16
 -1      3061 8.96887E-04-4.74270E-05-8.60870E-16
 -1      3062 9.85830E-03-6.25727E-04-5.98699E-14
 -1      3063 9.75064E-03-6.77479E-04-5.88651E-14
 -1      3064 9.66827E-03-7.23279E-04-5.84011E-14
 -1      3065 8.64791E-04 2.66281E-04-5.39147E-16
 -1      3066 9.82947E-04 2.75392E-04-7.08716E-16
 -1      3067 1.02031E-02 1.02623E-03-5.81919E-14
 -1      3068 1.04045E-03 2.42832E-04-8.55490E-16
 -1      3069 1.03394E-03 2.11137E-04-8.89439E-16
 -1      3070 1.11653E-02 7.21520E-05-6.72173E-14
 -1      3071 1.09880E-02-4.64402E-07-6.63995E-14
 -1      3072 1.73186E-03-3.38633E-04-2.58676E-15
 -1      3073 1.87554E-03-3.48390E-04-2.99084E-15
 -1      3074 2.01921E-03-3.56349E-04-3.42373E-15
 -1      3075 2.16287E-03-3.62665E-04-3.88535E-15
 -1      3076 1.94047E-03-3.16953E-04-3.21351E-15
 -1      3077 2.30647E-03-3.67602E-04-4.37523E-15
 -1      3078 2.45003E-03-3.71276E-04-4.89359E-15
 -1      3079 2.22848E-03-3.28915E-04-4.13462E-15
 -1      3080 2.59352E-03-3.73898E-04-5.44034E-15
 -1      3081 2.73695E-03-3.75557E-04-6.01556E-15
 -1      3082 2.51638E-03-3.35911E-04-5.16910E-15
 -1      3083 2.88032E-03-3.76410E-04-6.61731E-15
 -1      3084 3.02362E-03-3.76524E-04-7.24706E-15
 -1      3085 2.80398E-03-3.39094E-04-6.31457E-15
 -1      3086 3.16687E-03-3.76015E-04-7.90477E-15
 -1      3087 3.31006E-03-3.74926E-04-8.58919E-15
 -1      3088 3.09121E-03-3.39343E-04-7.56994E-15
 -1      3089 3.45319E-03-3.73344E-04-9.30075E-15
 -1      3090 3.59627E-03-3.71295E-04-1.00389E-14
 -1      3091 3.37802E-03-3.37303E-04-8.93461E-15
 -1      3092 3.73930E-03-3.68843E-04-1.08032E-14
 -1      3093 3.88228E-03-3.66006E-04-1.15931E-14
 -1      3094 3.66437E-03-3.33429E-04-1.04053E-14
 -1      3095 4.02521E-03-3.62831E-04-1.24088E-14
 -1      3096 4.16809E-03-3.59331E-04-1.32513E-14
 -1      3097 3.95023E-03-3.28042E-04-1.19804E-14
 -1      3098 4.31093E-03-3.55550E-04-1.41201E-14
 -1      3099 4.45374E-03-3.51502E-04-1.50140E-14
 -1      3100 4.23557E-03-3.21376E-04-1.36590E-14
 -1      3101 4.59651E-03-3.47236E-04-1.59331E-14
 -1      3102 4.73927E-03-3.42771E-04-1.68782E-14
 -1      3103 4.52037E-03-3.13633E-04-1.54417E-14
 -1      3104 4.88200E-03-3.38172E-04-1.78493E-14
 -1      3105 5.02477E-03-3.33474E-04-1.88456E-14
 -1      3106 4.80463E-03-3.05039E-04-1.73262E-14
 -1      3107 5.16755E-03-3.28767E-04-1.98688E-14
 -1      3108 5.31043E-03-3.24114E-04-2.09174E-14
 -1      3109 5.08842E-03-2.95907E-04-1.93153E-14
 -1      3110 5.45341E-03-3.19635E-04-2.19927E-14
 -1      3111 5.59659E-03-3.15437E-04-2.30945E-14
 -1      3112 5.37188E-03-2.86698E-04-2.14082E-14
 -1      3113 5.74003E-03-3.11681E-04-2.42230E-14
 -1      3114 5.88387E-03-3.08538E-04-2.53781E-14
 -1      3115 5.65536E-03-2.78104E-04-2.36070E-14
 -1      3116 6.02821E-03-3.06210E-04-2.65596E-14
 -1      3117 6.17327E-03-3.04971E-04-2.77678E-14
 -1      3118 5.93954E-03-2.71130E-04-2.59130E-14
 -1      3119 6.31923E-03-3.05054E-04-2.90022E-14
 -1      3120 6.46639E-03-3.06892E-04-3.02622E-14
 -1      3121 6.22557E-03-2.67211E-04-2.83242E-14
 -1      3122 6.61507E-03-3.10732E-04-3.15483E-14
 -1      3123 6.76561E-03-3.17248E-04-3.28599E-14
 -1      3124 6.51534E-03-2.68386E-04-3.08387E-14
 -1      3125 6.91854E-03-3.26687E-04-3.41964E-14
 -1      3126 7.07416E-03-3.40025E-04-3.55577E-14
 -1      3127 6.81176E-03-2.77581E-04-3.34535E-14
 -1      3128 7.23320E-03-3.57468E-04-3.69442E-14
 -1      3129 7.39569E-03-3.80413E-04-3.83547E-14
 -1      3130 7.11889E-03-2.99022E-04-3.61681E-14
 -1      3131 7.56260E-03-4.08922E-04-3.97877E-14
 -1      3132 7.73307E-03-4.44360E-04-4.12448E-14
 -1      3133 7.44166E-03-3.38965E-04-3.89788E-14
 -1      3134 7.90810E-03-4.86641E-04-4.27256E-14
 -1      3135 8.08545E-03-5.36158E-04-4.42262E-14
 -1      3136 7.78400E-03-4.05334E-04-4.18832E-14
 -1      3137 8.26614E-03-5.92120E-04-4.57474E-14
 -1      3138 8.44574E-03-6.51674E-04-4.72906E-14
 -1      3139 8.14557E-03-5.04979E-04-4.48736E-14
 -1      3140 8.65882E-03-7.09635E-04-4.91629E-14
 -1      3141 8.83491E-03-7.65551E-04-5.07520E-14
 -1      3142 9.30043E-03-8.36913E-04-5.53279E-14
 -1      3143 9.46561E-03-8.15500E-04-5.69962E-14
 -1      3144 9.63892E-03-7.61565E-04-5.86939E-14
 -1      3145 9.81264E-03-6.97206E-04-6.04020E-14
 -1      3146 1.03230E-02-4.97968E-04-6.56250E-14
 -1      3147 1.05020E-02-4.26732E-04-6.73897E-14
 -1      3148 1.06801E-02-3.61454E-04-6.91659E-14
 -1      3149 1.08541E-02-3.03021E-04-7.09494E-14
 -1      3150 1.06346E-02-3.38717E-04-6.81328E-14
 -1      3151 1.10249E-02-2.51839E-04-7.27400E-14
 -1      3152 1.11913E-02-2.06942E-04-7.45355E-14
 -1      3153 1.09865E-02-2.24113E-04-7.16975E-14
 -1      3154 1.13540E-02-1.68210E-04-7.63351E-14
 -1      3155 1.15129E-02-1.34319E-04-7.81392E-14
 -1      3156 1.13187E-02-1.39242E-04-7.52858E-14
 -1      3157 1.16687E-02-1.05029E-04-7.99500E-14
 -1      3158 1.18217E-02-7.92210E-05-8.17655E-14
 -1      3159 1.16335E-02-7.65738E-05-7.88943E-14
 -1      3160 1.19724E-02-5.66228E-05-8.35848E-14
 -1      3161 1.21212E-02-3.64392E-05-8.54087E-14
 -1      3162 1.19355E-02-2.90533E-05-8.25208E-14
 -1      3163 1.22686E-02-1.83907E-05-8.72386E-14
 -1      3164 1.24147E-02-1.94250E-06-8.90752E-14
 -1      3165 1.22291E-02 8.46818E-06-8.61683E-14
 -1      3166 1.25599E-02 1.31718E-05-9.09181E-14
 -1      3167 1.27045E-02 2.73053E-05-9.27656E-14
 -1      3168 1.25175E-02 3.95972E-05-8.98376E-14
 -1      3169 1.28484E-02 4.06960E-05-9.46195E-14
 -1      3170 1.29920E-02 5.35774E-05-9.64790E-14
 -1      3171 1.28032E-02 6.68928E-05-9.35298E-14
 -1      3172 1.31353E-02 6.61509E-05-9.83432E-14
 -1      3173 1.32784E-02 7.85716E-05-1.00208E-13
 -1      3174 1.30876E-02 9.22127E-05-9.72437E-14
 -1      3175 1.34214E-02 9.10025E-05-1.02079E-13
 -1      3176 1.35642E-02 1.03554E-04-1.03953E-13
 -1      3177 1.33716E-02 1.16922E-04-1.00977E-13
 -1      3178 1.36877E-02 1.13126E-04-1.05594E-13
 -1      3179 1.38304E-02 1.26214E-04-1.07466E-13
 -1      3180 1.38821E-02 1.58526E-04-1.07765E-13
 -1      3181 1.36363E-02 1.38859E-04-1.04485E-13
 -1      3182 7.66791E-03 3.56827E-04-4.07433E-14
 -1      3183 7.84161E-03 4.46228E-04-4.12184E-14
 -1      3184 2.96964E-03 4.12777E-04-5.96033E-15
 -1      3185 2.82666E-03 4.12312E-04-5.40513E-15
 -1      3186 3.82740E-03 4.03209E-04-9.86540E-15
 -1      3187 3.68443E-03 4.06004E-04-9.14576E-15
 -1      3188 4.11336E-03 3.96488E-04-1.13852E-14
 -1      3189 3.97037E-03 4.00031E-04-1.06117E-14
 -1      3190 3.89537E-03 3.65171E-04-1.03520E-14
 -1      3191 4.39936E-03 3.88426E-04-1.30137E-14
 -1      3192 4.25635E-03 3.92614E-04-1.21858E-14
 -1      3193 4.18095E-03 3.58409E-04-1.19049E-14
 -1      3194 4.68540E-03 3.79248E-04-1.47511E-14
 -1      3195 4.54236E-03 3.83964E-04-1.38688E-14
 -1      3196 4.46614E-03 3.50423E-04-1.35663E-14
 -1      3197 4.97147E-03 3.69254E-04-1.65955E-14
 -1      3198 4.82842E-03 3.74334E-04-1.56598E-14
 -1      3199 4.75085E-03 3.41435E-04-1.53357E-14
 -1      3200 5.25756E-03 3.58910E-04-1.85491E-14
 -1      3201 5.11449E-03 3.64096E-04-1.75585E-14
 -1      3202 5.03497E-03 3.31760E-04-1.72125E-14
 -1      3203 5.54371E-03 3.48950E-04-2.06097E-14
 -1      3204 5.40059E-03 3.53834E-04-1.95660E-14
 -1      3205 5.31839E-03 3.21875E-04-1.91978E-14
 -1      3206 5.83006E-03 3.40499E-04-2.27768E-14
 -1      3207 5.68681E-03 3.44459E-04-2.16805E-14
 -1      3208 5.60103E-03 3.12515E-04-2.12911E-14
 -1      3209 6.11704E-03 3.35217E-04-2.50432E-14
 -1      3210 5.97340E-03 3.37343E-04-2.38977E-14
 -1      3211 5.88291E-03 3.04768E-04-2.34883E-14
 -1      3212 6.40556E-03 3.35481E-04-2.74050E-14
 -1      3213 6.26098E-03 3.34473E-04-2.62123E-14
 -1      3214 6.16439E-03 3.00190E-04-2.57832E-14
 -1      3215 6.69748E-03 3.44609E-04-2.98613E-14
 -1      3216 6.55089E-03 3.38653E-04-2.86209E-14
 -1      3217 6.44641E-03 3.00942E-04-2.81741E-14
 -1      3218 6.99621E-03 3.67214E-04-3.24034E-14
 -1      3219 6.84567E-03 3.53759E-04-3.11216E-14
 -1      3220 6.73103E-03 3.09982E-04-3.06555E-14
 -1      3221 7.30744E-03 4.09924E-04-3.50381E-14
 -1      3222 7.14981E-03 3.85275E-04-3.37104E-14
 -1      3223 7.02225E-03 3.31571E-04-3.32278E-14
 -1      3224 7.63938E-03 4.82816E-04-3.77561E-14
 -1      3225 7.47038E-03 4.41501E-04-3.63859E-14
 -1      3226 7.32705E-03 3.72444E-04-3.58884E-14
 -1      3227 7.93477E-03 5.46988E-04-4.05436E-14
 -1      3228 7.75367E-03 4.86157E-04-3.91340E-14
 -1      3229 8.33499E-03 7.45466E-04-4.29792E-14
 -1      3230 1.17674E-02 5.85455E-04-7.31964E-14
 -1      3231 1.16108E-02 5.92534E-04-7.14106E-14
 -1      3232 1.20703E-02 5.88251E-04-7.67980E-14
 -1      3233 1.19203E-02 5.84647E-04-7.49922E-14
 -1      3234 1.18798E-02 5.41044E-04-7.43175E-14
 -1      3235 1.23644E-02 6.06664E-04-8.04327E-14
 -1      3236 1.22181E-02 5.95933E-04-7.86121E-14
 -1      3237 1.21701E-02 5.53279E-04-7.79274E-14
 -1      3238 1.26539E-02 6.35367E-04-8.40968E-14
 -1      3239 1.25095E-02 6.20008E-04-8.22618E-14
 -1      3240 1.24544E-02 5.77404E-04-8.15682E-14
 -1      3241 1.29414E-02 6.70516E-04-8.77824E-14
 -1      3242 1.27978E-02 6.52323E-04-8.59378E-14
 -1      3243 1.27364E-02 6.09275E-04-8.52337E-14
 -1      3244 1.32279E-02 7.09300E-04-9.14830E-14
 -1      3245 1.30847E-02 6.89583E-04-8.96305E-14
 -1      3246 1.30180E-02 6.45944E-04-8.89189E-14
 -1      3247 1.35140E-02 7.49666E-04-9.51987E-14
 -1      3248 1.33709E-02 7.29376E-04-9.33384E-14
 -1      3249 1.33001E-02 6.85221E-04-9.26219E-14
 -1      3250 1.38000E-02 7.90123E-04-9.89263E-14
 -1      3251 1.36570E-02 7.69949E-04-9.70597E-14
 -1      3252 1.35828E-02 7.25466E-04-9.63369E-14
 -1      3253 1.40859E-02 8.29592E-04-1.02662E-13
 -1      3254 1.39430E-02 8.10028E-04-1.00795E-13
 -1      3255 1.38663E-02 7.65458E-04-1.00066E-13
 -1      3256 1.42855E-02 8.42920E-04-1.05397E-13
 -1      3257 1.41760E-02 8.35857E-04-1.03895E-13
 -1      3258 1.40979E-02 7.91514E-04-1.03166E-13
 -1      3259 1.42769E-02 8.03777E-04-1.05631E-13
 -1      3260 8.44152E-03-5.36459E-04-4.75539E-14
 -1      3261 8.25656E-03-4.35619E-04-4.62712E-14
 -1      3262 1.12814E-02 4.16349E-04-6.54709E-14
 -1      3263 1.13981E-02 3.63069E-04-6.59349E-14
 -1      3264 1.15167E-02 3.47735E-04-6.73192E-14
 -1      3265 1.41158E-02 4.62081E-04-1.06955E-13
 -1      3266 1.41319E-02 4.98339E-04-1.06729E-13
 -1      3267 1.17496E-02 2.77631E-04-6.91687E-14
 -1      3268 1.17655E-02 2.63165E-04-6.93747E-14
 -1      3269 2.68365E-03 4.11033E-04-4.87738E-15
 -1      3270 2.54061E-03 4.08866E-04-4.37649E-15
 -1      3271 2.75010E-03 3.74829E-04-5.22790E-15
 -1      3272 1.17287E-02 2.46451E-04-6.92385E-14
 -1      3273 1.16680E-02 2.31653E-04-6.91484E-14
 -1      3274 1.39958E-02 2.40180E-04-1.08273E-13
 -1      3275 1.40181E-02 2.78437E-04-1.08055E-13
 -1      3276 9.32306E-04-2.20125E-04-8.82961E-16
 -1      3277 1.82464E-03 3.78977E-04-2.28506E-15
 -1      3278 1.68127E-03 3.67829E-04-1.94953E-15
 -1      3279 1.40397E-02 3.16167E-04-1.07834E-13
 -1      3280 1.40605E-02 3.53466E-04-1.07612E-13
 -1      3281 1.39079E-02 2.85344E-04-1.06322E-13
 -1      3282 1.14492E-02 6.06034E-04-6.96359E-14
 -1      3283 1.12818E-02 6.28914E-04-6.78701E-14
 -1      3284 1.15768E-02 5.47132E-04-7.07458E-14
 -1      3285 1.11069E-02 6.61117E-04-6.61157E-14
 -1      3286 1.09249E-02 7.06899E-04-6.43767E-14
 -1      3287 1.12511E-02 5.81849E-04-6.72130E-14
 -1      3288 9.39937E-03 1.22552E-03-5.11723E-14
 -1      3289 9.49075E-03 1.22310E-03-5.20891E-14
 -1      3290 3.54148E-03 4.08372E-04-8.45370E-15
 -1      3291 3.39852E-03 4.10289E-04-7.78953E-15
 -1      3292 3.60947E-03 3.70501E-04-8.90725E-15
 -1      3293 8.04079E-03-3.29076E-04-4.48411E-14
 -1      3294 7.86651E-03-2.41515E-04-4.38181E-14
 -1      3295 3.25557E-03 4.11695E-04-7.15271E-15
 -1      3296 3.11261E-03 4.12554E-04-6.54313E-15
 -1      3297 3.03682E-03 3.75762E-04-6.34547E-15
 -1      3298 3.32328E-03 3.74149E-04-7.57199E-15
 -1      3299 1.14151E-03-2.54187E-04-1.24759E-15
 -1      3300 1.35264E-03-2.82674E-04-1.67704E-15
 -1      3301 1.11678E-03-2.05239E-04-1.22949E-15
 -1      3302 2.11120E-03 3.95449E-04-3.03867E-15
 -1      3303 1.96795E-03 3.88129E-04-2.64818E-15
 -1      3304 1.88849E-03 3.48113E-04-2.52833E-15
 -1      3305 1.47028E-03-3.05246E-04-1.93508E-15
 -1      3306 1.61386E-03-3.18628E-04-2.28641E-15
 -1      3307 1.67863E-03-2.90101E-04-2.48250E-15
 -1      3308 1.44357E-03-2.50718E-04-1.91198E-15
 -1      3309 7.10682E-03 9.62203E-05-4.12237E-14
 -1      3310 7.04059E-03 9.87380E-05-4.02112E-14
 -1      3311 7.29402E-03-5.76440E-06-4.07352E-14
 -1      3312 7.16062E-03 4.35782E-05-4.02212E-14
 -1      3313 6.98995E-03 1.11952E-04-3.91950E-14
 -1      3314 7.02708E-03 1.24260E-04-3.92778E-14
 -1      3315 7.68516E-03-1.59771E-04-4.27698E-14
 -1      3316 7.50818E-03-9.27243E-05-4.17335E-14
 -1      3317 7.73070E-03-2.24396E-04-4.25658E-14
 -1      3318 2.39753E-03 4.05635E-04-3.90310E-15
 -1      3319 2.25439E-03 4.01241E-04-3.45703E-15
 -1      3320 2.46311E-03 3.70624E-04-4.21885E-15
 -1      3321 9.59718E-03 1.21003E-03-5.30388E-14
 -1      3322 9.85967E-03 1.13049E-03-5.52837E-14
 -1      3323 1.14499E-03 3.09960E-04-9.27738E-16
 -1      3324 1.08245E-03 2.71127E-04-8.83842E-16
 -1      3325 1.20161E-03 2.72377E-04-1.09906E-15
 -1      3326 1.28816E-03 3.31698E-04-1.15789E-15
 -1      3327 9.20997E-03-8.10730E-04-5.40664E-14
 -1      3328 9.06966E-03-7.88912E-04-5.27670E-14
 -1      3329 1.04469E-02 8.66975E-04-6.01478E-14
 -1      3330 1.06431E-02 7.51255E-04-6.15952E-14
 -1      3331 1.08802E-02 6.17966E-04-6.31932E-14
 -1      3332 1.10793E-02 5.12917E-04-6.43895E-14
 -1      3333 7.35171E-03 2.22202E-04-4.00649E-14
 -1      3334 7.49668E-03 2.78220E-04-4.03840E-14
 -1      3335 1.01713E-03 6.80299E-05-1.00878E-15
 -1      3336 1.01598E-03 4.11090E-05-1.02467E-15
 -1      3337 1.40802E-02 3.90044E-04-1.07393E-13
 -1      3338 1.40985E-02 4.26032E-04-1.07175E-13
 -1      3339 1.39877E-02 4.31067E-04-1.05443E-13
 -1      3340 1.39502E-02 3.59131E-04-1.05883E-13
 -1      3341 7.01121E-03 8.71767E-05-3.93672E-14
 -1      3342 6.98940E-03 9.83660E-05-3.92774E-14
 -1      3343 7.10981E-03 7.96973E-05-4.05944E-14
 -1      3344 7.11104E-03 1.47606E-04-3.95173E-14
 -1      3345 7.22029E-03 1.77201E-04-3.97922E-14
 -1      3346 7.24012E-03 2.01594E-04-3.90239E-14
 -1      3347 1.01539E-03 1.43945E-05-1.03820E-15
 -1      3348 1.01534E-03-1.22303E-05-1.04970E-15
 -1      3349 1.13611E-03 3.00559E-05-1.24972E-15
 -1      3350 1.13008E-02 1.13253E-04-6.83692E-14
 -1      3351 1.12370E-02 7.04117E-05-6.88838E-14
 -1      3352 1.14250E-02 1.42552E-04-6.95213E-14
 -1      3353 1.08799E-02-6.60136E-05-6.64528E-14
 -1      3354 1.04468E-02-3.00228E-04-6.43127E-14
 -1      3355 1.03413E-02-3.76981E-04-6.39707E-14
 -1      3356 1.10798E-03-1.43728E-04-1.23329E-15
 -1      3357 1.11182E-03-1.74039E-04-1.23295E-15
 -1      3358 1.32114E-03-1.95722E-04-1.65800E-15
 -1      3359 1.00928E-02-5.22159E-04-6.22685E-14
 -1      3360 9.97503E-03-5.73052E-04-6.10659E-14
 -1      3361 9.88611E-03-6.34408E-04-6.05931E-14
 -1      3362 1.16316E-02 2.15727E-04-6.96617E-14
 -1      3363 1.15894E-02 1.95299E-04-7.01732E-14
 -1      3364 1.17152E-02 2.27395E-04-7.08314E-14
 -1      3365 1.02075E-02 1.00987E-03-5.82210E-14
 -1      3366 1.03433E-02 9.32873E-04-5.93562E-14
 -1      3367 8.96117E-03-7.70231E-04-5.18358E-14
 -1      3368 8.54840E-03-6.31036E-04-4.82528E-14
 -1      3369 9.01330E-03-8.16174E-04-5.24704E-14
 -1      3370 9.17986E-03-8.37505E-04-5.41009E-14
 -1      3371 8.10071E-03 6.10191E-04-4.17715E-14
 -1      3372 9.96398E-03-6.52015E-04-6.21375E-14
 -1      3373 1.01410E-02-5.77253E-04-6.38806E-14
 -1      3374 1.01890E-03 9.52331E-05-9.90744E-16
 -1      3375 1.13873E-03 8.82831E-05-1.21275E-15
 -1      3376 1.02133E-03 1.22950E-04-9.70009E-16
 -1      3377 1.10495E-03-1.14170E-04-1.23106E-15
 -1      3378 1.31316E-03-1.29250E-04-1.65453E-15
 -1      3379 1.10274E-03-8.52160E-05-1.22616E-15
 -1      3380 1.05639E-02-2.42928E-04-6.51908E-14
 -1      3381 1.04946E-02 8.81544E-04-6.06712E-14
 -1      3382 1.40199E-02 5.02503E-04-1.04995E-13
 -1      3383 1.41467E-02 5.34537E-04-1.06502E-13
 -1      3384 1.41602E-02 5.70843E-04-1.06273E-13
 -1      3385 9.27291E-03-8.19024E-04-5.47850E-14
 -1      3386 2.17588E-03 3.62155E-04-3.31885E-15
 -1      3387 7.58943E-03 3.99392E-04-3.86156E-14
 -1      3388 1.02655E-02-4.89802E-04-6.46146E-14
 -1      3389 1.17343E-02 2.89510E-04-6.91846E-14
 -1      3390 1.18115E-02 2.87414E-04-7.06047E-14
 -1      3391 1.17113E-02 3.03726E-04-6.92006E-14
 -1      3392 9.08798E-03 1.12675E-03-4.87885E-14
 -1      3393 1.15344E-03 2.11282E-04-1.10235E-15
 -1      3394 1.02868E-03 1.80785E-04-9.19390E-16
 -1      3395 1.02458E-03 1.51503E-04-9.46210E-16
 -1      3396 1.06891E-02 8.08424E-04-6.23787E-14
 -1      3397 1.12335E-02 4.71061E-04-6.57650E-14
 -1      3398 1.41724E-02 6.07302E-04-1.06043E-13
 -1      3399 1.41834E-02 6.44078E-04-1.05813E-13
 -1      3400 1.40466E-02 5.74314E-04-1.04539E-13
 -1      3401 1.17938E-02 2.60057E-04-7.04549E-14
 -1      3402 7.52648E-03 3.18012E-04-3.96467E-14
 -1      3403 6.94454E-03 1.01862E-04-3.83636E-14
 -1      3404 7.10842E-03 6.18572E-05-4.00233E-14
 -1      3405 7.07117E-03 6.85471E-05-3.97330E-14
 -1      3406 8.10936E-03-4.01025E-04-4.50229E-14
 -1      3407 1.08400E-02 7.07385E-04-6.34572E-14
 -1      3408 6.99782E-03 7.14365E-05-3.88049E-14
 -1      3409 7.35286E-03-5.65353E-05-4.05393E-14
 -1      3410 7.21071E-03-3.29684E-05-3.93611E-14
 -1      3411 7.40277E-03-1.12655E-04-4.03391E-14
 -1      3412 7.11100E-03 3.21534E-05-3.93612E-14
 -1      3413 7.02870E-03 1.35958E-04-3.85199E-14
 -1      3414 1.41981E-02 6.76053E-04-1.05700E-13
 -1      3415 1.42122E-02 7.08396E-04-1.05588E-13
 -1      3416 1.40725E-02 6.42060E-04-1.04195E-13
 -1      3417 1.55633E-03 3.60078E-04-1.67146E-15
 -1      3418 1.41295E-03 3.44237E-04-1.38878E-15
 -1      3419 1.36924E-03 3.14123E-04-1.35756E-15
 -1      3420 1.61947E-03 3.32351E-04-1.87979E-15
 -1      3421 1.39136E-02 1.83657E-04-1.07871E-13
 -1      3422 1.39648E-02 2.15457E-04-1.08170E-13
 -1      3423 1.38542E-02 2.23084E-04-1.06438E-13
 -1      3424 1.37910E-02 1.73602E-04-1.06231E-13
 -1      3425 1.43251E-03-1.79630E-04-1.91637E-15
 -1      3426 1.43747E-03-2.14827E-04-1.91618E-15
 -1      3427 1.55441E-03-2.33550E-04-2.19283E-15
 -1      3428 2.15073E-03-2.90376E-04-3.89767E-15
 -1      3429 2.29503E-03-2.94662E-04-4.38529E-15
 -1      3430 2.43929E-03-2.97902E-04-4.90122E-15
 -1      3431 2.58349E-03-3.00184E-04-5.44499E-15
 -1      3432 2.36239E-03-2.59965E-04-4.63758E-15
 -1      3433 2.72761E-03-3.01662E-04-6.01552E-15
 -1      3434 2.87161E-03-3.02399E-04-6.61363E-15
 -1      3435 2.65129E-03-2.64170E-04-5.72066E-15
 -1      3436 3.01548E-03-3.02515E-04-7.23953E-15
 -1      3437 3.15921E-03-3.02052E-04-7.89249E-15
 -1      3438 2.93976E-03-2.65552E-04-6.91301E-15
 -1      3439 3.30279E-03-3.01102E-04-8.57214E-15
 -1      3440 3.44620E-03-2.99689E-04-9.27848E-15
 -1      3441 3.22758E-03-2.64734E-04-8.21405E-15
 -1      3442 3.58944E-03-2.97882E-04-1.00111E-14
 -1      3443 3.73250E-03-2.95692E-04-1.07701E-14
 -1      3444 3.51459E-03-2.62167E-04-9.62107E-15
 -1      3445 3.87536E-03-2.93173E-04-1.15550E-14
 -1      3446 4.01802E-03-2.90328E-04-1.23652E-14
 -1      3447 3.80066E-03-2.58164E-04-1.11333E-14
 -1      3448 4.16047E-03-2.87201E-04-1.32024E-14
 -1      3449 4.30270E-03-2.83790E-04-1.40654E-14
 -1      3450 4.08568E-03-2.52939E-04-1.27502E-14
 -1      3451 4.44468E-03-2.80141E-04-1.49534E-14
 -1      3452 4.58645E-03-2.76251E-04-1.58677E-14
 -1      3453 4.36950E-03-2.46648E-04-1.44698E-14
 -1      3454 4.72796E-03-2.72171E-04-1.68069E-14
 -1      3455 4.86924E-03-2.67905E-04-1.77729E-14
 -1      3456 4.65202E-03-2.39425E-04-1.62923E-14
 -1      3457 5.01025E-03-2.63519E-04-1.87652E-14
 -1      3458 5.15106E-03-2.59027E-04-1.97831E-14
 -1      3459 4.93313E-03-2.31430E-04-1.82194E-14
 -1      3460 5.29164E-03-2.54516E-04-2.08280E-14
 -1      3461 5.43206E-03-2.50024E-04-2.18989E-14
 -1      3462 5.21279E-03-2.22886E-04-2.02512E-14
 -1      3463 5.57232E-03-2.45659E-04-2.29958E-14
 -1      3464 5.71256E-03-2.41500E-04-2.41207E-14
 -1      3465 5.49106E-03-2.14124E-04-2.23890E-14
 -1      3466 5.85280E-03-2.37678E-04-2.52705E-14
 -1      3467 5.99325E-03-2.34339E-04-2.64474E-14
 -1      3468 5.76825E-03-2.05635E-04-2.46327E-14
 -1      3469 6.13401E-03-2.31629E-04-2.76513E-14
 -1      3470 6.27541E-03-2.29815E-04-2.88801E-14
 -1      3471 6.04505E-03-1.98138E-04-2.69823E-14
 -1      3472 6.41763E-03-2.29042E-04-3.01338E-14
 -1      3473 6.56116E-03-2.29796E-04-3.14134E-14
 -1      3474 6.32275E-03-1.92692E-04-2.94345E-14
 -1      3475 6.70635E-03-2.32204E-04-3.27181E-14
 -1      3476 6.85387E-03-2.37141E-04-3.40461E-14
 -1      3477 6.60370E-03-1.90933E-04-3.19875E-14
 -1      3478 7.00434E-03-2.44706E-04-3.53985E-14
 -1      3479 7.15851E-03-2.56419E-04-3.67757E-14
 -1      3480 6.89167E-03-1.95679E-04-3.46360E-14
 -1      3481 7.31730E-03-2.72276E-04-3.81771E-14
 -1      3482 7.48138E-03-2.94925E-04-3.96009E-14
 -1      3483 7.19248E-03-2.11632E-04-3.73808E-14
 -1      3484 1.09578E-02-1.89030E-04-7.06422E-14
 -1      3485 1.11280E-02-1.42444E-04-7.24296E-14
 -1      3486 1.12926E-02-1.04017E-04-7.42216E-14
 -1      3487 1.14517E-02-7.09679E-05-7.60195E-14
 -1      3488 1.12725E-02-6.62405E-05-7.31579E-14
 -1      3489 1.16064E-02-4.31870E-05-7.78231E-14
 -1      3490 1.17574E-02-1.87941E-05-7.96309E-14
 -1      3491 1.15840E-02-8.19735E-06-7.67517E-14
 -1      3492 1.19054E-02 2.34165E-06-8.14440E-14
 -1      3493 1.20512E-02 2.13500E-05-8.32616E-14
 -1      3494 1.18790E-02 3.44240E-05-8.03642E-14
 -1      3495 1.21952E-02 3.83747E-05-8.50831E-14
 -1      3496 1.23380E-02 5.40692E-05-8.69095E-14
 -1      3497 1.21642E-02 6.82958E-05-8.39978E-14
 -1      3498 1.24799E-02 6.85930E-05-8.87454E-14
 -1      3499 1.26212E-02 8.23202E-05-9.05857E-14
 -1      3500 1.24443E-02 9.71887E-05-8.76519E-14
 -1      3501 1.27620E-02 9.54157E-05-9.24293E-14
 -1      3502 1.29027E-02 1.08097E-04-9.42785E-14
 -1      3503 1.27225E-02 1.23325E-04-9.13308E-14
 -1      3504 1.30433E-02 1.20521E-04-9.61338E-14
 -1      3505 1.31840E-02 1.32817E-04-9.79926E-14
 -1      3506 1.30003E-02 1.48146E-04-9.50250E-14
 -1      3507 1.33247E-02 1.45125E-04-9.98574E-14
 -1      3508 1.34656E-02 1.57512E-04-1.01725E-13
 -1      3509 1.32788E-02 1.72664E-04-9.87395E-14
 -1      3510 3.96313E-03 3.27361E-04-1.08436E-14
 -1      3511 3.82038E-03 3.30221E-04-1.00909E-14
 -1      3512 4.81538E-03 3.04350E-04-1.59243E-14
 -1      3513 4.67394E-03 3.08756E-04-1.50100E-14
 -1      3514 5.09728E-03 2.95191E-04-1.78338E-14
 -1      3515 4.95648E-03 2.99824E-04-1.68658E-14
 -1      3516 4.87906E-03 2.68074E-04-1.65171E-14
 -1      3517 5.37772E-03 2.85968E-04-1.98509E-14
 -1      3518 5.23768E-03 2.90563E-04-1.88289E-14
 -1      3519 5.15850E-03 2.59623E-04-1.84586E-14
 -1      3520 5.65649E-03 2.77397E-04-2.19757E-14
 -1      3521 5.51730E-03 2.81563E-04-2.08999E-14
 -1      3522 5.43570E-03 2.51257E-04-2.05078E-14
 -1      3523 5.93350E-03 2.70499E-04-2.42008E-14
 -1      3524 5.79518E-03 2.73681E-04-2.30755E-14
 -1      3525 5.71031E-03 2.43652E-04-2.26617E-14
 -1      3526 6.20895E-03 2.66671E-04-2.65259E-14
 -1      3527 6.07134E-03 2.68112E-04-2.53511E-14
 -1      3528 5.98204E-03 2.37723E-04-2.49170E-14
 -1      3529 6.48370E-03 2.67787E-04-2.89448E-14
 -1      3530 6.34625E-03 2.66469E-04-2.77242E-14
 -1      3531 6.25093E-03 2.34654E-04-2.72717E-14
 -1      3532 6.75981E-03 2.76367E-04-3.14541E-14
 -1      3533 6.62129E-03 2.70912E-04-3.01880E-14
 -1      3534 6.51757E-03 2.35946E-04-2.97178E-14
 -1      3535 7.04151E-03 2.96113E-04-3.40549E-14
 -1      3536 6.89944E-03 2.84375E-04-3.27433E-14
 -1      3537 6.78374E-03 2.43441E-04-3.22566E-14
 -1      3538 7.33640E-03 3.33747E-04-3.67403E-14
 -1      3539 7.18654E-03 3.11821E-04-3.53869E-14
 -1      3540 7.05368E-03 2.60364E-04-3.48835E-14
 -1      3541 1.02705E-02-4.47112E-04-6.40392E-14
 -1      3542 1.04636E-02-3.59620E-04-6.57848E-14
 -1      3543 2.81715E-03 3.38346E-04-5.58386E-15
 -1      3544 2.67337E-03 3.37198E-04-5.04872E-15
 -1      3545 1.25402E-02 5.51237E-04-8.27007E-14
 -1      3546 1.24027E-02 5.36175E-04-8.08759E-14
 -1      3547 1.22651E-02 5.22805E-04-7.90555E-14
 -1      3548 1.21267E-02 5.11649E-04-7.72444E-14
 -1      3549 1.23543E-02 4.96259E-04-8.01844E-14
 -1      3550 1.19873E-02 5.02907E-04-7.54404E-14
 -1      3551 1.18457E-02 4.97746E-04-7.36432E-14
 -1      3552 1.20879E-02 4.70812E-04-7.65620E-14
 -1      3553 1.28154E-02 5.85280E-04-8.63694E-14
 -1      3554 1.26777E-02 5.67693E-04-8.45320E-14
 -1      3555 1.26213E-02 5.27584E-04-8.38339E-14
 -1      3556 1.30920E-02 6.22792E-04-9.00564E-14
 -1      3557 1.29535E-02 6.03698E-04-8.82116E-14
 -1      3558 1.28908E-02 5.62884E-04-8.75036E-14
 -1      3559 1.33702E-02 6.62101E-04-9.37589E-14
 -1      3560 1.32309E-02 6.42291E-04-9.19053E-14
 -1      3561 1.31632E-02 6.00649E-04-9.11914E-14
 -1      3562 1.36502E-02 7.01915E-04-9.74755E-14
 -1      3563 1.35100E-02 6.81997E-04-9.56146E-14
 -1      3564 1.34384E-02 6.39615E-04-9.48955E-14
 -1      3565 1.39316E-02 7.41240E-04-1.01207E-13
 -1      3566 1.37907E-02 7.21677E-04-9.93396E-14
 -1      3567 1.37161E-02 6.78765E-04-9.86146E-14
 -1      3568 8.54347E-03-6.04409E-04-4.82782E-14
 -1      3569 1.05801E-03-3.38102E-05-1.13313E-15
 -1      3570 1.05898E-03-6.13250E-05-1.14152E-15
 -1      3571 1.26596E-03-7.06235E-05-1.54945E-15
 -1      3572 1.17861E-03-2.16067E-05-1.35729E-15
 -1      3573 7.75989E-03-2.85924E-04-4.23358E-14
 -1      3574 7.59727E-03-2.13784E-04-4.13059E-14
 -1      3575 1.15375E-02 3.74073E-04-6.82254E-14
 -1      3576 1.16226E-02 3.39596E-04-6.86937E-14
 -1      3577 1.07298E-02-1.64114E-04-6.63965E-14
 -1      3578 1.06486E-02-2.28969E-04-6.64085E-14
 -1      3579 7.28760E-03 2.61244E-04-3.77483E-14
 -1      3580 7.42726E-03 3.23239E-04-3.80949E-14
 -1      3581 1.95351E-03 3.16574E-04-2.77865E-15
 -1      3582 1.80951E-03 3.08456E-04-2.40633E-15
 -1      3583 3.67746E-03 3.32722E-04-9.36512E-15
 -1      3584 3.53440E-03 3.34856E-04-8.66676E-15
 -1      3585 3.74546E-03 2.95124E-04-9.82793E-15
 -1      3586 6.94620E-03 1.26492E-04-3.74622E-14
 -1      3587 7.02726E-03 1.50523E-04-3.76958E-14
 -1      3588 1.37757E-02 2.54861E-04-1.04810E-13
 -1      3589 1.37984E-02 2.92198E-04-1.04591E-13
 -1      3590 1.17014E-02 4.96221E-04-7.18569E-14
 -1      3591 1.15523E-02 5.00857E-04-7.00796E-14
 -1      3592 1.18184E-02 4.54204E-04-7.29691E-14
 -1      3593 4.53225E-03 3.12963E-04-1.41230E-14
 -1      3594 4.39028E-03 3.16967E-04-1.32624E-14
 -1      3595 4.59774E-03 2.76133E-04-1.46834E-14
 -1      3596 9.49313E-03 1.25659E-03-5.16617E-14
 -1      3597 4.24811E-03 3.20709E-04-1.24289E-14
 -1      3598 4.10571E-03 3.24190E-04-1.16226E-14
 -1      3599 4.03070E-03 2.89868E-04-1.13393E-14
 -1      3600 4.31487E-03 2.83474E-04-1.29576E-14
 -1      3601 7.06459E-03 1.26942E-05-3.84498E-14
 -1      3602 7.01958E-03 3.10117E-05-3.82586E-14
 -1      3603 2.52951E-03 3.35213E-04-4.54038E-15
 -1      3604 2.38556E-03 3.32316E-04-4.05920E-15
 -1      3605 2.59662E-03 2.99480E-04-4.86767E-15
 -1      3606 1.08163E-02 6.88907E-04-6.30703E-14
 -1      3607 6.95558E-03 5.55003E-05-3.79043E-14
 -1      3608 6.90654E-03 7.30099E-05-3.75473E-14
 -1      3609 6.90649E-03 3.74193E-05-3.70097E-14
 -1      3610 1.18628E-02 2.72096E-04-7.18439E-14
 -1      3611 1.18213E-02 2.53633E-04-7.17062E-14
 -1      3612 1.09441E-02-6.38963E-05-6.76766E-14
 -1      3613 6.89308E-03 9.08627E-05-3.74733E-14
 -1      3614 6.89992E-03 1.05428E-04-3.73929E-14
 -1      3615 6.83978E-03 7.76568E-05-3.65885E-14
 -1      3616 2.24157E-03 3.28330E-04-3.60509E-15
 -1      3617 2.09753E-03 3.23157E-04-3.17819E-15
 -1      3618 2.01950E-03 2.84395E-04-3.03567E-15
 -1      3619 1.86226E-03-2.77981E-04-3.00683E-15
 -1      3620 2.00646E-03-2.84856E-04-3.43834E-15
 -1      3621 2.07336E-03-2.52120E-04-3.66485E-15
 -1      3622 1.42379E-02 7.39146E-04-1.05668E-13
 -1      3623 1.42514E-02 7.72266E-04-1.05551E-13
 -1      3624 1.41623E-02 7.66212E-04-1.04321E-13
 -1      3625 1.41120E-02 7.04305E-04-1.04162E-13
 -1      3626 7.09358E-03 1.78904E-04-3.75951E-14
 -1      3627 7.20395E-03 2.17306E-04-3.78596E-14
 -1      3628 7.11972E-03 2.32480E-04-3.63417E-14
 -1      3629 6.98703E-03 1.65098E-04-3.65522E-14
 -1      3630 1.06186E-02-2.84936E-04-6.69937E-14
 -1      3631 1.15406E-02 1.67596E-04-7.06926E-14
 -1      3632 1.14921E-02 1.34773E-04-7.12137E-14
 -1      3633 1.16467E-02 1.86046E-04-7.18678E-14
 -1      3634 1.32632E-03 2.84774E-04-1.32353E-15
 -1      3635 1.28421E-03 2.56186E-04-1.28703E-15
 -1      3636 1.45137E-03 2.94872E-04-1.57017E-15
 -1      3637 1.18103E-02 2.41466E-04-7.22248E-14
 -1      3638 1.17917E-02 2.26630E-04-7.27418E-14
 -1      3639 1.19005E-02 2.54649E-04-7.36215E-14
 -1      3640 1.00124E-02 1.09363E-03-5.65560E-14
 -1      3641 1.08014E-02-2.19520E-04-6.87662E-14
 -1      3642 1.09603E-02-1.26830E-04-6.94900E-14
 -1      3643 7.61939E-03-3.21904E-04-4.07497E-14
 -1      3644 7.79465E-03-3.59311E-04-4.22146E-14
 -1      3645 7.94107E-03-3.80553E-04-4.34933E-14
 -1      3646 8.12784E-03-4.37955E-04-4.49955E-14
 -1      3647 1.14424E-03 1.48278E-04-1.16419E-15
 -1      3648 9.54284E-03-7.90683E-04-5.76974E-14
 -1      3649 9.92364E-03-6.57874E-04-6.15985E-14
 -1      3650 1.00396E-02-5.80718E-04-6.23339E-14
 -1      3651 1.26174E-03 1.10144E-04-1.43336E-15
 -1      3652 1.25957E-03 7.87627E-05-1.45767E-15
 -1      3653 1.35669E-02 1.60618E-04-1.03157E-13
 -1      3654 1.36891E-02 1.70205E-04-1.04795E-13
 -1      3655 1.37211E-02 1.94912E-04-1.04899E-13
 -1      3656 1.35189E-02 1.88234E-04-1.02035E-13
 -1      3657 7.48337E-03-2.46969E-04-3.99250E-14
 -1      3658 1.38200E-02 3.28632E-04-1.04375E-13
 -1      3659 1.38404E-02 3.64625E-04-1.04156E-13
 -1      3660 1.36895E-02 2.98560E-04-1.02867E-13
 -1      3661 1.38935E-02 4.70912E-04-1.03488E-13
 -1      3662 1.39082E-02 5.06288E-04-1.03262E-13
 -1      3663 1.01295E-02-5.15432E-04-6.28120E-14
 -1      3664 1.17361E-02 3.27094E-04-7.01136E-14
 -1      3665 1.27769E-03 2.21685E-04-1.32777E-15
 -1      3666 6.87370E-03 1.15604E-04-3.65852E-14
 -1      3667 1.40732E-02 7.59941E-04-1.03088E-13
 -1      3668 1.39214E-02 5.41704E-04-1.03034E-13
 -1      3669 1.39330E-02 5.77359E-04-1.02804E-13
 -1      3670 1.37967E-02 5.09618E-04-1.01531E-13
 -1      3671 1.14361E-02 4.27728E-04-6.77771E-14
 -1      3672 1.15606E-02 4.11910E-04-6.91534E-14
 -1      3673 7.10176E-03-2.81296E-05-3.82568E-14
 -1      3674 1.73120E-03 2.69357E-04-2.28197E-15
 -1      3675 1.66566E-03 2.98541E-04-2.06114E-15
 -1      3676 3.45930E-03 2.99039E-04-8.42532E-15
 -1      3677 3.39120E-03 3.36567E-04-7.99606E-15
 -1      3678 3.24786E-03 3.37836E-04-7.35238E-15
 -1      3679 1.39963E-02 7.16768E-04-1.02359E-13
 -1      3680 1.64934E-03-2.47333E-04-2.43113E-15
 -1      3681 1.76697E-03-2.65097E-04-2.74154E-15
 -1      3682 1.83371E-03-2.34598E-04-2.94549E-15
 -1      3683 1.64368E-03-2.09789E-04-2.43206E-15
 -1      3684 1.15765E-02 4.56740E-04-6.99420E-14
 -1      3685 1.14400E-02 5.13133E-04-6.88390E-14
 -1      3686 1.42855E-03-1.45083E-04-1.91309E-15
 -1      3687 1.54465E-03-1.60964E-04-2.19054E-15
 -1      3688 1.42553E-03-1.11046E-04-1.90688E-15
 -1      3689 1.12786E-02 5.31490E-04-6.70786E-14
 -1      3690 3.10440E-03 3.38589E-04-6.73592E-15
 -1      3691 2.96083E-03 3.38793E-04-6.14630E-15
 -1      3692 3.17236E-03 3.01347E-04-7.13129E-15
 -1      3693 1.38130E-03 6.67774E-05-1.72574E-15
 -1      3694 1.25813E-03 4.75920E-05-1.47906E-15
 -1      3695 1.25740E-03 1.66364E-05-1.49754E-15
 -1      3696 7.43745E-03-1.69970E-04-4.01150E-14
 -1      3697 1.39477E-02 6.08344E-04-1.02692E-13
 -1      3698 1.39616E-02 6.39694E-04-1.02580E-13
 -1      3699 1.38237E-02 5.75069E-04-1.01191E-13
 -1      3700 1.18719E-02 2.92459E-04-7.18780E-14
 -1      3701 1.18711E-02 2.82214E-04-7.18610E-14
 -1      3702 1.19195E-02 2.76704E-04-7.31198E-14
 -1      3703 2.30812E-03 2.94041E-04-3.89748E-15
 -1      3704 1.54018E-03 2.92096E-04-1.77520E-15
 -1      3705 2.88476E-03 3.01672E-04-5.94541E-15
 -1      3706 1.12660E-02 5.07566E-04-6.66831E-14
 -1      3707 1.11547E-02 1.59455E-05-6.92184E-14
 -1      3708 1.10210E-02-6.89617E-05-6.91618E-14
 -1      3709 1.11615E-02-5.01264E-05-7.10410E-14
 -1      3710 1.12922E-02 5.63131E-05-7.03763E-14
 -1      3711 1.38596E-02 4.00352E-04-1.03935E-13
 -1      3712 1.38773E-02 4.35662E-04-1.03713E-13
 -1      3713 1.37674E-02 4.40013E-04-1.01984E-13
 -1      3714 1.37314E-02 3.69981E-04-1.02430E-13
 -1      3715 1.37529E-02 2.19410E-04-1.05003E-13
 -1      3716 1.36436E-02 2.27105E-04-1.03274E-13
 -1      3717 1.49813E-03 2.63380E-04-1.73158E-15
 -1      3718 1.35433E-02 2.23601E-04-1.01844E-13
 -1      3719 5.49274E-03 2.17851E-04-2.11672E-14
 -1      3720 5.35624E-03 2.21463E-04-2.01135E-14
 -1      3721 2.57520E-03-2.26705E-04-5.43052E-15
 -1      3722 2.71976E-03-2.27890E-04-5.99684E-15
 -1      3723 2.86419E-03-2.28505E-04-6.59059E-15
 -1      3724 3.00844E-03-2.28586E-04-7.21218E-15
 -1      3725 2.78884E-03-1.91414E-04-6.27318E-15
 -1      3726 3.15249E-03-2.28221E-04-7.86013E-15
 -1      3727 3.29632E-03-2.27431E-04-8.53465E-15
 -1      3728 3.07760E-03-1.91574E-04-7.51036E-15
 -1      3729 3.43989E-03-2.26284E-04-9.23529E-15
 -1      3730 3.58320E-03-2.24787E-04-9.96221E-15
 -1      3731 3.36541E-03-1.90217E-04-8.85391E-15
 -1      3732 3.72620E-03-2.22995E-04-1.07164E-14
 -1      3733 3.86890E-03-2.20902E-04-1.14957E-14
 -1      3734 3.65202E-03-1.87623E-04-1.03029E-14
 -1      3735 4.01125E-03-2.18555E-04-1.23013E-14
 -1      3736 4.15326E-03-2.15941E-04-1.31335E-14
 -1      3737 3.93722E-03-1.83978E-04-1.18573E-14
 -1      3738 4.29487E-03-2.13101E-04-1.39901E-14
 -1      3739 4.43609E-03-2.10017E-04-1.48729E-14
 -1      3740 4.22079E-03-1.79401E-04-1.35144E-14
 -1      3741 4.57687E-03-2.06734E-04-1.57820E-14
 -1      3742 4.71722E-03-2.03230E-04-1.67168E-14
 -1      3743 4.50250E-03-1.73964E-04-1.52755E-14
 -1      3744 4.85709E-03-1.99557E-04-1.76786E-14
 -1      3745 4.99649E-03-1.95694E-04-1.86662E-14
 -1      3746 4.78212E-03-1.67725E-04-1.71414E-14
 -1      3747 5.13538E-03-1.91704E-04-1.96786E-14
 -1      3748 5.27379E-03-1.87571E-04-2.07195E-14
 -1      3749 5.05941E-03-1.60750E-04-1.91116E-14
 -1      3750 5.41167E-03-1.83371E-04-2.17864E-14
 -1      3751 5.54910E-03-1.79102E-04-2.28797E-14
 -1      3752 5.33417E-03-1.53128E-04-2.11877E-14
 -1      3753 5.68605E-03-1.74851E-04-2.39997E-14
 -1      3754 5.82267E-03-1.70644E-04-2.51453E-14
 -1      3755 5.60631E-03-1.44995E-04-2.33702E-14
 -1      3756 5.95893E-03-1.66575E-04-2.63182E-14
 -1      3757 6.09509E-03-1.62726E-04-2.75167E-14
 -1      3758 5.87592E-03-1.36551E-04-2.56579E-14
 -1      3759 6.23116E-03-1.59187E-04-2.87396E-14
 -1      3760 6.36761E-03-1.56157E-04-2.99872E-14
 -1      3761 6.14344E-03-1.28102E-04-2.80487E-14
 -1      3762 6.50447E-03-1.53696E-04-3.12609E-14
 -1      3763 6.64254E-03-1.52272E-04-3.25591E-14
 -1      3764 6.40992E-03-1.20137E-04-3.05398E-14
 -1      3765 6.78191E-03-1.51988E-04-3.38791E-14
 -1      3766 6.92394E-03-1.53846E-04-3.52227E-14
 -1      3767 6.67745E-03-1.13646E-04-3.31274E-14
 -1      3768 8.32409E-03-5.35428E-04-4.64299E-14
 -1      3769 1.26866E-03 1.74780E-04-1.37410E-15
 -1      3770 1.26476E-03 1.42150E-04-1.40568E-15
 -1      3771 1.38603E-03 1.33405E-04-1.67034E-15
 -1      3772 1.10585E-02 5.92892E-04-6.50719E-14
 -1      3773 1.15683E-02 2.76522E-05-7.56812E-14
 -1      3774 1.17144E-02 4.86902E-05-7.74814E-14
 -1      3775 1.18569E-02 6.66506E-05-7.92862E-14
 -1      3776 1.19974E-02 8.30261E-05-8.10972E-14
 -1      3777 1.18397E-02 9.92289E-05-7.82084E-14
 -1      3778 1.21361E-02 9.78611E-05-8.29127E-14
 -1      3779 1.22738E-02 1.11884E-04-8.47321E-14
 -1      3780 1.21110E-02 1.27179E-04-8.18254E-14
 -1      3781 1.24108E-02 1.25146E-04-8.65594E-14
 -1      3782 1.25476E-02 1.37973E-04-8.83935E-14
 -1      3783 1.23793E-02 1.52485E-04-8.54670E-14
 -1      3784 1.26843E-02 1.50461E-04-9.02304E-14
 -1      3785 1.28212E-02 1.62757E-04-9.20728E-14
 -1      3786 1.26475E-02 1.76806E-04-8.91296E-14
 -1      3787 1.29583E-02 1.74969E-04-9.39193E-14
 -1      3788 1.30958E-02 1.87164E-04-9.57683E-14
 -1      3789 1.29172E-02 2.00955E-04-9.28131E-14
 -1      3790 1.32336E-02 1.99451E-04-9.76246E-14
 -1      3791 1.33720E-02 2.11850E-04-9.94844E-14
 -1      3792 1.31891E-02 2.25433E-04-9.65099E-14
 -1      3793 1.34958E-02 2.49840E-04-1.00722E-13
 -1      3794 4.94213E-03 2.32707E-04-1.71140E-14
 -1      3795 4.80274E-03 2.36431E-04-1.61668E-14
 -1      3796 5.76298E-03 2.11400E-04-2.33513E-14
 -1      3797 5.62831E-03 2.14499E-04-2.22470E-14
 -1      3798 5.54908E-03 1.85791E-04-2.18303E-14
 -1      3799 6.02918E-03 2.06605E-04-2.56375E-14
 -1      3800 5.89657E-03 2.08772E-04-2.44820E-14
 -1      3801 5.81482E-03 1.80677E-04-2.40453E-14
 -1      3802 6.29105E-03 2.04417E-04-2.80193E-14
 -1      3803 6.16060E-03 2.05155E-04-2.68162E-14
 -1      3804 6.07527E-03 1.77175E-04-2.63599E-14
 -1      3805 6.54873E-03 2.05947E-04-3.04947E-14
 -1      3806 6.42026E-03 2.04662E-04-2.92457E-14
 -1      3807 6.32969E-03 1.75984E-04-2.87702E-14
 -1      3808 6.80330E-03 2.12368E-04-3.30618E-14
 -1      3809 6.67612E-03 2.08529E-04-3.17662E-14
 -1      3810 6.57754E-03 1.77787E-04-3.12747E-14
 -1      3811 6.99091E-03 2.22335E-04-3.49949E-14
 -1      3812 7.30869E-03-1.53178E-04-3.89805E-14
 -1      3813 1.26976E-02 5.06111E-04-8.49635E-14
 -1      3814 1.25668E-02 4.89208E-04-8.31349E-14
 -1      3815 1.21807E-02 4.44343E-04-7.76838E-14
 -1      3816 1.20533E-02 4.31864E-04-7.58805E-14
 -1      3817 1.32316E-02 5.79350E-04-9.23235E-14
 -1      3818 1.30965E-02 5.60414E-04-9.04771E-14
 -1      3819 1.35044E-02 6.17647E-04-9.60300E-14
 -1      3820 1.33676E-02 5.98427E-04-9.41746E-14
 -1      3821 1.32973E-02 5.58488E-04-9.34556E-14
 -1      3822 1.36726E-02 4.78106E-04-1.00035E-13
 -1      3823 1.36853E-02 5.12496E-04-9.98062E-14
 -1      3824 7.10331E-03-7.42444E-05-3.76983E-14
 -1      3825 6.96661E-03-2.83908E-05-3.68104E-14
 -1      3826 1.39830E-03 2.15991E-04-1.58787E-15
 -1      3827 1.79774E-03 2.39314E-04-2.50991E-15
 -1      3828 1.65374E-03 2.31135E-04-2.15576E-15
 -1      3829 1.17751E-02 3.55823E-04-7.12317E-14
 -1      3830 1.18436E-02 3.24206E-04-7.17417E-14
 -1      3831 2.95291E-03 2.64837E-04-6.31213E-15
 -1      3832 2.80875E-03 2.64452E-04-5.74241E-15
 -1      3833 5.21895E-03 2.25162E-04-1.90866E-14
 -1      3834 5.08087E-03 2.28954E-04-1.80869E-14
 -1      3835 5.27881E-03 1.91855E-04-1.97183E-14
 -1      3836 1.39717E-02 6.86188E-04-1.02281E-13
 -1      3837 1.16595E-02 4.07669E-04-7.03958E-14
 -1      3838 4.66279E-03 2.40025E-04-1.52481E-14
 -1      3839 4.52229E-03 2.43503E-04-1.43560E-14
 -1      3840 4.72747E-03 2.04706E-04-1.58165E-14
 -1      3841 1.48763E-03 2.12296E-04-1.79167E-15
 -1      3842 2.66444E-03 2.63445E-04-5.20005E-15
 -1      3843 2.52002E-03 2.61768E-04-4.68453E-15
 -1      3844 2.73289E-03 2.27178E-04-5.53838E-15
 -1      3845 3.81349E-03 2.57771E-04-1.02956E-14
 -1      3846 3.67069E-03 2.59859E-04-9.56350E-15
 -1      3847 1.99656E-03-2.14344E-04-3.43618E-15
 -1      3848 2.14116E-03-2.18766E-04-3.89336E-15
 -1      3849 6.85973E-03 1.34469E-05-3.61380E-14
 -1      3850 6.80705E-03 3.65684E-05-3.57946E-14
 -1      3851 2.37551E-03 2.59293E-04-4.19567E-15
 -1      3852 2.23097E-03 2.55948E-04-3.73373E-15
 -1      3853 2.44366E-03 2.24144E-04-4.49998E-15
 -1      3854 1.24372E-02 4.73222E-04-8.13116E-14
 -1      3855 1.23084E-02 4.58164E-04-7.94951E-14
 -1      3856 1.25135E-02 4.52621E-04-8.24377E-14
 -1      3857 6.78468E-03 1.04006E-04-3.54671E-14
 -1      3858 6.83103E-03 1.27093E-04-3.55341E-14
 -1      3859 2.08646E-03 2.51575E-04-3.29871E-15
 -1      3860 1.94201E-03 2.46088E-04-2.89073E-15
 -1      3861 1.86516E-03 2.08383E-04-2.74450E-15
 -1      3862 2.15425E-03 2.18159E-04-3.56845E-15
 -1      3863 6.78173E-03 6.34293E-05-3.56930E-14
 -1      3864 6.77568E-03 8.22179E-05-3.56206E-14
 -1      3865 1.17944E-02 3.94565E-04-7.20277E-14
 -1      3866 1.12918E-02-2.16207E-05-7.24609E-14
 -1      3867 1.14471E-02 7.47154E-06-7.42521E-14
 -1      3868 1.15869E-02 6.76209E-05-7.49782E-14
 -1      3869 1.13481E-02 2.89147E-05-7.21290E-14
 -1      3870 2.28584E-03-2.22236E-04-4.37813E-15
 -1      3871 2.43055E-03-2.24839E-04-4.89073E-15
 -1      3872 2.20975E-03-1.84824E-04-4.12353E-15
 -1      3873 1.29625E-02 5.41848E-04-8.86355E-14
 -1      3874 1.28295E-02 5.23659E-04-8.67969E-14
 -1      3875 1.27690E-02 4.86059E-04-8.60924E-14
 -1      3876 1.30306E-02 5.21625E-04-8.97642E-14
 -1      3877 7.14799E-03-1.39365E-04-3.75154E-14
 -1      3878 1.38474E-02 6.51491E-04-1.00781E-13
 -1      3879 1.19960E-02 2.87735E-04-7.45650E-14
 -1      3880 1.19807E-02 2.76745E-04-7.45457E-14
 -1      3881 1.19834E-02 2.64831E-04-7.50680E-14
 -1      3882 1.35195E-02 2.85874E-04-1.00507E-13
 -1      3883 1.35781E-02 5.10211E-04-9.81993E-14
 -1      3884 1.37005E-02 5.42305E-04-9.96931E-14
 -1      3885 1.37145E-02 5.72460E-04-9.95810E-14
 -1      3886 6.88737E-03-9.16581E-05-3.53541E-14
 -1      3887 7.00291E-03-1.34745E-04-3.61332E-14
 -1      3888 1.55492E-03 1.85130E-04-1.98812E-15
 -1      3889 5.00473E-03 1.98307E-04-1.77136E-14
 -1      3890 2.49942E-03-1.89341E-04-5.14428E-15
 -1      3891 6.87551E-03 1.85622E-04-3.44826E-14
 -1      3892 1.17652E-02 2.06111E-04-7.32683E-14
 -1      3893 1.17353E-02 1.81769E-04-7.37927E-14
 -1      3894 1.18758E-02 2.22895E-04-7.46704E-14
 -1      3895 1.20122E-02 3.79089E-04-7.49266E-14
 -1      3896 1.19182E-02 4.04025E-04-7.38148E-14
 -1      3897 3.09690E-03 2.64703E-04-6.90866E-15
 -1      3898 3.02155E-03 2.27919E-04-6.68446E-15
 -1      3899 3.24069E-03 2.64080E-04-7.53176E-15
 -1      3900 1.37804E-02 6.55933E-04-9.97542E-14
 -1      3901 1.36420E-02 6.36817E-04-9.78905E-14
 -1      3902 1.80631E-03-1.91985E-04-2.88012E-15
 -1      3903 1.90138E-03-2.03280E-04-3.15230E-15
 -1      3904 1.96986E-03-1.71145E-04-3.36084E-15
 -1      3905 3.52761E-03 2.61619E-04-8.85935E-15
 -1      3906 3.38427E-03 2.63046E-04-8.18215E-15
 -1      3907 3.59611E-03 2.24386E-04-9.29869E-15
 -1      3908 6.84814E-03-2.36140E-05-3.55986E-14
 -1      3909 1.30033E-03-7.31183E-06-1.60021E-15
 -1      3910 1.34379E-03-3.22781E-05-1.70479E-15
 -1      3911 1.42305E-03 8.86869E-06-1.86095E-15
 -1      3912 1.22647E-02 4.21868E-04-7.88047E-14
 -1      3913 6.72527E-03 4.35072E-05-3.48393E-14
 -1      3914 1.19241E-02 3.15645E-04-7.30055E-14
 -1      3915 1.62793E-03-1.70793E-04-2.40068E-15
 -1      3916 1.72260E-03-1.82468E-04-2.65001E-15
 -1      3917 1.79117E-03-1.52004E-04-2.84194E-15
 -1      3918 1.62432E-03-1.34359E-04-2.39411E-15
 -1      3919 1.35684E-02 5.95903E-04-9.71656E-14
 -1      3920 4.09814E-03 2.52767E-04-1.18390E-14
 -1      3921 3.95598E-03 2.55409E-04-1.10541E-14
 -1      3922 3.88157E-03 2.20742E-04-1.07673E-14
 -1      3923 4.38134E-03 2.46789E-04-1.34895E-14
 -1      3924 4.23993E-03 2.49896E-04-1.26512E-14
 -1      3925 4.16549E-03 2.16132E-04-1.23435E-14
 -1      3926 4.44757E-03 2.10726E-04-1.40266E-14
 -1      3927 1.55082E-03 1.49104E-04-2.02709E-15
 -1      3928 1.54768E-03 1.13528E-04-2.06207E-15
 -1      3929 1.71663E-03 1.64164E-04-2.41792E-15
 -1      3930 1.54542E-03 7.83151E-05-2.09277E-15
 -1      3931 1.54398E-03 4.33434E-05-2.12018E-15
 -1      3932 1.71066E-03 8.98562E-05-2.49446E-15
 -1      3933 1.36580E-02 4.43963E-04-1.00260E-13
 -1      3934 1.35490E-02 4.47420E-04-9.85386E-14
 -1      3935 1.36416E-02 4.09682E-04-1.00484E-13
 -1      3936 6.71253E-03 9.17882E-05-3.45884E-14
 -1      3937 1.14505E-02 1.07015E-04-7.15043E-14
 -1      3938 1.13842E-02 6.02417E-05-7.18420E-14
 -1      3939 1.15017E-02 7.89261E-05-7.32628E-14
 -1      3940 1.15711E-02 1.33367E-04-7.26818E-14
 -1      3941 1.36185E-03-5.76158E-05-1.75328E-15
 -1      3942 1.40642E-03-8.43909E-05-1.85977E-15
 -1      3943 1.52177E-03-9.76603E-05-2.13385E-15
 -1      3944 1.48444E-03-4.35196E-05-2.02956E-15
 -1      3945 1.20790E-02 2.69799E-04-7.68791E-14
 -1      3946 1.19869E-02 2.45076E-04-7.59492E-14
 -1      3947 2.71383E-03-1.54353E-04-5.96077E-15
 -1      3948 2.85851E-03-1.54773E-04-6.54930E-15
 -1      3949 5.86655E-03 1.51526E-04-2.47413E-14
 -1      3950 5.73663E-03 1.53191E-04-2.36065E-14
 -1      3951 6.73211E-03-7.84649E-05-3.39149E-14
 -1      3952 6.80420E-03-5.83369E-05-3.48038E-14
 -1      3953 6.70727E-03-1.69078E-05-3.41541E-14
 -1      3954 6.60229E-03-8.26640E-05-3.25974E-14
 -1      3955 3.00300E-03-1.54836E-04-7.16556E-15
 -1      3956 3.14724E-03-1.54552E-04-7.80833E-15
 -1      3957 2.92873E-03-1.18036E-04-6.82542E-15
 -1      3958 3.29121E-03-1.53985E-04-8.47739E-15
 -1      3959 3.43486E-03-1.53132E-04-9.17254E-15
 -1      3960 3.21733E-03-1.17589E-04-8.10532E-15
 -1      3961 3.57817E-03-1.52047E-04-9.89465E-15
 -1      3962 3.72110E-03-1.50718E-04-1.06427E-14
 -1      3963 3.50466E-03-1.16243E-04-9.49105E-15
 -1      3964 3.86361E-03-1.49188E-04-1.14167E-14
 -1      3965 4.00569E-03-1.47438E-04-1.22169E-14
 -1      3966 3.79043E-03-1.14135E-04-1.09811E-14
 -1      3967 4.14729E-03-1.45507E-04-1.30434E-14
 -1      3968 4.28838E-03-1.43366E-04-1.38954E-14
 -1      3969 4.07433E-03-1.11341E-04-1.25758E-14
 -1      3970 4.42892E-03-1.41055E-04-1.47729E-14
 -1      3971 4.56888E-03-1.38535E-04-1.56770E-14
 -1      3972 4.35607E-03-1.07893E-04-1.42753E-14
 -1      3973 4.70822E-03-1.35851E-04-1.66080E-14
 -1      3974 4.84690E-03-1.32961E-04-1.75649E-14
 -1      3975 4.63530E-03-1.03781E-04-1.60790E-14
 -1      3976 4.98487E-03-1.29913E-04-1.85486E-14
 -1      3977 5.12212E-03-1.26656E-04-1.95576E-14
 -1      3978 4.91167E-03-9.89847E-05-1.79886E-14
 -1      3979 5.25857E-03-1.23248E-04-2.05930E-14
 -1      3980 5.39424E-03-1.19632E-04-2.16566E-14
 -1      3981 5.18475E-03-9.34550E-05-2.00032E-14
 -1      3982 5.52904E-03-1.15874E-04-2.27454E-14
 -1      3983 5.66303E-03-1.11912E-04-2.38607E-14
 -1      3984 5.45415E-03-8.71210E-05-2.21245E-14
 -1      3985 5.79610E-03-1.07819E-04-2.50027E-14
 -1      3986 5.92840E-03-1.03538E-04-2.61696E-14
 -1      3987 5.71945E-03-7.98927E-05-2.43511E-14
 -1      3988 6.05978E-03-9.91415E-05-2.73627E-14
 -1      3989 6.19051E-03-9.45896E-05-2.85803E-14
 -1      3990 5.98030E-03-7.16507E-05-2.66802E-14
 -1      3991 6.32046E-03-8.99333E-05-2.98232E-14
 -1      3992 6.45007E-03-8.52213E-05-3.10907E-14
 -1      3993 6.23650E-03-6.22133E-05-2.91109E-14
 -1      3994 1.18276E-02 1.30933E-04-7.71296E-14
 -1      3995 1.19588E-02 1.43559E-04-7.89314E-14
 -1      3996 2.13424E-03-1.47878E-04-3.87324E-15
 -1      3997 2.27913E-03-1.50331E-04-4.35426E-15
 -1      3998 1.20889E-02 1.55503E-04-8.07395E-14
 -1      3999 1.22193E-02 1.67202E-04-8.25539E-14
 -1      4000 1.20698E-02 1.82840E-04-7.96520E-14
 -1      4001 1.23495E-02 1.78776E-04-8.43732E-14
 -1      4002 1.24804E-02 1.90398E-04-8.61998E-14
 -1      4003 1.23213E-02 2.04008E-04-8.32797E-14
 -1      4004 1.26117E-02 2.02118E-04-8.80290E-14
 -1      4005 1.27439E-02 2.13943E-04-8.98659E-14
 -1      4006 1.25767E-02 2.26349E-04-8.69292E-14
 -1      4007 1.28767E-02 2.25956E-04-9.17054E-14
 -1      4008 1.30104E-02 2.38121E-04-9.35488E-14
 -1      4009 1.28366E-02 2.49926E-04-9.05989E-14
 -1      4010 1.31449E-02 2.50523E-04-9.53993E-14
 -1      4011 1.32803E-02 2.63109E-04-9.72507E-14
 -1      4012 1.31009E-02 2.74661E-04-9.42851E-14
 -1      4013 6.12124E-03 1.49539E-04-2.70856E-14
 -1      4014 5.99475E-03 1.50357E-04-2.59018E-14
 -1      4015 5.91860E-03 1.23949E-04-2.54414E-14
 -1      4016 5.60526E-03 1.55106E-04-2.24965E-14
 -1      4017 5.47248E-03 1.57355E-04-2.14125E-14
 -1      4018 5.66164E-03 1.25799E-04-2.31667E-14
 -1      4019 6.36805E-03 1.49651E-04-2.95248E-14
 -1      4020 6.24564E-03 1.49387E-04-2.82925E-14
 -1      4021 6.16766E-03 1.23715E-04-2.78141E-14
 -1      4022 6.60533E-03 1.52181E-04-3.20576E-14
 -1      4023 6.48786E-03 1.50708E-04-3.07805E-14
 -1      4024 6.40688E-03 1.25417E-04-3.02824E-14
 -1      4025 5.33849E-03 1.59739E-04-2.03550E-14
 -1      4026 5.20333E-03 1.62312E-04-1.93229E-14
 -1      4027 5.39826E-03 1.28824E-04-2.09942E-14
 -1      4028 1.33604E-02 5.37911E-04-9.45874E-14
 -1      4029 1.32271E-02 5.19825E-04-9.27388E-14
 -1      4030 1.37717E-02 6.10285E-04-1.00053E-13
 -1      4031 6.82579E-03 1.58401E-04-3.45814E-14
 -1      4032 2.42407E-03-1.52188E-04-4.86259E-15
 -1      4033 2.56900E-03-1.53500E-04-5.39799E-15
 -1      4034 2.34923E-03-1.15330E-04-4.58620E-15
 -1      4035 1.23399E-02 4.02858E-04-7.99237E-14
 -1      4036 1.22217E-02 3.88015E-04-7.81134E-14
 -1      4037 4.79202E-03 1.70224E-04-1.63892E-14
 -1      4038 4.65323E-03 1.72836E-04-1.54652E-14
 -1      4039 1.86078E-03 1.69609E-04-2.79392E-15
 -1      4040 2.80196E-03 1.90708E-04-5.88283E-15
 -1      4041 2.65732E-03 1.89931E-04-5.33310E-15
 -1      4042 5.06715E-03 1.64918E-04-1.83180E-14
 -1      4043 4.93001E-03 1.67596E-04-1.73402E-14
 -1      4044 5.12960E-03 1.32564E-04-1.89264E-14
 -1      4045 1.34114E-02 2.92022E-04-9.87689E-14
 -1      4046 1.36016E-02 3.40022E-04-1.00906E-13
 -1      4047 1.36217E-02 3.74933E-04-1.00686E-13
 -1      4048 1.33640E-02 3.16132E-04-9.76494E-14
 -1      4049 1.25836E-02 4.33951E-04-8.35609E-14
 -1      4050 1.24605E-02 4.18077E-04-8.17396E-14
 -1      4051 1.24068E-02 3.85556E-04-8.10408E-14
 -1      4052 6.65130E-03 2.39601E-05-3.38256E-14
 -1      4053 6.63421E-03 5.14270E-05-3.37284E-14
 -1      4054 6.63567E-03 7.62502E-05-3.36814E-14
 -1      4055 6.64541E-03 1.00153E-04-3.35319E-14
 -1      4056 6.71280E-03 1.44701E-04-3.34964E-14
 -1      4057 2.51255E-03 1.88616E-04-4.81013E-15
 -1      4058 2.36771E-03 1.86727E-04-4.31422E-15
 -1      4059 2.58211E-03 1.52775E-04-5.12641E-15
 -1      4060 1.36492E-02 5.76749E-04-9.85568E-14
 -1      4061 6.63038E-03 1.20279E-04-3.29793E-14
 -1      4062 6.59833E-03-4.57389E-06-3.30575E-14
 -1      4063 2.03917E-03-1.38241E-04-3.57108E-15
 -1      4064 2.10924E-03-1.04604E-04-3.78320E-15
 -1      4065 1.94421E-03-1.28533E-04-3.28132E-15
 -1      4066 6.51020E-03-5.31147E-05-3.18532E-14
 -1      4067 6.53878E-03 1.05150E-04-3.20966E-14
 -1      4068 3.09069E-03 1.90953E-04-7.06243E-15
 -1      4069 2.94643E-03 1.91041E-04-6.45900E-15
 -1      4070 2.87160E-03 1.54105E-04-6.23269E-15
 -1      4071 1.35142E-02 3.79710E-04-9.89656E-14
 -1      4072 1.19753E-02 2.26526E-04-7.64807E-14
 -1      4073 1.35134E-02 5.58529E-04-9.66962E-14
 -1      4074 1.34395E-02 5.19674E-04-9.59745E-14
 -1      4075 1.21285E-02 3.71922E-04-7.66413E-14
 -1      4076 1.20052E-02 3.44250E-04-7.45729E-14
 -1      4077 1.20175E-02 3.12004E-04-7.47081E-14
 -1      4078 1.20923E-02 3.12874E-04-7.61399E-14
 -1      4079 1.16129E-02 1.00254E-04-7.44793E-14
 -1      4080 1.17232E-02 1.13721E-04-7.59069E-14
 -1      4081 1.18472E-02 1.58233E-04-7.66255E-14
 -1      4082 1.16430E-02 1.26129E-04-7.41885E-14
 -1      4083 4.85658E-03 1.36617E-04-1.69659E-14
 -1      4084 2.29221E-03 1.49601E-04-4.12693E-15
 -1      4085 2.22286E-03 1.84160E-04-3.84454E-15
 -1      4086 2.07809E-03 1.80850E-04-3.40175E-15
 -1      4087 3.66486E-03 1.87388E-04-9.74291E-15
 -1      4088 3.52181E-03 1.88704E-04-9.03252E-15
 -1      4089 1.58709E-03 1.66911E-05-2.24553E-15
 -1      4090 2.63922E-03-1.17378E-04-5.65222E-15
 -1      4091 1.58553E-03-7.78073E-05-2.28744E-15
 -1      4092 1.60465E-03-1.05861E-04-2.34133E-15
 -1      4093 1.68778E-03-1.14090E-04-2.55836E-15
 -1      4094 6.55240E-03 5.97537E-05-3.26885E-14
 -1      4095 3.30937E-03 2.26866E-04-7.93788E-15
 -1      4096 4.57994E-03 1.40670E-04-1.51127E-14
 -1      4097 4.51374E-03 1.75337E-04-1.45677E-14
 -1      4098 4.37359E-03 1.77754E-04-1.36965E-14
 -1      4099 1.21615E-02 2.94617E-04-7.78089E-14
 -1      4100 1.21801E-02 2.75957E-04-7.86972E-14
 -1      4101 1.92992E-03 1.37642E-04-3.03339E-15
 -1      4102 1.28358E-02 4.67089E-04-8.72179E-14
 -1      4103 1.27086E-02 4.50179E-04-8.53872E-14
 -1      4104 1.26478E-02 4.16087E-04-8.46834E-14
 -1      4105 1.16742E-02 1.50392E-04-7.38946E-14
 -1      4106 1.31566E-02 4.82436E-04-9.20232E-14
 -1      4107 1.30952E-02 5.01981E-04-9.08938E-14
 -1      4108 1.29646E-02 4.84324E-04-8.90544E-14
 -1      4109 1.92721E-03 9.89233E-05-3.07587E-15
 -1      4110 1.92537E-03 6.03710E-05-3.11354E-15
 -1      4111 2.14458E-03 1.07175E-04-3.71598E-15
 -1      4112 1.34259E-02 4.17349E-04-9.70438E-14
 -1      4113 1.34404E-02 4.50329E-04-9.68169E-14
 -1      4114 3.94977E-03 1.84088E-04-1.12447E-14
 -1      4115 3.80752E-03 1.85853E-04-1.04804E-14
 -1      4116 3.73384E-03 1.50692E-04-1.01925E-14
 -1      4117 1.18032E-02 1.74149E-04-7.53027E-14
 -1      4118 1.21982E-02 3.55118E-04-7.77523E-14
 -1      4119 1.21949E-02 3.21251E-04-7.79584E-14
 -1      4120 5.97195E-03 9.78263E-05-2.61444E-14
 -1      4121 5.84642E-03 9.76682E-05-2.49795E-14
 -1      4122 6.21588E-03 9.95826E-05-2.85451E-14
 -1      4123 6.09517E-03 9.85765E-05-2.73330E-14
 -1      4124 6.02719E-03 7.31181E-05-2.68500E-14
 -1      4125 1.34259E-02 4.90845E-04-9.60887E-14
 -1      4126 3.14385E-03-8.10687E-05-7.73775E-15
 -1      4127 3.28788E-03-8.07186E-05-8.40137E-15
 -1      4128 3.43156E-03-8.02293E-05-9.09109E-15
 -1      4129 3.57485E-03-7.95812E-05-9.80749E-15
 -1      4130 3.35886E-03-4.40017E-05-8.69647E-15
 -1      4131 3.71769E-03-7.88159E-05-1.05499E-14
 -1      4132 3.86007E-03-7.79058E-05-1.13180E-14
 -1      4133 3.64539E-03-4.32039E-05-1.01230E-14
 -1      4134 4.00193E-03-7.68811E-05-1.21138E-14
 -1      4135 4.14323E-03-7.57135E-05-1.29347E-14
 -1      4136 3.93003E-03-4.20756E-05-1.16553E-14
 -1      4137 4.28393E-03-7.44340E-05-1.37818E-14
 -1      4138 4.42398E-03-7.30051E-05-1.46550E-14
 -1      4139 4.21243E-03-4.05998E-05-1.32917E-14
 -1      4140 4.56334E-03-7.14468E-05-1.55539E-14
 -1      4141 4.70195E-03-6.97175E-05-1.64802E-14
 -1      4142 4.49221E-03-3.87253E-05-1.50340E-14
 -1      4143 4.83973E-03-6.78655E-05-1.74328E-14
 -1      4144 4.97666E-03-6.58175E-05-1.84119E-14
 -1      4145 4.76892E-03-3.63963E-05-1.68814E-14
 -1      4146 5.11263E-03-6.36077E-05-1.94170E-14
 -1      4147 5.24762E-03-6.11700E-05-2.04486E-14
 -1      4148 5.04201E-03-3.34841E-05-1.88342E-14
 -1      4149 5.38152E-03-5.85422E-05-2.15075E-14
 -1      4150 5.51430E-03-5.56387E-05-2.25924E-14
 -1      4151 5.31093E-03-2.98284E-05-2.08941E-14
 -1      4152 5.64581E-03-5.25029E-05-2.37027E-14
 -1      4153 5.77607E-03-4.90271E-05-2.48396E-14
 -1      4154 5.57495E-03-2.52148E-05-2.30590E-14
 -1      4155 5.90486E-03-4.52631E-05-2.60025E-14
 -1      4156 6.03227E-03-4.10778E-05-2.71896E-14
 -1      4157 5.83323E-03-1.93535E-05-2.53279E-14
 -1      4158 6.15793E-03-3.65531E-05-2.84036E-14
 -1      4159 6.28209E-03-3.14322E-05-2.96407E-14
 -1      4160 6.08472E-03-1.18829E-05-2.76994E-14
 -1      4161 1.22865E-02 3.35814E-04-7.94341E-14
 -1      4162 1.25156E-02 3.62477E-04-8.30631E-14
 -1      4163 1.23993E-02 3.48657E-04-8.12442E-14
 -1      4164 1.23772E-02 3.13559E-04-8.14427E-14
 -1      4165 1.22938E-02 2.27529E-04-8.21837E-14
 -1      4166 1.24170E-02 2.38057E-04-8.40027E-14
 -1      4167 1.25418E-02 2.49225E-04-8.58266E-14
 -1      4168 1.26684E-02 2.60726E-04-8.76572E-14
 -1      4169 1.25066E-02 2.70652E-04-8.47236E-14
 -1      4170 1.27963E-02 2.72721E-04-8.94910E-14
 -1      4171 1.29258E-02 2.85044E-04-9.13273E-14
 -1      4172 1.27555E-02 2.94294E-04-8.83803E-14
 -1      4173 1.30566E-02 2.97780E-04-9.31684E-14
 -1      4174 1.31887E-02 3.10784E-04-9.50160E-14
 -1      4175 1.30117E-02 3.19837E-04-9.20544E-14
 -1      4176 6.43786E-03 1.02802E-04-3.09303E-14
 -1      4177 6.32302E-03 1.00831E-04-2.96711E-14
 -1      4178 6.25618E-03 7.66358E-05-2.91704E-14
 -1      4179 6.46310E-03 8.16278E-05-3.14642E-14
 -1      4180 5.71891E-03 9.77738E-05-2.38400E-14
 -1      4181 5.58956E-03 9.83138E-05-2.27256E-14
 -1      4182 5.77750E-03 7.09911E-05-2.45172E-14
 -1      4183 6.46014E-03-1.01130E-05-3.15436E-14
 -1      4184 5.45862E-03 9.90465E-05-2.16375E-14
 -1      4185 5.32619E-03 1.00072E-04-2.05750E-14
 -1      4186 5.51991E-03 7.03795E-05-2.22843E-14
 -1      4187 1.33060E-02 4.60133E-04-9.45990E-14
 -1      4188 1.18981E-02 1.87236E-04-7.65229E-14
 -1      4189 5.19245E-03 1.01210E-04-1.95391E-14
 -1      4190 5.05747E-03 1.02523E-04-1.85295E-14
 -1      4191 5.25594E-03 7.08446E-05-2.01554E-14
 -1      4192 2.28955E-03 1.08946E-04-4.17991E-15
 -1      4193 1.74106E-03 1.40425E-05-2.64338E-15
 -1      4194 1.61990E-03-2.12924E-05-2.35116E-15
 -1      4195 2.27497E-03-7.88814E-05-4.31481E-15
 -1      4196 2.42004E-03-7.98659E-05-4.81845E-15
 -1      4197 6.45313E-03 5.55637E-05-3.15124E-14
 -1      4198 2.85489E-03-8.12334E-05-6.49037E-15
 -1      4199 2.99950E-03-8.12385E-05-7.10067E-15
 -1      4200 3.07077E-03-4.44422E-05-7.37520E-15
 -1      4201 6.38557E-03 1.25569E-05-3.08019E-14
 -1      4202 1.20222E-02 2.14028E-04-7.78091E-14
 -1      4203 1.23270E-02 2.82183E-04-8.12680E-14
 -1      4204 1.22322E-02 2.54101E-04-8.03273E-14
 -1      4205 1.21395E-02 2.23014E-04-7.96146E-14
 -1      4206 4.23285E-03 1.80018E-04-1.28524E-14
 -1      4207 4.09155E-03 1.82149E-04-1.20355E-14
 -1      4208 4.30028E-03 1.44479E-04-1.33660E-14
 -1      4209 1.32877E-02 3.30413E-04-9.62323E-14
 -1      4210 1.34152E-02 3.59339E-04-9.77446E-14
 -1      4211 1.34353E-02 3.93108E-04-9.75432E-14
 -1      4212 1.32397E-02 3.52816E-04-9.51102E-14
 -1      4213 1.77407E-03-1.17445E-04-2.79173E-15
 -1      4214 1.85761E-03-1.25541E-04-3.02788E-15
 -1      4215 1.92764E-03-9.32199E-05-3.22375E-15
 -1      4216 1.75469E-03-8.81709E-05-2.73242E-15
 -1      4217 3.37841E-03 1.89747E-04-8.34908E-15
 -1      4218 3.23469E-03 1.90517E-04-7.69231E-15
 -1      4219 3.16028E-03 1.54009E-04-7.44579E-15
 -1      4220 3.44779E-03 1.52795E-04-8.76548E-15
 -1      4221 4.92141E-03 1.03877E-04-1.75461E-14
 -1      4222 4.78434E-03 1.05312E-04-1.65910E-14
 -1      4223 4.98671E-03 7.20040E-05-1.81316E-14
 -1      4224 2.56510E-03-8.05744E-05-5.34891E-15
 -1      4225 2.71007E-03-8.10148E-05-5.90631E-15
 -1      4226 2.78151E-03-4.44660E-05-6.15972E-15
 -1      4227 1.33289E-02 3.96762E-04-9.58271E-14
 -1      4228 1.63800E-03-4.90733E-05-2.41036E-15
 -1      4229 2.65232E-03 1.16645E-04-5.44824E-15
 -1      4230 2.50736E-03 1.15811E-04-4.91843E-15
 -1      4231 6.27894E-03 3.75580E-05-2.96197E-14
 -1      4232 3.51755E-03 1.16042E-04-9.18715E-15
 -1      4233 3.37413E-03 1.16680E-04-8.49734E-15
 -1      4234 4.01812E-03 1.47871E-04-1.17264E-14
 -1      4235 1.28983E-02 4.48532E-04-8.83431E-14
 -1      4236 1.26351E-02 3.77155E-04-8.48857E-14
 -1      4237 1.24434E-02 2.93428E-04-8.30834E-14
 -1      4238 2.18006E-03-7.02942E-05-3.99562E-15
 -1      4239 2.25158E-03-3.53462E-05-4.20913E-15
 -1      4240 2.08523E-03-6.17528E-05-3.68874E-15
 -1      4241 1.95752E-03 1.93522E-05-3.24555E-15
 -1      4242 2.36041E-03 7.37449E-05-4.46575E-15
 -1      4243 2.49151E-03-4.40004E-05-5.05092E-15
 -1      4244 1.32323E-02 3.76575E-04-9.46139E-14
 -1      4245 1.32231E-02 3.99952E-04-9.41147E-14
 -1      4246 1.31359E-02 3.56811E-04-9.34007E-14
 -1      4247 4.64635E-03 1.06730E-04-1.56623E-14
 -1      4248 4.50752E-03 1.08166E-04-1.47592E-14
 -1      4249 4.71313E-03 7.35321E-05-1.62155E-14
 -1      4250 1.31994E-02 4.22064E-04-9.34219E-14
 -1      4251 1.31844E-02 4.60819E-04-9.26926E-14
 -1      4252 1.30548E-02 4.44284E-04-9.08506E-14
 -1      4253 1.31052E-02 4.01760E-04-9.22113E-14
 -1      4254 2.94181E-03 1.17402E-04-6.58817E-15
 -1      4255 2.79716E-03 1.17176E-04-6.00487E-15
 -1      4256 2.72314E-03 8.02937E-05-5.77580E-15
 -1      4257 3.80312E-03 1.14332E-04-1.06462E-14
 -1      4258 3.66057E-03 1.15267E-04-9.90322E-15
 -1      4259 3.58768E-03 7.95444E-05-9.61372E-15
 -1      4260 6.05008E-03 3.09632E-05-2.72798E-14
 -1      4261 5.92667E-03 2.83081E-05-2.60923E-14
 -1      4262 3.28660E-03-7.59602E-06-8.30682E-15
 -1      4263 3.43027E-03-7.46650E-06-8.99041E-15
 -1      4264 5.80102E-03 2.59370E-05-2.49288E-14
 -1      4265 4.08671E-03 1.12119E-04-1.22119E-14
 -1      4266 3.94519E-03 1.13289E-04-1.14162E-14
 -1      4267 3.87272E-03 7.83539E-05-1.11049E-14
 -1      4268 3.61576E-03 1.80586E-05-9.87373E-15
 -1      4269 3.75842E-03 1.80415E-05-1.06157E-14
 -1      4270 3.90055E-03 1.79957E-05-1.13845E-14
 -1      4271 4.04212E-03 1.79911E-05-1.21807E-14
 -1      4272 4.42184E-03-5.58175E-06-1.45174E-14
 -1      4273 4.56087E-03-5.06955E-06-1.54120E-14
 -1      4274 4.73955E-03 1.83898E-05-1.65537E-14
 -1      4275 4.87654E-03 1.87159E-05-1.75084E-14
 -1      4276 5.01249E-03 1.91007E-05-1.84896E-14
 -1      4277 5.14735E-03 1.96977E-05-1.94971E-14
 -1      4278 5.28098E-03 2.03986E-05-2.05305E-14
 -1      4279 5.41332E-03 2.14005E-05-2.15913E-14
 -1      4280 5.54418E-03 2.25605E-05-2.26776E-14
 -1      4281 5.67350E-03 2.41387E-05-2.37899E-14
 -1      4282 6.17118E-03 3.44051E-05-2.84935E-14
 -1      4283 1.25630E-02 3.05093E-04-8.49056E-14
 -1      4284 1.30063E-02 3.43007E-04-9.15589E-14
 -1      4285 2.99817E-03-7.76294E-06-7.01761E-15
 -1      4286 3.14255E-03-7.68416E-06-7.64873E-15
 -1      4287 3.21478E-03 2.89742E-05-7.92153E-15
 -1      4288 1.29046E-02 4.17598E-04-8.87792E-14
 -1      4289 1.27794E-02 4.01962E-04-8.69456E-14
 -1      4290 1.26352E-02 3.48329E-04-8.53158E-14
 -1      4291 1.29293E-02 3.97147E-04-8.94448E-14
 -1      4292 2.75148E-03 1.79446E-05-5.97234E-15
 -1      4293 2.89628E-03 1.80436E-05-6.55674E-15
 -1      4294 1.72096E-03-5.59141E-05-2.63041E-15
 -1      4295 1.29802E-02 3.59920E-04-9.08478E-14
 -1      4296 1.29587E-02 3.81196E-04-9.01578E-14
 -1      4297 1.28086E-02 3.56600E-04-8.80891E-14
 -1      4298 1.28593E-02 3.24051E-04-8.95068E-14
 -1      4299 4.36793E-03 1.09538E-04-1.38835E-14
 -1      4300 4.22764E-03 1.10876E-04-1.30343E-14
 -1      4301 4.43587E-03 7.52173E-05-1.44054E-14
 -1      4302 2.14917E-03 2.00307E-05-3.82990E-15
 -1      4303 1.96519E-03-2.65267E-05-3.30247E-15
 -1      4304 2.46141E-03 1.76340E-05-4.88478E-15
 -1      4305 2.60650E-03 1.78264E-05-5.41510E-15
 -1      4306 1.27102E-02 3.27358E-04-8.69682E-14
 -1      4307 3.23034E-03 1.17125E-04-7.83451E-15
 -1      4308 3.08622E-03 1.17383E-04-7.19791E-15
 -1      4309 3.01254E-03 8.06624E-05-6.94923E-15
 -1      4310 3.30084E-03 8.03600E-05-8.22823E-15
 -1      4311 1.80727E-03-5.79395E-05-2.86609E-15
 -1      4312 4.15558E-03 7.68749E-05-1.27020E-14
 -1      4313 4.18307E-03 1.79744E-05-1.30020E-14
 -1      4314 4.32337E-03 1.80274E-05-1.38503E-14
 -1      4315 1.27335E-02 3.11227E-04-8.76747E-14
 -1      4316 4.67142E-03 5.08463E-05-1.60032E-14
 -1      4317 2.24371E-03 1.24594E-05-4.14293E-15
 -1      4318 3.40145E-03 5.45112E-05-8.74924E-15
 -1      4319 3.25770E-03 5.47016E-05-8.07544E-15
 -1      4320 3.54479E-03 5.42406E-05-9.44961E-15
 -1      4321 2.96918E-03 5.48084E-05-6.80775E-15
 -1      4322 1.89375E-03-5.98522E-05-3.11188E-15
 -1      4323 4.39382E-03 5.17464E-05-1.42054E-14
 -1      4324 3.11360E-03 5.47983E-05-7.42840E-15
 -1      4325 4.53304E-03 5.12780E-05-1.50911E-14
 -3
    1PSTEP                         2           1           1          
  100CL  101 1.000000000        4325                     0    1           1
 -4  STRESS      6    1
 -5  SXX         1    4    1    1
 -5  SYY         1    4    2    2
 -5  SZZ         1    4    3    3
 -5  SXY         1    4    1    2
 -5  SYZ         1    4    2    3
 -5  SZX         1    4    3    1
 -1         1 2.10554E+01 1.09822E+01 8.54448E-01-1.48946E+01-1.64174E-12 2.17604E-12
 -1         2-7.37730E-01-2.44174E+01-3.36841E+00-9.91209E-02 2.06055E-12-7.47388E-14
 -1         3 1.99953E+01-4.87046E-03 1.74347E-02-4.91869E-03-5.67043E-13-6.09041E-13
 -1         4 1.99957E+01-4.25577E-03 1.63306E-02 4.38279E-03 2.47145E-13-1.77603E-15
 -1         5 3.27445E+01 6.13810E+00 2.74087E+00 6.22163E+00-4.37150E-14 3.04815E-12
 -1         6 3.57279E+01 1.22553E+01 5.12275E+00-8.64279E+00-1.84949E-13 2.38853E-12
 -1         7 2.08036E+01 6.09543E+00-1.28998E-01-4.72563E+00-2.64788E-14 2.31242E-13
 -1         8 1.96629E+01 5.93233E+00 5.08625E-02-3.27665E+00-2.91225E-14-3.76975E-13
 -1         9 1.91344E+01 5.77100E+00 4.92314E-02-2.52886E+00-2.26399E-14-6.88657E-13
 -1        10 1.88966E+01 5.69256E+00 5.10632E-02-1.95331E+00-1.18690E-14-8.22913E-13
 -1        11 1.87794E+01 5.65288E+00 5.04167E-02-1.45801E+00-7.87304E-15-8.69669E-13
 -1        12 1.87191E+01 5.63224E+00 4.90011E-02-1.01651E+00-2.52901E-15-8.66556E-13
 -1        13 1.86877E+01 5.62141E+00 4.75905E-02-5.96123E-01 1.36826E-15-8.36074E-13
 -1        14 1.86746E+01 5.61688E+00 4.68491E-02-1.91434E-01 7.86946E-15-8.11032E-13
 -1        15 1.86751E+01 5.61703E+00 4.68844E-02 2.08475E-01 1.47647E-14-7.89185E-13
 -1        16 1.86892E+01 5.62188E+00 4.77081E-02 6.13954E-01 1.51109E-14-7.49342E-13
 -1        17 1.87219E+01 5.63297E+00 4.92284E-02 1.03625E+00 1.86769E-14-6.80504E-13
 -1        18 1.87837E+01 5.65409E+00 5.09745E-02 1.48085E+00 2.44336E-14-5.69091E-13
 -1        19 1.89027E+01 5.69424E+00 5.16542E-02 1.98241E+00 3.09813E-14-4.01624E-13
 -1        20 1.91391E+01 5.77345E+00 4.88324E-02 2.56614E+00 3.72081E-14-1.19081E-13
 -1        21 1.96583E+01 5.94687E+00 4.58219E-02 3.31066E+00 4.30975E-14 3.56992E-13
 -1        22 2.11865E+01 6.37716E+00 1.39363E-01 4.52326E+00 4.48253E-15 1.24118E-12
 -1        23 2.30072E+01-1.37808E+00-9.37823E-01-7.11473E-01-1.20820E-13 1.75644E-12
 -1        24 1.93431E+01-9.94702E-02-3.09774E-01 6.30409E-02-2.54276E-14 1.20702E-12
 -1        25 1.86531E+01-5.63422E-02-6.87605E-02 6.05984E-02-1.43572E-14 7.18259E-13
 -1        26 1.84491E+01-2.21544E-02-6.46775E-03 3.27545E-02 2.73317E-15 3.45203E-13
 -1        27 1.84591E+01-1.19142E-02 1.50244E-03 2.23585E-02-1.17348E-14 9.25544E-14
 -1        28 1.85733E+01-6.43127E-03 1.65188E-03 1.60350E-02-8.49917E-15-5.85946E-14
 -1        29 1.87353E+01-3.36726E-03 1.53313E-03 1.18418E-02-1.61925E-14-2.48343E-13
 -1        30 1.89150E+01-1.64432E-03 1.58797E-03 8.85039E-03 1.17069E-14-3.76955E-13
 -1        31 1.90967E+01-7.23331E-04 1.56656E-03 6.61837E-03 8.94032E-15-4.70831E-13
 -1        32 1.92728E+01-3.21486E-04 1.35564E-03 4.92705E-03-4.85022E-14-6.64190E-13
 -1        33 1.94420E+01-2.76223E-04 9.47767E-04 3.66611E-03 4.25359E-14-7.57411E-13
 -1        34 1.96065E+01-4.86961E-04 3.66090E-04 2.78205E-03 1.53555E-14-6.98625E-13
 -1        35 1.97719E+01-8.85093E-04-3.65851E-04 2.25581E-03-6.72823E-15-7.39007E-13
 -1        36 1.99460E+01-1.41602E-03-1.22727E-03 2.09372E-03-3.91013E-15-7.93660E-13
 -1        37 2.01384E+01-2.02526E-03-2.19231E-03 2.32340E-03-4.96784E-15-6.91903E-13
 -1        38 2.03601E+01-2.64451E-03-3.21552E-03 2.98940E-03 9.77560E-15-6.37775E-13
 -1        39 2.06223E+01-3.17559E-03-4.20909E-03 4.14444E-03-1.76551E-15-8.02656E-13
 -1        40 2.09354E+01-3.47155E-03-5.00850E-03 5.82974E-03-2.44394E-14-7.76612E-13
 -1        41 2.13067E+01-3.31714E-03-5.32405E-03 8.03453E-03 2.29692E-14-9.18367E-13
 -1        42 2.17368E+01-2.41611E-03-4.68250E-03 1.06201E-02-5.37948E-14-1.11882E-12
 -1        43 2.22145E+01-4.04362E-04-2.38288E-03 1.31914E-02-3.81526E-14-1.14133E-12
 -1        44 2.27097E+01 3.07575E-03 2.46460E-03 1.49092E-02-1.25774E-14-9.54035E-13
 -1        45 2.31645E+01 8.18452E-03 1.06736E-02 1.42833E-02-4.72866E-14-9.76915E-13
 -1        46 2.34875E+01 1.45370E-02 2.23101E-02 9.10461E-03-7.51081E-15-1.38039E-12
 -1        47 2.35554E+01 2.07375E-02 3.55064E-02-3.11898E-03 4.30751E-14-1.26642E-12
 -1        48 2.32355E+01 2.40912E-02 4.52446E-02-2.37323E-02 3.81362E-14-1.10963E-12
 -1        49 2.24381E+01 2.10856E-02 4.34260E-02-5.02936E-02 1.67123E-14-1.02055E-12
 -1        50 2.11959E+01 9.24871E-03 2.25407E-02-7.40083E-02-2.70308E-14-1.25447E-12
 -1        51 1.97343E+01-9.97161E-03-1.67250E-02-8.08930E-02 4.83725E-14-1.24832E-12
 -1        52 1.84595E+01-2.97631E-02-6.01267E-02-5.97211E-02 1.67394E-14-9.34884E-13
 -1        53 1.78126E+01-4.06318E-02-8.48081E-02-1.31424E-02-1.99831E-14-7.92970E-13
 -1        54 1.80429E+01-3.66518E-02-7.56992E-02 3.94441E-02-1.31119E-13-1.19498E-12
 -1        55 1.90584E+01-2.00236E-02-3.84922E-02 7.43849E-02 3.33228E-14-1.29908E-12
 -1        56 2.04831E+01 6.28519E-04 5.40857E-03 8.03151E-02 3.44540E-14-1.30181E-12
 -1        57 2.18673E+01 1.65753E-02 3.60782E-02 6.28508E-02 5.93033E-14-1.13277E-12
 -1        58 2.28882E+01 2.37368E-02 4.65089E-02 3.60955E-02 4.15091E-14-1.20119E-12
 -1        59 2.34252E+01 2.30327E-02 4.12694E-02 1.18817E-02 5.31168E-14-8.59374E-13
 -1        60 2.35191E+01 1.77978E-02 2.89096E-02-4.47373E-03-8.67840E-14-3.07606E-13
 -1        61 2.32906E+01 1.12547E-02 1.61258E-02-1.28649E-02 9.88964E-14-1.40402E-13
 -1        62 2.28718E+01 5.41408E-03 6.18297E-03-1.54990E-02 6.82044E-14-7.72837E-14
 -1        63 2.23710E+01 1.07913E-03-2.39389E-04-1.48298E-02-2.25887E-13-4.04211E-13
 -1        64 2.18624E+01-1.71864E-03-3.73579E-03-1.27012E-02 3.62264E-15-1.12921E-12
 -1        65 2.13899E+01-3.29902E-03-5.25621E-03-1.02293E-02-4.11352E-14-9.19074E-13
 -1        66 2.09756E+01-4.07020E-03-5.68655E-03-7.95927E-03-2.18665E-14-5.34617E-13
 -1        67 2.06283E+01-4.40248E-03-5.75215E-03-6.04467E-03 1.36629E-13-9.09845E-14
 -1        68 2.03508E+01-4.57173E-03-6.03629E-03-4.34004E-03-5.83408E-14 5.49155E-14
 -1        69 2.01456E+01-4.67099E-03-6.82486E-03-2.36384E-03 4.89029E-14-9.74204E-14
 -1        70 2.00194E+01-3.98441E-03-6.89943E-03 1.22497E-03 7.71202E-14 3.37121E-14
 -1        71 1.99821E+01 7.67339E-04 9.32417E-05 5.91375E-03-7.14768E-14-3.17808E-14
 -1        72 2.10207E+01-4.04609E-01-9.79970E-01-3.11044E-01 3.02258E-14 2.88874E-12
 -1        73 1.93075E+01-6.58820E-02-2.91084E-01-5.36855E-02 1.59850E-14 2.36762E-12
 -1        74 1.86621E+01-2.05359E-02-6.42725E-02-2.02020E-02 1.12236E-14 1.96332E-12
 -1        75 1.84575E+01-9.93645E-03-9.32727E-03-1.52546E-02 1.23520E-14 1.69535E-12
 -1        76 1.84675E+01-5.26307E-03 6.30572E-04-1.21182E-02-9.84418E-15 1.54021E-12
 -1        77 1.85806E+01-2.76941E-03 1.63576E-03-9.75946E-03 1.25135E-14 1.38630E-12
 -1        78 1.87412E+01-1.37857E-03 1.67892E-03-7.91177E-03-5.62877E-15 1.28598E-12
 -1        79 1.89193E+01-6.21766E-04 1.73770E-03-6.35257E-03 2.21935E-14 1.08285E-12
 -1        80 1.90993E+01-2.64501E-04 1.69171E-03-4.97611E-03-2.63362E-15 8.73000E-13
 -1        81 1.92739E+01-1.79919E-04 1.44800E-03-3.74231E-03 2.56788E-14 7.90512E-13
 -1        82 1.94416E+01-2.95497E-04 9.97627E-04-2.63788E-03-8.56119E-15 6.33309E-13
 -1        83 1.96051E+01-5.69048E-04 3.54228E-04-1.66195E-03 3.84738E-14 6.28212E-13
 -1        84 1.97705E+01-9.75777E-04-4.75047E-04-8.23180E-04-1.72788E-14 5.57059E-13
 -1        85 1.99467E+01-1.49984E-03-1.49612E-03-1.42930E-04 3.80253E-14 5.58164E-13
 -1        86 2.01454E+01-2.12645E-03-2.72527E-03 3.37081E-04-2.22190E-15 4.81893E-13
 -1        87 2.03806E+01-2.83167E-03-4.18057E-03 5.42377E-04-3.01921E-14 5.95142E-13
 -1        88 2.06692E+01-3.56669E-03-5.86409E-03 3.47526E-04 3.62990E-14 4.02753E-13
 -1        89 2.10298E+01-4.23285E-03-7.72572E-03-4.48477E-04 2.16152E-14 2.67958E-13
 -1        90 2.14824E+01-4.64341E-03-9.59115E-03-2.15001E-03-2.77426E-14 3.60886E-13
 -1        91 2.20454E+01-4.47180E-03-1.10284E-02-5.18106E-03 3.51639E-15 4.54188E-13
 -1        92 2.27303E+01-3.19893E-03-1.11261E-02-1.00477E-02 8.70641E-15 5.36275E-13
 -1        93 2.35319E+01-1.08082E-04-8.19269E-03-1.71475E-02-2.44072E-14 4.28579E-13
 -1        94 2.44109E+01 5.55507E-03 4.55609E-04-2.62371E-02 5.70762E-14 1.09045E-13
 -1        95 2.52699E+01 1.40375E-02 1.80513E-02-3.53244E-02-1.39212E-14 2.55542E-13
 -1        96 2.59261E+01 2.39289E-02 4.61225E-02-3.89567E-02 6.70406E-15 7.88888E-13
 -1        97 2.61019E+01 3.05996E-02 7.91597E-02-2.70176E-02-7.75551E-15 1.13452E-12
 -1        98 2.54802E+01 2.65920E-02 9.87163E-02 1.18689E-02 1.60471E-14 8.86194E-13
 -1        99 2.38780E+01 7.02921E-03 7.67106E-02 7.74433E-02 1.96891E-15 7.92554E-13
 -1       100 2.15164E+01-2.34338E-02-2.49231E-03 1.42203E-01-7.08413E-14 9.80743E-13
 -1       101 1.91727E+01-4.60445E-02-1.13862E-01 1.55901E-01 8.34502E-14 6.99309E-13
 -1       102 1.79285E+01-4.58446E-02-1.80184E-01 8.57577E-02-3.20191E-14 5.95171E-13
 -1       103 1.84457E+01-2.37210E-02-1.51262E-01-3.17148E-02 9.32457E-15 6.52183E-13
 -1       104 2.04489E+01 3.53155E-03-4.69674E-02-1.23337E-01-7.38049E-15 5.43843E-13
 -1       105 2.29336E+01 2.22118E-02 5.19763E-02-1.41736E-01 1.37629E-13 1.29736E-13
 -1       106 2.49177E+01 2.79224E-02 9.68055E-02-1.04501E-01-1.44018E-13 1.02314E-13
 -1       107 2.59452E+01 2.37641E-02 9.03481E-02-5.18919E-02-2.36419E-14 1.01901E-13
 -1       108 2.60650E+01 1.54006E-02 5.95980E-02-1.03715E-02 1.53812E-13-5.52445E-13
 -1       109 2.55661E+01 7.26748E-03 2.82716E-02 1.31903E-02-1.36609E-13-3.77536E-13
 -1       110 2.47542E+01 1.30060E-03 6.30169E-03 2.25598E-02 2.96683E-14-1.98602E-13
 -1       111 2.38532E+01-2.26774E-03-5.69183E-03 2.36612E-02 1.95859E-14-5.85759E-13
 -1       112 2.29942E+01-3.98470E-03-1.06164E-02 2.10024E-02-5.57176E-14-2.38407E-13
 -1       113 2.22385E+01-4.52772E-03-1.15314E-02 1.72195E-02-8.85278E-16 2.36919E-13
 -1       114 2.16049E+01-4.45115E-03-1.06054E-02 1.35950E-02-8.39109E-14 5.01947E-13
 -1       115 2.10903E+01-4.13930E-03-9.14466E-03 1.06283E-02 1.74942E-13-2.73139E-13
 -1       116 2.06832E+01-3.82654E-03-7.91677E-03 8.40243E-03 5.44036E-15-6.37061E-13
 -1       117 2.03718E+01-3.63921E-03-7.42986E-03 6.74874E-03-3.02059E-14-4.73255E-13
 -1       118 2.01490E+01-3.54453E-03-7.85597E-03 5.21979E-03 5.40852E-15-8.61570E-13
 -1       119 2.00164E+01-2.81340E-03-7.61371E-03 2.22962E-03-4.47445E-15-1.32365E-12
 -1       120 1.99817E+01 3.03090E-03 9.73963E-04-4.74005E-03 2.62928E-13-1.42053E-12
 -1       121 1.99999E+01-1.50328E-02 1.64493E-04-7.12634E-03-1.33994E-12-2.23011E-14
 -1       122 1.99962E+01 2.39490E-02-7.53676E-03 3.97669E-04-6.77492E-13-7.07699E-15
 -1       123 1.99972E+01 1.54875E-01-5.59158E-03 4.97752E-03-1.45945E-13-1.84282E-15
 -1       124 1.99991E+01 3.40360E-01-1.84337E-03 6.87087E-03-9.99441E-14 1.95167E-14
 -1       125 2.00010E+01 5.41358E-01 1.61158E-03 6.83008E-03 3.72389E-13-1.61147E-13
 -1       126 2.00028E+01 7.19918E-01 4.22822E-03 5.62452E-03-7.51433E-13-1.68481E-13
 -1       127 2.00039E+01 8.53726E-01 5.90351E-03 3.53329E-03-9.55711E-13 1.34588E-13
 -1       128 2.00045E+01 9.20651E-01 6.62626E-03 1.01383E-03-5.26575E-13 6.93494E-14
 -1       129 2.00043E+01 9.12347E-01 6.40293E-03-1.56325E-03 2.92838E-13 3.55465E-13
 -1       130 2.00036E+01 8.31205E-01 5.31201E-03-3.86180E-03 8.57500E-13-2.72123E-13
 -1       131 2.00023E+01 6.89608E-01 3.44526E-03-5.64136E-03-4.89615E-13 2.08110E-13
 -1       132 2.00007E+01 5.11419E-01 9.81613E-04-6.46417E-03-9.27701E-13 2.37196E-13
 -1       133 1.99989E+01 3.17852E-01-2.08244E-03-6.24236E-03-1.50918E-13-1.91302E-13
 -1       134 1.99968E+01 1.42830E-01-5.65989E-03-4.90470E-03 2.81809E-13 5.69746E-14
 -1       135 1.99971E+01 2.39216E-02-6.16668E-03-5.01680E-04 4.08565E-13-1.16352E-13
 -1       136 1.99971E+01-1.20709E-02 3.41726E-04 1.09933E-02-1.91862E-13 8.34342E-14
 -1       137-1.39936E+00-1.99252E+01-3.10856E+00-3.82405E+00 2.76534E-12 5.95503E-13
 -1       138-1.69236E+00-9.13390E+00-2.34971E+00-3.26632E+00 1.93351E-12 6.70408E-13
 -1       139 3.03375E+00 2.88579E+00-1.15812E+00 3.40284E+00 8.94618E-13 8.04634E-13
 -1       140 1.46774E+01 9.96264E+00 2.45626E-01 1.20263E+01 7.96030E-13 1.04072E-12
 -1       141 3.38460E+01 1.01163E+01 1.73487E+00 1.79621E+01 2.64455E-13 3.65263E-13
 -1       142 5.33432E+01 5.56342E+00 2.93992E+00 1.60630E+01-3.20674E-13-6.66800E-13
 -1       143 6.55220E+01 1.48197E+00 3.62685E+00 6.23792E+00-1.45630E-13-1.90747E-12
 -1       144 6.46385E+01 1.92087E+00 3.59105E+00-7.51258E+00 3.50185E-13-2.65987E-12
 -1       145 4.97779E+01 6.60519E+00 2.71839E+00-1.67825E+01 1.26095E-12-3.05356E-12
 -1       146 2.88455E+01 1.04965E+01 1.35752E+00-1.69340E+01 1.68798E-12-2.81558E-12
 -1       147 1.10232E+01 9.07011E+00-1.31653E-01-1.00183E+01 1.79778E-12-1.81610E-12
 -1       148 7.97870E-01 1.99856E-01-1.53558E+00-9.83853E-01 1.58956E-12-1.02141E-12
 -1       149-1.89096E+00-1.25523E+01-2.63179E+00 4.04364E+00 6.22447E-13-2.80692E-13
 -1       150-1.13229E+00-2.21708E+01-3.23252E+00 3.05477E+00-6.97858E-13-4.96003E-14
 -1       151-8.23603E-01-2.38780E+01-3.31860E+00-1.21239E+00-1.85642E-12-1.46595E-13
 -1       152-1.56002E+00-1.67219E+01-2.85908E+00-3.94643E+00-2.38459E-12-7.15185E-13
 -1       153-9.57734E-01-4.85583E+00-1.94921E+00-1.69142E+00-1.94073E-12-8.79963E-13
 -1       154 5.90999E+00 6.51361E+00-6.21110E-01 6.34178E+00-1.30673E-12-1.15141E-12
 -1       155 1.99380E+01 1.11516E+01 7.76861E-01 1.47454E+01-1.09035E-12-1.59456E-12
 -1       156 3.91830E+01 9.15180E+00 2.08446E+00 1.83507E+01-6.68021E-13-1.13742E-12
 -1       157 5.64780E+01 4.13909E+00 3.03665E+00 1.37432E+01-1.16594E-13 4.72400E-14
 -1       158 6.56724E+01 8.80436E-01 3.49417E+00 8.73235E-01 8.87901E-14 1.54338E-12
 -1       159 5.95356E+01 3.13949E+00 3.19098E+00-1.18653E+01-4.94112E-13 1.99088E-12
 -1       160 4.22503E+01 8.42533E+00 2.25793E+00-1.79752E+01-1.15152E-12 2.47352E-12
 -1       161 5.19774E+00 5.90514E+00-7.28555E-01-5.79020E+00-2.40935E-12 1.82898E-12
 -1       162-1.30439E+00-6.49145E+00-2.09508E+00 2.37061E+00-1.85069E-12 1.13312E-12
 -1       163-1.41726E+00-1.89203E+01-3.01734E+00 3.93884E+00 5.17364E-13 1.51351E-13
 -1       164 2.10004E+01 3.69276E+00-5.73293E-02-3.61114E+00-3.75481E-13-5.87481E-14
 -1       165 1.99847E+01 4.20682E+00-4.57051E-02-2.81076E+00-3.17617E-13-4.32879E-13
 -1       166 1.95086E+01 4.47670E+00-3.15716E-02-2.19550E+00-2.37327E-13-6.20174E-13
 -1       167 1.92712E+01 4.61598E+00-2.37335E-02-1.67656E+00-1.50585E-13-7.07059E-13
 -1       168 1.91451E+01 4.69846E+00-1.94532E-02-1.21996E+00-7.64952E-14-7.22845E-13
 -1       169 1.90739E+01 4.75033E+00-1.73911E-02-7.92539E-01-1.52644E-14-7.17230E-13
 -1       170 1.90382E+01 4.77876E+00-1.64031E-02-3.87077E-01 5.84655E-14-6.85191E-13
 -1       171 1.90278E+01 4.78751E+00-1.61148E-02 8.30014E-03 1.27359E-13-6.66167E-13
 -1       172 1.90399E+01 4.77752E+00-1.64466E-02 4.03992E-01 1.83710E-13-6.35399E-13
 -1       173 1.90775E+01 4.74743E+00-1.74997E-02 8.10487E-01 2.31083E-13-6.02690E-13
 -1       174 1.91495E+01 4.69419E+00-1.96663E-02 1.23228E+00 2.81759E-13-5.19409E-13
 -1       175 1.92813E+01 4.60606E+00-2.39833E-02 1.69932E+00 3.45314E-13-3.89034E-13
 -1       176 1.95233E+01 4.45931E+00-3.28246E-02 2.22793E+00 3.90891E-13-1.84363E-13
 -1       177 2.00069E+01 4.18284E+00-4.71860E-02 2.84815E+00 4.19610E-13 1.43604E-13
 -1       178 2.11218E+01 3.46250E+00-5.97752E-02 3.53762E+00 3.65985E-13 7.12867E-13
 -1       179 2.24009E+01 1.14340E+00-3.36331E-01 3.01544E+00 2.48517E-13 1.40055E-12
 -1       180 2.19540E+01 8.58202E-01 6.64227E-04-1.95993E+00-3.27519E-13 4.13648E-13
 -1       181 2.04293E+01 1.90335E-01-9.96745E-03-7.65141E-01-2.75073E-13 2.66264E-13
 -1       182 1.96538E+01 1.01642E-01 1.35827E-02-2.86429E-01-2.17597E-13 1.34127E-13
 -1       183 1.93143E+01 4.75261E-02 1.00312E-02-6.85020E-02-1.67802E-13 5.94620E-15
 -1       184 1.91861E+01 2.31056E-02 5.18863E-03 4.01242E-02-1.04249E-13-7.26849E-14
 -1       185 1.91761E+01 1.03730E-02 2.51294E-03 9.47220E-02-1.16353E-13-1.39187E-13
 -1       186 1.92310E+01 3.44367E-03 1.24022E-03 1.20135E-01-6.31036E-14-1.71134E-13
 -1       187 1.93208E+01-1.33203E-04 6.44445E-04 1.29604E-01-5.27066E-14-2.26055E-13
 -1       188 1.94285E+01-1.56976E-03 3.60905E-04 1.31056E-01-1.06457E-13-2.12104E-13
 -1       189 1.95454E+01-1.52616E-03 2.39253E-04 1.29688E-01-7.58957E-14-2.13936E-13
 -1       190 1.96679E+01-3.99324E-04 2.16071E-04 1.29143E-01-2.38895E-14-3.51816E-13
 -1       191 1.97965E+01 1.55280E-03 2.58603E-04 1.32103E-01-1.84116E-14-4.45467E-13
 -1       192 1.99343E+01 4.14345E-03 3.44604E-04 1.40592E-01-1.63826E-15-3.50498E-13
 -1       193 2.00863E+01 7.20459E-03 4.54374E-04 1.56109E-01 7.39488E-15-3.60995E-13
 -1       194 2.02588E+01 1.05323E-02 5.66091E-04 1.79622E-01-2.84476E-15-3.53399E-13
 -1       195 2.04587E+01 1.38185E-02 6.51843E-04 2.11391E-01-4.55957E-14-3.61375E-13
 -1       196 2.06925E+01 1.65602E-02 6.74108E-04 2.50597E-01-1.63398E-14-3.43847E-13
 -1       197 2.09651E+01 1.79403E-02 5.83904E-04 2.94715E-01-1.04323E-13-3.68262E-13
 -1       198 2.12775E+01 1.66904E-02 3.23495E-04 3.38586E-01-1.71755E-13-5.18630E-13
 -1       199 2.16245E+01 1.09817E-02-1.61363E-04 3.73215E-01-8.28791E-14-5.37681E-13
 -1       200 2.19909E+01-1.53060E-03-8.93333E-04 3.84534E-01 4.22278E-14-5.70796E-13
 -1       201 2.23479E+01-2.32387E-02-1.81724E-03 3.52840E-01-3.61341E-14-6.63232E-13
 -1       202 2.26496E+01-5.52534E-02-2.75330E-03 2.54437E-01-2.18330E-14-4.16964E-13
 -1       203 2.28334E+01-9.47749E-02-3.36612E-03 6.79832E-02 5.94939E-14-2.35689E-13
 -1       204 2.28270E+01-1.31506E-01-3.25591E-03-2.11790E-01 7.22599E-14-2.13199E-13
 -1       205 2.25683E+01-1.45345E-01-2.14757E-03-5.53439E-01 8.57084E-15-2.94494E-13
 -1       206 2.20393E+01-1.10836E-01-2.65729E-04-8.70402E-01-1.06883E-13-4.91487E-13
 -1       207 2.13077E+01-1.42363E-02 1.54989E-03-1.02766E+00-2.91135E-16-5.45518E-13
 -1       208 2.05487E+01 1.22925E-01 2.61987E-03-8.98159E-01 8.00154E-14-4.24004E-13
 -1       209 2.00067E+01 2.38639E-01 2.87873E-03-4.56373E-01-5.69896E-14-5.78188E-13
 -1       210 1.98879E+01 2.65355E-01 2.92868E-03 1.62157E-01-3.52603E-13-6.96040E-13
 -1       211 2.02398E+01 1.86264E-01 2.91130E-03 7.15496E-01-3.77007E-14-9.02976E-13
 -1       212 2.09216E+01 5.00232E-02 2.27281E-03 1.00234E+00 1.95685E-14-9.04310E-13
 -1       213 2.16904E+01-7.19534E-02 7.12651E-04 9.71232E-01 9.42419E-14-8.17463E-13
 -1       214 2.23276E+01-1.36537E-01-1.27529E-03 7.12156E-01 8.25247E-14-8.49276E-13
 -1       215 2.27133E+01-1.43166E-01-2.84485E-03 3.66771E-01 2.78192E-13-5.81004E-13
 -1       216 2.28288E+01-1.14488E-01-3.44092E-03 4.86203E-02 2.00107E-13-5.79165E-13
 -1       217 2.27199E+01-7.44429E-02-3.13061E-03-1.85492E-01 1.13969E-13-1.58309E-13
 -1       218 2.24574E+01-3.80450E-02-2.29307E-03-3.25781E-01-7.60133E-14-2.49629E-13
 -1       219 2.21103E+01-1.12036E-02-1.31160E-03-3.87849E-01-3.31637E-13-5.00993E-13
 -1       220 2.17337E+01 5.79191E-03-4.40079E-04-3.95082E-01-4.07138E-13-4.77371E-13
 -1       221 2.13653E+01 1.50556E-02 2.15788E-04-3.68952E-01 2.40741E-13-5.39396E-13
 -1       222 2.10281E+01 1.92142E-02 6.51824E-04-3.25361E-01 2.98415E-13-2.11937E-13
 -1       223 2.07344E+01 2.06081E-02 9.05598E-04-2.74247E-01 3.33295E-13-1.50270E-16
 -1       224 2.04897E+01 2.11085E-02 1.00529E-03-2.20468E-01 1.56533E-13 2.71646E-14
 -1       225 2.02957E+01 2.21306E-02 9.41600E-04-1.64969E-01-4.27195E-14 5.17067E-14
 -1       226 2.01527E+01 2.44734E-02 8.34598E-04-1.06465E-01 7.83751E-14 1.95203E-14
 -1       227 2.00561E+01 2.66695E-02 6.32691E-04-4.51565E-02 1.91161E-15-1.73574E-14
 -1       228 2.09446E+01 2.77035E-01-5.13261E-02 1.16592E+00 2.54907E-13 1.22996E-12
 -1       229 1.98492E+01 1.26869E-01 8.31762E-03 4.44203E-01 2.10167E-13 1.00887E-12
 -1       230 1.93425E+01 5.81568E-02 1.27537E-02 1.50904E-01 1.53588E-13 8.27823E-13
 -1       231 1.91332E+01 2.79327E-02 7.65929E-03 1.10420E-02 1.05071E-13 7.02217E-13
 -1       232 1.90851E+01 1.34646E-02 3.86842E-03-5.91807E-02 9.85810E-14 6.11158E-13
 -1       233 1.91249E+01 5.79025E-03 1.97025E-03-9.34450E-02 4.11077E-14 5.51196E-13
 -1       234 1.92113E+01 1.63126E-03 1.09172E-03-1.08109E-01 1.01380E-13 4.70648E-13
 -1       235 1.93214E+01-4.32163E-04 6.62248E-04-1.12281E-01 8.53487E-14 4.28066E-13
 -1       236 1.94426E+01-1.10729E-03 4.37364E-04-1.11659E-01 9.10512E-14 3.49081E-13
 -1       237 1.95694E+01-7.83595E-04 3.23732E-04-1.10141E-01 3.30414E-14 3.16395E-13
 -1       238 1.97010E+01 3.15854E-04 2.81723E-04-1.10602E-01 6.32288E-14 2.84609E-13
 -1       239 1.98399E+01 2.06773E-03 2.89721E-04-1.15331E-01 3.81195E-14 2.53602E-13
 -1       240 1.99919E+01 4.41239E-03 3.32218E-04-1.26288E-01 4.81325E-14 1.83707E-13
 -1       241 2.01646E+01 7.32681E-03 3.94761E-04-1.45266E-01 1.40090E-14 9.09560E-14
 -1       242 2.03681E+01 1.07938E-02 4.60126E-04-1.73940E-01-9.24250E-15 1.21599E-13
 -1       243 2.06140E+01 1.47549E-02 5.04117E-04-2.13809E-01 8.78247E-14 6.32255E-14
 -1       244 2.09150E+01 1.90288E-02 4.91000E-04-2.65919E-01 2.13490E-14 8.04972E-14
 -1       245 2.12840E+01 2.31675E-02 3.70660E-04-3.30264E-01-2.97859E-14 5.29287E-14
 -1       246 2.17316E+01 2.62122E-02 8.35209E-05-4.04610E-01-5.38774E-14 1.18164E-13
 -1       247 2.22627E+01 2.63169E-02-4.13447E-04-4.82449E-01-4.99986E-14 1.58893E-13
 -1       248 2.28699E+01 2.02632E-02-1.08101E-03-5.49799E-01 7.12756E-14 1.35370E-13
 -1       249 2.35243E+01 3.11418E-03-1.67385E-03-5.80993E-01 1.17896E-13 2.59649E-14
 -1       250 2.41634E+01-3.11875E-02-1.59551E-03-5.35080E-01-1.26508E-13 6.28651E-14
 -1       251 2.46802E+01-8.66653E-02-4.44370E-05-3.57902E-01-2.60209E-13 2.01292E-13
 -1       252 2.49228E+01-1.56748E-01 3.37410E-03-1.83066E-04-1.15825E-13 4.50664E-13
 -1       253 2.47239E+01-2.10901E-01 7.14681E-03 5.34733E-01 3.01174E-14 5.25766E-13
 -1       254 2.39819E+01-1.89386E-01 7.92736E-03 1.11626E+00-5.93232E-14 6.81229E-13
 -1       255 2.27957E+01-4.69015E-02 9.88294E-04 1.45782E+00-9.97355E-14 6.61941E-13
 -1       256 2.15485E+01 1.91545E-01-1.38818E-02 1.24187E+00 1.29761E-13 6.15159E-13
 -1       257 2.08216E+01 3.71359E-01-2.40874E-02 4.05625E-01-4.64143E-14 5.16976E-13
 -1       258 2.10163E+01 3.51279E-01-2.02725E-02-6.50838E-01 7.93653E-14 3.28172E-13
 -1       259 2.20307E+01 1.43487E-01-3.74398E-03-1.35657E+00 1.88670E-13 2.75245E-13
 -1       260 2.33270E+01-8.23721E-02 8.05704E-03-1.41269E+00 2.09985E-13 1.06110E-13
 -1       261 2.43639E+01-1.98786E-01 9.57110E-03-9.77395E-01-1.50722E-13 6.38708E-14
 -1       262 2.48760E+01-1.99790E-01 4.99206E-03-3.87058E-01 4.58331E-14 1.26289E-13
 -1       263 2.48686E+01-1.41744E-01-1.51537E-04 1.09407E-01 2.52867E-13 1.47929E-13
 -1       264 2.44854E+01-7.55025E-02-2.75434E-03 4.21097E-01-2.46554E-13 2.54302E-14
 -1       265 2.38937E+01-2.51531E-02-3.03554E-03 5.62925E-01 4.98139E-14 2.48534E-14
 -1       266 2.32276E+01 5.36061E-03-2.15993E-03 5.87573E-01-1.86627E-14 3.02065E-13
 -1       267 2.25749E+01 2.03741E-02-1.06034E-03 5.46183E-01-1.69920E-13 5.28922E-13
 -1       268 2.19836E+01 2.56013E-02-1.71733E-04 4.75310E-01-1.23928E-13 4.54555E-13
 -1       269 2.14739E+01 2.55901E-02 4.06496E-04 3.96784E-01-9.59020E-15 4.22384E-13
 -1       270 2.10500E+01 2.33610E-02 7.18228E-04 3.21540E-01 5.52387E-13 3.50039E-14
 -1       271 2.07075E+01 2.07876E-02 8.23627E-04 2.53435E-01 1.61570E-14-1.45795E-13
 -1       272 2.04399E+01 1.90045E-02 7.18486E-04 1.91952E-01 6.06232E-14-3.21980E-13
 -1       273 2.02412E+01 1.87558E-02 3.66437E-04 1.34120E-01 1.05679E-13-2.93048E-13
 -1       274 2.01071E+01 2.07142E-02 3.65147E-04 7.58682E-02 1.25662E-13-3.08365E-13
 -1       275 2.00300E+01 1.79024E-02 1.21951E-03 1.91049E-02-4.79027E-14-3.38709E-13
 -1       276 2.00279E+01 6.22043E-02 6.73346E-04 5.12023E-02-2.48708E-13 6.71057E-14
 -1       277 2.00219E+01 1.56609E-01 2.04255E-04 1.08501E-01-4.23439E-13 1.99648E-13
 -1       278 2.00101E+01 2.84209E-01 6.54637E-05 1.46438E-01 4.55153E-15 1.35118E-13
 -1       279 1.99986E+01 4.27287E-01-1.00991E-04 1.56626E-01-5.02983E-15 1.84791E-13
 -1       280 1.99888E+01 5.62570E-01-3.93024E-04 1.40927E-01-2.60360E-13-6.92801E-13
 -1       281 1.99814E+01 6.74868E-01-6.51587E-04 1.03600E-01-2.54492E-13-2.88448E-13
 -1       282 1.99772E+01 7.45692E-01-8.27021E-04 5.16836E-02-4.00276E-14 2.89943E-13
 -1       283 1.99763E+01 7.65767E-01-8.76964E-04-6.68437E-03 1.09768E-13 4.87616E-13
 -1       284 1.99786E+01 7.33024E-01-7.96201E-04-6.32163E-02 7.87820E-14 3.19664E-13
 -1       285 1.99838E+01 6.52614E-01-5.99261E-04-1.10245E-01 1.25361E-13-7.70858E-13
 -1       286 1.99912E+01 5.38272E-01-3.16893E-04-1.40920E-01-6.87507E-14-1.78832E-13
 -1       287 2.00005E+01 4.01984E-01-4.83628E-05-1.51397E-01 1.07752E-13 3.91529E-13
 -1       288 2.00105E+01 2.64547E-01 1.25621E-04-1.38024E-01 6.62721E-14 1.48976E-13
 -1       289 2.00210E+01 1.46083E-01 5.90617E-04-1.00495E-01-1.77920E-13 1.01770E-13
 -1       290 2.00418E+01 8.15081E-02 6.63585E-04-8.13489E-02-1.31633E-13-3.21704E-13
 -1       291-7.25640E-01-9.79595E+00-8.28551E-01 1.14649E+00 6.26110E-13 5.52475E-13
 -1       292 2.45592E+00-8.63334E+00-8.09794E-01 3.17560E+00 9.42524E-13 1.09635E-15
 -1       293 1.07297E+01-5.62196E+00-3.55518E-01 6.11204E+00 5.42871E-13-9.02750E-14
 -1       294 1.81244E+01-1.31159E+00-1.54235E-01 6.95785E+00 2.44194E-13 8.05189E-14
 -1       295 2.89673E+01 1.38666E+00 2.43484E-01 6.75588E+00 3.27627E-13-3.66346E-13
 -1       296 3.81187E+01 4.49939E+00 6.40515E-01 5.68718E+00 2.80973E-13-7.06990E-13
 -1       297 4.50939E+01 6.15078E+00 9.87039E-01 3.56630E+00 2.84675E-13-1.15200E-12
 -1       298 4.57764E+01 7.08987E+00 9.16329E-01-1.21137E-01 3.79391E-13-1.37186E-12
 -1       299 4.24081E+01 6.15337E+00 6.95516E-01-2.82922E+00 6.14120E-13-1.47704E-12
 -1       300 3.56990E+01 3.23176E+00 3.97872E-01-4.66385E+00 6.46892E-13-1.35078E-12
 -1       301 2.60225E+01 1.36924E+00 1.79975E-01-7.55693E+00 6.58112E-13-1.46638E-12
 -1       302 1.55375E+01-2.20365E+00-2.69642E-01-6.63574E+00 6.22391E-13-1.01888E-12
 -1       303 6.78266E+00-6.26588E+00-6.57747E-01-4.64255E+00 2.03809E-13-8.70637E-13
 -1       304 1.27230E+00-9.17344E+00-8.27436E-01-2.66586E+00-3.19966E-13-6.01422E-13
 -1       305-1.13128E+00-1.04069E+01-8.97415E-01-3.68727E-01-6.36918E-13-6.59639E-13
 -1       306 8.22891E-03-9.33332E+00-7.83743E-01 2.17490E+00-7.44044E-13-3.71383E-13
 -1       307 4.11295E+00-7.52519E+00-7.26938E-01 3.99992E+00-8.57953E-13-1.61274E-13
 -1       308 1.17925E+01-3.82049E+00-3.78302E-01 6.20046E+00-5.79148E-13-2.70256E-13
 -1       309 2.10991E+01 3.12769E-01 1.90870E-02 7.51849E+00-4.62963E-13-5.37459E-13
 -1       310 3.12191E+01 3.39303E+00 4.44239E-01 7.59939E+00-5.12673E-13-1.38389E-13
 -1       311 3.99242E+01 5.34636E+00 7.79080E-01 5.94364E+00-6.28775E-13 3.35898E-13
 -1       312 4.34450E+01 6.91863E+00 7.54736E-01 1.75164E+00-5.95995E-13 5.23220E-13
 -1       313 4.61352E+01 6.52385E+00 1.00150E+00-1.83005E+00-4.87652E-13 1.16077E-12
 -1       314 4.03191E+01 5.59999E+00 6.73764E-01-4.40340E+00-4.71560E-13 9.56318E-13
 -1       315 3.22666E+01 2.35260E+00 3.13170E-01-5.66016E+00-4.03816E-13 7.31387E-13
 -1       316 2.10041E+01 2.78725E-01 1.52167E-02-7.56606E+00-9.17461E-13 7.71466E-13
 -1       317 1.16228E+01-4.44122E+00-3.44451E-01-6.28624E+00-5.43454E-13 6.49647E-13
 -1       318 3.05884E+00-8.20062E+00-8.07693E-01-3.57261E+00-1.15130E-13 1.31696E-12
 -1       319-8.05461E-01-1.08019E+01-1.00300E+00-1.25722E+00 1.51587E-13 7.72882E-13
 -1       320 2.01425E+01 3.01558E+00-1.78255E-02-2.11142E+00-3.30020E-13-3.90882E-13
 -1       321 2.07463E+01 2.20811E+00-1.77847E-02-2.36444E+00-3.74135E-13-1.70055E-13
 -1       322 1.95907E+01 3.69341E+00-1.50482E-02-1.31728E+00-1.46121E-13-5.60945E-13
 -1       323 1.94699E+01 3.85154E+00-1.35878E-02-9.23383E-01-6.86210E-14-5.50612E-13
 -1       324 1.94030E+01 3.94313E+00-1.27131E-02-5.43627E-01 3.12808E-14-5.33082E-13
 -1       325 1.93733E+01 3.98497E+00-1.23047E-02-1.73097E-01 1.14908E-13-5.10107E-13
 -1       326 1.93745E+01 3.98338E+00-1.23156E-02 1.94331E-01 1.97214E-13-4.99943E-13
 -1       327 1.94070E+01 3.93797E+00-1.27596E-02 5.65147E-01 2.56525E-13-4.86840E-13
 -1       328 1.94759E+01 3.84384E+00-1.37680E-02 9.39113E-01 3.13753E-13-4.38799E-13
 -1       329 1.95998E+01 3.68052E+00-1.56536E-02 1.33336E+00 3.75110E-13-3.25917E-13
 -1       330 1.98110E+01 3.41080E+00-1.88272E-02 1.73906E+00 4.35857E-13-1.81083E-13
 -1       331 2.01759E+01 2.95528E+00-2.29256E-02 2.12801E+00 4.64301E-13 3.14939E-14
 -1       332 2.07390E+01 2.12922E+00-3.04518E-02 2.32328E+00 4.32838E-13 4.10156E-13
 -1       333 2.10811E+01 1.18762E+00-2.49117E-02 1.92315E+00 3.70140E-13 7.33864E-13
 -1       334 2.03775E+01 4.89432E-01 8.34391E-03 9.28501E-01 3.13692E-13 5.85168E-13
 -1       335 2.04468E+01 6.76054E-01 1.23661E-02-1.02588E+00-3.01402E-13-9.69149E-14
 -1       336 2.00279E+01 3.35566E-01 6.79449E-03-4.57918E-01-2.55951E-13-9.46597E-14
 -1       337 1.97747E+01 1.78512E-01 4.08097E-03-1.46713E-01-1.58229E-13-1.07425E-13
 -1       338 1.96424E+01 9.36958E-02 1.96123E-03 2.74508E-02-1.34766E-13-1.54683E-13
 -1       339 1.95925E+01 4.62444E-02 8.70185E-04 1.23451E-01-1.08391E-13-1.51657E-13
 -1       340 1.95958E+01 1.96790E-02 3.67290E-04 1.73817E-01-8.23019E-14-1.33127E-13
 -1       341 1.96326E+01 5.87790E-03 1.43621E-04 1.98250E-01-5.33497E-14-1.71199E-13
 -1       342 1.96906E+01 5.28266E-04 5.64264E-05 2.09417E-01-9.03877E-14-1.70553E-13
 -1       343 1.97627E+01 1.11769E-03 4.91236E-05 2.15980E-01-9.93797E-14-1.44078E-13
 -1       344 1.98457E+01 6.06335E-03 9.58220E-05 2.24122E-01-5.95510E-14-1.77815E-13
 -1       345 1.99390E+01 1.42804E-02 1.80970E-04 2.38389E-01-2.80549E-14-1.92834E-13
 -1       346 2.00441E+01 2.49097E-02 2.92166E-04 2.62125E-01-1.67054E-15-1.24124E-13
 -1       347 2.01638E+01 3.70894E-02 4.16484E-04 2.97626E-01 4.76249E-16-1.71632E-13
 -1       348 2.03020E+01 4.97113E-02 5.37204E-04 3.46042E-01-1.78463E-14-2.18391E-13
 -1       349 2.04627E+01 6.11221E-02 6.30130E-04 4.06998E-01-9.29645E-14-2.18909E-13
 -1       350 2.06499E+01 6.87476E-02 6.59642E-04 4.77882E-01-1.01451E-13-2.72602E-13
 -1       351 2.08664E+01 6.86503E-02 5.75538E-04 5.52751E-01-1.52624E-13-2.09002E-13
 -1       352 2.11131E+01 5.51233E-02 3.13128E-04 6.20834E-01-1.62867E-13-2.47143E-13
 -1       353 2.13880E+01 2.06073E-02-1.98226E-04 6.64832E-01-6.35688E-14-2.53644E-13
 -1       354 2.16843E+01-4.34228E-02-1.00854E-03 6.59535E-01 2.59368E-16-2.61079E-13
 -1       355 2.19886E+01-1.43426E-01-2.09549E-03 5.72138E-01 1.58933E-13-1.34689E-13
 -1       356 2.22781E+01-2.77078E-01-3.31475E-03 3.66822E-01 1.01809E-13-1.49959E-13
 -1       357 2.25160E+01-4.22173E-01-4.27391E-03 1.76053E-02 1.30615E-13-8.79376E-14
 -1       358 2.26498E+01-5.25032E-01-4.41343E-03-4.66963E-01 1.56713E-14-1.95514E-13
 -1       359 2.26170E+01-5.00417E-01-3.10503E-03-1.01003E+00-8.22435E-14-1.08856E-13
 -1       360 2.23730E+01-2.65570E-01-5.25447E-04-1.44181E+00-9.34980E-14-1.92598E-15
 -1       361 2.19474E+01 1.78948E-01 1.88307E-03-1.53030E+00-2.78207E-14-9.74600E-14
 -1       362 2.14912E+01 6.78277E-01 3.45747E-03-1.10947E+00-7.89737E-14-3.52798E-13
 -1       363 2.12332E+01 9.66431E-01 4.22066E-03-2.44430E-01-2.68020E-13-5.12605E-13
 -1       364 2.13265E+01 8.59371E-01 4.22342E-03 7.24574E-01-3.26578E-13-4.76910E-13
 -1       365 2.17118E+01 4.29482E-01 3.12756E-03 1.38722E+00 1.30885E-15-4.38576E-13
 -1       366 2.21762E+01-7.23462E-02 9.03707E-04 1.53459E+00 7.57680E-14-4.93227E-13
 -1       367 2.25154E+01-4.17629E-01-1.79708E-03 1.23819E+00 2.41344E-13-3.17399E-13
 -1       368 2.26440E+01-5.36786E-01-3.88766E-03 7.20480E-01 2.63821E-13-1.59781E-13
 -1       369 2.25787E+01-4.84029E-01-4.47215E-03 1.90411E-01 2.19869E-13-1.01440E-13
 -1       370 2.23787E+01-3.50454E-01-3.85878E-03-2.30883E-01 2.54721E-13 1.35562E-14
 -1       371 2.21033E+01-2.06668E-01-2.71274E-03-5.05990E-01-4.01842E-14-1.83269E-13
 -1       372 2.17969E+01-8.87714E-02-1.52214E-03-6.47822E-01-1.14275E-13-9.02059E-14
 -1       373 2.14890E+01-6.83000E-03-5.48667E-04-6.89198E-01-2.91391E-13 3.86709E-13
 -1       374 2.11977E+01 4.28013E-02 1.32937E-04-6.64553E-01-1.63077E-13 5.86708E-13
 -1       375 2.09336E+01 6.86725E-02 5.54535E-04-6.01837E-01 2.87326E-13 3.76304E-13
 -1       376 2.07020E+01 7.96745E-02 7.87301E-04-5.20403E-01 5.82815E-13 3.31557E-13
 -1       377 2.05048E+01 8.32717E-02 8.98695E-04-4.31701E-01 2.07893E-13 3.50234E-13
 -1       378 2.03415E+01 8.50862E-02 9.40925E-04-3.41034E-01-1.04694E-13 4.14898E-13
 -1       379 2.02106E+01 8.87123E-02 1.10378E-03-2.49569E-01-2.42827E-13 2.52939E-13
 -1       380 2.01177E+01 8.72121E-02 8.53159E-04-1.63746E-01-2.60150E-13-3.53957E-14
 -1       381 1.98763E+01 2.28908E-01 1.08098E-02 3.99327E-01 2.41413E-13 4.65567E-13
 -1       382 1.95890E+01 1.16228E-01 6.19734E-03 1.19492E-01 1.79620E-13 3.51520E-13
 -1       383 1.94569E+01 5.91856E-02 2.84378E-03-3.13724E-02 1.21527E-13 2.71541E-13
 -1       384 1.94218E+01 2.82734E-02 1.23759E-03-1.11543E-01 8.01504E-14 2.48051E-13
 -1       385 1.94453E+01 1.11823E-02 5.40991E-04-1.51855E-01 1.12521E-13 2.00775E-13
 -1       386 1.95036E+01 2.32342E-03 2.34998E-04-1.69888E-01 1.22809E-13 2.24444E-13
 -1       387 1.95824E+01-1.13902E-03 1.06847E-04-1.76662E-01 1.18404E-13 2.14927E-13
 -1       388 1.96740E+01-7.75644E-04 8.05024E-05-1.79640E-01 6.90105E-14 2.28128E-13
 -1       389 1.97754E+01 2.50286E-03 1.25100E-04-1.84243E-01 6.94499E-14 1.24641E-13
 -1       390 1.98868E+01 8.17114E-03 2.25050E-04-1.94679E-01 7.16587E-14 1.17100E-13
 -1       391 2.00113E+01 1.59405E-02 3.70601E-04-2.14434E-01 1.59114E-13 6.46727E-14
 -1       392 2.01537E+01 2.56513E-02 5.53849E-04-2.46555E-01 5.79261E-14-4.24850E-14
 -1       393 2.03209E+01 3.71577E-02 7.65110E-04-2.93761E-01-2.05008E-14-3.48893E-14
 -1       394 2.05207E+01 5.01634E-02 9.87859E-04-3.58342E-01 7.41325E-14-4.56755E-14
 -1       395 2.07618E+01 6.39521E-02 1.19121E-03-4.41753E-01 2.13033E-14-3.15591E-14
 -1       396 2.10529E+01 7.69332E-02 1.31951E-03-5.43724E-01 2.58907E-14-1.44065E-14
 -1       397 2.14014E+01 8.59069E-02 1.28063E-03-6.60588E-01-9.20555E-14-3.05279E-14
 -1       398 2.18117E+01 8.49823E-02 9.39502E-04-7.82481E-01-3.63865E-14 2.00213E-14
 -1       399 2.22824E+01 6.42799E-02 1.33082E-04-8.89085E-01 7.35618E-14-6.45920E-14
 -1       400 2.28024E+01 9.16749E-03-1.27117E-03-9.44185E-01 1.17069E-13-5.91405E-14
 -1       401 2.33457E+01-9.77068E-02-3.19946E-03-8.91011E-01-9.04588E-14 4.21935E-14
 -1       402 2.38652E+01-2.66927E-01-5.15245E-03-6.54465E-01-3.19057E-13 1.99625E-14
 -1       403 2.42848E+01-4.79622E-01-6.48366E-03-1.62563E-01-2.28982E-13 3.59766E-14
 -1       404 2.44929E+01-6.49505E-01-6.32198E-03 5.95269E-01-7.02103E-14 1.93315E-13
 -1       405 2.43563E+01-6.06390E-01-5.61141E-03 1.46476E+00-7.95137E-14 4.97612E-13
 -1       406 2.38193E+01-1.95442E-01-2.44937E-03 2.04729E+00-1.17081E-13 6.16072E-13
 -1       407 2.30298E+01 5.36187E-01-6.43755E-03 1.86189E+00 1.60155E-13 7.12127E-13
 -1       408 2.24275E+01 1.15530E+00-6.43902E-03 7.24448E-01 2.08353E-13 6.31634E-13
 -1       409 2.24800E+01 1.12012E+00-1.04491E-02-8.25744E-01 1.93979E-13 1.47870E-13
 -1       410 2.31349E+01 4.91691E-01-2.57512E-03-1.92063E+00 2.12461E-13-1.19038E-13
 -1       411 2.39252E+01-2.32176E-01-1.54377E-03-2.02925E+00 8.77893E-14 7.86246E-14
 -1       412 2.44173E+01-6.22851E-01-4.61327E-03-1.39154E+00 2.14412E-14 2.70242E-13
 -1       413 2.44930E+01-6.43628E-01-7.33020E-03-5.15855E-01-5.30982E-14 2.75764E-13
 -1       414 2.42374E+01-4.66862E-01-8.16061E-03 2.25434E-01 1.17621E-13 4.47458E-13
 -1       415 2.37857E+01-2.55265E-01-6.33227E-03 6.96394E-01-8.02995E-14 4.59951E-13
 -1       416 2.32476E+01-8.98406E-02-3.68759E-03 9.16062E-01 7.58616E-15 7.55047E-14
 -1       417 2.26952E+01 1.32599E-02-1.35332E-03 9.58753E-01-2.02521E-13 2.10284E-13
 -1       418 2.21720E+01 6.58953E-02 2.28173E-04 8.98354E-01-3.03424E-13 4.02316E-13
 -1       419 2.17013E+01 8.57061E-02 1.10441E-03 7.89249E-01-1.05424E-13 5.62336E-13
 -1       420 2.12931E+01 8.73538E-02 1.48102E-03 6.65142E-01 5.56905E-14 3.06364E-13
 -1       421 2.09493E+01 8.08508E-02 1.56443E-03 5.43845E-01 6.43632E-13 2.60682E-13
 -1       422 2.06671E+01 7.24730E-02 1.50458E-03 4.32537E-01 2.18872E-13 1.75195E-13
 -1       423 2.04414E+01 6.60017E-02 1.37374E-03 3.31738E-01 1.94583E-13-3.47536E-14
 -1       424 2.02670E+01 6.32061E-02 1.14126E-03 2.38471E-01 7.77920E-14-2.16134E-13
 -1       425 2.01376E+01 6.37678E-02 8.94391E-04 1.49274E-01 1.05247E-13-1.84510E-13
 -1       426 2.00758E+01 6.70657E-02 6.10762E-04 9.95549E-02-8.49898E-14-2.33584E-14
 -1       427 2.00140E+01 3.59615E-01 1.98676E-04 2.71654E-01-9.09139E-14 1.98624E-13
 -1       428 2.00567E+01 2.36185E-01 6.68765E-04 2.39145E-01-9.33212E-14 6.64804E-13
 -1       429 2.00754E+01 1.44727E-01 8.81182E-04 1.74931E-01-2.08104E-13-9.37812E-14
 -1       430 1.99734E+01 4.77776E-01-2.19219E-04 2.61713E-01-3.01620E-13-5.36342E-13
 -1       431 1.99395E+01 5.80819E-01-5.39873E-04 2.12785E-01 5.88857E-14-2.58937E-13
 -1       432 1.99166E+01 6.54015E-01-7.63260E-04 1.33921E-01 1.21236E-13 2.57253E-13
 -1       433 1.99065E+01 6.88773E-01-8.72929E-04 3.76416E-02-1.07158E-13 3.25641E-13
 -1       434 1.99095E+01 6.81418E-01-8.53444E-04-6.22616E-02-2.50419E-13 2.45168E-13
 -1       435 1.99246E+01 6.33587E-01-7.08693E-04-1.52304E-01-3.23046E-13-3.93668E-14
 -1       436 1.99494E+01 5.53468E-01-4.59391E-04-2.19760E-01 1.75541E-13-4.13123E-13
 -1       437 1.99821E+01 4.48236E-01-1.57804E-04-2.57932E-01 3.43603E-13 4.86068E-13
 -1       438 2.00191E+01 3.31394E-01 1.92495E-04-2.59683E-01 2.27319E-13-2.25325E-13
 -1       439 2.00567E+01 2.14911E-01 6.25649E-04-2.24402E-01-2.59196E-13-7.31659E-14
 -1       440 9.63228E+00-5.26160E+00-2.31430E-03 6.53933E+00 9.38832E-14-5.04201E-13
 -1       441 1.09815E+00-4.39084E+00-7.24595E-02-5.29850E-01-1.82066E-13 8.67639E-13
 -1       442 4.03016E+00-4.45340E+00-1.34211E-02 4.32662E+00-2.75308E-13 1.23193E-13
 -1       443 1.94501E+01-5.23976E+00-2.38098E-02 6.33828E+00-6.06737E-14-4.74384E-13
 -1       444 2.64065E+01-3.61671E+00-1.44769E-02 4.48191E+00-1.22985E-13-6.11275E-13
 -1       445 1.97894E+01 3.44033E+00-2.08336E-02-1.72594E+00-2.35070E-13-5.04487E-13
 -1       446 3.51349E+01 4.82000E+00 5.85158E-02-2.51191E-01 3.56645E-13-7.94420E-13
 -1       447 3.62364E+01 7.43754E+00 7.59626E-02-2.39712E-01 4.47642E-13-7.54813E-13
 -1       448 3.46249E+01 7.38526E+00-1.77071E-02 6.19005E-01 5.45800E-13-5.58699E-13
 -1       449 3.41463E+01 3.88092E+00-2.02145E-02 3.24335E-01 4.91163E-13-6.21572E-13
 -1       450 3.03836E+01-1.25299E+00-1.12938E-02-2.42434E+00 2.60555E-14-8.75910E-13
 -1       451 2.49960E+01-3.97783E+00 1.46341E-03-5.07155E+00 2.86993E-14-9.15476E-13
 -1       452 1.61386E+01-5.67543E+00-5.75473E-02-6.82826E+00-1.25899E-13-7.31960E-13
 -1       453 8.26503E+00-5.34619E+00-4.60491E-02-6.28133E+00-3.08836E-13-8.75744E-13
 -1       454 2.24955E+00-4.79995E+00-8.74497E-02-2.96577E+00-3.75401E-13-7.69371E-13
 -1       455 1.68820E+00-3.76197E+00-4.99694E-04 1.36815E+00-2.14183E-13-4.28352E-13
 -1       456 5.93078E+00-4.63104E+00 6.73933E-03 5.70601E+00-5.36654E-14 2.66592E-14
 -1       457 1.19365E+01-5.52430E+00-4.15379E-02 7.11370E+00-1.29508E-13 2.25309E-13
 -1       458 2.10656E+01-4.71180E+00-1.02458E-02 6.27881E+00 4.46587E-14-3.84554E-14
 -1       459 2.80933E+01-1.99947E+00 2.02188E-02 3.96674E+00-7.16927E-14 3.41185E-13
 -1       460 3.28977E+01 2.03177E+00 6.16764E-02 1.52966E+00-4.59414E-13 5.84671E-13
 -1       461 3.51677E+01 5.81070E+00 6.03398E-02 1.91079E-01-6.48454E-13 3.35496E-13
 -1       462 3.51292E+01 8.07815E+00 1.00685E-02 4.71404E-02-6.12094E-13 2.59461E-13
 -1       463 3.51837E+01 6.89419E+00 6.02807E-02 2.00569E-01-2.51479E-13 2.65912E-13
 -1       464 3.25068E+01 2.60586E+00-4.91854E-02-2.34447E-01-3.82055E-14 1.55875E-13
 -1       465 2.75741E+01-2.52808E+00-3.11233E-02-3.79570E+00-1.46015E-13 6.57252E-14
 -1       466 2.11366E+01-4.90895E+00-7.43603E-03-6.18389E+00-1.72862E-13 1.12604E-13
 -1       467 1.05335E+01-5.39212E+00-7.18716E-02-6.89485E+00 6.05904E-14 8.77770E-13
 -1       468 4.15000E+00-4.62938E+00-3.86127E-02-4.76767E+00 6.68493E-14 9.81284E-13
 -1       469 3.20852E+01 1.02381E-01-1.16639E-02 9.23664E-01 1.77153E-13-8.68208E-13
 -1       470 3.12379E+01 1.02202E-01-7.61227E-02 9.39973E-01-7.53252E-14-2.49092E-13
 -1       471 1.63953E+01-5.52934E+00 4.80905E-02 6.83341E+00-2.93654E-14-4.74887E-13
 -1       472 1.80924E+01-5.47965E+00 7.54696E-02-6.84373E+00 1.34850E-13 1.26820E-13
 -1       473 3.15643E+01 7.11171E+00-1.10476E-01-9.53272E-01-6.09568E-13 2.02040E-13
 -1       474 2.97917E+01-1.32983E+00-5.02657E-02-2.00049E-01 2.59046E-14-8.95811E-14
 -1       475 2.03662E+01 8.32900E-01 4.02954E-03 9.72196E-01 3.39628E-13 2.01033E-13
 -1       476 1.97435E+01 3.10936E+00-5.51015E-03-6.32892E-01-2.01365E-14-4.75780E-13
 -1       477 1.98375E+01 2.93458E+00-5.86738E-03-9.49509E-01-9.53481E-14-5.06456E-13
 -1       478 1.96774E+01 3.23351E+00-5.02830E-03 8.88265E-03 1.43940E-13-4.44800E-13
 -1       479 1.96955E+01 3.20006E+00-5.09771E-03 3.29698E-01 2.11430E-13-4.48274E-13
 -1       480 1.97481E+01 3.10224E+00-5.41354E-03 6.44750E-01 2.68754E-13-4.19426E-13
 -1       481 1.98443E+01 2.92312E+00-5.96496E-03 9.60267E-01 3.34253E-13-3.28977E-13
 -1       482 1.99964E+01 2.63653E+00-6.53029E-03 1.25591E+00 3.89367E-13-2.29147E-13
 -1       483 2.02336E+01 2.18925E+00-5.69659E-03 1.50134E+00 4.16181E-13-8.68069E-14
 -1       484 2.01059E+01 4.55644E-01 5.08204E-03 4.62890E-01 2.70871E-13 1.36828E-13
 -1       485 2.03375E+01 9.78425E-01 3.69912E-03-9.38691E-01-2.50365E-13-2.49531E-13
 -1       486 2.01742E+01 5.35879E-01 4.27139E-04-4.66282E-01-1.98114E-13-2.14838E-13
 -1       487 2.00241E+01 3.09835E-01 1.17672E-03-1.60226E-01-1.56393E-13-2.08284E-13
 -1       488 1.99277E+01 1.70612E-01 5.45308E-04 2.67969E-02-1.16301E-13-1.86709E-13
 -1       489 1.98746E+01 8.88054E-02 2.07439E-04 1.37542E-01-9.08210E-14-1.98089E-13
 -1       490 1.98555E+01 4.20402E-02 7.02524E-05 2.00708E-01-9.90035E-14-2.25337E-13
 -1       491 1.98610E+01 1.82582E-02 1.68077E-05 2.35843E-01-3.24237E-14-2.38890E-13
 -1       492 1.98842E+01 1.03753E-02 4.41365E-06 2.56768E-01-5.45498E-14-1.70070E-13
 -1       493 1.99206E+01 1.39440E-02 1.78630E-05 2.73429E-01-1.03994E-13-1.57077E-13
 -1       494 1.99676E+01 2.59926E-02 4.99022E-05 2.93133E-01-3.91637E-14-1.51532E-13
 -1       495 2.00246E+01 4.43362E-02 9.54313E-05 3.21296E-01 2.96905E-15-1.51209E-13
 -1       496 2.00920E+01 6.70730E-02 1.49618E-04 3.61835E-01-4.74431E-14-2.13481E-13
 -1       497 2.01711E+01 9.21165E-02 2.06748E-04 4.17262E-01-5.03496E-14-1.47378E-13
 -1       498 2.02642E+01 1.16674E-01 2.58697E-04 4.88499E-01-7.74865E-14-1.54418E-13
 -1       499 2.03743E+01 1.36617E-01 2.93118E-04 5.74368E-01-1.17342E-13-2.00443E-13
 -1       500 2.05050E+01 1.45721E-01 2.91553E-04 6.70722E-01-1.23381E-13-2.67844E-13
 -1       501 2.06611E+01 1.34867E-01 2.27871E-04 7.69161E-01-2.08723E-13-2.16720E-13
 -1       502 2.08490E+01 9.14867E-02 6.77356E-05 8.55353E-01-8.63505E-14-1.76918E-13
 -1       503 2.10769E+01-4.80240E-06-2.27589E-04 9.07124E-01-4.84738E-14-2.78053E-13
 -1       504 2.13548E+01-1.55350E-01-6.79071E-04 8.92823E-01 1.08546E-13-2.42792E-13
 -1       505 2.16919E+01-3.82608E-01-1.25302E-03 7.71265E-01 6.30795E-14-3.81236E-13
 -1       506 2.20885E+01-6.66293E-01-1.93480E-03 4.96395E-01 1.47102E-13-4.52551E-13
 -1       507 2.25203E+01-9.42829E-01-2.42525E-03 3.31495E-02 5.44283E-14-4.98771E-13
 -1       508 2.29184E+01-1.07991E+00-2.52048E-03-6.07407E-01 1.92320E-14-3.90498E-13
 -1       509 2.31609E+01-8.86797E-01-1.78199E-03-1.31272E+00-1.52862E-14-2.28638E-13
 -1       510 2.31205E+01-2.18001E-01-1.43764E-03-1.81552E+00-1.26182E-13-1.91524E-13
 -1       511 2.27971E+01 8.13999E-01-4.65339E-03-1.75631E+00-1.64909E-13-1.10043E-13
 -1       512 2.24202E+01 1.74233E+00-6.08001E-03-9.45543E-01-3.55065E-13-6.72607E-14
 -1       513 2.23220E+01 1.96465E+00-5.59259E-03 3.39836E-01-3.51084E-13 5.62767E-14
 -1       514 2.25977E+01 1.31705E+00-4.78276E-03 1.44303E+00-2.32970E-13-4.55693E-14
 -1       515 2.29869E+01 2.55720E-01-2.45602E-03 1.87034E+00 3.32008E-14-1.05844E-13
 -1       516 2.31765E+01-6.26967E-01-7.66811E-04 1.59292E+00 2.43069E-13-5.91616E-14
 -1       517 2.30564E+01-1.04250E+00-1.69769E-03 9.41344E-01 2.52246E-13-1.59411E-13
 -1       518 2.27139E+01-1.04147E+00-2.35214E-03 2.44297E-01 2.41466E-13-4.48313E-14
 -1       519 2.22837E+01-8.11391E-01-2.16509E-03-3.13381E-01 3.35434E-13-4.35954E-14
 -1       520 2.18622E+01-5.19165E-01-1.61386E-03-6.78901E-01-2.85820E-14-1.96110E-13
 -1       521 2.14931E+01-2.59845E-01-9.77446E-04-8.70949E-01 1.36839E-14 5.20168E-14
 -1       522 2.11852E+01-6.82044E-02-4.38060E-04-9.32670E-01 7.87746E-14 2.01842E-13
 -1       523 2.09326E+01 5.54674E-02-5.57321E-05-9.07813E-01-1.83267E-14 6.09429E-13
 -1       524 2.07256E+01 1.25261E-01 1.80887E-04-8.31737E-01-1.11198E-13 6.04194E-13
 -1       525 2.05552E+01 1.58404E-01 3.14408E-04-7.29584E-01 3.07398E-13 4.18865E-13
 -1       526 2.04143E+01 1.70346E-01 3.86048E-04-6.17257E-01 3.77431E-13 1.47575E-13
 -1       527 2.02975E+01 1.72979E-01 4.10208E-04-5.03414E-01 1.55008E-13-8.16308E-14
 -1       528 2.02008E+01 1.74654E-01 4.73565E-04-3.91381E-01-1.19452E-13-1.33992E-13
 -1       529 9.65322E+00-3.02709E+00 1.60701E-01 5.71508E+00-5.88384E-13-2.08410E-13
 -1       530 1.98100E+01 1.34715E-01 1.02210E-03-2.79270E-02 1.20595E-13 1.77922E-14
 -1       531 1.97580E+01 6.84488E-02 4.07966E-04-1.33103E-01 1.15675E-13 1.78337E-14
 -1       532 1.97481E+01 3.09593E-02 1.51551E-04-1.91064E-01 9.20619E-14 2.82537E-14
 -1       533 1.97670E+01 1.18670E-02 4.37630E-05-2.21740E-01 7.78056E-14 5.06062E-14
 -1       534 1.98057E+01 5.40802E-03 1.14111E-05-2.38733E-01 8.89199E-14 9.96911E-14
 -1       535 1.98587E+01 8.19017E-03 2.71517E-05-2.51785E-01 1.31759E-13 9.79828E-14
 -1       536 1.99234E+01 1.81690E-02 7.90437E-05-2.68216E-01 1.28339E-13 7.12504E-14
 -1       537 1.99992E+01 3.41149E-02 1.60299E-04-2.93798E-01 1.46598E-13-4.24792E-15
 -1       538 2.00874E+01 5.52789E-02 2.66404E-04-3.33305E-01 1.42442E-13 4.54667E-14
 -1       539 2.01904E+01 8.11048E-02 3.93103E-04-3.90797E-01 3.27982E-15 1.63641E-14
 -1       540 2.03117E+01 1.10886E-01 5.34151E-04-4.69668E-01 4.85787E-14 1.60582E-14
 -1       541 2.04550E+01 1.43268E-01 6.77749E-04-5.72383E-01 5.28695E-14-1.72880E-14
 -1       542 2.06249E+01 1.75448E-01 8.01152E-04-6.99795E-01 8.72105E-16 4.73390E-14
 -1       543 2.08261E+01 2.01909E-01 8.63111E-04-8.49824E-01-4.75664E-14 2.99580E-14
 -1       544 2.10642E+01 2.12522E-01 7.94835E-04-1.01521E+00-1.15678E-13-4.27442E-14
 -1       545 2.13466E+01 1.90047E-01 4.92201E-04-1.17997E+00 1.73958E-14-7.80856E-16
 -1       546 2.16847E+01 1.07799E-01-1.80333E-04-1.31445E+00 4.71007E-14-1.17932E-14
 -1       547 2.20964E+01-6.99737E-02-1.37099E-03-1.36904E+00-3.81894E-14 7.66847E-14
 -1       548 2.26065E+01-3.78306E-01-2.95187E-03-1.26878E+00-1.03093E-13 2.30654E-13
 -1       549 2.32359E+01-8.20293E-01-4.45537E-03-9.15782E-01-2.23163E-13 5.06949E-14
 -1       550 2.39741E+01-1.30798E+00-6.11518E-03-2.16808E-01-2.39605E-13-2.48196E-14
 -1       551 2.47125E+01-1.56489E+00-6.50636E-03 8.47920E-01-2.24186E-13 1.54661E-13
 -1       552 2.51908E+01-1.14830E+00-1.50489E-03 2.04822E+00-3.22558E-13 3.73516E-13
 -1       553 2.49685E+01 2.81332E-01-4.01391E-02 2.67044E+00-1.76569E-14 5.08267E-13
 -1       554 2.44095E+01 2.07382E+00-5.85179E-02 1.89747E+00 1.16308E-13 4.79076E-13
 -1       555 2.39020E+01 2.83639E+00-1.19798E-01-1.26570E-01 5.98542E-13 3.51437E-13
 -1       556 2.45835E+01 1.83267E+00-1.94939E-02-2.04129E+00 4.22488E-13 1.68932E-13
 -1       557 2.50879E+01 5.93857E-02-2.12284E-02-2.57318E+00-7.51500E-14 1.81936E-13
 -1       558 2.51127E+01-1.21906E+00-1.14605E-02-1.87752E+00-5.89766E-14 3.10810E-13
 -1       559 2.46228E+01-1.55752E+00-5.40198E-03-7.05381E-01 1.37386E-14 3.67248E-13
 -1       560 2.38817E+01-1.26415E+00-6.33494E-03 3.19677E-01 2.90360E-15 2.70566E-13
 -1       561 2.31494E+01-7.74194E-01-4.99314E-03 9.83432E-01 1.24386E-13 3.82273E-13
 -1       562 2.25277E+01-3.42929E-01-3.08762E-03 1.30690E+00 1.89319E-13 2.93693E-13
 -1       563 2.20252E+01-4.84537E-02-1.25787E-03 1.38839E+00-1.77151E-13 5.29521E-13
 -1       564 2.16185E+01 1.18756E-01-2.48064E-05 1.32368E+00-3.64269E-13 3.96359E-13
 -1       565 2.12837E+01 1.95183E-01 6.60545E-04 1.18423E+00-1.73607E-13 1.57287E-13
 -1       566 2.10040E+01 2.16497E-01 9.63244E-04 1.01629E+00 6.45424E-14-1.13319E-13
 -1       567 2.07692E+01 2.09202E-01 1.03852E-03 8.46362E-01 4.12766E-13-1.80396E-13
 -1       568 2.05728E+01 1.90732E-01 9.96799E-04 6.87335E-01 3.38137E-13 3.51450E-13
 -1       569 2.04101E+01 1.71829E-01 9.62068E-04 5.43412E-01 4.58733E-13 2.91142E-14
 -1       570 2.02769E+01 1.59048E-01 1.09359E-03 4.13972E-01 2.92675E-13 4.33451E-14
 -1       571 2.01673E+01 1.52747E-01 9.82698E-04 2.94525E-01-2.90279E-14 1.89026E-13
 -1       572 1.99025E+01 5.32371E-01-2.74862E-04 3.28988E-01 2.95610E-14-1.25119E-13
 -1       573 1.98434E+01 6.14503E-01-3.05254E-04 2.37226E-01 2.86567E-13 2.91517E-14
 -1       574 2.00656E+01 3.05183E-01 9.05966E-05 3.70475E-01-3.16581E-14 4.53931E-13
 -1       575 1.99800E+01 4.25879E-01-1.01375E-04 3.76073E-01-6.41153E-14-1.93660E-13
 -1       576 1.98092E+01 6.62491E-01-3.72214E-04 1.15022E-01 6.69048E-14 2.26273E-13
 -1       577 1.98023E+01 6.71917E-01-3.93576E-04-2.03447E-02 4.75733E-14 2.56371E-13
 -1       578 1.98219E+01 6.42861E-01-3.56898E-04-1.50758E-01 1.13327E-13 9.41282E-14
 -1       579 1.98638E+01 5.80993E-01-2.62041E-04-2.58062E-01-6.67117E-14-7.70517E-14
 -1       580 1.99244E+01 4.91443E-01-1.64623E-04-3.32743E-01 2.44539E-13 2.66702E-13
 -1       581 1.99955E+01 3.84540E-01-7.18612E-05-3.64035E-01 1.63261E-13 1.95747E-14
 -1       582 2.00712E+01 2.71122E-01 2.15030E-04-3.46993E-01-3.13598E-13-6.05259E-13
 -1       583 4.81137E+00-1.92080E+00 1.48784E-01-2.85480E+00-1.18749E-13 8.05564E-13
 -1       584 1.99210E+01 2.49869E-01 2.45705E-03 1.54753E-01 2.08301E-13 8.91685E-14
 -1       585 2.46822E+01-5.45028E+00 2.70647E-02 4.14851E+00-7.55854E-14-7.17475E-13
 -1       586 2.03905E+01 1.77011E+00-5.29595E-03-1.54578E+00-3.18164E-13-3.10056E-13
 -1       587 2.98194E+01 4.23771E+00-1.66469E-01 1.75918E+00-1.42844E-13-2.04760E-13
 -1       588 6.62778E+00-1.64891E+00 1.86960E-01 3.95151E+00 1.66804E-13 6.77236E-14
 -1       589 3.03082E+01 6.88944E+00-1.44431E-01-4.01964E-01 3.78378E-13-1.37047E-13
 -1       590 1.96928E+01 3.20449E+00-5.19075E-03-3.12038E-01 7.05840E-14-4.52487E-13
 -1       591 3.01703E+01 4.76570E+00-1.68763E-01 2.01118E+00 2.61818E-13-5.41997E-14
 -1       592 3.05474E+01 5.76847E+00-1.30546E-01-1.71636E+00 3.44960E-13-1.60115E-13
 -1       593 1.51525E+01-4.96713E+00 9.78691E-02-6.80451E+00-3.89341E-13-7.89872E-13
 -1       594 3.08046E+01 1.58298E+00-1.36620E-01-1.91556E+00 1.87100E-13-4.78860E-13
 -1       595 2.76931E+01-4.34790E+00-5.63161E-02-1.77752E+00-2.46473E-13-5.67699E-13
 -1       596 2.57938E+01-4.72673E+00-8.86862E-03 3.61064E+00 2.08222E-13 5.77954E-13
 -1       597 2.28599E+01-5.66754E+00 4.30966E-02-5.00965E+00-3.29292E-13-6.94505E-13
 -1       598 7.73822E+00-2.77201E+00 1.39624E-01-5.07580E+00-1.99243E-13-8.58452E-13
 -1       599 4.65826E+00-1.44447E+00 1.67491E-01-1.37996E+00-1.03488E-13-6.42431E-13
 -1       600 1.27424E+01-3.52822E+00 1.36726E-01 6.59762E+00 3.04000E-13 4.02130E-13
 -1       601 1.91222E+01-5.36541E+00 6.85596E-02 6.38078E+00 2.38733E-13 3.29653E-13
 -1       602 2.93643E+01-1.57425E+00-7.45369E-02 2.64506E-01-1.50886E-14 6.01699E-13
 -1       603 3.03582E+01 2.78875E+00-1.40970E-01-1.61150E+00-2.26312E-13 4.18332E-13
 -1       604 3.02534E+01 7.00455E+00-1.70213E-01 7.96966E-01-2.94514E-13-1.00309E-13
 -1       605 1.05718E+01-3.63847E+00 1.46936E-01-6.52826E+00 1.75540E-13 1.03980E-12
 -1       606 2.54043E+01-4.87413E+00-1.74420E-02-3.64730E+00 7.30319E-14-1.42775E-13
 -1       607 5.13382E+00-1.34146E+00 1.69118E-01 1.93037E+00-4.67903E-13 3.98986E-13
 -1       608 2.05764E+01 1.30552E+00-9.95125E-04 1.54878E+00 3.98705E-13 2.92295E-13
 -1       609 2.89699E+01-3.30860E+00-7.40724E-02 7.26816E-01-3.82142E-14-9.34246E-13
 -1       610 2.79115E+01 5.25554E+00-1.64739E-01 1.30604E+00 3.03507E-13 1.93677E-13
 -1       611 1.99865E+01 2.66462E+00-6.27804E-03-1.25724E+00-1.81107E-13-4.63285E-13
 -1       612 2.87029E+01 1.08301E+00-1.17687E-01 1.82252E+00 3.45696E-14-6.02227E-14
 -1       613 2.91902E+01 1.85079E+00-1.29520E-01 2.62227E+00 1.32061E-13 1.20966E-13
 -1       614 1.46199E+01-3.83038E+00 1.08221E-01 6.23512E+00-4.89248E-13-5.30000E-13
 -1       615 2.01448E+01 1.75249E-01 5.50577E-04-3.14998E-01-4.35794E-13 8.87620E-14
 -1       616 2.25018E+01-5.31067E+00 4.46205E-02-4.94159E+00 6.43582E-14-1.39306E-13
 -1       617 2.84050E+01 6.76578E+00-1.66197E-01-2.65676E-01-4.76438E-13-1.33007E-13
 -1       618 1.99713E+01 2.45874E+00-1.57486E-03 3.92241E-01 2.15575E-13-3.76706E-13
 -1       619 1.99399E+01 2.53426E+00-1.58471E-03 1.34302E-01 1.53970E-13-4.10829E-13
 -1       620 2.01278E+01 2.05183E+00-1.57437E-03 8.47492E-01 3.30007E-13-2.47152E-13
 -1       621 2.02421E+01 1.67978E+00-2.25379E-03 9.90269E-01 3.63703E-13-1.40927E-13
 -1       622 2.03186E+01 1.03959E+00 2.90697E-03 8.29790E-01 3.33845E-13-3.93601E-14
 -1       623 1.65578E+01-4.13958E+00 8.86062E-02-6.30152E+00 3.16969E-13 1.34937E-13
 -1       624 2.83761E+01-2.13149E+00-5.60474E-02 1.43202E+00-3.16195E-13-4.10991E-14
 -1       625 2.02459E+01 6.83957E-01 1.97585E-03-3.88263E-01-1.59446E-13-2.58090E-13
 -1       626 2.01735E+01 4.05295E-01 3.87118E-04-1.29130E-01-1.31760E-13-2.19635E-13
 -1       627 2.01102E+01 2.31198E-01 6.81685E-05 4.13873E-02-1.00946E-13-2.26178E-13
 -1       628 2.00642E+01 1.25359E-01 2.34747E-05 1.47888E-01-1.17355E-13-2.53058E-13
 -1       629 2.00345E+01 6.47973E-02 6.66448E-07 2.12682E-01-7.59375E-14-2.48912E-13
 -1       630 2.00190E+01 3.56984E-02-3.97586E-06 2.52716E-01 1.25211E-14-2.37938E-13
 -1       631 2.00148E+01 2.92160E-02-1.25924E-06 2.80763E-01-2.92831E-14-1.35664E-13
 -1       632 2.00198E+01 3.94113E-02 7.15259E-06 3.06488E-01-6.62775E-14-4.80079E-14
 -1       633 2.00322E+01 6.20523E-02 2.02498E-05 3.37205E-01-6.41239E-14-9.30492E-14
 -1       634 2.00511E+01 9.37843E-02 3.68720E-05 3.78409E-01-8.81047E-14-9.18654E-14
 -1       635 2.00762E+01 1.31421E-01 5.57231E-05 4.34069E-01-3.60029E-14-1.09332E-13
 -1       636 2.01082E+01 1.71222E-01 7.52172E-05 5.06676E-01-7.29723E-14-1.68230E-13
 -1       637 2.01486E+01 2.08079E-01 9.27219E-05 5.97044E-01-1.40797E-13-8.07527E-14
 -1       638 2.02004E+01 2.34527E-01 1.03955E-04 7.03851E-01-1.81015E-13-1.25866E-13
 -1       639 2.02694E+01 2.39610E-01 1.02320E-04 8.22856E-01-1.71063E-13-1.60700E-13
 -1       640 2.03649E+01 2.07779E-01 7.78083E-05 9.45726E-01-1.90402E-13-2.81845E-13
 -1       641 2.05022E+01 1.18349E-01 1.21662E-05 1.05836E+00-1.50232E-13-2.12572E-13
 -1       642 2.07044E+01-5.33297E-02-1.21491E-04 1.13855E+00 1.00105E-15-2.41997E-13
 -1       643 2.10031E+01-3.30613E-01-3.07583E-04 1.15274E+00 7.70867E-14-3.16100E-13
 -1       644 2.14355E+01-7.21876E-01-4.36962E-04 1.05200E+00 2.74493E-14-1.36722E-13
 -1       645 2.20284E+01-1.19229E+00-9.14759E-04 7.70383E-01 3.53183E-14-2.11873E-13
 -1       646 2.27631E+01-1.61589E+00-1.44276E-03 2.40092E-01 1.51513E-13-1.08225E-13
 -1       647 2.35323E+01-1.74520E+00-3.44388E-03-5.59303E-01 2.00425E-13 3.83450E-14
 -1       648 2.41015E+01-1.21619E+00-5.93372E-03-1.48890E+00 2.76951E-14 1.36303E-13
 -1       649 2.41957E+01 1.72459E-01-7.62140E-03-2.09674E+00-7.34202E-14 9.53918E-14
 -1       650 2.37889E+01 2.07755E+00-2.79927E-02-1.81204E+00-1.23516E-13 1.43308E-13
 -1       651 2.34667E+01 3.22925E+00-3.85214E-02-4.26842E-01-3.25038E-13 3.57544E-13
 -1       652 2.35091E+01 2.80042E+00-5.05967E-02 1.24285E+00-4.27759E-13 2.50867E-14
 -1       653 2.40706E+01 1.10557E+00-9.95100E-03 2.10276E+00-3.10081E-13-2.70534E-14
 -1       654 2.42150E+01-6.46831E-01-9.62003E-03 1.84579E+00 1.46572E-13-1.09527E-13
 -1       655 2.38443E+01-1.59459E+00-3.07447E-03 9.95582E-01 1.38270E-13-1.44568E-15
 -1       656 2.31377E+01-1.74221E+00-1.60887E-03 9.98226E-02 2.37249E-13 2.54770E-14
 -1       657 2.23643E+01-1.42053E+00-9.12600E-04-5.66354E-01 7.75945E-14-6.91344E-14
 -1       658 2.16965E+01-9.49281E-01-6.49080E-04-9.61963E-01 1.94257E-13-1.51305E-13
 -1       659 2.11893E+01-5.11047E-01-4.09783E-04-1.14269E+00 6.26396E-14-1.74980E-13
 -1       660 2.08311E+01-1.76293E-01-1.79876E-04-1.17825E+00 3.41866E-14-1.05940E-13
 -1       661 2.05874E+01 4.75943E-02-2.13205E-05-1.12493E+00 1.46785E-13-2.11759E-13
 -1       662 2.04232E+01 1.79915E-01 6.43171E-05-1.02235E+00 9.12435E-14 7.79814E-14
 -1       663 2.03110E+01 2.46857E-01 1.01183E-04-8.96614E-01-6.65209E-14 3.59196E-13
 -1       664 2.02316E+01 2.72896E-01 1.20889E-04-7.63910E-01 9.96032E-14 1.08546E-13
 -1       665 2.01726E+01 2.77640E-01 1.63849E-04-6.33141E-01 2.69178E-14-2.54511E-13
 -1       666 2.01255E+01 2.75134E-01 1.67603E-04-5.08229E-01-8.66613E-14-5.44643E-13
 -1       667 2.68078E+01-3.71384E+00-4.31221E-02 8.31472E-01-3.62796E-14 2.12923E-13
 -1       668 2.00343E+01 2.03017E-01 1.80758E-04-3.67160E-02 1.05666E-13-7.52823E-14
 -1       669 1.99554E+01 2.77917E-02 9.38445E-06-2.48198E-01 5.04211E-14-3.87836E-14
 -1       670 1.99639E+01 2.15223E-02 7.83157E-06-2.74048E-01 9.46558E-14-3.12001E-14
 -1       671 1.99835E+01 3.04089E-02 1.97235E-05-2.97491E-01 1.28187E-13-1.45595E-14
 -1       672 2.00120E+01 5.13667E-02 4.27181E-05-3.26406E-01 1.54061E-13-4.46598E-14
 -1       673 2.00483E+01 8.24362E-02 7.52713E-05-3.67092E-01 8.47441E-14 7.09166E-14
 -1       674 2.00920E+01 1.22273E-01 1.16443E-04-4.24727E-01 7.15543E-14 1.17225E-13
 -1       675 2.01430E+01 1.69637E-01 1.64992E-04-5.03598E-01 1.26817E-14 1.34544E-13
 -1       676 2.02016E+01 2.22733E-01 2.18980E-04-6.07090E-01 5.21898E-14 1.51871E-13
 -1       677 2.02685E+01 2.78270E-01 2.74232E-04-7.37401E-01 4.80223E-14 1.02436E-13
 -1       678 2.03451E+01 3.29988E-01 3.22072E-04-8.94907E-01-2.48097E-14 8.38592E-14
 -1       679 2.04352E+01 3.66426E-01 3.46482E-04-1.07706E+00-1.50838E-14 3.38842E-14
 -1       680 2.05469E+01 3.67785E-01 3.18369E-04-1.27661E+00-6.91307E-14 2.66870E-16
 -1       681 2.06977E+01 3.02128E-01 1.84773E-04-1.47890E+00 5.06418E-14-3.32784E-14
 -1       682 2.09218E+01 1.22405E-01-1.41721E-04-1.65748E+00 3.53849E-14-2.17429E-14
 -1       683 2.12788E+01-2.31344E-01-8.63326E-04-1.76680E+00-8.92048E-14-5.32879E-14
 -1       684 2.18605E+01-8.12672E-01-1.27719E-03-1.72949E+00-1.51857E-13-2.89574E-14
 -1       685 2.27730E+01-1.60429E+00 7.05593E-04-1.41041E+00-1.42583E-13 2.10770E-14
 -1       686 2.40627E+01-2.38940E+00-8.18519E-03-6.33557E-01-3.64179E-13 1.08380E-13
 -1       687 2.56301E+01-2.65926E+00 2.18858E-03 6.48597E-01-3.49129E-13 2.82864E-13
 -1       688 2.65568E+01-1.65216E+00-3.90929E-02-1.99118E+00-1.13382E-14 2.25051E-13
 -1       689 2.53670E+01-2.69963E+00-1.22419E-02-4.38413E-01-5.61964E-14 2.37050E-13
 -1       690 2.38979E+01-2.34161E+00-1.22057E-03 7.79307E-01 2.19222E-13 1.67698E-13
 -1       691 2.26484E+01-1.52122E+00-1.19623E-03 1.48714E+00 1.37943E-13 2.84533E-14
 -1       692 2.17762E+01-7.44206E-01-1.50588E-03 1.76128E+00 1.33512E-13 6.99670E-14
 -1       693 2.12236E+01-1.88997E-01-6.61340E-04 1.78054E+00-3.31416E-14 2.49535E-13
 -1       694 2.08833E+01 1.44667E-01-1.08080E-04 1.66277E+00-2.57469E-13 1.59409E-13
 -1       695 2.06689E+01 3.12223E-01 1.77538E-04 1.48045E+00-2.76496E-14 1.47839E-13
 -1       696 2.05235E+01 3.73422E-01 3.08063E-04 1.27615E+00 1.88118E-13-6.82206E-14
 -1       697 2.04153E+01 3.74826E-01 3.49950E-04 1.07349E+00 3.70753E-13-4.19801E-13
 -1       698 2.03279E+01 3.48178E-01 3.42736E-04 8.84549E-01 7.97207E-14-3.21415E-13
 -1       699 2.02536E+01 3.13752E-01 3.39386E-04 7.14141E-01 2.78829E-13 9.23416E-14
 -1       700 2.01881E+01 2.84437E-01 4.37599E-04 5.62582E-01 2.48134E-13 6.50428E-13
 -1       701 2.01183E+01 2.92392E-01 2.93886E-04 4.64998E-01-1.78560E-13 8.28399E-13
 -1       702 1.96671E+01 6.95623E-01-1.30647E-04 5.44255E-02 2.07471E-13 2.78128E-13
 -1       703 1.01114E+01-6.79071E-01 1.46653E-01 3.66904E+00-5.22023E-13-1.35739E-13
 -1       704 1.97773E+01 6.03779E-01-7.22419E-05 3.60250E-01 6.21966E-14 1.18159E-13
 -1       705 1.96792E+01 6.80878E-01-1.26028E-04-1.14978E-01 6.79760E-14 2.06320E-13
 -1       706 1.97000E+01 6.69499E-01-1.27378E-04 2.20270E-01 8.29510E-14 4.15274E-14
 -1       707 2.00982E+01 2.72264E-01 2.10970E-04-4.26825E-01-1.01385E-13-7.44903E-13
 -1       708 1.97313E+01 6.29820E-01-9.56070E-05-2.64312E-01-1.62098E-14-1.92466E-13
 -1       709 1.98176E+01 5.47485E-01-7.69359E-05-3.81022E-01-2.11498E-13 3.03403E-14
 -1       710 1.99278E+01 4.43430E-01-9.94976E-05-4.48742E-01-3.00317E-14 3.63505E-13
 -1       711 2.01089E+01 3.61677E-01 5.56790E-04 1.40341E-01 1.86546E-13-7.34730E-14
 -1       712 2.09331E+01-5.02085E+00 5.15591E-02 5.10222E+00-2.49797E-13-7.05431E-13
 -1       713 2.02977E+01 1.42797E+00 5.88783E-04-9.69198E-01-2.06898E-13-3.24718E-13
 -1       714 1.14007E+01-1.48205E+00 1.07715E-01 4.85935E+00 2.88783E-13 4.77673E-13
 -1       715 7.66264E+00 2.66495E-02 1.51687E-01-8.43736E-01-5.02809E-13 3.62543E-13
 -1       716 2.33647E+01-4.96793E+00 2.57849E-02 3.86098E+00 1.70683E-13 3.62847E-13
 -1       717 8.19821E+00 1.72843E-01 1.50699E-01 8.90166E-01 3.60593E-13-2.43507E-13
 -1       718 1.99612E+01 5.41027E-02 2.81042E-05-2.09773E-01 6.72954E-14-2.26404E-14
 -1       719 1.99858E+01 1.08266E-01 7.75373E-05-1.45312E-01 1.16850E-13-7.91880E-14
 -1       720 2.02066E+01 6.20206E-01 1.11820E-03 4.16155E-01 2.81203E-13-5.41499E-14
 -1       721 9.01523E+00-5.80278E-01 1.42663E-01-3.16374E+00-7.75612E-14-8.16604E-13
 -1       722 2.00337E+01 2.30261E+00-1.64135E-03 6.35568E-01 2.73841E-13-3.21777E-13
 -1       723 1.00576E+01-1.23173E+00 1.49825E-01-4.48849E+00-4.63553E-14 6.76466E-13
 -1       724 2.71260E+01 4.96599E+00-1.40406E-01 1.61974E+00-1.77643E-13-2.60209E-13
 -1       725 2.00309E+01 2.30532E+00-1.84794E-03-6.22246E-01-5.31180E-14-4.12601E-13
 -1       726 2.52436E+01-4.92510E+00-1.41863E-02-2.40458E+00-5.05403E-13-4.10085E-13
 -1       727 2.71162E+01-3.36606E+00-4.92247E-02-7.67227E-01 5.24880E-14 8.86791E-15
 -1       728 1.99877E+01-4.69049E+00 6.17682E-02-5.28601E+00-4.93310E-13-5.73042E-13
 -1       729 1.82585E+01-3.81542E+00 7.81378E-02 5.58598E+00 2.65264E-13 2.41676E-13
 -1       730 1.37259E+01-2.83655E+00 1.17533E-01-5.74803E+00-2.73653E-13-6.73871E-13
 -1       731 2.80675E+01 4.77696E+00-1.55917E-01-1.80353E+00-4.54609E-13-2.65274E-14
 -1       732 2.79509E+01-1.44273E-01-9.80778E-02-1.65674E+00-1.43035E-13-4.50334E-15
 -1       733 2.65621E+01-4.53428E+00-9.87045E-03 1.44551E+00 9.24278E-14-4.95704E-13
 -1       734 2.82845E+01-1.51217E+00-7.80398E-02-1.80975E+00 1.58717E-13 1.87031E-13
 -1       735 2.01197E+01 2.05964E+00-3.59640E-03-8.36698E-01-1.23178E-13-4.16897E-13
 -1       736 1.99383E+01 2.53529E+00-1.67565E-03-1.27417E-01 9.12766E-14-3.80167E-13
 -1       737 2.77863E+01 1.34035E+00-1.28811E-01-2.77792E+00 3.67047E-13 4.02560E-13
 -1       738 2.71904E+01-1.38297E+00-4.52896E-02 1.36253E+00 3.75117E-14 1.76005E-13
 -1       739 1.44415E+01-2.11568E+00 9.03994E-02-5.23358E+00 2.73503E-13 3.21351E-13
 -1       740 2.66554E+01 1.87886E+00-9.40172E-02-2.41518E+00-1.85102E-13-1.32432E-13
 -1       741 2.68371E+01 1.26012E+00-7.38270E-02-2.67789E+00 2.77767E-13 5.18188E-13
 -1       742 1.32542E+01-1.55902E+00 9.70267E-02 4.67829E+00-5.31259E-13-3.17451E-13
 -1       743 1.99843E+01 4.20776E-01-9.85957E-05 4.75563E-01 2.68984E-14-1.58649E-14
 -1       744 2.54288E+01-4.48369E+00 6.85613E-03-2.20435E+00-3.42443E-14 3.91180E-15
 -1       745 2.00155E+01 3.61713E-01 2.38109E-05-4.93382E-01-1.61653E-13-4.32629E-13
 -1       746 2.59375E+01 5.28058E+00-1.34020E-01 6.24699E-01-4.49120E-13-4.60576E-13
 -1       747 1.98744E+01 5.20510E-01-1.10519E-04 4.38920E-01 1.95014E-13-2.71118E-13
 -1       748 1.99697E+01 2.46110E+00-1.33685E-03-3.81240E-01 6.01201E-15-3.83456E-13
 -1       749 2.68185E+01 2.79627E+00-1.09834E-01 2.22630E+00-1.88190E-13-6.06234E-14
 -1       750 2.02708E+01 1.31630E+00 1.79629E-04 6.27232E-01 2.85932E-13-1.80719E-13
 -1       751 2.07563E+01-4.34255E+00 3.04055E-02-4.69649E+00 2.25273E-13 1.34327E-13
 -1       752 2.02702E+01 4.56834E-01-3.07359E-05-7.82780E-02-1.42530E-13-2.76973E-13
 -1       753 2.02298E+01 2.66829E-01-1.07926E-04 6.21704E-02-1.16340E-13-2.55357E-13
 -1       754 2.01887E+01 1.50299E-01-2.35919E-05 1.53381E-01-7.93333E-14-2.13412E-13
 -1       755 2.01508E+01 8.50187E-02-9.88021E-06 2.12156E-01-2.33225E-14-1.80003E-13
 -1       756 2.01178E+01 5.71594E-02-4.65187E-06 2.51997E-01 4.07836E-14-2.34531E-13
 -1       757 2.00893E+01 5.70697E-02-1.65743E-06 2.83699E-01 2.19648E-14-1.79578E-13
 -1       758 2.00645E+01 7.78414E-02 1.47272E-06 3.15758E-01-3.83979E-14-7.99053E-14
 -1       759 2.00421E+01 1.14246E-01 5.30058E-06 3.54791E-01-7.13698E-14-2.65953E-14
 -1       760 2.00211E+01 1.61835E-01 1.00674E-05 4.05904E-01-8.08954E-14-1.48962E-13
 -1       761 2.00005E+01 2.16057E-01 1.56486E-05 4.72923E-01-1.08762E-13-1.54990E-13
 -1       762 1.99804E+01 2.71330E-01 2.22630E-05 5.58453E-01-8.31842E-14-1.67199E-13
 -1       763 1.99621E+01 3.19981E-01 2.96746E-05 6.63830E-01-1.74997E-13-2.28743E-13
 -1       764 1.99496E+01 3.50945E-01 3.72475E-05 7.88920E-01-2.13321E-13-1.41126E-13
 -1       765 1.99509E+01 3.48313E-01 4.51665E-05 9.31676E-01-2.37433E-13-1.25087E-13
 -1       766 1.99808E+01 2.89977E-01 4.98688E-05 1.08735E+00-7.16265E-14-1.01834E-13
 -1       767 2.00643E+01 1.46937E-01 2.94795E-05 1.24695E+00-4.22112E-14-1.19100E-15
 -1       768 2.02405E+01-1.15324E-01-5.00371E-05 1.39403E+00 4.66460E-14 8.58283E-14
 -1       769 2.05663E+01-5.30295E-01-2.75633E-05 1.49830E+00 2.10964E-13 3.91939E-14
 -1       770 2.11181E+01-1.11346E+00 9.09022E-04 1.50340E+00 3.75808E-14 1.15258E-13
 -1       771 2.19659E+01-1.81282E+00 9.01878E-04 1.30280E+00 4.19331E-14 1.71529E-13
 -1       772 2.31260E+01-2.42362E+00 4.20580E-03 7.57976E-01 2.14620E-13 5.06716E-14
 -1       773 2.44431E+01-2.51580E+00-4.14620E-03-2.59727E-01 1.72939E-14-8.52784E-14
 -1       774 2.54906E+01-1.43167E+00-2.36777E-02-1.54881E+00-2.39453E-14-1.09436E-13
 -1       775 2.49648E+01-2.06799E+00-1.33486E-02 9.56267E-01 1.82494E-13-1.01916E-13
 -1       776 2.37637E+01-2.51382E+00-2.94473E-03-2.37531E-01 3.08091E-13-1.34619E-13
 -1       777 2.25304E+01-2.11196E+00 6.63300E-04-1.02773E+00 5.86943E-14 3.21676E-14
 -1       778 2.15464E+01-1.43710E+00 3.69392E-05-1.39840E+00 2.68539E-14-1.01136E-13
 -1       779 2.08657E+01-7.99064E-01-2.02808E-04-1.49805E+00 2.93338E-14-1.42556E-13
 -1       780 2.04391E+01-3.07850E-01-1.12386E-04-1.45006E+00 8.07131E-14-2.42838E-13
 -1       781 2.01939E+01 2.53691E-02 1.13059E-05-1.32955E+00 1.21340E-13-1.00916E-13
 -1       782 2.00662E+01 2.27233E-01 6.20337E-05-1.17854E+00 2.33973E-13 2.84273E-14
 -1       783 2.00090E+01 3.33378E-01 6.99006E-05-1.01952E+00 1.69019E-14 5.09284E-15
 -1       784 1.99908E+01 3.76858E-01 3.70732E-05-8.64406E-01-1.31860E-13-1.45772E-13
 -1       785 1.99925E+01 3.84796E-01 7.14402E-05-7.19007E-01-2.18337E-13-2.09601E-13
 -1       786 2.00075E+01 3.73799E-01 1.20244E-04-6.01487E-01-2.07231E-13-9.46969E-14
 -1       787 2.25682E+01-3.98971E+00 2.06467E-02-3.22755E+00-4.00121E-13-4.21716E-13
 -1       788 2.00793E+01 4.86315E-02-1.38268E-06-2.56073E-01 7.08068E-14-1.34271E-13
 -1       789 2.00413E+01 1.02835E-01 1.38963E-05-3.57232E-01 6.64668E-14 4.61202E-15
 -1       790 2.00343E+01 1.52788E-01 2.38667E-05-4.09180E-01 1.90346E-15 1.98154E-14
 -1       791 2.00266E+01 2.14691E-01 3.62851E-05-4.79275E-01 7.51439E-14 1.35897E-13
 -1       792 2.00158E+01 2.86352E-01 5.13383E-05-5.71446E-01 2.96979E-14 4.82377E-14
 -1       793 1.99995E+01 3.64460E-01 6.99968E-05-6.88742E-01-1.95129E-14 4.24197E-14
 -1       794 1.99756E+01 4.43253E-01 9.21009E-05-8.33281E-01 9.60703E-15 1.04497E-13
 -1       795 1.99433E+01 5.12451E-01 1.17110E-04-1.00616E+00-3.10149E-15 1.39772E-14
 -1       796 1.99057E+01 5.54290E-01 1.42699E-04-1.20732E+00-2.15950E-14-1.01404E-13
 -1       797 1.98740E+01 5.39503E-01 1.60037E-04-1.43543E+00 3.10455E-14-9.56794E-14
 -1       798 1.98750E+01 4.22522E-01 1.29695E-04-1.68742E+00-4.49303E-14-7.76321E-14
 -1       799 1.99632E+01 1.37219E-01-1.57911E-05-1.95619E+00-3.42539E-14-7.00784E-14
 -1       800 2.02386E+01-4.01848E-01-8.79352E-04-2.21984E+00-1.51241E-13-1.07619E-13
 -1       801 2.08643E+01-1.28009E+00-6.68581E-04-2.42732E+00-9.60949E-14-2.25129E-13
 -1       802 2.21275E+01-2.49903E+00 1.29654E-02-2.40850E+00-3.57612E-13-7.49982E-14
 -1       803 2.07808E+01-1.17405E+00 4.13554E-04 2.41860E+00 1.14176E-13-2.74556E-13
 -1       804 2.02007E+01-3.38611E-01 2.77535E-04 2.21307E+00-1.55394E-13-4.91043E-14
 -1       805 1.99505E+01 1.71909E-01 1.82563E-04 1.94857E+00-1.53179E-13 7.04093E-14
 -1       806 1.98770E+01 4.38563E-01 1.26405E-04 1.68135E+00-2.38384E-13-1.36016E-13
 -1       807 1.98837E+01 5.46821E-01 1.11232E-04 1.43112E+00 6.82290E-14 5.44461E-14
 -1       808 1.99190E+01 5.62460E-01 1.13199E-04 1.20297E+00 3.81263E-13 9.53366E-14
 -1       809 1.99581E+01 5.30314E-01 1.06255E-04 9.98316E-01 1.05449E-13 2.62042E-13
 -1       810 1.99904E+01 4.79834E-01 1.26357E-04 8.16893E-01 1.24678E-13 1.11566E-13
 -1       811 2.00112E+01 4.30048E-01 8.21491E-05 6.57420E-01-1.14708E-13 9.95131E-14
 -1       812 1.99928E+01 4.23320E-01-1.63014E-04 5.62603E-01-1.33183E-13 2.49356E-13
 -1       813 2.63767E+01-2.07022E+00-3.30702E-02-1.14666E+00-1.29259E-13 2.40814E-14
 -1       814 1.78365E+01-3.21003E+00 5.27519E-02 5.05622E+00-2.92823E-13-3.02489E-13
 -1       815 1.95016E+01 7.42606E-01-4.96229E-05-4.71727E-02 1.14011E-13-3.16002E-15
 -1       816 1.09350E+01 6.55336E-01 8.33159E-02 1.06522E+00-6.98765E-13 2.38955E-13
 -1       817 2.01042E+01 7.60937E-02 3.47509E-07-2.15482E-01 6.11343E-14-1.33413E-13
 -1       818 1.09387E+01 1.71390E-01 8.76095E-02-2.49429E+00-4.96881E-13 3.80487E-13
 -1       819 1.98032E+01 5.15395E-01-1.37044E-04-5.16835E-01-1.41087E-13 3.83627E-13
 -1       820 2.02284E+01 4.30827E-01-2.60697E-05 9.67489E-02 1.62072E-13-1.22379E-13
 -1       821 1.96569E+01 6.21492E-01-3.77159E-05-4.05520E-01-1.90504E-13-1.04272E-13
 -1       822 2.19083E+01-2.34779E+00 8.76124E-03 2.44801E+00 1.93624E-13-1.91462E-13
 -1       823 2.38793E+01-3.60379E+00 2.70122E-02 1.91697E+00 1.74309E-14-3.27459E-13
 -1       824 2.70202E+01 4.72417E+00-2.00986E-01-3.42596E-01 2.87485E-13 2.94506E-13
 -1       825 2.00498E+01 6.68662E-02 6.05073E-06-3.18596E-01 1.03165E-13 6.32883E-16
 -1       826 2.47348E+01-3.93422E+00-1.14396E-02 1.43963E+00 6.28555E-14 4.09091E-14
 -1       827 2.00618E+01 4.75076E-02 9.33918E-07-2.87337E-01 7.93351E-14-1.26623E-13
 -1       828 2.02999E+01 1.13264E+00 4.08620E-04-4.19277E-01-9.33361E-14-3.18388E-13
 -1       829 2.01801E+01 2.50034E-01 2.87720E-05-5.57632E-02 1.07162E-13-1.43359E-13
 -1       830 2.03124E+01 7.41799E-01 1.65081E-04-2.40589E-01-9.93889E-14-2.89168E-13
 -1       831 1.03675E+01-6.49141E-01 1.12056E-01 3.65436E+00 3.08602E-13 2.67859E-13
 -1       832 1.56379E+01-1.73849E+00 4.29790E-02 4.59036E+00 1.29599E-13 2.17642E-13
 -1       833 1.07973E+01 5.89370E-01 7.90180E-02-1.26637E+00 1.90747E-13-2.39142E-13
 -1       834 2.17093E+01-3.79853E+00 2.19705E-02 3.53116E+00-7.69883E-14 7.55784E-14
 -1       835 2.01377E+01 1.38739E-01 4.25597E-06-1.53717E-01 6.60821E-14-1.33679E-13
 -1       836 2.02817E+01 9.50041E-01 6.70587E-05 5.48718E-01 2.78471E-13-9.33614E-14
 -1       837 2.59376E+01 4.99008E+00-1.19850E-01-1.08764E+00-3.60378E-13-4.14672E-13
 -1       838 2.66023E+01-3.00173E+00-1.69764E-02-7.10352E-01 7.03079E-14 1.25486E-13
 -1       839 2.36890E+01-4.34377E+00 2.01395E-02 2.83913E+00 5.77229E-14-3.56002E-13
 -1       840 1.78402E+01-2.83138E+00 4.85783E-02-4.77450E+00-2.70430E-13-6.20243E-13
 -1       841 2.01492E+01 1.90404E+00-3.68428E-04 1.97014E-01 1.60159E-13-3.41299E-13
 -1       842 1.95524E+01 7.00218E-01-2.89853E-05-2.43231E-01-6.82085E-14-2.18219E-13
 -1       843 1.11207E+01 4.86229E-01 7.43993E-02 1.78649E+00 4.79470E-13-6.27241E-14
 -1       844 1.33751E+01-9.31144E-01 7.36019E-02-4.11201E+00-2.25772E-13-4.75227E-13
 -1       845 2.01391E+01 1.93956E+00-3.96616E-04 3.42276E-03 1.05585E-13-3.38573E-13
 -1       846 1.81782E+01-2.81385E+00 4.47367E-02-4.68931E+00 2.36401E-13 2.10621E-13
 -1       847 2.60278E+01-3.17794E+00-2.11658E-02-4.49493E-02-1.28621E-14 7.97851E-14
 -1       848 2.02838E+01 1.34352E+00 1.50118E-04-3.36755E-01-5.06397E-14-3.43533E-13
 -1       849 2.61142E+01 3.99433E-01-6.36851E-02 2.16563E+00-1.68700E-13 1.03738E-13
 -1       850 1.37199E+01-5.55772E-01 5.30173E-02-3.70951E+00-1.85520E-13 1.21670E-13
 -1       851 2.54881E+01-1.94244E-01-4.58825E-02 2.07609E+00-5.98566E-14 1.92331E-13
 -1       852 2.01808E+01 1.78967E+00-2.78116E-04 3.77328E-01 2.25032E-13-3.07518E-13
 -1       853 2.02640E+01 1.48585E+00-2.03789E-04-2.16916E-01 2.04610E-14-2.91918E-13
 -1       854 1.95144E+01 7.41549E-01-5.42172E-05 1.61318E-01 8.36585E-14 3.31529E-13
 -1       855 1.23352E+01 2.07270E-01 5.34233E-02 2.51187E+00-4.99507E-13-1.18065E-14
 -1       856 2.02303E+01 1.59280E+00 9.50081E-05 5.30555E-01 2.58001E-13-2.46034E-13
 -1       857 1.95946E+01 6.94072E-01-4.53183E-05 3.54297E-01 2.91536E-14 2.36821E-13
 -1       858 1.34640E+01-7.68500E-01 7.66318E-02 4.03568E+00 2.51484E-13 3.70292E-13
 -1       859 1.92115E+01-2.51322E+00 1.88795E-02 3.95123E+00-1.51537E-14-4.08350E-14
 -1       860 1.97145E+01 6.18275E-01 1.75870E-04 4.79322E-01-8.02396E-15-3.53085E-13
 -1       861 2.02552E+01 6.49094E-01 1.53658E-04 2.86882E-01 2.41432E-13-1.00628E-13
 -1       862 1.98999E+01 4.46631E-01 3.47638E-04-5.70156E-01-4.29800E-13 1.86847E-13
 -1       863 2.03406E+01 9.33547E-01-4.72844E-05-2.17817E-01-6.72451E-14-3.14754E-13
 -1       864 2.03063E+01 2.78294E-01-6.24905E-05 7.84336E-02-1.71727E-14-1.45864E-13
 -1       865 2.02647E+01 1.63066E-01-1.36067E-05 1.49410E-01-2.92812E-14-9.84133E-14
 -1       866 2.02173E+01 1.02119E-01-6.24115E-06 1.97648E-01-2.68276E-14-1.16736E-13
 -1       867 2.01671E+01 8.21369E-02-2.84257E-06 2.33418E-01 4.45343E-14-1.58502E-13
 -1       868 2.01153E+01 9.32497E-02-2.11592E-06 2.65234E-01 1.12863E-15-1.65670E-13
 -1       869 2.00613E+01 1.28040E-01-2.65595E-06 2.99996E-01-4.77497E-14-1.89789E-13
 -1       870 2.00040E+01 1.80611E-01-2.17921E-06 3.43286E-01-7.10676E-14-1.57740E-13
 -1       871 1.99418E+01 2.45626E-01-8.24365E-07 3.99650E-01-9.38803E-14-1.84141E-13
 -1       872 1.98730E+01 3.17286E-01 2.10920E-07 4.72833E-01-8.35104E-14-1.36820E-13
 -1       873 1.97970E+01 3.88337E-01 1.48119E-06 5.65929E-01-1.71813E-13-1.92009E-13
 -1       874 1.97146E+01 4.48866E-01 2.97234E-06 6.81702E-01-1.48830E-13-2.92449E-13
 -1       875 1.96299E+01 4.84713E-01 9.39480E-06 8.22779E-01-1.52762E-13-1.66982E-13
 -1       876 1.95519E+01 4.75881E-01 2.25538E-05 9.91807E-01-6.89122E-14 4.14375E-14
 -1       877 1.94986E+01 3.94854E-01 4.23595E-05 1.19147E+00 4.24120E-15 1.73118E-13
 -1       878 1.95013E+01 2.05133E-01 4.54999E-06 1.42342E+00 9.28510E-14 8.28243E-14
 -1       879 1.96124E+01-1.38794E-01-2.25081E-04 1.68446E+00 1.74010E-13 1.84011E-13
 -1       880 1.99155E+01-6.85723E-01 4.97975E-04 1.95406E+00 2.05535E-13 2.02685E-13
 -1       881 2.05287E+01-1.48046E+00-8.69164E-04 2.19276E+00 5.62927E-14 2.71563E-13
 -1       882 2.16580E+01-2.50168E+00 2.89307E-04 2.24840E+00 6.06217E-14 2.97614E-13
 -1       883 2.24841E+01-2.93415E+00 9.75513E-03-1.99763E+00 3.35260E-13-1.97412E-15
 -1       884 2.11148E+01-1.94736E+00 5.52775E-03-2.17589E+00 4.87755E-15 2.38793E-13
 -1       885 2.02737E+01-1.06360E+00 7.39463E-04-2.05074E+00-1.02790E-13 7.46837E-14
 -1       886 1.98209E+01-4.02632E-01-1.28817E-04-1.81417E+00-1.39424E-13-6.90542E-14
 -1       887 1.96183E+01 3.83632E-02-1.67773E-05-1.55748E+00 8.32242E-14-9.58959E-14
 -1       888 1.95626E+01 3.04932E-01 5.97021E-05-1.31758E+00 1.43864E-13-2.88403E-13
 -1       889 1.95872E+01 4.46155E-01 5.49125E-05-1.10423E+00 2.71848E-13-2.43917E-13
 -1       890 1.96507E+01 5.04115E-01 6.63280E-05-9.17942E-01-4.31676E-14-1.57100E-13
 -1       891 1.97278E+01 5.12975E-01 3.96587E-05-7.56506E-01-2.63169E-13-5.61961E-14
 -1       892 2.00168E+01 1.70310E-01 4.19870E-06-3.56498E-01 3.53235E-14 9.63156E-14
 -1       893 1.98222E+01 4.22099E-01 1.04873E-05-5.81131E-01-2.26641E-14-1.32607E-14
 -1       894 1.97237E+01 5.24047E-01 1.91101E-05-6.98477E-01-3.72567E-14-6.08083E-14
 -1       895 1.95998E+01 6.23979E-01 3.19674E-05-8.41422E-01 4.06594E-14-3.80507E-15
 -1       896 1.94467E+01 7.08409E-01 4.88594E-05-1.01317E+00 2.22402E-14-4.48346E-14
 -1       897 1.92641E+01 7.55334E-01 7.74549E-05-1.21914E+00 4.67620E-14-2.22048E-15
 -1       898 1.90598E+01 7.29955E-01 1.18639E-04-1.46935E+00 1.00248E-13-8.51253E-14
 -1       899 1.88580E+01 5.79398E-01 2.23204E-04-1.78160E+00 6.05312E-14-2.28073E-13
 -1       900 1.87101E+01 2.26613E-01-4.47207E-05-2.18709E+00 8.84205E-15-3.32454E-13
 -1       901 1.87571E+01-4.47976E-01-2.01611E-03-2.69845E+00-1.32164E-13-4.81147E-13
 -1       902 1.91479E+01-1.55459E+00 1.77162E-02-3.35062E+00-2.13937E-13-3.91648E-13
 -1       903 2.01916E+01 9.54098E-02-1.26685E-06-2.07771E-01 7.91084E-14-1.56793E-13
 -1       904 1.88936E+01 5.99031E-01 1.51549E-04 1.76375E+00-9.40104E-14 3.32865E-14
 -1       905 1.87329E+01 2.68931E-01 5.14711E-04 2.15642E+00-2.60760E-13-2.59341E-15
 -1       906 1.87390E+01-3.71225E-01-1.91338E-03 2.67684E+00-2.18232E-13 7.74120E-15
 -1       907 1.91023E+01 7.36621E-01-9.13312E-05 1.45897E+00-1.64731E-13-2.16538E-13
 -1       908 1.93085E+01 7.60927E-01-2.84835E-05 1.21315E+00-6.43874E-15-1.71670E-13
 -1       909 1.94911E+01 7.22687E-01 1.39740E-05 1.00718E+00 1.84082E-13 2.33924E-13
 -1       910 1.96430E+01 6.56632E-01 1.15935E-04 8.31550E-01 7.04198E-14 1.45782E-13
 -1       911 1.97617E+01 5.86878E-01 3.67803E-04 6.79986E-01-4.67406E-15 1.56578E-13
 -1       912 2.02033E+01 1.72773E+00 2.67039E-04-1.26475E-01 6.25508E-14-3.05675E-13
 -1       913 2.30781E+01-3.23262E+00 1.22146E-02 1.83972E+00-2.95501E-14 5.05504E-14
 -1       914 1.62591E+01-1.38488E+00 4.43832E-02 4.16243E+00-6.01741E-14 9.25501E-14
 -1       915 2.41975E+01-3.95990E+00-3.21726E-03-1.85379E+00 8.64152E-14 7.29684E-14
 -1       916 2.03077E+01 4.58783E-01-1.34957E-05 4.44062E-02 1.58056E-13-1.55403E-13
 -1       917 2.00633E+01 1.16445E-01 4.78116E-07-3.13254E-01 6.93311E-14 2.48795E-15
 -1       918 1.37181E+01 3.11558E-01 3.72161E-02-2.52258E+00 2.90943E-14-3.54273E-13
 -1       919 1.96190E+01 6.00073E-01-2.47377E-04-5.69087E-01-4.91156E-15 5.25402E-14
 -1       920 1.91374E+01-1.46302E+00 6.84511E-03 3.31677E+00-7.33445E-14-1.24535E-13
 -1       921 1.99005E+01 3.26165E-01 6.31760E-06-4.86854E-01 9.08103E-14 4.60958E-14
 -1       922 1.99638E+01 2.41133E-01 5.28823E-06-4.13047E-01-1.55762E-14 5.92594E-14
 -1       923 1.55342E+01-5.66882E-01 2.40562E-02 3.47369E+00 2.69803E-13 4.27991E-14
 -1       924 2.02343E+01 1.57306E-01 3.00212E-06-1.54678E-01 6.25836E-14-1.56431E-13
 -1       925 1.35416E+01 5.31686E-01 2.88055E-02 2.11931E+00 3.35163E-13 8.11113E-14
 -1       926 1.26760E+01 8.66215E-01 3.45325E-02-8.86128E-01-3.63883E-13 2.58352E-14
 -1       927 1.25197E+01 9.88392E-01 3.50183E-02 3.38916E-02 3.19170E-13 9.16290E-14
 -1       928 2.02750E+01 2.72355E-01 2.82253E-05-7.50061E-02 9.36239E-14-1.80766E-13
 -1       929 2.03353E+01 4.68128E-01-7.52347E-05-2.72448E-02-8.61009E-14-2.14864E-13
 -1       930 1.98529E+01 5.25634E-01 7.03062E-05 5.42897E-01 7.71976E-14 4.75271E-14
 -1       931 1.64047E+01-6.81508E-01 3.56494E-02-3.48604E+00-1.01513E-13-5.14554E-13
 -1       932 1.65965E+01-1.34518E+00 2.63297E-02-3.95203E+00 4.49033E-15-8.70181E-14
 -1       933 2.03048E+01 9.16504E-01-2.16328E-04 3.69083E-01 2.40927E-13-1.74835E-13
 -1       934 1.40460E+01 5.14993E-01 2.18104E-02-2.07987E+00-1.77693E-13-4.03601E-14
 -1       935 2.02940E+01 1.35812E+00-9.83485E-05 1.90278E-01 1.49801E-13-2.92344E-13
 -1       936 1.98249E+01 4.80024E-01 2.33009E-04-6.59170E-01-1.38342E-13 2.51286E-14
 -1       937 1.94394E+01 7.12950E-01 1.08523E-04-4.07080E-01-2.15711E-13-2.44253E-13
 -1       938 1.92960E+01 8.20112E-01-4.53572E-06 5.54488E-02 5.87818E-14 1.59487E-13
 -1       939 1.93573E+01 7.97689E-01 3.25597E-05 3.04666E-01 1.56094E-13 1.80631E-13
 -1       940 2.01016E+01-2.56695E+00 1.75853E-02 3.63719E+00 9.05597E-14-3.46920E-13
 -1       941 2.03210E+01 7.43596E-01-5.98548E-04 2.18672E-01 2.02314E-13-1.72864E-13
 -1       942 2.01066E+01 8.27479E-02-1.19769E-06-2.78411E-01 1.45795E-14-1.74431E-14
 -1       943 2.03507E+01 6.72586E-01-1.50987E-04-1.18790E-01-8.89378E-14-2.53082E-13
 -1       944 2.03458E+01 1.07285E+00-5.18925E-05-1.58507E-01 4.25521E-14-2.63269E-13
 -1       945 2.01490E+01 7.36179E-02-1.81685E-06-2.45815E-01 3.40349E-14-9.61343E-14
 -1       946 2.02827E+01 1.43159E+00 4.06900E-04 6.82678E-02 1.20400E-13-3.25499E-13
 -1       947 1.94871E+01 7.33258E-01-1.63112E-04 4.86522E-01 2.16397E-13 1.13356E-13
 -1       948 1.28064E+01 9.70137E-01 3.45810E-02 4.87996E-01-4.08760E-13 3.32138E-13
 -1       949 2.10344E+01-3.20127E+00 1.47696E-02-3.42262E+00 3.87250E-13 1.58328E-14
 -1       950 1.93281E+01 7.88542E-01-9.91538E-05-1.91421E-01-9.71962E-14-2.23489E-13
 -1       951 1.91745E+01 8.03252E-01-1.98705E-05-7.46069E-01 1.52807E-14-2.10783E-13
 -1       952 2.03026E+01 1.65716E-01-5.42539E-06 1.31301E-01-2.22203E-14-3.00026E-14
 -1       953 2.02433E+01 1.16865E-01-2.24701E-06 1.66768E-01 1.60729E-14 1.87266E-15
 -1       954 2.01758E+01 1.10327E-01-1.39597E-06 1.95698E-01 9.52535E-15-2.12855E-14
 -1       955 2.01013E+01 1.36370E-01-8.03109E-06 2.24226E-01-6.19448E-15-2.39527E-14
 -1       956 2.00191E+01 1.87547E-01-1.16763E-05 2.57521E-01-8.54849E-14-4.27611E-14
 -1       957 1.99276E+01 2.57608E-01-1.18283E-05 3.00050E-01-8.84991E-14-8.42779E-14
 -1       958 1.98240E+01 3.40709E-01-9.03333E-06 3.55809E-01-5.95961E-14-3.92919E-14
 -1       959 1.97060E+01 4.30004E-01-2.07075E-05 4.28588E-01-1.35494E-13-6.47385E-14
 -1       960 1.95711E+01 5.17345E-01-3.73188E-05 5.22331E-01-2.10250E-13-1.36649E-14
 -1       961 1.94186E+01 5.91336E-01-4.90929E-05 6.42034E-01-8.09788E-14-2.19233E-15
 -1       962 1.92504E+01 6.36012E-01-5.84465E-05 7.94117E-01 1.12693E-13 2.16640E-14
 -1       963 1.90729E+01 6.29423E-01-6.08576E-05 9.87763E-01 5.30012E-14 2.26900E-13
 -1       964 1.89006E+01 5.41307E-01-4.53636E-05 1.23631E+00-2.56915E-14 2.40324E-13
 -1       965 1.87623E+01 3.30208E-01-3.11285E-04 1.55784E+00 1.49240E-13 1.35364E-13
 -1       966 1.87120E+01-6.11545E-02-2.07591E-03 1.97086E+00 1.77373E-13 6.80995E-14
 -1       967 1.88835E+01-7.10298E-01 6.30399E-03 2.48998E+00 2.55019E-13 4.88624E-14
 -1       968 2.03110E+01 1.21988E+00 5.54347E-05 2.95869E-01 1.79537E-13-2.55700E-13
 -1       969 1.91853E+01-1.18515E+00 2.64274E-03-2.75600E+00-8.38020E-14-1.47722E-13
 -1       970 1.88691E+01-3.80834E-01-1.00333E-03-2.21390E+00-1.09369E-13-1.80112E-13
 -1       971 1.88235E+01 1.32353E-01-2.93634E-04-1.76234E+00 6.61639E-14-1.10087E-13
 -1       972 1.89139E+01 4.33592E-01 2.40190E-05-1.40527E+00-5.31431E-14 1.73722E-14
 -1       973 1.90652E+01 5.89961E-01 3.81094E-05-1.12570E+00 1.10013E-13 8.31049E-14
 -1       974 1.92373E+01 6.50125E-01 1.47053E-04-9.05834E-01 1.49840E-13-1.86607E-13
 -1       975 1.94013E+01 6.54758E-01 7.48497E-05-7.30101E-01-6.25917E-14-4.80248E-14
 -1       976 1.95839E+01 5.63985E-01-1.35931E-05-5.22391E-01 3.99323E-14-7.61721E-14
 -1       977 1.88928E+01 9.01254E-01-2.60236E-05-8.95108E-01-5.68379E-15-1.59043E-13
 -1       978 1.85462E+01 9.57964E-01-1.00286E-05-1.08211E+00 1.17698E-13-1.66384E-13
 -1       979 1.81268E+01 9.40176E-01 1.04148E-04-1.32907E+00 1.34482E-13-1.41657E-13
 -1       980 1.76293E+01 7.98540E-01 7.28496E-05-1.67907E+00 3.95103E-14-8.33534E-14
 -1       981 1.71076E+01 4.73619E-01 2.65766E-03-2.20909E+00 9.11620E-14-1.44963E-13
 -1       982 1.82043E+01 9.42960E-01-6.56553E-04 1.31200E+00-1.11612E-13 1.71233E-13
 -1       983 1.71760E+01 4.88600E-01 1.78676E-03 2.15204E+00-2.24474E-13 1.64909E-13
 -1       984 1.89635E+01 9.09749E-01-2.90613E-05 8.91228E-01-1.54191E-13 1.96573E-13
 -1       985 1.92420E+01 8.28959E-01 5.07323E-05 7.40504E-01 1.92759E-13 9.59988E-14
 -1       986 1.90695E+01 9.03420E-01-1.89415E-04 1.98685E-01 9.37854E-14 3.09126E-13
 -1       987 1.82129E+01-1.08296E+00 3.80077E-03 3.15193E+00 1.20974E-13-1.03086E-13
 -1       988 2.03628E+01 7.26863E-01 8.40142E-04 1.22903E-01 1.47616E-13-2.12686E-13
 -1       989 1.53690E+01 9.89425E-02 2.18062E-02 2.86025E+00-2.63449E-13 1.01801E-13
 -1       990 2.02343E+01 1.12075E-01 4.53559E-06-1.84122E-01 3.61685E-14-1.23840E-13
 -1       991 1.94016E+01 6.85996E-01-1.13587E-05-6.23645E-01 1.04667E-14-2.02102E-13
 -1       992 1.97306E+01 4.46715E-01-9.73486E-06-4.39404E-01 6.93941E-14 5.52308E-14
 -1       993 2.02886E+01 1.64802E-01 1.83636E-05-1.43212E-01 4.99088E-14-1.43720E-13
 -1       994 2.00331E+01 1.75899E-01 1.39186E-06-2.78847E-01-1.65923E-15-3.70498E-14
 -1       995 2.03788E+01 4.46129E-01-7.31482E-06 1.08435E-02 1.25286E-14-3.96240E-14
 -1       996 1.56439E+01 3.38902E-01 4.27027E-03 2.32927E+00 9.94365E-14 4.23001E-14
 -1       997 2.03329E+01 2.72477E-01-3.27277E-05-8.49857E-02 5.31193E-14-1.32698E-13
 -1       998 1.77087E+01 8.15102E-01-7.94223E-04 1.65180E+00-1.05626E-13 9.77027E-14
 -1       999 1.44862E+01 9.83435E-01 6.67239E-03-1.19065E+00 2.26127E-13 3.97902E-15
 -1      1000 2.03629E+01 4.47178E-01-6.00252E-04 2.16317E-03 1.37206E-13-1.40421E-13
 -1      1001 1.41842E+01 1.03863E+00 9.09702E-03 7.93816E-01 2.14555E-13 1.93699E-14
 -1      1002 1.98402E+01-2.10510E+00 5.58555E-03-3.17842E+00 2.83755E-13-4.95578E-14
 -1      1003 2.03501E+01 2.69423E-01-3.14330E-05 8.19918E-02-5.97777E-15-5.50371E-14
 -1      1004 1.86202E+01 9.58507E-01-3.23291E-04 1.07538E+00-5.00699E-14 2.19799E-13
 -1      1005 1.43429E+01 1.11101E+00 1.32641E-02-3.22899E-01-5.28709E-14-1.46402E-13
 -1      1006 1.91950E+01 8.57666E-01 4.74786E-04 4.41088E-01 1.82620E-13-1.35169E-13
 -1      1007 1.58738E+01-8.37287E-02 9.05278E-03-2.79897E+00-4.02927E-13 4.66244E-14
 -1      1008 2.01736E+01 1.01957E-01-3.57648E-06-2.15950E-01-2.07367E-14-1.20675E-13
 -1      1009 1.94631E+01 7.37631E-01-8.80376E-04 6.13005E-01 3.01072E-13-8.73696E-14
 -1      1010 2.03881E+01 6.29733E-01-1.19885E-05-4.91421E-02 3.79426E-14-1.44098E-13
 -1      1011 2.01070E+01 1.25392E-01-5.78678E-06-2.45642E-01 1.88950E-14-1.03531E-13
 -1      1012 2.03217E+01 1.27986E+00 1.23732E-04-2.75386E-02 8.48513E-14-2.72550E-13
 -1      1013 2.03774E+01 8.30541E-01 5.92951E-05-1.04119E-01 3.39549E-14-1.95587E-13
 -1      1014 1.99489E+01 2.48682E-01 6.86070E-06-3.20062E-01 5.75790E-14-1.11278E-14
 -1      1015 1.98500E+01 3.40083E-01-6.83984E-06-3.72657E-01 1.66196E-14-4.13421E-14
 -1      1016 2.03886E+01 8.30532E-01-2.92017E-04 8.73946E-02 1.15821E-13-2.43162E-13
 -1      1017 2.03953E+01 9.03947E-01 8.30845E-04 4.05868E-02 9.75179E-14-2.96133E-13
 -1      1018 1.90602E+01 8.88711E-01-1.76103E-04-1.03825E-01 1.69710E-13-2.54099E-13
 -1      1019 1.83979E+01-1.83602E+00 1.16003E-02-3.69368E+00 2.28799E-13 2.37774E-14
 -1      1020 2.03348E+01 1.19338E+00 7.85756E-05-1.02363E-01 6.55307E-14-2.55932E-13
 -1      1021 1.56344E+01 7.71192E-01 2.94770E-03-1.58188E+00-2.08368E-13 1.52585E-13
 -1      1022 2.03093E+01 1.61303E-01-4.53176E-05 9.59426E-02-1.66368E-14-1.45893E-13
 -1      1023 1.83368E+01 1.06637E+00-2.53321E-04-6.30392E-01 3.32181E-14-1.11861E-13
 -1      1024 1.74803E+01 6.42125E-02 5.06472E-03 2.27195E+00 1.56022E-13-1.59050E-14
 -1      1025 2.02369E+01 1.30509E-01 7.14968E-06 1.18029E-01 9.74832E-16-1.48815E-13
 -1      1026 2.01527E+01 1.41156E-01-3.25228E-07 1.38076E-01 4.91338E-15-1.11944E-13
 -1      1027 2.00573E+01 1.84102E-01-4.25381E-05 1.59901E-01 2.35754E-15-7.05185E-14
 -1      1028 1.99490E+01 2.52666E-01-5.79443E-05 1.87261E-01-6.95668E-14 4.37386E-14
 -1      1029 1.98257E+01 3.40131E-01-3.37187E-05 2.23173E-01-1.19973E-13-5.85342E-16
 -1      1030 1.96825E+01 4.41246E-01 1.74535E-06 2.71390E-01-8.19290E-14-3.86685E-14
 -1      1031 1.95161E+01 5.47417E-01-8.41131E-05 3.35133E-01-1.07724E-13-4.81468E-14
 -1      1032 1.93205E+01 6.52022E-01-1.42700E-04 4.20284E-01-1.10853E-13 1.34693E-13
 -1      1033 1.90924E+01 7.42044E-01-1.65065E-04 5.33245E-01 2.63371E-14 2.43322E-13
 -1      1034 1.88274E+01 8.02300E-01-2.06789E-04 6.84075E-01 1.04117E-13 1.53142E-13
 -1      1035 1.85231E+01 8.11973E-01-2.20234E-04 8.88302E-01 5.22746E-14 5.86076E-14
 -1      1036 1.81780E+01 7.43270E-01-2.58638E-04 1.17106E+00 1.05249E-13 1.66338E-13
 -1      1037 1.78084E+01 5.54893E-01-1.28326E-03 1.57499E+00 6.26730E-14 7.67669E-14
 -1      1038 1.74211E+01-1.55806E-01 3.46056E-03-2.51976E+00-1.58369E-13-4.39017E-13
 -1      1039 2.04020E+01 4.00267E-01-2.38568E-05 2.72618E-02 1.47029E-14-1.54201E-13
 -1      1040 1.77408E+01 3.52942E-01-1.33352E-03-1.85633E+00 6.31215E-14-2.29101E-13
 -1      1041 1.80957E+01 6.35074E-01-3.01375E-04-1.38063E+00 1.28687E-13-2.35265E-13
 -1      1042 1.84439E+01 7.73976E-01-3.19918E-06-1.04656E+00 2.05037E-13-6.56248E-14
 -1      1043 1.87612E+01 8.17100E-01 1.35387E-04-8.04733E-01 9.14389E-17-1.49042E-13
 -1      1044 1.90364E+01 8.01858E-01-5.12621E-04-6.27387E-01-3.06446E-15-9.90632E-14
 -1      1045 1.78161E+01 1.13593E+00-3.95040E-04-7.55406E-01 7.69064E-14 8.19340E-14
 -1      1046 1.87456E+01 9.59056E-01-1.78684E-04-5.34971E-01-1.34991E-14-9.98507E-14
 -1      1047 1.71486E+01 1.13781E+00-5.15745E-04-9.35512E-01 6.41892E-14 6.94093E-14
 -1      1048 1.62812E+01 1.05211E+00 2.23961E-03-1.21056E+00 1.14999E-13-8.62097E-14
 -1      1049 1.90704E+01 8.31359E-01-1.20137E-04-4.56279E-01 5.58273E-14 2.51310E-14
 -1      1050 1.88298E+01 9.78147E-01 1.51416E-04 5.33190E-01 2.02150E-13-7.47450E-14
 -1      1051 2.03667E+01 2.45536E-01-4.83775E-05 6.72034E-02-1.36068E-14-1.29575E-13
 -1      1052 1.63588E+01 1.08164E+00 1.80364E-03 1.17485E+00-1.14045E-13 1.39759E-13
 -1      1053 1.95405E+01 5.63212E-01-6.97449E-05-3.32428E-01 8.09434E-14-7.73669E-14
 -1      1054 2.03083E+01 1.63666E-01-1.51339E-05-1.15191E-01 6.49113E-14-2.10431E-13
 -1      1055 1.93305E+01 6.96214E-01-7.16491E-05-3.89323E-01 7.37530E-14-2.23102E-15
 -1      1056 1.91607E+01 8.18127E-01 2.60318E-04-3.84892E-01-4.48571E-14-5.29178E-13
 -1      1057 1.72917E+01 1.13463E+00 8.32528E-03 9.28710E-01-9.39930E-14 1.48364E-13
 -1      1058 1.57639E+01 9.61762E-01-1.86359E-03 1.18330E+00 9.86268E-14-5.89802E-15
 -1      1059 1.53092E+01 1.20233E+00 4.28709E-03-1.92275E-01 1.43597E-13 7.39985E-14
 -1      1060 2.03624E+01 2.52715E-01-2.96156E-04-7.70794E-02 6.15113E-14-2.10909E-13
 -1      1061 2.04146E+01 5.52519E-01-5.57869E-04-8.24023E-03 7.69925E-14-2.08028E-13
 -1      1062 2.02409E+01 1.26739E-01 1.50613E-05-1.42396E-01-1.24559E-14-1.50239E-13
 -1      1063 1.52185E+01 9.88847E-01 4.88921E-03 1.32822E+00-3.61668E-13 7.36290E-14
 -1      1064 1.76986E+01-8.70818E-01 3.87664E-03-3.11448E+00-3.93396E-13-2.69705E-13
 -1      1065 2.03944E+01 4.19017E-01 1.11119E-03-2.57521E-02 9.71953E-14-2.19289E-13
 -1      1066 2.00733E+01 1.72276E-01-4.25752E-05-1.87706E-01-3.76800E-14-1.20815E-13
 -1      1067 2.03778E+01 9.41236E-01-1.46413E-04-7.83163E-02 7.77613E-14-2.05187E-13
 -1      1068 1.97114E+01 4.39753E-01-3.66684E-05-2.84429E-01 2.26521E-14-2.04367E-14
 -1      1069 1.57982E+01 1.19871E+00 5.09190E-03-3.69834E-01-2.99677E-14-1.12554E-13
 -1      1070 1.79048E+01 1.13422E+00-1.65090E-03 7.69713E-01 3.53544E-14-4.03539E-14
 -1      1071 1.84290E+01 1.07078E+00 4.20328E-04 6.37322E-01-1.85195E-13 8.27386E-14
 -1      1072 2.04244E+01 4.52700E-01-5.63915E-04-1.02742E-02 7.98625E-14-2.68832E-13
 -1      1073 1.87516E+01 9.92949E-01 1.66066E-04 2.86707E-02-1.35486E-14-6.23836E-14
 -1      1074 1.99712E+01 2.40114E-01-1.48043E-05-2.13673E-01 8.12046E-15-1.00744E-13
 -1      1075 1.78508E+01 1.16599E+00-4.51348E-04-1.99913E-01-3.79771E-14 1.31724E-13
 -1      1076 1.71786E+01 1.24014E+00 1.40832E-03-1.89667E-01 1.19403E-13 9.67697E-14
 -1      1077 2.02057E+01 1.43799E-01 1.51592E-05 5.15670E-02 2.85887E-14-8.51419E-14
 -1      1078 2.01077E+01 1.73314E-01 1.27673E-04 6.17025E-02-8.39143E-15-9.82779E-14
 -1      1079 1.99940E+01 2.34863E-01 9.43860E-05 7.39679E-02-4.36255E-14-1.76141E-13
 -1      1080 1.98634E+01 3.19775E-01 1.29847E-05 9.01582E-02-8.91049E-14-1.37308E-13
 -1      1081 1.97138E+01 4.22508E-01 1.63006E-04 1.12529E-01-9.52402E-14-4.63550E-14
 -1      1082 1.95359E+01 5.39600E-01 5.30317E-04 1.46421E-01-5.81161E-14 7.34241E-14
 -1      1083 1.93195E+01 6.64218E-01 2.38720E-04 1.92677E-01-2.33083E-14 9.06811E-14
 -1      1084 1.90642E+01 7.84929E-01 2.29143E-04 2.56538E-01-1.13123E-16 1.92959E-13
 -1      1085 1.87562E+01 8.93384E-01 3.23179E-04 3.47020E-01 4.29068E-14 1.45384E-13
 -1      1086 1.83821E+01 9.75778E-01 4.08825E-04 4.75303E-01 4.09652E-14 2.08143E-13
 -1      1087 1.79235E+01 1.01458E+00 1.49053E-04 6.58777E-01 1.29911E-13 5.40857E-14
 -1      1088 1.73680E+01 9.85179E-01-2.10182E-03 9.25697E-01 8.64220E-14-1.17913E-14
 -1      1089 1.68014E+01 1.23082E+00-2.52958E-03-2.02617E-01 2.31105E-14-2.36753E-13
 -1      1090 1.71527E+01 8.98837E-01-6.92134E-04-1.14265E+00 2.11035E-13-9.26015E-14
 -1      1091 1.77490E+01 9.98420E-01 2.30799E-03-8.06884E-01 3.77446E-14-1.84539E-13
 -1      1092 1.82606E+01 9.91421E-01 2.12321E-05-5.77610E-01-1.97971E-13-4.78033E-13
 -1      1093 1.86668E+01 9.46957E-01-1.69107E-04-4.26087E-01 6.91114E-14-7.17125E-13
 -1      1094 1.63735E+01 1.26418E+00 4.51402E-03-1.86694E-01 1.09291E-13 3.42454E-14
 -1      1095 1.83654E+01 1.06386E+00-3.70769E-04-2.00251E-01 2.29577E-14 1.92580E-13
 -1      1096 1.87701E+01 9.38864E-01-2.56600E-04-1.93153E-01 4.06407E-14 2.04412E-13
 -1      1097 1.90933E+01 8.02069E-01-1.84335E-04-1.80753E-01-2.90162E-14 1.15960E-13
 -1      1098 2.04061E+01 8.30368E-01 3.85688E-05-1.35934E-02 1.02426E-13-2.37114E-13
 -1      1099 2.04077E+01 3.36633E-01-2.69500E-04 1.86295E-02 2.83058E-15-2.40463E-13
 -1      1100 2.02900E+01 1.55195E-01 5.86768E-05 4.26510E-02 2.80744E-14-1.55404E-13
 -1      1101 1.98525E+01 3.30486E-01-9.10399E-06-2.45460E-01 5.60603E-14-4.95760E-14
 -1      1102 1.88611E+01 9.31000E-01-2.87098E-05-2.46748E-01 3.33561E-14-7.61696E-13
 -1      1103 2.04033E+01 7.31629E-01 4.18167E-04-3.83406E-02 9.22967E-14-1.83514E-13
 -1      1104 2.01624E+01 1.32535E-01-2.65636E-05-1.65117E-01-2.84320E-14-1.45987E-13
 -1      1105 1.93562E+01 6.62545E-01-9.65517E-06-1.63789E-01 1.27893E-14-8.76683E-15
 -1      1106 2.03596E+01 2.15239E-01 1.41307E-04 3.28478E-02-4.02113E-14-1.95526E-13
 -1      1107 2.03657E+01 2.27030E-01 1.79120E-04-5.03818E-02 2.66148E-14-2.12964E-13
 -1      1108 2.01256E+01 1.64012E-01 1.77203E-04-9.35125E-02-4.82554E-14-1.59036E-13
 -1      1109 2.04222E+01 4.67719E-01 1.02229E-03 4.61023E-03 4.64898E-14-2.36469E-13
 -1      1110 1.84859E+01 1.04217E+00 7.16817E-04-1.22530E-01 4.11096E-14-2.56387E-13
 -1      1111 1.95742E+01 5.27505E-01 4.67422E-04-1.48375E-01 2.85251E-14-1.05989E-13
 -1      1112 1.83709E+01 1.09328E+00-5.93302E-04 2.41317E-01 1.04677E-13-1.58333E-13
 -1      1113 2.03008E+01 1.58122E-01-4.11699E-05-6.83761E-02 2.46967E-14-1.62538E-13
 -1      1114 2.00176E+01 2.19448E-01-8.59728E-05-1.04106E-01-3.08836E-14-2.01408E-13
 -1      1115 2.01577E+01 1.56239E-01-1.01388E-04-2.99689E-02 8.43410E-15-1.82205E-13
 -1      1116 1.98915E+01 3.03766E-01-7.35488E-06-1.17338E-01 3.31738E-14-1.32568E-13
 -1      1117 1.96089E+01 4.93872E-01-1.18895E-03-3.21857E-02-4.16399E-14 3.30844E-14
 -1      1118 2.02505E+01 1.45631E-01-1.14605E-04-2.71256E-02 2.77289E-14-1.51619E-13
 -1      1119 1.77140E+01 1.18265E+00 1.26366E-04 9.01085E-02-3.28942E-13-1.07835E-13
 -1      1120 1.79305E+01 1.10432E+00-3.90652E-03-2.88265E-01-2.09652E-13-5.00763E-13
 -1      1121 1.97440E+01 4.08810E-01 1.06109E-04-1.32792E-01 3.81775E-14-1.08719E-13
 -1      1122 2.02195E+01 1.39820E-01 3.65783E-05-8.20634E-02 1.50501E-14-1.67195E-13
 -1      1123 2.79436E+01 9.08027E+00 2.32381E+00-6.69634E+00-5.49005E-14 1.28358E-12
 -1      1124 2.05353E+01 6.22341E+00 2.09354E-01-3.90532E+00-2.71450E-14-5.23886E-15
 -1      1125 1.94287E+01 5.85121E+00 7.53408E-02-2.89030E+00-1.65284E-14-5.17520E-13
 -1      1126 1.90252E+01 5.72568E+00 6.03865E-02-2.23737E+00-9.63465E-15-7.38936E-13
 -1      1127 1.88433E+01 5.67029E+00 5.76751E-02-1.70364E+00-5.87898E-15-8.32502E-13
 -1      1128 1.87534E+01 5.64274E+00 5.57584E-02-1.23590E+00-1.89085E-15-8.55075E-13
 -1      1129 1.87071E+01 5.62835E+00 5.40133E-02-8.05481E-01-6.07587E-16-8.37136E-13
 -1      1130 1.86847E+01 5.62123E+00 5.27447E-02-3.93381E-01 1.99515E-15-8.08850E-13
 -1      1131 1.86783E+01 5.61920E+00 5.23367E-02 8.50195E-03 4.08831E-15-7.83096E-13
 -1      1132 1.86857E+01 5.62156E+00 5.28456E-02 4.10773E-01 5.97179E-15-7.60069E-13
 -1      1133 1.87092E+01 5.62905E+00 5.42339E-02 8.24164E-01 8.33361E-15-7.00640E-13
 -1      1134 1.87573E+01 5.64414E+00 5.64357E-02 1.25714E+00 1.09635E-14-6.09192E-13
 -1      1135 1.88489E+01 5.67227E+00 5.86165E-02 1.72944E+00 1.26097E-14-4.69907E-13
 -1      1136 1.90307E+01 5.72737E+00 6.04936E-02 2.27082E+00 1.61329E-14-2.46659E-13
 -1      1137 1.94249E+01 5.84821E+00 6.91557E-02 2.93083E+00 2.11775E-14 1.36911E-13
 -1      1138 2.04414E+01 6.17831E+00 1.52927E-01 3.87985E+00 2.02061E-14 8.03226E-13
 -1      1139 2.51986E+01 7.98837E+00 1.42917E+00 5.84524E+00 3.48610E-14 2.08772E-12
 -1      1140 2.87901E+01 3.61442E+00 1.27074E+00-4.21566E+00-2.06779E-13 2.08766E-12
 -1      1141 2.02052E+01-1.77640E-01-6.16091E-01-1.10194E-01-6.53436E-14 1.58581E-12
 -1      1142 1.88089E+01-9.64020E-02-2.36334E-01 6.23780E-02-2.14932E-14 9.56712E-13
 -1      1143 1.84734E+01-4.80936E-02-5.95878E-02 4.03445E-02-1.61789E-14 5.29403E-13
 -1      1144 1.84166E+01-2.47653E-02-1.53119E-02 2.65572E-02-1.19009E-14 2.08208E-13
 -1      1145 1.84976E+01-1.33144E-02-5.22499E-03 1.88194E-02-1.46307E-14 1.96822E-14
 -1      1146 1.86454E+01-6.99064E-03-1.84117E-03 1.38391E-02-1.21605E-14-1.42917E-13
 -1      1147 1.88215E+01-3.41280E-03-6.85867E-07 1.03754E-02-6.24658E-15-3.23377E-13
 -1      1148 1.90050E+01-1.43740E-03 1.02140E-03 7.82326E-03 4.11102E-16-4.08152E-13
 -1      1149 1.91851E+01-4.79181E-04 1.37078E-03 5.88955E-03-1.16631E-14-5.73992E-13
 -1      1150 1.93579E+01-2.09936E-04 1.16452E-03 4.42719E-03-4.92445E-15-7.54630E-13
 -1      1151 1.95241E+01-4.31647E-04 5.14850E-04 3.36342E-03 2.23915E-14-7.16947E-13
 -1      1152 1.96879E+01-1.01536E-03-4.88104E-04 2.66683E-03 5.96619E-15-7.29036E-13
 -1      1153 1.98560E+01-1.86713E-03-1.77393E-03 2.33352E-03-1.66624E-14-7.71606E-13
 -1      1154 2.00374E+01-2.90411E-03-3.27664E-03 2.38125E-03 7.35591E-15-7.71624E-13
 -1      1155 2.02424E+01-4.03244E-03-4.91137E-03 2.84515E-03 7.08678E-15-6.35250E-13
 -1      1156 2.04823E+01-5.12236E-03-6.54189E-03 3.77078E-03 3.25570E-15-7.68973E-13
 -1      1157 2.07683E+01-5.97764E-03-7.93459E-03 5.19916E-03-1.00366E-14-7.68658E-13
 -1      1158 2.11098E+01-6.29912E-03-8.69577E-03 7.13596E-03-2.07088E-15-8.85175E-13
 -1      1159 2.15116E+01-5.64775E-03-8.19577E-03 9.49306E-03-2.96671E-14-9.69258E-13
 -1      1160 2.19695E+01-3.42504E-03-5.50391E-03 1.19878E-02-1.57586E-14-1.20279E-12
 -1      1161 2.24643E+01 1.08703E-03 5.95383E-04 1.39901E-02-2.10315E-14-1.03343E-12
 -1      1162 2.29532E+01 8.54734E-03 1.13520E-02 1.43353E-02-1.60150E-14-9.14846E-13
 -1      1163 2.33621E+01 1.91146E-02 2.73303E-02 1.12014E-02-6.26988E-14-1.23185E-12
 -1      1164 2.35812E+01 3.16643E-02 4.70173E-02 2.30262E-03 3.22797E-14-1.35932E-12
 -1      1165 2.34760E+01 4.27775E-02 6.50121E-02-1.41942E-02 2.82530E-14-1.22084E-12
 -1      1166 2.29231E+01 4.62634E-02 7.11296E-02-3.76930E-02 3.18994E-14-1.01977E-12
 -1      1167 2.18799E+01 3.46282E-02 5.31109E-02-6.26259E-02-5.97265E-15-1.17995E-12
 -1      1168 2.04697E+01 4.10298E-03 5.27423E-03-7.77288E-02 1.93553E-14-1.27645E-12
 -1      1169 1.90223E+01-3.83578E-02-6.08665E-02-7.04685E-02 2.15561E-14-1.17226E-12
 -1      1170 1.79964E+01-7.39068E-02-1.15689E-01-3.65075E-02 3.64032E-15-8.50375E-13
 -1      1171 1.77732E+01-8.20834E-02-1.28259E-01 1.31794E-02-3.90174E-14-9.56929E-13
 -1      1172 1.84403E+01-5.78116E-02-9.09104E-02 5.70267E-02-5.22846E-15-1.25736E-12
 -1      1173 1.97380E+01-1.58246E-02-2.58125E-02 7.75598E-02 1.18705E-14-1.33166E-12
 -1      1174 2.12142E+01 2.22380E-02 3.36738E-02 7.19494E-02 3.85946E-14-1.22145E-12
 -1      1175 2.24574E+01 4.30815E-02 6.62940E-02 5.00546E-02 5.51920E-14-1.15491E-12
 -1      1176 2.32431E+01 4.60709E-02 7.04986E-02 2.47281E-02 1.21634E-14-1.13419E-12
 -1      1177 2.35434E+01 3.77331E-02 5.67462E-02 4.44363E-03 2.91707E-14-5.71328E-13
 -1      1178 2.34526E+01 2.52717E-02 3.69132E-02-8.08026E-03-1.12597E-14-2.48376E-13
 -1      1179 2.31066E+01 1.34605E-02 1.87493E-02-1.38181E-02 3.64760E-14-1.02814E-13
 -1      1180 2.26298E+01 4.39287E-03 5.40387E-03-1.50209E-02 2.17008E-15-1.01648E-13
 -1      1181 2.21139E+01-1.61590E-03-2.93535E-03-1.37909E-02-1.18101E-13-8.13660E-13
 -1      1182 2.16171E+01-5.09332E-03-7.37026E-03-1.15952E-02-8.23126E-16-1.08937E-12
 -1      1183 2.11707E+01-6.81322E-03-9.27660E-03-9.27120E-03 1.40382E-15-6.60357E-13
 -1      1184 2.07887E+01-7.50796E-03-9.88506E-03-7.18187E-03 2.72563E-14-2.40214E-13
 -1      1185 2.04758E+01-7.76484E-03-1.01909E-02-5.34681E-03 1.38955E-14 4.26907E-14
 -1      1186 2.02339E+01-7.97925E-03-1.08673E-02-3.47889E-03 2.04384E-14-8.52755E-14
 -1      1187 2.00671E+01-8.11393E-03-1.16232E-02-8.60218E-04 6.65282E-14 4.50023E-14
 -1      1188 1.99867E+01-8.60851E-03-8.65070E-03 3.99451E-03-3.03967E-14-1.53859E-13
 -1      1189 1.99882E+01 4.16710E-03 8.99994E-03 4.09445E-03 8.40157E-14 2.06866E-15
 -1      1190 2.77706E+01 5.25464E-01 3.77124E-01 1.96596E+00-3.76851E-14 3.10407E-12
 -1      1191 2.00626E+01-6.62064E-02-5.73442E-01 1.29576E-01 1.56264E-14 2.66359E-12
 -1      1192 1.88834E+01-4.06101E-02-1.93197E-01 1.95216E-02 7.22773E-15 2.18170E-12
 -1      1193 1.85018E+01-2.14623E-02-5.05711E-02 1.59973E-03 1.27368E-14 1.83452E-12
 -1      1194 1.84289E+01-1.25047E-02-1.34688E-02-3.87823E-03-4.68375E-17 1.64111E-12
 -1      1195 1.85035E+01-7.57939E-03-4.80438E-03-5.25201E-03 2.03863E-15 1.48197E-12
 -1      1196 1.86480E+01-4.61989E-03-2.20340E-03-5.33256E-03-2.38985E-15 1.35596E-12
 -1      1197 1.88220E+01-2.81316E-03-8.08492E-04-4.91542E-03 7.22436E-15 1.21582E-12
 -1      1198 1.90040E+01-1.76755E-03 3.91091E-05-4.24983E-03 1.77049E-14 9.78349E-13
 -1      1199 1.91830E+01-1.26868E-03 3.75138E-04-3.44645E-03 2.79617E-15 8.46237E-13
 -1      1200 1.93550E+01-1.19130E-03 2.32856E-04-2.56969E-03 3.09883E-14 7.01997E-13
 -1      1201 1.95206E+01-1.46262E-03-3.37973E-04-1.66171E-03-2.41563E-15 6.73093E-13
 -1      1202 1.96844E+01-2.04385E-03-1.30333E-03-7.52731E-04 1.94923E-14 5.99507E-13
 -1      1203 1.98540E+01-2.91839E-03-2.65511E-03 1.30504E-04 1.68057E-15 5.64971E-13
 -1      1204 2.00395E+01-4.08116E-03-4.40751E-03 9.55360E-04 1.74931E-14 4.88402E-13
 -1      1205 2.02539E+01-5.52455E-03-6.58492E-03 1.67073E-03-1.06966E-14 5.55032E-13
 -1      1206 2.05125E+01-7.21545E-03-9.19813E-03 2.18877E-03-1.10502E-15 4.81685E-13
 -1      1207 2.08331E+01-9.05521E-03-1.21978E-02 2.35804E-03 1.41971E-14 3.28958E-13
 -1      1208 2.12352E+01-1.08108E-02-1.53844E-02 1.92580E-03 7.16267E-15 3.25722E-13
 -1      1209 2.17385E+01-1.20043E-02-1.82441E-02 4.92524E-04 1.45515E-14 4.27110E-13
 -1      1210 2.23592E+01-1.17577E-02-1.96738E-02-2.52212E-03-1.26207E-14 5.04581E-13
 -1      1211 2.31028E+01-8.62944E-03-1.75954E-02-7.84219E-03 9.02902E-15 5.04579E-13
 -1      1212 2.39509E+01-5.96988E-04-8.60068E-03-1.60859E-02 2.48537E-14 2.84620E-13
 -1      1213 2.48407E+01 1.44462E-02 1.18331E-02-2.70511E-02 2.31933E-15 8.83044E-14
 -1      1214 2.56374E+01 3.69982E-02 4.73374E-02-3.82669E-02 9.59345E-15 4.91478E-13
 -1      1215 2.61110E+01 6.25376E-02 9.51520E-02-4.30044E-02-3.10472E-14 1.04588E-12
 -1      1216 2.59490E+01 7.75953E-02 1.37702E-01-2.98678E-02 9.80119E-15 1.03752E-12
 -1      1217 2.48649E+01 6.27452E-02 1.40156E-01 1.11084E-02 3.44308E-14 7.72590E-13
 -1      1218 2.28333E+01 8.95127E-03 6.96091E-02 7.48895E-02-6.65726E-14 9.17960E-13
 -1      1219 2.03436E+01-6.49630E-02-6.91041E-02 1.29379E-01 1.59820E-14 8.67945E-13
 -1      1220 1.83872E+01-1.07706E-01-2.01267E-01 1.30972E-01 2.23536E-14 5.65242E-13
 -1      1221 1.79426E+01-9.16286E-02-2.34515E-01 6.41391E-02 3.40006E-15 6.41785E-13
 -1      1222 1.92482E+01-3.33033E-02-1.46983E-01-3.19883E-02 1.10016E-14 6.46372E-13
 -1      1223 2.16143E+01 1.89094E-02-9.90570E-03-1.00823E-01 2.51494E-14 3.52302E-13
 -1      1224 2.39564E+01 4.31915E-02 8.78026E-02-1.13923E-01 1.35950E-14 1.39971E-13
 -1      1225 2.55130E+01 4.31351E-02 1.16575E-01-8.62856E-02-4.57238E-14 1.32311E-13
 -1      1226 2.60888E+01 3.15587E-02 9.61990E-02-4.64047E-02 6.86673E-14-1.87031E-13
 -1      1227 2.58785E+01 1.83528E-02 5.90113E-02-1.33035E-02 3.89554E-14-5.30883E-13
 -1      1228 2.51985E+01 7.87670E-03 2.61484E-02 7.07920E-03-4.27605E-14-1.03268E-13
 -1      1229 2.43226E+01 1.01922E-03 4.46121E-03 1.65800E-02 2.01153E-14-4.69052E-13
 -1      1230 2.34297E+01-2.82856E-03-7.04046E-03 1.91202E-02-4.90431E-15-4.28772E-13
 -1      1231 2.26150E+01-4.62272E-03-1.17012E-02 1.80630E-02-1.86050E-14-2.40988E-14
 -1      1232 2.19167E+01-5.21341E-03-1.25748E-02 1.55920E-02-2.09058E-14 3.38070E-13
 -1      1233 2.13411E+01-5.23840E-03-1.17751E-02 1.29104E-02-1.29421E-14 2.18013E-13
 -1      1234 2.08796E+01-5.15353E-03-1.06321E-02 1.05836E-02 6.48406E-14-5.82390E-13
 -1      1235 2.05197E+01-5.26718E-03-1.00061E-02 8.78617E-03-9.48970E-15-5.35919E-13
 -1      1236 2.02512E+01-5.78346E-03-1.04272E-02 7.39460E-03 6.01786E-15-5.40290E-13
 -1      1237 2.00706E+01-6.37450E-03-1.13218E-02 5.65097E-03 2.55952E-14-1.08027E-12
 -1      1238 1.99845E+01-4.36472E-03-7.80956E-03 1.42546E-03 6.14060E-14-1.38038E-12
 -1      1239 1.99888E+01 3.92372E-03 1.00811E-02-4.03209E-03 1.38426E-14-1.12130E-12
 -1      1240 2.00036E+01-1.17646E-02 9.29630E-03-3.96969E-03-1.11950E-12-1.87428E-13
 -1      1241 1.99933E+01-1.25138E-02-8.84702E-03-3.71852E-03-1.24830E-12-1.12780E-13
 -1      1242 1.99935E+01 7.67546E-02-1.03873E-02 2.75628E-03-2.26643E-13 1.39075E-14
 -1      1243 1.99966E+01 2.41297E-01-5.58242E-03 5.89833E-03-2.91257E-13-4.22272E-14
 -1      1244 2.00004E+01 4.41642E-01 2.19346E-04 6.80127E-03 4.41690E-13-2.89381E-14
 -1      1245 2.00038E+01 6.37515E-01 5.18365E-03 6.13240E-03-3.36861E-13-2.22972E-13
 -1      1246 2.00064E+01 7.98291E-01 8.73938E-03 4.55879E-03-8.98511E-13-2.37938E-14
 -1      1247 2.00079E+01 9.01373E-01 1.08008E-02 2.26678E-03-7.88646E-13-5.68625E-14
 -1      1248 2.00083E+01 9.31269E-01 1.12324E-02-2.65085E-04 2.90810E-15 1.18641E-13
 -1      1249 2.00074E+01 8.85084E-01 1.01072E-02-2.69278E-03 6.27523E-13 2.22028E-13
 -1      1250 2.00055E+01 7.70412E-01 7.57943E-03-4.69919E-03 2.86739E-13-1.28680E-13
 -1      1251 2.00030E+01 6.05748E-01 3.95129E-03-6.01151E-03-9.26771E-13 7.65919E-14
 -1      1252 1.99998E+01 4.14272E-01-5.95248E-04-6.31975E-03-6.18092E-13-2.10478E-14
 -1      1253 1.99964E+01 2.23911E-01-5.75490E-03-5.41151E-03 7.82820E-14-5.98003E-14
 -1      1254 1.99938E+01 6.82777E-02-1.04243E-02-3.00045E-03 5.20659E-13 6.65417E-14
 -1      1255 1.99922E+01-7.55191E-03-7.26754E-03 6.35646E-03 4.57791E-14-1.64836E-13
 -1      1256 2.00037E+01-1.22410E-02 8.51839E-03 4.24107E-03-1.42688E-14 1.05856E-13
 -1      1257-1.18838E+00-2.37965E+01-3.70412E+00-2.26298E+00 2.37749E-12 3.98150E-13
 -1      1258-1.83680E+00-1.58172E+01-3.16203E+00-4.29312E+00 2.72260E-12 8.22953E-13
 -1      1259 5.58011E-02-3.36024E+00-1.97264E+00-4.61500E-01 1.14464E-12 6.02185E-13
 -1      1260 8.28102E+00 6.86398E+00-4.93208E-01 7.58692E+00 1.00320E-12 9.80993E-13
 -1      1261 2.44110E+01 1.08993E+01 1.27782E+00 1.55107E+01 5.73319E-13 7.63833E-13
 -1      1262 4.47857E+01 8.47844E+00 2.84221E+00 1.78771E+01-6.97220E-14-1.34559E-13
 -1      1263 6.16888E+01 3.79281E+00 3.99625E+00 1.18309E+01-2.67689E-13-1.30229E-12
 -1      1264 6.78808E+01 1.82308E+00 4.41058E+00-6.71252E-01 8.12336E-14-2.43991E-12
 -1      1265 5.96384E+01 4.72235E+00 3.95439E+00-1.30038E+01 7.67275E-13-2.76246E-12
 -1      1266 4.03760E+01 9.44622E+00 2.59013E+00-1.77044E+01 1.54854E-12-3.17280E-12
 -1      1267 2.00081E+01 1.06644E+01 8.99147E-01-1.39937E+01 1.79212E-12-2.35012E-12
 -1      1268 5.37248E+00 4.98210E+00-8.77721E-01-5.28037E+00 1.73461E-12-1.55254E-12
 -1      1269-1.04667E+00-6.70932E+00-2.35730E+00 2.21635E+00 1.13509E-12-6.72795E-13
 -1      1270-1.72940E+00-1.87581E+01-3.36508E+00 4.12590E+00-2.72005E-14-1.69531E-13
 -1      1271-1.01997E+00-2.49275E+01-3.81022E+00 1.04792E+00-1.33943E-12-8.01373E-14
 -1      1272-1.35190E+00-2.19105E+01-3.56025E+00-2.99714E+00-2.15816E-12-4.23703E-13
 -1      1273-1.63348E+00-1.17353E+01-2.76779E+00-3.52940E+00-2.36677E-12-9.26537E-13
 -1      1274 1.90170E+00 8.81772E-01-1.41498E+00 1.88454E+00-1.58429E-12-9.88543E-13
 -1      1275 1.26207E+01 9.45603E+00 1.68252E-01 1.06852E+01-1.24190E-12-1.34559E-12
 -1      1276 2.99911E+01 1.08825E+01 1.75443E+00 1.72101E+01-9.26592E-13-1.44706E-12
 -1      1277 4.93357E+01 7.22365E+00 3.16401E+00 1.69028E+01-3.57048E-13-6.51035E-13
 -1      1278 6.34001E+01 2.67328E+00 3.91897E+00 7.77411E+00 1.00753E-14 9.22984E-13
 -1      1279 6.52369E+01 2.03535E+00 4.09012E+00-5.89255E+00-1.64924E-13 1.76470E-12
 -1      1280 5.26697E+01 6.29123E+00 3.35082E+00-1.58010E+01-8.52762E-13 2.34901E-12
 -1      1281 3.22913E+01 1.06118E+01 1.98519E+00-1.71813E+01-1.43763E-12 2.45381E-12
 -1      1282 1.27806E+01 9.27096E+00 2.09233E-01-1.05951E+01-1.95599E-12 2.03348E-12
 -1      1283 1.36903E+00-3.19116E-01-1.55882E+00-1.18709E+00-2.42295E-12 1.58418E-12
 -1      1284-1.63585E+00-1.36948E+01-2.88708E+00 3.86688E+00-6.69242E-13 5.32130E-13
 -1      1285-9.81523E-01-2.34835E+01-3.64353E+00 2.26102E+00 1.51573E-12-2.70964E-14
 -1      1286 2.22481E+01 1.83723E+00-7.25589E-01-2.79083E+00-7.69940E-14 9.77274E-13
 -1      1287 2.03485E+01 4.68843E+00-4.85993E-02-3.30847E+00-1.89807E-13-2.46983E-13
 -1      1288 2.08527E+01 4.80811E+00-1.13488E-01-4.16196E+00-2.53547E-13 2.17604E-14
 -1      1289 1.95272E+01 4.99243E+00-1.95285E-02-2.65663E+00-1.72466E-13-6.18054E-13
 -1      1290 1.98221E+01 5.08844E+00 2.09077E-04-3.04742E+00-2.01332E-13-4.63310E-13
 -1      1291 2.05162E+01 3.95170E+00-2.59059E-02-3.07622E+00-3.20140E-13-2.15480E-13
 -1      1292 1.91847E+01 5.08421E+00-3.59440E-03-2.07219E+00-1.24427E-13-7.80844E-13
 -1      1293 1.93316E+01 5.13871E+00 1.06047E-02-2.36542E+00-1.49779E-13-7.12295E-13
 -1      1294 1.97510E+01 4.36542E+00-2.42314E-02-2.49107E+00-2.66832E-13-5.19682E-13
 -1      1295 1.90137E+01 5.13208E+00 3.33824E-03-1.56643E+00-7.99248E-14-8.45133E-13
 -1      1296 1.90892E+01 5.16137E+00 1.26005E-02-1.81648E+00-9.33437E-14-8.19744E-13
 -1      1297 1.93943E+01 4.55599E+00-1.95249E-02-1.93245E+00-1.83731E-13-6.56933E-13
 -1      1298 1.89240E+01 5.16268E+00 6.67601E-03-1.11829E+00-3.74323E-14-8.54504E-13
 -1      1299 1.89646E+01 5.17849E+00 1.27808E-02-1.33999E+00-5.08040E-14-8.51151E-13
 -1      1300 1.92117E+01 4.66269E+00-1.60111E-02-1.44605E+00-1.10590E-13-7.05085E-13
 -1      1301 1.88749E+01 5.18320E+00 8.26170E-03-6.94533E-01-1.20563E-15-8.33913E-13
 -1      1302 1.88968E+01 5.19175E+00 1.21012E-02-9.04966E-01-1.51090E-14-8.49355E-13
 -1      1303 1.91122E+01 4.72891E+00-1.38883E-02-1.00496E+00-4.70791E-14-7.20465E-13
 -1      1304 1.88523E+01 5.19556E+00 9.34186E-03-2.89436E-01 4.31532E-14-8.05042E-13
 -1      1305 1.88617E+01 5.19924E+00 1.11332E-02-4.91744E-01 2.69884E-14-8.17960E-13
 -1      1306 1.90585E+01 4.76859E+00-1.28506E-02-5.89136E-01 1.79967E-14-6.92810E-13
 -1      1307 1.88488E+01 5.20061E+00 1.02732E-02 1.08328E-01 8.16797E-14-7.81895E-13
 -1      1308 1.88485E+01 5.20048E+00 1.02054E-02-9.15127E-02 6.65501E-14-7.95791E-13
 -1      1309 1.90354E+01 4.78700E+00-1.24106E-02-1.89183E-01 8.96898E-14-6.72424E-13
 -1      1310 1.88633E+01 5.19889E+00 1.12170E-02 5.09116E-01 1.10365E-13-7.45192E-13
 -1      1311 1.88532E+01 5.19494E+00 9.27655E-03 3.06405E-01 1.02173E-13-7.68736E-13
 -1      1312 1.90362E+01 4.78638E+00-1.24284E-02 2.05907E-01 1.49222E-13-6.44540E-13
 -1      1313 1.89001E+01 5.19062E+00 1.21551E-02 9.23780E-01 1.38198E-13-6.94736E-13
 -1      1314 1.88773E+01 5.18190E+00 8.18590E-03 7.12407E-01 1.29328E-13-7.29816E-13
 -1      1315 1.90611E+01 4.76657E+00-1.29188E-02 6.06516E-01 1.99320E-13-6.11868E-13
 -1      1316 1.89691E+01 5.17677E+00 1.29581E-02 1.35743E+00 1.71330E-13-5.91333E-13
 -1      1317 1.89274E+01 5.16049E+00 6.50626E-03 1.13433E+00 1.55941E-13-6.51571E-13
 -1      1318 1.91164E+01 4.72545E+00-1.39456E-02 1.02011E+00 2.39726E-13-5.56812E-13
 -1      1319 1.90978E+01 5.15722E+00 1.28698E-02 1.84249E+00 2.12557E-13-4.39981E-13
 -1      1320 1.90205E+01 5.12749E+00 3.20924E-03 1.58952E+00 1.93660E-13-5.29172E-13
 -1      1321 1.92188E+01 4.65616E+00-1.60983E-02 1.46356E+00 2.98232E-13-4.48492E-13
 -1      1322 1.93415E+01 5.13274E+00 1.01777E-02 2.39980E+00 2.42670E-13-1.94140E-13
 -1      1323 1.91940E+01 5.07640E+00-4.30751E-03 2.10248E+00 2.22676E-13-3.42459E-13
 -1      1324 1.94071E+01 4.54272E+00-1.99477E-02 1.95956E+00 3.51224E-13-2.81240E-13
 -1      1325 1.98472E+01 5.09752E+00 5.99075E-03 3.08569E+00 2.65218E-13 2.11484E-13
 -1      1326 1.95383E+01 4.98339E+00-2.04799E-02 2.69854E+00 2.38691E-13-2.77972E-14
 -1      1327 1.97710E+01 4.34580E+00-2.45438E-02 2.52956E+00 3.83686E-13-8.35443E-15
 -1      1328 2.10887E+01 4.90439E+00 8.17900E-03 4.05470E+00 2.03448E-13 9.23150E-13
 -1      1329 2.03229E+01 4.73198E+00-4.79405E-02 3.41782E+00 2.11095E-13 4.95999E-13
 -1      1330 2.05544E+01 3.91472E+00-2.24352E-02 3.17969E+00 3.81972E-13 4.38941E-13
 -1      1331 2.71815E+01 3.20351E+00 9.28465E-01 4.58136E+00 7.96585E-14 2.15927E-12
 -1      1332 2.20030E+01 3.52050E+00-1.81919E-01 3.88537E+00 9.39804E-14 1.31462E-12
 -1      1333 2.20959E+01 2.56086E+00-3.26574E-02 3.45744E+00 3.23373E-13 1.07803E-12
 -1      1334 2.14066E+01 3.59664E-01-7.63260E-01 1.18471E+00 1.56694E-13 2.11842E-12
 -1      1335 2.19808E+01 1.31474E-01-4.00759E-01-1.28638E+00-2.09277E-13 1.05560E-12
 -1      1336 2.06573E+01 3.06752E-01-1.64793E-01-8.06412E-01-1.85719E-13 8.01581E-13
 -1      1337 2.00594E+01 1.53526E-01-7.35103E-02-4.02727E-01-1.44728E-13 7.06553E-13
 -1      1338 1.95888E+01 9.12474E-02-1.49089E-02-3.30524E-01-1.37369E-13 4.90583E-13
 -1      1339 2.09543E+01 3.69317E-01-1.04201E-01-1.27503E+00-3.21854E-13 3.49387E-13
 -1      1340 1.92314E+01 6.44971E-02 3.07341E-03-1.35847E-01-1.21564E-13 4.10665E-13
 -1      1341 1.90763E+01 4.12848E-02 1.32482E-02-1.18069E-01-1.02498E-13 2.42039E-13
 -1      1342 1.99032E+01 1.33799E-01-3.51967E-02-5.04900E-01-2.49391E-13 2.07898E-13
 -1      1343 1.89160E+01 3.16199E-02 1.32736E-02-2.84286E-02-8.80433E-14 1.67831E-13
 -1      1344 1.88959E+01 1.95940E-02 1.10843E-02-1.89698E-02-8.55748E-14 4.31512E-14
 -1      1345 1.94260E+01 5.56879E-02-8.48336E-03-1.70774E-01-2.01700E-13 7.59653E-14
 -1      1346 1.88404E+01 1.62475E-02 8.80952E-03 2.51943E-02-5.43142E-14 4.51028E-15
 -1      1347 1.88829E+01 9.39973E-03 6.48012E-03 2.99564E-02-4.99453E-14-7.49522E-14
 -1      1348 1.92176E+01 2.46791E-02-3.61185E-03-1.11363E-02-1.31654E-13-3.99351E-14
 -1      1349 1.88845E+01 8.22448E-03 4.73907E-03 5.19258E-02-6.26968E-14-1.10160E-13
 -1      1350 1.89561E+01 3.99929E-03 3.73415E-03 5.40193E-02-6.60933E-14-1.94970E-13
 -1      1351 1.91629E+01 1.07072E-02-2.33935E-03 6.91645E-02-1.17748E-13-1.02374E-13
 -1      1352 1.89886E+01 3.76378E-03 2.53973E-03 6.40536E-02-4.76946E-14-2.07105E-13
 -1      1353 1.90721E+01 1.07803E-03 2.33365E-03 6.46383E-02-2.59154E-14-2.76207E-13
 -1      1354 1.91936E+01 3.57214E-03-1.49335E-03 1.08464E-01-9.33971E-14-1.48177E-13
 -1      1355 1.91208E+01 1.31668E-03 1.44750E-03 6.81850E-02-2.05228E-14-2.98367E-13
 -1      1356 1.92074E+01-3.72866E-04 1.59415E-03 6.79824E-02-2.74877E-14-3.43216E-13
 -1      1357 1.92706E+01-7.75336E-05-8.14381E-04 1.25481E-01-5.34758E-14-2.01699E-13
 -1      1358 1.92641E+01 1.29952E-04 8.80671E-04 6.82984E-02-5.03092E-14-3.50802E-13
 -1      1359 1.93493E+01-8.69524E-04 1.16536E-03 6.77929E-02-9.05660E-14-4.24469E-13
 -1      1360 1.93720E+01-1.68937E-03-3.67760E-04 1.30660E-01-7.44422E-14-2.34722E-13
 -1      1361 1.94099E+01-2.01140E-04 5.61818E-04 6.70108E-02-6.84056E-14-4.45734E-13
 -1      1362 1.94927E+01-7.01665E-04 9.00043E-04 6.65491E-02-1.38958E-14-4.94257E-13
 -1      1363 1.94855E+01-1.97399E-03-1.58304E-04 1.30502E-01-1.05711E-13-2.18297E-13
 -1      1364 1.95556E+01 8.55395E-05 3.70659E-04 6.61645E-02 2.21848E-14-5.41638E-13
 -1      1365 1.96369E+01-4.88920E-05 7.34238E-04 6.60063E-02 1.22694E-14-5.33420E-13
 -1      1366 1.96054E+01-1.32013E-03-1.47524E-04 1.29397E-01-4.63527E-14-2.86877E-13
 -1      1367 1.97025E+01 8.39275E-04 2.49073E-04 6.71198E-02-5.26285E-15-5.63393E-13
 -1      1368 1.97847E+01 9.67843E-04 6.33058E-04 6.74666E-02-1.22370E-14-5.95169E-13
 -1      1369 1.97307E+01 3.61195E-05-2.92103E-04 1.30494E-01-2.56073E-14-4.09331E-13
 -1      1370 1.98546E+01 1.95552E-03 1.61464E-04 7.09104E-02 5.56196E-16-5.48097E-13
 -1      1371 1.99415E+01 2.25567E-03 5.70938E-04 7.19207E-02-1.16526E-14-5.58995E-13
 -1      1372 1.98630E+01 1.93684E-03-5.56218E-04 1.36136E-01 6.39452E-15-4.22434E-13
 -1      1373 2.00185E+01 3.34765E-03 8.03741E-05 7.83136E-02 1.64736E-14-5.62361E-13
 -1      1374 2.01147E+01 3.72439E-03 5.24231E-04 8.01079E-02 6.52673E-15-5.32772E-13
 -1      1375 2.00067E+01 4.25599E-03-9.10456E-04 1.48084E-01-9.69038E-15-3.44795E-13
 -1      1376 2.02021E+01 4.92031E-03-1.87708E-05 8.98492E-02-1.47447E-14-5.17940E-13
 -1      1377 2.03127E+01 5.25906E-03 4.67868E-04 9.25016E-02-1.02325E-14-4.88012E-13
 -1      1378 2.01676E+01 6.85749E-03-1.32637E-03 1.67577E-01 1.38487E-14-3.70488E-13
 -1      1379 2.04141E+01 6.53803E-03-1.59020E-04 1.05698E-01-3.30801E-14-5.18607E-13
 -1      1380 2.05444E+01 6.68596E-03 3.74194E-04 1.09211E-01-3.46295E-14-6.00397E-13
 -1      1381 2.03524E+01 9.54578E-03-1.76918E-03 1.95238E-01-3.89413E-14-3.58734E-13
 -1      1382 2.06632E+01 7.98408E-03-3.59805E-04 1.25520E-01-4.72517E-15-5.49696E-13
 -1      1383 2.08182E+01 7.72833E-03 2.14896E-04 1.29777E-01-2.80428E-14-5.65620E-13
 -1      1384 2.05681E+01 1.20002E-02-2.18840E-03 2.30812E-01-2.33971E-14-3.47429E-13
 -1      1385 2.09570E+01 8.90630E-03-6.29570E-04 1.48141E-01-5.76978E-14-5.76880E-13
 -1      1386 2.11396E+01 7.95188E-03-3.12742E-05 1.52828E-01-3.80893E-14-6.20590E-13
 -1      1387 2.08206E+01 1.36869E-02-2.50530E-03 2.72661E-01-6.80686E-14-3.85271E-13
 -1      1388 2.12991E+01 8.75211E-03-9.49928E-04 1.71083E-01-5.60227E-14-7.23003E-13
 -1      1389 2.15091E+01 6.70919E-03-3.61073E-04 1.75572E-01-1.23614E-13-8.12302E-13
 -1      1390 2.11135E+01 1.37498E-02-2.59666E-03 3.16990E-01-1.34188E-13-4.41753E-13
 -1      1391 2.16868E+01 6.70890E-03-1.24830E-03 1.89939E-01-5.08210E-14-8.63342E-13
 -1      1392 2.19181E+01 3.11322E-03-7.16466E-04 1.93135E-01-6.19193E-14-8.65912E-13
 -1      1393 2.14452E+01 1.09038E-02-2.27620E-03 3.56780E-01-1.43604E-13-5.25252E-13
 -1      1394 2.21062E+01 1.69798E-03-1.36083E-03 1.97697E-01 1.92104E-15-8.18869E-13
 -1      1395 2.23432E+01-3.88751E-03-9.45790E-04 1.97881E-01 1.63525E-14-7.27458E-13
 -1      1396 2.18064E+01 3.40546E-03-1.28094E-03 3.80548E-01-1.52175E-14-5.73551E-13
 -1      1397 2.25269E+01-7.46904E-03-1.00445E-03 1.84348E-01-9.74091E-15-7.99538E-13
 -1      1398 2.27409E+01-1.51931E-02-7.82731E-04 1.79118E-01-3.01517E-14-8.02724E-13
 -1      1399 2.21758E+01-1.07285E-02 7.16735E-04 3.71402E-01-3.13942E-15-6.29372E-13
 -1      1400 2.28963E+01-2.15831E-02 1.88384E-04 1.37533E-01-6.99779E-14-7.45213E-13
 -1      1401 2.30435E+01-3.08013E-02 1.04055E-04 1.24055E-01-5.63031E-14-8.74005E-13
 -1      1402 2.25164E+01-3.29433E-02 4.02502E-03 3.07482E-01-3.96744E-14-5.62196E-13
 -1      1403 2.31374E+01-3.99492E-02 2.49996E-03 4.55070E-02 2.10804E-14-8.09673E-13
 -1      1404 2.31605E+01-4.85028E-02 1.90268E-03 2.14697E-02 5.09835E-14-7.59363E-13
 -1      1405 2.27731E+01-6.24539E-02 8.70682E-03 1.65806E-01 1.41250E-14-3.25386E-13
 -1      1406 2.31544E+01-5.87534E-02 5.73442E-03-9.60917E-02 4.46596E-14-7.60268E-13
 -1      1407 2.29942E+01-6.23893E-02 4.27828E-03-1.30492E-01 6.24518E-14-6.96162E-13
 -1      1408 2.28759E+01-9.36059E-02 1.41624E-02-6.78111E-02 5.23453E-14-2.70040E-13
 -1      1409 2.28547E+01-6.96441E-02 8.75716E-03-2.73566E-01 4.04052E-14-7.02828E-13
 -1      1410 2.24748E+01-6.25218E-02 5.97521E-03-3.12776E-01 2.21533E-14-6.80050E-13
 -1      1411 2.27517E+01-1.13532E-01 1.85965E-02-3.81453E-01 6.00379E-14-2.21402E-13
 -1      1412 2.21913E+01-6.07685E-02 9.35673E-03-4.44756E-01-5.22967E-14-7.25243E-13
 -1      1413 2.16134E+01-3.83734E-02 4.94615E-03-4.75905E-01-7.65993E-14-8.30766E-13
 -1      1414 2.23528E+01-1.03364E-01 1.88329E-02-7.16811E-01-2.44050E-14-4.13937E-13
 -1      1415 2.12212E+01-2.33028E-02 5.34138E-03-5.40348E-01-1.40146E-14-8.85687E-13
 -1      1416 2.05525E+01 1.23630E-02-2.20353E-04-5.45974E-01 3.13119E-14-8.87290E-13
 -1      1417 2.16976E+01-4.79012E-02 1.12886E-02-9.61733E-01-8.22749E-14-5.49089E-13
 -1      1418 2.01450E+01 3.76252E-02-3.00998E-03-4.90471E-01 5.70420E-14-8.29344E-13
 -1      1419 1.95685E+01 7.45705E-02-8.21159E-03-4.58378E-01 3.68889E-14-6.69669E-13
 -1      1420 2.09089E+01 4.79173E-02-4.75765E-03-9.80760E-01 4.40013E-14-5.20955E-13
 -1      1421 1.92773E+01 9.72940E-02-1.17648E-02-2.73200E-01 1.76456E-14-7.18179E-13
 -1      1422 1.89867E+01 1.17736E-01-1.45199E-02-2.08638E-01-3.83825E-14-6.96027E-13
 -1      1423 2.02118E+01 1.49415E-01-2.36552E-02-6.92345E-01 5.62848E-14-4.64719E-13
 -1      1424 1.89229E+01 1.23089E-01-1.54158E-02 4.95827E-02-1.55508E-13-7.27564E-13
 -1      1425 1.90260E+01 1.15589E-01-1.44133E-02 1.21694E-01-2.40816E-13-9.27055E-13
 -1      1426 1.98551E+01 2.05739E-01-3.48016E-02-1.50588E-01-2.07960E-13-6.53008E-13
 -1      1427 1.92153E+01 9.98266E-02-1.17647E-02 3.53011E-01-1.03294E-13-1.01626E-12
 -1      1428 1.96726E+01 6.87223E-02-7.49239E-03 4.02819E-01 2.91555E-14-1.07842E-12
 -1      1429 1.99814E+01 1.85178E-01-3.05613E-02 4.49142E-01-2.45736E-13-7.96981E-13
 -1      1430 2.00388E+01 4.26550E-02-3.88409E-03 5.23731E-01-1.38921E-14-1.05330E-12
 -1      1431 2.06864E+01 4.26392E-03 1.73541E-03 5.35648E-01 1.45723E-14-1.09553E-12
 -1      1432 2.05379E+01 9.93273E-02-1.40511E-02 8.76644E-01 1.26479E-14-9.08738E-13
 -1      1433 2.10989E+01-1.68461E-02 3.02477E-03 5.24119E-01 5.70446E-14-1.03313E-12
 -1      1434 2.17371E+01-4.65381E-02 8.08767E-03 5.03053E-01 8.00627E-14-9.46042E-13
 -1      1435 2.13109E+01-5.27691E-03 4.53452E-03 1.00270E+00 3.33181E-14-9.04121E-13
 -1      1436 2.20787E+01-5.45462E-02 5.97969E-03 3.95688E-01 4.73354E-14-9.82454E-13
 -1      1437 2.25587E+01-6.87661E-02 9.52609E-03 3.58228E-01 7.83375E-14-9.86912E-13
 -1      1438 2.20488E+01-8.28836E-02 1.64132E-02 8.50350E-01 9.00781E-14-8.58813E-13
 -1      1439 2.27659E+01-6.51368E-02 5.33230E-03 2.13925E-01 1.83136E-13-8.66585E-13
 -1      1440 2.30265E+01-6.59484E-02 7.35050E-03 1.75930E-01 1.77589E-13-6.82912E-13
 -1      1441 2.25745E+01-1.13968E-01 1.95652E-02 5.40862E-01 2.03472E-13-7.33380E-13
 -1      1442 2.30903E+01-5.65151E-02 3.06410E-03 4.24405E-02 1.95384E-13-6.66692E-13
 -1      1443 2.31442E+01-4.96509E-02 3.99929E-03 1.29552E-02 8.10775E-14-4.27591E-13
 -1      1444 2.28222E+01-1.06189E-01 1.66857E-02 2.04649E-01 2.48706E-13-5.80227E-13
 -1      1445 2.30896E+01-3.96619E-02 9.00552E-04-8.55536E-02 1.00562E-14-2.27963E-13
 -1      1446 2.29888E+01-3.03265E-02 1.17514E-03-1.04098E-01 1.27312E-13-1.78402E-13
 -1      1447 2.28133E+01-7.84193E-02 1.13996E-02-7.30228E-02 1.11671E-13-3.82223E-13
 -1      1448 2.28538E+01-2.25633E-02-4.08112E-04-1.63282E-01 2.11571E-14-1.60889E-13
 -1      1449 2.26588E+01-1.38845E-02-5.24167E-04-1.72296E-01-6.07873E-14-2.21030E-13
 -1      1450 2.26130E+01-4.69979E-02 6.19926E-03-2.59947E-01 4.31495E-14-1.83584E-13
 -1      1451 2.24800E+01-9.03299E-03-8.55444E-04-1.98611E-01-6.12665E-14-3.32135E-13
 -1      1452 2.22420E+01-2.27282E-03-1.21024E-03-2.00831E-01-2.84697E-13-5.09894E-13
 -1      1453 2.22954E+01-2.08763E-02 2.19167E-03-3.60110E-01-1.83449E-13-3.41772E-13
 -1      1454 2.20482E+01 8.75947E-05-7.42573E-04-2.04086E-01-3.18486E-13-5.43031E-13
 -1      1455 2.18035E+01 4.79652E-03-1.24355E-03-2.02145E-01-1.81946E-13-8.08655E-13
 -1      1456 2.19240E+01-2.77548E-03-4.40084E-04-3.93665E-01-4.13578E-13-4.82075E-13
 -1      1457 2.16143E+01 5.43562E-03-3.83496E-04-1.91373E-01 8.53547E-14-8.49929E-13
 -1      1458 2.13849E+01 8.46608E-03-9.60649E-04-1.87257E-01 1.10424E-13-8.19241E-13
 -1      1459 2.15452E+01 8.02622E-03-1.93600E-03-3.83329E-01-1.34858E-13-5.12081E-13
 -1      1460 2.12122E+01 8.11975E-03 5.87029E-06-1.69150E-01 9.77601E-14-5.35260E-13
 -1      1461 2.10098E+01 9.98195E-03-5.93563E-04-1.64132E-01 1.49889E-13-3.70530E-13
 -1      1462 2.11888E+01 1.35098E-02-2.64580E-03-3.47860E-01 2.97568E-13-3.80010E-13
 -1      1463 2.08597E+01 9.23017E-03 2.99013E-04-1.42865E-01 1.40851E-13-3.15386E-13
 -1      1464 2.06894E+01 1.04024E-02-2.94395E-04-1.37611E-01 2.07560E-13-8.94701E-14
 -1      1465 2.08716E+01 1.57584E-02-2.89304E-03-3.00156E-01 3.25294E-13-1.04703E-13
 -1      1466 2.05645E+01 9.67826E-03 4.01005E-04-1.15211E-01 1.14939E-13-6.64733E-14
 -1      1467 2.04281E+01 1.05449E-02-1.86252E-04-1.09909E-01-7.15790E-15-9.66848E-15
 -1      1468 2.06016E+01 1.65434E-02-2.94037E-03-2.47565E-01 2.42494E-13 4.36911E-14
 -1      1469 2.03294E+01 1.01700E-02 2.00528E-04-8.67460E-02-5.96432E-14 5.45310E-15
 -1      1470 2.02285E+01 1.09495E-02-3.53637E-04-8.12016E-02-4.53227E-14-5.07389E-14
 -1      1471 2.03821E+01 1.72747E-02-2.98237E-03-1.92946E-01 2.84568E-14 1.92668E-14
 -1      1472 2.01561E+01 1.10641E-02-3.42056E-04-5.67581E-02 5.83324E-14-1.86743E-14
 -1      1473 2.00932E+01 1.16127E-02-5.09105E-04-5.05014E-02 7.67728E-14 2.37453E-14
 -1      1474 2.02138E+01 1.89009E-02-3.02453E-03-1.36015E-01 2.03771E-14 1.78567E-14
 -1      1475 2.00456E+01 1.31647E-02-3.98374E-04-2.44888E-02-3.90530E-15 5.20228E-14
 -1      1476 2.00226E+01 1.06768E-02 9.10589E-04-1.75199E-02-6.80095E-14 7.49674E-14
 -1      1477 2.00955E+01 2.13850E-02-2.76295E-03-7.63698E-02 5.33427E-14-1.58027E-14
 -1      1478 1.99961E+01 4.63388E-04 2.72779E-03 4.78687E-03-1.27086E-13 1.17537E-13
 -1      1479 2.00189E+01 1.25821E-02-4.62047E-04-1.46480E-02-4.62926E-14 5.21954E-14
 -1      1480 2.02376E+01 7.54937E-02-1.52093E-01 4.84546E-01 1.48121E-13 1.78285E-12
 -1      1481 2.15088E+01 2.16047E-01-2.29264E-01 7.21527E-01 1.26538E-13 2.00538E-12
 -1      1482 2.17097E+01 8.81689E-01-8.53857E-02 2.06575E+00 2.53783E-13 1.37584E-12
 -1      1483 1.93079E+01 3.24005E-02-2.13410E-02 1.86666E-01 1.18303E-13 1.47297E-12
 -1      1484 1.97295E+01 1.13595E-01-6.27021E-02 2.38660E-01 1.08913E-13 1.65038E-12
 -1      1485 2.02837E+01 1.87719E-01-5.51583E-02 7.87324E-01 2.27901E-13 1.14111E-12
 -1      1486 1.89249E+01 1.51520E-02 5.66295E-03 5.40416E-02 8.25260E-14 1.24318E-12
 -1      1487 1.90644E+01 5.16444E-02 9.81238E-04 8.03439E-02 8.14002E-14 1.37027E-12
 -1      1488 1.95380E+01 7.18994E-02-1.21403E-02 3.00004E-01 1.87952E-13 9.36105E-13
 -1      1489 1.88139E+01 7.21587E-03 6.96939E-03-8.73949E-03 4.88377E-14 1.10743E-12
 -1      1490 1.88291E+01 2.59384E-02 1.11047E-02 5.67883E-03 5.32044E-14 1.18004E-12
 -1      1491 1.92024E+01 3.11651E-02-2.45788E-03 8.41032E-02 1.24505E-13 7.70304E-13
 -1      1492 1.88405E+01 3.37613E-03 4.76651E-03-3.95314E-02 6.49667E-14 9.80941E-13
 -1      1493 1.87968E+01 1.39802E-02 8.54827E-03-3.13416E-02 4.87292E-14 1.04997E-12
 -1      1494 1.90867E+01 1.35114E-02-1.62870E-03-2.16938E-02 1.00221E-13 6.70632E-13
 -1      1495 1.89374E+01 1.32615E-03 3.26090E-03-5.38783E-02 2.16439E-14 9.03327E-13
 -1      1496 1.88659E+01 7.59388E-03 5.40891E-03-4.92512E-02 2.51269E-14 9.47919E-13
 -1      1497 1.90904E+01 4.96230E-03-1.67125E-03-7.46050E-02 6.36884E-14 5.95785E-13
 -1      1498 1.90678E+01 2.27613E-04 2.45297E-03-5.92909E-02 5.65253E-14 7.70941E-13
 -1      1499 1.89850E+01 3.96843E-03 3.48898E-03-5.67946E-02 4.66433E-14 8.61231E-13
 -1      1500 1.91584E+01 5.66393E-04-1.45875E-03-9.95511E-02 7.18514E-14 5.27673E-13
 -1      1501 1.92118E+01-2.76152E-04 1.95287E-03-6.00076E-02 4.94343E-14 6.26745E-13
 -1      1502 1.91263E+01 1.92905E-03 2.40825E-03-5.87483E-02 6.72862E-14 7.27978E-13
 -1      1503 1.92598E+01-1.59653E-03-1.14749E-03-1.09288E-01 1.01286E-13 4.59407E-13
 -1      1504 1.93591E+01-3.67304E-04 1.56062E-03-5.87225E-02 4.74578E-14 5.61877E-13
 -1      1505 1.92751E+01 9.21795E-04 1.75815E-03-5.80865E-02 3.52416E-14 6.12879E-13
 -1      1506 1.93773E+01-2.38847E-03-8.97749E-04-1.11259E-01 7.87965E-14 4.02251E-13
 -1      1507 1.95063E+01-1.49150E-04 1.20613E-03-5.73026E-02 2.71055E-14 4.62575E-13
 -1      1508 1.94246E+01 6.51981E-04 1.33376E-03-5.68351E-02 4.93406E-14 5.52887E-13
 -1      1509 1.95024E+01-2.25784E-03-7.64458E-04-1.10285E-01 7.84648E-14 3.29155E-13
 -1      1510 1.96540E+01 3.18294E-04 8.66591E-04-5.71438E-02 5.98670E-14 4.41929E-13
 -1      1511 1.95737E+01 9.53362E-04 1.04681E-03-5.64812E-02 9.29735E-15 4.65474E-13
 -1      1512 1.96319E+01-1.45709E-03-7.55692E-04-1.09768E-01 1.90351E-14 3.20772E-13
 -1      1513 1.98066E+01 1.00252E-03 5.31232E-04-5.93733E-02 1.09765E-14 3.86679E-13
 -1      1514 1.97248E+01 1.73376E-03 8.55975E-04-5.81995E-02 3.45698E-14 4.06019E-13
 -1      1515 1.97670E+01-1.30353E-04-8.70709E-04-1.12299E-01 7.35934E-14 2.75373E-13
 -1      1516 1.99714E+01 1.88875E-03 1.90119E-04-6.49746E-02 2.95028E-14 3.77187E-13
 -1      1517 1.98839E+01 2.94830E-03 7.37188E-04-6.29916E-02 1.93498E-15 3.64726E-13
 -1      1518 1.99118E+01 1.64471E-03-1.11244E-03-1.20004E-01 4.44908E-14 2.37502E-13
 -1      1519 2.01581E+01 2.97096E-03-1.68856E-04-7.48627E-02 2.49540E-15 2.93742E-13
 -1      1520 2.00591E+01 4.58167E-03 6.72142E-04-7.17698E-02 3.33975E-14 3.26865E-13
 -1      1521 2.00729E+01 3.83146E-03-1.48979E-03-1.34761E-01 3.51473E-14 1.34092E-13
 -1      1522 2.03786E+01 4.24015E-03-5.60272E-04-8.99115E-02-1.56873E-14 3.68061E-13
 -1      1523 2.02615E+01 6.63032E-03 6.42807E-04-8.53952E-02-9.71684E-15 3.03616E-13
 -1      1524 2.02593E+01 6.41133E-03-2.01628E-03-1.58302E-01-1.33697E-14 1.04099E-13
 -1      1525 2.06472E+01 5.66514E-03-9.99269E-04-1.10917E-01 7.20016E-14 2.45324E-13
 -1      1526 2.05038E+01 9.07653E-03 6.27365E-04-1.04655E-01 3.79222E-14 3.43495E-13
 -1      1527 2.04818E+01 9.35365E-03-2.70594E-03-1.92219E-01 5.10870E-14 1.11366E-13
 -1      1528 2.09795E+01 7.15917E-03-1.49488E-03-1.38451E-01 1.44307E-14 1.57878E-13
 -1      1529 2.08009E+01 1.18438E-02 5.96547E-04-1.30147E-01 2.83853E-14 2.22508E-13
 -1      1530 2.07527E+01 1.25662E-02-3.56407E-03-2.37800E-01 5.24691E-14 4.46413E-14
 -1      1531 2.13918E+01 8.52200E-03-2.03209E-03-1.72534E-01-5.75178E-14 1.79757E-13
 -1      1532 2.11685E+01 1.47176E-02 5.12027E-04-1.62003E-01-1.59131E-14 1.51392E-13
 -1      1533 2.10848E+01 1.58087E-02-4.56765E-03-2.95611E-01-9.33281E-15 8.48048E-14
 -1      1534 2.18981E+01 9.34504E-03-2.53008E-03-2.11995E-01-8.95616E-15 2.81059E-13
 -1      1535 2.16218E+01 1.72078E-02 3.32310E-04-1.99345E-01-1.06963E-14 2.35444E-13
 -1      1536 2.14904E+01 1.85423E-02-5.62595E-03-3.64626E-01-1.71950E-14 7.32621E-14
 -1      1537 2.25060E+01 8.87263E-03-2.75820E-03-2.53335E-01-2.81543E-14 3.25687E-13
 -1      1538 2.21720E+01 1.83324E-02 3.82361E-05-2.39320E-01-2.91199E-14 3.12739E-13
 -1      1539 2.19778E+01 1.96849E-02-6.50808E-03-4.40663E-01-6.54043E-14 1.66570E-13
 -1      1540 2.32079E+01 5.84281E-03-2.19507E-03-2.88939E-01 1.09610E-14 2.87813E-13
 -1      1541 2.28201E+01 1.63248E-02-3.02654E-04-2.75548E-01 1.93431E-14 3.31277E-13
 -1      1542 2.25473E+01 1.72644E-02-6.72549E-03-5.13794E-01 3.34845E-15 1.27513E-13
 -1      1543 2.39683E+01-1.57085E-03 1.34890E-04-3.04695E-01 8.66962E-14 1.22742E-13
 -1      1544 2.35474E+01 8.37912E-03-4.14455E-04-2.96006E-01 4.14915E-14 2.43488E-13
 -1      1545 2.31830E+01 8.05855E-03-5.38719E-03-5.64669E-01 9.21424E-14 9.82860E-14
 -1      1546 2.47055E+01-1.53731E-02 5.64125E-03-2.77936E-01-8.80350E-14 1.48794E-13
 -1      1547 2.42999E+01-9.16952E-03 3.35203E-04-2.80998E-01-3.20564E-14 7.46903E-14
 -1      1548 2.38419E+01-1.23789E-02-1.13242E-03-5.60512E-01 2.40806E-14 5.34382E-14
 -1      1549 2.52742E+01-3.62908E-02 1.54255E-02-1.78577E-01-1.39364E-13 4.54560E-13
 -1      1550 2.49714E+01-3.93721E-02 2.88464E-03-2.03437E-01-1.31331E-13 2.39177E-13
 -1      1551 2.44421E+01-4.83073E-02 7.51944E-03-4.53982E-01-1.72323E-13 1.10616E-13
 -1      1552 2.54633E+01-6.04127E-02 2.81223E-02 2.05105E-02-5.78400E-14 8.01973E-13
 -1      1553 2.53916E+01-8.05077E-02 7.82201E-03-3.62839E-02-7.17534E-14 6.60021E-13
 -1      1554 2.48537E+01-9.94273E-02 2.07673E-02-1.92446E-01-2.25197E-13 3.67647E-13
 -1      1555 2.50409E+01-7.46022E-02 3.68438E-02 3.15928E-01 4.03375E-14 7.36161E-13
 -1      1556 2.53406E+01-1.18975E-01 1.37132E-02 2.25905E-01 2.11116E-14 8.31855E-13
 -1      1557 2.49101E+01-1.51555E-01 3.51541E-02 2.50270E-01-3.15546E-14 5.20826E-13
 -1      1558 2.38789E+01-5.78149E-02 2.90270E-02 6.32320E-01-1.40157E-14 7.68677E-13
 -1      1559 2.46234E+01-1.25293E-01 1.55009E-02 5.30397E-01 1.92589E-14 7.52148E-13
 -1      1560 2.44587E+01-1.68617E-01 4.13926E-02 8.12279E-01 3.33449E-14 5.50532E-13
 -1      1561 2.21453E+01 2.06036E-03-4.25295E-03 8.08414E-01-5.08532E-14 7.95961E-13
 -1      1562 2.32225E+01-6.88171E-02 6.15976E-03 7.43361E-01-6.28434E-14 7.55035E-13
 -1      1563 2.34763E+01-1.00601E-01 2.98496E-02 1.28734E+00-1.44496E-13 7.35446E-13
 -1      1564 2.04063E+01 8.53887E-02-5.61755E-02 6.71712E-01 1.27689E-13 6.68826E-13
 -1      1565 2.14625E+01 4.92078E-02-1.74464E-02 6.96809E-01 3.78170E-14 7.39006E-13
 -1      1566 2.21968E+01 6.29347E-02-4.16600E-03 1.36750E+00 9.53231E-15 5.86437E-13
 -1      1567 1.94597E+01 1.34138E-01-8.85791E-02 1.96938E-01-4.91308E-14 5.69126E-13
 -1      1568 2.00136E+01 1.67083E-01-4.32278E-02 3.20669E-01 1.60288E-14 5.93733E-13
 -1      1569 2.11300E+01 2.57116E-01-4.06793E-02 8.46548E-01 7.59601E-14 5.52766E-13
 -1      1570 1.98105E+01 1.08569E-01-7.37805E-02-3.86437E-01 3.79852E-14 4.68250E-13
 -1      1571 1.95737E+01 2.00658E-01-4.86173E-02-2.28331E-01 3.51386E-14 4.91326E-13
 -1      1572 2.08158E+01 3.36177E-01-5.57971E-02-1.12668E-01 2.45151E-14 4.56150E-13
 -1      1573 2.12785E+01 2.97168E-02-1.76634E-02-7.63551E-01 8.94510E-14 4.21621E-13
 -1      1574 2.03720E+01 1.29202E-01-2.61449E-02-6.55863E-01 4.61766E-14 4.79269E-13
 -1      1575 2.14242E+01 2.35900E-01-4.01186E-02-1.01018E+00 8.50396E-14 2.98268E-13
 -1      1576 2.31230E+01-4.21949E-02 3.38729E-02-7.77861E-01 1.69642E-13 9.14269E-14
 -1      1577 2.19932E+01 1.25000E-02 7.47439E-03-7.60663E-01 1.23213E-13 2.85008E-13
 -1      1578 2.26187E+01 2.20229E-02-1.42461E-02-1.39548E+00 2.42076E-13 1.73053E-13
 -1      1579 2.46059E+01-7.20073E-02 5.41109E-02-5.27206E-01-1.85064E-13 1.53433E-13
 -1      1580 2.36940E+01-7.18807E-02 2.80191E-02-5.76262E-01 7.30839E-15 1.27273E-13
 -1      1581 2.38295E+01-1.46244E-01 4.67124E-03-1.20069E+00 4.76494E-14 1.24154E-13
 -1      1582 2.53700E+01-6.52029E-02 4.65302E-02-2.01362E-01-8.95464E-15 1.32699E-13
 -1      1583 2.48896E+01-9.80739E-02 2.97739E-02-2.71351E-01-3.29892E-14 5.17364E-14
 -1      1584 2.46354E+01-2.00111E-01 1.23241E-02-6.82250E-01-2.43399E-14 5.07788E-14
 -1      1585 2.54340E+01-4.28753E-02 2.74713E-02 6.53493E-02 2.30117E-13-2.30598E-13
 -1      1586 2.53724E+01-8.31046E-02 2.00176E-02 5.86959E-03 1.71184E-13 5.03191E-14
 -1      1587 2.49020E+01-1.66869E-01 1.19793E-02-1.36731E-01 1.56189E-13 2.19670E-13
 -1      1588 2.50051E+01-2.07258E-02 1.02276E-02 2.28099E-01-1.88729E-13-2.08344E-13
 -1      1589 2.52357E+01-5.33395E-02 8.34575E-03 1.90003E-01-3.85889E-14-2.57035E-13
 -1      1590 2.47076E+01-1.02324E-01 8.51338E-03 2.67002E-01 3.35149E-15 1.14483E-13
 -1      1591 2.43141E+01-5.08137E-03-6.12455E-04 2.98861E-01 3.99539E-14-1.70211E-14
 -1      1592 2.46973E+01-2.58121E-02 2.12480E-04 2.80160E-01-6.52061E-14-1.56358E-13
 -1      1593 2.42139E+01-4.41883E-02 5.03224E-03 4.92722E-01-9.28944E-14-3.47517E-14
 -1      1594 2.35382E+01 3.82966E-03-5.64059E-03 3.08058E-01-1.61368E-14-1.62221E-13
 -1      1595 2.39686E+01-6.56802E-03-3.68250E-03 3.02635E-01 4.92802E-14-4.39648E-14
 -1      1596 2.35767E+01-5.29136E-03 2.53512E-03 5.75219E-01 7.47679E-14 1.92638E-13
 -1      1597 2.27868E+01 7.86465E-03-7.00288E-03 2.83663E-01-1.11048E-13 1.65430E-13
 -1      1598 2.32009E+01 4.56159E-03-4.62019E-03 2.85781E-01-5.64512E-14-3.81292E-15
 -1      1599 2.29100E+01 1.56627E-02 1.02806E-03 5.66543E-01-1.23721E-13 4.34657E-13
 -1      1600 2.21155E+01 8.98946E-03-6.55402E-03 2.45007E-01-5.39885E-14 3.75176E-13
 -1      1601 2.24824E+01 9.82134E-03-4.08299E-03 2.50648E-01-1.00417E-13 1.40414E-13
 -1      1602 2.22826E+01 2.42656E-02 2.08877E-04 5.10403E-01-1.51417E-13 4.52272E-13
 -1      1603 2.15446E+01 8.65273E-03-5.44983E-03 2.03291E-01-4.91261E-14 4.26155E-13
 -1      1604 2.18540E+01 1.15198E-02-3.06283E-03 2.10081E-01-3.19391E-14 3.02385E-13
 -1      1605 2.17286E+01 2.57948E-02-2.07520E-04 4.35834E-01-5.10997E-14 3.99011E-13
 -1      1606 2.10754E+01 7.77725E-03-4.29509E-03 1.63915E-01 4.02015E-13-9.43950E-14
 -1      1607 2.13277E+01 1.14049E-02-2.06117E-03 1.70668E-01 2.52096E-13 3.08936E-13
 -1      1608 2.12597E+01 2.39689E-02-4.25610E-04 3.59128E-01 2.86841E-13 2.87150E-13
 -1      1609 2.07005E+01 6.92297E-03-3.39501E-03 1.28596E-01-4.73658E-14-4.01905E-13
 -1      1610 2.09006E+01 1.06623E-02-1.28075E-03 1.34923E-01 6.34458E-14-2.21189E-13
 -1      1611 2.08752E+01 2.10896E-02-5.97529E-04 2.87657E-01 2.90595E-13-5.66369E-14
 -1      1612 2.04110E+01 6.41410E-03-2.94177E-03 9.68105E-02-7.87391E-15-3.76013E-13
 -1      1613 2.05642E+01 1.00744E-02-8.12003E-04 1.02855E-01 6.45558E-14-4.84305E-13
 -1      1614 2.05693E+01 1.85187E-02-8.68006E-04 2.23107E-01 4.42047E-14-3.41231E-13
 -1      1615 2.02006E+01 6.44729E-03-2.97540E-03 6.67456E-02 2.39231E-14-5.64500E-13
 -1      1616 2.03102E+01 1.01576E-02-7.17555E-04 7.30377E-02 4.87136E-14-4.33186E-13
 -1      1617 2.03352E+01 1.70613E-02-1.37168E-03 1.63753E-01 6.43552E-14-2.95895E-13
 -1      1618 2.00671E+01 7.04352E-03-2.71331E-03 3.58691E-02 3.77534E-14-8.55618E-13
 -1      1619 2.01331E+01 1.11760E-02-8.23362E-04 4.34609E-02 7.49152E-14-6.39646E-13
 -1      1620 2.01675E+01 1.73742E-02-1.94371E-03 1.06236E-01 1.23379E-13-1.95454E-13
 -1      1621 2.00096E+01 6.80995E-03 1.29527E-03 6.16668E-03-1.30850E-15-8.38062E-13
 -1      1622 2.00301E+01 1.10275E-02-1.52137E-04 1.39301E-02-2.87156E-15-8.43322E-13
 -1      1623 2.00607E+01 1.72832E-02-1.87372E-03 4.80242E-02 6.47320E-14-3.51625E-13
 -1      1624 1.99974E+01 4.98863E-04 3.21040E-03-3.87267E-03-5.27365E-13-6.93989E-13
 -1      1625 2.00117E+01 4.94450E-02-1.65704E-03 2.79241E-02-5.33420E-13 5.61904E-14
 -1      1626 2.00120E+01 2.47959E-02 1.02938E-03 2.02137E-02-7.46681E-13-5.36302E-14
 -1      1627 2.00084E+01 1.59935E-01-1.30818E-03 5.80873E-02-2.93474E-13 7.12030E-14
 -1      1628 2.00108E+01 9.72453E-02-1.14172E-03 5.25661E-02-4.42846E-13 1.23406E-13
 -1      1629 2.00225E+01 1.02343E-01-2.13963E-03 8.00899E-02-3.35191E-13 1.81863E-13
 -1      1630 2.00030E+01 3.12561E-01-5.74818E-04 7.66744E-02-1.17275E-13-1.78825E-14
 -1      1631 2.00062E+01 2.25146E-01-8.91555E-04 7.40401E-02-1.10987E-13 2.10737E-14
 -1      1632 2.00132E+01 2.15269E-01-1.98986E-03 1.28806E-01-2.12048E-13 1.22729E-13
 -1      1633 1.99977E+01 4.81235E-01-5.19438E-05 8.07237E-02 2.06842E-13 3.13503E-14
 -1      1634 2.00008E+01 3.86426E-01-3.77492E-04 8.11064E-02 1.84171E-14 2.25275E-13
 -1      1635 2.00039E+01 3.54559E-01-4.75134E-04 1.52962E-01 4.19352E-14 2.43146E-13
 -1      1636 1.99933E+01 6.35583E-01 1.74260E-04 7.14446E-02-4.41000E-13-4.11060E-13
 -1      1637 1.99958E+01 5.51174E-01-6.68121E-05 7.42537E-02 2.81849E-14-4.77199E-13
 -1      1638 1.99952E+01 4.98271E-01 1.05588E-03 1.49963E-01-1.18431E-13-4.46335E-13
 -1      1639 1.99902E+01 7.57200E-01 2.55170E-04 5.12229E-02-6.46214E-13-3.41996E-14
 -1      1640 1.99920E+01 6.93797E-01 1.04434E-04 5.59489E-02-4.88860E-13-2.44917E-13
 -1      1641 1.99883E+01 6.25958E-01 2.26858E-03 1.23219E-01-2.63863E-13-4.91443E-13
 -1      1642 1.99887E+01 8.25701E-01 2.45668E-04 2.38538E-02-2.62833E-13 1.45627E-13
 -1      1643 1.99895E+01 7.93897E-01 1.64762E-04 2.96323E-02-5.25164E-13 2.27864E-13
 -1      1644 1.99837E+01 7.20207E-01 3.09020E-03 7.81886E-02-2.76233E-13 1.48127E-13
 -1      1645 1.99888E+01 8.32278E-01 1.97731E-04-6.42244E-03 2.38754E-13 3.65273E-13
 -1      1646 1.99886E+01 8.36117E-01 1.88358E-04-4.32039E-04-1.89409E-13 3.44680E-13
 -1      1647 1.99816E+01 7.66884E-01 3.44167E-03 2.26190E-02 5.20331E-14 3.32293E-13
 -1      1648 1.99903E+01 7.76944E-01 1.26631E-04-3.53368E-02 4.04477E-13 6.61222E-14
 -1      1649 1.99892E+01 8.15349E-01 1.93422E-04-2.99492E-02 1.72880E-13 4.44244E-13
 -1      1650 1.99822E+01 7.60213E-01 3.32157E-03-3.52486E-02 2.00983E-13 4.41861E-13
 -1      1651 1.99932E+01 6.68260E-01 2.90140E-05-5.89695E-02-3.67787E-14-2.57681E-13
 -1      1652 1.99913E+01 7.35364E-01 1.89750E-04-5.49094E-02 4.11934E-13-5.33272E-13
 -1      1653 1.99852E+01 7.01859E-01 2.76338E-03-8.73986E-02-3.12792E-15-1.92578E-13
 -1      1654 1.99969E+01 5.24786E-01-9.70558E-05-7.38709E-02-4.09791E-13 4.05053E-15
 -1      1655 1.99945E+01 6.09123E-01 1.15911E-04-7.17364E-02-2.86257E-13-4.70766E-15
 -1      1656 1.99903E+01 6.01411E-01 1.87505E-03-1.26510E-01 3.78213E-15-5.30315E-13
 -1      1657 2.00015E+01 3.62762E-01-3.60705E-04-7.80564E-02-6.10879E-14 6.43325E-14
 -1      1658 1.99987E+01 4.54342E-01-7.54081E-05-7.81748E-02-4.03343E-13 4.27882E-13
 -1      1659 1.99968E+01 4.72396E-01 6.77566E-04-1.47319E-01-1.17495E-14 2.65404E-13
 -1      1660 2.00060E+01 2.09335E-01-8.69397E-04-6.97442E-02 5.87165E-14 1.53454E-13
 -1      1661 2.00034E+01 2.91978E-01-4.94588E-04-7.23638E-02-8.57855E-14-7.15151E-15
 -1      1662 2.00047E+01 3.31416E-01-6.85899E-04-1.45995E-01 4.85332E-14 9.26570E-14
 -1      1663 2.00112E+01 9.15010E-02-2.93258E-04-4.91751E-02 1.00678E-13-6.57330E-15
 -1      1664 2.00075E+01 1.48798E-01-1.18075E-03-5.44554E-02 8.74760E-14 1.01738E-13
 -1      1665 2.00125E+01 1.99836E-01-1.92361E-03-1.20530E-01-7.53136E-15 2.48536E-13
 -1      1666 2.00180E+01 3.63078E-02 1.49424E-03-3.10558E-02-1.17305E-13-2.03003E-13
 -1      1667 2.00172E+01 6.09089E-02-1.02880E-03-4.12556E-02 1.43490E-13-2.20219E-13
 -1      1668 2.00296E+01 1.10149E-01-1.15334E-03-9.10444E-02-1.74980E-13-7.72735E-14
 -1      1669 2.00504E+01 5.38886E-02 7.84746E-04-6.38548E-02-1.35540E-14-3.47454E-13
 -1      1670-5.51110E-01-1.42901E+01-1.62587E+00-9.64433E-01 1.58412E-12 4.76813E-13
 -1      1671-5.68733E-01-1.62268E+01-1.79027E+00 2.41171E-01 1.31932E-12 3.30069E-13
 -1      1672 9.17974E-01-8.59482E+00-1.30149E+00 1.19353E-02 1.51479E-12 3.30735E-13
 -1      1673 3.70273E-01-1.34164E+01-1.76647E+00-4.05939E-01 1.85496E-12 3.33979E-13
 -1      1674 7.49649E+00-1.53007E+00-5.49915E-01 4.57859E+00 6.71019E-13 4.08118E-13
 -1      1675 4.49236E+00-6.70143E+00-1.20741E+00 1.91971E+00 1.17262E-12 2.16160E-13
 -1      1676 1.63221E+01 4.49226E+00 1.19082E-01 9.11401E+00 5.14033E-13 5.85199E-13
 -1      1677 1.03743E+01 1.00403E+00-6.95588E-01 5.56099E+00 5.67768E-13 4.74842E-13
 -1      1678 3.07543E+01 5.81436E+00 8.72368E-01 1.19061E+01 3.23741E-13 2.44249E-14
 -1      1679 2.18614E+01 5.07500E+00 1.95419E-02 9.67113E+00 5.01044E-13 3.06200E-13
 -1      1680 4.46912E+01 5.17525E+00 1.55360E+00 1.07535E+01-1.85962E-14-7.22200E-13
 -1      1681 3.57701E+01 6.44346E+00 8.14865E-01 1.17246E+01 2.86826E-13-2.47580E-13
 -1      1682 5.40606E+01 3.69016E+00 1.90877E+00 5.17964E+00 1.23568E-13-1.55265E-12
 -1      1683 4.86192E+01 5.10847E+00 1.53224E+00 9.44716E+00 3.93227E-14-9.71445E-13
 -1      1684 5.40865E+01 3.91010E+00 1.72567E+00-3.23413E+00 3.11307E-13-2.08358E-12
 -1      1685 5.46139E+01 3.84676E+00 1.81730E+00 2.58014E+00 1.47882E-13-1.71746E-12
 -1      1686 4.54494E+01 5.45931E+00 1.19858E+00-9.38024E+00 9.01806E-13-2.14906E-12
 -1      1687 5.20219E+01 4.00268E+00 1.70235E+00-5.40003E+00 5.18197E-13-1.99696E-12
 -1      1688 3.22475E+01 5.97812E+00 5.31901E-01-1.07663E+01 1.04955E-12-2.02904E-12
 -1      1689 4.13940E+01 4.95442E+00 1.21104E+00-1.04227E+01 9.56735E-13-2.16138E-12
 -1      1690 1.82970E+01 4.87306E+00-1.92102E-01-9.06661E+00 1.20060E-12-1.62115E-12
 -1      1691 2.67396E+01 6.01015E+00 6.34412E-01-1.18251E+01 1.16207E-12-2.05347E-12
 -1      1692 7.98492E+00-8.16369E-01-9.49191E-01-4.19908E+00 1.10378E-12-1.05305E-12
 -1      1693 1.34299E+01 3.47463E+00-9.15099E-02-7.95248E+00 1.21814E-12-1.36657E-12
 -1      1694 2.22968E+00-8.70948E+00-1.53435E+00-4.63678E-01 3.98681E-13-5.55278E-13
 -1      1695 4.35002E+00-2.93597E+00-8.55429E-01-2.69891E+00 8.70415E-13-8.97393E-13
 -1      1696 6.44398E-02-1.47571E+01-1.77505E+00 2.64475E-01-4.63518E-13-3.09558E-13
 -1      1697 3.54168E-01-1.05634E+01-1.40799E+00 4.34944E-01 1.41331E-13-4.36040E-13
 -1      1698-6.96813E-01-1.63115E+01-1.77267E+00-4.59808E-01-1.20098E-12-3.97710E-13
 -1      1699-7.33178E-01-1.56101E+01-1.73165E+00 1.01201E+00-6.58418E-13-3.82722E-13
 -1      1700-1.81274E-01-1.25923E+01-1.48247E+00-5.53792E-01-1.49147E-12-4.76813E-13
 -1      1701-3.07266E-01-1.56701E+01-1.74989E+00 2.79177E-01-1.28375E-12-2.74530E-13
 -1      1702 2.16328E+00-5.99450E+00-1.06758E+00 1.16172E+00-1.43230E-12-5.10869E-13
 -1      1703 1.10507E+00-1.13003E+01-1.62544E+00 5.46851E-02-1.63192E-12-4.83572E-13
 -1      1704 9.24317E+00 1.31972E+00-3.37485E-01 5.98327E+00-9.55902E-13-7.17870E-13
 -1      1705 5.26786E+00-3.94008E+00-1.13782E+00 2.63094E+00-1.19504E-12-5.39846E-13
 -1      1706 2.03497E+01 5.85402E+00 4.30587E-01 1.07244E+01-8.17457E-13-1.03806E-12
 -1      1707 1.33720E+01 3.27892E+00-4.31069E-01 7.30104E+00-8.73634E-13-8.36442E-13
 -1      1708 3.44747E+01 6.43032E+00 1.13420E+00 1.26858E+01-6.25666E-13-6.99885E-13
 -1      1709 2.54854E+01 6.65024E+00 3.48073E-01 1.13348E+01-7.52176E-13-8.35110E-13
 -1      1710 4.69310E+01 4.77888E+00 1.57305E+00 9.85771E+00-3.89064E-13 1.04361E-13
 -1      1711 3.91842E+01 6.45811E+00 1.05279E+00 1.19520E+01-5.92471E-13-4.14335E-13
 -1      1712 5.34377E+01 3.72314E+00 1.72285E+00 1.76552E+00-2.57266E-13 9.66061E-13
 -1      1713 4.94115E+01 4.81908E+00 1.46827E+00 7.24367E+00-3.71675E-13 3.41838E-13
 -1      1714 5.20476E+01 4.21527E+00 1.65959E+00-6.43406E+00-4.41369E-13 1.54921E-12
 -1      1715 5.47773E+01 3.39506E+00 1.82255E+00-9.07256E-01-1.80911E-13 1.34734E-12
 -1      1716 4.08821E+01 6.09836E+00 1.02751E+00-1.08965E+01-7.67830E-13 1.62492E-12
 -1      1717 4.87313E+01 4.48319E+00 1.63275E+00-8.16571E+00-5.28827E-13 1.50335E-12
 -1      1718 2.67528E+01 5.86889E+00 2.93204E-01-1.04596E+01-9.60232E-13 1.44751E-12
 -1      1719 3.61979E+01 5.46989E+00 1.04360E+00-1.14232E+01-7.94476E-13 1.54299E-12
 -1      1720 1.27701E+01 3.08778E+00-5.05037E-01-7.02358E+00-1.57652E-12 1.30207E-12
 -1      1721 2.05620E+01 5.80331E+00 3.94881E-01-1.08018E+01-1.30784E-12 1.41676E-12
 -1      1722 4.90480E+00-4.87823E+00-1.16366E+00-2.33581E+00-1.15885E-12 9.83769E-13
 -1      1723 8.77203E+00 6.88648E-01-3.69300E-01-5.69037E+00-1.50835E-12 1.12732E-12
 -1      1724 6.09444E-01-1.27742E+01-1.76689E+00 2.42978E-01 8.08242E-14 6.46878E-13
 -1      1725 1.47411E+00-7.19219E+00-1.19033E+00-6.31818E-01-9.53793E-13 1.13295E-12
 -1      1726-6.01045E-01-1.68525E+01-1.90923E+00-3.78007E-01 1.06198E-12 2.20102E-13
 -1      1727-6.10383E-01-1.44476E+01-1.71350E+00 1.01117E+00 3.11529E-13 5.12118E-13
 -1      1728 2.39128E+01 2.87112E-01 2.03207E-01 7.10549E+00 3.04978E-13-7.28306E-14
 -1      1729 1.40410E+01-3.93891E+00-4.47840E-01 6.23957E+00 3.25628E-13 1.16573E-13
 -1      1730 2.00107E+01 5.73703E-03 1.87972E-04 4.80689E-03-6.07313E-13-2.36992E-13
 -1      1731 2.00276E+01 3.91465E-02-7.53320E-06 3.42905E-02-1.63730E-13-1.45278E-13
 -1      1732 3.98930E-01-1.01175E+01-1.18054E+00 2.06412E+00 8.24507E-13 3.52163E-13
 -1      1733 6.23423E+00-7.27116E+00-7.30756E-01 4.73513E+00 8.34777E-13-1.65614E-13
 -1      1734-1.26623E+00-1.12201E+01-1.28800E+00-5.17326E-02 5.19536E-13 6.58473E-13
 -1      1735 3.41686E+01 3.40852E+00 7.56722E-01 6.30259E+00 3.72313E-13-4.86611E-13
 -1      1736 4.26918E+01 5.97928E+00 1.30132E+00 4.80910E+00 2.06890E-13-9.31144E-13
 -1      1737 4.69631E+01 7.30703E+00 1.55960E+00 1.75697E+00 3.82583E-13-1.36469E-12
 -1      1738 4.54723E+01 7.44618E+00 1.41505E+00-1.55064E+00 4.53748E-13-1.43957E-12
 -1      1739 4.00499E+01 5.26379E+00 9.78587E-01-3.89083E+00 7.20993E-13-1.47560E-12
 -1      1740 3.18463E+01 2.81678E+00 6.74035E-01-6.53621E+00 6.09346E-13-1.47782E-12
 -1      1741 2.09054E+01-2.56229E-01 4.60661E-02-7.15470E+00 6.84897E-13-1.24223E-12
 -1      1742 1.09469E+01-4.49007E+00-5.82802E-01-5.59206E+00 4.54303E-13-1.01374E-12
 -1      1743 3.60382E+00-8.41286E+00-1.03378E+00-3.53571E+00-8.77076E-14-7.69343E-13
 -1      1744-4.14945E-01-1.06817E+01-1.23337E+00-1.45298E+00-4.92772E-13-6.20448E-13
 -1      1745-1.08722E+00-1.07611E+01-1.22389E+00 8.74903E-01-7.33524E-13-5.37015E-13
 -1      1746 1.61138E+00-9.30669E+00-1.10409E+00 2.97064E+00-8.39773E-13-3.48055E-13
 -1      1747 7.64789E+00-6.03008E+00-7.34288E-01 5.08865E+00-7.22311E-13-1.89182E-13
 -1      1748 1.64070E+01-1.83110E+00-1.97664E-01 6.80329E+00-5.29687E-13-4.90330E-13
 -1      1749 2.65172E+01 2.14679E+00 4.13917E-01 7.68750E+00-4.98879E-13-3.06977E-13
 -1      1750 3.63552E+01 4.90576E+00 9.85618E-01 6.95677E+00-5.81230E-13 9.21485E-15
 -1      1751 4.30908E+01 6.64433E+00 1.26621E+00 4.00105E+00-6.46150E-13 4.35485E-13
 -1      1752 4.61837E+01 7.34227E+00 1.40930E+00 5.95035E-02-5.03542E-13 8.17152E-13
 -1      1753 4.44064E+01 6.74635E+00 1.35692E+00-3.27494E+00-5.21361E-13 1.14359E-12
 -1      1754 3.69398E+01 4.47396E+00 8.12027E-01-5.13322E+00-4.82562E-13 8.50098E-13
 -1      1755 2.74328E+01 1.82262E+00 4.85655E-01-7.09898E+00-6.51534E-13 8.20677E-13
 -1      1756 1.60515E+01-2.33590E+00-2.71616E-01-6.73581E+00-8.24452E-13 6.77736E-13
 -1      1757 6.99090E+00-6.49268E+00-7.09343E-01-4.96416E+00-3.24407E-13 1.10600E-12
 -1      1758 6.57581E-01-1.02833E+01-1.23021E+00-2.34140E+00 3.38063E-14 1.02307E-12
 -1      1759 2.28415E+01 1.98424E+00-2.36133E-02-2.72287E+00-2.55181E-13 7.79043E-13
 -1      1760 1.98240E+01 3.71362E+00-3.53511E-02-2.15415E+00-2.75753E-13-4.53249E-13
 -1      1761 2.00534E+01 3.56236E+00-4.02318E-02-2.44634E+00-3.30987E-13-3.67824E-13
 -1      1762 2.03556E+01 3.18099E+00-4.57646E-02-2.58604E+00-3.34067E-13-2.35242E-13
 -1      1763 2.05724E+01 2.80912E+00-1.42503E-01-2.85422E+00-3.71148E-13-6.43791E-14
 -1      1764 2.04180E+01 2.69309E+00-4.09638E-03-2.22542E+00-3.49678E-13-2.78444E-13
 -1      1765 1.93620E+01 4.19055E+00-2.00327E-02-1.27100E+00-1.11736E-13-5.83420E-13
 -1      1766 1.94339E+01 4.15058E+00-1.69208E-02-1.49553E+00-1.54848E-13-5.78593E-13
 -1      1767 1.92682E+01 4.29728E+00-1.67679E-02-8.59761E-01-4.20106E-14-5.77868E-13
 -1      1768 1.93097E+01 4.27298E+00-1.42293E-02-1.07061E+00-7.64037E-14-5.82496E-13
 -1      1769 1.95350E+01 3.78562E+00-8.90684E-03-1.11948E+00-1.09151E-13-5.59403E-13
 -1      1770 1.92184E+01 4.35839E+00-1.48241E-02-4.66771E-01 4.23912E-14-5.50528E-13
 -1      1771 1.92396E+01 4.34528E+00-1.33152E-02-6.67120E-01 8.08034E-15-5.69303E-13
 -1      1772 1.94402E+01 3.90674E+00-9.13206E-03-7.32944E-01-1.54112E-14-5.45100E-13
 -1      1773 1.91997E+01 4.38436E+00-1.36923E-02-8.35748E-02 1.23708E-13-5.30388E-13
 -1      1774 1.92059E+01 4.38034E+00-1.32321E-02-2.79029E-01 8.64402E-14-5.40165E-13
 -1      1775 1.93913E+01 3.97190E+00-9.11464E-03-3.58069E-01 6.77099E-14-5.21735E-13
 -1      1776 1.92075E+01 4.37900E+00-1.31818E-02 2.98149E-01 1.93282E-13-5.14895E-13
 -1      1777 1.92002E+01 4.38354E+00-1.37718E-02 1.02546E-01 1.64703E-13-5.30119E-13
 -1      1778 1.93770E+01 3.99159E+00-9.09345E-03 1.06092E-02 1.55744E-13-5.10123E-13
 -1      1779 1.92436E+01 4.34130E+00-1.33331E-02 6.86913E-01 2.47440E-13-4.88592E-13
 -1      1780 1.92211E+01 4.35524E+00-1.49371E-02 4.86077E-01 2.21579E-13-5.09445E-13
 -1      1781 1.93939E+01 3.96861E+00-9.14103E-03 3.79435E-01 2.19738E-13-4.95699E-13
 -1      1782 1.93149E+01 4.26708E+00-1.44085E-02 1.08472E+00 3.02801E-13-4.29322E-13
 -1      1783 1.92728E+01 4.29193E+00-1.69896E-02 8.76676E-01 2.69668E-13-4.70061E-13
 -1      1784 1.94453E+01 3.90042E+00-9.15420E-03 7.51513E-01 2.77637E-13-4.63971E-13
 -1      1785 1.94433E+01 4.13888E+00-1.73980E-02 1.51499E+00 3.63139E-13-3.14387E-13
 -1      1786 1.93686E+01 4.18193E+00-2.05091E-02 1.28535E+00 3.29050E-13-3.78374E-13
 -1      1787 1.95426E+01 3.77554E+00-9.21000E-03 1.13537E+00 3.40933E-13-3.81202E-13
 -1      1788 1.96680E+01 3.92137E+00-2.51883E-02 1.98038E+00 4.18477E-13-1.43205E-13
 -1      1789 1.95376E+01 3.99861E+00-2.68914E-02 1.72296E+00 3.86259E-13-2.42265E-13
 -1      1790 1.97123E+01 3.56738E+00-8.68539E-03 1.53538E+00 3.97128E-13-2.52440E-13
 -1      1791 2.00711E+01 3.52232E+00-4.51759E-02 2.47302E+00 4.45904E-13 1.18405E-13
 -1      1792 1.98339E+01 3.68317E+00-3.96854E-02 2.18392E+00 4.20829E-13-3.47361E-14
 -1      1793 2.00040E+01 3.22333E+00-5.26865E-03 1.93510E+00 4.42965E-13-7.13075E-14
 -1      1794 2.09098E+01 2.68117E+00-5.76326E-02 2.85868E+00 4.02820E-13 5.89237E-13
 -1      1795 2.04058E+01 3.09641E+00-5.03749E-02 2.61706E+00 4.19033E-13 3.10578E-13
 -1      1796 2.05112E+01 2.60980E+00 3.18478E-03 2.24543E+00 4.42561E-13 2.19210E-13
 -1      1797 2.17155E+01 1.21281E+00-1.22047E-01 2.33071E+00 3.25046E-13 1.09408E-12
 -1      1798 2.12615E+01 2.26249E+00 1.28600E-04 2.74135E+00 3.59299E-13 7.69468E-13
 -1      1799 2.09258E+01 1.68485E+00-2.29589E-02 2.14125E+00 4.00862E-13 5.75519E-13
 -1      1800 2.09366E+01 7.78611E-01-6.24543E-02 1.52524E+00 3.19959E-13 9.87550E-13
 -1      1801 2.17823E+01 2.45758E+00 9.09245E-02-3.04893E+00-3.32945E-13 2.45193E-13
 -1      1802 2.00856E+01 2.98058E-01-8.91278E-03 6.58019E-01 2.59660E-13 7.99659E-13
 -1      1803 2.06379E+01 4.40471E-01-1.24516E-02 1.03504E+00 2.73184E-13 9.03944E-13
 -1      1804 2.07313E+01 8.45145E-01 2.25445E-03 1.41621E+00 3.36366E-13 6.68434E-13
 -1      1805 2.14943E+01 1.74213E+00 7.94243E-02-2.33808E+00-3.45862E-13 1.21861E-13
 -1      1806 2.05071E+01 5.01095E-01 3.24443E-02-9.22199E-01-2.74746E-13 8.73664E-14
 -1      1807 2.00754E+01 3.52308E-01 7.54933E-03-6.29996E-01-2.43985E-13 1.34216E-14
 -1      1808 1.98823E+01 2.57131E-01 2.74362E-02-3.91542E-01-2.39381E-13 1.90889E-14
 -1      1809 1.96913E+01 1.78315E-01 1.03999E-02-2.53933E-01-2.09817E-13-4.20749E-14
 -1      1810 2.01889E+01 4.81758E-01-6.72901E-03-7.22337E-01-2.83646E-13-9.36395E-14
 -1      1811 1.95698E+01 1.34008E-01 1.66849E-02-1.19311E-01-1.61163E-13-4.41097E-14
 -1      1812 1.94925E+01 9.45876E-02 7.05244E-03-4.77125E-02-1.23174E-13-9.24894E-14
 -1      1813 1.98645E+01 2.44341E-01-6.27343E-03-2.94949E-01-2.16131E-13-9.73154E-14
 -1      1814 1.94293E+01 7.01472E-02 8.77070E-03 2.71583E-02-1.25709E-13-9.49566E-14
 -1      1815 1.94166E+01 4.89164E-02 4.30961E-03 6.45358E-02-1.12391E-13-1.28905E-13
 -1      1816 1.96843E+01 1.27674E-01-4.76115E-03-5.54756E-02-1.50810E-13-1.44211E-13
 -1      1817 1.93931E+01 3.50518E-02 4.37176E-03 1.05267E-01-1.14549E-13-1.33071E-13
 -1      1818 1.94162E+01 2.32927E-02 2.72134E-03 1.23854E-01-8.23263E-14-1.59325E-13
 -1      1819 1.96020E+01 6.45951E-02-3.57863E-03 7.79205E-02-1.24929E-13-1.50617E-13
 -1      1820 1.94185E+01 1.53461E-02 2.02631E-03 1.44808E-01-7.06182E-14-1.52828E-13
 -1      1821 1.94610E+01 9.11229E-03 1.85239E-03 1.52944E-01-5.73782E-14-1.74397E-13
 -1      1822 1.95844E+01 2.96030E-02-2.52792E-03 1.50066E-01-1.00625E-13-1.40836E-13
 -1      1823 1.94796E+01 4.83437E-03 7.80034E-04 1.62738E-01-5.16548E-14-1.90428E-13
 -1      1824 1.95323E+01 2.10032E-03 1.39451E-03 1.65429E-01-5.78626E-14-1.91289E-13
 -1      1825 1.96080E+01 1.06991E-02-1.70872E-03 1.86825E-01-6.81305E-14-1.45527E-13
 -1      1826 1.95612E+01 2.88969E-04 1.29158E-04 1.69597E-01-9.87655E-14-1.78117E-13
 -1      1827 1.96193E+01-6.54006E-05 1.19846E-03 1.70130E-01-8.92080E-14-1.79696E-13
 -1      1828 1.96576E+01 1.88176E-03-1.15623E-03 2.04193E-01-7.10363E-14-1.88106E-13
 -1      1829 1.96550E+01-1.23092E-04-1.72282E-04 1.72454E-01-7.80271E-14-1.72847E-13
 -1      1830 1.97166E+01 1.23053E-03 1.19312E-03 1.73128E-01-6.76929E-14-2.24828E-13
 -1      1831 1.97239E+01-1.10313E-04-8.34639E-04 2.12751E-01-9.77327E-14-1.73802E-13
 -1      1832 1.97575E+01 2.46694E-03-2.55083E-04 1.76311E-01-6.01938E-14-2.48333E-13
 -1      1833 1.98226E+01 5.09651E-03 1.33684E-03 1.78805E-01-3.30448E-14-3.11940E-13
 -1      1834 1.98019E+01 2.77549E-03-6.92323E-04 2.19879E-01-8.68110E-14-1.51396E-13
 -1      1835 1.98686E+01 7.30389E-03-1.98355E-04 1.84839E-01-2.22419E-14-3.01913E-13
 -1      1836 1.99386E+01 1.09013E-02 1.59718E-03 1.90408E-01-9.20634E-15-2.71534E-13
 -1      1837 1.98899E+01 9.27696E-03-6.83668E-04 2.30916E-01-3.95484E-14-1.99834E-13
 -1      1838 1.99903E+01 1.38177E-02-5.59519E-05 2.00763E-01-6.34459E-15-2.49692E-13
 -1      1839 2.00676E+01 1.81146E-02 1.94044E-03 2.10326E-01-5.37228E-15-2.36933E-13
 -1      1840 1.99886E+01 1.84770E-02-7.72019E-04 2.49796E-01-1.39918E-14-1.78424E-13
 -1      1841 2.01266E+01 2.14743E-02 1.31226E-04 2.26016E-01-6.00811E-16-2.50467E-13
 -1      1842 2.02143E+01 2.61613E-02 2.32276E-03 2.40152E-01 2.71686E-14-2.33144E-13
 -1      1843 2.01003E+01 2.95621E-02-9.27111E-04 2.79338E-01-4.81703E-15-1.36915E-13
 -1      1844 2.02824E+01 2.96248E-02 3.28347E-04 2.61690E-01-7.13221E-15-2.70373E-13
 -1      1845 2.03839E+01 3.42566E-02 2.67991E-03 2.80543E-01-5.82260E-15-2.50949E-13
 -1      1846 2.02285E+01 4.15937E-02-1.12180E-03 3.21276E-01-1.20636E-14-2.17764E-13
 -1      1847 2.04633E+01 3.73233E-02 5.02405E-04 3.07764E-01-5.43612E-14-3.02800E-13
 -1      1848 2.05815E+01 4.11989E-02 2.91491E-03 3.30835E-01-5.51930E-14-2.92048E-13
 -1      1849 2.03772E+01 5.32442E-02-1.32950E-03 3.76021E-01-5.07597E-14-2.20109E-13
 -1      1850 2.06742E+01 4.30973E-02 6.20151E-04 3.62572E-01-6.52321E-14-3.48561E-13
 -1      1851 2.08113E+01 4.51103E-02 2.88509E-03 3.88365E-01-1.02732E-13-3.46755E-13
 -1      1852 2.05506E+01 6.24660E-02-1.52242E-03 4.42120E-01-1.10305E-13-2.65967E-13
 -1      1853 2.09188E+01 4.46673E-02 6.48712E-04 4.21943E-01-1.23001E-13-3.22162E-13
 -1      1854 2.10750E+01 4.31422E-02 2.39295E-03 4.47452E-01-1.57911E-13-3.58874E-13
 -1      1855 2.07523E+01 6.60885E-02-1.67018E-03 5.15354E-01-1.09478E-13-2.35248E-13
 -1      1856 2.11982E+01 3.86627E-02 5.59644E-04 4.77998E-01-1.65047E-13-3.49069E-13
 -1      1857 2.13701E+01 3.12401E-02 1.19153E-03 4.98054E-01-1.31335E-13-3.40934E-13
 -1      1858 2.09844E+01 5.93973E-02-1.73793E-03 5.87443E-01-1.72013E-13-2.25663E-13
 -1      1859 2.15083E+01 2.04801E-02 3.36088E-04 5.17694E-01-6.22446E-14-3.60723E-13
 -1      1860 2.16878E+01 4.20719E-03-9.75600E-04 5.24312E-01 5.44946E-15-4.25214E-13
 -1      1861 2.12467E+01 3.58882E-02-1.68122E-03 6.44435E-01-1.25133E-13-2.48311E-13
 -1      1862 2.18381E+01-1.53646E-02-2.11584E-05 5.21517E-01 1.28586E-15-4.41897E-13
 -1      1863 2.20100E+01-4.34151E-02-4.26749E-03 5.03637E-01-2.39051E-14-4.51101E-13
 -1      1864 2.15349E+01-1.23405E-02-1.43083E-03 6.65127E-01-3.70505E-14-2.66718E-13
 -1      1865 2.21662E+01-7.37107E-02-5.02761E-04 4.63349E-01 4.56085E-14-3.59603E-13
 -1      1866 2.23074E+01-1.14785E-01-8.54355E-03 4.07792E-01 1.02206E-13-2.54493E-13
 -1      1867 2.18394E+01-9.26471E-02-8.58652E-04 6.20452E-01 7.57096E-14-2.05505E-13
 -1      1868 2.24583E+01-1.55072E-01-1.14756E-03 3.13562E-01 6.87003E-14-2.41176E-13
 -1      1869 2.25380E+01-2.05541E-01-1.30513E-02 2.08518E-01 9.69298E-14-1.66043E-13
 -1      1870 2.21421E+01-2.06980E-01 2.62194E-04 4.75765E-01 1.24894E-13-1.56766E-13
 -1      1871 2.26646E+01-2.49046E-01-2.08128E-03 4.85572E-02 1.18443E-13-8.94269E-14
 -1      1872 2.26494E+01-2.96096E-01-1.61392E-02-1.08933E-01 9.58964E-14-9.81639E-14
 -1      1873 2.24131E+01-3.43041E-01 2.25955E-03 1.99333E-01 1.35604E-13-1.28266E-13
 -1      1874 2.27233E+01-3.26430E-01-3.55213E-03-3.30227E-01 5.41373E-14-1.35027E-13
 -1      1875 2.25874E+01-3.45297E-01-1.53392E-02-5.23035E-01-1.52343E-14-1.70455E-13
 -1      1876 2.26069E+01-4.63086E-01 5.37479E-03-2.19033E-01 8.08841E-14-1.91892E-13
 -1      1877 2.25736E+01-3.36288E-01-5.58665E-03-7.69496E-01-6.30563E-14-1.99596E-13
 -1      1878 2.23150E+01-2.95454E-01-8.47328E-03-9.49991E-01-6.39089E-14-2.99593E-13
 -1      1879 2.26636E+01-4.98534E-01 9.17447E-03-7.38479E-01-6.34883E-14-1.69819E-13
 -1      1880 2.21869E+01-2.21543E-01-7.45537E-03-1.14325E+00-1.32737E-13-3.07997E-13
 -1      1881 2.18443E+01-1.03429E-01 3.65057E-03-1.23573E+00-5.34410E-14-2.69034E-13
 -1      1882 2.25245E+01-3.67597E-01 1.15192E-02-1.23653E+00-9.37072E-14-8.31622E-14
 -1      1883 2.16157E+01 3.53060E-02-7.07498E-03-1.27126E+00 2.33437E-14-3.08004E-13
 -1      1884 2.12720E+01 2.04748E-01 1.56064E-02-1.20246E+00 3.95135E-14-3.03605E-13
 -1      1885 2.21752E+01-3.36508E-02 8.09940E-03-1.50878E+00-4.51867E-14-4.96300E-14
 -1      1886 2.10244E+01 3.60379E-01-1.46201E-03-1.00789E+00 1.68641E-14-3.88617E-13
 -1      1887 2.07847E+01 5.04164E-01 2.00754E-02-7.60711E-01-7.07281E-14-4.69854E-13
 -1      1888 2.17063E+01 4.23136E-01-3.00867E-03-1.34729E+00-4.72981E-14-1.94575E-13
 -1      1889 2.06441E+01 5.93930E-01 9.10232E-03-3.68206E-01-2.05214E-13-5.65078E-13
 -1      1890 2.05920E+01 6.27177E-01 1.42723E-02-1.89196E-02-3.02834E-13-5.47553E-13
 -1      1891 2.13209E+01 7.99804E-01-1.55554E-02-6.93448E-01-1.58658E-13-4.65412E-13
 -1      1892 2.06430E+01 5.93897E-01 1.85627E-02 4.19618E-01-3.93307E-13-5.63615E-13
 -1      1893 2.07973E+01 4.95423E-01 3.43682E-03 7.31069E-01-1.89887E-13-6.35259E-13
 -1      1894 2.12315E+01 8.85922E-01-1.86232E-02 2.46391E-01-3.18331E-13-4.96688E-13
 -1      1895 2.10072E+01 3.61447E-01 1.92503E-02 1.03360E+00-5.20382E-14-7.08621E-13
 -1      1896 2.13117E+01 1.92567E-01-4.98852E-03 1.19206E+00 2.56422E-14-6.99369E-13
 -1      1897 2.14910E+01 6.30131E-01-9.22700E-03 1.07994E+00-1.52813E-13-4.25525E-13
 -1      1898 2.15628E+01 3.61127E-02 1.01062E-02 1.26358E+00 4.80898E-14-7.33295E-13
 -1      1899 2.19164E+01-1.13922E-01-7.70353E-03 1.24159E+00 9.40465E-14-6.36050E-13
 -1      1900 2.19468E+01 1.82040E-01 3.83974E-03 1.48765E+00 3.47211E-14-5.09959E-13
 -1      1901 2.20971E+01-2.21944E-01-2.95585E-03 1.11099E+00 1.59724E-13-6.05087E-13
 -1      1902 2.24015E+01-3.00100E-01-6.58150E-03 9.62095E-01 1.77443E-13-5.63018E-13
 -1      1903 2.23704E+01-2.31200E-01 1.10439E-02 1.40310E+00 1.67390E-13-4.62814E-13
 -1      1904 2.24670E+01-3.38262E-01-1.27677E-02 7.28339E-01 2.05954E-13-5.37089E-13
 -1      1905 2.26613E+01-3.44647E-01-4.50717E-03 5.32786E-01 2.86597E-13-4.09852E-13
 -1      1906 2.26109E+01-4.61869E-01 1.08776E-02 9.83935E-01 2.73683E-13-2.36506E-13
 -1      1907 2.26232E+01-3.29768E-01-1.63815E-02 2.91327E-01 2.18901E-13-4.12398E-13
 -1      1908 2.26912E+01-2.92640E-01-2.77905E-03 1.12100E-01 1.88750E-13-3.10100E-13
 -1      1909 2.26389E+01-4.97927E-01 7.30535E-03 4.51915E-01 2.34627E-13-1.78301E-13
 -1      1910 2.25835E+01-2.52761E-01-1.48630E-02-8.06455E-02 1.92547E-13-2.60779E-13
 -1      1911 2.25416E+01-2.01628E-01-1.62994E-03-2.12443E-01 1.71236E-13-5.70917E-14
 -1      1912 2.24987E+01-4.08757E-01 3.66460E-03-2.70521E-02 2.54793E-13-7.60855E-15
 -1      1913 2.23969E+01-1.58366E-01-1.07699E-02-3.38588E-01 6.98851E-14-1.80519E-13
 -1      1914 2.22767E+01-1.11781E-01-8.61996E-04-4.17687E-01-3.43480E-14-2.39249E-13
 -1      1915 2.22531E+01-2.73746E-01 1.10584E-03-3.75312E-01 9.83194E-14-1.20329E-13
 -1      1916 2.21185E+01-7.61432E-02-6.21949E-03-4.82889E-01-1.07687E-13-2.14897E-13
 -1      1917 2.19531E+01-4.15455E-02-2.71403E-04-5.17903E-01-2.56900E-13-2.22485E-13
 -1      1918 2.19556E+01-1.45816E-01-4.12515E-04-5.82389E-01-6.54600E-14-1.45869E-13
 -1      1919 2.17961E+01-1.66127E-02-2.37415E-03-5.37204E-01-3.19582E-13-1.15782E-14
 -1      1920 2.16129E+01 5.48691E-03 2.20702E-04-5.41081E-01-3.36357E-13 7.48514E-14
 -1      1921 2.16434E+01-4.80210E-02-1.23837E-03-6.72287E-01-2.21199E-13 1.84493E-13
 -1      1922 2.14659E+01 2.07792E-02 3.73094E-04-5.30309E-01-3.23540E-13 8.20225E-14
 -1      1923 2.12844E+01 3.29209E-02 6.31278E-04-5.15028E-01 1.99970E-14 1.20341E-13
 -1      1924 2.13403E+01 1.63427E-02-1.66142E-03-6.79174E-01-2.01648E-13 4.68404E-13
 -1      1925 2.11520E+01 4.11098E-02 2.07000E-03-4.87000E-01 3.46207E-13-5.09699E-14
 -1      1926 2.09845E+01 4.65593E-02 9.73418E-04-4.61526E-01 3.95667E-13 7.90600E-15
 -1      1927 2.10603E+01 5.32383E-02-1.85229E-03-6.34416E-01 3.65760E-14 5.12141E-13
 -1      1928 2.08690E+01 5.02850E-02 2.94113E-03-4.25075E-01 4.04706E-13 6.81433E-14
 -1      1929 2.07223E+01 5.19966E-02 1.27036E-03-3.95095E-01 4.50370E-13 2.70984E-13
 -1      1930 2.08112E+01 7.12376E-02-1.90079E-03-5.61662E-01 4.57393E-13 3.49977E-13
 -1      1931 2.06241E+01 5.34816E-02 3.22748E-03-3.55401E-01 2.40854E-13 3.35552E-13
 -1      1932 2.05014E+01 5.37919E-02 1.53809E-03-3.23797E-01 1.73711E-13 2.81105E-13
 -1      1933 2.05962E+01 7.83752E-02-1.85882E-03-4.76241E-01 3.74971E-13 3.87659E-13
 -1      1934 2.04202E+01 5.47294E-02 3.10537E-03-2.83189E-01 4.18874E-14 1.80432E-13
 -1      1935 2.03227E+01 5.53174E-02 1.75948E-03-2.50736E-01-5.01426E-14 2.13786E-13
 -1      1936 2.04159E+01 8.11048E-02-1.74599E-03-3.86434E-01 7.53786E-14 2.64538E-13
 -1      1937 2.02569E+01 5.66523E-02 2.64108E-03-2.09641E-01-4.03915E-14 8.62123E-14
 -1      1938 2.01849E+01 5.80514E-02 1.85176E-03-1.75933E-01-5.61263E-14 9.49663E-14
 -1      1939 2.02690E+01 8.39969E-02-1.48466E-03-2.95408E-01-1.58928E-13 3.36227E-13
 -1      1940 2.01381E+01 5.79882E-02 2.14653E-03-1.36533E-01-4.56759E-14-2.20790E-14
 -1      1941 2.00895E+01 5.84254E-02 2.00926E-03-1.03003E-01-7.24848E-14-1.63046E-13
 -1      1942 2.00775E+01 7.97984E-02-1.22115E-03-1.22366E-01-2.09177E-13-1.53844E-13
 -1      1943 2.01572E+01 8.51793E-02-1.82481E-03-2.06135E-01-2.43123E-13 8.35461E-14
 -1      1944 1.96030E+01 1.42348E-01 7.90088E-03 2.59972E-01 2.04795E-13 6.49892E-13
 -1      1945 1.98752E+01 2.04322E-01 1.64591E-02 4.33113E-01 2.24487E-13 7.38213E-13
 -1      1946 2.00892E+01 3.50834E-01-1.53925E-03 6.55737E-01 2.81053E-13 5.37213E-13
 -1      1947 1.93615E+01 7.25423E-02 6.98562E-03 5.60880E-02 1.45834E-13 5.31899E-13
 -1      1948 1.94763E+01 1.02294E-01 1.42414E-02 1.44960E-01 1.58381E-13 5.95874E-13
 -1      1949 1.96973E+01 1.65810E-01-1.97340E-03 2.56139E-01 2.08420E-13 4.17204E-13
 -1      1950 1.92733E+01 3.72345E-02 4.49818E-03-5.09949E-02 1.06885E-13 4.49549E-13
 -1      1951 1.93025E+01 5.28605E-02 8.41098E-03-3.12238E-03 1.15535E-13 4.87723E-13
 -1      1952 1.94989E+01 8.18356E-02-2.87370E-03 4.25354E-02 1.55504E-13 3.10409E-13
 -1      1953 1.92761E+01 1.79710E-02 2.97450E-03-1.06143E-01 6.28822E-14 3.99883E-13
 -1      1954 1.92587E+01 2.65642E-02 4.46560E-03-8.03895E-02 8.14533E-14 4.45746E-13
 -1      1955 1.94235E+01 3.94118E-02-2.91627E-03-7.20590E-02 9.58868E-14 2.77934E-13
 -1      1956 1.93310E+01 7.27760E-03 2.16115E-03-1.32353E-01 1.07197E-13 3.40525E-13
 -1      1957 1.92888E+01 1.19489E-02 2.31494E-03-1.19130E-01 6.89772E-14 3.83948E-13
 -1      1958 1.94230E+01 1.66924E-02-2.42207E-03-1.31852E-01 9.36429E-14 2.27823E-13
 -1      1959 1.94150E+01 1.75881E-03 1.70250E-03-1.42671E-01 9.01324E-14 3.32669E-13
 -1      1960 1.93601E+01 4.02771E-03 1.18763E-03-1.36467E-01 1.08009E-13 3.48242E-13
 -1      1961 1.94674E+01 4.63333E-03-1.85006E-03-1.60771E-01 1.29464E-13 2.17284E-13
 -1      1962 1.95149E+01-3.24980E-04 1.43398E-03-1.45297E-01 1.05360E-13 2.69978E-13
 -1      1963 1.94538E+01 3.78273E-04 6.06720E-04-1.42586E-01 8.66402E-14 3.19447E-13
 -1      1964 1.95381E+01-9.28526E-04-1.39224E-03-1.73011E-01 1.10278E-13 2.21922E-13
 -1      1965 1.96240E+01 5.55084E-05 1.29925E-03-1.45821E-01 2.63087E-14 2.57738E-13
 -1      1966 1.95598E+01-3.12399E-04 3.40867E-04-1.44149E-01 8.25870E-14 2.60147E-13
 -1      1967 1.96246E+01-2.13850E-03-1.08434E-03-1.77759E-01 1.09814E-13 2.26134E-13
 -1      1968 1.97405E+01 2.33570E-03 1.27993E-03-1.48340E-01 5.89248E-14 1.98583E-13
 -1      1969 1.96737E+01 1.20137E-03 2.79520E-04-1.45862E-01 3.23235E-14 2.28870E-13
 -1      1970 1.97216E+01-1.89546E-04-9.11487E-04-1.81430E-01 5.59836E-14 2.02778E-13
 -1      1971 1.98659E+01 6.19146E-03 1.36988E-03-1.56074E-01 6.32174E-14 2.27366E-13
 -1      1972 1.97952E+01 4.48083E-03 3.63458E-04-1.51296E-01 6.99536E-14 1.97271E-13
 -1      1973 1.98280E+01 4.23547E-03-8.52174E-04-1.88821E-01 6.41465E-14 8.09718E-14
 -1      1974 2.00044E+01 1.14467E-02 1.56676E-03-1.71731E-01 1.16119E-13 1.33591E-13
 -1      1975 1.99271E+01 9.28016E-03 5.56461E-04-1.63353E-01 9.25937E-14 1.78219E-13
 -1      1976 1.99455E+01 1.07537E-02-8.89240E-04-2.03768E-01 1.25445E-13 1.14618E-13
 -1      1977 2.01626E+01 1.80037E-02 1.86733E-03-1.97722E-01 3.57148E-14-2.07475E-15
 -1      1978 2.00746E+01 1.54669E-02 8.32848E-04-1.84545E-01 5.68712E-14 5.89646E-14
 -1      1979 2.00781E+01 1.91571E-02-1.01085E-03-2.29529E-01 1.02611E-13 3.08409E-14
 -1      1980 2.03486E+01 2.57646E-02 2.26142E-03-2.36240E-01-1.76588E-14 2.40739E-14
 -1      1981 2.02452E+01 2.29474E-02 1.16978E-03-2.17128E-01-1.55342E-14 2.36800E-14
 -1      1982 2.02318E+01 2.93050E-02-1.20927E-03-2.68984E-01 2.19680E-14-3.40751E-14
 -1      1983 2.05724E+01 3.45168E-02 2.72171E-03-2.89164E-01 7.25278E-14-5.92319E-15
 -1      1984 2.04476E+01 3.15684E-02 1.53975E-03-2.63086E-01 3.11231E-14 1.59497E-14
 -1      1985 2.04138E+01 4.09898E-02-1.47957E-03-3.24645E-01 2.06945E-14-8.05754E-14
 -1      1986 2.08446E+01 4.37424E-02 3.18687E-03-3.57717E-01 8.78637E-15 2.20655E-14
 -1      1987 2.06921E+01 4.09606E-02 1.90138E-03-3.23909E-01 3.91937E-14-1.22754E-14
 -1      1988 2.06327E+01 5.37270E-02-1.81870E-03-3.98406E-01 6.86304E-14 3.75912E-15
 -1      1989 2.11756E+01 5.22973E-02 3.53638E-03-4.41685E-01-1.04073E-14 2.92671E-14
 -1      1990 2.09894E+01 5.02755E-02 2.18759E-03-4.00028E-01 1.15047E-14 5.65543E-14
 -1      1991 2.08972E+01 6.64053E-02-2.22441E-03-4.90916E-01 1.64330E-14-1.84373E-14
 -1      1992 2.15743E+01 5.78941E-02 3.55914E-03-5.37969E-01-8.37204E-14 3.83823E-14
 -1      1993 2.13494E+01 5.77508E-02 2.29268E-03-4.89701E-01-2.18686E-14 3.19465E-14
 -1      1994 2.12156E+01 7.67095E-02-2.69241E-03-6.00314E-01-1.62648E-14-2.78539E-14
 -1      1995 2.20447E+01 5.63522E-02 2.92926E-03-6.38100E-01-3.76062E-14 8.10667E-14
 -1      1996 2.17794E+01 6.00473E-02 2.06400E-03-5.87078E-01-8.52337E-14 8.69322E-14
 -1      1997 2.15944E+01 8.02390E-02-3.20738E-03-7.20028E-01-8.96544E-14 6.67879E-15
 -1      1998 2.25813E+01 4.07341E-02 1.22567E-03-7.24459E-01 9.11657E-14 1.49945E-14
 -1      1999 2.22807E+01 5.13837E-02 1.31334E-03-6.79112E-01 1.11855E-14 4.06624E-14
 -1      2000 2.20356E+01 6.93523E-02-3.71799E-03-8.35277E-01 3.98336E-14-5.11761E-14
 -1      2001 2.31629E+01 9.57932E-04-1.92421E-03-7.65390E-01 1.05247E-13-1.00552E-13
 -1      2002 2.28431E+01 2.27991E-02-1.31422E-04-7.41320E-01 1.07064E-13-8.31540E-15
 -1      2003 2.25338E+01 3.21769E-02-4.07968E-03-9.18228E-01 9.61903E-14-5.96081E-14
 -1      2004 2.37444E+01-7.44225E-02-6.44549E-03-7.11149E-01-1.23521E-13 6.57894E-14
 -1      2005 2.34380E+01-3.73073E-02-2.29272E-03-7.33407E-01 2.50162E-14-5.36290E-15
 -1      2006 2.30714E+01-4.67463E-02-3.93593E-03-9.22821E-01 1.31488E-14-1.64170E-14
 -1      2007 2.42493E+01-1.91004E-01-1.12326E-02-4.96450E-01-2.82334E-13 1.22227E-13
 -1      2008 2.40091E+01-1.38732E-01-4.86153E-03-5.98458E-01-2.24362E-13 4.11225E-14
 -1      2009 2.36129E+01-1.80751E-01-2.55128E-03-7.83127E-01-2.01194E-13-8.35486E-15
 -1      2010 2.45679E+01-3.31910E-01-1.37367E-02-6.11606E-02-1.72266E-13 2.26608E-13
 -1      2011 2.44643E+01-2.77268E-01-7.34351E-03-2.74232E-01-2.54401E-13 1.60514E-13
 -1      2012 2.40966E+01-3.65072E-01 1.02256E-03-4.24340E-01-2.87224E-13 6.09885E-14
 -1      2013 2.45706E+01-4.33133E-01-1.05077E-02 5.95228E-01-4.46206E-14 3.45578E-13
 -1      2014 2.46746E+01-4.11502E-01-9.03001E-03 2.70200E-01-7.77451E-14 3.00001E-13
 -1      2015 2.44272E+01-5.48081E-01 7.15132E-03 1.98975E-01-1.28694E-13 1.27145E-13
 -1      2016 2.41478E+01-3.78941E-01-1.50057E-03 1.32175E+00-8.51767E-14 5.71463E-13
 -1      2017 2.44955E+01-4.42020E-01-1.00254E-02 9.61528E-01-2.50338E-14 4.42752E-13
 -1      2018 2.44762E+01-6.00197E-01 1.45213E-02 1.02222E+00-5.54279E-14 3.14493E-13
 -1      2019 2.33172E+01-8.11946E-02 7.59242E-03 1.77063E+00-1.23385E-13 6.55406E-13
 -1      2020 2.38580E+01-2.49064E-01-8.00038E-03 1.54801E+00-1.62535E-13 6.50771E-13
 -1      2021 2.41336E+01-3.73027E-01 1.51651E-02 1.77249E+00-1.48980E-13 5.85825E-13
 -1      2022 2.23198E+01 3.97800E-01 5.88978E-04 1.54228E+00 1.20307E-13 6.79304E-13
 -1      2023 2.28926E+01 1.83510E-01-6.19951E-03 1.65236E+00-3.70797E-15 6.72445E-13
 -1      2024 2.34442E+01 1.83219E-01 3.63265E-03 2.00066E+00 5.97526E-15 6.52485E-13
 -1      2025 2.16468E+01 7.53983E-01-1.84473E-02 5.33182E-01 5.48728E-14 5.18974E-13
 -1      2026 2.20100E+01 6.48886E-01 5.52111E-04 1.00968E+00 1.33227E-13 6.08215E-13
 -1      2027 2.27182E+01 8.24159E-01-1.61318E-02 1.34077E+00 1.95677E-13 6.72425E-13
 -1      2028 2.17371E+01 6.96268E-01-3.28334E-02-7.70803E-01 1.28911E-13 1.98844E-13
 -1      2029 2.16981E+01 7.90190E-01 5.87557E-03-1.75652E-01 5.90222E-14 3.12469E-13
 -1      2030 2.24240E+01 1.09930E+00-2.70949E-02-5.81281E-02 2.08528E-13 3.96341E-13
 -1      2031 2.25663E+01 2.72923E-01-1.90829E-02-1.65545E+00 1.98491E-13 5.98618E-14
 -1      2032 2.21238E+01 5.01610E-01 7.80988E-03-1.26588E+00 1.22707E-13 9.16871E-14
 -1      2033 2.27803E+01 7.98008E-01-1.54628E-02-1.41462E+00 2.12521E-13-3.74960E-15
 -1      2034 2.36260E+01-1.77243E-01 3.20801E-03-1.72470E+00 1.16686E-13 1.40742E-13
 -1      2035 2.30075E+01 9.82363E-03 3.58321E-04-1.68962E+00 2.15017E-13 1.55043E-13
 -1      2036 2.35310E+01 1.41289E-01 2.75285E-03-2.01423E+00 1.64835E-13-5.79450E-14
 -1      2037 2.44104E+01-4.06712E-01 1.63334E-02-1.17990E+00-1.23636E-13 1.18981E-13
 -1      2038 2.38806E+01-3.42348E-01-9.70933E-03-1.40380E+00 5.02931E-14 2.09988E-13
 -1      2039 2.41810E+01-4.09025E-01 5.90495E-03-1.72449E+00 4.07721E-14 2.02314E-13
 -1      2040 2.47111E+01-4.06624E-01 1.66009E-02-4.42893E-01-1.13971E-14 1.39963E-13
 -1      2041 2.44230E+01-4.39939E-01-1.50169E-02-7.47458E-01-1.01112E-13 5.93935E-14
 -1      2042 2.44646E+01-6.21655E-01 1.36486E-04-9.47533E-01-2.93984E-14 2.82992E-13
 -1      2043 2.45739E+01-2.89371E-01 9.71348E-03 1.76665E-01 1.49257E-13 3.11624E-13
 -1      2044 2.45460E+01-3.60065E-01-1.48748E-02-8.14997E-02 9.61488E-14 2.94729E-13
 -1      2045 2.43730E+01-5.52155E-01-5.29598E-03-1.32224E-01 2.45706E-14 3.43820E-13
 -1      2046 2.41465E+01-1.55124E-01 2.90646E-03 5.66412E-01-2.01966E-13 2.12344E-13
 -1      2047 2.43162E+01-2.21025E-01-1.13151E-02 4.01238E-01 3.30257E-14 2.71229E-13
 -1      2048 2.40186E+01-3.61791E-01-6.32981E-03 4.72297E-01 8.31904E-14 4.33282E-13
 -1      2049 2.35729E+01-5.19556E-02-1.27854E-03 7.44618E-01-1.83447E-16 1.15139E-13
 -1      2050 2.38575E+01-9.72960E-02-6.62946E-03 6.65974E-01-1.50554E-13 5.20131E-14
 -1      2051 2.35226E+01-1.74345E-01-4.60355E-03 8.13461E-01-8.70801E-14 2.48174E-13
 -1      2052 2.29584E+01 1.16172E-02-2.96031E-03 7.75811E-01-1.15891E-13 3.02139E-13
 -1      2053 2.32880E+01-1.34708E-02-2.47698E-03 7.58109E-01-4.78376E-14 1.56133E-13
 -1      2054 2.29751E+01-4.01430E-02-2.50881E-03 9.41017E-01-7.72711E-14 1.92141E-13
 -1      2055 2.23680E+01 4.36631E-02-3.12957E-03 7.23008E-01-2.42072E-13 4.97428E-13
 -1      2056 2.26956E+01 3.31265E-02 5.09288E-04 7.40743E-01-1.86983E-13 3.65871E-13
 -1      2057 2.24345E+01 3.78007E-02-1.05618E-03 9.29765E-01-2.66134E-13 2.92803E-13
 -1      2058 2.18365E+01 5.54066E-02-2.61716E-03 6.31768E-01-1.29450E-13 4.86188E-13
 -1      2059 2.21357E+01 5.35725E-02 2.29961E-03 6.66256E-01-1.28981E-13 4.95630E-13
 -1      2060 2.19350E+01 7.40456E-02-3.34281E-04 8.43695E-01-1.67086E-13 5.28171E-13
 -1      2061 2.13782E+01 5.60324E-02-1.90560E-03 5.29736E-01 1.57832E-14 3.58574E-13
 -1      2062 2.16372E+01 5.85685E-02 3.15730E-03 5.69504E-01-6.77095E-14 3.62721E-13
 -1      2063 2.14936E+01 8.47525E-02-1.05276E-04 7.26506E-01-7.04554E-14 4.32117E-13
 -1      2064 2.09953E+01 5.17846E-02-1.20656E-03 4.31106E-01 5.75441E-13 1.19753E-13
 -1      2065 2.12113E+01 5.59108E-02 3.40401E-03 4.70193E-01 3.79847E-13 3.27377E-13
 -1      2066 2.11165E+01 8.23017E-02-1.25245E-04 6.03662E-01 3.88222E-13 2.49786E-13
 -1      2067 2.06841E+01 4.65881E-02-5.86761E-04 3.41221E-01 1.82348E-13 5.76877E-16
 -1      2068 2.08588E+01 5.06380E-02 3.30789E-03 3.77377E-01 3.63505E-13 9.71195E-14
 -1      2069 2.08029E+01 7.48440E-02-2.38901E-04 4.87473E-01 4.03714E-13 2.34704E-13
 -1      2070 2.04388E+01 4.28036E-02-9.86954E-05 2.59927E-01 1.07572E-13-1.92770E-13
 -1      2071 2.05753E+01 4.58636E-02 3.03780E-03 2.93307E-01 8.47660E-14-7.29349E-14
 -1      2072 2.05487E+01 6.74036E-02-3.80664E-04 3.81691E-01 1.72992E-13 7.31454E-14
 -1      2073 2.02534E+01 4.15931E-02 1.80696E-04 1.84239E-01 1.00871E-13-2.77241E-13
 -1      2074 2.03548E+01 4.32394E-02 2.62585E-03 2.16288E-01 7.76254E-14-1.87611E-13
 -1      2075 2.03486E+01 6.26116E-02-6.04612E-04 2.84959E-01 1.43449E-13-1.36072E-13
 -1      2076 2.01235E+01 4.30767E-02 8.40421E-04 1.10870E-01 1.53709E-13-2.37795E-13
 -1      2077 2.01911E+01 4.30264E-02 1.96667E-03 1.43095E-01 1.09215E-13-2.15958E-13
 -1      2078 2.01969E+01 6.17721E-02-7.24093E-04 1.93998E-01 5.59552E-14-2.48069E-13
 -1      2079 2.00534E+01 4.30236E-02 1.53230E-03 5.75296E-02-6.96522E-14-1.49763E-13
 -1      2080 2.00941E+01 4.56034E-02 1.37674E-03 8.83460E-02 3.47371E-14-1.69851E-13
 -1      2081 2.01032E+01 6.43530E-02-7.05605E-04 1.24281E-01 5.73470E-14-1.01026E-13
 -1      2082 2.00514E+01 6.34739E-02 3.42592E-07 7.48022E-02-1.86819E-13 3.81229E-14
 -1      2083 2.00020E+01 3.91857E-01-9.88223E-04 2.13446E-01-3.57164E-14 1.92043E-13
 -1      2084 2.00164E+01 3.23700E-01 1.24260E-03 2.08129E-01-9.72085E-15 2.79807E-13
 -1      2085 2.00302E+01 2.59882E-01-2.90017E-04 1.93285E-01-6.81965E-14 3.81480E-13
 -1      2086 2.00433E+01 1.98401E-01 1.60360E-03 1.71723E-01-2.95782E-13 4.56549E-13
 -1      2087 2.00350E+01 2.97076E-01 1.89891E-05 2.57894E-01-9.79588E-14 4.47664E-13
 -1      2088 2.00472E+01 1.51612E-01 2.71500E-04 1.41915E-01-3.52820E-13-5.44860E-15
 -1      2089 2.00542E+01 1.03190E-01 1.40646E-03 1.10442E-01-2.02867E-13-3.60485E-14
 -1      2090 2.00773E+01 1.05179E-01 9.48246E-04 1.36670E-01-1.23450E-13-2.83413E-14
 -1      2091 2.00628E+01 1.89041E-01-6.49298E-04 2.06793E-01-1.77751E-13 3.16995E-13
 -1      2092 1.99767E+01 5.17113E-01-1.67949E-03 1.99714E-01-3.33975E-13-6.57549E-13
 -1      2093 1.99893E+01 4.52496E-01 2.17284E-04 2.09225E-01-1.74246E-13-2.36044E-13
 -1      2094 1.99944E+01 4.20650E-01 7.15493E-04 2.68625E-01-1.98279E-13-1.99237E-13
 -1      2095 1.99565E+01 6.23604E-01-2.22203E-03 1.55899E-01-7.19763E-14-3.32184E-13
 -1      2096 1.99662E+01 5.69924E-01-8.24465E-04 1.77994E-01-1.83170E-13-3.01393E-13
 -1      2097 1.99584E+01 5.33987E-01 1.42701E-03 2.38925E-01-1.26813E-13-3.58826E-13
 -1      2098 1.99438E+01 6.95039E-01-2.47965E-03 9.01607E-02 5.23759E-14 3.18646E-13
 -1      2099 1.99494E+01 6.61037E-01-1.73138E-03 1.20724E-01 5.49409E-15 8.81282E-14
 -1      2100 1.99311E+01 6.24326E-01 2.04148E-03 1.74477E-01 1.40626E-13-1.03000E-13
 -1      2101 1.99395E+01 7.22528E-01-2.42141E-03 1.28442E-02 7.85636E-15 3.11029E-13
 -1      2102 1.99407E+01 7.12762E-01-2.34283E-03 4.71702E-02 1.77294E-16 2.98392E-13
 -1      2103 1.99152E+01 6.79643E-01 2.39296E-03 8.62750E-02-5.13024E-14 3.08924E-13
 -1      2104 1.99436E+01 7.03168E-01-2.05165E-03-6.50237E-02-9.37700E-14 1.88090E-13
 -1      2105 1.99405E+01 7.18699E-01-2.59379E-03-3.17838E-02-5.80456E-14 4.44909E-13
 -1      2106 1.99118E+01 6.93597E-01 2.43698E-03-1.24698E-02-1.45331E-13 3.28886E-13
 -1      2107 1.99551E+01 6.40243E-01-1.42495E-03-1.32902E-01-1.61177E-13-4.48850E-13
 -1      2108 1.99483E+01 6.78675E-01-2.46603E-03-1.05258E-01-1.81673E-13 6.30148E-14
 -1      2109 1.99204E+01 6.65191E-01 2.18196E-03-1.08048E-01-2.94911E-13 4.43890E-14
 -1      2110 1.99725E+01 5.44542E-01-5.72639E-04-1.81119E-01 1.87197E-14-2.71616E-13
 -1      2111 1.99628E+01 5.99234E-01-2.04460E-03-1.63008E-01 1.05182E-13-5.08874E-13
 -1      2112 1.99397E+01 5.99391E-01 1.72540E-03-1.87248E-01-1.40625E-13-2.64673E-13
 -1      2113 1.99946E+01 4.25482E-01 3.71417E-04-2.04514E-01 2.63687E-13 4.25467E-13
 -1      2114 1.99827E+01 4.90686E-01-1.40964E-03-1.98117E-01 1.69510E-13 1.68408E-13
 -1      2115 1.99672E+01 5.04419E-01 1.04182E-03-2.40450E-01 3.12383E-13-3.84268E-14
 -1      2116 2.00189E+01 2.99743E-01 1.21847E-03-1.97859E-01 1.62240E-13-1.16024E-13
 -1      2117 2.00061E+01 3.65611E-01-6.95756E-04-2.05097E-01 2.39690E-13 5.57177E-15
 -1      2118 2.00008E+01 3.90728E-01 3.05278E-04-2.60566E-01 3.26968E-13 2.11507E-13
 -1      2119 2.00414E+01 1.79252E-01 5.51428E-04-1.60805E-01-1.86307E-13 9.69971E-15
 -1      2120 2.00302E+01 2.40015E-01-1.08696E-04-1.81473E-01 4.03317E-14 6.13221E-14
 -1      2121 2.00367E+01 2.72312E-01-1.75980E-04-2.43413E-01-3.37451E-14-1.50086E-13
 -1      2122 1.00219E+01-5.48639E+00-1.91570E-01 6.26995E+00 3.42448E-13-3.96905E-13
 -1      2123 6.04368E+00-6.87866E+00-4.29564E-01 4.81885E+00 4.85612E-13-2.65510E-13
 -1      2124 2.46120E-01-6.80591E+00-3.57387E-01 4.86533E-01 1.87850E-13 6.82787E-13
 -1      2125 2.87468E-01-7.31106E+00-4.33948E-01-1.15064E+00 8.99281E-15 8.58758E-13
 -1      2126 3.49953E+00-6.48817E+00-3.15892E-01 3.99606E+00 3.11084E-13 8.24341E-14
 -1      2127 1.68328E+00-6.77912E+00-3.48456E-01 2.61365E+00 1.20737E-13 3.76477E-13
 -1      2128 6.75186E+00-5.10754E+00-8.29868E-02 5.44829E+00-5.28466E-14-1.64146E-13
 -1      2129 1.89960E+01-3.36333E+00-4.57036E-03 6.71520E+00 7.54952E-14-2.57572E-13
 -1      2130 1.50452E+01-5.17469E+00-1.78139E-01 6.30919E+00 1.69254E-13-2.05308E-13
 -1      2131 2.73882E+01-1.08415E+00 8.79980E-02 5.62197E+00 9.14824E-14-5.39735E-13
 -1      2132 2.23334E+01-2.66555E+00-1.79566E-01 5.70416E+00 6.33937E-14-2.70894E-13
 -1      2133 2.30780E+01-4.48735E+00 2.36487E-02 5.43953E+00-1.18350E-13-4.80671E-13
 -1      2134 1.95214E+01 4.01646E+00-2.70392E-02-1.70330E+00-1.88823E-13-5.51621E-13
 -1      2135 1.96474E+01 3.94589E+00-2.47302E-02-1.95467E+00-2.43594E-13-5.04156E-13
 -1      2136 1.99723E+01 3.24721E+00-1.36399E-02-1.91915E+00-2.73382E-13-4.49498E-13
 -1      2137 1.97017E+01 3.58678E+00-7.02600E-03-1.52103E+00-1.85871E-13-5.31918E-13
 -1      2138 3.95551E+01 5.43424E+00 3.96295E-01 1.80312E+00 2.47913E-13-8.02192E-13
 -1      2139 3.63409E+01 4.29960E+00 1.32259E-01 2.45881E+00 2.61458E-13-7.20424E-13
 -1      2140 4.04022E+01 7.08593E+00 2.80711E-01 5.58592E-02 4.22773E-13-9.26648E-13
 -1      2141 4.03340E+01 6.58239E+00 3.81221E-01 1.28067E+00 3.58047E-13-8.96394E-13
 -1      2142 3.63195E+01 6.53682E+00 3.56861E-01-2.77388E-01 4.15890E-13-8.35804E-13
 -1      2143 3.82193E+01 6.49666E+00 1.57496E-01-7.50174E-01 5.63327E-13-1.06060E-12
 -1      2144 3.97532E+01 7.18149E+00 3.28836E-01-1.10168E-01 5.32907E-13-8.91343E-13
 -1      2145 3.49114E+01 3.44588E+00 1.19730E-01-2.04661E+00 6.39863E-13-9.89098E-13
 -1      2146 3.80279E+01 5.08483E+00 3.21432E-01-1.52247E+00 5.42011E-13-1.13520E-12
 -1      2147 2.84289E+01-3.08682E-01-8.06205E-03-4.77358E+00 3.13027E-13-1.20970E-12
 -1      2148 3.25223E+01 9.81224E-01 9.95214E-02-3.51466E+00 3.28390E-13-1.11761E-12
 -1      2149 2.02340E+01-3.20587E+00-2.42765E-01-5.86263E+00 2.91545E-13-9.41025E-13
 -1      2150 2.53754E+01-1.32831E+00 9.64610E-02-6.28085E+00 3.77809E-13-1.17090E-12
 -1      2151 2.81235E+01-2.45695E+00 1.45412E-01-3.76238E+00 4.42146E-14-9.24205E-13
 -1      2152 1.14359E+01-5.83933E+00-3.83347E-01-5.77754E+00 3.79696E-14-8.05245E-13
 -1      2153 1.59760E+01-3.91445E+00-6.84600E-02-6.78541E+00 2.49245E-13-8.77465E-13
 -1      2154 4.75973E+00-6.95343E+00-4.01879E-01-4.42843E+00-3.11307E-13-7.43683E-13
 -1      2155 7.82965E+00-5.75601E+00-2.26510E-01-5.66252E+00-6.41709E-14-9.00460E-13
 -1      2156 5.93175E-01-7.32533E+00-4.27734E-01-1.50187E+00-5.15615E-13-6.61970E-13
 -1      2157 1.92410E+00-6.78612E+00-3.50510E-01-3.01473E+00-3.28959E-13-6.85063E-13
 -1      2158 9.76053E-01-6.25056E+00-2.78334E-01 1.98193E+00-4.51195E-13-3.20965E-13
 -1      2159 3.99801E-01-6.78413E+00-3.58578E-01 2.91367E-01-4.09582E-13-4.96769E-13
 -1      2160 5.32115E+00-5.97367E+00-2.31675E-01 5.09939E+00-4.44533E-13-3.65263E-14
 -1      2161 2.98567E+00-6.61579E+00-3.14873E-01 3.86170E+00-3.97349E-13-1.93512E-13
 -1      2162 1.19763E+01-4.63562E+00-1.10025E-01 6.74461E+00-3.49276E-13 1.49117E-14
 -1      2163 8.02530E+00-6.34244E+00-3.85261E-01 5.54458E+00-4.38649E-13 6.78763E-14
 -1      2164 8.83490E+00-5.34955E+00-1.17831E-01 6.38376E+00-8.04912E-14 1.45439E-13
 -1      2165 2.11439E+01-2.20123E+00 6.59684E-02 6.88233E+00-1.79134E-13-2.53131E-13
 -1      2166 1.63926E+01-4.26503E+00-2.63592E-01 6.22616E+00-2.26874E-13-1.92901E-13
 -1      2167 2.94178E+01 7.18059E-01 2.24871E-01 5.74627E+00-2.96263E-13 1.72307E-13
 -1      2168 2.45793E+01-1.11287E+00-1.16438E-01 5.69042E+00-2.22322E-13-2.08722E-14
 -1      2169 3.59454E+01 3.67555E+00 3.36046E-01 3.80776E+00-5.26648E-13 4.73566E-13
 -1      2170 3.19527E+01 2.32392E+00 7.08078E-02 4.35142E+00-4.86992E-13 2.77778E-13
 -1      2171 3.88088E+01 6.33055E+00 2.91363E-01 1.15096E+00-6.18727E-13 4.15779E-13
 -1      2172 3.75978E+01 5.35952E+00 3.48756E-01 2.68364E+00-6.51035E-13 3.47777E-13
 -1      2173 4.04393E+01 7.25369E+00 4.35213E-01-4.87981E-01-5.73430E-13 7.61405E-13
 -1      2174 3.88896E+01 7.36140E+00 2.21265E-01 6.13494E-01-6.25056E-13 4.45671E-13
 -1      2175 3.74401E+01 5.94472E+00 1.59796E-01-1.83795E+00-3.33955E-13 6.59195E-13
 -1      2176 4.01687E+01 6.65811E+00 4.15607E-01-1.04108E+00-3.84026E-13 7.28084E-13
 -1      2177 3.58173E+01 7.89646E+00 3.11426E-01 1.09707E-01-4.28213E-13 2.79166E-13
 -1      2178 3.24124E+01 2.32537E+00 5.17000E-02-2.83999E+00-2.39864E-13 4.44311E-13
 -1      2179 3.62406E+01 4.24271E+00 3.54070E-01-2.53573E+00-2.63067E-13 5.06928E-13
 -1      2180 2.45924E+01-1.48333E+00-8.64895E-02-5.54918E+00-4.82392E-13 4.22551E-13
 -1      2181 2.94133E+01-9.69792E-02 5.64153E-02-4.62916E+00-2.53741E-13 3.93574E-13
 -1      2182 1.64709E+01-4.42082E+00-1.43980E-01-6.38083E+00-4.17666E-13 3.76615E-13
 -1      2183 2.10978E+01-2.37837E+00 6.74622E-02-6.90182E+00-5.93192E-13 4.47475E-13
 -1      2184 2.46083E+01-3.74274E+00 4.74062E-02-5.02423E+00-1.89349E-13 9.03166E-14
 -1      2185 6.77987E+00-6.73277E+00-4.77961E-01-5.16216E+00 4.77951E-14 1.14632E-12
 -1      2186 1.10557E+01-5.02538E+00-2.14180E-01-6.53304E+00-2.27374E-13 7.61662E-13
 -1      2187 1.70156E+00-7.28122E+00-4.33938E-01-2.90909E+00 1.25872E-13 8.42659E-13
 -1      2188 3.83903E+00-6.27837E+00-2.97517E-01-4.43533E+00 1.12133E-14 1.20320E-12
 -1      2189 3.47144E+01 2.25859E+00 2.62334E-01 3.28573E+00 2.40875E-13-7.00107E-13
 -1      2190 3.05196E+01 4.14868E-01-3.46145E-02 3.61714E+00 2.74267E-13-6.43374E-13
 -1      2191 2.97862E+01-1.66856E+00 1.28575E-01 2.82770E+00 8.63337E-14-7.59282E-13
 -1      2192 2.07224E+01 1.10869E+00-2.06612E-02-1.61692E+00-3.23842E-13 4.43482E-14
 -1      2193 3.32458E+01 1.47077E+00 9.87521E-02-1.51964E+00 2.81247E-13-7.76490E-13
 -1      2194 3.24409E+01 1.89914E+00-1.15497E-01 6.97059E-01 2.53603E-13-4.01346E-13
 -1      2195 3.10889E+01-3.66302E-01 7.30129E-02-7.03844E-01-5.38042E-14-5.42677E-13
 -1      2196 3.40305E+01 2.68149E+00 2.03553E-01 3.01590E-01 2.65288E-13-8.63642E-13
 -1      2197 2.06162E+01 1.33072E+00-1.85275E-02-1.67879E+00-3.41806E-13-1.17871E-13
 -1      2198 2.26486E+00-4.73774E+00-1.62162E-01 1.95807E+00-2.34923E-13 5.51559E-13
 -1      2199 1.75436E+01-5.74086E+00-1.68981E-01 6.59244E+00-4.99600E-15-4.50182E-13
 -1      2200 1.39163E+01-5.54911E+00-7.25071E-02 6.51441E+00 1.87461E-13-3.15987E-13
 -1      2201 1.32410E+01-5.16990E+00 1.37689E-01 6.79330E+00-1.66533E-15-5.17267E-13
 -1      2202 2.00534E+01 1.46349E-01 9.15717E-04-1.53024E-01-2.38317E-13-8.65539E-14
 -1      2203 2.38685E+00-4.81441E+00-1.83454E-01-2.68323E+00 2.37310E-14 8.59424E-13
 -1      2204 1.53608E+01-5.11574E+00-8.79271E-02-6.66981E+00-1.69753E-13 4.51056E-13
 -1      2205 1.93098E+01-5.48374E+00-1.23546E-01-6.40454E+00-2.88658E-15 1.48298E-13
 -1      2206 1.46838E+01-5.21752E+00 1.31385E-01-6.98559E+00 4.04121E-14 5.13312E-13
 -1      2207 3.43623E+01 4.97414E+00 1.73277E-01-1.63188E-02-1.88793E-13 2.52409E-13
 -1      2208 3.68484E+01 7.04535E+00 2.33802E-01 2.32524E-01-6.08402E-13 3.90632E-13
 -1      2209 3.34081E+01 6.61024E+00 1.97949E-02-4.29757E-01-6.07903E-13 3.16108E-13
 -1      2210 3.33351E+01 7.61264E+00-3.05976E-02-4.47717E-01-6.29718E-13 1.91687E-13
 -1      2211 3.46096E+01 4.24844E+00 2.93538E-01 8.64910E-01-5.45397E-13 3.72202E-13
 -1      2212 3.09357E+01 1.93713E-01 2.05096E-01 2.78703E+00-3.24171E-13 4.94382E-13
 -1      2213 1.64849E+01-5.33944E+00-5.51071E-02 6.78473E+00-6.37268E-14 3.13638E-14
 -1      2214 3.56619E+00-4.55143E+00-1.10234E-01 3.57092E+00-1.65756E-13-2.66009E-13
 -1      2215 1.72552E+00-4.58872E+00-1.71208E-01-7.64038E-01-3.47687E-13-5.94080E-13
 -1      2216 5.02447E+00-5.34411E+00-1.76745E-01-4.68915E+00-3.24352E-13-8.28726E-13
 -1      2217 2.06906E+01-4.92765E+00-7.42053E-03-6.01445E+00-1.60982E-14-8.11462E-13
 -1      2218 3.60714E+01 7.83522E+00 2.65668E-01 1.75638E-01 5.17697E-13-6.58432E-13
 -1      2219 3.50798E+01 5.91755E+00 1.88258E-01 4.83717E-01 4.78673E-13-7.11264E-13
 -1      2220 1.21268E+01-5.75760E+00-1.13639E-01-6.56094E+00-2.54075E-13-8.29670E-13
 -1      2221 2.48065E+01-3.34416E+00 7.04819E-02 5.14852E+00-1.08802E-14 1.42553E-13
 -1      2222 3.09077E+01 2.37776E-01 7.03496E-02-2.55415E+00-1.16240E-13 2.94653E-13
 -1      2223 3.08264E+01 4.51427E-01-1.62370E-01-1.36803E-01 4.78367E-14 1.54321E-14
 -1      2224 2.90737E+01-1.69843E+00 1.06428E-01-1.98941E+00-4.32571E-14 6.83897E-14
 -1      2225 7.27546E+00-5.38006E+00-1.37361E-01-5.85000E+00 8.38773E-14 1.05296E-12
 -1      2226 2.01377E+01 5.07255E-01 3.78993E-03 6.78302E-01 2.89407E-13 3.33959E-13
 -1      2227 2.04053E+01 7.00494E-01 2.08067E-02 9.70241E-01 3.25504E-13 3.94059E-13
 -1      2228 1.95710E+01 3.52060E+00-1.11769E-02-5.90931E-01 9.82238E-15-5.05464E-13
 -1      2229 1.96056E+01 3.47433E+00-1.05025E-02-7.75239E-01-4.50674E-14-5.19603E-13
 -1      2230 1.96510E+01 3.38561E+00-1.27322E-02-9.39777E-01-7.94799E-14-5.30772E-13
 -1      2231 1.97109E+01 3.30405E+00-1.25818E-02-1.12919E+00-1.22572E-13-5.38861E-13
 -1      2232 1.97965E+01 3.03804E+00 2.19751E-04-7.91364E-01-5.95979E-14-4.94646E-13
 -1      2233 1.95248E+01 3.60412E+00-9.63559E-03 9.94041E-02 1.78020E-13-4.69825E-13
 -1      2234 1.95242E+01 3.60485E+00-9.67743E-03-7.99006E-02 1.26836E-13-4.82584E-13
 -1      2235 1.95503E+01 3.56421E+00-9.73000E-03 4.45078E-01 2.38684E-13-4.71795E-13
 -1      2236 1.95333E+01 3.58699E+00-1.01820E-02 2.64360E-01 2.03657E-13-4.75911E-13
 -1      2237 1.96907E+01 3.22822E+00-8.53480E-04 1.69271E-01 1.79225E-13-4.47386E-13
 -1      2238 1.96107E+01 3.46678E+00-1.06145E-02 7.88965E-01 2.94578E-13-4.35537E-13
 -1      2239 1.95752E+01 3.51417E+00-1.12456E-02 6.07546E-01 2.64040E-13-4.61861E-13
 -1      2240 1.97268E+01 3.16388E+00-4.49603E-04 4.87199E-01 2.38634E-13-4.36695E-13
 -1      2241 1.97188E+01 3.29189E+00-1.29453E-02 1.14245E+00 3.56889E-13-3.32106E-13
 -1      2242 1.96575E+01 3.37571E+00-1.29126E-02 9.53108E-01 3.21925E-13-3.90301E-13
 -1      2243 1.98022E+01 3.02907E+00 3.04179E-04 8.02742E-01 2.97424E-13-3.76138E-13
 -1      2244 1.98942E+01 3.00509E+00-1.81612E-02 1.48995E+00 4.17454E-13-2.06869E-13
 -1      2245 1.97968E+01 3.14684E+00-1.52048E-02 1.29935E+00 3.78733E-13-2.81234E-13
 -1      2246 1.99286E+01 2.80250E+00 1.95733E-03 1.10917E+00 3.56683E-13-2.75708E-13
 -1      2247 2.01675E+01 2.54457E+00-2.84001E-02 1.79485E+00 4.49101E-13-2.82933E-14
 -1      2248 2.00190E+01 2.78432E+00-1.70892E-02 1.62019E+00 4.24946E-13-1.36330E-13
 -1      2249 2.01193E+01 2.45052E+00 5.86546E-03 1.37554E+00 3.97671E-13-1.55344E-13
 -1      2250 1.98620E+01 2.69869E-01 4.81822E-03 2.84389E-01 2.28428E-13 2.37662E-13
 -1      2251 2.00220E+01 3.69159E-01 2.01933E-02 4.42241E-01 2.50900E-13 2.96255E-13
 -1      2252 2.02041E+01 6.36055E-01-2.28367E-03 7.04343E-01 3.13091E-13 1.73965E-13
 -1      2253 2.03912E+01 8.58138E-01 1.29138E-02-1.00089E+00-2.74906E-13-1.77975E-13
 -1      2254 2.01805E+01 6.27169E-01-5.56321E-03-6.86725E-01-2.45379E-13-1.74771E-13
 -1      2255 2.01240E+01 4.71858E-01 1.78198E-02-4.78011E-01-2.23281E-13-1.51262E-13
 -1      2256 1.99779E+01 3.49786E-01 5.34534E-04-3.01920E-01-1.76567E-13-1.57387E-13
 -1      2257 2.02358E+01 7.27347E-01-9.81844E-03-6.88798E-01-2.34466E-13-2.29135E-13
 -1      2258 1.99165E+01 2.63365E-01 1.09858E-02-1.62097E-01-1.57002E-13-1.52837E-13
 -1      2259 1.98392E+01 1.92869E-01 9.27408E-04-6.31116E-02-1.46197E-13-1.87986E-13
 -1      2260 2.00765E+01 4.21911E-01-4.19645E-03-3.05562E-01-1.79084E-13-2.09512E-13
 -1      2261 1.97967E+01 1.44372E-01 6.46128E-03 2.14166E-02-1.31899E-13-1.68065E-13
 -1      2262 1.97646E+01 1.03451E-01 1.00064E-03 7.73495E-02-1.02189E-13-1.74215E-13
 -1      2263 1.99612E+01 2.34387E-01-3.68580E-03-6.25890E-02-1.38836E-13-1.91743E-13
 -1      2264 1.97413E+01 7.50835E-02 3.62173E-03 1.26747E-01-8.88808E-14-1.74590E-13
 -1      2265 1.97385E+01 5.15520E-02 9.75278E-04 1.57213E-01-8.02642E-14-1.68672E-13
 -1      2266 1.98901E+01 1.25612E-01-3.05238E-03 8.46850E-02-1.08125E-13-1.94482E-13
 -1      2267 1.97306E+01 3.53584E-02 1.89529E-03 1.84843E-01-8.83592E-14-1.80935E-13
 -1      2268 1.97465E+01 2.27443E-02 9.75435E-04 2.00561E-01-7.28063E-14-1.93546E-13
 -1      2269 1.98572E+01 6.25844E-02-2.31302E-03 1.70664E-01-9.40463E-14-2.16515E-13
 -1      2270 1.97499E+01 1.45045E-02 8.38176E-04 2.15500E-01-5.58383E-14-2.13696E-13
 -1      2271 1.97778E+01 9.21602E-03 1.02042E-03 2.23457E-01-5.08065E-14-2.31610E-13
 -1      2272 1.98527E+01 2.81632E-02-1.69256E-03 2.19127E-01-7.22397E-14-2.16339E-13
 -1      2273 1.97893E+01 6.48386E-03 1.96951E-04 2.32098E-01-6.97297E-14-1.51428E-13
 -1      2274 1.98252E+01 6.35705E-03 1.12283E-03 2.37094E-01-8.80404E-14-1.47623E-13
 -1      2275 1.98686E+01 1.28905E-02-1.24471E-03 2.46669E-01-3.21409E-14-2.19545E-13
 -1      2276 1.98428E+01 7.60192E-03-1.76104E-04 2.44033E-01-1.05756E-13-1.41858E-13
 -1      2277 1.98849E+01 1.12522E-02 1.28831E-03 2.49497E-01-7.43649E-14-1.57559E-13
 -1      2278 1.98993E+01 1.10619E-02-9.56735E-04 2.65106E-01-9.19529E-14-1.64086E-13
 -1      2279 1.99075E+01 1.54479E-02-3.72120E-04 2.58114E-01-3.05576E-14-1.67186E-13
 -1      2280 1.99552E+01 2.19212E-02 1.51409E-03 2.66563E-01-1.87091E-14-1.61948E-13
 -1      2281 1.99415E+01 1.90234E-02-7.97651E-04 2.83023E-01-6.51788E-14-1.89725E-13
 -1      2282 1.99825E+01 2.83071E-02-4.50321E-04 2.79369E-01-1.11532E-14-1.51220E-13
 -1      2283 2.00365E+01 3.68544E-02 1.78855E-03 2.92643E-01 1.66111E-15-1.07723E-13
 -1      2284 1.99937E+01 3.42420E-02-7.36800E-04 3.06762E-01-2.32074E-14-1.18764E-13
 -1      2285 2.00687E+01 4.47606E-02-4.49042E-04 3.11458E-01-1.65955E-14-1.65855E-13
 -1      2286 2.01304E+01 5.46504E-02 2.08910E-03 3.30816E-01-1.79791E-14-1.84694E-13
 -1      2287 2.00558E+01 5.47116E-02-7.48691E-04 3.40976E-01-2.44880E-14-2.18683E-13
 -1      2288 2.01683E+01 6.33325E-02-3.90499E-04 3.56812E-01-3.73986E-14-1.87959E-13
 -1      2289 2.02393E+01 7.36573E-02 2.37759E-03 3.82881E-01-2.64949E-14-1.85689E-13
 -1      2290 2.01287E+01 7.84695E-02-8.13782E-04 3.88884E-01-6.54032E-14-1.86340E-13
 -1      2291 2.02842E+01 8.21098E-02-2.82268E-04 4.16485E-01-5.16988E-14-2.02370E-13
 -1      2292 2.03665E+01 9.15558E-02 2.59359E-03 4.49074E-01-8.24975E-14-1.66739E-13
 -1      2293 2.02145E+01 1.03103E-01-9.19471E-04 4.52217E-01-5.14849E-14-1.42235E-13
 -1      2294 2.04199E+01 9.82831E-02-1.16126E-04 4.89713E-01-1.16675E-13-1.92990E-13
 -1      2295 2.05151E+01 1.04847E-01 2.64604E-03 5.27457E-01-1.14320E-13-2.07560E-13
 -1      2296 2.03157E+01 1.25174E-01-1.06317E-03 5.30877E-01-1.12546E-13-1.94028E-13
 -1      2297 2.05792E+01 1.07586E-01 1.35078E-04 5.73120E-01-8.18173E-14-2.33492E-13
 -1      2298 2.06884E+01 1.08247E-01 2.40518E-03 6.12932E-01-1.22369E-13-2.21933E-13
 -1      2299 2.04357E+01 1.39518E-01-1.25711E-03 6.22249E-01-1.11147E-13-2.38586E-13
 -1      2300 2.07660E+01 1.03675E-01 5.20479E-04 6.59528E-01-2.20965E-13-2.01720E-13
 -1      2301 2.08892E+01 9.40914E-02 1.69870E-03 6.95868E-01-2.04035E-13-2.20469E-13
 -1      2302 2.05787E+01 1.38461E-01-1.53379E-03 7.20125E-01-1.71029E-13-2.95034E-13
 -1      2303 2.09840E+01 7.76251E-02 1.10921E-03 7.36369E-01-1.16921E-13-2.08478E-13
 -1      2304 2.11193E+01 5.20575E-02 3.19275E-04 7.60410E-01-7.64137E-14-2.12069E-13
 -1      2305 2.07502E+01 1.11137E-01-1.94888E-03 8.13221E-01-1.49797E-13-1.73803E-13
 -1      2306 2.12363E+01 1.80337E-02 1.97261E-03 7.83877E-01-6.19364E-14-2.37865E-13
 -1      2307 2.13795E+01-3.00717E-02-1.94011E-03 7.82858E-01-9.96116E-15-2.52688E-13
 -1      2308 2.09573E+01 4.34154E-02-2.57015E-03 8.83375E-01-7.06573E-14-2.46949E-13
 -1      2309 2.15246E+01-8.72856E-02 3.13227E-03 7.73621E-01 5.28560E-14-2.34312E-13
 -1      2310 2.16680E+01-1.63225E-01-5.19004E-03 7.31004E-01 1.43421E-13-1.90961E-13
 -1      2311 2.12091E+01-8.04348E-02-3.42472E-03 9.03740E-01 3.09046E-14-2.71562E-13
 -1      2312 2.18464E+01-2.46234E-01 4.43612E-03 6.68730E-01 1.42297E-13-2.75170E-13
 -1      2313 2.19780E+01-3.49296E-01-9.26222E-03 5.66394E-01 1.04207E-13-2.73308E-13
 -1      2314 2.15153E+01-2.72327E-01-4.36428E-03 8.37869E-01 1.00613E-13-3.12309E-13
 -1      2315 2.21895E+01-4.51773E-01 5.27531E-03 4.28714E-01 1.43497E-13-2.83065E-13
 -1      2316 2.22916E+01-5.66894E-01-1.33128E-02 2.53016E-01 1.52899E-13-2.72401E-13
 -1      2317 2.18818E+01-5.28233E-01-4.87123E-03 6.41830E-01 9.59807E-14-4.13909E-13
 -1      2318 2.25217E+01-6.64672E-01 4.52701E-03 2.40165E-02 7.17781E-14-3.17748E-13
 -1      2319 2.25715E+01-7.52817E-01-1.53917E-02-2.22149E-01 4.18012E-14-3.19741E-13
 -1      2320 2.22986E+01-8.07747E-01-3.85819E-03 2.74004E-01 9.58437E-14-4.87423E-13
 -1      2321 2.27803E+01-7.97041E-01 5.52390E-04-5.34266E-01 3.33848E-14-3.10533E-13
 -1      2322 2.27551E+01-7.92265E-01-1.23361E-02-8.14698E-01 7.75768E-15-2.17582E-13
 -1      2323 2.27219E+01-1.01148E+00 1.83242E-05-2.79623E-01 3.69006E-14-4.37419E-13
 -1      2324 2.28732E+01-7.14709E-01-7.37653E-03-1.15088E+00-6.51176E-14-1.62176E-13
 -1      2325 2.27629E+01-5.46011E-01-1.49967E-03-1.38158E+00-6.96830E-14-1.05427E-13
 -1      2326 2.30572E+01-9.76698E-01 7.12148E-03-9.60747E-01 5.64902E-15-2.74026E-13
 -1      2327 2.27192E+01-2.97471E-01-1.72675E-02-1.61083E+00-9.14039E-14-1.18584E-13
 -1      2328 2.25458E+01 4.59760E-02 1.35023E-02-1.66992E+00-9.10483E-14-1.70471E-13
 -1      2329 2.31719E+01-5.36170E-01 1.37635E-02-1.58193E+00-8.98588E-14-2.46678E-13
 -1      2330 2.23445E+01 4.20608E-01-2.28029E-02-1.62631E+00-1.01973E-13-1.22522E-13
 -1      2331 2.21706E+01 8.20997E-01 2.16186E-02-1.41976E+00-1.31319E-13-1.88312E-13
 -1      2332 2.29871E+01 3.14916E-01 9.38676E-03-1.82220E+00-1.28175E-13-1.90657E-13
 -1      2333 2.19457E+01 1.15342E+00-1.41952E-02-1.02538E+00-2.17059E-13-2.62762E-13
 -1      2334 2.18503E+01 1.38915E+00 1.41798E-02-5.78465E-01-2.76744E-13-2.96513E-13
 -1      2335 2.26145E+01 1.27730E+00-7.79032E-03-1.38955E+00-2.62057E-13-7.05501E-14
 -1      2336 2.17932E+01 1.46827E+00 5.79947E-03 3.39350E-02-3.32880E-13-2.83017E-13
 -1      2337 2.18264E+01 1.37962E+00-5.22425E-03 5.38542E-01-3.38643E-13-2.72424E-13
 -1      2338 2.23593E+01 1.84295E+00-1.80075E-02-3.12742E-01-3.49067E-13 1.23990E-14
 -1      2339 2.19900E+01 1.14963E+00 2.07493E-02 1.06774E+00-2.71632E-13-2.94002E-13
 -1      2340 2.21324E+01 8.01103E-01-2.02945E-02 1.40463E+00-7.41707E-14-2.15749E-13
 -1      2341 2.24551E+01 1.63421E+00-1.33455E-02 9.20863E-01-2.92948E-13 4.18936E-15
 -1      2342 2.23697E+01 4.18211E-01 1.95042E-02 1.62115E+00 4.35719E-14-2.87275E-13
 -1      2343 2.25524E+01 2.19508E-02-2.09266E-02 1.68327E+00 6.68548E-14-3.45040E-13
 -1      2344 2.28107E+01 7.99538E-01 3.16053E-03 1.69747E+00-9.78909E-14-8.20394E-14
 -1      2345 2.26793E+01-3.01599E-01 6.03798E-03 1.56522E+00 1.63289E-13-2.89362E-13
 -1      2346 2.28238E+01-5.60268E-01-1.19088E-02 1.40112E+00 2.56003E-13-2.31118E-13
 -1      2347 2.31154E+01-1.68425E-01 1.38803E-02 1.75885E+00 1.28953E-13-1.19446E-13
 -1      2348 2.27765E+01-7.18311E-01-7.70247E-03 1.09537E+00 2.71809E-13-1.72364E-13
 -1      2349 2.28409E+01-7.95585E-01-2.65273E-03 8.24657E-01 2.71940E-13-1.32971E-13
 -1      2350 2.31418E+01-8.23370E-01 1.15930E-02 1.27523E+00 2.45513E-13-1.13876E-13
 -1      2351 2.26653E+01-8.01834E-01-1.45653E-02 4.88169E-01 2.14852E-13-3.48938E-14
 -1      2352 2.26468E+01-7.49429E-01 3.10223E-03 2.17065E-01 2.22413E-13-4.89795E-14
 -1      2353 2.28946E+01-1.03912E+00 3.63599E-03 5.88452E-01 2.57085E-13-1.33065E-13
 -1      2354 2.24190E+01-6.69821E-01-1.46714E-02-5.68543E-02 2.57077E-13-3.27180E-15
 -1      2355 2.23365E+01-5.61117E-01 5.15703E-03-2.69699E-01 2.86348E-13 1.72528E-14
 -1      2356 2.24963E+01-9.28423E-01-2.22685E-03-4.34437E-02 2.57852E-13-4.91234E-14
 -1      2357 2.21117E+01-4.56365E-01-1.12910E-02-4.51598E-01 1.30185E-13-6.66175E-14
 -1      2358 2.19891E+01-3.44248E-01 4.88494E-03-5.89390E-01-7.86474E-14-1.86974E-13
 -1      2359 2.20653E+01-6.68902E-01-4.62459E-03-5.04907E-01 1.97455E-13-1.40986E-13
 -1      2360 2.17930E+01-2.49947E-01-7.08000E-03-6.86429E-01-5.32764E-14-8.55235E-14
 -1      2361 2.16507E+01-1.59807E-01 3.73720E-03-7.56566E-01-9.03737E-15-4.06107E-14
 -1      2362 2.16692E+01-3.93060E-01-4.73639E-03-7.81818E-01-5.12860E-14-8.88665E-14
 -1      2363 2.14888E+01-8.95063E-02-3.37989E-03-7.89315E-01-2.31177E-14 2.05028E-14
 -1      2364 2.13417E+01-2.75431E-02 2.54057E-03-8.08534E-01-1.45445E-13 2.16736E-13
 -1      2365 2.13316E+01-1.67067E-01-3.93526E-03-9.06576E-01 4.16570E-14 1.53952E-13
 -1      2366 2.12108E+01 1.81711E-02-6.41855E-04-7.98495E-01-1.44547E-13 4.20605E-13
 -1      2367 2.10689E+01 5.53739E-02 1.62157E-03-7.84139E-01-1.10777E-14 5.75579E-13
 -1      2368 2.10525E+01-8.95969E-03-3.03111E-03-9.23207E-01 2.07470E-14 4.07820E-13
 -1      2369 2.09633E+01 8.14532E-02 1.13416E-03-7.48828E-01-1.09267E-13 6.55198E-13
 -1      2370 2.08327E+01 1.00564E-01 1.04017E-03-7.14992E-01 6.91575E-15 5.51785E-13
 -1      2371 2.08235E+01 8.80598E-02-2.32383E-03-8.71410E-01-2.55443E-14 6.81804E-13
 -1      2372 2.07470E+01 1.13251E-01 2.12210E-03-6.66851E-01 2.29273E-13 4.26766E-13
 -1      2373 2.06313E+01 1.21011E-01 7.53869E-04-6.23364E-01 4.97161E-13 2.89614E-13
 -1      2374 2.06353E+01 1.39698E-01-1.83886E-03-7.81412E-01 6.61399E-14 4.94960E-13
 -1      2375 2.05612E+01 1.25957E-01 2.52850E-03-5.70211E-01 4.67151E-13 1.74534E-13
 -1      2376 2.04620E+01 1.27944E-01 6.83713E-04-5.22964E-01 2.82126E-13 1.98653E-13
 -1      2377 2.04800E+01 1.62362E-01-1.50482E-03-6.73660E-01 3.50749E-13 2.86467E-13
 -1      2378 2.04042E+01 1.29550E-01 2.52565E-03-4.68981E-01 2.19700E-13 4.89439E-14
 -1      2379 2.03217E+01 1.29925E-01 7.62663E-04-4.20840E-01 4.09495E-14 2.17599E-13
 -1      2380 2.03515E+01 1.69787E-01-1.25002E-03-5.60302E-01 2.24223E-13 3.48324E-15
 -1      2381 2.02734E+01 1.31104E-01 2.21290E-03-3.67579E-01-1.18796E-13 2.14374E-13
 -1      2382 2.02080E+01 1.32476E-01 1.15283E-03-3.19393E-01-2.64212E-13 1.97671E-13
 -1      2383 2.02449E+01 1.72237E-01-9.65981E-04-4.47324E-01 6.93288E-14-1.64257E-13
 -1      2384 9.56115E+00-4.21087E+00 4.60480E-02 6.16489E+00-2.62707E-13-3.45252E-13
 -1      2385 6.94217E+00-3.67919E+00 8.82643E-02 4.94443E+00-4.24161E-13-9.25648E-14
 -1      2386 1.96216E+01 7.70737E-02 2.28263E-03-7.34289E-02 9.57230E-14 1.14024E-13
 -1      2387 1.96464E+01 1.07838E-01 6.96520E-03-2.53480E-02 1.21428E-13 1.48929E-13
 -1      2388 1.96051E+01 3.76032E-02 1.65294E-03-1.45123E-01 1.09756E-13 9.45892E-14
 -1      2389 1.95978E+01 5.51906E-02 3.76375E-03-1.19658E-01 1.00578E-13 1.11299E-13
 -1      2390 1.97712E+01 9.69921E-02-3.33528E-03-8.30139E-02 1.21812E-13 2.42796E-15
 -1      2391 1.96280E+01 1.57743E-02 1.31975E-03-1.82419E-01 1.11378E-13 1.30174E-13
 -1      2392 1.96014E+01 2.52350E-02 1.93217E-03-1.69839E-01 1.03030E-13 1.07193E-13
 -1      2393 1.97443E+01 4.66215E-02-2.49787E-03-1.63572E-01 1.04774E-13 3.02647E-14
 -1      2394 1.96761E+01 5.41227E-03 1.17174E-03-2.00719E-01 9.78504E-14 1.40036E-13
 -1      2395 1.96380E+01 9.47990E-03 8.74825E-04-1.94855E-01 1.03390E-13 1.41070E-13
 -1      2396 1.97516E+01 1.93320E-02-1.79694E-03-2.07228E-01 8.58383E-14 3.29922E-14
 -1      2397 1.97411E+01 3.05728E-03 1.17049E-03-2.10505E-01 9.65369E-14 1.60289E-13
 -1      2398 1.96956E+01 3.29482E-03 2.71805E-04-2.07140E-01 1.05339E-13 1.63321E-13
 -1      2399 1.97822E+01 7.18105E-03-1.30589E-03-2.30595E-01 8.36151E-14 9.10440E-14
 -1      2400 1.98184E+01 6.66846E-03 1.30089E-03-2.19319E-01 1.11543E-13 1.10125E-13
 -1      2401 1.97674E+01 4.00352E-03-4.40019E-05-2.15382E-01 1.21743E-13 1.72942E-13
 -1      2402 1.98290E+01 5.67955E-03-1.00523E-03-2.45271E-01 1.20507E-13 1.00017E-13
 -1      2403 1.99068E+01 1.50237E-02 1.55541E-03-2.32897E-01 7.96429E-14 5.10919E-14
 -1      2404 1.98502E+01 1.00067E-02-1.70625E-04-2.26003E-01 1.03761E-13 8.01744E-14
 -1      2405 1.98882E+01 1.21774E-02-8.56769E-04-2.59745E-01 1.42212E-13 7.03419E-14
 -1      2406 2.00075E+01 2.73984E-02 1.92847E-03-2.55848E-01 1.63680E-13 1.17571E-14
 -1      2407 1.99440E+01 2.03487E-02-1.71423E-04-2.44032E-01 1.24024E-13 2.00201E-14
 -1      2408 1.99584E+01 2.50892E-02-8.24376E-04-2.80533E-01 1.24943E-13 6.67230E-15
 -1      2409 2.01235E+01 4.33496E-02 2.41276E-03-2.92068E-01 9.63401E-14 1.02404E-14
 -1      2410 2.00507E+01 3.44624E-02-9.03789E-05-2.73627E-01 1.56724E-13 2.51658E-14
 -1      2411 2.00401E+01 4.34665E-02-8.77709E-04-3.12894E-01 1.48491E-13 2.45761E-14
 -1      2412 2.02594E+01 6.25106E-02 2.99336E-03-3.44927E-01-5.32143E-15 1.06894E-14
 -1      2413 2.01740E+01 5.19670E-02 4.03678E-05-3.18365E-01 3.70868E-14 2.58222E-15
 -1      2414 2.01351E+01 6.66905E-02-9.91208E-04-3.61237E-01 7.21416E-14 4.83646E-14
 -1      2415 2.04206E+01 8.43254E-02 3.63792E-03-4.17239E-01 4.40450E-14-2.45403E-14
 -1      2416 2.03188E+01 7.24438E-02 1.96390E-04-3.81319E-01 1.60278E-14-1.00090E-14
 -1      2417 2.02465E+01 9.41621E-02-1.14313E-03-4.29293E-01 3.49886E-14-4.60890E-15
 -1      2418 2.06135E+01 1.07642E-01 4.28102E-03-5.10916E-01 5.90569E-14-3.21999E-14
 -1      2419 2.04910E+01 9.51144E-02 3.59081E-04-4.64885E-01 6.69281E-14-1.36466E-14
 -1      2420 2.03780E+01 1.24884E-01-1.31629E-03-5.20010E-01 3.98643E-14-5.52134E-15
 -1      2421 2.08443E+01 1.30054E-01 4.80072E-03-6.26161E-01 2.30488E-14-1.66460E-14
 -1      2422 2.06971E+01 1.18331E-01 5.16854E-04-5.70228E-01 2.97862E-14 4.56346E-15
 -1      2423 2.05339E+01 1.56813E-01-1.50347E-03-6.35089E-01 2.41261E-14 2.55765E-14
 -1      2424 2.11189E+01 1.46851E-01 4.98718E-03-7.59957E-01-6.52523E-14-9.64409E-15
 -1      2425 2.09437E+01 1.38748E-01 6.71219E-04-6.96167E-01 9.25995E-15 8.51290E-15
 -1      2426 2.07188E+01 1.85828E-01-1.71949E-03-7.73990E-01-3.33822E-14 2.96241E-14
 -1      2427 2.14421E+01 1.49490E-01 4.50858E-03-9.03515E-01-8.87612E-14-9.31790E-15
 -1      2428 2.12372E+01 1.50052E-01 8.50257E-04-8.37205E-01-1.17970E-13-3.01584E-14
 -1      2429 2.09379E+01 2.04128E-01-2.02257E-03-9.32165E-01-7.08082E-14-2.69262E-14
 -1      2430 2.18164E+01 1.23689E-01 2.89103E-03-1.03838E+00 6.44265E-14-3.21641E-14
 -1      2431 2.15836E+01 1.41202E-01 1.13071E-03-9.80324E-01 1.21464E-14 2.12039E-14
 -1      2432 2.11977E+01 1.98014E-01-2.54545E-03-1.09818E+00-7.71149E-14-1.34108E-14
 -1      2433 2.22420E+01 4.80222E-02-4.54591E-04-1.13122E+00 7.53007E-14 6.29705E-16
 -1      2434 2.19877E+01 9.45850E-02 1.66178E-03-1.10032E+00 6.43837E-14-3.01037E-14
 -1      2435 2.15072E+01 1.45420E-01-3.52182E-03-1.24948E+00 6.78715E-14-3.34546E-14
 -1      2436 2.27147E+01-1.04346E-01-6.03700E-03-1.12848E+00-6.00713E-14 1.04141E-13
 -1      2437 2.24531E+01-1.44302E-02 2.64067E-03-1.15397E+00 3.86835E-14 6.01053E-14
 -1      2438 2.18804E+01 1.48904E-02-5.25657E-03-1.34675E+00 3.72526E-15-1.97021E-15
 -1      2439 2.32236E+01-3.54683E-01-1.36893E-02-9.54910E-01-2.20827E-13 9.18666E-14
 -1      2440 2.29793E+01-2.12365E-01 4.23905E-03-1.07510E+00-8.72611E-14 1.53320E-13
 -1      2441 2.23382E+01-2.29372E-01-7.83959E-03-1.32794E+00-7.04425E-14 1.74400E-13
 -1      2442 2.37423E+01-6.89525E-01-2.19450E-02-5.26011E-01-2.28692E-13 1.86591E-15
 -1      2443 2.35525E+01-5.09083E-01 6.10505E-03-7.77471E-01-2.76431E-13 6.42607E-14
 -1      2444 2.29045E+01-6.06679E-01-1.04154E-02-1.10627E+00-1.97281E-13 1.70028E-13
 -1      2445 2.42095E+01-1.00878E+00-2.75716E-02 2.07972E-01-1.86809E-13 8.08947E-14
 -1      2446 2.41253E+01-8.56985E-01 5.78900E-03-1.80637E-01-2.40599E-13-1.09335E-14
 -1      2447 2.35859E+01-1.07088E+00-1.09440E-02-5.85079E-01-2.12354E-13-1.62811E-14
 -1      2448 2.45123E+01-1.06893E+00-2.20368E-02 1.17739E+00-1.55635E-13 2.84994E-13
 -1      2449 2.45859E+01-1.09049E+00-1.82674E-04 7.24807E-01-1.53888E-13 1.52467E-13
 -1      2450 2.43325E+01-1.45023E+00-8.91515E-03 2.97729E-01-2.36534E-13 6.88490E-14
 -1      2451 2.44945E+01-5.56306E-01 3.66155E-03 2.02276E+00-1.80773E-13 4.68101E-13
 -1      2452 2.47153E+01-8.93036E-01-1.83102E-02 1.72194E+00-1.83688E-13 4.26641E-13
 -1      2453 2.49269E+01-1.35189E+00-1.09844E-02 1.45438E+00-2.51470E-13 2.31773E-13
 -1      2454 2.40818E+01 5.52969E-01 1.88736E-02 2.22332E+00 5.58789E-14 5.98886E-13
 -1      2455 2.43958E+01-9.09091E-02-4.38174E-02 2.30150E+00-4.05713E-14 5.79876E-13
 -1      2456 2.51600E+01-4.05439E-01 4.86590E-03 2.43984E+00-1.73944E-13 4.99182E-13
 -1      2457 2.35452E+01 1.67136E+00 7.01398E-03 1.26297E+00 1.77997E-13 6.23359E-13
 -1      2458 2.37490E+01 1.13382E+00-6.33990E-02 1.81659E+00 1.38247E-13 6.19373E-13
 -1      2459 2.48285E+01 1.26102E+00 1.21808E-02 2.39435E+00 3.62037E-14 4.61600E-13
 -1      2460 2.33224E+01 1.87432E+00-6.37128E-02-4.40442E-01 4.11171E-13 2.81704E-13
 -1      2461 2.33809E+01 1.93186E+00-2.72425E-02 3.12298E-01 4.55830E-13 5.27777E-13
 -1      2462 2.45340E+01 2.52127E+00 2.86673E-02 9.13125E-01 3.38406E-13 4.10986E-13
 -1      2463 2.38314E+01 1.03463E+00-5.33337E-02-1.95599E+00 3.13694E-13-2.01861E-14
 -1      2464 2.35807E+01 1.61735E+00 8.43555E-03-1.42958E+00 3.08614E-13 1.40152E-13
 -1      2465 2.43522E+01 2.43345E+00-1.93645E-02-1.15863E+00 5.25711E-13 2.08280E-13
 -1      2466 2.44517E+01-1.97196E-01-3.72472E-02-2.26753E+00-6.32480E-15 1.10768E-13
 -1      2467 2.41248E+01 3.95669E-01 1.11678E-02-2.24152E+00 9.79893E-14 3.78239E-14
 -1      2468 2.48941E+01 9.69730E-01-1.88105E-02-2.38453E+00 1.75412E-13 1.35517E-13
 -1      2469 2.47222E+01-9.53133E-01-1.32292E-02-1.61807E+00-3.18200E-14 2.53162E-13
 -1      2470 2.44983E+01-6.58705E-01-6.54147E-03-1.95724E+00 2.61336E-15 1.74433E-13
 -1      2471 2.51500E+01-5.57766E-01 6.84725E-03-2.26794E+00-4.34999E-14 1.73591E-13
 -1      2472 2.45355E+01-1.07402E+00 3.84919E-03-6.13221E-01-5.78903E-14 3.66785E-13
 -1      2473 2.44796E+01-1.08320E+00-2.18718E-02-1.05481E+00 4.54914E-14 3.36837E-13
 -1      2474 2.48895E+01-1.37739E+00 6.26489E-03-1.29452E+00-4.93630E-14 3.31170E-13
 -1      2475 2.40540E+01-8.21265E-01 7.47808E-03 2.63769E-01 4.87397E-14 3.90260E-13
 -1      2476 2.41514E+01-9.78217E-01-2.56616E-02-1.02695E-01 6.57373E-15 3.80665E-13
 -1      2477 2.42423E+01-1.41709E+00-6.87687E-03-1.76114E-01-2.60946E-14 2.99023E-13
 -1      2478 2.34703E+01-4.75901E-01 6.14623E-03 8.31926E-01 1.75363E-14 5.08403E-13
 -1      2479 2.36700E+01-6.50675E-01-2.02768E-02 6.01288E-01 9.86294E-14 4.59231E-13
 -1      2480 2.34960E+01-1.02832E+00-1.23743E-02 6.69499E-01 1.04829E-13 2.79467E-13
 -1      2481 2.28941E+01-1.89974E-01 3.73642E-03 1.10640E+00 6.57113E-14 1.34135E-13
 -1      2482 2.31457E+01-3.23330E-01-1.19981E-02 9.99619E-01 5.06383E-14 4.30166E-13
 -1      2483 2.28208E+01-5.65790E-01-1.10705E-02 1.15830E+00 2.10440E-13 3.05707E-13
 -1      2484 2.23680E+01-2.50608E-03 2.01227E-03 1.17076E+00-1.98563E-13 3.11210E-13
 -1      2485 2.26343E+01-8.49788E-02-4.83322E-03 1.15152E+00-6.66004E-15 2.52284E-13
 -1      2486 2.22634E+01-2.00758E-01-7.76021E-03 1.35591E+00-4.31840E-14 4.04581E-13
 -1      2487 2.19034E+01 9.94449E-02 1.07100E-03 1.10943E+00-3.70385E-13 3.00232E-13
 -1      2488 2.21605E+01 5.74469E-02 1.42177E-04 1.14173E+00-3.44550E-13 2.91483E-13
 -1      2489 2.18122E+01 3.12840E-02-4.91803E-03 1.36057E+00-3.10583E-13 5.54153E-13
 -1      2490 2.15004E+01 1.42771E-01 6.89200E-04 9.85626E-01-1.81043E-13 3.87818E-13
 -1      2491 2.17347E+01 1.27144E-01 3.05226E-03 1.04270E+00-2.74485E-13 2.44358E-13
 -1      2492 2.14431E+01 1.53636E-01-3.13582E-03 1.25601E+00-2.33686E-13 2.28211E-13
 -1      2493 2.11561E+01 1.51778E-01 6.21891E-04 8.39675E-01 9.17571E-14 1.15409E-13
 -1      2494 2.13609E+01 1.50896E-01 4.42902E-03 9.04703E-01-1.13954E-14 3.02201E-13
 -1      2495 2.11365E+01 2.02690E-01-2.20374E-03 1.10083E+00-7.54051E-14 1.51167E-13
 -1      2496 2.08662E+01 1.43900E-01 7.12215E-04 6.93977E-01 5.54751E-13 1.17896E-13
 -1      2497 2.10397E+01 1.49756E-01 4.80973E-03 7.57896E-01 3.21946E-13 6.18960E-14
 -1      2498 2.08794E+01 2.09787E-01-1.76858E-03 9.31108E-01 2.41209E-13-3.31405E-13
 -1      2499 2.06262E+01 1.30387E-01 8.78497E-04 5.58669E-01 2.79599E-13 3.15663E-13
 -1      2500 2.07692E+01 1.37911E-01 4.60812E-03 6.17711E-01 4.66108E-13 3.75044E-13
 -1      2501 2.06640E+01 1.97016E-01-1.56129E-03 7.66312E-01 3.43958E-13 1.52305E-13
 -1      2502 2.04313E+01 1.18190E-01 1.11984E-03 4.36137E-01 3.20574E-13 1.57848E-14
 -1      2503 2.05459E+01 1.24294E-01 4.11378E-03 4.89885E-01 3.00836E-13 2.11217E-13
 -1      2504 2.04847E+01 1.78494E-01-1.41962E-03 6.14760E-01 4.21852E-13 2.70679E-13
 -1      2505 2.02759E+01 1.10756E-01 1.20471E-03 3.23962E-01 1.68330E-13-8.56452E-14
 -1      2506 2.03649E+01 1.14307E-01 3.49552E-03 3.73994E-01 2.70895E-13-4.14821E-14
 -1      2507 2.03365E+01 1.62590E-01-1.39449E-03 4.78193E-01 3.55615E-13-3.61455E-14
 -1      2508 2.01552E+01 1.08541E-01 1.34498E-03 2.19735E-01 1.33577E-14-4.66117E-14
 -1      2509 2.02220E+01 1.09210E-01 2.80976E-03 2.67124E-01 3.89272E-14-6.90443E-14
 -1      2510 2.02154E+01 1.52221E-01-1.81927E-03 3.53229E-01 1.51586E-13 1.77450E-13
 -1      2511 2.01096E+01 1.04858E-01 1.80149E-03 1.63091E-01-4.31291E-14-6.11610E-14
 -1      2512 1.99154E+01 5.52851E-01-2.49594E-03 2.68850E-01 8.83074E-14-2.19347E-13
 -1      2513 1.99421E+01 5.04810E-01 4.33331E-04 2.95512E-01-1.03851E-13-3.91095E-13
 -1      2514 1.98758E+01 6.30165E-01-2.48421E-03 1.83377E-01 1.76974E-13 9.14238E-14
 -1      2515 1.98939E+01 5.96136E-01-4.75180E-04 2.25869E-01 2.01554E-13-1.74233E-13
 -1      2516 1.98747E+01 5.78670E-01 1.74163E-03 2.84796E-01 1.76512E-13-3.87594E-15
 -1      2517 2.00328E+01 3.30393E-01-1.73929E-03 3.19150E-01-1.13257E-13 2.74892E-13
 -1      2518 2.00660E+01 2.72690E-01 2.09645E-03 3.04810E-01-6.88545E-14 5.48800E-13
 -1      2519 1.99702E+01 4.48848E-01-2.18298E-03 3.16979E-01-2.01992E-13-3.64312E-13
 -1      2520 2.00020E+01 3.93521E-01 1.33467E-03 3.23416E-01-1.39659E-13-6.70394E-14
 -1      2521 2.00250E+01 3.68155E-01 1.41784E-03 3.75106E-01-4.44345E-14 1.10095E-13
 -1      2522 1.99429E+01 4.83152E-01 1.47887E-03 3.54552E-01-1.46743E-14-2.45568E-13
 -1      2523 1.98554E+01 6.71806E-01-2.16817E-03 7.42463E-02-5.87844E-14 3.17084E-13
 -1      2524 1.98633E+01 6.55530E-01-1.35493E-03 1.25997E-01 1.54116E-14 1.76448E-13
 -1      2525 1.98291E+01 6.44781E-01 2.21548E-03 1.77147E-01 1.65727E-13 1.92659E-14
 -1      2526 1.98553E+01 6.73556E-01-1.61230E-03-4.30348E-02-8.64170E-14 2.31434E-13
 -1      2527 1.98528E+01 6.76758E-01-2.04053E-03 1.05959E-02-9.28222E-14 3.35962E-13
 -1      2528 1.98088E+01 6.73932E-01 2.34981E-03 4.75124E-02 1.64711E-14 3.35690E-13
 -1      2529 1.98746E+01 6.36128E-01-9.08125E-04-1.52706E-01-7.36582E-14 1.25745E-13
 -1      2530 1.98624E+01 6.58181E-01-2.41132E-03-1.04405E-01-7.63912E-14 1.11765E-13
 -1      2531 1.98149E+01 6.63797E-01 2.20197E-03-8.61886E-02 1.30872E-13 1.15245E-13
 -1      2532 1.99096E+01 5.66341E-01-8.01050E-05-2.39434E-01 2.92128E-14-2.19532E-13
 -1      2533 1.98898E+01 6.03383E-01-2.48080E-03-2.03175E-01-1.58528E-13-5.36355E-14
 -1      2534 1.98454E+01 6.17221E-01 1.86933E-03-2.05683E-01 9.38994E-16-4.18928E-14
 -1      2535 1.99575E+01 4.70193E-01 7.17025E-04-2.95169E-01 2.87678E-13 3.78426E-13
 -1      2536 1.99316E+01 5.19087E-01-2.27191E-03-2.74533E-01 2.62472E-13-1.52387E-13
 -1      2537 1.98957E+01 5.40084E-01 1.30554E-03-2.97264E-01 7.43125E-14 9.29640E-14
 -1      2538 2.00128E+01 3.58964E-01 1.29245E-03-3.10857E-01 2.01780E-13-3.08274E-14
 -1      2539 1.99841E+01 4.14010E-01-1.75030E-03-3.09647E-01 2.44155E-13 3.07808E-13
 -1      2540 1.99607E+01 4.40224E-01 5.94339E-04-3.50387E-01 2.33772E-13 1.51877E-13
 -1      2541 2.00682E+01 2.44501E-01 1.67242E-03-2.84115E-01-3.49959E-13-3.64569E-13
 -1      2542 2.00407E+01 3.00113E-01-9.56670E-04-3.02848E-01-7.51705E-14-4.55267E-13
 -1      2543 2.00321E+01 3.28131E-01-2.00615E-04-3.57250E-01-6.35403E-14-3.33289E-13
 -1      2544 2.00886E+01 1.50697E-01 1.29994E-03-1.96586E-01-2.81092E-13 7.70398E-14
 -1      2545 2.99999E+00-3.08738E+00 4.23499E-02-1.59498E+00-8.51055E-14 7.75713E-13
 -1      2546 4.40959E+00-3.27064E+00 3.62378E-02-3.87369E+00-2.89213E-14 8.22287E-13
 -1      2547 1.96982E+01 1.46133E-01 3.40196E-03 5.65703E-02 1.61387E-13 1.73741E-13
 -1      2548 1.97753E+01 2.00305E-01 1.24186E-02 1.43990E-01 1.92222E-13 2.11458E-13
 -1      2549 1.98474E+01 1.85492E-01-3.97445E-03 5.93460E-02 1.70323E-13 6.85131E-14
 -1      2550 2.52566E+01-4.71779E+00-8.08128E-02 4.36002E+00-1.01585E-13-5.81424E-13
 -1      2551 2.23181E+01-5.30792E+00 4.52799E-02 5.13788E+00-4.59632E-14-5.85337E-13
 -1      2552 2.05404E+01 1.95539E+00-1.38569E-02-1.89870E+00-3.33910E-13-2.52708E-13
 -1      2553 2.04063E+01 1.21619E+00-6.05305E-03-1.28695E+00-3.13276E-13-2.15439E-13
 -1      2554 2.03748E+01 1.37600E+00 5.39764E-03-1.23456E+00-2.78010E-13-2.78787E-13
 -1      2555 2.02848E+01 2.38550E+00-5.28391E-03-1.84382E+00-3.27603E-13-3.39759E-13
 -1      2556 3.12069E+01 3.42971E+00-1.31203E-01 8.67407E-01-4.75453E-14-1.98730E-14
 -1      2557 3.23509E+01 5.48180E+00-8.20687E-02 8.70827E-01-1.86129E-13 7.41907E-14
 -1      2558 6.17113E+00-3.14677E+00 7.32971E-02 4.88812E+00 4.42424E-14 7.90479E-14
 -1      2559 4.23449E+00-2.59242E+00 1.31936E-01 2.60193E+00-3.10307E-14-2.40918E-13
 -1      2560 3.22917E+01 7.13075E+00-1.37305E-01 1.76650E-01 4.80282E-13-3.63300E-13
 -1      2561 3.32329E+01 7.20408E+00-2.23206E-02-4.74708E-01 4.35763E-13-4.72108E-13
 -1      2562 1.95314E+01 3.59012E+00-1.01423E-02-2.44900E-01 9.44882E-14-4.86047E-13
 -1      2563 1.95470E+01 3.56908E+00-9.73354E-03-4.25485E-01 4.88840E-14-4.92417E-13
 -1      2564 1.97229E+01 3.16956E+00-6.67895E-04-4.72574E-01 2.48335E-14-4.58951E-13
 -1      2565 1.96894E+01 3.23040E+00-8.94881E-04-1.51644E-01 1.02090E-13-4.54223E-13
 -1      2566 3.22722E+01 4.27673E+00-9.20727E-02 1.31091E+00 3.79363E-13-3.25462E-13
 -1      2567 3.22538E+01 6.02417E+00-1.12195E-01 1.27280E+00 3.51386E-13-2.86160E-13
 -1      2568 3.31033E+01 6.33002E+00-1.89951E-01-7.13110E-01 4.10005E-13-6.38198E-13
 -1      2569 3.28957E+01 5.26661E+00-9.58896E-02-1.05798E+00 4.41869E-13-6.70602E-13
 -1      2570 3.07021E+01 6.59521E+00-3.50248E-02-1.07542E+00 3.49054E-13-2.48218E-13
 -1      2571 1.18044E+01-5.03364E+00 5.32688E-02-6.45237E+00-3.67040E-13-8.08797E-13
 -1      2572 1.55129E+01-5.40519E+00-2.52860E-02-6.88415E+00-2.58349E-13-7.27626E-13
 -1      2573 3.27393E+01 3.05047E+00-1.10873E-01-9.33507E-01 2.95097E-13-6.36990E-13
 -1      2574 3.14360E+01 9.84491E-01-6.74166E-02-6.57435E-01 1.37598E-13-7.25919E-13
 -1      2575 2.65170E+01-4.17211E+00-1.75124E-02-3.28020E+00-1.79523E-13-7.30360E-13
 -1      2576 2.88011E+01-2.97894E+00-1.02817E-01-2.20232E+00-1.21916E-13-6.92446E-13
 -1      2577 2.66907E+01-3.48155E+00-6.47361E-02 3.85755E+00 6.53366E-14 4.33792E-13
 -1      2578 2.35226E+01-4.62546E+00-1.58742E-03 4.83712E+00 1.02474E-13 2.66454E-13
 -1      2579 1.96966E+01-5.58442E+00 1.39506E-02-5.85558E+00-2.40086E-13-7.25919E-13
 -1      2580 2.36740E+01-5.00494E+00-4.63084E-02-5.07269E+00-1.58873E-13-8.10602E-13
 -1      2581 2.55355E+01-5.02782E+00 5.84967E-02-3.45865E+00-2.65787E-13-6.43707E-13
 -1      2582 5.07548E+00-3.65840E+00 4.62689E-02-3.96373E+00-2.70700E-13-7.87148E-13
 -1      2583 7.86876E+00-4.06548E+00 2.23603E-02-5.74439E+00-2.31953E-13-8.11184E-13
 -1      2584 3.08220E+00-2.55627E+00 5.97758E-02 2.78564E-02-1.54611E-13-5.20028E-13
 -1      2585 3.56189E+00-3.06330E+00 6.41390E-02-2.26893E+00-2.18617E-13-6.56697E-13
 -1      2586 1.23346E+01-4.49634E+00 5.01599E-02 6.95359E+00 6.56142E-14 3.35149E-13
 -1      2587 9.52418E+00-3.90237E+00 1.13683E-01 6.11681E+00 1.03528E-13 2.26624E-13
 -1      2588 1.99158E+01-5.18956E+00-1.05660E-02 6.42933E+00 1.13076E-13 1.22145E-13
 -1      2589 1.56664E+01-5.28323E+00 4.05370E-02 6.72014E+00 4.34097E-14 2.18658E-13
 -1      2590 1.59952E+01-4.53792E+00 1.15254E-01 6.46461E+00 2.96790E-13 3.33580E-13
 -1      2591 3.08007E+01 7.12603E-02-9.62387E-02 9.54979E-01-2.23800E-13 6.02685E-13
 -1      2592 2.88168E+01-1.77831E+00-3.90646E-02 1.96387E+00-1.84991E-14 4.88887E-13
 -1      2593 3.25415E+01 4.18940E+00-1.07471E-01-5.35952E-01-4.46893E-13 3.97515E-13
 -1      2594 3.16136E+01 2.41187E+00-6.37077E-02-2.08815E-01-3.25240E-13 5.00266E-13
 -1      2595 3.26005E+01 6.93716E+00-9.42968E-02 6.16508E-01-2.68119E-13 1.31006E-14
 -1      2596 3.24959E+01 7.43848E+00-1.60493E-01 2.58367E-01-4.21163E-13 2.70756E-14
 -1      2597 7.45097E+00-3.99010E+00 9.03999E-02-5.58493E+00 5.55389E-14 1.02365E-12
 -1      2598 1.05334E+01-4.57820E+00 3.94473E-02-6.86244E+00 8.85958E-14 9.49657E-13
 -1      2599 2.34105E+01-4.75698E+00 2.94678E-02-4.88774E+00 3.18079E-14-4.89608E-14
 -1      2600 2.63453E+01-3.74713E+00-3.69986E-02-3.90943E+00-1.32117E-14-1.23790E-14
 -1      2601 4.46586E+00-2.88428E+00 5.19826E-02 3.16041E+00-3.99042E-13 3.11473E-13
 -1      2602 3.20331E+00-2.73569E+00 8.07375E-02 6.53867E-01-3.59344E-13 6.85119E-13
 -1      2603 2.04789E+01 8.75211E-01-7.28039E-03 1.22776E+00 3.59534E-13 4.39842E-13
 -1      2604 2.08293E+01 1.25700E+00-6.03696E-03 1.72852E+00 3.75488E-13 5.01698E-13
 -1      2605 2.06374E+01 1.71565E+00-1.57943E-02 1.92262E+00 4.12854E-13 3.48190E-13
 -1      2606 2.04410E+01 1.05859E+00-9.42429E-03 1.24209E+00 3.75190E-13 2.60638E-13
 -1      2607 3.01673E+01-1.80065E+00-1.60833E-01 9.39769E-01 1.59118E-14-8.89538E-13
 -1      2608 2.79008E+01-3.40100E+00-7.82784E-03 2.47782E+00-7.39270E-14-8.55233E-13
 -1      2609 2.70707E+01-4.40375E+00 4.15860E-02 2.42393E+00-4.17166E-14-8.33167E-13
 -1      2610 2.93417E+01 5.10802E+00-7.98824E-02 1.73507E+00 2.92710E-13 1.10467E-13
 -1      2611 3.10127E+01 6.10852E+00-1.34518E-01 9.95153E-01 3.89327E-13-7.72160E-14
 -1      2612 2.90456E+01 6.02666E+00-1.80763E-01 4.92522E-01 3.00759E-13 4.88498E-14
 -1      2613 1.99206E+01 2.82029E+00 3.20797E-03-1.09984E+00-1.34931E-13-4.85603E-13
 -1      2614 1.97860E+01 3.16272E+00-1.49638E-02-1.28511E+00-1.52895E-13-5.18665E-13
 -1      2615 1.98785E+01 3.03753E+00-1.82838E-02-1.48133E+00-2.12215E-13-4.92249E-13
 -1      2616 1.99900E+01 3.42889E-01-3.65310E-03 3.02035E-01 2.41065E-13 1.15859E-13
 -1      2617 2.04165E+01 2.11599E+00-1.27492E-02 1.87544E+00 4.28275E-13 1.58675E-13
 -1      2618 3.02157E+01-8.09373E-01-2.81639E-02-6.74754E-01 3.05450E-14-6.88005E-13
 -1      2619 7.52047E+00-2.80895E+00 1.42667E-01-4.80687E+00-3.27516E-14 9.80688E-13
 -1      2620 2.96216E+01-2.18238E+00-3.28559E-02-3.26349E-01-1.49033E-13-3.94851E-13
 -1      2621 3.03270E+01 5.77899E+00-7.72436E-02 1.31051E+00-2.31204E-13-1.13048E-13
 -1      2622 3.06744E+01 1.69691E+00-6.42745E-02 8.73039E-01 2.03726E-14 2.08722E-14
 -1      2623 2.92677E+01 2.62610E+00-1.43518E-01 1.84625E+00-8.35998E-14-1.51296E-13
 -1      2624 2.93298E+01 7.52707E-02-4.00324E-02 7.20131E-01 2.71588E-14-7.18037E-14
 -1      2625 3.01812E+01 1.14345E+00-7.87966E-02 1.68424E+00 3.84415E-14-5.93137E-14
 -1      2626 3.15530E+01 2.61402E+00-1.04259E-01 1.53693E+00 3.07698E-13-1.61371E-13
 -1      2627 2.96892E+01 3.22923E+00-1.74890E-01 2.27043E+00 2.07973E-13 3.61933E-14
 -1      2628 3.11588E+01 5.03267E+00-1.01959E-01-1.33434E+00-4.35180E-13 3.48610E-13
 -1      2629 2.25709E+01-5.18277E+00 6.07889E-02 5.06367E+00 2.00784E-13 4.10880E-13
 -1      2630 1.24177E+01-4.46603E+00 1.10556E-01 6.39570E+00-1.96898E-13-4.41772E-13
 -1      2631 1.22161E+01-3.40960E+00 1.48674E-01 6.03908E+00-5.50171E-13-3.95323E-13
 -1      2632 1.51509E+01-4.77432E+00-3.85113E-02 6.47359E+00-2.74891E-13-4.89386E-13
 -1      2633 2.06725E+01-5.49013E+00 6.64979E-02 5.70123E+00-5.63438E-15-5.86559E-13
 -1      2634 2.01184E+01 1.48809E-01 4.66580E-04 2.33902E-01-1.36767E-13 7.56313E-14
 -1      2635 2.01140E+01 2.62253E+00-1.12035E-02-1.67975E+00-2.75339E-13-4.03087E-13
 -1      2636 2.01065E+01 1.93676E-01-1.00370E-04 2.67214E-01-3.58676E-14 4.76983E-13
 -1      2637 2.01351E+01 1.32639E-01 1.84956E-03-2.38534E-01-3.71687E-13 1.32855E-13
 -1      2638 2.00950E+01 1.93816E-01-9.30511E-04-2.69584E-01-3.95174E-13-9.16498E-15
 -1      2639 2.01088E+01 2.23315E-01 6.95577E-04-3.32198E-01-3.92897E-13-2.73486E-13
 -1      2640 2.01820E+01 1.33336E-01 2.35576E-03-2.82882E-01-3.71257E-13 2.79864E-13
 -1      2641 2.78734E+01-3.14372E+00 2.20558E-02 1.96017E+00 1.20799E-13 6.38156E-13
 -1      2642 5.37989E+00-1.56581E+00 1.65713E-01 1.32716E+00 2.63956E-14-4.04954E-13
 -1      2643 4.90978E+00-1.66365E+00 1.65639E-01-4.03242E-01-2.59681E-13 5.64493E-13
 -1      2644 2.04323E+01 1.80887E+00 1.25460E-02 1.56273E+00 4.03504E-13 9.99166E-14
 -1      2645 1.41806E+01-4.80572E+00 5.87546E-02-6.72839E+00 1.71391E-13 5.79425E-13
 -1      2646 2.01194E+01 2.30079E-01 1.44660E-03 3.36424E-01-3.51189E-14 4.78080E-13
 -1      2647 7.31527E+00-2.27970E+00 1.67457E-01 3.91058E+00-4.84043E-13 1.88988E-13
 -1      2648 2.19432E+01-5.29730E+00-1.73997E-03-5.50481E+00-9.71445E-15-4.77396E-14
 -1      2649 2.37811E+01-5.11396E+00-2.56115E-02-4.23851E+00 8.54594E-14-1.68629E-13
 -1      2650 2.04192E+01-5.15062E+00 1.35952E-01-5.88639E+00 7.78266E-14-8.57630E-14
 -1      2651 9.58102E+00-2.70442E+00 1.28717E-01 5.42069E+00 2.09444E-13 2.45831E-13
 -1      2652 1.91689E+01-5.38320E+00 9.31518E-02-6.00994E+00-3.63015E-13-7.50195E-13
 -1      2653 3.16718E+01 7.32054E+00-7.33112E-02-1.21576E-01-5.16087E-13-6.03857E-15
 -1      2654 2.98734E+01 6.95054E+00-1.64112E-01-5.50100E-01-5.43843E-13-9.49935E-15
 -1      2655 2.94602E+01 6.97049E+00-1.01383E-01 2.55980E-01-4.05342E-13-4.83710E-14
 -1      2656 1.13626E+01-3.94168E+00 1.27671E-01-6.05434E+00-3.01537E-13-8.38302E-13
 -1      2657 3.11235E+01 3.82767E+00-3.92016E-02-1.78608E+00 3.59879E-13-3.73951E-13
 -1      2658 6.22081E+00-2.16844E+00 1.59437E-01-3.23470E+00-1.67324E-13-7.95142E-13
 -1      2659 2.77938E+01-3.25947E+00-2.81156E-02-1.98283E+00 3.96835E-14-1.41831E-14
 -1      2660 3.01897E+01 7.10547E-01-4.89332E-03-6.89103E-01-1.03015E-13 5.06178E-13
 -1      2661 2.01691E+01 1.72388E-01-1.34465E-03-3.52371E-01-2.84937E-13 2.18079E-15
 -1      2662 1.98559E+01 2.77235E+00-6.29469E-03 5.14731E-01 2.42653E-13-3.92260E-13
 -1      2663 1.98316E+01 2.82261E+00-5.71243E-03 3.64129E-01 2.11646E-13-4.11577E-13
 -1      2664 1.98150E+01 2.86064E+00-5.61534E-03 2.28824E-01 1.81851E-13-4.32526E-13
 -1      2665 1.98062E+01 2.87753E+00-5.61463E-03 7.45805E-02 1.48856E-13-4.25967E-13
 -1      2666 1.99612E+01 2.51101E+00 3.71701E-03 2.63680E-01 1.82609E-13-4.01680E-13
 -1      2667 2.00500E+01 2.32812E+00-1.07061E-02 1.04431E+00 3.66182E-13-2.41612E-13
 -1      2668 1.99872E+01 2.47779E+00-6.38535E-03 9.08507E-01 3.31416E-13-2.79782E-13
 -1      2669 2.02185E+01 1.91116E+00-1.19370E-02 1.22644E+00 3.88973E-13-1.18486E-13
 -1      2670 2.01286E+01 2.14949E+00-4.85576E-03 1.13284E+00 3.71690E-13-1.84735E-13
 -1      2671 2.01950E+01 1.89152E+00 6.48876E-03 9.24388E-01 3.45273E-13-1.95029E-13
 -1      2672 2.02097E+01 7.29494E-01-3.39883E-03 6.41336E-01 3.03176E-13 5.16110E-14
 -1      2673 2.03510E+01 9.53552E-01 9.18100E-03 9.05888E-01 3.32370E-13 7.49815E-14
 -1      2674 1.36658E+01-3.81853E+00 1.35595E-01-6.44701E+00 2.54186E-13 5.66838E-13
 -1      2675 1.70863E+01-4.81753E+00 4.91369E-02-6.62438E+00 1.91930E-13 6.33799E-14
 -1      2676 2.82714E+01-3.02239E+00 1.97098E-02-1.33188E-01-2.05644E-13-2.56462E-13
 -1      2677 2.95909E+01-1.25714E+00-1.66594E-01 9.68370E-01-1.56510E-13-1.27565E-13
 -1      2678 2.02250E+01 6.29972E-01 1.09925E-02-4.31487E-01-1.76045E-13-2.35101E-13
 -1      2679 2.01349E+01 4.82183E-01-3.09500E-03-2.70836E-01-1.54920E-13-2.45249E-13
 -1      2680 2.01089E+01 3.71349E-01 6.60602E-03-1.49762E-01-1.43261E-13-2.14625E-13
 -1      2681 2.00524E+01 2.78967E-01-1.39963E-03-4.91427E-02-1.17086E-13-2.17895E-13
 -1      2682 2.02024E+01 5.40685E-01-7.08441E-04-2.54478E-01-1.48439E-13-2.31719E-13
 -1      2683 2.00273E+01 2.11099E-01 4.48941E-03 2.98582E-02-1.06078E-13-2.11746E-13
 -1      2684 1.99947E+01 1.54728E-01-5.34326E-04 9.08015E-02-9.07315E-14-2.10927E-13
 -1      2685 2.01331E+01 3.13938E-01-2.16543E-03-4.03864E-02-1.19081E-13-2.19538E-13
 -1      2686 1.99754E+01 1.13908E-01 2.81963E-03 1.39700E-01-9.84066E-14-2.13657E-13
 -1      2687 1.99619E+01 8.07390E-02 7.96350E-05 1.75387E-01-1.05087E-13-2.35994E-13
 -1      2688 2.00801E+01 1.75503E-01-1.99731E-03 9.68824E-02-1.01782E-13-2.45042E-13
 -1      2689 1.99492E+01 5.76204E-02 1.60178E-03 2.04598E-01-8.67910E-14-2.36520E-13
 -1      2690 1.99497E+01 4.01929E-02 4.93845E-04 2.25174E-01-4.30448E-14-2.29128E-13
 -1      2691 2.00436E+01 9.29448E-02-1.65484E-03 1.81653E-01-1.02817E-13-2.46502E-13
 -1      2692 1.99427E+01 2.92611E-02 7.48176E-04 2.42856E-01-6.32034E-15-2.52144E-13
 -1      2693 1.99534E+01 2.28952E-02 7.95669E-04 2.55542E-01-8.32524E-15-2.30841E-13
 -1      2694 2.00223E+01 4.86222E-02-1.30440E-03 2.33447E-01-3.24409E-14-2.52489E-13
 -1      2695 1.99512E+01 2.06748E-02 1.50978E-04 2.67817E-01-4.77710E-14-1.75103E-13
 -1      2696 1.99694E+01 2.23433E-02 1.04440E-03 2.77846E-01-7.64509E-14-1.52301E-13
 -1      2697 2.00135E+01 3.12123E-02-1.01360E-03 2.67019E-01-5.37079E-15-1.66965E-13
 -1      2698 1.99712E+01 2.65315E-02-2.64331E-04 2.89331E-01-9.14402E-14-1.09850E-13
 -1      2699 1.99955E+01 3.41704E-02 1.27445E-03 3.00558E-01-6.72834E-14-1.02629E-13
 -1      2700 2.00146E+01 3.33371E-02-7.95872E-04 2.93553E-01-4.17722E-14-9.66143E-14
 -1      2701 2.00005E+01 4.31339E-02-5.51980E-04 3.14748E-01-6.38532E-14-1.12352E-13
 -1      2702 2.00303E+01 5.52159E-02 1.50220E-03 3.30028E-01-3.09976E-14-1.19044E-13
 -1      2703 2.00238E+01 4.99328E-02-6.44137E-04 3.21508E-01-7.46103E-14-7.05569E-14
 -1      2704 2.00381E+01 6.76547E-02-7.48295E-04 3.49551E-01-5.49750E-14-1.53038E-13
 -1      2705 2.00735E+01 8.28663E-02 1.73046E-03 3.70946E-01-8.37356E-14-1.59002E-13
 -1      2706 2.00398E+01 7.72270E-02-5.47819E-04 3.57270E-01-7.68591E-14-8.87525E-14
 -1      2707 2.00842E+01 9.75294E-02-8.72137E-04 3.97701E-01-5.06593E-14-1.58498E-13
 -1      2708 2.01258E+01 1.14468E-01 1.95001E-03 4.26537E-01-4.73247E-14-1.45500E-13
 -1      2709 2.00620E+01 1.11965E-01-4.99524E-04 4.05566E-01-5.51460E-14-8.32469E-14
 -1      2710 2.01397E+01 1.29863E-01-9.23824E-04 4.61710E-01-7.26470E-14-1.27133E-13
 -1      2711 2.01885E+01 1.46707E-01 2.13943E-03 4.98490E-01-9.16456E-14-1.39953E-13
 -1      2712 2.00906E+01 1.50695E-01-4.99241E-04 4.69629E-01-5.98806E-14-1.48682E-13
 -1      2713 2.02066E+01 1.60764E-01-8.82164E-04 5.42441E-01-1.19812E-13-1.31298E-13
 -1      2714 2.02638E+01 1.74882E-01 2.26322E-03 5.86612E-01-1.18551E-13-1.52770E-13
 -1      2715 2.01267E+01 1.88988E-01-5.60079E-04 5.51125E-01-1.19222E-13-1.47245E-13
 -1      2716 2.02879E+01 1.84550E-01-6.98377E-04 6.38622E-01-1.19887E-13-1.81403E-13
 -1      2717 2.03551E+01 1.92026E-01 2.26877E-03 6.88166E-01-1.61207E-13-1.96177E-13
 -1      2718 2.01726E+01 2.20537E-01-7.17660E-04 6.49826E-01-1.49531E-13-1.01646E-13
 -1      2719 2.03884E+01 1.92808E-01-2.88468E-04 7.46010E-01-1.62641E-13-1.98382E-13
 -1      2720 2.04677E+01 1.87939E-01 2.08240E-03 7.96844E-01-1.65455E-13-1.93838E-13
 -1      2721 2.02323E+01 2.36075E-01-1.03994E-03 7.62993E-01-1.86447E-13-1.16257E-13
 -1      2722 2.05154E+01 1.73450E-01 4.72750E-04 8.56147E-01-1.85453E-13-2.11735E-13
 -1      2723 2.06094E+01 1.48358E-01 1.60184E-03 9.01356E-01-1.50564E-13-2.05769E-13
 -1      2724 2.03133E+01 2.22249E-01-1.63795E-03 8.84396E-01-1.71934E-13-2.40346E-13
 -1      2725 2.06800E+01 1.10166E-01 1.74798E-03 9.54688E-01-1.22483E-13-2.12096E-13
 -1      2726 2.07920E+01 5.49048E-02 6.79891E-04 9.83637E-01-9.49711E-14-2.61293E-13
 -1      2727 2.04273E+01 1.60774E-01-2.67271E-03 1.00290E+00-1.73718E-13-2.58670E-13
 -1      2728 2.08981E+01-1.68270E-02 3.70973E-03 1.01927E+00-2.28445E-14-2.61117E-13
 -1      2729 2.10321E+01-1.12869E-01-8.92078E-04 1.01685E+00 6.96580E-14-2.86754E-13
 -1      2730 2.05931E+01 2.87506E-02-4.33460E-03 1.10047E+00-6.97170E-14-2.18760E-13
 -1      2731 2.11905E+01-2.26874E-01 6.47016E-03 1.01716E+00 6.32343E-14-3.00829E-13
 -1      2732 2.13497E+01-3.70811E-01-3.36896E-03 9.63639E-01 2.63887E-14-3.71488E-13
 -1      2733 2.08376E+01-1.98082E-01-6.73646E-03 1.14940E+00 3.57206E-14-3.04352E-13
 -1      2734 2.15799E+01-5.28576E-01 9.85922E-03 9.03452E-01 4.13387E-14-3.05748E-13
 -1      2735 2.17627E+01-7.14841E-01-7.02789E-03 7.76339E-01 9.44455E-14-3.29863E-13
 -1      2736 2.11953E+01-5.35768E-01-9.63812E-03 1.10869E+00 7.05182E-14-2.58522E-13
 -1      2737 2.20776E+01-8.98998E-01 1.25991E-02 6.23176E-01 8.76995E-14-3.84699E-13
 -1      2738 2.22718E+01-1.09281E+00-1.14813E-02 4.03576E-01 4.80044E-14-4.37128E-13
 -1      2739 2.17006E+01-9.70403E-01-1.21230E-02 9.21045E-01 1.52958E-14-1.42919E-13
 -1      2740 2.26584E+01-1.24921E+00 1.23995E-02 1.27162E-01 1.06531E-13-3.83714E-13
 -1      2741 2.28330E+01-1.36951E+00-1.48962E-02-1.83452E-01 7.37977E-14-2.94484E-13
 -1      2742 2.23633E+01-1.41985E+00-1.21164E-02 5.18115E-01 7.07984E-14-1.92069E-13
 -1      2743 2.32283E+01-1.39768E+00 4.95184E-03-5.84875E-01 5.77203E-14-2.09725E-13
 -1      2744 2.33349E+01-1.31277E+00-1.28602E-02-9.39219E-01 1.09787E-13-1.14975E-13
 -1      2745 2.31270E+01-1.69276E+00-7.22583E-03-1.45779E-01 1.82030E-13-1.16661E-14
 -1      2746 2.36087E+01-1.07848E+00-1.20521E-02-1.38562E+00 5.48001E-14-7.38315E-14
 -1      2747 2.36063E+01-6.60177E-01 4.73545E-04-1.65859E+00-5.03948E-14-1.64578E-14
 -1      2748 2.38252E+01-1.48428E+00 1.98286E-03-1.02092E+00 1.41929E-13 8.35926E-14
 -1      2749 2.36097E+01-9.74711E-02-3.66486E-02-1.92504E+00-1.24070E-13-5.31433E-15
 -1      2750 2.35142E+01 6.09098E-01 1.50135E-02-1.92445E+00-1.45380E-13-1.38409E-14
 -1      2751 2.41891E+01-4.87044E-01 9.91268E-03-1.82590E+00-4.95350E-14 1.19650E-13
 -1      2752 2.32660E+01 1.32636E+00-5.20297E-02-1.75106E+00-1.56868E-13 1.61287E-14
 -1      2753 2.31439E+01 1.99782E+00 7.82804E-03-1.36017E+00-2.67508E-13 9.62611E-14
 -1      2754 2.40633E+01 1.12413E+00-7.42089E-04-2.02217E+00-1.12726E-13 2.26702E-14
 -1      2755 2.29541E+01 2.43730E+00-3.09876E-02-6.78013E-01-3.27266E-13 1.15559E-13
 -1      2756 2.29078E+01 2.59876E+00-2.02619E-02-4.52083E-02-2.77250E-13 2.37460E-13
 -1      2757 2.37079E+01 2.66700E+00-1.94936E-02-1.13777E+00-2.35451E-13 2.58238E-13
 -1      2758 2.29989E+01 2.43607E+00-6.88162E-04 7.76429E-01-3.36151E-13 7.65616E-14
 -1      2759 2.30653E+01 1.95321E+00-5.46438E-02 1.30989E+00-2.75540E-13 2.10407E-14
 -1      2760 2.36121E+01 3.07605E+00-1.50340E-02 4.35973E-01-3.52565E-13 2.28670E-13
 -1      2761 2.33522E+01 1.32749E+00 1.79818E-02 1.76583E+00-2.53379E-13-5.56087E-15
 -1      2762 2.34768E+01 5.72762E-01-4.41250E-02 1.95260E+00-9.48304E-14-2.38659E-14
 -1      2763 2.38798E+01 2.00722E+00-7.10204E-03 1.74361E+00-3.27544E-13-4.49120E-15
 -1      2764 2.36012E+01-1.14217E-01 6.08387E-03 1.86214E+00 6.44328E-14-5.09950E-14
 -1      2765 2.36596E+01-6.90528E-01-2.30251E-02 1.69642E+00 1.97872E-13-5.16340E-14
 -1      2766 2.41899E+01 2.28575E-01-1.34924E-04 2.01974E+00-7.49470E-14-1.17189E-13
 -1      2767 2.35038E+01-1.08551E+00-6.45659E-03 1.30165E+00 1.75658E-13 9.76346E-15
 -1      2768 2.34425E+01-1.32251E+00-2.08385E-03 9.64155E-01 1.59609E-13-8.21396E-14
 -1      2769 2.40587E+01-1.11132E+00 9.28391E-03 1.42983E+00 1.76471E-13-3.98050E-14
 -1      2770 2.30898E+01-1.40485E+00-1.37382E-02 5.23691E-01 2.52559E-13-6.65816E-14
 -1      2771 2.29373E+01-1.36769E+00 9.45869E-03 1.79394E-01 2.99529E-13 9.27708E-15
 -1      2772 2.34869E+01-1.67613E+00-5.14696E-04 5.38745E-01 1.83301E-13 8.71438E-15
 -1      2773 2.25365E+01-1.25642E+00-1.28993E-02-1.61249E-01 1.87256E-13-8.11859E-14
 -1      2774 2.23434E+01-1.08556E+00 1.26712E-02-4.29085E-01 2.35285E-13-5.10379E-14
 -1      2775 2.27255E+01-1.59401E+00-8.51245E-03-2.46934E-01 1.71069E-13-6.08798E-14
 -1      2776 2.19911E+01-9.04144E-01-8.87922E-03-6.39310E-01 2.69063E-13-1.57535E-13
 -1      2777 2.17979E+01-7.07913E-01 1.10412E-02-8.10977E-01 7.81879E-14-1.93476E-13
 -1      2778 2.20002E+01-1.19800E+00-1.12487E-02-7.75294E-01 1.02728E-13-7.69887E-14
 -1      2779 2.15283E+01-5.32786E-01-4.91278E-03-9.12535E-01-9.11023E-15-2.05959E-13
 -1      2780 2.13555E+01-3.66255E-01 7.93174E-03-9.99999E-01 4.16235E-14-5.62472E-14
 -1      2781 2.14171E+01-7.40283E-01-1.00980E-02-1.05999E+00 1.60237E-13-1.38175E-13
 -1      2782 2.11649E+01-2.29565E-01-1.96610E-03-1.02604E+00 8.80990E-14-1.44393E-14
 -1      2783 2.10180E+01-1.09688E-01 4.99291E-03-1.05102E+00 1.45870E-13 1.39863E-13
 -1      2784 2.09916E+01-3.50591E-01-7.55559E-03-1.16528E+00 2.42470E-14-1.96713E-13
 -1      2785 2.08889E+01-1.68879E-02-4.12666E-05-1.02998E+00 1.29255E-13 2.13288E-14
 -1      2786 2.07663E+01 5.90044E-02 2.76072E-03-1.01364E+00 5.41443E-14 1.59414E-13
 -1      2787 2.06970E+01-6.87859E-02-5.10070E-03-1.15439E+00 7.45134E-14-1.02989E-13
 -1      2788 2.06803E+01 1.14617E-01 1.10969E-03-9.66152E-01 1.63931E-14 3.67506E-13
 -1      2789 2.05782E+01 1.56552E-01 1.27016E-03-9.25388E-01 1.44254E-14 3.46939E-13
 -1      2790 2.04975E+01 1.10952E-01-3.26368E-03-1.07511E+00 1.53485E-13-9.39755E-14
 -1      2791 2.05205E+01 1.85290E-01 1.71648E-03-8.65229E-01-1.07563E-13 4.09747E-13
 -1      2792 2.04355E+01 2.04394E-01 3.91023E-04-8.12068E-01 1.07095E-13 4.58750E-13
 -1      2793 2.03622E+01 2.11559E-01-2.05230E-03-9.60100E-01 4.25252E-14 2.51498E-13
 -1      2794 2.03955E+01 2.16220E-01 1.94899E-03-7.47796E-01 2.18535E-13 2.88164E-13
 -1      2795 2.03245E+01 2.22163E-01-4.08772E-05-6.89889E-01 2.61611E-13 1.98990E-13
 -1      2796 2.02680E+01 2.58610E-01-1.29355E-03-8.30381E-01-9.79842E-15 2.79678E-13
 -1      2797 2.02953E+01 2.25261E-01 1.95389E-03-6.26216E-01 2.30360E-13 5.98764E-15
 -1      2798 2.02360E+01 2.25307E-01-1.70307E-04-5.67695E-01 1.08694E-13-7.90747E-14
 -1      2799 2.01997E+01 2.74370E-01-7.90205E-04-6.98367E-01 6.21831E-14-9.31067E-14
 -1      2800 2.02126E+01 2.25428E-01 1.67585E-03-5.06921E-01 3.71765E-14-2.36167E-13
 -1      2801 2.01642E+01 2.25201E-01 1.52958E-04-4.49543E-01-8.31038E-14-3.73333E-13
 -1      2802 2.01466E+01 2.75392E-01-7.31733E-04-5.70315E-01-1.13387E-14-4.08973E-13
 -1      2803 2.77990E+01-2.84881E+00-1.58759E-01 6.35629E-01-7.02069E-14 4.14169E-13
 -1      2804 2.64487E+01-4.06292E+00 2.54625E-02 2.08228E+00 1.31842E-13 4.29462E-13
 -1      2805 1.98992E+01 1.30612E-01 1.02078E-05-8.65682E-02 1.05478E-13-1.63039E-14
 -1      2806 1.99316E+01 1.79900E-01 5.17057E-03-2.74584E-02 1.13890E-13-2.26271E-14
 -1      2807 1.98825E+01 1.65472E-02 9.22570E-04-2.44307E-01 6.83907E-14 2.77678E-14
 -1      2808 1.98641E+01 2.22046E-02 7.94931E-04-2.33476E-01 6.71852E-14 1.28217E-14
 -1      2809 1.99132E+01 1.57169E-02 1.14278E-03-2.63705E-01 9.81905E-14 5.43493E-14
 -1      2810 1.98867E+01 1.43979E-02 1.72388E-04-2.55405E-01 9.21280E-14 4.41639E-14
 -1      2811 1.99559E+01 2.33026E-02-1.13126E-03-2.61418E-01 7.42394E-14-5.73513E-14
 -1      2812 1.99553E+01 2.59104E-02 1.39183E-03-2.83668E-01 1.33388E-13 5.90966E-14
 -1      2813 1.99222E+01 1.91706E-02-2.42433E-04-2.73974E-01 1.24319E-13 4.72405E-14
 -1      2814 1.99707E+01 2.48973E-02-8.85166E-04-2.85691E-01 1.17011E-13-2.41791E-14
 -1      2815 2.00077E+01 4.50336E-02 1.68660E-03-3.11003E-01 1.43346E-13 1.69801E-14
 -1      2816 1.99684E+01 3.38371E-02-5.22494E-04-2.96833E-01 1.47926E-13 5.06246E-14
 -1      2817 1.99953E+01 3.99815E-02-7.26797E-04-3.11576E-01 1.41711E-13-5.20048E-14
 -1      2818 2.00703E+01 7.17653E-02 2.03474E-03-3.51226E-01 1.18197E-13 7.92518E-14
 -1      2819 2.00242E+01 5.67200E-02-7.21154E-04-3.30058E-01 1.16887E-13 5.75054E-14
 -1      2820 2.00280E+01 6.60682E-02-6.31421E-04-3.46137E-01 1.12488E-13-9.64230E-15
 -1      2821 2.01440E+01 1.05160E-01 2.43527E-03-4.08933E-01 3.49466E-14 4.81679E-14
 -1      2822 2.00900E+01 8.67222E-02-8.76528E-04-3.78653E-01 1.09622E-13 1.06833E-13
 -1      2823 2.00681E+01 1.01538E-01-5.74851E-04-3.95100E-01 9.09255E-14 1.15933E-13
 -1      2824 2.02304E+01 1.44218E-01 2.87615E-03-4.87941E-01 2.98655E-14 7.96284E-14
 -1      2825 2.01670E+01 1.22927E-01-1.01308E-03-4.46817E-01 1.80630E-14 8.68014E-14
 -1      2826 2.01155E+01 1.45129E-01-5.35957E-04-4.63190E-01 4.89376E-14 1.09421E-13
 -1      2827 2.03317E+01 1.87295E-01 3.33028E-03-5.91145E-01 6.98384E-14 1.02649E-13
 -1      2828 2.02569E+01 1.64107E-01-1.13949E-03-5.37955E-01 6.21753E-14 1.26713E-13
 -1      2829 2.01703E+01 1.95349E-01-4.99849E-04-5.54252E-01 1.82333E-14 1.37634E-13
 -1      2830 2.04503E+01 2.31224E-01 3.74893E-03-7.20037E-01 1.01159E-14 6.90930E-14
 -1      2831 2.03620E+01 2.08014E-01-1.24221E-03-6.54407E-01 3.60982E-14 7.73311E-14
 -1      2832 2.02331E+01 2.49676E-01-4.65153E-04-6.71096E-01 5.93134E-14 1.46771E-13
 -1      2833 2.05893E+01 2.69918E-01 4.05305E-03-8.73742E-01-4.64663E-14 9.70970E-14
 -1      2834 2.04854E+01 2.50276E-01-1.27099E-03-7.96771E-01-1.97474E-14 8.02989E-14
 -1      2835 2.03049E+01 3.03333E-01-4.62280E-04-8.15044E-01 1.23789E-16 4.70294E-14
 -1      2836 2.07534E+01 2.92284E-01 4.12347E-03-1.04736E+00-5.39298E-14-1.17582E-14
 -1      2837 2.06314E+01 2.82691E-01-1.11430E-03-9.62675E-01-2.83356E-14 5.59226E-14
 -1      2838 2.03882E+01 3.47413E-01-5.82386E-04-9.85071E-01-1.14963E-14 7.60372E-14
 -1      2839 2.09505E+01 2.79384E-01 3.78636E-03-1.22934E+00-5.90554E-14-2.18135E-14
 -1      2840 2.08074E+01 2.90758E-01-5.63718E-04-1.14472E+00-8.31436E-14-4.55585E-14
 -1      2841 2.04883E+01 3.66146E-01-1.02649E-03-1.17637E+00-3.58033E-14 8.37625E-15
 -1      2842 2.11954E+01 2.01326E-01 2.78428E-03-1.39772E+00 3.79327E-14-2.65047E-16
 -1      2843 2.10263E+01 2.50603E-01 7.27235E-04-1.32730E+00 2.94350E-14-2.33550E-14
 -1      2844 2.06172E+01 3.33353E-01-2.17382E-03-1.37813E+00-1.43497E-14-3.32330E-14
 -1      2845 2.15143E+01 1.59191E-02 6.76050E-04-1.51488E+00 1.22797E-14 5.69044E-15
 -1      2846 2.13120E+01 1.26375E-01 3.27077E-03-1.48186E+00 4.37573E-14-6.76889E-15
 -1      2847 2.07990E+01 2.08947E-01-4.64935E-03-1.57001E+00 4.73668E-14-2.86161E-14
 -1      2848 2.19497E+01-3.25220E-01-3.16735E-03-1.52098E+00-1.26481E-13 8.74198E-14
 -1      2849 2.17042E+01-1.28567E-01 7.62625E-03-1.56008E+00-8.84992E-14-6.85265E-15
 -1      2850 2.10784E+01-6.15076E-02-9.31293E-03-1.71644E+00-7.88676E-15-6.71816E-14
 -1      2851 2.25553E+01-8.51067E-01-9.51849E-03-1.32839E+00-1.67497E-13 2.73594E-14
 -1      2852 2.22608E+01-5.57680E-01 1.44150E-02-1.48504E+00-1.06461E-13 1.19357E-13
 -1      2853 2.15288E+01-5.36071E-01-1.65861E-02-1.75668E+00-1.74118E-13 6.31786E-15
 -1      2854 2.33803E+01-1.49879E+00-1.50719E-02-8.22374E-01-1.90783E-13 2.83330E-14
 -1      2855 2.30409E+01-1.15745E+00 2.28921E-02-1.14287E+00-1.49950E-13 4.89419E-14
 -1      2856 2.22524E+01-1.23810E+00-2.49116E-02-1.58726E+00-1.19526E-13-2.51119E-14
 -1      2857 2.43806E+01-2.02398E+00-2.20424E-02 5.73921E-02-2.79867E-13 1.36756E-13
 -1      2858 2.40346E+01-1.78426E+00 2.41757E-02-4.28187E-01-2.45440E-13 2.59818E-14
 -1      2859 2.32885E+01-2.03670E+00-3.98069E-02-1.04636E+00-2.57965E-13 8.55132E-14
 -1      2860 2.54166E+01-1.91749E+00 4.21684E-03 1.31073E+00-3.53115E-13 3.28368E-13
 -1      2861 2.52033E+01-2.07027E+00 3.12787E-02 7.41655E-01-2.98855E-13 2.10687E-13
 -1      2862 2.47217E+01-2.64700E+00-6.62379E-02-3.33522E-02-3.64344E-13 1.67987E-13
 -1      2863 2.65810E+01-6.20436E-01-5.71328E-02 2.18529E+00-1.83659E-13 2.09610E-13
 -1      2864 2.65261E+01-1.62488E+00-5.73638E-02 1.82258E+00-3.92176E-13 1.60719E-13
 -1      2865 2.65819E+01 2.22249E+00-1.15061E-01 2.29230E+00 1.79690E-13 2.82028E-13
 -1      2866 2.68133E+01 8.40608E-01-1.51463E-01 2.58539E+00 9.31061E-14 2.84855E-13
 -1      2867 2.56767E+01 4.12394E+00-1.48258E-01 5.08124E-01 4.06758E-13 2.52246E-13
 -1      2868 2.57927E+01 3.50715E+00-2.11369E-01 1.54853E+00 2.51646E-13 2.98126E-13
 -1      2869 2.70252E+01 3.54932E+00-1.42261E-01-1.89066E+00 3.60351E-13 2.84914E-13
 -1      2870 2.68369E+01 4.45689E+00-1.28964E-01-9.36577E-01 4.29712E-13 2.48256E-13
 -1      2871 2.58021E+01-1.47947E+00-4.36806E-02-1.91146E+00-3.29632E-14 2.80963E-13
 -1      2872 2.58509E+01-6.42319E-01-1.35739E-02-2.29893E+00-4.76667E-14 2.21483E-13
 -1      2873 2.50147E+01-2.09393E+00 8.40111E-03-5.90483E-01 3.41060E-14 3.44108E-13
 -1      2874 2.52589E+01-1.93560E+00-1.95147E-02-1.18348E+00-7.00243E-15 4.08128E-13
 -1      2875 2.59845E+01-2.19245E+00-1.18890E-02-1.21416E+00-5.17624E-14 1.98968E-13
 -1      2876 2.39283E+01-1.74103E+00 2.51153E-02 5.26509E-01 5.89544E-14 1.84567E-13
 -1      2877 2.42598E+01-1.98652E+00-2.15535E-02 4.17202E-02 1.47463E-13 3.76190E-13
 -1      2878 2.45691E+01-2.52815E+00-1.82623E-02 1.99975E-01 9.41918E-14 2.75962E-13
 -1      2879 2.29357E+01-1.09352E+00 2.13392E-02 1.21442E+00 1.40529E-13 1.91127E-13
 -1      2880 2.32698E+01-1.43781E+00-1.70468E-02 9.11276E-01 7.98402E-14 1.40643E-13
 -1      2881 2.31925E+01-1.96924E+00-2.91830E-02 1.15989E+00 1.75607E-13-1.22359E-14
 -1      2882 2.21782E+01-5.07664E-01 1.32972E-02 1.52088E+00 2.20767E-13 1.64818E-13
 -1      2883 2.24709E+01-7.90781E-01-8.57223E-03 1.37753E+00 1.98710E-13 1.61571E-13
 -1      2884 2.21497E+01-1.15623E+00-2.40519E-02 1.63894E+00 1.29697E-13 4.29570E-14
 -1      2885 2.16400E+01-9.79871E-02 7.02979E-03 1.57699E+00-1.56655E-13 4.06115E-13
 -1      2886 2.18825E+01-2.84790E-01-2.64395E-03 1.54647E+00 3.38867E-14 3.87946E-13
 -1      2887 2.14618E+01-4.79668E-01-1.56188E-02 1.77892E+00 3.50293E-14 1.91353E-13
 -1      2888 2.12592E+01 1.42041E-01 2.91119E-03 1.48923E+00-2.81517E-13 3.35067E-13
 -1      2889 2.14595E+01 3.85412E-02 9.86366E-04 1.52703E+00-2.08724E-13 3.79657E-13
 -1      2890 2.10330E+01-2.88083E-02-8.70895E-03 1.72570E+00-1.37415E-13 1.52893E-13
 -1      2891 2.09804E+01 2.57695E-01 5.96920E-04 1.33017E+00-6.47038E-14 1.67986E-13
 -1      2892 2.11480E+01 2.12055E-01 2.94590E-03 1.40313E+00-1.78500E-13 2.81926E-13
 -1      2893 2.07659E+01 2.25296E-01-4.39301E-03 1.57329E+00-1.69547E-13 1.89531E-13
 -1      2894 2.07659E+01 2.95470E-01-4.92142E-04 1.14487E+00 9.56045E-14-1.05021E-13
 -1      2895 2.09075E+01 2.84579E-01 3.84963E-03 1.23132E+00 5.38133E-14 2.72636E-14
 -1      2896 2.05911E+01 3.41218E-01-2.10799E-03 1.37866E+00 6.20812E-14 1.32233E-13
 -1      2897 2.05935E+01 2.90871E-01-8.54417E-04 9.58908E-01 3.44783E-13-3.90014E-13
 -1      2898 2.07135E+01 2.97960E-01 4.10138E-03 1.04623E+00 2.16491E-13-3.87160E-13
 -1      2899 2.04664E+01 3.73045E-01-1.06745E-03 1.17445E+00 3.22939E-13-2.61881E-13
 -1      2900 2.04514E+01 2.67770E-01-8.31064E-04 7.85034E-01 1.83084E-13-1.08073E-13
 -1      2901 2.05523E+01 2.81857E-01 3.94312E-03 8.66942E-01 1.95213E-13-2.30041E-13
 -1      2902 2.03692E+01 3.60526E-01-6.64995E-04 9.78321E-01 1.99064E-13-3.84236E-13
 -1      2903 2.03330E+01 2.41361E-01-4.84854E-04 6.27866E-01 4.22416E-13 7.94134E-15
 -1      2904 2.04167E+01 2.55527E-01 3.53688E-03 7.02196E-01 3.51903E-13 1.18542E-13
 -1      2905 2.02884E+01 3.29925E-01-5.44337E-04 7.98510E-01 1.89869E-13-1.66983E-13
 -1      2906 2.02354E+01 2.20864E-01 6.53346E-04 4.86829E-01 2.88596E-13 2.77568E-13
 -1      2907 2.03023E+01 2.30716E-01 3.08892E-03 5.53473E-01 3.62828E-13 3.07528E-13
 -1      2908 2.02175E+01 2.97682E-01-7.65033E-04 6.37461E-01 2.38976E-13 4.87230E-13
 -1      2909 2.01488E+01 2.22638E-01 1.24066E-03 3.79293E-01-6.42513E-14 6.11238E-13
 -1      2910 2.02017E+01 2.28433E-01 2.89380E-03 4.41926E-01 1.36719E-13 5.45952E-13
 -1      2911 2.01450E+01 2.84725E-01-2.65428E-03 5.12455E-01 8.38277E-14 7.13122E-13
 -1      2912 2.00857E+01 2.94192E-01-2.77374E-03 4.16910E-01-1.22646E-13 6.48148E-13
 -1      2913 2.01899E+01 2.27800E+00 3.99492E-03-1.42708E+00-2.53065E-13-3.83718E-13
 -1      2914 1.97336E+01 6.80894E-01-1.37298E-03 1.54820E-02 1.22643E-13 2.27993E-13
 -1      2915 1.97379E+01 6.76458E-01-1.19607E-03 8.61307E-02 1.58545E-13 2.74441E-13
 -1      2916 9.77544E+00-1.88171E+00 1.15007E-01 4.68888E+00-6.27526E-13-1.48409E-13
 -1      2917 7.74529E+00-9.56317E-01 1.82617E-01 2.83652E+00-5.21978E-13 6.50313E-14
 -1      2918 1.98048E+01 6.05133E-01-2.49809E-03 2.96767E-01 2.18457E-13 6.92000E-14
 -1      2919 1.98437E+01 5.67371E-01 3.05271E-04 3.44561E-01 8.44565E-14 6.45244E-14
 -1      2920 1.97518E+01 6.60096E-01-5.35223E-04-1.33861E-01 1.36413E-13 1.74129E-13
 -1      2921 1.97382E+01 6.73002E-01-1.92926E-03-6.59022E-02 7.72290E-14 2.96401E-13
 -1      2922 1.96757E+01 6.93910E-01 2.33594E-03-3.06360E-02 5.03046E-14 2.10572E-13
 -1      2923 1.97511E+01 6.62278E-01-2.12598E-03 1.65696E-01 9.76347E-14 1.62700E-13
 -1      2924 1.97740E+01 6.40541E-01-2.91408E-04 2.29605E-01 1.54953E-13 4.97545E-14
 -1      2925 1.97403E+01 6.41987E-01 2.08334E-03 2.92091E-01-6.08669E-15-1.32714E-15
 -1      2926 1.96862E+01 6.88343E-01 2.39872E-03 1.38025E-01 2.15563E-13 2.36040E-13
 -1      2927 2.01236E+01 2.24363E-01 4.61406E-04-3.71055E-01-2.41370E-13-3.42853E-13
 -1      2928 2.00844E+01 2.71620E-01 1.76517E-04-3.86853E-01-1.74011E-13-7.05636E-13
 -1      2929 2.01524E+01 2.25262E-01 1.64007E-03-4.09890E-01-1.28626E-13-4.27520E-13
 -1      2930 1.98009E+01 6.04863E-01 3.45699E-04-2.61570E-01-3.31692E-14-1.41049E-13
 -1      2931 1.97722E+01 6.32519E-01-2.39387E-03-2.05666E-01 8.02961E-14-5.57528E-14
 -1      2932 1.97075E+01 6.60182E-01 2.03544E-03-1.90849E-01 7.98801E-14-6.74310E-14
 -1      2933 1.98758E+01 5.20053E-01 1.05187E-03-3.56663E-01-7.60697E-16 2.23259E-13
 -1      2934 1.98349E+01 5.60517E-01-2.56499E-03-3.17732E-01-1.28925E-13-2.57027E-14
 -1      2935 1.97760E+01 5.92418E-01 1.52827E-03-3.24656E-01-1.57777E-13-1.80490E-13
 -1      2936 1.99659E+01 4.14696E-01 8.13662E-04-4.05088E-01 1.35993E-13 1.63141E-13
 -1      2937 1.99200E+01 4.64476E-01-2.22658E-03-3.89800E-01 1.11952E-13 3.39351E-13
 -1      2938 1.98728E+01 4.98287E-01 8.41959E-04-4.17798E-01-1.26212E-13 3.57668E-13
 -1      2939 2.00436E+01 3.28096E-01 1.67587E-04-3.96402E-01 2.30925E-14-4.68368E-13
 -1      2940 1.99636E+01 2.38793E-01-6.35906E-04 5.39318E-02 1.47135E-13-1.29677E-14
 -1      2941 2.00271E+01 3.21028E-01 7.82446E-03 1.53982E-01 2.01275E-13 1.44710E-14
 -1      2942 2.00615E+01 2.77074E-01-2.84126E-03 4.83210E-02 1.46300E-13-7.24927E-14
 -1      2943 2.23919E+01-5.46387E+00-1.06549E-01 4.70314E+00-1.88710E-13-7.50089E-13
 -1      2944 1.89403E+01-5.06045E+00 1.52793E-01 5.85399E+00-1.65867E-13-6.76048E-13
 -1      2945 2.03071E+01 1.59140E+00-1.18629E-02-1.23516E+00-2.70373E-13-3.19558E-13
 -1      2946 2.03264E+01 1.23476E+00 1.30353E-02-9.66155E-01-2.36061E-13-2.85351E-13
 -1      2947 2.02452E+01 9.51928E-01-5.02107E-03-7.19352E-01-2.01075E-13-2.73948E-13
 -1      2948 2.01629E+01 2.05189E+00 1.01549E-03-1.13853E+00-1.95522E-13-3.81431E-13
 -1      2949 2.03346E+01 1.50157E+00-1.85664E-03 1.26705E+00 3.76399E-13 5.33579E-14
 -1      2950 1.17925E+01-2.57793E+00 4.76570E-02 5.75122E+00 3.20216E-13 4.29767E-13
 -1      2951 9.25680E+00-1.52198E+00 1.94523E-01 4.36576E+00 2.41918E-13 2.83190E-13
 -1      2952 6.25895E+00-6.89261E-01 9.89214E-02 5.27459E-01-4.98684E-13 2.60431E-13
 -1      2953 6.30304E+00-9.13377E-01 1.48545E-01-1.87459E+00-3.14734E-13 5.30187E-13
 -1      2954 2.43361E+01-5.02035E+00-6.81644E-02 3.82754E+00 1.71280E-13 5.00516E-13
 -1      2955 2.13428E+01-5.03484E+00 7.18516E-02 5.05398E+00 1.96537E-13 4.48629E-13
 -1      2956 2.52785E+01-4.39939E+00 3.17324E-02 2.37442E+00 1.21916E-13 3.22076E-13
 -1      2957 7.20477E+00-7.41624E-01 1.11714E-01 2.34628E+00 2.61687E-13-1.17184E-13
 -1      2958 6.47845E+00-5.54663E-01 1.76413E-01-2.19028E-01 1.19914E-13-4.15223E-13
 -1      2959 1.98663E+01 3.17612E-02 7.00163E-04-2.16752E-01 6.82506E-14-5.51262E-15
 -1      2960 1.98592E+01 4.69024E-02 1.72805E-03-1.98166E-01 8.63060E-14-3.64148E-15
 -1      2961 1.99533E+01 3.91460E-02-1.48610E-03-2.29770E-01 6.53232E-14-2.04629E-14
 -1      2962 1.98696E+01 6.67879E-02 4.24192E-04-1.69457E-01 1.05487E-13-2.27561E-14
 -1      2963 1.98786E+01 9.55179E-02 3.12188E-03-1.35858E-01 1.12954E-13-8.90538E-15
 -1      2964 1.99669E+01 7.87409E-02-1.95249E-03-1.78985E-01 9.19003E-14-4.51381E-14
 -1      2965 2.00689E+01 4.20411E-01-1.48446E-03 2.83553E-01 2.48473E-13 2.04212E-14
 -1      2966 2.01689E+01 5.57639E-01 1.04728E-02 4.47980E-01 2.70676E-13 4.37247E-14
 -1      2967 2.02539E+01 8.26011E-01 7.61957E-04 6.14520E-01 3.10952E-13-4.02203E-14
 -1      2968 2.01482E+01 4.84842E-01-1.99988E-03 2.73804E-01 2.34167E-13-6.91079E-14
 -1      2969 6.83586E+00-1.00066E+00 1.22378E-01-2.26113E+00-1.20563E-13-7.26974E-13
 -1      2970 8.32845E+00-1.67922E+00 1.09243E-01-4.13951E+00-1.42025E-13-8.59868E-13
 -1      2971 1.99325E+01 2.60190E+00-7.89635E-03 7.92730E-01 3.11388E-13-3.28166E-13
 -1      2972 1.98898E+01 2.69460E+00-6.17390E-03 6.43824E-01 2.66730E-13-3.67338E-13
 -1      2973 2.00089E+01 2.39731E+00 4.42318E-03 5.14596E-01 2.36871E-13-3.50414E-13
 -1      2974 2.00885E+01 2.19783E+00 5.73633E-03 7.43212E-01 3.01262E-13-2.74332E-13
 -1      2975 7.47491E+00-1.52662E+00 1.52495E-01-3.70718E+00-1.34323E-13 7.74408E-13
 -1      2976 1.01167E+01-2.44629E+00 9.93139E-02-5.47894E+00 7.68968E-14 8.83293E-13
 -1      2977 8.85248E+00-5.82401E-01 1.90936E-01-2.70809E+00-2.65947E-13 5.13867E-13
 -1      2978 2.84546E+01 4.69004E+00-1.59060E-01 1.70884E+00-1.94900E-13-2.17576E-13
 -1      2979 2.85799E+01 5.92309E+00-1.92207E-01 1.15605E+00-2.47996E-13-1.88724E-13
 -1      2980 1.98854E+01 2.70370E+00-6.13018E-03-6.33249E-01-3.18004E-14-4.40655E-13
 -1      2981 1.99263E+01 2.61092E+00-8.67879E-03-7.83037E-01-7.88079E-14-4.55373E-13
 -1      2982 2.42305E+01-5.10037E+00 9.57494E-02-3.59622E+00-4.10241E-13-5.42684E-13
 -1      2983 2.61102E+01-4.83082E+00-1.63434E-01-2.23367E+00-3.76366E-13-5.20889E-13
 -1      2984 2.64109E+01-4.05880E+00-1.29969E-02-2.13607E+00-4.81906E-15-7.36078E-14
 -1      2985 2.82053E+01-2.44977E+00-1.08744E-01-5.55718E-01 2.88875E-14-7.38992E-14
 -1      2986 1.78202E+01-4.71213E+00 1.41318E-01-5.94129E+00-4.03746E-13-6.78346E-13
 -1      2987 2.10807E+01-5.32178E+00-5.74745E-02-5.20144E+00-4.14446E-13-5.74344E-13
 -1      2988 1.85181E+01-4.64142E+00 1.45466E-02 6.04295E+00 2.81580E-13 3.63501E-13
 -1      2989 1.57012E+01-3.57767E+00 1.58481E-01 6.03020E+00 3.66318E-13 3.32984E-13
 -1      2990 1.08281E+01-2.73983E+00 1.45822E-01-5.40219E+00-2.16716E-13-7.57505E-13
 -1      2991 1.42006E+01-3.98959E+00 3.01333E-02-6.31775E+00-3.16358E-13-7.45543E-13
 -1      2992 1.69660E+01-3.79386E+00 1.25776E-01-5.60815E+00-3.70357E-13-6.30308E-13
 -1      2993 2.98096E+01 5.82209E+00-1.52032E-01-1.26714E+00-4.92106E-13 6.42264E-14
 -1      2994 2.92661E+01 3.90033E+00-1.21027E-01-1.69671E+00-3.23214E-13 1.62717E-13
 -1      2995 2.89168E+01 1.23031E+00-1.68909E-01-1.57774E+00-1.38251E-13 2.00021E-13
 -1      2996 2.87233E+01-7.00239E-01-4.31618E-02-8.39583E-01-1.30229E-13 3.16996E-13
 -1      2997 2.73917E+01-4.11702E+00-1.66051E-01 1.20277E+00 4.96894E-14-6.85785E-13
 -1      2998 2.58773E+01-4.79434E+00 1.17363E-01 2.62942E+00 3.83304E-14-6.66939E-13
 -1      2999 2.92921E+01-1.10577E-01-1.74913E-01-1.80066E+00 1.27565E-13-1.23110E-13
 -1      3000 2.87741E+01-2.19229E+00-1.31786E-02-6.98395E-01 8.60492E-14-3.59573E-13
 -1      3001 1.99820E+01 2.48995E+00-6.41814E-03-8.99218E-01-1.04531E-13-4.62419E-13
 -1      3002 2.00330E+01 2.33939E+00-1.63924E-02-1.04307E+00-1.59668E-13-4.45097E-13
 -1      3003 2.00859E+01 2.21103E+00 7.64115E-03-7.29028E-01-9.28852E-14-4.18466E-13
 -1      3004 1.99437E+01 2.55065E+00 3.68170E-03 3.28429E-03 1.24053E-13-3.83361E-13
 -1      3005 1.98062E+01 2.87977E+00-5.12745E-03-6.13588E-02 1.18867E-13-4.11497E-13
 -1      3006 1.98126E+01 2.86306E+00-6.04777E-03-2.15867E-01 8.00534E-14-4.23520E-13
 -1      3007 8.57956E+00-1.55734E-01 1.84835E-01-1.10837E+00 1.19616E-13-4.80949E-13
 -1      3008 1.95470E+01-4.88515E+00 6.05683E-02-5.68640E+00 1.85435E-13-3.46945E-17
 -1      3009 2.89555E+01-1.30199E-01-3.78741E-02 2.16272E+00-1.20209E-13 2.84772E-14
 -1      3010 2.91988E+01 1.50119E+00-1.41682E-01-2.44402E+00 2.93210E-13-3.29736E-14
 -1      3011 2.81112E+01-2.52320E-02-7.45791E-02-2.23188E+00 2.52777E-13 2.71075E-13
 -1      3012 2.83957E+01-1.31154E+00-4.36710E-02 6.20914E-01 1.38084E-14-1.98175E-14
 -1      3013 2.77818E+01-2.66602E-01-1.35745E-01 1.62860E+00 1.13132E-13 1.58318E-13
 -1      3014 2.72441E+01-2.38410E+00-3.69169E-02 2.53970E-01 5.52822E-14 6.46844E-14
 -1      3015 1.23197E+01-1.69438E+00 1.23725E-01-4.97587E+00 1.62023E-13 5.01946E-13
 -1      3016 1.27574E+01-2.81446E+00 1.44801E-01-5.82121E+00 2.77930E-13 6.26499E-13
 -1      3017 1.53322E+01-3.11911E+00 5.79746E-02-5.69637E+00 3.38715E-13 2.81275E-13
 -1      3018 2.76594E+01-3.01237E+00-5.56484E-03-2.92113E-01 1.04034E-13-1.51323E-13
 -1      3019 2.84070E+01 2.27254E+00-1.25476E-01-2.04078E+00-1.71529E-13 1.19099E-13
 -1      3020 2.74387E+01 1.08747E+00-8.38843E-03-2.04602E+00-1.44149E-13-8.29059E-14
 -1      3021 2.72213E+01 3.24470E+00-1.82892E-01-2.09836E+00-3.05062E-13-2.57711E-14
 -1      3022 1.78661E+01-4.41371E+00 1.10180E-01 5.81387E+00-3.45238E-13-6.61929E-13
 -1      3023 2.01099E+01 2.72334E-01-8.73514E-04-4.67003E-01-1.28822E-13-6.89043E-13
 -1      3024 2.75899E+01-1.98611E+00-4.29299E-02-4.74836E-01-1.43821E-13 7.49956E-14
 -1      3025 1.13549E+01-1.67628E+00 1.71612E-01-4.51717E+00-1.53544E-13-7.60086E-13
 -1      3026 2.08585E+01-4.45211E+00 7.33930E-02 4.75157E+00 1.90896E-13 3.25119E-13
 -1      3027 2.00012E+01 1.52368E-01-2.48024E-03-9.33471E-02 1.14105E-13-8.57540E-14
 -1      3028 2.59530E+01 4.95376E-01-8.82416E-02-2.59289E+00 5.17572E-14 3.70945E-13
 -1      3029 2.56727E+01 1.67023E+00-2.61150E-02-2.30556E+00 3.32456E-13 4.61416E-13
 -1      3030 1.16830E+01-2.22129E+00 1.67917E-01 5.09670E+00-5.81035E-13-2.07098E-13
 -1      3031 1.16670E+01-1.17967E+00 8.84995E-02 4.22110E+00-5.04485E-13-2.04808E-13
 -1      3032 1.36807E+01-2.72991E+00 3.56683E-02 5.40559E+00-5.63438E-13-4.37927E-13
 -1      3033 2.00303E+01 3.63365E-01 8.97533E-04 4.22411E-01 1.72857E-14 1.48800E-13
 -1      3034 2.00554E+01 3.60871E-01 2.61381E-03 4.72645E-01-1.59652E-13 3.73510E-13
 -1      3035 1.99765E+01 4.19314E-01-2.68300E-03 4.24431E-01 4.99496E-15-8.93596E-14
 -1      3036 8.74960E+00-2.78387E-01 1.75501E-01 1.50888E+00-5.31235E-13 1.47660E-13
 -1      3037 2.54770E+01-4.72487E+00-1.12087E-02-2.90307E+00-6.64607E-14-1.08177E-13
 -1      3038 2.62302E+01-3.90015E+00-2.35317E-02-1.43501E+00-6.85476E-15 6.32827E-15
 -1      3039 2.40185E+01-4.80102E+00 4.32188E-02-3.54307E+00-3.30500E-14-6.03510E-14
 -1      3040 2.00563E+01 3.16932E-01-2.30121E-04-4.59487E-01-1.54797E-13-5.61357E-13
 -1      3041 2.00023E+01 3.72261E-01-6.77383E-04-4.27999E-01-2.56479E-14-2.38395E-13
 -1      3042 1.99734E+01 4.03352E-01 9.68198E-04-4.71873E-01-4.09122E-14-4.66400E-14
 -1      3043 2.00729E+01 3.20220E-01 1.49096E-03-5.00980E-01-1.49313E-13-5.07716E-13
 -1      3044 2.27607E+01-4.84188E+00 5.80248E-02-3.98530E+00-5.22152E-13-5.01805E-13
 -1      3045 2.39377E+01-4.90417E+00 3.79241E-02 3.37101E+00-3.77476E-14-5.51573E-13
 -1      3046 2.84432E+01 3.35421E+00-1.28542E-01-2.33491E+00 3.09586E-13 3.22575E-13
 -1      3047 2.02677E+01 1.03101E+00-9.72696E-04-6.66977E-01-1.84536E-13-2.78221E-13
 -1      3048 1.47496E+01-2.67800E+00 9.62824E-02 5.42666E+00 3.23810E-13 3.41852E-13
 -1      3049 2.66712E+01 5.11582E+00-9.75872E-02 1.11525E+00-2.77334E-13-3.69781E-13
 -1      3050 2.80764E+01 6.07770E+00-1.37399E-01 7.52968E-01-3.32540E-13-2.76557E-13
 -1      3051 2.70531E+01 6.00704E+00-1.87732E-01 1.85685E-01-4.20108E-13-3.35434E-13
 -1      3052 2.72296E+01-3.67432E+00 3.74544E-02-4.62631E-01-3.76692E-13-1.76942E-13
 -1      3053 2.84001E+01 5.82748E+00-1.36496E-01-1.12093E+00-4.84973E-13-8.96574E-14
 -1      3054 1.98826E+01 5.22436E-01-2.66807E-03 3.82260E-01 8.42733E-14-2.16398E-13
 -1      3055 1.99311E+01 4.73279E-01 4.39368E-04 4.07241E-01 3.10392E-14-3.52902E-13
 -1      3056 1.99323E+01 4.74723E-01 2.08858E-03 4.58903E-01 5.05844E-14-1.75709E-13
 -1      3057 1.98284E+01 5.66400E-01 2.00400E-03 4.01548E-01 2.36397E-13 4.47914E-14
 -1      3058 1.98295E+01 2.82929E+00-5.25453E-03-3.49673E-01 4.28927E-14-4.17664E-13
 -1      3059 1.98521E+01 2.77761E+00-6.89345E-03-5.03580E-01-6.42937E-15-4.26598E-13
 -1      3060 2.00071E+01 2.40495E+00 5.65838E-03-5.02524E-01-2.42445E-14-4.01176E-13
 -1      3061 1.99595E+01 2.51672E+00 4.62730E-03-2.54646E-01 4.76107E-14-3.88825E-13
 -1      3062 2.78233E+01 2.00553E+00-1.06709E-01 1.98900E+00-1.42872E-13-1.45328E-13
 -1      3063 2.83359E+01 3.35671E+00-1.56280E-01 1.94617E+00-2.13787E-13-1.86101E-13
 -1      3064 2.70362E+01 3.96359E+00-9.64115E-02 1.98793E+00-1.70808E-13-1.05742E-13
 -1      3065 2.02900E+01 1.58980E+00-1.25449E-03 1.16506E+00 3.76974E-13-5.14788E-14
 -1      3066 2.02808E+01 1.36996E+00 2.06924E-03 9.17803E-01 3.54431E-13-9.21557E-14
 -1      3067 2.68307E+01-2.23274E-01-3.36779E-02-2.39409E+00 1.39763E-13 3.19484E-13
 -1      3068 2.02449E+01 1.48741E+00-6.08037E-03 7.99997E-01 3.23552E-13-1.57424E-13
 -1      3069 2.02081E+01 1.67639E+00-3.37266E-04 7.43660E-01 3.05877E-13-2.16101E-13
 -1      3070 1.87387E+01-4.18737E+00 7.12154E-02-5.48959E+00 2.70298E-13 9.21624E-14
 -1      3071 2.14623E+01-4.85735E+00 6.60372E-03-4.87899E+00 1.29674E-13 2.38420E-14
 -1      3072 2.02256E+01 4.37434E-01 2.22244E-03-1.07157E-01-1.30300E-13-2.46144E-13
 -1      3073 2.01900E+01 3.36782E-01-1.92307E-03-1.67804E-02-1.26126E-13-2.47781E-13
 -1      3074 2.01754E+01 2.56648E-01 2.84693E-03 4.89033E-02-1.18746E-13-2.37663E-13
 -1      3075 2.01479E+01 1.91538E-01-1.04732E-03 1.05756E-01-1.27045E-13-2.58283E-13
 -1      3076 2.02458E+01 3.58470E-01-1.02576E-03-4.83559E-03-1.30702E-13-2.66743E-13
 -1      3077 2.01308E+01 1.43225E-01 2.01299E-03 1.48409E-01-1.07005E-13-2.32280E-13
 -1      3078 2.01128E+01 1.04920E-01-2.78887E-04 1.83751E-01-8.09801E-14-2.33875E-13
 -1      3079 2.02049E+01 2.06886E-01-1.08457E-03 1.09544E-01-9.95897E-14-2.18876E-13
 -1      3080 2.00958E+01 7.82644E-02 1.17288E-03 2.10796E-01-5.70234E-14-2.09437E-13
 -1      3081 2.00863E+01 5.92299E-02 2.57743E-04 2.33141E-01-1.15241E-14-2.08533E-13
 -1      3082 2.01659E+01 1.16211E-01-9.87865E-04 1.83838E-01-5.59134E-14-1.87146E-13
 -1      3083 2.00704E+01 4.81635E-02 4.98564E-04 2.51228E-01 3.23142E-14-1.93521E-13
 -1      3084 2.00677E+01 4.32049E-02 6.42670E-04 2.67059E-01 1.33462E-14-1.77681E-13
 -1      3085 2.01311E+01 6.99132E-02-8.34389E-04 2.32631E-01 1.17631E-14-1.99147E-13
 -1      3086 2.00533E+01 4.36133E-02-3.21253E-05 2.81495E-01-1.42653E-14-1.65682E-13
 -1      3087 2.00560E+01 4.91335E-02 9.33958E-04 2.95746E-01-1.68378E-14-1.36933E-13
 -1      3088 2.01010E+01 5.61973E-02-6.61219E-04 2.67997E-01 1.93924E-14-2.16230E-13
 -1      3089 2.00427E+01 5.81200E-02-4.49666E-04 3.10693E-01-6.02732E-14-7.99428E-14
 -1      3090 2.00498E+01 7.15115E-02 1.17019E-03 3.27109E-01-5.23861E-14-8.64708E-14
 -1      3091 2.00750E+01 6.67741E-02-4.89551E-04 2.99562E-01-8.28306E-15-1.46338E-13
 -1      3092 2.00372E+01 8.68942E-02-7.82453E-04 3.45805E-01-5.39279E-14-3.52216E-14
 -1      3093 2.00481E+01 1.06090E-01 1.37557E-03 3.67203E-01-4.60659E-14-5.13028E-14
 -1      3094 2.00520E+01 9.55740E-02-3.29156E-04 3.34864E-01-5.86194E-14-2.25799E-14
 -1      3095 2.00357E+01 1.25999E-01-1.04854E-03 3.92145E-01-7.67590E-14-9.05206E-14
 -1      3096 2.00502E+01 1.49069E-01 1.56377E-03 4.20562E-01-6.65862E-14-1.24645E-13
 -1      3097 2.00308E+01 1.37760E-01-1.86957E-04 3.79752E-01-6.54202E-14-5.47421E-14
 -1      3098 2.00377E+01 1.71558E-01-1.25153E-03 4.53614E-01-6.70360E-14-1.27586E-13
 -1      3099 2.00559E+01 1.96302E-01 1.74145E-03 4.90342E-01-7.51764E-14-1.60829E-13
 -1      3100 2.00104E+01 1.88829E-01-7.39691E-05 4.38685E-01-9.42588E-14-2.02264E-13
 -1      3101 2.00435E+01 2.18935E-01-1.37704E-03 5.32753E-01-5.18849E-14-2.11387E-13
 -1      3102 2.00661E+01 2.42423E-01 1.91258E-03 5.78259E-01-9.55381E-14-1.29518E-13
 -1      3103 1.99904E+01 2.43702E-01-1.07891E-05 5.14880E-01-1.03101E-13-1.67345E-13
 -1      3104 2.00546E+01 2.61799E-01-1.38736E-03 6.30611E-01-1.58844E-13-1.20261E-13
 -1      3105 2.00830E+01 2.79828E-01 2.08008E-03 6.84344E-01-1.93919E-13-1.56179E-13
 -1      3106 1.99713E+01 2.95722E-01-3.84531E-05 6.10309E-01-1.30817E-13-1.95589E-13
 -1      3107 2.00747E+01 2.91002E-01-1.21117E-03 7.46402E-01-2.01176E-13-1.19318E-13
 -1      3108 2.01116E+01 2.97449E-01 2.24674E-03 8.06454E-01-2.04305E-13-1.45510E-13
 -1      3109 1.99556E+01 3.35450E-01-2.33441E-04 7.25588E-01-1.88941E-13-2.07061E-13
 -1      3110 2.01108E+01 2.93294E-01-7.31461E-04 8.76882E-01-2.07789E-13-1.78117E-13
 -1      3111 2.01606E+01 2.79469E-01 2.41281E-03 9.39484E-01-2.09212E-13-2.35729E-13
 -1      3112 1.99490E+01 3.49287E-01-7.17828E-04 8.59649E-01-2.31469E-13-1.39840E-13
 -1      3113 2.01754E+01 2.50142E-01 2.29442E-04 1.01534E+00-1.26392E-13-2.03911E-13
 -1      3114 2.02455E+01 2.04333E-01 2.55091E-03 1.07415E+00-1.07264E-13-1.55309E-13
 -1      3115 1.99624E+01 3.18027E-01-1.68511E-03 1.00913E+00-1.55875E-13-1.13090E-13
 -1      3116 2.02891E+01 1.37164E-01 1.92239E-03 1.14998E+00-1.24083E-13-6.76024E-14
 -1      3117 2.03902E+01 4.48927E-02 2.54357E-03 1.19502E+00-3.45250E-14-9.40349E-14
 -1      3118 2.00147E+01 2.15812E-01-3.42208E-03 1.16725E+00-6.91463E-14-5.33790E-14
 -1      3119 2.04835E+01-7.45146E-02 4.68259E-03 1.26112E+00-8.78152E-15-5.59811E-14
 -1      3120 2.06305E+01-2.28420E-01 2.11211E-03 1.27728E+00 9.66840E-14-1.12899E-13
 -1      3121 2.01371E+01 1.04607E-02-6.30161E-03 1.32146E+00-8.30008E-15 4.74238E-14
 -1      3122 2.08036E+01-4.12391E-01 8.98475E-03 1.31642E+00 1.65068E-13-9.70115E-14
 -1      3123 2.10128E+01-6.37771E-01 7.52868E-04 1.28134E+00 1.08181E-13-3.87988E-14
 -1      3124 2.03764E+01-3.32607E-01-1.06092E-02 1.44876E+00 1.41564E-13 4.70349E-14
 -1      3125 2.13047E+01-8.87068E-01 1.52321E-02 1.26282E+00-1.13403E-14 3.01169E-14
 -1      3126 2.15860E+01-1.17456E+00-2.83031E-03 1.14566E+00 2.54193E-14 2.09570E-14
 -1      3127 2.07979E+01-8.37798E-01-1.59222E-02 1.50673E+00 1.28481E-13 4.51492E-14
 -1      3128 2.20333E+01-1.45852E+00 2.12912E-02 1.01621E+00 2.59688E-14 5.47951E-14
 -1      3129 2.23738E+01-1.74761E+00-9.58729E-03 7.81251E-01 7.69365E-14 8.70647E-14
 -1      3130 2.14798E+01-1.48763E+00-2.09523E-02 1.41421E+00 4.54426E-14 1.39247E-13
 -1      3131 2.29782E+01-1.96840E+00 2.46535E-02 4.75490E-01 1.84776E-13 2.14102E-14
 -1      3132 2.33245E+01-2.12336E+00-1.83295E-02 1.07692E-01 2.28477E-13 3.82481E-14
 -1      3133 2.24730E+01-2.15589E+00-2.32610E-02 1.04853E+00 1.30530E-13 8.96826E-14
 -1      3134 2.39918E+01-2.08840E+00 1.40009E-02-4.16695E-01 1.61661E-13-1.41029E-14
 -1      3135 2.42418E+01-1.86995E+00-2.35787E-02-8.53871E-01 5.02541E-14 6.91940E-14
 -1      3136 2.36975E+01-2.53150E+00-2.90939E-02 2.83482E-01 1.18561E-13-8.90781E-14
 -1      3137 2.47864E+01-1.34420E+00-1.27184E-02-1.51280E+00-4.97232E-14-3.93349E-16
 -1      3138 2.47884E+01-5.41898E-01-1.23033E-02-1.81713E+00-4.45251E-14 3.29944E-14
 -1      3139 2.49440E+01-2.05620E+00-3.74855E-02-8.83244E-01-1.50956E-14-8.30117E-14
 -1      3140 2.52989E+01 8.76423E-01-6.61353E-02-2.19163E+00-1.22817E-13-3.84588E-14
 -1      3141 2.51340E+01 2.17549E+00-3.50582E-02-2.09960E+00-1.36252E-13-1.63064E-16
 -1      3142 2.45963E+01 4.28179E+00-8.90644E-02 9.38383E-02-4.75689E-13 1.60201E-14
 -1      3143 2.45831E+01 3.96978E+00-1.11778E-01 9.21168E-01-5.18897E-13-1.62308E-13
 -1      3144 2.50954E+01 2.98733E+00-5.79150E-02 1.74517E+00-3.16663E-13-3.37048E-14
 -1      3145 2.52911E+01 1.81950E+00-8.87019E-02 2.13199E+00-2.51101E-13-2.43642E-14
 -1      3146 2.45567E+01-1.32148E+00-1.66347E-02 1.39236E+00 1.90598E-13-1.28053E-13
 -1      3147 2.43963E+01-1.83346E+00 2.41988E-03 9.66842E-01 1.97867E-13-9.56214E-14
 -1      3148 2.37817E+01-2.07803E+00-2.04307E-02 3.55305E-01 1.71927E-13-5.62562E-14
 -1      3149 2.34652E+01-2.08028E+00 1.92678E-02-6.44252E-02 2.00000E-13-5.03157E-14
 -1      3150 2.43301E+01-2.34167E+00-2.05869E-02 3.39803E-01 2.57377E-13-1.42652E-13
 -1      3151 2.28301E+01-1.96114E+00-1.45776E-02-4.76064E-01 1.25952E-13-2.14737E-14
 -1      3152 2.24793E+01-1.71700E+00 2.24386E-02-7.78461E-01 8.35380E-14-3.80286E-14
 -1      3153 2.30668E+01-2.34968E+00-2.53095E-02-6.53983E-01 1.65516E-13-4.92705E-14
 -1      3154 2.19595E+01-1.45561E+00-7.61190E-03-9.93051E-01 7.35935E-15-5.92663E-14
 -1      3155 2.16500E+01-1.15584E+00 1.73826E-02-1.16441E+00 1.27693E-13-1.27137E-13
 -1      3156 2.19748E+01-1.80257E+00-2.19162E-02-1.22795E+00 9.80531E-15-4.98859E-14
 -1      3157 2.12883E+01-8.90104E-01-2.31699E-03-1.23771E+00 1.31224E-13-1.16055E-13
 -1      3158 2.10478E+01-6.30808E-01 1.12217E-02-1.30943E+00 4.78673E-14-1.92834E-13
 -1      3159 2.11574E+01-1.13734E+00-1.79472E-02-1.45618E+00 5.65302E-14-1.20455E-13
 -1      3160 2.08210E+01-4.17845E-01 4.69861E-04-1.30111E+00 8.91780E-14-2.22114E-13
 -1      3161 2.06477E+01-2.27763E-01 6.39987E-03-1.30721E+00 3.23034E-14-2.75383E-13
 -1      3162 2.06202E+01-5.65605E-01-1.25002E-02-1.47801E+00 4.32572E-14-2.17467E-13
 -1      3163 2.05179E+01-7.93194E-02 1.69594E-03-1.25643E+00-5.48633E-15-1.06987E-13
 -1      3164 2.03977E+01 4.41802E-02 3.13418E-03-1.22308E+00 1.21462E-13-1.48907E-13
 -1      3165 2.02972E+01-1.48193E-01-7.76937E-03-1.39158E+00 7.41792E-14-1.64119E-13
 -1      3166 2.03308E+01 1.36154E-01 2.09154E-03-1.15291E+00 1.89859E-13-3.92082E-14
 -1      3167 2.02481E+01 2.07148E-01 1.08170E-03-1.09803E+00 1.64215E-13-2.56285E-14
 -1      3168 2.01194E+01 1.22614E-01-4.43231E-03-1.25470E+00 1.88786E-13-5.86079E-15
 -1      3169 2.02190E+01 2.56874E-01 2.11838E-03-1.02139E+00 1.88007E-15 2.78127E-14
 -1      3170 2.01613E+01 2.91234E-01-1.14435E-04-9.56681E-01-1.82699E-14 6.52147E-14
 -1      3171 2.00323E+01 2.78538E-01-2.31952E-03-1.09909E+00 1.37733E-13 1.66381E-14
 -1      3172 2.01531E+01 3.12871E-01 1.96562E-03-8.80652E-01-6.60454E-14 2.83376E-14
 -1      3173 2.01114E+01 3.24652E-01-7.22615E-04-8.13409E-01 4.15379E-14-1.35037E-15
 -1      3174 1.99976E+01 3.54438E-01-1.06129E-03-9.41710E-01-4.73813E-14-8.35931E-14
 -1      3175 2.01132E+01 3.30299E-01 1.73236E-03-7.41592E-01-6.10676E-14-1.54802E-13
 -1      3176 2.00824E+01 3.30470E-01-7.49499E-04-6.75638E-01-1.29693E-13-3.18685E-13
 -1      3177 1.99907E+01 3.81205E-01-1.68827E-04-7.91356E-01-1.53788E-13-1.82019E-13
 -1      3178 2.00915E+01 3.27208E-01 1.57611E-03-6.17654E-01-8.94246E-14-2.57086E-13
 -1      3179 2.00671E+01 3.23912E-01-4.16465E-04-5.54218E-01-7.52486E-14-2.86139E-13
 -1      3180 2.00101E+01 3.66422E-01-8.27531E-04-5.46668E-01-1.60459E-13-2.42492E-13
 -1      3181 1.99992E+01 3.78708E-01-3.39318E-04-6.59908E-01-2.09037E-13-1.42765E-13
 -1      3182 2.15169E+01-4.15230E+00 1.45612E-01-4.13665E+00-4.66432E-13-5.08371E-13
 -1      3183 2.36350E+01-4.63942E+00-1.08340E-01-2.88371E+00-4.61263E-13-4.14347E-13
 -1      3184 2.00232E+01 3.51062E-02 7.45069E-04-2.65818E-01 7.60832E-14-8.41843E-14
 -1      3185 2.00197E+01 4.01330E-02 5.93850E-04-2.50876E-01 4.44334E-14-6.91037E-14
 -1      3186 2.00466E+01 9.50021E-02 1.55562E-03-3.62886E-01 5.74528E-14 1.55203E-14
 -1      3187 2.00268E+01 7.57242E-02-8.15117E-04-3.41560E-01 1.08748E-13-2.86822E-14
 -1      3188 2.00650E+01 1.40428E-01 1.81115E-03-4.17670E-01 4.35481E-14 8.30054E-14
 -1      3189 2.00410E+01 1.15526E-01-1.14810E-03-3.88077E-01 3.76107E-14 4.96125E-14
 -1      3190 2.00368E+01 1.27447E-01-2.11290E-04-3.82539E-01 1.99647E-14-7.48080E-15
 -1      3191 2.00867E+01 1.95494E-01 2.07446E-03-4.92122E-01 4.28771E-14 1.04646E-13
 -1      3192 2.00586E+01 1.65796E-01-1.46703E-03-4.52117E-01 8.13583E-14 1.25035E-13
 -1      3193 2.00301E+01 1.83596E-01-8.91899E-06-4.43378E-01 4.41428E-14 8.23644E-14
 -1      3194 2.01105E+01 2.58188E-01 2.34465E-03-5.89881E-01 2.64877E-14 7.09079E-14
 -1      3195 2.00783E+01 2.24805E-01-1.78604E-03-5.37807E-01 1.87079E-14 8.78171E-14
 -1      3196 2.00215E+01 2.50628E-01 2.16632E-04-5.24367E-01 4.25347E-14 1.02016E-13
 -1      3197 2.01357E+01 3.25176E-01 2.62159E-03-7.13556E-01 3.72865E-14 7.50904E-14
 -1      3198 2.00990E+01 2.90021E-01-2.10166E-03-6.48372E-01 7.89073E-15 7.68698E-14
 -1      3199 2.00088E+01 3.25812E-01 4.69200E-04-6.28997E-01 2.59506E-15 2.92910E-14
 -1      3200 2.01620E+01 3.90399E-01 2.91224E-03-8.64401E-01-2.96803E-14 6.17316E-14
 -1      3201 2.01201E+01 3.56977E-01-2.38446E-03-7.85959E-01 2.77328E-14 8.48977E-14
 -1      3202 1.99895E+01 4.04610E-01 7.27738E-04-7.59854E-01 2.20983E-14 8.85674E-14
 -1      3203 2.01909E+01 4.42936E-01 3.24460E-03-1.04174E+00-2.20400E-14 2.71598E-14
 -1      3204 2.01422E+01 4.17523E-01-2.55984E-03-9.51253E-01-5.81754E-15 5.56079E-14
 -1      3205 1.99621E+01 4.78956E-01 9.20749E-04-9.18550E-01-1.77612E-14 4.84924E-14
 -1      3206 2.02285E+01 4.63958E-01 3.68306E-03-1.24206E+00-6.16886E-14-1.33468E-14
 -1      3207 2.01688E+01 4.57268E-01-2.47903E-03-1.14282E+00-3.38770E-14-1.44521E-14
 -1      3208 1.99275E+01 5.34707E-01 8.85813E-04-1.10561E+00-1.36220E-14-4.87601E-14
 -1      3209 2.02898E+01 4.22787E-01 4.32859E-03-1.45766E+00 2.34772E-14-8.23391E-14
 -1      3210 2.02104E+01 4.52065E-01-1.87123E-03-1.35611E+00-3.05634E-14-4.23708E-14
 -1      3211 1.98917E+01 5.48071E-01 2.98077E-04-1.32034E+00 3.48343E-15-1.17838E-13
 -1      3212 2.04060E+01 2.72825E-01 5.25561E-03-1.67431E+00 9.10341E-15-4.15459E-14
 -1      3213 2.02903E+01 3.63882E-01-2.69348E-04-1.58172E+00 4.25294E-14-3.93499E-14
 -1      3214 1.98723E+01 4.81105E-01-1.43553E-03-1.56054E+00 3.75459E-15-8.39387E-14
 -1      3215 2.06356E+01-5.01289E-02 6.09479E-03-1.86663E+00-2.63922E-14-5.08639E-14
 -1      3216 2.04545E+01 1.37650E-01 3.14835E-03-1.80192E+00-5.42559E-15-3.88672E-14
 -1      3217 1.99069E+01 2.77013E-01-5.33337E-03-1.82122E+00-2.09971E-14-1.26258E-13
 -1      3218 2.10757E+01-6.17311E-01 6.52048E-03-1.98594E+00-2.08737E-13-6.83336E-14
 -1      3219 2.07856E+01-2.96644E-01 9.56462E-03-1.98196E+00-1.17473E-13-5.68274E-14
 -1      3220 2.00684E+01-1.42281E-01-1.32243E-02-2.08893E+00-1.02299E-13-5.62759E-14
 -1      3221 2.18606E+01-1.47483E+00 4.36465E-03-1.93927E+00-1.26757E-13-1.38094E-13
 -1      3222 2.14163E+01-1.00344E+00 2.24319E-02-2.05439E+00-1.11487E-13-1.33277E-13
 -1      3223 2.04816E+01-8.63428E-01-2.66321E-02-2.32768E+00-1.18258E-13-1.82737E-13
 -1      3224 2.32420E+01-2.44306E+00 3.02266E-02-1.47690E+00-4.00704E-13 3.17957E-14
 -1      3225 2.25486E+01-1.98588E+00 4.68808E-02-1.85950E+00-2.48046E-13-4.06593E-14
 -1      3226 2.13696E+01-1.94878E+00-4.04546E-02-2.44495E+00-2.29247E-13-1.42122E-13
 -1      3227 2.44766E+01-3.42406E+00 2.47274E-02-1.22512E+00-3.92256E-13-2.83853E-14
 -1      3228 2.36002E+01-3.13280E+00 4.85112E-02-1.81693E+00-4.17938E-13-9.51158E-14
 -1      3229 2.66393E+01-2.58822E+00-9.23477E-02 9.64121E-01-3.42264E-13 1.31580E-13
 -1      3230 2.13248E+01-9.20733E-01 1.97748E-02 2.06799E+00 1.00029E-13-8.92815E-14
 -1      3231 2.17527E+01-1.37140E+00 5.70477E-03 1.97108E+00 1.35267E-13-9.57334E-14
 -1      3232 2.07364E+01-2.45216E-01 9.02200E-03 1.98583E+00-6.40642E-14-7.42776E-15
 -1      3233 2.10122E+01-5.50880E-01 6.56727E-03 1.99742E+00-5.15879E-14 3.15642E-14
 -1      3234 2.04269E+01-7.76325E-01-2.30645E-02 2.31986E+00-4.13662E-14-1.76676E-13
 -1      3235 2.04279E+01 1.65377E-01 2.76376E-03 1.80114E+00-2.17354E-13 2.23114E-14
 -1      3236 2.06009E+01-1.12541E-02 6.22246E-03 1.86922E+00-7.17523E-14 1.16975E-13
 -1      3237 2.00452E+01-9.18380E-02-1.15996E-02 2.08149E+00-1.42064E-13 1.05724E-13
 -1      3238 2.02764E+01 3.76726E-01-4.71532E-04 1.57962E+00-9.58265E-14-2.79414E-14
 -1      3239 2.03874E+01 2.92128E-01 5.17106E-03 1.67377E+00-2.29515E-13 1.85303E-14
 -1      3240 1.99027E+01 3.02719E-01-4.79450E-03 1.81436E+00-1.77674E-13-6.48808E-14
 -1      3241 2.02036E+01 4.58707E-01-1.89284E-03 1.35369E+00 1.44912E-13 6.82215E-15
 -1      3242 2.02800E+01 4.31451E-01 4.20662E-03 1.45622E+00 5.76662E-14 9.80935E-14
 -1      3243 1.98786E+01 4.92914E-01-1.24991E-03 1.55538E+00-1.24167E-13 1.40959E-14
 -1      3244 2.01658E+01 4.66030E-01-2.33780E-03 1.13871E+00 3.83047E-13-1.19759E-13
 -1      3245 2.02234E+01 4.70594E-01 3.53456E-03 1.23966E+00 3.22940E-13-8.73792E-14
 -1      3246 1.99032E+01 5.55758E-01 3.07019E-04 1.31613E+00 2.53131E-13-4.88970E-15
 -1      3247 2.01414E+01 4.36312E-01-2.28429E-03 9.41936E-01 1.40184E-13-5.41564E-14
 -1      3248 2.01883E+01 4.55573E-01 3.05383E-03 1.03604E+00 2.70202E-13-6.01434E-14
 -1      3249 1.99413E+01 5.47595E-01 8.42107E-04 1.09969E+00 2.53633E-13 2.37898E-13
 -1      3250 2.01207E+01 3.94116E-01-1.91078E-03 7.65864E-01 1.43211E-13 1.47172E-14
 -1      3251 2.01605E+01 4.17057E-01 2.64242E-03 8.50973E-01 7.87862E-14-8.67488E-14
 -1      3252 1.99766E+01 5.06055E-01 8.93258E-04 9.06653E-01 9.53958E-14 2.18863E-13
 -1      3253 2.01014E+01 3.56091E-01-4.54019E-04 6.10611E-01 4.85463E-14 4.15663E-13
 -1      3254 2.01344E+01 3.74231E-01 2.25758E-03 6.85596E-01 4.71691E-14 1.61751E-13
 -1      3255 2.00024E+01 4.55381E-01 6.03471E-04 7.36194E-01 4.24031E-14 2.34634E-14
 -1      3256 2.00602E+01 3.57930E-01 7.07256E-04 5.13989E-01-1.58893E-13 5.07890E-13
 -1      3257 2.00944E+01 3.57221E-01 2.33495E-03 5.65416E-01 6.49629E-14 4.21601E-13
 -1      3258 1.99993E+01 4.26596E-01-5.02444E-04 6.09110E-01-1.65911E-13 1.89744E-13
 -1      3259 1.99832E+01 4.18433E-01-2.63407E-03 5.17751E-01-2.53446E-14 1.83753E-13
 -1      3260 2.70394E+01-1.34208E+00-1.47938E-01-1.32949E+00-1.33310E-13-4.27436E-15
 -1      3261 2.66480E+01-2.63702E+00 2.96615E-02-2.37867E-01-1.22072E-13 1.04999E-13
 -1      3262 1.89960E+01-4.25398E+00-7.70011E-02 5.14848E+00-2.86438E-13-5.64944E-13
 -1      3263 1.64590E+01-3.37003E+00 1.71303E-01 5.55778E+00-4.52208E-13-5.01904E-13
 -1      3264 1.55947E+01-2.37202E+00 1.05148E-01 4.94222E+00-4.60028E-13-3.53315E-13
 -1      3265 1.95911E+01 7.09970E-01-5.45569E-04-8.20838E-02 1.07468E-13 4.81664E-14
 -1      3266 1.95828E+01 7.16282E-01-1.49330E-03 5.09282E-03 1.47682E-13 1.53057E-13
 -1      3267 1.03835E+01-4.20119E-02 7.15918E-02 2.32051E+00-5.38750E-13 2.38698E-14
 -1      3268 9.35969E+00 3.94030E-01 1.34563E-01 1.71520E-01-6.21012E-13 2.44915E-13
 -1      3269 2.00314E+01 5.07661E-02 3.77479E-04-2.32650E-01 5.03582E-14-6.34668E-14
 -1      3270 2.00362E+01 6.87945E-02 1.35417E-03-2.10800E-01 7.49565E-14-7.49480E-14
 -1      3271 2.00880E+01 6.09886E-02-1.03004E-03-2.36401E-01 5.30583E-14-1.13442E-13
 -1      3272 9.24163E+00 5.23626E-02 8.09745E-02-1.69888E+00-4.74733E-13 4.69319E-13
 -1      3273 1.04280E+01-5.74323E-01 8.90963E-02-3.47199E+00-2.78423E-13 5.29715E-13
 -1      3274 1.98702E+01 4.80254E-01 8.84840E-04-4.81973E-01-1.84902E-13 4.06121E-13
 -1      3275 1.98041E+01 5.27748E-01-2.61052E-03-4.47967E-01-1.50563E-13 2.58579E-13
 -1      3276 2.02189E+01 1.78366E+00 7.28652E-03-9.16065E-01-1.71259E-13-3.74541E-13
 -1      3277 2.01319E+01 3.09676E-01-1.80088E-03 2.89507E-02 1.24940E-13-1.03176E-13
 -1      3278 2.01756E+01 4.07717E-01 4.48873E-03 1.23147E-01 1.70694E-13-9.81925E-14
 -1      3279 1.97428E+01 5.85454E-01 1.40342E-03-3.93014E-01-2.25724E-13-1.36857E-13
 -1      3280 1.96881E+01 6.21759E-01-2.71055E-03-3.33065E-01-1.16974E-13-4.62329E-14
 -1      3281 1.97305E+01 5.70756E-01 8.89408E-04-4.64678E-01-1.33261E-13 8.70549E-14
 -1      3282 2.23554E+01-1.86912E+00 3.65214E-02 1.92062E+00 1.55433E-13-7.30114E-14
 -1      3283 2.29469E+01-2.41366E+00-7.28001E-03 1.63678E+00 2.32173E-13-4.95709E-14
 -1      3284 2.12309E+01-1.79479E+00-3.54743E-02 2.44049E+00 1.46447E-13-2.54408E-13
 -1      3285 2.39603E+01-2.87602E+00 4.79247E-02 1.26395E+00 1.18888E-13-1.31499E-13
 -1      3286 2.46601E+01-3.16782E+00-6.29408E-03 7.30816E-01-6.23199E-15-9.79091E-14
 -1      3287 2.27384E+01-3.05071E+00-3.32248E-02 2.23771E+00 1.15512E-13-2.93242E-13
 -1      3288 2.75502E+01 5.12269E+00-1.37533E-01 4.19421E-01 2.39225E-13 2.27516E-13
 -1      3289 2.86847E+01 5.68997E+00-1.83761E-01-2.82217E-01 2.93904E-13 8.18304E-14
 -1      3290 2.00326E+01 6.08507E-02 1.30314E-03-3.23224E-01 1.28992E-13-2.92598E-14
 -1      3291 2.00173E+01 4.81184E-02-4.40814E-04-3.07537E-01 1.18942E-13-1.48808E-14
 -1      3292 2.00439E+01 8.42745E-02-4.01609E-04-3.37470E-01 9.82566E-14 1.03793E-14
 -1      3293 2.55264E+01-3.97460E+00-1.06681E-01 1.25655E+00 2.44735E-14 1.14856E-13
 -1      3294 2.41364E+01-4.27638E+00 5.59044E-02 2.56532E+00 1.19736E-13 1.22210E-13
 -1      3295 2.00243E+01 3.99310E-02 1.04079E-03-2.93145E-01 9.36703E-14-6.73246E-14
 -1      3296 2.00143E+01 3.50663E-02 1.31056E-05-2.79863E-01 9.49730E-14-8.37507E-14
 -1      3297 2.00677E+01 4.70066E-02-8.03153E-04-2.71885E-01 8.49787E-14-1.51271E-13
 -1      3298 2.00536E+01 5.63852E-02-5.94771E-04-3.02799E-01 8.91802E-14-6.90197E-14
 -1      3299 2.02845E+01 1.26877E+00-4.95802E-03-6.78128E-01-1.42780E-13-3.24337E-13
 -1      3300 2.02693E+01 9.17610E-01-2.94779E-04-4.06284E-01-1.28958E-13-2.94042E-13
 -1      3301 2.02222E+01 1.58026E+00 9.35505E-04-6.31260E-01-1.01260E-13-3.48123E-13
 -1      3302 2.00843E+01 1.74296E-01-8.43689E-04-1.01513E-01 1.07959E-13-1.25042E-13
 -1      3303 2.01139E+01 2.35332E-01 3.59130E-03-4.28084E-02 1.08981E-13-1.17139E-13
 -1      3304 2.01978E+01 3.37812E-01-1.47901E-03 1.73649E-02 1.40362E-13-1.34259E-13
 -1      3305 2.02785E+01 7.16827E-01-2.56914E-04-3.19075E-01-1.21477E-13-2.77742E-13
 -1      3306 2.02430E+01 5.68296E-01-2.51787E-03-1.85144E-01-1.15558E-13-2.58816E-13
 -1      3307 2.02909E+01 5.98100E-01 6.11159E-04-1.58632E-01-1.19694E-13-2.68319E-13
 -1      3308 2.03083E+01 9.44162E-01 2.71978E-03-3.33382E-01-9.14983E-14-2.96599E-13
 -1      3309 8.70808E+00-1.13142E+00 1.61542E-01 3.77078E+00 2.31544E-13 1.94844E-13
 -1      3310 9.28795E+00-2.49549E-01 1.47552E-01 2.37577E+00 3.43864E-13-6.63358E-14
 -1      3311 1.67359E+01-2.76942E+00 2.86265E-02 5.09255E+00 2.22440E-13 1.69351E-13
 -1      3312 1.37319E+01-1.57347E+00 1.24828E-01 4.78105E+00 1.73916E-13 4.10387E-13
 -1      3313 9.40680E+00 3.25027E-01 6.27114E-02-2.24747E-01 3.07959E-13-2.15550E-13
 -1      3314 9.90680E+00 3.86245E-03 9.66582E-02-2.19118E+00 9.54618E-14-5.36904E-13
 -1      3315 2.23662E+01-4.44978E+00-2.96126E-02 3.75061E+00 3.78031E-14 1.46418E-13
 -1      3316 2.00154E+01-3.78172E+00 3.69045E-02 4.52178E+00 4.29552E-14 1.80776E-13
 -1      3317 2.33523E+01-3.87595E+00 5.27584E-02 2.51542E+00 6.19470E-15-2.51431E-14
 -1      3318 2.00510E+01 9.36635E-02-1.24695E-04-1.82627E-01 5.09004E-14-7.10895E-14
 -1      3319 2.00668E+01 1.29490E-01 2.34674E-03-1.46963E-01 7.75102E-14-1.01905E-13
 -1      3320 2.01163E+01 1.05680E-01-1.26099E-03-1.85790E-01 7.49896E-14-1.44741E-13
 -1      3321 2.89537E+01 5.55127E+00-5.16736E-02-1.13953E+00 2.89824E-13 5.63438E-14
 -1      3322 2.92326E+01 3.37767E+00-1.52390E-01-2.28081E+00 3.78586E-13 1.52836E-13
 -1      3323 2.02929E+01 9.93876E-01-4.45158E-04 6.87147E-01 3.01771E-13-8.44648E-14
 -1      3324 2.02707E+01 1.31203E+00 2.82834E-03 7.68153E-01 3.22117E-13-1.20442E-13
 -1      3325 2.02760E+01 1.13518E+00 1.64755E-04 5.89276E-01 2.86799E-13-1.38174E-13
 -1      3326 2.02345E+01 7.82319E-01-3.76615E-03 4.80324E-01 2.82569E-13-7.13362E-14
 -1      3327 2.71432E+01 5.79995E+00-1.71158E-01-6.13004E-01-4.31932E-13-2.93834E-13
 -1      3328 2.70527E+01 5.01513E+00-1.06824E-01-1.51947E+00-4.61464E-13-1.74277E-13
 -1      3329 2.72313E+01-2.34859E+00-1.08200E-01-1.20679E+00 1.10061E-13 1.47965E-13
 -1      3330 2.67669E+01-3.55395E+00 7.40524E-02 1.94771E-01 8.92342E-14-1.82264E-13
 -1      3331 2.48042E+01-4.64634E+00-1.25406E-01 2.23341E+00 5.09523E-14-4.42264E-13
 -1      3332 2.26524E+01-4.45836E+00 1.67523E-01 3.82552E+00-9.95662E-14-4.66398E-13
 -1      3333 1.59878E+01-2.75266E+00 1.32572E-01-5.19629E+00-3.27766E-13-6.42673E-13
 -1      3334 1.86466E+01-3.87854E+00-4.09533E-02-5.08247E+00-4.04114E-13-6.21753E-13
 -1      3335 2.00557E+01 2.17282E+00-4.33426E-03 2.90591E-01 1.97554E-13-3.64705E-13
 -1      3336 2.00426E+01 2.21160E+00-3.55256E-03 1.69191E-01 1.50078E-13-3.83678E-13
 -1      3337 1.96453E+01 6.64585E-01 5.27738E-04-2.54009E-01-7.43982E-14-2.16539E-13
 -1      3338 1.96117E+01 6.86900E-01-2.25886E-03-1.77326E-01 5.07010E-14 2.88770E-14
 -1      3339 1.95293E+01 7.26019E-01 2.21899E-03-1.46219E-01 1.22233E-13-2.82208E-14
 -1      3340 1.96063E+01 6.64241E-01 1.64901E-03-3.26388E-01-1.76187E-13-1.73828E-13
 -1      3341 1.06126E+01-1.33945E-01 4.51532E-02 2.73041E+00 4.26176E-13 9.99478E-14
 -1      3342 9.79829E+00 3.48148E-01 1.35553E-01 1.32726E+00 4.29897E-13-1.61343E-13
 -1      3343 1.08691E+01-1.05513E+00 9.80805E-02 4.12118E+00 2.76362E-13 3.87426E-13
 -1      3344 1.12178E+01-7.67819E-01 9.59365E-02-3.65279E+00-1.47785E-13-6.69881E-13
 -1      3345 1.33990E+01-1.95457E+00 3.16626E-02-4.93513E+00-2.62207E-13-5.51947E-13
 -1      3346 1.56654E+01-1.89923E+00 8.49373E-02-4.51349E+00-2.56226E-13-5.31235E-13
 -1      3347 2.00371E+01 2.23014E+00-3.53018E-03 6.54830E-02 1.34396E-13-3.70973E-13
 -1      3348 2.00336E+01 2.22482E+00-5.89471E-03-5.98080E-02 9.68238E-14-3.55001E-13
 -1      3349 2.01486E+01 1.93851E+00 4.93022E-03 1.00708E-01 1.23226E-13-3.48796E-13
 -1      3350 1.75148E+01-3.43739E+00 9.11709E-02-5.44870E+00 3.36293E-13 1.73757E-13
 -1      3351 1.93792E+01-3.52507E+00 3.97661E-02-4.64217E+00 2.71668E-13 1.44593E-13
 -1      3352 1.63327E+01-2.49277E+00 6.05286E-02-5.02820E+00 2.22738E-13 2.94716E-13
 -1      3353 2.31561E+01-4.55006E+00 2.95050E-02-3.52313E+00 7.71605E-14 4.72070E-14
 -1      3354 2.66127E+01-3.30547E+00-1.71189E-02-4.21983E-01 2.87830E-14 1.14284E-13
 -1      3355 2.65550E+01-2.35916E+00-6.75540E-02 6.36708E-01-1.55050E-14 1.29577E-13
 -1      3356 2.01634E+01 1.79995E+00-3.32725E-03-4.80319E-01-4.66752E-14-3.71243E-13
 -1      3357 2.01922E+01 1.67494E+00-8.43189E-03-5.71537E-01-7.95307E-14-3.76913E-13
 -1      3358 2.02975E+01 1.25704E+00 6.57121E-03-3.79417E-01-8.03647E-14-3.46437E-13
 -1      3359 2.67924E+01-4.40047E-01-1.36542E-02 1.72306E+00-5.26246E-14 1.63036E-13
 -1      3360 2.74042E+01 6.67830E-01-8.80511E-02 2.00022E+00-8.80407E-14-7.57380E-14
 -1      3361 2.64939E+01 1.55639E+00-7.64830E-02 2.26344E+00-1.74305E-13-3.24046E-15
 -1      3362 1.21002E+01-8.54137E-01 1.33426E-01-4.06187E+00-1.45422E-13 3.31055E-13
 -1      3363 1.39093E+01-1.37672E+00 2.41968E-02-4.42176E+00-6.98573E-15 2.22135E-13
 -1      3364 1.23866E+01-2.25793E-01 7.45620E-02-3.20149E+00-2.82187E-13 2.00291E-13
 -1      3365 2.71650E+01-2.73123E-01-8.88753E-02-2.34601E+00 1.60531E-13 2.98407E-13
 -1      3366 2.73861E+01-1.58356E+00-4.58271E-02-1.90044E+00 9.38485E-14 2.25445E-13
 -1      3367 2.63953E+01 3.60227E+00-8.87808E-02-1.81890E+00-2.58280E-13-2.15342E-13
 -1      3368 2.60195E+01 7.02629E-02-6.96387E-02-1.97824E+00-1.35541E-13-1.44718E-13
 -1      3369 2.47135E+01 3.43084E+00-1.02237E-01-1.45800E+00-1.83700E-13-7.97765E-14
 -1      3370 2.45883E+01 4.09618E+00-7.96781E-02-7.73679E-01-3.74943E-13-3.37612E-14
 -1      3371 2.56831E+01-3.59609E+00 7.42432E-02-6.35785E-01-4.00190E-13 9.89139E-15
 -1      3372 2.48151E+01 5.64964E-01 2.59630E-03 2.06601E+00-2.19299E-13 6.74942E-14
 -1      3373 2.48200E+01-4.96986E-01-3.45552E-02 1.92066E+00 2.72818E-14-2.56800E-14
 -1      3374 2.00756E+01 2.11662E+00-3.12817E-03 3.88416E-01 2.17488E-13-3.41911E-13
 -1      3375 2.01712E+01 1.86247E+00 5.35655E-03 2.88155E-01 1.94668E-13-3.26590E-13
 -1      3376 2.01005E+01 2.03565E+00-5.33476E-03 5.01316E-01 2.52624E-13-3.17247E-13
 -1      3377 2.01417E+01 1.87304E+00-6.77816E-03-4.06943E-01-1.80146E-14-3.60441E-13
 -1      3378 2.02804E+01 1.43648E+00 6.72264E-03-2.77264E-01-1.69474E-14-3.17299E-13
 -1      3379 2.01231E+01 1.95350E+00-2.41481E-03-2.99319E-01 9.27264E-15-3.39070E-13
 -1      3380 2.56140E+01-3.73543E+00-2.02510E-02-1.14359E+00 7.20344E-16 7.51586E-14
 -1      3381 2.65172E+01-2.23039E+00-2.15507E-02-1.28382E+00-1.08281E-14 1.57402E-13
 -1      3382 1.95105E+01 7.47441E-01 2.51161E-03 5.71738E-02 7.52744E-14 1.52089E-13
 -1      3383 1.95885E+01 7.15528E-01-1.59634E-03 1.06256E-01 1.62870E-13 3.75328E-13
 -1      3384 1.96086E+01 7.03802E-01-5.18735E-04 1.91754E-01 1.41967E-13 2.13388E-13
 -1      3385 2.60520E+01 5.20299E+00-1.05184E-01-2.01950E-01-4.31918E-13-4.77772E-13
 -1      3386 2.01533E+01 1.92250E-01-1.43694E-03-1.06678E-01 7.98663E-14-1.40095E-13
 -1      3387 2.22188E+01-3.18677E+00 1.91178E-03-2.80605E+00-3.62432E-13-2.63525E-13
 -1      3388 2.52184E+01-1.17588E+00-3.16529E-02 1.53795E+00 6.67782E-14 7.16241E-14
 -1      3389 1.14598E+01-1.94572E-01 1.52817E-01 2.96411E+00-4.27151E-13-4.48530E-14
 -1      3390 1.15583E+01 3.87067E-01 2.88875E-02 1.82657E+00-6.07587E-13 1.65604E-13
 -1      3391 1.25795E+01-7.12519E-01 1.75922E-02 3.56443E+00-4.46594E-13-1.84228E-13
 -1      3392 2.88910E+01 3.82201E+00-7.34527E-02 2.10944E+00 2.80498E-13 1.23249E-13
 -1      3393 2.02626E+01 1.47119E+00 7.14020E-03 5.83336E-01 2.67749E-13-2.20313E-13
 -1      3394 2.01659E+01 1.80900E+00-7.35959E-03 6.80858E-01 2.95663E-13-2.53342E-13
 -1      3395 2.01314E+01 1.94000E+00-2.90604E-03 5.86770E-01 2.68464E-13-2.80378E-13
 -1      3396 2.59700E+01-2.86128E+00-4.87121E-03-5.37287E-01-7.16475E-14 1.03594E-13
 -1      3397 2.08769E+01-3.85447E+00 4.76652E-02 4.05862E+00-5.78426E-14-3.28194E-13
 -1      3398 1.96423E+01 6.77993E-01-2.34225E-03 2.85327E-01 6.26636E-14 6.54201E-14
 -1      3399 1.96894E+01 6.48353E-01 3.33211E-04 3.57680E-01-3.91579E-14 1.28232E-13
 -1      3400 1.95560E+01 7.23282E-01 2.33391E-03 2.59223E-01 1.04490E-13 2.28465E-13
 -1      3401 1.08410E+01 4.81617E-01 1.16965E-01-6.82982E-01-6.31109E-13 2.88609E-13
 -1      3402 2.02071E+01-3.48623E+00 2.83632E-02-4.13237E+00-3.05880E-13-5.39246E-13
 -1      3403 1.09592E+01 5.99752E-01 1.14165E-01 2.94452E-01 3.22594E-13-1.38702E-13
 -1      3404 1.24845E+01-1.16960E+00 6.70191E-02 4.44242E+00 2.18714E-13 4.35992E-13
 -1      3405 1.19551E+01-6.80160E-01 1.05173E-01 3.84875E+00 2.70617E-13 3.26572E-13
 -1      3406 2.56339E+01-3.04964E+00-1.37563E-02 1.65152E-01-2.42523E-14 7.56825E-14
 -1      3407 2.52364E+01-3.47171E+00-3.15110E-02 6.31131E-01 8.68706E-14-7.49643E-14
 -1      3408 1.21980E+01-1.30943E-01 7.51534E-02 2.96951E+00 3.96582E-13 1.31888E-13
 -1      3409 1.88386E+01-3.13030E+00 6.02364E-02 4.65340E+00 9.52884E-14 6.14335E-14
 -1      3410 1.74193E+01-2.12069E+00 2.56093E-02 4.31802E+00 1.21320E-13-3.58602E-14
 -1      3411 2.02978E+01-3.20833E+00-3.53805E-02 3.75276E+00-4.94015E-14 9.14425E-14
 -1      3412 1.46841E+01-1.29685E+00 8.09853E-02 4.28925E+00 1.06547E-13 3.82375E-13
 -1      3413 1.20490E+01-8.55146E-02 1.19781E-01-2.72207E+00-3.04270E-14-4.45345E-13
 -1      3414 1.97410E+01 6.06164E-01-2.66723E-03 4.17905E-01-4.40039E-15-9.01503E-14
 -1      3415 1.97983E+01 5.69217E-01 5.19958E-04 4.58608E-01 1.93811E-13-1.84408E-13
 -1      3416 1.96592E+01 6.59886E-01 2.50594E-03 4.19407E-01-7.60467E-14-4.65211E-14
 -1      3417 2.01806E+01 4.96990E-01-2.73061E-03 2.11935E-01 2.13000E-13-1.05640E-13
 -1      3418 2.02348E+01 6.43740E-01 3.92691E-03 3.54269E-01 2.56574E-13-9.03301E-14
 -1      3419 2.02648E+01 8.03447E-01 1.08215E-03 4.15453E-01 2.61664E-13-8.09160E-14
 -1      3420 2.02362E+01 5.37472E-01-1.51230E-03 1.88366E-01 2.02848E-13-1.07246E-13
 -1      3421 1.99589E+01 4.03364E-01-3.71470E-04-5.31099E-01-2.58385E-13-1.43395E-13
 -1      3422 1.99107E+01 4.43030E-01-1.31874E-03-5.08646E-01-2.43878E-13 2.74073E-13
 -1      3423 1.98513E+01 4.81667E-01 5.13117E-04-5.44423E-01-3.26872E-13 3.21487E-13
 -1      3424 1.99554E+01 4.11527E-01 1.20653E-03-5.85824E-01-3.52863E-13 5.48318E-15
 -1      3425 2.03144E+01 1.14034E+00 9.41998E-04-2.82013E-01-5.75804E-14-3.33321E-13
 -1      3426 2.03121E+01 1.02637E+00-4.31274E-03-3.15405E-01-8.51289E-14-3.34566E-13
 -1      3427 2.03249E+01 8.43592E-01 8.55602E-04-2.29534E-01-9.27825E-14-3.23026E-13
 -1      3428 2.02715E+01 2.77955E-01 1.78424E-03 6.84603E-02-6.29326E-14-2.14178E-13
 -1      3429 2.02476E+01 2.10731E-01-1.05857E-03 1.16253E-01-4.70617E-14-1.94775E-13
 -1      3430 2.02296E+01 1.60542E-01 1.28968E-03 1.49880E-01-4.70159E-14-1.77924E-13
 -1      3431 2.02084E+01 1.22022E-01-3.61010E-04 1.81235E-01-1.54805E-14-1.42096E-13
 -1      3432 2.02831E+01 2.19756E-01-3.59462E-04 1.15186E-01-2.10322E-14-1.14569E-13
 -1      3433 2.01861E+01 9.59003E-02 7.01425E-04 2.03766E-01-1.75914E-14-1.45030E-13
 -1      3434 2.01684E+01 7.88756E-02 1.49497E-04 2.25331E-01 5.11839E-15-1.78437E-13
 -1      3435 2.02386E+01 1.31717E-01-4.30603E-04 1.74266E-01-3.27955E-14-8.85005E-14
 -1      3436 2.01438E+01 7.06840E-02 1.77785E-04 2.41932E-01 3.53463E-14-2.21646E-13
 -1      3437 2.01293E+01 6.98193E-02 5.17150E-04 2.59067E-01 4.96055E-14-1.73057E-13
 -1      3438 2.01902E+01 9.13942E-02-3.92872E-04 2.15869E-01 7.45981E-15-1.55932E-13
 -1      3439 2.01029E+01 7.51282E-02-2.76364E-04 2.74019E-01 2.45658E-14-1.64700E-13
 -1      3440 2.00910E+01 8.65116E-02 7.85300E-04 2.90967E-01-9.21278E-15-1.49115E-13
 -1      3441 2.01397E+01 8.71611E-02-2.77917E-04 2.49338E-01 2.36688E-14-1.48607E-13
 -1      3442 2.00629E+01 1.02035E-01-6.72355E-04 3.07727E-01-4.45849E-14-1.29184E-13
 -1      3443 2.00528E+01 1.22682E-01 9.90099E-04 3.27800E-01-7.72765E-14-1.53259E-13
 -1      3444 2.00875E+01 1.10355E-01-1.12988E-04 2.82368E-01-2.06767E-14-1.70068E-13
 -1      3445 2.00225E+01 1.45804E-01-1.02295E-03 3.49156E-01-9.21350E-14-1.27601E-13
 -1      3446 2.00135E+01 1.73200E-01 1.16085E-03 3.74915E-01-7.17707E-14-1.41892E-13
 -1      3447 2.00325E+01 1.54299E-01 8.03649E-05 3.21185E-01-5.98610E-14-1.92932E-13
 -1      3448 1.99804E+01 2.01519E-01-1.33520E-03 4.03135E-01-8.40704E-14-1.93075E-13
 -1      3449 1.99720E+01 2.33147E-01 1.32045E-03 4.36510E-01-9.11386E-14-1.71924E-13
 -1      3450 1.99735E+01 2.13372E-01 2.86815E-04 3.70840E-01-9.87384E-14-1.58001E-13
 -1      3451 1.99353E+01 2.64002E-01-1.60659E-03 4.73442E-01-1.07111E-13-1.30237E-13
 -1      3452 1.99275E+01 2.96857E-01 1.49375E-03 5.15770E-01-1.19827E-13-1.16316E-13
 -1      3453 1.99086E+01 2.81983E-01 4.78134E-04 4.35475E-01-5.36862E-14-1.76024E-13
 -1      3454 1.98869E+01 3.26840E-01-1.82229E-03 5.62912E-01-1.46110E-13-1.73554E-13
 -1      3455 1.98804E+01 3.56905E-01 1.71673E-03 6.14941E-01-1.57325E-13-2.35039E-13
 -1      3456 1.98369E+01 3.53589E-01 6.24093E-04 5.18501E-01-1.43861E-13-1.51883E-13
 -1      3457 1.98365E+01 3.81270E-01-1.94662E-03 6.73550E-01-1.59450E-13-2.65470E-13
 -1      3458 1.98333E+01 4.02831E-01 2.03627E-03 7.35391E-01-1.94784E-13-2.16352E-13
 -1      3459 1.97580E+01 4.19541E-01 6.56892E-04 6.22827E-01-1.52872E-13-2.62924E-13
 -1      3460 1.97882E+01 4.14759E-01-1.90996E-03 8.06527E-01-1.93534E-13-1.75111E-13
 -1      3461 1.97922E+01 4.19640E-01 2.52446E-03 8.77499E-01-1.95674E-13-1.50531E-13
 -1      3462 1.96743E+01 4.67724E-01 4.85244E-04 7.51147E-01-1.53103E-13-2.54211E-13
 -1      3463 1.97509E+01 4.09500E-01-1.59550E-03 9.62012E-01-1.64596E-13-5.62335E-14
 -1      3464 1.97697E+01 3.86303E-01 3.27174E-03 1.04036E+00-8.05015E-14-3.95583E-14
 -1      3465 1.95919E+01 4.80913E-01-4.69175E-05 9.06084E-01-1.16083E-13-4.75312E-14
 -1      3466 1.97415E+01 3.40987E-01-7.98704E-04 1.13873E+00-3.09538E-14 3.14000E-14
 -1      3467 1.97873E+01 2.74459E-01 4.34235E-03 1.22106E+00 7.44056E-15 5.12638E-14
 -1      3468 1.95235E+01 4.35089E-01-1.20194E-03 1.09030E+00-3.37138E-14 1.09906E-13
 -1      3469 1.97887E+01 1.77127E-01 8.14452E-04 1.33262E+00 1.37052E-14 2.21055E-15
 -1      3470 1.98811E+01 4.81623E-02 5.65693E-03 1.41252E+00 5.65008E-14 6.84203E-14
 -1      3471 1.94925E+01 2.97831E-01-3.41623E-03 1.30603E+00 4.07028E-14 1.16925E-13
 -1      3472 1.99398E+01-1.20746E-01 3.83770E-03 1.53324E+00 1.09958E-13 1.24946E-13
 -1      3473 2.01056E+01-3.33367E-01 6.83769E-03 1.59837E+00 2.07640E-13 9.90236E-14
 -1      3474 1.95391E+01 2.74995E-02-7.39578E-03 1.55272E+00 1.31764E-13 1.20258E-13
 -1      3475 2.02660E+01-5.92095E-01 9.62394E-03 1.71475E+00 2.17050E-13 1.13281E-13
 -1      3476 2.05430E+01-9.02091E-01 9.46751E-03 1.73960E+00 1.24286E-13 1.61968E-13
 -1      3477 1.97289E+01-4.25710E-01-1.39183E-02 1.82021E+00 2.07801E-13 1.83109E-13
 -1      3478 2.08645E+01-1.26571E+00 1.75610E-02 1.82686E+00 3.36081E-14 1.92728E-13
 -1      3479 2.12910E+01-1.66747E+00 7.81407E-03 1.76154E+00 5.86657E-14 2.11721E-13
 -1      3480 2.01534E+01-1.09269E+00-2.08918E-02 2.07433E+00 1.07674E-13 2.34432E-13
 -1      3481 2.18636E+01-2.08187E+00 3.21451E-02 1.72705E+00 5.66817E-14 2.26294E-13
 -1      3482 2.24277E+01-2.49595E+00-2.87547E-04 1.50598E+00 1.35195E-13 1.89437E-13
 -1      3483 2.09869E+01-2.01892E+00-3.09275E-02 2.23387E+00 6.69265E-14 2.92606E-13
 -1      3484 2.32083E+01-2.76638E+00 5.89549E-03-1.10616E+00 2.86212E-13-3.00922E-14
 -1      3485 2.25839E+01-2.45669E+00 3.79429E-02-1.46709E+00 1.54489E-13 4.00463E-14
 -1      3486 2.18617E+01-2.06320E+00 3.33536E-03-1.61566E+00-4.05257E-14 9.92776E-14
 -1      3487 2.13817E+01-1.64901E+00 2.48621E-02-1.75818E+00-4.03033E-14 4.33579E-14
 -1      3488 2.16831E+01-2.47846E+00-2.95304E-02-2.10985E+00 2.01917E-13 8.18061E-14
 -1      3489 2.09396E+01-1.26283E+00 6.38149E-03-1.73756E+00-1.25199E-14-3.39465E-14
 -1      3490 2.06032E+01-9.06893E-01 1.39097E-02-1.75793E+00-3.24621E-14-2.79849E-14
 -1      3491 2.06134E+01-1.53153E+00-2.53865E-02-2.12042E+00-3.68502E-14 1.65229E-13
 -1      3492 2.03642E+01-6.03690E-01 6.74913E-03-1.66495E+00-4.37330E-14-1.30792E-13
 -1      3493 2.01494E+01-3.44273E-01 6.55139E-03-1.62344E+00-3.09186E-14-1.76224E-13
 -1      3494 1.99988E+01-7.49899E-01-1.78592E-02-1.93441E+00-1.30702E-13 6.58458E-15
 -1      3495 2.00420E+01-1.33358E-01 5.98731E-03-1.50906E+00 2.79858E-14-1.83013E-13
 -1      3496 1.99160E+01 3.56303E-02 2.46109E-03-1.43951E+00 1.02456E-13-1.05139E-13
 -1      3497 1.96935E+01-1.90717E-01-1.03240E-02-1.68527E+00-3.60338E-14-6.06494E-14
 -1      3498 1.98861E+01 1.67730E-01 4.71640E-03-1.32651E+00 1.55159E-13-1.96617E-13
 -1      3499 1.98187E+01 2.66293E-01 2.35558E-04-1.24662E+00 1.98706E-13-9.68157E-14
 -1      3500 1.95780E+01 1.67744E-01-5.25982E-03-1.43641E+00 1.32788E-13-1.71710E-13
 -1      3501 1.98310E+01 3.39392E-01 3.53478E-03-1.14292E+00 2.58297E-13-1.29313E-13
 -1      3502 1.97992E+01 3.88300E-01-9.27010E-04-1.06178E+00 1.69654E-13-1.12660E-13
 -1      3503 1.95702E+01 3.74227E-01-2.28399E-03-1.20974E+00 2.08810E-13-2.97230E-13
 -1      3504 1.98320E+01 4.21256E-01 2.61800E-03-9.69492E-01-2.54630E-15-9.80863E-14
 -1      3505 1.98202E+01 4.38361E-01-1.47692E-03-8.91753E-01-1.60856E-13-1.83495E-13
 -1      3506 1.96183E+01 4.75249E-01-5.96543E-04-1.00999E+00 1.32077E-13-1.37334E-13
 -1      3507 1.98600E+01 4.46135E-01 1.57917E-03-8.10977E-01-2.53725E-13-1.44937E-13
 -1      3508 1.98605E+01 4.46598E-01-1.20154E-03-7.39288E-01-1.79109E-13-8.10132E-14
 -1      3509 1.96910E+01 5.09467E-01 5.10571E-04-8.36146E-01-1.62070E-13-1.34040E-13
 -1      3510 2.00266E+01 1.63684E-01 1.25075E-03-3.83210E-01 1.11131E-14 7.90280E-14
 -1      3511 2.00285E+01 1.34850E-01-1.09453E-03-3.56944E-01 4.41500E-14 7.18854E-14
 -1      3512 1.99110E+01 3.96175E-01 1.63414E-03-6.34672E-01-3.66108E-14 1.00781E-14
 -1      3513 1.99164E+01 3.50553E-01-2.35872E-03-5.77320E-01 2.38136E-14 1.69052E-14
 -1      3514 1.98493E+01 4.86637E-01 1.79263E-03-7.65281E-01 8.94442E-15 5.77773E-14
 -1      3515 1.98582E+01 4.40028E-01-2.82493E-03-6.95021E-01-2.97887E-14 3.01404E-14
 -1      3516 1.97776E+01 4.74874E-01 1.65550E-03-6.38806E-01-5.17070E-14-4.73994E-14
 -1      3517 1.97708E+01 5.71325E-01 2.06637E-03-9.22839E-01 1.39507E-14 3.47504E-15
 -1      3518 1.97835E+01 5.28851E-01-3.30878E-03-8.39163E-01 2.32003E-14 7.53755E-14
 -1      3519 1.96681E+01 5.76498E-01 2.18337E-03-7.68853E-01 2.12024E-15-4.33490E-14
 -1      3520 1.96755E+01 6.34808E-01 2.61138E-03-1.10904E+00 8.64632E-15-6.81873E-14
 -1      3521 1.96902E+01 6.05116E-01-3.77783E-03-1.01185E+00 2.45635E-14-1.69255E-14
 -1      3522 1.95313E+01 6.69409E-01 2.67533E-03-9.26055E-01 4.76690E-14-3.38938E-14
 -1      3523 1.95694E+01 6.51770E-01 3.70315E-03-1.32616E+00 5.00279E-14-4.32654E-14
 -1      3524 1.95800E+01 6.48923E-01-4.15327E-03-1.21562E+00 4.50659E-14-3.35256E-14
 -1      3525 1.93648E+01 7.35738E-01 2.97001E-03-1.11463E+00 3.19122E-14 2.77349E-14
 -1      3526 1.94708E+01 5.82453E-01 5.75842E-03-1.57811E+00-1.32016E-14-7.38749E-14
 -1      3527 1.94632E+01 6.28313E-01-4.25536E-03-1.45453E+00 6.39873E-14-9.76411E-14
 -1      3528 1.91713E+01 7.46794E-01 2.74071E-03-1.34215E+00 5.66573E-14-9.20298E-14
 -1      3529 1.94212E+01 3.67753E-01 9.48625E-03-1.87098E+00 1.38199E-14-1.61796E-13
 -1      3530 1.93665E+01 4.94494E-01-3.65830E-03-1.73537E+00-1.82764E-14-1.64965E-13
 -1      3531 1.89652E+01 6.58247E-01 1.40217E-03-1.62239E+00 9.03984E-14-1.49520E-13
 -1      3532 1.94978E+01-7.88861E-02 1.32249E-02-2.21226E+00-4.57520E-14-2.16206E-13
 -1      3533 1.93477E+01 1.77503E-01-1.04832E-03-2.06816E+00-1.16145E-14-1.63833E-13
 -1      3534 1.87813E+01 4.03937E-01-2.26023E-03-1.97807E+00 3.61174E-14-2.36212E-13
 -1      3535 1.98418E+01-8.52628E-01 1.86002E-02-2.59175E+00-1.45345E-13-3.64098E-13
 -1      3536 1.95246E+01-4.10349E-01 8.61567E-03-2.44969E+00-1.32071E-13-3.16346E-13
 -1      3537 1.86996E+01-1.25440E-01-1.34769E-02-2.44071E+00-4.39994E-14-4.56657E-13
 -1      3538 2.05673E+01-2.07527E+00-1.66564E-03-2.95528E+00-2.69243E-13-2.09028E-13
 -1      3539 2.00811E+01-1.36615E+00 3.25626E-02-2.84342E+00-1.68806E-13-2.64595E-13
 -1      3540 1.88764E+01-1.05725E+00-3.93253E-02-3.00836E+00-2.05281E-13-4.11114E-13
 -1      3541 2.59002E+01-1.67354E+00-3.52469E-02 1.12080E+00-1.48093E-14 9.90388E-14
 -1      3542 2.55643E+01-2.56880E+00 4.33580E-03 4.88444E-01 6.61138E-14 1.83534E-15
 -1      3543 2.01366E+01 7.11358E-02 2.09248E-04-2.32518E-01 6.98019E-14-1.52743E-13
 -1      3544 2.01504E+01 8.84883E-02 8.91327E-04-2.10290E-01 5.11479E-14-1.39106E-13
 -1      3545 1.93848E+01 5.12290E-01-3.80229E-03 1.72349E+00-1.66926E-13-2.09369E-14
 -1      3546 1.94316E+01 3.94383E-01 9.06419E-03 1.85795E+00-9.84529E-14 5.37724E-14
 -1      3547 1.93510E+01 2.14963E-01-1.39215E-03 2.04985E+00-1.82930E-13 4.56899E-14
 -1      3548 1.94907E+01-2.34531E-02 1.50125E-02 2.19127E+00-1.78216E-13 5.18930E-14
 -1      3549 1.88123E+01 4.35036E-01-1.51097E-03 1.95509E+00-1.90827E-13 3.47769E-15
 -1      3550 1.94959E+01-3.50037E-01 5.27768E-03 2.43078E+00-2.19357E-13-7.70332E-14
 -1      3551 1.98086E+01-7.61709E-01 2.31699E-02 2.56196E+00-6.04366E-14-7.87358E-14
 -1      3552 1.87100E+01-4.87557E-02-6.89105E-03 2.40882E+00-2.76499E-13 1.35456E-14
 -1      3553 1.94892E+01 6.35636E-01-4.30937E-03 1.44718E+00-9.12889E-14-3.14210E-14
 -1      3554 1.94927E+01 5.93586E-01 5.42943E-03 1.56970E+00-2.64586E-13-1.84152E-13
 -1      3555 1.90047E+01 6.71556E-01 1.47273E-03 1.60825E+00-1.45042E-13-9.82053E-14
 -1      3556 1.96091E+01 6.56303E-01-4.05200E-03 1.21030E+00 1.32519E-13 4.33728E-14
 -1      3557 1.95963E+01 6.57814E-01 3.41011E-03 1.32099E+00 1.29426E-14-6.04736E-14
 -1      3558 1.92146E+01 7.52797E-01 2.60391E-03 1.33420E+00-2.66624E-14-2.43510E-13
 -1      3559 1.97201E+01 6.21765E-01-3.59533E-03 1.00475E+00 1.16343E-13 2.34964E-13
 -1      3560 1.97043E+01 6.45562E-01 2.38204E-03 1.10391E+00 2.88835E-13 1.78744E-13
 -1      3561 1.94088E+01 7.45554E-01 2.86675E-03 1.10883E+00 6.70723E-14 1.47688E-14
 -1      3562 1.98128E+01 5.64476E-01-2.92631E-03 8.25730E-01 1.32466E-13 1.59973E-13
 -1      3563 1.97995E+01 5.96047E-01 1.83516E-03 9.13885E-01 6.38358E-14 1.46941E-13
 -1      3564 1.95747E+01 6.92697E-01 2.63401E-03 9.18210E-01 1.53141E-13 2.28413E-13
 -1      3565 1.98856E+01 5.05204E-01-1.84748E-03 6.69537E-01-2.54149E-14 1.41066E-13
 -1      3566 1.98758E+01 5.34550E-01 1.34240E-03 7.46802E-01 1.32246E-13 1.82317E-13
 -1      3567 1.97079E+01 6.23282E-01 1.81325E-03 7.54880E-01 1.17353E-14 2.03366E-13
 -1      3568 2.66123E+01-2.35926E-01-8.24232E-02-1.79621E+00-1.75825E-13-9.76441E-14
 -1      3569 2.00736E+01 2.12056E+00-2.14221E-03-1.30285E-01 7.81519E-14-3.44213E-13
 -1      3570 2.00808E+01 2.07668E+00-6.19489E-03-2.48414E-01 3.06955E-14-3.43458E-13
 -1      3571 2.02407E+01 1.62239E+00 5.88401E-03-1.73792E-01 3.49448E-14-2.95428E-13
 -1      3572 2.01784E+01 1.84666E+00 5.36826E-03-6.37182E-02 8.88475E-14-3.23572E-13
 -1      3573 2.36375E+01-3.64625E+00-7.62830E-02 1.71573E+00 4.70717E-14-3.17689E-14
 -1      3574 2.25900E+01-3.42522E+00 8.97350E-02 2.64088E+00-4.19071E-14 4.09178E-14
 -1      3575 1.67584E+01-2.34676E+00-4.44371E-02 4.58176E+00-1.57128E-13-2.56531E-14
 -1      3576 1.49259E+01-1.37697E+00 1.36102E-01 4.41097E+00-3.12379E-13-1.97273E-13
 -1      3577 2.47444E+01-4.25330E+00-1.07777E-02-2.06946E+00 6.58675E-14 8.21166E-14
 -1      3578 2.50824E+01-3.58231E+00-1.12726E-02-9.54244E-01 4.03930E-14 1.04212E-13
 -1      3579 1.86550E+01-2.06551E+00 9.94422E-02-3.97933E+00-2.04828E-13-5.07226E-13
 -1      3580 2.05384E+01-2.76606E+00-1.43177E-02-3.36099E+00-2.63896E-13-4.43874E-13
 -1      3581 2.02435E+01 3.48489E-01-1.95977E-03-5.81189E-03 1.28749E-13-1.47310E-13
 -1      3582 2.02733E+01 4.52858E-01 3.15197E-03 7.27959E-02 1.62241E-13-1.42958E-13
 -1      3583 2.00535E+01 1.11289E-01 1.08083E-03-3.35719E-01 8.22268E-14 3.97410E-14
 -1      3584 2.00566E+01 9.07586E-02-6.80845E-04-3.15702E-01 9.25357E-14 1.29489E-14
 -1      3585 2.00398E+01 1.43295E-01 7.00429E-05-3.34413E-01 5.32830E-14 4.54636E-14
 -1      3586 1.22084E+01 4.23127E-01 3.66539E-02-1.92889E+00 6.15740E-14-3.23852E-13
 -1      3587 1.34248E+01-3.38913E-01 1.25738E-02-3.28717E+00-9.83207E-14-4.25091E-13
 -1      3588 1.97183E+01 5.59858E-01 1.86959E-03-5.42427E-01-7.66917E-15 1.95465E-13
 -1      3589 1.96304E+01 6.06762E-01-3.25112E-03-4.86896E-01-5.75826E-14-6.17616E-14
 -1      3590 2.00074E+01-1.28268E+00 1.95962E-02 2.81900E+00 5.90973E-14-1.98867E-13
 -1      3591 2.05600E+01-1.90193E+00 2.42032E-02 2.89608E+00 7.94573E-14-1.68111E-13
 -1      3592 1.88538E+01-9.51397E-01-3.10950E-02 2.99581E+00-1.10302E-13-7.09498E-14
 -1      3593 1.99587E+01 3.09006E-01 1.51300E-03-5.29162E-01 5.20807E-14 6.52647E-14
 -1      3594 1.99617E+01 2.67343E-01-1.91879E-03-4.83756E-01 6.98228E-14 1.03155E-13
 -1      3595 1.98645E+01 3.75331E-01 1.16288E-03-5.33087E-01 6.65322E-14 3.54529E-14
 -1      3596 2.49809E+01 3.66811E+00-3.07298E-01-2.33628E-01 4.57356E-13 3.57374E-13
 -1      3597 1.99960E+01 2.30411E-01 1.39119E-03-4.46379E-01 1.46045E-14 9.20491E-14
 -1      3598 1.99978E+01 1.94520E-01-1.50067E-03-4.11491E-01-1.47005E-14 3.39928E-14
 -1      3599 1.99910E+01 2.05996E-01 3.76321E-04-3.84128E-01 1.11932E-14 9.07581E-14
 -1      3600 1.99340E+01 2.84348E-01 7.38848E-04-4.49158E-01 2.73035E-14 4.07827E-14
 -1      3601 1.55080E+01-1.17310E+00 5.30297E-03 4.01230E+00 1.91562E-13 1.41623E-13
 -1      3602 1.45810E+01-6.37488E-01 6.87960E-02 3.68555E+00 2.83624E-13 2.91107E-13
 -1      3603 2.01701E+01 1.14434E-01-3.11910E-04-1.85651E-01 5.66083E-14-1.46885E-13
 -1      3604 2.01895E+01 1.52505E-01 1.59948E-03-1.52397E-01 7.92925E-14-1.33474E-13
 -1      3605 2.02100E+01 1.25253E-01-6.38626E-04-1.82102E-01 6.63787E-14-1.56557E-13
 -1      3606 2.52973E+01-3.81083E+00-1.68600E-02 1.02199E+00 1.19259E-13-9.76719E-14
 -1      3607 1.33389E+01-1.27358E-01 1.09076E-02 3.04260E+00 3.38974E-13 1.71176E-13
 -1      3608 1.24287E+01 5.32408E-01 7.24256E-02 1.93709E+00 4.13945E-13-1.72917E-14
 -1      3609 1.45550E+01-1.05440E-02 4.25019E-02 2.82652E+00 3.05075E-13 1.14270E-13
 -1      3610 1.17577E+01 7.34449E-01 4.19273E-02 2.85749E-02-5.47605E-13 2.21489E-13
 -1      3611 1.18050E+01 5.61600E-01 6.75448E-02-1.63133E+00-4.83694E-13 1.44378E-13
 -1      3612 2.25930E+01-4.19726E+00 8.11601E-03-3.31050E+00 1.37300E-13 8.68906E-14
 -1      3613 1.17263E+01 6.88422E-01 8.93234E-03 8.89629E-01 3.83274E-13-4.76008E-14
 -1      3614 1.16916E+01 7.81270E-01 5.46355E-02-5.94712E-01 2.34286E-13-4.27020E-14
 -1      3615 1.30569E+01 7.90035E-01 5.80990E-02 1.11500E+00 3.40921E-13 4.83988E-14
 -1      3616 2.02067E+01 2.01575E-01-1.03236E-03-1.14822E-01 8.46099E-14-1.53140E-13
 -1      3617 2.02318E+01 2.67712E-01 2.39530E-03-6.31321E-02 9.55581E-14-1.40095E-13
 -1      3618 2.02883E+01 3.64453E-01-3.65969E-04-1.73479E-02 1.21518E-13-1.63365E-13
 -1      3619 2.03045E+01 4.66318E-01 9.62133E-04-5.42908E-02-1.30704E-13-2.66442E-13
 -1      3620 2.02820E+01 3.61956E-01-1.71343E-03 1.80963E-02-9.94728E-14-2.63837E-13
 -1      3621 2.03191E+01 3.70742E-01-1.96122E-04 2.78844E-02-4.94269E-14-1.88076E-13
 -1      3622 1.98588E+01 5.19152E-01-2.48416E-03 4.89426E-01 1.35850E-13-8.78519E-14
 -1      3623 1.99226E+01 4.72167E-01 1.79681E-04 5.08288E-01 8.07467E-14-7.13078E-14
 -1      3624 1.99230E+01 4.75793E-01 4.72707E-04 5.53032E-01-3.63892E-14 7.79395E-14
 -1      3625 1.97813E+01 5.74755E-01 3.14276E-04 5.12965E-01 7.76070E-14-8.99191E-14
 -1      3626 1.50321E+01-7.54722E-01 9.13204E-02-3.76258E+00-1.43395E-13-4.92825E-13
 -1      3627 1.69033E+01-1.72875E+00 6.27968E-03-4.09858E+00-1.55738E-13-5.94171E-13
 -1      3628 1.78200E+01-1.17189E+00 2.21328E-02-3.46993E+00-1.49453E-13-4.86496E-13
 -1      3629 1.51713E+01-2.18791E-01 5.85430E-02-3.05275E+00-3.54820E-14-4.35218E-13
 -1      3630 2.47292E+01-3.03880E+00-1.44253E-02-3.69559E-01 8.91396E-14 1.97186E-14
 -1      3631 1.56553E+01-1.67853E+00 9.46603E-02-4.55259E+00 8.08936E-14 1.17746E-13
 -1      3632 1.72932E+01-2.09198E+00 1.67876E-02-4.29035E+00 1.26066E-13 1.51580E-13
 -1      3633 1.51558E+01-9.87435E-01 2.99514E-02-3.90648E+00-1.26340E-13 2.33355E-14
 -1      3634 2.02931E+01 9.37651E-01 9.12690E-04 4.57614E-01 2.63295E-13-1.33410E-13
 -1      3635 2.02823E+01 1.11080E+00-2.14640E-03 4.93737E-01 2.65292E-13-1.79627E-13
 -1      3636 2.02776E+01 7.81431E-01-1.36387E-03 3.26886E-01 2.46027E-13-1.33378E-13
 -1      3637 1.26600E+01 3.71569E-01 7.56895E-02-2.25214E+00-3.26066E-13 1.71922E-13
 -1      3638 1.37833E+01-3.77090E-02 6.96254E-03-2.85214E+00-1.79331E-13 9.87960E-14
 -1      3639 1.33536E+01 6.60653E-01 1.93630E-02-1.51336E+00-2.12353E-13-4.00131E-14
 -1      3640 2.73244E+01 1.32575E+00-8.09145E-02-2.72559E+00 3.76796E-13 4.56302E-13
 -1      3641 2.40500E+01-3.13714E+00 2.40792E-02-9.45504E-01 2.53890E-13-3.62384E-14
 -1      3642 2.31955E+01-3.46130E+00-1.87184E-02-1.96581E+00 2.23765E-13 3.88075E-14
 -1      3643 2.31979E+01-2.72494E+00 6.10953E-02 1.23200E+00 7.24733E-14 1.08700E-13
 -1      3644 2.38158E+01-2.91756E+00 2.00065E-03 7.66604E-01-2.93663E-14-4.99462E-14
 -1      3645 2.46881E+01-3.08670E+00 3.82411E-02 4.98720E-01-4.71151E-15 3.81570E-14
 -1      3646 2.53362E+01-2.70787E+00-8.28459E-03-1.41306E-01 1.99805E-14 4.83016E-14
 -1      3647 2.02120E+01 1.70948E+00 6.37688E-03 4.55705E-01 2.46504E-13-2.69661E-13
 -1      3648 2.51652E+01 3.74823E+00-1.25787E-01 1.41669E+00-3.51857E-13-1.32232E-13
 -1      3649 2.50173E+01 8.41658E-01-3.47770E-02 2.12004E+00-2.58855E-13 3.20421E-14
 -1      3650 2.56730E+01 1.10868E-01-9.18426E-02 2.06209E+00-1.01429E-13 2.22130E-13
 -1      3651 2.02311E+01 1.56530E+00-4.29086E-03 2.80476E-01 1.87986E-13-2.93646E-13
 -1      3652 2.02206E+01 1.62527E+00-2.16243E-03 1.97982E-01 1.54984E-13-3.09524E-13
 -1      3653 1.99100E+01 4.33553E-01 1.03142E-03-6.88536E-01-1.42468E-13-8.51744E-15
 -1      3654 1.99177E+01 4.25827E-01-4.95497E-04-6.30517E-01-1.75986E-13-3.08875E-14
 -1      3655 1.98640E+01 4.62856E-01 4.35276E-04-6.13184E-01-2.54282E-13 1.00085E-13
 -1      3656 1.97801E+01 4.99180E-01 1.78418E-03-7.07407E-01-2.09342E-13 4.59211E-14
 -1      3657 2.22099E+01-2.97399E+00-6.62760E-02 2.07621E+00 6.33521E-15 1.95914E-13
 -1      3658 1.95557E+01 6.69194E-01 2.21070E-03-4.05267E-01-1.90776E-13-1.76354E-13
 -1      3659 1.94914E+01 7.01627E-01-2.81383E-03-3.23482E-01-2.03197E-13-3.35676E-13
 -1      3660 1.95249E+01 6.57645E-01-6.37285E-04-4.92000E-01-1.05736E-13 2.62939E-14
 -1      3661 1.93986E+01 7.79187E-01-9.04682E-04 2.99299E-03 1.73478E-14 4.22367E-14
 -1      3662 1.94050E+01 7.78560E-01-1.08111E-03 1.09595E-01 2.53612E-14 2.56166E-13
 -1      3663 2.63881E+01-6.82246E-01-2.16995E-02 1.74879E+00-2.51812E-14 1.55653E-13
 -1      3664 1.42914E+01-5.89755E-01 6.99718E-02 3.45200E+00-2.78763E-13-9.86954E-14
 -1      3665 2.02754E+01 1.24827E+00-2.51104E-05 4.57933E-01 2.41867E-13-2.10481E-13
 -1      3666 1.30713E+01 7.41420E-01 7.66966E-02-1.26474E+00 1.68807E-13-1.18738E-13
 -1      3667 1.99295E+01 4.79351E-01 7.09536E-04 6.00274E-01-3.10691E-14 9.60361E-14
 -1      3668 1.94321E+01 7.66218E-01-1.95735E-03 2.30968E-01 1.03475E-13 2.21240E-13
 -1      3669 1.94786E+01 7.44603E-01-9.20242E-05 3.29861E-01 1.21122E-13 1.78721E-13
 -1      3670 1.93282E+01 8.14385E-01 2.66670E-03 1.80825E-01 1.03266E-13 1.63271E-13
 -1      3671 1.92140E+01-2.76020E+00 1.18213E-01 4.28551E+00-2.45776E-14-1.45326E-13
 -1      3672 1.83405E+01-1.99232E+00 6.02815E-02 3.92151E+00 1.38882E-14-2.74728E-14
 -1      3673 1.73394E+01-1.50209E+00 4.89118E-02 3.78163E+00 1.38226E-13-6.21499E-14
 -1      3674 2.03106E+01 5.99632E-01-4.09148E-04 1.28260E-01 1.89750E-13-1.57226E-13
 -1      3675 2.02744E+01 5.81324E-01-2.23223E-03 1.58831E-01 1.89691E-13-1.45902E-13
 -1      3676 2.00839E+01 9.92059E-02-1.85468E-04-2.95599E-01 4.75088E-14-1.04402E-14
 -1      3677 2.00794E+01 7.58192E-02 8.66842E-04-2.99049E-01 4.51850E-14-5.74921E-15
 -1      3678 2.00850E+01 6.52115E-02-2.30965E-04-2.82325E-01 3.74218E-14-7.01109E-14
 -1      3679 1.98115E+01 5.56308E-01 1.40351E-03 6.09099E-01-3.24239E-14 2.07853E-13
 -1      3680 2.03292E+01 7.05502E-01-9.22011E-04-1.77932E-01-1.11066E-13-2.96217E-13
 -1      3681 2.03101E+01 5.65157E-01-1.00175E-03-9.92219E-02-1.35172E-13-2.89495E-13
 -1      3682 2.03427E+01 5.72131E-01 7.20408E-04-7.38461E-02-9.22486E-14-2.25403E-13
 -1      3683 2.03472E+01 8.04187E-01 1.26481E-03-1.69872E-01-7.14425E-14-2.80471E-13
 -1      3684 1.94739E+01-2.10617E+00-6.34802E-02 3.47134E+00-2.16372E-14-2.92352E-13
 -1      3685 2.10973E+01-2.37396E+00 5.76095E-02 2.99207E+00 1.07869E-13-3.73569E-13
 -1      3686 2.03081E+01 1.20453E+00-3.79053E-03-2.45727E-01-2.75255E-15-2.84387E-13
 -1      3687 2.03448E+01 1.01002E+00 1.63240E-03-1.88578E-01-1.23235E-14-2.65683E-13
 -1      3688 2.03047E+01 1.28013E+00-2.42235E-04-1.93302E-01 4.10730E-14-2.71768E-13
 -1      3689 2.19168E+01-3.16604E+00 4.24907E-03 2.88755E+00 4.67820E-14-3.62035E-13
 -1      3690 2.01066E+01 6.07487E-02 5.87408E-04-2.67162E-01 5.73187E-14-1.09787E-13
 -1      3691 2.01158E+01 6.24000E-02 2.83554E-04-2.50027E-01 7.58205E-14-1.26420E-13
 -1      3692 2.01260E+01 7.75162E-02-3.95841E-04-2.62169E-01 1.69835E-14-7.37158E-14
 -1      3693 2.02927E+01 1.40875E+00 4.61977E-03 1.29627E-01 1.32880E-13-3.12988E-13
 -1      3694 2.02135E+01 1.65902E+00-3.07226E-03 1.28314E-01 1.38304E-13-3.29003E-13
 -1      3695 2.02073E+01 1.67639E+00-3.54993E-03 3.80464E-02 1.05584E-13-3.40578E-13
 -1      3696 2.12820E+01-2.91042E+00 4.23637E-02 2.92833E+00-6.57634E-14 4.68462E-14
 -1      3697 1.95344E+01 7.09052E-01-3.29713E-03 4.17701E-01 1.00520E-13 2.14713E-13
 -1      3698 1.96058E+01 6.77022E-01 1.37051E-03 4.84051E-01 8.58229E-14-1.63177E-13
 -1      3699 1.94257E+01 7.69484E-01 2.35952E-03 3.96100E-01 1.74755E-13 2.18299E-13
 -1      3700 1.23926E+01 5.45383E-01-1.49533E-02 1.46300E+00-4.82243E-13 2.44187E-13
 -1      3701 1.20805E+01 8.30059E-01 1.10130E-01 6.96556E-01-5.69864E-13 3.54487E-13
 -1      3702 1.27608E+01 8.94613E-01 3.51955E-02-1.83271E-01-4.12332E-13 1.46747E-13
 -1      3703 2.02514E+01 2.13648E-01-5.89206E-04-1.16242E-01 8.47002E-14-1.76716E-13
 -1      3704 2.02919E+01 7.06508E-01 2.66497E-03 2.56527E-01 2.22927E-13-1.30807E-13
 -1      3705 2.01678E+01 8.36067E-02-5.53634E-04-2.27212E-01 6.43316E-14-1.35394E-13
 -1      3706 2.15810E+01-3.51947E+00-5.31382E-02 3.31250E+00 1.16275E-13-3.44277E-13
 -1      3707 2.09695E+01-3.75101E+00 3.33014E-02-4.01206E+00 3.31409E-13 7.80357E-14
 -1      3708 2.26145E+01-3.59754E+00 2.50705E-02-2.68555E+00 2.82859E-13-2.19182E-14
 -1      3709 2.17858E+01-3.03562E+00 2.53417E-02-2.66904E+00 4.42224E-13 1.51155E-14
 -1      3710 1.96083E+01-3.04391E+00 1.00522E-02-4.08657E+00 2.47323E-13 7.14914E-14
 -1      3711 1.94434E+01 7.44215E-01 4.65288E-04-2.17715E-01-4.14684E-14-2.23413E-13
 -1      3712 1.94113E+01 7.62333E-01-2.18121E-03-1.17715E-01-2.22513E-14-1.57013E-14
 -1      3713 1.93143E+01 8.09207E-01 2.51432E-03-6.87372E-02-2.83594E-14 7.47616E-14
 -1      3714 1.93877E+01 7.53000E-01 2.04858E-03-3.01785E-01-1.33879E-13-4.37656E-13
 -1      3715 1.98078E+01 4.95962E-01-1.73566E-03-5.86873E-01-1.43312E-13 1.61953E-13
 -1      3716 1.97187E+01 5.39542E-01-6.78469E-04-6.16926E-01-1.05226E-13 3.29918E-14
 -1      3717 2.03066E+01 8.30808E-01-2.20743E-03 2.89462E-01 2.20622E-13-1.70537E-13
 -1      3718 1.96687E+01 5.58198E-01-2.11083E-04-6.60085E-01-1.98757E-13 2.83550E-14
 -1      3719 1.93069E+01 7.57992E-01 9.46636E-04-8.77197E-01 1.48972E-14-1.41390E-13
 -1      3720 1.93804E+01 7.07933E-01-4.14722E-03-7.96859E-01 5.22869E-14-1.34557E-13
 -1      3721 2.02853E+01 1.66829E-01 6.69702E-04 1.39408E-01-3.83807E-14-5.09050E-14
 -1      3722 2.02602E+01 1.32574E-01-3.21448E-04 1.64750E-01-3.47049E-14-7.29205E-14
 -1      3723 2.02315E+01 1.10833E-01 2.64814E-04 1.81504E-01-5.81914E-15-5.54360E-14
 -1      3724 2.02058E+01 9.91236E-02 9.46237E-05 2.00429E-01 2.70501E-14-6.16966E-14
 -1      3725 2.02718E+01 1.40849E-01-1.92925E-05 1.49463E-01-7.45749E-15-1.15577E-14
 -1      3726 2.01721E+01 9.65914E-02-1.30350E-04 2.14127E-01 3.16746E-14-7.09544E-14
 -1      3727 2.01462E+01 1.02155E-01 3.85122E-04 2.30781E-01 6.30674E-15-6.94848E-14
 -1      3728 2.02086E+01 1.13249E-01-2.12228E-05 1.81374E-01 1.43831E-14-1.66173E-14
 -1      3729 2.01083E+01 1.14313E-01-5.12891E-04 2.44592E-01-1.93600E-14-7.75658E-14
 -1      3730 2.00819E+01 1.33144E-01 5.85160E-04 2.62344E-01-2.17953E-14-7.87096E-14
 -1      3731 2.01381E+01 1.23210E-01 9.09562E-05 2.09869E-01-1.73586E-14-1.30711E-14
 -1      3732 2.00396E+01 1.56533E-01-8.84496E-04 2.78924E-01-5.41362E-14-9.81384E-14
 -1      3733 2.00120E+01 1.85457E-01 7.30448E-04 3.00518E-01-6.50320E-14-1.03228E-13
 -1      3734 2.00605E+01 1.62110E-01 2.86947E-04 2.40576E-01-3.43234E-14-2.14510E-14
 -1      3735 1.99645E+01 2.17164E-01-1.24678E-03 3.22141E-01-9.34387E-14-1.30613E-13
 -1      3736 1.99349E+01 2.53357E-01 8.55322E-04 3.49804E-01-1.21059E-13-1.35283E-13
 -1      3737 1.99745E+01 2.23055E-01 5.35965E-04 2.78321E-01-9.33759E-14-8.54203E-14
 -1      3738 1.98810E+01 2.90574E-01-1.60744E-03 3.78512E-01-7.92311E-14-9.62183E-14
 -1      3739 1.98485E+01 3.31034E-01 9.84409E-04 4.14110E-01-4.97202E-14-1.13039E-13
 -1      3740 1.98779E+01 3.00037E-01 8.38040E-04 3.27292E-01-7.78529E-14-3.40344E-14
 -1      3741 1.97870E+01 3.70456E-01-1.97325E-03 4.51799E-01-1.20358E-13-1.01908E-13
 -1      3742 1.97513E+01 4.11548E-01 1.16302E-03 4.96874E-01-1.83145E-13-9.23422E-14
 -1      3743 1.97682E+01 3.86639E-01 1.13536E-03 3.91428E-01-7.94988E-14-7.97410E-14
 -1      3744 1.96810E+01 4.49029E-01-2.34801E-03 5.45502E-01-1.98345E-13-9.10511E-14
 -1      3745 1.96427E+01 4.85932E-01 1.45330E-03 6.01525E-01-1.81169E-13-1.24635E-13
 -1      3746 1.96427E+01 4.75376E-01 1.40145E-03 4.74502E-01-1.79684E-13-5.21843E-14
 -1      3747 1.95632E+01 5.15636E-01-2.70735E-03 6.63455E-01-1.01536E-13-1.36364E-13
 -1      3748 1.95244E+01 5.41515E-01 1.95055E-03 7.31913E-01-8.98611E-14-8.68995E-14
 -1      3749 1.94999E+01 5.56381E-01 1.57511E-03 5.80994E-01-1.47289E-13 2.33282E-14
 -1      3750 1.94366E+01 5.55203E-01-3.02554E-03 8.10132E-01-3.07255E-14-6.94612E-14
 -1      3751 1.94022E+01 5.60500E-01 2.79867E-03 8.92699E-01 1.69400E-14 4.78977E-14
 -1      3752 1.93400E+01 6.15967E-01 1.60183E-03 7.16579E-01 1.25520E-14-2.25367E-14
 -1      3753 1.93094E+01 5.46770E-01-3.23640E-03 9.91309E-01 2.57058E-14 1.70734E-13
 -1      3754 1.92887E+01 5.18343E-01 4.20254E-03 1.09000E+00 2.69064E-14 2.59445E-13
 -1      3755 1.91669E+01 6.35003E-01 1.31558E-03 8.88973E-01 8.48688E-14 9.27245E-14
 -1      3756 1.91983E+01 4.61691E-01-3.15463E-03 1.21473E+00-3.74588E-14 2.23194E-13
 -1      3757 1.92077E+01 3.81699E-01 6.35303E-03 1.33167E+00 6.08481E-14 1.90026E-13
 -1      3758 1.89901E+01 5.87186E-01 4.59230E-04 1.10937E+00-2.05703E-14 2.20078E-13
 -1      3759 1.91348E+01 2.61756E-01-2.43258E-03 1.48972E+00 1.41693E-13 1.39005E-13
 -1      3760 1.92006E+01 1.06448E-01 9.11611E-03 1.62575E+00 1.68174E-13 1.41390E-13
 -1      3761 1.88299E+01 4.36099E-01-1.58853E-03 1.39333E+00 8.25261E-14 2.10955E-13
 -1      3762 1.91747E+01-1.00303E-01 3.85693E-04 1.82386E+00 1.78062E-13 1.57405E-13
 -1      3763 1.93335E+01-3.63123E-01 1.12242E-02 1.97575E+00 1.95171E-13 1.44996E-13
 -1      3764 1.87246E+01 1.30994E-01-6.57866E-03 1.75961E+00 1.71412E-13 8.57274E-14
 -1      3765 1.94210E+01-6.94605E-01 6.69658E-03 2.20333E+00 2.20086E-13 1.46764E-13
 -1      3766 1.97355E+01-1.07777E+00 1.75246E-02 2.34621E+00 1.57642E-13 2.01375E-13
 -1      3767 1.87534E+01-4.07488E-01-1.75273E-02 2.23065E+00 2.14659E-13 1.09674E-14
 -1      3768 2.59882E+01-1.68961E+00 1.03951E-03-1.34969E+00-5.11084E-14-3.56520E-14
 -1      3769 2.02605E+01 1.39763E+00-5.03023E-03 4.08472E-01 2.22137E-13-2.46935E-13
 -1      3770 2.02454E+01 1.49846E+00-1.57943E-03 3.40028E-01 2.04862E-13-2.82410E-13
 -1      3771 2.03080E+01 1.30458E+00 5.56548E-03 2.42200E-01 1.72780E-13-2.62859E-13
 -1      3772 2.38885E+01-3.86463E+00 8.80497E-02 2.35749E+00 1.50106E-14-2.77982E-13
 -1      3773 2.02005E+01-1.56354E+00 2.12234E-02-2.48166E+00 2.26941E-14 1.41166E-13
 -1      3774 1.97735E+01-1.11116E+00 1.16905E-02-2.38315E+00-1.12977E-13 3.67501E-14
 -1      3775 1.96024E+01-7.11793E-01 1.51637E-02-2.14546E+00-6.24631E-14-5.88421E-14
 -1      3776 1.93647E+01-3.89244E-01 2.86030E-03-2.00639E+00-8.11510E-14-9.23671E-14
 -1      3777 1.89759E+01-7.98935E-01-1.93314E-02-2.48288E+00-1.42125E-13-1.62933E-13
 -1      3778 1.93403E+01-1.23845E-01 1.09940E-02-1.79490E+00-7.98216E-14-3.42967E-14
 -1      3779 1.92281E+01 8.13755E-02-1.06470E-03-1.65721E+00 5.41477E-14-4.52055E-14
 -1      3780 1.88236E+01-1.30157E-01-9.70958E-03-1.98380E+00-1.92545E-14-1.40246E-13
 -1      3781 1.92758E+01 2.45194E-01 7.66585E-03-1.48439E+00 6.77075E-14-2.81758E-14
 -1      3782 1.92393E+01 3.63694E-01-2.47774E-03-1.36124E+00 5.13436E-14-1.37185E-13
 -1      3783 1.88617E+01 2.81644E-01-3.52874E-03-1.57990E+00 5.21816E-14-6.36137E-14
 -1      3784 1.93187E+01 4.54261E-01 5.13357E-03-1.22274E+00 9.37119E-14-1.64276E-13
 -1      3785 1.93244E+01 5.12488E-01-2.92300E-03-1.11594E+00 1.76623E-13-1.53309E-13
 -1      3786 1.89900E+01 5.12606E-01-5.83515E-04-1.26260E+00-7.32487E-15 7.59071E-14
 -1      3787 1.94140E+01 5.53178E-01 3.42333E-03-1.00503E+00 2.62520E-13-1.83698E-13
 -1      3788 1.94408E+01 5.72432E-01-2.79036E-03-9.13193E-01 1.20723E-13-1.05944E-13
 -1      3789 1.91549E+01 6.21851E-01 8.56546E-04-1.01348E+00 1.39941E-13-7.11826E-14
 -1      3790 1.95284E+01 5.80905E-01 1.97092E-03-8.23422E-01-1.13339E-13-9.01553E-14
 -1      3791 1.95636E+01 5.78770E-01-2.60424E-03-7.44943E-01-2.53721E-13-4.88412E-14
 -1      3792 1.93259E+01 6.52867E-01 1.23851E-03-8.16710E-01 7.18985E-14-1.57528E-13
 -1      3793 1.95202E+01 6.30430E-01 2.48646E-03-6.45050E-01-1.24967E-13 5.40428E-14
 -1      3794 1.96518E+01 5.45761E-01 7.16543E-04-6.09168E-01-1.80445E-14-8.94272E-14
 -1      3795 1.96990E+01 4.89171E-01-2.74599E-03-5.53565E-01-9.30319E-15-3.67415E-14
 -1      3796 1.90742E+01 8.31578E-01 1.59795E-03-1.05416E+00 1.45286E-15-9.30339E-14
 -1      3797 1.91614E+01 7.97580E-01-5.15567E-03-9.58091E-01-1.98257E-15-1.02327E-13
 -1      3798 1.90482E+01 8.57872E-01 4.82299E-03-8.19375E-01 1.68406E-15-1.58970E-13
 -1      3799 1.87992E+01 8.49783E-01 3.11149E-03-1.27253E+00 9.93157E-14-1.08052E-13
 -1      3800 1.88951E+01 8.46897E-01-6.50075E-03-1.15549E+00 6.34972E-14-1.07623E-13
 -1      3801 1.87379E+01 9.36750E-01 5.95225E-03-9.86744E-01 5.51463E-14-1.66659E-13
 -1      3802 1.84911E+01 7.70802E-01 6.36494E-03-1.55252E+00 1.01020E-13-1.71142E-13
 -1      3803 1.85819E+01 8.21338E-01-8.26939E-03-1.40499E+00 1.43783E-13-1.09920E-13
 -1      3804 1.83590E+01 9.57732E-01 7.11195E-03-1.20254E+00 1.28266E-13-1.82841E-13
 -1      3805 1.81754E+01 5.30662E-01 1.15582E-02-1.92997E+00 2.91962E-14-1.99637E-13
 -1      3806 1.82334E+01 6.69055E-01-1.03631E-02-1.73596E+00 6.78892E-14-1.89759E-13
 -1      3807 1.79049E+01 8.80705E-01 8.44104E-03-1.49787E+00 6.74662E-14-1.11814E-13
 -1      3808 1.79378E+01 2.84256E-02 1.85818E-02-2.45779E+00-4.81288E-15-3.17034E-13
 -1      3809 1.78878E+01 3.30063E-01-5.67257E-03-2.19586E+00 3.55811E-14-2.74016E-13
 -1      3810 1.73882E+01 6.42066E-01 1.34670E-02-1.93175E+00 7.19281E-14-4.44401E-14
 -1      3811 1.76434E+01-5.47829E-01 1.88647E-02-3.03926E+00-1.10187E-13-4.40995E-13
 -1      3812 2.05910E+01-2.46179E+00 4.92149E-02 3.04690E+00-5.52206E-15 1.45434E-13
 -1      3813 1.86422E+01 8.26604E-01-8.43808E-03 1.39146E+00-1.12035E-13-4.21259E-14
 -1      3814 1.85471E+01 7.82002E-01 5.65327E-03 1.53505E+00-9.75534E-14 2.65184E-14
 -1      3815 1.79353E+01 3.55335E-01-1.22904E-02 2.14856E+00-2.32012E-13-1.68709E-14
 -1      3816 1.79592E+01 8.94949E-02 1.31008E-02 2.40456E+00-1.90675E-13 9.26980E-14
 -1      3817 1.92194E+01 8.09574E-01-4.91960E-03 9.52910E-01-4.07582E-14 1.78313E-13
 -1      3818 1.91318E+01 8.38067E-01 1.34872E-03 1.04925E+00-1.05836E-13 1.67633E-14
 -1      3819 1.94366E+01 7.37657E-01-3.75497E-03 7.89142E-01 1.60663E-13 1.55878E-13
 -1      3820 1.93627E+01 7.77183E-01 6.81742E-04 8.71456E-01 1.65803E-13 1.86311E-13
 -1      3821 1.91168E+01 8.74732E-01 4.76289E-03 8.14709E-01-3.67647E-14 8.21500E-14
 -1      3822 1.91821E+01 8.58391E-01-1.49611E-03 1.25750E-01 1.05824E-13 2.35405E-13
 -1      3823 1.92155E+01 8.50068E-01-2.67896E-04 2.52702E-01 5.28030E-14 2.45985E-13
 -1      3824 1.85255E+01-1.83361E+00-4.53862E-02 3.57045E+00 4.56336E-14-4.07851E-14
 -1      3825 1.69289E+01-8.06201E-01 2.74278E-02 3.29507E+00 1.84340E-13-1.25593E-13
 -1      3826 2.03135E+01 1.08753E+00 4.30783E-03 3.41375E-01 2.01580E-13-2.12629E-13
 -1      3827 2.03326E+01 5.86306E-01-2.62368E-03 8.19550E-02 1.62417E-13-1.88734E-13
 -1      3828 2.03442E+01 7.38328E-01 1.36586E-03 1.71825E-01 1.78887E-13-2.06092E-13
 -1      3829 1.55661E+01-7.18423E-01-5.01473E-02 3.51398E+00-8.31505E-14 1.08285E-13
 -1      3830 1.40157E+01 2.44061E-01 1.01965E-01 2.69443E+00-3.59177E-13 1.01481E-14
 -1      3831 2.01923E+01 9.22977E-02 1.11756E-04-2.15368E-01 2.47664E-14-9.65740E-14
 -1      3832 2.02145E+01 1.05476E-01 4.34052E-04-1.95073E-01 6.55048E-14-1.09182E-13
 -1      3833 1.94978E+01 6.56787E-01 7.39582E-04-7.30708E-01-5.54233E-15-9.77129E-14
 -1      3834 1.95573E+01 6.00373E-01-3.37296E-03-6.63459E-01-3.69520E-14-1.45726E-13
 -1      3835 1.92993E+01 7.48954E-01 3.81014E-03-6.83936E-01 2.40584E-14-2.22252E-13
 -1      3836 1.97290E+01 6.00535E-01-1.71397E-03 5.76581E-01-2.68390E-14-1.07472E-13
 -1      3837 1.78800E+01-1.37209E+00 7.60255E-02 3.69851E+00-1.09549E-13 4.20081E-14
 -1      3838 1.97753E+01 4.36160E-01 7.53947E-04-5.09480E-01 2.71455E-14 3.54640E-14
 -1      3839 1.98125E+01 3.83215E-01-2.21440E-03-4.64412E-01 9.71314E-14 2.96501E-14
 -1      3840 1.96633E+01 5.07713E-01 2.18258E-03-4.80205E-01 6.21896E-14 4.02938E-14
 -1      3841 2.03224E+01 9.80803E-01 1.55143E-04 2.63840E-01 1.81112E-13-2.23299E-13
 -1      3842 2.02404E+01 1.28494E-01-3.32753E-04-1.75825E-01 8.40692E-14-1.23305E-13
 -1      3843 2.02635E+01 1.64106E-01 9.38049E-04-1.47759E-01 6.04245E-14-1.31112E-13
 -1      3844 2.02598E+01 1.37877E-01-1.44261E-04-1.64214E-01 5.58947E-14-1.24490E-13
 -1      3845 2.00253E+01 1.74419E-01 7.38073E-04-3.17797E-01 1.86047E-14 1.45105E-14
 -1      3846 2.00476E+01 1.44990E-01-8.86409E-04-2.96157E-01 2.64188E-14-2.04265E-14
 -1      3847 2.03577E+01 4.59181E-01 3.37794E-04-8.79462E-03-2.90557E-14-1.18054E-13
 -1      3848 2.03418E+01 3.58295E-01-1.30037E-03 4.47017E-02-6.08204E-15-9.80596E-14
 -1      3849 1.55023E+01-1.78666E-01-3.28920E-02 2.89544E+00 1.94451E-13 2.98320E-14
 -1      3850 1.46789E+01 4.56529E-01 3.69998E-02 2.20645E+00 1.99154E-13 1.29918E-13
 -1      3851 2.02835E+01 2.11947E-01-9.58290E-04-1.19894E-01 4.96045E-14-1.59703E-13
 -1      3852 2.03068E+01 2.77044E-01 1.53134E-03-7.85422E-02 7.86704E-14-1.70780E-13
 -1      3853 2.03091E+01 2.18069E-01-4.74967E-05-1.15007E-01 3.74538E-14-1.36835E-13
 -1      3854 1.82901E+01 6.88425E-01-1.05928E-02 1.71328E+00-1.72401E-13 3.92629E-14
 -1      3855 1.82228E+01 5.57978E-01 9.56680E-03 1.90221E+00-2.18968E-13 6.14458E-14
 -1      3856 1.79820E+01 8.91561E-01 7.67671E-03 1.47560E+00-1.17703E-13 9.13139E-14
 -1      3857 1.34803E+01 9.62981E-01 6.77599E-03-6.02847E-01 2.74933E-13 5.58928E-14
 -1      3858 1.40542E+01 6.43668E-01 2.82335E-03-1.83809E+00 1.52698E-13-1.73996E-13
 -1      3859 2.03170E+01 3.57612E-01-1.77279E-03-3.65152E-02 1.15379E-13-1.68304E-13
 -1      3860 2.03392E+01 4.60669E-01 2.31072E-03 2.49974E-02 1.45423E-13-1.45242E-13
 -1      3861 2.03615E+01 5.80723E-01-1.42865E-03 5.85227E-02 1.39956E-13-1.71436E-13
 -1      3862 2.03450E+01 3.61896E-01 5.02109E-05-4.32536E-02 1.03514E-13-1.30539E-13
 -1      3863 1.37863E+01 7.23768E-01-2.20500E-02 1.45114E+00 2.65794E-13 6.79023E-14
 -1      3864 1.34008E+01 1.00833E+00 2.58608E-02 4.15227E-01 2.49070E-13 8.91960E-14
 -1      3865 1.72701E+01-6.83432E-01 3.46738E-02 3.17586E+00-1.59234E-13 1.29883E-14
 -1      3866 2.12128E+01-2.53725E+00 2.16272E-02-2.62213E+00 3.35546E-13-1.95872E-15
 -1      3867 2.05537E+01-2.00050E+00 2.65721E-02-2.65213E+00 1.49551E-13 9.89686E-14
 -1      3868 1.94399E+01-1.67066E+00-2.49074E-02-2.97113E+00 7.94326E-14-1.68572E-13
 -1      3869 2.03487E+01-2.68339E+00-1.85950E-02-3.31660E+00 3.59861E-13 4.78020E-14
 -1      3870 2.03301E+01 2.77308E-01 9.61528E-04 7.90973E-02-3.43044E-15-9.21455E-14
 -1      3871 2.03072E+01 2.13749E-01-8.78994E-04 1.15829E-01-2.04170E-14-8.68874E-14
 -1      3872 2.03640E+01 3.55974E-01 2.64040E-04 4.78798E-02-5.87496E-15-3.79256E-14
 -1      3873 1.89547E+01 8.50586E-01-6.43087E-03 1.14881E+00 5.60313E-15-3.08067E-14
 -1      3874 1.88573E+01 8.52537E-01 2.51309E-03 1.26407E+00-5.31799E-14-2.50424E-14
 -1      3875 1.84345E+01 9.58830E-01 6.50452E-03 1.19126E+00-6.53398E-14 1.95473E-13
 -1      3876 1.88098E+01 9.41208E-01 5.77127E-03 9.81549E-01-9.40612E-14 2.63448E-13
 -1      3877 2.00255E+01-1.80689E+00 3.53534E-02 2.78114E+00 7.09641E-14 1.56028E-13
 -1      3878 1.96194E+01 6.64295E-01 6.35187E-04 5.88556E-01 1.20884E-13 4.20698E-14
 -1      3879 1.35256E+01 9.81204E-01-2.07604E-02 8.33834E-02-2.53169E-13 9.53352E-14
 -1      3880 1.36196E+01 1.02399E+00 5.90112E-02-6.00830E-01-2.04795E-13-1.00276E-13
 -1      3881 1.41029E+01 7.96083E-01 1.00077E-03-1.18215E+00-7.56444E-14-1.86313E-13
 -1      3882 1.94075E+01 6.85760E-01-1.92548E-03-5.64195E-01-1.02575E-13-1.48715E-15
 -1      3883 1.91314E+01 8.82535E-01 8.88956E-04 3.23270E-01 5.23618E-14 1.20780E-13
 -1      3884 1.92722E+01 8.22643E-01-2.47528E-03 3.72424E-01 1.37392E-13 7.26191E-14
 -1      3885 1.93486E+01 7.95670E-01 1.53803E-03 4.63480E-01 2.18964E-13 6.26799E-14
 -1      3886 1.85567E+01-9.05820E-01-3.22508E-03 2.78488E+00 2.01344E-13 1.51979E-14
 -1      3887 1.94945E+01-1.30953E+00 1.86440E-02 2.68149E+00 9.84893E-14 1.54214E-13
 -1      3888 2.03382E+01 9.63869E-01-3.84243E-04 2.09594E-01 1.59686E-13-2.36073E-13
 -1      3889 1.95011E+01 6.28233E-01 2.92748E-03-5.72231E-01 1.82985E-14-1.58188E-13
 -1      3890 2.03252E+01 2.17185E-01 1.22487E-04 1.07448E-01-1.74927E-14-4.93767E-14
 -1      3891 1.66799E+01-1.06384E-01-1.89623E-02-2.79173E+00-7.30091E-15-3.04374E-13
 -1      3892 1.49189E+01-2.73210E-01 6.33027E-02-3.21451E+00-2.56175E-13 9.48616E-14
 -1      3893 1.61370E+01-7.30310E-01-8.53109E-03-3.35086E+00-2.17597E-13-1.10412E-13
 -1      3894 1.49327E+01 1.91425E-01 2.69405E-03-2.50392E+00-3.12383E-13 8.13152E-14
 -1      3895 1.63988E+01 2.92307E-01 2.34349E-02 2.45568E+00-3.20726E-13 1.70754E-13
 -1      3896 1.71626E+01-1.72621E-01 1.13124E-02 2.80364E+00-2.12601E-13 3.33232E-14
 -1      3897 2.01621E+01 8.84022E-02-3.53787E-05-2.30326E-01-6.69712E-16-9.46099E-14
 -1      3898 2.02027E+01 1.06545E-01-1.29521E-04-2.00266E-01 1.53492E-14-1.25214E-13
 -1      3899 2.01408E+01 9.26342E-02 4.16026E-04-2.47551E-01-7.69349E-15-7.27968E-14
 -1      3900 1.96131E+01 6.62028E-01-7.02213E-04 6.49219E-01 1.53082E-13-8.42455E-14
 -1      3901 1.95517E+01 6.99068E-01 7.66599E-04 7.19171E-01 1.56644E-13 2.25040E-14
 -1      3902 2.03686E+01 6.50641E-01-7.63323E-04-8.35659E-02-1.92410E-14-1.75453E-13
 -1      3903 2.03619E+01 5.50014E-01-5.10102E-04-3.87312E-02-2.43776E-14-1.51853E-13
 -1      3904 2.03834E+01 5.39111E-01 6.88471E-04-2.02482E-02 2.84112E-14-9.24282E-14
 -1      3905 2.00858E+01 1.21811E-01 6.16288E-04-2.79722E-01 3.07514E-14-6.98735E-14
 -1      3906 2.01070E+01 1.03722E-01-4.71382E-04-2.61795E-01 2.80854E-14-5.70512E-14
 -1      3907 2.00702E+01 1.50736E-01 2.68309E-04-2.61993E-01 7.91401E-15-8.26833E-14
 -1      3908 1.69351E+01-3.28855E-01 3.02822E-02 2.76520E+00 1.20907E-13-1.09144E-13
 -1      3909 2.02324E+01 1.60548E+00 1.84981E-04-1.45805E-02 9.77520E-14-3.03581E-13
 -1      3910 2.02544E+01 1.49535E+00-4.68863E-03-7.49429E-02 7.27931E-14-2.81620E-13
 -1      3911 2.03035E+01 1.36245E+00 2.27481E-03 2.04596E-02 1.05604E-13-3.16378E-13
 -1      3912 1.74720E+01 6.64194E-01 1.13406E-02 1.89145E+00-1.59067E-13 1.06736E-13
 -1      3913 1.49201E+01 7.20912E-01 2.57657E-02 1.59523E+00 1.82477E-13 4.04858E-14
 -1      3914 1.39881E+01 5.90418E-01 4.11628E-02 1.73213E+00-3.16030E-13 1.72284E-13
 -1      3915 2.03561E+01 8.80315E-01-1.70952E-03-1.59548E-01-2.89628E-15-2.24194E-13
 -1      3916 2.03643E+01 7.54093E-01 8.14600E-05-1.11818E-01-9.17539E-15-1.98273E-13
 -1      3917 2.03836E+01 7.30712E-01 9.50121E-04-7.76664E-02 3.08104E-14-1.80324E-13
 -1      3918 2.03625E+01 9.52666E-01 8.91139E-04-1.32961E-01 3.97175E-14-2.35664E-13
 -1      3919 1.93623E+01 7.87944E-01 3.23700E-03 6.75782E-01 2.67707E-13 1.06070E-13
 -1      3920 1.99564E+01 2.46492E-01 7.90777E-04-3.66453E-01 3.22867E-14 2.74393E-14
 -1      3921 1.99815E+01 2.07592E-01-1.29763E-03-3.38738E-01 5.23238E-14 2.62819E-14
 -1      3922 1.99922E+01 2.12776E-01 6.04131E-04-2.99046E-01 1.98678E-14-2.00376E-14
 -1      3923 1.98748E+01 3.34861E-01 7.90542E-04-4.29348E-01 5.29302E-14-4.30990E-14
 -1      3924 1.99048E+01 2.88036E-01-1.73826E-03-3.93703E-01 2.26454E-14-2.20649E-16
 -1      3925 1.99020E+01 2.95372E-01 1.02912E-03-3.45828E-01 5.53824E-14-3.05857E-15
 -1      3926 1.97944E+01 3.95007E-01 1.54751E-03-4.05385E-01 2.41144E-14-5.58589E-14
 -1      3927 2.03423E+01 1.01889E+00-3.42996E-03 1.82881E-01 1.47218E-13-2.36966E-13
 -1      3928 2.03396E+01 1.08839E+00-1.69865E-03 1.42226E-01 1.32535E-13-2.56978E-13
 -1      3929 2.03787E+01 7.94090E-01 4.49011E-03 1.08233E-01 1.23118E-13-2.24730E-13
 -1      3930 2.03421E+01 1.12088E+00-2.79585E-03 1.07749E-01 1.25684E-13-3.08912E-13
 -1      3931 2.03413E+01 1.15967E+00-1.68016E-04 5.55754E-02 1.09401E-13-3.01382E-13
 -1      3932 2.03942E+01 8.83795E-01 4.86965E-03 6.24996E-02 1.15761E-13-2.77004E-13
 -1      3933 1.91758E+01 8.51906E-01-1.82237E-03-2.23029E-02 1.83733E-13-4.04744E-15
 -1      3934 1.90685E+01 9.00624E-01 2.90213E-03 4.79431E-02 1.71861E-13 7.40845E-14
 -1      3935 1.91964E+01 8.37275E-01-2.66126E-04-1.47922E-01 2.79974E-14-2.42417E-13
 -1      3936 1.43141E+01 1.05517E+00 3.12238E-02-1.91149E-01 2.03547E-13 3.45817E-14
 -1      3937 1.83108E+01-2.29283E+00 4.26416E-02-4.16388E+00 2.13159E-13 1.17507E-13
 -1      3938 1.97003E+01-2.51356E+00 2.29361E-02-3.59100E+00 2.64962E-13-4.96140E-14
 -1      3939 1.91239E+01-1.95369E+00 1.57215E-02-3.41794E+00 3.11018E-13-4.24400E-14
 -1      3940 1.74768E+01-1.62058E+00 4.13831E-03-3.84451E+00 1.16422E-13 9.66831E-14
 -1      3941 2.02695E+01 1.46043E+00 5.73274E-04-1.19328E-01 6.19082E-14-2.80877E-13
 -1      3942 2.02905E+01 1.33551E+00-4.47660E-03-1.62259E-01 4.56930E-14-2.70128E-13
 -1      3943 2.03424E+01 1.14182E+00 2.72556E-03-1.30557E-01 5.67707E-14-2.67957E-13
 -1      3944 2.03330E+01 1.24606E+00 3.83707E-03-6.61476E-02 6.21715E-14-2.54250E-13
 -1      3945 1.49241E+01 9.19602E-01-1.06370E-02-9.99934E-01-1.25193E-13-1.95729E-14
 -1      3946 1.49459E+01 6.94619E-01 5.41305E-02-1.80905E+00-2.20401E-13 2.67035E-14
 -1      3947 2.03067E+01 1.64826E-01 1.64579E-04 1.13090E-01-1.33975E-14-8.03348E-14
 -1      3948 2.02764E+01 1.38435E-01-2.40154E-04 1.31484E-01 2.00861E-15-7.32662E-14
 -1      3949 1.84315E+01 1.01353E+00-7.20384E-04-8.50772E-01 8.76867E-14-1.51628E-13
 -1      3950 1.86022E+01 9.74982E-01-6.54527E-03-7.68688E-01 3.46484E-14-1.47168E-13
 -1      3951 1.81653E+01-3.14976E-01 8.28474E-03 2.39736E+00 2.32734E-13 1.43260E-14
 -1      3952 1.77178E+01-5.00035E-01-2.45969E-02 2.68433E+00 1.83616E-13-1.03818E-13
 -1      3953 1.66423E+01 2.11393E-01 2.64361E-02 2.30373E+00 1.22756E-13-1.67614E-14
 -1      3954 1.81004E+01-1.87081E-03-4.67781E-03 2.10077E+00 1.65727E-13 1.68062E-14
 -1      3955 2.02405E+01 1.24213E-01-7.79267E-05 1.42011E-01 1.17093E-14-9.49379E-14
 -1      3956 2.02066E+01 1.20347E-01 4.38852E-05 1.57025E-01 7.85837E-15-1.02693E-13
 -1      3957 2.02725E+01 1.45648E-01 1.75061E-04 1.07097E-01-5.19345E-15-1.41192E-13
 -1      3958 2.01642E+01 1.25559E-01-3.64139E-04 1.66758E-01-8.87555E-15-7.51401E-14
 -1      3959 2.01272E+01 1.39144E-01 2.10256E-04 1.81255E-01-3.17186E-15-7.62570E-14
 -1      3960 2.01947E+01 1.35810E-01 2.82821E-04 1.28043E-01 3.96715E-15-1.28871E-13
 -1      3961 2.00787E+01 1.59428E-01-7.04469E-04 1.92248E-01 1.47432E-14-7.63693E-14
 -1      3962 2.00382E+01 1.86647E-01 3.17554E-04 2.08675E-01-3.76410E-14-4.87125E-14
 -1      3963 2.01055E+01 1.62918E-01 4.29082E-04 1.48879E-01-1.86374E-15-1.08945E-13
 -1      3964 1.99828E+01 2.18617E-01-1.06488E-03 2.22865E-01-1.06010E-13-1.88068E-14
 -1      3965 1.99380E+01 2.56205E-01 3.76498E-04 2.43417E-01-7.79152E-14-1.03207E-14
 -1      3966 2.00045E+01 2.18972E-01 6.24409E-04 1.73238E-01-3.46393E-14 1.33136E-15
 -1      3967 1.98746E+01 2.96749E-01-1.43787E-03 2.62465E-01-7.57508E-14-2.41017E-14
 -1      3968 1.98242E+01 3.41832E-01 4.52956E-04 2.88999E-01-9.23899E-14-3.13513E-15
 -1      3969 1.98898E+01 2.97416E-01 9.70684E-04 2.04806E-01-8.11472E-14 6.56754E-15
 -1      3970 1.97506E+01 3.87965E-01-1.84948E-03 3.14794E-01-7.84105E-14-2.96398E-14
 -1      3971 1.96933E+01 4.37076E-01 5.14610E-04 3.49214E-01-8.60017E-14-6.27623E-14
 -1      3972 1.97581E+01 3.92161E-01 1.44013E-03 2.46522E-01-1.04028E-13 7.83846E-15
 -1      3973 1.96073E+01 4.85037E-01-2.38031E-03 3.83570E-01-1.20766E-13-6.11429E-14
 -1      3974 1.95421E+01 5.34487E-01 6.50389E-04 4.27743E-01-1.64481E-13-4.50005E-14
 -1      3975 1.96049E+01 4.96592E-01 1.97793E-03 3.02662E-01-9.67295E-14-7.14522E-14
 -1      3976 1.94411E+01 5.79872E-01-3.01175E-03 4.73422E-01-1.38599E-13 4.34026E-14
 -1      3977 1.93679E+01 6.24342E-01 9.45155E-04 5.29908E-01-1.02494E-13 6.32187E-14
 -1      3978 1.94253E+01 6.02615E-01 2.33305E-03 3.76582E-01-9.81790E-14 3.96530E-14
 -1      3979 1.92498E+01 6.60571E-01-3.73775E-03 5.90263E-01-4.17657E-14 9.58513E-14
 -1      3980 1.91698E+01 6.92795E-01 1.51759E-03 6.62273E-01 9.27290E-14 1.47577E-13
 -1      3981 1.92155E+01 7.00650E-01 2.88374E-03 4.75365E-01-5.31342E-14 1.63019E-13
 -1      3982 1.90322E+01 7.11214E-01-4.67141E-03 7.42222E-01 1.51983E-13 1.07201E-13
 -1      3983 1.89491E+01 7.21495E-01 2.55986E-03 8.34522E-01 9.95913E-14 1.70360E-13
 -1      3984 1.89709E+01 7.76579E-01 3.41001E-03 6.06704E-01 7.40844E-14 1.96829E-13
 -1      3985 1.87903E+01 7.10215E-01-5.84774E-03 9.41637E-01 1.83255E-14 1.18001E-13
 -1      3986 1.87125E+01 6.85423E-01 4.48458E-03 1.06120E+00 1.39087E-14 1.17380E-13
 -1      3987 1.86884E+01 8.12394E-01 3.92136E-03 7.83401E-01 4.77855E-14 5.71275E-14
 -1      3988 1.85320E+01 6.28104E-01-7.22474E-03 1.20739E+00 1.79376E-14 2.47208E-13
 -1      3989 1.84752E+01 5.49835E-01 7.57304E-03 1.36403E+00 7.92337E-14 1.50340E-13
 -1      3990 1.83659E+01 7.83838E-01 4.41567E-03 1.02523E+00 1.05806E-13 1.81379E-13
 -1      3991 1.82789E+01 4.25201E-01-7.84616E-03 1.56710E+00 1.27743E-13 1.10250E-13
 -1      3992 1.82766E+01 2.64743E-01 1.31251E-02 1.77238E+00 1.36292E-13 7.60239E-14
 -1      3993 1.80085E+01 6.56748E-01 5.53172E-03 1.36606E+00 7.64632E-14 6.65128E-14
 -1      3994 1.83007E+01-6.44319E-01 1.76007E-02-2.65748E+00-1.33419E-13-3.83507E-13
 -1      3995 1.81489E+01-2.78073E-01-5.12196E-03-2.35544E+00-1.98531E-13-3.66540E-13
 -1      3996 2.03908E+01 4.24091E-01 2.62442E-05 1.90322E-02 1.72104E-14-8.83321E-14
 -1      3997 2.03756E+01 3.32240E-01-8.87240E-04 5.44353E-02-1.16769E-14-8.53983E-14
 -1      3998 1.83225E+01 7.66946E-03 1.54869E-02-2.03854E+00-9.63988E-14-2.24305E-13
 -1      3999 1.82786E+01 2.25817E-01-7.73356E-03-1.80793E+00 6.05571E-14-2.24135E-13
 -1      4000 1.75687E+01 7.80356E-02-1.14973E-02-2.18245E+00-1.65625E-14-2.89917E-13
 -1      4001 1.84678E+01 3.99613E-01 9.62241E-03-1.57242E+00 1.52622E-13-1.85235E-13
 -1      4002 1.84991E+01 5.19619E-01-7.30597E-03-1.39618E+00 3.27553E-14-1.40816E-13
 -1      4003 1.79294E+01 5.02075E-01 4.09300E-03-1.60965E+00 1.18418E-13-2.29541E-13
 -1      4004 1.86813E+01 6.14233E-01 5.90127E-03-1.22557E+00 6.40165E-14-3.83044E-14
 -1      4005 1.87476E+01 6.70604E-01-5.98215E-03-1.08956E+00 1.59760E-13-3.91452E-14
 -1      4006 1.82836E+01 7.10277E-01 3.82926E-03-1.20889E+00 1.71856E-13-1.06391E-13
 -1      4007 1.89130E+01 7.10430E-01 3.59151E-03-9.64019E-01 5.74204E-14 4.94091E-14
 -1      4008 1.89930E+01 7.25218E-01-4.54789E-03-8.58134E-01 9.36767E-15-1.21838E-13
 -1      4009 1.86153E+01 8.00568E-01 3.95453E-03-9.22361E-01 7.04688E-14-1.50772E-13
 -1      4010 1.91387E+01 7.30732E-01 2.50225E-03-7.63083E-01 5.43942E-14-1.48523E-13
 -1      4011 1.92176E+01 7.24498E-01-2.12044E-03-6.80687E-01 9.02315E-14-7.85694E-14
 -1      4012 1.89098E+01 8.12759E-01 2.63519E-03-7.13303E-01-1.19095E-14-1.17784E-13
 -1      4013 1.79588E+01 1.04203E+00 4.89381E-05-1.03553E+00 1.19320E-13-2.51960E-14
 -1      4014 1.81643E+01 1.03360E+00-9.18242E-03-9.26833E-01 1.19423E-13-8.88648E-14
 -1      4015 1.81073E+01 1.11237E+00 9.84075E-03-6.91249E-01 5.10486E-14-3.88708E-14
 -1      4016 1.88113E+01 9.30254E-01-9.32487E-04-7.10806E-01-3.04708E-14-1.28671E-13
 -1      4017 1.89506E+01 8.74926E-01-4.84708E-03-6.44932E-01-2.16695E-14-1.34158E-13
 -1      4018 1.85637E+01 1.02101E+00 7.30830E-03-5.81901E-01 9.12595E-15-1.05816E-13
 -1      4019 1.73711E+01 9.79012E-01 1.51027E-03-1.29796E+00 2.94499E-14-4.62531E-14
 -1      4020 1.76136E+01 1.01973E+00-1.33091E-02-1.14275E+00 9.05204E-14-2.65073E-14
 -1      4021 1.75242E+01 1.15283E+00 1.33103E-02-8.42889E-01 7.42564E-14 1.29776E-13
 -1      4022 1.66194E+01 7.48878E-01-9.60803E-03-1.71209E+00 8.50301E-14-9.39901E-14
 -1      4023 1.69072E+01 8.96924E-01-2.06225E-02-1.45651E+00 6.63873E-14-6.92067E-14
 -1      4024 1.67737E+01 1.11819E+00 2.11959E-02-1.06070E+00 9.36063E-14-2.61453E-14
 -1      4025 1.91165E+01 8.17171E-01-7.73165E-04-5.97969E-01 2.53833E-14-9.33809E-14
 -1      4026 1.92289E+01 7.53962E-01-3.72423E-03-5.43277E-01 6.32276E-14-1.07332E-13
 -1      4027 1.89246E+01 9.01468E-01 5.52123E-03-4.95119E-01 2.82820E-14-5.18241E-14
 -1      4028 1.90285E+01 8.97086E-01-4.39599E-03 6.41939E-01 1.62229E-13-3.87394E-14
 -1      4029 1.88907E+01 9.42674E-01-7.71995E-04 7.09099E-01 3.29857E-14 7.57108E-14
 -1      4030 1.94701E+01 7.31175E-01-3.09195E-03 5.50565E-01 2.77695E-13 1.89852E-14
 -1      4031 1.55931E+01 4.14766E-01 3.53131E-02-2.33778E+00 1.08475E-13-2.69848E-13
 -1      4032 2.03593E+01 2.59483E-01 3.56648E-04 7.40992E-02-7.00899E-15-8.78608E-14
 -1      4033 2.03344E+01 2.04230E-01-6.40930E-04 9.93147E-02-9.19258E-15-7.64444E-14
 -1      4034 2.03847E+01 3.21868E-01 5.81546E-04 4.81933E-02-1.54804E-14-1.28365E-13
 -1      4035 1.70103E+01 9.06757E-01-2.25923E-02 1.43437E+00-8.05878E-14 2.16343E-13
 -1      4036 1.67297E+01 7.81104E-01-4.38801E-03 1.67065E+00-1.87229E-13 1.93992E-13
 -1      4037 1.95592E+01 5.63993E-01-2.22726E-04-4.25715E-01 7.87039E-14-8.10636E-14
 -1      4038 1.96315E+01 5.02017E-01-2.32707E-03-3.87756E-01 6.80333E-14-7.76291E-15
 -1      4039 2.03786E+01 6.32801E-01-1.32325E-03 4.95860E-02 1.23561E-13-2.07200E-13
 -1      4040 2.02714E+01 1.36913E-01-3.00592E-04-1.49795E-01 5.07681E-14-1.94961E-13
 -1      4041 2.02997E+01 1.66204E-01 4.78643E-04-1.28543E-01 5.02627E-14-2.07932E-13
 -1      4042 1.93617E+01 6.91182E-01-4.93678E-04-5.04123E-01 3.76826E-14-1.08338E-13
 -1      4043 1.94518E+01 6.26352E-01-2.94371E-03-4.58316E-01 4.87076E-14-6.57858E-14
 -1      4044 1.92127E+01 7.68488E-01 4.18325E-03-4.22380E-01 6.93673E-14 1.64918E-14
 -1      4045 1.92725E+01 7.40999E-01 1.17933E-03-5.62663E-01 5.54204E-14-2.11646E-13
 -1      4046 1.93058E+01 7.66392E-01 1.51599E-03-3.96214E-01-1.29684E-13-3.98804E-13
 -1      4047 1.92383E+01 7.99326E-01-3.33772E-03-2.86269E-01-1.04269E-13-5.34811E-13
 -1      4048 1.90945E+01 8.07846E-01-1.68342E-03-5.05208E-01 7.17186E-15-2.28534E-13
 -1      4049 1.77121E+01 1.02391E+00-1.23085E-02 1.12598E+00-1.36998E-13 2.65807E-13
 -1      4050 1.74760E+01 9.92932E-01 4.59705E-03 1.27759E+00-5.31598E-14 1.35207E-13
 -1      4051 1.68952E+01 1.12330E+00 2.40247E-02 1.03645E+00-4.71216E-14 1.86461E-13
 -1      4052 1.56009E+01 6.08615E-01-3.75420E-02 1.74725E+00 9.96818E-14 1.03945E-14
 -1      4053 1.50404E+01 1.02249E+00 2.32407E-02 9.77344E-01 1.86000E-13-4.20020E-16
 -1      4054 1.47155E+01 1.09857E+00-1.06001E-02 2.92118E-01 1.73775E-13 4.00287E-14
 -1      4055 1.48599E+01 1.08611E+00-7.78848E-03-6.55571E-01 1.73157E-13 9.33212E-14
 -1      4056 1.58520E+01 7.04476E-01 8.93460E-03-1.78623E+00 1.69111E-13-1.27870E-13
 -1      4057 2.03245E+01 2.08217E-01-8.02913E-04-1.10339E-01 4.33626E-14-1.93971E-13
 -1      4058 2.03497E+01 2.66386E-01 9.50415E-04-7.99694E-02 6.47007E-14-1.67077E-13
 -1      4059 2.03336E+01 2.09887E-01 2.69442E-04-9.71438E-02 6.01395E-14-1.92954E-13
 -1      4060 1.93248E+01 7.97807E-01-1.37415E-03 5.30771E-01 2.72736E-13-6.01510E-14
 -1      4061 1.54922E+01 1.05126E+00 3.13829E-02-1.20557E+00 1.68449E-13-6.27523E-14
 -1      4062 1.66262E+01 5.30865E-01 1.84424E-02 1.77981E+00 8.76512E-14-7.93506E-15
 -1      4063 2.03965E+01 5.02922E-01-1.83504E-04 1.62622E-03 5.92532E-14-1.29803E-13
 -1      4064 2.04074E+01 4.79527E-01 5.58712E-04 8.16612E-03 5.60865E-14-1.84356E-13
 -1      4065 2.04015E+01 5.91784E-01-3.40418E-04-2.72794E-02 7.53061E-14-1.73149E-13
 -1      4066 1.76294E+01 2.94967E-01-1.03993E-02 1.91503E+00 8.10783E-14 4.57406E-14
 -1      4067 1.57827E+01 1.12570E+00-6.13795E-04-7.47708E-01 1.37256E-13-1.90707E-14
 -1      4068 2.02075E+01 1.14090E-01 2.87251E-05-1.79369E-01-7.32728E-15-1.51409E-13
 -1      4069 2.02383E+01 1.20319E-01 6.24794E-05-1.62753E-01 1.47314E-14-1.68048E-13
 -1      4070 2.02738E+01 1.45007E-01 1.49136E-04-1.29022E-01 2.23100E-14-1.78687E-13
 -1      4071 1.91130E+01 8.58006E-01 2.67090E-03-2.45502E-01 4.87472E-14-5.11884E-13
 -1      4072 1.56499E+01 3.28913E-01-1.97660E-02-2.17063E+00-3.02854E-13 1.60898E-13
 -1      4073 1.92107E+01 8.43917E-01-6.78569E-04 5.86754E-01 2.15614E-13-5.34306E-14
 -1      4074 1.90259E+01 9.19193E-01 3.19659E-03 4.83282E-01 2.04688E-13-2.01876E-13
 -1      4075 1.61667E+01 6.97712E-01-1.76839E-02 1.80477E+00-3.26631E-13 1.59804E-13
 -1      4076 1.51874E+01 5.23181E-01-1.92862E-02 2.05424E+00-3.80481E-13 1.05966E-13
 -1      4077 1.41183E+01 1.03679E+00 5.38434E-02 9.41024E-01-3.48166E-13 2.27382E-13
 -1      4078 1.47323E+01 1.04464E+00 3.73306E-04 5.43233E-01-1.90228E-13 2.59888E-14
 -1      4079 1.87570E+01-1.45599E+00 2.09284E-02-3.16889E+00-2.47198E-15-1.45009E-13
 -1      4080 1.84568E+01-1.02628E+00 8.40003E-03-2.92966E+00-1.82423E-13-2.88399E-13
 -1      4081 1.74971E+01-5.46733E-01-2.44462E-02-2.81879E+00-2.92447E-13-3.96415E-13
 -1      4082 1.79927E+01-1.35385E+00-8.96094E-03-3.39544E+00-9.51006E-14-6.30858E-14
 -1      4083 1.94445E+01 6.33092E-01 3.09813E-03-3.60434E-01 9.01712E-14-2.28619E-14
 -1      4084 2.03777E+01 3.31705E-01-7.10773E-04-5.38144E-02 8.41375E-14-2.15651E-13
 -1      4085 2.03621E+01 3.42103E-01-1.44637E-03-5.64511E-02 8.07792E-14-1.66464E-13
 -1      4086 2.03800E+01 4.36985E-01 1.39354E-03-1.00279E-02 1.18496E-13-1.79071E-13
 -1      4087 2.00531E+01 1.74718E-01 2.78531E-04-2.33218E-01-2.44425E-14-5.63452E-14
 -1      4088 2.00897E+01 1.48256E-01-6.39924E-04-2.16765E-01-1.44912E-14-8.96460E-14
 -1      4089 2.03573E+01 1.08702E+00-1.98162E-03 1.07271E-02 9.29400E-14-2.91407E-13
 -1      4090 2.03374E+01 2.03235E-01 2.51816E-04 8.19161E-02-1.69313E-14-1.40137E-13
 -1      4091 2.03564E+01 1.06494E+00-5.05485E-04-9.00176E-02 7.86562E-14-2.26157E-13
 -1      4092 2.03588E+01 1.00346E+00-2.17470E-03-1.17813E-01 5.47642E-14-2.50447E-13
 -1      4093 2.03774E+01 8.87864E-01 2.74407E-04-9.08464E-02 4.81644E-14-2.17063E-13
 -1      4094 1.54937E+01 1.09536E+00 1.77546E-03 5.06874E-01 1.27643E-13 2.38542E-14
 -1      4095 2.01396E+01 1.13423E-01 9.37157E-06-2.30759E-01-5.07120E-15-1.20715E-13
 -1      4096 1.96323E+01 5.04001E-01 2.27719E-03-3.08096E-01 3.87893E-14-7.56847E-14
 -1      4097 1.97190E+01 4.43876E-01 1.05321E-05-3.60834E-01 3.80785E-14 4.83334E-15
 -1      4098 1.97778E+01 3.87464E-01-1.83002E-03-3.29858E-01 1.44402E-14 1.10609E-14
 -1      4099 1.52046E+01 1.21287E+00 5.82598E-02-3.47904E-01-3.40739E-14-7.60644E-14
 -1      4100 1.56627E+01 9.74202E-01-1.38266E-02-9.41799E-01-1.73645E-13 1.58350E-14
 -1      4101 2.03925E+01 6.10748E-01-1.40133E-03 3.09634E-02 1.04742E-13-2.37980E-13
 -1      4102 1.82521E+01 1.03006E+00-9.51056E-03 9.22343E-01-7.43265E-14 1.46908E-13
 -1      4103 1.80472E+01 1.03636E+00-1.77051E-03 1.02547E+00-6.45250E-14 1.77028E-13
 -1      4104 1.76274E+01 1.13917E+00 1.08955E-02 8.56432E-01-1.06022E-14 4.72990E-14
 -1      4105 1.72087E+01-1.06737E+00 3.72326E-02-3.49426E+00-2.25398E-13-2.04556E-13
 -1      4106 1.86551E+01 1.02997E+00 7.98725E-03 5.87276E-01 3.21622E-14 1.10129E-13
 -1      4107 1.86853E+01 9.79747E-01-6.13708E-03 7.65921E-01-1.10514E-13 2.55580E-13
 -1      4108 1.85153E+01 1.01398E+00-9.26664E-04 8.46096E-01-1.89108E-13 2.17573E-13
 -1      4109 2.04071E+01 6.32581E-01-1.76378E-03 2.87146E-02 1.07554E-13-2.50895E-13
 -1      4110 2.04088E+01 6.67848E-01-1.35659E-03 1.61617E-02 9.49702E-14-2.67979E-13
 -1      4111 2.04117E+01 4.46878E-01 3.55482E-03-1.72775E-02 9.09378E-14-2.43629E-13
 -1      4112 1.89076E+01 9.38220E-01-1.05089E-03-3.69577E-02 1.12134E-14-1.16524E-13
 -1      4113 1.89098E+01 9.46605E-01-9.95997E-04 1.15766E-01 7.37208E-14 7.92904E-14
 -1      4114 1.99595E+01 2.45154E-01 2.80579E-04-2.66562E-01 9.98855E-15-5.00534E-14
 -1      4115 2.00009E+01 2.06771E-01-9.95591E-04-2.46677E-01-1.81800E-14-7.60227E-14
 -1      4116 2.00235E+01 2.06753E-01 6.45111E-04-2.00485E-01-9.57361E-15-1.21648E-13
 -1      4117 1.68052E+01-4.99611E-01 9.29289E-03-2.98636E+00-4.49686E-13-1.16724E-13
 -1      4118 1.58969E+01 1.09409E+00 4.73605E-02 1.23990E+00-2.63908E-13 8.21608E-15
 -1      4119 1.53965E+01 1.07439E+00-2.22242E-02 4.31353E-01-1.45242E-13-5.56725E-14
 -1      4120 1.78206E+01 1.14319E+00-6.32658E-03-4.70587E-01 5.64327E-15 1.38160E-13
 -1      4121 1.80848E+01 1.10526E+00-7.31962E-03-4.26679E-01-4.75306E-15 6.67907E-14
 -1      4122 1.71423E+01 1.18163E+00-7.18946E-03-5.55685E-01 1.13869E-13 1.32404E-13
 -1      4123 1.74827E+01 1.17073E+00-1.03315E-02-4.90969E-01 1.07229E-13 1.35566E-13
 -1      4124 1.75814E+01 1.22269E+00 2.13354E-02-1.94670E-01 3.68337E-14 1.25027E-13
 -1      4125 1.89437E+01 9.41812E-01-8.20946E-04 3.57979E-01 2.03150E-13 7.70358E-15
 -1      4126 2.02213E+01 1.37093E-01-2.70803E-04 8.46978E-02 4.89792E-15-1.07283E-13
 -1      4127 2.01791E+01 1.42561E-01-4.94377E-05 9.48404E-02 2.50545E-14-8.62819E-14
 -1      4128 2.01297E+01 1.56636E-01-4.69445E-04 9.97286E-02-5.78376E-15-8.50748E-14
 -1      4129 2.00823E+01 1.78802E-01 7.62370E-07 1.10368E-01-2.87743E-14-6.28471E-14
 -1      4130 2.01575E+01 1.58971E-01 6.85845E-04 5.65264E-02 2.12305E-14-6.89691E-14
 -1      4131 2.00245E+01 2.07916E-01-9.05885E-04 1.16748E-01 3.97578E-15-9.81052E-14
 -1      4132 1.99715E+01 2.43913E-01 1.34685E-04 1.29903E-01-1.90266E-14-6.30469E-14
 -1      4133 2.00525E+01 2.05154E-01 1.03064E-03 6.72867E-02-3.05575E-14-1.40420E-13
 -1      4134 1.99047E+01 2.83939E-01-1.32721E-03 1.39007E-01-8.03166E-14-8.21031E-14
 -1      4135 1.98445E+01 3.30183E-01 1.11473E-04 1.55731E-01-1.26670E-13-1.16435E-13
 -1      4136 1.99329E+01 2.78709E-01 1.72566E-03 8.16306E-02-6.89089E-14-1.66527E-13
 -1      4137 1.97667E+01 3.78743E-01-1.74954E-03 1.69172E-01-1.23796E-13-3.51356E-14
 -1      4138 1.96972E+01 4.32638E-01 1.75234E-04 1.91216E-01-9.64892E-14-2.43527E-14
 -1      4139 1.97930E+01 3.73148E-01 1.90725E-03 1.00877E-01-8.45736E-14-1.16212E-13
 -1      4140 1.96066E+01 4.86045E-01-2.00322E-03 2.09099E-01-7.90641E-14-3.41921E-14
 -1      4141 1.95237E+01 5.43199E-01-3.87509E-04 2.37186E-01-6.98011E-14-8.12040E-16
 -1      4142 1.96346E+01 4.82466E-01 3.18841E-03 1.28771E-01-9.39158E-14 1.14676E-14
 -1      4143 1.94146E+01 6.00018E-01-3.07048E-03 2.64694E-01-3.85746E-14 1.54333E-14
 -1      4144 1.93200E+01 6.58228E-01 5.59225E-05 3.02639E-01-6.61942E-14 1.38838E-13
 -1      4145 1.94385E+01 6.07983E-01 4.79403E-03 1.69111E-01-3.17743E-14 7.49190E-14
 -1      4146 1.91883E+01 7.10417E-01-4.22488E-03 3.39780E-01-6.36058E-14 1.92971E-13
 -1      4147 1.90789E+01 7.63894E-01 2.56178E-04 3.90016E-01 1.83283E-14 2.45687E-13
 -1      4148 1.92114E+01 7.32101E-01 7.15501E-03 2.24100E-01-9.88326E-15 1.17731E-13
 -1      4149 1.89192E+01 8.06885E-01-5.57996E-03 4.41744E-01 2.54809E-14 2.35866E-13
 -1      4150 1.87932E+01 8.48961E-01 7.15845E-04 5.09103E-01 6.08515E-14 1.95965E-13
 -1      4151 1.89362E+01 8.49410E-01 9.46665E-03 3.01167E-01 1.14203E-14 1.57596E-13
 -1      4152 1.85983E+01 8.74248E-01-7.54704E-03 5.81433E-01 3.24244E-16 2.39128E-13
 -1      4153 1.84552E+01 8.96389E-01 1.56450E-03 6.73266E-01 2.14291E-14 1.79970E-13
 -1      4154 1.86036E+01 9.48151E-01 1.24554E-02 4.10207E-01 5.67899E-14 1.77546E-13
 -1      4155 1.82145E+01 8.92844E-01-1.05686E-02 7.75189E-01 1.23237E-13 1.28520E-13
 -1      4156 1.80540E+01 8.83569E-01 2.40970E-03 9.03395E-01 1.78884E-13 1.33405E-13
 -1      4157 1.81986E+01 1.01345E+00 1.63879E-02 5.65311E-01 9.69379E-14 1.39712E-13
 -1      4158 1.77505E+01 8.40130E-01-1.53386E-02 1.04628E+00 1.15665E-13 5.41947E-14
 -1      4159 1.75869E+01 7.82520E-01 9.87650E-04 1.23260E+00 4.95294E-14 4.14917E-14
 -1      4160 1.77016E+01 1.02391E+00 2.09750E-02 7.86082E-01 9.98106E-14 3.72528E-14
 -1      4161 1.59717E+01 1.12282E+00-1.87880E-02 4.35163E-01-3.10004E-14-1.03422E-13
 -1      4162 1.69550E+01 1.17567E+00-1.67104E-02 3.75484E-01 3.82181E-15-1.38921E-13
 -1      4163 1.64931E+01 1.16199E+00-1.50526E-02 4.46912E-01-4.47680E-14-9.72876E-14
 -1      4164 1.64081E+01 1.25026E+00 3.77230E-02-2.98728E-01-1.77362E-14-2.03809E-13
 -1      4165 1.74379E+01 6.45705E-01 4.82607E-03-1.48543E+00 1.75278E-13-1.64426E-13
 -1      4166 1.75932E+01 7.41919E-01-1.57729E-02-1.26259E+00 1.90051E-13-1.71842E-13
 -1      4167 1.79205E+01 8.19478E-01 3.14361E-03-1.08878E+00 5.76623E-14-1.23653E-13
 -1      4168 1.80855E+01 8.61613E-01-1.02265E-02-9.34088E-01 9.66749E-14-7.71916E-14
 -1      4169 1.74886E+01 9.58016E-01 1.35030E-02-9.73090E-01 1.32509E-13-7.49377E-14
 -1      4170 1.83452E+01 8.89859E-01 2.02288E-03-8.09849E-01-1.24979E-14-1.61867E-13
 -1      4171 1.84978E+01 8.92216E-01-7.06955E-03-6.99192E-01-5.37646E-14-3.20459E-13
 -1      4172 1.80339E+01 9.96462E-01 7.01185E-03-6.83359E-01-1.14890E-13-3.23360E-13
 -1      4173 1.87089E+01 8.88664E-01 1.56203E-03-6.11329E-01 1.94950E-14-4.06967E-13
 -1      4174 1.88451E+01 8.68834E-01-3.82815E-03-5.30828E-01 1.68189E-14-4.14948E-13
 -1      4175 1.84789E+01 9.77292E-01 5.29414E-03-4.99040E-01-7.46439E-14-5.80622E-13
 -1      4176 1.62947E+01 1.13505E+00-9.28610E-03-6.81701E-01 1.31974E-13-2.55748E-14
 -1      4177 1.67257E+01 1.16284E+00-1.92321E-02-5.89506E-01 1.04502E-13 3.52799E-14
 -1      4178 1.68519E+01 1.28712E+00 3.14352E-02-1.87029E-01 1.16259E-13 2.70461E-14
 -1      4179 1.59340E+01 1.28295E+00 4.16642E-02-1.91969E-01 1.32577E-13 3.85166E-14
 -1      4180 1.83425E+01 1.05865E+00-4.64460E-03-4.10090E-01-3.44126E-15 7.12796E-14
 -1      4181 1.85495E+01 1.00381E+00-5.19944E-03-3.75773E-01 2.09938E-14 6.40736E-14
 -1      4182 1.81552E+01 1.13156E+00 1.53481E-02-1.99600E-01-6.07370E-15 1.96306E-13
 -1      4183 1.68354E+01 7.43483E-01-1.61581E-03 1.43621E+00 5.12335E-14 3.38034E-14
 -1      4184 1.87518E+01 9.43940E-01-3.39095E-03-3.60083E-01 4.40007E-14 9.76798E-14
 -1      4185 1.89159E+01 8.79439E-01-3.86042E-03-3.30626E-01 5.29453E-14 1.39333E-13
 -1      4186 1.86022E+01 1.01389E+00 1.13781E-02-1.96371E-01 3.61752E-14 2.14384E-13
 -1      4187 1.87775E+01 9.92915E-01 1.32949E-03 2.81056E-01 1.41230E-13-8.26638E-14
 -1      4188 1.67097E+01-9.08957E-02 3.01501E-02-2.65052E+00-2.95531E-13-2.02548E-13
 -1      4189 1.90775E+01 8.13025E-01-2.43048E-03-3.15463E-01 1.38669E-16 9.82885E-14
 -1      4190 1.92087E+01 7.44781E-01-2.93497E-03-2.89251E-01 4.46721E-14 6.24885E-14
 -1      4191 1.89571E+01 8.79847E-01 8.52831E-03-1.86729E-01 5.17777E-15 1.28261E-13
 -1      4192 2.03918E+01 3.50191E-01-1.44655E-03-4.00149E-02 7.30182E-14-2.48170E-13
 -1      4193 2.03998E+01 8.77628E-01 2.24076E-03 1.67111E-02 9.07502E-14-2.68936E-13
 -1      4194 2.03629E+01 1.05523E+00 3.88196E-04-2.31207E-02 9.91434E-14-2.44465E-13
 -1      4195 2.04042E+01 3.68933E-01-2.70076E-04 2.34837E-02 1.11684E-14-2.08024E-13
 -1      4196 2.03864E+01 2.90110E-01-5.07870E-04 4.29616E-02-1.31343E-14-1.89808E-13
 -1      4197 1.59873E+01 1.11739E+00-1.63470E-02 4.47074E-01 9.26472E-14 6.23152E-14
 -1      4198 2.02994E+01 1.57860E-01-2.99219E-04 6.85362E-02 8.35608E-15-1.54149E-13
 -1      4199 2.02634E+01 1.42367E-01-3.69196E-05 8.04302E-02 1.42087E-14-1.32873E-13
 -1      4200 2.02478E+01 1.48829E-01 3.79401E-04 4.72560E-02 2.15929E-14-1.18607E-13
 -1      4201 1.66905E+01 9.85159E-01 1.93722E-02 1.04865E+00 9.61871E-14-8.27203E-15
 -1      4202 1.65099E+01 3.15150E-01 1.10930E-02-2.08738E+00-1.58450E-13-5.03638E-14
 -1      4203 1.64473E+01 1.02153E+00-1.83989E-02-7.91787E-01 7.48533E-15-9.30187E-14
 -1      4204 1.64954E+01 8.44534E-01 1.86727E-02-1.35447E+00 1.46174E-14-2.30467E-14
 -1      4205 1.67174E+01 5.41715E-01-5.02615E-03-1.76037E+00-4.26854E-14-5.57006E-14
 -1      4206 1.98501E+01 3.36040E-01 1.75021E-04-3.08412E-01 3.43680E-14-1.93572E-15
 -1      4207 1.98987E+01 2.87780E-01-1.37973E-03-2.83565E-01 5.87896E-14-1.34526E-14
 -1      4208 1.97863E+01 3.86773E-01 1.63794E-03-2.64585E-01 4.07930E-14-3.44255E-14
 -1      4209 1.89440E+01 8.71487E-01 1.66898E-03-4.40210E-01-2.95381E-14-4.65271E-13
 -1      4210 1.90120E+01 8.73133E-01-2.92225E-04-3.16128E-01-3.61822E-14-7.04033E-13
 -1      4211 1.89579E+01 9.04680E-01-2.81924E-03-1.75394E-01 7.93695E-14-5.42555E-13
 -1      4212 1.87625E+01 9.36455E-01-1.36217E-03-3.36531E-01 1.07405E-13-7.64134E-13
 -1      4213 2.03889E+01 7.79095E-01-8.27281E-04-7.04670E-02 5.78357E-14-1.96172E-13
 -1      4214 2.03948E+01 6.81302E-01-2.27696E-04-4.30340E-02 7.10714E-14-1.69358E-13
 -1      4215 2.04095E+01 6.39607E-01-2.21570E-04-2.27608E-02 8.38086E-14-1.93586E-13
 -1      4216 2.03912E+01 8.38264E-01 1.13597E-03-5.88662E-02 8.53298E-14-1.87811E-13
 -1      4217 2.01349E+01 1.29195E-01 1.89503E-04-2.05530E-01-4.54199E-15-1.06647E-13
 -1      4218 2.01682E+01 1.17333E-01-2.95148E-04-1.90310E-01-2.37318E-14-1.35677E-13
 -1      4219 2.02013E+01 1.29541E-01 2.01954E-04-1.53813E-01-1.90116E-14-1.38583E-13
 -1      4220 2.01182E+01 1.52442E-01 3.05232E-04-1.76391E-01-3.45162E-14-1.47347E-13
 -1      4221 1.93393E+01 6.77342E-01-1.60081E-03-2.74760E-01 6.35455E-14-1.41922E-15
 -1      4222 1.94449E+01 6.09550E-01-2.30897E-03-2.51137E-01 5.25974E-14-2.86173E-14
 -1      4223 1.92421E+01 7.39274E-01 6.14597E-03-1.73019E-01-9.59703E-15 4.23922E-14
 -1      4224 2.03623E+01 2.30700E-01-1.41996E-04 4.89908E-02-2.32548E-14-1.81420E-13
 -1      4225 2.03342E+01 1.87590E-01-4.60232E-05 6.45682E-02-2.84230E-14-1.82047E-13
 -1      4226 2.03243E+01 1.83727E-01 1.10319E-04 3.73066E-02-7.99263E-15-1.64469E-13
 -1      4227 1.88125E+01 9.63714E-01 2.55597E-03-1.10152E-01-1.63873E-15-3.57064E-13
 -1      4228 2.03655E+01 1.00746E+00-2.41802E-03-5.38565E-02 8.61864E-14-2.37962E-13
 -1      4229 2.03353E+01 1.93795E-01-8.74219E-04-8.39669E-02 4.47820E-14-2.03322E-13
 -1      4230 2.03653E+01 2.42159E-01 1.03726E-03-6.36402E-02 3.53912E-14-2.04775E-13
 -1      4231 1.68038E+01 1.11457E+00-1.63382E-02 4.14452E-01 9.24330E-14 4.96413E-15
 -1      4232 2.00990E+01 1.67829E-01-1.96069E-04-1.40847E-01-4.41145E-14-1.75946E-13
 -1      4233 2.01436E+01 1.48039E-01-4.23755E-04-1.29304E-01-3.34733E-14-1.79163E-13
 -1      4234 1.99144E+01 2.86359E-01 1.07688E-03-2.29294E-01 3.67373E-14-4.81381E-14
 -1      4235 1.82064E+01 1.12055E+00 1.44385E-02 7.04340E-01-1.71302E-13 4.09666E-14
 -1      4236 1.73372E+01 1.19460E+00-3.52755E-03 3.23407E-01 1.13636E-13-2.57511E-13
 -1      4237 1.69609E+01 1.05201E+00-5.63019E-03-6.68469E-01 6.12531E-14-1.22881E-13
 -1      4238 2.04116E+01 4.36452E-01 1.72403E-04 1.72470E-02 4.14777E-14-2.03238E-13
 -1      4239 2.04140E+01 4.03662E-01 4.56944E-04 1.19446E-02 2.38227E-14-2.28576E-13
 -1      4240 2.04174E+01 5.08719E-01-3.81648E-04-2.34162E-03 5.30623E-14-2.20155E-13
 -1      4241 2.04181E+01 6.32835E-01-1.72954E-03-3.84589E-03 8.64736E-14-2.64703E-13
 -1      4242 2.03934E+01 3.36643E-01-1.81230E-04-3.03182E-02 5.48221E-14-2.34926E-13
 -1      4243 2.03824E+01 2.75910E-01 4.07638E-04 2.47675E-02-1.54545E-14-2.23674E-13
 -1      4244 1.86781E+01 9.85833E-01 6.82069E-04-1.85305E-01 8.55276E-14-4.53409E-13
 -1      4245 1.86153E+01 1.01054E+00-3.15594E-03-5.06135E-02 3.74577E-14-1.93912E-13
 -1      4246 1.85697E+01 9.91175E-01-1.90142E-03-2.77830E-01 5.83731E-14-4.98884E-13
 -1      4247 1.95527E+01 5.45124E-01-8.16920E-04-2.39152E-01 6.28195E-14-1.04541E-13
 -1      4248 1.96382E+01 4.82382E-01-1.52164E-03-2.18244E-01 2.68681E-14-8.96883E-14
 -1      4249 1.94722E+01 5.94041E-01 1.12169E-03-1.55339E-01 3.04035E-14-7.43475E-14
 -1      4250 1.85660E+01 1.04483E+00 1.57738E-03 1.31666E-01 7.58424E-14-2.03414E-13
 -1      4251 1.85892E+01 1.03050E+00-5.12151E-03 3.90512E-01 1.43931E-13-1.19986E-13
 -1      4252 1.83827E+01 1.07782E+00-5.22927E-03 4.33168E-01 2.73852E-14-1.44255E-13
 -1      4253 1.84229E+01 1.06253E+00-1.83955E-03 5.28929E-02 8.56184E-14-1.88457E-13
 -1      4254 2.02703E+01 1.41990E-01-1.16008E-04-1.05600E-01-4.26058E-18-1.56233E-13
 -1      4255 2.03049E+01 1.61627E-01 2.16348E-04-9.11218E-02 4.56066E-14-1.69301E-13
 -1      4256 2.03316E+01 1.92141E-01-7.82530E-05-6.06293E-02 2.69928E-14-1.84170E-13
 -1      4257 1.99935E+01 2.30160E-01-1.40596E-04-1.59010E-01 4.45962E-15-1.69905E-13
 -1      4258 2.00451E+01 1.95572E-01-4.98940E-04-1.46330E-01-2.51270E-14-1.74614E-13
 -1      4259 2.00722E+01 1.89268E-01-2.47496E-04-9.87666E-02-3.90324E-14-1.84263E-13
 -1      4260 1.74862E+01 1.10906E+00-1.83943E-02 2.57902E-01 8.91060E-14 1.83356E-14
 -1      4261 1.78293E+01 1.09244E+00-9.54006E-03 2.27782E-01 4.32861E-14 8.17152E-15
 -1      4262 2.01812E+01 1.50246E-01-3.49211E-04 1.07225E-02 1.84279E-14-1.47884E-13
 -1      4263 2.01318E+01 1.64597E-01-4.34195E-04 1.62435E-02 1.66710E-14-1.63451E-13
 -1      4264 1.80671E+01 1.05854E+00-1.38941E-02 1.53096E-01 3.01569E-14 8.52614E-14
 -1      4265 1.98709E+01 3.16731E-01-3.02530E-04-1.80968E-01 5.00321E-14-1.13504E-13
 -1      4266 1.99304E+01 2.70467E-01-9.20677E-04-1.66352E-01 3.54991E-14-1.14236E-13
 -1      4267 1.99578E+01 2.63086E-01 1.30589E-03-1.11413E-01-7.99237E-15-1.58583E-13
 -1      4268 2.00612E+01 1.96752E-01-4.77751E-04-1.99584E-02-9.25550E-15-1.64420E-13
 -1      4269 2.00033E+01 2.28990E-01-4.75963E-04-1.52764E-02-6.11433E-14-1.68453E-13
 -1      4270 1.99393E+01 2.68024E-01-1.29167E-03-1.97466E-02-3.81305E-14-1.31749E-13
 -1      4271 1.98730E+01 3.12982E-01-8.31175E-04-1.38099E-02-8.96394E-15-8.86485E-14
 -1      4272 1.96555E+01 4.56490E-01-2.51058E-03 4.07556E-02-6.87155E-14 6.45117E-15
 -1      4273 1.95657E+01 5.17144E-01-1.78859E-03 5.72942E-02-5.41223E-14 9.13802E-14
 -1      4274 1.94330E+01 6.00090E-01-2.56947E-03-4.09333E-03-2.65851E-14 6.91633E-14
 -1      4275 1.93211E+01 6.64245E-01-2.76327E-03 1.24364E-02-4.03840E-14 8.19571E-14
 -1      4276 1.91868E+01 7.28337E-01-5.43335E-03 1.19439E-02-3.33046E-14 1.26712E-13
 -1      4277 1.90557E+01 7.94154E-01-4.07813E-03 3.64858E-02-6.92778E-15 1.49165E-13
 -1      4278 1.88899E+01 8.55377E-01-7.52811E-03 3.96897E-02-2.08465E-15 1.54808E-13
 -1      4279 1.87317E+01 9.16860E-01-5.43056E-03 7.53690E-02 3.08670E-14 1.44278E-13
 -1      4280 1.85241E+01 9.69707E-01-1.01868E-02 8.43084E-02 4.42070E-14 1.23608E-13
 -1      4281 1.83311E+01 1.02088E+00-7.19571E-03 1.35865E-01 8.43350E-14 1.41253E-13
 -1      4282 1.71891E+01 1.11131E+00-1.36084E-02 3.70279E-01 1.04082E-13-1.60910E-14
 -1      4283 1.72610E+01 1.07939E+00-1.64428E-02-5.31678E-01 3.58072E-14-1.76498E-13
 -1      4284 1.83679E+01 1.02294E+00 9.69001E-04-3.40502E-01-1.34253E-13-4.10310E-13
 -1      4285 2.02707E+01 1.50041E-01-3.98034E-04 8.32138E-03 3.08668E-14-1.60588E-13
 -1      4286 2.02279E+01 1.44694E-01-2.30604E-04 1.23826E-02 2.68117E-14-1.44172E-13
 -1      4287 2.02041E+01 1.51068E-01 2.70336E-04-2.85840E-02 8.50580E-15-1.64512E-13
 -1      4288 1.80512E+01 1.12246E+00-7.47399E-03 3.72699E-01-2.64056E-13-8.41156E-14
 -1      4289 1.77651E+01 1.15458E+00-1.20481E-02 4.23293E-01-1.14274E-13-1.16105E-13
 -1      4290 1.73367E+01 1.21846E+00 1.84796E-02-4.26299E-02-1.45590E-13-1.49838E-13
 -1      4291 1.80830E+01 1.14772E+00 1.07022E-02 1.72356E-01-1.36948E-13-6.89171E-14
 -1      4292 2.03324E+01 1.85939E-01-4.63141E-04-1.57073E-02-8.10056E-15-1.71971E-13
 -1      4293 2.02973E+01 1.60138E-01 3.06686E-04-1.22113E-02 2.75251E-14-1.65814E-13
 -1      4294 2.03915E+01 8.92944E-01 1.26506E-03-4.44144E-02 8.59066E-14-2.21358E-13
 -1      4295 1.82312E+01 1.08549E+00 6.18201E-03-1.98453E-01-1.10461E-13-3.52007E-13
 -1      4296 1.81493E+01 1.10484E+00-1.32160E-03-7.30266E-03-8.43031E-14-2.31831E-13
 -1      4297 1.78038E+01 1.12975E+00-9.47981E-03-1.04860E-01-2.67538E-13-3.06808E-13
 -1      4298 1.80874E+01 1.03652E+00-7.74910E-03-4.42314E-01-2.14844E-13-5.28492E-13
 -1      4299 1.97263E+01 4.22688E-01-6.28710E-04-2.07778E-01 2.34365E-14-1.08488E-13
 -1      4300 1.97965E+01 3.67067E-01-1.42394E-03-1.90588E-01 5.05746E-14-1.14596E-13
 -1      4301 1.96648E+01 4.68607E-01 1.80763E-03-1.41473E-01 1.54251E-14-1.17437E-13
 -1      4302 2.04242E+01 4.70067E-01 1.86415E-03-2.81528E-03 5.13317E-14-2.69380E-13
 -1      4303 2.04173E+01 6.36942E-01-3.89598E-04-5.92916E-03 8.06334E-14-2.38590E-13
 -1      4304 2.03892E+01 2.80839E-01-4.37534E-04-1.39534E-02 2.40048E-14-2.34526E-13
 -1      4305 2.03645E+01 2.25380E-01 3.97825E-04-6.97360E-03-2.44088E-15-2.19405E-13
 -1      4306 1.76937E+01 1.10439E+00 3.04272E-05-3.54227E-01-1.40062E-13-2.45690E-13
 -1      4307 2.01911E+01 1.36165E-01-3.96978E-05-1.23597E-01 2.06353E-15-1.78191E-13
 -1      4308 2.02303E+01 1.33607E-01-2.21436E-04-1.11953E-01 2.90946E-16-1.52556E-13
 -1      4309 2.02590E+01 1.48334E-01 1.73601E-04-7.55602E-02 1.23291E-14-1.71818E-13
 -1      4310 2.01730E+01 1.51773E-01 4.48549E-04-8.74640E-02-4.66087E-15-1.47974E-13
 -1      4311 2.04046E+01 7.87660E-01 1.40579E-03-2.91114E-02 9.09029E-14-2.11660E-13
 -1      4312 1.98229E+01 3.58106E-01 1.98199E-03-1.24807E-01 5.37445E-14-1.37581E-13
 -1      4313 1.97982E+01 3.63384E-01-1.47725E-03-1.76287E-02 4.31620E-15-6.38473E-14
 -1      4314 1.97225E+01 4.18389E-01-4.29243E-04-1.03659E-02-1.53594E-14-3.25499E-14
 -1      4315 1.78449E+01 1.06765E+00 7.18334E-03-5.37700E-01-9.76319E-14-3.89041E-13
 -1      4316 1.94915E+01 5.80203E-01 2.07345E-03-9.46684E-02-3.19238E-15 7.73592E-16
 -1      4317 2.04163E+01 4.01400E-01 6.21232E-05 1.20186E-03 3.54382E-14-2.60142E-13
 -1      4318 2.01424E+01 1.61129E-01 5.92627E-04-6.14218E-02-1.25764E-14-1.51278E-13
 -1      4319 2.01882E+01 1.46467E-01-6.40313E-04-5.66737E-02 7.73685E-15-1.57890E-13
 -1      4320 2.00887E+01 1.87000E-01 4.01585E-04-6.55610E-02-2.26463E-15-2.04138E-13
 -1      4321 2.02750E+01 1.51780E-01-2.98104E-04-4.91400E-02 2.49796E-14-1.48484E-13
 -1      4322 2.04124E+01 6.88779E-01-1.45219E-04-1.48011E-02 8.56335E-14-2.20203E-13
 -1      4323 1.96790E+01 4.52431E-01 4.05691E-04-8.45735E-02-1.52284E-14-3.77267E-14
 -1      4324 2.02350E+01 1.43550E-01 2.98417E-04-5.46785E-02 1.32557E-14-1.56249E-13
 -1      4325 1.95963E+01 5.09478E-01 5.47319E-04-8.92503E-02-1.19693E-14-3.03547E-14
 -3
    1PSTEP                         3           1           1          
  100CL  101 1.000000000        4325                     0    1           1
 -4  TOSTRAIN    6    1
 -5  EXX         1    4    1    1
 -5  EYY         1    4    2    2
 -5  EZZ         1    4    3    3
 -5  EXY         1    4    1    2
 -5  EYZ         1    4    2    3
 -5  EZX         1    4    3    1
 -1         1 8.33542E-05 2.09964E-05-4.16991E-05-9.22048E-05-1.01644E-17 1.34699E-17
 -1         2 3.61811E-05-1.10408E-04 1.98959E-05-6.13606E-07 1.27557E-17-4.62612E-19
 -1         3 9.51978E-05-2.86128E-05-2.84747E-05-3.04491E-08-3.51027E-18-3.77025E-18
 -1         4 9.52005E-05-2.86089E-05-2.84815E-05 2.71316E-08 1.52994E-18-1.09941E-20
 -1         5 1.43242E-04-2.14644E-05-4.24948E-05 3.85148E-05-2.70839E-19 1.88697E-17
 -1         6 1.45307E-04 2.57326E-10-4.41533E-05-5.35030E-05-1.14477E-18 1.47875E-17
 -1         7 9.05412E-05-5.09271E-07-3.90414E-05-2.92539E-05-1.63583E-19 1.43146E-18
 -1         8 8.50855E-05 8.66492E-08-3.63224E-05-2.02840E-05-1.80259E-19-2.33370E-18
 -1         9 8.28018E-05 7.57182E-08-3.53448E-05-1.56548E-05-1.40144E-19-4.26312E-18
 -1        10 8.17787E-05 3.92914E-08-3.48842E-05-1.20919E-05-7.34536E-20-5.09421E-18
 -1        11 8.12779E-05 1.88186E-08-3.46631E-05-9.02578E-06-4.87375E-20-5.38366E-18
 -1        12 8.10227E-05 8.55326E-09-3.45543E-05-6.29271E-06-1.56585E-20-5.36439E-18
 -1        13 8.08904E-05 3.95909E-09-3.45007E-05-3.69028E-06 8.47033E-21-5.17571E-18
 -1        14 8.08356E-05 2.11292E-09-3.44790E-05-1.18507E-06 4.87164E-20-5.02068E-18
 -1        15 8.08376E-05 2.11504E-09-3.44797E-05 1.29056E-06 9.14006E-20-4.88542E-18
 -1        16 8.08966E-05 3.91934E-09-3.45029E-05 3.80067E-06 9.35425E-20-4.63879E-18
 -1        17 8.10343E-05 7.82295E-09-3.45582E-05 6.41487E-06 1.15617E-19-4.21267E-18
 -1        18 8.12959E-05 1.76314E-08-3.46683E-05 9.16716E-06 1.51245E-19-3.52296E-18
 -1        19 8.18045E-05 3.77583E-08-3.48925E-05 1.22720E-05 1.91780E-19-2.48625E-18
 -1        20 8.28210E-05 8.12983E-08-3.53568E-05 1.58856E-05 2.30340E-19-7.37178E-19
 -1        21 8.50499E-05 1.69694E-07-3.63606E-05 2.04945E-05 2.66815E-19 2.20992E-18
 -1        22 9.15788E-05-9.81130E-08-3.87130E-05 2.80012E-05 2.73168E-20 7.68353E-18
 -1        23 1.12867E-04-3.80900E-05-3.53646E-05-4.40435E-06-7.47904E-19 1.08733E-17
 -1        24 9.26948E-05-2.76642E-05-2.89661E-05 3.90253E-07-1.57416E-19 7.47197E-18
 -1        25 8.90032E-05-2.68174E-05-2.68943E-05 3.75133E-07-8.88839E-20 4.44634E-18
 -1        26 8.78939E-05-2.64521E-05-2.63550E-05 2.02766E-07 1.69192E-20 2.13695E-18
 -1        27 8.79154E-05-2.64291E-05-2.63460E-05 1.38409E-07-7.26401E-20 5.72965E-19
 -1        28 8.84510E-05-2.65662E-05-2.65162E-05 9.92640E-08-5.26147E-20-3.62755E-19
 -1        29 8.92182E-05-2.67829E-05-2.67526E-05 7.33063E-08-1.00239E-19-1.53735E-18
 -1        30 9.00716E-05-2.70316E-05-2.70116E-05 5.47881E-08 7.24712E-20-2.33352E-18
 -1        31 9.09352E-05-2.72866E-05-2.72724E-05 4.09709E-08 5.53449E-20-2.91467E-18
 -1        32 9.17739E-05-2.75361E-05-2.75257E-05 3.05008E-08-3.00252E-19-4.11166E-18
 -1        33 9.25798E-05-2.77769E-05-2.77693E-05 2.26949E-08 2.63317E-19-4.68874E-18
 -1        34 9.33644E-05-2.80121E-05-2.80068E-05 1.72222E-08 9.50580E-20-4.32483E-18
 -1        35 9.41536E-05-2.82492E-05-2.82460E-05 1.39645E-08-4.16511E-20-4.57480E-18
 -1        36 9.49847E-05-2.84993E-05-2.84981E-05 1.29612E-08-2.42054E-20-4.91313E-18
 -1        37 9.59033E-05-2.87757E-05-2.87767E-05 1.43830E-08-3.07536E-20-4.28321E-18
 -1        38 9.69613E-05-2.90939E-05-2.90974E-05 1.85058E-08 6.05153E-20-3.94813E-18
 -1        39 9.82120E-05-2.94695E-05-2.94759E-05 2.56561E-08-1.09293E-20-4.96883E-18
 -1        40 9.97045E-05-2.99171E-05-2.99266E-05 3.60889E-08-1.51292E-19-4.80759E-18
 -1        41 1.01473E-04-3.04463E-05-3.04587E-05 4.97376E-08 1.42191E-19-5.68512E-18
 -1        42 1.03519E-04-3.10573E-05-3.10714E-05 6.57434E-08-3.33015E-19-6.92603E-18
 -1        43 1.05788E-04-3.17336E-05-3.17458E-05 8.16609E-08-2.36182E-19-7.06539E-18
 -1        44 1.08134E-04-3.24313E-05-3.24351E-05 9.22952E-08-7.78609E-20-5.90593E-18
 -1        45 1.10280E-04-3.30685E-05-3.30531E-05 8.84206E-08-2.92726E-19-6.04757E-18
 -1        46 1.11792E-04-3.35162E-05-3.34681E-05 5.63619E-08-4.64950E-20-8.54527E-18
 -1        47 1.12088E-04-3.36025E-05-3.35111E-05-1.93080E-08 2.66652E-19-7.83973E-18
 -1        48 1.10546E-04-3.31435E-05-3.30126E-05-1.46914E-07 2.36081E-19-6.86914E-18
 -1        49 1.06756E-04-3.20160E-05-3.18777E-05-3.11341E-07 1.03459E-19-6.31763E-18
 -1        50 1.00887E-04-3.02680E-05-3.01857E-05-4.58147E-07-1.67333E-19-7.76565E-18
 -1        51 9.40111E-05-2.82155E-05-2.82573E-05-5.00766E-07 2.99445E-19-7.72777E-18
 -1        52 8.80307E-05-2.64265E-05-2.66145E-05-3.69702E-07 1.03619E-19-5.78741E-18
 -1        53 8.50013E-05-2.55190E-05-2.57924E-05-8.13578E-08-1.23707E-19-4.90886E-18
 -1        54 8.60789E-05-2.58419E-05-2.60836E-05 2.44178E-07-8.11669E-19-7.39751E-18
 -1        55 9.08379E-05-2.72667E-05-2.73810E-05 4.60478E-07 2.06286E-19-8.04189E-18
 -1        56 9.75300E-05-2.92663E-05-2.92367E-05 4.97189E-07 2.13287E-19-8.05886E-18
 -1        57 1.04055E-04-3.12116E-05-3.10909E-05 3.89077E-07 3.67118E-19-7.01239E-18
 -1        58 1.08891E-04-3.26509E-05-3.25099E-05 2.23448E-07 2.56955E-19-7.43593E-18
 -1        59 1.11457E-04-3.34138E-05-3.33009E-05 7.35536E-08 3.28822E-19-5.31993E-18
 -1        60 1.11929E-04-3.35553E-05-3.34865E-05-2.76945E-08-5.37227E-19-1.90423E-18
 -1        61 1.10869E-04-3.32417E-05-3.32116E-05-7.96398E-08 6.12219E-19-8.69152E-19
 -1        62 1.08897E-04-3.26570E-05-3.26523E-05-9.59463E-08 4.22216E-19-4.78428E-19
 -1        63 1.06527E-04-3.19530E-05-3.19612E-05-9.18037E-08-1.39834E-18-2.50226E-18
 -1        64 1.04114E-04-3.12348E-05-3.12473E-05-7.86265E-08 2.24255E-20-6.99033E-18
 -1        65 1.01869E-04-3.05652E-05-3.05773E-05-6.33240E-08-2.54645E-19-5.68951E-18
 -1        66 9.98979E-05-2.99765E-05-2.99865E-05-4.92717E-08-1.35364E-19-3.30954E-18
 -1        67 9.82447E-05-2.94818E-05-2.94902E-05-3.74194E-08 8.45799E-19-5.63227E-19
 -1        68 9.69238E-05-2.90857E-05-2.90948E-05-2.68669E-08-3.61156E-19 3.39955E-19
 -1        69 9.59479E-05-2.87919E-05-2.88053E-05-1.46333E-08 3.02731E-19-6.03081E-19
 -1        70 9.53462E-05-2.86083E-05-2.86264E-05 7.58317E-09 4.77410E-19 2.08694E-19
 -1        71 9.51518E-05-2.85424E-05-2.85466E-05 3.66089E-08-4.42476E-19-1.96741E-19
 -1        72 1.02076E-04-3.05563E-05-3.41180E-05-1.92551E-06 1.87141E-19 1.78830E-17
 -1        73 9.24504E-05-2.74800E-05-2.88741E-05-3.32339E-07 9.89374E-20 1.46567E-17
 -1        74 8.89884E-05-2.66662E-05-2.69369E-05-1.25060E-07 6.94799E-20 1.21539E-17
 -1        75 8.79205E-05-2.64019E-05-2.63981E-05-9.44330E-08 7.64637E-20 1.04950E-17
 -1        76 8.79471E-05-2.64081E-05-2.63716E-05-7.50172E-08-6.09396E-20 9.53460E-18
 -1        77 8.84807E-05-2.65593E-05-2.65320E-05-6.04157E-08 7.74640E-20 8.58185E-18
 -1        78 8.92431E-05-2.67820E-05-2.67631E-05-4.89776E-08-3.48447E-20 7.96086E-18
 -1        79 9.00905E-05-2.70331E-05-2.70185E-05-3.93255E-08 1.37388E-19 6.70334E-18
 -1        80 9.09471E-05-2.72884E-05-2.72763E-05-3.08045E-08-1.63032E-20 5.40429E-18
 -1        81 9.17787E-05-2.75371E-05-2.75270E-05-2.31667E-08 1.58964E-19 4.89364E-18
 -1        82 9.25779E-05-2.77765E-05-2.77685E-05-1.63297E-08-5.29979E-20 3.92048E-18
 -1        83 9.33578E-05-2.80105E-05-2.80047E-05-1.02883E-08 2.38171E-19 3.88893E-18
 -1        84 9.41472E-05-2.82475E-05-2.82444E-05-5.09588E-09-1.06964E-19 3.44846E-18
 -1        85 9.49886E-05-2.85003E-05-2.85003E-05-8.84806E-10 2.35394E-19 3.45530E-18
 -1        86 9.59373E-05-2.87853E-05-2.87891E-05 2.08669E-09-1.37549E-20 2.98314E-18
 -1        87 9.70607E-05-2.91227E-05-2.91311E-05 3.35757E-09-1.86903E-19 3.68420E-18
 -1        88 9.84382E-05-2.95360E-05-2.95503E-05 2.15135E-09 2.24708E-19 2.49324E-18
 -1        89 1.00159E-04-3.00517E-05-3.00734E-05-2.77628E-09 1.33807E-19 1.65878E-18
 -1        90 1.02318E-04-3.06976E-05-3.07282E-05-1.33096E-08-1.71739E-19 2.23405E-18
 -1        91 1.05000E-04-3.14990E-05-3.15396E-05-3.20733E-08 2.17683E-20 2.81163E-18
 -1        92 1.08260E-04-3.24712E-05-3.25203E-05-6.22001E-08 5.38968E-20 3.31982E-18
 -1        93 1.12068E-04-3.36057E-05-3.36558E-05-1.06151E-07-1.51092E-19 2.65312E-18
 -1        94 1.16234E-04-3.48469E-05-3.48785E-05-1.62420E-07 3.53329E-19 6.75026E-19
 -1        95 1.20287E-04-3.60589E-05-3.60340E-05-2.18675E-07-8.61794E-20 1.58193E-18
 -1        96 1.23357E-04-3.69892E-05-3.68518E-05-2.41161E-07 4.15013E-20 4.88359E-18
 -1        97 1.24138E-04-3.72558E-05-3.69552E-05-1.67252E-07-4.80162E-20 7.02322E-18
 -1        98 1.21155E-04-3.64147E-05-3.59682E-05 7.34740E-08 9.93427E-20 5.48591E-18
 -1        99 1.13585E-04-3.41875E-05-3.37562E-05 4.79411E-07 1.21860E-20 4.90617E-18
 -1       100 1.02496E-04-3.08458E-05-3.07162E-05 8.80303E-07-4.38539E-19 6.07095E-18
 -1       101 9.15269E-05-2.74461E-05-2.78660E-05 9.65103E-07 5.16616E-19 4.32911E-18
 -1       102 8.56965E-05-2.55730E-05-2.64046E-05 5.30881E-07-1.98202E-19 3.68439E-18
 -1       103 8.80866E-05-2.62478E-05-2.70374E-05-1.96330E-07 5.77488E-20 4.03722E-18
 -1       104 9.74380E-05-2.91289E-05-2.94415E-05-7.63512E-07-4.56897E-20 3.36643E-18
 -1       105 1.09101E-04-3.27307E-05-3.25465E-05-8.77416E-07 8.51992E-19 8.03252E-19
 -1       106 1.18477E-04-3.56020E-05-3.51756E-05-6.46913E-07-8.91540E-19 6.33316E-19
 -1       107 1.23386E-04-3.70805E-05-3.66684E-05-3.21236E-07-1.46345E-19 6.30815E-19
 -1       108 1.24012E-04-3.72476E-05-3.69740E-05-6.42044E-08 9.52163E-19-3.41991E-18
 -1       109 1.21693E-04-3.65288E-05-3.63988E-05 8.16540E-08-8.45680E-19-2.33714E-18
 -1       110 1.17866E-04-3.53660E-05-3.53350E-05 1.39656E-07 1.83661E-19-1.22946E-18
 -1       111 1.13598E-04-3.40787E-05-3.40999E-05 1.46474E-07 1.21246E-19-3.62613E-18
 -1       112 1.09517E-04-3.28526E-05-3.28937E-05 1.30015E-07-3.44918E-19-1.47584E-18
 -1       113 1.05920E-04-3.17743E-05-3.18177E-05 1.06597E-07-5.47924E-21 1.46664E-18
 -1       114 1.02902E-04-3.08701E-05-3.09082E-05 8.41595E-08-5.19448E-19 3.10728E-18
 -1       115 1.00449E-04-3.01356E-05-3.01666E-05 6.57945E-08 1.08297E-18-1.69087E-18
 -1       116 9.85082E-05-2.95543E-05-2.95797E-05 5.20150E-08 3.36795E-20-3.94372E-18
 -1       117 9.70242E-05-2.91092E-05-2.91327E-05 4.17779E-08-1.86989E-19-2.92967E-18
 -1       118 9.59637E-05-2.87899E-05-2.88166E-05 3.23130E-08 3.34812E-20-5.33353E-18
 -1       119 9.53310E-05-2.85973E-05-2.86271E-05 1.38024E-08-2.76971E-20-8.19400E-18
 -1       120 9.51451E-05-2.85322E-05-2.85449E-05-2.93432E-08 1.62765E-18-8.79373E-18
 -1       121 9.52590E-05-2.86432E-05-2.85491E-05-4.41154E-08-8.29485E-18-1.38055E-19
 -1       122 9.51967E-05-2.84412E-05-2.86361E-05 2.46176E-09-4.19400E-18-4.38106E-20
 -1       123 9.50115E-05-2.78219E-05-2.88153E-05 3.08132E-08-9.03470E-19-1.14076E-20
 -1       124 9.47501E-05-2.69467E-05-2.90651E-05 4.25340E-08-6.18701E-19 1.20818E-19
 -1       125 9.44674E-05-2.59973E-05-2.93386E-05 4.22814E-08 2.30526E-18-9.97579E-19
 -1       126 9.42170E-05-2.51533E-05-2.95838E-05 3.48184E-08-4.65173E-18-1.04298E-18
 -1       127 9.40288E-05-2.45201E-05-2.97685E-05 2.18728E-08-5.91631E-18 8.33163E-19
 -1       128 9.39346E-05-2.42032E-05-2.98615E-05 6.27610E-09-3.25975E-18 4.29305E-19
 -1       129 9.39462E-05-2.42422E-05-2.98505E-05-9.67725E-09 1.81281E-18 2.20050E-18
 -1       130 9.40601E-05-2.46260E-05-2.97387E-05-2.39064E-08 5.30833E-18-1.68457E-18
 -1       131 9.42589E-05-2.52958E-05-2.95434E-05-3.49227E-08-3.03095E-18 1.28830E-18
 -1       132 9.45093E-05-2.61385E-05-2.92983E-05-4.00163E-08-5.74291E-18 1.46835E-18
 -1       133 9.47815E-05-2.70532E-05-2.90338E-05-3.86432E-08-9.34257E-19-1.18425E-18
 -1       134 9.50268E-05-2.78786E-05-2.87978E-05-3.03624E-08 1.74453E-18 3.52699E-19
 -1       135 9.51988E-05-2.84445E-05-2.86308E-05-3.10564E-09 2.52921E-18-7.20272E-19
 -1       136 9.52410E-05-2.86253E-05-2.85484E-05 6.80536E-08-1.18771E-18 5.16498E-19
 -1       137 2.62418E-05-8.84422E-05 1.56611E-05-2.36727E-05 1.71177E-17 3.68642E-18
 -1       138 8.34631E-06-3.77204E-05 4.27700E-06-2.02200E-05 1.19698E-17 4.14983E-18
 -1       139 1.19783E-05 1.10624E-05-1.39713E-05 2.10652E-05 5.53705E-18 4.98140E-18
 -1       140 5.53093E-05 2.61225E-05-3.40305E-05 7.44485E-05 4.92973E-18 6.44084E-18
 -1       141 1.44241E-04-2.65698E-06-5.45421E-05 1.11194E-04 1.63731E-18 2.25988E-18
 -1       142 2.41868E-04-5.39120E-05-7.01527E-05 9.94375E-05-1.98513E-18-4.12802E-18
 -1       143 3.04711E-04-9.17271E-05-7.84492E-05 3.86157E-05-9.01547E-19-1.18080E-17
 -1       144 2.99928E-04-8.83238E-05-7.79846E-05-4.65064E-05 2.16773E-18-1.64653E-17
 -1       145 2.23718E-04-4.35414E-05-6.76025E-05-1.03892E-04 7.80573E-18-1.89015E-17
 -1       146 1.20425E-04 6.83598E-06-4.97385E-05-1.04829E-04 1.04501E-17-1.74319E-17
 -1       147 3.97221E-05 2.76317E-05-2.93316E-05-6.20182E-05 1.11270E-17-1.12397E-17
 -1       148 5.70756E-06 2.00557E-06-8.73762E-06-6.09052E-06 9.83956E-18-6.32331E-18
 -1       149 1.26870E-05-5.33117E-05 8.10084E-06 2.50321E-05 3.85231E-18-1.73737E-18
 -1       150 3.08986E-05-9.93397E-05 1.78971E-05 1.89105E-05-4.31987E-18-3.07033E-19
 -1       151 3.49303E-05-1.07787E-04 1.94851E-05-7.50525E-06-1.14921E-17-9.07463E-19
 -1       152 2.05442E-05-7.33152E-05 1.25024E-05-2.44303E-05-1.47612E-17-4.42728E-18
 -1       153 5.16085E-06-1.89702E-05-9.76841E-07-1.04707E-05-1.20143E-17-5.44812E-18
 -1       154 1.97250E-05 2.34616E-05-2.07057E-05 3.92587E-05-8.08916E-18-7.12821E-18
 -1       155 7.79023E-05 2.35103E-05-4.07145E-05 9.12812E-05-6.75043E-18-9.86920E-18
 -1       156 1.70534E-04-1.53736E-05-5.91238E-05 1.13600E-04-4.13564E-18-7.04181E-18
 -1       157 2.58692E-04-6.53109E-05-7.21356E-05 8.50770E-05-7.21725E-19 2.93073E-19
 -1       158 3.06476E-04-9.46169E-05-7.84366E-05 5.40574E-06 5.49724E-19 9.55424E-18
 -1       159 2.74459E-04-7.46594E-05-7.43407E-05-7.34521E-05-3.05879E-18 1.23245E-17
 -1       160 1.85930E-04-2.34625E-05-6.16417E-05-1.11275E-04-7.12884E-18 1.53144E-17
 -1       161 1.73560E-05 2.17352E-05-1.93306E-05-3.58441E-05-1.49146E-17 1.13202E-17
 -1       162 6.05509E-06-2.60553E-05 1.16037E-06 1.46752E-05-1.14553E-17 7.01513E-18
 -1       163 2.45906E-05-8.37614E-05 1.46853E-05 2.43833E-05 3.20475E-18 9.36977E-19
 -1       164 9.48083E-05-1.23341E-05-3.55489E-05-2.23547E-05-2.32440E-18-3.63589E-19
 -1       165 8.92206E-05-8.45174E-06-3.47769E-05-1.74000E-05-1.96621E-18-2.67971E-18
 -1       166 8.65479E-05-6.50669E-06-3.44151E-05-1.35912E-05-1.46917E-18-3.83918E-18
 -1       167 8.52075E-05-5.51560E-06-3.42376E-05-1.03787E-05-9.32198E-19-4.37705E-18
 -1       168 8.44828E-05-4.94871E-06-3.41548E-05-7.55213E-06-4.73539E-19-4.47475E-18
 -1       169 8.40668E-05-4.60296E-06-3.41175E-05-4.90619E-06-9.44930E-20-4.43999E-18
 -1       170 8.38549E-05-4.41806E-06-3.41024E-05-2.39619E-06 3.61928E-19-4.24167E-18
 -1       171 8.37924E-05-4.36194E-06-3.40986E-05 5.13818E-08 7.88410E-19-4.12388E-18
 -1       172 8.38644E-05-4.42621E-06-3.41031E-05 2.50090E-06 1.13726E-18-3.93344E-18
 -1       173 8.40882E-05-4.62177E-06-3.41189E-05 5.01730E-06 1.43051E-18-3.73094E-18
 -1       174 8.45102E-05-4.97507E-06-3.41561E-05 7.62840E-06 1.74422E-18-3.21540E-18
 -1       175 8.52701E-05-5.57687E-06-3.42391E-05 1.05196E-05 2.13765E-18-2.40831E-18
 -1       176 8.66446E-05-6.60874E-06-3.44172E-05 1.37920E-05 2.41981E-18-1.14131E-18
 -1       177 8.93627E-05-8.59553E-06-3.47814E-05 1.76314E-05 2.59758E-18 8.88948E-19
 -1       178 9.57191E-05-1.36006E-05-3.54051E-05 2.18996E-05 2.26568E-18 4.41315E-18
 -1       179 1.05518E-04-2.60761E-05-3.52363E-05 1.86670E-05 1.53846E-18 8.67018E-18
 -1       180 1.03316E-04-2.72771E-05-3.25857E-05-1.21329E-05-2.02745E-18 2.56069E-18
 -1       181 9.70247E-05-2.82641E-05-2.95041E-05-4.73658E-06-1.70285E-18 1.64830E-18
 -1       182 9.34248E-05-2.76122E-05-2.81574E-05-1.77313E-06-1.34702E-18 8.30291E-19
 -1       183 9.18908E-05-2.73799E-05-2.76120E-05-4.24060E-07-1.03877E-18 3.68195E-20
 -1       184 9.13219E-05-2.73061E-05-2.74170E-05 2.48388E-07-6.45349E-19-4.49958E-19
 -1       185 9.12962E-05-2.73486E-05-2.73972E-05 5.86374E-07-7.20282E-19-8.61638E-19
 -1       186 9.15697E-05-2.74583E-05-2.74719E-05 7.43692E-07-3.90641E-19-1.05940E-18
 -1       187 9.20032E-05-2.76027E-05-2.75979E-05 8.02312E-07-3.26279E-19-1.39939E-18
 -1       188 9.25186E-05-2.77631E-05-2.77511E-05 8.11302E-07-6.59020E-19-1.31302E-18
 -1       189 9.30750E-05-2.79296E-05-2.79186E-05 8.02829E-07-4.69831E-19-1.32437E-18
 -1       190 9.36569E-05-2.80992E-05-2.80954E-05 7.99458E-07-1.47887E-19-2.17791E-18
 -1       191 9.42666E-05-2.82737E-05-2.82817E-05 8.17783E-07-1.13977E-19-2.75765E-18
 -1       192 9.49188E-05-2.84583E-05-2.84818E-05 8.70329E-07-1.01416E-20-2.16975E-18
 -1       193 9.56380E-05-2.86610E-05-2.87028E-05 9.66389E-07 4.57774E-20-2.23473E-18
 -1       194 9.64545E-05-2.88918E-05-2.89535E-05 1.11195E-06-1.76098E-20-2.18771E-18
 -1       195 9.74016E-05-2.91618E-05-2.92433E-05 1.30861E-06-2.82260E-19-2.23708E-18
 -1       196 9.85112E-05-2.94829E-05-2.95812E-05 1.55131E-06-1.01151E-19-2.12857E-18
 -1       197 9.98073E-05-2.98655E-05-2.99730E-05 1.82443E-06-6.45809E-19-2.27972E-18
 -1       198 1.01297E-04-3.03174E-05-3.04187E-05 2.09601E-06-1.06324E-18-3.21057E-18
 -1       199 1.02958E-04-3.08396E-05-3.09085E-05 2.31038E-06-5.13060E-19-3.32850E-18
 -1       200 1.04722E-04-3.14216E-05-3.14176E-05 2.38045E-06 2.61410E-19-3.53350E-18
 -1       201 1.06454E-04-3.20336E-05-3.19010E-05 2.18425E-06-2.23687E-19-4.10573E-18
 -1       202 1.07938E-04-3.26157E-05-3.22907E-05 1.57508E-06-1.35154E-19-2.58120E-18
 -1       203 1.08871E-04-3.30656E-05-3.24997E-05 4.20848E-07 3.68296E-19-1.45903E-18
 -1       204 1.08892E-04-3.32315E-05-3.24376E-05-1.31108E-06 4.47326E-19-1.31980E-18
 -1       205 1.07679E-04-3.29294E-05-3.20430E-05-3.42605E-06 5.30587E-20-1.82306E-18
 -1       206 1.05108E-04-3.20121E-05-3.13276E-05-5.38821E-06-6.61658E-19-3.04254E-18
 -1       207 1.01483E-04-3.05096E-05-3.04118E-05-6.36173E-06-1.80305E-21-3.37704E-18
 -1       208 9.76714E-05-2.87736E-05-2.95183E-05-5.56003E-06 4.95329E-19-2.62480E-18
 -1       209 9.49248E-05-2.74487E-05-2.89082E-05-2.82517E-06-3.52783E-19-3.57926E-18
 -1       210 9.43209E-05-2.71519E-05-2.87764E-05 1.00383E-06-2.18278E-18-4.30882E-18
 -1       211 9.61100E-05-2.80313E-05-2.91663E-05 4.42926E-06-2.33381E-19-5.58985E-18
 -1       212 9.95518E-05-2.96530E-05-2.99486E-05 6.20496E-06 1.21139E-19-5.59811E-18
 -1       213 1.03389E-04-3.13299E-05-3.08801E-05 6.01239E-06 5.83404E-19-5.06050E-18
 -1       214 1.06519E-04-3.25449E-05-3.17075E-05 4.40859E-06 5.10873E-19-5.25742E-18
 -1       215 1.08367E-04-3.31253E-05-3.22566E-05 2.27049E-06 1.72214E-18-3.59669E-18
 -1       216 1.08877E-04-3.31529E-05-3.24654E-05 3.00983E-07 1.23877E-18-3.58531E-18
 -1       217 1.08301E-04-3.28070E-05-3.23656E-05-1.14828E-06 7.05521E-19-9.80003E-19
 -1       218 1.06997E-04-3.22598E-05-3.20385E-05-2.01674E-06-4.70558E-19-1.54532E-18
 -1       219 1.05305E-04-3.16377E-05-3.15764E-05-2.40097E-06-2.05299E-18-3.10138E-18
 -1       220 1.03486E-04-3.10199E-05-3.10585E-05-2.44575E-06-2.52038E-18-2.95515E-18
 -1       221 1.01718E-04-3.04504E-05-3.05423E-05-2.28399E-06 1.49030E-18-3.33912E-18
 -1       222 1.00105E-04-2.99496E-05-3.00645E-05-2.01414E-06 1.84733E-18-1.31199E-18
 -1       223 9.87045E-05-2.95237E-05-2.96457E-05-1.69772E-06 2.06326E-18-9.30785E-22
 -1       224 9.75382E-05-2.91719E-05-2.92963E-05-1.36480E-06 9.69012E-19 1.68163E-19
 -1       225 9.66131E-05-2.88898E-05-2.90210E-05-1.02124E-06-2.64453E-19 3.20089E-19
 -1       226 9.59292E-05-2.86743E-05-2.88206E-05-6.59068E-07 4.85180E-19 1.20840E-19
 -1       227 9.54662E-05-2.85255E-05-2.86866E-05-2.79540E-07 1.18345E-20-1.07450E-19
 -1       228 9.94136E-05-2.85283E-05-3.05610E-05 7.21760E-06 1.57797E-18 7.61405E-18
 -1       229 9.43270E-05-2.77638E-05-2.84977E-05 2.74983E-06 1.30106E-18 6.24536E-18
 -1       230 9.20059E-05-2.73734E-05-2.76545E-05 9.34165E-07 9.50781E-19 5.12462E-18
 -1       231 9.10597E-05-2.72111E-05-2.73366E-05 6.83552E-08 6.50438E-19 4.34706E-18
 -1       232 9.08569E-05-2.72059E-05-2.72653E-05-3.66357E-07 6.10262E-19 3.78336E-18
 -1       233 9.10597E-05-2.72965E-05-2.73201E-05-5.78469E-07 2.54476E-19 3.41217E-18
 -1       234 9.14785E-05-2.74385E-05-2.74418E-05-6.69244E-07 6.27592E-19 2.91354E-18
 -1       235 9.20061E-05-2.76049E-05-2.75982E-05-6.95071E-07 5.28349E-19 2.64993E-18
 -1       236 9.25847E-05-2.77810E-05-2.77715E-05-6.91225E-07 5.63650E-19 2.16098E-18
 -1       237 9.31884E-05-2.79605E-05-2.79536E-05-6.81827E-07 2.04542E-19 1.95863E-18
 -1       238 9.38133E-05-2.81431E-05-2.81433E-05-6.84681E-07 3.91417E-19 1.76187E-18
 -1       239 9.44726E-05-2.83333E-05-2.83443E-05-7.13952E-07 2.35978E-19 1.56991E-18
 -1       240 9.51925E-05-2.85393E-05-2.85645E-05-7.81785E-07 2.97963E-19 1.13723E-18
 -1       241 9.60108E-05-2.87722E-05-2.88152E-05-8.99265E-07 8.67216E-20 5.63061E-19
 -1       242 9.69748E-05-2.90465E-05-2.91105E-05-1.07677E-06-5.72165E-20 7.52756E-19
 -1       243 9.81400E-05-2.93790E-05-2.94672E-05-1.32358E-06 5.43679E-19 3.91397E-19
 -1       244 9.95675E-05-2.97887E-05-2.99035E-05-1.64616E-06 1.32160E-19 4.98317E-19
 -1       245 1.01319E-04-3.02959E-05-3.04371E-05-2.04449E-06-1.84388E-19 3.27655E-19
 -1       246 1.03446E-04-3.09205E-05-3.10822E-05-2.50473E-06-3.33527E-19 7.31492E-19
 -1       247 1.05976E-04-3.16779E-05-3.18434E-05-2.98659E-06-3.09518E-19 9.83627E-19
 -1       248 1.08877E-04-3.25732E-05-3.27053E-05-3.40352E-06 4.41229E-19 8.38007E-19
 -1       249 1.12018E-04-3.35889E-05-3.36185E-05-3.59663E-06 7.29837E-19 1.60726E-19
 -1       250 1.15111E-04-3.46654E-05-3.44822E-05-3.31240E-06-7.83140E-19 3.89159E-19
 -1       251 1.17648E-04-3.56700E-05-3.51338E-05-2.21558E-06-1.61082E-18 1.24609E-18
 -1       252 1.18899E-04-3.63552E-05-3.53639E-05-1.13326E-09-7.16994E-19 2.78982E-18
 -1       253 1.18024E-04-3.63343E-05-3.49845E-05 3.31025E-06 1.86430E-19 3.25474E-18
 -1       254 1.14459E-04-3.51730E-05-3.39515E-05 6.91017E-06-3.67235E-19 4.21713E-18
 -1       255 1.08617E-04-3.27900E-05-3.24936E-05 9.02462E-06-6.17410E-19 4.09776E-18
 -1       256 1.02358E-04-2.98517E-05-3.11234E-05 7.68774E-06 8.03298E-19 3.80813E-18
 -1       257 9.86545E-05-2.79424E-05-3.03904E-05 2.51101E-06-2.87329E-19 3.20033E-18
 -1       258 9.96047E-05-2.83216E-05-3.06216E-05-4.02900E-06 4.91292E-19 2.03156E-18
 -1       259 1.04709E-04-3.07838E-05-3.16953E-05-8.39780E-06 1.16796E-18 1.70394E-18
 -1       260 1.11187E-04-3.37281E-05-3.31683E-05-8.74524E-06 1.29991E-18 6.56841E-19
 -1       261 1.16289E-04-3.57658E-05-3.44760E-05-6.05054E-06-9.33037E-19 3.95379E-19
 -1       262 1.18736E-04-3.64957E-05-3.52280E-05-2.39607E-06 2.83736E-19 7.81784E-19
 -1       263 1.18625E-04-3.62014E-05-3.53249E-05 6.77282E-07 1.56536E-18 9.15747E-19
 -1       264 1.16709E-04-3.53348E-05-3.48844E-05 2.60679E-06-1.52629E-18 1.57429E-19
 -1       265 1.13820E-04-3.42492E-05-3.41123E-05 3.48477E-06 3.08370E-19 1.53862E-19
 -1       266 1.10603E-04-3.31536E-05-3.32002E-05 3.63735E-06-1.15532E-19 1.86992E-18
 -1       267 1.07472E-04-3.21513E-05-3.22840E-05 3.38113E-06-1.05189E-18 3.27428E-18
 -1       268 1.04647E-04-3.12829E-05-3.14425E-05 2.94239E-06-7.67174E-19 2.81392E-18
 -1       269 1.02220E-04-3.05558E-05-3.07117E-05 2.45628E-06-5.93676E-20 2.61476E-18
 -1       270 1.00203E-04-2.99612E-05-3.01013E-05 1.99049E-06 3.41954E-18 2.16693E-19
 -1       271 9.85762E-05-2.94843E-05-2.96079E-05 1.56889E-06 1.00021E-19-9.02539E-19
 -1       272 9.73048E-05-2.91104E-05-2.92236E-05 1.18827E-06 3.75286E-19-1.99321E-18
 -1       273 9.63595E-05-2.88272E-05-2.89411E-05 8.30264E-07 6.54206E-19-1.81411E-18
 -1       274 9.57178E-05-2.86263E-05-2.87522E-05 4.69660E-07 7.77909E-19-1.90893E-18
 -1       275 9.53535E-05-2.85307E-05-2.86340E-05 1.18269E-07-2.96541E-19-2.09677E-18
 -1       276 9.52810E-05-2.83160E-05-2.86969E-05 3.16967E-07-1.53962E-18 4.15416E-19
 -1       277 9.51185E-05-2.78573E-05-2.88255E-05 6.71672E-07-2.62129E-18 1.23591E-18
 -1       278 9.48803E-05-2.72326E-05-2.89916E-05 9.06523E-07 2.81779E-20 8.36443E-19
 -1       279 9.46211E-05-2.65346E-05-2.91803E-05 9.69590E-07-3.11363E-20 1.14395E-18
 -1       280 9.43816E-05-2.58759E-05-2.93610E-05 8.72406E-07-1.61175E-18-4.28877E-18
 -1       281 9.41863E-05-2.53303E-05-2.95121E-05 6.41331E-07-1.57543E-18-1.78563E-18
 -1       282 9.40653E-05-2.49867E-05-2.96080E-05 3.19946E-07-2.47790E-19 1.79489E-18
 -1       283 9.40324E-05-2.48898E-05-2.96357E-05-4.13794E-08 6.79518E-19 3.01858E-18
 -1       284 9.40902E-05-2.50492E-05-2.95919E-05-3.91339E-07 4.87698E-19 1.97887E-18
 -1       285 9.42297E-05-2.54398E-05-2.94835E-05-6.82471E-07 7.76043E-19-4.77198E-18
 -1       286 9.44279E-05-2.59953E-05-2.93294E-05-8.72359E-07-4.25598E-19-1.10705E-18
 -1       287 9.46661E-05-2.66578E-05-2.91466E-05-9.37222E-07 6.67035E-19 2.42375E-18
 -1       288 9.49100E-05-2.73269E-05-2.89638E-05-8.54437E-07 4.10256E-19 9.22234E-19
 -1       289 9.51285E-05-2.79066E-05-2.88073E-05-6.22110E-07-1.10141E-18 6.30005E-19
 -1       290 9.53196E-05-2.82439E-05-2.87444E-05-5.03588E-07-8.14868E-19-1.99150E-18
 -1       291 1.17224E-05-4.44271E-05 1.10854E-05 7.09734E-06 3.87581E-18 3.42042E-18
 -1       292 2.51850E-05-4.34627E-05 4.96872E-06 1.96584E-05 5.83479E-18 6.77626E-21
 -1       293 5.96331E-05-4.15915E-05-8.98972E-06 3.78365E-05 3.36081E-18-5.58777E-19
 -1       294 8.84006E-05-3.19173E-05-2.47527E-05 4.30724E-05 1.51195E-18 4.98479E-19
 -1       295 1.35611E-04-3.51265E-05-4.22033E-05 4.18221E-05 2.02854E-18-2.26878E-18
 -1       296 1.74175E-04-3.39446E-05-5.78329E-05 3.52064E-05 1.73930E-18-4.37683E-18
 -1       297 2.04536E-04-3.65404E-05-6.85064E-05 2.20771E-05 1.76246E-18-7.13149E-18
 -1       298 2.06546E-04-3.29426E-05-7.11598E-05-7.49897E-07 2.34850E-18-8.49246E-18
 -1       299 1.92159E-04-3.22748E-05-6.60615E-05-1.75142E-05 3.80127E-18-9.14287E-18
 -1       300 1.64810E-04-3.61777E-05-5.37208E-05-2.88714E-05 4.00456E-18-8.36318E-18
 -1       301 1.21703E-04-3.09119E-05-3.82740E-05-4.67810E-05 4.07444E-18-9.07659E-18
 -1       302 7.75213E-05-3.23048E-05-2.03324E-05-4.10784E-05 3.85252E-18-6.30743E-18
 -1       303 4.21893E-05-3.85874E-05-3.87038E-06-2.87396E-05 1.26102E-18-5.38972E-18
 -1       304 2.03455E-05-4.43186E-05 7.34718E-06-1.65029E-05-1.98079E-18-3.72282E-18
 -1       305 1.07619E-05-4.66584E-05 1.22097E-05-2.28260E-06-3.94299E-18-4.08365E-18
 -1       306 1.44921E-05-4.33365E-05 9.58945E-06 1.34637E-05-4.60606E-18-2.29895E-18
 -1       307 3.13742E-05-4.06714E-05 1.41302E-06 2.47614E-05-5.31111E-18-9.98387E-19
 -1       308 6.21530E-05-3.44988E-05-1.31900E-05 3.83838E-05-3.58528E-18-1.67353E-18
 -1       309 9.99977E-05-2.86794E-05-3.04975E-05 4.65430E-05-2.86615E-18-3.32672E-18
 -1       310 1.43181E-04-2.90761E-05-4.73305E-05 4.70438E-05-3.17351E-18-8.57833E-19
 -1       311 1.81364E-04-3.26886E-05-6.09623E-05 3.67940E-05-3.89246E-18 2.07989E-18
 -1       312 1.95919E-04-3.01966E-05-6.83540E-05 1.08435E-05-3.68957E-18 3.23905E-18
 -1       313 2.08941E-04-3.62722E-05-7.04582E-05-1.13289E-05-3.01883E-18 7.18575E-18
 -1       314 1.83033E-04-3.18946E-05-6.23903E-05-2.72591E-05-2.91946E-18 5.92034E-18
 -1       315 1.49842E-04-3.53396E-05-4.79647E-05-3.50391E-05-2.49991E-18 4.52866E-18
 -1       316 9.95997E-05-2.87004E-05-3.03316E-05-4.68375E-05-5.67914E-18 4.77557E-18
 -1       317 6.21833E-05-3.72606E-05-1.18996E-05-3.89148E-05-3.36484E-18 4.02139E-18
 -1       318 2.74349E-05-4.22665E-05 3.49924E-06-2.21162E-05-7.12566E-19 8.15264E-18
 -1       319 1.30286E-05-4.88541E-05 1.18057E-05-7.78281E-06 9.38089E-19 4.78531E-18
 -1       320 9.16341E-05-1.43896E-05-3.31678E-05-1.30707E-05-2.04298E-18-2.41974E-18
 -1       321 9.56629E-05-1.90974E-05-3.28767E-05-1.46370E-05-2.31608E-18-1.05272E-18
 -1       322 8.80344E-05-1.03776E-05-3.33347E-05-8.15458E-06-9.04559E-19-3.47251E-18
 -1       323 8.72312E-05-9.45412E-06-3.33811E-05-5.71618E-06-4.24796E-19-3.40854E-18
 -1       324 8.67802E-05-8.92353E-06-3.34121E-05-3.36531E-06 1.93643E-19-3.30003E-18
 -1       325 8.65786E-05-8.68256E-06-3.34276E-05-1.07155E-06 7.11338E-19-3.15781E-18
 -1       326 8.65868E-05-8.69183E-06-3.34271E-05 1.20300E-06 1.22085E-18-3.09489E-18
 -1       327 8.68067E-05-8.95377E-06-3.34107E-05 3.49853E-06 1.58801E-18-3.01378E-18
 -1       328 8.72707E-05-9.49901E-06-3.33794E-05 5.81355E-06 1.94228E-18-2.71638E-18
 -1       329 8.80967E-05-1.04510E-05-3.33321E-05 8.25416E-06 2.32211E-18-2.01759E-18
 -1       330 8.94924E-05-1.20326E-05-3.32636E-05 1.07656E-05 2.69816E-18-1.12098E-18
 -1       331 9.18869E-05-1.47173E-05-3.31538E-05 1.31734E-05 2.87424E-18 1.94950E-19
 -1       332 9.57588E-05-1.94445E-05-3.28139E-05 1.43822E-05 2.67947E-18 2.53909E-18
 -1       333 9.87250E-05-2.44249E-05-3.19310E-05 1.19052E-05 2.29133E-18 4.54300E-18
 -1       334 9.63246E-05-2.67920E-05-2.97702E-05 5.74786E-06 1.94189E-18 3.62247E-18
 -1       335 9.63824E-05-2.60081E-05-3.01167E-05-6.35069E-06-1.86582E-18-5.99951E-19
 -1       336 9.48819E-05-2.70231E-05-2.90583E-05-2.83473E-06-1.58445E-18-5.85985E-19
 -1       337 9.39042E-05-2.74053E-05-2.84851E-05-9.08225E-07-9.79516E-19-6.65011E-19
 -1       338 9.33987E-05-2.76172E-05-2.81851E-05 1.69933E-07-8.34266E-19-9.57561E-19
 -1       339 9.32305E-05-2.77704E-05-2.80513E-05 7.64218E-07-6.70991E-19-9.38830E-19
 -1       340 9.32845E-05-2.79008E-05-2.80203E-05 1.07601E-06-5.09488E-19-8.24118E-19
 -1       341 9.34798E-05-2.80187E-05-2.80542E-05 1.22726E-06-3.30260E-19-1.05980E-18
 -1       342 9.37639E-05-2.81270E-05-2.81299E-05 1.29639E-06-5.59543E-19-1.05580E-18
 -1       343 9.41066E-05-2.82272E-05-2.82339E-05 1.33702E-06-6.15208E-19-8.91912E-19
 -1       344 9.44946E-05-2.83223E-05-2.83592E-05 1.38742E-06-3.68649E-19-1.10076E-18
 -1       345 9.49269E-05-2.84165E-05-2.85038E-05 1.47574E-06-1.73673E-19-1.19373E-18
 -1       346 9.54119E-05-2.85162E-05-2.86686E-05 1.62268E-06-1.03415E-20-7.68384E-19
 -1       347 9.59645E-05-2.86294E-05-2.88564E-05 1.84245E-06 2.94828E-21-1.06248E-18
 -1       348 9.66043E-05-2.87669E-05-2.90713E-05 2.14217E-06-1.10478E-19-1.35194E-18
 -1       349 9.73534E-05-2.89423E-05-2.93168E-05 2.51951E-06-5.75494E-19-1.35515E-18
 -1       350 9.82338E-05-2.91735E-05-2.95950E-05 2.95832E-06-6.28031E-19-1.68754E-18
 -1       351 9.92650E-05-2.94831E-05-2.99045E-05 3.42179E-06-9.44816E-19-1.29382E-18
 -1       352 1.00460E-04-2.98996E-05-3.02389E-05 3.84326E-06-1.00822E-18-1.52993E-18
 -1       353 1.01818E-04-3.04559E-05-3.05846E-05 4.11563E-06-3.93521E-19-1.57017E-18
 -1       354 1.03322E-04-3.11829E-05-3.09203E-05 4.08284E-06 1.60638E-21-1.61620E-18
 -1       355 1.04916E-04-3.20923E-05-3.12174E-05 3.54181E-06 9.83871E-19-8.33788E-19
 -1       356 1.06487E-04-3.31405E-05-3.14458E-05 2.27080E-06 6.30240E-19-9.28315E-19
 -1       357 1.07828E-04-3.41700E-05-3.15830E-05 1.08985E-07 8.08573E-19-5.44376E-19
 -1       358 1.08612E-04-3.48507E-05-3.16278E-05-2.89072E-06 9.70134E-20-1.21033E-18
 -1       359 1.08420E-04-3.46886E-05-3.16100E-05-6.25259E-06-5.09125E-19-6.73873E-19
 -1       360 1.06918E-04-3.32252E-05-3.15845E-05-8.92546E-06-5.78796E-19-1.19213E-20
 -1       361 1.04253E-04-3.05040E-05-3.16001E-05-9.47330E-06-1.72225E-19-6.03323E-19
 -1       362 1.01365E-04-2.74768E-05-3.16542E-05-6.86812E-06-4.88880E-19-2.18399E-18
 -1       363 9.97239E-05-2.57372E-05-3.16937E-05-1.51314E-06-1.65917E-18-3.17327E-18
 -1       364 1.00321E-04-2.63803E-05-3.16741E-05 4.48546E-06-2.02166E-18-2.95230E-18
 -1       365 1.02771E-04-2.89762E-05-3.16155E-05 8.58757E-06 8.10306E-21-2.71500E-18
 -1       366 1.05703E-04-3.20261E-05-3.15726E-05 9.49983E-06 4.69040E-19-3.05331E-18
 -1       367 1.07815E-04-3.41510E-05-3.15768E-05 7.66500E-06 1.49403E-18-1.96485E-18
 -1       368 1.08601E-04-3.48991E-05-3.16002E-05 4.46012E-06 1.63318E-18-9.89121E-19
 -1       369 1.08215E-04-3.45538E-05-3.15851E-05 1.17874E-06 1.36110E-18-6.27963E-19
 -1       370 1.07071E-04-3.36329E-05-3.14873E-05-1.42927E-06 1.57684E-18 8.39189E-20
 -1       371 1.05553E-04-3.25564E-05-3.12938E-05-3.13232E-06-2.48759E-19-1.13452E-18
 -1       372 1.03924E-04-3.15590E-05-3.10189E-05-4.01033E-06-7.07416E-19-5.58417E-19
 -1       373 1.02339E-04-3.07303E-05-3.06914E-05-4.26646E-06-1.80385E-18 2.39391E-18
 -1       374 1.00880E-04-3.00788E-05-3.03430E-05-4.11390E-06-1.00952E-18 3.63200E-18
 -1       375 9.95850E-05-2.95790E-05-3.00006E-05-3.72566E-06 1.77869E-18 2.32950E-18
 -1       376 9.84661E-05-2.91960E-05-2.96844E-05-3.22154E-06 3.60790E-18 2.05250E-18
 -1       377 9.75216E-05-2.88973E-05-2.94072E-05-2.67243E-06 1.28696E-18 2.16811E-18
 -1       378 9.67412E-05-2.86554E-05-2.91763E-05-2.11116E-06-6.48108E-19 2.56842E-18
 -1       379 9.61125E-05-2.84514E-05-2.89937E-05-1.54495E-06-1.50321E-18 1.56582E-18
 -1       380 9.56727E-05-2.83255E-05-2.88601E-05-1.01367E-06-1.61045E-18-2.19116E-19
 -1       381 9.43068E-05-2.73202E-05-2.86703E-05 2.47202E-06 1.49446E-18 2.88208E-18
 -1       382 9.31059E-05-2.74396E-05-2.81208E-05 7.39714E-07 1.11193E-18 2.17607E-18
 -1       383 9.25635E-05-2.75179E-05-2.78666E-05-1.94210E-07 7.52311E-19 1.68097E-18
 -1       384 9.24425E-05-2.76125E-05-2.77799E-05-6.90505E-07 4.96168E-19 1.53555E-18
 -1       385 9.25800E-05-2.77265E-05-2.77924E-05-9.40056E-07 6.96557E-19 1.24289E-18
 -1       386 9.28707E-05-2.78516E-05-2.78645E-05-1.05169E-06 7.60244E-19 1.38941E-18
 -1       387 9.32511E-05-2.79805E-05-2.79727E-05-1.09362E-06 7.32978E-19 1.33050E-18
 -1       388 9.36869E-05-2.81096E-05-2.81043E-05-1.11206E-06 4.27208E-19 1.41222E-18
 -1       389 9.41648E-05-2.82388E-05-2.82536E-05-1.14055E-06 4.29928E-19 7.71587E-19
 -1       390 9.46872E-05-2.83712E-05-2.84204E-05-1.20515E-06 4.43602E-19 7.24906E-19
 -1       391 9.52685E-05-2.85122E-05-2.86085E-05-1.32745E-06 9.84991E-19 4.00355E-19
 -1       392 9.59328E-05-2.86697E-05-2.88251E-05-1.52629E-06 3.58590E-19-2.63002E-19
 -1       393 9.67120E-05-2.88540E-05-2.90793E-05-1.81852E-06-1.26909E-19-2.15982E-19
 -1       394 9.76445E-05-2.90778E-05-2.93822E-05-2.21831E-06 4.58916E-19-2.82753E-19
 -1       395 9.87727E-05-2.93569E-05-2.97454E-05-2.73466E-06 1.31877E-19-1.95366E-19
 -1       396 1.00140E-04-2.97111E-05-3.01792E-05-3.36591E-06 1.60275E-19-8.91830E-20
 -1       397 1.01787E-04-3.01662E-05-3.06901E-05-4.08936E-06-5.69865E-19-1.88982E-19
 -1       398 1.03743E-04-3.07563E-05-3.12766E-05-4.84393E-06-2.25250E-19 1.23941E-19
 -1       399 1.06015E-04-3.15262E-05-3.19233E-05-5.50386E-06 4.55383E-19-3.99855E-19
 -1       400 1.08572E-04-3.25294E-05-3.25940E-05-5.84496E-06 7.24714E-19-3.66110E-19
 -1       401 1.11314E-04-3.38117E-05-3.32267E-05-5.51578E-06-5.59984E-19 2.61194E-19
 -1       402 1.14033E-04-3.53569E-05-3.37364E-05-4.05145E-06-1.97512E-18 1.23579E-19
 -1       403 1.16336E-04-3.69672E-05-3.40382E-05-1.00634E-06-1.41750E-18 2.22713E-19
 -1       404 1.17570E-04-3.80737E-05-3.40921E-05 3.68500E-06-4.34647E-19 1.19671E-18
 -1       405 1.16856E-04-3.76742E-05-3.39551E-05 9.06756E-06-4.92219E-19 3.08047E-18
 -1       406 1.13708E-04-3.49548E-05-3.37601E-05 1.26737E-05-7.24786E-19 3.81378E-18
 -1       407 1.08909E-04-3.03372E-05-3.36963E-05 1.15260E-05 9.91419E-19 4.40840E-18
 -1       408 1.05156E-04-2.65286E-05-3.37203E-05 4.48468E-06 1.28982E-18 3.91011E-18
 -1       409 1.05463E-04-2.67655E-05-3.37643E-05-5.11175E-06 1.20080E-18 9.15385E-19
 -1       410 1.09468E-04-3.07048E-05-3.37646E-05-1.18896E-05 1.31523E-18-7.36886E-19
 -1       411 1.14263E-04-3.52822E-05-3.38545E-05-1.25620E-05 5.43457E-19 4.86723E-19
 -1       412 1.17169E-04-3.78412E-05-3.40140E-05-8.61433E-06 1.32733E-19 1.67292E-18
 -1       413 1.17563E-04-3.80445E-05-3.41055E-05-3.19339E-06-3.28702E-19 1.70712E-18
 -1       414 1.16095E-04-3.68363E-05-3.39968E-05 1.39554E-06 7.28134E-19 2.76998E-18
 -1       415 1.13639E-04-3.51861E-05-3.36451E-05 4.31101E-06-4.97091E-19 2.84731E-18
 -1       416 1.10836E-04-3.36334E-05-3.31001E-05 5.67086E-06 4.69607E-20 4.67406E-19
 -1       417 1.08055E-04-3.23567E-05-3.24471E-05 5.93514E-06-1.25370E-18 1.30176E-18
 -1       418 1.05486E-04-3.13608E-05-3.17673E-05 5.56124E-06-1.87834E-18 2.49053E-18
 -1       419 1.03215E-04-3.05953E-05-3.11190E-05 4.88583E-06-6.52622E-19 3.48113E-18
 -1       420 1.01269E-04-3.00048E-05-3.05364E-05 4.11755E-06 3.44752E-19 1.89654E-18
 -1       421 9.96408E-05-2.95448E-05-3.00356E-05 3.36666E-06 3.98438E-18 1.61375E-18
 -1       422 9.83089E-05-2.91814E-05-2.96207E-05 2.67761E-06 1.35492E-18 1.08454E-18
 -1       423 9.72439E-05-2.88897E-05-2.92898E-05 2.05362E-06 1.20456E-18-2.15141E-19
 -1       424 9.64175E-05-2.86535E-05-2.90377E-05 1.47625E-06 4.81571E-19-1.33797E-18
 -1       425 9.58010E-05-2.84656E-05-2.88548E-05 9.24079E-07 6.51526E-19-1.14220E-18
 -1       426 9.55024E-05-2.83612E-05-2.87726E-05 6.16292E-07-5.26128E-19-1.44600E-19
 -1       427 9.47906E-05-2.68792E-05-2.91042E-05 1.68167E-06-5.62801E-19 1.22958E-18
 -1       428 9.51698E-05-2.75287E-05-2.89867E-05 1.48042E-06-5.77703E-19 4.11546E-18
 -1       429 9.53889E-05-2.79912E-05-2.88816E-05 1.08291E-06-1.28826E-18-5.80550E-19
 -1       430 9.44290E-05-2.62579E-05-2.92170E-05 1.62013E-06-1.86717E-18-3.32021E-18
 -1       431 9.41209E-05-2.57184E-05-2.93173E-05 1.31724E-06 3.64530E-19-1.60294E-18
 -1       432 9.39077E-05-2.53368E-05-2.93902E-05 8.29037E-07 7.50510E-19 1.59252E-18
 -1       433 9.38101E-05-2.51567E-05-2.94260E-05 2.33019E-07-6.63357E-19 2.01587E-18
 -1       434 9.38349E-05-2.51961E-05-2.94197E-05-3.85429E-07-1.55021E-18 1.51771E-18
 -1       435 9.39752E-05-2.54457E-05-2.93723E-05-9.42833E-07-1.99981E-18-2.43700E-19
 -1       436 9.42072E-05-2.58629E-05-2.92920E-05-1.36042E-06 1.08668E-18-2.55743E-18
 -1       437 9.45128E-05-2.64112E-05-2.91870E-05-1.59672E-06 2.12707E-18 3.00899E-18
 -1       438 9.48555E-05-2.70210E-05-2.90713E-05-1.60756E-06 1.40722E-18-1.39487E-18
 -1       439 9.52000E-05-2.76299E-05-2.89564E-05-1.38916E-06-1.60455E-18-4.52932E-19
 -1       440 5.33879E-05-3.88123E-05-6.25486E-06 4.04816E-05 5.81276E-19-3.12132E-18
 -1       441 1.16054E-05-2.23740E-05 4.35880E-06-3.28002E-06-1.12706E-18 5.37157E-18
 -1       442 2.55724E-05-2.69449E-05 5.40711E-07 2.67839E-05-1.70412E-18 7.62647E-19
 -1       443 1.00139E-04-5.27031E-05-2.04139E-05 3.92370E-05-3.75871E-19-2.93661E-18
 -1       444 1.30932E-04-5.49252E-05-3.26257E-05 2.77452E-05-7.61271E-19-3.78401E-18
 -1       445 8.93503E-05-1.18583E-05-3.32845E-05-1.06844E-05-1.45520E-18-3.12303E-18
 -1       446 1.60340E-04-2.73239E-05-5.67997E-05-1.55499E-06 2.20800E-18-4.91766E-18
 -1       447 1.61821E-04-1.64579E-05-6.20296E-05-1.48393E-06 2.77107E-18-4.67271E-18
 -1       448 1.54355E-04-1.42709E-05-6.00988E-05 3.83193E-06 3.37839E-18-3.45854E-18
 -1       449 1.57086E-04-3.02710E-05-5.44209E-05 2.00779E-06 3.04058E-18-3.84796E-18
 -1       450 1.46490E-04-4.93557E-05-4.16690E-05-1.50078E-05 1.61280E-19-5.42281E-18
 -1       451 1.24709E-04-5.46527E-05-3.00190E-05-3.13953E-05 1.77771E-19-5.66707E-18
 -1       452 8.50404E-05-4.99988E-05-1.52214E-05-4.22702E-05-7.79694E-19-4.53115E-18
 -1       453 4.70605E-05-3.71995E-05-4.38904E-06-3.88844E-05-1.91175E-18-5.42122E-18
 -1       454 1.76941E-05-2.59456E-05 3.22700E-06-1.83595E-05-2.32405E-18-4.76308E-18
 -1       455 1.34140E-05-2.03251E-05 2.96015E-06 8.46951E-06-1.32590E-18-2.65164E-18
 -1       456 3.48479E-05-3.05347E-05-1.82468E-06 3.53229E-05-3.32249E-19 1.65277E-19
 -1       457 6.47918E-05-4.32990E-05-9.35811E-06 4.40372E-05-8.01505E-19 1.39483E-18
 -1       458 1.07058E-04-5.25163E-05-2.34114E-05 3.88688E-05 2.76556E-19-2.38069E-19
 -1       459 1.36605E-04-4.96835E-05-3.71806E-05 2.45560E-05-4.44004E-19 2.11186E-18
 -1       460 1.53665E-04-3.74098E-05-4.96056E-05 9.46932E-06-2.84394E-18 3.61905E-18
 -1       461 1.59078E-04-2.26558E-05-5.82532E-05 1.18287E-06-4.01409E-18 2.07692E-18
 -1       462 1.55727E-04-1.17316E-05-6.16769E-05 2.91822E-07-3.78878E-18 1.60613E-18
 -1       463 1.57606E-04-1.75190E-05-5.98242E-05 1.24161E-06-1.55674E-18 1.64626E-18
 -1       464 1.51142E-04-3.39592E-05-5.03951E-05-1.45134E-06-2.36481E-19 9.64876E-19
 -1       465 1.34961E-04-5.13856E-05-3.59282E-05-2.34972E-05-9.03943E-19 4.06470E-19
 -1       466 1.07674E-04-5.35605E-05-2.32178E-05-3.82812E-05-1.07012E-18 6.97055E-19
 -1       467 5.79652E-05-4.06220E-05-7.68707E-06-4.26824E-05 3.75447E-19 5.43382E-18
 -1       468 2.64305E-05-2.79181E-05 5.00962E-07-2.95141E-05 4.13776E-19 6.07450E-18
 -1       469 1.52657E-04-4.53318E-05-4.60378E-05 5.71792E-06 1.09663E-18-5.37474E-18
 -1       470 1.48715E-04-4.40302E-05-4.51341E-05 5.81888E-06-4.66239E-19-1.54208E-18
 -1       471 8.59034E-05-4.98208E-05-1.52939E-05 4.23021E-05-1.81689E-19-2.93965E-18
 -1       472 9.38746E-05-5.20477E-05-1.76589E-05-4.23660E-05 8.35069E-19 7.85061E-19
 -1       473 1.40304E-04-1.10687E-05-5.57775E-05-5.90121E-06-3.77353E-18 1.25059E-18
 -1       474 1.43837E-04-4.88203E-05-4.08992E-05-1.23840E-06 1.60407E-19-5.54330E-19
 -1       475 9.57862E-05-2.51341E-05-3.02652E-05 6.01836E-06 2.10247E-18 1.24449E-18
 -1       476 8.95825E-05-1.33906E-05-3.26732E-05-3.91790E-06-1.24655E-19-2.94531E-18
 -1       477 9.02803E-05-1.43567E-05-3.25594E-05-5.87791E-06-5.90250E-19-3.13521E-18
 -1       478 8.90900E-05-1.27058E-05-3.27539E-05 5.49878E-08 8.91055E-19-2.75352E-18
 -1       479 8.92238E-05-1.28907E-05-3.27322E-05 2.04099E-06 1.30885E-18-2.77503E-18
 -1       480 8.96145E-05-1.34313E-05-3.26691E-05 3.99131E-06 1.66372E-18-2.59645E-18
 -1       481 9.03295E-05-1.44209E-05-3.25533E-05 5.94451E-06 2.06918E-18-2.03653E-18
 -1       482 9.14640E-05-1.60021E-05-3.23639E-05 7.77471E-06 2.41036E-18-1.41853E-18
 -1       483 9.32310E-05-1.84720E-05-3.20597E-05 9.29400E-06 2.57636E-18-5.37380E-19
 -1       484 9.50840E-05-2.65602E-05-2.93494E-05 2.86551E-06 1.67682E-18 8.47035E-19
 -1       485 9.54423E-05-2.43997E-05-3.04337E-05-5.81095E-06-1.54988E-18-1.54472E-18
 -1       486 9.53016E-05-2.62691E-05-2.95838E-05-2.88651E-06-1.22642E-18-1.32995E-18
 -1       487 9.49087E-05-2.71322E-05-2.90429E-05-9.91874E-07-9.68146E-19-1.28938E-18
 -1       488 9.46493E-05-2.76565E-05-2.87093E-05 1.65885E-07-7.19961E-19-1.15581E-18
 -1       489 9.45139E-05-2.79697E-05-2.85182E-05 8.51448E-07-5.62225E-19-1.22626E-18
 -1       490 9.44898E-05-2.81649E-05-2.84247E-05 1.24248E-06-6.12879E-19-1.39495E-18
 -1       491 9.45501E-05-2.82859E-05-2.83989E-05 1.45998E-06-2.00718E-19-1.47884E-18
 -1       492 9.46718E-05-2.83566E-05-2.84208E-05 1.58952E-06-3.37689E-19-1.05281E-18
 -1       493 9.48398E-05-2.83916E-05-2.84778E-05 1.69265E-06-6.43773E-19-9.72384E-19
 -1       494 9.50468E-05-2.84015E-05-2.85621E-05 1.81463E-06-2.42442E-19-9.38057E-19
 -1       495 9.52919E-05-2.83956E-05-2.86695E-05 1.98898E-06 1.83799E-20-9.36055E-19
 -1       496 9.55801E-05-2.83836E-05-2.87979E-05 2.23993E-06-2.93695E-19-1.32155E-18
 -1       497 9.59210E-05-2.83775E-05-2.89465E-05 2.58305E-06-3.11688E-19-9.12341E-19
 -1       498 9.63293E-05-2.83937E-05-2.91143E-05 3.02404E-06-4.79678E-19-9.55921E-19
 -1       499 9.68248E-05-2.84560E-05-2.92999E-05 3.55561E-06-7.26400E-19-1.24084E-18
 -1       500 9.74342E-05-2.85993E-05-2.94996E-05 4.15209E-06-7.63785E-19-1.65808E-18
 -1       501 9.81934E-05-2.88740E-05-2.97075E-05 4.76147E-06-1.29209E-18-1.34160E-18
 -1       502 9.91502E-05-2.93488E-05-2.99147E-05 5.29504E-06-5.34551E-19-1.09521E-18
 -1       503 1.00367E-04-3.01096E-05-3.01109E-05 5.61553E-06-3.00076E-19-1.72128E-18
 -1       504 1.01912E-04-3.12457E-05-3.02882E-05 5.52700E-06 6.71950E-19-1.50300E-18
 -1       505 1.03843E-04-3.28085E-05-3.04478E-05 4.77450E-06 3.90492E-19-2.36003E-18
 -1       506 1.06138E-04-3.47250E-05-3.06123E-05 3.07292E-06 9.10629E-19-2.80151E-18
 -1       507 1.08590E-04-3.66580E-05-3.08365E-05 2.05211E-07 3.36936E-19-3.08763E-18
 -1       508 1.10681E-04-3.78794E-05-3.12098E-05-3.76014E-06 1.19054E-19-2.41737E-18
 -1       509 1.11560E-04-3.73073E-05-3.18287E-05-8.12633E-06-9.46274E-20-1.41538E-18
 -1       510 1.10411E-04-3.40653E-05-3.27246E-05-1.12389E-05-7.81125E-19-1.18563E-18
 -1       511 1.07401E-04-2.86844E-05-3.37522E-05-1.08724E-05-1.02086E-18-6.81220E-19
 -1       512 1.04282E-04-2.37233E-05-3.45468E-05-5.85336E-06-2.19803E-18-4.16378E-19
 -1       513 1.03497E-04-2.25251E-05-3.47219E-05 2.10375E-06-2.17337E-18 3.48379E-19
 -1       514 1.05733E-04-2.60039E-05-3.41866E-05 8.93303E-06-1.44220E-18-2.82093E-19
 -1       515 1.09099E-04-3.16172E-05-3.32154E-05 1.15783E-05 2.05523E-19-6.55232E-19
 -1       516 1.11261E-04-3.60938E-05-3.22173E-05 9.86093E-06 1.50471E-18-3.66235E-19
 -1       517 1.11284E-04-3.78996E-05-3.14566E-05 5.82736E-06 1.56152E-18-9.86831E-19
 -1       518 1.09652E-04-3.74044E-05-3.09717E-05 1.51231E-06 1.49479E-18-2.77527E-19
 -1       519 1.07275E-04-3.56945E-05-3.06850E-05-1.93998E-06 2.07650E-18-2.69875E-19
 -1       520 1.04850E-04-3.37017E-05-3.04978E-05-4.20272E-06-1.76937E-19-1.21402E-18
 -1       521 1.02720E-04-3.19403E-05-3.03378E-05-5.39159E-06 8.47099E-20 3.22009E-19
 -1       522 1.00980E-04-3.05887E-05-3.01692E-05-5.77367E-06 4.87652E-19 1.24950E-18
 -1       523 9.96001E-05-2.96396E-05-2.99833E-05-5.61980E-06-1.13451E-19 3.77266E-18
 -1       524 9.85141E-05-2.90118E-05-2.97861E-05-5.14885E-06-6.88372E-19 3.74025E-18
 -1       525 9.76550E-05-2.86107E-05-2.95893E-05-4.51647E-06 1.90294E-18 2.59298E-18
 -1       526 9.69671E-05-2.83527E-05-2.94048E-05-3.82112E-06 2.33648E-18 9.13562E-19
 -1       527 9.64072E-05-2.81733E-05-2.92416E-05-3.11637E-06 9.59577E-19-5.05334E-19
 -1       528 9.59441E-05-2.80273E-05-2.91055E-05-2.42284E-06-7.39467E-19-8.29473E-19
 -1       529 5.00626E-05-2.84346E-05-8.70067E-06 3.53791E-05-3.64251E-18-1.29014E-18
 -1       530 9.41394E-05-2.76600E-05-2.84876E-05-1.72882E-07 7.46542E-19 1.10142E-19
 -1       531 9.39875E-05-2.79004E-05-2.83216E-05-8.23969E-07 7.16085E-19 1.10399E-19
 -1       532 9.39942E-05-2.80644E-05-2.82551E-05-1.18278E-06 5.69907E-19 1.74904E-19
 -1       533 9.41117E-05-2.81822E-05-2.82554E-05-1.37268E-06 4.81654E-19 3.13277E-19
 -1       534 9.43053E-05-2.82682E-05-2.83016E-05-1.47787E-06 5.50457E-19 6.17135E-19
 -1       535 9.45536E-05-2.83306E-05-2.83812E-05-1.55867E-06 8.15648E-19 6.06561E-19
 -1       536 9.48470E-05-2.83755E-05-2.84875E-05-1.66038E-06 7.94477E-19 4.41074E-19
 -1       537 9.51852E-05-2.84080E-05-2.86182E-05-1.81875E-06 9.07513E-19-2.62967E-20
 -1       538 9.55749E-05-2.84334E-05-2.87740E-05-2.06332E-06 8.81786E-19 2.81460E-19
 -1       539 9.60285E-05-2.84578E-05-2.89575E-05-2.41922E-06 2.03037E-20 1.01302E-19
 -1       540 9.65630E-05-2.84894E-05-2.91725E-05-2.90747E-06 3.00725E-19 9.94080E-20
 -1       541 9.71993E-05-2.85402E-05-2.94229E-05-3.54332E-06 3.27287E-19-1.07021E-19
 -1       542 9.79621E-05-2.86298E-05-2.97110E-05-4.33206E-06 5.39880E-21 2.93051E-19
 -1       543 9.88823E-05-2.87913E-05-3.00359E-05-5.26082E-06-2.94459E-19 1.85454E-19
 -1       544 1.00001E-04-2.90808E-05-3.03915E-05-6.28461E-06-7.16101E-19-2.64607E-19
 -1       545 1.01378E-04-2.95908E-05-3.07643E-05-7.30459E-06 1.07689E-19-4.83379E-21
 -1       546 1.03107E-04-3.04645E-05-3.11330E-05-8.13704E-06 2.91575E-19-7.30060E-20
 -1       547 1.05323E-04-3.18975E-05-3.14728E-05-8.47503E-06-2.36411E-19 4.74716E-19
 -1       548 1.08195E-04-3.40922E-05-3.17686E-05-7.85436E-06-6.38196E-19 1.42786E-18
 -1       549 1.11826E-04-3.70940E-05-3.20436E-05-5.66913E-06-1.38149E-18 3.13827E-19
 -1       550 1.16040E-04-4.04685E-05-3.24093E-05-1.34214E-06-1.48327E-18-1.53644E-19
 -1       551 1.19923E-04-4.27461E-05-3.30990E-05 5.24903E-06-1.38781E-18 9.57420E-19
 -1       552 1.21599E-04-4.14528E-05-3.43536E-05 1.26794E-05-1.99679E-18 2.31225E-18
 -1       553 1.18553E-04-3.42723E-05-3.62623E-05 1.65313E-05-1.09267E-19 3.14642E-18
 -1       554 1.13357E-04-2.49118E-05-3.81120E-05 1.17463E-05 7.19978E-19 2.96572E-18
 -1       555 1.09938E-04-2.04680E-05-3.87682E-05-7.83528E-07 3.70528E-18 2.17556E-18
 -1       556 1.14474E-04-2.63644E-05-3.78301E-05-1.26366E-05 2.61540E-18 1.04574E-18
 -1       557 1.19412E-04-3.55268E-05-3.60258E-05-1.59292E-05-4.65230E-19 1.12627E-18
 -1       558 1.21342E-04-4.16639E-05-3.41883E-05-1.16228E-05-3.65093E-19 1.92406E-18
 -1       559 1.19484E-04-4.25845E-05-3.29761E-05-4.36664E-06 8.50507E-20 2.27344E-18
 -1       560 1.15537E-04-4.01275E-05-3.23410E-05 1.97895E-06 1.79763E-20 1.67493E-18
 -1       561 1.11348E-04-3.67500E-05-3.19883E-05 6.08791E-06 7.70008E-19 2.36645E-18
 -1       562 1.07769E-04-3.38111E-05-3.17073E-05 8.09031E-06 1.17197E-18 1.81810E-18
 -1       563 1.04953E-04-3.16936E-05-3.14014E-05 8.59478E-06-1.09665E-18 3.27799E-18
 -1       564 1.02776E-04-3.03181E-05-3.10534E-05 8.19422E-06-2.25500E-18 2.45365E-18
 -1       565 1.01071E-04-2.94768E-05-3.06810E-05 7.33095E-06-1.07471E-18 9.73681E-19
 -1       566 9.97085E-05-2.89762E-05-3.03104E-05 6.29129E-06 3.99548E-19-7.01498E-19
 -1       567 9.86007E-05-2.86756E-05-2.99642E-05 5.23938E-06 2.55522E-18-1.11674E-18
 -1       568 9.76918E-05-2.84829E-05-2.96574E-05 4.25493E-06 2.09323E-18 2.17564E-18
 -1       569 9.69439E-05-2.83404E-05-2.93981E-05 3.36398E-06 2.83977E-18 1.80231E-19
 -1       570 9.63277E-05-2.82111E-05-2.91889E-05 2.56268E-06 1.81180E-18 2.68327E-19
 -1       571 9.58151E-05-2.80844E-05-2.90239E-05 1.82325E-06-1.79697E-19 1.17016E-18
 -1       572 9.40137E-05-2.58967E-05-2.91940E-05 2.03659E-06 1.82997E-19-7.74547E-19
 -1       573 9.36148E-05-2.54210E-05-2.92270E-05 1.46854E-06 1.77399E-18 1.80463E-19
 -1       574 9.51144E-05-2.72120E-05-2.91007E-05 2.29342E-06-1.95979E-19 2.81005E-18
 -1       575 9.45345E-05-2.65147E-05-2.91517E-05 2.32807E-06-3.96904E-19-1.19885E-18
 -1       576 9.33836E-05-2.51436E-05-2.92470E-05 7.12041E-07 4.14173E-19 1.40074E-18
 -1       577 9.33373E-05-2.50888E-05-2.92507E-05-1.25943E-07 2.94502E-19 1.58706E-18
 -1       578 9.34723E-05-2.52553E-05-2.92371E-05-9.33263E-07 7.01547E-19 5.82698E-19
 -1       579 9.37601E-05-2.56099E-05-2.92082E-05-1.59752E-06-4.12977E-19-4.76987E-19
 -1       580 9.41761E-05-2.61229E-05-2.91662E-05-2.05984E-06 1.51381E-18 1.65101E-18
 -1       581 9.46675E-05-2.67338E-05-2.91147E-05-2.25355E-06 1.01066E-18 1.21177E-19
 -1       582 9.51897E-05-2.73824E-05-2.90595E-05-2.14805E-06-1.94132E-18-3.74684E-18
 -1       583 2.54427E-05-1.62326E-05-3.42089E-06-1.76726E-05-7.35066E-19 4.98680E-18
 -1       584 9.45013E-05-2.72722E-05-2.88038E-05 9.57996E-07 1.28948E-18 5.51996E-19
 -1       585 1.25282E-04-6.12527E-05-2.73453E-05 2.56812E-05-4.67986E-19-4.44144E-18
 -1       586 9.45762E-05-2.06926E-05-3.16832E-05-9.56911E-06-1.96959E-18-1.91939E-18
 -1       587 1.36181E-04-2.21818E-05-4.94457E-05 1.08901E-05-8.84302E-19-1.26743E-18
 -1       588 3.36494E-05-1.75873E-05-6.22239E-06 2.44617E-05 1.03256E-18 4.19281E-19
 -1       589 1.34689E-04-1.02842E-05-5.38272E-05-2.48835E-06 2.34194E-18-8.48370E-19
 -1       590 8.92046E-05-1.28656E-05-3.27351E-05-1.93167E-06 4.36949E-19-2.80111E-18
 -1       591 1.37101E-04-2.01656E-05-5.07122E-05 1.24501E-05 1.62069E-18-3.35372E-19
 -1       592 1.37410E-04-1.59837E-05-5.25014E-05-1.06251E-05 2.13558E-18-9.91187E-19
 -1       593 7.91108E-05-4.54392E-05-1.40845E-05-4.21232E-05-2.41018E-18-4.88958E-18
 -1       594 1.44622E-04-3.62734E-05-4.69185E-05-1.18583E-05 1.15821E-18-2.96409E-18
 -1       595 1.38164E-04-6.01855E-05-3.36185E-05-1.10037E-05-1.52577E-18-3.51434E-18
 -1       596 1.29593E-04-5.93438E-05-3.01380E-05 2.23516E-05 1.28900E-18 3.57766E-18
 -1       597 1.16892E-04-5.97069E-05-2.43553E-05-3.10121E-05-2.03844E-18-4.29931E-18
 -1       598 4.06092E-05-2.44541E-05-6.42971E-06-3.14216E-05-1.23349E-18-5.31381E-18
 -1       599 2.40065E-05-1.37724E-05-3.79356E-06-8.54263E-06-6.40622E-19-3.97703E-18
 -1       600 6.55230E-05-3.51998E-05-1.25120E-05 4.08424E-05 1.88195E-18 2.48938E-18
 -1       601 9.86248E-05-5.29649E-05-1.93260E-05 3.95000E-05 1.47786E-18 2.04071E-18
 -1       602 1.42185E-04-4.93390E-05-4.00550E-05 1.63742E-06-9.34251E-20 3.72483E-18
 -1       603 1.40780E-04-2.98877E-05-4.80241E-05-9.97594E-06-1.40094E-18 2.58970E-18
 -1       604 1.34300E-04-9.62090E-06-5.40361E-05 4.93360E-06-1.82324E-18-6.21007E-19
 -1       605 5.53296E-05-3.26385E-05-9.20500E-06-4.04130E-05 1.08648E-18 6.43671E-18
 -1       606 1.27961E-04-5.94771E-05-2.94119E-05-2.25785E-05 4.52130E-19-8.83747E-19
 -1       607 2.61215E-05-1.39635E-05-4.61233E-06 1.19499E-05-2.89656E-18 2.46984E-18
 -1       608 9.61191E-05-2.31766E-05-3.12646E-05 9.58770E-06 2.46818E-18 1.80944E-18
 -1       609 1.42784E-04-5.70350E-05-3.70117E-05 4.49934E-06-2.36560E-19-5.78349E-18
 -1       610 1.25639E-04-1.46119E-05-4.81660E-05 8.08499E-06 1.87861E-18 1.19896E-18
 -1       611 9.13762E-05-1.58545E-05-3.23886E-05-7.78288E-06-1.12114E-18-2.86795E-18
 -1       612 1.35301E-04-3.56787E-05-4.31116E-05 1.12822E-05 2.14088E-19-3.72774E-19
 -1       613 1.36542E-04-3.27020E-05-4.49611E-05 1.62331E-05 8.17572E-19 7.48883E-19
 -1       614 7.49358E-05-3.92800E-05-1.48982E-05 3.85984E-05-3.02878E-18-3.28090E-18
 -1       615 9.56765E-05-2.79446E-05-2.90260E-05-1.94999E-06-2.69778E-18 5.49479E-19
 -1       616 1.14675E-04-5.74981E-05-2.43463E-05-3.05908E-05 3.98397E-19-8.62362E-19
 -1       617 1.25834E-04-8.12311E-06-5.10354E-05-1.64466E-06-2.94926E-18-8.23369E-19
 -1       618 9.15910E-05-1.68198E-05-3.20503E-05 2.42816E-06 1.33451E-18-2.33199E-18
 -1       619 9.13338E-05-1.64154E-05-3.21135E-05 8.31392E-07 9.53148E-19-2.54323E-18
 -1       620 9.29177E-05-1.89812E-05-3.16927E-05 5.24638E-06 2.04290E-18-1.52999E-18
 -1       621 9.39943E-05-2.09151E-05-3.13277E-05 6.13024E-06 2.25150E-18-8.72404E-19
 -1       622 9.52662E-05-2.40804E-05-3.04979E-05 5.13679E-06 2.06666E-18-2.43658E-19
 -1       623 8.46340E-05-4.34929E-05-1.73184E-05-3.90094E-05 1.96213E-18 8.35254E-19
 -1       624 1.38250E-04-5.06072E-05-3.77593E-05 8.86486E-06-1.95745E-18-2.54401E-19
 -1       625 9.54292E-05-2.56686E-05-2.98904E-05-2.40353E-06-9.87045E-19-1.59770E-18
 -1       626 9.54846E-05-2.68898E-05-2.93964E-05-7.99379E-07-8.15658E-19-1.35964E-18
 -1       627 9.54326E-05-2.76280E-05-2.90588E-05 2.56207E-07-6.24905E-19-1.40015E-18
 -1       628 9.53649E-05-2.80663E-05-2.88422E-05 9.15494E-07-7.26485E-19-1.56655E-18
 -1       629 9.53098E-05-2.83122E-05-2.87133E-05 1.31660E-06-4.70089E-19-1.54088E-18
 -1       630 9.52774E-05-2.84285E-05-2.86495E-05 1.56443E-06 7.75112E-20-1.47295E-18
 -1       631 9.52669E-05-2.84535E-05-2.86343E-05 1.73806E-06-1.81276E-19-8.39822E-19
 -1       632 9.52759E-05-2.84120E-05-2.86559E-05 1.89731E-06-4.10289E-19-2.97192E-19
 -1       633 9.53026E-05-2.83219E-05-2.87059E-05 2.08746E-06-3.96958E-19-5.76019E-19
 -1       634 9.53472E-05-2.81978E-05-2.87782E-05 2.34253E-06-5.45410E-19-5.68691E-19
 -1       635 9.54132E-05-2.80546E-05-2.88678E-05 2.68709E-06-2.22875E-19-6.76815E-19
 -1       636 9.55086E-05-2.79108E-05-2.89702E-05 3.13656E-06-4.51733E-19-1.04143E-18
 -1       637 9.56481E-05-2.77929E-05-2.90805E-05 3.69598E-06-8.71600E-19-4.99898E-19
 -1       638 9.58573E-05-2.77411E-05-2.91923E-05 4.35717E-06-1.12057E-18-7.79170E-19
 -1       639 9.61784E-05-2.78154E-05-2.92981E-05 5.09387E-06-1.05896E-18-9.94808E-19
 -1       640 9.66787E-05-2.81034E-05-2.93892E-05 5.85449E-06-1.17868E-18-1.74475E-18
 -1       641 9.74604E-05-2.87253E-05-2.94579E-05 6.55176E-06-9.30009E-19-1.31592E-18
 -1       642 9.86685E-05-2.98314E-05-2.95020E-05 7.04817E-06 6.19711E-21-1.49808E-18
 -1       643 1.00488E-04-3.15784E-05-2.95336E-05 7.13598E-06 4.77203E-19-1.95681E-18
 -1       644 1.03106E-04-3.40590E-05-2.95930E-05 6.51235E-06 1.69924E-19-8.46376E-19
 -1       645 1.06602E-04-3.71454E-05-2.97702E-05 4.76904E-06 2.18637E-19-1.31160E-18
 -1       646 1.10706E-04-4.02114E-05-3.02172E-05 1.48628E-06 9.37938E-19-6.69965E-19
 -1       647 1.14556E-04-4.19231E-05-3.11408E-05-3.46235E-06 1.24073E-18 2.37375E-19
 -1       648 1.16515E-04-4.02136E-05-3.27215E-05-9.21699E-06 1.71448E-19 8.43781E-19
 -1       649 1.14982E-04-3.37331E-05-3.48479E-05-1.29798E-05-4.54508E-19 5.90534E-19
 -1       650 1.10352E-04-2.40510E-05-3.70853E-05-1.12174E-05-7.64626E-19 8.87148E-19
 -1       651 1.07188E-04-1.80915E-05-3.83205E-05-2.64235E-06-2.01216E-18 2.21337E-18
 -1       652 1.08020E-04-2.01768E-05-3.78259E-05 7.69386E-06-2.64802E-18 1.55295E-19
 -1       653 1.13057E-04-2.91077E-05-3.60133E-05 1.30171E-05-1.91954E-18-1.67465E-19
 -1       654 1.16248E-04-3.76593E-05-3.37147E-05 1.14263E-05 9.07357E-19-6.78020E-19
 -1       655 1.15827E-04-4.16521E-05-3.17999E-05 6.16312E-06 8.55962E-19-8.95092E-21
 -1       656 1.12671E-04-4.13479E-05-3.05727E-05 6.17950E-07 1.46869E-18 1.57713E-19
 -1       657 1.08527E-04-3.87121E-05-2.99240E-05-3.50600E-06 4.80348E-19-4.27975E-19
 -1       658 1.04674E-04-3.55144E-05-2.96419E-05-5.95501E-06 1.20254E-18-9.36650E-19
 -1       659 1.01632E-04-3.27033E-05-2.95422E-05-7.07380E-06 3.87770E-19-1.08321E-18
 -1       660 9.94479E-05-3.05980E-05-2.95077E-05-7.29392E-06 2.11631E-19-6.55817E-19
 -1       661 9.79674E-05-2.91839E-05-2.94787E-05-6.96384E-06 9.08672E-19-1.31089E-18
 -1       662 9.69962E-05-2.83193E-05-2.94327E-05-6.32882E-06 5.64840E-19 4.82742E-19
 -1       663 9.63663E-05-2.78404E-05-2.93679E-05-5.55047E-06-4.11796E-19 2.22359E-18
 -1       664 9.59510E-05-2.76030E-05-2.92916E-05-4.72897E-06 6.16591E-19 6.71952E-19
 -1       665 9.56633E-05-2.74962E-05-2.92139E-05-3.91944E-06 1.66634E-19-1.57554E-18
 -1       666 9.54426E-05-2.74409E-05-2.91430E-05-3.14618E-06-5.36475E-19-3.37160E-18
 -1       667 1.33023E-04-5.59202E-05-3.31967E-05 5.14721E-06-2.24608E-19 1.31806E-18
 -1       668 9.51111E-05-2.76539E-05-2.89096E-05-2.27290E-07 6.54124E-19-4.66034E-19
 -1       669 9.49860E-05-2.83754E-05-2.85474E-05-1.53646E-06 3.12131E-19-2.40089E-19
 -1       670 9.50354E-05-2.84174E-05-2.85505E-05-1.69649E-06 5.85964E-19-1.93144E-19
 -1       671 9.51158E-05-2.84030E-05-2.85911E-05-1.84161E-06 7.93539E-19-9.01301E-20
 -1       672 9.52218E-05-2.83440E-05-2.86617E-05-2.02061E-06 9.53713E-19-2.76465E-19
 -1       673 9.53505E-05-2.82481E-05-2.87579E-05-2.27248E-06 5.24607E-19 4.39007E-19
 -1       674 9.55015E-05-2.81208E-05-2.88770E-05-2.62926E-06 4.42955E-19 7.25681E-19
 -1       675 9.56766E-05-2.79682E-05-2.90173E-05-3.11751E-06 7.85061E-20 8.32894E-19
 -1       676 9.58797E-05-2.77991E-05-2.91766E-05-3.75818E-06 3.23080E-19 9.40152E-19
 -1       677 9.61187E-05-2.76303E-05-2.93512E-05-4.56486E-06 2.97281E-19 6.34128E-19
 -1       678 9.64098E-05-2.74936E-05-2.95344E-05-5.53990E-06-1.53584E-19 5.19128E-19
 -1       679 9.67866E-05-2.74488E-05-2.97150E-05-6.66751E-06-9.33762E-20 2.09759E-19
 -1       680 9.73165E-05-2.76018E-05-2.98766E-05-7.90285E-06-4.27952E-19 1.65224E-21
 -1       681 9.81288E-05-2.81297E-05-2.99989E-05-9.15507E-06 3.13497E-19-2.06010E-19
 -1       682 9.94529E-05-2.93052E-05-3.00638E-05-1.02606E-05 2.19049E-19-1.34600E-19
 -1       683 1.01659E-04-3.14987E-05-3.00719E-05-1.09373E-05-5.52219E-19-3.29878E-19
 -1       684 1.05260E-04-3.50973E-05-3.00744E-05-1.07064E-05-9.40066E-19-1.79259E-19
 -1       685 1.10734E-04-4.01733E-05-3.02377E-05-8.73114E-06-8.82657E-19 1.30477E-19
 -1       686 1.18009E-04-4.57417E-05-3.10008E-05-3.92202E-06-2.25444E-18 6.70923E-19
 -1       687 1.25844E-04-4.92806E-05-3.28050E-05 4.01513E-06-2.16130E-18 1.75108E-18
 -1       688 1.28877E-04-4.57499E-05-3.57642E-05-1.23264E-05-7.02045E-20 1.39316E-18
 -1       689 1.24669E-04-4.90765E-05-3.24403E-05-2.71399E-06-3.47887E-19 1.46745E-18
 -1       690 1.17146E-04-4.52886E-05-3.08004E-05 4.82428E-06 1.35709E-18 1.03813E-18
 -1       691 1.10024E-04-3.95971E-05-3.01874E-05 9.20609E-06 8.53928E-19 1.76140E-19
 -1       692 1.04762E-04-3.46506E-05-3.00529E-05 1.09032E-05 8.26501E-19 4.33127E-19
 -1       693 1.01336E-04-3.12185E-05-3.00526E-05 1.10224E-05-2.05162E-19 1.54474E-18
 -1       694 9.92379E-05-2.91443E-05-3.00405E-05 1.02933E-05-1.59385E-18 9.86819E-19
 -1       695 9.79768E-05-2.80404E-05-2.99721E-05 9.16469E-06-1.71164E-19 9.15196E-19
 -1       696 9.71970E-05-2.75415E-05-2.98513E-05 7.89995E-06 1.16454E-18-4.22318E-19
 -1       697 9.66796E-05-2.73803E-05-2.96985E-05 6.64541E-06 2.29514E-18-2.59877E-18
 -1       698 9.63017E-05-2.73824E-05-2.95356E-05 5.47578E-06 4.93509E-19-1.98971E-18
 -1       699 9.59971E-05-2.74402E-05-2.93804E-05 4.42087E-06 1.72609E-18 5.71639E-19
 -1       700 9.57270E-05-2.74864E-05-2.92445E-05 3.48265E-06 1.53607E-18 4.02646E-18
 -1       701 9.53832E-05-2.73485E-05-2.91567E-05 2.87856E-06-1.10537E-18 5.12818E-18
 -1       702 9.26592E-05-2.47832E-05-2.90902E-05 3.36920E-07 1.28434E-18 1.72175E-18
 -1       703 4.89103E-05-1.78881E-05-1.27765E-05 2.27131E-05-3.23159E-18-8.40310E-19
 -1       704 9.33150E-05-2.53780E-05-2.91161E-05 2.23012E-06 3.85027E-19 7.31463E-19
 -1       705 9.27379E-05-2.48707E-05-2.90864E-05-7.11771E-07 4.20804E-19 1.27722E-18
 -1       706 9.28535E-05-2.49546E-05-2.90999E-05 1.36358E-06 5.13506E-19 2.57074E-19
 -1       707 9.53167E-05-2.74156E-05-2.90997E-05-2.64225E-06-6.27621E-19-4.61130E-18
 -1       708 9.30590E-05-2.51883E-05-2.90878E-05-1.63622E-06-1.00346E-19-1.19145E-18
 -1       709 9.35873E-05-2.57036E-05-2.90933E-05-2.35871E-06-1.30927E-18 1.87821E-19
 -1       710 9.42612E-05-2.63566E-05-2.91023E-05-2.77793E-06-1.85910E-19 2.25027E-18
 -1       711 9.52394E-05-2.70056E-05-2.92411E-05 8.68780E-07 1.15481E-18-4.54833E-19
 -1       712 1.06780E-04-5.38869E-05-2.24863E-05 3.15852E-05-1.54644E-18-4.36698E-18
 -1       713 9.46151E-05-2.21978E-05-3.10339E-05-5.99980E-06-1.28080E-18-2.01016E-18
 -1       714 5.62523E-05-2.34980E-05-1.36565E-05 3.00817E-05 1.78770E-18 2.95691E-18
 -1       715 3.62340E-05-1.10364E-05-1.02624E-05-5.22313E-06-3.11262E-18 2.24416E-18
 -1       716 1.18321E-04-5.70718E-05-2.61583E-05 2.39013E-05 1.05658E-18 2.24623E-18
 -1       717 3.85769E-05-1.11039E-05-1.12410E-05 5.51055E-06 2.23224E-18-1.50767E-18
 -1       718 9.49761E-05-2.82584E-05-2.85932E-05-1.29860E-06 4.16590E-19-1.40155E-19
 -1       719 9.50158E-05-2.80357E-05-2.87055E-05-8.99548E-07 7.23360E-19-4.90212E-19
 -1       720 9.53343E-05-2.59148E-05-2.97473E-05 2.57620E-06 1.74078E-18-3.35214E-19
 -1       721 4.35548E-05-1.58459E-05-1.13706E-05-1.95850E-05-4.80109E-19-5.05520E-18
 -1       722 9.21115E-05-1.76524E-05-3.19168E-05 3.93447E-06 1.69521E-18-1.99196E-18
 -1       723 4.94389E-05-2.04474E-05-1.18949E-05-2.77859E-05-2.86946E-19 4.18773E-18
 -1       724 1.22278E-04-1.49033E-05-4.65144E-05 1.00269E-05-1.09955E-18-1.61081E-18
 -1       725 9.20945E-05-1.76352E-05-3.19177E-05-3.85200E-06-3.28825E-19-2.55420E-18
 -1       726 1.27264E-04-5.94948E-05-2.90939E-05-1.48855E-05-3.12871E-18-2.53861E-18
 -1       727 1.34004E-04-5.46959E-05-3.41631E-05-4.74950E-06 3.24913E-19 5.48719E-20
 -1       728 1.01792E-04-5.09778E-05-2.15591E-05-3.27229E-05-3.05387E-18-3.54743E-18
 -1       729 9.22843E-05-4.43639E-05-2.02609E-05 3.45799E-05 1.64207E-18 1.49608E-18
 -1       730 6.92459E-05-3.32838E-05-1.49966E-05-3.55831E-05-1.69417E-18-4.17145E-18
 -1       731 1.27053E-04-1.71262E-05-4.76631E-05-1.11647E-05-2.81421E-18-1.64232E-19
 -1       732 1.33446E-04-4.04767E-05-4.01908E-05-1.02560E-05-8.85467E-19-2.80050E-20
 -1       733 1.32978E-04-5.95235E-05-3.15153E-05 8.94840E-06 5.72191E-19-3.06863E-18
 -1       734 1.36960E-04-4.74957E-05-3.86178E-05-1.12032E-05 9.82519E-19 1.15787E-18
 -1       735 9.28711E-05-1.89295E-05-3.17020E-05-5.17956E-06-7.62528E-19-2.58079E-18
 -1       736 9.13249E-05-1.64081E-05-3.21131E-05-7.88771E-07 5.65046E-19-2.35342E-18
 -1       737 1.30585E-04-3.31280E-05-4.22228E-05-1.71966E-05 2.27214E-18 2.49200E-18
 -1       738 1.31518E-04-4.53643E-05-3.70834E-05 8.43468E-06 2.32233E-19 1.08960E-18
 -1       739 7.16625E-05-3.08346E-05-1.71779E-05-3.23984E-05 1.69310E-18 1.98936E-18
 -1       740 1.24380E-04-2.89978E-05-4.12109E-05-1.49511E-05-1.14586E-18-8.19848E-19
 -1       741 1.26101E-04-3.22327E-05-4.04904E-05-1.65774E-05 1.71945E-18 3.20783E-18
 -1       742 6.52036E-05-2.64970E-05-1.62453E-05 2.89608E-05-3.28872E-18-1.96520E-18
 -1       743 9.45626E-05-2.65452E-05-2.91506E-05 2.94396E-06 1.66514E-19-9.82113E-20
 -1       744 1.27485E-04-5.76876E-05-2.98889E-05-1.36459E-05-2.12003E-19 2.42331E-20
 -1       745 9.47953E-05-2.68712E-05-2.91102E-05-3.05427E-06-1.00071E-18-2.67818E-18
 -1       746 1.16160E-04-1.17166E-05-4.52355E-05 3.86719E-06-2.78020E-18-2.85118E-18
 -1       747 9.38964E-05-2.59132E-05-2.91361E-05 2.71713E-06 1.20723E-18-1.67835E-18
 -1       748 9.15800E-05-1.68068E-05-3.20504E-05-2.36006E-06 3.72173E-20-2.37377E-18
 -1       749 1.23869E-04-2.48397E-05-4.28299E-05 1.37818E-05-1.16512E-18-3.75289E-19
 -1       750 9.46468E-05-2.26904E-05-3.08378E-05 3.88286E-06 1.77006E-18-1.11874E-18
 -1       751 1.04999E-04-5.03740E-05-2.33034E-05-2.90735E-05 1.39453E-18 8.31555E-19
 -1       752 9.58721E-05-2.67820E-05-2.96102E-05-4.84578E-07-8.82326E-19-1.71459E-18
 -1       753 9.59514E-05-2.76290E-05-2.92814E-05 3.84864E-07-7.20202E-19-1.58078E-18
 -1       754 9.59220E-05-2.81253E-05-2.90558E-05 9.49500E-07-4.91111E-19-1.32112E-18
 -1       755 9.58349E-05-2.83820E-05-2.89084E-05 1.31335E-06-1.44377E-19-1.11430E-18
 -1       756 9.57172E-05-2.84675E-05-2.88213E-05 1.55998E-06 2.52470E-19-1.45186E-18
 -1       757 9.55818E-05-2.84272E-05-2.87805E-05 1.75623E-06 1.35973E-19-1.11167E-18
 -1       758 9.54340E-05-2.82929E-05-2.87748E-05 1.95469E-06-2.37701E-19-4.94652E-19
 -1       759 9.52755E-05-2.80876E-05-2.87948E-05 2.19632E-06-4.41813E-19-1.64637E-19
 -1       760 9.51072E-05-2.78309E-05-2.88327E-05 2.51274E-06-5.00781E-19-9.22143E-19
 -1       761 9.49318E-05-2.75433E-05-2.88807E-05 2.92762E-06-6.73291E-19-9.59462E-19
 -1       762 9.47570E-05-2.72514E-05-2.89309E-05 3.45709E-06-5.14950E-19-1.03504E-18
 -1       763 9.46006E-05-2.69936E-05-2.89743E-05 4.10942E-06-1.08332E-18-1.41603E-18
 -1       764 9.44967E-05-2.68283E-05-2.90006E-05 4.88379E-06-1.32056E-18-8.73640E-19
 -1       765 9.45067E-05-2.68427E-05-2.89987E-05 5.76752E-06-1.46982E-18-7.74347E-19
 -1       766 9.47325E-05-2.71633E-05-2.89581E-05 6.73121E-06-4.43402E-19-6.30402E-19
 -1       767 9.53344E-05-2.79636E-05-2.88731E-05 7.71920E-06-2.61308E-19-7.37266E-21
 -1       768 9.65482E-05-2.94641E-05-2.87505E-05 8.62970E-06 2.88761E-19 5.31318E-19
 -1       769 9.86924E-05-3.19056E-05-2.86230E-05 9.27520E-06 1.30597E-18 2.42629E-19
 -1       770 1.02152E-04-3.54722E-05-2.85737E-05 9.30674E-06 2.32643E-19 7.13498E-19
 -1       771 1.07188E-04-4.00136E-05-2.87858E-05 8.06495E-06 2.59580E-19 1.06185E-18
 -1       772 1.13580E-04-4.45842E-05-2.95548E-05 4.69223E-06 1.32860E-18 3.13679E-19
 -1       773 1.19995E-04-4.68927E-05-3.13444E-05-1.60784E-06 1.07047E-19-5.27912E-19
 -1       774 1.23463E-04-4.31989E-05-3.44827E-05-9.58789E-06-1.48244E-19-6.77465E-19
 -1       775 1.21853E-04-4.54925E-05-3.27733E-05 5.91975E-06 1.12973E-18-6.30896E-19
 -1       776 1.16756E-04-4.59145E-05-3.03711E-05-1.47043E-06 1.90723E-18-8.33353E-19
 -1       777 1.10304E-04-4.22441E-05-2.91660E-05-6.36214E-06 3.63344E-19 1.99133E-19
 -1       778 1.04655E-04-3.76240E-05-2.87274E-05-8.65677E-06 1.66238E-19-6.26080E-19
 -1       779 1.00502E-04-3.36129E-05-2.86676E-05-9.27363E-06 1.81588E-19-8.82490E-19
 -1       780 9.77688E-05-3.06645E-05-2.87594E-05-8.97657E-06 4.99652E-19-1.50328E-18
 -1       781 9.61251E-05-2.87276E-05-2.88846E-05-8.23053E-06 7.51152E-19-6.24715E-19
 -1       782 9.52285E-05-2.75840E-05-2.89903E-05-7.29570E-06 1.44840E-18 1.75978E-19
 -1       783 9.48045E-05-2.69968E-05-2.90602E-05-6.31133E-06 1.04631E-19 3.15270E-20
 -1       784 9.46558E-05-2.67638E-05-2.90965E-05-5.35109E-06-8.16276E-19-9.02397E-19
 -1       785 9.46526E-05-2.67285E-05-2.91101E-05-4.45099E-06-1.35161E-18-1.29753E-18
 -1       786 9.47398E-05-2.68024E-05-2.91156E-05-3.72349E-06-1.28286E-18-5.86219E-19
 -1       787 1.13138E-04-5.12684E-05-2.64424E-05-1.99800E-05-2.47694E-18-2.61062E-18
 -1       788 9.55464E-05-2.84532E-05-2.87542E-05-1.58521E-06 4.38328E-19-8.31201E-19
 -1       789 9.52877E-05-2.81407E-05-2.87772E-05-2.21144E-06 4.11461E-19 2.85507E-20
 -1       790 9.51831E-05-2.78929E-05-2.88386E-05-2.53302E-06 1.17833E-20 1.22667E-19
 -1       791 9.50580E-05-2.75872E-05-2.89160E-05-2.96694E-06 4.65176E-19 8.41270E-19
 -1       792 9.49044E-05-2.72306E-05-2.90029E-05-3.53752E-06 1.83844E-19 2.98615E-19
 -1       793 9.47151E-05-2.68353E-05-2.90911E-05-4.26364E-06-1.20794E-19 2.62598E-19
 -1       794 9.44884E-05-2.64259E-05-2.91693E-05-5.15841E-06 5.94721E-20 6.46889E-19
 -1       795 9.42356E-05-2.60503E-05-2.92219E-05-6.22859E-06-1.91997E-20 8.65252E-20
 -1       796 9.39970E-05-2.57974E-05-2.92279E-05-7.47386E-06-1.33684E-19-6.27737E-19
 -1       797 9.38673E-05-2.58226E-05-2.91614E-05-8.88599E-06 1.92186E-19-5.92301E-19
 -1       798 9.40390E-05-2.63810E-05-2.89958E-05-1.04459E-05-2.78140E-19-4.80579E-19
 -1       799 9.48670E-05-2.78655E-05-2.87150E-05-1.21097E-05-2.12048E-19-4.33819E-19
 -1       800 9.69496E-05-3.08246E-05-2.83424E-05-1.37419E-05-9.36256E-19-6.66213E-19
 -1       801 1.01184E-04-3.59009E-05-2.79807E-05-1.50263E-05-5.94872E-19-1.39365E-18
 -1       802 1.08921E-04-4.35294E-05-2.79790E-05-1.49098E-05-2.21380E-18-4.64283E-19
 -1       803 1.00633E-04-3.52782E-05-2.80077E-05 1.49723E-05 7.06803E-19-1.69964E-18
 -1       804 9.66771E-05-3.04710E-05-2.83731E-05 1.37000E-05-9.61963E-19-3.03979E-19
 -1       805 9.47566E-05-2.76824E-05-2.87454E-05 1.20625E-05-9.48248E-19 4.35867E-19
 -1       806 9.40258E-05-2.63075E-05-2.90217E-05 1.04084E-05-1.47571E-18-8.42003E-19
 -1       807 9.39032E-05-2.58016E-05-2.91860E-05 8.85929E-06 4.22370E-19 3.37047E-19
 -1       808 9.40489E-05-2.57776E-05-2.92588E-05 7.44693E-06 2.36020E-18 5.90179E-19
 -1       809 9.42809E-05-2.59864E-05-2.92687E-05 6.18005E-06 6.52779E-19 1.62216E-18
 -1       810 9.45065E-05-2.62729E-05-2.92425E-05 5.05695E-06 7.71813E-19 6.90645E-19
 -1       811 9.46769E-05-2.65397E-05-2.92014E-05 4.06974E-06-7.10100E-19 6.16033E-19
 -1       812 9.45994E-05-2.65451E-05-2.91667E-05 3.48278E-06-8.24465E-19 1.54363E-18
 -1       813 1.28608E-04-4.74920E-05-3.48810E-05-7.09835E-06-8.00181E-19 1.49131E-19
 -1       814 8.94460E-05-4.08419E-05-2.06437E-05 3.13004E-05-1.81273E-18-1.87256E-18
 -1       815 9.18042E-05-2.43232E-05-2.89206E-05-2.92021E-07 7.05785E-19-1.95619E-20
 -1       816 5.10163E-05-1.26198E-05-1.61609E-05 6.59421E-06-4.32569E-18 1.47920E-18
 -1       817 9.56254E-05-2.83579E-05-2.88289E-05-1.33394E-06 3.78450E-19-8.25889E-19
 -1       818 5.17192E-05-1.49358E-05-1.54544E-05-1.54408E-05-3.07592E-18 2.35544E-18
 -1       819 9.35651E-05-2.58359E-05-2.90273E-05-3.19945E-06-8.73397E-19 2.37484E-18
 -1       820 9.57101E-05-2.68461E-05-2.95132E-05 5.98922E-07 1.00330E-18-7.57586E-19
 -1       821 9.27166E-05-2.51218E-05-2.89693E-05-2.51036E-06-1.17931E-18-6.45495E-19
 -1       822 1.07667E-04-4.24901E-05-2.79019E-05 1.51543E-05 1.19862E-18-1.18526E-18
 -1       823 1.18821E-04-5.13128E-05-2.88364E-05 1.18670E-05 1.07902E-19-2.02713E-18
 -1       824 1.22206E-04-1.58171E-05-4.63061E-05-2.12083E-06 1.77964E-18 1.82315E-18
 -1       825 9.53795E-05-2.83241E-05-2.87380E-05-1.97226E-06 6.38639E-19 3.91782E-21
 -1       826 1.23421E-04-5.40534E-05-2.97695E-05 8.91198E-06 3.89117E-19 2.53228E-19
 -1       827 9.54645E-05-2.84335E-05-2.87276E-05-1.77875E-06 4.91122E-19-7.83854E-19
 -1       828 9.50478E-05-2.36070E-05-3.06160E-05-2.59552E-06-5.77795E-19-1.97097E-18
 -1       829 9.57384E-05-2.76381E-05-2.91857E-05-3.45201E-07 6.63384E-19-8.87459E-19
 -1       830 9.56657E-05-2.54856E-05-3.00766E-05-1.48936E-06-6.15265E-19-1.79009E-18
 -1       831 5.01365E-05-1.80620E-05-1.33498E-05 2.26222E-05 1.91044E-18 1.65820E-18
 -1       832 7.68881E-05-3.06797E-05-1.96516E-05 2.84165E-05 8.02246E-19 1.34736E-18
 -1       833 5.04607E-05-1.27310E-05-1.58903E-05-7.83945E-06 1.18081E-18-1.48043E-18
 -1       834 1.08773E-04-4.91329E-05-2.54822E-05 2.18596E-05-4.76615E-19 4.67860E-19
 -1       835 9.56957E-05-2.81075E-05-2.89663E-05-9.51582E-07 4.09080E-19-8.27538E-19
 -1       836 9.52223E-05-2.44500E-05-3.03308E-05 3.39683E-06 1.72387E-18-5.77952E-19
 -1       837 1.16555E-04-1.31202E-05-4.47531E-05-6.73303E-06-2.23106E-18-2.56701E-18
 -1       838 1.30990E-04-5.22730E-05-3.37959E-05-4.39742E-06 4.35239E-19 7.76795E-19
 -1       839 1.18981E-04-5.45547E-05-2.75401E-05 1.75755E-05 3.57368E-19-2.20379E-18
 -1       840 8.89290E-05-3.90382E-05-2.12099E-05-2.95564E-05-1.67415E-18-3.83957E-18
 -1       841 9.32290E-05-1.97172E-05-3.15064E-05 1.21961E-06 9.91460E-19-2.11280E-18
 -1       842 9.21064E-05-2.45976E-05-2.89325E-05-1.50571E-06-4.22243E-19-1.35088E-18
 -1       843 5.21549E-05-1.36776E-05-1.62271E-05 1.10592E-05 2.96814E-18-3.88272E-19
 -1       844 6.49162E-05-2.36465E-05-1.74267E-05-2.54553E-05-1.39765E-18-2.94193E-18
 -1       845 9.31303E-05-1.95336E-05-3.15429E-05 2.11885E-08 6.53621E-19-2.09593E-18
 -1       846 9.05188E-05-3.94321E-05-2.17361E-05-2.90291E-05 1.46342E-18 1.30378E-18
 -1       847 1.28512E-04-5.22855E-05-3.27435E-05-2.78258E-07-7.96186E-20 4.93913E-19
 -1       848 9.46702E-05-2.25794E-05-3.08955E-05-2.08467E-06-3.13483E-19-2.12663E-18
 -1       849 1.23874E-04-3.53130E-05-3.81799E-05 1.34063E-05-1.04435E-18 6.42183E-19
 -1       850 6.60509E-05-2.23221E-05-1.85534E-05-2.29637E-05-1.14847E-18 7.53131E-19
 -1       851 1.21715E-04-3.72710E-05-3.63525E-05 1.28520E-05-3.70550E-19 1.19062E-18
 -1       852 9.35429E-05-2.03071E-05-3.13877E-05 2.33584E-06 1.39306E-18-1.90368E-18
 -1       853 9.43730E-05-2.18728E-05-3.10722E-05-1.34282E-06 1.26664E-19-1.80711E-18
 -1       854 9.18664E-05-2.43464E-05-2.89373E-05 9.98635E-07 5.17886E-19 2.05232E-18
 -1       855 5.83666E-05-1.67110E-05-1.76634E-05 1.55497E-05-3.09218E-18-7.31095E-20
 -1       856 9.40592E-05-2.13158E-05-3.11754E-05 3.28439E-06 1.59715E-18-1.52307E-18
 -1       857 9.23163E-05-2.46871E-05-2.89841E-05 2.19327E-06 1.80475E-19 1.46603E-18
 -1       858 6.51028E-05-2.30033E-05-1.77716E-05 2.49828E-05 1.55683E-18 2.29231E-18
 -1       859 9.50467E-05-3.94397E-05-2.37648E-05 2.44600E-05-9.38023E-20-2.52782E-19
 -1       860 9.29950E-05-2.52196E-05-2.90460E-05 2.96723E-06-4.96722E-20-2.18576E-18
 -1       861 9.55259E-05-2.58453E-05-2.98626E-05 1.77594E-06 1.49458E-18-6.22936E-19
 -1       862 9.41228E-05-2.63021E-05-2.90648E-05-3.52953E-06-2.66067E-18 1.15667E-18
 -1       863 9.55264E-05-2.46125E-05-3.03919E-05-1.34839E-06-4.16279E-19-1.94848E-18
 -1       864 9.62990E-05-2.76836E-05-2.94068E-05 4.85541E-07-1.06307E-19-9.02970E-19
 -1       865 9.62658E-05-2.81731E-05-2.91826E-05 9.24920E-07-1.81265E-19-6.09225E-19
 -1       866 9.61269E-05-2.83955E-05-2.90277E-05 1.22354E-06-1.66076E-19-7.22651E-19
 -1       867 9.59166E-05-2.84190E-05-2.89275E-05 1.44497E-06 2.75689E-19-9.81202E-19
 -1       868 9.56538E-05-2.82921E-05-2.88693E-05 1.64192E-06 6.98672E-21-1.02558E-18
 -1       869 9.53472E-05-2.80493E-05-2.88420E-05 1.85712E-06-2.95593E-19-1.17489E-18
 -1       870 9.49993E-05-2.77171E-05-2.88352E-05 2.12510E-06-4.39942E-19-9.76485E-19
 -1       871 9.46099E-05-2.73186E-05-2.88391E-05 2.47402E-06-5.81164E-19-1.13992E-18
 -1       872 9.41801E-05-2.68791E-05-2.88433E-05 2.92706E-06-5.16969E-19-8.46981E-19
 -1       873 9.37167E-05-2.64322E-05-2.88362E-05 3.50337E-06-1.06360E-18-1.18863E-18
 -1       874 9.32380E-05-2.60263E-05-2.88050E-05 4.22006E-06-9.21329E-19-1.81040E-18
 -1       875 9.27831E-05-2.57345E-05-2.87351E-05 5.09339E-06-9.45670E-19-1.03370E-18
 -1       876 9.24245E-05-2.56653E-05-2.86110E-05 6.13976E-06-4.26599E-19 2.56518E-19
 -1       877 9.22863E-05-2.59749E-05-2.84190E-05 7.37574E-06 2.62550E-20 1.07168E-18
 -1       878 9.25702E-05-2.68822E-05-2.81520E-05 8.81167E-06 5.74792E-19 5.12721E-19
 -1       879 9.35912E-05-2.86784E-05-2.78206E-05 1.04276E-05 1.07721E-18 1.13911E-18
 -1       880 9.58148E-05-3.17168E-05-2.74688E-05 1.20965E-05 1.27236E-18 1.25472E-18
 -1       881 9.98721E-05-3.63753E-05-2.72160E-05 1.35742E-05 3.48479E-19 1.68111E-18
 -1       882 1.06707E-04-4.28531E-05-2.73647E-05 1.39186E-05 3.75277E-19 1.84237E-18
 -1       883 1.11245E-04-4.61062E-05-2.78821E-05-1.23663E-05 2.07542E-18-1.22175E-20
 -1       884 1.03321E-04-3.94451E-05-2.73558E-05-1.34698E-05 3.01931E-20 1.47824E-18
 -1       885 9.80597E-05-3.40282E-05-2.74394E-05-1.26951E-05-6.36318E-19 4.62329E-19
 -1       886 9.49607E-05-3.02327E-05-2.77410E-05-1.12306E-05-8.63099E-19-4.27479E-19
 -1       887 9.33655E-05-2.78434E-05-2.80810E-05-9.64155E-06 5.15197E-19-5.93641E-19
 -1       888 9.27196E-05-2.64946E-05-2.83819E-05-8.15646E-06 8.90585E-19-1.78535E-18
 -1       889 9.26349E-05-2.58572E-05-2.86188E-05-6.83572E-06 1.68287E-18-1.50996E-18
 -1       890 9.28543E-05-2.56719E-05-2.87922E-05-5.68250E-06-2.67228E-19-9.72527E-19
 -1       891 9.32089E-05-2.57399E-05-2.89152E-05-4.68313E-06-1.62914E-18-3.47881E-19
 -1       892 9.50746E-05-2.77844E-05-2.88387E-05-2.20689E-06 2.18669E-19 5.96240E-19
 -1       893 9.37884E-05-2.63075E-05-2.89204E-05-3.59748E-06-1.40302E-19-8.20904E-20
 -1       894 9.31736E-05-2.56812E-05-2.89252E-05-4.32391E-06-2.30637E-19-3.76432E-19
 -1       895 9.24409E-05-2.50284E-05-2.88910E-05-5.20880E-06 2.51701E-19-2.35551E-20
 -1       896 9.15913E-05-2.44077E-05-2.87928E-05-6.27203E-06 1.37677E-19-2.77547E-19
 -1       897 9.06547E-05-2.39234E-05-2.85988E-05-7.54704E-06 2.89479E-19-1.37459E-20
 -1       898 8.97182E-05-2.37525E-05-2.82706E-05-9.09598E-06 6.20580E-19-5.26967E-19
 -1       899 8.89720E-05-2.41813E-05-2.77666E-05-1.10290E-05 3.74717E-19-1.41188E-18
 -1       900 8.87719E-05-2.56495E-05-2.70526E-05-1.35391E-05 5.47354E-20-2.05805E-18
 -1       901 8.99625E-05-2.89262E-05-2.61655E-05-1.67047E-05-8.18163E-19-2.97853E-18
 -1       902 9.33761E-05-3.47823E-05-2.50490E-05-2.07419E-05-1.32438E-18-2.42449E-18
 -1       903 9.60143E-05-2.83908E-05-2.89815E-05-1.28620E-06 4.89718E-19-9.70621E-19
 -1       904 8.91137E-05-2.41386E-05-2.78459E-05 1.09185E-05-5.81969E-19 2.06059E-19
 -1       905 8.88192E-05-2.54813E-05-2.71430E-05 1.33493E-05-1.61423E-18-1.60539E-20
 -1       906 8.97664E-05-2.85350E-05-2.62488E-05 1.65709E-05-1.35096E-18 4.79235E-20
 -1       907 8.99110E-05-2.37811E-05-2.83417E-05 9.03174E-06-1.01976E-18-1.34047E-18
 -1       908 9.08583E-05-2.39601E-05-2.86707E-05 7.51000E-06-3.98592E-20-1.06272E-18
 -1       909 9.17821E-05-2.44030E-05-2.88767E-05 6.23495E-06 1.13956E-18 1.44810E-18
 -1       910 9.26000E-05-2.49348E-05-2.89990E-05 5.14769E-06 4.35932E-19 9.02463E-19
 -1       911 9.32644E-05-2.54369E-05-2.90676E-05 4.20944E-06-2.89346E-20 9.69295E-19
 -1       912 9.37376E-05-2.06349E-05-3.13288E-05-7.82941E-07 3.87220E-19-1.89228E-18
 -1       913 1.14496E-04-4.83796E-05-2.82925E-05 1.13888E-05-1.82929E-19 3.12924E-19
 -1       914 7.93394E-05-2.98854E-05-2.10376E-05 2.57674E-05-3.72506E-19 5.72932E-19
 -1       915 1.20888E-04-5.34199E-05-2.89261E-05-1.14759E-05 5.34964E-19 4.51699E-19
 -1       916 9.60481E-05-2.68263E-05-2.96665E-05 2.74896E-07 9.78444E-19-9.62016E-19
 -1       917 9.53732E-05-2.81074E-05-2.88282E-05-1.93919E-06 4.29193E-19 1.54016E-20
 -1       918 6.48261E-05-1.81669E-05-1.98652E-05-1.56160E-05 1.80105E-19-2.19311E-18
 -1       919 9.25669E-05-2.51693E-05-2.88856E-05-3.52292E-06-3.04050E-20 3.25249E-19
 -1       920 9.32108E-05-3.43157E-05-2.52165E-05 2.05324E-05-4.54046E-19-7.70922E-19
 -1       921 9.42985E-05-2.68762E-05-2.88953E-05-3.01386E-06 5.62159E-19 2.85355E-19
 -1       922 9.47214E-05-2.73715E-05-2.88642E-05-2.55695E-06-9.64239E-20 3.66844E-19
 -1       923 7.47477E-05-2.49255E-05-2.12673E-05 2.15038E-05 1.67020E-18 2.64943E-19
 -1       924 9.61293E-05-2.81571E-05-2.91309E-05-9.57530E-07 3.87422E-19-9.68383E-19
 -1       925 6.36833E-05-1.68545E-05-1.99676E-05 1.31196E-05 2.07482E-18 5.02138E-19
 -1       926 5.90750E-05-1.40330E-05-1.91815E-05-5.48556E-06-2.25264E-18 1.59970E-19
 -1       927 5.81556E-05-1.32287E-05-1.91305E-05 2.09805E-07 1.97581E-18 5.67221E-19
 -1       928 9.61587E-05-2.76675E-05-2.93533E-05-4.64323E-07 5.79577E-19-1.11903E-18
 -1       929 9.61662E-05-2.68212E-05-2.97196E-05-1.68658E-07-5.33005E-19-1.33011E-18
 -1       930 9.37866E-05-2.58584E-05-2.91119E-05 3.36079E-06 4.77890E-19 2.94216E-19
 -1       931 7.90401E-05-2.67314E-05-2.22919E-05-2.15802E-05-6.28411E-19-3.18531E-18
 -1       932 8.09150E-05-3.01525E-05-2.16622E-05-2.44650E-05 2.77949E-20-5.38677E-19
 -1       933 9.53806E-05-2.46423E-05-3.03172E-05 2.28480E-06 1.49145E-18-1.08231E-18
 -1       934 6.61190E-05-1.76446E-05-2.06976E-05-1.28754E-05-1.10000E-18-2.49865E-19
 -1       935 9.46982E-05-2.25241E-05-3.09321E-05 1.17791E-06 9.27338E-19-1.80975E-18
 -1       936 9.37184E-05-2.60359E-05-2.90060E-05-4.08058E-06-8.56404E-19 1.55558E-19
 -1       937 9.15501E-05-2.43758E-05-2.87886E-05-2.52002E-06-1.33535E-18-1.51204E-18
 -1       938 9.07142E-05-2.36604E-05-2.87374E-05 3.43255E-07 3.63888E-19 9.87303E-19
 -1       939 9.10380E-05-2.38548E-05-2.87927E-05 1.88603E-06 9.66296E-19 1.11819E-18
 -1       940 9.93638E-05-4.09652E-05-2.49657E-05 2.25159E-05 5.60620E-19-2.14762E-18
 -1       941 9.57053E-05-2.54882E-05-3.00951E-05 1.35369E-06 1.25242E-18-1.07011E-18
 -1       942 9.56276E-05-2.83297E-05-2.88420E-05-1.72350E-06 9.02539E-20-1.07981E-19
 -1       943 9.59476E-05-2.58695E-05-3.00340E-05-7.35369E-07-5.50567E-19-1.56670E-18
 -1       944 9.53523E-05-2.39566E-05-3.05984E-05-9.81237E-07 2.63418E-19-1.62976E-18
 -1       945 9.58424E-05-2.84337E-05-2.88894E-05-1.52171E-06 2.10692E-19-5.95117E-19
 -1       946 9.45387E-05-2.21588E-05-3.10185E-05 4.22610E-07 7.45336E-19-2.01499E-18
 -1       947 9.17484E-05-2.43468E-05-2.88870E-05 3.01180E-06 1.33960E-18 7.01725E-19
 -1       948 5.95476E-05-1.37246E-05-1.95161E-05 3.02093E-06-2.53042E-18 2.05608E-18
 -1       949 1.04716E-04-4.53144E-05-2.54056E-05-2.11876E-05 2.39726E-18 9.80143E-20
 -1       950 9.09122E-05-2.38565E-05-2.87385E-05-1.18499E-06-6.01691E-19-1.38350E-18
 -1       951 9.01598E-05-2.35671E-05-2.85398E-05-4.61853E-06 9.45947E-20-1.30485E-18
 -1       952 9.64425E-05-2.82146E-05-2.92405E-05 8.12818E-07-1.37554E-19-1.85731E-19
 -1       953 9.62299E-05-2.83626E-05-2.90860E-05 1.03237E-06 9.94991E-20 1.15927E-20
 -1       954 9.59177E-05-2.82972E-05-2.89802E-05 1.21146E-06 5.89665E-20-1.31767E-19
 -1       955 9.55256E-05-2.80667E-05-2.89110E-05 1.38806E-06-3.83468E-20-1.48278E-19
 -1       956 9.50613E-05-2.77057E-05-2.88667E-05 1.59418E-06-5.29192E-19-2.64712E-19
 -1       957 9.45252E-05-2.72412E-05-2.88360E-05 1.85745E-06-5.47852E-19-5.21721E-19
 -1       958 9.39135E-05-2.66976E-05-2.88068E-05 2.20263E-06-3.68928E-19-2.43235E-19
 -1       959 9.32238E-05-2.61037E-05-2.87658E-05 2.65316E-06-8.38773E-19-4.00762E-19
 -1       960 9.24567E-05-2.54951E-05-2.86980E-05 3.23348E-06-1.30155E-18-8.45921E-20
 -1       961 9.16249E-05-2.49249E-05-2.85859E-05 3.97449E-06-5.01297E-19-1.35717E-20
 -1       962 9.07601E-05-2.44719E-05-2.84095E-05 4.91596E-06 6.97626E-19 1.34110E-19
 -1       963 8.99241E-05-2.42496E-05-2.81464E-05 6.11472E-06 3.28103E-19 1.40462E-18
 -1       964 8.92294E-05-2.44231E-05-2.77743E-05 7.65334E-06-1.59042E-19 1.48772E-18
 -1       965 8.88730E-05-2.52304E-05-2.72765E-05 9.64378E-06 9.23869E-19 8.37967E-19
 -1       966 8.91953E-05-2.70197E-05-2.66540E-05 1.22006E-05 1.09802E-18 4.21568E-19
 -1       967 9.09270E-05-3.03678E-05-2.59317E-05 1.54142E-05 1.57869E-18 3.02485E-19
 -1       968 9.49764E-05-2.32069E-05-3.07582E-05 1.83157E-06 1.11142E-18-1.58291E-18
 -1       969 9.30478E-05-3.30549E-05-2.57019E-05-1.70609E-05-5.18774E-19-9.14470E-19
 -1       970 9.03983E-05-2.87679E-05-2.64166E-05-1.37051E-05-6.77044E-19-1.11498E-18
 -1       971 8.94470E-05-2.62600E-05-2.70812E-05-1.09097E-05 4.09586E-19-6.81490E-19
 -1       972 8.94465E-05-2.49551E-05-2.76391E-05-8.69931E-06-3.28982E-19 1.07542E-19
 -1       973 8.99437E-05-2.44267E-05-2.80786E-05-6.96860E-06 6.81036E-19 5.14459E-19
 -1       974 9.06771E-05-2.43862E-05-2.84099E-05-5.60754E-06 9.27584E-19-1.15519E-18
 -1       975 9.14516E-05-2.45983E-05-2.86511E-05-4.51967E-06-3.87473E-19-2.97296E-19
 -1       976 9.24511E-05-2.52914E-05-2.87828E-05-3.23385E-06 2.47200E-19-4.71541E-19
 -1       977 8.86780E-05-2.26979E-05-2.82773E-05-5.54115E-06-3.51855E-20-9.84553E-19
 -1       978 8.69469E-05-2.19329E-05-2.78632E-05-6.69876E-06 7.28610E-19-1.02999E-18
 -1       979 8.49750E-05-2.14186E-05-2.72381E-05-8.22755E-06 8.32509E-19-8.76926E-19
 -1       980 8.28083E-05-2.13823E-05-2.63252E-05-1.03942E-05 2.44586E-19-5.15997E-19
 -1       981 8.07843E-05-2.21879E-05-2.51034E-05-1.36753E-05 5.64335E-19-8.97393E-19
 -1       982 8.53410E-05-2.15149E-05-2.73564E-05 8.12192E-06-6.90934E-19 1.06001E-18
 -1       983 8.10900E-05-2.22131E-05-2.52267E-05 1.33221E-05-1.38960E-18 1.02086E-18
 -1       984 8.90027E-05-2.27585E-05-2.83905E-05 5.51712E-06-9.54514E-19 1.21688E-18
 -1       985 9.04441E-05-2.35412E-05-2.86725E-05 4.58407E-06 1.19327E-18 5.94278E-19
 -1       986 8.95167E-05-2.29398E-05-2.85336E-05 1.22995E-06 5.80576E-19 1.91364E-18
 -1       987 8.82699E-05-3.11809E-05-2.44533E-05 1.95120E-05 7.48880E-19-6.38146E-19
 -1       988 9.59261E-05-2.56296E-05-3.01241E-05 7.60825E-07 9.13815E-19-1.31662E-18
 -1       989 7.30130E-05-2.15156E-05-2.19932E-05 1.77063E-05-1.63088E-18 6.30209E-19
 -1       990 9.61937E-05-2.83725E-05-2.90662E-05-1.13980E-06 2.23901E-19-7.66630E-19
 -1       991 9.14086E-05-2.44499E-05-2.86966E-05-3.86066E-06 6.47936E-20-1.25111E-18
 -1       992 9.33173E-05-2.60594E-05-2.88248E-05-2.72012E-06 4.29583E-19 3.41905E-19
 -1       993 9.63767E-05-2.81989E-05-2.92190E-05-8.86550E-07 3.08959E-19-8.89696E-19
 -1       994 9.51443E-05-2.77811E-05-2.88700E-05-1.72620E-06-1.02714E-20-2.29356E-19
 -1       995 9.64047E-05-2.69882E-05-2.97500E-05 6.71263E-08 7.75578E-20-2.45291E-19
 -1       996 7.40045E-05-2.07407E-05-2.28122E-05 1.44193E-05 6.15557E-19 2.61856E-19
 -1       997 9.64342E-05-2.77495E-05-2.94364E-05-5.26102E-07 3.28834E-19-8.21464E-19
 -1       998 8.31637E-05-2.14155E-05-2.64663E-05 1.02254E-05-6.53874E-19 6.04827E-19
 -1       999 6.75675E-05-1.60211E-05-2.20677E-05-7.37066E-06 1.39983E-18 2.46401E-20
 -1      1000 9.63282E-05-2.69596E-05-2.97315E-05 1.33911E-08 8.49369E-19-8.69276E-19
 -1      1001 6.60471E-05-1.53303E-05-2.17036E-05 4.91410E-06 1.32820E-18 1.19908E-19
 -1      1002 9.74763E-05-3.83754E-05-2.53092E-05-1.96760E-05 1.75658E-18-3.06784E-19
 -1      1003 9.65203E-05-2.77885E-05-2.94566E-05 5.07568E-07-3.70053E-20-3.40706E-19
 -1      1004 8.72990E-05-2.20356E-05-2.79712E-05 6.65713E-06-3.09957E-19 1.36066E-18
 -1      1005 6.66936E-05-1.52183E-05-2.20139E-05-1.99890E-06-3.27296E-19-9.06294E-19
 -1      1006 9.01788E-05-2.33380E-05-2.86444E-05 2.73054E-06 1.13051E-18-8.36759E-19
 -1      1007 7.56961E-05-2.30885E-05-2.25141E-05-1.73269E-05-2.49431E-18 2.88623E-19
 -1      1008 9.59192E-05-2.83339E-05-2.89651E-05-1.33684E-06-1.28370E-19-7.47034E-19
 -1      1009 9.16291E-05-2.42907E-05-2.88624E-05 3.79479E-06 1.86378E-18-5.40860E-19
 -1      1010 9.61866E-05-2.61271E-05-3.00255E-05-3.04213E-07 2.34883E-19-8.92034E-19
 -1      1011 9.55685E-05-2.81272E-05-2.89034E-05-1.52064E-06 1.16969E-19-6.40906E-19
 -1      1012 9.49414E-05-2.29366E-05-3.08588E-05-1.70477E-07 5.25270E-19-1.68722E-18
 -1      1013 9.58487E-05-2.51557E-05-3.02968E-05-6.44546E-07 2.10197E-19-1.21078E-18
 -1      1014 9.46395E-05-2.73142E-05-2.88536E-05-1.98133E-06 3.56442E-19-6.88868E-20
 -1      1015 9.40381E-05-2.67377E-05-2.88430E-05-2.30692E-06 1.02883E-19-2.55927E-19
 -1      1016 9.59026E-05-2.51713E-05-3.03145E-05 5.41014E-07 7.16990E-19-1.50529E-18
 -1      1017 9.58278E-05-2.48328E-05-3.04235E-05 2.51252E-07 6.03682E-19-1.83321E-18
 -1      1018 8.94934E-05-2.29966E-05-2.84992E-05-6.42724E-07 1.05059E-18-1.57299E-18
 -1      1019 9.02153E-05-3.50422E-05-2.36046E-05-2.28657E-05 1.41638E-18 1.47200E-19
 -1      1020 9.51274E-05-2.33671E-05-3.07541E-05-6.33676E-07 4.05666E-19-1.58434E-18
 -1      1021 7.33438E-05-1.86668E-05-2.34226E-05-9.79257E-06-1.28990E-18 9.44575E-19
 -1      1022 9.64804E-05-2.82451E-05-2.92439E-05 5.93930E-07-1.02990E-19-9.03146E-19
 -1      1023 8.57952E-05-2.11172E-05-2.77201E-05-3.90243E-06 2.05635E-19-6.92472E-19
 -1      1024 8.31405E-05-2.46733E-05-2.50395E-05 1.40645E-05 9.65850E-19-9.84598E-20
 -1      1025 9.61796E-05-2.82884E-05-2.90962E-05 7.30657E-07 6.03466E-21-9.21235E-19
 -1      1026 9.57635E-05-2.81174E-05-2.89912E-05 8.54753E-07 3.04161E-20-6.92989E-19
 -1      1027 9.52479E-05-2.77765E-05-2.89165E-05 9.89863E-07 1.45943E-20-4.36543E-19
 -1      1028 9.46345E-05-2.72954E-05-2.88598E-05 1.15924E-06-4.30652E-19 2.70763E-19
 -1      1029 9.39222E-05-2.67027E-05-2.88085E-05 1.38155E-06-7.42690E-19-3.62344E-21
 -1      1030 9.30960E-05-2.60167E-05-2.87483E-05 1.68003E-06-5.07179E-19-2.39377E-19
 -1      1031 9.21519E-05-2.52733E-05-2.86626E-05 2.07464E-06-6.66864E-19-2.98052E-19
 -1      1032 9.10709E-05-2.44956E-05-2.85328E-05 2.60176E-06-6.86232E-19 8.33815E-19
 -1      1033 8.98563E-05-2.37411E-05-2.83357E-05 3.30104E-06 1.63039E-19 1.50628E-18
 -1      1034 8.85086E-05-2.30756E-05-2.80435E-05 4.23475E-06 6.44533E-19 9.48024E-19
 -1      1035 8.70454E-05-2.25947E-05-2.76225E-05 5.49901E-06 3.23605E-19 3.62809E-19
 -1      1036 8.55006E-05-2.24289E-05-2.70317E-05 7.24943E-06 6.51540E-19 1.02971E-18
 -1      1037 8.40110E-05-2.27964E-05-2.62394E-05 9.74994E-06 3.87976E-19 4.75224E-19
 -1      1038 8.31755E-05-2.56342E-05-2.46483E-05-1.55985E-05-9.80381E-19-2.71772E-18
 -1      1039 9.65806E-05-2.72396E-05-2.97176E-05 1.68764E-07 9.10180E-20-9.54581E-19
 -1      1040 8.39779E-05-2.36615E-05-2.58546E-05-1.14916E-05 3.90754E-19-1.41824E-18
 -1      1041 8.52634E-05-2.28265E-05-2.67597E-05-8.54677E-06 7.96634E-19-1.45640E-18
 -1      1042 8.67223E-05-2.26628E-05-2.74541E-05-6.47873E-06 1.26927E-18-4.06249E-19
 -1      1043 8.81718E-05-2.29110E-05-2.79684E-05-4.98168E-06 5.65895E-22-9.22640E-19
 -1      1044 8.95050E-05-2.33758E-05-2.83429E-05-3.88382E-06-1.89707E-20-6.13249E-19
 -1      1045 8.32165E-05-2.00418E-05-2.70762E-05-4.67632E-06 4.76086E-19 5.07209E-19
 -1      1046 8.78951E-05-2.22123E-05-2.81504E-05-3.31172E-06-8.35661E-20-6.18123E-19
 -1      1047 8.00351E-05-1.90791E-05-2.61258E-05-5.79127E-06 3.97363E-19 4.29676E-19
 -1      1048 7.60231E-05-1.82519E-05-2.47511E-05-7.49397E-06 7.11894E-19-5.33680E-19
 -1      1049 8.96240E-05-2.32844E-05-2.84317E-05-2.82458E-06 3.45597E-19 1.55572E-19
 -1      1050 8.82679E-05-2.22420E-05-2.82963E-05 3.30070E-06 1.25140E-18-4.62706E-19
 -1      1051 9.66337E-05-2.79260E-05-2.94463E-05 4.16021E-07-8.42324E-20-8.02129E-19
 -1      1052 7.63512E-05-1.82216E-05-2.49063E-05 7.27287E-06-7.05992E-19 8.65177E-19
 -1      1053 9.22457E-05-2.52330E-05-2.87200E-05-2.05789E-06 5.01078E-19-4.78938E-19
 -1      1054 9.64725E-05-2.82325E-05-2.92458E-05-7.13086E-07 4.01832E-19-1.30267E-18
 -1      1055 9.10557E-05-2.42996E-05-2.86100E-05-2.41010E-06 4.56566E-19-1.38110E-20
 -1      1056 9.00721E-05-2.34769E-05-2.85399E-05-2.38266E-06-2.77687E-19-3.27586E-18
 -1      1057 8.07088E-05-1.93114E-05-2.62837E-05 5.74916E-06-5.81861E-19 9.18445E-19
 -1      1058 7.36947E-05-1.79373E-05-2.39026E-05 7.32519E-06 6.10549E-19-3.65101E-20
 -1      1059 7.11770E-05-1.61510E-05-2.35674E-05-1.19027E-06 8.88935E-19 4.58086E-19
 -1      1060 9.66032E-05-2.78853E-05-2.94516E-05-4.77158E-07 3.80784E-19-1.30563E-18
 -1      1061 9.64241E-05-2.65319E-05-2.99558E-05-5.10109E-08 4.76621E-19-1.28779E-18
 -1      1062 9.62043E-05-2.83121E-05-2.90966E-05-8.81498E-07-7.71078E-20-9.30050E-19
 -1      1063 7.10493E-05-1.70389E-05-2.31300E-05 8.22231E-06-2.23890E-18 4.55796E-19
 -1      1064 8.55177E-05-2.94361E-05-2.40213E-05-1.92801E-05-2.43531E-18-1.66960E-18
 -1      1065 9.65159E-05-2.71411E-05-2.97281E-05-1.59418E-07 6.01685E-19-1.35750E-18
 -1      1066 9.53412E-05-2.78558E-05-2.89225E-05-1.16199E-06-2.33257E-19-7.47902E-19
 -1      1067 9.56927E-05-2.46288E-05-3.04564E-05-4.84815E-07 4.81380E-19-1.27020E-18
 -1      1068 9.32354E-05-2.60650E-05-2.87875E-05-1.76075E-06 1.40227E-19-1.26513E-19
 -1      1069 7.35097E-05-1.68679E-05-2.42570E-05-2.28945E-06-1.85508E-19-6.96755E-19
 -1      1070 8.36430E-05-2.01749E-05-2.72064E-05 4.76489E-06 2.18862E-19-2.49810E-19
 -1      1071 8.62267E-05-2.12288E-05-2.78548E-05 3.94533E-06-1.14644E-18 5.12192E-19
 -1      1072 9.66134E-05-2.70213E-05-2.98272E-05-6.36020E-08 4.94387E-19-1.66420E-18
 -1      1073 8.78746E-05-2.20599E-05-2.82057E-05 1.77485E-07-8.38724E-20-3.86184E-19
 -1      1074 9.47578E-05-2.73868E-05-2.88733E-05-1.32274E-06 5.02696E-20-6.23656E-19
 -1      1075 8.33389E-05-1.99482E-05-2.71690E-05-1.23756E-06-2.35097E-19 8.15436E-19
 -1      1076 8.00291E-05-1.86374E-05-2.63057E-05-1.17413E-06 7.39166E-19 5.99052E-19
 -1      1077 9.60122E-05-2.81805E-05-2.90706E-05 3.19224E-07 1.76978E-19-5.27069E-19
 -1      1078 9.55033E-05-2.79002E-05-2.89723E-05 3.81968E-07-5.19471E-20-6.08387E-19
 -1      1079 9.48737E-05-2.74446E-05-2.88979E-05 4.57896E-07-2.70063E-19-1.09040E-18
 -1      1080 9.41308E-05-2.68536E-05-2.88330E-05 5.58122E-07-5.51602E-19-8.50004E-19
 -1      1081 9.32714E-05-2.61508E-05-2.87654E-05 6.96608E-07-5.89582E-19-2.86960E-19
 -1      1082 9.22563E-05-2.53396E-05-2.86767E-05 9.06418E-07-3.59766E-19 4.54530E-19
 -1      1083 9.10486E-05-2.44367E-05-2.85471E-05 1.19276E-06-1.44289E-19 5.61359E-19
 -1      1084 8.96604E-05-2.34972E-05-2.83549E-05 1.58809E-06-7.00725E-22 1.19451E-18
 -1      1085 8.80384E-05-2.25408E-05-2.80693E-05 2.14822E-06 2.65613E-19 8.99997E-19
 -1      1086 8.61394E-05-2.16142E-05-2.76522E-05 2.94235E-06 2.53594E-19 1.28851E-18
 -1      1087 8.39005E-05-2.07739E-05-2.70537E-05 4.07815E-06 8.04216E-19 3.34816E-19
 -1      1088 8.13005E-05-2.01171E-05-2.62289E-05 5.73050E-06 5.34992E-19-7.29929E-20
 -1      1089 7.82521E-05-1.81374E-05-2.57724E-05-1.25430E-06 1.43064E-19-1.46561E-18
 -1      1090 8.03967E-05-2.02228E-05-2.57913E-05-7.07357E-06 1.30640E-18-5.73248E-19
 -1      1091 8.30893E-05-2.06046E-05-2.67710E-05-4.99499E-06 2.33657E-19-1.14238E-18
 -1      1092 8.55388E-05-2.13655E-05-2.75028E-05-3.57568E-06-1.22554E-18-2.95925E-18
 -1      1093 8.75370E-05-2.21573E-05-2.80205E-05-2.63768E-06 4.27832E-19-4.43934E-18
 -1      1094 7.61569E-05-1.73773E-05-2.51753E-05-1.15572E-06 6.76563E-19 2.12000E-19
 -1      1095 8.59349E-05-2.11697E-05-2.77578E-05-1.23965E-06 1.42120E-19 1.19216E-18
 -1      1096 8.80404E-05-2.23432E-05-2.81568E-05-1.19571E-06 2.51585E-19 1.26541E-18
 -1      1097 8.97748E-05-2.34565E-05-2.84228E-05-1.11895E-06-1.79624E-19 7.17850E-19
 -1      1098 9.59858E-05-2.51975E-05-3.03377E-05-8.41495E-08 6.34067E-19-1.46785E-18
 -1      1099 9.66991E-05-2.75505E-05-2.96361E-05 1.15325E-07 1.75227E-20-1.48858E-18
 -1      1100 9.63974E-05-2.82468E-05-2.92072E-05 2.64030E-07 1.73794E-19-9.62025E-19
 -1      1101 9.40635E-05-2.67869E-05-2.88329E-05-1.51951E-06 3.47040E-19-3.06899E-19
 -1      1102 8.84846E-05-2.25110E-05-2.82745E-05-1.52749E-06 2.06491E-19-4.71526E-18
 -1      1103 9.61130E-05-2.56643E-05-3.01908E-05-2.37346E-07 5.71360E-19-1.13604E-18
 -1      1104 9.58224E-05-2.81723E-05-2.89930E-05-1.02215E-06-1.76008E-19-9.03730E-19
 -1      1105 9.12258E-05-2.44967E-05-2.85982E-05-1.01393E-06 7.91720E-20-5.42707E-20
 -1      1106 9.66428E-05-2.80604E-05-2.93920E-05 2.03343E-07-2.48927E-19-1.21040E-18
 -1      1107 9.66550E-05-2.80130E-05-2.94173E-05-3.11887E-07 1.64759E-19-1.31835E-18
 -1      1108 9.56017E-05-2.79701E-05-2.89843E-05-5.78887E-07-2.98724E-19-9.84508E-19
 -1      1109 9.65789E-05-2.69488E-05-2.98379E-05 2.85395E-08 2.87794E-19-1.46385E-18
 -1      1110 8.65383E-05-2.14467E-05-2.78939E-05-7.58519E-07 2.54488E-19-1.58716E-18
 -1      1111 9.24561E-05-2.54519E-05-2.87145E-05-9.18510E-07 1.76584E-19-6.56125E-19
 -1      1112 8.59197E-05-2.10372E-05-2.78089E-05 1.49387E-06 6.47998E-19-9.80155E-19
 -1      1113 9.64445E-05-2.82481E-05-2.92272E-05-4.23281E-07 1.52884E-19-1.00619E-18
 -1      1114 9.50085E-05-2.75515E-05-2.89105E-05-6.44463E-07-1.91184E-19-1.24681E-18
 -1      1115 9.57662E-05-2.80526E-05-2.90205E-05-1.85522E-07 5.22111E-20-1.12793E-18
 -1      1116 9.42876E-05-2.69700E-05-2.88505E-05-7.26380E-07 2.05361E-19-8.20662E-19
 -1      1117 9.26718E-05-2.56592E-05-2.87239E-05-1.99245E-07-2.57771E-19 2.04807E-19
 -1      1118 9.62229E-05-2.82356E-05-2.91378E-05-1.67920E-07 1.71655E-19-9.38593E-19
 -1      1119 8.26626E-05-1.96742E-05-2.69946E-05 5.57815E-07-2.03631E-18-6.67547E-19
 -1      1120 8.38114E-05-2.03508E-05-2.72112E-05-1.78450E-06-1.29784E-18-3.09996E-18
 -1      1121 9.34347E-05-2.62591E-05-2.87892E-05-8.22044E-07 2.36337E-19-6.73020E-19
 -1      1122 9.60833E-05-2.82192E-05-2.90845E-05-5.08012E-07 9.31673E-20-1.03502E-18
 -1      1123 1.16773E-04 2.57326E-10-4.18255E-05-4.14535E-05-3.39660E-19 7.94665E-18
 -1      1124 8.85975E-05 7.18417E-11-3.72298E-05-2.41758E-05-1.67713E-19-3.23990E-20
 -1      1125 8.40510E-05 4.14306E-11-3.57554E-05-1.78923E-05-1.02438E-19-3.20374E-18
 -1      1126 8.23304E-05 3.20327E-11-3.50708E-05-1.38504E-05-5.95835E-20-4.57438E-18
 -1      1127 8.15470E-05 2.73418E-11-3.47447E-05-1.05463E-05-3.63959E-20-5.15357E-18
 -1      1128 8.11610E-05 2.46304E-11-3.45861E-05-7.65082E-06-1.17327E-20-5.29330E-18
 -1      1129 8.09639E-05 2.29747E-11-3.45077E-05-4.98631E-06-3.76202E-21-5.18227E-18
 -1      1130 8.08689E-05 2.20775E-11-3.44715E-05-2.43521E-06 1.23465E-20-5.00717E-18
 -1      1131 8.08422E-05 2.18052E-11-3.44615E-05 5.26311E-08 2.53092E-20-4.84774E-18
 -1      1132 8.08731E-05 2.21199E-11-3.44730E-05 2.54288E-06 3.69650E-20-4.70519E-18
 -1      1133 8.09726E-05 2.30718E-11-3.45107E-05 5.10197E-06 5.15929E-20-4.33732E-18
 -1      1134 8.11770E-05 2.47889E-11-3.45905E-05 7.78230E-06 6.78685E-20-3.77120E-18
 -1      1135 8.15698E-05 2.76578E-11-3.47511E-05 1.07061E-05 7.80594E-20-2.90895E-18
 -1      1136 8.23541E-05 3.25034E-11-3.50806E-05 1.40574E-05 9.98440E-20-1.52696E-18
 -1      1137 8.40460E-05 4.19004E-11-3.57751E-05 1.81432E-05 1.31078E-19 8.47496E-19
 -1      1138 8.82953E-05 6.66668E-11-3.72999E-05 2.40181E-05 1.24831E-19 4.97235E-18
 -1      1139 1.06540E-04 1.63749E-10-4.06044E-05 3.61848E-05 2.15358E-19 1.29242E-17
 -1      1140 1.30117E-04-2.57325E-05-4.02410E-05-2.60969E-05-1.27976E-18 1.29240E-17
 -1      1141 9.73489E-05-2.88303E-05-3.15445E-05-6.82156E-07-4.04432E-19 9.81679E-18
 -1      1142 9.00417E-05-2.69914E-05-2.78576E-05 3.86150E-07-1.33064E-19 5.92248E-18
 -1      1143 8.81223E-05-2.65344E-05-2.66056E-05 2.49751E-07-1.00158E-19 3.27720E-18
 -1      1144 8.77555E-05-2.64055E-05-2.63470E-05 1.64402E-07-7.36671E-20 1.28892E-18
 -1      1145 8.81101E-05-2.64810E-05-2.64309E-05 1.16501E-07-9.05721E-20 1.21814E-19
 -1      1146 8.88001E-05-2.66669E-05-2.66350E-05 8.56706E-08-7.52805E-20-8.84739E-19
 -1      1147 8.96312E-05-2.69042E-05-2.68830E-05 6.42288E-08-3.86692E-20-2.00184E-18
 -1      1148 9.05006E-05-2.71583E-05-2.71431E-05 4.84297E-08 2.54513E-21-2.52665E-18
 -1      1149 9.13564E-05-2.74115E-05-2.74001E-05 3.64591E-08-7.22002E-20-3.55328E-18
 -1      1150 9.21792E-05-2.76568E-05-2.76483E-05 2.74064E-08-3.04847E-20-4.67152E-18
 -1      1151 9.29719E-05-2.78944E-05-2.78885E-05 2.08212E-08 1.38614E-19-4.43825E-18
 -1      1152 9.37541E-05-2.81297E-05-2.81265E-05 1.65089E-08 3.69336E-20-4.51308E-18
 -1      1153 9.45577E-05-2.83721E-05-2.83715E-05 1.44456E-08-1.03149E-19-4.77660E-18
 -1      1154 9.54250E-05-2.86340E-05-2.86363E-05 1.47411E-08 4.55371E-20-4.77672E-18
 -1      1155 9.64050E-05-2.89299E-05-2.89353E-05 1.76128E-08 4.38708E-20-3.93250E-18
 -1      1156 9.75513E-05-2.92754E-05-2.92842E-05 2.33429E-08 2.01538E-20-4.76031E-18
 -1      1157 9.89165E-05-2.96861E-05-2.96982E-05 3.21853E-08-6.21308E-20-4.75835E-18
 -1      1158 1.00544E-04-3.01744E-05-3.01892E-05 4.41750E-08-1.28201E-20-5.47965E-18
 -1      1159 1.02456E-04-3.07460E-05-3.07618E-05 5.87665E-08-1.83654E-19-6.00017E-18
 -1      1160 1.04629E-04-3.13935E-05-3.14063E-05 7.42102E-08-9.75531E-20-7.44586E-18
 -1      1161 1.06970E-04-3.20875E-05-3.20906E-05 8.66051E-08-1.30195E-19-6.39744E-18
 -1      1162 1.09273E-04-3.27659E-05-3.27485E-05 8.87426E-08-9.91417E-20-5.66334E-18
 -1      1163 1.11182E-04-3.33224E-05-3.32716E-05 6.93421E-08-3.88135E-19-7.62577E-18
 -1      1164 1.12179E-04-3.36038E-05-3.35088E-05 1.42543E-08 1.99820E-19-8.41483E-18
 -1      1165 1.11636E-04-3.34263E-05-3.32887E-05-8.78688E-08 1.74896E-19-7.55761E-18
 -1      1166 1.08990E-04-3.26286E-05-3.24746E-05-2.33338E-07 1.97484E-19-6.31286E-18
 -1      1167 1.04065E-04-3.11680E-05-3.10536E-05-3.87684E-07-3.69783E-20-7.30439E-18
 -1      1168 9.74615E-05-2.92305E-05-2.92232E-05-4.81179E-07 1.19818E-19-7.90186E-18
 -1      1169 9.07242E-05-2.72705E-05-2.74098E-05-4.36234E-07 1.33437E-19-7.25690E-18
 -1      1170 8.59680E-05-2.58958E-05-2.61545E-05-2.25999E-07 2.25390E-20-5.26423E-18
 -1      1171 8.49349E-05-2.55980E-05-2.58838E-05 8.15866E-08-2.41530E-19-5.92386E-18
 -1      1172 8.80235E-05-2.64887E-05-2.66936E-05 3.53023E-07-3.23626E-20-7.78360E-18
 -1      1173 9.40499E-05-2.82356E-05-2.82974E-05 4.80132E-07 7.34851E-20-8.24354E-18
 -1      1174 1.00940E-04-3.02483E-05-3.01775E-05 4.45401E-07 2.38920E-19-7.56146E-18
 -1      1175 1.06784E-04-3.19715E-05-3.18278E-05 3.09862E-07 3.41659E-19-7.14938E-18
 -1      1176 1.10515E-04-3.30858E-05-3.29346E-05 1.53079E-07 7.52933E-20-7.02119E-18
 -1      1177 1.11976E-04-3.35348E-05-3.34171E-05 2.75082E-08 1.80583E-19-3.53679E-18
 -1      1178 1.11590E-04-3.34361E-05-3.33640E-05-5.00206E-08-6.96933E-20-1.53758E-18
 -1      1179 1.09985E-04-3.29721E-05-3.29394E-05-8.55407E-08 2.25803E-19-6.36439E-19
 -1      1180 1.07747E-04-3.23150E-05-3.23088E-05-9.29867E-08 1.34347E-20-6.29226E-19
 -1      1181 1.05311E-04-3.15948E-05-3.16030E-05-8.53724E-08-7.31102E-19-5.03693E-18
 -1      1182 1.02956E-04-3.08953E-05-3.09094E-05-7.17800E-08-5.09502E-21-6.74373E-18
 -1      1183 1.00836E-04-3.02630E-05-3.02783E-05-5.73931E-08 8.69119E-21-4.08791E-18
 -1      1184 9.90188E-05-2.97198E-05-2.97345E-05-4.44592E-08 1.68729E-19-1.48703E-18
 -1      1185 9.75296E-05-2.92736E-05-2.92886E-05-3.30993E-08 8.60202E-20 2.64274E-19
 -1      1186 9.63786E-05-2.89280E-05-2.89459E-05-2.15360E-08 1.26525E-19-5.27890E-19
 -1      1187 9.55856E-05-2.86893E-05-2.87110E-05-5.32516E-09 4.11840E-19 2.78585E-19
 -1      1188 9.51995E-05-2.85811E-05-2.85813E-05 2.47279E-08-1.88171E-19-9.52462E-19
 -1      1189 9.51629E-05-2.85475E-05-2.85176E-05 2.53466E-08 5.20097E-19 1.28048E-20
 -1      1190 1.30951E-04-3.77088E-05-3.86271E-05 1.21702E-05-2.33278E-19 1.92154E-17
 -1      1191 9.64501E-05-2.81570E-05-3.12970E-05 8.02139E-07 9.67470E-20 1.64889E-17
 -1      1192 9.02548E-05-2.68936E-05-2.78382E-05 1.20848E-07 4.47207E-20 1.35058E-17
 -1      1193 8.82066E-05-2.64611E-05-2.66413E-05 9.90308E-09 7.88469E-20 1.13565E-17
 -1      1194 8.77937E-05-2.63673E-05-2.63733E-05-2.40081E-08-2.91168E-22 1.01592E-17
 -1      1195 8.81297E-05-2.64628E-05-2.64456E-05-3.25124E-08 1.26186E-20 9.17411E-18
 -1      1196 8.88096E-05-2.66588E-05-2.66438E-05-3.30111E-08-1.47937E-20 8.39402E-18
 -1      1197 8.96339E-05-2.69008E-05-2.68884E-05-3.04288E-08 4.47223E-20 7.52651E-18
 -1      1198 9.04979E-05-2.71571E-05-2.71459E-05-2.63085E-08 1.09602E-19 6.05645E-18
 -1      1199 9.13491E-05-2.74109E-05-2.74007E-05-2.13352E-08 1.73096E-20 5.23861E-18
 -1      1200 9.21678E-05-2.76559E-05-2.76471E-05-1.59076E-08 1.91832E-19 4.34568E-18
 -1      1201 9.29577E-05-2.78930E-05-2.78861E-05-1.02868E-08-1.49539E-20 4.16676E-18
 -1      1202 9.37401E-05-2.81285E-05-2.81239E-05-4.65976E-09 1.20666E-19 3.71123E-18
 -1      1203 9.45508E-05-2.83730E-05-2.83713E-05 8.07883E-10 1.04030E-20 3.49744E-18
 -1      1204 9.54385E-05-2.86411E-05-2.86431E-05 5.91414E-09 1.08290E-19 3.02344E-18
 -1      1205 9.64646E-05-2.89511E-05-2.89576E-05 1.03426E-08-6.62170E-20 3.43591E-18
 -1      1206 9.77021E-05-2.93248E-05-2.93371E-05 1.35495E-08-6.84037E-21 2.98186E-18
 -1      1207 9.92356E-05-2.97873E-05-2.98067E-05 1.45974E-08 8.78855E-20 2.03641E-18
 -1      1208 1.01158E-04-3.03655E-05-3.03938E-05 1.19216E-08 4.43394E-20 2.01636E-18
 -1      1209 1.03560E-04-3.10862E-05-3.11248E-05 3.04896E-09 9.00808E-20 2.64399E-18
 -1      1210 1.06517E-04-3.19697E-05-3.20187E-05-1.56131E-08-7.81272E-20 3.12359E-18
 -1      1211 1.10051E-04-3.30199E-05-3.30754E-05-4.85469E-08 5.58942E-20 3.12359E-18
 -1      1212 1.14065E-04-3.42061E-05-3.42556E-05-9.95792E-08 1.53856E-19 1.76199E-18
 -1      1213 1.18252E-04-3.54348E-05-3.54510E-05-1.67459E-07 1.43582E-20 5.46654E-19
 -1      1214 1.21963E-04-3.65164E-05-3.64524E-05-2.36891E-07 5.93850E-20 3.04246E-18
 -1      1215 1.24113E-04-3.71395E-05-3.69376E-05-2.66218E-07-1.92194E-19 6.47448E-18
 -1      1216 1.23259E-04-3.68972E-05-3.65251E-05-1.84896E-07 6.06621E-20 6.42273E-18
 -1      1217 1.18114E-04-3.54227E-05-3.49435E-05 6.87662E-08 2.13148E-19 4.78267E-18
 -1      1218 1.08618E-04-3.26759E-05-3.23004E-05 4.63602E-07-4.12118E-19 5.68253E-18
 -1      1219 9.70657E-05-2.92729E-05-2.92985E-05 8.00920E-07 9.89374E-20 5.37273E-18
 -1      1220 8.79993E-05-2.64927E-05-2.70719E-05 8.10776E-07 1.38410E-19 3.49925E-18
 -1      1221 8.59068E-05-2.57336E-05-2.66181E-05 3.97051E-07 2.10633E-20 3.97296E-18
 -1      1222 9.19156E-05-2.74460E-05-2.81498E-05-1.98023E-07 6.81134E-20 4.00117E-18
 -1      1223 1.02912E-04-3.07733E-05-3.09517E-05-6.24141E-07 1.55688E-19 2.18090E-18
 -1      1224 1.13891E-04-3.41432E-05-3.38670E-05-7.05237E-07 8.41607E-20 8.66515E-19
 -1      1225 1.21262E-04-3.64082E-05-3.59536E-05-5.34149E-07-2.83051E-19 8.18975E-19
 -1      1226 1.24050E-04-3.72569E-05-3.68568E-05-2.87267E-07 4.25091E-19-1.15781E-18
 -1      1227 1.23120E-04-3.69661E-05-3.67144E-05-8.23553E-08 2.41150E-19-3.28642E-18
 -1      1228 1.19944E-04-3.59978E-05-3.58847E-05 4.38236E-08-2.64708E-19-6.39298E-19
 -1      1229 1.15814E-04-3.47481E-05-3.47268E-05 1.02638E-07 1.24523E-19-2.90360E-18
 -1      1230 1.11584E-04-3.34744E-05-3.35005E-05 1.18363E-07-3.03604E-20-2.65434E-18
 -1      1231 1.07714E-04-3.23124E-05-3.23562E-05 1.11819E-07-1.15173E-19-1.49184E-19
 -1      1232 1.04390E-04-3.13164E-05-3.13620E-05 9.65221E-08-1.29417E-19 2.09279E-18
 -1      1233 1.01648E-04-3.04953E-05-3.05358E-05 7.99216E-08-8.01174E-20 1.34957E-18
 -1      1234 9.94493E-05-2.98374E-05-2.98713E-05 6.55173E-08 4.01394E-19-3.60528E-18
 -1      1235 9.77348E-05-2.93247E-05-2.93540E-05 5.43906E-08-5.87447E-20-3.31760E-18
 -1      1236 9.64573E-05-2.89429E-05-2.89716E-05 4.57761E-08 3.72537E-20-3.34465E-18
 -1      1237 9.55998E-05-2.86865E-05-2.87171E-05 3.49822E-08 1.58447E-19-6.68737E-18
 -1      1238 9.51818E-05-2.85590E-05-2.85803E-05 8.82426E-09 3.80134E-19-8.54519E-18
 -1      1239 9.51648E-05-2.85512E-05-2.85130E-05-2.49605E-08 8.56918E-20-6.94138E-18
 -1      1240 9.52586E-05-2.86458E-05-2.85155E-05-2.45743E-08-6.93022E-18-1.16027E-18
 -1      1241 9.52368E-05-2.86088E-05-2.85861E-05-2.30194E-08-7.72755E-18-6.98164E-19
 -1      1242 9.51122E-05-2.81818E-05-2.87212E-05 1.70627E-08-1.40303E-18 8.60946E-20
 -1      1243 9.48853E-05-2.74096E-05-2.89379E-05 3.65134E-08-1.80303E-18-2.61406E-19
 -1      1244 9.46090E-05-2.64693E-05-2.92019E-05 4.21031E-08 2.73427E-18-1.79141E-19
 -1      1245 9.43383E-05-2.55485E-05-2.94630E-05 3.79625E-08-2.08533E-18-1.38030E-18
 -1      1246 9.41158E-05-2.47917E-05-2.96794E-05 2.82211E-08-5.56222E-18-1.47295E-19
 -1      1247 9.39728E-05-2.43060E-05-2.98190E-05 1.40325E-08-4.88210E-18-3.52007E-19
 -1      1248 9.39310E-05-2.41647E-05-2.98601E-05-1.64100E-09 1.80023E-20 7.34445E-19
 -1      1249 9.39947E-05-2.43818E-05-2.97983E-05-1.66696E-08 3.88467E-18 1.37446E-18
 -1      1250 9.41530E-05-2.49215E-05-2.96438E-05-2.90902E-08 1.77505E-18-7.96589E-19
 -1      1251 9.43814E-05-2.56968E-05-2.94222E-05-3.72141E-08-5.73715E-18 4.74141E-19
 -1      1252 9.46460E-05-2.65975E-05-2.91657E-05-3.91223E-08-3.82629E-18-1.30296E-19
 -1      1253 9.49093E-05-2.74918E-05-2.89135E-05-3.34998E-08 4.84602E-19-3.70193E-19
 -1      1254 9.51261E-05-2.82226E-05-2.87098E-05-1.85742E-08 3.22313E-18 4.11924E-19
 -1      1255 9.52222E-05-2.85859E-05-2.85841E-05 3.93495E-08 2.83394E-19-1.02041E-18
 -1      1256 9.52611E-05-2.86472E-05-2.85187E-05 2.62543E-08-8.83297E-20 6.55301E-19
 -1      1257 3.36276E-05-1.06327E-04 1.80540E-05-1.40089E-05 1.47168E-17 2.46476E-18
 -1      1258 1.83665E-05-6.81789E-05 1.01627E-05-2.65764E-05 1.68551E-17 5.09490E-18
 -1      1259 7.88412E-06-1.32628E-05-4.67290E-06-2.85690E-06 7.08628E-18 3.72864E-18
 -1      1260 3.03323E-05 2.15602E-05-2.39843E-05 4.69667E-05 6.21214E-18 6.07153E-18
 -1      1261 9.88470E-05 1.52029E-05-4.43584E-05 9.60187E-05 3.54992E-18 4.72644E-18
 -1      1262 1.97093E-04-2.76664E-05-6.25573E-05 1.10668E-04-4.32834E-19-8.33480E-19
 -1      1263 2.82629E-04-7.57747E-05-7.45154E-05 7.32392E-05-1.65733E-18-8.06206E-18
 -1      1264 3.14337E-04-9.45921E-05-7.85742E-05-4.15537E-06 5.02926E-19-1.51041E-17
 -1      1265 2.71597E-04-6.83595E-05-7.31135E-05-8.04997E-05 4.74974E-18-1.71016E-17
 -1      1266 1.75072E-04-1.63983E-05-5.88407E-05-1.09599E-04 9.58587E-18-1.96393E-17
 -1      1267 7.87571E-05 2.09155E-05-3.95362E-05-8.66280E-05 1.10927E-17-1.45469E-17
 -1      1268 1.97198E-05 1.73032E-05-1.89719E-05-3.26880E-05 1.07370E-17-9.61213E-18
 -1      1269 7.96819E-06-2.70864E-05-1.45256E-07 1.37203E-05 7.02529E-18-4.16317E-18
 -1      1270 2.33692E-05-8.20462E-05 1.32436E-05 2.55413E-05-1.67713E-19-1.04926E-18
 -1      1271 3.61969E-05-1.11802E-04 1.89240E-05 6.48715E-06-8.29161E-18-4.95858E-19
 -1      1272 2.99491E-05-9.73182E-05 1.62784E-05-1.85537E-05-1.33603E-17-2.62284E-18
 -1      1273 1.29401E-05-4.95946E-05 5.91825E-06-2.18487E-05-1.46511E-17-5.73611E-18
 -1      1274 9.81745E-06 3.50360E-06-1.07144E-05 1.16662E-05-9.80525E-18-6.12066E-18
 -1      1275 4.63497E-05 2.67588E-05-3.07370E-05 6.61467E-05-7.68682E-18-8.32803E-18
 -1      1276 1.24762E-04 6.47083E-06-5.00365E-05 1.06539E-04-5.73780E-18-8.95822E-18
 -1      1277 2.20093E-04-4.06013E-05-6.57324E-05 1.04636E-04-2.20991E-18-4.03018E-18
 -1      1278 2.92488E-04-8.34401E-05-7.57287E-05 4.81255E-05 6.23893E-20 5.71408E-18
 -1      1279 3.01901E-04-8.93465E-05-7.66265E-05-3.64777E-05-1.02102E-18 1.09246E-17
 -1      1280 2.37034E-04-5.00710E-05-6.82736E-05-9.78156E-05-5.27850E-18 1.45427E-17
 -1      1281 1.35773E-04 1.56583E-06-5.18369E-05-1.06361E-04-8.90062E-18 1.51907E-17
 -1      1282 4.73167E-05 2.55906E-05-3.05058E-05-6.55885E-05-1.21092E-17 1.25903E-17
 -1      1283 9.20196E-06-1.24848E-06-8.92282E-06-7.34866E-06-1.49959E-17 9.80525E-18
 -1      1284 1.58986E-05-5.87520E-05 8.15293E-06 2.39378E-05-4.14284E-18 3.29411E-18
 -1      1285 3.40790E-05-1.05219E-04 1.75999E-05 1.39968E-05 9.38385E-18-1.67607E-19
 -1      1286 1.04355E-04-2.19977E-05-3.78628E-05-1.72766E-05-4.76456E-19 6.05036E-18
 -1      1287 9.02692E-05-6.67398E-06-3.59985E-05-2.04810E-05-1.17494E-18-1.52884E-18
 -1      1288 9.25918E-05-6.73164E-06-3.71987E-05-2.57645E-05-1.56913E-18 1.34890E-19
 -1      1289 8.58826E-05-4.09466E-06-3.51211E-05-1.64458E-05-1.06766E-18-3.82599E-18
 -1      1290 8.71213E-05-4.08686E-06-3.55854E-05-1.88650E-05-1.24641E-18-2.86811E-18
 -1      1291 9.20881E-05-1.04543E-05-3.50776E-05-1.90433E-05-1.98185E-18-1.33381E-18
 -1      1292 8.40978E-05-3.19107E-06-3.46870E-05-1.28278E-05-7.70244E-19-4.83379E-18
 -1      1293 8.46990E-05-3.16166E-06-3.49071E-05-1.46431E-05-9.27183E-19-4.40944E-18
 -1      1294 8.78508E-05-7.39340E-06-3.45675E-05-1.54209E-05-1.65181E-18-3.21711E-18
 -1      1295 8.32053E-05-2.72878E-06-3.44781E-05-9.69697E-06-4.94767E-19-5.23178E-18
 -1      1296 8.35094E-05-2.71030E-06-3.45836E-05-1.12449E-05-5.77849E-19-5.07461E-18
 -1      1297 8.58733E-05-5.98310E-06-3.43077E-05-1.19628E-05-1.13739E-18-4.06671E-18
 -1      1298 8.27294E-05-2.45963E-06-3.43777E-05-6.92274E-06-2.31716E-19-5.28977E-18
 -1      1299 8.28917E-05-2.45115E-06-3.44293E-05-8.29515E-06-3.14501E-19-5.26903E-18
 -1      1300 8.48460E-05-5.21905E-06-3.41825E-05-8.95172E-06-6.84608E-19-4.36481E-18
 -1      1301 8.24643E-05-2.29410E-06-3.43294E-05-4.29949E-06-7.46282E-21-5.16231E-18
 -1      1302 8.25509E-05-2.29016E-06-3.43547E-05-5.60217E-06-9.35343E-20-5.25790E-18
 -1      1303 8.42747E-05-4.76467E-06-3.41249E-05-6.22119E-06-2.91441E-19-4.46005E-18
 -1      1304 8.23373E-05-2.20444E-06-3.43096E-05-1.79174E-06 2.67139E-19-4.98357E-18
 -1      1305 8.23741E-05-2.20287E-06-3.43197E-05-3.04413E-06 1.67071E-19-5.06358E-18
 -1      1306 8.39611E-05-4.50055E-06-3.41000E-05-3.64703E-06 1.11406E-19-4.28886E-18
 -1      1307 8.23121E-05-2.17672E-06-3.43074E-05 6.70602E-07 5.05636E-19-4.84029E-18
 -1      1308 8.23108E-05-2.17678E-06-3.43071E-05-5.66507E-07 4.11978E-19-4.92634E-18
 -1      1309 8.38239E-05-4.38046E-06-3.40911E-05-1.17113E-06 5.55223E-19-4.16260E-18
 -1      1310 8.23823E-05-2.20700E-06-3.43212E-05 3.15167E-06 6.83208E-19-4.61309E-18
 -1      1311 8.23427E-05-2.20864E-06-3.43104E-05 1.89679E-06 6.32497E-19-4.75884E-18
 -1      1312 8.38286E-05-4.38452E-06-3.40914E-05 1.27466E-06 9.23758E-19-3.98999E-18
 -1      1313 8.25678E-05-2.30020E-06-3.43574E-05 5.71864E-06 8.55510E-19-4.30074E-18
 -1      1314 8.24777E-05-2.30359E-06-3.43314E-05 4.41014E-06 8.00598E-19-4.51791E-18
 -1      1315 8.39761E-05-4.51371E-06-3.41010E-05 3.75462E-06 1.23388E-18-3.78777E-18
 -1      1316 8.29153E-05-2.46597E-06-3.44324E-05 8.40311E-06 1.06060E-18-3.66062E-18
 -1      1317 8.27491E-05-2.47470E-06-3.43803E-05 7.02205E-06 9.65350E-19-4.03353E-18
 -1      1318 8.43000E-05-4.78716E-06-3.41263E-05 6.31497E-06 1.48401E-18-3.44695E-18
 -1      1319 8.35563E-05-2.74285E-06-3.45888E-05 1.14059E-05 1.31584E-18-2.72370E-18
 -1      1320 8.32441E-05-2.76003E-06-3.44818E-05 9.83986E-06 1.19884E-18-3.27581E-18
 -1      1321 8.48893E-05-5.26018E-06-3.41837E-05 9.06012E-06 1.84620E-18-2.77636E-18
 -1      1322 8.47554E-05-3.20363E-06-3.49148E-05 1.48559E-05 1.50224E-18-1.20183E-18
 -1      1323 8.41544E-05-3.24056E-06-3.46926E-05 1.30154E-05 1.37847E-18-2.11998E-18
 -1      1324 8.59536E-05-6.06390E-06-3.43090E-05 1.21306E-05 2.17424E-18-1.74102E-18
 -1      1325 8.72198E-05-4.08783E-06-3.56068E-05 1.91019E-05 1.64176E-18 1.30909E-18
 -1      1326 8.59495E-05-4.15211E-06-3.51285E-05 1.67053E-05 1.47760E-18-1.72133E-19
 -1      1327 8.79743E-05-7.51493E-06-3.45694E-05 1.56592E-05 2.37521E-18-5.17219E-20
 -1      1328 9.34045E-05-6.78420E-06-3.70940E-05 2.51005E-05 1.25911E-18 5.71493E-18
 -1      1329 9.00841E-05-6.43094E-06-3.60209E-05 2.11579E-05 1.30681E-18 3.07049E-18
 -1      1330 9.23175E-05-1.06898E-05-3.50627E-05 1.96838E-05 2.36460E-18 2.71718E-18
 -1      1331 1.23533E-04-2.49023E-05-3.89859E-05 2.83608E-05 4.93079E-19 1.33670E-17
 -1      1332 1.00007E-04-1.44087E-05-3.73285E-05 2.40523E-05 5.81594E-19 8.13797E-18
 -1      1333 1.01607E-04-1.93244E-05-3.53795E-05 2.14032E-05 2.00187E-18 6.67356E-18
 -1      1334 1.02513E-04-2.77778E-05-3.47292E-05 7.33390E-06 9.70012E-19 1.31138E-17
 -1      1335 1.05055E-04-3.02025E-05-3.34973E-05-7.96329E-06-1.29543E-18 6.53422E-18
 -1      1336 9.81655E-05-2.78144E-05-3.07334E-05-4.99207E-06-1.14964E-18 4.96224E-18
 -1      1337 9.54068E-05-2.78202E-05-2.92257E-05-2.49307E-06-8.95896E-19 4.37390E-18
 -1      1338 9.31711E-05-2.75282E-05-2.81854E-05-2.04610E-06-8.50395E-19 3.03693E-18
 -1      1339 9.94034E-05-2.80271E-05-3.09584E-05-7.89306E-06-1.99238E-18 2.16287E-18
 -1      1340 9.14814E-05-2.71706E-05-2.75509E-05-8.40955E-07-7.52549E-19 2.54218E-18
 -1      1341 9.07616E-05-2.70742E-05-2.72477E-05-7.30906E-07-6.34514E-19 1.49830E-18
 -1      1342 9.46361E-05-2.77457E-05-2.87918E-05-3.12557E-06-1.54385E-18 1.28699E-18
 -1      1343 9.00118E-05-2.68912E-05-2.70048E-05-1.75987E-07-5.45029E-19 1.03894E-18
 -1      1344 8.99369E-05-2.69167E-05-2.69694E-05-1.17432E-07-5.29743E-19 2.67120E-19
 -1      1345 9.24376E-05-2.74742E-05-2.78714E-05-1.05717E-06-1.24861E-18 4.70262E-19
 -1      1346 8.96806E-05-2.68501E-05-2.68962E-05 1.55965E-07-3.36231E-19 2.78991E-20
 -1      1347 8.98961E-05-2.69401E-05-2.69582E-05 1.85444E-07-3.09189E-19-4.64015E-19
 -1      1348 9.14824E-05-2.73311E-05-2.75062E-05-6.89393E-08-8.15001E-19-2.47215E-19
 -1      1349 8.99077E-05-2.69455E-05-2.69670E-05 3.21445E-07-3.88123E-19-6.81954E-19
 -1      1350 9.02562E-05-2.70665E-05-2.70681E-05 3.34405E-07-4.09149E-19-1.20696E-18
 -1      1351 9.12402E-05-2.73213E-05-2.74021E-05 4.28161E-07-7.28915E-19-6.33743E-19
 -1      1352 9.04127E-05-2.71122E-05-2.71198E-05 3.96522E-07-2.95252E-19-1.28208E-18
 -1      1353 9.08149E-05-2.72441E-05-2.72363E-05 4.00142E-07-1.60429E-19-1.70984E-18
 -1      1354 9.13951E-05-2.74003E-05-2.74316E-05 6.71447E-07-5.78172E-19-9.17282E-19
 -1      1355 9.10475E-05-2.73112E-05-2.73104E-05 4.22098E-07-1.27046E-19-1.84704E-18
 -1      1356 9.14619E-05-2.74431E-05-2.74310E-05 4.20844E-07-1.70162E-19-2.12467E-18
 -1      1357 9.17663E-05-2.75287E-05-2.75333E-05 7.76787E-07-3.31041E-19-1.24861E-18
 -1      1358 9.17322E-05-2.75207E-05-2.75161E-05 4.22800E-07-3.11438E-19-2.17163E-18
 -1      1359 9.21393E-05-2.76477E-05-2.76351E-05 4.19670E-07-5.60647E-19-2.62766E-18
 -1      1360 9.22504E-05-2.76818E-05-2.76736E-05 8.08850E-07-4.60833E-19-1.45304E-18
 -1      1361 9.24276E-05-2.77302E-05-2.77255E-05 4.14829E-07-4.23463E-19-2.75931E-18
 -1      1362 9.28221E-05-2.78513E-05-2.78414E-05 4.11971E-07-8.60215E-20-3.05968E-18
 -1      1363 9.27910E-05-2.78456E-05-2.78343E-05 8.07870E-07-6.54402E-19-1.35136E-18
 -1      1364 9.31213E-05-2.79367E-05-2.79349E-05 4.09590E-07 1.37334E-19-3.35300E-18
 -1      1365 9.35079E-05-2.80540E-05-2.80491E-05 4.08611E-07 7.59536E-20-3.30212E-18
 -1      1366 9.33613E-05-2.80139E-05-2.80066E-05 8.01032E-07-2.86945E-19-1.77591E-18
 -1      1367 9.38197E-05-2.81427E-05-2.81464E-05 4.15504E-07-3.25793E-20-3.48767E-18
 -1      1368 9.42105E-05-2.82601E-05-2.82622E-05 4.17650E-07-7.57526E-20-3.68438E-18
 -1      1369 9.39559E-05-2.81861E-05-2.81881E-05 8.07820E-07-1.58521E-19-2.53395E-18
 -1      1370 9.45429E-05-2.83547E-05-2.83658E-05 4.38969E-07 3.44293E-21-3.39298E-18
 -1      1371 9.49557E-05-2.84780E-05-2.84884E-05 4.45223E-07-7.21351E-20-3.46044E-18
 -1      1372 9.45838E-05-2.83657E-05-2.83811E-05 8.42748E-07 3.95856E-20-2.61507E-18
 -1      1373 9.53215E-05-2.85821E-05-2.86023E-05 4.84799E-07 1.01980E-19-3.48128E-18
 -1      1374 9.57783E-05-2.87183E-05-2.87381E-05 4.95906E-07 4.04036E-20-3.29811E-18
 -1      1375 9.52652E-05-2.85594E-05-2.85914E-05 9.16713E-07-5.99884E-20-2.13444E-18
 -1      1376 9.61934E-05-2.88367E-05-2.88672E-05 5.56209E-07-9.12773E-20-3.20629E-18
 -1      1377 9.67190E-05-2.89938E-05-2.90234E-05 5.72629E-07-6.33447E-20-3.02103E-18
 -1      1378 9.60281E-05-2.87762E-05-2.88269E-05 1.03738E-06 8.57307E-20-2.29350E-18
 -1      1379 9.72007E-05-2.91316E-05-2.91730E-05 6.54321E-07-2.04783E-19-3.21043E-18
 -1      1380 9.78206E-05-2.93179E-05-2.93570E-05 6.76068E-07-2.14373E-19-3.71675E-18
 -1      1381 9.69049E-05-2.90268E-05-2.90969E-05 1.20862E-06-2.41065E-19-2.22073E-18
 -1      1382 9.83854E-05-2.94804E-05-2.95320E-05 7.77027E-07-2.92508E-20-3.40288E-18
 -1      1383 9.91228E-05-2.97037E-05-2.97503E-05 8.03381E-07-1.73598E-19-3.50145E-18
 -1      1384 9.79291E-05-2.93227E-05-2.94105E-05 1.42884E-06-1.44839E-19-2.15075E-18
 -1      1385 9.97832E-05-2.98952E-05-2.99542E-05 9.17063E-07-3.57177E-19-3.57116E-18
 -1      1386 1.00653E-04-3.01615E-05-3.02109E-05 9.46078E-07-2.35791E-19-3.84175E-18
 -1      1387 9.91298E-05-2.96750E-05-2.97752E-05 1.68790E-06-4.21377E-19-2.38501E-18
 -1      1388 1.01413E-04-3.03843E-05-3.04443E-05 1.05909E-06-3.46805E-19-4.47574E-18
 -1      1389 1.02415E-04-3.06949E-05-3.07387E-05 1.08687E-06-7.65226E-19-5.02854E-18
 -1      1390 1.00524E-04-3.00929E-05-3.01941E-05 1.96232E-06-8.30686E-19-2.73466E-18
 -1      1391 1.03263E-04-3.09475E-05-3.09967E-05 1.17581E-06-3.14606E-19-5.34450E-18
 -1      1392 1.04368E-04-3.12957E-05-3.13194E-05 1.19559E-06-3.83310E-19-5.36040E-18
 -1      1393 1.02108E-04-3.05808E-05-3.06624E-05 2.20864E-06-8.88973E-19-3.25156E-18
 -1      1394 1.05267E-04-3.15703E-05-3.15892E-05 1.22384E-06 1.18920E-20-5.06921E-18
 -1      1395 1.06403E-04-3.19359E-05-3.19177E-05 1.22498E-06 1.01230E-19-4.50331E-18
 -1      1396 1.03837E-04-3.11339E-05-3.11629E-05 2.35577E-06-9.42037E-20-3.55055E-18
 -1      1397 1.07283E-04-3.22154E-05-3.21754E-05 1.14120E-06-6.03015E-20-4.94952E-18
 -1      1398 1.08313E-04-3.25582E-05-3.24690E-05 1.10882E-06-1.86651E-19-4.96925E-18
 -1      1399 1.05613E-04-3.17318E-05-3.16609E-05 2.29915E-06-1.94330E-20-3.89611E-18
 -1      1400 1.09060E-04-3.28120E-05-3.26772E-05 8.51395E-07-4.33198E-19-4.61322E-18
 -1      1401 1.09775E-04-3.30661E-05-3.28747E-05 7.67959E-07-3.48541E-19-5.41052E-18
 -1      1402 1.07262E-04-3.23289E-05-3.21000E-05 1.90346E-06-2.45603E-19-3.48026E-18
 -1      1403 1.10232E-04-3.32472E-05-3.29844E-05 2.81710E-07 1.30503E-19-5.01226E-18
 -1      1404 1.10354E-04-3.33200E-05-3.30080E-05 1.32908E-07 3.15612E-19-4.70082E-18
 -1      1405 1.08520E-04-3.28429E-05-3.24024E-05 1.02642E-06 8.74429E-20-2.01429E-18
 -1      1406 1.10335E-04-3.33657E-05-3.29665E-05-5.94853E-07 2.76457E-19-4.70641E-18
 -1      1407 1.09579E-04-3.31521E-05-3.27394E-05-8.07810E-07 3.86611E-19-4.30957E-18
 -1      1408 1.09046E-04-3.31458E-05-3.24787E-05-4.19783E-07 3.24036E-19-1.67168E-18
 -1      1409 1.08919E-04-3.29937E-05-3.25083E-05-1.69350E-06 2.50126E-19-4.35084E-18
 -1      1410 1.07104E-04-3.24131E-05-3.19891E-05-1.93623E-06 1.37140E-19-4.20981E-18
 -1      1411 1.08477E-04-3.30697E-05-3.22517E-05-2.36137E-06 3.71656E-19-1.37058E-18
 -1      1412 1.05746E-04-3.20046E-05-3.15704E-05-2.75325E-06-3.23742E-19-4.48951E-18
 -1      1413 1.02969E-04-3.10661E-05-3.07979E-05-2.94608E-06-4.74183E-19-5.14276E-18
 -1      1414 1.06563E-04-3.24517E-05-3.16953E-05-4.43740E-06-1.51076E-19-2.56246E-18
 -1      1415 1.01079E-04-3.04346E-05-3.02573E-05-3.34501E-06-8.67564E-20-5.48276E-18
 -1      1416 9.78516E-05-2.93015E-05-2.93794E-05-3.37984E-06 1.93834E-19-5.49280E-18
 -1      1417 1.03374E-04-3.12407E-05-3.08743E-05-5.95359E-06-5.09322E-19-3.39914E-18
 -1      1418 9.58792E-05-2.85951E-05-2.88467E-05-3.03625E-06 3.53113E-19-5.13413E-18
 -1      1419 9.30886E-05-2.75882E-05-2.81007E-05-2.83758E-06 2.28355E-19-4.14559E-18
 -1      1420 9.95046E-05-2.96349E-05-2.99610E-05-6.07137E-06 2.72387E-19-3.22493E-18
 -1      1421 9.16743E-05-2.70588E-05-2.77339E-05-1.69124E-06 1.09234E-19-4.44584E-18
 -1      1422 9.02653E-05-2.65424E-05-2.73612E-05-1.29157E-06-2.37599E-19-4.30876E-18
 -1      1423 9.60668E-05-2.81286E-05-2.92000E-05-4.28594E-06 3.48435E-19-2.87683E-18
 -1      1424 8.99550E-05-2.64245E-05-2.72819E-05 3.06941E-07-9.62686E-19-4.50397E-18
 -1      1425 9.04554E-05-2.66090E-05-2.74137E-05 7.53344E-07-1.49075E-18-5.73891E-18
 -1      1426 9.43037E-05-2.73350E-05-2.88240E-05-9.32212E-07-1.28737E-18-4.04243E-18
 -1      1427 9.13756E-05-2.69583E-05-2.76491E-05 2.18531E-06-6.39430E-19-6.29115E-18
 -1      1428 9.35913E-05-2.77657E-05-2.82375E-05 2.49364E-06 1.80491E-19-6.67597E-18
 -1      1429 9.49285E-05-2.76194E-05-2.89549E-05 2.78040E-06-1.52123E-18-4.93369E-18
 -1      1430 9.53677E-05-2.84183E-05-2.87064E-05 3.24214E-06-8.59970E-20-6.52046E-18
 -1      1431 9.84982E-05-2.95342E-05-2.95499E-05 3.31592E-06 9.02090E-20-6.78182E-18
 -1      1432 9.76778E-05-2.88468E-05-2.95487E-05 5.42684E-06 7.83042E-20-5.62553E-18
 -1      1433 1.00491E-04-3.02259E-05-3.01029E-05 3.24455E-06 3.53133E-19-6.39560E-18
 -1      1434 1.03565E-04-3.12862E-05-3.09480E-05 3.11414E-06 4.95627E-19-5.85652E-18
 -1      1435 1.01482E-04-3.04758E-05-3.04150E-05 6.20718E-06 2.06255E-19-5.59696E-18
 -1      1436 1.05206E-04-3.18093E-05-3.14346E-05 2.44950E-06 2.93034E-19-6.08186E-18
 -1      1437 1.07507E-04-3.25677E-05-3.20831E-05 2.21760E-06 4.84940E-19-6.10944E-18
 -1      1438 1.05089E-04-3.19164E-05-3.13017E-05 5.26407E-06 5.57632E-19-5.31645E-18
 -1      1439 1.08495E-04-3.28405E-05-3.24043E-05 1.32430E-06 1.13369E-18-5.36460E-18
 -1      1440 1.09734E-04-3.32195E-05-3.27658E-05 1.08909E-06 1.09936E-18-4.22754E-18
 -1      1441 1.07633E-04-3.28200E-05-3.19933E-05 3.34819E-06 1.25958E-18-4.53998E-18
 -1      1442 1.10030E-04-3.32596E-05-3.28908E-05 2.62727E-07 1.20952E-18-4.12714E-18
 -1      1443 1.10275E-04-3.33052E-05-3.29731E-05 8.01990E-08 5.01913E-19-2.64699E-18
 -1      1444 1.08805E-04-3.31327E-05-3.23720E-05 1.26687E-06 1.53962E-18-3.59188E-18
 -1      1445 1.10006E-04-3.31753E-05-3.29242E-05-5.29618E-07 6.22569E-20-1.41120E-18
 -1      1446 1.09512E-04-3.29872E-05-3.27922E-05-6.44414E-07 7.88131E-19-1.10441E-18
 -1      1447 1.08731E-04-3.29802E-05-3.24242E-05-4.52046E-07 6.91298E-19-2.36614E-18
 -1      1448 1.08861E-04-3.27552E-05-3.26180E-05-1.01079E-06 1.30971E-19-9.95965E-19
 -1      1449 1.07920E-04-3.24351E-05-3.23523E-05-1.06659E-06-3.76304E-19-1.36828E-18
 -1      1450 1.07739E-04-3.25370E-05-3.22077E-05-1.60920E-06 2.67113E-19-1.13647E-18
 -1      1451 1.07062E-04-3.21561E-05-3.21055E-05-1.22949E-06-3.79269E-19-2.05608E-18
 -1      1452 1.05919E-04-3.17834E-05-3.17768E-05-1.24324E-06-1.76241E-18-3.15649E-18
 -1      1453 1.06195E-04-3.19531E-05-3.18103E-05-2.22925E-06-1.13564E-18-2.11574E-18
 -1      1454 1.04993E-04-3.14960E-05-3.15011E-05-1.26339E-06-1.97158E-18-3.36162E-18
 -1      1455 1.03821E-04-3.11232E-05-3.11606E-05-1.25137E-06-1.12633E-18-5.00595E-18
 -1      1456 1.04404E-04-3.13325E-05-3.13181E-05-2.43697E-06-2.56025E-18-2.98427E-18
 -1      1457 1.02918E-04-3.08512E-05-3.08872E-05-1.18469E-06 5.28386E-19-5.26146E-18
 -1      1458 1.01822E-04-3.05082E-05-3.05666E-05-1.15921E-06 6.83578E-19-5.07149E-18
 -1      1459 1.02587E-04-3.07378E-05-3.07995E-05-2.37299E-06-8.34837E-19-3.17003E-18
 -1      1460 1.00999E-04-3.02646E-05-3.03148E-05-1.04712E-06 6.05184E-19-3.31351E-18
 -1      1461 1.00033E-04-2.99657E-05-3.00312E-05-1.01606E-06 9.27887E-19-2.29376E-18
 -1      1462 1.00884E-04-3.02016E-05-3.03016E-05-2.15342E-06 1.84209E-18-2.35244E-18
 -1      1463 9.93184E-05-2.97561E-05-2.98114E-05-8.84402E-07 8.71934E-19-1.95239E-18
 -1      1464 9.85064E-05-2.95063E-05-2.95725E-05-8.51881E-07 1.28489E-18-5.53860E-19
 -1      1465 9.93702E-05-2.97374E-05-2.98529E-05-1.85811E-06 2.01372E-18-6.48163E-19
 -1      1466 9.79118E-05-2.93323E-05-2.93898E-05-7.13213E-07 7.11525E-19-4.11496E-19
 -1      1467 9.72620E-05-2.91326E-05-2.91990E-05-6.80387E-07-4.43104E-20-5.98515E-20
 -1      1468 9.80837E-05-2.93479E-05-2.94686E-05-1.53255E-06 1.50116E-18 2.70469E-19
 -1      1469 9.67920E-05-2.89939E-05-2.90556E-05-5.36999E-07-3.69220E-19 3.37622E-20
 -1      1470 9.63110E-05-2.88452E-05-2.89152E-05-5.02676E-07-2.80571E-19-3.14100E-19
 -1      1471 9.70370E-05-2.90307E-05-2.91561E-05-1.19443E-06 1.76163E-19 1.19272E-19
 -1      1472 9.59663E-05-2.87413E-05-2.88119E-05-3.51360E-07 3.61104E-19-1.15604E-19
 -1      1473 9.56659E-05-2.86485E-05-2.87235E-05-3.12628E-07 4.75259E-19 1.46995E-19
 -1      1474 9.62334E-05-2.87825E-05-2.89182E-05-8.41997E-07 1.26145E-19 1.10542E-19
 -1      1475 9.54369E-05-2.85733E-05-2.86573E-05-1.51598E-07-2.41764E-20 3.22046E-19
 -1      1476 9.53290E-05-2.85541E-05-2.86146E-05-1.08457E-07-4.21012E-19 4.64083E-19
 -1      1477 9.56662E-05-2.86021E-05-2.87515E-05-4.72766E-07 3.30217E-19-9.78265E-20
 -1      1478 9.52152E-05-2.85676E-05-2.85536E-05 2.96330E-08-7.86722E-19 7.27611E-19
 -1      1479 9.53107E-05-2.85378E-05-2.86186E-05-9.06778E-08-2.86570E-19 3.23115E-19
 -1      1480 9.64790E-05-2.83341E-05-2.97430E-05 2.99957E-06 9.16913E-19 1.10367E-17
 -1      1481 1.02442E-04-2.93706E-05-3.21272E-05 4.46660E-06 7.83294E-19 1.24144E-17
 -1      1482 1.02242E-04-2.66934E-05-3.26801E-05 1.27880E-05 1.57098E-18 8.51734E-18
 -1      1483 9.19266E-05-2.73979E-05-2.77306E-05 1.15555E-06 7.32366E-19 9.11836E-18
 -1      1484 9.38775E-05-2.75546E-05-2.86459E-05 1.47742E-06 6.74212E-19 1.02166E-17
 -1      1485 9.63999E-05-2.80041E-05-2.95076E-05 4.87391E-06 1.41079E-18 7.06400E-18
 -1      1486 9.00889E-05-2.69715E-05-2.70303E-05 3.34543E-07 5.10880E-19 7.69588E-18
 -1      1487 9.07077E-05-2.69903E-05-2.73040E-05 4.97367E-07 5.03912E-19 8.48258E-18
 -1      1488 9.29527E-05-2.75517E-05-2.80719E-05 1.85717E-06 1.16352E-18 5.79492E-18
 -1      1489 8.95696E-05-2.68525E-05-2.68541E-05-5.41016E-08 3.02335E-19 6.85553E-18
 -1      1490 8.96093E-05-2.67910E-05-2.68829E-05 3.51547E-08 3.29362E-19 7.30501E-18
 -1      1491 9.13992E-05-2.72801E-05-2.74883E-05 5.20639E-07 7.70747E-19 4.76856E-18
 -1      1492 8.97052E-05-2.69058E-05-2.68972E-05-2.44718E-07 4.02174E-19 6.07251E-18
 -1      1493 8.94763E-05-2.67982E-05-2.68318E-05-1.94019E-07 3.01658E-19 6.49981E-18
 -1      1494 9.08720E-05-2.72000E-05-2.72937E-05-1.34295E-07 6.20419E-19 4.15153E-18
 -1      1495 9.01715E-05-2.70518E-05-2.70398E-05-3.33533E-07 1.33988E-19 5.59203E-18
 -1      1496 8.98192E-05-2.69229E-05-2.69364E-05-3.04888E-07 1.55548E-19 5.86806E-18
 -1      1497 9.09020E-05-2.72460E-05-2.72871E-05-4.61841E-07 3.94262E-19 3.68819E-18
 -1      1498 9.07952E-05-2.72421E-05-2.72284E-05-3.67039E-07 3.49918E-19 4.77248E-18
 -1      1499 9.03942E-05-2.71075E-05-2.71105E-05-3.51585E-07 2.88744E-19 5.33142E-18
 -1      1500 9.12318E-05-2.73644E-05-2.73769E-05-6.16269E-07 4.44794E-19 3.26655E-18
 -1      1501 9.14821E-05-2.74495E-05-2.74357E-05-3.71475E-07 3.06022E-19 3.87985E-18
 -1      1502 9.10714E-05-2.73175E-05-2.73146E-05-3.63680E-07 4.16534E-19 4.50653E-18
 -1      1503 9.17170E-05-2.75199E-05-2.75171E-05-6.76548E-07 6.27011E-19 2.84395E-18
 -1      1504 9.21847E-05-2.76599E-05-2.76480E-05-3.63520E-07 2.93786E-19 3.47828E-18
 -1      1505 9.17822E-05-2.75339E-05-2.75288E-05-3.59583E-07 2.18162E-19 3.79401E-18
 -1      1506 9.22776E-05-2.76920E-05-2.76827E-05-6.88744E-07 4.87788E-19 2.49012E-18
 -1      1507 9.28854E-05-2.78685E-05-2.78601E-05-3.54730E-07 1.67796E-19 2.86356E-18
 -1      1508 9.24955E-05-2.77483E-05-2.77441E-05-3.51837E-07 3.05442E-19 3.42263E-18
 -1      1509 9.28728E-05-2.78702E-05-2.78610E-05-6.82714E-07 4.85734E-19 2.03763E-18
 -1      1510 9.35887E-05-2.80768E-05-2.80734E-05-3.53747E-07 3.70605E-19 2.73575E-18
 -1      1511 9.32052E-05-2.79594E-05-2.79588E-05-3.49646E-07 5.75550E-20 2.88150E-18
 -1      1512 9.34886E-05-2.80515E-05-2.80472E-05-6.79516E-07 1.17836E-19 1.98573E-18
 -1      1513 9.43151E-05-2.82912E-05-2.82941E-05-3.67549E-07 6.79496E-20 2.39373E-18
 -1      1514 9.39241E-05-2.81713E-05-2.81767E-05-3.60283E-07 2.14003E-19 2.51345E-18
 -1      1515 9.41301E-05-2.82380E-05-2.82426E-05-6.95182E-07 4.55578E-19 1.70469E-18
 -1      1516 9.50990E-05-2.85219E-05-2.85324E-05-4.02224E-07 1.82636E-19 2.33497E-18
 -1      1517 9.46797E-05-2.83925E-05-2.84062E-05-3.89948E-07 1.19786E-20 2.25783E-18
 -1      1518 9.48172E-05-2.84360E-05-2.84530E-05-7.42884E-07 2.75420E-19 1.47025E-18
 -1      1519 9.59867E-05-2.87828E-05-2.88023E-05-4.63436E-07 1.54484E-20 1.81840E-18
 -1      1520 9.55122E-05-2.86350E-05-2.86592E-05-4.44289E-07 2.06747E-19 2.02345E-18
 -1      1521 9.55819E-05-2.86552E-05-2.86881E-05-8.34236E-07 2.17578E-19 8.30092E-19
 -1      1522 9.70357E-05-2.90913E-05-2.91210E-05-5.56595E-07-9.71127E-20 2.27847E-18
 -1      1523 9.64728E-05-2.89143E-05-2.89514E-05-5.28637E-07-6.01509E-20 1.87952E-18
 -1      1524 9.64666E-05-2.89085E-05-2.89606E-05-9.79967E-07-8.27652E-20 6.44423E-19
 -1      1525 9.83133E-05-2.94676E-05-2.95088E-05-6.86626E-07 4.45725E-19 1.51868E-18
 -1      1526 9.76233E-05-2.92488E-05-2.93011E-05-6.47865E-07 2.34757E-19 2.12639E-18
 -1      1527 9.75230E-05-2.92113E-05-2.92860E-05-1.18993E-06 3.16254E-19 6.89406E-19
 -1      1528 9.98945E-05-2.99345E-05-2.99881E-05-8.57075E-07 8.93322E-20 9.77340E-19
 -1      1529 9.90341E-05-2.96600E-05-2.97296E-05-8.05670E-07 1.75720E-19 1.37743E-18
 -1      1530 9.88094E-05-2.95817E-05-2.96816E-05-1.47210E-06 3.24809E-19 2.76352E-19
 -1      1531 1.01856E-04-3.05162E-05-3.05815E-05-1.06807E-06-3.56064E-19 1.11276E-18
 -1      1532 1.00781E-04-3.01714E-05-3.02593E-05-1.00287E-06-9.85106E-20 9.37186E-19
 -1      1533 1.00388E-04-3.00394E-05-3.01655E-05-1.82997E-06-5.77753E-20 5.24983E-19
 -1      1534 1.04267E-04-3.12349E-05-3.13084E-05-1.31235E-06-5.54443E-20 1.73989E-18
 -1      1535 1.02936E-04-3.08068E-05-3.09113E-05-1.23404E-06-6.62142E-20 1.45750E-18
 -1      1536 1.02317E-04-3.06042E-05-3.07538E-05-2.25721E-06-1.06445E-19 4.53528E-19
 -1      1537 1.07163E-04-3.21052E-05-3.21772E-05-1.56826E-06-1.74289E-19 2.01616E-18
 -1      1538 1.05555E-04-3.15870E-05-3.17002E-05-1.48151E-06-1.80266E-19 1.93601E-18
 -1      1539 1.04637E-04-3.12938E-05-3.14560E-05-2.72791E-06-4.04885E-19 1.03115E-18
 -1      1540 1.10509E-04-3.31232E-05-3.31730E-05-1.78867E-06 6.78545E-20 1.78171E-18
 -1      1541 1.08644E-04-3.25220E-05-3.26250E-05-1.70577E-06 1.19743E-19 2.05079E-18
 -1      1542 1.07353E-04-3.21187E-05-3.22672E-05-3.18063E-06 2.07291E-20 7.89372E-19
 -1      1543 1.14137E-04-3.42482E-05-3.42376E-05-1.88621E-06 5.36691E-19 7.59802E-19
 -1      1544 1.12119E-04-3.35986E-05-3.36530E-05-1.83242E-06 2.56853E-19 1.50731E-18
 -1      1545 1.10391E-04-3.30725E-05-3.31557E-05-3.49557E-06 5.70406E-19 6.08421E-19
 -1      1546 1.17659E-04-3.53749E-05-3.52448E-05-1.72055E-06-5.44976E-19 9.21122E-19
 -1      1547 1.15726E-04-3.47582E-05-3.46994E-05-1.73951E-06-1.98442E-19 4.62348E-19
 -1      1548 1.13552E-04-3.41173E-05-3.40476E-05-3.46984E-06 1.49078E-19 3.30799E-19
 -1      1549 1.20383E-04-3.63008E-05-3.59806E-05-1.10548E-06-8.62730E-19 2.81393E-18
 -1      1550 1.18963E-04-3.58650E-05-3.56034E-05-1.25937E-06-8.12999E-19 1.48063E-18
 -1      1551 1.16449E-04-3.51580E-05-3.48124E-05-2.81036E-06-1.06675E-18 6.84753E-19
 -1      1552 1.21300E-04-3.67040E-05-3.61559E-05 1.26970E-07-3.58050E-19 4.96460E-18
 -1      1553 1.21016E-04-3.66682E-05-3.61214E-05-2.24614E-07-4.44183E-19 4.08584E-18
 -1      1554 1.18463E-04-3.60085E-05-3.52644E-05-1.19133E-06-1.39406E-18 2.27591E-18
 -1      1555 1.19296E-04-3.61806E-05-3.54907E-05 1.95574E-06 2.49703E-19 4.55720E-18
 -1      1556 1.20820E-04-3.67871E-05-3.59657E-05 1.39846E-06 1.30681E-19 5.14956E-18
 -1      1557 1.18786E-04-3.63578E-05-3.52020E-05 1.54929E-06-1.95334E-19 3.22415E-18
 -1      1558 1.13750E-04-3.44295E-05-3.38919E-05 3.91436E-06-8.67613E-20 4.75842E-18
 -1      1559 1.17411E-04-3.57950E-05-3.49235E-05 3.28341E-06 1.19227E-19 4.65609E-18
 -1      1560 1.16652E-04-3.58031E-05-3.45031E-05 5.02839E-06 2.06451E-19 3.40804E-18
 -1      1561 1.05457E-04-3.16203E-05-3.16594E-05 5.00447E-06-3.14800E-19 4.92740E-18
 -1      1562 1.10673E-04-3.35115E-05-3.30474E-05 4.60176E-06-3.89033E-19 4.67387E-18
 -1      1563 1.11893E-04-3.40593E-05-3.32518E-05 7.96923E-06-8.94493E-19 4.55280E-18
 -1      1564 9.71310E-05-2.86650E-05-2.95413E-05 4.15822E-06 7.90454E-19 4.14030E-18
 -1      1565 1.02157E-04-3.04015E-05-3.08141E-05 4.31358E-06 2.34119E-19 4.57472E-18
 -1      1566 1.05615E-04-3.14041E-05-3.18195E-05 8.46547E-06 5.90078E-20 3.63033E-18
 -1      1567 9.26003E-05-2.70343E-05-2.84130E-05 1.21914E-06-3.04138E-19 3.52313E-18
 -1      1568 9.51260E-05-2.77335E-05-2.90354E-05 1.98509E-06 9.92352E-20 3.67559E-18
 -1      1569 1.00310E-04-2.89033E-05-3.07468E-05 5.24054E-06 4.70236E-19 3.42188E-18
 -1      1570 9.42859E-05-2.76783E-05-2.88071E-05-2.39223E-06 2.35171E-19 2.89871E-18
 -1      1571 9.29907E-05-2.69374E-05-2.84805E-05-1.41348E-06 2.17502E-19 3.04156E-18
 -1      1572 9.87222E-05-2.80563E-05-3.04828E-05-6.97468E-07 1.51725E-19 2.82378E-18
 -1      1573 1.01309E-04-3.02312E-05-3.05245E-05-4.72674E-06 5.53741E-19 2.60992E-18
 -1      1574 9.68623E-05-2.84503E-05-2.94119E-05-4.06010E-06 2.85847E-19 2.96684E-18
 -1      1575 1.01740E-04-2.94253E-05-3.11340E-05-6.25349E-06 5.26405E-19 1.84643E-18
 -1      1576 1.10122E-04-3.32822E-05-3.28113E-05-4.81533E-06 1.05017E-18 5.65924E-19
 -1      1577 1.04701E-04-3.13700E-05-3.14011E-05-4.70887E-06 7.62745E-19 1.76416E-18
 -1      1578 1.07697E-04-3.21872E-05-3.24117E-05-8.63866E-06 1.49857E-18 1.07128E-18
 -1      1579 1.17197E-04-3.55715E-05-3.47908E-05-3.26365E-06-1.14563E-18 9.49842E-19
 -1      1580 1.12891E-04-3.42310E-05-3.36125E-05-3.56734E-06 4.52567E-20 7.87899E-19
 -1      1581 1.13676E-04-3.47452E-05-3.38110E-05-7.43284E-06 2.94979E-19 7.68603E-19
 -1      1582 1.20836E-04-3.66198E-05-3.59282E-05-1.24653E-06-5.54343E-20 8.21490E-19
 -1      1583 1.18620E-04-3.60662E-05-3.52747E-05-1.67979E-06-2.04241E-19 3.20231E-19
 -1      1584 1.17580E-04-3.61639E-05-3.48489E-05-4.22345E-06-1.50653E-19 3.14329E-19
 -1      1585 1.21137E-04-3.65778E-05-3.61423E-05 4.04543E-07 1.42454E-18-1.42752E-18
 -1      1586 1.20911E-04-3.66706E-05-3.60322E-05 3.63356E-08 1.05972E-18 3.11496E-19
 -1      1587 1.18802E-04-3.63861E-05-3.52789E-05-8.46427E-07 9.66875E-19 1.35986E-18
 -1      1588 1.19087E-04-3.58349E-05-3.56433E-05 1.41204E-06-1.16832E-18-1.28974E-18
 -1      1589 1.20234E-04-3.63169E-05-3.59350E-05 1.17621E-06-2.38883E-19-1.59116E-18
 -1      1590 1.17789E-04-3.57960E-05-3.51099E-05 1.65287E-06 2.07589E-20 7.08722E-19
 -1      1591 1.15790E-04-3.47578E-05-3.47301E-05 1.85009E-06 2.47335E-19-1.05389E-19
 -1      1592 1.17643E-04-3.54051E-05-3.52440E-05 1.73433E-06-4.03659E-19-9.67920E-19
 -1      1593 1.15360E-04-3.48089E-05-3.45042E-05 3.05019E-06-5.75059E-19-2.15140E-19
 -1      1594 1.12089E-04-3.35997E-05-3.36583E-05 1.90703E-06-9.98941E-20-1.00421E-18
 -1      1595 1.14151E-04-3.42669E-05-3.42490E-05 1.87346E-06 3.05068E-19-2.72176E-19
 -1      1596 1.12274E-04-3.37099E-05-3.36614E-05 3.56088E-06 4.62850E-19 1.19252E-18
 -1      1597 1.08507E-04-3.25051E-05-3.25971E-05 1.75601E-06-6.87438E-19 1.02409E-18
 -1      1598 1.10481E-04-3.31159E-05-3.31727E-05 1.76912E-06-3.49460E-19-2.36110E-20
 -1      1599 1.09071E-04-3.26555E-05-3.27461E-05 3.50717E-06-7.65891E-19 2.69073E-18
 -1      1600 1.05308E-04-3.15414E-05-3.16376E-05 1.51671E-06-3.34214E-19 2.32252E-18
 -1      1601 1.07051E-04-3.20651E-05-3.21512E-05 1.55163E-06-6.21631E-19 8.69241E-19
 -1      1602 1.06073E-04-3.17170E-05-3.18659E-05 3.15964E-06-9.37345E-19 2.79978E-18
 -1      1603 1.02589E-04-3.07291E-05-3.08164E-05 1.25847E-06-3.04111E-19 2.63810E-18
 -1      1604 1.04054E-04-3.11607E-05-3.12510E-05 1.30050E-06-1.97718E-19 1.87190E-18
 -1      1605 1.03433E-04-3.09177E-05-3.10787E-05 2.69802E-06-3.16327E-19 2.47007E-18
 -1      1606 1.00354E-04-3.00646E-05-3.01393E-05 1.01471E-06 2.48867E-18-5.84357E-19
 -1      1607 1.01547E-04-3.04108E-05-3.04942E-05 1.05652E-06 1.56060E-18 1.91246E-18
 -1      1608 1.01203E-04-3.02562E-05-3.04072E-05 2.22318E-06 1.77568E-18 1.77760E-18
 -1      1609 9.85688E-05-2.95343E-05-2.95982E-05 7.96070E-07-2.93216E-19-2.48798E-18
 -1      1610 9.95131E-05-2.98053E-05-2.98793E-05 8.35239E-07 3.92762E-19-1.36928E-18
 -1      1611 9.93765E-05-2.97204E-05-2.98547E-05 1.78074E-06 1.79892E-18-3.50609E-19
 -1      1612 9.71901E-05-2.91238E-05-2.91817E-05 5.99303E-07-4.87449E-20-2.32770E-18
 -1      1613 9.79114E-05-2.93283E-05-2.93957E-05 6.36719E-07 3.99631E-19-2.99808E-18
 -1      1614 9.79237E-05-2.92953E-05-2.94153E-05 1.38114E-06 2.73648E-19-2.11238E-18
 -1      1615 9.61882E-05-2.88230E-05-2.88813E-05 4.13187E-07 1.48097E-19-3.49452E-18
 -1      1616 9.67017E-05-2.89652E-05-2.90325E-05 4.52138E-07 3.01560E-19-2.68162E-18
 -1      1617 9.68119E-05-2.89671E-05-2.90812E-05 1.01371E-06 3.98388E-19-1.83173E-18
 -1      1618 9.55512E-05-2.86298E-05-2.86902E-05 2.22047E-07 2.33712E-19-5.29668E-18
 -1      1619 9.58572E-05-2.87072E-05-2.87815E-05 2.69044E-07 4.63760E-19-3.95971E-18
 -1      1620 9.60135E-05-2.87251E-05-2.88447E-05 6.57652E-07 7.63776E-19-1.20996E-18
 -1      1621 9.52725E-05-2.85546E-05-2.85888E-05 3.81747E-08-8.09996E-21-5.18800E-18
 -1      1622 9.53661E-05-2.85618E-05-2.86310E-05 8.62337E-08-1.77757E-20-5.22057E-18
 -1      1623 9.55051E-05-2.85732E-05-2.86918E-05 2.97293E-07 4.00721E-19-2.17672E-18
 -1      1624 9.52205E-05-2.85700E-05-2.85532E-05-2.39737E-08-3.26464E-18-4.29613E-18
 -1      1625 9.52254E-05-2.83503E-05-2.86666E-05 1.72863E-07-3.30212E-18 3.47845E-19
 -1      1626 9.52584E-05-2.84720E-05-2.86191E-05 1.25132E-07-4.62231E-18-3.31996E-19
 -1      1627 9.50513E-05-2.78199E-05-2.88181E-05 3.59588E-07-1.81675E-18 4.40780E-19
 -1      1628 9.51523E-05-2.81222E-05-2.87312E-05 3.25409E-07-2.74143E-18 7.63944E-19
 -1      1629 9.52020E-05-2.81132E-05-2.87600E-05 4.95795E-07-2.07499E-18 1.12582E-18
 -1      1630 9.48066E-05-2.70865E-05-2.90249E-05 4.74651E-07-7.25987E-19-1.10701E-19
 -1      1631 9.49472E-05-2.75069E-05-2.89061E-05 4.58344E-07-6.87063E-19 1.30457E-19
 -1      1632 9.49964E-05-2.75624E-05-2.89073E-05 7.97372E-07-1.31268E-18 7.59751E-19
 -1      1633 9.45395E-05-2.62764E-05-2.92558E-05 4.99718E-07 1.28045E-18 1.94073E-19
 -1      1634 9.46902E-05-2.67318E-05-2.91263E-05 5.02087E-07 1.14012E-19 1.39456E-18
 -1      1635 9.47508E-05-2.68879E-05-2.90858E-05 9.46906E-07 2.59597E-19 1.50519E-18
 -1      1636 9.42980E-05-2.55355E-05-2.94690E-05 4.42276E-07-2.73000E-18-2.54466E-18
 -1      1637 9.44309E-05-2.59407E-05-2.93532E-05 4.59666E-07 1.74476E-19-2.95409E-18
 -1      1638 9.45018E-05-2.61933E-05-2.92713E-05 9.28340E-07-7.33143E-19-2.76303E-18
 -1      1639 9.41093E-05-2.49521E-05-2.96379E-05 3.17094E-07-4.00037E-18-2.11712E-19
 -1      1640 9.42087E-05-2.52563E-05-2.95506E-05 3.46350E-07-3.02628E-18-1.51615E-18
 -1      1641 9.42850E-05-2.55772E-05-2.94382E-05 7.62782E-07-1.63344E-18-3.04227E-18
 -1      1642 9.40042E-05-2.46237E-05-2.97336E-05 1.47666E-07-1.62706E-18 9.01504E-19
 -1      1643 9.40537E-05-2.47762E-05-2.96898E-05 1.83438E-07-3.25102E-18 1.41059E-18
 -1      1644 9.41271E-05-2.51230E-05-2.95623E-05 4.84024E-07-1.71002E-18 9.16974E-19
 -1      1645 9.39953E-05-2.45924E-05-2.97434E-05-3.97580E-08 1.47800E-18 2.26121E-18
 -1      1646 9.39889E-05-2.45738E-05-2.97486E-05-2.67453E-09-1.17253E-18 2.13373E-18
 -1      1647 9.40502E-05-2.48983E-05-2.96244E-05 1.40023E-07 3.22109E-19 2.05705E-18
 -1      1648 9.40819E-05-2.48581E-05-2.96669E-05-2.18751E-07 2.50391E-18 4.09329E-19
 -1      1649 9.40216E-05-2.46736E-05-2.97198E-05-1.85400E-07 1.07021E-18 2.75008E-18
 -1      1650 9.40626E-05-2.49307E-05-2.96162E-05-2.18206E-07 1.24418E-18 2.73533E-18
 -1      1651 9.42508E-05-2.53795E-05-2.95162E-05-3.65049E-07-2.27677E-19-1.59517E-18
 -1      1652 9.41459E-05-2.50575E-05-2.96086E-05-3.39915E-07 2.55006E-18-3.30121E-18
 -1      1653 9.41608E-05-2.52120E-05-2.95397E-05-5.41039E-07-1.93635E-20-1.19215E-18
 -1      1654 9.44740E-05-2.60679E-05-2.93172E-05-4.57296E-07-2.53680E-18 2.50747E-20
 -1      1655 9.43416E-05-2.56632E-05-2.94332E-05-4.44082E-07-1.77206E-18-2.91428E-20
 -1      1656 9.43299E-05-2.56963E-05-2.94078E-05-7.83160E-07 2.34142E-20-3.28290E-18
 -1      1657 9.47275E-05-2.68456E-05-2.90935E-05-4.83206E-07-3.78164E-19 3.98249E-19
 -1      1658 9.45828E-05-2.64059E-05-2.92190E-05-4.83940E-07-2.49689E-18 2.64879E-18
 -1      1659 9.45471E-05-2.63183E-05-2.92385E-05-9.11974E-07-7.27356E-20 1.64298E-18
 -1      1660 9.49691E-05-2.75820E-05-2.88832E-05-4.31750E-07 3.63486E-19 9.49956E-19
 -1      1661 9.48377E-05-2.71852E-05-2.89957E-05-4.47966E-07-5.31057E-19-4.42707E-20
 -1      1662 9.47879E-05-2.69989E-05-2.90548E-05-9.03779E-07 3.00444E-19 5.73591E-19
 -1      1663 9.51611E-05-2.81513E-05-2.87195E-05-3.04417E-07 6.23247E-19-4.06915E-20
 -1      1664 9.50630E-05-2.78719E-05-2.88004E-05-3.37105E-07 5.41517E-19 6.29809E-19
 -1      1665 9.50151E-05-2.76350E-05-2.88840E-05-7.46137E-07-4.66224E-20 1.53856E-18
 -1      1666 9.52698E-05-2.84264E-05-2.86419E-05-1.92250E-07-7.26177E-19-1.25669E-18
 -1      1667 9.52343E-05-2.83044E-05-2.86879E-05-2.55392E-07 8.88274E-19-1.36326E-18
 -1      1668 9.52236E-05-2.80876E-05-2.87766E-05-5.63608E-07-1.08321E-18-4.78360E-19
 -1      1669 9.54000E-05-2.83879E-05-2.87167E-05-3.95292E-07-8.39050E-20-2.15090E-18
 -1      1670 2.01128E-05-6.49381E-05 1.34595E-05-5.97030E-06 9.80610E-18 2.95191E-18
 -1      1671 2.30305E-05-7.39007E-05 1.54686E-05 1.49296E-06 8.16720E-18 2.04304E-18
 -1      1672 1.85089E-05-4.03799E-05 4.76935E-06 7.38853E-08 9.37750E-18 2.04717E-18
 -1      1673 2.34530E-05-6.18929E-05 1.02255E-05-2.51296E-06 1.14824E-17 2.06742E-18
 -1      1674 3.86690E-05-1.72097E-05-1.11421E-05 2.83437E-05 4.15300E-18 2.52755E-18
 -1      1675 3.26905E-05-3.66044E-05-2.59377E-06 1.18839E-05 7.25907E-18 1.33789E-18
 -1      1676 7.11368E-05-2.09573E-06-2.91678E-05 5.64201E-05 3.18400E-18 3.62276E-18
 -1      1677 4.89610E-05-9.04571E-06-1.95671E-05 3.44252E-05 3.51519E-18 2.93920E-18
 -1      1678 1.36897E-04-1.74936E-05-4.80869E-05 7.37044E-05 2.00408E-18 1.50772E-19
 -1      1679 9.68241E-05-7.09186E-06-3.83876E-05 5.98689E-05 3.10268E-18 1.89481E-18
 -1      1680 2.03203E-04-4.14200E-05-6.38397E-05 6.65693E-05-1.14985E-19-4.47149E-18
 -1      1681 1.59965E-04-2.15811E-05-5.64248E-05 7.25810E-05 1.77496E-18-1.53144E-18
 -1      1682 2.49433E-04-6.23841E-05-7.34118E-05 3.20645E-05 7.64871E-19-9.61171E-18
 -1      1683 2.22033E-04-4.73188E-05-6.94574E-05 5.84824E-05 2.43310E-19-6.01393E-18
 -1      1684 2.49504E-04-6.11121E-05-7.46348E-05-2.00208E-05 1.92700E-18-1.28980E-17
 -1      1685 2.51975E-04-6.22981E-05-7.48614E-05 1.59723E-05 9.15219E-19-1.06315E-17
 -1      1686 2.06914E-04-4.06432E-05-6.70192E-05-5.80681E-05 5.58226E-18-1.33035E-17
 -1      1687 2.39573E-04-5.76886E-05-7.19287E-05-3.34287E-05 3.20771E-18-1.23620E-17
 -1      1688 1.44260E-04-1.83605E-05-5.20752E-05-6.66488E-05 6.49759E-18-1.25640E-17
 -1      1689 1.88307E-04-3.72719E-05-6.04452E-05-6.45216E-05 5.92245E-18-1.33797E-17
 -1      1690 8.04415E-05-2.65912E-06-3.40149E-05-5.61266E-05 7.43187E-18-1.00340E-17
 -1      1691 1.17839E-04-1.04859E-05-4.37643E-05-7.32031E-05 7.19470E-18-1.27123E-17
 -1      1692 4.05457E-05-1.39385E-05-1.47608E-05-2.59943E-05 6.83217E-18-6.51877E-18
 -1      1693 5.91187E-05-2.50892E-06-2.45850E-05-4.92297E-05 7.53944E-18-8.45847E-18
 -1      1694 2.52516E-05-4.24670E-05 1.95044E-06-2.87039E-06 2.46825E-18-3.43726E-18
 -1      1695 2.61307E-05-1.89731E-05-6.09355E-06-1.67075E-05 5.38713E-18-5.55484E-18
 -1      1696 2.39242E-05-6.78281E-05 1.25369E-05 1.63723E-06-2.86890E-18-1.91641E-18
 -1      1697 1.87884E-05-4.87963E-05 7.87987E-06 2.69251E-06 8.74138E-19-2.69918E-18
 -1      1698 2.25163E-05-7.41459E-05 1.58563E-05-2.84643E-06-7.43457E-18-2.46211E-18
 -1      1699 2.12826E-05-7.08127E-05 1.51016E-05 6.26480E-06-4.07613E-18-2.36936E-18
 -1      1700 1.92436E-05-5.75866E-05 1.11886E-05-3.42823E-06-9.23308E-18-2.95149E-18
 -1      1701 2.34226E-05-7.16809E-05 1.44920E-05 1.72824E-06-7.94771E-18-1.69957E-18
 -1      1702 2.03900E-05-3.01105E-05 3.89472E-07 7.19162E-06-8.86589E-18-3.16240E-18
 -1      1703 2.37275E-05-5.30674E-05 6.82436E-06 3.38527E-07-1.01017E-17-2.99352E-18
 -1      1704 4.26119E-05-6.43802E-06-1.66969E-05 3.70393E-05-5.91907E-18-4.44523E-18
 -1      1705 3.23392E-05-2.46623E-05-7.31503E-06 1.62868E-05-7.39883E-18-3.34324E-18
 -1      1706 8.79252E-05-1.80979E-06-3.53834E-05 6.63891E-05-5.06017E-18-6.42390E-18
 -1      1707 5.96080E-05-2.87321E-06-2.58398E-05 4.51969E-05-5.40915E-18-5.17791E-18
 -1      1708 1.53359E-04-2.02493E-05-5.30349E-05 7.85313E-05-3.87263E-18-4.33173E-18
 -1      1709 1.11361E-04-5.23710E-06-4.42505E-05 7.01675E-05-4.65699E-18-5.17198E-18
 -1      1710 2.14407E-04-4.65349E-05-6.63806E-05 6.10239E-05-2.40854E-18 6.47133E-19
 -1      1711 1.75862E-04-2.67286E-05-6.01901E-05 7.39886E-05-3.66765E-18-2.56312E-18
 -1      1712 2.46685E-04-6.10716E-05-7.34543E-05 1.09294E-05-1.59242E-18 5.98069E-18
 -1      1713 2.26311E-04-4.97373E-05-7.04804E-05 4.48417E-05-2.30086E-18 2.11631E-18
 -1      1714 2.39453E-04-5.66519E-05-7.24728E-05-3.98299E-05-2.73232E-18 9.59095E-18
 -1      1715 2.53390E-04-6.46899E-05-7.44245E-05-5.61635E-06-1.11978E-18 8.34063E-18
 -1      1716 1.84497E-04-3.08310E-05-6.22220E-05-6.74544E-05-4.75313E-18 1.00611E-17
 -1      1717 2.23317E-04-5.06001E-05-6.82457E-05-5.05496E-05-3.27373E-18 9.30635E-18
 -1      1718 1.18591E-04-1.06900E-05-4.52062E-05-6.47502E-05-5.94490E-18 8.95991E-18
 -1      1719 1.63066E-04-2.71550E-05-5.45559E-05-7.07150E-05-4.91830E-18 9.55199E-18
 -1      1720 5.71204E-05-2.81785E-06-2.50591E-05-4.34793E-05-9.76036E-18 8.05867E-18
 -1      1721 8.90597E-05-2.30356E-06-3.57843E-05-6.68683E-05-8.09679E-18 8.77187E-18
 -1      1722 3.19874E-05-2.85741E-05-5.57918E-06-1.44598E-05-7.17352E-18 6.08974E-18
 -1      1723 4.13153E-05-8.72462E-06-1.52738E-05-3.52261E-05-9.33600E-18 6.97616E-18
 -1      1724 2.36751E-05-5.91760E-05 8.96447E-06 1.50415E-06 5.02291E-19 4.00448E-18
 -1      1725 1.89946E-05-3.46539E-05 2.50043E-06-3.91126E-06-5.90467E-18 7.01343E-18
 -1      1726 2.39404E-05-7.66639E-05 1.58420E-05-2.34004E-06 6.57403E-18 1.36288E-18
 -1      1727 2.01807E-05-6.54782E-05 1.33519E-05 6.25965E-06 1.92954E-18 3.17044E-18
 -1      1728 1.13170E-04-3.30843E-05-3.36037E-05 4.39864E-05 1.88888E-18-4.50622E-19
 -1      1729 7.31286E-05-3.81755E-05-1.65641E-05 3.86259E-05 2.01594E-18 7.21249E-19
 -1      1730 9.52808E-05-2.85597E-05-2.85941E-05 2.97570E-08-3.75956E-18-1.46709E-18
 -1      1731 9.53137E-05-2.84245E-05-2.86669E-05 2.12274E-07-1.01357E-18-8.99339E-19
 -1      1732 1.80397E-05-4.70621E-05 8.26210E-06 1.27779E-05 5.10337E-18 2.17984E-18
 -1      1733 4.11181E-05-4.24867E-05-1.99846E-06 2.93127E-05 5.16775E-18-1.02525E-18
 -1      1734 1.18391E-05-4.97801E-05 1.17043E-05-3.20249E-07 3.21603E-18 4.07635E-18
 -1      1735 1.56757E-04-3.36623E-05-5.00782E-05 3.90160E-05 2.30456E-18-3.01290E-18
 -1      1736 1.92893E-04-3.43746E-05-6.33334E-05 2.97706E-05 1.28050E-18-5.76406E-18
 -1      1737 2.10967E-04-3.45227E-05-7.01020E-05 1.08765E-05 2.36873E-18-8.44767E-18
 -1      1738 2.03876E-04-3.15240E-05-6.88595E-05-9.59919E-06 2.80876E-18-8.91163E-18
 -1      1739 1.81796E-04-3.35464E-05-6.00738E-05-2.40861E-05 4.46312E-18-9.13525E-18
 -1      1740 1.46662E-04-3.30443E-05-4.63089E-05-4.04622E-05 3.77226E-18-9.14880E-18
 -1      1741 9.98498E-05-3.11508E-05-2.92795E-05-4.42910E-05 4.23855E-18-7.68937E-18
 -1      1742 5.93751E-05-3.61871E-05-1.19993E-05-3.46175E-05 2.81130E-18-6.27609E-18
 -1      1743 3.06562E-05-4.37327E-05 1.94732E-06-2.18877E-05-5.43795E-19-4.76234E-18
 -1      1744 1.50456E-05-4.85104E-05 9.97913E-06-8.99462E-06-3.05017E-18-3.84045E-18
 -1      1745 1.19443E-05-4.79419E-05 1.10982E-05 5.41606E-06-4.54126E-18-3.32460E-18
 -1      1746 2.25458E-05-4.50423E-05 5.73574E-06 1.83897E-05-5.19909E-18-2.15464E-18
 -1      1747 4.60819E-05-3.85912E-05-5.80777E-06 3.15012E-05-4.47064E-18-1.17123E-18
 -1      1748 8.10266E-05-3.18756E-05-2.17639E-05 4.21156E-05-3.27971E-18-3.03534E-18
 -1      1749 1.22614E-04-2.82502E-05-3.89775E-05 4.75893E-05-3.08828E-18-1.90074E-18
 -1      1750 1.64704E-04-2.99832E-05-5.42508E-05 4.30657E-05-3.59820E-18 5.92923E-20
 -1      1751 1.93894E-04-3.17275E-05-6.50207E-05 2.47684E-05-4.00011E-18 2.69526E-18
 -1      1752 2.07420E-04-3.30268E-05-6.97547E-05 3.68355E-07-3.11708E-18 5.05875E-18
 -1      1753 1.99883E-04-3.32506E-05-6.66138E-05-2.02734E-05-3.22741E-18 7.07992E-18
 -1      1754 1.68352E-04-3.26266E-05-5.52957E-05-3.17771E-05-2.98735E-18 5.26262E-18
 -1      1755 1.27335E-04-3.12044E-05-3.94808E-05-4.39460E-05-4.03272E-18 5.07796E-18
 -1      1756 8.01608E-05-3.36661E-05-2.08871E-05-4.16979E-05-5.10422E-18 4.19535E-18
 -1      1757 4.35786E-05-3.98912E-05-4.08956E-06-3.07305E-05-2.00832E-18 6.84657E-18
 -1      1758 1.95792E-05-4.81502E-05 7.89292E-06-1.44944E-05 2.09641E-19 6.33348E-18
 -1      1759 1.05968E-04-2.31482E-05-3.55778E-05-1.68559E-05-1.57985E-18 4.82237E-18
 -1      1760 8.91451E-05-1.05855E-05-3.37934E-05-1.33352E-05-1.70704E-18-2.80577E-18
 -1      1761 9.04606E-05-1.16266E-05-3.39283E-05-1.51440E-05-2.04896E-18-2.27704E-18
 -1      1762 9.24524E-05-1.38665E-05-3.38416E-05-1.60088E-05-2.06806E-18-1.45623E-18
 -1      1763 9.41543E-05-1.58088E-05-3.40807E-05-1.76690E-05-2.29754E-18-3.98529E-19
 -1      1764 9.33873E-05-1.63385E-05-3.30354E-05-1.37764E-05-2.16467E-18-1.72371E-18
 -1      1765 8.62423E-05-7.67643E-06-3.37419E-05-7.86811E-06-6.91700E-19-3.61167E-18
 -1      1766 8.66372E-05-7.97389E-06-3.37727E-05-9.25801E-06-9.58587E-19-3.58178E-18
 -1      1767 8.56383E-05-7.03878E-06-3.37448E-05-5.32233E-06-2.60066E-19-3.57727E-18
 -1      1768 8.58671E-05-7.21747E-06-3.37573E-05-6.62761E-06-4.72974E-19-3.60594E-18
 -1      1769 8.76287E-05-9.86770E-06-3.33576E-05-6.93013E-06-6.75694E-19-3.46298E-18
 -1      1770 8.53113E-05-6.67951E-06-3.37518E-05-2.88953E-06 2.62422E-19-3.40804E-18
 -1      1771 8.54288E-05-6.77436E-06-3.37561E-05-4.12979E-06 5.00213E-20-3.52424E-18
 -1      1772 8.70042E-05-9.15509E-06-3.33962E-05-4.53727E-06-9.54029E-20-3.37443E-18
 -1      1773 8.51833E-05-6.53067E-06-3.37567E-05-5.17368E-07 7.65811E-19-3.28336E-18
 -1      1774 8.52180E-05-6.55936E-06-3.37577E-05-1.72732E-06 5.35105E-19-3.34387E-18
 -1      1775 8.66785E-05-8.77509E-06-3.34194E-05-2.21661E-06 4.19157E-19-3.22979E-18
 -1      1776 8.52273E-05-6.56807E-06-3.37577E-05 1.84569E-06 1.19651E-18-3.18745E-18
 -1      1777 8.51868E-05-6.53513E-06-3.37566E-05 6.34809E-07 1.01959E-18-3.28168E-18
 -1      1778 8.65820E-05-8.66082E-06-3.34269E-05 6.56762E-08 9.64132E-19-3.15790E-18
 -1      1779 8.54532E-05-6.79893E-06-3.37562E-05 4.25232E-06 1.53177E-18-3.02461E-18
 -1      1780 8.53285E-05-6.69809E-06-3.37516E-05 3.00905E-06 1.37168E-18-3.15370E-18
 -1      1781 8.66954E-05-8.79433E-06-3.34185E-05 2.34889E-06 1.36028E-18-3.06862E-18
 -1      1782 8.59006E-05-7.25274E-06-3.37572E-05 6.71492E-06 1.87449E-18-2.65771E-18
 -1      1783 8.56680E-05-7.07050E-06-3.37448E-05 5.42704E-06 1.66937E-18-2.90990E-18
 -1      1784 8.70377E-05-9.19250E-06-3.33946E-05 4.65223E-06 1.71871E-18-2.87220E-18
 -1      1785 8.66992E-05-8.04231E-06-3.37717E-05 9.37853E-06 2.24800E-18-1.94623E-18
 -1      1786 8.62865E-05-7.72617E-06-3.37413E-05 7.95692E-06 2.03697E-18-2.34231E-18
 -1      1787 8.76793E-05-9.92603E-06-3.33554E-05 7.02847E-06 2.11054E-18-2.35981E-18
 -1      1788 8.80912E-05-9.38800E-06-3.38191E-05 1.22595E-05 2.59057E-18-8.86499E-19
 -1      1789 8.73621E-05-8.83139E-06-3.37512E-05 1.06659E-05 2.39112E-18-1.49975E-18
 -1      1790 8.87845E-05-1.11606E-05-3.32981E-05 9.50475E-06 2.45841E-18-1.56274E-18
 -1      1791 9.06091E-05-1.18355E-05-3.39199E-05 1.53092E-05 2.76033E-18 7.32975E-19
 -1      1792 8.92423E-05-1.07386E-05-3.37849E-05 1.35195E-05 2.60513E-18-2.15040E-19
 -1      1793 9.06597E-05-1.32204E-05-3.32069E-05 1.19792E-05 2.74216E-18-4.41437E-19
 -1      1794 9.58228E-05-1.70214E-05-3.39759E-05 1.76966E-05 2.49366E-18 3.64764E-18
 -1      1795 9.28190E-05-1.43344E-05-3.38145E-05 1.62008E-05 2.59400E-18 1.92258E-18
 -1      1796 9.39393E-05-1.68786E-05-3.30148E-05 1.39003E-05 2.73966E-18 1.35705E-18
 -1      1797 1.01849E-04-2.50725E-05-3.33359E-05 1.44282E-05 2.01223E-18 6.77288E-18
 -1      1798 9.80129E-05-1.96000E-05-3.36051E-05 1.69703E-05 2.22425E-18 4.76361E-18
 -1      1799 9.72728E-05-2.18382E-05-3.24103E-05 1.32553E-05 2.48152E-18 3.56275E-18
 -1      1800 9.86749E-05-2.61125E-05-3.13191E-05 9.44197E-06 1.98071E-18 6.11339E-18
 -1      1801 1.00085E-04-1.95448E-05-3.41955E-05-1.88743E-05-2.06106E-18 1.51788E-18
 -1      1802 9.52324E-05-2.72616E-05-2.91619E-05 4.07345E-06 1.60742E-18 4.95025E-18
 -1      1803 9.76643E-05-2.73675E-05-3.01713E-05 6.40741E-06 1.69113E-18 5.59583E-18
 -1      1804 9.75098E-05-2.55948E-05-3.08127E-05 8.76701E-06 2.08225E-18 4.13793E-18
 -1      1805 9.97515E-05-2.25237E-05-3.28166E-05-1.44738E-05-2.14103E-18 7.54442E-19
 -1      1806 9.68904E-05-2.69560E-05-2.98571E-05-5.70885E-06-1.70082E-18 5.40837E-19
 -1      1807 9.50830E-05-2.70123E-05-2.91465E-05-3.89998E-06-1.51039E-18 8.30754E-20
 -1      1808 9.42711E-05-2.72181E-05-2.86400E-05-2.42383E-06-1.48190E-18 1.18174E-19
 -1      1809 9.34986E-05-2.72962E-05-2.83357E-05-1.57197E-06-1.29887E-18-2.60456E-19
 -1      1810 9.54589E-05-2.65376E-05-2.95615E-05-4.47161E-06-1.75591E-18-5.79672E-19
 -1      1811 9.29741E-05-2.73425E-05-2.80688E-05-7.38590E-07-9.97672E-19-2.73049E-19
 -1      1812 9.26763E-05-2.74061E-05-2.79480E-05-2.95363E-07-7.62508E-19-5.72553E-19
 -1      1813 9.42526E-05-2.72053E-05-2.87567E-05-1.82588E-06-1.33795E-18-6.02429E-19
 -1      1814 9.24078E-05-2.74346E-05-2.78146E-05 1.68123E-07-7.78202E-19-5.87831E-19
 -1      1815 9.23840E-05-2.75112E-05-2.77874E-05 3.99507E-07-6.95758E-19-7.97984E-19
 -1      1816 9.35593E-05-2.75057E-05-2.83255E-05-3.43420E-07-9.33587E-19-8.92740E-19
 -1      1817 9.22920E-05-2.75438E-05-2.77338E-05 6.51656E-07-7.09111E-19-8.23770E-19
 -1      1818 9.24209E-05-2.76304E-05-2.77577E-05 7.66714E-07-5.09639E-19-9.86295E-19
 -1      1819 9.32558E-05-2.76902E-05-2.81122E-05 4.82365E-07-7.73368E-19-9.32394E-19
 -1      1820 9.24443E-05-2.76705E-05-2.77530E-05 8.96432E-07-4.37160E-19-9.46078E-19
 -1      1821 9.26557E-05-2.77607E-05-2.78056E-05 9.46795E-07-3.55199E-19-1.07960E-18
 -1      1822 9.32203E-05-2.78331E-05-2.80320E-05 9.28981E-07-6.22917E-19-8.71838E-19
 -1      1823 9.27519E-05-2.78061E-05-2.78312E-05 1.00743E-06-3.19768E-19-1.17884E-18
 -1      1824 9.30060E-05-2.78953E-05-2.78997E-05 1.02409E-06-3.58197E-19-1.18417E-18
 -1      1825 9.33587E-05-2.79581E-05-2.80349E-05 1.15654E-06-4.21760E-19-9.00884E-19
 -1      1826 9.31478E-05-2.79433E-05-2.79443E-05 1.04989E-06-6.11405E-19-1.10263E-18
 -1      1827 9.34237E-05-2.80296E-05-2.80218E-05 1.05319E-06-5.52240E-19-1.11241E-18
 -1      1828 9.36066E-05-2.80717E-05-2.80905E-05 1.26405E-06-4.39749E-19-1.16447E-18
 -1      1829 9.35957E-05-2.80789E-05-2.80792E-05 1.06757E-06-4.83025E-19-1.07000E-18
 -1      1830 9.38852E-05-2.81624E-05-2.81627E-05 1.07174E-06-4.19052E-19-1.39179E-18
 -1      1831 9.39245E-05-2.81763E-05-2.81808E-05 1.31703E-06-6.05012E-19-1.07592E-18
 -1      1832 9.40804E-05-2.82130E-05-2.82298E-05 1.09145E-06-3.72628E-19-1.53730E-18
 -1      1833 9.43843E-05-2.82957E-05-2.83190E-05 1.10689E-06-2.04563E-19-1.93106E-18
 -1      1834 9.42916E-05-2.82742E-05-2.82956E-05 1.36115E-06-5.37402E-19-9.37213E-19
 -1      1835 9.46021E-05-2.83486E-05-2.83951E-05 1.14424E-06-1.37688E-19-1.86898E-18
 -1      1836 9.49278E-05-2.84341E-05-2.84917E-05 1.17872E-06-5.69917E-20-1.68092E-18
 -1      1837 9.47015E-05-2.83690E-05-2.84306E-05 1.42948E-06-2.44824E-19-1.23707E-18
 -1      1838 9.51722E-05-2.84917E-05-2.85776E-05 1.24282E-06-3.92762E-20-1.54572E-18
 -1      1839 9.55315E-05-2.85846E-05-2.86847E-05 1.30202E-06-3.32576E-20-1.46673E-18
 -1      1840 9.51586E-05-2.84661E-05-2.85852E-05 1.54636E-06-8.66153E-20-1.10453E-18
 -1      1841 9.58100E-05-2.86502E-05-2.87823E-05 1.39915E-06-3.71942E-21-1.55051E-18
 -1      1842 9.62180E-05-2.87564E-05-2.89039E-05 1.48665E-06 1.68187E-19-1.44327E-18
 -1      1843 9.56749E-05-2.85727E-05-2.87614E-05 1.72924E-06-2.98199E-20-8.47572E-19
 -1      1844 9.65402E-05-2.88343E-05-2.90157E-05 1.61998E-06-4.41516E-20-1.67374E-18
 -1      1845 9.70134E-05-2.89606E-05-2.91560E-05 1.73669E-06-3.60448E-20-1.55349E-18
 -1      1846 9.62683E-05-2.86982E-05-2.89626E-05 1.98885E-06-7.46791E-20-1.34806E-18
 -1      1847 9.73900E-05-2.90562E-05-2.92842E-05 1.90520E-06-3.36522E-19-1.87448E-18
 -1      1848 9.79441E-05-2.92101E-05-2.94471E-05 2.04803E-06-3.41670E-19-1.80791E-18
 -1      1849 9.69601E-05-2.88548E-05-2.91927E-05 2.32775E-06-3.14227E-19-1.36258E-18
 -1      1850 9.83859E-05-2.93302E-05-2.95931E-05 2.24449E-06-4.03818E-19-2.15776E-18
 -1      1851 9.90328E-05-2.95197E-05-2.97811E-05 2.40416E-06-6.35956E-19-2.14658E-18
 -1      1852 9.77730E-05-2.90584E-05-2.94545E-05 2.73693E-06-6.82842E-19-1.64646E-18
 -1      1853 9.95487E-05-2.96723E-05-2.99448E-05 2.61203E-06-7.61435E-19-1.99434E-18
 -1      1854 1.00292E-04-2.99051E-05-3.01574E-05 2.76994E-06-9.77542E-19-2.22160E-18
 -1      1855 9.87285E-05-2.93291E-05-2.97485E-05 3.19029E-06-6.77721E-19-1.45630E-18
 -1      1856 1.00888E-04-3.00998E-05-3.03356E-05 2.95904E-06-1.02172E-18-2.16091E-18
 -1      1857 1.01716E-04-3.03817E-05-3.05677E-05 3.08319E-06-8.13025E-19-2.11054E-18
 -1      1858 9.98434E-05-2.96924E-05-3.00709E-05 3.63655E-06-1.06484E-18-1.39696E-18
 -1      1859 1.02391E-04-3.06290E-05-3.07537E-05 3.20477E-06-3.85324E-19-2.23305E-18
 -1      1860 1.03271E-04-3.09611E-05-3.09932E-05 3.24574E-06 3.37346E-20-2.63228E-18
 -1      1861 1.01126E-04-3.01791E-05-3.04116E-05 3.98936E-06-7.74631E-19-1.53717E-18
 -1      1862 1.04013E-04-3.12704E-05-3.11754E-05 3.22844E-06 7.95996E-21-2.73555E-18
 -1      1863 1.04878E-04-3.16435E-05-3.14012E-05 3.11776E-06-1.47983E-19-2.79253E-18
 -1      1864 1.02567E-04-3.08209E-05-3.07533E-05 4.11746E-06-2.29360E-19-1.65111E-18
 -1      1865 1.05660E-04-3.20164E-05-3.15632E-05 2.86835E-06 2.82338E-19-2.22612E-18
 -1      1866 1.06402E-04-3.24021E-05-3.17444E-05 2.52443E-06 6.32707E-19-1.57543E-18
 -1      1867 1.04131E-04-3.16391E-05-3.10709E-05 3.84089E-06 4.68680E-19-1.27217E-18
 -1      1868 1.07167E-04-3.28201E-05-3.18672E-05 1.94110E-06 4.25287E-19-1.49299E-18
 -1      1869 1.07636E-04-3.31573E-05-3.19657E-05 1.29082E-06 6.00050E-19-1.02789E-18
 -1      1870 1.05734E-04-3.26175E-05-3.13346E-05 2.94521E-06 7.73152E-19-9.70457E-19
 -1      1871 1.08286E-04-3.35610E-05-3.20322E-05 3.00592E-07 7.33216E-19-5.53596E-19
 -1      1872 1.08300E-04-3.37432E-05-3.20101E-05-6.74347E-07 5.93651E-19-6.07679E-19
 -1      1873 1.07216E-04-3.36554E-05-3.15178E-05 1.23396E-06 8.39453E-19-7.94029E-19
 -1      1874 1.08678E-04-3.40113E-05-3.20125E-05-2.04426E-06 3.35140E-19-8.35885E-19
 -1      1875 1.08074E-04-3.38900E-05-3.18474E-05-3.23784E-06-9.43184E-20-1.05519E-18
 -1      1876 1.08306E-04-3.45084E-05-3.16084E-05-1.35592E-06 5.00709E-19-1.18790E-18
 -1      1877 1.07982E-04-3.38414E-05-3.17942E-05-4.76354E-06-3.90353E-19-1.23559E-18
 -1      1878 1.06696E-04-3.32734E-05-3.14969E-05-5.88090E-06-3.95624E-19-1.85462E-18
 -1      1879 1.08621E-04-3.47637E-05-3.16208E-05-4.57154E-06-3.93020E-19-1.05126E-18
 -1      1880 1.05979E-04-3.27398E-05-3.14145E-05-7.07727E-06-8.21705E-19-1.90665E-18
 -1      1881 1.04163E-04-3.17039E-05-3.10410E-05-7.64978E-06-3.30829E-19-1.66546E-18
 -1      1882 1.07768E-04-3.39447E-05-3.15978E-05-7.65472E-06-5.80092E-19-5.14816E-19
 -1      1883 1.02891E-04-3.07013E-05-3.09636E-05-7.86969E-06 1.44509E-19-1.90668E-18
 -1      1884 1.00981E-04-2.94359E-05-3.06068E-05-7.44381E-06 2.44607E-19-1.87948E-18
 -1      1885 1.05633E-04-3.18507E-05-3.15923E-05-9.34006E-06-2.79726E-19-3.07236E-19
 -1      1886 9.96033E-05-2.83166E-05-3.05566E-05-6.23933E-06 1.04403E-19-2.40574E-18
 -1      1887 9.82259E-05-2.73203E-05-3.03171E-05-4.70916E-06-4.37823E-19-2.90863E-18
 -1      1888 1.02763E-04-2.89897E-05-3.16278E-05-8.34036E-06-2.92795E-19-1.20452E-18
 -1      1889 9.74439E-05-2.66764E-05-3.02967E-05-2.27937E-06-1.27037E-18-3.49811E-18
 -1      1890 9.71408E-05-2.64510E-05-3.02451E-05-1.17121E-07-1.87470E-18-3.38961E-18
 -1      1891 1.00408E-04-2.66276E-05-3.16751E-05-4.29277E-06-9.82174E-19-2.88112E-18
 -1      1892 9.74251E-05-2.66884E-05-3.02500E-05 2.59764E-06-2.43474E-18-3.48905E-18
 -1      1893 9.83221E-05-2.73562E-05-3.04018E-05 4.52566E-06-1.17548E-18-3.93256E-18
 -1      1894 9.98633E-05-2.60854E-05-3.16850E-05 1.52527E-06-1.97061E-18-3.07473E-18
 -1      1895 9.94903E-05-2.83166E-05-3.04349E-05 6.39847E-06-3.22131E-19-4.38670E-18
 -1      1896 1.01216E-04-2.95211E-05-3.07441E-05 7.37941E-06 1.58736E-19-4.32942E-18
 -1      1897 1.01451E-04-2.76876E-05-3.16455E-05 6.68535E-06-9.45984E-19-2.63420E-18
 -1      1898 1.02614E-04-3.06465E-05-3.08075E-05 7.82215E-06 2.97699E-19-4.53943E-18
 -1      1899 1.04537E-04-3.18406E-05-3.11830E-05 7.68602E-06 5.82191E-19-3.93745E-18
 -1      1900 1.04243E-04-3.04913E-05-3.15944E-05 9.20924E-06 2.14943E-19-3.15689E-18
 -1      1901 1.05545E-04-3.26199E-05-3.12642E-05 6.87756E-06 9.88769E-19-3.74578E-18
 -1      1902 1.07112E-04-3.34218E-05-3.16048E-05 5.95583E-06 1.09846E-18-3.48534E-18
 -1      1903 1.06840E-04-3.30745E-05-3.15749E-05 8.68583E-06 1.03623E-18-2.86504E-18
 -1      1904 1.07487E-04-3.36883E-05-3.16733E-05 4.50877E-06 1.27495E-18-3.32484E-18
 -1      1905 1.08410E-04-3.40080E-05-3.19024E-05 3.29820E-06 1.77416E-18-2.53718E-18
 -1      1906 1.08315E-04-3.45163E-05-3.15897E-05 6.09102E-06 1.69423E-18-1.46409E-18
 -1      1907 1.08224E-04-3.38658E-05-3.19258E-05 1.80345E-06 1.35511E-18-2.55294E-18
 -1      1908 1.08475E-04-3.38056E-05-3.20112E-05 6.93951E-07 1.16845E-18-1.91967E-18
 -1      1909 1.08505E-04-3.47229E-05-3.15952E-05 2.79757E-06 1.45246E-18-1.10377E-18
 -1      1910 1.07923E-04-3.34445E-05-3.19718E-05-4.99234E-07 1.19196E-18-1.61435E-18
 -1      1911 1.07631E-04-3.31601E-05-3.19220E-05-1.31512E-06 1.06003E-18-3.53423E-19
 -1      1912 1.07715E-04-3.40927E-05-3.15396E-05-1.67465E-07 1.57729E-18-4.71017E-20
 -1      1913 1.06893E-04-3.27343E-05-3.18206E-05-2.09602E-06 4.32625E-19-1.11750E-18
 -1      1914 1.06240E-04-3.23549E-05-3.16683E-05-2.58568E-06-2.12628E-19-1.48106E-18
 -1      1915 1.06357E-04-3.30953E-05-3.13939E-05-2.32336E-06 6.08643E-19-7.44891E-19
 -1      1916 1.05444E-04-3.19515E-05-3.15186E-05-2.98931E-06-6.66635E-19-1.33031E-18
 -1      1917 1.04598E-04-3.15590E-05-3.13035E-05-3.20607E-06-1.59033E-18-1.37728E-18
 -1      1918 1.04759E-04-3.20589E-05-3.11588E-05-3.60527E-06-4.05229E-19-9.03001E-19
 -1      1919 1.03818E-04-3.12130E-05-3.11249E-05-3.32555E-06-1.97836E-18-7.16769E-20
 -1      1920 1.02910E-04-3.08497E-05-3.08823E-05-3.34955E-06-2.08221E-18 4.63367E-19
 -1      1921 1.03134E-04-3.11461E-05-3.08565E-05-4.16177E-06-1.36933E-18 1.14210E-18
 -1      1922 1.02188E-04-3.05671E-05-3.06935E-05-3.28287E-06-2.00287E-18 5.07760E-19
 -1      1923 1.01306E-04-3.02504E-05-3.04503E-05-3.18827E-06 1.23790E-19 7.44972E-19
 -1      1924 1.01599E-04-3.04059E-05-3.05174E-05-4.20441E-06-1.24830E-18 2.89965E-18
 -1      1925 1.00662E-04-3.00244E-05-3.02661E-05-3.01476E-06 2.14319E-18-3.15526E-19
 -1      1926 9.98584E-05-2.97576E-05-3.00398E-05-2.85707E-06 2.44937E-18 4.89426E-20
 -1      1927 1.00214E-04-2.98300E-05-3.01711E-05-3.92734E-06 2.26423E-19 3.17039E-18
 -1      1928 9.93002E-05-2.95776E-05-2.98707E-05-2.63141E-06 2.50532E-18 4.21839E-19
 -1      1929 9.86013E-05-2.93574E-05-2.96715E-05-2.44583E-06 2.78801E-18 1.67752E-18
 -1      1930 9.90019E-05-2.93883E-05-2.98411E-05-3.47695E-06 2.83148E-18 2.16652E-18
 -1      1931 9.81292E-05-2.92130E-05-2.95241E-05-2.20010E-06 1.49100E-18 2.07723E-18
 -1      1932 9.75468E-05-2.90338E-05-2.93573E-05-2.00446E-06 1.07535E-18 1.74017E-18
 -1      1933 9.79679E-05-2.90473E-05-2.95440E-05-2.94816E-06 2.32125E-18 2.39980E-18
 -1      1934 9.71563E-05-2.89155E-05-2.92351E-05-1.75308E-06 2.59302E-19 1.11696E-18
 -1      1935 9.66933E-05-2.87715E-05-2.91031E-05-1.55217E-06-3.10406E-19 1.32344E-18
 -1      1936 9.71053E-05-2.87769E-05-2.92898E-05-2.39221E-06 4.66629E-19 1.63761E-18
 -1      1937 9.63765E-05-2.86724E-05-2.90067E-05-1.29778E-06-2.50041E-19 5.33695E-19
 -1      1938 9.60331E-05-2.85618E-05-2.89097E-05-1.08911E-06-3.47446E-19 5.87887E-19
 -1      1939 9.64010E-05-2.85536E-05-2.90827E-05-1.82872E-06-9.83842E-19 2.08141E-18
 -1      1940 9.58100E-05-2.84957E-05-2.88414E-05-8.45205E-07-2.82755E-19-1.36680E-19
 -1      1941 9.55781E-05-2.84240E-05-2.87732E-05-6.37640E-07-4.48715E-19-1.00933E-18
 -1      1942 9.54951E-05-2.83005E-05-2.88020E-05-7.57504E-07-1.29491E-18-9.52368E-19
 -1      1943 9.58674E-05-2.83877E-05-2.89263E-05-1.27607E-06-1.50505E-18 5.17190E-19
 -1      1944 9.31329E-05-2.73377E-05-2.81700E-05 1.60935E-06 1.26778E-18 4.02314E-18
 -1      1945 9.43283E-05-2.74437E-05-2.86066E-05 2.68117E-06 1.38968E-18 4.56990E-18
 -1      1946 9.51641E-05-2.70261E-05-2.92074E-05 4.05933E-06 1.73986E-18 3.32560E-18
 -1      1947 9.20841E-05-2.73239E-05-2.77297E-05 3.47211E-07 9.02778E-19 3.29271E-18
 -1      1948 9.25776E-05-2.73565E-05-2.79015E-05 8.97370E-07 9.80454E-19 3.68874E-18
 -1      1949 9.35628E-05-2.73467E-05-2.83853E-05 1.58563E-06 1.29022E-18 2.58270E-18
 -1      1950 9.17182E-05-2.73625E-05-2.75651E-05-3.15683E-07 6.61667E-19 2.78293E-18
 -1      1951 9.18292E-05-2.73353E-05-2.76105E-05-1.93290E-08 7.15213E-19 3.01924E-18
 -1      1952 9.27393E-05-2.74618E-05-2.79862E-05 2.63315E-07 9.62641E-19 1.92158E-18
 -1      1953 9.17608E-05-2.74559E-05-2.75487E-05-6.57075E-07 3.89269E-19 2.47547E-18
 -1      1954 9.16639E-05-2.73924E-05-2.75292E-05-4.97649E-07 5.04234E-19 2.75938E-18
 -1      1955 9.24405E-05-2.75560E-05-2.78180E-05-4.46080E-07 5.93583E-19 1.72055E-18
 -1      1956 9.20389E-05-2.75842E-05-2.76158E-05-8.19327E-07 6.63603E-19 2.10802E-18
 -1      1957 9.18311E-05-2.75019E-05-2.75615E-05-7.37473E-07 4.27001E-19 2.37682E-18
 -1      1958 9.24703E-05-2.76643E-05-2.77826E-05-8.16227E-07 5.79695E-19 1.41033E-18
 -1      1959 9.24475E-05-2.77298E-05-2.77301E-05-8.83203E-07 5.57963E-19 2.05938E-18
 -1      1960 9.21835E-05-2.76398E-05-2.76574E-05-8.44793E-07 6.68629E-19 2.15578E-18
 -1      1961 9.26981E-05-2.77859E-05-2.78260E-05-9.95251E-07 8.01444E-19 1.34509E-18
 -1      1962 9.29264E-05-2.78820E-05-2.78711E-05-8.99457E-07 6.52229E-19 1.67129E-18
 -1      1963 9.26358E-05-2.77902E-05-2.77888E-05-8.82678E-07 5.36344E-19 1.97753E-18
 -1      1964 9.30421E-05-2.79141E-05-2.79169E-05-1.07102E-06 6.82676E-19 1.37380E-18
 -1      1965 9.34458E-05-2.80359E-05-2.80282E-05-9.02701E-07 1.62863E-19 1.59552E-18
 -1      1966 9.31418E-05-2.79445E-05-2.79405E-05-8.92351E-07 5.11253E-19 1.61044E-18
 -1      1967 9.34551E-05-2.80438E-05-2.80372E-05-1.10041E-06 6.79804E-19 1.39988E-18
 -1      1968 9.39973E-05-2.81914E-05-2.81980E-05-9.18298E-07 3.64772E-19 1.22933E-18
 -1      1969 9.36820E-05-2.80999E-05-2.81056E-05-9.02954E-07 2.00098E-19 1.41682E-18
 -1      1970 9.39141E-05-2.81733E-05-2.81778E-05-1.12314E-06 3.46565E-19 1.25530E-18
 -1      1971 9.45887E-05-2.83523E-05-2.83822E-05-9.66175E-07 3.91346E-19 1.40750E-18
 -1      1972 9.42557E-05-2.82580E-05-2.82835E-05-9.36593E-07 4.33047E-19 1.22120E-18
 -1      1973 9.44143E-05-2.83043E-05-2.83358E-05-1.16889E-06 3.97097E-19 5.01254E-19
 -1      1974 9.52405E-05-2.85255E-05-2.85866E-05-1.06310E-06 7.18830E-19 8.26995E-19
 -1      1975 9.48767E-05-2.84238E-05-2.84778E-05-1.01123E-06 5.73199E-19 1.10326E-18
 -1      1976 9.49644E-05-2.84411E-05-2.85132E-05-1.26142E-06 7.76566E-19 7.09538E-19
 -1      1977 9.59838E-05-2.87206E-05-2.88205E-05-1.22400E-06 2.21091E-19-1.28437E-20
 -1      1978 9.55702E-05-2.86056E-05-2.86962E-05-1.14242E-06 3.52059E-19 3.65019E-19
 -1      1979 9.55841E-05-2.85903E-05-2.87152E-05-1.42089E-06 6.35210E-19 1.90920E-19
 -1      1980 9.68582E-05-2.89500E-05-2.90955E-05-1.46244E-06-1.09316E-19 1.49029E-19
 -1      1981 9.63711E-05-2.88141E-05-2.89489E-05-1.34412E-06-9.61647E-20 1.46591E-19
 -1      1982 9.63016E-05-2.87612E-05-2.89501E-05-1.66514E-06 1.35993E-19-2.10941E-19
 -1      1983 9.79107E-05-2.92287E-05-2.94255E-05-1.79007E-06 4.48982E-19-3.66677E-20
 -1      1984 9.73222E-05-2.90627E-05-2.92486E-05-1.62863E-06 1.92665E-19 9.87364E-20
 -1      1985 9.71522E-05-2.89653E-05-2.92282E-05-2.00970E-06 1.28109E-19-4.98800E-19
 -1      1986 9.91928E-05-2.95742E-05-2.98253E-05-2.21444E-06 5.43896E-20 1.36596E-19
 -1      1987 9.84726E-05-2.93678E-05-2.96096E-05-2.00515E-06 2.42625E-19-7.59902E-20
 -1      1988 9.81767E-05-2.92168E-05-2.95607E-05-2.46633E-06 4.24857E-19 2.32706E-20
 -1      1989 1.00757E-04-3.00069E-05-3.03088E-05-2.73424E-06-6.44225E-20 1.81177E-19
 -1      1990 9.98744E-05-2.97485E-05-3.00462E-05-2.47636E-06 7.12169E-20 3.50098E-19
 -1      1991 9.94187E-05-2.95337E-05-2.99586E-05-3.03901E-06 1.01728E-19-1.14136E-19
 -1      1992 1.02647E-04-3.05499E-05-3.08862E-05-3.33028E-06-5.18268E-19 2.37603E-19
 -1      1993 1.01578E-04-3.02274E-05-3.05707E-05-3.03148E-06-1.35370E-19 1.97767E-19
 -1      1994 1.00921E-04-2.99389E-05-3.04305E-05-3.71623E-06-1.00686E-19-1.72429E-19
 -1      1995 1.04890E-04-3.12282E-05-3.15589E-05-3.95015E-06-2.32800E-19 5.01842E-19
 -1      1996 1.03623E-04-3.08305E-05-3.11894E-05-3.63429E-06-5.27637E-19 5.38150E-19
 -1      1997 1.02721E-04-3.04625E-05-3.09791E-05-4.45732E-06-5.55003E-19 4.13458E-20
 -1      1998 1.07470E-04-3.20667E-05-3.23113E-05-4.48474E-06 5.64359E-19 9.28262E-20
 -1      1999 1.06023E-04-3.15868E-05-3.18967E-05-4.20402E-06 6.92433E-20 2.51718E-19
 -1      2000 1.04838E-04-3.11439E-05-3.15962E-05-5.17076E-06 2.46591E-19-3.16802E-19
 -1      2001 1.10301E-04-3.30825E-05-3.31004E-05-4.73813E-06 6.51527E-19-6.22470E-19
 -1      2002 1.08744E-04-3.25242E-05-3.26662E-05-4.58912E-06 6.62774E-19-5.14771E-20
 -1      2003 1.07264E-04-3.20321E-05-3.22565E-05-5.68427E-06 5.95464E-19-3.69002E-19
 -1      2004 1.13184E-04-3.42658E-05-3.38450E-05-4.40235E-06-7.64654E-19 4.07264E-19
 -1      2005 1.11666E-04-3.36572E-05-3.34404E-05-4.54014E-06 1.54863E-19-3.31964E-20
 -1      2006 1.09936E-04-3.31762E-05-3.29112E-05-5.71270E-06 8.13962E-20-1.01631E-19
 -1      2007 1.15762E-04-3.55353E-05-3.44224E-05-3.07326E-06-1.74778E-18 7.56645E-19
 -1      2008 1.14534E-04-3.49524E-05-3.41237E-05-3.70474E-06-1.38891E-18 2.54560E-19
 -1      2009 1.12704E-04-3.45898E-05-3.34867E-05-4.84793E-06-1.24548E-18-5.17219E-20
 -1      2010 1.17484E-04-3.66579E-05-3.46883E-05-3.78614E-07-1.06640E-18 1.40281E-18
 -1      2011 1.16903E-04-3.62589E-05-3.45879E-05-1.69762E-06-1.57486E-18 9.93669E-19
 -1      2012 1.15266E-04-3.61636E-05-3.38972E-05-2.62687E-06-1.77805E-18 3.77552E-19
 -1      2013 1.17637E-04-3.71484E-05-3.45322E-05 3.68475E-06-2.76239E-19 2.13929E-18
 -1      2014 1.18099E-04-3.71960E-05-3.47046E-05 1.67267E-06-4.81274E-19 1.85715E-18
 -1      2015 1.17093E-04-3.75162E-05-3.40790E-05 1.23175E-06-7.96681E-19 7.87089E-19
 -1      2016 1.15533E-04-3.62993E-05-3.39627E-05 8.18226E-06-5.27285E-19 3.53765E-18
 -1      2017 1.17291E-04-3.70841E-05-3.44098E-05 5.95231E-06-1.54954E-19 2.74085E-18
 -1      2018 1.17390E-04-3.78449E-05-3.40395E-05 6.32801E-06-3.43115E-19 1.94687E-18
 -1      2019 1.11140E-04-3.37078E-05-3.31582E-05 1.09611E-05-7.63805E-19 4.05729E-18
 -1      2020 1.13977E-04-3.52574E-05-3.37651E-05 9.58295E-06-1.00617E-18 4.02857E-18
 -1      2021 1.15433E-04-3.62745E-05-3.38714E-05 1.09726E-05-9.22267E-19 3.62652E-18
 -1      2022 1.05716E-04-2.99919E-05-3.24509E-05 9.54746E-06 7.44754E-19 4.20523E-18
 -1      2023 1.08759E-04-3.18210E-05-3.29954E-05 1.02289E-05-2.29625E-20 4.16277E-18
 -1      2024 1.11372E-04-3.26244E-05-3.37361E-05 1.23850E-05 3.69816E-20 4.03918E-18
 -1      2025 1.02029E-04-2.73073E-05-3.20890E-05 3.30065E-06 3.39726E-19 3.21269E-18
 -1      2026 1.03882E-04-2.83537E-05-3.23672E-05 6.25037E-06 8.24745E-19 3.76514E-18
 -1      2027 1.07028E-04-2.85070E-05-3.37088E-05 8.30003E-06 1.21131E-18 4.16263E-18
 -1      2028 1.02562E-04-2.76906E-05-3.22041E-05-4.77164E-06 7.98037E-19 1.23095E-18
 -1      2029 1.02187E-04-2.72429E-05-3.20982E-05-1.08737E-06 3.65389E-19 1.93433E-18
 -1      2030 1.05249E-04-2.67608E-05-3.37337E-05-3.59840E-07 1.29090E-18 2.45353E-18
 -1      2031 1.07096E-04-3.09107E-05-3.27183E-05-1.02480E-05 1.22875E-18 3.70603E-19
 -1      2032 1.04624E-04-2.92280E-05-3.22849E-05-7.83641E-06 7.59630E-19 5.67605E-19
 -1      2033 1.07359E-04-2.87211E-05-3.37569E-05-8.75715E-06 1.31560E-18-2.32206E-20
 -1      2034 1.12753E-04-3.46000E-05-3.34829E-05-1.06767E-05 7.22340E-19 8.71226E-19
 -1      2035 1.09545E-04-3.28216E-05-3.28802E-05-1.04596E-05 1.33107E-18 9.59821E-19
 -1      2036 1.11846E-04-3.29468E-05-3.38044E-05-1.24690E-05 1.02040E-18-3.58692E-19
 -1      2037 1.16798E-04-3.68320E-05-3.42132E-05-7.30411E-06-7.65374E-19 7.36535E-19
 -1      2038 1.14220E-04-3.57315E-05-3.36723E-05-8.69020E-06 3.11351E-19 1.29993E-18
 -1      2039 1.15724E-04-3.65005E-05-3.39319E-05-1.06754E-05 2.52403E-19 1.25240E-18
 -1      2040 1.18229E-04-3.72616E-05-3.46416E-05-2.74172E-06-7.05552E-20 8.66436E-19
 -1      2041 1.16950E-04-3.69635E-05-3.43330E-05-4.62712E-06-6.25931E-19 3.67672E-19
 -1      2042 1.17386E-04-3.79099E-05-3.40608E-05-5.86568E-06-1.81980E-19 1.75185E-18
 -1      2043 1.17418E-04-3.64974E-05-3.46460E-05 1.09364E-06 9.23981E-19 1.92910E-18
 -1      2044 1.17421E-04-3.67591E-05-3.46222E-05-5.04522E-07 5.95226E-19 1.82452E-18
 -1      2045 1.16858E-04-3.74404E-05-3.40550E-05-8.18531E-07 1.52109E-19 2.12842E-18
 -1      2046 1.15201E-04-3.52378E-05-3.42595E-05 3.50636E-06-1.25026E-18 1.31450E-18
 -1      2047 1.16123E-04-3.57737E-05-3.44755E-05 2.48386E-06 2.04459E-19 1.67903E-18
 -1      2048 1.14900E-04-3.60260E-05-3.38256E-05 2.92374E-06 5.14983E-19 2.68222E-18
 -1      2049 1.12328E-04-3.39212E-05-3.36075E-05 4.60954E-06-1.13655E-21 7.12752E-19
 -1      2050 1.13756E-04-3.45360E-05-3.39747E-05 4.12270E-06-9.32004E-19 3.21985E-19
 -1      2051 1.12268E-04-3.44273E-05-3.33766E-05 5.03571E-06-5.39067E-19 1.53631E-18
 -1      2052 1.09313E-04-3.27382E-05-3.28284E-05 4.80264E-06-7.17422E-19 1.87039E-18
 -1      2053 1.10918E-04-3.33292E-05-3.32611E-05 4.69306E-06-2.96136E-19 9.66531E-19
 -1      2054 1.09466E-04-3.30092E-05-3.27762E-05 5.82534E-06-4.78342E-19 1.18944E-18
 -1      2055 1.06457E-04-3.17420E-05-3.20316E-05 4.47577E-06-1.49854E-18 3.07932E-18
 -1      2056 1.08026E-04-3.22653E-05-3.24672E-05 4.58555E-06-1.15751E-18 2.26492E-18
 -1      2057 1.06779E-04-3.18678E-05-3.21083E-05 5.75569E-06-1.64750E-18 1.81259E-18
 -1      2058 1.03908E-04-3.09274E-05-3.12866E-05 3.91094E-06-8.01359E-19 3.00974E-18
 -1      2059 1.05328E-04-3.13706E-05-3.16880E-05 4.12444E-06-7.98451E-19 3.06818E-18
 -1      2060 1.04347E-04-3.09826E-05-3.14431E-05 5.22287E-06-1.03434E-18 3.26963E-18
 -1      2061 1.01723E-04-3.02707E-05-3.06293E-05 3.27932E-06 9.77066E-20 2.21974E-18
 -1      2062 1.02946E-04-3.06359E-05-3.09789E-05 3.52550E-06-4.19151E-19 2.24542E-18
 -1      2063 1.02230E-04-3.03015E-05-3.08268E-05 4.49741E-06-4.36152E-19 2.67501E-18
 -1      2064 9.99052E-05-2.97449E-05-3.00730E-05 2.66875E-06 3.56225E-18 7.41328E-19
 -1      2065 1.00922E-04-3.00405E-05-3.03656E-05 2.91072E-06 2.35143E-18 2.02662E-18
 -1      2066 1.00437E-04-2.97743E-05-3.02846E-05 3.73696E-06 2.40328E-18 1.54629E-18
 -1      2067 9.84301E-05-2.93261E-05-2.96181E-05 2.11232E-06 1.12882E-18 3.57115E-21
 -1      2068 9.92507E-05-2.95619E-05-2.98549E-05 2.33614E-06 2.25027E-18 6.01216E-19
 -1      2069 9.89546E-05-2.93616E-05-2.98264E-05 3.01769E-06 2.49918E-18 1.45293E-18
 -1      2070 9.72665E-05-2.89943E-05-2.92599E-05 1.60907E-06 6.65922E-19-1.19334E-18
 -1      2071 9.79076E-05-2.91792E-05-2.94443E-05 1.81571E-06 5.24745E-19-4.51502E-19
 -1      2072 9.77551E-05-2.90337E-05-2.94534E-05 2.36285E-06 1.07090E-18 4.52805E-19
 -1      2073 9.63851E-05-2.87356E-05-2.89920E-05 1.14053E-06 6.24438E-19-1.71625E-18
 -1      2074 9.68620E-05-2.88761E-05-2.91275E-05 1.33893E-06 4.80537E-19-1.16140E-18
 -1      2075 9.68094E-05-2.87704E-05-2.91617E-05 1.76403E-06 8.88021E-19-8.42352E-19
 -1      2076 9.57636E-05-2.85440E-05-2.88055E-05 6.86337E-07 9.51532E-19-1.47207E-18
 -1      2077 9.60840E-05-2.86424E-05-2.88966E-05 8.85828E-07 6.76093E-19-1.33688E-18
 -1      2078 9.60886E-05-2.85576E-05-2.89444E-05 1.20094E-06 3.46390E-19-1.53567E-18
 -1      2079 9.54288E-05-2.84450E-05-2.87019E-05 3.56135E-07-4.31181E-19-9.27103E-19
 -1      2080 9.56191E-05-2.84907E-05-2.87645E-05 5.46904E-07 2.15040E-19-1.05146E-18
 -1      2081 9.56388E-05-2.84115E-05-2.88142E-05 7.69357E-07 3.55004E-19-6.25398E-19
 -1      2082 9.53924E-05-2.83427E-05-2.87356E-05 4.63061E-07-1.15650E-18 2.35999E-19
 -1      2083 9.46892E-05-2.67069E-05-2.91388E-05 1.32133E-06-2.21100E-19 1.18884E-18
 -1      2084 9.48522E-05-2.70553E-05-2.90514E-05 1.28842E-06-6.01766E-20 1.73214E-18
 -1      2085 9.50109E-05-2.73766E-05-2.89871E-05 1.19652E-06-4.22169E-19 2.36154E-18
 -1      2086 9.51585E-05-2.76908E-05-2.89091E-05 1.06305E-06-1.83103E-18 2.82626E-18
 -1      2087 9.49802E-05-2.72068E-05-2.90457E-05 1.59649E-06-6.06411E-19 2.77125E-18
 -1      2088 9.52461E-05-2.79174E-05-2.88542E-05 8.78520E-07-2.18412E-18-3.37287E-20
 -1      2089 9.53466E-05-2.81594E-05-2.87895E-05 6.83689E-07-1.25585E-18-2.23158E-19
 -1      2090 9.54546E-05-2.81824E-05-2.88276E-05 8.46055E-07-7.64212E-19-1.75447E-19
 -1      2091 9.52679E-05-2.77600E-05-2.89342E-05 1.28015E-06-1.10036E-18 1.96235E-18
 -1      2092 9.43910E-05-2.60734E-05-2.92849E-05 1.23633E-06-2.06746E-18-4.07054E-18
 -1      2093 9.45406E-05-2.64018E-05-2.92016E-05 1.29521E-06-1.07867E-18-1.46122E-18
 -1      2094 9.46096E-05-2.65614E-05-2.91610E-05 1.66292E-06-1.22744E-18-1.23337E-18
 -1      2095 9.41433E-05-2.55366E-05-2.94107E-05 9.65090E-07-4.45568E-19-2.05638E-18
 -1      2096 9.42639E-05-2.58080E-05-2.93412E-05 1.10187E-06-1.13391E-18-1.86577E-18
 -1      2097 9.42753E-05-2.59713E-05-2.92681E-05 1.47906E-06-7.85032E-19-2.22130E-18
 -1      2098 9.39813E-05-2.51780E-05-2.94959E-05 5.58138E-07 3.24232E-19 1.97257E-18
 -1      2099 9.40553E-05-2.53489E-05-2.94517E-05 7.47340E-07 3.40095E-20 5.45555E-19
 -1      2100 9.40152E-05-2.55029E-05-2.93552E-05 1.08010E-06 8.70545E-19-6.37621E-19
 -1      2101 9.39215E-05-2.50410E-05-2.95288E-05 7.95116E-08 4.86344E-20 1.92542E-18
 -1      2102 9.39408E-05-2.50892E-05-2.95161E-05 2.92006E-07 1.09746E-21 1.84719E-18
 -1      2103 9.38601E-05-2.52174E-05-2.94099E-05 5.34083E-07-3.17586E-19 1.91239E-18
 -1      2104 9.39678E-05-2.51395E-05-2.95051E-05-4.02528E-07-5.80481E-19 1.16437E-18
 -1      2105 9.39315E-05-2.50603E-05-2.95254E-05-1.96757E-07-3.59330E-19 2.75420E-18
 -1      2106 9.38237E-05-2.51461E-05-2.94247E-05-7.71938E-08-8.99665E-19 2.03596E-18
 -1      2107 9.41117E-05-2.54565E-05-2.94287E-05-8.22728E-07-9.97766E-19-2.77860E-18
 -1      2108 9.40259E-05-2.52623E-05-2.94788E-05-6.51596E-07-1.12464E-18 3.90093E-19
 -1      2109 9.39058E-05-2.52933E-05-2.93976E-05-6.68869E-07-1.82564E-18 2.74789E-19
 -1      2110 9.43301E-05-2.59383E-05-2.93128E-05-1.12121E-06 1.15885E-19-1.68143E-18
 -1      2111 9.42079E-05-2.56619E-05-2.93841E-05-1.00910E-06 6.51126E-19-3.15017E-18
 -1      2112 9.40924E-05-2.56336E-05-2.93334E-05-1.15916E-06-8.70534E-19-1.63845E-18
 -1      2113 9.46042E-05-2.65382E-05-2.91698E-05-1.26604E-06 1.63235E-18 2.63384E-18
 -1      2114 9.44569E-05-2.62081E-05-2.92545E-05-1.22644E-06 1.04934E-18 1.04253E-18
 -1      2115 9.43600E-05-2.61241E-05-2.92403E-05-1.48850E-06 1.93380E-18-2.37880E-19
 -1      2116 9.48981E-05-2.71728E-05-2.90208E-05-1.22484E-06 1.00434E-18-7.18242E-19
 -1      2117 9.47460E-05-2.68382E-05-2.91058E-05-1.26965E-06 1.48380E-18 3.44918E-20
 -1      2118 9.46835E-05-2.67125E-05-2.91294E-05-1.61303E-06 2.02409E-18 1.30933E-18
 -1      2119 9.51786E-05-2.77778E-05-2.88841E-05-9.95458E-07-1.15333E-18 6.00455E-20
 -1      2120 9.50394E-05-2.74715E-05-2.89580E-05-1.12340E-06 2.49673E-19 3.79613E-19
 -1      2121 9.50241E-05-2.73269E-05-2.90137E-05-1.50684E-06-2.08898E-19-9.29104E-19
 -1      2122 5.58346E-05-4.01690E-05-7.39151E-06 3.88140E-05 2.12012E-18-2.45692E-18
 -1      2123 3.92197E-05-4.07757E-05-8.52708E-07 2.98310E-05 3.00654E-18-1.64356E-18
 -1      2124 1.14053E-05-3.22501E-05 7.66929E-06 3.01187E-06 1.16255E-18 4.22712E-18
 -1      2125 1.24332E-05-3.46053E-05 7.96728E-06-7.12304E-06 5.53748E-20 5.31598E-18
 -1      2126 2.63845E-05-3.54441E-05 2.76524E-06 2.47375E-05 1.92531E-18 5.10126E-19
 -1      2127 1.81978E-05-3.41884E-05 5.62046E-06 1.61798E-05 7.47507E-19 2.33061E-18
 -1      2128 3.95668E-05-3.38486E-05-2.74421E-06 3.37275E-05-3.26955E-19-1.01623E-18
 -1      2129 9.52683E-05-4.31464E-05-2.23541E-05 4.15703E-05 4.67986E-19-1.59412E-18
 -1      2130 7.92908E-05-4.58801E-05-1.49490E-05 3.90569E-05 1.04820E-18-1.27087E-18
 -1      2131 1.31843E-04-4.44143E-05-3.71581E-05 3.48027E-05 5.66242E-19-3.34154E-18
 -1      2132 1.10414E-04-4.43415E-05-2.89521E-05 3.53115E-05 3.93023E-19-1.67670E-18
 -1      2133 1.16272E-04-5.43708E-05-2.64455E-05 3.36733E-05-7.32683E-19-2.97520E-18
 -1      2134 8.72600E-05-8.72312E-06-3.37543E-05-1.05442E-05-1.16891E-18-3.41481E-18
 -1      2135 8.79576E-05-9.24248E-06-3.38225E-05-1.21003E-05-1.50798E-18-3.12097E-18
 -1      2136 9.04870E-05-1.30495E-05-3.32357E-05-1.18805E-05-1.69237E-18-2.78258E-18
 -1      2137 8.87035E-05-1.10553E-05-3.33027E-05-9.41591E-06-1.15063E-18-3.29281E-18
 -1      2138 1.80028E-04-3.11962E-05-6.23834E-05 1.11622E-05 1.53504E-18-4.96573E-18
 -1      2139 1.66721E-04-3.16302E-05-5.74280E-05 1.52212E-05 1.61868E-18-4.45963E-18
 -1      2140 1.81868E-04-2.43759E-05-6.65035E-05 3.45795E-07 2.61691E-18-5.73637E-18
 -1      2141 1.82119E-04-2.68199E-05-6.52081E-05 7.92798E-06 2.21753E-18-5.54870E-18
 -1      2142 1.63102E-04-2.12671E-05-5.95239E-05-1.71716E-06 2.57498E-18-5.17389E-18
 -1      2143 1.72491E-04-2.38876E-05-6.31300E-05-4.64394E-06 3.48723E-18-6.56535E-18
 -1      2144 1.78572E-04-2.30625E-05-6.54836E-05-6.81990E-07 3.29835E-18-5.51805E-18
 -1      2145 1.61151E-04-3.36355E-05-5.42259E-05-1.26695E-05 3.96094E-18-6.12278E-18
 -1      2146 1.73362E-04-3.05712E-05-6.00589E-05-9.42484E-06 3.35510E-18-7.02741E-18
 -1      2147 1.35828E-04-4.20712E-05-4.02102E-05-2.95507E-05 1.93759E-18-7.48777E-18
 -1      2148 1.53324E-04-4.19301E-05-4.73883E-05-2.17574E-05 2.03298E-18-6.91899E-18
 -1      2149 1.01279E-04-4.38250E-05-2.54820E-05-3.62924E-05 1.80503E-18-5.82505E-18
 -1      2150 1.22595E-04-4.27136E-05-3.38936E-05-3.88814E-05 2.33823E-18-7.24806E-18
 -1      2151 1.37224E-04-5.20839E-05-3.59741E-05-2.32909E-05 2.73592E-19-5.72171E-18
 -1      2152 6.33461E-05-4.35957E-05-9.82052E-06-3.57657E-05 2.34628E-19-4.98489E-18
 -1      2153 8.17663E-05-4.13654E-05-1.75568E-05-4.20049E-05 1.54202E-18-5.43245E-18
 -1      2154 3.31730E-05-3.93371E-05 1.22015E-06-2.74141E-05-1.92742E-18-4.60384E-18
 -1      2155 4.58305E-05-3.82712E-05-4.04096E-06-3.50537E-05-3.97682E-19-5.57443E-18
 -1      2156 1.39004E-05-3.51189E-05 7.58053E-06-9.29726E-06-3.19204E-18-4.09795E-18
 -1      2157 1.93576E-05-3.45629E-05 5.27665E-06-1.86626E-05-2.03627E-18-4.24109E-18
 -1      2158 1.39749E-05-3.07613E-05 6.20961E-06 1.22691E-05-2.79309E-18-1.98714E-18
 -1      2159 1.21077E-05-3.23642E-05 7.41295E-06 1.80370E-06-2.53555E-18-3.07473E-18
 -1      2160 3.42036E-05-3.57167E-05-1.71044E-07 3.15677E-05-2.75201E-18-2.25946E-19
 -1      2161 2.41184E-05-3.53192E-05 3.68648E-06 2.39058E-05-2.45978E-18-1.19770E-18
 -1      2162 6.38096E-05-3.90262E-05-1.10106E-05 4.17523E-05-2.16163E-18 9.21678E-20
 -1      2163 4.78267E-05-4.11164E-05-4.23866E-06 3.43236E-05-2.71474E-18 4.20287E-19
 -1      2164 4.98815E-05-3.79270E-05-5.54017E-06 3.95185E-05-4.98055E-19 9.00396E-19
 -1      2165 1.03735E-04-4.07818E-05-2.67468E-05 4.26049E-05-1.10877E-18-1.56743E-18
 -1      2166 8.45297E-05-4.33511E-05-1.85804E-05 3.85429E-05-1.40438E-18-1.19389E-18
 -1      2167 1.38738E-04-3.89274E-05-4.19804E-05 3.55722E-05-1.83383E-18 1.06641E-18
 -1      2168 1.18801E-04-4.02464E-05-3.40780E-05 3.52264E-05-1.37643E-18-1.30020E-19
 -1      2169 1.65438E-04-3.43281E-05-5.50012E-05 2.35718E-05-3.26018E-18 2.93200E-18
 -1      2170 1.48735E-04-3.46816E-05-4.86295E-05 2.69373E-05-3.01459E-18 1.71948E-18
 -1      2171 1.75344E-04-2.57119E-05-6.30973E-05 7.12500E-06-3.83071E-18 2.57371E-18
 -1      2172 1.70883E-04-2.86879E-05-5.97069E-05 1.66130E-05-4.02997E-18 2.15231E-18
 -1      2173 1.81584E-04-2.38509E-05-6.60605E-05-3.02083E-06-3.54992E-18 4.71353E-18
 -1      2174 1.74356E-04-2.08183E-05-6.50192E-05 3.79782E-06-3.87009E-18 2.75900E-18
 -1      2175 1.69565E-04-2.54059E-05-6.12173E-05-1.13778E-05-2.06676E-18 4.08100E-18
 -1      2176 1.81174E-04-2.62723E-05-6.49163E-05-6.44481E-06-2.37720E-18 4.50706E-18
 -1      2177 1.58833E-04-1.40103E-05-6.09653E-05 6.79137E-07-2.65079E-18 1.72805E-18
 -1      2178 1.50949E-04-3.53041E-05-4.93792E-05-1.75809E-05-1.48474E-18 2.75116E-18
 -1      2179 1.66008E-04-3.20747E-05-5.61473E-05-1.56974E-05-1.62863E-18 3.13826E-18
 -1      2180 1.19350E-04-4.20720E-05-3.34249E-05-3.43521E-05-2.98664E-18 2.61479E-18
 -1      2181 1.40121E-04-4.25614E-05-4.16118E-05-2.86567E-05-1.57093E-18 2.43522E-18
 -1      2182 8.49541E-05-4.43757E-05-1.79001E-05-3.95004E-05-2.58599E-18 2.33146E-18
 -1      2183 1.03767E-04-4.15616E-05-2.64207E-05-4.27256E-05-3.67273E-18 2.76980E-18
 -1      2184 1.22461E-04-5.30450E-05-2.95822E-05-3.11024E-05-1.17229E-18 5.59254E-19
 -1      2185 4.25862E-05-4.10635E-05-2.34330E-06-3.19562E-05 2.95614E-19 7.09623E-18
 -1      2186 6.01313E-05-3.94183E-05-9.63467E-06-4.04426E-05-1.40735E-18 4.71506E-18
 -1      2187 1.91243E-05-3.64833E-05 5.90458E-06-1.80086E-05 7.79059E-19 5.21688E-18
 -1      2188 2.76752E-05-3.49563E-05 2.06803E-06-2.74568E-05 6.94567E-20 7.44817E-18
 -1      2189 1.61705E-04-3.92115E-05-5.15693E-05 2.03402E-05 1.49117E-18-4.33427E-18
 -1      2190 1.44788E-04-4.15744E-05-4.43570E-05 2.23918E-05 1.69788E-18-3.98190E-18
 -1      2191 1.44039E-04-5.06809E-05-3.95558E-05 1.75048E-05 5.34266E-19-4.70061E-18
 -1      2192 9.71236E-05-2.42944E-05-3.12856E-05-1.00095E-05-2.00477E-18 2.74545E-19
 -1      2193 1.56071E-04-4.06314E-05-4.91248E-05-9.40728E-06 1.74106E-18-4.80691E-18
 -1      2194 1.51932E-04-3.71356E-05-4.96072E-05 4.31513E-06 1.56998E-18-2.48519E-18
 -1      2195 1.48461E-04-4.62613E-05-4.35417E-05-4.35713E-06-3.33149E-19-3.35976E-18
 -1      2196 1.57928E-04-3.61367E-05-5.14764E-05 1.86699E-06 1.64240E-18-5.34647E-18
 -1      2197 9.62976E-05-2.30885E-05-3.14409E-05-1.03925E-05-2.11594E-18-7.29692E-19
 -1      2198 1.77849E-05-2.55645E-05 2.76049E-06 1.21214E-05-1.45414E-18 3.41524E-18
 -1      2199 9.19834E-05-5.21583E-05-1.76657E-05 4.08103E-05-3.15520E-20-2.78669E-18
 -1      2200 7.42991E-05-4.62012E-05-1.22984E-05 4.03273E-05 1.16086E-18-1.95601E-18
 -1      2201 7.02411E-05-4.37309E-05-1.08744E-05 4.20538E-05-1.03762E-20-3.20210E-18
 -1      2202 9.52818E-05-2.79521E-05-2.88524E-05-9.47292E-07-1.47529E-18-5.35810E-19
 -1      2203 1.85058E-05-2.60735E-05 2.59435E-06-1.66105E-05 1.46960E-19 5.32021E-18
 -1      2204 8.05806E-05-4.61791E-05-1.50545E-05-4.12893E-05-1.05117E-18 2.79235E-18
 -1      2205 9.99618E-05-5.35220E-05-2.03398E-05-3.96472E-05-1.79995E-20 9.17972E-19
 -1      2206 7.71889E-05-4.60099E-05-1.28977E-05-4.32441E-05 2.50298E-19 3.17780E-18
 -1      2207 1.56277E-04-2.56502E-05-5.53698E-05-1.01021E-07-1.16848E-18 1.56278E-18
 -1      2208 1.65070E-04-1.94252E-05-6.15920E-05 1.43944E-06-3.76633E-18 2.41807E-18
 -1      2209 1.49615E-04-1.62768E-05-5.70748E-05-2.66040E-06-3.76337E-18 1.95686E-18
 -1      2210 1.47907E-04-1.13272E-05-5.86425E-05-2.77158E-06-3.89805E-18 1.18664E-18
 -1      2211 1.58319E-04-2.96310E-05-5.41137E-05 5.35420E-06-3.37627E-18 2.30435E-18
 -1      2212 1.46743E-04-4.35644E-05-4.34939E-05 1.72530E-05-2.00689E-18 3.06033E-18
 -1      2213 8.62062E-05-4.88971E-05-1.61845E-05 4.20007E-05-3.93870E-19 1.94182E-19
 -1      2214 2.36414E-05-2.66106E-05 8.82560E-07 2.21057E-05-1.02618E-18-1.64663E-18
 -1      2215 1.50166E-05-2.40715E-05 3.27501E-06-4.72976E-06-2.15236E-18-3.67824E-18
 -1      2216 3.18130E-05-3.23735E-05-3.85019E-07-2.90281E-05-2.00768E-18-5.13006E-18
 -1      2217 1.05577E-04-5.30124E-05-2.25538E-05-3.72323E-05-9.91029E-20-5.02312E-18
 -1      2218 1.60196E-04-1.45996E-05-6.14587E-05 1.08728E-06 3.20517E-18-4.07611E-18
 -1      2219 1.58324E-04-2.22042E-05-5.76712E-05 2.99444E-06 2.96356E-18-4.40330E-18
 -1      2220 6.61343E-05-4.45789E-05-9.64003E-06-4.06154E-05-1.57294E-18-5.13604E-18
 -1      2221 1.22803E-04-5.14632E-05-3.03249E-05 3.18718E-05-6.77626E-20 8.82185E-19
 -1      2222 1.46739E-04-4.31221E-05-4.41586E-05-1.58114E-05-7.19449E-19 1.82409E-18
 -1      2223 1.46380E-04-4.16562E-05-4.54559E-05-8.46876E-07 2.96144E-19 9.52912E-20
 -1      2224 1.40720E-04-4.97737E-05-3.86007E-05-1.23154E-05-2.67821E-19 4.23093E-19
 -1      2225 4.25271E-05-3.58166E-05-3.36182E-06-3.62143E-05 5.19655E-19 6.51834E-18
 -1      2226 9.51639E-05-2.63581E-05-2.94748E-05 4.19901E-06 1.79158E-18 2.06738E-18
 -1      2227 9.61376E-05-2.58445E-05-3.00520E-05 6.00626E-06 2.01503E-18 2.43942E-18
 -1      2228 8.81820E-05-1.11779E-05-3.30413E-05-3.65815E-06 6.08050E-20-3.12907E-18
 -1      2229 8.84116E-05-1.14486E-05-3.30213E-05-4.79910E-06-2.78990E-19-3.21659E-18
 -1      2230 8.87577E-05-1.19327E-05-3.29701E-05-5.81767E-06-4.92018E-19-3.28573E-18
 -1      2231 8.91595E-05-1.24070E-05-3.29385E-05-6.99025E-06-7.58777E-19-3.33581E-18
 -1      2232 8.99286E-05-1.38142E-05-3.26197E-05-4.89892E-06-3.68940E-19-3.06210E-18
 -1      2233 8.78405E-05-1.07164E-05-3.30873E-05 6.15359E-07 1.10203E-18-2.90844E-18
 -1      2234 8.78364E-05-1.07119E-05-3.30876E-05-4.94623E-07 7.85177E-19-2.98742E-18
 -1      2235 8.80190E-05-1.09427E-05-3.30671E-05 2.75525E-06 1.47757E-18-2.92064E-18
 -1      2236 8.79059E-05-1.08092E-05-3.30775E-05 1.63651E-06 1.26073E-18-2.94612E-18
 -1      2237 8.91547E-05-1.27559E-05-3.27454E-05 1.04787E-06 1.10949E-18-2.76953E-18
 -1      2238 8.84468E-05-1.14916E-05-3.30184E-05 4.88407E-06 1.82358E-18-2.69619E-18
 -1      2239 8.82113E-05-1.12144E-05-3.30384E-05 3.76100E-06 1.63453E-18-2.85915E-18
 -1      2240 8.94181E-05-1.31144E-05-3.27032E-05 3.01599E-06 1.47726E-18-2.70335E-18
 -1      2241 8.92148E-05-1.24755E-05-3.29341E-05 7.07230E-06 2.20932E-18-2.05589E-18
 -1      2242 8.88033E-05-1.19890E-05-3.29661E-05 5.90019E-06 1.99287E-18-2.41615E-18
 -1      2243 8.99683E-05-1.38651E-05-3.26146E-05 4.96935E-06 1.84119E-18-2.32848E-18
 -1      2244 9.04674E-05-1.40844E-05-3.27998E-05 9.22349E-06 2.58424E-18-1.28061E-18
 -1      2245 8.97965E-05-1.32744E-05-3.28490E-05 8.04357E-06 2.34454E-18-1.74098E-18
 -1      2246 9.08917E-05-1.51270E-05-3.24637E-05 6.86627E-06 2.20803E-18-1.70676E-18
 -1      2247 9.24410E-05-1.66531E-05-3.25810E-05 1.11110E-05 2.78014E-18-1.75151E-19
 -1      2248 9.13754E-05-1.53155E-05-3.26575E-05 1.00297E-05 2.63062E-18-8.43943E-19
 -1      2249 9.22969E-05-1.70810E-05-3.22146E-05 8.51526E-06 2.46177E-18-9.61637E-19
 -1      2250 9.41886E-05-2.70961E-05-2.87369E-05 1.76050E-06 1.41408E-18 1.47124E-18
 -1      2251 9.47867E-05-2.68738E-05-2.90341E-05 2.73768E-06 1.55319E-18 1.83396E-18
 -1      2252 9.53048E-05-2.58309E-05-2.97826E-05 4.36022E-06 1.93818E-18 1.07693E-18
 -1      2253 9.58567E-05-2.50624E-05-3.02947E-05-6.19597E-06-1.70179E-18-1.10175E-18
 -1      2254 9.52095E-05-2.58348E-05-2.97517E-05-4.25115E-06-1.51901E-18-1.08191E-18
 -1      2255 9.51292E-05-2.65271E-05-2.93378E-05-2.95911E-06-1.38222E-18-9.36383E-19
 -1      2256 9.46326E-05-2.68750E-05-2.90371E-05-1.86903E-06-1.09303E-18-9.74301E-19
 -1      2257 9.53359E-05-2.54307E-05-2.99941E-05-4.26399E-06-1.45145E-18-1.41845E-18
 -1      2258 9.44487E-05-2.72138E-05-2.87761E-05-1.00346E-06-9.71913E-19-9.46132E-19
 -1      2259 9.41957E-05-2.74247E-05-2.86129E-05-3.90691E-07-9.05030E-19-1.16372E-18
 -1      2260 9.50054E-05-2.66655E-05-2.93034E-05-1.89157E-06-1.10862E-18-1.29698E-18
 -1      2261 9.40544E-05-2.76027E-05-2.84564E-05 1.32579E-07-8.16520E-19-1.04040E-18
 -1      2262 9.39677E-05-2.77439E-05-2.83781E-05 4.78830E-07-6.32599E-19-1.07847E-18
 -1      2263 9.47237E-05-2.73946E-05-2.88684E-05-3.87456E-07-8.59461E-19-1.18698E-18
 -1      2264 9.38937E-05-2.78495E-05-2.82919E-05 7.84621E-07-5.50215E-19-1.08080E-18
 -1      2265 9.39178E-05-2.79537E-05-2.82668E-05 9.73221E-07-4.96874E-19-1.04416E-18
 -1      2266 9.45397E-05-2.78119E-05-2.86084E-05 5.24241E-07-6.69346E-19-1.20394E-18
 -1      2267 9.39020E-05-2.80209E-05-2.82280E-05 1.14427E-06-5.46985E-19-1.12007E-18
 -1      2268 9.39971E-05-2.81024E-05-2.82371E-05 1.24157E-06-4.50706E-19-1.19814E-18
 -1      2269 9.44718E-05-2.80661E-05-2.84678E-05 1.05649E-06-5.82192E-19-1.34033E-18
 -1      2270 9.40252E-05-2.81463E-05-2.82309E-05 1.33405E-06-3.45666E-19-1.32288E-18
 -1      2271 9.41653E-05-2.82116E-05-2.82623E-05 1.38331E-06-3.14516E-19-1.43378E-18
 -1      2272 9.44987E-05-2.82244E-05-2.84092E-05 1.35650E-06-4.47198E-19-1.33924E-18
 -1      2273 9.42253E-05-2.82398E-05-2.82788E-05 1.43680E-06-4.31660E-19-9.37413E-19
 -1      2274 9.43952E-05-2.82931E-05-2.83255E-05 1.46772E-06-5.45012E-19-9.13857E-19
 -1      2275 9.45955E-05-2.83205E-05-2.84080E-05 1.52700E-06-1.98967E-19-1.35908E-18
 -1      2276 9.44791E-05-2.83105E-05-2.83586E-05 1.51068E-06-6.54680E-19-8.78168E-19
 -1      2277 9.46721E-05-2.83553E-05-2.84170E-05 1.54451E-06-4.60354E-19-9.75367E-19
 -1      2278 9.47440E-05-2.83735E-05-2.84479E-05 1.64113E-06-5.69233E-19-1.01577E-18
 -1      2279 9.47761E-05-2.83652E-05-2.84631E-05 1.59785E-06-1.89166E-19-1.03496E-18
 -1      2280 9.49915E-05-2.84053E-05-2.85316E-05 1.65015E-06-1.15818E-19-1.00253E-18
 -1      2281 9.49334E-05-2.83961E-05-2.85188E-05 1.75205E-06-4.03488E-19-1.17449E-18
 -1      2282 9.51149E-05-2.84110E-05-2.85890E-05 1.72943E-06-6.90438E-20-9.36124E-19
 -1      2283 9.53569E-05-2.84507E-05-2.86677E-05 1.81160E-06 1.02832E-20-6.66858E-19
 -1      2284 9.51601E-05-2.83983E-05-2.86148E-05 1.89900E-06-1.43665E-19-7.35208E-19
 -1      2285 9.55020E-05-2.84558E-05-2.87357E-05 1.92807E-06-1.02734E-19-1.02672E-18
 -1      2286 9.57779E-05-2.85004E-05-2.88258E-05 2.04791E-06-1.11299E-19-1.14334E-18
 -1      2287 9.54265E-05-2.83895E-05-2.87328E-05 2.11080E-06-1.51593E-19-1.35375E-18
 -1      2288 9.59496E-05-2.85097E-05-2.89042E-05 2.20884E-06-2.31515E-19-1.16355E-18
 -1      2289 9.62691E-05-2.85660E-05-2.90072E-05 2.37022E-06-1.64016E-19-1.14950E-18
 -1      2290 9.57402E-05-2.83805E-05-2.88713E-05 2.40737E-06-4.04877E-19-1.15353E-18
 -1      2291 9.64744E-05-2.85860E-05-2.90960E-05 2.57824E-06-3.20040E-19-1.25276E-18
 -1      2292 9.68487E-05-2.86627E-05-2.92134E-05 2.77998E-06-5.10699E-19-1.03219E-18
 -1      2293 9.61136E-05-2.83856E-05-2.90296E-05 2.79944E-06-3.18716E-19-8.80505E-19
 -1      2294 9.70973E-05-2.87031E-05-2.93122E-05 3.03155E-06-7.22273E-19-1.19470E-18
 -1      2295 9.75374E-05-2.88118E-05-2.94445E-05 3.26521E-06-7.07697E-19-1.28489E-18
 -1      2296 9.65643E-05-2.84249E-05-2.92064E-05 3.28638E-06-6.96710E-19-1.20113E-18
 -1      2297 9.78424E-05-2.88868E-05-2.95519E-05 3.54788E-06-5.06488E-19-1.44543E-18
 -1      2298 9.83582E-05-2.90429E-05-2.96981E-05 3.79434E-06-7.57519E-19-1.37387E-18
 -1      2299 9.71155E-05-2.85277E-05-2.93992E-05 3.85202E-06-6.88054E-19-1.47696E-18
 -1      2300 9.87371E-05-2.91728E-05-2.98114E-05 4.08279E-06-1.36788E-18-1.24874E-18
 -1      2301 9.93354E-05-2.93960E-05-2.99680E-05 4.30776E-06-1.26307E-18-1.36481E-18
 -1      2302 9.77984E-05-2.87367E-05-2.96033E-05 4.45792E-06-1.05875E-18-1.82640E-18
 -1      2303 9.98115E-05-2.96091E-05-3.00828E-05 4.55848E-06-7.23794E-19-1.29058E-18
 -1      2304 1.00493E-04-2.99230E-05-3.02433E-05 4.70730E-06-4.73037E-19-1.31281E-18
 -1      2305 9.86545E-05-2.91111E-05-2.98112E-05 5.03423E-06-9.27314E-19-1.07592E-18
 -1      2306 1.01097E-04-3.02546E-05-3.03540E-05 4.85257E-06-3.83416E-19-1.47250E-18
 -1      2307 1.01853E-04-3.06826E-05-3.05084E-05 4.84626E-06-6.16638E-20-1.56426E-18
 -1      2308 9.97384E-05-2.97286E-05-3.00133E-05 5.46851E-06-4.37403E-19-1.52873E-18
 -1      2309 1.02618E-04-3.11696E-05-3.06098E-05 4.78909E-06 3.27204E-19-1.45050E-18
 -1      2310 1.03422E-04-3.17242E-05-3.07459E-05 4.52527E-06 8.87846E-19-1.18214E-18
 -1      2311 1.01115E-04-3.06768E-05-3.02001E-05 5.59458E-06 1.91315E-19-1.68109E-18
 -1      2312 1.04376E-04-3.23880E-05-3.08363E-05 4.13975E-06 8.80885E-19-1.70343E-18
 -1      2313 1.05169E-04-3.30472E-05-3.09422E-05 3.50625E-06 6.45092E-19-1.69190E-18
 -1      2314 1.02849E-04-3.20267E-05-3.03679E-05 5.18681E-06 6.22843E-19-1.93334E-18
 -1      2315 1.06302E-04-3.38581E-05-3.10287E-05 2.65394E-06 8.88313E-19-1.75231E-18
 -1      2316 1.06979E-04-3.45256E-05-3.10986E-05 1.56629E-06 9.46516E-19-1.68629E-18
 -1      2317 1.04960E-04-3.37681E-05-3.05282E-05 3.97323E-06 5.94167E-19-2.56229E-18
 -1      2318 1.08189E-04-3.53454E-05-3.12028E-05 1.48674E-07 4.44338E-19-1.96701E-18
 -1      2319 1.08581E-04-3.58079E-05-3.12429E-05-1.37521E-06 2.58769E-19-1.97935E-18
 -1      2320 1.07343E-04-3.56961E-05-3.07197E-05 1.69622E-06 5.93316E-19-3.01738E-18
 -1      2321 1.09615E-04-3.63395E-05-3.14020E-05-3.30736E-06 2.06668E-19-1.92235E-18
 -1      2322 1.09507E-04-3.62624E-05-3.14343E-05-5.04337E-06 4.80195E-20-1.34694E-18
 -1      2323 1.09645E-04-3.72765E-05-3.10149E-05-1.73100E-06 2.28430E-19-2.70783E-18
 -1      2324 1.09952E-04-3.60689E-05-3.16901E-05-7.12451E-06-4.03112E-19-1.00394E-18
 -1      2325 1.09177E-04-3.51164E-05-3.17456E-05-8.55263E-06-4.31370E-19-6.52644E-19
 -1      2326 1.11181E-04-3.75999E-05-3.15096E-05-5.94748E-06 3.49707E-20-1.69635E-18
 -1      2327 1.08636E-04-3.38479E-05-3.21133E-05-9.97179E-06-5.65830E-19-7.34091E-19
 -1      2328 1.07276E-04-3.20086E-05-3.22097E-05-1.03376E-05-5.63633E-19-1.05530E-18
 -1      2329 1.11089E-04-3.56756E-05-3.22712E-05-9.79292E-06-5.56268E-19-1.52706E-18
 -1      2330 1.05834E-04-2.98853E-05-3.26302E-05-1.00676E-05-6.31261E-19-7.58472E-19
 -1      2331 1.04371E-04-2.77936E-05-3.27422E-05-8.78902E-06-8.12927E-19-1.16574E-18
 -1      2332 1.08999E-04-3.13525E-05-3.32439E-05-1.12803E-05-7.93460E-19-1.18026E-18
 -1      2333 1.02876E-04-2.58383E-05-3.30663E-05-6.34758E-06-1.34371E-18-1.62663E-18
 -1      2334 1.02044E-04-2.46199E-05-3.31316E-05-3.58097E-06-1.71319E-18-1.83556E-18
 -1      2335 1.05874E-04-2.62129E-05-3.41682E-05-8.60196E-06-1.62225E-18-4.36738E-19
 -1      2336 1.01671E-04-2.41496E-05-3.32030E-05 2.10074E-07-2.06067E-18-1.75201E-18
 -1      2337 1.01972E-04-2.46035E-05-3.31763E-05 3.33383E-06-2.09636E-18-1.68644E-18
 -1      2338 1.03866E-04-2.31402E-05-3.46604E-05-1.93602E-06-2.16090E-18 7.67566E-20
 -1      2339 1.03043E-04-2.59696E-05-3.29579E-05 6.60983E-06-1.68153E-18-1.82001E-18
 -1      2340 1.04277E-04-2.77739E-05-3.28588E-05 8.69531E-06-4.59151E-19-1.33559E-18
 -1      2341 1.04613E-04-2.42776E-05-3.44768E-05 5.70058E-06-1.81349E-18 2.59338E-20
 -1      2342 1.05897E-04-2.99931E-05-3.24613E-05 1.00357E-05 2.69737E-19-1.77837E-18
 -1      2343 1.07391E-04-3.20833E-05-3.23488E-05 1.04202E-05 4.13862E-19-2.13596E-18
 -1      2344 1.07476E-04-2.87840E-05-3.37139E-05 1.05082E-05-6.05993E-19-5.07864E-19
 -1      2345 1.08419E-04-3.38438E-05-3.19394E-05 9.68947E-06 1.01084E-18-1.79129E-18
 -1      2346 1.09502E-04-3.52564E-05-3.18618E-05 8.67359E-06 1.58478E-18-1.43073E-18
 -1      2347 1.10294E-04-3.38439E-05-3.27154E-05 1.08881E-05 7.98277E-19-7.39427E-19
 -1      2348 1.09496E-04-3.59473E-05-3.15483E-05 6.78087E-06 1.68263E-18-1.06701E-18
 -1      2349 1.09907E-04-3.64146E-05-3.15060E-05 5.10502E-06 1.68344E-18-8.23151E-19
 -1      2350 1.11359E-04-3.69971E-05-3.18283E-05 7.89426E-06 1.51984E-18-7.04943E-19
 -1      2351 1.09096E-04-3.61764E-05-3.13029E-05 3.02200E-06 1.33004E-18-2.16009E-19
 -1      2352 1.08908E-04-3.59258E-05-3.12672E-05 1.34374E-06 1.37685E-18-3.03206E-19
 -1      2353 1.10501E-04-3.76600E-05-3.12048E-05 3.64280E-06 1.59147E-18-8.23735E-19
 -1      2354 1.07735E-04-3.51958E-05-3.11401E-05-3.51955E-07 1.59142E-18-2.02531E-20
 -1      2355 1.07159E-04-3.45887E-05-3.10832E-05-1.66956E-06 1.77263E-18 1.06802E-19
 -1      2356 1.08455E-04-3.65555E-05-3.08219E-05-2.68937E-07 1.59622E-18-3.04097E-19
 -1      2357 1.05962E-04-3.37452E-05-3.09900E-05-2.79561E-06 8.05904E-19-4.12394E-19
 -1      2358 1.05195E-04-3.30593E-05-3.08980E-05-3.64861E-06-4.86867E-19-1.15746E-18
 -1      2359 1.06035E-04-3.47005E-05-3.05883E-05-3.12561E-06 1.22234E-18-8.72772E-19
 -1      2360 1.04143E-04-3.23130E-05-3.08095E-05-4.24932E-06-3.29807E-19-5.29430E-19
 -1      2361 1.03321E-04-3.16959E-05-3.06835E-05-4.68350E-06-5.59439E-20-2.51400E-19
 -1      2362 1.03755E-04-3.28210E-05-3.04171E-05-4.83982E-06-3.17486E-19-5.50126E-19
 -1      2363 1.02461E-04-3.11197E-05-3.05866E-05-4.88624E-06-1.43110E-19 1.26922E-19
 -1      2364 1.01663E-04-3.06229E-05-3.04367E-05-5.00521E-06-9.00372E-19 1.34170E-18
 -1      2365 1.01823E-04-3.12637E-05-3.02538E-05-5.61214E-06 2.57877E-19 9.53039E-19
 -1      2366 1.00979E-04-3.02138E-05-3.03302E-05-4.94307E-06-8.94816E-19 2.60374E-18
 -1      2367 1.00247E-04-2.98370E-05-3.01698E-05-4.85419E-06-6.85761E-20 3.56311E-18
 -1      2368 1.00267E-04-3.01134E-05-3.00767E-05-5.71509E-06 1.28434E-19 2.52460E-18
 -1      2369 9.97071E-05-2.95613E-05-3.00585E-05-4.63560E-06-6.76415E-19 4.05599E-18
 -1      2370 9.90580E-05-2.92836E-05-2.98997E-05-4.42614E-06 4.28118E-20 3.41581E-18
 -1      2371 9.90371E-05-2.93252E-05-2.98848E-05-5.39444E-06-1.58131E-19 4.22069E-18
 -1      2372 9.86302E-05-2.91023E-05-2.97902E-05-4.12812E-06 1.41931E-18 2.64188E-18
 -1      2373 9.80702E-05-2.88981E-05-2.96425E-05-3.85892E-06 3.07766E-18 1.79285E-18
 -1      2374 9.80663E-05-2.88111E-05-2.96873E-05-4.83731E-06 4.09438E-19 3.06404E-18
 -1      2375 9.77269E-05-2.87769E-05-2.95410E-05-3.52988E-06 2.89189E-18 1.08045E-18
 -1      2376 9.72543E-05-2.86231E-05-2.94109E-05-3.23740E-06 1.74649E-18 1.22975E-18
 -1      2377 9.72940E-05-2.84818E-05-2.94962E-05-4.17027E-06 2.17130E-18 1.77337E-18
 -1      2378 9.69742E-05-2.85356E-05-2.93219E-05-2.90322E-06 1.36005E-18 3.02986E-19
 -1      2379 9.65835E-05-2.84135E-05-2.92130E-05-2.60520E-06 2.53497E-19 1.34704E-18
 -1      2380 9.66712E-05-2.82633E-05-2.93221E-05-3.46853E-06 1.38805E-18 2.15630E-20
 -1      2381 9.63494E-05-2.83408E-05-2.91387E-05-2.27549E-06-7.35405E-19 1.32708E-18
 -1      2382 9.60376E-05-2.82394E-05-2.90523E-05-1.97720E-06-1.63560E-18 1.22368E-18
 -1      2383 9.61595E-05-2.80997E-05-2.91719E-05-2.76915E-06 4.29179E-19-1.01683E-18
 -1      2384 5.14790E-05-3.37763E-05-7.42397E-06 3.81636E-05-1.62630E-18-2.13728E-18
 -1      2385 3.81879E-05-2.75634E-05-4.24111E-06 3.06084E-05-2.62580E-18-5.73230E-19
 -1      2386 9.33227E-05-2.76671E-05-2.81301E-05-4.54560E-07 5.92571E-19 7.05863E-19
 -1      2387 9.33903E-05-2.75627E-05-2.81872E-05-1.56916E-07 7.51697E-19 9.21942E-19
 -1      2388 9.33015E-05-2.78306E-05-2.80531E-05-8.98380E-07 6.79442E-19 5.85551E-19
 -1      2389 9.32388E-05-2.77395E-05-2.80578E-05-7.40739E-07 6.22624E-19 6.88991E-19
 -1      2390 9.40149E-05-2.77780E-05-2.83990E-05-5.13896E-07 7.54076E-19 1.50303E-20
 -1      2391 9.34420E-05-2.79667E-05-2.80562E-05-1.12926E-06 6.89481E-19 8.05839E-19
 -1      2392 9.33012E-05-2.78846E-05-2.80288E-05-1.05139E-06 6.37803E-19 6.63576E-19
 -1      2393 9.39575E-05-2.79806E-05-2.82846E-05-1.01259E-06 6.48604E-19 1.87353E-19
 -1      2394 9.36865E-05-2.80847E-05-2.81109E-05-1.24255E-06 6.05741E-19 8.66887E-19
 -1      2395 9.34995E-05-2.80104E-05-2.80637E-05-1.20624E-06 6.40032E-19 8.73293E-19
 -1      2396 9.40301E-05-2.81219E-05-2.82527E-05-1.28284E-06 5.31380E-19 2.04238E-19
 -1      2397 9.39991E-05-2.81887E-05-2.82003E-05-1.30313E-06 5.97609E-19 9.92266E-19
 -1      2398 9.37835E-05-2.81213E-05-2.81400E-05-1.28230E-06 6.52101E-19 1.01103E-18
 -1      2399 9.41924E-05-2.82242E-05-2.82767E-05-1.42749E-06 5.17618E-19 5.63606E-19
 -1      2400 9.43618E-05-2.82821E-05-2.83153E-05-1.35769E-06 6.90502E-19 6.81728E-19
 -1      2401 9.41246E-05-2.82200E-05-2.82450E-05-1.33332E-06 7.53649E-19 1.07060E-18
 -1      2402 9.44171E-05-2.82987E-05-2.83400E-05-1.51835E-06 7.45999E-19 6.19150E-19
 -1      2403 9.47705E-05-2.83689E-05-2.84523E-05-1.44174E-06 4.93027E-19 3.16283E-19
 -1      2404 9.45108E-05-2.83096E-05-2.83726E-05-1.39906E-06 6.42333E-19 4.96318E-19
 -1      2405 9.46896E-05-2.83525E-05-2.84332E-05-1.60794E-06 8.80362E-19 4.35450E-19
 -1      2406 9.52318E-05-2.84544E-05-2.86121E-05-1.58382E-06 1.01326E-18 7.27819E-20
 -1      2407 9.49427E-05-2.83943E-05-2.85213E-05-1.51068E-06 7.67769E-19 1.23934E-19
 -1      2408 9.50053E-05-2.83914E-05-2.85518E-05-1.73663E-06 7.73455E-19 4.13048E-20
 -1      2409 9.57609E-05-2.85449E-05-2.87983E-05-1.80804E-06 5.96391E-19 6.33929E-20
 -1      2410 9.54305E-05-2.84796E-05-2.86935E-05-1.69388E-06 9.70199E-19 1.55788E-19
 -1      2411 9.53680E-05-2.84204E-05-2.86949E-05-1.93696E-06 9.19229E-19 1.52138E-19
 -1      2412 9.63797E-05-2.86486E-05-2.90170E-05-2.13526E-06-3.29429E-20 6.61724E-20
 -1      2413 9.59924E-05-2.85726E-05-2.88941E-05-1.97083E-06 2.29585E-19 1.59851E-20
 -1      2414 9.57875E-05-2.84454E-05-2.88644E-05-2.23623E-06 4.46591E-19 2.99400E-19
 -1      2415 9.71155E-05-2.87760E-05-2.92755E-05-2.58291E-06 2.72659E-19-1.51917E-19
 -1      2416 9.66525E-05-2.86822E-05-2.91294E-05-2.36055E-06 9.92203E-20-6.19605E-20
 -1      2417 9.62789E-05-2.84735E-05-2.90635E-05-2.65753E-06 2.16596E-19-2.85312E-20
 -1      2418 9.79996E-05-2.89414E-05-2.95812E-05-3.16281E-06 3.65591E-19-1.99333E-19
 -1      2419 9.74400E-05-2.88205E-05-2.94071E-05-2.87786E-06 4.14317E-19-8.44793E-20
 -1      2420 9.68615E-05-2.85149E-05-2.92961E-05-3.21911E-06 2.46780E-19-3.41797E-20
 -1      2421 9.90658E-05-2.91651E-05-2.99405E-05-3.87624E-06 1.42682E-19-1.03047E-19
 -1      2422 9.83879E-05-2.90046E-05-2.97339E-05-3.52998E-06 1.84391E-19 2.82500E-20
 -1      2423 9.75585E-05-2.85852E-05-2.95653E-05-3.93150E-06 1.49352E-19 1.58331E-19
 -1      2424 1.00349E-04-2.94777E-05-3.03559E-05-4.70450E-06-4.03944E-19-5.97013E-20
 -1      2425 9.95328E-05-2.92598E-05-3.01146E-05-4.30961E-06 5.73236E-20 5.26990E-20
 -1      2426 9.83979E-05-2.87109E-05-2.98719E-05-4.79137E-06-2.06651E-19 1.83387E-19
 -1      2427 1.01885E-04-2.99261E-05-3.08236E-05-5.59319E-06-5.49475E-19-5.76818E-20
 -1      2428 1.00914E-04-2.96256E-05-3.05492E-05-5.18270E-06-7.30293E-19-1.86695E-19
 -1      2429 9.94158E-05-2.89364E-05-3.02126E-05-5.77054E-06-4.38337E-19-1.66686E-19
 -1      2430 1.03707E-04-3.05815E-05-3.13293E-05-6.42805E-06 3.98830E-19-1.99109E-19
 -1      2431 1.02576E-04-3.01629E-05-3.10300E-05-6.06867E-06 7.51924E-20 1.31262E-19
 -1      2432 1.00662E-04-2.93359E-05-3.05775E-05-6.79828E-06-4.77377E-19-8.30192E-20
 -1      2433 1.05846E-04-3.15449E-05-3.18450E-05-7.00277E-06 4.66147E-19 3.89602E-21
 -1      2434 1.04566E-04-3.09630E-05-3.15382E-05-6.81153E-06 3.98566E-19-1.86357E-19
 -1      2435 1.02213E-04-3.00271E-05-3.09491E-05-7.73490E-06 4.20157E-19-2.07100E-19
 -1      2436 1.08323E-04-3.29378E-05-3.23292E-05-6.98580E-06-3.71870E-19 6.44681E-19
 -1      2437 1.06937E-04-3.21484E-05-3.20427E-05-7.14365E-06 2.39468E-19 3.72081E-19
 -1      2438 1.04179E-04-3.11794E-05-3.13041E-05-8.33701E-06 2.30608E-20-1.21964E-20
 -1      2439 1.11115E-04-3.48460E-05-3.27351E-05-5.91135E-06-1.36702E-18 5.68697E-19
 -1      2440 1.09722E-04-3.38448E-05-3.25039E-05-6.65538E-06-5.40189E-19 9.49122E-19
 -1      2441 1.06711E-04-3.29928E-05-3.16214E-05-8.22060E-06-4.36073E-19 1.07962E-18
 -1      2442 1.14075E-04-3.71697E-05-3.30370E-05-3.25626E-06-1.41571E-18 1.15524E-20
 -1      2443 1.12873E-04-3.60793E-05-3.28901E-05-4.81292E-06-1.71124E-18 3.97804E-19
 -1      2444 1.09951E-04-3.55948E-05-3.19036E-05-6.84834E-06-1.22126E-18 1.05256E-18
 -1      2445 1.16764E-04-3.93493E-05-3.32752E-05 1.28744E-06-1.15645E-18 5.00778E-19
 -1      2446 1.16098E-04-3.85538E-05-3.32128E-05-1.11823E-06-1.48943E-18-6.76832E-20
 -1      2447 1.13859E-04-3.87780E-05-3.22164E-05-3.62192E-06-1.31457E-18-1.00788E-19
 -1      2448 1.18284E-04-4.00763E-05-3.35955E-05 7.28858E-06-9.63447E-19 1.76425E-18
 -1      2449 1.18634E-04-4.03152E-05-3.35657E-05 4.48690E-06-9.52641E-19 9.43843E-19
 -1      2450 1.17953E-04-4.16538E-05-3.27314E-05 1.84308E-06-1.46425E-18 4.26205E-19
 -1      2451 1.17430E-04-3.76465E-05-3.41800E-05 1.25218E-05-1.11907E-18 2.89778E-18
 -1      2452 1.18994E-04-3.95340E-05-3.41190E-05 1.06596E-05-1.13712E-18 2.64112E-18
 -1      2453 1.20647E-04-4.20318E-05-3.37310E-05 9.00333E-06-1.55672E-18 1.43481E-18
 -1      2454 1.13858E-04-3.17963E-05-3.51026E-05 1.37634E-05 3.45907E-19 3.70737E-18
 -1      2455 1.16363E-04-3.52215E-05-3.49300E-05 1.42474E-05-2.51160E-19 3.58971E-18
 -1      2456 1.20382E-04-3.78804E-05-3.53404E-05 1.51038E-05-1.07680E-18 3.09017E-18
 -1      2457 1.09722E-04-2.56871E-05-3.59903E-05 7.81841E-06 1.10186E-18 3.85888E-18
 -1      2458 1.11561E-04-2.84374E-05-3.58487E-05 1.12456E-05 8.55794E-19 3.83421E-18
 -1      2459 1.16412E-04-2.94818E-05-3.72127E-05 1.48222E-05 2.24120E-19 2.85753E-18
 -1      2460 1.08472E-04-2.43013E-05-3.62987E-05-2.72655E-06 2.54539E-18 1.74388E-18
 -1      2461 1.08617E-04-2.41631E-05-3.62909E-05 1.93327E-06 2.82186E-18 3.26719E-18
 -1      2462 1.13186E-04-2.30835E-05-3.85139E-05 5.65268E-06 2.09492E-18 2.54420E-18
 -1      2463 1.12081E-04-2.90418E-05-3.57769E-05-1.21085E-05 1.94190E-18-1.24957E-19
 -1      2464 1.09966E-04-2.59971E-05-3.59570E-05-8.84981E-06 1.91043E-18 8.67597E-19
 -1      2465 1.12514E-04-2.31733E-05-3.83574E-05-7.17245E-06 3.25435E-18 1.28934E-18
 -1      2466 1.16771E-04-3.58168E-05-3.48266E-05-1.40371E-05-3.91554E-20 6.85700E-19
 -1      2467 1.14299E-04-3.25959E-05-3.49761E-05-1.38761E-05 6.06595E-19 2.34152E-19
 -1      2468 1.17185E-04-3.09183E-05-3.70378E-05-1.47614E-05 1.08588E-18 8.38907E-19
 -1      2469 1.19105E-04-3.98373E-05-3.40189E-05-1.00166E-05-1.96981E-19 1.56719E-18
 -1      2470 1.17609E-04-3.81249E-05-3.40877E-05-1.21163E-05 1.61813E-20 1.07982E-18
 -1      2471 1.20549E-04-3.85944E-05-3.50992E-05-1.40396E-05-2.69277E-19 1.07460E-18
 -1      2472 1.18364E-04-4.01705E-05-3.34980E-05-3.79613E-06-3.58374E-19 2.27057E-18
 -1      2473 1.18148E-04-4.00977E-05-3.35275E-05-6.52980E-06 2.81612E-19 2.08518E-18
 -1      2474 1.20480E-04-4.21245E-05-3.35590E-05-8.01370E-06-3.05581E-19 2.05010E-18
 -1      2475 1.15705E-04-3.82843E-05-3.31540E-05 1.63286E-06 3.01722E-19 2.41590E-18
 -1      2476 1.16441E-04-3.91235E-05-3.32268E-05-6.35730E-07 4.06973E-20 2.35650E-18
 -1      2477 1.17474E-04-4.13701E-05-3.26402E-05-1.09023E-06-1.61538E-19 1.85110E-18
 -1      2478 1.12435E-04-3.58040E-05-3.28199E-05 5.15002E-06 1.08556E-19 3.14726E-18
 -1      2479 1.13673E-04-3.68837E-05-3.29812E-05 3.72226E-06 6.10572E-19 2.84286E-18
 -1      2480 1.13373E-04-3.84449E-05-3.21556E-05 4.14452E-06 6.48943E-19 1.73004E-18
 -1      2481 1.09285E-04-3.36158E-05-3.24166E-05 6.84912E-06 4.06781E-19 8.30354E-19
 -1      2482 1.10697E-04-3.45878E-05-3.26605E-05 6.18812E-06 3.13475E-19 2.66293E-18
 -1      2483 1.09495E-04-3.52796E-05-3.18456E-05 7.17045E-06 1.30272E-18 1.89247E-18
 -1      2484 1.06515E-04-3.19691E-05-3.19411E-05 7.24758E-06-1.22920E-18 1.92654E-18
 -1      2485 1.07911E-04-3.27324E-05-3.22363E-05 7.12846E-06-4.12267E-20 1.56176E-18
 -1      2486 1.06314E-04-3.27498E-05-3.15551E-05 8.39371E-06-2.67331E-19 2.50455E-18
 -1      2487 1.04158E-04-3.08185E-05-3.14275E-05 6.86792E-06-2.29286E-18 1.85858E-18
 -1      2488 1.05444E-04-3.13845E-05-3.17392E-05 7.06785E-06-2.13293E-18 1.80442E-18
 -1      2489 1.03830E-04-3.10043E-05-3.12284E-05 8.42259E-06-1.92266E-18 3.43047E-18
 -1      2490 1.02178E-04-3.00360E-05-3.09156E-05 6.10149E-06-1.12074E-18 2.40078E-18
 -1      2491 1.03312E-04-3.04484E-05-3.12166E-05 6.45482E-06-1.69919E-18 1.51269E-18
 -1      2492 1.01895E-04-2.98970E-05-3.08674E-05 7.77529E-06-1.44663E-18 1.41273E-18
 -1      2493 1.00525E-04-2.95011E-05-3.04368E-05 5.19799E-06 5.68020E-19 7.14436E-19
 -1      2494 1.01497E-04-2.98034E-05-3.07101E-05 5.60054E-06-7.05436E-20 1.87077E-18
 -1      2495 1.00363E-04-2.92266E-05-3.04950E-05 6.81464E-06-4.66793E-19 9.35794E-19
 -1      2496 9.91561E-05-2.91246E-05-3.00110E-05 4.29605E-06 3.43417E-18 7.29831E-19
 -1      2497 9.99684E-05-2.93505E-05-3.02478E-05 4.69173E-06 1.99300E-18 3.83165E-19
 -1      2498 9.91287E-05-2.88262E-05-3.01359E-05 5.76400E-06 1.49320E-18-2.05156E-18
 -1      2499 9.80324E-05-2.88464E-05-2.96481E-05 3.45843E-06 1.73085E-18 1.95410E-18
 -1      2500 9.86975E-05-2.90202E-05-2.98454E-05 3.82393E-06 2.88543E-18 2.32170E-18
 -1      2501 9.81208E-05-2.85796E-05-2.98089E-05 4.74383E-06 2.12926E-18 9.42841E-19
 -1      2502 9.71213E-05-2.86263E-05-2.93510E-05 2.69989E-06 1.98450E-18 9.77158E-20
 -1      2503 9.76541E-05-2.87653E-05-2.95092E-05 3.03262E-06 1.86232E-18 1.30753E-18
 -1      2504 9.72933E-05-2.84119E-05-2.95256E-05 3.80566E-06 2.61147E-18 1.67563E-18
 -1      2505 9.63920E-05-2.84399E-05-2.91181E-05 2.00548E-06 1.04204E-18-5.30184E-19
 -1      2506 9.68074E-05-2.85534E-05-2.92394E-05 2.31520E-06 1.67697E-18-2.56794E-19
 -1      2507 9.66102E-05-2.82759E-05-2.92911E-05 2.96025E-06 2.20143E-18-2.23758E-19
 -1      2508 9.58201E-05-2.82782E-05-2.89418E-05 1.36026E-06 8.26899E-20-2.88549E-19
 -1      2509 9.61355E-05-2.83726E-05-2.90313E-05 1.65362E-06 2.40978E-19-4.27417E-19
 -1      2510 9.60490E-05-2.81517E-05-2.91053E-05 2.18665E-06 9.38390E-19 1.09850E-18
 -1      2511 9.56074E-05-2.82312E-05-2.88692E-05 1.00961E-06-2.66989E-19-3.78616E-19
 -1      2512 9.40490E-05-2.58144E-05-2.92522E-05 1.66431E-06 5.46665E-19-1.35786E-18
 -1      2513 9.42405E-05-2.60855E-05-2.92078E-05 1.82936E-06-6.42885E-19-2.42106E-18
 -1      2514 9.37499E-05-2.53896E-05-2.93060E-05 1.13519E-06 1.09555E-18 5.65957E-19
 -1      2515 9.38819E-05-2.55804E-05-2.92737E-05 1.39824E-06 1.24772E-18-1.07859E-18
 -1      2516 9.38125E-05-2.56394E-05-2.92109E-05 1.76302E-06 1.09270E-18-2.39939E-20
 -1      2517 9.49246E-05-2.70424E-05-2.90985E-05 1.97569E-06-7.01116E-19 1.70171E-18
 -1      2518 9.51599E-05-2.73702E-05-2.90453E-05 1.88692E-06-4.26243E-19 3.39733E-18
 -1      2519 9.44580E-05-2.63883E-05-2.91804E-05 1.96225E-06-1.25043E-18-2.25526E-18
 -1      2520 9.46836E-05-2.67023E-05-2.91301E-05 2.00210E-06-8.64554E-19-4.15006E-19
 -1      2521 9.48293E-05-2.68561E-05-2.91264E-05 2.32208E-06-2.75071E-19 6.81540E-19
 -1      2522 9.42738E-05-2.61912E-05-2.91730E-05 2.19485E-06-9.08407E-20-1.52018E-18
 -1      2523 9.35928E-05-2.51626E-05-2.93349E-05 4.59620E-07-3.63903E-19 1.96290E-18
 -1      2524 9.36528E-05-2.52527E-05-2.93191E-05 7.79979E-07 9.54052E-20 1.09229E-18
 -1      2525 9.34999E-05-2.52600E-05-2.92378E-05 1.09663E-06 1.02593E-18 1.19265E-19
 -1      2526 9.35893E-05-2.51551E-05-2.93347E-05-2.66406E-07-5.34962E-19 1.43269E-18
 -1      2527 9.35733E-05-2.51356E-05-2.93377E-05 6.55937E-08-5.74614E-19 2.07977E-18
 -1      2528 9.33613E-05-2.50924E-05-2.92498E-05 2.94124E-07 1.01964E-19 2.07808E-18
 -1      2529 9.37334E-05-2.53618E-05-2.93053E-05-9.45322E-07-4.55979E-19 7.78423E-19
 -1      2530 9.36462E-05-2.52373E-05-2.93266E-05-6.46316E-07-4.72898E-19 6.91876E-19
 -1      2531 9.34053E-05-2.51492E-05-2.92448E-05-5.33548E-07 8.10159E-19 7.13420E-19
 -1      2532 9.39987E-05-2.57453E-05-2.92517E-05-1.48221E-06 1.80841E-19-1.35901E-18
 -1      2533 9.38547E-05-2.55371E-05-2.92877E-05-1.25775E-06-9.81365E-19-3.32030E-19
 -1      2534 9.36174E-05-2.54141E-05-2.92234E-05-1.27327E-06 5.81265E-21-2.59337E-19
 -1      2535 9.43630E-05-2.62727E-05-2.91790E-05-1.82723E-06 1.78086E-18 2.34264E-18
 -1      2536 9.41742E-05-2.59987E-05-2.92261E-05-1.69949E-06 1.62483E-18-9.43346E-19
 -1      2537 9.39679E-05-2.58524E-05-2.91877E-05-1.84021E-06 4.60030E-19 5.75491E-19
 -1      2538 9.47843E-05-2.68822E-05-2.90963E-05-1.92435E-06 1.24911E-18-1.90836E-19
 -1      2539 9.45733E-05-2.65747E-05-2.91484E-05-1.91686E-06 1.51144E-18 1.90548E-18
 -1      2540 9.44214E-05-2.64199E-05-2.91414E-05-2.16906E-06 1.44716E-18 9.40190E-19
 -1      2541 9.52112E-05-2.75070E-05-2.90102E-05-1.75881E-06-2.16642E-18-2.25686E-18
 -1      2542 9.50046E-05-2.71991E-05-2.90629E-05-1.87478E-06-4.65341E-19-2.81832E-18
 -1      2543 9.49225E-05-2.70545E-05-2.90870E-05-2.21155E-06-3.93345E-19-2.06322E-18
 -1      2544 9.54426E-05-2.79822E-05-2.89070E-05-1.21696E-06-1.74009E-18 4.76912E-19
 -1      2545 1.86357E-05-1.90480E-05 3.26505E-07-9.87367E-06-5.26854E-19 4.80268E-18
 -1      2546 2.56186E-05-2.19257E-05-1.45451E-06-2.39800E-05-1.79042E-19 5.09067E-18
 -1      2547 9.35873E-05-2.74493E-05-2.83328E-05 3.50197E-07 9.99060E-19 1.07554E-18
 -1      2548 9.38642E-05-2.73143E-05-2.84774E-05 8.91366E-07 1.18995E-18 1.30903E-18
 -1      2549 9.42520E-05-2.74644E-05-2.86373E-05 3.67380E-07 1.05438E-18 4.24128E-19
 -1      2550 1.27125E-04-5.84311E-05-2.97260E-05 2.69906E-05-6.28498E-19-3.59862E-18
 -1      2551 1.13795E-04-5.72236E-05-2.40847E-05 3.18059E-05-2.84603E-19-3.62340E-18
 -1      2552 9.50377E-05-2.00122E-05-3.22028E-05-1.17539E-05-2.06708E-18-1.56438E-18
 -1      2553 9.54439E-05-2.33518E-05-3.09180E-05-7.96682E-06-1.93933E-18-1.33367E-18
 -1      2554 9.50494E-05-2.25622E-05-3.10469E-05-7.64250E-06-1.72102E-18-1.72582E-18
 -1      2555 9.31940E-05-1.76112E-05-3.24113E-05-1.14141E-05-2.02802E-18-2.10328E-18
 -1      2556 1.43892E-04-2.80619E-05-5.01056E-05 5.36966E-06-2.94344E-19-1.22820E-19
 -1      2557 1.46338E-04-1.99946E-05-5.44376E-05 5.39083E-06-1.15260E-18 4.59304E-19
 -1      2558 3.37770E-05-2.39052E-05-3.97148E-06 3.02598E-05 2.74015E-19 4.88950E-19
 -1      2559 2.36792E-05-1.85826E-05-1.71754E-06 1.61072E-05-1.92065E-19-1.49163E-18
 -1      2560 1.43779E-04-1.19789E-05-5.69716E-05 1.09355E-06 2.97309E-18-2.24903E-18
 -1      2561 1.47992E-04-1.31385E-05-5.78734E-05-2.93867E-06 2.69695E-18-2.92258E-18
 -1      2562 8.78923E-05-1.07917E-05-3.30790E-05-1.51605E-06 5.84927E-19-3.00886E-18
 -1      2563 8.79962E-05-1.09147E-05-3.30693E-05-2.63396E-06 3.02615E-19-3.04829E-18
 -1      2564 8.93917E-05-1.30815E-05-3.27067E-05-2.92546E-06 1.53731E-19-2.84113E-18
 -1      2565 8.91453E-05-1.27435E-05-3.27468E-05-9.38747E-07 6.31983E-19-2.81186E-18
 -1      2566 1.47699E-04-2.56062E-05-5.26512E-05 8.11517E-06 2.34819E-18-2.01467E-18
 -1      2567 1.45144E-04-1.72300E-05-5.52170E-05 7.87926E-06 2.17476E-18-1.77125E-18
 -1      2568 1.48863E-04-1.68761E-05-5.72378E-05-4.41449E-06 2.53813E-18-3.95056E-18
 -1      2569 1.49260E-04-2.17778E-05-5.49742E-05-6.54942E-06 2.73507E-18-4.15110E-18
 -1      2570 1.36829E-04-1.24043E-05-5.34486E-05-6.65734E-06 2.16015E-18-1.53662E-18
 -1      2571 6.33263E-05-4.09093E-05-9.41888E-06-3.99433E-05-2.27238E-18-5.00681E-18
 -1      2572 8.16287E-05-4.78641E-05-1.45600E-05-4.26162E-05-1.59899E-18-4.50426E-18
 -1      2573 1.51702E-04-3.20860E-05-5.16563E-05-5.77885E-06 1.82663E-18-3.94294E-18
 -1      2574 1.48385E-04-4.01242E-05-4.66360E-05-4.06983E-06 8.51586E-19-4.49330E-18
 -1      2575 1.32257E-04-5.77236E-05-3.20047E-05-2.03060E-05-1.11110E-18-4.52125E-18
 -1      2576 1.41550E-04-5.51829E-05-3.73783E-05-1.36334E-05-7.54918E-19-4.28705E-18
 -1      2577 1.32165E-04-5.46159E-05-3.34642E-05 2.38801E-05 4.04246E-19 2.68509E-18
 -1      2578 1.18622E-04-5.56274E-05-2.70034E-05 2.99441E-05 6.34639E-19 1.64938E-18
 -1      2579 1.01751E-04-5.47504E-05-2.00938E-05-3.62488E-05-1.48612E-18-4.49388E-18
 -1      2580 1.19949E-04-5.75868E-05-2.68906E-05-3.14024E-05-9.83405E-19-5.01782E-18
 -1      2581 1.28697E-04-6.05049E-05-2.90181E-05-2.14107E-05-1.64536E-18-3.98487E-18
 -1      2582 2.93291E-05-2.47377E-05-1.80408E-06-2.45374E-05-1.67575E-18-4.87277E-18
 -1      2583 4.32462E-05-3.06325E-05-5.32677E-06-3.55605E-05-1.43593E-18-5.02100E-18
 -1      2584 1.82436E-05-1.66612E-05-4.66693E-07 1.72444E-07-9.57088E-19-3.22042E-18
 -1      2585 2.12459E-05-1.97672E-05-4.06842E-07-1.40457E-05-1.35324E-18-4.06491E-18
 -1      2586 6.50877E-05-3.91036E-05-1.09586E-05 4.30461E-05 4.06152E-19 2.07460E-18
 -1      2587 5.07656E-05-3.23511E-05-7.48980E-06 3.78660E-05 6.40992E-19 1.40269E-18
 -1      2588 1.02266E-04-5.31483E-05-2.10879E-05 3.98006E-05 7.00284E-19 7.56136E-19
 -1      2589 8.20916E-05-4.75968E-05-1.46401E-05 4.16009E-05 2.68721E-19 1.35356E-18
 -1      2590 8.24857E-05-4.46241E-05-1.58187E-05 4.00190E-05 1.83721E-18 2.06501E-18
 -1      2591 1.46706E-04-4.35242E-05-4.45611E-05 5.91177E-06-1.38543E-18 3.73076E-18
 -1      2592 1.39819E-04-4.95792E-05-3.88125E-05 1.21573E-05-1.14561E-19 3.02624E-18
 -1      2593 1.49128E-04-2.63848E-05-5.29845E-05-3.31780E-06-2.76683E-18 2.46105E-18
 -1      2594 1.47187E-04-3.35862E-05-4.89112E-05-1.29266E-06-2.01361E-18 3.09675E-18
 -1      2595 1.45465E-04-1.34033E-05-5.69314E-05 3.81648E-06-1.65976E-18 8.08916E-20
 -1      2596 1.44345E-04-1.07722E-05-5.78134E-05 1.59941E-06-2.60717E-18 1.67554E-19
 -1      2597 4.10518E-05-2.97739E-05-4.51362E-06-3.45734E-05 3.43684E-19 6.33687E-18
 -1      2598 5.66428E-05-3.69050E-05-8.31955E-06-4.24818E-05 5.48454E-19 5.87883E-18
 -1      2599 1.18232E-04-5.61379E-05-2.65075E-05-3.02575E-05 1.96723E-19-3.03238E-19
 -1      2600 1.30860E-04-5.54267E-05-3.24593E-05-2.42012E-05-8.16328E-20-7.66565E-20
 -1      2601 2.53121E-05-2.01887E-05-2.01186E-06 1.95644E-05-2.47037E-18 1.92827E-18
 -1      2602 1.90466E-05-1.77186E-05-2.83560E-07 4.04775E-06-2.22448E-18 4.24109E-18
 -1      2603 9.62788E-05-2.50775E-05-3.05406E-05 7.60045E-06 2.22566E-18 2.72283E-18
 -1      2604 9.74002E-05-2.37618E-05-3.15806E-05 1.07004E-05 2.32444E-18 3.10574E-18
 -1      2605 9.58448E-05-2.12896E-05-3.20081E-05 1.19019E-05 2.55577E-18 2.15546E-18
 -1      2606 9.58395E-05-2.41471E-05-3.07586E-05 7.68914E-06 2.32260E-18 1.61347E-18
 -1      2607 1.46456E-04-5.14409E-05-4.12896E-05 5.81762E-06 9.84808E-20-5.50656E-18
 -1      2608 1.37731E-04-5.60424E-05-3.50370E-05 1.53389E-05-4.57504E-19-5.29438E-18
 -1      2609 1.35140E-04-5.97022E-05-3.21834E-05 1.50053E-05-2.58345E-19-5.15758E-18
 -1      2610 1.32539E-04-1.74787E-05-4.95943E-05 1.07409E-05 1.81202E-18 6.83873E-19
 -1      2611 1.39145E-04-1.50235E-05-5.36709E-05 6.16047E-06 2.40981E-18-4.77832E-19
 -1      2612 1.29961E-04-1.25371E-05-5.09641E-05 3.04895E-06 1.86135E-18 3.02364E-19
 -1      2613 9.08265E-05-1.50327E-05-3.24717E-05-6.80852E-06-8.35284E-19-3.00611E-18
 -1      2614 8.97223E-05-1.31838E-05-3.28552E-05-7.95547E-06-9.46496E-19-3.21079E-18
 -1      2615 9.03462E-05-1.39073E-05-3.28242E-05-9.17017E-06-1.31371E-18-3.04726E-18
 -1      2616 9.47057E-05-2.69191E-05-2.90643E-05 1.86974E-06 1.49231E-18 7.17222E-19
 -1      2617 9.42168E-05-1.90721E-05-3.22500E-05 1.16099E-05 2.65123E-18 9.82267E-19
 -1      2618 1.45081E-04-4.69792E-05-4.21432E-05-4.17705E-06 1.89047E-19-4.25888E-18
 -1      2619 3.96208E-05-2.43233E-05-6.05139E-06-2.97568E-05-2.02653E-19 6.07069E-18
 -1      2620 1.44220E-04-5.26619E-05-3.93553E-05-2.02026E-06-9.22684E-19-2.44411E-18
 -1      2621 1.36269E-04-1.56950E-05-5.19479E-05 8.11270E-06-1.43149E-18-7.00073E-19
 -1      2622 1.43736E-04-3.56482E-05-4.65508E-05 5.40453E-06 1.26208E-19 1.29173E-19
 -1      2623 1.35824E-04-2.91008E-05-4.62461E-05 1.14292E-05-5.17537E-19-9.36607E-19
 -1      2624 1.39615E-04-4.14841E-05-4.21979E-05 4.45795E-06 1.68136E-19-4.44481E-19
 -1      2625 1.42199E-04-3.75585E-05-4.51248E-05 1.04263E-05 2.38016E-19-3.67401E-19
 -1      2626 1.46667E-04-3.24791E-05-4.93065E-05 9.51430E-06 1.90498E-18-9.99075E-19
 -1      2627 1.37014E-04-2.67861E-05-4.78592E-05 1.40550E-05 1.28728E-18 2.23828E-19
 -1      2628 1.41332E-04-2.04019E-05-5.21877E-05-8.26021E-06-2.69420E-18 2.15824E-18
 -1      2629 1.14798E-04-5.70109E-05-2.45507E-05 3.13465E-05 1.24281E-18 2.54353E-18
 -1      2630 6.53542E-05-3.91644E-05-1.08331E-05 3.95925E-05-1.21909E-18-2.73486E-18
 -1      2631 6.28301E-05-3.39001E-05-1.18727E-05 3.73848E-05-3.40603E-18-2.44740E-18
 -1      2632 7.90228E-05-4.43241E-05-1.50071E-05 4.00746E-05-1.70169E-18-3.02952E-18
 -1      2633 1.06189E-04-5.57707E-05-2.13725E-05 3.52933E-05-3.49401E-20-3.63102E-18
 -1      2634 9.55884E-05-2.80326E-05-2.89509E-05 1.44797E-06-8.46651E-19 4.68194E-19
 -1      2635 9.20507E-05-1.62301E-05-3.25342E-05-1.03985E-05-1.70448E-18-2.49531E-18
 -1      2636 9.54685E-05-2.78011E-05-2.90007E-05 1.65418E-06-2.22038E-19 2.95275E-18
 -1      2637 9.56894E-05-2.81355E-05-2.89451E-05-1.47664E-06-2.30092E-18 8.22436E-19
 -1      2638 9.54148E-05-2.77828E-05-2.89884E-05-1.66885E-06-2.44632E-18-5.67356E-20
 -1      2639 9.54364E-05-2.76645E-05-2.90426E-05-2.05646E-06-2.43222E-18-1.69301E-18
 -1      2640 9.59109E-05-2.81998E-05-2.90107E-05-1.75117E-06-2.29826E-18 1.73249E-18
 -1      2641 1.37190E-04-5.48208E-05-3.52231E-05 1.21344E-05 7.47824E-19 3.95056E-18
 -1      2642 2.76186E-05-1.53785E-05-4.65957E-06 8.21574E-06 1.63371E-19-2.50679E-18
 -1      2643 2.55199E-05-1.51727E-05-3.84858E-06-2.49626E-06-1.60756E-18 3.49443E-18
 -1      2644 9.46945E-05-2.05932E-05-3.17133E-05 9.67403E-06 2.49788E-18 6.18513E-19
 -1      2645 7.43082E-05-4.32263E-05-1.31130E-05-4.16520E-05 1.06133E-18 3.58697E-18
 -1      2646 9.54761E-05-2.76485E-05-2.90639E-05 2.08262E-06-2.17403E-19 2.95954E-18
 -1      2647 3.78521E-05-2.15453E-05-6.39625E-06 2.42084E-05-2.99638E-18 1.16954E-18
 -1      2648 1.12062E-04-5.65703E-05-2.37882E-05-3.40774E-05-6.05629E-20-2.95509E-19
 -1      2649 1.20586E-04-5.82886E-05-2.67893E-05-2.62384E-05 5.28972E-19-1.04386E-18
 -1      2650 1.04398E-04-5.38912E-05-2.11649E-05-3.64395E-05 4.81750E-19-5.30931E-19
 -1      2651 4.93035E-05-2.67492E-05-9.21078E-06 3.35566E-05 1.29638E-18 1.52191E-18
 -1      2652 9.88376E-05-5.31515E-05-1.92502E-05-3.72044E-05-2.24718E-18-4.64403E-18
 -1      2653 1.40465E-04-1.02810E-05-5.60524E-05-7.52616E-07-3.19501E-18-3.73919E-20
 -1      2654 1.32559E-04-9.34399E-06-5.33871E-05-3.40538E-06-3.36653E-18-5.88688E-20
 -1      2655 1.30474E-04-8.74839E-06-5.25266E-05 1.58464E-06-2.50934E-18-2.99492E-19
 -1      2656 5.95560E-05-3.51845E-05-9.99329E-06-3.74792E-05-1.86665E-18-5.18903E-18
 -1      2657 1.42795E-04-2.61791E-05-5.01169E-05-1.10567E-05 2.22791E-18-2.31494E-18
 -1      2658 3.24929E-05-1.94405E-05-5.02988E-06-2.00244E-05-1.03592E-18-4.92211E-18
 -1      2659 1.37048E-04-5.51866E-05-3.51830E-05-1.22747E-05 2.45745E-19-8.78797E-20
 -1      2660 1.42752E-04-3.97376E-05-4.41665E-05-4.26588E-06-6.37498E-19 3.13339E-18
 -1      2661 9.57990E-05-2.79902E-05-2.90657E-05-2.18134E-06-1.76390E-18 1.35001E-20
 -1      2662 9.06005E-05-1.51549E-05-3.23561E-05 3.18643E-06 1.50214E-18-2.42828E-18
 -1      2663 9.04121E-05-1.48817E-05-3.23904E-05 2.25413E-06 1.31019E-18-2.54786E-18
 -1      2664 9.02783E-05-1.46770E-05-3.24204E-05 1.41653E-06 1.12574E-18-2.67755E-18
 -1      2665 9.02126E-05-1.45841E-05-3.24321E-05 4.61689E-07 9.21489E-19-2.63694E-18
 -1      2666 9.14607E-05-1.65641E-05-3.20854E-05 1.63231E-06 1.13044E-18-2.48659E-18
 -1      2667 9.21657E-05-1.75413E-05-3.20198E-05 6.46476E-06 2.26684E-18-1.49569E-18
 -1      2668 9.16467E-05-1.67451E-05-3.21233E-05 5.62409E-06 2.05163E-18-1.73198E-18
 -1      2669 9.35656E-05-1.97658E-05-3.16707E-05 7.59224E-06 2.40793E-18-7.33484E-19
 -1      2670 9.27865E-05-1.85125E-05-3.18489E-05 7.01279E-06 2.30094E-18-1.14360E-18
 -1      2671 9.34555E-05-1.98521E-05-3.15213E-05 5.72240E-06 2.13740E-18-1.20732E-18
 -1      2672 9.51996E-05-2.53924E-05-2.99294E-05 3.97017E-06 1.87681E-18 3.19496E-19
 -1      2673 9.55341E-05-2.45452E-05-3.03913E-05 5.60788E-06 2.05754E-18 4.64173E-19
 -1      2674 7.03366E-05-3.78998E-05-1.34218E-05-3.99100E-05 1.57315E-18 3.50894E-18
 -1      2675 8.81752E-05-4.74198E-05-1.72928E-05-4.10081E-05 1.18839E-18 3.92229E-19
 -1      2676 1.38915E-04-5.48083E-05-3.59762E-05-8.24495E-07-1.27306E-18-1.58776E-18
 -1      2677 1.42943E-04-4.80211E-05-4.12700E-05 5.99467E-06-9.68847E-19-7.89646E-19
 -1      2678 9.53940E-05-2.59087E-05-2.97405E-05-2.67111E-06-1.08980E-18-1.45538E-18
 -1      2679 9.51962E-05-2.64637E-05-2.94678E-05-1.67661E-06-9.59031E-19-1.51821E-18
 -1      2680 9.52167E-05-2.69681E-05-2.92260E-05-9.27096E-07-8.86853E-19-1.32863E-18
 -1      2681 9.50909E-05-2.73158E-05-2.90514E-05-3.04217E-07-7.24817E-19-1.34887E-18
 -1      2682 9.54305E-05-2.62849E-05-2.96363E-05-1.57534E-06-9.18909E-19-1.43445E-18
 -1      2683 9.50599E-05-2.76116E-05-2.88906E-05 1.84836E-07-6.56671E-19-1.31081E-18
 -1      2684 9.49925E-05-2.78263E-05-2.87874E-05 5.62104E-07-5.61671E-19-1.30574E-18
 -1      2685 9.54266E-05-2.72635E-05-2.92204E-05-2.50011E-07-7.37167E-19-1.35904E-18
 -1      2686 9.49544E-05-2.79979E-05-2.86856E-05 8.64812E-07-6.09183E-19-1.32264E-18
 -1      2687 9.49414E-05-2.81327E-05-2.86320E-05 1.08573E-06-6.50537E-19-1.46091E-18
 -1      2688 9.53715E-05-2.78472E-05-2.89460E-05 5.99748E-07-6.30078E-19-1.51693E-18
 -1      2689 9.49113E-05-2.82267E-05-2.85735E-05 1.26656E-06-5.37278E-19-1.46417E-18
 -1      2690 9.49403E-05-2.83088E-05-2.85546E-05 1.39394E-06-2.66468E-19-1.41841E-18
 -1      2691 9.53154E-05-2.81888E-05-2.87744E-05 1.12452E-06-6.36486E-19-1.52596E-18
 -1      2692 9.49225E-05-2.83513E-05-2.85278E-05 1.50339E-06-3.91261E-20-1.56089E-18
 -1      2693 9.49821E-05-2.83969E-05-2.85337E-05 1.58193E-06-5.15372E-20-1.42902E-18
 -1      2694 9.52766E-05-2.83699E-05-2.86789E-05 1.44515E-06-2.00825E-19-1.56302E-18
 -1      2695 9.49761E-05-2.84035E-05-2.85306E-05 1.65791E-06-2.95725E-19-1.08397E-18
 -1      2696 9.50591E-05-2.84229E-05-2.85547E-05 1.72000E-06-4.73267E-19-9.42817E-19
 -1      2697 9.52590E-05-2.84406E-05-2.86401E-05 1.65298E-06-3.32478E-20-1.03359E-18
 -1      2698 9.50634E-05-2.84036E-05-2.85694E-05 1.79110E-06-5.66058E-19-6.80024E-19
 -1      2699 9.51660E-05-2.84041E-05-2.86077E-05 1.86060E-06-4.16517E-19-6.35324E-19
 -1      2700 9.52612E-05-2.84324E-05-2.86437E-05 1.81723E-06-2.58590E-19-5.98089E-19
 -1      2701 9.51795E-05-2.83659E-05-2.86363E-05 1.94844E-06-3.95282E-19-6.95510E-19
 -1      2702 9.53013E-05-2.83539E-05-2.86864E-05 2.04303E-06-1.91890E-19-7.36937E-19
 -1      2703 9.52810E-05-2.83667E-05-2.86798E-05 1.99029E-06-4.61874E-19-4.36781E-19
 -1      2704 9.53240E-05-2.83027E-05-2.87261E-05 2.16388E-06-3.40322E-19-9.47377E-19
 -1      2705 9.54674E-05-2.82844E-05-2.87866E-05 2.29633E-06-5.18364E-19-9.84299E-19
 -1      2706 9.53180E-05-2.82597E-05-2.87412E-05 2.21167E-06-4.75794E-19-5.49420E-19
 -1      2707 9.55011E-05-2.82261E-05-2.88352E-05 2.46196E-06-3.13605E-19-9.81176E-19
 -1      2708 9.56709E-05-2.82089E-05-2.89054E-05 2.64046E-06-2.92962E-19-9.00717E-19
 -1      2709 9.53741E-05-2.81261E-05-2.88223E-05 2.51065E-06-3.41380E-19-5.15338E-19
 -1      2710 9.57193E-05-2.81513E-05-2.89610E-05 2.85820E-06-4.49720E-19-7.87015E-19
 -1      2711 9.59230E-05-2.81452E-05-2.90401E-05 3.08589E-06-5.67330E-19-8.66376E-19
 -1      2712 9.54551E-05-2.79826E-05-2.89185E-05 2.90723E-06-3.70689E-19-9.20410E-19
 -1      2713 9.59935E-05-2.80998E-05-2.91004E-05 3.35797E-06-7.41692E-19-8.12799E-19
 -1      2714 9.62411E-05-2.81187E-05-2.91873E-05 3.63141E-06-7.33884E-19-9.45717E-19
 -1      2715 9.55723E-05-2.78517E-05-2.90251E-05 3.41173E-06-7.38042E-19-9.11517E-19
 -1      2716 9.63464E-05-2.81029E-05-2.92497E-05 3.95338E-06-7.42158E-19-1.12297E-18
 -1      2717 9.66515E-05-2.81676E-05-2.93422E-05 4.26007E-06-9.97951E-19-1.21443E-18
 -1      2718 9.57458E-05-2.77667E-05-2.91364E-05 4.02273E-06-9.25667E-19-6.29235E-19
 -1      2719 9.68126E-05-2.82077E-05-2.94031E-05 4.61815E-06-1.00683E-18-1.22808E-18
 -1      2720 9.71936E-05-2.83475E-05-2.94981E-05 4.93284E-06-1.02425E-18-1.19995E-18
 -1      2721 9.60087E-05-2.77777E-05-2.92455E-05 4.72329E-06-1.15420E-18-7.19687E-19
 -1      2722 9.74440E-05-2.84825E-05-2.95533E-05 5.29996E-06-1.14804E-18-1.31074E-18
 -1      2723 9.79255E-05-2.87378E-05-2.96462E-05 5.57982E-06-9.32062E-19-1.27381E-18
 -1      2724 9.64148E-05-2.79583E-05-2.93443E-05 5.47483E-06-1.06435E-18-1.48785E-18
 -1      2725 9.83163E-05-2.90207E-05-2.96919E-05 5.90997E-06-7.58227E-19-1.31298E-18
 -1      2726 9.89301E-05-2.94424E-05-2.97780E-05 6.08918E-06-5.87916E-19-1.61753E-18
 -1      2727 9.70472E-05-2.84125E-05-2.94243E-05 6.20844E-06-1.07540E-18-1.60129E-18
 -1      2728 9.95333E-05-2.99398E-05-2.98127E-05 6.30978E-06-1.41418E-19-1.61644E-18
 -1      2729 1.00315E-04-3.05820E-05-2.98888E-05 6.29477E-06 4.31216E-19-1.77515E-18
 -1      2730 9.80276E-05-2.92756E-05-2.94805E-05 6.81245E-06-4.31581E-19-1.35423E-18
 -1      2731 1.01222E-04-3.13618E-05-2.99173E-05 6.29673E-06 3.91451E-19-1.86228E-18
 -1      2732 1.02200E-04-3.22605E-05-2.99859E-05 5.96539E-06 1.63358E-19-2.29969E-18
 -1      2733 9.95191E-05-3.07016E-05-2.95171E-05 7.11534E-06 2.21128E-19-1.88408E-18
 -1      2734 1.03502E-04-3.33595E-05-3.00263E-05 5.59280E-06 2.55906E-19-1.89273E-18
 -1      2735 1.04663E-04-3.44836E-05-3.01019E-05 4.80591E-06 5.84664E-19-2.04201E-18
 -1      2736 1.01709E-04-3.28165E-05-2.95595E-05 6.86329E-06 4.36542E-19-1.60037E-18
 -1      2737 1.06398E-04-3.58384E-05-3.01952E-05 3.85776E-06 5.42902E-19-2.38148E-18
 -1      2738 1.07634E-04-3.70043E-05-3.03104E-05 2.49833E-06 2.97170E-19-2.70603E-18
 -1      2739 1.04740E-04-3.56045E-05-2.96722E-05 5.70171E-06 9.46886E-20-8.84739E-19
 -1      2740 1.09664E-04-3.83355E-05-3.05255E-05 7.87196E-07 6.59476E-19-2.37537E-18
 -1      2741 1.10706E-04-3.91187E-05-3.07330E-05-1.13566E-06 4.56842E-19-1.82299E-18
 -1      2742 1.08537E-04-3.86914E-05-2.99769E-05 3.20738E-06 4.38274E-19-1.18900E-18
 -1      2743 1.12600E-04-3.98459E-05-3.11630E-05-3.62065E-06 3.57315E-19-1.29830E-18
 -1      2744 1.13012E-04-3.95684E-05-3.15214E-05-5.81421E-06 6.79633E-19-7.11748E-19
 -1      2745 1.12557E-04-4.10890E-05-3.06547E-05-9.02439E-07 1.12685E-18-7.22186E-20
 -1      2746 1.13980E-04-3.88452E-05-3.22435E-05-8.57766E-06 3.39238E-19-4.57053E-19
 -1      2747 1.13353E-04-3.68677E-05-3.27779E-05-1.02675E-05-3.11966E-19-1.01890E-19
 -1      2748 1.15571E-04-4.11069E-05-3.19062E-05-6.31998E-06 8.78606E-19 5.17479E-19
 -1      2749 1.12619E-04-3.41400E-05-3.37634E-05-1.19169E-05-7.68049E-19-3.29036E-20
 -1      2750 1.11081E-04-3.07127E-05-3.43904E-05-1.19133E-05-8.99973E-19-8.56794E-20
 -1      2751 1.15868E-04-3.68892E-05-3.38128E-05-1.13032E-05-3.06646E-19 7.40684E-19
 -1      2752 1.08970E-04-2.68468E-05-3.53797E-05-1.08399E-05-9.71110E-19 9.98378E-20
 -1      2753 1.07344E-04-2.35605E-05-3.58795E-05-8.42012E-06-1.65604E-18 5.95899E-19
 -1      2754 1.12982E-04-2.90220E-05-3.59855E-05-1.25182E-05-6.97803E-19 1.40349E-19
 -1      2755 1.05868E-04-2.11412E-05-3.64211E-05-4.19722E-06-2.02594E-18 7.15356E-19
 -1      2756 1.05401E-04-2.03214E-05-3.65344E-05-2.79861E-07-1.71633E-18 1.46999E-18
 -1      2757 1.09113E-04-2.11407E-05-3.77713E-05-7.04332E-06-1.45756E-18 1.59861E-18
 -1      2758 1.06040E-04-2.12543E-05-3.63390E-05 4.80646E-06-2.08092E-18 4.73958E-19
 -1      2759 1.07122E-04-2.35713E-05-3.60009E-05 8.10885E-06-1.70571E-18 1.30256E-19
 -1      2760 1.08066E-04-1.90623E-05-3.81975E-05 2.69888E-06-2.18257E-18 1.41559E-18
 -1      2761 1.09279E-04-2.70646E-05-3.51710E-05 1.09313E-05-1.56852E-18-3.44190E-20
 -1      2762 1.11039E-04-3.07478E-05-3.45666E-05 1.20875E-05-5.87048E-19-1.47751E-19
 -1      2763 1.10856E-04-2.45457E-05-3.70153E-05 1.07938E-05-2.02761E-18-2.78197E-20
 -1      2764 1.12541E-04-3.42686E-05-3.35238E-05 1.15275E-05 3.98866E-19-3.15692E-19
 -1      2765 1.13684E-04-3.70548E-05-3.29227E-05 1.05017E-05 1.22493E-18-3.19636E-19
 -1      2766 1.14864E-04-3.34684E-05-3.48842E-05 1.25031E-05-4.63942E-19-7.25470E-19
 -1      2767 1.13483E-04-3.87368E-05-3.20569E-05 8.05784E-06 1.08741E-18 6.04444E-20
 -1      2768 1.13523E-04-3.97840E-05-3.16099E-05 5.96858E-06 9.88054E-19-5.08482E-19
 -1      2769 1.16140E-04-3.96749E-05-3.27378E-05 8.85132E-06 1.09244E-18-2.46414E-19
 -1      2770 1.11978E-04-3.96556E-05-3.10439E-05 3.24189E-06 1.56346E-18-4.12171E-19
 -1      2771 1.11165E-04-3.92939E-05-3.07687E-05 1.11053E-06 1.85423E-18 5.74295E-20
 -1      2772 1.14238E-04-4.15336E-05-3.11607E-05 3.33509E-06 1.13472E-18 5.39450E-20
 -1      2773 1.09130E-04-3.81594E-05-3.04615E-05-9.98211E-07 1.15920E-18-5.02580E-19
 -1      2774 1.07930E-04-3.71065E-05-3.03079E-05-2.65624E-06 1.45653E-18-3.15947E-19
 -1      2775 1.10506E-04-4.00433E-05-3.02284E-05-1.52864E-06 1.05900E-18-3.76874E-19
 -1      2776 1.06024E-04-3.57086E-05-3.01665E-05-3.95763E-06 1.66563E-18-9.75213E-19
 -1      2777 1.04795E-04-3.45266E-05-3.00760E-05-5.02033E-06 4.84020E-19-1.19771E-18
 -1      2778 1.06490E-04-3.71175E-05-2.97709E-05-4.79944E-06 6.35932E-19-4.76597E-19
 -1      2779 1.03284E-04-3.32848E-05-3.00170E-05-5.64902E-06-5.63963E-20-1.27499E-18
 -1      2780 1.02205E-04-3.22632E-05-2.99468E-05-6.19047E-06 2.57670E-19-3.48197E-19
 -1      2781 1.03058E-04-3.41066E-05-2.95864E-05-6.56184E-06 9.91944E-19-8.55366E-19
 -1      2782 1.01116E-04-3.13259E-05-2.99169E-05-6.35167E-06 5.45375E-19-8.93860E-20
 -1      2783 1.00235E-04-3.05551E-05-2.98452E-05-6.50633E-06 9.03004E-19 8.65816E-19
 -1      2784 1.00472E-04-3.16467E-05-2.95231E-05-7.21365E-06 1.50100E-19-1.21774E-18
 -1      2785 9.94950E-05-2.99216E-05-2.98173E-05-6.37609E-06 8.00153E-19 1.32035E-19
 -1      2786 9.87988E-05-2.93891E-05-2.97373E-05-6.27492E-06 3.35179E-19 9.86847E-19
 -1      2787 9.86628E-05-2.98874E-05-2.94932E-05-7.14625E-06 4.61274E-19-6.37554E-19
 -1      2788 9.83121E-05-2.89990E-05-2.97017E-05-5.98094E-06 1.01481E-19 2.27504E-18
 -1      2789 9.77662E-05-2.86538E-05-2.96151E-05-5.72859E-06 8.92998E-20 2.14772E-18
 -1      2790 9.74535E-05-2.87492E-05-2.94563E-05-6.65545E-06 9.50146E-19-5.81753E-19
 -1      2791 9.74497E-05-2.84352E-05-2.95716E-05-5.35618E-06-6.65864E-19 2.53653E-18
 -1      2792 9.70192E-05-2.82208E-05-2.94837E-05-5.02709E-06 6.62970E-19 2.83988E-18
 -1      2793 9.66634E-05-2.80784E-05-2.94008E-05-5.94348E-06 2.63251E-19 1.55689E-18
 -1      2794 9.68099E-05-2.81096E-05-2.94361E-05-4.62921E-06 1.35284E-18 1.78387E-18
 -1      2795 9.64662E-05-2.79771E-05-2.93526E-05-4.27074E-06 1.61950E-18 1.23184E-18
 -1      2796 9.61468E-05-2.77210E-05-2.93299E-05-5.14045E-06-6.06568E-20 1.73134E-18
 -1      2797 9.63196E-05-2.79234E-05-2.93057E-05-3.87658E-06 1.42603E-18 3.70665E-20
 -1      2798 9.60404E-05-2.78355E-05-2.92313E-05-3.51431E-06 6.72871E-19-4.89510E-19
 -1      2799 9.57981E-05-2.75490E-05-2.92524E-05-4.32322E-06 3.84943E-19-5.76375E-19
 -1      2800 9.59260E-05-2.78040E-05-2.91892E-05-3.13808E-06 2.30140E-19-1.46198E-18
 -1      2801 9.56980E-05-2.77338E-05-2.91270E-05-2.78288E-06-5.14452E-19-2.31111E-18
 -1      2802 9.55437E-05-2.74684E-05-2.91777E-05-3.53052E-06-7.01918E-20-2.53173E-18
 -1      2803 1.36672E-04-5.30517E-05-3.63991E-05 3.93484E-06-4.34664E-19 2.56386E-18
 -1      2804 1.31714E-04-5.71674E-05-3.18584E-05 1.28903E-05 8.16169E-19 2.65852E-18
 -1      2805 9.45717E-05-2.78055E-05-2.86140E-05-5.35898E-07 6.52959E-19-1.00929E-19
 -1      2806 9.46481E-05-2.76245E-05-2.87061E-05-1.69980E-07 7.05030E-19-1.40073E-19
 -1      2807 9.46536E-05-2.83261E-05-2.84228E-05-1.51238E-06 4.23371E-19 1.71896E-19
 -1      2808 9.45583E-05-2.82727E-05-2.84053E-05-1.44533E-06 4.15909E-19 7.93723E-20
 -1      2809 9.48005E-05-2.83742E-05-2.84644E-05-1.63246E-06 6.07846E-19 3.36448E-19
 -1      2810 9.46776E-05-2.83412E-05-2.84293E-05-1.58108E-06 5.70316E-19 2.73395E-19
 -1      2811 9.49963E-05-2.83958E-05-2.85471E-05-1.61830E-06 4.59577E-19-3.55032E-19
 -1      2812 9.49864E-05-2.83862E-05-2.85380E-05-1.75604E-06 8.25733E-19 3.65836E-19
 -1      2813 9.48407E-05-2.83687E-05-2.84889E-05-1.69603E-06 7.69592E-19 2.92441E-19
 -1      2814 9.50643E-05-2.84098E-05-2.85694E-05-1.76856E-06 7.24352E-19-1.49680E-19
 -1      2815 9.52081E-05-2.83704E-05-2.86387E-05-1.92526E-06 8.87380E-19 1.05115E-19
 -1      2816 9.50399E-05-2.83644E-05-2.85771E-05-1.83754E-06 9.15734E-19 3.13391E-19
 -1      2817 9.51594E-05-2.83732E-05-2.86252E-05-1.92880E-06 8.77257E-19-3.21934E-19
 -1      2818 9.54673E-05-2.83330E-05-2.87646E-05-2.17425E-06 7.31693E-19 4.90606E-19
 -1      2819 9.52733E-05-2.83349E-05-2.86905E-05-2.04321E-06 7.23586E-19 3.55985E-19
 -1      2820 9.52777E-05-2.82959E-05-2.87088E-05-2.14275E-06 6.96357E-19-5.96904E-20
 -1      2821 9.57699E-05-2.82798E-05-2.89157E-05-2.53149E-06 2.16336E-19 2.98183E-19
 -1      2822 9.55441E-05-2.82858E-05-2.88281E-05-2.34404E-06 6.78612E-19 6.61345E-19
 -1      2823 9.54181E-05-2.81844E-05-2.88165E-05-2.44586E-06 5.62872E-19 7.17680E-19
 -1      2824 9.61252E-05-2.82179E-05-2.90929E-05-3.02059E-06 1.84882E-19 4.92938E-19
 -1      2825 9.58590E-05-2.82231E-05-2.89904E-05-2.76601E-06 1.11819E-19 5.37342E-19
 -1      2826 9.55814E-05-2.80445E-05-2.89463E-05-2.86737E-06 3.02947E-19 6.77370E-19
 -1      2827 9.65452E-05-2.81581E-05-2.92970E-05-3.65947E-06 4.32333E-19 6.35449E-19
 -1      2828 9.62284E-05-2.81553E-05-2.91782E-05-3.33020E-06 3.84895E-19 7.84415E-19
 -1      2829 9.57707E-05-2.78838E-05-2.90962E-05-3.43108E-06 1.12873E-19 8.52020E-19
 -1      2830 9.70466E-05-2.81190E-05-2.95271E-05-4.45737E-06 6.26225E-20 4.27718E-19
 -1      2831 9.66665E-05-2.80962E-05-2.93916E-05-4.05109E-06 2.23465E-19 4.78716E-19
 -1      2832 9.59921E-05-2.77148E-05-2.92633E-05-4.15440E-06 3.67178E-19 9.08584E-19
 -1      2833 9.76529E-05-2.81337E-05-2.97796E-05-5.40888E-06-2.87648E-19 6.01077E-19
 -1      2834 9.71938E-05-2.80713E-05-2.96285E-05-4.93239E-06-1.22246E-19 4.97088E-19
 -1      2835 9.62576E-05-2.75620E-05-2.94426E-05-5.04551E-06 7.65866E-22 2.91134E-19
 -1      2836 9.84021E-05-2.82617E-05-3.00456E-05-6.48363E-06-3.33852E-19-7.27885E-20
 -1      2837 9.78427E-05-2.81258E-05-2.98826E-05-5.95942E-06-1.75412E-19 3.46188E-19
 -1      2838 9.65912E-05-2.74708E-05-2.96251E-05-6.09806E-06-7.11674E-20 4.70706E-19
 -1      2839 9.93596E-05-2.86043E-05-3.03103E-05-7.61022E-06-3.65581E-19-1.35036E-19
 -1      2840 9.86682E-05-2.83395E-05-3.01429E-05-7.08637E-06-5.14698E-19-2.82029E-19
 -1      2841 9.70417E-05-2.75240E-05-2.97969E-05-7.28230E-06-2.21640E-19 5.18529E-20
 -1      2842 1.00639E-04-2.93244E-05-3.05534E-05-8.65258E-06 2.34821E-19-1.64123E-21
 -1      2843 9.97664E-05-2.88453E-05-3.03922E-05-8.21663E-06 1.82217E-19-1.44579E-19
 -1      2844 9.77040E-05-2.78626E-05-2.99397E-05-8.53127E-06-8.88315E-20-2.05728E-19
 -1      2845 1.02426E-04-3.06599E-05-3.07543E-05-9.37786E-06 7.60173E-20 3.52265E-20
 -1      2846 1.01301E-04-2.98486E-05-3.06107E-05-9.17340E-06 2.70879E-19-4.19028E-20
 -1      2847 9.87511E-05-2.87113E-05-3.00335E-05-9.71909E-06 2.93223E-19-1.77148E-19
 -1      2848 1.04991E-04-3.29008E-05-3.09072E-05-9.41561E-06-7.82978E-19 5.41170E-19
 -1      2849 1.03526E-04-3.16291E-05-3.07860E-05-9.65765E-06-5.47852E-19-4.24207E-20
 -1      2850 1.00475E-04-3.03916E-05-3.00685E-05-1.06256E-05-4.88227E-20-4.15887E-19
 -1      2851 1.08636E-04-3.62610E-05-3.10514E-05-8.22334E-06-1.03688E-18 1.69370E-19
 -1      2852 1.06780E-04-3.44774E-05-3.09358E-05-9.19312E-06-6.59044E-19 7.38873E-19
 -1      2853 1.03308E-04-3.32845E-05-3.00686E-05-1.08747E-05-1.07787E-18 3.91091E-20
 -1      2854 1.13498E-04-4.05161E-05-3.13311E-05-5.09089E-06-1.18104E-18 1.75397E-19
 -1      2855 1.11340E-04-3.84600E-05-3.11531E-05-7.07491E-06-9.28265E-19 3.02974E-19
 -1      2856 1.07768E-04-3.76493E-05-3.01391E-05-9.82591E-06-7.39926E-19-1.55450E-19
 -1      2857 1.19021E-04-4.44360E-05-3.20430E-05 3.55284E-07-1.73252E-18 8.46586E-19
 -1      2858 1.16965E-04-4.28661E-05-3.16710E-05-2.65068E-06-1.51939E-18 1.60840E-19
 -1      2859 1.13864E-04-4.29110E-05-3.05493E-05-6.47747E-06-1.59693E-18 5.29369E-19
 -1      2860 1.23765E-04-4.54463E-05-3.35501E-05 8.11405E-06-2.18595E-18 2.03275E-18
 -1      2861 1.22929E-04-4.59078E-05-3.28982E-05 4.59120E-06-1.85005E-18 1.30425E-18
 -1      2862 1.21599E-04-4.78269E-05-3.18507E-05-2.06466E-07-2.25546E-18 1.03993E-18
 -1      2863 1.27544E-04-4.08458E-05-3.73586E-05 1.35280E-05-1.13693E-18 1.29762E-18
 -1      2864 1.28718E-04-4.55500E-05-3.58463E-05 1.12826E-05-2.42781E-18 9.94920E-19
 -1      2865 1.23570E-04-2.72264E-05-4.16970E-05 1.41904E-05 1.11237E-18 1.74589E-18
 -1      2866 1.26698E-04-3.40855E-05-4.02268E-05 1.60048E-05 5.76406E-19 1.76342E-18
 -1      2867 1.16590E-04-1.68314E-05-4.32783E-05 3.14553E-06 2.51791E-18 1.56155E-18
 -1      2868 1.18114E-04-1.98441E-05-4.28634E-05 9.58612E-06 1.55769E-18 1.84559E-18
 -1      2869 1.23824E-04-2.15027E-05-4.43554E-05-1.17041E-05 2.23098E-18 1.76371E-18
 -1      2870 1.21612E-04-1.69309E-05-4.53195E-05-5.79786E-06 2.66000E-18 1.53686E-18
 -1      2871 1.25043E-04-4.38428E-05-3.49546E-05-1.18328E-05-2.04082E-19 1.73928E-18
 -1      2872 1.24037E-04-3.99692E-05-3.60769E-05-1.42315E-05-2.95085E-19 1.37109E-18
 -1      2873 1.22097E-04-4.57183E-05-3.27039E-05-3.65537E-06 2.11130E-19 2.13019E-18
 -1      2874 1.23073E-04-4.52734E-05-3.34119E-05-7.32629E-06-4.33492E-20 2.52651E-18
 -1      2875 1.26885E-04-4.75440E-05-3.40453E-05-7.51624E-06-3.20450E-19 1.23169E-18
 -1      2876 1.16395E-04-4.25098E-05-3.15765E-05 3.25934E-06 3.64955E-19 1.14255E-18
 -1      2877 1.18392E-04-4.40857E-05-3.19216E-05 2.58268E-07 9.12870E-19 2.32880E-18
 -1      2878 1.20634E-04-4.71115E-05-3.15741E-05 1.23794E-06 5.83089E-19 1.70834E-18
 -1      2879 1.10749E-04-3.80030E-05-3.11015E-05 7.51787E-06 8.69939E-19 1.18317E-18
 -1      2880 1.12887E-04-4.00650E-05-3.12698E-05 5.64124E-06 4.94244E-19 8.70643E-19
 -1      2881 1.13295E-04-4.24677E-05-3.04578E-05 7.18024E-06 1.08709E-18-7.57499E-20
 -1      2882 1.06317E-04-3.41196E-05-3.08946E-05 9.41499E-06 1.36665E-18 1.02030E-18
 -1      2883 1.08146E-04-3.58546E-05-3.10124E-05 8.52757E-06 1.23011E-18 1.00020E-18
 -1      2884 1.07161E-04-3.71139E-05-3.01052E-05 1.01458E-05 8.02887E-19 2.65922E-19
 -1      2885 1.03178E-04-3.13909E-05-3.07408E-05 9.76229E-06-9.69767E-19 2.51405E-18
 -1      2886 1.04613E-04-3.26131E-05-3.08664E-05 9.57337E-06 2.09773E-19 2.40157E-18
 -1      2887 1.02907E-04-3.29216E-05-3.00489E-05 1.10124E-05 2.16848E-19 1.18457E-18
 -1      2888 1.01027E-04-2.96981E-05-3.05594E-05 9.21902E-06-1.74272E-18 2.07422E-18
 -1      2889 1.02132E-04-3.04743E-05-3.07068E-05 9.45307E-06-1.29210E-18 2.35026E-18
 -1      2890 1.00211E-04-3.01719E-05-3.00474E-05 1.06829E-05-8.50664E-19 9.46484E-19
 -1      2891 9.95377E-05-2.87457E-05-3.03373E-05 8.23436E-06-4.00548E-19 1.03992E-18
 -1      2892 1.00397E-04-2.92058E-05-3.05003E-05 8.68602E-06-1.10500E-18 1.74526E-18
 -1      2893 9.85698E-05-2.85865E-05-3.00084E-05 9.73943E-06-1.04957E-18 1.17329E-18
 -1      2894 9.84636E-05-2.82578E-05-3.00900E-05 7.08729E-06 5.91837E-19-6.50130E-19
 -1      2895 9.91475E-05-2.85182E-05-3.02561E-05 7.62247E-06 3.33130E-19 1.68774E-19
 -1      2896 9.75685E-05-2.77880E-05-2.99134E-05 8.53454E-06 3.84312E-19 8.18583E-19
 -1      2897 9.76501E-05-2.80330E-05-2.98389E-05 5.93609E-06 2.13437E-18-2.41437E-18
 -1      2898 9.82041E-05-2.81777E-05-2.99968E-05 6.47663E-06 1.34018E-18-2.39670E-18
 -1      2899 9.69275E-05-2.74597E-05-2.97757E-05 7.27043E-06 1.99914E-18-1.62117E-18
 -1      2900 9.70063E-05-2.79400E-05-2.96028E-05 4.85973E-06 1.13338E-18-6.69025E-19
 -1      2901 9.74600E-05-2.80239E-05-2.97444E-05 5.36678E-06 1.20846E-18-1.42406E-18
 -1      2902 9.64820E-05-2.73811E-05-2.96170E-05 6.05627E-06 1.23230E-18-2.37860E-18
 -1      2903 9.64798E-05-2.78971E-05-2.93943E-05 3.88679E-06 2.61495E-18 4.91607E-20
 -1      2904 9.68524E-05-2.79550E-05-2.95149E-05 4.34693E-06 2.17845E-18 7.33829E-19
 -1      2905 9.61410E-05-2.74116E-05-2.94574E-05 4.94315E-06 1.17538E-18-1.03371E-18
 -1      2906 9.60428E-05-2.78570E-05-2.92202E-05 3.01370E-06 1.78655E-18 1.71828E-18
 -1      2907 9.63435E-05-2.79090E-05-2.93181E-05 3.42626E-06 2.24608E-18 1.90375E-18
 -1      2908 9.58496E-05-2.74635E-05-2.93110E-05 3.94619E-06 1.47937E-18 3.01618E-18
 -1      2909 9.56270E-05-2.77256E-05-2.90962E-05 2.34800E-06-3.97746E-19 3.78385E-18
 -1      2910 9.58681E-05-2.77759E-05-2.91721E-05 2.73573E-06 8.46358E-19 3.37970E-18
 -1      2911 9.55258E-05-2.74190E-05-2.91980E-05 3.17234E-06 5.18933E-19 4.41456E-18
 -1      2912 9.52300E-05-2.72890E-05-2.91274E-05 2.58087E-06-7.59235E-19 4.01235E-18
 -1      2913 9.28824E-05-1.80008E-05-3.20780E-05-8.83433E-06-1.56659E-18-2.37540E-18
 -1      2914 9.29986E-05-2.49465E-05-2.91700E-05 9.58408E-08 7.59216E-19 1.41138E-18
 -1      2915 9.30255E-05-2.49741E-05-2.91691E-05 5.33190E-07 9.81468E-19 1.69892E-18
 -1      2916 4.90736E-05-2.30897E-05-1.07291E-05 2.90264E-05-3.88481E-18-9.18819E-19
 -1      2917 3.79876E-05-1.58795E-05-8.82892E-06 1.75594E-05-3.23122E-18 4.02552E-19
 -1      2918 9.34476E-05-2.54074E-05-2.91689E-05 1.83713E-06 1.35235E-18 4.28381E-19
 -1      2919 9.36828E-05-2.56468E-05-2.91572E-05 2.13300E-06 5.22826E-19 3.99437E-19
 -1      2920 9.31139E-05-2.50728E-05-2.91624E-05-8.28661E-07 8.44464E-19 1.07794E-18
 -1      2921 9.30325E-05-2.49898E-05-2.91680E-05-4.07966E-07 4.78084E-19 1.83486E-18
 -1      2922 9.26989E-05-2.48071E-05-2.90883E-05-1.89652E-07 3.11409E-19 1.30354E-18
 -1      2923 9.31097E-05-2.50591E-05-2.91721E-05 1.02574E-06 6.04405E-19 1.00719E-18
 -1      2924 9.32471E-05-2.51979E-05-2.91650E-05 1.42137E-06 9.59232E-19 3.08004E-19
 -1      2925 9.30815E-05-2.51464E-05-2.91077E-05 1.80818E-06-3.76793E-20-8.21566E-21
 -1      2926 9.27569E-05-2.48487E-05-2.90950E-05 8.54438E-07 1.33444E-18 1.46120E-18
 -1      2927 9.55053E-05-2.76802E-05-2.90663E-05-2.29701E-06-1.49420E-18-2.12243E-18
 -1      2928 9.52515E-05-2.73988E-05-2.90791E-05-2.39481E-06-1.07721E-18-4.36822E-18
 -1      2929 9.56397E-05-2.77188E-05-2.91032E-05-2.53742E-06-7.96257E-19-2.64655E-18
 -1      2930 9.34255E-05-2.54072E-05-2.91495E-05-1.61924E-06-2.05333E-19-8.73162E-19
 -1      2931 9.32531E-05-2.52306E-05-2.91610E-05-1.27317E-06 4.97071E-19-3.45136E-19
 -1      2932 9.28994E-05-2.50128E-05-2.90871E-05-1.18144E-06 4.94496E-19-4.17430E-19
 -1      2933 9.39025E-05-2.59191E-05-2.91320E-05-2.20791E-06-4.70922E-21 1.38208E-18
 -1      2934 9.36547E-05-2.56627E-05-2.91485E-05-1.96691E-06-7.98108E-19-1.59112E-19
 -1      2935 9.33231E-05-2.54326E-05-2.90905E-05-2.00977E-06-9.76713E-19-1.11732E-18
 -1      2936 9.44823E-05-2.65492E-05-2.91113E-05-2.50769E-06 8.41862E-19 1.00992E-18
 -1      2937 9.41967E-05-2.62421E-05-2.91312E-05-2.41305E-06 6.93038E-19 2.10074E-18
 -1      2938 9.39191E-05-2.60181E-05-2.90975E-05-2.58637E-06-7.81312E-19 2.21414E-18
 -1      2939 9.49766E-05-2.70715E-05-2.91016E-05-2.45392E-06 1.42953E-19-2.89942E-18
 -1      2940 9.47243E-05-2.73813E-05-2.88635E-05 3.33864E-07 9.10836E-19-8.02762E-20
 -1      2941 9.48974E-05-2.70926E-05-2.90315E-05 9.53224E-07 1.24599E-18 8.95818E-20
 -1      2942 9.51390E-05-2.73358E-05-2.90686E-05 2.99130E-07 9.05668E-19-4.48764E-19
 -1      2943 1.14586E-04-5.78546E-05-2.46903E-05 2.91147E-05-1.16827E-18-4.64339E-18
 -1      2944 9.72029E-05-5.13732E-05-1.91008E-05 3.62390E-05-1.02682E-18-4.18507E-18
 -1      2945 9.44442E-05-2.14151E-05-3.13401E-05-7.64622E-06-1.67373E-18-1.97821E-18
 -1      2946 9.50097E-05-2.31765E-05-3.07395E-05-5.98096E-06-1.46133E-18-1.76646E-18
 -1      2947 9.50531E-05-2.43816E-05-3.03056E-05-4.45313E-06-1.24475E-18-1.69587E-18
 -1      2948 9.30811E-05-1.90347E-05-3.17306E-05-7.04804E-06-1.21037E-18-2.36124E-18
 -1      2949 9.46890E-05-2.18965E-05-3.12034E-05 7.84366E-06 2.33009E-18 3.30313E-19
 -1      2950 5.97695E-05-2.91904E-05-1.29368E-05 3.56028E-05 1.98237E-18 2.66042E-18
 -1      2951 4.59764E-05-2.07494E-05-1.01234E-05 2.70261E-05 1.49755E-18 1.75293E-18
 -1      2952 3.06479E-05-1.23649E-05-7.48565E-06 3.26523E-06-3.08710E-18 1.61233E-18
 -1      2953 3.11071E-05-1.35660E-05-6.99216E-06-1.16046E-05-1.94844E-18 3.28162E-18
 -1      2954 1.23155E-04-5.85749E-05-2.79185E-05 2.36943E-05 1.06027E-18 3.09850E-18
 -1      2955 1.08723E-04-5.45678E-05-2.29550E-05 3.12866E-05 1.21676E-18 2.77726E-18
 -1      2956 1.26613E-04-5.71070E-05-2.96762E-05 1.46988E-05 7.54759E-19 1.99381E-18
 -1      2957 3.52083E-05-1.39837E-05-8.70110E-06 1.45246E-05 1.61990E-18-7.25484E-19
 -1      2958 3.13901E-05-1.21482E-05-7.62249E-06-1.35589E-06 7.42318E-19-2.57074E-18
 -1      2959 9.45551E-05-2.82302E-05-2.84225E-05-1.34180E-06 4.22504E-19-3.41257E-20
 -1      2960 9.44980E-05-2.81494E-05-2.84290E-05-1.22674E-06 5.34275E-19-2.25425E-20
 -1      2961 9.49620E-05-2.83162E-05-2.85677E-05-1.42238E-06 4.04382E-19-1.26675E-19
 -1      2962 9.45209E-05-2.80677E-05-2.84785E-05-1.04902E-06 6.53014E-19-1.40871E-19
 -1      2963 9.45192E-05-2.79477E-05-2.85196E-05-8.41024E-07 6.99237E-19-5.51287E-20
 -1      2964 9.49706E-05-2.81463E-05-2.86459E-05-1.10800E-06 5.68906E-19-2.79427E-19
 -1      2965 9.49675E-05-2.66657E-05-2.92774E-05 1.75533E-06 1.53817E-18 1.26417E-19
 -1      2966 9.52307E-05-2.61722E-05-2.95594E-05 2.77321E-06 1.67561E-18 2.70675E-19
 -1      2967 9.52661E-05-2.50019E-05-3.01105E-05 3.80417E-06 1.92494E-18-2.48983E-19
 -1      2968 9.52539E-05-2.64715E-05-2.94853E-05 1.69498E-06 1.44961E-18-4.27811E-19
 -1      2969 3.38064E-05-1.47054E-05-7.75325E-06-1.39975E-05-7.46342E-19-4.50029E-18
 -1      2970 4.19021E-05-2.00501E-05-8.97869E-06-2.56256E-05-8.79220E-19-5.32276E-18
 -1      2971 9.12109E-05-1.60737E-05-3.22296E-05 4.90738E-06 1.92764E-18-2.03150E-18
 -1      2972 9.08728E-05-1.55738E-05-3.22928E-05 3.98558E-06 1.65119E-18-2.27400E-18
 -1      2973 9.18492E-05-1.71746E-05-3.19877E-05 3.18560E-06 1.46635E-18-2.16923E-18
 -1      2974 9.25115E-05-1.82402E-05-3.18103E-05 4.60084E-06 1.86495E-18-1.69825E-18
 -1      2975 3.75578E-05-1.81659E-05-7.77139E-06-2.29492E-05-8.31416E-19 4.79378E-18
 -1      2976 5.15275E-05-2.62433E-05-1.04848E-05-3.39172E-05 4.75927E-19 5.46802E-18
 -1      2977 4.27139E-05-1.56925E-05-1.09052E-05-1.67644E-05-1.64631E-18 3.18103E-18
 -1      2978 1.29025E-04-1.80886E-05-4.81069E-05 1.05786E-05-1.20660E-18-1.34678E-18
 -1      2979 1.27908E-04-1.23486E-05-5.02052E-05 7.15651E-06-1.53525E-18-1.16827E-18
 -1      2980 9.08388E-05-1.55242E-05-3.22994E-05-3.92011E-06-1.96860E-19-2.72787E-18
 -1      2981 9.11698E-05-1.60208E-05-3.22374E-05-4.84737E-06-4.87859E-19-2.81898E-18
 -1      2982 1.22533E-04-5.90393E-05-2.68729E-05-2.22623E-05-2.53962E-18-3.35944E-18
 -1      2983 1.31469E-04-6.00707E-05-3.11774E-05-1.38275E-05-2.32998E-18-3.22465E-18
 -1      2984 1.31583E-04-5.70389E-05-3.19935E-05-1.32233E-05-2.98844E-20-4.55598E-19
 -1      2985 1.37966E-04-5.18036E-05-3.73115E-05-3.44016E-06 1.78823E-19-4.57504E-19
 -1      2986 9.13877E-05-4.80980E-05-1.80528E-05-3.67794E-05-2.49938E-18-4.19925E-18
 -1      2987 1.08069E-04-5.53750E-05-2.27864E-05-3.21994E-05-2.56566E-18-3.55545E-18
 -1      2988 9.47914E-05-4.85773E-05-1.97546E-05 3.74088E-05 1.74330E-18 2.25030E-18
 -1      2989 7.96523E-05-3.96932E-05-1.65647E-05 3.73298E-05 2.26756E-18 2.06141E-18
 -1      2990 5.52680E-05-2.87238E-05-1.08602E-05-3.34421E-05-1.34149E-18-4.68907E-18
 -1      2991 7.32782E-05-3.93277E-05-1.44436E-05-3.91099E-05-1.95813E-18-4.61506E-18
 -1      2992 8.60305E-05-4.24828E-05-1.82184E-05-3.47171E-05-2.29292E-18-3.90186E-18
 -1      2993 1.33850E-04-1.46438E-05-5.16264E-05-7.84422E-06-3.04635E-18 3.97417E-19
 -1      2994 1.33963E-04-2.30628E-05-4.79569E-05-1.05034E-05-2.00069E-18 1.00723E-18
 -1      2995 1.36183E-04-3.52098E-05-4.38716E-05-9.76697E-06-8.55927E-19 1.23815E-18
 -1      2996 1.37839E-04-4.43061E-05-4.02384E-05-5.19742E-06-8.06217E-19 1.96215E-18
 -1      2997 1.36555E-04-5.84986E-05-3.40403E-05 7.44571E-06 3.07579E-19-4.24544E-18
 -1      2998 1.29907E-04-5.99655E-05-2.95597E-05 1.62773E-05 2.37381E-19-4.12876E-18
 -1      2999 1.39894E-04-4.21225E-05-4.25208E-05-1.11469E-05 7.89752E-19-7.61906E-19
 -1      3000 1.40170E-04-5.15265E-05-3.80367E-05-4.32340E-06 5.32651E-19-2.22590E-18
 -1      3001 9.16043E-05-1.66796E-05-3.21333E-05-5.56659E-06-6.47095E-19-2.86260E-18
 -1      3002 9.20766E-05-1.74552E-05-3.20386E-05-6.45712E-06-9.88423E-19-2.75536E-18
 -1      3003 9.24776E-05-1.81763E-05-3.18164E-05-4.51303E-06-5.75003E-19-2.59051E-18
 -1      3004 9.13209E-05-1.63503E-05-3.21172E-05 2.03313E-08 7.67945E-19-2.37318E-18
 -1      3005 9.02085E-05-1.45740E-05-3.24329E-05-3.79840E-07 7.35844E-19-2.54737E-18
 -1      3006 9.02645E-05-1.46615E-05-3.24227E-05-1.33632E-06 4.95569E-19-2.62179E-18
 -1      3007 4.08135E-05-1.32622E-05-1.11539E-05-6.86135E-06 7.40505E-19-2.97732E-18
 -1      3008 9.99731E-05-5.12734E-05-2.06570E-05-3.52015E-05 1.14805E-18-2.64698E-22
 -1      3009 1.38123E-04-4.19308E-05-4.13593E-05 1.33883E-05-7.44118E-19 1.76395E-19
 -1      3010 1.37100E-04-3.43617E-05-4.45319E-05-1.51296E-05 1.81530E-18-2.04241E-19
 -1      3011 1.34005E-04-4.01725E-05-4.04780E-05-1.38164E-05 1.56484E-18 1.67808E-18
 -1      3012 1.37153E-04-4.67482E-05-3.88996E-05 3.84376E-06 8.55239E-20-1.22608E-19
 -1      3013 1.32869E-04-4.07638E-05-3.99538E-05 1.00818E-05 7.00232E-19 9.80017E-19
 -1      3014 1.33192E-04-5.02203E-05-3.56901E-05 1.57220E-06 3.42254E-19 4.00435E-19
 -1      3015 6.09092E-05-2.58448E-05-1.45899E-05-3.08030E-05 1.00305E-18 3.10723E-18
 -1      3016 6.45632E-05-3.18339E-05-1.35146E-05-3.60361E-05 1.72043E-18 3.87846E-18
 -1      3017 7.73836E-05-3.68389E-05-1.71712E-05-3.52632E-05 2.09688E-18 1.74118E-18
 -1      3018 1.36023E-04-5.38501E-05-3.52366E-05-1.80832E-06 6.43963E-19-9.36713E-19
 -1      3019 1.32204E-04-2.95805E-05-4.44254E-05-1.26334E-05-1.06176E-18 7.37342E-19
 -1      3020 1.29119E-04-3.40077E-05-4.07916E-05-1.26658E-05-8.92455E-19-5.13143E-19
 -1      3021 1.25251E-04-2.31754E-05-4.43938E-05-1.29899E-05-1.88846E-18-1.59666E-19
 -1      3022 9.12247E-05-4.66981E-05-1.86931E-05 3.59907E-05-2.13738E-18-4.09768E-18
 -1      3023 9.53738E-05-2.74304E-05-2.91217E-05-2.89097E-06-7.97469E-19-4.26550E-18
 -1      3024 1.34279E-04-4.88106E-05-3.67813E-05-2.93946E-06-8.90338E-19 4.64174E-19
 -1      3025 5.62203E-05-2.44487E-05-1.30094E-05-2.79634E-05-9.50583E-19-4.70527E-18
 -1      3026 1.05582E-04-5.11033E-05-2.30883E-05 2.94145E-05 1.18172E-18 2.01265E-18
 -1      3027 9.50299E-05-2.78441E-05-2.88027E-05-5.77863E-07 7.06363E-19-5.30858E-19
 -1      3028 1.23004E-04-3.45907E-05-3.82036E-05-1.60512E-05 3.20337E-19 2.29632E-18
 -1      3029 1.19902E-04-2.86845E-05-3.91857E-05-1.42725E-05 2.05803E-18 2.85633E-18
 -1      3030 5.85669E-05-2.75075E-05-1.27172E-05 3.15510E-05-3.59693E-18-1.28209E-18
 -1      3031 5.71160E-05-2.24111E-05-1.45605E-05 2.61306E-05-3.12306E-18-1.26790E-18
 -1      3032 6.89953E-05-3.25945E-05-1.54742E-05 3.34632E-05-3.48787E-18-2.71093E-18
 -1      3033 9.48621E-05-2.68857E-05-2.91295E-05 2.61492E-06 1.07007E-19 9.21142E-19
 -1      3034 9.49827E-05-2.69359E-05-2.91537E-05 2.92590E-06-9.88321E-19 2.31220E-18
 -1      3035 9.45308E-05-2.65372E-05-2.91496E-05 2.62743E-06 3.09211E-20-5.53179E-19
 -1      3036 4.18118E-05-1.40758E-05-1.12660E-05 9.34068E-06-3.28855E-18 9.13949E-19
 -1      3037 1.28085E-04-5.88791E-05-2.96992E-05-1.79714E-05-4.11393E-19-6.69580E-19
 -1      3038 1.30511E-04-5.60103E-05-3.20122E-05-8.88340E-06-4.24377E-20 3.91753E-20
 -1      3039 1.21171E-04-5.72359E-05-2.72477E-05-2.19333E-05-2.04664E-19-3.73568E-19
 -1      3040 9.50536E-05-2.71423E-05-2.91057E-05-2.84444E-06-9.58265E-19-3.47507E-18
 -1      3041 9.47180E-05-2.68010E-05-2.91097E-05-2.64951E-06-1.58773E-19-1.47578E-18
 -1      3042 9.45340E-05-2.66141E-05-2.91051E-05-2.92112E-06-2.53266E-19-2.88724E-19
 -1      3043 9.51254E-05-2.71528E-05-2.91259E-05-3.10130E-06-9.24318E-19-3.14300E-18
 -1      3044 1.15218E-04-5.56547E-05-2.53220E-05-2.46709E-05-3.23238E-18-3.10637E-18
 -1      3045 1.20941E-04-5.76041E-05-2.70102E-05 2.08681E-05-2.33781E-19-3.41455E-18
 -1      3046 1.30836E-04-2.44771E-05-4.60370E-05-1.44542E-05 1.91673E-18 1.99677E-18
 -1      3047 9.50412E-05-2.40428E-05-3.04313E-05-4.12891E-06-1.14237E-18-1.72232E-18
 -1      3048 7.39244E-05-3.39608E-05-1.67867E-05 3.35936E-05 2.00440E-18 2.11615E-18
 -1      3049 1.19837E-04-1.36013E-05-4.58747E-05 6.90392E-06-1.71672E-18-2.28912E-18
 -1      3050 1.25211E-04-1.09714E-05-4.94458E-05 4.66123E-06-2.05829E-18-1.71199E-18
 -1      3051 1.20511E-04-9.77410E-06-4.81227E-05 1.14948E-06-2.60060E-18-2.07648E-18
 -1      3052 1.34860E-04-5.64497E-05-3.34721E-05-2.86391E-06-2.33193E-18-1.09543E-18
 -1      3053 1.27109E-04-1.26267E-05-4.95466E-05-6.93906E-06-3.00210E-18-5.55018E-19
 -1      3054 9.39365E-05-2.59121E-05-2.91627E-05 2.36637E-06 5.21692E-19-1.33961E-18
 -1      3055 9.42334E-05-2.62200E-05-2.91471E-05 2.52102E-06 1.92147E-19-2.18463E-18
 -1      3056 9.42345E-05-2.62171E-05-2.91429E-05 2.84083E-06 3.13142E-19-1.08772E-18
 -1      3057 9.36089E-05-2.56320E-05-2.91259E-05 2.48577E-06 1.46341E-18 2.77280E-19
 -1      3058 9.03916E-05-1.48475E-05-3.23947E-05-2.16464E-06 2.65527E-19-2.58554E-18
 -1      3059 9.05757E-05-1.51236E-05-3.23610E-05-3.11740E-06-3.98008E-20-2.64085E-18
 -1      3060 9.18284E-05-1.71376E-05-3.19903E-05-3.11086E-06-1.50085E-19-2.48347E-18
 -1      3061 9.14432E-05-1.65358E-05-3.20868E-05-1.57638E-06 2.94733E-19-2.40701E-18
 -1      3062 1.29779E-04-3.00450E-05-4.31208E-05 1.23129E-05-8.84514E-19-8.99602E-19
 -1      3063 1.30361E-04-2.42722E-05-4.60193E-05 1.20477E-05-1.32338E-18-1.15196E-18
 -1      3064 1.23219E-04-1.96111E-05-4.47445E-05 1.23062E-05-1.05731E-18-6.54598E-19
 -1      3065 9.43495E-05-2.14134E-05-3.12628E-05 7.21225E-06 2.33365E-18-3.18683E-19
 -1      3066 9.46150E-05-2.24518E-05-3.09197E-05 5.68164E-06 2.19410E-18-5.70488E-19
 -1      3067 1.28132E-04-3.93447E-05-3.81710E-05-1.48206E-05 8.65138E-19 1.97774E-18
 -1      3068 9.42882E-05-2.18297E-05-3.10751E-05 4.95236E-06 2.00294E-18-9.74531E-19
 -1      3069 9.38346E-05-2.08854E-05-3.12651E-05 4.60361E-06 1.89352E-18-1.33777E-18
 -1      3070 9.51123E-05-4.68112E-05-2.04485E-05-3.39832E-05 1.67326E-18 5.70477E-19
 -1      3071 1.09131E-04-5.38001E-05-2.36899E-05-3.02033E-05 8.02775E-19 1.47595E-19
 -1      3072 9.56845E-05-2.68139E-05-2.95081E-05-6.63352E-07-8.06621E-19-1.52375E-18
 -1      3073 9.56646E-05-2.72364E-05-2.93332E-05-1.03879E-07-7.80779E-19-1.53388E-18
 -1      3074 9.57024E-05-2.76039E-05-2.91750E-05 3.02735E-07-7.35092E-19-1.47125E-18
 -1      3075 9.56702E-05-2.78691E-05-2.90613E-05 6.54683E-07-7.86471E-19-1.59890E-18
 -1      3076 9.58978E-05-2.72141E-05-2.94395E-05-2.99346E-08-8.09110E-19-1.65126E-18
 -1      3077 9.56532E-05-2.80791E-05-2.89532E-05 9.18724E-07-6.62410E-19-1.43792E-18
 -1      3078 9.56257E-05-2.82325E-05-2.88838E-05 1.13750E-06-5.01305E-19-1.44780E-18
 -1      3079 9.59196E-05-2.78774E-05-2.91648E-05 6.78128E-07-6.16508E-19-1.35494E-18
 -1      3080 9.55806E-05-2.83372E-05-2.88145E-05 1.30493E-06-3.53002E-19-1.29652E-18
 -1      3081 9.55638E-05-2.84130E-05-2.87780E-05 1.44325E-06-7.13397E-20-1.29092E-18
 -1      3082 9.58634E-05-2.82536E-05-2.89791E-05 1.13804E-06-3.46130E-19-1.15853E-18
 -1      3083 9.55040E-05-2.84434E-05-2.87385E-05 1.55522E-06 2.00041E-19-1.19799E-18
 -1      3084 9.54980E-05-2.84634E-05-2.87269E-05 1.65322E-06 8.26194E-20-1.09993E-18
 -1      3085 9.57638E-05-2.84246E-05-2.88626E-05 1.44010E-06 7.28190E-20-1.23282E-18
 -1      3086 9.54297E-05-2.84399E-05-2.87100E-05 1.74259E-06-8.83090E-20-1.02565E-18
 -1      3087 9.54333E-05-2.84188E-05-2.87172E-05 1.83081E-06-1.04234E-19-8.47680E-19
 -1      3088 9.56399E-05-2.84472E-05-2.87992E-05 1.65903E-06 1.20048E-19-1.33857E-18
 -1      3089 9.53591E-05-2.83551E-05-2.87176E-05 1.92334E-06-3.73120E-19-4.94884E-19
 -1      3090 9.53716E-05-2.83038E-05-2.87392E-05 2.02496E-06-3.24295E-19-5.35295E-19
 -1      3091 9.55007E-05-2.83600E-05-2.87764E-05 1.85443E-06-5.12761E-20-9.05901E-19
 -1      3092 9.52923E-05-2.82097E-05-2.87525E-05 2.14070E-06-3.33839E-19-2.18039E-19
 -1      3093 9.53138E-05-2.81370E-05-2.87852E-05 2.27316E-06-2.85170E-19-3.17589E-19
 -1      3094 9.53498E-05-2.81902E-05-2.87839E-05 2.07297E-06-3.62882E-19-1.39781E-19
 -1      3095 9.52298E-05-2.80210E-05-2.88075E-05 2.42757E-06-4.75175E-19-5.60366E-19
 -1      3096 9.52620E-05-2.79355E-05-2.88487E-05 2.60348E-06-4.12200E-19-7.71609E-19
 -1      3097 9.51883E-05-2.79592E-05-2.88131E-05 2.35085E-06-4.04982E-19-3.38880E-19
 -1      3098 9.51745E-05-2.78066E-05-2.88764E-05 2.80809E-06-4.14985E-19-7.89815E-19
 -1      3099 9.52215E-05-2.77190E-05-2.89235E-05 3.03545E-06-4.65378E-19-9.95606E-19
 -1      3100 9.50181E-05-2.76870E-05-2.88564E-05 2.71567E-06-5.83507E-19-1.25211E-18
 -1      3101 9.51346E-05-2.75891E-05-2.89529E-05 3.29799E-06-3.21192E-19-1.30859E-18
 -1      3102 9.52038E-05-2.75142E-05-2.90031E-05 3.57970E-06-5.91426E-19-8.01775E-19
 -1      3103 9.48442E-05-2.73972E-05-2.89059E-05 3.18735E-06-6.38244E-19-1.03594E-18
 -1      3104 9.51263E-05-2.74008E-05-2.90301E-05 3.90378E-06-9.83317E-19-7.44475E-19
 -1      3105 9.52308E-05-2.73605E-05-2.90799E-05 4.23641E-06-1.20045E-18-9.66824E-19
 -1      3106 9.46791E-05-2.71222E-05-2.89531E-05 3.77811E-06-8.09818E-19-1.21079E-18
 -1      3107 9.51799E-05-2.72907E-05-2.90997E-05 4.62058E-06-1.24538E-18-7.38633E-19
 -1      3108 9.53413E-05-2.73176E-05-2.91451E-05 4.99233E-06-1.26475E-18-9.00779E-19
 -1      3109 9.45480E-05-2.69103E-05-2.89884E-05 4.49174E-06-1.16963E-18-1.28181E-18
 -1      3110 9.53479E-05-2.73321E-05-2.91522E-05 5.42832E-06-1.28631E-18-1.10263E-18
 -1      3111 9.56004E-05-2.74736E-05-2.91887E-05 5.81586E-06-1.29512E-18-1.45928E-18
 -1      3112 9.44974E-05-2.68343E-05-2.90010E-05 5.32164E-06-1.43290E-18-8.65674E-19
 -1      3113 9.57158E-05-2.76312E-05-2.91783E-05 6.28545E-06-7.82424E-19-1.26231E-18
 -1      3114 9.61114E-05-2.79527E-05-2.92018E-05 6.64948E-06-6.64014E-19-9.61435E-19
 -1      3115 9.46070E-05-2.70009E-05-2.89800E-05 6.24702E-06-9.64938E-19-7.00080E-19
 -1      3116 9.64160E-05-2.83340E-05-2.91712E-05 7.11892E-06-7.68133E-19-4.18491E-19
 -1      3117 9.70286E-05-2.89188E-05-2.91809E-05 7.39773E-06-2.13727E-19-5.82121E-19
 -1      3118 9.50049E-05-2.75599E-05-2.89171E-05 7.22583E-06-4.28048E-19-3.30441E-19
 -1      3119 9.76405E-05-2.96237E-05-2.91335E-05 7.80693E-06-5.43621E-20-3.46550E-19
 -1      3120 9.85639E-05-3.05629E-05-2.91358E-05 7.90696E-06 5.98520E-19-6.98900E-19
 -1      3121 9.58851E-05-2.87085E-05-2.88123E-05 8.18048E-06-5.13816E-20 2.93576E-19
 -1      3122 9.96412E-05-3.16961E-05-2.90876E-05 8.14925E-06 1.02185E-18-6.00547E-19
 -1      3123 1.00971E-04-3.30563E-05-2.91036E-05 7.93208E-06 6.69690E-19-2.40181E-19
 -1      3124 9.75208E-05-3.06778E-05-2.86845E-05 8.96852E-06 8.76351E-19 2.91169E-19
 -1      3125 1.02696E-04-3.46811E-05-2.90955E-05 7.81743E-06-7.02024E-20 1.86438E-19
 -1      3126 1.04472E-04-3.64262E-05-2.91726E-05 7.09217E-06 1.57358E-19 1.29733E-19
 -1      3127 1.00257E-04-3.36781E-05-2.85903E-05 9.32741E-06 7.95356E-19 2.79498E-19
 -1      3128 1.06973E-04-3.84518E-05-2.92911E-05 6.29082E-06 1.60758E-19 3.39209E-19
 -1      3129 1.09052E-04-4.02709E-05-2.95117E-05 4.83632E-06 4.76272E-19 5.38968E-19
 -1      3130 1.04440E-04-3.77395E-05-2.86600E-05 8.75465E-06 2.81311E-19 8.62007E-19
 -1      3131 1.12197E-04-4.22345E-05-2.98966E-05 2.94351E-06 1.14385E-18 1.32538E-19
 -1      3132 1.14129E-04-4.34058E-05-3.03747E-05 6.66667E-07 1.41438E-18 2.36774E-19
 -1      3133 1.10127E-04-4.23371E-05-2.91352E-05 6.49092E-06 8.08035E-19 5.55177E-19
 -1      3134 1.17210E-04-4.42387E-05-3.12239E-05-2.57954E-06 1.00076E-18-8.72973E-20
 -1      3135 1.18142E-04-4.35020E-05-3.20721E-05-5.28587E-06 3.11093E-19 4.28343E-19
 -1      3136 1.16503E-04-4.58667E-05-3.03756E-05 1.75489E-06 7.33947E-19-5.51435E-19
 -1      3137 1.19969E-04-4.17919E-05-3.35494E-05-9.36495E-06-3.07804E-19-2.43853E-21
 -1      3138 1.18832E-04-3.79749E-05-3.46965E-05-1.12489E-05-2.75643E-19 2.04241E-19
 -1      3139 1.21772E-04-4.53721E-05-3.28753E-05-5.46770E-06-9.34648E-20-5.13884E-19
 -1      3140 1.19313E-04-3.18733E-05-3.77082E-05-1.35672E-05-7.60265E-19-2.38043E-19
 -1      3141 1.16628E-04-2.54962E-05-3.91806E-05-1.29975E-05-8.43380E-19-1.00585E-21
 -1      3142 1.11136E-04-1.46209E-05-4.16786E-05 5.80904E-07-2.94471E-18 9.91773E-20
 -1      3143 1.11551E-04-1.60553E-05-4.13221E-05 5.70247E-06-3.21216E-18-1.00476E-18
 -1      3144 1.15317E-04-2.15424E-05-4.03939E-05 1.08034E-05-1.96035E-18-2.08675E-19
 -1      3145 1.17961E-04-2.73391E-05-3.91518E-05 1.31980E-05-1.55449E-18-1.50825E-19
 -1      3146 1.18848E-04-4.13500E-05-3.32724E-05 8.61938E-06 1.17990E-18-7.92705E-19
 -1      3147 1.18789E-04-4.35861E-05-3.22212E-05 5.98521E-06 1.22490E-18-5.91950E-19
 -1      3148 1.16244E-04-4.38400E-05-3.11025E-05 2.19950E-06 1.06431E-18-3.48256E-19
 -1      3149 1.14683E-04-4.34553E-05-3.04581E-05-3.98823E-07 1.23810E-18-3.11477E-19
 -1      3150 1.19232E-04-4.58787E-05-3.15101E-05 2.10354E-06 1.59329E-18-8.83088E-19
 -1      3151 1.11537E-04-4.19324E-05-2.98823E-05-2.94706E-06 7.79700E-19-1.32931E-19
 -1      3152 1.09465E-04-4.03215E-05-2.95535E-05-4.81905E-06 5.17143E-19-2.35414E-19
 -1      3153 1.13235E-04-4.41053E-05-2.97164E-05-4.04846E-06 1.02463E-18-3.05008E-19
 -1      3154 1.06659E-04-3.82913E-05-2.93275E-05-6.14746E-06 4.55561E-20-3.66886E-19
 -1      3155 1.04722E-04-3.64575E-05-2.91946E-05-7.20825E-06 7.90479E-19-7.87042E-19
 -1      3156 1.07248E-04-3.99449E-05-2.89218E-05-7.60159E-06 6.06944E-20-3.08813E-19
 -1      3157 1.02648E-04-3.46471E-05-2.91513E-05-7.66204E-06 8.12339E-19-7.18434E-19
 -1      3158 1.01113E-04-3.30881E-05-2.91136E-05-8.10599E-06 2.96321E-19-1.19373E-18
 -1      3159 1.02400E-04-3.56151E-05-2.86855E-05-9.01443E-06 3.49947E-19-7.45672E-19
 -1      3160 9.97439E-05-3.17347E-05-2.91451E-05-8.05448E-06 5.52055E-19-1.37499E-18
 -1      3161 9.86388E-05-3.05905E-05-2.91409E-05-8.09224E-06 1.99973E-19-1.70475E-18
 -1      3162 9.90171E-05-3.21329E-05-2.87089E-05-9.14961E-06 2.67783E-19-1.34622E-18
 -1      3163 9.78152E-05-2.96914E-05-2.91899E-05-7.77791E-06-3.39630E-20-6.62301E-19
 -1      3164 9.70644E-05-2.89337E-05-2.91878E-05-7.57142E-06 7.51910E-19-9.21808E-19
 -1      3165 9.68760E-05-2.96905E-05-2.88212E-05-8.61454E-06 4.59205E-19-1.01598E-18
 -1      3166 9.66157E-05-2.83986E-05-2.92285E-05-7.13706E-06 1.17532E-18-2.42717E-19
 -1      3167 9.61221E-05-2.79410E-05-2.92167E-05-6.79732E-06 1.01657E-18-1.58653E-19
 -1      3168 9.56379E-05-2.81518E-05-2.89383E-05-7.76717E-06 1.16868E-18-3.62810E-20
 -1      3169 9.59110E-05-2.76641E-05-2.92412E-05-6.32287E-06 1.16384E-20 1.72174E-19
 -1      3170 9.55901E-05-2.74148E-05-2.92184E-05-5.92231E-06-1.13099E-19 4.03710E-19
 -1      3171 9.49972E-05-2.72879E-05-2.90265E-05-6.80389E-06 8.52631E-19 1.02998E-19
 -1      3172 9.55174E-05-2.73031E-05-2.92278E-05-5.45166E-06-4.08852E-19 1.75423E-19
 -1      3173 9.53056E-05-2.71835E-05-2.91978E-05-5.03539E-06 2.57140E-19-8.35975E-21
 -1      3174 9.47219E-05-2.68787E-05-2.90794E-05-5.82964E-06-2.93313E-19-5.17481E-19
 -1      3175 9.53027E-05-2.71627E-05-2.91967E-05-4.59081E-06-3.78037E-19-9.58297E-19
 -1      3176 9.51593E-05-2.71144E-05-2.91648E-05-4.18252E-06-8.02862E-19-1.97281E-18
 -1      3177 9.46494E-05-2.67426E-05-2.91035E-05-4.89887E-06-9.52020E-19-1.12678E-18
 -1      3178 9.52043E-05-2.71463E-05-2.91621E-05-3.82357E-06-5.53581E-19-1.59149E-18
 -1      3179 9.50956E-05-2.71243E-05-2.91320E-05-3.43088E-06-4.65824E-19-1.77134E-18
 -1      3180 9.47637E-05-2.68398E-05-2.91132E-05-3.38413E-06-9.93317E-19-1.50114E-18
 -1      3181 9.46935E-05-2.67664E-05-2.91128E-05-4.08515E-06-1.29404E-18-8.83783E-19
 -1      3182 1.08185E-04-5.07193E-05-2.41132E-05-2.56078E-05-2.88743E-18-3.14706E-18
 -1      3183 1.19330E-04-5.57020E-05-2.76524E-05-1.78515E-05-2.85544E-18-2.56498E-18
 -1      3184 9.52976E-05-2.84385E-05-2.86512E-05-1.64554E-06 4.70991E-19-5.21141E-19
 -1      3185 9.52738E-05-2.84093E-05-2.86541E-05-1.55304E-06 2.75064E-19-4.27785E-19
 -1      3186 9.53219E-05-2.81878E-05-2.87663E-05-2.24644E-06 3.55660E-19 9.60778E-20
 -1      3187 9.52587E-05-2.82480E-05-2.87218E-05-2.11442E-06 6.73200E-19-1.77557E-19
 -1      3188 9.53443E-05-2.79981E-05-2.88562E-05-2.58558E-06 2.69584E-19 5.13843E-19
 -1      3189 9.52700E-05-2.80782E-05-2.88005E-05-2.40238E-06 2.32828E-19 3.07125E-19
 -1      3190 9.52316E-05-2.80168E-05-2.88071E-05-2.36810E-06 1.23591E-19-4.63097E-20
 -1      3191 9.53685E-05-2.77673E-05-2.89646E-05-3.04647E-06 2.65430E-19 6.47811E-19
 -1      3192 9.52823E-05-2.78635E-05-2.88990E-05-2.79882E-06 5.03646E-19 7.74026E-19
 -1      3193 9.51191E-05-2.77401E-05-2.88767E-05-2.74472E-06 2.73265E-19 5.09875E-19
 -1      3194 9.53922E-05-2.75032E-05-2.90870E-05-3.65164E-06 1.63971E-19 4.38954E-19
 -1      3195 9.52922E-05-2.76102E-05-2.90129E-05-3.32928E-06 1.15811E-19 5.43630E-19
 -1      3196 9.49823E-05-2.74090E-05-2.89592E-05-3.24608E-06 2.63310E-19 6.31530E-19
 -1      3197 9.54161E-05-2.72206E-05-2.92174E-05-4.41725E-06 2.30821E-19 4.64846E-19
 -1      3198 9.52983E-05-2.73288E-05-2.91372E-05-4.01373E-06 4.88475E-20 4.75860E-19
 -1      3199 9.48138E-05-2.70332E-05-2.90472E-05-3.89379E-06 1.60647E-20 1.81325E-19
 -1      3200 9.54475E-05-2.69479E-05-2.93467E-05-5.35105E-06-1.83736E-19 3.82148E-19
 -1      3201 9.53035E-05-2.70397E-05-2.92643E-05-4.86546E-06 1.71679E-19 5.25557E-19
 -1      3202 9.46090E-05-2.66308E-05-2.91310E-05-4.70386E-06 1.36799E-19 5.48274E-19
 -1      3203 9.55098E-05-2.67396E-05-2.94615E-05-6.44887E-06-1.36438E-19 1.68132E-19
 -1      3204 9.53223E-05-2.67827E-05-2.93832E-05-5.88871E-06-3.60134E-20 3.44239E-19
 -1      3205 9.43722E-05-2.62379E-05-2.91972E-05-5.68626E-06-1.09951E-19 3.00191E-19
 -1      3206 9.56582E-05-2.66938E-05-2.95431E-05-7.68896E-06-3.81882E-19-8.26228E-20
 -1      3207 9.53924E-05-2.66316E-05-2.94777E-05-7.07462E-06-2.09715E-19-8.94656E-20
 -1      3208 9.41275E-05-2.59228E-05-2.92274E-05-6.84424E-06-8.43271E-20-3.01849E-19
 -1      3209 9.60077E-05-2.69783E-05-2.95687E-05-9.02363E-06 1.45335E-19-5.09718E-19
 -1      3210 9.55971E-05-2.67167E-05-2.95268E-05-8.39498E-06-1.89202E-19-2.62295E-19
 -1      3211 9.39391E-05-2.58073E-05-2.91983E-05-8.17351E-06 2.15634E-20-7.29470E-19
 -1      3212 9.67744E-05-2.78598E-05-2.95162E-05-1.03648E-05 5.63542E-20-2.57189E-19
 -1      3213 9.61008E-05-2.72529E-05-2.95072E-05-9.79161E-06 2.63277E-19-2.43594E-19
 -1      3214 9.39446E-05-2.60959E-05-2.90831E-05-9.66049E-06 2.32424E-20-5.19620E-19
 -1      3215 9.83277E-05-2.97268E-05-2.93788E-05-1.15553E-05-1.63381E-19-3.14873E-19
 -1      3216 9.72010E-05-2.85697E-05-2.94023E-05-1.11547E-05-3.35872E-20-2.40607E-19
 -1      3217 9.44064E-05-2.71116E-05-2.88595E-05-1.12742E-05-1.29982E-19-7.81596E-19
 -1      3218 1.01233E-04-3.30570E-05-2.91951E-05-1.22939E-05-1.29218E-18-4.23019E-19
 -1      3219 9.93893E-05-3.11200E-05-2.92244E-05-1.22693E-05-7.27212E-19-3.51790E-19
 -1      3220 9.57858E-05-2.93277E-05-2.85288E-05-1.29315E-05-6.33281E-19-3.48376E-19
 -1      3221 1.06199E-04-3.82587E-05-2.91018E-05-1.20050E-05-7.84680E-19-8.54871E-19
 -1      3222 1.03384E-04-3.54051E-05-2.90544E-05-1.27176E-05-6.90158E-19-8.25049E-19
 -1      3223 9.88030E-05-3.33330E-05-2.81528E-05-1.44094E-05-7.32077E-19-1.13123E-18
 -1      3224 1.14123E-04-4.48797E-05-2.95689E-05-9.14274E-06-2.48057E-18 1.96816E-19
 -1      3225 1.10144E-04-4.17358E-05-2.91520E-05-1.15112E-05-1.53553E-18-2.51701E-19
 -1      3226 1.04602E-04-3.97501E-05-2.79366E-05-1.51354E-05-1.41915E-18-8.79793E-19
 -1      3227 1.21412E-04-5.13070E-05-2.99574E-05-7.58410E-06-2.42826E-18-1.75720E-19
 -1      3228 1.16788E-04-4.87020E-05-2.90081E-05-1.12477E-05-2.58724E-18-5.88820E-19
 -1      3229 1.30683E-04-5.02491E-05-3.47985E-05 5.96837E-06-2.11884E-18 8.14568E-19
 -1      3230 1.02834E-04-3.48767E-05-2.90545E-05 1.28018E-05 6.19229E-19-5.52697E-19
 -1      3231 1.05535E-04-3.76139E-05-2.90889E-05 1.22019E-05 8.37362E-19-5.92640E-19
 -1      3232 9.90824E-05-3.08041E-05-2.92302E-05 1.22932E-05-3.96588E-19-4.59811E-20
 -1      3233 1.00836E-04-3.26501E-05-2.91993E-05 1.23650E-05-3.19356E-19 1.95397E-19
 -1      3234 9.84130E-05-3.28451E-05-2.81821E-05 1.43610E-05-2.56074E-19-1.09370E-18
 -1      3235 9.70355E-05-2.83992E-05-2.94058E-05 1.11499E-05-1.34553E-18 1.38118E-19
 -1      3236 9.81067E-05-2.94923E-05-2.93841E-05 1.15714E-05-4.44181E-19 7.24131E-19
 -1      3237 9.56011E-05-2.90568E-05-2.85600E-05 1.28854E-05-8.79443E-19 6.54479E-19
 -1      3238 9.60170E-05-2.71717E-05-2.95068E-05 9.77859E-06-5.93212E-19-1.72970E-19
 -1      3239 9.66581E-05-2.77412E-05-2.95176E-05 1.03614E-05-1.42081E-18 1.14711E-19
 -1      3240 9.43493E-05-2.69841E-05-2.88877E-05 1.12317E-05-1.09989E-18-4.01643E-19
 -1      3241 9.55550E-05-2.66752E-05-2.95266E-05 8.37996E-06 8.97073E-19 4.22323E-20
 -1      3242 9.59489E-05-2.69229E-05-2.95677E-05 9.01468E-06 3.56982E-19 6.07245E-19
 -1      3243 9.39576E-05-2.60490E-05-2.91081E-05 9.62854E-06-7.68653E-19 8.72606E-20
 -1      3244 9.53651E-05-2.65857E-05-2.94852E-05 7.04914E-06 2.37124E-18-7.41362E-19
 -1      3245 9.56245E-05-2.66547E-05-2.95460E-05 7.67407E-06 1.99915E-18-5.40919E-19
 -1      3246 9.39829E-05-2.57872E-05-2.92257E-05 8.14745E-06 1.56700E-18-3.02697E-20
 -1      3247 9.52913E-05-2.66925E-05-2.94076E-05 5.83103E-06 8.67808E-19-3.35254E-19
 -1      3248 9.54794E-05-2.66754E-05-2.94767E-05 6.41357E-06 1.67268E-18-3.72316E-19
 -1      3249 9.41751E-05-2.58812E-05-2.92658E-05 6.80760E-06 1.57011E-18 1.47270E-18
 -1      3250 9.52526E-05-2.68644E-05-2.93160E-05 4.74107E-06 8.86543E-19 9.11067E-20
 -1      3251 9.54029E-05-2.68185E-05-2.93840E-05 5.26793E-06 4.87724E-19-5.37016E-19
 -1      3252 9.44026E-05-2.61295E-05-2.92567E-05 5.61261E-06 5.90545E-19 1.35487E-18
 -1      3253 9.52129E-05-2.70200E-05-2.92272E-05 3.77997E-06 3.00525E-19 2.57315E-18
 -1      3254 9.53403E-05-2.69846E-05-2.92873E-05 4.24416E-06 2.91999E-19 1.00131E-18
 -1      3255 9.45980E-05-2.64072E-05-2.92225E-05 4.55739E-06 2.62496E-19 1.45250E-19
 -1      3256 9.50125E-05-2.69540E-05-2.91654E-05 3.18184E-06-9.83623E-19 3.14408E-18
 -1      3257 9.51738E-05-2.70085E-05-2.92054E-05 3.50019E-06 4.02151E-19 2.60991E-18
 -1      3258 9.46261E-05-2.65383E-05-2.91823E-05 3.77068E-06-1.02707E-18 1.17461E-18
 -1      3259 9.45639E-05-2.65511E-05-2.91577E-05 3.20513E-06-1.56895E-19 1.13752E-18
 -1      3260 1.30888E-04-4.48072E-05-3.74149E-05-8.23018E-06-8.25262E-19-2.64698E-20
 -1      3261 1.30620E-04-5.06682E-05-3.41601E-05-1.47251E-06-7.55659E-19 6.49992E-19
 -1      3262 9.66444E-05-4.72842E-05-2.14267E-05 3.18716E-05-1.77316E-18-3.49729E-18
 -1      3263 8.29459E-05-3.98054E-05-1.78828E-05 3.44053E-05-2.79939E-18-3.10697E-18
 -1      3264 7.74991E-05-3.37238E-05-1.83889E-05 3.05947E-05-2.84772E-18-2.18709E-18
 -1      3265 9.22776E-05-2.46057E-05-2.90041E-05-5.08138E-07 6.65281E-19 2.98173E-19
 -1      3266 9.22304E-05-2.45624E-05-2.90058E-05 3.15270E-08 9.14225E-19 9.47493E-19
 -1      3267 4.94028E-05-1.51359E-05-1.44326E-05 1.43651E-05-3.33510E-18 1.47595E-19
 -1      3268 4.38148E-05-1.16869E-05-1.32931E-05 1.06179E-06-3.84436E-18 1.51619E-18
 -1      3269 9.53146E-05-2.83751E-05-2.86870E-05-1.44021E-06 3.11741E-19-3.92889E-19
 -1      3270 9.53105E-05-2.82975E-05-2.87150E-05-1.30495E-06 4.64016E-19-4.63964E-19
 -1      3271 9.55716E-05-2.84053E-05-2.87892E-05-1.46344E-06 3.28456E-19-7.02259E-19
 -1      3272 4.38173E-05-1.30687E-05-1.28915E-05-1.05169E-05-2.93882E-18 2.90522E-18
 -1      3273 5.03502E-05-1.77592E-05-1.36524E-05-2.14933E-05-1.72361E-18 3.27918E-18
 -1      3274 9.39324E-05-2.61003E-05-2.90678E-05-2.98364E-06-1.14463E-18 2.51408E-18
 -1      3275 9.35548E-05-2.57747E-05-2.90579E-05-2.77313E-06-9.32055E-19 1.60073E-18
 -1      3276 9.37220E-05-2.04009E-05-3.13975E-05-5.67088E-06-1.06018E-18-2.31859E-18
 -1      3277 9.54265E-05-2.72827E-05-2.92109E-05 1.79218E-07 7.73437E-19-6.38709E-19
 -1      3278 9.54854E-05-2.68872E-05-2.93834E-05 7.62337E-07 1.05668E-18-6.07858E-19
 -1      3279 9.31749E-05-2.54181E-05-2.90337E-05-2.43295E-06-1.39734E-18-8.47209E-19
 -1      3280 9.28686E-05-2.51612E-05-2.90270E-05-2.06183E-06-7.24126E-19-2.86204E-19
 -1      3281 9.31383E-05-2.54699E-05-2.89976E-05-2.87658E-06-8.24950E-19 5.38911E-19
 -1      3282 1.09072E-04-4.08890E-05-2.90922E-05 1.18895E-05 9.62206E-19-4.51977E-19
 -1      3283 1.12730E-04-4.42645E-05-2.93679E-05 1.01325E-05 1.43725E-18-3.06881E-19
 -1      3284 1.03714E-04-3.88258E-05-2.79348E-05 1.51078E-05 9.06568E-19-1.57492E-18
 -1      3285 1.18137E-04-4.79929E-05-2.98923E-05 7.82448E-06 7.35972E-19-8.14038E-19
 -1      3286 1.21964E-04-5.03046E-05-3.07333E-05 4.52410E-06-3.85797E-20-6.06103E-19
 -1      3287 1.12684E-04-4.69632E-05-2.82836E-05 1.38525E-05 7.15068E-19-1.81533E-18
 -1      3288 1.24070E-04-1.47671E-05-4.73304E-05 2.59641E-06 1.48072E-18 1.40843E-18
 -1      3289 1.28728E-04-1.36206E-05-4.99818E-05-1.74706E-06 1.81943E-18 5.06605E-19
 -1      3290 9.53045E-05-2.83301E-05-2.86987E-05-2.00091E-06 7.98519E-19-1.81132E-19
 -1      3291 9.52525E-05-2.83664E-05-2.86670E-05-1.90380E-06 7.36306E-19-9.21194E-20
 -1      3292 9.53276E-05-2.82323E-05-2.87565E-05-2.08910E-06 6.08255E-19 6.42525E-20
 -1      3293 1.27385E-04-5.52406E-05-3.12963E-05 7.77863E-06 1.51553E-19 7.10992E-19
 -1      3294 1.20965E-04-5.49242E-05-2.81053E-05 1.58806E-05 7.41220E-19 7.56520E-19
 -1      3295 9.52952E-05-2.84175E-05-2.86582E-05-1.81471E-06 5.79864E-19-4.16772E-19
 -1      3296 9.52560E-05-2.84249E-05-2.86419E-05-1.73248E-06 5.87928E-19-5.18457E-19
 -1      3297 9.54943E-05-2.84431E-05-2.87391E-05-1.68310E-06 5.26058E-19-9.36438E-19
 -1      3298 9.54136E-05-2.83786E-05-2.87314E-05-1.87447E-06 5.52068E-19-4.27265E-19
 -1      3299 9.47873E-05-2.29290E-05-3.08140E-05-4.19794E-06-8.83881E-19-2.00780E-18
 -1      3300 9.52098E-05-2.45861E-05-3.02684E-05-2.51509E-06-7.98308E-19-1.82026E-18
 -1      3301 9.40374E-05-2.13651E-05-3.11419E-05-3.90780E-06-6.26849E-19-2.15505E-18
 -1      3302 9.53918E-05-2.78607E-05-2.89449E-05-6.28414E-07 6.68316E-19-7.74068E-19
 -1      3303 9.54389E-05-2.76186E-05-2.90532E-05-2.65004E-07 6.74647E-19-7.25144E-19
 -1      3304 9.56997E-05-2.72433E-05-2.93437E-05 1.07497E-07 8.68910E-19-8.31129E-19
 -1      3305 9.55405E-05-2.55554E-05-2.99945E-05-1.97523E-06-7.52001E-19-1.71935E-18
 -1      3306 9.55871E-05-2.62088E-05-2.97424E-05-1.14613E-06-7.15361E-19-1.60220E-18
 -1      3307 9.57681E-05-2.61398E-05-2.98385E-05-9.82010E-07-7.40963E-19-1.66103E-18
 -1      3308 9.53536E-05-2.45198E-05-3.03477E-05-2.06380E-06-5.66418E-19-1.83609E-18
 -1      3309 4.28526E-05-1.80586E-05-1.00546E-05 2.33429E-05 1.43339E-18 1.20617E-18
 -1      3310 4.43741E-05-1.46676E-05-1.22094E-05 1.47072E-05 2.12870E-18-4.10705E-19
 -1      3311 8.36101E-05-3.71370E-05-1.98158E-05 3.15253E-05 1.37690E-18 1.04842E-18
 -1      3312 6.74596E-05-2.72881E-05-1.67748E-05 2.95970E-05 1.07663E-18 2.54057E-18
 -1      3313 4.42404E-05-1.19801E-05-1.36040E-05-1.39129E-06 1.90642E-18-1.33429E-18
 -1      3314 4.70316E-05-1.42723E-05-1.36978E-05-1.35645E-05 5.90938E-19-3.32355E-18
 -1      3315 1.12905E-04-5.30988E-05-2.57359E-05 2.32181E-05 2.33993E-19 9.06405E-19
 -1      3316 1.00661E-04-4.66544E-05-2.30153E-05 2.79920E-05 2.65836E-19 1.11909E-18
 -1      3317 1.16663E-04-5.18927E-05-2.75721E-05 1.55716E-05 3.83018E-20-1.55662E-19
 -1      3318 9.53475E-05-2.81981E-05-2.87787E-05-1.13055E-06 3.15097E-19-4.40078E-19
 -1      3319 9.53677E-05-2.80536E-05-2.88406E-05-9.09771E-07 4.79825E-19-6.30842E-19
 -1      3320 9.56426E-05-2.82325E-05-2.88945E-05-1.15013E-06 4.64221E-19-8.96013E-19
 -1      3321 1.30018E-04-1.48539E-05-4.95388E-05-7.05425E-06 1.79444E-18 3.48766E-19
 -1      3322 1.34595E-04-2.54590E-05-4.73118E-05-1.41193E-05 2.34332E-18 9.46030E-19
 -1      3323 9.52135E-05-2.42564E-05-3.04117E-05 4.25376E-06 1.86810E-18-5.22877E-19
 -1      3324 9.46487E-05-2.27144E-05-3.08190E-05 4.75524E-06 1.99406E-18-7.45592E-19
 -1      3325 9.49306E-05-2.35604E-05-3.05867E-05 3.64790E-06 1.77542E-18-8.55364E-19
 -1      3326 9.52427E-05-2.51758E-05-3.00420E-05 2.97343E-06 1.74924E-18-4.41604E-19
 -1      3327 1.21212E-04-1.09127E-05-4.78767E-05-3.79479E-06-2.67387E-18-1.81898E-18
 -1      3328 1.21810E-04-1.46125E-05-4.63198E-05-9.40624E-06-2.85662E-18-1.07891E-18
 -1      3329 1.33183E-04-4.99311E-05-3.60620E-05-7.47062E-06 6.81319E-19 9.16040E-19
 -1      3330 1.32433E-04-5.52678E-05-3.28087E-05 1.20573E-06 5.52398E-19-1.12830E-18
 -1      3331 1.24932E-04-5.73809E-05-2.93942E-05 1.38259E-05 3.15467E-19-2.73781E-18
 -1      3332 1.13999E-04-5.38303E-05-2.51938E-05 2.36818E-05-6.16402E-19-2.88720E-18
 -1      3333 7.98754E-05-3.61370E-05-1.82761E-05-3.21675E-05-2.02917E-18-3.97841E-18
 -1      3334 9.43925E-05-4.50487E-05-2.12922E-05-3.14629E-05-2.50166E-18-3.84897E-18
 -1      3335 9.24053E-05-1.82980E-05-3.17756E-05 1.79890E-06 1.22295E-18-2.25770E-18
 -1      3336 9.22864E-05-1.80957E-05-3.18086E-05 1.04737E-06 9.29053E-19-2.37515E-18
 -1      3337 9.25991E-05-2.49008E-05-2.90117E-05-1.57244E-06-4.60561E-19-1.34048E-18
 -1      3338 9.24112E-05-2.47426E-05-2.90088E-05-1.09773E-06 3.13863E-19 1.78762E-19
 -1      3339 9.19562E-05-2.44449E-05-2.89256E-05-9.05166E-07 7.56680E-19-1.74700E-19
 -1      3340 9.24121E-05-2.48483E-05-2.89501E-05-2.02050E-06-1.09068E-18-1.07608E-18
 -1      3341 5.06628E-05-1.58631E-05-1.47544E-05 1.69026E-05 2.63826E-18 6.18652E-19
 -1      3342 4.59675E-05-1.25334E-05-1.38494E-05 8.21637E-06 2.66128E-18-9.98864E-19
 -1      3343 5.31247E-05-2.06918E-05-1.35529E-05 2.55121E-05 1.71079E-18 2.39827E-18
 -1      3344 5.43781E-05-1.98188E-05-1.44718E-05-2.26125E-05-9.14901E-19-4.14686E-18
 -1      3345 6.65517E-05-2.84941E-05-1.61984E-05-3.05508E-05-1.62329E-18-3.41683E-18
 -1      3346 7.71892E-05-3.15445E-05-1.92615E-05-2.79407E-05-1.58618E-18-3.28853E-18
 -1      3347 9.22340E-05-1.79997E-05-3.18272E-05 4.05371E-07 8.31976E-19-2.29650E-18
 -1      3348 9.22280E-05-1.80166E-05-3.18258E-05-3.70240E-07 5.99385E-19-2.19763E-18
 -1      3349 9.31695E-05-1.95598E-05-3.15296E-05 6.23433E-07 7.62826E-19-2.15921E-18
 -1      3350 8.81843E-05-4.15200E-05-1.96765E-05-3.37301E-05 2.08190E-18 1.07568E-18
 -1      3351 9.72607E-05-4.45274E-05-2.24593E-05-2.87373E-05 1.68178E-18 8.95076E-19
 -1      3352 8.12494E-05-3.52892E-05-1.94831E-05-3.11270E-05 1.37876E-18 1.82440E-18
 -1      3353 1.16725E-04-5.47892E-05-2.64396E-05-2.18098E-05 4.77515E-19 2.92293E-19
 -1      3354 1.31473E-04-5.37340E-05-3.33775E-05-2.61228E-06 1.78185E-19 7.07431E-19
 -1      3355 1.29919E-04-4.90734E-05-3.48872E-05 3.94153E-06-9.59265E-20 8.02140E-19
 -1      3356 9.34498E-05-2.02290E-05-3.13921E-05-2.97340E-06-2.88941E-19-2.29817E-18
 -1      3357 9.37724E-05-2.08580E-05-3.12789E-05-3.53808E-06-4.92333E-19-2.33327E-18
 -1      3358 9.48497E-05-2.30200E-05-3.07609E-05-2.34877E-06-4.97496E-19-2.14461E-18
 -1      3359 1.28231E-04-4.03508E-05-3.77112E-05 1.06666E-05-3.25684E-19 1.00929E-18
 -1      3360 1.29668E-04-3.58430E-05-4.05222E-05 1.23823E-05-5.45013E-19-4.68886E-19
 -1      3361 1.24047E-04-3.03278E-05-4.04360E-05 1.40118E-05-1.07912E-18-2.00641E-20
 -1      3362 5.86495E-05-2.15439E-05-1.54304E-05-2.51449E-05-9.00290E-19 2.04945E-18
 -1      3363 6.81668E-05-2.64608E-05-1.77884E-05-2.73728E-05-4.32516E-20 1.37505E-18
 -1      3364 5.91999E-05-1.88769E-05-1.70175E-05-1.98187E-05-1.74690E-18 1.23990E-18
 -1      3365 1.29874E-04-3.99808E-05-3.88402E-05-1.45229E-05 9.93728E-19 1.84727E-18
 -1      3366 1.32738E-04-4.65983E-05-3.70790E-05-1.17647E-05 5.80959E-19 1.39559E-18
 -1      3367 1.20672E-04-2.04270E-05-4.32764E-05-1.12599E-05-1.59888E-18-1.33312E-18
 -1      3368 1.23902E-04-3.67367E-05-3.76027E-05-1.22462E-05-8.39118E-19-8.95843E-19
 -1      3369 1.12928E-04-1.88216E-05-4.06931E-05-9.02571E-06-1.13730E-18-4.93847E-19
 -1      3370 1.11349E-04-1.55066E-05-4.13572E-05-4.78944E-06-2.32119E-18-2.08992E-19
 -1      3371 1.27332E-04-5.39205E-05-3.11994E-05-3.93581E-06-2.47739E-18 6.12246E-20
 -1      3372 1.17356E-04-3.27636E-05-3.62449E-05 1.27896E-05-1.35757E-18 4.17821E-19
 -1      3373 1.18950E-04-3.77744E-05-3.49117E-05 1.18898E-05 1.68899E-19-1.58964E-19
 -1      3374 9.25787E-05-1.85958E-05-3.17180E-05 2.40448E-06 1.34635E-18-2.11659E-18
 -1      3375 9.33852E-05-1.99548E-05-3.14512E-05 1.78382E-06 1.20508E-18-2.02175E-18
 -1      3376 9.28162E-05-1.90138E-05-3.16485E-05 3.10338E-06 1.56386E-18-1.96391E-18
 -1      3377 9.32467E-05-1.98449E-05-3.14819E-05-2.51917E-06-1.11519E-19-2.23130E-18
 -1      3378 9.45115E-05-2.21412E-05-3.09921E-05-1.71640E-06-1.04912E-19-1.96423E-18
 -1      3379 9.30371E-05-1.94415E-05-3.15495E-05-1.85292E-06 5.74020E-20-2.09901E-18
 -1      3380 1.27336E-04-5.43502E-05-3.13515E-05-7.07934E-06 4.45354E-21 4.65312E-19
 -1      3381 1.29489E-04-4.84718E-05-3.47980E-05-7.94743E-06-6.70480E-20 9.74392E-19
 -1      3382 9.18357E-05-2.43165E-05-2.89279E-05 3.53933E-07 4.65984E-19 9.41506E-19
 -1      3383 9.22587E-05-2.45740E-05-2.90134E-05 6.57774E-07 1.00824E-18 2.32346E-18
 -1      3384 9.23694E-05-2.46600E-05-2.90201E-05 1.18705E-06 8.78845E-19 1.32097E-18
 -1      3385 1.16775E-04-1.22907E-05-4.51509E-05-1.25017E-06-2.67387E-18-2.95763E-18
 -1      3386 9.56957E-05-2.78729E-05-2.90720E-05-6.60386E-07 4.94411E-19-8.67255E-19
 -1      3387 1.10354E-04-4.69190E-05-2.71796E-05-1.73708E-05-2.24362E-18-1.63136E-18
 -1      3388 1.21812E-04-4.15804E-05-3.44971E-05 9.52067E-06 4.13392E-19 4.43402E-19
 -1      3389 5.46300E-05-1.75160E-05-1.53654E-05 1.83493E-05-2.64430E-18-2.77615E-19
 -1      3390 5.44455E-05-1.47100E-05-1.69273E-05 1.13074E-05-3.76122E-18 1.02512E-18
 -1      3391 6.08950E-05-2.13888E-05-1.68690E-05 2.20655E-05-2.76461E-18-1.14042E-18
 -1      3392 1.32221E-04-2.29679E-05-4.70827E-05 1.30584E-05 1.73621E-18 7.62965E-19
 -1      3393 9.43765E-05-2.19511E-05-3.10142E-05 3.61113E-06 1.65749E-18-1.36384E-18
 -1      3394 9.34545E-05-2.01837E-05-3.14278E-05 4.21484E-06 1.83029E-18-1.56831E-18
 -1      3395 9.30967E-05-1.95170E-05-3.15445E-05 3.63239E-06 1.66192E-18-1.73567E-18
 -1      3396 1.27761E-04-5.07181E-05-3.30356E-05-3.32606E-06-4.43534E-19 6.41297E-19
 -1      3397 1.04852E-04-4.82468E-05-2.40907E-05 2.51248E-05-3.58136E-19-2.03165E-18
 -1      3398 9.25696E-05-2.48286E-05-2.90402E-05 1.76631E-06 3.87918E-19 4.04982E-19
 -1      3399 9.28323E-05-2.50408E-05-2.90523E-05 2.21421E-06-2.42406E-19 7.93819E-19
 -1      3400 9.20874E-05-2.44963E-05-2.89593E-05 1.60471E-06 6.46841E-19 1.41431E-18
 -1      3401 5.07689E-05-1.33609E-05-1.56182E-05-4.22798E-06-3.90687E-18 1.78671E-18
 -1      3402 1.01164E-04-4.55089E-05-2.37518E-05-2.55813E-05-1.89360E-18-3.33818E-18
 -1      3403 5.11668E-05-1.29631E-05-1.59691E-05 1.82280E-06 1.99701E-18-8.58627E-19
 -1      3404 6.10253E-05-2.35003E-05-1.58451E-05 2.75007E-05 1.35401E-18 2.69902E-18
 -1      3405 5.77507E-05-2.04679E-05-1.56063E-05 2.38256E-05 1.67530E-18 2.02166E-18
 -1      3406 1.26442E-04-5.11223E-05-3.23287E-05 1.02237E-06-1.50104E-19 4.68515E-19
 -1      3407 1.25178E-04-5.25389E-05-3.12424E-05 3.90700E-06 5.37760E-19-4.64081E-19
 -1      3408 5.81654E-05-1.81566E-05-1.68808E-05 1.83827E-05 2.45505E-18 8.16434E-19
 -1      3409 9.40936E-05-4.19046E-05-2.21537E-05 2.88068E-05 5.89853E-19 3.80305E-19
 -1      3410 8.59422E-05-3.50199E-05-2.17333E-05 2.67306E-05 7.50961E-19-2.21976E-19
 -1      3411 1.01290E-04-4.42241E-05-2.45820E-05 2.32314E-05-3.05805E-19 5.66069E-19
 -1      3412 7.16614E-05-2.72685E-05-1.87390E-05 2.65525E-05 6.59600E-19 2.36709E-18
 -1      3413 5.73270E-05-1.77911E-05-1.65202E-05-1.68509E-05-1.88385E-19-2.75699E-18
 -1      3414 9.31425E-05-2.53111E-05-2.90800E-05 2.58703E-06-2.72405E-20-5.58073E-19
 -1      3415 9.34638E-05-2.55735E-05-2.90940E-05 2.83900E-06 1.19978E-18-1.14157E-18
 -1      3416 9.26690E-05-2.49459E-05-2.90154E-05 2.59633E-06-4.70765E-19-2.87988E-19
 -1      3417 9.53919E-05-2.64589E-05-2.95524E-05 1.31198E-06 1.31857E-18-6.53963E-19
 -1      3418 9.54308E-05-2.58470E-05-2.98077E-05 2.19309E-06 1.58832E-18-5.59186E-19
 -1      3419 9.53499E-05-2.51254E-05-3.00924E-05 2.57185E-06 1.61983E-18-5.00909E-19
 -1      3420 9.55971E-05-2.63473E-05-2.96839E-05 1.16608E-06 1.25573E-18-6.63902E-19
 -1      3421 9.44667E-05-2.65914E-05-2.90907E-05-3.28776E-06-1.59952E-18-8.87684E-19
 -1      3422 9.41820E-05-2.63324E-05-2.90831E-05-3.14876E-06-1.50972E-18 1.69664E-18
 -1      3423 9.38412E-05-2.60661E-05-2.90447E-05-3.37024E-06-2.02349E-18 1.99016E-18
 -1      3424 9.44362E-05-2.65498E-05-2.90899E-05-3.62653E-06-2.18439E-18 3.39436E-20
 -1      3425 9.51050E-05-2.35918E-05-3.06452E-05-1.74580E-06-3.56450E-19-2.06342E-18
 -1      3426 9.52643E-05-2.41237E-05-3.05041E-05-1.95251E-06-5.26988E-19-2.07112E-18
 -1      3427 9.55788E-05-2.50197E-05-3.02366E-05-1.42092E-06-5.74368E-19-1.99969E-18
 -1      3428 9.61312E-05-2.76382E-05-2.93478E-05 4.23802E-07-3.89583E-19-1.32586E-18
 -1      3429 9.61177E-05-2.79202E-05-2.92313E-05 7.19664E-07-2.91334E-19-1.20575E-18
 -1      3430 9.61000E-05-2.81367E-05-2.91226E-05 9.27826E-07-2.91051E-19-1.10144E-18
 -1      3431 9.60567E-05-2.82876E-05-2.90452E-05 1.12193E-06-9.58316E-20-8.79640E-19
 -1      3432 9.62726E-05-2.79288E-05-2.92915E-05 7.13058E-07-1.30199E-19-7.09239E-19
 -1      3433 9.59864E-05-2.83816E-05-2.89710E-05 1.26141E-06-1.08899E-19-8.97804E-19
 -1      3434 9.59273E-05-2.84367E-05-2.89240E-05 1.39490E-06 3.16853E-20-1.10461E-18
 -1      3435 9.61870E-05-2.82845E-05-2.91026E-05 1.07879E-06-2.03020E-19-5.47860E-19
 -1      3436 9.58214E-05-2.84405E-05-2.88769E-05 1.49767E-06 2.18811E-19-1.37209E-18
 -1      3437 9.57532E-05-2.84244E-05-2.88534E-05 1.60375E-06 3.07082E-19-1.07131E-18
 -1      3438 9.60138E-05-2.84074E-05-2.89756E-05 1.33633E-06 4.61799E-20-9.65292E-19
 -1      3439 9.56212E-05-2.83603E-05-2.88271E-05 1.69631E-06 1.52074E-19-1.01957E-18
 -1      3440 9.55466E-05-2.82905E-05-2.88212E-05 1.80122E-06-5.70314E-20-9.23090E-19
 -1      3441 9.57794E-05-2.83556E-05-2.88969E-05 1.54352E-06 1.46521E-19-9.19950E-19
 -1      3442 9.53929E-05-2.81745E-05-2.88103E-05 1.90497E-06-2.76002E-19-7.99710E-19
 -1      3443 9.53127E-05-2.80640E-05-2.88174E-05 2.02924E-06-4.78378E-19-9.48746E-19
 -1      3444 9.54971E-05-2.81707E-05-2.88546E-05 1.74799E-06-1.27998E-19-1.05280E-18
 -1      3445 9.51385E-05-2.79078E-05-2.88168E-05 2.16144E-06-5.70359E-19-7.89913E-19
 -1      3446 9.50534E-05-2.77676E-05-2.88326E-05 2.32090E-06-4.44295E-19-8.78382E-19
 -1      3447 9.51725E-05-2.78833E-05-2.88380E-05 1.98829E-06-3.70568E-19-1.19434E-18
 -1      3448 9.48586E-05-2.75818E-05-2.88376E-05 2.49560E-06-5.20436E-19-1.19522E-18
 -1      3449 9.47698E-05-2.74231E-05-2.88582E-05 2.70221E-06-5.64192E-19-1.06429E-18
 -1      3450 9.48065E-05-2.75179E-05-2.88370E-05 2.29567E-06-6.11238E-19-9.78103E-19
 -1      3451 9.45550E-05-2.72195E-05-2.88638E-05 2.93083E-06-6.63066E-19-8.06227E-19
 -1      3452 9.44667E-05-2.70564E-05-2.88848E-05 3.19286E-06-7.41787E-19-7.20050E-19
 -1      3453 9.43995E-05-2.70988E-05-2.88415E-05 2.69580E-06-3.32343E-19-1.08967E-18
 -1      3454 9.42353E-05-2.68509E-05-2.88855E-05 3.48469E-06-9.04488E-19-1.07438E-18
 -1      3455 9.41564E-05-2.67035E-05-2.89023E-05 3.80678E-06-9.73914E-19-1.45501E-18
 -1      3456 9.39552E-05-2.66555E-05-2.88405E-05 3.20977E-06-8.90569E-19-9.40231E-19
 -1      3457 9.39178E-05-2.65196E-05-2.88919E-05 4.16960E-06-9.87072E-19-1.64339E-18
 -1      3458 9.38657E-05-2.64179E-05-2.88990E-05 4.55242E-06-1.20581E-18-1.33932E-18
 -1      3459 9.34855E-05-2.62289E-05-2.88220E-05 3.85560E-06-9.46353E-19-1.62763E-18
 -1      3460 9.36399E-05-2.62911E-05-2.88705E-05 4.99279E-06-1.19807E-18-1.08402E-18
 -1      3461 9.36456E-05-2.62799E-05-2.88621E-05 5.43213E-06-1.21131E-18-9.31856E-19
 -1      3462 9.30183E-05-2.58796E-05-2.87720E-05 4.64996E-06-9.47778E-19-1.57369E-18
 -1      3463 9.34694E-05-2.62634E-05-2.88082E-05 5.95531E-06-1.01893E-18-3.48112E-19
 -1      3464 9.35847E-05-2.64075E-05-2.87787E-05 6.44035E-06-4.98342E-19-2.44885E-19
 -1      3465 9.26077E-05-2.56983E-05-2.86756E-05 5.60909E-06-7.18608E-19-2.94241E-19
 -1      3466 9.35209E-05-2.65772E-05-2.86930E-05 7.04927E-06-1.91618E-19 1.94381E-19
 -1      3467 9.38272E-05-2.69669E-05-2.86390E-05 7.55895E-06 4.60604E-20 3.17347E-19
 -1      3468 9.23491E-05-2.58171E-05-2.85180E-05 6.74948E-06-2.08705E-19 6.80368E-19
 -1      3469 9.39779E-05-2.74273E-05-2.85188E-05 8.24954E-06 8.48413E-20 1.36845E-20
 -1      3470 9.45949E-05-2.81803E-05-2.84434E-05 8.74414E-06 3.49766E-19 4.23553E-19
 -1      3471 9.24010E-05-2.64234E-05-2.82882E-05 8.08494E-06 2.51970E-19 7.23821E-19
 -1      3472 9.51182E-05-2.90658E-05-2.82946E-05 9.49147E-06 6.80689E-19 7.73476E-19
 -1      3473 9.62075E-05-3.03196E-05-2.82135E-05 9.89470E-06 1.28539E-18 6.13002E-19
 -1      3474 9.30145E-05-2.77715E-05-2.79875E-05 9.61207E-06 8.15681E-19 7.44455E-19
 -1      3475 9.73367E-05-3.17846E-05-2.80597E-05 1.06151E-05 1.34364E-18 7.01262E-19
 -1      3476 9.90992E-05-3.36564E-05-2.80134E-05 1.07689E-05 7.69390E-19 1.00266E-18
 -1      3477 9.45750E-05-3.01914E-05-2.76422E-05 1.12679E-05 1.28638E-18 1.13353E-18
 -1      3478 1.01138E-04-3.58587E-05-2.79146E-05 1.13091E-05 2.08050E-19 1.19308E-18
 -1      3479 1.03756E-04-3.83672E-05-2.79963E-05 1.09048E-05 3.63172E-19 1.31065E-18
 -1      3480 9.75596E-05-3.39641E-05-2.73291E-05 1.28411E-05 6.66549E-19 1.45126E-18
 -1      3481 1.07041E-04-4.11933E-05-2.81066E-05 1.06913E-05 3.50880E-19 1.40086E-18
 -1      3482 1.10365E-04-4.39246E-05-2.84753E-05 9.32273E-06 8.36912E-19 1.17271E-18
 -1      3483 1.02866E-04-3.95510E-05-2.72444E-05 1.38287E-05 4.14307E-19 1.81137E-18
 -1      3484 1.14459E-04-4.63364E-05-2.91747E-05-6.84767E-06 1.77178E-18-1.86278E-19
 -1      3485 1.10998E-04-4.40154E-05-2.85725E-05-9.08198E-06 9.56361E-19 2.47903E-19
 -1      3486 1.07046E-04-4.10605E-05-2.82676E-05-1.00017E-05-2.50874E-19 6.14575E-19
 -1      3487 1.04138E-04-3.84332E-05-2.80711E-05-1.08840E-05-2.49496E-19 2.68407E-19
 -1      3488 1.06836E-04-4.27358E-05-2.75758E-05-1.30610E-05 1.24995E-18 5.06420E-19
 -1      3489 1.01507E-04-3.59363E-05-2.80793E-05-1.07563E-05-7.75002E-20-2.10143E-19
 -1      3490 9.93862E-05-3.37716E-05-2.80714E-05-1.08824E-05-2.00957E-19-1.73240E-19
 -1      3491 1.00383E-04-3.67044E-05-2.73807E-05-1.31264E-05-2.28118E-19 1.02285E-18
 -1      3492 9.78251E-05-3.19761E-05-2.81971E-05-1.03068E-05-2.70728E-19-8.09667E-19
 -1      3493 9.64319E-05-3.04336E-05-2.82618E-05-1.00498E-05-1.91401E-19-1.09091E-18
 -1      3494 9.63291E-05-3.21151E-05-2.75835E-05-1.19749E-05-8.09107E-19 4.07602E-20
 -1      3495 9.56200E-05-2.92750E-05-2.84124E-05-9.34179E-06 1.73245E-19-1.13294E-18
 -1      3496 9.47837E-05-2.82853E-05-2.84906E-05-8.91123E-06 6.34250E-19-6.50860E-19
 -1      3497 9.40658E-05-2.90270E-05-2.79103E-05-1.04326E-05-2.23066E-19-3.75450E-19
 -1      3498 9.44492E-05-2.76167E-05-2.86258E-05-8.21171E-06 9.60506E-19-1.21715E-18
 -1      3499 9.39939E-05-2.70447E-05-2.86917E-05-7.71716E-06 1.23008E-18-5.99336E-19
 -1      3500 9.29965E-05-2.71623E-05-2.82333E-05-8.89207E-06 8.22019E-19-1.06296E-18
 -1      3501 9.39435E-05-2.67189E-05-2.87980E-05-7.07520E-06 1.59898E-18-8.00512E-19
 -1      3502 9.37286E-05-2.64342E-05-2.88437E-05-6.57294E-06 1.05024E-18-6.97420E-19
 -1      3503 9.26600E-05-2.61721E-05-2.85029E-05-7.48885E-06 1.29263E-18-1.84000E-18
 -1      3504 9.38326E-05-2.63292E-05-2.89208E-05-6.00162E-06-1.57629E-20-6.07201E-19
 -1      3505 9.37576E-05-2.62250E-05-2.89478E-05-5.52038E-06-9.95775E-19-1.13592E-18
 -1      3506 9.27423E-05-2.57622E-05-2.87079E-05-6.25233E-06 8.17622E-19-8.50163E-19
 -1      3507 9.39320E-05-2.62493E-05-2.90013E-05-5.02033E-06-1.57068E-18-8.97229E-19
 -1      3508 9.39375E-05-2.62438E-05-2.90158E-05-4.57655E-06-1.10877E-18-5.01510E-19
 -1      3509 9.30381E-05-2.57047E-05-2.88554E-05-5.17614E-06-1.00329E-18-8.29771E-19
 -1      3510 9.51289E-05-2.78317E-05-2.88372E-05-2.37225E-06 6.87952E-20 4.89221E-19
 -1      3511 9.51826E-05-2.79684E-05-2.88099E-05-2.20965E-06 2.73309E-19 4.45005E-19
 -1      3512 9.42458E-05-2.65600E-05-2.90024E-05-3.92892E-06-2.26638E-19 6.23885E-20
 -1      3513 9.43425E-05-2.67793E-05-2.89640E-05-3.57389E-06 1.47417E-19 1.04651E-19
 -1      3514 9.38225E-05-2.60413E-05-2.90427E-05-4.73745E-06 5.53703E-20 3.57669E-19
 -1      3515 9.39382E-05-2.62694E-05-2.90109E-05-4.30251E-06-1.84406E-19 1.86584E-19
 -1      3516 9.34981E-05-2.59947E-05-2.89242E-05-3.95451E-06-3.20091E-19-2.93425E-19
 -1      3517 9.33276E-05-2.55264E-05-2.90503E-05-5.71281E-06 8.63616E-20 2.15119E-20
 -1      3518 9.34564E-05-2.57391E-05-2.90334E-05-5.19482E-06 1.43621E-19 4.66611E-19
 -1      3519 9.28308E-05-2.53551E-05-2.89104E-05-4.75956E-06 1.31252E-20-2.68351E-19
 -1      3520 9.27823E-05-2.50887E-05-2.90023E-05-6.86547E-06 5.35244E-20-4.22112E-19
 -1      3521 9.29037E-05-2.52419E-05-2.90113E-05-6.26384E-06 1.52060E-19-1.04778E-19
 -1      3522 9.20460E-05-2.47180E-05-2.88454E-05-5.73272E-06 2.95094E-19-2.09819E-19
 -1      3523 9.22512E-05-2.48579E-05-2.88697E-05-8.20954E-06 3.09696E-19-2.67834E-19
 -1      3524 9.23170E-05-2.48754E-05-2.89182E-05-7.52528E-06 2.78979E-19-2.07539E-19
 -1      3525 9.11578E-05-2.41647E-05-2.87008E-05-6.90008E-06 1.97552E-19 1.71692E-19
 -1      3526 9.18779E-05-2.50501E-05-2.86201E-05-9.76925E-06-8.17239E-20-4.57321E-19
 -1      3527 9.17903E-05-2.48065E-05-2.87224E-05-9.00425E-06 3.96112E-19-6.04445E-19
 -1      3528 9.02213E-05-2.38354E-05-2.84414E-05-8.30857E-06 3.50736E-19-5.69709E-19
 -1      3529 9.19428E-05-2.60069E-05-2.82247E-05-1.15823E-05 8.55511E-20-1.00160E-18
 -1      3530 9.15201E-05-2.53064E-05-2.83902E-05-1.07428E-05-1.13140E-19-1.02121E-18
 -1      3531 8.93680E-05-2.39606E-05-2.80268E-05-1.00434E-05 5.59609E-19-9.25601E-19
 -1      3532 9.29407E-05-2.82486E-05-2.76784E-05-1.36949E-05-2.83227E-19-1.33841E-18
 -1      3533 9.18799E-05-2.67928E-05-2.78981E-05-1.28029E-05-7.18987E-20-1.01421E-18
 -1      3534 8.88607E-05-2.49036E-05-2.74182E-05-1.22452E-05 2.23584E-19-1.46227E-18
 -1      3535 9.56764E-05-3.24322E-05-2.70389E-05-1.60442E-05-8.99754E-19-2.25395E-18
 -1      3536 9.35482E-05-2.98586E-05-2.72650E-05-1.51648E-05-8.17582E-19-1.95833E-18
 -1      3537 8.92443E-05-2.72918E-05-2.65987E-05-1.51091E-05-2.72380E-19-2.82692E-18
 -1      3538 1.00907E-04-3.92617E-05-2.64251E-05-1.82946E-05-1.66675E-18-1.29398E-18
 -1      3539 9.75293E-05-3.52393E-05-2.65805E-05-1.76021E-05-1.04499E-18-1.63797E-18
 -1      3540 9.14543E-05-3.19447E-05-2.56432E-05-1.86232E-05-1.27079E-18-2.54499E-18
 -1      3541 1.25775E-04-4.49191E-05-3.47773E-05 6.93827E-06-9.16913E-20 6.13067E-19
 -1      3542 1.25398E-04-4.87590E-05-3.28301E-05 3.02370E-06 4.09269E-19 1.14085E-20
 -1      3543 9.57865E-05-2.84281E-05-2.88672E-05-1.43940E-06 4.32107E-19-9.45550E-19
 -1      3544 9.58265E-05-2.83662E-05-2.89084E-05-1.30180E-06 3.16630E-19-8.61135E-19
 -1      3545 9.15823E-05-2.52477E-05-2.84426E-05 1.06692E-05-1.03335E-18-1.29609E-19
 -1      3546 9.19550E-05-2.58943E-05-2.82796E-05 1.15016E-05-6.09470E-19 3.32876E-19
 -1      3547 9.18426E-05-2.66187E-05-2.79580E-05 1.26895E-05-1.13242E-18 2.82841E-19
 -1      3548 9.28250E-05-2.79770E-05-2.77389E-05 1.35650E-05-1.10324E-18 3.21243E-19
 -1      3549 8.89632E-05-2.48010E-05-2.75034E-05 1.21030E-05-1.18131E-18 2.15282E-20
 -1      3550 9.33300E-05-2.95256E-05-2.73261E-05 1.50477E-05-1.35792E-18-4.76870E-19
 -1      3551 9.53819E-05-3.19583E-05-2.70996E-05 1.58598E-05-3.74129E-19-4.87413E-19
 -1      3552 8.91746E-05-2.69509E-05-2.66917E-05 1.49117E-05-1.71166E-18 8.38563E-20
 -1      3553 9.19039E-05-2.48087E-05-2.87703E-05 8.95871E-06-5.65122E-19-1.94511E-19
 -1      3554 9.19666E-05-2.50278E-05-2.86688E-05 9.71722E-06-1.63791E-18-1.13999E-18
 -1      3555 8.95369E-05-2.39537E-05-2.81019E-05 9.95581E-06-8.97877E-19-6.07937E-19
 -1      3556 9.24449E-05-2.48820E-05-2.89699E-05 7.49234E-06 8.20355E-19 2.68499E-19
 -1      3557 9.23709E-05-2.48671E-05-2.89182E-05 8.17757E-06 8.01207E-20-3.74360E-19
 -1      3558 9.04191E-05-2.38685E-05-2.85125E-05 8.25934E-06-1.65053E-19-1.50744E-18
 -1      3559 9.30223E-05-2.52057E-05-2.90770E-05 6.21985E-06 7.20221E-19 1.45454E-18
 -1      3560 9.29042E-05-2.50783E-05-2.90598E-05 6.83371E-06 1.78803E-18 1.10651E-18
 -1      3561 9.13537E-05-2.41807E-05-2.87783E-05 6.86421E-06 4.15210E-19 9.14262E-20
 -1      3562 9.35446E-05-2.56119E-05-2.91244E-05 5.11166E-06 8.20026E-19 9.90311E-19
 -1      3563 9.34293E-05-2.54493E-05-2.91278E-05 5.65738E-06 3.95174E-19 9.09635E-19
 -1      3564 9.22194E-05-2.46690E-05-2.89408E-05 5.68416E-06 9.48015E-19 1.41398E-18
 -1      3565 9.39745E-05-2.59997E-05-2.91386E-05 4.14475E-06-1.57330E-19 8.73267E-19
 -1      3566 9.38812E-05-2.58505E-05-2.91513E-05 4.62306E-06 8.18664E-19 1.12863E-18
 -1      3567 9.29541E-05-2.51887E-05-2.90359E-05 4.67307E-06 7.26471E-20 1.25893E-18
 -1      3568 1.27180E-04-3.90233E-05-3.80730E-05-1.11194E-05-1.08846E-18-6.04411E-19
 -1      3569 9.25621E-05-1.85755E-05-3.17161E-05-8.06529E-07 4.83797E-19-2.13084E-18
 -1      3570 9.26651E-05-1.87891E-05-3.16831E-05-1.53780E-06 1.90020E-19-2.12617E-18
 -1      3571 9.40582E-05-2.11980E-05-3.12050E-05-1.07586E-06 2.16325E-19-1.82884E-18
 -1      3572 9.34417E-05-2.00403E-05-3.14388E-05-3.94446E-07 5.50008E-19-2.00307E-18
 -1      3573 1.17878E-04-5.10221E-05-2.89222E-05 1.06212E-05 2.91399E-19-1.96670E-19
 -1      3574 1.12336E-04-4.87102E-05-2.69510E-05 1.63483E-05-2.59422E-19 2.53289E-19
 -1      3575 8.32177E-05-3.50521E-05-2.07996E-05 2.83633E-05-9.72685E-19-1.58766E-19
 -1      3576 7.28484E-05-2.80741E-05-1.87075E-05 2.73060E-05-1.93375E-18-1.22126E-18
 -1      3577 1.23922E-04-5.55876E-05-2.93244E-05-1.28109E-05 4.07740E-19 5.08339E-19
 -1      3578 1.24574E-04-5.28745E-05-3.07680E-05-5.90722E-06 2.50060E-19 6.45148E-19
 -1      3579 9.16422E-05-3.66279E-05-2.32258E-05-2.46340E-05-1.26799E-18-3.13996E-18
 -1      3580 1.01774E-04-4.24918E-05-2.54573E-05-2.08061E-05-1.63364E-18-2.74777E-18
 -1      3581 9.59025E-05-2.72570E-05-2.94264E-05-3.59784E-08 7.97021E-19-9.11917E-19
 -1      3582 9.58883E-05-2.68100E-05-2.95938E-05 4.50641E-07 1.00435E-18-8.84981E-19
 -1      3583 9.53321E-05-2.81194E-05-2.88016E-05-2.07826E-06 5.09023E-19 2.46016E-19
 -1      3584 9.53791E-05-2.82192E-05-2.87852E-05-1.95435E-06 5.72840E-19 8.01602E-20
 -1      3585 9.52227E-05-2.79460E-05-2.88326E-05-2.07018E-06 3.29847E-19 2.81442E-19
 -1      3586 5.74786E-05-1.54781E-05-1.78706E-05-1.19407E-05 3.81165E-19-2.00487E-18
 -1      3587 6.43936E-05-2.08101E-05-1.86342E-05-2.03492E-05-6.08659E-19-2.63157E-18
 -1      3588 9.30944E-05-2.55057E-05-2.89600E-05-3.35788E-06-4.74760E-20 1.21002E-18
 -1      3589 9.26157E-05-2.51494E-05-2.89256E-05-3.01412E-06-3.56464E-19-3.82334E-19
 -1      3590 9.70778E-05-3.47180E-05-2.66563E-05 1.74510E-05 3.65839E-19-1.23108E-18
 -1      3591 1.00587E-04-3.84628E-05-2.65391E-05 1.79281E-05 4.91881E-19-1.04068E-18
 -1      3592 9.11836E-05-3.14200E-05-2.57229E-05 1.85455E-05-6.82831E-19-4.39213E-19
 -1      3593 9.45977E-05-2.70431E-05-2.89466E-05-3.27577E-06 3.22405E-19 4.04020E-19
 -1      3594 9.46764E-05-2.72409E-05-2.89077E-05-2.99468E-06 4.32236E-19 6.38577E-19
 -1      3595 9.40548E-05-2.65922E-05-2.89084E-05-3.30006E-06 4.11866E-19 2.19470E-19
 -1      3596 1.14155E-04-1.77807E-05-4.23904E-05-1.44627E-06 2.83142E-18 2.21232E-18
 -1      3597 9.48880E-05-2.74705E-05-2.88883E-05-2.76330E-06 9.04089E-20 5.69828E-19
 -1      3598 9.49521E-05-2.76399E-05-2.88534E-05-2.54732E-06-9.10030E-20 2.10432E-19
 -1      3599 9.49003E-05-2.75781E-05-2.88510E-05-2.37794E-06 6.92913E-20 5.61836E-19
 -1      3600 9.45164E-05-2.71241E-05-2.88798E-05-2.78050E-06 1.69021E-19 2.52464E-19
 -1      3601 7.55157E-05-2.77480E-05-2.04531E-05 2.48381E-05 1.18583E-18 8.76679E-19
 -1      3602 7.02456E-05-2.39639E-05-1.95916E-05 2.28153E-05 1.75578E-18 1.80210E-18
 -1      3603 9.58851E-05-2.82691E-05-2.89794E-05-1.14927E-06 3.50432E-19-9.09286E-19
 -1      3604 9.59201E-05-2.81182E-05-2.90523E-05-9.43411E-07 4.90858E-19-8.26265E-19
 -1      3605 9.60602E-05-2.82741E-05-2.90534E-05-1.12730E-06 4.10916E-19-9.69163E-19
 -1      3606 1.25931E-04-5.42617E-05-3.07752E-05 6.32659E-06 7.38295E-19-6.04623E-19
 -1      3607 6.36848E-05-1.96776E-05-1.88216E-05 1.88352E-05 2.09841E-18 1.05969E-18
 -1      3608 5.83201E-05-1.53234E-05-1.81709E-05 1.19915E-05 2.56251E-18-1.07070E-19
 -1      3609 6.92639E-05-2.09038E-05-2.05754E-05 1.74975E-05 1.88857E-18 7.07405E-19
 -1      3610 5.48797E-05-1.33592E-05-1.76462E-05 1.76892E-07-3.38995E-18 1.37119E-18
 -1      3611 5.53154E-05-1.42865E-05-1.73449E-05-1.00987E-05-2.99431E-18 8.93832E-19
 -1      3612 1.13570E-04-5.22743E-05-2.62410E-05-2.04936E-05 8.49945E-19 5.37892E-19
 -1      3613 5.48431E-05-1.34864E-05-1.76927E-05 5.50723E-06 2.37265E-18-2.94662E-19
 -1      3614 5.44802E-05-1.30600E-05-1.75582E-05-3.68155E-06 1.45034E-18-2.64380E-19
 -1      3615 6.09639E-05-1.49736E-05-1.95046E-05 6.90239E-06 2.11046E-18 2.99638E-19
 -1      3616 9.59358E-05-2.79053E-05-2.91596E-05-7.10803E-07 5.23775E-19-9.48007E-19
 -1      3617 9.59562E-05-2.76312E-05-2.92737E-05-3.90818E-07 5.91550E-19-8.67253E-19
 -1      3618 9.60909E-05-2.72473E-05-2.95057E-05-1.07392E-07 7.52255E-19-1.01131E-18
 -1      3619 9.60206E-05-2.67873E-05-2.96680E-05-3.36086E-07-8.09123E-19-1.64940E-18
 -1      3620 9.60665E-05-2.72483E-05-2.94996E-05 1.12025E-07-6.15784E-19-1.63328E-18
 -1      3621 9.62281E-05-2.72615E-05-2.95578E-05 1.72618E-07-3.05976E-19-1.16428E-18
 -1      3622 9.38278E-05-2.58941E-05-2.91232E-05 3.02978E-06 8.40973E-19-5.43845E-19
 -1      3623 9.41949E-05-2.62128E-05-2.91346E-05 3.14655E-06 4.99860E-19-4.41430E-19
 -1      3624 9.41910E-05-2.61964E-05-2.91389E-05 3.42353E-06-2.25266E-19 4.82483E-19
 -1      3625 9.33750E-05-2.55225E-05-2.90785E-05 3.17549E-06 4.80424E-19-5.56642E-19
 -1      3626 7.25289E-05-2.51987E-05-1.99613E-05-2.32921E-05-8.87677E-19-3.05083E-18
 -1      3627 8.29528E-05-3.23888E-05-2.16481E-05-2.53722E-05-9.64109E-19-3.67813E-18
 -1      3628 8.64998E-05-3.10692E-05-2.36777E-05-2.14805E-05-9.25198E-19-3.01165E-18
 -1      3629 7.24733E-05-2.27988E-05-2.10820E-05-1.88980E-05-2.19659E-19-2.69420E-18
 -1      3630 1.22120E-04-4.97773E-05-3.10550E-05-2.28775E-06 5.51819E-19 1.22072E-19
 -1      3631 7.68118E-05-3.04930E-05-1.95161E-05-2.81827E-05 5.00755E-19 7.28872E-19
 -1      3632 8.53130E-05-3.46903E-05-2.16360E-05-2.65593E-05 7.80395E-19 9.38327E-19
 -1      3633 7.35384E-05-2.63960E-05-2.00979E-05-2.41830E-05-7.82103E-19 1.44446E-19
 -1      3634 9.52932E-05-2.45265E-05-3.03254E-05 2.83285E-06 1.62992E-18-8.25873E-19
 -1      3635 9.49984E-05-2.36821E-05-3.05718E-05 3.05646E-06 1.64229E-18-1.11198E-18
 -1      3636 9.54454E-05-2.52449E-05-3.00908E-05 2.02358E-06 1.52303E-18-8.25673E-19
 -1      3637 5.96470E-05-1.64245E-05-1.82562E-05-1.39418E-05-2.01849E-18 1.06422E-18
 -1      3638 6.56785E-05-1.98799E-05-1.96034E-05-1.76561E-05-1.11014E-18 6.11558E-19
 -1      3639 6.26171E-05-1.59582E-05-1.99281E-05-9.36843E-06-1.31456E-18-2.47731E-19
 -1      3640 1.28338E-04-3.26062E-05-4.13141E-05-1.68727E-05 2.33231E-18 2.82475E-18
 -1      3641 1.18971E-04-4.93303E-05-2.97608E-05-5.85312E-06 1.57170E-18-2.24331E-19
 -1      3642 1.15426E-04-4.95921E-05-2.82809E-05-1.21693E-05 1.38520E-18 2.40240E-19
 -1      3643 1.14272E-04-4.62031E-05-2.89562E-05 7.62669E-06 4.48638E-19 6.72898E-19
 -1      3644 1.17573E-04-4.79185E-05-2.98450E-05 4.74565E-06-1.81794E-19-3.09200E-19
 -1      3645 1.21918E-04-5.00220E-05-3.06771E-05 3.08731E-06-2.91697E-20 2.36216E-19
 -1      3646 1.24529E-04-4.90773E-05-3.23656E-05-8.74751E-07 1.23693E-19 2.99003E-19
 -1      3647 9.37965E-05-2.07431E-05-3.12861E-05 2.82103E-06 1.52598E-18-1.66933E-18
 -1      3648 1.14659E-04-1.79218E-05-4.19039E-05 8.76997E-06-2.17815E-18-8.18571E-19
 -1      3649 1.17977E-04-3.16814E-05-3.71070E-05 1.31241E-05-1.60248E-18 1.98358E-19
 -1      3650 1.22225E-04-3.60165E-05-3.72714E-05 1.27653E-05-6.27863E-19 1.37508E-18
 -1      3651 9.41085E-05-2.14416E-05-3.11581E-05 1.73628E-06 1.16372E-18-1.81781E-18
 -1      3652 9.39699E-05-2.11441E-05-3.12187E-05 1.22560E-06 9.59424E-19-1.91610E-18
 -1      3653 9.41885E-05-2.63797E-05-2.90572E-05-4.26237E-06-8.81946E-19-5.27270E-20
 -1      3654 9.42386E-05-2.64254E-05-2.90646E-05-3.90320E-06-1.08944E-18-1.91208E-19
 -1      3655 9.39285E-05-2.61737E-05-2.90363E-05-3.79590E-06-1.57413E-18 6.19577E-19
 -1      3656 9.34752E-05-2.58828E-05-2.89619E-05-4.37919E-06-1.29593E-18 2.84274E-19
 -1      3657 1.10105E-04-4.57956E-05-2.77954E-05 1.28528E-05 3.92150E-20 1.21279E-18
 -1      3658 9.21635E-05-2.47533E-05-2.88822E-05-2.50879E-06-1.18099E-18-1.09172E-18
 -1      3659 9.18176E-05-2.44997E-05-2.88605E-05-2.00251E-06-1.25789E-18-2.07800E-18
 -1      3660 9.20372E-05-2.47602E-05-2.88353E-05-3.04571E-06-6.54555E-19 1.62772E-19
 -1      3661 9.12624E-05-2.40005E-05-2.88297E-05 1.85280E-08 1.07392E-19 2.61465E-19
 -1      3662 9.12941E-05-2.40125E-05-2.88388E-05 6.78444E-07 1.56998E-19 1.58579E-18
 -1      3663 1.26663E-04-4.09151E-05-3.68260E-05 1.08258E-05-1.55854E-19 9.63579E-19
 -1      3664 6.87968E-05-2.33246E-05-1.92406E-05 2.13695E-05-1.72567E-18-6.10975E-19
 -1      3665 9.47662E-05-2.30207E-05-3.07482E-05 2.83482E-06 1.49727E-18-1.30297E-18
 -1      3666 6.10757E-05-1.52523E-05-1.93673E-05-7.82932E-06 1.04500E-18-7.35066E-19
 -1      3667 9.42167E-05-2.61891E-05-2.91522E-05 3.71598E-06-1.92333E-19 5.94509E-19
 -1      3668 9.14418E-05-2.41086E-05-2.88640E-05 1.42980E-06 6.40561E-19 1.36958E-18
 -1      3669 9.16917E-05-2.42807E-05-2.88907E-05 2.04200E-06 7.49803E-19 1.10637E-18
 -1      3670 9.08719E-05-2.37375E-05-2.87624E-05 1.11939E-06 6.39266E-19 1.01073E-18
 -1      3671 9.52693E-05-4.07612E-05-2.29425E-05 2.65293E-05-1.52095E-19-8.99661E-19
 -1      3672 9.00959E-05-3.57741E-05-2.30675E-05 2.42760E-05 8.60003E-20-1.70055E-19
 -1      3673 8.46446E-05-3.19933E-05-2.23918E-05 2.34101E-05 8.55702E-19-3.84732E-19
 -1      3674 9.58613E-05-2.61592E-05-2.98738E-05 7.93991E-07 1.17464E-18-9.73305E-19
 -1      3675 9.57173E-05-2.61920E-05-2.98045E-05 9.83238E-07 1.17428E-18-9.03203E-19
 -1      3676 9.54961E-05-2.82186E-05-2.88339E-05-1.82990E-06 2.94102E-19-6.46297E-20
 -1      3677 9.55067E-05-2.83251E-05-2.87891E-05-1.85125E-06 2.79717E-19-3.55903E-20
 -1      3678 9.55502E-05-2.83820E-05-2.87872E-05-1.74772E-06 2.31659E-19-4.34020E-19
 -1      3679 9.35436E-05-2.56550E-05-2.90901E-05 3.77062E-06-2.00719E-19 1.28671E-18
 -1      3680 9.57993E-05-2.56809E-05-3.00540E-05-1.10149E-06-6.87549E-19-1.83373E-18
 -1      3681 9.59088E-05-2.63218E-05-2.98266E-05-6.14231E-07-8.36782E-19-1.79211E-18
 -1      3682 9.60517E-05-2.63376E-05-2.98749E-05-4.57143E-07-5.71063E-19-1.39535E-18
 -1      3683 9.57409E-05-2.52398E-05-3.02103E-05-1.05159E-06-4.42263E-19-1.73625E-18
 -1      3684 9.58324E-05-3.77586E-05-2.51133E-05 2.14892E-05-1.33940E-19-1.80980E-18
 -1      3685 1.03773E-04-4.15259E-05-2.64734E-05 1.85223E-05 6.67765E-19-2.31258E-18
 -1      3686 9.49900E-05-2.32703E-05-3.07504E-05-1.52117E-06-1.70395E-20-1.76049E-18
 -1      3687 9.54350E-05-2.42568E-05-3.04992E-05-1.16739E-06-7.62886E-20-1.64470E-18
 -1      3688 9.48605E-05-2.29105E-05-3.08366E-05-1.19663E-06 2.54262E-19-1.68237E-18
 -1      3689 1.08883E-04-4.63922E-05-2.67666E-05 1.78753E-05 2.89646E-19-2.24117E-18
 -1      3690 9.56581E-05-2.84353E-05-2.88077E-05-1.65386E-06 3.54830E-19-6.79634E-19
 -1      3691 9.56998E-05-2.84401E-05-2.88246E-05-1.54779E-06 4.69365E-19-7.82601E-19
 -1      3692 9.57279E-05-2.83817E-05-2.88640E-05-1.62295E-06 1.05136E-19-4.56336E-19
 -1      3693 9.46128E-05-2.22878E-05-3.09801E-05 8.02455E-07 8.22592E-19-1.93754E-18
 -1      3694 9.38891E-05-2.09719E-05-3.12611E-05 7.94322E-07 8.56170E-19-2.03668E-18
 -1      3695 9.38353E-05-2.08796E-05-3.12793E-05 2.35525E-07 6.53614E-19-2.10834E-18
 -1      3696 1.05440E-04-4.43225E-05-2.60434E-05 1.81277E-05-4.07079E-19 2.90003E-19
 -1      3697 9.20129E-05-2.45252E-05-2.89350E-05 2.58577E-06 6.22268E-19 1.32918E-18
 -1      3698 9.23918E-05-2.47863E-05-2.89689E-05 2.99651E-06 5.31285E-19-1.01014E-18
 -1      3699 9.14005E-05-2.40901E-05-2.88390E-05 2.45205E-06 1.08182E-18 1.35138E-18
 -1      3700 5.82544E-05-1.50852E-05-1.85540E-05 9.05664E-06-2.98531E-18 1.51164E-18
 -1      3701 5.61831E-05-1.34625E-05-1.79192E-05 4.31201E-06-3.52773E-18 2.19445E-18
 -1      3702 5.94376E-05-1.40200E-05-1.93402E-05-1.13453E-06-2.55254E-18 9.08496E-19
 -1      3703 9.61310E-05-2.79124E-05-2.92386E-05-7.19594E-07 5.24334E-19-1.09396E-18
 -1      3704 9.56151E-05-2.56279E-05-2.99851E-05 1.58803E-06 1.38002E-18-8.09755E-19
 -1      3705 9.59187E-05-2.84123E-05-2.89333E-05-1.40655E-06 3.98243E-19-8.38154E-19
 -1      3706 1.07870E-04-4.75135E-05-2.60552E-05 2.05059E-05 7.19819E-19-2.13124E-18
 -1      3707 1.05166E-04-4.78660E-05-2.44393E-05-2.48366E-05 2.05157E-18 4.83073E-19
 -1      3708 1.12792E-04-4.94734E-05-2.70477E-05-1.66249E-05 1.75103E-18-1.35683E-19
 -1      3709 1.08043E-04-4.56142E-05-2.66654E-05-1.65226E-05 2.73758E-18 9.35740E-20
 -1      3710 9.77069E-05-4.25210E-05-2.36155E-05-2.52978E-05 1.53105E-18 4.42548E-19
 -1      3711 9.15238E-05-2.42331E-05-2.88372E-05-1.34776E-06-2.56709E-19-1.38303E-18
 -1      3712 9.13487E-05-2.40971E-05-2.88298E-05-7.28713E-07-1.37746E-19-9.71986E-20
 -1      3713 9.08133E-05-2.37421E-05-2.87359E-05-4.25516E-07-1.75558E-19 4.62810E-19
 -1      3714 9.12436E-05-2.41139E-05-2.87626E-05-1.86819E-06-8.28776E-19-2.70930E-18
 -1      3715 9.36167E-05-2.59326E-05-2.90136E-05-3.63303E-06-8.87172E-19 1.00257E-18
 -1      3716 9.31288E-05-2.55994E-05-2.89436E-05-3.81906E-06-6.51400E-19 2.04235E-19
 -1      3717 9.55146E-05-2.50501E-05-3.02069E-05 1.79191E-06 1.36575E-18-1.05571E-18
 -1      3718 9.28632E-05-2.54397E-05-2.88965E-05-4.08624E-06-1.23040E-18 1.75530E-19
 -1      3719 9.08532E-05-2.39731E-05-2.86596E-05-5.43027E-06 9.22209E-20-8.75269E-19
 -1      3720 9.12823E-05-2.43093E-05-2.87174E-05-4.93294E-06 3.23681E-19-8.32973E-19
 -1      3721 9.63576E-05-2.81856E-05-2.92142E-05 8.63000E-07-2.37595E-19-3.15126E-19
 -1      3722 9.62884E-05-2.83114E-05-2.91341E-05 1.01988E-06-2.14840E-19-4.51412E-19
 -1      3723 9.61816E-05-2.83747E-05-2.90592E-05 1.12360E-06-3.60233E-20-3.43175E-19
 -1      3724 9.60763E-05-2.83935E-05-2.90066E-05 1.24075E-06 1.67453E-19-3.81932E-19
 -1      3725 9.63310E-05-2.82889E-05-2.91610E-05 9.25249E-07-4.61653E-20-7.15475E-20
 -1      3726 9.59196E-05-2.83571E-05-2.89558E-05 1.32555E-06 1.96081E-19-4.39241E-19
 -1      3727 9.57877E-05-2.82943E-05-2.89244E-05 1.42864E-06 3.90417E-20-4.30144E-19
 -1      3728 9.60697E-05-2.83301E-05-2.90313E-05 1.12279E-06 8.90380E-20-1.02869E-19
 -1      3729 9.55911E-05-2.81810E-05-2.88919E-05 1.51414E-06-1.19848E-19-4.80169E-19
 -1      3730 9.54370E-05-2.80552E-05-2.88758E-05 1.62404E-06-1.34923E-19-4.87250E-19
 -1      3731 9.57196E-05-2.81822E-05-2.89443E-05 1.29919E-06-1.07458E-19-8.09163E-20
 -1      3732 9.52043E-05-2.78813E-05-2.88558E-05 1.72667E-06-3.35129E-19-6.07523E-19
 -1      3733 9.50293E-05-2.77065E-05-2.88500E-05 1.86035E-06-4.02579E-19-6.39029E-19
 -1      3734 9.52942E-05-2.78863E-05-2.88881E-05 1.48928E-06-2.12478E-19-1.32792E-19
 -1      3735 9.47608E-05-2.74849E-05-2.88369E-05 1.99421E-06-5.78430E-19-8.08554E-19
 -1      3736 9.45649E-05-2.72732E-05-2.88363E-05 2.16545E-06-7.49412E-19-8.37465E-19
 -1      3737 9.47973E-05-2.74736E-05-2.88511E-05 1.72294E-06-5.78042E-19-5.28792E-19
 -1      3738 9.42587E-05-2.70155E-05-2.88242E-05 2.34317E-06-4.90478E-19-5.95637E-19
 -1      3739 9.40425E-05-2.67801E-05-2.88233E-05 2.56354E-06-3.07792E-19-6.99765E-19
 -1      3740 9.42271E-05-2.69695E-05-2.88217E-05 2.02609E-06-4.81947E-19-2.10690E-19
 -1      3741 9.36974E-05-2.65003E-05-2.88058E-05 2.79685E-06-7.45071E-19-6.30858E-19
 -1      3742 9.34644E-05-2.62581E-05-2.87986E-05 3.07589E-06-1.13376E-18-5.71642E-19
 -1      3743 9.35803E-05-2.64008E-05-2.87872E-05 2.42313E-06-4.92135E-19-4.93635E-19
 -1      3744 9.30810E-05-2.59742E-05-2.87684E-05 3.37692E-06-1.22785E-18-5.63650E-19
 -1      3745 9.28404E-05-2.57491E-05-2.87483E-05 3.72373E-06-1.12152E-18-7.71548E-19
 -1      3746 9.28557E-05-2.57994E-05-2.87335E-05 2.93739E-06-1.11233E-18-3.23046E-19
 -1      3747 9.24253E-05-2.54881E-05-2.86969E-05 4.10710E-06-6.28559E-19-8.44160E-19
 -1      3748 9.21968E-05-2.53161E-05-2.86563E-05 4.53089E-06-5.56283E-19-5.37950E-19
 -1      3749 9.20595E-05-2.52098E-05-2.86443E-05 3.59663E-06-9.11787E-19 1.44413E-19
 -1      3750 9.17665E-05-2.51185E-05-2.85742E-05 5.01510E-06-1.90206E-19-4.29998E-19
 -1      3751 9.15867E-05-2.50524E-05-2.85048E-05 5.52623E-06 1.04867E-19 2.96510E-19
 -1      3752 9.12132E-05-2.46977E-05-2.85010E-05 4.43597E-06 7.77032E-20-1.39513E-19
 -1      3753 9.11731E-05-2.49766E-05-2.83814E-05 6.13667E-06 1.59131E-19 1.05693E-18
 -1      3754 9.11047E-05-2.50931E-05-2.82758E-05 6.74764E-06 1.66563E-19 1.60609E-18
 -1      3755 9.03619E-05-2.43593E-05-2.82822E-05 5.50317E-06 5.25378E-19 5.74009E-19
 -1      3756 9.07656E-05-2.52232E-05-2.81008E-05 7.51976E-06-2.31888E-19 1.38168E-18
 -1      3757 9.09108E-05-2.56310E-05-2.79546E-05 8.24364E-06 3.76679E-19 1.17635E-18
 -1      3758 8.95897E-05-2.43333E-05-2.79654E-05 6.86750E-06-1.27339E-19 1.36239E-18
 -1      3759 9.07476E-05-2.60855E-05-2.77209E-05 9.22207E-06 8.77148E-19 8.60505E-19
 -1      3760 9.12665E-05-2.69356E-05-2.75381E-05 1.00641E-05 1.04107E-18 8.75275E-19
 -1      3761 8.90455E-05-2.48209E-05-2.75304E-05 8.62538E-06 5.10876E-19 1.30591E-18
 -1      3762 9.14510E-05-2.78707E-05-2.72473E-05 1.12906E-05 1.10229E-18 9.74410E-19
 -1      3763 9.25672E-05-2.93645E-05-2.70471E-05 1.22309E-05 1.20820E-18 8.97595E-19
 -1      3764 8.89872E-05-2.61163E-05-2.69679E-05 1.08928E-05 1.06112E-18 5.30694E-19
 -1      3765 9.34635E-05-3.10614E-05-2.67200E-05 1.36397E-05 1.36244E-18 9.08539E-19
 -1      3766 9.54933E-05-3.33509E-05-2.65705E-05 1.45241E-05 9.75877E-19 1.24661E-18
 -1      3767 8.99089E-05-2.87059E-05-2.62919E-05 1.38088E-05 1.32884E-18 6.78917E-20
 -1      3768 1.26166E-04-4.51733E-05-3.47073E-05-8.35523E-06-3.16393E-19-2.20652E-19
 -1      3769 9.44891E-05-2.22810E-05-3.09641E-05 2.52864E-06 1.37513E-18-1.52864E-18
 -1      3770 9.42685E-05-2.17843E-05-3.10702E-05 2.10494E-06 1.26819E-18-1.74825E-18
 -1      3771 9.48330E-05-2.28070E-05-3.08486E-05 1.49934E-06 1.06959E-18-1.62722E-18
 -1      3772 1.19150E-04-5.26552E-05-2.81863E-05 1.45940E-05 9.29089E-20-1.72084E-18
 -1      3773 9.83963E-05-3.63336E-05-2.65232E-05-1.53627E-05 1.40485E-19 8.73878E-19
 -1      3774 9.57300E-05-3.35557E-05-2.66047E-05-1.47529E-05-6.99383E-19 2.27498E-19
 -1      3775 9.43400E-05-3.14146E-05-2.69144E-05-1.32814E-05-3.86676E-19-3.64261E-19
 -1      3776 9.27649E-05-2.95215E-05-2.70942E-05-1.24205E-05-5.02362E-19-5.71797E-19
 -1      3777 9.15302E-05-3.08852E-05-2.60591E-05-1.53702E-05-8.79821E-19-1.00863E-18
 -1      3778 9.22578E-05-2.82344E-05-2.73997E-05-1.11113E-05-4.94133E-19-2.12313E-19
 -1      3779 9.14474E-05-2.70796E-05-2.75900E-05-1.02589E-05 3.35200E-19-2.79844E-19
 -1      3780 8.98361E-05-2.74968E-05-2.67512E-05-1.22807E-05-1.19193E-19-8.68192E-19
 -1      3781 9.14282E-05-2.63802E-05-2.78506E-05-9.18907E-06 4.19141E-19-1.74422E-19
 -1      3782 9.10997E-05-2.57493E-05-2.80161E-05-8.42671E-06 3.17841E-19-8.49240E-19
 -1      3783 8.94203E-05-2.55991E-05-2.73644E-05-9.78031E-06 3.23028E-19-3.93799E-19
 -1      3784 9.13373E-05-2.54423E-05-2.82226E-05-7.56935E-06 5.80122E-19-1.01694E-18
 -1      3785 9.12930E-05-2.51617E-05-2.83523E-05-6.90821E-06 1.09338E-18-9.49058E-19
 -1      3786 8.96970E-05-2.46867E-05-2.78636E-05-7.81610E-06-4.53446E-20 4.69901E-19
 -1      3787 9.16523E-05-2.51049E-05-2.85082E-05-6.22159E-06 1.62512E-18-1.13718E-18
 -1      3788 9.17616E-05-2.50428E-05-2.86037E-05-5.65310E-06 7.47333E-19-6.55842E-19
 -1      3789 9.03240E-05-2.44041E-05-2.82484E-05-6.27391E-06 8.66299E-19-4.40654E-19
 -1      3790 9.21596E-05-2.51343E-05-2.87182E-05-5.09738E-06-7.01620E-19-5.58104E-19
 -1      3791 9.23368E-05-2.51882E-05-2.87872E-05-4.61155E-06-1.57065E-18-3.02351E-19
 -1      3792 9.10938E-05-2.45014E-05-2.85352E-05-5.05583E-06 4.45086E-19-9.75176E-19
 -1      3793 9.20490E-05-2.48875E-05-2.87747E-05-3.99317E-06-7.73603E-19 3.34551E-19
 -1      3794 9.27994E-05-2.54762E-05-2.88503E-05-3.77104E-06-1.11704E-19-5.53597E-19
 -1      3795 9.31097E-05-2.58081E-05-2.88533E-05-3.42683E-06-5.75913E-20-2.27447E-19
 -1      3796 8.96391E-05-2.32912E-05-2.84292E-05-6.52578E-06 8.99393E-21-5.75924E-19
 -1      3797 9.01126E-05-2.35680E-05-2.85373E-05-5.93104E-06-1.22729E-20-6.33452E-19
 -1      3798 8.94732E-05-2.31335E-05-2.84143E-05-5.07232E-06 1.04251E-20-9.84103E-19
 -1      3799 8.83014E-05-2.28138E-05-2.80551E-05-7.87760E-06 6.14812E-19-6.68894E-19
 -1      3800 8.87763E-05-2.29509E-05-2.82339E-05-7.15305E-06 3.93078E-19-6.66240E-19
 -1      3801 8.78813E-05-2.23162E-05-2.80783E-05-6.10842E-06 3.41382E-19-1.03170E-18
 -1      3802 8.69428E-05-2.27545E-05-2.74867E-05-9.61084E-06 6.25363E-19-1.05945E-18
 -1      3803 8.73239E-05-2.26227E-05-2.77583E-05-8.69756E-06 8.90085E-19-6.80459E-19
 -1      3804 8.60457E-05-2.16767E-05-2.75615E-05-7.44428E-06 7.94031E-19-1.13187E-18
 -1      3805 8.57749E-05-2.34544E-05-2.66679E-05-1.19474E-05 1.80738E-19-1.23585E-18
 -1      3806 8.58845E-05-2.28469E-05-2.70528E-05-1.07464E-05 4.20266E-19-1.17470E-18
 -1      3807 8.39910E-05-2.13966E-05-2.67963E-05-9.27252E-06 4.17647E-19-6.92182E-19
 -1      3808 8.53512E-05-2.55167E-05-2.55776E-05-1.52149E-05-2.97959E-20-1.96259E-18
 -1      3809 8.47167E-05-2.39742E-05-2.60526E-05-1.35934E-05 2.20262E-19-1.69629E-18
 -1      3810 8.18646E-05-2.18021E-05-2.56934E-05-1.19584E-05 4.45266E-19-2.75102E-19
 -1      3811 8.47720E-05-2.78405E-05-2.43324E-05-1.88144E-05-6.82116E-19-2.72996E-18
 -1      3812 1.01499E-04-4.12089E-05-2.56645E-05 1.88618E-05-3.41857E-20 9.00295E-19
 -1      3813 8.76035E-05-2.26834E-05-2.78527E-05 8.61379E-06-6.93552E-19-2.60780E-19
 -1      3814 8.71945E-05-2.27802E-05-2.75861E-05 9.50272E-06-6.03901E-19 1.64164E-19
 -1      3815 8.49160E-05-2.39122E-05-2.61880E-05 1.33006E-05-1.43627E-18-1.04438E-19
 -1      3816 8.53734E-05-2.52485E-05-2.57215E-05 1.48853E-05-1.18037E-18 5.73842E-19
 -1      3817 9.03714E-05-2.35941E-05-2.86362E-05 5.89897E-06-2.52313E-19 1.10384E-18
 -1      3818 8.99046E-05-2.33423E-05-2.85219E-05 6.49534E-06-6.55177E-19 1.03774E-19
 -1      3819 9.15068E-05-2.42486E-05-2.88382E-05 4.88516E-06 9.94583E-19 9.64960E-19
 -1      3820 9.10923E-05-2.39612E-05-2.87681E-05 5.39473E-06 1.02640E-18 1.15335E-18
 -1      3821 8.97758E-05-2.31511E-05-2.85366E-05 5.04344E-06-2.27591E-19 5.08548E-19
 -1      3822 9.01192E-05-2.33133E-05-2.86364E-05 7.78452E-07 6.55102E-19 1.45727E-18
 -1      3823 9.02882E-05-2.34023E-05-2.86663E-05 1.56435E-06 3.26876E-19 1.52276E-18
 -1      3824 9.09010E-05-3.51316E-05-2.40617E-05 2.21028E-05 2.82485E-19-2.52456E-19
 -1      3825 8.17265E-05-2.80624E-05-2.29019E-05 2.03981E-05 1.14114E-18-7.77480E-19
 -1      3826 9.51710E-05-2.38467E-05-3.05523E-05 2.11328E-06 1.24787E-18-1.31627E-18
 -1      3827 9.59880E-05-2.62509E-05-2.98966E-05 5.07340E-07 1.00544E-18-1.16835E-18
 -1      3828 9.58205E-05-2.55493E-05-3.01114E-05 1.06368E-06 1.10740E-18-1.27581E-18
 -1      3829 7.52223E-05-2.55867E-05-2.14498E-05 2.17532E-05-5.14751E-19 6.70321E-19
 -1      3830 6.62469E-05-1.90059E-05-1.98855E-05 1.66798E-05-2.22349E-18 6.27863E-20
 -1      3831 9.60218E-05-2.84068E-05-2.89775E-05-1.33323E-06 1.53316E-19-5.97839E-19
 -1      3832 9.61081E-05-2.83762E-05-2.90264E-05-1.20760E-06 4.05506E-19-6.75886E-19
 -1      3833 9.19074E-05-2.47275E-05-2.87888E-05-4.52343E-06-3.43095E-20-6.04889E-19
 -1      3834 9.22771E-05-2.50753E-05-2.88127E-05-4.10713E-06-2.28751E-19-9.02116E-19
 -1      3835 9.08259E-05-2.40094E-05-2.86222E-05-4.23389E-06 1.48933E-19-1.37585E-18
 -1      3836 9.30922E-05-2.53222E-05-2.90504E-05 3.56931E-06-1.66146E-19-6.65304E-19
 -1      3837 8.69942E-05-3.21852E-05-2.32207E-05 2.28955E-05-6.78162E-19 2.60062E-19
 -1      3838 9.35438E-05-2.61745E-05-2.88699E-05-3.15392E-06 1.68044E-19 2.19539E-19
 -1      3839 9.38011E-05-2.64756E-05-2.88616E-05-2.87493E-06 6.01289E-19 1.83548E-19
 -1      3840 9.29065E-05-2.56759E-05-2.88054E-05-2.97270E-06 3.84983E-19 2.49438E-19
 -1      3841 9.53720E-05-2.43617E-05-3.04324E-05 1.63330E-06 1.12117E-18-1.38233E-18
 -1      3842 9.62000E-05-2.83026E-05-2.91001E-05-1.08844E-06 5.20428E-19-7.63320E-19
 -1      3843 9.62573E-05-2.81678E-05-2.91779E-05-9.14699E-07 3.74056E-19-8.11645E-19
 -1      3844 9.62783E-05-2.82857E-05-2.91402E-05-1.01657E-06 3.46015E-19-7.70652E-19
 -1      3845 9.51085E-05-2.77781E-05-2.88533E-05-1.96731E-06 1.15172E-19 8.98269E-20
 -1      3846 9.52591E-05-2.79478E-05-2.88508E-05-1.83335E-06 1.63545E-19-1.26450E-19
 -1      3847 9.62852E-05-2.68964E-05-2.97369E-05-5.44429E-08-1.79869E-19-7.30809E-19
 -1      3848 9.63559E-05-2.73517E-05-2.95778E-05 2.76725E-07-3.76506E-20-6.07036E-19
 -1      3849 7.41228E-05-2.29500E-05-2.20476E-05 1.79242E-05 1.20374E-18 1.84666E-19
 -1      3850 6.91943E-05-1.88487E-05-2.14458E-05 1.36590E-05 1.23285E-18 8.04271E-19
 -1      3851 9.62867E-05-2.79658E-05-2.92838E-05-7.42199E-07 3.07075E-19-9.88637E-19
 -1      3852 9.63009E-05-2.76926E-05-2.93981E-05-4.86214E-07 4.87007E-19-1.05721E-18
 -1      3853 9.63985E-05-2.79745E-05-2.93247E-05-7.11949E-07 2.31857E-19-8.47072E-19
 -1      3854 8.61272E-05-2.28353E-05-2.71626E-05 1.06060E-05-1.06724E-18 2.43058E-19
 -1      3855 8.59643E-05-2.33891E-05-2.67841E-05 1.17756E-05-1.35552E-18 3.80378E-19
 -1      3856 8.43438E-05-2.14540E-05-2.69256E-05 9.13467E-06-7.28635E-19 5.65280E-19
 -1      3857 6.28067E-05-1.46817E-05-2.06011E-05-3.73191E-06 1.70197E-18 3.45986E-19
 -1      3858 6.60012E-05-1.70164E-05-2.09835E-05-1.13787E-05 9.45268E-19-1.07708E-18
 -1      3859 9.62394E-05-2.73189E-05-2.95436E-05-2.26047E-07 7.14248E-19-1.04188E-18
 -1      3860 9.61920E-05-2.68657E-05-2.97031E-05 1.54746E-07 9.00237E-19-8.99118E-19
 -1      3861 9.61319E-05-2.63205E-05-2.99243E-05 3.62283E-07 8.66392E-19-1.06127E-18
 -1      3862 9.63638E-05-2.73410E-05-2.95810E-05-2.67760E-07 6.40799E-19-8.08100E-19
 -1      3863 6.46467E-05-1.62167E-05-2.08337E-05 8.98323E-06 1.64539E-18 4.20353E-19
 -1      3864 6.23358E-05-1.43793E-05-2.04613E-05 2.57045E-06 1.54186E-18 5.52173E-19
 -1      3865 8.31655E-05-2.79756E-05-2.35302E-05 1.96601E-05-9.85721E-19 8.04284E-20
 -1      3866 1.04607E-04-4.24170E-05-2.65764E-05-1.62322E-05 2.07718E-18-1.21194E-20
 -1      3867 1.00695E-04-3.89265E-05-2.63780E-05-1.64180E-05 9.25792E-19 6.12665E-19
 -1      3868 9.49934E-05-3.56913E-05-2.55033E-05-1.83927E-05 4.91729E-19-1.04354E-18
 -1      3869 1.00758E-04-4.18210E-05-2.53247E-05-2.05313E-05 2.22770E-18 2.95916E-19
 -1      3870 9.64125E-05-2.77239E-05-2.94346E-05 4.89650E-07-2.12362E-20-5.70424E-19
 -1      3871 9.63969E-05-2.79912E-05-2.93199E-05 7.17036E-07-1.26391E-19-5.37875E-19
 -1      3872 9.64625E-05-2.73967E-05-2.95987E-05 2.96399E-07-3.63687E-20-2.34778E-19
 -1      3873 8.90547E-05-2.30186E-05-2.83240E-05 7.11166E-06 3.46856E-20-1.90707E-19
 -1      3874 8.85750E-05-2.28828E-05-2.81449E-05 7.82521E-06-3.29209E-19-1.55025E-19
 -1      3875 8.64042E-05-2.17784E-05-2.76737E-05 7.37444E-06-4.04485E-19 1.21007E-18
 -1      3876 8.82174E-05-2.23974E-05-2.81882E-05 6.07626E-06-5.82284E-19 1.63087E-18
 -1      3877 9.78901E-05-3.72625E-05-2.58582E-05 1.72166E-05 4.39299E-19 9.65887E-19
 -1      3878 9.24757E-05-2.48653E-05-2.89736E-05 3.64344E-06 7.48327E-19 2.60432E-19
 -1      3879 6.30356E-05-1.46203E-05-2.08229E-05 5.16183E-07-1.56724E-18 5.90183E-19
 -1      3880 6.33079E-05-1.46647E-05-2.06383E-05-3.71943E-06-1.26779E-18-6.20743E-19
 -1      3881 6.60178E-05-1.63575E-05-2.12794E-05-7.31805E-06-4.68280E-19-1.15337E-18
 -1      3882 9.14397E-05-2.44567E-05-2.87138E-05-3.49264E-06-6.34988E-19-9.20611E-21
 -1      3883 8.98398E-05-2.31293E-05-2.85871E-05 2.00120E-06 3.24145E-19 7.47688E-19
 -1      3884 9.06008E-05-2.36109E-05-2.87187E-05 2.30548E-06 8.50524E-19 4.49547E-19
 -1      3885 9.09972E-05-2.38541E-05-2.87702E-05 2.86916E-06 1.35549E-18 3.88018E-19
 -1      3886 8.96638E-05-3.08184E-05-2.52309E-05 1.72397E-05 1.24642E-18 9.40802E-20
 -1      3887 9.46751E-05-3.41118E-05-2.58898E-05 1.65997E-05 6.09696E-19 9.54659E-19
 -1      3888 9.54719E-05-2.44641E-05-3.04333E-05 1.29749E-06 9.88531E-19-1.46140E-18
 -1      3889 9.19609E-05-2.48714E-05-2.87423E-05-3.54238E-06 1.13276E-19-9.79261E-19
 -1      3890 9.64763E-05-2.80020E-05-2.93457E-05 6.65154E-07-1.08288E-19-3.05666E-19
 -1      3891 7.96073E-05-2.43080E-05-2.37668E-05-1.72822E-05-4.51947E-20-1.88420E-18
 -1      3892 7.13421E-05-2.27041E-05-2.06209E-05-1.98994E-05-1.58585E-18 5.87219E-19
 -1      3893 7.78985E-05-2.65184E-05-2.20502E-05-2.07434E-05-1.34703E-18-6.83489E-19
 -1      3894 7.08307E-05-2.04247E-05-2.15930E-05-1.55004E-05-1.93380E-18 5.03376E-19
 -1      3895 7.76383E-05-2.20683E-05-2.37328E-05 1.52018E-05-1.98545E-18 1.05705E-18
 -1      3896 8.19573E-05-2.53562E-05-2.42176E-05 1.73559E-05-1.31611E-18 2.06289E-19
 -1      3897 9.58839E-05-2.83820E-05-2.89295E-05-1.42583E-06-4.14583E-21-5.85680E-19
 -1      3898 9.60511E-05-2.83534E-05-2.90138E-05-1.23974E-06 9.50190E-20-7.75134E-19
 -1      3899 9.57759E-05-2.83321E-05-2.89030E-05-1.53246E-06-4.76264E-20-4.50647E-19
 -1      3900 9.24511E-05-2.48652E-05-2.89679E-05 4.01898E-06 9.47648E-19-5.21520E-19
 -1      3901 9.21036E-05-2.46032E-05-2.89260E-05 4.45201E-06 9.69702E-19 1.39311E-19
 -1      3902 9.60651E-05-2.59987E-05-3.00312E-05-5.17313E-07-1.19111E-19-1.08614E-18
 -1      3903 9.61762E-05-2.64685E-05-2.98765E-05-2.39764E-07-1.50909E-19-9.40044E-19
 -1      3904 9.62927E-05-2.65529E-05-2.98860E-05-1.25346E-07 1.75879E-19-5.72175E-19
 -1      3905 9.54717E-05-2.81148E-05-2.88651E-05-1.73161E-06 1.90366E-19-4.32550E-19
 -1      3906 9.55999E-05-2.82296E-05-2.88747E-05-1.62064E-06 1.73862E-19-3.53174E-19
 -1      3907 9.53567E-05-2.79543E-05-2.88858E-05-1.62186E-06 4.89915E-20-5.11849E-19
 -1      3908 8.10699E-05-2.58023E-05-2.35790E-05 1.71179E-05 7.48466E-19-6.75648E-19
 -1      3909 9.40509E-05-2.12585E-05-3.11961E-05-9.02602E-08 6.05132E-19-1.87931E-18
 -1      3910 9.43199E-05-2.18074E-05-3.10934E-05-4.63933E-07 4.50624E-19-1.74336E-18
 -1      3911 9.47339E-05-2.25204E-05-3.09406E-05 1.26655E-07 6.53737E-19-1.95853E-18
 -1      3912 8.22347E-05-2.18133E-05-2.58548E-05 1.17089E-05-9.84699E-19 6.60749E-19
 -1      3913 6.99812E-05-1.79183E-05-2.22215E-05 9.87522E-06 1.12962E-18 2.50619E-19
 -1      3914 6.57078E-05-1.72303E-05-2.06305E-05 1.07227E-05-1.95637E-18 1.06651E-18
 -1      3915 9.56786E-05-2.48857E-05-3.03459E-05-9.87676E-07-1.79295E-20-1.38787E-18
 -1      3916 9.58954E-05-2.55010E-05-3.01687E-05-6.92209E-07-5.68001E-20-1.22741E-18
 -1      3917 9.60195E-05-2.56412E-05-3.01588E-05-4.80792E-07 1.90731E-19-1.11629E-18
 -1      3918 9.56023E-05-2.45541E-05-3.04461E-05-8.23094E-07 2.45870E-19-1.45887E-18
 -1      3919 9.10713E-05-2.39130E-05-2.87707E-05 4.18341E-06 1.65724E-18 6.56622E-19
 -1      3920 9.46772E-05-2.73365E-05-2.88575E-05-2.26852E-06 1.99870E-19 1.69862E-19
 -1      3921 9.48554E-05-2.75546E-05-2.88478E-05-2.09695E-06 3.23909E-19 1.62697E-19
 -1      3922 9.48961E-05-2.75479E-05-2.88614E-05-1.85123E-06 1.22991E-19-1.24042E-19
 -1      3923 9.41624E-05-2.67991E-05-2.88672E-05-2.65787E-06 3.27663E-19-2.66803E-19
 -1      3924 9.43757E-05-2.70613E-05-2.88552E-05-2.43721E-06 1.40186E-19-1.36578E-21
 -1      3925 9.43479E-05-2.70263E-05-2.88484E-05-2.14084E-06 3.42843E-19-1.89342E-20
 -1      3926 9.36928E-05-2.63990E-05-2.88347E-05-2.50953E-06 1.49280E-19-3.45793E-19
 -1      3927 9.54175E-05-2.42037E-05-3.05323E-05 1.13212E-06 9.11350E-19-1.46693E-18
 -1      3928 9.53027E-05-2.38713E-05-3.06195E-05 8.80449E-07 8.20457E-19-1.59082E-18
 -1      3929 9.59005E-05-2.53374E-05-3.02254E-05 6.70013E-07 7.62157E-19-1.39119E-18
 -1      3930 9.52699E-05-2.37186E-05-3.06747E-05 6.67020E-07 7.78042E-19-1.91231E-18
 -1      3931 9.52071E-05-2.35366E-05-3.07165E-05 3.44038E-07 6.77244E-19-1.86570E-18
 -1      3932 9.58458E-05-2.49330E-05-3.03740E-05 3.86902E-07 7.16616E-19-1.71478E-18
 -1      3933 9.00990E-05-2.33347E-05-2.86197E-05-1.38066E-07 1.13739E-18-2.50558E-20
 -1      3934 8.95115E-05-2.29561E-05-2.85135E-05 2.96791E-07 1.06390E-18 4.58618E-19
 -1      3935 9.02157E-05-2.34360E-05-2.86208E-05-9.15709E-07 1.73317E-19-1.50067E-18
 -1      3936 6.66102E-05-1.54686E-05-2.18073E-05-1.18331E-06 1.26006E-18 2.14074E-19
 -1      3937 9.04090E-05-3.71375E-05-2.26798E-05-2.57764E-05 1.31956E-18 7.27416E-19
 -1      3938 9.73690E-05-4.01454E-05-2.44433E-05-2.22300E-05 1.64025E-18-3.07122E-19
 -1      3939 9.38346E-05-3.66456E-05-2.44540E-05-2.11587E-05 1.92536E-18-2.62726E-19
 -1      3940 8.55321E-05-3.26898E-05-2.26321E-05-2.37994E-05 7.20713E-19 5.98508E-19
 -1      3941 9.44345E-05-2.20029E-05-3.10401E-05-7.38698E-07 3.83241E-19-1.73877E-18
 -1      3942 9.47199E-05-2.26204E-05-3.09156E-05-1.00446E-06 2.82861E-19-1.67222E-18
 -1      3943 9.52337E-05-2.36273E-05-3.06788E-05-8.08209E-07 3.51437E-19-1.65878E-18
 -1      3944 9.50381E-05-2.31190E-05-3.08089E-05-4.09485E-07 3.84871E-19-1.57393E-18
 -1      3945 6.97689E-05-1.69260E-05-2.26846E-05-6.19007E-06-7.75000E-19-1.21162E-19
 -1      3946 7.01013E-05-1.81209E-05-2.20858E-05-1.11989E-05-1.36439E-18 1.65304E-19
 -1      3947 9.64628E-05-2.82249E-05-2.92442E-05 7.00083E-07-8.29371E-20-4.97311E-19
 -1      3948 9.63569E-05-2.83067E-05-2.91652E-05 8.13949E-07 1.24344E-20-4.53552E-19
 -1      3949 8.63221E-05-2.15033E-05-2.77820E-05-5.26668E-06 5.42823E-19-9.38646E-19
 -1      3950 8.71982E-05-2.19224E-05-2.79985E-05-4.75854E-06 2.14490E-19-9.11041E-19
 -1      3951 8.69395E-05-2.74621E-05-2.54610E-05 1.48408E-05 1.44073E-18 8.86903E-20
 -1      3952 8.51200E-05-2.76571E-05-2.47140E-05 1.66173E-05 1.13667E-18-6.42676E-19
 -1      3953 7.89092E-05-2.28058E-05-2.39508E-05 1.42612E-05 7.59914E-19-1.03762E-19
 -1      3954 8.62016E-05-2.58599E-05-2.58773E-05 1.30048E-05 1.02593E-18 1.04038E-19
 -1      3955 9.62061E-05-2.83234E-05-2.90929E-05 8.79117E-07 7.24860E-20-5.87711E-19
 -1      3956 9.60498E-05-2.82935E-05-2.90383E-05 9.72059E-07 4.86470E-20-6.35719E-19
 -1      3957 9.63276E-05-2.82675E-05-2.91680E-05 6.62984E-07-3.21499E-20-8.74047E-19
 -1      3958 9.58413E-05-2.82076E-05-2.89872E-05 1.03231E-06-5.49439E-20-4.65153E-19
 -1      3959 9.56446E-05-2.80908E-05-2.89509E-05 1.12205E-06-1.96354E-20-4.72067E-19
 -1      3960 9.59707E-05-2.82032E-05-2.90422E-05 7.92644E-07 2.45586E-20-7.97770E-19
 -1      3961 9.53860E-05-2.79236E-05-2.89149E-05 1.19010E-06 9.12675E-20-4.72762E-19
 -1      3962 9.51528E-05-2.77376E-05-2.88911E-05 1.29180E-06-2.33016E-19-3.01554E-19
 -1      3963 9.55071E-05-2.79470E-05-2.89528E-05 9.21629E-07-1.15375E-20-6.74424E-19
 -1      3964 9.48455E-05-2.75043E-05-2.88643E-05 1.37964E-06-6.56254E-19-1.16423E-19
 -1      3965 9.45764E-05-2.72634E-05-2.88471E-05 1.50687E-06-4.82332E-19-6.38905E-20
 -1      3966 9.49458E-05-2.75360E-05-2.88877E-05 1.07243E-06-2.14434E-19 8.24161E-21
 -1      3967 9.42190E-05-2.69771E-05-2.88230E-05 1.62478E-06-4.68934E-19-1.49201E-19
 -1      3968 9.39118E-05-2.66931E-05-2.88064E-05 1.78904E-06-5.71938E-19-1.94079E-20
 -1      3969 9.42872E-05-2.69992E-05-2.88343E-05 1.26785E-06-5.02340E-19 4.06561E-20
 -1      3970 9.34987E-05-2.63650E-05-2.87781E-05 1.94872E-06-4.85398E-19-1.83484E-19
 -1      3971 9.31523E-05-2.60527E-05-2.87552E-05 2.16180E-06-5.32392E-19-3.88529E-19
 -1      3972 9.35238E-05-2.63605E-05-2.87792E-05 1.52609E-06-6.43986E-19 4.85238E-20
 -1      3973 9.26787E-05-2.56974E-05-2.87147E-05 2.37448E-06-7.47600E-19-3.78504E-19
 -1      3974 9.22932E-05-2.53731E-05-2.86778E-05 2.64793E-06-1.01821E-18-2.78575E-19
 -1      3975 9.26444E-05-2.56451E-05-2.87070E-05 1.87362E-06-5.98802E-19-4.42324E-19
 -1      3976 9.17528E-05-2.50075E-05-2.86158E-05 2.93071E-06-8.57992E-19 2.68682E-19
 -1      3977 9.13350E-05-2.46968E-05-2.85559E-05 3.28039E-06-6.34485E-19 3.91354E-19
 -1      3978 9.16371E-05-2.48841E-05-2.86002E-05 2.33122E-06-6.07774E-19 2.45471E-19
 -1      3979 9.07276E-05-2.43489E-05-2.84612E-05 3.65401E-06-2.58549E-19 5.93365E-19
 -1      3980 9.02929E-05-2.40886E-05-2.83679E-05 4.09979E-06 5.74036E-19 9.13573E-19
 -1      3981 9.04971E-05-2.41183E-05-2.84378E-05 2.94274E-06-3.28926E-19 1.00916E-18
 -1      3982 8.96203E-05-2.37955E-05-2.82271E-05 4.59471E-06 9.40849E-19 6.63627E-19
 -1      3983 8.91996E-05-2.36381E-05-2.80887E-05 5.16609E-06 6.16518E-19 1.05461E-18
 -1      3984 8.92235E-05-2.34082E-05-2.81945E-05 3.75579E-06 4.58618E-19 1.21847E-18
 -1      3985 8.84716E-05-2.34530E-05-2.78858E-05 5.82918E-06 1.13444E-19 7.30483E-19
 -1      3986 8.81215E-05-2.34746E-05-2.76899E-05 6.56933E-06 8.61016E-20 7.26636E-19
 -1      3987 8.78260E-05-2.28347E-05-2.78395E-05 4.84963E-06 2.95815E-19 3.53646E-19
 -1      3988 8.73607E-05-2.34730E-05-2.74060E-05 7.47435E-06 1.11042E-19 1.53033E-18
 -1      3989 8.71810E-05-2.37857E-05-2.71426E-05 8.44398E-06 4.90494E-19 9.30679E-19
 -1      3990 8.63308E-05-2.25108E-05-2.73358E-05 6.34667E-06 6.54993E-19 1.12282E-18
 -1      3991 8.64461E-05-2.40767E-05-2.67575E-05 9.70111E-06 7.90789E-19 6.82500E-19
 -1      3992 8.66345E-05-2.48675E-05-2.64251E-05 1.09718E-05 8.43717E-19 4.70624E-19
 -1      3993 8.48085E-05-2.26069E-05-2.66383E-05 8.45659E-06 4.73346E-19 4.11744E-19
 -1      3994 8.80413E-05-2.92371E-05-2.51395E-05-1.64511E-05-8.25932E-19-2.37409E-18
 -1      3995 8.68277E-05-2.72438E-05-2.55541E-05-1.45813E-05-1.22900E-18-2.26906E-18
 -1      3996 9.64933E-05-2.71103E-05-2.97355E-05 1.17818E-07 1.06540E-19-5.46818E-19
 -1      3997 9.65533E-05-2.75246E-05-2.95869E-05 3.36981E-07-7.22857E-20-5.28656E-19
 -1      3998 8.72171E-05-2.61607E-05-2.61123E-05-1.26196E-05-5.96755E-19-1.38855E-18
 -1      3999 8.67296E-05-2.50260E-05-2.64718E-05-1.11919E-05 3.74878E-19-1.38750E-18
 -1      4000 8.35654E-05-2.47101E-05-2.52644E-05-1.35104E-05-1.02527E-19-1.79472E-18
 -1      4001 8.73573E-05-2.44934E-05-2.69076E-05-9.73403E-06 9.44804E-19-1.14669E-18
 -1      4002 8.73588E-05-2.39424E-05-2.72043E-05-8.64303E-06 2.02771E-19-8.71716E-19
 -1      4003 8.46551E-05-2.32285E-05-2.63112E-05-9.96451E-06 7.33068E-19-1.42097E-18
 -1      4004 8.80726E-05-2.37711E-05-2.75369E-05-7.58687E-06 3.96293E-19-2.37122E-19
 -1      4005 8.83246E-05-2.35803E-05-2.77687E-05-6.74489E-06 9.88990E-19-2.42328E-19
 -1      4006 8.60445E-05-2.27426E-05-2.71158E-05-7.48361E-06 1.06387E-18-6.58611E-19
 -1      4007 8.90420E-05-2.36407E-05-2.80164E-05-5.96774E-06 3.55460E-19 3.05866E-19
 -1      4008 8.94135E-05-2.36730E-05-2.81906E-05-5.31226E-06 5.79903E-20-7.54238E-19
 -1      4009 8.74949E-05-2.27867E-05-2.77181E-05-5.70985E-06 4.36235E-19-9.33352E-19
 -1      4010 9.00890E-05-2.38648E-05-2.83729E-05-4.72385E-06 3.36726E-19-9.19425E-19
 -1      4011 9.04804E-05-2.40007E-05-2.84988E-05-4.21378E-06 5.58576E-19-4.86382E-19
 -1      4012 8.88817E-05-2.31475E-05-2.81625E-05-4.41569E-06-7.37258E-20-7.29138E-19
 -1      4013 8.40295E-05-2.06935E-05-2.71438E-05-6.41045E-06 7.38650E-19-1.55975E-19
 -1      4014 8.50331E-05-2.10140E-05-2.74693E-05-5.73754E-06 7.39283E-19-5.50115E-19
 -1      4015 8.46219E-05-2.05846E-05-2.74098E-05-4.27916E-06 3.16014E-19-2.40629E-19
 -1      4016 8.82502E-05-2.24422E-05-2.82067E-05-4.40023E-06-1.88629E-19-7.96534E-19
 -1      4017 8.89981E-05-2.28991E-05-2.83453E-05-3.99244E-06-1.34144E-19-8.30499E-19
 -1      4018 8.69294E-05-2.16680E-05-2.79433E-05-3.60224E-06 5.64944E-20-6.55049E-19
 -1      4019 8.13188E-05-2.01561E-05-2.62073E-05-8.03501E-06 1.82310E-19-2.86328E-19
 -1      4020 8.24365E-05-2.02874E-05-2.66824E-05-7.07418E-06 5.60363E-19-1.64093E-19
 -1      4021 8.17828E-05-1.95640E-05-2.66181E-05-5.21789E-06 4.59681E-19 8.03375E-19
 -1      4022 7.80838E-05-2.01621E-05-2.48575E-05-1.05987E-05 5.26376E-19-5.81844E-19
 -1      4023 7.92584E-05-1.98526E-05-2.55326E-05-9.01650E-06 4.10967E-19-4.28423E-19
 -1      4024 7.82472E-05-1.86680E-05-2.54589E-05-6.56625E-06 5.79470E-19-1.61853E-19
 -1      4025 8.98649E-05-2.34170E-05-2.84804E-05-3.70171E-06 1.57135E-19-5.78072E-19
 -1      4026 9.04942E-05-2.38742E-05-2.85646E-05-3.36314E-06 3.91409E-19-6.64434E-19
 -1      4027 8.88215E-05-2.27503E-05-2.82967E-05-3.06502E-06 1.75079E-19-3.20815E-19
 -1      4028 8.93366E-05-2.29054E-05-2.84860E-05 3.97391E-06 1.00427E-18-2.39815E-19
 -1      4029 8.86103E-05-2.24967E-05-2.83371E-05 4.38966E-06 2.04197E-19 4.68687E-19
 -1      4030 9.16745E-05-2.43282E-05-2.88736E-05 3.40826E-06 1.71906E-18 1.17527E-19
 -1      4031 7.36100E-05-2.03513E-05-2.27002E-05-1.44720E-05 6.71513E-19-1.67048E-18
 -1      4032 9.65778E-05-2.78496E-05-2.94537E-05 4.58709E-07-4.33889E-20-5.43901E-19
 -1      4033 9.65396E-05-2.80757E-05-2.93439E-05 6.14805E-07-5.69065E-20-4.73227E-19
 -1      4034 9.66092E-05-2.75891E-05-2.95780E-05 2.98340E-07-9.58309E-20-7.94640E-19
 -1      4035 7.97382E-05-1.99502E-05-2.57033E-05 8.87943E-06-4.98878E-19 1.33927E-18
 -1      4036 7.85555E-05-2.01737E-05-2.50363E-05 1.03421E-05-1.15904E-18 1.20090E-18
 -1      4037 9.23337E-05-2.52557E-05-2.87485E-05-2.63538E-06 4.87215E-19-5.01823E-19
 -1      4038 9.27695E-05-2.56511E-05-2.87732E-05-2.40040E-06 4.21158E-19-4.80561E-20
 -1      4039 9.61390E-05-2.60971E-05-3.00226E-05 3.06961E-07 7.64904E-19-1.28267E-18
 -1      4040 9.63352E-05-2.83067E-05-2.91561E-05-9.27303E-07 3.14279E-19-1.20690E-18
 -1      4041 9.64270E-05-2.82088E-05-2.92347E-05-7.95742E-07 3.11150E-19-1.28720E-18
 -1      4042 9.12120E-05-2.43676E-05-2.86494E-05-3.12076E-06 2.33273E-19-6.70664E-19
 -1      4043 9.17369E-05-2.48014E-05-2.86971E-05-2.83720E-06 3.01524E-19-4.07245E-19
 -1      4044 9.03854E-05-2.37933E-05-2.85247E-05-2.61473E-06 4.29417E-19 1.02092E-19
 -1      4045 9.07136E-05-2.40053E-05-2.85851E-05-3.48315E-06 3.43079E-19-1.31019E-18
 -1      4046 9.08353E-05-2.39324E-05-2.86673E-05-2.45275E-06-8.02806E-19-2.46879E-18
 -1      4047 9.04737E-05-2.36722E-05-2.86410E-05-1.77214E-06-6.45474E-19-3.31074E-18
 -1      4048 8.97743E-05-2.34285E-05-2.84399E-05-3.12748E-06 4.43971E-20-1.41473E-18
 -1      4049 8.28982E-05-2.04097E-05-2.68244E-05 6.97033E-06-8.48082E-19 1.64547E-18
 -1      4050 8.17941E-05-2.02441E-05-2.63623E-05 7.90889E-06-3.29086E-19 8.36996E-19
 -1      4051 7.88142E-05-1.88213E-05-2.56263E-05 6.41614E-06-2.91705E-19 1.15428E-18
 -1      4052 7.34740E-05-1.93351E-05-2.33352E-05 1.08163E-05 6.17083E-19 6.43447E-20
 -1      4053 7.01271E-05-1.66505E-05-2.28363E-05 6.05022E-06 1.15143E-18-2.59817E-21
 -1      4054 6.85197E-05-1.57758E-05-2.26421E-05 1.80835E-06 1.07575E-18 2.47797E-19
 -1      4055 6.92208E-05-1.60453E-05-2.28171E-05-4.05829E-06 1.07193E-18 5.77703E-19
 -1      4056 7.44665E-05-1.93038E-05-2.36096E-05-1.10576E-05 1.04689E-18-7.91575E-19
 -1      4057 9.64868E-05-2.80423E-05-2.93362E-05-6.83049E-07 2.68435E-19-1.20078E-18
 -1      4058 9.65215E-05-2.78039E-05-2.94470E-05-4.95049E-07 4.00528E-19-1.03429E-18
 -1      4059 9.65265E-05-2.80489E-05-2.93466E-05-6.01366E-07 3.72292E-19-1.19448E-18
 -1      4060 9.08852E-05-2.38058E-05-2.87532E-05 3.28572E-06 1.68837E-18-3.72364E-19
 -1      4061 7.22257E-05-1.71705E-05-2.34840E-05-7.46307E-06 1.04278E-18-3.88467E-19
 -1      4062 7.83875E-05-2.12501E-05-2.44222E-05 1.10179E-05 5.42604E-19-4.91196E-20
 -1      4063 9.64078E-05-2.67427E-05-2.98571E-05 1.00671E-08 3.66806E-19-8.03544E-19
 -1      4064 9.64921E-05-2.68707E-05-2.98357E-05 5.05522E-08 3.47202E-19-1.14125E-18
 -1      4065 9.63052E-05-2.63265E-05-2.99921E-05-1.68872E-07 4.66181E-19-1.07188E-18
 -1      4066 8.35428E-05-2.37654E-05-2.56557E-05 1.18550E-05 5.01912E-19 2.83156E-19
 -1      4067 7.35483E-05-1.71853E-05-2.41577E-05-4.62867E-06 8.49680E-19-1.18051E-19
 -1      4068 9.60633E-05-2.83247E-05-2.90308E-05-1.11038E-06-4.53594E-20-9.37292E-19
 -1      4069 9.62008E-05-2.83390E-05-2.90834E-05-1.00752E-06 9.11946E-20-1.04030E-18
 -1      4070 9.63347E-05-2.82723E-05-2.91690E-05-7.98709E-07 1.38109E-19-1.10616E-18
 -1      4071 8.97849E-05-2.32224E-05-2.85173E-05-1.51977E-06 3.01768E-19-3.16880E-18
 -1      4072 7.40819E-05-2.07626E-05-2.29210E-05-1.34373E-05-1.87481E-18 9.96025E-19
 -1      4073 9.02749E-05-2.34242E-05-2.86527E-05 3.63229E-06 1.33476E-18-3.30760E-19
 -1      4074 8.92817E-05-2.28073E-05-2.84777E-05 2.99175E-06 1.26712E-18-1.24971E-18
 -1      4075 7.60130E-05-1.97476E-05-2.41763E-05 1.11724E-05-2.02200E-18 9.89258E-19
 -1      4076 7.16009E-05-1.91773E-05-2.25355E-05 1.27167E-05-2.35536E-18 6.55987E-19
 -1      4077 6.56719E-05-1.53088E-05-2.13937E-05 5.82539E-06-2.15532E-18 1.40760E-18
 -1      4078 6.86609E-05-1.60722E-05-2.25367E-05 3.36287E-06-1.17760E-18 1.60897E-19
 -1      4079 9.13694E-05-3.37590E-05-2.46161E-05-1.96170E-05-1.52995E-20-8.97676E-19
 -1      4080 8.93438E-05-3.12660E-05-2.48608E-05-1.81360E-05-1.12928E-18-1.78533E-18
 -1      4081 8.41354E-05-2.75644E-05-2.43312E-05-1.74496E-05-1.81038E-18-2.45399E-18
 -1      4082 8.76265E-05-3.21380E-05-2.38125E-05-2.10194E-05-5.88718E-19-3.90535E-19
 -1      4083 9.16839E-05-2.47675E-05-2.86675E-05-2.23126E-06 5.58203E-19-1.41526E-19
 -1      4084 9.65639E-05-2.75305E-05-2.95883E-05-3.33137E-07 5.20851E-19-1.33498E-18
 -1      4085 9.64755E-05-2.74575E-05-2.95843E-05-3.49459E-07 5.00062E-19-1.03049E-18
 -1      4086 9.64213E-05-2.70354E-05-2.97319E-05-6.20773E-08 7.33547E-19-1.10854E-18
 -1      4087 9.52411E-05-2.78157E-05-2.88956E-05-1.44373E-06-1.51311E-19-3.48804E-19
 -1      4088 9.54545E-05-2.79927E-05-2.89144E-05-1.34188E-06-8.97074E-20-5.54952E-19
 -1      4089 9.53897E-05-2.39028E-05-3.06442E-05 6.64060E-08 5.75343E-19-1.80395E-18
 -1      4090 9.65541E-05-2.80860E-05-2.93426E-05 5.07100E-07-1.04813E-19-8.67512E-19
 -1      4091 9.54147E-05-2.40087E-05-3.06044E-05-5.57252E-07 4.86919E-19-1.40002E-18
 -1      4092 9.55161E-05-2.43025E-05-3.05278E-05-7.29319E-07 3.39017E-19-1.55038E-18
 -1      4093 9.57663E-05-2.48830E-05-3.03776E-05-5.62383E-07 2.98160E-19-1.34372E-18
 -1      4094 7.22121E-05-1.69204E-05-2.36902E-05 3.13779E-06 7.90173E-19 1.47670E-19
 -1      4095 9.57409E-05-2.82308E-05-2.89329E-05-1.42851E-06-3.13932E-20-7.47285E-19
 -1      4096 9.27639E-05-2.56494E-05-2.87553E-05-1.90726E-06 2.40124E-19-4.68524E-19
 -1      4097 9.32660E-05-2.60564E-05-2.88041E-05-2.23374E-06 2.35724E-19 2.99207E-20
 -1      4098 9.36289E-05-2.64063E-05-2.88162E-05-2.04198E-06 8.93919E-20 6.84719E-20
 -1      4099 7.05869E-05-1.60285E-05-2.31761E-05-2.15369E-06-2.10924E-19-4.70869E-19
 -1      4100 7.32123E-05-1.77165E-05-2.38328E-05-5.83019E-06-1.07493E-18 9.80226E-20
 -1      4101 9.62365E-05-2.62218E-05-3.00113E-05 1.91678E-07 6.48405E-19-1.47321E-18
 -1      4102 8.54566E-05-2.11557E-05-2.75912E-05 5.70974E-06-4.60116E-19 9.09428E-19
 -1      4103 8.44611E-05-2.08442E-05-2.72707E-05 6.34815E-06-3.99440E-19 1.09589E-18
 -1      4104 8.22973E-05-1.97730E-05-2.67576E-05 5.30172E-06-6.56302E-20 2.92802E-19
 -1      4105 8.34178E-05-2.97198E-05-2.28817E-05-2.16311E-05-1.39532E-18-1.26630E-18
 -1      4106 8.73511E-05-2.17570E-05-2.80835E-05 3.63552E-06 1.99099E-19 6.81750E-19
 -1      4107 8.75866E-05-2.20190E-05-2.81221E-05 4.74142E-06-6.84137E-19 1.58217E-18
 -1      4108 8.67207E-05-2.16206E-05-2.79033E-05 5.23774E-06-1.17067E-18 1.34688E-18
 -1      4109 9.62753E-05-2.61381E-05-3.00650E-05 1.77757E-07 6.65813E-19-1.55316E-18
 -1      4110 9.62326E-05-2.59733E-05-3.01160E-05 1.00048E-07 5.87911E-19-1.65891E-18
 -1      4111 9.65551E-05-2.70367E-05-2.97811E-05-1.06956E-07 5.62948E-19-1.50818E-18
 -1      4112 8.86973E-05-2.25416E-05-2.83562E-05-2.28786E-07 6.94160E-20-7.21341E-19
 -1      4113 8.86957E-05-2.25049E-05-2.83710E-05 7.16644E-07 4.56367E-19 4.90845E-19
 -1      4114 9.46948E-05-2.73466E-05-2.88625E-05-1.65015E-06 6.18338E-20-3.09855E-19
 -1      4115 9.49487E-05-2.75867E-05-2.88729E-05-1.52705E-06-1.12543E-19-4.70617E-19
 -1      4116 9.50539E-05-2.76214E-05-2.88973E-05-1.24110E-06-5.92653E-20-7.53056E-19
 -1      4117 8.07252E-05-2.63998E-05-2.32494E-05-1.84870E-05-2.78377E-18-7.22574E-19
 -1      4118 7.40690E-05-1.75676E-05-2.40473E-05 7.67560E-06-1.63372E-18 5.08600E-20
 -1      4119 7.18138E-05-1.68472E-05-2.36357E-05 2.67028E-06-8.99112E-19-3.44623E-19
 -1      4120 8.32358E-05-2.00052E-05-2.71212E-05-2.91316E-06 3.49335E-20 8.55275E-19
 -1      4121 8.45497E-05-2.05619E-05-2.74493E-05-2.64135E-06-2.94246E-20 4.13467E-19
 -1      4122 7.99520E-05-1.88518E-05-2.62112E-05-3.43995E-06 7.04908E-19 8.19644E-19
 -1      4123 8.15931E-05-1.93856E-05-2.66969E-05-3.03933E-06 6.63795E-19 8.39219E-19
 -1      4124 8.19436E-05-1.93244E-05-2.67613E-05-1.20510E-06 2.28018E-19 7.73975E-19
 -1      4125 8.88637E-05-2.25764E-05-2.84117E-05 2.21606E-06 1.25759E-18 4.76886E-20
 -1      4126 9.60962E-05-2.82343E-05-2.90846E-05 5.24320E-07 3.03206E-20-6.64133E-19
 -1      4127 9.58875E-05-2.81484E-05-2.90312E-05 5.87107E-07 1.55100E-19-5.34126E-19
 -1      4128 9.56325E-05-2.80101E-05-2.89827E-05 6.17368E-07-3.58043E-20-5.26654E-19
 -1      4129 9.53743E-05-2.78375E-05-2.89444E-05 6.83233E-07-1.78126E-19-3.89054E-19
 -1      4130 9.57598E-05-2.80403E-05-2.90202E-05 3.49925E-07 1.31427E-19-4.26951E-19
 -1      4131 9.50590E-05-2.76151E-05-2.89078E-05 7.22723E-07 2.46119E-20-6.07318E-19
 -1      4132 9.47537E-05-2.73694E-05-2.88785E-05 8.04159E-07-1.17784E-19-3.90290E-19
 -1      4133 9.51936E-05-2.76710E-05-2.89346E-05 4.16537E-07-1.89166E-19-8.69266E-19
 -1      4134 9.43805E-05-2.70813E-05-2.88472E-05 8.60521E-07-4.97198E-19-5.08257E-19
 -1      4135 9.40258E-05-2.67772E-05-2.88205E-05 9.64047E-07-7.84148E-19-7.20789E-19
 -1      4136 9.45178E-05-2.71508E-05-2.88655E-05 5.05332E-07-4.26579E-19-1.03088E-18
 -1      4137 9.35884E-05-2.64320E-05-2.87875E-05 1.04726E-06-7.66355E-19-2.17506E-19
 -1      4138 9.31780E-05-2.60790E-05-2.87561E-05 1.18372E-06-5.97314E-19-1.50755E-19
 -1      4139 9.37166E-05-2.65015E-05-2.87997E-05 6.24480E-07-5.23551E-19-7.19408E-19
 -1      4140 9.26733E-05-2.56921E-05-2.87133E-05 1.29442E-06-4.89444E-19-2.11665E-19
 -1      4141 9.21948E-05-2.53039E-05-2.86689E-05 1.46829E-06-4.32102E-19-5.02683E-21
 -1      4142 9.28044E-05-2.57566E-05-2.87235E-05 7.97152E-07-5.81383E-19 7.09899E-20
 -1      4143 9.15978E-05-2.48736E-05-2.86070E-05 1.63858E-06-2.38795E-19 9.55392E-20
 -1      4144 9.10597E-05-2.44657E-05-2.85401E-05 1.87348E-06-4.09773E-19 8.59470E-19
 -1      4145 9.16887E-05-2.48809E-05-2.86150E-05 1.04688E-06-1.96697E-19 4.63784E-19
 -1      4146 9.03642E-05-2.40229E-05-2.84469E-05 2.10340E-06-3.93750E-19 1.19458E-18
 -1      4147 8.97602E-05-2.36183E-05-2.83456E-05 2.41439E-06 1.13461E-19 1.52092E-18
 -1      4148 9.04268E-05-2.39689E-05-2.84566E-05 1.38729E-06-6.11820E-20 7.28812E-19
 -1      4149 8.89469E-05-2.31772E-05-2.82068E-05 2.73460E-06 1.57739E-19 1.46012E-18
 -1      4150 8.82774E-05-2.28057E-05-2.80568E-05 3.15159E-06 3.76701E-19 1.21311E-18
 -1      4151 8.89453E-05-2.30204E-05-2.82200E-05 1.86436E-06 7.06975E-20 9.75597E-19
 -1      4152 8.73251E-05-2.23951E-05-2.78538E-05 3.59935E-06 2.00705E-21 1.48032E-18
 -1      4153 8.65991E-05-2.20983E-05-2.76377E-05 4.16783E-06 1.32655E-19 1.11410E-18
 -1      4154 8.72161E-05-2.20793E-05-2.78717E-05 2.53938E-06 3.51557E-19 1.09909E-18
 -1      4155 8.54753E-05-2.17540E-05-2.73465E-05 4.79879E-06 7.62898E-19 7.95597E-19
 -1      4156 8.47060E-05-2.15875E-05-2.70423E-05 5.59244E-06 1.10738E-18 8.25843E-19
 -1      4157 8.51890E-05-2.11955E-05-2.73678E-05 3.49955E-06 6.00092E-19 8.64884E-19
 -1      4158 8.33479E-05-2.13353E-05-2.66311E-05 6.47698E-06 7.16025E-19 3.35489E-19
 -1      4159 8.26280E-05-2.13993E-05-2.62374E-05 7.63037E-06 3.06613E-19 2.56853E-19
 -1      4160 8.28009E-05-2.04423E-05-2.66509E-05 4.86622E-06 6.17877E-19 2.30610E-19
 -1      4161 7.44784E-05-1.74431E-05-2.45102E-05 2.69387E-06-1.91904E-19-6.40225E-19
 -1      4162 7.90825E-05-1.85992E-05-2.59805E-05 2.32443E-06 2.36590E-20-8.59983E-19
 -1      4163 7.68999E-05-1.80067E-05-2.52932E-05 2.76660E-06-2.77139E-19-6.02260E-19
 -1      4164 7.62938E-05-1.75404E-05-2.50466E-05-1.84927E-06-1.09797E-19-1.26168E-18
 -1      4165 8.21083E-05-2.18434E-05-2.58107E-05-9.19554E-06 1.08505E-18-1.01788E-18
 -1      4166 8.27400E-05-2.15777E-05-2.62682E-05-7.81601E-06 1.17650E-18-1.06378E-18
 -1      4167 8.41604E-05-2.17029E-05-2.67564E-05-6.74007E-06 3.56958E-19-7.65472E-19
 -1      4168 8.49054E-05-2.17190E-05-2.71161E-05-5.78245E-06 5.98464E-19-4.77853E-19
 -1      4169 8.18911E-05-2.04410E-05-2.62880E-05-6.02389E-06 8.20292E-19-4.63899E-19
 -1      4170 8.60840E-05-2.19729E-05-2.74690E-05-5.01335E-06-7.73681E-20-1.00204E-18
 -1      4171 8.68204E-05-2.21667E-05-2.77337E-05-4.32833E-06-3.32829E-19-1.98380E-18
 -1      4172 8.44422E-05-2.10277E-05-2.71528E-05-4.23032E-06-7.11227E-19-2.00176E-18
 -1      4173 8.78185E-05-2.24976E-05-2.79891E-05-3.78441E-06 1.20683E-19-2.51932E-18
 -1      4174 8.85029E-05-2.27788E-05-2.81810E-05-3.28608E-06 1.04117E-19-2.56872E-18
 -1      4175 8.65913E-05-2.17523E-05-2.77694E-05-3.08929E-06-4.62081E-19-3.59433E-18
 -1      4176 7.59855E-05-1.78599E-05-2.49439E-05-4.22005E-06 8.16986E-19-1.58317E-19
 -1      4177 7.80123E-05-1.83290E-05-2.56466E-05-3.64932E-06 6.46915E-19 2.18402E-19
 -1      4178 7.83637E-05-1.79900E-05-2.57633E-05-1.15780E-06 7.19699E-19 1.67428E-19
 -1      4179 7.39840E-05-1.67131E-05-2.43973E-05-1.18838E-06 8.20717E-19 2.38437E-19
 -1      4180 8.58396E-05-2.11558E-05-2.77381E-05-2.53866E-06-2.13036E-20 4.41254E-19
 -1      4181 8.69044E-05-2.17118E-05-2.79581E-05-2.32621E-06 1.29962E-19 3.96646E-19
 -1      4182 8.48149E-05-2.05695E-05-2.74794E-05-1.23562E-06-3.76003E-20 1.21523E-18
 -1      4183 7.91090E-05-2.05079E-05-2.51204E-05 8.89081E-06 3.17158E-19 2.09257E-19
 -1      4184 8.79508E-05-2.22885E-05-2.81530E-05-2.22909E-06 2.72386E-19 6.04684E-19
 -1      4185 8.88250E-05-2.28294E-05-2.82975E-05-2.04673E-06 3.27756E-19 8.62539E-19
 -1      4186 8.71170E-05-2.17627E-05-2.79687E-05-1.21563E-06 2.23943E-19 1.32714E-18
 -1      4187 8.79962E-05-2.20987E-05-2.82371E-05 1.73987E-06 8.74279E-19-5.11728E-19
 -1      4188 7.96566E-05-2.43469E-05-2.35975E-05-1.64080E-05-1.82948E-18-1.25387E-18
 -1      4189 8.96873E-05-2.33786E-05-2.84266E-05-1.95286E-06 8.59441E-22 6.08452E-19
 -1      4190 9.04102E-05-2.38902E-05-2.85189E-05-1.79060E-06 2.76542E-19 3.86833E-19
 -1      4191 8.90029E-05-2.29041E-05-2.82979E-05-1.15594E-06 3.20528E-20 7.93994E-19
 -1      4192 9.66058E-05-2.74616E-05-2.96384E-05-2.47711E-07 4.52017E-19-1.53629E-18
 -1      4193 9.58852E-05-2.49667E-05-3.03857E-05 1.03450E-07 5.61787E-19-1.66484E-18
 -1      4194 9.54584E-05-2.40656E-05-3.05955E-05-1.43128E-07 6.13745E-19-1.51336E-18
 -1      4195 9.66363E-05-2.73917E-05-2.96772E-05 1.45375E-07 6.91379E-20-1.28777E-18
 -1      4196 9.66644E-05-2.77412E-05-2.95403E-05 2.65953E-07-8.13075E-20-1.17500E-18
 -1      4197 7.45569E-05-1.74947E-05-2.45131E-05 2.76760E-06 5.73534E-19 3.85764E-19
 -1      4198 9.64387E-05-2.82470E-05-2.92261E-05 4.24271E-07 5.17281E-20-9.54256E-19
 -1      4199 9.62893E-05-2.82698E-05-2.91513E-05 4.97901E-07 8.79585E-20-8.22548E-19
 -1      4200 9.62051E-05-2.82173E-05-2.91363E-05 2.92537E-07 1.33670E-19-7.34231E-19
 -1      4201 7.80433E-05-1.91800E-05-2.51586E-05 6.49165E-06 5.95441E-19-5.12124E-20
 -1      4202 7.81526E-05-2.21007E-05-2.39830E-05-1.29219E-05-9.80874E-19-3.11776E-19
 -1      4203 7.68877E-05-1.86055E-05-2.50431E-05-4.90154E-06 4.63370E-20-5.75829E-19
 -1      4204 7.73162E-05-1.95699E-05-2.46824E-05-8.38479E-06 9.04845E-20-1.42665E-19
 -1      4205 7.88398E-05-2.12952E-05-2.46798E-05-1.08975E-05-2.64244E-19-3.44812E-19
 -1      4206 9.40440E-05-2.67573E-05-2.88365E-05-1.90921E-06 2.12754E-19-1.19832E-20
 -1      4207 9.43465E-05-2.70543E-05-2.88444E-05-1.75540E-06 3.63935E-19-8.32781E-20
 -1      4208 9.36654E-05-2.64266E-05-2.88108E-05-1.63791E-06 2.52528E-19-2.13110E-19
 -1      4209 8.89624E-05-2.29154E-05-2.83000E-05-2.72511E-06-1.82855E-19-2.88025E-18
 -1      4210 8.92864E-05-2.30018E-05-2.84087E-05-1.95699E-06-2.23985E-19-4.35830E-18
 -1      4211 8.89872E-05-2.27706E-05-2.83885E-05-1.08577E-06 4.91335E-19-3.35867E-18
 -1      4212 8.80095E-05-2.23423E-05-2.81479E-05-2.08329E-06 6.64889E-19-4.73036E-18
 -1      4213 9.59782E-05-2.54159E-05-3.02439E-05-4.36224E-07 3.58030E-19-1.21440E-18
 -1      4214 9.61451E-05-2.58908E-05-3.01098E-05-2.66401E-07 4.39966E-19-1.04840E-18
 -1      4215 9.62745E-05-2.61103E-05-3.00712E-05-1.40900E-07 5.18815E-19-1.19839E-18
 -1      4216 9.59017E-05-2.51401E-05-3.03224E-05-3.64410E-07 5.28232E-19-1.16264E-18
 -1      4217 9.56958E-05-2.81492E-05-2.89479E-05-1.27233E-06-2.81172E-20-6.60193E-19
 -1      4218 9.58719E-05-2.82526E-05-2.89807E-05-1.17811E-06-1.46911E-19-8.39905E-19
 -1      4219 9.60115E-05-2.82425E-05-2.90431E-05-9.52174E-07-1.17690E-19-8.57892E-19
 -1      4220 9.55827E-05-2.80148E-05-2.89566E-05-1.09195E-06-2.13672E-19-9.12146E-19
 -1      4221 9.11266E-05-2.43999E-05-2.86029E-05-1.70089E-06 3.93377E-19-8.78590E-21
 -1      4222 9.17275E-05-2.48726E-05-2.86603E-05-1.55466E-06 3.25603E-19-1.77155E-19
 -1      4223 9.05640E-05-2.39771E-05-2.85155E-05-1.07107E-06-5.94108E-20 2.62428E-19
 -1      4224 9.66340E-05-2.79902E-05-2.94193E-05 3.03276E-07-1.43959E-19-1.12308E-18
 -1      4225 9.65618E-05-2.81556E-05-2.93171E-05 3.99708E-07-1.75952E-19-1.12696E-18
 -1      4226 9.65199E-05-2.81600E-05-2.92967E-05 2.30946E-07-4.94782E-20-1.01814E-18
 -1      4227 8.82030E-05-2.22896E-05-2.82396E-05-6.81892E-07-1.01445E-20-2.21039E-18
 -1      4228 9.55428E-05-2.42927E-05-3.05443E-05-3.33397E-07 5.33535E-19-1.47310E-18
 -1      4229 9.65590E-05-2.81263E-05-2.93314E-05-5.19795E-07 2.77222E-19-1.25866E-18
 -1      4230 9.66302E-05-2.79416E-05-2.94343E-05-3.93963E-07 2.19088E-19-1.26765E-18
 -1      4231 7.84491E-05-1.86746E-05-2.56754E-05 2.56565E-06 5.72204E-19 3.07347E-20
 -1      4232 9.54698E-05-2.79133E-05-2.89535E-05-8.71910E-07-2.73090E-19-1.08919E-18
 -1      4233 9.57111E-05-2.80710E-05-2.89901E-05-8.00455E-07-2.07216E-19-1.10910E-18
 -1      4234 9.44199E-05-2.70871E-05-2.88531E-05-1.41944E-06 2.27422E-19-2.97998E-19
 -1      4235 8.50759E-05-2.06939E-05-2.75412E-05 4.36020E-06-1.06044E-18 2.53603E-19
 -1      4236 8.08564E-05-1.90738E-05-2.64907E-05 2.00205E-06 7.03462E-19-1.59412E-18
 -1      4237 7.92712E-05-1.92122E-05-2.57595E-05-4.13814E-06 3.79186E-19-7.60692E-19
 -1      4238 9.65742E-05-2.70813E-05-2.97821E-05 1.06767E-07 2.56767E-19-1.25814E-18
 -1      4239 9.66320E-05-2.72412E-05-2.97373E-05 7.39425E-08 1.47474E-19-1.41499E-18
 -1      4240 9.64997E-05-2.67448E-05-2.98963E-05-1.44957E-08 3.28481E-19-1.36287E-18
 -1      4241 9.63276E-05-2.61528E-05-3.00810E-05-2.38079E-08 5.35313E-19-1.63864E-18
 -1      4242 9.66306E-05-2.75301E-05-2.96152E-05-1.87684E-07 3.39375E-19-1.45431E-18
 -1      4243 9.66645E-05-2.78045E-05-2.95100E-05 1.53323E-07-9.56704E-20-1.38465E-18
 -1      4244 8.75340E-05-2.19895E-05-2.80881E-05-1.14713E-06 5.29457E-19-2.80682E-18
 -1      4245 8.72052E-05-2.17767E-05-2.80519E-05-3.13322E-07 2.31881E-19-1.20041E-18
 -1      4246 8.70139E-05-2.18056E-05-2.79532E-05-1.71990E-06 3.61358E-19-3.08833E-18
 -1      4247 9.23303E-05-2.53354E-05-2.87150E-05-1.48047E-06 3.88882E-19-6.47160E-19
 -1      4248 9.28282E-05-2.57553E-05-2.87509E-05-1.35104E-06 1.66327E-19-5.55213E-19
 -1      4249 9.18745E-05-2.49903E-05-2.86607E-05-9.61625E-07 1.88212E-19-4.60247E-19
 -1      4250 8.69148E-05-2.15498E-05-2.80080E-05 8.15073E-07 4.69501E-19-1.25923E-18
 -1      4251 8.70551E-05-2.16415E-05-2.80525E-05 2.41746E-06 8.91001E-19-7.42770E-19
 -1      4252 8.60044E-05-2.11211E-05-2.78257E-05 2.68152E-06 1.69527E-19-8.93007E-19
 -1      4253 8.62129E-05-2.12561E-05-2.78451E-05 3.27432E-07 5.30018E-19-1.16664E-18
 -1      4254 9.63226E-05-2.82813E-05-2.91610E-05-6.53714E-07-2.64310E-23-9.67157E-19
 -1      4255 9.64590E-05-2.82377E-05-2.92369E-05-5.64088E-07 2.82327E-19-1.04805E-18
 -1      4256 9.65429E-05-2.81301E-05-2.93201E-05-3.75324E-07 1.67099E-19-1.14010E-18
 -1      4257 9.48785E-05-2.74659E-05-2.88916E-05-9.84348E-07 2.76071E-20-1.05179E-18
 -1      4258 9.51740E-05-2.77038E-05-2.89176E-05-9.05855E-07-1.55548E-19-1.08094E-18
 -1      4259 9.53120E-05-2.77730E-05-2.89462E-05-6.11412E-07-2.41629E-19-1.14067E-18
 -1      4260 8.17096E-05-1.96728E-05-2.66523E-05 1.59654E-06 5.51610E-19 1.13508E-19
 -1      4261 8.33547E-05-2.02548E-05-2.70765E-05 1.41008E-06 2.67961E-19 5.05850E-20
 -1      4262 9.58870E-05-2.81144E-05-2.90466E-05 6.63772E-08 1.14078E-19-9.15476E-19
 -1      4263 9.56312E-05-2.79753E-05-2.89969E-05 1.00555E-07 1.03202E-19-1.01184E-18
 -1      4264 8.45415E-05-2.07496E-05-2.73885E-05 9.47739E-07 1.86685E-19 5.27808E-19
 -1      4265 9.41713E-05-2.68783E-05-2.88409E-05-1.12028E-06 3.09723E-19-7.02641E-19
 -1      4266 9.45215E-05-2.71827E-05-2.88627E-05-1.02980E-06 2.19757E-19-7.07177E-19
 -1      4267 9.46594E-05-2.72602E-05-2.88808E-05-6.89702E-07-4.94767E-20-9.81706E-19
 -1      4268 9.52492E-05-2.77213E-05-2.89422E-05-1.23552E-07-5.72963E-20-1.01784E-18
 -1      4269 9.49276E-05-2.74851E-05-2.89056E-05-9.45679E-08-3.78506E-19-1.04281E-18
 -1      4270 9.45681E-05-2.72066E-05-2.88738E-05-1.22241E-07-2.36046E-19-8.15586E-19
 -1      4271 9.41876E-05-2.68985E-05-2.88411E-05-8.54901E-08-5.54911E-20-5.48777E-19
 -1      4272 9.29491E-05-2.59020E-05-2.87434E-05 2.52296E-07-4.25382E-19 3.99352E-20
 -1      4273 9.24337E-05-2.54858E-05-2.86983E-05 3.54678E-07-3.35043E-19 5.65686E-19
 -1      4274 9.16846E-05-2.49002E-05-2.86310E-05-2.53397E-08-1.64574E-19 4.28154E-19
 -1      4275 9.10605E-05-2.44346E-05-2.85637E-05 7.69872E-08-2.49996E-19 5.07354E-19
 -1      4276 9.03330E-05-2.39337E-05-2.84761E-05 7.39387E-08-2.06172E-19 7.84409E-19
 -1      4277 8.96126E-05-2.34349E-05-2.83763E-05 2.25864E-07-4.28868E-20 9.23398E-19
 -1      4278 8.87409E-05-2.29017E-05-2.82435E-05 2.45698E-07-1.29071E-20 9.58333E-19
 -1      4279 8.78963E-05-2.23857E-05-2.80952E-05 4.66570E-07 1.91080E-19 8.93150E-19
 -1      4280 8.68393E-05-2.18308E-05-2.78968E-05 5.21909E-07 2.73662E-19 7.65193E-19
 -1      4281 8.58428E-05-2.13156E-05-2.76799E-05 8.41069E-07 5.22076E-19 8.74427E-19
 -1      4282 8.02845E-05-1.92444E-05-2.62082E-05 2.29220E-06 6.44318E-19-9.96099E-20
 -1      4283 8.06770E-05-1.94952E-05-2.62789E-05-3.29134E-06 2.21664E-19-1.09261E-18
 -1      4284 8.60033E-05-2.13700E-05-2.76965E-05-2.10787E-06-8.31088E-19-2.54002E-18
 -1      4285 9.63133E-05-2.82431E-05-2.91743E-05 5.15133E-08 1.91080E-19-9.94115E-19
 -1      4286 9.61169E-05-2.82076E-05-2.91048E-05 7.66544E-08 1.65977E-19-8.92493E-19
 -1      4287 9.59940E-05-2.81441E-05-2.90776E-05-1.76949E-07 5.26549E-20-1.01841E-18
 -1      4288 8.43654E-05-2.04318E-05-2.74266E-05 2.30718E-06-1.63464E-18-5.20714E-19
 -1      4289 8.29636E-05-1.98635E-05-2.70855E-05 2.62038E-06-7.07416E-19-7.18747E-19
 -1      4290 8.07884E-05-1.89909E-05-2.64193E-05-2.63900E-07-9.01270E-19-9.27569E-19
 -1      4291 8.44545E-05-2.03827E-05-2.74215E-05 1.06696E-06-8.47775E-19-4.26630E-19
 -1      4292 9.65559E-05-2.81602E-05-2.93141E-05-9.72355E-08-5.01465E-20-1.06458E-18
 -1      4293 9.64245E-05-2.82340E-05-2.92234E-05-7.55939E-08 1.70394E-19-1.02646E-18
 -1      4294 9.58247E-05-2.48803E-05-3.04003E-05-2.74947E-07 5.31803E-19-1.37031E-18
 -1      4295 8.52557E-05-2.08844E-05-2.75658E-05-1.22852E-06-6.83809E-19-2.17909E-18
 -1      4296 8.48487E-05-2.06645E-05-2.75122E-05-4.52069E-08-5.21877E-19-1.43515E-18
 -1      4297 8.31796E-05-2.00407E-05-2.70931E-05-6.49135E-07-1.65619E-18-1.89929E-18
 -1      4298 8.46608E-05-2.08923E-05-2.73568E-05-2.73813E-06-1.32999E-18-3.27162E-18
 -1      4299 9.33319E-05-2.61668E-05-2.87873E-05-1.28625E-06 1.45083E-19-6.71595E-19
 -1      4300 9.37468E-05-2.65308E-05-2.88119E-05-1.17983E-06 3.13081E-19-7.09404E-19
 -1      4301 9.29700E-05-2.58637E-05-2.87534E-05-8.75785E-07 9.54882E-20-7.26992E-19
 -1      4302 9.65839E-05-2.69417E-05-2.98401E-05-1.74279E-08 3.17768E-19-1.66759E-18
 -1      4303 9.63157E-05-2.61339E-05-3.00793E-05-3.67044E-08 4.99159E-19-1.47699E-18
 -1      4304 9.66910E-05-2.77895E-05-2.95307E-05-8.63781E-08 1.48601E-19-1.45183E-18
 -1      4305 9.66515E-05-2.80195E-05-2.94123E-05-4.31699E-08-1.51102E-20-1.35822E-18
 -1      4306 8.26780E-05-2.00178E-05-2.68543E-05-2.19283E-06-8.67052E-19-1.52094E-18
 -1      4307 9.59537E-05-2.81960E-05-2.90392E-05-7.65127E-07 1.27744E-20-1.10309E-18
 -1      4308 9.61440E-05-2.82638E-05-2.90923E-05-6.93040E-07 1.80119E-21-9.44395E-19
 -1      4309 9.62591E-05-2.82353E-05-2.91525E-05-4.67753E-07 7.63232E-20-1.06364E-18
 -1      4310 9.58444E-05-2.80965E-05-2.90332E-05-5.41444E-07-2.88528E-20-9.16032E-19
 -1      4311 9.60377E-05-2.54007E-05-3.02680E-05-1.80213E-07 5.62732E-19-1.31028E-18
 -1      4312 9.38803E-05-2.66160E-05-2.88206E-05-7.72612E-07 3.32704E-19-8.51694E-19
 -1      4313 9.37601E-05-2.65506E-05-2.88093E-05-1.09130E-07 2.67194E-20-3.95246E-19
 -1      4314 9.33194E-05-2.61820E-05-2.87747E-05-6.41700E-08-9.50823E-20-2.01499E-19
 -1      4315 8.34403E-05-2.04189E-05-2.69837E-05-3.32862E-06-6.04388E-19-2.40835E-18
 -1      4316 9.19850E-05-2.50851E-05-2.86640E-05-5.86043E-07-1.97624E-20 4.78891E-21
 -1      4317 9.66471E-05-2.72548E-05-2.97393E-05 7.44008E-09 2.19379E-19-1.61040E-18
 -1      4318 9.56851E-05-2.80084E-05-2.90022E-05-3.80230E-07-7.78534E-20-9.36484E-19
 -1      4319 9.59261E-05-2.81420E-05-2.90526E-05-3.50837E-07 4.78951E-20-9.77417E-19
 -1      4320 9.53928E-05-2.78082E-05-2.89634E-05-4.05854E-07-1.40191E-20-1.26371E-18
 -1      4321 9.63311E-05-2.82411E-05-2.91825E-05-3.04200E-07 1.54636E-19-9.19187E-19
 -1      4322 9.62183E-05-2.58805E-05-3.01453E-05-9.16261E-08 5.30112E-19-1.36316E-18
 -1      4323 9.30627E-05-2.59590E-05-2.87573E-05-5.23550E-07-9.42721E-20-2.33547E-19
 -1      4324 9.61518E-05-2.82240E-05-2.91108E-05-3.38486E-07 8.20592E-20-9.67253E-19
 -1      4325 9.25871E-05-2.55694E-05-2.87199E-05-5.52502E-07-7.40958E-20-1.87911E-19
 -3
    1PSTEP                         4           1           1          
  100CL  101 1.000000000        4325                     0    1           1
 -4  ERROR       1    1
 -5  STR(%)      1    1    0    0
 -1         1 1.74831E+01
 -1         2 2.53285E+01
 -1         3 3.54737E-02
 -1         4 3.70880E-02
 -1         5 1.40460E+01
 -1         6 1.31501E+01
 -1         7 1.31501E+01
 -1         8 3.65768E+00
 -1         9 1.81638E+00
 -1        10 1.28790E+00
 -1        11 1.04232E+00
 -1        12 8.96417E-01
 -1        13 8.06783E-01
 -1        14 7.53421E-01
 -1        15 7.55323E-01
 -1        16 8.11080E-01
 -1        17 8.98135E-01
 -1        18 1.04908E+00
 -1        19 1.30348E+00
 -1        20 1.82837E+00
 -1        21 3.49950E+00
 -1        22 8.64305E+00
 -1        23 1.31501E+01
 -1        24 4.32796E+00
 -1        25 3.35356E+00
 -1        26 2.12563E+00
 -1        27 1.37934E+00
 -1        28 1.03366E+00
 -1        29 8.00126E-01
 -1        30 6.27174E-01
 -1        31 4.95463E-01
 -1        32 3.95294E-01
 -1        33 3.20622E-01
 -1        34 2.66774E-01
 -1        35 2.29567E-01
 -1        36 2.27415E-01
 -1        37 2.61888E-01
 -1        38 3.06777E-01
 -1        39 3.59409E-01
 -1        40 4.14414E-01
 -1        41 4.66986E-01
 -1        42 5.93892E-01
 -1        43 7.43856E-01
 -1        44 8.99197E-01
 -1        45 1.00498E+00
 -1        46 1.00498E+00
 -1        47 1.05618E+00
 -1        48 1.05618E+00
 -1        49 1.29199E+00
 -1        50 1.73472E+00
 -1        51 2.78011E+00
 -1        52 3.29399E+00
 -1        53 3.29399E+00
 -1        54 3.24837E+00
 -1        55 3.11964E+00
 -1        56 2.27661E+00
 -1        57 1.43024E+00
 -1        58 1.08231E+00
 -1        59 1.05580E+00
 -1        60 1.01949E+00
 -1        61 1.01949E+00
 -1        62 9.56271E-01
 -1        63 8.13375E-01
 -1        64 6.42075E-01
 -1        65 5.03506E-01
 -1        66 4.59450E-01
 -1        67 4.01637E-01
 -1        68 3.35051E-01
 -1        69 2.61001E-01
 -1        70 2.32388E-01
 -1        71 1.50390E-01
 -1        72 1.40460E+01
 -1        73 3.40292E+00
 -1        74 2.42344E+00
 -1        75 1.67802E+00
 -1        76 1.15910E+00
 -1        77 9.23270E-01
 -1        78 7.54707E-01
 -1        79 6.19518E-01
 -1        80 5.10859E-01
 -1        81 4.25402E-01
 -1        82 3.61240E-01
 -1        83 3.16843E-01
 -1        84 2.90705E-01
 -1        85 2.86315E-01
 -1        86 3.03514E-01
 -1        87 3.43542E-01
 -1        88 4.21213E-01
 -1        89 5.13610E-01
 -1        90 6.14755E-01
 -1        91 7.12428E-01
 -1        92 7.85315E-01
 -1        93 8.07599E-01
 -1        94 1.04862E+00
 -1        95 1.32037E+00
 -1        96 1.47136E+00
 -1        97 1.76979E+00
 -1        98 1.89411E+00
 -1        99 2.15882E+00
 -1       100 2.72271E+00
 -1       101 4.08552E+00
 -1       102 4.58269E+00
 -1       103 4.65091E+00
 -1       104 4.65091E+00
 -1       105 3.13008E+00
 -1       106 1.81588E+00
 -1       107 1.43405E+00
 -1       108 1.69299E+00
 -1       109 1.69299E+00
 -1       110 1.68608E+00
 -1       111 1.49739E+00
 -1       112 1.25804E+00
 -1       113 1.03569E+00
 -1       114 8.13829E-01
 -1       115 6.11523E-01
 -1       116 4.79679E-01
 -1       117 3.82928E-01
 -1       118 2.88943E-01
 -1       119 1.88175E-01
 -1       120 1.24662E-01
 -1       121 5.39455E-02
 -1       122 5.39455E-02
 -1       123 4.74122E-02
 -1       124 2.56322E-02
 -1       125 2.38738E-02
 -1       126 3.98816E-02
 -1       127 4.88566E-02
 -1       128 5.04833E-02
 -1       129 5.04833E-02
 -1       130 4.58203E-02
 -1       131 3.43966E-02
 -1       132 1.85600E-02
 -1       133 2.62567E-02
 -1       134 4.42058E-02
 -1       135 6.64891E-02
 -1       136 7.26602E-02
 -1       137 2.53285E+01
 -1       138 4.69822E+01
 -1       139 4.69822E+01
 -1       140 2.16792E+01
 -1       141 1.20578E+01
 -1       142 1.22213E+01
 -1       143 1.23947E+01
 -1       144 1.34485E+01
 -1       145 1.34485E+01
 -1       146 1.28531E+01
 -1       147 2.85850E+01
 -1       148 3.02624E+01
 -1       149 2.91238E+01
 -1       150 2.52451E+01
 -1       151 2.56469E+01
 -1       152 2.56469E+01
 -1       153 4.27622E+01
 -1       154 4.27622E+01
 -1       155 1.55291E+01
 -1       156 1.20700E+01
 -1       157 1.28693E+01
 -1       158 1.28693E+01
 -1       159 1.27150E+01
 -1       160 1.27150E+01
 -1       161 4.48487E+01
 -1       162 4.48487E+01
 -1       163 2.44233E+01
 -1       164 6.07148E+00
 -1       165 2.29120E+00
 -1       166 1.50417E+00
 -1       167 1.15411E+00
 -1       168 9.70435E-01
 -1       169 8.62159E-01
 -1       170 7.94906E-01
 -1       171 7.55323E-01
 -1       172 7.98281E-01
 -1       173 8.65412E-01
 -1       174 9.78342E-01
 -1       175 1.16894E+00
 -1       176 1.52316E+00
 -1       177 2.25598E+00
 -1       178 3.92718E+00
 -1       179 1.40460E+01
 -1       180 4.32796E+00
 -1       181 3.35356E+00
 -1       182 2.12563E+00
 -1       183 1.46063E+00
 -1       184 1.04068E+00
 -1       185 8.00126E-01
 -1       186 6.27174E-01
 -1       187 4.98187E-01
 -1       188 4.04443E-01
 -1       189 3.29275E-01
 -1       190 2.70085E-01
 -1       191 2.29567E-01
 -1       192 2.04885E-01
 -1       193 2.27415E-01
 -1       194 2.61888E-01
 -1       195 3.06777E-01
 -1       196 3.59409E-01
 -1       197 4.37202E-01
 -1       198 5.34952E-01
 -1       199 6.23360E-01
 -1       200 7.43856E-01
 -1       201 8.99197E-01
 -1       202 1.00498E+00
 -1       203 9.96262E-01
 -1       204 1.05618E+00
 -1       205 9.98178E-01
 -1       206 1.29199E+00
 -1       207 1.82220E+00
 -1       208 2.78011E+00
 -1       209 3.29399E+00
 -1       210 3.24837E+00
 -1       211 3.11964E+00
 -1       212 2.27661E+00
 -1       213 1.44438E+00
 -1       214 1.08231E+00
 -1       215 1.05580E+00
 -1       216 9.92424E-01
 -1       217 1.01949E+00
 -1       218 9.56271E-01
 -1       219 8.13375E-01
 -1       220 6.65542E-01
 -1       221 5.56136E-01
 -1       222 4.59450E-01
 -1       223 4.01637E-01
 -1       224 3.35051E-01
 -1       225 2.61001E-01
 -1       226 2.32388E-01
 -1       227 1.50390E-01
 -1       228 3.40292E+00
 -1       229 2.42344E+00
 -1       230 1.67802E+00
 -1       231 1.15910E+00
 -1       232 9.23270E-01
 -1       233 7.54707E-01
 -1       234 6.19518E-01
 -1       235 5.10859E-01
 -1       236 4.25402E-01
 -1       237 3.61240E-01
 -1       238 3.16843E-01
 -1       239 2.90705E-01
 -1       240 2.81182E-01
 -1       241 2.86315E-01
 -1       242 3.04541E-01
 -1       243 3.68797E-01
 -1       244 4.44011E-01
 -1       245 5.25543E-01
 -1       246 6.14755E-01
 -1       247 7.12428E-01
 -1       248 7.85315E-01
 -1       249 9.17022E-01
 -1       250 1.08617E+00
 -1       251 1.32037E+00
 -1       252 1.47136E+00
 -1       253 1.76979E+00
 -1       254 1.89411E+00
 -1       255 2.15882E+00
 -1       256 2.77733E+00
 -1       257 4.08552E+00
 -1       258 4.58269E+00
 -1       259 4.65091E+00
 -1       260 3.13008E+00
 -1       261 1.81588E+00
 -1       262 1.27941E+00
 -1       263 1.43405E+00
 -1       264 1.69299E+00
 -1       265 1.68608E+00
 -1       266 1.49739E+00
 -1       267 1.25804E+00
 -1       268 1.03686E+00
 -1       269 8.37490E-01
 -1       270 6.46870E-01
 -1       271 4.79679E-01
 -1       272 3.82928E-01
 -1       273 2.88943E-01
 -1       274 1.93361E-01
 -1       275 1.24662E-01
 -1       276 7.49179E-02
 -1       277 7.49179E-02
 -1       278 7.48867E-02
 -1       279 4.14802E-02
 -1       280 7.23177E-02
 -1       281 9.14009E-02
 -1       282 9.71286E-02
 -1       283 9.71286E-02
 -1       284 9.60246E-02
 -1       285 8.39621E-02
 -1       286 6.19997E-02
 -1       287 3.56510E-02
 -1       288 7.13296E-02
 -1       289 7.13296E-02
 -1       290 8.94122E-02
 -1       291 2.99949E+01
 -1       292 2.83258E+01
 -1       293 4.69822E+01
 -1       294 2.20145E+01
 -1       295 1.17280E+01
 -1       296 1.20578E+01
 -1       297 1.22213E+01
 -1       298 1.23947E+01
 -1       299 1.34485E+01
 -1       300 1.27115E+01
 -1       301 1.28531E+01
 -1       302 3.02624E+01
 -1       303 3.02624E+01
 -1       304 2.52451E+01
 -1       305 3.02427E+01
 -1       306 3.02427E+01
 -1       307 3.76364E+01
 -1       308 4.27622E+01
 -1       309 1.58048E+01
 -1       310 1.07464E+01
 -1       311 1.20700E+01
 -1       312 1.28693E+01
 -1       313 1.19452E+01
 -1       314 1.27150E+01
 -1       315 1.18883E+01
 -1       316 1.74831E+01
 -1       317 4.48487E+01
 -1       318 3.93789E+01
 -1       319 2.99949E+01
 -1       320 1.03929E+00
 -1       321 2.47316E+00
 -1       322 7.88106E-01
 -1       323 6.91360E-01
 -1       324 6.29795E-01
 -1       325 5.86289E-01
 -1       326 5.89413E-01
 -1       327 6.32591E-01
 -1       328 6.98713E-01
 -1       329 7.93334E-01
 -1       330 9.28221E-01
 -1       331 1.15307E+00
 -1       332 1.32195E+00
 -1       333 2.20343E+00
 -1       334 1.91694E+00
 -1       335 1.73930E+00
 -1       336 1.27911E+00
 -1       337 9.19620E-01
 -1       338 6.69845E-01
 -1       339 5.60369E-01
 -1       340 4.67996E-01
 -1       341 3.87787E-01
 -1       342 3.20167E-01
 -1       343 2.64565E-01
 -1       344 2.19519E-01
 -1       345 1.82867E-01
 -1       346 1.85922E-01
 -1       347 2.12392E-01
 -1       348 2.46150E-01
 -1       349 3.03084E-01
 -1       350 3.91544E-01
 -1       351 4.80270E-01
 -1       352 5.58835E-01
 -1       353 6.33153E-01
 -1       354 7.14269E-01
 -1       355 7.64495E-01
 -1       356 7.28230E-01
 -1       357 5.66470E-01
 -1       358 5.40782E-01
 -1       359 7.60794E-01
 -1       360 1.28322E+00
 -1       361 1.68647E+00
 -1       362 2.04385E+00
 -1       363 2.00741E+00
 -1       364 2.07300E+00
 -1       365 1.90520E+00
 -1       366 1.46447E+00
 -1       367 1.03209E+00
 -1       368 5.88260E-01
 -1       369 5.42890E-01
 -1       370 6.60590E-01
 -1       371 7.53692E-01
 -1       372 7.35241E-01
 -1       373 6.51482E-01
 -1       374 5.69579E-01
 -1       375 4.95850E-01
 -1       376 4.06711E-01
 -1       377 3.15171E-01
 -1       378 2.52205E-01
 -1       379 1.92923E-01
 -1       380 1.30805E-01
 -1       381 1.13888E+00
 -1       382 9.01363E-01
 -1       383 7.14462E-01
 -1       384 5.55861E-01
 -1       385 4.57242E-01
 -1       386 3.94124E-01
 -1       387 3.33784E-01
 -1       388 2.90499E-01
 -1       389 2.58284E-01
 -1       390 2.36135E-01
 -1       391 2.23838E-01
 -1       392 2.20504E-01
 -1       393 2.51462E-01
 -1       394 3.35402E-01
 -1       395 4.61985E-01
 -1       396 6.09969E-01
 -1       397 7.74151E-01
 -1       398 9.40675E-01
 -1       399 1.08312E+00
 -1       400 1.21009E+00
 -1       401 1.25375E+00
 -1       402 1.25375E+00
 -1       403 1.11874E+00
 -1       404 9.54506E-01
 -1       405 1.04961E+00
 -1       406 1.96134E+00
 -1       407 2.32476E+00
 -1       408 2.75102E+00
 -1       409 2.88091E+00
 -1       410 2.69521E+00
 -1       411 2.13890E+00
 -1       412 1.16706E+00
 -1       413 9.45498E-01
 -1       414 1.13157E+00
 -1       415 1.24809E+00
 -1       416 1.27370E+00
 -1       417 1.20920E+00
 -1       418 1.08157E+00
 -1       419 9.44053E-01
 -1       420 7.80333E-01
 -1       421 6.16402E-01
 -1       422 4.66301E-01
 -1       423 3.52914E-01
 -1       424 2.73119E-01
 -1       425 1.93361E-01
 -1       426 1.13129E-01
 -1       427 7.97419E-02
 -1       428 1.47576E-01
 -1       429 1.47576E-01
 -1       430 9.85103E-02
 -1       431 1.27890E-01
 -1       432 1.38889E-01
 -1       433 1.38889E-01
 -1       434 1.36520E-01
 -1       435 1.33771E-01
 -1       436 1.14636E-01
 -1       437 8.06556E-02
 -1       438 7.94242E-02
 -1       439 1.17657E-01
 -1       440 2.83258E+01
 -1       441 3.27923E+01
 -1       442 3.27923E+01
 -1       443 1.62776E+01
 -1       444 9.82968E+00
 -1       445 9.16375E-01
 -1       446 9.70630E+00
 -1       447 1.00768E+01
 -1       448 1.09169E+01
 -1       449 8.49529E+00
 -1       450 5.80190E+00
 -1       451 1.19459E+01
 -1       452 2.08399E+01
 -1       453 2.49152E+01
 -1       454 3.50208E+01
 -1       455 3.50208E+01
 -1       456 2.71915E+01
 -1       457 2.50518E+01
 -1       458 1.44910E+01
 -1       459 7.93254E+00
 -1       460 7.81698E+00
 -1       461 8.68089E+00
 -1       462 1.06684E+01
 -1       463 1.04093E+01
 -1       464 7.90550E+00
 -1       465 7.60619E+00
 -1       466 1.51994E+01
 -1       467 2.72249E+01
 -1       468 2.76111E+01
 -1       469 6.91295E+00
 -1       470 5.13610E+00
 -1       471 1.52389E+01
 -1       472 1.47266E+01
 -1       473 9.18767E+00
 -1       474 4.84564E+00
 -1       475 1.05707E+00
 -1       476 4.84059E-01
 -1       477 5.06600E-01
 -1       478 4.30097E-01
 -1       479 4.55692E-01
 -1       480 4.84821E-01
 -1       481 5.08579E-01
 -1       482 5.08579E-01
 -1       483 5.99325E-01
 -1       484 9.01363E-01
 -1       485 8.02920E-01
 -1       486 7.13385E-01
 -1       487 5.97238E-01
 -1       488 4.84200E-01
 -1       489 3.87468E-01
 -1       490 3.40967E-01
 -1       491 2.92003E-01
 -1       492 2.44602E-01
 -1       493 2.00341E-01
 -1       494 1.59199E-01
 -1       495 1.32320E-01
 -1       496 1.51289E-01
 -1       497 1.78870E-01
 -1       498 2.55557E-01
 -1       499 3.39418E-01
 -1       500 4.27653E-01
 -1       501 5.14276E-01
 -1       502 5.89118E-01
 -1       503 6.50792E-01
 -1       504 7.31568E-01
 -1       505 7.93086E-01
 -1       506 7.95005E-01
 -1       507 9.04759E-01
 -1       508 1.02869E+00
 -1       509 1.23438E+00
 -1       510 1.36765E+00
 -1       511 1.71062E+00
 -1       512 2.08896E+00
 -1       513 2.06819E+00
 -1       514 1.99018E+00
 -1       515 1.50060E+00
 -1       516 1.34950E+00
 -1       517 1.02851E+00
 -1       518 9.74331E-01
 -1       519 7.95044E-01
 -1       520 7.90379E-01
 -1       521 7.51805E-01
 -1       522 6.71803E-01
 -1       523 6.01713E-01
 -1       524 5.31862E-01
 -1       525 4.47351E-01
 -1       526 3.58413E-01
 -1       527 2.74057E-01
 -1       528 1.99670E-01
 -1       529 1.93583E+01
 -1       530 5.55861E-01
 -1       531 4.57242E-01
 -1       532 3.94124E-01
 -1       533 3.33784E-01
 -1       534 2.79268E-01
 -1       535 2.31512E-01
 -1       536 1.90002E-01
 -1       537 1.53175E-01
 -1       538 1.77025E-01
 -1       539 2.09093E-01
 -1       540 2.90077E-01
 -1       541 4.03795E-01
 -1       542 5.37161E-01
 -1       543 6.88683E-01
 -1       544 8.51617E-01
 -1       545 1.01103E+00
 -1       546 1.14093E+00
 -1       547 1.24693E+00
 -1       548 1.42663E+00
 -1       549 1.55656E+00
 -1       550 1.56110E+00
 -1       551 2.09692E+00
 -1       552 2.44425E+00
 -1       553 4.25046E+00
 -1       554 6.34934E+00
 -1       555 8.28215E+00
 -1       556 4.89432E+00
 -1       557 2.12842E+00
 -1       558 1.81107E+00
 -1       559 1.90251E+00
 -1       560 1.54658E+00
 -1       561 1.53502E+00
 -1       562 1.39626E+00
 -1       563 1.21408E+00
 -1       564 1.11554E+00
 -1       565 9.77535E-01
 -1       566 8.13168E-01
 -1       567 6.47678E-01
 -1       568 4.95767E-01
 -1       569 3.64766E-01
 -1       570 2.54790E-01
 -1       571 1.74871E-01
 -1       572 1.62718E-01
 -1       573 1.86763E-01
 -1       574 1.52297E-01
 -1       575 1.39545E-01
 -1       576 1.86763E-01
 -1       577 1.83497E-01
 -1       578 1.83497E-01
 -1       579 1.72881E-01
 -1       580 1.40142E-01
 -1       581 1.34541E-01
 -1       582 1.34541E-01
 -1       583 2.76111E+01
 -1       584 7.14462E-01
 -1       585 1.09423E+01
 -1       586 8.76121E-01
 -1       587 6.17345E+00
 -1       588 2.71915E+01
 -1       589 7.94507E+00
 -1       590 4.55894E-01
 -1       591 5.89997E+00
 -1       592 8.28215E+00
 -1       593 1.53304E+01
 -1       594 4.83531E+00
 -1       595 6.26524E+00
 -1       596 7.74086E+00
 -1       597 1.03619E+01
 -1       598 2.49152E+01
 -1       599 3.50208E+01
 -1       600 1.70852E+01
 -1       601 1.23797E+01
 -1       602 4.60696E+00
 -1       603 5.68028E+00
 -1       604 7.34195E+00
 -1       605 2.04085E+01
 -1       606 6.37106E+00
 -1       607 3.27923E+01
 -1       608 1.32928E+00
 -1       609 5.49081E+00
 -1       610 6.80990E+00
 -1       611 7.18661E-01
 -1       612 3.92730E+00
 -1       613 6.34934E+00
 -1       614 1.17124E+01
 -1       615 1.25701E-01
 -1       616 7.34811E+00
 -1       617 7.65666E+00
 -1       618 3.57650E-01
 -1       619 3.42426E-01
 -1       620 3.60692E-01
 -1       621 3.36498E-01
 -1       622 5.43024E-01
 -1       623 1.15623E+01
 -1       624 4.53605E+00
 -1       625 4.03931E-01
 -1       626 3.88640E-01
 -1       627 3.44950E-01
 -1       628 2.91324E-01
 -1       629 2.41697E-01
 -1       630 2.08849E-01
 -1       631 1.72161E-01
 -1       632 1.33433E-01
 -1       633 9.30123E-02
 -1       634 9.08103E-02
 -1       635 1.29843E-01
 -1       636 1.98748E-01
 -1       637 2.76731E-01
 -1       638 3.64014E-01
 -1       639 4.59433E-01
 -1       640 5.59548E-01
 -1       641 6.57390E-01
 -1       642 7.48246E-01
 -1       643 8.98155E-01
 -1       644 1.05766E+00
 -1       645 1.16920E+00
 -1       646 1.42891E+00
 -1       647 1.69099E+00
 -1       648 1.88737E+00
 -1       649 2.47701E+00
 -1       650 3.84181E+00
 -1       651 4.14829E+00
 -1       652 5.06082E+00
 -1       653 2.73309E+00
 -1       654 1.62358E+00
 -1       655 1.75060E+00
 -1       656 1.51414E+00
 -1       657 1.18832E+00
 -1       658 1.03043E+00
 -1       659 8.93455E-01
 -1       660 7.51805E-01
 -1       661 6.71803E-01
 -1       662 5.78009E-01
 -1       663 4.75908E-01
 -1       664 3.74284E-01
 -1       665 2.82641E-01
 -1       666 2.06578E-01
 -1       667 4.51194E+00
 -1       668 4.01037E-01
 -1       669 2.45215E-01
 -1       670 2.04788E-01
 -1       671 1.64134E-01
 -1       672 1.23222E-01
 -1       673 1.16562E-01
 -1       674 1.42528E-01
 -1       675 2.24341E-01
 -1       676 3.21561E-01
 -1       677 4.37262E-01
 -1       678 5.74019E-01
 -1       679 7.33184E-01
 -1       680 9.13694E-01
 -1       681 1.10995E+00
 -1       682 1.30826E+00
 -1       683 1.48689E+00
 -1       684 1.86160E+00
 -1       685 2.29199E+00
 -1       686 2.55039E+00
 -1       687 4.56383E+00
 -1       688 2.26011E+00
 -1       689 3.10574E+00
 -1       690 2.54737E+00
 -1       691 2.22307E+00
 -1       692 1.80100E+00
 -1       693 1.45275E+00
 -1       694 1.27451E+00
 -1       695 1.07290E+00
 -1       696 8.75196E-01
 -1       697 6.94754E-01
 -1       698 5.36922E-01
 -1       699 4.03099E-01
 -1       700 2.89315E-01
 -1       701 2.14432E-01
 -1       702 2.43308E-01
 -1       703 1.52412E+01
 -1       704 2.38509E-01
 -1       705 2.35055E-01
 -1       706 2.43308E-01
 -1       707 1.34541E-01
 -1       708 2.35055E-01
 -1       709 2.11202E-01
 -1       710 1.61205E-01
 -1       711 4.70289E-01
 -1       712 9.48006E+00
 -1       713 4.65067E-01
 -1       714 1.33433E+01
 -1       715 1.46634E+01
 -1       716 6.70411E+00
 -1       717 1.43596E+01
 -1       718 2.83768E-01
 -1       719 3.29422E-01
 -1       720 5.22241E-01
 -1       721 1.58311E+01
 -1       722 3.60692E-01
 -1       723 1.66313E+01
 -1       724 5.06082E+00
 -1       725 3.64326E-01
 -1       726 6.74269E+00
 -1       727 3.50662E+00
 -1       728 9.09404E+00
 -1       729 1.09378E+01
 -1       730 1.36651E+01
 -1       731 4.42755E+00
 -1       732 2.77563E+00
 -1       733 7.21718E+00
 -1       734 3.38694E+00
 -1       735 4.65067E-01
 -1       736 3.63102E-01
 -1       737 4.26282E+00
 -1       738 2.71382E+00
 -1       739 9.59189E+00
 -1       740 4.18581E+00
 -1       741 4.89432E+00
 -1       742 7.86611E+00
 -1       743 1.81832E-01
 -1       744 4.84856E+00
 -1       745 1.40608E-01
 -1       746 5.97533E+00
 -1       747 2.03872E-01
 -1       748 4.02661E-01
 -1       749 4.27537E+00
 -1       750 2.42128E-01
 -1       751 6.74587E+00
 -1       752 2.56061E-01
 -1       753 2.45713E-01
 -1       754 2.18061E-01
 -1       755 1.81770E-01
 -1       756 1.53105E-01
 -1       757 1.20318E-01
 -1       758 8.20659E-02
 -1       759 7.15207E-02
 -1       760 9.45496E-02
 -1       761 1.49350E-01
 -1       762 2.17807E-01
 -1       763 2.93570E-01
 -1       764 3.86589E-01
 -1       765 5.01754E-01
 -1       766 6.32130E-01
 -1       767 7.83846E-01
 -1       768 9.53996E-01
 -1       769 1.15759E+00
 -1       770 1.50725E+00
 -1       771 1.78351E+00
 -1       772 2.08042E+00
 -1       773 2.31034E+00
 -1       774 2.47701E+00
 -1       775 2.25735E+00
 -1       776 1.99012E+00
 -1       777 1.90294E+00
 -1       778 1.60408E+00
 -1       779 1.28099E+00
 -1       780 1.00191E+00
 -1       781 8.41060E-01
 -1       782 6.81740E-01
 -1       783 5.41884E-01
 -1       784 4.19902E-01
 -1       785 3.16104E-01
 -1       786 2.08031E-01
 -1       787 6.06177E+00
 -1       788 1.71881E-01
 -1       789 6.03533E-02
 -1       790 8.57392E-02
 -1       791 1.50347E-01
 -1       792 2.30305E-01
 -1       793 3.32763E-01
 -1       794 4.55369E-01
 -1       795 5.99034E-01
 -1       796 7.65231E-01
 -1       797 9.91269E-01
 -1       798 1.26972E+00
 -1       799 1.64786E+00
 -1       800 2.09796E+00
 -1       801 2.69228E+00
 -1       802 4.15652E+00
 -1       803 2.53929E+00
 -1       804 2.04264E+00
 -1       805 1.59643E+00
 -1       806 1.22092E+00
 -1       807 9.45806E-01
 -1       808 7.22320E-01
 -1       809 5.58795E-01
 -1       810 4.15771E-01
 -1       811 2.96078E-01
 -1       812 2.44008E-01
 -1       813 2.41092E+00
 -1       814 7.86505E+00
 -1       815 3.00729E-01
 -1       816 9.36806E+00
 -1       817 2.03892E-01
 -1       818 9.36806E+00
 -1       819 2.36277E-01
 -1       820 3.07734E-01
 -1       821 2.83969E-01
 -1       822 3.42175E+00
 -1       823 4.79229E+00
 -1       824 8.28215E+00
 -1       825 9.54143E-02
 -1       826 3.63231E+00
 -1       827 1.34586E-01
 -1       828 2.73678E-01
 -1       829 2.85450E-01
 -1       830 2.41004E-01
 -1       831 8.92012E+00
 -1       832 8.17645E+00
 -1       833 8.78235E+00
 -1       834 5.54210E+00
 -1       835 2.47989E-01
 -1       836 2.81121E-01
 -1       837 4.14829E+00
 -1       838 4.25637E+00
 -1       839 7.49508E+00
 -1       840 7.03113E+00
 -1       841 2.87753E-01
 -1       842 3.00729E-01
 -1       843 8.16654E+00
 -1       844 1.00027E+01
 -1       845 3.63102E-01
 -1       846 6.38218E+00
 -1       847 2.71411E+00
 -1       848 3.57524E-01
 -1       849 2.73309E+00
 -1       850 6.22491E+00
 -1       851 2.02747E+00
 -1       852 2.87753E-01
 -1       853 4.02661E-01
 -1       854 3.13135E-01
 -1       855 7.59364E+00
 -1       856 2.78621E-01
 -1       857 3.13135E-01
 -1       858 6.81128E+00
 -1       859 5.07160E+00
 -1       860 3.11266E-01
 -1       861 2.73983E-01
 -1       862 2.08031E-01
 -1       863 1.23579E-01
 -1       864 1.75845E-01
 -1       865 1.62584E-01
 -1       866 1.38393E-01
 -1       867 1.18233E-01
 -1       868 9.42693E-02
 -1       869 1.00516E-01
 -1       870 1.08366E-01
 -1       871 1.48841E-01
 -1       872 2.15895E-01
 -1       873 2.93570E-01
 -1       874 3.82120E-01
 -1       875 4.80220E-01
 -1       876 5.94234E-01
 -1       877 7.49405E-01
 -1       878 9.71757E-01
 -1       879 1.30202E+00
 -1       880 1.69179E+00
 -1       881 3.20674E+00
 -1       882 4.12696E+00
 -1       883 3.40139E+00
 -1       884 2.38567E+00
 -1       885 1.82825E+00
 -1       886 1.44849E+00
 -1       887 1.10093E+00
 -1       888 8.16077E-01
 -1       889 6.47009E-01
 -1       890 5.05535E-01
 -1       891 4.02957E-01
 -1       892 1.00497E-01
 -1       893 3.17780E-01
 -1       894 4.35632E-01
 -1       895 5.80383E-01
 -1       896 7.57510E-01
 -1       897 9.71868E-01
 -1       898 1.22541E+00
 -1       899 1.58452E+00
 -1       900 2.15883E+00
 -1       901 3.02105E+00
 -1       902 4.25428E+00
 -1       903 1.55770E-01
 -1       904 1.53133E+00
 -1       905 2.12492E+00
 -1       906 4.33694E+00
 -1       907 1.18171E+00
 -1       908 9.29506E-01
 -1       909 7.17516E-01
 -1       910 5.41762E-01
 -1       911 3.97931E-01
 -1       912 4.02661E-01
 -1       913 4.97765E+00
 -1       914 7.59364E+00
 -1       915 4.73445E+00
 -1       916 2.06329E-01
 -1       917 9.17298E-02
 -1       918 6.46830E+00
 -1       919 3.71740E-01
 -1       920 5.59463E+00
 -1       921 2.21870E-01
 -1       922 1.43482E-01
 -1       923 4.94867E+00
 -1       924 1.85086E-01
 -1       925 5.53957E+00
 -1       926 5.88131E+00
 -1       927 6.46830E+00
 -1       928 2.04018E-01
 -1       929 1.69986E-01
 -1       930 2.79411E-01
 -1       931 5.34324E+00
 -1       932 5.19122E+00
 -1       933 1.60230E-01
 -1       934 5.88131E+00
 -1       935 2.14942E-01
 -1       936 3.04451E-01
 -1       937 3.89789E-01
 -1       938 3.82327E-01
 -1       939 3.90316E-01
 -1       940 5.63301E+00
 -1       941 1.82011E-01
 -1       942 1.03423E-01
 -1       943 1.34894E-01
 -1       944 1.50838E-01
 -1       945 1.32138E-01
 -1       946 2.61051E-01
 -1       947 3.90316E-01
 -1       948 6.67006E+00
 -1       949 4.03749E+00
 -1       950 3.89789E-01
 -1       951 6.70117E-01
 -1       952 1.22425E-01
 -1       953 1.05988E-01
 -1       954 1.06414E-01
 -1       955 1.16523E-01
 -1       956 1.28390E-01
 -1       957 1.44257E-01
 -1       958 1.95809E-01
 -1       959 2.68708E-01
 -1       960 3.57279E-01
 -1       961 4.64528E-01
 -1       962 5.94234E-01
 -1       963 7.49405E-01
 -1       964 9.33713E-01
 -1       965 1.24392E+00
 -1       966 1.65634E+00
 -1       967 2.37271E+00
 -1       968 2.04588E-01
 -1       969 2.54765E+00
 -1       970 2.11396E+00
 -1       971 1.42567E+00
 -1       972 1.05821E+00
 -1       973 8.10498E-01
 -1       974 6.47009E-01
 -1       975 5.04192E-01
 -1       976 3.76853E-01
 -1       977 8.87116E-01
 -1       978 1.17912E+00
 -1       979 1.58452E+00
 -1       980 2.16295E+00
 -1       981 5.33717E+00
 -1       982 1.53133E+00
 -1       983 3.93663E+00
 -1       984 8.46564E-01
 -1       985 6.33708E-01
 -1       986 4.58253E-01
 -1       987 4.39771E+00
 -1       988 1.22951E-01
 -1       989 6.67006E+00
 -1       990 1.18689E-01
 -1       991 5.05145E-01
 -1       992 2.75175E-01
 -1       993 1.38654E-01
 -1       994 1.21427E-01
 -1       995 1.19529E-01
 -1       996 4.08115E+00
 -1       997 1.47865E-01
 -1       998 2.09826E+00
 -1       999 5.33717E+00
 -1      1000 1.42836E-01
 -1      1001 4.14617E+00
 -1      1002 3.15224E+00
 -1      1003 1.28733E-01
 -1      1004 1.13088E+00
 -1      1005 5.02536E+00
 -1      1006 4.88324E-01
 -1      1007 3.59656E+00
 -1      1008 1.03534E-01
 -1      1009 4.73735E-01
 -1      1010 9.72093E-02
 -1      1011 1.09642E-01
 -1      1012 2.61051E-01
 -1      1013 7.60759E-02
 -1      1014 1.37105E-01
 -1      1015 1.93785E-01
 -1      1016 1.59755E-01
 -1      1017 1.71247E-01
 -1      1018 4.48059E-01
 -1      1019 3.15224E+00
 -1      1020 2.05317E-01
 -1      1021 3.32236E+00
 -1      1022 9.76784E-02
 -1      1023 9.35988E-01
 -1      1024 3.35767E+00
 -1      1025 1.08924E-01
 -1      1026 1.20583E-01
 -1      1027 1.36304E-01
 -1      1028 1.53873E-01
 -1      1029 1.84597E-01
 -1      1030 2.22949E-01
 -1      1031 3.00813E-01
 -1      1032 3.99631E-01
 -1      1033 5.28962E-01
 -1      1034 7.00870E-01
 -1      1035 9.33713E-01
 -1      1036 1.24392E+00
 -1      1037 2.66912E+00
 -1      1038 3.32236E+00
 -1      1039 8.78230E-02
 -1      1040 2.74189E+00
 -1      1041 1.41112E+00
 -1      1042 1.05821E+00
 -1      1043 7.95144E-01
 -1      1044 6.01014E-01
 -1      1045 1.30198E+00
 -1      1046 6.90397E-01
 -1      1047 1.86620E+00
 -1      1048 3.44257E+00
 -1      1049 5.18741E-01
 -1      1050 6.97029E-01
 -1      1051 9.68137E-02
 -1      1052 2.60409E+00
 -1      1053 2.94291E-01
 -1      1054 1.05726E-01
 -1      1055 3.91717E-01
 -1      1056 4.72841E-01
 -1      1057 1.84835E+00
 -1      1058 3.35767E+00
 -1      1059 3.18265E+00
 -1      1060 1.10700E-01
 -1      1061 7.05910E-02
 -1      1062 1.04901E-01
 -1      1063 5.02536E+00
 -1      1064 2.93197E+00
 -1      1065 1.01522E-01
 -1      1066 1.25961E-01
 -1      1067 1.16081E-01
 -1      1068 2.16569E-01
 -1      1069 2.66169E+00
 -1      1070 1.84835E+00
 -1      1071 1.17400E+00
 -1      1072 9.87301E-02
 -1      1073 5.99239E-01
 -1      1074 1.43689E-01
 -1      1075 1.02069E+00
 -1      1076 1.47085E+00
 -1      1077 1.20583E-01
 -1      1078 1.65273E-01
 -1      1079 1.53873E-01
 -1      1080 1.84597E-01
 -1      1081 2.16445E-01
 -1      1082 2.97143E-01
 -1      1083 3.97343E-01
 -1      1084 5.34387E-01
 -1      1085 7.30031E-01
 -1      1086 1.02069E+00
 -1      1087 1.47085E+00
 -1      1088 2.57754E+00
 -1      1089 1.85155E+00
 -1      1090 2.74189E+00
 -1      1091 1.52769E+00
 -1      1092 8.97242E-01
 -1      1093 6.42072E-01
 -1      1094 2.46523E+00
 -1      1095 7.30031E-01
 -1      1096 5.43652E-01
 -1      1097 4.21745E-01
 -1      1098 1.32151E-01
 -1      1099 8.54314E-02
 -1      1100 1.08924E-01
 -1      1101 1.71714E-01
 -1      1102 5.25657E-01
 -1      1103 6.42877E-02
 -1      1104 1.16888E-01
 -1      1105 3.30240E-01
 -1      1106 9.76784E-02
 -1      1107 9.09574E-02
 -1      1108 1.66824E-01
 -1      1109 4.77673E-02
 -1      1110 7.76953E-01
 -1      1111 3.13900E-01
 -1      1112 9.41539E-01
 -1      1113 1.04901E-01
 -1      1114 1.66824E-01
 -1      1115 1.66824E-01
 -1      1116 1.72454E-01
 -1      1117 3.13900E-01
 -1      1118 1.17117E-01
 -1      1119 1.30809E+00
 -1      1120 9.41539E-01
 -1      1121 2.09490E-01
 -1      1122 1.17117E-01
 -1      1123 1.31501E+01
 -1      1124 8.40391E+00
 -1      1125 2.73703E+00
 -1      1126 1.55214E+00
 -1      1127 1.16511E+00
 -1      1128 9.69367E-01
 -1      1129 8.51600E-01
 -1      1130 7.80102E-01
 -1      1131 7.54372E-01
 -1      1132 7.83202E-01
 -1      1133 8.54608E-01
 -1      1134 9.73609E-01
 -1      1135 1.17628E+00
 -1      1136 1.56593E+00
 -1      1137 2.66394E+00
 -1      1138 6.07128E+00
 -1      1139 1.13445E+01
 -1      1140 1.31501E+01
 -1      1141 8.73905E+00
 -1      1142 3.84076E+00
 -1      1143 2.73959E+00
 -1      1144 1.75248E+00
 -1      1145 1.20650E+00
 -1      1146 9.16892E-01
 -1      1147 7.13650E-01
 -1      1148 5.61319E-01
 -1      1149 4.45379E-01
 -1      1150 3.57958E-01
 -1      1151 2.93698E-01
 -1      1152 2.48170E-01
 -1      1153 2.28491E-01
 -1      1154 2.44651E-01
 -1      1155 2.84333E-01
 -1      1156 3.33093E-01
 -1      1157 3.86911E-01
 -1      1158 4.40700E-01
 -1      1159 5.30439E-01
 -1      1160 6.68874E-01
 -1      1161 8.21526E-01
 -1      1162 9.52087E-01
 -1      1163 1.00498E+00
 -1      1164 1.03058E+00
 -1      1165 1.05618E+00
 -1      1166 1.17409E+00
 -1      1167 1.51335E+00
 -1      1168 2.25741E+00
 -1      1169 3.03705E+00
 -1      1170 3.29399E+00
 -1      1171 3.27118E+00
 -1      1172 3.18400E+00
 -1      1173 2.69813E+00
 -1      1174 1.85343E+00
 -1      1175 1.25628E+00
 -1      1176 1.06906E+00
 -1      1177 1.03765E+00
 -1      1178 1.01949E+00
 -1      1179 9.87881E-01
 -1      1180 8.84823E-01
 -1      1181 7.27725E-01
 -1      1182 5.72791E-01
 -1      1183 4.81478E-01
 -1      1184 4.30544E-01
 -1      1185 3.68344E-01
 -1      1186 2.98026E-01
 -1      1187 2.46695E-01
 -1      1188 1.91389E-01
 -1      1189 9.37391E-02
 -1      1190 1.40460E+01
 -1      1191 8.72447E+00
 -1      1192 2.91318E+00
 -1      1193 2.05073E+00
 -1      1194 1.41856E+00
 -1      1195 1.04118E+00
 -1      1196 8.38989E-01
 -1      1197 6.87113E-01
 -1      1198 5.65188E-01
 -1      1199 4.68130E-01
 -1      1200 3.93321E-01
 -1      1201 3.39042E-01
 -1      1202 3.03774E-01
 -1      1203 2.88510E-01
 -1      1204 2.94915E-01
 -1      1205 3.23528E-01
 -1      1206 3.82377E-01
 -1      1207 4.67411E-01
 -1      1208 5.64183E-01
 -1      1209 6.63592E-01
 -1      1210 7.48872E-01
 -1      1211 7.96457E-01
 -1      1212 9.28111E-01
 -1      1213 1.18450E+00
 -1      1214 1.39586E+00
 -1      1215 1.62058E+00
 -1      1216 1.83195E+00
 -1      1217 2.02646E+00
 -1      1218 2.44077E+00
 -1      1219 3.40411E+00
 -1      1220 4.33411E+00
 -1      1221 4.61680E+00
 -1      1222 4.65091E+00
 -1      1223 3.89050E+00
 -1      1224 2.47298E+00
 -1      1225 1.62496E+00
 -1      1226 1.56352E+00
 -1      1227 1.69299E+00
 -1      1228 1.68954E+00
 -1      1229 1.59174E+00
 -1      1230 1.37772E+00
 -1      1231 1.14686E+00
 -1      1232 9.24757E-01
 -1      1233 7.12676E-01
 -1      1234 5.45601E-01
 -1      1235 4.31304E-01
 -1      1236 3.35936E-01
 -1      1237 2.38559E-01
 -1      1238 1.56419E-01
 -1      1239 8.00679E-02
 -1      1240 4.47096E-02
 -1      1241 5.39455E-02
 -1      1242 5.06788E-02
 -1      1243 3.65222E-02
 -1      1244 2.47530E-02
 -1      1245 3.18777E-02
 -1      1246 4.43691E-02
 -1      1247 4.96699E-02
 -1      1248 5.04833E-02
 -1      1249 4.81518E-02
 -1      1250 4.01084E-02
 -1      1251 2.64783E-02
 -1      1252 2.24083E-02
 -1      1253 3.52313E-02
 -1      1254 5.53475E-02
 -1      1255 6.95747E-02
 -1      1256 5.48741E-02
 -1      1257 2.53285E+01
 -1      1258 3.61553E+01
 -1      1259 4.69822E+01
 -1      1260 3.43307E+01
 -1      1261 1.68685E+01
 -1      1262 1.21396E+01
 -1      1263 1.23080E+01
 -1      1264 1.29216E+01
 -1      1265 1.34485E+01
 -1      1266 1.31508E+01
 -1      1267 2.07191E+01
 -1      1268 2.94237E+01
 -1      1269 2.96931E+01
 -1      1270 2.71844E+01
 -1      1271 2.54460E+01
 -1      1272 2.56469E+01
 -1      1273 3.42045E+01
 -1      1274 4.27622E+01
 -1      1275 2.91456E+01
 -1      1276 1.37996E+01
 -1      1277 1.24697E+01
 -1      1278 1.28693E+01
 -1      1279 1.27922E+01
 -1      1280 1.27150E+01
 -1      1281 1.50990E+01
 -1      1282 3.11659E+01
 -1      1283 4.48487E+01
 -1      1284 3.46360E+01
 -1      1285 2.48759E+01
 -1      1286 1.31501E+01
 -1      1287 4.86458E+00
 -1      1288 9.61081E+00
 -1      1289 2.05379E+00
 -1      1290 2.97444E+00
 -1      1291 4.18134E+00
 -1      1292 1.39604E+00
 -1      1293 1.66028E+00
 -1      1294 1.89768E+00
 -1      1295 1.09821E+00
 -1      1296 1.22100E+00
 -1      1297 1.32914E+00
 -1      1298 9.33426E-01
 -1      1299 1.00638E+00
 -1      1300 1.06227E+00
 -1      1301 8.34471E-01
 -1      1302 8.79288E-01
 -1      1303 9.16297E-01
 -1      1304 7.74164E-01
 -1      1305 8.00845E-01
 -1      1306 8.28533E-01
 -1      1307 7.55323E-01
 -1      1308 7.54372E-01
 -1      1309 7.75115E-01
 -1      1310 8.04681E-01
 -1      1311 7.76802E-01
 -1      1312 7.76802E-01
 -1      1313 8.81773E-01
 -1      1314 8.38246E-01
 -1      1315 8.31846E-01
 -1      1316 1.01371E+00
 -1      1317 9.38239E-01
 -1      1318 9.21877E-01
 -1      1319 1.23621E+00
 -1      1320 1.10901E+00
 -1      1321 1.07364E+00
 -1      1322 1.67577E+00
 -1      1323 1.41332E+00
 -1      1324 1.34605E+00
 -1      1325 2.87774E+00
 -1      1326 2.04218E+00
 -1      1327 1.88957E+00
 -1      1328 6.28512E+00
 -1      1329 3.71334E+00
 -1      1330 3.09158E+00
 -1      1331 1.40460E+01
 -1      1332 1.13445E+01
 -1      1333 8.98660E+00
 -1      1334 1.40460E+01
 -1      1335 8.73905E+00
 -1      1336 4.32796E+00
 -1      1337 3.84076E+00
 -1      1338 3.35356E+00
 -1      1339 3.84076E+00
 -1      1340 2.73959E+00
 -1      1341 2.12563E+00
 -1      1342 2.73959E+00
 -1      1343 1.79313E+00
 -1      1344 1.41999E+00
 -1      1345 1.79313E+00
 -1      1346 1.21001E+00
 -1      1347 1.03717E+00
 -1      1348 1.25065E+00
 -1      1349 9.16892E-01
 -1      1350 8.00126E-01
 -1      1351 9.20401E-01
 -1      1352 7.13650E-01
 -1      1353 6.27174E-01
 -1      1354 7.13650E-01
 -1      1355 5.62681E-01
 -1      1356 4.96825E-01
 -1      1357 5.62681E-01
 -1      1358 4.49953E-01
 -1      1359 3.99868E-01
 -1      1360 4.51315E-01
 -1      1361 3.62285E-01
 -1      1362 3.24949E-01
 -1      1363 3.66859E-01
 -1      1364 2.95354E-01
 -1      1365 2.68430E-01
 -1      1366 2.99680E-01
 -1      1367 2.48170E-01
 -1      1368 2.29567E-01
 -1      1369 2.49826E-01
 -1      1370 2.17226E-01
 -1      1371 2.16150E-01
 -1      1372 2.17226E-01
 -1      1373 2.27415E-01
 -1      1374 2.44651E-01
 -1      1375 2.16150E-01
 -1      1376 2.61888E-01
 -1      1377 2.84333E-01
 -1      1378 2.44651E-01
 -1      1379 3.06777E-01
 -1      1380 3.33093E-01
 -1      1381 2.84333E-01
 -1      1382 3.59409E-01
 -1      1383 3.86911E-01
 -1      1384 3.33093E-01
 -1      1385 4.25808E-01
 -1      1386 4.52094E-01
 -1      1387 3.98305E-01
 -1      1388 5.00969E-01
 -1      1389 5.64422E-01
 -1      1390 4.86077E-01
 -1      1391 6.08626E-01
 -1      1392 6.83608E-01
 -1      1393 5.79156E-01
 -1      1394 7.43856E-01
 -1      1395 8.21526E-01
 -1      1396 6.83608E-01
 -1      1397 8.99197E-01
 -1      1398 9.52087E-01
 -1      1399 8.21526E-01
 -1      1400 1.00498E+00
 -1      1401 1.00498E+00
 -1      1402 9.52087E-01
 -1      1403 1.00062E+00
 -1      1404 1.02622E+00
 -1      1405 1.00062E+00
 -1      1406 1.05618E+00
 -1      1407 1.05618E+00
 -1      1408 1.02622E+00
 -1      1409 1.02718E+00
 -1      1410 1.14508E+00
 -1      1411 1.02718E+00
 -1      1412 1.29199E+00
 -1      1413 1.51335E+00
 -1      1414 1.14508E+00
 -1      1415 1.77846E+00
 -1      1416 2.30116E+00
 -1      1417 1.55710E+00
 -1      1418 2.78011E+00
 -1      1419 3.03705E+00
 -1      1420 2.30116E+00
 -1      1421 3.29399E+00
 -1      1422 3.29399E+00
 -1      1423 3.03705E+00
 -1      1424 3.27118E+00
 -1      1425 3.24837E+00
 -1      1426 3.27118E+00
 -1      1427 3.18400E+00
 -1      1428 3.11964E+00
 -1      1429 3.18400E+00
 -1      1430 2.69813E+00
 -1      1431 2.27661E+00
 -1      1432 2.69813E+00
 -1      1433 1.86049E+00
 -1      1434 1.43731E+00
 -1      1435 1.86049E+00
 -1      1436 1.25628E+00
 -1      1437 1.08231E+00
 -1      1438 1.26334E+00
 -1      1439 1.06906E+00
 -1      1440 1.05580E+00
 -1      1441 1.06906E+00
 -1      1442 1.02411E+00
 -1      1443 1.00596E+00
 -1      1444 1.02411E+00
 -1      1445 1.01949E+00
 -1      1446 1.01949E+00
 -1      1447 1.00596E+00
 -1      1448 9.87881E-01
 -1      1449 9.56271E-01
 -1      1450 9.87881E-01
 -1      1451 8.84823E-01
 -1      1452 8.13375E-01
 -1      1453 8.84823E-01
 -1      1454 7.39458E-01
 -1      1455 6.53809E-01
 -1      1456 7.39458E-01
 -1      1457 5.99106E-01
 -1      1458 5.29821E-01
 -1      1459 6.10839E-01
 -1      1460 4.81478E-01
 -1      1461 4.59450E-01
 -1      1462 5.07793E-01
 -1      1463 4.30544E-01
 -1      1464 4.01637E-01
 -1      1465 4.30544E-01
 -1      1466 3.68344E-01
 -1      1467 3.35051E-01
 -1      1468 3.68344E-01
 -1      1469 2.98026E-01
 -1      1470 2.61001E-01
 -1      1471 2.98026E-01
 -1      1472 2.46695E-01
 -1      1473 2.32388E-01
 -1      1474 2.46695E-01
 -1      1475 1.91389E-01
 -1      1476 1.50390E-01
 -1      1477 1.91389E-01
 -1      1478 1.11525E-01
 -1      1479 1.11525E-01
 -1      1480 3.40292E+00
 -1      1481 8.72447E+00
 -1      1482 8.72447E+00
 -1      1483 2.42344E+00
 -1      1484 2.91318E+00
 -1      1485 2.91318E+00
 -1      1486 1.67802E+00
 -1      1487 2.05073E+00
 -1      1488 2.05073E+00
 -1      1489 1.15910E+00
 -1      1490 1.41856E+00
 -1      1491 1.41856E+00
 -1      1492 9.23270E-01
 -1      1493 1.04118E+00
 -1      1494 1.04118E+00
 -1      1495 7.54707E-01
 -1      1496 8.38989E-01
 -1      1497 8.38989E-01
 -1      1498 6.19518E-01
 -1      1499 6.87113E-01
 -1      1500 6.87113E-01
 -1      1501 5.10859E-01
 -1      1502 5.65188E-01
 -1      1503 5.65188E-01
 -1      1504 4.25402E-01
 -1      1505 4.68130E-01
 -1      1506 4.68130E-01
 -1      1507 3.61240E-01
 -1      1508 3.93321E-01
 -1      1509 3.93321E-01
 -1      1510 3.16843E-01
 -1      1511 3.39042E-01
 -1      1512 3.39042E-01
 -1      1513 2.90705E-01
 -1      1514 3.03774E-01
 -1      1515 3.03774E-01
 -1      1516 2.83748E-01
 -1      1517 2.85943E-01
 -1      1518 2.85943E-01
 -1      1519 2.94915E-01
 -1      1520 2.86315E-01
 -1      1521 2.83748E-01
 -1      1522 3.24042E-01
 -1      1523 3.04028E-01
 -1      1524 2.95428E-01
 -1      1525 3.95005E-01
 -1      1526 3.56170E-01
 -1      1527 3.36669E-01
 -1      1528 4.78811E-01
 -1      1529 4.32612E-01
 -1      1530 4.06404E-01
 -1      1531 5.70149E-01
 -1      1532 5.19577E-01
 -1      1533 4.84777E-01
 -1      1534 6.63592E-01
 -1      1535 6.14755E-01
 -1      1536 5.70149E-01
 -1      1537 7.48872E-01
 -1      1538 7.12428E-01
 -1      1539 6.63592E-01
 -1      1540 7.96457E-01
 -1      1541 7.85315E-01
 -1      1542 7.48872E-01
 -1      1543 9.82822E-01
 -1      1544 8.62310E-01
 -1      1545 8.51168E-01
 -1      1546 1.20327E+00
 -1      1547 1.06739E+00
 -1      1548 1.00159E+00
 -1      1549 1.39586E+00
 -1      1550 1.32037E+00
 -1      1551 1.20327E+00
 -1      1552 1.62058E+00
 -1      1553 1.47136E+00
 -1      1554 1.39586E+00
 -1      1555 1.83195E+00
 -1      1556 1.76979E+00
 -1      1557 1.62058E+00
 -1      1558 2.02646E+00
 -1      1559 1.89411E+00
 -1      1560 1.83195E+00
 -1      1561 2.44077E+00
 -1      1562 2.15882E+00
 -1      1563 2.02646E+00
 -1      1564 3.43143E+00
 -1      1565 2.75002E+00
 -1      1566 2.46808E+00
 -1      1567 4.33411E+00
 -1      1568 4.08552E+00
 -1      1569 3.43143E+00
 -1      1570 4.61680E+00
 -1      1571 4.58269E+00
 -1      1572 4.33411E+00
 -1      1573 4.65091E+00
 -1      1574 4.65091E+00
 -1      1575 4.61680E+00
 -1      1576 3.13008E+00
 -1      1577 3.89050E+00
 -1      1578 3.89050E+00
 -1      1579 1.81588E+00
 -1      1580 2.47298E+00
 -1      1581 2.47298E+00
 -1      1582 1.35673E+00
 -1      1583 1.54765E+00
 -1      1584 1.54765E+00
 -1      1585 1.56352E+00
 -1      1586 1.43405E+00
 -1      1587 1.35673E+00
 -1      1588 1.69299E+00
 -1      1589 1.69299E+00
 -1      1590 1.56352E+00
 -1      1591 1.68608E+00
 -1      1592 1.68954E+00
 -1      1593 1.68954E+00
 -1      1594 1.49739E+00
 -1      1595 1.59174E+00
 -1      1596 1.59174E+00
 -1      1597 1.25804E+00
 -1      1598 1.37772E+00
 -1      1599 1.37772E+00
 -1      1600 1.03627E+00
 -1      1601 1.14745E+00
 -1      1602 1.14745E+00
 -1      1603 8.25660E-01
 -1      1604 9.36588E-01
 -1      1605 9.37175E-01
 -1      1606 6.29197E-01
 -1      1607 7.30349E-01
 -1      1608 7.42180E-01
 -1      1609 4.79679E-01
 -1      1610 5.45601E-01
 -1      1611 5.63275E-01
 -1      1612 3.82928E-01
 -1      1613 4.31304E-01
 -1      1614 4.31304E-01
 -1      1615 2.88943E-01
 -1      1616 3.35936E-01
 -1      1617 3.35936E-01
 -1      1618 1.90768E-01
 -1      1619 2.41152E-01
 -1      1620 2.41152E-01
 -1      1621 1.24662E-01
 -1      1622 1.56419E-01
 -1      1623 1.59011E-01
 -1      1624 8.93038E-02
 -1      1625 6.44317E-02
 -1      1626 6.44317E-02
 -1      1627 6.11650E-02
 -1      1628 6.44317E-02
 -1      1629 7.49179E-02
 -1      1630 5.02595E-02
 -1      1631 6.11495E-02
 -1      1632 7.49023E-02
 -1      1633 3.26770E-02
 -1      1634 3.35562E-02
 -1      1635 5.81835E-02
 -1      1636 5.60996E-02
 -1      1637 4.80957E-02
 -1      1638 5.68990E-02
 -1      1639 7.01288E-02
 -1      1640 6.56413E-02
 -1      1641 8.18593E-02
 -1      1642 7.38059E-02
 -1      1643 7.29926E-02
 -1      1644 9.42648E-02
 -1      1645 7.38059E-02
 -1      1646 7.38059E-02
 -1      1647 9.71286E-02
 -1      1648 7.09224E-02
 -1      1649 7.32539E-02
 -1      1650 9.65766E-02
 -1      1651 5.91793E-02
 -1      1652 6.48912E-02
 -1      1653 8.99933E-02
 -1      1654 4.02798E-02
 -1      1655 4.81981E-02
 -1      1656 7.29809E-02
 -1      1657 3.09539E-02
 -1      1658 2.71055E-02
 -1      1659 4.88254E-02
 -1      1660 5.77677E-02
 -1      1661 4.87931E-02
 -1      1662 5.34903E-02
 -1      1663 6.89093E-02
 -1      1664 5.77677E-02
 -1      1665 7.13296E-02
 -1      1666 8.10362E-02
 -1      1667 7.79507E-02
 -1      1668 8.03709E-02
 -1      1669 1.19901E-01
 -1      1670 2.76617E+01
 -1      1671 2.76617E+01
 -1      1672 3.76540E+01
 -1      1673 2.68271E+01
 -1      1674 4.69822E+01
 -1      1675 4.69822E+01
 -1      1676 2.18469E+01
 -1      1677 3.44984E+01
 -1      1678 1.18929E+01
 -1      1679 1.67036E+01
 -1      1680 1.21396E+01
 -1      1681 1.20578E+01
 -1      1682 1.23080E+01
 -1      1683 1.22213E+01
 -1      1684 1.29216E+01
 -1      1685 1.23947E+01
 -1      1686 1.34485E+01
 -1      1687 1.34485E+01
 -1      1688 1.27823E+01
 -1      1689 1.30800E+01
 -1      1690 2.07191E+01
 -1      1691 1.28531E+01
 -1      1692 3.02624E+01
 -1      1693 2.94237E+01
 -1      1694 2.96931E+01
 -1      1695 3.02624E+01
 -1      1696 2.52451E+01
 -1      1697 2.71844E+01
 -1      1698 2.79448E+01
 -1      1699 2.77439E+01
 -1      1700 2.79448E+01
 -1      1701 2.79448E+01
 -1      1702 4.01993E+01
 -1      1703 3.16416E+01
 -1      1704 4.27622E+01
 -1      1705 4.27622E+01
 -1      1706 1.56669E+01
 -1      1707 2.92835E+01
 -1      1708 1.14082E+01
 -1      1709 1.31377E+01
 -1      1710 1.24697E+01
 -1      1711 1.20700E+01
 -1      1712 1.28693E+01
 -1      1713 1.28693E+01
 -1      1714 1.23301E+01
 -1      1715 1.24073E+01
 -1      1716 1.27150E+01
 -1      1717 1.27150E+01
 -1      1718 1.46857E+01
 -1      1719 1.23016E+01
 -1      1720 3.11659E+01
 -1      1721 1.74831E+01
 -1      1722 4.48487E+01
 -1      1723 4.48487E+01
 -1      1724 3.19011E+01
 -1      1725 4.21138E+01
 -1      1726 2.76617E+01
 -1      1727 2.72091E+01
 -1      1728 1.68713E+01
 -1      1729 3.44984E+01
 -1      1730 8.93038E-02
 -1      1731 9.97900E-02
 -1      1732 2.91604E+01
 -1      1733 3.76540E+01
 -1      1734 2.99949E+01
 -1      1735 1.18929E+01
 -1      1736 1.21396E+01
 -1      1737 1.23080E+01
 -1      1738 1.29216E+01
 -1      1739 1.30800E+01
 -1      1740 1.27823E+01
 -1      1741 2.15577E+01
 -1      1742 3.02624E+01
 -1      1743 2.77537E+01
 -1      1744 2.77439E+01
 -1      1745 3.02427E+01
 -1      1746 3.39396E+01
 -1      1747 4.01993E+01
 -1      1748 2.92835E+01
 -1      1749 1.32756E+01
 -1      1750 1.14082E+01
 -1      1751 1.24697E+01
 -1      1752 1.24073E+01
 -1      1753 1.23301E+01
 -1      1754 1.23016E+01
 -1      1755 1.46857E+01
 -1      1756 3.11659E+01
 -1      1757 4.21138E+01
 -1      1758 3.46869E+01
 -1      1759 9.61081E+00
 -1      1760 1.27173E+00
 -1      1761 1.66524E+00
 -1      1762 2.38218E+00
 -1      1763 4.27232E+00
 -1      1764 1.75622E+00
 -1      1765 8.79270E-01
 -1      1766 9.71106E-01
 -1      1767 7.76759E-01
 -1      1768 8.30897E-01
 -1      1769 7.39733E-01
 -1      1770 7.12350E-01
 -1      1771 7.45977E-01
 -1      1772 6.60577E-01
 -1      1773 6.70806E-01
 -1      1774 6.90597E-01
 -1      1775 6.08042E-01
 -1      1776 6.93847E-01
 -1      1777 6.72368E-01
 -1      1778 5.87851E-01
 -1      1779 7.49002E-01
 -1      1780 7.15436E-01
 -1      1781 6.11002E-01
 -1      1782 8.38528E-01
 -1      1783 7.82062E-01
 -1      1784 6.65652E-01
 -1      1785 9.81137E-01
 -1      1786 8.85838E-01
 -1      1787 7.46024E-01
 -1      1788 1.22569E+00
 -1      1789 1.04858E+00
 -1      1790 8.60778E-01
 -1      1791 1.70452E+00
 -1      1792 1.33811E+00
 -1      1793 1.04065E+00
 -1      1794 2.62457E+00
 -1      1795 1.78896E+00
 -1      1796 1.23751E+00
 -1      1797 8.12472E+00
 -1      1798 3.06531E+00
 -1      1799 1.76269E+00
 -1      1800 2.80318E+00
 -1      1801 5.19972E+00
 -1      1802 2.17019E+00
 -1      1803 2.65993E+00
 -1      1804 2.06019E+00
 -1      1805 3.40056E+00
 -1      1806 2.54643E+00
 -1      1807 1.93247E+00
 -1      1808 1.70237E+00
 -1      1809 1.36987E+00
 -1      1810 1.50921E+00
 -1      1811 1.19013E+00
 -1      1812 9.80148E-01
 -1      1813 1.09937E+00
 -1      1814 8.55260E-01
 -1      1815 7.34985E-01
 -1      1816 7.94732E-01
 -1      1817 6.80247E-01
 -1      1818 5.93771E-01
 -1      1819 6.15107E-01
 -1      1820 5.47585E-01
 -1      1821 4.83092E-01
 -1      1822 5.14182E-01
 -1      1823 4.42987E-01
 -1      1824 3.96115E-01
 -1      1825 4.27892E-01
 -1      1826 3.62305E-01
 -1      1827 3.24721E-01
 -1      1828 3.53977E-01
 -1      1829 2.96920E-01
 -1      1830 2.67325E-01
 -1      1831 2.92366E-01
 -1      1832 2.44802E-01
 -1      1833 2.24543E-01
 -1      1834 2.42042E-01
 -1      1835 2.06217E-01
 -1      1836 1.93876E-01
 -1      1837 2.01193E-01
 -1      1838 1.95404E-01
 -1      1839 2.06668E-01
 -1      1840 1.84395E-01
 -1      1841 2.19903E-01
 -1      1842 2.37140E-01
 -1      1843 1.99157E-01
 -1      1844 2.54019E-01
 -1      1845 2.76464E-01
 -1      1846 2.29271E-01
 -1      1847 3.04931E-01
 -1      1848 3.31247E-01
 -1      1849 2.74617E-01
 -1      1850 3.75477E-01
 -1      1851 4.14373E-01
 -1      1852 3.47314E-01
 -1      1853 4.58736E-01
 -1      1854 5.07611E-01
 -1      1855 4.35907E-01
 -1      1856 5.46894E-01
 -1      1857 5.91098E-01
 -1      1858 5.19553E-01
 -1      1859 6.28256E-01
 -1      1860 6.88504E-01
 -1      1861 5.95994E-01
 -1      1862 7.29062E-01
 -1      1863 8.06733E-01
 -1      1864 6.73711E-01
 -1      1865 8.31846E-01
 -1      1866 8.84735E-01
 -1      1867 7.39382E-01
 -1      1868 8.66603E-01
 -1      1869 8.62246E-01
 -1      1870 7.46362E-01
 -1      1871 7.81366E-01
 -1      1872 8.11325E-01
 -1      1873 6.47350E-01
 -1      1874 7.98481E-01
 -1      1875 7.69480E-01
 -1      1876 5.53626E-01
 -1      1877 8.79486E-01
 -1      1878 1.02639E+00
 -1      1879 6.50788E-01
 -1      1880 1.28761E+00
 -1      1881 1.55271E+00
 -1      1882 1.02201E+00
 -1      1883 1.75434E+00
 -1      1884 2.23329E+00
 -1      1885 1.48485E+00
 -1      1886 2.41198E+00
 -1      1887 2.66892E+00
 -1      1888 1.86516E+00
 -1      1889 2.65070E+00
 -1      1890 2.62789E+00
 -1      1891 2.02563E+00
 -1      1892 2.66068E+00
 -1      1893 2.59632E+00
 -1      1894 2.04021E+00
 -1      1895 2.51242E+00
 -1      1896 2.09091E+00
 -1      1897 1.98910E+00
 -1      1898 1.87054E+00
 -1      1899 1.45442E+00
 -1      1900 1.68484E+00
 -1      1901 1.23823E+00
 -1      1902 1.05720E+00
 -1      1903 1.24828E+00
 -1      1904 8.35285E-01
 -1      1905 8.22031E-01
 -1      1906 8.10173E-01
 -1      1907 7.99347E-01
 -1      1908 7.67657E-01
 -1      1909 5.65575E-01
 -1      1910 8.26507E-01
 -1      1911 8.40041E-01
 -1      1912 6.01740E-01
 -1      1913 8.86592E-01
 -1      1914 8.54982E-01
 -1      1915 7.07141E-01
 -1      1916 8.45756E-01
 -1      1917 7.74308E-01
 -1      1918 7.44467E-01
 -1      1919 7.32428E-01
 -1      1920 6.58512E-01
 -1      1921 6.93362E-01
 -1      1922 6.17560E-01
 -1      1923 5.62857E-01
 -1      1924 6.10530E-01
 -1      1925 5.25993E-01
 -1      1926 4.77650E-01
 -1      1927 5.32715E-01
 -1      1928 4.33081E-01
 -1      1929 4.04174E-01
 -1      1930 4.51281E-01
 -1      1931 3.58404E-01
 -1      1932 3.25111E-01
 -1      1933 3.60941E-01
 -1      1934 2.93628E-01
 -1      1935 2.56603E-01
 -1      1936 2.83688E-01
 -1      1937 2.26962E-01
 -1      1938 2.12656E-01
 -1      1939 2.22564E-01
 -1      1940 1.81597E-01
 -1      1941 1.40598E-01
 -1      1942 1.10109E-01
 -1      1943 1.61864E-01
 -1      1944 1.40845E+00
 -1      1945 1.78116E+00
 -1      1946 1.52791E+00
 -1      1947 1.03023E+00
 -1      1948 1.28969E+00
 -1      1949 1.02012E+00
 -1      1950 8.18866E-01
 -1      1951 9.36780E-01
 -1      1952 8.07913E-01
 -1      1953 6.55284E-01
 -1      1954 7.39566E-01
 -1      1955 6.35162E-01
 -1      1956 5.38380E-01
 -1      1957 6.05975E-01
 -1      1958 5.06552E-01
 -1      1959 4.52491E-01
 -1      1960 5.06821E-01
 -1      1961 4.25683E-01
 -1      1962 3.79593E-01
 -1      1963 4.22322E-01
 -1      1964 3.63954E-01
 -1      1965 3.25869E-01
 -1      1966 3.57950E-01
 -1      1967 3.12141E-01
 -1      1968 2.87564E-01
 -1      1969 3.09762E-01
 -1      1970 2.74392E-01
 -1      1971 2.63420E-01
 -1      1972 2.76489E-01
 -1      1973 2.47210E-01
 -1      1974 2.52510E-01
 -1      1975 2.57271E-01
 -1      1976 2.29986E-01
 -1      1977 2.53410E-01
 -1      1978 2.50843E-01
 -1      1979 2.22171E-01
 -1      1980 2.78001E-01
 -1      1981 2.68889E-01
 -1      1982 2.35983E-01
 -1      1983 3.52099E-01
 -1      1984 3.19971E-01
 -1      1985 2.93432E-01
 -1      1986 4.52998E-01
 -1      1987 4.15391E-01
 -1      1988 3.98693E-01
 -1      1989 5.67756E-01
 -1      1990 5.26990E-01
 -1      1991 5.35977E-01
 -1      1992 6.94453E-01
 -1      1993 6.49847E-01
 -1      1994 6.92060E-01
 -1      1995 8.26551E-01
 -1      1996 7.77715E-01
 -1      1997 8.57413E-01
 -1      1998 9.34219E-01
 -1      1999 8.97776E-01
 -1      2000 1.01190E+00
 -1      2001 1.06356E+00
 -1      2002 9.97703E-01
 -1      2003 1.14661E+00
 -1      2004 1.16996E+00
 -1      2005 1.08539E+00
 -1      2006 1.23192E+00
 -1      2007 1.28706E+00
 -1      2008 1.16996E+00
 -1      2009 1.25375E+00
 -1      2010 1.29505E+00
 -1      2011 1.21955E+00
 -1      2012 1.18625E+00
 -1      2013 1.36215E+00
 -1      2014 1.21293E+00
 -1      2015 1.03662E+00
 -1      2016 1.47186E+00
 -1      2017 1.40970E+00
 -1      2018 1.00206E+00
 -1      2019 2.06008E+00
 -1      2020 1.92772E+00
 -1      2021 1.50548E+00
 -1      2022 2.55105E+00
 -1      2023 2.24179E+00
 -1      2024 2.14305E+00
 -1      2025 3.41827E+00
 -1      2026 2.76417E+00
 -1      2027 2.53789E+00
 -1      2028 3.73180E+00
 -1      2029 3.48321E+00
 -1      2030 2.81596E+00
 -1      2031 3.67306E+00
 -1      2032 3.63895E+00
 -1      2033 2.78806E+00
 -1      2034 2.63449E+00
 -1      2035 3.39491E+00
 -1      2036 2.41705E+00
 -1      2037 1.49147E+00
 -1      2038 2.14857E+00
 -1      2039 1.65298E+00
 -1      2040 1.11246E+00
 -1      2041 1.38069E+00
 -1      2042 1.05628E+00
 -1      2043 1.28281E+00
 -1      2044 1.20549E+00
 -1      2045 1.03853E+00
 -1      2046 1.47054E+00
 -1      2047 1.34107E+00
 -1      2048 1.18983E+00
 -1      2049 1.47989E+00
 -1      2050 1.48334E+00
 -1      2051 1.26089E+00
 -1      2052 1.35330E+00
 -1      2053 1.44764E+00
 -1      2054 1.24145E+00
 -1      2055 1.16981E+00
 -1      2056 1.28948E+00
 -1      2057 1.14539E+00
 -1      2058 9.90456E-01
 -1      2059 1.10105E+00
 -1      2060 1.01281E+00
 -1      2061 8.08912E-01
 -1      2062 9.08597E-01
 -1      2063 8.62193E-01
 -1      2064 6.31636E-01
 -1      2065 7.26946E-01
 -1      2066 6.98368E-01
 -1      2067 4.72990E-01
 -1      2068 5.56586E-01
 -1      2069 5.41352E-01
 -1      2070 3.67921E-01
 -1      2071 4.16297E-01
 -1      2072 4.09608E-01
 -1      2073 2.81031E-01
 -1      2074 3.28024E-01
 -1      2075 3.13017E-01
 -1      2076 1.93361E-01
 -1      2077 2.41152E-01
 -1      2078 2.33240E-01
 -1      2079 1.18896E-01
 -1      2080 1.53245E-01
 -1      2081 1.53245E-01
 -1      2082 9.40236E-02
 -1      2083 6.06111E-02
 -1      2084 7.73143E-02
 -1      2085 1.11231E-01
 -1      2086 1.11247E-01
 -1      2087 1.13659E-01
 -1      2088 1.11247E-01
 -1      2089 1.11247E-01
 -1      2090 1.30353E-01
 -1      2091 1.47576E-01
 -1      2092 8.54140E-02
 -1      2093 6.99952E-02
 -1      2094 8.91261E-02
 -1      2095 1.09646E-01
 -1      2096 1.00104E-01
 -1      2097 1.13200E-01
 -1      2098 1.18009E-01
 -1      2099 1.15145E-01
 -1      2100 1.33390E-01
 -1      2101 1.18009E-01
 -1      2102 1.18009E-01
 -1      2103 1.38889E-01
 -1      2104 1.16272E-01
 -1      2105 1.16824E-01
 -1      2106 1.37704E-01
 -1      2107 1.08866E-01
 -1      2108 1.14898E-01
 -1      2109 1.35145E-01
 -1      2110 8.83181E-02
 -1      2111 9.92993E-02
 -1      2112 1.24204E-01
 -1      2113 5.81533E-02
 -1      2114 7.13277E-02
 -1      2115 9.76461E-02
 -1      2116 7.53769E-02
 -1      2117 5.75376E-02
 -1      2118 8.00399E-02
 -1      2119 9.44934E-02
 -1      2120 9.44934E-02
 -1      2121 9.85407E-02
 -1      2122 3.76540E+01
 -1      2123 2.83258E+01
 -1      2124 3.13936E+01
 -1      2125 3.13936E+01
 -1      2126 3.05591E+01
 -1      2127 3.13936E+01
 -1      2128 3.05591E+01
 -1      2129 1.91461E+01
 -1      2130 3.16299E+01
 -1      2131 1.07788E+01
 -1      2132 1.59221E+01
 -1      2133 1.30536E+01
 -1      2134 1.03524E+00
 -1      2135 1.21027E+00
 -1      2136 9.77830E-01
 -1      2137 8.52240E-01
 -1      2138 1.09638E+01
 -1      2139 1.08821E+01
 -1      2140 1.12358E+01
 -1      2141 1.11491E+01
 -1      2142 9.89157E+00
 -1      2143 1.21827E+01
 -1      2144 1.16558E+01
 -1      2145 1.06034E+01
 -1      2146 1.09719E+01
 -1      2147 9.32751E+00
 -1      2148 9.25668E+00
 -1      2149 2.11041E+01
 -1      2150 1.23995E+01
 -1      2151 8.87392E+00
 -1      2152 2.55511E+01
 -1      2153 2.55511E+01
 -1      2154 2.50802E+01
 -1      2155 2.75888E+01
 -1      2156 3.26318E+01
 -1      2157 3.01330E+01
 -1      2158 3.26318E+01
 -1      2159 3.26318E+01
 -1      2160 3.24140E+01
 -1      2161 2.87171E+01
 -1      2162 3.39070E+01
 -1      2163 3.13441E+01
 -1      2164 2.61216E+01
 -1      2165 1.51479E+01
 -1      2166 2.86266E+01
 -1      2167 9.33945E+00
 -1      2168 1.18687E+01
 -1      2169 9.94351E+00
 -1      2170 9.28167E+00
 -1      2171 1.07751E+01
 -1      2172 1.03755E+01
 -1      2173 1.13068E+01
 -1      2174 1.17689E+01
 -1      2175 1.15621E+01
 -1      2176 1.11773E+01
 -1      2177 1.05389E+01
 -1      2178 9.89690E+00
 -1      2179 1.03102E+01
 -1      2180 1.25446E+01
 -1      2181 9.74724E+00
 -1      2182 3.00240E+01
 -1      2183 1.63413E+01
 -1      2184 1.14028E+01
 -1      2185 3.33019E+01
 -1      2186 3.60368E+01
 -1      2187 2.88030E+01
 -1      2188 3.34950E+01
 -1      2189 9.48539E+00
 -1      2190 9.32047E+00
 -1      2191 8.37132E+00
 -1      2192 2.91336E+00
 -1      2193 8.92378E+00
 -1      2194 6.81570E+00
 -1      2195 5.46900E+00
 -1      2196 8.30963E+00
 -1      2197 2.10623E+00
 -1      2198 3.27923E+01
 -1      2199 1.57583E+01
 -1      2200 3.11106E+01
 -1      2201 2.17824E+01
 -1      2202 1.03535E-01
 -1      2203 3.02017E+01
 -1      2204 2.97876E+01
 -1      2205 1.49630E+01
 -1      2206 2.09758E+01
 -1      2207 9.15739E+00
 -1      2208 1.10285E+01
 -1      2209 8.93428E+00
 -1      2210 9.92805E+00
 -1      2211 8.24893E+00
 -1      2212 7.87476E+00
 -1      2213 1.97714E+01
 -1      2214 3.11062E+01
 -1      2215 3.50208E+01
 -1      2216 2.99680E+01
 -1      2217 1.63929E+01
 -1      2218 1.04969E+01
 -1      2219 9.70610E+00
 -1      2220 2.28775E+01
 -1      2221 1.12118E+01
 -1      2222 8.36697E+00
 -1      2223 6.37557E+00
 -1      2224 6.22591E+00
 -1      2225 2.74180E+01
 -1      2226 1.09798E+00
 -1      2227 1.48701E+00
 -1      2228 5.56927E-01
 -1      2229 5.87709E-01
 -1      2230 5.98980E-01
 -1      2231 6.47353E-01
 -1      2232 4.95330E-01
 -1      2233 5.09755E-01
 -1      2234 5.08193E-01
 -1      2235 5.44141E-01
 -1      2236 5.22552E-01
 -1      2237 4.42894E-01
 -1      2238 5.91767E-01
 -1      2239 5.58706E-01
 -1      2240 4.70256E-01
 -1      2241 6.50957E-01
 -1      2242 6.03646E-01
 -1      2243 4.96700E-01
 -1      2244 7.18400E-01
 -1      2245 6.50957E-01
 -1      2246 5.08579E-01
 -1      2247 8.76197E-01
 -1      2248 7.63773E-01
 -1      2249 5.53952E-01
 -1      2250 9.01363E-01
 -1      2251 1.02012E+00
 -1      2252 9.79219E-01
 -1      2253 1.27111E+00
 -1      2254 1.04102E+00
 -1      2255 9.96249E-01
 -1      2256 8.16502E-01
 -1      2257 7.58152E-01
 -1      2258 7.58429E-01
 -1      2259 6.33541E-01
 -1      2260 6.55311E-01
 -1      2261 5.77022E-01
 -1      2262 5.22284E-01
 -1      2263 5.40719E-01
 -1      2264 4.73918E-01
 -1      2265 4.27732E-01
 -1      2266 4.35834E-01
 -1      2267 4.04481E-01
 -1      2268 3.64377E-01
 -1      2269 3.64217E-01
 -1      2270 3.39895E-01
 -1      2271 3.06085E-01
 -1      2272 3.16485E-01
 -1      2273 2.82385E-01
 -1      2274 2.54584E-01
 -1      2275 2.68303E-01
 -1      2276 2.32453E-01
 -1      2277 2.09930E-01
 -1      2278 2.22472E-01
 -1      2279 1.89359E-01
 -1      2280 1.71033E-01
 -1      2281 1.79770E-01
 -1      2282 1.57593E-01
 -1      2283 1.59121E-01
 -1      2284 1.45760E-01
 -1      2285 1.68605E-01
 -1      2286 1.81840E-01
 -1      2287 1.41804E-01
 -1      2288 1.95631E-01
 -1      2289 2.12510E-01
 -1      2290 1.65079E-01
 -1      2291 2.50854E-01
 -1      2292 2.79321E-01
 -1      2293 2.17214E-01
 -1      2294 3.21251E-01
 -1      2295 3.65481E-01
 -1      2296 2.97487E-01
 -1      2297 4.09599E-01
 -1      2298 4.53961E-01
 -1      2299 3.83535E-01
 -1      2300 4.97273E-01
 -1      2301 5.36556E-01
 -1      2302 4.70964E-01
 -1      2303 5.73977E-01
 -1      2304 6.11135E-01
 -1      2305 5.51697E-01
 -1      2306 6.41972E-01
 -1      2307 6.82530E-01
 -1      2308 6.19955E-01
 -1      2309 7.22919E-01
 -1      2310 7.48031E-01
 -1      2311 6.91180E-01
 -1      2312 7.78790E-01
 -1      2313 7.60658E-01
 -1      2314 7.62327E-01
 -1      2315 7.61617E-01
 -1      2316 6.80737E-01
 -1      2317 7.94045E-01
 -1      2318 7.35614E-01
 -1      2319 7.22770E-01
 -1      2320 8.49882E-01
 -1      2321 7.84737E-01
 -1      2322 8.94743E-01
 -1      2323 9.66725E-01
 -1      2324 9.97587E-01
 -1      2325 1.25880E+00
 -1      2326 1.13154E+00
 -1      2327 1.32543E+00
 -1      2328 1.52706E+00
 -1      2329 1.30101E+00
 -1      2330 1.69855E+00
 -1      2331 1.87723E+00
 -1      2332 1.53913E+00
 -1      2333 2.06640E+00
 -1      2334 2.04818E+00
 -1      2335 1.89979E+00
 -1      2336 2.03780E+00
 -1      2337 2.07059E+00
 -1      2338 2.07857E+00
 -1      2339 2.03159E+00
 -1      2340 1.94769E+00
 -1      2341 2.02918E+00
 -1      2342 1.70290E+00
 -1      2343 1.48254E+00
 -1      2344 1.74539E+00
 -1      2345 1.40698E+00
 -1      2346 1.19079E+00
 -1      2347 1.42505E+00
 -1      2348 1.03030E+00
 -1      2349 8.08385E-01
 -1      2350 1.18900E+00
 -1      2351 7.81296E-01
 -1      2352 7.58611E-01
 -1      2353 1.00142E+00
 -1      2354 6.68967E-01
 -1      2355 7.27817E-01
 -1      2356 8.84688E-01
 -1      2357 7.25484E-01
 -1      2358 7.72035E-01
 -1      2359 7.92711E-01
 -1      2360 7.52749E-01
 -1      2361 7.43523E-01
 -1      2362 7.71092E-01
 -1      2363 7.03522E-01
 -1      2364 6.61642E-01
 -1      2365 7.11804E-01
 -1      2366 6.26597E-01
 -1      2367 5.85646E-01
 -1      2368 6.36758E-01
 -1      2369 5.50720E-01
 -1      2370 5.13856E-01
 -1      2371 5.66787E-01
 -1      2372 4.71601E-01
 -1      2373 4.27031E-01
 -1      2374 4.89607E-01
 -1      2375 3.82562E-01
 -1      2376 3.36792E-01
 -1      2377 4.02882E-01
 -1      2378 2.94614E-01
 -1      2379 2.63131E-01
 -1      2380 3.16235E-01
 -1      2381 2.25937E-01
 -1      2382 1.96297E-01
 -1      2383 2.36864E-01
 -1      2384 2.38420E+01
 -1      2385 2.60753E+01
 -1      2386 5.55861E-01
 -1      2387 6.35162E-01
 -1      2388 4.57242E-01
 -1      2389 5.06552E-01
 -1      2390 5.06552E-01
 -1      2391 3.94124E-01
 -1      2392 4.25683E-01
 -1      2393 4.25683E-01
 -1      2394 3.33784E-01
 -1      2395 3.63954E-01
 -1      2396 3.63954E-01
 -1      2397 2.84883E-01
 -1      2398 3.06526E-01
 -1      2399 3.06526E-01
 -1      2400 2.44898E-01
 -1      2401 2.61006E-01
 -1      2402 2.55390E-01
 -1      2403 2.13069E-01
 -1      2404 2.24143E-01
 -1      2405 2.10757E-01
 -1      2406 1.88506E-01
 -1      2407 1.94655E-01
 -1      2408 1.71588E-01
 -1      2409 1.98764E-01
 -1      2410 2.00431E-01
 -1      2411 1.65100E-01
 -1      2412 2.30278E-01
 -1      2413 2.14799E-01
 -1      2414 1.93059E-01
 -1      2415 3.12739E-01
 -1      2416 2.70769E-01
 -1      2417 2.49585E-01
 -1      2418 4.32890E-01
 -1      2419 3.69598E-01
 -1      2420 3.46936E-01
 -1      2421 5.73565E-01
 -1      2422 4.99573E-01
 -1      2423 4.70478E-01
 -1      2424 7.31417E-01
 -1      2425 6.49326E-01
 -1      2426 6.12922E-01
 -1      2427 8.96146E-01
 -1      2428 8.12884E-01
 -1      2429 7.70150E-01
 -1      2430 1.04708E+00
 -1      2431 9.75854E-01
 -1      2432 9.31325E-01
 -1      2433 1.17551E+00
 -1      2434 1.11203E+00
 -1      2435 1.07598E+00
 -1      2436 1.25034E+00
 -1      2437 1.22851E+00
 -1      2438 1.19393E+00
 -1      2439 1.34019E+00
 -1      2440 1.34019E+00
 -1      2441 1.33678E+00
 -1      2442 1.33765E+00
 -1      2443 1.40516E+00
 -1      2444 1.49160E+00
 -1      2445 1.25780E+00
 -1      2446 1.33992E+00
 -1      2447 1.55883E+00
 -1      2448 1.57327E+00
 -1      2449 1.52571E+00
 -1      2450 1.82901E+00
 -1      2451 2.20279E+00
 -1      2452 1.74693E+00
 -1      2453 2.27058E+00
 -1      2454 3.28761E+00
 -1      2455 3.10590E+00
 -1      2456 3.34735E+00
 -1      2457 4.55018E+00
 -1      2458 4.33705E+00
 -1      2459 5.29990E+00
 -1      2460 5.58153E+00
 -1      2461 5.51659E+00
 -1      2462 7.31574E+00
 -1      2463 3.79477E+00
 -1      2464 3.88762E+00
 -1      2465 6.58824E+00
 -1      2466 2.13366E+00
 -1      2467 2.41181E+00
 -1      2468 3.51137E+00
 -1      2469 1.48906E+00
 -1      2470 1.97498E+00
 -1      2471 1.96974E+00
 -1      2472 1.42400E+00
 -1      2473 1.53478E+00
 -1      2474 1.85679E+00
 -1      2475 1.33907E+00
 -1      2476 1.24604E+00
 -1      2477 1.72455E+00
 -1      2478 1.39155E+00
 -1      2479 1.33329E+00
 -1      2480 1.54080E+00
 -1      2481 1.33498E+00
 -1      2482 1.32218E+00
 -1      2483 1.46564E+00
 -1      2484 1.21164E+00
 -1      2485 1.24389E+00
 -1      2486 1.30517E+00
 -1      2487 1.09856E+00
 -1      2488 1.16237E+00
 -1      2489 1.16481E+00
 -1      2490 9.60794E-01
 -1      2491 1.02955E+00
 -1      2492 1.04654E+00
 -1      2493 7.96751E-01
 -1      2494 8.78610E-01
 -1      2495 8.95352E-01
 -1      2496 6.32040E-01
 -1      2497 7.14006E-01
 -1      2498 7.30423E-01
 -1      2499 4.81034E-01
 -1      2500 5.56084E-01
 -1      2501 5.71722E-01
 -1      2502 3.58840E-01
 -1      2503 4.15533E-01
 -1      2504 4.30266E-01
 -1      2505 2.63955E-01
 -1      2506 3.03852E-01
 -1      2507 3.09778E-01
 -1      2508 1.84116E-01
 -1      2509 2.23995E-01
 -1      2510 2.14831E-01
 -1      2511 1.70468E-01
 -1      2512 1.45304E-01
 -1      2513 1.30614E-01
 -1      2514 1.62826E-01
 -1      2515 1.57327E-01
 -1      2516 1.74741E-01
 -1      2517 1.16020E-01
 -1      2518 1.49936E-01
 -1      2519 1.19028E-01
 -1      2520 1.09644E-01
 -1      2521 1.45921E-01
 -1      2522 1.51132E-01
 -1      2523 1.62826E-01
 -1      2524 1.62826E-01
 -1      2525 1.86763E-01
 -1      2526 1.60008E-01
 -1      2527 1.61193E-01
 -1      2528 1.85130E-01
 -1      2529 1.58634E-01
 -1      2530 1.60008E-01
 -1      2531 1.83497E-01
 -1      2532 1.43759E-01
 -1      2533 1.53326E-01
 -1      2534 1.78189E-01
 -1      2535 1.10399E-01
 -1      2536 1.27389E-01
 -1      2537 1.56512E-01
 -1      2538 1.06982E-01
 -1      2539 1.07598E-01
 -1      2540 1.37341E-01
 -1      2541 1.26099E-01
 -1      2542 1.06982E-01
 -1      2543 1.34541E-01
 -1      2544 1.24231E-01
 -1      2545 3.02017E+01
 -1      2546 2.76111E+01
 -1      2547 7.14462E-01
 -1      2548 8.07913E-01
 -1      2549 6.35162E-01
 -1      2550 1.03860E+01
 -1      2551 1.36100E+01
 -1      2552 1.67464E+00
 -1      2553 1.30771E+00
 -1      2554 8.39521E-01
 -1      2555 9.57704E-01
 -1      2556 7.03947E+00
 -1      2557 8.29137E+00
 -1      2558 2.71915E+01
 -1      2559 3.11062E+01
 -1      2560 9.43099E+00
 -1      2561 9.01096E+00
 -1      2562 5.21092E-01
 -1      2563 5.42845E-01
 -1      2564 4.69977E-01
 -1      2565 4.42996E-01
 -1      2566 7.19763E+00
 -1      2567 8.40844E+00
 -1      2568 9.17950E+00
 -1      2569 8.99423E+00
 -1      2570 8.11361E+00
 -1      2571 2.01228E+01
 -1      2572 1.80851E+01
 -1      2573 7.27081E+00
 -1      2574 5.87413E+00
 -1      2575 9.10558E+00
 -1      2576 6.03357E+00
 -1      2577 7.83670E+00
 -1      2578 1.11159E+01
 -1      2579 1.56009E+01
 -1      2580 1.11539E+01
 -1      2581 8.31358E+00
 -1      2582 2.99680E+01
 -1      2583 2.49152E+01
 -1      2584 3.50208E+01
 -1      2585 3.50208E+01
 -1      2586 2.10685E+01
 -1      2587 2.21384E+01
 -1      2588 1.34353E+01
 -1      2589 1.87157E+01
 -1      2590 1.47325E+01
 -1      2591 6.21197E+00
 -1      2592 6.26975E+00
 -1      2593 7.18058E+00
 -1      2594 6.74863E+00
 -1      2595 8.87562E+00
 -1      2596 9.00519E+00
 -1      2597 2.40098E+01
 -1      2598 2.38167E+01
 -1      2599 1.07852E+01
 -1      2600 6.98862E+00
 -1      2601 3.27923E+01
 -1      2602 3.27923E+01
 -1      2603 1.62311E+00
 -1      2604 1.76636E+00
 -1      2605 1.32562E+00
 -1      2606 1.19318E+00
 -1      2607 6.20188E+00
 -1      2608 7.66025E+00
 -1      2609 8.21658E+00
 -1      2610 6.35494E+00
 -1      2611 8.86340E+00
 -1      2612 7.37749E+00
 -1      2613 6.12631E-01
 -1      2614 7.53384E-01
 -1      2615 8.17518E-01
 -1      2616 8.07913E-01
 -1      2617 1.24118E+00
 -1      2618 5.16306E+00
 -1      2619 2.40098E+01
 -1      2620 5.70067E+00
 -1      2621 6.75770E+00
 -1      2622 5.91640E+00
 -1      2623 5.05037E+00
 -1      2624 4.38647E+00
 -1      2625 5.74272E+00
 -1      2626 7.42231E+00
 -1      2627 6.12466E+00
 -1      2628 7.43398E+00
 -1      2629 1.00603E+01
 -1      2630 2.00191E+01
 -1      2631 1.55353E+01
 -1      2632 1.34756E+01
 -1      2633 1.30906E+01
 -1      2634 1.61224E-01
 -1      2635 8.96248E-01
 -1      2636 1.61224E-01
 -1      2637 1.28253E-01
 -1      2638 1.21679E-01
 -1      2639 1.30121E-01
 -1      2640 1.59312E-01
 -1      2641 6.17391E+00
 -1      2642 3.11062E+01
 -1      2643 3.02017E+01
 -1      2644 9.64304E-01
 -1      2645 1.75676E+01
 -1      2646 1.63584E-01
 -1      2647 2.60753E+01
 -1      2648 1.12738E+01
 -1      2649 6.85958E+00
 -1      2650 1.10374E+01
 -1      2651 2.21384E+01
 -1      2652 1.28461E+01
 -1      2653 9.16255E+00
 -1      2654 8.42217E+00
 -1      2655 7.49931E+00
 -1      2656 2.01228E+01
 -1      2657 6.55873E+00
 -1      2658 2.99680E+01
 -1      2659 5.60835E+00
 -1      2660 5.14362E+00
 -1      2661 1.62686E-01
 -1      2662 4.21236E-01
 -1      2663 4.06671E-01
 -1      2664 3.99059E-01
 -1      2665 3.86262E-01
 -1      2666 3.50038E-01
 -1      2667 4.34635E-01
 -1      2668 4.34635E-01
 -1      2669 4.67911E-01
 -1      2670 4.22539E-01
 -1      2671 3.48595E-01
 -1      2672 7.22194E-01
 -1      2673 8.00049E-01
 -1      2674 1.59854E+01
 -1      2675 1.31445E+01
 -1      2676 5.40064E+00
 -1      2677 4.83608E+00
 -1      2678 5.58658E-01
 -1      2679 5.00585E-01
 -1      2680 4.92939E-01
 -1      2681 4.36420E-01
 -1      2682 3.96286E-01
 -1      2683 4.14575E-01
 -1      2684 3.66209E-01
 -1      2685 3.66795E-01
 -1      2686 3.39396E-01
 -1      2687 3.16145E-01
 -1      2688 3.18137E-01
 -1      2689 2.91332E-01
 -1      2690 2.66850E-01
 -1      2691 2.66510E-01
 -1      2692 2.50426E-01
 -1      2693 2.26726E-01
 -1      2694 2.25273E-01
 -1      2695 2.08381E-01
 -1      2696 1.86251E-01
 -1      2697 1.90505E-01
 -1      2698 1.66887E-01
 -1      2699 1.46316E-01
 -1      2700 1.52797E-01
 -1      2701 1.26106E-01
 -1      2702 1.12666E-01
 -1      2703 1.13223E-01
 -1      2704 1.11565E-01
 -1      2705 1.21049E-01
 -1      2706 9.19113E-02
 -1      2707 1.40566E-01
 -1      2708 1.54357E-01
 -1      2709 1.10327E-01
 -1      2710 1.88809E-01
 -1      2711 2.27152E-01
 -1      2712 1.64295E-01
 -1      2713 2.66144E-01
 -1      2714 3.08074E-01
 -1      2715 2.37739E-01
 -1      2716 3.51716E-01
 -1      2717 3.95834E-01
 -1      2718 3.20373E-01
 -1      2719 4.43543E-01
 -1      2720 4.86855E-01
 -1      2721 4.11724E-01
 -1      2722 5.36912E-01
 -1      2723 5.74333E-01
 -1      2724 5.09491E-01
 -1      2725 6.23254E-01
 -1      2726 6.54091E-01
 -1      2727 6.08469E-01
 -1      2728 6.99519E-01
 -1      2729 7.39907E-01
 -1      2730 7.02818E-01
 -1      2731 8.14862E-01
 -1      2732 8.45620E-01
 -1      2733 8.23200E-01
 -1      2734 9.25375E-01
 -1      2735 9.26335E-01
 -1      2736 9.77910E-01
 -1      2737 9.82103E-01
 -1      2738 1.03698E+00
 -1      2739 1.11343E+00
 -1      2740 1.16683E+00
 -1      2741 1.22880E+00
 -1      2742 1.29905E+00
 -1      2743 1.35984E+00
 -1      2744 1.46268E+00
 -1      2745 1.55995E+00
 -1      2746 1.56088E+00
 -1      2747 1.62751E+00
 -1      2748 1.78918E+00
 -1      2749 1.92233E+00
 -1      2750 2.09382E+00
 -1      2751 2.18219E+00
 -1      2752 2.77621E+00
 -1      2753 2.96538E+00
 -1      2754 3.15941E+00
 -1      2755 3.11862E+00
 -1      2756 3.10824E+00
 -1      2757 3.99505E+00
 -1      2758 3.56450E+00
 -1      2759 3.52550E+00
 -1      2760 4.60455E+00
 -1      2761 2.36164E+00
 -1      2762 2.11685E+00
 -1      2763 3.89695E+00
 -1      2764 1.56209E+00
 -1      2765 1.48654E+00
 -1      2766 2.17834E+00
 -1      2767 1.55005E+00
 -1      2768 1.38955E+00
 -1      2769 1.68709E+00
 -1      2770 1.27133E+00
 -1      2771 1.24424E+00
 -1      2772 1.63237E+00
 -1      2773 1.08133E+00
 -1      2774 9.91682E-01
 -1      2775 1.35123E+00
 -1      2776 9.12738E-01
 -1      2777 9.10405E-01
 -1      2778 1.10938E+00
 -1      2779 8.41917E-01
 -1      2780 8.22630E-01
 -1      2781 9.61943E-01
 -1      2782 7.51805E-01
 -1      2783 7.11804E-01
 -1      2784 8.22630E-01
 -1      2785 6.71803E-01
 -1      2786 6.36758E-01
 -1      2787 7.11804E-01
 -1      2788 5.89861E-01
 -1      2789 5.54936E-01
 -1      2790 6.24906E-01
 -1      2791 5.03885E-01
 -1      2792 4.61630E-01
 -1      2793 5.26959E-01
 -1      2794 4.10818E-01
 -1      2795 3.66348E-01
 -1      2796 4.25096E-01
 -1      2797 3.20527E-01
 -1      2798 2.78349E-01
 -1      2799 3.28462E-01
 -1      2800 2.40317E-01
 -1      2801 2.03124E-01
 -1      2802 2.44609E-01
 -1      2803 4.55945E+00
 -1      2804 6.12640E+00
 -1      2805 4.29140E-01
 -1      2806 4.78449E-01
 -1      2807 2.62242E-01
 -1      2808 2.89500E-01
 -1      2809 2.18150E-01
 -1      2810 2.42028E-01
 -1      2811 2.25002E-01
 -1      2812 1.77068E-01
 -1      2813 1.97823E-01
 -1      2814 1.84461E-01
 -1      2815 1.38198E-01
 -1      2816 1.56612E-01
 -1      2817 1.43678E-01
 -1      2818 1.46793E-01
 -1      2819 1.34869E-01
 -1      2820 1.19892E-01
 -1      2821 1.75811E-01
 -1      2822 1.59776E-01
 -1      2823 1.29545E-01
 -1      2824 2.57209E-01
 -1      2825 2.16717E-01
 -1      2826 1.83435E-01
 -1      2827 3.62678E-01
 -1      2828 3.05819E-01
 -1      2829 2.72951E-01
 -1      2830 4.87211E-01
 -1      2831 4.20528E-01
 -1      2832 3.79411E-01
 -1      2833 6.31351E-01
 -1      2834 5.55590E-01
 -1      2835 5.05640E-01
 -1      2836 7.92401E-01
 -1      2837 7.10934E-01
 -1      2838 6.53601E-01
 -1      2839 9.62363E-01
 -1      2840 8.82656E-01
 -1      2841 8.23439E-01
 -1      2842 1.12544E+00
 -1      2843 1.06049E+00
 -1      2844 1.01182E+00
 -1      2845 1.27759E+00
 -1      2846 1.22459E+00
 -1      2847 1.20910E+00
 -1      2848 1.45676E+00
 -1      2849 1.36691E+00
 -1      2850 1.39757E+00
 -1      2851 1.70908E+00
 -1      2852 1.64411E+00
 -1      2853 1.67425E+00
 -1      2854 1.92655E+00
 -1      2855 1.92428E+00
 -1      2856 2.07680E+00
 -1      2857 2.32366E+00
 -1      2858 2.05575E+00
 -1      2859 2.42119E+00
 -1      2860 3.50404E+00
 -1      2861 3.33038E+00
 -1      2862 3.55711E+00
 -1      2863 4.39325E+00
 -1      2864 3.49015E+00
 -1      2865 6.34934E+00
 -1      2866 5.29990E+00
 -1      2867 7.54603E+00
 -1      2868 6.57962E+00
 -1      2869 6.58824E+00
 -1      2870 8.28215E+00
 -1      2871 2.03559E+00
 -1      2872 2.19426E+00
 -1      2873 2.50413E+00
 -1      2874 2.45841E+00
 -1      2875 2.68293E+00
 -1      2876 2.04698E+00
 -1      2877 2.22494E+00
 -1      2878 2.82656E+00
 -1      2879 1.87905E+00
 -1      2880 1.88483E+00
 -1      2881 2.38522E+00
 -1      2882 1.59863E+00
 -1      2883 1.66801E+00
 -1      2884 2.01204E+00
 -1      2885 1.33342E+00
 -1      2886 1.42451E+00
 -1      2887 1.62687E+00
 -1      2888 1.19503E+00
 -1      2889 1.24430E+00
 -1      2890 1.36363E+00
 -1      2891 1.02522E+00
 -1      2892 1.09422E+00
 -1      2893 1.17371E+00
 -1      2894 8.44182E-01
 -1      2895 9.26366E-01
 -1      2896 9.74051E-01
 -1      2897 6.71216E-01
 -1      2898 7.53961E-01
 -1      2899 7.84975E-01
 -1      2900 5.16344E-01
 -1      2901 5.92300E-01
 -1      2902 6.15838E-01
 -1      2903 3.83932E-01
 -1      2904 4.49433E-01
 -1      2905 4.70010E-01
 -1      2906 2.72053E-01
 -1      2907 3.27041E-01
 -1      2908 3.46207E-01
 -1      2909 1.94652E-01
 -1      2910 2.34611E-01
 -1      2911 2.51874E-01
 -1      2912 1.83364E-01
 -1      2913 7.97391E-01
 -1      2914 2.13402E-01
 -1      2915 2.15036E-01
 -1      2916 1.72997E+01
 -1      2917 2.40168E+01
 -1      2918 2.12636E-01
 -1      2919 2.00614E-01
 -1      2920 2.09276E-01
 -1      2921 2.09276E-01
 -1      2922 2.39182E-01
 -1      2923 2.15036E-01
 -1      2924 2.15036E-01
 -1      2925 2.40908E-01
 -1      2926 2.43308E-01
 -1      2927 1.30121E-01
 -1      2928 1.34541E-01
 -1      2929 1.67105E-01
 -1      2930 2.03968E-01
 -1      2931 2.09276E-01
 -1      2932 2.35055E-01
 -1      2933 1.75672E-01
 -1      2934 1.92041E-01
 -1      2935 2.23128E-01
 -1      2936 1.47873E-01
 -1      2937 1.50674E-01
 -1      2938 1.86203E-01
 -1      2939 1.34541E-01
 -1      2940 5.13075E-01
 -1      2941 5.92376E-01
 -1      2942 4.35663E-01
 -1      2943 1.02112E+01
 -1      2944 1.23595E+01
 -1      2945 6.70594E-01
 -1      2946 6.33994E-01
 -1      2947 5.89226E-01
 -1      2948 5.91864E-01
 -1      2949 8.28200E-01
 -1      2950 1.52143E+01
 -1      2951 2.02674E+01
 -1      2952 2.37279E+01
 -1      2953 2.11373E+01
 -1      2954 7.22248E+00
 -1      2955 9.54189E+00
 -1      2956 5.60802E+00
 -1      2957 2.07756E+01
 -1      2958 2.46902E+01
 -1      2959 3.08776E-01
 -1      2960 3.38946E-01
 -1      2961 2.64492E-01
 -1      2962 3.61773E-01
 -1      2963 3.93332E-01
 -1      2964 3.06595E-01
 -1      2965 6.18352E-01
 -1      2966 7.11802E-01
 -1      2967 5.32633E-01
 -1      2968 4.96265E-01
 -1      2969 2.54260E+01
 -1      2970 2.03732E+01
 -1      2971 4.34635E-01
 -1      2972 4.22756E-01
 -1      2973 3.59171E-01
 -1      2974 3.60692E-01
 -1      2975 2.21212E+01
 -1      2976 1.85199E+01
 -1      2977 1.56473E+01
 -1      2978 5.61713E+00
 -1      2979 6.20139E+00
 -1      2980 4.24192E-01
 -1      2981 4.35463E-01
 -1      2982 8.55231E+00
 -1      2983 6.50396E+00
 -1      2984 4.93884E+00
 -1      2985 4.17613E+00
 -1      2986 1.22122E+01
 -1      2987 9.72798E+00
 -1      2988 1.16587E+01
 -1      2989 1.40115E+01
 -1      2990 1.92902E+01
 -1      2991 1.44977E+01
 -1      2992 1.13796E+01
 -1      2993 6.80761E+00
 -1      2994 5.05391E+00
 -1      2995 4.22795E+00
 -1      2996 3.69129E+00
 -1      2997 6.35400E+00
 -1      2998 9.07976E+00
 -1      2999 4.11113E+00
 -1      3000 4.43888E+00
 -1      3001 4.85834E-01
 -1      3002 5.91864E-01
 -1      3003 4.14696E-01
 -1      3004 3.52764E-01
 -1      3005 3.96599E-01
 -1      3006 4.09498E-01
 -1      3007 1.50953E+01
 -1      3008 9.45522E+00
 -1      3009 5.44269E+00
 -1      3010 4.54907E+00
 -1      3011 3.82488E+00
 -1      3012 3.77973E+00
 -1      3013 3.32056E+00
 -1      3014 3.11022E+00
 -1      3015 1.31116E+01
 -1      3016 1.50002E+01
 -1      3017 1.05771E+01
 -1      3018 5.30206E+00
 -1      3019 4.93305E+00
 -1      3020 3.48072E+00
 -1      3021 4.30668E+00
 -1      3022 1.05962E+01
 -1      3023 1.70559E-01
 -1      3024 3.64378E+00
 -1      3025 1.47481E+01
 -1      3026 8.82096E+00
 -1      3027 3.65230E-01
 -1      3028 3.51137E+00
 -1      3029 4.89432E+00
 -1      3030 1.36122E+01
 -1      3031 1.15536E+01
 -1      3032 9.78925E+00
 -1      3033 1.67065E-01
 -1      3034 1.98132E-01
 -1      3035 1.60689E-01
 -1      3036 1.49523E+01
 -1      3037 5.60981E+00
 -1      3038 4.17759E+00
 -1      3039 6.09833E+00
 -1      3040 1.37574E-01
 -1      3041 1.37574E-01
 -1      3042 1.50907E-01
 -1      3043 1.73593E-01
 -1      3044 7.91836E+00
 -1      3045 8.34862E+00
 -1      3046 6.58824E+00
 -1      3047 4.34499E-01
 -1      3048 1.21406E+01
 -1      3049 5.51807E+00
 -1      3050 6.65864E+00
 -1      3051 6.81599E+00
 -1      3052 5.63937E+00
 -1      3053 6.04210E+00
 -1      3054 1.83295E-01
 -1      3055 1.71709E-01
 -1      3056 1.92852E-01
 -1      3057 2.21191E-01
 -1      3058 4.29277E-01
 -1      3059 4.43360E-01
 -1      3060 3.83493E-01
 -1      3061 3.82881E-01
 -1      3062 4.10134E+00
 -1      3063 5.22441E+00
 -1      3064 4.66810E+00
 -1      3065 5.71175E-01
 -1      3066 4.39761E-01
 -1      3067 3.57722E+00
 -1      3068 2.89313E-01
 -1      3069 3.01410E-01
 -1      3070 9.15411E+00
 -1      3071 7.04699E+00
 -1      3072 3.22351E-01
 -1      3073 3.00506E-01
 -1      3074 2.95332E-01
 -1      3075 2.68518E-01
 -1      3076 2.50887E-01
 -1      3077 2.54692E-01
 -1      3078 2.29879E-01
 -1      3079 2.31887E-01
 -1      3080 2.11734E-01
 -1      3081 1.95309E-01
 -1      3082 1.99915E-01
 -1      3083 1.80977E-01
 -1      3084 1.62633E-01
 -1      3085 1.67437E-01
 -1      3086 1.46239E-01
 -1      3087 1.26876E-01
 -1      3088 1.36712E-01
 -1      3089 1.07749E-01
 -1      3090 8.75391E-02
 -1      3091 1.01192E-01
 -1      3092 8.22665E-02
 -1      3093 8.11655E-02
 -1      3094 7.67933E-02
 -1      3095 9.26799E-02
 -1      3096 1.12196E-01
 -1      3097 8.30351E-02
 -1      3098 1.39596E-01
 -1      3099 1.74049E-01
 -1      3100 1.21950E-01
 -1      3101 2.08277E-01
 -1      3102 2.47269E-01
 -1      3103 1.83578E-01
 -1      3104 2.85150E-01
 -1      3105 3.28792E-01
 -1      3106 2.55689E-01
 -1      3107 3.75302E-01
 -1      3108 4.23011E-01
 -1      3109 3.40080E-01
 -1      3110 4.80594E-01
 -1      3111 5.30651E-01
 -1      3112 4.44172E-01
 -1      3113 5.95839E-01
 -1      3114 6.44760E-01
 -1      3115 5.66942E-01
 -1      3116 7.20618E-01
 -1      3117 7.66046E-01
 -1      3118 7.07988E-01
 -1      3119 8.51121E-01
 -1      3120 9.26075E-01
 -1      3121 8.68921E-01
 -1      3122 1.02787E+00
 -1      3123 1.10763E+00
 -1      3124 1.05579E+00
 -1      3125 1.28246E+00
 -1      3126 1.33822E+00
 -1      3127 1.33242E+00
 -1      3128 1.47636E+00
 -1      3129 1.60621E+00
 -1      3130 1.64538E+00
 -1      3131 1.75466E+00
 -1      3132 1.88570E+00
 -1      3133 1.93196E+00
 -1      3134 2.00066E+00
 -1      3135 2.09886E+00
 -1      3136 2.19538E+00
 -1      3137 2.18219E+00
 -1      3138 2.47701E+00
 -1      3139 2.39368E+00
 -1      3140 3.33141E+00
 -1      3141 4.01381E+00
 -1      3142 5.06181E+00
 -1      3143 5.51807E+00
 -1      3144 4.66810E+00
 -1      3145 3.50423E+00
 -1      3146 1.94047E+00
 -1      3147 2.00397E+00
 -1      3148 1.87036E+00
 -1      3149 1.75213E+00
 -1      3150 2.12374E+00
 -1      3151 1.70854E+00
 -1      3152 1.54563E+00
 -1      3153 1.94653E+00
 -1      3154 1.39620E+00
 -1      3155 1.31726E+00
 -1      3156 1.75351E+00
 -1      3157 1.15571E+00
 -1      3158 1.08722E+00
 -1      3159 1.44253E+00
 -1      3160 9.47680E-01
 -1      3161 8.76855E-01
 -1      3162 1.14145E+00
 -1      3163 7.96432E-01
 -1      3164 7.56431E-01
 -1      3165 9.21482E-01
 -1      3166 6.76771E-01
 -1      3167 6.29875E-01
 -1      3168 7.61400E-01
 -1      3169 5.59946E-01
 -1      3170 5.08896E-01
 -1      3171 6.11812E-01
 -1      3172 4.47905E-01
 -1      3173 3.97093E-01
 -1      3174 4.80893E-01
 -1      3175 3.45194E-01
 -1      3176 2.99372E-01
 -1      3177 3.68003E-01
 -1      3178 2.45336E-01
 -1      3179 2.07304E-01
 -1      3180 1.74320E-01
 -1      3181 2.62067E-01
 -1      3182 7.57790E+00
 -1      3183 6.40223E+00
 -1      3184 1.88334E-01
 -1      3185 2.08548E-01
 -1      3186 8.84577E-02
 -1      3187 9.17876E-02
 -1      3188 1.14134E-01
 -1      3189 1.01151E-01
 -1      3190 7.30462E-02
 -1      3191 1.87344E-01
 -1      3192 1.46437E-01
 -1      3193 1.18043E-01
 -1      3194 2.75933E-01
 -1      3195 2.27323E-01
 -1      3196 1.90326E-01
 -1      3197 3.85012E-01
 -1      3198 3.27162E-01
 -1      3199 2.81534E-01
 -1      3200 5.14694E-01
 -1      3201 4.46315E-01
 -1      3202 3.94066E-01
 -1      3203 6.66109E-01
 -1      3204 5.86526E-01
 -1      3205 5.27202E-01
 -1      3206 8.39463E-01
 -1      3207 7.49208E-01
 -1      3208 6.82133E-01
 -1      3209 1.05061E+00
 -1      3210 9.52481E-01
 -1      3211 8.78250E-01
 -1      3212 1.28899E+00
 -1      3213 1.18984E+00
 -1      3214 1.13050E+00
 -1      3215 1.56737E+00
 -1      3216 1.47806E+00
 -1      3217 1.45879E+00
 -1      3218 1.97978E+00
 -1      3219 1.79242E+00
 -1      3220 1.87291E+00
 -1      3221 2.49214E+00
 -1      3222 2.27694E+00
 -1      3223 2.39512E+00
 -1      3224 3.35346E+00
 -1      3225 3.22426E+00
 -1      3226 3.42440E+00
 -1      3227 5.31280E+00
 -1      3228 4.30608E+00
 -1      3229 4.54994E+00
 -1      3230 2.17015E+00
 -1      3231 2.38118E+00
 -1      3232 1.74770E+00
 -1      3233 1.92182E+00
 -1      3234 2.29097E+00
 -1      3235 1.43547E+00
 -1      3236 1.52459E+00
 -1      3237 1.81954E+00
 -1      3238 1.14691E+00
 -1      3239 1.24772E+00
 -1      3240 1.40867E+00
 -1      3241 9.10501E-01
 -1      3242 1.00936E+00
 -1      3243 1.08336E+00
 -1      3244 7.08537E-01
 -1      3245 7.98758E-01
 -1      3246 8.34063E-01
 -1      3247 5.47858E-01
 -1      3248 6.26774E-01
 -1      3249 6.40557E-01
 -1      3250 4.09435E-01
 -1      3251 4.76346E-01
 -1      3252 4.87283E-01
 -1      3253 2.92697E-01
 -1      3254 3.49589E-01
 -1      3255 3.55924E-01
 -1      3256 2.29220E-01
 -1      3257 2.66662E-01
 -1      3258 2.70043E-01
 -1      3259 2.12920E-01
 -1      3260 2.59327E+00
 -1      3261 3.46143E+00
 -1      3262 8.67255E+00
 -1      3263 9.78872E+00
 -1      3264 7.86558E+00
 -1      3265 2.67892E-01
 -1      3266 2.72018E-01
 -1      3267 1.23046E+01
 -1      3268 1.20158E+01
 -1      3269 2.24554E-01
 -1      3270 2.43830E-01
 -1      3271 1.87886E-01
 -1      3272 1.20158E+01
 -1      3273 1.29997E+01
 -1      3274 1.98741E-01
 -1      3275 2.23740E-01
 -1      3276 4.65067E-01
 -1      3277 3.54386E-01
 -1      3278 3.89011E-01
 -1      3279 2.47585E-01
 -1      3280 2.59512E-01
 -1      3281 2.60123E-01
 -1      3282 2.82241E+00
 -1      3283 2.98456E+00
 -1      3284 2.98052E+00
 -1      3285 3.66983E+00
 -1      3286 3.94902E+00
 -1      3287 4.10702E+00
 -1      3288 7.54603E+00
 -1      3289 8.11361E+00
 -1      3290 1.09318E-01
 -1      3291 1.29774E-01
 -1      3292 7.78838E-02
 -1      3293 4.07213E+00
 -1      3294 5.16821E+00
 -1      3295 1.49360E-01
 -1      3296 1.69687E-01
 -1      3297 1.53233E-01
 -1      3298 1.15000E-01
 -1      3299 3.69372E-01
 -1      3300 3.38804E-01
 -1      3301 3.69372E-01
 -1      3302 3.07436E-01
 -1      3303 3.43244E-01
 -1      3304 2.96592E-01
 -1      3305 3.22468E-01
 -1      3306 3.14822E-01
 -1      3307 2.48533E-01
 -1      3308 2.57341E-01
 -1      3309 1.80558E+01
 -1      3310 1.16399E+01
 -1      3311 9.55713E+00
 -1      3312 1.07599E+01
 -1      3313 1.15710E+01
 -1      3314 1.23067E+01
 -1      3315 6.12310E+00
 -1      3316 8.23995E+00
 -1      3317 4.58720E+00
 -1      3318 2.65879E-01
 -1      3319 2.88705E-01
 -1      3320 2.25940E-01
 -1      3321 8.28215E+00
 -1      3322 6.27249E+00
 -1      3323 4.12073E-01
 -1      3324 3.08810E-01
 -1      3325 2.61624E-01
 -1      3326 4.01681E-01
 -1      3327 5.90247E+00
 -1      3328 4.28792E+00
 -1      3329 3.82166E+00
 -1      3330 5.73677E+00
 -1      3331 7.35613E+00
 -1      3332 8.48757E+00
 -1      3333 1.03481E+01
 -1      3334 8.06258E+00
 -1      3335 3.22702E-01
 -1      3336 3.15090E-01
 -1      3337 2.67892E-01
 -1      3338 2.67892E-01
 -1      3339 3.00729E-01
 -1      3340 2.92349E-01
 -1      3341 8.54333E+00
 -1      3342 1.12631E+01
 -1      3343 1.11317E+01
 -1      3344 1.29169E+01
 -1      3345 1.18339E+01
 -1      3346 8.51692E+00
 -1      3347 3.52764E-01
 -1      3348 3.63102E-01
 -1      3349 3.25428E-01
 -1      3350 8.97226E+00
 -1      3351 6.56403E+00
 -1      3352 7.98703E+00
 -1      3353 5.79721E+00
 -1      3354 3.11036E+00
 -1      3355 2.71396E+00
 -1      3356 3.60925E-01
 -1      3357 4.11295E-01
 -1      3358 3.15601E-01
 -1      3359 2.72345E+00
 -1      3360 3.33020E+00
 -1      3361 3.50423E+00
 -1      3362 1.14281E+01
 -1      3363 7.90840E+00
 -1      3364 7.79648E+00
 -1      3365 3.26146E+00
 -1      3366 2.82353E+00
 -1      3367 4.16705E+00
 -1      3368 3.33141E+00
 -1      3369 3.99505E+00
 -1      3370 4.14829E+00
 -1      3371 5.65326E+00
 -1      3372 2.38028E+00
 -1      3373 1.82553E+00
 -1      3374 3.22702E-01
 -1      3375 2.87753E-01
 -1      3376 3.24223E-01
 -1      3377 3.83493E-01
 -1      3378 3.80092E-01
 -1      3379 4.02661E-01
 -1      3380 3.78133E+00
 -1      3381 3.25824E+00
 -1      3382 3.06932E-01
 -1      3383 2.78221E-01
 -1      3384 2.78221E-01
 -1      3385 5.06181E+00
 -1      3386 2.66719E-01
 -1      3387 5.10914E+00
 -1      3388 2.14241E+00
 -1      3389 1.14174E+01
 -1      3390 8.48085E+00
 -1      3391 7.72988E+00
 -1      3392 6.57962E+00
 -1      3393 2.60374E-01
 -1      3394 3.19656E-01
 -1      3395 3.19656E-01
 -1      3396 3.68106E+00
 -1      3397 7.68006E+00
 -1      3398 2.78221E-01
 -1      3399 2.75822E-01
 -1      3400 3.13135E-01
 -1      3401 9.36806E+00
 -1      3402 6.54645E+00
 -1      3403 8.47444E+00
 -1      3404 1.00773E+01
 -1      3405 7.86570E+00
 -1      3406 3.02161E+00
 -1      3407 4.52433E+00
 -1      3408 7.48891E+00
 -1      3409 8.00471E+00
 -1      3410 6.62402E+00
 -1      3411 5.30685E+00
 -1      3412 7.49386E+00
 -1      3413 9.39253E+00
 -1      3414 2.74888E-01
 -1      3415 2.57569E-01
 -1      3416 3.12201E-01
 -1      3417 3.72136E-01
 -1      3418 3.98112E-01
 -1      3419 2.77552E-01
 -1      3420 2.90858E-01
 -1      3421 1.74320E-01
 -1      3422 1.84618E-01
 -1      3423 2.22154E-01
 -1      3424 2.08031E-01
 -1      3425 2.40551E-01
 -1      3426 1.98628E-01
 -1      3427 1.82292E-01
 -1      3428 2.10779E-01
 -1      3429 1.96953E-01
 -1      3430 1.90323E-01
 -1      3431 1.72177E-01
 -1      3432 1.69215E-01
 -1      3433 1.60081E-01
 -1      3434 1.45749E-01
 -1      3435 1.50489E-01
 -1      3436 1.35669E-01
 -1      3437 1.19276E-01
 -1      3438 1.28313E-01
 -1      3439 1.07294E-01
 -1      3440 8.81676E-02
 -1      3441 1.06251E-01
 -1      3442 9.12909E-02
 -1      3443 8.60182E-02
 -1      3444 9.73926E-02
 -1      3445 8.99433E-02
 -1      3446 1.01458E-01
 -1      3447 1.04441E-01
 -1      3448 1.21695E-01
 -1      3449 1.49095E-01
 -1      3450 1.28604E-01
 -1      3451 1.82622E-01
 -1      3452 2.16851E-01
 -1      3453 1.82368E-01
 -1      3454 2.55689E-01
 -1      3455 2.93570E-01
 -1      3456 2.54732E-01
 -1      3457 3.37845E-01
 -1      3458 3.84355E-01
 -1      3459 3.37845E-01
 -1      3460 4.33405E-01
 -1      3461 4.90987E-01
 -1      3462 4.31170E-01
 -1      3463 5.47994E-01
 -1      3464 6.13182E-01
 -1      3465 5.37227E-01
 -1      3466 6.90767E-01
 -1      3467 7.66625E-01
 -1      3468 6.71820E-01
 -1      3469 8.77801E-01
 -1      3470 9.62876E-01
 -1      3471 8.60581E-01
 -1      3472 1.12801E+00
 -1      3473 1.22980E+00
 -1      3474 1.13689E+00
 -1      3475 1.42469E+00
 -1      3476 1.59952E+00
 -1      3477 1.49691E+00
 -1      3478 2.35699E+00
 -1      3479 2.49512E+00
 -1      3480 2.44926E+00
 -1      3481 2.95524E+00
 -1      3482 3.10369E+00
 -1      3483 3.66685E+00
 -1      3484 2.69576E+00
 -1      3485 2.65217E+00
 -1      3486 2.14430E+00
 -1      3487 1.99487E+00
 -1      3488 2.89353E+00
 -1      3489 1.71617E+00
 -1      3490 1.55462E+00
 -1      3491 2.10696E+00
 -1      3492 1.36474E+00
 -1      3493 1.22520E+00
 -1      3494 1.63837E+00
 -1      3495 1.05142E+00
 -1      3496 9.70993E-01
 -1      3497 1.27471E+00
 -1      3498 8.28569E-01
 -1      3499 7.48909E-01
 -1      3500 9.58502E-01
 -1      3501 6.64374E-01
 -1      3502 5.94446E-01
 -1      3503 7.31543E-01
 -1      3504 5.23709E-01
 -1      3505 4.62719E-01
 -1      3506 5.76272E-01
 -1      3507 4.11430E-01
 -1      3508 3.59531E-01
 -1      3509 4.54246E-01
 -1      3510 9.31180E-02
 -1      3511 8.04251E-02
 -1      3512 3.25272E-01
 -1      3513 2.74043E-01
 -1      3514 4.45501E-01
 -1      3515 3.84198E-01
 -1      3516 3.76706E-01
 -1      3517 5.89708E-01
 -1      3518 5.17876E-01
 -1      3519 5.08007E-01
 -1      3520 7.61371E-01
 -1      3521 6.78272E-01
 -1      3522 6.68947E-01
 -1      3523 9.81568E-01
 -1      3524 8.68550E-01
 -1      3525 8.64689E-01
 -1      3526 1.24757E+00
 -1      3527 1.10834E+00
 -1      3528 1.09864E+00
 -1      3529 1.61619E+00
 -1      3530 1.42712E+00
 -1      3531 1.40497E+00
 -1      3532 2.12839E+00
 -1      3533 1.90334E+00
 -1      3534 1.87167E+00
 -1      3535 2.85667E+00
 -1      3536 2.55950E+00
 -1      3537 2.58994E+00
 -1      3538 4.20540E+00
 -1      3539 3.47328E+00
 -1      3540 3.63767E+00
 -1      3541 2.37079E+00
 -1      3542 2.48573E+00
 -1      3543 1.63825E-01
 -1      3544 1.79831E-01
 -1      3545 1.37613E+00
 -1      3546 1.56388E+00
 -1      3547 1.86068E+00
 -1      3548 2.08378E+00
 -1      3549 1.82813E+00
 -1      3550 3.18979E+00
 -1      3551 3.43812E+00
 -1      3552 3.23093E+00
 -1      3553 1.06376E+00
 -1      3554 1.20131E+00
 -1      3555 1.35652E+00
 -1      3556 8.25913E-01
 -1      3557 9.37656E-01
 -1      3558 1.05561E+00
 -1      3559 6.38155E-01
 -1      3560 7.19918E-01
 -1      3561 8.23511E-01
 -1      3562 4.78766E-01
 -1      3563 5.50278E-01
 -1      3564 6.29639E-01
 -1      3565 3.47004E-01
 -1      3566 4.06851E-01
 -1      3567 4.69846E-01
 -1      3568 3.29836E+00
 -1      3569 3.82881E-01
 -1      3570 4.02661E-01
 -1      3571 4.02661E-01
 -1      3572 3.82881E-01
 -1      3573 4.30498E+00
 -1      3574 5.25987E+00
 -1      3575 7.72934E+00
 -1      3576 7.72988E+00
 -1      3577 4.79150E+00
 -1      3578 3.72428E+00
 -1      3579 5.64270E+00
 -1      3580 5.15802E+00
 -1      3581 2.45889E-01
 -1      3582 2.57031E-01
 -1      3583 7.60415E-02
 -1      3584 9.35720E-02
 -1      3585 9.61133E-02
 -1      3586 7.62532E+00
 -1      3587 8.23550E+00
 -1      3588 3.04008E-01
 -1      3589 3.27854E-01
 -1      3590 4.06696E+00
 -1      3591 4.50819E+00
 -1      3592 4.96579E+00
 -1      3593 2.26088E-01
 -1      3594 1.86108E-01
 -1      3595 2.69825E-01
 -1      3596 8.28215E+00
 -1      3597 1.46914E-01
 -1      3598 1.14611E-01
 -1      3599 1.21990E-01
 -1      3600 1.82676E-01
 -1      3601 6.56256E+00
 -1      3602 5.87998E+00
 -1      3603 1.94489E-01
 -1      3604 2.16538E-01
 -1      3605 1.70428E-01
 -1      3606 5.87572E+00
 -1      3607 6.17543E+00
 -1      3608 6.85305E+00
 -1      3609 5.24412E+00
 -1      3610 7.62468E+00
 -1      3611 7.62468E+00
 -1      3612 5.74016E+00
 -1      3613 7.31742E+00
 -1      3614 7.62532E+00
 -1      3615 6.00393E+00
 -1      3616 2.26003E-01
 -1      3617 2.44734E-01
 -1      3618 2.05173E-01
 -1      3619 2.13024E-01
 -1      3620 2.07850E-01
 -1      3621 1.72916E-01
 -1      3622 2.41642E-01
 -1      3623 2.30621E-01
 -1      3624 2.61709E-01
 -1      3625 2.95339E-01
 -1      3626 7.67297E+00
 -1      3627 6.18719E+00
 -1      3628 4.79876E+00
 -1      3629 5.90577E+00
 -1      3630 3.49590E+00
 -1      3631 7.39155E+00
 -1      3632 5.78670E+00
 -1      3633 5.70806E+00
 -1      3634 2.20676E-01
 -1      3635 2.01179E-01
 -1      3636 2.17107E-01
 -1      3637 7.62468E+00
 -1      3638 6.05311E+00
 -1      3639 5.88131E+00
 -1      3640 4.57857E+00
 -1      3641 3.36229E+00
 -1      3642 4.06792E+00
 -1      3643 3.52903E+00
 -1      3644 3.64399E+00
 -1      3645 2.97133E+00
 -1      3646 3.05466E+00
 -1      3647 2.83187E-01
 -1      3648 5.06082E+00
 -1      3649 2.73309E+00
 -1      3650 2.38028E+00
 -1      3651 2.51348E-01
 -1      3652 2.51348E-01
 -1      3653 3.10278E-01
 -1      3654 2.56241E-01
 -1      3655 2.56241E-01
 -1      3656 3.53704E-01
 -1      3657 4.55230E+00
 -1      3658 3.36879E-01
 -1      3659 3.45259E-01
 -1      3660 3.80764E-01
 -1      3661 3.41528E-01
 -1      3662 3.47731E-01
 -1      3663 2.37064E+00
 -1      3664 7.59364E+00
 -1      3665 2.19426E-01
 -1      3666 6.46830E+00
 -1      3667 2.87744E-01
 -1      3668 3.51726E-01
 -1      3669 3.51726E-01
 -1      3670 3.86322E-01
 -1      3671 6.74903E+00
 -1      3672 6.61333E+00
 -1      3673 5.01013E+00
 -1      3674 1.94170E-01
 -1      3675 2.44872E-01
 -1      3676 9.75765E-02
 -1      3677 9.94188E-02
 -1      3678 1.19005E-01
 -1      3679 3.38671E-01
 -1      3680 1.87949E-01
 -1      3681 1.95478E-01
 -1      3682 1.52440E-01
 -1      3683 1.29237E-01
 -1      3684 5.61382E+00
 -1      3685 4.52738E+00
 -1      3686 2.54181E-01
 -1      3687 1.37209E-01
 -1      3688 2.76749E-01
 -1      3689 5.21265E+00
 -1      3690 1.33362E-01
 -1      3691 1.52009E-01
 -1      3692 1.17781E-01
 -1      3693 2.37997E-01
 -1      3694 2.74402E-01
 -1      3695 3.12076E-01
 -1      3696 5.02462E+00
 -1      3697 3.51726E-01
 -1      3698 3.50791E-01
 -1      3699 3.90316E-01
 -1      3700 7.13185E+00
 -1      3701 8.01906E+00
 -1      3702 6.27568E+00
 -1      3703 1.94552E-01
 -1      3704 2.27997E-01
 -1      3705 1.43954E-01
 -1      3706 6.56404E+00
 -1      3707 5.39168E+00
 -1      3708 4.38597E+00
 -1      3709 3.71944E+00
 -1      3710 5.20984E+00
 -1      3711 3.45259E-01
 -1      3712 3.45259E-01
 -1      3713 3.86058E-01
 -1      3714 3.89789E-01
 -1      3715 2.70364E-01
 -1      3716 3.38096E-01
 -1      3717 1.71120E-01
 -1      3718 3.87349E-01
 -1      3719 7.13814E-01
 -1      3720 6.25250E-01
 -1      3721 1.42505E-01
 -1      3722 1.30409E-01
 -1      3723 1.22190E-01
 -1      3724 1.12110E-01
 -1      3725 1.14207E-01
 -1      3726 1.12324E-01
 -1      3727 1.00342E-01
 -1      3728 1.06201E-01
 -1      3729 1.05396E-01
 -1      3730 1.08519E-01
 -1      3731 1.11468E-01
 -1      3732 1.14453E-01
 -1      3733 1.18378E-01
 -1      3734 1.22457E-01
 -1      3735 1.26312E-01
 -1      3736 1.46549E-01
 -1      3737 1.36324E-01
 -1      3738 1.72325E-01
 -1      3739 2.05852E-01
 -1      3740 1.70033E-01
 -1      3741 2.42302E-01
 -1      3742 2.81139E-01
 -1      3743 2.32258E-01
 -1      3744 3.25424E-01
 -1      3745 3.69699E-01
 -1      3746 3.12993E-01
 -1      3747 4.23324E-01
 -1      3748 4.72374E-01
 -1      3749 4.10904E-01
 -1      3750 5.37227E-01
 -1      3751 5.94234E-01
 -1      3752 5.29381E-01
 -1      3753 6.71820E-01
 -1      3754 7.49405E-01
 -1      3755 6.71820E-01
 -1      3756 8.41559E-01
 -1      3757 9.52735E-01
 -1      3758 8.41559E-01
 -1      3759 1.10784E+00
 -1      3760 1.27297E+00
 -1      3761 1.08882E+00
 -1      3762 1.47918E+00
 -1      3763 1.67406E+00
 -1      3764 1.45013E+00
 -1      3765 2.03225E+00
 -1      3766 2.78972E+00
 -1      3767 2.01452E+00
 -1      3768 2.44396E+00
 -1      3769 2.41605E-01
 -1      3770 2.46171E-01
 -1      3771 2.09765E-01
 -1      3772 6.14369E+00
 -1      3773 2.46666E+00
 -1      3774 2.18795E+00
 -1      3775 1.97111E+00
 -1      3776 1.78123E+00
 -1      3777 2.33080E+00
 -1      3778 1.43708E+00
 -1      3779 1.26330E+00
 -1      3780 1.76981E+00
 -1      3781 1.07957E+00
 -1      3782 9.37146E-01
 -1      3783 1.24194E+00
 -1      3784 8.13288E-01
 -1      3785 7.28753E-01
 -1      3786 9.34356E-01
 -1      3787 6.47009E-01
 -1      3788 5.76272E-01
 -1      3789 7.28753E-01
 -1      3790 5.04864E-01
 -1      3791 4.53575E-01
 -1      3792 5.75600E-01
 -1      3793 4.37966E-01
 -1      3794 4.06243E-01
 -1      3795 3.47317E-01
 -1      3796 9.29492E-01
 -1      3797 8.22313E-01
 -1      3798 7.78617E-01
 -1      3799 1.20227E+00
 -1      3800 1.07549E+00
 -1      3801 1.03312E+00
 -1      3802 1.58452E+00
 -1      3803 1.40497E+00
 -1      3804 1.38182E+00
 -1      3805 2.16089E+00
 -1      3806 1.87373E+00
 -1      3807 1.87373E+00
 -1      3808 4.17911E+00
 -1      3809 3.74800E+00
 -1      3810 3.75006E+00
 -1      3811 4.18215E+00
 -1      3812 4.59928E+00
 -1      3813 1.35652E+00
 -1      3814 1.53133E+00
 -1      3815 3.03078E+00
 -1      3816 4.13679E+00
 -1      3817 7.82040E-01
 -1      3818 8.88035E-01
 -1      3819 5.87735E-01
 -1      3820 6.75612E-01
 -1      3821 7.40136E-01
 -1      3822 4.20290E-01
 -1      3823 4.24285E-01
 -1      3824 4.73466E+00
 -1      3825 4.67319E+00
 -1      3826 1.82409E-01
 -1      3827 1.64640E-01
 -1      3828 1.52481E-01
 -1      3829 7.13185E+00
 -1      3830 7.13185E+00
 -1      3831 1.25414E-01
 -1      3832 1.37229E-01
 -1      3833 5.42764E-01
 -1      3834 4.70389E-01
 -1      3835 5.87631E-01
 -1      3836 3.54598E-01
 -1      3837 6.59414E+00
 -1      3838 2.96478E-01
 -1      3839 2.48523E-01
 -1      3840 3.26014E-01
 -1      3841 1.93300E-01
 -1      3842 1.47212E-01
 -1      3843 1.61870E-01
 -1      3844 1.28671E-01
 -1      3845 1.10962E-01
 -1      3846 1.06579E-01
 -1      3847 1.44757E-01
 -1      3848 1.47687E-01
 -1      3849 4.51491E+00
 -1      3850 4.81036E+00
 -1      3851 1.66476E-01
 -1      3852 1.75941E-01
 -1      3853 1.43260E-01
 -1      3854 1.81479E+00
 -1      3855 2.11159E+00
 -1      3856 1.81479E+00
 -1      3857 5.90274E+00
 -1      3858 5.90274E+00
 -1      3859 1.73427E-01
 -1      3860 1.74583E-01
 -1      3861 1.32893E-01
 -1      3862 1.45351E-01
 -1      3863 4.84287E+00
 -1      3864 5.30723E+00
 -1      3865 6.13235E+00
 -1      3866 3.27682E+00
 -1      3867 2.76895E+00
 -1      3868 2.84995E+00
 -1      3869 3.59487E+00
 -1      3870 1.52289E-01
 -1      3871 1.45659E-01
 -1      3872 1.24131E-01
 -1      3873 1.03019E+00
 -1      3874 1.15629E+00
 -1      3875 1.33111E+00
 -1      3876 9.88723E-01
 -1      3877 4.26234E+00
 -1      3878 3.94123E-01
 -1      3879 5.84771E+00
 -1      3880 5.45333E+00
 -1      3881 5.45333E+00
 -1      3882 4.46990E-01
 -1      3883 4.73289E-01
 -1      3884 4.39320E-01
 -1      3885 4.39320E-01
 -1      3886 3.38521E+00
 -1      3887 3.80222E+00
 -1      3888 1.63769E-01
 -1      3889 4.40999E-01
 -1      3890 1.25579E-01
 -1      3891 5.34021E+00
 -1      3892 4.91074E+00
 -1      3893 4.39389E+00
 -1      3894 4.73893E+00
 -1      3895 5.30335E+00
 -1      3896 5.50350E+00
 -1      3897 1.17836E-01
 -1      3898 1.11112E-01
 -1      3899 1.03479E-01
 -1      3900 4.35833E-01
 -1      3901 5.07748E-01
 -1      3902 1.16052E-01
 -1      3903 1.33598E-01
 -1      3904 1.08369E-01
 -1      3905 1.00686E-01
 -1      3906 1.06533E-01
 -1      3907 1.15535E-01
 -1      3908 4.23943E+00
 -1      3909 3.12076E-01
 -1      3910 3.31856E-01
 -1      3911 2.61051E-01
 -1      3912 3.01744E+00
 -1      3913 4.11366E+00
 -1      3914 6.67006E+00
 -1      3915 9.98275E-02
 -1      3916 1.05485E-01
 -1      3917 8.66426E-02
 -1      3918 1.13457E-01
 -1      3919 5.53722E-01
 -1      3920 1.40294E-01
 -1      3921 1.18801E-01
 -1      3922 1.29266E-01
 -1      3923 2.07828E-01
 -1      3924 1.68634E-01
 -1      3925 1.65445E-01
 -1      3926 2.34480E-01
 -1      3927 1.82172E-01
 -1      3928 1.87348E-01
 -1      3929 1.41353E-01
 -1      3930 1.93095E-01
 -1      3931 2.16149E-01
 -1      3932 1.65501E-01
 -1      3933 4.15193E-01
 -1      3934 4.53156E-01
 -1      3935 4.18924E-01
 -1      3936 4.74167E+00
 -1      3937 4.76721E+00
 -1      3938 3.59487E+00
 -1      3939 3.15224E+00
 -1      3940 4.17173E+00
 -1      3941 3.03989E-01
 -1      3942 3.03989E-01
 -1      3943 1.78077E-01
 -1      3944 2.33184E-01
 -1      3945 4.17386E+00
 -1      3946 4.60183E+00
 -1      3947 1.10052E-01
 -1      3948 1.01833E-01
 -1      3949 1.05755E+00
 -1      3950 9.11552E-01
 -1      3951 2.86519E+00
 -1      3952 3.87769E+00
 -1      3953 3.71941E+00
 -1      3954 2.50700E+00
 -1      3955 1.07456E-01
 -1      3956 1.07669E-01
 -1      3957 1.03301E-01
 -1      3958 1.13498E-01
 -1      3959 1.18553E-01
 -1      3960 1.14753E-01
 -1      3961 1.26413E-01
 -1      3962 1.32347E-01
 -1      3963 1.28444E-01
 -1      3964 1.41131E-01
 -1      3965 1.49065E-01
 -1      3966 1.45088E-01
 -1      3967 1.64427E-01
 -1      3968 1.90203E-01
 -1      3969 1.69235E-01
 -1      3970 2.09379E-01
 -1      3971 2.45828E-01
 -1      3972 2.03773E-01
 -1      3973 2.84761E-01
 -1      3974 3.29046E-01
 -1      3975 2.61881E-01
 -1      3976 3.78455E-01
 -1      3977 4.32080E-01
 -1      3978 3.50222E-01
 -1      3979 4.96745E-01
 -1      3980 5.61598E-01
 -1      3981 4.64297E-01
 -1      3982 6.47552E-01
 -1      3983 7.25138E-01
 -1      3984 6.14916E-01
 -1      3985 8.41559E-01
 -1      3986 9.33713E-01
 -1      3987 8.17292E-01
 -1      3988 1.08882E+00
 -1      3989 1.24392E+00
 -1      3990 1.08882E+00
 -1      3991 1.95652E+00
 -1      3992 2.16273E+00
 -1      3993 1.95652E+00
 -1      3994 2.93501E+00
 -1      3995 2.71816E+00
 -1      3996 1.03676E-01
 -1      3997 1.08278E-01
 -1      3998 2.42792E+00
 -1      3999 2.08378E+00
 -1      4000 3.03212E+00
 -1      4001 1.41839E+00
 -1      4002 1.23467E+00
 -1      4003 2.07650E+00
 -1      4004 1.05821E+00
 -1      4005 9.34356E-01
 -1      4006 1.23467E+00
 -1      4007 8.02821E-01
 -1      4008 7.21076E-01
 -1      4009 9.26679E-01
 -1      4010 6.24011E-01
 -1      4011 5.52603E-01
 -1      4012 6.98079E-01
 -1      4013 1.44325E+00
 -1      4014 1.24055E+00
 -1      4015 1.11899E+00
 -1      4016 7.88757E-01
 -1      4017 6.80257E-01
 -1      4018 8.13192E-01
 -1      4019 2.01457E+00
 -1      4020 1.72536E+00
 -1      4021 1.58409E+00
 -1      4022 4.38987E+00
 -1      4023 2.80276E+00
 -1      4024 2.65439E+00
 -1      4025 5.94429E-01
 -1      4026 5.11943E-01
 -1      4027 6.04569E-01
 -1      4028 6.65369E-01
 -1      4029 7.71797E-01
 -1      4030 4.32026E-01
 -1      4031 5.90274E+00
 -1      4032 1.12773E-01
 -1      4033 1.09620E-01
 -1      4034 9.23184E-02
 -1      4035 2.35117E+00
 -1      4036 3.27036E+00
 -1      4037 3.35572E-01
 -1      4038 2.84733E-01
 -1      4039 1.51296E-01
 -1      4040 1.12207E-01
 -1      4041 1.22190E-01
 -1      4042 4.48431E-01
 -1      4043 3.84285E-01
 -1      4044 4.55229E-01
 -1      4045 4.88516E-01
 -1      4046 4.31315E-01
 -1      4047 4.31315E-01
 -1      4048 5.36927E-01
 -1      4049 1.68984E+00
 -1      4050 1.97330E+00
 -1      4051 2.22622E+00
 -1      4052 3.71941E+00
 -1      4053 3.75192E+00
 -1      4054 3.66441E+00
 -1      4055 4.25991E+00
 -1      4056 5.33717E+00
 -1      4057 1.24677E-01
 -1      4058 1.29282E-01
 -1      4059 1.08213E-01
 -1      4060 4.81030E-01
 -1      4061 4.38987E+00
 -1      4062 3.35767E+00
 -1      4063 9.50599E-02
 -1      4064 7.92070E-02
 -1      4065 8.39001E-02
 -1      4066 3.01340E+00
 -1      4067 3.31261E+00
 -1      4068 1.04218E-01
 -1      4069 1.11795E-01
 -1      4070 1.05314E-01
 -1      4071 4.60450E-01
 -1      4072 3.45946E+00
 -1      4073 5.61016E-01
 -1      4074 5.92677E-01
 -1      4075 4.48100E+00
 -1      4076 5.84771E+00
 -1      4077 5.84771E+00
 -1      4078 5.02536E+00
 -1      4079 3.04211E+00
 -1      4080 2.73981E+00
 -1      4081 3.12716E+00
 -1      4082 3.04211E+00
 -1      4083 3.43004E-01
 -1      4084 1.06111E-01
 -1      4085 1.24694E-01
 -1      4086 1.22179E-01
 -1      4087 1.23694E-01
 -1      4088 1.17801E-01
 -1      4089 2.16149E-01
 -1      4090 9.72461E-02
 -1      4091 1.60699E-01
 -1      4092 1.33460E-01
 -1      4093 9.60787E-02
 -1      4094 3.27016E+00
 -1      4095 1.06588E-01
 -1      4096 2.55430E-01
 -1      4097 2.45872E-01
 -1      4098 2.05177E-01
 -1      4099 3.84352E+00
 -1      4100 2.99203E+00
 -1      4101 1.30638E-01
 -1      4102 1.48961E+00
 -1      4103 1.68984E+00
 -1      4104 1.84835E+00
 -1      4105 4.06159E+00
 -1      4106 9.35516E-01
 -1      4107 1.01028E+00
 -1      4108 1.15244E+00
 -1      4109 1.29242E-01
 -1      4110 1.34989E-01
 -1      4111 1.00126E-01
 -1      4112 5.23649E-01
 -1      4113 5.28746E-01
 -1      4114 1.40397E-01
 -1      4115 1.32558E-01
 -1      4116 1.34825E-01
 -1      4117 3.26426E+00
 -1      4118 3.81472E+00
 -1      4119 3.84352E+00
 -1      4120 1.16134E+00
 -1      4121 9.78340E-01
 -1      4122 1.66853E+00
 -1      4123 1.38642E+00
 -1      4124 1.24577E+00
 -1      4125 5.77641E-01
 -1      4126 1.14753E-01
 -1      4127 1.20583E-01
 -1      4128 1.42928E-01
 -1      4129 1.50788E-01
 -1      4130 1.42928E-01
 -1      4131 1.45088E-01
 -1      4132 1.53873E-01
 -1      4133 1.59573E-01
 -1      4134 1.69235E-01
 -1      4135 1.84597E-01
 -1      4136 1.69235E-01
 -1      4137 2.00521E-01
 -1      4138 2.19697E-01
 -1      4139 2.00521E-01
 -1      4140 2.60046E-01
 -1      4141 2.98978E-01
 -1      4142 2.56794E-01
 -1      4143 3.49078E-01
 -1      4144 3.98487E-01
 -1      4145 3.47243E-01
 -1      4146 4.67009E-01
 -1      4147 5.31674E-01
 -1      4148 4.65865E-01
 -1      4149 6.29497E-01
 -1      4150 7.15451E-01
 -1      4151 6.32209E-01
 -1      4152 8.60781E-01
 -1      4153 9.77203E-01
 -1      4154 8.75362E-01
 -1      4155 1.20228E+00
 -1      4156 1.35739E+00
 -1      4157 1.24577E+00
 -1      4158 1.91073E+00
 -1      4159 2.62333E+00
 -1      4160 2.02420E+00
 -1      4161 2.63289E+00
 -1      4162 1.84995E+00
 -1      4163 2.22782E+00
 -1      4164 2.25662E+00
 -1      4165 2.74189E+00
 -1      4166 2.07650E+00
 -1      4167 1.46941E+00
 -1      4168 1.29295E+00
 -1      4169 2.13479E+00
 -1      4170 9.77728E-01
 -1      4171 8.46193E-01
 -1      4172 1.21247E+00
 -1      4173 7.18608E-01
 -1      4174 6.21543E-01
 -1      4175 7.69657E-01
 -1      4176 2.95390E+00
 -1      4177 2.16572E+00
 -1      4178 1.96804E+00
 -1      4179 2.82394E+00
 -1      4180 8.33010E-01
 -1      4181 7.10214E-01
 -1      4182 8.75362E-01
 -1      4183 3.01340E+00
 -1      4184 6.17024E-01
 -1      4185 5.31196E-01
 -1      4186 6.36842E-01
 -1      4187 6.48134E-01
 -1      4188 3.45946E+00
 -1      4189 4.70243E-01
 -1      4190 4.06731E-01
 -1      4191 4.82698E-01
 -1      4192 1.04715E-01
 -1      4193 1.51699E-01
 -1      4194 1.96601E-01
 -1      4195 8.66272E-02
 -1      4196 9.11225E-02
 -1      4197 2.91145E+00
 -1      4198 1.03301E-01
 -1      4199 1.08924E-01
 -1      4200 1.14753E-01
 -1      4201 2.96760E+00
 -1      4202 3.32236E+00
 -1      4203 2.70179E+00
 -1      4204 3.03212E+00
 -1      4205 3.03212E+00
 -1      4206 1.82750E-01
 -1      4207 1.54410E-01
 -1      4208 1.94141E-01
 -1      4209 5.63336E-01
 -1      4210 4.99249E-01
 -1      4211 4.86858E-01
 -1      4212 5.83865E-01
 -1      4213 7.01818E-02
 -1      4214 8.07485E-02
 -1      4215 6.74393E-02
 -1      4216 9.01846E-02
 -1      4217 1.13265E-01
 -1      4218 1.10211E-01
 -1      4219 1.10894E-01
 -1      4220 1.21424E-01
 -1      4221 3.60978E-01
 -1      4222 3.12266E-01
 -1      4223 3.75992E-01
 -1      4224 9.72461E-02
 -1      4225 9.76784E-02
 -1      4226 1.03301E-01
 -1      4227 5.62448E-01
 -1      4228 1.68734E-01
 -1      4229 9.83416E-02
 -1      4230 1.00829E-01
 -1      4231 2.52139E+00
 -1      4232 1.46392E-01
 -1      4233 1.41856E-01
 -1      4234 1.57702E-01
 -1      4235 1.51117E+00
 -1      4236 1.84995E+00
 -1      4237 2.29672E+00
 -1      4238 6.77952E-02
 -1      4239 6.65993E-02
 -1      4240 5.91792E-02
 -1      4241 1.15440E-01
 -1      4242 9.48438E-02
 -1      4243 9.15549E-02
 -1      4244 6.51305E-01
 -1      4245 6.88096E-01
 -1      4246 7.09513E-01
 -1      4247 3.04095E-01
 -1      4248 2.65234E-01
 -1      4249 3.22070E-01
 -1      4250 7.70389E-01
 -1      4251 8.19284E-01
 -1      4252 1.05777E+00
 -1      4253 8.59246E-01
 -1      4254 1.04901E-01
 -1      4255 1.05314E-01
 -1      4256 9.79294E-02
 -1      4257 1.55256E-01
 -1      4258 1.46392E-01
 -1      4259 1.66824E-01
 -1      4260 1.47085E+00
 -1      4261 1.24577E+00
 -1      4262 1.43703E-01
 -1      4263 1.66048E-01
 -1      4264 1.02069E+00
 -1      4265 1.72084E-01
 -1      4266 1.58071E-01
 -1      4267 1.69639E-01
 -1      4268 1.66048E-01
 -1      4269 1.60348E-01
 -1      4270 1.63163E-01
 -1      4271 1.78525E-01
 -1      4272 2.65172E-01
 -1      4273 3.05521E-01
 -1      4274 3.13692E-01
 -1      4275 3.63792E-01
 -1      4276 4.09544E-01
 -1      4277 4.78066E-01
 -1      4278 5.39019E-01
 -1      4279 6.36842E-01
 -1      4280 7.30031E-01
 -1      4281 8.75362E-01
 -1      4282 2.02420E+00
 -1      4283 1.68962E+00
 -1      4284 8.37098E-01
 -1      4285 1.13020E-01
 -1      4286 1.18850E-01
 -1      4287 1.41970E-01
 -1      4288 1.24105E+00
 -1      4289 1.57822E+00
 -1      4290 1.57982E+00
 -1      4291 1.12482E+00
 -1      4292 1.01290E-01
 -1      4293 1.06913E-01
 -1      4294 1.24116E-01
 -1      4295 8.59246E-01
 -1      4296 9.41539E-01
 -1      4297 1.12482E+00
 -1      4298 9.19391E-01
 -1      4299 2.13029E-01
 -1      4300 1.90602E-01
 -1      4301 2.61695E-01
 -1      4302 7.32487E-02
 -1      4303 8.99590E-02
 -1      4304 8.81944E-02
 -1      4305 9.43179E-02
 -1      4306 1.41789E+00
 -1      4307 1.17002E-01
 -1      4308 1.11009E-01
 -1      4309 1.11009E-01
 -1      4310 1.41970E-01
 -1      4311 9.82191E-02
 -1      4312 1.90972E-01
 -1      4313 1.97043E-01
 -1      4314 2.12967E-01
 -1      4315 1.23462E+00
 -1      4316 3.22070E-01
 -1      4317 9.20807E-02
 -1      4318 1.66824E-01
 -1      4319 1.41970E-01
 -1      4320 1.66824E-01
 -1      4321 1.11009E-01
 -1      4322 1.01371E-01
 -1      4323 2.61695E-01
 -1      4324 1.17117E-01
 -1      4325 3.13900E-01
 -3
 9999
